    1C
    1UHash: hPrjhfSF, Date: 03/13/2022, Unit system: MM_TON_S_C         
    1UUSER                                                              
    1UDATE              13.march.2022                                   
    1UTIME              20:31:07                                        
    1UHOST                                                              
    1UPGM               CalculiX                                        
    1UVERSION           Version 2.19                             
    1UCOMPILETIME       Sat Dec 18 23:10:56     2021                    
    1UDIR                                                               
    1UDBN                                                               
    1UMAT    116MNCR5                                                   
    2C                         10119                                     1
 -1      4484 2.49962E+01 5.00000E+01-4.36310E-01
 -1      4485 2.50000E+01 5.00000E+01 1.53076E-15
 -1      4486 2.49962E+01 5.00000E+01 4.36310E-01
 -1      4487 2.49962E+01 0.00000E+00-4.36310E-01
 -1      4488 2.50000E+01 0.00000E+00 1.53076E-15
 -1      4489 2.49962E+01 0.00000E+00 4.36310E-01
 -1      4490 9.99848E+01 0.00000E+00-1.74524E+00
 -1      4491 1.00000E+02 0.00000E+00 6.12303E-15
 -1      4492 9.99848E+01 0.00000E+00 1.74524E+00
 -1      4493 9.99848E+01 5.00000E+01-1.74524E+00
 -1      4494 1.00000E+02 5.00000E+01 6.12303E-15
 -1      4495 9.99848E+01 5.00000E+01 1.74524E+00
 -1      4496 2.49962E+01 4.80000E+01-4.36310E-01
 -1      4497 2.50000E+01 4.80000E+01 1.53076E-15
 -1      4498 2.49962E+01 4.80000E+01 4.36310E-01
 -1      4499 2.49962E+01 4.60000E+01-4.36310E-01
 -1      4500 2.50000E+01 4.60000E+01 1.53076E-15
 -1      4501 2.49962E+01 4.60000E+01 4.36310E-01
 -1      4502 2.49962E+01 4.40000E+01-4.36310E-01
 -1      4503 2.50000E+01 4.40000E+01 1.53076E-15
 -1      4504 2.49962E+01 4.40000E+01 4.36310E-01
 -1      4505 2.49962E+01 4.20000E+01-4.36310E-01
 -1      4506 2.50000E+01 4.20000E+01 1.53076E-15
 -1      4507 2.49962E+01 4.20000E+01 4.36310E-01
 -1      4508 2.49962E+01 4.00000E+01-4.36310E-01
 -1      4509 2.50000E+01 4.00000E+01 1.53076E-15
 -1      4510 2.49962E+01 4.00000E+01 4.36310E-01
 -1      4511 2.49962E+01 3.80000E+01-4.36310E-01
 -1      4512 2.50000E+01 3.80000E+01 1.53076E-15
 -1      4513 2.49962E+01 3.80000E+01 4.36310E-01
 -1      4514 2.49962E+01 3.60000E+01-4.36310E-01
 -1      4515 2.50000E+01 3.60000E+01 1.53076E-15
 -1      4516 2.49962E+01 3.60000E+01 4.36310E-01
 -1      4517 2.49962E+01 3.40000E+01-4.36310E-01
 -1      4518 2.50000E+01 3.40000E+01 1.53076E-15
 -1      4519 2.49962E+01 3.40000E+01 4.36310E-01
 -1      4520 2.49962E+01 3.20000E+01-4.36310E-01
 -1      4521 2.50000E+01 3.20000E+01 1.53076E-15
 -1      4522 2.49962E+01 3.20000E+01 4.36310E-01
 -1      4523 2.49962E+01 3.00000E+01-4.36310E-01
 -1      4524 2.50000E+01 3.00000E+01 1.53076E-15
 -1      4525 2.49962E+01 3.00000E+01 4.36310E-01
 -1      4526 2.49962E+01 2.80000E+01-4.36310E-01
 -1      4527 2.50000E+01 2.80000E+01 1.53076E-15
 -1      4528 2.49962E+01 2.80000E+01 4.36310E-01
 -1      4529 2.49962E+01 2.60000E+01-4.36310E-01
 -1      4530 2.50000E+01 2.60000E+01 1.53076E-15
 -1      4531 2.49962E+01 2.60000E+01 4.36310E-01
 -1      4532 2.49962E+01 2.40000E+01-4.36310E-01
 -1      4533 2.50000E+01 2.40000E+01 1.53076E-15
 -1      4534 2.49962E+01 2.40000E+01 4.36310E-01
 -1      4535 2.49962E+01 2.20000E+01-4.36310E-01
 -1      4536 2.50000E+01 2.20000E+01 1.53076E-15
 -1      4537 2.49962E+01 2.20000E+01 4.36310E-01
 -1      4538 2.49962E+01 2.00000E+01-4.36310E-01
 -1      4539 2.50000E+01 2.00000E+01 1.53076E-15
 -1      4540 2.49962E+01 2.00000E+01 4.36310E-01
 -1      4541 2.49962E+01 1.80000E+01-4.36310E-01
 -1      4542 2.50000E+01 1.80000E+01 1.53076E-15
 -1      4543 2.49962E+01 1.80000E+01 4.36310E-01
 -1      4544 2.49962E+01 1.60000E+01-4.36310E-01
 -1      4545 2.50000E+01 1.60000E+01 1.53076E-15
 -1      4546 2.49962E+01 1.60000E+01 4.36310E-01
 -1      4547 2.49962E+01 1.40000E+01-4.36310E-01
 -1      4548 2.50000E+01 1.40000E+01 1.53076E-15
 -1      4549 2.49962E+01 1.40000E+01 4.36310E-01
 -1      4550 2.49962E+01 1.20000E+01-4.36310E-01
 -1      4551 2.50000E+01 1.20000E+01 1.53076E-15
 -1      4552 2.49962E+01 1.20000E+01 4.36310E-01
 -1      4553 2.49962E+01 1.00000E+01-4.36310E-01
 -1      4554 2.50000E+01 1.00000E+01 1.53076E-15
 -1      4555 2.49962E+01 1.00000E+01 4.36310E-01
 -1      4556 2.49962E+01 8.00000E+00-4.36310E-01
 -1      4557 2.50000E+01 8.00000E+00 1.53076E-15
 -1      4558 2.49962E+01 8.00000E+00 4.36310E-01
 -1      4559 2.49962E+01 6.00000E+00-4.36310E-01
 -1      4560 2.50000E+01 6.00000E+00 1.53076E-15
 -1      4561 2.49962E+01 6.00000E+00 4.36310E-01
 -1      4562 2.49962E+01 4.00000E+00-4.36310E-01
 -1      4563 2.50000E+01 4.00000E+00 1.53076E-15
 -1      4564 2.49962E+01 4.00000E+00 4.36310E-01
 -1      4565 2.49962E+01 2.00000E+00-4.36310E-01
 -1      4566 2.50000E+01 2.00000E+00 1.53076E-15
 -1      4567 2.49962E+01 2.00000E+00 4.36310E-01
 -1      4568 2.70209E+01 0.00000E+00-4.71651E-01
 -1      4569 2.70250E+01 0.00000E+00 1.65475E-15
 -1      4570 2.70209E+01 0.00000E+00 4.71651E-01
 -1      4571 2.89706E+01 0.00000E+00-5.05683E-01
 -1      4572 2.89750E+01 0.00000E+00 1.77415E-15
 -1      4573 2.89706E+01 0.00000E+00 5.05683E-01
 -1      4574 3.09203E+01 0.00000E+00-5.39716E-01
 -1      4575 3.09250E+01 0.00000E+00 1.89355E-15
 -1      4576 3.09203E+01 0.00000E+00 5.39716E-01
 -1      4577 3.29450E+01 0.00000E+00-5.75057E-01
 -1      4578 3.29500E+01 0.00000E+00 2.01754E-15
 -1      4579 3.29450E+01 0.00000E+00 5.75057E-01
 -1      4580 3.48947E+01 0.00000E+00-6.09089E-01
 -1      4581 3.49000E+01 0.00000E+00 2.13694E-15
 -1      4582 3.48947E+01 0.00000E+00 6.09089E-01
 -1      4583 3.68444E+01 0.00000E+00-6.43121E-01
 -1      4584 3.68500E+01 0.00000E+00 2.25634E-15
 -1      4585 3.68444E+01 0.00000E+00 6.43121E-01
 -1      4586 3.88691E+01 0.00000E+00-6.78462E-01
 -1      4587 3.88750E+01 0.00000E+00 2.38033E-15
 -1      4588 3.88691E+01 0.00000E+00 6.78462E-01
 -1      4589 4.08188E+01 0.00000E+00-7.12494E-01
 -1      4590 4.08250E+01 0.00000E+00 2.49973E-15
 -1      4591 4.08188E+01 0.00000E+00 7.12494E-01
 -1      4592 4.27685E+01 0.00000E+00-7.46527E-01
 -1      4593 4.27750E+01 0.00000E+00 2.61913E-15
 -1      4594 4.27685E+01 0.00000E+00 7.46527E-01
 -1      4595 4.47932E+01 0.00000E+00-7.81868E-01
 -1      4596 4.48000E+01 0.00000E+00 2.74312E-15
 -1      4597 4.47932E+01 0.00000E+00 7.81868E-01
 -1      4598 4.67429E+01 0.00000E+00-8.15900E-01
 -1      4599 4.67500E+01 0.00000E+00 2.86252E-15
 -1      4600 4.67429E+01 0.00000E+00 8.15900E-01
 -1      4601 4.86926E+01 0.00000E+00-8.49932E-01
 -1      4602 4.87000E+01 0.00000E+00 2.98192E-15
 -1      4603 4.86926E+01 0.00000E+00 8.49932E-01
 -1      4604 5.07173E+01 0.00000E+00-8.85273E-01
 -1      4605 5.07250E+01 0.00000E+00 3.10591E-15
 -1      4606 5.07173E+01 0.00000E+00 8.85273E-01
 -1      4607 5.26670E+01 0.00000E+00-9.19306E-01
 -1      4608 5.26750E+01 0.00000E+00 3.22531E-15
 -1      4609 5.26670E+01 0.00000E+00 9.19306E-01
 -1      4610 5.46167E+01 0.00000E+00-9.53338E-01
 -1      4611 5.46250E+01 0.00000E+00 3.34471E-15
 -1      4612 5.46167E+01 0.00000E+00 9.53338E-01
 -1      4613 5.66414E+01 0.00000E+00-9.88679E-01
 -1      4614 5.66500E+01 0.00000E+00 3.46870E-15
 -1      4615 5.66414E+01 0.00000E+00 9.88679E-01
 -1      4616 5.85911E+01 0.00000E+00-1.02271E+00
 -1      4617 5.86000E+01 0.00000E+00 3.58810E-15
 -1      4618 5.85911E+01 0.00000E+00 1.02271E+00
 -1      4619 6.05408E+01 0.00000E+00-1.05674E+00
 -1      4620 6.05500E+01 0.00000E+00 3.70750E-15
 -1      4621 6.05408E+01 0.00000E+00 1.05674E+00
 -1      4622 6.24905E+01 0.00000E+00-1.09078E+00
 -1      4623 6.25000E+01 0.00000E+00 3.82689E-15
 -1      4624 6.24905E+01 0.00000E+00 1.09078E+00
 -1      4625 6.45152E+01 0.00000E+00-1.12612E+00
 -1      4626 6.45250E+01 0.00000E+00 3.95089E-15
 -1      4627 6.45152E+01 0.00000E+00 1.12612E+00
 -1      4628 6.64649E+01 0.00000E+00-1.16015E+00
 -1      4629 6.64750E+01 0.00000E+00 4.07029E-15
 -1      4630 6.64649E+01 0.00000E+00 1.16015E+00
 -1      4631 6.84146E+01 0.00000E+00-1.19418E+00
 -1      4632 6.84250E+01 0.00000E+00 4.18968E-15
 -1      4633 6.84146E+01 0.00000E+00 1.19418E+00
 -1      4634 7.04393E+01 0.00000E+00-1.22952E+00
 -1      4635 7.04500E+01 0.00000E+00 4.31368E-15
 -1      4636 7.04393E+01 0.00000E+00 1.22952E+00
 -1      4637 7.23890E+01 0.00000E+00-1.26355E+00
 -1      4638 7.24000E+01 0.00000E+00 4.43307E-15
 -1      4639 7.23890E+01 0.00000E+00 1.26355E+00
 -1      4640 7.43387E+01 0.00000E+00-1.29759E+00
 -1      4641 7.43500E+01 0.00000E+00 4.55247E-15
 -1      4642 7.43387E+01 0.00000E+00 1.29759E+00
 -1      4643 7.63634E+01 0.00000E+00-1.33293E+00
 -1      4644 7.63750E+01 0.00000E+00 4.67647E-15
 -1      4645 7.63634E+01 0.00000E+00 1.33293E+00
 -1      4646 7.83131E+01 0.00000E+00-1.36696E+00
 -1      4647 7.83250E+01 0.00000E+00 4.79586E-15
 -1      4648 7.83131E+01 0.00000E+00 1.36696E+00
 -1      4649 8.02628E+01 0.00000E+00-1.40099E+00
 -1      4650 8.02750E+01 0.00000E+00 4.91526E-15
 -1      4651 8.02628E+01 0.00000E+00 1.40099E+00
 -1      4652 8.22875E+01 0.00000E+00-1.43633E+00
 -1      4653 8.23000E+01 0.00000E+00 5.03926E-15
 -1      4654 8.22875E+01 0.00000E+00 1.43633E+00
 -1      4655 8.42372E+01 0.00000E+00-1.47037E+00
 -1      4656 8.42500E+01 0.00000E+00 5.15865E-15
 -1      4657 8.42372E+01 0.00000E+00 1.47037E+00
 -1      4658 8.61869E+01 0.00000E+00-1.50440E+00
 -1      4659 8.62000E+01 0.00000E+00 5.27805E-15
 -1      4660 8.61869E+01 0.00000E+00 1.50440E+00
 -1      4661 8.82116E+01 0.00000E+00-1.53974E+00
 -1      4662 8.82250E+01 0.00000E+00 5.40204E-15
 -1      4663 8.82116E+01 0.00000E+00 1.53974E+00
 -1      4664 9.01613E+01 0.00000E+00-1.57377E+00
 -1      4665 9.01750E+01 0.00000E+00 5.52144E-15
 -1      4666 9.01613E+01 0.00000E+00 1.57377E+00
 -1      4667 9.21110E+01 0.00000E+00-1.60780E+00
 -1      4668 9.21250E+01 0.00000E+00 5.64084E-15
 -1      4669 9.21110E+01 0.00000E+00 1.60780E+00
 -1      4670 9.41357E+01 0.00000E+00-1.64314E+00
 -1      4671 9.41500E+01 0.00000E+00 5.76483E-15
 -1      4672 9.41357E+01 0.00000E+00 1.64314E+00
 -1      4673 9.60854E+01 0.00000E+00-1.67718E+00
 -1      4674 9.61000E+01 0.00000E+00 5.88423E-15
 -1      4675 9.60854E+01 0.00000E+00 1.67718E+00
 -1      4676 9.80351E+01 0.00000E+00-1.71121E+00
 -1      4677 9.80500E+01 0.00000E+00 6.00363E-15
 -1      4678 9.80351E+01 0.00000E+00 1.71121E+00
 -1      4679 9.99848E+01 2.00000E+00-1.74524E+00
 -1      4680 1.00000E+02 2.00000E+00 6.12303E-15
 -1      4681 9.99848E+01 2.00000E+00 1.74524E+00
 -1      4682 9.99848E+01 4.00000E+00-1.74524E+00
 -1      4683 1.00000E+02 4.00000E+00 6.12303E-15
 -1      4684 9.99848E+01 4.00000E+00 1.74524E+00
 -1      4685 9.99848E+01 6.00000E+00-1.74524E+00
 -1      4686 1.00000E+02 6.00000E+00 6.12303E-15
 -1      4687 9.99848E+01 6.00000E+00 1.74524E+00
 -1      4688 9.99848E+01 8.00000E+00-1.74524E+00
 -1      4689 1.00000E+02 8.00000E+00 6.12303E-15
 -1      4690 9.99848E+01 8.00000E+00 1.74524E+00
 -1      4691 9.99848E+01 1.00000E+01-1.74524E+00
 -1      4692 1.00000E+02 1.00000E+01 6.12303E-15
 -1      4693 9.99848E+01 1.00000E+01 1.74524E+00
 -1      4694 9.99848E+01 1.20000E+01-1.74524E+00
 -1      4695 1.00000E+02 1.20000E+01 6.12303E-15
 -1      4696 9.99848E+01 1.20000E+01 1.74524E+00
 -1      4697 9.99848E+01 1.40000E+01-1.74524E+00
 -1      4698 1.00000E+02 1.40000E+01 6.12303E-15
 -1      4699 9.99848E+01 1.40000E+01 1.74524E+00
 -1      4700 9.99848E+01 1.60000E+01-1.74524E+00
 -1      4701 1.00000E+02 1.60000E+01 6.12303E-15
 -1      4702 9.99848E+01 1.60000E+01 1.74524E+00
 -1      4703 9.99848E+01 1.80000E+01-1.74524E+00
 -1      4704 1.00000E+02 1.80000E+01 6.12303E-15
 -1      4705 9.99848E+01 1.80000E+01 1.74524E+00
 -1      4706 9.99848E+01 2.00000E+01-1.74524E+00
 -1      4707 1.00000E+02 2.00000E+01 6.12303E-15
 -1      4708 9.99848E+01 2.00000E+01 1.74524E+00
 -1      4709 9.99848E+01 2.20000E+01-1.74524E+00
 -1      4710 1.00000E+02 2.20000E+01 6.12303E-15
 -1      4711 9.99848E+01 2.20000E+01 1.74524E+00
 -1      4712 9.99848E+01 2.40000E+01-1.74524E+00
 -1      4713 1.00000E+02 2.40000E+01 6.12303E-15
 -1      4714 9.99848E+01 2.40000E+01 1.74524E+00
 -1      4715 9.99848E+01 2.60000E+01-1.74524E+00
 -1      4716 1.00000E+02 2.60000E+01 6.12303E-15
 -1      4717 9.99848E+01 2.60000E+01 1.74524E+00
 -1      4718 9.99848E+01 2.80000E+01-1.74524E+00
 -1      4719 1.00000E+02 2.80000E+01 6.12303E-15
 -1      4720 9.99848E+01 2.80000E+01 1.74524E+00
 -1      4721 9.99848E+01 3.00000E+01-1.74524E+00
 -1      4722 1.00000E+02 3.00000E+01 6.12303E-15
 -1      4723 9.99848E+01 3.00000E+01 1.74524E+00
 -1      4724 9.99848E+01 3.20000E+01-1.74524E+00
 -1      4725 1.00000E+02 3.20000E+01 6.12303E-15
 -1      4726 9.99848E+01 3.20000E+01 1.74524E+00
 -1      4727 9.99848E+01 3.40000E+01-1.74524E+00
 -1      4728 1.00000E+02 3.40000E+01 6.12303E-15
 -1      4729 9.99848E+01 3.40000E+01 1.74524E+00
 -1      4730 9.99848E+01 3.60000E+01-1.74524E+00
 -1      4731 1.00000E+02 3.60000E+01 6.12303E-15
 -1      4732 9.99848E+01 3.60000E+01 1.74524E+00
 -1      4733 9.99848E+01 3.80000E+01-1.74524E+00
 -1      4734 1.00000E+02 3.80000E+01 6.12303E-15
 -1      4735 9.99848E+01 3.80000E+01 1.74524E+00
 -1      4736 9.99848E+01 4.00000E+01-1.74524E+00
 -1      4737 1.00000E+02 4.00000E+01 6.12303E-15
 -1      4738 9.99848E+01 4.00000E+01 1.74524E+00
 -1      4739 9.99848E+01 4.20000E+01-1.74524E+00
 -1      4740 1.00000E+02 4.20000E+01 6.12303E-15
 -1      4741 9.99848E+01 4.20000E+01 1.74524E+00
 -1      4742 9.99848E+01 4.40000E+01-1.74524E+00
 -1      4743 1.00000E+02 4.40000E+01 6.12303E-15
 -1      4744 9.99848E+01 4.40000E+01 1.74524E+00
 -1      4745 9.99848E+01 4.60000E+01-1.74524E+00
 -1      4746 1.00000E+02 4.60000E+01 6.12303E-15
 -1      4747 9.99848E+01 4.60000E+01 1.74524E+00
 -1      4748 9.99848E+01 4.80000E+01-1.74524E+00
 -1      4749 1.00000E+02 4.80000E+01 6.12303E-15
 -1      4750 9.99848E+01 4.80000E+01 1.74524E+00
 -1      4751 2.70209E+01 5.00000E+01-4.71651E-01
 -1      4752 2.70250E+01 5.00000E+01 1.65475E-15
 -1      4753 2.70209E+01 5.00000E+01 4.71651E-01
 -1      4754 2.89706E+01 5.00000E+01-5.05683E-01
 -1      4755 2.89750E+01 5.00000E+01 1.77415E-15
 -1      4756 2.89706E+01 5.00000E+01 5.05683E-01
 -1      4757 3.09203E+01 5.00000E+01-5.39716E-01
 -1      4758 3.09250E+01 5.00000E+01 1.89355E-15
 -1      4759 3.09203E+01 5.00000E+01 5.39716E-01
 -1      4760 3.29450E+01 5.00000E+01-5.75057E-01
 -1      4761 3.29500E+01 5.00000E+01 2.01754E-15
 -1      4762 3.29450E+01 5.00000E+01 5.75057E-01
 -1      4763 3.48947E+01 5.00000E+01-6.09089E-01
 -1      4764 3.49000E+01 5.00000E+01 2.13694E-15
 -1      4765 3.48947E+01 5.00000E+01 6.09089E-01
 -1      4766 3.68444E+01 5.00000E+01-6.43121E-01
 -1      4767 3.68500E+01 5.00000E+01 2.25634E-15
 -1      4768 3.68444E+01 5.00000E+01 6.43121E-01
 -1      4769 3.88691E+01 5.00000E+01-6.78462E-01
 -1      4770 3.88750E+01 5.00000E+01 2.38033E-15
 -1      4771 3.88691E+01 5.00000E+01 6.78462E-01
 -1      4772 4.08188E+01 5.00000E+01-7.12494E-01
 -1      4773 4.08250E+01 5.00000E+01 2.49973E-15
 -1      4774 4.08188E+01 5.00000E+01 7.12494E-01
 -1      4775 4.27685E+01 5.00000E+01-7.46527E-01
 -1      4776 4.27750E+01 5.00000E+01 2.61913E-15
 -1      4777 4.27685E+01 5.00000E+01 7.46527E-01
 -1      4778 4.47932E+01 5.00000E+01-7.81868E-01
 -1      4779 4.48000E+01 5.00000E+01 2.74312E-15
 -1      4780 4.47932E+01 5.00000E+01 7.81868E-01
 -1      4781 4.67429E+01 5.00000E+01-8.15900E-01
 -1      4782 4.67500E+01 5.00000E+01 2.86252E-15
 -1      4783 4.67429E+01 5.00000E+01 8.15900E-01
 -1      4784 4.86926E+01 5.00000E+01-8.49932E-01
 -1      4785 4.87000E+01 5.00000E+01 2.98192E-15
 -1      4786 4.86926E+01 5.00000E+01 8.49932E-01
 -1      4787 5.07173E+01 5.00000E+01-8.85273E-01
 -1      4788 5.07250E+01 5.00000E+01 3.10591E-15
 -1      4789 5.07173E+01 5.00000E+01 8.85273E-01
 -1      4790 5.26670E+01 5.00000E+01-9.19306E-01
 -1      4791 5.26750E+01 5.00000E+01 3.22531E-15
 -1      4792 5.26670E+01 5.00000E+01 9.19306E-01
 -1      4793 5.46167E+01 5.00000E+01-9.53338E-01
 -1      4794 5.46250E+01 5.00000E+01 3.34471E-15
 -1      4795 5.46167E+01 5.00000E+01 9.53338E-01
 -1      4796 5.66414E+01 5.00000E+01-9.88679E-01
 -1      4797 5.66500E+01 5.00000E+01 3.46870E-15
 -1      4798 5.66414E+01 5.00000E+01 9.88679E-01
 -1      4799 5.85911E+01 5.00000E+01-1.02271E+00
 -1      4800 5.86000E+01 5.00000E+01 3.58810E-15
 -1      4801 5.85911E+01 5.00000E+01 1.02271E+00
 -1      4802 6.05408E+01 5.00000E+01-1.05674E+00
 -1      4803 6.05500E+01 5.00000E+01 3.70750E-15
 -1      4804 6.05408E+01 5.00000E+01 1.05674E+00
 -1      4805 6.24905E+01 5.00000E+01-1.09078E+00
 -1      4806 6.25000E+01 5.00000E+01 3.82689E-15
 -1      4807 6.24905E+01 5.00000E+01 1.09078E+00
 -1      4808 6.45152E+01 5.00000E+01-1.12612E+00
 -1      4809 6.45250E+01 5.00000E+01 3.95089E-15
 -1      4810 6.45152E+01 5.00000E+01 1.12612E+00
 -1      4811 6.64649E+01 5.00000E+01-1.16015E+00
 -1      4812 6.64750E+01 5.00000E+01 4.07029E-15
 -1      4813 6.64649E+01 5.00000E+01 1.16015E+00
 -1      4814 6.84146E+01 5.00000E+01-1.19418E+00
 -1      4815 6.84250E+01 5.00000E+01 4.18968E-15
 -1      4816 6.84146E+01 5.00000E+01 1.19418E+00
 -1      4817 7.04393E+01 5.00000E+01-1.22952E+00
 -1      4818 7.04500E+01 5.00000E+01 4.31368E-15
 -1      4819 7.04393E+01 5.00000E+01 1.22952E+00
 -1      4820 7.23890E+01 5.00000E+01-1.26355E+00
 -1      4821 7.24000E+01 5.00000E+01 4.43307E-15
 -1      4822 7.23890E+01 5.00000E+01 1.26355E+00
 -1      4823 7.43387E+01 5.00000E+01-1.29759E+00
 -1      4824 7.43500E+01 5.00000E+01 4.55247E-15
 -1      4825 7.43387E+01 5.00000E+01 1.29759E+00
 -1      4826 7.63634E+01 5.00000E+01-1.33293E+00
 -1      4827 7.63750E+01 5.00000E+01 4.67647E-15
 -1      4828 7.63634E+01 5.00000E+01 1.33293E+00
 -1      4829 7.83131E+01 5.00000E+01-1.36696E+00
 -1      4830 7.83250E+01 5.00000E+01 4.79586E-15
 -1      4831 7.83131E+01 5.00000E+01 1.36696E+00
 -1      4832 8.02628E+01 5.00000E+01-1.40099E+00
 -1      4833 8.02750E+01 5.00000E+01 4.91526E-15
 -1      4834 8.02628E+01 5.00000E+01 1.40099E+00
 -1      4835 8.22875E+01 5.00000E+01-1.43633E+00
 -1      4836 8.23000E+01 5.00000E+01 5.03926E-15
 -1      4837 8.22875E+01 5.00000E+01 1.43633E+00
 -1      4838 8.42372E+01 5.00000E+01-1.47037E+00
 -1      4839 8.42500E+01 5.00000E+01 5.15865E-15
 -1      4840 8.42372E+01 5.00000E+01 1.47037E+00
 -1      4841 8.61869E+01 5.00000E+01-1.50440E+00
 -1      4842 8.62000E+01 5.00000E+01 5.27805E-15
 -1      4843 8.61869E+01 5.00000E+01 1.50440E+00
 -1      4844 8.82116E+01 5.00000E+01-1.53974E+00
 -1      4845 8.82250E+01 5.00000E+01 5.40204E-15
 -1      4846 8.82116E+01 5.00000E+01 1.53974E+00
 -1      4847 9.01613E+01 5.00000E+01-1.57377E+00
 -1      4848 9.01750E+01 5.00000E+01 5.52144E-15
 -1      4849 9.01613E+01 5.00000E+01 1.57377E+00
 -1      4850 9.21110E+01 5.00000E+01-1.60780E+00
 -1      4851 9.21250E+01 5.00000E+01 5.64084E-15
 -1      4852 9.21110E+01 5.00000E+01 1.60780E+00
 -1      4853 9.41357E+01 5.00000E+01-1.64314E+00
 -1      4854 9.41500E+01 5.00000E+01 5.76483E-15
 -1      4855 9.41357E+01 5.00000E+01 1.64314E+00
 -1      4856 9.60854E+01 5.00000E+01-1.67718E+00
 -1      4857 9.61000E+01 5.00000E+01 5.88423E-15
 -1      4858 9.60854E+01 5.00000E+01 1.67718E+00
 -1      4859 9.80351E+01 5.00000E+01-1.71121E+00
 -1      4860 9.80500E+01 5.00000E+01 6.00363E-15
 -1      4861 9.80351E+01 5.00000E+01 1.71121E+00
 -1      4862 2.66602E+01 4.73065E+01-4.65355E-01
 -1      4863 2.66642E+01 4.73065E+01 1.63266E-15
 -1      4864 2.66602E+01 4.73065E+01 4.65355E-01
 -1      4865 2.67876E+01 4.31423E+01-4.67580E-01
 -1      4866 2.67917E+01 4.31423E+01 1.64047E-15
 -1      4867 2.67876E+01 4.31423E+01 4.67580E-01
 -1      4868 2.67844E+01 3.90460E+01-4.67523E-01
 -1      4869 2.67884E+01 3.90460E+01 1.64026E-15
 -1      4870 2.67844E+01 3.90460E+01 4.67523E-01
 -1      4871 2.67562E+01 3.50078E+01-4.67032E-01
 -1      4872 2.67603E+01 3.50078E+01 1.63854E-15
 -1      4873 2.67562E+01 3.50078E+01 4.67032E-01
 -1      4874 2.67326E+01 3.09967E+01-4.66620E-01
 -1      4875 2.67367E+01 3.09967E+01 1.63710E-15
 -1      4876 2.67326E+01 3.09967E+01 4.66620E-01
 -1      4877 2.67258E+01 2.69963E+01-4.66500E-01
 -1      4878 2.67299E+01 2.69963E+01 1.63668E-15
 -1      4879 2.67258E+01 2.69963E+01 4.66500E-01
 -1      4880 2.67265E+01 2.29990E+01-4.66513E-01
 -1      4881 2.67306E+01 2.29990E+01 1.63672E-15
 -1      4882 2.67265E+01 2.29990E+01 4.66513E-01
 -1      4883 2.67269E+01 1.90027E+01-4.66520E-01
 -1      4884 2.67310E+01 1.90027E+01 1.63675E-15
 -1      4885 2.67269E+01 1.90027E+01 4.66520E-01
 -1      4886 2.67225E+01 1.50142E+01-4.66443E-01
 -1      4887 2.67266E+01 1.50142E+01 1.63648E-15
 -1      4888 2.67225E+01 1.50142E+01 4.66443E-01
 -1      4889 2.67317E+01 1.10366E+01-4.66603E-01
 -1      4890 2.67358E+01 1.10366E+01 1.63704E-15
 -1      4891 2.67317E+01 1.10366E+01 4.66603E-01
 -1      4892 2.67668E+01 7.08835E+00-4.67216E-01
 -1      4893 2.67709E+01 7.08835E+00 1.63919E-15
 -1      4894 2.67668E+01 7.08835E+00 4.67216E-01
 -1      4895 2.68284E+01 3.22563E+00-4.68292E-01
 -1      4896 2.68325E+01 3.22563E+00 1.64296E-15
 -1      4897 2.68284E+01 3.22563E+00 4.68292E-01
 -1      4898 2.69357E+01 1.46196E+00-4.70165E-01
 -1      4899 2.69398E+01 1.46196E+00 1.64953E-15
 -1      4900 2.69357E+01 1.46196E+00 4.70165E-01
 -1      4901 3.01874E+01 1.48454E+00-5.26922E-01
 -1      4902 3.01920E+01 1.48454E+00 1.84866E-15
 -1      4903 3.01874E+01 1.48454E+00 5.26922E-01
 -1      4904 3.38975E+01 1.68772E+00-5.91684E-01
 -1      4905 3.39027E+01 1.68772E+00 2.07587E-15
 -1      4906 3.38975E+01 1.68772E+00 5.91684E-01
 -1      4907 3.78348E+01 1.75892E+00-6.60409E-01
 -1      4908 3.78406E+01 1.75892E+00 2.31699E-15
 -1      4909 3.78348E+01 1.75892E+00 6.60409E-01
 -1      4910 4.18005E+01 1.73916E+00-7.29630E-01
 -1      4911 4.18069E+01 1.73916E+00 2.55985E-15
 -1      4912 4.18005E+01 1.73916E+00 7.29630E-01
 -1      4913 4.57626E+01 1.73002E+00-7.98790E-01
 -1      4914 4.57696E+01 1.73002E+00 2.80249E-15
 -1      4915 4.57626E+01 1.73002E+00 7.98790E-01
 -1      4916 4.97070E+01 1.72789E+00-8.67638E-01
 -1      4917 4.97145E+01 1.72789E+00 3.04404E-15
 -1      4918 4.97070E+01 1.72789E+00 8.67638E-01
 -1      4919 5.36508E+01 1.73278E+00-9.36478E-01
 -1      4920 5.36590E+01 1.73278E+00 3.28556E-15
 -1      4921 5.36508E+01 1.73278E+00 9.36478E-01
 -1      4922 5.76019E+01 1.73331E+00-1.00544E+00
 -1      4923 5.76106E+01 1.73331E+00 3.52752E-15
 -1      4924 5.76019E+01 1.73331E+00 1.00544E+00
 -1      4925 6.15303E+01 1.73359E+00-1.07402E+00
 -1      4926 6.15396E+01 1.73359E+00 3.76809E-15
 -1      4927 6.15303E+01 1.73359E+00 1.07402E+00
 -1      4928 6.54817E+01 1.73354E+00-1.14299E+00
 -1      4929 6.54917E+01 1.73354E+00 4.01008E-15
 -1      4930 6.54817E+01 1.73354E+00 1.14299E+00
 -1      4931 6.94279E+01 1.73009E+00-1.21187E+00
 -1      4932 6.94385E+01 1.73009E+00 4.25174E-15
 -1      4933 6.94279E+01 1.73009E+00 1.21187E+00
 -1      4934 7.33770E+01 1.73685E+00-1.28080E+00
 -1      4935 7.33882E+01 1.73685E+00 4.49358E-15
 -1      4936 7.33770E+01 1.73685E+00 1.28080E+00
 -1      4937 7.73390E+01 1.74557E+00-1.34996E+00
 -1      4938 7.73508E+01 1.74557E+00 4.73621E-15
 -1      4939 7.73390E+01 1.74557E+00 1.34996E+00
 -1      4940 8.12944E+01 1.75344E+00-1.41900E+00
 -1      4941 8.13067E+01 1.75344E+00 4.97844E-15
 -1      4942 8.12944E+01 1.75344E+00 1.41900E+00
 -1      4943 8.52399E+01 1.75157E+00-1.48787E+00
 -1      4944 8.52529E+01 1.75157E+00 5.22006E-15
 -1      4945 8.52399E+01 1.75157E+00 1.48787E+00
 -1      4946 8.91496E+01 1.66549E+00-1.55611E+00
 -1      4947 8.91632E+01 1.66549E+00 5.45949E-15
 -1      4948 8.91496E+01 1.66549E+00 1.55611E+00
 -1      4949 9.31061E+01 1.71732E+00-1.62517E+00
 -1      4950 9.31203E+01 1.71732E+00 5.70179E-15
 -1      4951 9.31061E+01 1.71732E+00 1.62517E+00
 -1      4952 9.72496E+01 1.78302E+00-1.69750E+00
 -1      4953 9.72645E+01 1.78302E+00 5.95553E-15
 -1      4954 9.72496E+01 1.78302E+00 1.69750E+00
 -1      4955 9.82871E+01 3.32133E+00-1.71561E+00
 -1      4956 9.83021E+01 3.32133E+00 6.01907E-15
 -1      4957 9.82871E+01 3.32133E+00 1.71561E+00
 -1      4958 9.82180E+01 7.09313E+00-1.71440E+00
 -1      4959 9.82330E+01 7.09313E+00 6.01484E-15
 -1      4960 9.82180E+01 7.09313E+00 1.71440E+00
 -1      4961 9.82676E+01 1.10757E+01-1.71527E+00
 -1      4962 9.82825E+01 1.10757E+01 6.01787E-15
 -1      4963 9.82676E+01 1.10757E+01 1.71527E+00
 -1      4964 9.82505E+01 1.50304E+01-1.71497E+00
 -1      4965 9.82654E+01 1.50304E+01 6.01682E-15
 -1      4966 9.82505E+01 1.50304E+01 1.71497E+00
 -1      4967 9.82429E+01 1.90037E+01-1.71484E+00
 -1      4968 9.82579E+01 1.90037E+01 6.01636E-15
 -1      4969 9.82429E+01 1.90037E+01 1.71484E+00
 -1      4970 9.82454E+01 2.29974E+01-1.71488E+00
 -1      4971 9.82603E+01 2.29974E+01 6.01651E-15
 -1      4972 9.82454E+01 2.29974E+01 1.71488E+00
 -1      4973 9.82478E+01 2.69988E+01-1.71492E+00
 -1      4974 9.82627E+01 2.69988E+01 6.01666E-15
 -1      4975 9.82478E+01 2.69988E+01 1.71492E+00
 -1      4976 9.82495E+01 3.09972E+01-1.71495E+00
 -1      4977 9.82644E+01 3.09972E+01 6.01676E-15
 -1      4978 9.82495E+01 3.09972E+01 1.71495E+00
 -1      4979 9.82586E+01 3.49947E+01-1.71511E+00
 -1      4980 9.82735E+01 3.49947E+01 6.01732E-15
 -1      4981 9.82586E+01 3.49947E+01 1.71511E+00
 -1      4982 9.82597E+01 3.90144E+01-1.71513E+00
 -1      4983 9.82747E+01 3.90144E+01 6.01739E-15
 -1      4984 9.82597E+01 3.90144E+01 1.71513E+00
 -1      4985 9.82049E+01 4.30836E+01-1.71417E+00
 -1      4986 9.82199E+01 4.30836E+01 6.01404E-15
 -1      4987 9.82049E+01 4.30836E+01 1.71417E+00
 -1      4988 9.83898E+01 4.70007E+01-1.71740E+00
 -1      4989 9.84048E+01 4.70007E+01 6.02536E-15
 -1      4990 9.83898E+01 4.70007E+01 1.71740E+00
 -1      4991 9.86802E+01 4.86630E+01-1.72247E+00
 -1      4992 9.86953E+01 4.86630E+01 6.04314E-15
 -1      4993 9.86802E+01 4.86630E+01 1.72247E+00
 -1      4994 2.81657E+01 4.83754E+01-4.91634E-01
 -1      4995 2.81700E+01 4.83754E+01 1.72486E-15
 -1      4996 2.81657E+01 4.83754E+01 4.91634E-01
 -1      4997 2.98734E+01 4.81118E+01-5.21442E-01
 -1      4998 2.98779E+01 4.81118E+01 1.82944E-15
 -1      4999 2.98734E+01 4.81118E+01 5.21442E-01
 -1      5000 3.17873E+01 4.80620E+01-5.54850E-01
 -1      5001 3.17922E+01 4.80620E+01 1.94665E-15
 -1      5002 3.17873E+01 4.80620E+01 5.54850E-01
 -1      5003 3.37874E+01 4.81220E+01-5.89761E-01
 -1      5004 3.37926E+01 4.81220E+01 2.06913E-15
 -1      5005 3.37874E+01 4.81220E+01 5.89761E-01
 -1      5006 3.57679E+01 4.81494E+01-6.24331E-01
 -1      5007 3.57733E+01 4.81494E+01 2.19041E-15
 -1      5008 3.57679E+01 4.81494E+01 6.24331E-01
 -1      5009 3.77512E+01 4.81699E+01-6.58949E-01
 -1      5010 3.77569E+01 4.81699E+01 2.31187E-15
 -1      5011 3.77512E+01 4.81699E+01 6.58949E-01
 -1      5012 3.97340E+01 4.81768E+01-6.93560E-01
 -1      5013 3.97401E+01 4.81768E+01 2.43330E-15
 -1      5014 3.97340E+01 4.81768E+01 6.93560E-01
 -1      5015 4.17073E+01 4.81838E+01-7.28003E-01
 -1      5016 4.17136E+01 4.81838E+01 2.55414E-15
 -1      5017 4.17073E+01 4.81838E+01 7.28003E-01
 -1      5018 4.36868E+01 4.81915E+01-7.62556E-01
 -1      5019 4.36935E+01 4.81915E+01 2.67537E-15
 -1      5020 4.36868E+01 4.81915E+01 7.62556E-01
 -1      5021 4.56664E+01 4.81891E+01-7.97110E-01
 -1      5022 4.56734E+01 4.81891E+01 2.79660E-15
 -1      5023 4.56664E+01 4.81891E+01 7.97110E-01
 -1      5024 4.76363E+01 4.81891E+01-8.31495E-01
 -1      5025 4.76436E+01 4.81891E+01 2.91723E-15
 -1      5026 4.76363E+01 4.81891E+01 8.31495E-01
 -1      5027 4.96128E+01 4.81921E+01-8.65995E-01
 -1      5028 4.96204E+01 4.81921E+01 3.03827E-15
 -1      5029 4.96128E+01 4.81921E+01 8.65995E-01
 -1      5030 5.15899E+01 4.81873E+01-9.00505E-01
 -1      5031 5.15977E+01 4.81873E+01 3.15935E-15
 -1      5032 5.15899E+01 4.81873E+01 9.00505E-01
 -1      5033 5.35580E+01 4.81866E+01-9.34859E-01
 -1      5034 5.35662E+01 4.81866E+01 3.27987E-15
 -1      5035 5.35580E+01 4.81866E+01 9.34859E-01
 -1      5036 5.55332E+01 4.81900E+01-9.69335E-01
 -1      5037 5.55416E+01 4.81900E+01 3.40083E-15
 -1      5038 5.55332E+01 4.81900E+01 9.69335E-01
 -1      5039 5.75086E+01 4.81857E+01-1.00382E+00
 -1      5040 5.75174E+01 4.81857E+01 3.52181E-15
 -1      5041 5.75086E+01 4.81857E+01 1.00382E+00
 -1      5042 5.94732E+01 4.81850E+01-1.03811E+00
 -1      5043 5.94822E+01 4.81850E+01 3.64212E-15
 -1      5044 5.94732E+01 4.81850E+01 1.03811E+00
 -1      5045 6.14376E+01 4.81857E+01-1.07240E+00
 -1      5046 6.14470E+01 4.81857E+01 3.76242E-15
 -1      5047 6.14376E+01 4.81857E+01 1.07240E+00
 -1      5048 6.34122E+01 4.81898E+01-1.10686E+00
 -1      5049 6.34219E+01 4.81898E+01 3.88334E-15
 -1      5050 6.34122E+01 4.81898E+01 1.10686E+00
 -1      5051 6.53890E+01 4.81860E+01-1.14137E+00
 -1      5052 6.53990E+01 4.81860E+01 4.00440E-15
 -1      5053 6.53890E+01 4.81860E+01 1.14137E+00
 -1      5054 6.73577E+01 4.81862E+01-1.17573E+00
 -1      5055 6.73680E+01 4.81862E+01 4.12496E-15
 -1      5056 6.73577E+01 4.81862E+01 1.17573E+00
 -1      5057 6.93340E+01 4.81904E+01-1.21023E+00
 -1      5058 6.93446E+01 4.81904E+01 4.24599E-15
 -1      5059 6.93340E+01 4.81904E+01 1.21023E+00
 -1      5060 7.13112E+01 4.81869E+01-1.24474E+00
 -1      5061 7.13220E+01 4.81869E+01 4.36707E-15
 -1      5062 7.13112E+01 4.81869E+01 1.24474E+00
 -1      5063 7.32792E+01 4.81874E+01-1.27909E+00
 -1      5064 7.32904E+01 4.81874E+01 4.48759E-15
 -1      5065 7.32792E+01 4.81874E+01 1.27909E+00
 -1      5066 7.52539E+01 4.81920E+01-1.31356E+00
 -1      5067 7.52654E+01 4.81920E+01 4.60852E-15
 -1      5068 7.52539E+01 4.81920E+01 1.31356E+00
 -1      5069 7.72288E+01 4.81888E+01-1.34803E+00
 -1      5070 7.72406E+01 4.81888E+01 4.72946E-15
 -1      5071 7.72288E+01 4.81888E+01 1.34803E+00
 -1      5072 7.91940E+01 4.81892E+01-1.38234E+00
 -1      5073 7.92061E+01 4.81892E+01 4.84982E-15
 -1      5074 7.91940E+01 4.81892E+01 1.38234E+00
 -1      5075 8.11659E+01 4.81924E+01-1.41676E+00
 -1      5076 8.11783E+01 4.81924E+01 4.97057E-15
 -1      5077 8.11659E+01 4.81924E+01 1.41676E+00
 -1      5078 8.31392E+01 4.81847E+01-1.45120E+00
 -1      5079 8.31518E+01 4.81847E+01 5.09141E-15
 -1      5080 8.31392E+01 4.81847E+01 1.45120E+00
 -1      5081 8.51057E+01 4.81753E+01-1.48553E+00
 -1      5082 8.51187E+01 4.81753E+01 5.21185E-15
 -1      5083 8.51057E+01 4.81753E+01 1.48553E+00
 -1      5084 8.70857E+01 4.81594E+01-1.52009E+00
 -1      5085 8.70989E+01 4.81594E+01 5.33310E-15
 -1      5086 8.70857E+01 4.81594E+01 1.52009E+00
 -1      5087 8.90809E+01 4.81170E+01-1.55491E+00
 -1      5088 8.90945E+01 4.81170E+01 5.45528E-15
 -1      5089 8.90809E+01 4.81170E+01 1.55491E+00
 -1      5090 9.10940E+01 4.80464E+01-1.59005E+00
 -1      5091 9.11079E+01 4.80464E+01 5.57856E-15
 -1      5092 9.10940E+01 4.80464E+01 1.59005E+00
 -1      5093 9.31469E+01 4.79568E+01-1.62588E+00
 -1      5094 9.31610E+01 4.79568E+01 5.70428E-15
 -1      5095 9.31469E+01 4.79568E+01 1.62588E+00
 -1      5096 9.51612E+01 4.80379E+01-1.66105E+00
 -1      5097 9.51757E+01 4.80379E+01 5.82764E-15
 -1      5098 9.51612E+01 4.80379E+01 1.66105E+00
 -1      5099 9.70498E+01 4.83348E+01-1.69401E+00
 -1      5100 9.70646E+01 4.83348E+01 5.94330E-15
 -1      5101 9.70498E+01 4.83348E+01 1.69401E+00
 -1      5102 2.67570E+01 4.52116E+01-4.67045E-01
 -1      5103 2.67611E+01 4.52116E+01 1.63859E-15
 -1      5104 2.67570E+01 4.52116E+01 4.67045E-01
 -1      5105 2.67896E+01 4.10850E+01-4.67614E-01
 -1      5106 2.67937E+01 4.10850E+01 1.64058E-15
 -1      5107 2.67896E+01 4.10850E+01 4.67614E-01
 -1      5108 2.67723E+01 3.70220E+01-4.67312E-01
 -1      5109 2.67764E+01 3.70220E+01 1.63953E-15
 -1      5110 2.67723E+01 3.70220E+01 4.67312E-01
 -1      5111 2.67423E+01 3.30004E+01-4.66789E-01
 -1      5112 2.67464E+01 3.30004E+01 1.63769E-15
 -1      5113 2.67423E+01 3.30004E+01 4.66789E-01
 -1      5114 2.67275E+01 2.89960E+01-4.66531E-01
 -1      5115 2.67316E+01 2.89960E+01 1.63678E-15
 -1      5116 2.67275E+01 2.89960E+01 4.66531E-01
 -1      5117 2.67260E+01 2.49978E+01-4.66504E-01
 -1      5118 2.67301E+01 2.49978E+01 1.63669E-15
 -1      5119 2.67260E+01 2.49978E+01 4.66504E-01
 -1      5120 2.67271E+01 2.10004E+01-4.66524E-01
 -1      5121 2.67312E+01 2.10004E+01 1.63676E-15
 -1      5122 2.67271E+01 2.10004E+01 4.66524E-01
 -1      5123 2.67251E+01 1.70077E+01-4.66488E-01
 -1      5124 2.67291E+01 1.70077E+01 1.63663E-15
 -1      5125 2.67251E+01 1.70077E+01 4.66488E-01
 -1      5126 2.67228E+01 1.30245E+01-4.66448E-01
 -1      5127 2.67268E+01 1.30245E+01 1.63649E-15
 -1      5128 2.67228E+01 1.30245E+01 4.66448E-01
 -1      5129 2.67483E+01 9.05897E+00-4.66894E-01
 -1      5130 2.67524E+01 9.05897E+00 1.63806E-15
 -1      5131 2.67483E+01 9.05897E+00 4.66894E-01
 -1      5132 2.67954E+01 5.13120E+00-4.67716E-01
 -1      5133 2.67995E+01 5.13120E+00 1.64094E-15
 -1      5134 2.67954E+01 5.13120E+00 4.67716E-01
 -1      5135 3.98221E+01 1.75233E+00-6.95096E-01
 -1      5136 3.98281E+01 1.75233E+00 2.43869E-15
 -1      5137 3.98221E+01 1.75233E+00 6.95096E-01
 -1      5138 2.86418E+01 2.31257E+00-4.99945E-01
 -1      5139 2.86462E+01 2.31257E+00 1.75402E-15
 -1      5140 2.86418E+01 2.31257E+00 4.99945E-01
 -1      5141 3.19413E+01 1.63957E+00-5.57537E-01
 -1      5142 3.19461E+01 1.63957E+00 1.95607E-15
 -1      5143 3.19413E+01 1.63957E+00 5.57537E-01
 -1      5144 3.58554E+01 1.74669E+00-6.25859E-01
 -1      5145 3.58609E+01 1.74669E+00 2.19577E-15
 -1      5146 3.58554E+01 1.74669E+00 6.25859E-01
 -1      5147 4.37835E+01 1.72790E+00-7.64244E-01
 -1      5148 4.37902E+01 1.72790E+00 2.68129E-15
 -1      5149 4.37835E+01 1.72790E+00 7.64244E-01
 -1      5150 4.77312E+01 1.73070E+00-8.33150E-01
 -1      5151 4.77384E+01 1.73070E+00 2.92304E-15
 -1      5152 4.77312E+01 1.73070E+00 8.33150E-01
 -1      5153 5.16829E+01 1.73250E+00-9.02129E-01
 -1      5154 5.16908E+01 1.73250E+00 3.16504E-15
 -1      5155 5.16829E+01 1.73250E+00 9.02129E-01
 -1      5156 5.56268E+01 1.72900E+00-9.70969E-01
 -1      5157 5.56353E+01 1.72900E+00 3.40656E-15
 -1      5158 5.56268E+01 1.72900E+00 9.70969E-01
 -1      5159 5.95660E+01 1.73408E+00-1.03973E+00
 -1      5160 5.95751E+01 1.73408E+00 3.64780E-15
 -1      5161 5.95660E+01 1.73408E+00 1.03973E+00
 -1      5162 6.35054E+01 1.72950E+00-1.10849E+00
 -1      5163 6.35151E+01 1.72950E+00 3.88905E-15
 -1      5164 6.35054E+01 1.72950E+00 1.10849E+00
 -1      5165 6.74503E+01 1.73364E+00-1.17735E+00
 -1      5166 6.74606E+01 1.73364E+00 4.13063E-15
 -1      5167 6.74503E+01 1.73364E+00 1.17735E+00
 -1      5168 7.14064E+01 1.73514E+00-1.24640E+00
 -1      5169 7.14173E+01 1.73514E+00 4.37290E-15
 -1      5170 7.14064E+01 1.73514E+00 1.24640E+00
 -1      5171 7.53583E+01 1.73691E+00-1.31538E+00
 -1      5172 7.53697E+01 1.73691E+00 4.61491E-15
 -1      5173 7.53583E+01 1.73691E+00 1.31538E+00
 -1      5174 7.93137E+01 1.75228E+00-1.38443E+00
 -1      5175 7.93257E+01 1.75228E+00 4.85714E-15
 -1      5176 7.93137E+01 1.75228E+00 1.38443E+00
 -1      5177 8.32754E+01 1.76039E+00-1.45358E+00
 -1      5178 8.32881E+01 1.76039E+00 5.09976E-15
 -1      5179 8.32754E+01 1.76039E+00 1.45358E+00
 -1      5180 8.72013E+01 1.71726E+00-1.52210E+00
 -1      5181 8.72146E+01 1.71726E+00 5.34018E-15
 -1      5182 8.72013E+01 1.71726E+00 1.52210E+00
 -1      5183 9.11097E+01 1.64596E+00-1.59033E+00
 -1      5184 9.11236E+01 1.64596E+00 5.57953E-15
 -1      5185 9.11097E+01 1.64596E+00 1.59033E+00
 -1      5186 9.51521E+01 1.84759E+00-1.66089E+00
 -1      5187 9.51666E+01 1.84759E+00 5.82708E-15
 -1      5188 9.51521E+01 1.84759E+00 1.66089E+00
 -1      5189 9.81681E+01 5.11813E+00-1.71353E+00
 -1      5190 9.81831E+01 5.11813E+00 6.01178E-15
 -1      5191 9.81681E+01 5.11813E+00 1.71353E+00
 -1      5192 9.82584E+01 9.08939E+00-1.71511E+00
 -1      5193 9.82734E+01 9.08939E+00 6.01731E-15
 -1      5194 9.82584E+01 9.08939E+00 1.71511E+00
 -1      5195 9.82598E+01 1.30538E+01-1.71513E+00
 -1      5196 9.82748E+01 1.30538E+01 6.01740E-15
 -1      5197 9.82598E+01 1.30538E+01 1.71513E+00
 -1      5198 9.82447E+01 1.70143E+01-1.71487E+00
 -1      5199 9.82596E+01 1.70143E+01 6.01647E-15
 -1      5200 9.82447E+01 1.70143E+01 1.71487E+00
 -1      5201 9.82434E+01 2.09988E+01-1.71484E+00
 -1      5202 9.82584E+01 2.09988E+01 6.01639E-15
 -1      5203 9.82434E+01 2.09988E+01 1.71484E+00
 -1      5204 9.82468E+01 2.49979E+01-1.71490E+00
 -1      5205 9.82618E+01 2.49979E+01 6.01660E-15
 -1      5206 9.82468E+01 2.49979E+01 1.71490E+00
 -1      5207 9.82479E+01 2.89986E+01-1.71492E+00
 -1      5208 9.82628E+01 2.89986E+01 6.01666E-15
 -1      5209 9.82479E+01 2.89986E+01 1.71492E+00
 -1      5210 9.82531E+01 3.29951E+01-1.71501E+00
 -1      5211 9.82681E+01 3.29951E+01 6.01699E-15
 -1      5212 9.82531E+01 3.29951E+01 1.71501E+00
 -1      5213 9.82633E+01 3.69995E+01-1.71519E+00
 -1      5214 9.82783E+01 3.69995E+01 6.01761E-15
 -1      5215 9.82633E+01 3.69995E+01 1.71519E+00
 -1      5216 9.82389E+01 4.10455E+01-1.71477E+00
 -1      5217 9.82539E+01 4.10455E+01 6.01612E-15
 -1      5218 9.82389E+01 4.10455E+01 1.71477E+00
 -1      5219 9.82271E+01 4.50946E+01-1.71456E+00
 -1      5220 9.82421E+01 4.50946E+01 6.01539E-15
 -1      5221 9.82271E+01 4.50946E+01 1.71456E+00
 -1      5222 2.85314E+01 3.60144E+01-4.98018E-01
 -1      5223 2.85358E+01 3.60144E+01 1.74725E-15
 -1      5224 2.85314E+01 3.60144E+01 4.98018E-01
 -1      5225 2.85591E+01 3.80472E+01-4.98502E-01
 -1      5226 2.85635E+01 3.80472E+01 1.74895E-15
 -1      5227 2.85591E+01 3.80472E+01 4.98502E-01
 -1      5228 2.84550E+01 4.64890E+01-4.96683E-01
 -1      5229 2.84593E+01 4.64890E+01 1.74257E-15
 -1      5230 2.84550E+01 4.64890E+01 4.96683E-01
 -1      5231 2.84752E+01 3.19897E+01-4.97036E-01
 -1      5232 2.84795E+01 3.19897E+01 1.74381E-15
 -1      5233 2.84752E+01 3.19897E+01 4.97036E-01
 -1      5234 2.84556E+01 2.79894E+01-4.96695E-01
 -1      5235 2.84600E+01 2.79894E+01 1.74261E-15
 -1      5236 2.84556E+01 2.79894E+01 4.96695E-01
 -1      5237 2.84564E+01 2.39964E+01-4.96709E-01
 -1      5238 2.84608E+01 2.39964E+01 1.74266E-15
 -1      5239 2.84564E+01 2.39964E+01 4.96709E-01
 -1      5240 2.84587E+01 2.00023E+01-4.96749E-01
 -1      5241 2.84631E+01 2.00023E+01 1.74280E-15
 -1      5242 2.84587E+01 2.00023E+01 4.96749E-01
 -1      5243 2.84535E+01 1.60193E+01-4.96657E-01
 -1      5244 2.84578E+01 1.60193E+01 1.74248E-15
 -1      5245 2.84535E+01 1.60193E+01 4.96657E-01
 -1      5246 2.84532E+01 1.20595E+01-4.96652E-01
 -1      5247 2.84575E+01 1.20595E+01 1.74246E-15
 -1      5248 2.84532E+01 1.20595E+01 4.96652E-01
 -1      5249 2.85270E+01 8.14408E+00-4.97941E-01
 -1      5250 2.85314E+01 8.14408E+00 1.74699E-15
 -1      5251 2.85270E+01 8.14408E+00 4.97941E-01
 -1      5252 2.86376E+01 4.24469E+00-4.99871E-01
 -1      5253 2.86420E+01 4.24469E+00 1.75376E-15
 -1      5254 2.86376E+01 4.24469E+00 4.99871E-01
 -1      5255 3.48142E+01 3.46535E+00-6.07685E-01
 -1      5256 3.48195E+01 3.46535E+00 2.13201E-15
 -1      5257 3.48142E+01 3.46535E+00 6.07685E-01
 -1      5258 4.87232E+01 3.46033E+00-8.50466E-01
 -1      5259 4.87306E+01 3.46033E+00 2.98379E-15
 -1      5260 4.87232E+01 3.46033E+00 8.50466E-01
 -1      5261 3.88114E+01 3.51636E+00-6.77455E-01
 -1      5262 3.88173E+01 3.51636E+00 2.37680E-15
 -1      5263 3.88114E+01 3.51636E+00 6.77455E-01
 -1      5264 4.28006E+01 3.46154E+00-7.47088E-01
 -1      5265 4.28071E+01 3.46154E+00 2.62110E-15
 -1      5266 4.28006E+01 3.46154E+00 7.47088E-01
 -1      5267 3.68032E+01 3.53556E+00-6.42402E-01
 -1      5268 3.68088E+01 3.53556E+00 2.25381E-15
 -1      5269 3.68032E+01 3.53556E+00 6.42402E-01
 -1      5270 3.06218E+01 3.29994E+00-5.34506E-01
 -1      5271 3.06265E+01 3.29994E+00 1.87527E-15
 -1      5272 3.06218E+01 3.29994E+00 5.34506E-01
 -1      5273 4.08112E+01 3.48364E+00-7.12362E-01
 -1      5274 4.08174E+01 3.48364E+00 2.49926E-15
 -1      5275 4.08112E+01 3.48364E+00 7.12362E-01
 -1      5276 9.64055E+01 6.17133E+00-1.68276E+00
 -1      5277 9.64202E+01 6.17133E+00 5.90384E-15
 -1      5278 9.64055E+01 6.17133E+00 1.68276E+00
 -1      5279 5.26669E+01 3.46383E+00-9.19304E-01
 -1      5280 5.26749E+01 3.46383E+00 3.22530E-15
 -1      5281 5.26669E+01 3.46383E+00 9.19304E-01
 -1      5282 5.66113E+01 3.46359E+00-9.88154E-01
 -1      5283 5.66199E+01 3.46359E+00 3.46686E-15
 -1      5284 5.66113E+01 3.46359E+00 9.88154E-01
 -1      5285 6.05505E+01 3.46601E+00-1.05691E+00
 -1      5286 6.05597E+01 3.46601E+00 3.70809E-15
 -1      5287 6.05505E+01 3.46601E+00 1.05691E+00
 -1      5288 6.44933E+01 3.46421E+00-1.12574E+00
 -1      5289 6.45032E+01 3.46421E+00 3.94955E-15
 -1      5290 6.44933E+01 3.46421E+00 1.12574E+00
 -1      5291 6.84407E+01 3.46454E+00-1.19464E+00
 -1      5292 6.84511E+01 3.46454E+00 4.19128E-15
 -1      5293 6.84407E+01 3.46454E+00 1.19464E+00
 -1      5294 7.23935E+01 3.46915E+00-1.26363E+00
 -1      5295 7.24046E+01 3.46915E+00 4.43335E-15
 -1      5296 7.23935E+01 3.46915E+00 1.26363E+00
 -1      5297 7.63558E+01 3.48200E+00-1.33280E+00
 -1      5298 7.63674E+01 3.48200E+00 4.67600E-15
 -1      5299 7.63558E+01 3.48200E+00 1.33280E+00
 -1      5300 8.03244E+01 3.50742E+00-1.40207E+00
 -1      5301 8.03367E+01 3.50742E+00 4.91904E-15
 -1      5302 8.03244E+01 3.50742E+00 1.40207E+00
 -1      5303 8.42962E+01 3.52179E+00-1.47140E+00
 -1      5304 8.43091E+01 3.52179E+00 5.16227E-15
 -1      5305 8.42962E+01 3.52179E+00 1.47140E+00
 -1      5306 8.82003E+01 3.41167E+00-1.53954E+00
 -1      5307 8.82137E+01 3.41167E+00 5.40135E-15
 -1      5308 8.82003E+01 3.41167E+00 1.53954E+00
 -1      5309 9.20102E+01 3.29211E+00-1.60604E+00
 -1      5310 9.20243E+01 3.29211E+00 5.63467E-15
 -1      5311 9.20102E+01 3.29211E+00 1.60604E+00
 -1      5312 9.62296E+01 3.89676E+00-1.67969E+00
 -1      5313 9.62442E+01 3.89676E+00 5.89306E-15
 -1      5314 9.62296E+01 3.89676E+00 1.67969E+00
 -1      5315 9.65557E+01 1.01823E+01-1.68539E+00
 -1      5316 9.65705E+01 1.01823E+01 5.91304E-15
 -1      5317 9.65557E+01 1.01823E+01 1.68539E+00
 -1      5318 9.65207E+01 8.20707E+00-1.68477E+00
 -1      5319 9.65354E+01 8.20707E+00 5.91089E-15
 -1      5320 9.65207E+01 8.20707E+00 1.68477E+00
 -1      5321 9.65151E+01 1.40751E+01-1.68468E+00
 -1      5322 9.65298E+01 1.40751E+01 5.91055E-15
 -1      5323 9.65151E+01 1.40751E+01 1.68468E+00
 -1      5324 9.64973E+01 1.80105E+01-1.68437E+00
 -1      5325 9.65120E+01 1.80105E+01 5.90946E-15
 -1      5326 9.64973E+01 1.80105E+01 1.68437E+00
 -1      5327 9.65031E+01 2.19933E+01-1.68447E+00
 -1      5328 9.65178E+01 2.19933E+01 5.90981E-15
 -1      5329 9.65031E+01 2.19933E+01 1.68447E+00
 -1      5330 9.65101E+01 2.59969E+01-1.68459E+00
 -1      5331 9.65248E+01 2.59969E+01 5.91024E-15
 -1      5332 9.65101E+01 2.59969E+01 1.68459E+00
 -1      5333 9.65102E+01 2.99975E+01-1.68459E+00
 -1      5334 9.65249E+01 2.99975E+01 5.91025E-15
 -1      5335 9.65102E+01 2.99975E+01 1.68459E+00
 -1      5336 9.65256E+01 3.39881E+01-1.68486E+00
 -1      5337 9.65403E+01 3.39881E+01 5.91119E-15
 -1      5338 9.65256E+01 3.39881E+01 1.68486E+00
 -1      5339 9.65507E+01 3.79974E+01-1.68530E+00
 -1      5340 9.65654E+01 3.79974E+01 5.91273E-15
 -1      5341 9.65507E+01 3.79974E+01 1.68530E+00
 -1      5342 9.64717E+01 4.21152E+01-1.68392E+00
 -1      5343 9.64864E+01 4.21152E+01 5.90790E-15
 -1      5344 9.64717E+01 4.21152E+01 1.68392E+00
 -1      5345 9.65274E+01 4.63699E+01-1.68489E+00
 -1      5346 9.65421E+01 4.63699E+01 5.91131E-15
 -1      5347 9.65274E+01 4.63699E+01 1.68489E+00
 -1      5348 3.28482E+01 3.27516E+00-5.73367E-01
 -1      5349 3.28532E+01 3.27516E+00 2.01161E-15
 -1      5350 3.28482E+01 3.27516E+00 5.73367E-01
 -1      5351 2.85770E+01 4.01123E+01-4.98813E-01
 -1      5352 2.85814E+01 4.01123E+01 1.75005E-15
 -1      5353 2.85770E+01 4.01123E+01 4.98813E-01
 -1      5354 2.85704E+01 4.22143E+01-4.98697E-01
 -1      5355 2.85747E+01 4.22143E+01 1.74964E-15
 -1      5356 2.85704E+01 4.22143E+01 4.98697E-01
 -1      5357 3.04631E+01 4.58821E+01-5.31735E-01
 -1      5358 3.04677E+01 4.58821E+01 1.86555E-15
 -1      5359 3.04631E+01 4.58821E+01 5.31735E-01
 -1      5360 3.26865E+01 4.62369E+01-5.70545E-01
 -1      5361 3.26915E+01 4.62369E+01 2.00171E-15
 -1      5362 3.26865E+01 4.62369E+01 5.70545E-01
 -1      5363 3.46837E+01 4.62874E+01-6.05407E-01
 -1      5364 3.46890E+01 4.62874E+01 2.12402E-15
 -1      5365 3.46837E+01 4.62874E+01 6.05407E-01
 -1      5366 3.66688E+01 4.63268E+01-6.40055E-01
 -1      5367 3.66743E+01 4.63268E+01 2.24558E-15
 -1      5368 3.66688E+01 4.63268E+01 6.40055E-01
 -1      5369 3.86514E+01 4.63523E+01-6.74664E-01
 -1      5370 3.86573E+01 4.63523E+01 2.36700E-15
 -1      5371 3.86514E+01 4.63523E+01 6.74664E-01
 -1      5372 4.06338E+01 4.63689E+01-7.09265E-01
 -1      5373 4.06399E+01 4.63689E+01 2.48840E-15
 -1      5374 4.06338E+01 4.63689E+01 7.09265E-01
 -1      5375 4.26146E+01 4.63809E+01-7.43841E-01
 -1      5376 4.26211E+01 4.63809E+01 2.60971E-15
 -1      5377 4.26146E+01 4.63809E+01 7.43841E-01
 -1      5378 4.45940E+01 4.63860E+01-7.78391E-01
 -1      5379 4.46008E+01 4.63860E+01 2.73092E-15
 -1      5380 4.45940E+01 4.63860E+01 7.78391E-01
 -1      5381 4.65708E+01 4.63855E+01-8.12896E-01
 -1      5382 4.65779E+01 4.63855E+01 2.85198E-15
 -1      5383 4.65708E+01 4.63855E+01 8.12896E-01
 -1      5384 4.85452E+01 4.63849E+01-8.47360E-01
 -1      5385 4.85526E+01 4.63849E+01 2.97289E-15
 -1      5386 4.85452E+01 4.63849E+01 8.47360E-01
 -1      5387 5.05188E+01 4.63828E+01-8.81809E-01
 -1      5388 5.05265E+01 4.63828E+01 3.09375E-15
 -1      5389 5.05188E+01 4.63828E+01 8.81809E-01
 -1      5390 5.24915E+01 4.63797E+01-9.16242E-01
 -1      5391 5.24995E+01 4.63797E+01 3.21456E-15
 -1      5392 5.24915E+01 4.63797E+01 9.16242E-01
 -1      5393 5.44634E+01 4.63795E+01-9.50662E-01
 -1      5394 5.44717E+01 4.63795E+01 3.33532E-15
 -1      5395 5.44634E+01 4.63795E+01 9.50662E-01
 -1      5396 5.64352E+01 4.63787E+01-9.85080E-01
 -1      5397 5.64438E+01 4.63787E+01 3.45607E-15
 -1      5398 5.64352E+01 4.63787E+01 9.85080E-01
 -1      5399 5.84058E+01 4.63767E+01-1.01948E+00
 -1      5400 5.84147E+01 4.63767E+01 3.57675E-15
 -1      5401 5.84058E+01 4.63767E+01 1.01948E+00
 -1      5402 6.03749E+01 4.63767E+01-1.05385E+00
 -1      5403 6.03841E+01 4.63767E+01 3.69734E-15
 -1      5404 6.03749E+01 4.63767E+01 1.05385E+00
 -1      5405 6.23457E+01 4.63784E+01-1.08825E+00
 -1      5406 6.23552E+01 4.63784E+01 3.81803E-15
 -1      5407 6.23457E+01 4.63784E+01 1.08825E+00
 -1      5408 6.43185E+01 4.63790E+01-1.12268E+00
 -1      5409 6.43283E+01 4.63790E+01 3.93884E-15
 -1      5410 6.43185E+01 4.63790E+01 1.12268E+00
 -1      5411 6.62920E+01 4.63782E+01-1.15713E+00
 -1      5412 6.63020E+01 4.63782E+01 4.05970E-15
 -1      5413 6.62920E+01 4.63782E+01 1.15713E+00
 -1      5414 6.82656E+01 4.63797E+01-1.19158E+00
 -1      5415 6.82760E+01 4.63797E+01 4.18056E-15
 -1      5416 6.82656E+01 4.63797E+01 1.19158E+00
 -1      5417 7.02395E+01 4.63805E+01-1.22603E+00
 -1      5418 7.02502E+01 4.63805E+01 4.30144E-15
 -1      5419 7.02395E+01 4.63805E+01 1.22603E+00
 -1      5420 7.22123E+01 4.63801E+01-1.26047E+00
 -1      5421 7.22233E+01 4.63801E+01 4.42226E-15
 -1      5422 7.22123E+01 4.63801E+01 1.26047E+00
 -1      5423 7.41836E+01 4.63820E+01-1.29488E+00
 -1      5424 7.41949E+01 4.63820E+01 4.54298E-15
 -1      5425 7.41836E+01 4.63820E+01 1.29488E+00
 -1      5426 7.61533E+01 4.63834E+01-1.32926E+00
 -1      5427 7.61649E+01 4.63834E+01 4.66360E-15
 -1      5428 7.61533E+01 4.63834E+01 1.32926E+00
 -1      5429 7.81203E+01 4.63834E+01-1.36359E+00
 -1      5430 7.81321E+01 4.63834E+01 4.78406E-15
 -1      5431 7.81203E+01 4.63834E+01 1.36359E+00
 -1      5432 8.00840E+01 4.63849E+01-1.39787E+00
 -1      5433 8.00962E+01 4.63849E+01 4.90432E-15
 -1      5434 8.00840E+01 4.63849E+01 1.39787E+00
 -1      5435 8.20460E+01 4.63823E+01-1.43212E+00
 -1      5436 8.20585E+01 4.63823E+01 5.02447E-15
 -1      5437 8.20460E+01 4.63823E+01 1.43212E+00
 -1      5438 8.40066E+01 4.63710E+01-1.46634E+00
 -1      5439 8.40194E+01 4.63710E+01 5.14453E-15
 -1      5440 8.40066E+01 4.63710E+01 1.46634E+00
 -1      5441 8.59690E+01 4.63488E+01-1.50059E+00
 -1      5442 8.59821E+01 4.63488E+01 5.26471E-15
 -1      5443 8.59690E+01 4.63488E+01 1.50059E+00
 -1      5444 8.79423E+01 4.63035E+01-1.53504E+00
 -1      5445 8.79557E+01 4.63035E+01 5.38555E-15
 -1      5446 8.79423E+01 4.63035E+01 1.53504E+00
 -1      5447 8.99462E+01 4.62140E+01-1.57002E+00
 -1      5448 8.99599E+01 4.62140E+01 5.50827E-15
 -1      5449 8.99462E+01 4.62140E+01 1.57002E+00
 -1      5450 9.20314E+01 4.60358E+01-1.60641E+00
 -1      5451 9.20454E+01 4.60358E+01 5.63597E-15
 -1      5452 9.20314E+01 4.60358E+01 1.60641E+00
 -1      5453 9.43587E+01 4.56849E+01-1.64704E+00
 -1      5454 9.43730E+01 4.56849E+01 5.77849E-15
 -1      5455 9.43587E+01 4.56849E+01 1.64704E+00
 -1      5456 4.67527E+01 3.45854E+00-8.16071E-01
 -1      5457 4.67598E+01 3.45854E+00 2.86312E-15
 -1      5458 4.67527E+01 3.45854E+00 8.16071E-01
 -1      5459 2.84999E+01 3.39982E+01-4.97468E-01
 -1      5460 2.85043E+01 3.39982E+01 1.74533E-15
 -1      5461 2.84999E+01 3.39982E+01 4.97468E-01
 -1      5462 2.85697E+01 4.43726E+01-4.98685E-01
 -1      5463 2.85740E+01 4.43726E+01 1.74960E-15
 -1      5464 2.85697E+01 4.43726E+01 4.98685E-01
 -1      5465 2.84614E+01 2.99868E+01-4.96796E-01
 -1      5466 2.84658E+01 2.99868E+01 1.74297E-15
 -1      5467 2.84614E+01 2.99868E+01 4.96796E-01
 -1      5468 2.84553E+01 2.59935E+01-4.96689E-01
 -1      5469 2.84596E+01 2.59935E+01 1.74259E-15
 -1      5470 2.84553E+01 2.59935E+01 4.96689E-01
 -1      5471 2.84580E+01 2.19995E+01-4.96736E-01
 -1      5472 2.84623E+01 2.19995E+01 1.74276E-15
 -1      5473 2.84580E+01 2.19995E+01 4.96736E-01
 -1      5474 2.84582E+01 1.80069E+01-4.96739E-01
 -1      5475 2.84625E+01 1.80069E+01 1.74277E-15
 -1      5476 2.84582E+01 1.80069E+01 4.96739E-01
 -1      5477 2.84469E+01 1.40376E+01-4.96542E-01
 -1      5478 2.84512E+01 1.40376E+01 1.74208E-15
 -1      5479 2.84469E+01 1.40376E+01 4.96542E-01
 -1      5480 2.84854E+01 1.00944E+01-4.97215E-01
 -1      5481 2.84898E+01 1.00944E+01 1.74444E-15
 -1      5482 2.84854E+01 1.00944E+01 4.97215E-01
 -1      5483 2.85580E+01 6.20406E+00-4.98482E-01
 -1      5484 2.85624E+01 6.20406E+00 1.74888E-15
 -1      5485 2.85580E+01 6.20406E+00 4.98482E-01
 -1      5486 4.47803E+01 3.45569E+00-7.81642E-01
 -1      5487 4.47871E+01 3.45569E+00 2.74233E-15
 -1      5488 4.47803E+01 3.45569E+00 7.81642E-01
 -1      5489 5.06948E+01 3.46201E+00-8.84881E-01
 -1      5490 5.07025E+01 3.46201E+00 3.10453E-15
 -1      5491 5.06948E+01 3.46201E+00 8.84881E-01
 -1      5492 5.46393E+01 3.46305E+00-9.53732E-01
 -1      5493 5.46476E+01 3.46305E+00 3.34609E-15
 -1      5494 5.46393E+01 3.46305E+00 9.53732E-01
 -1      5495 5.85818E+01 3.46572E+00-1.02255E+00
 -1      5496 5.85907E+01 3.46572E+00 3.58753E-15
 -1      5497 5.85818E+01 3.46572E+00 1.02255E+00
 -1      5498 6.25210E+01 3.46444E+00-1.09131E+00
 -1      5499 6.25306E+01 3.46444E+00 3.82877E-15
 -1      5500 6.25210E+01 3.46444E+00 1.09131E+00
 -1      5501 6.64666E+01 3.46547E+00-1.16018E+00
 -1      5502 6.64767E+01 3.46547E+00 4.07039E-15
 -1      5503 6.64666E+01 3.46547E+00 1.16018E+00
 -1      5504 7.04163E+01 3.46547E+00-1.22912E+00
 -1      5505 7.04270E+01 3.46547E+00 4.31227E-15
 -1      5506 7.04163E+01 3.46547E+00 1.22912E+00
 -1      5507 7.43720E+01 3.47257E+00-1.29817E+00
 -1      5508 7.43833E+01 3.47257E+00 4.55451E-15
 -1      5509 7.43720E+01 3.47257E+00 1.29817E+00
 -1      5510 7.83394E+01 3.49509E+00-1.36742E+00
 -1      5511 7.83513E+01 3.49509E+00 4.79748E-15
 -1      5512 7.83394E+01 3.49509E+00 1.36742E+00
 -1      5513 8.23096E+01 3.51844E+00-1.43672E+00
 -1      5514 8.23222E+01 3.51844E+00 5.04061E-15
 -1      5515 8.23096E+01 3.51844E+00 1.43672E+00
 -1      5516 8.62647E+01 3.49276E+00-1.50576E+00
 -1      5517 8.62778E+01 3.49276E+00 5.28282E-15
 -1      5518 8.62647E+01 3.49276E+00 1.50576E+00
 -1      5519 9.00816E+01 3.25692E+00-1.57238E+00
 -1      5520 9.00954E+01 3.25692E+00 5.51657E-15
 -1      5521 9.00816E+01 3.25692E+00 1.57238E+00
 -1      5522 9.39776E+01 3.55227E+00-1.64039E+00
 -1      5523 9.39919E+01 3.55227E+00 5.75515E-15
 -1      5524 9.39776E+01 3.55227E+00 1.64039E+00
 -1      5525 9.65390E+01 1.21297E+01-1.68509E+00
 -1      5526 9.65537E+01 1.21297E+01 5.91202E-15
 -1      5527 9.65390E+01 1.21297E+01 1.68509E+00
 -1      5528 9.65028E+01 1.60345E+01-1.68446E+00
 -1      5529 9.65175E+01 1.60345E+01 5.90980E-15
 -1      5530 9.65028E+01 1.60345E+01 1.68446E+00
 -1      5531 9.64979E+01 1.99976E+01-1.68438E+00
 -1      5532 9.65126E+01 1.99976E+01 5.90949E-15
 -1      5533 9.64979E+01 1.99976E+01 1.68438E+00
 -1      5534 9.65084E+01 2.39945E+01-1.68456E+00
 -1      5535 9.65231E+01 2.39945E+01 5.91014E-15
 -1      5536 9.65084E+01 2.39945E+01 1.68456E+00
 -1      5537 9.65106E+01 2.79987E+01-1.68460E+00
 -1      5538 9.65253E+01 2.79987E+01 5.91027E-15
 -1      5539 9.65106E+01 2.79987E+01 1.68460E+00
 -1      5540 9.65148E+01 3.19934E+01-1.68467E+00
 -1      5541 9.65295E+01 3.19934E+01 5.91053E-15
 -1      5542 9.65148E+01 3.19934E+01 1.68467E+00
 -1      5543 9.65396E+01 3.59880E+01-1.68511E+00
 -1      5544 9.65543E+01 3.59880E+01 5.91205E-15
 -1      5545 9.65396E+01 3.59880E+01 1.68511E+00
 -1      5546 9.65395E+01 4.00345E+01-1.68510E+00
 -1      5547 9.65542E+01 4.00345E+01 5.91204E-15
 -1      5548 9.65395E+01 4.00345E+01 1.68510E+00
 -1      5549 9.63808E+01 4.42569E+01-1.68233E+00
 -1      5550 9.63955E+01 4.42569E+01 5.90233E-15
 -1      5551 9.63808E+01 4.42569E+01 1.68233E+00
 -1      5552 4.97112E+01 5.19349E+00-8.67712E-01
 -1      5553 4.97187E+01 5.19349E+00 3.04429E-15
 -1      5554 4.97112E+01 5.19349E+00 8.67712E-01
 -1      5555 6.74535E+01 5.19742E+00-1.17741E+00
 -1      5556 6.74638E+01 5.19742E+00 4.13083E-15
 -1      5557 6.74535E+01 5.19742E+00 1.17741E+00
 -1      5558 3.03401E+01 7.27104E+00-5.29588E-01
 -1      5559 3.03447E+01 7.27104E+00 1.85802E-15
 -1      5560 3.03401E+01 7.27104E+00 5.29588E-01
 -1      5561 3.01858E+01 2.89719E+01-5.26895E-01
 -1      5562 3.01904E+01 2.89719E+01 1.84857E-15
 -1      5563 3.01858E+01 2.89719E+01 5.26895E-01
 -1      5564 3.01854E+01 2.49909E+01-5.26887E-01
 -1      5565 3.01899E+01 2.49909E+01 1.84854E-15
 -1      5566 3.01854E+01 2.49909E+01 5.26887E-01
 -1      5567 3.01899E+01 2.10002E+01-5.26966E-01
 -1      5568 3.01945E+01 2.10002E+01 1.84882E-15
 -1      5569 3.01899E+01 2.10002E+01 5.26966E-01
 -1      5570 9.47718E+01 2.69979E+01-1.65425E+00
 -1      5571 9.47863E+01 2.69979E+01 5.80379E-15
 -1      5572 9.47718E+01 2.69979E+01 1.65425E+00
 -1      5573 4.57781E+01 5.18354E+00-7.99059E-01
 -1      5574 4.57850E+01 5.18354E+00 2.80343E-15
 -1      5575 4.57781E+01 5.18354E+00 7.99059E-01
 -1      5576 3.01802E+01 1.50349E+01-5.26798E-01
 -1      5577 3.01848E+01 1.50349E+01 1.84823E-15
 -1      5578 3.01802E+01 1.50349E+01 5.26798E-01
 -1      5579 3.01874E+01 1.11178E+01-5.26924E-01
 -1      5580 3.01920E+01 1.11178E+01 1.84867E-15
 -1      5581 3.01874E+01 1.11178E+01 5.26924E-01
 -1      5582 3.02779E+01 9.17606E+00-5.28503E-01
 -1      5583 3.02825E+01 9.17606E+00 1.85421E-15
 -1      5584 3.02779E+01 9.17606E+00 5.28503E-01
 -1      5585 3.01881E+01 2.29970E+01-5.26935E-01
 -1      5586 3.01927E+01 2.29970E+01 1.84871E-15
 -1      5587 3.01881E+01 2.29970E+01 5.26935E-01
 -1      5588 3.03621E+01 3.90759E+01-5.29973E-01
 -1      5589 3.03667E+01 3.90759E+01 1.85937E-15
 -1      5590 3.03621E+01 3.90759E+01 5.29973E-01
 -1      5591 3.01985E+01 3.09674E+01-5.27116E-01
 -1      5592 3.02031E+01 3.09674E+01 1.84934E-15
 -1      5593 3.01985E+01 3.09674E+01 5.27116E-01
 -1      5594 9.47529E+01 2.09843E+01-1.65392E+00
 -1      5595 9.47674E+01 2.09843E+01 5.80264E-15
 -1      5596 9.47529E+01 2.09843E+01 1.65392E+00
 -1      5597 5.36534E+01 5.19525E+00-9.36523E-01
 -1      5598 5.36616E+01 5.19525E+00 3.28571E-15
 -1      5599 5.36534E+01 5.19525E+00 9.36523E-01
 -1      5600 4.38092E+01 5.17905E+00-7.64692E-01
 -1      5601 4.38158E+01 5.17905E+00 2.68286E-15
 -1      5602 4.38092E+01 5.17905E+00 7.64692E-01
 -1      5603 5.75959E+01 5.19698E+00-1.00534E+00
 -1      5604 5.76047E+01 5.19698E+00 3.52715E-15
 -1      5605 5.75959E+01 5.19698E+00 1.00534E+00
 -1      5606 6.15366E+01 5.19805E+00-1.07412E+00
 -1      5607 6.15459E+01 5.19805E+00 3.76848E-15
 -1      5608 6.15366E+01 5.19805E+00 1.07412E+00
 -1      5609 6.54799E+01 5.19744E+00-1.14296E+00
 -1      5610 6.54899E+01 5.19744E+00 4.00997E-15
 -1      5611 6.54799E+01 5.19744E+00 1.14296E+00
 -1      5612 7.14054E+01 5.20006E+00-1.24639E+00
 -1      5613 7.14163E+01 5.20006E+00 4.37284E-15
 -1      5614 7.14054E+01 5.20006E+00 1.24639E+00
 -1      5615 7.53692E+01 5.21441E+00-1.31557E+00
 -1      5616 7.53807E+01 5.21441E+00 4.61558E-15
 -1      5617 7.53692E+01 5.21441E+00 1.31557E+00
 -1      5618 7.93523E+01 5.25510E+00-1.38510E+00
 -1      5619 7.93644E+01 5.25510E+00 4.85951E-15
 -1      5620 7.93523E+01 5.25510E+00 1.38510E+00
 -1      5621 9.47757E+01 1.31308E+01-1.65432E+00
 -1      5622 9.47902E+01 1.31308E+01 5.80403E-15
 -1      5623 9.47757E+01 1.31308E+01 1.65432E+00
 -1      5624 8.53565E+01 5.29089E+00-1.48990E+00
 -1      5625 8.53695E+01 5.29089E+00 5.22720E-15
 -1      5626 8.53565E+01 5.29089E+00 1.48990E+00
 -1      5627 8.92658E+01 5.05762E+00-1.55814E+00
 -1      5628 8.92794E+01 5.05762E+00 5.46660E-15
 -1      5629 8.92658E+01 5.05762E+00 1.55814E+00
 -1      5630 3.03013E+01 4.33839E+01-5.28911E-01
 -1      5631 3.03059E+01 4.33839E+01 1.85564E-15
 -1      5632 3.03013E+01 4.33839E+01 5.28911E-01
 -1      5633 9.48692E+01 9.34830E+00-1.65595E+00
 -1      5634 9.48836E+01 9.34830E+00 5.80976E-15
 -1      5635 9.48692E+01 9.34830E+00 1.65595E+00
 -1      5636 8.33513E+01 5.29553E+00-1.45490E+00
 -1      5637 8.33640E+01 5.29553E+00 5.10441E-15
 -1      5638 8.33513E+01 5.29553E+00 1.45490E+00
 -1      5639 9.47443E+01 1.89923E+01-1.65377E+00
 -1      5640 9.47587E+01 1.89923E+01 5.80211E-15
 -1      5641 9.47443E+01 1.89923E+01 1.65377E+00
 -1      5642 9.47438E+01 1.70155E+01-1.65376E+00
 -1      5643 9.47582E+01 1.70155E+01 5.80208E-15
 -1      5644 9.47438E+01 1.70155E+01 1.65376E+00
 -1      5645 9.48297E+01 1.12399E+01-1.65526E+00
 -1      5646 9.48441E+01 1.12399E+01 5.80733E-15
 -1      5647 9.48297E+01 1.12399E+01 1.65526E+00
 -1      5648 9.45229E+01 5.47003E+00-1.64990E+00
 -1      5649 9.45372E+01 5.47003E+00 5.78855E-15
 -1      5650 9.45229E+01 5.47003E+00 1.64990E+00
 -1      5651 9.47722E+01 2.49927E+01-1.65426E+00
 -1      5652 9.47867E+01 2.49927E+01 5.80382E-15
 -1      5653 9.47722E+01 2.49927E+01 1.65426E+00
 -1      5654 3.01900E+01 1.70121E+01-5.26968E-01
 -1      5655 3.01946E+01 1.70121E+01 1.84882E-15
 -1      5656 3.01900E+01 1.70121E+01 5.26968E-01
 -1      5657 9.47680E+01 3.09972E+01-1.65418E+00
 -1      5658 9.47825E+01 3.09972E+01 5.80356E-15
 -1      5659 9.47680E+01 3.09972E+01 1.65418E+00
 -1      5660 9.48063E+01 3.49760E+01-1.65485E+00
 -1      5661 9.48207E+01 3.49760E+01 5.80590E-15
 -1      5662 9.48063E+01 3.49760E+01 1.65485E+00
 -1      5663 9.48631E+01 3.89800E+01-1.65584E+00
 -1      5664 9.48775E+01 3.89800E+01 5.80938E-15
 -1      5665 9.48631E+01 3.89800E+01 1.65584E+00
 -1      5666 3.03218E+01 5.36225E+00-5.29270E-01
 -1      5667 3.03265E+01 5.36225E+00 1.85690E-15
 -1      5668 3.03218E+01 5.36225E+00 5.29270E-01
 -1      5669 3.02264E+01 3.29698E+01-5.27603E-01
 -1      5670 3.02310E+01 3.29698E+01 1.85105E-15
 -1      5671 3.02264E+01 3.29698E+01 5.27603E-01
 -1      5672 3.03867E+01 4.12145E+01-5.30401E-01
 -1      5673 3.03913E+01 4.12145E+01 1.86087E-15
 -1      5674 3.03867E+01 4.12145E+01 5.30401E-01
 -1      5675 3.18468E+01 4.44598E+01-5.55887E-01
 -1      5676 3.18516E+01 4.44598E+01 1.95028E-15
 -1      5677 3.18468E+01 4.44598E+01 5.55887E-01
 -1      5678 3.36466E+01 4.44161E+01-5.87303E-01
 -1      5679 3.36517E+01 4.44161E+01 2.06050E-15
 -1      5680 3.36466E+01 4.44161E+01 5.87303E-01
 -1      5681 3.56192E+01 4.44887E+01-6.21735E-01
 -1      5682 3.56246E+01 4.44887E+01 2.18130E-15
 -1      5683 3.56192E+01 4.44887E+01 6.21735E-01
 -1      5684 3.75977E+01 4.45309E+01-6.56271E-01
 -1      5685 3.76035E+01 4.45309E+01 2.30247E-15
 -1      5686 3.75977E+01 4.45309E+01 6.56271E-01
 -1      5687 3.95837E+01 4.45660E+01-6.90937E-01
 -1      5688 3.95898E+01 4.45660E+01 2.42409E-15
 -1      5689 3.95837E+01 4.45660E+01 6.90937E-01
 -1      5690 4.15709E+01 4.45906E+01-7.25622E-01
 -1      5691 4.15772E+01 4.45906E+01 2.54579E-15
 -1      5692 4.15709E+01 4.45906E+01 7.25622E-01
 -1      5693 4.35553E+01 4.46037E+01-7.60260E-01
 -1      5694 4.35619E+01 4.46037E+01 2.66731E-15
 -1      5695 4.35553E+01 4.46037E+01 7.60260E-01
 -1      5696 4.55353E+01 4.46067E+01-7.94822E-01
 -1      5697 4.55423E+01 4.46067E+01 2.78857E-15
 -1      5698 4.55353E+01 4.46067E+01 7.94822E-01
 -1      5699 4.75114E+01 4.46042E+01-8.29314E-01
 -1      5700 4.75186E+01 4.46042E+01 2.90958E-15
 -1      5701 4.75114E+01 4.46042E+01 8.29314E-01
 -1      5702 4.94846E+01 4.45999E+01-8.63757E-01
 -1      5703 4.94921E+01 4.45999E+01 3.03042E-15
 -1      5704 4.94846E+01 4.45999E+01 8.63757E-01
 -1      5705 5.14565E+01 4.45955E+01-8.98176E-01
 -1      5706 5.14643E+01 4.45955E+01 3.15118E-15
 -1      5707 5.14565E+01 4.45955E+01 8.98176E-01
 -1      5708 5.34279E+01 4.45927E+01-9.32587E-01
 -1      5709 5.34360E+01 4.45927E+01 3.27190E-15
 -1      5710 5.34279E+01 4.45927E+01 9.32587E-01
 -1      5711 5.53990E+01 4.45913E+01-9.66993E-01
 -1      5712 5.54074E+01 4.45913E+01 3.39261E-15
 -1      5713 5.53990E+01 4.45913E+01 9.66993E-01
 -1      5714 5.73697E+01 4.45901E+01-1.00139E+00
 -1      5715 5.73785E+01 4.45901E+01 3.51330E-15
 -1      5716 5.73697E+01 4.45901E+01 1.00139E+00
 -1      5717 5.93403E+01 4.45894E+01-1.03579E+00
 -1      5718 5.93494E+01 4.45894E+01 3.63398E-15
 -1      5719 5.93403E+01 4.45894E+01 1.03579E+00
 -1      5720 6.13114E+01 4.45900E+01-1.07019E+00
 -1      5721 6.13207E+01 4.45900E+01 3.75469E-15
 -1      5722 6.13114E+01 4.45900E+01 1.07019E+00
 -1      5723 6.32834E+01 4.45909E+01-1.10462E+00
 -1      5724 6.32930E+01 4.45909E+01 3.87545E-15
 -1      5725 6.32834E+01 4.45909E+01 1.10462E+00
 -1      5726 6.52565E+01 4.45914E+01-1.13906E+00
 -1      5727 6.52665E+01 4.45914E+01 3.99629E-15
 -1      5728 6.52565E+01 4.45914E+01 1.13906E+00
 -1      5729 6.72304E+01 4.45920E+01-1.17351E+00
 -1      5730 6.72406E+01 4.45920E+01 4.11716E-15
 -1      5731 6.72304E+01 4.45920E+01 1.17351E+00
 -1      5732 6.92039E+01 4.45931E+01-1.20796E+00
 -1      5733 6.92145E+01 4.45931E+01 4.23803E-15
 -1      5734 6.92039E+01 4.45931E+01 1.20796E+00
 -1      5735 7.11767E+01 4.45940E+01-1.24239E+00
 -1      5736 7.11875E+01 4.45940E+01 4.35883E-15
 -1      5737 7.11767E+01 4.45940E+01 1.24239E+00
 -1      5738 7.31479E+01 4.45952E+01-1.27680E+00
 -1      5739 7.31590E+01 4.45952E+01 4.47955E-15
 -1      5740 7.31479E+01 4.45952E+01 1.27680E+00
 -1      5741 7.51162E+01 4.45967E+01-1.31116E+00
 -1      5742 7.51277E+01 4.45967E+01 4.60009E-15
 -1      5743 7.51162E+01 4.45967E+01 1.31116E+00
 -1      5744 7.70803E+01 4.45982E+01-1.34544E+00
 -1      5745 7.70921E+01 4.45982E+01 4.72037E-15
 -1      5746 7.70803E+01 4.45982E+01 1.34544E+00
 -1      5747 7.90389E+01 4.45999E+01-1.37963E+00
 -1      5748 7.90509E+01 4.45999E+01 4.84031E-15
 -1      5749 7.90389E+01 4.45999E+01 1.37963E+00
 -1      5750 8.09908E+01 4.46003E+01-1.41370E+00
 -1      5751 8.10032E+01 4.46003E+01 4.95985E-15
 -1      5752 8.09908E+01 4.46003E+01 1.41370E+00
 -1      5753 8.29367E+01 4.45935E+01-1.44767E+00
 -1      5754 8.29493E+01 4.45935E+01 5.07901E-15
 -1      5755 8.29367E+01 4.45935E+01 1.44767E+00
 -1      5756 8.48770E+01 4.45722E+01-1.48153E+00
 -1      5757 8.48900E+01 4.45722E+01 5.19784E-15
 -1      5758 8.48770E+01 4.45722E+01 1.48153E+00
 -1      5759 8.68128E+01 4.45298E+01-1.51532E+00
 -1      5760 8.68260E+01 4.45298E+01 5.31639E-15
 -1      5761 8.68128E+01 4.45298E+01 1.51532E+00
 -1      5762 8.87519E+01 4.44550E+01-1.54917E+00
 -1      5763 8.87654E+01 4.44550E+01 5.43513E-15
 -1      5764 8.87519E+01 4.44550E+01 1.54917E+00
 -1      5765 9.07130E+01 4.43137E+01-1.58340E+00
 -1      5766 9.07269E+01 4.43137E+01 5.55523E-15
 -1      5767 9.07130E+01 4.43137E+01 1.58340E+00
 -1      5768 9.27319E+01 4.39756E+01-1.61864E+00
 -1      5769 9.27460E+01 4.39756E+01 5.67887E-15
 -1      5770 9.27319E+01 4.39756E+01 1.61864E+00
 -1      5771 4.77430E+01 5.19023E+00-8.33357E-01
 -1      5772 4.77503E+01 5.19023E+00 2.92376E-15
 -1      5773 4.77430E+01 5.19023E+00 8.33357E-01
 -1      5774 3.02798E+01 3.49821E+01-5.28536E-01
 -1      5775 3.02844E+01 3.49821E+01 1.85433E-15
 -1      5776 3.02798E+01 3.49821E+01 5.28536E-01
 -1      5777 9.26018E+01 5.07892E+00-1.61637E+00
 -1      5778 9.26159E+01 5.07892E+00 5.67090E-15
 -1      5779 9.26018E+01 5.07892E+00 1.61637E+00
 -1      5780 9.47740E+01 7.41631E+00-1.65429E+00
 -1      5781 9.47885E+01 7.41631E+00 5.80393E-15
 -1      5782 9.47740E+01 7.41631E+00 1.65429E+00
 -1      5783 9.46626E+01 4.31934E+01-1.65234E+00
 -1      5784 9.46770E+01 4.31934E+01 5.79710E-15
 -1      5785 9.46626E+01 4.31934E+01 1.65234E+00
 -1      5786 7.73580E+01 5.23165E+00-1.35029E+00
 -1      5787 7.73698E+01 5.23165E+00 4.73738E-15
 -1      5788 7.73580E+01 5.23165E+00 1.35029E+00
 -1      5789 3.01836E+01 2.69825E+01-5.26857E-01
 -1      5790 3.01882E+01 2.69825E+01 1.84843E-15
 -1      5791 3.01836E+01 2.69825E+01 5.26857E-01
 -1      5792 3.01911E+01 1.90045E+01-5.26987E-01
 -1      5793 3.01957E+01 1.90045E+01 1.84889E-15
 -1      5794 3.01911E+01 1.90045E+01 5.26987E-01
 -1      5795 3.01615E+01 1.30770E+01-5.26472E-01
 -1      5796 3.01661E+01 1.30770E+01 1.84708E-15
 -1      5797 3.01615E+01 1.30770E+01 5.26472E-01
 -1      5798 3.57046E+01 5.35107E+00-6.23226E-01
 -1      5799 3.57100E+01 5.35107E+00 2.18654E-15
 -1      5800 3.57046E+01 5.35107E+00 6.23226E-01
 -1      5801 4.18284E+01 5.19195E+00-7.30117E-01
 -1      5802 4.18348E+01 5.19195E+00 2.56156E-15
 -1      5803 4.18284E+01 5.19195E+00 7.30117E-01
 -1      5804 3.98218E+01 5.23938E+00-6.95091E-01
 -1      5805 3.98278E+01 5.23938E+00 2.43867E-15
 -1      5806 3.98218E+01 5.23938E+00 6.95091E-01
 -1      5807 5.16817E+01 5.19483E+00-9.02107E-01
 -1      5808 5.16895E+01 5.19483E+00 3.16497E-15
 -1      5809 5.16817E+01 5.19483E+00 9.02107E-01
 -1      5810 5.95662E+01 5.19808E+00-1.03973E+00
 -1      5811 5.95752E+01 5.19808E+00 3.64781E-15
 -1      5812 5.95662E+01 5.19808E+00 1.03973E+00
 -1      5813 5.56249E+01 5.19571E+00-9.70937E-01
 -1      5814 5.56334E+01 5.19571E+00 3.40645E-15
 -1      5815 5.56249E+01 5.19571E+00 9.70937E-01
 -1      5816 6.35078E+01 5.19757E+00-1.10853E+00
 -1      5817 6.35174E+01 5.19757E+00 3.88919E-15
 -1      5818 6.35078E+01 5.19757E+00 1.10853E+00
 -1      5819 7.33841E+01 5.20424E+00-1.28092E+00
 -1      5820 7.33952E+01 5.20424E+00 4.49401E-15
 -1      5821 7.33841E+01 5.20424E+00 1.28092E+00
 -1      5822 6.94282E+01 5.19763E+00-1.21187E+00
 -1      5823 6.94388E+01 5.19763E+00 4.25176E-15
 -1      5824 6.94282E+01 5.19763E+00 1.21187E+00
 -1      5825 8.13474E+01 5.27751E+00-1.41992E+00
 -1      5826 8.13598E+01 5.27751E+00 4.98169E-15
 -1      5827 8.13474E+01 5.27751E+00 1.41992E+00
 -1      5828 8.73493E+01 5.23137E+00-1.52469E+00
 -1      5829 8.73626E+01 5.23137E+00 5.34924E-15
 -1      5830 8.73493E+01 5.23137E+00 1.52469E+00
 -1      5831 9.09499E+01 4.67679E+00-1.58754E+00
 -1      5832 9.09638E+01 4.67679E+00 5.56974E-15
 -1      5833 9.09499E+01 4.67679E+00 1.58754E+00
 -1      5834 3.03401E+01 3.70168E+01-5.29589E-01
 -1      5835 3.03447E+01 3.70168E+01 1.85802E-15
 -1      5836 3.03401E+01 3.70168E+01 5.29589E-01
 -1      5837 9.47541E+01 1.50613E+01-1.65394E+00
 -1      5838 9.47685E+01 1.50613E+01 5.80271E-15
 -1      5839 9.47541E+01 1.50613E+01 1.65394E+00
 -1      5840 9.47648E+01 2.29866E+01-1.65413E+00
 -1      5841 9.47792E+01 2.29866E+01 5.80336E-15
 -1      5842 9.47648E+01 2.29866E+01 1.65413E+00
 -1      5843 9.47693E+01 2.90003E+01-1.65420E+00
 -1      5844 9.47838E+01 2.90003E+01 5.80364E-15
 -1      5845 9.47693E+01 2.90003E+01 1.65420E+00
 -1      5846 9.47797E+01 3.29877E+01-1.65439E+00
 -1      5847 9.47941E+01 3.29877E+01 5.80427E-15
 -1      5848 9.47797E+01 3.29877E+01 1.65439E+00
 -1      5849 9.48315E+01 3.69750E+01-1.65529E+00
 -1      5850 9.48460E+01 3.69750E+01 5.80745E-15
 -1      5851 9.48315E+01 3.69750E+01 1.65529E+00
 -1      5852 9.48339E+01 4.10331E+01-1.65533E+00
 -1      5853 9.48483E+01 4.10331E+01 5.80759E-15
 -1      5854 9.48339E+01 4.10331E+01 1.65533E+00
 -1      5855 3.36991E+01 5.12599E+00-5.88219E-01
 -1      5856 3.37042E+01 5.12599E+00 2.06372E-15
 -1      5857 3.36991E+01 5.12599E+00 5.88219E-01
 -1      5858 3.77843E+01 5.31392E+00-6.59528E-01
 -1      5859 3.77901E+01 5.31392E+00 2.31390E-15
 -1      5860 3.77843E+01 5.31392E+00 6.59528E-01
 -1      5861 6.64660E+01 6.93045E+00-1.16017E+00
 -1      5862 6.64762E+01 6.93045E+00 4.07036E-15
 -1      5863 6.64660E+01 6.93045E+00 1.16017E+00
 -1      5864 9.30121E+01 2.19699E+01-1.62353E+00
 -1      5865 9.30263E+01 2.19699E+01 5.69603E-15
 -1      5866 9.30121E+01 2.19699E+01 1.62353E+00
 -1      5867 3.19105E+01 2.79590E+01-5.57000E-01
 -1      5868 3.19153E+01 2.79590E+01 1.95419E-15
 -1      5869 3.19105E+01 2.79590E+01 5.57000E-01
 -1      5870 3.18378E+01 1.21416E+01-5.55731E-01
 -1      5871 3.18426E+01 1.21416E+01 1.94974E-15
 -1      5872 3.18378E+01 1.21416E+01 5.55731E-01
 -1      5873 6.25222E+01 6.93155E+00-1.09133E+00
 -1      5874 6.25317E+01 6.93155E+00 3.82884E-15
 -1      5875 6.25222E+01 6.93155E+00 1.09133E+00
 -1      5876 6.44934E+01 6.93097E+00-1.12574E+00
 -1      5877 6.45033E+01 6.93097E+00 3.94956E-15
 -1      5878 6.44934E+01 6.93097E+00 1.12574E+00
 -1      5879 9.32372E+01 3.99124E+01-1.62746E+00
 -1      5880 9.32514E+01 3.99124E+01 5.70982E-15
 -1      5881 9.32372E+01 3.99124E+01 1.62746E+00
 -1      5882 9.29763E+01 1.60119E+01-1.62291E+00
 -1      5883 9.29905E+01 1.60119E+01 5.69384E-15
 -1      5884 9.29763E+01 1.60119E+01 1.62291E+00
 -1      5885 3.19248E+01 1.80052E+01-5.57249E-01
 -1      5886 3.19296E+01 1.80052E+01 1.95506E-15
 -1      5887 3.19248E+01 1.80052E+01 5.57249E-01
 -1      5888 3.19025E+01 1.40546E+01-5.56860E-01
 -1      5889 3.19073E+01 1.40546E+01 1.95370E-15
 -1      5890 3.19025E+01 1.40546E+01 5.56860E-01
 -1      5891 3.19165E+01 2.99351E+01-5.57104E-01
 -1      5892 3.19213E+01 2.99351E+01 1.95455E-15
 -1      5893 3.19165E+01 2.99351E+01 5.57104E-01
 -1      5894 4.48146E+01 6.90354E+00-7.82242E-01
 -1      5895 4.48215E+01 6.90354E+00 2.74443E-15
 -1      5896 4.48146E+01 6.90354E+00 7.82242E-01
 -1      5897 9.30276E+01 2.80023E+01-1.62380E+00
 -1      5898 9.30417E+01 2.80023E+01 5.69698E-15
 -1      5899 9.30276E+01 2.80023E+01 1.62380E+00
 -1      5900 3.19993E+01 3.39153E+01-5.58549E-01
 -1      5901 3.20041E+01 3.39153E+01 1.95962E-15
 -1      5902 3.19993E+01 3.39153E+01 5.58549E-01
 -1      5903 5.26680E+01 6.92699E+00-9.19323E-01
 -1      5904 5.26760E+01 6.92699E+00 3.22537E-15
 -1      5905 5.26680E+01 6.92699E+00 9.19323E-01
 -1      5906 5.66107E+01 6.92889E+00-9.88144E-01
 -1      5907 5.66194E+01 6.92889E+00 3.46682E-15
 -1      5908 5.66107E+01 6.92889E+00 9.88144E-01
 -1      5909 9.30166E+01 3.19998E+01-1.62361E+00
 -1      5910 9.30307E+01 3.19998E+01 5.69630E-15
 -1      5911 9.30166E+01 3.19998E+01 1.62361E+00
 -1      5912 3.19217E+01 2.00029E+01-5.57196E-01
 -1      5913 3.19266E+01 2.00029E+01 1.95488E-15
 -1      5914 3.19217E+01 2.00029E+01 5.57196E-01
 -1      5915 9.31553E+01 4.19399E+01-1.62603E+00
 -1      5916 9.31695E+01 4.19399E+01 5.70480E-15
 -1      5917 9.31553E+01 4.19399E+01 1.62603E+00
 -1      5918 5.46394E+01 6.92739E+00-9.53735E-01
 -1      5919 5.46478E+01 6.92739E+00 3.34610E-15
 -1      5920 5.46394E+01 6.92739E+00 9.53735E-01
 -1      5921 8.85988E+01 6.95773E+00-1.54650E+00
 -1      5922 8.86123E+01 6.95773E+00 5.42576E-15
 -1      5923 8.85988E+01 6.95773E+00 1.54650E+00
 -1      5924 6.05517E+01 6.93156E+00-1.05693E+00
 -1      5925 6.05609E+01 6.93156E+00 3.70816E-15
 -1      5926 6.05517E+01 6.93156E+00 1.05693E+00
 -1      5927 7.04162E+01 6.93143E+00-1.22912E+00
 -1      5928 7.04269E+01 6.93143E+00 4.31226E-15
 -1      5929 7.04162E+01 6.93143E+00 1.22912E+00
 -1      5930 7.43784E+01 6.94358E+00-1.29828E+00
 -1      5931 7.43897E+01 6.94358E+00 4.55491E-15
 -1      5932 7.43784E+01 6.94358E+00 1.29828E+00
 -1      5933 7.83720E+01 6.99330E+00-1.36799E+00
 -1      5934 7.83839E+01 6.99330E+00 4.79947E-15
 -1      5935 7.83720E+01 6.99330E+00 1.36799E+00
 -1      5936 3.22170E+01 3.80023E+01-5.62350E-01
 -1      5937 3.22219E+01 3.80023E+01 1.97296E-15
 -1      5938 3.22170E+01 3.80023E+01 5.62350E-01
 -1      5939 3.21017E+01 3.59355E+01-5.60337E-01
 -1      5940 3.21066E+01 3.59355E+01 1.96590E-15
 -1      5941 3.21017E+01 3.59355E+01 5.60337E-01
 -1      5942 9.31629E+01 1.03944E+01-1.62616E+00
 -1      5943 9.31771E+01 1.03944E+01 5.70526E-15
 -1      5944 9.31629E+01 1.03944E+01 1.62616E+00
 -1      5945 9.31309E+01 3.79626E+01-1.62561E+00
 -1      5946 9.31451E+01 3.79626E+01 5.70331E-15
 -1      5947 9.31309E+01 3.79626E+01 1.62561E+00
 -1      5948 9.30034E+01 1.40801E+01-1.62338E+00
 -1      5949 9.30176E+01 1.40801E+01 5.69550E-15
 -1      5950 9.30034E+01 1.40801E+01 1.62338E+00
 -1      5951 5.85812E+01 6.93040E+00-1.02254E+00
 -1      5952 5.85901E+01 6.93040E+00 3.58749E-15
 -1      5953 5.85812E+01 6.93040E+00 1.02254E+00
 -1      5954 9.07887E+01 6.49062E+00-1.58472E+00
 -1      5955 9.08025E+01 6.49062E+00 5.55987E-15
 -1      5956 9.07887E+01 6.49062E+00 1.58472E+00
 -1      5957 8.64919E+01 7.06540E+00-1.50972E+00
 -1      5958 8.65051E+01 7.06540E+00 5.29673E-15
 -1      5959 8.64919E+01 7.06540E+00 1.50972E+00
 -1      5960 9.29900E+01 1.99643E+01-1.62315E+00
 -1      5961 9.30042E+01 1.99643E+01 5.69468E-15
 -1      5962 9.29900E+01 1.99643E+01 1.62315E+00
 -1      5963 9.29742E+01 1.79747E+01-1.62287E+00
 -1      5964 9.29884E+01 1.79747E+01 5.69371E-15
 -1      5965 9.29742E+01 1.79747E+01 1.62287E+00
 -1      5966 3.19409E+01 3.19235E+01-5.57530E-01
 -1      5967 3.19457E+01 3.19235E+01 1.95605E-15
 -1      5968 3.19409E+01 3.19235E+01 5.57530E-01
 -1      5969 5.06969E+01 6.92702E+00-8.84918E-01
 -1      5970 5.07046E+01 6.92702E+00 3.10466E-15
 -1      5971 5.06969E+01 6.92702E+00 8.84918E-01
 -1      5972 9.30117E+01 1.21746E+01-1.62353E+00
 -1      5973 9.30259E+01 1.21746E+01 5.69600E-15
 -1      5974 9.30117E+01 1.21746E+01 1.62353E+00
 -1      5975 9.30353E+01 2.59941E+01-1.62394E+00
 -1      5976 9.30495E+01 2.59941E+01 5.69745E-15
 -1      5977 9.30353E+01 2.59941E+01 1.62394E+00
 -1      5978 3.19231E+01 1.60166E+01-5.57221E-01
 -1      5979 3.19280E+01 1.60166E+01 1.95496E-15
 -1      5980 3.19231E+01 1.60166E+01 5.57221E-01
 -1      5981 9.30177E+01 3.00059E+01-1.62363E+00
 -1      5982 9.30319E+01 3.00059E+01 5.69637E-15
 -1      5983 9.30177E+01 3.00059E+01 1.62363E+00
 -1      5984 9.31096E+01 3.59565E+01-1.62523E+00
 -1      5985 9.31238E+01 3.59565E+01 5.70200E-15
 -1      5986 9.31096E+01 3.59565E+01 1.62523E+00
 -1      5987 3.21613E+01 6.41252E+00-5.61377E-01
 -1      5988 3.21662E+01 6.41252E+00 1.96955E-15
 -1      5989 3.21613E+01 6.41252E+00 5.61377E-01
 -1      5990 3.19235E+01 4.68754E+00-5.57227E-01
 -1      5991 3.19284E+01 4.68754E+00 1.95498E-15
 -1      5992 3.19235E+01 4.68754E+00 5.57227E-01
 -1      5993 7.63679E+01 6.96117E+00-1.33301E+00
 -1      5994 7.63796E+01 6.96117E+00 4.67675E-15
 -1      5995 7.63679E+01 6.96117E+00 1.33301E+00
 -1      5996 3.45660E+01 4.26785E+01-6.03352E-01
 -1      5997 3.45713E+01 4.26785E+01 2.11681E-15
 -1      5998 3.45660E+01 4.26785E+01 6.03352E-01
 -1      5999 3.65795E+01 4.27193E+01-6.38497E-01
 -1      6000 3.65851E+01 4.27193E+01 2.24011E-15
 -1      6001 3.65795E+01 4.27193E+01 6.38497E-01
 -1      6002 3.85763E+01 4.27804E+01-6.73352E-01
 -1      6003 3.85822E+01 4.27804E+01 2.36240E-15
 -1      6004 3.85763E+01 4.27804E+01 6.73352E-01
 -1      6005 4.05750E+01 4.28306E+01-7.08239E-01
 -1      6006 4.05812E+01 4.28306E+01 2.48480E-15
 -1      6007 4.05750E+01 4.28306E+01 7.08239E-01
 -1      6008 4.25690E+01 4.28597E+01-7.43044E-01
 -1      6009 4.25754E+01 4.28597E+01 2.60691E-15
 -1      6010 4.25690E+01 4.28597E+01 7.43044E-01
 -1      6011 4.45553E+01 4.28695E+01-7.77715E-01
 -1      6012 4.45621E+01 4.28695E+01 2.72855E-15
 -1      6013 4.45553E+01 4.28695E+01 7.77715E-01
 -1      6014 4.65342E+01 4.28667E+01-8.12258E-01
 -1      6015 4.65413E+01 4.28667E+01 2.84974E-15
 -1      6016 4.65342E+01 4.28667E+01 8.12258E-01
 -1      6017 4.85080E+01 4.28584E+01-8.46710E-01
 -1      6018 4.85154E+01 4.28584E+01 2.97061E-15
 -1      6019 4.85080E+01 4.28584E+01 8.46710E-01
 -1      6020 5.04790E+01 4.28501E+01-8.81114E-01
 -1      6021 5.04867E+01 4.28501E+01 3.09131E-15
 -1      6022 5.04790E+01 4.28501E+01 8.81114E-01
 -1      6023 5.24492E+01 4.28443E+01-9.15505E-01
 -1      6024 5.24572E+01 4.28443E+01 3.21197E-15
 -1      6025 5.24492E+01 4.28443E+01 9.15505E-01
 -1      6026 5.44196E+01 4.28411E+01-9.49898E-01
 -1      6027 5.44279E+01 4.28411E+01 3.33264E-15
 -1      6028 5.44196E+01 4.28411E+01 9.49898E-01
 -1      6029 5.63901E+01 4.28395E+01-9.84293E-01
 -1      6030 5.63987E+01 4.28395E+01 3.45331E-15
 -1      6031 5.63901E+01 4.28395E+01 9.84293E-01
 -1      6032 5.83608E+01 4.28387E+01-1.01869E+00
 -1      6033 5.83697E+01 4.28387E+01 3.57399E-15
 -1      6034 5.83608E+01 4.28387E+01 1.01869E+00
 -1      6035 6.03320E+01 4.28388E+01-1.05310E+00
 -1      6036 6.03412E+01 4.28388E+01 3.69471E-15
 -1      6037 6.03320E+01 4.28388E+01 1.05310E+00
 -1      6038 6.23041E+01 4.28395E+01-1.08752E+00
 -1      6039 6.23136E+01 4.28395E+01 3.81548E-15
 -1      6040 6.23041E+01 4.28395E+01 1.08752E+00
 -1      6041 6.42773E+01 4.28404E+01-1.12196E+00
 -1      6042 6.42871E+01 4.28404E+01 3.93632E-15
 -1      6043 6.42773E+01 4.28404E+01 1.12196E+00
 -1      6044 6.62512E+01 4.28413E+01-1.15642E+00
 -1      6045 6.62613E+01 4.28413E+01 4.05720E-15
 -1      6046 6.62512E+01 4.28413E+01 1.15642E+00
 -1      6047 6.82249E+01 4.28424E+01-1.19087E+00
 -1      6048 6.82353E+01 4.28424E+01 4.17807E-15
 -1      6049 6.82249E+01 4.28424E+01 1.19087E+00
 -1      6050 7.01977E+01 4.28440E+01-1.22531E+00
 -1      6051 7.02084E+01 4.28440E+01 4.29888E-15
 -1      6052 7.01977E+01 4.28440E+01 1.22531E+00
 -1      6053 7.21691E+01 4.28457E+01-1.25972E+00
 -1      6054 7.21800E+01 4.28457E+01 4.41961E-15
 -1      6055 7.21691E+01 4.28457E+01 1.25972E+00
 -1      6056 7.41375E+01 4.28473E+01-1.29407E+00
 -1      6057 7.41488E+01 4.28473E+01 4.54015E-15
 -1      6058 7.41375E+01 4.28473E+01 1.29407E+00
 -1      6059 7.61005E+01 4.28488E+01-1.32834E+00
 -1      6060 7.61121E+01 4.28488E+01 4.66037E-15
 -1      6061 7.61005E+01 4.28488E+01 1.32834E+00
 -1      6062 7.80551E+01 4.28507E+01-1.36246E+00
 -1      6063 7.80670E+01 4.28507E+01 4.78007E-15
 -1      6064 7.80551E+01 4.28507E+01 1.36246E+00
 -1      6065 7.99985E+01 4.28531E+01-1.39638E+00
 -1      6066 8.00107E+01 4.28531E+01 4.89908E-15
 -1      6067 7.99985E+01 4.28531E+01 1.39638E+00
 -1      6068 8.19285E+01 4.28530E+01-1.43007E+00
 -1      6069 8.19410E+01 4.28530E+01 5.01727E-15
 -1      6070 8.19285E+01 4.28530E+01 1.43007E+00
 -1      6071 8.38463E+01 4.28383E+01-1.46354E+00
 -1      6072 8.38591E+01 4.28383E+01 5.13472E-15
 -1      6073 8.38463E+01 4.28383E+01 1.46354E+00
 -1      6074 8.57491E+01 4.27956E+01-1.49676E+00
 -1      6075 8.57622E+01 4.27956E+01 5.25124E-15
 -1      6076 8.57491E+01 4.27956E+01 1.49676E+00
 -1      6077 8.76306E+01 4.27258E+01-1.52960E+00
 -1      6078 8.76440E+01 4.27258E+01 5.36647E-15
 -1      6079 8.76306E+01 4.27258E+01 1.52960E+00
 -1      6080 8.94925E+01 4.26260E+01-1.56210E+00
 -1      6081 8.95062E+01 4.26260E+01 5.48049E-15
 -1      6082 8.94925E+01 4.26260E+01 1.56210E+00
 -1      6083 9.13400E+01 4.24721E+01-1.59435E+00
 -1      6084 9.13539E+01 4.24721E+01 5.59363E-15
 -1      6085 9.13400E+01 4.24721E+01 1.59435E+00
 -1      6086 9.29631E+01 6.79819E+00-1.62268E+00
 -1      6087 9.29773E+01 6.79819E+00 5.69303E-15
 -1      6088 9.29631E+01 6.79819E+00 1.62268E+00
 -1      6089 8.44316E+01 7.08845E+00-1.47376E+00
 -1      6090 8.44445E+01 7.08845E+00 5.17056E-15
 -1      6091 8.44316E+01 7.08845E+00 1.47376E+00
 -1      6092 3.23306E+01 4.24366E+01-5.64333E-01
 -1      6093 3.23356E+01 4.24366E+01 1.97992E-15
 -1      6094 3.23306E+01 4.24366E+01 5.64333E-01
 -1      6095 8.24058E+01 7.07211E+00-1.43840E+00
 -1      6096 8.24183E+01 7.07211E+00 5.04650E-15
 -1      6097 8.24058E+01 7.07211E+00 1.43840E+00
 -1      6098 3.19172E+01 2.39913E+01-5.57117E-01
 -1      6099 3.19221E+01 2.39913E+01 1.95460E-15
 -1      6100 3.19172E+01 2.39913E+01 5.57117E-01
 -1      6101 9.30286E+01 2.39816E+01-1.62382E+00
 -1      6102 9.30428E+01 2.39816E+01 5.69704E-15
 -1      6103 9.30286E+01 2.39816E+01 1.62382E+00
 -1      6104 4.67693E+01 6.91846E+00-8.16362E-01
 -1      6105 4.67765E+01 6.91846E+00 2.86414E-15
 -1      6106 4.67693E+01 6.91846E+00 8.16362E-01
 -1      6107 3.21909E+01 8.31227E+00-5.61895E-01
 -1      6108 3.21958E+01 8.31227E+00 1.97136E-15
 -1      6109 3.21909E+01 8.31227E+00 5.61895E-01
 -1      6110 3.19199E+01 2.19993E+01-5.57163E-01
 -1      6111 3.19247E+01 2.19993E+01 1.95476E-15
 -1      6112 3.19199E+01 2.19993E+01 5.57163E-01
 -1      6113 4.08786E+01 6.91818E+00-7.13539E-01
 -1      6114 4.08848E+01 6.91818E+00 2.50339E-15
 -1      6115 4.08786E+01 6.91818E+00 7.13539E-01
 -1      6116 7.23951E+01 6.93509E+00-1.26366E+00
 -1      6117 7.24062E+01 6.93509E+00 4.43345E-15
 -1      6118 7.23951E+01 6.93509E+00 1.26366E+00
 -1      6119 6.84402E+01 6.93038E+00-1.19463E+00
 -1      6120 6.84506E+01 6.93038E+00 4.19125E-15
 -1      6121 6.84402E+01 6.93038E+00 1.19463E+00
 -1      6122 3.43552E+01 7.31036E+00-5.99673E-01
 -1      6123 3.43605E+01 7.31036E+00 2.10390E-15
 -1      6124 3.43552E+01 7.31036E+00 5.99673E-01
 -1      6125 3.19129E+01 2.59755E+01-5.57041E-01
 -1      6126 3.19177E+01 2.59755E+01 1.95433E-15
 -1      6127 3.19129E+01 2.59755E+01 5.57041E-01
 -1      6128 9.30443E+01 3.39804E+01-1.62409E+00
 -1      6129 9.30584E+01 3.39804E+01 5.69800E-15
 -1      6130 9.30443E+01 3.39804E+01 1.62409E+00
 -1      6131 3.21437E+01 4.00755E+01-5.61071E-01
 -1      6132 3.21486E+01 4.00755E+01 1.96847E-15
 -1      6133 3.21437E+01 4.00755E+01 5.61071E-01
 -1      6134 4.87288E+01 6.92568E+00-8.50565E-01
 -1      6135 4.87363E+01 6.92568E+00 2.98414E-15
 -1      6136 4.87288E+01 6.92568E+00 8.50565E-01
 -1      6137 3.88563E+01 7.02183E+00-6.78239E-01
 -1      6138 3.88622E+01 7.02183E+00 2.37954E-15
 -1      6139 3.88563E+01 7.02183E+00 6.78239E-01
 -1      6140 9.32561E+01 8.58019E+00-1.62779E+00
 -1      6141 9.32703E+01 8.58019E+00 5.71097E-15
 -1      6142 9.32561E+01 8.58019E+00 1.62779E+00
 -1      6143 4.28582E+01 6.89126E+00-7.48093E-01
 -1      6144 4.28647E+01 6.89126E+00 2.62462E-15
 -1      6145 4.28582E+01 6.89126E+00 7.48093E-01
 -1      6146 8.03886E+01 7.03631E+00-1.40319E+00
 -1      6147 8.04009E+01 7.03631E+00 4.92297E-15
 -1      6148 8.03886E+01 7.03631E+00 1.40319E+00
 -1      6149 3.67430E+01 7.18498E+00-6.41352E-01
 -1      6150 3.67486E+01 7.18498E+00 2.25013E-15
 -1      6151 3.67430E+01 7.18498E+00 6.41352E-01
 -1      6152 3.38062E+01 3.47954E+01-5.90089E-01
 -1      6153 3.38113E+01 3.47954E+01 2.07028E-15
 -1      6154 3.38062E+01 3.47954E+01 5.90089E-01
 -1      6155 9.12965E+01 2.49840E+01-1.59359E+00
 -1      6156 9.13104E+01 2.49840E+01 5.59096E-15
 -1      6157 9.12965E+01 2.49840E+01 1.59359E+00
 -1      6158 9.18471E+01 4.08152E+01-1.60320E+00
 -1      6159 9.18611E+01 4.08152E+01 5.62469E-15
 -1      6160 9.18471E+01 4.08152E+01 1.60320E+00
 -1      6161 3.36463E+01 2.49775E+01-5.87299E-01
 -1      6162 3.36515E+01 2.49775E+01 2.06049E-15
 -1      6163 3.36463E+01 2.49775E+01 5.87299E-01
 -1      6164 8.14548E+01 8.85042E+00-1.42180E+00
 -1      6165 8.14672E+01 8.85042E+00 4.98826E-15
 -1      6166 8.14548E+01 8.85042E+00 1.42180E+00
 -1      6167 9.12709E+01 2.90121E+01-1.59314E+00
 -1      6168 9.12848E+01 2.90121E+01 5.58940E-15
 -1      6169 9.12709E+01 2.90121E+01 1.59314E+00
 -1      6170 3.36360E+01 2.89032E+01-5.87119E-01
 -1      6171 3.36411E+01 2.89032E+01 2.05986E-15
 -1      6172 3.36360E+01 2.89032E+01 5.87119E-01
 -1      6173 3.19432E+01 1.02130E+01-5.57571E-01
 -1      6174 3.19481E+01 1.02130E+01 1.95619E-15
 -1      6175 3.19432E+01 1.02130E+01 5.57571E-01
 -1      6176 3.36535E+01 1.90077E+01-5.87423E-01
 -1      6177 3.36586E+01 1.90077E+01 2.06093E-15
 -1      6178 3.36535E+01 1.90077E+01 5.87423E-01
 -1      6179 7.94081E+01 8.77845E+00-1.38607E+00
 -1      6180 7.94202E+01 8.77845E+00 4.86292E-15
 -1      6181 7.94081E+01 8.77845E+00 1.38607E+00
 -1      6182 9.10609E+01 1.10388E+01-1.58947E+00
 -1      6183 9.10748E+01 1.10388E+01 5.57654E-15
 -1      6184 9.10609E+01 1.10388E+01 1.58947E+00
 -1      6185 6.15371E+01 8.66653E+00-1.07413E+00
 -1      6186 6.15465E+01 8.66653E+00 3.76851E-15
 -1      6187 6.15371E+01 8.66653E+00 1.07413E+00
 -1      6188 3.37522E+01 4.09939E+01-5.89147E-01
 -1      6189 3.37574E+01 4.09939E+01 2.06697E-15
 -1      6190 3.37522E+01 4.09939E+01 5.89147E-01
 -1      6191 6.74515E+01 8.66385E+00-1.17737E+00
 -1      6192 6.74618E+01 8.66385E+00 4.13071E-15
 -1      6193 6.74515E+01 8.66385E+00 1.17737E+00
 -1      6194 8.99133E+01 8.79771E+00-1.56944E+00
 -1      6195 8.99270E+01 8.79771E+00 5.50626E-15
 -1      6196 8.99133E+01 8.79771E+00 1.56944E+00
 -1      6197 9.16798E+01 7.97680E+00-1.60028E+00
 -1      6198 9.16937E+01 7.97680E+00 5.61444E-15
 -1      6199 9.16798E+01 7.97680E+00 1.60028E+00
 -1      6200 7.14035E+01 8.66571E+00-1.24635E+00
 -1      6201 7.14144E+01 8.66571E+00 4.37273E-15
 -1      6202 7.14035E+01 8.66571E+00 1.24635E+00
 -1      6203 9.12788E+01 2.29616E+01-1.59328E+00
 -1      6204 9.12927E+01 2.29616E+01 5.58988E-15
 -1      6205 9.12788E+01 2.29616E+01 1.59328E+00
 -1      6206 6.94258E+01 8.66372E+00-1.21183E+00
 -1      6207 6.94363E+01 8.66372E+00 4.25161E-15
 -1      6208 6.94258E+01 8.66372E+00 1.21183E+00
 -1      6209 9.11744E+01 1.69258E+01-1.59146E+00
 -1      6210 9.11883E+01 1.69258E+01 5.58349E-15
 -1      6211 9.11744E+01 1.69258E+01 1.59146E+00
 -1      6212 9.12058E+01 1.49812E+01-1.59200E+00
 -1      6213 9.12197E+01 1.49812E+01 5.58541E-15
 -1      6214 9.12058E+01 1.49812E+01 1.59200E+00
 -1      6215 3.36389E+01 2.69466E+01-5.87169E-01
 -1      6216 3.36440E+01 2.69466E+01 2.06003E-15
 -1      6217 3.36389E+01 2.69466E+01 5.87169E-01
 -1      6218 8.76854E+01 8.83809E+00-1.53055E+00
 -1      6219 8.76988E+01 8.83809E+00 5.36982E-15
 -1      6220 8.76854E+01 8.83809E+00 1.53055E+00
 -1      6221 3.36218E+01 1.30245E+01-5.86871E-01
 -1      6222 3.36269E+01 1.30245E+01 2.05899E-15
 -1      6223 3.36218E+01 1.30245E+01 5.86871E-01
 -1      6224 9.12426E+01 2.09357E+01-1.59265E+00
 -1      6225 9.12565E+01 2.09357E+01 5.58766E-15
 -1      6226 9.12426E+01 2.09357E+01 1.59265E+00
 -1      6227 9.12015E+01 1.89193E+01-1.59193E+00
 -1      6228 9.12154E+01 1.89193E+01 5.58515E-15
 -1      6229 9.12015E+01 1.89193E+01 1.59193E+00
 -1      6230 3.36484E+01 3.08622E+01-5.87335E-01
 -1      6231 3.36535E+01 3.08622E+01 2.06062E-15
 -1      6232 3.36484E+01 3.08622E+01 5.87335E-01
 -1      6233 5.16827E+01 8.65898E+00-9.02124E-01
 -1      6234 5.16905E+01 8.65898E+00 3.16503E-15
 -1      6235 5.16827E+01 8.65898E+00 9.02124E-01
 -1      6236 9.12784E+01 1.30742E+01-1.59327E+00
 -1      6237 9.12923E+01 1.30742E+01 5.58985E-15
 -1      6238 9.12784E+01 1.30742E+01 1.59327E+00
 -1      6239 9.12917E+01 2.69987E+01-1.59350E+00
 -1      6240 9.13056E+01 2.69987E+01 5.59067E-15
 -1      6241 9.12917E+01 2.69987E+01 1.59350E+00
 -1      6242 3.36591E+01 1.50026E+01-5.87522E-01
 -1      6243 3.36642E+01 1.50026E+01 2.06127E-15
 -1      6244 3.36591E+01 1.50026E+01 5.87522E-01
 -1      6245 9.14813E+01 3.69136E+01-1.59681E+00
 -1      6246 9.14952E+01 3.69136E+01 5.60228E-15
 -1      6247 9.14813E+01 3.69136E+01 1.59681E+00
 -1      6248 9.13176E+01 3.49800E+01-1.59395E+00
 -1      6249 9.13315E+01 3.49800E+01 5.59226E-15
 -1      6250 9.13176E+01 3.49800E+01 1.59395E+00
 -1      6251 3.40035E+01 3.68127E+01-5.93533E-01
 -1      6252 3.40087E+01 3.68127E+01 2.08236E-15
 -1      6253 3.40035E+01 3.68127E+01 5.93533E-01
 -1      6254 3.55854E+01 4.09004E+01-6.21146E-01
 -1      6255 3.55909E+01 4.09004E+01 2.17924E-15
 -1      6256 3.55854E+01 4.09004E+01 6.21146E-01
 -1      6257 3.76248E+01 4.10083E+01-6.56743E-01
 -1      6258 3.76305E+01 4.10083E+01 2.30413E-15
 -1      6259 3.76248E+01 4.10083E+01 6.56743E-01
 -1      6260 3.96457E+01 4.11048E+01-6.92018E-01
 -1      6261 3.96517E+01 4.11048E+01 2.42789E-15
 -1      6262 3.96457E+01 4.11048E+01 6.92018E-01
 -1      6263 4.16553E+01 4.11648E+01-7.27096E-01
 -1      6264 4.16616E+01 4.11648E+01 2.55095E-15
 -1      6265 4.16553E+01 4.11648E+01 7.27096E-01
 -1      6266 4.36511E+01 4.11890E+01-7.61934E-01
 -1      6267 4.36578E+01 4.11890E+01 2.67318E-15
 -1      6268 4.36511E+01 4.11890E+01 7.61934E-01
 -1      6269 4.56349E+01 4.11878E+01-7.96561E-01
 -1      6270 4.56419E+01 4.11878E+01 2.79467E-15
 -1      6271 4.56349E+01 4.11878E+01 7.96561E-01
 -1      6272 4.76099E+01 4.11739E+01-8.31034E-01
 -1      6273 4.76171E+01 4.11739E+01 2.91561E-15
 -1      6274 4.76099E+01 4.11739E+01 8.31034E-01
 -1      6275 4.95798E+01 4.11581E+01-8.65419E-01
 -1      6276 4.95874E+01 4.11581E+01 3.03625E-15
 -1      6277 4.95798E+01 4.11581E+01 8.65419E-01
 -1      6278 5.15483E+01 4.11465E+01-8.99779E-01
 -1      6279 5.15562E+01 4.11465E+01 3.15680E-15
 -1      6280 5.15483E+01 4.11465E+01 8.99779E-01
 -1      6281 5.35175E+01 4.11402E+01-9.34151E-01
 -1      6282 5.35256E+01 4.11402E+01 3.27739E-15
 -1      6283 5.35175E+01 4.11402E+01 9.34151E-01
 -1      6284 5.54875E+01 4.11372E+01-9.68538E-01
 -1      6285 5.54960E+01 4.11372E+01 3.39804E-15
 -1      6286 5.54875E+01 4.11372E+01 9.68538E-01
 -1      6287 5.74581E+01 4.11359E+01-1.00293E+00
 -1      6288 5.74668E+01 4.11359E+01 3.51871E-15
 -1      6289 5.74581E+01 4.11359E+01 1.00293E+00
 -1      6290 5.94293E+01 4.11357E+01-1.03734E+00
 -1      6291 5.94383E+01 4.11357E+01 3.63943E-15
 -1      6292 5.94293E+01 4.11357E+01 1.03734E+00
 -1      6293 6.14014E+01 4.11364E+01-1.07177E+00
 -1      6294 6.14108E+01 4.11364E+01 3.76020E-15
 -1      6295 6.14014E+01 4.11364E+01 1.07177E+00
 -1      6296 6.33748E+01 4.11376E+01-1.10621E+00
 -1      6297 6.33845E+01 4.11376E+01 3.88105E-15
 -1      6298 6.33748E+01 4.11376E+01 1.10621E+00
 -1      6299 6.53491E+01 4.11387E+01-1.14067E+00
 -1      6300 6.53590E+01 4.11387E+01 4.00195E-15
 -1      6301 6.53491E+01 4.11387E+01 1.14067E+00
 -1      6302 6.73231E+01 4.11399E+01-1.17513E+00
 -1      6303 6.73334E+01 4.11399E+01 4.12284E-15
 -1      6304 6.73231E+01 4.11399E+01 1.17513E+00
 -1      6305 6.92962E+01 4.11420E+01-1.20957E+00
 -1      6306 6.93067E+01 4.11420E+01 4.24367E-15
 -1      6307 6.92962E+01 4.11420E+01 1.20957E+00
 -1      6308 7.12678E+01 4.11450E+01-1.24398E+00
 -1      6309 7.12786E+01 4.11450E+01 4.36441E-15
 -1      6310 7.12678E+01 4.11450E+01 1.24398E+00
 -1      6311 7.32371E+01 4.11477E+01-1.27836E+00
 -1      6312 7.32483E+01 4.11477E+01 4.48501E-15
 -1      6313 7.32371E+01 4.11477E+01 1.27836E+00
 -1      6314 7.52012E+01 4.11490E+01-1.31264E+00
 -1      6315 7.52127E+01 4.11490E+01 4.60530E-15
 -1      6316 7.52012E+01 4.11490E+01 1.31264E+00
 -1      6317 7.71550E+01 4.11499E+01-1.34675E+00
 -1      6318 7.71667E+01 4.11499E+01 4.72494E-15
 -1      6319 7.71550E+01 4.11499E+01 1.34675E+00
 -1      6320 7.90932E+01 4.11520E+01-1.38058E+00
 -1      6321 7.91053E+01 4.11520E+01 4.84364E-15
 -1      6322 7.90932E+01 4.11520E+01 1.38058E+00
 -1      6323 8.10110E+01 4.11553E+01-1.41405E+00
 -1      6324 8.10233E+01 4.11553E+01 4.96108E-15
 -1      6325 8.10110E+01 4.11553E+01 1.41405E+00
 -1      6326 8.29021E+01 4.11572E+01-1.44706E+00
 -1      6327 8.29148E+01 4.11572E+01 5.07690E-15
 -1      6328 8.29021E+01 4.11572E+01 1.44706E+00
 -1      6329 8.47761E+01 4.11225E+01-1.47977E+00
 -1      6330 8.47890E+01 4.11225E+01 5.19166E-15
 -1      6331 8.47761E+01 4.11225E+01 1.47977E+00
 -1      6332 8.66218E+01 4.10336E+01-1.51199E+00
 -1      6333 8.66350E+01 4.10336E+01 5.30469E-15
 -1      6334 8.66218E+01 4.10336E+01 1.51199E+00
 -1      6335 8.84290E+01 4.09367E+01-1.54353E+00
 -1      6336 8.84424E+01 4.09367E+01 5.41536E-15
 -1      6337 8.84290E+01 4.09367E+01 1.54353E+00
 -1      6338 8.55630E+01 8.90040E+00-1.49351E+00
 -1      6339 8.55760E+01 8.90040E+00 5.23984E-15
 -1      6340 8.55630E+01 8.90040E+00 1.49351E+00
 -1      6341 3.36601E+01 1.70042E+01-5.87538E-01
 -1      6342 3.36652E+01 1.70042E+01 2.06133E-15
 -1      6343 3.36601E+01 1.70042E+01 5.87538E-01
 -1      6344 9.12418E+01 3.30172E+01-1.59263E+00
 -1      6345 9.12557E+01 3.30172E+01 5.58762E-15
 -1      6346 9.12418E+01 3.30172E+01 1.59263E+00
 -1      6347 9.13335E+01 3.90306E+01-1.59423E+00
 -1      6348 9.13474E+01 3.90306E+01 5.59323E-15
 -1      6349 9.13335E+01 3.90306E+01 1.59423E+00
 -1      6350 3.39162E+01 9.54603E+00-5.92009E-01
 -1      6351 3.39213E+01 9.54603E+00 2.07701E-15
 -1      6352 3.39162E+01 9.54603E+00 5.92009E-01
 -1      6353 3.36502E+01 2.29961E+01-5.87366E-01
 -1      6354 3.36553E+01 2.29961E+01 2.06072E-15
 -1      6355 3.36502E+01 2.29961E+01 5.87366E-01
 -1      6356 5.75968E+01 8.66329E+00-1.00536E+00
 -1      6357 5.76056E+01 8.66329E+00 3.52721E-15
 -1      6358 5.75968E+01 8.66329E+00 1.00536E+00
 -1      6359 8.35022E+01 8.90069E+00-1.45754E+00
 -1      6360 8.35149E+01 8.90069E+00 5.11364E-15
 -1      6361 8.35022E+01 8.90069E+00 1.45754E+00
 -1      6362 3.36506E+01 2.10044E+01-5.87374E-01
 -1      6363 3.36557E+01 2.10044E+01 2.06075E-15
 -1      6364 3.36506E+01 2.10044E+01 5.87374E-01
 -1      6365 4.19468E+01 8.57620E+00-7.32185E-01
 -1      6366 4.19532E+01 8.57620E+00 2.56881E-15
 -1      6367 4.19468E+01 8.57620E+00 7.32185E-01
 -1      6368 3.36993E+01 3.28212E+01-5.88223E-01
 -1      6369 3.37044E+01 3.28212E+01 2.06373E-15
 -1      6370 3.36993E+01 3.28212E+01 5.88223E-01
 -1      6371 7.33854E+01 8.67195E+00-1.28095E+00
 -1      6372 7.33966E+01 8.67195E+00 4.49410E-15
 -1      6373 7.33854E+01 8.67195E+00 1.28095E+00
 -1      6374 5.56262E+01 8.66037E+00-9.70959E-01
 -1      6375 5.56347E+01 8.66037E+00 3.40653E-15
 -1      6376 5.56262E+01 8.66037E+00 9.70959E-01
 -1      6377 3.33752E+01 1.12723E+01-5.82566E-01
 -1      6378 3.33803E+01 1.12723E+01 2.04389E-15
 -1      6379 3.33752E+01 1.12723E+01 5.82566E-01
 -1      6380 4.58008E+01 8.64622E+00-7.99455E-01
 -1      6381 4.58077E+01 8.64622E+00 2.80482E-15
 -1      6382 4.58008E+01 8.64622E+00 7.99455E-01
 -1      6383 5.95668E+01 8.66545E+00-1.03974E+00
 -1      6384 5.95759E+01 8.66545E+00 3.64785E-15
 -1      6385 5.95668E+01 8.66545E+00 1.03974E+00
 -1      6386 6.54790E+01 8.66516E+00-1.14294E+00
 -1      6387 6.54890E+01 8.66516E+00 4.00991E-15
 -1      6388 6.54790E+01 8.66516E+00 1.14294E+00
 -1      6389 5.36547E+01 8.65864E+00-9.36547E-01
 -1      6390 5.36629E+01 8.65864E+00 3.28580E-15
 -1      6391 5.36547E+01 8.65864E+00 9.36547E-01
 -1      6392 9.12462E+01 3.10215E+01-1.59271E+00
 -1      6393 9.12601E+01 3.10215E+01 5.58789E-15
 -1      6394 9.12462E+01 3.10215E+01 1.59271E+00
 -1      6395 4.97113E+01 8.66097E+00-8.67714E-01
 -1      6396 4.97188E+01 8.66097E+00 3.04430E-15
 -1      6397 4.97113E+01 8.66097E+00 8.67714E-01
 -1      6398 9.02200E+01 4.08346E+01-1.57480E+00
 -1      6399 9.02338E+01 4.08346E+01 5.52504E-15
 -1      6400 9.02200E+01 4.08346E+01 1.57480E+00
 -1      6401 3.99920E+01 8.64115E+00-6.98062E-01
 -1      6402 3.99981E+01 8.64115E+00 2.44909E-15
 -1      6403 3.99920E+01 8.64115E+00 6.98062E-01
 -1      6404 9.17639E+01 9.47266E+00-1.60175E+00
 -1      6405 9.17779E+01 9.47266E+00 5.61959E-15
 -1      6406 9.17639E+01 9.47266E+00 1.60175E+00
 -1      6407 7.73810E+01 8.72139E+00-1.35069E+00
 -1      6408 7.73928E+01 8.72139E+00 4.73879E-15
 -1      6409 7.73810E+01 8.72139E+00 1.35069E+00
 -1      6410 3.59410E+01 9.20752E+00-6.27352E-01
 -1      6411 3.59464E+01 9.20752E+00 2.20101E-15
 -1      6412 3.59410E+01 9.20752E+00 6.27352E-01
 -1      6413 7.53740E+01 8.68693E+00-1.31566E+00
 -1      6414 7.53855E+01 8.68693E+00 4.61588E-15
 -1      6415 7.53740E+01 8.68693E+00 1.31566E+00
 -1      6416 6.35077E+01 8.66655E+00-1.10853E+00
 -1      6417 6.35174E+01 8.66655E+00 3.88919E-15
 -1      6418 6.35077E+01 8.66655E+00 1.10853E+00
 -1      6419 8.94918E+01 3.00279E+01-1.56208E+00
 -1      6420 8.95054E+01 3.00279E+01 5.48044E-15
 -1      6421 8.94918E+01 3.00279E+01 1.56208E+00
 -1      6422 4.77485E+01 8.66016E+00-8.33453E-01
 -1      6423 4.77558E+01 8.66016E+00 2.92410E-15
 -1      6424 4.77485E+01 8.66016E+00 8.33453E-01
 -1      6425 3.53848E+01 1.80203E+01-6.17644E-01
 -1      6426 3.53902E+01 1.80203E+01 2.16695E-15
 -1      6427 3.53848E+01 1.80203E+01 6.17644E-01
 -1      6428 3.66990E+01 3.92266E+01-6.40583E-01
 -1      6429 3.67046E+01 3.92266E+01 2.24743E-15
 -1      6430 3.66990E+01 3.92266E+01 6.40583E-01
 -1      6431 8.95137E+01 2.19247E+01-1.56247E+00
 -1      6432 8.95273E+01 2.19247E+01 5.48179E-15
 -1      6433 8.95137E+01 2.19247E+01 1.56247E+00
 -1      6434 3.53630E+01 2.78823E+01-6.17264E-01
 -1      6435 3.53684E+01 2.78823E+01 2.16562E-15
 -1      6436 3.53630E+01 2.78823E+01 6.17264E-01
 -1      6437 8.25641E+01 1.07221E+01-1.44116E+00
 -1      6438 8.25767E+01 1.07221E+01 5.05620E-15
 -1      6439 8.25641E+01 1.07221E+01 1.44116E+00
 -1      6440 3.53135E+01 1.15373E+01-6.16400E-01
 -1      6441 3.53189E+01 1.15373E+01 2.16259E-15
 -1      6442 3.53135E+01 1.15373E+01 6.16400E-01
 -1      6443 8.97044E+01 1.21960E+01-1.56580E+00
 -1      6444 8.97181E+01 1.21960E+01 5.49347E-15
 -1      6445 8.97044E+01 1.21960E+01 1.56580E+00
 -1      6446 4.38712E+01 8.61142E+00-7.65775E-01
 -1      6447 4.38779E+01 8.61142E+00 2.68666E-15
 -1      6448 4.38712E+01 8.61142E+00 7.65775E-01
 -1      6449 8.93617E+01 1.78185E+01-1.55981E+00
 -1      6450 8.93753E+01 1.78185E+01 5.47248E-15
 -1      6451 8.93617E+01 1.78185E+01 1.55981E+00
 -1      6452 3.43225E+01 3.90102E+01-5.99102E-01
 -1      6453 3.43277E+01 3.90102E+01 2.10190E-15
 -1      6454 3.43225E+01 3.90102E+01 5.99102E-01
 -1      6455 8.93413E+01 1.58072E+01-1.55946E+00
 -1      6456 8.93549E+01 1.58072E+01 5.47123E-15
 -1      6457 8.93413E+01 1.58072E+01 1.55946E+00
 -1      6458 3.79932E+01 8.87010E+00-6.63173E-01
 -1      6459 3.79990E+01 8.87010E+00 2.32669E-15
 -1      6460 3.79932E+01 8.87010E+00 6.63173E-01
 -1      6461 8.95567E+01 2.59899E+01-1.56322E+00
 -1      6462 8.95703E+01 2.59899E+01 5.48442E-15
 -1      6463 8.95567E+01 2.59899E+01 1.56322E+00
 -1      6464 4.48317E+01 1.03726E+01-7.82541E-01
 -1      6465 4.48386E+01 1.03726E+01 2.74548E-15
 -1      6466 4.48317E+01 1.03726E+01 7.82541E-01
 -1      6467 6.25226E+01 1.04043E+01-1.09134E+00
 -1      6468 6.25322E+01 1.04043E+01 3.82886E-15
 -1      6469 6.25226E+01 1.04043E+01 1.09134E+00
 -1      6470 8.88284E+01 1.05910E+01-1.55051E+00
 -1      6471 8.88420E+01 1.05910E+01 5.43982E-15
 -1      6472 8.88284E+01 1.05910E+01 1.55051E+00
 -1      6473 8.94591E+01 1.39031E+01-1.56152E+00
 -1      6474 8.94728E+01 1.39031E+01 5.47845E-15
 -1      6475 8.94591E+01 1.39031E+01 1.56152E+00
 -1      6476 8.94466E+01 1.98741E+01-1.56130E+00
 -1      6477 8.94602E+01 1.98741E+01 5.47768E-15
 -1      6478 8.94466E+01 1.98741E+01 1.56130E+00
 -1      6479 3.53581E+01 2.98135E+01-6.17179E-01
 -1      6480 3.53635E+01 2.98135E+01 2.16532E-15
 -1      6481 3.53581E+01 2.98135E+01 6.17179E-01
 -1      6482 7.23891E+01 1.04002E+01-1.26356E+00
 -1      6483 7.24001E+01 1.04002E+01 4.43308E-15
 -1      6484 7.23891E+01 1.04002E+01 1.26356E+00
 -1      6485 8.95364E+01 2.80072E+01-1.56286E+00
 -1      6486 8.95500E+01 2.80072E+01 5.48318E-15
 -1      6487 8.95364E+01 2.80072E+01 1.56286E+00
 -1      6488 3.53928E+01 1.39192E+01-6.17784E-01
 -1      6489 3.53982E+01 1.39192E+01 2.16744E-15
 -1      6490 3.53928E+01 1.39192E+01 6.17784E-01
 -1      6491 8.96296E+01 3.60149E+01-1.56449E+00
 -1      6492 8.96432E+01 3.60149E+01 5.48888E-15
 -1      6493 8.96296E+01 3.60149E+01 1.56449E+00
 -1      6494 3.53861E+01 3.17137E+01-6.17667E-01
 -1      6495 3.53915E+01 3.17137E+01 2.16703E-15
 -1      6496 3.53861E+01 3.17137E+01 6.17667E-01
 -1      6497 3.56667E+01 3.55165E+01-6.22565E-01
 -1      6498 3.56722E+01 3.55165E+01 2.18422E-15
 -1      6499 3.56667E+01 3.55165E+01 6.22565E-01
 -1      6500 3.54765E+01 3.36217E+01-6.19244E-01
 -1      6501 3.54819E+01 3.36217E+01 2.17257E-15
 -1      6502 3.54765E+01 3.36217E+01 6.19244E-01
 -1      6503 8.04727E+01 1.06035E+01-1.40466E+00
 -1      6504 8.04850E+01 1.06035E+01 4.92812E-15
 -1      6505 8.04727E+01 1.06035E+01 1.40466E+00
 -1      6506 3.87990E+01 3.94079E+01-6.77240E-01
 -1      6507 3.88050E+01 3.94079E+01 2.37604E-15
 -1      6508 3.87990E+01 3.94079E+01 6.77240E-01
 -1      6509 4.08317E+01 3.95220E+01-7.12719E-01
 -1      6510 4.08379E+01 3.95220E+01 2.50052E-15
 -1      6511 4.08317E+01 3.95220E+01 7.12719E-01
 -1      6512 4.28373E+01 3.95742E+01-7.47729E-01
 -1      6513 4.28439E+01 3.95742E+01 2.62334E-15
 -1      6514 4.28373E+01 3.95742E+01 7.47729E-01
 -1      6515 4.48261E+01 3.95795E+01-7.82443E-01
 -1      6516 4.48330E+01 3.95795E+01 2.74514E-15
 -1      6517 4.48261E+01 3.95795E+01 7.82443E-01
 -1      6518 4.68026E+01 3.95580E+01-8.16943E-01
 -1      6519 4.68098E+01 3.95580E+01 2.86618E-15
 -1      6520 4.68026E+01 3.95580E+01 8.16943E-01
 -1      6521 4.87711E+01 3.95294E+01-8.51303E-01
 -1      6522 4.87785E+01 3.95294E+01 2.98672E-15
 -1      6523 4.87711E+01 3.95294E+01 8.51303E-01
 -1      6524 5.07366E+01 3.95071E+01-8.85610E-01
 -1      6525 5.07443E+01 3.95071E+01 3.10709E-15
 -1      6526 5.07366E+01 3.95071E+01 8.85610E-01
 -1      6527 5.27038E+01 3.94953E+01-9.19948E-01
 -1      6528 5.27118E+01 3.94953E+01 3.22756E-15
 -1      6529 5.27038E+01 3.94953E+01 9.19948E-01
 -1      6530 5.46734E+01 3.94902E+01-9.54327E-01
 -1      6531 5.46817E+01 3.94902E+01 3.34818E-15
 -1      6532 5.46734E+01 3.94902E+01 9.54327E-01
 -1      6533 5.66441E+01 3.94877E+01-9.88726E-01
 -1      6534 5.66527E+01 3.94877E+01 3.46886E-15
 -1      6535 5.66441E+01 3.94877E+01 9.88726E-01
 -1      6536 5.86152E+01 3.94868E+01-1.02313E+00
 -1      6537 5.86242E+01 3.94868E+01 3.58958E-15
 -1      6538 5.86152E+01 3.94868E+01 1.02313E+00
 -1      6539 6.05873E+01 3.94875E+01-1.05756E+00
 -1      6540 6.05966E+01 3.94875E+01 3.71035E-15
 -1      6541 6.05873E+01 3.94875E+01 1.05756E+00
 -1      6542 6.25610E+01 3.94890E+01-1.09201E+00
 -1      6543 6.25705E+01 3.94890E+01 3.83121E-15
 -1      6544 6.25610E+01 3.94890E+01 1.09201E+00
 -1      6545 6.45358E+01 3.94904E+01-1.12648E+00
 -1      6546 6.45456E+01 3.94904E+01 3.95215E-15
 -1      6547 6.45358E+01 3.94904E+01 1.12648E+00
 -1      6548 6.65106E+01 3.94917E+01-1.16095E+00
 -1      6549 6.65207E+01 3.94917E+01 4.07309E-15
 -1      6550 6.65106E+01 3.94917E+01 1.16095E+00
 -1      6551 6.84841E+01 3.94940E+01-1.19540E+00
 -1      6552 6.84946E+01 3.94940E+01 4.19394E-15
 -1      6553 6.84841E+01 3.94940E+01 1.19540E+00
 -1      6554 7.04559E+01 3.94985E+01-1.22981E+00
 -1      6555 7.04667E+01 3.94985E+01 4.31470E-15
 -1      6556 7.04559E+01 3.94985E+01 1.22981E+00
 -1      6557 7.24260E+01 3.95041E+01-1.26420E+00
 -1      6558 7.24370E+01 3.95041E+01 4.43534E-15
 -1      6559 7.24260E+01 3.95041E+01 1.26420E+00
 -1      6560 7.43928E+01 3.95073E+01-1.29853E+00
 -1      6561 7.44041E+01 3.95073E+01 4.55579E-15
 -1      6562 7.43928E+01 3.95073E+01 1.29853E+00
 -1      6563 7.63502E+01 3.95060E+01-1.33270E+00
 -1      6564 7.63618E+01 3.95060E+01 4.67566E-15
 -1      6565 7.63502E+01 3.95060E+01 1.33270E+00
 -1      6566 7.82879E+01 3.95055E+01-1.36652E+00
 -1      6567 7.82998E+01 3.95055E+01 4.79432E-15
 -1      6568 7.82879E+01 3.95055E+01 1.36652E+00
 -1      6569 8.02006E+01 3.95088E+01-1.39991E+00
 -1      6570 8.02128E+01 3.95088E+01 4.91146E-15
 -1      6571 8.02006E+01 3.95088E+01 1.39991E+00
 -1      6572 8.20795E+01 3.95120E+01-1.43270E+00
 -1      6573 8.20920E+01 3.95120E+01 5.02652E-15
 -1      6574 8.20795E+01 3.95120E+01 1.43270E+00
 -1      6575 8.38948E+01 3.95320E+01-1.46439E+00
 -1      6576 8.39075E+01 3.95320E+01 5.13768E-15
 -1      6577 8.38948E+01 3.95320E+01 1.46439E+00
 -1      6578 8.57098E+01 3.94293E+01-1.49607E+00
 -1      6579 8.57229E+01 3.94293E+01 5.24884E-15
 -1      6580 8.57098E+01 3.94293E+01 1.49607E+00
 -1      6581 8.74718E+01 3.92403E+01-1.52683E+00
 -1      6582 8.74851E+01 3.92403E+01 5.35674E-15
 -1      6583 8.74718E+01 3.92403E+01 1.52683E+00
 -1      6584 8.67265E+01 1.07153E+01-1.51382E+00
 -1      6585 8.67397E+01 1.07153E+01 5.31110E-15
 -1      6586 8.67265E+01 1.07153E+01 1.51382E+00
 -1      6587 4.29446E+01 1.02945E+01-7.49600E-01
 -1      6588 4.29511E+01 1.02945E+01 2.62991E-15
 -1      6589 4.29446E+01 1.02945E+01 7.49600E-01
 -1      6590 3.53975E+01 1.60011E+01-6.17866E-01
 -1      6591 3.54029E+01 1.60011E+01 2.16773E-15
 -1      6592 3.53975E+01 1.60011E+01 6.17866E-01
 -1      6593 8.94121E+01 3.40968E+01-1.56069E+00
 -1      6594 8.94258E+01 3.40968E+01 5.47557E-15
 -1      6595 8.94121E+01 3.40968E+01 1.56069E+00
 -1      6596 3.60220E+01 3.74015E+01-6.28767E-01
 -1      6597 3.60275E+01 3.74015E+01 2.20598E-15
 -1      6598 3.60220E+01 3.74015E+01 6.28767E-01
 -1      6599 3.53757E+01 2.59459E+01-6.17484E-01
 -1      6600 3.53810E+01 2.59459E+01 2.16639E-15
 -1      6601 3.53757E+01 2.59459E+01 6.17484E-01
 -1      6602 6.44929E+01 1.04028E+01-1.12573E+00
 -1      6603 6.45027E+01 1.04028E+01 3.94952E-15
 -1      6604 6.44929E+01 1.04028E+01 1.12573E+00
 -1      6605 3.53793E+01 2.00188E+01-6.17547E-01
 -1      6606 3.53846E+01 2.00188E+01 2.16661E-15
 -1      6607 3.53793E+01 2.00188E+01 6.17547E-01
 -1      6608 7.84091E+01 1.05024E+01-1.36864E+00
 -1      6609 7.84211E+01 1.05024E+01 4.80175E-15
 -1      6610 7.84091E+01 1.05024E+01 1.36864E+00
 -1      6611 4.67642E+01 1.04002E+01-8.16273E-01
 -1      6612 4.67714E+01 1.04002E+01 2.86383E-15
 -1      6613 4.67642E+01 1.04002E+01 8.16273E-01
 -1      6614 5.66136E+01 1.03960E+01-9.88193E-01
 -1      6615 5.66222E+01 1.03960E+01 3.46699E-15
 -1      6616 5.66136E+01 1.03960E+01 9.88193E-01
 -1      6617 6.05524E+01 1.04029E+01-1.05695E+00
 -1      6618 6.05616E+01 1.04029E+01 3.70821E-15
 -1      6619 6.05524E+01 1.04029E+01 1.05695E+00
 -1      6620 5.26710E+01 1.03888E+01-9.19375E-01
 -1      6621 5.26790E+01 1.03888E+01 3.22555E-15
 -1      6622 5.26710E+01 1.03888E+01 9.19375E-01
 -1      6623 4.11052E+01 1.01949E+01-7.17493E-01
 -1      6624 4.11114E+01 1.01949E+01 2.51727E-15
 -1      6625 4.11052E+01 1.01949E+01 7.17493E-01
 -1      6626 8.95539E+01 2.39662E+01-1.56317E+00
 -1      6627 8.95675E+01 2.39662E+01 5.48425E-15
 -1      6628 8.95539E+01 2.39662E+01 1.56317E+00
 -1      6629 7.04102E+01 1.03978E+01-1.22902E+00
 -1      6630 7.04210E+01 1.03978E+01 4.31190E-15
 -1      6631 7.04102E+01 1.03978E+01 1.22902E+00
 -1      6632 6.84358E+01 1.03985E+01-1.19455E+00
 -1      6633 6.84463E+01 1.03985E+01 4.19099E-15
 -1      6634 6.84358E+01 1.03985E+01 1.19455E+00
 -1      6635 8.46514E+01 1.07807E+01-1.47760E+00
 -1      6636 8.46643E+01 1.07807E+01 5.18402E-15
 -1      6637 8.46514E+01 1.07807E+01 1.47760E+00
 -1      6638 6.64639E+01 1.04003E+01-1.16013E+00
 -1      6639 6.64741E+01 1.04003E+01 4.07023E-15
 -1      6640 6.64639E+01 1.04003E+01 1.16013E+00
 -1      6641 5.85831E+01 1.04010E+01-1.02257E+00
 -1      6642 5.85921E+01 1.04010E+01 3.58761E-15
 -1      6643 5.85831E+01 1.04010E+01 1.02257E+00
 -1      6644 7.43761E+01 1.04115E+01-1.29824E+00
 -1      6645 7.43874E+01 1.04115E+01 4.55477E-15
 -1      6646 7.43761E+01 1.04115E+01 1.29824E+00
 -1      6647 5.06966E+01 1.03917E+01-8.84912E-01
 -1      6648 5.07043E+01 1.03917E+01 3.10464E-15
 -1      6649 5.06966E+01 1.03917E+01 8.84912E-01
 -1      6650 8.94338E+01 3.20632E+01-1.56107E+00
 -1      6651 8.94474E+01 3.20632E+01 5.47689E-15
 -1      6652 8.94338E+01 3.20632E+01 1.56107E+00
 -1      6653 9.00207E+01 3.77218E+01-1.57132E+00
 -1      6654 9.00344E+01 3.77218E+01 5.51283E-15
 -1      6655 9.00207E+01 3.77218E+01 1.57132E+00
 -1      6656 3.53830E+01 2.39842E+01-6.17612E-01
 -1      6657 3.53884E+01 2.39842E+01 2.16684E-15
 -1      6658 3.53830E+01 2.39842E+01 6.17612E-01
 -1      6659 5.76006E+01 1.21378E+01-1.00542E+00
 -1      6660 5.76093E+01 1.21378E+01 3.52744E-15
 -1      6661 5.76006E+01 1.21378E+01 1.00542E+00
 -1      6662 3.72802E+01 3.42800E+01-6.50728E-01
 -1      6663 3.72859E+01 3.42800E+01 2.28302E-15
 -1      6664 3.72802E+01 3.42800E+01 6.50728E-01
 -1      6665 3.71054E+01 2.68870E+01-6.47677E-01
 -1      6666 3.71110E+01 2.68870E+01 2.27232E-15
 -1      6667 3.71054E+01 2.68870E+01 6.47677E-01
 -1      6668 8.78049E+01 2.69956E+01-1.53264E+00
 -1      6669 8.78183E+01 2.69956E+01 5.37714E-15
 -1      6670 8.78049E+01 2.69956E+01 1.53264E+00
 -1      6671 8.78040E+01 2.29424E+01-1.53262E+00
 -1      6672 8.78174E+01 2.29424E+01 5.37709E-15
 -1      6673 8.78040E+01 2.29424E+01 1.53262E+00
 -1      6674 8.75502E+01 3.31493E+01-1.52819E+00
 -1      6675 8.75635E+01 3.31493E+01 5.36154E-15
 -1      6676 8.75502E+01 3.31493E+01 1.52819E+00
 -1      6677 8.79287E+01 1.24532E+01-1.53480E+00
 -1      6678 8.79421E+01 1.24532E+01 5.38472E-15
 -1      6679 8.79287E+01 1.24532E+01 1.53480E+00
 -1      6680 8.76748E+01 3.10433E+01-1.53037E+00
 -1      6681 8.76882E+01 3.10433E+01 5.36917E-15
 -1      6682 8.76748E+01 3.10433E+01 1.53037E+00
 -1      6683 4.87240E+01 1.03991E+01-8.50481E-01
 -1      6684 4.87314E+01 1.03991E+01 2.98384E-15
 -1      6685 4.87240E+01 1.03991E+01 8.50481E-01
 -1      6686 8.75934E+01 1.87601E+01-1.52895E+00
 -1      6687 8.76068E+01 1.87601E+01 5.36419E-15
 -1      6688 8.75934E+01 1.87601E+01 1.52895E+00
 -1      6689 5.46433E+01 1.03911E+01-9.53803E-01
 -1      6690 5.46516E+01 1.03911E+01 3.34634E-15
 -1      6691 5.46433E+01 1.03911E+01 9.53803E-01
 -1      6692 8.92834E+01 3.92303E+01-1.55845E+00
 -1      6693 8.92970E+01 3.92303E+01 5.46768E-15
 -1      6694 8.92834E+01 3.92303E+01 1.55845E+00
 -1      6695 8.74342E+01 1.65953E+01-1.52617E+00
 -1      6696 8.74475E+01 1.65953E+01 5.35444E-15
 -1      6697 8.74342E+01 1.65953E+01 1.52617E+00
 -1      6698 8.77523E+01 2.90105E+01-1.53172E+00
 -1      6699 8.77657E+01 2.90105E+01 5.37392E-15
 -1      6700 8.77523E+01 2.90105E+01 1.53172E+00
 -1      6701 8.74862E+01 1.44596E+01-1.52708E+00
 -1      6702 8.74995E+01 1.44596E+01 5.35762E-15
 -1      6703 8.74862E+01 1.44596E+01 1.52708E+00
 -1      6704 7.63773E+01 1.04395E+01-1.33317E+00
 -1      6705 7.63889E+01 1.04395E+01 4.67732E-15
 -1      6706 7.63773E+01 1.04395E+01 1.33317E+00
 -1      6707 3.71401E+01 1.29887E+01-6.48284E-01
 -1      6708 3.71458E+01 1.29887E+01 2.27445E-15
 -1      6709 3.71401E+01 1.29887E+01 6.48284E-01
 -1      6710 3.70773E+01 3.06336E+01-6.47186E-01
 -1      6711 3.70829E+01 3.06336E+01 2.27060E-15
 -1      6712 3.70773E+01 3.06336E+01 6.47186E-01
 -1      6713 8.77291E+01 2.08731E+01-1.53132E+00
 -1      6714 8.77425E+01 2.08731E+01 5.37250E-15
 -1      6715 8.77291E+01 2.08731E+01 1.53132E+00
 -1      6716 3.70830E+01 2.87800E+01-6.47286E-01
 -1      6717 3.70887E+01 2.87800E+01 2.27095E-15
 -1      6718 3.70830E+01 2.87800E+01 6.47286E-01
 -1      6719 8.59039E+01 1.27237E+01-1.49946E+00
 -1      6720 8.59170E+01 1.27237E+01 5.26072E-15
 -1      6721 8.59039E+01 1.27237E+01 1.49946E+00
 -1      6722 3.53822E+01 2.20042E+01-6.17598E-01
 -1      6723 3.53875E+01 2.20042E+01 2.16679E-15
 -1      6724 3.53822E+01 2.20042E+01 6.17598E-01
 -1      6725 3.71209E+01 1.70621E+01-6.47947E-01
 -1      6726 3.71265E+01 1.70621E+01 2.27327E-15
 -1      6727 3.71209E+01 1.70621E+01 6.47947E-01
 -1      6728 8.78264E+01 2.49810E+01-1.53301E+00
 -1      6729 8.78397E+01 2.49810E+01 5.37845E-15
 -1      6730 8.78264E+01 2.49810E+01 1.53301E+00
 -1      6731 3.71263E+01 3.24782E+01-6.48041E-01
 -1      6732 3.71319E+01 3.24782E+01 2.27360E-15
 -1      6733 3.71263E+01 3.24782E+01 6.48041E-01
 -1      6734 8.15726E+01 1.24986E+01-1.42386E+00
 -1      6735 8.15850E+01 1.24986E+01 4.99548E-15
 -1      6736 8.15726E+01 1.24986E+01 1.42386E+00
 -1      6737 3.80932E+01 3.77224E+01-6.64919E-01
 -1      6738 3.80990E+01 3.77224E+01 2.33281E-15
 -1      6739 3.80932E+01 3.77224E+01 6.64919E-01
 -1      6740 4.01197E+01 3.79229E+01-7.00292E-01
 -1      6741 4.01258E+01 3.79229E+01 2.45691E-15
 -1      6742 4.01197E+01 3.79229E+01 7.00292E-01
 -1      6743 4.21217E+01 3.80250E+01-7.35238E-01
 -1      6744 4.21282E+01 3.80250E+01 2.57952E-15
 -1      6745 4.21217E+01 3.80250E+01 7.35238E-01
 -1      6746 4.41091E+01 3.80473E+01-7.69928E-01
 -1      6747 4.41159E+01 3.80473E+01 2.70123E-15
 -1      6748 4.41091E+01 3.80473E+01 7.69928E-01
 -1      6749 4.60848E+01 3.80178E+01-8.04413E-01
 -1      6750 4.60918E+01 3.80178E+01 2.82222E-15
 -1      6751 4.60848E+01 3.80178E+01 8.04413E-01
 -1      6752 4.80506E+01 3.79686E+01-8.38726E-01
 -1      6753 4.80579E+01 3.79686E+01 2.94260E-15
 -1      6754 4.80506E+01 3.79686E+01 8.38726E-01
 -1      6755 5.00106E+01 3.79266E+01-8.72939E-01
 -1      6756 5.00182E+01 3.79266E+01 3.06263E-15
 -1      6757 5.00106E+01 3.79266E+01 8.72939E-01
 -1      6758 5.19749E+01 3.79059E+01-9.07226E-01
 -1      6759 5.19829E+01 3.79059E+01 3.18293E-15
 -1      6760 5.19749E+01 3.79059E+01 9.07226E-01
 -1      6761 5.39445E+01 3.78975E+01-9.41605E-01
 -1      6762 5.39527E+01 3.78975E+01 3.30354E-15
 -1      6763 5.39445E+01 3.78975E+01 9.41605E-01
 -1      6764 5.59163E+01 3.78932E+01-9.76023E-01
 -1      6765 5.59249E+01 3.78932E+01 3.42430E-15
 -1      6766 5.59163E+01 3.78932E+01 9.76023E-01
 -1      6767 5.78881E+01 3.78906E+01-1.01044E+00
 -1      6768 5.78969E+01 3.78906E+01 3.54505E-15
 -1      6769 5.78881E+01 3.78906E+01 1.01044E+00
 -1      6770 5.98600E+01 3.78906E+01-1.04486E+00
 -1      6771 5.98691E+01 3.78906E+01 3.66581E-15
 -1      6772 5.98600E+01 3.78906E+01 1.04486E+00
 -1      6773 6.18335E+01 3.78928E+01-1.07931E+00
 -1      6774 6.18429E+01 3.78928E+01 3.78666E-15
 -1      6775 6.18335E+01 3.78928E+01 1.07931E+00
 -1      6776 6.38091E+01 3.78953E+01-1.11379E+00
 -1      6777 6.38188E+01 3.78953E+01 3.90764E-15
 -1      6778 6.38091E+01 3.78953E+01 1.11379E+00
 -1      6779 6.57853E+01 3.78967E+01-1.14829E+00
 -1      6780 6.57953E+01 3.78967E+01 4.02867E-15
 -1      6781 6.57853E+01 3.78967E+01 1.14829E+00
 -1      6782 6.77603E+01 3.78984E+01-1.18276E+00
 -1      6783 6.77706E+01 3.78984E+01 4.14961E-15
 -1      6784 6.77603E+01 3.78984E+01 1.18276E+00
 -1      6785 6.97327E+01 3.79035E+01-1.21719E+00
 -1      6786 6.97433E+01 3.79035E+01 4.27040E-15
 -1      6787 6.97327E+01 3.79035E+01 1.21719E+00
 -1      6788 7.17024E+01 3.79135E+01-1.25157E+00
 -1      6789 7.17133E+01 3.79135E+01 4.39103E-15
 -1      6790 7.17024E+01 3.79135E+01 1.25157E+00
 -1      6791 7.36706E+01 3.79235E+01-1.28593E+00
 -1      6792 7.36819E+01 3.79235E+01 4.51156E-15
 -1      6793 7.36706E+01 3.79235E+01 1.28593E+00
 -1      6794 7.56357E+01 3.79228E+01-1.32023E+00
 -1      6795 7.56472E+01 3.79228E+01 4.63190E-15
 -1      6796 7.56357E+01 3.79228E+01 1.32023E+00
 -1      6797 7.75822E+01 3.79123E+01-1.35420E+00
 -1      6798 7.75940E+01 3.79123E+01 4.75111E-15
 -1      6799 7.75822E+01 3.79123E+01 1.35420E+00
 -1      6800 7.94898E+01 3.79168E+01-1.38750E+00
 -1      6801 7.95020E+01 3.79168E+01 4.86793E-15
 -1      6802 7.94898E+01 3.79168E+01 1.38750E+00
 -1      6803 8.13758E+01 3.79242E+01-1.42042E+00
 -1      6804 8.13882E+01 3.79242E+01 4.98342E-15
 -1      6805 8.13758E+01 3.79242E+01 1.42042E+00
 -1      6806 8.32163E+01 3.79051E+01-1.45255E+00
 -1      6807 8.32290E+01 3.79051E+01 5.09614E-15
 -1      6808 8.32163E+01 3.79051E+01 1.45255E+00
 -1      6809 8.48353E+01 3.80478E+01-1.48080E+00
 -1      6810 8.48482E+01 3.80478E+01 5.19528E-15
 -1      6811 8.48353E+01 3.80478E+01 1.48080E+00
 -1      6812 8.64738E+01 3.75331E+01-1.50941E+00
 -1      6813 8.64870E+01 3.75331E+01 5.29563E-15
 -1      6814 8.64738E+01 3.75331E+01 1.50941E+00
 -1      6815 4.38203E+01 1.20939E+01-7.64886E-01
 -1      6816 4.38270E+01 1.20939E+01 2.68354E-15
 -1      6817 4.38203E+01 1.20939E+01 7.64886E-01
 -1      6818 3.71514E+01 1.50563E+01-6.48480E-01
 -1      6819 3.71570E+01 1.50563E+01 2.27514E-15
 -1      6820 3.71514E+01 1.50563E+01 6.48480E-01
 -1      6821 3.73606E+01 1.08768E+01-6.52132E-01
 -1      6822 3.73663E+01 1.08768E+01 2.28795E-15
 -1      6823 3.73606E+01 1.08768E+01 6.52132E-01
 -1      6824 8.37471E+01 1.27042E+01-1.46181E+00
 -1      6825 8.37598E+01 1.27042E+01 5.12864E-15
 -1      6826 8.37471E+01 1.27042E+01 1.46181E+00
 -1      6827 8.73885E+01 3.54665E+01-1.52537E+00
 -1      6828 8.74018E+01 3.54665E+01 5.35164E-15
 -1      6829 8.73885E+01 3.54665E+01 1.52537E+00
 -1      6830 3.71014E+01 1.90534E+01-6.47608E-01
 -1      6831 3.71071E+01 1.90534E+01 2.27208E-15
 -1      6832 3.71014E+01 1.90534E+01 6.47608E-01
 -1      6833 6.35084E+01 1.21454E+01-1.10854E+00
 -1      6834 6.35180E+01 1.21454E+01 3.88923E-15
 -1      6835 6.35084E+01 1.21454E+01 1.10854E+00
 -1      6836 7.94502E+01 1.23174E+01-1.38681E+00
 -1      6837 7.94623E+01 1.23174E+01 4.86550E-15
 -1      6838 7.94502E+01 1.23174E+01 1.38681E+00
 -1      6839 7.13904E+01 1.21312E+01-1.24612E+00
 -1      6840 7.14012E+01 1.21312E+01 4.37192E-15
 -1      6841 7.13904E+01 1.21312E+01 1.24612E+00
 -1      6842 4.19849E+01 1.19251E+01-7.32850E-01
 -1      6843 4.19913E+01 1.19251E+01 2.57114E-15
 -1      6844 4.19849E+01 1.19251E+01 7.32850E-01
 -1      6845 5.36625E+01 1.21191E+01-9.36683E-01
 -1      6846 5.36707E+01 1.21191E+01 3.28628E-15
 -1      6847 5.36625E+01 1.21191E+01 9.36683E-01
 -1      6848 6.15383E+01 1.21447E+01-1.07416E+00
 -1      6849 6.15477E+01 1.21447E+01 3.76859E-15
 -1      6850 6.15383E+01 1.21447E+01 1.07416E+00
 -1      6851 3.75890E+01 3.60186E+01-6.56118E-01
 -1      6852 3.75947E+01 3.60186E+01 2.30194E-15
 -1      6853 3.75890E+01 3.60186E+01 6.56118E-01
 -1      6854 6.74474E+01 1.21378E+01-1.17730E+00
 -1      6855 6.74577E+01 1.21378E+01 4.13046E-15
 -1      6856 6.74474E+01 1.21378E+01 1.17730E+00
 -1      6857 3.92260E+01 1.03798E+01-6.84692E-01
 -1      6858 3.92320E+01 1.03798E+01 2.40219E-15
 -1      6859 3.92260E+01 1.03798E+01 6.84692E-01
 -1      6860 6.94174E+01 1.21339E+01-1.21169E+00
 -1      6861 6.94280E+01 1.21339E+01 4.25110E-15
 -1      6862 6.94174E+01 1.21339E+01 1.21169E+00
 -1      6863 3.71197E+01 2.49554E+01-6.47927E-01
 -1      6864 3.71253E+01 2.49554E+01 2.27320E-15
 -1      6865 3.71197E+01 2.49554E+01 6.47927E-01
 -1      6866 8.83215E+01 3.74728E+01-1.54166E+00
 -1      6867 8.83350E+01 3.74728E+01 5.40878E-15
 -1      6868 8.83215E+01 3.74728E+01 1.54166E+00
 -1      6869 5.16880E+01 1.21167E+01-9.02217E-01
 -1      6870 5.16958E+01 1.21167E+01 3.16535E-15
 -1      6871 5.16880E+01 1.21167E+01 9.02217E-01
 -1      6872 5.95689E+01 1.21428E+01-1.03978E+00
 -1      6873 5.95779E+01 1.21428E+01 3.64798E-15
 -1      6874 5.95689E+01 1.21428E+01 1.03978E+00
 -1      6875 5.56323E+01 1.21280E+01-9.71065E-01
 -1      6876 5.56408E+01 1.21280E+01 3.40690E-15
 -1      6877 5.56323E+01 1.21280E+01 9.71065E-01
 -1      6878 4.57561E+01 1.21503E+01-7.98675E-01
 -1      6879 4.57631E+01 1.21503E+01 2.80209E-15
 -1      6880 4.57561E+01 1.21503E+01 7.98675E-01
 -1      6881 7.33696E+01 1.21353E+01-1.28067E+00
 -1      6882 7.33808E+01 1.21353E+01 4.49313E-15
 -1      6883 7.33696E+01 1.21353E+01 1.28067E+00
 -1      6884 8.55586E+01 3.40790E+01-1.49343E+00
 -1      6885 8.55717E+01 3.40790E+01 5.23958E-15
 -1      6886 8.55586E+01 3.40790E+01 1.49343E+00
 -1      6887 3.87960E+01 2.96019E+01-6.77187E-01
 -1      6888 3.88019E+01 2.96019E+01 2.37585E-15
 -1      6889 3.87960E+01 2.96019E+01 6.77187E-01
 -1      6890 8.52056E+01 1.50367E+01-1.48727E+00
 -1      6891 8.52186E+01 1.50367E+01 5.21796E-15
 -1      6892 8.52056E+01 1.50367E+01 1.48727E+00
 -1      6893 8.60994E+01 2.39833E+01-1.50287E+00
 -1      6894 8.61125E+01 2.39833E+01 5.27270E-15
 -1      6895 8.60994E+01 2.39833E+01 1.50287E+00
 -1      6896 3.71138E+01 2.10243E+01-6.47824E-01
 -1      6897 3.71195E+01 2.10243E+01 2.27284E-15
 -1      6898 3.71138E+01 2.10243E+01 6.47824E-01
 -1      6899 8.60526E+01 2.19323E+01-1.50205E+00
 -1      6900 8.60657E+01 2.19323E+01 5.26983E-15
 -1      6901 8.60526E+01 2.19323E+01 1.50205E+00
 -1      6902 8.59333E+01 2.99785E+01-1.49997E+00
 -1      6903 8.59464E+01 2.99785E+01 5.26253E-15
 -1      6904 8.59333E+01 2.99785E+01 1.49997E+00
 -1      6905 7.73829E+01 1.22051E+01-1.35072E+00
 -1      6906 7.73947E+01 1.22051E+01 4.73890E-15
 -1      6907 7.73829E+01 1.22051E+01 1.35072E+00
 -1      6908 6.54780E+01 1.21413E+01-1.14292E+00
 -1      6909 6.54880E+01 1.21413E+01 4.00985E-15
 -1      6910 6.54780E+01 1.21413E+01 1.14292E+00
 -1      6911 8.59076E+01 1.98202E+01-1.49952E+00
 -1      6912 8.59207E+01 1.98202E+01 5.26095E-15
 -1      6913 8.59076E+01 1.98202E+01 1.49952E+00
 -1      6914 7.53630E+01 1.21543E+01-1.31547E+00
 -1      6915 7.53745E+01 1.21543E+01 4.61521E-15
 -1      6916 7.53630E+01 1.21543E+01 1.31547E+00
 -1      6917 8.56446E+01 1.76010E+01-1.49493E+00
 -1      6918 8.56576E+01 1.76010E+01 5.24484E-15
 -1      6919 8.56446E+01 1.76010E+01 1.49493E+00
 -1      6920 7.03939E+01 1.38688E+01-1.22873E+00
 -1      6921 7.04046E+01 1.38688E+01 4.31090E-15
 -1      6922 7.03939E+01 1.38688E+01 1.22873E+00
 -1      6923 3.87762E+01 3.13871E+01-6.76841E-01
 -1      6924 3.87821E+01 3.13871E+01 2.37464E-15
 -1      6925 3.87762E+01 3.13871E+01 6.76841E-01
 -1      6926 3.71206E+01 2.29919E+01-6.47942E-01
 -1      6927 3.71262E+01 2.29919E+01 2.27325E-15
 -1      6928 3.71206E+01 2.29919E+01 6.47942E-01
 -1      6929 3.95439E+01 3.63454E+01-6.90241E-01
 -1      6930 3.95499E+01 3.63454E+01 2.42165E-15
 -1      6931 3.95439E+01 3.63454E+01 6.90241E-01
 -1      6932 4.15086E+01 3.65298E+01-7.24535E-01
 -1      6933 4.15149E+01 3.65298E+01 2.54197E-15
 -1      6934 4.15086E+01 3.65298E+01 7.24535E-01
 -1      6935 4.34752E+01 3.65885E+01-7.58862E-01
 -1      6936 4.34818E+01 3.65885E+01 2.66241E-15
 -1      6937 4.34752E+01 3.65885E+01 7.58862E-01
 -1      6938 4.54396E+01 3.65540E+01-7.93151E-01
 -1      6939 4.54465E+01 3.65540E+01 2.78270E-15
 -1      6940 4.54396E+01 3.65540E+01 7.93151E-01
 -1      6941 4.74001E+01 3.64750E+01-8.27372E-01
 -1      6942 4.74073E+01 3.64750E+01 2.90277E-15
 -1      6943 4.74001E+01 3.64750E+01 8.27372E-01
 -1      6944 4.93492E+01 3.63963E+01-8.61393E-01
 -1      6945 4.93567E+01 3.63963E+01 3.02213E-15
 -1      6946 4.93492E+01 3.63963E+01 8.61393E-01
 -1      6947 5.13097E+01 3.63617E+01-8.95614E-01
 -1      6948 5.13175E+01 3.63617E+01 3.14219E-15
 -1      6949 5.13097E+01 3.63617E+01 8.95614E-01
 -1      6950 5.32811E+01 3.63500E+01-9.30025E-01
 -1      6951 5.32892E+01 3.63500E+01 3.26292E-15
 -1      6952 5.32811E+01 3.63500E+01 9.30025E-01
 -1      6953 5.52565E+01 3.63432E+01-9.64506E-01
 -1      6954 5.52649E+01 3.63432E+01 3.38389E-15
 -1      6955 5.52565E+01 3.63432E+01 9.64506E-01
 -1      6956 5.72306E+01 3.63369E+01-9.98964E-01
 -1      6957 5.72393E+01 3.63369E+01 3.50478E-15
 -1      6958 5.72306E+01 3.63369E+01 9.98964E-01
 -1      6959 5.92025E+01 3.63343E+01-1.03338E+00
 -1      6960 5.92115E+01 3.63343E+01 3.62554E-15
 -1      6961 5.92025E+01 3.63343E+01 1.03338E+00
 -1      6962 6.11753E+01 3.63373E+01-1.06782E+00
 -1      6963 6.11846E+01 3.63373E+01 3.74635E-15
 -1      6964 6.11753E+01 3.63373E+01 1.06782E+00
 -1      6965 6.31512E+01 3.63422E+01-1.10231E+00
 -1      6966 6.31609E+01 3.63422E+01 3.86736E-15
 -1      6967 6.31512E+01 3.63422E+01 1.10231E+00
 -1      6968 6.51295E+01 3.63448E+01-1.13684E+00
 -1      6969 6.51395E+01 3.63448E+01 3.98851E-15
 -1      6970 6.51295E+01 3.63448E+01 1.13684E+00
 -1      6971 6.71074E+01 3.63451E+01-1.17136E+00
 -1      6972 6.71176E+01 3.63451E+01 4.10963E-15
 -1      6973 6.71074E+01 3.63451E+01 1.17136E+00
 -1      6974 6.90825E+01 3.63485E+01-1.20584E+00
 -1      6975 6.90930E+01 3.63485E+01 4.23058E-15
 -1      6976 6.90825E+01 3.63485E+01 1.20584E+00
 -1      6977 7.10528E+01 3.63613E+01-1.24023E+00
 -1      6978 7.10636E+01 3.63613E+01 4.35125E-15
 -1      6979 7.10528E+01 3.63613E+01 1.24023E+00
 -1      6980 7.30183E+01 3.63840E+01-1.27454E+00
 -1      6981 7.30294E+01 3.63840E+01 4.47161E-15
 -1      6982 7.30183E+01 3.63840E+01 1.27454E+00
 -1      6983 7.49860E+01 3.63978E+01-1.30889E+00
 -1      6984 7.49975E+01 3.63978E+01 4.59212E-15
 -1      6985 7.49860E+01 3.63978E+01 1.30889E+00
 -1      6986 7.69545E+01 3.63742E+01-1.34325E+00
 -1      6987 7.69662E+01 3.63742E+01 4.71267E-15
 -1      6988 7.69545E+01 3.63742E+01 1.34325E+00
 -1      6989 7.88799E+01 3.63437E+01-1.37685E+00
 -1      6990 7.88919E+01 3.63437E+01 4.83058E-15
 -1      6991 7.88799E+01 3.63437E+01 1.37685E+00
 -1      6992 8.07224E+01 3.64094E+01-1.40901E+00
 -1      6993 8.07347E+01 3.64094E+01 4.94341E-15
 -1      6994 8.07224E+01 3.64094E+01 1.40901E+00
 -1      6995 8.26454E+01 3.63927E+01-1.44258E+00
 -1      6996 8.26580E+01 3.63927E+01 5.06117E-15
 -1      6997 8.26454E+01 3.63927E+01 1.44258E+00
 -1      6998 8.48218E+01 3.62197E+01-1.48057E+00
 -1      6999 8.48347E+01 3.62197E+01 5.19446E-15
 -1      7000 8.48218E+01 3.62197E+01 1.48057E+00
 -1      7001 8.57999E+01 3.19988E+01-1.49764E+00
 -1      7002 8.58130E+01 3.19988E+01 5.25435E-15
 -1      7003 8.57999E+01 3.19988E+01 1.49764E+00
 -1      7004 6.84283E+01 1.38771E+01-1.19442E+00
 -1      7005 6.84387E+01 1.38771E+01 4.19052E-15
 -1      7006 6.84283E+01 1.38771E+01 1.19442E+00
 -1      7007 3.88623E+01 3.31216E+01-6.78344E-01
 -1      7008 3.88682E+01 3.31216E+01 2.37991E-15
 -1      7009 3.88623E+01 3.31216E+01 6.78344E-01
 -1      7010 8.60214E+01 2.79846E+01-1.50151E+00
 -1      7011 8.60345E+01 2.79846E+01 5.26792E-15
 -1      7012 8.60214E+01 2.79846E+01 1.50151E+00
 -1      7013 5.46539E+01 1.38568E+01-9.53987E-01
 -1      7014 5.46622E+01 1.38568E+01 3.34698E-15
 -1      7015 5.46539E+01 1.38568E+01 9.53987E-01
 -1      7016 3.88009E+01 1.81237E+01-6.77272E-01
 -1      7017 3.88068E+01 1.81237E+01 2.37615E-15
 -1      7018 3.88009E+01 1.81237E+01 6.77272E-01
 -1      7019 6.25258E+01 1.38942E+01-1.09139E+00
 -1      7020 6.25353E+01 1.38942E+01 3.82906E-15
 -1      7021 6.25258E+01 1.38942E+01 1.09139E+00
 -1      7022 8.04782E+01 1.41837E+01-1.40475E+00
 -1      7023 8.04904E+01 1.41837E+01 4.92846E-15
 -1      7024 8.04782E+01 1.41837E+01 1.40475E+00
 -1      7025 4.26257E+01 1.37905E+01-7.44034E-01
 -1      7026 4.26322E+01 1.37905E+01 2.61038E-15
 -1      7027 4.26257E+01 1.37905E+01 7.44034E-01
 -1      7028 4.97084E+01 1.21274E+01-8.67664E-01
 -1      7029 4.97160E+01 1.21274E+01 3.04413E-15
 -1      7030 4.97084E+01 1.21274E+01 8.67664E-01
 -1      7031 3.91172E+01 3.47596E+01-6.82794E-01
 -1      7032 3.91232E+01 3.47596E+01 2.39553E-15
 -1      7033 3.91172E+01 3.47596E+01 6.82794E-01
 -1      7034 8.26882E+01 1.45083E+01-1.44333E+00
 -1      7035 8.27008E+01 1.45083E+01 5.06380E-15
 -1      7036 8.26882E+01 1.45083E+01 1.44333E+00
 -1      7037 3.88696E+01 1.22940E+01-6.78471E-01
 -1      7038 3.88755E+01 1.22940E+01 2.38036E-15
 -1      7039 3.88696E+01 1.22940E+01 6.78471E-01
 -1      7040 4.03632E+01 1.16479E+01-7.04542E-01
 -1      7041 4.03693E+01 1.16479E+01 2.47183E-15
 -1      7042 4.03632E+01 1.16479E+01 7.04542E-01
 -1      7043 3.88346E+01 2.77866E+01-6.77861E-01
 -1      7044 3.88405E+01 2.77866E+01 2.37822E-15
 -1      7045 3.88346E+01 2.77866E+01 6.77861E-01
 -1      7046 6.64625E+01 1.38845E+01-1.16011E+00
 -1      7047 6.64726E+01 1.38845E+01 4.07014E-15
 -1      7048 6.64625E+01 1.38845E+01 1.16011E+00
 -1      7049 7.23615E+01 1.38651E+01-1.26307E+00
 -1      7050 7.23725E+01 1.38651E+01 4.43139E-15
 -1      7051 7.23615E+01 1.38651E+01 1.26307E+00
 -1      7052 5.26858E+01 1.38403E+01-9.19634E-01
 -1      7053 5.26938E+01 1.38403E+01 3.22646E-15
 -1      7054 5.26858E+01 1.38403E+01 9.19634E-01
 -1      7055 6.44948E+01 1.38900E+01-1.12576E+00
 -1      7056 6.45046E+01 1.38900E+01 3.94964E-15
 -1      7057 6.44948E+01 1.38900E+01 1.12576E+00
 -1      7058 8.60762E+01 2.59932E+01-1.50247E+00
 -1      7059 8.60893E+01 2.59932E+01 5.27127E-15
 -1      7060 8.60762E+01 2.59932E+01 1.50247E+00
 -1      7061 4.77276E+01 1.21464E+01-8.33089E-01
 -1      7062 4.77349E+01 1.21464E+01 2.92282E-15
 -1      7063 4.77276E+01 1.21464E+01 8.33089E-01
 -1      7064 3.89581E+01 1.42449E+01-6.80017E-01
 -1      7065 3.89641E+01 1.42449E+01 2.38578E-15
 -1      7066 3.89581E+01 1.42449E+01 6.80017E-01
 -1      7067 3.89055E+01 1.61651E+01-6.79098E-01
 -1      7068 3.89114E+01 1.61651E+01 2.38256E-15
 -1      7069 3.89055E+01 1.61651E+01 6.79098E-01
 -1      7070 5.85855E+01 1.38868E+01-1.02261E+00
 -1      7071 5.85945E+01 1.38868E+01 3.58776E-15
 -1      7072 5.85855E+01 1.38868E+01 1.02261E+00
 -1      7073 4.46750E+01 1.39127E+01-7.79805E-01
 -1      7074 4.46818E+01 1.39127E+01 2.73588E-15
 -1      7075 4.46750E+01 1.39127E+01 7.79805E-01
 -1      7076 3.88607E+01 2.59022E+01-6.78317E-01
 -1      7077 3.88667E+01 2.59022E+01 2.37982E-15
 -1      7078 3.88607E+01 2.59022E+01 6.78317E-01
 -1      7079 8.35617E+01 3.46657E+01-1.45858E+00
 -1      7080 8.35745E+01 3.46657E+01 5.11729E-15
 -1      7081 8.35617E+01 3.46657E+01 1.45858E+00
 -1      7082 8.42934E+01 2.09689E+01-1.47135E+00
 -1      7083 8.43062E+01 2.09689E+01 5.16210E-15
 -1      7084 8.42934E+01 2.09689E+01 1.47135E+00
 -1      7085 5.66188E+01 1.38760E+01-9.88285E-01
 -1      7086 5.66274E+01 1.38760E+01 3.46732E-15
 -1      7087 5.66188E+01 1.38760E+01 9.88285E-01
 -1      7088 3.88440E+01 2.00553E+01-6.78024E-01
 -1      7089 3.88499E+01 2.00553E+01 2.37879E-15
 -1      7090 3.88440E+01 2.00553E+01 6.78024E-01
 -1      7091 8.35594E+01 1.66571E+01-1.45854E+00
 -1      7092 8.35722E+01 1.66571E+01 5.11715E-15
 -1      7093 8.35594E+01 1.66571E+01 1.45854E+00
 -1      7094 4.05612E+01 2.86481E+01-7.07999E-01
 -1      7095 4.05674E+01 2.86481E+01 2.48395E-15
 -1      7096 4.05612E+01 2.86481E+01 7.07999E-01
 -1      7097 7.83735E+01 1.39879E+01-1.36801E+00
 -1      7098 7.83855E+01 1.39879E+01 4.79957E-15
 -1      7099 7.83735E+01 1.39879E+01 1.36801E+00
 -1      7100 8.40562E+01 3.08849E+01-1.46721E+00
 -1      7101 8.40690E+01 3.08849E+01 5.14757E-15
 -1      7102 8.40562E+01 3.08849E+01 1.46721E+00
 -1      7103 4.04883E+01 3.03790E+01-7.06726E-01
 -1      7104 4.04945E+01 3.03790E+01 2.47949E-15
 -1      7105 4.04883E+01 3.03790E+01 7.06726E-01
 -1      7106 5.75994E+01 1.56367E+01-1.00540E+00
 -1      7107 5.76082E+01 1.56367E+01 3.52737E-15
 -1      7108 5.75994E+01 1.56367E+01 1.00540E+00
 -1      7109 8.42825E+01 2.69814E+01-1.47116E+00
 -1      7110 8.42954E+01 2.69814E+01 5.16143E-15
 -1      7111 8.42825E+01 2.69814E+01 1.47116E+00
 -1      7112 8.43657E+01 2.50141E+01-1.47261E+00
 -1      7113 8.43786E+01 2.50141E+01 5.16653E-15
 -1      7114 8.43657E+01 2.50141E+01 1.47261E+00
 -1      7115 3.88614E+01 2.20091E+01-6.78327E-01
 -1      7116 3.88673E+01 2.20091E+01 2.37986E-15
 -1      7117 3.88614E+01 2.20091E+01 6.78327E-01
 -1      7118 4.09997E+01 3.50671E+01-7.15652E-01
 -1      7119 4.10059E+01 3.50671E+01 2.51080E-15
 -1      7120 4.09997E+01 3.50671E+01 7.15652E-01
 -1      7121 6.05548E+01 1.38908E+01-1.05699E+00
 -1      7122 6.05641E+01 1.38908E+01 3.70836E-15
 -1      7123 6.05548E+01 1.38908E+01 1.05699E+00
 -1      7124 4.29106E+01 3.51911E+01-7.49007E-01
 -1      7125 4.29171E+01 3.51911E+01 2.62783E-15
 -1      7126 4.29106E+01 3.51911E+01 7.49007E-01
 -1      7127 4.48317E+01 3.51628E+01-7.82541E-01
 -1      7128 4.48386E+01 3.51628E+01 2.74548E-15
 -1      7129 4.48317E+01 3.51628E+01 7.82541E-01
 -1      7130 4.67831E+01 3.50497E+01-8.16601E-01
 -1      7131 4.67902E+01 3.50497E+01 2.86498E-15
 -1      7132 4.67831E+01 3.50497E+01 8.16601E-01
 -1      7133 4.87069E+01 3.48979E+01-8.50182E-01
 -1      7134 4.87143E+01 3.48979E+01 2.98279E-15
 -1      7135 4.87069E+01 3.48979E+01 8.50182E-01
 -1      7136 5.06649E+01 3.48442E+01-8.84359E-01
 -1      7137 5.06726E+01 3.48442E+01 3.10270E-15
 -1      7138 5.06649E+01 3.48442E+01 8.84359E-01
 -1      7139 5.26441E+01 3.48313E+01-9.18906E-01
 -1      7140 5.26521E+01 3.48313E+01 3.22391E-15
 -1      7141 5.26441E+01 3.48313E+01 9.18906E-01
 -1      7142 5.46280E+01 3.48224E+01-9.53535E-01
 -1      7143 5.46363E+01 3.48224E+01 3.34540E-15
 -1      7144 5.46280E+01 3.48224E+01 9.53535E-01
 -1      7145 5.66079E+01 3.48087E+01-9.88095E-01
 -1      7146 5.66165E+01 3.48087E+01 3.46665E-15
 -1      7147 5.66079E+01 3.48087E+01 9.88095E-01
 -1      7148 5.85812E+01 3.47990E+01-1.02254E+00
 -1      7149 5.85901E+01 3.47990E+01 3.58749E-15
 -1      7150 5.85812E+01 3.47990E+01 1.02254E+00
 -1      7151 6.05525E+01 3.48015E+01-1.05695E+00
 -1      7152 6.05617E+01 3.48015E+01 3.70821E-15
 -1      7153 6.05525E+01 3.48015E+01 1.05695E+00
 -1      7154 6.25281E+01 3.48118E+01-1.09143E+00
 -1      7155 6.25376E+01 3.48118E+01 3.82920E-15
 -1      7156 6.25281E+01 3.48118E+01 1.09143E+00
 -1      7157 6.45087E+01 3.48184E+01-1.12600E+00
 -1      7158 6.45185E+01 3.48184E+01 3.95049E-15
 -1      7159 6.45087E+01 3.48184E+01 1.12600E+00
 -1      7160 6.64906E+01 3.48172E+01-1.16060E+00
 -1      7161 6.65008E+01 3.48172E+01 4.07186E-15
 -1      7162 6.64906E+01 3.48172E+01 1.16060E+00
 -1      7163 6.84712E+01 3.48157E+01-1.19517E+00
 -1      7164 6.84817E+01 3.48157E+01 4.19315E-15
 -1      7165 6.84712E+01 3.48157E+01 1.19517E+00
 -1      7166 7.04477E+01 3.48260E+01-1.22967E+00
 -1      7167 7.04584E+01 3.48260E+01 4.31419E-15
 -1      7168 7.04477E+01 3.48260E+01 1.22967E+00
 -1      7169 7.24137E+01 3.48579E+01-1.26399E+00
 -1      7170 7.24247E+01 3.48579E+01 4.43459E-15
 -1      7171 7.24137E+01 3.48579E+01 1.26399E+00
 -1      7172 7.43664E+01 3.49087E+01-1.29807E+00
 -1      7173 7.43777E+01 3.49087E+01 4.55417E-15
 -1      7174 7.43664E+01 3.49087E+01 1.29807E+00
 -1      7175 7.63398E+01 3.49087E+01-1.33252E+00
 -1      7176 7.63514E+01 3.49087E+01 4.67502E-15
 -1      7177 7.63398E+01 3.49087E+01 1.33252E+00
 -1      7178 7.83388E+01 3.47912E+01-1.36741E+00
 -1      7179 7.83508E+01 3.47912E+01 4.79744E-15
 -1      7180 7.83388E+01 3.47912E+01 1.36741E+00
 -1      7181 8.02153E+01 3.47635E+01-1.40016E+00
 -1      7182 8.02275E+01 3.47635E+01 4.91235E-15
 -1      7183 8.02153E+01 3.47635E+01 1.40016E+00
 -1      7184 8.38873E+01 3.28005E+01-1.46426E+00
 -1      7185 8.39001E+01 3.28005E+01 5.13723E-15
 -1      7186 8.38873E+01 3.28005E+01 1.46426E+00
 -1      7187 8.40329E+01 1.88551E+01-1.46680E+00
 -1      7188 8.40457E+01 1.88551E+01 5.14614E-15
 -1      7189 8.40329E+01 1.88551E+01 1.46680E+00
 -1      7190 6.94059E+01 1.56168E+01-1.21148E+00
 -1      7191 6.94165E+01 1.56168E+01 4.25039E-15
 -1      7192 6.94059E+01 1.56168E+01 1.21148E+00
 -1      7193 4.04155E+01 3.20431E+01-7.05455E-01
 -1      7194 4.04217E+01 3.20431E+01 2.47503E-15
 -1      7195 4.04155E+01 3.20431E+01 7.05455E-01
 -1      7196 8.41816E+01 2.89382E+01-1.46940E+00
 -1      7197 8.41945E+01 2.89382E+01 5.15525E-15
 -1      7198 8.41816E+01 2.89382E+01 1.46940E+00
 -1      7199 5.56361E+01 1.56147E+01-9.71132E-01
 -1      7200 5.56446E+01 1.56147E+01 3.40714E-15
 -1      7201 5.56361E+01 1.56147E+01 9.71132E-01
 -1      7202 3.88673E+01 2.39586E+01-6.78431E-01
 -1      7203 3.88732E+01 2.39586E+01 2.38022E-15
 -1      7204 3.88673E+01 2.39586E+01 6.78431E-01
 -1      7205 4.04022E+01 1.72642E+01-7.05223E-01
 -1      7206 4.04083E+01 1.72642E+01 2.47422E-15
 -1      7207 4.04022E+01 1.72642E+01 7.05223E-01
 -1      7208 4.05784E+01 1.90557E+01-7.08299E-01
 -1      7209 4.05846E+01 1.90557E+01 2.48501E-15
 -1      7210 4.05784E+01 1.90557E+01 7.08299E-01
 -1      7211 4.06577E+01 1.33413E+01-7.09683E-01
 -1      7212 4.06639E+01 1.33413E+01 2.48986E-15
 -1      7213 4.06577E+01 1.33413E+01 7.09683E-01
 -1      7214 4.05856E+01 3.36151E+01-7.08424E-01
 -1      7215 4.05918E+01 3.36151E+01 2.48545E-15
 -1      7216 4.05856E+01 3.36151E+01 7.08424E-01
 -1      7217 7.93037E+01 1.57964E+01-1.38425E+00
 -1      7218 7.93158E+01 1.57964E+01 4.85653E-15
 -1      7219 7.93037E+01 1.57964E+01 1.38425E+00
 -1      7220 8.43856E+01 2.30146E+01-1.47296E+00
 -1      7221 8.43984E+01 2.30146E+01 5.16774E-15
 -1      7222 8.43856E+01 2.30146E+01 1.47296E+00
 -1      7223 4.06066E+01 2.68235E+01-7.08790E-01
 -1      7224 4.06128E+01 2.68235E+01 2.48673E-15
 -1      7225 4.06066E+01 2.68235E+01 7.08790E-01
 -1      7226 5.07087E+01 1.38422E+01-8.85123E-01
 -1      7227 5.07164E+01 1.38422E+01 3.10538E-15
 -1      7228 5.07087E+01 1.38422E+01 8.85123E-01
 -1      7229 6.74468E+01 1.56312E+01-1.17729E+00
 -1      7230 6.74571E+01 1.56312E+01 4.13042E-15
 -1      7231 6.74468E+01 1.56312E+01 1.17729E+00
 -1      7232 7.43365E+01 1.38701E+01-1.29755E+00
 -1      7233 7.43479E+01 1.38701E+01 4.55234E-15
 -1      7234 7.43365E+01 1.38701E+01 1.29755E+00
 -1      7235 7.63330E+01 1.38986E+01-1.33240E+00
 -1      7236 7.63446E+01 1.38986E+01 4.67461E-15
 -1      7237 7.63330E+01 1.38986E+01 1.33240E+00
 -1      7238 5.95704E+01 1.56458E+01-1.03981E+00
 -1      7239 5.95795E+01 1.56458E+01 3.64807E-15
 -1      7240 5.95704E+01 1.56458E+01 1.03981E+00
 -1      7241 5.36801E+01 1.55765E+01-9.36990E-01
 -1      7242 5.36883E+01 1.55765E+01 3.28735E-15
 -1      7243 5.36801E+01 1.55765E+01 9.36990E-01
 -1      7244 6.35166E+01 1.56523E+01-1.10869E+00
 -1      7245 6.35263E+01 1.56523E+01 3.88973E-15
 -1      7246 6.35166E+01 1.56523E+01 1.10869E+00
 -1      7247 6.15442E+01 1.56496E+01-1.07426E+00
 -1      7248 6.15535E+01 1.56496E+01 3.76894E-15
 -1      7249 6.15442E+01 1.56496E+01 1.07426E+00
 -1      7250 8.18432E+01 3.51176E+01-1.42858E+00
 -1      7251 8.18557E+01 3.51176E+01 5.01205E-15
 -1      7252 8.18432E+01 3.51176E+01 1.42858E+00
 -1      7253 7.13619E+01 1.56053E+01-1.24563E+00
 -1      7254 7.13728E+01 1.56053E+01 4.37018E-15
 -1      7255 7.13619E+01 1.56053E+01 1.24563E+00
 -1      7256 4.67095E+01 1.39088E+01-8.15318E-01
 -1      7257 4.67166E+01 1.39088E+01 2.86047E-15
 -1      7258 4.67095E+01 1.39088E+01 8.15318E-01
 -1      7259 4.34953E+01 1.57036E+01-7.59214E-01
 -1      7260 4.35020E+01 1.57036E+01 2.66364E-15
 -1      7261 4.34953E+01 1.57036E+01 7.59214E-01
 -1      7262 4.10979E+01 1.54392E+01-7.17367E-01
 -1      7263 4.11042E+01 1.54392E+01 2.51682E-15
 -1      7264 4.10979E+01 1.54392E+01 7.17367E-01
 -1      7265 4.24169E+01 3.38321E+01-7.40390E-01
 -1      7266 4.24234E+01 3.38321E+01 2.59760E-15
 -1      7267 4.24169E+01 3.38321E+01 7.40390E-01
 -1      7268 4.06221E+01 2.29695E+01-7.09062E-01
 -1      7269 4.06283E+01 2.29695E+01 2.48768E-15
 -1      7270 4.06221E+01 2.29695E+01 7.09062E-01
 -1      7271 4.06225E+01 2.49054E+01-7.09068E-01
 -1      7272 4.06287E+01 2.49054E+01 2.48771E-15
 -1      7273 4.06225E+01 2.49054E+01 7.09068E-01
 -1      7274 4.87168E+01 1.38716E+01-8.50356E-01
 -1      7275 4.87243E+01 1.38716E+01 2.98340E-15
 -1      7276 4.87168E+01 1.38716E+01 8.50356E-01
 -1      7277 8.25138E+01 2.01155E+01-1.44028E+00
 -1      7278 8.25264E+01 2.01155E+01 5.05312E-15
 -1      7279 8.25138E+01 2.01155E+01 1.44028E+00
 -1      7280 4.22705E+01 2.94927E+01-7.37834E-01
 -1      7281 4.22769E+01 2.94927E+01 2.58863E-15
 -1      7282 4.22705E+01 2.94927E+01 7.37834E-01
 -1      7283 8.13989E+01 1.61136E+01-1.42082E+00
 -1      7284 8.14113E+01 1.61136E+01 4.98484E-15
 -1      7285 8.13989E+01 1.61136E+01 1.42082E+00
 -1      7286 8.24214E+01 2.79276E+01-1.43867E+00
 -1      7287 8.24339E+01 2.79276E+01 5.04746E-15
 -1      7288 8.24214E+01 2.79276E+01 1.43867E+00
 -1      7289 7.98831E+01 3.29291E+01-1.39437E+00
 -1      7290 7.98953E+01 3.29291E+01 4.89201E-15
 -1      7291 7.98831E+01 3.29291E+01 1.39437E+00
 -1      7292 6.54836E+01 1.56425E+01-1.14302E+00
 -1      7293 6.54935E+01 1.56425E+01 4.01019E-15
 -1      7294 6.54836E+01 1.56425E+01 1.14302E+00
 -1      7295 8.26874E+01 2.40681E+01-1.44331E+00
 -1      7296 8.27000E+01 2.40681E+01 5.06374E-15
 -1      7297 8.26874E+01 2.40681E+01 1.44331E+00
 -1      7298 8.20860E+01 1.81060E+01-1.43282E+00
 -1      7299 8.20985E+01 1.81060E+01 5.02692E-15
 -1      7300 8.20860E+01 1.81060E+01 1.43282E+00
 -1      7301 4.05986E+01 2.10138E+01-7.08651E-01
 -1      7302 4.06048E+01 2.10138E+01 2.48624E-15
 -1      7303 4.05986E+01 2.10138E+01 7.08651E-01
 -1      7304 8.27028E+01 2.21088E+01-1.44358E+00
 -1      7305 8.27154E+01 2.21088E+01 5.06469E-15
 -1      7306 8.27028E+01 2.21088E+01 1.44358E+00
 -1      7307 8.25640E+01 2.59975E+01-1.44116E+00
 -1      7308 8.25766E+01 2.59975E+01 5.05619E-15
 -1      7309 8.25640E+01 2.59975E+01 1.44116E+00
 -1      7310 8.01016E+01 1.76159E+01-1.39818E+00
 -1      7311 8.01138E+01 1.76159E+01 4.90539E-15
 -1      7312 8.01016E+01 1.76159E+01 1.39818E+00
 -1      7313 4.42026E+01 3.38277E+01-7.71559E-01
 -1      7314 4.42093E+01 3.38277E+01 2.70695E-15
 -1      7315 4.42026E+01 3.38277E+01 7.71559E-01
 -1      7316 4.61381E+01 3.37203E+01-8.05343E-01
 -1      7317 4.61451E+01 3.37203E+01 2.82548E-15
 -1      7318 4.61381E+01 3.37203E+01 8.05343E-01
 -1      7319 4.80001E+01 3.33990E+01-8.37844E-01
 -1      7320 4.80074E+01 3.33990E+01 2.93951E-15
 -1      7321 4.80001E+01 3.33990E+01 8.37844E-01
 -1      7322 4.99684E+01 3.33281E+01-8.72202E-01
 -1      7323 4.99760E+01 3.33281E+01 3.06005E-15
 -1      7324 4.99684E+01 3.33281E+01 8.72202E-01
 -1      7325 5.19758E+01 3.33215E+01-9.07240E-01
 -1      7326 5.19837E+01 3.33215E+01 3.18298E-15
 -1      7327 5.19758E+01 3.33215E+01 9.07240E-01
 -1      7328 5.39761E+01 3.33144E+01-9.42156E-01
 -1      7329 5.39843E+01 3.33144E+01 3.30548E-15
 -1      7330 5.39761E+01 3.33144E+01 9.42156E-01
 -1      7331 5.59662E+01 3.32887E+01-9.76893E-01
 -1      7332 5.59747E+01 3.32887E+01 3.42735E-15
 -1      7333 5.59662E+01 3.32887E+01 9.76893E-01
 -1      7334 5.79441E+01 3.32607E+01-1.01142E+00
 -1      7335 5.79530E+01 3.32607E+01 3.54848E-15
 -1      7336 5.79441E+01 3.32607E+01 1.01142E+00
 -1      7337 5.99140E+01 3.32568E+01-1.04580E+00
 -1      7338 5.99231E+01 3.32568E+01 3.66911E-15
 -1      7339 5.99140E+01 3.32568E+01 1.04580E+00
 -1      7340 6.18883E+01 3.32774E+01-1.08026E+00
 -1      7341 6.18978E+01 3.32774E+01 3.79002E-15
 -1      7342 6.18883E+01 3.32774E+01 1.08026E+00
 -1      7343 6.38712E+01 3.32953E+01-1.11488E+00
 -1      7344 6.38809E+01 3.32953E+01 3.91145E-15
 -1      7345 6.38712E+01 3.32953E+01 1.11488E+00
 -1      7346 6.58570E+01 3.32939E+01-1.14954E+00
 -1      7347 6.58670E+01 3.32939E+01 4.03306E-15
 -1      7348 6.58570E+01 3.32939E+01 1.14954E+00
 -1      7349 6.78440E+01 3.32843E+01-1.18422E+00
 -1      7350 6.78544E+01 3.32843E+01 4.15474E-15
 -1      7351 6.78440E+01 3.32843E+01 1.18422E+00
 -1      7352 6.98333E+01 3.32857E+01-1.21894E+00
 -1      7353 6.98439E+01 3.32857E+01 4.27657E-15
 -1      7354 6.98333E+01 3.32857E+01 1.21894E+00
 -1      7355 7.18172E+01 3.33142E+01-1.25357E+00
 -1      7356 7.18281E+01 3.33142E+01 4.39806E-15
 -1      7357 7.18172E+01 3.33142E+01 1.25357E+00
 -1      7358 7.37717E+01 3.33873E+01-1.28769E+00
 -1      7359 7.37829E+01 3.33873E+01 4.51775E-15
 -1      7360 7.37717E+01 3.33873E+01 1.28769E+00
 -1      7361 7.56699E+01 3.35045E+01-1.32082E+00
 -1      7362 7.56814E+01 3.35045E+01 4.63400E-15
 -1      7363 7.56699E+01 3.35045E+01 1.32082E+00
 -1      7364 7.76521E+01 3.33837E+01-1.35542E+00
 -1      7365 7.76639E+01 3.33837E+01 4.75538E-15
 -1      7366 7.76521E+01 3.33837E+01 1.35542E+00
 -1      7367 4.21391E+01 3.11765E+01-7.35540E-01
 -1      7368 4.21455E+01 3.11765E+01 2.58058E-15
 -1      7369 4.21391E+01 3.11765E+01 7.35540E-01
 -1      7370 4.56719E+01 1.56927E+01-7.97206E-01
 -1      7371 4.56788E+01 1.56927E+01 2.79693E-15
 -1      7372 4.56719E+01 1.56927E+01 7.97206E-01
 -1      7373 5.66014E+01 1.73966E+01-9.87981E-01
 -1      7374 5.66100E+01 1.73966E+01 3.46625E-15
 -1      7375 5.66014E+01 1.73966E+01 9.87981E-01
 -1      7376 4.23847E+01 1.76832E+01-7.39829E-01
 -1      7377 4.23912E+01 1.76832E+01 2.59563E-15
 -1      7378 4.23847E+01 1.76832E+01 7.39829E-01
 -1      7379 8.19471E+01 3.35444E+01-1.43039E+00
 -1      7380 8.19596E+01 3.35444E+01 5.01841E-15
 -1      7381 8.19471E+01 3.35444E+01 1.43039E+00
 -1      7382 4.23559E+01 2.77332E+01-7.39325E-01
 -1      7383 4.23624E+01 2.77332E+01 2.59386E-15
 -1      7384 4.23559E+01 2.77332E+01 7.39325E-01
 -1      7385 4.46999E+01 1.74806E+01-7.80239E-01
 -1      7386 4.47067E+01 1.74806E+01 2.73740E-15
 -1      7387 4.46999E+01 1.74806E+01 7.80239E-01
 -1      7388 7.81174E+01 1.73682E+01-1.36354E+00
 -1      7389 7.81293E+01 1.73682E+01 4.78388E-15
 -1      7390 7.81174E+01 1.73682E+01 1.36354E+00
 -1      7391 5.17188E+01 1.55495E+01-9.02754E-01
 -1      7392 5.17266E+01 1.55495E+01 3.16724E-15
 -1      7393 5.17188E+01 1.55495E+01 9.02754E-01
 -1      7394 8.22778E+01 2.98588E+01-1.43616E+00
 -1      7395 8.22903E+01 2.98588E+01 5.03866E-15
 -1      7396 8.22778E+01 2.98588E+01 1.43616E+00
 -1      7397 6.84338E+01 1.73799E+01-1.19452E+00
 -1      7398 6.84442E+01 1.73799E+01 4.19086E-15
 -1      7399 6.84338E+01 1.73799E+01 1.19452E+00
 -1      7400 7.33157E+01 1.56007E+01-1.27973E+00
 -1      7401 7.33268E+01 1.56007E+01 4.48983E-15
 -1      7402 7.33157E+01 1.56007E+01 1.27973E+00
 -1      7403 5.46469E+01 1.73518E+01-9.53866E-01
 -1      7404 5.46553E+01 1.73518E+01 3.34656E-15
 -1      7405 5.46469E+01 1.73518E+01 9.53866E-01
 -1      7406 6.25428E+01 1.74270E+01-1.09169E+00
 -1      7407 6.25523E+01 1.74270E+01 3.83010E-15
 -1      7408 6.25428E+01 1.74270E+01 1.09169E+00
 -1      7409 7.72639E+01 1.56428E+01-1.34865E+00
 -1      7410 7.72757E+01 1.56428E+01 4.73162E-15
 -1      7411 7.72639E+01 1.56428E+01 1.34865E+00
 -1      7412 5.85777E+01 1.74101E+01-1.02248E+00
 -1      7413 5.85867E+01 1.74101E+01 3.58728E-15
 -1      7414 5.85777E+01 1.74101E+01 1.02248E+00
 -1      7415 7.03802E+01 1.73548E+01-1.22849E+00
 -1      7416 7.03909E+01 1.73548E+01 4.31006E-15
 -1      7417 7.03802E+01 1.73548E+01 1.22849E+00
 -1      7418 6.45153E+01 1.74215E+01-1.12612E+00
 -1      7419 6.45252E+01 1.74215E+01 3.95090E-15
 -1      7420 6.45153E+01 1.74215E+01 1.12612E+00
 -1      7421 8.10524E+01 2.13008E+01-1.41478E+00
 -1      7422 8.10648E+01 2.13008E+01 4.96362E-15
 -1      7423 8.10524E+01 2.13008E+01 1.41478E+00
 -1      7424 4.23974E+01 2.39166E+01-7.40049E-01
 -1      7425 4.24038E+01 2.39166E+01 2.59640E-15
 -1      7426 4.23974E+01 2.39166E+01 7.40049E-01
 -1      7427 4.67663E+01 1.74716E+01-8.16308E-01
 -1      7428 4.67734E+01 1.74716E+01 2.86395E-15
 -1      7429 4.67663E+01 1.74716E+01 8.16308E-01
 -1      7430 4.18805E+01 3.26051E+01-7.31026E-01
 -1      7431 4.18868E+01 3.26051E+01 2.56474E-15
 -1      7432 4.18805E+01 3.26051E+01 7.31026E-01
 -1      7433 8.08754E+01 2.50042E+01-1.41169E+00
 -1      7434 8.08877E+01 2.50042E+01 4.95278E-15
 -1      7435 8.08754E+01 2.50042E+01 1.41169E+00
 -1      7436 7.88609E+01 1.90506E+01-1.37652E+00
 -1      7437 7.88729E+01 1.90506E+01 4.82941E-15
 -1      7438 7.88609E+01 1.90506E+01 1.37652E+00
 -1      7439 8.21129E+01 3.17668E+01-1.43329E+00
 -1      7440 8.21254E+01 3.17668E+01 5.02857E-15
 -1      7441 8.21129E+01 3.17668E+01 1.43329E+00
 -1      7442 6.64786E+01 1.74042E+01-1.16039E+00
 -1      7443 6.64887E+01 1.74042E+01 4.07113E-15
 -1      7444 6.64786E+01 1.74042E+01 1.16039E+00
 -1      7445 6.05612E+01 1.74167E+01-1.05710E+00
 -1      7446 6.05704E+01 1.74167E+01 3.70874E-15
 -1      7447 6.05612E+01 1.74167E+01 1.05710E+00
 -1      7448 7.61630E+01 1.73183E+01-1.32943E+00
 -1      7449 7.61746E+01 1.73183E+01 4.66420E-15
 -1      7450 7.61630E+01 1.73183E+01 1.32943E+00
 -1      7451 8.04848E+01 2.88360E+01-1.40487E+00
 -1      7452 8.04971E+01 2.88360E+01 4.92886E-15
 -1      7453 8.04848E+01 2.88360E+01 1.40487E+00
 -1      7454 8.06894E+01 1.94663E+01-1.40844E+00
 -1      7455 8.07017E+01 1.94663E+01 4.94139E-15
 -1      7456 8.06894E+01 1.94663E+01 1.40844E+00
 -1      7457 7.52745E+01 1.56013E+01-1.31392E+00
 -1      7458 7.52860E+01 1.56013E+01 4.60978E-15
 -1      7459 7.52745E+01 1.56013E+01 1.31392E+00
 -1      7460 8.06723E+01 2.69113E+01-1.40814E+00
 -1      7461 8.06846E+01 2.69113E+01 4.94034E-15
 -1      7462 8.06723E+01 2.69113E+01 1.40814E+00
 -1      7463 4.52994E+01 3.26440E+01-7.90703E-01
 -1      7464 4.53063E+01 3.26440E+01 2.77412E-15
 -1      7465 4.52994E+01 3.26440E+01 7.90703E-01
 -1      7466 4.91939E+01 3.17779E+01-8.58682E-01
 -1      7467 4.92014E+01 3.17779E+01 3.01261E-15
 -1      7468 4.91939E+01 3.17779E+01 8.58682E-01
 -1      7469 5.12273E+01 3.17946E+01-8.94177E-01
 -1      7470 5.12351E+01 3.17946E+01 3.13714E-15
 -1      7471 5.12273E+01 3.17946E+01 8.94177E-01
 -1      7472 5.32480E+01 3.18007E+01-9.29447E-01
 -1      7473 5.32561E+01 3.18007E+01 3.26089E-15
 -1      7474 5.32480E+01 3.18007E+01 9.29447E-01
 -1      7475 5.52440E+01 3.17640E+01-9.64288E-01
 -1      7476 5.52524E+01 3.17640E+01 3.38312E-15
 -1      7477 5.52440E+01 3.17640E+01 9.64288E-01
 -1      7478 5.72301E+01 3.16983E+01-9.98955E-01
 -1      7479 5.72388E+01 3.16983E+01 3.50475E-15
 -1      7480 5.72301E+01 3.16983E+01 9.98955E-01
 -1      7481 5.92029E+01 3.16640E+01-1.03339E+00
 -1      7482 5.92119E+01 3.16640E+01 3.62556E-15
 -1      7483 5.92029E+01 3.16640E+01 1.03339E+00
 -1      7484 6.11768E+01 3.17000E+01-1.06785E+00
 -1      7485 6.11861E+01 3.17000E+01 3.74645E-15
 -1      7486 6.11768E+01 3.17000E+01 1.06785E+00
 -1      7487 6.31632E+01 3.17483E+01-1.10252E+00
 -1      7488 6.31728E+01 3.17483E+01 3.86809E-15
 -1      7489 6.31632E+01 3.17483E+01 1.10252E+00
 -1      7490 6.51500E+01 3.17528E+01-1.13720E+00
 -1      7491 6.51599E+01 3.17528E+01 3.98976E-15
 -1      7492 6.51500E+01 3.17528E+01 1.13720E+00
 -1      7493 6.71383E+01 3.17301E+01-1.17190E+00
 -1      7494 6.71485E+01 3.17301E+01 4.11152E-15
 -1      7495 6.71383E+01 3.17301E+01 1.17190E+00
 -1      7496 6.91407E+01 3.17163E+01-1.20685E+00
 -1      7497 6.91512E+01 3.17163E+01 4.23415E-15
 -1      7498 6.91407E+01 3.17163E+01 1.20685E+00
 -1      7499 7.11584E+01 3.17319E+01-1.24207E+00
 -1      7500 7.11692E+01 3.17319E+01 4.35771E-15
 -1      7501 7.11584E+01 3.17319E+01 1.24207E+00
 -1      7502 7.31737E+01 3.17949E+01-1.27725E+00
 -1      7503 7.31848E+01 3.17949E+01 4.48113E-15
 -1      7504 7.31737E+01 3.17949E+01 1.27725E+00
 -1      7505 7.51080E+01 3.19515E+01-1.31102E+00
 -1      7506 7.51195E+01 3.19515E+01 4.59959E-15
 -1      7507 7.51080E+01 3.19515E+01 1.31102E+00
 -1      7508 7.67409E+01 3.22083E+01-1.33952E+00
 -1      7509 7.67526E+01 3.22083E+01 4.69959E-15
 -1      7510 7.67409E+01 3.22083E+01 1.33952E+00
 -1      7511 4.39055E+01 3.04220E+01-7.66373E-01
 -1      7512 4.39122E+01 3.04220E+01 2.68876E-15
 -1      7513 4.39055E+01 3.04220E+01 7.66373E-01
 -1      7514 4.38839E+01 1.91006E+01-7.65997E-01
 -1      7515 4.38906E+01 1.91006E+01 2.68744E-15
 -1      7516 4.38839E+01 1.91006E+01 7.65997E-01
 -1      7517 4.77271E+01 1.56379E+01-8.33080E-01
 -1      7518 4.77344E+01 1.56379E+01 2.92279E-15
 -1      7519 4.77271E+01 1.56379E+01 8.33080E-01
 -1      7520 4.23834E+01 2.58411E+01-7.39805E-01
 -1      7521 4.23898E+01 2.58411E+01 2.59554E-15
 -1      7522 4.23834E+01 2.58411E+01 7.39805E-01
 -1      7523 8.10874E+01 2.31673E+01-1.41539E+00
 -1      7524 8.10997E+01 2.31673E+01 4.96576E-15
 -1      7525 8.10874E+01 2.31673E+01 1.41539E+00
 -1      7526 6.74926E+01 1.91759E+01-1.17809E+00
 -1      7527 6.75028E+01 1.91759E+01 4.13322E-15
 -1      7528 6.74926E+01 1.91759E+01 1.17809E+00
 -1      7529 4.97373E+01 1.55683E+01-8.68168E-01
 -1      7530 4.97449E+01 1.55683E+01 3.04589E-15
 -1      7531 4.97373E+01 1.55683E+01 8.68168E-01
 -1      7532 5.27146E+01 1.72728E+01-9.20136E-01
 -1      7533 5.27226E+01 1.72728E+01 3.22822E-15
 -1      7534 5.27146E+01 1.72728E+01 9.20136E-01
 -1      7535 8.03084E+01 3.08018E+01-1.40179E+00
 -1      7536 8.03207E+01 3.08018E+01 4.91806E-15
 -1      7537 8.03084E+01 3.08018E+01 1.40179E+00
 -1      7538 4.22959E+01 1.99672E+01-7.38277E-01
 -1      7539 4.23023E+01 1.99672E+01 2.59018E-15
 -1      7540 4.22959E+01 1.99672E+01 7.38277E-01
 -1      7541 6.15698E+01 1.92137E+01-1.07470E+00
 -1      7542 6.15792E+01 1.92137E+01 3.77051E-15
 -1      7543 6.15698E+01 1.92137E+01 1.07470E+00
 -1      7544 7.69885E+01 1.89704E+01-1.34384E+00
 -1      7545 7.70003E+01 1.89704E+01 4.71475E-15
 -1      7546 7.69885E+01 1.89704E+01 1.34384E+00
 -1      7547 5.55709E+01 1.91750E+01-9.69993E-01
 -1      7548 5.55793E+01 1.91750E+01 3.40314E-15
 -1      7549 5.55709E+01 1.91750E+01 9.69993E-01
 -1      7550 7.23193E+01 1.73482E+01-1.26234E+00
 -1      7551 7.23303E+01 1.73482E+01 4.42881E-15
 -1      7552 7.23193E+01 1.73482E+01 1.26234E+00
 -1      7553 6.35584E+01 1.92236E+01-1.10942E+00
 -1      7554 6.35681E+01 1.92236E+01 3.89229E-15
 -1      7555 6.35584E+01 1.92236E+01 1.10942E+00
 -1      7556 5.75612E+01 1.91885E+01-1.00474E+00
 -1      7557 5.75700E+01 1.91885E+01 3.52503E-15
 -1      7558 5.75612E+01 1.91885E+01 1.00474E+00
 -1      7559 7.83773E+01 3.15901E+01-1.36808E+00
 -1      7560 7.83892E+01 3.15901E+01 4.79980E-15
 -1      7561 7.83773E+01 3.15901E+01 1.36808E+00
 -1      7562 4.58453E+01 1.95284E+01-8.00232E-01
 -1      7563 4.58523E+01 1.95284E+01 2.80755E-15
 -1      7564 4.58453E+01 1.95284E+01 8.00232E-01
 -1      7565 4.23769E+01 2.19590E+01-7.39692E-01
 -1      7566 4.23834E+01 2.19590E+01 2.59515E-15
 -1      7567 4.23769E+01 2.19590E+01 7.39692E-01
 -1      7568 4.70591E+01 3.18307E+01-8.21419E-01
 -1      7569 4.70662E+01 3.18307E+01 2.88188E-15
 -1      7570 4.70591E+01 3.18307E+01 8.21419E-01
 -1      7571 4.41220E+01 2.86666E+01-7.70153E-01
 -1      7572 4.41287E+01 2.86666E+01 2.70202E-15
 -1      7573 4.41220E+01 2.86666E+01 7.70153E-01
 -1      7574 6.94264E+01 1.91185E+01-1.21184E+00
 -1      7575 6.94370E+01 1.91185E+01 4.25165E-15
 -1      7576 6.94264E+01 1.91185E+01 1.21184E+00
 -1      7577 7.93375E+01 2.07720E+01-1.38484E+00
 -1      7578 7.93495E+01 2.07720E+01 4.85860E-15
 -1      7579 7.93375E+01 2.07720E+01 1.38484E+00
 -1      7580 4.36399E+01 3.22787E+01-7.61737E-01
 -1      7581 4.36465E+01 3.22787E+01 2.67249E-15
 -1      7582 4.36399E+01 3.22787E+01 7.61737E-01
 -1      7583 7.92493E+01 2.39236E+01-1.38330E+00
 -1      7584 7.92614E+01 2.39236E+01 4.85320E-15
 -1      7585 7.92493E+01 2.39236E+01 1.38330E+00
 -1      7586 7.84966E+01 2.96873E+01-1.37016E+00
 -1      7587 7.85086E+01 2.96873E+01 4.80710E-15
 -1      7588 7.84966E+01 2.96873E+01 1.37016E+00
 -1      7589 7.42435E+01 1.73430E+01-1.29593E+00
 -1      7590 7.42548E+01 1.73430E+01 4.54665E-15
 -1      7591 7.42435E+01 1.73430E+01 1.29593E+00
 -1      7592 7.86644E+01 2.77569E+01-1.37309E+00
 -1      7593 7.86763E+01 2.77569E+01 4.81738E-15
 -1      7594 7.86644E+01 2.77569E+01 1.37309E+00
 -1      7595 4.41781E+01 2.48566E+01-7.71132E-01
 -1      7596 4.41848E+01 2.48566E+01 2.70545E-15
 -1      7597 4.41781E+01 2.48566E+01 7.71132E-01
 -1      7598 7.66372E+01 3.06153E+01-1.33771E+00
 -1      7599 7.66489E+01 3.06153E+01 4.69324E-15
 -1      7600 7.66372E+01 3.06153E+01 1.33771E+00
 -1      7601 5.95662E+01 1.91937E+01-1.03973E+00
 -1      7602 5.95753E+01 1.91937E+01 3.64781E-15
 -1      7603 5.95662E+01 1.91937E+01 1.03973E+00
 -1      7604 7.89633E+01 2.57958E+01-1.37831E+00
 -1      7605 7.89754E+01 2.57958E+01 4.83569E-15
 -1      7606 7.89633E+01 2.57958E+01 1.37831E+00
 -1      7607 5.04458E+01 3.02196E+01-8.80534E-01
 -1      7608 5.04535E+01 3.02196E+01 3.08928E-15
 -1      7609 5.04458E+01 3.02196E+01 8.80534E-01
 -1      7610 7.96668E+01 2.23161E+01-1.39059E+00
 -1      7611 7.96790E+01 2.23161E+01 4.87877E-15
 -1      7612 7.96668E+01 2.23161E+01 1.39059E+00
 -1      7613 4.52734E+01 3.13158E+01-7.90250E-01
 -1      7614 4.52803E+01 3.13158E+01 2.77253E-15
 -1      7615 4.52734E+01 3.13158E+01 7.90250E-01
 -1      7616 5.24378E+01 3.02544E+01-9.15306E-01
 -1      7617 5.24458E+01 3.02544E+01 3.21127E-15
 -1      7618 5.24378E+01 3.02544E+01 9.15306E-01
 -1      7619 5.44056E+01 3.02245E+01-9.49654E-01
 -1      7620 5.44139E+01 3.02245E+01 3.33178E-15
 -1      7621 5.44056E+01 3.02245E+01 9.49654E-01
 -1      7622 5.63802E+01 3.01205E+01-9.84120E-01
 -1      7623 5.63888E+01 3.01205E+01 3.45270E-15
 -1      7624 5.63802E+01 3.01205E+01 9.84120E-01
 -1      7625 5.83726E+01 2.99806E+01-1.01890E+00
 -1      7626 5.83814E+01 2.99806E+01 3.57471E-15
 -1      7627 5.83726E+01 2.99806E+01 1.01890E+00
 -1      7628 6.03610E+01 3.00101E+01-1.05360E+00
 -1      7629 6.03702E+01 3.00101E+01 3.69649E-15
 -1      7630 6.03610E+01 3.00101E+01 1.05360E+00
 -1      7631 6.23603E+01 3.01452E+01-1.08850E+00
 -1      7632 6.23698E+01 3.01452E+01 3.81892E-15
 -1      7633 6.23603E+01 3.01452E+01 1.08850E+00
 -1      7634 6.43418E+01 3.01752E+01-1.12309E+00
 -1      7635 6.43516E+01 3.01752E+01 3.94027E-15
 -1      7636 6.43418E+01 3.01752E+01 1.12309E+00
 -1      7637 6.63121E+01 3.01293E+01-1.15748E+00
 -1      7638 6.63222E+01 3.01293E+01 4.06093E-15
 -1      7639 6.63121E+01 3.01293E+01 1.15748E+00
 -1      7640 6.83150E+01 3.00907E+01-1.19244E+00
 -1      7641 6.83254E+01 3.00907E+01 4.18358E-15
 -1      7642 6.83150E+01 3.00907E+01 1.19244E+00
 -1      7643 7.03609E+01 3.00860E+01-1.22815E+00
 -1      7644 7.03717E+01 3.00860E+01 4.30888E-15
 -1      7645 7.03609E+01 3.00860E+01 1.22815E+00
 -1      7646 7.24550E+01 3.01359E+01-1.26471E+00
 -1      7647 7.24660E+01 3.01359E+01 4.43712E-15
 -1      7648 7.24550E+01 3.01359E+01 1.26471E+00
 -1      7649 7.46094E+01 3.02555E+01-1.30231E+00
 -1      7650 7.46207E+01 3.02555E+01 4.56905E-15
 -1      7651 7.46094E+01 3.02555E+01 1.30231E+00
 -1      7652 4.41217E+01 2.09242E+01-7.70146E-01
 -1      7653 4.41284E+01 2.09242E+01 2.70199E-15
 -1      7654 4.41217E+01 2.09242E+01 7.70146E-01
 -1      7655 6.55313E+01 1.92085E+01-1.14385E+00
 -1      7656 6.55413E+01 1.92085E+01 4.01312E-15
 -1      7657 6.55313E+01 1.92085E+01 1.14385E+00
 -1      7658 4.41342E+01 2.67937E+01-7.70365E-01
 -1      7659 4.41409E+01 2.67937E+01 2.70276E-15
 -1      7660 4.41342E+01 2.67937E+01 7.70365E-01
 -1      7661 6.85447E+01 2.09445E+01-1.19645E+00
 -1      7662 6.85552E+01 2.09445E+01 4.19765E-15
 -1      7663 6.85447E+01 2.09445E+01 1.19645E+00
 -1      7664 6.26069E+01 2.10495E+01-1.09281E+00
 -1      7665 6.26165E+01 2.10495E+01 3.83403E-15
 -1      7666 6.26069E+01 2.10495E+01 1.09281E+00
 -1      7667 4.83621E+01 3.01264E+01-8.44164E-01
 -1      7668 4.83695E+01 3.01264E+01 2.96168E-15
 -1      7669 4.83621E+01 3.01264E+01 8.44164E-01
 -1      7670 5.36315E+01 1.90849E+01-9.36142E-01
 -1      7671 5.36397E+01 1.90849E+01 3.28438E-15
 -1      7672 5.36315E+01 1.90849E+01 9.36142E-01
 -1      7673 7.77847E+01 2.04205E+01-1.35774E+00
 -1      7674 7.77965E+01 2.04205E+01 4.76351E-15
 -1      7675 7.77847E+01 2.04205E+01 1.35774E+00
 -1      7676 7.51514E+01 1.91029E+01-1.31177E+00
 -1      7677 7.51629E+01 1.91029E+01 4.60225E-15
 -1      7678 7.51514E+01 1.91029E+01 1.31177E+00
 -1      7679 4.41932E+01 2.29101E+01-7.71395E-01
 -1      7680 4.41999E+01 2.29101E+01 2.70638E-15
 -1      7681 4.41932E+01 2.29101E+01 7.71395E-01
 -1      7682 4.79670E+01 1.91020E+01-8.37268E-01
 -1      7683 4.79743E+01 1.91020E+01 2.93748E-15
 -1      7684 4.79670E+01 1.91020E+01 8.37268E-01
 -1      7685 6.05855E+01 2.09946E+01-1.05752E+00
 -1      7686 6.05948E+01 2.09946E+01 3.71024E-15
 -1      7687 6.05855E+01 2.09946E+01 1.05752E+00
 -1      7688 4.60994E+01 2.97433E+01-8.04667E-01
 -1      7689 4.61064E+01 2.97433E+01 2.82311E-15
 -1      7690 4.60994E+01 2.97433E+01 8.04667E-01
 -1      7691 7.13546E+01 1.90921E+01-1.24550E+00
 -1      7692 7.13655E+01 1.90921E+01 4.36973E-15
 -1      7693 7.13546E+01 1.90921E+01 1.24550E+00
 -1      7694 5.64915E+01 2.10061E+01-9.86062E-01
 -1      7695 5.65001E+01 2.10061E+01 3.45952E-15
 -1      7696 5.64915E+01 2.10061E+01 9.86062E-01
 -1      7697 4.87959E+01 1.73079E+01-8.51736E-01
 -1      7698 4.88034E+01 1.73079E+01 2.98824E-15
 -1      7699 4.87959E+01 1.73079E+01 8.51736E-01
 -1      7700 5.07686E+01 1.72379E+01-8.86169E-01
 -1      7701 5.07763E+01 1.72379E+01 3.10905E-15
 -1      7702 5.07686E+01 1.72379E+01 8.86169E-01
 -1      7703 6.65911E+01 2.10129E+01-1.16235E+00
 -1      7704 6.66012E+01 2.10129E+01 4.07801E-15
 -1      7705 6.65911E+01 2.10129E+01 1.16235E+00
 -1      7706 5.44504E+01 2.09919E+01-9.50435E-01
 -1      7707 5.44587E+01 2.09919E+01 3.33452E-15
 -1      7708 5.44504E+01 2.09919E+01 9.50435E-01
 -1      7709 4.77759E+01 2.83749E+01-8.33931E-01
 -1      7710 4.77832E+01 2.83749E+01 2.92578E-15
 -1      7711 4.77759E+01 2.83749E+01 8.33931E-01
 -1      7712 4.96844E+01 2.85670E+01-8.67244E-01
 -1      7713 4.96920E+01 2.85670E+01 3.04265E-15
 -1      7714 4.96844E+01 2.85670E+01 8.67244E-01
 -1      7715 7.63027E+01 2.86040E+01-1.33187E+00
 -1      7716 7.63143E+01 2.86040E+01 4.67275E-15
 -1      7717 7.63027E+01 2.86040E+01 1.33187E+00
 -1      7718 4.58810E+01 2.57983E+01-8.00856E-01
 -1      7719 4.58880E+01 2.57983E+01 2.80974E-15
 -1      7720 4.58810E+01 2.57983E+01 8.00856E-01
 -1      7721 4.58656E+01 2.77578E+01-8.00588E-01
 -1      7722 4.58726E+01 2.77578E+01 2.80880E-15
 -1      7723 4.58656E+01 2.77578E+01 8.00588E-01
 -1      7724 6.46070E+01 2.10550E+01-1.12772E+00
 -1      7725 6.46168E+01 2.10550E+01 3.95651E-15
 -1      7726 6.46070E+01 2.10550E+01 1.12772E+00
 -1      7727 5.16056E+01 2.86333E+01-9.00780E-01
 -1      7728 5.16135E+01 2.86333E+01 3.16031E-15
 -1      7729 5.16056E+01 2.86333E+01 9.00780E-01
 -1      7730 5.34657E+01 2.86471E+01-9.33248E-01
 -1      7731 5.34739E+01 2.86471E+01 3.27422E-15
 -1      7732 5.34657E+01 2.86471E+01 9.33248E-01
 -1      7733 5.53846E+01 2.85580E+01-9.66741E-01
 -1      7734 5.53930E+01 2.85580E+01 3.39173E-15
 -1      7735 5.53846E+01 2.85580E+01 9.66741E-01
 -1      7736 5.73075E+01 2.83089E+01-1.00031E+00
 -1      7737 5.73162E+01 2.83089E+01 3.50949E-15
 -1      7738 5.73075E+01 2.83089E+01 1.00031E+00
 -1      7739 5.94460E+01 2.80106E+01-1.03763E+00
 -1      7740 5.94550E+01 2.80106E+01 3.64045E-15
 -1      7741 5.94460E+01 2.80106E+01 1.03763E+00
 -1      7742 6.15110E+01 2.84423E+01-1.07368E+00
 -1      7743 6.15204E+01 2.84423E+01 3.76691E-15
 -1      7744 6.15110E+01 2.84423E+01 1.07368E+00
 -1      7745 6.34650E+01 2.85745E+01-1.10779E+00
 -1      7746 6.34747E+01 2.85745E+01 3.88657E-15
 -1      7747 6.34650E+01 2.85745E+01 1.10779E+00
 -1      7748 6.53632E+01 2.84686E+01-1.14092E+00
 -1      7749 6.53732E+01 2.84686E+01 4.00282E-15
 -1      7750 6.53632E+01 2.84686E+01 1.14092E+00
 -1      7751 6.73362E+01 2.83943E+01-1.17536E+00
 -1      7752 6.73465E+01 2.83943E+01 4.12365E-15
 -1      7753 6.73362E+01 2.83943E+01 1.17536E+00
 -1      7754 6.93903E+01 2.83522E+01-1.21121E+00
 -1      7755 6.94009E+01 2.83522E+01 4.24944E-15
 -1      7756 6.93903E+01 2.83522E+01 1.21121E+00
 -1      7757 7.15160E+01 2.83770E+01-1.24832E+00
 -1      7758 7.15269E+01 2.83770E+01 4.37962E-15
 -1      7759 7.15160E+01 2.83770E+01 1.24832E+00
 -1      7760 7.37390E+01 2.84962E+01-1.28712E+00
 -1      7761 7.37503E+01 2.84962E+01 4.51575E-15
 -1      7762 7.37390E+01 2.84962E+01 1.28712E+00
 -1      7763 5.85453E+01 2.09765E+01-1.02191E+00
 -1      7764 5.85542E+01 2.09765E+01 3.58529E-15
 -1      7765 5.85453E+01 2.09765E+01 1.02191E+00
 -1      7766 4.74286E+01 2.08325E+01-8.27869E-01
 -1      7767 4.74358E+01 2.08325E+01 2.90451E-15
 -1      7768 4.74286E+01 2.08325E+01 8.27869E-01
 -1      7769 7.32686E+01 1.91177E+01-1.27891E+00
 -1      7770 7.32798E+01 1.91177E+01 4.48694E-15
 -1      7771 7.32686E+01 1.91177E+01 1.27891E+00
 -1      7772 7.04259E+01 2.08188E+01-1.22929E+00
 -1      7773 7.04367E+01 2.08188E+01 4.31286E-15
 -1      7774 7.04259E+01 2.08188E+01 1.22929E+00
 -1      7775 5.74929E+01 2.27814E+01-1.00354E+00
 -1      7776 5.75016E+01 2.27814E+01 3.52084E-15
 -1      7777 5.74929E+01 2.27814E+01 1.00354E+00
 -1      7778 5.25028E+01 2.07915E+01-9.16440E-01
 -1      7779 5.25108E+01 2.07915E+01 3.21525E-15
 -1      7780 5.25028E+01 2.07915E+01 9.16440E-01
 -1      7781 7.77727E+01 2.23134E+01-1.35753E+00
 -1      7782 7.77846E+01 2.23134E+01 4.76277E-15
 -1      7783 7.77727E+01 2.23134E+01 1.35753E+00
 -1      7784 7.61383E+01 2.08647E+01-1.32900E+00
 -1      7785 7.61499E+01 2.08647E+01 4.66268E-15
 -1      7786 7.61383E+01 2.08647E+01 1.32900E+00
 -1      7787 4.60942E+01 2.38583E+01-8.04578E-01
 -1      7788 4.61012E+01 2.38583E+01 2.82279E-15
 -1      7789 4.60942E+01 2.38583E+01 8.04578E-01
 -1      7790 7.69905E+01 2.65076E+01-1.34388E+00
 -1      7791 7.70023E+01 2.65076E+01 4.71487E-15
 -1      7792 7.69905E+01 2.65076E+01 1.34388E+00
 -1      7793 6.77510E+01 2.28277E+01-1.18260E+00
 -1      7794 6.77613E+01 2.28277E+01 4.14905E-15
 -1      7795 6.77510E+01 2.28277E+01 1.18260E+00
 -1      7796 6.36847E+01 2.29621E+01-1.11162E+00
 -1      7797 6.36944E+01 2.29621E+01 3.90003E-15
 -1      7798 6.36847E+01 2.29621E+01 1.11162E+00
 -1      7799 6.16375E+01 2.28674E+01-1.07589E+00
 -1      7800 6.16469E+01 2.28674E+01 3.77466E-15
 -1      7801 6.16375E+01 2.28674E+01 1.07589E+00
 -1      7802 7.73620E+01 2.44359E+01-1.35036E+00
 -1      7803 7.73737E+01 2.44359E+01 4.73762E-15
 -1      7804 7.73620E+01 2.44359E+01 1.35036E+00
 -1      7805 4.91954E+01 2.07637E+01-8.58708E-01
 -1      7806 4.92029E+01 2.07637E+01 3.01271E-15
 -1      7807 4.91954E+01 2.07637E+01 8.58708E-01
 -1      7808 4.59549E+01 2.18533E+01-8.02145E-01
 -1      7809 4.59619E+01 2.18533E+01 2.81426E-15
 -1      7810 4.59549E+01 2.18533E+01 8.02145E-01
 -1      7811 4.98597E+01 1.89100E+01-8.70304E-01
 -1      7812 4.98673E+01 1.89100E+01 3.05339E-15
 -1      7813 4.98597E+01 1.89100E+01 8.70304E-01
 -1      7814 5.17653E+01 1.89033E+01-9.03567E-01
 -1      7815 5.17732E+01 1.89033E+01 3.17009E-15
 -1      7816 5.17653E+01 1.89033E+01 9.03567E-01
 -1      7817 5.53403E+01 2.29072E+01-9.65968E-01
 -1      7818 5.53487E+01 2.29072E+01 3.38902E-15
 -1      7819 5.53403E+01 2.29072E+01 9.65968E-01
 -1      7820 6.96954E+01 2.27069E+01-1.21654E+00
 -1      7821 6.97061E+01 2.27069E+01 4.26812E-15
 -1      7822 6.96954E+01 2.27069E+01 1.21654E+00
 -1      7823 5.30377E+01 2.28649E+01-9.25776E-01
 -1      7824 5.30457E+01 2.28649E+01 3.24801E-15
 -1      7825 5.30377E+01 2.28649E+01 9.25776E-01
 -1      7826 5.95735E+01 2.27473E+01-1.03986E+00
 -1      7827 5.95826E+01 2.27473E+01 3.64826E-15
 -1      7828 5.95735E+01 2.27473E+01 1.03986E+00
 -1      7829 4.73210E+01 2.67358E+01-8.25990E-01
 -1      7830 4.73282E+01 2.67358E+01 2.89792E-15
 -1      7831 4.73210E+01 2.67358E+01 8.25990E-01
 -1      7832 7.23313E+01 2.08409E+01-1.26255E+00
 -1      7833 7.23423E+01 2.08409E+01 4.42954E-15
 -1      7834 7.23313E+01 2.08409E+01 1.26255E+00
 -1      7835 7.54366E+01 2.30360E+01-1.31675E+00
 -1      7836 7.54481E+01 2.30360E+01 4.61971E-15
 -1      7837 7.54366E+01 2.30360E+01 1.31675E+00
 -1      7838 4.83091E+01 2.27971E+01-8.43238E-01
 -1      7839 4.83164E+01 2.27971E+01 2.95843E-15
 -1      7840 4.83091E+01 2.27971E+01 8.43238E-01
 -1      7841 6.57308E+01 2.28948E+01-1.14734E+00
 -1      7842 6.57408E+01 2.28948E+01 4.02533E-15
 -1      7843 6.57308E+01 2.28948E+01 1.14734E+00
 -1      7844 5.07909E+01 2.70694E+01-8.86558E-01
 -1      7845 5.07986E+01 2.70694E+01 3.11041E-15
 -1      7846 5.07909E+01 2.70694E+01 8.86558E-01
 -1      7847 5.25701E+01 2.67926E+01-9.17614E-01
 -1      7848 5.25781E+01 2.67926E+01 3.21937E-15
 -1      7849 5.25701E+01 2.67926E+01 9.17614E-01
 -1      7850 5.43247E+01 2.71154E+01-9.48241E-01
 -1      7851 5.43330E+01 2.71154E+01 3.32683E-15
 -1      7852 5.43247E+01 2.71154E+01 9.48241E-01
 -1      7853 5.60028E+01 2.66507E+01-9.77533E-01
 -1      7854 5.60114E+01 2.66507E+01 3.42959E-15
 -1      7855 5.60028E+01 2.66507E+01 9.77533E-01
 -1      7856 5.78591E+01 2.63730E+01-1.00993E+00
 -1      7857 5.78679E+01 2.63730E+01 3.54327E-15
 -1      7858 5.78591E+01 2.63730E+01 1.00993E+00
 -1      7859 6.10795E+01 2.65139E+01-1.06615E+00
 -1      7860 6.10888E+01 2.65139E+01 3.74049E-15
 -1      7861 6.10795E+01 2.65139E+01 1.06615E+00
 -1      7862 6.26325E+01 2.70615E+01-1.09325E+00
 -1      7863 6.26420E+01 2.70615E+01 3.83559E-15
 -1      7864 6.26325E+01 2.70615E+01 1.09325E+00
 -1      7865 6.42933E+01 2.67540E+01-1.12224E+00
 -1      7866 6.43031E+01 2.67540E+01 3.93730E-15
 -1      7867 6.42933E+01 2.67540E+01 1.12224E+00
 -1      7868 6.62125E+01 2.66272E+01-1.15574E+00
 -1      7869 6.62226E+01 2.66272E+01 4.05483E-15
 -1      7870 6.62125E+01 2.66272E+01 1.15574E+00
 -1      7871 6.82451E+01 2.65577E+01-1.19122E+00
 -1      7872 6.82555E+01 2.65577E+01 4.17931E-15
 -1      7873 6.82451E+01 2.65577E+01 1.19122E+00
 -1      7874 7.04024E+01 2.64950E+01-1.22888E+00
 -1      7875 7.04131E+01 2.64950E+01 4.31142E-15
 -1      7876 7.04024E+01 2.64950E+01 1.22888E+00
 -1      7877 7.26102E+01 2.65855E+01-1.26742E+00
 -1      7878 7.26213E+01 2.65855E+01 4.44662E-15
 -1      7879 7.26102E+01 2.65855E+01 1.26742E+00
 -1      7880 4.90733E+01 2.67170E+01-8.56578E-01
 -1      7881 4.90808E+01 2.67170E+01 3.00523E-15
 -1      7882 4.90733E+01 2.67170E+01 8.56578E-01
 -1      7883 7.14025E+01 2.23636E+01-1.24633E+00
 -1      7884 7.14133E+01 2.23636E+01 4.37266E-15
 -1      7885 7.14025E+01 2.23636E+01 1.24633E+00
 -1      7886 4.79473E+01 2.49950E+01-8.36924E-01
 -1      7887 4.79546E+01 2.49950E+01 2.93628E-15
 -1      7888 4.79473E+01 2.49950E+01 8.36924E-01
 -1      7889 7.48237E+01 2.67977E+01-1.30605E+00
 -1      7890 7.48351E+01 2.67977E+01 4.58218E-15
 -1      7891 7.48237E+01 2.67977E+01 1.30605E+00
 -1      7892 6.49083E+01 2.48204E+01-1.13298E+00
 -1      7893 6.49182E+01 2.48204E+01 3.97496E-15
 -1      7894 6.49083E+01 2.48204E+01 1.13298E+00
 -1      7895 6.27035E+01 2.50279E+01-1.09449E+00
 -1      7896 6.27131E+01 2.50279E+01 3.83994E-15
 -1      7897 6.27035E+01 2.50279E+01 1.09449E+00
 -1      7898 7.42384E+01 2.09895E+01-1.29584E+00
 -1      7899 7.42497E+01 2.09895E+01 4.54634E-15
 -1      7900 7.42384E+01 2.09895E+01 1.29584E+00
 -1      7901 7.56573E+01 2.51378E+01-1.32060E+00
 -1      7902 7.56688E+01 2.51378E+01 4.63323E-15
 -1      7903 7.56573E+01 2.51378E+01 1.32060E+00
 -1      7904 6.90935E+01 2.46404E+01-1.20603E+00
 -1      7905 6.91041E+01 2.46404E+01 4.23126E-15
 -1      7906 6.90935E+01 2.46404E+01 1.20603E+00
 -1      7907 5.07917E+01 2.22232E+01-8.86572E-01
 -1      7908 5.07994E+01 2.22232E+01 3.11047E-15
 -1      7909 5.07917E+01 2.22232E+01 8.86572E-01
 -1      7910 5.08416E+01 2.03463E+01-8.87443E-01
 -1      7911 5.08493E+01 2.03463E+01 3.11352E-15
 -1      7912 5.08416E+01 2.03463E+01 8.87443E-01
 -1      7913 6.69757E+01 2.47259E+01-1.16906E+00
 -1      7914 6.69859E+01 2.47259E+01 4.10157E-15
 -1      7915 6.69757E+01 2.47259E+01 1.16906E+00
 -1      7916 5.65411E+01 2.46827E+01-9.86928E-01
 -1      7917 5.65497E+01 2.46827E+01 3.46256E-15
 -1      7918 5.65411E+01 2.46827E+01 9.86928E-01
 -1      7919 5.85623E+01 2.44645E+01-1.02221E+00
 -1      7920 5.85712E+01 2.44645E+01 3.58633E-15
 -1      7921 5.85623E+01 2.44645E+01 1.02221E+00
 -1      7922 7.37749E+01 2.48270E+01-1.28775E+00
 -1      7923 7.37862E+01 2.48270E+01 4.51795E-15
 -1      7924 7.37749E+01 2.48270E+01 1.28775E+00
 -1      7925 5.41397E+01 2.50409E+01-9.45012E-01
 -1      7926 5.41480E+01 2.50409E+01 3.31550E-15
 -1      7927 5.41397E+01 2.50409E+01 9.45012E-01
 -1      7928 5.08469E+01 2.47727E+01-8.87536E-01
 -1      7929 5.08546E+01 2.47727E+01 3.11384E-15
 -1      7930 5.08469E+01 2.47727E+01 8.87536E-01
 -1      7931 7.31642E+01 2.28094E+01-1.27709E+00
 -1      7932 7.31753E+01 2.28094E+01 4.48055E-15
 -1      7933 7.31642E+01 2.28094E+01 1.27709E+00
 -1      7934 7.14251E+01 2.44235E+01-1.24673E+00
 -1      7935 7.14360E+01 2.44235E+01 4.37405E-15
 -1      7936 7.14251E+01 2.44235E+01 1.24673E+00
 -1      7937 5.95103E+01 2.59887E+01-1.03876E+00
 -1      7938 5.95194E+01 2.59887E+01 3.64439E-15
 -1      7939 5.95103E+01 2.59887E+01 1.03876E+00
 -1      7940 6.05765E+01 2.45429E+01-1.05737E+00
 -1      7941 6.05857E+01 2.45429E+01 3.70968E-15
 -1      7942 6.05765E+01 2.45429E+01 1.05737E+00
 -1      7943 2.49962E+01 4.90000E+01-4.36310E-01
 -1      7945 2.49962E+01 4.90000E+01 4.36310E-01
 -1      7946 2.60085E+01 4.90000E+01-4.53981E-01
 -1      7948 2.60085E+01 4.90000E+01 4.53981E-01
 -1      7949 2.60085E+01 5.00000E+01-4.53981E-01
 -1      7951 2.60085E+01 5.00000E+01 4.53981E-01
 -1      7952 2.49962E+01 4.70000E+01-4.36310E-01
 -1      7954 2.49962E+01 4.70000E+01 4.36310E-01
 -1      7955 2.58282E+01 4.66532E+01-4.50832E-01
 -1      7957 2.58282E+01 4.66532E+01 4.50832E-01
 -1      7958 2.58282E+01 4.76532E+01-4.50832E-01
 -1      7960 2.58282E+01 4.76532E+01 4.50832E-01
 -1      7961 2.49962E+01 4.30000E+01-4.36310E-01
 -1      7963 2.49962E+01 4.30000E+01 4.36310E-01
 -1      7964 2.58919E+01 4.25712E+01-4.51945E-01
 -1      7966 2.58919E+01 4.25712E+01 4.51945E-01
 -1      7967 2.58919E+01 4.35712E+01-4.51945E-01
 -1      7969 2.58919E+01 4.35712E+01 4.51945E-01
 -1      7970 2.49962E+01 3.90000E+01-4.36310E-01
 -1      7972 2.49962E+01 3.90000E+01 4.36310E-01
 -1      7973 2.58903E+01 3.85230E+01-4.51916E-01
 -1      7975 2.58903E+01 3.85230E+01 4.51916E-01
 -1      7976 2.58903E+01 3.95230E+01-4.51916E-01
 -1      7978 2.58903E+01 3.95230E+01 4.51916E-01
 -1      7979 2.49962E+01 3.50000E+01-4.36310E-01
 -1      7981 2.49962E+01 3.50000E+01 4.36310E-01
 -1      7982 2.58762E+01 3.45039E+01-4.51671E-01
 -1      7984 2.58762E+01 3.45039E+01 4.51671E-01
 -1      7985 2.58762E+01 3.55039E+01-4.51671E-01
 -1      7987 2.58762E+01 3.55039E+01 4.51671E-01
 -1      7988 2.49962E+01 3.10000E+01-4.36310E-01
 -1      7990 2.49962E+01 3.10000E+01 4.36310E-01
 -1      7991 2.58644E+01 3.04984E+01-4.51465E-01
 -1      7993 2.58644E+01 3.04984E+01 4.51465E-01
 -1      7994 2.58644E+01 3.14984E+01-4.51465E-01
 -1      7996 2.58644E+01 3.14984E+01 4.51465E-01
 -1      7997 2.49962E+01 2.70000E+01-4.36310E-01
 -1      7999 2.49962E+01 2.70000E+01 4.36310E-01
 -1      8000 2.58610E+01 2.64981E+01-4.51405E-01
 -1      8002 2.58610E+01 2.64981E+01 4.51405E-01
 -1      8003 2.58610E+01 2.74981E+01-4.51405E-01
 -1      8005 2.58610E+01 2.74981E+01 4.51405E-01
 -1      8006 2.49962E+01 2.30000E+01-4.36310E-01
 -1      8008 2.49962E+01 2.30000E+01 4.36310E-01
 -1      8009 2.58613E+01 2.24995E+01-4.51411E-01
 -1      8011 2.58613E+01 2.24995E+01 4.51411E-01
 -1      8012 2.58613E+01 2.34995E+01-4.51411E-01
 -1      8014 2.58613E+01 2.34995E+01 4.51411E-01
 -1      8015 2.49962E+01 1.90000E+01-4.36310E-01
 -1      8017 2.49962E+01 1.90000E+01 4.36310E-01
 -1      8018 2.58615E+01 1.85013E+01-4.51415E-01
 -1      8020 2.58615E+01 1.85013E+01 4.51415E-01
 -1      8021 2.58615E+01 1.95013E+01-4.51415E-01
 -1      8023 2.58615E+01 1.95013E+01 4.51415E-01
 -1      8024 2.49962E+01 1.50000E+01-4.36310E-01
 -1      8026 2.49962E+01 1.50000E+01 4.36310E-01
 -1      8027 2.58594E+01 1.45071E+01-4.51377E-01
 -1      8029 2.58594E+01 1.45071E+01 4.51377E-01
 -1      8030 2.58594E+01 1.55071E+01-4.51377E-01
 -1      8032 2.58594E+01 1.55071E+01 4.51377E-01
 -1      8033 2.49962E+01 1.10000E+01-4.36310E-01
 -1      8035 2.49962E+01 1.10000E+01 4.36310E-01
 -1      8036 2.58639E+01 1.05183E+01-4.51457E-01
 -1      8038 2.58639E+01 1.05183E+01 4.51457E-01
 -1      8039 2.58639E+01 1.15183E+01-4.51457E-01
 -1      8041 2.58639E+01 1.15183E+01 4.51457E-01
 -1      8042 2.49962E+01 7.00000E+00-4.36310E-01
 -1      8044 2.49962E+01 7.00000E+00 4.36310E-01
 -1      8045 2.58815E+01 6.54417E+00-4.51763E-01
 -1      8047 2.58815E+01 6.54417E+00 4.51763E-01
 -1      8048 2.58815E+01 7.54417E+00-4.51763E-01
 -1      8050 2.58815E+01 7.54417E+00 4.51763E-01
 -1      8051 2.49962E+01 3.00000E+00-4.36310E-01
 -1      8053 2.49962E+01 3.00000E+00 4.36310E-01
 -1      8054 2.59123E+01 2.61281E+00-4.52301E-01
 -1      8056 2.59123E+01 2.61281E+00 4.52301E-01
 -1      8057 2.59123E+01 3.61281E+00-4.52301E-01
 -1      8059 2.59123E+01 3.61281E+00 4.52301E-01
 -1      8060 2.49962E+01 1.00000E+00-4.36310E-01
 -1      8062 2.49962E+01 1.00000E+00 4.36310E-01
 -1      8063 2.59660E+01 7.30981E-01-4.53237E-01
 -1      8065 2.59660E+01 7.30981E-01 4.53237E-01
 -1      8066 2.59660E+01 1.73098E+00-4.53237E-01
 -1      8068 2.59660E+01 1.73098E+00 4.53237E-01
 -1      8069 2.68821E+01 2.34380E+00-4.69228E-01
 -1      8071 2.68821E+01 2.34380E+00 4.69228E-01
 -1      8072 2.60085E+01 0.00000E+00-4.53981E-01
 -1      8074 2.60085E+01 0.00000E+00 4.53981E-01
 -1      8075 2.69783E+01 7.30981E-01-4.70908E-01
 -1      8077 2.69783E+01 7.30981E-01 4.70908E-01
 -1      8078 2.79957E+01 0.00000E+00-4.88667E-01
 -1      8080 2.79957E+01 0.00000E+00 4.88667E-01
 -1      8081 2.79531E+01 7.30981E-01-4.87924E-01
 -1      8083 2.79531E+01 7.30981E-01 4.87924E-01
 -1      8084 2.99454E+01 0.00000E+00-5.22700E-01
 -1      8086 2.99454E+01 0.00000E+00 5.22700E-01
 -1      8087 3.05538E+01 7.42270E-01-5.33319E-01
 -1      8089 3.05538E+01 7.42270E-01 5.33319E-01
 -1      8090 2.95790E+01 7.42270E-01-5.16303E-01
 -1      8092 2.95790E+01 7.42270E-01 5.16303E-01
 -1      8093 3.39198E+01 0.00000E+00-5.92073E-01
 -1      8095 3.39198E+01 0.00000E+00 5.92073E-01
 -1      8096 3.43961E+01 8.43862E-01-6.00386E-01
 -1      8098 3.43961E+01 8.43862E-01 6.00386E-01
 -1      8099 3.34213E+01 8.43862E-01-5.83370E-01
 -1      8101 3.34213E+01 8.43862E-01 5.83370E-01
 -1      8102 3.78567E+01 0.00000E+00-6.60792E-01
 -1      8104 3.78567E+01 0.00000E+00 6.60792E-01
 -1      8105 3.83519E+01 8.79458E-01-6.69436E-01
 -1      8107 3.83519E+01 8.79458E-01 6.69436E-01
 -1      8108 3.73396E+01 8.79458E-01-6.51765E-01
 -1      8110 3.73396E+01 8.79458E-01 6.51765E-01
 -1      8111 4.17936E+01 0.00000E+00-7.29511E-01
 -1      8113 4.17936E+01 0.00000E+00 7.29511E-01
 -1      8114 4.22845E+01 8.69579E-01-7.38079E-01
 -1      8116 4.22845E+01 8.69579E-01 7.38079E-01
 -1      8117 4.13096E+01 8.69579E-01-7.21062E-01
 -1      8119 4.13096E+01 8.69579E-01 7.21062E-01
 -1      8120 4.57680E+01 0.00000E+00-7.98884E-01
 -1      8122 4.57680E+01 0.00000E+00 7.98884E-01
 -1      8123 4.62528E+01 8.65008E-01-8.07345E-01
 -1      8125 4.62528E+01 8.65008E-01 8.07345E-01
 -1      8126 4.52779E+01 8.65008E-01-7.90329E-01
 -1      8128 4.52779E+01 8.65008E-01 7.90329E-01
 -1      8129 4.97049E+01 0.00000E+00-8.67603E-01
 -1      8131 4.97049E+01 0.00000E+00 8.67603E-01
 -1      8132 5.02121E+01 8.63945E-01-8.76456E-01
 -1      8134 5.02121E+01 8.63945E-01 8.76456E-01
 -1      8135 4.91998E+01 8.63945E-01-8.58785E-01
 -1      8137 4.91998E+01 8.63945E-01 8.58785E-01
 -1      8138 5.36418E+01 0.00000E+00-9.36322E-01
 -1      8140 5.36418E+01 0.00000E+00 9.36322E-01
 -1      8141 5.41337E+01 8.66389E-01-9.44908E-01
 -1      8143 5.41337E+01 8.66389E-01 9.44908E-01
 -1      8144 5.31589E+01 8.66389E-01-9.27892E-01
 -1      8146 5.31589E+01 8.66389E-01 9.27892E-01
 -1      8147 5.76162E+01 0.00000E+00-1.00569E+00
 -1      8149 5.76162E+01 0.00000E+00 1.00569E+00
 -1      8150 5.80965E+01 8.66657E-01-1.01408E+00
 -1      8152 5.80965E+01 8.66657E-01 1.01408E+00
 -1      8153 5.71216E+01 8.66657E-01-9.97061E-01
 -1      8155 5.71216E+01 8.66657E-01 9.97061E-01
 -1      8156 6.15156E+01 0.00000E+00-1.07376E+00
 -1      8158 6.15156E+01 0.00000E+00 1.07376E+00
 -1      8159 6.20104E+01 8.66796E-01-1.08240E+00
 -1      8161 6.20104E+01 8.66796E-01 1.08240E+00
 -1      8162 6.10355E+01 8.66796E-01-1.06538E+00
 -1      8164 6.10355E+01 8.66796E-01 1.06538E+00
 -1      8165 6.54900E+01 0.00000E+00-1.14313E+00
 -1      8167 6.54900E+01 0.00000E+00 1.14313E+00
 -1      8168 6.59733E+01 8.66771E-01-1.15157E+00
 -1      8170 6.59733E+01 8.66771E-01 1.15157E+00
 -1      8171 6.49985E+01 8.66771E-01-1.13455E+00
 -1      8173 6.49985E+01 8.66771E-01 1.13455E+00
 -1      8174 6.94269E+01 0.00000E+00-1.21185E+00
 -1      8176 6.94269E+01 0.00000E+00 1.21185E+00
 -1      8177 6.99336E+01 8.65046E-01-1.22070E+00
 -1      8179 6.99336E+01 8.65046E-01 1.22070E+00
 -1      8180 6.89212E+01 8.65046E-01-1.20302E+00
 -1      8182 6.89212E+01 8.65046E-01 1.20302E+00
 -1      8183 7.33638E+01 0.00000E+00-1.28057E+00
 -1      8185 7.33638E+01 0.00000E+00 1.28057E+00
 -1      8186 7.38578E+01 8.68425E-01-1.28919E+00
 -1      8188 7.38578E+01 8.68425E-01 1.28919E+00
 -1      8189 7.28830E+01 8.68425E-01-1.27218E+00
 -1      8191 7.28830E+01 8.68425E-01 1.27218E+00
 -1      8192 7.73382E+01 0.00000E+00-1.34994E+00
 -1      8194 7.73382E+01 0.00000E+00 1.34994E+00
 -1      8195 7.78260E+01 8.72783E-01-1.35846E+00
 -1      8197 7.78260E+01 8.72783E-01 1.35846E+00
 -1      8198 7.68512E+01 8.72783E-01-1.34144E+00
 -1      8200 7.68512E+01 8.72783E-01 1.34144E+00
 -1      8201 8.12751E+01 0.00000E+00-1.41866E+00
 -1      8203 8.12751E+01 0.00000E+00 1.41866E+00
 -1      8204 8.17909E+01 8.76722E-01-1.42767E+00
 -1      8206 8.17909E+01 8.76722E-01 1.42767E+00
 -1      8207 8.07786E+01 8.76722E-01-1.41000E+00
 -1      8209 8.07786E+01 8.76722E-01 1.41000E+00
 -1      8210 8.52120E+01 0.00000E+00-1.48738E+00
 -1      8212 8.52120E+01 0.00000E+00 1.48738E+00
 -1      8213 8.57134E+01 8.75783E-01-1.49613E+00
 -1      8215 8.57134E+01 8.75783E-01 1.49613E+00
 -1      8216 8.47386E+01 8.75783E-01-1.47912E+00
 -1      8218 8.47386E+01 8.75783E-01 1.47912E+00
 -1      8219 8.91864E+01 0.00000E+00-1.55675E+00
 -1      8221 8.91864E+01 0.00000E+00 1.55675E+00
 -1      8222 8.96554E+01 8.32747E-01-1.56494E+00
 -1      8224 8.96554E+01 8.32747E-01 1.56494E+00
 -1      8225 8.86806E+01 8.32747E-01-1.54793E+00
 -1      8227 8.86806E+01 8.32747E-01 1.54793E+00
 -1      8228 9.31233E+01 0.00000E+00-1.62547E+00
 -1      8230 9.31233E+01 0.00000E+00 1.62547E+00
 -1      8231 9.36209E+01 8.58659E-01-1.63416E+00
 -1      8233 9.36209E+01 8.58659E-01 1.63416E+00
 -1      8234 9.26085E+01 8.58659E-01-1.61649E+00
 -1      8236 9.26085E+01 8.58659E-01 1.61649E+00
 -1      8237 9.70602E+01 0.00000E+00-1.69419E+00
 -1      8239 9.70602E+01 0.00000E+00 1.69419E+00
 -1      8240 9.76423E+01 8.91509E-01-1.70435E+00
 -1      8242 9.76423E+01 8.91509E-01 1.70435E+00
 -1      8243 9.66675E+01 8.91509E-01-1.68734E+00
 -1      8245 9.66675E+01 8.91509E-01 1.68734E+00
 -1      8246 9.90099E+01 0.00000E+00-1.72822E+00
 -1      8248 9.90099E+01 0.00000E+00 1.72822E+00
 -1      8249 9.99848E+01 1.00000E+00-1.74524E+00
 -1      8251 9.99848E+01 1.00000E+00 1.74524E+00
 -1      8252 9.90099E+01 1.00000E+00-1.72822E+00
 -1      8254 9.90099E+01 1.00000E+00 1.72822E+00
 -1      8255 9.99848E+01 3.00000E+00-1.74524E+00
 -1      8257 9.99848E+01 3.00000E+00 1.74524E+00
 -1      8258 9.91359E+01 3.66066E+00-1.73042E+00
 -1      8260 9.91359E+01 3.66066E+00 1.73042E+00
 -1      8261 9.91359E+01 2.66066E+00-1.73042E+00
 -1      8263 9.91359E+01 2.66066E+00 1.73042E+00
 -1      8264 9.99848E+01 7.00000E+00-1.74524E+00
 -1      8266 9.99848E+01 7.00000E+00 1.74524E+00
 -1      8267 9.91014E+01 7.54656E+00-1.72982E+00
 -1      8269 9.91014E+01 7.54656E+00 1.72982E+00
 -1      8270 9.91014E+01 6.54656E+00-1.72982E+00
 -1      8272 9.91014E+01 6.54656E+00 1.72982E+00
 -1      8273 9.99848E+01 1.10000E+01-1.74524E+00
 -1      8275 9.99848E+01 1.10000E+01 1.74524E+00
 -1      8276 9.91262E+01 1.15379E+01-1.73025E+00
 -1      8278 9.91262E+01 1.15379E+01 1.73025E+00
 -1      8279 9.91262E+01 1.05379E+01-1.73025E+00
 -1      8281 9.91262E+01 1.05379E+01 1.73025E+00
 -1      8282 9.99848E+01 1.50000E+01-1.74524E+00
 -1      8284 9.99848E+01 1.50000E+01 1.74524E+00
 -1      8285 9.91176E+01 1.55152E+01-1.73010E+00
 -1      8287 9.91176E+01 1.55152E+01 1.73010E+00
 -1      8288 9.91176E+01 1.45152E+01-1.73010E+00
 -1      8290 9.91176E+01 1.45152E+01 1.73010E+00
 -1      8291 9.99848E+01 1.90000E+01-1.74524E+00
 -1      8293 9.99848E+01 1.90000E+01 1.74524E+00
 -1      8294 9.91138E+01 1.95018E+01-1.73004E+00
 -1      8296 9.91138E+01 1.95018E+01 1.73004E+00
 -1      8297 9.91138E+01 1.85018E+01-1.73004E+00
 -1      8299 9.91138E+01 1.85018E+01 1.73004E+00
 -1      8300 9.99848E+01 2.30000E+01-1.74524E+00
 -1      8302 9.99848E+01 2.30000E+01 1.74524E+00
 -1      8303 9.91151E+01 2.34987E+01-1.73006E+00
 -1      8305 9.91151E+01 2.34987E+01 1.73006E+00
 -1      8306 9.91151E+01 2.24987E+01-1.73006E+00
 -1      8308 9.91151E+01 2.24987E+01 1.73006E+00
 -1      8309 9.99848E+01 2.70000E+01-1.74524E+00
 -1      8311 9.99848E+01 2.70000E+01 1.74524E+00
 -1      8312 9.91163E+01 2.74994E+01-1.73008E+00
 -1      8314 9.91163E+01 2.74994E+01 1.73008E+00
 -1      8315 9.91163E+01 2.64994E+01-1.73008E+00
 -1      8317 9.91163E+01 2.64994E+01 1.73008E+00
 -1      8318 9.99848E+01 3.10000E+01-1.74524E+00
 -1      8320 9.99848E+01 3.10000E+01 1.74524E+00
 -1      8321 9.91171E+01 3.14986E+01-1.73010E+00
 -1      8323 9.91171E+01 3.14986E+01 1.73010E+00
 -1      8324 9.91171E+01 3.04986E+01-1.73010E+00
 -1      8326 9.91171E+01 3.04986E+01 1.73010E+00
 -1      8327 9.99848E+01 3.50000E+01-1.74524E+00
 -1      8329 9.99848E+01 3.50000E+01 1.74524E+00
 -1      8330 9.91217E+01 3.54973E+01-1.73018E+00
 -1      8332 9.91217E+01 3.54973E+01 1.73018E+00
 -1      8333 9.91217E+01 3.44973E+01-1.73018E+00
 -1      8335 9.91217E+01 3.44973E+01 1.73018E+00
 -1      8336 9.99848E+01 3.90000E+01-1.74524E+00
 -1      8338 9.99848E+01 3.90000E+01 1.74524E+00
 -1      8339 9.91222E+01 3.95072E+01-1.73019E+00
 -1      8341 9.91222E+01 3.95072E+01 1.73019E+00
 -1      8342 9.91222E+01 3.85072E+01-1.73019E+00
 -1      8344 9.91222E+01 3.85072E+01 1.73019E+00
 -1      8345 9.99848E+01 4.30000E+01-1.74524E+00
 -1      8347 9.99848E+01 4.30000E+01 1.74524E+00
 -1      8348 9.90949E+01 4.35418E+01-1.72971E+00
 -1      8350 9.90949E+01 4.35418E+01 1.72971E+00
 -1      8351 9.90949E+01 4.25418E+01-1.72971E+00
 -1      8353 9.90949E+01 4.25418E+01 1.72971E+00
 -1      8354 9.99848E+01 4.70000E+01-1.74524E+00
 -1      8356 9.99848E+01 4.70000E+01 1.74524E+00
 -1      8357 9.91873E+01 4.75004E+01-1.73132E+00
 -1      8359 9.91873E+01 4.75004E+01 1.73132E+00
 -1      8360 9.91873E+01 4.65004E+01-1.73132E+00
 -1      8362 9.91873E+01 4.65004E+01 1.73132E+00
 -1      8363 9.99848E+01 4.90000E+01-1.74524E+00
 -1      8365 9.99848E+01 4.90000E+01 1.74524E+00
 -1      8366 9.93325E+01 4.93315E+01-1.73386E+00
 -1      8368 9.93325E+01 4.93315E+01 1.73386E+00
 -1      8369 9.93325E+01 4.83315E+01-1.73386E+00
 -1      8371 9.93325E+01 4.83315E+01 1.73386E+00
 -1      8372 9.85350E+01 4.78319E+01-1.71994E+00
 -1      8374 9.85350E+01 4.78319E+01 1.71994E+00
 -1      8375 9.90099E+01 5.00000E+01-1.72822E+00
 -1      8377 9.90099E+01 5.00000E+01 1.72822E+00
 -1      8378 9.83577E+01 4.93315E+01-1.71684E+00
 -1      8380 9.83577E+01 4.93315E+01 1.71684E+00
 -1      8381 2.79957E+01 5.00000E+01-4.88667E-01
 -1      8383 2.79957E+01 5.00000E+01 4.88667E-01
 -1      8384 2.75933E+01 4.91877E+01-4.81642E-01
 -1      8386 2.75933E+01 4.91877E+01 4.81642E-01
 -1      8387 2.85681E+01 4.91877E+01-4.98659E-01
 -1      8389 2.85681E+01 4.91877E+01 4.98659E-01
 -1      8390 2.99454E+01 5.00000E+01-5.22700E-01
 -1      8392 2.99454E+01 5.00000E+01 5.22700E-01
 -1      8393 2.94220E+01 4.90559E+01-5.13563E-01
 -1      8395 2.94220E+01 4.90559E+01 5.13563E-01
 -1      8396 3.03968E+01 4.90559E+01-5.30579E-01
 -1      8398 3.03968E+01 4.90559E+01 5.30579E-01
 -1      8399 2.90195E+01 4.82436E+01-5.06538E-01
 -1      8401 2.90195E+01 4.82436E+01 5.06538E-01
 -1      8402 3.19326E+01 5.00000E+01-5.57386E-01
 -1      8404 3.19326E+01 5.00000E+01 5.57386E-01
 -1      8405 3.13538E+01 4.90310E+01-5.47283E-01
 -1      8407 3.13538E+01 4.90310E+01 5.47283E-01
 -1      8408 3.23662E+01 4.90310E+01-5.64953E-01
 -1      8410 3.23662E+01 4.90310E+01 5.64953E-01
 -1      8411 3.08304E+01 4.80869E+01-5.38146E-01
 -1      8413 3.08304E+01 4.80869E+01 5.38146E-01
 -1      8414 3.39198E+01 5.00000E+01-5.92073E-01
 -1      8416 3.39198E+01 5.00000E+01 5.92073E-01
 -1      8417 3.33662E+01 4.90610E+01-5.82409E-01
 -1      8419 3.33662E+01 4.90610E+01 5.82409E-01
 -1      8420 3.43410E+01 4.90610E+01-5.99425E-01
 -1      8422 3.43410E+01 4.90610E+01 5.99425E-01
 -1      8423 3.27874E+01 4.80920E+01-5.72306E-01
 -1      8425 3.27874E+01 4.80920E+01 5.72306E-01
 -1      8426 3.58695E+01 5.00000E+01-6.26105E-01
 -1      8428 3.58695E+01 5.00000E+01 6.26105E-01
 -1      8429 3.53313E+01 4.90747E+01-6.16710E-01
 -1      8431 3.53313E+01 4.90747E+01 6.16710E-01
 -1      8432 3.63061E+01 4.90747E+01-6.33726E-01
 -1      8434 3.63061E+01 4.90747E+01 6.33726E-01
 -1      8435 3.47776E+01 4.81357E+01-6.07046E-01
 -1      8437 3.47776E+01 4.81357E+01 6.07046E-01
 -1      8438 3.78567E+01 5.00000E+01-6.60792E-01
 -1      8440 3.78567E+01 5.00000E+01 6.60792E-01
 -1      8441 3.72978E+01 4.90850E+01-6.51035E-01
 -1      8443 3.72978E+01 4.90850E+01 6.51035E-01
 -1      8444 3.83101E+01 4.90850E+01-6.68706E-01
 -1      8446 3.83101E+01 4.90850E+01 6.68706E-01
 -1      8447 3.67595E+01 4.81597E+01-6.41640E-01
 -1      8449 3.67595E+01 4.81597E+01 6.41640E-01
 -1      8450 3.98439E+01 5.00000E+01-6.95478E-01
 -1      8452 3.98439E+01 5.00000E+01 6.95478E-01
 -1      8453 3.93016E+01 4.90884E+01-6.86011E-01
 -1      8455 3.93016E+01 4.90884E+01 6.86011E-01
 -1      8456 4.02764E+01 4.90884E+01-7.03027E-01
 -1      8458 4.02764E+01 4.90884E+01 7.03027E-01
 -1      8459 3.87426E+01 4.81734E+01-6.76255E-01
 -1      8461 3.87426E+01 4.81734E+01 6.76255E-01
 -1      8462 4.17936E+01 5.00000E+01-7.29511E-01
 -1      8464 4.17936E+01 5.00000E+01 7.29511E-01
 -1      8465 4.12630E+01 4.90919E+01-7.20249E-01
 -1      8467 4.12630E+01 4.90919E+01 7.20249E-01
 -1      8468 4.22379E+01 4.90919E+01-7.37265E-01
 -1      8470 4.22379E+01 4.90919E+01 7.37265E-01
 -1      8471 4.07206E+01 4.81803E+01-7.10782E-01
 -1      8473 4.07206E+01 4.81803E+01 7.10782E-01
 -1      8474 4.37808E+01 5.00000E+01-7.64197E-01
 -1      8476 4.37808E+01 5.00000E+01 7.64197E-01
 -1      8477 4.32277E+01 4.90958E+01-7.54542E-01
 -1      8479 4.32277E+01 4.90958E+01 7.54542E-01
 -1      8480 4.42400E+01 4.90958E+01-7.72212E-01
 -1      8482 4.42400E+01 4.90958E+01 7.72212E-01
 -1      8483 4.26970E+01 4.81877E+01-7.45280E-01
 -1      8485 4.26970E+01 4.81877E+01 7.45280E-01
 -1      8486 4.57680E+01 5.00000E+01-7.98884E-01
 -1      8488 4.57680E+01 5.00000E+01 7.98884E-01
 -1      8489 4.52298E+01 4.90946E+01-7.89489E-01
 -1      8491 4.52298E+01 4.90946E+01 7.89489E-01
 -1      8492 4.62047E+01 4.90946E+01-8.06505E-01
 -1      8494 4.62047E+01 4.90946E+01 8.06505E-01
 -1      8495 4.46766E+01 4.81903E+01-7.79833E-01
 -1      8497 4.46766E+01 4.81903E+01 7.79833E-01
 -1      8498 4.77177E+01 5.00000E+01-8.32916E-01
 -1      8500 4.77177E+01 5.00000E+01 8.32916E-01
 -1      8501 4.71896E+01 4.90945E+01-8.23698E-01
 -1      8503 4.71896E+01 4.90945E+01 8.23698E-01
 -1      8504 4.81645E+01 4.90945E+01-8.40714E-01
 -1      8506 4.81645E+01 4.90945E+01 8.40714E-01
 -1      8507 4.66514E+01 4.81891E+01-8.14303E-01
 -1      8509 4.66514E+01 4.81891E+01 8.14303E-01
 -1      8510 4.97049E+01 5.00000E+01-8.67603E-01
 -1      8512 4.97049E+01 5.00000E+01 8.67603E-01
 -1      8513 4.91527E+01 4.90961E+01-8.57964E-01
 -1      8515 4.91527E+01 4.90961E+01 8.57964E-01
 -1      8516 5.01651E+01 4.90961E+01-8.75634E-01
 -1      8518 5.01651E+01 4.90961E+01 8.75634E-01
 -1      8519 4.86246E+01 4.81906E+01-8.48745E-01
 -1      8521 4.86246E+01 4.81906E+01 8.48745E-01
 -1      8522 5.16921E+01 5.00000E+01-9.02289E-01
 -1      8524 5.16921E+01 5.00000E+01 9.02289E-01
 -1      8525 5.11536E+01 4.90937E+01-8.92889E-01
 -1      8527 5.11536E+01 4.90937E+01 8.92889E-01
 -1      8528 5.21284E+01 4.90937E+01-9.09905E-01
 -1      8530 5.21284E+01 4.90937E+01 9.09905E-01
 -1      8531 5.06014E+01 4.81897E+01-8.83250E-01
 -1      8533 5.06014E+01 4.81897E+01 8.83250E-01
 -1      8534 5.36418E+01 5.00000E+01-9.36322E-01
 -1      8536 5.36418E+01 5.00000E+01 9.36322E-01
 -1      8537 5.31125E+01 4.90933E+01-9.27082E-01
 -1      8539 5.31125E+01 4.90933E+01 9.27082E-01
 -1      8540 5.40873E+01 4.90933E+01-9.44098E-01
 -1      8542 5.40873E+01 4.90933E+01 9.44098E-01
 -1      8543 5.25739E+01 4.81870E+01-9.17682E-01
 -1      8545 5.25739E+01 4.81870E+01 9.17682E-01
 -1      8546 5.56290E+01 5.00000E+01-9.71008E-01
 -1      8548 5.56290E+01 5.00000E+01 9.71008E-01
 -1      8549 5.50749E+01 4.90950E+01-9.61336E-01
 -1      8551 5.50749E+01 4.90950E+01 9.61336E-01
 -1      8552 5.60873E+01 4.90950E+01-9.79007E-01
 -1      8554 5.60873E+01 4.90950E+01 9.79007E-01
 -1      8555 5.45456E+01 4.81883E+01-9.52097E-01
 -1      8557 5.45456E+01 4.81883E+01 9.52097E-01
 -1      8558 5.76162E+01 5.00000E+01-1.00569E+00
 -1      8560 5.76162E+01 5.00000E+01 1.00569E+00
 -1      8561 5.70750E+01 4.90929E+01-9.96248E-01
 -1      8563 5.70750E+01 4.90929E+01 9.96248E-01
 -1      8564 5.80498E+01 4.90929E+01-1.01326E+00
 -1      8566 5.80498E+01 4.90929E+01 1.01326E+00
 -1      8567 5.65209E+01 4.81879E+01-9.86576E-01
 -1      8569 5.65209E+01 4.81879E+01 9.86576E-01
 -1      8570 5.95659E+01 5.00000E+01-1.03973E+00
 -1      8572 5.95659E+01 5.00000E+01 1.03973E+00
 -1      8573 5.90321E+01 4.90925E+01-1.03041E+00
 -1      8575 5.90321E+01 4.90925E+01 1.03041E+00
 -1      8576 6.00070E+01 4.90925E+01-1.04743E+00
 -1      8578 6.00070E+01 4.90925E+01 1.04743E+00
 -1      8579 5.84909E+01 4.81854E+01-1.02096E+00
 -1      8581 5.84909E+01 4.81854E+01 1.02096E+00
 -1      8582 6.15156E+01 5.00000E+01-1.07376E+00
 -1      8584 6.15156E+01 5.00000E+01 1.07376E+00
 -1      8585 6.09892E+01 4.90928E+01-1.06457E+00
 -1      8587 6.09892E+01 4.90928E+01 1.06457E+00
 -1      8588 6.19641E+01 4.90928E+01-1.08159E+00
 -1      8590 6.19641E+01 4.90928E+01 1.08159E+00
 -1      8591 6.04554E+01 4.81853E+01-1.05525E+00
 -1      8593 6.04554E+01 4.81853E+01 1.05525E+00
 -1      8594 6.35028E+01 5.00000E+01-1.10845E+00
 -1      8596 6.35028E+01 5.00000E+01 1.10845E+00
 -1      8597 6.29514E+01 4.90949E+01-1.09882E+00
 -1      8599 6.29514E+01 4.90949E+01 1.09882E+00
 -1      8600 6.39637E+01 4.90949E+01-1.11649E+00
 -1      8602 6.39637E+01 4.90949E+01 1.11649E+00
 -1      8603 6.24249E+01 4.81877E+01-1.08963E+00
 -1      8605 6.24249E+01 4.81877E+01 1.08963E+00
 -1      8606 6.54900E+01 5.00000E+01-1.14313E+00
 -1      8608 6.54900E+01 5.00000E+01 1.14313E+00
 -1      8609 6.49521E+01 4.90930E+01-1.13374E+00
 -1      8611 6.49521E+01 4.90930E+01 1.13374E+00
 -1      8612 6.59270E+01 4.90930E+01-1.15076E+00
 -1      8614 6.59270E+01 4.90930E+01 1.15076E+00
 -1      8615 6.44006E+01 4.81879E+01-1.12412E+00
 -1      8617 6.44006E+01 4.81879E+01 1.12412E+00
 -1      8618 6.74397E+01 5.00000E+01-1.17716E+00
 -1      8620 6.74397E+01 5.00000E+01 1.17716E+00
 -1      8621 6.69113E+01 4.90931E+01-1.16794E+00
 -1      8623 6.69113E+01 4.90931E+01 1.16794E+00
 -1      8624 6.78862E+01 4.90931E+01-1.18496E+00
 -1      8626 6.78862E+01 4.90931E+01 1.18496E+00
 -1      8627 6.63734E+01 4.81861E+01-1.15855E+00
 -1      8629 6.63734E+01 4.81861E+01 1.15855E+00
 -1      8630 6.94269E+01 5.00000E+01-1.21185E+00
 -1      8632 6.94269E+01 5.00000E+01 1.21185E+00
 -1      8633 6.88743E+01 4.90952E+01-1.20221E+00
 -1      8635 6.88743E+01 4.90952E+01 1.20221E+00
 -1      8636 6.98866E+01 4.90952E+01-1.21988E+00
 -1      8638 6.98866E+01 4.90952E+01 1.21988E+00
 -1      8639 6.83459E+01 4.81883E+01-1.19298E+00
 -1      8641 6.83459E+01 4.81883E+01 1.19298E+00
 -1      8642 7.14141E+01 5.00000E+01-1.24654E+00
 -1      8644 7.14141E+01 5.00000E+01 1.24654E+00
 -1      8645 7.08752E+01 4.90935E+01-1.23713E+00
 -1      8647 7.08752E+01 4.90935E+01 1.23713E+00
 -1      8648 7.18501E+01 4.90935E+01-1.25415E+00
 -1      8650 7.18501E+01 4.90935E+01 1.25415E+00
 -1      8651 7.03226E+01 4.81887E+01-1.22749E+00
 -1      8653 7.03226E+01 4.81887E+01 1.22749E+00
 -1      8654 7.33638E+01 5.00000E+01-1.28057E+00
 -1      8656 7.33638E+01 5.00000E+01 1.28057E+00
 -1      8657 7.28341E+01 4.90937E+01-1.27132E+00
 -1      8659 7.28341E+01 4.90937E+01 1.27132E+00
 -1      8660 7.38089E+01 4.90937E+01-1.28834E+00
 -1      8662 7.38089E+01 4.90937E+01 1.28834E+00
 -1      8663 7.22952E+01 4.81872E+01-1.26192E+00
 -1      8665 7.22952E+01 4.81872E+01 1.26192E+00
 -1      8666 7.53510E+01 5.00000E+01-1.31526E+00
 -1      8668 7.53510E+01 5.00000E+01 1.31526E+00
 -1      8669 7.47963E+01 4.90960E+01-1.30557E+00
 -1      8671 7.47963E+01 4.90960E+01 1.30557E+00
 -1      8672 7.58086E+01 4.90960E+01-1.32324E+00
 -1      8674 7.58086E+01 4.90960E+01 1.32324E+00
 -1      8675 7.42666E+01 4.81897E+01-1.29633E+00
 -1      8677 7.42666E+01 4.81897E+01 1.29633E+00
 -1      8678 7.73382E+01 5.00000E+01-1.34994E+00
 -1      8680 7.73382E+01 5.00000E+01 1.34994E+00
 -1      8681 7.67961E+01 4.90944E+01-1.34048E+00
 -1      8683 7.67961E+01 4.90944E+01 1.34048E+00
 -1      8684 7.77709E+01 4.90944E+01-1.35750E+00
 -1      8686 7.77709E+01 4.90944E+01 1.35750E+00
 -1      8687 7.62414E+01 4.81904E+01-1.33080E+00
 -1      8689 7.62414E+01 4.81904E+01 1.33080E+00
 -1      8690 7.92879E+01 5.00000E+01-1.38398E+00
 -1      8692 7.92879E+01 5.00000E+01 1.38398E+00
 -1      8693 7.87536E+01 4.90946E+01-1.37465E+00
 -1      8695 7.87536E+01 4.90946E+01 1.37465E+00
 -1      8696 7.97284E+01 4.90946E+01-1.39166E+00
 -1      8698 7.97284E+01 4.90946E+01 1.39166E+00
 -1      8699 7.82114E+01 4.81890E+01-1.36519E+00
 -1      8701 7.82114E+01 4.81890E+01 1.36519E+00
 -1      8702 8.12751E+01 5.00000E+01-1.41866E+00
 -1      8704 8.12751E+01 5.00000E+01 1.41866E+00
 -1      8705 8.07143E+01 4.90962E+01-1.40887E+00
 -1      8707 8.07143E+01 4.90962E+01 1.40887E+00
 -1      8708 8.17267E+01 4.90962E+01-1.42654E+00
 -1      8710 8.17267E+01 4.90962E+01 1.42654E+00
 -1      8711 8.01800E+01 4.81908E+01-1.39955E+00
 -1      8713 8.01800E+01 4.81908E+01 1.39955E+00
 -1      8714 8.32623E+01 5.00000E+01-1.45335E+00
 -1      8716 8.32623E+01 5.00000E+01 1.45335E+00
 -1      8717 8.27133E+01 4.90924E+01-1.44377E+00
 -1      8719 8.27133E+01 4.90924E+01 1.44377E+00
 -1      8720 8.36882E+01 4.90924E+01-1.46078E+00
 -1      8722 8.36882E+01 4.90924E+01 1.46078E+00
 -1      8723 8.21525E+01 4.81886E+01-1.43398E+00
 -1      8725 8.21525E+01 4.81886E+01 1.43398E+00
 -1      8726 8.52120E+01 5.00000E+01-1.48738E+00
 -1      8728 8.52120E+01 5.00000E+01 1.48738E+00
 -1      8729 8.46715E+01 4.90876E+01-1.47795E+00
 -1      8731 8.46715E+01 4.90876E+01 1.47795E+00
 -1      8732 8.56463E+01 4.90876E+01-1.49496E+00
 -1      8734 8.56463E+01 4.90876E+01 1.49496E+00
 -1      8735 8.41225E+01 4.81800E+01-1.46836E+00
 -1      8737 8.41225E+01 4.81800E+01 1.46836E+00
 -1      8738 8.71992E+01 5.00000E+01-1.52207E+00
 -1      8740 8.71992E+01 5.00000E+01 1.52207E+00
 -1      8741 8.66363E+01 4.90797E+01-1.51224E+00
 -1      8743 8.66363E+01 4.90797E+01 1.51224E+00
 -1      8744 8.76486E+01 4.90797E+01-1.52991E+00
 -1      8746 8.76486E+01 4.90797E+01 1.52991E+00
 -1      8747 8.60957E+01 4.81673E+01-1.50281E+00
 -1      8749 8.60957E+01 4.81673E+01 1.50281E+00
 -1      8750 8.91864E+01 5.00000E+01-1.55675E+00
 -1      8752 8.91864E+01 5.00000E+01 1.55675E+00
 -1      8753 8.86462E+01 4.90585E+01-1.54733E+00
 -1      8755 8.86462E+01 4.90585E+01 1.54733E+00
 -1      8756 8.96211E+01 4.90585E+01-1.56434E+00
 -1      8758 8.96211E+01 4.90585E+01 1.56434E+00
 -1      8759 8.80833E+01 4.81382E+01-1.53750E+00
 -1      8761 8.80833E+01 4.81382E+01 1.53750E+00
 -1      8762 9.11361E+01 5.00000E+01-1.59079E+00
 -1      8764 9.11361E+01 5.00000E+01 1.59079E+00
 -1      8765 9.06276E+01 4.90232E+01-1.58191E+00
 -1      8767 9.06276E+01 4.90232E+01 1.58191E+00
 -1      8768 9.16025E+01 4.90232E+01-1.59893E+00
 -1      8770 9.16025E+01 4.90232E+01 1.59893E+00
 -1      8771 9.00874E+01 4.80817E+01-1.57248E+00
 -1      8773 9.00874E+01 4.80817E+01 1.57248E+00
 -1      8774 9.31233E+01 5.00000E+01-1.62547E+00
 -1      8776 9.31233E+01 5.00000E+01 1.62547E+00
 -1      8777 9.26289E+01 4.89784E+01-1.61684E+00
 -1      8779 9.26289E+01 4.89784E+01 1.61684E+00
 -1      8780 9.36413E+01 4.89784E+01-1.63451E+00
 -1      8782 9.36413E+01 4.89784E+01 1.63451E+00
 -1      8783 9.21204E+01 4.80016E+01-1.60797E+00
 -1      8785 9.21204E+01 4.80016E+01 1.60797E+00
 -1      8786 9.51105E+01 5.00000E+01-1.66016E+00
 -1      8788 9.51105E+01 5.00000E+01 1.66016E+00
 -1      8789 9.46485E+01 4.90190E+01-1.65209E+00
 -1      8791 9.46485E+01 4.90190E+01 1.65209E+00
 -1      8792 9.56233E+01 4.90190E+01-1.66911E+00
 -1      8794 9.56233E+01 4.90190E+01 1.66911E+00
 -1      8795 9.41541E+01 4.79974E+01-1.64347E+00
 -1      8797 9.41541E+01 4.79974E+01 1.64347E+00
 -1      8798 9.70602E+01 5.00000E+01-1.69419E+00
 -1      8800 9.70602E+01 5.00000E+01 1.69419E+00
 -1      8801 9.65676E+01 4.91674E+01-1.68559E+00
 -1      8803 9.65676E+01 4.91674E+01 1.68559E+00
 -1      8804 9.75424E+01 4.91674E+01-1.70261E+00
 -1      8806 9.75424E+01 4.91674E+01 1.70261E+00
 -1      8807 9.78650E+01 4.84989E+01-1.70824E+00
 -1      8809 9.78650E+01 4.84989E+01 1.70824E+00
 -1      8810 9.61055E+01 4.81864E+01-1.67753E+00
 -1      8812 9.61055E+01 4.81864E+01 1.67753E+00
 -1      8813 2.49962E+01 4.50000E+01-4.36310E-01
 -1      8815 2.49962E+01 4.50000E+01 4.36310E-01
 -1      8816 2.58766E+01 4.46058E+01-4.51677E-01
 -1      8818 2.58766E+01 4.46058E+01 4.51677E-01
 -1      8819 2.58766E+01 4.56058E+01-4.51677E-01
 -1      8821 2.58766E+01 4.56058E+01 4.51677E-01
 -1      8822 2.49962E+01 4.10000E+01-4.36310E-01
 -1      8824 2.49962E+01 4.10000E+01 4.36310E-01
 -1      8825 2.58929E+01 4.05425E+01-4.51962E-01
 -1      8827 2.58929E+01 4.05425E+01 4.51962E-01
 -1      8828 2.58929E+01 4.15425E+01-4.51962E-01
 -1      8830 2.58929E+01 4.15425E+01 4.51962E-01
 -1      8831 2.49962E+01 3.70000E+01-4.36310E-01
 -1      8833 2.49962E+01 3.70000E+01 4.36310E-01
 -1      8834 2.58843E+01 3.65110E+01-4.51811E-01
 -1      8836 2.58843E+01 3.65110E+01 4.51811E-01
 -1      8837 2.58843E+01 3.75110E+01-4.51811E-01
 -1      8839 2.58843E+01 3.75110E+01 4.51811E-01
 -1      8840 2.49962E+01 3.30000E+01-4.36310E-01
 -1      8842 2.49962E+01 3.30000E+01 4.36310E-01
 -1      8843 2.58692E+01 3.25002E+01-4.51549E-01
 -1      8845 2.58692E+01 3.25002E+01 4.51549E-01
 -1      8846 2.58692E+01 3.35002E+01-4.51549E-01
 -1      8848 2.58692E+01 3.35002E+01 4.51549E-01
 -1      8849 2.49962E+01 2.90000E+01-4.36310E-01
 -1      8851 2.49962E+01 2.90000E+01 4.36310E-01
 -1      8852 2.58619E+01 2.84980E+01-4.51420E-01
 -1      8854 2.58619E+01 2.84980E+01 4.51420E-01
 -1      8855 2.58619E+01 2.94980E+01-4.51420E-01
 -1      8857 2.58619E+01 2.94980E+01 4.51420E-01
 -1      8858 2.49962E+01 2.50000E+01-4.36310E-01
 -1      8860 2.49962E+01 2.50000E+01 4.36310E-01
 -1      8861 2.58611E+01 2.44989E+01-4.51407E-01
 -1      8863 2.58611E+01 2.44989E+01 4.51407E-01
 -1      8864 2.58611E+01 2.54989E+01-4.51407E-01
 -1      8866 2.58611E+01 2.54989E+01 4.51407E-01
 -1      8867 2.49962E+01 2.10000E+01-4.36310E-01
 -1      8869 2.49962E+01 2.10000E+01 4.36310E-01
 -1      8870 2.58617E+01 2.05002E+01-4.51417E-01
 -1      8872 2.58617E+01 2.05002E+01 4.51417E-01
 -1      8873 2.58617E+01 2.15002E+01-4.51417E-01
 -1      8875 2.58617E+01 2.15002E+01 4.51417E-01
 -1      8876 2.49962E+01 1.70000E+01-4.36310E-01
 -1      8878 2.49962E+01 1.70000E+01 4.36310E-01
 -1      8879 2.58606E+01 1.65038E+01-4.51399E-01
 -1      8881 2.58606E+01 1.65038E+01 4.51399E-01
 -1      8882 2.58606E+01 1.75038E+01-4.51399E-01
 -1      8884 2.58606E+01 1.75038E+01 4.51399E-01
 -1      8885 2.49962E+01 1.30000E+01-4.36310E-01
 -1      8887 2.49962E+01 1.30000E+01 4.36310E-01
 -1      8888 2.58595E+01 1.25122E+01-4.51379E-01
 -1      8890 2.58595E+01 1.25122E+01 4.51379E-01
 -1      8891 2.58595E+01 1.35122E+01-4.51379E-01
 -1      8893 2.58595E+01 1.35122E+01 4.51379E-01
 -1      8894 2.49962E+01 9.00000E+00-4.36310E-01
 -1      8896 2.49962E+01 9.00000E+00 4.36310E-01
 -1      8897 2.58723E+01 8.52948E+00-4.51602E-01
 -1      8899 2.58723E+01 8.52948E+00 4.51602E-01
 -1      8900 2.58723E+01 9.52948E+00-4.51602E-01
 -1      8902 2.58723E+01 9.52948E+00 4.51602E-01
 -1      8903 2.49962E+01 5.00000E+00-4.36310E-01
 -1      8905 2.49962E+01 5.00000E+00 4.36310E-01
 -1      8906 2.58958E+01 4.56560E+00-4.52013E-01
 -1      8908 2.58958E+01 4.56560E+00 4.52013E-01
 -1      8909 2.58958E+01 5.56560E+00-4.52013E-01
 -1      8911 2.58958E+01 5.56560E+00 4.52013E-01
 -1      8912 3.93456E+01 8.76163E-01-6.86779E-01
 -1      8914 3.93456E+01 8.76163E-01 6.86779E-01
 -1      8915 3.88284E+01 1.75562E+00-6.77753E-01
 -1      8917 3.88284E+01 1.75562E+00 6.77753E-01
 -1      8918 3.98439E+01 0.00000E+00-6.95478E-01
 -1      8920 3.98439E+01 0.00000E+00 6.95478E-01
 -1      8921 4.03204E+01 8.76163E-01-7.03795E-01
 -1      8923 4.03204E+01 8.76163E-01 7.03795E-01
 -1      8924 2.88062E+01 1.15628E+00-5.02814E-01
 -1      8926 2.88062E+01 1.15628E+00 5.02814E-01
 -1      8927 2.77888E+01 1.88726E+00-4.85055E-01
 -1      8929 2.77888E+01 1.88726E+00 4.85055E-01
 -1      8930 2.77351E+01 2.76910E+00-4.84118E-01
 -1      8932 2.77351E+01 2.76910E+00 4.84118E-01
 -1      8933 2.94146E+01 1.89855E+00-5.13434E-01
 -1      8935 2.94146E+01 1.89855E+00 5.13434E-01
 -1      8936 3.19326E+01 0.00000E+00-5.57386E-01
 -1      8938 3.19326E+01 0.00000E+00 5.57386E-01
 -1      8939 3.24431E+01 8.19784E-01-5.66297E-01
 -1      8941 3.24431E+01 8.19784E-01 5.66297E-01
 -1      8942 3.14308E+01 8.19784E-01-5.48626E-01
 -1      8944 3.14308E+01 8.19784E-01 5.48626E-01
 -1      8945 3.58695E+01 0.00000E+00-6.26105E-01
 -1      8947 3.58695E+01 0.00000E+00 6.26105E-01
 -1      8948 3.63499E+01 8.73345E-01-6.34490E-01
 -1      8950 3.63499E+01 8.73345E-01 6.34490E-01
 -1      8951 3.53751E+01 8.73345E-01-6.17474E-01
 -1      8953 3.53751E+01 8.73345E-01 6.17474E-01
 -1      8954 4.08113E+01 1.74574E+00-7.12363E-01
 -1      8956 4.08113E+01 1.74574E+00 7.12363E-01
 -1      8957 4.37808E+01 0.00000E+00-7.64197E-01
 -1      8959 4.37808E+01 0.00000E+00 7.64197E-01
 -1      8960 4.42883E+01 8.63950E-01-7.73056E-01
 -1      8962 4.42883E+01 8.63950E-01 7.73056E-01
 -1      8963 4.32760E+01 8.63950E-01-7.55385E-01
 -1      8965 4.32760E+01 8.63950E-01 7.55385E-01
 -1      8966 4.77177E+01 0.00000E+00-8.32916E-01
 -1      8968 4.77177E+01 0.00000E+00 8.32916E-01
 -1      8969 4.82119E+01 8.65352E-01-8.41541E-01
 -1      8971 4.82119E+01 8.65352E-01 8.41541E-01
 -1      8972 4.72370E+01 8.65352E-01-8.24525E-01
 -1      8974 4.72370E+01 8.65352E-01 8.24525E-01
 -1      8975 5.16921E+01 0.00000E+00-9.02289E-01
 -1      8977 5.16921E+01 0.00000E+00 9.02289E-01
 -1      8978 5.21750E+01 8.66248E-01-9.10717E-01
 -1      8980 5.21750E+01 8.66248E-01 9.10717E-01
 -1      8981 5.12001E+01 8.66248E-01-8.93701E-01
 -1      8983 5.12001E+01 8.66248E-01 8.93701E-01
 -1      8984 5.56290E+01 0.00000E+00-9.71008E-01
 -1      8986 5.56290E+01 0.00000E+00 9.71008E-01
 -1      8987 5.61341E+01 8.64502E-01-9.79824E-01
 -1      8989 5.61341E+01 8.64502E-01 9.79824E-01
 -1      8990 5.51217E+01 8.64502E-01-9.62153E-01
 -1      8992 5.51217E+01 8.64502E-01 9.62153E-01
 -1      8993 5.95659E+01 0.00000E+00-1.03973E+00
 -1      8995 5.95659E+01 0.00000E+00 1.03973E+00
 -1      8996 6.00534E+01 8.67038E-01-1.04824E+00
 -1      8998 6.00534E+01 8.67038E-01 1.04824E+00
 -1      8999 5.90786E+01 8.67038E-01-1.03122E+00
 -1      9001 5.90786E+01 8.67038E-01 1.03122E+00
 -1      9002 6.35028E+01 0.00000E+00-1.10845E+00
 -1      9004 6.35028E+01 0.00000E+00 1.10845E+00
 -1      9005 6.40103E+01 8.64749E-01-1.11730E+00
 -1      9007 6.40103E+01 8.64749E-01 1.11730E+00
 -1      9008 6.29979E+01 8.64749E-01-1.09963E+00
 -1      9010 6.29979E+01 8.64749E-01 1.09963E+00
 -1      9011 6.74397E+01 0.00000E+00-1.17716E+00
 -1      9013 6.74397E+01 0.00000E+00 1.17716E+00
 -1      9014 6.79324E+01 8.66821E-01-1.18577E+00
 -1      9016 6.79324E+01 8.66821E-01 1.18577E+00
 -1      9017 6.69576E+01 8.66821E-01-1.16875E+00
 -1      9019 6.69576E+01 8.66821E-01 1.16875E+00
 -1      9020 7.14141E+01 0.00000E+00-1.24654E+00
 -1      9022 7.14141E+01 0.00000E+00 1.24654E+00
 -1      9023 7.18977E+01 8.67570E-01-1.25498E+00
 -1      9025 7.18977E+01 8.67570E-01 1.25498E+00
 -1      9026 7.09229E+01 8.67570E-01-1.23796E+00
 -1      9028 7.09229E+01 8.67570E-01 1.23796E+00
 -1      9029 7.53510E+01 0.00000E+00-1.31526E+00
 -1      9031 7.53510E+01 0.00000E+00 1.31526E+00
 -1      9032 7.58608E+01 8.68453E-01-1.32416E+00
 -1      9034 7.58608E+01 8.68453E-01 1.32416E+00
 -1      9035 7.48485E+01 8.68453E-01-1.30648E+00
 -1      9037 7.48485E+01 8.68453E-01 1.30648E+00
 -1      9038 7.92879E+01 0.00000E+00-1.38398E+00
 -1      9040 7.92879E+01 0.00000E+00 1.38398E+00
 -1      9041 7.97882E+01 8.76142E-01-1.39271E+00
 -1      9043 7.97882E+01 8.76142E-01 1.39271E+00
 -1      9044 7.88134E+01 8.76142E-01-1.37569E+00
 -1      9046 7.88134E+01 8.76142E-01 1.37569E+00
 -1      9047 8.32623E+01 0.00000E+00-1.45335E+00
 -1      9049 8.32623E+01 0.00000E+00 1.45335E+00
 -1      9050 8.37563E+01 8.80195E-01-1.46197E+00
 -1      9052 8.37563E+01 8.80195E-01 1.46197E+00
 -1      9053 8.27814E+01 8.80195E-01-1.44496E+00
 -1      9055 8.27814E+01 8.80195E-01 1.44496E+00
 -1      9056 8.71992E+01 0.00000E+00-1.52207E+00
 -1      9058 8.71992E+01 0.00000E+00 1.52207E+00
 -1      9059 8.77064E+01 8.58631E-01-1.53092E+00
 -1      9061 8.77064E+01 8.58631E-01 1.53092E+00
 -1      9062 8.66941E+01 8.58631E-01-1.51325E+00
 -1      9064 8.66941E+01 8.58631E-01 1.51325E+00
 -1      9065 9.11361E+01 0.00000E+00-1.59079E+00
 -1      9067 9.11361E+01 0.00000E+00 1.59079E+00
 -1      9068 9.16103E+01 8.22981E-01-1.59906E+00
 -1      9070 9.16103E+01 8.22981E-01 1.59906E+00
 -1      9071 9.06355E+01 8.22981E-01-1.58205E+00
 -1      9073 9.06355E+01 8.22981E-01 1.58205E+00
 -1      9074 9.51105E+01 0.00000E+00-1.66016E+00
 -1      9076 9.51105E+01 0.00000E+00 1.66016E+00
 -1      9077 9.56188E+01 9.23795E-01-1.66903E+00
 -1      9079 9.56188E+01 9.23795E-01 1.66903E+00
 -1      9080 9.46439E+01 9.23795E-01-1.65202E+00
 -1      9082 9.46439E+01 9.23795E-01 1.65202E+00
 -1      9083 9.86172E+01 1.89151E+00-1.72137E+00
 -1      9085 9.86172E+01 1.89151E+00 1.72137E+00
 -1      9086 9.99848E+01 5.00000E+00-1.74524E+00
 -1      9088 9.99848E+01 5.00000E+00 1.74524E+00
 -1      9089 9.90764E+01 5.55906E+00-1.72939E+00
 -1      9091 9.90764E+01 5.55906E+00 1.72939E+00
 -1      9092 9.90764E+01 4.55906E+00-1.72939E+00
 -1      9094 9.90764E+01 4.55906E+00 1.72939E+00
 -1      9095 9.99848E+01 9.00000E+00-1.74524E+00
 -1      9097 9.99848E+01 9.00000E+00 1.74524E+00
 -1      9098 9.91216E+01 9.54470E+00-1.73017E+00
 -1      9100 9.91216E+01 9.54470E+00 1.73017E+00
 -1      9101 9.91216E+01 8.54470E+00-1.73017E+00
 -1      9103 9.91216E+01 8.54470E+00 1.73017E+00
 -1      9104 9.99848E+01 1.30000E+01-1.74524E+00
 -1      9106 9.99848E+01 1.30000E+01 1.74524E+00
 -1      9107 9.91223E+01 1.35269E+01-1.73019E+00
 -1      9109 9.91223E+01 1.35269E+01 1.73019E+00
 -1      9110 9.91223E+01 1.25269E+01-1.73019E+00
 -1      9112 9.91223E+01 1.25269E+01 1.73019E+00
 -1      9113 9.99848E+01 1.70000E+01-1.74524E+00
 -1      9115 9.99848E+01 1.70000E+01 1.74524E+00
 -1      9116 9.91147E+01 1.75071E+01-1.73005E+00
 -1      9118 9.91147E+01 1.75071E+01 1.73005E+00
 -1      9119 9.91147E+01 1.65071E+01-1.73005E+00
 -1      9121 9.91147E+01 1.65071E+01 1.73005E+00
 -1      9122 9.99848E+01 2.10000E+01-1.74524E+00
 -1      9124 9.99848E+01 2.10000E+01 1.74524E+00
 -1      9125 9.91141E+01 2.14994E+01-1.73004E+00
 -1      9127 9.91141E+01 2.14994E+01 1.73004E+00
 -1      9128 9.91141E+01 2.04994E+01-1.73004E+00
 -1      9130 9.91141E+01 2.04994E+01 1.73004E+00
 -1      9131 9.99848E+01 2.50000E+01-1.74524E+00
 -1      9133 9.99848E+01 2.50000E+01 1.74524E+00
 -1      9134 9.91158E+01 2.54989E+01-1.73007E+00
 -1      9136 9.91158E+01 2.54989E+01 1.73007E+00
 -1      9137 9.91158E+01 2.44989E+01-1.73007E+00
 -1      9139 9.91158E+01 2.44989E+01 1.73007E+00
 -1      9140 9.99848E+01 2.90000E+01-1.74524E+00
 -1      9142 9.99848E+01 2.90000E+01 1.74524E+00
 -1      9143 9.91163E+01 2.94993E+01-1.73008E+00
 -1      9145 9.91163E+01 2.94993E+01 1.73008E+00
 -1      9146 9.91163E+01 2.84993E+01-1.73008E+00
 -1      9148 9.91163E+01 2.84993E+01 1.73008E+00
 -1      9149 9.99848E+01 3.30000E+01-1.74524E+00
 -1      9151 9.99848E+01 3.30000E+01 1.74524E+00
 -1      9152 9.91189E+01 3.34975E+01-1.73013E+00
 -1      9154 9.91189E+01 3.34975E+01 1.73013E+00
 -1      9155 9.91189E+01 3.24975E+01-1.73013E+00
 -1      9157 9.91189E+01 3.24975E+01 1.73013E+00
 -1      9158 9.99848E+01 3.70000E+01-1.74524E+00
 -1      9160 9.99848E+01 3.70000E+01 1.74524E+00
 -1      9161 9.91240E+01 3.74997E+01-1.73022E+00
 -1      9163 9.91240E+01 3.74997E+01 1.73022E+00
 -1      9164 9.91240E+01 3.64997E+01-1.73022E+00
 -1      9166 9.91240E+01 3.64997E+01 1.73022E+00
 -1      9167 9.99848E+01 4.10000E+01-1.74524E+00
 -1      9169 9.99848E+01 4.10000E+01 1.74524E+00
 -1      9170 9.91118E+01 4.15228E+01-1.73000E+00
 -1      9172 9.91118E+01 4.15228E+01 1.73000E+00
 -1      9173 9.91118E+01 4.05228E+01-1.73000E+00
 -1      9175 9.91118E+01 4.05228E+01 1.73000E+00
 -1      9176 9.99848E+01 4.50000E+01-1.74524E+00
 -1      9178 9.99848E+01 4.50000E+01 1.74524E+00
 -1      9179 9.91059E+01 4.55473E+01-1.72990E+00
 -1      9181 9.91059E+01 4.55473E+01 1.72990E+00
 -1      9182 9.91059E+01 4.45473E+01-1.72990E+00
 -1      9184 9.91059E+01 4.45473E+01 1.72990E+00
 -1      9185 2.67870E+01 4.00655E+01-4.67568E-01
 -1      9187 2.67870E+01 4.00655E+01 4.67568E-01
 -1      9188 2.67086E+01 4.62590E+01-4.66200E-01
 -1      9190 2.67086E+01 4.62590E+01 4.66200E-01
 -1      9191 2.68405E+01 4.86532E+01-4.68503E-01
 -1      9193 2.68405E+01 4.86532E+01 4.68503E-01
 -1      9194 2.67886E+01 4.21137E+01-4.67597E-01
 -1      9196 2.67886E+01 4.21137E+01 4.67597E-01
 -1      9197 2.67783E+01 3.80340E+01-4.67418E-01
 -1      9199 2.67783E+01 3.80340E+01 4.67418E-01
 -1      9200 2.67493E+01 3.40041E+01-4.66910E-01
 -1      9202 2.67493E+01 3.40041E+01 4.66910E-01
 -1      9203 2.67301E+01 2.99964E+01-4.66575E-01
 -1      9205 2.67301E+01 2.99964E+01 4.66575E-01
 -1      9206 2.67259E+01 2.59971E+01-4.66502E-01
 -1      9208 2.67259E+01 2.59971E+01 4.66502E-01
 -1      9209 2.67268E+01 2.19997E+01-4.66518E-01
 -1      9211 2.67268E+01 2.19997E+01 4.66518E-01
 -1      9212 2.67260E+01 1.80052E+01-4.66504E-01
 -1      9214 2.67260E+01 1.80052E+01 4.66504E-01
 -1      9215 2.67227E+01 1.40193E+01-4.66446E-01
 -1      9217 2.67227E+01 1.40193E+01 4.66446E-01
 -1      9218 2.67400E+01 1.00478E+01-4.66749E-01
 -1      9220 2.67400E+01 1.00478E+01 4.66749E-01
 -1      9221 2.67811E+01 6.10977E+00-4.67466E-01
 -1      9223 2.67811E+01 6.10977E+00 4.67466E-01
 -1      9224 3.48765E+01 1.71721E+00-6.08771E-01
 -1      9226 3.48765E+01 1.71721E+00 6.08771E-01
 -1      9227 3.10643E+01 1.56205E+00-5.42230E-01
 -1      9229 3.10643E+01 1.56205E+00 5.42230E-01
 -1      9230 4.27920E+01 1.73353E+00-7.46937E-01
 -1      9232 4.27920E+01 1.73353E+00 7.46937E-01
 -1      9233 4.67469E+01 1.73036E+00-8.15970E-01
 -1      9235 4.67469E+01 1.73036E+00 8.15970E-01
 -1      9236 5.06949E+01 1.73019E+00-8.84884E-01
 -1      9238 5.06949E+01 1.73019E+00 8.84884E-01
 -1      9239 5.46388E+01 1.73089E+00-9.53724E-01
 -1      9241 5.46388E+01 1.73089E+00 9.53724E-01
 -1      9242 5.85839E+01 1.73370E+00-1.02259E+00
 -1      9244 5.85839E+01 1.73370E+00 1.02259E+00
 -1      9245 6.25178E+01 1.73155E+00-1.09125E+00
 -1      9247 6.25178E+01 1.73155E+00 1.09125E+00
 -1      9248 6.64660E+01 1.73359E+00-1.16017E+00
 -1      9250 6.64660E+01 1.73359E+00 1.16017E+00
 -1      9251 7.04172E+01 1.73262E+00-1.22914E+00
 -1      9253 7.04172E+01 1.73262E+00 1.22914E+00
 -1      9254 7.43676E+01 1.73688E+00-1.29809E+00
 -1      9256 7.43676E+01 1.73688E+00 1.29809E+00
 -1      9257 7.83263E+01 1.74893E+00-1.36719E+00
 -1      9259 7.83263E+01 1.74893E+00 1.36719E+00
 -1      9260 8.22849E+01 1.75692E+00-1.43629E+00
 -1      9262 8.22849E+01 1.75692E+00 1.43629E+00
 -1      9263 8.62206E+01 1.73441E+00-1.50499E+00
 -1      9265 8.62206E+01 1.73441E+00 1.50499E+00
 -1      9266 9.01297E+01 1.65573E+00-1.57322E+00
 -1      9268 9.01297E+01 1.65573E+00 1.57322E+00
 -1      9269 9.41291E+01 1.78245E+00-1.64303E+00
 -1      9271 9.41291E+01 1.78245E+00 1.64303E+00
 -1      9272 9.82276E+01 4.21973E+00-1.71457E+00
 -1      9274 9.82276E+01 4.21973E+00 1.71457E+00
 -1      9275 9.82382E+01 8.09126E+00-1.71475E+00
 -1      9277 9.82382E+01 8.09126E+00 1.71475E+00
 -1      9278 9.82637E+01 1.20647E+01-1.71520E+00
 -1      9280 9.82637E+01 1.20647E+01 1.71520E+00
 -1      9281 9.82476E+01 1.60223E+01-1.71492E+00
 -1      9283 9.82476E+01 1.60223E+01 1.71492E+00
 -1      9284 9.82431E+01 2.00013E+01-1.71484E+00
 -1      9286 9.82431E+01 2.00013E+01 1.71484E+00
 -1      9287 9.82461E+01 2.39977E+01-1.71489E+00
 -1      9289 9.82461E+01 2.39977E+01 1.71489E+00
 -1      9290 9.82478E+01 2.79987E+01-1.71492E+00
 -1      9292 9.82478E+01 2.79987E+01 1.71492E+00
 -1      9293 9.82513E+01 3.19961E+01-1.71498E+00
 -1      9295 9.82513E+01 3.19961E+01 1.71498E+00
 -1      9296 9.82609E+01 3.59971E+01-1.71515E+00
 -1      9298 9.82609E+01 3.59971E+01 1.71515E+00
 -1      9299 9.82493E+01 4.00300E+01-1.71495E+00
 -1      9301 9.82493E+01 4.00300E+01 1.71495E+00
 -1      9302 9.82160E+01 4.40891E+01-1.71437E+00
 -1      9304 9.82160E+01 4.40891E+01 1.71437E+00
 -1      9305 2.67723E+01 4.41770E+01-4.67312E-01
 -1      9307 2.67723E+01 4.41770E+01 4.67312E-01
 -1      9308 2.67643E+01 3.60149E+01-4.67172E-01
 -1      9310 2.67643E+01 3.60149E+01 4.67172E-01
 -1      9311 2.67375E+01 3.19986E+01-4.66704E-01
 -1      9313 2.67375E+01 3.19986E+01 4.66704E-01
 -1      9314 2.67267E+01 2.79961E+01-4.66515E-01
 -1      9316 2.67267E+01 2.79961E+01 4.66515E-01
 -1      9317 2.67262E+01 2.39984E+01-4.66508E-01
 -1      9319 2.67262E+01 2.39984E+01 4.66508E-01
 -1      9320 2.67270E+01 2.00016E+01-4.66522E-01
 -1      9322 2.67270E+01 2.00016E+01 4.66522E-01
 -1      9323 2.67238E+01 1.60109E+01-4.66466E-01
 -1      9325 2.67238E+01 1.60109E+01 4.66466E-01
 -1      9326 2.67272E+01 1.20306E+01-4.66525E-01
 -1      9328 2.67272E+01 1.20306E+01 4.66525E-01
 -1      9329 2.67576E+01 8.07366E+00-4.67055E-01
 -1      9331 2.67576E+01 8.07366E+00 4.67055E-01
 -1      9332 2.68119E+01 4.17842E+00-4.68004E-01
 -1      9334 2.68119E+01 4.17842E+00 4.68004E-01
 -1      9335 4.87191E+01 1.72930E+00-8.50394E-01
 -1      9337 4.87191E+01 1.72930E+00 8.50394E-01
 -1      9338 5.26669E+01 1.73264E+00-9.19304E-01
 -1      9340 5.26669E+01 1.73264E+00 9.19304E-01
 -1      9341 5.66143E+01 1.73116E+00-9.88207E-01
 -1      9343 5.66143E+01 1.73116E+00 9.88207E-01
 -1      9344 6.05482E+01 1.73383E+00-1.05687E+00
 -1      9346 6.05482E+01 1.73383E+00 1.05687E+00
 -1      9347 6.44936E+01 1.73152E+00-1.12574E+00
 -1      9349 6.44936E+01 1.73152E+00 1.12574E+00
 -1      9350 6.84391E+01 1.73187E+00-1.19461E+00
 -1      9352 6.84391E+01 1.73187E+00 1.19461E+00
 -1      9353 7.23917E+01 1.73599E+00-1.26360E+00
 -1      9355 7.23917E+01 1.73599E+00 1.26360E+00
 -1      9356 7.63486E+01 1.74124E+00-1.33267E+00
 -1      9358 7.63486E+01 1.74124E+00 1.33267E+00
 -1      9359 8.03040E+01 1.75286E+00-1.40171E+00
 -1      9361 8.03040E+01 1.75286E+00 1.40171E+00
 -1      9362 8.42577E+01 1.75598E+00-1.47072E+00
 -1      9364 8.42577E+01 1.75598E+00 1.47072E+00
 -1      9365 8.81755E+01 1.69138E+00-1.53911E+00
 -1      9367 8.81755E+01 1.69138E+00 1.53911E+00
 -1      9368 9.21079E+01 1.68164E+00-1.60775E+00
 -1      9370 9.21079E+01 1.68164E+00 1.60775E+00
 -1      9371 9.62009E+01 1.81530E+00-1.67919E+00
 -1      9373 9.62009E+01 1.81530E+00 1.67919E+00
 -1      9374 9.82630E+01 1.00826E+01-1.71519E+00
 -1      9376 9.82630E+01 1.00826E+01 1.71519E+00
 -1      9377 9.82551E+01 1.40421E+01-1.71505E+00
 -1      9379 9.82551E+01 1.40421E+01 1.71505E+00
 -1      9380 9.82438E+01 1.80090E+01-1.71485E+00
 -1      9382 9.82438E+01 1.80090E+01 1.71485E+00
 -1      9383 9.82444E+01 2.19981E+01-1.71486E+00
 -1      9385 9.82444E+01 2.19981E+01 1.71486E+00
 -1      9386 9.82473E+01 2.59983E+01-1.71491E+00
 -1      9388 9.82473E+01 2.59983E+01 1.71491E+00
 -1      9389 9.82487E+01 2.99979E+01-1.71494E+00
 -1      9391 9.82487E+01 2.99979E+01 1.71494E+00
 -1      9392 9.82558E+01 3.39949E+01-1.71506E+00
 -1      9394 9.82558E+01 3.39949E+01 1.71506E+00
 -1      9395 9.82615E+01 3.80069E+01-1.71516E+00
 -1      9397 9.82615E+01 3.80069E+01 1.71516E+00
 -1      9398 9.82219E+01 4.20646E+01-1.71447E+00
 -1      9400 9.82219E+01 4.20646E+01 1.71447E+00
 -1      9401 9.83085E+01 4.60476E+01-1.71598E+00
 -1      9403 9.83085E+01 4.60476E+01 1.71598E+00
 -1      9404 3.29194E+01 1.66365E+00-5.74610E-01
 -1      9406 3.29194E+01 1.66365E+00 5.74610E-01
 -1      9407 3.68451E+01 1.75280E+00-6.43134E-01
 -1      9409 3.68451E+01 1.75280E+00 6.43134E-01
 -1      9410 4.47731E+01 1.72896E+00-7.81517E-01
 -1      9412 4.47731E+01 1.72896E+00 7.81517E-01
 -1      9413 9.81931E+01 6.10563E+00-1.71397E+00
 -1      9415 9.81931E+01 6.10563E+00 1.71397E+00
 -1      9416 2.74129E+01 4.78409E+01-4.78494E-01
 -1      9418 2.74129E+01 4.78409E+01 4.78494E-01
 -1      9419 2.76438E+01 3.55111E+01-4.82525E-01
 -1      9421 2.76438E+01 3.55111E+01 4.82525E-01
 -1      9422 2.76519E+01 3.65182E+01-4.82665E-01
 -1      9424 2.76519E+01 3.65182E+01 4.82665E-01
 -1      9425 2.76657E+01 3.75346E+01-4.82907E-01
 -1      9427 2.76657E+01 3.75346E+01 4.82907E-01
 -1      9428 2.76718E+01 3.85466E+01-4.83012E-01
 -1      9430 2.76718E+01 3.85466E+01 4.83012E-01
 -1      9431 2.85453E+01 3.70308E+01-4.98260E-01
 -1      9433 2.85453E+01 3.70308E+01 4.98260E-01
 -1      9434 2.76060E+01 4.58503E+01-4.81864E-01
 -1      9436 2.76060E+01 4.58503E+01 4.81864E-01
 -1      9437 2.75576E+01 4.68977E+01-4.81019E-01
 -1      9439 2.75576E+01 4.68977E+01 4.81019E-01
 -1      9440 2.76039E+01 3.14932E+01-4.81828E-01
 -1      9442 2.76039E+01 3.14932E+01 4.81828E-01
 -1      9443 2.76087E+01 3.24950E+01-4.81912E-01
 -1      9445 2.76087E+01 3.24950E+01 4.81912E-01
 -1      9446 2.75907E+01 2.74928E+01-4.81598E-01
 -1      9448 2.75907E+01 2.74928E+01 4.81598E-01
 -1      9449 2.75916E+01 2.84927E+01-4.81613E-01
 -1      9451 2.75916E+01 2.84927E+01 4.81613E-01
 -1      9452 2.75915E+01 2.34977E+01-4.81611E-01
 -1      9454 2.75915E+01 2.34977E+01 4.81611E-01
 -1      9455 2.75912E+01 2.44971E+01-4.81606E-01
 -1      9457 2.75912E+01 2.44971E+01 4.81606E-01
 -1      9458 2.75928E+01 1.95025E+01-4.81634E-01
 -1      9460 2.75928E+01 1.95025E+01 4.81634E-01
 -1      9461 2.75929E+01 2.05014E+01-4.81636E-01
 -1      9463 2.75929E+01 2.05014E+01 4.81636E-01
 -1      9464 2.75880E+01 1.55167E+01-4.81550E-01
 -1      9466 2.75880E+01 1.55167E+01 4.81550E-01
 -1      9467 2.75893E+01 1.65135E+01-4.81572E-01
 -1      9469 2.75893E+01 1.65135E+01 4.81572E-01
 -1      9470 2.75924E+01 1.15481E+01-4.81628E-01
 -1      9472 2.75924E+01 1.15481E+01 4.81628E-01
 -1      9473 2.75880E+01 1.25420E+01-4.81550E-01
 -1      9475 2.75880E+01 1.25420E+01 4.81550E-01
 -1      9476 2.76469E+01 7.61621E+00-4.82579E-01
 -1      9478 2.76469E+01 7.61621E+00 4.82579E-01
 -1      9479 2.76377E+01 8.60152E+00-4.82418E-01
 -1      9481 2.76377E+01 8.60152E+00 4.82418E-01
 -1      9482 2.77330E+01 3.73516E+00-4.84081E-01
 -1      9484 2.77330E+01 3.73516E+00 4.84081E-01
 -1      9485 2.77165E+01 4.68795E+00-4.83794E-01
 -1      9487 2.77165E+01 4.68795E+00 4.83794E-01
 -1      9488 2.86397E+01 3.27863E+00-4.99908E-01
 -1      9490 2.86397E+01 3.27863E+00 4.99908E-01
 -1      9491 3.53348E+01 2.60602E+00-6.16772E-01
 -1      9493 3.53348E+01 2.60602E+00 6.16772E-01
 -1      9494 3.43559E+01 2.57654E+00-5.99684E-01
 -1      9496 3.43559E+01 2.57654E+00 5.99684E-01
 -1      9497 4.92151E+01 2.59411E+00-8.59052E-01
 -1      9499 4.92151E+01 2.59411E+00 8.59052E-01
 -1      9500 4.82272E+01 2.59552E+00-8.41808E-01
 -1      9502 4.82272E+01 2.59552E+00 8.41808E-01
 -1      9503 3.93167E+01 2.63434E+00-6.86276E-01
 -1      9505 3.93167E+01 2.63434E+00 6.86276E-01
 -1      9506 3.83231E+01 2.63764E+00-6.68932E-01
 -1      9508 3.83231E+01 2.63764E+00 6.68932E-01
 -1      9509 4.32921E+01 2.59472E+00-7.55666E-01
 -1      9511 4.32921E+01 2.59472E+00 7.55666E-01
 -1      9512 4.23006E+01 2.60035E+00-7.38359E-01
 -1      9514 4.23006E+01 2.60035E+00 7.38359E-01
 -1      9515 3.73190E+01 2.64724E+00-6.51405E-01
 -1      9517 3.73190E+01 2.64724E+00 6.51405E-01
 -1      9518 3.63293E+01 2.64112E+00-6.34130E-01
 -1      9520 3.63293E+01 2.64112E+00 6.34130E-01
 -1      9521 3.58087E+01 3.50045E+00-6.25043E-01
 -1      9523 3.58087E+01 3.50045E+00 6.25043E-01
 -1      9524 3.78073E+01 3.52596E+00-6.59929E-01
 -1      9526 3.78073E+01 3.52596E+00 6.59929E-01
 -1      9527 3.12815E+01 2.46975E+00-5.46021E-01
 -1      9529 3.12815E+01 2.46975E+00 5.46021E-01
 -1      9530 3.04046E+01 2.39224E+00-5.30714E-01
 -1      9532 3.04046E+01 2.39224E+00 5.30714E-01
 -1      9533 4.13059E+01 2.61140E+00-7.20996E-01
 -1      9535 4.13059E+01 2.61140E+00 7.20996E-01
 -1      9536 4.03166E+01 2.61798E+00-7.03730E-01
 -1      9538 4.03166E+01 2.61798E+00 7.03730E-01
 -1      9539 3.98113E+01 3.50000E+00-6.94909E-01
 -1      9541 3.98113E+01 3.50000E+00 6.94909E-01
 -1      9542 4.18059E+01 3.47259E+00-7.29725E-01
 -1      9544 4.18059E+01 3.47259E+00 7.29725E-01
 -1      9545 9.73118E+01 6.63223E+00-1.69858E+00
 -1      9547 9.73118E+01 6.63223E+00 1.69858E+00
 -1      9548 9.72868E+01 5.64473E+00-1.69815E+00
 -1      9550 9.72868E+01 5.64473E+00 1.69815E+00
 -1      9551 5.31589E+01 2.59830E+00-9.27891E-01
 -1      9553 5.31589E+01 2.59830E+00 9.27891E-01
 -1      9554 5.21749E+01 2.59816E+00-9.10717E-01
 -1      9556 5.21749E+01 2.59816E+00 9.10717E-01
 -1      9557 5.71066E+01 2.59845E+00-9.96799E-01
 -1      9559 5.71066E+01 2.59845E+00 9.96799E-01
 -1      9560 5.61190E+01 2.59630E+00-9.79562E-01
 -1      9562 5.61190E+01 2.59630E+00 9.79562E-01
 -1      9563 6.10404E+01 2.59980E+00-1.06546E+00
 -1      9565 6.10404E+01 2.59980E+00 1.06546E+00
 -1      9566 6.00583E+01 2.60004E+00-1.04832E+00
 -1      9568 6.00583E+01 2.60004E+00 1.04832E+00
 -1      9569 6.49875E+01 2.59888E+00-1.13436E+00
 -1      9571 6.49875E+01 2.59888E+00 1.13436E+00
 -1      9572 6.39994E+01 2.59686E+00-1.11711E+00
 -1      9574 6.39994E+01 2.59686E+00 1.11711E+00
 -1      9575 6.89343E+01 2.59732E+00-1.20325E+00
 -1      9577 6.89343E+01 2.59732E+00 1.20325E+00
 -1      9578 6.79455E+01 2.59909E+00-1.18599E+00
 -1      9580 6.79455E+01 2.59909E+00 1.18599E+00
 -1      9581 7.28853E+01 2.60300E+00-1.27222E+00
 -1      9583 7.28853E+01 2.60300E+00 1.27222E+00
 -1      9584 7.19000E+01 2.60215E+00-1.25502E+00
 -1      9586 7.19000E+01 2.60215E+00 1.25502E+00
 -1      9587 7.68474E+01 2.61378E+00-1.34138E+00
 -1      9589 7.68474E+01 2.61378E+00 1.34138E+00
 -1      9590 7.58570E+01 2.60945E+00-1.32409E+00
 -1      9592 7.58570E+01 2.60945E+00 1.32409E+00
 -1      9593 8.08094E+01 2.63043E+00-1.41053E+00
 -1      9595 8.08094E+01 2.63043E+00 1.41053E+00
 -1      9596 7.98191E+01 2.62985E+00-1.39325E+00
 -1      9598 7.98191E+01 2.62985E+00 1.39325E+00
 -1      9599 8.47681E+01 2.63668E+00-1.47963E+00
 -1      9601 8.47681E+01 2.63668E+00 1.47963E+00
 -1      9602 8.37858E+01 2.64109E+00-1.46249E+00
 -1      9604 8.37858E+01 2.64109E+00 1.46249E+00
 -1      9605 8.86749E+01 2.53858E+00-1.54783E+00
 -1      9607 8.86749E+01 2.53858E+00 1.54783E+00
 -1      9608 8.77008E+01 2.56447E+00-1.53082E+00
 -1      9610 8.77008E+01 2.56447E+00 1.53082E+00
 -1      9611 9.25582E+01 2.50472E+00-1.61561E+00
 -1      9613 9.25582E+01 2.50472E+00 1.61561E+00
 -1      9614 9.15600E+01 2.46904E+00-1.59819E+00
 -1      9616 9.15600E+01 2.46904E+00 1.59819E+00
 -1      9617 9.67396E+01 2.83989E+00-1.68860E+00
 -1      9619 9.67396E+01 2.83989E+00 1.68860E+00
 -1      9620 9.56908E+01 2.87217E+00-1.67029E+00
 -1      9622 9.56908E+01 2.87217E+00 1.67029E+00
 -1      9623 9.74117E+01 1.06290E+01-1.70033E+00
 -1      9625 9.74117E+01 1.06290E+01 1.70033E+00
 -1      9626 9.74071E+01 9.63584E+00-1.70025E+00
 -1      9628 9.74071E+01 9.63584E+00 1.70025E+00
 -1      9629 9.77684E+01 2.55217E+00-1.70655E+00
 -1      9631 9.77684E+01 2.55217E+00 1.70655E+00
 -1      9632 9.73895E+01 8.64823E+00-1.69994E+00
 -1      9634 9.73895E+01 8.64823E+00 1.69994E+00
 -1      9635 9.73694E+01 7.65010E+00-1.69959E+00
 -1      9637 9.73694E+01 7.65010E+00 1.69959E+00
 -1      9638 9.65382E+01 9.19468E+00-1.68508E+00
 -1      9640 9.65382E+01 9.19468E+00 1.68508E+00
 -1      9641 2.83103E+01 4.74322E+01-4.94158E-01
 -1      9643 2.83103E+01 4.74322E+01 4.94158E-01
 -1      9644 9.73828E+01 1.45527E+01-1.69982E+00
 -1      9646 9.73828E+01 1.45527E+01 1.69982E+00
 -1      9647 9.73875E+01 1.35644E+01-1.69990E+00
 -1      9649 9.73875E+01 1.35644E+01 1.69990E+00
 -1      9650 9.73701E+01 1.85071E+01-1.69960E+00
 -1      9652 9.73701E+01 1.85071E+01 1.69960E+00
 -1      9653 9.73710E+01 1.75124E+01-1.69962E+00
 -1      9655 9.73710E+01 1.75124E+01 1.69962E+00
 -1      9656 9.73742E+01 2.24954E+01-1.69967E+00
 -1      9658 9.73742E+01 2.24954E+01 1.69967E+00
 -1      9659 9.73732E+01 2.14961E+01-1.69966E+00
 -1      9661 9.73732E+01 2.14961E+01 1.69966E+00
 -1      9662 9.73789E+01 2.64978E+01-1.69976E+00
 -1      9664 9.73789E+01 2.64978E+01 1.69976E+00
 -1      9665 9.73784E+01 2.54974E+01-1.69975E+00
 -1      9667 9.73784E+01 2.54974E+01 1.69975E+00
 -1      9668 9.73798E+01 3.04974E+01-1.69977E+00
 -1      9670 9.73798E+01 3.04974E+01 1.69977E+00
 -1      9671 9.73790E+01 2.94980E+01-1.69976E+00
 -1      9673 9.73790E+01 2.94980E+01 1.69976E+00
 -1      9674 9.73921E+01 3.44914E+01-1.69999E+00
 -1      9676 9.73921E+01 3.44914E+01 1.69999E+00
 -1      9677 9.73894E+01 3.34916E+01-1.69994E+00
 -1      9679 9.73894E+01 3.34916E+01 1.69994E+00
 -1      9680 9.74052E+01 3.85059E+01-1.70021E+00
 -1      9682 9.74052E+01 3.85059E+01 1.70021E+00
 -1      9683 9.74070E+01 3.74984E+01-1.70025E+00
 -1      9685 9.74070E+01 3.74984E+01 1.70025E+00
 -1      9686 9.73383E+01 4.25994E+01-1.69905E+00
 -1      9688 9.73383E+01 4.25994E+01 1.69905E+00
 -1      9689 9.73553E+01 4.15804E+01-1.69934E+00
 -1      9691 9.73553E+01 4.15804E+01 1.69934E+00
 -1      9692 9.74586E+01 4.66853E+01-1.70115E+00
 -1      9694 9.74586E+01 4.66853E+01 1.70115E+00
 -1      9695 9.73773E+01 4.57322E+01-1.69973E+00
 -1      9697 9.73773E+01 4.57322E+01 1.69973E+00
 -1      9698 3.33728E+01 2.48144E+00-5.82525E-01
 -1      9700 3.33728E+01 2.48144E+00 5.82525E-01
 -1      9701 3.23947E+01 2.45736E+00-5.65452E-01
 -1      9703 3.23947E+01 2.45736E+00 5.65452E-01
 -1      9704 3.17350E+01 3.28755E+00-5.53936E-01
 -1      9706 3.17350E+01 3.28755E+00 5.53936E-01
 -1      9707 3.38312E+01 3.37026E+00-5.90526E-01
 -1      9709 3.38312E+01 3.37026E+00 5.90526E-01
 -1      9710 2.76807E+01 3.95791E+01-4.83168E-01
 -1      9712 2.76807E+01 3.95791E+01 4.83168E-01
 -1      9713 2.76833E+01 4.05986E+01-4.83214E-01
 -1      9715 2.76833E+01 4.05986E+01 4.83214E-01
 -1      9716 2.85681E+01 3.90797E+01-4.98658E-01
 -1      9718 2.85681E+01 3.90797E+01 4.98658E-01
 -1      9719 9.77198E+01 4.76678E+01-1.70571E+00
 -1      9721 9.77198E+01 4.76678E+01 1.70571E+00
 -1      9722 2.91642E+01 4.73004E+01-5.09063E-01
 -1      9724 2.91642E+01 4.73004E+01 5.09063E-01
 -1      9725 2.76800E+01 4.16496E+01-4.83156E-01
 -1      9727 2.76800E+01 4.16496E+01 4.83156E-01
 -1      9728 2.76790E+01 4.26783E+01-4.83139E-01
 -1      9730 2.76790E+01 4.26783E+01 4.83139E-01
 -1      9731 2.85737E+01 4.11633E+01-4.98755E-01
 -1      9733 2.85737E+01 4.11633E+01 4.98755E-01
 -1      9734 3.01682E+01 4.69970E+01-5.26589E-01
 -1      9736 3.01682E+01 4.69970E+01 5.26589E-01
 -1      9737 3.11252E+01 4.69721E+01-5.43293E-01
 -1      9739 3.11252E+01 4.69721E+01 5.43293E-01
 -1      9740 2.94590E+01 4.61856E+01-5.14209E-01
 -1      9742 2.94590E+01 4.61856E+01 5.14209E-01
 -1      9743 3.22369E+01 4.71494E+01-5.62698E-01
 -1      9745 3.22369E+01 4.71494E+01 5.62698E-01
 -1      9746 3.32370E+01 4.71794E+01-5.80153E-01
 -1      9748 3.32370E+01 4.71794E+01 5.80153E-01
 -1      9749 3.15748E+01 4.60595E+01-5.51140E-01
 -1      9751 3.15748E+01 4.60595E+01 5.51140E-01
 -1      9752 3.42356E+01 4.72047E+01-5.97584E-01
 -1      9754 3.42356E+01 4.72047E+01 5.97584E-01
 -1      9755 3.52258E+01 4.72184E+01-6.14869E-01
 -1      9757 3.52258E+01 4.72184E+01 6.14869E-01
 -1      9758 3.36851E+01 4.62621E+01-5.87976E-01
 -1      9760 3.36851E+01 4.62621E+01 5.87976E-01
 -1      9761 3.62183E+01 4.72381E+01-6.32193E-01
 -1      9763 3.62183E+01 4.72381E+01 6.32193E-01
 -1      9764 3.72100E+01 4.72484E+01-6.49502E-01
 -1      9766 3.72100E+01 4.72484E+01 6.49502E-01
 -1      9767 3.56762E+01 4.63071E+01-6.22731E-01
 -1      9769 3.56762E+01 4.63071E+01 6.22731E-01
 -1      9770 3.82013E+01 4.72611E+01-6.66806E-01
 -1      9772 3.82013E+01 4.72611E+01 6.66806E-01
 -1      9773 3.91927E+01 4.72645E+01-6.84112E-01
 -1      9775 3.91927E+01 4.72645E+01 6.84112E-01
 -1      9776 3.76601E+01 4.63395E+01-6.57359E-01
 -1      9778 3.76601E+01 4.63395E+01 6.57359E-01
 -1      9779 4.01839E+01 4.72728E+01-7.01412E-01
 -1      9781 4.01839E+01 4.72728E+01 7.01412E-01
 -1      9782 4.11705E+01 4.72763E+01-7.18634E-01
 -1      9784 4.11705E+01 4.72763E+01 7.18634E-01
 -1      9785 3.96426E+01 4.63606E+01-6.91964E-01
 -1      9787 3.96426E+01 4.63606E+01 6.91964E-01
 -1      9788 4.21609E+01 4.72823E+01-7.35922E-01
 -1      9790 4.21609E+01 4.72823E+01 7.35922E-01
 -1      9791 4.31507E+01 4.72862E+01-7.53199E-01
 -1      9793 4.31507E+01 4.72862E+01 7.53199E-01
 -1      9794 4.16242E+01 4.63749E+01-7.26553E-01
 -1      9796 4.16242E+01 4.63749E+01 7.26553E-01
 -1      9797 4.41404E+01 4.72888E+01-7.70474E-01
 -1      9799 4.41404E+01 4.72888E+01 7.70474E-01
 -1      9800 4.51302E+01 4.72876E+01-7.87751E-01
 -1      9802 4.51302E+01 4.72876E+01 7.87751E-01
 -1      9803 4.36043E+01 4.63835E+01-7.61116E-01
 -1      9805 4.36043E+01 4.63835E+01 7.61116E-01
 -1      9806 4.61186E+01 4.72873E+01-8.05003E-01
 -1      9808 4.61186E+01 4.72873E+01 8.05003E-01
 -1      9809 4.71036E+01 4.72873E+01-8.22196E-01
 -1      9811 4.71036E+01 4.72873E+01 8.22196E-01
 -1      9812 4.55824E+01 4.63858E+01-7.95644E-01
 -1      9814 4.55824E+01 4.63858E+01 7.95644E-01
 -1      9815 4.80908E+01 4.72870E+01-8.39428E-01
 -1      9817 4.80908E+01 4.72870E+01 8.39428E-01
 -1      9818 4.90790E+01 4.72885E+01-8.56678E-01
 -1      9820 4.90790E+01 4.72885E+01 8.56678E-01
 -1      9821 4.75580E+01 4.63852E+01-8.30128E-01
 -1      9823 4.75580E+01 4.63852E+01 8.30128E-01
 -1      9824 5.00658E+01 4.72875E+01-8.73902E-01
 -1      9826 5.00658E+01 4.72875E+01 8.73902E-01
 -1      9827 5.10544E+01 4.72850E+01-8.91157E-01
 -1      9829 5.10544E+01 4.72850E+01 8.91157E-01
 -1      9830 4.95320E+01 4.63838E+01-8.64585E-01
 -1      9832 4.95320E+01 4.63838E+01 8.64585E-01
 -1      9833 5.20407E+01 4.72835E+01-9.08373E-01
 -1      9835 5.20407E+01 4.72835E+01 9.08373E-01
 -1      9836 5.30247E+01 4.72832E+01-9.25550E-01
 -1      9838 5.30247E+01 4.72832E+01 9.25550E-01
 -1      9839 5.15051E+01 4.63812E+01-8.99026E-01
 -1      9841 5.15051E+01 4.63812E+01 8.99026E-01
 -1      9842 5.40107E+01 4.72830E+01-9.42760E-01
 -1      9844 5.40107E+01 4.72830E+01 9.42760E-01
 -1      9845 5.49983E+01 4.72847E+01-9.59998E-01
 -1      9847 5.49983E+01 4.72847E+01 9.59998E-01
 -1      9848 5.34774E+01 4.63796E+01-9.33452E-01
 -1      9850 5.34774E+01 4.63796E+01 9.33452E-01
 -1      9851 5.59842E+01 4.72844E+01-9.77208E-01
 -1      9853 5.59842E+01 4.72844E+01 9.77208E-01
 -1      9854 5.69719E+01 4.72822E+01-9.94448E-01
 -1      9856 5.69719E+01 4.72822E+01 9.94448E-01
 -1      9857 5.54493E+01 4.63791E+01-9.67871E-01
 -1      9859 5.54493E+01 4.63791E+01 9.67871E-01
 -1      9860 5.79572E+01 4.72812E+01-1.01165E+00
 -1      9862 5.79572E+01 4.72812E+01 1.01165E+00
 -1      9863 5.89395E+01 4.72809E+01-1.02879E+00
 -1      9865 5.89395E+01 4.72809E+01 1.02879E+00
 -1      9866 5.74205E+01 4.63777E+01-1.00228E+00
 -1      9868 5.74205E+01 4.63777E+01 1.00228E+00
 -1      9869 5.99240E+01 4.72808E+01-1.04598E+00
 -1      9871 5.99240E+01 4.72808E+01 1.04598E+00
 -1      9872 6.09063E+01 4.72812E+01-1.06312E+00
 -1      9874 6.09063E+01 4.72812E+01 1.06312E+00
 -1      9875 5.93904E+01 4.63767E+01-1.03666E+00
 -1      9877 5.93904E+01 4.63767E+01 1.03666E+00
 -1      9878 6.18917E+01 4.72820E+01-1.08032E+00
 -1      9880 6.18917E+01 4.72820E+01 1.08032E+00
 -1      9881 6.28790E+01 4.72841E+01-1.09756E+00
 -1      9883 6.28790E+01 4.72841E+01 1.09756E+00
 -1      9884 6.13603E+01 4.63775E+01-1.07105E+00
 -1      9886 6.13603E+01 4.63775E+01 1.07105E+00
 -1      9887 6.38654E+01 4.72844E+01-1.11477E+00
 -1      9889 6.38654E+01 4.72844E+01 1.11477E+00
 -1      9890 6.48538E+01 4.72825E+01-1.13203E+00
 -1      9892 6.48538E+01 4.72825E+01 1.13203E+00
 -1      9893 6.33321E+01 4.63787E+01-1.10547E+00
 -1      9895 6.33321E+01 4.63787E+01 1.10547E+00
 -1      9896 6.58405E+01 4.72821E+01-1.14925E+00
 -1      9898 6.58405E+01 4.72821E+01 1.14925E+00
 -1      9899 6.68249E+01 4.72822E+01-1.16643E+00
 -1      9901 6.68249E+01 4.72822E+01 1.16643E+00
 -1      9902 6.53052E+01 4.63786E+01-1.13991E+00
 -1      9904 6.53052E+01 4.63786E+01 1.13991E+00
 -1      9905 6.78117E+01 4.72830E+01-1.18366E+00
 -1      9907 6.78117E+01 4.72830E+01 1.18366E+00
 -1      9908 6.87998E+01 4.72851E+01-1.20090E+00
 -1      9910 6.87998E+01 4.72851E+01 1.20090E+00
 -1      9911 6.72788E+01 4.63790E+01-1.17436E+00
 -1      9913 6.72788E+01 4.63790E+01 1.17436E+00
 -1      9914 6.97867E+01 4.72854E+01-1.21813E+00
 -1      9916 6.97867E+01 4.72854E+01 1.21813E+00
 -1      9917 7.07753E+01 4.72837E+01-1.23539E+00
 -1      9919 7.07753E+01 4.72837E+01 1.23539E+00
 -1      9920 6.92525E+01 4.63801E+01-1.20881E+00
 -1      9922 6.92525E+01 4.63801E+01 1.20881E+00
 -1      9923 7.17617E+01 4.72835E+01-1.25261E+00
 -1      9925 7.17617E+01 4.72835E+01 1.25261E+00
 -1      9926 7.27458E+01 4.72837E+01-1.26978E+00
 -1      9928 7.27458E+01 4.72837E+01 1.26978E+00
 -1      9929 7.12259E+01 4.63803E+01-1.24325E+00
 -1      9931 7.12259E+01 4.63803E+01 1.24325E+00
 -1      9932 7.37314E+01 4.72847E+01-1.28699E+00
 -1      9934 7.37314E+01 4.72847E+01 1.28699E+00
 -1      9935 7.47188E+01 4.72870E+01-1.30422E+00
 -1      9937 7.47188E+01 4.72870E+01 1.30422E+00
 -1      9938 7.31980E+01 4.63811E+01-1.27768E+00
 -1      9940 7.31980E+01 4.63811E+01 1.27768E+00
 -1      9941 7.57036E+01 4.72877E+01-1.32141E+00
 -1      9943 7.57036E+01 4.72877E+01 1.32141E+00
 -1      9944 7.66911E+01 4.72861E+01-1.33865E+00
 -1      9946 7.66911E+01 4.72861E+01 1.33865E+00
 -1      9947 7.51685E+01 4.63827E+01-1.31207E+00
 -1      9949 7.51685E+01 4.63827E+01 1.31207E+00
 -1      9950 7.76745E+01 4.72861E+01-1.35581E+00
 -1      9952 7.76745E+01 4.72861E+01 1.35581E+00
 -1      9953 7.86572E+01 4.72863E+01-1.37297E+00
 -1      9955 7.86572E+01 4.72863E+01 1.37297E+00
 -1      9956 7.71368E+01 4.63834E+01-1.34643E+00
 -1      9958 7.71368E+01 4.63834E+01 1.34643E+00
 -1      9959 7.96390E+01 4.72871E+01-1.39010E+00
 -1      9961 7.96390E+01 4.72871E+01 1.39010E+00
 -1      9962 8.06250E+01 4.72887E+01-1.40731E+00
 -1      9964 8.06250E+01 4.72887E+01 1.40731E+00
 -1      9965 7.91021E+01 4.63842E+01-1.38073E+00
 -1      9967 7.91021E+01 4.63842E+01 1.38073E+00
 -1      9968 8.16059E+01 4.72874E+01-1.42444E+00
 -1      9970 8.16059E+01 4.72874E+01 1.42444E+00
 -1      9971 8.25926E+01 4.72835E+01-1.44166E+00
 -1      9973 8.25926E+01 4.72835E+01 1.44166E+00
 -1      9974 8.10650E+01 4.63836E+01-1.41499E+00
 -1      9976 8.10650E+01 4.63836E+01 1.41499E+00
 -1      9977 8.35729E+01 4.72779E+01-1.45877E+00
 -1      9979 8.35729E+01 4.72779E+01 1.45877E+00
 -1      9980 8.45562E+01 4.72731E+01-1.47593E+00
 -1      9982 8.45562E+01 4.72731E+01 1.47593E+00
 -1      9983 8.30263E+01 4.63767E+01-1.44923E+00
 -1      9985 8.30263E+01 4.63767E+01 1.44923E+00
 -1      9986 8.55374E+01 4.72620E+01-1.49306E+00
 -1      9988 8.55374E+01 4.72620E+01 1.49306E+00
 -1      9989 8.65273E+01 4.72541E+01-1.51034E+00
 -1      9991 8.65273E+01 4.72541E+01 1.51034E+00
 -1      9992 8.49878E+01 4.63599E+01-1.48347E+00
 -1      9994 8.49878E+01 4.63599E+01 1.48347E+00
 -1      9995 8.75140E+01 4.72314E+01-1.52756E+00
 -1      9997 8.75140E+01 4.72314E+01 1.52756E+00
 -1      9998 8.85116E+01 4.72103E+01-1.54498E+00
 -1     10000 8.85116E+01 4.72103E+01 1.54498E+00
 -1     10001 8.69556E+01 4.63261E+01-1.51782E+00
 -1     10003 8.69556E+01 4.63261E+01 1.51782E+00
 -1     10004 8.95136E+01 4.71655E+01-1.56246E+00
 -1     10006 8.95136E+01 4.71655E+01 1.56246E+00
 -1     10007 9.05201E+01 4.71302E+01-1.58003E+00
 -1     10009 9.05201E+01 4.71302E+01 1.58003E+00
 -1     10010 8.89442E+01 4.62588E+01-1.55253E+00
 -1     10012 8.89442E+01 4.62588E+01 1.55253E+00
 -1     10013 9.15627E+01 4.70411E+01-1.59823E+00
 -1     10015 9.15627E+01 4.70411E+01 1.59823E+00
 -1     10016 9.25891E+01 4.69963E+01-1.61615E+00
 -1     10018 9.25891E+01 4.69963E+01 1.61615E+00
 -1     10019 9.09888E+01 4.61249E+01-1.58822E+00
 -1     10021 9.09888E+01 4.61249E+01 1.58822E+00
 -1     10022 9.37528E+01 4.68208E+01-1.63646E+00
 -1     10024 9.37528E+01 4.68208E+01 1.63646E+00
 -1     10025 9.47599E+01 4.68614E+01-1.65404E+00
 -1     10027 9.47599E+01 4.68614E+01 1.65404E+00
 -1     10028 9.31950E+01 4.58603E+01-1.62672E+00
 -1     10030 9.31950E+01 4.58603E+01 1.62672E+00
 -1     10031 4.72419E+01 2.59462E+00-8.24611E-01
 -1     10033 4.72419E+01 2.59462E+00 8.24611E-01
 -1     10034 4.62577E+01 2.59428E+00-8.07431E-01
 -1     10036 4.62577E+01 2.59428E+00 8.07431E-01
 -1     10037 4.77379E+01 3.45944E+00-8.33269E-01
 -1     10039 4.77379E+01 3.45944E+00 8.33269E-01
 -1     10040 9.72583E+01 3.60904E+00-1.69765E+00
 -1     10042 9.72583E+01 3.60904E+00 1.69765E+00
 -1     10043 2.76281E+01 3.45030E+01-4.82250E-01
 -1     10045 2.76281E+01 3.45030E+01 4.82250E-01
 -1     10046 2.85157E+01 3.50063E+01-4.97743E-01
 -1     10048 2.85157E+01 3.50063E+01 4.97743E-01
 -1     10049 2.76211E+01 3.34993E+01-4.82128E-01
 -1     10051 2.76211E+01 3.34993E+01 4.82128E-01
 -1     10052 9.67886E+01 4.73523E+01-1.68945E+00
 -1     10054 9.67886E+01 4.73523E+01 1.68945E+00
 -1     10055 2.76633E+01 4.47921E+01-4.82865E-01
 -1     10057 2.76633E+01 4.47921E+01 4.82865E-01
 -1     10058 2.85123E+01 4.54308E+01-4.97684E-01
 -1     10060 2.85123E+01 4.54308E+01 4.97684E-01
 -1     10061 2.76786E+01 4.37575E+01-4.83133E-01
 -1     10063 2.76786E+01 4.37575E+01 4.83133E-01
 -1     10064 2.84875E+01 3.29939E+01-4.97252E-01
 -1     10066 2.84875E+01 3.29939E+01 4.97252E-01
 -1     10067 2.75945E+01 2.94914E+01-4.81663E-01
 -1     10069 2.75945E+01 2.94914E+01 4.81663E-01
 -1     10070 2.75970E+01 3.04918E+01-4.81708E-01
 -1     10072 2.75970E+01 3.04918E+01 4.81708E-01
 -1     10073 2.75906E+01 2.54957E+01-4.81597E-01
 -1     10075 2.75906E+01 2.54957E+01 4.81597E-01
 -1     10076 2.75906E+01 2.64949E+01-4.81595E-01
 -1     10078 2.75906E+01 2.64949E+01 4.81595E-01
 -1     10079 2.75925E+01 2.15000E+01-4.81630E-01
 -1     10081 2.75925E+01 2.15000E+01 4.81630E-01
 -1     10082 2.75922E+01 2.24992E+01-4.81624E-01
 -1     10084 2.75922E+01 2.24992E+01 4.81624E-01
 -1     10085 2.75916E+01 1.75073E+01-4.81613E-01
 -1     10087 2.75916E+01 1.75073E+01 4.81613E-01
 -1     10088 2.75925E+01 1.85048E+01-4.81630E-01
 -1     10090 2.75925E+01 1.85048E+01 4.81630E-01
 -1     10091 2.75848E+01 1.35310E+01-4.81495E-01
 -1     10093 2.75848E+01 1.35310E+01 4.81495E-01
 -1     10094 2.75847E+01 1.45259E+01-4.81493E-01
 -1     10096 2.75847E+01 1.45259E+01 4.81493E-01
 -1     10097 2.76169E+01 9.57670E+00-4.82054E-01
 -1     10099 2.76169E+01 9.57670E+00 4.82054E-01
 -1     10100 2.76086E+01 1.05655E+01-4.81909E-01
 -1     10102 2.76086E+01 1.05655E+01 4.81909E-01
 -1     10103 2.76767E+01 5.66763E+00-4.83099E-01
 -1     10105 2.76767E+01 5.66763E+00 4.83099E-01
 -1     10106 2.76624E+01 6.64620E+00-4.82849E-01
 -1     10108 2.76624E+01 6.64620E+00 4.82849E-01
 -1     10109 9.71988E+01 4.50744E+00-1.69661E+00
 -1     10111 9.71988E+01 4.50744E+00 1.69661E+00
 -1     10112 2.96318E+01 2.80625E+00-5.17225E-01
 -1     10114 2.96318E+01 2.80625E+00 5.17225E-01
 -1     10115 9.63175E+01 5.03404E+00-1.68123E+00
 -1     10117 9.63175E+01 5.03404E+00 1.68123E+00
 -1     10118 2.84572E+01 2.29979E+01-4.96722E-01
 -1     10120 2.84572E+01 2.29979E+01 4.96722E-01
 -1     10121 2.84555E+01 2.69915E+01-4.96692E-01
 -1     10123 2.84555E+01 2.69915E+01 4.96692E-01
 -1     10124 4.52715E+01 2.59285E+00-7.90216E-01
 -1     10126 4.52715E+01 2.59285E+00 7.90216E-01
 -1     10127 4.42819E+01 2.59180E+00-7.72943E-01
 -1     10129 4.42819E+01 2.59180E+00 7.72943E-01
 -1     10130 2.84683E+01 3.09882E+01-4.96916E-01
 -1     10132 2.84683E+01 3.09882E+01 4.96916E-01
 -1     10133 5.11889E+01 2.59725E+00-8.93505E-01
 -1     10135 5.11889E+01 2.59725E+00 8.93505E-01
 -1     10136 5.02009E+01 2.59495E+00-8.76260E-01
 -1     10138 5.02009E+01 2.59495E+00 8.76260E-01
 -1     10139 5.51330E+01 2.59603E+00-9.62350E-01
 -1     10141 5.51330E+01 2.59603E+00 9.62350E-01
 -1     10142 5.41450E+01 2.59791E+00-9.45105E-01
 -1     10144 5.41450E+01 2.59791E+00 9.45105E-01
 -1     10145 5.90739E+01 2.59990E+00-1.03114E+00
 -1     10147 5.90739E+01 2.59990E+00 1.03114E+00
 -1     10148 5.80918E+01 2.59952E+00-1.01400E+00
 -1     10150 5.80918E+01 2.59952E+00 1.01400E+00
 -1     10151 6.30132E+01 2.59697E+00-1.09990E+00
 -1     10153 6.30132E+01 2.59697E+00 1.09990E+00
 -1     10154 6.20257E+01 2.59902E+00-1.08266E+00
 -1     10156 6.20257E+01 2.59902E+00 1.08266E+00
 -1     10157 6.69585E+01 2.59955E+00-1.16876E+00
 -1     10159 6.69585E+01 2.59955E+00 1.16876E+00
 -1     10160 6.59742E+01 2.59950E+00-1.15158E+00
 -1     10162 6.59742E+01 2.59950E+00 1.15158E+00
 -1     10163 7.09113E+01 2.60030E+00-1.23776E+00
 -1     10165 7.09113E+01 2.60030E+00 1.23776E+00
 -1     10166 6.99221E+01 2.59778E+00-1.22049E+00
 -1     10168 6.99221E+01 2.59778E+00 1.22049E+00
 -1     10169 7.48651E+01 2.60474E+00-1.30678E+00
 -1     10171 7.48651E+01 2.60474E+00 1.30678E+00
 -1     10172 7.38745E+01 2.60471E+00-1.28948E+00
 -1     10174 7.38745E+01 2.60471E+00 1.28948E+00
 -1     10175 7.88265E+01 2.62369E+00-1.37592E+00
 -1     10177 7.88265E+01 2.62369E+00 1.37592E+00
 -1     10178 7.78392E+01 2.62033E+00-1.35869E+00
 -1     10180 7.78392E+01 2.62033E+00 1.35869E+00
 -1     10181 8.27925E+01 2.63942E+00-1.44515E+00
 -1     10183 8.27925E+01 2.63942E+00 1.44515E+00
 -1     10184 8.18020E+01 2.63594E+00-1.42786E+00
 -1     10186 8.18020E+01 2.63594E+00 1.42786E+00
 -1     10187 8.67330E+01 2.60501E+00-1.51393E+00
 -1     10189 8.67330E+01 2.60501E+00 1.51393E+00
 -1     10190 8.57523E+01 2.62216E+00-1.49681E+00
 -1     10192 8.57523E+01 2.62216E+00 1.49681E+00
 -1     10193 9.05957E+01 2.45144E+00-1.58135E+00
 -1     10195 9.05957E+01 2.45144E+00 1.58135E+00
 -1     10196 8.96156E+01 2.46121E+00-1.56425E+00
 -1     10198 8.96156E+01 2.46121E+00 1.56425E+00
 -1     10199 9.45649E+01 2.69993E+00-1.65064E+00
 -1     10201 9.45649E+01 2.69993E+00 1.65064E+00
 -1     10202 9.35419E+01 2.63480E+00-1.63278E+00
 -1     10204 9.35419E+01 2.63480E+00 1.63278E+00
 -1     10205 2.85700E+01 4.32934E+01-4.98691E-01
 -1     10207 2.85700E+01 4.32934E+01 4.98691E-01
 -1     10208 4.97090E+01 3.46117E+00-8.67674E-01
 -1     10210 4.97090E+01 3.46117E+00 8.67674E-01
 -1     10211 9.64631E+01 7.18920E+00-1.68377E+00
 -1     10213 9.64631E+01 7.18920E+00 1.68377E+00
 -1     10214 9.73994E+01 1.25917E+01-1.70011E+00
 -1     10216 9.73994E+01 1.25917E+01 1.70011E+00
 -1     10217 9.74033E+01 1.16027E+01-1.70018E+00
 -1     10219 9.74033E+01 1.16027E+01 1.70018E+00
 -1     10220 9.73737E+01 1.65244E+01-1.69966E+00
 -1     10222 9.73737E+01 1.65244E+01 1.69966E+00
 -1     10223 9.73766E+01 1.55325E+01-1.69972E+00
 -1     10225 9.73766E+01 1.55325E+01 1.69972E+00
 -1     10226 9.73706E+01 2.04982E+01-1.69961E+00
 -1     10228 9.73706E+01 2.04982E+01 1.69961E+00
 -1     10229 9.73704E+01 1.95006E+01-1.69961E+00
 -1     10231 9.73704E+01 1.95006E+01 1.69961E+00
 -1     10232 9.73776E+01 2.44962E+01-1.69973E+00
 -1     10234 9.73776E+01 2.44962E+01 1.69973E+00
 -1     10235 9.73769E+01 2.34960E+01-1.69972E+00
 -1     10237 9.73769E+01 2.34960E+01 1.69972E+00
 -1     10238 9.73792E+01 2.84986E+01-1.69976E+00
 -1     10240 9.73792E+01 2.84986E+01 1.69976E+00
 -1     10241 9.73792E+01 2.74987E+01-1.69976E+00
 -1     10243 9.73792E+01 2.74987E+01 1.69976E+00
 -1     10244 9.73840E+01 3.24942E+01-1.69984E+00
 -1     10246 9.73840E+01 3.24942E+01 1.69984E+00
 -1     10247 9.73822E+01 3.14953E+01-1.69981E+00
 -1     10249 9.73822E+01 3.14953E+01 1.69981E+00
 -1     10250 9.74015E+01 3.64937E+01-1.70015E+00
 -1     10252 9.74015E+01 3.64937E+01 1.70015E+00
 -1     10253 9.73991E+01 3.54913E+01-1.70011E+00
 -1     10255 9.73991E+01 3.54913E+01 1.70011E+00
 -1     10256 9.73892E+01 4.05400E+01-1.69993E+00
 -1     10258 9.73892E+01 4.05400E+01 1.69993E+00
 -1     10259 9.73996E+01 3.95245E+01-1.70012E+00
 -1     10261 9.73996E+01 3.95245E+01 1.70012E+00
 -1     10262 9.73040E+01 4.46757E+01-1.69845E+00
 -1     10264 9.73040E+01 4.46757E+01 1.69845E+00
 -1     10265 9.72929E+01 4.36703E+01-1.69825E+00
 -1     10267 9.72929E+01 4.36703E+01 1.69825E+00
 -1     10268 2.85978E+01 5.22437E+00-4.99177E-01
 -1     10270 2.85978E+01 5.22437E+00 4.99177E-01
 -1     10271 2.85062E+01 9.11926E+00-4.97578E-01
 -1     10273 2.85062E+01 9.11926E+00 4.97578E-01
 -1     10274 2.84500E+01 1.30486E+01-4.96597E-01
 -1     10276 2.84500E+01 1.30486E+01 4.96597E-01
 -1     10277 4.57665E+01 3.45712E+00-7.98857E-01
 -1     10279 4.57665E+01 3.45712E+00 7.98857E-01
 -1     10280 9.58443E+01 4.72039E+01-1.67297E+00
 -1     10282 9.58443E+01 4.72039E+01 1.67297E+00
 -1     10283 9.64541E+01 4.53134E+01-1.68361E+00
 -1     10285 9.64541E+01 4.53134E+01 1.68361E+00
 -1     10286 9.65056E+01 4.10749E+01-1.68451E+00
 -1     10288 9.65056E+01 4.10749E+01 1.68451E+00
 -1     10289 9.65452E+01 3.69927E+01-1.68520E+00
 -1     10291 9.65452E+01 3.69927E+01 1.68520E+00
 -1     10292 9.65202E+01 3.29908E+01-1.68477E+00
 -1     10294 9.65202E+01 3.29908E+01 1.68477E+00
 -1     10295 9.65104E+01 2.89981E+01-1.68459E+00
 -1     10297 9.65104E+01 2.89981E+01 1.68459E+00
 -1     10298 9.65093E+01 2.49957E+01-1.68458E+00
 -1     10300 9.65093E+01 2.49957E+01 1.68458E+00
 -1     10301 9.51036E+01 3.72452E+00-1.66004E+00
 -1     10303 9.51036E+01 3.72452E+00 1.66004E+00
 -1     10304 9.10459E+01 3.27451E+00-1.58921E+00
 -1     10306 9.10459E+01 3.27451E+00 1.58921E+00
 -1     10307 8.72325E+01 3.45221E+00-1.52265E+00
 -1     10309 8.72325E+01 3.45221E+00 1.52265E+00
 -1     10310 9.65271E+01 1.31024E+01-1.68489E+00
 -1     10312 9.65271E+01 1.31024E+01 1.68489E+00
 -1     10313 8.33029E+01 3.52012E+00-1.45406E+00
 -1     10315 8.33029E+01 3.52012E+00 1.45406E+00
 -1     10316 7.93319E+01 3.50126E+00-1.38474E+00
 -1     10318 7.93319E+01 3.50126E+00 1.38474E+00
 -1     10319 7.53639E+01 3.47728E+00-1.31548E+00
 -1     10321 7.53639E+01 3.47728E+00 1.31548E+00
 -1     10322 7.14049E+01 3.46731E+00-1.24638E+00
 -1     10324 7.14049E+01 3.46731E+00 1.24638E+00
 -1     10325 9.64263E+01 4.31861E+01-1.68313E+00
 -1     10327 9.64263E+01 4.31861E+01 1.68313E+00
 -1     10328 9.65451E+01 3.90160E+01-1.68520E+00
 -1     10330 9.65451E+01 3.90160E+01 1.68520E+00
 -1     10331 9.65326E+01 3.49881E+01-1.68498E+00
 -1     10333 9.65326E+01 3.49881E+01 1.68498E+00
 -1     10334 9.65125E+01 3.09955E+01-1.68463E+00
 -1     10336 9.65125E+01 3.09955E+01 1.68463E+00
 -1     10337 2.84558E+01 1.70131E+01-4.96698E-01
 -1     10339 2.84558E+01 1.70131E+01 4.96698E-01
 -1     10340 9.65103E+01 2.69978E+01-1.68459E+00
 -1     10342 9.65103E+01 2.69978E+01 1.68459E+00
 -1     10343 9.65058E+01 2.29939E+01-1.68451E+00
 -1     10345 9.65058E+01 2.29939E+01 1.68451E+00
 -1     10346 9.65474E+01 1.11560E+01-1.68524E+00
 -1     10348 9.65474E+01 1.11560E+01 1.68524E+00
 -1     10349 9.29939E+01 3.42219E+00-1.62321E+00
 -1     10351 9.29939E+01 3.42219E+00 1.62321E+00
 -1     10352 8.91409E+01 3.33429E+00-1.55596E+00
 -1     10354 8.91409E+01 3.33429E+00 1.55596E+00
 -1     10355 8.52805E+01 3.50728E+00-1.48858E+00
 -1     10357 8.52805E+01 3.50728E+00 1.48858E+00
 -1     10358 8.13170E+01 3.51293E+00-1.41939E+00
 -1     10360 8.13170E+01 3.51293E+00 1.41939E+00
 -1     10361 7.73476E+01 3.48854E+00-1.35011E+00
 -1     10363 7.73476E+01 3.48854E+00 1.35011E+00
 -1     10364 7.33828E+01 3.47086E+00-1.28090E+00
 -1     10366 7.33828E+01 3.47086E+00 1.28090E+00
 -1     10367 6.94285E+01 3.46500E+00-1.21188E+00
 -1     10369 6.94285E+01 3.46500E+00 1.21188E+00
 -1     10370 6.54800E+01 3.46484E+00-1.14296E+00
 -1     10372 6.54800E+01 3.46484E+00 1.14296E+00
 -1     10373 6.15358E+01 3.46522E+00-1.07411E+00
 -1     10375 6.15358E+01 3.46522E+00 1.07411E+00
 -1     10376 5.75965E+01 3.46466E+00-1.00535E+00
 -1     10378 5.75965E+01 3.46466E+00 1.00535E+00
 -1     10379 4.37904E+01 3.45862E+00-7.64365E-01
 -1     10381 4.37904E+01 3.45862E+00 7.64365E-01
 -1     10382 2.85425E+01 7.17407E+00-4.98212E-01
 -1     10384 2.85425E+01 7.17407E+00 4.98212E-01
 -1     10385 2.84693E+01 1.10770E+01-4.96933E-01
 -1     10387 2.84693E+01 1.10770E+01 4.96933E-01
 -1     10388 2.84502E+01 1.50285E+01-4.96600E-01
 -1     10390 2.84502E+01 1.50285E+01 4.96600E-01
 -1     10391 2.84584E+01 1.90046E+01-4.96744E-01
 -1     10393 2.84584E+01 1.90046E+01 4.96744E-01
 -1     10394 2.84584E+01 2.10009E+01-4.96742E-01
 -1     10396 2.84584E+01 2.10009E+01 4.96742E-01
 -1     10397 2.84559E+01 2.49950E+01-4.96699E-01
 -1     10399 2.84559E+01 2.49950E+01 4.96699E-01
 -1     10400 2.84585E+01 2.89881E+01-4.96746E-01
 -1     10402 2.84585E+01 2.89881E+01 4.96746E-01
 -1     10403 6.74537E+01 3.46500E+00-1.17741E+00
 -1     10405 6.74537E+01 3.46500E+00 1.17741E+00
 -1     10406 6.35072E+01 3.46433E+00-1.10852E+00
 -1     10408 6.35072E+01 3.46433E+00 1.10852E+00
 -1     10409 5.95661E+01 3.46587E+00-1.03973E+00
 -1     10411 5.95661E+01 3.46587E+00 1.03973E+00
 -1     10412 5.56253E+01 3.46332E+00-9.70943E-01
 -1     10414 5.56253E+01 3.46332E+00 9.70943E-01
 -1     10415 9.54430E+01 4.60274E+01-1.66596E+00
 -1     10417 9.54430E+01 4.60274E+01 1.66596E+00
 -1     10418 5.16809E+01 3.46292E+00-9.02093E-01
 -1     10420 5.16809E+01 3.46292E+00 9.02093E-01
 -1     10421 5.36531E+01 3.46344E+00-9.36518E-01
 -1     10423 5.36531E+01 3.46344E+00 9.36518E-01
 -1     10424 9.65005E+01 2.09954E+01-1.68442E+00
 -1     10426 9.65005E+01 2.09954E+01 1.68442E+00
 -1     10427 9.65000E+01 1.70225E+01-1.68441E+00
 -1     10429 9.65000E+01 1.70225E+01 1.68441E+00
 -1     10430 9.65090E+01 1.50548E+01-1.68457E+00
 -1     10432 9.65090E+01 1.50548E+01 1.68457E+00
 -1     10433 9.64976E+01 1.90040E+01-1.68437E+00
 -1     10435 9.64976E+01 1.90040E+01 1.68437E+00
 -1     10436 5.02030E+01 4.32775E+00-8.76296E-01
 -1     10438 5.02030E+01 4.32775E+00 8.76296E-01
 -1     10439 4.92172E+01 4.32691E+00-8.59089E-01
 -1     10441 4.92172E+01 4.32691E+00 8.59089E-01
 -1     10442 9.53697E+01 4.49709E+01-1.66469E+00
 -1     10444 9.53697E+01 4.49709E+01 1.66469E+00
 -1     10445 6.79471E+01 4.33098E+00-1.18602E+00
 -1     10447 6.79471E+01 4.33098E+00 1.18602E+00
 -1     10448 6.69601E+01 4.33144E+00-1.16879E+00
 -1     10450 6.69601E+01 4.33144E+00 1.16879E+00
 -1     10451 2.94491E+01 6.73755E+00-5.14035E-01
 -1     10453 2.94491E+01 6.73755E+00 5.14035E-01
 -1     10454 2.94336E+01 7.70756E+00-5.13765E-01
 -1     10456 2.94336E+01 7.70756E+00 5.13765E-01
 -1     10457 2.93207E+01 2.84807E+01-5.11795E-01
 -1     10459 2.93207E+01 2.84807E+01 5.11795E-01
 -1     10460 2.93236E+01 2.94793E+01-5.11846E-01
 -1     10462 2.93236E+01 2.94793E+01 5.11846E-01
 -1     10463 2.93209E+01 2.44937E+01-5.11798E-01
 -1     10465 2.93209E+01 2.44937E+01 5.11798E-01
 -1     10466 2.93203E+01 2.54922E+01-5.11788E-01
 -1     10468 2.93203E+01 2.54922E+01 5.11788E-01
 -1     10469 2.93243E+01 2.05013E+01-5.11857E-01
 -1     10471 2.93243E+01 2.05013E+01 5.11857E-01
 -1     10472 2.93239E+01 2.14999E+01-5.11851E-01
 -1     10474 2.93239E+01 2.14999E+01 5.11851E-01
 -1     10475 9.56412E+01 2.74983E+01-1.66942E+00
 -1     10477 9.56412E+01 2.74983E+01 1.66942E+00
 -1     10478 9.56410E+01 2.64974E+01-1.66942E+00
 -1     10480 9.56410E+01 2.64974E+01 1.66942E+00
 -1     10481 4.62654E+01 4.32104E+00-8.07565E-01
 -1     10483 4.62654E+01 4.32104E+00 8.07565E-01
 -1     10484 4.52792E+01 4.31962E+00-7.90351E-01
 -1     10486 4.52792E+01 4.31962E+00 7.90351E-01
 -1     10487 2.93136E+01 1.45362E+01-5.11670E-01
 -1     10489 2.93136E+01 1.45362E+01 5.11670E-01
 -1     10490 2.93169E+01 1.55271E+01-5.11728E-01
 -1     10492 2.93169E+01 1.55271E+01 5.11728E-01
 -1     10493 2.93364E+01 1.06061E+01-5.12069E-01
 -1     10495 2.93364E+01 1.06061E+01 5.12069E-01
 -1     10496 2.93203E+01 1.15887E+01-5.11788E-01
 -1     10498 2.93203E+01 1.15887E+01 5.11788E-01
 -1     10499 2.94025E+01 8.66007E+00-5.13222E-01
 -1     10501 2.94025E+01 8.66007E+00 5.13222E-01
 -1     10502 2.93817E+01 9.63524E+00-5.12859E-01
 -1     10504 2.93817E+01 9.63524E+00 5.12859E-01
 -1     10505 3.02327E+01 1.01470E+01-5.27713E-01
 -1     10507 3.02327E+01 1.01470E+01 5.27713E-01
 -1     10508 3.03090E+01 8.22355E+00-5.29045E-01
 -1     10510 3.03090E+01 8.22355E+00 5.29045E-01
 -1     10511 2.93230E+01 2.24983E+01-5.11835E-01
 -1     10513 2.93230E+01 2.24983E+01 5.11835E-01
 -1     10514 2.93222E+01 2.34967E+01-5.11822E-01
 -1     10516 2.93222E+01 2.34967E+01 5.11822E-01
 -1     10517 3.01867E+01 2.39940E+01-5.26911E-01
 -1     10519 3.01867E+01 2.39940E+01 5.26911E-01
 -1     10520 3.01890E+01 2.19986E+01-5.26950E-01
 -1     10522 3.01890E+01 2.19986E+01 5.26950E-01
 -1     10523 2.94606E+01 3.85616E+01-5.14237E-01
 -1     10525 2.94606E+01 3.85616E+01 5.14237E-01
 -1     10526 2.94696E+01 3.95941E+01-5.14393E-01
 -1     10528 2.94696E+01 3.95941E+01 5.14393E-01
 -1     10529 2.93300E+01 3.04771E+01-5.11956E-01
 -1     10531 2.93300E+01 3.04771E+01 5.11956E-01
 -1     10532 2.93368E+01 3.14786E+01-5.12076E-01
 -1     10534 2.93368E+01 3.14786E+01 5.12076E-01
 -1     10535 3.01921E+01 2.99697E+01-5.27006E-01
 -1     10537 3.01921E+01 2.99697E+01 5.27006E-01
 -1     10538 9.56280E+01 2.14888E+01-1.66919E+00
 -1     10540 9.56280E+01 2.14888E+01 1.66919E+00
 -1     10541 9.56254E+01 2.04909E+01-1.66915E+00
 -1     10543 9.56254E+01 2.04909E+01 1.66915E+00
 -1     10544 5.41463E+01 4.32915E+00-9.45128E-01
 -1     10546 5.41463E+01 4.32915E+00 9.45128E-01
 -1     10547 5.31602E+01 4.32954E+00-9.27914E-01
 -1     10549 5.31602E+01 4.32954E+00 9.27914E-01
 -1     10550 4.42947E+01 4.31737E+00-7.73167E-01
 -1     10552 4.42947E+01 4.31737E+00 7.73167E-01
 -1     10553 4.33049E+01 4.32030E+00-7.55890E-01
 -1     10555 4.33049E+01 4.32030E+00 7.55890E-01
 -1     10556 4.47936E+01 5.18130E+00-7.81875E-01
 -1     10558 4.47936E+01 5.18130E+00 7.81875E-01
 -1     10559 5.80888E+01 4.33135E+00-1.01394E+00
 -1     10561 5.80888E+01 4.33135E+00 1.01394E+00
 -1     10562 5.71036E+01 4.33029E+00-9.96747E-01
 -1     10564 5.71036E+01 4.33029E+00 9.96747E-01
 -1     10565 6.20288E+01 4.33124E+00-1.08272E+00
 -1     10567 6.20288E+01 4.33124E+00 1.08272E+00
 -1     10568 6.10435E+01 4.33203E+00-1.06552E+00
 -1     10570 6.10435E+01 4.33203E+00 1.06552E+00
 -1     10571 6.59733E+01 4.33145E+00-1.15157E+00
 -1     10573 6.59733E+01 4.33145E+00 1.15157E+00
 -1     10574 6.49866E+01 4.33083E+00-1.13435E+00
 -1     10576 6.49866E+01 4.33083E+00 1.13435E+00
 -1     10577 6.64667E+01 5.19743E+00-1.16018E+00
 -1     10579 6.64667E+01 5.19743E+00 1.16018E+00
 -1     10580 7.18995E+01 4.33461E+00-1.25501E+00
 -1     10582 7.18995E+01 4.33461E+00 1.25501E+00
 -1     10583 7.09108E+01 4.33276E+00-1.23775E+00
 -1     10585 7.09108E+01 4.33276E+00 1.23775E+00
 -1     10586 7.58625E+01 4.34821E+00-1.32418E+00
 -1     10588 7.58625E+01 4.34821E+00 1.32418E+00
 -1     10589 7.48706E+01 4.34349E+00-1.30687E+00
 -1     10591 7.48706E+01 4.34349E+00 1.30687E+00
 -1     10592 7.98384E+01 4.38126E+00-1.39358E+00
 -1     10594 7.98384E+01 4.38126E+00 1.39358E+00
 -1     10595 7.88459E+01 4.37509E+00-1.37626E+00
 -1     10597 7.88459E+01 4.37509E+00 1.37626E+00
 -1     10598 9.56454E+01 1.36029E+01-1.66950E+00
 -1     10600 9.56454E+01 1.36029E+01 1.66950E+00
 -1     10601 9.56574E+01 1.26302E+01-1.66971E+00
 -1     10603 9.56574E+01 1.26302E+01 1.66971E+00
 -1     10604 8.58106E+01 4.39182E+00-1.49783E+00
 -1     10606 8.58106E+01 4.39182E+00 1.49783E+00
 -1     10607 8.48264E+01 4.40634E+00-1.48065E+00
 -1     10609 8.48264E+01 4.40634E+00 1.48065E+00
 -1     10610 8.96737E+01 4.15727E+00-1.56526E+00
 -1     10612 8.96737E+01 4.15727E+00 1.56526E+00
 -1     10613 8.87330E+01 4.23464E+00-1.54884E+00
 -1     10615 8.87330E+01 4.23464E+00 1.54884E+00
 -1     10616 2.94358E+01 4.27991E+01-5.13804E-01
 -1     10618 2.94358E+01 4.27991E+01 5.13804E-01
 -1     10619 2.94355E+01 4.38782E+01-5.13798E-01
 -1     10621 2.94355E+01 4.38782E+01 5.13798E-01
 -1     10622 2.96297E+01 3.77231E+00-5.17188E-01
 -1     10624 2.96297E+01 3.77231E+00 5.17188E-01
 -1     10625 9.57125E+01 9.76529E+00-1.67067E+00
 -1     10627 9.57125E+01 9.76529E+00 1.67067E+00
 -1     10628 9.56949E+01 8.77768E+00-1.67036E+00
 -1     10630 9.56949E+01 8.77768E+00 1.67036E+00
 -1     10631 8.38238E+01 4.40866E+00-1.46315E+00
 -1     10633 8.38238E+01 4.40866E+00 1.46315E+00
 -1     10634 8.28305E+01 4.40698E+00-1.44581E+00
 -1     10636 8.28305E+01 4.40698E+00 1.44581E+00
 -1     10637 8.43539E+01 5.29321E+00-1.47240E+00
 -1     10639 8.43539E+01 5.29321E+00 1.47240E+00
 -1     10640 9.56211E+01 1.94950E+01-1.66907E+00
 -1     10642 9.56211E+01 1.94950E+01 1.66907E+00
 -1     10643 9.56208E+01 1.85014E+01-1.66907E+00
 -1     10645 9.56208E+01 1.85014E+01 1.66907E+00
 -1     10646 9.47486E+01 1.99883E+01-1.65384E+00
 -1     10648 9.47486E+01 1.99883E+01 1.65384E+00
 -1     10649 9.56205E+01 1.75130E+01-1.66906E+00
 -1     10651 9.56205E+01 1.75130E+01 1.66906E+00
 -1     10652 9.56233E+01 1.65250E+01-1.66911E+00
 -1     10654 9.56233E+01 1.65250E+01 1.66911E+00
 -1     10655 9.47440E+01 1.80039E+01-1.65376E+00
 -1     10657 9.47440E+01 1.80039E+01 1.65376E+00
 -1     10658 9.56843E+01 1.16848E+01-1.67018E+00
 -1     10660 9.56843E+01 1.16848E+01 1.67018E+00
 -1     10661 9.56927E+01 1.07111E+01-1.67032E+00
 -1     10663 9.56927E+01 1.07111E+01 1.67032E+00
 -1     10664 9.48027E+01 1.21854E+01-1.65479E+00
 -1     10666 9.48027E+01 1.21854E+01 1.65479E+00
 -1     10667 9.53762E+01 4.68340E+00-1.66480E+00
 -1     10669 9.53762E+01 4.68340E+00 1.66480E+00
 -1     10670 9.42502E+01 4.51115E+00-1.64514E+00
 -1     10672 9.42502E+01 4.51115E+00 1.64514E+00
 -1     10673 9.54642E+01 5.82068E+00-1.66633E+00
 -1     10675 9.54642E+01 5.82068E+00 1.66633E+00
 -1     10676 9.56412E+01 2.54948E+01-1.66942E+00
 -1     10678 9.56412E+01 2.54948E+01 1.66942E+00
 -1     10679 9.56403E+01 2.44936E+01-1.66941E+00
 -1     10681 9.56403E+01 2.44936E+01 1.66941E+00
 -1     10682 9.47720E+01 2.59953E+01-1.65425E+00
 -1     10684 9.47720E+01 2.59953E+01 1.65425E+00
 -1     10685 2.93217E+01 1.65157E+01-5.11813E-01
 -1     10687 2.93217E+01 1.65157E+01 5.11813E-01
 -1     10688 2.93241E+01 1.75095E+01-5.11854E-01
 -1     10690 2.93241E+01 1.75095E+01 5.11854E-01
 -1     10691 3.01851E+01 1.60235E+01-5.26883E-01
 -1     10693 3.01851E+01 1.60235E+01 5.26883E-01
 -1     10694 9.56414E+01 3.14953E+01-1.66943E+00
 -1     10696 9.56414E+01 3.14953E+01 1.66943E+00
 -1     10697 9.56391E+01 3.04973E+01-1.66939E+00
 -1     10699 9.56391E+01 3.04973E+01 1.66939E+00
 -1     10700 9.56730E+01 3.54820E+01-1.66998E+00
 -1     10702 9.56730E+01 3.54820E+01 1.66998E+00
 -1     10703 9.56659E+01 3.44821E+01-1.66986E+00
 -1     10705 9.56659E+01 3.44821E+01 1.66986E+00
 -1     10706 9.57013E+01 3.95072E+01-1.67047E+00
 -1     10708 9.57013E+01 3.95072E+01 1.67047E+00
 -1     10709 9.57069E+01 3.84887E+01-1.67057E+00
 -1     10711 9.57069E+01 3.84887E+01 1.67057E+00
 -1     10712 2.94797E+01 4.80347E+00-5.14571E-01
 -1     10714 2.94797E+01 4.80347E+00 5.14571E-01
 -1     10715 2.94399E+01 5.78315E+00-5.13876E-01
 -1     10717 2.94399E+01 5.78315E+00 5.13876E-01
 -1     10718 3.03310E+01 6.31665E+00-5.29429E-01
 -1     10720 3.03310E+01 6.31665E+00 5.29429E-01
 -1     10721 3.04718E+01 4.33109E+00-5.31888E-01
 -1     10723 3.04718E+01 4.33109E+00 5.31888E-01
 -1     10724 2.93508E+01 3.24797E+01-5.12319E-01
 -1     10726 2.93508E+01 3.24797E+01 5.12319E-01
 -1     10727 2.93631E+01 3.34840E+01-5.12536E-01
 -1     10729 2.93631E+01 3.34840E+01 5.12536E-01
 -1     10730 3.02124E+01 3.19686E+01-5.27360E-01
 -1     10732 3.02124E+01 3.19686E+01 5.27360E-01
 -1     10733 2.94818E+01 4.06634E+01-5.14607E-01
 -1     10735 2.94818E+01 4.06634E+01 5.14607E-01
 -1     10736 2.94785E+01 4.17144E+01-5.14549E-01
 -1     10738 2.94785E+01 4.17144E+01 5.14549E-01
 -1     10739 3.03440E+01 4.22992E+01-5.29656E-01
 -1     10741 3.03440E+01 4.22992E+01 5.29656E-01
 -1     10742 3.03744E+01 4.01452E+01-5.30187E-01
 -1     10744 3.03744E+01 4.01452E+01 5.30187E-01
 -1     10745 2.95164E+01 4.51273E+01-5.15210E-01
 -1     10747 2.95164E+01 4.51273E+01 5.15210E-01
 -1     10748 3.11549E+01 4.51709E+01-5.43811E-01
 -1     10750 3.11549E+01 4.51709E+01 5.43811E-01
 -1     10751 3.22666E+01 4.53483E+01-5.63216E-01
 -1     10753 3.22666E+01 4.53483E+01 5.63216E-01
 -1     10754 3.31665E+01 4.53265E+01-5.78924E-01
 -1     10756 3.31665E+01 4.53265E+01 5.78924E-01
 -1     10757 3.41652E+01 4.53518E+01-5.96355E-01
 -1     10759 3.41652E+01 4.53518E+01 5.96355E-01
 -1     10760 3.27467E+01 4.44380E+01-5.71595E-01
 -1     10762 3.27467E+01 4.44380E+01 5.71595E-01
 -1     10763 3.51514E+01 4.53881E+01-6.13571E-01
 -1     10765 3.51514E+01 4.53881E+01 6.13571E-01
 -1     10766 3.61440E+01 4.54078E+01-6.30895E-01
 -1     10768 3.61440E+01 4.54078E+01 6.30895E-01
 -1     10769 3.46329E+01 4.44524E+01-6.04519E-01
 -1     10771 3.46329E+01 4.44524E+01 6.04519E-01
 -1     10772 3.71332E+01 4.54289E+01-6.48163E-01
 -1     10774 3.71332E+01 4.54289E+01 6.48163E-01
 -1     10775 3.81246E+01 4.54416E+01-6.65467E-01
 -1     10777 3.81246E+01 4.54416E+01 6.65467E-01
 -1     10778 3.66084E+01 4.45098E+01-6.39003E-01
 -1     10780 3.66084E+01 4.45098E+01 6.39003E-01
 -1     10781 3.91176E+01 4.54591E+01-6.82800E-01
 -1     10783 3.91176E+01 4.54591E+01 6.82800E-01
 -1     10784 4.01087E+01 4.54674E+01-7.00101E-01
 -1     10786 4.01087E+01 4.54674E+01 7.00101E-01
 -1     10787 3.85907E+01 4.45485E+01-6.73604E-01
 -1     10789 3.85907E+01 4.45485E+01 6.73604E-01
 -1     10790 4.11023E+01 4.54797E+01-7.17444E-01
 -1     10792 4.11023E+01 4.54797E+01 7.17444E-01
 -1     10793 4.20928E+01 4.54857E+01-7.34732E-01
 -1     10795 4.20928E+01 4.54857E+01 7.34732E-01
 -1     10796 4.05773E+01 4.45783E+01-7.08279E-01
 -1     10798 4.05773E+01 4.45783E+01 7.08279E-01
 -1     10799 4.30849E+01 4.54923E+01-7.52051E-01
 -1     10801 4.30849E+01 4.54923E+01 7.52051E-01
 -1     10802 4.40746E+01 4.54948E+01-7.69326E-01
 -1     10804 4.40746E+01 4.54948E+01 7.69326E-01
 -1     10805 4.25631E+01 4.45971E+01-7.42941E-01
 -1     10807 4.25631E+01 4.45971E+01 7.42941E-01
 -1     10808 4.50647E+01 4.54964E+01-7.86607E-01
 -1     10810 4.50647E+01 4.54964E+01 7.86607E-01
 -1     10811 4.60531E+01 4.54961E+01-8.03859E-01
 -1     10813 4.60531E+01 4.54961E+01 8.03859E-01
 -1     10814 4.45453E+01 4.46052E+01-7.77541E-01
 -1     10816 4.45453E+01 4.46052E+01 7.77541E-01
 -1     10817 4.70411E+01 4.54949E+01-8.21105E-01
 -1     10819 4.70411E+01 4.54949E+01 8.21105E-01
 -1     10820 4.80283E+01 4.54945E+01-8.38337E-01
 -1     10822 4.80283E+01 4.54945E+01 8.38337E-01
 -1     10823 4.65234E+01 4.46054E+01-8.12068E-01
 -1     10825 4.65234E+01 4.46054E+01 8.12068E-01
 -1     10826 4.90149E+01 4.54924E+01-8.55559E-01
 -1     10828 4.90149E+01 4.54924E+01 8.55559E-01
 -1     10829 5.00017E+01 4.54913E+01-8.72783E-01
 -1     10831 5.00017E+01 4.54913E+01 8.72783E-01
 -1     10832 4.84980E+01 4.46020E+01-8.46536E-01
 -1     10834 4.84980E+01 4.46020E+01 8.46536E-01
 -1     10835 5.09876E+01 4.54892E+01-8.89993E-01
 -1     10837 5.09876E+01 4.54892E+01 8.89993E-01
 -1     10838 5.19740E+01 4.54876E+01-9.07209E-01
 -1     10840 5.19740E+01 4.54876E+01 9.07209E-01
 -1     10841 5.04705E+01 4.45977E+01-8.80966E-01
 -1     10843 5.04705E+01 4.45977E+01 8.80966E-01
 -1     10844 5.29597E+01 4.54862E+01-9.24415E-01
 -1     10846 5.29597E+01 4.54862E+01 9.24415E-01
 -1     10847 5.39456E+01 4.54861E+01-9.41625E-01
 -1     10849 5.39456E+01 4.54861E+01 9.41625E-01
 -1     10850 5.24422E+01 4.45941E+01-9.15382E-01
 -1     10852 5.24422E+01 4.45941E+01 9.15382E-01
 -1     10853 5.49312E+01 4.54854E+01-9.58827E-01
 -1     10855 5.49312E+01 4.54854E+01 9.58827E-01
 -1     10856 5.59171E+01 4.54850E+01-9.76036E-01
 -1     10858 5.59171E+01 4.54850E+01 9.76036E-01
 -1     10859 5.44134E+01 4.45920E+01-9.49790E-01
 -1     10861 5.44134E+01 4.45920E+01 9.49790E-01
 -1     10862 5.69025E+01 4.54844E+01-9.93236E-01
 -1     10864 5.69025E+01 4.54844E+01 9.93236E-01
 -1     10865 5.78878E+01 4.54834E+01-1.01044E+00
 -1     10867 5.78878E+01 4.54834E+01 1.01044E+00
 -1     10868 5.63843E+01 4.45907E+01-9.84192E-01
 -1     10870 5.63843E+01 4.45907E+01 9.84192E-01
 -1     10871 5.88731E+01 4.54831E+01-1.02763E+00
 -1     10873 5.88731E+01 4.54831E+01 1.02763E+00
 -1     10874 5.98576E+01 4.54830E+01-1.04482E+00
 -1     10876 5.98576E+01 4.54830E+01 1.04482E+00
 -1     10877 5.83550E+01 4.45898E+01-1.01859E+00
 -1     10879 5.83550E+01 4.45898E+01 1.01859E+00
 -1     10880 6.08432E+01 4.54833E+01-1.06202E+00
 -1     10882 6.08432E+01 4.54833E+01 1.06202E+00
 -1     10883 6.18285E+01 4.54842E+01-1.07922E+00
 -1     10885 6.18285E+01 4.54842E+01 1.07922E+00
 -1     10886 6.03259E+01 4.45897E+01-1.05299E+00
 -1     10888 6.03259E+01 4.45897E+01 1.05299E+00
 -1     10889 6.28146E+01 4.54846E+01-1.09643E+00
 -1     10891 6.28146E+01 4.54846E+01 1.09643E+00
 -1     10892 6.38009E+01 4.54849E+01-1.11365E+00
 -1     10894 6.38009E+01 4.54849E+01 1.11365E+00
 -1     10895 6.22974E+01 4.45905E+01-1.08740E+00
 -1     10897 6.22974E+01 4.45905E+01 1.08740E+00
 -1     10898 6.47875E+01 4.54852E+01-1.13087E+00
 -1     10900 6.47875E+01 4.54852E+01 1.13087E+00
 -1     10901 6.57742E+01 4.54848E+01-1.14809E+00
 -1     10903 6.57742E+01 4.54848E+01 1.14809E+00
 -1     10904 6.42700E+01 4.45912E+01-1.12184E+00
 -1     10906 6.42700E+01 4.45912E+01 1.12184E+00
 -1     10907 6.67612E+01 4.54851E+01-1.16532E+00
 -1     10909 6.67612E+01 4.54851E+01 1.16532E+00
 -1     10910 6.77480E+01 4.54859E+01-1.18255E+00
 -1     10912 6.77480E+01 4.54859E+01 1.18255E+00
 -1     10913 6.62434E+01 4.45917E+01-1.15628E+00
 -1     10915 6.62434E+01 4.45917E+01 1.15628E+00
 -1     10916 6.87348E+01 4.54864E+01-1.19977E+00
 -1     10918 6.87348E+01 4.54864E+01 1.19977E+00
 -1     10919 6.97217E+01 4.54868E+01-1.21700E+00
 -1     10921 6.97217E+01 4.54868E+01 1.21700E+00
 -1     10922 6.82172E+01 4.45926E+01-1.19073E+00
 -1     10924 6.82172E+01 4.45926E+01 1.19073E+00
 -1     10925 7.07081E+01 4.54872E+01-1.23421E+00
 -1     10927 7.07081E+01 4.54872E+01 1.23421E+00
 -1     10928 7.16945E+01 4.54870E+01-1.25143E+00
 -1     10930 7.16945E+01 4.54870E+01 1.25143E+00
 -1     10931 7.01903E+01 4.45936E+01-1.22518E+00
 -1     10933 7.01903E+01 4.45936E+01 1.22518E+00
 -1     10934 7.26801E+01 4.54876E+01-1.26864E+00
 -1     10936 7.26801E+01 4.54876E+01 1.26864E+00
 -1     10937 7.36657E+01 4.54886E+01-1.28584E+00
 -1     10939 7.36657E+01 4.54886E+01 1.28584E+00
 -1     10940 7.21623E+01 4.45946E+01-1.25960E+00
 -1     10942 7.21623E+01 4.45946E+01 1.25960E+00
 -1     10943 7.46499E+01 4.54894E+01-1.30302E+00
 -1     10945 7.46499E+01 4.54894E+01 1.30302E+00
 -1     10946 7.56348E+01 4.54900E+01-1.32021E+00
 -1     10948 7.56348E+01 4.54900E+01 1.32021E+00
 -1     10949 7.41320E+01 4.45959E+01-1.29398E+00
 -1     10951 7.41320E+01 4.45959E+01 1.29398E+00
 -1     10952 7.66168E+01 4.54908E+01-1.33735E+00
 -1     10954 7.66168E+01 4.54908E+01 1.33735E+00
 -1     10955 7.76003E+01 4.54908E+01-1.35452E+00
 -1     10957 7.76003E+01 4.54908E+01 1.35452E+00
 -1     10958 7.60983E+01 4.45974E+01-1.32830E+00
 -1     10960 7.60983E+01 4.45974E+01 1.32830E+00
 -1     10961 7.85796E+01 4.54916E+01-1.37161E+00
 -1     10963 7.85796E+01 4.54916E+01 1.37161E+00
 -1     10964 7.95614E+01 4.54924E+01-1.38875E+00
 -1     10966 7.95614E+01 4.54924E+01 1.38875E+00
 -1     10967 7.80596E+01 4.45990E+01-1.36254E+00
 -1     10969 7.80596E+01 4.45990E+01 1.36254E+00
 -1     10970 8.05374E+01 4.54926E+01-1.40579E+00
 -1     10972 8.05374E+01 4.54926E+01 1.40579E+00
 -1     10973 8.15184E+01 4.54913E+01-1.42291E+00
 -1     10975 8.15184E+01 4.54913E+01 1.42291E+00
 -1     10976 8.00148E+01 4.46001E+01-1.39666E+00
 -1     10978 8.00148E+01 4.46001E+01 1.39666E+00
 -1     10979 8.24913E+01 4.54879E+01-1.43989E+00
 -1     10981 8.24913E+01 4.54879E+01 1.43989E+00
 -1     10982 8.34716E+01 4.54823E+01-1.45700E+00
 -1     10984 8.34716E+01 4.54823E+01 1.45700E+00
 -1     10985 8.19638E+01 4.45969E+01-1.43068E+00
 -1     10987 8.19638E+01 4.45969E+01 1.43068E+00
 -1     10988 8.44418E+01 4.54716E+01-1.47394E+00
 -1     10990 8.44418E+01 4.54716E+01 1.47394E+00
 -1     10991 8.54230E+01 4.54605E+01-1.49106E+00
 -1     10993 8.54230E+01 4.54605E+01 1.49106E+00
 -1     10994 8.39069E+01 4.45829E+01-1.46460E+00
 -1     10996 8.39069E+01 4.45829E+01 1.46460E+00
 -1     10997 8.63909E+01 4.54393E+01-1.50796E+00
 -1     10999 8.63909E+01 4.54393E+01 1.50796E+00
 -1     11000 8.73775E+01 4.54167E+01-1.52518E+00
 -1     11002 8.73775E+01 4.54167E+01 1.52518E+00
 -1     11003 8.58449E+01 4.45510E+01-1.49843E+00
 -1     11005 8.58449E+01 4.45510E+01 1.49843E+00
 -1     11006 8.83471E+01 4.53792E+01-1.54210E+00
 -1     11008 8.83471E+01 4.53792E+01 1.54210E+00
 -1     11009 8.93490E+01 4.53345E+01-1.55959E+00
 -1     11011 8.93490E+01 4.53345E+01 1.55959E+00
 -1     11012 8.77823E+01 4.44924E+01-1.53225E+00
 -1     11014 8.77823E+01 4.44924E+01 1.53225E+00
 -1     11015 9.03296E+01 4.52639E+01-1.57671E+00
 -1     11017 9.03296E+01 4.52639E+01 1.57671E+00
 -1     11018 9.13722E+01 4.51747E+01-1.59491E+00
 -1     11020 9.13722E+01 4.51747E+01 1.59491E+00
 -1     11021 8.97325E+01 4.43843E+01-1.56629E+00
 -1     11023 8.97325E+01 4.43843E+01 1.56629E+00
 -1     11024 9.23816E+01 4.50057E+01-1.61253E+00
 -1     11026 9.23816E+01 4.50057E+01 1.61253E+00
 -1     11027 9.35453E+01 4.48302E+01-1.63284E+00
 -1     11029 9.35453E+01 4.48302E+01 1.63284E+00
 -1     11030 9.17225E+01 4.41447E+01-1.60102E+00
 -1     11032 9.17225E+01 4.41447E+01 1.60102E+00
 -1     11033 4.82331E+01 4.32528E+00-8.41912E-01
 -1     11035 4.82331E+01 4.32528E+00 8.41912E-01
 -1     11036 4.72478E+01 4.32439E+00-8.24714E-01
 -1     11038 4.72478E+01 4.32439E+00 8.24714E-01
 -1     11039 4.67605E+01 5.18689E+00-8.16208E-01
 -1     11041 4.67605E+01 5.18689E+00 8.16208E-01
 -1     11042 4.87271E+01 5.19186E+00-8.50534E-01
 -1     11044 4.87271E+01 5.19186E+00 8.50534E-01
 -1     11045 2.93899E+01 3.44902E+01-5.13002E-01
 -1     11047 2.93899E+01 3.44902E+01 5.13002E-01
 -1     11048 2.94056E+01 3.54983E+01-5.13277E-01
 -1     11050 2.94056E+01 3.54983E+01 5.13277E-01
 -1     11051 3.02531E+01 3.39760E+01-5.28070E-01
 -1     11053 3.02531E+01 3.39760E+01 5.28070E-01
 -1     11054 9.32897E+01 4.31560E+00-1.62838E+00
 -1     11056 9.32897E+01 4.31560E+00 1.62838E+00
 -1     11057 9.23060E+01 4.18552E+00-1.61121E+00
 -1     11059 9.23060E+01 4.18552E+00 1.61121E+00
 -1     11060 9.35623E+01 5.27448E+00-1.63314E+00
 -1     11062 9.35623E+01 5.27448E+00 1.63314E+00
 -1     11063 9.56473E+01 7.81169E+00-1.66953E+00
 -1     11065 9.56473E+01 7.81169E+00 1.66953E+00
 -1     11066 9.55897E+01 6.79382E+00-1.66853E+00
 -1     11068 9.55897E+01 6.79382E+00 1.66853E+00
 -1     11069 9.46484E+01 6.44317E+00-1.65209E+00
 -1     11071 9.46484E+01 6.44317E+00 1.65209E+00
 -1     11072 9.48216E+01 8.38231E+00-1.65512E+00
 -1     11074 9.48216E+01 8.38231E+00 1.65512E+00
 -1     11075 9.45106E+01 4.44391E+01-1.64969E+00
 -1     11077 9.45106E+01 4.44391E+01 1.64969E+00
 -1     11078 9.55217E+01 4.37252E+01-1.66734E+00
 -1     11080 9.55217E+01 4.37252E+01 1.66734E+00
 -1     11081 9.55672E+01 4.26543E+01-1.66813E+00
 -1     11083 9.55672E+01 4.26543E+01 1.66813E+00
 -1     11084 9.36972E+01 4.35845E+01-1.63549E+00
 -1     11086 9.36972E+01 4.35845E+01 1.63549E+00
 -1     11087 7.68569E+01 4.35683E+00-1.34154E+00
 -1     11089 7.68569E+01 4.35683E+00 1.34154E+00
 -1     11090 7.63636E+01 5.22303E+00-1.33293E+00
 -1     11092 7.63636E+01 5.22303E+00 1.33293E+00
 -1     11093 7.78487E+01 4.36337E+00-1.35885E+00
 -1     11095 7.78487E+01 4.36337E+00 1.35885E+00
 -1     11096 2.93195E+01 2.64880E+01-5.11773E-01
 -1     11098 2.93195E+01 2.64880E+01 5.11773E-01
 -1     11099 2.93196E+01 2.74859E+01-5.11776E-01
 -1     11101 2.93196E+01 2.74859E+01 5.11776E-01
 -1     11102 3.03822E+01 4.46330E+01-5.30323E-01
 -1     11104 3.03822E+01 4.46330E+01 5.30323E-01
 -1     11105 2.93246E+01 1.85057E+01-5.11863E-01
 -1     11107 2.93246E+01 1.85057E+01 5.11863E-01
 -1     11108 2.93249E+01 1.95034E+01-5.11868E-01
 -1     11110 2.93249E+01 1.95034E+01 5.11868E-01
 -1     11111 2.93074E+01 1.25683E+01-5.11562E-01
 -1     11113 2.93074E+01 1.25683E+01 5.11562E-01
 -1     11114 2.93042E+01 1.35573E+01-5.11507E-01
 -1     11116 2.93042E+01 1.35573E+01 5.11507E-01
 -1     11117 3.01709E+01 1.40559E+01-5.26635E-01
 -1     11119 3.01709E+01 1.40559E+01 5.26635E-01
 -1     11120 3.62539E+01 4.44331E+00-6.32814E-01
 -1     11122 3.62539E+01 4.44331E+00 6.32814E-01
 -1     11123 3.52594E+01 4.40821E+00-6.15455E-01
 -1     11125 3.52594E+01 4.40821E+00 6.15455E-01
 -1     11126 4.23145E+01 4.32674E+00-7.38603E-01
 -1     11128 4.23145E+01 4.32674E+00 7.38603E-01
 -1     11129 4.13198E+01 4.33779E+00-7.21240E-01
 -1     11131 4.13198E+01 4.33779E+00 7.21240E-01
 -1     11132 4.28188E+01 5.18550E+00-7.47405E-01
 -1     11134 4.28188E+01 5.18550E+00 7.47405E-01
 -1     11135 4.03165E+01 4.36151E+00-7.03727E-01
 -1     11137 4.03165E+01 4.36151E+00 7.03727E-01
 -1     11138 3.93166E+01 4.37787E+00-6.86273E-01
 -1     11140 3.93166E+01 4.37787E+00 6.86273E-01
 -1     11141 4.08251E+01 5.21566E+00-7.12604E-01
 -1     11143 4.08251E+01 5.21566E+00 7.12604E-01
 -1     11144 5.21743E+01 4.32933E+00-9.10706E-01
 -1     11146 5.21743E+01 4.32933E+00 9.10706E-01
 -1     11147 5.11882E+01 4.32842E+00-8.93494E-01
 -1     11149 5.11882E+01 4.32842E+00 8.93494E-01
 -1     11150 3.01905E+01 2.00024E+01-5.26976E-01
 -1     11152 3.01905E+01 2.00024E+01 5.26976E-01
 -1     11153 5.90740E+01 4.33190E+00-1.03114E+00
 -1     11155 5.90740E+01 4.33190E+00 1.03114E+00
 -1     11156 5.85810E+01 5.19753E+00-1.02254E+00
 -1     11158 5.85810E+01 5.19753E+00 1.02254E+00
 -1     11159 6.00583E+01 4.33204E+00-1.04832E+00
 -1     11161 6.00583E+01 4.33204E+00 1.04832E+00
 -1     11162 5.61181E+01 4.32965E+00-9.79545E-01
 -1     11164 5.61181E+01 4.32965E+00 9.79545E-01
 -1     11165 5.51321E+01 4.32938E+00-9.62334E-01
 -1     11167 5.51321E+01 4.32938E+00 9.62334E-01
 -1     11168 6.05514E+01 5.19807E+00-1.05693E+00
 -1     11170 6.05514E+01 5.19807E+00 1.05693E+00
 -1     11171 5.46392E+01 5.19548E+00-9.53730E-01
 -1     11173 5.46392E+01 5.19548E+00 9.53730E-01
 -1     11174 6.40005E+01 4.33089E+00-1.11713E+00
 -1     11176 6.40005E+01 4.33089E+00 1.11713E+00
 -1     11177 6.30144E+01 4.33101E+00-1.09992E+00
 -1     11179 6.30144E+01 4.33101E+00 1.09992E+00
 -1     11180 7.28888E+01 4.33670E+00-1.27228E+00
 -1     11182 7.28888E+01 4.33670E+00 1.27228E+00
 -1     11183 7.23947E+01 5.20215E+00-1.26365E+00
 -1     11185 7.23947E+01 5.20215E+00 1.26365E+00
 -1     11186 7.38780E+01 4.33841E+00-1.28955E+00
 -1     11188 7.38780E+01 4.33841E+00 1.28955E+00
 -1     11189 7.83552E+01 5.24338E+00-1.36769E+00
 -1     11191 7.83552E+01 5.24338E+00 1.36769E+00
 -1     11192 6.99222E+01 4.33155E+00-1.22050E+00
 -1     11194 6.99222E+01 4.33155E+00 1.22050E+00
 -1     11195 6.89345E+01 4.33109E+00-1.20326E+00
 -1     11197 6.89345E+01 4.33109E+00 1.20326E+00
 -1     11198 7.43766E+01 5.20933E+00-1.29825E+00
 -1     11200 7.43766E+01 5.20933E+00 1.29825E+00
 -1     11201 6.84409E+01 5.19753E+00-1.19464E+00
 -1     11203 6.84409E+01 5.19753E+00 1.19464E+00
 -1     11204 3.01847E+01 2.79772E+01-5.26876E-01
 -1     11206 3.01847E+01 2.79772E+01 5.26876E-01
 -1     11207 8.18285E+01 4.39797E+00-1.42832E+00
 -1     11209 8.18285E+01 4.39797E+00 1.42832E+00
 -1     11210 8.08359E+01 4.39247E+00-1.41100E+00
 -1     11212 8.08359E+01 4.39247E+00 1.41100E+00
 -1     11213 9.48494E+01 1.02941E+01-1.65560E+00
 -1     11215 9.48494E+01 1.02941E+01 1.65560E+00
 -1     11216 8.77748E+01 4.32152E+00-1.53211E+00
 -1     11218 8.77748E+01 4.32152E+00 1.53211E+00
 -1     11219 8.68070E+01 4.36207E+00-1.51522E+00
 -1     11221 8.68070E+01 4.36207E+00 1.51522E+00
 -1     11222 9.14801E+01 3.98445E+00-1.59679E+00
 -1     11224 9.14801E+01 3.98445E+00 1.59679E+00
 -1     11225 9.05158E+01 3.96685E+00-1.57996E+00
 -1     11227 9.05158E+01 3.96685E+00 1.57996E+00
 -1     11228 9.17759E+01 4.87786E+00-1.60195E+00
 -1     11230 9.17759E+01 4.87786E+00 1.60195E+00
 -1     11231 2.94496E+01 3.75320E+01-5.14045E-01
 -1     11233 2.94496E+01 3.75320E+01 5.14045E-01
 -1     11234 3.03511E+01 3.80464E+01-5.29781E-01
 -1     11236 3.03511E+01 3.80464E+01 5.29781E-01
 -1     11237 2.94358E+01 3.65156E+01-5.13803E-01
 -1     11239 2.94358E+01 3.65156E+01 5.13803E-01
 -1     11240 8.63529E+01 5.26113E+00-1.50730E+00
 -1     11242 8.63529E+01 5.26113E+00 1.50730E+00
 -1     11243 8.03499E+01 5.26630E+00-1.40251E+00
 -1     11245 8.03499E+01 5.26630E+00 1.40251E+00
 -1     11246 8.23494E+01 5.28652E+00-1.43741E+00
 -1     11248 8.23494E+01 5.28652E+00 1.43741E+00
 -1     11249 3.03100E+01 3.59995E+01-5.29063E-01
 -1     11251 3.03100E+01 3.59995E+01 5.29063E-01
 -1     11252 9.56284E+01 1.55479E+01-1.66920E+00
 -1     11254 9.56284E+01 1.55479E+01 1.66920E+00
 -1     11255 9.56346E+01 1.45682E+01-1.66931E+00
 -1     11257 9.56346E+01 1.45682E+01 1.66931E+00
 -1     11258 5.06964E+01 5.19416E+00-8.84909E-01
 -1     11260 5.06964E+01 5.19416E+00 8.84909E-01
 -1     11261 9.56366E+01 2.34906E+01-1.66934E+00
 -1     11263 9.56366E+01 2.34906E+01 1.66934E+00
 -1     11264 9.56339E+01 2.24900E+01-1.66930E+00
 -1     11266 9.56339E+01 2.24900E+01 1.66930E+00
 -1     11267 9.56397E+01 2.94989E+01-1.66940E+00
 -1     11269 9.56397E+01 2.94989E+01 1.66940E+00
 -1     11270 9.56399E+01 2.84995E+01-1.66940E+00
 -1     11272 9.56399E+01 2.84995E+01 1.66940E+00
 -1     11273 9.56526E+01 3.34879E+01-1.66962E+00
 -1     11275 9.56526E+01 3.34879E+01 1.66962E+00
 -1     11276 9.56473E+01 3.24906E+01-1.66953E+00
 -1     11278 9.56473E+01 3.24906E+01 1.66953E+00
 -1     11279 9.56911E+01 3.74862E+01-1.67029E+00
 -1     11281 9.56911E+01 3.74862E+01 1.67029E+00
 -1     11282 9.56856E+01 3.64815E+01-1.67020E+00
 -1     11284 9.56856E+01 3.64815E+01 1.67020E+00
 -1     11285 9.56528E+01 4.15742E+01-1.66963E+00
 -1     11287 9.56528E+01 4.15742E+01 1.66963E+00
 -1     11288 9.56867E+01 4.05338E+01-1.67022E+00
 -1     11290 9.56867E+01 4.05338E+01 1.67022E+00
 -1     11291 3.42566E+01 4.29567E+00-5.97952E-01
 -1     11293 3.42566E+01 4.29567E+00 5.97952E-01
 -1     11294 3.32736E+01 4.20057E+00-5.80793E-01
 -1     11296 3.32736E+01 4.20057E+00 5.80793E-01
 -1     11297 3.47018E+01 5.23853E+00-6.05723E-01
 -1     11299 3.47018E+01 5.23853E+00 6.05723E-01
 -1     11300 9.48485E+01 4.00066E+01-1.65559E+00
 -1     11302 9.48485E+01 4.00066E+01 1.65559E+00
 -1     11303 9.48189E+01 3.59755E+01-1.65507E+00
 -1     11305 9.48189E+01 3.59755E+01 1.65507E+00
 -1     11306 3.82979E+01 4.41514E+00-6.68491E-01
 -1     11308 3.82979E+01 4.41514E+00 6.68491E-01
 -1     11309 3.72937E+01 4.42474E+00-6.50965E-01
 -1     11311 3.72937E+01 4.42474E+00 6.50965E-01
 -1     11312 3.67444E+01 5.33250E+00-6.41377E-01
 -1     11314 3.67444E+01 5.33250E+00 6.41377E-01
 -1     11315 3.88030E+01 5.27665E+00-6.77309E-01
 -1     11317 3.88030E+01 5.27665E+00 6.77309E-01
 -1     11318 9.47483E+01 4.21133E+01-1.65384E+00
 -1     11320 9.47483E+01 4.21133E+01 1.65384E+00
 -1     11321 9.01078E+01 4.86720E+00-1.57284E+00
 -1     11323 9.01078E+01 4.86720E+00 1.57284E+00
 -1     11324 9.47649E+01 1.40960E+01-1.65413E+00
 -1     11326 9.47649E+01 1.40960E+01 1.65413E+00
 -1     11327 3.01845E+01 2.59867E+01-5.26872E-01
 -1     11329 3.01845E+01 2.59867E+01 5.26872E-01
 -1     11330 3.01745E+01 1.20974E+01-5.26698E-01
 -1     11332 3.01745E+01 1.20974E+01 5.26698E-01
 -1     11333 3.01905E+01 1.80083E+01-5.26977E-01
 -1     11335 3.01905E+01 1.80083E+01 5.26977E-01
 -1     11336 6.25222E+01 5.19781E+00-1.09133E+00
 -1     11338 6.25222E+01 5.19781E+00 1.09133E+00
 -1     11339 9.47589E+01 2.19855E+01-1.65402E+00
 -1     11341 9.47589E+01 2.19855E+01 1.65402E+00
 -1     11342 5.26675E+01 5.19504E+00-9.19315E-01
 -1     11344 5.26675E+01 5.19504E+00 9.19315E-01
 -1     11345 5.66104E+01 5.19635E+00-9.88138E-01
 -1     11347 5.66104E+01 5.19635E+00 9.88138E-01
 -1     11348 6.44939E+01 5.19751E+00-1.12574E+00
 -1     11350 6.44939E+01 5.19751E+00 1.12574E+00
 -1     11351 7.04168E+01 5.19885E+00-1.22913E+00
 -1     11353 7.04168E+01 5.19885E+00 1.22913E+00
 -1     11354 8.83075E+01 5.14450E+00-1.54141E+00
 -1     11356 8.83075E+01 5.14450E+00 1.54141E+00
 -1     11357 9.48473E+01 3.79775E+01-1.65557E+00
 -1     11359 9.48473E+01 3.79775E+01 1.65557E+00
 -1     11360 9.47930E+01 3.39819E+01-1.65462E+00
 -1     11362 9.47930E+01 3.39819E+01 1.65462E+00
 -1     11363 9.47687E+01 2.99987E+01-1.65419E+00
 -1     11365 9.47687E+01 2.99987E+01 1.65419E+00
 -1     11366 9.47489E+01 1.60384E+01-1.65385E+00
 -1     11368 9.47489E+01 1.60384E+01 1.65385E+00
 -1     11369 9.47685E+01 2.39897E+01-1.65419E+00
 -1     11371 9.47685E+01 2.39897E+01 1.65419E+00
 -1     11372 9.47706E+01 2.79991E+01-1.65423E+00
 -1     11374 9.47706E+01 2.79991E+01 1.65423E+00
 -1     11375 9.47739E+01 3.19924E+01-1.65428E+00
 -1     11377 9.47739E+01 3.19924E+01 1.65428E+00
 -1     11378 6.69598E+01 6.06394E+00-1.16879E+00
 -1     11380 6.69598E+01 6.06394E+00 1.16879E+00
 -1     11381 6.59730E+01 6.06395E+00-1.15156E+00
 -1     11383 6.59730E+01 6.06395E+00 1.15156E+00
 -1     11384 9.38885E+01 2.24783E+01-1.63883E+00
 -1     11386 9.38885E+01 2.24783E+01 1.63883E+00
 -1     11387 9.38825E+01 2.14771E+01-1.63873E+00
 -1     11389 9.38825E+01 2.14771E+01 1.63873E+00
 -1     11390 3.10471E+01 2.74707E+01-5.41928E-01
 -1     11392 3.10471E+01 2.74707E+01 5.41928E-01
 -1     11393 3.10481E+01 2.84655E+01-5.41947E-01
 -1     11395 3.10481E+01 2.84655E+01 5.41947E-01
 -1     11396 3.10126E+01 1.16297E+01-5.41327E-01
 -1     11398 3.10126E+01 1.16297E+01 5.41327E-01
 -1     11399 3.09997E+01 1.26093E+01-5.41101E-01
 -1     11401 3.09997E+01 1.26093E+01 5.41101E-01
 -1     11402 3.10740E+01 4.39218E+01-5.42399E-01
 -1     11404 3.10740E+01 4.39218E+01 5.42399E-01
 -1     11405 6.30150E+01 6.06456E+00-1.09993E+00
 -1     11407 6.30150E+01 6.06456E+00 1.09993E+00
 -1     11408 6.20294E+01 6.06480E+00-1.08273E+00
 -1     11410 6.20294E+01 6.06480E+00 1.08273E+00
 -1     11411 6.49867E+01 6.06420E+00-1.13435E+00
 -1     11413 6.49867E+01 6.06420E+00 1.13435E+00
 -1     11414 6.40006E+01 6.06427E+00-1.11713E+00
 -1     11416 6.40006E+01 6.06427E+00 1.11713E+00
 -1     11417 6.35078E+01 6.93126E+00-1.10853E+00
 -1     11419 6.35078E+01 6.93126E+00 1.10853E+00
 -1     11420 6.54797E+01 6.93071E+00-1.14295E+00
 -1     11422 6.54797E+01 6.93071E+00 1.14295E+00
 -1     11423 9.40356E+01 4.04728E+01-1.64140E+00
 -1     11425 9.40356E+01 4.04728E+01 1.64140E+00
 -1     11426 9.40502E+01 3.94462E+01-1.64165E+00
 -1     11428 9.40502E+01 3.94462E+01 1.64165E+00
 -1     11429 9.38600E+01 1.65137E+01-1.63833E+00
 -1     11431 9.38600E+01 1.65137E+01 1.63833E+00
 -1     11432 9.38652E+01 1.55366E+01-1.63842E+00
 -1     11434 9.38652E+01 1.55366E+01 1.63842E+00
 -1     11435 3.10574E+01 1.75087E+01-5.42108E-01
 -1     11437 3.10574E+01 1.75087E+01 5.42108E-01
 -1     11438 3.10579E+01 1.85049E+01-5.42118E-01
 -1     11440 3.10579E+01 1.85049E+01 5.42118E-01
 -1     11441 3.10320E+01 1.35658E+01-5.41666E-01
 -1     11443 3.10320E+01 1.35658E+01 5.41666E-01
 -1     11444 3.10414E+01 1.45448E+01-5.41829E-01
 -1     11446 3.10414E+01 1.45448E+01 5.41829E-01
 -1     11447 3.18701E+01 1.30981E+01-5.56295E-01
 -1     11449 3.18701E+01 1.30981E+01 5.56295E-01
 -1     11450 3.10511E+01 2.94535E+01-5.42000E-01
 -1     11452 3.10511E+01 2.94535E+01 5.42000E-01
 -1     11453 3.10575E+01 3.04513E+01-5.42110E-01
 -1     11455 3.10575E+01 3.04513E+01 5.42110E-01
 -1     11456 3.19135E+01 2.89471E+01-5.57052E-01
 -1     11458 3.19135E+01 2.89471E+01 5.57052E-01
 -1     11459 4.52963E+01 6.04354E+00-7.90651E-01
 -1     11461 4.52963E+01 6.04354E+00 7.90651E-01
 -1     11462 4.43119E+01 6.04130E+00-7.73467E-01
 -1     11464 4.43119E+01 6.04130E+00 7.73467E-01
 -1     11465 9.38984E+01 2.85013E+01-1.63900E+00
 -1     11467 9.38984E+01 2.85013E+01 1.63900E+00
 -1     11468 9.38997E+01 2.75001E+01-1.63903E+00
 -1     11470 9.38997E+01 2.75001E+01 1.63903E+00
 -1     11471 3.11128E+01 3.34425E+01-5.43076E-01
 -1     11473 3.11128E+01 3.34425E+01 5.43076E-01
 -1     11474 3.11395E+01 3.44487E+01-5.43543E-01
 -1     11476 3.11395E+01 3.44487E+01 5.43543E-01
 -1     11477 5.31607E+01 6.06112E+00-9.27923E-01
 -1     11479 5.31607E+01 6.06112E+00 9.27923E-01
 -1     11480 5.21748E+01 6.06091E+00-9.10715E-01
 -1     11482 5.21748E+01 6.06091E+00 9.10715E-01
 -1     11483 5.71033E+01 6.06294E+00-9.96742E-01
 -1     11485 5.71033E+01 6.06294E+00 9.96742E-01
 -1     11486 5.61178E+01 6.06230E+00-9.79540E-01
 -1     11488 5.61178E+01 6.06230E+00 9.79540E-01
 -1     11489 9.38981E+01 3.24937E+01-1.63900E+00
 -1     11491 9.38981E+01 3.24937E+01 1.63900E+00
 -1     11492 9.38923E+01 3.14985E+01-1.63890E+00
 -1     11494 9.38923E+01 3.14985E+01 1.63890E+00
 -1     11495 3.10564E+01 1.95037E+01-5.42092E-01
 -1     11497 3.10564E+01 1.95037E+01 5.42092E-01
 -1     11498 3.10558E+01 2.05016E+01-5.42081E-01
 -1     11500 3.10558E+01 2.05016E+01 5.42081E-01
 -1     11501 3.19233E+01 1.90041E+01-5.57223E-01
 -1     11503 3.19233E+01 1.90041E+01 5.57223E-01
 -1     11504 9.39090E+01 4.25667E+01-1.63919E+00
 -1     11506 9.39090E+01 4.25667E+01 1.63919E+00
 -1     11507 9.39946E+01 4.14865E+01-1.64068E+00
 -1     11509 9.39946E+01 4.14865E+01 1.64068E+00
 -1     11510 9.29436E+01 4.29578E+01-1.62234E+00
 -1     11512 9.29436E+01 4.29578E+01 1.62234E+00
 -1     11513 5.51322E+01 6.06155E+00-9.62336E-01
 -1     11515 5.51322E+01 6.06155E+00 9.62336E-01
 -1     11516 5.41464E+01 6.06132E+00-9.45129E-01
 -1     11518 5.41464E+01 6.06132E+00 9.45129E-01
 -1     11519 5.36537E+01 6.92719E+00-9.36529E-01
 -1     11521 5.36537E+01 6.92719E+00 9.36529E-01
 -1     11522 5.56251E+01 6.92814E+00-9.70939E-01
 -1     11524 5.56251E+01 6.92814E+00 9.70939E-01
 -1     11525 8.89323E+01 6.00768E+00-1.55232E+00
 -1     11527 8.89323E+01 6.00768E+00 1.55232E+00
 -1     11528 8.79741E+01 6.09455E+00-1.53559E+00
 -1     11530 8.79741E+01 6.09455E+00 1.53559E+00
 -1     11531 6.10441E+01 6.06480E+00-1.06553E+00
 -1     11533 6.10441E+01 6.06480E+00 1.06553E+00
 -1     11534 6.00589E+01 6.06482E+00-1.04833E+00
 -1     11536 6.00589E+01 6.06482E+00 1.04833E+00
 -1     11537 6.15369E+01 6.93156E+00-1.07413E+00
 -1     11539 6.15369E+01 6.93156E+00 1.07413E+00
 -1     11540 7.09108E+01 6.06575E+00-1.23775E+00
 -1     11542 7.09108E+01 6.06575E+00 1.23775E+00
 -1     11543 6.99222E+01 6.06453E+00-1.22050E+00
 -1     11545 6.99222E+01 6.06453E+00 1.22050E+00
 -1     11546 7.48738E+01 6.07899E+00-1.30693E+00
 -1     11548 7.48738E+01 6.07899E+00 1.30693E+00
 -1     11549 7.38812E+01 6.07391E+00-1.28960E+00
 -1     11551 7.38812E+01 6.07391E+00 1.28960E+00
 -1     11552 7.88621E+01 6.12420E+00-1.37654E+00
 -1     11554 7.88621E+01 6.12420E+00 1.37654E+00
 -1     11555 7.78650E+01 6.11248E+00-1.35914E+00
 -1     11557 7.78650E+01 6.11248E+00 1.35914E+00
 -1     11558 3.12786E+01 3.75096E+01-5.45969E-01
 -1     11560 3.12786E+01 3.75096E+01 5.45969E-01
 -1     11561 3.12896E+01 3.85391E+01-5.46161E-01
 -1     11563 3.12896E+01 3.85391E+01 5.46161E-01
 -1     11564 3.11908E+01 3.54588E+01-5.44437E-01
 -1     11566 3.11908E+01 3.54588E+01 5.44437E-01
 -1     11567 3.12209E+01 3.64762E+01-5.44963E-01
 -1     11569 3.12209E+01 3.64762E+01 5.44963E-01
 -1     11570 3.20505E+01 3.49254E+01-5.59443E-01
 -1     11572 3.20505E+01 3.49254E+01 5.59443E-01
 -1     11573 9.39963E+01 1.08172E+01-1.64071E+00
 -1     11575 9.39963E+01 1.08172E+01 1.64071E+00
 -1     11576 9.40160E+01 9.87135E+00-1.64106E+00
 -1     11578 9.40160E+01 9.87135E+00 1.64106E+00
 -1     11579 9.39970E+01 3.84713E+01-1.64072E+00
 -1     11581 9.39970E+01 3.84713E+01 1.64072E+00
 -1     11582 9.39812E+01 3.74688E+01-1.64045E+00
 -1     11584 9.39812E+01 3.74688E+01 1.64045E+00
 -1     11585 9.31841E+01 3.89375E+01-1.62653E+00
 -1     11587 9.31841E+01 3.89375E+01 1.62653E+00
 -1     11588 9.38788E+01 1.45707E+01-1.63866E+00
 -1     11590 9.38788E+01 1.45707E+01 1.63866E+00
 -1     11591 9.38896E+01 1.36055E+01-1.63885E+00
 -1     11593 9.38896E+01 1.36055E+01 1.63885E+00
 -1     11594 9.29899E+01 1.50460E+01-1.62314E+00
 -1     11596 9.29899E+01 1.50460E+01 1.62314E+00
 -1     11597 5.90737E+01 6.06424E+00-1.03113E+00
 -1     11599 5.90737E+01 6.06424E+00 1.03113E+00
 -1     11600 5.80885E+01 6.06369E+00-1.01394E+00
 -1     11602 5.80885E+01 6.06369E+00 1.01394E+00
 -1     11603 5.75960E+01 6.92965E+00-1.00534E+00
 -1     11605 5.75960E+01 6.92965E+00 1.00534E+00
 -1     11606 5.95664E+01 6.93098E+00-1.03974E+00
 -1     11608 5.95664E+01 6.93098E+00 1.03974E+00
 -1     11609 9.16953E+01 5.78477E+00-1.60055E+00
 -1     11611 9.16953E+01 5.78477E+00 1.60055E+00
 -1     11612 9.08693E+01 5.58370E+00-1.58613E+00
 -1     11614 9.08693E+01 5.58370E+00 1.58613E+00
 -1     11615 9.00272E+01 5.77412E+00-1.57143E+00
 -1     11617 9.00272E+01 5.77412E+00 1.57143E+00
 -1     11618 8.69206E+01 6.14839E+00-1.51720E+00
 -1     11620 8.69206E+01 6.14839E+00 1.51720E+00
 -1     11621 8.59242E+01 6.17815E+00-1.49981E+00
 -1     11623 8.59242E+01 6.17815E+00 1.49981E+00
 -1     11624 8.75454E+01 7.01157E+00-1.52811E+00
 -1     11626 8.75454E+01 7.01157E+00 1.52811E+00
 -1     11627 9.38715E+01 2.04743E+01-1.63853E+00
 -1     11629 9.38715E+01 2.04743E+01 1.63853E+00
 -1     11630 9.38672E+01 1.94783E+01-1.63846E+00
 -1     11632 9.38672E+01 1.94783E+01 1.63846E+00
 -1     11633 9.30011E+01 2.09671E+01-1.62334E+00
 -1     11635 9.30011E+01 2.09671E+01 1.62334E+00
 -1     11636 9.38593E+01 1.84835E+01-1.63832E+00
 -1     11638 9.38593E+01 1.84835E+01 1.63832E+00
 -1     11639 9.38590E+01 1.74951E+01-1.63831E+00
 -1     11641 9.38590E+01 1.74951E+01 1.63831E+00
 -1     11642 9.29821E+01 1.89695E+01-1.62301E+00
 -1     11644 9.29821E+01 1.89695E+01 1.62301E+00
 -1     11645 3.10697E+01 3.14455E+01-5.42323E-01
 -1     11647 3.10697E+01 3.14455E+01 5.42323E-01
 -1     11648 3.10836E+01 3.24466E+01-5.42566E-01
 -1     11650 3.10836E+01 3.24466E+01 5.42566E-01
 -1     11651 3.19287E+01 3.09293E+01-5.57317E-01
 -1     11653 3.19287E+01 3.09293E+01 5.57317E-01
 -1     11654 5.11893E+01 6.06093E+00-8.93512E-01
 -1     11656 5.11893E+01 6.06093E+00 8.93512E-01
 -1     11657 5.02040E+01 6.06026E+00-8.76315E-01
 -1     11659 5.02040E+01 6.06026E+00 8.76315E-01
 -1     11660 5.16824E+01 6.92700E+00-9.02120E-01
 -1     11662 5.16824E+01 6.92700E+00 9.02120E-01
 -1     11663 9.38937E+01 1.26527E+01-1.63892E+00
 -1     11665 9.38937E+01 1.26527E+01 1.63892E+00
 -1     11666 9.39207E+01 1.17072E+01-1.63939E+00
 -1     11668 9.39207E+01 1.17072E+01 1.63939E+00
 -1     11669 9.30076E+01 1.31273E+01-1.62345E+00
 -1     11671 9.30076E+01 1.31273E+01 1.62345E+00
 -1     11672 9.39036E+01 2.64960E+01-1.63909E+00
 -1     11674 9.39036E+01 2.64960E+01 1.63909E+00
 -1     11675 9.39038E+01 2.54934E+01-1.63910E+00
 -1     11677 9.39038E+01 2.54934E+01 1.63910E+00
 -1     11678 9.30314E+01 2.69982E+01-1.62387E+00
 -1     11680 9.30314E+01 2.69982E+01 1.62387E+00
 -1     11681 3.10517E+01 1.55257E+01-5.42009E-01
 -1     11683 3.10517E+01 1.55257E+01 5.42009E-01
 -1     11684 3.10566E+01 1.65143E+01-5.42094E-01
 -1     11686 3.10566E+01 1.65143E+01 5.42094E-01
 -1     11687 3.19128E+01 1.50356E+01-5.57040E-01
 -1     11689 3.19128E+01 1.50356E+01 5.57040E-01
 -1     11690 9.38929E+01 3.05015E+01-1.63891E+00
 -1     11692 9.38929E+01 3.05015E+01 1.63891E+00
 -1     11693 9.38935E+01 2.95031E+01-1.63892E+00
 -1     11695 9.38935E+01 2.95031E+01 1.63892E+00
 -1     11696 9.30171E+01 3.10028E+01-1.62362E+00
 -1     11698 9.30171E+01 3.10028E+01 1.62362E+00
 -1     11699 9.39706E+01 3.64658E+01-1.64026E+00
 -1     11701 9.39706E+01 3.64658E+01 1.64026E+00
 -1     11702 9.39579E+01 3.54663E+01-1.64004E+00
 -1     11704 9.39579E+01 3.54663E+01 1.64004E+00
 -1     11705 9.31203E+01 3.69596E+01-1.62542E+00
 -1     11707 9.31203E+01 3.69596E+01 1.62542E+00
 -1     11708 3.12416E+01 5.88739E+00-5.45324E-01
 -1     11710 3.12416E+01 5.88739E+00 5.45324E-01
 -1     11711 3.12507E+01 6.84178E+00-5.45483E-01
 -1     11713 3.12507E+01 6.84178E+00 5.45483E-01
 -1     11714 3.23858E+01 3.98135E+00-5.65297E-01
 -1     11716 3.23858E+01 3.98135E+00 5.65297E-01
 -1     11717 3.12726E+01 3.99374E+00-5.45866E-01
 -1     11719 3.12726E+01 3.99374E+00 5.45866E-01
 -1     11720 7.68630E+01 6.09641E+00-1.34165E+00
 -1     11722 7.68630E+01 6.09641E+00 1.34165E+00
 -1     11723 7.58686E+01 6.08779E+00-1.32429E+00
 -1     11725 7.58686E+01 6.08779E+00 1.32429E+00
 -1     11726 7.53732E+01 6.95237E+00-1.31564E+00
 -1     11728 7.53732E+01 6.95237E+00 1.31564E+00
 -1     11729 7.73699E+01 6.97724E+00-1.35050E+00
 -1     11731 7.73699E+01 6.97724E+00 1.35050E+00
 -1     11732 3.41063E+01 4.35473E+01-5.95327E-01
 -1     11734 3.41063E+01 4.35473E+01 5.95327E-01
 -1     11735 3.50926E+01 4.35836E+01-6.12543E-01
 -1     11737 3.50926E+01 4.35836E+01 6.12543E-01
 -1     11738 3.60993E+01 4.36040E+01-6.30116E-01
 -1     11740 3.60993E+01 4.36040E+01 6.30116E-01
 -1     11741 3.70886E+01 4.36251E+01-6.47384E-01
 -1     11743 3.70886E+01 4.36251E+01 6.47384E-01
 -1     11744 3.55727E+01 4.26989E+01-6.20924E-01
 -1     11746 3.55727E+01 4.26989E+01 6.20924E-01
 -1     11747 3.80870E+01 4.36557E+01-6.64811E-01
 -1     11749 3.80870E+01 4.36557E+01 6.64811E-01
 -1     11750 3.90800E+01 4.36732E+01-6.82144E-01
 -1     11752 3.90800E+01 4.36732E+01 6.82144E-01
 -1     11753 3.75779E+01 4.27499E+01-6.55925E-01
 -1     11755 3.75779E+01 4.27499E+01 6.55925E-01
 -1     11756 4.00793E+01 4.36983E+01-6.99588E-01
 -1     11758 4.00793E+01 4.36983E+01 6.99588E-01
 -1     11759 4.10729E+01 4.37106E+01-7.16931E-01
 -1     11761 4.10729E+01 4.37106E+01 7.16931E-01
 -1     11762 3.95756E+01 4.28055E+01-6.90795E-01
 -1     11764 3.95756E+01 4.28055E+01 6.90795E-01
 -1     11765 4.20699E+01 4.37251E+01-7.34333E-01
 -1     11767 4.20699E+01 4.37251E+01 7.34333E-01
 -1     11768 4.30621E+01 4.37317E+01-7.51652E-01
 -1     11770 4.30621E+01 4.37317E+01 7.51652E-01
 -1     11771 4.15720E+01 4.28452E+01-7.25641E-01
 -1     11773 4.15720E+01 4.28452E+01 7.25641E-01
 -1     11774 4.40553E+01 4.37366E+01-7.68988E-01
 -1     11776 4.40553E+01 4.37366E+01 7.68988E-01
 -1     11777 4.50453E+01 4.37381E+01-7.86269E-01
 -1     11779 4.50453E+01 4.37381E+01 7.86269E-01
 -1     11780 4.35621E+01 4.28646E+01-7.60380E-01
 -1     11782 4.35621E+01 4.28646E+01 7.60380E-01
 -1     11783 4.60348E+01 4.37367E+01-8.03540E-01
 -1     11785 4.60348E+01 4.37367E+01 8.03540E-01
 -1     11786 4.70228E+01 4.37354E+01-8.20786E-01
 -1     11788 4.70228E+01 4.37354E+01 8.20786E-01
 -1     11789 4.55448E+01 4.28681E+01-7.94987E-01
 -1     11791 4.55448E+01 4.28681E+01 7.94987E-01
 -1     11792 4.80097E+01 4.37313E+01-8.38012E-01
 -1     11794 4.80097E+01 4.37313E+01 8.38012E-01
 -1     11795 4.89963E+01 4.37291E+01-8.55233E-01
 -1     11797 4.89963E+01 4.37291E+01 8.55233E-01
 -1     11798 4.75211E+01 4.28625E+01-8.29484E-01
 -1     11800 4.75211E+01 4.28625E+01 8.29484E-01
 -1     11801 4.99818E+01 4.37250E+01-8.72435E-01
 -1     11803 4.99818E+01 4.37250E+01 8.72435E-01
 -1     11804 5.09677E+01 4.37228E+01-8.89645E-01
 -1     11806 5.09677E+01 4.37228E+01 8.89645E-01
 -1     11807 4.94935E+01 4.28543E+01-8.63912E-01
 -1     11809 4.94935E+01 4.28543E+01 8.63912E-01
 -1     11810 5.19528E+01 4.37199E+01-9.06840E-01
 -1     11812 5.19528E+01 4.37199E+01 9.06840E-01
 -1     11813 5.29386E+01 4.37185E+01-9.24046E-01
 -1     11815 5.29386E+01 4.37185E+01 9.24046E-01
 -1     11816 5.14641E+01 4.28472E+01-8.98309E-01
 -1     11818 5.14641E+01 4.28472E+01 8.98309E-01
 -1     11819 5.39237E+01 4.37169E+01-9.41243E-01
 -1     11821 5.39237E+01 4.37169E+01 9.41243E-01
 -1     11822 5.49093E+01 4.37162E+01-9.58445E-01
 -1     11824 5.49093E+01 4.37162E+01 9.58445E-01
 -1     11825 5.34344E+01 4.28427E+01-9.32701E-01
 -1     11827 5.34344E+01 4.28427E+01 9.32701E-01
 -1     11828 5.58945E+01 4.37154E+01-9.75643E-01
 -1     11830 5.58945E+01 4.37154E+01 9.75643E-01
 -1     11831 5.68799E+01 4.37148E+01-9.92843E-01
 -1     11833 5.68799E+01 4.37148E+01 9.92843E-01
 -1     11834 5.54049E+01 4.28403E+01-9.67095E-01
 -1     11836 5.54049E+01 4.28403E+01 9.67095E-01
 -1     11837 5.78653E+01 4.37144E+01-1.01004E+00
 -1     11839 5.78653E+01 4.37144E+01 1.01004E+00
 -1     11840 5.88506E+01 4.37141E+01-1.02724E+00
 -1     11842 5.88506E+01 4.37141E+01 1.02724E+00
 -1     11843 5.73755E+01 4.28391E+01-1.00149E+00
 -1     11845 5.73755E+01 4.28391E+01 1.00149E+00
 -1     11846 5.98362E+01 4.37141E+01-1.04444E+00
 -1     11848 5.98362E+01 4.37141E+01 1.04444E+00
 -1     11849 6.08217E+01 4.37144E+01-1.06165E+00
 -1     11851 6.08217E+01 4.37144E+01 1.06165E+00
 -1     11852 5.93464E+01 4.28387E+01-1.03590E+00
 -1     11854 5.93464E+01 4.28387E+01 1.03590E+00
 -1     11855 6.18078E+01 4.37148E+01-1.07886E+00
 -1     11857 6.18078E+01 4.37148E+01 1.07886E+00
 -1     11858 6.27938E+01 4.37152E+01-1.09607E+00
 -1     11860 6.27938E+01 4.37152E+01 1.09607E+00
 -1     11861 6.13181E+01 4.28392E+01-1.07031E+00
 -1     11863 6.13181E+01 4.28392E+01 1.07031E+00
 -1     11864 6.37803E+01 4.37157E+01-1.11329E+00
 -1     11866 6.37803E+01 4.37157E+01 1.11329E+00
 -1     11867 6.47669E+01 4.37159E+01-1.13051E+00
 -1     11869 6.47669E+01 4.37159E+01 1.13051E+00
 -1     11870 6.32907E+01 4.28400E+01-1.10474E+00
 -1     11872 6.32907E+01 4.28400E+01 1.10474E+00
 -1     11873 6.57538E+01 4.37164E+01-1.14774E+00
 -1     11875 6.57538E+01 4.37164E+01 1.14774E+00
 -1     11876 6.67408E+01 4.37167E+01-1.16496E+00
 -1     11878 6.67408E+01 4.37167E+01 1.16496E+00
 -1     11879 6.52642E+01 4.28409E+01-1.13919E+00
 -1     11881 6.52642E+01 4.28409E+01 1.13919E+00
 -1     11882 6.77276E+01 4.37172E+01-1.18219E+00
 -1     11884 6.77276E+01 4.37172E+01 1.18219E+00
 -1     11885 6.87144E+01 4.37178E+01-1.19941E+00
 -1     11887 6.87144E+01 4.37178E+01 1.19941E+00
 -1     11888 6.72380E+01 4.28419E+01-1.17364E+00
 -1     11890 6.72380E+01 4.28419E+01 1.17364E+00
 -1     11891 6.97008E+01 4.37186E+01-1.21663E+00
 -1     11893 6.97008E+01 4.37186E+01 1.21663E+00
 -1     11894 7.06872E+01 4.37190E+01-1.23385E+00
 -1     11896 7.06872E+01 4.37190E+01 1.23385E+00
 -1     11897 6.92113E+01 4.28432E+01-1.20809E+00
 -1     11899 6.92113E+01 4.28432E+01 1.20809E+00
 -1     11900 7.16729E+01 4.37199E+01-1.25105E+00
 -1     11902 7.16729E+01 4.37199E+01 1.25105E+00
 -1     11903 7.26585E+01 4.37204E+01-1.26826E+00
 -1     11905 7.26585E+01 4.37204E+01 1.26826E+00
 -1     11906 7.11834E+01 4.28449E+01-1.24251E+00
 -1     11908 7.11834E+01 4.28449E+01 1.24251E+00
 -1     11909 7.36427E+01 4.37212E+01-1.28544E+00
 -1     11911 7.36427E+01 4.37212E+01 1.28544E+00
 -1     11912 7.46269E+01 4.37220E+01-1.30262E+00
 -1     11914 7.46269E+01 4.37220E+01 1.30262E+00
 -1     11915 7.31533E+01 4.28465E+01-1.27690E+00
 -1     11917 7.31533E+01 4.28465E+01 1.27690E+00
 -1     11918 7.56084E+01 4.37228E+01-1.31975E+00
 -1     11920 7.56084E+01 4.37228E+01 1.31975E+00
 -1     11921 7.65904E+01 4.37235E+01-1.33689E+00
 -1     11923 7.65904E+01 4.37235E+01 1.33689E+00
 -1     11924 7.51190E+01 4.28481E+01-1.31121E+00
 -1     11926 7.51190E+01 4.28481E+01 1.31121E+00
 -1     11927 7.75677E+01 4.37244E+01-1.35395E+00
 -1     11929 7.75677E+01 4.37244E+01 1.35395E+00
 -1     11930 7.85470E+01 4.37253E+01-1.37104E+00
 -1     11932 7.85470E+01 4.37253E+01 1.37104E+00
 -1     11933 7.70778E+01 4.28498E+01-1.34540E+00
 -1     11935 7.70778E+01 4.28498E+01 1.34540E+00
 -1     11936 7.95187E+01 4.37265E+01-1.38800E+00
 -1     11938 7.95187E+01 4.37265E+01 1.38800E+00
 -1     11939 8.04947E+01 4.37267E+01-1.40504E+00
 -1     11941 8.04947E+01 4.37267E+01 1.40504E+00
 -1     11942 7.90268E+01 4.28519E+01-1.37942E+00
 -1     11944 7.90268E+01 4.28519E+01 1.37942E+00
 -1     11945 8.14597E+01 4.37267E+01-1.42188E+00
 -1     11947 8.14597E+01 4.37267E+01 1.42188E+00
 -1     11948 8.24326E+01 4.37233E+01-1.43887E+00
 -1     11950 8.24326E+01 4.37233E+01 1.43887E+00
 -1     11951 8.09635E+01 4.28530E+01-1.41322E+00
 -1     11953 8.09635E+01 4.28530E+01 1.41322E+00
 -1     11954 8.33915E+01 4.37159E+01-1.45560E+00
 -1     11956 8.33915E+01 4.37159E+01 1.45560E+00
 -1     11957 8.43617E+01 4.37052E+01-1.47254E+00
 -1     11959 8.43617E+01 4.37052E+01 1.47254E+00
 -1     11960 8.28874E+01 4.28457E+01-1.44680E+00
 -1     11962 8.28874E+01 4.28457E+01 1.44680E+00
 -1     11963 8.53131E+01 4.36839E+01-1.48915E+00
 -1     11965 8.53131E+01 4.36839E+01 1.48915E+00
 -1     11966 8.62810E+01 4.36627E+01-1.50604E+00
 -1     11968 8.62810E+01 4.36627E+01 1.50604E+00
 -1     11969 8.47977E+01 4.28169E+01-1.48015E+00
 -1     11971 8.47977E+01 4.28169E+01 1.48015E+00
 -1     11972 8.72217E+01 4.36278E+01-1.52246E+00
 -1     11974 8.72217E+01 4.36278E+01 1.52246E+00
 -1     11975 8.81913E+01 4.35904E+01-1.53938E+00
 -1     11977 8.81913E+01 4.35904E+01 1.53938E+00
 -1     11978 8.66899E+01 4.27607E+01-1.51318E+00
 -1     11980 8.66899E+01 4.27607E+01 1.51318E+00
 -1     11981 8.91222E+01 4.35405E+01-1.55563E+00
 -1     11983 8.91222E+01 4.35405E+01 1.55563E+00
 -1     11984 9.01028E+01 4.34698E+01-1.57275E+00
 -1     11986 9.01028E+01 4.34698E+01 1.57275E+00
 -1     11987 8.85616E+01 4.26759E+01-1.54585E+00
 -1     11989 8.85616E+01 4.26759E+01 1.54585E+00
 -1     11990 9.10265E+01 4.33929E+01-1.58887E+00
 -1     11992 9.10265E+01 4.33929E+01 1.58887E+00
 -1     11993 9.20359E+01 4.32239E+01-1.60649E+00
 -1     11995 9.20359E+01 4.32239E+01 1.60649E+00
 -1     11996 9.22477E+01 4.22060E+01-1.61019E+00
 -1     11998 9.22477E+01 4.22060E+01 1.61019E+00
 -1     11999 9.04163E+01 4.25490E+01-1.57822E+00
 -1     12001 9.04163E+01 4.25490E+01 1.57822E+00
 -1     12002 9.37430E+01 6.13411E+00-1.63629E+00
 -1     12004 9.37430E+01 6.13411E+00 1.63629E+00
 -1     12005 9.27825E+01 5.93856E+00-1.61952E+00
 -1     12007 9.27825E+01 5.93856E+00 1.61952E+00
 -1     12008 9.38686E+01 7.10725E+00-1.63848E+00
 -1     12010 9.38686E+01 7.10725E+00 1.63848E+00
 -1     12011 3.11227E+01 5.02490E+00-5.43248E-01
 -1     12013 3.11227E+01 5.02490E+00 5.43248E-01
 -1     12014 8.48941E+01 6.18967E+00-1.48183E+00
 -1     12016 8.48941E+01 6.18967E+00 1.48183E+00
 -1     12017 8.38915E+01 6.19199E+00-1.46433E+00
 -1     12019 8.38915E+01 6.19199E+00 1.46433E+00
 -1     12020 8.54618E+01 7.07693E+00-1.49174E+00
 -1     12022 8.54618E+01 7.07693E+00 1.49174E+00
 -1     12023 3.20887E+01 4.34482E+01-5.60110E-01
 -1     12025 3.20887E+01 4.34482E+01 5.60110E-01
 -1     12026 3.29886E+01 4.34263E+01-5.75818E-01
 -1     12028 3.29886E+01 4.34263E+01 5.75818E-01
 -1     12029 3.34483E+01 4.25575E+01-5.83842E-01
 -1     12031 3.34483E+01 4.25575E+01 5.83842E-01
 -1     12032 3.13160E+01 4.29102E+01-5.46622E-01
 -1     12034 3.13160E+01 4.29102E+01 5.46622E-01
 -1     12035 8.28786E+01 6.18382E+00-1.44665E+00
 -1     12037 8.28786E+01 6.18382E+00 1.44665E+00
 -1     12038 8.18766E+01 6.17481E+00-1.42916E+00
 -1     12040 8.18766E+01 6.17481E+00 1.42916E+00
 -1     12041 8.34187E+01 7.08028E+00-1.45608E+00
 -1     12043 8.34187E+01 7.08028E+00 1.45608E+00
 -1     12044 3.20424E+01 5.55003E+00-5.59302E-01
 -1     12046 3.20424E+01 5.55003E+00 5.59302E-01
 -1     12047 3.28113E+01 4.90676E+00-5.72723E-01
 -1     12049 3.28113E+01 4.90676E+00 5.72723E-01
 -1     12050 3.21594E+01 3.69689E+01-5.61344E-01
 -1     12052 3.21594E+01 3.69689E+01 5.61344E-01
 -1     12053 9.29753E+01 1.69933E+01-1.62289E+00
 -1     12055 9.29753E+01 1.69933E+01 1.62289E+00
 -1     12056 3.10527E+01 2.34941E+01-5.42026E-01
 -1     12058 3.10527E+01 2.34941E+01 5.42026E-01
 -1     12059 3.10513E+01 2.44911E+01-5.42002E-01
 -1     12061 3.10513E+01 2.44911E+01 5.42002E-01
 -1     12062 9.39004E+01 2.44872E+01-1.63904E+00
 -1     12064 9.39004E+01 2.44872E+01 1.63904E+00
 -1     12065 9.38967E+01 2.34841E+01-1.63897E+00
 -1     12067 9.38967E+01 2.34841E+01 1.63897E+00
 -1     12068 9.31963E+01 4.09262E+01-1.62675E+00
 -1     12070 9.31963E+01 4.09262E+01 1.62675E+00
 -1     12071 9.30226E+01 2.90041E+01-1.62372E+00
 -1     12073 9.30226E+01 2.90041E+01 1.62372E+00
 -1     12074 4.62737E+01 6.05100E+00-8.07710E-01
 -1     12076 4.62737E+01 6.05100E+00 8.07710E-01
 -1     12077 4.57920E+01 6.91100E+00-7.99302E-01
 -1     12079 4.57920E+01 6.91100E+00 7.99302E-01
 -1     12080 4.72562E+01 6.05434E+00-8.24859E-01
 -1     12082 4.72562E+01 6.05434E+00 8.24859E-01
 -1     12083 3.13587E+01 4.18255E+01-5.47367E-01
 -1     12085 3.13587E+01 4.18255E+01 5.47367E-01
 -1     12086 3.19240E+01 1.70109E+01-5.57235E-01
 -1     12088 3.19240E+01 1.70109E+01 5.57235E-01
 -1     12089 3.12655E+01 7.79166E+00-5.45741E-01
 -1     12091 3.12655E+01 7.79166E+00 5.45741E-01
 -1     12092 3.12344E+01 8.74416E+00-5.45199E-01
 -1     12094 3.12344E+01 8.74416E+00 5.45199E-01
 -1     12095 3.21761E+01 7.36240E+00-5.61636E-01
 -1     12097 3.21761E+01 7.36240E+00 5.61636E-01
 -1     12098 3.10549E+01 2.14998E+01-5.42065E-01
 -1     12100 3.10549E+01 2.14998E+01 5.42065E-01
 -1     12101 3.10540E+01 2.24982E+01-5.42049E-01
 -1     12103 3.10540E+01 2.24982E+01 5.42049E-01
 -1     12104 3.19208E+01 2.10011E+01-5.57180E-01
 -1     12106 3.19208E+01 2.10011E+01 5.57180E-01
 -1     12107 9.30873E+01 1.12845E+01-1.62484E+00
 -1     12109 9.30873E+01 1.12845E+01 1.62484E+00
 -1     12110 4.13535E+01 6.05507E+00-7.21828E-01
 -1     12112 4.13535E+01 6.05507E+00 7.21828E-01
 -1     12113 4.03502E+01 6.07878E+00-7.04315E-01
 -1     12115 4.03502E+01 6.07878E+00 7.04315E-01
 -1     12116 3.19701E+01 3.29194E+01-5.58040E-01
 -1     12118 3.19701E+01 3.29194E+01 5.58040E-01
 -1     12119 9.18759E+01 6.64441E+00-1.60370E+00
 -1     12121 9.18759E+01 6.64441E+00 1.60370E+00
 -1     12122 7.19002E+01 6.06757E+00-1.25502E+00
 -1     12124 7.19002E+01 6.06757E+00 1.25502E+00
 -1     12125 7.14057E+01 6.93326E+00-1.24639E+00
 -1     12127 7.14057E+01 6.93326E+00 1.24639E+00
 -1     12128 7.28896E+01 6.06966E+00-1.27229E+00
 -1     12130 7.28896E+01 6.06966E+00 1.27229E+00
 -1     12131 6.89342E+01 6.06401E+00-1.20325E+00
 -1     12133 6.89342E+01 6.06401E+00 1.20325E+00
 -1     12134 6.79469E+01 6.06390E+00-1.18602E+00
 -1     12136 6.79469E+01 6.06390E+00 1.18602E+00
 -1     12137 8.96938E+01 6.72418E+00-1.56561E+00
 -1     12139 8.96938E+01 6.72418E+00 1.56561E+00
 -1     12140 7.33868E+01 6.93933E+00-1.28097E+00
 -1     12142 7.33868E+01 6.93933E+00 1.28097E+00
 -1     12143 6.74531E+01 6.93041E+00-1.17740E+00
 -1     12145 6.74531E+01 6.93041E+00 1.17740E+00
 -1     12146 3.50299E+01 6.33071E+00-6.11449E-01
 -1     12148 3.50299E+01 6.33071E+00 6.11449E-01
 -1     12149 3.40272E+01 6.21817E+00-5.93946E-01
 -1     12151 3.40272E+01 6.21817E+00 5.93946E-01
 -1     12152 3.10491E+01 2.54832E+01-5.41964E-01
 -1     12154 3.10491E+01 2.54832E+01 5.41964E-01
 -1     12155 3.10482E+01 2.64790E+01-5.41949E-01
 -1     12157 3.10482E+01 2.64790E+01 5.41949E-01
 -1     12158 3.19117E+01 2.69673E+01-5.57021E-01
 -1     12160 3.19117E+01 2.69673E+01 5.57021E-01
 -1     12161 9.30204E+01 2.29757E+01-1.62368E+00
 -1     12163 9.30204E+01 2.29757E+01 1.62368E+00
 -1     12164 9.30320E+01 2.49878E+01-1.62388E+00
 -1     12166 9.30320E+01 2.49878E+01 1.62388E+00
 -1     12167 9.39253E+01 3.44782E+01-1.63947E+00
 -1     12169 9.39253E+01 3.44782E+01 1.63947E+00
 -1     12170 9.39120E+01 3.34841E+01-1.63924E+00
 -1     12172 9.39120E+01 3.34841E+01 1.63924E+00
 -1     12173 3.29302E+01 5.76925E+00-5.74798E-01
 -1     12175 3.29302E+01 5.76925E+00 5.74798E-01
 -1     12176 3.12529E+01 3.95757E+01-5.45522E-01
 -1     12178 3.12529E+01 3.95757E+01 5.45522E-01
 -1     12179 3.12652E+01 4.06450E+01-5.45736E-01
 -1     12181 3.12652E+01 4.06450E+01 5.45736E-01
 -1     12182 3.21804E+01 3.90389E+01-5.61710E-01
 -1     12184 3.21804E+01 3.90389E+01 5.61710E-01
 -1     12185 6.94282E+01 6.93090E+00-1.21187E+00
 -1     12187 6.94282E+01 6.93090E+00 1.21187E+00
 -1     12188 4.92200E+01 6.05959E+00-8.59138E-01
 -1     12190 4.92200E+01 6.05959E+00 8.59138E-01
 -1     12191 4.82359E+01 6.05796E+00-8.41961E-01
 -1     12193 4.82359E+01 6.05796E+00 8.41961E-01
 -1     12194 4.97129E+01 6.92635E+00-8.67741E-01
 -1     12196 4.97129E+01 6.92635E+00 8.67741E-01
 -1     12197 3.93390E+01 6.13060E+00-6.86665E-01
 -1     12199 3.93390E+01 6.13060E+00 6.86665E-01
 -1     12200 3.83203E+01 6.16787E+00-6.68883E-01
 -1     12202 3.83203E+01 6.16787E+00 6.68883E-01
 -1     12203 3.98674E+01 6.97000E+00-6.95889E-01
 -1     12205 3.98674E+01 6.97000E+00 6.95889E-01
 -1     12206 9.40626E+01 8.96424E+00-1.64187E+00
 -1     12208 9.40626E+01 8.96424E+00 1.64187E+00
 -1     12209 9.40151E+01 7.99825E+00-1.64104E+00
 -1     12211 9.40151E+01 7.99825E+00 1.64104E+00
 -1     12212 9.31096E+01 7.68919E+00-1.62523E+00
 -1     12214 9.31096E+01 7.68919E+00 1.62523E+00
 -1     12215 9.32095E+01 9.48730E+00-1.62698E+00
 -1     12217 9.32095E+01 9.48730E+00 1.62698E+00
 -1     12218 4.33337E+01 6.03516E+00-7.56392E-01
 -1     12220 4.33337E+01 6.03516E+00 7.56392E-01
 -1     12221 4.23433E+01 6.04160E+00-7.39105E-01
 -1     12223 4.23433E+01 6.04160E+00 7.39105E-01
 -1     12224 4.18684E+01 6.90472E+00-7.30816E-01
 -1     12226 4.18684E+01 6.90472E+00 7.30816E-01
 -1     12227 4.38364E+01 6.89740E+00-7.65168E-01
 -1     12229 4.38364E+01 6.89740E+00 7.65168E-01
 -1     12230 8.08680E+01 6.15691E+00-1.41156E+00
 -1     12232 8.08680E+01 6.15691E+00 1.41156E+00
 -1     12233 7.98705E+01 6.14571E+00-1.39414E+00
 -1     12235 7.98705E+01 6.14571E+00 1.39414E+00
 -1     12236 9.30304E+01 3.29901E+01-1.62385E+00
 -1     12238 9.30304E+01 3.29901E+01 1.62385E+00
 -1     12239 7.93803E+01 7.01481E+00-1.38559E+00
 -1     12241 7.93803E+01 7.01481E+00 1.38559E+00
 -1     12242 8.13972E+01 7.05421E+00-1.42079E+00
 -1     12244 8.13972E+01 7.05421E+00 1.42079E+00
 -1     12245 3.19151E+01 2.49834E+01-5.57079E-01
 -1     12247 3.19151E+01 2.49834E+01 5.57079E-01
 -1     12248 3.62238E+01 6.26802E+00-6.32289E-01
 -1     12250 3.62238E+01 6.26802E+00 6.32289E-01
 -1     12251 3.55491E+01 7.24767E+00-6.20512E-01
 -1     12253 3.55491E+01 7.24767E+00 6.20512E-01
 -1     12254 3.72637E+01 6.24945E+00-6.50440E-01
 -1     12256 3.72637E+01 6.24945E+00 6.50440E-01
 -1     12257 9.30769E+01 3.49685E+01-1.62466E+00
 -1     12259 9.30769E+01 3.49685E+01 1.62466E+00
 -1     12260 3.29027E+01 3.43553E+01-5.74319E-01
 -1     12262 3.29027E+01 3.43553E+01 5.74319E-01
 -1     12263 3.29539E+01 3.53655E+01-5.75213E-01
 -1     12265 3.29539E+01 3.53655E+01 5.75213E-01
 -1     12266 3.19186E+01 2.29953E+01-5.57140E-01
 -1     12268 3.19186E+01 2.29953E+01 5.57140E-01
 -1     12269 9.21659E+01 2.54891E+01-1.60876E+00
 -1     12271 9.21659E+01 2.54891E+01 1.60876E+00
 -1     12272 9.21625E+01 2.44828E+01-1.60870E+00
 -1     12274 9.21625E+01 2.44828E+01 1.60870E+00
 -1     12275 9.25012E+01 4.13776E+01-1.61461E+00
 -1     12277 9.25012E+01 4.13776E+01 1.61461E+00
 -1     12278 9.25422E+01 4.03638E+01-1.61533E+00
 -1     12280 9.25422E+01 4.03638E+01 1.61533E+00
 -1     12281 9.15936E+01 4.16437E+01-1.59877E+00
 -1     12283 9.15936E+01 4.16437E+01 1.59877E+00
 -1     12284 3.27818E+01 2.44844E+01-5.72208E-01
 -1     12286 3.27818E+01 2.44844E+01 5.72208E-01
 -1     12287 3.27796E+01 2.54765E+01-5.72170E-01
 -1     12289 3.27796E+01 2.54765E+01 5.72170E-01
 -1     12290 8.19303E+01 7.96127E+00-1.43010E+00
 -1     12292 8.19303E+01 7.96127E+00 1.43010E+00
 -1     12293 8.09217E+01 7.94337E+00-1.41249E+00
 -1     12295 8.09217E+01 7.94337E+00 1.41249E+00
 -1     12296 9.21443E+01 2.95090E+01-1.60838E+00
 -1     12298 9.21443E+01 2.95090E+01 1.60838E+00
 -1     12299 9.21492E+01 2.85072E+01-1.60847E+00
 -1     12301 9.21492E+01 2.85072E+01 1.60847E+00
 -1     12302 3.27733E+01 2.84311E+01-5.72059E-01
 -1     12304 3.27733E+01 2.84311E+01 5.72059E-01
 -1     12305 3.27763E+01 2.94191E+01-5.72112E-01
 -1     12307 3.27763E+01 2.94191E+01 5.72112E-01
 -1     12308 3.11106E+01 9.69453E+00-5.43037E-01
 -1     12310 3.11106E+01 9.69453E+00 5.43037E-01
 -1     12311 3.10653E+01 1.06654E+01-5.42247E-01
 -1     12313 3.10653E+01 1.06654E+01 5.42247E-01
 -1     12314 3.27891E+01 1.85064E+01-5.72336E-01
 -1     12316 3.27891E+01 1.85064E+01 5.72336E-01
 -1     12317 3.27876E+01 1.95053E+01-5.72310E-01
 -1     12319 3.27876E+01 1.95053E+01 5.72310E-01
 -1     12320 7.98984E+01 7.90738E+00-1.39463E+00
 -1     12322 7.98984E+01 7.90738E+00 1.39463E+00
 -1     12323 7.88900E+01 7.88588E+00-1.37703E+00
 -1     12325 7.88900E+01 7.88588E+00 1.37703E+00
 -1     12326 8.04314E+01 8.81444E+00-1.40394E+00
 -1     12328 8.04314E+01 8.81444E+00 1.40394E+00
 -1     12329 9.20363E+01 1.16067E+01-1.60650E+00
 -1     12331 9.20363E+01 1.16067E+01 1.60650E+00
 -1     12332 9.21119E+01 1.07166E+01-1.60782E+00
 -1     12334 9.21119E+01 1.07166E+01 1.60782E+00
 -1     12335 6.20296E+01 7.79904E+00-1.08273E+00
 -1     12337 6.20296E+01 7.79904E+00 1.08273E+00
 -1     12338 6.10444E+01 7.79904E+00-1.06553E+00
 -1     12340 6.10444E+01 7.79904E+00 1.06553E+00
 -1     12341 3.30414E+01 4.17152E+01-5.76740E-01
 -1     12343 3.30414E+01 4.17152E+01 5.76740E-01
 -1     12344 3.41591E+01 4.18362E+01-5.96249E-01
 -1     12346 3.41591E+01 4.18362E+01 5.96249E-01
 -1     12347 6.79459E+01 7.79712E+00-1.18600E+00
 -1     12349 6.79459E+01 7.79712E+00 1.18600E+00
 -1     12350 6.69588E+01 7.79715E+00-1.16877E+00
 -1     12352 6.69588E+01 7.79715E+00 1.16877E+00
 -1     12353 9.03510E+01 7.64416E+00-1.57708E+00
 -1     12355 9.03510E+01 7.64416E+00 1.57708E+00
 -1     12356 8.92561E+01 7.87772E+00-1.55797E+00
 -1     12358 8.92561E+01 7.87772E+00 1.55797E+00
 -1     12359 9.23214E+01 7.38750E+00-1.61148E+00
 -1     12361 9.23214E+01 7.38750E+00 1.61148E+00
 -1     12362 9.12342E+01 7.23371E+00-1.59250E+00
 -1     12364 9.12342E+01 7.23371E+00 1.59250E+00
 -1     12365 9.07965E+01 8.38725E+00-1.58486E+00
 -1     12367 9.07965E+01 8.38725E+00 1.58486E+00
 -1     12368 9.24679E+01 8.27849E+00-1.61403E+00
 -1     12370 9.24679E+01 8.27849E+00 1.61403E+00
 -1     12371 7.18993E+01 7.80040E+00-1.25501E+00
 -1     12373 7.18993E+01 7.80040E+00 1.25501E+00
 -1     12374 7.09098E+01 7.79857E+00-1.23774E+00
 -1     12376 7.09098E+01 7.79857E+00 1.23774E+00
 -1     12377 9.21537E+01 2.34716E+01-1.60855E+00
 -1     12379 9.21537E+01 2.34716E+01 1.60855E+00
 -1     12380 9.21455E+01 2.24657E+01-1.60841E+00
 -1     12382 9.21455E+01 2.24657E+01 1.60841E+00
 -1     12383 9.12877E+01 2.39728E+01-1.59343E+00
 -1     12385 9.12877E+01 2.39728E+01 1.59343E+00
 -1     12386 6.99210E+01 7.79757E+00-1.22048E+00
 -1     12388 6.99210E+01 7.79757E+00 1.22048E+00
 -1     12389 6.89330E+01 7.79705E+00-1.20323E+00
 -1     12391 6.89330E+01 7.79705E+00 1.20323E+00
 -1     12392 6.84386E+01 8.66378E+00-1.19460E+00
 -1     12394 6.84386E+01 8.66378E+00 1.19460E+00
 -1     12395 7.04146E+01 8.66471E+00-1.22909E+00
 -1     12397 7.04146E+01 8.66471E+00 1.22909E+00
 -1     12398 9.20743E+01 1.74502E+01-1.60716E+00
 -1     12400 9.20743E+01 1.74502E+01 1.60716E+00
 -1     12401 9.20754E+01 1.64688E+01-1.60718E+00
 -1     12403 9.20754E+01 1.64688E+01 1.60718E+00
 -1     12404 9.20911E+01 1.54966E+01-1.60746E+00
 -1     12406 9.20911E+01 1.54966E+01 1.60746E+00
 -1     12407 9.21046E+01 1.45307E+01-1.60769E+00
 -1     12409 9.21046E+01 1.45307E+01 1.60769E+00
 -1     12410 9.11901E+01 1.59535E+01-1.59173E+00
 -1     12412 9.11901E+01 1.59535E+01 1.59173E+00
 -1     12413 3.27759E+01 2.64611E+01-5.72105E-01
 -1     12415 3.27759E+01 2.64611E+01 5.72105E-01
 -1     12416 3.27747E+01 2.74528E+01-5.72084E-01
 -1     12418 3.27747E+01 2.74528E+01 5.72084E-01
 -1     12419 3.36426E+01 2.59620E+01-5.87234E-01
 -1     12421 3.36426E+01 2.59620E+01 5.87234E-01
 -1     12422 8.81421E+01 7.89791E+00-1.53853E+00
 -1     12424 8.81421E+01 7.89791E+00 1.53853E+00
 -1     12425 8.70887E+01 7.95174E+00-1.52014E+00
 -1     12427 8.70887E+01 7.95174E+00 1.52014E+00
 -1     12428 8.87993E+01 8.81790E+00-1.55000E+00
 -1     12430 8.87993E+01 8.81790E+00 1.55000E+00
 -1     12431 3.27298E+01 1.25830E+01-5.71301E-01
 -1     12433 3.27298E+01 1.25830E+01 5.71301E-01
 -1     12434 3.27621E+01 1.35396E+01-5.71865E-01
 -1     12436 3.27621E+01 1.35396E+01 5.71865E-01
 -1     12437 9.21273E+01 2.14528E+01-1.60809E+00
 -1     12439 9.21273E+01 2.14528E+01 1.60809E+00
 -1     12440 9.21163E+01 2.04500E+01-1.60790E+00
 -1     12442 9.21163E+01 2.04500E+01 1.60790E+00
 -1     12443 9.12607E+01 2.19486E+01-1.59296E+00
 -1     12445 9.12607E+01 2.19486E+01 1.59296E+00
 -1     12446 3.18905E+01 1.11773E+01-5.56651E-01
 -1     12448 3.18905E+01 1.11773E+01 5.56651E-01
 -1     12449 9.20958E+01 1.94418E+01-1.60754E+00
 -1     12451 9.20958E+01 1.94418E+01 1.60754E+00
 -1     12452 9.20879E+01 1.84470E+01-1.60740E+00
 -1     12454 9.20879E+01 1.84470E+01 1.60740E+00
 -1     12455 9.12221E+01 1.99275E+01-1.59229E+00
 -1     12457 9.12221E+01 1.99275E+01 1.59229E+00
 -1     12458 3.27824E+01 3.03986E+01-5.72220E-01
 -1     12460 3.27824E+01 3.03986E+01 5.72220E-01
 -1     12461 3.27946E+01 3.13928E+01-5.72432E-01
 -1     12463 3.27946E+01 3.13928E+01 5.72432E-01
 -1     12464 3.36422E+01 2.98827E+01-5.87227E-01
 -1     12466 3.36422E+01 2.98827E+01 5.87227E-01
 -1     12467 5.21753E+01 7.79299E+00-9.10724E-01
 -1     12469 5.21753E+01 7.79299E+00 9.10724E-01
 -1     12470 5.11898E+01 7.79300E+00-8.93521E-01
 -1     12472 5.11898E+01 7.79300E+00 8.93521E-01
 -1     12473 9.21409E+01 1.35772E+01-1.60833E+00
 -1     12475 9.21409E+01 1.35772E+01 1.60833E+00
 -1     12476 9.21450E+01 1.26244E+01-1.60840E+00
 -1     12478 9.21450E+01 1.26244E+01 1.60840E+00
 -1     12479 9.12421E+01 1.40277E+01-1.59264E+00
 -1     12481 9.12421E+01 1.40277E+01 1.59264E+00
 -1     12482 9.21596E+01 2.75005E+01-1.60865E+00
 -1     12484 9.21596E+01 2.75005E+01 1.60865E+00
 -1     12485 9.21635E+01 2.64964E+01-1.60872E+00
 -1     12487 9.21635E+01 2.64964E+01 1.60872E+00
 -1     12488 9.12813E+01 2.80054E+01-1.59332E+00
 -1     12490 9.12813E+01 2.80054E+01 1.59332E+00
 -1     12491 3.27808E+01 1.45286E+01-5.72191E-01
 -1     12493 3.27808E+01 1.45286E+01 5.72191E-01
 -1     12494 3.27911E+01 1.55096E+01-5.72371E-01
 -1     12496 3.27911E+01 1.55096E+01 5.72371E-01
 -1     12497 3.36405E+01 1.40135E+01-5.87197E-01
 -1     12499 3.36405E+01 1.40135E+01 5.87197E-01
 -1     12500 3.32583E+01 6.86144E+00-5.80525E-01
 -1     12502 3.32583E+01 6.86144E+00 5.80525E-01
 -1     12503 9.23061E+01 3.74381E+01-1.61121E+00
 -1     12505 9.23061E+01 3.74381E+01 1.61121E+00
 -1     12506 9.22954E+01 3.64350E+01-1.61102E+00
 -1     12508 9.22954E+01 3.64350E+01 1.61102E+00
 -1     12509 9.22136E+01 3.54683E+01-1.60959E+00
 -1     12511 9.22136E+01 3.54683E+01 1.60959E+00
 -1     12512 9.21809E+01 3.44802E+01-1.60902E+00
 -1     12514 9.21809E+01 3.44802E+01 1.60902E+00
 -1     12515 9.13994E+01 3.59468E+01-1.59538E+00
 -1     12517 9.13994E+01 3.59468E+01 1.59538E+00
 -1     12518 3.30526E+01 3.63741E+01-5.76935E-01
 -1     12520 3.30526E+01 3.63741E+01 5.76935E-01
 -1     12521 3.31102E+01 3.74075E+01-5.77942E-01
 -1     12523 3.31102E+01 3.74075E+01 5.77942E-01
 -1     12524 3.39048E+01 3.58040E+01-5.91811E-01
 -1     12526 3.39048E+01 3.58040E+01 5.91811E-01
 -1     12527 3.50757E+01 4.17894E+01-6.12249E-01
 -1     12529 3.50757E+01 4.17894E+01 6.12249E-01
 -1     12530 3.60825E+01 4.18098E+01-6.29822E-01
 -1     12532 3.60825E+01 4.18098E+01 6.29822E-01
 -1     12533 3.71021E+01 4.18638E+01-6.47620E-01
 -1     12535 3.71021E+01 4.18638E+01 6.47620E-01
 -1     12536 3.81005E+01 4.18944E+01-6.65047E-01
 -1     12538 3.81005E+01 4.18944E+01 6.65047E-01
 -1     12539 3.66051E+01 4.09543E+01-6.38944E-01
 -1     12541 3.66051E+01 4.09543E+01 6.38944E-01
 -1     12542 3.91110E+01 4.19426E+01-6.82685E-01
 -1     12544 3.91110E+01 4.19426E+01 6.82685E-01
 -1     12545 4.01103E+01 4.19677E+01-7.00128E-01
 -1     12547 4.01103E+01 4.19677E+01 7.00128E-01
 -1     12548 3.86352E+01 4.10565E+01-6.74380E-01
 -1     12550 3.86352E+01 4.10565E+01 6.74380E-01
 -1     12551 4.11151E+01 4.19977E+01-7.17667E-01
 -1     12553 4.11151E+01 4.19977E+01 7.17667E-01
 -1     12554 4.21121E+01 4.20123E+01-7.35070E-01
 -1     12556 4.21121E+01 4.20123E+01 7.35070E-01
 -1     12557 4.06505E+01 4.11348E+01-7.09557E-01
 -1     12559 4.06505E+01 4.11348E+01 7.09557E-01
 -1     12560 4.31101E+01 4.20244E+01-7.52489E-01
 -1     12562 4.31101E+01 4.20244E+01 7.52489E-01
 -1     12563 4.41032E+01 4.20293E+01-7.69824E-01
 -1     12565 4.41032E+01 4.20293E+01 7.69824E-01
 -1     12566 4.26532E+01 4.11769E+01-7.44515E-01
 -1     12568 4.26532E+01 4.11769E+01 7.44515E-01
 -1     12569 4.50951E+01 4.20287E+01-7.87138E-01
 -1     12571 4.50951E+01 4.20287E+01 7.87138E-01
 -1     12572 4.60846E+01 4.20272E+01-8.04409E-01
 -1     12574 4.60846E+01 4.20272E+01 8.04409E-01
 -1     12575 4.46430E+01 4.11884E+01-7.79247E-01
 -1     12577 4.46430E+01 4.11884E+01 7.79247E-01
 -1     12578 4.70721E+01 4.20203E+01-8.21646E-01
 -1     12580 4.70721E+01 4.20203E+01 8.21646E-01
 -1     12581 4.80589E+01 4.20161E+01-8.38872E-01
 -1     12583 4.80589E+01 4.20161E+01 8.38872E-01
 -1     12584 4.66224E+01 4.11808E+01-8.13797E-01
 -1     12586 4.66224E+01 4.11808E+01 8.13797E-01
 -1     12587 4.90439E+01 4.20082E+01-8.56065E-01
 -1     12589 4.90439E+01 4.20082E+01 8.56065E-01
 -1     12590 5.00294E+01 4.20041E+01-8.73267E-01
 -1     12592 5.00294E+01 4.20041E+01 8.73267E-01
 -1     12593 4.85949E+01 4.11660E+01-8.48226E-01
 -1     12595 4.85949E+01 4.11660E+01 8.48226E-01
 -1     12596 5.10136E+01 4.19983E+01-8.90446E-01
 -1     12598 5.10136E+01 4.19983E+01 8.90446E-01
 -1     12599 5.19988E+01 4.19954E+01-9.07642E-01
 -1     12601 5.19988E+01 4.19954E+01 9.07642E-01
 -1     12602 5.05641E+01 4.11523E+01-8.82599E-01
 -1     12604 5.05641E+01 4.11523E+01 8.82599E-01
 -1     12605 5.29833E+01 4.19922E+01-9.24828E-01
 -1     12607 5.29833E+01 4.19922E+01 9.24828E-01
 -1     12608 5.39685E+01 4.19906E+01-9.42024E-01
 -1     12610 5.39685E+01 4.19906E+01 9.42024E-01
 -1     12611 5.25329E+01 4.11433E+01-9.16965E-01
 -1     12613 5.25329E+01 4.11433E+01 9.16965E-01
 -1     12614 5.49536E+01 4.19892E+01-9.59218E-01
 -1     12616 5.49536E+01 4.19892E+01 9.59218E-01
 -1     12617 5.59388E+01 4.19883E+01-9.76416E-01
 -1     12619 5.59388E+01 4.19883E+01 9.76416E-01
 -1     12620 5.45025E+01 4.11387E+01-9.51344E-01
 -1     12622 5.45025E+01 4.11387E+01 9.51344E-01
 -1     12623 5.69241E+01 4.19877E+01-9.93614E-01
 -1     12625 5.69241E+01 4.19877E+01 9.93614E-01
 -1     12626 5.79094E+01 4.19873E+01-1.01081E+00
 -1     12628 5.79094E+01 4.19873E+01 1.01081E+00
 -1     12629 5.64728E+01 4.11366E+01-9.85736E-01
 -1     12631 5.64728E+01 4.11366E+01 9.85736E-01
 -1     12632 5.88950E+01 4.19872E+01-1.02802E+00
 -1     12634 5.88950E+01 4.19872E+01 1.02802E+00
 -1     12635 5.98806E+01 4.19872E+01-1.04522E+00
 -1     12637 5.98806E+01 4.19872E+01 1.04522E+00
 -1     12638 5.84437E+01 4.11358E+01-1.02014E+00
 -1     12640 5.84437E+01 4.11358E+01 1.02014E+00
 -1     12641 6.08667E+01 4.19876E+01-1.06243E+00
 -1     12643 6.08667E+01 4.19876E+01 1.06243E+00
 -1     12644 6.18528E+01 4.19880E+01-1.07964E+00
 -1     12646 6.18528E+01 4.19880E+01 1.07964E+00
 -1     12647 6.04153E+01 4.11361E+01-1.05455E+00
 -1     12649 6.04153E+01 4.11361E+01 1.05455E+00
 -1     12650 6.28395E+01 4.19886E+01-1.09687E+00
 -1     12652 6.28395E+01 4.19886E+01 1.09687E+00
 -1     12653 6.38261E+01 4.19890E+01-1.11409E+00
 -1     12655 6.38261E+01 4.19890E+01 1.11409E+00
 -1     12656 6.23881E+01 4.11370E+01-1.08899E+00
 -1     12658 6.23881E+01 4.11370E+01 1.08899E+00
 -1     12659 6.48132E+01 4.19896E+01-1.13132E+00
 -1     12661 6.48132E+01 4.19896E+01 1.13132E+00
 -1     12662 6.58001E+01 4.19900E+01-1.14855E+00
 -1     12664 6.58001E+01 4.19900E+01 1.14855E+00
 -1     12665 6.43620E+01 4.11381E+01-1.12344E+00
 -1     12667 6.43620E+01 4.11381E+01 1.12344E+00
 -1     12668 6.67871E+01 4.19906E+01-1.16577E+00
 -1     12670 6.67871E+01 4.19906E+01 1.16577E+00
 -1     12671 6.77740E+01 4.19912E+01-1.18300E+00
 -1     12673 6.77740E+01 4.19912E+01 1.18300E+00
 -1     12674 6.63361E+01 4.11393E+01-1.15790E+00
 -1     12676 6.63361E+01 4.11393E+01 1.15790E+00
 -1     12677 6.87605E+01 4.19922E+01-1.20022E+00
 -1     12679 6.87605E+01 4.19922E+01 1.20022E+00
 -1     12680 6.97469E+01 4.19930E+01-1.21744E+00
 -1     12682 6.97469E+01 4.19930E+01 1.21744E+00
 -1     12683 6.83096E+01 4.11410E+01-1.19235E+00
 -1     12685 6.83096E+01 4.11410E+01 1.19235E+00
 -1     12686 7.07328E+01 4.19945E+01-1.23464E+00
 -1     12688 7.07328E+01 4.19945E+01 1.23464E+00
 -1     12689 7.17184E+01 4.19954E+01-1.25185E+00
 -1     12691 7.17184E+01 4.19954E+01 1.25185E+00
 -1     12692 7.02820E+01 4.11435E+01-1.22678E+00
 -1     12694 7.02820E+01 4.11435E+01 1.22678E+00
 -1     12695 7.27031E+01 4.19967E+01-1.26904E+00
 -1     12697 7.27031E+01 4.19967E+01 1.26904E+00
 -1     12698 7.36873E+01 4.19975E+01-1.28622E+00
 -1     12700 7.36873E+01 4.19975E+01 1.28622E+00
 -1     12701 7.22524E+01 4.11464E+01-1.26117E+00
 -1     12703 7.22524E+01 4.11464E+01 1.26117E+00
 -1     12704 7.46694E+01 4.19982E+01-1.30336E+00
 -1     12706 7.46694E+01 4.19982E+01 1.30336E+00
 -1     12707 7.56509E+01 4.19989E+01-1.32049E+00
 -1     12709 7.56509E+01 4.19989E+01 1.32049E+00
 -1     12710 7.42192E+01 4.11484E+01-1.29550E+00
 -1     12712 7.42192E+01 4.11484E+01 1.29550E+00
 -1     12713 7.66277E+01 4.19994E+01-1.33754E+00
 -1     12715 7.66277E+01 4.19994E+01 1.33754E+00
 -1     12716 7.76050E+01 4.20003E+01-1.35460E+00
 -1     12718 7.76050E+01 4.20003E+01 1.35460E+00
 -1     12719 7.61781E+01 4.11495E+01-1.32969E+00
 -1     12721 7.61781E+01 4.11495E+01 1.32969E+00
 -1     12722 7.85742E+01 4.20014E+01-1.37152E+00
 -1     12724 7.85742E+01 4.20014E+01 1.37152E+00
 -1     12725 7.95459E+01 4.20025E+01-1.38848E+00
 -1     12727 7.95459E+01 4.20025E+01 1.38848E+00
 -1     12728 7.81241E+01 4.11510E+01-1.36366E+00
 -1     12730 7.81241E+01 4.11510E+01 1.36366E+00
 -1     12731 8.05047E+01 4.20042E+01-1.40522E+00
 -1     12733 8.05047E+01 4.20042E+01 1.40522E+00
 -1     12734 8.14697E+01 4.20041E+01-1.42206E+00
 -1     12736 8.14697E+01 4.20041E+01 1.42206E+00
 -1     12737 8.00521E+01 4.11536E+01-1.39731E+00
 -1     12739 8.00521E+01 4.11536E+01 1.39731E+00
 -1     12740 8.24153E+01 4.20051E+01-1.43856E+00
 -1     12742 8.24153E+01 4.20051E+01 1.43856E+00
 -1     12743 8.33742E+01 4.19977E+01-1.45530E+00
 -1     12745 8.33742E+01 4.19977E+01 1.45530E+00
 -1     12746 8.19566E+01 4.11562E+01-1.43056E+00
 -1     12748 8.19566E+01 4.11562E+01 1.43056E+00
 -1     12749 8.43112E+01 4.19804E+01-1.47166E+00
 -1     12751 8.43112E+01 4.19804E+01 1.47166E+00
 -1     12752 8.52626E+01 4.19590E+01-1.48826E+00
 -1     12754 8.52626E+01 4.19590E+01 1.48826E+00
 -1     12755 8.38391E+01 4.11399E+01-1.46342E+00
 -1     12757 8.38391E+01 4.11399E+01 1.46342E+00
 -1     12758 8.61855E+01 4.19146E+01-1.50437E+00
 -1     12760 8.61855E+01 4.19146E+01 1.50437E+00
 -1     12761 8.71262E+01 4.18797E+01-1.52079E+00
 -1     12763 8.71262E+01 4.18797E+01 1.52079E+00
 -1     12764 8.56990E+01 4.10781E+01-1.49588E+00
 -1     12766 8.56990E+01 4.10781E+01 1.49588E+00
 -1     12767 8.80298E+01 4.18313E+01-1.53657E+00
 -1     12769 8.80298E+01 4.18313E+01 1.53657E+00
 -1     12770 8.89608E+01 4.17813E+01-1.55282E+00
 -1     12772 8.89608E+01 4.17813E+01 1.55282E+00
 -1     12773 8.75254E+01 4.09851E+01-1.52776E+00
 -1     12775 8.75254E+01 4.09851E+01 1.52776E+00
 -1     12776 8.60274E+01 7.98290E+00-1.50161E+00
 -1     12778 8.60274E+01 7.98290E+00 1.50161E+00
 -1     12779 8.49973E+01 7.99442E+00-1.48363E+00
 -1     12781 8.49973E+01 7.99442E+00 1.48363E+00
 -1     12782 8.66242E+01 8.86924E+00-1.51203E+00
 -1     12784 8.66242E+01 8.86924E+00 1.51203E+00
 -1     12785 3.27916E+01 1.65104E+01-5.72380E-01
 -1     12787 3.27916E+01 1.65104E+01 5.72380E-01
 -1     12788 3.27924E+01 1.75047E+01-5.72394E-01
 -1     12790 3.27924E+01 1.75047E+01 5.72394E-01
 -1     12791 3.36596E+01 1.60034E+01-5.87530E-01
 -1     12793 3.36596E+01 1.60034E+01 5.87530E-01
 -1     12794 3.20671E+01 9.26264E+00-5.59733E-01
 -1     12796 3.20671E+01 9.26264E+00 5.59733E-01
 -1     12797 9.21430E+01 3.34988E+01-1.60836E+00
 -1     12799 9.21430E+01 3.34988E+01 1.60836E+00
 -1     12800 9.21292E+01 3.25085E+01-1.60812E+00
 -1     12802 9.21292E+01 3.25085E+01 1.60812E+00
 -1     12803 9.12797E+01 3.39986E+01-1.59329E+00
 -1     12805 9.12797E+01 3.39986E+01 1.59329E+00
 -1     12806 9.22854E+01 3.94715E+01-1.61085E+00
 -1     12808 9.22854E+01 3.94715E+01 1.61085E+00
 -1     12809 9.22322E+01 3.84966E+01-1.60992E+00
 -1     12811 9.22322E+01 3.84966E+01 1.60992E+00
 -1     12812 9.14074E+01 3.79721E+01-1.59552E+00
 -1     12814 9.14074E+01 3.79721E+01 1.59552E+00
 -1     12815 9.15903E+01 3.99229E+01-1.59871E+00
 -1     12817 9.15903E+01 3.99229E+01 1.59871E+00
 -1     12818 3.32731E+01 7.81132E+00-5.80784E-01
 -1     12820 3.32731E+01 7.81132E+00 5.80784E-01
 -1     12821 3.36375E+01 2.79249E+01-5.87144E-01
 -1     12823 3.36375E+01 2.79249E+01 5.87144E-01
 -1     12824 9.12941E+01 2.59914E+01-1.59354E+00
 -1     12826 9.12941E+01 2.59914E+01 1.59354E+00
 -1     12827 3.77996E+01 7.10340E+00-6.59795E-01
 -1     12829 3.77996E+01 7.10340E+00 6.59795E-01
 -1     12830 3.41357E+01 8.42819E+00-5.95841E-01
 -1     12832 3.41357E+01 8.42819E+00 5.95841E-01
 -1     12833 3.30536E+01 8.92915E+00-5.76952E-01
 -1     12835 3.30536E+01 8.92915E+00 5.76952E-01
 -1     12836 3.27837E+01 2.34937E+01-5.72242E-01
 -1     12838 3.27837E+01 2.34937E+01 5.72242E-01
 -1     12839 3.36482E+01 2.39868E+01-5.87332E-01
 -1     12841 3.36482E+01 2.39868E+01 5.87332E-01
 -1     12842 3.27850E+01 2.24977E+01-5.72265E-01
 -1     12844 3.27850E+01 2.24977E+01 5.72265E-01
 -1     12845 3.29297E+01 9.87952E+00-5.74790E-01
 -1     12847 3.29297E+01 9.87952E+00 5.74790E-01
 -1     12848 5.80890E+01 7.79684E+00-1.01395E+00
 -1     12850 5.80890E+01 7.79684E+00 1.01395E+00
 -1     12851 5.71038E+01 7.79609E+00-9.96750E-01
 -1     12853 5.71038E+01 7.79609E+00 9.96750E-01
 -1     12854 4.77491E+01 6.92207E+00-8.33463E-01
 -1     12856 4.77491E+01 6.92207E+00 8.33463E-01
 -1     12857 9.11880E+01 1.79225E+01-1.59169E+00
 -1     12859 9.11880E+01 1.79225E+01 1.59169E+00
 -1     12860 8.39669E+01 7.99457E+00-1.46565E+00
 -1     12862 8.39669E+01 7.99457E+00 1.46565E+00
 -1     12863 8.29540E+01 7.98640E+00-1.44797E+00
 -1     12865 8.29540E+01 7.98640E+00 1.44797E+00
 -1     12866 3.27862E+01 2.05037E+01-5.72285E-01
 -1     12868 3.27862E+01 2.05037E+01 5.72285E-01
 -1     12869 3.27852E+01 2.15019E+01-5.72269E-01
 -1     12871 3.27852E+01 2.15019E+01 5.72269E-01
 -1     12872 3.36520E+01 2.00060E+01-5.87398E-01
 -1     12874 3.36520E+01 2.00060E+01 5.87398E-01
 -1     12875 4.24025E+01 7.73373E+00-7.40139E-01
 -1     12877 4.24025E+01 7.73373E+00 7.40139E-01
 -1     12878 4.14127E+01 7.74719E+00-7.22862E-01
 -1     12880 4.14127E+01 7.74719E+00 7.22862E-01
 -1     12881 8.24785E+01 8.87556E+00-1.43967E+00
 -1     12883 8.24785E+01 8.87556E+00 1.43967E+00
 -1     12884 3.28201E+01 3.23724E+01-5.72877E-01
 -1     12886 3.28201E+01 3.23724E+01 5.72877E-01
 -1     12887 3.28493E+01 3.33683E+01-5.73386E-01
 -1     12889 3.28493E+01 3.33683E+01 5.73386E-01
 -1     12890 9.11696E+01 1.20565E+01-1.59137E+00
 -1     12892 9.11696E+01 1.20565E+01 1.59137E+00
 -1     12893 7.28903E+01 7.80352E+00-1.27230E+00
 -1     12895 7.28903E+01 7.80352E+00 1.27230E+00
 -1     12896 7.23945E+01 8.66883E+00-1.26365E+00
 -1     12898 7.23945E+01 8.66883E+00 1.26365E+00
 -1     12899 7.38819E+01 7.80776E+00-1.28961E+00
 -1     12901 7.38819E+01 7.80776E+00 1.28961E+00
 -1     12902 8.45326E+01 8.90054E+00-1.47552E+00
 -1     12904 8.45326E+01 8.90054E+00 1.47552E+00
 -1     12905 5.61185E+01 7.79463E+00-9.79551E-01
 -1     12907 5.61185E+01 7.79463E+00 9.79551E-01
 -1     12908 5.51328E+01 7.79388E+00-9.62347E-01
 -1     12910 5.51328E+01 7.79388E+00 9.62347E-01
 -1     12911 5.66115E+01 8.66183E+00-9.88158E-01
 -1     12913 5.66115E+01 8.66183E+00 9.88158E-01
 -1     12914 3.46688E+01 4.09471E+01-6.05147E-01
 -1     12916 3.46688E+01 4.09471E+01 6.05147E-01
 -1     12917 3.37527E+01 3.38083E+01-5.89156E-01
 -1     12919 3.37527E+01 3.38083E+01 5.89156E-01
 -1     12920 3.26592E+01 1.07427E+01-5.70069E-01
 -1     12922 3.26592E+01 1.07427E+01 5.70069E-01
 -1     12923 3.26065E+01 1.17069E+01-5.69149E-01
 -1     12925 3.26065E+01 1.17069E+01 5.69149E-01
 -1     12926 4.62850E+01 7.78234E+00-8.07908E-01
 -1     12928 4.62850E+01 7.78234E+00 8.07908E-01
 -1     12929 4.53077E+01 7.77488E+00-7.90849E-01
 -1     12931 4.53077E+01 7.77488E+00 7.90849E-01
 -1     12932 6.00592E+01 7.79850E+00-1.04834E+00
 -1     12934 6.00592E+01 7.79850E+00 1.04834E+00
 -1     12935 5.90740E+01 7.79792E+00-1.03114E+00
 -1     12937 5.90740E+01 7.79792E+00 1.03114E+00
 -1     12938 6.05520E+01 8.66599E+00-1.05694E+00
 -1     12940 6.05520E+01 8.66599E+00 1.05694E+00
 -1     12941 3.34985E+01 1.21484E+01-5.84719E-01
 -1     12943 3.34985E+01 1.21484E+01 5.84719E-01
 -1     12944 3.36738E+01 3.18417E+01-5.87779E-01
 -1     12946 3.36738E+01 3.18417E+01 5.87779E-01
 -1     12947 6.59725E+01 7.79781E+00-1.15155E+00
 -1     12949 6.59725E+01 7.79781E+00 1.15155E+00
 -1     12950 6.49862E+01 7.79807E+00-1.13434E+00
 -1     12952 6.49862E+01 7.79807E+00 1.13434E+00
 -1     12953 6.64652E+01 8.66451E+00-1.16016E+00
 -1     12955 6.64652E+01 8.66451E+00 1.16016E+00
 -1     12956 5.41471E+01 7.79302E+00-9.45141E-01
 -1     12958 5.41471E+01 7.79302E+00 9.45141E-01
 -1     12959 5.31614E+01 7.79281E+00-9.27935E-01
 -1     12961 5.31614E+01 7.79281E+00 9.27935E-01
 -1     12962 5.26687E+01 8.65881E+00-9.19335E-01
 -1     12964 5.26687E+01 8.65881E+00 9.19335E-01
 -1     12965 5.46405E+01 8.65950E+00-9.53753E-01
 -1     12967 5.46405E+01 8.65950E+00 9.53753E-01
 -1     12968 9.21314E+01 3.15107E+01-1.60816E+00
 -1     12970 9.21314E+01 3.15107E+01 1.60816E+00
 -1     12971 9.21320E+01 3.05137E+01-1.60817E+00
 -1     12973 9.21320E+01 3.05137E+01 1.60817E+00
 -1     12974 5.02041E+01 7.79400E+00-8.76316E-01
 -1     12976 5.02041E+01 7.79400E+00 8.76316E-01
 -1     12977 4.92201E+01 7.79333E+00-8.59139E-01
 -1     12979 4.92201E+01 7.79333E+00 8.59139E-01
 -1     12980 5.06970E+01 8.65998E+00-8.84919E-01
 -1     12982 5.06970E+01 8.65998E+00 8.84919E-01
 -1     12983 3.36568E+01 1.80059E+01-5.87481E-01
 -1     12985 3.36568E+01 1.80059E+01 5.87481E-01
 -1     12986 8.98563E+01 4.17303E+01-1.56845E+00
 -1     12988 8.98563E+01 4.17303E+01 1.56845E+00
 -1     12989 9.07800E+01 4.16534E+01-1.58457E+00
 -1     12991 9.07800E+01 4.16534E+01 1.58457E+00
 -1     12992 9.10336E+01 4.08249E+01-1.58900E+00
 -1     12994 9.10336E+01 4.08249E+01 1.58900E+00
 -1     12995 8.93245E+01 4.08856E+01-1.55916E+00
 -1     12997 8.93245E+01 4.08856E+01 1.55916E+00
 -1     12998 4.04353E+01 7.77967E+00-7.05800E-01
 -1     13000 4.04353E+01 7.77967E+00 7.05800E-01
 -1     13001 3.94241E+01 7.83149E+00-6.88151E-01
 -1     13003 3.94241E+01 7.83149E+00 6.88151E-01
 -1     13004 4.09694E+01 8.60867E+00-7.15124E-01
 -1     13006 4.09694E+01 8.60867E+00 7.15124E-01
 -1     13007 3.22372E+01 4.12560E+01-5.62702E-01
 -1     13009 3.22372E+01 4.12560E+01 5.62702E-01
 -1     13010 9.24634E+01 9.93354E+00-1.61395E+00
 -1     13012 9.24634E+01 9.93354E+00 1.61395E+00
 -1     13013 9.25100E+01 9.02643E+00-1.61477E+00
 -1     13015 9.25100E+01 9.02643E+00 1.61477E+00
 -1     13016 9.17218E+01 8.72473E+00-1.60101E+00
 -1     13018 9.17218E+01 8.72473E+00 1.60101E+00
 -1     13019 9.14124E+01 1.02558E+01-1.59561E+00
 -1     13021 9.14124E+01 1.02558E+01 1.59561E+00
 -1     13022 7.78765E+01 7.85734E+00-1.35934E+00
 -1     13024 7.78765E+01 7.85734E+00 1.35934E+00
 -1     13025 7.68745E+01 7.84128E+00-1.34185E+00
 -1     13027 7.68745E+01 7.84128E+00 1.34185E+00
 -1     13028 7.83946E+01 8.74992E+00-1.36838E+00
 -1     13030 7.83946E+01 8.74992E+00 1.36838E+00
 -1     13031 3.36457E+01 1.04092E+01-5.87288E-01
 -1     13033 3.36457E+01 1.04092E+01 5.87288E-01
 -1     13034 3.51481E+01 8.25894E+00-6.13512E-01
 -1     13036 3.51481E+01 8.25894E+00 6.13512E-01
 -1     13037 3.49286E+01 9.37677E+00-6.09680E-01
 -1     13039 3.49286E+01 9.37677E+00 6.09680E-01
 -1     13040 3.63420E+01 8.19625E+00-6.34352E-01
 -1     13042 3.63420E+01 8.19625E+00 6.34352E-01
 -1     13043 9.12585E+01 3.00168E+01-1.59292E+00
 -1     13045 9.12585E+01 3.00168E+01 1.59292E+00
 -1     13046 7.48762E+01 7.81525E+00-1.30697E+00
 -1     13048 7.48762E+01 7.81525E+00 1.30697E+00
 -1     13049 7.43797E+01 8.67944E+00-1.29830E+00
 -1     13051 7.43797E+01 8.67944E+00 1.29830E+00
 -1     13052 7.58710E+01 7.82405E+00-1.32433E+00
 -1     13054 7.58710E+01 7.82405E+00 1.32433E+00
 -1     13055 9.12440E+01 3.20194E+01-1.59267E+00
 -1     13057 9.12440E+01 3.20194E+01 1.59267E+00
 -1     13058 5.85818E+01 8.66437E+00-1.02255E+00
 -1     13060 5.85818E+01 8.66437E+00 1.02255E+00
 -1     13061 6.40006E+01 7.79876E+00-1.11713E+00
 -1     13063 6.40006E+01 7.79876E+00 1.11713E+00
 -1     13064 6.30150E+01 7.79905E+00-1.09993E+00
 -1     13066 6.30150E+01 7.79905E+00 1.09993E+00
 -1     13067 9.03690E+01 3.05247E+01-1.57740E+00
 -1     13069 9.03690E+01 3.05247E+01 1.57740E+00
 -1     13070 9.03813E+01 2.95200E+01-1.57761E+00
 -1     13072 9.03813E+01 2.95200E+01 1.57761E+00
 -1     13073 4.82387E+01 7.79292E+00-8.42009E-01
 -1     13075 4.82387E+01 7.79292E+00 8.42009E-01
 -1     13076 4.72589E+01 7.78931E+00-8.24907E-01
 -1     13078 4.72589E+01 7.78931E+00 8.24907E-01
 -1     13079 4.67746E+01 8.65319E+00-8.16454E-01
 -1     13081 4.67746E+01 8.65319E+00 8.16454E-01
 -1     13082 4.87299E+01 8.66057E+00-8.50583E-01
 -1     13084 4.87299E+01 8.66057E+00 8.50583E-01
 -1     13085 3.45224E+01 1.75122E+01-6.02591E-01
 -1     13087 3.45224E+01 1.75122E+01 6.02591E-01
 -1     13088 3.45191E+01 1.85140E+01-6.02533E-01
 -1     13090 3.45191E+01 1.85140E+01 6.02533E-01
 -1     13091 3.29480E+01 4.05347E+01-5.75109E-01
 -1     13093 3.29480E+01 4.05347E+01 5.75109E-01
 -1     13094 3.61422E+01 4.00635E+01-6.30864E-01
 -1     13096 3.61422E+01 4.00635E+01 6.30864E-01
 -1     13097 3.71619E+01 4.01174E+01-6.48663E-01
 -1     13099 3.71619E+01 4.01174E+01 6.48663E-01
 -1     13100 9.03963E+01 2.24431E+01-1.57787E+00
 -1     13102 9.03963E+01 2.24431E+01 1.57787E+00
 -1     13103 9.03781E+01 2.14302E+01-1.57756E+00
 -1     13105 9.03781E+01 2.14302E+01 1.57756E+00
 -1     13106 3.45009E+01 2.74144E+01-6.02216E-01
 -1     13108 3.45009E+01 2.74144E+01 6.02216E-01
 -1     13109 3.44995E+01 2.83927E+01-6.02191E-01
 -1     13111 3.44995E+01 2.83927E+01 6.02191E-01
 -1     13112 8.30332E+01 9.81141E+00-1.44935E+00
 -1     13114 8.30332E+01 9.81141E+00 1.44935E+00
 -1     13115 8.20095E+01 9.78627E+00-1.43148E+00
 -1     13117 8.20095E+01 9.78627E+00 1.43148E+00
 -1     13118 3.46148E+01 1.05417E+01-6.04204E-01
 -1     13120 3.46148E+01 1.05417E+01 6.04204E-01
 -1     13121 3.43444E+01 1.14048E+01-5.99483E-01
 -1     13123 3.43444E+01 1.14048E+01 5.99483E-01
 -1     13124 3.56272E+01 1.03724E+01-6.21876E-01
 -1     13126 3.56272E+01 1.03724E+01 6.21876E-01
 -1     13127 9.04914E+01 1.26351E+01-1.57953E+00
 -1     13129 9.04914E+01 1.26351E+01 1.57953E+00
 -1     13130 9.03827E+01 1.16174E+01-1.57764E+00
 -1     13132 9.03827E+01 1.16174E+01 1.57764E+00
 -1     13133 3.44677E+01 1.22809E+01-6.01635E-01
 -1     13135 3.44677E+01 1.22809E+01 6.01635E-01
 -1     13136 4.43429E+01 7.75748E+00-7.74008E-01
 -1     13138 4.43429E+01 7.75748E+00 7.74008E-01
 -1     13139 4.33647E+01 7.75134E+00-7.56934E-01
 -1     13141 4.33647E+01 7.75134E+00 7.56934E-01
 -1     13142 9.02816E+01 1.83689E+01-1.57587E+00
 -1     13144 9.02816E+01 1.83689E+01 1.57587E+00
 -1     13145 9.02681E+01 1.73721E+01-1.57563E+00
 -1     13147 9.02681E+01 1.73721E+01 1.57563E+00
 -1     13148 3.40374E+01 4.00020E+01-5.94124E-01
 -1     13150 3.40374E+01 4.00020E+01 5.94124E-01
 -1     13151 3.49540E+01 3.99553E+01-6.10124E-01
 -1     13153 3.49540E+01 3.99553E+01 6.10124E-01
 -1     13154 4.48360E+01 8.62882E+00-7.82615E-01
 -1     13156 4.48360E+01 8.62882E+00 7.82615E-01
 -1     13157 9.02578E+01 1.63665E+01-1.57546E+00
 -1     13159 9.02578E+01 1.63665E+01 1.57546E+00
 -1     13160 9.02736E+01 1.53942E+01-1.57573E+00
 -1     13162 9.02736E+01 1.53942E+01 1.57573E+00
 -1     13163 8.93515E+01 1.68129E+01-1.55964E+00
 -1     13165 8.93515E+01 1.68129E+01 1.55964E+00
 -1     13166 3.84247E+01 7.94596E+00-6.70706E-01
 -1     13168 3.84247E+01 7.94596E+00 6.70706E-01
 -1     13169 3.73681E+01 8.02754E+00-6.52263E-01
 -1     13171 3.73681E+01 8.02754E+00 6.52263E-01
 -1     13172 3.69671E+01 9.03881E+00-6.45263E-01
 -1     13174 3.69671E+01 9.03881E+00 6.45263E-01
 -1     13175 3.89926E+01 8.75562E+00-6.80618E-01
 -1     13177 3.89926E+01 8.75562E+00 6.80618E-01
 -1     13178 9.04242E+01 2.64943E+01-1.57836E+00
 -1     13180 9.04242E+01 2.64943E+01 1.57836E+00
 -1     13181 9.04266E+01 2.54870E+01-1.57840E+00
 -1     13183 9.04266E+01 2.54870E+01 1.57840E+00
 -1     13184 6.25224E+01 8.66654E+00-1.09133E+00
 -1     13186 6.25224E+01 8.66654E+00 1.09133E+00
 -1     13187 6.44933E+01 8.66586E+00-1.12574E+00
 -1     13189 6.44933E+01 8.66586E+00 1.12574E+00
 -1     13190 3.32331E+01 3.95428E+01-5.80086E-01
 -1     13192 3.32331E+01 3.95428E+01 5.80086E-01
 -1     13193 4.29090E+01 8.59381E+00-7.48980E-01
 -1     13195 4.29090E+01 8.59381E+00 7.48980E-01
 -1     13196 4.53162E+01 9.50940E+00-7.90998E-01
 -1     13198 4.53162E+01 9.50940E+00 7.90998E-01
 -1     13199 4.43515E+01 9.49200E+00-7.74158E-01
 -1     13201 4.43515E+01 9.49200E+00 7.74158E-01
 -1     13202 6.30152E+01 9.53542E+00-1.09993E+00
 -1     13204 6.30152E+01 9.53542E+00 1.09993E+00
 -1     13205 6.20299E+01 9.53541E+00-1.08274E+00
 -1     13207 6.20299E+01 9.53541E+00 1.08274E+00
 -1     13208 8.93708E+01 9.69437E+00-1.55997E+00
 -1     13210 8.93708E+01 9.69437E+00 1.55997E+00
 -1     13211 8.82569E+01 9.71456E+00-1.54053E+00
 -1     13213 8.82569E+01 9.71456E+00 1.54053E+00
 -1     13214 9.03325E+01 1.44422E+01-1.57676E+00
 -1     13216 9.03325E+01 1.44422E+01 1.57676E+00
 -1     13217 9.03688E+01 1.34887E+01-1.57739E+00
 -1     13219 9.03688E+01 1.34887E+01 1.57739E+00
 -1     13220 8.94002E+01 1.48552E+01-1.56049E+00
 -1     13222 8.94002E+01 1.48552E+01 1.56049E+00
 -1     13223 9.03446E+01 2.04049E+01-1.57697E+00
 -1     13225 9.03446E+01 2.04049E+01 1.57697E+00
 -1     13226 9.03240E+01 1.93967E+01-1.57661E+00
 -1     13228 9.03240E+01 1.93967E+01 1.57661E+00
 -1     13229 8.94801E+01 2.08994E+01-1.56188E+00
 -1     13231 8.94801E+01 2.08994E+01 1.56188E+00
 -1     13232 3.44971E+01 2.93584E+01-6.02149E-01
 -1     13234 3.44971E+01 2.93584E+01 6.02149E-01
 -1     13235 3.45033E+01 3.03379E+01-6.02257E-01
 -1     13237 3.45033E+01 3.03379E+01 6.02257E-01
 -1     13238 3.53606E+01 2.88479E+01-6.17221E-01
 -1     13240 3.53606E+01 2.88479E+01 6.17221E-01
 -1     13241 7.28872E+01 9.53608E+00-1.27225E+00
 -1     13243 7.28872E+01 9.53608E+00 1.27225E+00
 -1     13244 7.18963E+01 9.53296E+00-1.25495E+00
 -1     13246 7.18963E+01 9.53296E+00 1.25495E+00
 -1     13247 9.04036E+01 2.85097E+01-1.57800E+00
 -1     13249 9.04036E+01 2.85097E+01 1.57800E+00
 -1     13250 9.04141E+01 2.75030E+01-1.57818E+00
 -1     13252 9.04141E+01 2.75030E+01 1.57818E+00
 -1     13253 8.95141E+01 2.90175E+01-1.56247E+00
 -1     13255 8.95141E+01 2.90175E+01 1.56247E+00
 -1     13256 3.45073E+01 1.34719E+01-6.02328E-01
 -1     13258 3.45073E+01 1.34719E+01 6.02328E-01
 -1     13259 3.45260E+01 1.44609E+01-6.02653E-01
 -1     13261 3.45260E+01 1.44609E+01 6.02653E-01
 -1     13262 9.05554E+01 3.64642E+01-1.58065E+00
 -1     13264 9.05554E+01 3.64642E+01 1.58065E+00
 -1     13265 9.04736E+01 3.54975E+01-1.57922E+00
 -1     13267 9.04736E+01 3.54975E+01 1.57922E+00
 -1     13268 3.45173E+01 3.12879E+01-6.02501E-01
 -1     13270 3.45173E+01 3.12879E+01 6.02501E-01
 -1     13271 3.45427E+01 3.22675E+01-6.02945E-01
 -1     13273 3.45427E+01 3.22675E+01 6.02945E-01
 -1     13274 3.53721E+01 3.07636E+01-6.17423E-01
 -1     13276 3.53721E+01 3.07636E+01 6.17423E-01
 -1     13277 3.47365E+01 3.51559E+01-6.06327E-01
 -1     13279 3.47365E+01 3.51559E+01 6.06327E-01
 -1     13280 3.48351E+01 3.61646E+01-6.08049E-01
 -1     13282 3.48351E+01 3.61646E+01 6.08049E-01
 -1     13283 3.41630E+01 3.79114E+01-5.96317E-01
 -1     13285 3.41630E+01 3.79114E+01 5.96317E-01
 -1     13286 3.32698E+01 3.85062E+01-5.80726E-01
 -1     13288 3.32698E+01 3.85062E+01 5.80726E-01
 -1     13289 3.45879E+01 3.32215E+01-6.03734E-01
 -1     13291 3.45879E+01 3.32215E+01 6.03734E-01
 -1     13292 3.46413E+01 3.42086E+01-6.04666E-01
 -1     13294 3.46413E+01 3.42086E+01 6.04666E-01
 -1     13295 3.54313E+01 3.26677E+01-6.18455E-01
 -1     13297 3.54313E+01 3.26677E+01 6.18455E-01
 -1     13298 8.09638E+01 9.72696E+00-1.41323E+00
 -1     13300 8.09638E+01 9.72696E+00 1.41323E+00
 -1     13301 7.99404E+01 9.69097E+00-1.39537E+00
 -1     13303 7.99404E+01 9.69097E+00 1.39537E+00
 -1     13304 8.15184E+01 1.06628E+01-1.42291E+00
 -1     13306 8.15184E+01 1.06628E+01 1.42291E+00
 -1     13307 3.82119E+01 4.02081E+01-6.66991E-01
 -1     13309 3.82119E+01 4.02081E+01 6.66991E-01
 -1     13310 3.92224E+01 4.02563E+01-6.84629E-01
 -1     13312 3.92224E+01 4.02563E+01 6.84629E-01
 -1     13313 3.77490E+01 3.93172E+01-6.58911E-01
 -1     13315 3.77490E+01 3.93172E+01 6.58911E-01
 -1     13316 4.02387E+01 4.03134E+01-7.02369E-01
 -1     13318 4.02387E+01 4.03134E+01 7.02369E-01
 -1     13319 4.12435E+01 4.03434E+01-7.19908E-01
 -1     13321 4.12435E+01 4.03434E+01 7.19908E-01
 -1     13322 3.98154E+01 3.94649E+01-6.94980E-01
 -1     13324 3.98154E+01 3.94649E+01 6.94980E-01
 -1     13325 4.22463E+01 4.03695E+01-7.37412E-01
 -1     13327 4.22463E+01 4.03695E+01 7.37412E-01
 -1     13328 4.32442E+01 4.03816E+01-7.54831E-01
 -1     13330 4.32442E+01 4.03816E+01 7.54831E-01
 -1     13331 4.18345E+01 3.95481E+01-7.30224E-01
 -1     13333 4.18345E+01 3.95481E+01 7.30224E-01
 -1     13334 4.42386E+01 4.03843E+01-7.72188E-01
 -1     13336 4.42386E+01 4.03843E+01 7.72188E-01
 -1     13337 4.52305E+01 4.03836E+01-7.89502E-01
 -1     13339 4.52305E+01 4.03836E+01 7.89502E-01
 -1     13340 4.38317E+01 3.95768E+01-7.65086E-01
 -1     13342 4.38317E+01 3.95768E+01 7.65086E-01
 -1     13343 4.62188E+01 4.03729E+01-8.06752E-01
 -1     13345 4.62188E+01 4.03729E+01 8.06752E-01
 -1     13346 4.72063E+01 4.03660E+01-8.23988E-01
 -1     13348 4.72063E+01 4.03660E+01 8.23988E-01
 -1     13349 4.58144E+01 3.95688E+01-7.99693E-01
 -1     13351 4.58144E+01 3.95688E+01 7.99693E-01
 -1     13352 4.81905E+01 4.03516E+01-8.41168E-01
 -1     13354 4.81905E+01 4.03516E+01 8.41168E-01
 -1     13355 4.91755E+01 4.03437E+01-8.58361E-01
 -1     13357 4.91755E+01 4.03437E+01 8.58361E-01
 -1     13358 4.77869E+01 3.95437E+01-8.34123E-01
 -1     13360 4.77869E+01 3.95437E+01 8.34123E-01
 -1     13361 5.01582E+01 4.03326E+01-8.75515E-01
 -1     13363 5.01582E+01 4.03326E+01 8.75515E-01
 -1     13364 5.11424E+01 4.03268E+01-8.92695E-01
 -1     13366 5.11424E+01 4.03268E+01 8.92695E-01
 -1     13367 4.97538E+01 3.95183E+01-8.68456E-01
 -1     13369 4.97538E+01 3.95183E+01 8.68456E-01
 -1     13370 5.21261E+01 4.03209E+01-9.09864E-01
 -1     13372 5.21261E+01 4.03209E+01 9.09864E-01
 -1     13373 5.31106E+01 4.03177E+01-9.27049E-01
 -1     13375 5.31106E+01 4.03177E+01 9.27049E-01
 -1     13376 5.17202E+01 3.95012E+01-9.02779E-01
 -1     13378 5.17202E+01 3.95012E+01 9.02779E-01
 -1     13379 5.40954E+01 4.03152E+01-9.44239E-01
 -1     13381 5.40954E+01 4.03152E+01 9.44239E-01
 -1     13382 5.50804E+01 4.03137E+01-9.61433E-01
 -1     13384 5.50804E+01 4.03137E+01 9.61433E-01
 -1     13385 5.36886E+01 3.94927E+01-9.37138E-01
 -1     13387 5.36886E+01 3.94927E+01 9.37138E-01
 -1     13388 5.60658E+01 4.03125E+01-9.78632E-01
 -1     13390 5.60658E+01 4.03125E+01 9.78632E-01
 -1     13391 5.70511E+01 4.03118E+01-9.95830E-01
 -1     13393 5.70511E+01 4.03118E+01 9.95830E-01
 -1     13394 5.56587E+01 3.94889E+01-9.71527E-01
 -1     13396 5.56587E+01 3.94889E+01 9.71527E-01
 -1     13397 5.80367E+01 4.03114E+01-1.01303E+00
 -1     13399 5.80367E+01 4.03114E+01 1.01303E+00
 -1     13400 5.90223E+01 4.03113E+01-1.03024E+00
 -1     13402 5.90223E+01 4.03113E+01 1.03024E+00
 -1     13403 5.76297E+01 3.94873E+01-1.00593E+00
 -1     13405 5.76297E+01 3.94873E+01 1.00593E+00
 -1     13406 6.00083E+01 4.03116E+01-1.04745E+00
 -1     13408 6.00083E+01 4.03116E+01 1.04745E+00
 -1     13409 6.09944E+01 4.03120E+01-1.06466E+00
 -1     13411 6.09944E+01 4.03120E+01 1.06466E+00
 -1     13412 5.96013E+01 3.94872E+01-1.04034E+00
 -1     13414 5.96013E+01 3.94872E+01 1.04034E+00
 -1     13415 6.19812E+01 4.03127E+01-1.08189E+00
 -1     13417 6.19812E+01 4.03127E+01 1.08189E+00
 -1     13418 6.29679E+01 4.03133E+01-1.09911E+00
 -1     13420 6.29679E+01 4.03133E+01 1.09911E+00
 -1     13421 6.15742E+01 3.94883E+01-1.07478E+00
 -1     13423 6.15742E+01 3.94883E+01 1.07478E+00
 -1     13424 6.39553E+01 4.03140E+01-1.11634E+00
 -1     13426 6.39553E+01 4.03140E+01 1.11634E+00
 -1     13427 6.49424E+01 4.03145E+01-1.13357E+00
 -1     13429 6.49424E+01 4.03145E+01 1.13357E+00
 -1     13430 6.35484E+01 3.94897E+01-1.10924E+00
 -1     13432 6.35484E+01 3.94897E+01 1.10924E+00
 -1     13433 6.59298E+01 4.03152E+01-1.15081E+00
 -1     13435 6.59298E+01 4.03152E+01 1.15081E+00
 -1     13436 6.69169E+01 4.03158E+01-1.16804E+00
 -1     13438 6.69169E+01 4.03158E+01 1.16804E+00
 -1     13439 6.55232E+01 3.94911E+01-1.14371E+00
 -1     13441 6.55232E+01 3.94911E+01 1.14371E+00
 -1     13442 6.79036E+01 4.03170E+01-1.18526E+00
 -1     13444 6.79036E+01 4.03170E+01 1.18526E+00
 -1     13445 6.88902E+01 4.03180E+01-1.20248E+00
 -1     13447 6.88902E+01 4.03180E+01 1.20248E+00
 -1     13448 6.74974E+01 3.94929E+01-1.17817E+00
 -1     13450 6.74974E+01 3.94929E+01 1.17817E+00
 -1     13451 6.98760E+01 4.03203E+01-1.21969E+00
 -1     13453 6.98760E+01 4.03203E+01 1.21969E+00
 -1     13454 7.08619E+01 4.03218E+01-1.23690E+00
 -1     13456 7.08619E+01 4.03218E+01 1.23690E+00
 -1     13457 6.94700E+01 3.94963E+01-1.21260E+00
 -1     13459 6.94700E+01 3.94963E+01 1.21260E+00
 -1     13460 7.18469E+01 4.03246E+01-1.25409E+00
 -1     13462 7.18469E+01 4.03246E+01 1.25409E+00
 -1     13463 7.28315E+01 4.03259E+01-1.27128E+00
 -1     13465 7.28315E+01 4.03259E+01 1.27128E+00
 -1     13466 7.14409E+01 3.95013E+01-1.24701E+00
 -1     13468 7.14409E+01 3.95013E+01 1.24701E+00
 -1     13469 7.38149E+01 4.03275E+01-1.28844E+00
 -1     13471 7.38149E+01 4.03275E+01 1.28844E+00
 -1     13472 7.47970E+01 4.03282E+01-1.30559E+00
 -1     13474 7.47970E+01 4.03282E+01 1.30559E+00
 -1     13475 7.34094E+01 3.95057E+01-1.28137E+00
 -1     13477 7.34094E+01 3.95057E+01 1.28137E+00
 -1     13478 7.57757E+01 4.03275E+01-1.32267E+00
 -1     13480 7.57757E+01 4.03275E+01 1.32267E+00
 -1     13481 7.67526E+01 4.03280E+01-1.33972E+00
 -1     13483 7.67526E+01 4.03280E+01 1.33972E+00
 -1     13484 7.53715E+01 3.95066E+01-1.31561E+00
 -1     13486 7.53715E+01 3.95066E+01 1.31561E+00
 -1     13487 7.77214E+01 4.03277E+01-1.35663E+00
 -1     13489 7.77214E+01 4.03277E+01 1.35663E+00
 -1     13490 7.86906E+01 4.03288E+01-1.37355E+00
 -1     13492 7.86906E+01 4.03288E+01 1.37355E+00
 -1     13493 7.73190E+01 3.95058E+01-1.34961E+00
 -1     13495 7.73190E+01 3.95058E+01 1.34961E+00
 -1     13496 7.96469E+01 4.03304E+01-1.39024E+00
 -1     13498 7.96469E+01 4.03304E+01 1.39024E+00
 -1     13499 8.06058E+01 4.03320E+01-1.40698E+00
 -1     13501 8.06058E+01 4.03320E+01 1.40698E+00
 -1     13502 7.92442E+01 3.95072E+01-1.38321E+00
 -1     13504 7.92442E+01 3.95072E+01 1.38321E+00
 -1     13505 8.15452E+01 4.03337E+01-1.42338E+00
 -1     13507 8.15452E+01 4.03337E+01 1.42338E+00
 -1     13508 8.24908E+01 4.03346E+01-1.43988E+00
 -1     13510 8.24908E+01 4.03346E+01 1.43988E+00
 -1     13511 8.11400E+01 3.95104E+01-1.41630E+00
 -1     13513 8.11400E+01 3.95104E+01 1.41630E+00
 -1     13514 8.33984E+01 4.03446E+01-1.45573E+00
 -1     13516 8.33984E+01 4.03446E+01 1.45573E+00
 -1     13517 8.43354E+01 4.03273E+01-1.47208E+00
 -1     13519 8.43354E+01 4.03273E+01 1.47208E+00
 -1     13520 8.29871E+01 3.95220E+01-1.44855E+00
 -1     13522 8.29871E+01 3.95220E+01 1.44855E+00
 -1     13523 8.52430E+01 4.02759E+01-1.48792E+00
 -1     13525 8.52430E+01 4.02759E+01 1.48792E+00
 -1     13526 8.61658E+01 4.02314E+01-1.50403E+00
 -1     13528 8.61658E+01 4.02314E+01 1.50403E+00
 -1     13529 8.48023E+01 3.94806E+01-1.48023E+00
 -1     13531 8.48023E+01 3.94806E+01 1.48023E+00
 -1     13532 8.70468E+01 4.01369E+01-1.51941E+00
 -1     13534 8.70468E+01 4.01369E+01 1.51941E+00
 -1     13535 8.79504E+01 4.00885E+01-1.53518E+00
 -1     13537 8.79504E+01 4.00885E+01 1.53518E+00
 -1     13538 8.65908E+01 3.93348E+01-1.51145E+00
 -1     13540 8.65908E+01 3.93348E+01 1.51145E+00
 -1     13541 8.72059E+01 9.77669E+00-1.52219E+00
 -1     13543 8.72059E+01 9.77669E+00 1.52219E+00
 -1     13544 8.61447E+01 9.80784E+00-1.50366E+00
 -1     13546 8.61447E+01 9.80784E+00 1.50366E+00
 -1     13547 8.77775E+01 1.06532E+01-1.53216E+00
 -1     13549 8.77775E+01 1.06532E+01 1.53216E+00
 -1     13550 4.34079E+01 9.45294E+00-7.57688E-01
 -1     13552 4.34079E+01 9.45294E+00 7.57688E-01
 -1     13553 4.24457E+01 9.43533E+00-7.40893E-01
 -1     13555 4.24457E+01 9.43533E+00 7.40893E-01
 -1     13556 4.38882E+01 1.03335E+01-7.66071E-01
 -1     13558 4.38882E+01 1.03335E+01 7.66071E-01
 -1     13559 3.45283E+01 1.55018E+01-6.02694E-01
 -1     13561 3.45283E+01 1.55018E+01 6.02694E-01
 -1     13562 3.45288E+01 1.65026E+01-6.02702E-01
 -1     13564 3.45288E+01 1.65026E+01 6.02702E-01
 -1     13565 3.53952E+01 1.49601E+01-6.17825E-01
 -1     13567 3.53952E+01 1.49601E+01 6.17825E-01
 -1     13568 9.03649E+01 3.45384E+01-1.57732E+00
 -1     13570 9.03649E+01 3.45384E+01 1.57732E+00
 -1     13571 9.03270E+01 3.35570E+01-1.57666E+00
 -1     13573 9.03270E+01 3.35570E+01 1.57666E+00
 -1     13574 8.95209E+01 3.50559E+01-1.56259E+00
 -1     13576 8.95209E+01 3.50559E+01 1.56259E+00
 -1     13577 3.55107E+01 3.91184E+01-6.19842E-01
 -1     13579 3.55107E+01 3.91184E+01 6.19842E-01
 -1     13580 3.50128E+01 3.71071E+01-6.11150E-01
 -1     13582 3.50128E+01 3.71071E+01 6.11150E-01
 -1     13583 3.51723E+01 3.82058E+01-6.13934E-01
 -1     13585 3.51723E+01 3.82058E+01 6.13934E-01
 -1     13586 3.63605E+01 3.83140E+01-6.34675E-01
 -1     13588 3.63605E+01 3.83140E+01 6.34675E-01
 -1     13589 3.58444E+01 3.64590E+01-6.25666E-01
 -1     13591 3.58444E+01 3.64590E+01 6.25666E-01
 -1     13592 8.95465E+01 2.69986E+01-1.56304E+00
 -1     13594 8.95465E+01 2.69986E+01 1.56304E+00
 -1     13595 3.36504E+01 2.20002E+01-5.87370E-01
 -1     13597 3.36504E+01 2.20002E+01 5.87370E-01
 -1     13598 3.45073E+01 2.64462E+01-6.02327E-01
 -1     13600 3.45073E+01 2.64462E+01 6.02327E-01
 -1     13601 3.53693E+01 2.69141E+01-6.17374E-01
 -1     13603 3.53693E+01 2.69141E+01 6.17374E-01
 -1     13604 3.45110E+01 2.54617E+01-6.02392E-01
 -1     13606 3.45110E+01 2.54617E+01 6.02392E-01
 -1     13607 7.63775E+01 8.70416E+00-1.33317E+00
 -1     13609 7.63775E+01 8.70416E+00 1.33317E+00
 -1     13610 6.40003E+01 9.53468E+00-1.11713E+00
 -1     13612 6.40003E+01 9.53468E+00 1.11713E+00
 -1     13613 6.35078E+01 1.04036E+01-1.10853E+00
 -1     13615 6.35078E+01 1.04036E+01 1.10853E+00
 -1     13616 6.49859E+01 9.53399E+00-1.13433E+00
 -1     13618 6.49859E+01 9.53399E+00 1.13433E+00
 -1     13619 3.45164E+01 1.95132E+01-6.02485E-01
 -1     13621 3.45164E+01 1.95132E+01 6.02485E-01
 -1     13622 3.45149E+01 2.05116E+01-6.02460E-01
 -1     13624 3.45149E+01 2.05116E+01 6.02460E-01
 -1     13625 3.53820E+01 1.90195E+01-6.17595E-01
 -1     13627 3.53820E+01 1.90195E+01 6.17595E-01
 -1     13628 3.53912E+01 1.70107E+01-6.17755E-01
 -1     13630 3.53912E+01 1.70107E+01 6.17755E-01
 -1     13631 7.89086E+01 9.64045E+00-1.37736E+00
 -1     13633 7.89086E+01 9.64045E+00 1.37736E+00
 -1     13634 7.78951E+01 9.61191E+00-1.35966E+00
 -1     13636 7.78951E+01 9.61191E+00 1.35966E+00
 -1     13637 7.94409E+01 1.05530E+01-1.38665E+00
 -1     13639 7.94409E+01 1.05530E+01 1.38665E+00
 -1     13640 4.62825E+01 9.52322E+00-8.07864E-01
 -1     13642 4.62825E+01 9.52322E+00 8.07864E-01
 -1     13643 4.57980E+01 1.03864E+01-7.99407E-01
 -1     13645 4.57980E+01 1.03864E+01 7.99407E-01
 -1     13646 4.72564E+01 9.53019E+00-8.24863E-01
 -1     13648 4.72564E+01 9.53019E+00 8.24863E-01
 -1     13649 3.55716E+01 3.45691E+01-6.20905E-01
 -1     13651 3.55716E+01 3.45691E+01 6.20905E-01
 -1     13652 8.95818E+01 1.30496E+01-1.56366E+00
 -1     13654 8.95818E+01 1.30496E+01 1.56366E+00
 -1     13655 3.53532E+01 1.27283E+01-6.17092E-01
 -1     13657 3.53532E+01 1.27283E+01 6.17092E-01
 -1     13658 5.71052E+01 9.52965E+00-9.96775E-01
 -1     13660 5.71052E+01 9.52965E+00 9.96775E-01
 -1     13661 5.61199E+01 9.52820E+00-9.79576E-01
 -1     13663 5.61199E+01 9.52820E+00 9.79576E-01
 -1     13664 8.94041E+01 1.88463E+01-1.56055E+00
 -1     13666 8.94041E+01 1.88463E+01 1.56055E+00
 -1     13667 6.10447E+01 9.53471E+00-1.06554E+00
 -1     13669 6.10447E+01 9.53471E+00 1.06554E+00
 -1     13670 6.00596E+01 9.53417E+00-1.04834E+00
 -1     13672 6.00596E+01 9.53417E+00 1.04834E+00
 -1     13673 6.15375E+01 1.04036E+01-1.07414E+00
 -1     13675 6.15375E+01 1.04036E+01 1.07414E+00
 -1     13676 5.31628E+01 9.52374E+00-9.27961E-01
 -1     13678 5.31628E+01 9.52374E+00 9.27961E-01
 -1     13679 5.21768E+01 9.52391E+00-9.10750E-01
 -1     13681 5.21768E+01 9.52391E+00 9.10750E-01
 -1     13682 8.92664E+01 1.13935E+01-1.55815E+00
 -1     13684 8.92664E+01 1.13935E+01 1.55815E+00
 -1     13685 8.99447E+01 1.08149E+01-1.56999E+00
 -1     13687 8.99447E+01 1.08149E+01 1.56999E+00
 -1     13688 4.15260E+01 9.38556E+00-7.24839E-01
 -1     13690 4.15260E+01 9.38556E+00 7.24839E-01
 -1     13691 4.05486E+01 9.41804E+00-7.07778E-01
 -1     13693 4.05486E+01 9.41804E+00 7.07778E-01
 -1     13694 4.20249E+01 1.02447E+01-7.33547E-01
 -1     13696 4.20249E+01 1.02447E+01 7.33547E-01
 -1     13697 9.04252E+01 2.44751E+01-1.57838E+00
 -1     13699 9.04252E+01 2.44751E+01 1.57838E+00
 -1     13700 9.04164E+01 2.34639E+01-1.57822E+00
 -1     13702 9.04164E+01 2.34639E+01 1.57822E+00
 -1     13703 7.09069E+01 9.53174E+00-1.23768E+00
 -1     13705 7.09069E+01 9.53174E+00 1.23768E+00
 -1     13706 6.99180E+01 9.53074E+00-1.22042E+00
 -1     13708 6.99180E+01 9.53074E+00 1.22042E+00
 -1     13709 7.13997E+01 1.03990E+01-1.24629E+00
 -1     13711 7.13997E+01 1.03990E+01 1.24629E+00
 -1     13712 8.95338E+01 2.29454E+01-1.56282E+00
 -1     13714 8.95338E+01 2.29454E+01 1.56282E+00
 -1     13715 6.89308E+01 9.53111E+00-1.20319E+00
 -1     13717 6.89308E+01 9.53111E+00 1.20319E+00
 -1     13718 6.79437E+01 9.53117E+00-1.18596E+00
 -1     13720 6.79437E+01 9.53117E+00 1.18596E+00
 -1     13721 6.94230E+01 1.03981E+01-1.21178E+00
 -1     13723 6.94230E+01 1.03981E+01 1.21178E+00
 -1     13724 8.51072E+01 9.84057E+00-1.48555E+00
 -1     13726 8.51072E+01 9.84057E+00 1.48555E+00
 -1     13727 8.40768E+01 9.84072E+00-1.46757E+00
 -1     13729 8.40768E+01 9.84072E+00 1.46757E+00
 -1     13730 6.69577E+01 9.53205E+00-1.16875E+00
 -1     13732 6.69577E+01 9.53205E+00 1.16875E+00
 -1     13733 6.59715E+01 9.53271E+00-1.15154E+00
 -1     13735 6.59715E+01 9.53271E+00 1.15154E+00
 -1     13736 6.54784E+01 1.04015E+01-1.14293E+00
 -1     13738 6.54784E+01 1.04015E+01 1.14293E+00
 -1     13739 6.74499E+01 1.03994E+01-1.17734E+00
 -1     13741 6.74499E+01 1.03994E+01 1.17734E+00
 -1     13742 5.90750E+01 9.53322E+00-1.03116E+00
 -1     13744 5.90750E+01 9.53322E+00 1.03116E+00
 -1     13745 5.80900E+01 9.53214E+00-1.01396E+00
 -1     13747 5.80900E+01 9.53214E+00 1.01396E+00
 -1     13748 5.95678E+01 1.04019E+01-1.03976E+00
 -1     13750 5.95678E+01 1.04019E+01 1.03976E+00
 -1     13751 7.38808E+01 9.54173E+00-1.28959E+00
 -1     13753 7.38808E+01 9.54173E+00 1.28959E+00
 -1     13754 7.33826E+01 1.04059E+01-1.28090E+00
 -1     13756 7.33826E+01 1.04059E+01 1.28090E+00
 -1     13757 7.48751E+01 9.54922E+00-1.30695E+00
 -1     13759 7.48751E+01 9.54922E+00 1.30695E+00
 -1     13760 5.11896E+01 9.52534E+00-8.93518E-01
 -1     13762 5.11896E+01 9.52534E+00 8.93518E-01
 -1     13763 5.02039E+01 9.52633E+00-8.76313E-01
 -1     13765 5.02039E+01 9.52633E+00 8.76313E-01
 -1     13766 5.16838E+01 1.03903E+01-9.02144E-01
 -1     13768 5.16838E+01 1.03903E+01 9.02144E-01
 -1     13769 9.03378E+01 3.25402E+01-1.57685E+00
 -1     13771 9.03378E+01 3.25402E+01 1.57685E+00
 -1     13772 9.03400E+01 3.15424E+01-1.57689E+00
 -1     13774 9.03400E+01 3.15424E+01 1.57689E+00
 -1     13775 9.07510E+01 3.73177E+01-1.58406E+00
 -1     13777 9.07510E+01 3.73177E+01 1.58406E+00
 -1     13778 8.98251E+01 3.68684E+01-1.56790E+00
 -1     13780 8.98251E+01 3.68684E+01 1.56790E+00
 -1     13781 9.06771E+01 3.83762E+01-1.58277E+00
 -1     13783 9.06771E+01 3.83762E+01 1.58277E+00
 -1     13784 8.95553E+01 2.49780E+01-1.56319E+00
 -1     13786 8.95553E+01 2.49780E+01 1.56319E+00
 -1     13787 9.07767E+01 3.99326E+01-1.58451E+00
 -1     13789 9.07767E+01 3.99326E+01 1.58451E+00
 -1     13790 8.36078E+01 1.07514E+01-1.45938E+00
 -1     13792 8.36078E+01 1.07514E+01 1.45938E+00
 -1     13793 3.45146E+01 2.44808E+01-6.02455E-01
 -1     13795 3.45146E+01 2.44808E+01 6.02455E-01
 -1     13796 3.53793E+01 2.49650E+01-6.17548E-01
 -1     13798 3.53793E+01 2.49650E+01 6.17548E-01
 -1     13799 3.45166E+01 2.34901E+01-6.02489E-01
 -1     13801 3.45166E+01 2.34901E+01 6.02489E-01
 -1     13802 5.75984E+01 1.03985E+01-1.00538E+00
 -1     13804 5.75984E+01 1.03985E+01 1.00538E+00
 -1     13805 8.94628E+01 3.10455E+01-1.56158E+00
 -1     13807 8.94628E+01 3.10455E+01 1.56158E+00
 -1     13808 8.56889E+01 1.07480E+01-1.49571E+00
 -1     13810 8.56889E+01 1.07480E+01 1.49571E+00
 -1     13811 8.94230E+01 3.30800E+01-1.56088E+00
 -1     13813 8.94230E+01 3.30800E+01 1.56088E+00
 -1     13814 5.80919E+01 1.12694E+01-1.01400E+00
 -1     13816 5.80919E+01 1.12694E+01 1.01400E+00
 -1     13817 5.71071E+01 1.12669E+01-9.96807E-01
 -1     13819 5.71071E+01 1.12669E+01 9.96807E-01
 -1     13820 9.04871E+01 9.91828E+00-1.57946E+00
 -1     13822 9.04871E+01 9.91828E+00 1.57946E+00
 -1     13823 3.63783E+01 3.39509E+01-6.34986E-01
 -1     13825 3.63783E+01 3.39509E+01 6.34986E-01
 -1     13826 3.64735E+01 3.48982E+01-6.36647E-01
 -1     13828 3.64735E+01 3.48982E+01 6.36647E-01
 -1     13829 3.62405E+01 2.64165E+01-6.32580E-01
 -1     13831 3.62405E+01 2.64165E+01 6.32580E-01
 -1     13832 3.62342E+01 2.73847E+01-6.32470E-01
 -1     13834 3.62342E+01 2.73847E+01 6.32470E-01
 -1     13835 8.86707E+01 2.75014E+01-1.54775E+00
 -1     13837 8.86707E+01 2.75014E+01 1.54775E+00
 -1     13838 8.86808E+01 2.64928E+01-1.54793E+00
 -1     13840 8.86808E+01 2.64928E+01 1.54793E+00
 -1     13841 8.86789E+01 2.34543E+01-1.54790E+00
 -1     13843 8.86789E+01 2.34543E+01 1.54790E+00
 -1     13844 8.86589E+01 2.24335E+01-1.54755E+00
 -1     13846 8.86589E+01 2.24335E+01 1.54755E+00
 -1     13847 8.84812E+01 3.36230E+01-1.54444E+00
 -1     13849 8.84812E+01 3.36230E+01 1.54444E+00
 -1     13850 8.84920E+01 3.26062E+01-1.54463E+00
 -1     13852 8.84920E+01 3.26062E+01 1.54463E+00
 -1     13853 8.88165E+01 1.23246E+01-1.55030E+00
 -1     13855 8.88165E+01 1.23246E+01 1.55030E+00
 -1     13856 8.83785E+01 1.15221E+01-1.54265E+00
 -1     13858 8.83785E+01 1.15221E+01 1.54265E+00
 -1     13859 8.73276E+01 1.15842E+01-1.52431E+00
 -1     13861 8.73276E+01 1.15842E+01 1.52431E+00
 -1     13862 8.86939E+01 1.31781E+01-1.54816E+00
 -1     13864 8.86939E+01 1.31781E+01 1.54816E+00
 -1     13865 8.85543E+01 3.15532E+01-1.54572E+00
 -1     13867 8.85543E+01 3.15532E+01 1.54572E+00
 -1     13868 8.85833E+01 3.05356E+01-1.54623E+00
 -1     13870 8.85833E+01 3.05356E+01 1.54623E+00
 -1     13871 8.76125E+01 3.20963E+01-1.52928E+00
 -1     13873 8.76125E+01 3.20963E+01 1.52928E+00
 -1     13874 4.92176E+01 9.53005E+00-8.59097E-01
 -1     13876 4.92176E+01 9.53005E+00 8.59097E-01
 -1     13877 4.82362E+01 9.52964E+00-8.41967E-01
 -1     13879 4.82362E+01 9.52964E+00 8.41967E-01
 -1     13880 4.77441E+01 1.03997E+01-8.33377E-01
 -1     13882 4.77441E+01 1.03997E+01 8.33377E-01
 -1     13883 4.97103E+01 1.03954E+01-8.67696E-01
 -1     13885 4.97103E+01 1.03954E+01 8.67696E-01
 -1     13886 8.85200E+01 1.93171E+01-1.54512E+00
 -1     13888 8.85200E+01 1.93171E+01 1.54512E+00
 -1     13889 8.84776E+01 1.82893E+01-1.54438E+00
 -1     13891 8.84776E+01 1.82893E+01 1.54438E+00
 -1     13892 5.41490E+01 9.52488E+00-9.45175E-01
 -1     13894 5.41490E+01 9.52488E+00 9.45175E-01
 -1     13895 5.36571E+01 1.03900E+01-9.36589E-01
 -1     13897 5.36571E+01 1.03900E+01 9.36589E-01
 -1     13898 5.51348E+01 9.52575E+00-9.62381E-01
 -1     13900 5.51348E+01 9.52575E+00 9.62381E-01
 -1     13901 9.08386E+01 9.13519E+00-1.58559E+00
 -1     13903 9.08386E+01 9.13519E+00 1.58559E+00
 -1     13904 8.97517E+01 4.00325E+01-1.56662E+00
 -1     13906 8.97517E+01 4.00325E+01 1.56662E+00
 -1     13907 9.03084E+01 3.91305E+01-1.57634E+00
 -1     13909 9.03084E+01 3.91305E+01 1.57634E+00
 -1     13910 8.96520E+01 3.84761E+01-1.56488E+00
 -1     13912 8.96520E+01 3.84761E+01 1.56488E+00
 -1     13913 8.88562E+01 4.00835E+01-1.55099E+00
 -1     13915 8.88562E+01 4.00835E+01 1.55099E+00
 -1     13916 8.83979E+01 1.72069E+01-1.54299E+00
 -1     13918 8.83979E+01 1.72069E+01 1.54299E+00
 -1     13919 8.83877E+01 1.62013E+01-1.54281E+00
 -1     13921 8.83877E+01 1.62013E+01 1.54281E+00
 -1     13922 8.75138E+01 1.76777E+01-1.52756E+00
 -1     13924 8.75138E+01 1.76777E+01 1.52756E+00
 -1     13925 8.86220E+01 2.95192E+01-1.54690E+00
 -1     13927 8.86220E+01 2.95192E+01 1.54690E+00
 -1     13928 8.86444E+01 2.85088E+01-1.54729E+00
 -1     13930 8.86444E+01 2.85088E+01 1.54729E+00
 -1     13931 8.77136E+01 3.00269E+01-1.53105E+00
 -1     13933 8.77136E+01 3.00269E+01 1.53105E+00
 -1     13934 8.84137E+01 1.51334E+01-1.54327E+00
 -1     13936 8.84137E+01 1.51334E+01 1.54327E+00
 -1     13937 8.84726E+01 1.41814E+01-1.54430E+00
 -1     13939 8.84726E+01 1.41814E+01 1.54430E+00
 -1     13940 8.74602E+01 1.55275E+01-1.52662E+00
 -1     13942 8.74602E+01 1.55275E+01 1.52662E+00
 -1     13943 7.68792E+01 9.58045E+00-1.34193E+00
 -1     13945 7.68792E+01 9.58045E+00 1.34193E+00
 -1     13946 7.58757E+01 9.56322E+00-1.32441E+00
 -1     13948 7.58757E+01 9.56322E+00 1.32441E+00
 -1     13949 7.73932E+01 1.04710E+01-1.35090E+00
 -1     13951 7.73932E+01 1.04710E+01 1.35090E+00
 -1     13952 3.62268E+01 1.22630E+01-6.32342E-01
 -1     13954 3.62268E+01 1.22630E+01 6.32342E-01
 -1     13955 3.62665E+01 1.34540E+01-6.33034E-01
 -1     13957 3.62665E+01 1.34540E+01 6.33034E-01
 -1     13958 3.62177E+01 3.02236E+01-6.32182E-01
 -1     13960 3.62177E+01 3.02236E+01 6.32182E-01
 -1     13961 3.62317E+01 3.11736E+01-6.32427E-01
 -1     13963 3.62317E+01 3.11736E+01 6.32427E-01
 -1     13964 8.83776E+01 3.92353E+01-1.54264E+00
 -1     13966 8.83776E+01 3.92353E+01 1.54264E+00
 -1     13967 8.86214E+01 2.13989E+01-1.54689E+00
 -1     13969 8.86214E+01 2.13989E+01 1.54689E+00
 -1     13970 8.85878E+01 2.03736E+01-1.54631E+00
 -1     13972 8.85878E+01 2.03736E+01 1.54631E+00
 -1     13973 8.77666E+01 2.19077E+01-1.53197E+00
 -1     13975 8.77666E+01 2.19077E+01 1.53197E+00
 -1     13976 3.62230E+01 2.83311E+01-6.32275E-01
 -1     13978 3.62230E+01 2.83311E+01 6.32275E-01
 -1     13979 3.62206E+01 2.92968E+01-6.32232E-01
 -1     13981 3.62206E+01 2.92968E+01 6.32232E-01
 -1     13982 3.70942E+01 2.78335E+01-6.47481E-01
 -1     13984 3.70942E+01 2.78335E+01 6.47481E-01
 -1     13985 8.63152E+01 1.17195E+01-1.50664E+00
 -1     13987 8.63152E+01 1.17195E+01 1.50664E+00
 -1     13988 8.52776E+01 1.17522E+01-1.48853E+00
 -1     13990 8.52776E+01 1.17522E+01 1.48853E+00
 -1     13991 3.45164E+01 2.15043E+01-6.02486E-01
 -1     13993 3.45164E+01 2.15043E+01 6.02486E-01
 -1     13994 3.45162E+01 2.25001E+01-6.02482E-01
 -1     13996 3.45162E+01 2.25001E+01 6.02482E-01
 -1     13997 3.53807E+01 2.10115E+01-6.17572E-01
 -1     13999 3.53807E+01 2.10115E+01 6.17572E-01
 -1     14000 5.56284E+01 1.03936E+01-9.70998E-01
 -1     14002 5.56284E+01 1.03936E+01 9.70998E-01
 -1     14003 3.62592E+01 1.65316E+01-6.32907E-01
 -1     14005 3.62592E+01 1.65316E+01 6.32907E-01
 -1     14006 3.62528E+01 1.75412E+01-6.32796E-01
 -1     14008 3.62528E+01 1.75412E+01 6.32796E-01
 -1     14009 8.86915E+01 2.54855E+01-1.54812E+00
 -1     14011 8.86915E+01 2.54855E+01 1.54812E+00
 -1     14012 8.86901E+01 2.44736E+01-1.54809E+00
 -1     14014 8.86901E+01 2.44736E+01 1.54809E+00
 -1     14015 8.78157E+01 2.59883E+01-1.53283E+00
 -1     14017 8.78157E+01 2.59883E+01 1.53283E+00
 -1     14018 3.62562E+01 3.20960E+01-6.32854E-01
 -1     14020 3.62562E+01 3.20960E+01 6.32854E-01
 -1     14021 3.63014E+01 3.30500E+01-6.33643E-01
 -1     14023 3.63014E+01 3.30500E+01 6.33643E-01
 -1     14024 3.71018E+01 3.15559E+01-6.47614E-01
 -1     14026 3.71018E+01 3.15559E+01 6.47614E-01
 -1     14027 8.20684E+01 1.16103E+01-1.43251E+00
 -1     14029 8.20684E+01 1.16103E+01 1.43251E+00
 -1     14030 8.10227E+01 1.15510E+01-1.41426E+00
 -1     14032 8.10227E+01 1.15510E+01 1.41426E+00
 -1     14033 3.73961E+01 3.84745E+01-6.52751E-01
 -1     14035 3.73961E+01 3.84745E+01 6.52751E-01
 -1     14036 3.84461E+01 3.85651E+01-6.71080E-01
 -1     14038 3.84461E+01 3.85651E+01 6.71080E-01
 -1     14039 3.70576E+01 3.75620E+01-6.46843E-01
 -1     14041 3.70576E+01 3.75620E+01 6.46843E-01
 -1     14042 3.94594E+01 3.86654E+01-6.88766E-01
 -1     14044 3.94594E+01 3.86654E+01 6.88766E-01
 -1     14045 4.04757E+01 3.87224E+01-7.06505E-01
 -1     14047 4.04757E+01 3.87224E+01 7.06505E-01
 -1     14048 3.91064E+01 3.78226E+01-6.82605E-01
 -1     14050 3.91064E+01 3.78226E+01 6.82605E-01
 -1     14051 4.14767E+01 3.87735E+01-7.23978E-01
 -1     14053 4.14767E+01 3.87735E+01 7.23978E-01
 -1     14054 4.24795E+01 3.87996E+01-7.41483E-01
 -1     14056 4.24795E+01 3.87996E+01 7.41483E-01
 -1     14057 4.11207E+01 3.79739E+01-7.17765E-01
 -1     14059 4.11207E+01 3.79739E+01 7.17765E-01
 -1     14060 4.34732E+01 3.88108E+01-7.58828E-01
 -1     14062 4.34732E+01 3.88108E+01 7.58828E-01
 -1     14063 4.44676E+01 3.88134E+01-7.76186E-01
 -1     14065 4.44676E+01 3.88134E+01 7.76186E-01
 -1     14066 4.31154E+01 3.80362E+01-7.52583E-01
 -1     14068 4.31154E+01 3.80362E+01 7.52583E-01
 -1     14069 4.54555E+01 3.87986E+01-7.93428E-01
 -1     14071 4.54555E+01 3.87986E+01 7.93428E-01
 -1     14072 4.64437E+01 3.87879E+01-8.10678E-01
 -1     14074 4.64437E+01 3.87879E+01 8.10678E-01
 -1     14075 4.50970E+01 3.80326E+01-7.87170E-01
 -1     14077 4.50970E+01 3.80326E+01 7.87170E-01
 -1     14078 4.74266E+01 3.87633E+01-8.27834E-01
 -1     14080 4.74266E+01 3.87633E+01 8.27834E-01
 -1     14081 4.84108E+01 3.87490E+01-8.45014E-01
 -1     14083 4.84108E+01 3.87490E+01 8.45014E-01
 -1     14084 4.70677E+01 3.79932E+01-8.21569E-01
 -1     14086 4.70677E+01 3.79932E+01 8.21569E-01
 -1     14087 4.93909E+01 3.87280E+01-8.62121E-01
 -1     14089 4.93909E+01 3.87280E+01 8.62121E-01
 -1     14090 5.03736E+01 3.87169E+01-8.79274E-01
 -1     14092 5.03736E+01 3.87169E+01 8.79274E-01
 -1     14093 4.90306E+01 3.79476E+01-8.55832E-01
 -1     14095 4.90306E+01 3.79476E+01 8.55832E-01
 -1     14096 5.13558E+01 3.87065E+01-8.96418E-01
 -1     14098 5.13558E+01 3.87065E+01 8.96418E-01
 -1     14099 5.23394E+01 3.87006E+01-9.13587E-01
 -1     14101 5.23394E+01 3.87006E+01 9.13587E-01
 -1     14102 5.09928E+01 3.79162E+01-8.90082E-01
 -1     14104 5.09928E+01 3.79162E+01 8.90082E-01
 -1     14105 5.33242E+01 3.86964E+01-9.30777E-01
 -1     14107 5.33242E+01 3.86964E+01 9.30777E-01
 -1     14108 5.43089E+01 3.86939E+01-9.47966E-01
 -1     14110 5.43089E+01 3.86939E+01 9.47966E-01
 -1     14111 5.29597E+01 3.79017E+01-9.24416E-01
 -1     14113 5.29597E+01 3.79017E+01 9.24416E-01
 -1     14114 5.52949E+01 3.86917E+01-9.65175E-01
 -1     14116 5.52949E+01 3.86917E+01 9.65175E-01
 -1     14117 5.62802E+01 3.86905E+01-9.82374E-01
 -1     14119 5.62802E+01 3.86905E+01 9.82374E-01
 -1     14120 5.49304E+01 3.78954E+01-9.58814E-01
 -1     14122 5.49304E+01 3.78954E+01 9.58814E-01
 -1     14123 5.72661E+01 3.86892E+01-9.99583E-01
 -1     14125 5.72661E+01 3.86892E+01 9.99583E-01
 -1     14126 5.82517E+01 3.86887E+01-1.01679E+00
 -1     14128 5.82517E+01 3.86887E+01 1.01679E+00
 -1     14129 5.69022E+01 3.78919E+01-9.93232E-01
 -1     14131 5.69022E+01 3.78919E+01 9.93232E-01
 -1     14132 5.92376E+01 3.86887E+01-1.03400E+00
 -1     14134 5.92376E+01 3.86887E+01 1.03400E+00
 -1     14135 6.02237E+01 3.86890E+01-1.05121E+00
 -1     14137 6.02237E+01 3.86890E+01 1.05121E+00
 -1     14138 5.88741E+01 3.78906E+01-1.02765E+00
 -1     14140 5.88741E+01 3.78906E+01 1.02765E+00
 -1     14141 6.12104E+01 3.86902E+01-1.06843E+00
 -1     14143 6.12104E+01 3.86902E+01 1.06843E+00
 -1     14144 6.21972E+01 3.86909E+01-1.08566E+00
 -1     14146 6.21972E+01 3.86909E+01 1.08566E+00
 -1     14147 6.08468E+01 3.78917E+01-1.06208E+00
 -1     14149 6.08468E+01 3.78917E+01 1.06208E+00
 -1     14150 6.31850E+01 3.86921E+01-1.10290E+00
 -1     14152 6.31850E+01 3.86921E+01 1.10290E+00
 -1     14153 6.41724E+01 3.86928E+01-1.12013E+00
 -1     14155 6.41724E+01 3.86928E+01 1.12013E+00
 -1     14156 6.28213E+01 3.78941E+01-1.09655E+00
 -1     14158 6.28213E+01 3.78941E+01 1.09655E+00
 -1     14159 6.51605E+01 3.86935E+01-1.13738E+00
 -1     14161 6.51605E+01 3.86935E+01 1.13738E+00
 -1     14162 6.61480E+01 3.86942E+01-1.15462E+00
 -1     14164 6.61480E+01 3.86942E+01 1.15462E+00
 -1     14165 6.47972E+01 3.78960E+01-1.13104E+00
 -1     14167 6.47972E+01 3.78960E+01 1.13104E+00
 -1     14168 6.71354E+01 3.86951E+01-1.17185E+00
 -1     14170 6.71354E+01 3.86951E+01 1.17185E+00
 -1     14171 6.81222E+01 3.86962E+01-1.18908E+00
 -1     14173 6.81222E+01 3.86962E+01 1.18908E+00
 -1     14174 6.67728E+01 3.78975E+01-1.16552E+00
 -1     14176 6.67728E+01 3.78975E+01 1.16552E+00
 -1     14177 6.91084E+01 3.86988E+01-1.20629E+00
 -1     14179 6.91084E+01 3.86988E+01 1.20629E+00
 -1     14180 7.00943E+01 3.87010E+01-1.22350E+00
 -1     14182 7.00943E+01 3.87010E+01 1.22350E+00
 -1     14183 6.87465E+01 3.79010E+01-1.19997E+00
 -1     14185 6.87465E+01 3.79010E+01 1.19997E+00
 -1     14186 7.10791E+01 3.87060E+01-1.24069E+00
 -1     14188 7.10791E+01 3.87060E+01 1.24069E+00
 -1     14189 7.20642E+01 3.87088E+01-1.25788E+00
 -1     14191 7.20642E+01 3.87088E+01 1.25788E+00
 -1     14192 7.07175E+01 3.79085E+01-1.23438E+00
 -1     14194 7.07175E+01 3.79085E+01 1.23438E+00
 -1     14195 7.30483E+01 3.87138E+01-1.27506E+00
 -1     14197 7.30483E+01 3.87138E+01 1.27506E+00
 -1     14198 7.40317E+01 3.87154E+01-1.29223E+00
 -1     14200 7.40317E+01 3.87154E+01 1.29223E+00
 -1     14201 7.26865E+01 3.79185E+01-1.26875E+00
 -1     14203 7.26865E+01 3.79185E+01 1.26875E+00
 -1     14204 7.50142E+01 3.87151E+01-1.30938E+00
 -1     14206 7.50142E+01 3.87151E+01 1.30938E+00
 -1     14207 7.59929E+01 3.87144E+01-1.32646E+00
 -1     14209 7.59929E+01 3.87144E+01 1.32646E+00
 -1     14210 7.46531E+01 3.79232E+01-1.30308E+00
 -1     14212 7.46531E+01 3.79232E+01 1.30308E+00
 -1     14213 7.69662E+01 3.87092E+01-1.34345E+00
 -1     14215 7.69662E+01 3.87092E+01 1.34345E+00
 -1     14216 7.79350E+01 3.87089E+01-1.36036E+00
 -1     14218 7.79350E+01 3.87089E+01 1.36036E+00
 -1     14219 7.66089E+01 3.79176E+01-1.33721E+00
 -1     14221 7.66089E+01 3.79176E+01 1.33721E+00
 -1     14222 7.88889E+01 3.87112E+01-1.37701E+00
 -1     14224 7.88889E+01 3.87112E+01 1.37701E+00
 -1     14225 7.98452E+01 3.87128E+01-1.39370E+00
 -1     14227 7.98452E+01 3.87128E+01 1.39370E+00
 -1     14228 7.85360E+01 3.79146E+01-1.37085E+00
 -1     14230 7.85360E+01 3.79146E+01 1.37085E+00
 -1     14231 8.07882E+01 3.87165E+01-1.41016E+00
 -1     14233 8.07882E+01 3.87165E+01 1.41016E+00
 -1     14234 8.17276E+01 3.87181E+01-1.42656E+00
 -1     14236 8.17276E+01 3.87181E+01 1.42656E+00
 -1     14237 8.04328E+01 3.79205E+01-1.40396E+00
 -1     14239 8.04328E+01 3.79205E+01 1.40396E+00
 -1     14240 8.26479E+01 3.87085E+01-1.44262E+00
 -1     14242 8.26479E+01 3.87085E+01 1.44262E+00
 -1     14243 8.35555E+01 3.87185E+01-1.45847E+00
 -1     14245 8.35555E+01 3.87185E+01 1.45847E+00
 -1     14246 8.22961E+01 3.79146E+01-1.43648E+00
 -1     14248 8.22961E+01 3.79146E+01 1.43648E+00
 -1     14249 8.43650E+01 3.87899E+01-1.47260E+00
 -1     14251 8.43650E+01 3.87899E+01 1.47260E+00
 -1     14252 8.52725E+01 3.87385E+01-1.48844E+00
 -1     14254 8.52725E+01 3.87385E+01 1.48844E+00
 -1     14255 8.40258E+01 3.79764E+01-1.46668E+00
 -1     14257 8.40258E+01 3.79764E+01 1.46668E+00
 -1     14258 8.60918E+01 3.84812E+01-1.50274E+00
 -1     14260 8.60918E+01 3.84812E+01 1.50274E+00
 -1     14261 8.69728E+01 3.83867E+01-1.51812E+00
 -1     14263 8.69728E+01 3.83867E+01 1.51812E+00
 -1     14264 8.56545E+01 3.77905E+01-1.49511E+00
 -1     14266 8.56545E+01 3.77905E+01 1.49511E+00
 -1     14267 4.43260E+01 1.12332E+01-7.73713E-01
 -1     14269 4.43260E+01 1.12332E+01 7.73713E-01
 -1     14270 4.33824E+01 1.11942E+01-7.57243E-01
 -1     14272 4.33824E+01 1.11942E+01 7.57243E-01
 -1     14273 3.62721E+01 1.44878E+01-6.33132E-01
 -1     14275 3.62721E+01 1.44878E+01 6.33132E-01
 -1     14276 3.62745E+01 1.55287E+01-6.33173E-01
 -1     14278 3.62745E+01 1.55287E+01 6.33173E-01
 -1     14279 3.71361E+01 1.60592E+01-6.48214E-01
 -1     14281 3.71361E+01 1.60592E+01 6.48214E-01
 -1     14282 3.71458E+01 1.40225E+01-6.48382E-01
 -1     14284 3.71458E+01 1.40225E+01 6.48382E-01
 -1     14285 3.66508E+01 1.00422E+01-6.39742E-01
 -1     14287 3.66508E+01 1.00422E+01 6.39742E-01
 -1     14288 3.63371E+01 1.12071E+01-6.34266E-01
 -1     14290 3.63371E+01 1.12071E+01 6.34266E-01
 -1     14291 3.72504E+01 1.19328E+01-6.50208E-01
 -1     14293 3.72504E+01 1.19328E+01 6.50208E-01
 -1     14294 3.76769E+01 9.87344E+00-6.57653E-01
 -1     14296 3.76769E+01 9.87344E+00 6.57653E-01
 -1     14297 8.41992E+01 1.17425E+01-1.46970E+00
 -1     14299 8.41992E+01 1.17425E+01 1.46970E+00
 -1     14300 8.31556E+01 1.17132E+01-1.45149E+00
 -1     14302 8.31556E+01 1.17132E+01 1.45149E+00
 -1     14303 8.26599E+01 1.26014E+01-1.44283E+00
 -1     14305 8.26599E+01 1.26014E+01 1.44283E+00
 -1     14306 8.48255E+01 1.27140E+01-1.48063E+00
 -1     14308 8.48255E+01 1.27140E+01 1.48063E+00
 -1     14309 8.84003E+01 3.47816E+01-1.54303E+00
 -1     14311 8.84003E+01 3.47816E+01 1.54303E+00
 -1     14312 8.74693E+01 3.43079E+01-1.52678E+00
 -1     14314 8.74693E+01 3.43079E+01 1.52678E+00
 -1     14315 8.85090E+01 3.57407E+01-1.54493E+00
 -1     14317 8.85090E+01 3.57407E+01 1.54493E+00
 -1     14318 8.77786E+01 2.80030E+01-1.53218E+00
 -1     14320 8.77786E+01 2.80030E+01 1.53218E+00
 -1     14321 3.72032E+01 3.33791E+01-6.49385E-01
 -1     14323 3.72032E+01 3.33791E+01 6.49385E-01
 -1     14324 8.78152E+01 2.39617E+01-1.53282E+00
 -1     14326 8.78152E+01 2.39617E+01 1.53282E+00
 -1     14327 3.62431E+01 1.85369E+01-6.32626E-01
 -1     14329 3.62431E+01 1.85369E+01 6.32626E-01
 -1     14330 3.62403E+01 1.95361E+01-6.32577E-01
 -1     14332 3.62403E+01 1.95361E+01 6.32577E-01
 -1     14333 3.71112E+01 1.80578E+01-6.47778E-01
 -1     14335 3.71112E+01 1.80578E+01 6.47778E-01
 -1     14336 6.40006E+01 1.12741E+01-1.11713E+00
 -1     14338 6.40006E+01 1.12741E+01 1.11713E+00
 -1     14339 6.30155E+01 1.12748E+01-1.09994E+00
 -1     14341 6.30155E+01 1.12748E+01 1.09994E+00
 -1     14342 3.70801E+01 2.97068E+01-6.47236E-01
 -1     14344 3.70801E+01 2.97068E+01 6.47236E-01
 -1     14345 8.69163E+01 1.25885E+01-1.51713E+00
 -1     14347 8.69163E+01 1.25885E+01 1.51713E+00
 -1     14348 7.99615E+01 1.14604E+01-1.39573E+00
 -1     14350 7.99615E+01 1.14604E+01 1.39573E+00
 -1     14351 7.89297E+01 1.14099E+01-1.37772E+00
 -1     14353 7.89297E+01 1.14099E+01 1.37772E+00
 -1     14354 8.05114E+01 1.24080E+01-1.40533E+00
 -1     14356 8.05114E+01 1.24080E+01 1.40533E+00
 -1     14357 8.76613E+01 1.98166E+01-1.53013E+00
 -1     14359 8.76613E+01 1.98166E+01 1.53013E+00
 -1     14360 7.18897E+01 1.12657E+01-1.25484E+00
 -1     14362 7.18897E+01 1.12657E+01 1.25484E+00
 -1     14363 7.09003E+01 1.12645E+01-1.23757E+00
 -1     14365 7.09003E+01 1.12645E+01 1.23757E+00
 -1     14366 4.24648E+01 1.11098E+01-7.41225E-01
 -1     14368 4.24648E+01 1.11098E+01 7.41225E-01
 -1     14369 4.15450E+01 1.10600E+01-7.25171E-01
 -1     14371 4.15450E+01 1.10600E+01 7.25171E-01
 -1     14372 4.29026E+01 1.20095E+01-7.48868E-01
 -1     14374 4.29026E+01 1.20095E+01 7.48868E-01
 -1     14375 5.41529E+01 1.12551E+01-9.45243E-01
 -1     14377 5.41529E+01 1.12551E+01 9.45243E-01
 -1     14378 5.31668E+01 1.12540E+01-9.28029E-01
 -1     14380 5.31668E+01 1.12540E+01 9.28029E-01
 -1     14381 6.20305E+01 1.12745E+01-1.08275E+00
 -1     14383 6.20305E+01 1.12745E+01 1.08275E+00
 -1     14384 6.10454E+01 1.12738E+01-1.06555E+00
 -1     14386 6.10454E+01 1.12738E+01 1.06555E+00
 -1     14387 6.25233E+01 1.21450E+01-1.09135E+00
 -1     14389 6.25233E+01 1.21450E+01 1.09135E+00
 -1     14390 3.66279E+01 3.57675E+01-6.39342E-01
 -1     14392 3.66279E+01 3.57675E+01 6.39342E-01
 -1     14393 3.68055E+01 3.67100E+01-6.42443E-01
 -1     14395 3.68055E+01 3.67100E+01 6.42443E-01
 -1     14396 3.78411E+01 3.68705E+01-6.60519E-01
 -1     14398 3.78411E+01 3.68705E+01 6.60519E-01
 -1     14399 3.74346E+01 3.51493E+01-6.53423E-01
 -1     14401 3.74346E+01 3.51493E+01 6.53423E-01
 -1     14402 6.79416E+01 1.12682E+01-1.18593E+00
 -1     14404 6.79416E+01 1.12682E+01 1.18593E+00
 -1     14405 6.69557E+01 1.12690E+01-1.16872E+00
 -1     14407 6.69557E+01 1.12690E+01 1.16872E+00
 -1     14408 3.96090E+01 9.51045E+00-6.91377E-01
 -1     14410 3.96090E+01 9.51045E+00 6.91377E-01
 -1     14411 3.86096E+01 9.62493E+00-6.73933E-01
 -1     14413 3.86096E+01 9.62493E+00 6.73933E-01
 -1     14414 3.82933E+01 1.06283E+01-6.68412E-01
 -1     14416 3.82933E+01 1.06283E+01 6.68412E-01
 -1     14417 4.01656E+01 1.02873E+01-7.01093E-01
 -1     14419 4.01656E+01 1.02873E+01 7.01093E-01
 -1     14420 6.99138E+01 1.12658E+01-1.22035E+00
 -1     14422 6.99138E+01 1.12658E+01 1.22035E+00
 -1     14423 6.89266E+01 1.12662E+01-1.20312E+00
 -1     14425 6.89266E+01 1.12662E+01 1.20312E+00
 -1     14426 7.04039E+01 1.21326E+01-1.22890E+00
 -1     14428 7.04039E+01 1.21326E+01 1.22890E+00
 -1     14429 3.62477E+01 2.54507E+01-6.32705E-01
 -1     14431 3.62477E+01 2.54507E+01 6.32705E-01
 -1     14432 3.71125E+01 2.59212E+01-6.47802E-01
 -1     14434 3.71125E+01 2.59212E+01 6.47802E-01
 -1     14435 3.62513E+01 2.44698E+01-6.32769E-01
 -1     14437 3.62513E+01 2.44698E+01 6.32769E-01
 -1     14438 8.78967E+01 3.83565E+01-1.53424E+00
 -1     14440 8.78967E+01 3.83565E+01 1.53424E+00
 -1     14441 8.88025E+01 3.83515E+01-1.55005E+00
 -1     14443 8.88025E+01 3.83515E+01 1.55005E+00
 -1     14444 7.53767E+01 1.04255E+01-1.31571E+00
 -1     14446 7.53767E+01 1.04255E+01 1.31571E+00
 -1     14447 5.21795E+01 1.12528E+01-9.10796E-01
 -1     14449 5.21795E+01 1.12528E+01 9.10796E-01
 -1     14450 5.11923E+01 1.12542E+01-8.93564E-01
 -1     14452 5.11923E+01 1.12542E+01 8.93564E-01
 -1     14453 5.26753E+01 1.21179E+01-9.19450E-01
 -1     14455 5.26753E+01 1.21179E+01 9.19450E-01
 -1     14456 3.53826E+01 2.29942E+01-6.17605E-01
 -1     14458 3.53826E+01 2.29942E+01 6.17605E-01
 -1     14459 5.90760E+01 1.12719E+01-1.03118E+00
 -1     14461 5.90760E+01 1.12719E+01 1.03118E+00
 -1     14462 5.85847E+01 1.21403E+01-1.02260E+00
 -1     14464 5.85847E+01 1.21403E+01 1.02260E+00
 -1     14465 6.00606E+01 1.12728E+01-1.04836E+00
 -1     14467 6.00606E+01 1.12728E+01 1.04836E+00
 -1     14468 5.61229E+01 1.12620E+01-9.79629E-01
 -1     14470 5.61229E+01 1.12620E+01 9.79629E-01
 -1     14471 5.51378E+01 1.12595E+01-9.62434E-01
 -1     14473 5.51378E+01 1.12595E+01 9.62434E-01
 -1     14474 5.46474E+01 1.21235E+01-9.53874E-01
 -1     14476 5.46474E+01 1.21235E+01 9.53874E-01
 -1     14477 5.66164E+01 1.21329E+01-9.88243E-01
 -1     14479 5.66164E+01 1.21329E+01 9.88243E-01
 -1     14480 8.77074E+01 1.34564E+01-1.53094E+00
 -1     14482 8.77074E+01 1.34564E+01 1.53094E+00
 -1     14483 8.91711E+01 3.75973E+01-1.55649E+00
 -1     14485 8.91711E+01 3.75973E+01 1.55649E+00
 -1     14486 8.89755E+01 3.67438E+01-1.55307E+00
 -1     14488 8.89755E+01 3.67438E+01 1.55307E+00
 -1     14489 4.52939E+01 1.12614E+01-7.90608E-01
 -1     14491 4.52939E+01 1.12614E+01 7.90608E-01
 -1     14492 4.47882E+01 1.21221E+01-7.81781E-01
 -1     14494 4.47882E+01 1.21221E+01 7.81781E-01
 -1     14495 4.62602E+01 1.12752E+01-8.07474E-01
 -1     14497 4.62602E+01 1.12752E+01 8.07474E-01
 -1     14498 7.28794E+01 1.12678E+01-1.27211E+00
 -1     14500 7.28794E+01 1.12678E+01 1.27211E+00
 -1     14501 7.23800E+01 1.21333E+01-1.26340E+00
 -1     14503 7.23800E+01 1.21333E+01 1.26340E+00
 -1     14504 7.38729E+01 1.12734E+01-1.28946E+00
 -1     14506 7.38729E+01 1.12734E+01 1.28946E+00
 -1     14507 6.84324E+01 1.21359E+01-1.19449E+00
 -1     14509 6.84324E+01 1.21359E+01 1.19449E+00
 -1     14510 8.78550E+01 3.64696E+01-1.53351E+00
 -1     14512 8.78550E+01 3.64696E+01 1.53351E+00
 -1     14513 8.73977E+01 3.75029E+01-1.52553E+00
 -1     14515 8.73977E+01 3.75029E+01 1.52553E+00
 -1     14516 8.66950E+01 1.35917E+01-1.51327E+00
 -1     14518 8.66950E+01 1.35917E+01 1.51327E+00
 -1     14519 8.64736E+01 3.47727E+01-1.50940E+00
 -1     14521 8.64736E+01 3.47727E+01 1.50940E+00
 -1     14522 8.65544E+01 3.36141E+01-1.51081E+00
 -1     14524 8.65544E+01 3.36141E+01 1.51081E+00
 -1     14525 3.79395E+01 2.91909E+01-6.62236E-01
 -1     14527 3.79395E+01 2.91909E+01 6.62236E-01
 -1     14528 3.79366E+01 3.01177E+01-6.62186E-01
 -1     14530 3.79366E+01 3.01177E+01 6.62186E-01
 -1     14531 8.63459E+01 1.47482E+01-1.50717E+00
 -1     14533 8.63459E+01 1.47482E+01 1.50717E+00
 -1     14534 8.55547E+01 1.38802E+01-1.49336E+00
 -1     14536 8.55547E+01 1.38802E+01 1.49336E+00
 -1     14537 8.69629E+01 2.44821E+01-1.51794E+00
 -1     14539 8.69629E+01 2.44821E+01 1.51794E+00
 -1     14540 8.69517E+01 2.34628E+01-1.51775E+00
 -1     14542 8.69517E+01 2.34628E+01 1.51775E+00
 -1     14543 3.62465E+01 2.05216E+01-6.32686E-01
 -1     14545 3.62465E+01 2.05216E+01 6.32686E-01
 -1     14546 3.62480E+01 2.15143E+01-6.32711E-01
 -1     14548 3.62480E+01 2.15143E+01 6.32711E-01
 -1     14549 3.71076E+01 2.00389E+01-6.47716E-01
 -1     14551 3.71076E+01 2.00389E+01 6.47716E-01
 -1     14552 8.69283E+01 2.24373E+01-1.51734E+00
 -1     14554 8.69283E+01 2.24373E+01 1.51734E+00
 -1     14555 8.68908E+01 2.14027E+01-1.51669E+00
 -1     14557 8.68908E+01 2.14027E+01 1.51669E+00
 -1     14558 8.60760E+01 2.29578E+01-1.50246E+00
 -1     14560 8.60760E+01 2.29578E+01 1.50246E+00
 -1     14561 8.69312E+01 3.64998E+01-1.51739E+00
 -1     14563 8.69312E+01 3.64998E+01 1.51739E+00
 -1     14564 8.68041E+01 3.05109E+01-1.51517E+00
 -1     14566 8.68041E+01 3.05109E+01 1.51517E+00
 -1     14567 8.68428E+01 2.94945E+01-1.51585E+00
 -1     14569 8.68428E+01 2.94945E+01 1.51585E+00
 -1     14570 8.63199E+01 1.58160E+01-1.50672E+00
 -1     14572 8.63199E+01 1.58160E+01 1.50672E+00
 -1     14573 7.78960E+01 1.13538E+01-1.35968E+00
 -1     14575 7.78960E+01 1.13538E+01 1.35968E+00
 -1     14576 7.68801E+01 1.13223E+01-1.34195E+00
 -1     14578 7.68801E+01 1.13223E+01 1.34195E+00
 -1     14579 7.84166E+01 1.22612E+01-1.36877E+00
 -1     14581 7.84166E+01 1.22612E+01 1.36877E+00
 -1     14582 6.59710E+01 1.12708E+01-1.15153E+00
 -1     14584 6.59710E+01 1.12708E+01 1.15153E+00
 -1     14585 6.49854E+01 1.12721E+01-1.13433E+00
 -1     14587 6.49854E+01 1.12721E+01 1.13433E+00
 -1     14588 6.44932E+01 1.21433E+01-1.12573E+00
 -1     14590 6.44932E+01 1.21433E+01 1.12573E+00
 -1     14591 6.64627E+01 1.21396E+01-1.16011E+00
 -1     14593 6.64627E+01 1.21396E+01 1.16011E+00
 -1     14594 8.68184E+01 2.03467E+01-1.51542E+00
 -1     14596 8.68184E+01 2.03467E+01 1.51542E+00
 -1     14597 8.67505E+01 1.92902E+01-1.51424E+00
 -1     14599 8.67505E+01 1.92902E+01 1.51424E+00
 -1     14600 8.59801E+01 2.08763E+01-1.50079E+00
 -1     14602 8.59801E+01 2.08763E+01 1.50079E+00
 -1     14603 7.58702E+01 1.12969E+01-1.32432E+00
 -1     14605 7.58702E+01 1.12969E+01 1.32432E+00
 -1     14606 7.48696E+01 1.12829E+01-1.30685E+00
 -1     14608 7.48696E+01 1.12829E+01 1.30685E+00
 -1     14609 7.43663E+01 1.21448E+01-1.29807E+00
 -1     14611 7.43663E+01 1.21448E+01 1.29807E+00
 -1     14612 7.63730E+01 1.21797E+01-1.33310E+00
 -1     14614 7.63730E+01 1.21797E+01 1.33310E+00
 -1     14615 8.66190E+01 1.81806E+01-1.51194E+00
 -1     14617 8.66190E+01 1.81806E+01 1.51194E+00
 -1     14618 8.65394E+01 1.70982E+01-1.51055E+00
 -1     14620 8.65394E+01 1.70982E+01 1.51055E+00
 -1     14621 8.57761E+01 1.87106E+01-1.49723E+00
 -1     14623 8.57761E+01 1.87106E+01 1.49723E+00
 -1     14624 7.08921E+01 1.30000E+01-1.23743E+00
 -1     14626 7.08921E+01 1.30000E+01 1.23743E+00
 -1     14627 6.99057E+01 1.30014E+01-1.22021E+00
 -1     14629 6.99057E+01 1.30014E+01 1.22021E+00
 -1     14630 3.79267E+01 3.10104E+01-6.62014E-01
 -1     14632 3.79267E+01 3.10104E+01 6.62014E-01
 -1     14633 3.79512E+01 3.19327E+01-6.62441E-01
 -1     14635 3.79512E+01 3.19327E+01 6.62441E-01
 -1     14636 3.87861E+01 3.04945E+01-6.77014E-01
 -1     14638 3.87861E+01 3.04945E+01 6.77014E-01
 -1     14639 3.62514E+01 2.24981E+01-6.32770E-01
 -1     14641 3.62514E+01 2.24981E+01 6.32770E-01
 -1     14642 3.62518E+01 2.34880E+01-6.32777E-01
 -1     14644 3.62518E+01 2.34880E+01 6.32777E-01
 -1     14645 3.71172E+01 2.20081E+01-6.47883E-01
 -1     14647 3.71172E+01 2.20081E+01 6.47883E-01
 -1     14648 3.88185E+01 3.70339E+01-6.77580E-01
 -1     14650 3.88185E+01 3.70339E+01 6.77580E-01
 -1     14651 3.98318E+01 3.71341E+01-6.95266E-01
 -1     14653 3.98318E+01 3.71341E+01 6.95266E-01
 -1     14654 3.85664E+01 3.61820E+01-6.73180E-01
 -1     14656 3.85664E+01 3.61820E+01 6.73180E-01
 -1     14657 4.08141E+01 3.72263E+01-7.12413E-01
 -1     14659 4.08141E+01 3.72263E+01 7.12413E-01
 -1     14660 4.18152E+01 3.72774E+01-7.29886E-01
 -1     14662 4.18152E+01 3.72774E+01 7.29886E-01
 -1     14663 4.05262E+01 3.64376E+01-7.07388E-01
 -1     14665 4.05262E+01 3.64376E+01 7.07388E-01
 -1     14666 4.27985E+01 3.73067E+01-7.47050E-01
 -1     14668 4.27985E+01 3.73067E+01 7.47050E-01
 -1     14669 4.37922E+01 3.73179E+01-7.64395E-01
 -1     14671 4.37922E+01 3.73179E+01 7.64395E-01
 -1     14672 4.24919E+01 3.65592E+01-7.41699E-01
 -1     14674 4.24919E+01 3.65592E+01 7.41699E-01
 -1     14675 4.47744E+01 3.73007E+01-7.81539E-01
 -1     14677 4.47744E+01 3.73007E+01 7.81539E-01
 -1     14678 4.57622E+01 3.72859E+01-7.98782E-01
 -1     14680 4.57622E+01 3.72859E+01 7.98782E-01
 -1     14681 4.44574E+01 3.65712E+01-7.76006E-01
 -1     14683 4.44574E+01 3.65712E+01 7.76006E-01
 -1     14684 4.67424E+01 3.72464E+01-8.15892E-01
 -1     14686 4.67424E+01 3.72464E+01 8.15892E-01
 -1     14687 4.77253E+01 3.72218E+01-8.33049E-01
 -1     14689 4.77253E+01 3.72218E+01 8.33049E-01
 -1     14690 4.64198E+01 3.65145E+01-8.10261E-01
 -1     14692 4.64198E+01 3.65145E+01 8.10261E-01
 -1     14693 4.86999E+01 3.71825E+01-8.50059E-01
 -1     14695 4.86999E+01 3.71825E+01 8.50059E-01
 -1     14696 4.96799E+01 3.71614E+01-8.67166E-01
 -1     14698 4.96799E+01 3.71614E+01 8.67166E-01
 -1     14699 4.83746E+01 3.64356E+01-8.44383E-01
 -1     14701 4.83746E+01 3.64356E+01 8.44383E-01
 -1     14702 5.06602E+01 3.71441E+01-8.84276E-01
 -1     14704 5.06602E+01 3.71441E+01 8.84276E-01
 -1     14705 5.16423E+01 3.71338E+01-9.01420E-01
 -1     14707 5.16423E+01 3.71338E+01 9.01420E-01
 -1     14708 5.03294E+01 3.63790E+01-8.78503E-01
 -1     14710 5.03294E+01 3.63790E+01 8.78503E-01
 -1     14711 5.26280E+01 3.71279E+01-9.18626E-01
 -1     14713 5.26280E+01 3.71279E+01 9.18626E-01
 -1     14714 5.36128E+01 3.71238E+01-9.35815E-01
 -1     14716 5.36128E+01 3.71238E+01 9.35815E-01
 -1     14717 5.22954E+01 3.63558E+01-9.12820E-01
 -1     14719 5.22954E+01 3.63558E+01 9.12820E-01
 -1     14720 5.46005E+01 3.71204E+01-9.53056E-01
 -1     14722 5.46005E+01 3.71204E+01 9.53056E-01
 -1     14723 5.55864E+01 3.71182E+01-9.70264E-01
 -1     14725 5.55864E+01 3.71182E+01 9.70264E-01
 -1     14726 5.42688E+01 3.63466E+01-9.47266E-01
 -1     14728 5.42688E+01 3.63466E+01 9.47266E-01
 -1     14729 5.65735E+01 3.71150E+01-9.87493E-01
 -1     14731 5.65735E+01 3.71150E+01 9.87493E-01
 -1     14732 5.75593E+01 3.71137E+01-1.00470E+00
 -1     14734 5.75593E+01 3.71137E+01 1.00470E+00
 -1     14735 5.62435E+01 3.63400E+01-9.81735E-01
 -1     14737 5.62435E+01 3.63400E+01 9.81735E-01
 -1     14738 5.85453E+01 3.71125E+01-1.02191E+00
 -1     14740 5.85453E+01 3.71125E+01 1.02191E+00
 -1     14741 5.95313E+01 3.71125E+01-1.03912E+00
 -1     14743 5.95313E+01 3.71125E+01 1.03912E+00
 -1     14744 5.82166E+01 3.63356E+01-1.01617E+00
 -1     14746 5.82166E+01 3.63356E+01 1.01617E+00
 -1     14747 6.05176E+01 3.71140E+01-1.05634E+00
 -1     14749 6.05176E+01 3.71140E+01 1.05634E+00
 -1     14750 6.15044E+01 3.71151E+01-1.07356E+00
 -1     14752 6.15044E+01 3.71151E+01 1.07356E+00
 -1     14753 6.01889E+01 3.63358E+01-1.05060E+00
 -1     14755 6.01889E+01 3.63358E+01 1.05060E+00
 -1     14756 6.24924E+01 3.71175E+01-1.09081E+00
 -1     14758 6.24924E+01 3.71175E+01 1.09081E+00
 -1     14759 6.34801E+01 3.71187E+01-1.10805E+00
 -1     14761 6.34801E+01 3.71187E+01 1.10805E+00
 -1     14762 6.21632E+01 3.63398E+01-1.08506E+00
 -1     14764 6.21632E+01 3.63398E+01 1.08506E+00
 -1     14765 6.44693E+01 3.71200E+01-1.12532E+00
 -1     14767 6.44693E+01 3.71200E+01 1.12532E+00
 -1     14768 6.54574E+01 3.71207E+01-1.14256E+00
 -1     14770 6.54574E+01 3.71207E+01 1.14256E+00
 -1     14771 6.41404E+01 3.63435E+01-1.11957E+00
 -1     14773 6.41404E+01 3.63435E+01 1.11957E+00
 -1     14774 6.64463E+01 3.71209E+01-1.15983E+00
 -1     14776 6.64463E+01 3.71209E+01 1.15983E+00
 -1     14777 6.74338E+01 3.71218E+01-1.17706E+00
 -1     14779 6.74338E+01 3.71218E+01 1.17706E+00
 -1     14780 6.61185E+01 3.63449E+01-1.15410E+00
 -1     14782 6.61185E+01 3.63449E+01 1.15410E+00
 -1     14783 6.84214E+01 3.71235E+01-1.19430E+00
 -1     14785 6.84214E+01 3.71235E+01 1.19430E+00
 -1     14786 6.94076E+01 3.71260E+01-1.21151E+00
 -1     14788 6.94076E+01 3.71260E+01 1.21151E+00
 -1     14789 6.80949E+01 3.63468E+01-1.18860E+00
 -1     14791 6.80949E+01 3.63468E+01 1.18860E+00
 -1     14792 7.03927E+01 3.71324E+01-1.22871E+00
 -1     14794 7.03927E+01 3.71324E+01 1.22871E+00
 -1     14795 7.13776E+01 3.71374E+01-1.24590E+00
 -1     14797 7.13776E+01 3.71374E+01 1.24590E+00
 -1     14798 7.00676E+01 3.63549E+01-1.22304E+00
 -1     14800 7.00676E+01 3.63549E+01 1.22304E+00
 -1     14801 7.23603E+01 3.71488E+01-1.26305E+00
 -1     14803 7.23603E+01 3.71488E+01 1.26305E+00
 -1     14804 7.33445E+01 3.71538E+01-1.28023E+00
 -1     14806 7.33445E+01 3.71538E+01 1.28023E+00
 -1     14807 7.20355E+01 3.63726E+01-1.25739E+00
 -1     14809 7.20355E+01 3.63726E+01 1.25739E+00
 -1     14810 7.43283E+01 3.71606E+01-1.29741E+00
 -1     14812 7.43283E+01 3.71606E+01 1.29741E+00
 -1     14813 7.53108E+01 3.71603E+01-1.31456E+00
 -1     14815 7.53108E+01 3.71603E+01 1.31456E+00
 -1     14816 7.40022E+01 3.63909E+01-1.29171E+00
 -1     14818 7.40022E+01 3.63909E+01 1.29171E+00
 -1     14819 7.62951E+01 3.71485E+01-1.33174E+00
 -1     14821 7.62951E+01 3.71485E+01 1.33174E+00
 -1     14822 7.72684E+01 3.71432E+01-1.34872E+00
 -1     14824 7.72684E+01 3.71432E+01 1.34872E+00
 -1     14825 7.59703E+01 3.63860E+01-1.32607E+00
 -1     14827 7.59703E+01 3.63860E+01 1.32607E+00
 -1     14828 7.82311E+01 3.71280E+01-1.36553E+00
 -1     14830 7.82311E+01 3.71280E+01 1.36553E+00
 -1     14831 7.91849E+01 3.71303E+01-1.38218E+00
 -1     14833 7.91849E+01 3.71303E+01 1.38218E+00
 -1     14834 7.79172E+01 3.63590E+01-1.36005E+00
 -1     14836 7.79172E+01 3.63590E+01 1.36005E+00
 -1     14837 8.01061E+01 3.71631E+01-1.39826E+00
 -1     14839 8.01061E+01 3.71631E+01 1.39826E+00
 -1     14840 8.10491E+01 3.71668E+01-1.41472E+00
 -1     14842 8.10491E+01 3.71668E+01 1.41472E+00
 -1     14843 7.98011E+01 3.63766E+01-1.39293E+00
 -1     14845 7.98011E+01 3.63766E+01 1.39293E+00
 -1     14846 8.20106E+01 3.71584E+01-1.43150E+00
 -1     14848 8.20106E+01 3.71584E+01 1.43150E+00
 -1     14849 8.29309E+01 3.71489E+01-1.44756E+00
 -1     14851 8.29309E+01 3.71489E+01 1.44756E+00
 -1     14852 8.16839E+01 3.64011E+01-1.42580E+00
 -1     14854 8.16839E+01 3.64011E+01 1.42580E+00
 -1     14855 8.40190E+01 3.70624E+01-1.46656E+00
 -1     14857 8.40190E+01 3.70624E+01 1.46656E+00
 -1     14858 8.48285E+01 3.71338E+01-1.48069E+00
 -1     14860 8.48285E+01 3.71338E+01 1.48069E+00
 -1     14861 8.37336E+01 3.63062E+01-1.46158E+00
 -1     14863 8.37336E+01 3.63062E+01 1.46158E+00
 -1     14864 8.66750E+01 3.25740E+01-1.51292E+00
 -1     14866 8.66750E+01 3.25740E+01 1.51292E+00
 -1     14867 8.67374E+01 3.15210E+01-1.51401E+00
 -1     14869 8.67374E+01 3.15210E+01 1.51401E+00
 -1     14870 8.56793E+01 3.30389E+01-1.49554E+00
 -1     14872 8.56793E+01 3.30389E+01 1.49554E+00
 -1     14873 6.89229E+01 1.30055E+01-1.20305E+00
 -1     14875 6.89229E+01 1.30055E+01 1.20305E+00
 -1     14876 6.79379E+01 1.30075E+01-1.18586E+00
 -1     14878 6.79379E+01 1.30075E+01 1.18586E+00
 -1     14879 6.94111E+01 1.38730E+01-1.21158E+00
 -1     14881 6.94111E+01 1.38730E+01 1.21158E+00
 -1     14882 3.79943E+01 3.27999E+01-6.63193E-01
 -1     14884 3.79943E+01 3.27999E+01 6.63193E-01
 -1     14885 3.80712E+01 3.37008E+01-6.64536E-01
 -1     14887 3.80712E+01 3.37008E+01 6.64536E-01
 -1     14888 3.88192E+01 3.22543E+01-6.77592E-01
 -1     14890 3.88192E+01 3.22543E+01 6.77592E-01
 -1     14891 8.68868E+01 2.84975E+01-1.51662E+00
 -1     14893 8.68868E+01 2.84975E+01 1.51662E+00
 -1     14894 8.69132E+01 2.74901E+01-1.51707E+00
 -1     14896 8.69132E+01 2.74901E+01 1.51707E+00
 -1     14897 8.59773E+01 2.89815E+01-1.50074E+00
 -1     14899 8.59773E+01 2.89815E+01 1.50074E+00
 -1     14900 5.51431E+01 1.29924E+01-9.62526E-01
 -1     14902 5.51431E+01 1.29924E+01 9.62526E-01
 -1     14903 5.41582E+01 1.29880E+01-9.45335E-01
 -1     14905 5.41582E+01 1.29880E+01 9.45335E-01
 -1     14906 8.61051E+01 3.58431E+01-1.50297E+00
 -1     14908 8.61051E+01 3.58431E+01 1.50297E+00
 -1     14909 8.51902E+01 3.51494E+01-1.48700E+00
 -1     14911 8.51902E+01 3.51494E+01 1.48700E+00
 -1     14912 3.71201E+01 2.39737E+01-6.47934E-01
 -1     14914 3.71201E+01 2.39737E+01 6.47934E-01
 -1     14915 3.79609E+01 1.75929E+01-6.62609E-01
 -1     14917 3.79609E+01 1.75929E+01 6.62609E-01
 -1     14918 3.79511E+01 1.85886E+01-6.62440E-01
 -1     14920 3.79511E+01 1.85886E+01 6.62440E-01
 -1     14921 8.44763E+01 1.38705E+01-1.47454E+00
 -1     14923 8.44763E+01 1.38705E+01 1.47454E+00
 -1     14924 8.56478E+01 3.68764E+01-1.49499E+00
 -1     14926 8.56478E+01 3.68764E+01 1.49499E+00
 -1     14927 8.58666E+01 3.09886E+01-1.49881E+00
 -1     14929 8.58666E+01 3.09886E+01 1.49881E+00
 -1     14930 6.30171E+01 1.30198E+01-1.09997E+00
 -1     14932 6.30171E+01 1.30198E+01 1.09997E+00
 -1     14933 6.20321E+01 1.30195E+01-1.08277E+00
 -1     14935 6.20321E+01 1.30195E+01 1.08277E+00
 -1     14936 8.10254E+01 1.33411E+01-1.41430E+00
 -1     14938 8.10254E+01 1.33411E+01 1.41430E+00
 -1     14939 7.99642E+01 1.32505E+01-1.39578E+00
 -1     14941 7.99642E+01 1.32505E+01 1.39578E+00
 -1     14942 4.32230E+01 1.29422E+01-7.54460E-01
 -1     14944 4.32230E+01 1.29422E+01 7.54460E-01
 -1     14945 4.23053E+01 1.28578E+01-7.38442E-01
 -1     14947 4.23053E+01 1.28578E+01 7.38442E-01
 -1     14948 5.02025E+01 1.12595E+01-8.76288E-01
 -1     14950 5.02025E+01 1.12595E+01 8.76288E-01
 -1     14951 4.92162E+01 1.12633E+01-8.59072E-01
 -1     14953 4.92162E+01 1.12633E+01 8.59072E-01
 -1     14954 5.06982E+01 1.21221E+01-8.84940E-01
 -1     14956 5.06982E+01 1.21221E+01 8.84940E-01
 -1     14957 6.05536E+01 1.21437E+01-1.05697E+00
 -1     14959 6.05536E+01 1.21437E+01 1.05697E+00
 -1     14960 3.81987E+01 3.45198E+01-6.66761E-01
 -1     14962 3.81987E+01 3.45198E+01 6.66761E-01
 -1     14963 3.83531E+01 3.53891E+01-6.69456E-01
 -1     14965 3.83531E+01 3.53891E+01 6.69456E-01
 -1     14966 3.93306E+01 3.55525E+01-6.86518E-01
 -1     14968 3.93306E+01 3.55525E+01 6.86518E-01
 -1     14969 3.89898E+01 3.39406E+01-6.80569E-01
 -1     14971 3.89898E+01 3.39406E+01 6.80569E-01
 -1     14972 8.32177E+01 1.36063E+01-1.45257E+00
 -1     14974 8.32177E+01 1.36063E+01 1.45257E+00
 -1     14975 8.21304E+01 1.35034E+01-1.43359E+00
 -1     14977 8.21304E+01 1.35034E+01 1.43359E+00
 -1     14978 8.15832E+01 1.43460E+01-1.42404E+00
 -1     14980 8.15832E+01 1.43460E+01 1.42404E+00
 -1     14981 8.39469E+01 1.47725E+01-1.46530E+00
 -1     14983 8.39469E+01 1.47725E+01 1.46530E+00
 -1     14984 3.81151E+01 1.15854E+01-6.65302E-01
 -1     14986 3.81151E+01 1.15854E+01 6.65302E-01
 -1     14987 3.80049E+01 1.26414E+01-6.63377E-01
 -1     14989 3.80049E+01 1.26414E+01 6.63377E-01
 -1     14990 3.90478E+01 1.13369E+01-6.81582E-01
 -1     14992 3.90478E+01 1.13369E+01 6.81582E-01
 -1     14993 4.07342E+01 1.09214E+01-7.11017E-01
 -1     14995 4.07342E+01 1.09214E+01 7.11017E-01
 -1     14996 3.97946E+01 1.10139E+01-6.94617E-01
 -1     14998 3.97946E+01 1.10139E+01 6.94617E-01
 -1     14999 3.96164E+01 1.19710E+01-6.91506E-01
 -1     15001 3.96164E+01 1.19710E+01 6.91506E-01
 -1     15002 4.11740E+01 1.17865E+01-7.18696E-01
 -1     15004 4.11740E+01 1.17865E+01 7.18696E-01
 -1     15005 8.54251E+01 1.63189E+01-1.49110E+00
 -1     15007 8.54251E+01 1.63189E+01 1.49110E+00
 -1     15008 3.79588E+01 2.82833E+01-6.62574E-01
 -1     15010 3.79588E+01 2.82833E+01 6.62574E-01
 -1     15011 3.88153E+01 2.86943E+01-6.77524E-01
 -1     15013 3.88153E+01 2.86943E+01 6.77524E-01
 -1     15014 3.79700E+01 2.73368E+01-6.62769E-01
 -1     15016 3.79700E+01 2.73368E+01 6.62769E-01
 -1     15017 6.69550E+01 1.30111E+01-1.16870E+00
 -1     15019 6.69550E+01 1.30111E+01 1.16870E+00
 -1     15020 6.59702E+01 1.30129E+01-1.15151E+00
 -1     15022 6.59702E+01 1.30129E+01 1.15151E+00
 -1     15023 6.74454E+01 1.38808E+01-1.17726E+00
 -1     15025 6.74454E+01 1.38808E+01 1.17726E+00
 -1     15026 7.18759E+01 1.29982E+01-1.25460E+00
 -1     15028 7.18759E+01 1.29982E+01 1.25460E+00
 -1     15029 7.13777E+01 1.38670E+01-1.24590E+00
 -1     15031 7.13777E+01 1.38670E+01 1.24590E+00
 -1     15032 7.28655E+01 1.30002E+01-1.27187E+00
 -1     15034 7.28655E+01 1.30002E+01 1.27187E+00
 -1     15035 5.31742E+01 1.29797E+01-9.28159E-01
 -1     15037 5.31742E+01 1.29797E+01 9.28159E-01
 -1     15038 5.21869E+01 1.29785E+01-9.10925E-01
 -1     15040 5.21869E+01 1.29785E+01 9.10925E-01
 -1     15041 5.36698E+01 1.38486E+01-9.36810E-01
 -1     15043 5.36698E+01 1.38486E+01 9.36810E-01
 -1     15044 6.49864E+01 1.30157E+01-1.13434E+00
 -1     15046 6.49864E+01 1.30157E+01 1.13434E+00
 -1     15047 6.40016E+01 1.30177E+01-1.11715E+00
 -1     15049 6.40016E+01 1.30177E+01 1.11715E+00
 -1     15050 6.35103E+01 1.38921E+01-1.10858E+00
 -1     15052 6.35103E+01 1.38921E+01 1.10858E+00
 -1     15053 6.54786E+01 1.38873E+01-1.14293E+00
 -1     15055 6.54786E+01 1.38873E+01 1.14293E+00
 -1     15056 8.69406E+01 2.64944E+01-1.51755E+00
 -1     15058 8.69406E+01 2.64944E+01 1.51755E+00
 -1     15059 8.69513E+01 2.54871E+01-1.51774E+00
 -1     15061 8.69513E+01 2.54871E+01 1.51774E+00
 -1     15062 8.60488E+01 2.69889E+01-1.50199E+00
 -1     15064 8.60488E+01 2.69889E+01 1.50199E+00
 -1     15065 4.72459E+01 1.12733E+01-8.24681E-01
 -1     15067 4.72459E+01 1.12733E+01 8.24681E-01
 -1     15068 4.67419E+01 1.21483E+01-8.15882E-01
 -1     15070 4.67419E+01 1.21483E+01 8.15882E-01
 -1     15071 4.82258E+01 1.12728E+01-8.41785E-01
 -1     15073 4.82258E+01 1.12728E+01 8.41785E-01
 -1     15074 3.80491E+01 1.36168E+01-6.64150E-01
 -1     15076 3.80491E+01 1.36168E+01 6.64150E-01
 -1     15077 3.80548E+01 1.46506E+01-6.64248E-01
 -1     15079 3.80548E+01 1.46506E+01 6.64248E-01
 -1     15080 3.89139E+01 1.32695E+01-6.79244E-01
 -1     15082 3.89139E+01 1.32695E+01 6.79244E-01
 -1     15083 3.80284E+01 1.56107E+01-6.63789E-01
 -1     15085 3.80284E+01 1.56107E+01 6.63789E-01
 -1     15086 3.80132E+01 1.66136E+01-6.63523E-01
 -1     15088 3.80132E+01 1.66136E+01 6.63523E-01
 -1     15089 3.88532E+01 1.71444E+01-6.78185E-01
 -1     15091 3.88532E+01 1.71444E+01 6.78185E-01
 -1     15092 3.89318E+01 1.52050E+01-6.79558E-01
 -1     15094 3.89318E+01 1.52050E+01 6.79558E-01
 -1     15095 5.90772E+01 1.30148E+01-1.03120E+00
 -1     15097 5.90772E+01 1.30148E+01 1.03120E+00
 -1     15098 5.80931E+01 1.30123E+01-1.01402E+00
 -1     15100 5.80931E+01 1.30123E+01 1.01402E+00
 -1     15101 4.42476E+01 1.30033E+01-7.72346E-01
 -1     15103 4.42476E+01 1.30033E+01 7.72346E-01
 -1     15104 4.36503E+01 1.38516E+01-7.61920E-01
 -1     15106 4.36503E+01 1.38516E+01 7.61920E-01
 -1     15107 4.52155E+01 1.30315E+01-7.89240E-01
 -1     15109 4.52155E+01 1.30315E+01 7.89240E-01
 -1     15110 3.79831E+01 2.63946E+01-6.62997E-01
 -1     15112 3.79831E+01 2.63946E+01 6.62997E-01
 -1     15113 3.88477E+01 2.68444E+01-6.78089E-01
 -1     15115 3.88477E+01 2.68444E+01 6.78089E-01
 -1     15116 3.79902E+01 2.54288E+01-6.63122E-01
 -1     15118 3.79902E+01 2.54288E+01 6.63122E-01
 -1     15119 8.60878E+01 2.49882E+01-1.50267E+00
 -1     15121 8.60878E+01 2.49882E+01 1.50267E+00
 -1     15122 8.41918E+01 3.54427E+01-1.46957E+00
 -1     15124 8.41918E+01 3.54427E+01 1.46957E+00
 -1     15125 8.45602E+01 3.43723E+01-1.47600E+00
 -1     15127 8.45602E+01 3.43723E+01 1.47600E+00
 -1     15128 8.51730E+01 2.14506E+01-1.48670E+00
 -1     15130 8.51730E+01 2.14506E+01 1.48670E+00
 -1     15131 8.51005E+01 2.03946E+01-1.48543E+00
 -1     15133 8.51005E+01 2.03946E+01 1.48543E+00
 -1     15134 5.76022E+01 1.38814E+01-1.00545E+00
 -1     15136 5.76022E+01 1.38814E+01 1.00545E+00
 -1     15137 5.71097E+01 1.30069E+01-9.96853E-01
 -1     15139 5.71097E+01 1.30069E+01 9.96853E-01
 -1     15140 3.79727E+01 1.95544E+01-6.62816E-01
 -1     15142 3.79727E+01 1.95544E+01 6.62816E-01
 -1     15143 3.79789E+01 2.05398E+01-6.62924E-01
 -1     15145 3.79789E+01 2.05398E+01 6.62924E-01
 -1     15146 3.88224E+01 1.90895E+01-6.77648E-01
 -1     15148 3.88224E+01 1.90895E+01 6.77648E-01
 -1     15149 8.46020E+01 1.71291E+01-1.47673E+00
 -1     15151 8.46020E+01 1.71291E+01 1.47673E+00
 -1     15152 8.43825E+01 1.58469E+01-1.47290E+00
 -1     15154 8.43825E+01 1.58469E+01 1.47290E+00
 -1     15155 3.96979E+01 2.82174E+01-6.92930E-01
 -1     15157 3.96979E+01 2.82174E+01 6.92930E-01
 -1     15158 3.96786E+01 2.91250E+01-6.92593E-01
 -1     15160 3.96786E+01 2.91250E+01 6.92593E-01
 -1     15161 7.89119E+01 1.31526E+01-1.37741E+00
 -1     15163 7.89119E+01 1.31526E+01 1.37741E+00
 -1     15164 7.78782E+01 1.30965E+01-1.35937E+00
 -1     15166 7.78782E+01 1.30965E+01 1.35937E+00
 -1     15167 7.94259E+01 1.40858E+01-1.38638E+00
 -1     15169 7.94259E+01 1.40858E+01 1.38638E+00
 -1     15170 8.49280E+01 3.14418E+01-1.48242E+00
 -1     15172 8.49280E+01 3.14418E+01 1.48242E+00
 -1     15173 8.49948E+01 3.04317E+01-1.48359E+00
 -1     15175 8.49948E+01 3.04317E+01 1.48359E+00
 -1     15176 3.96422E+01 2.99904E+01-6.91956E-01
 -1     15178 3.96422E+01 2.99904E+01 6.91956E-01
 -1     15179 3.96323E+01 3.08831E+01-6.91784E-01
 -1     15181 3.96323E+01 3.08831E+01 6.91784E-01
 -1     15182 4.05248E+01 2.95135E+01-7.07363E-01
 -1     15184 4.05248E+01 2.95135E+01 7.07363E-01
 -1     15185 5.80925E+01 1.47618E+01-1.01401E+00
 -1     15187 5.80925E+01 1.47618E+01 1.01401E+00
 -1     15188 5.71091E+01 1.47563E+01-9.96843E-01
 -1     15190 5.71091E+01 1.47563E+01 9.96843E-01
 -1     15191 8.51519E+01 2.74830E+01-1.48633E+00
 -1     15193 8.51519E+01 2.74830E+01 1.48633E+00
 -1     15194 8.51793E+01 2.64873E+01-1.48681E+00
 -1     15196 8.51793E+01 2.64873E+01 1.48681E+00
 -1     15197 8.52209E+01 2.55036E+01-1.48754E+00
 -1     15199 8.52209E+01 2.55036E+01 1.48754E+00
 -1     15200 8.52326E+01 2.44987E+01-1.48774E+00
 -1     15202 8.52326E+01 2.44987E+01 1.48774E+00
 -1     15203 8.43241E+01 2.59977E+01-1.47188E+00
 -1     15205 8.43241E+01 2.59977E+01 1.47188E+00
 -1     15206 5.61255E+01 1.30020E+01-9.79675E-01
 -1     15208 5.61255E+01 1.30020E+01 9.79675E-01
 -1     15209 3.79876E+01 2.15167E+01-6.63076E-01
 -1     15211 3.79876E+01 2.15167E+01 6.63076E-01
 -1     15212 3.79910E+01 2.25005E+01-6.63135E-01
 -1     15214 3.79910E+01 2.25005E+01 6.63135E-01
 -1     15215 3.88526E+01 2.10322E+01-6.78176E-01
 -1     15217 3.88526E+01 2.10322E+01 6.78176E-01
 -1     15218 4.02718E+01 3.57063E+01-7.02947E-01
 -1     15220 4.02718E+01 3.57063E+01 7.02947E-01
 -1     15221 4.12541E+01 3.57985E+01-7.20093E-01
 -1     15223 4.12541E+01 3.57985E+01 7.20093E-01
 -1     15224 4.00584E+01 3.49134E+01-6.99223E-01
 -1     15226 4.00584E+01 3.49134E+01 6.99223E-01
 -1     15227 6.10466E+01 1.30178E+01-1.06557E+00
 -1     15229 6.10466E+01 1.30178E+01 1.06557E+00
 -1     15230 6.00619E+01 1.30168E+01-1.04838E+00
 -1     15232 6.00619E+01 1.30168E+01 1.04838E+00
 -1     15233 5.95702E+01 1.38888E+01-1.03980E+00
 -1     15235 5.95702E+01 1.38888E+01 1.03980E+00
 -1     15236 6.15403E+01 1.38925E+01-1.07419E+00
 -1     15238 6.15403E+01 1.38925E+01 1.07419E+00
 -1     15239 4.22096E+01 3.58605E+01-7.36771E-01
 -1     15241 4.22096E+01 3.58605E+01 7.36771E-01
 -1     15242 4.31929E+01 3.58898E+01-7.53935E-01
 -1     15244 4.31929E+01 3.58898E+01 7.53935E-01
 -1     15245 4.19551E+01 3.51291E+01-7.32329E-01
 -1     15247 4.19551E+01 3.51291E+01 7.32329E-01
 -1     15248 4.41535E+01 3.58756E+01-7.70701E-01
 -1     15250 4.41535E+01 3.58756E+01 7.70701E-01
 -1     15251 4.51356E+01 3.58584E+01-7.87846E-01
 -1     15253 4.51356E+01 3.58584E+01 7.87846E-01
 -1     15254 4.38712E+01 3.51769E+01-7.65774E-01
 -1     15256 4.38712E+01 3.51769E+01 7.65774E-01
 -1     15257 4.61113E+01 3.58018E+01-8.04876E-01
 -1     15259 4.61113E+01 3.58018E+01 8.04876E-01
 -1     15260 4.70916E+01 3.57624E+01-8.21987E-01
 -1     15262 4.70916E+01 3.57624E+01 8.21987E-01
 -1     15263 4.58074E+01 3.51062E+01-7.99571E-01
 -1     15265 4.58074E+01 3.51062E+01 7.99571E-01
 -1     15266 4.80535E+01 3.56864E+01-8.38777E-01
 -1     15268 4.80535E+01 3.56864E+01 8.38777E-01
 -1     15269 4.90280E+01 3.56471E+01-8.55787E-01
 -1     15271 4.90280E+01 3.56471E+01 8.55787E-01
 -1     15272 4.77450E+01 3.49738E+01-8.33392E-01
 -1     15274 4.77450E+01 3.49738E+01 8.33392E-01
 -1     15275 5.00070E+01 3.56202E+01-8.72876E-01
 -1     15277 5.00070E+01 3.56202E+01 8.72876E-01
 -1     15278 5.09873E+01 3.56029E+01-8.89986E-01
 -1     15280 5.09873E+01 3.56029E+01 8.89986E-01
 -1     15281 4.96859E+01 3.48710E+01-8.67270E-01
 -1     15283 4.96859E+01 3.48710E+01 8.67270E-01
 -1     15284 5.19769E+01 3.55965E+01-9.07260E-01
 -1     15286 5.19769E+01 3.55965E+01 9.07260E-01
 -1     15287 5.29626E+01 3.55907E+01-9.24466E-01
 -1     15289 5.29626E+01 3.55907E+01 9.24466E-01
 -1     15290 5.16545E+01 3.48378E+01-9.01632E-01
 -1     15292 5.16545E+01 3.48378E+01 9.01632E-01
 -1     15293 5.39546E+01 3.55862E+01-9.41780E-01
 -1     15295 5.39546E+01 3.55862E+01 9.41780E-01
 -1     15296 5.49423E+01 3.55828E+01-9.59021E-01
 -1     15298 5.49423E+01 3.55828E+01 9.59021E-01
 -1     15299 5.36360E+01 3.48269E+01-9.36221E-01
 -1     15301 5.36360E+01 3.48269E+01 9.36221E-01
 -1     15302 5.59322E+01 3.55760E+01-9.76300E-01
 -1     15304 5.59322E+01 3.55760E+01 9.76300E-01
 -1     15305 5.69192E+01 3.55728E+01-9.93529E-01
 -1     15307 5.69192E+01 3.55728E+01 9.93529E-01
 -1     15308 5.56180E+01 3.48156E+01-9.70815E-01
 -1     15310 5.56180E+01 3.48156E+01 9.70815E-01
 -1     15311 5.79059E+01 3.55679E+01-1.01075E+00
 -1     15313 5.79059E+01 3.55679E+01 1.01075E+00
 -1     15314 5.88919E+01 3.55667E+01-1.02796E+00
 -1     15316 5.88919E+01 3.55667E+01 1.02796E+00
 -1     15317 5.75946E+01 3.48039E+01-1.00532E+00
 -1     15319 5.75946E+01 3.48039E+01 1.00532E+00
 -1     15320 5.98775E+01 3.55679E+01-1.04517E+00
 -1     15322 5.98775E+01 3.55679E+01 1.04517E+00
 -1     15323 6.08639E+01 3.55694E+01-1.06238E+00
 -1     15325 6.08639E+01 3.55694E+01 1.06238E+00
 -1     15326 5.95668E+01 3.48002E+01-1.03974E+00
 -1     15328 5.95668E+01 3.48002E+01 1.03974E+00
 -1     15329 6.18517E+01 3.55746E+01-1.07963E+00
 -1     15331 6.18517E+01 3.55746E+01 1.07963E+00
 -1     15332 6.28397E+01 3.55770E+01-1.09687E+00
 -1     15334 6.28397E+01 3.55770E+01 1.09687E+00
 -1     15335 6.15403E+01 3.48067E+01-1.07419E+00
 -1     15337 6.15403E+01 3.48067E+01 1.07419E+00
 -1     15338 6.38300E+01 3.55803E+01-1.11416E+00
 -1     15340 6.38300E+01 3.55803E+01 1.11416E+00
 -1     15341 6.48191E+01 3.55816E+01-1.13142E+00
 -1     15343 6.48191E+01 3.55816E+01 1.13142E+00
 -1     15344 6.35184E+01 3.48151E+01-1.10872E+00
 -1     15346 6.35184E+01 3.48151E+01 1.10872E+00
 -1     15347 6.58101E+01 3.55810E+01-1.14872E+00
 -1     15349 6.58101E+01 3.55810E+01 1.14872E+00
 -1     15350 6.67990E+01 3.55811E+01-1.16598E+00
 -1     15352 6.67990E+01 3.55811E+01 1.16598E+00
 -1     15353 6.54997E+01 3.48178E+01-1.14330E+00
 -1     15355 6.54997E+01 3.48178E+01 1.14330E+00
 -1     15356 6.77893E+01 3.55804E+01-1.18327E+00
 -1     15358 6.77893E+01 3.55804E+01 1.18327E+00
 -1     15359 6.87768E+01 3.55821E+01-1.20050E+00
 -1     15361 6.87768E+01 3.55821E+01 1.20050E+00
 -1     15362 6.74809E+01 3.48164E+01-1.17788E+00
 -1     15364 6.74809E+01 3.48164E+01 1.17788E+00
 -1     15365 6.97651E+01 3.55873E+01-1.21775E+00
 -1     15367 6.97651E+01 3.55873E+01 1.21775E+00
 -1     15368 7.07502E+01 3.55937E+01-1.23495E+00
 -1     15370 7.07502E+01 3.55937E+01 1.23495E+00
 -1     15371 6.94594E+01 3.48209E+01-1.21242E+00
 -1     15373 6.94594E+01 3.48209E+01 1.21242E+00
 -1     15374 7.17333E+01 3.56096E+01-1.25211E+00
 -1     15376 7.17333E+01 3.56096E+01 1.25211E+00
 -1     15377 7.27160E+01 3.56209E+01-1.26926E+00
 -1     15379 7.27160E+01 3.56209E+01 1.26926E+00
 -1     15380 7.14307E+01 3.48420E+01-1.24683E+00
 -1     15382 7.14307E+01 3.48420E+01 1.24683E+00
 -1     15383 7.36923E+01 3.56464E+01-1.28630E+00
 -1     15385 7.36923E+01 3.56464E+01 1.28630E+00
 -1     15386 7.46762E+01 3.56532E+01-1.30348E+00
 -1     15388 7.46762E+01 3.56532E+01 1.30348E+00
 -1     15389 7.33901E+01 3.48833E+01-1.28103E+00
 -1     15391 7.33901E+01 3.48833E+01 1.28103E+00
 -1     15392 7.56629E+01 3.56532E+01-1.32070E+00
 -1     15394 7.56629E+01 3.56532E+01 1.32070E+00
 -1     15395 7.66471E+01 3.56414E+01-1.33788E+00
 -1     15397 7.66471E+01 3.56414E+01 1.33788E+00
 -1     15398 7.53531E+01 3.49087E+01-1.31529E+00
 -1     15400 7.53531E+01 3.49087E+01 1.31529E+00
 -1     15401 7.76467E+01 3.55827E+01-1.35533E+00
 -1     15403 7.76467E+01 3.55827E+01 1.35533E+00
 -1     15404 7.86094E+01 3.55674E+01-1.37213E+00
 -1     15406 7.86094E+01 3.55674E+01 1.37213E+00
 -1     15407 7.73393E+01 3.48499E+01-1.34996E+00
 -1     15409 7.73393E+01 3.48499E+01 1.34996E+00
 -1     15410 7.95476E+01 3.55536E+01-1.38851E+00
 -1     15412 7.95476E+01 3.55536E+01 1.38851E+00
 -1     15413 8.04688E+01 3.55865E+01-1.40459E+00
 -1     15415 8.04688E+01 3.55865E+01 1.40459E+00
 -1     15416 7.92770E+01 3.47773E+01-1.38379E+00
 -1     15418 7.92770E+01 3.47773E+01 1.38379E+00
 -1     15419 8.31036E+01 3.55292E+01-1.45058E+00
 -1     15421 8.31036E+01 3.55292E+01 1.45058E+00
 -1     15422 8.47230E+01 3.34397E+01-1.47884E+00
 -1     15424 8.47230E+01 3.34397E+01 1.47884E+00
 -1     15425 8.48436E+01 3.23996E+01-1.48095E+00
 -1     15427 8.48436E+01 3.23996E+01 1.48095E+00
 -1     15428 8.39717E+01 3.18427E+01-1.46573E+00
 -1     15430 8.39717E+01 3.18427E+01 1.46573E+00
 -1     15431 8.37245E+01 3.37331E+01-1.46142E+00
 -1     15433 8.37245E+01 3.37331E+01 1.46142E+00
 -1     15434 8.49703E+01 1.93377E+01-1.48316E+00
 -1     15436 8.49703E+01 1.93377E+01 1.48316E+00
 -1     15437 8.48387E+01 1.82281E+01-1.48087E+00
 -1     15439 8.48387E+01 1.82281E+01 1.48087E+00
 -1     15440 8.41632E+01 1.99120E+01-1.46907E+00
 -1     15442 8.41632E+01 1.99120E+01 1.46907E+00
 -1     15443 6.98999E+01 1.47428E+01-1.22011E+00
 -1     15445 6.98999E+01 1.47428E+01 1.22011E+00
 -1     15446 6.89171E+01 1.47469E+01-1.20295E+00
 -1     15448 6.89171E+01 1.47469E+01 1.20295E+00
 -1     15449 3.95958E+01 3.17151E+01-6.91148E-01
 -1     15451 3.95958E+01 3.17151E+01 6.91148E-01
 -1     15452 3.96389E+01 3.25823E+01-6.91899E-01
 -1     15454 3.96389E+01 3.25823E+01 6.91899E-01
 -1     15455 4.04519E+01 3.12110E+01-7.06091E-01
 -1     15457 4.04519E+01 3.12110E+01 7.06091E-01
 -1     15458 8.50575E+01 2.94583E+01-1.48468E+00
 -1     15460 8.50575E+01 2.94583E+01 1.48468E+00
 -1     15461 8.51015E+01 2.84614E+01-1.48545E+00
 -1     15463 8.51015E+01 2.84614E+01 1.48545E+00
 -1     15464 8.41189E+01 2.99116E+01-1.46830E+00
 -1     15466 8.41189E+01 2.99116E+01 1.46830E+00
 -1     15467 5.56363E+01 1.38664E+01-9.71136E-01
 -1     15469 5.56363E+01 1.38664E+01 9.71136E-01
 -1     15470 5.61275E+01 1.47454E+01-9.79709E-01
 -1     15472 5.61275E+01 1.47454E+01 9.79709E-01
 -1     15473 5.51450E+01 1.47358E+01-9.62560E-01
 -1     15475 5.51450E+01 1.47358E+01 9.62560E-01
 -1     15476 5.66178E+01 1.56257E+01-9.88267E-01
 -1     15478 5.66178E+01 1.56257E+01 9.88267E-01
 -1     15479 3.79939E+01 2.34752E+01-6.63187E-01
 -1     15481 3.79939E+01 2.34752E+01 6.63187E-01
 -1     15482 3.79935E+01 2.44570E+01-6.63179E-01
 -1     15484 3.79935E+01 2.44570E+01 6.63179E-01
 -1     15485 3.96538E+01 1.67146E+01-6.92160E-01
 -1     15487 3.96538E+01 1.67146E+01 6.92160E-01
 -1     15488 3.96015E+01 1.76939E+01-6.91247E-01
 -1     15490 3.96015E+01 1.76939E+01 6.91247E-01
 -1     15491 3.88643E+01 2.29839E+01-6.78379E-01
 -1     15493 3.88643E+01 2.29839E+01 6.78379E-01
 -1     15494 3.88640E+01 2.49304E+01-6.78374E-01
 -1     15496 3.88640E+01 2.49304E+01 6.78374E-01
 -1     15497 3.96896E+01 1.85897E+01-6.92785E-01
 -1     15499 3.96896E+01 1.85897E+01 6.92785E-01
 -1     15500 3.97112E+01 1.95555E+01-6.93161E-01
 -1     15502 3.97112E+01 1.95555E+01 6.93161E-01
 -1     15503 4.04903E+01 1.81600E+01-7.06761E-01
 -1     15505 4.04903E+01 1.81600E+01 7.06761E-01
 -1     15506 4.16417E+01 1.35659E+01-7.26858E-01
 -1     15508 4.16417E+01 1.35659E+01 7.26858E-01
 -1     15509 4.13213E+01 1.26332E+01-7.21266E-01
 -1     15511 4.13213E+01 1.26332E+01 7.21266E-01
 -1     15512 4.87180E+01 1.21369E+01-8.50377E-01
 -1     15514 4.87180E+01 1.21369E+01 8.50377E-01
 -1     15515 8.37962E+01 1.77561E+01-1.46267E+00
 -1     15517 8.37962E+01 1.77561E+01 1.46267E+00
 -1     15518 8.42321E+01 2.79598E+01-1.47028E+00
 -1     15520 8.42321E+01 2.79598E+01 1.47028E+00
 -1     15521 3.97239E+01 3.33683E+01-6.93384E-01
 -1     15523 3.97239E+01 3.33683E+01 6.93384E-01
 -1     15524 3.98514E+01 3.41874E+01-6.95609E-01
 -1     15526 3.98514E+01 3.41874E+01 6.95609E-01
 -1     15527 4.07926E+01 3.43411E+01-7.12038E-01
 -1     15529 4.07926E+01 3.43411E+01 7.12038E-01
 -1     15530 4.05005E+01 3.28291E+01-7.06940E-01
 -1     15532 4.05005E+01 3.28291E+01 7.06940E-01
 -1     15533 7.98909E+01 1.49900E+01-1.39450E+00
 -1     15535 7.98909E+01 1.49900E+01 1.39450E+00
 -1     15536 7.88386E+01 1.48921E+01-1.37613E+00
 -1     15538 7.88386E+01 1.48921E+01 1.37613E+00
 -1     15539 8.52425E+01 2.34989E+01-1.48791E+00
 -1     15541 8.52425E+01 2.34989E+01 1.48791E+00
 -1     15542 8.52191E+01 2.24734E+01-1.48750E+00
 -1     15544 8.52191E+01 2.24734E+01 1.48750E+00
 -1     15545 4.05104E+01 1.24946E+01-7.07112E-01
 -1     15547 4.05104E+01 1.24946E+01 7.07112E-01
 -1     15548 3.97206E+01 2.73051E+01-6.93326E-01
 -1     15550 3.97206E+01 2.73051E+01 6.93326E-01
 -1     15551 4.05839E+01 2.77358E+01-7.08395E-01
 -1     15553 4.05839E+01 2.77358E+01 7.08395E-01
 -1     15554 3.97337E+01 2.63628E+01-6.93554E-01
 -1     15556 3.97337E+01 2.63628E+01 6.93554E-01
 -1     15557 5.11983E+01 1.29795E+01-8.93670E-01
 -1     15559 5.11983E+01 1.29795E+01 8.93670E-01
 -1     15560 5.02086E+01 1.29848E+01-8.76393E-01
 -1     15562 5.02086E+01 1.29848E+01 8.76393E-01
 -1     15563 5.16972E+01 1.38413E+01-9.02378E-01
 -1     15565 5.16972E+01 1.38413E+01 9.02378E-01
 -1     15566 8.43395E+01 2.19918E+01-1.47215E+00
 -1     15568 8.43395E+01 2.19918E+01 1.47215E+00
 -1     15569 8.31238E+01 1.55827E+01-1.45093E+00
 -1     15571 8.31238E+01 1.55827E+01 1.45093E+00
 -1     15572 6.79375E+01 1.47542E+01-1.18585E+00
 -1     15574 6.79375E+01 1.47542E+01 1.18585E+00
 -1     15575 6.69546E+01 1.47578E+01-1.16870E+00
 -1     15577 6.69546E+01 1.47578E+01 1.16870E+00
 -1     15578 6.84263E+01 1.56240E+01-1.19439E+00
 -1     15580 6.84263E+01 1.56240E+01 1.19439E+00
 -1     15581 7.38531E+01 1.30027E+01-1.28911E+00
 -1     15583 7.38531E+01 1.30027E+01 1.28911E+00
 -1     15584 7.33490E+01 1.38676E+01-1.28031E+00
 -1     15586 7.33490E+01 1.38676E+01 1.28031E+00
 -1     15587 7.48498E+01 1.30122E+01-1.30651E+00
 -1     15589 7.48498E+01 1.30122E+01 1.30651E+00
 -1     15590 7.68580E+01 1.30518E+01-1.34156E+00
 -1     15592 7.68580E+01 1.30518E+01 1.34156E+00
 -1     15593 7.58480E+01 1.30264E+01-1.32393E+00
 -1     15595 7.58480E+01 1.30264E+01 1.32393E+00
 -1     15596 7.53348E+01 1.38843E+01-1.31497E+00
 -1     15598 7.53348E+01 1.38843E+01 1.31497E+00
 -1     15599 7.73533E+01 1.39432E+01-1.35021E+00
 -1     15601 7.73533E+01 1.39432E+01 1.35021E+00
 -1     15602 5.90780E+01 1.47663E+01-1.03121E+00
 -1     15604 5.90780E+01 1.47663E+01 1.03121E+00
 -1     15605 5.85849E+01 1.56413E+01-1.02260E+00
 -1     15607 5.85849E+01 1.56413E+01 1.02260E+00
 -1     15608 6.00626E+01 1.47683E+01-1.04840E+00
 -1     15610 6.00626E+01 1.47683E+01 1.04840E+00
 -1     15611 5.41670E+01 1.47166E+01-9.45489E-01
 -1     15613 5.41670E+01 1.47166E+01 9.45489E-01
 -1     15614 5.31830E+01 1.47084E+01-9.28312E-01
 -1     15616 5.31830E+01 1.47084E+01 9.28312E-01
 -1     15617 5.46581E+01 1.55956E+01-9.54061E-01
 -1     15619 5.46581E+01 1.55956E+01 9.54061E-01
 -1     15620 8.43757E+01 2.40143E+01-1.47278E+00
 -1     15622 8.43757E+01 2.40143E+01 1.47278E+00
 -1     15623 6.40057E+01 1.47712E+01-1.11722E+00
 -1     15625 6.40057E+01 1.47712E+01 1.11722E+00
 -1     15626 6.30212E+01 1.47733E+01-1.10004E+00
 -1     15628 6.30212E+01 1.47733E+01 1.10004E+00
 -1     15629 6.20350E+01 1.47719E+01-1.08282E+00
 -1     15631 6.20350E+01 1.47719E+01 1.08282E+00
 -1     15632 6.10495E+01 1.47702E+01-1.06562E+00
 -1     15634 6.10495E+01 1.47702E+01 1.06562E+00
 -1     15635 6.25304E+01 1.56510E+01-1.09147E+00
 -1     15637 6.25304E+01 1.56510E+01 1.09147E+00
 -1     15638 8.12828E+01 3.57635E+01-1.41880E+00
 -1     15640 8.12828E+01 3.57635E+01 1.41880E+00
 -1     15641 8.22443E+01 3.57552E+01-1.43558E+00
 -1     15643 8.22443E+01 3.57552E+01 1.43558E+00
 -1     15644 7.08779E+01 1.47371E+01-1.23718E+00
 -1     15646 7.08779E+01 1.47371E+01 1.23718E+00
 -1     15647 7.03839E+01 1.56110E+01-1.22856E+00
 -1     15649 7.03839E+01 1.56110E+01 1.22856E+00
 -1     15650 7.18617E+01 1.47352E+01-1.25435E+00
 -1     15652 7.18617E+01 1.47352E+01 1.25435E+00
 -1     15653 4.62328E+01 1.30295E+01-8.06997E-01
 -1     15655 4.62328E+01 1.30295E+01 8.06997E-01
 -1     15656 4.56923E+01 1.39107E+01-7.97561E-01
 -1     15658 4.56923E+01 1.39107E+01 7.97561E-01
 -1     15659 4.72186E+01 1.30276E+01-8.24203E-01
 -1     15661 4.72186E+01 1.30276E+01 8.24203E-01
 -1     15662 4.40852E+01 1.48081E+01-7.69509E-01
 -1     15664 4.40852E+01 1.48081E+01 7.69509E-01
 -1     15665 4.30605E+01 1.47471E+01-7.51624E-01
 -1     15667 4.30605E+01 1.47471E+01 7.51624E-01
 -1     15668 4.18618E+01 1.46149E+01-7.30701E-01
 -1     15670 4.18618E+01 1.46149E+01 7.30701E-01
 -1     15671 4.08778E+01 1.43903E+01-7.13525E-01
 -1     15673 4.08778E+01 1.43903E+01 7.13525E-01
 -1     15674 4.22966E+01 1.55714E+01-7.38290E-01
 -1     15676 4.22966E+01 1.55714E+01 7.38290E-01
 -1     15677 8.27025E+01 3.48917E+01-1.44358E+00
 -1     15679 8.27025E+01 3.48917E+01 1.44358E+00
 -1     15680 4.17083E+01 3.44496E+01-7.28021E-01
 -1     15682 4.17083E+01 3.44496E+01 7.28021E-01
 -1     15683 4.26638E+01 3.45116E+01-7.44699E-01
 -1     15685 4.26638E+01 3.45116E+01 7.44699E-01
 -1     15686 4.15013E+01 3.37236E+01-7.24407E-01
 -1     15688 4.15013E+01 3.37236E+01 7.24407E-01
 -1     15689 3.97417E+01 2.24893E+01-6.93695E-01
 -1     15691 3.97417E+01 2.24893E+01 6.93695E-01
 -1     15692 3.97447E+01 2.34640E+01-6.93747E-01
 -1     15694 3.97447E+01 2.34640E+01 6.93747E-01
 -1     15695 3.97449E+01 2.44320E+01-6.93750E-01
 -1     15697 3.97449E+01 2.44320E+01 6.93750E-01
 -1     15698 3.97416E+01 2.54038E+01-6.93693E-01
 -1     15700 3.97416E+01 2.54038E+01 6.93693E-01
 -1     15701 4.06223E+01 2.39374E+01-7.09065E-01
 -1     15703 4.06223E+01 2.39374E+01 7.09065E-01
 -1     15704 8.10293E+01 3.49406E+01-1.41437E+00
 -1     15706 8.10293E+01 3.49406E+01 1.41437E+00
 -1     15707 4.92126E+01 1.29995E+01-8.59010E-01
 -1     15709 4.92126E+01 1.29995E+01 8.59010E-01
 -1     15710 4.82222E+01 1.30090E+01-8.41722E-01
 -1     15712 4.82222E+01 1.30090E+01 8.41722E-01
 -1     15713 4.77132E+01 1.38902E+01-8.32837E-01
 -1     15715 4.77132E+01 1.38902E+01 8.32837E-01
 -1     15716 4.97128E+01 1.38569E+01-8.67739E-01
 -1     15718 4.97128E+01 1.38569E+01 8.67739E-01
 -1     15719 8.34036E+01 2.05422E+01-1.45582E+00
 -1     15721 8.34036E+01 2.05422E+01 1.45582E+00
 -1     15722 8.32734E+01 1.94853E+01-1.45354E+00
 -1     15724 8.32734E+01 1.94853E+01 1.45354E+00
 -1     15725 4.14158E+01 2.90704E+01-7.22916E-01
 -1     15727 4.14158E+01 2.90704E+01 7.22916E-01
 -1     15728 4.13794E+01 2.99359E+01-7.22280E-01
 -1     15730 4.13794E+01 2.99359E+01 7.22280E-01
 -1     15731 8.24792E+01 1.63854E+01-1.43968E+00
 -1     15733 8.24792E+01 1.63854E+01 1.43968E+00
 -1     15734 8.20436E+01 1.53110E+01-1.43208E+00
 -1     15736 8.20436E+01 1.53110E+01 1.43208E+00
 -1     15737 8.09386E+01 1.51487E+01-1.41279E+00
 -1     15739 8.09386E+01 1.51487E+01 1.41279E+00
 -1     15740 3.97636E+01 1.28177E+01-6.94077E-01
 -1     15742 3.97636E+01 1.28177E+01 6.94077E-01
 -1     15743 8.33015E+01 2.84329E+01-1.45403E+00
 -1     15745 8.33015E+01 2.84329E+01 1.45403E+00
 -1     15746 8.33519E+01 2.74545E+01-1.45491E+00
 -1     15748 8.33519E+01 2.74545E+01 1.45491E+00
 -1     15749 8.09151E+01 3.32368E+01-1.41238E+00
 -1     15751 8.09151E+01 3.32368E+01 1.41238E+00
 -1     15752 8.10812E+01 3.41539E+01-1.41528E+00
 -1     15754 8.10812E+01 3.41539E+01 1.41528E+00
 -1     15755 8.00492E+01 3.38463E+01-1.39726E+00
 -1     15757 8.00492E+01 3.38463E+01 1.39726E+00
 -1     15758 6.59730E+01 1.47635E+01-1.15156E+00
 -1     15760 6.59730E+01 1.47635E+01 1.15156E+00
 -1     15761 6.49892E+01 1.47663E+01-1.13439E+00
 -1     15763 6.49892E+01 1.47663E+01 1.13439E+00
 -1     15764 6.64652E+01 1.56368E+01-1.16015E+00
 -1     15766 6.64652E+01 1.56368E+01 1.16015E+00
 -1     15767 8.35265E+01 2.45411E+01-1.45796E+00
 -1     15769 8.35265E+01 2.45411E+01 1.45796E+00
 -1     15770 8.35365E+01 2.35413E+01-1.45813E+00
 -1     15772 8.35365E+01 2.35413E+01 1.45813E+00
 -1     15773 6.45001E+01 1.56474E+01-1.12585E+00
 -1     15775 6.45001E+01 1.56474E+01 1.12585E+00
 -1     15776 8.30595E+01 1.84806E+01-1.44981E+00
 -1     15778 8.30595E+01 1.84806E+01 1.44981E+00
 -1     15779 8.28227E+01 1.73816E+01-1.44568E+00
 -1     15781 8.28227E+01 1.73816E+01 1.44568E+00
 -1     15782 8.17425E+01 1.71098E+01-1.42682E+00
 -1     15784 8.17425E+01 1.71098E+01 1.42682E+00
 -1     15785 8.22999E+01 1.91108E+01-1.43655E+00
 -1     15787 8.22999E+01 1.91108E+01 1.43655E+00
 -1     15788 3.97213E+01 2.05346E+01-6.93338E-01
 -1     15790 3.97213E+01 2.05346E+01 6.93338E-01
 -1     15791 3.97300E+01 2.15115E+01-6.93489E-01
 -1     15793 3.97300E+01 2.15115E+01 6.93489E-01
 -1     15794 4.06104E+01 2.19916E+01-7.08857E-01
 -1     15796 4.06104E+01 2.19916E+01 7.08857E-01
 -1     15797 4.05885E+01 2.00348E+01-7.08475E-01
 -1     15799 4.05885E+01 2.00348E+01 7.08475E-01
 -1     15800 8.35442E+01 2.25617E+01-1.45827E+00
 -1     15802 8.35442E+01 2.25617E+01 1.45827E+00
 -1     15803 8.34981E+01 2.15389E+01-1.45746E+00
 -1     15805 8.34981E+01 2.15389E+01 1.45746E+00
 -1     15806 8.26951E+01 2.30884E+01-1.44345E+00
 -1     15808 8.26951E+01 2.30884E+01 1.44345E+00
 -1     15809 8.03513E+01 1.59550E+01-1.40254E+00
 -1     15811 8.03513E+01 1.59550E+01 1.40254E+00
 -1     15812 8.34233E+01 2.64894E+01-1.45616E+00
 -1     15814 8.34233E+01 2.64894E+01 1.45616E+00
 -1     15815 8.34649E+01 2.55058E+01-1.45688E+00
 -1     15817 8.34649E+01 2.55058E+01 1.45688E+00
 -1     15818 8.24927E+01 2.69625E+01-1.43992E+00
 -1     15820 8.24927E+01 2.69625E+01 1.43992E+00
 -1     15821 8.07503E+01 1.68648E+01-1.40950E+00
 -1     15823 8.07503E+01 1.68648E+01 1.40950E+00
 -1     15824 7.97026E+01 1.67062E+01-1.39121E+00
 -1     15826 7.97026E+01 1.67062E+01 1.39121E+00
 -1     15827 3.98079E+01 1.37931E+01-6.94850E-01
 -1     15829 3.98079E+01 1.37931E+01 6.94850E-01
 -1     15830 4.35566E+01 3.45094E+01-7.60283E-01
 -1     15832 4.35566E+01 3.45094E+01 7.60283E-01
 -1     15833 4.45172E+01 3.44952E+01-7.77050E-01
 -1     15835 4.45172E+01 3.44952E+01 7.77050E-01
 -1     15836 4.33098E+01 3.38299E+01-7.55975E-01
 -1     15838 4.33098E+01 3.38299E+01 7.55975E-01
 -1     15839 4.54849E+01 3.44416E+01-7.93942E-01
 -1     15841 4.54849E+01 3.44416E+01 7.93942E-01
 -1     15842 4.64606E+01 3.43850E+01-8.10972E-01
 -1     15844 4.64606E+01 3.43850E+01 8.10972E-01
 -1     15845 4.51703E+01 3.37740E+01-7.88451E-01
 -1     15847 4.51703E+01 3.37740E+01 7.88451E-01
 -1     15848 4.73916E+01 3.42244E+01-8.27223E-01
 -1     15850 4.73916E+01 3.42244E+01 8.27223E-01
 -1     15851 4.83535E+01 3.41484E+01-8.44013E-01
 -1     15853 4.83535E+01 3.41484E+01 8.44013E-01
 -1     15854 4.70691E+01 3.35597E+01-8.21594E-01
 -1     15856 4.70691E+01 3.35597E+01 8.21594E-01
 -1     15857 4.93376E+01 3.41130E+01-8.61192E-01
 -1     15859 4.93376E+01 3.41130E+01 8.61192E-01
 -1     15860 5.03166E+01 3.40861E+01-8.78280E-01
 -1     15862 5.03166E+01 3.40861E+01 8.78280E-01
 -1     15863 4.89842E+01 3.33635E+01-8.55023E-01
 -1     15865 4.89842E+01 3.33635E+01 8.55023E-01
 -1     15866 5.13203E+01 3.40828E+01-8.95800E-01
 -1     15868 5.13203E+01 3.40828E+01 8.95800E-01
 -1     15869 5.23099E+01 3.40764E+01-9.13073E-01
 -1     15871 5.23099E+01 3.40764E+01 9.13073E-01
 -1     15872 5.09721E+01 3.33248E+01-8.89721E-01
 -1     15874 5.09721E+01 3.33248E+01 8.89721E-01
 -1     15875 5.33101E+01 3.40729E+01-9.30531E-01
 -1     15877 5.33101E+01 3.40729E+01 9.30531E-01
 -1     15878 5.43020E+01 3.40684E+01-9.47846E-01
 -1     15880 5.43020E+01 3.40684E+01 9.47846E-01
 -1     15881 5.29759E+01 3.33179E+01-9.24698E-01
 -1     15883 5.29759E+01 3.33179E+01 9.24698E-01
 -1     15884 5.52971E+01 3.40555E+01-9.65214E-01
 -1     15886 5.52971E+01 3.40555E+01 9.65214E-01
 -1     15887 5.62870E+01 3.40487E+01-9.82494E-01
 -1     15889 5.62870E+01 3.40487E+01 9.82494E-01
 -1     15890 5.49711E+01 3.33015E+01-9.59525E-01
 -1     15892 5.49711E+01 3.33015E+01 9.59525E-01
 -1     15893 5.72760E+01 3.40347E+01-9.99757E-01
 -1     15895 5.72760E+01 3.40347E+01 9.99757E-01
 -1     15896 5.82627E+01 3.40299E+01-1.01698E+00
 -1     15898 5.82627E+01 3.40299E+01 1.01698E+00
 -1     15899 5.69552E+01 3.32747E+01-9.94156E-01
 -1     15901 5.69552E+01 3.32747E+01 9.94156E-01
 -1     15902 5.92476E+01 3.40279E+01-1.03417E+00
 -1     15904 5.92476E+01 3.40279E+01 1.03417E+00
 -1     15905 6.02332E+01 3.40291E+01-1.05137E+00
 -1     15907 6.02332E+01 3.40291E+01 1.05137E+00
 -1     15908 5.89291E+01 3.32587E+01-1.02861E+00
 -1     15910 5.89291E+01 3.32587E+01 1.02861E+00
 -1     15911 6.12204E+01 3.40394E+01-1.06861E+00
 -1     15913 6.12204E+01 3.40394E+01 1.06861E+00
 -1     15914 6.22082E+01 3.40446E+01-1.08585E+00
 -1     15916 6.22082E+01 3.40446E+01 1.08585E+00
 -1     15917 6.09012E+01 3.32671E+01-1.06303E+00
 -1     15919 6.09012E+01 3.32671E+01 1.06303E+00
 -1     15920 6.31996E+01 3.40535E+01-1.10315E+00
 -1     15922 6.31996E+01 3.40535E+01 1.10315E+00
 -1     15923 6.41900E+01 3.40568E+01-1.12044E+00
 -1     15925 6.41900E+01 3.40568E+01 1.12044E+00
 -1     15926 6.28798E+01 3.32863E+01-1.09757E+00
 -1     15928 6.28798E+01 3.32863E+01 1.09757E+00
 -1     15929 6.51828E+01 3.40562E+01-1.13777E+00
 -1     15931 6.51828E+01 3.40562E+01 1.13777E+00
 -1     15932 6.61738E+01 3.40555E+01-1.15507E+00
 -1     15934 6.61738E+01 3.40555E+01 1.15507E+00
 -1     15935 6.48641E+01 3.32946E+01-1.13221E+00
 -1     15937 6.48641E+01 3.32946E+01 1.13221E+00
 -1     15938 6.71673E+01 3.40507E+01-1.17241E+00
 -1     15940 6.71673E+01 3.40507E+01 1.17241E+00
 -1     15941 6.81576E+01 3.40500E+01-1.18970E+00
 -1     15943 6.81576E+01 3.40500E+01 1.18970E+00
 -1     15944 6.68505E+01 3.32891E+01-1.16688E+00
 -1     15946 6.68505E+01 3.32891E+01 1.16688E+00
 -1     15947 6.91522E+01 3.40507E+01-1.20706E+00
 -1     15949 6.91522E+01 3.40507E+01 1.20706E+00
 -1     15950 7.01405E+01 3.40559E+01-1.22431E+00
 -1     15952 7.01405E+01 3.40559E+01 1.22431E+00
 -1     15953 6.88387E+01 3.32850E+01-1.20158E+00
 -1     15955 6.88387E+01 3.32850E+01 1.20158E+00
 -1     15956 7.11324E+01 3.40701E+01-1.24162E+00
 -1     15958 7.11324E+01 3.40701E+01 1.24162E+00
 -1     15959 7.21154E+01 3.40860E+01-1.25878E+00
 -1     15961 7.21154E+01 3.40860E+01 1.25878E+00
 -1     15962 7.08252E+01 3.33000E+01-1.23626E+00
 -1     15964 7.08252E+01 3.33000E+01 1.23626E+00
 -1     15965 7.30927E+01 3.41226E+01-1.27584E+00
 -1     15967 7.30927E+01 3.41226E+01 1.27584E+00
 -1     15968 7.40690E+01 3.41480E+01-1.29288E+00
 -1     15970 7.40690E+01 3.41480E+01 1.29288E+00
 -1     15971 7.27944E+01 3.33507E+01-1.27063E+00
 -1     15973 7.27944E+01 3.33507E+01 1.27063E+00
 -1     15974 7.50181E+01 3.42066E+01-1.30945E+00
 -1     15976 7.50181E+01 3.42066E+01 1.30945E+00
 -1     15977 7.60048E+01 3.42066E+01-1.32667E+00
 -1     15979 7.60048E+01 3.42066E+01 1.32667E+00
 -1     15980 7.47208E+01 3.34459E+01-1.30426E+00
 -1     15982 7.47208E+01 3.34459E+01 1.30426E+00
 -1     15983 7.69959E+01 3.41462E+01-1.34397E+00
 -1     15985 7.69959E+01 3.41462E+01 1.34397E+00
 -1     15986 7.79954E+01 3.40874E+01-1.36142E+00
 -1     15988 7.79954E+01 3.40874E+01 1.36142E+00
 -1     15989 7.66610E+01 3.34441E+01-1.33812E+00
 -1     15991 7.66610E+01 3.34441E+01 1.33812E+00
 -1     15992 7.91110E+01 3.38601E+01-1.38089E+00
 -1     15994 7.91110E+01 3.38601E+01 1.38089E+00
 -1     15995 4.13137E+01 3.07777E+01-7.21133E-01
 -1     15997 4.13137E+01 3.07777E+01 7.21133E-01
 -1     15998 4.12773E+01 3.16098E+01-7.20498E-01
 -1     16000 4.12773E+01 3.16098E+01 7.20498E-01
 -1     16001 4.22048E+01 3.03346E+01-7.36687E-01
 -1     16003 4.22048E+01 3.03346E+01 7.36687E-01
 -1     16004 4.51734E+01 1.48027E+01-7.88505E-01
 -1     16006 4.51734E+01 1.48027E+01 7.88505E-01
 -1     16007 4.45836E+01 1.56982E+01-7.78210E-01
 -1     16009 4.45836E+01 1.56982E+01 7.78210E-01
 -1     16010 4.61907E+01 1.48007E+01-8.06262E-01
 -1     16012 4.61907E+01 1.48007E+01 8.06262E-01
 -1     16013 5.71004E+01 1.65167E+01-9.96691E-01
 -1     16015 5.71004E+01 1.65167E+01 9.96691E-01
 -1     16016 5.61188E+01 1.65057E+01-9.79557E-01
 -1     16018 5.61188E+01 1.65057E+01 9.79557E-01
 -1     16019 4.00280E+01 1.48420E+01-6.98692E-01
 -1     16021 4.00280E+01 1.48420E+01 6.98692E-01
 -1     16022 4.06145E+01 2.58644E+01-7.08929E-01
 -1     16024 4.06145E+01 2.58644E+01 7.08929E-01
 -1     16025 4.13935E+01 1.74737E+01-7.22526E-01
 -1     16027 4.13935E+01 1.74737E+01 7.22526E-01
 -1     16028 4.14816E+01 1.83695E+01-7.24064E-01
 -1     16030 4.14816E+01 1.83695E+01 7.24064E-01
 -1     16031 8.18952E+01 3.43310E+01-1.42949E+00
 -1     16033 8.18952E+01 3.43310E+01 1.42949E+00
 -1     16034 8.27544E+01 3.41051E+01-1.44448E+00
 -1     16036 8.27544E+01 3.41051E+01 1.44448E+00
 -1     16037 4.14586E+01 2.81906E+01-7.23662E-01
 -1     16039 4.14586E+01 2.81906E+01 7.23662E-01
 -1     16040 4.23132E+01 2.86130E+01-7.38579E-01
 -1     16042 4.23132E+01 2.86130E+01 7.38579E-01
 -1     16043 4.14812E+01 2.72784E+01-7.24058E-01
 -1     16045 4.14812E+01 2.72784E+01 7.24058E-01
 -1     16046 8.26083E+01 2.11122E+01-1.44193E+00
 -1     16048 8.26083E+01 2.11122E+01 1.44193E+00
 -1     16049 4.51859E+01 1.65867E+01-7.88722E-01
 -1     16051 4.51859E+01 1.65867E+01 7.88722E-01
 -1     16052 4.40976E+01 1.65921E+01-7.69726E-01
 -1     16054 4.40976E+01 1.65921E+01 7.69726E-01
 -1     16055 8.26257E+01 2.50328E+01-1.44224E+00
 -1     16057 8.26257E+01 2.50328E+01 1.44224E+00
 -1     16058 7.91095E+01 1.74920E+01-1.38086E+00
 -1     16060 7.91095E+01 1.74920E+01 1.38086E+00
 -1     16061 7.87105E+01 1.65823E+01-1.37390E+00
 -1     16063 7.87105E+01 1.65823E+01 1.37390E+00
 -1     16064 5.22023E+01 1.46949E+01-9.11194E-01
 -1     16066 5.22023E+01 1.46949E+01 9.11194E-01
 -1     16067 5.12137E+01 1.46959E+01-8.93939E-01
 -1     16069 5.12137E+01 1.46959E+01 8.93939E-01
 -1     16070 5.26994E+01 1.55630E+01-9.19872E-01
 -1     16072 5.26994E+01 1.55630E+01 9.19872E-01
 -1     16073 8.32297E+01 2.93985E+01-1.45278E+00
 -1     16075 8.32297E+01 2.93985E+01 1.45278E+00
 -1     16076 8.23496E+01 2.88932E+01-1.43742E+00
 -1     16078 8.23496E+01 2.88932E+01 1.43742E+00
 -1     16079 8.31670E+01 3.03719E+01-1.45168E+00
 -1     16081 8.31670E+01 3.03719E+01 1.45168E+00
 -1     16082 6.89198E+01 1.64983E+01-1.20300E+00
 -1     16084 6.89198E+01 1.64983E+01 1.20300E+00
 -1     16085 6.79403E+01 1.65055E+01-1.18590E+00
 -1     16087 6.79403E+01 1.65055E+01 1.18590E+00
 -1     16088 6.05573E+01 1.56477E+01-1.05703E+00
 -1     16090 6.05573E+01 1.56477E+01 1.05703E+00
 -1     16091 8.10938E+01 1.78610E+01-1.41550E+00
 -1     16093 8.10938E+01 1.78610E+01 1.41550E+00
 -1     16094 7.28386E+01 1.47329E+01-1.27140E+00
 -1     16096 7.28386E+01 1.47329E+01 1.27140E+00
 -1     16097 7.23388E+01 1.56030E+01-1.26268E+00
 -1     16099 7.23388E+01 1.56030E+01 1.26268E+00
 -1     16100 7.38261E+01 1.47354E+01-1.28864E+00
 -1     16102 7.38261E+01 1.47354E+01 1.28864E+00
 -1     16103 5.51415E+01 1.64832E+01-9.62499E-01
 -1     16105 5.51415E+01 1.64832E+01 9.62499E-01
 -1     16106 5.41635E+01 1.64641E+01-9.45428E-01
 -1     16108 5.41635E+01 1.64641E+01 9.45428E-01
 -1     16109 5.56242E+01 1.73742E+01-9.70923E-01
 -1     16111 5.56242E+01 1.73742E+01 9.70923E-01
 -1     16112 6.30297E+01 1.65396E+01-1.10019E+00
 -1     16114 6.30297E+01 1.65396E+01 1.10019E+00
 -1     16115 6.20435E+01 1.65383E+01-1.08297E+00
 -1     16117 6.20435E+01 1.65383E+01 1.08297E+00
 -1     16118 4.00017E+01 1.58021E+01-6.98233E-01
 -1     16120 4.00017E+01 1.58021E+01 6.98233E-01
 -1     16121 8.29172E+01 3.31725E+01-1.44732E+00
 -1     16123 8.29172E+01 3.31725E+01 1.44732E+00
 -1     16124 4.35423E+01 1.75819E+01-7.60034E-01
 -1     16126 4.35423E+01 1.75819E+01 7.60034E-01
 -1     16127 4.29400E+01 1.66934E+01-7.49521E-01
 -1     16129 4.29400E+01 1.66934E+01 7.49521E-01
 -1     16130 7.82838E+01 1.57196E+01-1.36645E+00
 -1     16132 7.82838E+01 1.57196E+01 1.36645E+00
 -1     16133 7.78187E+01 1.48153E+01-1.35833E+00
 -1     16135 7.78187E+01 1.48153E+01 1.35833E+00
 -1     16136 5.80886E+01 1.65234E+01-1.01394E+00
 -1     16138 5.80886E+01 1.65234E+01 1.01394E+00
 -1     16139 5.75896E+01 1.74033E+01-1.00523E+00
 -1     16141 5.75896E+01 1.74033E+01 1.00523E+00
 -1     16142 5.90741E+01 1.65279E+01-1.03114E+00
 -1     16144 5.90741E+01 1.65279E+01 1.03114E+00
 -1     16145 4.07501E+01 1.63517E+01-7.11295E-01
 -1     16147 4.07501E+01 1.63517E+01 7.11295E-01
 -1     16148 4.17413E+01 1.65612E+01-7.28598E-01
 -1     16150 4.17413E+01 1.65612E+01 7.28598E-01
 -1     16151 6.98930E+01 1.64858E+01-1.21999E+00
 -1     16153 6.98930E+01 1.64858E+01 1.21999E+00
 -1     16154 6.94070E+01 1.73673E+01-1.21150E+00
 -1     16156 6.94070E+01 1.73673E+01 1.21150E+00
 -1     16157 7.08711E+01 1.64800E+01-1.23706E+00
 -1     16159 7.08711E+01 1.64800E+01 1.23706E+00
 -1     16160 6.40160E+01 1.65369E+01-1.11740E+00
 -1     16162 6.40160E+01 1.65369E+01 1.11740E+00
 -1     16163 6.35290E+01 1.74242E+01-1.10890E+00
 -1     16165 6.35290E+01 1.74242E+01 1.10890E+00
 -1     16166 6.49995E+01 1.65320E+01-1.13457E+00
 -1     16168 6.49995E+01 1.65320E+01 1.13457E+00
 -1     16169 7.76907E+01 1.65055E+01-1.35610E+00
 -1     16171 7.76907E+01 1.65055E+01 1.35610E+00
 -1     16172 7.67985E+01 1.47707E+01-1.34052E+00
 -1     16174 7.67985E+01 1.47707E+01 1.34052E+00
 -1     16175 8.18776E+01 2.17048E+01-1.42918E+00
 -1     16177 8.18776E+01 2.17048E+01 1.42918E+00
 -1     16178 8.17831E+01 2.07081E+01-1.42753E+00
 -1     16180 8.17831E+01 2.07081E+01 1.42753E+00
 -1     16181 4.15098E+01 2.34430E+01-7.24555E-01
 -1     16183 4.15098E+01 2.34430E+01 7.24555E-01
 -1     16184 4.15099E+01 2.44110E+01-7.24559E-01
 -1     16186 4.15099E+01 2.44110E+01 7.24559E-01
 -1     16187 4.62191E+01 1.65821E+01-8.06757E-01
 -1     16189 4.62191E+01 1.65821E+01 8.06757E-01
 -1     16190 4.57331E+01 1.74761E+01-7.98274E-01
 -1     16192 4.57331E+01 1.74761E+01 7.98274E-01
 -1     16193 4.11480E+01 3.23241E+01-7.18241E-01
 -1     16195 4.11480E+01 3.23241E+01 7.18241E-01
 -1     16196 4.12330E+01 3.31101E+01-7.19725E-01
 -1     16198 4.12330E+01 3.31101E+01 7.19725E-01
 -1     16199 4.21487E+01 3.32186E+01-7.35708E-01
 -1     16201 4.21487E+01 3.32186E+01 7.35708E-01
 -1     16202 4.20098E+01 3.18908E+01-7.33283E-01
 -1     16204 4.20098E+01 3.18908E+01 7.33283E-01
 -1     16205 8.17197E+01 2.55008E+01-1.42642E+00
 -1     16207 8.17197E+01 2.55008E+01 1.42642E+00
 -1     16208 8.17814E+01 2.45361E+01-1.42750E+00
 -1     16210 8.17814E+01 2.45361E+01 1.42750E+00
 -1     16211 7.94812E+01 1.83333E+01-1.38735E+00
 -1     16213 7.94812E+01 1.83333E+01 1.38735E+00
 -1     16214 7.84891E+01 1.82094E+01-1.37003E+00
 -1     16216 7.84891E+01 1.82094E+01 1.37003E+00
 -1     16217 8.30846E+01 3.13258E+01-1.45025E+00
 -1     16219 8.30846E+01 3.13258E+01 1.45025E+00
 -1     16220 8.21953E+01 3.08128E+01-1.43473E+00
 -1     16222 8.21953E+01 3.08128E+01 1.43473E+00
 -1     16223 6.69627E+01 1.65177E+01-1.16884E+00
 -1     16225 6.69627E+01 1.65177E+01 1.16884E+00
 -1     16226 6.59811E+01 1.65234E+01-1.15170E+00
 -1     16228 6.59811E+01 1.65234E+01 1.15170E+00
 -1     16229 6.74562E+01 1.73920E+01-1.17745E+00
 -1     16231 6.74562E+01 1.73920E+01 1.17745E+00
 -1     16232 8.30001E+01 3.22836E+01-1.44877E+00
 -1     16234 8.30001E+01 3.22836E+01 1.44877E+00
 -1     16235 6.10527E+01 1.65332E+01-1.06568E+00
 -1     16237 6.10527E+01 1.65332E+01 1.06568E+00
 -1     16238 6.00658E+01 1.65312E+01-1.04845E+00
 -1     16240 6.00658E+01 1.65312E+01 1.04845E+00
 -1     16241 5.95694E+01 1.74134E+01-1.03979E+00
 -1     16243 5.95694E+01 1.74134E+01 1.03979E+00
 -1     16244 6.15520E+01 1.74218E+01-1.07439E+00
 -1     16246 6.15520E+01 1.74218E+01 1.07439E+00
 -1     16247 7.71402E+01 1.73433E+01-1.34649E+00
 -1     16249 7.71402E+01 1.73433E+01 1.34649E+00
 -1     16250 7.67135E+01 1.64806E+01-1.33904E+00
 -1     16252 7.67135E+01 1.64806E+01 1.33904E+00
 -1     16253 8.13813E+01 2.93474E+01-1.42052E+00
 -1     16255 8.13813E+01 2.93474E+01 1.42052E+00
 -1     16256 8.14531E+01 2.83818E+01-1.42177E+00
 -1     16258 8.14531E+01 2.83818E+01 1.42177E+00
 -1     16259 8.16016E+01 1.97909E+01-1.42436E+00
 -1     16261 8.16016E+01 1.97909E+01 1.42436E+00
 -1     16262 8.13877E+01 1.87862E+01-1.42063E+00
 -1     16264 8.13877E+01 1.87862E+01 1.42063E+00
 -1     16265 8.03955E+01 1.85411E+01-1.40331E+00
 -1     16267 8.03955E+01 1.85411E+01 1.40331E+00
 -1     16268 8.08709E+01 2.03835E+01-1.41161E+00
 -1     16270 8.08709E+01 2.03835E+01 1.41161E+00
 -1     16271 7.58038E+01 1.47499E+01-1.32316E+00
 -1     16273 7.58038E+01 1.47499E+01 1.32316E+00
 -1     16274 7.48055E+01 1.47357E+01-1.30574E+00
 -1     16276 7.48055E+01 1.47357E+01 1.30574E+00
 -1     16277 7.42951E+01 1.56010E+01-1.29683E+00
 -1     16279 7.42951E+01 1.56010E+01 1.29683E+00
 -1     16280 7.62692E+01 1.56221E+01-1.33128E+00
 -1     16282 7.62692E+01 1.56221E+01 1.33128E+00
 -1     16283 8.15468E+01 2.74195E+01-1.42341E+00
 -1     16285 8.15468E+01 2.74195E+01 1.42341E+00
 -1     16286 8.16182E+01 2.64544E+01-1.42465E+00
 -1     16288 8.16182E+01 2.64544E+01 1.42465E+00
 -1     16289 8.05786E+01 2.78737E+01-1.40650E+00
 -1     16291 8.05786E+01 2.78737E+01 1.40650E+00
 -1     16292 4.30284E+01 3.30554E+01-7.51064E-01
 -1     16294 4.30284E+01 3.30554E+01 7.51064E-01
 -1     16295 4.39212E+01 3.30532E+01-7.66648E-01
 -1     16297 4.39212E+01 3.30532E+01 7.66648E-01
 -1     16298 4.27602E+01 3.24419E+01-7.46382E-01
 -1     16300 4.27602E+01 3.24419E+01 7.46382E-01
 -1     16301 4.47510E+01 3.32359E+01-7.81131E-01
 -1     16303 4.47510E+01 3.32359E+01 7.81131E-01
 -1     16304 4.57187E+01 3.31822E+01-7.98023E-01
 -1     16306 4.57187E+01 3.31822E+01 7.98023E-01
 -1     16307 4.44696E+01 3.24614E+01-7.76220E-01
 -1     16309 4.44696E+01 3.24614E+01 7.76220E-01
 -1     16310 4.85970E+01 3.25885E+01-8.48263E-01
 -1     16312 4.85970E+01 3.25885E+01 8.48263E-01
 -1     16313 4.95811E+01 3.25530E+01-8.65442E-01
 -1     16315 4.95811E+01 3.25530E+01 8.65442E-01
 -1     16316 5.05979E+01 3.25614E+01-8.83189E-01
 -1     16318 5.05979E+01 3.25614E+01 8.83189E-01
 -1     16319 5.16016E+01 3.25581E+01-9.00708E-01
 -1     16321 5.16016E+01 3.25581E+01 9.00708E-01
 -1     16322 5.02106E+01 3.17863E+01-8.76429E-01
 -1     16324 5.02106E+01 3.17863E+01 8.76429E-01
 -1     16325 5.26119E+01 3.25611E+01-9.18344E-01
 -1     16327 5.26119E+01 3.25611E+01 9.18344E-01
 -1     16328 5.36120E+01 3.25575E+01-9.35802E-01
 -1     16330 5.36120E+01 3.25575E+01 9.35802E-01
 -1     16331 5.22377E+01 3.17977E+01-9.11812E-01
 -1     16333 5.22377E+01 3.17977E+01 9.11812E-01
 -1     16334 5.46100E+01 3.25392E+01-9.53222E-01
 -1     16336 5.46100E+01 3.25392E+01 9.53222E-01
 -1     16337 5.56051E+01 3.25264E+01-9.70591E-01
 -1     16339 5.56051E+01 3.25264E+01 9.70591E-01
 -1     16340 5.42460E+01 3.17824E+01-9.46867E-01
 -1     16342 5.42460E+01 3.17824E+01 9.46867E-01
 -1     16343 5.65982E+01 3.24935E+01-9.87924E-01
 -1     16345 5.65982E+01 3.24935E+01 9.87924E-01
 -1     16346 5.75871E+01 3.24795E+01-1.00519E+00
 -1     16348 5.75871E+01 3.24795E+01 1.00519E+00
 -1     16349 5.62371E+01 3.17311E+01-9.81622E-01
 -1     16351 5.62371E+01 3.17311E+01 9.81622E-01
 -1     16352 5.85735E+01 3.24624E+01-1.02240E+00
 -1     16354 5.85735E+01 3.24624E+01 1.02240E+00
 -1     16355 5.95584E+01 3.24604E+01-1.03960E+00
 -1     16357 5.95584E+01 3.24604E+01 1.03960E+00
 -1     16358 5.82165E+01 3.16811E+01-1.01617E+00
 -1     16360 5.82165E+01 3.16811E+01 1.01617E+00
 -1     16361 6.05454E+01 3.24784E+01-1.05682E+00
 -1     16363 6.05454E+01 3.24784E+01 1.05682E+00
 -1     16364 6.15326E+01 3.24887E+01-1.07406E+00
 -1     16366 6.15326E+01 3.24887E+01 1.07406E+00
 -1     16367 6.01899E+01 3.16820E+01-1.05062E+00
 -1     16369 6.01899E+01 3.16820E+01 1.05062E+00
 -1     16370 6.25258E+01 3.25128E+01-1.09139E+00
 -1     16372 6.25258E+01 3.25128E+01 1.09139E+00
 -1     16373 6.35172E+01 3.25218E+01-1.10870E+00
 -1     16375 6.35172E+01 3.25218E+01 1.10870E+00
 -1     16376 6.21700E+01 3.17242E+01-1.08518E+00
 -1     16378 6.21700E+01 3.17242E+01 1.08518E+00
 -1     16379 6.45106E+01 3.25240E+01-1.12604E+00
 -1     16381 6.45106E+01 3.25240E+01 1.12604E+00
 -1     16382 6.55035E+01 3.25233E+01-1.14337E+00
 -1     16384 6.55035E+01 3.25233E+01 1.14337E+00
 -1     16385 6.41566E+01 3.17506E+01-1.11986E+00
 -1     16387 6.41566E+01 3.17506E+01 1.11986E+00
 -1     16388 6.64976E+01 3.25120E+01-1.16072E+00
 -1     16390 6.64976E+01 3.25120E+01 1.16072E+00
 -1     16391 6.74911E+01 3.25072E+01-1.17806E+00
 -1     16393 6.74911E+01 3.25072E+01 1.17806E+00
 -1     16394 6.61441E+01 3.17415E+01-1.15455E+00
 -1     16396 6.61441E+01 3.17415E+01 1.15455E+00
 -1     16397 6.84923E+01 3.25003E+01-1.19554E+00
 -1     16399 6.84923E+01 3.25003E+01 1.19554E+00
 -1     16400 6.94870E+01 3.25010E+01-1.21290E+00
 -1     16402 6.94870E+01 3.25010E+01 1.21290E+00
 -1     16403 6.81395E+01 3.17232E+01-1.18938E+00
 -1     16405 6.81395E+01 3.17232E+01 1.18938E+00
 -1     16406 7.04958E+01 3.25088E+01-1.23051E+00
 -1     16408 7.04958E+01 3.25088E+01 1.23051E+00
 -1     16409 7.14878E+01 3.25230E+01-1.24782E+00
 -1     16411 7.14878E+01 3.25230E+01 1.24782E+00
 -1     16412 7.01495E+01 3.17241E+01-1.22446E+00
 -1     16414 7.01495E+01 3.17241E+01 1.22446E+00
 -1     16415 7.24954E+01 3.25546E+01-1.26541E+00
 -1     16417 7.24954E+01 3.25546E+01 1.26541E+00
 -1     16418 7.34727E+01 3.25911E+01-1.28247E+00
 -1     16420 7.34727E+01 3.25911E+01 1.28247E+00
 -1     16421 7.21660E+01 3.17634E+01-1.25966E+00
 -1     16423 7.21660E+01 3.17634E+01 1.25966E+00
 -1     16424 7.44399E+01 3.26694E+01-1.29935E+00
 -1     16426 7.44399E+01 3.26694E+01 1.29935E+00
 -1     16427 7.53890E+01 3.27280E+01-1.31592E+00
 -1     16429 7.53890E+01 3.27280E+01 1.31592E+00
 -1     16430 7.41409E+01 3.18732E+01-1.29413E+00
 -1     16432 7.41409E+01 3.18732E+01 1.29413E+00
 -1     16433 7.62054E+01 3.28564E+01-1.33017E+00
 -1     16435 7.62054E+01 3.28564E+01 1.33017E+00
 -1     16436 7.71965E+01 3.27960E+01-1.34747E+00
 -1     16438 7.71965E+01 3.27960E+01 1.34747E+00
 -1     16439 7.59245E+01 3.20799E+01-1.32527E+00
 -1     16441 7.59245E+01 3.20799E+01 1.32527E+00
 -1     16442 4.30880E+01 2.99574E+01-7.52104E-01
 -1     16444 4.30880E+01 2.99574E+01 7.52104E-01
 -1     16445 4.30223E+01 3.07992E+01-7.50957E-01
 -1     16447 4.30223E+01 3.07992E+01 7.50957E-01
 -1     16448 4.42919E+01 1.82906E+01-7.73118E-01
 -1     16450 4.42919E+01 1.82906E+01 7.73118E-01
 -1     16451 4.31343E+01 1.83919E+01-7.52913E-01
 -1     16453 4.31343E+01 1.83919E+01 7.52913E-01
 -1     16454 4.72183E+01 1.47733E+01-8.24199E-01
 -1     16456 4.72183E+01 1.47733E+01 8.24199E-01
 -1     16457 4.66995E+01 1.56653E+01-8.15143E-01
 -1     16459 4.66995E+01 1.56653E+01 8.15143E-01
 -1     16460 4.72467E+01 1.65547E+01-8.24694E-01
 -1     16462 4.72467E+01 1.65547E+01 8.24694E-01
 -1     16463 4.82220E+01 1.47548E+01-8.41718E-01
 -1     16465 4.82220E+01 1.47548E+01 8.41718E-01
 -1     16466 4.15029E+01 2.53732E+01-7.24437E-01
 -1     16468 4.15029E+01 2.53732E+01 7.24437E-01
 -1     16469 4.14950E+01 2.63323E+01-7.24298E-01
 -1     16471 4.14950E+01 2.63323E+01 7.24298E-01
 -1     16472 4.23904E+01 2.48788E+01-7.39927E-01
 -1     16474 4.23904E+01 2.48788E+01 7.39927E-01
 -1     16475 8.18874E+01 2.36177E+01-1.42935E+00
 -1     16477 8.18874E+01 2.36177E+01 1.42935E+00
 -1     16478 8.18951E+01 2.26380E+01-1.42948E+00
 -1     16480 8.18951E+01 2.26380E+01 1.42948E+00
 -1     16481 6.79632E+01 1.82779E+01-1.18630E+00
 -1     16483 6.79632E+01 1.82779E+01 1.18630E+00
 -1     16484 6.69856E+01 1.82900E+01-1.16924E+00
 -1     16486 6.69856E+01 1.82900E+01 1.16924E+00
 -1     16487 5.02230E+01 1.47052E+01-8.76645E-01
 -1     16489 5.02230E+01 1.47052E+01 8.76645E-01
 -1     16490 4.92271E+01 1.47199E+01-8.59262E-01
 -1     16492 4.92271E+01 1.47199E+01 8.59262E-01
 -1     16493 4.87322E+01 1.56031E+01-8.50624E-01
 -1     16495 4.87322E+01 1.56031E+01 8.50624E-01
 -1     16496 5.07280E+01 1.55589E+01-8.85461E-01
 -1     16498 5.07280E+01 1.55589E+01 8.85461E-01
 -1     16499 5.31974E+01 1.64246E+01-9.28563E-01
 -1     16501 5.31974E+01 1.64246E+01 9.28563E-01
 -1     16502 5.22167E+01 1.64112E+01-9.11445E-01
 -1     16504 5.22167E+01 1.64112E+01 9.11445E-01
 -1     16505 5.36807E+01 1.73123E+01-9.37001E-01
 -1     16507 5.36807E+01 1.73123E+01 9.37001E-01
 -1     16508 7.97751E+01 1.92585E+01-1.39248E+00
 -1     16510 7.97751E+01 1.92585E+01 1.39248E+00
 -1     16511 8.07738E+01 2.59578E+01-1.40991E+00
 -1     16513 8.07738E+01 2.59578E+01 1.40991E+00
 -1     16514 7.87676E+01 3.31564E+01-1.37489E+00
 -1     16516 7.87676E+01 3.31564E+01 1.37489E+00
 -1     16517 8.12107E+01 3.12843E+01-1.41754E+00
 -1     16519 8.12107E+01 3.12843E+01 1.41754E+00
 -1     16520 8.12931E+01 3.03303E+01-1.41898E+00
 -1     16522 8.12931E+01 3.03303E+01 1.41898E+00
 -1     16523 4.23403E+01 1.88252E+01-7.39053E-01
 -1     16525 4.23403E+01 1.88252E+01 7.39053E-01
 -1     16526 4.14371E+01 1.95115E+01-7.23288E-01
 -1     16528 4.14371E+01 1.95115E+01 7.23288E-01
 -1     16529 8.09814E+01 2.40857E+01-1.41354E+00
 -1     16531 8.09814E+01 2.40857E+01 1.41354E+00
 -1     16532 6.54970E+01 1.74129E+01-1.14325E+00
 -1     16534 6.54970E+01 1.74129E+01 1.14325E+00
 -1     16535 8.03966E+01 2.98189E+01-1.40333E+00
 -1     16537 8.03966E+01 2.98189E+01 1.40333E+00
 -1     16538 7.57188E+01 1.64598E+01-1.32168E+00
 -1     16540 7.57188E+01 1.64598E+01 1.32168E+00
 -1     16541 6.20563E+01 1.83203E+01-1.08320E+00
 -1     16543 6.20563E+01 1.83203E+01 1.08320E+00
 -1     16544 6.10655E+01 1.83152E+01-1.06590E+00
 -1     16546 6.10655E+01 1.83152E+01 1.06590E+00
 -1     16547 7.75530E+01 1.81693E+01-1.35369E+00
 -1     16549 7.75530E+01 1.81693E+01 1.35369E+00
 -1     16550 7.65758E+01 1.81444E+01-1.33664E+00
 -1     16552 7.65758E+01 1.81444E+01 1.33664E+00
 -1     16553 7.79247E+01 1.90105E+01-1.36018E+00
 -1     16555 7.79247E+01 1.90105E+01 1.36018E+00
 -1     16556 5.60861E+01 1.82858E+01-9.78987E-01
 -1     16558 5.60861E+01 1.82858E+01 9.78987E-01
 -1     16559 5.51089E+01 1.82634E+01-9.61929E-01
 -1     16561 5.51089E+01 1.82634E+01 9.61929E-01
 -1     16562 7.18406E+01 1.64767E+01-1.25398E+00
 -1     16564 7.18406E+01 1.64767E+01 1.25398E+00
 -1     16565 7.13497E+01 1.73515E+01-1.24541E+00
 -1     16567 7.13497E+01 1.73515E+01 1.24541E+00
 -1     16568 7.28175E+01 1.64745E+01-1.27103E+00
 -1     16570 7.28175E+01 1.64745E+01 1.27103E+00
 -1     16571 8.10699E+01 2.22340E+01-1.41508E+00
 -1     16573 8.10699E+01 2.22340E+01 1.41508E+00
 -1     16574 4.30899E+01 1.95339E+01-7.52137E-01
 -1     16576 4.30899E+01 1.95339E+01 7.52137E-01
 -1     16577 4.14472E+01 2.04905E+01-7.23464E-01
 -1     16579 4.14472E+01 2.04905E+01 7.23464E-01
 -1     16580 6.30506E+01 1.83253E+01-1.10055E+00
 -1     16582 6.30506E+01 1.83253E+01 1.10055E+00
 -1     16583 6.25641E+01 1.92186E+01-1.09206E+00
 -1     16585 6.25641E+01 1.92186E+01 1.09206E+00
 -1     16586 6.40369E+01 1.83225E+01-1.11777E+00
 -1     16588 6.40369E+01 1.83225E+01 1.11777E+00
 -1     16589 5.70813E+01 1.82926E+01-9.96358E-01
 -1     16591 5.70813E+01 1.82926E+01 9.96358E-01
 -1     16592 5.65661E+01 1.91818E+01-9.87364E-01
 -1     16594 5.65661E+01 1.91818E+01 9.87364E-01
 -1     16595 5.80695E+01 1.82993E+01-1.01361E+00
 -1     16597 5.80695E+01 1.82993E+01 1.01361E+00
 -1     16598 7.80147E+01 3.24869E+01-1.36175E+00
 -1     16600 7.80147E+01 3.24869E+01 1.36175E+00
 -1     16601 7.91302E+01 3.22596E+01-1.38122E+00
 -1     16603 7.91302E+01 3.22596E+01 1.38122E+00
 -1     16604 7.75591E+01 3.18992E+01-1.35380E+00
 -1     16606 7.75591E+01 3.18992E+01 1.35380E+00
 -1     16607 4.52726E+01 1.85045E+01-7.90236E-01
 -1     16609 4.52726E+01 1.85045E+01 7.90236E-01
 -1     16610 4.48646E+01 1.93145E+01-7.83115E-01
 -1     16612 4.48646E+01 1.93145E+01 7.83115E-01
 -1     16613 4.63058E+01 1.85000E+01-8.08270E-01
 -1     16615 4.63058E+01 1.85000E+01 8.08270E-01
 -1     16616 4.23696E+01 2.67871E+01-7.39565E-01
 -1     16618 4.23696E+01 2.67871E+01 7.39565E-01
 -1     16619 4.14995E+01 2.24643E+01-7.24377E-01
 -1     16621 4.14995E+01 2.24643E+01 7.24377E-01
 -1     16622 4.23872E+01 2.29378E+01-7.39871E-01
 -1     16624 4.23872E+01 2.29378E+01 7.39871E-01
 -1     16625 4.14878E+01 2.14864E+01-7.24172E-01
 -1     16627 4.14878E+01 2.14864E+01 7.24172E-01
 -1     16628 4.65986E+01 3.27755E+01-8.13381E-01
 -1     16630 4.65986E+01 3.27755E+01 8.13381E-01
 -1     16631 4.75296E+01 3.26149E+01-8.29632E-01
 -1     16633 4.75296E+01 3.26149E+01 8.29632E-01
 -1     16634 4.31962E+01 2.90797E+01-7.53993E-01
 -1     16636 4.31962E+01 2.90797E+01 7.53993E-01
 -1     16637 4.40138E+01 2.95443E+01-7.68263E-01
 -1     16639 4.40138E+01 2.95443E+01 7.68263E-01
 -1     16640 4.32390E+01 2.81999E+01-7.54739E-01
 -1     16642 4.32390E+01 2.81999E+01 7.54739E-01
 -1     16643 6.89301E+01 1.82492E+01-1.20318E+00
 -1     16645 6.89301E+01 1.82492E+01 1.20318E+00
 -1     16646 6.84595E+01 1.91472E+01-1.19497E+00
 -1     16648 6.84595E+01 1.91472E+01 1.19497E+00
 -1     16649 6.99033E+01 1.82366E+01-1.22017E+00
 -1     16651 6.99033E+01 1.82366E+01 1.22017E+00
 -1     16652 7.93429E+01 3.11960E+01-1.38493E+00
 -1     16654 7.93429E+01 3.11960E+01 1.38493E+00
 -1     16655 8.00958E+01 3.18655E+01-1.39808E+00
 -1     16657 8.00958E+01 3.18655E+01 1.39808E+00
 -1     16658 4.81265E+01 3.18043E+01-8.40051E-01
 -1     16660 4.81265E+01 3.18043E+01 8.40051E-01
 -1     16661 8.00134E+01 2.01192E+01-1.39664E+00
 -1     16663 8.00134E+01 2.01192E+01 1.39664E+00
 -1     16664 7.90992E+01 1.99113E+01-1.38068E+00
 -1     16666 7.90992E+01 1.99113E+01 1.38068E+00
 -1     16667 8.01949E+01 2.10364E+01-1.39981E+00
 -1     16669 8.01949E+01 2.10364E+01 1.39981E+00
 -1     16670 4.28895E+01 3.17276E+01-7.48639E-01
 -1     16672 4.28895E+01 3.17276E+01 7.48639E-01
 -1     16673 7.22946E+01 2.36165E+01-1.26191E+00
 -1     16675 7.22946E+01 2.36165E+01 1.26191E+00
 -1     16676 7.14138E+01 2.33936E+01-1.24653E+00
 -1     16678 7.14138E+01 2.33936E+01 1.24653E+00
 -1     16679 7.22833E+01 2.25865E+01-1.26171E+00
 -1     16681 7.22833E+01 2.25865E+01 1.26171E+00
 -1     16682 4.37727E+01 3.13504E+01-7.64055E-01
 -1     16684 4.37727E+01 3.13504E+01 7.64055E-01
 -1     16685 4.61792E+01 3.22374E+01-8.06061E-01
 -1     16687 4.61792E+01 3.22374E+01 8.06061E-01
 -1     16688 8.00624E+01 2.44639E+01-1.39749E+00
 -1     16690 8.00624E+01 2.44639E+01 1.39749E+00
 -1     16691 8.01684E+01 2.35454E+01-1.39934E+00
 -1     16693 8.01684E+01 2.35454E+01 1.39934E+00
 -1     16694 7.94025E+01 3.02446E+01-1.38598E+00
 -1     16696 7.94025E+01 3.02446E+01 1.38598E+00
 -1     16697 7.94907E+01 2.92616E+01-1.38752E+00
 -1     16699 7.94907E+01 2.92616E+01 1.38752E+00
 -1     16700 7.84370E+01 3.06387E+01-1.36912E+00
 -1     16702 7.84370E+01 3.06387E+01 1.36912E+00
 -1     16703 7.47590E+01 1.64722E+01-1.30492E+00
 -1     16705 7.47590E+01 1.64722E+01 1.30492E+00
 -1     16706 7.37796E+01 1.64719E+01-1.28783E+00
 -1     16708 7.37796E+01 1.64719E+01 1.28783E+00
 -1     16709 7.32814E+01 1.73456E+01-1.27913E+00
 -1     16711 7.32814E+01 1.73456E+01 1.27913E+00
 -1     16712 7.52033E+01 1.73307E+01-1.31268E+00
 -1     16714 7.52033E+01 1.73307E+01 1.31268E+00
 -1     16715 7.95746E+01 2.82964E+01-1.38898E+00
 -1     16717 7.95746E+01 2.82964E+01 1.38898E+00
 -1     16718 7.96683E+01 2.73341E+01-1.39062E+00
 -1     16720 7.96683E+01 2.73341E+01 1.39062E+00
 -1     16721 7.85805E+01 2.87221E+01-1.37163E+00
 -1     16723 7.85805E+01 2.87221E+01 1.37163E+00
 -1     16724 4.32877E+01 2.43866E+01-7.55590E-01
 -1     16726 4.32877E+01 2.43866E+01 7.55590E-01
 -1     16727 4.32808E+01 2.53489E+01-7.55468E-01
 -1     16729 4.32808E+01 2.53489E+01 7.55468E-01
 -1     16730 7.66891E+01 3.14118E+01-1.33861E+00
 -1     16732 7.66891E+01 3.14118E+01 1.33861E+00
 -1     16733 7.75072E+01 3.11027E+01-1.35289E+00
 -1     16735 7.75072E+01 3.11027E+01 1.35289E+00
 -1     16736 7.75669E+01 3.01513E+01-1.35394E+00
 -1     16738 7.75669E+01 3.01513E+01 1.35394E+00
 -1     16739 7.58726E+01 3.12834E+01-1.32436E+00
 -1     16741 7.58726E+01 3.12834E+01 1.32436E+00
 -1     16742 6.00637E+01 1.83052E+01-1.04842E+00
 -1     16744 6.00637E+01 1.83052E+01 1.04842E+00
 -1     16745 5.90720E+01 1.83019E+01-1.03110E+00
 -1     16747 5.90720E+01 1.83019E+01 1.03110E+00
 -1     16748 5.85637E+01 1.91911E+01-1.02223E+00
 -1     16750 5.85637E+01 1.91911E+01 1.02223E+00
 -1     16751 6.05680E+01 1.92037E+01-1.05722E+00
 -1     16753 6.05680E+01 1.92037E+01 1.05722E+00
 -1     16754 7.98178E+01 2.63536E+01-1.39322E+00
 -1     16756 7.98178E+01 2.63536E+01 1.39322E+00
 -1     16757 7.99194E+01 2.54000E+01-1.39500E+00
 -1     16759 7.99194E+01 2.54000E+01 1.39500E+00
 -1     16760 7.91063E+01 2.48597E+01-1.38081E+00
 -1     16762 7.91063E+01 2.48597E+01 1.38081E+00
 -1     16763 7.88138E+01 2.67763E+01-1.37570E+00
 -1     16765 7.88138E+01 2.67763E+01 1.37570E+00
 -1     16766 4.98198E+01 3.09987E+01-8.69608E-01
 -1     16768 4.98198E+01 3.09987E+01 8.69608E-01
 -1     16769 5.08366E+01 3.10071E+01-8.87356E-01
 -1     16771 5.08366E+01 3.10071E+01 8.87356E-01
 -1     16772 8.03771E+01 2.27417E+01-1.40299E+00
 -1     16774 8.03771E+01 2.27417E+01 1.40299E+00
 -1     16775 8.03596E+01 2.18084E+01-1.40268E+00
 -1     16777 8.03596E+01 2.18084E+01 1.40268E+00
 -1     16778 7.95021E+01 2.15440E+01-1.38771E+00
 -1     16780 7.95021E+01 2.15440E+01 1.38771E+00
 -1     16781 7.94581E+01 2.31198E+01-1.38695E+00
 -1     16783 7.94581E+01 2.31198E+01 1.38695E+00
 -1     16784 4.44566E+01 3.17973E+01-7.75994E-01
 -1     16786 4.44566E+01 3.17973E+01 7.75994E-01
 -1     16787 4.52864E+01 3.19799E+01-7.90477E-01
 -1     16789 4.52864E+01 3.19799E+01 7.90477E-01
 -1     16790 6.02949E+01 2.62513E+01-1.05245E+00
 -1     16792 6.02949E+01 2.62513E+01 1.05245E+00
 -1     16793 6.00434E+01 2.52658E+01-1.04806E+00
 -1     16795 6.00434E+01 2.52658E+01 1.04806E+00
 -1     16796 6.08280E+01 2.55284E+01-1.06176E+00
 -1     16798 6.08280E+01 2.55284E+01 1.06176E+00
 -1     16799 4.61662E+01 3.15733E+01-8.05834E-01
 -1     16801 4.61662E+01 3.15733E+01 8.05834E-01
 -1     16802 5.18326E+01 3.10245E+01-9.04741E-01
 -1     16804 5.18326E+01 3.10245E+01 9.04741E-01
 -1     16805 5.28429E+01 3.10276E+01-9.22376E-01
 -1     16807 5.28429E+01 3.10276E+01 9.22376E-01
 -1     16808 5.14418E+01 3.02370E+01-8.97920E-01
 -1     16810 5.14418E+01 3.02370E+01 8.97920E-01
 -1     16811 5.38268E+01 3.10126E+01-9.39550E-01
 -1     16813 5.38268E+01 3.10126E+01 9.39550E-01
 -1     16814 5.48248E+01 3.09943E+01-9.56971E-01
 -1     16816 5.48248E+01 3.09943E+01 9.56971E-01
 -1     16817 5.34217E+01 3.02394E+01-9.32480E-01
 -1     16819 5.34217E+01 3.02394E+01 9.32480E-01
 -1     16820 5.58121E+01 3.09423E+01-9.74204E-01
 -1     16822 5.58121E+01 3.09423E+01 9.74204E-01
 -1     16823 5.68052E+01 3.09094E+01-9.91538E-01
 -1     16825 5.68052E+01 3.09094E+01 9.91538E-01
 -1     16826 5.53929E+01 3.01725E+01-9.66887E-01
 -1     16828 5.53929E+01 3.01725E+01 9.66887E-01
 -1     16829 5.78013E+01 3.08394E+01-1.00893E+00
 -1     16831 5.78013E+01 3.08394E+01 1.00893E+00
 -1     16832 5.87877E+01 3.08223E+01-1.02614E+00
 -1     16834 5.87877E+01 3.08223E+01 1.02614E+00
 -1     16835 5.73764E+01 3.00505E+01-1.00151E+00
 -1     16837 5.73764E+01 3.00505E+01 1.00151E+00
 -1     16838 5.97819E+01 3.08370E+01-1.04350E+00
 -1     16840 5.97819E+01 3.08370E+01 1.04350E+00
 -1     16841 6.07689E+01 3.08550E+01-1.06073E+00
 -1     16843 6.07689E+01 3.08550E+01 1.06073E+00
 -1     16844 5.93668E+01 2.99953E+01-1.03625E+00
 -1     16846 5.93668E+01 2.99953E+01 1.03625E+00
 -1     16847 6.17686E+01 3.09226E+01-1.07817E+00
 -1     16849 6.17686E+01 3.09226E+01 1.07817E+00
 -1     16850 6.27618E+01 3.09468E+01-1.09551E+00
 -1     16852 6.27618E+01 3.09468E+01 1.09551E+00
 -1     16853 6.13606E+01 3.00777E+01-1.07105E+00
 -1     16855 6.13606E+01 3.00777E+01 1.07105E+00
 -1     16856 6.37525E+01 3.09618E+01-1.11280E+00
 -1     16858 6.37525E+01 3.09618E+01 1.11280E+00
 -1     16859 6.47459E+01 3.09640E+01-1.13014E+00
 -1     16861 6.47459E+01 3.09640E+01 1.13014E+00
 -1     16862 6.33510E+01 3.01602E+01-1.10580E+00
 -1     16864 6.33510E+01 3.01602E+01 1.10580E+00
 -1     16865 6.57310E+01 3.09410E+01-1.14734E+00
 -1     16867 6.57310E+01 3.09410E+01 1.14734E+00
 -1     16868 6.67252E+01 3.09297E+01-1.16469E+00
 -1     16870 6.67252E+01 3.09297E+01 1.16469E+00
 -1     16871 6.53269E+01 3.01523E+01-1.14029E+00
 -1     16873 6.53269E+01 3.01523E+01 1.14029E+00
 -1     16874 6.77266E+01 3.09104E+01-1.18217E+00
 -1     16876 6.77266E+01 3.09104E+01 1.18217E+00
 -1     16877 6.87278E+01 3.09035E+01-1.19965E+00
 -1     16879 6.87278E+01 3.09035E+01 1.19965E+00
 -1     16880 6.73135E+01 3.01100E+01-1.17496E+00
 -1     16882 6.73135E+01 3.01100E+01 1.17496E+00
 -1     16883 6.97508E+01 3.09011E+01-1.21750E+00
 -1     16885 6.97508E+01 3.09011E+01 1.21750E+00
 -1     16886 7.07597E+01 3.09089E+01-1.23511E+00
 -1     16888 7.07597E+01 3.09089E+01 1.23511E+00
 -1     16889 6.93380E+01 3.00884E+01-1.21030E+00
 -1     16891 6.93380E+01 3.00884E+01 1.21030E+00
 -1     16892 7.18067E+01 3.09339E+01-1.25339E+00
 -1     16894 7.18067E+01 3.09339E+01 1.25339E+00
 -1     16895 7.28143E+01 3.09654E+01-1.27098E+00
 -1     16897 7.28143E+01 3.09654E+01 1.27098E+00
 -1     16898 7.14080E+01 3.01110E+01-1.24643E+00
 -1     16900 7.14080E+01 3.01110E+01 1.24643E+00
 -1     16901 7.38915E+01 3.10252E+01-1.28978E+00
 -1     16903 7.38915E+01 3.10252E+01 1.28978E+00
 -1     16904 7.48587E+01 3.11035E+01-1.30666E+00
 -1     16906 7.48587E+01 3.11035E+01 1.30666E+00
 -1     16907 7.35322E+01 3.01957E+01-1.28351E+00
 -1     16909 7.35322E+01 3.01957E+01 1.28351E+00
 -1     16910 4.23364E+01 2.09631E+01-7.38985E-01
 -1     16912 4.23364E+01 2.09631E+01 7.38985E-01
 -1     16913 4.40028E+01 2.00124E+01-7.68071E-01
 -1     16915 4.40028E+01 2.00124E+01 7.68071E-01
 -1     16916 4.32088E+01 2.04457E+01-7.54212E-01
 -1     16918 4.32088E+01 2.04457E+01 7.54212E-01
 -1     16919 4.32493E+01 2.14416E+01-7.54919E-01
 -1     16921 4.32493E+01 2.14416E+01 7.54919E-01
 -1     16922 4.49835E+01 2.02263E+01-7.85189E-01
 -1     16924 4.49835E+01 2.02263E+01 7.85189E-01
 -1     16925 8.20300E+01 3.26556E+01-1.43184E+00
 -1     16927 8.20300E+01 3.26556E+01 1.43184E+00
 -1     16928 6.60050E+01 1.83064E+01-1.15212E+00
 -1     16930 6.60050E+01 1.83064E+01 1.15212E+00
 -1     16931 6.50233E+01 1.83150E+01-1.13499E+00
 -1     16933 6.50233E+01 1.83150E+01 1.13499E+00
 -1     16934 6.45448E+01 1.92161E+01-1.12663E+00
 -1     16936 6.45448E+01 1.92161E+01 1.12663E+00
 -1     16937 6.65119E+01 1.91922E+01-1.16097E+00
 -1     16939 6.65119E+01 1.91922E+01 1.16097E+00
 -1     16940 4.32588E+01 2.63174E+01-7.55085E-01
 -1     16942 4.32588E+01 2.63174E+01 7.55085E-01
 -1     16943 4.32450E+01 2.72635E+01-7.54845E-01
 -1     16945 4.32450E+01 2.72635E+01 7.54845E-01
 -1     16946 6.89856E+01 2.00315E+01-1.20415E+00
 -1     16948 6.89856E+01 2.00315E+01 1.20415E+00
 -1     16949 6.80186E+01 2.00602E+01-1.18727E+00
 -1     16951 6.80186E+01 2.00602E+01 1.18727E+00
 -1     16952 6.30827E+01 2.01366E+01-1.10111E+00
 -1     16954 6.30827E+01 2.01366E+01 1.10111E+00
 -1     16955 6.20884E+01 2.01316E+01-1.08376E+00
 -1     16957 6.20884E+01 2.01316E+01 1.08376E+00
 -1     16958 4.87780E+01 3.09522E+01-8.51423E-01
 -1     16960 4.87780E+01 3.09522E+01 8.51423E-01
 -1     16961 4.94040E+01 3.01730E+01-8.62349E-01
 -1     16963 4.94040E+01 3.01730E+01 8.62349E-01
 -1     16964 4.77106E+01 3.09786E+01-8.32792E-01
 -1     16966 4.77106E+01 3.09786E+01 8.32792E-01
 -1     16967 5.46012E+01 1.91300E+01-9.53067E-01
 -1     16969 5.46012E+01 1.91300E+01 9.53067E-01
 -1     16970 5.41392E+01 1.82183E+01-9.45004E-01
 -1     16972 5.41392E+01 1.82183E+01 9.45004E-01
 -1     16973 8.09980E+01 3.23479E+01-1.41383E+00
 -1     16975 8.09980E+01 3.23479E+01 1.41383E+00
 -1     16976 4.41561E+01 2.58252E+01-7.70748E-01
 -1     16978 4.41561E+01 2.58252E+01 7.70748E-01
 -1     16979 7.83228E+01 1.97356E+01-1.36713E+00
 -1     16981 7.83228E+01 1.97356E+01 1.36713E+00
 -1     16982 7.73866E+01 1.96955E+01-1.35079E+00
 -1     16984 7.73866E+01 1.96955E+01 1.35079E+00
 -1     16985 7.85611E+01 2.05963E+01-1.37129E+00
 -1     16987 7.85611E+01 2.05963E+01 1.37129E+00
 -1     16988 7.56572E+01 1.82106E+01-1.32060E+00
 -1     16990 7.56572E+01 1.82106E+01 1.32060E+00
 -1     16991 7.46975E+01 1.82230E+01-1.30385E+00
 -1     16993 7.46975E+01 1.82230E+01 1.30385E+00
 -1     16994 7.60700E+01 1.90367E+01-1.32781E+00
 -1     16996 7.60700E+01 1.90367E+01 1.32781E+00
 -1     16997 7.56233E+01 3.04354E+01-1.32001E+00
 -1     16999 7.56233E+01 3.04354E+01 1.32001E+00
 -1     17000 4.32953E+01 2.34133E+01-7.55722E-01
 -1     17002 4.32953E+01 2.34133E+01 7.55722E-01
 -1     17003 4.41857E+01 2.38834E+01-7.71264E-01
 -1     17005 4.41857E+01 2.38834E+01 7.71264E-01
 -1     17006 4.32851E+01 2.24345E+01-7.55544E-01
 -1     17008 4.32851E+01 2.24345E+01 7.55544E-01
 -1     17009 4.73667E+01 1.82868E+01-8.26788E-01
 -1     17011 4.73667E+01 1.82868E+01 8.26788E-01
 -1     17012 4.69062E+01 1.93152E+01-8.18750E-01
 -1     17014 4.69062E+01 1.93152E+01 8.18750E-01
 -1     17015 4.41281E+01 2.77302E+01-7.70259E-01
 -1     17017 4.41281E+01 2.77302E+01 7.70259E-01
 -1     17018 6.10777E+01 2.01041E+01-1.06611E+00
 -1     17020 6.10777E+01 2.01041E+01 1.06611E+00
 -1     17021 6.00759E+01 2.00941E+01-1.04863E+00
 -1     17023 6.00759E+01 2.00941E+01 1.04863E+00
 -1     17024 6.15962E+01 2.10221E+01-1.07517E+00
 -1     17026 6.15962E+01 2.10221E+01 1.07517E+00
 -1     17027 4.51107E+01 2.92050E+01-7.87410E-01
 -1     17029 4.51107E+01 2.92050E+01 7.87410E-01
 -1     17030 4.50024E+01 3.00826E+01-7.85520E-01
 -1     17032 4.50024E+01 3.00826E+01 7.85520E-01
 -1     17033 7.08674E+01 1.82234E+01-1.23700E+00
 -1     17035 7.08674E+01 1.82234E+01 1.23700E+00
 -1     17036 7.03905E+01 1.91053E+01-1.22867E+00
 -1     17038 7.03905E+01 1.91053E+01 1.22867E+00
 -1     17039 7.18370E+01 1.82201E+01-1.25392E+00
 -1     17041 7.18370E+01 1.82201E+01 1.25392E+00
 -1     17042 5.70263E+01 2.00973E+01-9.95399E-01
 -1     17044 5.70263E+01 2.00973E+01 9.95399E-01
 -1     17045 5.60312E+01 2.00905E+01-9.78028E-01
 -1     17047 5.60312E+01 2.00905E+01 9.78028E-01
 -1     17048 4.82615E+01 1.64729E+01-8.42408E-01
 -1     17050 4.82615E+01 1.64729E+01 8.42408E-01
 -1     17051 4.77811E+01 1.73898E+01-8.34022E-01
 -1     17053 4.77811E+01 1.73898E+01 8.34022E-01
 -1     17054 4.83815E+01 1.82050E+01-8.44502E-01
 -1     17056 4.83815E+01 1.82050E+01 8.44502E-01
 -1     17057 4.92666E+01 1.64381E+01-8.59952E-01
 -1     17059 4.92666E+01 1.64381E+01 8.59952E-01
 -1     17060 4.65792E+01 3.07870E+01-8.13043E-01
 -1     17062 4.65792E+01 3.07870E+01 8.13043E-01
 -1     17063 4.72307E+01 2.99349E+01-8.24416E-01
 -1     17065 4.72307E+01 2.99349E+01 8.24416E-01
 -1     17066 5.31730E+01 1.81789E+01-9.28139E-01
 -1     17068 5.31730E+01 1.81789E+01 9.28139E-01
 -1     17069 5.12437E+01 1.63937E+01-8.94462E-01
 -1     17071 5.12437E+01 1.63937E+01 8.94462E-01
 -1     17072 5.02529E+01 1.64031E+01-8.77168E-01
 -1     17074 5.02529E+01 1.64031E+01 8.77168E-01
 -1     17075 4.97823E+01 1.72729E+01-8.68952E-01
 -1     17077 4.97823E+01 1.72729E+01 8.68952E-01
 -1     17078 5.17416E+01 1.72554E+01-9.03152E-01
 -1     17080 5.17416E+01 1.72554E+01 9.03152E-01
 -1     17081 6.70418E+01 2.00944E+01-1.17022E+00
 -1     17083 6.70418E+01 2.00944E+01 1.17022E+00
 -1     17084 6.60612E+01 2.01107E+01-1.15310E+00
 -1     17086 6.60612E+01 2.01107E+01 1.15310E+00
 -1     17087 6.75679E+01 2.09787E+01-1.17940E+00
 -1     17089 6.75679E+01 2.09787E+01 1.17940E+00
 -1     17090 5.50106E+01 2.00835E+01-9.60214E-01
 -1     17092 5.50106E+01 2.00835E+01 9.60214E-01
 -1     17093 5.40410E+01 2.00384E+01-9.43289E-01
 -1     17095 5.40410E+01 2.00384E+01 9.43289E-01
 -1     17096 5.54709E+01 2.09990E+01-9.68249E-01
 -1     17098 5.54709E+01 2.09990E+01 9.68249E-01
 -1     17099 4.69376E+01 2.90591E+01-8.19299E-01
 -1     17101 4.69376E+01 2.90591E+01 8.19299E-01
 -1     17102 4.80690E+01 2.92507E+01-8.39048E-01
 -1     17104 4.80690E+01 2.92507E+01 8.39048E-01
 -1     17105 4.56864E+01 3.05295E+01-7.97459E-01
 -1     17107 4.56864E+01 3.05295E+01 7.97459E-01
 -1     17108 4.45895E+01 3.08689E+01-7.78312E-01
 -1     17110 4.45895E+01 3.08689E+01 7.78312E-01
 -1     17111 4.90233E+01 2.93467E+01-8.55704E-01
 -1     17113 4.90233E+01 2.93467E+01 8.55704E-01
 -1     17114 5.00651E+01 2.93933E+01-8.73889E-01
 -1     17116 5.00651E+01 2.93933E+01 8.73889E-01
 -1     17117 4.87301E+01 2.84710E+01-8.50588E-01
 -1     17119 4.87301E+01 2.84710E+01 8.50588E-01
 -1     17120 7.73996E+01 2.91456E+01-1.35102E+00
 -1     17122 7.73996E+01 2.91456E+01 1.35102E+00
 -1     17123 7.74835E+01 2.81804E+01-1.35248E+00
 -1     17125 7.74835E+01 2.81804E+01 1.35248E+00
 -1     17126 7.64699E+01 2.96096E+01-1.33479E+00
 -1     17128 7.64699E+01 2.96096E+01 1.33479E+00
 -1     17129 4.50296E+01 2.53275E+01-7.85994E-01
 -1     17131 4.50296E+01 2.53275E+01 7.85994E-01
 -1     17132 4.50076E+01 2.62960E+01-7.85610E-01
 -1     17134 4.50076E+01 2.62960E+01 7.85610E-01
 -1     17135 7.54560E+01 2.94298E+01-1.31709E+00
 -1     17137 7.54560E+01 2.94298E+01 1.31709E+00
 -1     17138 4.49999E+01 2.72758E+01-7.85476E-01
 -1     17140 4.49999E+01 2.72758E+01 7.85476E-01
 -1     17141 4.49938E+01 2.82122E+01-7.85370E-01
 -1     17143 4.49938E+01 2.82122E+01 7.85370E-01
 -1     17144 4.59825E+01 2.87505E+01-8.02628E-01
 -1     17146 4.59825E+01 2.87505E+01 8.02628E-01
 -1     17147 4.58733E+01 2.67781E+01-8.00722E-01
 -1     17149 4.58733E+01 2.67781E+01 8.00722E-01
 -1     17150 6.40827E+01 2.01393E+01-1.11857E+00
 -1     17152 6.40827E+01 2.01393E+01 1.11857E+00
 -1     17153 6.36070E+01 2.10523E+01-1.11026E+00
 -1     17155 6.36070E+01 2.10523E+01 1.11026E+00
 -1     17156 6.50692E+01 2.01318E+01-1.13579E+00
 -1     17158 6.50692E+01 2.01318E+01 1.13579E+00
 -1     17159 5.10257E+01 2.94264E+01-8.90657E-01
 -1     17161 5.10257E+01 2.94264E+01 8.90657E-01
 -1     17162 5.20217E+01 2.94438E+01-9.08043E-01
 -1     17164 5.20217E+01 2.94438E+01 9.08043E-01
 -1     17165 5.06450E+01 2.86002E+01-8.84012E-01
 -1     17167 5.06450E+01 2.86002E+01 8.84012E-01
 -1     17168 5.29518E+01 2.94508E+01-9.24277E-01
 -1     17170 5.29518E+01 2.94508E+01 9.24277E-01
 -1     17171 5.39357E+01 2.94358E+01-9.41451E-01
 -1     17173 5.39357E+01 2.94358E+01 9.41451E-01
 -1     17174 5.25357E+01 2.86402E+01-9.17014E-01
 -1     17176 5.25357E+01 2.86402E+01 9.17014E-01
 -1     17177 5.48951E+01 2.93912E+01-9.58198E-01
 -1     17179 5.48951E+01 2.93912E+01 9.58198E-01
 -1     17180 5.58824E+01 2.93392E+01-9.75431E-01
 -1     17182 5.58824E+01 2.93392E+01 9.75431E-01
 -1     17183 5.44251E+01 2.86026E+01-9.49995E-01
 -1     17185 5.44251E+01 2.86026E+01 9.49995E-01
 -1     17186 5.68438E+01 2.92147E+01-9.92213E-01
 -1     17188 5.68438E+01 2.92147E+01 9.92213E-01
 -1     17189 5.78400E+01 2.91448E+01-1.00960E+00
 -1     17191 5.78400E+01 2.91448E+01 1.00960E+00
 -1     17192 5.63460E+01 2.84334E+01-9.83523E-01
 -1     17194 5.63460E+01 2.84334E+01 9.83523E-01
 -1     17195 5.89093E+01 2.89956E+01-1.02827E+00
 -1     17197 5.89093E+01 2.89956E+01 1.02827E+00
 -1     17198 5.99035E+01 2.90103E+01-1.04562E+00
 -1     17200 5.99035E+01 2.90103E+01 1.04562E+00
 -1     17201 5.83767E+01 2.81597E+01-1.01897E+00
 -1     17203 5.83767E+01 2.81597E+01 1.01897E+00
 -1     17204 6.09360E+01 2.92262E+01-1.06364E+00
 -1     17206 6.09360E+01 2.92262E+01 1.06364E+00
 -1     17207 6.19356E+01 2.92937E+01-1.08109E+00
 -1     17209 6.19356E+01 2.92937E+01 1.08109E+00
 -1     17210 6.04785E+01 2.82264E+01-1.05566E+00
 -1     17212 6.04785E+01 2.82264E+01 1.05566E+00
 -1     17213 6.29126E+01 2.93599E+01-1.09814E+00
 -1     17215 6.29126E+01 2.93599E+01 1.09814E+00
 -1     17216 6.39034E+01 2.93748E+01-1.11544E+00
 -1     17218 6.39034E+01 2.93748E+01 1.11544E+00
 -1     17219 6.24880E+01 2.85084E+01-1.09073E+00
 -1     17221 6.24880E+01 2.85084E+01 1.09073E+00
 -1     17222 6.48525E+01 2.93219E+01-1.13200E+00
 -1     17224 6.48525E+01 2.93219E+01 1.13200E+00
 -1     17225 6.58377E+01 2.92989E+01-1.14920E+00
 -1     17227 6.58377E+01 2.92989E+01 1.14920E+00
 -1     17228 6.44141E+01 2.85215E+01-1.12435E+00
 -1     17230 6.44141E+01 2.85215E+01 1.12435E+00
 -1     17231 6.68242E+01 2.92618E+01-1.16642E+00
 -1     17233 6.68242E+01 2.92618E+01 1.16642E+00
 -1     17234 6.78256E+01 2.92425E+01-1.18390E+00
 -1     17236 6.78256E+01 2.92425E+01 1.18390E+00
 -1     17237 6.63497E+01 2.84314E+01-1.15814E+00
 -1     17239 6.63497E+01 2.84314E+01 1.15814E+00
 -1     17240 6.88527E+01 2.92214E+01-1.20183E+00
 -1     17242 6.88527E+01 2.92214E+01 1.20183E+00
 -1     17243 6.98756E+01 2.92191E+01-1.21968E+00
 -1     17245 6.98756E+01 2.92191E+01 1.21968E+00
 -1     17246 6.83633E+01 2.83733E+01-1.19329E+00
 -1     17248 6.83633E+01 2.83733E+01 1.19329E+00
 -1     17249 7.09385E+01 2.92315E+01-1.23824E+00
 -1     17251 7.09385E+01 2.92315E+01 1.23824E+00
 -1     17252 7.19855E+01 2.92565E+01-1.25651E+00
 -1     17254 7.19855E+01 2.92565E+01 1.25651E+00
 -1     17255 7.04532E+01 2.83646E+01-1.22976E+00
 -1     17257 7.04532E+01 2.83646E+01 1.22976E+00
 -1     17258 7.30970E+01 2.93161E+01-1.27591E+00
 -1     17260 7.30970E+01 2.93161E+01 1.27591E+00
 -1     17261 7.41742E+01 2.93759E+01-1.29472E+00
 -1     17263 7.41742E+01 2.93759E+01 1.29472E+00
 -1     17264 7.26275E+01 2.84366E+01-1.26772E+00
 -1     17266 7.26275E+01 2.84366E+01 1.26772E+00
 -1     17267 5.90557E+01 2.00851E+01-1.03082E+00
 -1     17269 5.90557E+01 2.00851E+01 1.03082E+00
 -1     17270 5.80533E+01 2.00825E+01-1.01332E+00
 -1     17272 5.80533E+01 2.00825E+01 1.01332E+00
 -1     17273 5.95654E+01 2.09856E+01-1.03972E+00
 -1     17275 5.95654E+01 2.09856E+01 1.03972E+00
 -1     17276 5.75184E+01 2.09913E+01-1.00399E+00
 -1     17278 5.75184E+01 2.09913E+01 1.00399E+00
 -1     17279 4.76978E+01 1.99672E+01-8.32568E-01
 -1     17281 4.76978E+01 1.99672E+01 8.32568E-01
 -1     17282 4.66369E+01 2.01804E+01-8.14051E-01
 -1     17284 4.66369E+01 2.01804E+01 8.14051E-01
 -1     17285 7.37561E+01 1.82304E+01-1.28742E+00
 -1     17287 7.37561E+01 1.82304E+01 1.28742E+00
 -1     17288 7.27940E+01 1.82329E+01-1.27062E+00
 -1     17290 7.27940E+01 1.82329E+01 1.27062E+00
 -1     17291 7.23116E+01 1.91049E+01-1.26220E+00
 -1     17293 7.23116E+01 1.91049E+01 1.26220E+00
 -1     17294 7.42100E+01 1.91103E+01-1.29534E+00
 -1     17296 7.42100E+01 1.91103E+01 1.29534E+00
 -1     17297 6.99262E+01 1.99686E+01-1.22057E+00
 -1     17299 6.99262E+01 1.99686E+01 1.22057E+00
 -1     17300 6.94853E+01 2.08816E+01-1.21287E+00
 -1     17302 6.94853E+01 2.08816E+01 1.21287E+00
 -1     17303 7.08903E+01 1.99554E+01-1.23739E+00
 -1     17305 7.08903E+01 1.99554E+01 1.23739E+00
 -1     17306 5.80191E+01 2.18790E+01-1.01273E+00
 -1     17308 5.80191E+01 2.18790E+01 1.01273E+00
 -1     17309 5.69922E+01 2.18938E+01-9.94802E-01
 -1     17311 5.69922E+01 2.18938E+01 9.94802E-01
 -1     17312 5.34766E+01 2.08917E+01-9.33438E-01
 -1     17314 5.34766E+01 2.08917E+01 9.33438E-01
 -1     17315 5.30672E+01 1.99382E+01-9.26291E-01
 -1     17317 5.30672E+01 1.99382E+01 9.26291E-01
 -1     17318 7.50209E+01 2.85501E+01-1.30949E+00
 -1     17320 7.50209E+01 2.85501E+01 1.30949E+00
 -1     17321 4.68208E+01 2.80664E+01-8.17260E-01
 -1     17323 4.68208E+01 2.80664E+01 8.17260E-01
 -1     17324 7.85551E+01 2.15427E+01-1.37118E+00
 -1     17326 7.85551E+01 2.15427E+01 1.37118E+00
 -1     17327 7.77787E+01 2.13669E+01-1.35763E+00
 -1     17329 7.77787E+01 2.13669E+01 1.35763E+00
 -1     17330 7.87198E+01 2.23147E+01-1.37406E+00
 -1     17332 7.87198E+01 2.23147E+01 1.37406E+00
 -1     17333 6.55990E+01 2.10340E+01-1.14504E+00
 -1     17335 6.55990E+01 2.10340E+01 1.14504E+00
 -1     17336 7.69615E+01 2.06426E+01-1.34337E+00
 -1     17338 7.69615E+01 2.06426E+01 1.34337E+00
 -1     17339 7.65634E+01 1.99175E+01-1.33642E+00
 -1     17341 7.65634E+01 1.99175E+01 1.33642E+00
 -1     17342 7.56449E+01 1.99838E+01-1.32039E+00
 -1     17344 7.56449E+01 1.99838E+01 1.32039E+00
 -1     17345 7.69555E+01 2.15890E+01-1.34326E+00
 -1     17347 7.69555E+01 2.15890E+01 1.34326E+00
 -1     17348 4.51362E+01 2.43575E+01-7.87855E-01
 -1     17350 4.51362E+01 2.43575E+01 7.87855E-01
 -1     17351 4.59876E+01 2.48283E+01-8.02717E-01
 -1     17353 4.59876E+01 2.48283E+01 8.02717E-01
 -1     17354 4.51437E+01 2.33842E+01-7.87987E-01
 -1     17356 4.51437E+01 2.33842E+01 7.87987E-01
 -1     17357 7.78275E+01 2.71322E+01-1.35848E+00
 -1     17359 7.78275E+01 2.71322E+01 1.35848E+00
 -1     17360 7.79769E+01 2.61517E+01-1.36109E+00
 -1     17362 7.79769E+01 2.61517E+01 1.36109E+00
 -1     17363 6.81479E+01 2.18861E+01-1.18953E+00
 -1     17365 6.81479E+01 2.18861E+01 1.18953E+00
 -1     17366 6.71710E+01 2.19203E+01-1.17247E+00
 -1     17368 6.71710E+01 2.19203E+01 1.17247E+00
 -1     17369 7.66466E+01 2.75558E+01-1.33787E+00
 -1     17371 7.66466E+01 2.75558E+01 1.33787E+00
 -1     17372 6.41458E+01 2.20085E+01-1.11967E+00
 -1     17374 6.41458E+01 2.20085E+01 1.11967E+00
 -1     17375 6.31458E+01 2.20058E+01-1.10221E+00
 -1     17377 6.31458E+01 2.20058E+01 1.10221E+00
 -1     17378 7.85110E+01 2.31185E+01-1.37041E+00
 -1     17380 7.85110E+01 2.31185E+01 1.37041E+00
 -1     17381 6.21222E+01 2.19585E+01-1.08435E+00
 -1     17383 6.21222E+01 2.19585E+01 1.08435E+00
 -1     17384 6.11115E+01 2.19310E+01-1.06671E+00
 -1     17386 6.11115E+01 2.19310E+01 1.06671E+00
 -1     17387 6.26611E+01 2.29147E+01-1.09375E+00
 -1     17389 6.26611E+01 2.29147E+01 1.09375E+00
 -1     17390 4.41574E+01 2.19171E+01-7.70771E-01
 -1     17392 4.41574E+01 2.19171E+01 7.70771E-01
 -1     17393 7.81626E+01 2.51159E+01-1.36433E+00
 -1     17395 7.81626E+01 2.51159E+01 1.36433E+00
 -1     17396 7.83056E+01 2.41798E+01-1.36683E+00
 -1     17398 7.83056E+01 2.41798E+01 1.36683E+00
 -1     17399 7.71763E+01 2.54718E+01-1.34712E+00
 -1     17401 7.71763E+01 2.54718E+01 1.34712E+00
 -1     17402 7.75673E+01 2.33747E+01-1.35394E+00
 -1     17404 7.75673E+01 2.33747E+01 1.35394E+00
 -1     17405 4.85812E+01 1.99329E+01-8.47988E-01
 -1     17407 4.85812E+01 1.99329E+01 8.47988E-01
 -1     17408 4.83120E+01 2.07981E+01-8.43289E-01
 -1     17410 4.83120E+01 2.07981E+01 8.43289E-01
 -1     17411 4.59001E+01 2.06909E+01-8.01189E-01
 -1     17413 4.59001E+01 2.06909E+01 8.01189E-01
 -1     17414 4.50383E+01 2.13888E+01-7.86146E-01
 -1     17416 4.50383E+01 2.13888E+01 7.86146E-01
 -1     17417 4.50740E+01 2.23817E+01-7.86770E-01
 -1     17419 4.50740E+01 2.23817E+01 7.86770E-01
 -1     17420 4.66917E+01 2.13429E+01-8.15007E-01
 -1     17422 4.66917E+01 2.13429E+01 8.15007E-01
 -1     17423 4.93278E+01 1.81089E+01-8.61020E-01
 -1     17425 4.93278E+01 1.81089E+01 8.61020E-01
 -1     17426 4.89134E+01 1.90060E+01-8.53786E-01
 -1     17428 4.89134E+01 1.90060E+01 8.53786E-01
 -1     17429 4.95275E+01 1.98368E+01-8.64506E-01
 -1     17431 4.95275E+01 1.98368E+01 8.64506E-01
 -1     17432 5.03141E+01 1.80739E+01-8.78237E-01
 -1     17434 5.03141E+01 1.80739E+01 8.78237E-01
 -1     17435 5.26984E+01 1.89941E+01-9.19854E-01
 -1     17437 5.26984E+01 1.89941E+01 9.19854E-01
 -1     17438 5.22399E+01 1.80881E+01-9.11851E-01
 -1     17440 5.22399E+01 1.80881E+01 9.11851E-01
 -1     17441 5.12670E+01 1.80706E+01-8.94868E-01
 -1     17443 5.12670E+01 1.80706E+01 8.94868E-01
 -1     17444 5.59159E+01 2.19567E+01-9.76015E-01
 -1     17446 5.59159E+01 2.19567E+01 9.76015E-01
 -1     17447 5.48953E+01 2.19496E+01-9.58202E-01
 -1     17449 5.48953E+01 2.19496E+01 9.58202E-01
 -1     17450 5.64166E+01 2.28443E+01-9.84755E-01
 -1     17452 5.64166E+01 2.28443E+01 9.84755E-01
 -1     17453 5.21341E+01 1.98474E+01-9.10003E-01
 -1     17455 5.21341E+01 1.98474E+01 9.10003E-01
 -1     17456 6.91201E+01 2.18257E+01-1.20650E+00
 -1     17458 6.91201E+01 2.18257E+01 1.20650E+00
 -1     17459 6.87232E+01 2.27673E+01-1.19957E+00
 -1     17461 6.87232E+01 2.27673E+01 1.19957E+00
 -1     17462 7.00607E+01 2.17628E+01-1.22291E+00
 -1     17464 7.00607E+01 2.17628E+01 1.22291E+00
 -1     17465 5.37440E+01 2.19284E+01-9.38106E-01
 -1     17467 5.37440E+01 2.19284E+01 9.38106E-01
 -1     17468 5.27702E+01 2.18282E+01-9.21108E-01
 -1     17470 5.27702E+01 2.18282E+01 9.21108E-01
 -1     17471 5.41890E+01 2.28861E+01-9.45872E-01
 -1     17473 5.41890E+01 2.28861E+01 9.45872E-01
 -1     17474 5.90594E+01 2.18619E+01-1.03089E+00
 -1     17476 5.90594E+01 2.18619E+01 1.03089E+00
 -1     17477 5.85332E+01 2.27643E+01-1.02170E+00
 -1     17479 5.85332E+01 2.27643E+01 1.02170E+00
 -1     17480 6.00795E+01 2.18709E+01-1.04869E+00
 -1     17482 6.00795E+01 2.18709E+01 1.04869E+00
 -1     17483 4.65933E+01 2.72468E+01-8.13289E-01
 -1     17485 4.65933E+01 2.72468E+01 8.13289E-01
 -1     17486 4.75484E+01 2.75554E+01-8.29961E-01
 -1     17488 4.75484E+01 2.75554E+01 8.29961E-01
 -1     17489 4.66010E+01 2.62671E+01-8.13423E-01
 -1     17491 4.66010E+01 2.62671E+01 8.13423E-01
 -1     17492 7.18429E+01 1.99665E+01-1.25402E+00
 -1     17494 7.18429E+01 1.99665E+01 1.25402E+00
 -1     17495 7.13786E+01 2.08298E+01-1.24592E+00
 -1     17497 7.13786E+01 2.08298E+01 1.24592E+00
 -1     17498 7.27999E+01 1.99793E+01-1.27073E+00
 -1     17500 7.27999E+01 1.99793E+01 1.27073E+00
 -1     17501 7.63993E+01 2.37360E+01-1.33355E+00
 -1     17503 7.63993E+01 2.37360E+01 1.33355E+00
 -1     17504 7.66047E+01 2.26747E+01-1.33714E+00
 -1     17506 7.66047E+01 2.26747E+01 1.33714E+00
 -1     17507 4.87522E+01 2.17804E+01-8.50973E-01
 -1     17509 4.87522E+01 2.17804E+01 8.50973E-01
 -1     17510 4.78688E+01 2.18148E+01-8.35554E-01
 -1     17512 4.78688E+01 2.18148E+01 8.35554E-01
 -1     17513 6.61609E+01 2.19538E+01-1.15484E+00
 -1     17515 6.61609E+01 2.19538E+01 1.15484E+00
 -1     17516 6.51689E+01 2.19749E+01-1.13753E+00
 -1     17518 6.51689E+01 2.19749E+01 1.13753E+00
 -1     17519 6.47077E+01 2.29284E+01-1.12948E+00
 -1     17521 6.47077E+01 2.29284E+01 1.12948E+00
 -1     17522 6.67409E+01 2.28612E+01-1.16497E+00
 -1     17524 6.67409E+01 2.28612E+01 1.16497E+00
 -1     17525 5.02376E+01 2.78182E+01-8.76901E-01
 -1     17527 5.02376E+01 2.78182E+01 8.76901E-01
 -1     17528 5.11982E+01 2.78514E+01-8.93669E-01
 -1     17530 5.11982E+01 2.78514E+01 8.93669E-01
 -1     17531 5.20879E+01 2.77129E+01-9.09197E-01
 -1     17533 5.20879E+01 2.77129E+01 9.09197E-01
 -1     17534 5.30179E+01 2.77198E+01-9.25431E-01
 -1     17536 5.30179E+01 2.77198E+01 9.25431E-01
 -1     17537 5.16805E+01 2.69310E+01-9.02086E-01
 -1     17539 5.16805E+01 2.69310E+01 9.02086E-01
 -1     17540 5.38952E+01 2.78812E+01-9.40745E-01
 -1     17542 5.38952E+01 2.78812E+01 9.40745E-01
 -1     17543 5.48546E+01 2.78367E+01-9.57491E-01
 -1     17545 5.48546E+01 2.78367E+01 9.57491E-01
 -1     17546 5.34474E+01 2.69540E+01-9.32928E-01
 -1     17548 5.34474E+01 2.69540E+01 9.32928E-01
 -1     17549 5.56937E+01 2.76044E+01-9.72137E-01
 -1     17551 5.56937E+01 2.76044E+01 9.72137E-01
 -1     17552 5.66552E+01 2.74798E+01-9.88919E-01
 -1     17554 5.66552E+01 2.74798E+01 9.88919E-01
 -1     17555 5.51638E+01 2.68831E+01-9.62887E-01
 -1     17557 5.51638E+01 2.68831E+01 9.62887E-01
 -1     17558 5.75833E+01 2.73409E+01-1.00512E+00
 -1     17560 5.75833E+01 2.73409E+01 1.00512E+00
 -1     17561 5.86526E+01 2.71918E+01-1.02378E+00
 -1     17563 5.86526E+01 2.71918E+01 1.02378E+00
 -1     17564 5.69310E+01 2.65119E+01-9.93734E-01
 -1     17566 5.69310E+01 2.65119E+01 9.93734E-01
 -1     17567 6.02627E+01 2.72623E+01-1.05189E+00
 -1     17569 6.02627E+01 2.72623E+01 1.05189E+00
 -1     17570 6.12952E+01 2.74781E+01-1.06991E+00
 -1     17572 6.12952E+01 2.74781E+01 1.06991E+00
 -1     17573 5.86847E+01 2.61808E+01-1.02435E+00
 -1     17575 5.86847E+01 2.61808E+01 1.02435E+00
 -1     17576 5.94782E+01 2.69996E+01-1.03820E+00
 -1     17578 5.94782E+01 2.69996E+01 1.03820E+00
 -1     17579 6.20717E+01 2.77519E+01-1.08347E+00
 -1     17581 6.20717E+01 2.77519E+01 1.08347E+00
 -1     17582 6.30487E+01 2.78180E+01-1.10052E+00
 -1     17584 6.30487E+01 2.78180E+01 1.10052E+00
 -1     17585 6.18560E+01 2.67877E+01-1.07970E+00
 -1     17587 6.18560E+01 2.67877E+01 1.07970E+00
 -1     17588 6.38791E+01 2.76643E+01-1.11501E+00
 -1     17590 6.38791E+01 2.76643E+01 1.11501E+00
 -1     17591 6.48282E+01 2.76113E+01-1.13158E+00
 -1     17593 6.48282E+01 2.76113E+01 1.13158E+00
 -1     17594 6.34629E+01 2.69078E+01-1.10775E+00
 -1     17596 6.34629E+01 2.69078E+01 1.10775E+00
 -1     17597 6.57878E+01 2.75479E+01-1.14833E+00
 -1     17599 6.57878E+01 2.75479E+01 1.14833E+00
 -1     17600 6.67744E+01 2.75108E+01-1.16555E+00
 -1     17602 6.67744E+01 2.75108E+01 1.16555E+00
 -1     17603 6.52529E+01 2.66906E+01-1.13899E+00
 -1     17605 6.52529E+01 2.66906E+01 1.13899E+00
 -1     17606 6.77907E+01 2.74760E+01-1.18329E+00
 -1     17608 6.77907E+01 2.74760E+01 1.18329E+00
 -1     17609 6.88177E+01 2.74550E+01-1.20122E+00
 -1     17611 6.88177E+01 2.74550E+01 1.20122E+00
 -1     17612 6.72288E+01 2.65925E+01-1.17348E+00
 -1     17614 6.72288E+01 2.65925E+01 1.17348E+00
 -1     17615 6.98963E+01 2.74236E+01-1.22005E+00
 -1     17617 6.98963E+01 2.74236E+01 1.22005E+00
 -1     17618 7.09592E+01 2.74360E+01-1.23860E+00
 -1     17620 7.09592E+01 2.74360E+01 1.23860E+00
 -1     17621 6.93237E+01 2.65263E+01-1.21005E+00
 -1     17623 6.93237E+01 2.65263E+01 1.21005E+00
 -1     17624 7.20631E+01 2.74812E+01-1.25787E+00
 -1     17626 7.20631E+01 2.74812E+01 1.25787E+00
 -1     17627 7.31746E+01 2.75408E+01-1.27727E+00
 -1     17629 7.31746E+01 2.75408E+01 1.27727E+00
 -1     17630 7.15063E+01 2.65402E+01-1.24815E+00
 -1     17632 7.15063E+01 2.65402E+01 1.24815E+00
 -1     17633 4.84246E+01 2.75459E+01-8.45255E-01
 -1     17635 4.84246E+01 2.75459E+01 8.45255E-01
 -1     17636 4.93788E+01 2.76420E+01-8.61911E-01
 -1     17638 4.93788E+01 2.76420E+01 8.61911E-01
 -1     17639 4.99321E+01 2.68932E+01-8.71568E-01
 -1     17641 4.99321E+01 2.68932E+01 8.71568E-01
 -1     17642 4.81971E+01 2.67264E+01-8.41284E-01
 -1     17644 4.81971E+01 2.67264E+01 8.41284E-01
 -1     17645 5.08125E+01 1.89066E+01-8.86936E-01
 -1     17647 5.08125E+01 1.89066E+01 8.86936E-01
 -1     17648 6.06055E+01 2.28073E+01-1.05787E+00
 -1     17650 6.06055E+01 2.28073E+01 1.05787E+00
 -1     17651 7.09142E+01 2.15912E+01-1.23781E+00
 -1     17653 7.09142E+01 2.15912E+01 1.23781E+00
 -1     17654 7.05490E+01 2.25353E+01-1.23144E+00
 -1     17656 7.05490E+01 2.25353E+01 1.23144E+00
 -1     17657 7.18669E+01 2.16023E+01-1.25444E+00
 -1     17659 7.18669E+01 2.16023E+01 1.25444E+00
 -1     17660 4.69142E+01 2.53967E+01-8.18890E-01
 -1     17662 4.69142E+01 2.53967E+01 8.18890E-01
 -1     17663 4.76341E+01 2.58654E+01-8.31457E-01
 -1     17665 4.76341E+01 2.58654E+01 8.31457E-01
 -1     17666 4.70208E+01 2.44267E+01-8.20751E-01
 -1     17668 4.70208E+01 2.44267E+01 8.20751E-01
 -1     17669 7.42814E+01 2.76469E+01-1.29659E+00
 -1     17671 7.42814E+01 2.76469E+01 1.29659E+00
 -1     17672 7.55632E+01 2.77008E+01-1.31896E+00
 -1     17674 7.55632E+01 2.77008E+01 1.31896E+00
 -1     17675 7.59072E+01 2.66526E+01-1.32496E+00
 -1     17677 7.59072E+01 2.66526E+01 1.32496E+00
 -1     17678 7.57875E+01 2.19503E+01-1.32288E+00
 -1     17680 7.57875E+01 2.19503E+01 1.32288E+00
 -1     17681 4.60245E+01 2.28558E+01-8.03361E-01
 -1     17683 4.60245E+01 2.28558E+01 8.03361E-01
 -1     17684 4.71320E+01 2.23252E+01-8.22692E-01
 -1     17686 4.71320E+01 2.23252E+01 8.22692E-01
 -1     17687 6.53196E+01 2.38576E+01-1.14016E+00
 -1     17689 6.53196E+01 2.38576E+01 1.14016E+00
 -1     17690 6.42965E+01 2.38912E+01-1.12230E+00
 -1     17692 6.42965E+01 2.38912E+01 1.12230E+00
 -1     17693 6.31941E+01 2.39950E+01-1.10306E+00
 -1     17695 6.31941E+01 2.39950E+01 1.10306E+00
 -1     17696 6.21705E+01 2.39477E+01-1.08519E+00
 -1     17698 6.21705E+01 2.39477E+01 1.08519E+00
 -1     17699 6.38059E+01 2.49242E+01-1.11374E+00
 -1     17701 6.38059E+01 2.49242E+01 1.11374E+00
 -1     17702 7.51884E+01 2.09271E+01-1.31242E+00
 -1     17704 7.51884E+01 2.09271E+01 1.31242E+00
 -1     17705 7.46949E+01 2.00462E+01-1.30380E+00
 -1     17707 7.46949E+01 2.00462E+01 1.30380E+00
 -1     17708 7.63239E+01 2.58227E+01-1.33224E+00
 -1     17710 7.63239E+01 2.58227E+01 1.33224E+00
 -1     17711 7.65096E+01 2.47869E+01-1.33548E+00
 -1     17713 7.65096E+01 2.47869E+01 1.33548E+00
 -1     17714 7.37535E+01 2.00536E+01-1.28737E+00
 -1     17716 7.37535E+01 2.00536E+01 1.28737E+00
 -1     17717 6.93945E+01 2.36737E+01-1.21129E+00
 -1     17719 6.93945E+01 2.36737E+01 1.21129E+00
 -1     17720 6.84223E+01 2.37341E+01-1.19431E+00
 -1     17722 6.84223E+01 2.37341E+01 1.19431E+00
 -1     17723 7.37170E+01 2.66916E+01-1.28673E+00
 -1     17725 7.37170E+01 2.66916E+01 1.28673E+00
 -1     17726 5.19147E+01 2.25441E+01-9.06174E-01
 -1     17728 5.19147E+01 2.25441E+01 9.06174E-01
 -1     17729 5.16473E+01 2.15073E+01-9.01506E-01
 -1     17731 5.16473E+01 2.15073E+01 9.01506E-01
 -1     17732 5.13035E+01 1.96248E+01-8.95505E-01
 -1     17734 5.13035E+01 1.96248E+01 8.95505E-01
 -1     17735 5.03506E+01 1.96281E+01-8.78874E-01
 -1     17737 5.03506E+01 1.96281E+01 8.78874E-01
 -1     17738 5.00185E+01 2.05550E+01-8.73076E-01
 -1     17740 5.00185E+01 2.05550E+01 8.73076E-01
 -1     17741 5.16722E+01 2.05689E+01-9.01942E-01
 -1     17743 5.16722E+01 2.05689E+01 9.01942E-01
 -1     17744 6.73633E+01 2.37768E+01-1.17583E+00
 -1     17746 6.73633E+01 2.37768E+01 1.17583E+00
 -1     17747 6.63532E+01 2.38103E+01-1.15820E+00
 -1     17749 6.63532E+01 2.38103E+01 1.15820E+00
 -1     17750 6.80346E+01 2.46832E+01-1.18755E+00
 -1     17752 6.80346E+01 2.46832E+01 1.18755E+00
 -1     17753 5.70170E+01 2.37321E+01-9.95235E-01
 -1     17755 5.70170E+01 2.37321E+01 9.95235E-01
 -1     17756 5.59407E+01 2.37949E+01-9.76448E-01
 -1     17758 5.59407E+01 2.37949E+01 9.76448E-01
 -1     17759 4.99935E+01 2.14935E+01-8.72640E-01
 -1     17761 4.99935E+01 2.14935E+01 8.72640E-01
 -1     17762 4.95504E+01 2.25102E+01-8.64905E-01
 -1     17764 4.95504E+01 2.25102E+01 8.64905E-01
 -1     17765 7.52405E+01 2.59677E+01-1.31333E+00
 -1     17767 7.52405E+01 2.59677E+01 1.31333E+00
 -1     17768 7.55470E+01 2.40869E+01-1.31868E+00
 -1     17770 7.55470E+01 2.40869E+01 1.31868E+00
 -1     17771 5.80276E+01 2.36230E+01-1.01288E+00
 -1     17773 5.80276E+01 2.36230E+01 1.01288E+00
 -1     17774 5.75517E+01 2.45736E+01-1.00457E+00
 -1     17776 5.75517E+01 2.45736E+01 1.00457E+00
 -1     17777 5.90679E+01 2.36059E+01-1.03103E+00
 -1     17779 5.90679E+01 2.36059E+01 1.03103E+00
 -1     17780 5.08167E+01 2.12847E+01-8.87008E-01
 -1     17782 5.08167E+01 2.12847E+01 8.87008E-01
 -1     17783 7.47161E+01 2.49824E+01-1.30417E+00
 -1     17785 7.47161E+01 2.49824E+01 1.30417E+00
 -1     17786 7.46058E+01 2.39315E+01-1.30225E+00
 -1     17788 7.46058E+01 2.39315E+01 1.30225E+00
 -1     17789 5.47400E+01 2.39741E+01-9.55490E-01
 -1     17791 5.47400E+01 2.39741E+01 9.55490E-01
 -1     17792 5.35887E+01 2.39529E+01-9.35394E-01
 -1     17794 5.35887E+01 2.39529E+01 9.35394E-01
 -1     17795 5.53404E+01 2.48618E+01-9.65970E-01
 -1     17797 5.53404E+01 2.48618E+01 9.65970E-01
 -1     17798 7.32849E+01 2.09152E+01-1.27919E+00
 -1     17800 7.32849E+01 2.09152E+01 1.27919E+00
 -1     17801 7.48375E+01 2.20128E+01-1.30629E+00
 -1     17803 7.48375E+01 2.20128E+01 1.30629E+00
 -1     17804 6.59420E+01 2.47732E+01-1.15102E+00
 -1     17806 6.59420E+01 2.47732E+01 1.15102E+00
 -1     17807 5.08189E+01 2.59211E+01-8.87047E-01
 -1     17809 5.08189E+01 2.59211E+01 8.87047E-01
 -1     17810 5.17085E+01 2.57826E+01-9.02575E-01
 -1     17812 5.17085E+01 2.57826E+01 9.02575E-01
 -1     17813 7.43004E+01 2.29227E+01-1.29692E+00
 -1     17815 7.43004E+01 2.29227E+01 1.29692E+00
 -1     17816 7.37013E+01 2.18995E+01-1.28646E+00
 -1     17818 7.37013E+01 2.18995E+01 1.28646E+00
 -1     17819 7.27477E+01 2.18252E+01-1.26982E+00
 -1     17821 7.27477E+01 2.18252E+01 1.26982E+00
 -1     17822 7.34696E+01 2.38182E+01-1.28242E+00
 -1     17824 7.34696E+01 2.38182E+01 1.28242E+00
 -1     17825 7.05603E+01 2.35652E+01-1.23163E+00
 -1     17827 7.05603E+01 2.35652E+01 1.23163E+00
 -1     17828 7.02593E+01 2.45320E+01-1.22638E+00
 -1     17830 7.02593E+01 2.45320E+01 1.22638E+00
 -1     17831 5.19423E+01 2.38188E+01-9.06656E-01
 -1     17833 5.19423E+01 2.38188E+01 9.06656E-01
 -1     17834 5.08193E+01 2.34980E+01-8.87054E-01
 -1     17836 5.08193E+01 2.34980E+01 8.87054E-01
 -1     17837 5.33549E+01 2.59167E+01-9.31313E-01
 -1     17839 5.33549E+01 2.59167E+01 9.31313E-01
 -1     17840 5.42322E+01 2.60781E+01-9.46627E-01
 -1     17842 5.42322E+01 2.60781E+01 9.46627E-01
 -1     17843 5.50713E+01 2.58458E+01-9.61273E-01
 -1     17845 5.50713E+01 2.58458E+01 9.61273E-01
 -1     17846 5.62720E+01 2.56667E+01-9.82231E-01
 -1     17848 5.62720E+01 2.56667E+01 9.82231E-01
 -1     17849 5.72001E+01 2.55278E+01-9.98432E-01
 -1     17851 5.72001E+01 2.55278E+01 9.98432E-01
 -1     17852 6.18915E+01 2.57709E+01-1.08032E+00
 -1     17854 6.18915E+01 2.57709E+01 1.08032E+00
 -1     17855 6.26680E+01 2.60447E+01-1.09387E+00
 -1     17857 6.26680E+01 2.60447E+01 1.09387E+00
 -1     17858 6.34984E+01 2.58910E+01-1.10837E+00
 -1     17860 6.34984E+01 2.58910E+01 1.10837E+00
 -1     17861 6.46008E+01 2.57872E+01-1.12761E+00
 -1     17863 6.46008E+01 2.57872E+01 1.12761E+00
 -1     17864 6.55604E+01 2.57238E+01-1.14436E+00
 -1     17866 6.55604E+01 2.57238E+01 1.14436E+00
 -1     17867 6.65941E+01 2.56766E+01-1.16240E+00
 -1     17869 6.65941E+01 2.56766E+01 1.16240E+00
 -1     17870 6.76104E+01 2.56418E+01-1.18014E+00
 -1     17872 6.76104E+01 2.56418E+01 1.18014E+00
 -1     17873 6.86693E+01 2.55991E+01-1.19863E+00
 -1     17875 6.86693E+01 2.55991E+01 1.19863E+00
 -1     17876 6.97479E+01 2.55677E+01-1.21745E+00
 -1     17878 6.97479E+01 2.55677E+01 1.21745E+00
 -1     17879 7.09137E+01 2.54592E+01-1.23780E+00
 -1     17881 7.09137E+01 2.54592E+01 1.23780E+00
 -1     17882 7.20177E+01 2.55045E+01-1.25707E+00
 -1     17884 7.20177E+01 2.55045E+01 1.25707E+00
 -1     17885 4.72017E+01 2.33277E+01-8.23908E-01
 -1     17887 4.72017E+01 2.33277E+01 8.23908E-01
 -1     17888 4.95780E+01 2.37849E+01-8.65387E-01
 -1     17890 4.95780E+01 2.37849E+01 8.65387E-01
 -1     17891 6.11070E+01 2.37052E+01-1.06663E+00
 -1     17893 6.11070E+01 2.37052E+01 1.06663E+00
 -1     17894 6.00750E+01 2.36451E+01-1.04861E+00
 -1     17896 6.00750E+01 2.36451E+01 1.04861E+00
 -1     17897 5.95694E+01 2.45037E+01-1.03979E+00
 -1     17899 5.95694E+01 2.45037E+01 1.03979E+00
 -1     17900 6.16400E+01 2.47854E+01-1.07593E+00
 -1     17902 6.16400E+01 2.47854E+01 1.07593E+00
 -1     17903 5.24933E+01 2.49068E+01-9.16274E-01
 -1     17905 5.24933E+01 2.49068E+01 9.16274E-01
 -1     17906 4.85103E+01 2.58560E+01-8.46751E-01
 -1     17908 4.85103E+01 2.58560E+01 8.46751E-01
 -1     17909 7.31926E+01 2.57062E+01-1.27758E+00
 -1     17911 7.31926E+01 2.57062E+01 1.27758E+00
 -1     17912 7.42993E+01 2.58124E+01-1.29690E+00
 -1     17914 7.42993E+01 2.58124E+01 1.29690E+00
 -1     17915 5.82107E+01 2.54187E+01-1.01607E+00
 -1     17917 5.82107E+01 2.54187E+01 1.01607E+00
 -1     17918 4.81282E+01 2.38961E+01-8.40081E-01
 -1     17920 4.81282E+01 2.38961E+01 8.40081E-01
 -1     17921 7.26000E+01 2.46253E+01-1.26724E+00
 -1     17923 7.26000E+01 2.46253E+01 1.26724E+00
 -1     17924 4.93971E+01 2.48839E+01-8.62230E-01
 -1     17926 4.93971E+01 2.48839E+01 8.62230E-01
 -1     17927 5.90363E+01 2.52266E+01-1.03048E+00
 -1     17929 5.90363E+01 2.52266E+01 1.03048E+00
 -1     17930 4.99601E+01 2.57448E+01-8.72057E-01
 -1     17932 4.99601E+01 2.57448E+01 8.72057E-01
 -3
    3C                          2178                                     1
 -1         1    5    0    1
 -2      4484      4496      4751      4486      4498      4753      7943      7946      7949      4485
 -2      4497      4752      7945      7948      7951
 -1         2    5    0    1
 -2      4496      4499      4862      4498      4501      4864      7952      7955      7958      4497
 -2      4500      4863      7954      7957      7960
 -1         3    5    0    1
 -2      4502      4505      4865      4504      4507      4867      7961      7964      7967      4503
 -2      4506      4866      7963      7966      7969
 -1         4    5    0    1
 -2      4508      4511      4868      4510      4513      4870      7970      7973      7976      4509
 -2      4512      4869      7972      7975      7978
 -1         5    5    0    1
 -2      4514      4517      4871      4516      4519      4873      7979      7982      7985      4515
 -2      4518      4872      7981      7984      7987
 -1         6    5    0    1
 -2      4520      4523      4874      4522      4525      4876      7988      7991      7994      4521
 -2      4524      4875      7990      7993      7996
 -1         7    5    0    1
 -2      4526      4529      4877      4528      4531      4879      7997      8000      8003      4527
 -2      4530      4878      7999      8002      8005
 -1         8    5    0    1
 -2      4532      4535      4880      4534      4537      4882      8006      8009      8012      4533
 -2      4536      4881      8008      8011      8014
 -1         9    5    0    1
 -2      4538      4541      4883      4540      4543      4885      8015      8018      8021      4539
 -2      4542      4884      8017      8020      8023
 -1        10    5    0    1
 -2      4544      4547      4886      4546      4549      4888      8024      8027      8030      4545
 -2      4548      4887      8026      8029      8032
 -1        11    5    0    1
 -2      4550      4553      4889      4552      4555      4891      8033      8036      8039      4551
 -2      4554      4890      8035      8038      8041
 -1        12    5    0    1
 -2      4556      4559      4892      4558      4561      4894      8042      8045      8048      4557
 -2      4560      4893      8044      8047      8050
 -1        13    5    0    1
 -2      4562      4565      4895      4564      4567      4897      8051      8054      8057      4563
 -2      4566      4896      8053      8056      8059
 -1        14    5    0    1
 -2      4565      4487      4898      4567      4489      4900      8060      8063      8066      4566
 -2      4488      4899      8062      8065      8068
 -1        15    5    0    1
 -2      4895      4565      4898      4897      4567      4900      8054      8066      8069      4896
 -2      4566      4899      8056      8068      8071
 -1        16    5    0    1
 -2      4487      4568      4898      4489      4570      4900      8072      8075      8063      4488
 -2      4569      4899      8074      8077      8065
 -1        17    5    0    1
 -2      4568      4571      4898      4570      4573      4900      8078      8081      8075      4569
 -2      4572      4899      8080      8083      8077
 -1        18    5    0    1
 -2      4571      4574      4901      4573      4576      4903      8084      8087      8090      4572
 -2      4575      4902      8086      8089      8092
 -1        19    5    0    1
 -2      4577      4580      4904      4579      4582      4906      8093      8096      8099      4578
 -2      4581      4905      8095      8098      8101
 -1        20    5    0    1
 -2      4583      4586      4907      4585      4588      4909      8102      8105      8108      4584
 -2      4587      4908      8104      8107      8110
 -1        21    5    0    1
 -2      4589      4592      4910      4591      4594      4912      8111      8114      8117      4590
 -2      4593      4911      8113      8116      8119
 -1        22    5    0    1
 -2      4595      4598      4913      4597      4600      4915      8120      8123      8126      4596
 -2      4599      4914      8122      8125      8128
 -1        23    5    0    1
 -2      4601      4604      4916      4603      4606      4918      8129      8132      8135      4602
 -2      4605      4917      8131      8134      8137
 -1        24    5    0    1
 -2      4607      4610      4919      4609      4612      4921      8138      8141      8144      4608
 -2      4611      4920      8140      8143      8146
 -1        25    5    0    1
 -2      4613      4616      4922      4615      4618      4924      8147      8150      8153      4614
 -2      4617      4923      8149      8152      8155
 -1        26    5    0    1
 -2      4619      4622      4925      4621      4624      4927      8156      8159      8162      4620
 -2      4623      4926      8158      8161      8164
 -1        27    5    0    1
 -2      4625      4628      4928      4627      4630      4930      8165      8168      8171      4626
 -2      4629      4929      8167      8170      8173
 -1        28    5    0    1
 -2      4631      4634      4931      4633      4636      4933      8174      8177      8180      4632
 -2      4635      4932      8176      8179      8182
 -1        29    5    0    1
 -2      4637      4640      4934      4639      4642      4936      8183      8186      8189      4638
 -2      4641      4935      8185      8188      8191
 -1        30    5    0    1
 -2      4643      4646      4937      4645      4648      4939      8192      8195      8198      4644
 -2      4647      4938      8194      8197      8200
 -1        31    5    0    1
 -2      4649      4652      4940      4651      4654      4942      8201      8204      8207      4650
 -2      4653      4941      8203      8206      8209
 -1        32    5    0    1
 -2      4655      4658      4943      4657      4660      4945      8210      8213      8216      4656
 -2      4659      4944      8212      8215      8218
 -1        33    5    0    1
 -2      4661      4664      4946      4663      4666      4948      8219      8222      8225      4662
 -2      4665      4947      8221      8224      8227
 -1        34    5    0    1
 -2      4667      4670      4949      4669      4672      4951      8228      8231      8234      4668
 -2      4671      4950      8230      8233      8236
 -1        35    5    0    1
 -2      4673      4676      4952      4675      4678      4954      8237      8240      8243      4674
 -2      4677      4953      8239      8242      8245
 -1        36    5    0    1
 -2      4676      4490      4679      4678      4492      4681      8246      8249      8252      4677
 -2      4491      4680      8248      8251      8254
 -1        37    5    0    1
 -2      4679      4682      4955      4681      4684      4957      8255      8258      8261      4680
 -2      4683      4956      8257      8260      8263
 -1        38    5    0    1
 -2      4685      4688      4958      4687      4690      4960      8264      8267      8270      4686
 -2      4689      4959      8266      8269      8272
 -1        39    5    0    1
 -2      4691      4694      4961      4693      4696      4963      8273      8276      8279      4692
 -2      4695      4962      8275      8278      8281
 -1        40    5    0    1
 -2      4697      4700      4964      4699      4702      4966      8282      8285      8288      4698
 -2      4701      4965      8284      8287      8290
 -1        41    5    0    1
 -2      4703      4706      4967      4705      4708      4969      8291      8294      8297      4704
 -2      4707      4968      8293      8296      8299
 -1        42    5    0    1
 -2      4709      4712      4970      4711      4714      4972      8300      8303      8306      4710
 -2      4713      4971      8302      8305      8308
 -1        43    5    0    1
 -2      4715      4718      4973      4717      4720      4975      8309      8312      8315      4716
 -2      4719      4974      8311      8314      8317
 -1        44    5    0    1
 -2      4721      4724      4976      4723      4726      4978      8318      8321      8324      4722
 -2      4725      4977      8320      8323      8326
 -1        45    5    0    1
 -2      4727      4730      4979      4729      4732      4981      8327      8330      8333      4728
 -2      4731      4980      8329      8332      8335
 -1        46    5    0    1
 -2      4733      4736      4982      4735      4738      4984      8336      8339      8342      4734
 -2      4737      4983      8338      8341      8344
 -1        47    5    0    1
 -2      4739      4742      4985      4741      4744      4987      8345      8348      8351      4740
 -2      4743      4986      8347      8350      8353
 -1        48    5    0    1
 -2      4745      4748      4988      4747      4750      4990      8354      8357      8360      4746
 -2      4749      4989      8356      8359      8362
 -1        49    5    0    1
 -2      4748      4493      4991      4750      4495      4993      8363      8366      8369      4749
 -2      4494      4992      8365      8368      8371
 -1        50    5    0    1
 -2      4988      4748      4991      4990      4750      4993      8357      8369      8372      4989
 -2      4749      4992      8359      8371      8374
 -1        51    5    0    1
 -2      4493      4859      4991      4495      4861      4993      8375      8378      8366      4494
 -2      4860      4992      8377      8380      8368
 -1        52    5    0    1
 -2      4754      4751      4994      4756      4753      4996      8381      8384      8387      4755
 -2      4752      4995      8383      8386      8389
 -1        53    5    0    1
 -2      4757      4754      4997      4759      4756      4999      8390      8393      8396      4758
 -2      4755      4998      8392      8395      8398
 -1        54    5    0    1
 -2      4754      4994      4997      4756      4996      4999      8387      8399      8393      4755
 -2      4995      4998      8389      8401      8395
 -1        55    5    0    1
 -2      4760      4757      5000      4762      4759      5002      8402      8405      8408      4761
 -2      4758      5001      8404      8407      8410
 -1        56    5    0    1
 -2      4757      4997      5000      4759      4999      5002      8396      8411      8405      4758
 -2      4998      5001      8398      8413      8407
 -1        57    5    0    1
 -2      4763      4760      5003      4765      4762      5005      8414      8417      8420      4764
 -2      4761      5004      8416      8419      8422
 -1        58    5    0    1
 -2      4760      5000      5003      4762      5002      5005      8408      8423      8417      4761
 -2      5001      5004      8410      8425      8419
 -1        59    5    0    1
 -2      4766      4763      5006      4768      4765      5008      8426      8429      8432      4767
 -2      4764      5007      8428      8431      8434
 -1        60    5    0    1
 -2      4763      5003      5006      4765      5005      5008      8420      8435      8429      4764
 -2      5004      5007      8422      8437      8431
 -1        61    5    0    1
 -2      4769      4766      5009      4771      4768      5011      8438      8441      8444      4770
 -2      4767      5010      8440      8443      8446
 -1        62    5    0    1
 -2      4766      5006      5009      4768      5008      5011      8432      8447      8441      4767
 -2      5007      5010      8434      8449      8443
 -1        63    5    0    1
 -2      4772      4769      5012      4774      4771      5014      8450      8453      8456      4773
 -2      4770      5013      8452      8455      8458
 -1        64    5    0    1
 -2      4769      5009      5012      4771      5011      5014      8444      8459      8453      4770
 -2      5010      5013      8446      8461      8455
 -1        65    5    0    1
 -2      4775      4772      5015      4777      4774      5017      8462      8465      8468      4776
 -2      4773      5016      8464      8467      8470
 -1        66    5    0    1
 -2      4772      5012      5015      4774      5014      5017      8456      8471      8465      4773
 -2      5013      5016      8458      8473      8467
 -1        67    5    0    1
 -2      4778      4775      5018      4780      4777      5020      8474      8477      8480      4779
 -2      4776      5019      8476      8479      8482
 -1        68    5    0    1
 -2      4775      5015      5018      4777      5017      5020      8468      8483      8477      4776
 -2      5016      5019      8470      8485      8479
 -1        69    5    0    1
 -2      4781      4778      5021      4783      4780      5023      8486      8489      8492      4782
 -2      4779      5022      8488      8491      8494
 -1        70    5    0    1
 -2      4778      5018      5021      4780      5020      5023      8480      8495      8489      4779
 -2      5019      5022      8482      8497      8491
 -1        71    5    0    1
 -2      4784      4781      5024      4786      4783      5026      8498      8501      8504      4785
 -2      4782      5025      8500      8503      8506
 -1        72    5    0    1
 -2      4781      5021      5024      4783      5023      5026      8492      8507      8501      4782
 -2      5022      5025      8494      8509      8503
 -1        73    5    0    1
 -2      4787      4784      5027      4789      4786      5029      8510      8513      8516      4788
 -2      4785      5028      8512      8515      8518
 -1        74    5    0    1
 -2      4784      5024      5027      4786      5026      5029      8504      8519      8513      4785
 -2      5025      5028      8506      8521      8515
 -1        75    5    0    1
 -2      4790      4787      5030      4792      4789      5032      8522      8525      8528      4791
 -2      4788      5031      8524      8527      8530
 -1        76    5    0    1
 -2      4787      5027      5030      4789      5029      5032      8516      8531      8525      4788
 -2      5028      5031      8518      8533      8527
 -1        77    5    0    1
 -2      4793      4790      5033      4795      4792      5035      8534      8537      8540      4794
 -2      4791      5034      8536      8539      8542
 -1        78    5    0    1
 -2      4790      5030      5033      4792      5032      5035      8528      8543      8537      4791
 -2      5031      5034      8530      8545      8539
 -1        79    5    0    1
 -2      4796      4793      5036      4798      4795      5038      8546      8549      8552      4797
 -2      4794      5037      8548      8551      8554
 -1        80    5    0    1
 -2      4793      5033      5036      4795      5035      5038      8540      8555      8549      4794
 -2      5034      5037      8542      8557      8551
 -1        81    5    0    1
 -2      4799      4796      5039      4801      4798      5041      8558      8561      8564      4800
 -2      4797      5040      8560      8563      8566
 -1        82    5    0    1
 -2      4796      5036      5039      4798      5038      5041      8552      8567      8561      4797
 -2      5037      5040      8554      8569      8563
 -1        83    5    0    1
 -2      4802      4799      5042      4804      4801      5044      8570      8573      8576      4803
 -2      4800      5043      8572      8575      8578
 -1        84    5    0    1
 -2      4799      5039      5042      4801      5041      5044      8564      8579      8573      4800
 -2      5040      5043      8566      8581      8575
 -1        85    5    0    1
 -2      4805      4802      5045      4807      4804      5047      8582      8585      8588      4806
 -2      4803      5046      8584      8587      8590
 -1        86    5    0    1
 -2      4802      5042      5045      4804      5044      5047      8576      8591      8585      4803
 -2      5043      5046      8578      8593      8587
 -1        87    5    0    1
 -2      4808      4805      5048      4810      4807      5050      8594      8597      8600      4809
 -2      4806      5049      8596      8599      8602
 -1        88    5    0    1
 -2      4805      5045      5048      4807      5047      5050      8588      8603      8597      4806
 -2      5046      5049      8590      8605      8599
 -1        89    5    0    1
 -2      4811      4808      5051      4813      4810      5053      8606      8609      8612      4812
 -2      4809      5052      8608      8611      8614
 -1        90    5    0    1
 -2      4808      5048      5051      4810      5050      5053      8600      8615      8609      4809
 -2      5049      5052      8602      8617      8611
 -1        91    5    0    1
 -2      4814      4811      5054      4816      4813      5056      8618      8621      8624      4815
 -2      4812      5055      8620      8623      8626
 -1        92    5    0    1
 -2      4811      5051      5054      4813      5053      5056      8612      8627      8621      4812
 -2      5052      5055      8614      8629      8623
 -1        93    5    0    1
 -2      4817      4814      5057      4819      4816      5059      8630      8633      8636      4818
 -2      4815      5058      8632      8635      8638
 -1        94    5    0    1
 -2      4814      5054      5057      4816      5056      5059      8624      8639      8633      4815
 -2      5055      5058      8626      8641      8635
 -1        95    5    0    1
 -2      4820      4817      5060      4822      4819      5062      8642      8645      8648      4821
 -2      4818      5061      8644      8647      8650
 -1        96    5    0    1
 -2      4817      5057      5060      4819      5059      5062      8636      8651      8645      4818
 -2      5058      5061      8638      8653      8647
 -1        97    5    0    1
 -2      4823      4820      5063      4825      4822      5065      8654      8657      8660      4824
 -2      4821      5064      8656      8659      8662
 -1        98    5    0    1
 -2      4820      5060      5063      4822      5062      5065      8648      8663      8657      4821
 -2      5061      5064      8650      8665      8659
 -1        99    5    0    1
 -2      4826      4823      5066      4828      4825      5068      8666      8669      8672      4827
 -2      4824      5067      8668      8671      8674
 -1       100    5    0    1
 -2      4823      5063      5066      4825      5065      5068      8660      8675      8669      4824
 -2      5064      5067      8662      8677      8671
 -1       101    5    0    1
 -2      4829      4826      5069      4831      4828      5071      8678      8681      8684      4830
 -2      4827      5070      8680      8683      8686
 -1       102    5    0    1
 -2      4826      5066      5069      4828      5068      5071      8672      8687      8681      4827
 -2      5067      5070      8674      8689      8683
 -1       103    5    0    1
 -2      4832      4829      5072      4834      4831      5074      8690      8693      8696      4833
 -2      4830      5073      8692      8695      8698
 -1       104    5    0    1
 -2      4829      5069      5072      4831      5071      5074      8684      8699      8693      4830
 -2      5070      5073      8686      8701      8695
 -1       105    5    0    1
 -2      4835      4832      5075      4837      4834      5077      8702      8705      8708      4836
 -2      4833      5076      8704      8707      8710
 -1       106    5    0    1
 -2      4832      5072      5075      4834      5074      5077      8696      8711      8705      4833
 -2      5073      5076      8698      8713      8707
 -1       107    5    0    1
 -2      4838      4835      5078      4840      4837      5080      8714      8717      8720      4839
 -2      4836      5079      8716      8719      8722
 -1       108    5    0    1
 -2      4835      5075      5078      4837      5077      5080      8708      8723      8717      4836
 -2      5076      5079      8710      8725      8719
 -1       109    5    0    1
 -2      4841      4838      5081      4843      4840      5083      8726      8729      8732      4842
 -2      4839      5082      8728      8731      8734
 -1       110    5    0    1
 -2      4838      5078      5081      4840      5080      5083      8720      8735      8729      4839
 -2      5079      5082      8722      8737      8731
 -1       111    5    0    1
 -2      4844      4841      5084      4846      4843      5086      8738      8741      8744      4845
 -2      4842      5085      8740      8743      8746
 -1       112    5    0    1
 -2      4841      5081      5084      4843      5083      5086      8732      8747      8741      4842
 -2      5082      5085      8734      8749      8743
 -1       113    5    0    1
 -2      4847      4844      5087      4849      4846      5089      8750      8753      8756      4848
 -2      4845      5088      8752      8755      8758
 -1       114    5    0    1
 -2      4844      5084      5087      4846      5086      5089      8744      8759      8753      4845
 -2      5085      5088      8746      8761      8755
 -1       115    5    0    1
 -2      4850      4847      5090      4852      4849      5092      8762      8765      8768      4851
 -2      4848      5091      8764      8767      8770
 -1       116    5    0    1
 -2      4847      5087      5090      4849      5089      5092      8756      8771      8765      4848
 -2      5088      5091      8758      8773      8767
 -1       117    5    0    1
 -2      4853      4850      5093      4855      4852      5095      8774      8777      8780      4854
 -2      4851      5094      8776      8779      8782
 -1       118    5    0    1
 -2      4850      5090      5093      4852      5092      5095      8768      8783      8777      4851
 -2      5091      5094      8770      8785      8779
 -1       119    5    0    1
 -2      4856      4853      5096      4858      4855      5098      8786      8789      8792      4857
 -2      4854      5097      8788      8791      8794
 -1       120    5    0    1
 -2      4853      5093      5096      4855      5095      5098      8780      8795      8789      4854
 -2      5094      5097      8782      8797      8791
 -1       121    5    0    1
 -2      4859      4856      5099      4861      4858      5101      8798      8801      8804      4860
 -2      4857      5100      8800      8803      8806
 -1       122    5    0    1
 -2      4991      4859      5099      4993      4861      5101      8378      8804      8807      4992
 -2      4860      5100      8380      8806      8809
 -1       123    5    0    1
 -2      4856      5096      5099      4858      5098      5101      8792      8810      8801      4857
 -2      5097      5100      8794      8812      8803
 -1       124    5    0    1
 -2      4499      4502      5102      4501      4504      5104      8813      8816      8819      4500
 -2      4503      5103      8815      8818      8821
 -1       125    5    0    1
 -2      4505      4508      5105      4507      4510      5107      8822      8825      8828      4506
 -2      4509      5106      8824      8827      8830
 -1       126    5    0    1
 -2      4511      4514      5108      4513      4516      5110      8831      8834      8837      4512
 -2      4515      5109      8833      8836      8839
 -1       127    5    0    1
 -2      4517      4520      5111      4519      4522      5113      8840      8843      8846      4518
 -2      4521      5112      8842      8845      8848
 -1       128    5    0    1
 -2      4523      4526      5114      4525      4528      5116      8849      8852      8855      4524
 -2      4527      5115      8851      8854      8857
 -1       129    5    0    1
 -2      4529      4532      5117      4531      4534      5119      8858      8861      8864      4530
 -2      4533      5118      8860      8863      8866
 -1       130    5    0    1
 -2      4535      4538      5120      4537      4540      5122      8867      8870      8873      4536
 -2      4539      5121      8869      8872      8875
 -1       131    5    0    1
 -2      4541      4544      5123      4543      4546      5125      8876      8879      8882      4542
 -2      4545      5124      8878      8881      8884
 -1       132    5    0    1
 -2      4547      4550      5126      4549      4552      5128      8885      8888      8891      4548
 -2      4551      5127      8887      8890      8893
 -1       133    5    0    1
 -2      4553      4556      5129      4555      4558      5131      8894      8897      8900      4554
 -2      4557      5130      8896      8899      8902
 -1       134    5    0    1
 -2      4559      4562      5132      4561      4564      5134      8903      8906      8909      4560
 -2      4563      5133      8905      8908      8911
 -1       135    5    0    1
 -2      4907      4586      5135      4909      4588      5137      8105      8912      8915      4908
 -2      4587      5136      8107      8914      8917
 -1       136    5    0    1
 -2      4586      4589      5135      4588      4591      5137      8918      8921      8912      4587
 -2      4590      5136      8920      8923      8914
 -1       137    5    0    1
 -2      4898      4571      5138      4900      4573      5140      8081      8924      8927      4899
 -2      4572      5139      8083      8926      8929
 -1       138    5    0    1
 -2      4895      4898      5138      4897      4900      5140      8069      8927      8930      4896
 -2      4899      5139      8071      8929      8932
 -1       139    5    0    1
 -2      4571      4901      5138      4573      4903      5140      8090      8933      8924      4572
 -2      4902      5139      8092      8935      8926
 -1       140    5    0    1
 -2      4574      4577      5141      4576      4579      5143      8936      8939      8942      4575
 -2      4578      5142      8938      8941      8944
 -1       141    5    0    1
 -2      4580      4583      5144      4582      4585      5146      8945      8948      8951      4581
 -2      4584      5145      8947      8950      8953
 -1       142    5    0    1
 -2      4589      4910      5135      4591      4912      5137      8117      8954      8921      4590
 -2      4911      5136      8119      8956      8923
 -1       143    5    0    1
 -2      4592      4595      5147      4594      4597      5149      8957      8960      8963      4593
 -2      4596      5148      8959      8962      8965
 -1       144    5    0    1
 -2      4598      4601      5150      4600      4603      5152      8966      8969      8972      4599
 -2      4602      5151      8968      8971      8974
 -1       145    5    0    1
 -2      4604      4607      5153      4606      4609      5155      8975      8978      8981      4605
 -2      4608      5154      8977      8980      8983
 -1       146    5    0    1
 -2      4610      4613      5156      4612      4615      5158      8984      8987      8990      4611
 -2      4614      5157      8986      8989      8992
 -1       147    5    0    1
 -2      4616      4619      5159      4618      4621      5161      8993      8996      8999      4617
 -2      4620      5160      8995      8998      9001
 -1       148    5    0    1
 -2      4622      4625      5162      4624      4627      5164      9002      9005      9008      4623
 -2      4626      5163      9004      9007      9010
 -1       149    5    0    1
 -2      4628      4631      5165      4630      4633      5167      9011      9014      9017      4629
 -2      4632      5166      9013      9016      9019
 -1       150    5    0    1
 -2      4634      4637      5168      4636      4639      5170      9020      9023      9026      4635
 -2      4638      5169      9022      9025      9028
 -1       151    5    0    1
 -2      4640      4643      5171      4642      4645      5173      9029      9032      9035      4641
 -2      4644      5172      9031      9034      9037
 -1       152    5    0    1
 -2      4646      4649      5174      4648      4651      5176      9038      9041      9044      4647
 -2      4650      5175      9040      9043      9046
 -1       153    5    0    1
 -2      4652      4655      5177      4654      4657      5179      9047      9050      9053      4653
 -2      4656      5178      9049      9052      9055
 -1       154    5    0    1
 -2      4658      4661      5180      4660      4663      5182      9056      9059      9062      4659
 -2      4662      5181      9058      9061      9064
 -1       155    5    0    1
 -2      4664      4667      5183      4666      4669      5185      9065      9068      9071      4665
 -2      4668      5184      9067      9070      9073
 -1       156    5    0    1
 -2      4670      4673      5186      4672      4675      5188      9074      9077      9080      4671
 -2      4674      5187      9076      9079      9082
 -1       157    5    0    1
 -2      4676      4679      4952      4678      4681      4954      8252      9083      8240      4677
 -2      4680      4953      8254      9085      8242
 -1       158    5    0    1
 -2      4682      4685      5189      4684      4687      5191      9086      9089      9092      4683
 -2      4686      5190      9088      9091      9094
 -1       159    5    0    1
 -2      4688      4691      5192      4690      4693      5194      9095      9098      9101      4689
 -2      4692      5193      9097      9100      9103
 -1       160    5    0    1
 -2      4694      4697      5195      4696      4699      5197      9104      9107      9110      4695
 -2      4698      5196      9106      9109      9112
 -1       161    5    0    1
 -2      4700      4703      5198      4702      4705      5200      9113      9116      9119      4701
 -2      4704      5199      9115      9118      9121
 -1       162    5    0    1
 -2      4706      4709      5201      4708      4711      5203      9122      9125      9128      4707
 -2      4710      5202      9124      9127      9130
 -1       163    5    0    1
 -2      4712      4715      5204      4714      4717      5206      9131      9134      9137      4713
 -2      4716      5205      9133      9136      9139
 -1       164    5    0    1
 -2      4718      4721      5207      4720      4723      5209      9140      9143      9146      4719
 -2      4722      5208      9142      9145      9148
 -1       165    5    0    1
 -2      4724      4727      5210      4726      4729      5212      9149      9152      9155      4725
 -2      4728      5211      9151      9154      9157
 -1       166    5    0    1
 -2      4730      4733      5213      4732      4735      5215      9158      9161      9164      4731
 -2      4734      5214      9160      9163      9166
 -1       167    5    0    1
 -2      4736      4739      5216      4738      4741      5218      9167      9170      9173      4737
 -2      4740      5217      9169      9172      9175
 -1       168    5    0    1
 -2      4742      4745      5219      4744      4747      5221      9176      9179      9182      4743
 -2      4746      5220      9178      9181      9184
 -1       169    5    0    1
 -2      5105      4508      4868      5107      4510      4870      8825      7976      9185      5106
 -2      4509      4869      8827      7978      9187
 -1       170    5    0    1
 -2      4499      5102      4862      4501      5104      4864      8819      9188      7955      4500
 -2      5103      4863      8821      9190      7957
 -1       171    5    0    1
 -2      4751      4496      4862      4753      4498      4864      7946      7958      9191      4752
 -2      4497      4863      7948      7960      9193
 -1       172    5    0    1
 -2      4865      4505      5105      4867      4507      5107      7964      8828      9194      4866
 -2      4506      5106      7966      8830      9196
 -1       173    5    0    1
 -2      4868      4511      5108      4870      4513      5110      7973      8837      9197      4869
 -2      4512      5109      7975      8839      9199
 -1       174    5    0    1
 -2      4871      4517      5111      4873      4519      5113      7982      8846      9200      4872
 -2      4518      5112      7984      8848      9202
 -1       175    5    0    1
 -2      4874      4523      5114      4876      4525      5116      7991      8855      9203      4875
 -2      4524      5115      7993      8857      9205
 -1       176    5    0    1
 -2      4877      4529      5117      4879      4531      5119      8000      8864      9206      4878
 -2      4530      5118      8002      8866      9208
 -1       177    5    0    1
 -2      4880      4535      5120      4882      4537      5122      8009      8873      9209      4881
 -2      4536      5121      8011      8875      9211
 -1       178    5    0    1
 -2      4883      4541      5123      4885      4543      5125      8018      8882      9212      4884
 -2      4542      5124      8020      8884      9214
 -1       179    5    0    1
 -2      4886      4547      5126      4888      4549      5128      8027      8891      9215      4887
 -2      4548      5127      8029      8893      9217
 -1       180    5    0    1
 -2      4889      4553      5129      4891      4555      5131      8036      8900      9218      4890
 -2      4554      5130      8038      8902      9220
 -1       181    5    0    1
 -2      4892      4559      5132      4894      4561      5134      8045      8909      9221      4893
 -2      4560      5133      8047      8911      9223
 -1       182    5    0    1
 -2      4904      4580      5144      4906      4582      5146      8096      8951      9224      4905
 -2      4581      5145      8098      8953      9226
 -1       183    5    0    1
 -2      4574      5141      4901      4576      5143      4903      8942      9227      8087      4575
 -2      5142      4902      8944      9229      8089
 -1       184    5    0    1
 -2      4910      4592      5147      4912      4594      5149      8114      8963      9230      4911
 -2      4593      5148      8116      8965      9232
 -1       185    5    0    1
 -2      4913      4598      5150      4915      4600      5152      8123      8972      9233      4914
 -2      4599      5151      8125      8974      9235
 -1       186    5    0    1
 -2      4916      4604      5153      4918      4606      5155      8132      8981      9236      4917
 -2      4605      5154      8134      8983      9238
 -1       187    5    0    1
 -2      4919      4610      5156      4921      4612      5158      8141      8990      9239      4920
 -2      4611      5157      8143      8992      9241
 -1       188    5    0    1
 -2      4922      4616      5159      4924      4618      5161      8150      8999      9242      4923
 -2      4617      5160      8152      9001      9244
 -1       189    5    0    1
 -2      4925      4622      5162      4927      4624      5164      8159      9008      9245      4926
 -2      4623      5163      8161      9010      9247
 -1       190    5    0    1
 -2      4928      4628      5165      4930      4630      5167      8168      9017      9248      4929
 -2      4629      5166      8170      9019      9250
 -1       191    5    0    1
 -2      4931      4634      5168      4933      4636      5170      8177      9026      9251      4932
 -2      4635      5169      8179      9028      9253
 -1       192    5    0    1
 -2      4934      4640      5171      4936      4642      5173      8186      9035      9254      4935
 -2      4641      5172      8188      9037      9256
 -1       193    5    0    1
 -2      4937      4646      5174      4939      4648      5176      8195      9044      9257      4938
 -2      4647      5175      8197      9046      9259
 -1       194    5    0    1
 -2      4940      4652      5177      4942      4654      5179      8204      9053      9260      4941
 -2      4653      5178      8206      9055      9262
 -1       195    5    0    1
 -2      4943      4658      5180      4945      4660      5182      8213      9062      9263      4944
 -2      4659      5181      8215      9064      9265
 -1       196    5    0    1
 -2      4946      4664      5183      4948      4666      5185      8222      9071      9266      4947
 -2      4665      5184      8224      9073      9268
 -1       197    5    0    1
 -2      4949      4670      5186      4951      4672      5188      8231      9080      9269      4950
 -2      4671      5187      8233      9082      9271
 -1       198    5    0    1
 -2      4682      5189      4955      4684      5191      4957      9092      9272      8258      4683
 -2      5190      4956      9094      9274      8260
 -1       199    5    0    1
 -2      4958      4688      5192      4960      4690      5194      8267      9101      9275      4959
 -2      4689      5193      8269      9103      9277
 -1       200    5    0    1
 -2      4961      4694      5195      4963      4696      5197      8276      9110      9278      4962
 -2      4695      5196      8278      9112      9280
 -1       201    5    0    1
 -2      4964      4700      5198      4966      4702      5200      8285      9119      9281      4965
 -2      4701      5199      8287      9121      9283
 -1       202    5    0    1
 -2      4967      4706      5201      4969      4708      5203      8294      9128      9284      4968
 -2      4707      5202      8296      9130      9286
 -1       203    5    0    1
 -2      4970      4712      5204      4972      4714      5206      8303      9137      9287      4971
 -2      4713      5205      8305      9139      9289
 -1       204    5    0    1
 -2      4973      4718      5207      4975      4720      5209      8312      9146      9290      4974
 -2      4719      5208      8314      9148      9292
 -1       205    5    0    1
 -2      4976      4724      5210      4978      4726      5212      8321      9155      9293      4977
 -2      4725      5211      8323      9157      9295
 -1       206    5    0    1
 -2      4979      4730      5213      4981      4732      5215      8330      9164      9296      4980
 -2      4731      5214      8332      9166      9298
 -1       207    5    0    1
 -2      4982      4736      5216      4984      4738      5218      8339      9173      9299      4983
 -2      4737      5217      8341      9175      9301
 -1       208    5    0    1
 -2      4985      4742      5219      4987      4744      5221      8348      9182      9302      4986
 -2      4743      5220      8350      9184      9304
 -1       209    5    0    1
 -2      5102      4502      4865      5104      4504      4867      8816      7967      9305      5103
 -2      4503      4866      8818      7969      9307
 -1       210    5    0    1
 -2      5108      4514      4871      5110      4516      4873      8834      7985      9308      5109
 -2      4515      4872      8836      7987      9310
 -1       211    5    0    1
 -2      5111      4520      4874      5113      4522      4876      8843      7994      9311      5112
 -2      4521      4875      8845      7996      9313
 -1       212    5    0    1
 -2      5114      4526      4877      5116      4528      4879      8852      8003      9314      5115
 -2      4527      4878      8854      8005      9316
 -1       213    5    0    1
 -2      5117      4532      4880      5119      4534      4882      8861      8012      9317      5118
 -2      4533      4881      8863      8014      9319
 -1       214    5    0    1
 -2      5120      4538      4883      5122      4540      4885      8870      8021      9320      5121
 -2      4539      4884      8872      8023      9322
 -1       215    5    0    1
 -2      5123      4544      4886      5125      4546      4888      8879      8030      9323      5124
 -2      4545      4887      8881      8032      9325
 -1       216    5    0    1
 -2      5126      4550      4889      5128      4552      4891      8888      8039      9326      5127
 -2      4551      4890      8890      8041      9328
 -1       217    5    0    1
 -2      5129      4556      4892      5131      4558      4894      8897      8048      9329      5130
 -2      4557      4893      8899      8050      9331
 -1       218    5    0    1
 -2      5132      4562      4895      5134      4564      4897      8906      8057      9332      5133
 -2      4563      4896      8908      8059      9334
 -1       219    5    0    1
 -2      5150      4601      4916      5152      4603      4918      8969      8135      9335      5151
 -2      4602      4917      8971      8137      9337
 -1       220    5    0    1
 -2      5153      4607      4919      5155      4609      4921      8978      8144      9338      5154
 -2      4608      4920      8980      8146      9340
 -1       221    5    0    1
 -2      5156      4613      4922      5158      4615      4924      8987      8153      9341      5157
 -2      4614      4923      8989      8155      9343
 -1       222    5    0    1
 -2      5159      4619      4925      5161      4621      4927      8996      8162      9344      5160
 -2      4620      4926      8998      8164      9346
 -1       223    5    0    1
 -2      5162      4625      4928      5164      4627      4930      9005      8171      9347      5163
 -2      4626      4929      9007      8173      9349
 -1       224    5    0    1
 -2      5165      4631      4931      5167      4633      4933      9014      8180      9350      5166
 -2      4632      4932      9016      8182      9352
 -1       225    5    0    1
 -2      5168      4637      4934      5170      4639      4936      9023      8189      9353      5169
 -2      4638      4935      9025      8191      9355
 -1       226    5    0    1
 -2      5171      4643      4937      5173      4645      4939      9032      8198      9356      5172
 -2      4644      4938      9034      8200      9358
 -1       227    5    0    1
 -2      5174      4649      4940      5176      4651      4942      9041      8207      9359      5175
 -2      4650      4941      9043      8209      9361
 -1       228    5    0    1
 -2      5177      4655      4943      5179      4657      4945      9050      8216      9362      5178
 -2      4656      4944      9052      8218      9364
 -1       229    5    0    1
 -2      5180      4661      4946      5182      4663      4948      9059      8225      9365      5181
 -2      4662      4947      9061      8227      9367
 -1       230    5    0    1
 -2      5183      4667      4949      5185      4669      4951      9068      8234      9368      5184
 -2      4668      4950      9070      8236      9370
 -1       231    5    0    1
 -2      5186      4673      4952      5188      4675      4954      9077      8243      9371      5187
 -2      4674      4953      9079      8245      9373
 -1       232    5    0    1
 -2      5192      4691      4961      5194      4693      4963      9098      8279      9374      5193
 -2      4692      4962      9100      8281      9376
 -1       233    5    0    1
 -2      5195      4697      4964      5197      4699      4966      9107      8288      9377      5196
 -2      4698      4965      9109      8290      9379
 -1       234    5    0    1
 -2      5198      4703      4967      5200      4705      4969      9116      8297      9380      5199
 -2      4704      4968      9118      8299      9382
 -1       235    5    0    1
 -2      5201      4709      4970      5203      4711      4972      9125      8306      9383      5202
 -2      4710      4971      9127      8308      9385
 -1       236    5    0    1
 -2      5204      4715      4973      5206      4717      4975      9134      8315      9386      5205
 -2      4716      4974      9136      8317      9388
 -1       237    5    0    1
 -2      5207      4721      4976      5209      4723      4978      9143      8324      9389      5208
 -2      4722      4977      9145      8326      9391
 -1       238    5    0    1
 -2      5210      4727      4979      5212      4729      4981      9152      8333      9392      5211
 -2      4728      4980      9154      8335      9394
 -1       239    5    0    1
 -2      5213      4733      4982      5215      4735      4984      9161      8342      9395      5214
 -2      4734      4983      9163      8344      9397
 -1       240    5    0    1
 -2      5216      4739      4985      5218      4741      4987      9170      8351      9398      5217
 -2      4740      4986      9172      8353      9400
 -1       241    5    0    1
 -2      5219      4745      4988      5221      4747      4990      9179      8360      9401      5220
 -2      4746      4989      9181      8362      9403
 -1       242    5    0    1
 -2      5141      4577      4904      5143      4579      4906      8939      8099      9404      5142
 -2      4578      4905      8941      8101      9406
 -1       243    5    0    1
 -2      5144      4583      4907      5146      4585      4909      8948      8108      9407      5145
 -2      4584      4908      8950      8110      9409
 -1       244    5    0    1
 -2      5147      4595      4913      5149      4597      4915      8960      8126      9410      5148
 -2      4596      4914      8962      8128      9412
 -1       245    5    0    1
 -2      5189      4685      4958      5191      4687      4960      9089      8270      9413      5190
 -2      4686      4959      9091      8272      9415
 -1       246    5    0    1
 -2      4751      4862      4994      4753      4864      4996      9191      9416      8384      4752
 -2      4863      4995      9193      9418      8386
 -1       247    5    0    1
 -2      5108      4871      5222      5110      4873      5224      9308      9419      9422      5109
 -2      4872      5223      9310      9421      9424
 -1       248    5    0    1
 -2      4868      5108      5225      4870      5110      5227      9197      9425      9428      4869
 -2      5109      5226      9199      9427      9430
 -1       249    5    0    1
 -2      5108      5222      5225      5110      5224      5227      9422      9431      9425      5109
 -2      5223      5226      9424      9433      9427
 -1       250    5    0    1
 -2      4862      5102      5228      4864      5104      5230      9188      9434      9437      4863
 -2      5103      5229      9190      9436      9439
 -1       251    5    0    1
 -2      5111      4874      5231      5113      4876      5233      9311      9440      9443      5112
 -2      4875      5232      9313      9442      9445
 -1       252    5    0    1
 -2      5114      4877      5234      5116      4879      5236      9314      9446      9449      5115
 -2      4878      5235      9316      9448      9451
 -1       253    5    0    1
 -2      5117      4880      5237      5119      4882      5239      9317      9452      9455      5118
 -2      4881      5238      9319      9454      9457
 -1       254    5    0    1
 -2      5120      4883      5240      5122      4885      5242      9320      9458      9461      5121
 -2      4884      5241      9322      9460      9463
 -1       255    5    0    1
 -2      5123      4886      5243      5125      4888      5245      9323      9464      9467      5124
 -2      4887      5244      9325      9466      9469
 -1       256    5    0    1
 -2      5126      4889      5246      5128      4891      5248      9326      9470      9473      5127
 -2      4890      5247      9328      9472      9475
 -1       257    5    0    1
 -2      5129      4892      5249      5131      4894      5251      9329      9476      9479      5130
 -2      4893      5250      9331      9478      9481
 -1       258    5    0    1
 -2      5132      4895      5252      5134      4897      5254      9332      9482      9485      5133
 -2      4896      5253      9334      9484      9487
 -1       259    5    0    1
 -2      4895      5138      5252      4897      5140      5254      8930      9488      9482      4896
 -2      5139      5253      8932      9490      9484
 -1       260    5    0    1
 -2      4904      5144      5255      4906      5146      5257      9224      9491      9494      4905
 -2      5145      5256      9226      9493      9496
 -1       261    5    0    1
 -2      5150      4916      5258      5152      4918      5260      9335      9497      9500      5151
 -2      4917      5259      9337      9499      9502
 -1       262    5    0    1
 -2      4907      5135      5261      4909      5137      5263      8915      9503      9506      4908
 -2      5136      5262      8917      9505      9508
 -1       263    5    0    1
 -2      4910      5147      5264      4912      5149      5266      9230      9509      9512      4911
 -2      5148      5265      9232      9511      9514
 -1       264    5    0    1
 -2      5144      4907      5267      5146      4909      5269      9407      9515      9518      5145
 -2      4908      5268      9409      9517      9520
 -1       265    5    0    1
 -2      5255      5144      5267      5257      5146      5269      9491      9518      9521      5256
 -2      5145      5268      9493      9520      9523
 -1       266    5    0    1
 -2      4907      5261      5267      4909      5263      5269      9506      9524      9515      4908
 -2      5262      5268      9508      9526      9517
 -1       267    5    0    1
 -2      4901      5141      5270      4903      5143      5272      9227      9527      9530      4902
 -2      5142      5271      9229      9529      9532
 -1       268    5    0    1
 -2      5135      4910      5273      5137      4912      5275      8954      9533      9536      5136
 -2      4911      5274      8956      9535      9538
 -1       269    5    0    1
 -2      5261      5135      5273      5263      5137      5275      9503      9536      9539      5262
 -2      5136      5274      9505      9538      9541
 -1       270    5    0    1
 -2      4910      5264      5273      4912      5266      5275      9512      9542      9533      4911
 -2      5265      5274      9514      9544      9535
 -1       271    5    0    1
 -2      5189      4958      5276      5191      4960      5278      9413      9545      9548      5190
 -2      4959      5277      9415      9547      9550
 -1       272    5    0    1
 -2      5153      4919      5279      5155      4921      5281      9338      9551      9554      5154
 -2      4920      5280      9340      9553      9556
 -1       273    5    0    1
 -2      5156      4922      5282      5158      4924      5284      9341      9557      9560      5157
 -2      4923      5283      9343      9559      9562
 -1       274    5    0    1
 -2      5159      4925      5285      5161      4927      5287      9344      9563      9566      5160
 -2      4926      5286      9346      9565      9568
 -1       275    5    0    1
 -2      5162      4928      5288      5164      4930      5290      9347      9569      9572      5163
 -2      4929      5289      9349      9571      9574
 -1       276    5    0    1
 -2      5165      4931      5291      5167      4933      5293      9350      9575      9578      5166
 -2      4932      5292      9352      9577      9580
 -1       277    5    0    1
 -2      5168      4934      5294      5170      4936      5296      9353      9581      9584      5169
 -2      4935      5295      9355      9583      9586
 -1       278    5    0    1
 -2      5171      4937      5297      5173      4939      5299      9356      9587      9590      5172
 -2      4938      5298      9358      9589      9592
 -1       279    5    0    1
 -2      5174      4940      5300      5176      4942      5302      9359      9593      9596      5175
 -2      4941      5301      9361      9595      9598
 -1       280    5    0    1
 -2      5177      4943      5303      5179      4945      5305      9362      9599      9602      5178
 -2      4944      5304      9364      9601      9604
 -1       281    5    0    1
 -2      5180      4946      5306      5182      4948      5308      9365      9605      9608      5181
 -2      4947      5307      9367      9607      9610
 -1       282    5    0    1
 -2      5183      4949      5309      5185      4951      5311      9368      9611      9614      5184
 -2      4950      5310      9370      9613      9616
 -1       283    5    0    1
 -2      5186      4952      5312      5188      4954      5314      9371      9617      9620      5187
 -2      4953      5313      9373      9619      9622
 -1       284    5    0    1
 -2      5192      4961      5315      5194      4963      5317      9374      9623      9626      5193
 -2      4962      5316      9376      9625      9628
 -1       285    5    0    1
 -2      4952      4679      4955      4954      4681      4957      9083      8261      9629      4953
 -2      4680      4956      9085      8263      9631
 -1       286    5    0    1
 -2      4958      5192      5318      4960      5194      5320      9275      9632      9635      4959
 -2      5193      5319      9277      9634      9637
 -1       287    5    0    1
 -2      5192      5315      5318      5194      5317      5320      9626      9638      9632      5193
 -2      5316      5319      9628      9640      9634
 -1       288    5    0    1
 -2      4994      4862      5228      4996      4864      5230      9416      9437      9641      4995
 -2      4863      5229      9418      9439      9643
 -1       289    5    0    1
 -2      5195      4964      5321      5197      4966      5323      9377      9644      9647      5196
 -2      4965      5322      9379      9646      9649
 -1       290    5    0    1
 -2      5198      4967      5324      5200      4969      5326      9380      9650      9653      5199
 -2      4968      5325      9382      9652      9655
 -1       291    5    0    1
 -2      5201      4970      5327      5203      4972      5329      9383      9656      9659      5202
 -2      4971      5328      9385      9658      9661
 -1       292    5    0    1
 -2      5204      4973      5330      5206      4975      5332      9386      9662      9665      5205
 -2      4974      5331      9388      9664      9667
 -1       293    5    0    1
 -2      5207      4976      5333      5209      4978      5335      9389      9668      9671      5208
 -2      4977      5334      9391      9670      9673
 -1       294    5    0    1
 -2      5210      4979      5336      5212      4981      5338      9392      9674      9677      5211
 -2      4980      5337      9394      9676      9679
 -1       295    5    0    1
 -2      5213      4982      5339      5215      4984      5341      9395      9680      9683      5214
 -2      4983      5340      9397      9682      9685
 -1       296    5    0    1
 -2      5216      4985      5342      5218      4987      5344      9398      9686      9689      5217
 -2      4986      5343      9400      9688      9691
 -1       297    5    0    1
 -2      5219      4988      5345      5221      4990      5347      9401      9692      9695      5220
 -2      4989      5346      9403      9694      9697
 -1       298    5    0    1
 -2      5141      4904      5348      5143      4906      5350      9404      9698      9701      5142
 -2      4905      5349      9406      9700      9703
 -1       299    5    0    1
 -2      5270      5141      5348      5272      5143      5350      9527      9701      9704      5271
 -2      5142      5349      9529      9703      9706
 -1       300    5    0    1
 -2      4904      5255      5348      4906      5257      5350      9494      9707      9698      4905
 -2      5256      5349      9496      9709      9700
 -1       301    5    0    1
 -2      5105      4868      5351      5107      4870      5353      9185      9710      9713      5106
 -2      4869      5352      9187      9712      9715
 -1       302    5    0    1
 -2      4868      5225      5351      4870      5227      5353      9428      9716      9710      4869
 -2      5226      5352      9430      9718      9712
 -1       303    5    0    1
 -2      4988      4991      5099      4990      4993      5101      8372      8807      9719      4989
 -2      4992      5100      8374      8809      9721
 -1       304    5    0    1
 -2      4997      4994      5228      4999      4996      5230      8399      9641      9722      4998
 -2      4995      5229      8401      9643      9724
 -1       305    5    0    1
 -2      4865      5105      5354      4867      5107      5356      9194      9725      9728      4866
 -2      5106      5355      9196      9727      9730
 -1       306    5    0    1
 -2      5105      5351      5354      5107      5353      5356      9713      9731      9725      5106
 -2      5352      5355      9715      9733      9727
 -1       307    5    0    1
 -2      5000      4997      5357      5002      4999      5359      8411      9734      9737      5001
 -2      4998      5358      8413      9736      9739
 -1       308    5    0    1
 -2      4997      5228      5357      4999      5230      5359      9722      9740      9734      4998
 -2      5229      5358      9724      9742      9736
 -1       309    5    0    1
 -2      5003      5000      5360      5005      5002      5362      8423      9743      9746      5004
 -2      5001      5361      8425      9745      9748
 -1       310    5    0    1
 -2      5000      5357      5360      5002      5359      5362      9737      9749      9743      5001
 -2      5358      5361      9739      9751      9745
 -1       311    5    0    1
 -2      5006      5003      5363      5008      5005      5365      8435      9752      9755      5007
 -2      5004      5364      8437      9754      9757
 -1       312    5    0    1
 -2      5003      5360      5363      5005      5362      5365      9746      9758      9752      5004
 -2      5361      5364      9748      9760      9754
 -1       313    5    0    1
 -2      5009      5006      5366      5011      5008      5368      8447      9761      9764      5010
 -2      5007      5367      8449      9763      9766
 -1       314    5    0    1
 -2      5006      5363      5366      5008      5365      5368      9755      9767      9761      5007
 -2      5364      5367      9757      9769      9763
 -1       315    5    0    1
 -2      5012      5009      5369      5014      5011      5371      8459      9770      9773      5013
 -2      5010      5370      8461      9772      9775
 -1       316    5    0    1
 -2      5009      5366      5369      5011      5368      5371      9764      9776      9770      5010
 -2      5367      5370      9766      9778      9772
 -1       317    5    0    1
 -2      5015      5012      5372      5017      5014      5374      8471      9779      9782      5016
 -2      5013      5373      8473      9781      9784
 -1       318    5    0    1
 -2      5012      5369      5372      5014      5371      5374      9773      9785      9779      5013
 -2      5370      5373      9775      9787      9781
 -1       319    5    0    1
 -2      5018      5015      5375      5020      5017      5377      8483      9788      9791      5019
 -2      5016      5376      8485      9790      9793
 -1       320    5    0    1
 -2      5015      5372      5375      5017      5374      5377      9782      9794      9788      5016
 -2      5373      5376      9784      9796      9790
 -1       321    5    0    1
 -2      5021      5018      5378      5023      5020      5380      8495      9797      9800      5022
 -2      5019      5379      8497      9799      9802
 -1       322    5    0    1
 -2      5018      5375      5378      5020      5377      5380      9791      9803      9797      5019
 -2      5376      5379      9793      9805      9799
 -1       323    5    0    1
 -2      5024      5021      5381      5026      5023      5383      8507      9806      9809      5025
 -2      5022      5382      8509      9808      9811
 -1       324    5    0    1
 -2      5021      5378      5381      5023      5380      5383      9800      9812      9806      5022
 -2      5379      5382      9802      9814      9808
 -1       325    5    0    1
 -2      5027      5024      5384      5029      5026      5386      8519      9815      9818      5028
 -2      5025      5385      8521      9817      9820
 -1       326    5    0    1
 -2      5024      5381      5384      5026      5383      5386      9809      9821      9815      5025
 -2      5382      5385      9811      9823      9817
 -1       327    5    0    1
 -2      5030      5027      5387      5032      5029      5389      8531      9824      9827      5031
 -2      5028      5388      8533      9826      9829
 -1       328    5    0    1
 -2      5027      5384      5387      5029      5386      5389      9818      9830      9824      5028
 -2      5385      5388      9820      9832      9826
 -1       329    5    0    1
 -2      5033      5030      5390      5035      5032      5392      8543      9833      9836      5034
 -2      5031      5391      8545      9835      9838
 -1       330    5    0    1
 -2      5030      5387      5390      5032      5389      5392      9827      9839      9833      5031
 -2      5388      5391      9829      9841      9835
 -1       331    5    0    1
 -2      5036      5033      5393      5038      5035      5395      8555      9842      9845      5037
 -2      5034      5394      8557      9844      9847
 -1       332    5    0    1
 -2      5033      5390      5393      5035      5392      5395      9836      9848      9842      5034
 -2      5391      5394      9838      9850      9844
 -1       333    5    0    1
 -2      5039      5036      5396      5041      5038      5398      8567      9851      9854      5040
 -2      5037      5397      8569      9853      9856
 -1       334    5    0    1
 -2      5036      5393      5396      5038      5395      5398      9845      9857      9851      5037
 -2      5394      5397      9847      9859      9853
 -1       335    5    0    1
 -2      5042      5039      5399      5044      5041      5401      8579      9860      9863      5043
 -2      5040      5400      8581      9862      9865
 -1       336    5    0    1
 -2      5039      5396      5399      5041      5398      5401      9854      9866      9860      5040
 -2      5397      5400      9856      9868      9862
 -1       337    5    0    1
 -2      5045      5042      5402      5047      5044      5404      8591      9869      9872      5046
 -2      5043      5403      8593      9871      9874
 -1       338    5    0    1
 -2      5042      5399      5402      5044      5401      5404      9863      9875      9869      5043
 -2      5400      5403      9865      9877      9871
 -1       339    5    0    1
 -2      5048      5045      5405      5050      5047      5407      8603      9878      9881      5049
 -2      5046      5406      8605      9880      9883
 -1       340    5    0    1
 -2      5045      5402      5405      5047      5404      5407      9872      9884      9878      5046
 -2      5403      5406      9874      9886      9880
 -1       341    5    0    1
 -2      5051      5048      5408      5053      5050      5410      8615      9887      9890      5052
 -2      5049      5409      8617      9889      9892
 -1       342    5    0    1
 -2      5048      5405      5408      5050      5407      5410      9881      9893      9887      5049
 -2      5406      5409      9883      9895      9889
 -1       343    5    0    1
 -2      5054      5051      5411      5056      5053      5413      8627      9896      9899      5055
 -2      5052      5412      8629      9898      9901
 -1       344    5    0    1
 -2      5051      5408      5411      5053      5410      5413      9890      9902      9896      5052
 -2      5409      5412      9892      9904      9898
 -1       345    5    0    1
 -2      5057      5054      5414      5059      5056      5416      8639      9905      9908      5058
 -2      5055      5415      8641      9907      9910
 -1       346    5    0    1
 -2      5054      5411      5414      5056      5413      5416      9899      9911      9905      5055
 -2      5412      5415      9901      9913      9907
 -1       347    5    0    1
 -2      5060      5057      5417      5062      5059      5419      8651      9914      9917      5061
 -2      5058      5418      8653      9916      9919
 -1       348    5    0    1
 -2      5057      5414      5417      5059      5416      5419      9908      9920      9914      5058
 -2      5415      5418      9910      9922      9916
 -1       349    5    0    1
 -2      5063      5060      5420      5065      5062      5422      8663      9923      9926      5064
 -2      5061      5421      8665      9925      9928
 -1       350    5    0    1
 -2      5060      5417      5420      5062      5419      5422      9917      9929      9923      5061
 -2      5418      5421      9919      9931      9925
 -1       351    5    0    1
 -2      5066      5063      5423      5068      5065      5425      8675      9932      9935      5067
 -2      5064      5424      8677      9934      9937
 -1       352    5    0    1
 -2      5063      5420      5423      5065      5422      5425      9926      9938      9932      5064
 -2      5421      5424      9928      9940      9934
 -1       353    5    0    1
 -2      5069      5066      5426      5071      5068      5428      8687      9941      9944      5070
 -2      5067      5427      8689      9943      9946
 -1       354    5    0    1
 -2      5066      5423      5426      5068      5425      5428      9935      9947      9941      5067
 -2      5424      5427      9937      9949      9943
 -1       355    5    0    1
 -2      5072      5069      5429      5074      5071      5431      8699      9950      9953      5073
 -2      5070      5430      8701      9952      9955
 -1       356    5    0    1
 -2      5069      5426      5429      5071      5428      5431      9944      9956      9950      5070
 -2      5427      5430      9946      9958      9952
 -1       357    5    0    1
 -2      5075      5072      5432      5077      5074      5434      8711      9959      9962      5076
 -2      5073      5433      8713      9961      9964
 -1       358    5    0    1
 -2      5072      5429      5432      5074      5431      5434      9953      9965      9959      5073
 -2      5430      5433      9955      9967      9961
 -1       359    5    0    1
 -2      5078      5075      5435      5080      5077      5437      8723      9968      9971      5079
 -2      5076      5436      8725      9970      9973
 -1       360    5    0    1
 -2      5075      5432      5435      5077      5434      5437      9962      9974      9968      5076
 -2      5433      5436      9964      9976      9970
 -1       361    5    0    1
 -2      5081      5078      5438      5083      5080      5440      8735      9977      9980      5082
 -2      5079      5439      8737      9979      9982
 -1       362    5    0    1
 -2      5078      5435      5438      5080      5437      5440      9971      9983      9977      5079
 -2      5436      5439      9973      9985      9979
 -1       363    5    0    1
 -2      5084      5081      5441      5086      5083      5443      8747      9986      9989      5085
 -2      5082      5442      8749      9988      9991
 -1       364    5    0    1
 -2      5081      5438      5441      5083      5440      5443      9980      9992      9986      5082
 -2      5439      5442      9982      9994      9988
 -1       365    5    0    1
 -2      5087      5084      5444      5089      5086      5446      8759      9995      9998      5088
 -2      5085      5445      8761      9997     10000
 -1       366    5    0    1
 -2      5084      5441      5444      5086      5443      5446      9989     10001      9995      5085
 -2      5442      5445      9991     10003      9997
 -1       367    5    0    1
 -2      5090      5087      5447      5092      5089      5449      8771     10004     10007      5091
 -2      5088      5448      8773     10006     10009
 -1       368    5    0    1
 -2      5087      5444      5447      5089      5446      5449      9998     10010     10004      5088
 -2      5445      5448     10000     10012     10006
 -1       369    5    0    1
 -2      5093      5090      5450      5095      5092      5452      8783     10013     10016      5094
 -2      5091      5451      8785     10015     10018
 -1       370    5    0    1
 -2      5090      5447      5450      5092      5449      5452     10007     10019     10013      5091
 -2      5448      5451     10009     10021     10015
 -1       371    5    0    1
 -2      5096      5093      5453      5098      5095      5455      8795     10022     10025      5097
 -2      5094      5454      8797     10024     10027
 -1       372    5    0    1
 -2      5093      5450      5453      5095      5452      5455     10016     10028     10022      5094
 -2      5451      5454     10018     10030     10024
 -1       373    5    0    1
 -2      4913      5150      5456      4915      5152      5458      9233     10031     10034      4914
 -2      5151      5457      9235     10033     10036
 -1       374    5    0    1
 -2      5150      5258      5456      5152      5260      5458      9500     10037     10031      5151
 -2      5259      5457      9502     10039     10033
 -1       375    5    0    1
 -2      4952      4955      5312      4954      4957      5314      9629     10040      9617      4953
 -2      4956      5313      9631     10042      9619
 -1       376    5    0    1
 -2      5222      4871      5459      5224      4873      5461      9419     10043     10046      5223
 -2      4872      5460      9421     10045     10048
 -1       377    5    0    1
 -2      4871      5111      5459      4873      5113      5461      9200     10049     10043      4872
 -2      5112      5460      9202     10051     10045
 -1       378    5    0    1
 -2      4988      5099      5345      4990      5101      5347      9719     10052      9692      4989
 -2      5100      5346      9721     10054      9694
 -1       379    5    0    1
 -2      5228      5102      5462      5230      5104      5464      9434     10055     10058      5229
 -2      5103      5463      9436     10057     10060
 -1       380    5    0    1
 -2      5102      4865      5462      5104      4867      5464      9305     10061     10055      5103
 -2      4866      5463      9307     10063     10057
 -1       381    5    0    1
 -2      5111      5231      5459      5113      5233      5461      9443     10064     10049      5112
 -2      5232      5460      9445     10066     10051
 -1       382    5    0    1
 -2      4874      5114      5465      4876      5116      5467      9203     10067     10070      4875
 -2      5115      5466      9205     10069     10072
 -1       383    5    0    1
 -2      4877      5117      5468      4879      5119      5470      9206     10073     10076      4878
 -2      5118      5469      9208     10075     10078
 -1       384    5    0    1
 -2      4880      5120      5471      4882      5122      5473      9209     10079     10082      4881
 -2      5121      5472      9211     10081     10084
 -1       385    5    0    1
 -2      4883      5123      5474      4885      5125      5476      9212     10085     10088      4884
 -2      5124      5475      9214     10087     10090
 -1       386    5    0    1
 -2      4886      5126      5477      4888      5128      5479      9215     10091     10094      4887
 -2      5127      5478      9217     10093     10096
 -1       387    5    0    1
 -2      4889      5129      5480      4891      5131      5482      9218     10097     10100      4890
 -2      5130      5481      9220     10099     10102
 -1       388    5    0    1
 -2      4892      5132      5483      4894      5134      5485      9221     10103     10106      4893
 -2      5133      5484      9223     10105     10108
 -1       389    5    0    1
 -2      5312      4955      5189      5314      4957      5191     10040      9272     10109      5313
 -2      4956      5190     10042      9274     10111
 -1       390    5    0    1
 -2      4901      5270      5138      4903      5272      5140      9530     10112      8933      4902
 -2      5271      5139      9532     10114      8935
 -1       391    5    0    1
 -2      5189      5276      5312      5191      5278      5314      9548     10115     10109      5190
 -2      5277      5313      9550     10117     10111
 -1       392    5    0    1
 -2      5237      4880      5471      5239      4882      5473      9452     10082     10118      5238
 -2      4881      5472      9454     10084     10120
 -1       393    5    0    1
 -2      5234      4877      5468      5236      4879      5470      9446     10076     10121      5235
 -2      4878      5469      9448     10078     10123
 -1       394    5    0    1
 -2      5147      4913      5486      5149      4915      5488      9410     10124     10127      5148
 -2      4914      5487      9412     10126     10129
 -1       395    5    0    1
 -2      5231      4874      5465      5233      4876      5467      9440     10070     10130      5232
 -2      4875      5466      9442     10072     10132
 -1       396    5    0    1
 -2      4916      5153      5489      4918      5155      5491      9236     10133     10136      4917
 -2      5154      5490      9238     10135     10138
 -1       397    5    0    1
 -2      4919      5156      5492      4921      5158      5494      9239     10139     10142      4920
 -2      5157      5493      9241     10141     10144
 -1       398    5    0    1
 -2      4922      5159      5495      4924      5161      5497      9242     10145     10148      4923
 -2      5160      5496      9244     10147     10150
 -1       399    5    0    1
 -2      4925      5162      5498      4927      5164      5500      9245     10151     10154      4926
 -2      5163      5499      9247     10153     10156
 -1       400    5    0    1
 -2      4928      5165      5501      4930      5167      5503      9248     10157     10160      4929
 -2      5166      5502      9250     10159     10162
 -1       401    5    0    1
 -2      4931      5168      5504      4933      5170      5506      9251     10163     10166      4932
 -2      5169      5505      9253     10165     10168
 -1       402    5    0    1
 -2      4934      5171      5507      4936      5173      5509      9254     10169     10172      4935
 -2      5172      5508      9256     10171     10174
 -1       403    5    0    1
 -2      4937      5174      5510      4939      5176      5512      9257     10175     10178      4938
 -2      5175      5511      9259     10177     10180
 -1       404    5    0    1
 -2      4940      5177      5513      4942      5179      5515      9260     10181     10184      4941
 -2      5178      5514      9262     10183     10186
 -1       405    5    0    1
 -2      4943      5180      5516      4945      5182      5518      9263     10187     10190      4944
 -2      5181      5517      9265     10189     10192
 -1       406    5    0    1
 -2      4946      5183      5519      4948      5185      5521      9266     10193     10196      4947
 -2      5184      5520      9268     10195     10198
 -1       407    5    0    1
 -2      4949      5186      5522      4951      5188      5524      9269     10199     10202      4950
 -2      5187      5523      9271     10201     10204
 -1       408    5    0    1
 -2      4865      5354      5462      4867      5356      5464      9728     10205     10061      4866
 -2      5355      5463      9730     10207     10063
 -1       409    5    0    1
 -2      4916      5489      5258      4918      5491      5260     10136     10208      9497      4917
 -2      5490      5259     10138     10210      9499
 -1       410    5    0    1
 -2      4958      5318      5276      4960      5320      5278      9635     10211      9545      4959
 -2      5319      5277      9637     10213      9547
 -1       411    5    0    1
 -2      4961      5195      5525      4963      5197      5527      9278     10214     10217      4962
 -2      5196      5526      9280     10216     10219
 -1       412    5    0    1
 -2      4964      5198      5528      4966      5200      5530      9281     10220     10223      4965
 -2      5199      5529      9283     10222     10225
 -1       413    5    0    1
 -2      4967      5201      5531      4969      5203      5533      9284     10226     10229      4968
 -2      5202      5532      9286     10228     10231
 -1       414    5    0    1
 -2      4970      5204      5534      4972      5206      5536      9287     10232     10235      4971
 -2      5205      5535      9289     10234     10237
 -1       415    5    0    1
 -2      4973      5207      5537      4975      5209      5539      9290     10238     10241      4974
 -2      5208      5538      9292     10240     10243
 -1       416    5    0    1
 -2      4976      5210      5540      4978      5212      5542      9293     10244     10247      4977
 -2      5211      5541      9295     10246     10249
 -1       417    5    0    1
 -2      4979      5213      5543      4981      5215      5545      9296     10250     10253      4980
 -2      5214      5544      9298     10252     10255
 -1       418    5    0    1
 -2      4982      5216      5546      4984      5218      5548      9299     10256     10259      4983
 -2      5217      5547      9301     10258     10261
 -1       419    5    0    1
 -2      4985      5219      5549      4987      5221      5551      9302     10262     10265      4986
 -2      5220      5550      9304     10264     10267
 -1       420    5    0    1
 -2      5483      5132      5252      5485      5134      5254     10103      9485     10268      5484
 -2      5133      5253     10105      9487     10270
 -1       421    5    0    1
 -2      5480      5129      5249      5482      5131      5251     10097      9479     10271      5481
 -2      5130      5250     10099      9481     10273
 -1       422    5    0    1
 -2      5477      5126      5246      5479      5128      5248     10091      9473     10274      5478
 -2      5127      5247     10093      9475     10276
 -1       423    5    0    1
 -2      4913      5456      5486      4915      5458      5488     10034     10277     10124      4914
 -2      5457      5487     10036     10279     10126
 -1       424    5    0    1
 -2      5099      5096      5345      5101      5098      5347      8810     10280     10052      5100
 -2      5097      5346      8812     10282     10054
 -1       425    5    0    1
 -2      5549      5219      5345      5551      5221      5347     10262      9695     10283      5550
 -2      5220      5346     10264      9697     10285
 -1       426    5    0    1
 -2      5546      5216      5342      5548      5218      5344     10256      9689     10286      5547
 -2      5217      5343     10258      9691     10288
 -1       427    5    0    1
 -2      5543      5213      5339      5545      5215      5341     10250      9683     10289      5544
 -2      5214      5340     10252      9685     10291
 -1       428    5    0    1
 -2      5540      5210      5336      5542      5212      5338     10244      9677     10292      5541
 -2      5211      5337     10246      9679     10294
 -1       429    5    0    1
 -2      5537      5207      5333      5539      5209      5335     10238      9671     10295      5538
 -2      5208      5334     10240      9673     10297
 -1       430    5    0    1
 -2      5534      5204      5330      5536      5206      5332     10232      9665     10298      5535
 -2      5205      5331     10234      9667     10300
 -1       431    5    0    1
 -2      5522      5186      5312      5524      5188      5314     10199      9620     10301      5523
 -2      5187      5313     10201      9622     10303
 -1       432    5    0    1
 -2      5519      5183      5309      5521      5185      5311     10193      9614     10304      5520
 -2      5184      5310     10195      9616     10306
 -1       433    5    0    1
 -2      5516      5180      5306      5518      5182      5308     10187      9608     10307      5517
 -2      5181      5307     10189      9610     10309
 -1       434    5    0    1
 -2      5195      5321      5525      5197      5323      5527      9647     10310     10214      5196
 -2      5322      5526      9649     10312     10216
 -1       435    5    0    1
 -2      5513      5177      5303      5515      5179      5305     10181      9602     10313      5514
 -2      5178      5304     10183      9604     10315
 -1       436    5    0    1
 -2      5510      5174      5300      5512      5176      5302     10175      9596     10316      5511
 -2      5175      5301     10177      9598     10318
 -1       437    5    0    1
 -2      5507      5171      5297      5509      5173      5299     10169      9590     10319      5508
 -2      5172      5298     10171      9592     10321
 -1       438    5    0    1
 -2      5504      5168      5294      5506      5170      5296     10163      9584     10322      5505
 -2      5169      5295     10165      9586     10324
 -1       439    5    0    1
 -2      5342      4985      5549      5344      4987      5551      9686     10265     10325      5343
 -2      4986      5550      9688     10267     10327
 -1       440    5    0    1
 -2      5339      4982      5546      5341      4984      5548      9680     10259     10328      5340
 -2      4983      5547      9682     10261     10330
 -1       441    5    0    1
 -2      5336      4979      5543      5338      4981      5545      9674     10253     10331      5337
 -2      4980      5544      9676     10255     10333
 -1       442    5    0    1
 -2      5333      4976      5540      5335      4978      5542      9668     10247     10334      5334
 -2      4977      5541      9670     10249     10336
 -1       443    5    0    1
 -2      5474      5123      5243      5476      5125      5245     10085      9467     10337      5475
 -2      5124      5244     10087      9469     10339
 -1       444    5    0    1
 -2      5330      4973      5537      5332      4975      5539      9662     10241     10340      5331
 -2      4974      5538      9664     10243     10342
 -1       445    5    0    1
 -2      5327      4970      5534      5329      4972      5536      9656     10235     10343      5328
 -2      4971      5535      9658     10237     10345
 -1       446    5    0    1
 -2      5315      4961      5525      5317      4963      5527      9623     10217     10346      5316
 -2      4962      5526      9625     10219     10348
 -1       447    5    0    1
 -2      5309      4949      5522      5311      4951      5524      9611     10202     10349      5310
 -2      4950      5523      9613     10204     10351
 -1       448    5    0    1
 -2      5306      4946      5519      5308      4948      5521      9605     10196     10352      5307
 -2      4947      5520      9607     10198     10354
 -1       449    5    0    1
 -2      5303      4943      5516      5305      4945      5518      9599     10190     10355      5304
 -2      4944      5517      9601     10192     10357
 -1       450    5    0    1
 -2      5300      4940      5513      5302      4942      5515      9593     10184     10358      5301
 -2      4941      5514      9595     10186     10360
 -1       451    5    0    1
 -2      5297      4937      5510      5299      4939      5512      9587     10178     10361      5298
 -2      4938      5511      9589     10180     10363
 -1       452    5    0    1
 -2      5294      4934      5507      5296      4936      5509      9581     10172     10364      5295
 -2      4935      5508      9583     10174     10366
 -1       453    5    0    1
 -2      5291      4931      5504      5293      4933      5506      9575     10166     10367      5292
 -2      4932      5505      9577     10168     10369
 -1       454    5    0    1
 -2      5288      4928      5501      5290      4930      5503      9569     10160     10370      5289
 -2      4929      5502      9571     10162     10372
 -1       455    5    0    1
 -2      5285      4925      5498      5287      4927      5500      9563     10154     10373      5286
 -2      4926      5499      9565     10156     10375
 -1       456    5    0    1
 -2      5282      4922      5495      5284      4924      5497      9557     10148     10376      5283
 -2      4923      5496      9559     10150     10378
 -1       457    5    0    1
 -2      5264      5147      5486      5266      5149      5488      9509     10127     10379      5265
 -2      5148      5487      9511     10129     10381
 -1       458    5    0    1
 -2      5249      4892      5483      5251      4894      5485      9476     10106     10382      5250
 -2      4893      5484      9478     10108     10384
 -1       459    5    0    1
 -2      5246      4889      5480      5248      4891      5482      9470     10100     10385      5247
 -2      4890      5481      9472     10102     10387
 -1       460    5    0    1
 -2      5243      4886      5477      5245      4888      5479      9464     10094     10388      5244
 -2      4887      5478      9466     10096     10390
 -1       461    5    0    1
 -2      5240      4883      5474      5242      4885      5476      9458     10088     10391      5241
 -2      4884      5475      9460     10090     10393
 -1       462    5    0    1
 -2      5471      5120      5240      5473      5122      5242     10079      9461     10394      5472
 -2      5121      5241     10081      9463     10396
 -1       463    5    0    1
 -2      5468      5117      5237      5470      5119      5239     10073      9455     10397      5469
 -2      5118      5238     10075      9457     10399
 -1       464    5    0    1
 -2      5465      5114      5234      5467      5116      5236     10067      9449     10400      5466
 -2      5115      5235     10069      9451     10402
 -1       465    5    0    1
 -2      5501      5165      5291      5503      5167      5293     10157      9578     10403      5502
 -2      5166      5292     10159      9580     10405
 -1       466    5    0    1
 -2      5498      5162      5288      5500      5164      5290     10151      9572     10406      5499
 -2      5163      5289     10153      9574     10408
 -1       467    5    0    1
 -2      5495      5159      5285      5497      5161      5287     10145      9566     10409      5496
 -2      5160      5286     10147      9568     10411
 -1       468    5    0    1
 -2      5492      5156      5282      5494      5158      5284     10139      9560     10412      5493
 -2      5157      5283     10141      9562     10414
 -1       469    5    0    1
 -2      5345      5096      5453      5347      5098      5455     10280     10025     10415      5346
 -2      5097      5454     10282     10027     10417
 -1       470    5    0    1
 -2      5489      5153      5279      5491      5155      5281     10133      9554     10418      5490
 -2      5154      5280     10135      9556     10420
 -1       471    5    0    1
 -2      4919      5492      5279      4921      5494      5281     10142     10421      9551      4920
 -2      5493      5280     10144     10423      9553
 -1       472    5    0    1
 -2      5531      5201      5327      5533      5203      5329     10226      9659     10424      5532
 -2      5202      5328     10228      9661     10426
 -1       473    5    0    1
 -2      5528      5198      5324      5530      5200      5326     10220      9653     10427      5529
 -2      5199      5325     10222      9655     10429
 -1       474    5    0    1
 -2      4964      5528      5321      4966      5530      5323     10223     10430      9644      4965
 -2      5529      5322     10225     10432      9646
 -1       475    5    0    1
 -2      4967      5531      5324      4969      5533      5326     10229     10433      9650      4968
 -2      5532      5325     10231     10435      9652
 -1       476    5    0    1
 -2      5258      5489      5552      5260      5491      5554     10208     10436     10439      5259
 -2      5490      5553     10210     10438     10441
 -1       477    5    0    1
 -2      5549      5345      5453      5551      5347      5455     10283     10415     10442      5550
 -2      5346      5454     10285     10417     10444
 -1       478    5    0    1
 -2      5501      5291      5555      5503      5293      5557     10403     10445     10448      5502
 -2      5292      5556     10405     10447     10450
 -1       479    5    0    1
 -2      5249      5483      5558      5251      5485      5560     10382     10451     10454      5250
 -2      5484      5559     10384     10453     10456
 -1       480    5    0    1
 -2      5465      5234      5561      5467      5236      5563     10400     10457     10460      5466
 -2      5235      5562     10402     10459     10462
 -1       481    5    0    1
 -2      5468      5237      5564      5470      5239      5566     10397     10463     10466      5469
 -2      5238      5565     10399     10465     10468
 -1       482    5    0    1
 -2      5471      5240      5567      5473      5242      5569     10394     10469     10472      5472
 -2      5241      5568     10396     10471     10474
 -1       483    5    0    1
 -2      5330      5537      5570      5332      5539      5572     10340     10475     10478      5331
 -2      5538      5571     10342     10477     10480
 -1       484    5    0    1
 -2      5486      5456      5573      5488      5458      5575     10277     10481     10484      5487
 -2      5457      5574     10279     10483     10486
 -1       485    5    0    1
 -2      5243      5477      5576      5245      5479      5578     10388     10487     10490      5244
 -2      5478      5577     10390     10489     10492
 -1       486    5    0    1
 -2      5246      5480      5579      5248      5482      5581     10385     10493     10496      5247
 -2      5481      5580     10387     10495     10498
 -1       487    5    0    1
 -2      5480      5249      5582      5482      5251      5584     10271     10499     10502      5481
 -2      5250      5583     10273     10501     10504
 -1       488    5    0    1
 -2      5579      5480      5582      5581      5482      5584     10493     10502     10505      5580
 -2      5481      5583     10495     10504     10507
 -1       489    5    0    1
 -2      5249      5558      5582      5251      5560      5584     10454     10508     10499      5250
 -2      5559      5583     10456     10510     10501
 -1       490    5    0    1
 -2      5237      5471      5585      5239      5473      5587     10118     10511     10514      5238
 -2      5472      5586     10120     10513     10516
 -1       491    5    0    1
 -2      5564      5237      5585      5566      5239      5587     10463     10514     10517      5565
 -2      5238      5586     10465     10516     10519
 -1       492    5    0    1
 -2      5471      5567      5585      5473      5569      5587     10472     10520     10511      5472
 -2      5568      5586     10474     10522     10513
 -1       493    5    0    1
 -2      5351      5225      5588      5353      5227      5590      9716     10523     10526      5352
 -2      5226      5589      9718     10525     10528
 -1       494    5    0    1
 -2      5231      5465      5591      5233      5467      5593     10130     10529     10532      5232
 -2      5466      5592     10132     10531     10534
 -1       495    5    0    1
 -2      5465      5561      5591      5467      5563      5593     10460     10535     10529      5466
 -2      5562      5592     10462     10537     10531
 -1       496    5    0    1
 -2      5531      5327      5594      5533      5329      5596     10424     10538     10541      5532
 -2      5328      5595     10426     10540     10543
 -1       497    5    0    1
 -2      5279      5492      5597      5281      5494      5599     10421     10544     10547      5280
 -2      5493      5598     10423     10546     10549
 -1       498    5    0    1
 -2      5264      5486      5600      5266      5488      5602     10379     10550     10553      5265
 -2      5487      5601     10381     10552     10555
 -1       499    5    0    1
 -2      5486      5573      5600      5488      5575      5602     10484     10556     10550      5487
 -2      5574      5601     10486     10558     10552
 -1       500    5    0    1
 -2      5282      5495      5603      5284      5497      5605     10376     10559     10562      5283
 -2      5496      5604     10378     10561     10564
 -1       501    5    0    1
 -2      5285      5498      5606      5287      5500      5608     10373     10565     10568      5286
 -2      5499      5607     10375     10567     10570
 -1       502    5    0    1
 -2      5288      5501      5609      5290      5503      5611     10370     10571     10574      5289
 -2      5502      5610     10372     10573     10576
 -1       503    5    0    1
 -2      5501      5555      5609      5503      5557      5611     10448     10577     10571      5502
 -2      5556      5610     10450     10579     10573
 -1       504    5    0    1
 -2      5504      5294      5612      5506      5296      5614     10322     10580     10583      5505
 -2      5295      5613     10324     10582     10585
 -1       505    5    0    1
 -2      5507      5297      5615      5509      5299      5617     10319     10586     10589      5508
 -2      5298      5616     10321     10588     10591
 -1       506    5    0    1
 -2      5510      5300      5618      5512      5302      5620     10316     10592     10595      5511
 -2      5301      5619     10318     10594     10597
 -1       507    5    0    1
 -2      5525      5321      5621      5527      5323      5623     10310     10598     10601      5526
 -2      5322      5622     10312     10600     10603
 -1       508    5    0    1
 -2      5303      5516      5624      5305      5518      5626     10355     10604     10607      5304
 -2      5517      5625     10357     10606     10609
 -1       509    5    0    1
 -2      5306      5519      5627      5308      5521      5629     10352     10610     10613      5307
 -2      5520      5628     10354     10612     10615
 -1       510    5    0    1
 -2      5462      5354      5630      5464      5356      5632     10205     10616     10619      5463
 -2      5355      5631     10207     10618     10621
 -1       511    5    0    1
 -2      5138      5270      5252      5140      5272      5254     10112     10622      9488      5139
 -2      5271      5253     10114     10624      9490
 -1       512    5    0    1
 -2      5318      5315      5633      5320      5317      5635      9638     10625     10628      5319
 -2      5316      5634      9640     10627     10630
 -1       513    5    0    1
 -2      5513      5303      5636      5515      5305      5638     10313     10631     10634      5514
 -2      5304      5637     10315     10633     10636
 -1       514    5    0    1
 -2      5303      5624      5636      5305      5626      5638     10607     10637     10631      5304
 -2      5625      5637     10609     10639     10633
 -1       515    5    0    1
 -2      5324      5531      5639      5326      5533      5641     10433     10640     10643      5325
 -2      5532      5640     10435     10642     10645
 -1       516    5    0    1
 -2      5531      5594      5639      5533      5596      5641     10541     10646     10640      5532
 -2      5595      5640     10543     10648     10642
 -1       517    5    0    1
 -2      5528      5324      5642      5530      5326      5644     10427     10649     10652      5529
 -2      5325      5643     10429     10651     10654
 -1       518    5    0    1
 -2      5324      5639      5642      5326      5641      5644     10643     10655     10649      5325
 -2      5640      5643     10645     10657     10651
 -1       519    5    0    1
 -2      5315      5525      5645      5317      5527      5647     10346     10658     10661      5316
 -2      5526      5646     10348     10660     10663
 -1       520    5    0    1
 -2      5525      5621      5645      5527      5623      5647     10601     10664     10658      5526
 -2      5622      5646     10603     10666     10660
 -1       521    5    0    1
 -2      5522      5312      5648      5524      5314      5650     10301     10667     10670      5523
 -2      5313      5649     10303     10669     10672
 -1       522    5    0    1
 -2      5312      5276      5648      5314      5278      5650     10115     10673     10667      5313
 -2      5277      5649     10117     10675     10669
 -1       523    5    0    1
 -2      5534      5330      5651      5536      5332      5653     10298     10676     10679      5535
 -2      5331      5652     10300     10678     10681
 -1       524    5    0    1
 -2      5330      5570      5651      5332      5572      5653     10478     10682     10676      5331
 -2      5571      5652     10480     10684     10678
 -1       525    5    0    1
 -2      5474      5243      5654      5476      5245      5656     10337     10685     10688      5475
 -2      5244      5655     10339     10687     10690
 -1       526    5    0    1
 -2      5243      5576      5654      5245      5578      5656     10490     10691     10685      5244
 -2      5577      5655     10492     10693     10687
 -1       527    5    0    1
 -2      5333      5540      5657      5335      5542      5659     10334     10694     10697      5334
 -2      5541      5658     10336     10696     10699
 -1       528    5    0    1
 -2      5336      5543      5660      5338      5545      5662     10331     10700     10703      5337
 -2      5544      5661     10333     10702     10705
 -1       529    5    0    1
 -2      5339      5546      5663      5341      5548      5665     10328     10706     10709      5340
 -2      5547      5664     10330     10708     10711
 -1       530    5    0    1
 -2      5483      5252      5666      5485      5254      5668     10268     10712     10715      5484
 -2      5253      5667     10270     10714     10717
 -1       531    5    0    1
 -2      5558      5483      5666      5560      5485      5668     10451     10715     10718      5559
 -2      5484      5667     10453     10717     10720
 -1       532    5    0    1
 -2      5252      5270      5666      5254      5272      5668     10622     10721     10712      5253
 -2      5271      5667     10624     10723     10714
 -1       533    5    0    1
 -2      5459      5231      5669      5461      5233      5671     10064     10724     10727      5460
 -2      5232      5670     10066     10726     10729
 -1       534    5    0    1
 -2      5231      5591      5669      5233      5593      5671     10532     10730     10724      5232
 -2      5592      5670     10534     10732     10726
 -1       535    5    0    1
 -2      5354      5351      5672      5356      5353      5674      9731     10733     10736      5355
 -2      5352      5673      9733     10735     10738
 -1       536    5    0    1
 -2      5630      5354      5672      5632      5356      5674     10616     10736     10739      5631
 -2      5355      5673     10618     10738     10741
 -1       537    5    0    1
 -2      5351      5588      5672      5353      5590      5674     10526     10742     10733      5352
 -2      5589      5673     10528     10744     10735
 -1       538    5    0    1
 -2      5357      5228      5462      5359      5230      5464      9740     10058     10745      5358
 -2      5229      5463      9742     10060     10747
 -1       539    5    0    1
 -2      5360      5357      5675      5362      5359      5677      9749     10748     10751      5361
 -2      5358      5676      9751     10750     10753
 -1       540    5    0    1
 -2      5363      5360      5678      5365      5362      5680      9758     10754     10757      5364
 -2      5361      5679      9760     10756     10759
 -1       541    5    0    1
 -2      5360      5675      5678      5362      5677      5680     10751     10760     10754      5361
 -2      5676      5679     10753     10762     10756
 -1       542    5    0    1
 -2      5366      5363      5681      5368      5365      5683      9767     10763     10766      5367
 -2      5364      5682      9769     10765     10768
 -1       543    5    0    1
 -2      5363      5678      5681      5365      5680      5683     10757     10769     10763      5364
 -2      5679      5682     10759     10771     10765
 -1       544    5    0    1
 -2      5369      5366      5684      5371      5368      5686      9776     10772     10775      5370
 -2      5367      5685      9778     10774     10777
 -1       545    5    0    1
 -2      5366      5681      5684      5368      5683      5686     10766     10778     10772      5367
 -2      5682      5685     10768     10780     10774
 -1       546    5    0    1
 -2      5372      5369      5687      5374      5371      5689      9785     10781     10784      5373
 -2      5370      5688      9787     10783     10786
 -1       547    5    0    1
 -2      5369      5684      5687      5371      5686      5689     10775     10787     10781      5370
 -2      5685      5688     10777     10789     10783
 -1       548    5    0    1
 -2      5375      5372      5690      5377      5374      5692      9794     10790     10793      5376
 -2      5373      5691      9796     10792     10795
 -1       549    5    0    1
 -2      5372      5687      5690      5374      5689      5692     10784     10796     10790      5373
 -2      5688      5691     10786     10798     10792
 -1       550    5    0    1
 -2      5378      5375      5693      5380      5377      5695      9803     10799     10802      5379
 -2      5376      5694      9805     10801     10804
 -1       551    5    0    1
 -2      5375      5690      5693      5377      5692      5695     10793     10805     10799      5376
 -2      5691      5694     10795     10807     10801
 -1       552    5    0    1
 -2      5381      5378      5696      5383      5380      5698      9812     10808     10811      5382
 -2      5379      5697      9814     10810     10813
 -1       553    5    0    1
 -2      5378      5693      5696      5380      5695      5698     10802     10814     10808      5379
 -2      5694      5697     10804     10816     10810
 -1       554    5    0    1
 -2      5384      5381      5699      5386      5383      5701      9821     10817     10820      5385
 -2      5382      5700      9823     10819     10822
 -1       555    5    0    1
 -2      5381      5696      5699      5383      5698      5701     10811     10823     10817      5382
 -2      5697      5700     10813     10825     10819
 -1       556    5    0    1
 -2      5387      5384      5702      5389      5386      5704      9830     10826     10829      5388
 -2      5385      5703      9832     10828     10831
 -1       557    5    0    1
 -2      5384      5699      5702      5386      5701      5704     10820     10832     10826      5385
 -2      5700      5703     10822     10834     10828
 -1       558    5    0    1
 -2      5390      5387      5705      5392      5389      5707      9839     10835     10838      5391
 -2      5388      5706      9841     10837     10840
 -1       559    5    0    1
 -2      5387      5702      5705      5389      5704      5707     10829     10841     10835      5388
 -2      5703      5706     10831     10843     10837
 -1       560    5    0    1
 -2      5393      5390      5708      5395      5392      5710      9848     10844     10847      5394
 -2      5391      5709      9850     10846     10849
 -1       561    5    0    1
 -2      5390      5705      5708      5392      5707      5710     10838     10850     10844      5391
 -2      5706      5709     10840     10852     10846
 -1       562    5    0    1
 -2      5396      5393      5711      5398      5395      5713      9857     10853     10856      5397
 -2      5394      5712      9859     10855     10858
 -1       563    5    0    1
 -2      5393      5708      5711      5395      5710      5713     10847     10859     10853      5394
 -2      5709      5712     10849     10861     10855
 -1       564    5    0    1
 -2      5399      5396      5714      5401      5398      5716      9866     10862     10865      5400
 -2      5397      5715      9868     10864     10867
 -1       565    5    0    1
 -2      5396      5711      5714      5398      5713      5716     10856     10868     10862      5397
 -2      5712      5715     10858     10870     10864
 -1       566    5    0    1
 -2      5402      5399      5717      5404      5401      5719      9875     10871     10874      5403
 -2      5400      5718      9877     10873     10876
 -1       567    5    0    1
 -2      5399      5714      5717      5401      5716      5719     10865     10877     10871      5400
 -2      5715      5718     10867     10879     10873
 -1       568    5    0    1
 -2      5405      5402      5720      5407      5404      5722      9884     10880     10883      5406
 -2      5403      5721      9886     10882     10885
 -1       569    5    0    1
 -2      5402      5717      5720      5404      5719      5722     10874     10886     10880      5403
 -2      5718      5721     10876     10888     10882
 -1       570    5    0    1
 -2      5408      5405      5723      5410      5407      5725      9893     10889     10892      5409
 -2      5406      5724      9895     10891     10894
 -1       571    5    0    1
 -2      5405      5720      5723      5407      5722      5725     10883     10895     10889      5406
 -2      5721      5724     10885     10897     10891
 -1       572    5    0    1
 -2      5411      5408      5726      5413      5410      5728      9902     10898     10901      5412
 -2      5409      5727      9904     10900     10903
 -1       573    5    0    1
 -2      5408      5723      5726      5410      5725      5728     10892     10904     10898      5409
 -2      5724      5727     10894     10906     10900
 -1       574    5    0    1
 -2      5414      5411      5729      5416      5413      5731      9911     10907     10910      5415
 -2      5412      5730      9913     10909     10912
 -1       575    5    0    1
 -2      5411      5726      5729      5413      5728      5731     10901     10913     10907      5412
 -2      5727      5730     10903     10915     10909
 -1       576    5    0    1
 -2      5417      5414      5732      5419      5416      5734      9920     10916     10919      5418
 -2      5415      5733      9922     10918     10921
 -1       577    5    0    1
 -2      5414      5729      5732      5416      5731      5734     10910     10922     10916      5415
 -2      5730      5733     10912     10924     10918
 -1       578    5    0    1
 -2      5420      5417      5735      5422      5419      5737      9929     10925     10928      5421
 -2      5418      5736      9931     10927     10930
 -1       579    5    0    1
 -2      5417      5732      5735      5419      5734      5737     10919     10931     10925      5418
 -2      5733      5736     10921     10933     10927
 -1       580    5    0    1
 -2      5423      5420      5738      5425      5422      5740      9938     10934     10937      5424
 -2      5421      5739      9940     10936     10939
 -1       581    5    0    1
 -2      5420      5735      5738      5422      5737      5740     10928     10940     10934      5421
 -2      5736      5739     10930     10942     10936
 -1       582    5    0    1
 -2      5426      5423      5741      5428      5425      5743      9947     10943     10946      5427
 -2      5424      5742      9949     10945     10948
 -1       583    5    0    1
 -2      5423      5738      5741      5425      5740      5743     10937     10949     10943      5424
 -2      5739      5742     10939     10951     10945
 -1       584    5    0    1
 -2      5429      5426      5744      5431      5428      5746      9956     10952     10955      5430
 -2      5427      5745      9958     10954     10957
 -1       585    5    0    1
 -2      5426      5741      5744      5428      5743      5746     10946     10958     10952      5427
 -2      5742      5745     10948     10960     10954
 -1       586    5    0    1
 -2      5432      5429      5747      5434      5431      5749      9965     10961     10964      5433
 -2      5430      5748      9967     10963     10966
 -1       587    5    0    1
 -2      5429      5744      5747      5431      5746      5749     10955     10967     10961      5430
 -2      5745      5748     10957     10969     10963
 -1       588    5    0    1
 -2      5435      5432      5750      5437      5434      5752      9974     10970     10973      5436
 -2      5433      5751      9976     10972     10975
 -1       589    5    0    1
 -2      5432      5747      5750      5434      5749      5752     10964     10976     10970      5433
 -2      5748      5751     10966     10978     10972
 -1       590    5    0    1
 -2      5438      5435      5753      5440      5437      5755      9983     10979     10982      5439
 -2      5436      5754      9985     10981     10984
 -1       591    5    0    1
 -2      5435      5750      5753      5437      5752      5755     10973     10985     10979      5436
 -2      5751      5754     10975     10987     10981
 -1       592    5    0    1
 -2      5441      5438      5756      5443      5440      5758      9992     10988     10991      5442
 -2      5439      5757      9994     10990     10993
 -1       593    5    0    1
 -2      5438      5753      5756      5440      5755      5758     10982     10994     10988      5439
 -2      5754      5757     10984     10996     10990
 -1       594    5    0    1
 -2      5444      5441      5759      5446      5443      5761     10001     10997     11000      5445
 -2      5442      5760     10003     10999     11002
 -1       595    5    0    1
 -2      5441      5756      5759      5443      5758      5761     10991     11003     10997      5442
 -2      5757      5760     10993     11005     10999
 -1       596    5    0    1
 -2      5447      5444      5762      5449      5446      5764     10010     11006     11009      5448
 -2      5445      5763     10012     11008     11011
 -1       597    5    0    1
 -2      5444      5759      5762      5446      5761      5764     11000     11012     11006      5445
 -2      5760      5763     11002     11014     11008
 -1       598    5    0    1
 -2      5450      5447      5765      5452      5449      5767     10019     11015     11018      5451
 -2      5448      5766     10021     11017     11020
 -1       599    5    0    1
 -2      5447      5762      5765      5449      5764      5767     11009     11021     11015      5448
 -2      5763      5766     11011     11023     11017
 -1       600    5    0    1
 -2      5453      5450      5768      5455      5452      5770     10028     11024     11027      5454
 -2      5451      5769     10030     11026     11029
 -1       601    5    0    1
 -2      5450      5765      5768      5452      5767      5770     11018     11030     11024      5451
 -2      5766      5769     11020     11032     11026
 -1       602    5    0    1
 -2      5456      5258      5771      5458      5260      5773     10037     11033     11036      5457
 -2      5259      5772     10039     11035     11038
 -1       603    5    0    1
 -2      5573      5456      5771      5575      5458      5773     10481     11036     11039      5574
 -2      5457      5772     10483     11038     11041
 -1       604    5    0    1
 -2      5258      5552      5771      5260      5554      5773     10439     11042     11033      5259
 -2      5553      5772     10441     11044     11035
 -1       605    5    0    1
 -2      5222      5459      5774      5224      5461      5776     10046     11045     11048      5223
 -2      5460      5775     10048     11047     11050
 -1       606    5    0    1
 -2      5459      5669      5774      5461      5671      5776     10727     11051     11045      5460
 -2      5670      5775     10729     11053     11047
 -1       607    5    0    1
 -2      5309      5522      5777      5311      5524      5779     10349     11054     11057      5310
 -2      5523      5778     10351     11056     11059
 -1       608    5    0    1
 -2      5522      5648      5777      5524      5650      5779     10670     11060     11054      5523
 -2      5649      5778     10672     11062     11056
 -1       609    5    0    1
 -2      5276      5318      5780      5278      5320      5782     10211     11063     11066      5277
 -2      5319      5781     10213     11065     11068
 -1       610    5    0    1
 -2      5648      5276      5780      5650      5278      5782     10673     11066     11069      5649
 -2      5277      5781     10675     11068     11071
 -1       611    5    0    1
 -2      5318      5633      5780      5320      5635      5782     10628     11072     11063      5319
 -2      5634      5781     10630     11074     11065
 -1       612    5    0    1
 -2      5549      5453      5783      5551      5455      5785     10442     11075     11078      5550
 -2      5454      5784     10444     11077     11080
 -1       613    5    0    1
 -2      5342      5549      5783      5344      5551      5785     10325     11078     11081      5343
 -2      5550      5784     10327     11080     11083
 -1       614    5    0    1
 -2      5453      5768      5783      5455      5770      5785     11027     11084     11075      5454
 -2      5769      5784     11029     11086     11077
 -1       615    5    0    1
 -2      5615      5297      5786      5617      5299      5788     10586     11087     11090      5616
 -2      5298      5787     10588     11089     11092
 -1       616    5    0    1
 -2      5297      5510      5786      5299      5512      5788     10361     11093     11087      5298
 -2      5511      5787     10363     11095     11089
 -1       617    5    0    1
 -2      5234      5468      5789      5236      5470      5791     10121     11096     11099      5235
 -2      5469      5790     10123     11098     11101
 -1       618    5    0    1
 -2      5357      5462      5630      5359      5464      5632     10745     10619     11102      5358
 -2      5463      5631     10747     10621     11104
 -1       619    5    0    1
 -2      5240      5474      5792      5242      5476      5794     10391     11105     11108      5241
 -2      5475      5793     10393     11107     11110
 -1       620    5    0    1
 -2      5477      5246      5795      5479      5248      5797     10274     11111     11114      5478
 -2      5247      5796     10276     11113     11116
 -1       621    5    0    1
 -2      5576      5477      5795      5578      5479      5797     10487     11114     11117      5577
 -2      5478      5796     10489     11116     11119
 -1       622    5    0    1
 -2      5255      5267      5798      5257      5269      5800      9521     11120     11123      5256
 -2      5268      5799      9523     11122     11125
 -1       623    5    0    1
 -2      5273      5264      5801      5275      5266      5803      9542     11126     11129      5274
 -2      5265      5802      9544     11128     11131
 -1       624    5    0    1
 -2      5264      5600      5801      5266      5602      5803     10553     11132     11126      5265
 -2      5601      5802     10555     11134     11128
 -1       625    5    0    1
 -2      5261      5273      5804      5263      5275      5806      9539     11135     11138      5262
 -2      5274      5805      9541     11137     11140
 -1       626    5    0    1
 -2      5273      5801      5804      5275      5803      5806     11129     11141     11135      5274
 -2      5802      5805     11131     11143     11137
 -1       627    5    0    1
 -2      5489      5279      5807      5491      5281      5809     10418     11144     11147      5490
 -2      5280      5808     10420     11146     11149
 -1       628    5    0    1
 -2      5567      5240      5792      5569      5242      5794     10469     11108     11150      5568
 -2      5241      5793     10471     11110     11152
 -1       629    5    0    1
 -2      5603      5495      5810      5605      5497      5812     10559     11153     11156      5604
 -2      5496      5811     10561     11155     11158
 -1       630    5    0    1
 -2      5495      5285      5810      5497      5287      5812     10409     11159     11153      5496
 -2      5286      5811     10411     11161     11155
 -1       631    5    0    1
 -2      5492      5282      5813      5494      5284      5815     10412     11162     11165      5493
 -2      5283      5814     10414     11164     11167
 -1       632    5    0    1
 -2      5285      5606      5810      5287      5608      5812     10568     11168     11159      5286
 -2      5607      5811     10570     11170     11161
 -1       633    5    0    1
 -2      5492      5813      5597      5494      5815      5599     11165     11171     10544      5493
 -2      5814      5598     11167     11173     10546
 -1       634    5    0    1
 -2      5498      5288      5816      5500      5290      5818     10406     11174     11177      5499
 -2      5289      5817     10408     11176     11179
 -1       635    5    0    1
 -2      5612      5294      5819      5614      5296      5821     10580     11180     11183      5613
 -2      5295      5820     10582     11182     11185
 -1       636    5    0    1
 -2      5294      5507      5819      5296      5509      5821     10364     11186     11180      5295
 -2      5508      5820     10366     11188     11182
 -1       637    5    0    1
 -2      5786      5510      5618      5788      5512      5620     11093     10595     11189      5787
 -2      5511      5619     11095     10597     11191
 -1       638    5    0    1
 -2      5291      5504      5822      5293      5506      5824     10367     11192     11195      5292
 -2      5505      5823     10369     11194     11197
 -1       639    5    0    1
 -2      5507      5615      5819      5509      5617      5821     10589     11198     11186      5508
 -2      5616      5820     10591     11200     11188
 -1       640    5    0    1
 -2      5291      5822      5555      5293      5824      5557     11195     11201     10445      5292
 -2      5823      5556     11197     11203     10447
 -1       641    5    0    1
 -2      5234      5789      5561      5236      5791      5563     11099     11204     10457      5235
 -2      5790      5562     11101     11206     10459
 -1       642    5    0    1
 -2      5300      5513      5825      5302      5515      5827     10358     11207     11210      5301
 -2      5514      5826     10360     11209     11212
 -1       643    5    0    1
 -2      5315      5645      5633      5317      5647      5635     10661     11213     10625      5316
 -2      5646      5634     10663     11215     10627
 -1       644    5    0    1
 -2      5516      5306      5828      5518      5308      5830     10307     11216     11219      5517
 -2      5307      5829     10309     11218     11221
 -1       645    5    0    1
 -2      5519      5309      5831      5521      5311      5833     10304     11222     11225      5520
 -2      5310      5832     10306     11224     11227
 -1       646    5    0    1
 -2      5309      5777      5831      5311      5779      5833     11057     11228     11222      5310
 -2      5778      5832     11059     11230     11224
 -1       647    5    0    1
 -2      5588      5225      5834      5590      5227      5836     10523     11231     11234      5589
 -2      5226      5835     10525     11233     11236
 -1       648    5    0    1
 -2      5225      5222      5834      5227      5224      5836      9431     11237     11231      5226
 -2      5223      5835      9433     11239     11233
 -1       649    5    0    1
 -2      5516      5828      5624      5518      5830      5626     11219     11240     10604      5517
 -2      5829      5625     11221     11242     10606
 -1       650    5    0    1
 -2      5300      5825      5618      5302      5827      5620     11210     11243     10592      5301
 -2      5826      5619     11212     11245     10594
 -1       651    5    0    1
 -2      5513      5636      5825      5515      5638      5827     10634     11246     11207      5514
 -2      5637      5826     10636     11248     11209
 -1       652    5    0    1
 -2      5222      5774      5834      5224      5776      5836     11048     11249     11237      5223
 -2      5775      5835     11050     11251     11239
 -1       653    5    0    1
 -2      5321      5528      5837      5323      5530      5839     10430     11252     11255      5322
 -2      5529      5838     10432     11254     11257
 -1       654    5    0    1
 -2      5552      5489      5807      5554      5491      5809     10436     11147     11258      5553
 -2      5490      5808     10438     11149     11260
 -1       655    5    0    1
 -2      5327      5534      5840      5329      5536      5842     10343     11261     11264      5328
 -2      5535      5841     10345     11263     11266
 -1       656    5    0    1
 -2      5537      5333      5843      5539      5335      5845     10295     11267     11270      5538
 -2      5334      5844     10297     11269     11272
 -1       657    5    0    1
 -2      5540      5336      5846      5542      5338      5848     10292     11273     11276      5541
 -2      5337      5847     10294     11275     11278
 -1       658    5    0    1
 -2      5543      5339      5849      5545      5341      5851     10289     11279     11282      5544
 -2      5340      5850     10291     11281     11284
 -1       659    5    0    1
 -2      5546      5342      5852      5548      5344      5854     10286     11285     11288      5547
 -2      5343      5853     10288     11287     11290
 -1       660    5    0    1
 -2      5348      5255      5855      5350      5257      5857      9707     11291     11294      5349
 -2      5256      5856      9709     11293     11296
 -1       661    5    0    1
 -2      5255      5798      5855      5257      5800      5857     11123     11297     11291      5256
 -2      5799      5856     11125     11299     11293
 -1       662    5    0    1
 -2      5663      5546      5852      5665      5548      5854     10706     11288     11300      5664
 -2      5547      5853     10708     11290     11302
 -1       663    5    0    1
 -2      5660      5543      5849      5662      5545      5851     10700     11282     11303      5661
 -2      5544      5850     10702     11284     11305
 -1       664    5    0    1
 -2      5267      5261      5858      5269      5263      5860      9524     11306     11309      5268
 -2      5262      5859      9526     11308     11311
 -1       665    5    0    1
 -2      5798      5267      5858      5800      5269      5860     11120     11309     11312      5799
 -2      5268      5859     11122     11311     11314
 -1       666    5    0    1
 -2      5261      5804      5858      5263      5806      5860     11138     11315     11306      5262
 -2      5805      5859     11140     11317     11308
 -1       667    5    0    1
 -2      5342      5783      5852      5344      5785      5854     11081     11318     11285      5343
 -2      5784      5853     11083     11320     11287
 -1       668    5    0    1
 -2      5627      5519      5831      5629      5521      5833     10610     11225     11321      5628
 -2      5520      5832     10612     11227     11323
 -1       669    5    0    1
 -2      5621      5321      5837      5623      5323      5839     10598     11255     11324      5622
 -2      5322      5838     10600     11257     11326
 -1       670    5    0    1
 -2      5789      5468      5564      5791      5470      5566     11096     10466     11327      5790
 -2      5469      5565     11098     10468     11329
 -1       671    5    0    1
 -2      5795      5246      5579      5797      5248      5581     11111     10496     11330      5796
 -2      5247      5580     11113     10498     11332
 -1       672    5    0    1
 -2      5792      5474      5654      5794      5476      5656     11105     10688     11333      5793
 -2      5475      5655     11107     10690     11335
 -1       673    5    0    1
 -2      5498      5816      5606      5500      5818      5608     11177     11336     10565      5499
 -2      5817      5607     11179     11338     10567
 -1       674    5    0    1
 -2      5327      5840      5594      5329      5842      5596     11264     11339     10538      5328
 -2      5841      5595     11266     11341     10540
 -1       675    5    0    1
 -2      5807      5279      5597      5809      5281      5599     11144     10547     11342      5808
 -2      5280      5598     11146     10549     11344
 -1       676    5    0    1
 -2      5813      5282      5603      5815      5284      5605     11162     10562     11345      5814
 -2      5283      5604     11164     10564     11347
 -1       677    5    0    1
 -2      5816      5288      5609      5818      5290      5611     11174     10574     11348      5817
 -2      5289      5610     11176     10576     11350
 -1       678    5    0    1
 -2      5822      5504      5612      5824      5506      5614     11192     10583     11351      5823
 -2      5505      5613     11194     10585     11353
 -1       679    5    0    1
 -2      5828      5306      5627      5830      5308      5629     11216     10613     11354      5829
 -2      5307      5628     11218     10615     11356
 -1       680    5    0    1
 -2      5849      5339      5663      5851      5341      5665     11279     10709     11357      5850
 -2      5340      5664     11281     10711     11359
 -1       681    5    0    1
 -2      5846      5336      5660      5848      5338      5662     11273     10703     11360      5847
 -2      5337      5661     11275     10705     11362
 -1       682    5    0    1
 -2      5843      5333      5657      5845      5335      5659     11267     10697     11363      5844
 -2      5334      5658     11269     10699     11365
 -1       683    5    0    1
 -2      5837      5528      5642      5839      5530      5644     11252     10652     11366      5838
 -2      5529      5643     11254     10654     11368
 -1       684    5    0    1
 -2      5840      5534      5651      5842      5536      5653     11261     10679     11369      5841
 -2      5535      5652     11263     10681     11371
 -1       685    5    0    1
 -2      5537      5843      5570      5539      5845      5572     11270     11372     10475      5538
 -2      5844      5571     11272     11374     10477
 -1       686    5    0    1
 -2      5540      5846      5657      5542      5848      5659     11276     11375     10694      5541
 -2      5847      5658     11278     11377     10696
 -1       687    5    0    1
 -2      5609      5555      5861      5611      5557      5863     10577     11378     11381      5610
 -2      5556      5862     10579     11380     11383
 -1       688    5    0    1
 -2      5594      5840      5864      5596      5842      5866     11339     11384     11387      5595
 -2      5841      5865     11341     11386     11389
 -1       689    5    0    1
 -2      5561      5789      5867      5563      5791      5869     11204     11390     11393      5562
 -2      5790      5868     11206     11392     11395
 -1       690    5    0    1
 -2      5795      5579      5870      5797      5581      5872     11330     11396     11399      5796
 -2      5580      5871     11332     11398     11401
 -1       691    5    0    1
 -2      5357      5630      5675      5359      5632      5677     11102     11402     10748      5358
 -2      5631      5676     11104     11404     10750
 -1       692    5    0    1
 -2      5606      5816      5873      5608      5818      5875     11336     11405     11408      5607
 -2      5817      5874     11338     11407     11410
 -1       693    5    0    1
 -2      5816      5609      5876      5818      5611      5878     11348     11411     11414      5817
 -2      5610      5877     11350     11413     11416
 -1       694    5    0    1
 -2      5873      5816      5876      5875      5818      5878     11405     11414     11417      5874
 -2      5817      5877     11407     11416     11419
 -1       695    5    0    1
 -2      5609      5861      5876      5611      5863      5878     11381     11420     11411      5610
 -2      5862      5877     11383     11422     11413
 -1       696    5    0    1
 -2      5663      5852      5879      5665      5854      5881     11300     11423     11426      5664
 -2      5853      5880     11302     11425     11428
 -1       697    5    0    1
 -2      5837      5642      5882      5839      5644      5884     11366     11429     11432      5838
 -2      5643      5883     11368     11431     11434
 -1       698    5    0    1
 -2      5792      5654      5885      5794      5656      5887     11333     11435     11438      5793
 -2      5655      5886     11335     11437     11440
 -1       699    5    0    1
 -2      5576      5795      5888      5578      5797      5890     11117     11441     11444      5577
 -2      5796      5889     11119     11443     11446
 -1       700    5    0    1
 -2      5795      5870      5888      5797      5872      5890     11399     11447     11441      5796
 -2      5871      5889     11401     11449     11443
 -1       701    5    0    1
 -2      5591      5561      5891      5593      5563      5893     10535     11450     11453      5592
 -2      5562      5892     10537     11452     11455
 -1       702    5    0    1
 -2      5561      5867      5891      5563      5869      5893     11393     11456     11450      5562
 -2      5868      5892     11395     11458     11452
 -1       703    5    0    1
 -2      5600      5573      5894      5602      5575      5896     10556     11459     11462      5601
 -2      5574      5895     10558     11461     11464
 -1       704    5    0    1
 -2      5570      5843      5897      5572      5845      5899     11372     11465     11468      5571
 -2      5844      5898     11374     11467     11470
 -1       705    5    0    1
 -2      5774      5669      5900      5776      5671      5902     11051     11471     11474      5775
 -2      5670      5901     11053     11473     11476
 -1       706    5    0    1
 -2      5807      5597      5903      5809      5599      5905     11342     11477     11480      5808
 -2      5598      5904     11344     11479     11482
 -1       707    5    0    1
 -2      5813      5603      5906      5815      5605      5908     11345     11483     11486      5814
 -2      5604      5907     11347     11485     11488
 -1       708    5    0    1
 -2      5657      5846      5909      5659      5848      5911     11375     11489     11492      5658
 -2      5847      5910     11377     11491     11494
 -1       709    5    0    1
 -2      5567      5792      5912      5569      5794      5914     11150     11495     11498      5568
 -2      5793      5913     11152     11497     11500
 -1       710    5    0    1
 -2      5792      5885      5912      5794      5887      5914     11438     11501     11495      5793
 -2      5886      5913     11440     11503     11497
 -1       711    5    0    1
 -2      5852      5783      5915      5854      5785      5917     11318     11504     11507      5853
 -2      5784      5916     11320     11506     11509
 -1       712    5    0    1
 -2      5783      5768      5915      5785      5770      5917     11084     11510     11504      5784
 -2      5769      5916     11086     11512     11506
 -1       713    5    0    1
 -2      5597      5813      5918      5599      5815      5920     11171     11513     11516      5598
 -2      5814      5919     11173     11515     11518
 -1       714    5    0    1
 -2      5903      5597      5918      5905      5599      5920     11477     11516     11519      5904
 -2      5598      5919     11479     11518     11521
 -1       715    5    0    1
 -2      5813      5906      5918      5815      5908      5920     11486     11522     11513      5814
 -2      5907      5919     11488     11524     11515
 -1       716    5    0    1
 -2      5828      5627      5921      5830      5629      5923     11354     11525     11528      5829
 -2      5628      5922     11356     11527     11530
 -1       717    5    0    1
 -2      5810      5606      5924      5812      5608      5926     11168     11531     11534      5811
 -2      5607      5925     11170     11533     11536
 -1       718    5    0    1
 -2      5606      5873      5924      5608      5875      5926     11408     11537     11531      5607
 -2      5874      5925     11410     11539     11533
 -1       719    5    0    1
 -2      5822      5612      5927      5824      5614      5929     11351     11540     11543      5823
 -2      5613      5928     11353     11542     11545
 -1       720    5    0    1
 -2      5819      5615      5930      5821      5617      5932     11198     11546     11549      5820
 -2      5616      5931     11200     11548     11551
 -1       721    5    0    1
 -2      5786      5618      5933      5788      5620      5935     11189     11552     11555      5787
 -2      5619      5934     11191     11554     11557
 -1       722    5    0    1
 -2      5588      5834      5936      5590      5836      5938     11234     11558     11561      5589
 -2      5835      5937     11236     11560     11563
 -1       723    5    0    1
 -2      5834      5774      5939      5836      5776      5941     11249     11564     11567      5835
 -2      5775      5940     11251     11566     11569
 -1       724    5    0    1
 -2      5774      5900      5939      5776      5902      5941     11474     11570     11564      5775
 -2      5901      5940     11476     11572     11566
 -1       725    5    0    1
 -2      5633      5645      5942      5635      5647      5944     11213     11573     11576      5634
 -2      5646      5943     11215     11575     11578
 -1       726    5    0    1
 -2      5849      5663      5945      5851      5665      5947     11357     11579     11582      5850
 -2      5664      5946     11359     11581     11584
 -1       727    5    0    1
 -2      5663      5879      5945      5665      5881      5947     11426     11585     11579      5664
 -2      5880      5946     11428     11587     11581
 -1       728    5    0    1
 -2      5621      5837      5948      5623      5839      5950     11324     11588     11591      5622
 -2      5838      5949     11326     11590     11593
 -1       729    5    0    1
 -2      5837      5882      5948      5839      5884      5950     11432     11594     11588      5838
 -2      5883      5949     11434     11596     11590
 -1       730    5    0    1
 -2      5603      5810      5951      5605      5812      5953     11156     11597     11600      5604
 -2      5811      5952     11158     11599     11602
 -1       731    5    0    1
 -2      5906      5603      5951      5908      5605      5953     11483     11600     11603      5907
 -2      5604      5952     11485     11602     11605
 -1       732    5    0    1
 -2      5810      5924      5951      5812      5926      5953     11534     11606     11597      5811
 -2      5925      5952     11536     11608     11599
 -1       733    5    0    1
 -2      5831      5777      5954      5833      5779      5956     11228     11609     11612      5832
 -2      5778      5955     11230     11611     11614
 -1       734    5    0    1
 -2      5627      5831      5954      5629      5833      5956     11321     11612     11615      5628
 -2      5832      5955     11323     11614     11617
 -1       735    5    0    1
 -2      5624      5828      5957      5626      5830      5959     11240     11618     11621      5625
 -2      5829      5958     11242     11620     11623
 -1       736    5    0    1
 -2      5828      5921      5957      5830      5923      5959     11528     11624     11618      5829
 -2      5922      5958     11530     11626     11620
 -1       737    5    0    1
 -2      5639      5594      5960      5641      5596      5962     10646     11627     11630      5640
 -2      5595      5961     10648     11629     11632
 -1       738    5    0    1
 -2      5594      5864      5960      5596      5866      5962     11387     11633     11627      5595
 -2      5865      5961     11389     11635     11629
 -1       739    5    0    1
 -2      5642      5639      5963      5644      5641      5965     10655     11636     11639      5643
 -2      5640      5964     10657     11638     11641
 -1       740    5    0    1
 -2      5639      5960      5963      5641      5962      5965     11630     11642     11636      5640
 -2      5961      5964     11632     11644     11638
 -1       741    5    0    1
 -2      5669      5591      5966      5671      5593      5968     10730     11645     11648      5670
 -2      5592      5967     10732     11647     11650
 -1       742    5    0    1
 -2      5591      5891      5966      5593      5893      5968     11453     11651     11645      5592
 -2      5892      5967     11455     11653     11647
 -1       743    5    0    1
 -2      5552      5807      5969      5554      5809      5971     11258     11654     11657      5553
 -2      5808      5970     11260     11656     11659
 -1       744    5    0    1
 -2      5807      5903      5969      5809      5905      5971     11480     11660     11654      5808
 -2      5904      5970     11482     11662     11656
 -1       745    5    0    1
 -2      5645      5621      5972      5647      5623      5974     10664     11663     11666      5646
 -2      5622      5973     10666     11665     11668
 -1       746    5    0    1
 -2      5621      5948      5972      5623      5950      5974     11591     11669     11663      5622
 -2      5949      5973     11593     11671     11665
 -1       747    5    0    1
 -2      5651      5570      5975      5653      5572      5977     10682     11672     11675      5652
 -2      5571      5976     10684     11674     11677
 -1       748    5    0    1
 -2      5570      5897      5975      5572      5899      5977     11468     11678     11672      5571
 -2      5898      5976     11470     11680     11674
 -1       749    5    0    1
 -2      5654      5576      5978      5656      5578      5980     10691     11681     11684      5655
 -2      5577      5979     10693     11683     11686
 -1       750    5    0    1
 -2      5576      5888      5978      5578      5890      5980     11444     11687     11681      5577
 -2      5889      5979     11446     11689     11683
 -1       751    5    0    1
 -2      5843      5657      5981      5845      5659      5983     11363     11690     11693      5844
 -2      5658      5982     11365     11692     11695
 -1       752    5    0    1
 -2      5657      5909      5981      5659      5911      5983     11492     11696     11690      5658
 -2      5910      5982     11494     11698     11692
 -1       753    5    0    1
 -2      5660      5849      5984      5662      5851      5986     11303     11699     11702      5661
 -2      5850      5985     11305     11701     11704
 -1       754    5    0    1
 -2      5849      5945      5984      5851      5947      5986     11582     11705     11699      5850
 -2      5946      5985     11584     11707     11701
 -1       755    5    0    1
 -2      5558      5666      5987      5560      5668      5989     10718     11708     11711      5559
 -2      5667      5988     10720     11710     11713
 -1       756    5    0    1
 -2      5270      5348      5990      5272      5350      5992      9704     11714     11717      5271
 -2      5349      5991      9706     11716     11719
 -1       757    5    0    1
 -2      5615      5786      5993      5617      5788      5995     11090     11720     11723      5616
 -2      5787      5994     11092     11722     11725
 -1       758    5    0    1
 -2      5930      5615      5993      5932      5617      5995     11546     11723     11726      5931
 -2      5616      5994     11548     11725     11728
 -1       759    5    0    1
 -2      5786      5933      5993      5788      5935      5995     11555     11729     11720      5787
 -2      5934      5994     11557     11731     11722
 -1       760    5    0    1
 -2      5681      5678      5996      5683      5680      5998     10769     11732     11735      5682
 -2      5679      5997     10771     11734     11737
 -1       761    5    0    1
 -2      5684      5681      5999      5686      5683      6001     10778     11738     11741      5685
 -2      5682      6000     10780     11740     11743
 -1       762    5    0    1
 -2      5681      5996      5999      5683      5998      6001     11735     11744     11738      5682
 -2      5997      6000     11737     11746     11740
 -1       763    5    0    1
 -2      5687      5684      6002      5689      5686      6004     10787     11747     11750      5688
 -2      5685      6003     10789     11749     11752
 -1       764    5    0    1
 -2      5684      5999      6002      5686      6001      6004     11741     11753     11747      5685
 -2      6000      6003     11743     11755     11749
 -1       765    5    0    1
 -2      5690      5687      6005      5692      5689      6007     10796     11756     11759      5691
 -2      5688      6006     10798     11758     11761
 -1       766    5    0    1
 -2      5687      6002      6005      5689      6004      6007     11750     11762     11756      5688
 -2      6003      6006     11752     11764     11758
 -1       767    5    0    1
 -2      5693      5690      6008      5695      5692      6010     10805     11765     11768      5694
 -2      5691      6009     10807     11767     11770
 -1       768    5    0    1
 -2      5690      6005      6008      5692      6007      6010     11759     11771     11765      5691
 -2      6006      6009     11761     11773     11767
 -1       769    5    0    1
 -2      5696      5693      6011      5698      5695      6013     10814     11774     11777      5697
 -2      5694      6012     10816     11776     11779
 -1       770    5    0    1
 -2      5693      6008      6011      5695      6010      6013     11768     11780     11774      5694
 -2      6009      6012     11770     11782     11776
 -1       771    5    0    1
 -2      5699      5696      6014      5701      5698      6016     10823     11783     11786      5700
 -2      5697      6015     10825     11785     11788
 -1       772    5    0    1
 -2      5696      6011      6014      5698      6013      6016     11777     11789     11783      5697
 -2      6012      6015     11779     11791     11785
 -1       773    5    0    1
 -2      5702      5699      6017      5704      5701      6019     10832     11792     11795      5703
 -2      5700      6018     10834     11794     11797
 -1       774    5    0    1
 -2      5699      6014      6017      5701      6016      6019     11786     11798     11792      5700
 -2      6015      6018     11788     11800     11794
 -1       775    5    0    1
 -2      5705      5702      6020      5707      5704      6022     10841     11801     11804      5706
 -2      5703      6021     10843     11803     11806
 -1       776    5    0    1
 -2      5702      6017      6020      5704      6019      6022     11795     11807     11801      5703
 -2      6018      6021     11797     11809     11803
 -1       777    5    0    1
 -2      5708      5705      6023      5710      5707      6025     10850     11810     11813      5709
 -2      5706      6024     10852     11812     11815
 -1       778    5    0    1
 -2      5705      6020      6023      5707      6022      6025     11804     11816     11810      5706
 -2      6021      6024     11806     11818     11812
 -1       779    5    0    1
 -2      5711      5708      6026      5713      5710      6028     10859     11819     11822      5712
 -2      5709      6027     10861     11821     11824
 -1       780    5    0    1
 -2      5708      6023      6026      5710      6025      6028     11813     11825     11819      5709
 -2      6024      6027     11815     11827     11821
 -1       781    5    0    1
 -2      5714      5711      6029      5716      5713      6031     10868     11828     11831      5715
 -2      5712      6030     10870     11830     11833
 -1       782    5    0    1
 -2      5711      6026      6029      5713      6028      6031     11822     11834     11828      5712
 -2      6027      6030     11824     11836     11830
 -1       783    5    0    1
 -2      5717      5714      6032      5719      5716      6034     10877     11837     11840      5718
 -2      5715      6033     10879     11839     11842
 -1       784    5    0    1
 -2      5714      6029      6032      5716      6031      6034     11831     11843     11837      5715
 -2      6030      6033     11833     11845     11839
 -1       785    5    0    1
 -2      5720      5717      6035      5722      5719      6037     10886     11846     11849      5721
 -2      5718      6036     10888     11848     11851
 -1       786    5    0    1
 -2      5717      6032      6035      5719      6034      6037     11840     11852     11846      5718
 -2      6033      6036     11842     11854     11848
 -1       787    5    0    1
 -2      5723      5720      6038      5725      5722      6040     10895     11855     11858      5724
 -2      5721      6039     10897     11857     11860
 -1       788    5    0    1
 -2      5720      6035      6038      5722      6037      6040     11849     11861     11855      5721
 -2      6036      6039     11851     11863     11857
 -1       789    5    0    1
 -2      5726      5723      6041      5728      5725      6043     10904     11864     11867      5727
 -2      5724      6042     10906     11866     11869
 -1       790    5    0    1
 -2      5723      6038      6041      5725      6040      6043     11858     11870     11864      5724
 -2      6039      6042     11860     11872     11866
 -1       791    5    0    1
 -2      5729      5726      6044      5731      5728      6046     10913     11873     11876      5730
 -2      5727      6045     10915     11875     11878
 -1       792    5    0    1
 -2      5726      6041      6044      5728      6043      6046     11867     11879     11873      5727
 -2      6042      6045     11869     11881     11875
 -1       793    5    0    1
 -2      5732      5729      6047      5734      5731      6049     10922     11882     11885      5733
 -2      5730      6048     10924     11884     11887
 -1       794    5    0    1
 -2      5729      6044      6047      5731      6046      6049     11876     11888     11882      5730
 -2      6045      6048     11878     11890     11884
 -1       795    5    0    1
 -2      5735      5732      6050      5737      5734      6052     10931     11891     11894      5736
 -2      5733      6051     10933     11893     11896
 -1       796    5    0    1
 -2      5732      6047      6050      5734      6049      6052     11885     11897     11891      5733
 -2      6048      6051     11887     11899     11893
 -1       797    5    0    1
 -2      5738      5735      6053      5740      5737      6055     10940     11900     11903      5739
 -2      5736      6054     10942     11902     11905
 -1       798    5    0    1
 -2      5735      6050      6053      5737      6052      6055     11894     11906     11900      5736
 -2      6051      6054     11896     11908     11902
 -1       799    5    0    1
 -2      5741      5738      6056      5743      5740      6058     10949     11909     11912      5742
 -2      5739      6057     10951     11911     11914
 -1       800    5    0    1
 -2      5738      6053      6056      5740      6055      6058     11903     11915     11909      5739
 -2      6054      6057     11905     11917     11911
 -1       801    5    0    1
 -2      5744      5741      6059      5746      5743      6061     10958     11918     11921      5745
 -2      5742      6060     10960     11920     11923
 -1       802    5    0    1
 -2      5741      6056      6059      5743      6058      6061     11912     11924     11918      5742
 -2      6057      6060     11914     11926     11920
 -1       803    5    0    1
 -2      5747      5744      6062      5749      5746      6064     10967     11927     11930      5748
 -2      5745      6063     10969     11929     11932
 -1       804    5    0    1
 -2      5744      6059      6062      5746      6061      6064     11921     11933     11927      5745
 -2      6060      6063     11923     11935     11929
 -1       805    5    0    1
 -2      5750      5747      6065      5752      5749      6067     10976     11936     11939      5751
 -2      5748      6066     10978     11938     11941
 -1       806    5    0    1
 -2      5747      6062      6065      5749      6064      6067     11930     11942     11936      5748
 -2      6063      6066     11932     11944     11938
 -1       807    5    0    1
 -2      5753      5750      6068      5755      5752      6070     10985     11945     11948      5754
 -2      5751      6069     10987     11947     11950
 -1       808    5    0    1
 -2      5750      6065      6068      5752      6067      6070     11939     11951     11945      5751
 -2      6066      6069     11941     11953     11947
 -1       809    5    0    1
 -2      5756      5753      6071      5758      5755      6073     10994     11954     11957      5757
 -2      5754      6072     10996     11956     11959
 -1       810    5    0    1
 -2      5753      6068      6071      5755      6070      6073     11948     11960     11954      5754
 -2      6069      6072     11950     11962     11956
 -1       811    5    0    1
 -2      5759      5756      6074      5761      5758      6076     11003     11963     11966      5760
 -2      5757      6075     11005     11965     11968
 -1       812    5    0    1
 -2      5756      6071      6074      5758      6073      6076     11957     11969     11963      5757
 -2      6072      6075     11959     11971     11965
 -1       813    5    0    1
 -2      5762      5759      6077      5764      5761      6079     11012     11972     11975      5763
 -2      5760      6078     11014     11974     11977
 -1       814    5    0    1
 -2      5759      6074      6077      5761      6076      6079     11966     11978     11972      5760
 -2      6075      6078     11968     11980     11974
 -1       815    5    0    1
 -2      5765      5762      6080      5767      5764      6082     11021     11981     11984      5766
 -2      5763      6081     11023     11983     11986
 -1       816    5    0    1
 -2      5762      6077      6080      5764      6079      6082     11975     11987     11981      5763
 -2      6078      6081     11977     11989     11983
 -1       817    5    0    1
 -2      5768      5765      6083      5770      5767      6085     11030     11990     11993      5769
 -2      5766      6084     11032     11992     11995
 -1       818    5    0    1
 -2      5915      5768      6083      5917      5770      6085     11510     11993     11996      5916
 -2      5769      6084     11512     11995     11998
 -1       819    5    0    1
 -2      5765      6080      6083      5767      6082      6085     11984     11999     11990      5766
 -2      6081      6084     11986     12001     11992
 -1       820    5    0    1
 -2      5777      5648      6086      5779      5650      6088     11060     12002     12005      5778
 -2      5649      6087     11062     12004     12007
 -1       821    5    0    1
 -2      5648      5780      6086      5650      5782      6088     11069     12008     12002      5649
 -2      5781      6087     11071     12010     12004
 -1       822    5    0    1
 -2      5666      5270      5990      5668      5272      5992     10721     11717     12011      5667
 -2      5271      5991     10723     11719     12013
 -1       823    5    0    1
 -2      5636      5624      6089      5638      5626      6091     10637     12014     12017      5637
 -2      5625      6090     10639     12016     12019
 -1       824    5    0    1
 -2      5624      5957      6089      5626      5959      6091     11621     12020     12014      5625
 -2      5958      6090     11623     12022     12016
 -1       825    5    0    1
 -2      5678      5675      6092      5680      5677      6094     10760     12023     12026      5679
 -2      5676      6093     10762     12025     12028
 -1       826    5    0    1
 -2      5996      5678      6092      5998      5680      6094     11732     12026     12029      5997
 -2      5679      6093     11734     12028     12031
 -1       827    5    0    1
 -2      5675      5630      6092      5677      5632      6094     11402     12032     12023      5676
 -2      5631      6093     11404     12034     12025
 -1       828    5    0    1
 -2      5825      5636      6095      5827      5638      6097     11246     12035     12038      5826
 -2      5637      6096     11248     12037     12040
 -1       829    5    0    1
 -2      5636      6089      6095      5638      6091      6097     12017     12041     12035      5637
 -2      6090      6096     12019     12043     12037
 -1       830    5    0    1
 -2      5666      5990      5987      5668      5992      5989     12011     12044     11708      5667
 -2      5991      5988     12013     12046     11710
 -1       831    5    0    1
 -2      5990      5348      5855      5992      5350      5857     11714     11294     12047      5991
 -2      5349      5856     11716     11296     12049
 -1       832    5    0    1
 -2      5936      5834      5939      5938      5836      5941     11558     11567     12050      5937
 -2      5835      5940     11560     11569     12052
 -1       833    5    0    1
 -2      5642      5963      5882      5644      5965      5884     11639     12053     11429      5643
 -2      5964      5883     11641     12055     11431
 -1       834    5    0    1
 -2      5564      5585      6098      5566      5587      6100     10517     12056     12059      5565
 -2      5586      6099     10519     12058     12061
 -1       835    5    0    1
 -2      5840      5651      6101      5842      5653      6103     11369     12062     12065      5841
 -2      5652      6102     11371     12064     12067
 -1       836    5    0    1
 -2      5879      5852      5915      5881      5854      5917     11423     11507     12068      5880
 -2      5853      5916     11425     11509     12070
 -1       837    5    0    1
 -2      5843      5981      5897      5845      5983      5899     11693     12071     11465      5844
 -2      5982      5898     11695     12073     11467
 -1       838    5    0    1
 -2      5894      5573      6104      5896      5575      6106     11459     12074     12077      5895
 -2      5574      6105     11461     12076     12079
 -1       839    5    0    1
 -2      5573      5771      6104      5575      5773      6106     11039     12080     12074      5574
 -2      5772      6105     11041     12082     12076
 -1       840    5    0    1
 -2      5630      5672      6092      5632      5674      6094     10739     12083     12032      5631
 -2      5673      6093     10741     12085     12034
 -1       841    5    0    1
 -2      5654      5978      5885      5656      5980      5887     11684     12086     11435      5655
 -2      5979      5886     11686     12088     11437
 -1       842    5    0    1
 -2      5582      5558      6107      5584      5560      6109     10508     12089     12092      5583
 -2      5559      6108     10510     12091     12094
 -1       843    5    0    1
 -2      5558      5987      6107      5560      5989      6109     11711     12095     12089      5559
 -2      5988      6108     11713     12097     12091
 -1       844    5    0    1
 -2      5585      5567      6110      5587      5569      6112     10520     12098     12101      5586
 -2      5568      6111     10522     12100     12103
 -1       845    5    0    1
 -2      5567      5912      6110      5569      5914      6112     11498     12104     12098      5568
 -2      5913      6111     11500     12106     12100
 -1       846    5    0    1
 -2      5645      5972      5942      5647      5974      5944     11666     12107     11573      5646
 -2      5973      5943     11668     12109     11575
 -1       847    5    0    1
 -2      5804      5801      6113      5806      5803      6115     11141     12110     12113      5805
 -2      5802      6114     11143     12112     12115
 -1       848    5    0    1
 -2      5669      5966      5900      5671      5968      5902     11648     12116     11471      5670
 -2      5967      5901     11650     12118     11473
 -1       849    5    0    1
 -2      5954      5777      6086      5956      5779      6088     11609     12005     12119      5955
 -2      5778      6087     11611     12007     12121
 -1       850    5    0    1
 -2      5927      5612      6116      5929      5614      6118     11540     12122     12125      5928
 -2      5613      6117     11542     12124     12127
 -1       851    5    0    1
 -2      5612      5819      6116      5614      5821      6118     11183     12128     12122      5613
 -2      5820      6117     11185     12130     12124
 -1       852    5    0    1
 -2      5555      5822      6119      5557      5824      6121     11201     12131     12134      5556
 -2      5823      6120     11203     12133     12136
 -1       853    5    0    1
 -2      5921      5627      5954      5923      5629      5956     11525     11615     12137      5922
 -2      5628      5955     11527     11617     12139
 -1       854    5    0    1
 -2      5819      5930      6116      5821      5932      6118     11549     12140     12128      5820
 -2      5931      6117     11551     12142     12130
 -1       855    5    0    1
 -2      5555      6119      5861      5557      6121      5863     12134     12143     11378      5556
 -2      6120      5862     12136     12145     11380
 -1       856    5    0    1
 -2      5855      5798      6122      5857      5800      6124     11297     12146     12149      5856
 -2      5799      6123     11299     12148     12151
 -1       857    5    0    1
 -2      5789      5564      6125      5791      5566      6127     11327     12152     12155      5790
 -2      5565      6126     11329     12154     12157
 -1       858    5    0    1
 -2      5867      5789      6125      5869      5791      6127     11390     12155     12158      5868
 -2      5790      6126     11392     12157     12160
 -1       859    5    0    1
 -2      5864      5840      6101      5866      5842      6103     11384     12065     12161      5865
 -2      5841      6102     11386     12067     12163
 -1       860    5    0    1
 -2      5651      5975      6101      5653      5977      6103     11675     12164     12062      5652
 -2      5976      6102     11677     12166     12064
 -1       861    5    0    1
 -2      5846      5660      6128      5848      5662      6130     11360     12167     12170      5847
 -2      5661      6129     11362     12169     12172
 -1       862    5    0    1
 -2      5990      5855      5987      5992      5857      5989     12047     12173     12044      5991
 -2      5856      5988     12049     12175     12046
 -1       863    5    0    1
 -2      5672      5588      6131      5674      5590      6133     10742     12176     12179      5673
 -2      5589      6132     10744     12178     12181
 -1       864    5    0    1
 -2      5588      5936      6131      5590      5938      6133     11561     12182     12176      5589
 -2      5937      6132     11563     12184     12178
 -1       865    5    0    1
 -2      5822      5927      6119      5824      5929      6121     11543     12185     12131      5823
 -2      5928      6120     11545     12187     12133
 -1       866    5    0    1
 -2      5771      5552      6134      5773      5554      6136     11042     12188     12191      5772
 -2      5553      6135     11044     12190     12193
 -1       867    5    0    1
 -2      5552      5969      6134      5554      5971      6136     11657     12194     12188      5553
 -2      5970      6135     11659     12196     12190
 -1       868    5    0    1
 -2      5858      5804      6137      5860      5806      6139     11315     12197     12200      5859
 -2      5805      6138     11317     12199     12202
 -1       869    5    0    1
 -2      5804      6113      6137      5806      6115      6139     12113     12203     12197      5805
 -2      6114      6138     12115     12205     12199
 -1       870    5    0    1
 -2      5780      5633      6140      5782      5635      6142     11072     12206     12209      5781
 -2      5634      6141     11074     12208     12211
 -1       871    5    0    1
 -2      6086      5780      6140      6088      5782      6142     12008     12209     12212      6087
 -2      5781      6141     12010     12211     12214
 -1       872    5    0    1
 -2      5633      5942      6140      5635      5944      6142     11576     12215     12206      5634
 -2      5943      6141     11578     12217     12208
 -1       873    5    0    1
 -2      5801      5600      6143      5803      5602      6145     11132     12218     12221      5802
 -2      5601      6144     11134     12220     12223
 -1       874    5    0    1
 -2      6113      5801      6143      6115      5803      6145     12110     12221     12224      6114
 -2      5802      6144     12112     12223     12226
 -1       875    5    0    1
 -2      5600      5894      6143      5602      5896      6145     11462     12227     12218      5601
 -2      5895      6144     11464     12229     12220
 -1       876    5    0    1
 -2      5618      5825      6146      5620      5827      6148     11243     12230     12233      5619
 -2      5826      6147     11245     12232     12235
 -1       877    5    0    1
 -2      5846      6128      5909      5848      6130      5911     12170     12236     11489      5847
 -2      6129      5910     12172     12238     11491
 -1       878    5    0    1
 -2      5618      6146      5933      5620      6148      5935     12233     12239     11552      5619
 -2      6147      5934     12235     12241     11554
 -1       879    5    0    1
 -2      6146      5825      6095      6148      5827      6097     12230     12038     12242      6147
 -2      5826      6096     12232     12040     12244
 -1       880    5    0    1
 -2      6125      5564      6098      6127      5566      6100     12152     12059     12245      6126
 -2      5565      6099     12154     12061     12247
 -1       881    5    0    1
 -2      6122      5798      6149      6124      5800      6151     12146     12248     12251      6123
 -2      5799      6150     12148     12250     12253
 -1       882    5    0    1
 -2      5798      5858      6149      5800      5860      6151     11312     12254     12248      5799
 -2      5859      6150     11314     12256     12250
 -1       883    5    0    1
 -2      6128      5660      5984      6130      5662      5986     12167     11702     12257      6129
 -2      5661      5985     12169     11704     12259
 -1       884    5    0    1
 -2      5939      5900      6152      5941      5902      6154     11570     12260     12263      5940
 -2      5901      6153     11572     12262     12265
 -1       885    5    0    1
 -2      6098      5585      6110      6100      5587      6112     12056     12101     12266      6099
 -2      5586      6111     12058     12103     12268
 -1       886    5    0    1
 -2      6101      5975      6155      6103      5977      6157     12164     12269     12272      6102
 -2      5976      6156     12166     12271     12274
 -1       887    5    0    1
 -2      5879      5915      6158      5881      5917      6160     12068     12275     12278      5880
 -2      5916      6159     12070     12277     12280
 -1       888    5    0    1
 -2      5915      6083      6158      5917      6085      6160     11996     12281     12275      5916
 -2      6084      6159     11998     12283     12277
 -1       889    5    0    1
 -2      6125      6098      6161      6127      6100      6163     12245     12284     12287      6126
 -2      6099      6162     12247     12286     12289
 -1       890    5    0    1
 -2      6146      6095      6164      6148      6097      6166     12242     12290     12293      6147
 -2      6096      6165     12244     12292     12295
 -1       891    5    0    1
 -2      5897      5981      6167      5899      5983      6169     12071     12296     12299      5898
 -2      5982      6168     12073     12298     12301
 -1       892    5    0    1
 -2      5891      5867      6170      5893      5869      6172     11456     12302     12305      5892
 -2      5868      6171     11458     12304     12307
 -1       893    5    0    1
 -2      5579      5582      6173      5581      5584      6175     10505     12308     12311      5580
 -2      5583      6174     10507     12310     12313
 -1       894    5    0    1
 -2      5912      5885      6176      5914      5887      6178     11501     12314     12317      5913
 -2      5886      6177     11503     12316     12319
 -1       895    5    0    1
 -2      5933      6146      6179      5935      6148      6181     12239     12320     12323      5934
 -2      6147      6180     12241     12322     12325
 -1       896    5    0    1
 -2      6146      6164      6179      6148      6166      6181     12293     12326     12320      6147
 -2      6165      6180     12295     12328     12322
 -1       897    5    0    1
 -2      5942      5972      6182      5944      5974      6184     12107     12329     12332      5943
 -2      5973      6183     12109     12331     12334
 -1       898    5    0    1
 -2      5924      5873      6185      5926      5875      6187     11537     12335     12338      5925
 -2      5874      6186     11539     12337     12340
 -1       899    5    0    1
 -2      5996      6092      6188      5998      6094      6190     12029     12341     12344      5997
 -2      6093      6189     12031     12343     12346
 -1       900    5    0    1
 -2      5861      6119      6191      5863      6121      6193     12143     12347     12350      5862
 -2      6120      6192     12145     12349     12352
 -1       901    5    0    1
 -2      5921      5954      6194      5923      5956      6196     12137     12353     12356      5922
 -2      5955      6195     12139     12355     12358
 -1       902    5    0    1
 -2      5954      6086      6197      5956      6088      6199     12119     12359     12362      5955
 -2      6087      6198     12121     12361     12364
 -1       903    5    0    1
 -2      6194      5954      6197      6196      5956      6199     12353     12362     12365      6195
 -2      5955      6198     12355     12364     12367
 -1       904    5    0    1
 -2      6086      6140      6197      6088      6142      6199     12212     12368     12359      6087
 -2      6141      6198     12214     12370     12361
 -1       905    5    0    1
 -2      5927      6116      6200      5929      6118      6202     12125     12371     12374      5928
 -2      6117      6201     12127     12373     12376
 -1       906    5    0    1
 -2      5864      6101      6203      5866      6103      6205     12161     12377     12380      5865
 -2      6102      6204     12163     12379     12382
 -1       907    5    0    1
 -2      6101      6155      6203      6103      6157      6205     12272     12383     12377      6102
 -2      6156      6204     12274     12385     12379
 -1       908    5    0    1
 -2      6119      5927      6206      6121      5929      6208     12185     12386     12389      6120
 -2      5928      6207     12187     12388     12391
 -1       909    5    0    1
 -2      6191      6119      6206      6193      6121      6208     12347     12389     12392      6192
 -2      6120      6207     12349     12391     12394
 -1       910    5    0    1
 -2      5927      6200      6206      5929      6202      6208     12374     12395     12386      5928
 -2      6201      6207     12376     12397     12388
 -1       911    5    0    1
 -2      5882      5963      6209      5884      5965      6211     12053     12398     12401      5883
 -2      5964      6210     12055     12400     12403
 -1       912    5    0    1
 -2      5948      5882      6212      5950      5884      6214     11594     12404     12407      5949
 -2      5883      6213     11596     12406     12409
 -1       913    5    0    1
 -2      5882      6209      6212      5884      6211      6214     12401     12410     12404      5883
 -2      6210      6213     12403     12412     12406
 -1       914    5    0    1
 -2      5867      6125      6215      5869      6127      6217     12158     12413     12416      5868
 -2      6126      6216     12160     12415     12418
 -1       915    5    0    1
 -2      6125      6161      6215      6127      6163      6217     12287     12419     12413      6126
 -2      6162      6216     12289     12421     12415
 -1       916    5    0    1
 -2      5957      5921      6218      5959      5923      6220     11624     12422     12425      5958
 -2      5922      6219     11626     12424     12427
 -1       917    5    0    1
 -2      5921      6194      6218      5923      6196      6220     12356     12428     12422      5922
 -2      6195      6219     12358     12430     12424
 -1       918    5    0    1
 -2      5888      5870      6221      5890      5872      6223     11447     12431     12434      5889
 -2      5871      6222     11449     12433     12436
 -1       919    5    0    1
 -2      5960      5864      6224      5962      5866      6226     11633     12437     12440      5961
 -2      5865      6225     11635     12439     12442
 -1       920    5    0    1
 -2      5864      6203      6224      5866      6205      6226     12380     12443     12437      5865
 -2      6204      6225     12382     12445     12439
 -1       921    5    0    1
 -2      5870      5579      6173      5872      5581      6175     11396     12311     12446      5871
 -2      5580      6174     11398     12313     12448
 -1       922    5    0    1
 -2      5963      5960      6227      5965      5962      6229     11642     12449     12452      5964
 -2      5961      6228     11644     12451     12454
 -1       923    5    0    1
 -2      5960      6224      6227      5962      6226      6229     12440     12455     12449      5961
 -2      6225      6228     12442     12457     12451
 -1       924    5    0    1
 -2      5966      5891      6230      5968      5893      6232     11651     12458     12461      5967
 -2      5892      6231     11653     12460     12463
 -1       925    5    0    1
 -2      5891      6170      6230      5893      6172      6232     12305     12464     12458      5892
 -2      6171      6231     12307     12466     12460
 -1       926    5    0    1
 -2      5969      5903      6233      5971      5905      6235     11660     12467     12470      5970
 -2      5904      6234     11662     12469     12472
 -1       927    5    0    1
 -2      5972      5948      6236      5974      5950      6238     11669     12473     12476      5973
 -2      5949      6237     11671     12475     12478
 -1       928    5    0    1
 -2      5948      6212      6236      5950      6214      6238     12407     12479     12473      5949
 -2      6213      6237     12409     12481     12475
 -1       929    5    0    1
 -2      5975      5897      6239      5977      5899      6241     11678     12482     12485      5976
 -2      5898      6240     11680     12484     12487
 -1       930    5    0    1
 -2      5897      6167      6239      5899      6169      6241     12299     12488     12482      5898
 -2      6168      6240     12301     12490     12484
 -1       931    5    0    1
 -2      5978      5888      6242      5980      5890      6244     11687     12491     12494      5979
 -2      5889      6243     11689     12493     12496
 -1       932    5    0    1
 -2      5888      6221      6242      5890      6223      6244     12434     12497     12491      5889
 -2      6222      6243     12436     12499     12493
 -1       933    5    0    1
 -2      5855      6122      5987      5857      6124      5989     12149     12500     12173      5856
 -2      6123      5988     12151     12502     12175
 -1       934    5    0    1
 -2      5984      5945      6245      5986      5947      6247     11705     12503     12506      5985
 -2      5946      6246     11707     12505     12508
 -1       935    5    0    1
 -2      6128      5984      6248      6130      5986      6250     12257     12509     12512      6129
 -2      5985      6249     12259     12511     12514
 -1       936    5    0    1
 -2      5984      6245      6248      5986      6247      6250     12506     12515     12509      5985
 -2      6246      6249     12508     12517     12511
 -1       937    5    0    1
 -2      5936      5939      6251      5938      5941      6253     12050     12518     12521      5937
 -2      5940      6252     12052     12520     12523
 -1       938    5    0    1
 -2      5939      6152      6251      5941      6154      6253     12263     12524     12518      5940
 -2      6153      6252     12265     12526     12520
 -1       939    5    0    1
 -2      5999      5996      6254      6001      5998      6256     11744     12527     12530      6000
 -2      5997      6255     11746     12529     12532
 -1       940    5    0    1
 -2      6002      5999      6257      6004      6001      6259     11753     12533     12536      6003
 -2      6000      6258     11755     12535     12538
 -1       941    5    0    1
 -2      5999      6254      6257      6001      6256      6259     12530     12539     12533      6000
 -2      6255      6258     12532     12541     12535
 -1       942    5    0    1
 -2      6005      6002      6260      6007      6004      6262     11762     12542     12545      6006
 -2      6003      6261     11764     12544     12547
 -1       943    5    0    1
 -2      6002      6257      6260      6004      6259      6262     12536     12548     12542      6003
 -2      6258      6261     12538     12550     12544
 -1       944    5    0    1
 -2      6008      6005      6263      6010      6007      6265     11771     12551     12554      6009
 -2      6006      6264     11773     12553     12556
 -1       945    5    0    1
 -2      6005      6260      6263      6007      6262      6265     12545     12557     12551      6006
 -2      6261      6264     12547     12559     12553
 -1       946    5    0    1
 -2      6011      6008      6266      6013      6010      6268     11780     12560     12563      6012
 -2      6009      6267     11782     12562     12565
 -1       947    5    0    1
 -2      6008      6263      6266      6010      6265      6268     12554     12566     12560      6009
 -2      6264      6267     12556     12568     12562
 -1       948    5    0    1
 -2      6014      6011      6269      6016      6013      6271     11789     12569     12572      6015
 -2      6012      6270     11791     12571     12574
 -1       949    5    0    1
 -2      6011      6266      6269      6013      6268      6271     12563     12575     12569      6012
 -2      6267      6270     12565     12577     12571
 -1       950    5    0    1
 -2      6017      6014      6272      6019      6016      6274     11798     12578     12581      6018
 -2      6015      6273     11800     12580     12583
 -1       951    5    0    1
 -2      6014      6269      6272      6016      6271      6274     12572     12584     12578      6015
 -2      6270      6273     12574     12586     12580
 -1       952    5    0    1
 -2      6020      6017      6275      6022      6019      6277     11807     12587     12590      6021
 -2      6018      6276     11809     12589     12592
 -1       953    5    0    1
 -2      6017      6272      6275      6019      6274      6277     12581     12593     12587      6018
 -2      6273      6276     12583     12595     12589
 -1       954    5    0    1
 -2      6023      6020      6278      6025      6022      6280     11816     12596     12599      6024
 -2      6021      6279     11818     12598     12601
 -1       955    5    0    1
 -2      6020      6275      6278      6022      6277      6280     12590     12602     12596      6021
 -2      6276      6279     12592     12604     12598
 -1       956    5    0    1
 -2      6026      6023      6281      6028      6025      6283     11825     12605     12608      6027
 -2      6024      6282     11827     12607     12610
 -1       957    5    0    1
 -2      6023      6278      6281      6025      6280      6283     12599     12611     12605      6024
 -2      6279      6282     12601     12613     12607
 -1       958    5    0    1
 -2      6029      6026      6284      6031      6028      6286     11834     12614     12617      6030
 -2      6027      6285     11836     12616     12619
 -1       959    5    0    1
 -2      6026      6281      6284      6028      6283      6286     12608     12620     12614      6027
 -2      6282      6285     12610     12622     12616
 -1       960    5    0    1
 -2      6032      6029      6287      6034      6031      6289     11843     12623     12626      6033
 -2      6030      6288     11845     12625     12628
 -1       961    5    0    1
 -2      6029      6284      6287      6031      6286      6289     12617     12629     12623      6030
 -2      6285      6288     12619     12631     12625
 -1       962    5    0    1
 -2      6035      6032      6290      6037      6034      6292     11852     12632     12635      6036
 -2      6033      6291     11854     12634     12637
 -1       963    5    0    1
 -2      6032      6287      6290      6034      6289      6292     12626     12638     12632      6033
 -2      6288      6291     12628     12640     12634
 -1       964    5    0    1
 -2      6038      6035      6293      6040      6037      6295     11861     12641     12644      6039
 -2      6036      6294     11863     12643     12646
 -1       965    5    0    1
 -2      6035      6290      6293      6037      6292      6295     12635     12647     12641      6036
 -2      6291      6294     12637     12649     12643
 -1       966    5    0    1
 -2      6041      6038      6296      6043      6040      6298     11870     12650     12653      6042
 -2      6039      6297     11872     12652     12655
 -1       967    5    0    1
 -2      6038      6293      6296      6040      6295      6298     12644     12656     12650      6039
 -2      6294      6297     12646     12658     12652
 -1       968    5    0    1
 -2      6044      6041      6299      6046      6043      6301     11879     12659     12662      6045
 -2      6042      6300     11881     12661     12664
 -1       969    5    0    1
 -2      6041      6296      6299      6043      6298      6301     12653     12665     12659      6042
 -2      6297      6300     12655     12667     12661
 -1       970    5    0    1
 -2      6047      6044      6302      6049      6046      6304     11888     12668     12671      6048
 -2      6045      6303     11890     12670     12673
 -1       971    5    0    1
 -2      6044      6299      6302      6046      6301      6304     12662     12674     12668      6045
 -2      6300      6303     12664     12676     12670
 -1       972    5    0    1
 -2      6050      6047      6305      6052      6049      6307     11897     12677     12680      6051
 -2      6048      6306     11899     12679     12682
 -1       973    5    0    1
 -2      6047      6302      6305      6049      6304      6307     12671     12683     12677      6048
 -2      6303      6306     12673     12685     12679
 -1       974    5    0    1
 -2      6053      6050      6308      6055      6052      6310     11906     12686     12689      6054
 -2      6051      6309     11908     12688     12691
 -1       975    5    0    1
 -2      6050      6305      6308      6052      6307      6310     12680     12692     12686      6051
 -2      6306      6309     12682     12694     12688
 -1       976    5    0    1
 -2      6056      6053      6311      6058      6055      6313     11915     12695     12698      6057
 -2      6054      6312     11917     12697     12700
 -1       977    5    0    1
 -2      6053      6308      6311      6055      6310      6313     12689     12701     12695      6054
 -2      6309      6312     12691     12703     12697
 -1       978    5    0    1
 -2      6059      6056      6314      6061      6058      6316     11924     12704     12707      6060
 -2      6057      6315     11926     12706     12709
 -1       979    5    0    1
 -2      6056      6311      6314      6058      6313      6316     12698     12710     12704      6057
 -2      6312      6315     12700     12712     12706
 -1       980    5    0    1
 -2      6062      6059      6317      6064      6061      6319     11933     12713     12716      6063
 -2      6060      6318     11935     12715     12718
 -1       981    5    0    1
 -2      6059      6314      6317      6061      6316      6319     12707     12719     12713      6060
 -2      6315      6318     12709     12721     12715
 -1       982    5    0    1
 -2      6065      6062      6320      6067      6064      6322     11942     12722     12725      6066
 -2      6063      6321     11944     12724     12727
 -1       983    5    0    1
 -2      6062      6317      6320      6064      6319      6322     12716     12728     12722      6063
 -2      6318      6321     12718     12730     12724
 -1       984    5    0    1
 -2      6068      6065      6323      6070      6067      6325     11951     12731     12734      6069
 -2      6066      6324     11953     12733     12736
 -1       985    5    0    1
 -2      6065      6320      6323      6067      6322      6325     12725     12737     12731      6066
 -2      6321      6324     12727     12739     12733
 -1       986    5    0    1
 -2      6071      6068      6326      6073      6070      6328     11960     12740     12743      6072
 -2      6069      6327     11962     12742     12745
 -1       987    5    0    1
 -2      6068      6323      6326      6070      6325      6328     12734     12746     12740      6069
 -2      6324      6327     12736     12748     12742
 -1       988    5    0    1
 -2      6074      6071      6329      6076      6073      6331     11969     12749     12752      6075
 -2      6072      6330     11971     12751     12754
 -1       989    5    0    1
 -2      6071      6326      6329      6073      6328      6331     12743     12755     12749      6072
 -2      6327      6330     12745     12757     12751
 -1       990    5    0    1
 -2      6077      6074      6332      6079      6076      6334     11978     12758     12761      6078
 -2      6075      6333     11980     12760     12763
 -1       991    5    0    1
 -2      6074      6329      6332      6076      6331      6334     12752     12764     12758      6075
 -2      6330      6333     12754     12766     12760
 -1       992    5    0    1
 -2      6080      6077      6335      6082      6079      6337     11987     12767     12770      6081
 -2      6078      6336     11989     12769     12772
 -1       993    5    0    1
 -2      6077      6332      6335      6079      6334      6337     12761     12773     12767      6078
 -2      6333      6336     12763     12775     12769
 -1       994    5    0    1
 -2      6089      5957      6338      6091      5959      6340     12020     12776     12779      6090
 -2      5958      6339     12022     12778     12781
 -1       995    5    0    1
 -2      5957      6218      6338      5959      6220      6340     12425     12782     12776      5958
 -2      6219      6339     12427     12784     12778
 -1       996    5    0    1
 -2      5885      5978      6341      5887      5980      6343     12086     12785     12788      5886
 -2      5979      6342     12088     12787     12790
 -1       997    5    0    1
 -2      5978      6242      6341      5980      6244      6343     12494     12791     12785      5979
 -2      6243      6342     12496     12793     12787
 -1       998    5    0    1
 -2      6173      5582      6107      6175      5584      6109     12308     12092     12794      6174
 -2      5583      6108     12310     12094     12796
 -1       999    5    0    1
 -2      5909      6128      6344      5911      6130      6346     12236     12797     12800      5910
 -2      6129      6345     12238     12799     12802
 -1      1000    5    0    1
 -2      6128      6248      6344      6130      6250      6346     12512     12803     12797      6129
 -2      6249      6345     12514     12805     12799
 -1      1001    5    0    1
 -2      5945      5879      6347      5947      5881      6349     11585     12806     12809      5946
 -2      5880      6348     11587     12808     12811
 -1      1002    5    0    1
 -2      6245      5945      6347      6247      5947      6349     12503     12809     12812      6246
 -2      5946      6348     12505     12811     12814
 -1      1003    5    0    1
 -2      5879      6158      6347      5881      6160      6349     12278     12815     12806      5880
 -2      6159      6348     12280     12817     12808
 -1      1004    5    0    1
 -2      5987      6122      6107      5989      6124      6109     12500     12818     12095      5988
 -2      6123      6108     12502     12820     12097
 -1      1005    5    0    1
 -2      6170      5867      6215      6172      5869      6217     12302     12416     12821      6171
 -2      5868      6216     12304     12418     12823
 -1      1006    5    0    1
 -2      6155      5975      6239      6157      5977      6241     12269     12485     12824      6156
 -2      5976      6240     12271     12487     12826
 -1      1007    5    0    1
 -2      5858      6137      6149      5860      6139      6151     12200     12827     12254      5859
 -2      6138      6150     12202     12829     12256
 -1      1008    5    0    1
 -2      6107      6122      6350      6109      6124      6352     12818     12830     12833      6108
 -2      6123      6351     12820     12832     12835
 -1      1009    5    0    1
 -2      6161      6098      6353      6163      6100      6355     12284     12836     12839      6162
 -2      6099      6354     12286     12838     12841
 -1      1010    5    0    1
 -2      6098      6110      6353      6100      6112      6355     12266     12842     12836      6099
 -2      6111      6354     12268     12844     12838
 -1      1011    5    0    1
 -2      6173      6107      6350      6175      6109      6352     12794     12833     12845      6174
 -2      6108      6351     12796     12835     12847
 -1      1012    5    0    1
 -2      5906      5951      6356      5908      5953      6358     11603     12848     12851      5907
 -2      5952      6357     11605     12850     12853
 -1      1013    5    0    1
 -2      6104      5771      6134      6106      5773      6136     12080     12191     12854      6105
 -2      5772      6135     12082     12193     12856
 -1      1014    5    0    1
 -2      5963      6227      6209      5965      6229      6211     12452     12857     12398      5964
 -2      6228      6210     12454     12859     12400
 -1      1015    5    0    1
 -2      6095      6089      6359      6097      6091      6361     12041     12860     12863      6096
 -2      6090      6360     12043     12862     12865
 -1      1016    5    0    1
 -2      6110      5912      6362      6112      5914      6364     12104     12866     12869      6111
 -2      5913      6363     12106     12868     12871
 -1      1017    5    0    1
 -2      5912      6176      6362      5914      6178      6364     12317     12872     12866      5913
 -2      6177      6363     12319     12874     12868
 -1      1018    5    0    1
 -2      6113      6143      6365      6115      6145      6367     12224     12875     12878      6114
 -2      6144      6366     12226     12877     12880
 -1      1019    5    0    1
 -2      6164      6095      6359      6166      6097      6361     12290     12863     12881      6165
 -2      6096      6360     12292     12865     12883
 -1      1020    5    0    1
 -2      5900      5966      6368      5902      5968      6370     12116     12884     12887      5901
 -2      5967      6369     12118     12886     12889
 -1      1021    5    0    1
 -2      6182      5972      6236      6184      5974      6238     12329     12476     12890      6183
 -2      5973      6237     12331     12478     12892
 -1      1022    5    0    1
 -2      6200      6116      6371      6202      6118      6373     12371     12893     12896      6201
 -2      6117      6372     12373     12895     12898
 -1      1023    5    0    1
 -2      6116      5930      6371      6118      5932      6373     12140     12899     12893      6117
 -2      5931      6372     12142     12901     12895
 -1      1024    5    0    1
 -2      6089      6338      6359      6091      6340      6361     12779     12902     12860      6090
 -2      6339      6360     12781     12904     12862
 -1      1025    5    0    1
 -2      5918      5906      6374      5920      5908      6376     11522     12905     12908      5919
 -2      5907      6375     11524     12907     12910
 -1      1026    5    0    1
 -2      5906      6356      6374      5908      6358      6376     12851     12911     12905      5907
 -2      6357      6375     12853     12913     12907
 -1      1027    5    0    1
 -2      5996      6188      6254      5998      6190      6256     12344     12914     12527      5997
 -2      6189      6255     12346     12916     12529
 -1      1028    5    0    1
 -2      5900      6368      6152      5902      6370      6154     12887     12917     12260      5901
 -2      6369      6153     12889     12919     12262
 -1      1029    5    0    1
 -2      5870      6173      6377      5872      6175      6379     12446     12920     12923      5871
 -2      6174      6378     12448     12922     12925
 -1      1030    5    0    1
 -2      5894      6104      6380      5896      6106      6382     12077     12926     12929      5895
 -2      6105      6381     12079     12928     12931
 -1      1031    5    0    1
 -2      5951      5924      6383      5953      5926      6385     11606     12932     12935      5952
 -2      5925      6384     11608     12934     12937
 -1      1032    5    0    1
 -2      5924      6185      6383      5926      6187      6385     12338     12938     12932      5925
 -2      6186      6384     12340     12940     12934
 -1      1033    5    0    1
 -2      6221      5870      6377      6223      5872      6379     12431     12923     12941      6222
 -2      5871      6378     12433     12925     12943
 -1      1034    5    0    1
 -2      5966      6230      6368      5968      6232      6370     12461     12944     12884      5967
 -2      6231      6369     12463     12946     12886
 -1      1035    5    0    1
 -2      5876      5861      6386      5878      5863      6388     11420     12947     12950      5877
 -2      5862      6387     11422     12949     12952
 -1      1036    5    0    1
 -2      5861      6191      6386      5863      6193      6388     12350     12953     12947      5862
 -2      6192      6387     12352     12955     12949
 -1      1037    5    0    1
 -2      5903      5918      6389      5905      5920      6391     11519     12956     12959      5904
 -2      5919      6390     11521     12958     12961
 -1      1038    5    0    1
 -2      6233      5903      6389      6235      5905      6391     12467     12959     12962      6234
 -2      5904      6390     12469     12961     12964
 -1      1039    5    0    1
 -2      5918      6374      6389      5920      6376      6391     12908     12965     12956      5919
 -2      6375      6390     12910     12967     12958
 -1      1040    5    0    1
 -2      5981      5909      6392      5983      5911      6394     11696     12968     12971      5982
 -2      5910      6393     11698     12970     12973
 -1      1041    5    0    1
 -2      6134      5969      6395      6136      5971      6397     12194     12974     12977      6135
 -2      5970      6396     12196     12976     12979
 -1      1042    5    0    1
 -2      5969      6233      6395      5971      6235      6397     12470     12980     12974      5970
 -2      6234      6396     12472     12982     12976
 -1      1043    5    0    1
 -2      5885      6341      6176      5887      6343      6178     12788     12983     12314      5886
 -2      6342      6177     12790     12985     12316
 -1      1044    5    0    1
 -2      6083      6080      6398      6085      6082      6400     11999     12986     12989      6084
 -2      6081      6399     12001     12988     12991
 -1      1045    5    0    1
 -2      6158      6083      6398      6160      6085      6400     12281     12989     12992      6159
 -2      6084      6399     12283     12991     12994
 -1      1046    5    0    1
 -2      6080      6335      6398      6082      6337      6400     12770     12995     12986      6081
 -2      6336      6399     12772     12997     12988
 -1      1047    5    0    1
 -2      6137      6113      6401      6139      6115      6403     12203     12998     13001      6138
 -2      6114      6402     12205     13000     13003
 -1      1048    5    0    1
 -2      6113      6365      6401      6115      6367      6403     12878     13004     12998      6114
 -2      6366      6402     12880     13006     13000
 -1      1049    5    0    1
 -2      6092      5672      6131      6094      5674      6133     12083     12179     13007      6093
 -2      5673      6132     12085     12181     13009
 -1      1050    5    0    1
 -2      6140      5942      6404      6142      5944      6406     12215     13010     13013      6141
 -2      5943      6405     12217     13012     13015
 -1      1051    5    0    1
 -2      6197      6140      6404      6199      6142      6406     12368     13013     13016      6198
 -2      6141      6405     12370     13015     13018
 -1      1052    5    0    1
 -2      5942      6182      6404      5944      6184      6406     12332     13019     13010      5943
 -2      6183      6405     12334     13021     13012
 -1      1053    5    0    1
 -2      5993      5933      6407      5995      5935      6409     11729     13022     13025      5994
 -2      5934      6408     11731     13024     13027
 -1      1054    5    0    1
 -2      5933      6179      6407      5935      6181      6409     12323     13028     13022      5934
 -2      6180      6408     12325     13030     13024
 -1      1055    5    0    1
 -2      6173      6350      6377      6175      6352      6379     12845     13031     12920      6174
 -2      6351      6378     12847     13033     12922
 -1      1056    5    0    1
 -2      6350      6122      6410      6352      6124      6412     12830     13034     13037      6351
 -2      6123      6411     12832     13036     13039
 -1      1057    5    0    1
 -2      6122      6149      6410      6124      6151      6412     12251     13040     13034      6123
 -2      6150      6411     12253     13042     13036
 -1      1058    5    0    1
 -2      5981      6392      6167      5983      6394      6169     12971     13043     12296      5982
 -2      6393      6168     12973     13045     12298
 -1      1059    5    0    1
 -2      6371      5930      6413      6373      5932      6415     12899     13046     13049      6372
 -2      5931      6414     12901     13048     13051
 -1      1060    5    0    1
 -2      5930      5993      6413      5932      5995      6415     11726     13052     13046      5931
 -2      5994      6414     11728     13054     13048
 -1      1061    5    0    1
 -2      6392      5909      6344      6394      5911      6346     12968     12800     13055      6393
 -2      5910      6345     12970     12802     13057
 -1      1062    5    0    1
 -2      6356      5951      6383      6358      5953      6385     12848     12935     13058      6357
 -2      5952      6384     12850     12937     13060
 -1      1063    5    0    1
 -2      5873      5876      6416      5875      5878      6418     11417     13061     13064      5874
 -2      5877      6417     11419     13063     13066
 -1      1064    5    0    1
 -2      6167      6392      6419      6169      6394      6421     13043     13067     13070      6168
 -2      6393      6420     13045     13069     13072
 -1      1065    5    0    1
 -2      6104      6134      6422      6106      6136      6424     12854     13073     13076      6105
 -2      6135      6423     12856     13075     13078
 -1      1066    5    0    1
 -2      6380      6104      6422      6382      6106      6424     12926     13076     13079      6381
 -2      6105      6423     12928     13078     13081
 -1      1067    5    0    1
 -2      6134      6395      6422      6136      6397      6424     12977     13082     13073      6135
 -2      6396      6423     12979     13084     13075
 -1      1068    5    0    1
 -2      6176      6341      6425      6178      6343      6427     12983     13085     13088      6177
 -2      6342      6426     12985     13087     13090
 -1      1069    5    0    1
 -2      6092      6131      6188      6094      6133      6190     13007     13091     12341      6093
 -2      6132      6189     13009     13093     12343
 -1      1070    5    0    1
 -2      6257      6254      6428      6259      6256      6430     12539     13094     13097      6258
 -2      6255      6429     12541     13096     13099
 -1      1071    5    0    1
 -2      6224      6203      6431      6226      6205      6433     12443     13100     13103      6225
 -2      6204      6432     12445     13102     13105
 -1      1072    5    0    1
 -2      6170      6215      6434      6172      6217      6436     12821     13106     13109      6171
 -2      6216      6435     12823     13108     13111
 -1      1073    5    0    1
 -2      6164      6359      6437      6166      6361      6439     12881     13112     13115      6165
 -2      6360      6438     12883     13114     13117
 -1      1074    5    0    1
 -2      6377      6350      6440      6379      6352      6442     13031     13118     13121      6378
 -2      6351      6441     13033     13120     13123
 -1      1075    5    0    1
 -2      6350      6410      6440      6352      6412      6442     13037     13124     13118      6351
 -2      6411      6441     13039     13126     13120
 -1      1076    5    0    1
 -2      6182      6236      6443      6184      6238      6445     12890     13127     13130      6183
 -2      6237      6444     12892     13129     13132
 -1      1077    5    0    1
 -2      6221      6377      6440      6223      6379      6442     12941     13121     13133      6222
 -2      6378      6441     12943     13123     13135
 -1      1078    5    0    1
 -2      6143      5894      6446      6145      5896      6448     12227     13136     13139      6144
 -2      5895      6447     12229     13138     13141
 -1      1079    5    0    1
 -2      6209      6227      6449      6211      6229      6451     12857     13142     13145      6210
 -2      6228      6450     12859     13144     13147
 -1      1080    5    0    1
 -2      6254      6188      6452      6256      6190      6454     12914     13148     13151      6255
 -2      6189      6453     12916     13150     13153
 -1      1081    5    0    1
 -2      5894      6380      6446      5896      6382      6448     12929     13154     13136      5895
 -2      6381      6447     12931     13156     13138
 -1      1082    5    0    1
 -2      6212      6209      6455      6214      6211      6457     12410     13157     13160      6213
 -2      6210      6456     12412     13159     13162
 -1      1083    5    0    1
 -2      6209      6449      6455      6211      6451      6457     13145     13163     13157      6210
 -2      6450      6456     13147     13165     13159
 -1      1084    5    0    1
 -2      6149      6137      6458      6151      6139      6460     12827     13166     13169      6150
 -2      6138      6459     12829     13168     13171
 -1      1085    5    0    1
 -2      6410      6149      6458      6412      6151      6460     13040     13169     13172      6411
 -2      6150      6459     13042     13171     13174
 -1      1086    5    0    1
 -2      6137      6401      6458      6139      6403      6460     13001     13175     13166      6138
 -2      6402      6459     13003     13177     13168
 -1      1087    5    0    1
 -2      6155      6239      6461      6157      6241      6463     12824     13178     13181      6156
 -2      6240      6462     12826     13180     13183
 -1      1088    5    0    1
 -2      5873      6416      6185      5875      6418      6187     13064     13184     12335      5874
 -2      6417      6186     13066     13186     12337
 -1      1089    5    0    1
 -2      6416      5876      6386      6418      5878      6388     13061     12950     13187      6417
 -2      5877      6387     13063     12952     13189
 -1      1090    5    0    1
 -2      6188      6131      6452      6190      6133      6454     13091     13190     13148      6189
 -2      6132      6453     13093     13192     13150
 -1      1091    5    0    1
 -2      6143      6446      6365      6145      6448      6367     13139     13193     12875      6144
 -2      6447      6366     13141     13195     12877
 -1      1092    5    0    1
 -2      6446      6380      6464      6448      6382      6466     13154     13196     13199      6447
 -2      6381      6465     13156     13198     13201
 -1      1093    5    0    1
 -2      6185      6416      6467      6187      6418      6469     13184     13202     13205      6186
 -2      6417      6468     13186     13204     13207
 -1      1094    5    0    1
 -2      6218      6194      6470      6220      6196      6472     12428     13208     13211      6219
 -2      6195      6471     12430     13210     13213
 -1      1095    5    0    1
 -2      6236      6212      6473      6238      6214      6475     12479     13214     13217      6237
 -2      6213      6474     12481     13216     13219
 -1      1096    5    0    1
 -2      6212      6455      6473      6214      6457      6475     13160     13220     13214      6213
 -2      6456      6474     13162     13222     13216
 -1      1097    5    0    1
 -2      6227      6224      6476      6229      6226      6478     12455     13223     13226      6228
 -2      6225      6477     12457     13225     13228
 -1      1098    5    0    1
 -2      6224      6431      6476      6226      6433      6478     13103     13229     13223      6225
 -2      6432      6477     13105     13231     13225
 -1      1099    5    0    1
 -2      6230      6170      6479      6232      6172      6481     12464     13232     13235      6231
 -2      6171      6480     12466     13234     13237
 -1      1100    5    0    1
 -2      6170      6434      6479      6172      6436      6481     13109     13238     13232      6171
 -2      6435      6480     13111     13240     13234
 -1      1101    5    0    1
 -2      6200      6371      6482      6202      6373      6484     12896     13241     13244      6201
 -2      6372      6483     12898     13243     13246
 -1      1102    5    0    1
 -2      6239      6167      6485      6241      6169      6487     12488     13247     13250      6240
 -2      6168      6486     12490     13249     13252
 -1      1103    5    0    1
 -2      6167      6419      6485      6169      6421      6487     13070     13253     13247      6168
 -2      6420      6486     13072     13255     13249
 -1      1104    5    0    1
 -2      6242      6221      6488      6244      6223      6490     12497     13256     13259      6243
 -2      6222      6489     12499     13258     13261
 -1      1105    5    0    1
 -2      6248      6245      6491      6250      6247      6493     12515     13262     13265      6249
 -2      6246      6492     12517     13264     13267
 -1      1106    5    0    1
 -2      6368      6230      6494      6370      6232      6496     12944     13268     13271      6369
 -2      6231      6495     12946     13270     13273
 -1      1107    5    0    1
 -2      6230      6479      6494      6232      6481      6496     13235     13274     13268      6231
 -2      6480      6495     13237     13276     13270
 -1      1108    5    0    1
 -2      6251      6152      6497      6253      6154      6499     12524     13277     13280      6252
 -2      6153      6498     12526     13279     13282
 -1      1109    5    0    1
 -2      5936      6251      6452      5938      6253      6454     12521     13283     13286      5937
 -2      6252      6453     12523     13285     13288
 -1      1110    5    0    1
 -2      6131      5936      6452      6133      5938      6454     12182     13286     13190      6132
 -2      5937      6453     12184     13288     13192
 -1      1111    5    0    1
 -2      6152      6368      6500      6154      6370      6502     12917     13289     13292      6153
 -2      6369      6501     12919     13291     13294
 -1      1112    5    0    1
 -2      6368      6494      6500      6370      6496      6502     13271     13295     13289      6369
 -2      6495      6501     13273     13297     13291
 -1      1113    5    0    1
 -2      6179      6164      6503      6181      6166      6505     12326     13298     13301      6180
 -2      6165      6504     12328     13300     13303
 -1      1114    5    0    1
 -2      6164      6437      6503      6166      6439      6505     13115     13304     13298      6165
 -2      6438      6504     13117     13306     13300
 -1      1115    5    0    1
 -2      6260      6257      6506      6262      6259      6508     12548     13307     13310      6261
 -2      6258      6507     12550     13309     13312
 -1      1116    5    0    1
 -2      6257      6428      6506      6259      6430      6508     13097     13313     13307      6258
 -2      6429      6507     13099     13315     13309
 -1      1117    5    0    1
 -2      6263      6260      6509      6265      6262      6511     12557     13316     13319      6264
 -2      6261      6510     12559     13318     13321
 -1      1118    5    0    1
 -2      6260      6506      6509      6262      6508      6511     13310     13322     13316      6261
 -2      6507      6510     13312     13324     13318
 -1      1119    5    0    1
 -2      6266      6263      6512      6268      6265      6514     12566     13325     13328      6267
 -2      6264      6513     12568     13327     13330
 -1      1120    5    0    1
 -2      6263      6509      6512      6265      6511      6514     13319     13331     13325      6264
 -2      6510      6513     13321     13333     13327
 -1      1121    5    0    1
 -2      6269      6266      6515      6271      6268      6517     12575     13334     13337      6270
 -2      6267      6516     12577     13336     13339
 -1      1122    5    0    1
 -2      6266      6512      6515      6268      6514      6517     13328     13340     13334      6267
 -2      6513      6516     13330     13342     13336
 -1      1123    5    0    1
 -2      6272      6269      6518      6274      6271      6520     12584     13343     13346      6273
 -2      6270      6519     12586     13345     13348
 -1      1124    5    0    1
 -2      6269      6515      6518      6271      6517      6520     13337     13349     13343      6270
 -2      6516      6519     13339     13351     13345
 -1      1125    5    0    1
 -2      6275      6272      6521      6277      6274      6523     12593     13352     13355      6276
 -2      6273      6522     12595     13354     13357
 -1      1126    5    0    1
 -2      6272      6518      6521      6274      6520      6523     13346     13358     13352      6273
 -2      6519      6522     13348     13360     13354
 -1      1127    5    0    1
 -2      6278      6275      6524      6280      6277      6526     12602     13361     13364      6279
 -2      6276      6525     12604     13363     13366
 -1      1128    5    0    1
 -2      6275      6521      6524      6277      6523      6526     13355     13367     13361      6276
 -2      6522      6525     13357     13369     13363
 -1      1129    5    0    1
 -2      6281      6278      6527      6283      6280      6529     12611     13370     13373      6282
 -2      6279      6528     12613     13372     13375
 -1      1130    5    0    1
 -2      6278      6524      6527      6280      6526      6529     13364     13376     13370      6279
 -2      6525      6528     13366     13378     13372
 -1      1131    5    0    1
 -2      6284      6281      6530      6286      6283      6532     12620     13379     13382      6285
 -2      6282      6531     12622     13381     13384
 -1      1132    5    0    1
 -2      6281      6527      6530      6283      6529      6532     13373     13385     13379      6282
 -2      6528      6531     13375     13387     13381
 -1      1133    5    0    1
 -2      6287      6284      6533      6289      6286      6535     12629     13388     13391      6288
 -2      6285      6534     12631     13390     13393
 -1      1134    5    0    1
 -2      6284      6530      6533      6286      6532      6535     13382     13394     13388      6285
 -2      6531      6534     13384     13396     13390
 -1      1135    5    0    1
 -2      6290      6287      6536      6292      6289      6538     12638     13397     13400      6291
 -2      6288      6537     12640     13399     13402
 -1      1136    5    0    1
 -2      6287      6533      6536      6289      6535      6538     13391     13403     13397      6288
 -2      6534      6537     13393     13405     13399
 -1      1137    5    0    1
 -2      6293      6290      6539      6295      6292      6541     12647     13406     13409      6294
 -2      6291      6540     12649     13408     13411
 -1      1138    5    0    1
 -2      6290      6536      6539      6292      6538      6541     13400     13412     13406      6291
 -2      6537      6540     13402     13414     13408
 -1      1139    5    0    1
 -2      6296      6293      6542      6298      6295      6544     12656     13415     13418      6297
 -2      6294      6543     12658     13417     13420
 -1      1140    5    0    1
 -2      6293      6539      6542      6295      6541      6544     13409     13421     13415      6294
 -2      6540      6543     13411     13423     13417
 -1      1141    5    0    1
 -2      6299      6296      6545      6301      6298      6547     12665     13424     13427      6300
 -2      6297      6546     12667     13426     13429
 -1      1142    5    0    1
 -2      6296      6542      6545      6298      6544      6547     13418     13430     13424      6297
 -2      6543      6546     13420     13432     13426
 -1      1143    5    0    1
 -2      6302      6299      6548      6304      6301      6550     12674     13433     13436      6303
 -2      6300      6549     12676     13435     13438
 -1      1144    5    0    1
 -2      6299      6545      6548      6301      6547      6550     13427     13439     13433      6300
 -2      6546      6549     13429     13441     13435
 -1      1145    5    0    1
 -2      6305      6302      6551      6307      6304      6553     12683     13442     13445      6306
 -2      6303      6552     12685     13444     13447
 -1      1146    5    0    1
 -2      6302      6548      6551      6304      6550      6553     13436     13448     13442      6303
 -2      6549      6552     13438     13450     13444
 -1      1147    5    0    1
 -2      6308      6305      6554      6310      6307      6556     12692     13451     13454      6309
 -2      6306      6555     12694     13453     13456
 -1      1148    5    0    1
 -2      6305      6551      6554      6307      6553      6556     13445     13457     13451      6306
 -2      6552      6555     13447     13459     13453
 -1      1149    5    0    1
 -2      6311      6308      6557      6313      6310      6559     12701     13460     13463      6312
 -2      6309      6558     12703     13462     13465
 -1      1150    5    0    1
 -2      6308      6554      6557      6310      6556      6559     13454     13466     13460      6309
 -2      6555      6558     13456     13468     13462
 -1      1151    5    0    1
 -2      6314      6311      6560      6316      6313      6562     12710     13469     13472      6315
 -2      6312      6561     12712     13471     13474
 -1      1152    5    0    1
 -2      6311      6557      6560      6313      6559      6562     13463     13475     13469      6312
 -2      6558      6561     13465     13477     13471
 -1      1153    5    0    1
 -2      6317      6314      6563      6319      6316      6565     12719     13478     13481      6318
 -2      6315      6564     12721     13480     13483
 -1      1154    5    0    1
 -2      6314      6560      6563      6316      6562      6565     13472     13484     13478      6315
 -2      6561      6564     13474     13486     13480
 -1      1155    5    0    1
 -2      6320      6317      6566      6322      6319      6568     12728     13487     13490      6321
 -2      6318      6567     12730     13489     13492
 -1      1156    5    0    1
 -2      6317      6563      6566      6319      6565      6568     13481     13493     13487      6318
 -2      6564      6567     13483     13495     13489
 -1      1157    5    0    1
 -2      6323      6320      6569      6325      6322      6571     12737     13496     13499      6324
 -2      6321      6570     12739     13498     13501
 -1      1158    5    0    1
 -2      6320      6566      6569      6322      6568      6571     13490     13502     13496      6321
 -2      6567      6570     13492     13504     13498
 -1      1159    5    0    1
 -2      6326      6323      6572      6328      6325      6574     12746     13505     13508      6327
 -2      6324      6573     12748     13507     13510
 -1      1160    5    0    1
 -2      6323      6569      6572      6325      6571      6574     13499     13511     13505      6324
 -2      6570      6573     13501     13513     13507
 -1      1161    5    0    1
 -2      6329      6326      6575      6331      6328      6577     12755     13514     13517      6330
 -2      6327      6576     12757     13516     13519
 -1      1162    5    0    1
 -2      6326      6572      6575      6328      6574      6577     13508     13520     13514      6327
 -2      6573      6576     13510     13522     13516
 -1      1163    5    0    1
 -2      6332      6329      6578      6334      6331      6580     12764     13523     13526      6333
 -2      6330      6579     12766     13525     13528
 -1      1164    5    0    1
 -2      6329      6575      6578      6331      6577      6580     13517     13529     13523      6330
 -2      6576      6579     13519     13531     13525
 -1      1165    5    0    1
 -2      6335      6332      6581      6337      6334      6583     12773     13532     13535      6336
 -2      6333      6582     12775     13534     13537
 -1      1166    5    0    1
 -2      6332      6578      6581      6334      6580      6583     13526     13538     13532      6333
 -2      6579      6582     13528     13540     13534
 -1      1167    5    0    1
 -2      6338      6218      6584      6340      6220      6586     12782     13541     13544      6339
 -2      6219      6585     12784     13543     13546
 -1      1168    5    0    1
 -2      6218      6470      6584      6220      6472      6586     13211     13547     13541      6219
 -2      6471      6585     13213     13549     13543
 -1      1169    5    0    1
 -2      6365      6446      6587      6367      6448      6589     13193     13550     13553      6366
 -2      6447      6588     13195     13552     13555
 -1      1170    5    0    1
 -2      6446      6464      6587      6448      6466      6589     13199     13556     13550      6447
 -2      6465      6588     13201     13558     13552
 -1      1171    5    0    1
 -2      6341      6242      6590      6343      6244      6592     12791     13559     13562      6342
 -2      6243      6591     12793     13561     13564
 -1      1172    5    0    1
 -2      6242      6488      6590      6244      6490      6592     13259     13565     13559      6243
 -2      6489      6591     13261     13567     13561
 -1      1173    5    0    1
 -2      6344      6248      6593      6346      6250      6595     12803     13568     13571      6345
 -2      6249      6594     12805     13570     13573
 -1      1174    5    0    1
 -2      6248      6491      6593      6250      6493      6595     13265     13574     13568      6249
 -2      6492      6594     13267     13576     13570
 -1      1175    5    0    1
 -2      6254      6452      6428      6256      6454      6430     13151     13577     13094      6255
 -2      6453      6429     13153     13579     13096
 -1      1176    5    0    1
 -2      6452      6251      6596      6454      6253      6598     13283     13580     13583      6453
 -2      6252      6597     13285     13582     13585
 -1      1177    5    0    1
 -2      6428      6452      6596      6430      6454      6598     13577     13583     13586      6429
 -2      6453      6597     13579     13585     13588
 -1      1178    5    0    1
 -2      6251      6497      6596      6253      6499      6598     13280     13589     13580      6252
 -2      6498      6597     13282     13591     13582
 -1      1179    5    0    1
 -2      6461      6239      6485      6463      6241      6487     13178     13250     13592      6462
 -2      6240      6486     13180     13252     13594
 -1      1180    5    0    1
 -2      6353      6110      6362      6355      6112      6364     12842     12869     13595      6354
 -2      6111      6363     12844     12871     13597
 -1      1181    5    0    1
 -2      6434      6215      6599      6436      6217      6601     13106     13598     13601      6435
 -2      6216      6600     13108     13600     13603
 -1      1182    5    0    1
 -2      6215      6161      6599      6217      6163      6601     12419     13604     13598      6216
 -2      6162      6600     12421     13606     13600
 -1      1183    5    0    1
 -2      5993      6407      6413      5995      6409      6415     13025     13607     13052      5994
 -2      6408      6414     13027     13609     13054
 -1      1184    5    0    1
 -2      6467      6416      6602      6469      6418      6604     13202     13610     13613      6468
 -2      6417      6603     13204     13612     13615
 -1      1185    5    0    1
 -2      6416      6386      6602      6418      6388      6604     13187     13616     13610      6417
 -2      6387      6603     13189     13618     13612
 -1      1186    5    0    1
 -2      6362      6176      6605      6364      6178      6607     12872     13619     13622      6363
 -2      6177      6606     12874     13621     13624
 -1      1187    5    0    1
 -2      6176      6425      6605      6178      6427      6607     13088     13625     13619      6177
 -2      6426      6606     13090     13627     13621
 -1      1188    5    0    1
 -2      6341      6590      6425      6343      6592      6427     13562     13628     13085      6342
 -2      6591      6426     13564     13630     13087
 -1      1189    5    0    1
 -2      6407      6179      6608      6409      6181      6610     13028     13631     13634      6408
 -2      6180      6609     13030     13633     13636
 -1      1190    5    0    1
 -2      6179      6503      6608      6181      6505      6610     13301     13637     13631      6180
 -2      6504      6609     13303     13639     13633
 -1      1191    5    0    1
 -2      6464      6380      6611      6466      6382      6613     13196     13640     13643      6465
 -2      6381      6612     13198     13642     13645
 -1      1192    5    0    1
 -2      6380      6422      6611      6382      6424      6613     13079     13646     13640      6381
 -2      6423      6612     13081     13648     13642
 -1      1193    5    0    1
 -2      6152      6500      6497      6154      6502      6499     13292     13649     13277      6153
 -2      6501      6498     13294     13651     13279
 -1      1194    5    0    1
 -2      6443      6236      6473      6445      6238      6475     13127     13217     13652      6444
 -2      6237      6474     13129     13219     13654
 -1      1195    5    0    1
 -2      6221      6440      6488      6223      6442      6490     13133     13655     13256      6222
 -2      6441      6489     13135     13657     13258
 -1      1196    5    0    1
 -2      6374      6356      6614      6376      6358      6616     12911     13658     13661      6375
 -2      6357      6615     12913     13660     13663
 -1      1197    5    0    1
 -2      6227      6476      6449      6229      6478      6451     13226     13664     13142      6228
 -2      6477      6450     13228     13666     13144
 -1      1198    5    0    1
 -2      6383      6185      6617      6385      6187      6619     12938     13667     13670      6384
 -2      6186      6618     12940     13669     13672
 -1      1199    5    0    1
 -2      6185      6467      6617      6187      6469      6619     13205     13673     13667      6186
 -2      6468      6618     13207     13675     13669
 -1      1200    5    0    1
 -2      6233      6389      6620      6235      6391      6622     12962     13676     13679      6234
 -2      6390      6621     12964     13678     13681
 -1      1201    5    0    1
 -2      6182      6443      6470      6184      6445      6472     13130     13682     13685      6183
 -2      6444      6471     13132     13684     13687
 -1      1202    5    0    1
 -2      6401      6365      6623      6403      6367      6625     13004     13688     13691      6402
 -2      6366      6624     13006     13690     13693
 -1      1203    5    0    1
 -2      6365      6587      6623      6367      6589      6625     13553     13694     13688      6366
 -2      6588      6624     13555     13696     13690
 -1      1204    5    0    1
 -2      6203      6155      6626      6205      6157      6628     12383     13697     13700      6204
 -2      6156      6627     12385     13699     13702
 -1      1205    5    0    1
 -2      6206      6200      6629      6208      6202      6631     12395     13703     13706      6207
 -2      6201      6630     12397     13705     13708
 -1      1206    5    0    1
 -2      6200      6482      6629      6202      6484      6631     13244     13709     13703      6201
 -2      6483      6630     13246     13711     13705
 -1      1207    5    0    1
 -2      6203      6626      6431      6205      6628      6433     13700     13712     13100      6204
 -2      6627      6432     13702     13714     13102
 -1      1208    5    0    1
 -2      6191      6206      6632      6193      6208      6634     12392     13715     13718      6192
 -2      6207      6633     12394     13717     13720
 -1      1209    5    0    1
 -2      6206      6629      6632      6208      6631      6634     13706     13721     13715      6207
 -2      6630      6633     13708     13723     13717
 -1      1210    5    0    1
 -2      6359      6338      6635      6361      6340      6637     12902     13724     13727      6360
 -2      6339      6636     12904     13726     13729
 -1      1211    5    0    1
 -2      6386      6191      6638      6388      6193      6640     12953     13730     13733      6387
 -2      6192      6639     12955     13732     13735
 -1      1212    5    0    1
 -2      6602      6386      6638      6604      6388      6640     13616     13733     13736      6603
 -2      6387      6639     13618     13735     13738
 -1      1213    5    0    1
 -2      6191      6632      6638      6193      6634      6640     13718     13739     13730      6192
 -2      6633      6639     13720     13741     13732
 -1      1214    5    0    1
 -2      6356      6383      6641      6358      6385      6643     13058     13742     13745      6357
 -2      6384      6642     13060     13744     13747
 -1      1215    5    0    1
 -2      6383      6617      6641      6385      6619      6643     13670     13748     13742      6384
 -2      6618      6642     13672     13750     13744
 -1      1216    5    0    1
 -2      6482      6371      6644      6484      6373      6646     13241     13751     13754      6483
 -2      6372      6645     13243     13753     13756
 -1      1217    5    0    1
 -2      6371      6413      6644      6373      6415      6646     13049     13757     13751      6372
 -2      6414      6645     13051     13759     13753
 -1      1218    5    0    1
 -2      6395      6233      6647      6397      6235      6649     12980     13760     13763      6396
 -2      6234      6648     12982     13762     13765
 -1      1219    5    0    1
 -2      6233      6620      6647      6235      6622      6649     13679     13766     13760      6234
 -2      6621      6648     13681     13768     13762
 -1      1220    5    0    1
 -2      6392      6344      6650      6394      6346      6652     13055     13769     13772      6393
 -2      6345      6651     13057     13771     13774
 -1      1221    5    0    1
 -2      6491      6245      6653      6493      6247      6655     13262     13775     13778      6492
 -2      6246      6654     13264     13777     13780
 -1      1222    5    0    1
 -2      6245      6347      6653      6247      6349      6655     12812     13781     13775      6246
 -2      6348      6654     12814     13783     13777
 -1      1223    5    0    1
 -2      6155      6461      6626      6157      6463      6628     13181     13784     13697      6156
 -2      6462      6627     13183     13786     13699
 -1      1224    5    0    1
 -2      6158      6398      6347      6160      6400      6349     12992     13787     12815      6159
 -2      6399      6348     12994     13789     12817
 -1      1225    5    0    1
 -2      6437      6359      6635      6439      6361      6637     13112     13727     13790      6438
 -2      6360      6636     13114     13729     13792
 -1      1226    5    0    1
 -2      6599      6161      6656      6601      6163      6658     13604     13793     13796      6600
 -2      6162      6657     13606     13795     13798
 -1      1227    5    0    1
 -2      6161      6353      6656      6163      6355      6658     12839     13799     13793      6162
 -2      6354      6657     12841     13801     13795
 -1      1228    5    0    1
 -2      6356      6641      6614      6358      6643      6616     13745     13802     13658      6357
 -2      6642      6615     13747     13804     13660
 -1      1229    5    0    1
 -2      6392      6650      6419      6394      6652      6421     13772     13805     13067      6393
 -2      6651      6420     13774     13807     13069
 -1      1230    5    0    1
 -2      6635      6338      6584      6637      6340      6586     13724     13544     13808      6636
 -2      6339      6585     13726     13546     13810
 -1      1231    5    0    1
 -2      6650      6344      6593      6652      6346      6595     13769     13571     13811      6651
 -2      6345      6594     13771     13573     13813
 -1      1232    5    0    1
 -2      6614      6641      6659      6616      6643      6661     13802     13814     13817      6615
 -2      6642      6660     13804     13816     13819
 -1      1233    5    0    1
 -2      6470      6194      6182      6472      6196      6184     13208     13820     13685      6471
 -2      6195      6183     13210     13822     13687
 -1      1234    5    0    1
 -2      6497      6500      6662      6499      6502      6664     13649     13823     13826      6498
 -2      6501      6663     13651     13825     13828
 -1      1235    5    0    1
 -2      6434      6599      6665      6436      6601      6667     13601     13829     13832      6435
 -2      6600      6666     13603     13831     13834
 -1      1236    5    0    1
 -2      6461      6485      6668      6463      6487      6670     13592     13835     13838      6462
 -2      6486      6669     13594     13837     13840
 -1      1237    5    0    1
 -2      6431      6626      6671      6433      6628      6673     13712     13841     13844      6432
 -2      6627      6672     13714     13843     13846
 -1      1238    5    0    1
 -2      6650      6593      6674      6652      6595      6676     13811     13847     13850      6651
 -2      6594      6675     13813     13849     13852
 -1      1239    5    0    1
 -2      6470      6443      6677      6472      6445      6679     13682     13853     13856      6471
 -2      6444      6678     13684     13855     13858
 -1      1240    5    0    1
 -2      6584      6470      6677      6586      6472      6679     13547     13856     13859      6585
 -2      6471      6678     13549     13858     13861
 -1      1241    5    0    1
 -2      6443      6473      6677      6445      6475      6679     13652     13862     13853      6444
 -2      6474      6678     13654     13864     13855
 -1      1242    5    0    1
 -2      6419      6650      6680      6421      6652      6682     13805     13865     13868      6420
 -2      6651      6681     13807     13867     13870
 -1      1243    5    0    1
 -2      6650      6674      6680      6652      6676      6682     13850     13871     13865      6651
 -2      6675      6681     13852     13873     13867
 -1      1244    5    0    1
 -2      6422      6395      6683      6424      6397      6685     13082     13874     13877      6423
 -2      6396      6684     13084     13876     13879
 -1      1245    5    0    1
 -2      6611      6422      6683      6613      6424      6685     13646     13877     13880      6612
 -2      6423      6684     13648     13879     13882
 -1      1246    5    0    1
 -2      6395      6647      6683      6397      6649      6685     13763     13883     13874      6396
 -2      6648      6684     13765     13885     13876
 -1      1247    5    0    1
 -2      6449      6476      6686      6451      6478      6688     13664     13886     13889      6450
 -2      6477      6687     13666     13888     13891
 -1      1248    5    0    1
 -2      6620      6389      6689      6622      6391      6691     13676     13892     13895      6621
 -2      6390      6690     13678     13894     13897
 -1      1249    5    0    1
 -2      6389      6374      6689      6391      6376      6691     12965     13898     13892      6390
 -2      6375      6690     12967     13900     13894
 -1      1250    5    0    1
 -2      6194      6197      6404      6196      6199      6406     12365     13016     13901      6195
 -2      6198      6405     12367     13018     13903
 -1      1251    5    0    1
 -2      6347      6398      6692      6349      6400      6694     13787     13904     13907      6348
 -2      6399      6693     13789     13906     13909
 -1      1252    5    0    1
 -2      6653      6347      6692      6655      6349      6694     13781     13907     13910      6654
 -2      6348      6693     13783     13909     13912
 -1      1253    5    0    1
 -2      6398      6335      6692      6400      6337      6694     12995     13913     13904      6399
 -2      6336      6693     12997     13915     13906
 -1      1254    5    0    1
 -2      6455      6449      6695      6457      6451      6697     13163     13916     13919      6456
 -2      6450      6696     13165     13918     13921
 -1      1255    5    0    1
 -2      6449      6686      6695      6451      6688      6697     13889     13922     13916      6450
 -2      6687      6696     13891     13924     13918
 -1      1256    5    0    1
 -2      6485      6419      6698      6487      6421      6700     13253     13925     13928      6486
 -2      6420      6699     13255     13927     13930
 -1      1257    5    0    1
 -2      6419      6680      6698      6421      6682      6700     13868     13931     13925      6420
 -2      6681      6699     13870     13933     13927
 -1      1258    5    0    1
 -2      6473      6455      6701      6475      6457      6703     13220     13934     13937      6474
 -2      6456      6702     13222     13936     13939
 -1      1259    5    0    1
 -2      6455      6695      6701      6457      6697      6703     13919     13940     13934      6456
 -2      6696      6702     13921     13942     13936
 -1      1260    5    0    1
 -2      6413      6407      6704      6415      6409      6706     13607     13943     13946      6414
 -2      6408      6705     13609     13945     13948
 -1      1261    5    0    1
 -2      6407      6608      6704      6409      6610      6706     13634     13949     13943      6408
 -2      6609      6705     13636     13951     13945
 -1      1262    5    0    1
 -2      6488      6440      6707      6490      6442      6709     13655     13952     13955      6489
 -2      6441      6708     13657     13954     13957
 -1      1263    5    0    1
 -2      6494      6479      6710      6496      6481      6712     13274     13958     13961      6495
 -2      6480      6711     13276     13960     13963
 -1      1264    5    0    1
 -2      6692      6335      6581      6694      6337      6583     13913     13535     13964      6693
 -2      6336      6582     13915     13537     13966
 -1      1265    5    0    1
 -2      6476      6431      6713      6478      6433      6715     13229     13967     13970      6477
 -2      6432      6714     13231     13969     13972
 -1      1266    5    0    1
 -2      6431      6671      6713      6433      6673      6715     13844     13973     13967      6432
 -2      6672      6714     13846     13975     13969
 -1      1267    5    0    1
 -2      6479      6434      6716      6481      6436      6718     13238     13976     13979      6480
 -2      6435      6717     13240     13978     13981
 -1      1268    5    0    1
 -2      6434      6665      6716      6436      6667      6718     13832     13982     13976      6435
 -2      6666      6717     13834     13984     13978
 -1      1269    5    0    1
 -2      6635      6584      6719      6637      6586      6721     13808     13985     13988      6636
 -2      6585      6720     13810     13987     13990
 -1      1270    5    0    1
 -2      6353      6362      6722      6355      6364      6724     13595     13991     13994      6354
 -2      6363      6723     13597     13993     13996
 -1      1271    5    0    1
 -2      6362      6605      6722      6364      6607      6724     13622     13997     13991      6363
 -2      6606      6723     13624     13999     13993
 -1      1272    5    0    1
 -2      6374      6614      6689      6376      6616      6691     13661     14000     13898      6375
 -2      6615      6690     13663     14002     13900
 -1      1273    5    0    1
 -2      6425      6590      6725      6427      6592      6727     13628     14003     14006      6426
 -2      6591      6726     13630     14005     14008
 -1      1274    5    0    1
 -2      6626      6461      6728      6628      6463      6730     13784     14009     14012      6627
 -2      6462      6729     13786     14011     14014
 -1      1275    5    0    1
 -2      6461      6668      6728      6463      6670      6730     13838     14015     14009      6462
 -2      6669      6729     13840     14017     14011
 -1      1276    5    0    1
 -2      6500      6494      6731      6502      6496      6733     13295     14018     14021      6501
 -2      6495      6732     13297     14020     14023
 -1      1277    5    0    1
 -2      6494      6710      6731      6496      6712      6733     13961     14024     14018      6495
 -2      6711      6732     13963     14026     14020
 -1      1278    5    0    1
 -2      6503      6437      6734      6505      6439      6736     13304     14027     14030      6504
 -2      6438      6735     13306     14029     14032
 -1      1279    5    0    1
 -2      6506      6428      6737      6508      6430      6739     13313     14033     14036      6507
 -2      6429      6738     13315     14035     14038
 -1      1280    5    0    1
 -2      6428      6596      6737      6430      6598      6739     13586     14039     14033      6429
 -2      6597      6738     13588     14041     14035
 -1      1281    5    0    1
 -2      6509      6506      6740      6511      6508      6742     13322     14042     14045      6510
 -2      6507      6741     13324     14044     14047
 -1      1282    5    0    1
 -2      6506      6737      6740      6508      6739      6742     14036     14048     14042      6507
 -2      6738      6741     14038     14050     14044
 -1      1283    5    0    1
 -2      6512      6509      6743      6514      6511      6745     13331     14051     14054      6513
 -2      6510      6744     13333     14053     14056
 -1      1284    5    0    1
 -2      6509      6740      6743      6511      6742      6745     14045     14057     14051      6510
 -2      6741      6744     14047     14059     14053
 -1      1285    5    0    1
 -2      6515      6512      6746      6517      6514      6748     13340     14060     14063      6516
 -2      6513      6747     13342     14062     14065
 -1      1286    5    0    1
 -2      6512      6743      6746      6514      6745      6748     14054     14066     14060      6513
 -2      6744      6747     14056     14068     14062
 -1      1287    5    0    1
 -2      6518      6515      6749      6520      6517      6751     13349     14069     14072      6519
 -2      6516      6750     13351     14071     14074
 -1      1288    5    0    1
 -2      6515      6746      6749      6517      6748      6751     14063     14075     14069      6516
 -2      6747      6750     14065     14077     14071
 -1      1289    5    0    1
 -2      6521      6518      6752      6523      6520      6754     13358     14078     14081      6522
 -2      6519      6753     13360     14080     14083
 -1      1290    5    0    1
 -2      6518      6749      6752      6520      6751      6754     14072     14084     14078      6519
 -2      6750      6753     14074     14086     14080
 -1      1291    5    0    1
 -2      6524      6521      6755      6526      6523      6757     13367     14087     14090      6525
 -2      6522      6756     13369     14089     14092
 -1      1292    5    0    1
 -2      6521      6752      6755      6523      6754      6757     14081     14093     14087      6522
 -2      6753      6756     14083     14095     14089
 -1      1293    5    0    1
 -2      6527      6524      6758      6529      6526      6760     13376     14096     14099      6528
 -2      6525      6759     13378     14098     14101
 -1      1294    5    0    1
 -2      6524      6755      6758      6526      6757      6760     14090     14102     14096      6525
 -2      6756      6759     14092     14104     14098
 -1      1295    5    0    1
 -2      6530      6527      6761      6532      6529      6763     13385     14105     14108      6531
 -2      6528      6762     13387     14107     14110
 -1      1296    5    0    1
 -2      6527      6758      6761      6529      6760      6763     14099     14111     14105      6528
 -2      6759      6762     14101     14113     14107
 -1      1297    5    0    1
 -2      6533      6530      6764      6535      6532      6766     13394     14114     14117      6534
 -2      6531      6765     13396     14116     14119
 -1      1298    5    0    1
 -2      6530      6761      6764      6532      6763      6766     14108     14120     14114      6531
 -2      6762      6765     14110     14122     14116
 -1      1299    5    0    1
 -2      6536      6533      6767      6538      6535      6769     13403     14123     14126      6537
 -2      6534      6768     13405     14125     14128
 -1      1300    5    0    1
 -2      6533      6764      6767      6535      6766      6769     14117     14129     14123      6534
 -2      6765      6768     14119     14131     14125
 -1      1301    5    0    1
 -2      6539      6536      6770      6541      6538      6772     13412     14132     14135      6540
 -2      6537      6771     13414     14134     14137
 -1      1302    5    0    1
 -2      6536      6767      6770      6538      6769      6772     14126     14138     14132      6537
 -2      6768      6771     14128     14140     14134
 -1      1303    5    0    1
 -2      6542      6539      6773      6544      6541      6775     13421     14141     14144      6543
 -2      6540      6774     13423     14143     14146
 -1      1304    5    0    1
 -2      6539      6770      6773      6541      6772      6775     14135     14147     14141      6540
 -2      6771      6774     14137     14149     14143
 -1      1305    5    0    1
 -2      6545      6542      6776      6547      6544      6778     13430     14150     14153      6546
 -2      6543      6777     13432     14152     14155
 -1      1306    5    0    1
 -2      6542      6773      6776      6544      6775      6778     14144     14156     14150      6543
 -2      6774      6777     14146     14158     14152
 -1      1307    5    0    1
 -2      6548      6545      6779      6550      6547      6781     13439     14159     14162      6549
 -2      6546      6780     13441     14161     14164
 -1      1308    5    0    1
 -2      6545      6776      6779      6547      6778      6781     14153     14165     14159      6546
 -2      6777      6780     14155     14167     14161
 -1      1309    5    0    1
 -2      6551      6548      6782      6553      6550      6784     13448     14168     14171      6552
 -2      6549      6783     13450     14170     14173
 -1      1310    5    0    1
 -2      6548      6779      6782      6550      6781      6784     14162     14174     14168      6549
 -2      6780      6783     14164     14176     14170
 -1      1311    5    0    1
 -2      6554      6551      6785      6556      6553      6787     13457     14177     14180      6555
 -2      6552      6786     13459     14179     14182
 -1      1312    5    0    1
 -2      6551      6782      6785      6553      6784      6787     14171     14183     14177      6552
 -2      6783      6786     14173     14185     14179
 -1      1313    5    0    1
 -2      6557      6554      6788      6559      6556      6790     13466     14186     14189      6558
 -2      6555      6789     13468     14188     14191
 -1      1314    5    0    1
 -2      6554      6785      6788      6556      6787      6790     14180     14192     14186      6555
 -2      6786      6789     14182     14194     14188
 -1      1315    5    0    1
 -2      6560      6557      6791      6562      6559      6793     13475     14195     14198      6561
 -2      6558      6792     13477     14197     14200
 -1      1316    5    0    1
 -2      6557      6788      6791      6559      6790      6793     14189     14201     14195      6558
 -2      6789      6792     14191     14203     14197
 -1      1317    5    0    1
 -2      6563      6560      6794      6565      6562      6796     13484     14204     14207      6564
 -2      6561      6795     13486     14206     14209
 -1      1318    5    0    1
 -2      6560      6791      6794      6562      6793      6796     14198     14210     14204      6561
 -2      6792      6795     14200     14212     14206
 -1      1319    5    0    1
 -2      6566      6563      6797      6568      6565      6799     13493     14213     14216      6567
 -2      6564      6798     13495     14215     14218
 -1      1320    5    0    1
 -2      6563      6794      6797      6565      6796      6799     14207     14219     14213      6564
 -2      6795      6798     14209     14221     14215
 -1      1321    5    0    1
 -2      6569      6566      6800      6571      6568      6802     13502     14222     14225      6570
 -2      6567      6801     13504     14224     14227
 -1      1322    5    0    1
 -2      6566      6797      6800      6568      6799      6802     14216     14228     14222      6567
 -2      6798      6801     14218     14230     14224
 -1      1323    5    0    1
 -2      6572      6569      6803      6574      6571      6805     13511     14231     14234      6573
 -2      6570      6804     13513     14233     14236
 -1      1324    5    0    1
 -2      6569      6800      6803      6571      6802      6805     14225     14237     14231      6570
 -2      6801      6804     14227     14239     14233
 -1      1325    5    0    1
 -2      6575      6572      6806      6577      6574      6808     13520     14240     14243      6576
 -2      6573      6807     13522     14242     14245
 -1      1326    5    0    1
 -2      6572      6803      6806      6574      6805      6808     14234     14246     14240      6573
 -2      6804      6807     14236     14248     14242
 -1      1327    5    0    1
 -2      6578      6575      6809      6580      6577      6811     13529     14249     14252      6579
 -2      6576      6810     13531     14251     14254
 -1      1328    5    0    1
 -2      6575      6806      6809      6577      6808      6811     14243     14255     14249      6576
 -2      6807      6810     14245     14257     14251
 -1      1329    5    0    1
 -2      6581      6578      6812      6583      6580      6814     13538     14258     14261      6582
 -2      6579      6813     13540     14260     14263
 -1      1330    5    0    1
 -2      6578      6809      6812      6580      6811      6814     14252     14264     14258      6579
 -2      6810      6813     14254     14266     14260
 -1      1331    5    0    1
 -2      6587      6464      6815      6589      6466      6817     13556     14267     14270      6588
 -2      6465      6816     13558     14269     14272
 -1      1332    5    0    1
 -2      6590      6488      6818      6592      6490      6820     13565     14273     14276      6591
 -2      6489      6819     13567     14275     14278
 -1      1333    5    0    1
 -2      6725      6590      6818      6727      6592      6820     14003     14276     14279      6726
 -2      6591      6819     14005     14278     14281
 -1      1334    5    0    1
 -2      6488      6707      6818      6490      6709      6820     13955     14282     14273      6489
 -2      6708      6819     13957     14284     14275
 -1      1335    5    0    1
 -2      6440      6410      6821      6442      6412      6823     13124     14285     14288      6441
 -2      6411      6822     13126     14287     14290
 -1      1336    5    0    1
 -2      6707      6440      6821      6709      6442      6823     13952     14288     14291      6708
 -2      6441      6822     13954     14290     14293
 -1      1337    5    0    1
 -2      6410      6458      6821      6412      6460      6823     13172     14294     14285      6411
 -2      6459      6822     13174     14296     14287
 -1      1338    5    0    1
 -2      6437      6635      6824      6439      6637      6826     13790     14297     14300      6438
 -2      6636      6825     13792     14299     14302
 -1      1339    5    0    1
 -2      6734      6437      6824      6736      6439      6826     14027     14300     14303      6735
 -2      6438      6825     14029     14302     14305
 -1      1340    5    0    1
 -2      6635      6719      6824      6637      6721      6826     13988     14306     14297      6636
 -2      6720      6825     13990     14308     14299
 -1      1341    5    0    1
 -2      6674      6593      6827      6676      6595      6829     13847     14309     14312      6675
 -2      6594      6828     13849     14311     14314
 -1      1342    5    0    1
 -2      6593      6491      6827      6595      6493      6829     13574     14315     14309      6594
 -2      6492      6828     13576     14317     14311
 -1      1343    5    0    1
 -2      6485      6698      6668      6487      6700      6670     13928     14318     13835      6486
 -2      6699      6669     13930     14320     13837
 -1      1344    5    0    1
 -2      6182      6194      6404      6184      6196      6406     13820     13901     13019      6183
 -2      6195      6405     13822     13903     13021
 -1      1345    5    0    1
 -2      6662      6500      6731      6664      6502      6733     13823     14021     14321      6663
 -2      6501      6732     13825     14023     14323
 -1      1346    5    0    1
 -2      6671      6626      6728      6673      6628      6730     13841     14012     14324      6672
 -2      6627      6729     13843     14014     14326
 -1      1347    5    0    1
 -2      6605      6425      6830      6607      6427      6832     13625     14327     14330      6606
 -2      6426      6831     13627     14329     14332
 -1      1348    5    0    1
 -2      6425      6725      6830      6427      6727      6832     14006     14333     14327      6426
 -2      6726      6831     14008     14335     14329
 -1      1349    5    0    1
 -2      6467      6602      6833      6469      6604      6835     13613     14336     14339      6468
 -2      6603      6834     13615     14338     14341
 -1      1350    5    0    1
 -2      6479      6716      6710      6481      6718      6712     13979     14342     13958      6480
 -2      6717      6711     13981     14344     13960
 -1      1351    5    0    1
 -2      6584      6677      6719      6586      6679      6721     13859     14345     13985      6585
 -2      6678      6720     13861     14347     13987
 -1      1352    5    0    1
 -2      6608      6503      6836      6610      6505      6838     13637     14348     14351      6609
 -2      6504      6837     13639     14350     14353
 -1      1353    5    0    1
 -2      6503      6734      6836      6505      6736      6838     14030     14354     14348      6504
 -2      6735      6837     14032     14356     14350
 -1      1354    5    0    1
 -2      6686      6476      6713      6688      6478      6715     13886     13970     14357      6687
 -2      6477      6714     13888     13972     14359
 -1      1355    5    0    1
 -2      6629      6482      6839      6631      6484      6841     13709     14360     14363      6630
 -2      6483      6840     13711     14362     14365
 -1      1356    5    0    1
 -2      6623      6587      6842      6625      6589      6844     13694     14366     14369      6624
 -2      6588      6843     13696     14368     14371
 -1      1357    5    0    1
 -2      6587      6815      6842      6589      6817      6844     14270     14372     14366      6588
 -2      6816      6843     14272     14374     14368
 -1      1358    5    0    1
 -2      6620      6689      6845      6622      6691      6847     13895     14375     14378      6621
 -2      6690      6846     13897     14377     14380
 -1      1359    5    0    1
 -2      6617      6467      6848      6619      6469      6850     13673     14381     14384      6618
 -2      6468      6849     13675     14383     14386
 -1      1360    5    0    1
 -2      6467      6833      6848      6469      6835      6850     14339     14387     14381      6468
 -2      6834      6849     14341     14389     14383
 -1      1361    5    0    1
 -2      6596      6497      6851      6598      6499      6853     13589     14390     14393      6597
 -2      6498      6852     13591     14392     14395
 -1      1362    5    0    1
 -2      6737      6596      6851      6739      6598      6853     14039     14393     14396      6738
 -2      6597      6852     14041     14395     14398
 -1      1363    5    0    1
 -2      6497      6662      6851      6499      6664      6853     13826     14399     14390      6498
 -2      6663      6852     13828     14401     14392
 -1      1364    5    0    1
 -2      6638      6632      6854      6640      6634      6856     13739     14402     14405      6639
 -2      6633      6855     13741     14404     14407
 -1      1365    5    0    1
 -2      6458      6401      6857      6460      6403      6859     13175     14408     14411      6459
 -2      6402      6858     13177     14410     14413
 -1      1366    5    0    1
 -2      6821      6458      6857      6823      6460      6859     14294     14411     14414      6822
 -2      6459      6858     14296     14413     14416
 -1      1367    5    0    1
 -2      6401      6623      6857      6403      6625      6859     13691     14417     14408      6402
 -2      6624      6858     13693     14419     14410
 -1      1368    5    0    1
 -2      6632      6629      6860      6634      6631      6862     13721     14420     14423      6633
 -2      6630      6861     13723     14422     14425
 -1      1369    5    0    1
 -2      6629      6839      6860      6631      6841      6862     14363     14426     14420      6630
 -2      6840      6861     14365     14428     14422
 -1      1370    5    0    1
 -2      6665      6599      6863      6667      6601      6865     13829     14429     14432      6666
 -2      6600      6864     13831     14431     14434
 -1      1371    5    0    1
 -2      6599      6656      6863      6601      6658      6865     13796     14435     14429      6600
 -2      6657      6864     13798     14437     14431
 -1      1372    5    0    1
 -2      6692      6581      6866      6694      6583      6868     13964     14438     14441      6693
 -2      6582      6867     13966     14440     14443
 -1      1373    5    0    1
 -2      6644      6413      6704      6646      6415      6706     13757     13946     14444      6645
 -2      6414      6705     13759     13948     14446
 -1      1374    5    0    1
 -2      6647      6620      6869      6649      6622      6871     13766     14447     14450      6648
 -2      6621      6870     13768     14449     14452
 -1      1375    5    0    1
 -2      6620      6845      6869      6622      6847      6871     14378     14453     14447      6621
 -2      6846      6870     14380     14455     14449
 -1      1376    5    0    1
 -2      6353      6722      6656      6355      6724      6658     13994     14456     13799      6354
 -2      6723      6657     13996     14458     13801
 -1      1377    5    0    1
 -2      6659      6641      6872      6661      6643      6874     13814     14459     14462      6660
 -2      6642      6873     13816     14461     14464
 -1      1378    5    0    1
 -2      6641      6617      6872      6643      6619      6874     13748     14465     14459      6642
 -2      6618      6873     13750     14467     14461
 -1      1379    5    0    1
 -2      6689      6614      6875      6691      6616      6877     14000     14468     14471      6690
 -2      6615      6876     14002     14470     14473
 -1      1380    5    0    1
 -2      6845      6689      6875      6847      6691      6877     14375     14471     14474      6846
 -2      6690      6876     14377     14473     14476
 -1      1381    5    0    1
 -2      6614      6659      6875      6616      6661      6877     13817     14477     14468      6615
 -2      6660      6876     13819     14479     14470
 -1      1382    5    0    1
 -2      6473      6701      6677      6475      6703      6679     13937     14480     13862      6474
 -2      6702      6678     13939     14482     13864
 -1      1383    5    0    1
 -2      6653      6692      6866      6655      6694      6868     13910     14441     14483      6654
 -2      6693      6867     13912     14443     14485
 -1      1384    5    0    1
 -2      6491      6653      6866      6493      6655      6868     13778     14483     14486      6492
 -2      6654      6867     13780     14485     14488
 -1      1385    5    0    1
 -2      6815      6464      6878      6817      6466      6880     14267     14489     14492      6816
 -2      6465      6879     14269     14491     14494
 -1      1386    5    0    1
 -2      6464      6611      6878      6466      6613      6880     13643     14495     14489      6465
 -2      6612      6879     13645     14497     14491
 -1      1387    5    0    1
 -2      6839      6482      6881      6841      6484      6883     14360     14498     14501      6840
 -2      6483      6882     14362     14500     14503
 -1      1388    5    0    1
 -2      6482      6644      6881      6484      6646      6883     13754     14504     14498      6483
 -2      6645      6882     13756     14506     14500
 -1      1389    5    0    1
 -2      6854      6632      6860      6856      6634      6862     14402     14423     14507      6855
 -2      6633      6861     14404     14425     14509
 -1      1390    5    0    1
 -2      6491      6866      6827      6493      6868      6829     14486     14510     14315      6492
 -2      6867      6828     14488     14512     14317
 -1      1391    5    0    1
 -2      6866      6581      6812      6868      6583      6814     14438     14261     14513      6867
 -2      6582      6813     14440     14263     14515
 -1      1392    5    0    1
 -2      6677      6701      6719      6679      6703      6721     14480     14516     14345      6678
 -2      6702      6720     14482     14518     14347
 -1      1393    5    0    1
 -2      6674      6827      6884      6676      6829      6886     14312     14519     14522      6675
 -2      6828      6885     14314     14521     14524
 -1      1394    5    0    1
 -2      6710      6716      6887      6712      6718      6889     14342     14525     14528      6711
 -2      6717      6888     14344     14527     14530
 -1      1395    5    0    1
 -2      6719      6701      6890      6721      6703      6892     14516     14531     14534      6720
 -2      6702      6891     14518     14533     14536
 -1      1396    5    0    1
 -2      6671      6728      6893      6673      6730      6895     14324     14537     14540      6672
 -2      6729      6894     14326     14539     14542
 -1      1397    5    0    1
 -2      6722      6605      6896      6724      6607      6898     13997     14543     14546      6723
 -2      6606      6897     13999     14545     14548
 -1      1398    5    0    1
 -2      6605      6830      6896      6607      6832      6898     14330     14549     14543      6606
 -2      6831      6897     14332     14551     14545
 -1      1399    5    0    1
 -2      6713      6671      6899      6715      6673      6901     13973     14552     14555      6714
 -2      6672      6900     13975     14554     14557
 -1      1400    5    0    1
 -2      6671      6893      6899      6673      6895      6901     14540     14558     14552      6672
 -2      6894      6900     14542     14560     14554
 -1      1401    5    0    1
 -2      6827      6866      6812      6829      6868      6814     14510     14513     14561      6828
 -2      6867      6813     14512     14515     14563
 -1      1402    5    0    1
 -2      6698      6680      6902      6700      6682      6904     13931     14564     14567      6699
 -2      6681      6903     13933     14566     14569
 -1      1403    5    0    1
 -2      6701      6695      6890      6703      6697      6892     13940     14570     14531      6702
 -2      6696      6891     13942     14572     14533
 -1      1404    5    0    1
 -2      6704      6608      6905      6706      6610      6907     13949     14573     14576      6705
 -2      6609      6906     13951     14575     14578
 -1      1405    5    0    1
 -2      6608      6836      6905      6610      6838      6907     14351     14579     14573      6609
 -2      6837      6906     14353     14581     14575
 -1      1406    5    0    1
 -2      6602      6638      6908      6604      6640      6910     13736     14582     14585      6603
 -2      6639      6909     13738     14584     14587
 -1      1407    5    0    1
 -2      6833      6602      6908      6835      6604      6910     14336     14585     14588      6834
 -2      6603      6909     14338     14587     14590
 -1      1408    5    0    1
 -2      6638      6854      6908      6640      6856      6910     14405     14591     14582      6639
 -2      6855      6909     14407     14593     14584
 -1      1409    5    0    1
 -2      6686      6713      6911      6688      6715      6913     14357     14594     14597      6687
 -2      6714      6912     14359     14596     14599
 -1      1410    5    0    1
 -2      6713      6899      6911      6715      6901      6913     14555     14600     14594      6714
 -2      6900      6912     14557     14602     14596
 -1      1411    5    0    1
 -2      6644      6704      6914      6646      6706      6916     14444     14603     14606      6645
 -2      6705      6915     14446     14605     14608
 -1      1412    5    0    1
 -2      6881      6644      6914      6883      6646      6916     14504     14606     14609      6882
 -2      6645      6915     14506     14608     14611
 -1      1413    5    0    1
 -2      6704      6905      6914      6706      6907      6916     14576     14612     14603      6705
 -2      6906      6915     14578     14614     14605
 -1      1414    5    0    1
 -2      6695      6686      6917      6697      6688      6919     13922     14615     14618      6696
 -2      6687      6918     13924     14617     14620
 -1      1415    5    0    1
 -2      6686      6911      6917      6688      6913      6919     14597     14621     14615      6687
 -2      6912      6918     14599     14623     14617
 -1      1416    5    0    1
 -2      6860      6839      6920      6862      6841      6922     14426     14624     14627      6861
 -2      6840      6921     14428     14626     14629
 -1      1417    5    0    1
 -2      6731      6710      6923      6733      6712      6925     14024     14630     14633      6732
 -2      6711      6924     14026     14632     14635
 -1      1418    5    0    1
 -2      6710      6887      6923      6712      6889      6925     14528     14636     14630      6711
 -2      6888      6924     14530     14638     14632
 -1      1419    5    0    1
 -2      6656      6722      6926      6658      6724      6928     14456     14639     14642      6657
 -2      6723      6927     14458     14641     14644
 -1      1420    5    0    1
 -2      6722      6896      6926      6724      6898      6928     14546     14645     14639      6723
 -2      6897      6927     14548     14647     14641
 -1      1421    5    0    1
 -2      6740      6737      6929      6742      6739      6931     14048     14648     14651      6741
 -2      6738      6930     14050     14650     14653
 -1      1422    5    0    1
 -2      6737      6851      6929      6739      6853      6931     14396     14654     14648      6738
 -2      6852      6930     14398     14656     14650
 -1      1423    5    0    1
 -2      6743      6740      6932      6745      6742      6934     14057     14657     14660      6744
 -2      6741      6933     14059     14659     14662
 -1      1424    5    0    1
 -2      6740      6929      6932      6742      6931      6934     14651     14663     14657      6741
 -2      6930      6933     14653     14665     14659
 -1      1425    5    0    1
 -2      6746      6743      6935      6748      6745      6937     14066     14666     14669      6747
 -2      6744      6936     14068     14668     14671
 -1      1426    5    0    1
 -2      6743      6932      6935      6745      6934      6937     14660     14672     14666      6744
 -2      6933      6936     14662     14674     14668
 -1      1427    5    0    1
 -2      6749      6746      6938      6751      6748      6940     14075     14675     14678      6750
 -2      6747      6939     14077     14677     14680
 -1      1428    5    0    1
 -2      6746      6935      6938      6748      6937      6940     14669     14681     14675      6747
 -2      6936      6939     14671     14683     14677
 -1      1429    5    0    1
 -2      6752      6749      6941      6754      6751      6943     14084     14684     14687      6753
 -2      6750      6942     14086     14686     14689
 -1      1430    5    0    1
 -2      6749      6938      6941      6751      6940      6943     14678     14690     14684      6750
 -2      6939      6942     14680     14692     14686
 -1      1431    5    0    1
 -2      6755      6752      6944      6757      6754      6946     14093     14693     14696      6756
 -2      6753      6945     14095     14695     14698
 -1      1432    5    0    1
 -2      6752      6941      6944      6754      6943      6946     14687     14699     14693      6753
 -2      6942      6945     14689     14701     14695
 -1      1433    5    0    1
 -2      6758      6755      6947      6760      6757      6949     14102     14702     14705      6759
 -2      6756      6948     14104     14704     14707
 -1      1434    5    0    1
 -2      6755      6944      6947      6757      6946      6949     14696     14708     14702      6756
 -2      6945      6948     14698     14710     14704
 -1      1435    5    0    1
 -2      6761      6758      6950      6763      6760      6952     14111     14711     14714      6762
 -2      6759      6951     14113     14713     14716
 -1      1436    5    0    1
 -2      6758      6947      6950      6760      6949      6952     14705     14717     14711      6759
 -2      6948      6951     14707     14719     14713
 -1      1437    5    0    1
 -2      6764      6761      6953      6766      6763      6955     14120     14720     14723      6765
 -2      6762      6954     14122     14722     14725
 -1      1438    5    0    1
 -2      6761      6950      6953      6763      6952      6955     14714     14726     14720      6762
 -2      6951      6954     14716     14728     14722
 -1      1439    5    0    1
 -2      6767      6764      6956      6769      6766      6958     14129     14729     14732      6768
 -2      6765      6957     14131     14731     14734
 -1      1440    5    0    1
 -2      6764      6953      6956      6766      6955      6958     14723     14735     14729      6765
 -2      6954      6957     14725     14737     14731
 -1      1441    5    0    1
 -2      6770      6767      6959      6772      6769      6961     14138     14738     14741      6771
 -2      6768      6960     14140     14740     14743
 -1      1442    5    0    1
 -2      6767      6956      6959      6769      6958      6961     14732     14744     14738      6768
 -2      6957      6960     14734     14746     14740
 -1      1443    5    0    1
 -2      6773      6770      6962      6775      6772      6964     14147     14747     14750      6774
 -2      6771      6963     14149     14749     14752
 -1      1444    5    0    1
 -2      6770      6959      6962      6772      6961      6964     14741     14753     14747      6771
 -2      6960      6963     14743     14755     14749
 -1      1445    5    0    1
 -2      6776      6773      6965      6778      6775      6967     14156     14756     14759      6777
 -2      6774      6966     14158     14758     14761
 -1      1446    5    0    1
 -2      6773      6962      6965      6775      6964      6967     14750     14762     14756      6774
 -2      6963      6966     14752     14764     14758
 -1      1447    5    0    1
 -2      6779      6776      6968      6781      6778      6970     14165     14765     14768      6780
 -2      6777      6969     14167     14767     14770
 -1      1448    5    0    1
 -2      6776      6965      6968      6778      6967      6970     14759     14771     14765      6777
 -2      6966      6969     14761     14773     14767
 -1      1449    5    0    1
 -2      6782      6779      6971      6784      6781      6973     14174     14774     14777      6783
 -2      6780      6972     14176     14776     14779
 -1      1450    5    0    1
 -2      6779      6968      6971      6781      6970      6973     14768     14780     14774      6780
 -2      6969      6972     14770     14782     14776
 -1      1451    5    0    1
 -2      6785      6782      6974      6787      6784      6976     14183     14783     14786      6786
 -2      6783      6975     14185     14785     14788
 -1      1452    5    0    1
 -2      6782      6971      6974      6784      6973      6976     14777     14789     14783      6783
 -2      6972      6975     14779     14791     14785
 -1      1453    5    0    1
 -2      6788      6785      6977      6790      6787      6979     14192     14792     14795      6789
 -2      6786      6978     14194     14794     14797
 -1      1454    5    0    1
 -2      6785      6974      6977      6787      6976      6979     14786     14798     14792      6786
 -2      6975      6978     14788     14800     14794
 -1      1455    5    0    1
 -2      6791      6788      6980      6793      6790      6982     14201     14801     14804      6792
 -2      6789      6981     14203     14803     14806
 -1      1456    5    0    1
 -2      6788      6977      6980      6790      6979      6982     14795     14807     14801      6789
 -2      6978      6981     14797     14809     14803
 -1      1457    5    0    1
 -2      6794      6791      6983      6796      6793      6985     14210     14810     14813      6795
 -2      6792      6984     14212     14812     14815
 -1      1458    5    0    1
 -2      6791      6980      6983      6793      6982      6985     14804     14816     14810      6792
 -2      6981      6984     14806     14818     14812
 -1      1459    5    0    1
 -2      6797      6794      6986      6799      6796      6988     14219     14819     14822      6798
 -2      6795      6987     14221     14821     14824
 -1      1460    5    0    1
 -2      6794      6983      6986      6796      6985      6988     14813     14825     14819      6795
 -2      6984      6987     14815     14827     14821
 -1      1461    5    0    1
 -2      6800      6797      6989      6802      6799      6991     14228     14828     14831      6801
 -2      6798      6990     14230     14830     14833
 -1      1462    5    0    1
 -2      6797      6986      6989      6799      6988      6991     14822     14834     14828      6798
 -2      6987      6990     14824     14836     14830
 -1      1463    5    0    1
 -2      6803      6800      6992      6805      6802      6994     14237     14837     14840      6804
 -2      6801      6993     14239     14839     14842
 -1      1464    5    0    1
 -2      6800      6989      6992      6802      6991      6994     14831     14843     14837      6801
 -2      6990      6993     14833     14845     14839
 -1      1465    5    0    1
 -2      6806      6803      6995      6808      6805      6997     14246     14846     14849      6807
 -2      6804      6996     14248     14848     14851
 -1      1466    5    0    1
 -2      6803      6992      6995      6805      6994      6997     14840     14852     14846      6804
 -2      6993      6996     14842     14854     14848
 -1      1467    5    0    1
 -2      6809      6806      6998      6811      6808      7000     14255     14855     14858      6810
 -2      6807      6999     14257     14857     14860
 -1      1468    5    0    1
 -2      6806      6995      6998      6808      6997      7000     14849     14861     14855      6807
 -2      6996      6999     14851     14863     14857
 -1      1469    5    0    1
 -2      6680      6674      7001      6682      6676      7003     13871     14864     14867      6681
 -2      6675      7002     13873     14866     14869
 -1      1470    5    0    1
 -2      6674      6884      7001      6676      6886      7003     14522     14870     14864      6675
 -2      6885      7002     14524     14872     14866
 -1      1471    5    0    1
 -2      6854      6860      7004      6856      6862      7006     14507     14873     14876      6855
 -2      6861      7005     14509     14875     14878
 -1      1472    5    0    1
 -2      6860      6920      7004      6862      6922      7006     14627     14879     14873      6861
 -2      6921      7005     14629     14881     14875
 -1      1473    5    0    1
 -2      6662      6731      7007      6664      6733      7009     14321     14882     14885      6663
 -2      6732      7008     14323     14884     14887
 -1      1474    5    0    1
 -2      6731      6923      7007      6733      6925      7009     14633     14888     14882      6732
 -2      6924      7008     14635     14890     14884
 -1      1475    5    0    1
 -2      6668      6698      7010      6670      6700      7012     14318     14891     14894      6669
 -2      6699      7011     14320     14893     14896
 -1      1476    5    0    1
 -2      6698      6902      7010      6700      6904      7012     14567     14897     14891      6699
 -2      6903      7011     14569     14899     14893
 -1      1477    5    0    1
 -2      6845      6875      7013      6847      6877      7015     14474     14900     14903      6846
 -2      6876      7014     14476     14902     14905
 -1      1478    5    0    1
 -2      6884      6827      6998      6886      6829      7000     14519     14906     14909      6885
 -2      6828      6999     14521     14908     14911
 -1      1479    5    0    1
 -2      6656      6926      6863      6658      6928      6865     14642     14912     14435      6657
 -2      6927      6864     14644     14914     14437
 -1      1480    5    0    1
 -2      6830      6725      7016      6832      6727      7018     14333     14915     14918      6831
 -2      6726      7017     14335     14917     14920
 -1      1481    5    0    1
 -2      6719      6890      6824      6721      6892      6826     14534     14921     14306      6720
 -2      6891      6825     14536     14923     14308
 -1      1482    5    0    1
 -2      6827      6812      6998      6829      6814      7000     14561     14924     14906      6828
 -2      6813      6999     14563     14926     14908
 -1      1483    5    0    1
 -2      6680      7001      6902      6682      7003      6904     14867     14927     14564      6681
 -2      7002      6903     14869     14929     14566
 -1      1484    5    0    1
 -2      6848      6833      7019      6850      6835      7021     14387     14930     14933      6849
 -2      6834      7020     14389     14932     14935
 -1      1485    5    0    1
 -2      6836      6734      7022      6838      6736      7024     14354     14936     14939      6837
 -2      6735      7023     14356     14938     14941
 -1      1486    5    0    1
 -2      6842      6815      7025      6844      6817      7027     14372     14942     14945      6843
 -2      6816      7026     14374     14944     14947
 -1      1487    5    0    1
 -2      6683      6647      7028      6685      6649      7030     13883     14948     14951      6684
 -2      6648      7029     13885     14950     14953
 -1      1488    5    0    1
 -2      6647      6869      7028      6649      6871      7030     14450     14954     14948      6648
 -2      6870      7029     14452     14956     14950
 -1      1489    5    0    1
 -2      6617      6848      6872      6619      6850      6874     14384     14957     14465      6618
 -2      6849      6873     14386     14959     14467
 -1      1490    5    0    1
 -2      6851      6662      7031      6853      6664      7033     14399     14960     14963      6852
 -2      6663      7032     14401     14962     14965
 -1      1491    5    0    1
 -2      6929      6851      7031      6931      6853      7033     14654     14963     14966      6930
 -2      6852      7032     14656     14965     14968
 -1      1492    5    0    1
 -2      6662      7007      7031      6664      7009      7033     14885     14969     14960      6663
 -2      7008      7032     14887     14971     14962
 -1      1493    5    0    1
 -2      6734      6824      7034      6736      6826      7036     14303     14972     14975      6735
 -2      6825      7035     14305     14974     14977
 -1      1494    5    0    1
 -2      7022      6734      7034      7024      6736      7036     14936     14975     14978      7023
 -2      6735      7035     14938     14977     14980
 -1      1495    5    0    1
 -2      6824      6890      7034      6826      6892      7036     14921     14981     14972      6825
 -2      6891      7035     14923     14983     14974
 -1      1496    5    0    1
 -2      6707      6821      7037      6709      6823      7039     14291     14984     14987      6708
 -2      6822      7038     14293     14986     14989
 -1      1497    5    0    1
 -2      6821      6857      7037      6823      6859      7039     14414     14990     14984      6822
 -2      6858      7038     14416     14992     14986
 -1      1498    5    0    1
 -2      6857      6623      7040      6859      6625      7042     14417     14993     14996      6858
 -2      6624      7041     14419     14995     14998
 -1      1499    5    0    1
 -2      7037      6857      7040      7039      6859      7042     14990     14996     14999      7038
 -2      6858      7041     14992     14998     15001
 -1      1500    5    0    1
 -2      6623      6842      7040      6625      6844      7042     14369     15002     14993      6624
 -2      6843      7041     14371     15004     14995
 -1      1501    5    0    1
 -2      6695      6917      6890      6697      6919      6892     14618     15005     14570      6696
 -2      6918      6891     14620     15007     14572
 -1      1502    5    0    1
 -2      6887      6716      7043      6889      6718      7045     14525     15008     15011      6888
 -2      6717      7044     14527     15010     15013
 -1      1503    5    0    1
 -2      6716      6665      7043      6718      6667      7045     13982     15014     15008      6717
 -2      6666      7044     13984     15016     15010
 -1      1504    5    0    1
 -2      6908      6854      7046      6910      6856      7048     14591     15017     15020      6909
 -2      6855      7047     14593     15019     15022
 -1      1505    5    0    1
 -2      6854      7004      7046      6856      7006      7048     14876     15023     15017      6855
 -2      7005      7047     14878     15025     15019
 -1      1506    5    0    1
 -2      6920      6839      7049      6922      6841      7051     14624     15026     15029      6921
 -2      6840      7050     14626     15028     15031
 -1      1507    5    0    1
 -2      6839      6881      7049      6841      6883      7051     14501     15032     15026      6840
 -2      6882      7050     14503     15034     15028
 -1      1508    5    0    1
 -2      6869      6845      7052      6871      6847      7054     14453     15035     15038      6870
 -2      6846      7053     14455     15037     15040
 -1      1509    5    0    1
 -2      6845      7013      7052      6847      7015      7054     14903     15041     15035      6846
 -2      7014      7053     14905     15043     15037
 -1      1510    5    0    1
 -2      6833      6908      7055      6835      6910      7057     14588     15044     15047      6834
 -2      6909      7056     14590     15046     15049
 -1      1511    5    0    1
 -2      7019      6833      7055      7021      6835      7057     14930     15047     15050      7020
 -2      6834      7056     14932     15049     15052
 -1      1512    5    0    1
 -2      6908      7046      7055      6910      7048      7057     15020     15053     15044      6909
 -2      7047      7056     15022     15055     15046
 -1      1513    5    0    1
 -2      6728      6668      7058      6730      6670      7060     14015     15056     15059      6729
 -2      6669      7059     14017     15058     15061
 -1      1514    5    0    1
 -2      6668      7010      7058      6670      7012      7060     14894     15062     15056      6669
 -2      7011      7059     14896     15064     15058
 -1      1515    5    0    1
 -2      6878      6611      7061      6880      6613      7063     14495     15065     15068      6879
 -2      6612      7062     14497     15067     15070
 -1      1516    5    0    1
 -2      6611      6683      7061      6613      6685      7063     13880     15071     15065      6612
 -2      6684      7062     13882     15073     15067
 -1      1517    5    0    1
 -2      6818      6707      7064      6820      6709      7066     14282     15074     15077      6819
 -2      6708      7065     14284     15076     15079
 -1      1518    5    0    1
 -2      6707      7037      7064      6709      7039      7066     14987     15080     15074      6708
 -2      7038      7065     14989     15082     15076
 -1      1519    5    0    1
 -2      6725      6818      7067      6727      6820      7069     14279     15083     15086      6726
 -2      6819      7068     14281     15085     15088
 -1      1520    5    0    1
 -2      7016      6725      7067      7018      6727      7069     14915     15086     15089      7017
 -2      6726      7068     14917     15088     15091
 -1      1521    5    0    1
 -2      6818      7064      7067      6820      7066      7069     15077     15092     15083      6819
 -2      7065      7068     15079     15094     15085
 -1      1522    5    0    1
 -2      6659      6872      7070      6661      6874      7072     14462     15095     15098      6660
 -2      6873      7071     14464     15097     15100
 -1      1523    5    0    1
 -2      7025      6815      7073      7027      6817      7075     14942     15101     15104      7026
 -2      6816      7074     14944     15103     15106
 -1      1524    5    0    1
 -2      6815      6878      7073      6817      6880      7075     14492     15107     15101      6816
 -2      6879      7074     14494     15109     15103
 -1      1525    5    0    1
 -2      7043      6665      7076      7045      6667      7078     15014     15110     15113      7044
 -2      6666      7077     15016     15112     15115
 -1      1526    5    0    1
 -2      6665      6863      7076      6667      6865      7078     14432     15116     15110      6666
 -2      6864      7077     14434     15118     15112
 -1      1527    5    0    1
 -2      6728      7058      6893      6730      7060      6895     15059     15119     14537      6729
 -2      7059      6894     15061     15121     14539
 -1      1528    5    0    1
 -2      6884      6998      7079      6886      7000      7081     14909     15122     15125      6885
 -2      6999      7080     14911     15124     15127
 -1      1529    5    0    1
 -2      6911      6899      7082      6913      6901      7084     14600     15128     15131      6912
 -2      6900      7083     14602     15130     15133
 -1      1530    5    0    1
 -2      6659      7070      7085      6661      7072      7087     15098     15134     15137      6660
 -2      7071      7086     15100     15136     15139
 -1      1531    5    0    1
 -2      6896      6830      7088      6898      6832      7090     14549     15140     15143      6897
 -2      6831      7089     14551     15142     15145
 -1      1532    5    0    1
 -2      6830      7016      7088      6832      7018      7090     14918     15146     15140      6831
 -2      7017      7089     14920     15148     15142
 -1      1533    5    0    1
 -2      6890      6917      7091      6892      6919      7093     15005     15149     15152      6891
 -2      6918      7092     15007     15151     15154
 -1      1534    5    0    1
 -2      6887      7043      7094      6889      7045      7096     15011     15155     15158      6888
 -2      7044      7095     15013     15157     15160
 -1      1535    5    0    1
 -2      6905      6836      7097      6907      6838      7099     14579     15161     15164      6906
 -2      6837      7098     14581     15163     15166
 -1      1536    5    0    1
 -2      6836      7022      7097      6838      7024      7099     14939     15167     15161      6837
 -2      7023      7098     14941     15169     15163
 -1      1537    5    0    1
 -2      6902      7001      7100      6904      7003      7102     14927     15170     15173      6903
 -2      7002      7101     14929     15172     15175
 -1      1538    5    0    1
 -2      6923      6887      7103      6925      6889      7105     14636     15176     15179      6924
 -2      6888      7104     14638     15178     15181
 -1      1539    5    0    1
 -2      6887      7094      7103      6889      7096      7105     15158     15182     15176      6888
 -2      7095      7104     15160     15184     15178
 -1      1540    5    0    1
 -2      7085      7070      7106      7087      7072      7108     15134     15185     15188      7086
 -2      7071      7107     15136     15187     15190
 -1      1541    5    0    1
 -2      7058      7010      7109      7060      7012      7111     15062     15191     15194      7059
 -2      7011      7110     15064     15193     15196
 -1      1542    5    0    1
 -2      6893      7058      7112      6895      7060      7114     15119     15197     15200      6894
 -2      7059      7113     15121     15199     15202
 -1      1543    5    0    1
 -2      7058      7109      7112      7060      7111      7114     15194     15203     15197      7059
 -2      7110      7113     15196     15205     15199
 -1      1544    5    0    1
 -2      6875      6659      7085      6877      6661      7087     14477     15137     15206      6876
 -2      6660      7086     14479     15139     15208
 -1      1545    5    0    1
 -2      6926      6896      7115      6928      6898      7117     14645     15209     15212      6927
 -2      6897      7116     14647     15211     15214
 -1      1546    5    0    1
 -2      6896      7088      7115      6898      7090      7117     15143     15215     15209      6897
 -2      7089      7116     15145     15217     15211
 -1      1547    5    0    1
 -2      6932      6929      7118      6934      6931      7120     14663     15218     15221      6933
 -2      6930      7119     14665     15220     15223
 -1      1548    5    0    1
 -2      6929      7031      7118      6931      7033      7120     14966     15224     15218      6930
 -2      7032      7119     14968     15226     15220
 -1      1549    5    0    1
 -2      6872      6848      7121      6874      6850      7123     14957     15227     15230      6873
 -2      6849      7122     14959     15229     15232
 -1      1550    5    0    1
 -2      7070      6872      7121      7072      6874      7123     15095     15230     15233      7071
 -2      6873      7122     15097     15232     15235
 -1      1551    5    0    1
 -2      6848      7019      7121      6850      7021      7123     14933     15236     15227      6849
 -2      7020      7122     14935     15238     15229
 -1      1552    5    0    1
 -2      6935      6932      7124      6937      6934      7126     14672     15239     15242      6936
 -2      6933      7125     14674     15241     15244
 -1      1553    5    0    1
 -2      6932      7118      7124      6934      7120      7126     15221     15245     15239      6933
 -2      7119      7125     15223     15247     15241
 -1      1554    5    0    1
 -2      6938      6935      7127      6940      6937      7129     14681     15248     15251      6939
 -2      6936      7128     14683     15250     15253
 -1      1555    5    0    1
 -2      6935      7124      7127      6937      7126      7129     15242     15254     15248      6936
 -2      7125      7128     15244     15256     15250
 -1      1556    5    0    1
 -2      6941      6938      7130      6943      6940      7132     14690     15257     15260      6942
 -2      6939      7131     14692     15259     15262
 -1      1557    5    0    1
 -2      6938      7127      7130      6940      7129      7132     15251     15263     15257      6939
 -2      7128      7131     15253     15265     15259
 -1      1558    5    0    1
 -2      6944      6941      7133      6946      6943      7135     14699     15266     15269      6945
 -2      6942      7134     14701     15268     15271
 -1      1559    5    0    1
 -2      6941      7130      7133      6943      7132      7135     15260     15272     15266      6942
 -2      7131      7134     15262     15274     15268
 -1      1560    5    0    1
 -2      6947      6944      7136      6949      6946      7138     14708     15275     15278      6948
 -2      6945      7137     14710     15277     15280
 -1      1561    5    0    1
 -2      6944      7133      7136      6946      7135      7138     15269     15281     15275      6945
 -2      7134      7137     15271     15283     15277
 -1      1562    5    0    1
 -2      6950      6947      7139      6952      6949      7141     14717     15284     15287      6951
 -2      6948      7140     14719     15286     15289
 -1      1563    5    0    1
 -2      6947      7136      7139      6949      7138      7141     15278     15290     15284      6948
 -2      7137      7140     15280     15292     15286
 -1      1564    5    0    1
 -2      6953      6950      7142      6955      6952      7144     14726     15293     15296      6954
 -2      6951      7143     14728     15295     15298
 -1      1565    5    0    1
 -2      6950      7139      7142      6952      7141      7144     15287     15299     15293      6951
 -2      7140      7143     15289     15301     15295
 -1      1566    5    0    1
 -2      6956      6953      7145      6958      6955      7147     14735     15302     15305      6957
 -2      6954      7146     14737     15304     15307
 -1      1567    5    0    1
 -2      6953      7142      7145      6955      7144      7147     15296     15308     15302      6954
 -2      7143      7146     15298     15310     15304
 -1      1568    5    0    1
 -2      6959      6956      7148      6961      6958      7150     14744     15311     15314      6960
 -2      6957      7149     14746     15313     15316
 -1      1569    5    0    1
 -2      6956      7145      7148      6958      7147      7150     15305     15317     15311      6957
 -2      7146      7149     15307     15319     15313
 -1      1570    5    0    1
 -2      6962      6959      7151      6964      6961      7153     14753     15320     15323      6963
 -2      6960      7152     14755     15322     15325
 -1      1571    5    0    1
 -2      6959      7148      7151      6961      7150      7153     15314     15326     15320      6960
 -2      7149      7152     15316     15328     15322
 -1      1572    5    0    1
 -2      6965      6962      7154      6967      6964      7156     14762     15329     15332      6966
 -2      6963      7155     14764     15331     15334
 -1      1573    5    0    1
 -2      6962      7151      7154      6964      7153      7156     15323     15335     15329      6963
 -2      7152      7155     15325     15337     15331
 -1      1574    5    0    1
 -2      6968      6965      7157      6970      6967      7159     14771     15338     15341      6969
 -2      6966      7158     14773     15340     15343
 -1      1575    5    0    1
 -2      6965      7154      7157      6967      7156      7159     15332     15344     15338      6966
 -2      7155      7158     15334     15346     15340
 -1      1576    5    0    1
 -2      6971      6968      7160      6973      6970      7162     14780     15347     15350      6972
 -2      6969      7161     14782     15349     15352
 -1      1577    5    0    1
 -2      6968      7157      7160      6970      7159      7162     15341     15353     15347      6969
 -2      7158      7161     15343     15355     15349
 -1      1578    5    0    1
 -2      6974      6971      7163      6976      6973      7165     14789     15356     15359      6975
 -2      6972      7164     14791     15358     15361
 -1      1579    5    0    1
 -2      6971      7160      7163      6973      7162      7165     15350     15362     15356      6972
 -2      7161      7164     15352     15364     15358
 -1      1580    5    0    1
 -2      6977      6974      7166      6979      6976      7168     14798     15365     15368      6978
 -2      6975      7167     14800     15367     15370
 -1      1581    5    0    1
 -2      6974      7163      7166      6976      7165      7168     15359     15371     15365      6975
 -2      7164      7167     15361     15373     15367
 -1      1582    5    0    1
 -2      6980      6977      7169      6982      6979      7171     14807     15374     15377      6981
 -2      6978      7170     14809     15376     15379
 -1      1583    5    0    1
 -2      6977      7166      7169      6979      7168      7171     15368     15380     15374      6978
 -2      7167      7170     15370     15382     15376
 -1      1584    5    0    1
 -2      6983      6980      7172      6985      6982      7174     14816     15383     15386      6984
 -2      6981      7173     14818     15385     15388
 -1      1585    5    0    1
 -2      6980      7169      7172      6982      7171      7174     15377     15389     15383      6981
 -2      7170      7173     15379     15391     15385
 -1      1586    5    0    1
 -2      6986      6983      7175      6988      6985      7177     14825     15392     15395      6987
 -2      6984      7176     14827     15394     15397
 -1      1587    5    0    1
 -2      6983      7172      7175      6985      7174      7177     15386     15398     15392      6984
 -2      7173      7176     15388     15400     15394
 -1      1588    5    0    1
 -2      6989      6986      7178      6991      6988      7180     14834     15401     15404      6990
 -2      6987      7179     14836     15403     15406
 -1      1589    5    0    1
 -2      6986      7175      7178      6988      7177      7180     15395     15407     15401      6987
 -2      7176      7179     15397     15409     15403
 -1      1590    5    0    1
 -2      6992      6989      7181      6994      6991      7183     14843     15410     15413      6993
 -2      6990      7182     14845     15412     15415
 -1      1591    5    0    1
 -2      6989      7178      7181      6991      7180      7183     15404     15416     15410      6990
 -2      7179      7182     15406     15418     15412
 -1      1592    5    0    1
 -2      6998      6995      7079      7000      6997      7081     14861     15419     15122      6999
 -2      6996      7080     14863     15421     15124
 -1      1593    5    0    1
 -2      7001      6884      7184      7003      6886      7186     14870     15422     15425      7002
 -2      6885      7185     14872     15424     15427
 -1      1594    5    0    1
 -2      7100      7001      7184      7102      7003      7186     15170     15425     15428      7101
 -2      7002      7185     15172     15427     15430
 -1      1595    5    0    1
 -2      6884      7079      7184      6886      7081      7186     15125     15431     15422      6885
 -2      7080      7185     15127     15433     15424
 -1      1596    5    0    1
 -2      6812      6809      6998      6814      6811      7000     14264     14858     14924      6813
 -2      6810      6999     14266     14860     14926
 -1      1597    5    0    1
 -2      6917      6911      7187      6919      6913      7189     14621     15434     15437      6918
 -2      6912      7188     14623     15436     15439
 -1      1598    5    0    1
 -2      6911      7082      7187      6913      7084      7189     15131     15440     15434      6912
 -2      7083      7188     15133     15442     15436
 -1      1599    5    0    1
 -2      7004      6920      7190      7006      6922      7192     14879     15443     15446      7005
 -2      6921      7191     14881     15445     15448
 -1      1600    5    0    1
 -2      7007      6923      7193      7009      6925      7195     14888     15449     15452      7008
 -2      6924      7194     14890     15451     15454
 -1      1601    5    0    1
 -2      6923      7103      7193      6925      7105      7195     15179     15455     15449      6924
 -2      7104      7194     15181     15457     15451
 -1      1602    5    0    1
 -2      7010      6902      7196      7012      6904      7198     14897     15458     15461      7011
 -2      6903      7197     14899     15460     15463
 -1      1603    5    0    1
 -2      6902      7100      7196      6904      7102      7198     15173     15464     15458      6903
 -2      7101      7197     15175     15466     15460
 -1      1604    5    0    1
 -2      7013      6875      7085      7015      6877      7087     14900     15206     15467      7014
 -2      6876      7086     14902     15208     15469
 -1      1605    5    0    1
 -2      7013      7085      7199      7015      7087      7201     15467     15470     15473      7014
 -2      7086      7200     15469     15472     15475
 -1      1606    5    0    1
 -2      7085      7106      7199      7087      7108      7201     15188     15476     15470      7086
 -2      7107      7200     15190     15478     15472
 -1      1607    5    0    1
 -2      6863      6926      7202      6865      6928      7204     14912     15479     15482      6864
 -2      6927      7203     14914     15481     15484
 -1      1608    5    0    1
 -2      7016      7067      7205      7018      7069      7207     15089     15485     15488      7017
 -2      7068      7206     15091     15487     15490
 -1      1609    5    0    1
 -2      6926      7115      7202      6928      7117      7204     15212     15491     15479      6927
 -2      7116      7203     15214     15493     15481
 -1      1610    5    0    1
 -2      7076      6863      7202      7078      6865      7204     15116     15482     15494      7077
 -2      6864      7203     15118     15484     15496
 -1      1611    5    0    1
 -2      7088      7016      7208      7090      7018      7210     15146     15497     15500      7089
 -2      7017      7209     15148     15499     15502
 -1      1612    5    0    1
 -2      7016      7205      7208      7018      7207      7210     15488     15503     15497      7017
 -2      7206      7209     15490     15505     15499
 -1      1613    5    0    1
 -2      6842      7025      7211      6844      7027      7213     14945     15506     15509      6843
 -2      7026      7212     14947     15508     15511
 -1      1614    5    0    1
 -2      6683      7028      7061      6685      7030      7063     14951     15512     15071      6684
 -2      7029      7062     14953     15514     15073
 -1      1615    5    0    1
 -2      7091      6917      7187      7093      6919      7189     15149     15437     15515      7092
 -2      6918      7188     15151     15439     15517
 -1      1616    5    0    1
 -2      7109      7010      7196      7111      7012      7198     15191     15461     15518      7110
 -2      7011      7197     15193     15463     15520
 -1      1617    5    0    1
 -2      7031      7007      7214      7033      7009      7216     14969     15521     15524      7032
 -2      7008      7215     14971     15523     15526
 -1      1618    5    0    1
 -2      7118      7031      7214      7120      7033      7216     15224     15524     15527      7119
 -2      7032      7215     15226     15526     15529
 -1      1619    5    0    1
 -2      7007      7193      7214      7009      7195      7216     15452     15530     15521      7008
 -2      7194      7215     15454     15532     15523
 -1      1620    5    0    1
 -2      7097      7022      7217      7099      7024      7219     15167     15533     15536      7098
 -2      7023      7218     15169     15535     15538
 -1      1621    5    0    1
 -2      6899      6893      7220      6901      6895      7222     14558     15539     15542      6900
 -2      6894      7221     14560     15541     15544
 -1      1622    5    0    1
 -2      7040      6842      7211      7042      6844      7213     15002     15509     15545      7041
 -2      6843      7212     15004     15511     15547
 -1      1623    5    0    1
 -2      7094      7043      7223      7096      7045      7225     15155     15548     15551      7095
 -2      7044      7224     15157     15550     15553
 -1      1624    5    0    1
 -2      7043      7076      7223      7045      7078      7225     15113     15554     15548      7044
 -2      7077      7224     15115     15556     15550
 -1      1625    5    0    1
 -2      7028      6869      7226      7030      6871      7228     14954     15557     15560      7029
 -2      6870      7227     14956     15559     15562
 -1      1626    5    0    1
 -2      6869      7052      7226      6871      7054      7228     15038     15563     15557      6870
 -2      7053      7227     15040     15565     15559
 -1      1627    5    0    1
 -2      7082      6899      7220      7084      6901      7222     15128     15542     15566      7083
 -2      6900      7221     15130     15544     15568
 -1      1628    5    0    1
 -2      6890      7091      7034      6892      7093      7036     15152     15569     14981      6891
 -2      7092      7035     15154     15571     14983
 -1      1629    5    0    1
 -2      7046      7004      7229      7048      7006      7231     15023     15572     15575      7047
 -2      7005      7230     15025     15574     15577
 -1      1630    5    0    1
 -2      7004      7190      7229      7006      7192      7231     15446     15578     15572      7005
 -2      7191      7230     15448     15580     15574
 -1      1631    5    0    1
 -2      7049      6881      7232      7051      6883      7234     15032     15581     15584      7050
 -2      6882      7233     15034     15583     15586
 -1      1632    5    0    1
 -2      6881      6914      7232      6883      6916      7234     14609     15587     15581      6882
 -2      6915      7233     14611     15589     15583
 -1      1633    5    0    1
 -2      6914      6905      7235      6916      6907      7237     14612     15590     15593      6915
 -2      6906      7236     14614     15592     15595
 -1      1634    5    0    1
 -2      7232      6914      7235      7234      6916      7237     15587     15593     15596      7233
 -2      6915      7236     15589     15595     15598
 -1      1635    5    0    1
 -2      6905      7097      7235      6907      7099      7237     15164     15599     15590      6906
 -2      7098      7236     15166     15601     15592
 -1      1636    5    0    1
 -2      7106      7070      7238      7108      7072      7240     15185     15602     15605      7107
 -2      7071      7239     15187     15604     15607
 -1      1637    5    0    1
 -2      7070      7121      7238      7072      7123      7240     15233     15608     15602      7071
 -2      7122      7239     15235     15610     15604
 -1      1638    5    0    1
 -2      7052      7013      7241      7054      7015      7243     15041     15611     15614      7053
 -2      7014      7242     15043     15613     15616
 -1      1639    5    0    1
 -2      7013      7199      7241      7015      7201      7243     15473     15617     15611      7014
 -2      7200      7242     15475     15619     15613
 -1      1640    5    0    1
 -2      6893      7112      7220      6895      7114      7222     15200     15620     15539      6894
 -2      7113      7221     15202     15622     15541
 -1      1641    5    0    1
 -2      7019      7055      7244      7021      7057      7246     15050     15623     15626      7020
 -2      7056      7245     15052     15625     15628
 -1      1642    5    0    1
 -2      7121      7019      7247      7123      7021      7249     15236     15629     15632      7122
 -2      7020      7248     15238     15631     15634
 -1      1643    5    0    1
 -2      7019      7244      7247      7021      7246      7249     15626     15635     15629      7020
 -2      7245      7248     15628     15637     15631
 -1      1644    5    0    1
 -2      6995      6992      7250      6997      6994      7252     14852     15638     15641      6996
 -2      6993      7251     14854     15640     15643
 -1      1645    5    0    1
 -2      7190      6920      7253      7192      6922      7255     15443     15644     15647      7191
 -2      6921      7254     15445     15646     15649
 -1      1646    5    0    1
 -2      6920      7049      7253      6922      7051      7255     15029     15650     15644      6921
 -2      7050      7254     15031     15652     15646
 -1      1647    5    0    1
 -2      7073      6878      7256      7075      6880      7258     15107     15653     15656      7074
 -2      6879      7257     15109     15655     15658
 -1      1648    5    0    1
 -2      6878      7061      7256      6880      7063      7258     15068     15659     15653      6879
 -2      7062      7257     15070     15661     15655
 -1      1649    5    0    1
 -2      7025      7073      7259      7027      7075      7261     15104     15662     15665      7026
 -2      7074      7260     15106     15664     15667
 -1      1650    5    0    1
 -2      7211      7025      7262      7213      7027      7264     15506     15668     15671      7212
 -2      7026      7263     15508     15670     15673
 -1      1651    5    0    1
 -2      7025      7259      7262      7027      7261      7264     15665     15674     15668      7026
 -2      7260      7263     15667     15676     15670
 -1      1652    5    0    1
 -2      6995      7250      7079      6997      7252      7081     15641     15677     15419      6996
 -2      7251      7080     15643     15679     15421
 -1      1653    5    0    1
 -2      7124      7118      7265      7126      7120      7267     15245     15680     15683      7125
 -2      7119      7266     15247     15682     15685
 -1      1654    5    0    1
 -2      7118      7214      7265      7120      7216      7267     15527     15686     15680      7119
 -2      7215      7266     15529     15688     15682
 -1      1655    5    0    1
 -2      7202      7115      7268      7204      7117      7270     15491     15689     15692      7203
 -2      7116      7269     15493     15691     15694
 -1      1656    5    0    1
 -2      7076      7202      7271      7078      7204      7273     15494     15695     15698      7077
 -2      7203      7272     15496     15697     15700
 -1      1657    5    0    1
 -2      7202      7268      7271      7204      7270      7273     15692     15701     15695      7203
 -2      7269      7272     15694     15703     15697
 -1      1658    5    0    1
 -2      6992      7181      7250      6994      7183      7252     15413     15704     15638      6993
 -2      7182      7251     15415     15706     15640
 -1      1659    5    0    1
 -2      7061      7028      7274      7063      7030      7276     15512     15707     15710      7062
 -2      7029      7275     15514     15709     15712
 -1      1660    5    0    1
 -2      7256      7061      7274      7258      7063      7276     15659     15710     15713      7257
 -2      7062      7275     15661     15712     15715
 -1      1661    5    0    1
 -2      7028      7226      7274      7030      7228      7276     15560     15716     15707      7029
 -2      7227      7275     15562     15718     15709
 -1      1662    5    0    1
 -2      7187      7082      7277      7189      7084      7279     15440     15719     15722      7188
 -2      7083      7278     15442     15721     15724
 -1      1663    5    0    1
 -2      7103      7094      7280      7105      7096      7282     15182     15725     15728      7104
 -2      7095      7281     15184     15727     15730
 -1      1664    5    0    1
 -2      7034      7091      7283      7036      7093      7285     15569     15731     15734      7035
 -2      7092      7284     15571     15733     15736
 -1      1665    5    0    1
 -2      7022      7034      7283      7024      7036      7285     14978     15734     15737      7023
 -2      7035      7284     14980     15736     15739
 -1      1666    5    0    1
 -2      7037      7040      7211      7039      7042      7213     14999     15545     15740      7038
 -2      7041      7212     15001     15547     15742
 -1      1667    5    0    1
 -2      7109      7196      7286      7111      7198      7288     15518     15743     15746      7110
 -2      7197      7287     15520     15745     15748
 -1      1668    5    0    1
 -2      7289      7379      7181      7291      7381      7183     15749     15752     15755      7290
 -2      7380      7182     15751     15754     15757
 -1      1669    5    0    1
 -2      7055      7046      7292      7057      7048      7294     15053     15758     15761      7056
 -2      7047      7293     15055     15760     15763
 -1      1670    5    0    1
 -2      7046      7229      7292      7048      7231      7294     15575     15764     15758      7047
 -2      7230      7293     15577     15766     15760
 -1      1671    5    0    1
 -2      7220      7112      7295      7222      7114      7297     15620     15767     15770      7221
 -2      7113      7296     15622     15769     15772
 -1      1672    5    0    1
 -2      7244      7055      7292      7246      7057      7294     15623     15761     15773      7245
 -2      7056      7293     15625     15763     15775
 -1      1673    5    0    1
 -2      7091      7187      7298      7093      7189      7300     15515     15776     15779      7092
 -2      7188      7299     15517     15778     15781
 -1      1674    5    0    1
 -2      7283      7091      7298      7285      7093      7300     15731     15779     15782      7284
 -2      7092      7299     15733     15781     15784
 -1      1675    5    0    1
 -2      7187      7277      7298      7189      7279      7300     15722     15785     15776      7188
 -2      7278      7299     15724     15787     15778
 -1      1676    5    0    1
 -2      7115      7088      7301      7117      7090      7303     15215     15788     15791      7116
 -2      7089      7302     15217     15790     15793
 -1      1677    5    0    1
 -2      7268      7115      7301      7270      7117      7303     15689     15791     15794      7269
 -2      7116      7302     15691     15793     15796
 -1      1678    5    0    1
 -2      7088      7208      7301      7090      7210      7303     15500     15797     15788      7089
 -2      7209      7302     15502     15799     15790
 -1      1679    5    0    1
 -2      7082      7220      7304      7084      7222      7306     15566     15800     15803      7083
 -2      7221      7305     15568     15802     15805
 -1      1680    5    0    1
 -2      7220      7295      7304      7222      7297      7306     15770     15806     15800      7221
 -2      7296      7305     15772     15808     15802
 -1      1681    5    0    1
 -2      7217      7022      7283      7219      7024      7285     15533     15737     15809      7218
 -2      7023      7284     15535     15739     15811
 -1      1682    5    0    1
 -2      7112      7109      7307      7114      7111      7309     15203     15812     15815      7113
 -2      7110      7308     15205     15814     15817
 -1      1683    5    0    1
 -2      7109      7286      7307      7111      7288      7309     15746     15818     15812      7110
 -2      7287      7308     15748     15820     15814
 -1      1684    5    0    1
 -2      7217      7283      7310      7219      7285      7312     15809     15821     15824      7218
 -2      7284      7311     15811     15823     15826
 -1      1685    5    0    1
 -2      7064      7037      7211      7066      7039      7213     15080     15740     15827      7065
 -2      7038      7212     15082     15742     15829
 -1      1686    5    0    1
 -2      7127      7124      7313      7129      7126      7315     15254     15830     15833      7128
 -2      7125      7314     15256     15832     15835
 -1      1687    5    0    1
 -2      7124      7265      7313      7126      7267      7315     15683     15836     15830      7125
 -2      7266      7314     15685     15838     15832
 -1      1688    5    0    1
 -2      7130      7127      7316      7132      7129      7318     15263     15839     15842      7131
 -2      7128      7317     15265     15841     15844
 -1      1689    5    0    1
 -2      7127      7313      7316      7129      7315      7318     15833     15845     15839      7128
 -2      7314      7317     15835     15847     15841
 -1      1690    5    0    1
 -2      7133      7130      7319      7135      7132      7321     15272     15848     15851      7134
 -2      7131      7320     15274     15850     15853
 -1      1691    5    0    1
 -2      7130      7316      7319      7132      7318      7321     15842     15854     15848      7131
 -2      7317      7320     15844     15856     15850
 -1      1692    5    0    1
 -2      7136      7133      7322      7138      7135      7324     15281     15857     15860      7137
 -2      7134      7323     15283     15859     15862
 -1      1693    5    0    1
 -2      7133      7319      7322      7135      7321      7324     15851     15863     15857      7134
 -2      7320      7323     15853     15865     15859
 -1      1694    5    0    1
 -2      7139      7136      7325      7141      7138      7327     15290     15866     15869      7140
 -2      7137      7326     15292     15868     15871
 -1      1695    5    0    1
 -2      7136      7322      7325      7138      7324      7327     15860     15872     15866      7137
 -2      7323      7326     15862     15874     15868
 -1      1696    5    0    1
 -2      7142      7139      7328      7144      7141      7330     15299     15875     15878      7143
 -2      7140      7329     15301     15877     15880
 -1      1697    5    0    1
 -2      7139      7325      7328      7141      7327      7330     15869     15881     15875      7140
 -2      7326      7329     15871     15883     15877
 -1      1698    5    0    1
 -2      7145      7142      7331      7147      7144      7333     15308     15884     15887      7146
 -2      7143      7332     15310     15886     15889
 -1      1699    5    0    1
 -2      7142      7328      7331      7144      7330      7333     15878     15890     15884      7143
 -2      7329      7332     15880     15892     15886
 -1      1700    5    0    1
 -2      7148      7145      7334      7150      7147      7336     15317     15893     15896      7149
 -2      7146      7335     15319     15895     15898
 -1      1701    5    0    1
 -2      7145      7331      7334      7147      7333      7336     15887     15899     15893      7146
 -2      7332      7335     15889     15901     15895
 -1      1702    5    0    1
 -2      7151      7148      7337      7153      7150      7339     15326     15902     15905      7152
 -2      7149      7338     15328     15904     15907
 -1      1703    5    0    1
 -2      7148      7334      7337      7150      7336      7339     15896     15908     15902      7149
 -2      7335      7338     15898     15910     15904
 -1      1704    5    0    1
 -2      7154      7151      7340      7156      7153      7342     15335     15911     15914      7155
 -2      7152      7341     15337     15913     15916
 -1      1705    5    0    1
 -2      7151      7337      7340      7153      7339      7342     15905     15917     15911      7152
 -2      7338      7341     15907     15919     15913
 -1      1706    5    0    1
 -2      7157      7154      7343      7159      7156      7345     15344     15920     15923      7158
 -2      7155      7344     15346     15922     15925
 -1      1707    5    0    1
 -2      7154      7340      7343      7156      7342      7345     15914     15926     15920      7155
 -2      7341      7344     15916     15928     15922
 -1      1708    5    0    1
 -2      7160      7157      7346      7162      7159      7348     15353     15929     15932      7161
 -2      7158      7347     15355     15931     15934
 -1      1709    5    0    1
 -2      7157      7343      7346      7159      7345      7348     15923     15935     15929      7158
 -2      7344      7347     15925     15937     15931
 -1      1710    5    0    1
 -2      7163      7160      7349      7165      7162      7351     15362     15938     15941      7164
 -2      7161      7350     15364     15940     15943
 -1      1711    5    0    1
 -2      7160      7346      7349      7162      7348      7351     15932     15944     15938      7161
 -2      7347      7350     15934     15946     15940
 -1      1712    5    0    1
 -2      7166      7163      7352      7168      7165      7354     15371     15947     15950      7167
 -2      7164      7353     15373     15949     15952
 -1      1713    5    0    1
 -2      7163      7349      7352      7165      7351      7354     15941     15953     15947      7164
 -2      7350      7353     15943     15955     15949
 -1      1714    5    0    1
 -2      7169      7166      7355      7171      7168      7357     15380     15956     15959      7170
 -2      7167      7356     15382     15958     15961
 -1      1715    5    0    1
 -2      7166      7352      7355      7168      7354      7357     15950     15962     15956      7167
 -2      7353      7356     15952     15964     15958
 -1      1716    5    0    1
 -2      7172      7169      7358      7174      7171      7360     15389     15965     15968      7173
 -2      7170      7359     15391     15967     15970
 -1      1717    5    0    1
 -2      7169      7355      7358      7171      7357      7360     15959     15971     15965      7170
 -2      7356      7359     15961     15973     15967
 -1      1718    5    0    1
 -2      7175      7172      7361      7177      7174      7363     15398     15974     15977      7176
 -2      7173      7362     15400     15976     15979
 -1      1719    5    0    1
 -2      7172      7358      7361      7174      7360      7363     15968     15980     15974      7173
 -2      7359      7362     15970     15982     15976
 -1      1720    5    0    1
 -2      7178      7175      7364      7180      7177      7366     15407     15983     15986      7179
 -2      7176      7365     15409     15985     15988
 -1      1721    5    0    1
 -2      7175      7361      7364      7177      7363      7366     15977     15989     15983      7176
 -2      7362      7365     15979     15991     15985
 -1      1722    5    0    1
 -2      7181      7178      7289      7183      7180      7291     15416     15992     15755      7182
 -2      7179      7290     15418     15994     15757
 -1      1723    5    0    1
 -2      7193      7103      7367      7195      7105      7369     15455     15995     15998      7194
 -2      7104      7368     15457     15997     16000
 -1      1724    5    0    1
 -2      7103      7280      7367      7105      7282      7369     15728     16001     15995      7104
 -2      7281      7368     15730     16003     15997
 -1      1725    5    0    1
 -2      7259      7073      7370      7261      7075      7372     15662     16004     16007      7260
 -2      7074      7371     15664     16006     16009
 -1      1726    5    0    1
 -2      7073      7256      7370      7075      7258      7372     15656     16010     16004      7074
 -2      7257      7371     15658     16012     16006
 -1      1727    5    0    1
 -2      7199      7106      7373      7201      7108      7375     15476     16013     16016      7200
 -2      7107      7374     15478     16015     16018
 -1      1728    5    0    1
 -2      7064      7211      7262      7066      7213      7264     15827     15671     16019      7065
 -2      7212      7263     15829     15673     16021
 -1      1729    5    0    1
 -2      7076      7271      7223      7078      7273      7225     15698     16022     15554      7077
 -2      7272      7224     15700     16024     15556
 -1      1730    5    0    1
 -2      7208      7205      7376      7210      7207      7378     15503     16025     16028      7209
 -2      7206      7377     15505     16027     16030
 -1      1731    5    0    1
 -2      7079      7250      7379      7081      7252      7381     15677     16031     16034      7080
 -2      7251      7380     15679     16033     16036
 -1      1732    5    0    1
 -2      7280      7094      7382      7282      7096      7384     15725     16037     16040      7281
 -2      7095      7383     15727     16039     16042
 -1      1733    5    0    1
 -2      7094      7223      7382      7096      7225      7384     15551     16043     16037      7095
 -2      7224      7383     15553     16045     16039
 -1      1734    5    0    1
 -2      7082      7304      7277      7084      7306      7279     15803     16046     15719      7083
 -2      7305      7278     15805     16048     15721
 -1      1735    5    0    1
 -2      7259      7370      7385      7261      7372      7387     16007     16049     16052      7260
 -2      7371      7386     16009     16051     16054
 -1      1736    5    0    1
 -2      7112      7307      7295      7114      7309      7297     15815     16055     15767      7113
 -2      7308      7296     15817     16057     15769
 -1      1737    5    0    1
 -2      7217      7310      7388      7219      7312      7390     15824     16058     16061      7218
 -2      7311      7389     15826     16060     16063
 -1      1738    5    0    1
 -2      7226      7052      7391      7228      7054      7393     15563     16064     16067      7227
 -2      7053      7392     15565     16066     16069
 -1      1739    5    0    1
 -2      7052      7241      7391      7054      7243      7393     15614     16070     16064      7053
 -2      7242      7392     15616     16072     16066
 -1      1740    5    0    1
 -2      7286      7196      7394      7288      7198      7396     15743     16073     16076      7287
 -2      7197      7395     15745     16075     16078
 -1      1741    5    0    1
 -2      7196      7100      7394      7198      7102      7396     15464     16079     16073      7197
 -2      7101      7395     15466     16081     16075
 -1      1742    5    0    1
 -2      7229      7190      7397      7231      7192      7399     15578     16082     16085      7230
 -2      7191      7398     15580     16084     16087
 -1      1743    5    0    1
 -2      7238      7121      7247      7240      7123      7249     15608     15632     16088      7239
 -2      7122      7248     15610     15634     16090
 -1      1744    5    0    1
 -2      7250      7181      7379      7252      7183      7381     15704     15752     16031      7251
 -2      7182      7380     15706     15754     16033
 -1      1745    5    0    1
 -2      7283      7298      7310      7285      7300      7312     15782     16091     15821      7284
 -2      7299      7311     15784     16093     15823
 -1      1746    5    0    1
 -2      7253      7049      7400      7255      7051      7402     15650     16094     16097      7254
 -2      7050      7401     15652     16096     16099
 -1      1747    5    0    1
 -2      7049      7232      7400      7051      7234      7402     15584     16100     16094      7050
 -2      7233      7401     15586     16102     16096
 -1      1748    5    0    1
 -2      7241      7199      7403      7243      7201      7405     15617     16103     16106      7242
 -2      7200      7404     15619     16105     16108
 -1      1749    5    0    1
 -2      7199      7373      7403      7201      7375      7405     16016     16109     16103      7200
 -2      7374      7404     16018     16111     16105
 -1      1750    5    0    1
 -2      7247      7244      7406      7249      7246      7408     15635     16112     16115      7248
 -2      7245      7407     15637     16114     16117
 -1      1751    5    0    1
 -2      7067      7064      7262      7069      7066      7264     15092     16019     16118      7068
 -2      7065      7263     15094     16021     16120
 -1      1752    5    0    1
 -2      7184      7079      7379      7186      7081      7381     15431     16034     16121      7185
 -2      7080      7380     15433     16036     16123
 -1      1753    5    0    1
 -2      7259      7385      7376      7261      7387      7378     16052     16124     16127      7260
 -2      7386      7377     16054     16126     16129
 -1      1754    5    0    1
 -2      7097      7217      7409      7099      7219      7411     15536     16130     16133      7098
 -2      7218      7410     15538     16132     16135
 -1      1755    5    0    1
 -2      7373      7106      7412      7375      7108      7414     16013     16136     16139      7374
 -2      7107      7413     16015     16138     16141
 -1      1756    5    0    1
 -2      7106      7238      7412      7108      7240      7414     15605     16142     16136      7107
 -2      7239      7413     15607     16144     16138
 -1      1757    5    0    1
 -2      7205      7067      7262      7207      7069      7264     15485     16118     16145      7206
 -2      7068      7263     15487     16120     16147
 -1      1758    5    0    1
 -2      7376      7205      7262      7378      7207      7264     16025     16145     16148      7377
 -2      7206      7263     16027     16147     16150
 -1      1759    5    0    1
 -2      7259      7376      7262      7261      7378      7264     16127     16148     15674      7260
 -2      7377      7263     16129     16150     15676
 -1      1760    5    0    1
 -2      7397      7190      7415      7399      7192      7417     16082     16151     16154      7398
 -2      7191      7416     16084     16153     16156
 -1      1761    5    0    1
 -2      7190      7253      7415      7192      7255      7417     15647     16157     16151      7191
 -2      7254      7416     15649     16159     16153
 -1      1762    5    0    1
 -2      7406      7244      7418      7408      7246      7420     16112     16160     16163      7407
 -2      7245      7419     16114     16162     16165
 -1      1763    5    0    1
 -2      7244      7292      7418      7246      7294      7420     15773     16166     16160      7245
 -2      7293      7419     15775     16168     16162
 -1      1764    5    0    1
 -2      7409      7217      7388      7411      7219      7390     16130     16061     16169      7410
 -2      7218      7389     16132     16063     16171
 -1      1765    5    0    1
 -2      7097      7409      7235      7099      7411      7237     16133     16172     15599      7098
 -2      7410      7236     16135     16174     15601
 -1      1766    5    0    1
 -2      7277      7304      7421      7279      7306      7423     16046     16175     16178      7278
 -2      7305      7422     16048     16177     16180
 -1      1767    5    0    1
 -2      7271      7268      7424      7273      7270      7426     15701     16181     16184      7272
 -2      7269      7425     15703     16183     16186
 -1      1768    5    0    1
 -2      7385      7370      7427      7387      7372      7429     16049     16187     16190      7386
 -2      7371      7428     16051     16189     16192
 -1      1769    5    0    1
 -2      7214      7193      7430      7216      7195      7432     15530     16193     16196      7215
 -2      7194      7431     15532     16195     16198
 -1      1770    5    0    1
 -2      7265      7214      7430      7267      7216      7432     15686     16196     16199      7266
 -2      7215      7431     15688     16198     16201
 -1      1771    5    0    1
 -2      7193      7367      7430      7195      7369      7432     15998     16202     16193      7194
 -2      7368      7431     16000     16204     16195
 -1      1772    5    0    1
 -2      7295      7307      7433      7297      7309      7435     16055     16205     16208      7296
 -2      7308      7434     16057     16207     16210
 -1      1773    5    0    1
 -2      7388      7310      7436      7390      7312      7438     16058     16211     16214      7389
 -2      7311      7437     16060     16213     16216
 -1      1774    5    0    1
 -2      7394      7100      7439      7396      7102      7441     16079     16217     16220      7395
 -2      7101      7440     16081     16219     16222
 -1      1775    5    0    1
 -2      7292      7229      7442      7294      7231      7444     15764     16223     16226      7293
 -2      7230      7443     15766     16225     16228
 -1      1776    5    0    1
 -2      7229      7397      7442      7231      7399      7444     16085     16229     16223      7230
 -2      7398      7443     16087     16231     16225
 -1      1777    5    0    1
 -2      7439      7100      7184      7441      7102      7186     16217     15428     16232      7440
 -2      7101      7185     16219     15430     16234
 -1      1778    5    0    1
 -2      7238      7247      7445      7240      7249      7447     16088     16235     16238      7239
 -2      7248      7446     16090     16237     16240
 -1      1779    5    0    1
 -2      7412      7238      7445      7414      7240      7447     16142     16238     16241      7413
 -2      7239      7446     16144     16240     16243
 -1      1780    5    0    1
 -2      7247      7406      7445      7249      7408      7447     16115     16244     16235      7248
 -2      7407      7446     16117     16246     16237
 -1      1781    5    0    1
 -2      7409      7388      7448      7411      7390      7450     16169     16247     16250      7410
 -2      7389      7449     16171     16249     16252
 -1      1782    5    0    1
 -2      7286      7394      7451      7288      7396      7453     16076     16253     16256      7287
 -2      7395      7452     16078     16255     16258
 -1      1783    5    0    1
 -2      7298      7277      7454      7300      7279      7456     15785     16259     16262      7299
 -2      7278      7455     15787     16261     16264
 -1      1784    5    0    1
 -2      7310      7298      7454      7312      7300      7456     16091     16262     16265      7311
 -2      7299      7455     16093     16264     16267
 -1      1785    5    0    1
 -2      7277      7421      7454      7279      7423      7456     16178     16268     16259      7278
 -2      7422      7455     16180     16270     16261
 -1      1786    5    0    1
 -2      7232      7235      7457      7234      7237      7459     15596     16271     16274      7233
 -2      7236      7458     15598     16273     16276
 -1      1787    5    0    1
 -2      7400      7232      7457      7402      7234      7459     16100     16274     16277      7401
 -2      7233      7458     16102     16276     16279
 -1      1788    5    0    1
 -2      7235      7409      7457      7237      7411      7459     16172     16280     16271      7236
 -2      7410      7458     16174     16282     16273
 -1      1789    5    0    1
 -2      7307      7286      7460      7309      7288      7462     15818     16283     16286      7308
 -2      7287      7461     15820     16285     16288
 -1      1790    5    0    1
 -2      7286      7451      7460      7288      7453      7462     16256     16289     16283      7287
 -2      7452      7461     16258     16291     16285
 -1      1791    5    0    1
 -2      7313      7265      7580      7315      7267      7582     15836     16292     16295      7314
 -2      7266      7581     15838     16294     16297
 -1      1792    5    0    1
 -2      7265      7430      7580      7267      7432      7582     16199     16298     16292      7266
 -2      7431      7581     16201     16300     16294
 -1      1793    5    0    1
 -2      7316      7313      7463      7318      7315      7465     15845     16301     16304      7317
 -2      7314      7464     15847     16303     16306
 -1      1794    5    0    1
 -2      7313      7580      7463      7315      7582      7465     16295     16307     16301      7314
 -2      7581      7464     16297     16309     16303
 -1      1795    5    0    1
 -2      7322      7319      7466      7324      7321      7468     15863     16310     16313      7323
 -2      7320      7467     15865     16312     16315
 -1      1796    5    0    1
 -2      7325      7322      7469      7327      7324      7471     15872     16316     16319      7326
 -2      7323      7470     15874     16318     16321
 -1      1797    5    0    1
 -2      7322      7466      7469      7324      7468      7471     16313     16322     16316      7323
 -2      7467      7470     16315     16324     16318
 -1      1798    5    0    1
 -2      7328      7325      7472      7330      7327      7474     15881     16325     16328      7329
 -2      7326      7473     15883     16327     16330
 -1      1799    5    0    1
 -2      7325      7469      7472      7327      7471      7474     16319     16331     16325      7326
 -2      7470      7473     16321     16333     16327
 -1      1800    5    0    1
 -2      7331      7328      7475      7333      7330      7477     15890     16334     16337      7332
 -2      7329      7476     15892     16336     16339
 -1      1801    5    0    1
 -2      7328      7472      7475      7330      7474      7477     16328     16340     16334      7329
 -2      7473      7476     16330     16342     16336
 -1      1802    5    0    1
 -2      7334      7331      7478      7336      7333      7480     15899     16343     16346      7335
 -2      7332      7479     15901     16345     16348
 -1      1803    5    0    1
 -2      7331      7475      7478      7333      7477      7480     16337     16349     16343      7332
 -2      7476      7479     16339     16351     16345
 -1      1804    5    0    1
 -2      7337      7334      7481      7339      7336      7483     15908     16352     16355      7338
 -2      7335      7482     15910     16354     16357
 -1      1805    5    0    1
 -2      7334      7478      7481      7336      7480      7483     16346     16358     16352      7335
 -2      7479      7482     16348     16360     16354
 -1      1806    5    0    1
 -2      7340      7337      7484      7342      7339      7486     15917     16361     16364      7341
 -2      7338      7485     15919     16363     16366
 -1      1807    5    0    1
 -2      7337      7481      7484      7339      7483      7486     16355     16367     16361      7338
 -2      7482      7485     16357     16369     16363
 -1      1808    5    0    1
 -2      7343      7340      7487      7345      7342      7489     15926     16370     16373      7344
 -2      7341      7488     15928     16372     16375
 -1      1809    5    0    1
 -2      7340      7484      7487      7342      7486      7489     16364     16376     16370      7341
 -2      7485      7488     16366     16378     16372
 -1      1810    5    0    1
 -2      7346      7343      7490      7348      7345      7492     15935     16379     16382      7347
 -2      7344      7491     15937     16381     16384
 -1      1811    5    0    1
 -2      7343      7487      7490      7345      7489      7492     16373     16385     16379      7344
 -2      7488      7491     16375     16387     16381
 -1      1812    5    0    1
 -2      7349      7346      7493      7351      7348      7495     15944     16388     16391      7350
 -2      7347      7494     15946     16390     16393
 -1      1813    5    0    1
 -2      7346      7490      7493      7348      7492      7495     16382     16394     16388      7347
 -2      7491      7494     16384     16396     16390
 -1      1814    5    0    1
 -2      7352      7349      7496      7354      7351      7498     15953     16397     16400      7353
 -2      7350      7497     15955     16399     16402
 -1      1815    5    0    1
 -2      7349      7493      7496      7351      7495      7498     16391     16403     16397      7350
 -2      7494      7497     16393     16405     16399
 -1      1816    5    0    1
 -2      7355      7352      7499      7357      7354      7501     15962     16406     16409      7356
 -2      7353      7500     15964     16408     16411
 -1      1817    5    0    1
 -2      7352      7496      7499      7354      7498      7501     16400     16412     16406      7353
 -2      7497      7500     16402     16414     16408
 -1      1818    5    0    1
 -2      7358      7355      7502      7360      7357      7504     15971     16415     16418      7359
 -2      7356      7503     15973     16417     16420
 -1      1819    5    0    1
 -2      7355      7499      7502      7357      7501      7504     16409     16421     16415      7356
 -2      7500      7503     16411     16423     16417
 -1      1820    5    0    1
 -2      7361      7358      7505      7363      7360      7507     15980     16424     16427      7362
 -2      7359      7506     15982     16426     16429
 -1      1821    5    0    1
 -2      7358      7502      7505      7360      7504      7507     16418     16430     16424      7359
 -2      7503      7506     16420     16432     16426
 -1      1822    5    0    1
 -2      7364      7361      7508      7366      7363      7510     15989     16433     16436      7365
 -2      7362      7509     15991     16435     16438
 -1      1823    5    0    1
 -2      7361      7505      7508      7363      7507      7510     16427     16439     16433      7362
 -2      7506      7509     16429     16441     16435
 -1      1824    5    0    1
 -2      7367      7280      7511      7369      7282      7513     16001     16442     16445      7368
 -2      7281      7512     16003     16444     16447
 -1      1825    5    0    1
 -2      7376      7385      7514      7378      7387      7516     16124     16448     16451      7377
 -2      7386      7515     16126     16450     16453
 -1      1826    5    0    1
 -2      7370      7256      7517      7372      7258      7519     16010     16454     16457      7371
 -2      7257      7518     16012     16456     16459
 -1      1827    5    0    1
 -2      7427      7370      7517      7429      7372      7519     16187     16457     16460      7428
 -2      7371      7518     16189     16459     16462
 -1      1828    5    0    1
 -2      7256      7274      7517      7258      7276      7519     15713     16463     16454      7257
 -2      7275      7518     15715     16465     16456
 -1      1829    5    0    1
 -2      7223      7271      7520      7225      7273      7522     16022     16466     16469      7224
 -2      7272      7521     16024     16468     16471
 -1      1830    5    0    1
 -2      7271      7424      7520      7273      7426      7522     16184     16472     16466      7272
 -2      7425      7521     16186     16474     16468
 -1      1831    5    0    1
 -2      7304      7295      7523      7306      7297      7525     15806     16475     16478      7305
 -2      7296      7524     15808     16477     16480
 -1      1832    5    0    1
 -2      7442      7397      7526      7444      7399      7528     16229     16481     16484      7443
 -2      7398      7527     16231     16483     16486
 -1      1833    5    0    1
 -2      7274      7226      7529      7276      7228      7531     15716     16487     16490      7275
 -2      7227      7530     15718     16489     16492
 -1      1834    5    0    1
 -2      7517      7274      7529      7519      7276      7531     16463     16490     16493      7518
 -2      7275      7530     16465     16492     16495
 -1      1835    5    0    1
 -2      7226      7391      7529      7228      7393      7531     16067     16496     16487      7227
 -2      7392      7530     16069     16498     16489
 -1      1836    5    0    1
 -2      7391      7241      7532      7393      7243      7534     16070     16499     16502      7392
 -2      7242      7533     16072     16501     16504
 -1      1837    5    0    1
 -2      7241      7403      7532      7243      7405      7534     16106     16505     16499      7242
 -2      7404      7533     16108     16507     16501
 -1      1838    5    0    1
 -2      7436      7310      7454      7438      7312      7456     16211     16265     16508      7437
 -2      7311      7455     16213     16267     16510
 -1      1839    5    0    1
 -2      7433      7307      7460      7435      7309      7462     16205     16286     16511      7434
 -2      7308      7461     16207     16288     16513
 -1      1840    5    0    1
 -2      7289      7178      7364      7291      7180      7366     15992     15986     16514      7290
 -2      7179      7365     15994     15988     16516
 -1      1841    5    0    1
 -2      7394      7439      7535      7396      7441      7537     16220     16517     16520      7395
 -2      7440      7536     16222     16519     16522
 -1      1842    5    0    1
 -2      7208      7376      7538      7210      7378      7540     16028     16523     16526      7209
 -2      7377      7539     16030     16525     16528
 -1      1843    5    0    1
 -2      7295      7433      7523      7297      7435      7525     16208     16529     16475      7296
 -2      7434      7524     16210     16531     16477
 -1      1844    5    0    1
 -2      7292      7442      7418      7294      7444      7420     16226     16532     16166      7293
 -2      7443      7419     16228     16534     16168
 -1      1845    5    0    1
 -2      7394      7535      7451      7396      7537      7453     16520     16535     16253      7395
 -2      7536      7452     16522     16537     16255
 -1      1846    5    0    1
 -2      7409      7448      7457      7411      7450      7459     16250     16538     16280      7410
 -2      7449      7458     16252     16540     16282
 -1      1847    5    0    1
 -2      7445      7406      7541      7447      7408      7543     16244     16541     16544      7446
 -2      7407      7542     16246     16543     16546
 -1      1848    5    0    1
 -2      7448      7388      7544      7450      7390      7546     16247     16547     16550      7449
 -2      7389      7545     16249     16549     16552
 -1      1849    5    0    1
 -2      7388      7436      7544      7390      7438      7546     16214     16553     16547      7389
 -2      7437      7545     16216     16555     16549
 -1      1850    5    0    1
 -2      7403      7373      7547      7405      7375      7549     16109     16556     16559      7404
 -2      7374      7548     16111     16558     16561
 -1      1851    5    0    1
 -2      7415      7253      7550      7417      7255      7552     16157     16562     16565      7416
 -2      7254      7551     16159     16564     16567
 -1      1852    5    0    1
 -2      7253      7400      7550      7255      7402      7552     16097     16568     16562      7254
 -2      7401      7551     16099     16570     16564
 -1      1853    5    0    1
 -2      7304      7523      7421      7306      7525      7423     16478     16571     16175      7305
 -2      7524      7422     16480     16573     16177
 -1      1854    5    0    1
 -2      7538      7376      7514      7540      7378      7516     16523     16451     16574      7539
 -2      7377      7515     16525     16453     16576
 -1      1855    5    0    1
 -2      7208      7538      7301      7210      7540      7303     16526     16577     15797      7209
 -2      7539      7302     16528     16579     15799
 -1      1856    5    0    1
 -2      7541      7406      7553      7543      7408      7555     16541     16580     16583      7542
 -2      7407      7554     16543     16582     16585
 -1      1857    5    0    1
 -2      7406      7418      7553      7408      7420      7555     16163     16586     16580      7407
 -2      7419      7554     16165     16588     16582
 -1      1858    5    0    1
 -2      7547      7373      7556      7549      7375      7558     16556     16589     16592      7548
 -2      7374      7557     16558     16591     16594
 -1      1859    5    0    1
 -2      7373      7412      7556      7375      7414      7558     16139     16595     16589      7374
 -2      7413      7557     16141     16597     16591
 -1      1860    5    0    1
 -2      7289      7364      7559      7291      7366      7561     16514     16598     16601      7290
 -2      7365      7560     16516     16600     16603
 -1      1861    5    0    1
 -2      7364      7508      7559      7366      7510      7561     16436     16604     16598      7365
 -2      7509      7560     16438     16606     16600
 -1      1862    5    0    1
 -2      7514      7385      7562      7516      7387      7564     16448     16607     16610      7515
 -2      7386      7563     16450     16609     16612
 -1      1863    5    0    1
 -2      7385      7427      7562      7387      7429      7564     16190     16613     16607      7386
 -2      7428      7563     16192     16615     16609
 -1      1864    5    0    1
 -2      7223      7520      7382      7225      7522      7384     16469     16616     16043      7224
 -2      7521      7383     16471     16618     16045
 -1      1865    5    0    1
 -2      7424      7268      7565      7426      7270      7567     16181     16619     16622      7425
 -2      7269      7566     16183     16621     16624
 -1      1866    5    0    1
 -2      7268      7301      7565      7270      7303      7567     15794     16625     16619      7269
 -2      7302      7566     15796     16627     16621
 -1      1867    5    0    1
 -2      7319      7316      7568      7321      7318      7570     15854     16628     16631      7320
 -2      7317      7569     15856     16630     16633
 -1      1868    5    0    1
 -2      7511      7280      7571      7513      7282      7573     16442     16634     16637      7512
 -2      7281      7572     16444     16636     16639
 -1      1869    5    0    1
 -2      7280      7382      7571      7282      7384      7573     16040     16640     16634      7281
 -2      7383      7572     16042     16642     16636
 -1      1870    5    0    1
 -2      7526      7397      7574      7528      7399      7576     16481     16643     16646      7527
 -2      7398      7575     16483     16645     16648
 -1      1871    5    0    1
 -2      7397      7415      7574      7399      7417      7576     16154     16649     16643      7398
 -2      7416      7575     16156     16651     16645
 -1      1872    5    0    1
 -2      7289      7559      7535      7291      7561      7537     16601     16652     16655      7290
 -2      7560      7536     16603     16654     16657
 -1      1873    5    0    1
 -2      7319      7568      7466      7321      7570      7468     16631     16658     16310      7320
 -2      7569      7467     16633     16660     16312
 -1      1874    5    0    1
 -2      7436      7454      7577      7438      7456      7579     16508     16661     16664      7437
 -2      7455      7578     16510     16663     16666
 -1      1875    5    0    1
 -2      7454      7421      7577      7456      7423      7579     16268     16667     16661      7455
 -2      7422      7578     16270     16669     16663
 -1      1876    5    0    1
 -2      7430      7367      7580      7432      7369      7582     16202     16670     16298      7431
 -2      7368      7581     16204     16672     16300
 -1      1877    5    0    1
 -2      7931      7934      7883      7933      7936      7885     16673     16676     16679      7932
 -2      7935      7884     16675     16678     16681
 -1      1878    5    0    1
 -2      7367      7511      7580      7369      7513      7582     16445     16682     16670      7368
 -2      7512      7581     16447     16684     16672
 -1      1879    5    0    1
 -2      7316      7463      7568      7318      7465      7570     16304     16685     16628      7317
 -2      7464      7569     16306     16687     16630
 -1      1880    5    0    1
 -2      7523      7433      7583      7525      7435      7585     16529     16688     16691      7524
 -2      7434      7584     16531     16690     16693
 -1      1881    5    0    1
 -2      7451      7535      7586      7453      7537      7588     16535     16694     16697      7452
 -2      7536      7587     16537     16696     16699
 -1      1882    5    0    1
 -2      7535      7559      7586      7537      7561      7588     16652     16700     16694      7536
 -2      7560      7587     16654     16702     16696
 -1      1883    5    0    1
 -2      7400      7457      7589      7402      7459      7591     16277     16703     16706      7401
 -2      7458      7590     16279     16705     16708
 -1      1884    5    0    1
 -2      7550      7400      7589      7552      7402      7591     16568     16706     16709      7551
 -2      7401      7590     16570     16708     16711
 -1      1885    5    0    1
 -2      7457      7448      7589      7459      7450      7591     16538     16712     16703      7458
 -2      7449      7590     16540     16714     16705
 -1      1886    5    0    1
 -2      7460      7451      7592      7462      7453      7594     16289     16715     16718      7461
 -2      7452      7593     16291     16717     16720
 -1      1887    5    0    1
 -2      7451      7586      7592      7453      7588      7594     16697     16721     16715      7452
 -2      7587      7593     16699     16723     16717
 -1      1888    5    0    1
 -2      7520      7424      7595      7522      7426      7597     16472     16724     16727      7521
 -2      7425      7596     16474     16726     16729
 -1      1889    5    0    1
 -2      7559      7508      7598      7561      7510      7600     16604     16730     16733      7560
 -2      7509      7599     16606     16732     16735
 -1      1890    5    0    1
 -2      7586      7559      7598      7588      7561      7600     16700     16733     16736      7587
 -2      7560      7599     16702     16735     16738
 -1      1891    5    0    1
 -2      7508      7505      7598      7510      7507      7600     16439     16739     16730      7509
 -2      7506      7599     16441     16741     16732
 -1      1892    5    0    1
 -2      7412      7445      7601      7414      7447      7603     16241     16742     16745      7413
 -2      7446      7602     16243     16744     16747
 -1      1893    5    0    1
 -2      7556      7412      7601      7558      7414      7603     16595     16745     16748      7557
 -2      7413      7602     16597     16747     16750
 -1      1894    5    0    1
 -2      7445      7541      7601      7447      7543      7603     16544     16751     16742      7446
 -2      7542      7602     16546     16753     16744
 -1      1895    5    0    1
 -2      7433      7460      7604      7435      7462      7606     16511     16754     16757      7434
 -2      7461      7605     16513     16756     16759
 -1      1896    5    0    1
 -2      7583      7433      7604      7585      7435      7606     16688     16757     16760      7584
 -2      7434      7605     16690     16759     16762
 -1      1897    5    0    1
 -2      7460      7592      7604      7462      7594      7606     16718     16763     16754      7461
 -2      7593      7605     16720     16765     16756
 -1      1898    5    0    1
 -2      7469      7466      7607      7471      7468      7609     16322     16766     16769      7470
 -2      7467      7608     16324     16768     16771
 -1      1899    5    0    1
 -2      7421      7523      7610      7423      7525      7612     16571     16772     16775      7422
 -2      7524      7611     16573     16774     16777
 -1      1900    5    0    1
 -2      7577      7421      7610      7579      7423      7612     16667     16775     16778      7578
 -2      7422      7611     16669     16777     16780
 -1      1901    5    0    1
 -2      7523      7583      7610      7525      7585      7612     16691     16781     16772      7524
 -2      7584      7611     16693     16783     16774
 -1      1902    5    0    1
 -2      7463      7580      7613      7465      7582      7615     16307     16784     16787      7464
 -2      7581      7614     16309     16786     16789
 -1      1903    5    0    1
 -2      7859      7937      7940      7861      7939      7942     16790     16793     16796      7860
 -2      7938      7941     16792     16795     16798
 -1      1904    5    0    1
 -2      7568      7463      7613      7570      7465      7615     16685     16787     16799      7569
 -2      7464      7614     16687     16789     16801
 -1      1905    5    0    1
 -2      7472      7469      7616      7474      7471      7618     16331     16802     16805      7473
 -2      7470      7617     16333     16804     16807
 -1      1906    5    0    1
 -2      7469      7607      7616      7471      7609      7618     16769     16808     16802      7470
 -2      7608      7617     16771     16810     16804
 -1      1907    5    0    1
 -2      7475      7472      7619      7477      7474      7621     16340     16811     16814      7476
 -2      7473      7620     16342     16813     16816
 -1      1908    5    0    1
 -2      7472      7616      7619      7474      7618      7621     16805     16817     16811      7473
 -2      7617      7620     16807     16819     16813
 -1      1909    5    0    1
 -2      7478      7475      7622      7480      7477      7624     16349     16820     16823      7479
 -2      7476      7623     16351     16822     16825
 -1      1910    5    0    1
 -2      7475      7619      7622      7477      7621      7624     16814     16826     16820      7476
 -2      7620      7623     16816     16828     16822
 -1      1911    5    0    1
 -2      7481      7478      7625      7483      7480      7627     16358     16829     16832      7482
 -2      7479      7626     16360     16831     16834
 -1      1912    5    0    1
 -2      7478      7622      7625      7480      7624      7627     16823     16835     16829      7479
 -2      7623      7626     16825     16837     16831
 -1      1913    5    0    1
 -2      7484      7481      7628      7486      7483      7630     16367     16838     16841      7485
 -2      7482      7629     16369     16840     16843
 -1      1914    5    0    1
 -2      7481      7625      7628      7483      7627      7630     16832     16844     16838      7482
 -2      7626      7629     16834     16846     16840
 -1      1915    5    0    1
 -2      7487      7484      7631      7489      7486      7633     16376     16847     16850      7488
 -2      7485      7632     16378     16849     16852
 -1      1916    5    0    1
 -2      7484      7628      7631      7486      7630      7633     16841     16853     16847      7485
 -2      7629      7632     16843     16855     16849
 -1      1917    5    0    1
 -2      7490      7487      7634      7492      7489      7636     16385     16856     16859      7491
 -2      7488      7635     16387     16858     16861
 -1      1918    5    0    1
 -2      7487      7631      7634      7489      7633      7636     16850     16862     16856      7488
 -2      7632      7635     16852     16864     16858
 -1      1919    5    0    1
 -2      7493      7490      7637      7495      7492      7639     16394     16865     16868      7494
 -2      7491      7638     16396     16867     16870
 -1      1920    5    0    1
 -2      7490      7634      7637      7492      7636      7639     16859     16871     16865      7491
 -2      7635      7638     16861     16873     16867
 -1      1921    5    0    1
 -2      7496      7493      7640      7498      7495      7642     16403     16874     16877      7497
 -2      7494      7641     16405     16876     16879
 -1      1922    5    0    1
 -2      7493      7637      7640      7495      7639      7642     16868     16880     16874      7494
 -2      7638      7641     16870     16882     16876
 -1      1923    5    0    1
 -2      7499      7496      7643      7501      7498      7645     16412     16883     16886      7500
 -2      7497      7644     16414     16885     16888
 -1      1924    5    0    1
 -2      7496      7640      7643      7498      7642      7645     16877     16889     16883      7497
 -2      7641      7644     16879     16891     16885
 -1      1925    5    0    1
 -2      7502      7499      7646      7504      7501      7648     16421     16892     16895      7503
 -2      7500      7647     16423     16894     16897
 -1      1926    5    0    1
 -2      7499      7643      7646      7501      7645      7648     16886     16898     16892      7500
 -2      7644      7647     16888     16900     16894
 -1      1927    5    0    1
 -2      7505      7502      7649      7507      7504      7651     16430     16901     16904      7506
 -2      7503      7650     16432     16903     16906
 -1      1928    5    0    1
 -2      7502      7646      7649      7504      7648      7651     16895     16907     16901      7503
 -2      7647      7650     16897     16909     16903
 -1      1929    5    0    1
 -2      7301      7538      7565      7303      7540      7567     16577     16910     16625      7302
 -2      7539      7566     16579     16912     16627
 -1      1930    5    0    1
 -2      7538      7514      7652      7540      7516      7654     16574     16913     16916      7539
 -2      7515      7653     16576     16915     16918
 -1      1931    5    0    1
 -2      7565      7538      7652      7567      7540      7654     16910     16916     16919      7566
 -2      7539      7653     16912     16918     16921
 -1      1932    5    0    1
 -2      7514      7562      7652      7516      7564      7654     16610     16922     16913      7515
 -2      7563      7653     16612     16924     16915
 -1      1933    5    0    1
 -2      7439      7184      7379      7441      7186      7381     16232     16121     16925      7440
 -2      7185      7380     16234     16123     16927
 -1      1934    5    0    1
 -2      7418      7442      7655      7420      7444      7657     16532     16928     16931      7419
 -2      7443      7656     16534     16930     16933
 -1      1935    5    0    1
 -2      7553      7418      7655      7555      7420      7657     16586     16931     16934      7554
 -2      7419      7656     16588     16933     16936
 -1      1936    5    0    1
 -2      7442      7526      7655      7444      7528      7657     16484     16937     16928      7443
 -2      7527      7656     16486     16939     16930
 -1      1937    5    0    1
 -2      7382      7520      7658      7384      7522      7660     16616     16940     16943      7383
 -2      7521      7659     16618     16942     16945
 -1      1938    5    0    1
 -2      7526      7574      7661      7528      7576      7663     16646     16946     16949      7527
 -2      7575      7662     16648     16948     16951
 -1      1939    5    0    1
 -2      7541      7553      7664      7543      7555      7666     16583     16952     16955      7542
 -2      7554      7665     16585     16954     16957
 -1      1940    5    0    1
 -2      7607      7466      7667      7609      7468      7669     16766     16958     16961      7608
 -2      7467      7668     16768     16960     16963
 -1      1941    5    0    1
 -2      7466      7568      7667      7468      7570      7669     16658     16964     16958      7467
 -2      7569      7668     16660     16966     16960
 -1      1942    5    0    1
 -2      7403      7547      7670      7405      7549      7672     16559     16967     16970      7404
 -2      7548      7671     16561     16969     16972
 -1      1943    5    0    1
 -2      7535      7439      7289      7537      7441      7291     16517     16973     16655      7536
 -2      7440      7290     16519     16975     16657
 -1      1944    5    0    1
 -2      7658      7520      7595      7660      7522      7597     16940     16727     16976      7659
 -2      7521      7596     16942     16729     16978
 -1      1945    5    0    1
 -2      7544      7436      7673      7546      7438      7675     16553     16979     16982      7545
 -2      7437      7674     16555     16981     16984
 -1      1946    5    0    1
 -2      7436      7577      7673      7438      7579      7675     16664     16985     16979      7437
 -2      7578      7674     16666     16987     16981
 -1      1947    5    0    1
 -2      7589      7448      7676      7591      7450      7678     16712     16988     16991      7590
 -2      7449      7677     16714     16990     16993
 -1      1948    5    0    1
 -2      7448      7544      7676      7450      7546      7678     16550     16994     16988      7449
 -2      7545      7677     16552     16996     16990
 -1      1949    5    0    1
 -2      7505      7649      7598      7507      7651      7600     16904     16997     16739      7506
 -2      7650      7599     16906     16999     16741
 -1      1950    5    0    1
 -2      7439      7379      7289      7441      7381      7291     16925     15749     16973      7440
 -2      7380      7290     16927     15751     16975
 -1      1951    5    0    1
 -2      7595      7424      7679      7597      7426      7681     16724     17000     17003      7596
 -2      7425      7680     16726     17002     17005
 -1      1952    5    0    1
 -2      7424      7565      7679      7426      7567      7681     16622     17006     17000      7425
 -2      7566      7680     16624     17008     17002
 -1      1953    5    0    1
 -2      7562      7427      7682      7564      7429      7684     16613     17009     17012      7563
 -2      7428      7683     16615     17011     17014
 -1      1954    5    0    1
 -2      7571      7382      7658      7573      7384      7660     16640     16943     17015      7572
 -2      7383      7659     16642     16945     17017
 -1      1955    5    0    1
 -2      7601      7541      7685      7603      7543      7687     16751     17018     17021      7602
 -2      7542      7686     16753     17020     17023
 -1      1956    5    0    1
 -2      7541      7664      7685      7543      7666      7687     16955     17024     17018      7542
 -2      7665      7686     16957     17026     17020
 -1      1957    5    0    1
 -2      7511      7571      7688      7513      7573      7690     16637     17027     17030      7512
 -2      7572      7689     16639     17029     17032
 -1      1958    5    0    1
 -2      7574      7415      7691      7576      7417      7693     16649     17033     17036      7575
 -2      7416      7692     16651     17035     17038
 -1      1959    5    0    1
 -2      7415      7550      7691      7417      7552      7693     16565     17039     17033      7416
 -2      7551      7692     16567     17041     17035
 -1      1960    5    0    1
 -2      7547      7556      7694      7549      7558      7696     16592     17042     17045      7548
 -2      7557      7695     16594     17044     17047
 -1      1961    5    0    1
 -2      7427      7517      7697      7429      7519      7699     16460     17048     17051      7428
 -2      7518      7698     16462     17050     17053
 -1      1962    5    0    1
 -2      7682      7427      7697      7684      7429      7699     17009     17051     17054      7683
 -2      7428      7698     17011     17053     17056
 -1      1963    5    0    1
 -2      7517      7529      7697      7519      7531      7699     16493     17057     17048      7518
 -2      7530      7698     16495     17059     17050
 -1      1964    5    0    1
 -2      7667      7568      7688      7669      7570      7690     16964     17060     17063      7668
 -2      7569      7689     16966     17062     17065
 -1      1965    5    0    1
 -2      7403      7670      7532      7405      7672      7534     16970     17066     16505      7404
 -2      7671      7533     16972     17068     16507
 -1      1966    5    0    1
 -2      7529      7391      7700      7531      7393      7702     16496     17069     17072      7530
 -2      7392      7701     16498     17071     17074
 -1      1967    5    0    1
 -2      7697      7529      7700      7699      7531      7702     17057     17072     17075      7698
 -2      7530      7701     17059     17074     17077
 -1      1968    5    0    1
 -2      7391      7532      7700      7393      7534      7702     16502     17078     17069      7392
 -2      7533      7701     16504     17080     17071
 -1      1969    5    0    1
 -2      7655      7526      7703      7657      7528      7705     16937     17081     17084      7656
 -2      7527      7704     16939     17083     17086
 -1      1970    5    0    1
 -2      7526      7661      7703      7528      7663      7705     16949     17087     17081      7527
 -2      7662      7704     16951     17089     17083
 -1      1971    5    0    1
 -2      7670      7547      7706      7672      7549      7708     16967     17090     17093      7671
 -2      7548      7707     16969     17092     17095
 -1      1972    5    0    1
 -2      7547      7694      7706      7549      7696      7708     17045     17096     17090      7548
 -2      7695      7707     17047     17098     17092
 -1      1973    5    0    1
 -2      7667      7688      7709      7669      7690      7711     17063     17099     17102      7668
 -2      7689      7710     17065     17101     17104
 -1      1974    5    0    1
 -2      7511      7688      7613      7513      7690      7615     17030     17105     17108      7512
 -2      7689      7614     17032     17107     17110
 -1      1975    5    0    1
 -2      7607      7667      7712      7609      7669      7714     16961     17111     17114      7608
 -2      7668      7713     16963     17113     17116
 -1      1976    5    0    1
 -2      7667      7709      7712      7669      7711      7714     17102     17117     17111      7668
 -2      7710      7713     17104     17119     17113
 -1      1977    5    0    1
 -2      7592      7586      7715      7594      7588      7717     16721     17120     17123      7593
 -2      7587      7716     16723     17122     17125
 -1      1978    5    0    1
 -2      7586      7598      7715      7588      7600      7717     16736     17126     17120      7587
 -2      7599      7716     16738     17128     17122
 -1      1979    5    0    1
 -2      7658      7595      7718      7660      7597      7720     16976     17129     17132      7659
 -2      7596      7719     16978     17131     17134
 -1      1980    5    0    1
 -2      7598      7649      7715      7600      7651      7717     16997     17135     17126      7599
 -2      7650      7716     16999     17137     17128
 -1      1981    5    0    1
 -2      7571      7658      7721      7573      7660      7723     17015     17138     17141      7572
 -2      7659      7722     17017     17140     17143
 -1      1982    5    0    1
 -2      7688      7571      7721      7690      7573      7723     17027     17141     17144      7689
 -2      7572      7722     17029     17143     17146
 -1      1983    5    0    1
 -2      7658      7718      7721      7660      7720      7723     17132     17147     17138      7659
 -2      7719      7722     17134     17149     17140
 -1      1984    5    0    1
 -2      7664      7553      7724      7666      7555      7726     16952     17150     17153      7665
 -2      7554      7725     16954     17152     17155
 -1      1985    5    0    1
 -2      7553      7655      7724      7555      7657      7726     16934     17156     17150      7554
 -2      7656      7725     16936     17158     17152
 -1      1986    5    0    1
 -2      7616      7607      7727      7618      7609      7729     16808     17159     17162      7617
 -2      7608      7728     16810     17161     17164
 -1      1987    5    0    1
 -2      7607      7712      7727      7609      7714      7729     17114     17165     17159      7608
 -2      7713      7728     17116     17167     17161
 -1      1988    5    0    1
 -2      7619      7616      7730      7621      7618      7732     16817     17168     17171      7620
 -2      7617      7731     16819     17170     17173
 -1      1989    5    0    1
 -2      7616      7727      7730      7618      7729      7732     17162     17174     17168      7617
 -2      7728      7731     17164     17176     17170
 -1      1990    5    0    1
 -2      7622      7619      7733      7624      7621      7735     16826     17177     17180      7623
 -2      7620      7734     16828     17179     17182
 -1      1991    5    0    1
 -2      7619      7730      7733      7621      7732      7735     17171     17183     17177      7620
 -2      7731      7734     17173     17185     17179
 -1      1992    5    0    1
 -2      7625      7622      7736      7627      7624      7738     16835     17186     17189      7626
 -2      7623      7737     16837     17188     17191
 -1      1993    5    0    1
 -2      7622      7733      7736      7624      7735      7738     17180     17192     17186      7623
 -2      7734      7737     17182     17194     17188
 -1      1994    5    0    1
 -2      7628      7625      7739      7630      7627      7741     16844     17195     17198      7629
 -2      7626      7740     16846     17197     17200
 -1      1995    5    0    1
 -2      7625      7736      7739      7627      7738      7741     17189     17201     17195      7626
 -2      7737      7740     17191     17203     17197
 -1      1996    5    0    1
 -2      7631      7628      7742      7633      7630      7744     16853     17204     17207      7632
 -2      7629      7743     16855     17206     17209
 -1      1997    5    0    1
 -2      7628      7739      7742      7630      7741      7744     17198     17210     17204      7629
 -2      7740      7743     17200     17212     17206
 -1      1998    5    0    1
 -2      7634      7631      7745      7636      7633      7747     16862     17213     17216      7635
 -2      7632      7746     16864     17215     17218
 -1      1999    5    0    1
 -2      7631      7742      7745      7633      7744      7747     17207     17219     17213      7632
 -2      7743      7746     17209     17221     17215
 -1      2000    5    0    1
 -2      7637      7634      7748      7639      7636      7750     16871     17222     17225      7638
 -2      7635      7749     16873     17224     17227
 -1      2001    5    0    1
 -2      7634      7745      7748      7636      7747      7750     17216     17228     17222      7635
 -2      7746      7749     17218     17230     17224
 -1      2002    5    0    1
 -2      7640      7637      7751      7642      7639      7753     16880     17231     17234      7641
 -2      7638      7752     16882     17233     17236
 -1      2003    5    0    1
 -2      7637      7748      7751      7639      7750      7753     17225     17237     17231      7638
 -2      7749      7752     17227     17239     17233
 -1      2004    5    0    1
 -2      7643      7640      7754      7645      7642      7756     16889     17240     17243      7644
 -2      7641      7755     16891     17242     17245
 -1      2005    5    0    1
 -2      7640      7751      7754      7642      7753      7756     17234     17246     17240      7641
 -2      7752      7755     17236     17248     17242
 -1      2006    5    0    1
 -2      7646      7643      7757      7648      7645      7759     16898     17249     17252      7647
 -2      7644      7758     16900     17251     17254
 -1      2007    5    0    1
 -2      7643      7754      7757      7645      7756      7759     17243     17255     17249      7644
 -2      7755      7758     17245     17257     17251
 -1      2008    5    0    1
 -2      7649      7646      7760      7651      7648      7762     16907     17258     17261      7650
 -2      7647      7761     16909     17260     17263
 -1      2009    5    0    1
 -2      7646      7757      7760      7648      7759      7762     17252     17264     17258      7647
 -2      7758      7761     17254     17266     17260
 -1      2010    5    0    1
 -2      7556      7601      7763      7558      7603      7765     16748     17267     17270      7557
 -2      7602      7764     16750     17269     17272
 -1      2011    5    0    1
 -2      7601      7685      7763      7603      7687      7765     17021     17273     17267      7602
 -2      7686      7764     17023     17275     17269
 -1      2012    5    0    1
 -2      7694      7556      7763      7696      7558      7765     17042     17270     17276      7695
 -2      7557      7764     17044     17272     17278
 -1      2013    5    0    1
 -2      7562      7682      7766      7564      7684      7768     17012     17279     17282      7563
 -2      7683      7767     17014     17281     17284
 -1      2014    5    0    1
 -2      7550      7589      7769      7552      7591      7771     16709     17285     17288      7551
 -2      7590      7770     16711     17287     17290
 -1      2015    5    0    1
 -2      7691      7550      7769      7693      7552      7771     17039     17288     17291      7692
 -2      7551      7770     17041     17290     17293
 -1      2016    5    0    1
 -2      7589      7676      7769      7591      7678      7771     16991     17294     17285      7590
 -2      7677      7770     16993     17296     17287
 -1      2017    5    0    1
 -2      7661      7574      7772      7663      7576      7774     16946     17297     17300      7662
 -2      7575      7773     16948     17299     17302
 -1      2018    5    0    1
 -2      7574      7691      7772      7576      7693      7774     17036     17303     17297      7575
 -2      7692      7773     17038     17305     17299
 -1      2019    5    0    1
 -2      7580      7511      7613      7582      7513      7615     16682     17108     16784      7581
 -2      7512      7614     16684     17110     16786
 -1      2020    5    0    1
 -2      7694      7763      7775      7696      7765      7777     17276     17306     17309      7695
 -2      7764      7776     17278     17308     17311
 -1      2021    5    0    1
 -2      7670      7706      7778      7672      7708      7780     17093     17312     17315      7671
 -2      7707      7779     17095     17314     17317
 -1      2022    5    0    1
 -2      7649      7760      7715      7651      7762      7717     17261     17318     17135      7650
 -2      7761      7716     17263     17320     17137
 -1      2023    5    0    1
 -2      7688      7721      7709      7690      7723      7711     17144     17321     17099      7689
 -2      7722      7710     17146     17323     17101
 -1      2024    5    0    1
 -2      7673      7577      7781      7675      7579      7783     16985     17324     17327      7674
 -2      7578      7782     16987     17326     17329
 -1      2025    5    0    1
 -2      7577      7610      7781      7579      7612      7783     16778     17330     17324      7578
 -2      7611      7782     16780     17332     17326
 -1      2026    5    0    1
 -2      7655      7703      7724      7657      7705      7726     17084     17333     17156      7656
 -2      7704      7725     17086     17335     17158
 -1      2027    5    0    1
 -2      7544      7673      7784      7546      7675      7786     16982     17336     17339      7545
 -2      7674      7785     16984     17338     17341
 -1      2028    5    0    1
 -2      7676      7544      7784      7678      7546      7786     16994     17339     17342      7677
 -2      7545      7785     16996     17341     17344
 -1      2029    5    0    1
 -2      7673      7781      7784      7675      7783      7786     17327     17345     17336      7674
 -2      7782      7785     17329     17347     17338
 -1      2030    5    0    1
 -2      7718      7595      7787      7720      7597      7789     17129     17348     17351      7719
 -2      7596      7788     17131     17350     17353
 -1      2031    5    0    1
 -2      7595      7679      7787      7597      7681      7789     17003     17354     17348      7596
 -2      7680      7788     17005     17356     17350
 -1      2032    5    0    1
 -2      7568      7613      7688      7570      7615      7690     16799     17105     17060      7569
 -2      7614      7689     16801     17107     17062
 -1      2033    5    0    1
 -2      7604      7592      7790      7606      7594      7792     16763     17357     17360      7605
 -2      7593      7791     16765     17359     17362
 -1      2034    5    0    1
 -2      7703      7661      7793      7705      7663      7795     17087     17363     17366      7704
 -2      7662      7794     17089     17365     17368
 -1      2035    5    0    1
 -2      7592      7715      7790      7594      7717      7792     17123     17369     17357      7593
 -2      7716      7791     17125     17371     17359
 -1      2036    5    0    1
 -2      7664      7724      7796      7666      7726      7798     17153     17372     17375      7665
 -2      7725      7797     17155     17374     17377
 -1      2037    5    0    1
 -2      7610      7583      7781      7612      7585      7783     16781     17378     17330      7611
 -2      7584      7782     16783     17380     17332
 -1      2038    5    0    1
 -2      7685      7664      7799      7687      7666      7801     17024     17381     17384      7686
 -2      7665      7800     17026     17383     17386
 -1      2039    5    0    1
 -2      7664      7796      7799      7666      7798      7801     17375     17387     17381      7665
 -2      7797      7800     17377     17389     17383
 -1      2040    5    0    1
 -2      7679      7565      7652      7681      7567      7654     17006     16919     17390      7680
 -2      7566      7653     17008     16921     17392
 -1      2041    5    0    1
 -2      7583      7604      7802      7585      7606      7804     16760     17393     17396      7584
 -2      7605      7803     16762     17395     17398
 -1      2042    5    0    1
 -2      7604      7790      7802      7606      7792      7804     17360     17399     17393      7605
 -2      7791      7803     17362     17401     17395
 -1      2043    5    0    1
 -2      7583      7802      7781      7585      7804      7783     17396     17402     17378      7584
 -2      7803      7782     17398     17404     17380
 -1      2044    5    0    1
 -2      7766      7682      7805      7768      7684      7807     17279     17405     17408      7767
 -2      7683      7806     17281     17407     17410
 -1      2045    5    0    1
 -2      7652      7562      7808      7654      7564      7810     16922     17411     17414      7653
 -2      7563      7809     16924     17413     17416
 -1      2046    5    0    1
 -2      7679      7652      7808      7681      7654      7810     17390     17414     17417      7680
 -2      7653      7809     17392     17416     17419
 -1      2047    5    0    1
 -2      7562      7766      7808      7564      7768      7810     17282     17420     17411      7563
 -2      7767      7809     17284     17422     17413
 -1      2048    5    0    1
 -2      7682      7697      7811      7684      7699      7813     17054     17423     17426      7683
 -2      7698      7812     17056     17425     17428
 -1      2049    5    0    1
 -2      7805      7682      7811      7807      7684      7813     17405     17426     17429      7806
 -2      7683      7812     17407     17428     17431
 -1      2050    5    0    1
 -2      7697      7700      7811      7699      7702      7813     17075     17432     17423      7698
 -2      7701      7812     17077     17434     17425
 -1      2051    5    0    1
 -2      7532      7670      7814      7534      7672      7816     17066     17435     17438      7533
 -2      7671      7815     17068     17437     17440
 -1      2052    5    0    1
 -2      7700      7532      7814      7702      7534      7816     17078     17438     17441      7701
 -2      7533      7815     17080     17440     17443
 -1      2053    5    0    1
 -2      7706      7694      7817      7708      7696      7819     17096     17444     17447      7707
 -2      7695      7818     17098     17446     17449
 -1      2054    5    0    1
 -2      7694      7775      7817      7696      7777      7819     17309     17450     17444      7695
 -2      7776      7818     17311     17452     17446
 -1      2055    5    0    1
 -2      7670      7778      7814      7672      7780      7816     17315     17453     17435      7671
 -2      7779      7815     17317     17455     17437
 -1      2056    5    0    1
 -2      7793      7661      7820      7795      7663      7822     17363     17456     17459      7794
 -2      7662      7821     17365     17458     17461
 -1      2057    5    0    1
 -2      7661      7772      7820      7663      7774      7822     17300     17462     17456      7662
 -2      7773      7821     17302     17464     17458
 -1      2058    5    0    1
 -2      7778      7706      7823      7780      7708      7825     17312     17465     17468      7779
 -2      7707      7824     17314     17467     17470
 -1      2059    5    0    1
 -2      7706      7817      7823      7708      7819      7825     17447     17471     17465      7707
 -2      7818      7824     17449     17473     17467
 -1      2060    5    0    1
 -2      7775      7763      7826      7777      7765      7828     17306     17474     17477      7776
 -2      7764      7827     17308     17476     17479
 -1      2061    5    0    1
 -2      7763      7685      7826      7765      7687      7828     17273     17480     17474      7764
 -2      7686      7827     17275     17482     17476
 -1      2062    5    0    1
 -2      7709      7721      7829      7711      7723      7831     17321     17483     17486      7710
 -2      7722      7830     17323     17485     17488
 -1      2063    5    0    1
 -2      7721      7718      7829      7723      7720      7831     17147     17489     17483      7722
 -2      7719      7830     17149     17491     17485
 -1      2064    5    0    1
 -2      7772      7691      7832      7774      7693      7834     17303     17492     17495      7773
 -2      7692      7833     17305     17494     17497
 -1      2065    5    0    1
 -2      7691      7769      7832      7693      7771      7834     17291     17498     17492      7692
 -2      7770      7833     17293     17500     17494
 -1      2066    5    0    1
 -2      7781      7802      7835      7783      7804      7837     17402     17501     17504      7782
 -2      7803      7836     17404     17503     17506
 -1      2067    5    0    1
 -2      7766      7805      7838      7768      7807      7840     17408     17507     17510      7767
 -2      7806      7839     17410     17509     17512
 -1      2068    5    0    1
 -2      7724      7703      7841      7726      7705      7843     17333     17513     17516      7725
 -2      7704      7842     17335     17515     17518
 -1      2069    5    0    1
 -2      7796      7724      7841      7798      7726      7843     17372     17516     17519      7797
 -2      7725      7842     17374     17518     17521
 -1      2070    5    0    1
 -2      7703      7793      7841      7705      7795      7843     17366     17522     17513      7704
 -2      7794      7842     17368     17524     17515
 -1      2071    5    0    1
 -2      7727      7712      7844      7729      7714      7846     17165     17525     17528      7728
 -2      7713      7845     17167     17527     17530
 -1      2072    5    0    1
 -2      7730      7727      7847      7732      7729      7849     17174     17531     17534      7731
 -2      7728      7848     17176     17533     17536
 -1      2073    5    0    1
 -2      7727      7844      7847      7729      7846      7849     17528     17537     17531      7728
 -2      7845      7848     17530     17539     17533
 -1      2074    5    0    1
 -2      7733      7730      7850      7735      7732      7852     17183     17540     17543      7734
 -2      7731      7851     17185     17542     17545
 -1      2075    5    0    1
 -2      7730      7847      7850      7732      7849      7852     17534     17546     17540      7731
 -2      7848      7851     17536     17548     17542
 -1      2076    5    0    1
 -2      7736      7733      7853      7738      7735      7855     17192     17549     17552      7737
 -2      7734      7854     17194     17551     17554
 -1      2077    5    0    1
 -2      7733      7850      7853      7735      7852      7855     17543     17555     17549      7734
 -2      7851      7854     17545     17557     17551
 -1      2078    5    0    1
 -2      7739      7736      7856      7741      7738      7858     17201     17558     17561      7740
 -2      7737      7857     17203     17560     17563
 -1      2079    5    0    1
 -2      7736      7853      7856      7738      7855      7858     17552     17564     17558      7737
 -2      7854      7857     17554     17566     17560
 -1      2080    5    0    1
 -2      7742      7739      7859      7744      7741      7861     17210     17567     17570      7743
 -2      7740      7860     17212     17569     17572
 -1      2081    5    0    1
 -2      7856      7937      7739      7858      7939      7741     17573     17576     17561      7857
 -2      7938      7740     17575     17578     17563
 -1      2082    5    0    1
 -2      7745      7742      7862      7747      7744      7864     17219     17579     17582      7746
 -2      7743      7863     17221     17581     17584
 -1      2083    5    0    1
 -2      7742      7859      7862      7744      7861      7864     17570     17585     17579      7743
 -2      7860      7863     17572     17587     17581
 -1      2084    5    0    1
 -2      7748      7745      7865      7750      7747      7867     17228     17588     17591      7749
 -2      7746      7866     17230     17590     17593
 -1      2085    5    0    1
 -2      7745      7862      7865      7747      7864      7867     17582     17594     17588      7746
 -2      7863      7866     17584     17596     17590
 -1      2086    5    0    1
 -2      7751      7748      7868      7753      7750      7870     17237     17597     17600      7752
 -2      7749      7869     17239     17599     17602
 -1      2087    5    0    1
 -2      7748      7865      7868      7750      7867      7870     17591     17603     17597      7749
 -2      7866      7869     17593     17605     17599
 -1      2088    5    0    1
 -2      7754      7751      7871      7756      7753      7873     17246     17606     17609      7755
 -2      7752      7872     17248     17608     17611
 -1      2089    5    0    1
 -2      7751      7868      7871      7753      7870      7873     17600     17612     17606      7752
 -2      7869      7872     17602     17614     17608
 -1      2090    5    0    1
 -2      7757      7754      7874      7759      7756      7876     17255     17615     17618      7758
 -2      7755      7875     17257     17617     17620
 -1      2091    5    0    1
 -2      7754      7871      7874      7756      7873      7876     17609     17621     17615      7755
 -2      7872      7875     17611     17623     17617
 -1      2092    5    0    1
 -2      7760      7757      7877      7762      7759      7879     17264     17624     17627      7761
 -2      7758      7878     17266     17626     17629
 -1      2093    5    0    1
 -2      7757      7874      7877      7759      7876      7879     17618     17630     17624      7758
 -2      7875      7878     17620     17632     17626
 -1      2094    5    0    1
 -2      7712      7709      7880      7714      7711      7882     17117     17633     17636      7713
 -2      7710      7881     17119     17635     17638
 -1      2095    5    0    1
 -2      7844      7712      7880      7846      7714      7882     17525     17636     17639      7845
 -2      7713      7881     17527     17638     17641
 -1      2096    5    0    1
 -2      7709      7829      7880      7711      7831      7882     17486     17642     17633      7710
 -2      7830      7881     17488     17644     17635
 -1      2097    5    0    1
 -2      7700      7814      7811      7702      7816      7813     17441     17645     17432      7701
 -2      7815      7812     17443     17647     17434
 -1      2098    5    0    1
 -2      7826      7685      7799      7828      7687      7801     17480     17384     17648      7827
 -2      7686      7800     17482     17386     17650
 -1      2099    5    0    1
 -2      7820      7772      7883      7822      7774      7885     17462     17651     17654      7821
 -2      7773      7884     17464     17653     17656
 -1      2100    5    0    1
 -2      7772      7832      7883      7774      7834      7885     17495     17657     17651      7773
 -2      7833      7884     17497     17659     17653
 -1      2101    5    0    1
 -2      7829      7718      7886      7831      7720      7888     17489     17660     17663      7830
 -2      7719      7887     17491     17662     17665
 -1      2102    5    0    1
 -2      7718      7787      7886      7720      7789      7888     17351     17666     17660      7719
 -2      7788      7887     17353     17668     17662
 -1      2103    5    0    1
 -2      7715      7760      7889      7717      7762      7891     17318     17669     17672      7716
 -2      7761      7890     17320     17671     17674
 -1      2104    5    0    1
 -2      7715      7889      7790      7717      7891      7792     17672     17675     17369      7716
 -2      7890      7791     17674     17677     17371
 -1      2105    5    0    1
 -2      7784      7781      7835      7786      7783      7837     17345     17504     17678      7785
 -2      7782      7836     17347     17506     17680
 -1      2106    5    0    1
 -2      7787      7679      7808      7789      7681      7810     17354     17417     17681      7788
 -2      7680      7809     17356     17419     17683
 -1      2107    5    0    1
 -2      7766      7838      7808      7768      7840      7810     17510     17684     17420      7767
 -2      7839      7809     17512     17686     17422
 -1      2108    5    0    1
 -2      7796      7841      7892      7798      7843      7894     17519     17687     17690      7797
 -2      7842      7893     17521     17689     17692
 -1      2109    5    0    1
 -2      7799      7796      7895      7801      7798      7897     17387     17693     17696      7800
 -2      7797      7896     17389     17695     17698
 -1      2110    5    0    1
 -2      7796      7892      7895      7798      7894      7897     17690     17699     17693      7797
 -2      7893      7896     17692     17701     17695
 -1      2111    5    0    1
 -2      7676      7784      7898      7678      7786      7900     17342     17702     17705      7677
 -2      7785      7899     17344     17704     17707
 -1      2112    5    0    1
 -2      7802      7790      7901      7804      7792      7903     17399     17708     17711      7803
 -2      7791      7902     17401     17710     17713
 -1      2113    5    0    1
 -2      7676      7898      7769      7678      7900      7771     17705     17714     17294      7677
 -2      7899      7770     17707     17716     17296
 -1      2114    5    0    1
 -2      7793      7820      7904      7795      7822      7906     17459     17717     17720      7794
 -2      7821      7905     17461     17719     17722
 -1      2115    5    0    1
 -2      7760      7877      7889      7762      7879      7891     17627     17723     17669      7761
 -2      7878      7890     17629     17725     17671
 -1      2116    5    0    1
 -2      7778      7823      7907      7780      7825      7909     17468     17726     17729      7779
 -2      7824      7908     17470     17728     17731
 -1      2117    5    0    1
 -2      7811      7814      7910      7813      7816      7912     17645     17732     17735      7812
 -2      7815      7911     17647     17734     17737
 -1      2118    5    0    1
 -2      7805      7811      7910      7807      7813      7912     17429     17735     17738      7806
 -2      7812      7911     17431     17737     17740
 -1      2119    5    0    1
 -2      7814      7778      7910      7816      7780      7912     17453     17741     17732      7815
 -2      7779      7911     17455     17743     17734
 -1      2120    5    0    1
 -2      7841      7793      7913      7843      7795      7915     17522     17744     17747      7842
 -2      7794      7914     17524     17746     17749
 -1      2121    5    0    1
 -2      7793      7904      7913      7795      7906      7915     17720     17750     17744      7794
 -2      7905      7914     17722     17752     17746
 -1      2122    5    0    1
 -2      7817      7775      7916      7819      7777      7918     17450     17753     17756      7818
 -2      7776      7917     17452     17755     17758
 -1      2123    5    0    1
 -2      7838      7805      7907      7840      7807      7909     17507     17759     17762      7839
 -2      7806      7908     17509     17761     17764
 -1      2124    5    0    1
 -2      7790      7889      7901      7792      7891      7903     17675     17765     17708      7791
 -2      7890      7902     17677     17767     17710
 -1      2125    5    0    1
 -2      7802      7901      7835      7804      7903      7837     17711     17768     17501      7803
 -2      7902      7836     17713     17770     17503
 -1      2126    5    0    1
 -2      7916      7775      7919      7918      7777      7921     17753     17771     17774      7917
 -2      7776      7920     17755     17773     17776
 -1      2127    5    0    1
 -2      7775      7826      7919      7777      7828      7921     17477     17777     17771      7776
 -2      7827      7920     17479     17779     17773
 -1      2128    5    0    1
 -2      7778      7907      7910      7780      7909      7912     17729     17780     17741      7779
 -2      7908      7911     17731     17782     17743
 -1      2129    5    0    1
 -2      7835      7901      7922      7837      7903      7924     17768     17783     17786      7836
 -2      7902      7923     17770     17785     17788
 -1      2130    5    0    1
 -2      7823      7817      7925      7825      7819      7927     17471     17789     17792      7824
 -2      7818      7926     17473     17791     17794
 -1      2131    5    0    1
 -2      7817      7916      7925      7819      7918      7927     17756     17795     17789      7818
 -2      7917      7926     17758     17797     17791
 -1      2132    5    0    1
 -2      7832      7769      7898      7834      7771      7900     17498     17714     17798      7833
 -2      7770      7899     17500     17716     17800
 -1      2133    5    0    1
 -2      7784      7835      7898      7786      7837      7900     17678     17801     17702      7785
 -2      7836      7899     17680     17803     17704
 -1      2134    5    0    1
 -2      7892      7841      7913      7894      7843      7915     17687     17747     17804      7893
 -2      7842      7914     17689     17749     17806
 -1      2135    5    0    1
 -2      7847      7844      7928      7849      7846      7930     17537     17807     17810      7848
 -2      7845      7929     17539     17809     17812
 -1      2136    5    0    1
 -2      7898      7835      7931      7900      7837      7933     17801     17813     17816      7899
 -2      7836      7932     17803     17815     17818
 -1      2137    5    0    1
 -2      7832      7898      7931      7834      7900      7933     17798     17816     17819      7833
 -2      7899      7932     17800     17818     17821
 -1      2138    5    0    1
 -2      7835      7922      7931      7837      7924      7933     17786     17822     17813      7836
 -2      7923      7932     17788     17824     17815
 -1      2139    5    0    1
 -2      7904      7820      7934      7906      7822      7936     17717     17825     17828      7905
 -2      7821      7935     17719     17827     17830
 -1      2140    5    0    1
 -2      7820      7883      7934      7822      7885      7936     17654     16676     17825      7821
 -2      7884      7935     17656     16678     17827
 -1      2141    5    0    1
 -2      7907      7823      7928      7909      7825      7930     17726     17831     17834      7908
 -2      7824      7929     17728     17833     17836
 -1      2142    5    0    1
 -2      7850      7847      7925      7852      7849      7927     17546     17837     17840      7851
 -2      7848      7926     17548     17839     17842
 -1      2143    5    0    1
 -2      7853      7850      7925      7855      7852      7927     17555     17840     17843      7854
 -2      7851      7926     17557     17842     17845
 -1      2144    5    0    1
 -2      7856      7853      7916      7858      7855      7918     17564     17846     17849      7857
 -2      7854      7917     17566     17848     17851
 -1      2145    5    0    1
 -2      7859      7739      7937      7861      7741      7939     17567     17576     16790      7860
 -2      7740      7938     17569     17578     16792
 -1      2146    5    0    1
 -2      7862      7859      7895      7864      7861      7897     17585     17852     17855      7863
 -2      7860      7896     17587     17854     17857
 -1      2147    5    0    1
 -2      7865      7862      7895      7867      7864      7897     17594     17855     17858      7866
 -2      7863      7896     17596     17857     17860
 -1      2148    5    0    1
 -2      7868      7865      7892      7870      7867      7894     17603     17861     17864      7869
 -2      7866      7893     17605     17863     17866
 -1      2149    5    0    1
 -2      7871      7868      7913      7873      7870      7915     17612     17867     17870      7872
 -2      7869      7914     17614     17869     17872
 -1      2150    5    0    1
 -2      7871      7904      7874      7873      7906      7876     17873     17876     17621      7872
 -2      7905      7875     17875     17878     17623
 -1      2151    5    0    1
 -2      7877      7874      7934      7879      7876      7936     17630     17879     17882      7878
 -2      7875      7935     17632     17881     17884
 -1      2152    5    0    1
 -2      7808      7838      7787      7810      7840      7789     17684     17885     17681      7809
 -2      7839      7788     17686     17887     17683
 -1      2153    5    0    1
 -2      7838      7907      7928      7840      7909      7930     17762     17834     17888      7839
 -2      7908      7929     17764     17836     17890
 -1      2154    5    0    1
 -2      7826      7799      7940      7828      7801      7942     17648     17891     17894      7827
 -2      7800      7941     17650     17893     17896
 -1      2155    5    0    1
 -2      7919      7826      7940      7921      7828      7942     17777     17894     17897      7920
 -2      7827      7941     17779     17896     17899
 -1      2156    5    0    1
 -2      7799      7895      7940      7801      7897      7942     17696     17900     17891      7800
 -2      7896      7941     17698     17902     17893
 -1      2157    5    0    1
 -2      7916      7853      7925      7918      7855      7927     17846     17843     17795      7917
 -2      7854      7926     17848     17845     17797
 -1      2158    5    0    1
 -2      7868      7892      7913      7870      7894      7915     17864     17804     17867      7869
 -2      7893      7914     17866     17806     17869
 -1      2159    5    0    1
 -2      7892      7865      7895      7894      7867      7897     17861     17858     17699      7893
 -2      7866      7896     17863     17860     17701
 -1      2160    5    0    1
 -2      7883      7832      7931      7885      7834      7933     17657     17819     16679      7884
 -2      7833      7932     17659     17821     16681
 -1      2161    5    0    1
 -2      7823      7925      7928      7825      7927      7930     17792     17903     17831      7824
 -2      7926      7929     17794     17905     17833
 -1      2162    5    0    1
 -2      7829      7886      7880      7831      7888      7882     17663     17906     17642      7830
 -2      7887      7881     17665     17908     17644
 -1      2163    5    0    1
 -2      7925      7847      7928      7927      7849      7930     17837     17810     17903      7926
 -2      7848      7929     17839     17812     17905
 -1      2164    5    0    1
 -2      7889      7877      7922      7891      7879      7924     17723     17909     17912      7890
 -2      7878      7923     17725     17911     17914
 -1      2165    5    0    1
 -2      7856      7916      7919      7858      7918      7921     17849     17774     17915      7857
 -2      7917      7920     17851     17776     17917
 -1      2166    5    0    1
 -2      7805      7910      7907      7807      7912      7909     17738     17780     17759      7806
 -2      7911      7908     17740     17782     17761
 -1      2167    5    0    1
 -2      7787      7838      7886      7789      7840      7888     17885     17918     17666      7788
 -2      7839      7887     17887     17920     17668
 -1      2168    5    0    1
 -2      7877      7934      7922      7879      7936      7924     17882     17921     17909      7878
 -2      7935      7923     17884     17923     17911
 -1      2169    5    0    1
 -2      7838      7928      7886      7840      7930      7888     17888     17924     17918      7839
 -2      7929      7887     17890     17926     17920
 -1      2170    5    0    1
 -2      7934      7874      7904      7936      7876      7906     17879     17876     17828      7935
 -2      7875      7905     17881     17878     17830
 -1      2171    5    0    1
 -2      7895      7859      7940      7897      7861      7942     17852     16796     17900      7896
 -2      7860      7941     17854     16798     17902
 -1      2172    5    0    1
 -2      7871      7913      7904      7873      7915      7906     17870     17750     17873      7872
 -2      7914      7905     17872     17752     17875
 -1      2173    5    0    1
 -2      7901      7889      7922      7903      7891      7924     17765     17912     17783      7902
 -2      7890      7923     17767     17914     17785
 -1      2174    5    0    1
 -2      7922      7934      7931      7924      7936      7933     17921     16673     17822      7923
 -2      7935      7932     17923     16675     17824
 -1      2175    5    0    1
 -2      7919      7940      7937      7921      7942      7939     17897     16793     17927      7920
 -2      7941      7938     17899     16795     17929
 -1      2176    5    0    1
 -2      7844      7880      7928      7846      7882      7930     17639     17930     17807      7845
 -2      7881      7929     17641     17932     17809
 -1      2177    5    0    1
 -2      7937      7856      7919      7939      7858      7921     17573     17915     17927      7938
 -2      7857      7920     17575     17917     17929
 -1      2178    5    0    1
 -2      7880      7886      7928      7882      7888      7930     17906     17924     17930      7881
 -2      7887      7929     17908     17926     17932
 -3
    1PSTEP                         1           1           1          
  100CL  101 1.000000000       10119                     0    1           1
 -4  DISP        4    1
 -5  D1          1    2    1    0
 -5  D2          1    2    2    0
 -5  D3          1    2    3    0
 -5  ALL         1    2    0    0    1ALL
 -1      4484 1.68228E-04-8.89082E-06-2.93643E-06
 -1      4485 1.68253E-04-8.89082E-06 1.03022E-20
 -1      4486 1.68228E-04-8.89082E-06 2.93643E-06
 -1      4487 1.68225E-04 0.00000E+00-2.93638E-06
 -1      4488 1.68251E-04 0.00000E+00 1.03021E-20
 -1      4489 1.68225E-04 0.00000E+00 2.93638E-06
 -1      4490 6.34824E-05 0.00000E+00-1.10809E-06
 -1      4491 6.34921E-05 0.00000E+00 3.88764E-21
 -1      4492 6.34824E-05 0.00000E+00 1.10809E-06
 -1      4493 6.34824E-05-8.88888E-06-1.10809E-06
 -1      4494 6.34921E-05-8.88888E-06 3.88764E-21
 -1      4495 6.34824E-05-8.88888E-06 1.10809E-06
 -1      4496 1.68224E-04-8.53401E-06-2.93637E-06
 -1      4497 1.68250E-04-8.53401E-06 1.03020E-20
 -1      4498 1.68224E-04-8.53401E-06 2.93637E-06
 -1      4499 1.68226E-04-8.17822E-06-2.93640E-06
 -1      4500 1.68252E-04-8.17822E-06 1.03021E-20
 -1      4501 1.68226E-04-8.17822E-06 2.93640E-06
 -1      4502 1.68226E-04-7.82244E-06-2.93639E-06
 -1      4503 1.68251E-04-7.82244E-06 1.03021E-20
 -1      4504 1.68226E-04-7.82244E-06 2.93639E-06
 -1      4505 1.68226E-04-7.46676E-06-2.93639E-06
 -1      4506 1.68251E-04-7.46676E-06 1.03021E-20
 -1      4507 1.68226E-04-7.46676E-06 2.93639E-06
 -1      4508 1.68226E-04-7.11114E-06-2.93639E-06
 -1      4509 1.68251E-04-7.11114E-06 1.03021E-20
 -1      4510 1.68226E-04-7.11114E-06 2.93639E-06
 -1      4511 1.68226E-04-6.75554E-06-2.93639E-06
 -1      4512 1.68251E-04-6.75554E-06 1.03021E-20
 -1      4513 1.68226E-04-6.75554E-06 2.93639E-06
 -1      4514 1.68226E-04-6.39996E-06-2.93639E-06
 -1      4515 1.68252E-04-6.39996E-06 1.03021E-20
 -1      4516 1.68226E-04-6.39996E-06 2.93639E-06
 -1      4517 1.68226E-04-6.04441E-06-2.93639E-06
 -1      4518 1.68252E-04-6.04441E-06 1.03021E-20
 -1      4519 1.68226E-04-6.04441E-06 2.93639E-06
 -1      4520 1.68226E-04-5.68886E-06-2.93639E-06
 -1      4521 1.68252E-04-5.68886E-06 1.03021E-20
 -1      4522 1.68226E-04-5.68886E-06 2.93639E-06
 -1      4523 1.68226E-04-5.33331E-06-2.93640E-06
 -1      4524 1.68252E-04-5.33331E-06 1.03021E-20
 -1      4525 1.68226E-04-5.33331E-06 2.93640E-06
 -1      4526 1.68226E-04-4.97777E-06-2.93640E-06
 -1      4527 1.68252E-04-4.97777E-06 1.03021E-20
 -1      4528 1.68226E-04-4.97777E-06 2.93640E-06
 -1      4529 1.68226E-04-4.62222E-06-2.93640E-06
 -1      4530 1.68252E-04-4.62222E-06 1.03021E-20
 -1      4531 1.68226E-04-4.62222E-06 2.93640E-06
 -1      4532 1.68226E-04-4.26666E-06-2.93640E-06
 -1      4533 1.68252E-04-4.26666E-06 1.03021E-20
 -1      4534 1.68226E-04-4.26666E-06 2.93640E-06
 -1      4535 1.68226E-04-3.91111E-06-2.93640E-06
 -1      4536 1.68252E-04-3.91111E-06 1.03021E-20
 -1      4537 1.68226E-04-3.91111E-06 2.93640E-06
 -1      4538 1.68226E-04-3.55555E-06-2.93640E-06
 -1      4539 1.68252E-04-3.55555E-06 1.03021E-20
 -1      4540 1.68226E-04-3.55555E-06 2.93640E-06
 -1      4541 1.68226E-04-3.19999E-06-2.93640E-06
 -1      4542 1.68252E-04-3.19999E-06 1.03021E-20
 -1      4543 1.68226E-04-3.19999E-06 2.93640E-06
 -1      4544 1.68226E-04-2.84443E-06-2.93640E-06
 -1      4545 1.68252E-04-2.84443E-06 1.03021E-20
 -1      4546 1.68226E-04-2.84443E-06 2.93640E-06
 -1      4547 1.68226E-04-2.48889E-06-2.93640E-06
 -1      4548 1.68252E-04-2.48889E-06 1.03021E-20
 -1      4549 1.68226E-04-2.48889E-06 2.93640E-06
 -1      4550 1.68226E-04-2.13335E-06-2.93640E-06
 -1      4551 1.68252E-04-2.13335E-06 1.03021E-20
 -1      4552 1.68226E-04-2.13335E-06 2.93640E-06
 -1      4553 1.68226E-04-1.77782E-06-2.93640E-06
 -1      4554 1.68252E-04-1.77782E-06 1.03021E-20
 -1      4555 1.68226E-04-1.77782E-06 2.93640E-06
 -1      4556 1.68226E-04-1.42228E-06-2.93639E-06
 -1      4557 1.68252E-04-1.42228E-06 1.03021E-20
 -1      4558 1.68226E-04-1.42228E-06 2.93639E-06
 -1      4559 1.68226E-04-1.06674E-06-2.93639E-06
 -1      4560 1.68252E-04-1.06674E-06 1.03021E-20
 -1      4561 1.68226E-04-1.06674E-06 2.93639E-06
 -1      4562 1.68226E-04-7.11240E-07-2.93639E-06
 -1      4563 1.68251E-04-7.11240E-07 1.03021E-20
 -1      4564 1.68226E-04-7.11240E-07 2.93639E-06
 -1      4565 1.68226E-04-3.56258E-07-2.93640E-06
 -1      4566 1.68252E-04-3.56258E-07 1.03021E-20
 -1      4567 1.68226E-04-3.56258E-07 2.93640E-06
 -1      4568 1.56514E-04 0.00000E+00-2.73196E-06
 -1      4569 1.56538E-04 0.00000E+00 9.58486E-21
 -1      4570 1.56514E-04 0.00000E+00 2.73196E-06
 -1      4571 1.46842E-04 0.00000E+00-2.56314E-06
 -1      4572 1.46865E-04 0.00000E+00 8.99258E-21
 -1      4573 1.46842E-04 0.00000E+00 2.56314E-06
 -1      4574 1.38446E-04 0.00000E+00-2.41658E-06
 -1      4575 1.38467E-04 0.00000E+00 8.47836E-21
 -1      4576 1.38446E-04 0.00000E+00 2.41658E-06
 -1      4577 1.30835E-04 0.00000E+00-2.28373E-06
 -1      4578 1.30854E-04 0.00000E+00 8.01226E-21
 -1      4579 1.30835E-04 0.00000E+00 2.28373E-06
 -1      4580 1.24391E-04 0.00000E+00-2.17125E-06
 -1      4581 1.24410E-04 0.00000E+00 7.61764E-21
 -1      4582 1.24391E-04 0.00000E+00 2.17125E-06
 -1      4583 1.18676E-04 0.00000E+00-2.07150E-06
 -1      4584 1.18694E-04 0.00000E+00 7.26767E-21
 -1      4585 1.18676E-04 0.00000E+00 2.07150E-06
 -1      4586 1.13396E-04 0.00000E+00-1.97933E-06
 -1      4587 1.13413E-04 0.00000E+00 6.94431E-21
 -1      4588 1.13396E-04 0.00000E+00 1.97933E-06
 -1      4589 1.08849E-04 0.00000E+00-1.89997E-06
 -1      4590 1.08866E-04 0.00000E+00 6.66589E-21
 -1      4591 1.08849E-04 0.00000E+00 1.89997E-06
 -1      4592 1.04758E-04 0.00000E+00-1.82856E-06
 -1      4593 1.04774E-04 0.00000E+00 6.41535E-21
 -1      4594 1.04758E-04 0.00000E+00 1.82856E-06
 -1      4595 1.00928E-04 0.00000E+00-1.76170E-06
 -1      4596 1.00943E-04 0.00000E+00 6.18077E-21
 -1      4597 1.00928E-04 0.00000E+00 1.76170E-06
 -1      4598 9.75905E-05 0.00000E+00-1.70345E-06
 -1      4599 9.76053E-05 0.00000E+00 5.97641E-21
 -1      4600 9.75905E-05 0.00000E+00 1.70345E-06
 -1      4601 9.45563E-05 0.00000E+00-1.65049E-06
 -1      4602 9.45707E-05 0.00000E+00 5.79059E-21
 -1      4603 9.45563E-05 0.00000E+00 1.65049E-06
 -1      4604 9.16886E-05 0.00000E+00-1.60043E-06
 -1      4605 9.17026E-05 0.00000E+00 5.61498E-21
 -1      4606 9.16886E-05 0.00000E+00 1.60043E-06
 -1      4607 8.91691E-05 0.00000E+00-1.55645E-06
 -1      4608 8.91827E-05 0.00000E+00 5.46069E-21
 -1      4609 8.91691E-05 0.00000E+00 1.55645E-06
 -1      4610 8.68613E-05 0.00000E+00-1.51617E-06
 -1      4611 8.68746E-05 0.00000E+00 5.31936E-21
 -1      4612 8.68613E-05 0.00000E+00 1.51617E-06
 -1      4613 8.46655E-05 0.00000E+00-1.47784E-06
 -1      4614 8.46784E-05 0.00000E+00 5.18488E-21
 -1      4615 8.46655E-05 0.00000E+00 1.47784E-06
 -1      4616 8.27246E-05 0.00000E+00-1.44396E-06
 -1      4617 8.27371E-05 0.00000E+00 5.06602E-21
 -1      4618 8.27246E-05 0.00000E+00 1.44396E-06
 -1      4619 8.09374E-05 0.00000E+00-1.41277E-06
 -1      4620 8.09497E-05 0.00000E+00 4.95658E-21
 -1      4621 8.09374E-05 0.00000E+00 1.41277E-06
 -1      4622 7.92895E-05 0.00000E+00-1.38400E-06
 -1      4623 7.93016E-05 0.00000E+00 4.85566E-21
 -1      4624 7.92895E-05 0.00000E+00 1.38400E-06
 -1      4625 7.77122E-05 0.00000E+00-1.35647E-06
 -1      4626 7.77240E-05 0.00000E+00 4.75907E-21
 -1      4627 7.77122E-05 0.00000E+00 1.35647E-06
 -1      4628 7.63108E-05 0.00000E+00-1.33201E-06
 -1      4629 7.63224E-05 0.00000E+00 4.67325E-21
 -1      4630 7.63108E-05 0.00000E+00 1.33201E-06
 -1      4631 7.50146E-05 0.00000E+00-1.30939E-06
 -1      4632 7.50261E-05 0.00000E+00 4.59387E-21
 -1      4633 7.50146E-05 0.00000E+00 1.30939E-06
 -1      4634 7.37707E-05 0.00000E+00-1.28767E-06
 -1      4635 7.37820E-05 0.00000E+00 4.51769E-21
 -1      4636 7.37707E-05 0.00000E+00 1.28767E-06
 -1      4637 7.26631E-05 0.00000E+00-1.26834E-06
 -1      4638 7.26741E-05 0.00000E+00 4.44986E-21
 -1      4639 7.26631E-05 0.00000E+00 1.26834E-06
 -1      4640 7.16369E-05 0.00000E+00-1.25043E-06
 -1      4641 7.16478E-05 0.00000E+00 4.38702E-21
 -1      4642 7.16369E-05 0.00000E+00 1.25043E-06
 -1      4643 7.06509E-05 0.00000E+00-1.23322E-06
 -1      4644 7.06616E-05 0.00000E+00 4.32663E-21
 -1      4645 7.06509E-05 0.00000E+00 1.23322E-06
 -1      4646 6.97721E-05 0.00000E+00-1.21788E-06
 -1      4647 6.97827E-05 0.00000E+00 4.27282E-21
 -1      4648 6.97721E-05 0.00000E+00 1.21788E-06
 -1      4649 6.89577E-05 0.00000E+00-1.20366E-06
 -1      4650 6.89682E-05 0.00000E+00 4.22295E-21
 -1      4651 6.89577E-05 0.00000E+00 1.20366E-06
 -1      4652 6.81752E-05 0.00000E+00-1.19000E-06
 -1      4653 6.81856E-05 0.00000E+00 4.17502E-21
 -1      4654 6.81752E-05 0.00000E+00 1.19000E-06
 -1      4655 6.74782E-05 0.00000E+00-1.17784E-06
 -1      4656 6.74885E-05 0.00000E+00 4.13234E-21
 -1      4657 6.74782E-05 0.00000E+00 1.17784E-06
 -1      4658 6.68330E-05 0.00000E+00-1.16657E-06
 -1      4659 6.68431E-05 0.00000E+00 4.09283E-21
 -1      4660 6.68330E-05 0.00000E+00 1.16657E-06
 -1      4661 6.62139E-05 0.00000E+00-1.15577E-06
 -1      4662 6.62240E-05 0.00000E+00 4.05492E-21
 -1      4663 6.62139E-05 0.00000E+00 1.15577E-06
 -1      4664 6.56637E-05 0.00000E+00-1.14616E-06
 -1      4665 6.56737E-05 0.00000E+00 4.02122E-21
 -1      4666 6.56637E-05 0.00000E+00 1.14616E-06
 -1      4667 6.51557E-05 0.00000E+00-1.13730E-06
 -1      4668 6.51656E-05 0.00000E+00 3.99011E-21
 -1      4669 6.51557E-05 0.00000E+00 1.13730E-06
 -1      4670 6.46699E-05 0.00000E+00-1.12882E-06
 -1      4671 6.46798E-05 0.00000E+00 3.96036E-21
 -1      4672 6.46699E-05 0.00000E+00 1.12882E-06
 -1      4673 6.42399E-05 0.00000E+00-1.12131E-06
 -1      4674 6.42497E-05 0.00000E+00 3.93403E-21
 -1      4675 6.42399E-05 0.00000E+00 1.12131E-06
 -1      4676 6.38448E-05 0.00000E+00-1.11441E-06
 -1      4677 6.38545E-05 0.00000E+00 3.90983E-21
 -1      4678 6.38448E-05 0.00000E+00 1.11441E-06
 -1      4679 6.34824E-05-3.55554E-07-1.10809E-06
 -1      4680 6.34921E-05-3.55554E-07 3.88764E-21
 -1      4681 6.34824E-05-3.55554E-07 1.10809E-06
 -1      4682 6.34824E-05-7.11111E-07-1.10809E-06
 -1      4683 6.34921E-05-7.11111E-07 3.88764E-21
 -1      4684 6.34824E-05-7.11111E-07 1.10809E-06
 -1      4685 6.34824E-05-1.06667E-06-1.10809E-06
 -1      4686 6.34921E-05-1.06667E-06 3.88764E-21
 -1      4687 6.34824E-05-1.06667E-06 1.10809E-06
 -1      4688 6.34824E-05-1.42222E-06-1.10809E-06
 -1      4689 6.34921E-05-1.42222E-06 3.88764E-21
 -1      4690 6.34824E-05-1.42222E-06 1.10809E-06
 -1      4691 6.34824E-05-1.77778E-06-1.10809E-06
 -1      4692 6.34921E-05-1.77778E-06 3.88764E-21
 -1      4693 6.34824E-05-1.77778E-06 1.10809E-06
 -1      4694 6.34824E-05-2.13333E-06-1.10809E-06
 -1      4695 6.34921E-05-2.13333E-06 3.88764E-21
 -1      4696 6.34824E-05-2.13333E-06 1.10809E-06
 -1      4697 6.34824E-05-2.48889E-06-1.10809E-06
 -1      4698 6.34921E-05-2.48889E-06 3.88764E-21
 -1      4699 6.34824E-05-2.48889E-06 1.10809E-06
 -1      4700 6.34824E-05-2.84444E-06-1.10809E-06
 -1      4701 6.34921E-05-2.84444E-06 3.88764E-21
 -1      4702 6.34824E-05-2.84444E-06 1.10809E-06
 -1      4703 6.34824E-05-3.20000E-06-1.10809E-06
 -1      4704 6.34921E-05-3.20000E-06 3.88764E-21
 -1      4705 6.34824E-05-3.20000E-06 1.10809E-06
 -1      4706 6.34824E-05-3.55555E-06-1.10809E-06
 -1      4707 6.34921E-05-3.55555E-06 3.88764E-21
 -1      4708 6.34824E-05-3.55555E-06 1.10809E-06
 -1      4709 6.34824E-05-3.91111E-06-1.10809E-06
 -1      4710 6.34921E-05-3.91111E-06 3.88764E-21
 -1      4711 6.34824E-05-3.91111E-06 1.10809E-06
 -1      4712 6.34824E-05-4.26667E-06-1.10809E-06
 -1      4713 6.34921E-05-4.26667E-06 3.88764E-21
 -1      4714 6.34824E-05-4.26667E-06 1.10809E-06
 -1      4715 6.34824E-05-4.62222E-06-1.10809E-06
 -1      4716 6.34921E-05-4.62222E-06 3.88764E-21
 -1      4717 6.34824E-05-4.62222E-06 1.10809E-06
 -1      4718 6.34824E-05-4.97778E-06-1.10809E-06
 -1      4719 6.34921E-05-4.97778E-06 3.88764E-21
 -1      4720 6.34824E-05-4.97778E-06 1.10809E-06
 -1      4721 6.34824E-05-5.33333E-06-1.10809E-06
 -1      4722 6.34921E-05-5.33333E-06 3.88764E-21
 -1      4723 6.34824E-05-5.33333E-06 1.10809E-06
 -1      4724 6.34824E-05-5.68889E-06-1.10809E-06
 -1      4725 6.34921E-05-5.68889E-06 3.88764E-21
 -1      4726 6.34824E-05-5.68889E-06 1.10809E-06
 -1      4727 6.34824E-05-6.04444E-06-1.10809E-06
 -1      4728 6.34921E-05-6.04444E-06 3.88764E-21
 -1      4729 6.34824E-05-6.04444E-06 1.10809E-06
 -1      4730 6.34824E-05-6.40000E-06-1.10809E-06
 -1      4731 6.34921E-05-6.40000E-06 3.88764E-21
 -1      4732 6.34824E-05-6.40000E-06 1.10809E-06
 -1      4733 6.34824E-05-6.75555E-06-1.10809E-06
 -1      4734 6.34921E-05-6.75555E-06 3.88764E-21
 -1      4735 6.34824E-05-6.75555E-06 1.10809E-06
 -1      4736 6.34824E-05-7.11111E-06-1.10809E-06
 -1      4737 6.34921E-05-7.11111E-06 3.88764E-21
 -1      4738 6.34824E-05-7.11111E-06 1.10809E-06
 -1      4739 6.34824E-05-7.46667E-06-1.10809E-06
 -1      4740 6.34921E-05-7.46667E-06 3.88764E-21
 -1      4741 6.34824E-05-7.46667E-06 1.10809E-06
 -1      4742 6.34824E-05-7.82222E-06-1.10809E-06
 -1      4743 6.34921E-05-7.82222E-06 3.88764E-21
 -1      4744 6.34824E-05-7.82222E-06 1.10809E-06
 -1      4745 6.34824E-05-8.17778E-06-1.10809E-06
 -1      4746 6.34921E-05-8.17778E-06 3.88764E-21
 -1      4747 6.34824E-05-8.17778E-06 1.10809E-06
 -1      4748 6.34824E-05-8.53333E-06-1.10809E-06
 -1      4749 6.34921E-05-8.53333E-06 3.88764E-21
 -1      4750 6.34824E-05-8.53333E-06 1.10809E-06
 -1      4751 1.56515E-04-8.88674E-06-2.73198E-06
 -1      4752 1.56539E-04-8.88674E-06 9.58494E-21
 -1      4753 1.56515E-04-8.88674E-06 2.73198E-06
 -1      4754 1.46842E-04-8.88811E-06-2.56313E-06
 -1      4755 1.46864E-04-8.88811E-06 8.99254E-21
 -1      4756 1.46842E-04-8.88811E-06 2.56313E-06
 -1      4757 1.38446E-04-8.88819E-06-2.41658E-06
 -1      4758 1.38467E-04-8.88819E-06 8.47838E-21
 -1      4759 1.38446E-04-8.88819E-06 2.41658E-06
 -1      4760 1.30835E-04-8.88826E-06-2.28373E-06
 -1      4761 1.30855E-04-8.88826E-06 8.01227E-21
 -1      4762 1.30835E-04-8.88826E-06 2.28373E-06
 -1      4763 1.24391E-04-8.88842E-06-2.17125E-06
 -1      4764 1.24410E-04-8.88842E-06 7.61764E-21
 -1      4765 1.24391E-04-8.88842E-06 2.17125E-06
 -1      4766 1.18676E-04-8.88849E-06-2.07150E-06
 -1      4767 1.18694E-04-8.88849E-06 7.26768E-21
 -1      4768 1.18676E-04-8.88849E-06 2.07150E-06
 -1      4769 1.13396E-04-8.88856E-06-1.97933E-06
 -1      4770 1.13413E-04-8.88856E-06 6.94431E-21
 -1      4771 1.13396E-04-8.88856E-06 1.97933E-06
 -1      4772 1.08849E-04-8.88863E-06-1.89997E-06
 -1      4773 1.08866E-04-8.88863E-06 6.66589E-21
 -1      4774 1.08849E-04-8.88863E-06 1.89997E-06
 -1      4775 1.04758E-04-8.88866E-06-1.82856E-06
 -1      4776 1.04774E-04-8.88866E-06 6.41535E-21
 -1      4777 1.04758E-04-8.88866E-06 1.82856E-06
 -1      4778 1.00928E-04-8.88870E-06-1.76170E-06
 -1      4779 1.00943E-04-8.88870E-06 6.18077E-21
 -1      4780 1.00928E-04-8.88870E-06 1.76170E-06
 -1      4781 9.75905E-05-8.88874E-06-1.70345E-06
 -1      4782 9.76054E-05-8.88874E-06 5.97641E-21
 -1      4783 9.75905E-05-8.88874E-06 1.70345E-06
 -1      4784 9.45563E-05-8.88876E-06-1.65049E-06
 -1      4785 9.45707E-05-8.88876E-06 5.79059E-21
 -1      4786 9.45563E-05-8.88876E-06 1.65049E-06
 -1      4787 9.16886E-05-8.88878E-06-1.60043E-06
 -1      4788 9.17026E-05-8.88878E-06 5.61498E-21
 -1      4789 9.16886E-05-8.88878E-06 1.60043E-06
 -1      4790 8.91691E-05-8.88880E-06-1.55645E-06
 -1      4791 8.91827E-05-8.88880E-06 5.46069E-21
 -1      4792 8.91691E-05-8.88880E-06 1.55645E-06
 -1      4793 8.68614E-05-8.88881E-06-1.51617E-06
 -1      4794 8.68746E-05-8.88881E-06 5.31936E-21
 -1      4795 8.68614E-05-8.88881E-06 1.51617E-06
 -1      4796 8.46655E-05-8.88882E-06-1.47784E-06
 -1      4797 8.46784E-05-8.88882E-06 5.18488E-21
 -1      4798 8.46655E-05-8.88882E-06 1.47784E-06
 -1      4799 8.27246E-05-8.88883E-06-1.44396E-06
 -1      4800 8.27372E-05-8.88883E-06 5.06602E-21
 -1      4801 8.27246E-05-8.88883E-06 1.44396E-06
 -1      4802 8.09374E-05-8.88884E-06-1.41277E-06
 -1      4803 8.09497E-05-8.88884E-06 4.95658E-21
 -1      4804 8.09374E-05-8.88884E-06 1.41277E-06
 -1      4805 7.92895E-05-8.88884E-06-1.38400E-06
 -1      4806 7.93016E-05-8.88884E-06 4.85566E-21
 -1      4807 7.92895E-05-8.88884E-06 1.38400E-06
 -1      4808 7.77122E-05-8.88885E-06-1.35647E-06
 -1      4809 7.77240E-05-8.88885E-06 4.75907E-21
 -1      4810 7.77122E-05-8.88885E-06 1.35647E-06
 -1      4811 7.63108E-05-8.88885E-06-1.33201E-06
 -1      4812 7.63224E-05-8.88885E-06 4.67325E-21
 -1      4813 7.63108E-05-8.88885E-06 1.33201E-06
 -1      4814 7.50146E-05-8.88885E-06-1.30939E-06
 -1      4815 7.50261E-05-8.88885E-06 4.59387E-21
 -1      4816 7.50146E-05-8.88885E-06 1.30939E-06
 -1      4817 7.37707E-05-8.88886E-06-1.28767E-06
 -1      4818 7.37820E-05-8.88886E-06 4.51769E-21
 -1      4819 7.37707E-05-8.88886E-06 1.28767E-06
 -1      4820 7.26631E-05-8.88886E-06-1.26834E-06
 -1      4821 7.26741E-05-8.88886E-06 4.44986E-21
 -1      4822 7.26631E-05-8.88886E-06 1.26834E-06
 -1      4823 7.16369E-05-8.88886E-06-1.25043E-06
 -1      4824 7.16478E-05-8.88886E-06 4.38702E-21
 -1      4825 7.16369E-05-8.88886E-06 1.25043E-06
 -1      4826 7.06509E-05-8.88887E-06-1.23322E-06
 -1      4827 7.06616E-05-8.88887E-06 4.32663E-21
 -1      4828 7.06509E-05-8.88887E-06 1.23322E-06
 -1      4829 6.97721E-05-8.88887E-06-1.21788E-06
 -1      4830 6.97827E-05-8.88887E-06 4.27282E-21
 -1      4831 6.97721E-05-8.88887E-06 1.21788E-06
 -1      4832 6.89577E-05-8.88887E-06-1.20366E-06
 -1      4833 6.89682E-05-8.88887E-06 4.22295E-21
 -1      4834 6.89577E-05-8.88887E-06 1.20366E-06
 -1      4835 6.81752E-05-8.88887E-06-1.19000E-06
 -1      4836 6.81856E-05-8.88887E-06 4.17502E-21
 -1      4837 6.81752E-05-8.88887E-06 1.19000E-06
 -1      4838 6.74782E-05-8.88887E-06-1.17784E-06
 -1      4839 6.74885E-05-8.88887E-06 4.13234E-21
 -1      4840 6.74782E-05-8.88887E-06 1.17784E-06
 -1      4841 6.68330E-05-8.88887E-06-1.16657E-06
 -1      4842 6.68431E-05-8.88887E-06 4.09283E-21
 -1      4843 6.68330E-05-8.88887E-06 1.16657E-06
 -1      4844 6.62139E-05-8.88888E-06-1.15577E-06
 -1      4845 6.62240E-05-8.88888E-06 4.05492E-21
 -1      4846 6.62139E-05-8.88888E-06 1.15577E-06
 -1      4847 6.56637E-05-8.88888E-06-1.14616E-06
 -1      4848 6.56737E-05-8.88888E-06 4.02122E-21
 -1      4849 6.56637E-05-8.88888E-06 1.14616E-06
 -1      4850 6.51557E-05-8.88888E-06-1.13730E-06
 -1      4851 6.51656E-05-8.88888E-06 3.99011E-21
 -1      4852 6.51557E-05-8.88888E-06 1.13730E-06
 -1      4853 6.46699E-05-8.88888E-06-1.12882E-06
 -1      4854 6.46798E-05-8.88888E-06 3.96036E-21
 -1      4855 6.46699E-05-8.88888E-06 1.12882E-06
 -1      4856 6.42399E-05-8.88888E-06-1.12131E-06
 -1      4857 6.42497E-05-8.88888E-06 3.93403E-21
 -1      4858 6.42399E-05-8.88888E-06 1.12131E-06
 -1      4859 6.38448E-05-8.88888E-06-1.11441E-06
 -1      4860 6.38545E-05-8.88888E-06 3.90983E-21
 -1      4861 6.38448E-05-8.88888E-06 1.11441E-06
 -1      4862 1.58466E-04-8.41019E-06-2.76604E-06
 -1      4863 1.58490E-04-8.41019E-06 9.70441E-21
 -1      4864 1.58466E-04-8.41019E-06 2.76604E-06
 -1      4865 1.57770E-04-7.66975E-06-2.75388E-06
 -1      4866 1.57794E-04-7.66975E-06 9.66176E-21
 -1      4867 1.57770E-04-7.66975E-06 2.75388E-06
 -1      4868 1.57788E-04-6.94149E-06-2.75419E-06
 -1      4869 1.57812E-04-6.94149E-06 9.66285E-21
 -1      4870 1.57788E-04-6.94149E-06 2.75419E-06
 -1      4871 1.57941E-04-6.22357E-06-2.75686E-06
 -1      4872 1.57965E-04-6.22357E-06 9.67222E-21
 -1      4873 1.57941E-04-6.22357E-06 2.75686E-06
 -1      4874 1.58069E-04-5.51052E-06-2.75911E-06
 -1      4875 1.58093E-04-5.51052E-06 9.68010E-21
 -1      4876 1.58069E-04-5.51052E-06 2.75911E-06
 -1      4877 1.58107E-04-4.79934E-06-2.75976E-06
 -1      4878 1.58131E-04-4.79934E-06 9.68239E-21
 -1      4879 1.58107E-04-4.79934E-06 2.75976E-06
 -1      4880 1.58103E-04-4.08870E-06-2.75969E-06
 -1      4881 1.58127E-04-4.08870E-06 9.68215E-21
 -1      4882 1.58103E-04-4.08870E-06 2.75969E-06
 -1      4883 1.58100E-04-3.37825E-06-2.75965E-06
 -1      4884 1.58125E-04-3.37825E-06 9.68202E-21
 -1      4885 1.58100E-04-3.37825E-06 2.75965E-06
 -1      4886 1.58124E-04-2.66917E-06-2.76007E-06
 -1      4887 1.58148E-04-2.66917E-06 9.68348E-21
 -1      4888 1.58124E-04-2.66917E-06 2.76007E-06
 -1      4889 1.58074E-04-1.96208E-06-2.75920E-06
 -1      4890 1.58099E-04-1.96208E-06 9.68042E-21
 -1      4891 1.58074E-04-1.96208E-06 2.75920E-06
 -1      4892 1.57883E-04-1.26016E-06-2.75586E-06
 -1      4893 1.57907E-04-1.26016E-06 9.66871E-21
 -1      4894 1.57883E-04-1.26016E-06 2.75586E-06
 -1      4895 1.57549E-04-5.73455E-07-2.75002E-06
 -1      4896 1.57573E-04-5.73455E-07 9.64823E-21
 -1      4897 1.57549E-04-5.73455E-07 2.75002E-06
 -1      4898 1.56970E-04-2.59437E-07-2.73992E-06
 -1      4899 1.56994E-04-2.59437E-07 9.61277E-21
 -1      4900 1.56970E-04-2.59437E-07 2.73992E-06
 -1      4901 1.41468E-04-2.63675E-07-2.46934E-06
 -1      4902 1.41490E-04-2.63675E-07 8.66348E-21
 -1      4903 1.41468E-04-2.63675E-07 2.46934E-06
 -1      4904 1.27587E-04-3.00044E-07-2.22704E-06
 -1      4905 1.27607E-04-3.00044E-07 7.81340E-21
 -1      4906 1.27587E-04-3.00044E-07 2.22704E-06
 -1      4907 1.16016E-04-3.12695E-07-2.02507E-06
 -1      4908 1.16034E-04-3.12695E-07 7.10479E-21
 -1      4909 1.16016E-04-3.12695E-07 2.02507E-06
 -1      4910 1.06736E-04-3.09187E-07-1.86309E-06
 -1      4911 1.06753E-04-3.09187E-07 6.53650E-21
 -1      4912 1.06736E-04-3.09187E-07 1.86309E-06
 -1      4913 9.92279E-05-3.07559E-07-1.73203E-06
 -1      4914 9.92431E-05-3.07559E-07 6.07668E-21
 -1      4915 9.92279E-05-3.07559E-07 1.73203E-06
 -1      4916 9.30857E-05-3.07178E-07-1.62482E-06
 -1      4917 9.30998E-05-3.07178E-07 5.70053E-21
 -1      4918 9.30857E-05-3.07178E-07 1.62482E-06
 -1      4919 8.79796E-05-3.08050E-07-1.53569E-06
 -1      4920 8.79930E-05-3.08050E-07 5.38784E-21
 -1      4921 8.79796E-05-3.08050E-07 1.53569E-06
 -1      4922 8.36891E-05-3.08145E-07-1.46080E-06
 -1      4923 8.37019E-05-3.08145E-07 5.12509E-21
 -1      4924 8.36891E-05-3.08145E-07 1.46080E-06
 -1      4925 8.00845E-05-3.08195E-07-1.39788E-06
 -1      4926 8.00967E-05-3.08195E-07 4.90434E-21
 -1      4927 8.00845E-05-3.08195E-07 1.39788E-06
 -1      4928 7.70037E-05-3.08186E-07-1.34410E-06
 -1      4929 7.70154E-05-3.08186E-07 4.71568E-21
 -1      4930 7.70037E-05-3.08186E-07 1.34410E-06
 -1      4931 7.43796E-05-3.07571E-07-1.29830E-06
 -1      4932 7.43910E-05-3.07571E-07 4.55498E-21
 -1      4933 7.43796E-05-3.07571E-07 1.29830E-06
 -1      4934 7.21333E-05-3.08773E-07-1.25909E-06
 -1      4935 7.21443E-05-3.08773E-07 4.41742E-21
 -1      4936 7.21333E-05-3.08773E-07 1.25909E-06
 -1      4937 7.02028E-05-3.10323E-07-1.22539E-06
 -1      4938 7.02135E-05-3.10323E-07 4.29919E-21
 -1      4939 7.02028E-05-3.10323E-07 1.22539E-06
 -1      4940 6.85513E-05-3.11723E-07-1.19657E-06
 -1      4941 6.85617E-05-3.11723E-07 4.19805E-21
 -1      4942 6.85513E-05-3.11723E-07 1.19657E-06
 -1      4943 6.71401E-05-3.11390E-07-1.17193E-06
 -1      4944 6.71503E-05-3.11390E-07 4.11164E-21
 -1      4945 6.71401E-05-3.11390E-07 1.17193E-06
 -1      4946 6.59438E-05-2.96087E-07-1.15105E-06
 -1      4947 6.59538E-05-2.96087E-07 4.03837E-21
 -1      4948 6.59438E-05-2.96087E-07 1.15105E-06
 -1      4949 6.49118E-05-3.05301E-07-1.13304E-06
 -1      4950 6.49217E-05-3.05301E-07 3.97517E-21
 -1      4951 6.49118E-05-3.05301E-07 1.13304E-06
 -1      4952 6.39999E-05-3.16981E-07-1.11712E-06
 -1      4953 6.40096E-05-3.16981E-07 3.91933E-21
 -1      4954 6.39999E-05-3.16981E-07 1.11712E-06
 -1      4955 6.37961E-05-5.90452E-07-1.11357E-06
 -1      4956 6.38058E-05-5.90452E-07 3.90685E-21
 -1      4957 6.37961E-05-5.90452E-07 1.11357E-06
 -1      4958 6.38094E-05-1.26100E-06-1.11380E-06
 -1      4959 6.38191E-05-1.26100E-06 3.90766E-21
 -1      4960 6.38094E-05-1.26100E-06 1.11380E-06
 -1      4961 6.37999E-05-1.96902E-06-1.11363E-06
 -1      4962 6.38096E-05-1.96902E-06 3.90708E-21
 -1      4963 6.37999E-05-1.96902E-06 1.11363E-06
 -1      4964 6.38031E-05-2.67207E-06-1.11369E-06
 -1      4965 6.38129E-05-2.67207E-06 3.90728E-21
 -1      4966 6.38031E-05-2.67207E-06 1.11369E-06
 -1      4967 6.38046E-05-3.37843E-06-1.11371E-06
 -1      4968 6.38143E-05-3.37843E-06 3.90737E-21
 -1      4969 6.38046E-05-3.37843E-06 1.11371E-06
 -1      4970 6.38041E-05-4.08843E-06-1.11371E-06
 -1      4971 6.38139E-05-4.08843E-06 3.90734E-21
 -1      4972 6.38041E-05-4.08843E-06 1.11371E-06
 -1      4973 6.38037E-05-4.79978E-06-1.11370E-06
 -1      4974 6.38134E-05-4.79978E-06 3.90731E-21
 -1      4975 6.38037E-05-4.79978E-06 1.11370E-06
 -1      4976 6.38033E-05-5.51061E-06-1.11369E-06
 -1      4977 6.38131E-05-5.51061E-06 3.90729E-21
 -1      4978 6.38033E-05-5.51061E-06 1.11369E-06
 -1      4979 6.38016E-05-6.22128E-06-1.11366E-06
 -1      4980 6.38113E-05-6.22128E-06 3.90719E-21
 -1      4981 6.38016E-05-6.22128E-06 1.11366E-06
 -1      4982 6.38014E-05-6.93589E-06-1.11366E-06
 -1      4983 6.38111E-05-6.93589E-06 3.90717E-21
 -1      4984 6.38014E-05-6.93589E-06 1.11366E-06
 -1      4985 6.38119E-05-7.65931E-06-1.11384E-06
 -1      4986 6.38216E-05-7.65931E-06 3.90782E-21
 -1      4987 6.38119E-05-7.65931E-06 1.11384E-06
 -1      4988 6.37764E-05-8.35569E-06-1.11322E-06
 -1      4989 6.37862E-05-8.35569E-06 3.90565E-21
 -1      4990 6.37764E-05-8.35569E-06 1.11322E-06
 -1      4991 6.37213E-05-8.65120E-06-1.11226E-06
 -1      4992 6.37310E-05-8.65120E-06 3.90227E-21
 -1      4993 6.37213E-05-8.65120E-06 1.11226E-06
 -1      4994 1.50665E-04-8.60039E-06-2.62987E-06
 -1      4995 1.50688E-04-8.60039E-06 9.22669E-21
 -1      4996 1.50665E-04-8.60039E-06 2.62987E-06
 -1      4997 1.42811E-04-8.55341E-06-2.49277E-06
 -1      4998 1.42833E-04-8.55341E-06 8.74568E-21
 -1      4999 1.42811E-04-8.55341E-06 2.49277E-06
 -1      5000 1.35060E-04-8.54437E-06-2.35749E-06
 -1      5001 1.35081E-04-8.54437E-06 8.27105E-21
 -1      5002 1.35060E-04-8.54437E-06 2.35749E-06
 -1      5003 1.27953E-04-8.55504E-06-2.23342E-06
 -1      5004 1.27972E-04-8.55504E-06 7.83578E-21
 -1      5005 1.27953E-04-8.55504E-06 2.23342E-06
 -1      5006 1.21748E-04-8.55991E-06-2.12512E-06
 -1      5007 1.21767E-04-8.55991E-06 7.45582E-21
 -1      5008 1.21748E-04-8.55991E-06 2.12512E-06
 -1      5009 1.16235E-04-8.56357E-06-2.02889E-06
 -1      5010 1.16253E-04-8.56357E-06 7.11818E-21
 -1      5011 1.16235E-04-8.56357E-06 2.02889E-06
 -1      5012 1.11318E-04-8.56477E-06-1.94307E-06
 -1      5013 1.11335E-04-8.56477E-06 6.81709E-21
 -1      5014 1.11318E-04-8.56477E-06 1.94307E-06
 -1      5015 1.06932E-04-8.56601E-06-1.86651E-06
 -1      5016 1.06949E-04-8.56601E-06 6.54850E-21
 -1      5017 1.06932E-04-8.56601E-06 1.86651E-06
 -1      5018 1.02971E-04-8.56740E-06-1.79737E-06
 -1      5019 1.02987E-04-8.56740E-06 6.30593E-21
 -1      5020 1.02971E-04-8.56740E-06 1.79737E-06
 -1      5021 9.93930E-05-8.56696E-06-1.73491E-06
 -1      5022 9.94081E-05-8.56696E-06 6.08679E-21
 -1      5023 9.93930E-05-8.56696E-06 1.73491E-06
 -1      5024 9.61647E-05-8.56695E-06-1.67856E-06
 -1      5025 9.61793E-05-8.56695E-06 5.88909E-21
 -1      5026 9.61647E-05-8.56695E-06 1.67856E-06
 -1      5027 9.32192E-05-8.56750E-06-1.62715E-06
 -1      5028 9.32334E-05-8.56750E-06 5.70871E-21
 -1      5029 9.32192E-05-8.56750E-06 1.62715E-06
 -1      5030 9.05333E-05-8.56664E-06-1.58026E-06
 -1      5031 9.05471E-05-8.56664E-06 5.54422E-21
 -1      5032 9.05333E-05-8.56664E-06 1.58026E-06
 -1      5033 8.80896E-05-8.56651E-06-1.53761E-06
 -1      5034 8.81030E-05-8.56651E-06 5.39457E-21
 -1      5035 8.80896E-05-8.56651E-06 1.53761E-06
 -1      5036 8.58434E-05-8.56712E-06-1.49840E-06
 -1      5037 8.58564E-05-8.56712E-06 5.25702E-21
 -1      5038 8.58434E-05-8.56712E-06 1.49840E-06
 -1      5039 8.37822E-05-8.56635E-06-1.46242E-06
 -1      5040 8.37949E-05-8.56635E-06 5.13079E-21
 -1      5041 8.37822E-05-8.56635E-06 1.46242E-06
 -1      5042 8.18979E-05-8.56622E-06-1.42953E-06
 -1      5043 8.19103E-05-8.56622E-06 5.01540E-21
 -1      5044 8.18979E-05-8.56622E-06 1.42953E-06
 -1      5045 8.01629E-05-8.56634E-06-1.39925E-06
 -1      5046 8.01751E-05-8.56634E-06 4.90915E-21
 -1      5047 8.01629E-05-8.56634E-06 1.39925E-06
 -1      5048 7.85553E-05-8.56708E-06-1.37119E-06
 -1      5049 7.85672E-05-8.56708E-06 4.81070E-21
 -1      5050 7.85553E-05-8.56708E-06 1.37119E-06
 -1      5051 7.70705E-05-8.56641E-06-1.34527E-06
 -1      5052 7.70822E-05-8.56641E-06 4.71977E-21
 -1      5053 7.70705E-05-8.56641E-06 1.34527E-06
 -1      5054 7.57047E-05-8.56644E-06-1.32143E-06
 -1      5055 7.57162E-05-8.56644E-06 4.63613E-21
 -1      5056 7.57047E-05-8.56644E-06 1.32143E-06
 -1      5057 7.44374E-05-8.56719E-06-1.29931E-06
 -1      5058 7.44487E-05-8.56719E-06 4.55852E-21
 -1      5059 7.44374E-05-8.56719E-06 1.29931E-06
 -1      5060 7.32649E-05-8.56656E-06-1.27884E-06
 -1      5061 7.32760E-05-8.56656E-06 4.48672E-21
 -1      5062 7.32649E-05-8.56656E-06 1.27884E-06
 -1      5063 7.21848E-05-8.56666E-06-1.25999E-06
 -1      5064 7.21958E-05-8.56666E-06 4.42057E-21
 -1      5065 7.21848E-05-8.56666E-06 1.25999E-06
 -1      5066 7.11815E-05-8.56746E-06-1.24248E-06
 -1      5067 7.11924E-05-8.56746E-06 4.35913E-21
 -1      5068 7.11815E-05-8.56746E-06 1.24248E-06
 -1      5069 7.02526E-05-8.56689E-06-1.22626E-06
 -1      5070 7.02633E-05-8.56689E-06 4.30224E-21
 -1      5071 7.02526E-05-8.56689E-06 1.22626E-06
 -1      5072 6.93964E-05-8.56697E-06-1.21132E-06
 -1      5073 6.94070E-05-8.56697E-06 4.24981E-21
 -1      5074 6.93964E-05-8.56697E-06 1.21132E-06
 -1      5075 6.86010E-05-8.56754E-06-1.19743E-06
 -1      5076 6.86114E-05-8.56754E-06 4.20110E-21
 -1      5077 6.86010E-05-8.56754E-06 1.19743E-06
 -1      5078 6.78641E-05-8.56617E-06-1.18457E-06
 -1      5079 6.78745E-05-8.56617E-06 4.15598E-21
 -1      5080 6.78641E-05-8.56617E-06 1.18457E-06
 -1      5081 6.71846E-05-8.56449E-06-1.17271E-06
 -1      5082 6.71948E-05-8.56449E-06 4.11436E-21
 -1      5083 6.71846E-05-8.56449E-06 1.17271E-06
 -1      5084 6.65519E-05-8.56167E-06-1.16167E-06
 -1      5085 6.65621E-05-8.56167E-06 4.07562E-21
 -1      5086 6.65519E-05-8.56167E-06 1.16167E-06
 -1      5087 6.59632E-05-8.55414E-06-1.15139E-06
 -1      5088 6.59733E-05-8.55414E-06 4.03956E-21
 -1      5089 6.59632E-05-8.55414E-06 1.15139E-06
 -1      5090 6.54156E-05-8.54158E-06-1.14183E-06
 -1      5091 6.54255E-05-8.54158E-06 4.00603E-21
 -1      5092 6.54156E-05-8.54158E-06 1.14183E-06
 -1      5093 6.49020E-05-8.52565E-06-1.13287E-06
 -1      5094 6.49119E-05-8.52565E-06 3.97457E-21
 -1      5095 6.49020E-05-8.52565E-06 1.13287E-06
 -1      5096 6.44392E-05-8.54007E-06-1.12479E-06
 -1      5097 6.44491E-05-8.54007E-06 3.94624E-21
 -1      5098 6.44392E-05-8.54007E-06 1.12479E-06
 -1      5099 6.40402E-05-8.59285E-06-1.11783E-06
 -1      5100 6.40500E-05-8.59285E-06 3.92180E-21
 -1      5101 6.40402E-05-8.59285E-06 1.11783E-06
 -1      5102 1.57937E-04-8.03775E-06-2.75679E-06
 -1      5103 1.57961E-04-8.03775E-06 9.67198E-21
 -1      5104 1.57937E-04-8.03775E-06 2.75679E-06
 -1      5105 1.57759E-04-7.30399E-06-2.75370E-06
 -1      5106 1.57783E-04-7.30399E-06 9.66112E-21
 -1      5107 1.57759E-04-7.30399E-06 2.75370E-06
 -1      5108 1.57853E-04-6.58166E-06-2.75534E-06
 -1      5109 1.57877E-04-6.58166E-06 9.66687E-21
 -1      5110 1.57853E-04-6.58166E-06 2.75534E-06
 -1      5111 1.58017E-04-5.86671E-06-2.75819E-06
 -1      5112 1.58041E-04-5.86671E-06 9.67688E-21
 -1      5113 1.58017E-04-5.86671E-06 2.75819E-06
 -1      5114 1.58097E-04-5.15483E-06-2.75960E-06
 -1      5115 1.58121E-04-5.15483E-06 9.68182E-21
 -1      5116 1.58097E-04-5.15483E-06 2.75960E-06
 -1      5117 1.58105E-04-4.44406E-06-2.75974E-06
 -1      5118 1.58130E-04-4.44406E-06 9.68232E-21
 -1      5119 1.58105E-04-4.44406E-06 2.75974E-06
 -1      5120 1.58099E-04-3.73341E-06-2.75963E-06
 -1      5121 1.58123E-04-3.73341E-06 9.68195E-21
 -1      5122 1.58099E-04-3.73341E-06 2.75963E-06
 -1      5123 1.58111E-04-3.02357E-06-2.75983E-06
 -1      5124 1.58135E-04-3.02357E-06 9.68264E-21
 -1      5125 1.58111E-04-3.02357E-06 2.75983E-06
 -1      5126 1.58123E-04-2.31546E-06-2.76005E-06
 -1      5127 1.58147E-04-2.31546E-06 9.68340E-21
 -1      5128 1.58123E-04-2.31546E-06 2.76005E-06
 -1      5129 1.57984E-04-1.61050E-06-2.75762E-06
 -1      5130 1.58008E-04-1.61050E-06 9.67486E-21
 -1      5131 1.57984E-04-1.61050E-06 2.75762E-06
 -1      5132 1.57727E-04-9.12294E-07-2.75314E-06
 -1      5133 1.57751E-04-9.12294E-07 9.65917E-21
 -1      5134 1.57727E-04-9.12294E-07 2.75314E-06
 -1      5135 1.11112E-04-3.11533E-07-1.93947E-06
 -1      5136 1.11129E-04-3.11533E-07 6.80448E-21
 -1      5137 1.11112E-04-3.11533E-07 1.93947E-06
 -1      5138 1.48376E-04-4.10626E-07-2.58992E-06
 -1      5139 1.48399E-04-4.10626E-07 9.08652E-21
 -1      5140 1.48376E-04-4.10626E-07 2.58992E-06
 -1      5141 1.34480E-04-2.91474E-07-2.34735E-06
 -1      5142 1.34500E-04-2.91474E-07 8.23549E-21
 -1      5143 1.34480E-04-2.91474E-07 2.34735E-06
 -1      5144 1.21491E-04-3.10524E-07-2.12063E-06
 -1      5145 1.21509E-04-3.10524E-07 7.44006E-21
 -1      5146 1.21491E-04-3.10524E-07 2.12063E-06
 -1      5147 1.02788E-04-3.07178E-07-1.79417E-06
 -1      5148 1.02804E-04-3.07178E-07 6.29471E-21
 -1      5149 1.02788E-04-3.07178E-07 1.79417E-06
 -1      5150 9.60170E-05-3.07681E-07-1.67598E-06
 -1      5151 9.60316E-05-3.07681E-07 5.88004E-21
 -1      5152 9.60170E-05-3.07681E-07 1.67598E-06
 -1      5153 9.04128E-05-3.08000E-07-1.57816E-06
 -1      5154 9.04265E-05-3.08000E-07 5.53685E-21
 -1      5155 9.04128E-05-3.08000E-07 1.57816E-06
 -1      5156 8.57416E-05-3.07377E-07-1.49663E-06
 -1      5157 8.57547E-05-3.07377E-07 5.25079E-21
 -1      5158 8.57416E-05-3.07377E-07 1.49663E-06
 -1      5159 8.18126E-05-3.08280E-07-1.42804E-06
 -1      5160 8.18250E-05-3.08280E-07 5.01017E-21
 -1      5161 8.18126E-05-3.08280E-07 1.42804E-06
 -1      5162 7.84826E-05-3.07466E-07-1.36992E-06
 -1      5163 7.84945E-05-3.07466E-07 4.80625E-21
 -1      5164 7.84826E-05-3.07466E-07 1.36992E-06
 -1      5165 7.56431E-05-3.08203E-07-1.32036E-06
 -1      5166 7.56546E-05-3.08203E-07 4.63236E-21
 -1      5167 7.56431E-05-3.08203E-07 1.32036E-06
 -1      5168 7.32107E-05-3.08470E-07-1.27790E-06
 -1      5169 7.32218E-05-3.08470E-07 4.48339E-21
 -1      5170 7.32107E-05-3.08470E-07 1.27790E-06
 -1      5171 7.11306E-05-3.08783E-07-1.24159E-06
 -1      5172 7.11415E-05-3.08783E-07 4.35602E-21
 -1      5173 7.11306E-05-3.08783E-07 1.24159E-06
 -1      5174 6.93464E-05-3.11517E-07-1.21045E-06
 -1      5175 6.93570E-05-3.11517E-07 4.24675E-21
 -1      5176 6.93464E-05-3.11517E-07 1.21045E-06
 -1      5177 6.78153E-05-3.12959E-07-1.18372E-06
 -1      5178 6.78257E-05-3.12959E-07 4.15299E-21
 -1      5179 6.78153E-05-3.12959E-07 1.18372E-06
 -1      5180 6.65165E-05-3.05290E-07-1.16105E-06
 -1      5181 6.65266E-05-3.05290E-07 4.07345E-21
 -1      5182 6.65165E-05-3.05290E-07 1.16105E-06
 -1      5183 6.54115E-05-2.92615E-07-1.14176E-06
 -1      5184 6.54214E-05-2.92615E-07 4.00578E-21
 -1      5185 6.54115E-05-2.92615E-07 1.14176E-06
 -1      5186 6.44413E-05-3.28462E-07-1.12483E-06
 -1      5187 6.44511E-05-3.28462E-07 3.94636E-21
 -1      5188 6.44413E-05-3.28462E-07 1.12483E-06
 -1      5189 6.38190E-05-9.09890E-07-1.11397E-06
 -1      5190 6.38287E-05-9.09890E-07 3.90825E-21
 -1      5191 6.38190E-05-9.09890E-07 1.11397E-06
 -1      5192 6.38016E-05-1.61589E-06-1.11366E-06
 -1      5193 6.38113E-05-1.61589E-06 3.90719E-21
 -1      5194 6.38016E-05-1.61589E-06 1.11366E-06
 -1      5195 6.38014E-05-2.32067E-06-1.11366E-06
 -1      5196 6.38111E-05-2.32067E-06 3.90717E-21
 -1      5197 6.38014E-05-2.32067E-06 1.11366E-06
 -1      5198 6.38043E-05-3.02476E-06-1.11371E-06
 -1      5199 6.38140E-05-3.02476E-06 3.90735E-21
 -1      5200 6.38043E-05-3.02476E-06 1.11371E-06
 -1      5201 6.38045E-05-3.73313E-06-1.11371E-06
 -1      5202 6.38142E-05-3.73313E-06 3.90737E-21
 -1      5203 6.38045E-05-3.73313E-06 1.11371E-06
 -1      5204 6.38039E-05-4.44407E-06-1.11370E-06
 -1      5205 6.38136E-05-4.44407E-06 3.90733E-21
 -1      5206 6.38039E-05-4.44407E-06 1.11370E-06
 -1      5207 6.38037E-05-5.15530E-06-1.11370E-06
 -1      5208 6.38134E-05-5.15530E-06 3.90731E-21
 -1      5209 6.38037E-05-5.15530E-06 1.11370E-06
 -1      5210 6.38026E-05-5.86579E-06-1.11368E-06
 -1      5211 6.38124E-05-5.86579E-06 3.90725E-21
 -1      5212 6.38026E-05-5.86579E-06 1.11368E-06
 -1      5213 6.38007E-05-6.57768E-06-1.11364E-06
 -1      5214 6.38104E-05-6.57768E-06 3.90713E-21
 -1      5215 6.38007E-05-6.57768E-06 1.11364E-06
 -1      5216 6.38054E-05-7.29698E-06-1.11373E-06
 -1      5217 6.38151E-05-7.29698E-06 3.90742E-21
 -1      5218 6.38054E-05-7.29698E-06 1.11373E-06
 -1      5219 6.38076E-05-8.01681E-06-1.11377E-06
 -1      5220 6.38174E-05-8.01681E-06 3.90756E-21
 -1      5221 6.38076E-05-8.01681E-06 1.11377E-06
 -1      5222 1.48900E-04-6.40253E-06-2.59906E-06
 -1      5223 1.48923E-04-6.40253E-06 9.11858E-21
 -1      5224 1.48900E-04-6.40253E-06 2.59906E-06
 -1      5225 1.48768E-04-6.76395E-06-2.59675E-06
 -1      5226 1.48791E-04-6.76395E-06 9.11050E-21
 -1      5227 1.48768E-04-6.76395E-06 2.59675E-06
 -1      5228 1.49265E-04-8.26494E-06-2.60543E-06
 -1      5229 1.49288E-04-8.26494E-06 9.14093E-21
 -1      5230 1.49265E-04-8.26494E-06 2.60543E-06
 -1      5231 1.49168E-04-5.68704E-06-2.60374E-06
 -1      5232 1.49191E-04-5.68704E-06 9.13501E-21
 -1      5233 1.49168E-04-5.68704E-06 2.60374E-06
 -1      5234 1.49262E-04-4.97589E-06-2.60537E-06
 -1      5235 1.49285E-04-4.97589E-06 9.14074E-21
 -1      5236 1.49262E-04-4.97589E-06 2.60537E-06
 -1      5237 1.49258E-04-4.26602E-06-2.60531E-06
 -1      5238 1.49281E-04-4.26602E-06 9.14050E-21
 -1      5239 1.49258E-04-4.26602E-06 2.60531E-06
 -1      5240 1.49247E-04-3.55597E-06-2.60512E-06
 -1      5241 1.49270E-04-3.55597E-06 9.13983E-21
 -1      5242 1.49247E-04-3.55597E-06 2.60512E-06
 -1      5243 1.49272E-04-2.84787E-06-2.60555E-06
 -1      5244 1.49295E-04-2.84787E-06 9.14137E-21
 -1      5245 1.49272E-04-2.84787E-06 2.60555E-06
 -1      5246 1.49274E-04-2.14393E-06-2.60558E-06
 -1      5247 1.49296E-04-2.14393E-06 9.14146E-21
 -1      5248 1.49274E-04-2.14393E-06 2.60558E-06
 -1      5249 1.48921E-04-1.44786E-06-2.59942E-06
 -1      5250 1.48943E-04-1.44786E-06 9.11985E-21
 -1      5251 1.48921E-04-1.44786E-06 2.59942E-06
 -1      5252 1.48396E-04-7.54753E-07-2.59026E-06
 -1      5253 1.48419E-04-7.54753E-07 9.08773E-21
 -1      5254 1.48396E-04-7.54753E-07 2.59026E-06
 -1      5255 1.24641E-04-6.16060E-07-2.17562E-06
 -1      5256 1.24660E-04-6.16060E-07 7.63299E-21
 -1      5257 1.24641E-04-6.16060E-07 2.17562E-06
 -1      5258 9.45109E-05-6.15169E-07-1.64969E-06
 -1      5259 9.45253E-05-6.15169E-07 5.78781E-21
 -1      5260 9.45109E-05-6.15169E-07 1.64969E-06
 -1      5261 1.13538E-04-6.25141E-07-1.98181E-06
 -1      5262 1.13555E-04-6.25141E-07 6.95301E-21
 -1      5263 1.13538E-04-6.25141E-07 1.98181E-06
 -1      5264 1.04694E-04-6.15383E-07-1.82744E-06
 -1      5265 1.04710E-04-6.15383E-07 6.41143E-21
 -1      5266 1.04694E-04-6.15383E-07 1.82744E-06
 -1      5267 1.18790E-04-6.28558E-07-2.07349E-06
 -1      5268 1.18808E-04-6.28558E-07 7.27466E-21
 -1      5269 1.18790E-04-6.28558E-07 2.07349E-06
 -1      5270 1.39658E-04-5.86663E-07-2.43775E-06
 -1      5271 1.39680E-04-5.86663E-07 8.55263E-21
 -1      5272 1.39658E-04-5.86663E-07 2.43775E-06
 -1      5273 1.08866E-04-6.19317E-07-1.90026E-06
 -1      5274 1.08883E-04-6.19317E-07 6.66691E-21
 -1      5275 1.08866E-04-6.19317E-07 1.90026E-06
 -1      5276 6.41727E-05-1.09713E-06-1.12014E-06
 -1      5277 6.41825E-05-1.09713E-06 3.92991E-21
 -1      5278 6.41727E-05-1.09713E-06 1.12014E-06
 -1      5279 8.91692E-05-6.15792E-07-1.55645E-06
 -1      5280 8.91828E-05-6.15792E-07 5.46069E-21
 -1      5281 8.91692E-05-6.15792E-07 1.55645E-06
 -1      5282 8.46967E-05-6.15749E-07-1.47839E-06
 -1      5283 8.47096E-05-6.15749E-07 5.18679E-21
 -1      5284 8.46967E-05-6.15749E-07 1.47839E-06
 -1      5285 8.09288E-05-6.16179E-07-1.41262E-06
 -1      5286 8.09411E-05-6.16179E-07 4.95605E-21
 -1      5287 8.09288E-05-6.16179E-07 1.41262E-06
 -1      5288 7.77285E-05-6.15860E-07-1.35676E-06
 -1      5289 7.77404E-05-6.15860E-07 4.76007E-21
 -1      5290 7.77285E-05-6.15860E-07 1.35676E-06
 -1      5291 7.49980E-05-6.15919E-07-1.30909E-06
 -1      5292 7.50094E-05-6.15919E-07 4.59285E-21
 -1      5293 7.49980E-05-6.15919E-07 1.30909E-06
 -1      5294 7.26606E-05-6.16739E-07-1.26830E-06
 -1      5295 7.26717E-05-6.16739E-07 4.44971E-21
 -1      5296 7.26606E-05-6.16739E-07 1.26830E-06
 -1      5297 7.06544E-05-6.19022E-07-1.23328E-06
 -1      5298 7.06652E-05-6.19022E-07 4.32685E-21
 -1      5299 7.06544E-05-6.19022E-07 1.23328E-06
 -1      5300 6.89329E-05-6.23542E-07-1.20323E-06
 -1      5301 6.89434E-05-6.23542E-07 4.22143E-21
 -1      5302 6.89329E-05-6.23542E-07 1.20323E-06
 -1      5303 6.74579E-05-6.26096E-07-1.17748E-06
 -1      5304 6.74682E-05-6.26096E-07 4.13110E-21
 -1      5305 6.74579E-05-6.26096E-07 1.17748E-06
 -1      5306 6.62172E-05-6.06518E-07-1.15583E-06
 -1      5307 6.62273E-05-6.06518E-07 4.05512E-21
 -1      5308 6.62172E-05-6.06518E-07 1.15583E-06
 -1      5309 6.51809E-05-5.85263E-07-1.13774E-06
 -1      5310 6.51909E-05-5.85263E-07 3.99166E-21
 -1      5311 6.51809E-05-5.85263E-07 1.13774E-06
 -1      5312 6.42095E-05-6.92756E-07-1.12078E-06
 -1      5313 6.42193E-05-6.92756E-07 3.93217E-21
 -1      5314 6.42095E-05-6.92756E-07 1.12078E-06
 -1      5315 6.41415E-05-1.81018E-06-1.11959E-06
 -1      5316 6.41512E-05-1.81018E-06 3.92800E-21
 -1      5317 6.41415E-05-1.81018E-06 1.11959E-06
 -1      5318 6.41487E-05-1.45903E-06-1.11972E-06
 -1      5319 6.41585E-05-1.45903E-06 3.92845E-21
 -1      5320 6.41487E-05-1.45903E-06 1.11972E-06
 -1      5321 6.41499E-05-2.50224E-06-1.11974E-06
 -1      5322 6.41597E-05-2.50224E-06 3.92852E-21
 -1      5323 6.41499E-05-2.50224E-06 1.11974E-06
 -1      5324 6.41536E-05-3.20186E-06-1.11981E-06
 -1      5325 6.41634E-05-3.20186E-06 3.92874E-21
 -1      5326 6.41536E-05-3.20186E-06 1.11981E-06
 -1      5327 6.41524E-05-3.90992E-06-1.11978E-06
 -1      5328 6.41622E-05-3.90992E-06 3.92867E-21
 -1      5329 6.41524E-05-3.90992E-06 1.11978E-06
 -1      5330 6.41509E-05-4.62167E-06-1.11976E-06
 -1      5331 6.41607E-05-4.62167E-06 3.92858E-21
 -1      5332 6.41509E-05-4.62167E-06 1.11976E-06
 -1      5333 6.41509E-05-5.33289E-06-1.11976E-06
 -1      5334 6.41607E-05-5.33289E-06 3.92858E-21
 -1      5335 6.41509E-05-5.33289E-06 1.11976E-06
 -1      5336 6.41477E-05-6.04233E-06-1.11970E-06
 -1      5337 6.41575E-05-6.04233E-06 3.92838E-21
 -1      5338 6.41477E-05-6.04233E-06 1.11970E-06
 -1      5339 6.41425E-05-6.75510E-06-1.11961E-06
 -1      5340 6.41523E-05-6.75510E-06 3.92806E-21
 -1      5341 6.41425E-05-6.75510E-06 1.11961E-06
 -1      5342 6.41589E-05-7.48715E-06-1.11990E-06
 -1      5343 6.41687E-05-7.48715E-06 3.92907E-21
 -1      5344 6.41589E-05-7.48715E-06 1.11990E-06
 -1      5345 6.41473E-05-8.24353E-06-1.11970E-06
 -1      5346 6.41571E-05-8.24353E-06 3.92836E-21
 -1      5347 6.41473E-05-8.24353E-06 1.11970E-06
 -1      5348 1.31176E-04-5.82231E-07-2.28968E-06
 -1      5349 1.31196E-04-5.82231E-07 8.03316E-21
 -1      5350 1.31176E-04-5.82231E-07 2.28968E-06
 -1      5351 1.48683E-04-7.13107E-06-2.59527E-06
 -1      5352 1.48706E-04-7.13107E-06 9.10530E-21
 -1      5353 1.48683E-04-7.13107E-06 2.59527E-06
 -1      5354 1.48715E-04-7.50484E-06-2.59582E-06
 -1      5355 1.48737E-04-7.50484E-06 9.10724E-21
 -1      5356 1.48715E-04-7.50484E-06 2.59582E-06
 -1      5357 1.40313E-04-8.15671E-06-2.44918E-06
 -1      5358 1.40335E-04-8.15671E-06 8.59273E-21
 -1      5359 1.40313E-04-8.15671E-06 2.44918E-06
 -1      5360 1.31750E-04-8.22001E-06-2.29971E-06
 -1      5361 1.31770E-04-8.22001E-06 8.06835E-21
 -1      5362 1.31750E-04-8.22001E-06 2.29971E-06
 -1      5363 1.25050E-04-8.22888E-06-2.18276E-06
 -1      5364 1.25069E-04-8.22888E-06 7.65804E-21
 -1      5365 1.25050E-04-8.22888E-06 2.18276E-06
 -1      5366 1.19164E-04-8.23588E-06-2.08001E-06
 -1      5367 1.19182E-04-8.23588E-06 7.29755E-21
 -1      5368 1.19164E-04-8.23588E-06 2.08001E-06
 -1      5369 1.13934E-04-8.24040E-06-1.98873E-06
 -1      5370 1.13952E-04-8.24040E-06 6.97729E-21
 -1      5371 1.13934E-04-8.24040E-06 1.98873E-06
 -1      5372 1.09260E-04-8.24335E-06-1.90714E-06
 -1      5373 1.09277E-04-8.24335E-06 6.69105E-21
 -1      5374 1.09260E-04-8.24335E-06 1.90714E-06
 -1      5375 1.05066E-04-8.24549E-06-1.83393E-06
 -1      5376 1.05082E-04-8.24549E-06 6.43419E-21
 -1      5377 1.05066E-04-8.24549E-06 1.83393E-06
 -1      5378 1.01287E-04-8.24640E-06-1.76797E-06
 -1      5379 1.01302E-04-8.24640E-06 6.20278E-21
 -1      5380 1.01287E-04-8.24640E-06 1.76797E-06
 -1      5381 9.78723E-05-8.24632E-06-1.70837E-06
 -1      5382 9.78872E-05-8.24632E-06 5.99366E-21
 -1      5383 9.78723E-05-8.24632E-06 1.70837E-06
 -1      5384 9.47758E-05-8.24621E-06-1.65432E-06
 -1      5385 9.47903E-05-8.24621E-06 5.80404E-21
 -1      5386 9.47758E-05-8.24621E-06 1.65432E-06
 -1      5387 9.19579E-05-8.24583E-06-1.60513E-06
 -1      5388 9.19719E-05-8.24583E-06 5.63147E-21
 -1      5389 9.19579E-05-8.24583E-06 1.60513E-06
 -1      5390 8.93869E-05-8.24528E-06-1.56025E-06
 -1      5391 8.94005E-05-8.24528E-06 5.47402E-21
 -1      5392 8.93869E-05-8.24528E-06 1.56025E-06
 -1      5393 8.70357E-05-8.24524E-06-1.51921E-06
 -1      5394 8.70489E-05-8.24524E-06 5.33003E-21
 -1      5395 8.70357E-05-8.24524E-06 1.51921E-06
 -1      5396 8.48803E-05-8.24511E-06-1.48159E-06
 -1      5397 8.48932E-05-8.24511E-06 5.19804E-21
 -1      5398 8.48803E-05-8.24511E-06 1.48159E-06
 -1      5399 8.29021E-05-8.24476E-06-1.44706E-06
 -1      5400 8.29147E-05-8.24476E-06 5.07689E-21
 -1      5401 8.29021E-05-8.24476E-06 1.44706E-06
 -1      5402 8.10838E-05-8.24474E-06-1.41532E-06
 -1      5403 8.10961E-05-8.24474E-06 4.96554E-21
 -1      5404 8.10838E-05-8.24474E-06 1.41532E-06
 -1      5405 7.94074E-05-8.24505E-06-1.38606E-06
 -1      5406 7.94195E-05-8.24505E-06 4.86288E-21
 -1      5407 7.94074E-05-8.24505E-06 1.38606E-06
 -1      5408 7.78598E-05-8.24515E-06-1.35905E-06
 -1      5409 7.78716E-05-8.24515E-06 4.76811E-21
 -1      5410 7.78598E-05-8.24515E-06 1.35905E-06
 -1      5411 7.64307E-05-8.24501E-06-1.33410E-06
 -1      5412 7.64423E-05-8.24501E-06 4.68059E-21
 -1      5413 7.64307E-05-8.24501E-06 1.33410E-06
 -1      5414 7.51102E-05-8.24528E-06-1.31105E-06
 -1      5415 7.51216E-05-8.24528E-06 4.59972E-21
 -1      5416 7.51102E-05-8.24528E-06 1.31105E-06
 -1      5417 7.38891E-05-8.24542E-06-1.28974E-06
 -1      5418 7.39003E-05-8.24542E-06 4.52494E-21
 -1      5419 7.38891E-05-8.24542E-06 1.28974E-06
 -1      5420 7.27600E-05-8.24534E-06-1.27003E-06
 -1      5421 7.27711E-05-8.24534E-06 4.45580E-21
 -1      5422 7.27600E-05-8.24534E-06 1.27003E-06
 -1      5423 7.17157E-05-8.24570E-06-1.25180E-06
 -1      5424 7.17266E-05-8.24570E-06 4.39185E-21
 -1      5425 7.17157E-05-8.24570E-06 1.25180E-06
 -1      5426 7.07496E-05-8.24593E-06-1.23494E-06
 -1      5427 7.07603E-05-8.24593E-06 4.33268E-21
 -1      5428 7.07496E-05-8.24593E-06 1.23494E-06
 -1      5429 6.98561E-05-8.24594E-06-1.21934E-06
 -1      5430 6.98667E-05-8.24594E-06 4.27796E-21
 -1      5431 6.98561E-05-8.24594E-06 1.21934E-06
 -1      5432 6.90298E-05-8.24621E-06-1.20492E-06
 -1      5433 6.90403E-05-8.24621E-06 4.22736E-21
 -1      5434 6.90298E-05-8.24621E-06 1.20492E-06
 -1      5435 6.82653E-05-8.24575E-06-1.19158E-06
 -1      5436 6.82757E-05-8.24575E-06 4.18054E-21
 -1      5437 6.82653E-05-8.24575E-06 1.19158E-06
 -1      5438 6.75579E-05-8.24373E-06-1.17923E-06
 -1      5439 6.75682E-05-8.24373E-06 4.13722E-21
 -1      5440 6.75579E-05-8.24373E-06 1.17923E-06
 -1      5441 6.69026E-05-8.23978E-06-1.16779E-06
 -1      5442 6.69128E-05-8.23978E-06 4.09709E-21
 -1      5443 6.69026E-05-8.23978E-06 1.16779E-06
 -1      5444 6.62934E-05-8.23173E-06-1.15716E-06
 -1      5445 6.63035E-05-8.23173E-06 4.05978E-21
 -1      5446 6.62934E-05-8.23173E-06 1.15716E-06
 -1      5447 6.57223E-05-8.21583E-06-1.14719E-06
 -1      5448 6.57323E-05-8.21583E-06 4.02481E-21
 -1      5449 6.57223E-05-8.21583E-06 1.14719E-06
 -1      5450 6.51756E-05-8.18414E-06-1.13764E-06
 -1      5451 6.51856E-05-8.18414E-06 3.99133E-21
 -1      5452 6.51756E-05-8.18414E-06 1.13764E-06
 -1      5453 6.46189E-05-8.12175E-06-1.12793E-06
 -1      5454 6.46287E-05-8.12175E-06 3.95724E-21
 -1      5455 6.46189E-05-8.12175E-06 1.12793E-06
 -1      5456 9.75745E-05-6.14850E-07-1.70317E-06
 -1      5457 9.75893E-05-6.14850E-07 5.97543E-21
 -1      5458 9.75745E-05-6.14850E-07 1.70317E-06
 -1      5459 1.49050E-04-6.04409E-06-2.60168E-06
 -1      5460 1.49073E-04-6.04409E-06 9.12777E-21
 -1      5461 1.49050E-04-6.04409E-06 2.60168E-06
 -1      5462 1.48718E-04-7.88832E-06-2.59588E-06
 -1      5463 1.48740E-04-7.88832E-06 9.10742E-21
 -1      5464 1.48718E-04-7.88832E-06 2.59588E-06
 -1      5465 1.49234E-04-5.33098E-06-2.60489E-06
 -1      5466 1.49257E-04-5.33098E-06 9.13903E-21
 -1      5467 1.49234E-04-5.33098E-06 2.60489E-06
 -1      5468 1.49263E-04-4.62108E-06-2.60540E-06
 -1      5469 1.49286E-04-4.62108E-06 9.14083E-21
 -1      5470 1.49263E-04-4.62108E-06 2.60540E-06
 -1      5471 1.49251E-04-3.91102E-06-2.60518E-06
 -1      5472 1.49273E-04-3.91102E-06 9.14005E-21
 -1      5473 1.49251E-04-3.91102E-06 2.60518E-06
 -1      5474 1.49250E-04-3.20122E-06-2.60516E-06
 -1      5475 1.49272E-04-3.20122E-06 9.13999E-21
 -1      5476 1.49250E-04-3.20122E-06 2.60516E-06
 -1      5477 1.49304E-04-2.49556E-06-2.60610E-06
 -1      5478 1.49326E-04-2.49556E-06 9.14330E-21
 -1      5479 1.49304E-04-2.49556E-06 2.60610E-06
 -1      5480 1.49119E-04-1.79462E-06-2.60289E-06
 -1      5481 1.49142E-04-1.79462E-06 9.13201E-21
 -1      5482 1.49119E-04-1.79462E-06 2.60289E-06
 -1      5483 1.48773E-04-1.10289E-06-2.59685E-06
 -1      5484 1.48796E-04-1.10289E-06 9.11082E-21
 -1      5485 1.48773E-04-1.10289E-06 2.59685E-06
 -1      5486 1.00951E-04-6.14342E-07-1.76210E-06
 -1      5487 1.00966E-04-6.14342E-07 6.18219E-21
 -1      5488 1.00951E-04-6.14342E-07 1.76210E-06
 -1      5489 9.17189E-05-6.15468E-07-1.60096E-06
 -1      5490 9.17329E-05-6.15468E-07 5.61684E-21
 -1      5491 9.17189E-05-6.15468E-07 1.60096E-06
 -1      5492 8.68358E-05-6.15653E-07-1.51572E-06
 -1      5493 8.68490E-05-6.15653E-07 5.31779E-21
 -1      5494 8.68358E-05-6.15653E-07 1.51572E-06
 -1      5495 8.27334E-05-6.16129E-07-1.44412E-06
 -1      5496 8.27460E-05-6.16129E-07 5.06657E-21
 -1      5497 8.27334E-05-6.16129E-07 1.44412E-06
 -1      5498 7.92647E-05-6.15900E-07-1.38357E-06
 -1      5499 7.92768E-05-6.15900E-07 4.85414E-21
 -1      5500 7.92647E-05-6.15900E-07 1.38357E-06
 -1      5501 7.63096E-05-6.16083E-07-1.33199E-06
 -1      5502 7.63212E-05-6.16083E-07 4.67317E-21
 -1      5503 7.63096E-05-6.16083E-07 1.33199E-06
 -1      5504 7.37843E-05-6.16083E-07-1.28791E-06
 -1      5505 7.37955E-05-6.16083E-07 4.51852E-21
 -1      5506 7.37843E-05-6.16083E-07 1.28791E-06
 -1      5507 7.16201E-05-6.17346E-07-1.25013E-06
 -1      5508 7.16310E-05-6.17346E-07 4.38599E-21
 -1      5509 7.16201E-05-6.17346E-07 1.25013E-06
 -1      5510 6.97607E-05-6.21349E-07-1.21768E-06
 -1      5511 6.97713E-05-6.21349E-07 4.27212E-21
 -1      5512 6.97607E-05-6.21349E-07 1.21768E-06
 -1      5513 6.81669E-05-6.25501E-07-1.18986E-06
 -1      5514 6.81773E-05-6.25501E-07 4.17452E-21
 -1      5515 6.81669E-05-6.25501E-07 1.18986E-06
 -1      5516 6.68082E-05-6.20935E-07-1.16614E-06
 -1      5517 6.68184E-05-6.20935E-07 4.09131E-21
 -1      5518 6.68082E-05-6.20935E-07 1.16614E-06
 -1      5519 6.56853E-05-5.79007E-07-1.14654E-06
 -1      5520 6.56953E-05-5.79007E-07 4.02255E-21
 -1      5521 6.56853E-05-5.79007E-07 1.14654E-06
 -1      5522 6.47064E-05-6.31513E-07-1.12945E-06
 -1      5523 6.47162E-05-6.31513E-07 3.96259E-21
 -1      5524 6.47064E-05-6.31513E-07 1.12945E-06
 -1      5525 6.41449E-05-2.15639E-06-1.11965E-06
 -1      5526 6.41547E-05-2.15639E-06 3.92821E-21
 -1      5527 6.41449E-05-2.15639E-06 1.11965E-06
 -1      5528 6.41525E-05-2.85058E-06-1.11979E-06
 -1      5529 6.41622E-05-2.85058E-06 3.92867E-21
 -1      5530 6.41525E-05-2.85058E-06 1.11979E-06
 -1      5531 6.41535E-05-3.55512E-06-1.11980E-06
 -1      5532 6.41633E-05-3.55512E-06 3.92874E-21
 -1      5533 6.41535E-05-3.55512E-06 1.11980E-06
 -1      5534 6.41513E-05-4.26570E-06-1.11976E-06
 -1      5535 6.41611E-05-4.26570E-06 3.92860E-21
 -1      5536 6.41513E-05-4.26570E-06 1.11976E-06
 -1      5537 6.41508E-05-4.97754E-06-1.11976E-06
 -1      5538 6.41606E-05-4.97754E-06 3.92858E-21
 -1      5539 6.41508E-05-4.97754E-06 1.11976E-06
 -1      5540 6.41500E-05-5.68772E-06-1.11974E-06
 -1      5541 6.41597E-05-5.68772E-06 3.92852E-21
 -1      5542 6.41500E-05-5.68772E-06 1.11974E-06
 -1      5543 6.41448E-05-6.39786E-06-1.11965E-06
 -1      5544 6.41546E-05-6.39786E-06 3.92821E-21
 -1      5545 6.41448E-05-6.39786E-06 1.11965E-06
 -1      5546 6.41448E-05-7.11725E-06-1.11965E-06
 -1      5547 6.41546E-05-7.11725E-06 3.92821E-21
 -1      5548 6.41448E-05-7.11725E-06 1.11965E-06
 -1      5549 6.41779E-05-7.86789E-06-1.12023E-06
 -1      5550 6.41876E-05-7.86789E-06 3.93023E-21
 -1      5551 6.41779E-05-7.86789E-06 1.12023E-06
 -1      5552 9.30797E-05-9.23287E-07-1.62471E-06
 -1      5553 9.30939E-05-9.23287E-07 5.70017E-21
 -1      5554 9.30797E-05-9.23287E-07 1.62471E-06
 -1      5555 7.56409E-05-9.23986E-07-1.32032E-06
 -1      5556 7.56525E-05-9.23986E-07 4.63222E-21
 -1      5557 7.56409E-05-9.23986E-07 1.32032E-06
 -1      5558 1.40826E-04-1.29259E-06-2.45812E-06
 -1      5559 1.40847E-04-1.29259E-06 8.62411E-21
 -1      5560 1.40826E-04-1.29259E-06 2.45812E-06
 -1      5561 1.41475E-04-5.15057E-06-2.46945E-06
 -1      5562 1.41496E-04-5.15057E-06 8.66386E-21
 -1      5563 1.41475E-04-5.15057E-06 2.46945E-06
 -1      5564 1.41477E-04-4.44284E-06-2.46948E-06
 -1      5565 1.41498E-04-4.44284E-06 8.66398E-21
 -1      5566 1.41477E-04-4.44284E-06 2.46948E-06
 -1      5567 1.41458E-04-3.73338E-06-2.46915E-06
 -1      5568 1.41479E-04-3.73338E-06 8.66281E-21
 -1      5569 1.41458E-04-3.73338E-06 2.46915E-06
 -1      5570 6.45257E-05-4.79963E-06-1.12630E-06
 -1      5571 6.45355E-05-4.79963E-06 3.95153E-21
 -1      5572 6.45257E-05-4.79963E-06 1.12630E-06
 -1      5573 9.92016E-05-9.21514E-07-1.73157E-06
 -1      5574 9.92167E-05-9.21514E-07 6.07507E-21
 -1      5575 9.92016E-05-9.21514E-07 1.73157E-06
 -1      5576 1.41498E-04-2.67285E-06-2.46986E-06
 -1      5577 1.41520E-04-2.67285E-06 8.66530E-21
 -1      5578 1.41498E-04-2.67285E-06 2.46986E-06
 -1      5579 1.41468E-04-1.97655E-06-2.46933E-06
 -1      5580 1.41489E-04-1.97655E-06 8.66344E-21
 -1      5581 1.41468E-04-1.97655E-06 2.46933E-06
 -1      5582 1.41086E-04-1.63144E-06-2.46267E-06
 -1      5583 1.41108E-04-1.63144E-06 8.64008E-21
 -1      5584 1.41086E-04-1.63144E-06 2.46267E-06
 -1      5585 1.41465E-04-4.08836E-06-2.46928E-06
 -1      5586 1.41487E-04-4.08836E-06 8.66327E-21
 -1      5587 1.41465E-04-4.08836E-06 2.46928E-06
 -1      5588 1.40734E-04-6.94692E-06-2.45651E-06
 -1      5589 1.40755E-04-6.94692E-06 8.61847E-21
 -1      5590 1.40734E-04-6.94692E-06 2.45651E-06
 -1      5591 1.41421E-04-5.50532E-06-2.46852E-06
 -1      5592 1.41443E-04-5.50532E-06 8.66058E-21
 -1      5593 1.41421E-04-5.50532E-06 2.46852E-06
 -1      5594 6.45299E-05-3.73055E-06-1.12637E-06
 -1      5595 6.45397E-05-3.73055E-06 3.95179E-21
 -1      5596 6.45299E-05-3.73055E-06 1.12637E-06
 -1      5597 8.79765E-05-9.23601E-07-1.53564E-06
 -1      5598 8.79899E-05-9.23601E-07 5.38765E-21
 -1      5599 8.79765E-05-9.23601E-07 1.53564E-06
 -1      5600 1.02740E-04-9.20715E-07-1.79333E-06
 -1      5601 1.02755E-04-9.20715E-07 6.29174E-21
 -1      5602 1.02740E-04-9.20715E-07 1.79333E-06
 -1      5603 8.36951E-05-9.23908E-07-1.46090E-06
 -1      5604 8.37078E-05-9.23908E-07 5.12546E-21
 -1      5605 8.36951E-05-9.23908E-07 1.46090E-06
 -1      5606 8.00792E-05-9.24098E-07-1.39779E-06
 -1      5607 8.00914E-05-9.24098E-07 4.90402E-21
 -1      5608 8.00792E-05-9.24098E-07 1.39779E-06
 -1      5609 7.70050E-05-9.23990E-07-1.34413E-06
 -1      5610 7.70167E-05-9.23990E-07 4.71576E-21
 -1      5611 7.70050E-05-9.23990E-07 1.34413E-06
 -1      5612 7.32113E-05-9.24456E-07-1.27791E-06
 -1      5613 7.32224E-05-9.24456E-07 4.48343E-21
 -1      5614 7.32113E-05-9.24456E-07 1.27791E-06
 -1      5615 7.11253E-05-9.27007E-07-1.24150E-06
 -1      5616 7.11361E-05-9.27007E-07 4.35569E-21
 -1      5617 7.11253E-05-9.27007E-07 1.24150E-06
 -1      5618 6.93303E-05-9.34241E-07-1.21017E-06
 -1      5619 6.93409E-05-9.34241E-07 4.24576E-21
 -1      5620 6.93303E-05-9.34241E-07 1.21017E-06
 -1      5621 6.45248E-05-2.33436E-06-1.12628E-06
 -1      5622 6.45346E-05-2.33436E-06 3.95147E-21
 -1      5623 6.45248E-05-2.33436E-06 1.12628E-06
 -1      5624 6.71017E-05-9.40603E-07-1.17126E-06
 -1      5625 6.71119E-05-9.40603E-07 4.10928E-21
 -1      5626 6.71017E-05-9.40603E-07 1.17126E-06
 -1      5627 6.59110E-05-8.99130E-07-1.15048E-06
 -1      5628 6.59211E-05-8.99130E-07 4.03637E-21
 -1      5629 6.59110E-05-8.99130E-07 1.15048E-06
 -1      5630 1.40988E-04-7.71300E-06-2.46096E-06
 -1      5631 1.41010E-04-7.71300E-06 8.63408E-21
 -1      5632 1.40988E-04-7.71300E-06 2.46096E-06
 -1      5633 6.45039E-05-1.66192E-06-1.12592E-06
 -1      5634 6.45137E-05-1.66192E-06 3.95020E-21
 -1      5635 6.45039E-05-1.66192E-06 1.12592E-06
 -1      5636 6.77883E-05-9.41427E-07-1.18325E-06
 -1      5637 6.77986E-05-9.41427E-07 4.15133E-21
 -1      5638 6.77883E-05-9.41427E-07 1.18325E-06
 -1      5639 6.45318E-05-3.37642E-06-1.12641E-06
 -1      5640 6.45416E-05-3.37642E-06 3.95191E-21
 -1      5641 6.45318E-05-3.37642E-06 1.12641E-06
 -1      5642 6.45319E-05-3.02499E-06-1.12641E-06
 -1      5643 6.45418E-05-3.02499E-06 3.95191E-21
 -1      5644 6.45319E-05-3.02499E-06 1.12641E-06
 -1      5645 6.45127E-05-1.99821E-06-1.12607E-06
 -1      5646 6.45226E-05-1.99821E-06 3.95074E-21
 -1      5647 6.45127E-05-1.99821E-06 1.12607E-06
 -1      5648 6.45816E-05-9.72449E-07-1.12728E-06
 -1      5649 6.45915E-05-9.72449E-07 3.95496E-21
 -1      5650 6.45816E-05-9.72449E-07 1.12728E-06
 -1      5651 6.45256E-05-4.44315E-06-1.12630E-06
 -1      5652 6.45354E-05-4.44315E-06 3.95152E-21
 -1      5653 6.45256E-05-4.44315E-06 1.12630E-06
 -1      5654 1.41457E-04-3.02438E-06-2.46914E-06
 -1      5655 1.41479E-04-3.02438E-06 8.66278E-21
 -1      5656 1.41457E-04-3.02438E-06 2.46914E-06
 -1      5657 6.45265E-05-5.51060E-06-1.12631E-06
 -1      5658 6.45363E-05-5.51060E-06 3.95158E-21
 -1      5659 6.45265E-05-5.51060E-06 1.12631E-06
 -1      5660 6.45179E-05-6.21796E-06-1.12616E-06
 -1      5661 6.45278E-05-6.21796E-06 3.95106E-21
 -1      5662 6.45179E-05-6.21796E-06 1.12616E-06
 -1      5663 6.45053E-05-6.92978E-06-1.12594E-06
 -1      5664 6.45151E-05-6.92978E-06 3.95028E-21
 -1      5665 6.45053E-05-6.92978E-06 1.12594E-06
 -1      5666 1.40902E-04-9.53063E-07-2.45946E-06
 -1      5667 1.40924E-04-9.53063E-07 8.62880E-21
 -1      5668 1.40902E-04-9.53063E-07 2.45946E-06
 -1      5669 1.41303E-04-5.86128E-06-2.46646E-06
 -1      5670 1.41325E-04-5.86128E-06 8.65337E-21
 -1      5671 1.41303E-04-5.86128E-06 2.46646E-06
 -1      5672 1.40631E-04-7.32692E-06-2.45472E-06
 -1      5673 1.40652E-04-7.32692E-06 8.61218E-21
 -1      5674 1.40631E-04-7.32692E-06 2.45472E-06
 -1      5675 1.34836E-04-7.90410E-06-2.35357E-06
 -1      5676 1.34857E-04-7.90410E-06 8.25731E-21
 -1      5677 1.34836E-04-7.90410E-06 2.35357E-06
 -1      5678 1.28424E-04-7.89617E-06-2.24165E-06
 -1      5679 1.28443E-04-7.89617E-06 7.86463E-21
 -1      5680 1.28424E-04-7.89617E-06 2.24165E-06
 -1      5681 1.22188E-04-7.90912E-06-2.13281E-06
 -1      5682 1.22207E-04-7.90912E-06 7.48278E-21
 -1      5683 1.22188E-04-7.90912E-06 2.13281E-06
 -1      5684 1.16639E-04-7.91661E-06-2.03594E-06
 -1      5685 1.16657E-04-7.91661E-06 7.14293E-21
 -1      5686 1.16639E-04-7.91661E-06 2.03594E-06
 -1      5687 1.11672E-04-7.92284E-06-1.94924E-06
 -1      5688 1.11689E-04-7.92284E-06 6.83876E-21
 -1      5689 1.11672E-04-7.92284E-06 1.94924E-06
 -1      5690 1.07221E-04-7.92721E-06-1.87154E-06
 -1      5691 1.07237E-04-7.92721E-06 6.56615E-21
 -1      5692 1.07221E-04-7.92721E-06 1.87154E-06
 -1      5693 1.03222E-04-7.92954E-06-1.80175E-06
 -1      5694 1.03238E-04-7.92954E-06 6.32129E-21
 -1      5695 1.03222E-04-7.92954E-06 1.80175E-06
 -1      5696 9.96191E-05-7.93008E-06-1.73886E-06
 -1      5697 9.96343E-05-7.93008E-06 6.10064E-21
 -1      5698 9.96191E-05-7.93008E-06 1.73886E-06
 -1      5699 9.63604E-05-7.92963E-06-1.68198E-06
 -1      5700 9.63750E-05-7.92963E-06 5.90107E-21
 -1      5701 9.63604E-05-7.92963E-06 1.68198E-06
 -1      5702 9.34020E-05-7.92886E-06-1.63034E-06
 -1      5703 9.34163E-05-7.92886E-06 5.71991E-21
 -1      5704 9.34020E-05-7.92886E-06 1.63034E-06
 -1      5705 9.07069E-05-7.92810E-06-1.58330E-06
 -1      5706 9.07207E-05-7.92810E-06 5.55486E-21
 -1      5707 9.07069E-05-7.92810E-06 1.58330E-06
 -1      5708 8.82446E-05-7.92759E-06-1.54031E-06
 -1      5709 8.82580E-05-7.92759E-06 5.40407E-21
 -1      5710 8.82446E-05-7.92759E-06 1.54031E-06
 -1      5711 8.59899E-05-7.92734E-06-1.50096E-06
 -1      5712 8.60030E-05-7.92734E-06 5.26599E-21
 -1      5713 8.59899E-05-7.92734E-06 1.50096E-06
 -1      5714 8.39214E-05-7.92713E-06-1.46485E-06
 -1      5715 8.39342E-05-7.92713E-06 5.13932E-21
 -1      5716 8.39214E-05-7.92713E-06 1.46485E-06
 -1      5717 8.20204E-05-7.92701E-06-1.43167E-06
 -1      5718 8.20329E-05-7.92701E-06 5.02290E-21
 -1      5719 8.20204E-05-7.92701E-06 1.43167E-06
 -1      5720 8.02702E-05-7.92711E-06-1.40112E-06
 -1      5721 8.02824E-05-7.92711E-06 4.91572E-21
 -1      5722 8.02702E-05-7.92711E-06 1.40112E-06
 -1      5723 7.86562E-05-7.92727E-06-1.37295E-06
 -1      5724 7.86682E-05-7.92727E-06 4.81688E-21
 -1      5725 7.86562E-05-7.92727E-06 1.37295E-06
 -1      5726 7.71663E-05-7.92736E-06-1.34694E-06
 -1      5727 7.71781E-05-7.92736E-06 4.72564E-21
 -1      5728 7.71663E-05-7.92736E-06 1.34694E-06
 -1      5729 7.57898E-05-7.92748E-06-1.32292E-06
 -1      5730 7.58014E-05-7.92748E-06 4.64134E-21
 -1      5731 7.57898E-05-7.92748E-06 1.32292E-06
 -1      5732 7.45178E-05-7.92767E-06-1.30071E-06
 -1      5733 7.45291E-05-7.92767E-06 4.56344E-21
 -1      5734 7.45178E-05-7.92767E-06 1.30071E-06
 -1      5735 7.33418E-05-7.92782E-06-1.28019E-06
 -1      5736 7.33530E-05-7.92782E-06 4.49143E-21
 -1      5737 7.33418E-05-7.92782E-06 1.28019E-06
 -1      5738 7.22543E-05-7.92803E-06-1.26120E-06
 -1      5739 7.22653E-05-7.92803E-06 4.42483E-21
 -1      5740 7.22543E-05-7.92803E-06 1.26120E-06
 -1      5741 7.12490E-05-7.92831E-06-1.24366E-06
 -1      5742 7.12599E-05-7.92831E-06 4.36326E-21
 -1      5743 7.12490E-05-7.92831E-06 1.24366E-06
 -1      5744 7.03199E-05-7.92856E-06-1.22744E-06
 -1      5745 7.03306E-05-7.92856E-06 4.30637E-21
 -1      5746 7.03199E-05-7.92856E-06 1.22744E-06
 -1      5747 6.94617E-05-7.92886E-06-1.21246E-06
 -1      5748 6.94723E-05-7.92886E-06 4.25381E-21
 -1      5749 6.94617E-05-7.92886E-06 1.21246E-06
 -1      5750 6.86692E-05-7.92894E-06-1.19862E-06
 -1      5751 6.86796E-05-7.92894E-06 4.20527E-21
 -1      5752 6.86692E-05-7.92894E-06 1.19862E-06
 -1      5753 6.79371E-05-7.92774E-06-1.18585E-06
 -1      5754 6.79475E-05-7.92774E-06 4.16045E-21
 -1      5755 6.79371E-05-7.92774E-06 1.18585E-06
 -1      5756 6.72609E-05-7.92394E-06-1.17404E-06
 -1      5757 6.72712E-05-7.92394E-06 4.11904E-21
 -1      5758 6.72609E-05-7.92394E-06 1.17404E-06
 -1      5759 6.66362E-05-7.91641E-06-1.16314E-06
 -1      5760 6.66463E-05-7.91641E-06 4.08078E-21
 -1      5761 6.66362E-05-7.91641E-06 1.16314E-06
 -1      5762 6.60571E-05-7.90310E-06-1.15303E-06
 -1      5763 6.60671E-05-7.90310E-06 4.04531E-21
 -1      5764 6.60571E-05-7.90310E-06 1.15303E-06
 -1      5765 6.55158E-05-7.87799E-06-1.14358E-06
 -1      5766 6.55258E-05-7.87799E-06 4.01216E-21
 -1      5767 6.55158E-05-7.87799E-06 1.14358E-06
 -1      5768 6.50023E-05-7.81789E-06-1.13462E-06
 -1      5769 6.50122E-05-7.81789E-06 3.98072E-21
 -1      5770 6.50023E-05-7.81789E-06 1.13462E-06
 -1      5771 9.59986E-05-9.22705E-07-1.67566E-06
 -1      5772 9.60132E-05-9.22705E-07 5.87892E-21
 -1      5773 9.59986E-05-9.22705E-07 1.67566E-06
 -1      5774 1.41078E-04-6.21901E-06-2.46253E-06
 -1      5775 1.41100E-04-6.21901E-06 8.63959E-21
 -1      5776 1.41078E-04-6.21901E-06 2.46253E-06
 -1      5777 6.50341E-05-9.02916E-07-1.13517E-06
 -1      5778 6.50440E-05-9.02916E-07 3.98267E-21
 -1      5779 6.50341E-05-9.02916E-07 1.13517E-06
 -1      5780 6.45252E-05-1.31846E-06-1.12629E-06
 -1      5781 6.45350E-05-1.31846E-06 3.95150E-21
 -1      5782 6.45252E-05-1.31846E-06 1.12629E-06
 -1      5783 6.45501E-05-7.67883E-06-1.12673E-06
 -1      5784 6.45600E-05-7.67883E-06 3.95303E-21
 -1      5785 6.45501E-05-7.67883E-06 1.12673E-06
 -1      5786 7.01942E-05-9.30072E-07-1.22524E-06
 -1      5787 7.02049E-05-9.30072E-07 4.29867E-21
 -1      5788 7.01942E-05-9.30072E-07 1.22524E-06
 -1      5789 1.41484E-04-4.79688E-06-2.46961E-06
 -1      5790 1.41506E-04-4.79688E-06 8.66443E-21
 -1      5791 1.41484E-04-4.79688E-06 2.46961E-06
 -1      5792 1.41452E-04-3.37858E-06-2.46906E-06
 -1      5793 1.41474E-04-3.37858E-06 8.66250E-21
 -1      5794 1.41452E-04-3.37858E-06 2.46906E-06
 -1      5795 1.41577E-04-2.32475E-06-2.47124E-06
 -1      5796 1.41599E-04-2.32475E-06 8.67015E-21
 -1      5797 1.41577E-04-2.32475E-06 2.47124E-06
 -1      5798 1.21935E-04-9.51364E-07-2.12839E-06
 -1      5799 1.21954E-04-9.51364E-07 7.46726E-21
 -1      5800 1.21935E-04-9.51364E-07 2.12839E-06
 -1      5801 1.06678E-04-9.23009E-07-1.86207E-06
 -1      5802 1.06694E-04-9.23009E-07 6.53292E-21
 -1      5803 1.06678E-04-9.23009E-07 1.86207E-06
 -1      5804 1.11113E-04-9.31446E-07-1.93949E-06
 -1      5805 1.11130E-04-9.31446E-07 6.80452E-21
 -1      5806 1.11113E-04-9.31446E-07 1.93949E-06
 -1      5807 9.04144E-05-9.23525E-07-1.57819E-06
 -1      5808 9.04282E-05-9.23525E-07 5.53695E-21
 -1      5809 9.04144E-05-9.23525E-07 1.57819E-06
 -1      5810 8.18125E-05-9.24103E-07-1.42804E-06
 -1      5811 8.18249E-05-9.24103E-07 5.01017E-21
 -1      5812 8.18125E-05-9.24103E-07 1.42804E-06
 -1      5813 8.57437E-05-9.23682E-07-1.49666E-06
 -1      5814 8.57567E-05-9.23682E-07 5.25091E-21
 -1      5815 8.57437E-05-9.23682E-07 1.49666E-06
 -1      5816 7.84807E-05-9.24013E-07-1.36989E-06
 -1      5817 7.84927E-05-9.24013E-07 4.80613E-21
 -1      5818 7.84807E-05-9.24013E-07 1.36989E-06
 -1      5819 7.21296E-05-9.25199E-07-1.25903E-06
 -1      5820 7.21406E-05-9.25199E-07 4.41719E-21
 -1      5821 7.21296E-05-9.25199E-07 1.25903E-06
 -1      5822 7.43794E-05-9.24024E-07-1.29830E-06
 -1      5823 7.43908E-05-9.24024E-07 4.55497E-21
 -1      5824 7.43794E-05-9.24024E-07 1.29830E-06
 -1      5825 6.85308E-05-9.38223E-07-1.19621E-06
 -1      5826 6.85412E-05-9.38223E-07 4.19680E-21
 -1      5827 6.85308E-05-9.38223E-07 1.19621E-06
 -1      5828 6.64714E-05-9.30022E-07-1.16026E-06
 -1      5829 6.64815E-05-9.30022E-07 4.07069E-21
 -1      5830 6.64714E-05-9.30022E-07 1.16026E-06
 -1      5831 6.54533E-05-8.31424E-07-1.14249E-06
 -1      5832 6.54633E-05-8.31424E-07 4.00834E-21
 -1      5833 6.54533E-05-8.31424E-07 1.14249E-06
 -1      5834 1.40825E-04-6.58072E-06-2.45812E-06
 -1      5835 1.40847E-04-6.58072E-06 8.62410E-21
 -1      5836 1.40825E-04-6.58072E-06 2.45812E-06
 -1      5837 6.45296E-05-2.67756E-06-1.12637E-06
 -1      5838 6.45394E-05-2.67756E-06 3.95177E-21
 -1      5839 6.45296E-05-2.67756E-06 1.12637E-06
 -1      5840 6.45272E-05-4.08651E-06-1.12633E-06
 -1      5841 6.45371E-05-4.08651E-06 3.95162E-21
 -1      5842 6.45272E-05-4.08651E-06 1.12633E-06
 -1      5843 6.45262E-05-5.15560E-06-1.12631E-06
 -1      5844 6.45360E-05-5.15560E-06 3.95156E-21
 -1      5845 6.45262E-05-5.15560E-06 1.12631E-06
 -1      5846 6.45239E-05-5.86448E-06-1.12627E-06
 -1      5847 6.45337E-05-5.86448E-06 3.95142E-21
 -1      5848 6.45239E-05-5.86448E-06 1.12627E-06
 -1      5849 6.45123E-05-6.57334E-06-1.12607E-06
 -1      5850 6.45221E-05-6.57334E-06 3.95071E-21
 -1      5851 6.45123E-05-6.57334E-06 1.12607E-06
 -1      5852 6.45118E-05-7.29478E-06-1.12606E-06
 -1      5853 6.45216E-05-7.29478E-06 3.95068E-21
 -1      5854 6.45118E-05-7.29478E-06 1.12606E-06
 -1      5855 1.28248E-04-9.11225E-07-2.23857E-06
 -1      5856 1.28267E-04-9.11225E-07 7.85385E-21
 -1      5857 1.28248E-04-9.11225E-07 2.23857E-06
 -1      5858 1.16148E-04-9.44718E-07-2.02737E-06
 -1      5859 1.16166E-04-9.44718E-07 7.11287E-21
 -1      5860 1.16148E-04-9.44718E-07 2.02737E-06
 -1      5861 7.63100E-05-1.23208E-06-1.33200E-06
 -1      5862 7.63216E-05-1.23208E-06 4.67320E-21
 -1      5863 7.63100E-05-1.23208E-06 1.33200E-06
 -1      5864 6.49344E-05-3.90575E-06-1.13343E-06
 -1      5865 6.49443E-05-3.90575E-06 3.97656E-21
 -1      5866 6.49344E-05-3.90575E-06 1.13343E-06
 -1      5867 1.34595E-04-4.97050E-06-2.34937E-06
 -1      5868 1.34616E-04-4.97050E-06 8.24258E-21
 -1      5869 1.34595E-04-4.97050E-06 2.34937E-06
 -1      5870 1.34870E-04-2.15838E-06-2.35416E-06
 -1      5871 1.34890E-04-2.15838E-06 8.25936E-21
 -1      5872 1.34870E-04-2.15838E-06 2.35416E-06
 -1      5873 7.92638E-05-1.23228E-06-1.38355E-06
 -1      5874 7.92758E-05-1.23228E-06 4.85408E-21
 -1      5875 7.92638E-05-1.23228E-06 1.38355E-06
 -1      5876 7.77284E-05-1.23217E-06-1.35676E-06
 -1      5877 7.77403E-05-1.23217E-06 4.76006E-21
 -1      5878 7.77284E-05-1.23217E-06 1.35676E-06
 -1      5879 6.48804E-05-7.09555E-06-1.13249E-06
 -1      5880 6.48903E-05-7.09555E-06 3.97325E-21
 -1      5881 6.48804E-05-7.09555E-06 1.13249E-06
 -1      5882 6.49430E-05-2.84656E-06-1.13358E-06
 -1      5883 6.49529E-05-2.84656E-06 3.97709E-21
 -1      5884 6.49430E-05-2.84656E-06 1.13358E-06
 -1      5885 1.34542E-04-3.20094E-06-2.34843E-06
 -1      5886 1.34562E-04-3.20094E-06 8.23929E-21
 -1      5887 1.34542E-04-3.20094E-06 2.34843E-06
 -1      5888 1.34626E-04-2.49858E-06-2.34990E-06
 -1      5889 1.34646E-04-2.49858E-06 8.24442E-21
 -1      5890 1.34626E-04-2.49858E-06 2.34990E-06
 -1      5891 1.34573E-04-5.32181E-06-2.34898E-06
 -1      5892 1.34593E-04-5.32181E-06 8.24120E-21
 -1      5893 1.34573E-04-5.32181E-06 2.34898E-06
 -1      5894 1.00889E-04-1.22729E-06-1.76103E-06
 -1      5895 1.00904E-04-1.22729E-06 6.17841E-21
 -1      5896 1.00889E-04-1.22729E-06 1.76103E-06
 -1      5897 6.49307E-05-4.97819E-06-1.13337E-06
 -1      5898 6.49405E-05-4.97819E-06 3.97633E-21
 -1      5899 6.49307E-05-4.97819E-06 1.13337E-06
 -1      5900 1.34263E-04-6.02938E-06-2.34356E-06
 -1      5901 1.34283E-04-6.02938E-06 8.22219E-21
 -1      5902 1.34263E-04-6.02938E-06 2.34356E-06
 -1      5903 8.91679E-05-1.23146E-06-1.55643E-06
 -1      5904 8.91815E-05-1.23146E-06 5.46061E-21
 -1      5905 8.91679E-05-1.23146E-06 1.55643E-06
 -1      5906 8.46973E-05-1.23180E-06-1.47840E-06
 -1      5907 8.47102E-05-1.23180E-06 5.18683E-21
 -1      5908 8.46973E-05-1.23180E-06 1.47840E-06
 -1      5909 6.49333E-05-5.68885E-06-1.13342E-06
 -1      5910 6.49432E-05-5.68885E-06 3.97649E-21
 -1      5911 6.49333E-05-5.68885E-06 1.13342E-06
 -1      5912 1.34553E-04-3.55608E-06-2.34863E-06
 -1      5913 1.34574E-04-3.55608E-06 8.23999E-21
 -1      5914 1.34553E-04-3.55608E-06 2.34863E-06
 -1      5915 6.49000E-05-7.45598E-06-1.13283E-06
 -1      5916 6.49099E-05-7.45598E-06 3.97445E-21
 -1      5917 6.49000E-05-7.45598E-06 1.13283E-06
 -1      5918 8.68356E-05-1.23154E-06-1.51572E-06
 -1      5919 8.68488E-05-1.23154E-06 5.31778E-21
 -1      5920 8.68356E-05-1.23154E-06 1.51572E-06
 -1      5921 6.61011E-05-1.23693E-06-1.15380E-06
 -1      5922 6.61112E-05-1.23693E-06 4.04801E-21
 -1      5923 6.61011E-05-1.23693E-06 1.15380E-06
 -1      5924 8.09278E-05-1.23228E-06-1.41260E-06
 -1      5925 8.09401E-05-1.23228E-06 4.95599E-21
 -1      5926 8.09278E-05-1.23228E-06 1.41260E-06
 -1      5927 7.37843E-05-1.23225E-06-1.28791E-06
 -1      5928 7.37956E-05-1.23225E-06 4.51853E-21
 -1      5929 7.37843E-05-1.23225E-06 1.28791E-06
 -1      5930 7.16168E-05-1.23441E-06-1.25008E-06
 -1      5931 7.16277E-05-1.23441E-06 4.38579E-21
 -1      5932 7.16168E-05-1.23441E-06 1.25008E-06
 -1      5933 6.97466E-05-1.24325E-06-1.21743E-06
 -1      5934 6.97572E-05-1.24325E-06 4.27126E-21
 -1      5935 6.97466E-05-1.24325E-06 1.21743E-06
 -1      5936 1.33454E-04-6.75581E-06-2.32945E-06
 -1      5937 1.33475E-04-6.75581E-06 8.17269E-21
 -1      5938 1.33454E-04-6.75581E-06 2.32945E-06
 -1      5939 1.33881E-04-6.38849E-06-2.33690E-06
 -1      5940 1.33901E-04-6.38849E-06 8.19882E-21
 -1      5941 1.33881E-04-6.38849E-06 2.33690E-06
 -1      5942 6.48982E-05-1.84789E-06-1.13280E-06
 -1      5943 6.49080E-05-1.84789E-06 3.97434E-21
 -1      5944 6.48982E-05-1.84789E-06 1.13280E-06
 -1      5945 6.49058E-05-6.74891E-06-1.13294E-06
 -1      5946 6.49157E-05-6.74891E-06 3.97481E-21
 -1      5947 6.49058E-05-6.74891E-06 1.13294E-06
 -1      5948 6.49365E-05-2.50313E-06-1.13347E-06
 -1      5949 6.49464E-05-2.50313E-06 3.97669E-21
 -1      5950 6.49365E-05-2.50313E-06 1.13347E-06
 -1      5951 8.27340E-05-1.23207E-06-1.44413E-06
 -1      5952 8.27466E-05-1.23207E-06 5.06660E-21
 -1      5953 8.27340E-05-1.23207E-06 1.44413E-06
 -1      5954 6.54957E-05-1.15389E-06-1.14323E-06
 -1      5955 6.55057E-05-1.15389E-06 4.01094E-21
 -1      5956 6.54957E-05-1.15389E-06 1.14323E-06
 -1      5957 6.67365E-05-1.25607E-06-1.16489E-06
 -1      5958 6.67466E-05-1.25607E-06 4.08692E-21
 -1      5959 6.67365E-05-1.25607E-06 1.16489E-06
 -1      5960 6.49397E-05-3.54921E-06-1.13353E-06
 -1      5961 6.49496E-05-3.54921E-06 3.97688E-21
 -1      5962 6.49397E-05-3.54921E-06 1.13353E-06
 -1      5963 6.49435E-05-3.19550E-06-1.13359E-06
 -1      5964 6.49534E-05-3.19550E-06 3.97712E-21
 -1      5965 6.49435E-05-3.19550E-06 1.13359E-06
 -1      5966 1.34481E-04-5.67528E-06-2.34738E-06
 -1      5967 1.34502E-04-5.67528E-06 8.23559E-21
 -1      5968 1.34481E-04-5.67528E-06 2.34738E-06
 -1      5969 9.17161E-05-1.23147E-06-1.60091E-06
 -1      5970 9.17301E-05-1.23147E-06 5.61666E-21
 -1      5971 9.17161E-05-1.23147E-06 1.60091E-06
 -1      5972 6.49345E-05-2.16437E-06-1.13344E-06
 -1      5973 6.49444E-05-2.16437E-06 3.97656E-21
 -1      5974 6.49345E-05-2.16437E-06 1.13344E-06
 -1      5975 6.49288E-05-4.62117E-06-1.13334E-06
 -1      5976 6.49387E-05-4.62117E-06 3.97622E-21
 -1      5977 6.49288E-05-4.62117E-06 1.13334E-06
 -1      5978 1.34548E-04-2.84740E-06-2.34854E-06
 -1      5979 1.34568E-04-2.84740E-06 8.23966E-21
 -1      5980 1.34548E-04-2.84740E-06 2.34854E-06
 -1      5981 6.49330E-05-5.33437E-06-1.13341E-06
 -1      5982 6.49429E-05-5.33437E-06 3.97648E-21
 -1      5983 6.49330E-05-5.33437E-06 1.13341E-06
 -1      5984 6.49109E-05-6.39227E-06-1.13302E-06
 -1      5985 6.49208E-05-6.39227E-06 3.97512E-21
 -1      5986 6.49109E-05-6.39227E-06 1.13302E-06
 -1      5987 1.33660E-04-1.13968E-06-2.33304E-06
 -1      5988 1.33680E-04-1.13968E-06 8.18529E-21
 -1      5989 1.33660E-04-1.13968E-06 2.33304E-06
 -1      5990 1.34547E-04-8.32985E-07-2.34852E-06
 -1      5991 1.34567E-04-8.32985E-07 8.23959E-21
 -1      5992 1.34547E-04-8.32985E-07 2.34852E-06
 -1      5993 7.06487E-05-1.23754E-06-1.23318E-06
 -1      5994 7.06595E-05-1.23754E-06 4.32650E-21
 -1      5995 7.06487E-05-1.23754E-06 1.23318E-06
 -1      5996 1.25423E-04-7.58737E-06-2.18926E-06
 -1      5997 1.25442E-04-7.58737E-06 7.68083E-21
 -1      5998 1.25423E-04-7.58737E-06 2.18926E-06
 -1      5999 1.19414E-04-7.59454E-06-2.08438E-06
 -1      6000 1.19432E-04-7.59454E-06 7.31286E-21
 -1      6001 1.19414E-04-7.59454E-06 2.08438E-06
 -1      6002 1.14122E-04-7.60540E-06-1.99200E-06
 -1      6003 1.14139E-04-7.60540E-06 6.98878E-21
 -1      6004 1.14122E-04-7.60540E-06 1.99200E-06
 -1      6005 1.09392E-04-7.61433E-06-1.90944E-06
 -1      6006 1.09408E-04-7.61433E-06 6.69910E-21
 -1      6007 1.09392E-04-7.61433E-06 1.90944E-06
 -1      6008 1.05158E-04-7.61951E-06-1.83553E-06
 -1      6009 1.05174E-04-7.61951E-06 6.43982E-21
 -1      6010 1.05158E-04-7.61951E-06 1.83553E-06
 -1      6011 1.01357E-04-7.62125E-06-1.76920E-06
 -1      6012 1.01373E-04-7.62125E-06 6.20709E-21
 -1      6013 1.01357E-04-7.62125E-06 1.76920E-06
 -1      6014 9.79324E-05-7.62074E-06-1.70942E-06
 -1      6015 9.79473E-05-7.62074E-06 5.99735E-21
 -1      6016 9.79324E-05-7.62074E-06 1.70942E-06
 -1      6017 9.48316E-05-7.61928E-06-1.65529E-06
 -1      6018 9.48460E-05-7.61928E-06 5.80745E-21
 -1      6019 9.48316E-05-7.61928E-06 1.65529E-06
 -1      6020 9.20122E-05-7.61780E-06-1.60608E-06
 -1      6021 9.20262E-05-7.61780E-06 5.63480E-21
 -1      6022 9.20122E-05-7.61780E-06 1.60608E-06
 -1      6023 8.94396E-05-7.61677E-06-1.56117E-06
 -1      6024 8.94532E-05-7.61677E-06 5.47725E-21
 -1      6025 8.94396E-05-7.61677E-06 1.56117E-06
 -1      6026 8.70856E-05-7.61620E-06-1.52009E-06
 -1      6027 8.70989E-05-7.61620E-06 5.33309E-21
 -1      6028 8.70856E-05-7.61620E-06 1.52009E-06
 -1      6029 8.49276E-05-7.61590E-06-1.48242E-06
 -1      6030 8.49405E-05-7.61590E-06 5.20093E-21
 -1      6031 8.49276E-05-7.61590E-06 1.48242E-06
 -1      6032 8.29455E-05-7.61577E-06-1.44782E-06
 -1      6033 8.29581E-05-7.61577E-06 5.07955E-21
 -1      6034 8.29455E-05-7.61577E-06 1.44782E-06
 -1      6035 8.11218E-05-7.61578E-06-1.41599E-06
 -1      6036 8.11342E-05-7.61578E-06 4.96787E-21
 -1      6037 8.11218E-05-7.61578E-06 1.41599E-06
 -1      6038 7.94413E-05-7.61592E-06-1.38665E-06
 -1      6039 7.94534E-05-7.61592E-06 4.86496E-21
 -1      6040 7.94413E-05-7.61592E-06 1.38665E-06
 -1      6041 7.78909E-05-7.61608E-06-1.35959E-06
 -1      6042 7.79027E-05-7.61608E-06 4.77001E-21
 -1      6043 7.78909E-05-7.61608E-06 1.35959E-06
 -1      6044 7.64591E-05-7.61624E-06-1.33460E-06
 -1      6045 7.64707E-05-7.61624E-06 4.68233E-21
 -1      6046 7.64591E-05-7.61624E-06 1.33460E-06
 -1      6047 7.51363E-05-7.61644E-06-1.31151E-06
 -1      6048 7.51478E-05-7.61644E-06 4.60132E-21
 -1      6049 7.51363E-05-7.61644E-06 1.31151E-06
 -1      6050 7.39139E-05-7.61671E-06-1.29017E-06
 -1      6051 7.39252E-05-7.61671E-06 4.52646E-21
 -1      6052 7.39139E-05-7.61671E-06 1.29017E-06
 -1      6053 7.27838E-05-7.61702E-06-1.27045E-06
 -1      6054 7.27949E-05-7.61702E-06 4.45726E-21
 -1      6055 7.27838E-05-7.61702E-06 1.27045E-06
 -1      6056 7.17392E-05-7.61730E-06-1.25221E-06
 -1      6057 7.17502E-05-7.61730E-06 4.39328E-21
 -1      6058 7.17392E-05-7.61730E-06 1.25221E-06
 -1      6059 7.07745E-05-7.61756E-06-1.23537E-06
 -1      6060 7.07853E-05-7.61756E-06 4.33421E-21
 -1      6061 7.07745E-05-7.61756E-06 1.23537E-06
 -1      6062 6.98846E-05-7.61790E-06-1.21984E-06
 -1      6063 6.98952E-05-7.61790E-06 4.27971E-21
 -1      6064 6.98846E-05-7.61790E-06 1.21984E-06
 -1      6065 6.90645E-05-7.61832E-06-1.20553E-06
 -1      6066 6.90750E-05-7.61832E-06 4.22949E-21
 -1      6067 6.90645E-05-7.61832E-06 1.20553E-06
 -1      6068 6.83094E-05-7.61831E-06-1.19235E-06
 -1      6069 6.83198E-05-7.61831E-06 4.18325E-21
 -1      6070 6.83094E-05-7.61831E-06 1.19235E-06
 -1      6071 6.76137E-05-7.61570E-06-1.18020E-06
 -1      6072 6.76240E-05-7.61570E-06 4.14064E-21
 -1      6073 6.76137E-05-7.61570E-06 1.18020E-06
 -1      6074 6.69735E-05-7.60810E-06-1.16903E-06
 -1      6075 6.69837E-05-7.60810E-06 4.10143E-21
 -1      6076 6.69735E-05-7.60810E-06 1.16903E-06
 -1      6077 6.63864E-05-7.59571E-06-1.15878E-06
 -1      6078 6.63965E-05-7.59571E-06 4.06548E-21
 -1      6079 6.63864E-05-7.59571E-06 1.15878E-06
 -1      6080 6.58475E-05-7.57795E-06-1.14937E-06
 -1      6081 6.58576E-05-7.57795E-06 4.03248E-21
 -1      6082 6.58475E-05-7.57795E-06 1.14937E-06
 -1      6083 6.53517E-05-7.55060E-06-1.14072E-06
 -1      6084 6.53617E-05-7.55060E-06 4.00211E-21
 -1      6085 6.53517E-05-7.55060E-06 1.14072E-06
 -1      6086 6.49462E-05-1.20857E-06-1.13364E-06
 -1      6087 6.49561E-05-1.20857E-06 3.97728E-21
 -1      6088 6.49462E-05-1.20857E-06 1.13364E-06
 -1      6089 6.74116E-05-1.26017E-06-1.17667E-06
 -1      6090 6.74219E-05-1.26017E-06 4.12826E-21
 -1      6091 6.74116E-05-1.26017E-06 1.17667E-06
 -1      6092 1.33037E-04-7.54418E-06-2.32217E-06
 -1      6093 1.33058E-04-7.54418E-06 8.14716E-21
 -1      6094 1.33037E-04-7.54418E-06 2.32217E-06
 -1      6095 6.81313E-05-1.25727E-06-1.18924E-06
 -1      6096 6.81417E-05-1.25727E-06 4.17234E-21
 -1      6097 6.81313E-05-1.25727E-06 1.18924E-06
 -1      6098 1.34570E-04-4.26512E-06-2.34893E-06
 -1      6099 1.34591E-04-4.26512E-06 8.24102E-21
 -1      6100 1.34570E-04-4.26512E-06 2.34893E-06
 -1      6101 6.49304E-05-4.26340E-06-1.13336E-06
 -1      6102 6.49403E-05-4.26340E-06 3.97631E-21
 -1      6103 6.49304E-05-4.26340E-06 1.13336E-06
 -1      6104 9.75474E-05-1.22994E-06-1.70270E-06
 -1      6105 9.75622E-05-1.22994E-06 5.97377E-21
 -1      6106 9.75474E-05-1.22994E-06 1.70270E-06
 -1      6107 1.33550E-04-1.47801E-06-2.33113E-06
 -1      6108 1.33571E-04-1.47801E-06 8.17857E-21
 -1      6109 1.33550E-04-1.47801E-06 2.33113E-06
 -1      6110 1.34560E-04-3.91099E-06-2.34876E-06
 -1      6111 1.34581E-04-3.91099E-06 8.24042E-21
 -1      6112 1.34560E-04-3.91099E-06 2.34876E-06
 -1      6113 1.08717E-04-1.22989E-06-1.89767E-06
 -1      6114 1.08734E-04-1.22989E-06 6.65781E-21
 -1      6115 1.08717E-04-1.22989E-06 1.89767E-06
 -1      6116 7.26597E-05-1.23290E-06-1.26828E-06
 -1      6117 7.26708E-05-1.23290E-06 4.44966E-21
 -1      6118 7.26597E-05-1.23290E-06 1.26828E-06
 -1      6119 7.49983E-05-1.23207E-06-1.30910E-06
 -1      6120 7.50097E-05-1.23207E-06 4.59287E-21
 -1      6121 7.49983E-05-1.23207E-06 1.30910E-06
 -1      6122 1.26095E-04-1.29957E-06-2.20100E-06
 -1      6123 1.26115E-04-1.29957E-06 7.72203E-21
 -1      6124 1.26095E-04-1.29957E-06 2.20100E-06
 -1      6125 1.34586E-04-4.61788E-06-2.34922E-06
 -1      6126 1.34607E-04-4.61788E-06 8.24203E-21
 -1      6127 1.34586E-04-4.61788E-06 2.34922E-06
 -1      6128 6.49266E-05-6.04097E-06-1.13330E-06
 -1      6129 6.49365E-05-6.04097E-06 3.97608E-21
 -1      6130 6.49266E-05-6.04097E-06 1.13330E-06
 -1      6131 1.33725E-04-7.12484E-06-2.33418E-06
 -1      6132 1.33746E-04-7.12484E-06 8.18928E-21
 -1      6133 1.33725E-04-7.12484E-06 2.33418E-06
 -1      6134 9.45025E-05-1.23123E-06-1.64955E-06
 -1      6135 9.45169E-05-1.23123E-06 5.78730E-21
 -1      6136 9.45025E-05-1.23123E-06 1.64955E-06
 -1      6137 1.13427E-04-1.24831E-06-1.97988E-06
 -1      6138 1.13444E-04-1.24831E-06 6.94623E-21
 -1      6139 1.13427E-04-1.24831E-06 1.97988E-06
 -1      6140 6.48759E-05-1.52537E-06-1.13241E-06
 -1      6141 6.48858E-05-1.52537E-06 3.97298E-21
 -1      6142 6.48759E-05-1.52537E-06 1.13241E-06
 -1      6143 1.04580E-04-1.22510E-06-1.82545E-06
 -1      6144 1.04596E-04-1.22510E-06 6.40443E-21
 -1      6145 1.04580E-04-1.22510E-06 1.82545E-06
 -1      6146 6.89072E-05-1.25090E-06-1.20278E-06
 -1      6147 6.89177E-05-1.25090E-06 4.21986E-21
 -1      6148 6.89072E-05-1.25090E-06 1.20278E-06
 -1      6149 1.18957E-04-1.27728E-06-2.07640E-06
 -1      6150 1.18975E-04-1.27728E-06 7.28488E-21
 -1      6151 1.18957E-04-1.27728E-06 2.07640E-06
 -1      6152 1.27890E-04-6.18585E-06-2.23233E-06
 -1      6153 1.27910E-04-6.18585E-06 7.83196E-21
 -1      6154 1.27890E-04-6.18585E-06 2.23233E-06
 -1      6155 6.53630E-05-4.44161E-06-1.14091E-06
 -1      6156 6.53729E-05-4.44161E-06 4.00280E-21
 -1      6157 6.53630E-05-4.44161E-06 1.14091E-06
 -1      6158 6.52221E-05-7.25604E-06-1.13846E-06
 -1      6159 6.52320E-05-7.25604E-06 3.99418E-21
 -1      6160 6.52221E-05-7.25604E-06 1.13846E-06
 -1      6161 1.28425E-04-4.44044E-06-2.24166E-06
 -1      6162 1.28444E-04-4.44044E-06 7.86468E-21
 -1      6163 1.28425E-04-4.44044E-06 2.24166E-06
 -1      6164 6.84895E-05-1.57341E-06-1.19549E-06
 -1      6165 6.85000E-05-1.57341E-06 4.19427E-21
 -1      6166 6.84895E-05-1.57341E-06 1.19549E-06
 -1      6167 6.53696E-05-5.15771E-06-1.14103E-06
 -1      6168 6.53795E-05-5.15771E-06 4.00321E-21
 -1      6169 6.53696E-05-5.15771E-06 1.14103E-06
 -1      6170 1.28459E-04-5.13835E-06-2.24226E-06
 -1      6171 1.28479E-04-5.13835E-06 7.86680E-21
 -1      6172 1.28459E-04-5.13835E-06 2.24226E-06
 -1      6173 1.34473E-04-1.81583E-06-2.34723E-06
 -1      6174 1.34493E-04-1.81583E-06 8.23505E-21
 -1      6175 1.34473E-04-1.81583E-06 2.34723E-06
 -1      6176 1.28401E-04-3.37915E-06-2.24124E-06
 -1      6177 1.28420E-04-3.37915E-06 7.86321E-21
 -1      6178 1.28401E-04-3.37915E-06 2.24124E-06
 -1      6179 6.93071E-05-1.56061E-06-1.20976E-06
 -1      6180 6.93177E-05-1.56061E-06 4.24434E-21
 -1      6181 6.93071E-05-1.56061E-06 1.20976E-06
 -1      6182 6.54242E-05-1.96246E-06-1.14198E-06
 -1      6183 6.54342E-05-1.96246E-06 4.00656E-21
 -1      6184 6.54242E-05-1.96246E-06 1.14198E-06
 -1      6185 8.00787E-05-1.54072E-06-1.39778E-06
 -1      6186 8.00909E-05-1.54072E-06 4.90399E-21
 -1      6187 8.00787E-05-1.54072E-06 1.39778E-06
 -1      6188 1.28070E-04-7.28790E-06-2.23548E-06
 -1      6189 1.28090E-04-7.28790E-06 7.84298E-21
 -1      6190 1.28070E-04-7.28790E-06 2.23548E-06
 -1      6191 7.56423E-05-1.54024E-06-1.32034E-06
 -1      6192 7.56538E-05-1.54024E-06 4.63231E-21
 -1      6193 7.56423E-05-1.54024E-06 1.32034E-06
 -1      6194 6.57313E-05-1.56404E-06-1.14734E-06
 -1      6195 6.57413E-05-1.56404E-06 4.02536E-21
 -1      6196 6.57313E-05-1.56404E-06 1.14734E-06
 -1      6197 6.52645E-05-1.41809E-06-1.13920E-06
 -1      6198 6.52745E-05-1.41809E-06 3.99678E-21
 -1      6199 6.52645E-05-1.41809E-06 1.13920E-06
 -1      6200 7.32123E-05-1.54057E-06-1.27793E-06
 -1      6201 7.32235E-05-1.54057E-06 4.48350E-21
 -1      6202 7.32123E-05-1.54057E-06 1.27793E-06
 -1      6203 6.53675E-05-4.08207E-06-1.14099E-06
 -1      6204 6.53775E-05-4.08207E-06 4.00308E-21
 -1      6205 6.53675E-05-4.08207E-06 1.14099E-06
 -1      6206 7.43809E-05-1.54022E-06-1.29832E-06
 -1      6207 7.43923E-05-1.54022E-06 4.55506E-21
 -1      6208 7.43809E-05-1.54022E-06 1.29832E-06
 -1      6209 6.53946E-05-3.00902E-06-1.14147E-06
 -1      6210 6.54046E-05-3.00902E-06 4.00474E-21
 -1      6211 6.53946E-05-3.00902E-06 1.14147E-06
 -1      6212 6.53865E-05-2.66333E-06-1.14132E-06
 -1      6213 6.53964E-05-2.66333E-06 4.00424E-21
 -1      6214 6.53865E-05-2.66333E-06 1.14132E-06
 -1      6215 1.28450E-04-4.79051E-06-2.24210E-06
 -1      6216 1.28469E-04-4.79051E-06 7.86621E-21
 -1      6217 1.28450E-04-4.79051E-06 2.24210E-06
 -1      6218 6.63700E-05-1.57122E-06-1.15849E-06
 -1      6219 6.63801E-05-1.57122E-06 4.06447E-21
 -1      6220 6.63700E-05-1.57122E-06 1.15849E-06
 -1      6221 1.28507E-04-2.31541E-06-2.24310E-06
 -1      6222 1.28526E-04-2.31541E-06 7.86972E-21
 -1      6223 1.28507E-04-2.31541E-06 2.24310E-06
 -1      6224 6.53769E-05-3.72189E-06-1.14116E-06
 -1      6225 6.53869E-05-3.72189E-06 4.00366E-21
 -1      6226 6.53769E-05-3.72189E-06 1.14116E-06
 -1      6227 6.53876E-05-3.36343E-06-1.14134E-06
 -1      6228 6.53975E-05-3.36343E-06 4.00431E-21
 -1      6229 6.53876E-05-3.36343E-06 1.14134E-06
 -1      6230 1.28418E-04-5.48662E-06-2.24154E-06
 -1      6231 1.28437E-04-5.48662E-06 7.86425E-21
 -1      6232 1.28418E-04-5.48662E-06 2.24154E-06
 -1      6233 9.04131E-05-1.53938E-06-1.57817E-06
 -1      6234 9.04269E-05-1.53938E-06 5.53687E-21
 -1      6235 9.04131E-05-1.53938E-06 1.57817E-06
 -1      6236 6.53676E-05-2.32431E-06-1.14100E-06
 -1      6237 6.53776E-05-2.32431E-06 4.00309E-21
 -1      6238 6.53676E-05-2.32431E-06 1.14100E-06
 -1      6239 6.53642E-05-4.79977E-06-1.14094E-06
 -1      6240 6.53742E-05-4.79977E-06 4.00288E-21
 -1      6241 6.53642E-05-4.79977E-06 1.14094E-06
 -1      6242 1.28382E-04-2.66716E-06-2.24091E-06
 -1      6243 1.28401E-04-2.66716E-06 7.86204E-21
 -1      6244 1.28382E-04-2.66716E-06 2.24091E-06
 -1      6245 6.53153E-05-6.56241E-06-1.14008E-06
 -1      6246 6.53253E-05-6.56241E-06 3.99989E-21
 -1      6247 6.53153E-05-6.56241E-06 1.14008E-06
 -1      6248 6.53575E-05-6.21867E-06-1.14082E-06
 -1      6249 6.53675E-05-6.21867E-06 4.00247E-21
 -1      6250 6.53575E-05-6.21867E-06 1.14082E-06
 -1      6251 1.27238E-04-6.54444E-06-2.22095E-06
 -1      6252 1.27258E-04-6.54444E-06 7.79202E-21
 -1      6253 1.27238E-04-6.54444E-06 2.22095E-06
 -1      6254 1.22289E-04-7.27113E-06-2.13456E-06
 -1      6255 1.22307E-04-7.27113E-06 7.48892E-21
 -1      6256 1.22289E-04-7.27113E-06 2.13456E-06
 -1      6257 1.16568E-04-7.29037E-06-2.03469E-06
 -1      6258 1.16585E-04-7.29037E-06 7.13855E-21
 -1      6259 1.16568E-04-7.29037E-06 2.03469E-06
 -1      6260 1.11526E-04-7.30752E-06-1.94669E-06
 -1      6261 1.11543E-04-7.30752E-06 6.82980E-21
 -1      6262 1.11526E-04-7.30752E-06 1.94669E-06
 -1      6263 1.07042E-04-7.31820E-06-1.86842E-06
 -1      6264 1.07058E-04-7.31820E-06 6.55521E-21
 -1      6265 1.07042E-04-7.31820E-06 1.86842E-06
 -1      6266 1.03039E-04-7.32250E-06-1.79856E-06
 -1      6267 1.03055E-04-7.32250E-06 6.31008E-21
 -1      6268 1.03039E-04-7.32250E-06 1.79856E-06
 -1      6269 9.94472E-05-7.32228E-06-1.73586E-06
 -1      6270 9.94623E-05-7.32228E-06 6.09011E-21
 -1      6271 9.94472E-05-7.32228E-06 1.73586E-06
 -1      6272 9.62060E-05-7.31981E-06-1.67928E-06
 -1      6273 9.62207E-05-7.31981E-06 5.89162E-21
 -1      6274 9.62060E-05-7.31981E-06 1.67928E-06
 -1      6275 9.32661E-05-7.31699E-06-1.62797E-06
 -1      6276 9.32803E-05-7.31699E-06 5.71158E-21
 -1      6277 9.32661E-05-7.31699E-06 1.62797E-06
 -1      6278 9.05873E-05-7.31494E-06-1.58121E-06
 -1      6279 9.06011E-05-7.31494E-06 5.54753E-21
 -1      6280 9.05873E-05-7.31494E-06 1.58121E-06
 -1      6281 8.81378E-05-7.31381E-06-1.53845E-06
 -1      6282 8.81512E-05-7.31381E-06 5.39753E-21
 -1      6283 8.81378E-05-7.31381E-06 1.53845E-06
 -1      6284 8.58931E-05-7.31329E-06-1.49927E-06
 -1      6285 8.59062E-05-7.31329E-06 5.26006E-21
 -1      6286 8.58931E-05-7.31329E-06 1.49927E-06
 -1      6287 8.38327E-05-7.31306E-06-1.46331E-06
 -1      6288 8.38455E-05-7.31306E-06 5.13389E-21
 -1      6289 8.38327E-05-7.31306E-06 1.46331E-06
 -1      6290 8.19383E-05-7.31302E-06-1.43024E-06
 -1      6291 8.19508E-05-7.31302E-06 5.01787E-21
 -1      6292 8.19383E-05-7.31302E-06 1.43024E-06
 -1      6293 8.01936E-05-7.31315E-06-1.39978E-06
 -1      6294 8.02058E-05-7.31315E-06 4.91103E-21
 -1      6295 8.01936E-05-7.31315E-06 1.39978E-06
 -1      6296 7.85845E-05-7.31335E-06-1.37170E-06
 -1      6297 7.85965E-05-7.31335E-06 4.81249E-21
 -1      6298 7.85845E-05-7.31335E-06 1.37170E-06
 -1      6299 7.70993E-05-7.31354E-06-1.34577E-06
 -1      6300 7.71111E-05-7.31354E-06 4.72153E-21
 -1      6301 7.70993E-05-7.31354E-06 1.34577E-06
 -1      6302 7.57278E-05-7.31376E-06-1.32183E-06
 -1      6303 7.57393E-05-7.31376E-06 4.63754E-21
 -1      6304 7.57278E-05-7.31376E-06 1.32183E-06
 -1      6305 7.44608E-05-7.31414E-06-1.29972E-06
 -1      6306 7.44721E-05-7.31414E-06 4.55995E-21
 -1      6307 7.44608E-05-7.31414E-06 1.29972E-06
 -1      6308 7.32896E-05-7.31467E-06-1.27928E-06
 -1      6309 7.33008E-05-7.31467E-06 4.48823E-21
 -1      6310 7.32896E-05-7.31467E-06 1.27928E-06
 -1      6311 7.22071E-05-7.31515E-06-1.26038E-06
 -1      6312 7.22181E-05-7.31515E-06 4.42194E-21
 -1      6313 7.22071E-05-7.31515E-06 1.26038E-06
 -1      6314 7.12073E-05-7.31538E-06-1.24293E-06
 -1      6315 7.12182E-05-7.31538E-06 4.36071E-21
 -1      6316 7.12073E-05-7.31538E-06 1.24293E-06
 -1      6317 7.02860E-05-7.31554E-06-1.22685E-06
 -1      6318 7.02967E-05-7.31554E-06 4.30429E-21
 -1      6319 7.02860E-05-7.31554E-06 1.22685E-06
 -1      6320 6.94388E-05-7.31591E-06-1.21206E-06
 -1      6321 6.94494E-05-7.31591E-06 4.25241E-21
 -1      6322 6.94388E-05-7.31591E-06 1.21206E-06
 -1      6323 6.86613E-05-7.31649E-06-1.19849E-06
 -1      6324 6.86717E-05-7.31649E-06 4.20479E-21
 -1      6325 6.86613E-05-7.31649E-06 1.19849E-06
 -1      6326 6.79497E-05-7.31683E-06-1.18607E-06
 -1      6327 6.79600E-05-7.31683E-06 4.16121E-21
 -1      6328 6.79497E-05-7.31683E-06 1.18607E-06
 -1      6329 6.72948E-05-7.31067E-06-1.17464E-06
 -1      6330 6.73051E-05-7.31067E-06 4.12111E-21
 -1      6331 6.72948E-05-7.31067E-06 1.17464E-06
 -1      6332 6.66957E-05-7.29487E-06-1.16418E-06
 -1      6333 6.67059E-05-7.29487E-06 4.08442E-21
 -1      6334 6.66957E-05-7.29487E-06 1.16418E-06
 -1      6335 6.61504E-05-7.27763E-06-1.15466E-06
 -1      6336 6.61605E-05-7.27763E-06 4.05103E-21
 -1      6337 6.61504E-05-7.27763E-06 1.15466E-06
 -1      6338 6.70340E-05-1.58229E-06-1.17008E-06
 -1      6339 6.70442E-05-1.58229E-06 4.10514E-21
 -1      6340 6.70340E-05-1.58229E-06 1.17008E-06
 -1      6341 1.28378E-04-3.02297E-06-2.24085E-06
 -1      6342 1.28398E-04-3.02297E-06 7.86185E-21
 -1      6343 1.28378E-04-3.02297E-06 2.24085E-06
 -1      6344 6.53771E-05-5.86973E-06-1.14116E-06
 -1      6345 6.53871E-05-5.86973E-06 4.00367E-21
 -1      6346 6.53771E-05-5.86973E-06 1.14116E-06
 -1      6347 6.53534E-05-6.93877E-06-1.14075E-06
 -1      6348 6.53633E-05-6.93877E-06 4.00222E-21
 -1      6349 6.53534E-05-6.93877E-06 1.14075E-06
 -1      6350 1.27526E-04-1.69719E-06-2.22597E-06
 -1      6351 1.27545E-04-1.69719E-06 7.80963E-21
 -1      6352 1.27526E-04-1.69719E-06 2.22597E-06
 -1      6353 1.28412E-04-4.08819E-06-2.24144E-06
 -1      6354 1.28431E-04-4.08819E-06 7.86389E-21
 -1      6355 1.28412E-04-4.08819E-06 2.24144E-06
 -1      6356 8.36941E-05-1.54014E-06-1.46089E-06
 -1      6357 8.37069E-05-1.54014E-06 5.12540E-21
 -1      6358 8.36941E-05-1.54014E-06 1.46089E-06
 -1      6359 6.77347E-05-1.58235E-06-1.18231E-06
 -1      6360 6.77450E-05-1.58235E-06 4.14805E-21
 -1      6361 6.77347E-05-1.58235E-06 1.18231E-06
 -1      6362 1.28410E-04-3.73411E-06-2.24141E-06
 -1      6363 1.28430E-04-3.73411E-06 7.86380E-21
 -1      6364 1.28410E-04-3.73411E-06 2.24141E-06
 -1      6365 1.06431E-04-1.52464E-06-1.85776E-06
 -1      6366 1.06447E-04-1.52464E-06 6.51778E-21
 -1      6367 1.06431E-04-1.52464E-06 1.85776E-06
 -1      6368 1.28247E-04-5.83489E-06-2.23856E-06
 -1      6369 1.28267E-04-5.83489E-06 7.85380E-21
 -1      6370 1.28247E-04-5.83489E-06 2.23856E-06
 -1      6371 7.21289E-05-1.54168E-06-1.25901E-06
 -1      6372 7.21399E-05-1.54168E-06 4.41715E-21
 -1      6373 7.21289E-05-1.54168E-06 1.25901E-06
 -1      6374 8.57423E-05-1.53962E-06-1.49664E-06
 -1      6375 8.57553E-05-1.53962E-06 5.25083E-21
 -1      6376 8.57423E-05-1.53962E-06 1.49664E-06
 -1      6377 1.29344E-04-2.00380E-06-2.25770E-06
 -1      6378 1.29363E-04-2.00380E-06 7.92096E-21
 -1      6379 1.29344E-04-2.00380E-06 2.25770E-06
 -1      6380 9.91628E-05-1.53710E-06-1.73089E-06
 -1      6381 9.91779E-05-1.53710E-06 6.07269E-21
 -1      6382 9.91628E-05-1.53710E-06 1.73089E-06
 -1      6383 8.18119E-05-1.54052E-06-1.42803E-06
 -1      6384 8.18243E-05-1.54052E-06 5.01013E-21
 -1      6385 8.18119E-05-1.54052E-06 1.42803E-06
 -1      6386 7.70057E-05-1.54047E-06-1.34414E-06
 -1      6387 7.70174E-05-1.54047E-06 4.71580E-21
 -1      6388 7.70057E-05-1.54047E-06 1.34414E-06
 -1      6389 8.79750E-05-1.53931E-06-1.53561E-06
 -1      6390 8.79884E-05-1.53931E-06 5.38756E-21
 -1      6391 8.79750E-05-1.53931E-06 1.53561E-06
 -1      6392 6.53760E-05-5.51494E-06-1.14114E-06
 -1      6393 6.53859E-05-5.51494E-06 4.00360E-21
 -1      6394 6.53760E-05-5.51494E-06 1.14114E-06
 -1      6395 9.30795E-05-1.53973E-06-1.62471E-06
 -1      6396 9.30937E-05-1.53973E-06 5.70016E-21
 -1      6397 9.30795E-05-1.53973E-06 1.62471E-06
 -1      6398 6.56478E-05-7.25948E-06-1.14589E-06
 -1      6399 6.56578E-05-7.25948E-06 4.02025E-21
 -1      6400 6.56478E-05-7.25948E-06 1.14589E-06
 -1      6401 1.10718E-04-1.53618E-06-1.93259E-06
 -1      6402 1.10735E-04-1.53618E-06 6.78032E-21
 -1      6403 1.10718E-04-1.53618E-06 1.93259E-06
 -1      6404 6.52431E-05-1.68403E-06-1.13882E-06
 -1      6405 6.52531E-05-1.68403E-06 3.99547E-21
 -1      6406 6.52431E-05-1.68403E-06 1.13882E-06
 -1      6407 7.01839E-05-1.55047E-06-1.22506E-06
 -1      6408 7.01946E-05-1.55047E-06 4.29804E-21
 -1      6409 7.01839E-05-1.55047E-06 1.22506E-06
 -1      6410 1.21241E-04-1.63687E-06-2.11627E-06
 -1      6411 1.21259E-04-1.63687E-06 7.42475E-21
 -1      6412 1.21241E-04-1.63687E-06 2.11627E-06
 -1      6413 7.11230E-05-1.54434E-06-1.24146E-06
 -1      6414 7.11338E-05-1.54434E-06 4.35555E-21
 -1      6415 7.11230E-05-1.54434E-06 1.24146E-06
 -1      6416 7.84808E-05-1.54072E-06-1.36989E-06
 -1      6417 7.84927E-05-1.54072E-06 4.80614E-21
 -1      6418 7.84808E-05-1.54072E-06 1.36989E-06
 -1      6419 6.58478E-05-5.33829E-06-1.14938E-06
 -1      6420 6.58578E-05-5.33829E-06 4.03249E-21
 -1      6421 6.58478E-05-5.33829E-06 1.14938E-06
 -1      6422 9.59900E-05-1.53958E-06-1.67551E-06
 -1      6423 9.60046E-05-1.53958E-06 5.87839E-21
 -1      6424 9.59900E-05-1.53958E-06 1.67551E-06
 -1      6425 1.22890E-04-3.20361E-06-2.14506E-06
 -1      6426 1.22909E-04-3.20361E-06 7.52576E-21
 -1      6427 1.22890E-04-3.20361E-06 2.14506E-06
 -1      6428 1.19080E-04-6.97372E-06-2.07854E-06
 -1      6429 1.19098E-04-6.97372E-06 7.29239E-21
 -1      6430 1.19080E-04-6.97372E-06 2.07854E-06
 -1      6431 6.58416E-05-3.89772E-06-1.14927E-06
 -1      6432 6.58517E-05-3.89772E-06 4.03212E-21
 -1      6433 6.58416E-05-3.89772E-06 1.14927E-06
 -1      6434 1.22956E-04-4.95686E-06-2.14620E-06
 -1      6435 1.22975E-04-4.95686E-06 7.52978E-21
 -1      6436 1.22956E-04-4.95686E-06 2.14620E-06
 -1      6437 6.80730E-05-1.90616E-06-1.18822E-06
 -1      6438 6.80834E-05-1.90616E-06 4.16877E-21
 -1      6439 6.80730E-05-1.90616E-06 1.18822E-06
 -1      6440 1.23106E-04-2.05108E-06-2.14882E-06
 -1      6441 1.23124E-04-2.05108E-06 7.53895E-21
 -1      6442 1.23106E-04-2.05108E-06 2.14882E-06
 -1      6443 6.57887E-05-2.16818E-06-1.14835E-06
 -1      6444 6.57988E-05-2.16818E-06 4.02888E-21
 -1      6445 6.57887E-05-2.16818E-06 1.14835E-06
 -1      6446 1.02623E-04-1.53091E-06-1.79129E-06
 -1      6447 1.02638E-04-1.53091E-06 6.28458E-21
 -1      6448 1.02623E-04-1.53091E-06 1.79129E-06
 -1      6449 6.58841E-05-3.16774E-06-1.15001E-06
 -1      6450 6.58941E-05-3.16774E-06 4.03472E-21
 -1      6451 6.58841E-05-3.16774E-06 1.15001E-06
 -1      6452 1.26201E-04-6.93514E-06-2.20284E-06
 -1      6453 1.26220E-04-6.93514E-06 7.72848E-21
 -1      6454 1.26201E-04-6.93514E-06 2.20284E-06
 -1      6455 6.58898E-05-2.81017E-06-1.15011E-06
 -1      6456 6.58999E-05-2.81017E-06 4.03507E-21
 -1      6457 6.58898E-05-2.81017E-06 1.15011E-06
 -1      6458 1.15605E-04-1.57685E-06-2.01789E-06
 -1      6459 1.15622E-04-1.57685E-06 7.07960E-21
 -1      6460 1.15605E-04-1.57685E-06 2.01789E-06
 -1      6461 6.58297E-05-4.62043E-06-1.14906E-06
 -1      6462 6.58397E-05-4.62043E-06 4.03139E-21
 -1      6463 6.58297E-05-4.62043E-06 1.14906E-06
 -1      6464 1.00858E-04-1.84401E-06-1.76049E-06
 -1      6465 1.00874E-04-1.84401E-06 6.17653E-21
 -1      6466 1.00858E-04-1.84401E-06 1.76049E-06
 -1      6467 7.92634E-05-1.84965E-06-1.38355E-06
 -1      6468 7.92755E-05-1.84965E-06 4.85406E-21
 -1      6469 7.92634E-05-1.84965E-06 1.38355E-06
 -1      6470 6.60351E-05-1.88285E-06-1.15265E-06
 -1      6471 6.60452E-05-1.88285E-06 4.04397E-21
 -1      6472 6.60351E-05-1.88285E-06 1.15265E-06
 -1      6473 6.58568E-05-2.47166E-06-1.14954E-06
 -1      6474 6.58669E-05-2.47166E-06 4.03305E-21
 -1      6475 6.58568E-05-2.47166E-06 1.14954E-06
 -1      6476 6.58604E-05-3.53318E-06-1.14960E-06
 -1      6477 6.58704E-05-3.53318E-06 4.03327E-21
 -1      6478 6.58604E-05-3.53318E-06 1.14960E-06
 -1      6479 1.22971E-04-5.30019E-06-2.14646E-06
 -1      6480 1.22989E-04-5.30019E-06 7.53068E-21
 -1      6481 1.22971E-04-5.30019E-06 2.14646E-06
 -1      6482 7.26630E-05-1.84893E-06-1.26834E-06
 -1      6483 7.26741E-05-1.84893E-06 4.44986E-21
 -1      6484 7.26630E-05-1.84893E-06 1.26834E-06
 -1      6485 6.58353E-05-4.97906E-06-1.14916E-06
 -1      6486 6.58454E-05-4.97906E-06 4.03173E-21
 -1      6487 6.58353E-05-4.97906E-06 1.14916E-06
 -1      6488 1.22866E-04-2.47452E-06-2.14463E-06
 -1      6489 1.22885E-04-2.47452E-06 7.52427E-21
 -1      6490 1.22866E-04-2.47452E-06 2.14463E-06
 -1      6491 6.58095E-05-6.40266E-06-1.14871E-06
 -1      6492 6.58195E-05-6.40266E-06 4.03015E-21
 -1      6493 6.58095E-05-6.40266E-06 1.14871E-06
 -1      6494 1.22886E-04-5.63800E-06-2.14499E-06
 -1      6495 1.22905E-04-5.63800E-06 7.52551E-21
 -1      6496 1.22886E-04-5.63800E-06 2.14499E-06
 -1      6497 1.22047E-04-6.31403E-06-2.13034E-06
 -1      6498 1.22066E-04-6.31403E-06 7.47413E-21
 -1      6499 1.22047E-04-6.31403E-06 2.13034E-06
 -1      6500 1.22615E-04-5.97719E-06-2.14025E-06
 -1      6501 1.22633E-04-5.97719E-06 7.50888E-21
 -1      6502 1.22615E-04-5.97719E-06 2.14025E-06
 -1      6503 6.88736E-05-1.88507E-06-1.20219E-06
 -1      6504 6.88841E-05-1.88507E-06 4.21780E-21
 -1      6505 6.88736E-05-1.88507E-06 1.20219E-06
 -1      6506 1.13568E-04-7.00589E-06-1.98234E-06
 -1      6507 1.13585E-04-7.00589E-06 6.95488E-21
 -1      6508 1.13568E-04-7.00589E-06 1.98234E-06
 -1      6509 1.08821E-04-7.02616E-06-1.89947E-06
 -1      6510 1.08837E-04-7.02616E-06 6.66415E-21
 -1      6511 1.08821E-04-7.02616E-06 1.89947E-06
 -1      6512 1.04621E-04-7.03543E-06-1.82617E-06
 -1      6513 1.04637E-04-7.03543E-06 6.40696E-21
 -1      6514 1.04621E-04-7.03543E-06 1.82617E-06
 -1      6515 1.00868E-04-7.03637E-06-1.76066E-06
 -1      6516 1.00884E-04-7.03637E-06 6.17715E-21
 -1      6517 1.00868E-04-7.03637E-06 1.76066E-06
 -1      6518 9.74932E-05-7.03255E-06-1.70175E-06
 -1      6519 9.75080E-05-7.03255E-06 5.97045E-21
 -1      6520 9.74932E-05-7.03255E-06 1.70175E-06
 -1      6521 9.44399E-05-7.02746E-06-1.64845E-06
 -1      6522 9.44543E-05-7.02746E-06 5.78347E-21
 -1      6523 9.44399E-05-7.02746E-06 1.64845E-06
 -1      6524 9.16625E-05-7.02349E-06-1.59998E-06
 -1      6525 9.16765E-05-7.02349E-06 5.61338E-21
 -1      6526 9.16625E-05-7.02349E-06 1.59998E-06
 -1      6527 8.91236E-05-7.02140E-06-1.55566E-06
 -1      6528 8.91372E-05-7.02140E-06 5.45790E-21
 -1      6529 8.91236E-05-7.02140E-06 1.55566E-06
 -1      6530 8.67972E-05-7.02048E-06-1.51505E-06
 -1      6531 8.68104E-05-7.02048E-06 5.31543E-21
 -1      6532 8.67972E-05-7.02048E-06 1.51505E-06
 -1      6533 8.46626E-05-7.02005E-06-1.47779E-06
 -1      6534 8.46756E-05-7.02005E-06 5.18471E-21
 -1      6535 8.46626E-05-7.02005E-06 1.47779E-06
 -1      6536 8.27015E-05-7.01988E-06-1.44356E-06
 -1      6537 8.27141E-05-7.01988E-06 5.06461E-21
 -1      6538 8.27015E-05-7.01988E-06 1.44356E-06
 -1      6539 8.08964E-05-7.02000E-06-1.41205E-06
 -1      6540 8.09088E-05-7.02000E-06 4.95407E-21
 -1      6541 8.08964E-05-7.02000E-06 1.41205E-06
 -1      6542 7.92324E-05-7.02028E-06-1.38301E-06
 -1      6543 7.92444E-05-7.02028E-06 4.85216E-21
 -1      6544 7.92324E-05-7.02028E-06 1.38301E-06
 -1      6545 7.76968E-05-7.02052E-06-1.35620E-06
 -1      6546 7.77086E-05-7.02052E-06 4.75812E-21
 -1      6547 7.76968E-05-7.02052E-06 1.35620E-06
 -1      6548 7.62792E-05-7.02075E-06-1.33146E-06
 -1      6549 7.62908E-05-7.02075E-06 4.67131E-21
 -1      6550 7.62792E-05-7.02075E-06 1.33146E-06
 -1      6551 7.49702E-05-7.02117E-06-1.30861E-06
 -1      6552 7.49816E-05-7.02117E-06 4.59115E-21
 -1      6553 7.49702E-05-7.02117E-06 1.30861E-06
 -1      6554 7.37609E-05-7.02196E-06-1.28750E-06
 -1      6555 7.37721E-05-7.02196E-06 4.51709E-21
 -1      6556 7.37609E-05-7.02196E-06 1.28750E-06
 -1      6557 7.26429E-05-7.02296E-06-1.26799E-06
 -1      6558 7.26539E-05-7.02296E-06 4.44862E-21
 -1      6559 7.26429E-05-7.02296E-06 1.26799E-06
 -1      6560 7.16095E-05-7.02352E-06-1.24995E-06
 -1      6561 7.16205E-05-7.02352E-06 4.38534E-21
 -1      6562 7.16095E-05-7.02352E-06 1.24995E-06
 -1      6563 7.06570E-05-7.02329E-06-1.23332E-06
 -1      6564 7.06678E-05-7.02329E-06 4.32701E-21
 -1      6565 7.06570E-05-7.02329E-06 1.23332E-06
 -1      6566 6.97830E-05-7.02320E-06-1.21807E-06
 -1      6567 6.97937E-05-7.02320E-06 4.27349E-21
 -1      6568 6.97830E-05-7.02320E-06 1.21807E-06
 -1      6569 6.89827E-05-7.02379E-06-1.20410E-06
 -1      6570 6.89932E-05-7.02379E-06 4.22448E-21
 -1      6571 6.89827E-05-7.02379E-06 1.20410E-06
 -1      6572 6.82527E-05-7.02436E-06-1.19136E-06
 -1      6573 6.82631E-05-7.02436E-06 4.17977E-21
 -1      6574 6.82527E-05-7.02436E-06 1.19136E-06
 -1      6575 6.75968E-05-7.02791E-06-1.17991E-06
 -1      6576 6.76071E-05-7.02791E-06 4.13960E-21
 -1      6577 6.75968E-05-7.02791E-06 1.17991E-06
 -1      6578 6.69862E-05-7.00964E-06-1.16925E-06
 -1      6579 6.69965E-05-7.00964E-06 4.10221E-21
 -1      6580 6.69862E-05-7.00964E-06 1.16925E-06
 -1      6581 6.64343E-05-6.97605E-06-1.15961E-06
 -1      6582 6.64444E-05-6.97605E-06 4.06841E-21
 -1      6583 6.64343E-05-6.97605E-06 1.15961E-06
 -1      6584 6.66630E-05-1.90494E-06-1.16361E-06
 -1      6585 6.66732E-05-1.90494E-06 4.08242E-21
 -1      6586 6.66630E-05-1.90494E-06 1.16361E-06
 -1      6587 1.04409E-04-1.83011E-06-1.82246E-06
 -1      6588 1.04425E-04-1.83011E-06 6.39396E-21
 -1      6589 1.04409E-04-1.83011E-06 1.82246E-06
 -1      6590 1.22852E-04-2.84464E-06-2.14439E-06
 -1      6591 1.22871E-04-2.84464E-06 7.52340E-21
 -1      6592 1.22852E-04-2.84464E-06 2.14439E-06
 -1      6593 6.58700E-05-6.06165E-06-1.14976E-06
 -1      6594 6.58800E-05-6.06165E-06 4.03385E-21
 -1      6595 6.58700E-05-6.06165E-06 1.14976E-06
 -1      6596 1.21005E-04-6.64923E-06-2.11215E-06
 -1      6597 1.21024E-04-6.64923E-06 7.41031E-21
 -1      6598 1.21005E-04-6.64923E-06 2.11215E-06
 -1      6599 1.22918E-04-4.61261E-06-2.14554E-06
 -1      6600 1.22937E-04-4.61261E-06 7.52744E-21
 -1      6601 1.22918E-04-4.61261E-06 2.14554E-06
 -1      6602 7.77289E-05-1.84939E-06-1.35676E-06
 -1      6603 7.77407E-05-1.84939E-06 4.76009E-21
 -1      6604 7.77289E-05-1.84939E-06 1.35676E-06
 -1      6605 1.22907E-04-3.55889E-06-2.14535E-06
 -1      6606 1.22926E-04-3.55889E-06 7.52678E-21
 -1      6607 1.22907E-04-3.55889E-06 2.14535E-06
 -1      6608 6.97305E-05-1.86710E-06-1.21715E-06
 -1      6609 6.97411E-05-1.86710E-06 4.27027E-21
 -1      6610 6.97305E-05-1.86710E-06 1.21715E-06
 -1      6611 9.75556E-05-1.84893E-06-1.70284E-06
 -1      6612 9.75705E-05-1.84893E-06 5.97427E-21
 -1      6613 9.75556E-05-1.84893E-06 1.70284E-06
 -1      6614 8.46943E-05-1.84818E-06-1.47835E-06
 -1      6615 8.47072E-05-1.84818E-06 5.18665E-21
 -1      6616 8.46943E-05-1.84818E-06 1.47835E-06
 -1      6617 8.09272E-05-1.84940E-06-1.41259E-06
 -1      6618 8.09395E-05-1.84940E-06 4.95595E-21
 -1      6619 8.09272E-05-1.84940E-06 1.41259E-06
 -1      6620 8.91642E-05-1.84691E-06-1.55637E-06
 -1      6621 8.91778E-05-1.84691E-06 5.46038E-21
 -1      6622 8.91642E-05-1.84691E-06 1.55637E-06
 -1      6623 1.08221E-04-1.81240E-06-1.88901E-06
 -1      6624 1.08238E-04-1.81240E-06 6.62744E-21
 -1      6625 1.08221E-04-1.81240E-06 1.88901E-06
 -1      6626 6.58305E-05-4.26065E-06-1.14908E-06
 -1      6627 6.58405E-05-4.26065E-06 4.03143E-21
 -1      6628 6.58305E-05-4.26065E-06 1.14908E-06
 -1      6629 7.37879E-05-1.84849E-06-1.28797E-06
 -1      6630 7.37991E-05-1.84849E-06 4.51874E-21
 -1      6631 7.37879E-05-1.84849E-06 1.28797E-06
 -1      6632 7.50011E-05-1.84862E-06-1.30915E-06
 -1      6633 7.50125E-05-1.84862E-06 4.59304E-21
 -1      6634 7.50011E-05-1.84862E-06 1.30915E-06
 -1      6635 6.73369E-05-1.91658E-06-1.17537E-06
 -1      6636 6.73472E-05-1.91658E-06 4.12369E-21
 -1      6637 6.73369E-05-1.91658E-06 1.17537E-06
 -1      6638 7.63114E-05-1.84893E-06-1.33202E-06
 -1      6639 7.63231E-05-1.84893E-06 4.67328E-21
 -1      6640 7.63114E-05-1.84893E-06 1.33202E-06
 -1      6641 8.27321E-05-1.84907E-06-1.44409E-06
 -1      6642 8.27447E-05-1.84907E-06 5.06649E-21
 -1      6643 8.27321E-05-1.84907E-06 1.44409E-06
 -1      6644 7.16180E-05-1.85093E-06-1.25010E-06
 -1      6645 7.16289E-05-1.85093E-06 4.38586E-21
 -1      6646 7.16180E-05-1.85093E-06 1.25010E-06
 -1      6647 9.17166E-05-1.84741E-06-1.60092E-06
 -1      6648 9.17305E-05-1.84741E-06 5.61669E-21
 -1      6649 9.17166E-05-1.84741E-06 1.60092E-06
 -1      6650 6.58639E-05-5.70012E-06-1.14966E-06
 -1      6651 6.58740E-05-5.70012E-06 4.03348E-21
 -1      6652 6.58639E-05-5.70012E-06 1.14966E-06
 -1      6653 6.57019E-05-6.70610E-06-1.14683E-06
 -1      6654 6.57119E-05-6.70610E-06 4.02356E-21
 -1      6655 6.57019E-05-6.70610E-06 1.14683E-06
 -1      6656 1.22896E-04-4.26385E-06-2.14515E-06
 -1      6657 1.22914E-04-4.26385E-06 7.52609E-21
 -1      6658 1.22896E-04-4.26385E-06 2.14515E-06
 -1      6659 8.36904E-05-2.15783E-06-1.46082E-06
 -1      6660 8.37032E-05-2.15783E-06 5.12517E-21
 -1      6661 8.36904E-05-2.15783E-06 1.46082E-06
 -1      6662 1.17487E-04-6.09422E-06-2.05074E-06
 -1      6663 1.17505E-04-6.09422E-06 7.19485E-21
 -1      6664 1.17487E-04-6.09422E-06 2.05074E-06
 -1      6665 1.17960E-04-4.77992E-06-2.05900E-06
 -1      6666 1.17978E-04-4.77992E-06 7.22384E-21
 -1      6667 1.17960E-04-4.77992E-06 2.05900E-06
 -1      6668 6.63342E-05-4.79922E-06-1.15787E-06
 -1      6669 6.63443E-05-4.79922E-06 4.06228E-21
 -1      6670 6.63342E-05-4.79922E-06 1.15787E-06
 -1      6671 6.63345E-05-4.07864E-06-1.15787E-06
 -1      6672 6.63446E-05-4.07864E-06 4.06230E-21
 -1      6673 6.63345E-05-4.07864E-06 1.15787E-06
 -1      6674 6.64106E-05-5.89321E-06-1.15920E-06
 -1      6675 6.64207E-05-5.89321E-06 4.06696E-21
 -1      6676 6.64106E-05-5.89321E-06 1.15920E-06
 -1      6677 6.62974E-05-2.21389E-06-1.15723E-06
 -1      6678 6.63075E-05-2.21389E-06 4.06003E-21
 -1      6679 6.62974E-05-2.21389E-06 1.15723E-06
 -1      6680 6.63732E-05-5.51881E-06-1.15855E-06
 -1      6681 6.63833E-05-5.51881E-06 4.06467E-21
 -1      6682 6.63732E-05-5.51881E-06 1.15855E-06
 -1      6683 9.45097E-05-1.84873E-06-1.64967E-06
 -1      6684 9.45241E-05-1.84873E-06 5.78774E-21
 -1      6685 9.45097E-05-1.84873E-06 1.64967E-06
 -1      6686 6.63976E-05-3.33513E-06-1.15897E-06
 -1      6687 6.64077E-05-3.33513E-06 4.06617E-21
 -1      6688 6.63976E-05-3.33513E-06 1.15897E-06
 -1      6689 8.68312E-05-1.84731E-06-1.51564E-06
 -1      6690 8.68444E-05-1.84731E-06 5.31751E-21
 -1      6691 8.68312E-05-1.84731E-06 1.51564E-06
 -1      6692 6.59061E-05-6.97428E-06-1.15039E-06
 -1      6693 6.59161E-05-6.97428E-06 4.03606E-21
 -1      6694 6.59061E-05-6.97428E-06 1.15039E-06
 -1      6695 6.64457E-05-2.95029E-06-1.15981E-06
 -1      6696 6.64558E-05-2.95029E-06 4.06911E-21
 -1      6697 6.64457E-05-2.95029E-06 1.15981E-06
 -1      6698 6.63499E-05-5.15742E-06-1.15814E-06
 -1      6699 6.63601E-05-5.15742E-06 4.06325E-21
 -1      6700 6.63499E-05-5.15742E-06 1.15814E-06
 -1      6701 6.64299E-05-2.57059E-06-1.15954E-06
 -1      6702 6.64401E-05-2.57059E-06 4.06815E-21
 -1      6703 6.64299E-05-2.57059E-06 1.15954E-06
 -1      6704 7.06443E-05-1.85591E-06-1.23310E-06
 -1      6705 7.06551E-05-1.85591E-06 4.32623E-21
 -1      6706 7.06443E-05-1.85591E-06 1.23310E-06
 -1      6707 1.17866E-04-2.30911E-06-2.05735E-06
 -1      6708 1.17884E-04-2.30911E-06 7.21805E-21
 -1      6709 1.17866E-04-2.30911E-06 2.05735E-06
 -1      6710 1.18037E-04-5.44598E-06-2.06034E-06
 -1      6711 1.18055E-04-5.44598E-06 7.22853E-21
 -1      6712 1.18037E-04-5.44598E-06 2.06034E-06
 -1      6713 6.63569E-05-3.71077E-06-1.15826E-06
 -1      6714 6.63670E-05-3.71077E-06 4.06367E-21
 -1      6715 6.63569E-05-3.71077E-06 1.15826E-06
 -1      6716 1.18021E-04-5.11645E-06-2.06007E-06
 -1      6717 1.18039E-04-5.11645E-06 7.22757E-21
 -1      6718 1.18021E-04-5.11645E-06 2.06007E-06
 -1      6719 6.69235E-05-2.26200E-06-1.16815E-06
 -1      6720 6.69337E-05-2.26200E-06 4.09837E-21
 -1      6721 6.69235E-05-2.26200E-06 1.16815E-06
 -1      6722 1.22898E-04-3.91186E-06-2.14520E-06
 -1      6723 1.22917E-04-3.91186E-06 7.52624E-21
 -1      6724 1.22898E-04-3.91186E-06 2.14520E-06
 -1      6725 1.17918E-04-3.03328E-06-2.05827E-06
 -1      6726 1.17936E-04-3.03328E-06 7.22125E-21
 -1      6727 1.17918E-04-3.03328E-06 2.05827E-06
 -1      6728 6.63278E-05-4.44106E-06-1.15776E-06
 -1      6729 6.63379E-05-4.44106E-06 4.06189E-21
 -1      6730 6.63278E-05-4.44106E-06 1.15776E-06
 -1      6731 1.17903E-04-5.77391E-06-2.05801E-06
 -1      6732 1.17921E-04-5.77391E-06 7.22036E-21
 -1      6733 1.17903E-04-5.77391E-06 2.05801E-06
 -1      6734 6.84444E-05-2.22197E-06-1.19470E-06
 -1      6735 6.84548E-05-2.22197E-06 4.19151E-21
 -1      6736 6.84444E-05-2.22197E-06 1.19470E-06
 -1      6737 1.15347E-04-6.70628E-06-2.01339E-06
 -1      6738 1.15365E-04-6.70628E-06 7.06381E-21
 -1      6739 1.15347E-04-6.70628E-06 2.01339E-06
 -1      6740 1.10424E-04-6.74189E-06-1.92745E-06
 -1      6741 1.10440E-04-6.74189E-06 6.76230E-21
 -1      6742 1.10424E-04-6.74189E-06 1.92745E-06
 -1      6743 1.06069E-04-6.76002E-06-1.85144E-06
 -1      6744 1.06085E-04-6.76002E-06 6.49561E-21
 -1      6745 1.06069E-04-6.76002E-06 1.85144E-06
 -1      6746 1.02178E-04-6.76399E-06-1.78352E-06
 -1      6747 1.02193E-04-6.76399E-06 6.25732E-21
 -1      6748 1.02178E-04-6.76399E-06 1.78352E-06
 -1      6749 9.86811E-05-6.75873E-06-1.72248E-06
 -1      6750 9.86961E-05-6.75873E-06 6.04319E-21
 -1      6751 9.86811E-05-6.75873E-06 1.72248E-06
 -1      6752 9.55242E-05-6.74999E-06-1.66738E-06
 -1      6753 9.55388E-05-6.74999E-06 5.84987E-21
 -1      6754 9.55242E-05-6.74999E-06 1.66738E-06
 -1      6755 9.26588E-05-6.74252E-06-1.61737E-06
 -1      6756 9.26729E-05-6.74252E-06 5.67439E-21
 -1      6757 9.26588E-05-6.74252E-06 1.61737E-06
 -1      6758 9.00379E-05-6.73882E-06-1.57162E-06
 -1      6759 9.00516E-05-6.73882E-06 5.51389E-21
 -1      6760 9.00379E-05-6.73882E-06 1.57162E-06
 -1      6761 8.76345E-05-6.73735E-06-1.52967E-06
 -1      6762 8.76478E-05-6.73735E-06 5.36670E-21
 -1      6763 8.76345E-05-6.73735E-06 1.52967E-06
 -1      6764 8.54297E-05-6.73658E-06-1.49118E-06
 -1      6765 8.54427E-05-6.73658E-06 5.23168E-21
 -1      6766 8.54297E-05-6.73658E-06 1.49118E-06
 -1      6767 8.34058E-05-6.73612E-06-1.45585E-06
 -1      6768 8.34185E-05-6.73612E-06 5.10774E-21
 -1      6769 8.34058E-05-6.73612E-06 1.45585E-06
 -1      6770 8.15449E-05-6.73612E-06-1.42337E-06
 -1      6771 8.15573E-05-6.73612E-06 4.99378E-21
 -1      6772 8.15449E-05-6.73612E-06 1.42337E-06
 -1      6773 7.98300E-05-6.73651E-06-1.39344E-06
 -1      6774 7.98422E-05-6.73651E-06 4.88876E-21
 -1      6775 7.98300E-05-6.73651E-06 1.39344E-06
 -1      6776 7.82476E-05-6.73694E-06-1.36582E-06
 -1      6777 7.82595E-05-6.73694E-06 4.79185E-21
 -1      6778 7.82476E-05-6.73694E-06 1.36582E-06
 -1      6779 7.67868E-05-6.73719E-06-1.34032E-06
 -1      6780 7.67985E-05-6.73719E-06 4.70240E-21
 -1      6781 7.67868E-05-6.73719E-06 1.34032E-06
 -1      6782 7.54385E-05-6.73750E-06-1.31678E-06
 -1      6783 7.54499E-05-6.73750E-06 4.61982E-21
 -1      6784 7.54385E-05-6.73750E-06 1.31678E-06
 -1      6785 7.41936E-05-6.73840E-06-1.29505E-06
 -1      6786 7.42049E-05-6.73840E-06 4.54359E-21
 -1      6787 7.41936E-05-6.73840E-06 1.29505E-06
 -1      6788 7.30435E-05-6.74018E-06-1.27498E-06
 -1      6789 7.30546E-05-6.74018E-06 4.47316E-21
 -1      6790 7.30435E-05-6.74018E-06 1.27498E-06
 -1      6791 7.19797E-05-6.74197E-06-1.25641E-06
 -1      6792 7.19907E-05-6.74197E-06 4.40801E-21
 -1      6793 7.19797E-05-6.74197E-06 1.25641E-06
 -1      6794 7.09963E-05-6.74184E-06-1.23925E-06
 -1      6795 7.10072E-05-6.74184E-06 4.34779E-21
 -1      6796 7.09963E-05-6.74184E-06 1.23925E-06
 -1      6797 7.00937E-05-6.73996E-06-1.22349E-06
 -1      6798 7.01044E-05-6.73996E-06 4.29251E-21
 -1      6799 7.00937E-05-6.73996E-06 1.22349E-06
 -1      6800 6.92732E-05-6.74077E-06-1.20917E-06
 -1      6801 6.92837E-05-6.74077E-06 4.24226E-21
 -1      6802 6.92732E-05-6.74077E-06 1.20917E-06
 -1      6803 6.85199E-05-6.74207E-06-1.19602E-06
 -1      6804 6.85303E-05-6.74207E-06 4.19613E-21
 -1      6805 6.85199E-05-6.74207E-06 1.19602E-06
 -1      6806 6.78365E-05-6.73868E-06-1.18409E-06
 -1      6807 6.78468E-05-6.73868E-06 4.15428E-21
 -1      6808 6.78365E-05-6.73868E-06 1.18409E-06
 -1      6809 6.72749E-05-6.76406E-06-1.17429E-06
 -1      6810 6.72852E-05-6.76406E-06 4.11989E-21
 -1      6811 6.72749E-05-6.76406E-06 1.17429E-06
 -1      6812 6.67421E-05-6.67255E-06-1.16499E-06
 -1      6813 6.67523E-05-6.67255E-06 4.08727E-21
 -1      6814 6.67421E-05-6.67255E-06 1.16499E-06
 -1      6815 1.02719E-04-2.15001E-06-1.79296E-06
 -1      6816 1.02734E-04-2.15001E-06 6.29045E-21
 -1      6817 1.02719E-04-2.15001E-06 1.79296E-06
 -1      6818 1.17835E-04-2.67669E-06-2.05682E-06
 -1      6819 1.17853E-04-2.67669E-06 7.21618E-21
 -1      6820 1.17835E-04-2.67669E-06 2.05682E-06
 -1      6821 1.17271E-04-1.93351E-06-2.04697E-06
 -1      6822 1.17288E-04-1.93351E-06 7.18161E-21
 -1      6823 1.17271E-04-1.93351E-06 2.04697E-06
 -1      6824 6.76484E-05-2.25853E-06-1.18081E-06
 -1      6825 6.76587E-05-2.25853E-06 4.14276E-21
 -1      6826 6.76484E-05-2.25853E-06 1.18081E-06
 -1      6827 6.64595E-05-6.30515E-06-1.16006E-06
 -1      6828 6.64696E-05-6.30515E-06 4.06996E-21
 -1      6829 6.64595E-05-6.30515E-06 1.16006E-06
 -1      6830 1.17971E-04-3.38727E-06-2.05919E-06
 -1      6831 1.17989E-04-3.38727E-06 7.22450E-21
 -1      6832 1.17971E-04-3.38727E-06 2.05919E-06
 -1      6833 7.84803E-05-2.15917E-06-1.36988E-06
 -1      6834 7.84922E-05-2.15917E-06 4.80611E-21
 -1      6835 7.84803E-05-2.15917E-06 1.36988E-06
 -1      6836 6.92896E-05-2.18975E-06-1.20945E-06
 -1      6837 6.93002E-05-2.18975E-06 4.24327E-21
 -1      6838 6.92896E-05-2.18975E-06 1.20945E-06
 -1      6839 7.32198E-05-2.15667E-06-1.27806E-06
 -1      6840 7.32310E-05-2.15667E-06 4.48395E-21
 -1      6841 7.32198E-05-2.15667E-06 1.27806E-06
 -1      6842 1.06352E-04-2.11998E-06-1.85638E-06
 -1      6843 1.06368E-04-2.11998E-06 6.51294E-21
 -1      6844 1.06352E-04-2.11998E-06 1.85638E-06
 -1      6845 8.79657E-05-2.15451E-06-1.53545E-06
 -1      6846 8.79791E-05-2.15451E-06 5.38699E-21
 -1      6847 8.79657E-05-2.15451E-06 1.53545E-06
 -1      6848 8.00777E-05-2.15905E-06-1.39776E-06
 -1      6849 8.00899E-05-2.15905E-06 4.90393E-21
 -1      6850 8.00777E-05-2.15905E-06 1.39776E-06
 -1      6851 1.16662E-04-6.40334E-06-2.03635E-06
 -1      6852 1.16680E-04-6.40334E-06 7.14435E-21
 -1      6853 1.16662E-04-6.40334E-06 2.03635E-06
 -1      6854 7.56450E-05-2.15783E-06-1.32039E-06
 -1      6855 7.56565E-05-2.15783E-06 4.63247E-21
 -1      6856 7.56450E-05-2.15783E-06 1.32039E-06
 -1      6857 1.12526E-04-1.84523E-06-1.96415E-06
 -1      6858 1.12543E-04-1.84523E-06 6.89107E-21
 -1      6859 1.12526E-04-1.84523E-06 1.96415E-06
 -1      6860 7.43861E-05-2.15714E-06-1.29841E-06
 -1      6861 7.43974E-05-2.15714E-06 4.55538E-21
 -1      6862 7.43861E-05-2.15714E-06 1.29841E-06
 -1      6863 1.17921E-04-4.43652E-06-2.05832E-06
 -1      6864 1.17939E-04-4.43652E-06 7.22145E-21
 -1      6865 1.17921E-04-4.43652E-06 2.05832E-06
 -1      6866 6.61817E-05-6.66182E-06-1.15521E-06
 -1      6867 6.61918E-05-6.66182E-06 4.05294E-21
 -1      6868 6.61817E-05-6.66182E-06 1.15521E-06
 -1      6869 9.04063E-05-2.15409E-06-1.57805E-06
 -1      6870 9.04201E-05-2.15409E-06 5.53645E-21
 -1      6871 9.04063E-05-2.15409E-06 1.57805E-06
 -1      6872 8.18100E-05-2.15872E-06-1.42800E-06
 -1      6873 8.18225E-05-2.15872E-06 5.01001E-21
 -1      6874 8.18100E-05-2.15872E-06 1.42800E-06
 -1      6875 8.57357E-05-2.15608E-06-1.49652E-06
 -1      6876 8.57487E-05-2.15608E-06 5.25042E-21
 -1      6877 8.57357E-05-2.15608E-06 1.49652E-06
 -1      6878 9.92392E-05-2.16005E-06-1.73223E-06
 -1      6879 9.92543E-05-2.16005E-06 6.07737E-21
 -1      6880 9.92392E-05-2.16005E-06 1.73223E-06
 -1      6881 7.21372E-05-2.15739E-06-1.25916E-06
 -1      6882 7.21482E-05-2.15739E-06 4.41765E-21
 -1      6883 7.21372E-05-2.15739E-06 1.25916E-06
 -1      6884 6.70354E-05-6.05849E-06-1.17011E-06
 -1      6885 6.70456E-05-6.05849E-06 4.10523E-21
 -1      6886 6.70354E-05-6.05849E-06 1.17011E-06
 -1      6887 1.13576E-04-5.26257E-06-1.98247E-06
 -1      6888 1.13593E-04-5.26257E-06 6.95534E-21
 -1      6889 1.13576E-04-5.26257E-06 1.98247E-06
 -1      6890 6.71515E-05-2.67320E-06-1.17213E-06
 -1      6891 6.71617E-05-2.67320E-06 4.11233E-21
 -1      6892 6.71515E-05-2.67320E-06 1.17213E-06
 -1      6893 6.68608E-05-4.26370E-06-1.16706E-06
 -1      6894 6.68710E-05-4.26370E-06 4.09453E-21
 -1      6895 6.68608E-05-4.26370E-06 1.16706E-06
 -1      6896 1.17937E-04-3.73766E-06-2.05860E-06
 -1      6897 1.17955E-04-3.73766E-06 7.22243E-21
 -1      6898 1.17937E-04-3.73766E-06 2.05860E-06
 -1      6899 6.68758E-05-3.89908E-06-1.16732E-06
 -1      6900 6.68860E-05-3.89908E-06 4.09545E-21
 -1      6901 6.68758E-05-3.89908E-06 1.16732E-06
 -1      6902 6.69141E-05-5.32951E-06-1.16799E-06
 -1      6903 6.69243E-05-5.32951E-06 4.09779E-21
 -1      6904 6.69141E-05-5.32951E-06 1.16799E-06
 -1      6905 7.01830E-05-2.16980E-06-1.22505E-06
 -1      6906 7.01937E-05-2.16980E-06 4.29798E-21
 -1      6907 7.01830E-05-2.16980E-06 1.22505E-06
 -1      6908 7.70064E-05-2.15846E-06-1.34415E-06
 -1      6909 7.70181E-05-2.15846E-06 4.71584E-21
 -1      6910 7.70064E-05-2.15846E-06 1.34415E-06
 -1      6911 6.69223E-05-3.52360E-06-1.16813E-06
 -1      6912 6.69325E-05-3.52360E-06 4.09830E-21
 -1      6913 6.69223E-05-3.52360E-06 1.16813E-06
 -1      6914 7.11283E-05-2.16076E-06-1.24155E-06
 -1      6915 7.11391E-05-2.16076E-06 4.35587E-21
 -1      6916 7.11283E-05-2.16076E-06 1.24155E-06
 -1      6917 6.70074E-05-3.12907E-06-1.16962E-06
 -1      6918 6.70177E-05-3.12907E-06 4.10351E-21
 -1      6919 6.70074E-05-3.12907E-06 1.16962E-06
 -1      6920 7.37975E-05-2.46557E-06-1.28814E-06
 -1      6921 7.38088E-05-2.46557E-06 4.51933E-21
 -1      6922 7.37975E-05-2.46557E-06 1.28814E-06
 -1      6923 1.13625E-04-5.57996E-06-1.98333E-06
 -1      6924 1.13642E-04-5.57996E-06 6.95834E-21
 -1      6925 1.13625E-04-5.57996E-06 1.98333E-06
 -1      6926 1.17919E-04-4.08745E-06-2.05828E-06
 -1      6927 1.17937E-04-4.08745E-06 7.22130E-21
 -1      6928 1.17919E-04-4.08745E-06 2.05828E-06
 -1      6929 1.11766E-04-6.46145E-06-1.95089E-06
 -1      6930 1.11783E-04-6.46145E-06 6.84453E-21
 -1      6931 1.11766E-04-6.46145E-06 1.95089E-06
 -1      6932 1.07353E-04-6.49422E-06-1.87386E-06
 -1      6933 1.07369E-04-6.49422E-06 6.57427E-21
 -1      6934 1.07353E-04-6.49422E-06 1.87386E-06
 -1      6935 1.03376E-04-6.50465E-06-1.80443E-06
 -1      6936 1.03391E-04-6.50465E-06 6.33069E-21
 -1      6937 1.03376E-04-6.50465E-06 1.80443E-06
 -1      6938 9.97853E-05-6.49849E-06-1.74176E-06
 -1      6939 9.98005E-05-6.49849E-06 6.11081E-21
 -1      6940 9.97853E-05-6.49849E-06 1.74176E-06
 -1      6941 9.65357E-05-6.48446E-06-1.68504E-06
 -1      6942 9.65504E-05-6.48446E-06 5.91181E-21
 -1      6943 9.65357E-05-6.48446E-06 1.68504E-06
 -1      6944 9.35964E-05-6.47045E-06-1.63373E-06
 -1      6945 9.36106E-05-6.47045E-06 5.73181E-21
 -1      6946 9.35964E-05-6.47045E-06 1.63373E-06
 -1      6947 9.08992E-05-6.46430E-06-1.58665E-06
 -1      6948 9.09131E-05-6.46430E-06 5.56664E-21
 -1      6949 9.08992E-05-6.46430E-06 1.58665E-06
 -1      6950 8.84204E-05-6.46223E-06-1.54338E-06
 -1      6951 8.84339E-05-6.46223E-06 5.41484E-21
 -1      6952 8.84204E-05-6.46223E-06 1.54338E-06
 -1      6953 8.61464E-05-6.46101E-06-1.50369E-06
 -1      6954 8.61595E-05-6.46101E-06 5.27557E-21
 -1      6955 8.61464E-05-6.46101E-06 1.50369E-06
 -1      6956 8.40618E-05-6.45989E-06-1.46730E-06
 -1      6957 8.40746E-05-6.45989E-06 5.14791E-21
 -1      6958 8.40618E-05-6.45989E-06 1.46730E-06
 -1      6959 8.21482E-05-6.45944E-06-1.43390E-06
 -1      6960 8.21607E-05-6.45944E-06 5.03073E-21
 -1      6961 8.21482E-05-6.45944E-06 1.43390E-06
 -1      6962 8.03865E-05-6.45997E-06-1.40315E-06
 -1      6963 8.03987E-05-6.45997E-06 4.92284E-21
 -1      6964 8.03865E-05-6.45997E-06 1.40315E-06
 -1      6965 7.87604E-05-6.46084E-06-1.37477E-06
 -1      6966 7.87724E-05-6.46084E-06 4.82326E-21
 -1      6967 7.87604E-05-6.46084E-06 1.37477E-06
 -1      6968 7.72587E-05-6.46129E-06-1.34855E-06
 -1      6969 7.72704E-05-6.46129E-06 4.73129E-21
 -1      6970 7.72587E-05-6.46129E-06 1.34855E-06
 -1      6971 7.58725E-05-6.46135E-06-1.32436E-06
 -1      6972 7.58840E-05-6.46135E-06 4.64640E-21
 -1      6973 7.58725E-05-6.46135E-06 1.32436E-06
 -1      6974 7.45933E-05-6.46196E-06-1.30203E-06
 -1      6975 7.46046E-05-6.46196E-06 4.56806E-21
 -1      6976 7.45933E-05-6.46196E-06 1.30203E-06
 -1      6977 7.34130E-05-6.46423E-06-1.28143E-06
 -1      6978 7.34241E-05-6.46423E-06 4.49578E-21
 -1      6979 7.34130E-05-6.46423E-06 1.28143E-06
 -1      6980 7.23233E-05-6.46827E-06-1.26241E-06
 -1      6981 7.23343E-05-6.46827E-06 4.42905E-21
 -1      6982 7.23233E-05-6.46827E-06 1.26241E-06
 -1      6983 7.13131E-05-6.47071E-06-1.24478E-06
 -1      6984 7.13240E-05-6.47071E-06 4.36719E-21
 -1      6985 7.13131E-05-6.47071E-06 1.24478E-06
 -1      6986 7.03773E-05-6.46652E-06-1.22844E-06
 -1      6987 7.03881E-05-6.46652E-06 4.30988E-21
 -1      6988 7.03773E-05-6.46652E-06 1.22844E-06
 -1      6989 6.95289E-05-6.46111E-06-1.21363E-06
 -1      6990 6.95395E-05-6.46111E-06 4.25793E-21
 -1      6991 6.95289E-05-6.46111E-06 1.21363E-06
 -1      6992 6.87746E-05-6.47279E-06-1.20046E-06
 -1      6993 6.87851E-05-6.47279E-06 4.21173E-21
 -1      6994 6.87746E-05-6.47279E-06 1.20046E-06
 -1      6995 6.80432E-05-6.46981E-06-1.18770E-06
 -1      6996 6.80536E-05-6.46981E-06 4.16694E-21
 -1      6997 6.80432E-05-6.46981E-06 1.18770E-06
 -1      6998 6.72795E-05-6.43907E-06-1.17437E-06
 -1      6999 6.72897E-05-6.43907E-06 4.12017E-21
 -1      7000 6.72795E-05-6.43907E-06 1.17437E-06
 -1      7001 6.69571E-05-5.68867E-06-1.16874E-06
 -1      7002 6.69673E-05-5.68867E-06 4.10043E-21
 -1      7003 6.69571E-05-5.68867E-06 1.16874E-06
 -1      7004 7.50059E-05-2.46705E-06-1.30923E-06
 -1      7005 7.50173E-05-2.46705E-06 4.59333E-21
 -1      7006 7.50059E-05-2.46705E-06 1.30923E-06
 -1      7007 1.13412E-04-5.88828E-06-1.97962E-06
 -1      7008 1.13430E-04-5.88828E-06 6.94533E-21
 -1      7009 1.13412E-04-5.88828E-06 1.97962E-06
 -1      7010 6.68858E-05-4.97504E-06-1.16750E-06
 -1      7011 6.68960E-05-4.97504E-06 4.09606E-21
 -1      7012 6.68858E-05-4.97504E-06 1.16750E-06
 -1      7013 8.68193E-05-2.46343E-06-1.51544E-06
 -1      7014 8.68325E-05-2.46343E-06 5.31678E-21
 -1      7015 8.68193E-05-2.46343E-06 1.51544E-06
 -1      7016 1.13564E-04-3.22194E-06-1.98226E-06
 -1      7017 1.13581E-04-3.22194E-06 6.95461E-21
 -1      7018 1.13564E-04-3.22194E-06 1.98226E-06
 -1      7019 7.92608E-05-2.47008E-06-1.38350E-06
 -1      7020 7.92729E-05-2.47008E-06 4.85391E-21
 -1      7021 7.92608E-05-2.47008E-06 1.38350E-06
 -1      7022 6.88715E-05-2.52154E-06-1.20216E-06
 -1      7023 6.88820E-05-2.52154E-06 4.21766E-21
 -1      7024 6.88715E-05-2.52154E-06 1.20216E-06
 -1      7025 1.05044E-04-2.45167E-06-1.83354E-06
 -1      7026 1.05060E-04-2.45167E-06 6.43284E-21
 -1      7027 1.05044E-04-2.45167E-06 1.83354E-06
 -1      7028 9.30835E-05-2.15598E-06-1.62478E-06
 -1      7029 9.30977E-05-2.15598E-06 5.70040E-21
 -1      7030 9.30835E-05-2.15598E-06 1.62478E-06
 -1      7031 1.12789E-04-6.17951E-06-1.96875E-06
 -1      7032 1.12807E-04-6.17951E-06 6.90718E-21
 -1      7033 1.12789E-04-6.17951E-06 1.96875E-06
 -1      7034 6.80275E-05-2.57925E-06-1.18742E-06
 -1      7035 6.80379E-05-2.57925E-06 4.16598E-21
 -1      7036 6.80275E-05-2.57925E-06 1.18742E-06
 -1      7037 1.13394E-04-2.18550E-06-1.97931E-06
 -1      7038 1.13412E-04-2.18550E-06 6.94424E-21
 -1      7039 1.13394E-04-2.18550E-06 1.97931E-06
 -1      7040 1.09869E-04-2.07067E-06-1.91776E-06
 -1      7041 1.09885E-04-2.07067E-06 6.72831E-21
 -1      7042 1.09869E-04-2.07067E-06 1.91776E-06
 -1      7043 1.13480E-04-4.93985E-06-1.98081E-06
 -1      7044 1.13498E-04-4.93985E-06 6.94950E-21
 -1      7045 1.13480E-04-4.93985E-06 1.98081E-06
 -1      7046 7.63124E-05-2.46835E-06-1.33204E-06
 -1      7047 7.63241E-05-2.46835E-06 4.67335E-21
 -1      7048 7.63124E-05-2.46835E-06 1.33204E-06
 -1      7049 7.26781E-05-2.46491E-06-1.26860E-06
 -1      7050 7.26892E-05-2.46491E-06 4.45078E-21
 -1      7051 7.26781E-05-2.46491E-06 1.26860E-06
 -1      7052 8.91459E-05-2.46051E-06-1.55605E-06
 -1      7053 8.91595E-05-2.46051E-06 5.45926E-21
 -1      7054 8.91459E-05-2.46051E-06 1.55605E-06
 -1      7055 7.77274E-05-2.46934E-06-1.35674E-06
 -1      7056 7.77393E-05-2.46934E-06 4.76000E-21
 -1      7057 7.77274E-05-2.46934E-06 1.35674E-06
 -1      7058 6.68683E-05-4.62100E-06-1.16719E-06
 -1      7059 6.68784E-05-4.62100E-06 4.09499E-21
 -1      7060 6.68683E-05-4.62100E-06 1.16719E-06
 -1      7061 9.60224E-05-2.15936E-06-1.67608E-06
 -1      7062 9.60371E-05-2.15936E-06 5.88038E-21
 -1      7063 9.60224E-05-2.15936E-06 1.67608E-06
 -1      7064 1.13177E-04-2.53234E-06-1.97551E-06
 -1      7065 1.13194E-04-2.53234E-06 6.93092E-21
 -1      7066 1.13177E-04-2.53234E-06 1.97551E-06
 -1      7067 1.13306E-04-2.87395E-06-1.97777E-06
 -1      7068 1.13323E-04-2.87395E-06 6.93882E-21
 -1      7069 1.13306E-04-2.87395E-06 1.97777E-06
 -1      7070 8.27298E-05-2.46876E-06-1.44405E-06
 -1      7071 8.27424E-05-2.46876E-06 5.06635E-21
 -1      7072 8.27298E-05-2.46876E-06 1.44405E-06
 -1      7073 1.01140E-04-2.47338E-06-1.76541E-06
 -1      7074 1.01156E-04-2.47338E-06 6.19381E-21
 -1      7075 1.01140E-04-2.47338E-06 1.76541E-06
 -1      7076 1.13416E-04-4.60482E-06-1.97969E-06
 -1      7077 1.13433E-04-4.60482E-06 6.94556E-21
 -1      7078 1.13416E-04-4.60482E-06 1.97969E-06
 -1      7079 6.77136E-05-6.16280E-06-1.18195E-06
 -1      7080 6.77239E-05-6.16280E-06 4.14676E-21
 -1      7081 6.77136E-05-6.16280E-06 1.18195E-06
 -1      7082 6.74589E-05-3.72781E-06-1.17750E-06
 -1      7083 6.74692E-05-3.72781E-06 4.13116E-21
 -1      7084 6.74589E-05-3.72781E-06 1.17750E-06
 -1      7085 8.46889E-05-2.46684E-06-1.47825E-06
 -1      7086 8.47018E-05-2.46684E-06 5.18632E-21
 -1      7087 8.46889E-05-2.46684E-06 1.47825E-06
 -1      7088 1.13457E-04-3.56539E-06-1.98041E-06
 -1      7089 1.13475E-04-3.56539E-06 6.94809E-21
 -1      7090 1.13457E-04-3.56539E-06 1.98041E-06
 -1      7091 6.77144E-05-2.96126E-06-1.18196E-06
 -1      7092 6.77248E-05-2.96126E-06 4.14681E-21
 -1      7093 6.77144E-05-2.96126E-06 1.18196E-06
 -1      7094 1.09422E-04-5.09300E-06-1.90997E-06
 -1      7095 1.09439E-04-5.09300E-06 6.70099E-21
 -1      7096 1.09422E-04-5.09300E-06 1.90997E-06
 -1      7097 6.97459E-05-2.48673E-06-1.21742E-06
 -1      7098 6.97565E-05-2.48673E-06 4.27122E-21
 -1      7099 6.97459E-05-2.48673E-06 1.21742E-06
 -1      7100 6.75407E-05-5.49065E-06-1.17893E-06
 -1      7101 6.75510E-05-5.49065E-06 4.13617E-21
 -1      7102 6.75407E-05-5.49065E-06 1.17893E-06
 -1      7103 1.09586E-04-5.40073E-06-1.91283E-06
 -1      7104 1.09603E-04-5.40073E-06 6.71101E-21
 -1      7105 1.09586E-04-5.40073E-06 1.91283E-06
 -1      7106 8.36915E-05-2.77986E-06-1.46084E-06
 -1      7107 8.37043E-05-2.77986E-06 5.12524E-21
 -1      7108 8.36915E-05-2.77986E-06 1.46084E-06
 -1      7109 6.74626E-05-4.79669E-06-1.17756E-06
 -1      7110 6.74729E-05-4.79669E-06 4.13139E-21
 -1      7111 6.74626E-05-4.79669E-06 1.17756E-06
 -1      7112 6.74341E-05-4.44694E-06-1.17707E-06
 -1      7113 6.74444E-05-4.44694E-06 4.12964E-21
 -1      7114 6.74341E-05-4.44694E-06 1.17707E-06
 -1      7115 1.13415E-04-3.91273E-06-1.97966E-06
 -1      7116 1.13432E-04-3.91273E-06 6.94547E-21
 -1      7117 1.13415E-04-3.91273E-06 1.97966E-06
 -1      7118 1.08452E-04-6.23417E-06-1.89303E-06
 -1      7119 1.08468E-04-6.23417E-06 6.64154E-21
 -1      7120 1.08452E-04-6.23417E-06 1.89303E-06
 -1      7121 8.09250E-05-2.46948E-06-1.41255E-06
 -1      7122 8.09373E-05-2.46948E-06 4.95582E-21
 -1      7123 8.09250E-05-2.46948E-06 1.41255E-06
 -1      7124 1.04476E-04-6.25622E-06-1.82364E-06
 -1      7125 1.04492E-04-6.25622E-06 6.39808E-21
 -1      7126 1.04476E-04-6.25622E-06 1.82364E-06
 -1      7127 1.00858E-04-6.25116E-06-1.76049E-06
 -1      7128 1.00874E-04-6.25116E-06 6.17653E-21
 -1      7129 1.00858E-04-6.25116E-06 1.76049E-06
 -1      7130 9.75250E-05-6.23106E-06-1.70231E-06
 -1      7131 9.75399E-05-6.23106E-06 5.97240E-21
 -1      7132 9.75250E-05-6.23106E-06 1.70231E-06
 -1      7133 9.45351E-05-6.20406E-06-1.65012E-06
 -1      7134 9.45495E-05-6.20406E-06 5.78929E-21
 -1      7135 9.45351E-05-6.20406E-06 1.65012E-06
 -1      7136 9.17594E-05-6.19452E-06-1.60167E-06
 -1      7137 9.17734E-05-6.19452E-06 5.61932E-21
 -1      7138 9.17594E-05-6.19452E-06 1.60167E-06
 -1      7139 8.91974E-05-6.19224E-06-1.55695E-06
 -1      7140 8.92110E-05-6.19224E-06 5.46242E-21
 -1      7141 8.91974E-05-6.19224E-06 1.55695E-06
 -1      7142 8.68485E-05-6.19065E-06-1.51595E-06
 -1      7143 8.68618E-05-6.19065E-06 5.31857E-21
 -1      7144 8.68485E-05-6.19065E-06 1.51595E-06
 -1      7145 8.47002E-05-6.18822E-06-1.47845E-06
 -1      7146 8.47131E-05-6.18822E-06 5.18701E-21
 -1      7147 8.47002E-05-6.18822E-06 1.47845E-06
 -1      7148 8.27340E-05-6.18649E-06-1.44413E-06
 -1      7149 8.27466E-05-6.18649E-06 5.06660E-21
 -1      7150 8.27340E-05-6.18649E-06 1.44413E-06
 -1      7151 8.09271E-05-6.18693E-06-1.41259E-06
 -1      7152 8.09394E-05-6.18693E-06 4.95595E-21
 -1      7153 8.09271E-05-6.18693E-06 1.41259E-06
 -1      7154 7.92590E-05-6.18877E-06-1.38347E-06
 -1      7155 7.92711E-05-6.18877E-06 4.85379E-21
 -1      7156 7.92590E-05-6.18877E-06 1.38347E-06
 -1      7157 7.77170E-05-6.18994E-06-1.35656E-06
 -1      7158 7.77289E-05-6.18994E-06 4.75936E-21
 -1      7159 7.77170E-05-6.18994E-06 1.35656E-06
 -1      7160 7.62930E-05-6.18972E-06-1.33170E-06
 -1      7161 7.63046E-05-6.18972E-06 4.67216E-21
 -1      7162 7.62930E-05-6.18972E-06 1.33170E-06
 -1      7163 7.49785E-05-6.18946E-06-1.30875E-06
 -1      7164 7.49899E-05-6.18946E-06 4.59165E-21
 -1      7165 7.49785E-05-6.18946E-06 1.30875E-06
 -1      7166 7.37658E-05-6.19130E-06-1.28759E-06
 -1      7167 7.37770E-05-6.19130E-06 4.51739E-21
 -1      7168 7.37658E-05-6.19130E-06 1.28759E-06
 -1      7169 7.26496E-05-6.19696E-06-1.26810E-06
 -1      7170 7.26606E-05-6.19696E-06 4.44903E-21
 -1      7171 7.26496E-05-6.19696E-06 1.26810E-06
 -1      7172 7.16229E-05-6.20599E-06-1.25018E-06
 -1      7173 7.16338E-05-6.20599E-06 4.38616E-21
 -1      7174 7.16229E-05-6.20599E-06 1.25018E-06
 -1      7175 7.06619E-05-6.20599E-06-1.23341E-06
 -1      7176 7.06727E-05-6.20599E-06 4.32731E-21
 -1      7177 7.06619E-05-6.20599E-06 1.23341E-06
 -1      7178 6.97610E-05-6.18509E-06-1.21768E-06
 -1      7179 6.97716E-05-6.18509E-06 4.27214E-21
 -1      7180 6.97610E-05-6.18509E-06 1.21768E-06
 -1      7181 6.89768E-05-6.18018E-06-1.20399E-06
 -1      7182 6.89873E-05-6.18018E-06 4.22412E-21
 -1      7183 6.89768E-05-6.18018E-06 1.20399E-06
 -1      7184 6.75994E-05-5.83120E-06-1.17995E-06
 -1      7185 6.76097E-05-5.83120E-06 4.13976E-21
 -1      7186 6.75994E-05-5.83120E-06 1.17995E-06
 -1      7187 6.75488E-05-3.35202E-06-1.17907E-06
 -1      7188 6.75590E-05-3.35202E-06 4.13666E-21
 -1      7189 6.75488E-05-3.35202E-06 1.17907E-06
 -1      7190 7.43932E-05-2.77631E-06-1.29854E-06
 -1      7191 7.44045E-05-2.77631E-06 4.55581E-21
 -1      7192 7.43932E-05-2.77631E-06 1.29854E-06
 -1      7193 1.09750E-04-5.69661E-06-1.91570E-06
 -1      7194 1.09767E-04-5.69661E-06 6.72106E-21
 -1      7195 1.09750E-04-5.69661E-06 1.91570E-06
 -1      7196 6.74973E-05-5.14457E-06-1.17817E-06
 -1      7197 6.75076E-05-5.14457E-06 4.13351E-21
 -1      7198 6.74973E-05-5.14457E-06 1.17817E-06
 -1      7199 8.57315E-05-2.77595E-06-1.49645E-06
 -1      7200 8.57446E-05-2.77595E-06 5.25017E-21
 -1      7201 8.57315E-05-2.77595E-06 1.49645E-06
 -1      7202 1.13400E-04-4.25930E-06-1.97940E-06
 -1      7203 1.13417E-04-4.25930E-06 6.94457E-21
 -1      7204 1.13400E-04-4.25930E-06 1.97940E-06
 -1      7205 1.09780E-04-3.06908E-06-1.91622E-06
 -1      7206 1.09797E-04-3.06908E-06 6.72291E-21
 -1      7207 1.09780E-04-3.06908E-06 1.91622E-06
 -1      7208 1.09384E-04-3.38770E-06-1.90930E-06
 -1      7209 1.09400E-04-3.38770E-06 6.69863E-21
 -1      7210 1.09384E-04-3.38770E-06 1.90930E-06
 -1      7211 1.09207E-04-2.37176E-06-1.90621E-06
 -1      7212 1.09224E-04-2.37176E-06 6.68779E-21
 -1      7213 1.09207E-04-2.37176E-06 1.90621E-06
 -1      7214 1.09368E-04-5.97602E-06-1.90902E-06
 -1      7215 1.09384E-04-5.97602E-06 6.69765E-21
 -1      7216 1.09368E-04-5.97602E-06 1.90902E-06
 -1      7217 6.93506E-05-2.80825E-06-1.21052E-06
 -1      7218 6.93611E-05-2.80825E-06 4.24700E-21
 -1      7219 6.93506E-05-2.80825E-06 1.21052E-06
 -1      7220 6.74273E-05-4.09148E-06-1.17695E-06
 -1      7221 6.74376E-05-4.09148E-06 4.12923E-21
 -1      7222 6.74273E-05-4.09148E-06 1.17695E-06
 -1      7223 1.09321E-04-4.76862E-06-1.90820E-06
 -1      7224 1.09337E-04-4.76862E-06 6.69477E-21
 -1      7225 1.09321E-04-4.76862E-06 1.90820E-06
 -1      7226 9.17002E-05-2.46084E-06-1.60063E-06
 -1      7227 9.17142E-05-2.46084E-06 5.61569E-21
 -1      7228 9.17002E-05-2.46084E-06 1.60063E-06
 -1      7229 7.56454E-05-2.77888E-06-1.32040E-06
 -1      7230 7.56570E-05-2.77888E-06 4.63250E-21
 -1      7231 7.56454E-05-2.77888E-06 1.32040E-06
 -1      7232 7.16380E-05-2.46580E-06-1.25045E-06
 -1      7233 7.16489E-05-2.46580E-06 4.38709E-21
 -1      7234 7.16380E-05-2.46580E-06 1.25045E-06
 -1      7235 7.06651E-05-2.47086E-06-1.23346E-06
 -1      7236 7.06758E-05-2.47086E-06 4.32750E-21
 -1      7237 7.06651E-05-2.47086E-06 1.23346E-06
 -1      7238 8.18086E-05-2.78147E-06-1.42797E-06
 -1      7239 8.18210E-05-2.78147E-06 5.00993E-21
 -1      7240 8.18086E-05-2.78147E-06 1.42797E-06
 -1      7241 8.79449E-05-2.76915E-06-1.53508E-06
 -1      7242 8.79583E-05-2.76915E-06 5.38572E-21
 -1      7243 8.79449E-05-2.76915E-06 1.53508E-06
 -1      7244 7.84739E-05-2.78263E-06-1.36977E-06
 -1      7245 7.84858E-05-2.78263E-06 4.80571E-21
 -1      7246 7.84739E-05-2.78263E-06 1.36977E-06
 -1      7247 8.00728E-05-2.78215E-06-1.39768E-06
 -1      7248 8.00850E-05-2.78215E-06 4.90363E-21
 -1      7249 8.00728E-05-2.78215E-06 1.39768E-06
 -1      7250 6.83416E-05-6.24314E-06-1.19291E-06
 -1      7251 6.83520E-05-6.24314E-06 4.18521E-21
 -1      7252 6.83416E-05-6.24314E-06 1.19291E-06
 -1      7253 7.32360E-05-2.77428E-06-1.27834E-06
 -1      7254 7.32471E-05-2.77428E-06 4.48494E-21
 -1      7255 7.32360E-05-2.77428E-06 1.27834E-06
 -1      7256 9.76449E-05-2.47268E-06-1.70440E-06
 -1      7257 9.76598E-05-2.47268E-06 5.97974E-21
 -1      7258 9.76449E-05-2.47268E-06 1.70440E-06
 -1      7259 1.03337E-04-2.79181E-06-1.80375E-06
 -1      7260 1.03353E-04-2.79181E-06 6.32832E-21
 -1      7261 1.03337E-04-2.79181E-06 1.80375E-06
 -1      7262 1.08237E-04-2.74478E-06-1.88929E-06
 -1      7263 1.08254E-04-2.74478E-06 6.62840E-21
 -1      7264 1.08237E-04-2.74478E-06 1.88929E-06
 -1      7265 1.05465E-04-6.01457E-06-1.84090E-06
 -1      7266 1.05481E-04-6.01457E-06 6.45864E-21
 -1      7267 1.05465E-04-6.01457E-06 1.84090E-06
 -1      7268 1.09286E-04-4.08346E-06-1.90760E-06
 -1      7269 1.09303E-04-4.08346E-06 6.69264E-21
 -1      7270 1.09286E-04-4.08346E-06 1.90760E-06
 -1      7271 1.09285E-04-4.42762E-06-1.90758E-06
 -1      7272 1.09302E-04-4.42762E-06 6.69259E-21
 -1      7273 1.09285E-04-4.42762E-06 1.90758E-06
 -1      7274 9.45203E-05-2.46607E-06-1.64986E-06
 -1      7275 9.45347E-05-2.46607E-06 5.78839E-21
 -1      7276 9.45203E-05-2.46607E-06 1.64986E-06
 -1      7277 6.80915E-05-3.57609E-06-1.18854E-06
 -1      7278 6.81019E-05-3.57609E-06 4.16990E-21
 -1      7279 6.80915E-05-3.57609E-06 1.18854E-06
 -1      7280 1.05763E-04-5.24317E-06-1.84611E-06
 -1      7281 1.05779E-04-5.24317E-06 6.47691E-21
 -1      7282 1.05763E-04-5.24317E-06 1.84611E-06
 -1      7283 6.85110E-05-2.86464E-06-1.19586E-06
 -1      7284 6.85214E-05-2.86464E-06 4.19559E-21
 -1      7285 6.85110E-05-2.86464E-06 1.19586E-06
 -1      7286 6.81256E-05-4.96491E-06-1.18914E-06
 -1      7287 6.81360E-05-4.96491E-06 4.17199E-21
 -1      7288 6.81256E-05-4.96491E-06 1.18914E-06
 -1      7289 6.91115E-05-5.85406E-06-1.20635E-06
 -1      7290 6.91220E-05-5.85406E-06 4.23236E-21
 -1      7291 6.91115E-05-5.85406E-06 1.20635E-06
 -1      7292 7.70024E-05-2.78089E-06-1.34408E-06
 -1      7293 7.70141E-05-2.78089E-06 4.71560E-21
 -1      7294 7.70024E-05-2.78089E-06 1.34408E-06
 -1      7295 6.80278E-05-4.27876E-06-1.18743E-06
 -1      7296 6.80382E-05-4.27876E-06 4.16600E-21
 -1      7297 6.80278E-05-4.27876E-06 1.18743E-06
 -1      7298 6.82503E-05-3.21885E-06-1.19131E-06
 -1      7299 6.82607E-05-3.21885E-06 4.17962E-21
 -1      7300 6.82503E-05-3.21885E-06 1.19131E-06
 -1      7301 1.09339E-04-3.73578E-06-1.90851E-06
 -1      7302 1.09355E-04-3.73578E-06 6.69586E-21
 -1      7303 1.09339E-04-3.73578E-06 1.90851E-06
 -1      7304 6.80222E-05-3.93045E-06-1.18733E-06
 -1      7305 6.80326E-05-3.93045E-06 4.16566E-21
 -1      7306 6.80222E-05-3.93045E-06 1.18733E-06
 -1      7307 6.80730E-05-4.62177E-06-1.18822E-06
 -1      7308 6.80834E-05-4.62177E-06 4.16877E-21
 -1      7309 6.80730E-05-4.62177E-06 1.18822E-06
 -1      7310 6.90227E-05-3.13171E-06-1.20480E-06
 -1      7311 6.90332E-05-3.13171E-06 4.22693E-21
 -1      7312 6.90227E-05-3.13171E-06 1.20480E-06
 -1      7313 1.02004E-04-6.01382E-06-1.78049E-06
 -1      7314 1.02020E-04-6.01382E-06 6.24671E-21
 -1      7315 1.02004E-04-6.01382E-06 1.78049E-06
 -1      7316 9.85915E-05-5.99473E-06-1.72092E-06
 -1      7317 9.86065E-05-5.99473E-06 6.03771E-21
 -1      7318 9.85915E-05-5.99473E-06 1.72092E-06
 -1      7319 9.56016E-05-5.93759E-06-1.66873E-06
 -1      7320 9.56162E-05-5.93759E-06 5.85461E-21
 -1      7321 9.56016E-05-5.93759E-06 1.66873E-06
 -1      7322 9.27178E-05-5.92499E-06-1.61840E-06
 -1      7323 9.27319E-05-5.92499E-06 5.67801E-21
 -1      7324 9.27178E-05-5.92499E-06 1.61840E-06
 -1      7325 9.00369E-05-5.92382E-06-1.57160E-06
 -1      7326 9.00506E-05-5.92382E-06 5.51383E-21
 -1      7327 9.00369E-05-5.92382E-06 1.57160E-06
 -1      7328 8.75977E-05-5.92255E-06-1.52902E-06
 -1      7329 8.76110E-05-5.92255E-06 5.36445E-21
 -1      7330 8.75977E-05-5.92255E-06 1.52902E-06
 -1      7331 8.53764E-05-5.91798E-06-1.49025E-06
 -1      7332 8.53894E-05-5.91798E-06 5.22842E-21
 -1      7333 8.53764E-05-5.91798E-06 1.49025E-06
 -1      7334 8.33508E-05-5.91302E-06-1.45489E-06
 -1      7335 8.33635E-05-5.91302E-06 5.10437E-21
 -1      7336 8.33508E-05-5.91302E-06 1.45489E-06
 -1      7337 8.14961E-05-5.91231E-06-1.42252E-06
 -1      7338 8.15085E-05-5.91231E-06 4.99079E-21
 -1      7339 8.14961E-05-5.91231E-06 1.42252E-06
 -1      7340 7.97844E-05-5.91597E-06-1.39264E-06
 -1      7341 7.97965E-05-5.91597E-06 4.88597E-21
 -1      7342 7.97844E-05-5.91597E-06 1.39264E-06
 -1      7343 7.81999E-05-5.91916E-06-1.36498E-06
 -1      7344 7.82118E-05-5.91916E-06 4.78893E-21
 -1      7345 7.81999E-05-5.91916E-06 1.36498E-06
 -1      7346 7.67360E-05-5.91892E-06-1.33943E-06
 -1      7347 7.67477E-05-5.91892E-06 4.69929E-21
 -1      7348 7.67360E-05-5.91892E-06 1.33943E-06
 -1      7349 7.53836E-05-5.91720E-06-1.31583E-06
 -1      7350 7.53951E-05-5.91720E-06 4.61646E-21
 -1      7351 7.53836E-05-5.91720E-06 1.31583E-06
 -1      7352 7.41326E-05-5.91746E-06-1.29399E-06
 -1      7353 7.41439E-05-5.91746E-06 4.53986E-21
 -1      7354 7.41326E-05-5.91746E-06 1.29399E-06
 -1      7355 7.29792E-05-5.92252E-06-1.27386E-06
 -1      7356 7.29903E-05-5.92252E-06 4.46922E-21
 -1      7357 7.29792E-05-5.92252E-06 1.27386E-06
 -1      7358 7.19273E-05-5.93552E-06-1.25550E-06
 -1      7359 7.19383E-05-5.93552E-06 4.40480E-21
 -1      7360 7.19273E-05-5.93552E-06 1.25550E-06
 -1      7361 7.09799E-05-5.95635E-06-1.23896E-06
 -1      7362 7.09907E-05-5.95635E-06 4.34678E-21
 -1      7363 7.09799E-05-5.95635E-06 1.23896E-06
 -1      7364 7.00626E-05-5.93488E-06-1.22295E-06
 -1      7365 7.00733E-05-5.93488E-06 4.29061E-21
 -1      7366 7.00626E-05-5.93488E-06 1.22295E-06
 -1      7367 1.06033E-04-5.54253E-06-1.85081E-06
 -1      7368 1.06049E-04-5.54253E-06 6.49342E-21
 -1      7369 1.06033E-04-5.54253E-06 1.85081E-06
 -1      7370 9.93836E-05-2.78981E-06-1.73475E-06
 -1      7371 9.93987E-05-2.78981E-06 6.08622E-21
 -1      7372 9.93836E-05-2.78981E-06 1.73475E-06
 -1      7373 8.47070E-05-3.09273E-06-1.47857E-06
 -1      7374 8.47199E-05-3.09273E-06 5.18742E-21
 -1      7375 8.47070E-05-3.09273E-06 1.47857E-06
 -1      7376 1.05530E-04-3.14365E-06-1.84204E-06
 -1      7377 1.05546E-04-3.14365E-06 6.46264E-21
 -1      7378 1.05530E-04-3.14365E-06 1.84204E-06
 -1      7379 6.83024E-05-5.96346E-06-1.19222E-06
 -1      7380 6.83128E-05-5.96346E-06 4.18282E-21
 -1      7381 6.83024E-05-5.96346E-06 1.19222E-06
 -1      7382 1.05589E-04-4.93033E-06-1.84306E-06
 -1      7383 1.05605E-04-4.93033E-06 6.46623E-21
 -1      7384 1.05589E-04-4.93033E-06 1.84306E-06
 -1      7385 1.01096E-04-3.10764E-06-1.76463E-06
 -1      7386 1.01111E-04-3.10764E-06 6.19106E-21
 -1      7387 1.01096E-04-3.10764E-06 1.76463E-06
 -1      7388 6.98573E-05-3.08767E-06-1.21936E-06
 -1      7389 6.98680E-05-3.08767E-06 4.27804E-21
 -1      7390 6.98573E-05-3.08767E-06 1.21936E-06
 -1      7391 9.03665E-05-2.76435E-06-1.57735E-06
 -1      7392 9.03803E-05-2.76435E-06 5.53401E-21
 -1      7393 9.03665E-05-2.76435E-06 1.57735E-06
 -1      7394 6.81788E-05-5.30824E-06-1.19007E-06
 -1      7395 6.81892E-05-5.30824E-06 4.17524E-21
 -1      7396 6.81788E-05-5.30824E-06 1.19007E-06
 -1      7397 7.50024E-05-3.08975E-06-1.30917E-06
 -1      7398 7.50138E-05-3.08975E-06 4.59312E-21
 -1      7399 7.50024E-05-3.08975E-06 1.30917E-06
 -1      7400 7.21656E-05-2.77347E-06-1.25966E-06
 -1      7401 7.21766E-05-2.77347E-06 4.41940E-21
 -1      7402 7.21656E-05-2.77347E-06 1.25966E-06
 -1      7403 8.68271E-05-3.08475E-06-1.51557E-06
 -1      7404 8.68403E-05-3.08475E-06 5.31726E-21
 -1      7405 8.68271E-05-3.08475E-06 1.51557E-06
 -1      7406 7.92471E-05-3.09813E-06-1.38326E-06
 -1      7407 7.92592E-05-3.09813E-06 4.85307E-21
 -1      7408 7.92471E-05-3.09813E-06 1.38326E-06
 -1      7409 7.02367E-05-2.78094E-06-1.22599E-06
 -1      7410 7.02474E-05-2.78094E-06 4.30127E-21
 -1      7411 7.02367E-05-2.78094E-06 1.22599E-06
 -1      7412 8.27373E-05-3.09513E-06-1.44418E-06
 -1      7413 8.27499E-05-3.09513E-06 5.06680E-21
 -1      7414 8.27373E-05-3.09513E-06 1.44418E-06
 -1      7415 7.38056E-05-3.08529E-06-1.28828E-06
 -1      7416 7.38169E-05-3.08529E-06 4.51983E-21
 -1      7417 7.38056E-05-3.08529E-06 1.28828E-06
 -1      7418 7.77121E-05-3.09716E-06-1.35647E-06
 -1      7419 7.77239E-05-3.09716E-06 4.75906E-21
 -1      7420 7.77121E-05-3.09716E-06 1.35647E-06
 -1      7421 6.86451E-05-3.78680E-06-1.19820E-06
 -1      7422 6.86556E-05-3.78680E-06 4.20380E-21
 -1      7423 6.86451E-05-3.78680E-06 1.19820E-06
 -1      7424 1.05505E-04-4.25184E-06-1.84159E-06
 -1      7425 1.05521E-04-4.25184E-06 6.46107E-21
 -1      7426 1.05505E-04-4.25184E-06 1.84159E-06
 -1      7427 9.75523E-05-3.10606E-06-1.70278E-06
 -1      7428 9.75672E-05-3.10606E-06 5.97407E-21
 -1      7429 9.75523E-05-3.10606E-06 1.70278E-06
 -1      7430 1.06569E-04-5.79654E-06-1.86017E-06
 -1      7431 1.06585E-04-5.79654E-06 6.52626E-21
 -1      7432 1.06569E-04-5.79654E-06 1.86017E-06
 -1      7433 6.87144E-05-4.44518E-06-1.19941E-06
 -1      7434 6.87248E-05-4.44518E-06 4.20804E-21
 -1      7435 6.87144E-05-4.44518E-06 1.19941E-06
 -1      7436 6.95370E-05-3.38678E-06-1.21377E-06
 -1      7437 6.95476E-05-3.38678E-06 4.25842E-21
 -1      7438 6.95370E-05-3.38678E-06 1.21377E-06
 -1      7439 6.82402E-05-5.64742E-06-1.19114E-06
 -1      7440 6.82506E-05-5.64742E-06 4.17901E-21
 -1      7441 6.82402E-05-5.64742E-06 1.19114E-06
 -1      7442 7.63013E-05-3.09408E-06-1.33184E-06
 -1      7443 7.63129E-05-3.09408E-06 4.67266E-21
 -1      7444 7.63013E-05-3.09408E-06 1.33184E-06
 -1      7445 8.09194E-05-3.09631E-06-1.41245E-06
 -1      7446 8.09318E-05-3.09631E-06 4.95548E-21
 -1      7447 8.09194E-05-3.09631E-06 1.41245E-06
 -1      7448 7.07450E-05-3.07881E-06-1.23486E-06
 -1      7449 7.07558E-05-3.07881E-06 4.33240E-21
 -1      7450 7.07450E-05-3.07881E-06 1.23486E-06
 -1      7451 6.88688E-05-5.12640E-06-1.20211E-06
 -1      7452 6.88793E-05-5.12640E-06 4.21750E-21
 -1      7453 6.88688E-05-5.12640E-06 1.20211E-06
 -1      7454 6.87876E-05-3.46067E-06-1.20069E-06
 -1      7455 6.87981E-05-3.46067E-06 4.21253E-21
 -1      7456 6.87876E-05-3.46067E-06 1.20069E-06
 -1      7457 7.11715E-05-2.77356E-06-1.24230E-06
 -1      7458 7.11823E-05-2.77356E-06 4.35852E-21
 -1      7459 7.11715E-05-2.77356E-06 1.24230E-06
 -1      7460 6.87944E-05-4.78424E-06-1.20081E-06
 -1      7461 6.88049E-05-4.78424E-06 4.21294E-21
 -1      7462 6.87944E-05-4.78424E-06 1.20081E-06
 -1      7463 1.00030E-04-5.80348E-06-1.74603E-06
 -1      7464 1.00045E-04-5.80348E-06 6.12579E-21
 -1      7465 1.00030E-04-5.80348E-06 1.74603E-06
 -1      7466 9.38208E-05-5.64941E-06-1.63765E-06
 -1      7467 9.38350E-05-5.64941E-06 5.74555E-21
 -1      7468 9.38208E-05-5.64941E-06 1.63765E-06
 -1      7469 9.10077E-05-5.65238E-06-1.58854E-06
 -1      7470 9.10215E-05-5.65238E-06 5.57328E-21
 -1      7471 9.10077E-05-5.65238E-06 1.58854E-06
 -1      7472 8.84603E-05-5.65346E-06-1.54408E-06
 -1      7473 8.84738E-05-5.65346E-06 5.41728E-21
 -1      7474 8.84603E-05-5.65346E-06 1.54408E-06
 -1      7475 8.61601E-05-5.64694E-06-1.50393E-06
 -1      7476 8.61733E-05-5.64694E-06 5.27642E-21
 -1      7477 8.61601E-05-5.64694E-06 1.50393E-06
 -1      7478 8.40622E-05-5.63524E-06-1.46731E-06
 -1      7479 8.40750E-05-5.63524E-06 5.14794E-21
 -1      7480 8.40622E-05-5.63524E-06 1.46731E-06
 -1      7481 8.21479E-05-5.62915E-06-1.43390E-06
 -1      7482 8.21604E-05-5.62915E-06 5.03071E-21
 -1      7483 8.21479E-05-5.62915E-06 1.43390E-06
 -1      7484 8.03851E-05-5.63555E-06-1.40313E-06
 -1      7485 8.03974E-05-5.63555E-06 4.92276E-21
 -1      7486 8.03851E-05-5.63555E-06 1.40313E-06
 -1      7487 7.87509E-05-5.64415E-06-1.37460E-06
 -1      7488 7.87629E-05-5.64415E-06 4.82268E-21
 -1      7489 7.87509E-05-5.64415E-06 1.37460E-06
 -1      7490 7.72438E-05-5.64494E-06-1.34830E-06
 -1      7491 7.72556E-05-5.64494E-06 4.73038E-21
 -1      7492 7.72438E-05-5.64494E-06 1.34830E-06
 -1      7493 7.58517E-05-5.64091E-06-1.32400E-06
 -1      7494 7.58632E-05-5.64091E-06 4.64513E-21
 -1      7495 7.58517E-05-5.64091E-06 1.32400E-06
 -1      7496 7.45571E-05-5.63844E-06-1.30140E-06
 -1      7497 7.45684E-05-5.63844E-06 4.56585E-21
 -1      7498 7.45571E-05-5.63844E-06 1.30140E-06
 -1      7499 7.33523E-05-5.64122E-06-1.28037E-06
 -1      7500 7.33635E-05-5.64122E-06 4.49207E-21
 -1      7501 7.33523E-05-5.64122E-06 1.28037E-06
 -1      7502 7.22407E-05-5.65243E-06-1.26097E-06
 -1      7503 7.22517E-05-5.65243E-06 4.42399E-21
 -1      7504 7.22407E-05-5.65243E-06 1.26097E-06
 -1      7505 7.12530E-05-5.68028E-06-1.24373E-06
 -1      7506 7.12639E-05-5.68028E-06 4.36351E-21
 -1      7507 7.12530E-05-5.68028E-06 1.24373E-06
 -1      7508 7.04754E-05-5.72593E-06-1.23015E-06
 -1      7509 7.04862E-05-5.72593E-06 4.31589E-21
 -1      7510 7.04754E-05-5.72593E-06 1.23015E-06
 -1      7511 1.02558E-04-5.40843E-06-1.79016E-06
 -1      7512 1.02574E-04-5.40843E-06 6.28063E-21
 -1      7513 1.02558E-04-5.40843E-06 1.79016E-06
 -1      7514 1.02599E-04-3.39558E-06-1.79087E-06
 -1      7515 1.02615E-04-3.39558E-06 6.28312E-21
 -1      7516 1.02599E-04-3.39558E-06 1.79087E-06
 -1      7517 9.60233E-05-2.78007E-06-1.67609E-06
 -1      7518 9.60379E-05-2.78007E-06 5.88043E-21
 -1      7519 9.60233E-05-2.78007E-06 1.67609E-06
 -1      7520 1.05533E-04-4.59397E-06-1.84209E-06
 -1      7521 1.05549E-04-4.59397E-06 6.46281E-21
 -1      7522 1.05533E-04-4.59397E-06 1.84209E-06
 -1      7523 6.86315E-05-4.11863E-06-1.19797E-06
 -1      7524 6.86420E-05-4.11863E-06 4.20297E-21
 -1      7525 6.86315E-05-4.11863E-06 1.19797E-06
 -1      7526 7.56150E-05-3.40904E-06-1.31987E-06
 -1      7527 7.56266E-05-3.40904E-06 4.63064E-21
 -1      7528 7.56150E-05-3.40904E-06 1.31987E-06
 -1      7529 9.30427E-05-2.76769E-06-1.62407E-06
 -1      7530 9.30569E-05-2.76769E-06 5.69790E-21
 -1      7531 9.30427E-05-2.76769E-06 1.62407E-06
 -1      7532 8.91104E-05-3.07072E-06-1.55543E-06
 -1      7533 8.91240E-05-3.07072E-06 5.45709E-21
 -1      7534 8.91104E-05-3.07072E-06 1.55543E-06
 -1      7535 6.89394E-05-5.47589E-06-1.20334E-06
 -1      7536 6.89499E-05-5.47589E-06 4.22182E-21
 -1      7537 6.89394E-05-5.47589E-06 1.20334E-06
 -1      7538 1.05711E-04-3.54970E-06-1.84520E-06
 -1      7539 1.05728E-04-3.54970E-06 6.47373E-21
 -1      7540 1.05711E-04-3.54970E-06 1.84520E-06
 -1      7541 8.00511E-05-3.41577E-06-1.39730E-06
 -1      7542 8.00633E-05-3.41577E-06 4.90230E-21
 -1      7543 8.00511E-05-3.41577E-06 1.39730E-06
 -1      7544 7.03618E-05-3.37252E-06-1.22817E-06
 -1      7545 7.03725E-05-3.37252E-06 4.30893E-21
 -1      7546 7.03618E-05-3.37252E-06 1.22817E-06
 -1      7547 8.58023E-05-3.40889E-06-1.49769E-06
 -1      7548 8.58154E-05-3.40889E-06 5.25450E-21
 -1      7549 8.58023E-05-3.40889E-06 1.49769E-06
 -1      7550 7.27012E-05-3.08412E-06-1.26900E-06
 -1      7551 7.27123E-05-3.08412E-06 4.45220E-21
 -1      7552 7.27012E-05-3.08412E-06 1.26900E-06
 -1      7553 7.84414E-05-3.41752E-06-1.36920E-06
 -1      7554 7.84533E-05-3.41752E-06 4.80372E-21
 -1      7555 7.84414E-05-3.41752E-06 1.36920E-06
 -1      7556 8.37296E-05-3.41129E-06-1.46151E-06
 -1      7557 8.37424E-05-3.41129E-06 5.12757E-21
 -1      7558 8.37296E-05-3.41129E-06 1.46151E-06
 -1      7559 6.97443E-05-5.61603E-06-1.21739E-06
 -1      7560 6.97549E-05-5.61603E-06 4.27112E-21
 -1      7561 6.97443E-05-5.61603E-06 1.21739E-06
 -1      7562 9.90868E-05-3.47171E-06-1.72957E-06
 -1      7563 9.91019E-05-3.47171E-06 6.06804E-21
 -1      7564 9.90868E-05-3.47171E-06 1.72957E-06
 -1      7565 1.05546E-04-3.90381E-06-1.84232E-06
 -1      7566 1.05562E-04-3.90381E-06 6.46361E-21
 -1      7567 1.05546E-04-3.90381E-06 1.84232E-06
 -1      7568 9.70788E-05-5.65879E-06-1.69452E-06
 -1      7569 9.70936E-05-5.65879E-06 5.94507E-21
 -1      7570 9.70788E-05-5.65879E-06 1.69452E-06
 -1      7571 1.02154E-04-5.09626E-06-1.78310E-06
 -1      7572 1.02169E-04-5.09626E-06 6.25585E-21
 -1      7573 1.02154E-04-5.09626E-06 1.78310E-06
 -1      7574 7.43805E-05-3.39884E-06-1.29832E-06
 -1      7575 7.43919E-05-3.39884E-06 4.55504E-21
 -1      7576 7.43805E-05-3.39884E-06 1.29832E-06
 -1      7577 6.93365E-05-3.69280E-06-1.21027E-06
 -1      7578 6.93471E-05-3.69280E-06 4.24614E-21
 -1      7579 6.93365E-05-3.69280E-06 1.21027E-06
 -1      7580 1.03061E-04-5.73846E-06-1.79893E-06
 -1      7581 1.03076E-04-5.73846E-06 6.31140E-21
 -1      7582 1.03061E-04-5.73846E-06 1.79893E-06
 -1      7583 6.93733E-05-4.25307E-06-1.21092E-06
 -1      7584 6.93839E-05-4.25307E-06 4.24840E-21
 -1      7585 6.93733E-05-4.25307E-06 1.21092E-06
 -1      7586 6.96928E-05-5.27774E-06-1.21649E-06
 -1      7587 6.97034E-05-5.27774E-06 4.26796E-21
 -1      7588 6.96928E-05-5.27774E-06 1.21649E-06
 -1      7589 7.16852E-05-3.08320E-06-1.25127E-06
 -1      7590 7.16961E-05-3.08320E-06 4.38998E-21
 -1      7591 7.16852E-05-3.08320E-06 1.25127E-06
 -1      7592 6.96208E-05-4.93454E-06-1.21523E-06
 -1      7593 6.96314E-05-4.93454E-06 4.26355E-21
 -1      7594 6.96208E-05-4.93454E-06 1.21523E-06
 -1      7595 1.02050E-04-4.41899E-06-1.78128E-06
 -1      7596 1.02065E-04-4.41899E-06 6.24948E-21
 -1      7597 1.02050E-04-4.41899E-06 1.78128E-06
 -1      7598 7.05234E-05-5.44273E-06-1.23099E-06
 -1      7599 7.05341E-05-5.44273E-06 4.31883E-21
 -1      7600 7.05234E-05-5.44273E-06 1.23099E-06
 -1      7601 8.18124E-05-3.41221E-06-1.42804E-06
 -1      7602 8.18249E-05-3.41221E-06 5.01017E-21
 -1      7603 8.18124E-05-3.41221E-06 1.42804E-06
 -1      7604 6.94936E-05-4.58592E-06-1.21301E-06
 -1      7605 6.95042E-05-4.58592E-06 4.25576E-21
 -1      7606 6.94936E-05-4.58592E-06 1.21301E-06
 -1      7607 9.20576E-05-5.37238E-06-1.60687E-06
 -1      7608 9.20716E-05-5.37238E-06 5.63758E-21
 -1      7609 9.20576E-05-5.37238E-06 1.60687E-06
 -1      7610 6.92001E-05-3.96730E-06-1.20789E-06
 -1      7611 6.92106E-05-3.96730E-06 4.23779E-21
 -1      7612 6.92001E-05-3.96730E-06 1.20789E-06
 -1      7613 1.00075E-04-5.56716E-06-1.74682E-06
 -1      7614 1.00091E-04-5.56716E-06 6.12859E-21
 -1      7615 1.00075E-04-5.56716E-06 1.74682E-06
 -1      7616 8.94538E-05-5.37857E-06-1.56142E-06
 -1      7617 8.94674E-05-5.37857E-06 5.47812E-21
 -1      7618 8.94538E-05-5.37857E-06 1.56142E-06
 -1      7619 8.71016E-05-5.37324E-06-1.52036E-06
 -1      7620 8.71149E-05-5.37324E-06 5.33407E-21
 -1      7621 8.71016E-05-5.37324E-06 1.52036E-06
 -1      7622 8.49380E-05-5.35475E-06-1.48260E-06
 -1      7623 8.49509E-05-5.35475E-06 5.20157E-21
 -1      7624 8.49380E-05-5.35475E-06 1.48260E-06
 -1      7625 8.29342E-05-5.32988E-06-1.44762E-06
 -1      7626 8.29468E-05-5.32988E-06 5.07886E-21
 -1      7627 8.29342E-05-5.32988E-06 1.44762E-06
 -1      7628 8.10961E-05-5.33512E-06-1.41554E-06
 -1      7629 8.11085E-05-5.33512E-06 4.96630E-21
 -1      7630 8.10961E-05-5.33512E-06 1.41554E-06
 -1      7631 7.93955E-05-5.35915E-06-1.38585E-06
 -1      7632 7.94075E-05-5.35915E-06 4.86215E-21
 -1      7633 7.93955E-05-5.35915E-06 1.38585E-06
 -1      7634 7.78423E-05-5.36448E-06-1.35874E-06
 -1      7635 7.78541E-05-5.36448E-06 4.76703E-21
 -1      7636 7.78423E-05-5.36448E-06 1.35874E-06
 -1      7637 7.64167E-05-5.35632E-06-1.33386E-06
 -1      7638 7.64283E-05-5.35632E-06 4.67973E-21
 -1      7639 7.64167E-05-5.35632E-06 1.33386E-06
 -1      7640 7.50785E-05-5.34945E-06-1.31050E-06
 -1      7641 7.50899E-05-5.34945E-06 4.59778E-21
 -1      7642 7.50785E-05-5.34945E-06 1.31050E-06
 -1      7643 7.38170E-05-5.34863E-06-1.28848E-06
 -1      7644 7.38282E-05-5.34863E-06 4.52053E-21
 -1      7645 7.38170E-05-5.34863E-06 1.28848E-06
 -1      7646 7.26271E-05-5.35749E-06-1.26771E-06
 -1      7647 7.26381E-05-5.35749E-06 4.44765E-21
 -1      7648 7.26271E-05-5.35749E-06 1.26771E-06
 -1      7649 7.15005E-05-5.37876E-06-1.24805E-06
 -1      7650 7.15114E-05-5.37876E-06 4.37867E-21
 -1      7651 7.15005E-05-5.37876E-06 1.24805E-06
 -1      7652 1.02154E-04-3.71986E-06-1.78311E-06
 -1      7653 1.02170E-04-3.71986E-06 6.25589E-21
 -1      7654 1.02154E-04-3.71986E-06 1.78311E-06
 -1      7655 7.69681E-05-3.41485E-06-1.34348E-06
 -1      7656 7.69798E-05-3.41485E-06 4.71350E-21
 -1      7657 7.69681E-05-3.41485E-06 1.34348E-06
 -1      7658 1.02131E-04-4.76333E-06-1.78271E-06
 -1      7659 1.02147E-04-4.76333E-06 6.25448E-21
 -1      7660 1.02131E-04-4.76333E-06 1.78271E-06
 -1      7661 7.49317E-05-3.72347E-06-1.30794E-06
 -1      7662 7.49431E-05-3.72347E-06 4.58879E-21
 -1      7663 7.49317E-05-3.72347E-06 1.30794E-06
 -1      7664 7.91952E-05-3.74214E-06-1.38236E-06
 -1      7665 7.92073E-05-3.74214E-06 4.84989E-21
 -1      7666 7.91952E-05-3.74214E-06 1.38236E-06
 -1      7667 9.50508E-05-5.35586E-06-1.65912E-06
 -1      7668 9.50653E-05-5.35586E-06 5.82088E-21
 -1      7669 9.50508E-05-5.35586E-06 1.65912E-06
 -1      7670 8.80024E-05-3.39287E-06-1.53609E-06
 -1      7671 8.80158E-05-3.39287E-06 5.38924E-21
 -1      7672 8.80024E-05-3.39287E-06 1.53609E-06
 -1      7673 7.00037E-05-3.63030E-06-1.22192E-06
 -1      7674 7.00144E-05-3.63030E-06 4.28700E-21
 -1      7675 7.00037E-05-3.63030E-06 1.22192E-06
 -1      7676 7.12317E-05-3.39607E-06-1.24335E-06
 -1      7677 7.12426E-05-3.39607E-06 4.36220E-21
 -1      7678 7.12317E-05-3.39607E-06 1.24335E-06
 -1      7679 1.02022E-04-4.07289E-06-1.78079E-06
 -1      7680 1.02037E-04-4.07289E-06 6.24777E-21
 -1      7681 1.02022E-04-4.07289E-06 1.78079E-06
 -1      7682 9.56524E-05-3.39586E-06-1.66962E-06
 -1      7683 9.56670E-05-3.39586E-06 5.85772E-21
 -1      7684 9.56524E-05-3.39586E-06 1.66962E-06
 -1      7685 8.08980E-05-3.73238E-06-1.41208E-06
 -1      7686 8.09104E-05-3.73238E-06 4.95417E-21
 -1      7687 8.08980E-05-3.73238E-06 1.41208E-06
 -1      7688 9.86566E-05-5.28770E-06-1.72206E-06
 -1      7689 9.86716E-05-5.28770E-06 6.04169E-21
 -1      7690 9.86566E-05-5.28770E-06 1.72206E-06
 -1      7691 7.32401E-05-3.39415E-06-1.27841E-06
 -1      7692 7.32513E-05-3.39415E-06 4.48520E-21
 -1      7693 7.32401E-05-3.39415E-06 1.27841E-06
 -1      7694 8.48215E-05-3.73442E-06-1.48056E-06
 -1      7695 8.48344E-05-3.73442E-06 5.19444E-21
 -1      7696 8.48215E-05-3.73442E-06 1.48056E-06
 -1      7697 9.44032E-05-3.07695E-06-1.64781E-06
 -1      7698 9.44176E-05-3.07695E-06 5.78122E-21
 -1      7699 9.44032E-05-3.07695E-06 1.64781E-06
 -1      7700 9.16194E-05-3.06452E-06-1.59922E-06
 -1      7701 9.16333E-05-3.06452E-06 5.61074E-21
 -1      7702 9.16194E-05-3.06452E-06 1.59922E-06
 -1      7703 7.62238E-05-3.73563E-06-1.33049E-06
 -1      7704 7.62354E-05-3.73563E-06 4.66792E-21
 -1      7705 7.62238E-05-3.73563E-06 1.33049E-06
 -1      7706 8.70505E-05-3.73189E-06-1.51947E-06
 -1      7707 8.70637E-05-3.73189E-06 5.33094E-21
 -1      7708 8.70505E-05-3.73189E-06 1.51947E-06
 -1      7709 9.59475E-05-5.04442E-06-1.67477E-06
 -1      7710 9.59621E-05-5.04442E-06 5.87579E-21
 -1      7711 9.59475E-05-5.04442E-06 1.67477E-06
 -1      7712 9.31176E-05-5.07860E-06-1.62537E-06
 -1      7713 9.31318E-05-5.07860E-06 5.70249E-21
 -1      7714 9.31176E-05-5.07860E-06 1.62537E-06
 -1      7715 7.06793E-05-5.08515E-06-1.23371E-06
 -1      7716 7.06901E-05-5.08515E-06 4.32838E-21
 -1      7717 7.06793E-05-5.08515E-06 1.23371E-06
 -1      7718 9.90260E-05-4.58644E-06-1.72851E-06
 -1      7719 9.90411E-05-4.58644E-06 6.06432E-21
 -1      7720 9.90260E-05-4.58644E-06 1.72851E-06
 -1      7721 9.90522E-05-4.93468E-06-1.72896E-06
 -1      7722 9.90673E-05-4.93468E-06 6.06592E-21
 -1      7723 9.90522E-05-4.93468E-06 1.72896E-06
 -1      7724 7.76437E-05-3.74311E-06-1.35528E-06
 -1      7725 7.76555E-05-3.74311E-06 4.75487E-21
 -1      7726 7.76437E-05-3.74311E-06 1.35528E-06
 -1      7727 9.05129E-05-5.09037E-06-1.57991E-06
 -1      7728 9.05266E-05-5.09037E-06 5.54297E-21
 -1      7729 9.05129E-05-5.09037E-06 1.57991E-06
 -1      7730 8.81994E-05-5.09283E-06-1.53953E-06
 -1      7731 8.82128E-05-5.09283E-06 5.40130E-21
 -1      7732 8.81994E-05-5.09283E-06 1.53953E-06
 -1      7733 8.60057E-05-5.07699E-06-1.50123E-06
 -1      7734 8.60188E-05-5.07699E-06 5.26696E-21
 -1      7735 8.60057E-05-5.07699E-06 1.50123E-06
 -1      7736 8.39841E-05-5.03271E-06-1.46595E-06
 -1      7737 8.39969E-05-5.03271E-06 5.14316E-21
 -1      7738 8.39841E-05-5.03271E-06 1.46595E-06
 -1      7739 8.19229E-05-4.97966E-06-1.42997E-06
 -1      7740 8.19354E-05-4.97966E-06 5.01693E-21
 -1      7741 8.19229E-05-4.97966E-06 1.42997E-06
 -1      7742 8.01008E-05-5.05642E-06-1.39816E-06
 -1      7743 8.01130E-05-5.05642E-06 4.90534E-21
 -1      7744 8.01008E-05-5.05642E-06 1.39816E-06
 -1      7745 7.85141E-05-5.07991E-06-1.37047E-06
 -1      7746 7.85260E-05-5.07991E-06 4.80818E-21
 -1      7747 7.85141E-05-5.07991E-06 1.37047E-06
 -1      7748 7.70891E-05-5.06108E-06-1.34560E-06
 -1      7749 7.71008E-05-5.06108E-06 4.72091E-21
 -1      7750 7.70891E-05-5.06108E-06 1.34560E-06
 -1      7751 7.57191E-05-5.04788E-06-1.32168E-06
 -1      7752 7.57306E-05-5.04788E-06 4.63701E-21
 -1      7753 7.57191E-05-5.04788E-06 1.32168E-06
 -1      7754 7.44027E-05-5.04039E-06-1.29870E-06
 -1      7755 7.44141E-05-5.04039E-06 4.55640E-21
 -1      7756 7.44027E-05-5.04039E-06 1.29870E-06
 -1      7757 7.31485E-05-5.04480E-06-1.27681E-06
 -1      7758 7.31597E-05-5.04480E-06 4.47959E-21
 -1      7759 7.31485E-05-5.04480E-06 1.27681E-06
 -1      7760 7.19442E-05-5.06599E-06-1.25579E-06
 -1      7761 7.19552E-05-5.06599E-06 4.40584E-21
 -1      7762 7.19442E-05-5.06599E-06 1.25579E-06
 -1      7763 8.27683E-05-3.72916E-06-1.44473E-06
 -1      7764 8.27809E-05-3.72916E-06 5.06870E-21
 -1      7765 8.27683E-05-3.72916E-06 1.44473E-06
 -1      7766 9.64909E-05-3.70358E-06-1.68425E-06
 -1      7767 9.65056E-05-3.70358E-06 5.90907E-21
 -1      7768 9.64909E-05-3.70358E-06 1.68425E-06
 -1      7769 7.21904E-05-3.39870E-06-1.26009E-06
 -1      7770 7.22014E-05-3.39870E-06 4.42092E-21
 -1      7771 7.21904E-05-3.39870E-06 1.26009E-06
 -1      7772 7.37786E-05-3.70111E-06-1.28781E-06
 -1      7773 7.37898E-05-3.70111E-06 4.51817E-21
 -1      7774 7.37786E-05-3.70111E-06 1.28781E-06
 -1      7775 8.37979E-05-4.05003E-06-1.46270E-06
 -1      7776 8.38106E-05-4.05003E-06 5.13175E-21
 -1      7777 8.37979E-05-4.05003E-06 1.46270E-06
 -1      7778 8.93728E-05-3.69622E-06-1.56001E-06
 -1      7779 8.93864E-05-3.69622E-06 5.47316E-21
 -1      7780 8.93728E-05-3.69622E-06 1.56001E-06
 -1      7781 7.00090E-05-3.96681E-06-1.22201E-06
 -1      7782 7.00197E-05-3.96681E-06 4.28733E-21
 -1      7783 7.00090E-05-3.96681E-06 1.22201E-06
 -1      7784 7.07567E-05-3.70927E-06-1.23506E-06
 -1      7785 7.07674E-05-3.70927E-06 4.33311E-21
 -1      7786 7.07567E-05-3.70927E-06 1.23506E-06
 -1      7787 9.86651E-05-4.24153E-06-1.72221E-06
 -1      7788 9.86802E-05-4.24153E-06 6.04222E-21
 -1      7789 9.86651E-05-4.24153E-06 1.72221E-06
 -1      7790 7.03609E-05-4.71246E-06-1.22815E-06
 -1      7791 7.03716E-05-4.71246E-06 4.30887E-21
 -1      7792 7.03609E-05-4.71246E-06 1.22815E-06
 -1      7793 7.54445E-05-4.05826E-06-1.31689E-06
 -1      7794 7.54560E-05-4.05826E-06 4.62020E-21
 -1      7795 7.54445E-05-4.05826E-06 1.31689E-06
 -1      7796 7.83435E-05-4.08215E-06-1.36749E-06
 -1      7797 7.83554E-05-4.08215E-06 4.79773E-21
 -1      7798 7.83435E-05-4.08215E-06 1.36749E-06
 -1      7799 7.99942E-05-4.06532E-06-1.39630E-06
 -1      7800 8.00064E-05-4.06532E-06 4.89881E-21
 -1      7801 7.99942E-05-4.06532E-06 1.39630E-06
 -1      7802 7.01925E-05-4.34417E-06-1.22521E-06
 -1      7803 7.02031E-05-4.34417E-06 4.29856E-21
 -1      7804 7.01925E-05-4.34417E-06 1.22521E-06
 -1      7805 9.38185E-05-3.69132E-06-1.63761E-06
 -1      7806 9.38328E-05-3.69132E-06 5.74541E-21
 -1      7807 9.38185E-05-3.69132E-06 1.63761E-06
 -1      7808 9.89006E-05-3.88494E-06-1.72632E-06
 -1      7809 9.89156E-05-3.88494E-06 6.05664E-21
 -1      7810 9.89006E-05-3.88494E-06 1.72632E-06
 -1      7811 9.28702E-05-3.36176E-06-1.62106E-06
 -1      7812 9.28844E-05-3.36176E-06 5.68734E-21
 -1      7813 9.28702E-05-3.36176E-06 1.62106E-06
 -1      7814 9.03065E-05-3.36059E-06-1.57631E-06
 -1      7815 9.03203E-05-3.36059E-06 5.53034E-21
 -1      7816 9.03065E-05-3.36059E-06 1.57631E-06
 -1      7817 8.60542E-05-4.07241E-06-1.50208E-06
 -1      7818 8.60673E-05-4.07241E-06 5.26993E-21
 -1      7819 8.60542E-05-4.07241E-06 1.50208E-06
 -1      7820 7.42162E-05-4.03678E-06-1.29545E-06
 -1      7821 7.42275E-05-4.03678E-06 4.54497E-21
 -1      7822 7.42162E-05-4.03678E-06 1.29545E-06
 -1      7823 8.87148E-05-4.06490E-06-1.54852E-06
 -1      7824 8.87284E-05-4.06490E-06 5.43287E-21
 -1      7825 8.87148E-05-4.06490E-06 1.54852E-06
 -1      7826 8.18058E-05-4.04395E-06-1.42792E-06
 -1      7827 8.18182E-05-4.04395E-06 5.00976E-21
 -1      7828 8.18058E-05-4.04395E-06 1.42792E-06
 -1      7829 9.66610E-05-4.75302E-06-1.68722E-06
 -1      7830 9.66758E-05-4.75302E-06 5.91949E-21
 -1      7831 9.66610E-05-4.75302E-06 1.68722E-06
 -1      7832 7.26947E-05-3.70504E-06-1.26889E-06
 -1      7833 7.27057E-05-3.70504E-06 4.45180E-21
 -1      7834 7.26947E-05-3.70504E-06 1.26889E-06
 -1      7835 7.10925E-05-4.09529E-06-1.24092E-06
 -1      7836 7.11034E-05-4.09529E-06 4.35368E-21
 -1      7837 7.10925E-05-4.09529E-06 1.24092E-06
 -1      7838 9.51308E-05-4.05277E-06-1.66051E-06
 -1      7839 9.51453E-05-4.05277E-06 5.82578E-21
 -1      7840 9.51308E-05-4.05277E-06 1.66051E-06
 -1      7841 7.68256E-05-4.07018E-06-1.34100E-06
 -1      7842 7.68373E-05-4.07018E-06 4.70477E-21
 -1      7843 7.68256E-05-4.07018E-06 1.34100E-06
 -1      7844 9.15894E-05-4.81244E-06-1.59870E-06
 -1      7845 9.16033E-05-4.81244E-06 5.60890E-21
 -1      7846 9.15894E-05-4.81244E-06 1.59870E-06
 -1      7847 8.92891E-05-4.76307E-06-1.55855E-06
 -1      7848 8.93027E-05-4.76307E-06 5.46804E-21
 -1      7849 8.92891E-05-4.76307E-06 1.55855E-06
 -1      7850 8.71943E-05-4.82055E-06-1.52198E-06
 -1      7851 8.72076E-05-4.82055E-06 5.33975E-21
 -1      7852 8.71943E-05-4.82055E-06 1.52198E-06
 -1      7853 8.53372E-05-4.73793E-06-1.48957E-06
 -1      7854 8.53502E-05-4.73793E-06 5.22602E-21
 -1      7855 8.53372E-05-4.73793E-06 1.48957E-06
 -1      7856 8.34343E-05-4.68852E-06-1.45635E-06
 -1      7857 8.34470E-05-4.68852E-06 5.10949E-21
 -1      7858 8.34343E-05-4.68852E-06 1.45635E-06
 -1      7859 8.04687E-05-4.71358E-06-1.40459E-06
 -1      7860 8.04810E-05-4.71358E-06 4.92787E-21
 -1      7861 8.04687E-05-4.71358E-06 1.40459E-06
 -1      7862 7.91746E-05-4.81095E-06-1.38200E-06
 -1      7863 7.91866E-05-4.81095E-06 4.84862E-21
 -1      7864 7.91746E-05-4.81095E-06 1.38200E-06
 -1      7865 7.78788E-05-4.75628E-06-1.35938E-06
 -1      7866 7.78907E-05-4.75628E-06 4.76927E-21
 -1      7867 7.78788E-05-4.75628E-06 1.35938E-06
 -1      7868 7.64861E-05-4.73373E-06-1.33507E-06
 -1      7869 7.64977E-05-4.73373E-06 4.68398E-21
 -1      7870 7.64861E-05-4.73373E-06 1.33507E-06
 -1      7871 7.51234E-05-4.72137E-06-1.31128E-06
 -1      7872 7.51348E-05-4.72137E-06 4.60053E-21
 -1      7873 7.51234E-05-4.72137E-06 1.31128E-06
 -1      7874 7.37925E-05-4.71021E-06-1.28805E-06
 -1      7875 7.38038E-05-4.71021E-06 4.51903E-21
 -1      7876 7.37925E-05-4.71021E-06 1.28805E-06
 -1      7877 7.25427E-05-4.72630E-06-1.26624E-06
 -1      7878 7.25537E-05-4.72630E-06 4.44249E-21
 -1      7879 7.25427E-05-4.72630E-06 1.26624E-06
 -1      7880 9.39961E-05-4.74962E-06-1.64071E-06
 -1      7881 9.40104E-05-4.74962E-06 5.75628E-21
 -1      7882 9.39961E-05-4.74962E-06 1.64071E-06
 -1      7883 7.32129E-05-3.97574E-06-1.27794E-06
 -1      7884 7.32241E-05-3.97574E-06 4.48353E-21
 -1      7885 7.32129E-05-3.97574E-06 1.27794E-06
 -1      7886 9.56827E-05-4.44367E-06-1.67015E-06
 -1      7887 9.56973E-05-4.44367E-06 5.85958E-21
 -1      7888 9.56827E-05-4.44367E-06 1.67015E-06
 -1      7889 7.13935E-05-4.76404E-06-1.24618E-06
 -1      7890 7.14044E-05-4.76404E-06 4.37212E-21
 -1      7891 7.13935E-05-4.76404E-06 1.24618E-06
 -1      7892 7.74207E-05-4.41251E-06-1.35138E-06
 -1      7893 7.74325E-05-4.41251E-06 4.74121E-21
 -1      7894 7.74207E-05-4.41251E-06 1.35138E-06
 -1      7895 7.91174E-05-4.44941E-06-1.38100E-06
 -1      7896 7.91294E-05-4.44941E-06 4.84512E-21
 -1      7897 7.91174E-05-4.44941E-06 1.38100E-06
 -1      7898 7.16878E-05-3.73147E-06-1.25132E-06
 -1      7899 7.16987E-05-3.73147E-06 4.39014E-21
 -1      7900 7.16878E-05-3.73147E-06 1.25132E-06
 -1      7901 7.09859E-05-4.46895E-06-1.23906E-06
 -1      7902 7.09967E-05-4.46895E-06 4.34715E-21
 -1      7903 7.09859E-05-4.46895E-06 1.23906E-06
 -1      7904 7.45864E-05-4.38053E-06-1.30191E-06
 -1      7905 7.45977E-05-4.38053E-06 4.56764E-21
 -1      7906 7.45864E-05-4.38053E-06 1.30191E-06
 -1      7907 9.15882E-05-3.95066E-06-1.59868E-06
 -1      7908 9.16022E-05-3.95066E-06 5.60883E-21
 -1      7909 9.15882E-05-3.95066E-06 1.59868E-06
 -1      7910 9.15211E-05-3.61708E-06-1.59751E-06
 -1      7911 9.15351E-05-3.61708E-06 5.60472E-21
 -1      7912 9.15211E-05-3.61708E-06 1.59751E-06
 -1      7913 7.59614E-05-4.39571E-06-1.32591E-06
 -1      7914 7.59730E-05-4.39571E-06 4.65185E-21
 -1      7915 7.59614E-05-4.39571E-06 1.32591E-06
 -1      7916 8.47698E-05-4.38800E-06-1.47966E-06
 -1      7917 8.47827E-05-4.38800E-06 5.19127E-21
 -1      7918 8.47698E-05-4.38800E-06 1.47966E-06
 -1      7919 8.27520E-05-4.34923E-06-1.44444E-06
 -1      7920 8.27647E-05-4.34923E-06 5.06771E-21
 -1      7921 8.27520E-05-4.34923E-06 1.44444E-06
 -1      7922 7.19256E-05-4.41371E-06-1.25547E-06
 -1      7923 7.19366E-05-4.41371E-06 4.40470E-21
 -1      7924 7.19256E-05-4.41371E-06 1.25547E-06
 -1      7925 8.74077E-05-4.45175E-06-1.52571E-06
 -1      7926 8.74210E-05-4.45175E-06 5.35281E-21
 -1      7927 8.74077E-05-4.45175E-06 1.52571E-06
 -1      7928 9.15141E-05-4.40407E-06-1.59738E-06
 -1      7929 9.15280E-05-4.40407E-06 5.60429E-21
 -1      7930 9.15141E-05-4.40407E-06 1.59738E-06
 -1      7931 7.22457E-05-4.05500E-06-1.26105E-06
 -1      7932 7.22567E-05-4.05500E-06 4.42430E-21
 -1      7933 7.22457E-05-4.05500E-06 1.26105E-06
 -1      7934 7.32000E-05-4.34196E-06-1.27771E-06
 -1      7935 7.32112E-05-4.34196E-06 4.48274E-21
 -1      7936 7.32000E-05-4.34196E-06 1.27771E-06
 -1      7937 8.18637E-05-4.62019E-06-1.42894E-06
 -1      7938 8.18762E-05-4.62019E-06 5.01330E-21
 -1      7939 8.18637E-05-4.62019E-06 1.42894E-06
 -1      7940 8.09060E-05-4.36317E-06-1.41222E-06
 -1      7941 8.09183E-05-4.36317E-06 4.95465E-21
 -1      7942 8.09060E-05-4.36317E-06 1.41222E-06
 -1      7943 1.68229E-04-8.71235E-06-2.93646E-06
 -1      7945 1.68229E-04-8.71235E-06 2.93646E-06
 -1      7946 1.62134E-04-8.71126E-06-2.83007E-06
 -1      7948 1.62134E-04-8.71126E-06 2.83007E-06
 -1      7949 1.62130E-04-8.88897E-06-2.83000E-06
 -1      7951 1.62130E-04-8.88897E-06 2.83000E-06
 -1      7952 1.68230E-04-8.35563E-06-2.93646E-06
 -1      7954 1.68230E-04-8.35563E-06 2.93646E-06
 -1      7955 1.63184E-04-8.29430E-06-2.84838E-06
 -1      7957 1.63184E-04-8.29430E-06 2.84838E-06
 -1      7958 1.63184E-04-8.47181E-06-2.84838E-06
 -1      7960 1.63184E-04-8.47181E-06 2.84838E-06
 -1      7961 1.68230E-04-7.64447E-06-2.93646E-06
 -1      7963 1.68230E-04-7.64447E-06 2.93646E-06
 -1      7964 1.62811E-04-7.56853E-06-2.84187E-06
 -1      7966 1.62811E-04-7.56853E-06 2.84187E-06
 -1      7967 1.62811E-04-7.74571E-06-2.84187E-06
 -1      7969 1.62811E-04-7.74571E-06 2.84187E-06
 -1      7970 1.68230E-04-6.93331E-06-2.93646E-06
 -1      7972 1.68230E-04-6.93331E-06 2.93646E-06
 -1      7973 1.62820E-04-6.84884E-06-2.84204E-06
 -1      7975 1.62820E-04-6.84884E-06 2.84204E-06
 -1      7976 1.62820E-04-7.02603E-06-2.84204E-06
 -1      7978 1.62820E-04-7.02603E-06 2.84204E-06
 -1      7979 1.68230E-04-6.22219E-06-2.93646E-06
 -1      7981 1.68230E-04-6.22219E-06 2.93646E-06
 -1      7982 1.62902E-04-6.13431E-06-2.84347E-06
 -1      7984 1.62902E-04-6.13431E-06 2.84347E-06
 -1      7985 1.62902E-04-6.31153E-06-2.84347E-06
 -1      7987 1.62902E-04-6.31153E-06 2.84347E-06
 -1      7988 1.68230E-04-5.51109E-06-2.93646E-06
 -1      7990 1.68230E-04-5.51109E-06 2.93646E-06
 -1      7991 1.62971E-04-5.42221E-06-2.84467E-06
 -1      7993 1.62971E-04-5.42221E-06 2.84467E-06
 -1      7994 1.62971E-04-5.59944E-06-2.84467E-06
 -1      7996 1.62971E-04-5.59944E-06 2.84467E-06
 -1      7997 1.68230E-04-4.80000E-06-2.93646E-06
 -1      7999 1.68230E-04-4.80000E-06 2.93646E-06
 -1      8000 1.62991E-04-4.71105E-06-2.84502E-06
 -1      8002 1.62991E-04-4.71105E-06 2.84502E-06
 -1      8003 1.62991E-04-4.88829E-06-2.84502E-06
 -1      8005 1.62991E-04-4.88829E-06 2.84502E-06
 -1      8006 1.68230E-04-4.08889E-06-2.93646E-06
 -1      8008 1.68230E-04-4.08889E-06 2.93646E-06
 -1      8009 1.62989E-04-4.00017E-06-2.84499E-06
 -1      8011 1.62989E-04-4.00017E-06 2.84499E-06
 -1      8012 1.62989E-04-4.17741E-06-2.84499E-06
 -1      8014 1.62989E-04-4.17741E-06 2.84499E-06
 -1      8015 1.68229E-04-3.37777E-06-2.93646E-06
 -1      8017 1.68229E-04-3.37777E-06 2.93646E-06
 -1      8018 1.62988E-04-3.28939E-06-2.84496E-06
 -1      8020 1.62988E-04-3.28939E-06 2.84496E-06
 -1      8021 1.62988E-04-3.46663E-06-2.84496E-06
 -1      8023 1.62988E-04-3.46663E-06 2.84496E-06
 -1      8024 1.68229E-04-2.66665E-06-2.93646E-06
 -1      8026 1.68229E-04-2.66665E-06 2.93646E-06
 -1      8027 1.63001E-04-2.57930E-06-2.84519E-06
 -1      8029 1.63001E-04-2.57930E-06 2.84519E-06
 -1      8030 1.63001E-04-2.75654E-06-2.84519E-06
 -1      8032 1.63001E-04-2.75654E-06 2.84519E-06
 -1      8033 1.68229E-04-1.95554E-06-2.93646E-06
 -1      8035 1.68229E-04-1.95554E-06 2.93646E-06
 -1      8036 1.62974E-04-1.87016E-06-2.84472E-06
 -1      8038 1.62974E-04-1.87016E-06 2.84472E-06
 -1      8039 1.62974E-04-2.04741E-06-2.84472E-06
 -1      8041 1.62974E-04-2.04741E-06 2.84472E-06
 -1      8042 1.68230E-04-1.24442E-06-2.93646E-06
 -1      8044 1.68230E-04-1.24442E-06 2.93646E-06
 -1      8045 1.62871E-04-1.16363E-06-2.84293E-06
 -1      8047 1.62871E-04-1.16363E-06 2.84293E-06
 -1      8048 1.62871E-04-1.34088E-06-2.84293E-06
 -1      8050 1.62871E-04-1.34088E-06 2.84293E-06
 -1      8051 1.68229E-04-5.33446E-07-2.93646E-06
 -1      8053 1.68229E-04-5.33446E-07 2.93646E-06
 -1      8054 1.62692E-04-4.64601E-07-2.83980E-06
 -1      8056 1.62692E-04-4.64601E-07 2.83980E-06
 -1      8057 1.62692E-04-6.41963E-07-2.83979E-06
 -1      8059 1.62692E-04-6.41963E-07 2.83979E-06
 -1      8060 1.68230E-04-1.77887E-07-2.93646E-06
 -1      8062 1.68230E-04-1.77887E-07 2.93646E-06
 -1      8063 1.62381E-04-1.30612E-07-2.83436E-06
 -1      8065 1.62381E-04-1.30612E-07 2.83436E-06
 -1      8066 1.62380E-04-3.07526E-07-2.83435E-06
 -1      8068 1.62380E-04-3.07526E-07 2.83435E-06
 -1      8069 1.57258E-04-4.16612E-07-2.74495E-06
 -1      8071 1.57258E-04-4.16612E-07 2.74495E-06
 -1      8072 1.62136E-04 0.00000E+00-2.83010E-06
 -1      8074 1.62136E-04 0.00000E+00 2.83010E-06
 -1      8075 1.56742E-04-1.29271E-07-2.73593E-06
 -1      8077 1.56742E-04-1.29271E-07 2.73593E-06
 -1      8078 1.51499E-04 0.00000E+00-2.64443E-06
 -1      8080 1.51499E-04 0.00000E+00 2.64443E-06
 -1      8081 1.51713E-04-1.30029E-07-2.64816E-06
 -1      8083 1.51713E-04-1.30029E-07 2.64816E-06
 -1      8084 1.42500E-04 0.00000E+00-2.48735E-06
 -1      8086 1.42500E-04 0.00000E+00 2.48735E-06
 -1      8087 1.39938E-04-1.31924E-07-2.44262E-06
 -1      8089 1.39938E-04-1.31924E-07 2.44262E-06
 -1      8090 1.44097E-04-1.31994E-07-2.51522E-06
 -1      8092 1.44097E-04-1.31994E-07 2.51522E-06
 -1      8093 1.27514E-04 0.00000E+00-2.22576E-06
 -1      8095 1.27514E-04 0.00000E+00 2.22576E-06
 -1      8096 1.25964E-04-1.50038E-07-2.19871E-06
 -1      8098 1.25964E-04-1.50038E-07 2.19871E-06
 -1      8099 1.29186E-04-1.50003E-07-2.25495E-06
 -1      8101 1.29186E-04-1.50003E-07 2.25495E-06
 -1      8102 1.15959E-04 0.00000E+00-2.02407E-06
 -1      8104 1.15959E-04 0.00000E+00 2.02407E-06
 -1      8105 1.14687E-04-1.56356E-07-2.00186E-06
 -1      8107 1.14687E-04-1.56356E-07 2.00186E-06
 -1      8108 1.17327E-04-1.56344E-07-2.04795E-06
 -1      8110 1.17327E-04-1.56344E-07 2.04795E-06
 -1      8111 1.06751E-04 0.00000E+00-1.86334E-06
 -1      8113 1.06751E-04 0.00000E+00 1.86334E-06
 -1      8114 1.05735E-04-1.54590E-07-1.84560E-06
 -1      8116 1.05735E-04-1.54590E-07 1.84560E-06
 -1      8117 1.07779E-04-1.54591E-07-1.88129E-06
 -1      8119 1.07779E-04-1.54591E-07 1.88129E-06
 -1      8120 9.92187E-05 0.00000E+00-1.73187E-06
 -1      8122 9.92187E-05 0.00000E+00 1.73187E-06
 -1      8123 9.83993E-05-1.53779E-07-1.71757E-06
 -1      8125 9.83993E-05-1.53779E-07 1.71757E-06
 -1      8126 1.00067E-04-1.53777E-07-1.74668E-06
 -1      8128 1.00067E-04-1.53777E-07 1.74668E-06
 -1      8129 9.30885E-05 0.00000E+00-1.62487E-06
 -1      8131 9.30885E-05 0.00000E+00 1.62487E-06
 -1      8132 9.23789E-05-1.53592E-07-1.61248E-06
 -1      8134 9.23789E-05-1.53592E-07 1.61248E-06
 -1      8135 9.38122E-05-1.53591E-07-1.63750E-06
 -1      8137 9.38122E-05-1.53591E-07 1.63750E-06
 -1      8138 8.79902E-05 0.00000E+00-1.53587E-06
 -1      8140 8.79902E-05 0.00000E+00 1.53587E-06
 -1      8141 8.74145E-05-1.54024E-07-1.52583E-06
 -1      8143 8.74145E-05-1.54024E-07 1.52583E-06
 -1      8144 8.85678E-05-1.54024E-07-1.54596E-06
 -1      8146 8.85678E-05-1.54024E-07 1.54596E-06
 -1      8147 8.36748E-05 0.00000E+00-1.46055E-06
 -1      8149 8.36748E-05 0.00000E+00 1.46055E-06
 -1      8150 8.32018E-05-1.54073E-07-1.45229E-06
 -1      8152 8.32018E-05-1.54073E-07 1.45229E-06
 -1      8153 8.41723E-05-1.54072E-07-1.46923E-06
 -1      8155 8.41723E-05-1.54072E-07 1.46923E-06
 -1      8156 8.00968E-05 0.00000E+00-1.39810E-06
 -1      8158 8.00968E-05 0.00000E+00 1.39810E-06
 -1      8159 7.96831E-05-1.54097E-07-1.39087E-06
 -1      8161 7.96831E-05-1.54097E-07 1.39087E-06
 -1      8162 8.05065E-05-1.54097E-07-1.40525E-06
 -1      8164 8.05065E-05-1.54097E-07 1.40525E-06
 -1      8165 7.69977E-05 0.00000E+00-1.34400E-06
 -1      8167 7.69977E-05 0.00000E+00 1.34400E-06
 -1      8168 7.66538E-05-1.54093E-07-1.33800E-06
 -1      8170 7.66538E-05-1.54093E-07 1.33800E-06
 -1      8171 7.73545E-05-1.54092E-07-1.35023E-06
 -1      8173 7.73545E-05-1.54092E-07 1.35023E-06
 -1      8174 7.43802E-05 0.00000E+00-1.29831E-06
 -1      8176 7.43802E-05 0.00000E+00 1.29831E-06
 -1      8177 7.40721E-05-1.53786E-07-1.29293E-06
 -1      8179 7.40721E-05-1.53786E-07 1.29293E-06
 -1      8180 7.46940E-05-1.53786E-07-1.30379E-06
 -1      8182 7.46940E-05-1.53786E-07 1.30379E-06
 -1      8183 7.21402E-05 0.00000E+00-1.25921E-06
 -1      8185 7.21402E-05 0.00000E+00 1.25921E-06
 -1      8186 7.18828E-05-1.54386E-07-1.25472E-06
 -1      8188 7.18828E-05-1.54386E-07 1.25472E-06
 -1      8189 7.23956E-05-1.54387E-07-1.26367E-06
 -1      8191 7.23956E-05-1.54387E-07 1.26367E-06
 -1      8192 7.02031E-05 0.00000E+00-1.22540E-06
 -1      8194 7.02031E-05 0.00000E+00 1.22540E-06
 -1      8195 6.99854E-05-1.55161E-07-1.22160E-06
 -1      8197 6.99854E-05-1.55161E-07 1.22160E-06
 -1      8198 7.04247E-05-1.55161E-07-1.22927E-06
 -1      8200 7.04247E-05-1.55161E-07 1.22927E-06
 -1      8201 6.85587E-05 0.00000E+00-1.19670E-06
 -1      8203 6.85587E-05 0.00000E+00 1.19670E-06
 -1      8204 6.83614E-05-1.55862E-07-1.19325E-06
 -1      8206 6.83614E-05-1.55862E-07 1.19325E-06
 -1      8207 6.87524E-05-1.55862E-07-1.20008E-06
 -1      8209 6.87524E-05-1.55862E-07 1.20008E-06
 -1      8210 6.71493E-05 0.00000E+00-1.17210E-06
 -1      8212 6.71493E-05 0.00000E+00 1.17210E-06
 -1      8213 6.69851E-05-1.55694E-07-1.16923E-06
 -1      8215 6.69851E-05-1.55694E-07 1.16923E-06
 -1      8216 6.73075E-05-1.55695E-07-1.17486E-06
 -1      8218 6.73075E-05-1.55695E-07 1.17486E-06
 -1      8219 6.59334E-05 0.00000E+00-1.15087E-06
 -1      8221 6.59334E-05 0.00000E+00 1.15087E-06
 -1      8222 6.58023E-05-1.48044E-07-1.14858E-06
 -1      8224 6.58023E-05-1.48044E-07 1.14858E-06
 -1      8225 6.60776E-05-1.48044E-07-1.15339E-06
 -1      8227 6.60776E-05-1.48044E-07 1.15339E-06
 -1      8228 6.49076E-05 0.00000E+00-1.13297E-06
 -1      8230 6.49076E-05 0.00000E+00 1.13297E-06
 -1      8231 6.47895E-05-1.52651E-07-1.13091E-06
 -1      8233 6.47895E-05-1.52651E-07 1.13091E-06
 -1      8234 6.50325E-05-1.52650E-07-1.13515E-06
 -1      8236 6.50325E-05-1.52650E-07 1.13515E-06
 -1      8237 6.40381E-05 0.00000E+00-1.11779E-06
 -1      8239 6.40381E-05 0.00000E+00 1.11779E-06
 -1      8240 6.39217E-05-1.58488E-07-1.11576E-06
 -1      8242 6.39217E-05-1.58488E-07 1.11576E-06
 -1      8243 6.41184E-05-1.58490E-07-1.11919E-06
 -1      8245 6.41184E-05-1.58490E-07 1.11919E-06
 -1      8246 6.36596E-05 0.00000E+00-1.11118E-06
 -1      8248 6.36596E-05 0.00000E+00 1.11118E-06
 -1      8249 6.34824E-05-1.77777E-07-1.10809E-06
 -1      8251 6.34824E-05-1.77777E-07 1.10809E-06
 -1      8252 6.36596E-05-1.77776E-07-1.11118E-06
 -1      8254 6.36596E-05-1.77776E-07 1.11118E-06
 -1      8255 6.34824E-05-5.33332E-07-1.10809E-06
 -1      8257 6.34824E-05-5.33332E-07 1.10809E-06
 -1      8258 6.36362E-05-6.50783E-07-1.11077E-06
 -1      8260 6.36362E-05-6.50783E-07 1.11077E-06
 -1      8261 6.36362E-05-4.73008E-07-1.11077E-06
 -1      8263 6.36362E-05-4.73008E-07 1.11077E-06
 -1      8264 6.34824E-05-1.24444E-06-1.10809E-06
 -1      8266 6.34824E-05-1.24444E-06 1.10809E-06
 -1      8267 6.36426E-05-1.34161E-06-1.11089E-06
 -1      8269 6.36426E-05-1.34161E-06 1.11089E-06
 -1      8270 6.36426E-05-1.16383E-06-1.11089E-06
 -1      8272 6.36426E-05-1.16383E-06 1.11089E-06
 -1      8273 6.34824E-05-1.95556E-06-1.10809E-06
 -1      8275 6.34824E-05-1.95556E-06 1.10809E-06
 -1      8276 6.36381E-05-2.05117E-06-1.11081E-06
 -1      8278 6.36381E-05-2.05117E-06 1.11081E-06
 -1      8279 6.36381E-05-1.87340E-06-1.11081E-06
 -1      8281 6.36381E-05-1.87340E-06 1.11081E-06
 -1      8282 6.34824E-05-2.66667E-06-1.10809E-06
 -1      8284 6.34824E-05-2.66667E-06 1.10809E-06
 -1      8285 6.36396E-05-2.75826E-06-1.11083E-06
 -1      8287 6.36396E-05-2.75826E-06 1.11083E-06
 -1      8288 6.36396E-05-2.58048E-06-1.11083E-06
 -1      8290 6.36396E-05-2.58048E-06 1.11083E-06
 -1      8291 6.34824E-05-3.37778E-06-1.10809E-06
 -1      8293 6.34824E-05-3.37778E-06 1.10809E-06
 -1      8294 6.36403E-05-3.46699E-06-1.11085E-06
 -1      8296 6.36403E-05-3.46699E-06 1.11085E-06
 -1      8297 6.36403E-05-3.28922E-06-1.11085E-06
 -1      8299 6.36403E-05-3.28922E-06 1.11085E-06
 -1      8300 6.34824E-05-4.08889E-06-1.10809E-06
 -1      8302 6.34824E-05-4.08889E-06 1.10809E-06
 -1      8303 6.36401E-05-4.17755E-06-1.11084E-06
 -1      8305 6.36401E-05-4.17755E-06 1.11084E-06
 -1      8306 6.36401E-05-3.99977E-06-1.11084E-06
 -1      8308 6.36401E-05-3.99977E-06 1.11084E-06
 -1      8309 6.34824E-05-4.80000E-06-1.10809E-06
 -1      8311 6.34824E-05-4.80000E-06 1.10809E-06
 -1      8312 6.36399E-05-4.88878E-06-1.11084E-06
 -1      8314 6.36399E-05-4.88878E-06 1.11084E-06
 -1      8315 6.36399E-05-4.71100E-06-1.11084E-06
 -1      8317 6.36399E-05-4.71100E-06 1.11084E-06
 -1      8318 6.34824E-05-5.51111E-06-1.10809E-06
 -1      8320 6.34824E-05-5.51111E-06 1.10809E-06
 -1      8321 6.36397E-05-5.59975E-06-1.11084E-06
 -1      8323 6.36397E-05-5.59975E-06 1.11084E-06
 -1      8324 6.36397E-05-5.42197E-06-1.11084E-06
 -1      8326 6.36397E-05-5.42197E-06 1.11084E-06
 -1      8327 6.34824E-05-6.22222E-06-1.10809E-06
 -1      8329 6.34824E-05-6.22222E-06 1.10809E-06
 -1      8330 6.36389E-05-6.31064E-06-1.11082E-06
 -1      8332 6.36389E-05-6.31064E-06 1.11082E-06
 -1      8333 6.36389E-05-6.13286E-06-1.11082E-06
 -1      8335 6.36389E-05-6.13286E-06 1.11082E-06
 -1      8336 6.34824E-05-6.93333E-06-1.10809E-06
 -1      8338 6.34824E-05-6.93333E-06 1.10809E-06
 -1      8339 6.36388E-05-7.02350E-06-1.11082E-06
 -1      8341 6.36388E-05-7.02350E-06 1.11082E-06
 -1      8342 6.36388E-05-6.84573E-06-1.11082E-06
 -1      8344 6.36388E-05-6.84573E-06 1.11082E-06
 -1      8345 6.34824E-05-7.64444E-06-1.10809E-06
 -1      8347 6.34824E-05-7.64444E-06 1.10809E-06
 -1      8348 6.36438E-05-7.74076E-06-1.11091E-06
 -1      8350 6.36438E-05-7.74076E-06 1.11091E-06
 -1      8351 6.36438E-05-7.56299E-06-1.11091E-06
 -1      8353 6.36438E-05-7.56299E-06 1.11091E-06
 -1      8354 6.34824E-05-8.35556E-06-1.10809E-06
 -1      8356 6.34824E-05-8.35556E-06 1.10809E-06
 -1      8357 6.36268E-05-8.44451E-06-1.11061E-06
 -1      8359 6.36268E-05-8.44451E-06 1.11061E-06
 -1      8360 6.36268E-05-8.26673E-06-1.11061E-06
 -1      8362 6.36268E-05-8.26673E-06 1.11061E-06
 -1      8363 6.34824E-05-8.71111E-06-1.10809E-06
 -1      8365 6.34824E-05-8.71111E-06 1.10809E-06
 -1      8366 6.36001E-05-8.77004E-06-1.11014E-06
 -1      8368 6.36001E-05-8.77004E-06 1.11014E-06
 -1      8369 6.36001E-05-8.59226E-06-1.11014E-06
 -1      8371 6.36001E-05-8.59226E-06 1.11014E-06
 -1      8372 6.37488E-05-8.50344E-06-1.11274E-06
 -1      8374 6.37488E-05-8.50344E-06 1.11274E-06
 -1      8375 6.36596E-05-8.88889E-06-1.11118E-06
 -1      8377 6.36596E-05-8.88889E-06 1.11118E-06
 -1      8378 6.37826E-05-8.77004E-06-1.11333E-06
 -1      8380 6.37826E-05-8.77004E-06 1.11333E-06
 -1      8381 1.51503E-04-8.88936E-06-2.64449E-06
 -1      8383 1.51503E-04-8.88936E-06 2.64449E-06
 -1      8384 1.53526E-04-8.74419E-06-2.67980E-06
 -1      8386 1.53526E-04-8.74419E-06 2.67980E-06
 -1      8387 1.48725E-04-8.74441E-06-2.59601E-06
 -1      8389 1.48725E-04-8.74441E-06 2.59601E-06
 -1      8390 1.42500E-04-8.88941E-06-2.48734E-06
 -1      8392 1.42500E-04-8.88941E-06 2.48734E-06
 -1      8393 1.44794E-04-8.72113E-06-2.52738E-06
 -1      8395 1.44794E-04-8.72113E-06 2.52738E-06
 -1      8396 1.40589E-04-8.72097E-06-2.45398E-06
 -1      8398 1.40589E-04-8.72097E-06 2.45398E-06
 -1      8399 1.46616E-04-8.57650E-06-2.55919E-06
 -1      8401 1.46616E-04-8.57650E-06 2.55919E-06
 -1      8402 1.34512E-04-8.88933E-06-2.34791E-06
 -1      8404 1.34512E-04-8.88933E-06 2.34791E-06
 -1      8405 1.36728E-04-8.71663E-06-2.38660E-06
 -1      8407 1.36728E-04-8.71663E-06 2.38660E-06
 -1      8408 1.32907E-04-8.71657E-06-2.31991E-06
 -1      8410 1.32907E-04-8.71657E-06 2.31991E-06
 -1      8411 1.38808E-04-8.54886E-06-2.42291E-06
 -1      8413 1.38808E-04-8.54886E-06 2.42291E-06
 -1      8414 1.27513E-04-8.88915E-06-2.22576E-06
 -1      8416 1.27513E-04-8.88915E-06 2.22576E-06
 -1      8417 1.29374E-04-8.72187E-06-2.25823E-06
 -1      8419 1.29374E-04-8.72187E-06 2.25823E-06
 -1      8420 1.26141E-04-8.72190E-06-2.20180E-06
 -1      8422 1.26141E-04-8.72190E-06 2.20180E-06
 -1      8423 1.31391E-04-8.54969E-06-2.29344E-06
 -1      8425 1.31391E-04-8.54969E-06 2.29344E-06
 -1      8426 1.21450E-04-8.88911E-06-2.11991E-06
 -1      8428 1.21450E-04-8.88911E-06 2.11991E-06
 -1      8429 1.23052E-04-8.72434E-06-2.14788E-06
 -1      8431 1.23052E-04-8.72434E-06 2.14788E-06
 -1      8432 1.20188E-04-8.72435E-06-2.09788E-06
 -1      8434 1.20188E-04-8.72435E-06 2.09788E-06
 -1      8435 1.24756E-04-8.55746E-06-2.17762E-06
 -1      8437 1.24756E-04-8.55746E-06 2.17762E-06
 -1      8438 1.15959E-04-8.88909E-06-2.02407E-06
 -1      8440 1.15959E-04-8.88909E-06 2.02407E-06
 -1      8441 1.17439E-04-8.72618E-06-2.04991E-06
 -1      8443 1.17439E-04-8.72618E-06 2.04991E-06
 -1      8444 1.14793E-04-8.72618E-06-2.00371E-06
 -1      8446 1.14793E-04-8.72618E-06 2.00371E-06
 -1      8447 1.18911E-04-8.56172E-06-2.07560E-06
 -1      8449 1.18911E-04-8.56172E-06 2.07560E-06
 -1      8450 1.11061E-04-8.88903E-06-1.93858E-06
 -1      8452 1.11061E-04-8.88903E-06 1.93858E-06
 -1      8453 1.12344E-04-8.72679E-06-1.96098E-06
 -1      8455 1.12344E-04-8.72679E-06 1.96098E-06
 -1      8456 1.10065E-04-8.72679E-06-1.92120E-06
 -1      8458 1.10065E-04-8.72679E-06 1.92120E-06
 -1      8459 1.13708E-04-8.56415E-06-1.98478E-06
 -1      8461 1.13708E-04-8.56415E-06 1.98478E-06
 -1      8462 1.06751E-04-8.88900E-06-1.86334E-06
 -1      8464 1.06751E-04-8.88900E-06 1.86334E-06
 -1      8465 1.07879E-04-8.72742E-06-1.88304E-06
 -1      8467 1.07879E-04-8.72742E-06 1.88304E-06
 -1      8468 1.05830E-04-8.72742E-06-1.84727E-06
 -1      8470 1.05830E-04-8.72742E-06 1.84727E-06
 -1      8471 1.09067E-04-8.56538E-06-1.90377E-06
 -1      8473 1.09067E-04-8.56538E-06 1.90377E-06
 -1      8474 1.02793E-04-8.88900E-06-1.79426E-06
 -1      8476 1.02793E-04-8.88900E-06 1.79426E-06
 -1      8477 1.03854E-04-8.72811E-06-1.81278E-06
 -1      8479 1.03854E-04-8.72811E-06 1.81278E-06
 -1      8480 1.01935E-04-8.72812E-06-1.77928E-06
 -1      8482 1.01935E-04-8.72812E-06 1.77928E-06
 -1      8483 1.04901E-04-8.56669E-06-1.83105E-06
 -1      8485 1.04901E-04-8.56669E-06 1.83105E-06
 -1      8486 9.92187E-05-8.88897E-06-1.73187E-06
 -1      8488 9.92187E-05-8.88897E-06 1.73187E-06
 -1      8489 1.00152E-04-8.72790E-06-1.74816E-06
 -1      8491 1.00152E-04-8.72790E-06 1.74816E-06
 -1      8492 9.84798E-05-8.72790E-06-1.71897E-06
 -1      8494 9.84798E-05-8.72790E-06 1.71897E-06
 -1      8495 1.01138E-04-8.56717E-06-1.76536E-06
 -1      8497 1.01138E-04-8.56717E-06 1.76536E-06
 -1      8498 9.60378E-05-8.88896E-06-1.67635E-06
 -1      8500 9.60378E-05-8.88896E-06 1.67635E-06
 -1      8501 9.68698E-05-8.72790E-06-1.69087E-06
 -1      8503 9.68698E-05-8.72790E-06 1.69087E-06
 -1      8504 9.53504E-05-8.72790E-06-1.66435E-06
 -1      8506 9.53504E-05-8.72790E-06 1.66435E-06
 -1      8507 9.77400E-05-8.56695E-06-1.70606E-06
 -1      8509 9.77400E-05-8.56695E-06 1.70606E-06
 -1      8510 9.30885E-05-8.88896E-06-1.62487E-06
 -1      8512 9.30885E-05-8.88896E-06 1.62487E-06
 -1      8513 9.38805E-05-8.72818E-06-1.63869E-06
 -1      8515 9.38805E-05-8.72818E-06 1.63869E-06
 -1      8516 9.24441E-05-8.72818E-06-1.61362E-06
 -1      8518 9.24441E-05-8.72818E-06 1.61362E-06
 -1      8519 9.46574E-05-8.56722E-06-1.65225E-06
 -1      8521 9.46574E-05-8.56722E-06 1.65225E-06
 -1      8522 9.04009E-05-8.88894E-06-1.57795E-06
 -1      8524 9.04009E-05-8.88894E-06 1.57795E-06
 -1      8525 9.11051E-05-8.72775E-06-1.59025E-06
 -1      8527 9.11051E-05-8.72775E-06 1.59025E-06
 -1      8528 8.98429E-05-8.72775E-06-1.56821E-06
 -1      8530 8.98429E-05-8.72775E-06 1.56821E-06
 -1      8531 9.18456E-05-8.56706E-06-1.60317E-06
 -1      8533 9.18456E-05-8.56706E-06 1.60317E-06
 -1      8534 8.79902E-05-8.88893E-06-1.53587E-06
 -1      8536 8.79902E-05-8.88893E-06 1.53587E-06
 -1      8537 8.86240E-05-8.72769E-06-1.54694E-06
 -1      8539 8.86240E-05-8.72769E-06 1.54694E-06
 -1      8540 8.74683E-05-8.72769E-06-1.52676E-06
 -1      8542 8.74683E-05-8.72769E-06 1.52676E-06
 -1      8543 8.92843E-05-8.56657E-06-1.55846E-06
 -1      8545 8.92843E-05-8.56657E-06 1.55846E-06
 -1      8546 8.57392E-05-8.88893E-06-1.49658E-06
 -1      8548 8.57392E-05-8.88893E-06 1.49658E-06
 -1      8549 8.63472E-05-8.72800E-06-1.50720E-06
 -1      8551 8.63472E-05-8.72800E-06 1.50720E-06
 -1      8552 8.52473E-05-8.72800E-06-1.48800E-06
 -1      8554 8.52473E-05-8.72800E-06 1.48800E-06
 -1      8555 8.69420E-05-8.56681E-06-1.51758E-06
 -1      8557 8.69420E-05-8.56681E-06 1.51758E-06
 -1      8558 8.36748E-05-8.88892E-06-1.46055E-06
 -1      8560 8.36748E-05-8.88892E-06 1.46055E-06
 -1      8561 8.42197E-05-8.72761E-06-1.47006E-06
 -1      8563 8.42197E-05-8.72761E-06 1.47006E-06
 -1      8564 8.32473E-05-8.72761E-06-1.45309E-06
 -1      8566 8.32473E-05-8.72761E-06 1.45309E-06
 -1      8567 8.47908E-05-8.56673E-06-1.48003E-06
 -1      8569 8.47908E-05-8.56673E-06 1.48003E-06
 -1      8570 8.18127E-05-8.88892E-06-1.42805E-06
 -1      8572 8.18127E-05-8.88892E-06 1.42805E-06
 -1      8573 8.23073E-05-8.72755E-06-1.43668E-06
 -1      8575 8.23073E-05-8.72755E-06 1.43668E-06
 -1      8576 8.14123E-05-8.72755E-06-1.42106E-06
 -1      8578 8.14123E-05-8.72755E-06 1.42106E-06
 -1      8579 8.28204E-05-8.56629E-06-1.44564E-06
 -1      8581 8.28204E-05-8.56629E-06 1.44564E-06
 -1      8582 8.00968E-05-8.88891E-06-1.39810E-06
 -1      8584 8.00968E-05-8.88891E-06 1.39810E-06
 -1      8585 8.05465E-05-8.72761E-06-1.40594E-06
 -1      8587 8.05465E-05-8.72761E-06 1.40594E-06
 -1      8588 7.97215E-05-8.72761E-06-1.39154E-06
 -1      8590 7.97215E-05-8.72761E-06 1.39154E-06
 -1      8591 8.10126E-05-8.56628E-06-1.41408E-06
 -1      8593 8.10126E-05-8.56628E-06 1.41408E-06
 -1      8594 7.84846E-05-8.88891E-06-1.36995E-06
 -1      8596 7.84846E-05-8.88891E-06 1.36995E-06
 -1      8597 7.89189E-05-8.72798E-06-1.37753E-06
 -1      8599 7.89189E-05-8.72798E-06 1.37753E-06
 -1      8600 7.81290E-05-8.72798E-06-1.36375E-06
 -1      8602 7.81290E-05-8.72798E-06 1.36375E-06
 -1      8603 7.93428E-05-8.56671E-06-1.38493E-06
 -1      8605 7.93428E-05-8.56671E-06 1.38493E-06
 -1      8606 7.69977E-05-8.88891E-06-1.34400E-06
 -1      8608 7.69977E-05-8.88891E-06 1.34400E-06
 -1      8609 7.73885E-05-8.72764E-06-1.35082E-06
 -1      8611 7.73885E-05-8.72764E-06 1.35082E-06
 -1      8612 7.66865E-05-8.72764E-06-1.33857E-06
 -1      8614 7.66865E-05-8.72764E-06 1.33857E-06
 -1      8615 7.77980E-05-8.56674E-06-1.35797E-06
 -1      8617 7.77980E-05-8.56674E-06 1.35797E-06
 -1      8618 7.56501E-05-8.88891E-06-1.32048E-06
 -1      8620 7.56501E-05-8.88891E-06 1.32048E-06
 -1      8621 7.60050E-05-8.72766E-06-1.32667E-06
 -1      8623 7.60050E-05-8.72766E-06 1.32667E-06
 -1      8624 7.53560E-05-8.72766E-06-1.31534E-06
 -1      8626 7.53560E-05-8.72766E-06 1.31534E-06
 -1      8627 7.63741E-05-8.56643E-06-1.33312E-06
 -1      8629 7.63741E-05-8.56643E-06 1.33312E-06
 -1      8630 7.43802E-05-8.88891E-06-1.29831E-06
 -1      8632 7.43802E-05-8.88891E-06 1.29831E-06
 -1      8633 7.47234E-05-8.72803E-06-1.30430E-06
 -1      8635 7.47234E-05-8.72803E-06 1.30430E-06
 -1      8636 7.41004E-05-8.72803E-06-1.29343E-06
 -1      8638 7.41004E-05-8.72803E-06 1.29343E-06
 -1      8639 7.50586E-05-8.56681E-06-1.31015E-06
 -1      8641 7.50586E-05-8.56681E-06 1.31015E-06
 -1      8642 7.32063E-05-8.88890E-06-1.27782E-06
 -1      8644 7.32063E-05-8.88890E-06 1.27782E-06
 -1      8645 7.35156E-05-8.72772E-06-1.28322E-06
 -1      8647 7.35156E-05-8.72772E-06 1.28322E-06
 -1      8648 7.29608E-05-8.72772E-06-1.27354E-06
 -1      8650 7.29608E-05-8.72772E-06 1.27354E-06
 -1      8651 7.38397E-05-8.56687E-06-1.28888E-06
 -1      8653 7.38397E-05-8.56687E-06 1.28888E-06
 -1      8654 7.21402E-05-8.88890E-06-1.25921E-06
 -1      8656 7.21402E-05-8.88890E-06 1.25921E-06
 -1      8657 7.24219E-05-8.72777E-06-1.26413E-06
 -1      8659 7.24219E-05-8.72777E-06 1.26413E-06
 -1      8660 7.19080E-05-8.72777E-06-1.25516E-06
 -1      8662 7.19080E-05-8.72777E-06 1.25516E-06
 -1      8663 7.27144E-05-8.56661E-06-1.26924E-06
 -1      8665 7.27144E-05-8.56661E-06 1.26924E-06
 -1      8666 7.11342E-05-8.88890E-06-1.24165E-06
 -1      8668 7.11342E-05-8.88890E-06 1.24165E-06
 -1      8669 7.14072E-05-8.72817E-06-1.24642E-06
 -1      8671 7.14072E-05-8.72817E-06 1.24642E-06
 -1      8672 7.09133E-05-8.72817E-06-1.23780E-06
 -1      8674 7.09133E-05-8.72817E-06 1.23780E-06
 -1      8675 7.16735E-05-8.56706E-06-1.25107E-06
 -1      8677 7.16735E-05-8.56706E-06 1.25107E-06
 -1      8678 7.02031E-05-8.88890E-06-1.22540E-06
 -1      8680 7.02031E-05-8.88890E-06 1.22540E-06
 -1      8681 7.04500E-05-8.72789E-06-1.22971E-06
 -1      8683 7.04500E-05-8.72789E-06 1.22971E-06
 -1      8684 7.00098E-05-8.72789E-06-1.22203E-06
 -1      8686 7.00098E-05-8.72789E-06 1.22203E-06
 -1      8687 7.07081E-05-8.56718E-06-1.23421E-06
 -1      8689 7.07081E-05-8.56718E-06 1.23421E-06
 -1      8690 6.93572E-05-8.88890E-06-1.21063E-06
 -1      8692 6.93572E-05-8.88890E-06 1.21063E-06
 -1      8693 6.95827E-05-8.72793E-06-1.21457E-06
 -1      8695 6.95827E-05-8.72793E-06 1.21457E-06
 -1      8696 6.91748E-05-8.72793E-06-1.20745E-06
 -1      8698 6.91748E-05-8.72793E-06 1.20745E-06
 -1      8699 6.98163E-05-8.56693E-06-1.21865E-06
 -1      8701 6.98163E-05-8.56693E-06 1.21865E-06
 -1      8702 6.85587E-05-8.88890E-06-1.19670E-06
 -1      8704 6.85587E-05-8.88890E-06 1.19670E-06
 -1      8705 6.87778E-05-8.72821E-06-1.20052E-06
 -1      8707 6.87778E-05-8.72821E-06 1.20052E-06
 -1      8708 6.83857E-05-8.72821E-06-1.19368E-06
 -1      8710 6.83857E-05-8.72821E-06 1.19368E-06
 -1      8711 6.89910E-05-8.56725E-06-1.20424E-06
 -1      8713 6.89910E-05-8.56725E-06 1.20424E-06
 -1      8714 6.78200E-05-8.88890E-06-1.18380E-06
 -1      8716 6.78200E-05-8.88890E-06 1.18380E-06
 -1      8717 6.80184E-05-8.72753E-06-1.18726E-06
 -1      8719 6.80184E-05-8.72753E-06 1.18726E-06
 -1      8720 6.76691E-05-8.72753E-06-1.18117E-06
 -1      8722 6.76691E-05-8.72753E-06 1.18117E-06
 -1      8723 6.82254E-05-8.56685E-06-1.19088E-06
 -1      8725 6.82254E-05-8.56685E-06 1.19088E-06
 -1      8726 6.71493E-05-8.88889E-06-1.17210E-06
 -1      8728 6.71493E-05-8.88889E-06 1.17210E-06
 -1      8729 6.73301E-05-8.72669E-06-1.17525E-06
 -1      8731 6.73301E-05-8.72669E-06 1.17525E-06
 -1      8732 6.70069E-05-8.72669E-06-1.16961E-06
 -1      8734 6.70069E-05-8.72669E-06 1.16961E-06
 -1      8735 6.75178E-05-8.56533E-06-1.17853E-06
 -1      8737 6.75178E-05-8.56533E-06 1.17853E-06
 -1      8738 6.65171E-05-8.88889E-06-1.16106E-06
 -1      8740 6.65171E-05-8.88889E-06 1.16106E-06
 -1      8741 6.66912E-05-8.72528E-06-1.16410E-06
 -1      8743 6.66912E-05-8.72528E-06 1.16410E-06
 -1      8744 6.63810E-05-8.72528E-06-1.15868E-06
 -1      8746 6.63810E-05-8.72528E-06 1.15868E-06
 -1      8747 6.68620E-05-8.56308E-06-1.16708E-06
 -1      8749 6.68620E-05-8.56308E-06 1.16708E-06
 -1      8750 6.59334E-05-8.88889E-06-1.15087E-06
 -1      8752 6.59334E-05-8.88889E-06 1.15087E-06
 -1      8753 6.60875E-05-8.72151E-06-1.15356E-06
 -1      8755 6.60875E-05-8.72151E-06 1.15356E-06
 -1      8756 6.58118E-05-8.72151E-06-1.14875E-06
 -1      8758 6.58118E-05-8.72151E-06 1.14875E-06
 -1      8759 6.62517E-05-8.55790E-06-1.15643E-06
 -1      8761 6.62517E-05-8.55790E-06 1.15643E-06
 -1      8762 6.54046E-05-8.88889E-06-1.14164E-06
 -1      8764 6.54046E-05-8.88889E-06 1.14164E-06
 -1      8765 6.55385E-05-8.71523E-06-1.14398E-06
 -1      8767 6.55385E-05-8.71523E-06 1.14398E-06
 -1      8768 6.52843E-05-8.71523E-06-1.13954E-06
 -1      8770 6.52843E-05-8.71523E-06 1.13954E-06
 -1      8771 6.56838E-05-8.54786E-06-1.14651E-06
 -1      8773 6.56838E-05-8.54786E-06 1.14651E-06
 -1      8774 6.49076E-05-8.88889E-06-1.13297E-06
 -1      8776 6.49076E-05-8.88889E-06 1.13297E-06
 -1      8777 6.50275E-05-8.70727E-06-1.13506E-06
 -1      8779 6.50275E-05-8.70727E-06 1.13506E-06
 -1      8780 6.47847E-05-8.70727E-06-1.13082E-06
 -1      8782 6.47847E-05-8.70727E-06 1.13082E-06
 -1      8783 6.51533E-05-8.53362E-06-1.13726E-06
 -1      8785 6.51533E-05-8.53362E-06 1.13726E-06
 -1      8786 6.44504E-05-8.88889E-06-1.12499E-06
 -1      8788 6.44504E-05-8.88889E-06 1.12499E-06
 -1      8789 6.45533E-05-8.71448E-06-1.12678E-06
 -1      8791 6.45533E-05-8.71448E-06 1.12678E-06
 -1      8792 6.43386E-05-8.71448E-06-1.12303E-06
 -1      8794 6.43386E-05-8.71448E-06 1.12303E-06
 -1      8795 6.46657E-05-8.53286E-06-1.12874E-06
 -1      8797 6.46657E-05-8.53286E-06 1.12874E-06
 -1      8798 6.40381E-05-8.88889E-06-1.11779E-06
 -1      8800 6.40381E-05-8.88889E-06 1.11779E-06
 -1      8801 6.41390E-05-8.74087E-06-1.11955E-06
 -1      8803 6.41390E-05-8.74087E-06 1.11955E-06
 -1      8804 6.39414E-05-8.74087E-06-1.11610E-06
 -1      8806 6.39414E-05-8.74087E-06 1.11610E-06
 -1      8807 6.38779E-05-8.62202E-06-1.11499E-06
 -1      8809 6.38779E-05-8.62202E-06 1.11499E-06
 -1      8810 6.42357E-05-8.56646E-06-1.12124E-06
 -1      8812 6.42357E-05-8.56646E-06 1.12124E-06
 -1      8813 1.68230E-04-8.00010E-06-2.93646E-06
 -1      8815 1.68230E-04-8.00010E-06 2.93646E-06
 -1      8816 1.62900E-04-7.93025E-06-2.84343E-06
 -1      8818 1.62900E-04-7.93025E-06 2.84343E-06
 -1      8819 1.62900E-04-8.10745E-06-2.84343E-06
 -1      8821 1.62900E-04-8.10745E-06 2.84343E-06
 -1      8822 1.68230E-04-7.28887E-06-2.93646E-06
 -1      8824 1.68230E-04-7.28887E-06 2.93646E-06
 -1      8825 1.62805E-04-7.20786E-06-2.84177E-06
 -1      8827 1.62805E-04-7.20786E-06 2.84177E-06
 -1      8828 1.62805E-04-7.38505E-06-2.84177E-06
 -1      8830 1.62805E-04-7.38505E-06 2.84177E-06
 -1      8831 1.68230E-04-6.57774E-06-2.93646E-06
 -1      8833 1.68230E-04-6.57774E-06 2.93646E-06
 -1      8834 1.62855E-04-6.49114E-06-2.84265E-06
 -1      8836 1.62855E-04-6.49114E-06 2.84265E-06
 -1      8837 1.62855E-04-6.66835E-06-2.84265E-06
 -1      8839 1.62855E-04-6.66835E-06 2.84265E-06
 -1      8840 1.68230E-04-5.86664E-06-2.93646E-06
 -1      8842 1.68230E-04-5.86664E-06 2.93646E-06
 -1      8843 1.62943E-04-5.77809E-06-2.84418E-06
 -1      8845 1.62943E-04-5.77809E-06 2.84418E-06
 -1      8846 1.62943E-04-5.95532E-06-2.84418E-06
 -1      8848 1.62943E-04-5.95532E-06 2.84418E-06
 -1      8849 1.68230E-04-5.15555E-06-2.93646E-06
 -1      8851 1.68230E-04-5.15555E-06 2.93646E-06
 -1      8852 1.62986E-04-5.06658E-06-2.84493E-06
 -1      8854 1.62986E-04-5.06658E-06 2.84493E-06
 -1      8855 1.62986E-04-5.24381E-06-2.84493E-06
 -1      8857 1.62986E-04-5.24381E-06 2.84493E-06
 -1      8858 1.68230E-04-4.44444E-06-2.93646E-06
 -1      8860 1.68230E-04-4.44444E-06 2.93646E-06
 -1      8861 1.62991E-04-4.35563E-06-2.84501E-06
 -1      8863 1.62991E-04-4.35563E-06 2.84501E-06
 -1      8864 1.62991E-04-4.53287E-06-2.84501E-06
 -1      8866 1.62991E-04-4.53287E-06 2.84501E-06
 -1      8867 1.68230E-04-3.73333E-06-2.93646E-06
 -1      8869 1.68230E-04-3.73333E-06 2.93646E-06
 -1      8870 1.62987E-04-3.64475E-06-2.84495E-06
 -1      8872 1.62987E-04-3.64475E-06 2.84495E-06
 -1      8873 1.62987E-04-3.82198E-06-2.84495E-06
 -1      8875 1.62987E-04-3.82198E-06 2.84495E-06
 -1      8876 1.68229E-04-3.02221E-06-2.93646E-06
 -1      8878 1.68229E-04-3.02221E-06 2.93646E-06
 -1      8879 1.62993E-04-2.93428E-06-2.84506E-06
 -1      8881 1.62993E-04-2.93428E-06 2.84506E-06
 -1      8882 1.62993E-04-3.11152E-06-2.84506E-06
 -1      8884 1.62993E-04-3.11152E-06 2.84506E-06
 -1      8885 1.68229E-04-2.31110E-06-2.93646E-06
 -1      8887 1.68229E-04-2.31110E-06 2.93646E-06
 -1      8888 1.63000E-04-2.22465E-06-2.84518E-06
 -1      8890 1.63000E-04-2.22465E-06 2.84518E-06
 -1      8891 1.63000E-04-2.40190E-06-2.84518E-06
 -1      8893 1.63000E-04-2.40190E-06 2.84518E-06
 -1      8894 1.68229E-04-1.59998E-06-2.93646E-06
 -1      8896 1.68229E-04-1.59998E-06 2.93646E-06
 -1      8897 1.62925E-04-1.51658E-06-2.84387E-06
 -1      8899 1.62925E-04-1.51658E-06 2.84387E-06
 -1      8900 1.62925E-04-1.69383E-06-2.84387E-06
 -1      8902 1.62925E-04-1.69383E-06 2.84387E-06
 -1      8903 1.68229E-04-8.88841E-07-2.93646E-06
 -1      8905 1.68229E-04-8.88841E-07 2.93646E-06
 -1      8906 1.62788E-04-8.11862E-07-2.84147E-06
 -1      8908 1.62788E-04-8.11862E-07 2.84147E-06
 -1      8909 1.62788E-04-9.89132E-07-2.84147E-06
 -1      8911 1.62788E-04-9.89132E-07 2.84147E-06
 -1      8912 1.12239E-04-1.55759E-07-1.95914E-06
 -1      8914 1.12239E-04-1.55759E-07 1.95914E-06
 -1      8915 1.13496E-04-3.12112E-07-1.98107E-06
 -1      8917 1.13496E-04-3.12112E-07 1.98107E-06
 -1      8918 1.11061E-04 0.00000E+00-1.93858E-06
 -1      8920 1.11061E-04 0.00000E+00 1.93858E-06
 -1      8921 1.09965E-04-1.55764E-07-1.91945E-06
 -1      8923 1.09965E-04-1.55764E-07 1.91945E-06
 -1      8924 1.47604E-04-2.05653E-07-2.57644E-06
 -1      8926 1.47604E-04-2.05653E-07 2.57644E-06
 -1      8927 1.52536E-04-3.35161E-07-2.66252E-06
 -1      8929 1.52536E-04-3.35161E-07 2.66252E-06
 -1      8930 1.52806E-04-4.92277E-07-2.66724E-06
 -1      8932 1.52806E-04-4.92277E-07 2.66724E-06
 -1      8933 1.44827E-04-3.38114E-07-2.52796E-06
 -1      8935 1.44827E-04-3.38114E-07 2.52796E-06
 -1      8936 1.34512E-04 0.00000E+00-2.34792E-06
 -1      8938 1.34512E-04 0.00000E+00 2.34792E-06
 -1      8939 1.32627E-04-1.45781E-07-2.31501E-06
 -1      8941 1.32627E-04-1.45781E-07 2.31501E-06
 -1      8942 1.36429E-04-1.45695E-07-2.38137E-06
 -1      8944 1.36429E-04-1.45695E-07 2.38137E-06
 -1      8945 1.21450E-04 0.00000E+00-2.11991E-06
 -1      8947 1.21450E-04 0.00000E+00 2.11991E-06
 -1      8948 1.20063E-04-1.55265E-07-2.09570E-06
 -1      8950 1.20063E-04-1.55265E-07 2.09570E-06
 -1      8951 1.22920E-04-1.55242E-07-2.14557E-06
 -1      8953 1.22920E-04-1.55242E-07 2.14557E-06
 -1      8954 1.08866E-04-3.10355E-07-1.90026E-06
 -1      8956 1.08866E-04-3.10355E-07 1.90026E-06
 -1      8957 1.02793E-04 0.00000E+00-1.79426E-06
 -1      8959 1.02793E-04 0.00000E+00 1.79426E-06
 -1      8960 1.01846E-04-1.53593E-07-1.77773E-06
 -1      8962 1.01846E-04-1.53593E-07 1.77773E-06
 -1      8963 1.03760E-04-1.53593E-07-1.81114E-06
 -1      8965 1.03760E-04-1.53593E-07 1.81114E-06
 -1      8966 9.60378E-05 0.00000E+00-1.67635E-06
 -1      8968 9.60378E-05 0.00000E+00 1.67635E-06
 -1      8969 9.52782E-05-1.53839E-07-1.66309E-06
 -1      8971 9.52782E-05-1.53839E-07 1.66309E-06
 -1      8972 9.67943E-05-1.53839E-07-1.68955E-06
 -1      8974 9.67943E-05-1.53839E-07 1.68955E-06
 -1      8975 9.04009E-05 0.00000E+00-1.57795E-06
 -1      8977 9.04009E-05 0.00000E+00 1.57795E-06
 -1      8978 8.97840E-05-1.54000E-07-1.56719E-06
 -1      8980 8.97840E-05-1.54000E-07 1.56719E-06
 -1      8981 9.10436E-05-1.53998E-07-1.58917E-06
 -1      8983 9.10436E-05-1.53998E-07 1.58917E-06
 -1      8984 8.57392E-05 0.00000E+00-1.49658E-06
 -1      8986 8.57392E-05 0.00000E+00 1.49658E-06
 -1      8987 8.51976E-05-1.53690E-07-1.48713E-06
 -1      8989 8.51976E-05-1.53690E-07 1.48713E-06
 -1      8990 8.62953E-05-1.53690E-07-1.50629E-06
 -1      8992 8.62953E-05-1.53690E-07 1.50629E-06
 -1      8993 8.18127E-05 0.00000E+00-1.42805E-06
 -1      8995 8.18127E-05 0.00000E+00 1.42805E-06
 -1      8996 8.13705E-05-1.54140E-07-1.42033E-06
 -1      8998 8.13705E-05-1.54140E-07 1.42033E-06
 -1      8999 8.22639E-05-1.54140E-07-1.43592E-06
 -1      9001 8.22639E-05-1.54140E-07 1.43592E-06
 -1      9002 7.84846E-05 0.00000E+00-1.36995E-06
 -1      9004 7.84846E-05 0.00000E+00 1.36995E-06
 -1      9005 7.80934E-05-1.53734E-07-1.36313E-06
 -1      9007 7.80934E-05-1.53734E-07 1.36313E-06
 -1      9008 7.88819E-05-1.53734E-07-1.37689E-06
 -1      9010 7.88819E-05-1.53734E-07 1.37689E-06
 -1      9011 7.56501E-05 0.00000E+00-1.32048E-06
 -1      9013 7.56501E-05 0.00000E+00 1.32048E-06
 -1      9014 7.53259E-05-1.54101E-07-1.31482E-06
 -1      9016 7.53259E-05-1.54101E-07 1.31482E-06
 -1      9017 7.59737E-05-1.54101E-07-1.32613E-06
 -1      9019 7.59737E-05-1.54101E-07 1.32613E-06
 -1      9020 7.32063E-05 0.00000E+00-1.27782E-06
 -1      9022 7.32063E-05 0.00000E+00 1.27782E-06
 -1      9023 7.29342E-05-1.54235E-07-1.27307E-06
 -1      9025 7.29342E-05-1.54235E-07 1.27307E-06
 -1      9026 7.34880E-05-1.54234E-07-1.28274E-06
 -1      9028 7.34880E-05-1.54234E-07 1.28274E-06
 -1      9029 7.11342E-05 0.00000E+00-1.24165E-06
 -1      9031 7.11342E-05 0.00000E+00 1.24165E-06
 -1      9032 7.08884E-05-1.54392E-07-1.23736E-06
 -1      9034 7.08884E-05-1.54392E-07 1.23736E-06
 -1      9035 7.13813E-05-1.54392E-07-1.24596E-06
 -1      9037 7.13813E-05-1.54392E-07 1.24596E-06
 -1      9038 6.93572E-05 0.00000E+00-1.21063E-06
 -1      9040 6.93572E-05 0.00000E+00 1.21063E-06
 -1      9041 6.91503E-05-1.55758E-07-1.20702E-06
 -1      9043 6.91503E-05-1.55758E-07 1.20702E-06
 -1      9044 6.95572E-05-1.55759E-07-1.21413E-06
 -1      9046 6.95572E-05-1.55759E-07 1.21413E-06
 -1      9047 6.78200E-05 0.00000E+00-1.18380E-06
 -1      9049 6.78200E-05 0.00000E+00 1.18380E-06
 -1      9050 6.76452E-05-1.56479E-07-1.18075E-06
 -1      9052 6.76452E-05-1.56479E-07 1.18075E-06
 -1      9053 6.79935E-05-1.56479E-07-1.18683E-06
 -1      9055 6.79935E-05-1.56479E-07 1.18683E-06
 -1      9056 6.65172E-05 0.00000E+00-1.16106E-06
 -1      9058 6.65172E-05 0.00000E+00 1.16106E-06
 -1      9059 6.63637E-05-1.52645E-07-1.15838E-06
 -1      9061 6.63637E-05-1.52645E-07 1.15838E-06
 -1      9062 6.66731E-05-1.52646E-07-1.16378E-06
 -1      9064 6.66731E-05-1.52646E-07 1.16378E-06
 -1      9065 6.54046E-05 0.00000E+00-1.14164E-06
 -1      9067 6.54046E-05 0.00000E+00 1.14164E-06
 -1      9068 6.52823E-05-1.46308E-07-1.13951E-06
 -1      9070 6.52823E-05-1.46308E-07 1.13951E-06
 -1      9071 6.55364E-05-1.46308E-07-1.14394E-06
 -1      9073 6.55364E-05-1.46308E-07 1.14394E-06
 -1      9074 6.44504E-05 0.00000E+00-1.12499E-06
 -1      9076 6.44504E-05 0.00000E+00 1.12499E-06
 -1      9077 6.43396E-05-1.64230E-07-1.12305E-06
 -1      9079 6.43396E-05-1.64230E-07 1.12305E-06
 -1      9080 6.45543E-05-1.64230E-07-1.12680E-06
 -1      9082 6.45543E-05-1.64230E-07 1.12680E-06
 -1      9083 6.37332E-05-3.36268E-07-1.11247E-06
 -1      9085 6.37332E-05-3.36268E-07 1.11247E-06
 -1      9086 6.34824E-05-8.88888E-07-1.10809E-06
 -1      9088 6.34824E-05-8.88888E-07 1.10809E-06
 -1      9089 6.36473E-05-9.88276E-07-1.11097E-06
 -1      9091 6.36473E-05-9.88276E-07 1.11097E-06
 -1      9092 6.36473E-05-8.10501E-07-1.11097E-06
 -1      9094 6.36473E-05-8.10501E-07 1.11097E-06
 -1      9095 6.34824E-05-1.60000E-06-1.10809E-06
 -1      9097 6.34824E-05-1.60000E-06 1.10809E-06
 -1      9098 6.36389E-05-1.69683E-06-1.11082E-06
 -1      9100 6.36389E-05-1.69683E-06 1.11082E-06
 -1      9101 6.36389E-05-1.51906E-06-1.11082E-06
 -1      9103 6.36389E-05-1.51906E-06 1.11082E-06
 -1      9104 6.34824E-05-2.31111E-06-1.10809E-06
 -1      9106 6.34824E-05-2.31111E-06 1.10809E-06
 -1      9107 6.36388E-05-2.40478E-06-1.11082E-06
 -1      9109 6.36388E-05-2.40478E-06 1.11082E-06
 -1      9110 6.36388E-05-2.22700E-06-1.11082E-06
 -1      9112 6.36388E-05-2.22700E-06 1.11082E-06
 -1      9113 6.34824E-05-3.02222E-06-1.10809E-06
 -1      9115 6.34824E-05-3.02222E-06 1.10809E-06
 -1      9116 6.36402E-05-3.11238E-06-1.11084E-06
 -1      9118 6.36402E-05-3.11238E-06 1.11084E-06
 -1      9119 6.36402E-05-2.93460E-06-1.11084E-06
 -1      9121 6.36402E-05-2.93460E-06 1.11084E-06
 -1      9122 6.34824E-05-3.73333E-06-1.10809E-06
 -1      9124 6.34824E-05-3.73333E-06 1.10809E-06
 -1      9125 6.36403E-05-3.82212E-06-1.11085E-06
 -1      9127 6.36403E-05-3.82212E-06 1.11085E-06
 -1      9128 6.36403E-05-3.64434E-06-1.11085E-06
 -1      9130 6.36403E-05-3.64434E-06 1.11085E-06
 -1      9131 6.34824E-05-4.44444E-06-1.10809E-06
 -1      9133 6.34824E-05-4.44444E-06 1.10809E-06
 -1      9134 6.36400E-05-4.53314E-06-1.11084E-06
 -1      9136 6.36400E-05-4.53314E-06 1.11084E-06
 -1      9137 6.36400E-05-4.35537E-06-1.11084E-06
 -1      9139 6.36400E-05-4.35537E-06 1.11084E-06
 -1      9140 6.34824E-05-5.15555E-06-1.10809E-06
 -1      9142 6.34824E-05-5.15555E-06 1.10809E-06
 -1      9143 6.36399E-05-5.24432E-06-1.11084E-06
 -1      9145 6.36399E-05-5.24432E-06 1.11084E-06
 -1      9146 6.36399E-05-5.06654E-06-1.11084E-06
 -1      9148 6.36399E-05-5.06654E-06 1.11084E-06
 -1      9149 6.34824E-05-5.86667E-06-1.10809E-06
 -1      9151 6.34824E-05-5.86667E-06 1.10809E-06
 -1      9152 6.36394E-05-5.95511E-06-1.11083E-06
 -1      9154 6.36394E-05-5.95511E-06 1.11083E-06
 -1      9155 6.36394E-05-5.77734E-06-1.11083E-06
 -1      9157 6.36394E-05-5.77734E-06 1.11083E-06
 -1      9158 6.34824E-05-6.57778E-06-1.10809E-06
 -1      9160 6.34824E-05-6.57778E-06 1.10809E-06
 -1      9161 6.36384E-05-6.66662E-06-1.11081E-06
 -1      9163 6.36384E-05-6.66662E-06 1.11081E-06
 -1      9164 6.36384E-05-6.48884E-06-1.11081E-06
 -1      9166 6.36384E-05-6.48884E-06 1.11081E-06
 -1      9167 6.34824E-05-7.28889E-06-1.10809E-06
 -1      9169 6.34824E-05-7.28889E-06 1.10809E-06
 -1      9170 6.36407E-05-7.38182E-06-1.11085E-06
 -1      9172 6.36407E-05-7.38182E-06 1.11085E-06
 -1      9173 6.36407E-05-7.20405E-06-1.11085E-06
 -1      9175 6.36407E-05-7.20405E-06 1.11085E-06
 -1      9176 6.34824E-05-8.00000E-06-1.10809E-06
 -1      9178 6.34824E-05-8.00000E-06 1.10809E-06
 -1      9179 6.36418E-05-8.09729E-06-1.11087E-06
 -1      9181 6.36418E-05-8.09729E-06 1.11087E-06
 -1      9182 6.36418E-05-7.91952E-06-1.11087E-06
 -1      9184 6.36418E-05-7.91952E-06 1.11087E-06
 -1      9185 1.57773E-04-7.12277E-06-2.75394E-06
 -1      9187 1.57773E-04-7.12277E-06 2.75394E-06
 -1      9188 1.58200E-04-8.22406E-06-2.76140E-06
 -1      9190 1.58200E-04-8.22406E-06 2.76140E-06
 -1      9191 1.57482E-04-8.64888E-06-2.74886E-06
 -1      9193 1.57482E-04-8.64888E-06 2.74886E-06
 -1      9194 1.57764E-04-7.48690E-06-2.75378E-06
 -1      9196 1.57764E-04-7.48690E-06 2.75378E-06
 -1      9197 1.57820E-04-6.76159E-06-2.75476E-06
 -1      9199 1.57820E-04-6.76159E-06 2.75476E-06
 -1      9200 1.57978E-04-6.04515E-06-2.75752E-06
 -1      9202 1.57978E-04-6.04515E-06 2.75752E-06
 -1      9203 1.58083E-04-5.33268E-06-2.75934E-06
 -1      9205 1.58083E-04-5.33268E-06 2.75934E-06
 -1      9206 1.58106E-04-4.62170E-06-2.75974E-06
 -1      9208 1.58106E-04-4.62170E-06 2.75974E-06
 -1      9209 1.58101E-04-3.91105E-06-2.75966E-06
 -1      9211 1.58101E-04-3.91105E-06 2.75966E-06
 -1      9212 1.58105E-04-3.20091E-06-2.75973E-06
 -1      9214 1.58105E-04-3.20091E-06 2.75973E-06
 -1      9215 1.58123E-04-2.49232E-06-2.76005E-06
 -1      9217 1.58123E-04-2.49232E-06 2.76005E-06
 -1      9218 1.58029E-04-1.78629E-06-2.75840E-06
 -1      9220 1.58029E-04-1.78629E-06 2.75840E-06
 -1      9221 1.57805E-04-1.08625E-06-2.75449E-06
 -1      9223 1.57805E-04-1.08625E-06 2.75449E-06
 -1      9224 1.24447E-04-3.05271E-07-2.17223E-06
 -1      9226 1.24447E-04-3.05271E-07 2.17223E-06
 -1      9227 1.37869E-04-2.77657E-07-2.40652E-06
 -1      9229 1.37869E-04-2.77657E-07 2.40652E-06
 -1      9230 1.04711E-04-3.08183E-07-1.82774E-06
 -1      9232 1.04711E-04-3.08183E-07 1.82774E-06
 -1      9233 9.75839E-05-3.07618E-07-1.70333E-06
 -1      9235 9.75839E-05-3.07618E-07 1.70333E-06
 -1      9236 9.17188E-05-3.07590E-07-1.60096E-06
 -1      9238 9.17188E-05-3.07590E-07 1.60096E-06
 -1      9239 8.68363E-05-3.07714E-07-1.51573E-06
 -1      9241 8.68363E-05-3.07714E-07 1.51573E-06
 -1      9242 8.27314E-05-3.08212E-07-1.44408E-06
 -1      9244 8.27314E-05-3.08212E-07 1.44408E-06
 -1      9245 7.92673E-05-3.07830E-07-1.38362E-06
 -1      9247 7.92673E-05-3.07830E-07 1.38362E-06
 -1      9248 7.63100E-05-3.08194E-07-1.33200E-06
 -1      9250 7.63100E-05-3.08194E-07 1.33200E-06
 -1      9251 7.37838E-05-3.08021E-07-1.28790E-06
 -1      9253 7.37838E-05-3.08021E-07 1.28790E-06
 -1      9254 7.16223E-05-3.08778E-07-1.25017E-06
 -1      9256 7.16223E-05-3.08778E-07 1.25017E-06
 -1      9257 6.97664E-05-3.10920E-07-1.21778E-06
 -1      9259 6.97664E-05-3.10920E-07 1.21778E-06
 -1      9260 6.81761E-05-3.12341E-07-1.19002E-06
 -1      9262 6.81761E-05-3.12341E-07 1.19002E-06
 -1      9263 6.68222E-05-3.08340E-07-1.16639E-06
 -1      9265 6.68222E-05-3.08340E-07 1.16639E-06
 -1      9266 6.56723E-05-2.94352E-07-1.14631E-06
 -1      9268 6.56723E-05-2.94352E-07 1.14631E-06
 -1      9269 6.46714E-05-3.16881E-07-1.12884E-06
 -1      9271 6.46714E-05-3.16881E-07 1.12884E-06
 -1      9272 6.38076E-05-7.50171E-07-1.11376E-06
 -1      9274 6.38076E-05-7.50171E-07 1.11376E-06
 -1      9275 6.38055E-05-1.43845E-06-1.11373E-06
 -1      9277 6.38055E-05-1.43845E-06 1.11373E-06
 -1      9278 6.38006E-05-2.14484E-06-1.11364E-06
 -1      9280 6.38006E-05-2.14484E-06 1.11364E-06
 -1      9281 6.38037E-05-2.84842E-06-1.11370E-06
 -1      9283 6.38037E-05-2.84842E-06 1.11370E-06
 -1      9284 6.38046E-05-3.55578E-06-1.11371E-06
 -1      9286 6.38046E-05-3.55578E-06 1.11371E-06
 -1      9287 6.38040E-05-4.26625E-06-1.11370E-06
 -1      9289 6.38040E-05-4.26625E-06 1.11370E-06
 -1      9290 6.38037E-05-4.97754E-06-1.11370E-06
 -1      9292 6.38037E-05-4.97754E-06 1.11370E-06
 -1      9293 6.38030E-05-5.68820E-06-1.11369E-06
 -1      9295 6.38030E-05-5.68820E-06 1.11369E-06
 -1      9296 6.38011E-05-6.39948E-06-1.11365E-06
 -1      9298 6.38011E-05-6.39948E-06 1.11365E-06
 -1      9299 6.38034E-05-7.11644E-06-1.11369E-06
 -1      9301 6.38034E-05-7.11644E-06 1.11369E-06
 -1      9302 6.38098E-05-7.83806E-06-1.11380E-06
 -1      9304 6.38098E-05-7.83806E-06 1.11380E-06
 -1      9305 1.57853E-04-7.85380E-06-2.75533E-06
 -1      9307 1.57853E-04-7.85380E-06 2.75533E-06
 -1      9308 1.57896E-04-6.40263E-06-2.75609E-06
 -1      9310 1.57896E-04-6.40263E-06 2.75609E-06
 -1      9311 1.58042E-04-5.68862E-06-2.75864E-06
 -1      9313 1.58042E-04-5.68862E-06 2.75864E-06
 -1      9314 1.58101E-04-4.97709E-06-2.75967E-06
 -1      9316 1.58101E-04-4.97709E-06 2.75967E-06
 -1      9317 1.58104E-04-4.26638E-06-2.75971E-06
 -1      9319 1.58104E-04-4.26638E-06 2.75971E-06
 -1      9320 1.58099E-04-3.55583E-06-2.75964E-06
 -1      9322 1.58099E-04-3.55583E-06 2.75964E-06
 -1      9323 1.58117E-04-2.84638E-06-2.75994E-06
 -1      9325 1.58117E-04-2.84638E-06 2.75994E-06
 -1      9326 1.58098E-04-2.13877E-06-2.75962E-06
 -1      9328 1.58098E-04-2.13877E-06 2.75962E-06
 -1      9329 1.57933E-04-1.43534E-06-2.75673E-06
 -1      9331 1.57933E-04-1.43534E-06 2.75673E-06
 -1      9332 1.57637E-04-7.42911E-07-2.75157E-06
 -1      9334 1.57637E-04-7.42911E-07 2.75157E-06
 -1      9335 9.45170E-05-3.07430E-07-1.64980E-06
 -1      9337 9.45170E-05-3.07430E-07 1.64980E-06
 -1      9338 8.91693E-05-3.08024E-07-1.55646E-06
 -1      9340 8.91693E-05-3.08024E-07 1.55646E-06
 -1      9341 8.46935E-05-3.07762E-07-1.47833E-06
 -1      9343 8.46935E-05-3.07762E-07 1.47833E-06
 -1      9344 8.09309E-05-3.08237E-07-1.41265E-06
 -1      9346 8.09309E-05-3.08237E-07 1.41265E-06
 -1      9347 7.77283E-05-3.07826E-07-1.35675E-06
 -1      9349 7.77283E-05-3.07826E-07 1.35675E-06
 -1      9350 7.49990E-05-3.07887E-07-1.30911E-06
 -1      9352 7.49990E-05-3.07887E-07 1.30911E-06
 -1      9353 7.26616E-05-3.08621E-07-1.26831E-06
 -1      9355 7.26616E-05-3.08621E-07 1.26831E-06
 -1      9356 7.06577E-05-3.09553E-07-1.23334E-06
 -1      9358 7.06577E-05-3.09553E-07 1.23334E-06
 -1      9359 6.89411E-05-3.11620E-07-1.20337E-06
 -1      9361 6.89411E-05-3.11620E-07 1.20337E-06
 -1      9362 6.74712E-05-3.12174E-07-1.17771E-06
 -1      9364 6.74712E-05-3.12174E-07 1.17771E-06
 -1      9365 6.62245E-05-3.00689E-07-1.15595E-06
 -1      9367 6.62245E-05-3.00689E-07 1.15595E-06
 -1      9368 6.51564E-05-2.98959E-07-1.13731E-06
 -1      9370 6.51564E-05-2.98959E-07 1.13731E-06
 -1      9371 6.42156E-05-3.22719E-07-1.12089E-06
 -1      9373 6.42156E-05-3.22719E-07 1.12089E-06
 -1      9374 6.38007E-05-1.79245E-06-1.11365E-06
 -1      9376 6.38007E-05-1.79245E-06 1.11365E-06
 -1      9377 6.38022E-05-2.49637E-06-1.11367E-06
 -1      9379 6.38022E-05-2.49637E-06 1.11367E-06
 -1      9380 6.38044E-05-3.20160E-06-1.11371E-06
 -1      9382 6.38044E-05-3.20160E-06 1.11371E-06
 -1      9383 6.38043E-05-3.91078E-06-1.11371E-06
 -1      9385 6.38043E-05-3.91078E-06 1.11371E-06
 -1      9386 6.38038E-05-4.62192E-06-1.11370E-06
 -1      9388 6.38038E-05-4.62192E-06 1.11370E-06
 -1      9389 6.38035E-05-5.33296E-06-1.11369E-06
 -1      9391 6.38035E-05-5.33296E-06 1.11369E-06
 -1      9392 6.38021E-05-6.04353E-06-1.11367E-06
 -1      9394 6.38021E-05-6.04353E-06 1.11367E-06
 -1      9395 6.38010E-05-6.75679E-06-1.11365E-06
 -1      9397 6.38010E-05-6.75679E-06 1.11365E-06
 -1      9398 6.38086E-05-7.47815E-06-1.11378E-06
 -1      9400 6.38086E-05-7.47815E-06 1.11378E-06
 -1      9401 6.37920E-05-8.18625E-06-1.11349E-06
 -1      9403 6.37920E-05-8.18625E-06 1.11349E-06
 -1      9404 1.30924E-04-2.95777E-07-2.28529E-06
 -1      9406 1.30924E-04-2.95777E-07 2.28529E-06
 -1      9407 1.18674E-04-3.11603E-07-2.07146E-06
 -1      9409 1.18674E-04-3.11603E-07 2.07146E-06
 -1      9410 1.00964E-04-3.07370E-07-1.76233E-06
 -1      9412 1.00964E-04-3.07370E-07 1.76233E-06
 -1      9413 6.38142E-05-1.08545E-06-1.11388E-06
 -1      9415 6.38142E-05-1.08545E-06 1.11388E-06
 -1      9416 1.54453E-04-8.50419E-06-2.69599E-06
 -1      9418 1.54453E-04-8.50419E-06 2.69599E-06
 -1      9419 1.53268E-04-6.31303E-06-2.67531E-06
 -1      9421 1.53268E-04-6.31303E-06 2.67531E-06
 -1      9422 1.53228E-04-6.49219E-06-2.67460E-06
 -1      9424 1.53228E-04-6.49219E-06 2.67460E-06
 -1      9425 1.53157E-04-6.67278E-06-2.67337E-06
 -1      9427 1.53157E-04-6.67278E-06 2.67337E-06
 -1      9428 1.53127E-04-6.85280E-06-2.67283E-06
 -1      9430 1.53127E-04-6.85280E-06 2.67283E-06
 -1      9431 1.48834E-04-6.58324E-06-2.59790E-06
 -1      9433 1.48834E-04-6.58324E-06 2.59790E-06
 -1      9434 1.53461E-04-8.15103E-06-2.67868E-06
 -1      9436 1.53461E-04-8.15103E-06 2.67868E-06
 -1      9437 1.53709E-04-8.33713E-06-2.68299E-06
 -1      9439 1.53709E-04-8.33713E-06 2.68299E-06
 -1      9440 1.53472E-04-5.59873E-06-2.67886E-06
 -1      9442 1.53472E-04-5.59873E-06 2.67886E-06
 -1      9443 1.53447E-04-5.77696E-06-2.67843E-06
 -1      9445 1.53447E-04-5.77696E-06 2.67843E-06
 -1      9446 1.53539E-04-4.88755E-06-2.68004E-06
 -1      9448 1.53539E-04-4.88755E-06 2.68004E-06
 -1      9449 1.53535E-04-5.06543E-06-2.67996E-06
 -1      9451 1.53535E-04-5.06543E-06 2.67996E-06
 -1      9452 1.53535E-04-4.17730E-06-2.67997E-06
 -1      9454 1.53535E-04-4.17730E-06 2.67997E-06
 -1      9455 1.53537E-04-4.35510E-06-2.67999E-06
 -1      9457 1.53537E-04-4.35510E-06 2.67999E-06
 -1      9458 1.53528E-04-3.46705E-06-2.67985E-06
 -1      9460 1.53528E-04-3.46705E-06 2.67985E-06
 -1      9461 1.53528E-04-3.64475E-06-2.67984E-06
 -1      9463 1.53528E-04-3.64475E-06 2.67984E-06
 -1      9464 1.53553E-04-2.75847E-06-2.68028E-06
 -1      9466 1.53553E-04-2.75847E-06 2.68028E-06
 -1      9467 1.53547E-04-2.93579E-06-2.68016E-06
 -1      9469 1.53547E-04-2.93579E-06 2.68016E-06
 -1      9470 1.53530E-04-2.05291E-06-2.67988E-06
 -1      9472 1.53530E-04-2.05291E-06 2.67988E-06
 -1      9473 1.53553E-04-2.22975E-06-2.68028E-06
 -1      9475 1.53553E-04-2.22975E-06 2.68028E-06
 -1      9476 1.53253E-04-1.35390E-06-2.67504E-06
 -1      9478 1.53253E-04-1.35390E-06 2.67504E-06
 -1      9479 1.53300E-04-1.52920E-06-2.67586E-06
 -1      9481 1.53300E-04-1.52920E-06 2.67586E-06
 -1      9482 1.52816E-04-6.63979E-07-2.66742E-06
 -1      9484 1.52816E-04-6.63979E-07 2.66742E-06
 -1      9485 1.52900E-04-8.33443E-07-2.66887E-06
 -1      9487 1.52900E-04-8.33443E-07 2.66887E-06
 -1      9488 1.48386E-04-5.82672E-07-2.59009E-06
 -1      9490 1.48386E-04-5.82672E-07 2.59009E-06
 -1      9491 1.23041E-04-4.63298E-07-2.14769E-06
 -1      9493 1.23041E-04-4.63298E-07 2.14769E-06
 -1      9494 1.26093E-04-4.58016E-07-2.20096E-06
 -1      9496 1.26093E-04-4.58016E-07 2.20096E-06
 -1      9497 9.37900E-05-4.61175E-07-1.63711E-06
 -1      9499 9.37900E-05-4.61175E-07 1.63711E-06
 -1      9500 9.52550E-05-4.61424E-07-1.66268E-06
 -1      9502 9.52550E-05-4.61424E-07 1.66268E-06
 -1      9503 1.12308E-04-4.68330E-07-1.96034E-06
 -1      9505 1.12308E-04-4.68330E-07 1.96034E-06
 -1      9506 1.14760E-04-4.68916E-07-2.00314E-06
 -1      9508 1.14760E-04-4.68916E-07 2.00314E-06
 -1      9509 1.03729E-04-4.61283E-07-1.81060E-06
 -1      9511 1.03729E-04-4.61283E-07 1.81060E-06
 -1      9512 1.05702E-04-4.62285E-07-1.84503E-06
 -1      9514 1.05702E-04-4.62285E-07 1.84503E-06
 -1      9515 1.17382E-04-4.70621E-07-2.04891E-06
 -1      9517 1.17382E-04-4.70621E-07 2.04891E-06
 -1      9518 1.20121E-04-4.69513E-07-2.09673E-06
 -1      9520 1.20121E-04-4.69513E-07 2.09673E-06
 -1      9521 1.21628E-04-6.22275E-07-2.12303E-06
 -1      9523 1.21628E-04-6.22275E-07 2.12303E-06
 -1      9524 1.16088E-04-6.26838E-07-2.02632E-06
 -1      9526 1.16088E-04-6.26838E-07 2.02632E-06
 -1      9527 1.37011E-04-4.39053E-07-2.39154E-06
 -1      9529 1.37011E-04-4.39053E-07 2.39154E-06
 -1      9530 1.40556E-04-4.25011E-07-2.45341E-06
 -1      9532 1.40556E-04-4.25011E-07 2.45341E-06
 -1      9533 1.07787E-04-4.64250E-07-1.88143E-06
 -1      9535 1.07787E-04-4.64250E-07 1.88143E-06
 -1      9536 1.09974E-04-4.65425E-07-1.91960E-06
 -1      9538 1.09974E-04-4.65425E-07 1.91960E-06
 -1      9539 1.11137E-04-6.22226E-07-1.93991E-06
 -1      9541 1.11137E-04-6.22226E-07 1.93991E-06
 -1      9542 1.06725E-04-6.17351E-07-1.86289E-06
 -1      9544 1.06725E-04-6.17351E-07 1.86289E-06
 -1      9545 6.39874E-05-1.17906E-06-1.11690E-06
 -1      9547 6.39874E-05-1.17906E-06 1.11690E-06
 -1      9548 6.39924E-05-1.00351E-06-1.11699E-06
 -1      9550 6.39924E-05-1.00351E-06 1.11699E-06
 -1      9551 8.85679E-05-4.61921E-07-1.54596E-06
 -1      9553 8.85679E-05-4.61921E-07 1.54596E-06
 -1      9554 8.97841E-05-4.61895E-07-1.56719E-06
 -1      9556 8.97841E-05-4.61895E-07 1.56719E-06
 -1      9557 8.41875E-05-4.61947E-07-1.46950E-06
 -1      9559 8.41875E-05-4.61947E-07 1.46950E-06
 -1      9560 8.52136E-05-4.61564E-07-1.48741E-06
 -1      9562 8.52136E-05-4.61564E-07 1.48741E-06
 -1      9563 8.05023E-05-4.62187E-07-1.40517E-06
 -1      9565 8.05023E-05-4.62187E-07 1.40517E-06
 -1      9566 8.13661E-05-4.62230E-07-1.42025E-06
 -1      9568 8.13661E-05-4.62230E-07 1.42025E-06
 -1      9569 7.73625E-05-4.62023E-07-1.35037E-06
 -1      9571 7.73625E-05-4.62023E-07 1.35037E-06
 -1      9572 7.81018E-05-4.61663E-07-1.36327E-06
 -1      9574 7.81018E-05-4.61663E-07 1.36327E-06
 -1      9575 7.46858E-05-4.61745E-07-1.30365E-06
 -1      9577 7.46858E-05-4.61745E-07 1.30365E-06
 -1      9578 7.53174E-05-4.62061E-07-1.31467E-06
 -1      9580 7.53174E-05-4.62061E-07 1.31467E-06
 -1      9581 7.23944E-05-4.62756E-07-1.26365E-06
 -1      9583 7.23944E-05-4.62756E-07 1.26365E-06
 -1      9584 7.29330E-05-4.62604E-07-1.27305E-06
 -1      9586 7.29330E-05-4.62604E-07 1.27305E-06
 -1      9587 7.04264E-05-4.64673E-07-1.22930E-06
 -1      9589 7.04264E-05-4.64673E-07 1.22930E-06
 -1      9590 7.08902E-05-4.63903E-07-1.23739E-06
 -1      9592 7.08902E-05-4.63903E-07 1.23739E-06
 -1      9593 6.87403E-05-4.67633E-07-1.19987E-06
 -1      9595 6.87403E-05-4.67633E-07 1.19987E-06
 -1      9596 6.91376E-05-4.67530E-07-1.20680E-06
 -1      9598 6.91376E-05-4.67530E-07 1.20680E-06
 -1      9599 6.72975E-05-4.68743E-07-1.17468E-06
 -1      9601 6.72975E-05-4.68743E-07 1.17468E-06
 -1      9602 6.76348E-05-4.69527E-07-1.18057E-06
 -1      9604 6.76348E-05-4.69527E-07 1.18057E-06
 -1      9605 6.60792E-05-4.51303E-07-1.15342E-06
 -1      9607 6.60792E-05-4.51303E-07 1.15342E-06
 -1      9608 6.63654E-05-4.55905E-07-1.15841E-06
 -1      9610 6.63654E-05-4.55905E-07 1.15841E-06
 -1      9611 6.50448E-05-4.45283E-07-1.13536E-06
 -1      9613 6.50448E-05-4.45283E-07 1.13536E-06
 -1      9614 6.52951E-05-4.38940E-07-1.13973E-06
 -1      9616 6.52951E-05-4.38940E-07 1.13973E-06
 -1      9617 6.41035E-05-5.04868E-07-1.11893E-06
 -1      9619 6.41035E-05-5.04868E-07 1.11893E-06
 -1      9620 6.43240E-05-5.10607E-07-1.12278E-06
 -1      9622 6.43240E-05-5.10607E-07 1.12278E-06
 -1      9623 6.39674E-05-1.88960E-06-1.11656E-06
 -1      9625 6.39674E-05-1.88960E-06 1.11656E-06
 -1      9626 6.39684E-05-1.71304E-06-1.11657E-06
 -1      9628 6.39684E-05-1.71304E-06 1.11657E-06
 -1      9629 6.38968E-05-4.53722E-07-1.11532E-06
 -1      9631 6.38968E-05-4.53722E-07 1.11532E-06
 -1      9632 6.39719E-05-1.53746E-06-1.11663E-06
 -1      9634 6.39719E-05-1.53746E-06 1.11663E-06
 -1      9635 6.39759E-05-1.36002E-06-1.11670E-06
 -1      9637 6.39759E-05-1.36002E-06 1.11670E-06
 -1      9638 6.41451E-05-1.63461E-06-1.11966E-06
 -1      9640 6.41451E-05-1.63461E-06 1.11966E-06
 -1      9641 1.49961E-04-8.43264E-06-2.61758E-06
 -1      9643 1.49961E-04-8.43264E-06 2.61758E-06
 -1      9644 6.39732E-05-2.58715E-06-1.11666E-06
 -1      9646 6.39732E-05-2.58715E-06 1.11666E-06
 -1      9647 6.39723E-05-2.41145E-06-1.11664E-06
 -1      9649 6.39723E-05-2.41145E-06 1.11664E-06
 -1      9650 6.39758E-05-3.29015E-06-1.11670E-06
 -1      9652 6.39758E-05-3.29015E-06 1.11670E-06
 -1      9653 6.39756E-05-3.11331E-06-1.11670E-06
 -1      9655 6.39756E-05-3.11331E-06 1.11670E-06
 -1      9656 6.39749E-05-3.99917E-06-1.11669E-06
 -1      9658 6.39749E-05-3.99917E-06 1.11669E-06
 -1      9659 6.39751E-05-3.82152E-06-1.11669E-06
 -1      9661 6.39751E-05-3.82152E-06 1.11669E-06
 -1      9662 6.39740E-05-4.71073E-06-1.11667E-06
 -1      9664 6.39740E-05-4.71073E-06 1.11667E-06
 -1      9665 6.39741E-05-4.53287E-06-1.11667E-06
 -1      9667 6.39741E-05-4.53287E-06 1.11667E-06
 -1      9668 6.39738E-05-5.42175E-06-1.11667E-06
 -1      9670 6.39738E-05-5.42175E-06 1.11667E-06
 -1      9671 6.39740E-05-5.24410E-06-1.11667E-06
 -1      9673 6.39740E-05-5.24410E-06 1.11667E-06
 -1      9674 6.39714E-05-6.13181E-06-1.11662E-06
 -1      9676 6.39714E-05-6.13181E-06 1.11662E-06
 -1      9677 6.39719E-05-5.95406E-06-1.11663E-06
 -1      9679 6.39719E-05-5.95406E-06 1.11663E-06
 -1      9680 6.39687E-05-6.84550E-06-1.11658E-06
 -1      9682 6.39687E-05-6.84550E-06 1.11658E-06
 -1      9683 6.39684E-05-6.66639E-06-1.11657E-06
 -1      9685 6.39684E-05-6.66639E-06 1.11657E-06
 -1      9686 6.39821E-05-7.57323E-06-1.11681E-06
 -1      9688 6.39821E-05-7.57323E-06 1.11681E-06
 -1      9689 6.39787E-05-7.39207E-06-1.11675E-06
 -1      9691 6.39787E-05-7.39207E-06 1.11675E-06
 -1      9692 6.39581E-05-8.29960E-06-1.11639E-06
 -1      9694 6.39581E-05-8.29960E-06 1.11639E-06
 -1      9695 6.39743E-05-8.13017E-06-1.11668E-06
 -1      9697 6.39743E-05-8.13017E-06 1.11668E-06
 -1      9698 1.29351E-04-4.41181E-07-2.25784E-06
 -1      9700 1.29351E-04-4.41181E-07 2.25784E-06
 -1      9701 1.32803E-04-4.36869E-07-2.31809E-06
 -1      9703 1.32803E-04-4.36869E-07 2.31809E-06
 -1      9704 1.35260E-04-5.84506E-07-2.36097E-06
 -1      9706 1.35260E-04-5.84506E-07 2.36097E-06
 -1      9707 1.27807E-04-5.99148E-07-2.23088E-06
 -1      9709 1.27807E-04-5.99148E-07 2.23088E-06
 -1      9710 1.53081E-04-7.03625E-06-2.67204E-06
 -1      9712 1.53081E-04-7.03625E-06 2.67204E-06
 -1      9713 1.53068E-04-7.21758E-06-2.67181E-06
 -1      9715 1.53068E-04-7.21758E-06 2.67181E-06
 -1      9716 1.48725E-04-6.94750E-06-2.59601E-06
 -1      9718 1.48725E-04-6.94750E-06 2.59601E-06
 -1      9719 6.39064E-05-8.47427E-06-1.11549E-06
 -1      9721 6.39064E-05-8.47427E-06 1.11549E-06
 -1      9722 1.45955E-04-8.40865E-06-2.54766E-06
 -1      9724 1.45955E-04-8.40865E-06 2.54766E-06
 -1      9725 1.53085E-04-7.40434E-06-2.67211E-06
 -1      9727 1.53085E-04-7.40434E-06 2.67211E-06
 -1      9728 1.53090E-04-7.58731E-06-2.67219E-06
 -1      9730 1.53090E-04-7.58731E-06 2.67219E-06
 -1      9731 1.48699E-04-7.31795E-06-2.59555E-06
 -1      9733 1.48699E-04-7.31795E-06 2.59555E-06
 -1      9734 1.41549E-04-8.35521E-06-2.47074E-06
 -1      9736 1.41549E-04-8.35521E-06 2.47074E-06
 -1      9737 1.37628E-04-8.35070E-06-2.40230E-06
 -1      9739 1.37628E-04-8.35070E-06 2.40230E-06
 -1      9740 1.44628E-04-8.21046E-06-2.52449E-06
 -1      9742 1.44628E-04-8.21046E-06 2.52449E-06
 -1      9743 1.33381E-04-8.38209E-06-2.32817E-06
 -1      9745 1.33381E-04-8.38209E-06 2.32817E-06
 -1      9746 1.29818E-04-8.38751E-06-2.26598E-06
 -1      9748 1.29818E-04-8.38751E-06 2.26598E-06
 -1      9749 1.35872E-04-8.18827E-06-2.37166E-06
 -1      9751 1.35872E-04-8.18827E-06 2.37166E-06
 -1      9752 1.26481E-04-8.39195E-06-2.20774E-06
 -1      9754 1.26481E-04-8.39195E-06 2.20774E-06
 -1      9755 1.23372E-04-8.39440E-06-2.15347E-06
 -1      9757 1.23372E-04-8.39440E-06 2.15347E-06
 -1      9758 1.28294E-04-8.22442E-06-2.23939E-06
 -1      9760 1.28294E-04-8.22442E-06 2.23939E-06
 -1      9761 1.20439E-04-8.39789E-06-2.10226E-06
 -1      9763 1.20439E-04-8.39789E-06 2.10226E-06
 -1      9764 1.17676E-04-8.39972E-06-2.05405E-06
 -1      9766 1.17676E-04-8.39972E-06 2.05405E-06
 -1      9767 1.22019E-04-8.23238E-06-2.12985E-06
 -1      9769 1.22019E-04-8.23238E-06 2.12985E-06
 -1      9770 1.15070E-04-8.40197E-06-2.00855E-06
 -1      9772 1.15070E-04-8.40197E-06 2.00855E-06
 -1      9773 1.12606E-04-8.40259E-06-1.96555E-06
 -1      9775 1.12606E-04-8.40259E-06 1.96555E-06
 -1      9776 1.16474E-04-8.23814E-06-2.03307E-06
 -1      9778 1.16474E-04-8.23814E-06 2.03307E-06
 -1      9779 1.10276E-04-8.40406E-06-1.92488E-06
 -1      9781 1.10276E-04-8.40406E-06 1.92488E-06
 -1      9782 1.08079E-04-8.40468E-06-1.88653E-06
 -1      9784 1.08079E-04-8.40468E-06 1.88653E-06
 -1      9785 1.11533E-04-8.24188E-06-1.94682E-06
 -1      9787 1.11533E-04-8.24188E-06 1.94682E-06
 -1      9788 1.05988E-04-8.40574E-06-1.85003E-06
 -1      9790 1.05988E-04-8.40574E-06 1.85003E-06
 -1      9791 1.04004E-04-8.40644E-06-1.81540E-06
 -1      9793 1.04004E-04-8.40644E-06 1.81540E-06
 -1      9794 1.07108E-04-8.24442E-06-1.86957E-06
 -1      9796 1.07108E-04-8.24442E-06 1.86957E-06
 -1      9797 1.02119E-04-8.40690E-06-1.78250E-06
 -1      9799 1.02119E-04-8.40690E-06 1.78250E-06
 -1      9800 1.00327E-04-8.40668E-06-1.75122E-06
 -1      9802 1.00327E-04-8.40668E-06 1.75122E-06
 -1      9803 1.03128E-04-8.24595E-06-1.80011E-06
 -1      9805 1.03128E-04-8.24595E-06 1.80011E-06
 -1      9806 9.86242E-05-8.40664E-06-1.72149E-06
 -1      9808 9.86242E-05-8.40664E-06 1.72149E-06
 -1      9809 9.70074E-05-8.40663E-06-1.69327E-06
 -1      9811 9.70074E-05-8.40663E-06 1.69327E-06
 -1      9812 9.95378E-05-8.24636E-06-1.73744E-06
 -1      9814 9.95378E-05-8.24636E-06 1.73744E-06
 -1      9815 9.54627E-05-8.40658E-06-1.66631E-06
 -1      9817 9.54627E-05-8.40658E-06 1.66631E-06
 -1      9818 9.39877E-05-8.40685E-06-1.64056E-06
 -1      9820 9.39877E-05-8.40685E-06 1.64056E-06
 -1      9821 9.62872E-05-8.24626E-06-1.68070E-06
 -1      9823 9.62872E-05-8.24626E-06 1.68070E-06
 -1      9824 9.25819E-05-8.40666E-06-1.61602E-06
 -1      9826 9.25819E-05-8.40666E-06 1.61602E-06
 -1      9827 9.12368E-05-8.40623E-06-1.59254E-06
 -1      9829 9.12368E-05-8.40623E-06 1.59254E-06
 -1      9830 9.33343E-05-8.24602E-06-1.62916E-06
 -1      9832 9.33343E-05-8.24602E-06 1.62916E-06
 -1      9833 8.99542E-05-8.40596E-06-1.57016E-06
 -1      9835 8.99542E-05-8.40596E-06 1.57016E-06
 -1      9836 8.87305E-05-8.40590E-06-1.54880E-06
 -1      9838 8.87305E-05-8.40590E-06 1.54880E-06
 -1      9839 9.06435E-05-8.24556E-06-1.58219E-06
 -1      9841 9.06435E-05-8.24556E-06 1.58219E-06
 -1      9842 8.75573E-05-8.40587E-06-1.52832E-06
 -1      9844 8.75573E-05-8.40587E-06 1.52832E-06
 -1      9845 8.64325E-05-8.40618E-06-1.50869E-06
 -1      9847 8.64325E-05-8.40618E-06 1.50869E-06
 -1      9848 8.81855E-05-8.24526E-06-1.53928E-06
 -1      9850 8.81855E-05-8.24526E-06 1.53928E-06
 -1      9851 8.53571E-05-8.40611E-06-1.48991E-06
 -1      9853 8.53571E-05-8.40611E-06 1.48991E-06
 -1      9854 8.43249E-05-8.40573E-06-1.47190E-06
 -1      9856 8.43249E-05-8.40573E-06 1.47190E-06
 -1      9857 8.59348E-05-8.24517E-06-1.50000E-06
 -1      9859 8.59348E-05-8.24517E-06 1.50000E-06
 -1      9860 8.33379E-05-8.40555E-06-1.45467E-06
 -1      9862 8.33379E-05-8.40555E-06 1.45467E-06
 -1      9863 8.23943E-05-8.40549E-06-1.43820E-06
 -1      9865 8.23943E-05-8.40549E-06 1.43820E-06
 -1      9866 8.38704E-05-8.24493E-06-1.46396E-06
 -1      9868 8.38704E-05-8.24493E-06 1.46396E-06
 -1      9869 8.14870E-05-8.40548E-06-1.42236E-06
 -1      9871 8.14870E-05-8.40548E-06 1.42236E-06
 -1      9872 8.06182E-05-8.40554E-06-1.40720E-06
 -1      9874 8.06182E-05-8.40554E-06 1.40720E-06
 -1      9875 8.19741E-05-8.24475E-06-1.43086E-06
 -1      9877 8.19741E-05-8.24475E-06 1.43086E-06
 -1      9878 7.97816E-05-8.40569E-06-1.39259E-06
 -1      9880 7.97816E-05-8.40569E-06 1.39259E-06
 -1      9881 7.89767E-05-8.40606E-06-1.37854E-06
 -1      9883 7.89767E-05-8.40606E-06 1.37854E-06
 -1      9884 8.02285E-05-8.24489E-06-1.40039E-06
 -1      9886 8.02285E-05-8.24489E-06 1.40039E-06
 -1      9887 7.82043E-05-8.40611E-06-1.36506E-06
 -1      9889 7.82043E-05-8.40611E-06 1.36506E-06
 -1      9890 7.74608E-05-8.40578E-06-1.35208E-06
 -1      9892 7.74608E-05-8.40578E-06 1.35208E-06
 -1      9893 7.86180E-05-8.24510E-06-1.37228E-06
 -1      9895 7.86180E-05-8.24510E-06 1.37228E-06
 -1      9896 7.67477E-05-8.40571E-06-1.33964E-06
 -1      9898 7.67477E-05-8.40571E-06 1.33964E-06
 -1      9899 7.60638E-05-8.40573E-06-1.32770E-06
 -1      9901 7.60638E-05-8.40573E-06 1.32770E-06
 -1      9902 7.71310E-05-8.24508E-06-1.34633E-06
 -1      9904 7.71310E-05-8.24508E-06 1.34633E-06
 -1      9905 7.54048E-05-8.40586E-06-1.31619E-06
 -1      9907 7.54048E-05-8.40586E-06 1.31619E-06
 -1      9908 7.47702E-05-8.40623E-06-1.30512E-06
 -1      9910 7.47702E-05-8.40623E-06 1.30512E-06
 -1      9911 7.57574E-05-8.24515E-06-1.32235E-06
 -1      9913 7.57574E-05-8.24515E-06 1.32235E-06
 -1      9914 7.41608E-05-8.40630E-06-1.29448E-06
 -1      9916 7.41608E-05-8.40630E-06 1.29448E-06
 -1      9917 7.35737E-05-8.40599E-06-1.28423E-06
 -1      9919 7.35737E-05-8.40599E-06 1.28423E-06
 -1      9920 7.44877E-05-8.24535E-06-1.30019E-06
 -1      9922 7.44877E-05-8.24535E-06 1.30019E-06
 -1      9923 7.30102E-05-8.40595E-06-1.27440E-06
 -1      9925 7.30102E-05-8.40595E-06 1.27440E-06
 -1      9926 7.24694E-05-8.40600E-06-1.26496E-06
 -1      9928 7.24694E-05-8.40600E-06 1.26496E-06
 -1      9929 7.33136E-05-8.24538E-06-1.27969E-06
 -1      9931 7.33136E-05-8.24538E-06 1.27969E-06
 -1      9932 7.19482E-05-8.40617E-06-1.25586E-06
 -1      9934 7.19482E-05-8.40617E-06 1.25586E-06
 -1      9935 7.14458E-05-8.40658E-06-1.24709E-06
 -1      9937 7.14458E-05-8.40658E-06 1.24709E-06
 -1      9938 7.22278E-05-8.24552E-06-1.26074E-06
 -1      9940 7.22278E-05-8.24552E-06 1.26074E-06
 -1      9941 7.09637E-05-8.40670E-06-1.23868E-06
 -1      9943 7.09637E-05-8.40670E-06 1.23868E-06
 -1      9944 7.04984E-05-8.40641E-06-1.23056E-06
 -1      9946 7.04984E-05-8.40641E-06 1.23056E-06
 -1      9947 7.12234E-05-8.24581E-06-1.24321E-06
 -1      9949 7.12234E-05-8.24581E-06 1.24321E-06
 -1      9950 7.00526E-05-8.40642E-06-1.22277E-06
 -1      9952 7.00526E-05-8.40642E-06 1.22277E-06
 -1      9953 6.96238E-05-8.40646E-06-1.21529E-06
 -1      9955 6.96238E-05-8.40646E-06 1.21529E-06
 -1      9956 7.02943E-05-8.24594E-06-1.22699E-06
 -1      9958 7.02943E-05-8.24594E-06 1.22699E-06
 -1      9959 6.92115E-05-8.40659E-06-1.20809E-06
 -1      9961 6.92115E-05-8.40659E-06 1.20809E-06
 -1      9962 6.88131E-05-8.40687E-06-1.20114E-06
 -1      9964 6.88131E-05-8.40687E-06 1.20114E-06
 -1      9965 6.94350E-05-8.24607E-06-1.21199E-06
 -1      9967 6.94350E-05-8.24607E-06 1.21199E-06
 -1      9968 6.84317E-05-8.40664E-06-1.19448E-06
 -1      9970 6.84317E-05-8.40664E-06 1.19448E-06
 -1      9971 6.80626E-05-8.40596E-06-1.18804E-06
 -1      9973 6.80626E-05-8.40596E-06 1.18804E-06
 -1      9974 6.86402E-05-8.24598E-06-1.19812E-06
 -1      9976 6.86402E-05-8.24598E-06 1.19812E-06
 -1      9977 6.77097E-05-8.40495E-06-1.18188E-06
 -1      9979 6.77097E-05-8.40495E-06 1.18188E-06
 -1      9980 6.73692E-05-8.40411E-06-1.17593E-06
 -1      9982 6.73692E-05-8.40411E-06 1.17593E-06
 -1      9983 6.79048E-05-8.24474E-06-1.18528E-06
 -1      9985 6.79048E-05-8.24474E-06 1.18528E-06
 -1      9986 6.70424E-05-8.40213E-06-1.17023E-06
 -1      9988 6.70424E-05-8.40213E-06 1.17023E-06
 -1      9989 6.67253E-05-8.40072E-06-1.16469E-06
 -1      9991 6.67253E-05-8.40072E-06 1.16469E-06
 -1      9992 6.72239E-05-8.24175E-06-1.17340E-06
 -1      9994 6.72239E-05-8.24175E-06 1.17340E-06
 -1      9995 6.64215E-05-8.39670E-06-1.15939E-06
 -1      9997 6.64215E-05-8.39670E-06 1.15939E-06
 -1      9998 6.61264E-05-8.39293E-06-1.15424E-06
 -1     10000 6.61264E-05-8.39293E-06 1.15424E-06
 -1     10001 6.65920E-05-8.23575E-06-1.16237E-06
 -1     10003 6.65920E-05-8.23575E-06 1.16237E-06
 -1     10004 6.58417E-05-8.38498E-06-1.14927E-06
 -1     10006 6.58417E-05-8.38498E-06 1.14927E-06
 -1     10007 6.55671E-05-8.37870E-06-1.14448E-06
 -1     10009 6.55671E-05-8.37870E-06 1.14448E-06
 -1     10010 6.60020E-05-8.22378E-06-1.15207E-06
 -1     10012 6.60020E-05-8.22378E-06 1.15207E-06
 -1     10013 6.52944E-05-8.36286E-06-1.13972E-06
 -1     10015 6.52944E-05-8.36286E-06 1.13972E-06
 -1     10016 6.50372E-05-8.35489E-06-1.13523E-06
 -1     10018 6.50372E-05-8.35489E-06 1.13523E-06
 -1     10019 6.54431E-05-8.19998E-06-1.14231E-06
 -1     10021 6.54431E-05-8.19998E-06 1.14231E-06
 -1     10022 6.47586E-05-8.32370E-06-1.13037E-06
 -1     10024 6.47586E-05-8.32370E-06 1.13037E-06
 -1     10025 6.45283E-05-8.33091E-06-1.12635E-06
 -1     10027 6.45283E-05-8.33091E-06 1.12635E-06
 -1     10028 6.48905E-05-8.15294E-06-1.13267E-06
 -1     10030 6.48905E-05-8.15294E-06 1.13267E-06
 -1     10031 9.67865E-05-4.61266E-07-1.68941E-06
 -1     10033 9.67865E-05-4.61266E-07 1.68941E-06
 -1     10034 9.83911E-05-4.61204E-07-1.71742E-06
 -1     10036 9.83911E-05-4.61204E-07 1.71742E-06
 -1     10037 9.60064E-05-6.15010E-07-1.67580E-06
 -1     10039 9.60064E-05-6.15010E-07 1.67580E-06
 -1     10040 6.39982E-05-6.41612E-07-1.11709E-06
 -1     10042 6.39982E-05-6.41612E-07 1.11709E-06
 -1     10043 1.53349E-04-6.13393E-06-2.67671E-06
 -1     10045 1.53349E-04-6.13393E-06 2.67671E-06
 -1     10046 1.48975E-04-6.22331E-06-2.60036E-06
 -1     10048 1.48975E-04-6.22331E-06 2.60036E-06
 -1     10049 1.53384E-04-5.95537E-06-2.67733E-06
 -1     10051 1.53384E-04-5.95537E-06 2.67733E-06
 -1     10052 6.40935E-05-8.41819E-06-1.11876E-06
 -1     10054 6.40935E-05-8.41819E-06 1.11876E-06
 -1     10055 1.53169E-04-7.96297E-06-2.67358E-06
 -1     10057 1.53169E-04-7.96297E-06 2.67358E-06
 -1     10058 1.48991E-04-8.07666E-06-2.60064E-06
 -1     10060 1.48991E-04-8.07666E-06 2.60064E-06
 -1     10061 1.53092E-04-7.77908E-06-2.67222E-06
 -1     10063 1.53092E-04-7.77908E-06 2.67222E-06
 -1     10064 1.49109E-04-5.86557E-06-2.60271E-06
 -1     10066 1.49109E-04-5.86557E-06 2.60271E-06
 -1     10067 1.53520E-04-5.24285E-06-2.67970E-06
 -1     10069 1.53520E-04-5.24285E-06 2.67970E-06
 -1     10070 1.53507E-04-5.42082E-06-2.67947E-06
 -1     10072 1.53507E-04-5.42082E-06 2.67947E-06
 -1     10073 1.53539E-04-4.53250E-06-2.68004E-06
 -1     10075 1.53539E-04-4.53250E-06 2.68004E-06
 -1     10076 1.53540E-04-4.71027E-06-2.68005E-06
 -1     10078 1.53540E-04-4.71027E-06 2.68005E-06
 -1     10079 1.53530E-04-3.82215E-06-2.67987E-06
 -1     10081 1.53530E-04-3.82215E-06 2.67987E-06
 -1     10082 1.53531E-04-3.99992E-06-2.67990E-06
 -1     10084 1.53531E-04-3.99992E-06 2.67990E-06
 -1     10085 1.53535E-04-3.11234E-06-2.67996E-06
 -1     10087 1.53535E-04-3.11234E-06 2.67996E-06
 -1     10088 1.53530E-04-3.28980E-06-2.67987E-06
 -1     10090 1.53530E-04-3.28980E-06 2.67987E-06
 -1     10091 1.53569E-04-2.40545E-06-2.68056E-06
 -1     10093 1.53569E-04-2.40545E-06 2.68056E-06
 -1     10094 1.53570E-04-2.58244E-06-2.68057E-06
 -1     10096 1.53570E-04-2.58244E-06 2.68057E-06
 -1     10097 1.53406E-04-1.70243E-06-2.67771E-06
 -1     10099 1.53406E-04-1.70243E-06 2.67771E-06
 -1     10100 1.53448E-04-1.87836E-06-2.67845E-06
 -1     10102 1.53448E-04-1.87836E-06 2.67845E-06
 -1     10103 1.53101E-04-1.00747E-06-2.67239E-06
 -1     10105 1.53101E-04-1.00747E-06 2.67239E-06
 -1     10106 1.53174E-04-1.18160E-06-2.67366E-06
 -1     10108 1.53174E-04-1.18160E-06 2.67366E-06
 -1     10109 6.40101E-05-8.01323E-07-1.11730E-06
 -1     10111 6.40101E-05-8.01323E-07 1.11730E-06
 -1     10112 1.43864E-04-4.99157E-07-2.51115E-06
 -1     10114 1.43864E-04-4.99157E-07 2.51115E-06
 -1     10115 6.41911E-05-8.94941E-07-1.12046E-06
 -1     10117 6.41911E-05-8.94941E-07 1.12046E-06
 -1     10118 1.49254E-04-4.08852E-06-2.60524E-06
 -1     10120 1.49254E-04-4.08852E-06 2.60524E-06
 -1     10121 1.49262E-04-4.79848E-06-2.60538E-06
 -1     10123 1.49262E-04-4.79848E-06 2.60538E-06
 -1     10124 1.00079E-04-4.60951E-07-1.74688E-06
 -1     10126 1.00079E-04-4.60951E-07 1.74688E-06
 -1     10127 1.01858E-04-4.60762E-07-1.77793E-06
 -1     10129 1.01858E-04-4.60762E-07 1.77793E-06
 -1     10130 1.49201E-04-5.50901E-06-2.60431E-06
 -1     10132 1.49201E-04-5.50901E-06 2.60431E-06
 -1     10133 9.10585E-05-4.61734E-07-1.58943E-06
 -1     10135 9.10585E-05-4.61734E-07 1.58943E-06
 -1     10136 9.23945E-05-4.61323E-07-1.61275E-06
 -1     10138 9.23945E-05-4.61323E-07 1.61275E-06
 -1     10139 8.62828E-05-4.61516E-07-1.50607E-06
 -1     10141 8.62828E-05-4.61516E-07 1.50607E-06
 -1     10142 8.74014E-05-4.61851E-07-1.52560E-06
 -1     10144 8.74014E-05-4.61851E-07 1.52560E-06
 -1     10145 8.22682E-05-4.62205E-07-1.43600E-06
 -1     10147 8.22682E-05-4.62205E-07 1.43600E-06
 -1     10148 8.32063E-05-4.62137E-07-1.45237E-06
 -1     10150 8.32063E-05-4.62137E-07 1.45237E-06
 -1     10151 7.88697E-05-4.61683E-07-1.37668E-06
 -1     10153 7.88697E-05-4.61683E-07 1.37668E-06
 -1     10154 7.96704E-05-4.62047E-07-1.39065E-06
 -1     10156 7.96704E-05-4.62047E-07 1.39065E-06
 -1     10157 7.59731E-05-4.62143E-07-1.32611E-06
 -1     10159 7.59731E-05-4.62143E-07 1.32611E-06
 -1     10160 7.66532E-05-4.62134E-07-1.33799E-06
 -1     10162 7.66532E-05-4.62134E-07 1.33799E-06
 -1     10163 7.34947E-05-4.62276E-07-1.28285E-06
 -1     10165 7.34947E-05-4.62276E-07 1.28285E-06
 -1     10166 7.40791E-05-4.61827E-07-1.29305E-06
 -1     10168 7.40791E-05-4.61827E-07 1.29305E-06
 -1     10169 7.13730E-05-4.63065E-07-1.24582E-06
 -1     10171 7.13730E-05-4.63065E-07 1.24582E-06
 -1     10172 7.18742E-05-4.63059E-07-1.25457E-06
 -1     10174 7.18742E-05-4.63059E-07 1.25457E-06
 -1     10175 6.95516E-05-4.66433E-07-1.21403E-06
 -1     10177 6.95516E-05-4.66433E-07 1.21403E-06
 -1     10178 6.99796E-05-4.65836E-07-1.22150E-06
 -1     10180 6.99796E-05-4.65836E-07 1.22150E-06
 -1     10181 6.79895E-05-4.69229E-07-1.18676E-06
 -1     10183 6.79895E-05-4.69229E-07 1.18676E-06
 -1     10184 6.83572E-05-4.68612E-07-1.19318E-06
 -1     10186 6.83572E-05-4.68612E-07 1.19318E-06
 -1     10187 6.66610E-05-4.63112E-07-1.16357E-06
 -1     10189 6.66610E-05-4.63112E-07 1.16357E-06
 -1     10190 6.69725E-05-4.66162E-07-1.16901E-06
 -1     10192 6.69725E-05-4.66162E-07 1.16901E-06
 -1     10193 6.55470E-05-4.35812E-07-1.14413E-06
 -1     10195 6.55470E-05-4.35812E-07 1.14413E-06
 -1     10196 6.58133E-05-4.37548E-07-1.14878E-06
 -1     10198 6.58133E-05-4.37548E-07 1.14878E-06
 -1     10199 6.45722E-05-4.79989E-07-1.12711E-06
 -1     10201 6.45722E-05-4.79989E-07 1.12711E-06
 -1     10202 6.48081E-05-4.68407E-07-1.13123E-06
 -1     10204 6.48081E-05-4.68407E-07 1.13123E-06
 -1     10205 1.48716E-04-7.69656E-06-2.59585E-06
 -1     10207 1.48716E-04-7.69656E-06 2.59585E-06
 -1     10208 9.30828E-05-6.15319E-07-1.62477E-06
 -1     10210 9.30828E-05-6.15319E-07 1.62477E-06
 -1     10211 6.41607E-05-1.27808E-06-1.11993E-06
 -1     10213 6.41607E-05-1.27808E-06 1.11993E-06
 -1     10214 6.39699E-05-2.23853E-06-1.11660E-06
 -1     10216 6.39699E-05-2.23853E-06 1.11660E-06
 -1     10217 6.39691E-05-2.06270E-06-1.11659E-06
 -1     10219 6.39691E-05-2.06270E-06 1.11659E-06
 -1     10220 6.39750E-05-2.93767E-06-1.11669E-06
 -1     10222 6.39750E-05-2.93767E-06 1.11669E-06
 -1     10223 6.39744E-05-2.76133E-06-1.11668E-06
 -1     10225 6.39744E-05-2.76133E-06 1.11668E-06
 -1     10226 6.39756E-05-3.64412E-06-1.11670E-06
 -1     10228 6.39756E-05-3.64412E-06 1.11670E-06
 -1     10229 6.39757E-05-3.46678E-06-1.11670E-06
 -1     10231 6.39757E-05-3.46678E-06 1.11670E-06
 -1     10232 6.39743E-05-4.35488E-06-1.11667E-06
 -1     10234 6.39743E-05-4.35488E-06 1.11667E-06
 -1     10235 6.39744E-05-4.17706E-06-1.11668E-06
 -1     10237 6.39744E-05-4.17706E-06 1.11668E-06
 -1     10238 6.39739E-05-5.06642E-06-1.11667E-06
 -1     10240 6.39739E-05-5.06642E-06 1.11667E-06
 -1     10241 6.39739E-05-4.88866E-06-1.11667E-06
 -1     10243 6.39739E-05-4.88866E-06 1.11667E-06
 -1     10244 6.39730E-05-5.77675E-06-1.11665E-06
 -1     10246 6.39730E-05-5.77675E-06 1.11665E-06
 -1     10247 6.39733E-05-5.59917E-06-1.11666E-06
 -1     10249 6.39733E-05-5.59917E-06 1.11666E-06
 -1     10250 6.39695E-05-6.48777E-06-1.11659E-06
 -1     10252 6.39695E-05-6.48777E-06 1.11659E-06
 -1     10253 6.39700E-05-6.30957E-06-1.11660E-06
 -1     10255 6.39700E-05-6.30957E-06 1.11660E-06
 -1     10256 6.39719E-05-7.20711E-06-1.11663E-06
 -1     10258 6.39719E-05-7.20711E-06 1.11663E-06
 -1     10259 6.39699E-05-7.02657E-06-1.11660E-06
 -1     10261 6.39699E-05-7.02657E-06 1.11660E-06
 -1     10262 6.39890E-05-7.94235E-06-1.11693E-06
 -1     10264 6.39890E-05-7.94235E-06 1.11693E-06
 -1     10265 6.39912E-05-7.76360E-06-1.11697E-06
 -1     10267 6.39912E-05-7.76360E-06 1.11697E-06
 -1     10268 1.48584E-04-9.28822E-07-2.59355E-06
 -1     10270 1.48584E-04-9.28822E-07 2.59355E-06
 -1     10271 1.49020E-04-1.62122E-06-2.60115E-06
 -1     10273 1.49020E-04-1.62122E-06 2.60115E-06
 -1     10274 1.49288E-04-2.31975E-06-2.60584E-06
 -1     10276 1.49288E-04-2.31975E-06 2.60584E-06
 -1     10277 9.92214E-05-6.14597E-07-1.73192E-06
 -1     10279 9.92214E-05-6.14597E-07 1.73192E-06
 -1     10280 6.42911E-05-8.39180E-06-1.12221E-06
 -1     10282 6.42911E-05-8.39180E-06 1.12221E-06
 -1     10283 6.41626E-05-8.05571E-06-1.11996E-06
 -1     10285 6.41626E-05-8.05571E-06 1.11996E-06
 -1     10286 6.41519E-05-7.30220E-06-1.11978E-06
 -1     10288 6.41519E-05-7.30220E-06 1.11978E-06
 -1     10289 6.41437E-05-6.57648E-06-1.11963E-06
 -1     10291 6.41437E-05-6.57648E-06 1.11963E-06
 -1     10292 6.41488E-05-5.86502E-06-1.11972E-06
 -1     10294 6.41488E-05-5.86502E-06 1.11972E-06
 -1     10295 6.41509E-05-5.15521E-06-1.11976E-06
 -1     10297 6.41509E-05-5.15521E-06 1.11976E-06
 -1     10298 6.41511E-05-4.44369E-06-1.11976E-06
 -1     10300 6.41511E-05-4.44369E-06 1.11976E-06
 -1     10301 6.44520E-05-6.62138E-07-1.12501E-06
 -1     10303 6.44520E-05-6.62138E-07 1.12501E-06
 -1     10304 6.54281E-05-5.82137E-07-1.14205E-06
 -1     10306 6.54281E-05-5.82137E-07 1.14205E-06
 -1     10307 6.65070E-05-6.13727E-07-1.16088E-06
 -1     10309 6.65070E-05-6.13727E-07 1.16088E-06
 -1     10310 6.41474E-05-2.32931E-06-1.11970E-06
 -1     10312 6.41474E-05-2.32931E-06 1.11970E-06
 -1     10313 6.78055E-05-6.25798E-07-1.18355E-06
 -1     10315 6.78055E-05-6.25798E-07 1.18355E-06
 -1     10316 6.93388E-05-6.22446E-07-1.21031E-06
 -1     10318 6.93388E-05-6.22446E-07 1.21031E-06
 -1     10319 7.11279E-05-6.18184E-07-1.24154E-06
 -1     10321 7.11279E-05-6.18184E-07 1.24154E-06
 -1     10322 7.32115E-05-6.16411E-07-1.27791E-06
 -1     10324 7.32115E-05-6.16411E-07 1.27791E-06
 -1     10325 6.41684E-05-7.67752E-06-1.12006E-06
 -1     10327 6.41684E-05-7.67752E-06 1.12006E-06
 -1     10328 6.41437E-05-6.93617E-06-1.11963E-06
 -1     10330 6.41437E-05-6.93617E-06 1.11963E-06
 -1     10331 6.41463E-05-6.22010E-06-1.11968E-06
 -1     10333 6.41463E-05-6.22010E-06 1.11968E-06
 -1     10334 6.41504E-05-5.51030E-06-1.11975E-06
 -1     10336 6.41504E-05-5.51030E-06 1.11975E-06
 -1     10337 1.49261E-04-3.02454E-06-2.60535E-06
 -1     10339 1.49261E-04-3.02454E-06 2.60535E-06
 -1     10340 6.41509E-05-4.79961E-06-1.11976E-06
 -1     10342 6.41509E-05-4.79961E-06 1.11976E-06
 -1     10343 6.41518E-05-4.08781E-06-1.11977E-06
 -1     10345 6.41518E-05-4.08781E-06 1.11977E-06
 -1     10346 6.41432E-05-1.98329E-06-1.11962E-06
 -1     10348 6.41432E-05-1.98329E-06 1.11962E-06
 -1     10349 6.49388E-05-6.08390E-07-1.13351E-06
 -1     10351 6.49388E-05-6.08390E-07 1.13351E-06
 -1     10352 6.59462E-05-5.92763E-07-1.15110E-06
 -1     10354 6.59462E-05-5.92763E-07 1.15110E-06
 -1     10355 6.71267E-05-6.23515E-07-1.17170E-06
 -1     10357 6.71267E-05-6.23515E-07 1.17170E-06
 -1     10358 6.85425E-05-6.24521E-07-1.19641E-06
 -1     10360 6.85425E-05-6.24521E-07 1.19641E-06
 -1     10361 7.01989E-05-6.20186E-07-1.22533E-06
 -1     10363 7.01989E-05-6.20186E-07 1.22533E-06
 -1     10364 7.21303E-05-6.17042E-07-1.25904E-06
 -1     10366 7.21303E-05-6.17042E-07 1.25904E-06
 -1     10367 7.43793E-05-6.16001E-07-1.29830E-06
 -1     10369 7.43793E-05-6.16001E-07 1.29830E-06
 -1     10370 7.70050E-05-6.15971E-07-1.34413E-06
 -1     10372 7.70050E-05-6.15971E-07 1.34413E-06
 -1     10373 8.00798E-05-6.16040E-07-1.39780E-06
 -1     10375 8.00798E-05-6.16040E-07 1.39780E-06
 -1     10376 8.36944E-05-6.15939E-07-1.46089E-06
 -1     10378 8.36944E-05-6.15939E-07 1.46089E-06
 -1     10379 1.02775E-04-6.14864E-07-1.79394E-06
 -1     10381 1.02775E-04-6.14864E-07 1.79394E-06
 -1     10382 1.48847E-04-1.27538E-06-2.59813E-06
 -1     10384 1.48847E-04-1.27538E-06 2.59813E-06
 -1     10385 1.49196E-04-1.96927E-06-2.60423E-06
 -1     10387 1.49196E-04-1.96927E-06 2.60423E-06
 -1     10388 1.49288E-04-2.67171E-06-2.60582E-06
 -1     10390 1.49288E-04-2.67171E-06 2.60582E-06
 -1     10391 1.49248E-04-3.37860E-06-2.60513E-06
 -1     10393 1.49248E-04-3.37860E-06 2.60513E-06
 -1     10394 1.49249E-04-3.73350E-06-2.60514E-06
 -1     10396 1.49249E-04-3.73350E-06 2.60514E-06
 -1     10397 1.49260E-04-4.44355E-06-2.60535E-06
 -1     10399 1.49260E-04-4.44355E-06 2.60535E-06
 -1     10400 1.49248E-04-5.15344E-06-2.60513E-06
 -1     10402 1.49248E-04-5.15344E-06 2.60513E-06
 -1     10403 7.56409E-05-6.16001E-07-1.32032E-06
 -1     10405 7.56409E-05-6.16001E-07 1.32032E-06
 -1     10406 7.84812E-05-6.15880E-07-1.36989E-06
 -1     10408 7.84812E-05-6.15880E-07 1.36989E-06
 -1     10409 8.18125E-05-6.16154E-07-1.42804E-06
 -1     10411 8.18125E-05-6.16154E-07 1.42804E-06
 -1     10412 8.57433E-05-6.15701E-07-1.49665E-06
 -1     10414 8.57433E-05-6.15701E-07 1.49665E-06
 -1     10415 6.43776E-05-8.18264E-06-1.12372E-06
 -1     10417 6.43776E-05-8.18264E-06 1.12372E-06
 -1     10418 9.04154E-05-6.15630E-07-1.57821E-06
 -1     10420 9.04154E-05-6.15630E-07 1.57821E-06
 -1     10421 8.79769E-05-6.15722E-07-1.53564E-06
 -1     10423 8.79769E-05-6.15722E-07 1.53564E-06
 -1     10424 6.41529E-05-3.73252E-06-1.11979E-06
 -1     10426 6.41529E-05-3.73252E-06 1.11979E-06
 -1     10427 6.41530E-05-3.02622E-06-1.11980E-06
 -1     10429 6.41530E-05-3.02622E-06 1.11980E-06
 -1     10430 6.41512E-05-2.67641E-06-1.11976E-06
 -1     10432 6.41512E-05-2.67641E-06 1.11976E-06
 -1     10433 6.41535E-05-3.37849E-06-1.11980E-06
 -1     10435 6.41535E-05-3.37849E-06 1.11980E-06
 -1     10436 9.23916E-05-7.69378E-07-1.61270E-06
 -1     10438 9.23916E-05-7.69378E-07 1.61270E-06
 -1     10439 9.37870E-05-7.69227E-07-1.63706E-06
 -1     10441 9.37870E-05-7.69227E-07 1.63706E-06
 -1     10442 6.43936E-05-7.99482E-06-1.12399E-06
 -1     10444 6.43936E-05-7.99482E-06 1.12399E-06
 -1     10445 7.53163E-05-7.69953E-07-1.31465E-06
 -1     10447 7.53163E-05-7.69953E-07 1.31465E-06
 -1     10448 7.59720E-05-7.70034E-07-1.32610E-06
 -1     10450 7.59720E-05-7.70034E-07 1.32610E-06
 -1     10451 1.44673E-04-1.19776E-06-2.52528E-06
 -1     10453 1.44673E-04-1.19776E-06 2.52528E-06
 -1     10454 1.44742E-04-1.37025E-06-2.52648E-06
 -1     10456 1.44742E-04-1.37025E-06 2.52648E-06
 -1     10457 1.45247E-04-5.06319E-06-2.53530E-06
 -1     10459 1.45247E-04-5.06319E-06 2.53530E-06
 -1     10460 1.45234E-04-5.24081E-06-2.53508E-06
 -1     10462 1.45234E-04-5.24081E-06 2.53508E-06
 -1     10463 1.45247E-04-4.35439E-06-2.53529E-06
 -1     10465 1.45247E-04-4.35439E-06 2.53529E-06
 -1     10466 1.45249E-04-4.53199E-06-2.53533E-06
 -1     10468 1.45249E-04-4.53199E-06 2.53533E-06
 -1     10469 1.45231E-04-3.64464E-06-2.53502E-06
 -1     10471 1.45231E-04-3.64464E-06 2.53502E-06
 -1     10472 1.45233E-04-3.82223E-06-2.53505E-06
 -1     10474 1.45233E-04-3.82223E-06 2.53505E-06
 -1     10475 6.43347E-05-4.88859E-06-1.12297E-06
 -1     10477 6.43347E-05-4.88859E-06 1.12297E-06
 -1     10478 6.43348E-05-4.71065E-06-1.12297E-06
 -1     10480 6.43348E-05-4.71065E-06 1.12297E-06
 -1     10481 9.83783E-05-7.68183E-07-1.71720E-06
 -1     10483 9.83783E-05-7.68183E-07 1.71720E-06
 -1     10484 1.00065E-04-7.67929E-07-1.74665E-06
 -1     10486 1.00065E-04-7.67929E-07 1.74665E-06
 -1     10487 1.45280E-04-2.58418E-06-2.53586E-06
 -1     10489 1.45280E-04-2.58418E-06 2.53586E-06
 -1     10490 1.45265E-04-2.76040E-06-2.53561E-06
 -1     10492 1.45265E-04-2.76040E-06 2.53561E-06
 -1     10493 1.45177E-04-1.88548E-06-2.53407E-06
 -1     10495 1.45177E-04-1.88548E-06 2.53407E-06
 -1     10496 1.45249E-04-2.06026E-06-2.53534E-06
 -1     10498 1.45249E-04-2.06026E-06 2.53534E-06
 -1     10499 1.44881E-04-1.53952E-06-2.52890E-06
 -1     10501 1.44881E-04-1.53952E-06 2.52890E-06
 -1     10502 1.44974E-04-1.71295E-06-2.53053E-06
 -1     10504 1.44974E-04-1.71295E-06 2.53053E-06
 -1     10505 1.41277E-04-1.80397E-06-2.46599E-06
 -1     10507 1.41277E-04-1.80397E-06 2.46599E-06
 -1     10508 1.40956E-04-1.46200E-06-2.46039E-06
 -1     10510 1.40956E-04-1.46200E-06 2.46039E-06
 -1     10511 1.45237E-04-3.99966E-06-2.53512E-06
 -1     10513 1.45237E-04-3.99966E-06 2.53512E-06
 -1     10514 1.45241E-04-4.17722E-06-2.53518E-06
 -1     10516 1.45241E-04-4.17722E-06 2.53518E-06
 -1     10517 1.41471E-04-4.26560E-06-2.46938E-06
 -1     10519 1.41471E-04-4.26560E-06 2.46938E-06
 -1     10520 1.41461E-04-3.91087E-06-2.46921E-06
 -1     10522 1.41461E-04-3.91087E-06 2.46921E-06
 -1     10523 1.44621E-04-6.85538E-06-2.52438E-06
 -1     10525 1.44621E-04-6.85538E-06 2.52438E-06
 -1     10526 1.44582E-04-7.03900E-06-2.52368E-06
 -1     10528 1.44582E-04-7.03900E-06 2.52368E-06
 -1     10529 1.45206E-04-5.41812E-06-2.53458E-06
 -1     10531 1.45206E-04-5.41812E-06 2.53458E-06
 -1     10532 1.45175E-04-5.59623E-06-2.53404E-06
 -1     10534 1.45175E-04-5.59623E-06 2.53404E-06
 -1     10535 1.41448E-04-5.32794E-06-2.46898E-06
 -1     10537 1.41448E-04-5.32794E-06 2.46898E-06
 -1     10538 6.43376E-05-3.82023E-06-1.12302E-06
 -1     10540 6.43376E-05-3.82023E-06 1.12302E-06
 -1     10541 6.43381E-05-3.64283E-06-1.12303E-06
 -1     10543 6.43381E-05-3.64283E-06 1.12303E-06
 -1     10544 8.73999E-05-7.69627E-07-1.52557E-06
 -1     10546 8.73999E-05-7.69627E-07 1.52557E-06
 -1     10547 8.85663E-05-7.69696E-07-1.54593E-06
 -1     10549 8.85663E-05-7.69696E-07 1.54593E-06
 -1     10550 1.01834E-04-7.67531E-07-1.77752E-06
 -1     10552 1.01834E-04-7.67531E-07 1.77752E-06
 -1     10553 1.03704E-04-7.68051E-07-1.81016E-06
 -1     10555 1.03704E-04-7.68051E-07 1.81016E-06
 -1     10556 1.00927E-04-9.21117E-07-1.76168E-06
 -1     10558 1.00927E-04-9.21117E-07 1.76168E-06
 -1     10559 8.32092E-05-7.70018E-07-1.45242E-06
 -1     10561 8.32092E-05-7.70018E-07 1.45242E-06
 -1     10562 8.41906E-05-7.69828E-07-1.46955E-06
 -1     10564 8.41906E-05-7.69828E-07 1.46955E-06
 -1     10565 7.96678E-05-7.69999E-07-1.39061E-06
 -1     10567 7.96678E-05-7.69999E-07 1.39061E-06
 -1     10568 8.04996E-05-7.70138E-07-1.40513E-06
 -1     10570 8.04996E-05-7.70138E-07 1.40513E-06
 -1     10571 7.66538E-05-7.70036E-07-1.33800E-06
 -1     10573 7.66538E-05-7.70036E-07 1.33800E-06
 -1     10574 7.73631E-05-7.69925E-07-1.35038E-06
 -1     10576 7.73631E-05-7.69925E-07 1.35038E-06
 -1     10577 7.63095E-05-9.23988E-07-1.33199E-06
 -1     10579 7.63095E-05-9.23988E-07 1.33199E-06
 -1     10580 7.29333E-05-7.70597E-07-1.27305E-06
 -1     10582 7.29333E-05-7.70597E-07 1.27305E-06
 -1     10583 7.34950E-05-7.70269E-07-1.28286E-06
 -1     10585 7.34950E-05-7.70269E-07 1.28286E-06
 -1     10586 7.08876E-05-7.73015E-07-1.23735E-06
 -1     10588 7.08876E-05-7.73015E-07 1.23735E-06
 -1     10589 7.13703E-05-7.72176E-07-1.24577E-06
 -1     10591 7.13703E-05-7.72176E-07 1.24577E-06
 -1     10592 6.91297E-05-7.78891E-07-1.20666E-06
 -1     10594 6.91297E-05-7.78891E-07 1.20666E-06
 -1     10595 6.95434E-05-7.77795E-07-1.21388E-06
 -1     10597 6.95434E-05-7.77795E-07 1.21388E-06
 -1     10598 6.43338E-05-2.41830E-06-1.12295E-06
 -1     10600 6.43338E-05-2.41830E-06 1.12295E-06
 -1     10601 6.43313E-05-2.24538E-06-1.12291E-06
 -1     10603 6.43313E-05-2.24538E-06 1.12291E-06
 -1     10604 6.69536E-05-7.80769E-07-1.16868E-06
 -1     10606 6.69536E-05-7.80769E-07 1.16868E-06
 -1     10607 6.72779E-05-7.83350E-07-1.17434E-06
 -1     10609 6.72779E-05-7.83350E-07 1.17434E-06
 -1     10610 6.57972E-05-7.39069E-07-1.14850E-06
 -1     10612 6.57972E-05-7.39069E-07 1.14850E-06
 -1     10613 6.60625E-05-7.52826E-07-1.15312E-06
 -1     10615 6.60625E-05-7.52826E-07 1.15312E-06
 -1     10616 1.44732E-04-7.60870E-06-2.52631E-06
 -1     10618 1.44732E-04-7.60870E-06 2.52631E-06
 -1     10619 1.44734E-04-7.80074E-06-2.52634E-06
 -1     10621 1.44734E-04-7.80074E-06 2.52634E-06
 -1     10622 1.43873E-04-6.70529E-07-2.51132E-06
 -1     10624 1.43873E-04-6.70529E-07 2.51132E-06
 -1     10625 6.43194E-05-1.73605E-06-1.12270E-06
 -1     10627 6.43194E-05-1.73605E-06 1.12270E-06
 -1     10628 6.43232E-05-1.56048E-06-1.12277E-06
 -1     10630 6.43232E-05-1.56048E-06 1.12277E-06
 -1     10631 6.76216E-05-7.83762E-07-1.18034E-06
 -1     10633 6.76216E-05-7.83762E-07 1.18034E-06
 -1     10634 6.79757E-05-7.83464E-07-1.18652E-06
 -1     10636 6.79757E-05-7.83464E-07 1.18652E-06
 -1     10637 6.74382E-05-9.41015E-07-1.17714E-06
 -1     10639 6.74382E-05-9.41015E-07 1.17714E-06
 -1     10640 6.43391E-05-3.46577E-06-1.12304E-06
 -1     10642 6.43391E-05-3.46577E-06 1.12304E-06
 -1     10643 6.43391E-05-3.28914E-06-1.12304E-06
 -1     10645 6.43391E-05-3.28914E-06 1.12304E-06
 -1     10646 6.45308E-05-3.55348E-06-1.12639E-06
 -1     10648 6.45308E-05-3.55348E-06 1.12639E-06
 -1     10649 6.43392E-05-3.11343E-06-1.12304E-06
 -1     10651 6.43392E-05-3.11343E-06 1.12304E-06
 -1     10652 6.43386E-05-2.93778E-06-1.12303E-06
 -1     10654 6.43386E-05-2.93778E-06 1.12303E-06
 -1     10655 6.45319E-05-3.20070E-06-1.12641E-06
 -1     10657 6.45319E-05-3.20070E-06 1.12641E-06
 -1     10658 6.43254E-05-2.07730E-06-1.12280E-06
 -1     10660 6.43254E-05-2.07730E-06 1.12280E-06
 -1     10661 6.43236E-05-1.90420E-06-1.12277E-06
 -1     10663 6.43236E-05-1.90420E-06 1.12277E-06
 -1     10664 6.45188E-05-2.16628E-06-1.12618E-06
 -1     10666 6.45188E-05-2.16628E-06 1.12618E-06
 -1     10667 6.43922E-05-8.32604E-07-1.12397E-06
 -1     10669 6.43922E-05-8.32604E-07 1.12397E-06
 -1     10670 6.46436E-05-8.01982E-07-1.12836E-06
 -1     10672 6.46436E-05-8.01982E-07 1.12836E-06
 -1     10673 6.43730E-05-1.03479E-06-1.12364E-06
 -1     10675 6.43730E-05-1.03479E-06 1.12364E-06
 -1     10676 6.43347E-05-4.53241E-06-1.12297E-06
 -1     10678 6.43347E-05-4.53241E-06 1.12297E-06
 -1     10679 6.43349E-05-4.35443E-06-1.12297E-06
 -1     10681 6.43349E-05-4.35443E-06 1.12297E-06
 -1     10682 6.45256E-05-4.62139E-06-1.12630E-06
 -1     10684 6.45256E-05-4.62139E-06 1.12630E-06
 -1     10685 1.45243E-04-2.93609E-06-2.53522E-06
 -1     10687 1.45243E-04-2.93609E-06 2.53522E-06
 -1     10688 1.45232E-04-3.11283E-06-2.53504E-06
 -1     10690 1.45232E-04-3.11283E-06 2.53504E-06
 -1     10691 1.41477E-04-2.84861E-06-2.46950E-06
 -1     10693 1.41477E-04-2.84861E-06 2.46950E-06
 -1     10694 6.43347E-05-5.59916E-06-1.12297E-06
 -1     10696 6.43347E-05-5.59916E-06 1.12297E-06
 -1     10697 6.43352E-05-5.42175E-06-1.12297E-06
 -1     10699 6.43352E-05-5.42175E-06 1.12297E-06
 -1     10700 6.43279E-05-6.30791E-06-1.12285E-06
 -1     10702 6.43279E-05-6.30791E-06 1.12285E-06
 -1     10703 6.43294E-05-6.13014E-06-1.12287E-06
 -1     10705 6.43294E-05-6.13014E-06 1.12287E-06
 -1     10706 6.43218E-05-7.02351E-06-1.12274E-06
 -1     10708 6.43218E-05-7.02351E-06 1.12274E-06
 -1     10709 6.43206E-05-6.84244E-06-1.12272E-06
 -1     10711 6.43206E-05-6.84244E-06 1.12272E-06
 -1     10712 1.44537E-04-8.53731E-07-2.52290E-06
 -1     10714 1.44537E-04-8.53731E-07 2.52290E-06
 -1     10715 1.44714E-04-1.02816E-06-2.52599E-06
 -1     10717 1.44714E-04-1.02816E-06 2.52599E-06
 -1     10718 1.40864E-04-1.12286E-06-2.45878E-06
 -1     10720 1.40864E-04-1.12286E-06 2.45878E-06
 -1     10721 1.40277E-04-7.70022E-07-2.44854E-06
 -1     10723 1.40277E-04-7.70022E-07 2.44854E-06
 -1     10724 1.45112E-04-5.77414E-06-2.53295E-06
 -1     10726 1.45112E-04-5.77414E-06 2.53295E-06
 -1     10727 1.45057E-04-5.95276E-06-2.53198E-06
 -1     10729 1.45057E-04-5.95276E-06 2.53198E-06
 -1     10730 1.41362E-04-5.68330E-06-2.46748E-06
 -1     10732 1.41362E-04-5.68330E-06 2.46748E-06
 -1     10733 1.44527E-04-7.22903E-06-2.52273E-06
 -1     10735 1.44527E-04-7.22903E-06 2.52273E-06
 -1     10736 1.44542E-04-7.41586E-06-2.52299E-06
 -1     10738 1.44542E-04-7.41586E-06 2.52299E-06
 -1     10739 1.40809E-04-7.51996E-06-2.45784E-06
 -1     10741 1.40809E-04-7.51996E-06 2.45784E-06
 -1     10742 1.40682E-04-7.13690E-06-2.45562E-06
 -1     10744 1.40682E-04-7.13690E-06 2.45562E-06
 -1     10745 1.44374E-04-8.02266E-06-2.52005E-06
 -1     10747 1.44374E-04-8.02266E-06 2.52005E-06
 -1     10748 1.37510E-04-8.03041E-06-2.40025E-06
 -1     10750 1.37510E-04-8.03041E-06 2.40025E-06
 -1     10751 1.33272E-04-8.06186E-06-2.32626E-06
 -1     10753 1.33272E-04-8.06186E-06 2.32626E-06
 -1     10754 1.30061E-04-8.05809E-06-2.27023E-06
 -1     10756 1.30061E-04-8.05809E-06 2.27023E-06
 -1     10757 1.26710E-04-8.06255E-06-2.21173E-06
 -1     10759 1.26710E-04-8.06255E-06 2.21173E-06
 -1     10760 1.31536E-04-7.90010E-06-2.29597E-06
 -1     10762 1.31536E-04-7.90010E-06 2.29597E-06
 -1     10763 1.23599E-04-8.06899E-06-2.15743E-06
 -1     10765 1.23599E-04-8.06899E-06 2.15743E-06
 -1     10766 1.20652E-04-8.07250E-06-2.10600E-06
 -1     10768 1.20652E-04-8.07250E-06 2.10600E-06
 -1     10769 1.25211E-04-7.90266E-06-2.18556E-06
 -1     10771 1.25211E-04-7.90266E-06 2.18556E-06
 -1     10772 1.17884E-04-8.07624E-06-2.05768E-06
 -1     10774 1.17884E-04-8.07624E-06 2.05768E-06
 -1     10775 1.15266E-04-8.07851E-06-2.01198E-06
 -1     10777 1.15266E-04-8.07851E-06 2.01198E-06
 -1     10778 1.19333E-04-7.91287E-06-2.08296E-06
 -1     10780 1.19333E-04-7.91287E-06 2.08296E-06
 -1     10781 1.12788E-04-8.08162E-06-1.96873E-06
 -1     10783 1.12788E-04-8.08162E-06 1.96873E-06
 -1     10784 1.10449E-04-8.08310E-06-1.92789E-06
 -1     10786 1.10449E-04-8.08310E-06 1.92789E-06
 -1     10787 1.14086E-04-7.91973E-06-1.99137E-06
 -1     10789 1.14086E-04-7.91973E-06 1.99137E-06
 -1     10790 1.08228E-04-8.08528E-06-1.88912E-06
 -1     10792 1.08228E-04-8.08528E-06 1.88912E-06
 -1     10793 1.06128E-04-8.08635E-06-1.85248E-06
 -1     10795 1.06128E-04-8.08635E-06 1.85248E-06
 -1     10796 1.09386E-04-7.92503E-06-1.90934E-06
 -1     10798 1.09386E-04-7.92503E-06 1.90934E-06
 -1     10799 1.04133E-04-8.08751E-06-1.81764E-06
 -1     10801 1.04133E-04-8.08751E-06 1.81764E-06
 -1     10802 1.02242E-04-8.08798E-06-1.78464E-06
 -1     10804 1.02242E-04-8.08798E-06 1.78464E-06
 -1     10805 1.05170E-04-7.92837E-06-1.83574E-06
 -1     10807 1.05170E-04-7.92837E-06 1.83574E-06
 -1     10808 1.00443E-04-8.08824E-06-1.75324E-06
 -1     10810 1.00443E-04-8.08824E-06 1.75324E-06
 -1     10811 9.87345E-05-8.08820E-06-1.72342E-06
 -1     10813 9.87345E-05-8.08820E-06 1.72342E-06
 -1     10814 1.01376E-04-7.92981E-06-1.76952E-06
 -1     10816 1.01376E-04-7.92981E-06 1.76952E-06
 -1     10817 9.71077E-05-8.08797E-06-1.69502E-06
 -1     10819 9.71077E-05-8.08797E-06 1.69502E-06
 -1     10820 9.55583E-05-8.08792E-06-1.66798E-06
 -1     10822 9.55583E-05-8.08792E-06 1.66798E-06
 -1     10823 9.79504E-05-7.92986E-06-1.70973E-06
 -1     10825 9.79504E-05-7.92986E-06 1.70973E-06
 -1     10826 9.40813E-05-8.08753E-06-1.64220E-06
 -1     10828 9.40813E-05-8.08753E-06 1.64220E-06
 -1     10829 9.26713E-05-8.08735E-06-1.61758E-06
 -1     10831 9.26713E-05-8.08735E-06 1.61758E-06
 -1     10832 9.48465E-05-7.92925E-06-1.65555E-06
 -1     10834 9.48465E-05-7.92925E-06 1.65555E-06
 -1     10835 9.13257E-05-8.08696E-06-1.59410E-06
 -1     10837 9.13257E-05-8.08696E-06 1.59410E-06
 -1     10838 9.00392E-05-8.08669E-06-1.57164E-06
 -1     10840 9.00392E-05-8.08669E-06 1.57164E-06
 -1     10841 9.20238E-05-7.92848E-06-1.60628E-06
 -1     10843 9.20238E-05-7.92848E-06 1.60628E-06
 -1     10844 8.88097E-05-8.08644E-06-1.55018E-06
 -1     10846 8.88097E-05-8.08644E-06 1.55018E-06
 -1     10847 8.76332E-05-8.08642E-06-1.52964E-06
 -1     10849 8.76332E-05-8.08642E-06 1.52964E-06
 -1     10850 8.94484E-05-7.92785E-06-1.56133E-06
 -1     10852 8.94484E-05-7.92785E-06 1.56133E-06
 -1     10853 8.65074E-05-8.08629E-06-1.50999E-06
 -1     10855 8.65074E-05-8.08629E-06 1.50999E-06
 -1     10856 8.54289E-05-8.08623E-06-1.49117E-06
 -1     10858 8.54289E-05-8.08623E-06 1.49117E-06
 -1     10859 8.70927E-05-7.92747E-06-1.52021E-06
 -1     10861 8.70927E-05-7.92747E-06 1.52021E-06
 -1     10862 8.43960E-05-8.08612E-06-1.47314E-06
 -1     10864 8.43960E-05-8.08612E-06 1.47314E-06
 -1     10865 8.34061E-05-8.08595E-06-1.45586E-06
 -1     10867 8.34061E-05-8.08595E-06 1.45586E-06
 -1     10868 8.49336E-05-7.92724E-06-1.48252E-06
 -1     10870 8.49336E-05-7.92724E-06 1.48252E-06
 -1     10871 8.24569E-05-8.08588E-06-1.43929E-06
 -1     10873 8.24569E-05-8.08588E-06 1.43929E-06
 -1     10874 8.15470E-05-8.08588E-06-1.42341E-06
 -1     10876 8.15470E-05-8.08588E-06 1.42341E-06
 -1     10877 8.29510E-05-7.92707E-06-1.44792E-06
 -1     10879 8.29510E-05-7.92707E-06 1.44792E-06
 -1     10880 8.06730E-05-8.08592E-06-1.40815E-06
 -1     10882 8.06730E-05-8.08592E-06 1.40815E-06
 -1     10883 7.98342E-05-8.08608E-06-1.39351E-06
 -1     10885 7.98342E-05-8.08608E-06 1.39351E-06
 -1     10886 8.11273E-05-7.92706E-06-1.41608E-06
 -1     10888 8.11273E-05-7.92706E-06 1.41608E-06
 -1     10889 7.90282E-05-8.08616E-06-1.37944E-06
 -1     10891 7.90282E-05-8.08616E-06 1.37944E-06
 -1     10892 7.82538E-05-8.08621E-06-1.36593E-06
 -1     10894 7.82538E-05-8.08621E-06 1.36593E-06
 -1     10895 7.94469E-05-7.92719E-06-1.38675E-06
 -1     10897 7.94469E-05-7.92719E-06 1.38675E-06
 -1     10898 7.75098E-05-8.08625E-06-1.35294E-06
 -1     10900 7.75098E-05-8.08625E-06 1.35294E-06
 -1     10901 7.67947E-05-8.08619E-06-1.34046E-06
 -1     10903 7.67947E-05-8.08619E-06 1.34046E-06
 -1     10904 7.78964E-05-7.92732E-06-1.35969E-06
 -1     10906 7.78964E-05-7.92732E-06 1.35969E-06
 -1     10907 7.61073E-05-8.08624E-06-1.32846E-06
 -1     10909 7.61073E-05-8.08624E-06 1.32846E-06
 -1     10910 7.54465E-05-8.08638E-06-1.31692E-06
 -1     10912 7.54465E-05-8.08638E-06 1.31692E-06
 -1     10913 7.64645E-05-7.92742E-06-1.33469E-06
 -1     10915 7.64645E-05-7.92742E-06 1.33469E-06
 -1     10916 7.48112E-05-8.08647E-06-1.30583E-06
 -1     10918 7.48112E-05-8.08647E-06 1.30583E-06
 -1     10919 7.42002E-05-8.08654E-06-1.29517E-06
 -1     10921 7.42002E-05-8.08654E-06 1.29517E-06
 -1     10922 7.51414E-05-7.92757E-06-1.31160E-06
 -1     10924 7.51414E-05-7.92757E-06 1.31160E-06
 -1     10925 7.36129E-05-8.08662E-06-1.28492E-06
 -1     10927 7.36129E-05-8.08662E-06 1.28492E-06
 -1     10928 7.30479E-05-8.08658E-06-1.27506E-06
 -1     10930 7.30479E-05-8.08658E-06 1.27506E-06
 -1     10931 7.39184E-05-7.92775E-06-1.29025E-06
 -1     10933 7.39184E-05-7.92775E-06 1.29025E-06
 -1     10934 7.25048E-05-8.08669E-06-1.26558E-06
 -1     10936 7.25048E-05-8.08669E-06 1.26558E-06
 -1     10937 7.19823E-05-8.08686E-06-1.25646E-06
 -1     10939 7.19823E-05-8.08686E-06 1.25646E-06
 -1     10940 7.27876E-05-7.92793E-06-1.27051E-06
 -1     10942 7.27876E-05-7.92793E-06 1.27051E-06
 -1     10943 7.14802E-05-8.08700E-06-1.24769E-06
 -1     10945 7.14802E-05-8.08700E-06 1.24769E-06
 -1     10946 7.09968E-05-8.08712E-06-1.23925E-06
 -1     10948 7.09968E-05-8.08712E-06 1.23925E-06
 -1     10949 7.17420E-05-7.92817E-06-1.25226E-06
 -1     10951 7.17420E-05-7.92817E-06 1.25226E-06
 -1     10952 7.05328E-05-8.08725E-06-1.23115E-06
 -1     10954 7.05328E-05-8.08725E-06 1.23115E-06
 -1     10955 7.00856E-05-8.08725E-06-1.22335E-06
 -1     10957 7.00856E-05-8.08725E-06 1.22335E-06
 -1     10958 7.07756E-05-7.92843E-06-1.23539E-06
 -1     10960 7.07756E-05-7.92843E-06 1.23539E-06
 -1     10961 6.96571E-05-8.08740E-06-1.21587E-06
 -1     10963 6.96571E-05-8.08740E-06 1.21587E-06
 -1     10964 6.92435E-05-8.08753E-06-1.20865E-06
 -1     10966 6.92435E-05-8.08753E-06 1.20865E-06
 -1     10967 6.98826E-05-7.92871E-06-1.21981E-06
 -1     10969 6.98826E-05-7.92871E-06 1.21981E-06
 -1     10970 6.88479E-05-8.08757E-06-1.20174E-06
 -1     10972 6.88479E-05-8.08757E-06 1.20174E-06
 -1     10973 6.84651E-05-8.08735E-06-1.19506E-06
 -1     10975 6.84651E-05-8.08735E-06 1.19506E-06
 -1     10976 6.90579E-05-7.92890E-06-1.20541E-06
 -1     10978 6.90579E-05-7.92890E-06 1.20541E-06
 -1     10979 6.80998E-05-8.08674E-06-1.18869E-06
 -1     10981 6.80998E-05-8.08674E-06 1.18869E-06
 -1     10982 6.77455E-05-8.08573E-06-1.18250E-06
 -1     10984 6.77455E-05-8.08573E-06 1.18250E-06
 -1     10985 6.82962E-05-7.92834E-06-1.19211E-06
 -1     10987 6.82962E-05-7.92834E-06 1.19211E-06
 -1     10988 6.74081E-05-8.08384E-06-1.17661E-06
 -1     10990 6.74081E-05-8.08384E-06 1.17661E-06
 -1     10991 6.70798E-05-8.08186E-06-1.17088E-06
 -1     10993 6.70798E-05-8.08186E-06 1.17088E-06
 -1     10994 6.75926E-05-7.92584E-06-1.17983E-06
 -1     10996 6.75926E-05-7.92584E-06 1.17983E-06
 -1     10997 6.67683E-05-8.07809E-06-1.16544E-06
 -1     10999 6.67683E-05-8.07809E-06 1.16544E-06
 -1     11000 6.64628E-05-8.07407E-06-1.16011E-06
 -1     11002 6.64628E-05-8.07407E-06 1.16011E-06
 -1     11003 6.69425E-05-7.92018E-06-1.16849E-06
 -1     11005 6.69425E-05-7.92018E-06 1.16849E-06
 -1     11006 6.61742E-05-8.06742E-06-1.15508E-06
 -1     11008 6.61742E-05-8.06742E-06 1.15508E-06
 -1     11009 6.58876E-05-8.05947E-06-1.15007E-06
 -1     11011 6.58876E-05-8.05947E-06 1.15007E-06
 -1     11012 6.63410E-05-7.90976E-06-1.15799E-06
 -1     11014 6.63410E-05-7.90976E-06 1.15799E-06
 -1     11015 6.56182E-05-8.04691E-06-1.14537E-06
 -1     11017 6.56182E-05-8.04691E-06 1.14537E-06
 -1     11018 6.53434E-05-8.03106E-06-1.14057E-06
 -1     11020 6.53434E-05-8.03106E-06 1.14057E-06
 -1     11021 6.57810E-05-7.89054E-06-1.14821E-06
 -1     11023 6.57810E-05-7.89054E-06 1.14821E-06
 -1     11024 6.50883E-05-8.00101E-06-1.13612E-06
 -1     11026 6.50883E-05-8.00101E-06 1.13612E-06
 -1     11027 6.48073E-05-7.96982E-06-1.13122E-06
 -1     11029 6.48073E-05-7.96982E-06 1.13122E-06
 -1     11030 6.52537E-05-7.84794E-06-1.13901E-06
 -1     11032 6.52537E-05-7.84794E-06 1.13901E-06
 -1     11033 9.52460E-05-7.68938E-07-1.66253E-06
 -1     11035 9.52460E-05-7.68938E-07 1.66253E-06
 -1     11036 9.67771E-05-7.68777E-07-1.68925E-06
 -1     11038 9.67771E-05-7.68777E-07 1.68925E-06
 -1     11039 9.75617E-05-9.22111E-07-1.70295E-06
 -1     11041 9.75617E-05-9.22111E-07 1.70295E-06
 -1     11042 9.45051E-05-9.22996E-07-1.64959E-06
 -1     11044 9.45051E-05-9.22996E-07 1.64959E-06
 -1     11045 1.44937E-04-6.13156E-06-2.52989E-06
 -1     11047 1.44937E-04-6.13156E-06 2.52989E-06
 -1     11048 1.44867E-04-6.31085E-06-2.52866E-06
 -1     11050 1.44867E-04-6.31085E-06 2.52866E-06
 -1     11051 1.41191E-04-6.04015E-06-2.46449E-06
 -1     11053 1.41191E-04-6.04015E-06 2.46449E-06
 -1     11054 6.48679E-05-7.67218E-07-1.13227E-06
 -1     11056 6.48679E-05-7.67218E-07 1.13227E-06
 -1     11057 6.51071E-05-7.44090E-07-1.13645E-06
 -1     11059 6.51071E-05-7.44090E-07 1.13645E-06
 -1     11060 6.48033E-05-9.37686E-07-1.13115E-06
 -1     11062 6.48033E-05-9.37686E-07 1.13115E-06
 -1     11063 6.43334E-05-1.38875E-06-1.12294E-06
 -1     11065 6.43334E-05-1.38875E-06 1.12294E-06
 -1     11066 6.43458E-05-1.20779E-06-1.12316E-06
 -1     11068 6.43458E-05-1.20779E-06 1.12316E-06
 -1     11069 6.45533E-05-1.14545E-06-1.12678E-06
 -1     11071 6.45533E-05-1.14545E-06 1.12678E-06
 -1     11072 6.45145E-05-1.49019E-06-1.12611E-06
 -1     11074 6.45145E-05-1.49019E-06 1.12611E-06
 -1     11075 6.45844E-05-7.90029E-06-1.12733E-06
 -1     11077 6.45844E-05-7.90029E-06 1.12733E-06
 -1     11078 6.43606E-05-7.77336E-06-1.12342E-06
 -1     11080 6.43606E-05-7.77336E-06 1.12342E-06
 -1     11081 6.43507E-05-7.58299E-06-1.12325E-06
 -1     11083 6.43507E-05-7.58299E-06 1.12325E-06
 -1     11084 6.47716E-05-7.74836E-06-1.13059E-06
 -1     11086 6.47716E-05-7.74836E-06 1.13059E-06
 -1     11087 7.04221E-05-7.74547E-07-1.22922E-06
 -1     11089 7.04221E-05-7.74547E-07 1.22922E-06
 -1     11090 7.06507E-05-9.28539E-07-1.23321E-06
 -1     11092 7.06507E-05-9.28539E-07 1.23321E-06
 -1     11093 6.99754E-05-7.75711E-07-1.22142E-06
 -1     11095 6.99754E-05-7.75711E-07 1.22142E-06
 -1     11096 1.45253E-04-4.70894E-06-2.53540E-06
 -1     11098 1.45253E-04-4.70894E-06 2.53540E-06
 -1     11099 1.45252E-04-4.88642E-06-2.53539E-06
 -1     11101 1.45252E-04-4.88642E-06 2.53539E-06
 -1     11102 1.40649E-04-7.93473E-06-2.45504E-06
 -1     11104 1.40649E-04-7.93473E-06 2.45504E-06
 -1     11105 1.45230E-04-3.28987E-06-2.53500E-06
 -1     11107 1.45230E-04-3.28987E-06 2.53500E-06
 -1     11108 1.45229E-04-3.46731E-06-2.53498E-06
 -1     11110 1.45229E-04-3.46731E-06 2.53498E-06
 -1     11111 1.45308E-04-2.23431E-06-2.53635E-06
 -1     11113 1.45308E-04-2.23431E-06 2.53635E-06
 -1     11114 1.45322E-04-2.41023E-06-2.53660E-06
 -1     11116 1.45322E-04-2.41023E-06 2.53660E-06
 -1     11117 1.41538E-04-2.49880E-06-2.47055E-06
 -1     11119 1.41538E-04-2.49880E-06 2.47055E-06
 -1     11120 1.20337E-04-7.89919E-07-2.10049E-06
 -1     11122 1.20337E-04-7.89919E-07 2.10049E-06
 -1     11123 1.23270E-04-7.83624E-07-2.15168E-06
 -1     11125 1.23270E-04-7.83624E-07 2.15168E-06
 -1     11126 1.05673E-04-7.69198E-07-1.84453E-06
 -1     11128 1.05673E-04-7.69198E-07 1.84453E-06
 -1     11129 1.07757E-04-7.71166E-07-1.88091E-06
 -1     11131 1.07757E-04-7.71166E-07 1.88091E-06
 -1     11132 1.04658E-04-9.21866E-07-1.82681E-06
 -1     11134 1.04658E-04-9.21866E-07 1.82681E-06
 -1     11135 1.09974E-04-7.75379E-07-1.91961E-06
 -1     11137 1.09974E-04-7.75379E-07 1.91961E-06
 -1     11138 1.12308E-04-7.78298E-07-1.96035E-06
 -1     11140 1.12308E-04-7.78298E-07 1.96035E-06
 -1     11141 1.08835E-04-9.27232E-07-1.89973E-06
 -1     11143 1.08835E-04-9.27232E-07 1.89973E-06
 -1     11144 8.97849E-05-7.69659E-07-1.56720E-06
 -1     11146 8.97849E-05-7.69659E-07 1.56720E-06
 -1     11147 9.10593E-05-7.69496E-07-1.58945E-06
 -1     11149 9.10593E-05-7.69496E-07 1.58945E-06
 -1     11150 1.41455E-04-3.55598E-06-2.46910E-06
 -1     11152 1.41455E-04-3.55598E-06 2.46910E-06
 -1     11153 8.22682E-05-7.70116E-07-1.43600E-06
 -1     11155 8.22682E-05-7.70116E-07 1.43600E-06
 -1     11156 8.27342E-05-9.24005E-07-1.44413E-06
 -1     11158 8.27342E-05-9.24005E-07 1.44413E-06
 -1     11159 8.13661E-05-7.70141E-07-1.42025E-06
 -1     11161 8.13661E-05-7.70141E-07 1.42025E-06
 -1     11162 8.52146E-05-7.69716E-07-1.48743E-06
 -1     11164 8.52146E-05-7.69716E-07 1.48743E-06
 -1     11165 8.62838E-05-7.69667E-07-1.50609E-06
 -1     11167 8.62838E-05-7.69667E-07 1.50609E-06
 -1     11168 8.09280E-05-9.24101E-07-1.41260E-06
 -1     11170 8.09280E-05-9.24101E-07 1.41260E-06
 -1     11171 8.68359E-05-9.23641E-07-1.51573E-06
 -1     11173 8.68359E-05-9.23641E-07 1.51573E-06
 -1     11174 7.81009E-05-7.69937E-07-1.36326E-06
 -1     11176 7.81009E-05-7.69937E-07 1.36326E-06
 -1     11177 7.88688E-05-7.69956E-07-1.37666E-06
 -1     11179 7.88688E-05-7.69956E-07 1.37666E-06
 -1     11180 7.23925E-05-7.70968E-07-1.26362E-06
 -1     11182 7.23925E-05-7.70968E-07 1.26362E-06
 -1     11183 7.26599E-05-9.24827E-07-1.26828E-06
 -1     11185 7.26599E-05-9.24827E-07 1.26828E-06
 -1     11186 7.18724E-05-7.71272E-07-1.25454E-06
 -1     11188 7.18724E-05-7.71272E-07 1.25454E-06
 -1     11189 6.97539E-05-9.32156E-07-1.21756E-06
 -1     11191 6.97539E-05-9.32156E-07 1.21756E-06
 -1     11192 7.40790E-05-7.70053E-07-1.29305E-06
 -1     11194 7.40790E-05-7.70053E-07 1.29305E-06
 -1     11195 7.46857E-05-7.69971E-07-1.30364E-06
 -1     11197 7.46857E-05-7.69971E-07 1.30364E-06
 -1     11198 7.16177E-05-9.26103E-07-1.25009E-06
 -1     11200 7.16177E-05-9.26103E-07 1.25009E-06
 -1     11201 7.49978E-05-9.24005E-07-1.30909E-06
 -1     11203 7.49978E-05-9.24005E-07 1.30909E-06
 -1     11204 1.41479E-04-4.97373E-06-2.46953E-06
 -1     11206 1.41479E-04-4.97373E-06 2.46953E-06
 -1     11207 6.83472E-05-7.81862E-07-1.19300E-06
 -1     11209 6.83472E-05-7.81862E-07 1.19300E-06
 -1     11210 6.87299E-05-7.80883E-07-1.19968E-06
 -1     11212 6.87299E-05-7.80883E-07 1.19968E-06
 -1     11213 6.45083E-05-1.83006E-06-1.12600E-06
 -1     11215 6.45083E-05-1.83006E-06 1.12600E-06
 -1     11216 6.63432E-05-7.68269E-07-1.15803E-06
 -1     11218 6.63432E-05-7.68269E-07 1.15803E-06
 -1     11219 6.66380E-05-7.75478E-07-1.16317E-06
 -1     11221 6.66380E-05-7.75478E-07 1.16317E-06
 -1     11222 6.53156E-05-7.08347E-07-1.14009E-06
 -1     11224 6.53156E-05-7.08347E-07 1.14009E-06
 -1     11225 6.55683E-05-7.05219E-07-1.14450E-06
 -1     11227 6.55683E-05-7.05219E-07 1.14450E-06
 -1     11228 6.52401E-05-8.67178E-07-1.13877E-06
 -1     11230 6.52401E-05-8.67178E-07 1.13877E-06
 -1     11231 1.44670E-04-6.67239E-06-2.52523E-06
 -1     11233 1.44670E-04-6.67239E-06 2.52523E-06
 -1     11234 1.40779E-04-6.76382E-06-2.45731E-06
 -1     11236 1.40779E-04-6.76382E-06 2.45731E-06
 -1     11237 1.44732E-04-6.49165E-06-2.52631E-06
 -1     11239 1.44732E-04-6.49165E-06 2.52631E-06
 -1     11240 6.67803E-05-9.35312E-07-1.16565E-06
 -1     11242 6.67803E-05-9.35312E-07 1.16565E-06
 -1     11243 6.89228E-05-9.36232E-07-1.20305E-06
 -1     11245 6.89228E-05-9.36232E-07 1.20305E-06
 -1     11246 6.81522E-05-9.39825E-07-1.18960E-06
 -1     11248 6.81522E-05-9.39825E-07 1.18960E-06
 -1     11249 1.40952E-04-6.39987E-06-2.46032E-06
 -1     11251 1.40952E-04-6.39987E-06 2.46032E-06
 -1     11252 6.43375E-05-2.76407E-06-1.12302E-06
 -1     11254 6.43375E-05-2.76407E-06 1.12302E-06
 -1     11255 6.43362E-05-2.58990E-06-1.12299E-06
 -1     11257 6.43362E-05-2.58990E-06 1.12299E-06
 -1     11258 9.17168E-05-9.23406E-07-1.60092E-06
 -1     11260 9.17168E-05-9.23406E-07 1.60092E-06
 -1     11261 6.43357E-05-4.17610E-06-1.12298E-06
 -1     11263 6.43357E-05-4.17610E-06 1.12298E-06
 -1     11264 6.43363E-05-3.99822E-06-1.12299E-06
 -1     11266 6.43363E-05-3.99822E-06 1.12299E-06
 -1     11267 6.43351E-05-5.24425E-06-1.12297E-06
 -1     11269 6.43351E-05-5.24425E-06 1.12297E-06
 -1     11270 6.43350E-05-5.06657E-06-1.12297E-06
 -1     11272 6.43350E-05-5.06657E-06 1.12297E-06
 -1     11273 6.43323E-05-5.95341E-06-1.12292E-06
 -1     11275 6.43323E-05-5.95341E-06 1.12292E-06
 -1     11276 6.43334E-05-5.77610E-06-1.12294E-06
 -1     11278 6.43334E-05-5.77610E-06 1.12294E-06
 -1     11279 6.43240E-05-6.66422E-06-1.12278E-06
 -1     11281 6.43240E-05-6.66422E-06 1.12278E-06
 -1     11282 6.43252E-05-6.48560E-06-1.12280E-06
 -1     11284 6.43252E-05-6.48560E-06 1.12280E-06
 -1     11285 6.43322E-05-7.39097E-06-1.12292E-06
 -1     11287 6.43322E-05-7.39097E-06 1.12292E-06
 -1     11288 6.43249E-05-7.20601E-06-1.12280E-06
 -1     11290 6.43249E-05-7.20601E-06 1.12280E-06
 -1     11291 1.26413E-04-7.63692E-07-2.20655E-06
 -1     11293 1.26413E-04-7.63692E-07 2.20655E-06
 -1     11294 1.29692E-04-7.46723E-07-2.26378E-06
 -1     11296 1.29692E-04-7.46723E-07 2.26378E-06
 -1     11297 1.24993E-04-9.31218E-07-2.18177E-06
 -1     11299 1.24993E-04-9.31218E-07 2.18177E-06
 -1     11300 6.45085E-05-7.11228E-06-1.12600E-06
 -1     11302 6.45085E-05-7.11228E-06 1.12600E-06
 -1     11303 6.45151E-05-6.39565E-06-1.12612E-06
 -1     11305 6.45151E-05-6.39565E-06 1.12612E-06
 -1     11306 1.14824E-04-7.84915E-07-2.00426E-06
 -1     11308 1.14824E-04-7.84915E-07 2.00426E-06
 -1     11309 1.17450E-04-7.86632E-07-2.05010E-06
 -1     11311 1.17450E-04-7.86632E-07 2.05010E-06
 -1     11312 1.18953E-04-9.47999E-07-2.07633E-06
 -1     11314 1.18953E-04-9.47999E-07 2.07633E-06
 -1     11315 1.13558E-04-9.38079E-07-1.98217E-06
 -1     11317 1.13558E-04-9.38079E-07 1.98217E-06
 -1     11318 6.45309E-05-7.48680E-06-1.12639E-06
 -1     11320 6.45309E-05-7.48680E-06 1.12639E-06
 -1     11321 6.56782E-05-8.65283E-07-1.14642E-06
 -1     11323 6.56782E-05-8.65283E-07 1.14642E-06
 -1     11324 6.45272E-05-2.50596E-06-1.12633E-06
 -1     11326 6.45272E-05-2.50596E-06 1.12633E-06
 -1     11327 1.41480E-04-4.61986E-06-2.46955E-06
 -1     11329 1.41480E-04-4.61986E-06 2.46955E-06
 -1     11330 1.41522E-04-2.15066E-06-2.47028E-06
 -1     11332 1.41522E-04-2.15066E-06 2.47028E-06
 -1     11333 1.41455E-04-3.20148E-06-2.46910E-06
 -1     11335 1.41455E-04-3.20148E-06 2.46910E-06
 -1     11336 7.92638E-05-9.24055E-07-1.38355E-06
 -1     11338 7.92638E-05-9.24055E-07 1.38355E-06
 -1     11339 6.45286E-05-3.90853E-06-1.12635E-06
 -1     11341 6.45286E-05-3.90853E-06 1.12635E-06
 -1     11342 8.91684E-05-9.23563E-07-1.55644E-06
 -1     11344 8.91684E-05-9.23563E-07 1.55644E-06
 -1     11345 8.46976E-05-9.23795E-07-1.47840E-06
 -1     11347 8.46976E-05-9.23795E-07 1.47840E-06
 -1     11348 7.77281E-05-9.24001E-07-1.35675E-06
 -1     11350 7.77281E-05-9.24001E-07 1.35675E-06
 -1     11351 7.37840E-05-9.24240E-07-1.28790E-06
 -1     11353 7.37840E-05-9.24240E-07 1.28790E-06
 -1     11354 6.61858E-05-9.14577E-07-1.15528E-06
 -1     11356 6.61858E-05-9.14577E-07 1.15528E-06
 -1     11357 6.45088E-05-6.75156E-06-1.12601E-06
 -1     11359 6.45088E-05-6.75156E-06 1.12601E-06
 -1     11360 6.45209E-05-6.04122E-06-1.12622E-06
 -1     11362 6.45209E-05-6.04122E-06 1.12622E-06
 -1     11363 6.45264E-05-5.33310E-06-1.12631E-06
 -1     11365 6.45264E-05-5.33310E-06 1.12631E-06
 -1     11366 6.45308E-05-2.85127E-06-1.12639E-06
 -1     11368 6.45308E-05-2.85127E-06 1.12639E-06
 -1     11369 6.45264E-05-4.26483E-06-1.12631E-06
 -1     11371 6.45264E-05-4.26483E-06 1.12631E-06
 -1     11372 6.45259E-05-4.97762E-06-1.12630E-06
 -1     11374 6.45259E-05-4.97762E-06 1.12630E-06
 -1     11375 6.45252E-05-5.68754E-06-1.12629E-06
 -1     11377 6.45252E-05-5.68754E-06 1.12629E-06
 -1     11378 7.59722E-05-1.07803E-06-1.32610E-06
 -1     11380 7.59722E-05-1.07803E-06 1.32610E-06
 -1     11381 7.66540E-05-1.07803E-06-1.33800E-06
 -1     11383 7.66540E-05-1.07803E-06 1.33800E-06
 -1     11384 6.47270E-05-3.99613E-06-1.12981E-06
 -1     11386 6.47270E-05-3.99613E-06 1.12981E-06
 -1     11387 6.47284E-05-3.81815E-06-1.12984E-06
 -1     11389 6.47284E-05-3.81815E-06 1.12984E-06
 -1     11390 1.37938E-04-4.88366E-06-2.40772E-06
 -1     11392 1.37938E-04-4.88366E-06 2.40772E-06
 -1     11393 1.37934E-04-5.06056E-06-2.40765E-06
 -1     11395 1.37934E-04-5.06056E-06 2.40765E-06
 -1     11396 1.38076E-04-2.06744E-06-2.41012E-06
 -1     11398 1.38076E-04-2.06744E-06 2.41012E-06
 -1     11399 1.38128E-04-2.24171E-06-2.41102E-06
 -1     11401 1.38128E-04-2.24171E-06 2.41102E-06
 -1     11402 1.37831E-04-7.80790E-06-2.40585E-06
 -1     11404 1.37831E-04-7.80790E-06 2.40585E-06
 -1     11405 7.88683E-05-1.07814E-06-1.37665E-06
 -1     11407 7.88683E-05-1.07814E-06 1.37665E-06
 -1     11408 7.96673E-05-1.07819E-06-1.39060E-06
 -1     11410 7.96673E-05-1.07819E-06 1.39060E-06
 -1     11411 7.73631E-05-1.07808E-06-1.35038E-06
 -1     11413 7.73631E-05-1.07808E-06 1.35038E-06
 -1     11414 7.81008E-05-1.07809E-06-1.36326E-06
 -1     11416 7.81008E-05-1.07809E-06 1.36326E-06
 -1     11417 7.84807E-05-1.23222E-06-1.36989E-06
 -1     11419 7.84807E-05-1.23222E-06 1.36989E-06
 -1     11420 7.70051E-05-1.23213E-06-1.34413E-06
 -1     11422 7.70051E-05-1.23213E-06 1.34413E-06
 -1     11423 6.46930E-05-7.19516E-06-1.12922E-06
 -1     11425 6.46930E-05-7.19516E-06 1.12922E-06
 -1     11426 6.46896E-05-7.01266E-06-1.12916E-06
 -1     11428 6.46896E-05-7.01266E-06 1.12916E-06
 -1     11429 6.47336E-05-2.93577E-06-1.12993E-06
 -1     11431 6.47336E-05-2.93577E-06 1.12993E-06
 -1     11432 6.47324E-05-2.76206E-06-1.12991E-06
 -1     11434 6.47324E-05-2.76206E-06 1.12991E-06
 -1     11435 1.37897E-04-3.11263E-06-2.40701E-06
 -1     11437 1.37897E-04-3.11263E-06 2.40701E-06
 -1     11438 1.37895E-04-3.28978E-06-2.40697E-06
 -1     11440 1.37895E-04-3.28978E-06 2.40697E-06
 -1     11441 1.37998E-04-2.41168E-06-2.40877E-06
 -1     11443 1.37998E-04-2.41168E-06 2.40877E-06
 -1     11444 1.37961E-04-2.58576E-06-2.40812E-06
 -1     11446 1.37961E-04-2.58576E-06 2.40812E-06
 -1     11447 1.34747E-04-2.32848E-06-2.35202E-06
 -1     11449 1.34747E-04-2.32848E-06 2.35202E-06
 -1     11450 1.37922E-04-5.23616E-06-2.40744E-06
 -1     11452 1.37922E-04-5.23616E-06 2.40744E-06
 -1     11453 1.37897E-04-5.41360E-06-2.40700E-06
 -1     11455 1.37897E-04-5.41360E-06 2.40700E-06
 -1     11456 1.34584E-04-5.14615E-06-2.34917E-06
 -1     11458 1.34584E-04-5.14615E-06 2.34917E-06
 -1     11459 1.00035E-04-1.07440E-06-1.74612E-06
 -1     11461 1.00035E-04-1.07440E-06 1.74612E-06
 -1     11462 1.01803E-04-1.07400E-06-1.77697E-06
 -1     11464 1.01803E-04-1.07400E-06 1.77697E-06
 -1     11465 6.47247E-05-5.06690E-06-1.12977E-06
 -1     11467 6.47247E-05-5.06690E-06 1.12977E-06
 -1     11468 6.47244E-05-4.88891E-06-1.12977E-06
 -1     11470 6.47244E-05-4.88891E-06 1.12977E-06
 -1     11471 1.37677E-04-5.94532E-06-2.40316E-06
 -1     11473 1.37677E-04-5.94532E-06 2.40316E-06
 -1     11474 1.37571E-04-6.12427E-06-2.40131E-06
 -1     11476 1.37571E-04-6.12427E-06 2.40131E-06
 -1     11477 8.85656E-05-1.07753E-06-1.54592E-06
 -1     11479 8.85656E-05-1.07753E-06 1.54592E-06
 -1     11480 8.97842E-05-1.07749E-06-1.56719E-06
 -1     11482 8.97842E-05-1.07749E-06 1.56719E-06
 -1     11483 8.41909E-05-1.07786E-06-1.46956E-06
 -1     11485 8.41909E-05-1.07786E-06 1.46956E-06
 -1     11486 8.52149E-05-1.07774E-06-1.48743E-06
 -1     11488 8.52149E-05-1.07774E-06 1.48743E-06
 -1     11489 6.47248E-05-5.77666E-06-1.12978E-06
 -1     11491 6.47248E-05-5.77666E-06 1.12978E-06
 -1     11492 6.47261E-05-5.59973E-06-1.12980E-06
 -1     11494 6.47261E-05-5.59973E-06 1.12980E-06
 -1     11495 1.37901E-04-3.46730E-06-2.40707E-06
 -1     11497 1.37901E-04-3.46730E-06 2.40707E-06
 -1     11498 1.37903E-04-3.64475E-06-2.40711E-06
 -1     11500 1.37903E-04-3.64475E-06 2.40711E-06
 -1     11501 1.34547E-04-3.37851E-06-2.34853E-06
 -1     11503 1.34547E-04-3.37851E-06 2.34853E-06
 -1     11504 6.47223E-05-7.56741E-06-1.12973E-06
 -1     11506 6.47223E-05-7.56741E-06 1.12973E-06
 -1     11507 6.47024E-05-7.37538E-06-1.12939E-06
 -1     11509 6.47024E-05-7.37538E-06 1.12939E-06
 -1     11510 6.49509E-05-7.63693E-06-1.13372E-06
 -1     11512 6.49509E-05-7.63693E-06 1.13372E-06
 -1     11513 8.62837E-05-1.07761E-06-1.50609E-06
 -1     11515 8.62837E-05-1.07761E-06 1.50609E-06
 -1     11516 8.73998E-05-1.07757E-06-1.52557E-06
 -1     11518 8.73998E-05-1.07757E-06 1.52557E-06
 -1     11519 8.79762E-05-1.23150E-06-1.53563E-06
 -1     11521 8.79762E-05-1.23150E-06 1.53563E-06
 -1     11522 8.57435E-05-1.23167E-06-1.49666E-06
 -1     11524 8.57435E-05-1.23167E-06 1.49666E-06
 -1     11525 6.60054E-05-1.06803E-06-1.15213E-06
 -1     11527 6.60054E-05-1.06803E-06 1.15213E-06
 -1     11528 6.62839E-05-1.08348E-06-1.15699E-06
 -1     11530 6.62839E-05-1.08348E-06 1.15699E-06
 -1     11531 8.04991E-05-1.07819E-06-1.40512E-06
 -1     11533 8.04991E-05-1.07819E-06 1.40512E-06
 -1     11534 8.13656E-05-1.07819E-06-1.42024E-06
 -1     11536 8.13656E-05-1.07819E-06 1.42024E-06
 -1     11537 8.00788E-05-1.23228E-06-1.39778E-06
 -1     11539 8.00788E-05-1.23228E-06 1.39778E-06
 -1     11540 7.34950E-05-1.07836E-06-1.28286E-06
 -1     11542 7.34950E-05-1.07836E-06 1.28286E-06
 -1     11543 7.40790E-05-1.07814E-06-1.29305E-06
 -1     11545 7.40790E-05-1.07814E-06 1.29305E-06
 -1     11546 7.13687E-05-1.08071E-06-1.24575E-06
 -1     11548 7.13687E-05-1.08071E-06 1.24575E-06
 -1     11549 7.18707E-05-1.07981E-06-1.25451E-06
 -1     11551 7.18707E-05-1.07981E-06 1.25451E-06
 -1     11552 6.95365E-05-1.08875E-06-1.21376E-06
 -1     11554 6.95365E-05-1.08875E-06 1.21376E-06
 -1     11555 6.99682E-05-1.08666E-06-1.22130E-06
 -1     11557 6.99682E-05-1.08666E-06 1.22130E-06
 -1     11558 1.37023E-04-6.66838E-06-2.39174E-06
 -1     11560 1.37023E-04-6.66838E-06 2.39174E-06
 -1     11561 1.36980E-04-6.85137E-06-2.39099E-06
 -1     11563 1.36980E-04-6.85137E-06 2.39099E-06
 -1     11564 1.37368E-04-6.30379E-06-2.39777E-06
 -1     11566 1.37368E-04-6.30379E-06 2.39777E-06
 -1     11567 1.37250E-04-6.48471E-06-2.39570E-06
 -1     11569 1.37250E-04-6.48471E-06 2.39570E-06
 -1     11570 1.34071E-04-6.20894E-06-2.34022E-06
 -1     11572 1.34071E-04-6.20894E-06 2.34022E-06
 -1     11573 6.47020E-05-1.92305E-06-1.12938E-06
 -1     11575 6.47020E-05-1.92305E-06 1.12938E-06
 -1     11576 6.46975E-05-1.75491E-06-1.12930E-06
 -1     11578 6.46975E-05-1.75491E-06 1.12930E-06
 -1     11579 6.47019E-05-6.83934E-06-1.12938E-06
 -1     11581 6.47019E-05-6.83934E-06 1.12938E-06
 -1     11582 6.47055E-05-6.66113E-06-1.12944E-06
 -1     11584 6.47055E-05-6.66113E-06 1.12944E-06
 -1     11585 6.48931E-05-6.92223E-06-1.13271E-06
 -1     11587 6.48931E-05-6.92223E-06 1.13271E-06
 -1     11588 6.47293E-05-2.59035E-06-1.12985E-06
 -1     11590 6.47293E-05-2.59035E-06 1.12985E-06
 -1     11591 6.47268E-05-2.41875E-06-1.12981E-06
 -1     11593 6.47268E-05-2.41875E-06 1.12981E-06
 -1     11594 6.49397E-05-2.67485E-06-1.13353E-06
 -1     11596 6.49397E-05-2.67485E-06 1.13353E-06
 -1     11597 8.22685E-05-1.07809E-06-1.43600E-06
 -1     11599 8.22685E-05-1.07809E-06 1.43600E-06
 -1     11600 8.32095E-05-1.07799E-06-1.45243E-06
 -1     11602 8.32095E-05-1.07799E-06 1.45243E-06
 -1     11603 8.36950E-05-1.23194E-06-1.46090E-06
 -1     11605 8.36950E-05-1.23194E-06 1.46090E-06
 -1     11606 8.18122E-05-1.23217E-06-1.42804E-06
 -1     11608 8.18122E-05-1.23217E-06 1.42804E-06
 -1     11609 6.52606E-05-1.02841E-06-1.13913E-06
 -1     11611 6.52606E-05-1.02841E-06 1.13913E-06
 -1     11612 6.54745E-05-9.92655E-07-1.14286E-06
 -1     11614 6.54745E-05-9.92655E-07 1.14286E-06
 -1     11615 6.57002E-05-1.02651E-06-1.14680E-06
 -1     11617 6.57002E-05-1.02651E-06 1.14680E-06
 -1     11618 6.66028E-05-1.09305E-06-1.16256E-06
 -1     11620 6.66028E-05-1.09305E-06 1.16256E-06
 -1     11621 6.69170E-05-1.09834E-06-1.16804E-06
 -1     11623 6.69170E-05-1.09834E-06 1.16804E-06
 -1     11624 6.64121E-05-1.24650E-06-1.15923E-06
 -1     11626 6.64121E-05-1.24650E-06 1.15923E-06
 -1     11627 6.47310E-05-3.63988E-06-1.12988E-06
 -1     11629 6.47310E-05-3.63988E-06 1.12988E-06
 -1     11630 6.47320E-05-3.46281E-06-1.12990E-06
 -1     11632 6.47320E-05-3.46281E-06 1.12990E-06
 -1     11633 6.49370E-05-3.72748E-06-1.13348E-06
 -1     11635 6.49370E-05-3.72748E-06 1.13348E-06
 -1     11636 6.47338E-05-3.28596E-06-1.12993E-06
 -1     11638 6.47338E-05-3.28596E-06 1.12993E-06
 -1     11639 6.47339E-05-3.11024E-06-1.12993E-06
 -1     11641 6.47339E-05-3.11024E-06 1.12993E-06
 -1     11642 6.49416E-05-3.37235E-06-1.13356E-06
 -1     11644 6.49416E-05-3.37235E-06 1.13356E-06
 -1     11645 1.37848E-04-5.59028E-06-2.40615E-06
 -1     11647 1.37848E-04-5.59028E-06 2.40615E-06
 -1     11648 1.37793E-04-5.76833E-06-2.40518E-06
 -1     11650 1.37793E-04-5.76833E-06 2.40518E-06
 -1     11651 1.34527E-04-5.49854E-06-2.34818E-06
 -1     11653 1.34527E-04-5.49854E-06 2.34818E-06
 -1     11654 9.10579E-05-1.07750E-06-1.58942E-06
 -1     11656 9.10579E-05-1.07750E-06 1.58942E-06
 -1     11657 9.23901E-05-1.07738E-06-1.61268E-06
 -1     11659 9.23901E-05-1.07738E-06 1.61268E-06
 -1     11660 9.04134E-05-1.23147E-06-1.57817E-06
 -1     11662 9.04134E-05-1.23147E-06 1.57817E-06
 -1     11663 6.47258E-05-2.24936E-06-1.12979E-06
 -1     11665 6.47258E-05-2.24936E-06 1.12979E-06
 -1     11666 6.47195E-05-2.08129E-06-1.12968E-06
 -1     11668 6.47195E-05-2.08129E-06 1.12968E-06
 -1     11669 6.49355E-05-2.33375E-06-1.13345E-06
 -1     11671 6.49355E-05-2.33375E-06 1.13345E-06
 -1     11672 6.47235E-05-4.71040E-06-1.12975E-06
 -1     11674 6.47235E-05-4.71040E-06 1.12975E-06
 -1     11675 6.47235E-05-4.53216E-06-1.12975E-06
 -1     11677 6.47235E-05-4.53216E-06 1.12975E-06
 -1     11678 6.49297E-05-4.79968E-06-1.13335E-06
 -1     11680 6.49297E-05-4.79968E-06 1.13335E-06
 -1     11681 1.37920E-04-2.76010E-06-2.40740E-06
 -1     11683 1.37920E-04-2.76010E-06 2.40740E-06
 -1     11684 1.37900E-04-2.93590E-06-2.40706E-06
 -1     11686 1.37900E-04-2.93590E-06 2.40706E-06
 -1     11687 1.34587E-04-2.67299E-06-2.34922E-06
 -1     11689 1.34587E-04-2.67299E-06 2.34922E-06
 -1     11690 6.47260E-05-5.42249E-06-1.12980E-06
 -1     11692 6.47260E-05-5.42249E-06 1.12980E-06
 -1     11693 6.47259E-05-5.24499E-06-1.12979E-06
 -1     11695 6.47259E-05-5.24499E-06 1.12979E-06
 -1     11696 6.49332E-05-5.51161E-06-1.13341E-06
 -1     11698 6.49332E-05-5.51161E-06 1.13341E-06
 -1     11699 6.47080E-05-6.48280E-06-1.12948E-06
 -1     11701 6.47080E-05-6.48280E-06 1.12948E-06
 -1     11702 6.47109E-05-6.30511E-06-1.12953E-06
 -1     11704 6.47109E-05-6.30511E-06 1.12953E-06
 -1     11705 6.49084E-05-6.57059E-06-1.13298E-06
 -1     11707 6.49084E-05-6.57059E-06 1.13298E-06
 -1     11708 1.37168E-04-1.04677E-06-2.39428E-06
 -1     11710 1.37168E-04-1.04677E-06 2.39428E-06
 -1     11711 1.37132E-04-1.21637E-06-2.39365E-06
 -1     11713 1.37132E-04-1.21637E-06 2.39365E-06
 -1     11714 1.32835E-04-7.07839E-07-2.31865E-06
 -1     11716 1.32835E-04-7.07839E-07 2.31865E-06
 -1     11717 1.37046E-04-7.10056E-07-2.39215E-06
 -1     11719 1.37046E-04-7.10056E-07 2.39215E-06
 -1     11720 7.04193E-05-1.08381E-06-1.22917E-06
 -1     11722 7.04193E-05-1.08381E-06 1.22917E-06
 -1     11723 7.08847E-05-1.08227E-06-1.23730E-06
 -1     11725 7.08847E-05-1.08227E-06 1.23730E-06
 -1     11726 7.11234E-05-1.23598E-06-1.24146E-06
 -1     11728 7.11234E-05-1.23598E-06 1.24146E-06
 -1     11729 7.01888E-05-1.24040E-06-1.22515E-06
 -1     11731 7.01888E-05-1.24040E-06 1.22515E-06
 -1     11732 1.26901E-04-7.74171E-06-2.21507E-06
 -1     11734 1.26901E-04-7.74171E-06 2.21507E-06
 -1     11735 1.23779E-04-7.74823E-06-2.16058E-06
 -1     11737 1.23779E-04-7.74823E-06 2.16058E-06
 -1     11738 1.20781E-04-7.75184E-06-2.10824E-06
 -1     11740 1.20781E-04-7.75184E-06 2.10824E-06
 -1     11741 1.18006E-04-7.75559E-06-2.05980E-06
 -1     11743 1.18006E-04-7.75559E-06 2.05980E-06
 -1     11744 1.22327E-04-7.59095E-06-2.13522E-06
 -1     11746 1.22327E-04-7.59095E-06 2.13522E-06
 -1     11747 1.15363E-04-7.76100E-06-2.01366E-06
 -1     11749 1.15363E-04-7.76100E-06 2.01366E-06
 -1     11750 1.12880E-04-7.76413E-06-1.97032E-06
 -1     11752 1.12880E-04-7.76413E-06 1.97032E-06
 -1     11753 1.16691E-04-7.59998E-06-2.03686E-06
 -1     11755 1.16691E-04-7.59998E-06 2.03686E-06
 -1     11756 1.10516E-04-7.76858E-06-1.92907E-06
 -1     11758 1.10516E-04-7.76858E-06 1.92907E-06
 -1     11759 1.08292E-04-7.77078E-06-1.89024E-06
 -1     11761 1.08292E-04-7.77078E-06 1.89024E-06
 -1     11762 1.11691E-04-7.60987E-06-1.94958E-06
 -1     11764 1.11691E-04-7.60987E-06 1.94958E-06
 -1     11765 1.06176E-04-7.77335E-06-1.85330E-06
 -1     11767 1.06176E-04-7.77335E-06 1.85330E-06
 -1     11768 1.04178E-04-7.77453E-06-1.81843E-06
 -1     11770 1.04178E-04-7.77453E-06 1.81843E-06
 -1     11771 1.07218E-04-7.61692E-06-1.87150E-06
 -1     11773 1.07218E-04-7.61692E-06 1.87150E-06
 -1     11774 1.02278E-04-7.77539E-06-1.78527E-06
 -1     11776 1.02278E-04-7.77539E-06 1.78527E-06
 -1     11777 1.00478E-04-7.77567E-06-1.75384E-06
 -1     11779 1.00478E-04-7.77567E-06 1.75384E-06
 -1     11780 1.03209E-04-7.62037E-06-1.80152E-06
 -1     11782 1.03209E-04-7.62037E-06 1.80152E-06
 -1     11783 9.87654E-05-7.77541E-06-1.72396E-06
 -1     11785 9.87654E-05-7.77541E-06 1.72396E-06
 -1     11786 9.71371E-05-7.77519E-06-1.69553E-06
 -1     11788 9.71371E-05-7.77519E-06 1.69553E-06
 -1     11789 9.96028E-05-7.62099E-06-1.73857E-06
 -1     11791 9.96028E-05-7.62099E-06 1.73857E-06
 -1     11792 9.55869E-05-7.77445E-06-1.66847E-06
 -1     11794 9.55869E-05-7.77445E-06 1.66847E-06
 -1     11795 9.41086E-05-7.77407E-06-1.64267E-06
 -1     11797 9.41086E-05-7.77407E-06 1.64267E-06
 -1     11798 9.63451E-05-7.62001E-06-1.68171E-06
 -1     11800 9.63451E-05-7.62001E-06 1.68171E-06
 -1     11801 9.26991E-05-7.77333E-06-1.61807E-06
 -1     11803 9.26991E-05-7.77333E-06 1.61807E-06
 -1     11804 9.13522E-05-7.77295E-06-1.59456E-06
 -1     11806 9.13522E-05-7.77295E-06 1.59456E-06
 -1     11807 9.33894E-05-7.61854E-06-1.63012E-06
 -1     11809 9.33894E-05-7.61854E-06 1.63012E-06
 -1     11810 9.00661E-05-7.77243E-06-1.57211E-06
 -1     11812 9.00661E-05-7.77243E-06 1.57211E-06
 -1     11813 8.88355E-05-7.77218E-06-1.55063E-06
 -1     11815 8.88355E-05-7.77218E-06 1.55063E-06
 -1     11816 9.06970E-05-7.61728E-06-1.58312E-06
 -1     11818 9.06970E-05-7.61728E-06 1.58312E-06
 -1     11819 8.76587E-05-7.77189E-06-1.53009E-06
 -1     11821 8.76587E-05-7.77189E-06 1.53009E-06
 -1     11822 8.65319E-05-7.77177E-06-1.51042E-06
 -1     11824 8.65319E-05-7.77177E-06 1.51042E-06
 -1     11825 8.82368E-05-7.61648E-06-1.54018E-06
 -1     11827 8.82368E-05-7.61648E-06 1.54018E-06
 -1     11828 8.54530E-05-7.77162E-06-1.49159E-06
 -1     11830 8.54530E-05-7.77162E-06 1.49159E-06
 -1     11831 8.44192E-05-7.77152E-06-1.47354E-06
 -1     11833 8.44192E-05-7.77152E-06 1.47354E-06
 -1     11834 8.59834E-05-7.61605E-06-1.50085E-06
 -1     11836 8.59834E-05-7.61605E-06 1.50085E-06
 -1     11837 8.34283E-05-7.77145E-06-1.45625E-06
 -1     11839 8.34283E-05-7.77145E-06 1.45625E-06
 -1     11840 8.24781E-05-7.77139E-06-1.43966E-06
 -1     11842 8.24781E-05-7.77139E-06 1.43966E-06
 -1     11843 8.39156E-05-7.61584E-06-1.46475E-06
 -1     11845 8.39156E-05-7.61584E-06 1.46475E-06
 -1     11846 8.15664E-05-7.77140E-06-1.42375E-06
 -1     11848 8.15664E-05-7.77140E-06 1.42375E-06
 -1     11849 8.06917E-05-7.77145E-06-1.40848E-06
 -1     11851 8.06917E-05-7.77145E-06 1.40848E-06
 -1     11852 8.20148E-05-7.61578E-06-1.43157E-06
 -1     11854 8.20148E-05-7.61578E-06 1.43157E-06
 -1     11855 7.98515E-05-7.77151E-06-1.39381E-06
 -1     11857 7.98515E-05-7.77151E-06 1.39381E-06
 -1     11858 7.90449E-05-7.77160E-06-1.37973E-06
 -1     11860 7.90449E-05-7.77160E-06 1.37973E-06
 -1     11861 8.02644E-05-7.61585E-06-1.40102E-06
 -1     11863 8.02644E-05-7.61585E-06 1.40102E-06
 -1     11864 7.82697E-05-7.77168E-06-1.36620E-06
 -1     11866 7.82697E-05-7.77168E-06 1.36620E-06
 -1     11867 7.75250E-05-7.77172E-06-1.35320E-06
 -1     11869 7.75250E-05-7.77172E-06 1.35320E-06
 -1     11870 7.86505E-05-7.61600E-06-1.37285E-06
 -1     11872 7.86505E-05-7.61600E-06 1.37285E-06
 -1     11873 7.68092E-05-7.77180E-06-1.34071E-06
 -1     11875 7.68092E-05-7.77180E-06 1.34071E-06
 -1     11876 7.61212E-05-7.77186E-06-1.32870E-06
 -1     11878 7.61212E-05-7.77186E-06 1.32870E-06
 -1     11879 7.71607E-05-7.61616E-06-1.34685E-06
 -1     11881 7.71607E-05-7.61616E-06 1.34685E-06
 -1     11882 7.54599E-05-7.77195E-06-1.31716E-06
 -1     11884 7.54599E-05-7.77195E-06 1.31716E-06
 -1     11885 7.48241E-05-7.77205E-06-1.30606E-06
 -1     11887 7.48241E-05-7.77205E-06 1.30606E-06
 -1     11888 7.57847E-05-7.61633E-06-1.32283E-06
 -1     11890 7.57847E-05-7.61633E-06 1.32283E-06
 -1     11891 7.42129E-05-7.77219E-06-1.29539E-06
 -1     11893 7.42129E-05-7.77219E-06 1.29539E-06
 -1     11894 7.36251E-05-7.77227E-06-1.28513E-06
 -1     11896 7.36251E-05-7.77227E-06 1.28513E-06
 -1     11897 7.45132E-05-7.61657E-06-1.30063E-06
 -1     11899 7.45132E-05-7.61657E-06 1.30063E-06
 -1     11900 7.30601E-05-7.77242E-06-1.27527E-06
 -1     11902 7.30601E-05-7.77242E-06 1.27527E-06
 -1     11903 7.25165E-05-7.77252E-06-1.26578E-06
 -1     11905 7.25165E-05-7.77252E-06 1.26578E-06
 -1     11906 7.33379E-05-7.61687E-06-1.28012E-06
 -1     11908 7.33379E-05-7.61687E-06 1.28012E-06
 -1     11909 7.19943E-05-7.77266E-06-1.25667E-06
 -1     11911 7.19943E-05-7.77266E-06 1.25667E-06
 -1     11912 7.14918E-05-7.77281E-06-1.24789E-06
 -1     11914 7.14918E-05-7.77281E-06 1.24789E-06
 -1     11915 7.22515E-05-7.61716E-06-1.26115E-06
 -1     11917 7.22515E-05-7.61716E-06 1.26115E-06
 -1     11918 7.10095E-05-7.77293E-06-1.23948E-06
 -1     11920 7.10095E-05-7.77293E-06 1.23948E-06
 -1     11921 7.05451E-05-7.77306E-06-1.23137E-06
 -1     11923 7.05451E-05-7.77306E-06 1.23137E-06
 -1     11924 7.12476E-05-7.61743E-06-1.24363E-06
 -1     11926 7.12476E-05-7.61743E-06 1.24363E-06
 -1     11927 7.01002E-05-7.77323E-06-1.22360E-06
 -1     11929 7.01002E-05-7.77323E-06 1.22360E-06
 -1     11930 6.96711E-05-7.77338E-06-1.21611E-06
 -1     11932 6.96711E-05-7.77338E-06 1.21611E-06
 -1     11933 7.03211E-05-7.61773E-06-1.22746E-06
 -1     11935 7.03211E-05-7.61773E-06 1.22746E-06
 -1     11936 6.92612E-05-7.77359E-06-1.20896E-06
 -1     11938 6.92612E-05-7.77359E-06 1.20896E-06
 -1     11939 6.88649E-05-7.77363E-06-1.20204E-06
 -1     11941 6.88649E-05-7.77363E-06 1.20204E-06
 -1     11942 6.94668E-05-7.61811E-06-1.21255E-06
 -1     11944 6.94668E-05-7.61811E-06 1.21255E-06
 -1     11945 6.84876E-05-7.77363E-06-1.19546E-06
 -1     11947 6.84876E-05-7.77363E-06 1.19546E-06
 -1     11948 6.81214E-05-7.77302E-06-1.18906E-06
 -1     11950 6.81214E-05-7.77302E-06 1.18906E-06
 -1     11951 6.86798E-05-7.61832E-06-1.19881E-06
 -1     11953 6.86798E-05-7.61832E-06 1.19881E-06
 -1     11954 6.77740E-05-7.77172E-06-1.18300E-06
 -1     11956 6.77740E-05-7.77172E-06 1.18300E-06
 -1     11957 6.74355E-05-7.76982E-06-1.17709E-06
 -1     11959 6.74355E-05-7.76982E-06 1.17709E-06
 -1     11960 6.79550E-05-7.61700E-06-1.18616E-06
 -1     11962 6.79550E-05-7.61700E-06 1.18616E-06
 -1     11963 6.71160E-05-7.76602E-06-1.17151E-06
 -1     11965 6.71160E-05-7.76602E-06 1.17151E-06
 -1     11966 6.68031E-05-7.76226E-06-1.16605E-06
 -1     11968 6.68031E-05-7.76226E-06 1.16605E-06
 -1     11969 6.72876E-05-7.61190E-06-1.17451E-06
 -1     11971 6.72876E-05-7.61190E-06 1.17451E-06
 -1     11972 6.65103E-05-7.75606E-06-1.16094E-06
 -1     11974 6.65103E-05-7.75606E-06 1.16094E-06
 -1     11975 6.62199E-05-7.74940E-06-1.15587E-06
 -1     11977 6.62199E-05-7.74940E-06 1.15587E-06
 -1     11978 6.66744E-05-7.60190E-06-1.16381E-06
 -1     11980 6.66744E-05-7.60190E-06 1.16381E-06
 -1     11981 6.59515E-05-7.74052E-06-1.15119E-06
 -1     11983 6.59515E-05-7.74052E-06 1.15119E-06
 -1     11984 6.56796E-05-7.72797E-06-1.14644E-06
 -1     11986 6.56796E-05-7.72797E-06 1.14644E-06
 -1     11987 6.61119E-05-7.58683E-06-1.15399E-06
 -1     11989 6.61119E-05-7.58683E-06 1.15399E-06
 -1     11990 6.54332E-05-7.71429E-06-1.14214E-06
 -1     11992 6.54332E-05-7.71429E-06 1.14214E-06
 -1     11993 6.51745E-05-7.68424E-06-1.13762E-06
 -1     11995 6.51745E-05-7.68424E-06 1.13762E-06
 -1     11996 6.51216E-05-7.50329E-06-1.13670E-06
 -1     11998 6.51216E-05-7.50329E-06 1.13670E-06
 -1     11999 6.55949E-05-7.56427E-06-1.14496E-06
 -1     12001 6.55949E-05-7.56427E-06 1.14496E-06
 -1     12002 6.47609E-05-1.09051E-06-1.13041E-06
 -1     12004 6.47609E-05-1.09051E-06 1.13041E-06
 -1     12005 6.49900E-05-1.05574E-06-1.13440E-06
 -1     12007 6.49900E-05-1.05574E-06 1.13440E-06
 -1     12008 6.47317E-05-1.26351E-06-1.12990E-06
 -1     12010 6.47317E-05-1.26351E-06 1.12990E-06
 -1     12011 1.37638E-04-8.93660E-07-2.40248E-06
 -1     12013 1.37638E-04-8.93660E-07 2.40248E-06
 -1     12014 6.72552E-05-1.10039E-06-1.17394E-06
 -1     12016 6.72552E-05-1.10039E-06 1.17394E-06
 -1     12017 6.75979E-05-1.10080E-06-1.17993E-06
 -1     12019 6.75979E-05-1.10080E-06 1.17993E-06
 -1     12020 6.70671E-05-1.25812E-06-1.17066E-06
 -1     12022 6.70671E-05-1.25812E-06 1.17066E-06
 -1     12023 1.33929E-04-7.72432E-06-2.33774E-06
 -1     12025 1.33929E-04-7.72432E-06 2.33774E-06
 -1     12026 1.30681E-04-7.72027E-06-2.28105E-06
 -1     12028 1.30681E-04-7.72027E-06 2.28105E-06
 -1     12029 1.29094E-04-7.56570E-06-2.25335E-06
 -1     12031 1.29094E-04-7.56570E-06 2.25335E-06
 -1     12032 1.36876E-04-7.62829E-06-2.38918E-06
 -1     12034 1.36876E-04-7.62829E-06 2.38918E-06
 -1     12035 6.79582E-05-1.09935E-06-1.18621E-06
 -1     12037 6.79582E-05-1.09935E-06 1.18621E-06
 -1     12038 6.83290E-05-1.09774E-06-1.19269E-06
 -1     12040 6.83290E-05-1.09774E-06 1.19269E-06
 -1     12041 6.77643E-05-1.25872E-06-1.18283E-06
 -1     12043 6.77643E-05-1.25872E-06 1.18283E-06
 -1     12044 1.34101E-04-9.86362E-07-2.34075E-06
 -1     12046 1.34101E-04-9.86362E-07 2.34075E-06
 -1     12047 1.31306E-04-8.72469E-07-2.29196E-06
 -1     12049 1.31306E-04-8.72469E-07 2.29196E-06
 -1     12050 1.33667E-04-6.57217E-06-2.33317E-06
 -1     12052 1.33667E-04-6.57217E-06 2.33317E-06
 -1     12053 6.49433E-05-3.02103E-06-1.13359E-06
 -1     12055 6.49433E-05-3.02103E-06 1.13359E-06
 -1     12056 1.37916E-04-4.17671E-06-2.40733E-06
 -1     12058 1.37916E-04-4.17671E-06 2.40733E-06
 -1     12059 1.37921E-04-4.35400E-06-2.40743E-06
 -1     12061 1.37921E-04-4.35400E-06 2.40743E-06
 -1     12062 6.47242E-05-4.35328E-06-1.12977E-06
 -1     12064 6.47242E-05-4.35328E-06 1.12977E-06
 -1     12065 6.47251E-05-4.17495E-06-1.12978E-06
 -1     12067 6.47251E-05-4.17495E-06 1.12978E-06
 -1     12068 6.48902E-05-7.27576E-06-1.13266E-06
 -1     12070 6.48902E-05-7.27576E-06 1.13266E-06
 -1     12071 6.49318E-05-5.15628E-06-1.13339E-06
 -1     12073 6.49318E-05-5.15628E-06 1.13339E-06
 -1     12074 9.83644E-05-1.07573E-06-1.71696E-06
 -1     12076 9.83644E-05-1.07573E-06 1.71696E-06
 -1     12077 9.91778E-05-1.22862E-06-1.73115E-06
 -1     12079 9.91778E-05-1.22862E-06 1.73115E-06
 -1     12080 9.67638E-05-1.07633E-06-1.68902E-06
 -1     12082 9.67638E-05-1.07633E-06 1.68902E-06
 -1     12083 1.36709E-04-7.43571E-06-2.38627E-06
 -1     12085 1.36709E-04-7.43571E-06 2.38627E-06
 -1     12086 1.34545E-04-3.02416E-06-2.34849E-06
 -1     12088 1.34545E-04-3.02416E-06 2.34849E-06
 -1     12089 1.37074E-04-1.38524E-06-2.39264E-06
 -1     12091 1.37074E-04-1.38524E-06 2.39264E-06
 -1     12092 1.37196E-04-1.55448E-06-2.39477E-06
 -1     12094 1.37196E-04-1.55448E-06 2.39477E-06
 -1     12095 1.33605E-04-1.30884E-06-2.33209E-06
 -1     12097 1.33605E-04-1.30884E-06 2.33209E-06
 -1     12098 1.37907E-04-3.82216E-06-2.40718E-06
 -1     12100 1.37907E-04-3.82216E-06 2.40718E-06
 -1     12101 1.37911E-04-3.99970E-06-2.40724E-06
 -1     12103 1.37911E-04-3.99970E-06 2.40724E-06
 -1     12104 1.34557E-04-3.73354E-06-2.34869E-06
 -1     12106 1.34557E-04-3.73354E-06 2.34869E-06
 -1     12107 6.49163E-05-2.00613E-06-1.13312E-06
 -1     12109 6.49163E-05-2.00613E-06 1.13312E-06
 -1     12110 1.07685E-04-1.07645E-06-1.87964E-06
 -1     12112 1.07685E-04-1.07645E-06 1.87964E-06
 -1     12113 1.09898E-04-1.08068E-06-1.91827E-06
 -1     12115 1.09898E-04-1.08068E-06 1.91827E-06
 -1     12116 1.34372E-04-5.85233E-06-2.34547E-06
 -1     12118 1.34372E-04-5.85233E-06 2.34547E-06
 -1     12119 6.52148E-05-1.18123E-06-1.13833E-06
 -1     12121 6.52148E-05-1.18123E-06 1.13833E-06
 -1     12122 7.29328E-05-1.07868E-06-1.27305E-06
 -1     12124 7.29328E-05-1.07868E-06 1.27305E-06
 -1     12125 7.32111E-05-1.23258E-06-1.27790E-06
 -1     12127 7.32111E-05-1.23258E-06 1.27790E-06
 -1     12128 7.23921E-05-1.07905E-06-1.26361E-06
 -1     12130 7.23921E-05-1.07905E-06 1.26361E-06
 -1     12131 7.46858E-05-1.07805E-06-1.30365E-06
 -1     12133 7.46858E-05-1.07805E-06 1.30365E-06
 -1     12134 7.53164E-05-1.07803E-06-1.31465E-06
 -1     12136 7.53164E-05-1.07803E-06 1.31465E-06
 -1     12137 6.57917E-05-1.19541E-06-1.14840E-06
 -1     12139 6.57917E-05-1.19541E-06 1.14840E-06
 -1     12140 7.21282E-05-1.23366E-06-1.25900E-06
 -1     12142 7.21282E-05-1.23366E-06 1.25900E-06
 -1     12143 7.56412E-05-1.23207E-06-1.32032E-06
 -1     12145 7.56412E-05-1.23207E-06 1.32032E-06
 -1     12146 1.23972E-04-1.12536E-06-2.16394E-06
 -1     12148 1.23972E-04-1.12536E-06 2.16394E-06
 -1     12149 1.27160E-04-1.10529E-06-2.21959E-06
 -1     12151 1.27160E-04-1.10529E-06 2.21959E-06
 -1     12152 1.37930E-04-4.53033E-06-2.40758E-06
 -1     12154 1.37930E-04-4.53033E-06 2.40758E-06
 -1     12155 1.37934E-04-4.70741E-06-2.40764E-06
 -1     12157 1.37934E-04-4.70741E-06 2.40764E-06
 -1     12158 1.34591E-04-4.79419E-06-2.34929E-06
 -1     12160 1.34591E-04-4.79419E-06 2.34929E-06
 -1     12161 6.49324E-05-4.08458E-06-1.13340E-06
 -1     12163 6.49324E-05-4.08458E-06 1.13340E-06
 -1     12164 6.49296E-05-4.44228E-06-1.13335E-06
 -1     12166 6.49296E-05-4.44228E-06 1.13335E-06
 -1     12167 6.47185E-05-6.12946E-06-1.12967E-06
 -1     12169 6.47185E-05-6.12946E-06 1.12967E-06
 -1     12170 6.47216E-05-5.95272E-06-1.12972E-06
 -1     12172 6.47216E-05-5.95272E-06 1.12972E-06
 -1     12173 1.30887E-04-1.02587E-06-2.28464E-06
 -1     12175 1.30887E-04-1.02587E-06 2.28464E-06
 -1     12176 1.37124E-04-7.03567E-06-2.39350E-06
 -1     12178 1.37124E-04-7.03567E-06 2.39350E-06
 -1     12179 1.37075E-04-7.22593E-06-2.39266E-06
 -1     12181 1.37075E-04-7.22593E-06 2.39266E-06
 -1     12182 1.33590E-04-6.94031E-06-2.33181E-06
 -1     12184 1.33590E-04-6.94031E-06 2.33181E-06
 -1     12185 7.43794E-05-1.23216E-06-1.29830E-06
 -1     12187 7.43794E-05-1.23216E-06 1.29830E-06
 -1     12188 9.37829E-05-1.07726E-06-1.63699E-06
 -1     12190 9.37829E-05-1.07726E-06 1.63699E-06
 -1     12191 9.52417E-05-1.07697E-06-1.66245E-06
 -1     12193 9.52417E-05-1.07697E-06 1.66245E-06
 -1     12194 9.30773E-05-1.23135E-06-1.62467E-06
 -1     12196 9.30773E-05-1.23135E-06 1.62467E-06
 -1     12197 1.12255E-04-1.08988E-06-1.95941E-06
 -1     12199 1.12255E-04-1.08988E-06 1.95941E-06
 -1     12200 1.14767E-04-1.09653E-06-2.00326E-06
 -1     12202 1.14767E-04-1.09653E-06 2.00326E-06
 -1     12203 1.11007E-04-1.23912E-06-1.93763E-06
 -1     12205 1.11007E-04-1.23912E-06 1.93763E-06
 -1     12206 6.46867E-05-1.59364E-06-1.12911E-06
 -1     12208 6.46867E-05-1.59364E-06 1.12911E-06
 -1     12209 6.46977E-05-1.42191E-06-1.12930E-06
 -1     12211 6.46977E-05-1.42191E-06 1.12930E-06
 -1     12212 6.49109E-05-1.36697E-06-1.13302E-06
 -1     12214 6.49109E-05-1.36697E-06 1.13302E-06
 -1     12215 6.48870E-05-1.68663E-06-1.13261E-06
 -1     12217 6.48870E-05-1.68663E-06 1.13261E-06
 -1     12218 1.03648E-04-1.07291E-06-1.80919E-06
 -1     12220 1.03648E-04-1.07291E-06 1.80919E-06
 -1     12221 1.05615E-04-1.07406E-06-1.84351E-06
 -1     12223 1.05615E-04-1.07406E-06 1.84351E-06
 -1     12224 1.06594E-04-1.22751E-06-1.86061E-06
 -1     12226 1.06594E-04-1.22751E-06 1.86061E-06
 -1     12227 1.02688E-04-1.22620E-06-1.79243E-06
 -1     12229 1.02688E-04-1.22620E-06 1.79243E-06
 -1     12230 6.87173E-05-1.09456E-06-1.19946E-06
 -1     12232 6.87173E-05-1.09456E-06 1.19946E-06
 -1     12233 6.91166E-05-1.09257E-06-1.20644E-06
 -1     12235 6.91166E-05-1.09257E-06 1.20644E-06
 -1     12236 6.49300E-05-5.86491E-06-1.13336E-06
 -1     12238 6.49300E-05-5.86491E-06 1.13336E-06
 -1     12239 6.93187E-05-1.24708E-06-1.20996E-06
 -1     12241 6.93187E-05-1.24708E-06 1.20996E-06
 -1     12242 6.85116E-05-1.25408E-06-1.19587E-06
 -1     12244 6.85116E-05-1.25408E-06 1.19587E-06
 -1     12245 1.34578E-04-4.44150E-06-2.34907E-06
 -1     12247 1.34578E-04-4.44150E-06 2.34907E-06
 -1     12248 1.20423E-04-1.11437E-06-2.10199E-06
 -1     12250 1.20423E-04-1.11437E-06 2.10199E-06
 -1     12251 1.22397E-04-1.28851E-06-2.13645E-06
 -1     12253 1.22397E-04-1.28851E-06 2.13645E-06
 -1     12254 1.17531E-04-1.11098E-06-2.05151E-06
 -1     12256 1.17531E-04-1.11098E-06 2.05151E-06
 -1     12257 6.49188E-05-6.21662E-06-1.13316E-06
 -1     12259 6.49188E-05-6.21662E-06 1.13316E-06
 -1     12260 1.30983E-04-6.10761E-06-2.28632E-06
 -1     12262 1.30983E-04-6.10761E-06 2.28632E-06
 -1     12263 1.30803E-04-6.28727E-06-2.28318E-06
 -1     12265 1.30803E-04-6.28727E-06 2.28318E-06
 -1     12266 1.34565E-04-4.08806E-06-2.34884E-06
 -1     12268 1.34565E-04-4.08806E-06 2.34884E-06
 -1     12269 6.51419E-05-4.53139E-06-1.13706E-06
 -1     12271 6.51419E-05-4.53139E-06 1.13706E-06
 -1     12272 6.51428E-05-4.35250E-06-1.13707E-06
 -1     12274 6.51428E-05-4.35250E-06 1.13707E-06
 -1     12275 6.50588E-05-7.35601E-06-1.13561E-06
 -1     12277 6.50588E-05-7.35601E-06 1.13561E-06
 -1     12278 6.50487E-05-7.17579E-06-1.13543E-06
 -1     12280 6.50487E-05-7.17579E-06 1.13543E-06
 -1     12281 6.52865E-05-7.40331E-06-1.13958E-06
 -1     12283 6.52865E-05-7.40331E-06 1.13958E-06
 -1     12284 1.31411E-04-4.35276E-06-2.29379E-06
 -1     12286 1.31411E-04-4.35276E-06 2.29379E-06
 -1     12287 1.31419E-04-4.52918E-06-2.29392E-06
 -1     12289 1.31419E-04-4.52918E-06 2.29392E-06
 -1     12290 6.83088E-05-1.41534E-06-1.19233E-06
 -1     12292 6.83088E-05-1.41534E-06 1.19233E-06
 -1     12293 6.86962E-05-1.41215E-06-1.19910E-06
 -1     12295 6.86962E-05-1.41215E-06 1.19910E-06
 -1     12296 6.51473E-05-5.24604E-06-1.13715E-06
 -1     12298 6.51473E-05-5.24604E-06 1.13715E-06
 -1     12299 6.51461E-05-5.06795E-06-1.13713E-06
 -1     12301 6.51461E-05-5.06795E-06 1.13713E-06
 -1     12302 1.31441E-04-5.05440E-06-2.29432E-06
 -1     12304 1.31441E-04-5.05440E-06 2.29432E-06
 -1     12305 1.31431E-04-5.23010E-06-2.29413E-06
 -1     12307 1.31431E-04-5.23010E-06 2.29413E-06
 -1     12308 1.37686E-04-1.72340E-06-2.40331E-06
 -1     12310 1.37686E-04-1.72340E-06 2.40331E-06
 -1     12311 1.37866E-04-1.89611E-06-2.40645E-06
 -1     12313 1.37866E-04-1.89611E-06 2.40645E-06
 -1     12314 1.31385E-04-3.29002E-06-2.29333E-06
 -1     12316 1.31385E-04-3.29002E-06 2.29333E-06
 -1     12317 1.31390E-04-3.46763E-06-2.29343E-06
 -1     12319 1.31390E-04-3.46763E-06 2.29343E-06
 -1     12320 6.91053E-05-1.40576E-06-1.20624E-06
 -1     12322 6.91053E-05-1.40576E-06 1.20624E-06
 -1     12323 6.95246E-05-1.40193E-06-1.21356E-06
 -1     12325 6.95246E-05-1.40193E-06 1.21356E-06
 -1     12326 6.88901E-05-1.56701E-06-1.20248E-06
 -1     12328 6.88901E-05-1.56701E-06 1.20248E-06
 -1     12329 6.51744E-05-2.06341E-06-1.13762E-06
 -1     12331 6.51744E-05-2.06341E-06 1.13762E-06
 -1     12332 6.51555E-05-1.90518E-06-1.13729E-06
 -1     12334 6.51555E-05-1.90518E-06 1.13729E-06
 -1     12335 7.96671E-05-1.38650E-06-1.39059E-06
 -1     12337 7.96671E-05-1.38650E-06 1.39059E-06
 -1     12338 8.04989E-05-1.38650E-06-1.40511E-06
 -1     12340 8.04989E-05-1.38650E-06 1.40511E-06
 -1     12341 1.30497E-04-7.41600E-06-2.27783E-06
 -1     12343 1.30497E-04-7.41600E-06 2.27783E-06
 -1     12344 1.26729E-04-7.43750E-06-2.21207E-06
 -1     12346 1.26729E-04-7.43750E-06 2.21207E-06
 -1     12347 7.53171E-05-1.38615E-06-1.31467E-06
 -1     12349 7.53171E-05-1.38615E-06 1.31467E-06
 -1     12350 7.59729E-05-1.38616E-06-1.32611E-06
 -1     12352 7.59729E-05-1.38616E-06 1.32611E-06
 -1     12353 6.56125E-05-1.35896E-06-1.14527E-06
 -1     12355 6.56125E-05-1.35896E-06 1.14527E-06
 -1     12356 6.59138E-05-1.40048E-06-1.15053E-06
 -1     12358 6.59138E-05-1.40048E-06 1.15053E-06
 -1     12359 6.51032E-05-1.31333E-06-1.13638E-06
 -1     12361 6.51032E-05-1.31333E-06 1.13638E-06
 -1     12362 6.53791E-05-1.28599E-06-1.14120E-06
 -1     12364 6.53791E-05-1.28599E-06 1.14120E-06
 -1     12365 6.54937E-05-1.49107E-06-1.14320E-06
 -1     12367 6.54937E-05-1.49107E-06 1.14320E-06
 -1     12368 6.50670E-05-1.47173E-06-1.13575E-06
 -1     12370 6.50670E-05-1.47173E-06 1.13575E-06
 -1     12371 7.29333E-05-1.38674E-06-1.27306E-06
 -1     12373 7.29333E-05-1.38674E-06 1.27306E-06
 -1     12374 7.34956E-05-1.38641E-06-1.28287E-06
 -1     12376 7.34956E-05-1.38641E-06 1.28287E-06
 -1     12377 6.51450E-05-4.17273E-06-1.13711E-06
 -1     12379 6.51450E-05-4.17273E-06 1.13711E-06
 -1     12380 6.51470E-05-3.99391E-06-1.13715E-06
 -1     12382 6.51470E-05-3.99391E-06 1.13715E-06
 -1     12383 6.53652E-05-4.26184E-06-1.14095E-06
 -1     12385 6.53652E-05-4.26184E-06 1.14095E-06
 -1     12386 7.40797E-05-1.38624E-06-1.29307E-06
 -1     12388 7.40797E-05-1.38624E-06 1.29307E-06
 -1     12389 7.46866E-05-1.38614E-06-1.30366E-06
 -1     12391 7.46866E-05-1.38614E-06 1.30366E-06
 -1     12392 7.49993E-05-1.54023E-06-1.30912E-06
 -1     12394 7.49993E-05-1.54023E-06 1.30912E-06
 -1     12395 7.37853E-05-1.54039E-06-1.28793E-06
 -1     12397 7.37853E-05-1.54039E-06 1.28793E-06
 -1     12398 6.51649E-05-3.10226E-06-1.13746E-06
 -1     12400 6.51649E-05-3.10226E-06 1.13746E-06
 -1     12401 6.51646E-05-2.92779E-06-1.13745E-06
 -1     12403 6.51646E-05-2.92779E-06 1.13745E-06
 -1     12404 6.51607E-05-2.75494E-06-1.13738E-06
 -1     12406 6.51607E-05-2.75494E-06 1.13738E-06
 -1     12407 6.51573E-05-2.58323E-06-1.13732E-06
 -1     12409 6.51573E-05-2.58323E-06 1.13732E-06
 -1     12410 6.53905E-05-2.83617E-06-1.14140E-06
 -1     12412 6.53905E-05-2.83617E-06 1.14140E-06
 -1     12413 1.31432E-04-4.70417E-06-2.29415E-06
 -1     12415 1.31432E-04-4.70417E-06 2.29415E-06
 -1     12416 1.31436E-04-4.88052E-06-2.29423E-06
 -1     12418 1.31436E-04-4.88052E-06 2.29423E-06
 -1     12419 1.28437E-04-4.61548E-06-2.24188E-06
 -1     12421 1.28437E-04-4.61548E-06 2.24188E-06
 -1     12422 6.62343E-05-1.40407E-06-1.15612E-06
 -1     12424 6.62343E-05-1.40407E-06 1.15612E-06
 -1     12425 6.65510E-05-1.41364E-06-1.16165E-06
 -1     12427 6.65510E-05-1.41364E-06 1.16165E-06
 -1     12428 6.60434E-05-1.56763E-06-1.15279E-06
 -1     12430 6.60434E-05-1.56763E-06 1.15279E-06
 -1     12431 1.31596E-04-2.23703E-06-2.29701E-06
 -1     12433 1.31596E-04-2.23703E-06 2.29701E-06
 -1     12434 1.31481E-04-2.40704E-06-2.29501E-06
 -1     12436 1.31481E-04-2.40704E-06 2.29501E-06
 -1     12437 6.51516E-05-3.81382E-06-1.13723E-06
 -1     12439 6.51516E-05-3.81382E-06 1.13723E-06
 -1     12440 6.51543E-05-3.63555E-06-1.13727E-06
 -1     12442 6.51543E-05-3.63555E-06 1.13727E-06
 -1     12443 6.53722E-05-3.90198E-06-1.14108E-06
 -1     12445 6.53722E-05-3.90198E-06 1.14108E-06
 -1     12446 1.34670E-04-1.98711E-06-2.35068E-06
 -1     12448 1.34670E-04-1.98711E-06 2.35068E-06
 -1     12449 6.51595E-05-3.45632E-06-1.13736E-06
 -1     12451 6.51595E-05-3.45632E-06 1.13736E-06
 -1     12452 6.51615E-05-3.27946E-06-1.13740E-06
 -1     12454 6.51615E-05-3.27946E-06 1.13740E-06
 -1     12455 6.53822E-05-3.54266E-06-1.14125E-06
 -1     12457 6.53822E-05-3.54266E-06 1.14125E-06
 -1     12458 1.31409E-04-5.40418E-06-2.29375E-06
 -1     12460 1.31409E-04-5.40418E-06 2.29375E-06
 -1     12461 1.31365E-04-5.58098E-06-2.29299E-06
 -1     12463 1.31365E-04-5.58098E-06 2.29299E-06
 -1     12464 1.28438E-04-5.31248E-06-2.24190E-06
 -1     12466 1.28438E-04-5.31248E-06 2.24190E-06
 -1     12467 8.97836E-05-1.38542E-06-1.56718E-06
 -1     12469 8.97836E-05-1.38542E-06 1.56718E-06
 -1     12470 9.10573E-05-1.38542E-06-1.58941E-06
 -1     12472 9.10573E-05-1.38542E-06 1.58941E-06
 -1     12473 6.51482E-05-2.41372E-06-1.13717E-06
 -1     12475 6.51482E-05-2.41372E-06 1.13717E-06
 -1     12476 6.51472E-05-2.24434E-06-1.13715E-06
 -1     12478 6.51472E-05-2.24434E-06 1.13715E-06
 -1     12479 6.53770E-05-2.49382E-06-1.14116E-06
 -1     12481 6.53770E-05-2.49382E-06 1.14116E-06
 -1     12482 6.51435E-05-4.88898E-06-1.13708E-06
 -1     12484 6.51435E-05-4.88898E-06 1.13708E-06
 -1     12485 6.51426E-05-4.71047E-06-1.13707E-06
 -1     12487 6.51426E-05-4.71047E-06 1.13707E-06
 -1     12488 6.53669E-05-4.97874E-06-1.14098E-06
 -1     12490 6.53669E-05-4.97874E-06 1.14098E-06
 -1     12491 1.31415E-04-2.58286E-06-2.29385E-06
 -1     12493 1.31415E-04-2.58286E-06 2.29385E-06
 -1     12494 1.31378E-04-2.75727E-06-2.29321E-06
 -1     12496 1.31378E-04-2.75727E-06 2.29321E-06
 -1     12497 1.28444E-04-2.49130E-06-2.24200E-06
 -1     12499 1.28444E-04-2.49130E-06 2.24200E-06
 -1     12500 1.29744E-04-1.22005E-06-2.26470E-06
 -1     12502 1.29744E-04-1.22005E-06 2.26470E-06
 -1     12503 6.51070E-05-6.65566E-06-1.13645E-06
 -1     12505 6.51070E-05-6.65566E-06 1.13645E-06
 -1     12506 6.51097E-05-6.47734E-06-1.13649E-06
 -1     12508 6.51097E-05-6.47734E-06 1.13649E-06
 -1     12509 6.51301E-05-6.30547E-06-1.13685E-06
 -1     12511 6.51301E-05-6.30547E-06 1.13685E-06
 -1     12512 6.51382E-05-6.12982E-06-1.13699E-06
 -1     12514 6.51382E-05-6.12982E-06 1.13699E-06
 -1     12515 6.53364E-05-6.39054E-06-1.14045E-06
 -1     12517 6.53364E-05-6.39054E-06 1.14045E-06
 -1     12518 1.30458E-04-6.46654E-06-2.27715E-06
 -1     12520 1.30458E-04-6.46654E-06 2.27715E-06
 -1     12521 1.30257E-04-6.65036E-06-2.27364E-06
 -1     12523 1.30257E-04-6.65036E-06 2.27364E-06
 -1     12524 1.27563E-04-6.36513E-06-2.22662E-06
 -1     12526 1.27563E-04-6.36513E-06 2.22662E-06
 -1     12527 1.23831E-04-7.42928E-06-2.16148E-06
 -1     12529 1.23831E-04-7.42928E-06 2.16148E-06
 -1     12530 1.20830E-04-7.43288E-06-2.10909E-06
 -1     12532 1.20830E-04-7.43288E-06 2.10909E-06
 -1     12533 1.17969E-04-7.44244E-06-2.05916E-06
 -1     12535 1.17969E-04-7.44244E-06 2.05916E-06
 -1     12536 1.15328E-04-7.44790E-06-2.01306E-06
 -1     12538 1.15328E-04-7.44790E-06 2.01306E-06
 -1     12539 1.19342E-04-7.28077E-06-2.08312E-06
 -1     12541 1.19342E-04-7.28077E-06 2.08312E-06
 -1     12542 1.12804E-04-7.45645E-06-1.96901E-06
 -1     12544 1.12804E-04-7.45645E-06 1.96901E-06
 -1     12545 1.10445E-04-7.46093E-06-1.92783E-06
 -1     12547 1.10445E-04-7.46093E-06 1.92783E-06
 -1     12548 1.13975E-04-7.29893E-06-1.98944E-06
 -1     12550 1.13975E-04-7.29893E-06 1.98944E-06
 -1     12551 1.08200E-04-7.46625E-06-1.88863E-06
 -1     12553 1.08200E-04-7.46625E-06 1.88863E-06
 -1     12554 1.06088E-04-7.46886E-06-1.85178E-06
 -1     12556 1.06088E-04-7.46886E-06 1.85178E-06
 -1     12557 1.09223E-04-7.31285E-06-1.90649E-06
 -1     12559 1.09223E-04-7.31285E-06 1.90649E-06
 -1     12560 1.04084E-04-7.47099E-06-1.81679E-06
 -1     12562 1.04084E-04-7.47099E-06 1.81679E-06
 -1     12563 1.02189E-04-7.47188E-06-1.78371E-06
 -1     12565 1.02189E-04-7.47188E-06 1.78371E-06
 -1     12566 1.04988E-04-7.32034E-06-1.83258E-06
 -1     12568 1.04988E-04-7.32034E-06 1.83258E-06
 -1     12569 1.00389E-04-7.47176E-06-1.75230E-06
 -1     12571 1.00389E-04-7.47176E-06 1.75230E-06
 -1     12572 9.86814E-05-7.47151E-06-1.72249E-06
 -1     12574 9.86814E-05-7.47151E-06 1.72249E-06
 -1     12575 1.01198E-04-7.32238E-06-1.76642E-06
 -1     12577 1.01198E-04-7.32238E-06 1.76642E-06
 -1     12578 9.70579E-05-7.47027E-06-1.69415E-06
 -1     12580 9.70579E-05-7.47027E-06 1.69415E-06
 -1     12581 9.55114E-05-7.46954E-06-1.66716E-06
 -1     12583 9.55114E-05-7.46954E-06 1.66716E-06
 -1     12584 9.77875E-05-7.32103E-06-1.70689E-06
 -1     12586 9.77875E-05-7.32103E-06 1.70689E-06
 -1     12587 9.40390E-05-7.46813E-06-1.64146E-06
 -1     12589 9.40390E-05-7.46813E-06 1.64146E-06
 -1     12590 9.26326E-05-7.46740E-06-1.61691E-06
 -1     12592 9.26326E-05-7.46740E-06 1.61691E-06
 -1     12593 9.47017E-05-7.31839E-06-1.65302E-06
 -1     12595 9.47017E-05-7.31839E-06 1.65302E-06
 -1     12596 9.12910E-05-7.46636E-06-1.59349E-06
 -1     12598 9.12910E-05-7.46636E-06 1.59349E-06
 -1     12599 9.00075E-05-7.46585E-06-1.57109E-06
 -1     12601 9.00075E-05-7.46585E-06 1.57109E-06
 -1     12602 9.18962E-05-7.31596E-06-1.60405E-06
 -1     12604 9.18962E-05-7.31596E-06 1.60405E-06
 -1     12605 8.87809E-05-7.46528E-06-1.54968E-06
 -1     12607 8.87809E-05-7.46528E-06 1.54968E-06
 -1     12608 8.76065E-05-7.46500E-06-1.52918E-06
 -1     12610 8.76065E-05-7.46500E-06 1.52918E-06
 -1     12611 8.93353E-05-7.31437E-06-1.55935E-06
 -1     12613 8.93353E-05-7.31437E-06 1.55935E-06
 -1     12614 8.64824E-05-7.46474E-06-1.50956E-06
 -1     12616 8.64824E-05-7.46474E-06 1.50956E-06
 -1     12617 8.54056E-05-7.46460E-06-1.49076E-06
 -1     12619 8.54056E-05-7.46460E-06 1.49076E-06
 -1     12620 8.69911E-05-7.31354E-06-1.51844E-06
 -1     12622 8.69911E-05-7.31354E-06 1.51844E-06
 -1     12623 8.43739E-05-7.46448E-06-1.47275E-06
 -1     12625 8.43739E-05-7.46448E-06 1.47275E-06
 -1     12626 8.33848E-05-7.46442E-06-1.45549E-06
 -1     12628 8.33848E-05-7.46442E-06 1.45549E-06
 -1     12629 8.48410E-05-7.31317E-06-1.48091E-06
 -1     12631 8.48410E-05-7.31317E-06 1.48091E-06
 -1     12632 8.24362E-05-7.46439E-06-1.43893E-06
 -1     12634 8.24362E-05-7.46439E-06 1.43893E-06
 -1     12635 8.15262E-05-7.46440E-06-1.42304E-06
 -1     12637 8.15262E-05-7.46440E-06 1.42304E-06
 -1     12638 8.28657E-05-7.31304E-06-1.44643E-06
 -1     12640 8.28657E-05-7.31304E-06 1.44643E-06
 -1     12641 8.06525E-05-7.46446E-06-1.40780E-06
 -1     12643 8.06525E-05-7.46446E-06 1.40780E-06
 -1     12644 7.98140E-05-7.46453E-06-1.39316E-06
 -1     12646 7.98140E-05-7.46453E-06 1.39316E-06
 -1     12647 8.10480E-05-7.31308E-06-1.41470E-06
 -1     12649 8.10480E-05-7.31308E-06 1.41470E-06
 -1     12650 7.90082E-05-7.46463E-06-1.37909E-06
 -1     12652 7.90082E-05-7.46463E-06 1.37909E-06
 -1     12653 7.82345E-05-7.46472E-06-1.36559E-06
 -1     12655 7.82345E-05-7.46472E-06 1.36559E-06
 -1     12656 7.93728E-05-7.31325E-06-1.38546E-06
 -1     12658 7.93728E-05-7.31325E-06 1.38546E-06
 -1     12659 7.74908E-05-7.46481E-06-1.35261E-06
 -1     12661 7.74908E-05-7.46481E-06 1.35261E-06
 -1     12662 7.67763E-05-7.46489E-06-1.34014E-06
 -1     12664 7.67763E-05-7.46489E-06 1.34014E-06
 -1     12665 7.78271E-05-7.31344E-06-1.35848E-06
 -1     12667 7.78271E-05-7.31344E-06 1.35848E-06
 -1     12668 7.60895E-05-7.46500E-06-1.32815E-06
 -1     12670 7.60895E-05-7.46500E-06 1.32815E-06
 -1     12671 7.54294E-05-7.46510E-06-1.31663E-06
 -1     12673 7.54294E-05-7.46510E-06 1.31663E-06
 -1     12674 7.64000E-05-7.31365E-06-1.33357E-06
 -1     12676 7.64000E-05-7.31365E-06 1.33357E-06
 -1     12677 7.47950E-05-7.46529E-06-1.30555E-06
 -1     12679 7.47950E-05-7.46529E-06 1.30555E-06
 -1     12680 7.41849E-05-7.46543E-06-1.29490E-06
 -1     12682 7.41849E-05-7.46543E-06 1.29490E-06
 -1     12683 7.50819E-05-7.31395E-06-1.31056E-06
 -1     12685 7.50819E-05-7.31395E-06 1.31056E-06
 -1     12686 7.35985E-05-7.46569E-06-1.28467E-06
 -1     12688 7.35985E-05-7.46569E-06 1.28467E-06
 -1     12689 7.30345E-05-7.46585E-06-1.27482E-06
 -1     12691 7.30345E-05-7.46585E-06 1.27482E-06
 -1     12692 7.38638E-05-7.31440E-06-1.28930E-06
 -1     12694 7.38638E-05-7.31440E-06 1.28930E-06
 -1     12695 7.24924E-05-7.46608E-06-1.26536E-06
 -1     12697 7.24924E-05-7.46608E-06 1.26536E-06
 -1     12698 7.19711E-05-7.46622E-06-1.25626E-06
 -1     12700 7.19711E-05-7.46622E-06 1.25626E-06
 -1     12701 7.27379E-05-7.31491E-06-1.26965E-06
 -1     12703 7.27379E-05-7.31491E-06 1.26965E-06
 -1     12704 7.14705E-05-7.46634E-06-1.24752E-06
 -1     12706 7.14705E-05-7.46634E-06 1.24752E-06
 -1     12707 7.09890E-05-7.46647E-06-1.23912E-06
 -1     12709 7.09890E-05-7.46647E-06 1.23912E-06
 -1     12710 7.16976E-05-7.31526E-06-1.25149E-06
 -1     12712 7.16976E-05-7.31526E-06 1.25149E-06
 -1     12713 7.05277E-05-7.46655E-06-1.23107E-06
 -1     12715 7.05277E-05-7.46655E-06 1.23107E-06
 -1     12716 7.00835E-05-7.46672E-06-1.22331E-06
 -1     12718 7.00835E-05-7.46672E-06 1.22331E-06
 -1     12719 7.07379E-05-7.31546E-06-1.23473E-06
 -1     12721 7.07379E-05-7.31546E-06 1.23473E-06
 -1     12722 6.96594E-05-7.46691E-06-1.21591E-06
 -1     12724 6.96594E-05-7.46691E-06 1.21591E-06
 -1     12725 6.92500E-05-7.46712E-06-1.20876E-06
 -1     12727 6.92500E-05-7.46712E-06 1.20876E-06
 -1     12728 6.98544E-05-7.31573E-06-1.21931E-06
 -1     12730 6.98544E-05-7.31573E-06 1.21931E-06
 -1     12731 6.88609E-05-7.46741E-06-1.20197E-06
 -1     12733 6.88609E-05-7.46741E-06 1.20197E-06
 -1     12734 6.84838E-05-7.46740E-06-1.19539E-06
 -1     12736 6.84838E-05-7.46740E-06 1.19539E-06
 -1     12737 6.90427E-05-7.31620E-06-1.20515E-06
 -1     12739 6.90427E-05-7.31620E-06 1.20515E-06
 -1     12740 6.81278E-05-7.46757E-06-1.18918E-06
 -1     12742 6.81278E-05-7.46757E-06 1.18918E-06
 -1     12743 6.77801E-05-7.46626E-06-1.18311E-06
 -1     12745 6.77801E-05-7.46626E-06 1.18311E-06
 -1     12746 6.82989E-05-7.31666E-06-1.19216E-06
 -1     12748 6.82989E-05-7.31666E-06 1.19216E-06
 -1     12749 6.74528E-05-7.46318E-06-1.17739E-06
 -1     12751 6.74528E-05-7.46318E-06 1.17739E-06
 -1     12752 6.71326E-05-7.45939E-06-1.17180E-06
 -1     12754 6.71326E-05-7.45939E-06 1.17180E-06
 -1     12755 6.76162E-05-7.31375E-06-1.18025E-06
 -1     12757 6.76162E-05-7.31375E-06 1.18025E-06
 -1     12758 6.68334E-05-7.45148E-06-1.16658E-06
 -1     12760 6.68334E-05-7.45148E-06 1.16658E-06
 -1     12761 6.65395E-05-7.44529E-06-1.16145E-06
 -1     12763 6.65395E-05-7.44529E-06 1.16145E-06
 -1     12764 6.69898E-05-7.30277E-06-1.16931E-06
 -1     12766 6.69898E-05-7.30277E-06 1.16931E-06
 -1     12767 6.62675E-05-7.43667E-06-1.15670E-06
 -1     12769 6.62675E-05-7.43667E-06 1.15670E-06
 -1     12770 6.59973E-05-7.42779E-06-1.15199E-06
 -1     12772 6.59973E-05-7.42779E-06 1.15199E-06
 -1     12773 6.64181E-05-7.28625E-06-1.15933E-06
 -1     12775 6.64181E-05-7.28625E-06 1.15933E-06
 -1     12776 6.68839E-05-1.41918E-06-1.16746E-06
 -1     12778 6.68839E-05-1.41918E-06 1.16746E-06
 -1     12779 6.72207E-05-1.42123E-06-1.17334E-06
 -1     12781 6.72207E-05-1.42123E-06 1.17334E-06
 -1     12782 6.66950E-05-1.57675E-06-1.16416E-06
 -1     12784 6.66950E-05-1.57675E-06 1.16416E-06
 -1     12785 1.31376E-04-2.93516E-06-2.29318E-06
 -1     12787 1.31376E-04-2.93516E-06 2.29318E-06
 -1     12788 1.31373E-04-3.11196E-06-2.29313E-06
 -1     12790 1.31373E-04-3.11196E-06 2.29313E-06
 -1     12791 1.28380E-04-2.84506E-06-2.24088E-06
 -1     12793 1.28380E-04-2.84506E-06 2.24088E-06
 -1     12794 1.34009E-04-1.64690E-06-2.33914E-06
 -1     12796 1.34009E-04-1.64690E-06 2.33914E-06
 -1     12797 6.51477E-05-5.95535E-06-1.13716E-06
 -1     12799 6.51477E-05-5.95535E-06 1.13716E-06
 -1     12800 6.51511E-05-5.77929E-06-1.13722E-06
 -1     12802 6.51511E-05-5.77929E-06 1.13722E-06
 -1     12803 6.53673E-05-6.04420E-06-1.14099E-06
 -1     12805 6.53673E-05-6.04420E-06 1.14099E-06
 -1     12806 6.51122E-05-7.01715E-06-1.13654E-06
 -1     12808 6.51122E-05-7.01715E-06 1.13654E-06
 -1     12809 6.51254E-05-6.84384E-06-1.13677E-06
 -1     12811 6.51254E-05-6.84384E-06 1.13677E-06
 -1     12812 6.53343E-05-6.75059E-06-1.14041E-06
 -1     12814 6.53343E-05-6.75059E-06 1.14041E-06
 -1     12815 6.52874E-05-7.09741E-06-1.13960E-06
 -1     12817 6.52874E-05-7.09741E-06 1.13960E-06
 -1     12818 1.29693E-04-1.38856E-06-2.26381E-06
 -1     12820 1.29693E-04-1.38856E-06 2.26381E-06
 -1     12821 1.28454E-04-4.96443E-06-2.24218E-06
 -1     12823 1.28454E-04-4.96443E-06 2.24218E-06
 -1     12824 6.53636E-05-4.62069E-06-1.14093E-06
 -1     12826 6.53636E-05-4.62069E-06 1.14093E-06
 -1     12827 1.16108E-04-1.26285E-06-2.02667E-06
 -1     12829 1.16108E-04-1.26285E-06 2.02667E-06
 -1     12830 1.26805E-04-1.49844E-06-2.21340E-06
 -1     12832 1.26805E-04-1.49844E-06 2.21340E-06
 -1     12833 1.30454E-04-1.58729E-06-2.27709E-06
 -1     12835 1.30454E-04-1.58729E-06 2.27709E-06
 -1     12836 1.31404E-04-4.17667E-06-2.29367E-06
 -1     12838 1.31404E-04-4.17667E-06 2.29367E-06
 -1     12839 1.28418E-04-4.26432E-06-2.24155E-06
 -1     12841 1.28418E-04-4.26432E-06 2.24155E-06
 -1     12842 1.31400E-04-3.99957E-06-2.29359E-06
 -1     12844 1.31400E-04-3.99957E-06 2.29359E-06
 -1     12845 1.30888E-04-1.75628E-06-2.28466E-06
 -1     12847 1.30888E-04-1.75628E-06 2.28466E-06
 -1     12848 8.32090E-05-1.38611E-06-1.45242E-06
 -1     12850 8.32090E-05-1.38611E-06 1.45242E-06
 -1     12851 8.41904E-05-1.38597E-06-1.46955E-06
 -1     12853 8.41904E-05-1.38597E-06 1.46955E-06
 -1     12854 9.59891E-05-1.23059E-06-1.67550E-06
 -1     12856 9.59891E-05-1.23059E-06 1.67550E-06
 -1     12857 6.53911E-05-3.18623E-06-1.14141E-06
 -1     12859 6.53911E-05-3.18623E-06 1.14141E-06
 -1     12860 6.75717E-05-1.42126E-06-1.17947E-06
 -1     12862 6.75717E-05-1.42126E-06 1.17947E-06
 -1     12863 6.79309E-05-1.41981E-06-1.18574E-06
 -1     12865 6.79309E-05-1.41981E-06 1.18574E-06
 -1     12866 1.31395E-04-3.64508E-06-2.29352E-06
 -1     12868 1.31395E-04-3.64508E-06 2.29352E-06
 -1     12869 1.31399E-04-3.82257E-06-2.29357E-06
 -1     12871 1.31399E-04-3.82257E-06 2.29357E-06
 -1     12872 1.28405E-04-3.55663E-06-2.24132E-06
 -1     12874 1.28405E-04-3.55663E-06 2.24132E-06
 -1     12875 1.05494E-04-1.37488E-06-1.84141E-06
 -1     12877 1.05494E-04-1.37488E-06 1.84141E-06
 -1     12878 1.07558E-04-1.37728E-06-1.87743E-06
 -1     12880 1.07558E-04-1.37728E-06 1.87743E-06
 -1     12881 6.81045E-05-1.57788E-06-1.18877E-06
 -1     12883 6.81045E-05-1.57788E-06 1.18877E-06
 -1     12884 1.31275E-04-5.75507E-06-2.29142E-06
 -1     12886 1.31275E-04-5.75507E-06 2.29142E-06
 -1     12887 1.31172E-04-5.93219E-06-2.28961E-06
 -1     12889 1.31172E-04-5.93219E-06 2.28961E-06
 -1     12890 6.53959E-05-2.14339E-06-1.14149E-06
 -1     12892 6.53959E-05-2.14339E-06 1.14149E-06
 -1     12893 7.23917E-05-1.38729E-06-1.26360E-06
 -1     12895 7.23917E-05-1.38729E-06 1.26360E-06
 -1     12896 7.26601E-05-1.54113E-06-1.26829E-06
 -1     12898 7.26601E-05-1.54113E-06 1.26829E-06
 -1     12899 7.18704E-05-1.38805E-06-1.25450E-06
 -1     12901 7.18704E-05-1.38805E-06 1.25450E-06
 -1     12902 6.73772E-05-1.58232E-06-1.17607E-06
 -1     12904 6.73772E-05-1.58232E-06 1.17607E-06
 -1     12905 8.52142E-05-1.38571E-06-1.48742E-06
 -1     12907 8.52142E-05-1.38571E-06 1.48742E-06
 -1     12908 8.62830E-05-1.38558E-06-1.50608E-06
 -1     12910 8.62830E-05-1.38558E-06 1.50608E-06
 -1     12911 8.46965E-05-1.53988E-06-1.47838E-06
 -1     12913 8.46965E-05-1.53988E-06 1.47838E-06
 -1     12914 1.25097E-04-7.27957E-06-2.18358E-06
 -1     12916 1.25097E-04-7.27957E-06 2.18358E-06
 -1     12917 1.28068E-04-6.01036E-06-2.23544E-06
 -1     12919 1.28068E-04-6.01036E-06 2.23544E-06
 -1     12920 1.31848E-04-1.90962E-06-2.30142E-06
 -1     12922 1.31848E-04-1.90962E-06 2.30142E-06
 -1     12923 1.32037E-04-2.08137E-06-2.30472E-06
 -1     12925 1.32037E-04-2.08137E-06 2.30472E-06
 -1     12926 9.83455E-05-1.38352E-06-1.71663E-06
 -1     12928 9.83455E-05-1.38352E-06 1.71663E-06
 -1     12929 1.00015E-04-1.38219E-06-1.74577E-06
 -1     12931 1.00015E-04-1.38219E-06 1.74577E-06
 -1     12932 8.13653E-05-1.38640E-06-1.42024E-06
 -1     12934 8.13653E-05-1.38640E-06 1.42024E-06
 -1     12935 8.22681E-05-1.38630E-06-1.43600E-06
 -1     12937 8.22681E-05-1.38630E-06 1.43600E-06
 -1     12938 8.09275E-05-1.54062E-06-1.41260E-06
 -1     12940 8.09275E-05-1.54062E-06 1.41260E-06
 -1     12941 1.28923E-04-2.15952E-06-2.25037E-06
 -1     12943 1.28923E-04-2.15952E-06 2.25037E-06
 -1     12944 1.28332E-04-5.66075E-06-2.24005E-06
 -1     12946 1.28332E-04-5.66075E-06 2.24005E-06
 -1     12947 7.66544E-05-1.38628E-06-1.33801E-06
 -1     12949 7.66544E-05-1.38628E-06 1.33801E-06
 -1     12950 7.73635E-05-1.38632E-06-1.35038E-06
 -1     12952 7.73635E-05-1.38632E-06 1.35038E-06
 -1     12953 7.63105E-05-1.54036E-06-1.33201E-06
 -1     12955 7.63105E-05-1.54036E-06 1.33201E-06
 -1     12956 8.73991E-05-1.38543E-06-1.52556E-06
 -1     12958 8.73991E-05-1.38543E-06 1.52556E-06
 -1     12959 8.85648E-05-1.38539E-06-1.54590E-06
 -1     12961 8.85648E-05-1.38539E-06 1.54590E-06
 -1     12962 8.91670E-05-1.53934E-06-1.55642E-06
 -1     12964 8.91670E-05-1.53934E-06 1.55642E-06
 -1     12965 8.68344E-05-1.53947E-06-1.51570E-06
 -1     12967 8.68344E-05-1.53947E-06 1.51570E-06
 -1     12968 6.51506E-05-5.60189E-06-1.13721E-06
 -1     12970 6.51506E-05-5.60189E-06 1.13721E-06
 -1     12971 6.51504E-05-5.42466E-06-1.13720E-06
 -1     12973 6.51504E-05-5.42466E-06 1.13720E-06
 -1     12974 9.23900E-05-1.38560E-06-1.61267E-06
 -1     12976 9.23900E-05-1.38560E-06 1.61267E-06
 -1     12977 9.37828E-05-1.38548E-06-1.63698E-06
 -1     12979 9.37828E-05-1.38548E-06 1.63698E-06
 -1     12980 9.17160E-05-1.53955E-06-1.60091E-06
 -1     12982 9.17160E-05-1.53955E-06 1.60091E-06
 -1     12983 1.28389E-04-3.20106E-06-2.24105E-06
 -1     12985 1.28389E-04-3.20106E-06 2.24105E-06
 -1     12986 6.57469E-05-7.41872E-06-1.14762E-06
 -1     12988 6.57469E-05-7.41872E-06 1.14762E-06
 -1     12989 6.54980E-05-7.40504E-06-1.14327E-06
 -1     12991 6.54980E-05-7.40504E-06 1.14327E-06
 -1     12992 6.54314E-05-7.25776E-06-1.14211E-06
 -1     12994 6.54314E-05-7.25776E-06 1.14211E-06
 -1     12995 6.58945E-05-7.26856E-06-1.15019E-06
 -1     12997 6.58945E-05-7.26856E-06 1.15019E-06
 -1     12998 1.09705E-04-1.38305E-06-1.91492E-06
 -1     13000 1.09705E-04-1.38305E-06 1.91492E-06
 -1     13001 1.12051E-04-1.39228E-06-1.95586E-06
 -1     13003 1.12051E-04-1.39228E-06 1.95586E-06
 -1     13004 1.08518E-04-1.53044E-06-1.89419E-06
 -1     13006 1.08518E-04-1.53044E-06 1.89419E-06
 -1     13007 1.33380E-04-7.33439E-06-2.32815E-06
 -1     13009 1.33380E-04-7.33439E-06 2.32815E-06
 -1     13010 6.50681E-05-1.76597E-06-1.13577E-06
 -1     13012 6.50681E-05-1.76597E-06 1.13577E-06
 -1     13013 6.50567E-05-1.60470E-06-1.13557E-06
 -1     13015 6.50567E-05-1.60470E-06 1.13557E-06
 -1     13016 6.52538E-05-1.55106E-06-1.13901E-06
 -1     13018 6.52538E-05-1.55106E-06 1.13901E-06
 -1     13019 6.53330E-05-1.82324E-06-1.14039E-06
 -1     13021 6.53330E-05-1.82324E-06 1.14039E-06
 -1     13022 6.99631E-05-1.39686E-06-1.22121E-06
 -1     13024 6.99631E-05-1.39686E-06 1.22121E-06
 -1     13025 7.04140E-05-1.39401E-06-1.22908E-06
 -1     13027 7.04140E-05-1.39401E-06 1.22908E-06
 -1     13028 6.97368E-05-1.55554E-06-1.21726E-06
 -1     13030 6.97368E-05-1.55554E-06 1.21726E-06
 -1     13031 1.28427E-04-1.85072E-06-2.24169E-06
 -1     13033 1.28427E-04-1.85072E-06 2.24169E-06
 -1     13034 1.23609E-04-1.46829E-06-2.15761E-06
 -1     13036 1.23609E-04-1.46829E-06 2.15761E-06
 -1     13037 1.24285E-04-1.66696E-06-2.16941E-06
 -1     13039 1.24285E-04-1.66696E-06 2.16941E-06
 -1     13040 1.20085E-04-1.45706E-06-2.09610E-06
 -1     13042 1.20085E-04-1.45706E-06 2.09610E-06
 -1     13043 6.53728E-05-5.33633E-06-1.14109E-06
 -1     13045 6.53728E-05-5.33633E-06 1.14109E-06
 -1     13046 7.13675E-05-1.38938E-06-1.24572E-06
 -1     13048 7.13675E-05-1.38938E-06 1.24572E-06
 -1     13049 7.16162E-05-1.54301E-06-1.25006E-06
 -1     13051 7.16162E-05-1.54301E-06 1.25006E-06
 -1     13052 7.08835E-05-1.39094E-06-1.23728E-06
 -1     13054 7.08835E-05-1.39094E-06 1.23728E-06
 -1     13055 6.53765E-05-5.69233E-06-1.14115E-06
 -1     13057 6.53765E-05-5.69233E-06 1.14115E-06
 -1     13058 8.27334E-05-1.54033E-06-1.44412E-06
 -1     13060 8.27334E-05-1.54033E-06 1.44412E-06
 -1     13061 7.81008E-05-1.38645E-06-1.36326E-06
 -1     13063 7.81008E-05-1.38645E-06 1.36326E-06
 -1     13064 7.88683E-05-1.38650E-06-1.37665E-06
 -1     13066 7.88683E-05-1.38650E-06 1.37665E-06
 -1     13067 6.56076E-05-5.42661E-06-1.14519E-06
 -1     13069 6.56076E-05-5.42661E-06 1.14519E-06
 -1     13070 6.56043E-05-5.24800E-06-1.14513E-06
 -1     13072 6.56043E-05-5.24800E-06 1.14513E-06
 -1     13073 9.52376E-05-1.38541E-06-1.66238E-06
 -1     13075 9.52376E-05-1.38541E-06 1.66238E-06
 -1     13076 9.67595E-05-1.38476E-06-1.68894E-06
 -1     13078 9.67595E-05-1.38476E-06 1.68894E-06
 -1     13079 9.75387E-05-1.53834E-06-1.70254E-06
 -1     13081 9.75387E-05-1.53834E-06 1.70254E-06
 -1     13082 9.45010E-05-1.53966E-06-1.64952E-06
 -1     13084 9.45010E-05-1.53966E-06 1.64952E-06
 -1     13085 1.25561E-04-3.11327E-06-2.19167E-06
 -1     13087 1.25561E-04-3.11327E-06 2.19167E-06
 -1     13088 1.25571E-04-3.29140E-06-2.19186E-06
 -1     13090 1.25571E-04-3.29140E-06 2.19186E-06
 -1     13091 1.30824E-04-7.20574E-06-2.28354E-06
 -1     13093 1.30824E-04-7.20574E-06 2.28354E-06
 -1     13094 1.20657E-04-7.12234E-06-2.10608E-06
 -1     13096 1.20657E-04-7.12234E-06 2.10608E-06
 -1     13097 1.17807E-04-7.13204E-06-2.05632E-06
 -1     13099 1.17807E-04-7.13204E-06 2.05632E-06
 -1     13100 6.56003E-05-3.98989E-06-1.14506E-06
 -1     13102 6.56003E-05-3.98989E-06 1.14506E-06
 -1     13103 6.56052E-05-3.80980E-06-1.14514E-06
 -1     13105 6.56052E-05-3.80980E-06 1.14514E-06
 -1     13106 1.25629E-04-4.87366E-06-2.19287E-06
 -1     13108 1.25629E-04-4.87366E-06 2.19287E-06
 -1     13109 1.25634E-04-5.04761E-06-2.19295E-06
 -1     13111 1.25634E-04-5.04761E-06 2.19295E-06
 -1     13112 6.79023E-05-1.74425E-06-1.18524E-06
 -1     13114 6.79023E-05-1.74425E-06 1.18524E-06
 -1     13115 6.82790E-05-1.73978E-06-1.19181E-06
 -1     13117 6.82790E-05-1.73978E-06 1.19181E-06
 -1     13118 1.25268E-04-1.87396E-06-2.18656E-06
 -1     13120 1.25268E-04-1.87396E-06 2.18656E-06
 -1     13121 1.26130E-04-2.02763E-06-2.20160E-06
 -1     13123 1.26130E-04-2.02763E-06 2.20160E-06
 -1     13124 1.22164E-04-1.84397E-06-2.13239E-06
 -1     13126 1.22164E-04-1.84397E-06 2.13239E-06
 -1     13127 6.55748E-05-2.24625E-06-1.14461E-06
 -1     13129 6.55748E-05-2.24625E-06 1.14461E-06
 -1     13130 6.56039E-05-2.06532E-06-1.14512E-06
 -1     13132 6.56039E-05-2.06532E-06 1.14512E-06
 -1     13133 1.25735E-04-2.18335E-06-2.19472E-06
 -1     13135 1.25735E-04-2.18335E-06 2.19472E-06
 -1     13136 1.01746E-04-1.37910E-06-1.77597E-06
 -1     13138 1.01746E-04-1.37910E-06 1.77597E-06
 -1     13139 1.03588E-04-1.37801E-06-1.80814E-06
 -1     13141 1.03588E-04-1.37801E-06 1.80814E-06
 -1     13142 6.56312E-05-3.26558E-06-1.14560E-06
 -1     13144 6.56312E-05-3.26558E-06 1.14560E-06
 -1     13145 6.56348E-05-3.08838E-06-1.14566E-06
 -1     13147 6.56348E-05-3.08838E-06 1.14566E-06
 -1     13148 1.27127E-04-7.11170E-06-2.21900E-06
 -1     13150 1.27127E-04-7.11170E-06 2.21900E-06
 -1     13151 1.24207E-04-7.10325E-06-2.16804E-06
 -1     13153 1.24207E-04-7.10325E-06 2.16804E-06
 -1     13154 1.00851E-04-1.53401E-06-1.76036E-06
 -1     13156 1.00851E-04-1.53401E-06 1.76036E-06
 -1     13157 6.56376E-05-2.90960E-06-1.14571E-06
 -1     13159 6.56376E-05-2.90960E-06 1.14571E-06
 -1     13160 6.56333E-05-2.73675E-06-1.14563E-06
 -1     13162 6.56333E-05-2.73675E-06 1.14563E-06
 -1     13163 6.58870E-05-2.98895E-06-1.15006E-06
 -1     13165 6.58870E-05-2.98895E-06 1.15006E-06
 -1     13166 1.14503E-04-1.41260E-06-1.99865E-06
 -1     13168 1.14503E-04-1.41260E-06 1.99865E-06
 -1     13169 1.17250E-04-1.42715E-06-2.04661E-06
 -1     13171 1.17250E-04-1.42715E-06 2.04661E-06
 -1     13172 1.18338E-04-1.60695E-06-2.06560E-06
 -1     13174 1.18338E-04-1.60695E-06 2.06560E-06
 -1     13175 1.13093E-04-1.55658E-06-1.97404E-06
 -1     13177 1.13093E-04-1.55658E-06 1.97404E-06
 -1     13178 6.55928E-05-4.71010E-06-1.14493E-06
 -1     13180 6.55928E-05-4.71010E-06 1.14493E-06
 -1     13181 6.55922E-05-4.53102E-06-1.14492E-06
 -1     13183 6.55922E-05-4.53102E-06 1.14492E-06
 -1     13184 7.92636E-05-1.54072E-06-1.38355E-06
 -1     13186 7.92636E-05-1.54072E-06 1.38355E-06
 -1     13187 7.77285E-05-1.54060E-06-1.35676E-06
 -1     13189 7.77285E-05-1.54060E-06 1.35676E-06
 -1     13190 1.29831E-04-7.02962E-06-2.26621E-06
 -1     13192 1.29831E-04-7.02962E-06 2.26621E-06
 -1     13193 1.04479E-04-1.52778E-06-1.82369E-06
 -1     13195 1.04479E-04-1.52778E-06 1.82369E-06
 -1     13196 1.00000E-04-1.69056E-06-1.74551E-06
 -1     13198 1.00000E-04-1.69056E-06 1.74551E-06
 -1     13199 1.01730E-04-1.68745E-06-1.77570E-06
 -1     13201 1.01730E-04-1.68745E-06 1.77570E-06
 -1     13202 7.88682E-05-1.69519E-06-1.37665E-06
 -1     13204 7.88682E-05-1.69519E-06 1.37665E-06
 -1     13205 7.96669E-05-1.69518E-06-1.39059E-06
 -1     13207 7.96669E-05-1.69518E-06 1.39059E-06
 -1     13208 6.58815E-05-1.72345E-06-1.14997E-06
 -1     13210 6.58815E-05-1.72345E-06 1.14997E-06
 -1     13211 6.62006E-05-1.72703E-06-1.15554E-06
 -1     13213 6.62006E-05-1.72703E-06 1.15554E-06
 -1     13214 6.56174E-05-2.56750E-06-1.14536E-06
 -1     13216 6.56174E-05-2.56750E-06 1.14536E-06
 -1     13217 6.56077E-05-2.39799E-06-1.14519E-06
 -1     13219 6.56077E-05-2.39799E-06 1.14519E-06
 -1     13220 6.58733E-05-2.64092E-06-1.14982E-06
 -1     13222 6.58733E-05-2.64092E-06 1.14982E-06
 -1     13223 6.56142E-05-3.62753E-06-1.14530E-06
 -1     13225 6.56142E-05-3.62753E-06 1.14530E-06
 -1     13226 6.56197E-05-3.44830E-06-1.14540E-06
 -1     13228 6.56197E-05-3.44830E-06 1.14540E-06
 -1     13229 6.58510E-05-3.71545E-06-1.14943E-06
 -1     13231 6.58510E-05-3.71545E-06 1.14943E-06
 -1     13232 1.25642E-04-5.21924E-06-2.19308E-06
 -1     13234 1.25642E-04-5.21924E-06 2.19308E-06
 -1     13235 1.25622E-04-5.39342E-06-2.19274E-06
 -1     13237 1.25622E-04-5.39342E-06 2.19274E-06
 -1     13238 1.22963E-04-5.12852E-06-2.14633E-06
 -1     13240 1.22963E-04-5.12852E-06 2.14633E-06
 -1     13241 7.23933E-05-1.69530E-06-1.26363E-06
 -1     13243 7.23933E-05-1.69530E-06 1.26363E-06
 -1     13244 7.29350E-05-1.69475E-06-1.27309E-06
 -1     13246 7.29350E-05-1.69475E-06 1.27309E-06
 -1     13247 6.55983E-05-5.06839E-06-1.14502E-06
 -1     13249 6.55983E-05-5.06839E-06 1.14502E-06
 -1     13250 6.55955E-05-4.88942E-06-1.14497E-06
 -1     13252 6.55955E-05-4.88942E-06 1.14497E-06
 -1     13253 6.58415E-05-5.15867E-06-1.14927E-06
 -1     13255 6.58415E-05-5.15867E-06 1.14927E-06
 -1     13256 1.25609E-04-2.39505E-06-2.19251E-06
 -1     13258 1.25609E-04-2.39505E-06 2.19251E-06
 -1     13259 1.25550E-04-2.57085E-06-2.19148E-06
 -1     13261 1.25550E-04-2.57085E-06 2.19148E-06
 -1     13262 6.55577E-05-6.48253E-06-1.14431E-06
 -1     13264 6.55577E-05-6.48253E-06 1.14431E-06
 -1     13265 6.55796E-05-6.31066E-06-1.14470E-06
 -1     13267 6.55796E-05-6.31066E-06 1.14470E-06
 -1     13268 1.25577E-04-5.56228E-06-2.19196E-06
 -1     13270 1.25577E-04-5.56228E-06 2.19196E-06
 -1     13271 1.25496E-04-5.73647E-06-2.19055E-06
 -1     13273 1.25496E-04-5.73647E-06 2.19055E-06
 -1     13274 1.22928E-04-5.46909E-06-2.14572E-06
 -1     13276 1.22928E-04-5.46909E-06 2.14572E-06
 -1     13277 1.24885E-04-6.24992E-06-2.17987E-06
 -1     13279 1.24885E-04-6.24992E-06 2.17987E-06
 -1     13280 1.24576E-04-6.42930E-06-2.17448E-06
 -1     13282 1.24576E-04-6.42930E-06 2.17448E-06
 -1     13283 1.26717E-04-6.73973E-06-2.21185E-06
 -1     13285 1.26717E-04-6.73973E-06 2.21185E-06
 -1     13286 1.29705E-04-6.84566E-06-2.26401E-06
 -1     13288 1.29705E-04-6.84566E-06 2.26401E-06
 -1     13289 1.25353E-04-5.90602E-06-2.18805E-06
 -1     13291 1.25353E-04-5.90602E-06 2.18805E-06
 -1     13292 1.25184E-04-6.08156E-06-2.18510E-06
 -1     13294 1.25184E-04-6.08156E-06 2.18510E-06
 -1     13295 1.22750E-04-5.80759E-06-2.14261E-06
 -1     13297 1.22750E-04-5.80759E-06 2.14261E-06
 -1     13298 6.86797E-05-1.72924E-06-1.19881E-06
 -1     13300 6.86797E-05-1.72924E-06 1.19881E-06
 -1     13301 6.90881E-05-1.72284E-06-1.20594E-06
 -1     13303 6.90881E-05-1.72284E-06 1.20594E-06
 -1     13304 6.84651E-05-1.89561E-06-1.19506E-06
 -1     13306 6.84651E-05-1.89561E-06 1.19506E-06
 -1     13307 1.15043E-04-7.14809E-06-2.00808E-06
 -1     13309 1.15043E-04-7.14809E-06 2.00808E-06
 -1     13310 1.12535E-04-7.15670E-06-1.96430E-06
 -1     13312 1.12535E-04-7.15670E-06 1.96430E-06
 -1     13313 1.16241E-04-6.98970E-06-2.02899E-06
 -1     13315 1.16241E-04-6.98970E-06 2.02899E-06
 -1     13316 1.10151E-04-7.16681E-06-1.92270E-06
 -1     13318 1.10151E-04-7.16681E-06 1.92270E-06
 -1     13319 1.07922E-04-7.17218E-06-1.88378E-06
 -1     13321 1.07922E-04-7.17218E-06 1.88378E-06
 -1     13322 1.11128E-04-7.01598E-06-1.93975E-06
 -1     13324 1.11128E-04-7.01598E-06 1.93975E-06
 -1     13325 1.05813E-04-7.17680E-06-1.84697E-06
 -1     13327 1.05813E-04-7.17680E-06 1.84697E-06
 -1     13328 1.03822E-04-7.17896E-06-1.81222E-06
 -1     13330 1.03822E-04-7.17896E-06 1.81222E-06
 -1     13331 1.06665E-04-7.03076E-06-1.86185E-06
 -1     13333 1.06665E-04-7.03076E-06 1.86185E-06
 -1     13334 1.01938E-04-7.17942E-06-1.77933E-06
 -1     13336 1.01938E-04-7.17942E-06 1.77933E-06
 -1     13337 1.00151E-04-7.17932E-06-1.74814E-06
 -1     13339 1.00151E-04-7.17932E-06 1.74814E-06
 -1     13340 1.02697E-04-7.03588E-06-1.79258E-06
 -1     13342 1.02697E-04-7.03588E-06 1.79258E-06
 -1     13343 9.84561E-05-7.17741E-06-1.71856E-06
 -1     13345 9.84561E-05-7.17741E-06 1.71856E-06
 -1     13346 9.68433E-05-7.17618E-06-1.69041E-06
 -1     13348 9.68433E-05-7.17618E-06 1.69041E-06
 -1     13349 9.91395E-05-7.03444E-06-1.73049E-06
 -1     13351 9.91395E-05-7.03444E-06 1.73049E-06
 -1     13352 9.53107E-05-7.17362E-06-1.66365E-06
 -1     13354 9.53107E-05-7.17362E-06 1.66365E-06
 -1     13355 9.38474E-05-7.17223E-06-1.63811E-06
 -1     13357 9.38474E-05-7.17223E-06 1.63811E-06
 -1     13358 9.59305E-05-7.03000E-06-1.67447E-06
 -1     13360 9.59305E-05-7.03000E-06 1.67447E-06
 -1     13361 9.24535E-05-7.17023E-06-1.61378E-06
 -1     13363 9.24535E-05-7.17023E-06 1.61378E-06
 -1     13364 9.11199E-05-7.16921E-06-1.59050E-06
 -1     13366 9.11199E-05-7.16921E-06 1.59050E-06
 -1     13367 9.30194E-05-7.02547E-06-1.62366E-06
 -1     13369 9.30194E-05-7.02547E-06 1.62366E-06
 -1     13370 8.98459E-05-7.16816E-06-1.56827E-06
 -1     13372 8.98459E-05-7.16816E-06 1.56827E-06
 -1     13373 8.86262E-05-7.16760E-06-1.54698E-06
 -1     13375 8.86262E-05-7.16760E-06 1.54698E-06
 -1     13376 9.03647E-05-7.02244E-06-1.57732E-06
 -1     13378 9.03647E-05-7.02244E-06 1.57732E-06
 -1     13379 8.74589E-05-7.16714E-06-1.52660E-06
 -1     13381 8.74589E-05-7.16714E-06 1.52660E-06
 -1     13382 8.63411E-05-7.16688E-06-1.50709E-06
 -1     13384 8.63411E-05-7.16688E-06 1.50709E-06
 -1     13385 8.79350E-05-7.02093E-06-1.53491E-06
 -1     13387 8.79350E-05-7.02093E-06 1.53491E-06
 -1     13388 8.52702E-05-7.16666E-06-1.48840E-06
 -1     13390 8.52702E-05-7.16666E-06 1.48840E-06
 -1     13391 8.42441E-05-7.16655E-06-1.47049E-06
 -1     13393 8.42441E-05-7.16655E-06 1.47049E-06
 -1     13394 8.57070E-05-7.02026E-06-1.49602E-06
 -1     13396 8.57070E-05-7.02026E-06 1.49602E-06
 -1     13397 8.32601E-05-7.16647E-06-1.45331E-06
 -1     13399 8.32601E-05-7.16647E-06 1.45331E-06
 -1     13400 8.23166E-05-7.16645E-06-1.43684E-06
 -1     13402 8.23166E-05-7.16645E-06 1.43684E-06
 -1     13403 8.36614E-05-7.01996E-06-1.46032E-06
 -1     13405 8.36614E-05-7.01996E-06 1.46032E-06
 -1     13406 8.14111E-05-7.16651E-06-1.42104E-06
 -1     13408 8.14111E-05-7.16651E-06 1.42104E-06
 -1     13409 8.05420E-05-7.16657E-06-1.40587E-06
 -1     13411 8.05420E-05-7.16657E-06 1.40587E-06
 -1     13412 8.17803E-05-7.01994E-06-1.42748E-06
 -1     13414 8.17803E-05-7.01994E-06 1.42748E-06
 -1     13415 7.97072E-05-7.16671E-06-1.39129E-06
 -1     13417 7.97072E-05-7.16671E-06 1.39129E-06
 -1     13418 7.89058E-05-7.16681E-06-1.37731E-06
 -1     13420 7.89058E-05-7.16681E-06 1.37731E-06
 -1     13421 8.00475E-05-7.02013E-06-1.39723E-06
 -1     13423 8.00475E-05-7.02013E-06 1.39723E-06
 -1     13424 7.81354E-05-7.16694E-06-1.36386E-06
 -1     13426 7.81354E-05-7.16694E-06 1.36386E-06
 -1     13427 7.73956E-05-7.16703E-06-1.35095E-06
 -1     13429 7.73956E-05-7.16703E-06 1.35095E-06
 -1     13430 7.84491E-05-7.02040E-06-1.36933E-06
 -1     13432 7.84491E-05-7.02040E-06 1.36933E-06
 -1     13433 7.66845E-05-7.16714E-06-1.33853E-06
 -1     13435 7.66845E-05-7.16714E-06 1.33853E-06
 -1     13436 7.60013E-05-7.16726E-06-1.32661E-06
 -1     13438 7.60013E-05-7.16726E-06 1.32661E-06
 -1     13439 7.69739E-05-7.02063E-06-1.34358E-06
 -1     13441 7.69739E-05-7.02063E-06 1.34358E-06
 -1     13442 7.53446E-05-7.16746E-06-1.31515E-06
 -1     13444 7.53446E-05-7.16746E-06 1.31515E-06
 -1     13445 7.47134E-05-7.16765E-06-1.30413E-06
 -1     13447 7.47134E-05-7.16765E-06 1.30413E-06
 -1     13448 7.56119E-05-7.02095E-06-1.31981E-06
 -1     13450 7.56119E-05-7.02095E-06 1.31981E-06
 -1     13451 7.41068E-05-7.16805E-06-1.29354E-06
 -1     13453 7.41068E-05-7.16805E-06 1.29354E-06
 -1     13454 7.35234E-05-7.16832E-06-1.28336E-06
 -1     13456 7.35234E-05-7.16832E-06 1.28336E-06
 -1     13457 7.43538E-05-7.02156E-06-1.29785E-06
 -1     13459 7.43538E-05-7.02156E-06 1.29785E-06
 -1     13460 7.29626E-05-7.16881E-06-1.27357E-06
 -1     13462 7.29626E-05-7.16881E-06 1.27357E-06
 -1     13463 7.24232E-05-7.16905E-06-1.26415E-06
 -1     13465 7.24232E-05-7.16905E-06 1.26415E-06
 -1     13466 7.31911E-05-7.02246E-06-1.27755E-06
 -1     13468 7.31911E-05-7.02246E-06 1.27755E-06
 -1     13469 7.19049E-05-7.16933E-06-1.25511E-06
 -1     13471 7.19049E-05-7.16933E-06 1.25511E-06
 -1     13472 7.14068E-05-7.16945E-06-1.24641E-06
 -1     13474 7.14068E-05-7.16945E-06 1.24641E-06
 -1     13475 7.21163E-05-7.02323E-06-1.25879E-06
 -1     13477 7.21163E-05-7.02323E-06 1.25879E-06
 -1     13478 7.09291E-05-7.16934E-06-1.23807E-06
 -1     13480 7.09291E-05-7.16934E-06 1.23807E-06
 -1     13481 7.04701E-05-7.16942E-06-1.23006E-06
 -1     13483 7.04701E-05-7.16942E-06 1.23006E-06
 -1     13484 7.11242E-05-7.02340E-06-1.24148E-06
 -1     13486 7.11242E-05-7.02340E-06 1.24148E-06
 -1     13487 7.00317E-05-7.16937E-06-1.22241E-06
 -1     13489 7.00317E-05-7.16937E-06 1.22241E-06
 -1     13490 6.96096E-05-7.16956E-06-1.21504E-06
 -1     13492 6.96096E-05-7.16956E-06 1.21504E-06
 -1     13493 7.02118E-05-7.02324E-06-1.22555E-06
 -1     13495 7.02118E-05-7.02324E-06 1.22555E-06
 -1     13496 6.92083E-05-7.16985E-06-1.20804E-06
 -1     13498 6.92083E-05-7.16985E-06 1.20804E-06
 -1     13499 6.88207E-05-7.17014E-06-1.20127E-06
 -1     13501 6.88207E-05-7.17014E-06 1.20127E-06
 -1     13502 6.93754E-05-7.02349E-06-1.21095E-06
 -1     13504 6.93754E-05-7.02349E-06 1.21095E-06
 -1     13505 6.84549E-05-7.17043E-06-1.19488E-06
 -1     13507 6.84549E-05-7.17043E-06 1.19488E-06
 -1     13508 6.81000E-05-7.17060E-06-1.18869E-06
 -1     13510 6.81000E-05-7.17060E-06 1.18869E-06
 -1     13511 6.86110E-05-7.02407E-06-1.19761E-06
 -1     13513 6.86110E-05-7.02407E-06 1.19761E-06
 -1     13514 6.77715E-05-7.17237E-06-1.18296E-06
 -1     13516 6.77715E-05-7.17237E-06 1.18296E-06
 -1     13517 6.74445E-05-7.16929E-06-1.17725E-06
 -1     13519 6.74445E-05-7.16929E-06 1.17725E-06
 -1     13520 6.79189E-05-7.02613E-06-1.18553E-06
 -1     13522 6.79189E-05-7.02613E-06 1.18553E-06
 -1     13523 6.71391E-05-7.16016E-06-1.17192E-06
 -1     13525 6.71391E-05-7.16016E-06 1.17192E-06
 -1     13526 6.68397E-05-7.15226E-06-1.16669E-06
 -1     13528 6.68397E-05-7.15226E-06 1.16669E-06
 -1     13529 6.72860E-05-7.01878E-06-1.17448E-06
 -1     13531 6.72860E-05-7.01878E-06 1.17448E-06
 -1     13532 6.65639E-05-7.13546E-06-1.16188E-06
 -1     13534 6.65639E-05-7.13546E-06 1.16188E-06
 -1     13535 6.62910E-05-7.12684E-06-1.15711E-06
 -1     13537 6.62910E-05-7.12684E-06 1.15711E-06
 -1     13538 6.67054E-05-6.99285E-06-1.16435E-06
 -1     13540 6.67054E-05-6.99285E-06 1.16435E-06
 -1     13541 6.65151E-05-1.73808E-06-1.16103E-06
 -1     13543 6.65151E-05-1.73808E-06 1.16103E-06
 -1     13544 6.68464E-05-1.74362E-06-1.16681E-06
 -1     13546 6.68464E-05-1.74362E-06 1.16681E-06
 -1     13547 6.63424E-05-1.89390E-06-1.15801E-06
 -1     13549 6.63424E-05-1.89390E-06 1.15801E-06
 -1     13550 1.03505E-04-1.68052E-06-1.80669E-06
 -1     13552 1.03505E-04-1.68052E-06 1.80669E-06
 -1     13553 1.05407E-04-1.67737E-06-1.83988E-06
 -1     13555 1.05407E-04-1.67737E-06 1.83988E-06
 -1     13556 1.02591E-04-1.83706E-06-1.79073E-06
 -1     13558 1.02591E-04-1.83706E-06 1.79073E-06
 -1     13559 1.25542E-04-2.75588E-06-2.19135E-06
 -1     13561 1.25542E-04-2.75588E-06 2.19135E-06
 -1     13562 1.25541E-04-2.93381E-06-2.19132E-06
 -1     13564 1.25541E-04-2.93381E-06 2.19132E-06
 -1     13565 1.22859E-04-2.65958E-06-2.14451E-06
 -1     13567 1.22859E-04-2.65958E-06 2.14451E-06
 -1     13568 6.56087E-05-6.14016E-06-1.14520E-06
 -1     13570 6.56087E-05-6.14016E-06 1.14520E-06
 -1     13571 6.56189E-05-5.96569E-06-1.14538E-06
 -1     13573 6.56189E-05-5.96569E-06 1.14538E-06
 -1     13574 6.58396E-05-6.23215E-06-1.14924E-06
 -1     13576 6.58396E-05-6.23215E-06 1.14924E-06
 -1     13577 1.22512E-04-6.95428E-06-2.13846E-06
 -1     13579 1.22512E-04-6.95428E-06 2.13846E-06
 -1     13580 1.24025E-04-6.59675E-06-2.16486E-06
 -1     13582 1.24025E-04-6.59675E-06 2.16486E-06
 -1     13583 1.23535E-04-6.79211E-06-2.15632E-06
 -1     13585 1.23535E-04-6.79211E-06 2.15632E-06
 -1     13586 1.20033E-04-6.81144E-06-2.09518E-06
 -1     13588 1.20033E-04-6.81144E-06 2.09518E-06
 -1     13589 1.21523E-04-6.48156E-06-2.12120E-06
 -1     13591 1.21523E-04-6.48156E-06 2.12120E-06
 -1     13592 6.58325E-05-4.79974E-06-1.14911E-06
 -1     13594 6.58325E-05-4.79974E-06 1.14911E-06
 -1     13595 1.28411E-04-3.91115E-06-2.24142E-06
 -1     13597 1.28411E-04-3.91115E-06 2.24142E-06
 -1     13598 1.25609E-04-4.70157E-06-2.19251E-06
 -1     13600 1.25609E-04-4.70157E-06 2.19251E-06
 -1     13601 1.22937E-04-4.78473E-06-2.14587E-06
 -1     13603 1.22937E-04-4.78473E-06 2.14587E-06
 -1     13604 1.25597E-04-4.52651E-06-2.19231E-06
 -1     13606 1.25597E-04-4.52651E-06 2.19231E-06
 -1     13607 7.06442E-05-1.54741E-06-1.23310E-06
 -1     13609 7.06442E-05-1.54741E-06 1.23310E-06
 -1     13610 7.81011E-05-1.69505E-06-1.36326E-06
 -1     13612 7.81011E-05-1.69505E-06 1.36326E-06
 -1     13613 7.84807E-05-1.84952E-06-1.36989E-06
 -1     13615 7.84807E-05-1.84952E-06 1.36989E-06
 -1     13616 7.73637E-05-1.69493E-06-1.35039E-06
 -1     13618 7.73637E-05-1.69493E-06 1.35039E-06
 -1     13619 1.25580E-04-3.46900E-06-2.19201E-06
 -1     13621 1.25580E-04-3.46900E-06 2.19201E-06
 -1     13622 1.25585E-04-3.64652E-06-2.19209E-06
 -1     13624 1.25585E-04-3.64652E-06 2.19209E-06
 -1     13625 1.22899E-04-3.38125E-06-2.14520E-06
 -1     13627 1.22899E-04-3.38125E-06 2.14520E-06
 -1     13628 1.22871E-04-3.02412E-06-2.14472E-06
 -1     13630 1.22871E-04-3.02412E-06 2.14472E-06
 -1     13631 6.95167E-05-1.71386E-06-1.21342E-06
 -1     13633 6.95167E-05-1.71386E-06 1.21342E-06
 -1     13634 6.99549E-05-1.70878E-06-1.22107E-06
 -1     13636 6.99549E-05-1.70878E-06 1.22107E-06
 -1     13637 6.92935E-05-1.87608E-06-1.20952E-06
 -1     13639 6.92935E-05-1.87608E-06 1.20952E-06
 -1     13640 9.83497E-05-1.69301E-06-1.71670E-06
 -1     13642 9.83497E-05-1.69301E-06 1.71670E-06
 -1     13643 9.91675E-05-1.84647E-06-1.73098E-06
 -1     13645 9.91675E-05-1.84647E-06 1.73098E-06
 -1     13646 9.67635E-05-1.69426E-06-1.68901E-06
 -1     13648 9.67635E-05-1.69426E-06 1.68901E-06
 -1     13649 1.22330E-04-6.14559E-06-2.13528E-06
 -1     13651 1.22330E-04-6.14559E-06 2.13528E-06
 -1     13652 6.58227E-05-2.31992E-06-1.14894E-06
 -1     13654 6.58227E-05-2.31992E-06 1.14894E-06
 -1     13655 1.22986E-04-2.26282E-06-2.14672E-06
 -1     13657 1.22986E-04-2.26282E-06 2.14672E-06
 -1     13658 8.41890E-05-1.69416E-06-1.46952E-06
 -1     13660 8.41890E-05-1.69416E-06 1.46952E-06
 -1     13661 8.52127E-05-1.69390E-06-1.48739E-06
 -1     13663 8.52127E-05-1.69390E-06 1.48739E-06
 -1     13664 6.58722E-05-3.35046E-06-1.14980E-06
 -1     13666 6.58722E-05-3.35046E-06 1.14980E-06
 -1     13667 8.04986E-05-1.69506E-06-1.40511E-06
 -1     13669 8.04986E-05-1.69506E-06 1.40511E-06
 -1     13670 8.13650E-05-1.69496E-06-1.42023E-06
 -1     13672 8.13650E-05-1.69496E-06 1.42023E-06
 -1     13673 8.00784E-05-1.84953E-06-1.39777E-06
 -1     13675 8.00784E-05-1.84953E-06 1.39777E-06
 -1     13676 8.85630E-05-1.69311E-06-1.54587E-06
 -1     13678 8.85630E-05-1.69311E-06 1.54587E-06
 -1     13679 8.97817E-05-1.69314E-06-1.56714E-06
 -1     13681 8.97817E-05-1.69314E-06 1.56714E-06
 -1     13682 6.59108E-05-2.02552E-06-1.15048E-06
 -1     13684 6.59108E-05-2.02552E-06 1.15048E-06
 -1     13685 6.57227E-05-1.92266E-06-1.14719E-06
 -1     13687 6.57227E-05-1.92266E-06 1.14719E-06
 -1     13688 1.07316E-04-1.66855E-06-1.87321E-06
 -1     13690 1.07316E-04-1.66855E-06 1.87321E-06
 -1     13691 1.09451E-04-1.67432E-06-1.91047E-06
 -1     13693 1.09451E-04-1.67432E-06 1.91047E-06
 -1     13694 1.06269E-04-1.82127E-06-1.85493E-06
 -1     13696 1.06269E-04-1.82127E-06 1.85493E-06
 -1     13697 6.55925E-05-4.35113E-06-1.14492E-06
 -1     13699 6.55925E-05-4.35113E-06 1.14492E-06
 -1     13700 6.55949E-05-4.17136E-06-1.14496E-06
 -1     13702 6.55949E-05-4.17136E-06 1.14496E-06
 -1     13703 7.34973E-05-1.69453E-06-1.28290E-06
 -1     13705 7.34973E-05-1.69453E-06 1.28290E-06
 -1     13706 7.40815E-05-1.69435E-06-1.29310E-06
 -1     13708 7.40815E-05-1.69435E-06 1.29310E-06
 -1     13709 7.32145E-05-1.84871E-06-1.27796E-06
 -1     13711 7.32145E-05-1.84871E-06 1.27796E-06
 -1     13712 6.58361E-05-4.07918E-06-1.14917E-06
 -1     13714 6.58361E-05-4.07918E-06 1.14917E-06
 -1     13715 7.46880E-05-1.69442E-06-1.30368E-06
 -1     13717 7.46880E-05-1.69442E-06 1.30368E-06
 -1     13718 7.53185E-05-1.69443E-06-1.31469E-06
 -1     13720 7.53185E-05-1.69443E-06 1.31469E-06
 -1     13721 7.43826E-05-1.84856E-06-1.29835E-06
 -1     13723 7.43826E-05-1.84856E-06 1.29835E-06
 -1     13724 6.71841E-05-1.74943E-06-1.17270E-06
 -1     13726 6.71841E-05-1.74943E-06 1.17270E-06
 -1     13727 6.75336E-05-1.74946E-06-1.17880E-06
 -1     13729 6.75336E-05-1.74946E-06 1.17880E-06
 -1     13730 7.59736E-05-1.69459E-06-1.32612E-06
 -1     13732 7.59736E-05-1.69459E-06 1.32612E-06
 -1     13733 7.66551E-05-1.69470E-06-1.33802E-06
 -1     13735 7.66551E-05-1.69470E-06 1.33802E-06
 -1     13736 7.70061E-05-1.84916E-06-1.34415E-06
 -1     13738 7.70061E-05-1.84916E-06 1.34415E-06
 -1     13739 7.56434E-05-1.84878E-06-1.32036E-06
 -1     13741 7.56434E-05-1.84878E-06 1.32036E-06
 -1     13742 8.22672E-05-1.69479E-06-1.43598E-06
 -1     13744 8.22672E-05-1.69479E-06 1.43598E-06
 -1     13745 8.32081E-05-1.69460E-06-1.45240E-06
 -1     13747 8.32081E-05-1.69460E-06 1.45240E-06
 -1     13748 8.18110E-05-1.84923E-06-1.42802E-06
 -1     13750 8.18110E-05-1.84923E-06 1.42802E-06
 -1     13751 7.18710E-05-1.69631E-06-1.25451E-06
 -1     13753 7.18710E-05-1.69631E-06 1.25451E-06
 -1     13754 7.21304E-05-1.84993E-06-1.25904E-06
 -1     13756 7.21304E-05-1.84993E-06 1.25904E-06
 -1     13757 7.13681E-05-1.69764E-06-1.24573E-06
 -1     13759 7.13681E-05-1.69764E-06 1.24573E-06
 -1     13760 9.10575E-05-1.69339E-06-1.58941E-06
 -1     13762 9.10575E-05-1.69339E-06 1.58941E-06
 -1     13763 9.23903E-05-1.69357E-06-1.61268E-06
 -1     13765 9.23903E-05-1.69357E-06 1.61268E-06
 -1     13766 9.04117E-05-1.84716E-06-1.57814E-06
 -1     13768 9.04117E-05-1.84716E-06 1.57814E-06
 -1     13769 6.56160E-05-5.78492E-06-1.14533E-06
 -1     13771 6.56160E-05-5.78492E-06 1.14533E-06
 -1     13772 6.56154E-05-5.60753E-06-1.14532E-06
 -1     13774 6.56154E-05-5.60753E-06 1.14532E-06
 -1     13775 6.55057E-05-6.63425E-06-1.14341E-06
 -1     13777 6.55057E-05-6.63425E-06 1.14341E-06
 -1     13778 6.57555E-05-6.55438E-06-1.14777E-06
 -1     13780 6.57555E-05-6.55438E-06 1.14777E-06
 -1     13781 6.55253E-05-6.82243E-06-1.14375E-06
 -1     13783 6.55253E-05-6.82243E-06 1.14375E-06
 -1     13784 6.58301E-05-4.44054E-06-1.14907E-06
 -1     13786 6.58301E-05-4.44054E-06 1.14907E-06
 -1     13787 6.54989E-05-7.09913E-06-1.14329E-06
 -1     13789 6.54989E-05-7.09913E-06 1.14329E-06
 -1     13790 6.76974E-05-1.91137E-06-1.18166E-06
 -1     13792 6.76974E-05-1.91137E-06 1.18166E-06
 -1     13793 1.25586E-04-4.35216E-06-2.19210E-06
 -1     13795 1.25586E-04-4.35216E-06 2.19210E-06
 -1     13796 1.22907E-04-4.43823E-06-2.14534E-06
 -1     13798 1.22907E-04-4.43823E-06 2.14534E-06
 -1     13799 1.25579E-04-4.17601E-06-2.19200E-06
 -1     13801 1.25579E-04-4.17601E-06 2.19200E-06
 -1     13802 8.36926E-05-1.84862E-06-1.46086E-06
 -1     13804 8.36926E-05-1.84862E-06 1.46086E-06
 -1     13805 6.58558E-05-5.51921E-06-1.14952E-06
 -1     13807 6.58558E-05-5.51921E-06 1.14952E-06
 -1     13808 6.69930E-05-1.91076E-06-1.16937E-06
 -1     13810 6.69930E-05-1.91076E-06 1.16937E-06
 -1     13811 6.58669E-05-5.88089E-06-1.14971E-06
 -1     13813 6.58669E-05-5.88089E-06 1.14971E-06
 -1     13814 8.32063E-05-2.00345E-06-1.45237E-06
 -1     13816 8.32063E-05-2.00345E-06 1.45237E-06
 -1     13817 8.41871E-05-2.00301E-06-1.46949E-06
 -1     13819 8.41871E-05-2.00301E-06 1.46949E-06
 -1     13820 6.55760E-05-1.76325E-06-1.14463E-06
 -1     13822 6.55760E-05-1.76325E-06 1.14463E-06
 -1     13823 1.19982E-04-6.03567E-06-2.09429E-06
 -1     13825 1.19982E-04-6.03567E-06 2.09429E-06
 -1     13826 1.19712E-04-6.20415E-06-2.08959E-06
 -1     13828 1.19712E-04-6.20415E-06 2.08959E-06
 -1     13829 1.20375E-04-4.69625E-06-2.10115E-06
 -1     13831 1.20375E-04-4.69625E-06 2.10115E-06
 -1     13832 1.20393E-04-4.86840E-06-2.10147E-06
 -1     13834 1.20393E-04-4.86840E-06 2.10147E-06
 -1     13835 6.60804E-05-4.88914E-06-1.15344E-06
 -1     13837 6.60804E-05-4.88914E-06 1.15344E-06
 -1     13838 6.60775E-05-4.70982E-06-1.15339E-06
 -1     13840 6.60775E-05-4.70982E-06 1.15339E-06
 -1     13841 6.60780E-05-4.16965E-06-1.15340E-06
 -1     13843 6.60780E-05-4.16965E-06 1.15340E-06
 -1     13844 6.60838E-05-3.98818E-06-1.15350E-06
 -1     13846 6.60838E-05-3.98818E-06 1.15350E-06
 -1     13847 6.61352E-05-5.97743E-06-1.15439E-06
 -1     13849 6.61352E-05-5.97743E-06 1.15439E-06
 -1     13850 6.61321E-05-5.79667E-06-1.15434E-06
 -1     13852 6.61321E-05-5.79667E-06 1.15434E-06
 -1     13853 6.60385E-05-2.19104E-06-1.15271E-06
 -1     13855 6.60385E-05-2.19104E-06 1.15271E-06
 -1     13856 6.61651E-05-2.04837E-06-1.15492E-06
 -1     13858 6.61651E-05-2.04837E-06 1.15492E-06
 -1     13859 6.64780E-05-2.05942E-06-1.16038E-06
 -1     13861 6.64780E-05-2.05942E-06 1.16038E-06
 -1     13862 6.60737E-05-2.34278E-06-1.15332E-06
 -1     13864 6.60737E-05-2.34278E-06 1.15332E-06
 -1     13865 6.61140E-05-5.60947E-06-1.15402E-06
 -1     13867 6.61140E-05-5.60947E-06 1.15402E-06
 -1     13868 6.61056E-05-5.42855E-06-1.15388E-06
 -1     13870 6.61056E-05-5.42855E-06 1.15388E-06
 -1     13871 6.63919E-05-5.70601E-06-1.15887E-06
 -1     13873 6.63919E-05-5.70601E-06 1.15887E-06
 -1     13874 9.37863E-05-1.69423E-06-1.63705E-06
 -1     13876 9.37863E-05-1.69423E-06 1.63705E-06
 -1     13877 9.52412E-05-1.69416E-06-1.66244E-06
 -1     13879 9.52412E-05-1.69416E-06 1.66244E-06
 -1     13880 9.59968E-05-1.84883E-06-1.67563E-06
 -1     13882 9.59968E-05-1.84883E-06 1.67563E-06
 -1     13883 9.30809E-05-1.84807E-06-1.62473E-06
 -1     13885 9.30809E-05-1.84807E-06 1.62473E-06
 -1     13886 6.61240E-05-3.43415E-06-1.15420E-06
 -1     13888 6.61240E-05-3.43415E-06 1.15420E-06
 -1     13889 6.61363E-05-3.25143E-06-1.15441E-06
 -1     13891 6.61363E-05-3.25143E-06 1.15441E-06
 -1     13892 8.73968E-05-1.69331E-06-1.52552E-06
 -1     13894 8.73968E-05-1.69331E-06 1.52552E-06
 -1     13895 8.79721E-05-1.84711E-06-1.53556E-06
 -1     13897 8.79721E-05-1.84711E-06 1.53556E-06
 -1     13898 8.62809E-05-1.69347E-06-1.50604E-06
 -1     13900 8.62809E-05-1.69347E-06 1.50604E-06
 -1     13901 6.54826E-05-1.62403E-06-1.14300E-06
 -1     13903 6.54826E-05-1.62403E-06 1.14300E-06
 -1     13904 6.57757E-05-7.11688E-06-1.14812E-06
 -1     13906 6.57757E-05-7.11688E-06 1.14812E-06
 -1     13907 6.56239E-05-6.95652E-06-1.14547E-06
 -1     13909 6.56239E-05-6.95652E-06 1.14547E-06
 -1     13910 6.58032E-05-6.84019E-06-1.14860E-06
 -1     13912 6.58032E-05-6.84019E-06 1.14860E-06
 -1     13913 6.60272E-05-7.12595E-06-1.15251E-06
 -1     13915 6.60272E-05-7.12595E-06 1.15251E-06
 -1     13916 6.61594E-05-3.05901E-06-1.15482E-06
 -1     13918 6.61594E-05-3.05901E-06 1.15482E-06
 -1     13919 6.61624E-05-2.88023E-06-1.15487E-06
 -1     13921 6.61624E-05-2.88023E-06 1.15487E-06
 -1     13922 6.64216E-05-3.14271E-06-1.15939E-06
 -1     13924 6.64216E-05-3.14271E-06 1.15939E-06
 -1     13925 6.60944E-05-5.24785E-06-1.15368E-06
 -1     13927 6.60944E-05-5.24785E-06 1.15368E-06
 -1     13928 6.60880E-05-5.06824E-06-1.15357E-06
 -1     13930 6.60880E-05-5.06824E-06 1.15357E-06
 -1     13931 6.63615E-05-5.33811E-06-1.15834E-06
 -1     13933 6.63615E-05-5.33811E-06 1.15834E-06
 -1     13934 6.61548E-05-2.69039E-06-1.15474E-06
 -1     13936 6.61548E-05-2.69039E-06 1.15474E-06
 -1     13937 6.61377E-05-2.52114E-06-1.15444E-06
 -1     13939 6.61377E-05-2.52114E-06 1.15444E-06
 -1     13940 6.64378E-05-2.76044E-06-1.15968E-06
 -1     13942 6.64378E-05-2.76044E-06 1.15968E-06
 -1     13943 7.04119E-05-1.70319E-06-1.22904E-06
 -1     13945 7.04119E-05-1.70319E-06 1.22904E-06
 -1     13946 7.08813E-05-1.70013E-06-1.23724E-06
 -1     13948 7.08813E-05-1.70013E-06 1.23724E-06
 -1     13949 7.01784E-05-1.86151E-06-1.22497E-06
 -1     13951 7.01784E-05-1.86151E-06 1.22497E-06
 -1     13952 1.20414E-04-2.18005E-06-2.10184E-06
 -1     13954 1.20414E-04-2.18005E-06 2.10184E-06
 -1     13955 1.20301E-04-2.39181E-06-2.09986E-06
 -1     13957 1.20301E-04-2.39181E-06 2.09986E-06
 -1     13958 1.20440E-04-5.37306E-06-2.10230E-06
 -1     13960 1.20440E-04-5.37306E-06 2.10230E-06
 -1     13961 1.20400E-04-5.54200E-06-2.10160E-06
 -1     13963 1.20400E-04-5.54200E-06 2.10160E-06
 -1     13964 6.61653E-05-6.97516E-06-1.15492E-06
 -1     13966 6.61653E-05-6.97516E-06 1.15492E-06
 -1     13967 6.60946E-05-3.80424E-06-1.15369E-06
 -1     13969 6.60946E-05-3.80424E-06 1.15369E-06
 -1     13970 6.61043E-05-3.62197E-06-1.15386E-06
 -1     13972 6.61043E-05-3.62197E-06 1.15386E-06
 -1     13973 6.63457E-05-3.89471E-06-1.15807E-06
 -1     13975 6.63457E-05-3.89471E-06 1.15807E-06
 -1     13976 1.20425E-04-5.03663E-06-2.10203E-06
 -1     13978 1.20425E-04-5.03663E-06 2.10203E-06
 -1     13979 1.20432E-04-5.20833E-06-2.10215E-06
 -1     13981 1.20432E-04-5.20833E-06 2.10215E-06
 -1     13982 1.17991E-04-4.94818E-06-2.05953E-06
 -1     13984 1.17991E-04-4.94818E-06 2.05953E-06
 -1     13985 6.67922E-05-2.08347E-06-1.16586E-06
 -1     13987 6.67922E-05-2.08347E-06 1.16586E-06
 -1     13988 6.71277E-05-2.08929E-06-1.17172E-06
 -1     13990 6.71277E-05-2.08929E-06 1.17172E-06
 -1     13991 1.25580E-04-3.82297E-06-2.19201E-06
 -1     13993 1.25580E-04-3.82297E-06 2.19201E-06
 -1     13994 1.25581E-04-4.00004E-06-2.19202E-06
 -1     13996 1.25581E-04-4.00004E-06 2.19202E-06
 -1     13997 1.22903E-04-3.73537E-06-2.14527E-06
 -1     13999 1.22903E-04-3.73537E-06 2.14527E-06
 -1     14000 8.57399E-05-1.84775E-06-1.49659E-06
 -1     14002 8.57399E-05-1.84775E-06 1.49659E-06
 -1     14003 1.20322E-04-2.93893E-06-2.10022E-06
 -1     14005 1.20322E-04-2.93893E-06 2.10022E-06
 -1     14006 1.20340E-04-3.11845E-06-2.10054E-06
 -1     14008 1.20340E-04-3.11845E-06 2.10054E-06
 -1     14009 6.60744E-05-4.53075E-06-1.15333E-06
 -1     14011 6.60744E-05-4.53075E-06 1.15333E-06
 -1     14012 6.60748E-05-4.35086E-06-1.15334E-06
 -1     14014 6.60748E-05-4.35086E-06 1.15334E-06
 -1     14015 6.63310E-05-4.62014E-06-1.15781E-06
 -1     14017 6.63310E-05-4.62014E-06 1.15781E-06
 -1     14018 1.20330E-04-5.70592E-06-2.10037E-06
 -1     14020 1.20330E-04-5.70592E-06 2.10037E-06
 -1     14021 1.20201E-04-5.87557E-06-2.09812E-06
 -1     14023 1.20201E-04-5.87557E-06 2.09812E-06
 -1     14024 1.17970E-04-5.60994E-06-2.05917E-06
 -1     14026 1.17970E-04-5.60994E-06 2.05917E-06
 -1     14027 6.82569E-05-2.06406E-06-1.19143E-06
 -1     14029 6.82569E-05-2.06406E-06 1.19143E-06
 -1     14030 6.86567E-05-2.05352E-06-1.19841E-06
 -1     14032 6.86567E-05-2.05352E-06 1.19841E-06
 -1     14033 1.17175E-04-6.83989E-06-2.04531E-06
 -1     14035 1.17175E-04-6.83989E-06 2.04531E-06
 -1     14036 1.14449E-04-6.85606E-06-1.99771E-06
 -1     14038 1.14449E-04-6.85606E-06 1.99771E-06
 -1     14039 1.18090E-04-6.67763E-06-2.06128E-06
 -1     14041 1.18090E-04-6.67763E-06 2.06128E-06
 -1     14042 1.11967E-04-6.87384E-06-1.95439E-06
 -1     14044 1.11967E-04-6.87384E-06 1.95439E-06
 -1     14045 1.09614E-04-6.88401E-06-1.91333E-06
 -1     14047 1.09614E-04-6.88401E-06 1.91333E-06
 -1     14048 1.12816E-04-6.72400E-06-1.96920E-06
 -1     14050 1.12816E-04-6.72400E-06 1.96920E-06
 -1     14051 1.07421E-04-6.89306E-06-1.87504E-06
 -1     14053 1.07421E-04-6.89306E-06 1.87504E-06
 -1     14054 1.05338E-04-6.89772E-06-1.83868E-06
 -1     14056 1.05338E-04-6.89772E-06 1.83868E-06
 -1     14057 1.08188E-04-6.75091E-06-1.88842E-06
 -1     14059 1.08188E-04-6.75091E-06 1.88842E-06
 -1     14060 1.03379E-04-6.89969E-06-1.80449E-06
 -1     14062 1.03379E-04-6.89969E-06 1.80449E-06
 -1     14063 1.01517E-04-6.90017E-06-1.77199E-06
 -1     14065 1.01517E-04-6.90017E-06 1.77199E-06
 -1     14066 1.04073E-04-6.76198E-06-1.81660E-06
 -1     14068 1.04073E-04-6.76198E-06 1.81660E-06
 -1     14069 9.97576E-05-6.89753E-06-1.74128E-06
 -1     14071 9.97576E-05-6.89753E-06 1.74128E-06
 -1     14072 9.80819E-05-6.89564E-06-1.71203E-06
 -1     14074 9.80819E-05-6.89564E-06 1.71203E-06
 -1     14075 1.00386E-04-6.76134E-06-1.75225E-06
 -1     14077 1.00386E-04-6.76134E-06 1.75225E-06
 -1     14078 9.64939E-05-6.89126E-06-1.68431E-06
 -1     14080 9.64939E-05-6.89126E-06 1.68431E-06
 -1     14081 9.49774E-05-6.88872E-06-1.65784E-06
 -1     14083 9.49774E-05-6.88872E-06 1.65784E-06
 -1     14084 9.70650E-05-6.75435E-06-1.69428E-06
 -1     14086 9.70650E-05-6.75435E-06 1.69428E-06
 -1     14087 9.35364E-05-6.88498E-06-1.63268E-06
 -1     14089 9.35364E-05-6.88498E-06 1.63268E-06
 -1     14090 9.21565E-05-6.88300E-06-1.60860E-06
 -1     14092 9.21565E-05-6.88300E-06 1.60860E-06
 -1     14093 9.40584E-05-6.74624E-06-1.64180E-06
 -1     14095 9.40584E-05-6.74624E-06 1.64180E-06
 -1     14096 9.08387E-05-6.88115E-06-1.58560E-06
 -1     14098 9.08387E-05-6.88115E-06 1.58560E-06
 -1     14099 8.95770E-05-6.88011E-06-1.56357E-06
 -1     14101 8.95770E-05-6.88011E-06 1.56357E-06
 -1     14102 9.13188E-05-6.74066E-06-1.59398E-06
 -1     14104 9.13188E-05-6.74066E-06 1.59398E-06
 -1     14105 8.83687E-05-6.87937E-06-1.54248E-06
 -1     14107 8.83687E-05-6.87937E-06 1.54248E-06
 -1     14108 8.72125E-05-6.87891E-06-1.52230E-06
 -1     14110 8.72125E-05-6.87891E-06 1.52230E-06
 -1     14111 8.88097E-05-6.73808E-06-1.55018E-06
 -1     14113 8.88097E-05-6.73808E-06 1.55018E-06
 -1     14114 8.61041E-05-6.87852E-06-1.50295E-06
 -1     14116 8.61041E-05-6.87852E-06 1.50295E-06
 -1     14117 8.50431E-05-6.87831E-06-1.48443E-06
 -1     14119 8.50431E-05-6.87831E-06 1.48443E-06
 -1     14120 8.65082E-05-6.73696E-06-1.51001E-06
 -1     14122 8.65082E-05-6.73696E-06 1.51001E-06
 -1     14123 8.40259E-05-6.87808E-06-1.46668E-06
 -1     14125 8.40259E-05-6.87808E-06 1.46668E-06
 -1     14126 8.30509E-05-6.87800E-06-1.44966E-06
 -1     14128 8.30509E-05-6.87800E-06 1.44966E-06
 -1     14129 8.43963E-05-6.73634E-06-1.47314E-06
 -1     14131 8.43963E-05-6.73634E-06 1.47314E-06
 -1     14132 8.21156E-05-6.87800E-06-1.43333E-06
 -1     14134 8.21156E-05-6.87800E-06 1.43333E-06
 -1     14135 8.12182E-05-6.87806E-06-1.41767E-06
 -1     14137 8.12182E-05-6.87806E-06 1.41767E-06
 -1     14138 8.24560E-05-6.73611E-06-1.43927E-06
 -1     14140 8.24560E-05-6.73611E-06 1.43927E-06
 -1     14141 8.03564E-05-6.87825E-06-1.40263E-06
 -1     14143 8.03564E-05-6.87825E-06 1.40263E-06
 -1     14144 7.95290E-05-6.87839E-06-1.38818E-06
 -1     14146 7.95290E-05-6.87839E-06 1.38818E-06
 -1     14147 8.06699E-05-6.73631E-06-1.40810E-06
 -1     14149 8.06699E-05-6.73631E-06 1.40810E-06
 -1     14150 7.87337E-05-6.87860E-06-1.37430E-06
 -1     14152 7.87337E-05-6.87860E-06 1.37430E-06
 -1     14153 7.79702E-05-6.87873E-06-1.36097E-06
 -1     14155 7.79702E-05-6.87873E-06 1.36097E-06
 -1     14156 7.90228E-05-6.73672E-06-1.37935E-06
 -1     14158 7.90228E-05-6.73672E-06 1.37935E-06
 -1     14159 7.72361E-05-6.87885E-06-1.34816E-06
 -1     14161 7.72361E-05-6.87885E-06 1.34816E-06
 -1     14162 7.65312E-05-6.87897E-06-1.33586E-06
 -1     14164 7.65312E-05-6.87897E-06 1.33586E-06
 -1     14165 7.75026E-05-6.73706E-06-1.35281E-06
 -1     14167 7.75026E-05-6.73706E-06 1.35281E-06
 -1     14168 7.58536E-05-6.87912E-06-1.32403E-06
 -1     14170 7.58536E-05-6.87912E-06 1.32403E-06
 -1     14171 7.52027E-05-6.87933E-06-1.31267E-06
 -1     14173 7.52027E-05-6.87933E-06 1.31267E-06
 -1     14174 7.60993E-05-6.73734E-06-1.32832E-06
 -1     14176 7.60993E-05-6.73734E-06 1.32832E-06
 -1     14177 7.45771E-05-6.87978E-06-1.30175E-06
 -1     14179 7.45771E-05-6.87978E-06 1.30175E-06
 -1     14180 7.39757E-05-6.88018E-06-1.29125E-06
 -1     14182 7.39757E-05-6.88018E-06 1.29125E-06
 -1     14183 7.48039E-05-6.73795E-06-1.30571E-06
 -1     14185 7.48039E-05-6.73795E-06 1.30571E-06
 -1     14186 7.33978E-05-6.88107E-06-1.28116E-06
 -1     14188 7.33978E-05-6.88107E-06 1.28116E-06
 -1     14189 7.28418E-05-6.88157E-06-1.27146E-06
 -1     14191 7.28418E-05-6.88157E-06 1.27146E-06
 -1     14192 7.36074E-05-6.73929E-06-1.28482E-06
 -1     14194 7.36074E-05-6.73929E-06 1.28482E-06
 -1     14195 7.23073E-05-6.88246E-06-1.26213E-06
 -1     14197 7.23073E-05-6.88246E-06 1.26213E-06
 -1     14198 7.17933E-05-6.88274E-06-1.25316E-06
 -1     14200 7.17933E-05-6.88274E-06 1.25316E-06
 -1     14201 7.25014E-05-6.74107E-06-1.26552E-06
 -1     14203 7.25014E-05-6.74107E-06 1.26552E-06
 -1     14204 7.12992E-05-6.88268E-06-1.24453E-06
 -1     14206 7.12992E-05-6.88268E-06 1.24453E-06
 -1     14207 7.08255E-05-6.88257E-06-1.23626E-06
 -1     14209 7.08255E-05-6.88257E-06 1.23626E-06
 -1     14210 7.14786E-05-6.74190E-06-1.24766E-06
 -1     14212 7.14786E-05-6.74190E-06 1.24766E-06
 -1     14213 7.03720E-05-6.88163E-06-1.22835E-06
 -1     14215 7.03720E-05-6.88163E-06 1.22835E-06
 -1     14216 6.99373E-05-6.88158E-06-1.22076E-06
 -1     14218 6.99373E-05-6.88158E-06 1.22076E-06
 -1     14219 7.05365E-05-6.74090E-06-1.23122E-06
 -1     14221 7.05365E-05-6.74090E-06 1.23122E-06
 -1     14222 6.95251E-05-6.88198E-06-1.21357E-06
 -1     14224 6.95251E-05-6.88198E-06 1.21357E-06
 -1     14225 6.91269E-05-6.88228E-06-1.20662E-06
 -1     14227 6.91269E-05-6.88228E-06 1.20662E-06
 -1     14228 6.96758E-05-6.74037E-06-1.21620E-06
 -1     14230 6.96758E-05-6.74037E-06 1.21620E-06
 -1     14231 6.87486E-05-6.88293E-06-1.20001E-06
 -1     14233 6.87486E-05-6.88293E-06 1.20001E-06
 -1     14234 6.83854E-05-6.88322E-06-1.19367E-06
 -1     14236 6.83854E-05-6.88322E-06 1.19367E-06
 -1     14237 6.88896E-05-6.74142E-06-1.20247E-06
 -1     14239 6.88896E-05-6.74142E-06 1.20247E-06
 -1     14240 6.80423E-05-6.88152E-06-1.18768E-06
 -1     14242 6.80423E-05-6.88152E-06 1.18768E-06
 -1     14243 6.77158E-05-6.88330E-06-1.18198E-06
 -1     14245 6.77158E-05-6.88330E-06 1.18198E-06
 -1     14246 6.81720E-05-6.74037E-06-1.18995E-06
 -1     14248 6.81720E-05-6.74037E-06 1.18995E-06
 -1     14249 6.74344E-05-6.89598E-06-1.17707E-06
 -1     14251 6.74344E-05-6.89598E-06 1.17707E-06
 -1     14252 6.71293E-05-6.88685E-06-1.17175E-06
 -1     14254 6.71293E-05-6.88685E-06 1.17175E-06
 -1     14255 6.75512E-05-6.75136E-06-1.17911E-06
 -1     14257 6.75512E-05-6.75136E-06 1.17911E-06
 -1     14258 6.68633E-05-6.84110E-06-1.16710E-06
 -1     14260 6.68633E-05-6.84110E-06 1.16710E-06
 -1     14261 6.65867E-05-6.82430E-06-1.16227E-06
 -1     14263 6.65867E-05-6.82430E-06 1.16227E-06
 -1     14264 6.70042E-05-6.71830E-06-1.16956E-06
 -1     14266 6.70042E-05-6.71830E-06 1.16956E-06
 -1     14267 1.01777E-04-1.99701E-06-1.77652E-06
 -1     14269 1.01777E-04-1.99701E-06 1.77652E-06
 -1     14270 1.03554E-04-1.99005E-06-1.80755E-06
 -1     14272 1.03554E-04-1.99005E-06 1.80755E-06
 -1     14273 1.20285E-04-2.57559E-06-2.09958E-06
 -1     14275 1.20285E-04-2.57559E-06 2.09958E-06
 -1     14276 1.20278E-04-2.76066E-06-2.09946E-06
 -1     14278 1.20278E-04-2.76066E-06 2.09946E-06
 -1     14279 1.17876E-04-2.85498E-06-2.05754E-06
 -1     14281 1.17876E-04-2.85498E-06 2.05754E-06
 -1     14282 1.17850E-04-2.49292E-06-2.05708E-06
 -1     14284 1.17850E-04-2.49292E-06 2.05708E-06
 -1     14285 1.19214E-04-1.78531E-06-2.08089E-06
 -1     14287 1.19214E-04-1.78531E-06 2.08089E-06
 -1     14288 1.20099E-04-1.99250E-06-2.09634E-06
 -1     14290 1.20099E-04-1.99250E-06 2.09634E-06
 -1     14291 1.17567E-04-2.12135E-06-2.05214E-06
 -1     14293 1.17567E-04-2.12135E-06 2.05214E-06
 -1     14294 1.16430E-04-1.75523E-06-2.03229E-06
 -1     14296 1.16430E-04-1.75523E-06 2.03229E-06
 -1     14297 6.74913E-05-2.08755E-06-1.17806E-06
 -1     14299 6.74913E-05-2.08755E-06 1.17806E-06
 -1     14300 6.78582E-05-2.08234E-06-1.18447E-06
 -1     14302 6.78582E-05-2.08234E-06 1.18447E-06
 -1     14303 6.80379E-05-2.24024E-06-1.18761E-06
 -1     14305 6.80379E-05-2.24024E-06 1.18761E-06
 -1     14306 6.72782E-05-2.26026E-06-1.17435E-06
 -1     14308 6.72782E-05-2.26026E-06 1.17435E-06
 -1     14309 6.61587E-05-6.18340E-06-1.15480E-06
 -1     14311 6.61587E-05-6.18340E-06 1.15480E-06
 -1     14312 6.64350E-05-6.09918E-06-1.15963E-06
 -1     14314 6.64350E-05-6.09918E-06 1.15963E-06
 -1     14315 6.61271E-05-6.35389E-06-1.15425E-06
 -1     14317 6.61271E-05-6.35389E-06 1.15425E-06
 -1     14318 6.63421E-05-4.97832E-06-1.15801E-06
 -1     14320 6.63421E-05-4.97832E-06 1.15801E-06
 -1     14321 1.17694E-04-5.93406E-06-2.05437E-06
 -1     14323 1.17694E-04-5.93406E-06 2.05437E-06
 -1     14324 6.63312E-05-4.25985E-06-1.15781E-06
 -1     14326 6.63312E-05-4.25985E-06 1.15781E-06
 -1     14327 1.20368E-04-3.29543E-06-2.10103E-06
 -1     14329 1.20368E-04-3.29543E-06 2.10103E-06
 -1     14330 1.20376E-04-3.47310E-06-2.10116E-06
 -1     14332 1.20376E-04-3.47310E-06 2.10116E-06
 -1     14333 1.17944E-04-3.21028E-06-2.05873E-06
 -1     14335 1.17944E-04-3.21028E-06 2.05873E-06
 -1     14336 7.81008E-05-2.00428E-06-1.36325E-06
 -1     14338 7.81008E-05-2.00428E-06 1.36325E-06
 -1     14339 7.88679E-05-2.00441E-06-1.37664E-06
 -1     14341 7.88679E-05-2.00441E-06 1.37664E-06
 -1     14342 1.18029E-04-5.28121E-06-2.06020E-06
 -1     14344 1.18029E-04-5.28121E-06 2.06020E-06
 -1     14345 6.66041E-05-2.23795E-06-1.16258E-06
 -1     14347 6.66041E-05-2.23795E-06 1.16258E-06
 -1     14348 6.90795E-05-2.03741E-06-1.20579E-06
 -1     14350 6.90795E-05-2.03741E-06 1.20579E-06
 -1     14351 6.95078E-05-2.02843E-06-1.21326E-06
 -1     14353 6.95078E-05-2.02843E-06 1.21326E-06
 -1     14354 6.88582E-05-2.20586E-06-1.20192E-06
 -1     14356 6.88582E-05-2.20586E-06 1.20192E-06
 -1     14357 6.63772E-05-3.52295E-06-1.15862E-06
 -1     14359 6.63772E-05-3.52295E-06 1.15862E-06
 -1     14360 7.29387E-05-2.00280E-06-1.27315E-06
 -1     14362 7.29387E-05-2.00280E-06 1.27315E-06
 -1     14363 7.35011E-05-2.00258E-06-1.28297E-06
 -1     14365 7.35011E-05-2.00258E-06 1.28297E-06
 -1     14366 1.05368E-04-1.97507E-06-1.83921E-06
 -1     14368 1.05368E-04-1.97507E-06 1.83921E-06
 -1     14369 1.07276E-04-1.96619E-06-1.87250E-06
 -1     14371 1.07276E-04-1.96619E-06 1.87250E-06
 -1     14372 1.04492E-04-2.13501E-06-1.82391E-06
 -1     14374 1.04492E-04-2.13501E-06 1.82391E-06
 -1     14375 8.73923E-05-2.00091E-06-1.52544E-06
 -1     14377 8.73923E-05-2.00091E-06 1.52544E-06
 -1     14378 8.85583E-05-2.00071E-06-1.54579E-06
 -1     14380 8.85583E-05-2.00071E-06 1.54579E-06
 -1     14381 7.96664E-05-2.00435E-06-1.39058E-06
 -1     14383 7.96664E-05-2.00435E-06 1.39058E-06
 -1     14384 8.04981E-05-2.00423E-06-1.40510E-06
 -1     14386 8.04981E-05-2.00423E-06 1.40510E-06
 -1     14387 7.92629E-05-2.15911E-06-1.38354E-06
 -1     14389 7.92629E-05-2.15911E-06 1.38354E-06
 -1     14390 1.19278E-04-6.35862E-06-2.08201E-06
 -1     14392 1.19278E-04-6.35862E-06 2.08201E-06
 -1     14393 1.18784E-04-6.52624E-06-2.07337E-06
 -1     14395 1.18784E-04-6.52624E-06 2.07337E-06
 -1     14396 1.16000E-04-6.55477E-06-2.02478E-06
 -1     14398 1.16000E-04-6.55477E-06 2.02478E-06
 -1     14399 1.17073E-04-6.24875E-06-2.04351E-06
 -1     14401 1.17073E-04-6.24875E-06 2.04351E-06
 -1     14402 7.53199E-05-2.00323E-06-1.31471E-06
 -1     14404 7.53199E-05-2.00323E-06 1.31471E-06
 -1     14405 7.59749E-05-2.00338E-06-1.32615E-06
 -1     14407 7.59749E-05-2.00338E-06 1.32615E-06
 -1     14408 1.11612E-04-1.69075E-06-1.94820E-06
 -1     14410 1.11612E-04-1.69075E-06 1.94820E-06
 -1     14411 1.14039E-04-1.71111E-06-1.99055E-06
 -1     14413 1.14039E-04-1.71111E-06 1.99055E-06
 -1     14414 1.14835E-04-1.88952E-06-2.00446E-06
 -1     14416 1.14835E-04-1.88952E-06 2.00446E-06
 -1     14417 1.10318E-04-1.82889E-06-1.92561E-06
 -1     14419 1.10318E-04-1.82889E-06 1.92561E-06
 -1     14420 7.40840E-05-2.00282E-06-1.29314E-06
 -1     14422 7.40840E-05-2.00282E-06 1.29314E-06
 -1     14423 7.46906E-05-2.00288E-06-1.30373E-06
 -1     14425 7.46906E-05-2.00288E-06 1.30373E-06
 -1     14426 7.37916E-05-2.15690E-06-1.28804E-06
 -1     14428 7.37916E-05-2.15690E-06 1.28804E-06
 -1     14429 1.20355E-04-4.52457E-06-2.10080E-06
 -1     14431 1.20355E-04-4.52457E-06 2.10080E-06
 -1     14432 1.17941E-04-4.60822E-06-2.05866E-06
 -1     14434 1.17941E-04-4.60822E-06 2.05866E-06
 -1     14435 1.20344E-04-4.35018E-06-2.10061E-06
 -1     14437 1.20344E-04-4.35018E-06 2.10061E-06
 -1     14438 6.63069E-05-6.81894E-06-1.15739E-06
 -1     14440 6.63069E-05-6.81894E-06 1.15739E-06
 -1     14441 6.60425E-05-6.81805E-06-1.15278E-06
 -1     14443 6.60425E-05-6.81805E-06 1.15278E-06
 -1     14444 7.11217E-05-1.85342E-06-1.24143E-06
 -1     14446 7.11217E-05-1.85342E-06 1.24143E-06
 -1     14447 8.97783E-05-2.00050E-06-1.56709E-06
 -1     14449 8.97783E-05-2.00050E-06 1.56709E-06
 -1     14450 9.10540E-05-2.00075E-06-1.58935E-06
 -1     14452 9.10540E-05-2.00075E-06 1.58935E-06
 -1     14453 8.91589E-05-2.15430E-06-1.55627E-06
 -1     14455 8.91589E-05-2.15430E-06 1.55627E-06
 -1     14456 1.22897E-04-4.08786E-06-2.14517E-06
 -1     14458 1.22897E-04-4.08786E-06 2.14517E-06
 -1     14459 8.22663E-05-2.00389E-06-1.43596E-06
 -1     14461 8.22663E-05-2.00389E-06 1.43596E-06
 -1     14462 8.27306E-05-2.15828E-06-1.44407E-06
 -1     14464 8.27306E-05-2.15828E-06 1.44407E-06
 -1     14465 8.13640E-05-2.00406E-06-1.42021E-06
 -1     14467 8.13640E-05-2.00406E-06 1.42021E-06
 -1     14468 8.52095E-05-2.00213E-06-1.48734E-06
 -1     14470 8.52095E-05-2.00213E-06 1.48734E-06
 -1     14471 8.62775E-05-2.00170E-06-1.50598E-06
 -1     14473 8.62775E-05-2.00170E-06 1.50598E-06
 -1     14474 8.68265E-05-2.15530E-06-1.51556E-06
 -1     14476 8.68265E-05-2.15530E-06 1.51556E-06
 -1     14477 8.46914E-05-2.15696E-06-1.47829E-06
 -1     14479 8.46914E-05-2.15696E-06 1.47829E-06
 -1     14480 6.63634E-05-2.39225E-06-1.15838E-06
 -1     14482 6.63634E-05-2.39225E-06 1.15838E-06
 -1     14483 6.59377E-05-6.68396E-06-1.15095E-06
 -1     14485 6.59377E-05-6.68396E-06 1.15095E-06
 -1     14486 6.59931E-05-6.53223E-06-1.15191E-06
 -1     14488 6.59931E-05-6.53223E-06 1.15191E-06
 -1     14489 1.00039E-04-2.00202E-06-1.74619E-06
 -1     14491 1.00039E-04-2.00202E-06 1.74619E-06
 -1     14492 1.00937E-04-2.15502E-06-1.76185E-06
 -1     14494 1.00937E-04-2.15502E-06 1.76185E-06
 -1     14495 9.83870E-05-2.00449E-06-1.71735E-06
 -1     14497 9.83870E-05-2.00449E-06 1.71735E-06
 -1     14498 7.23976E-05-2.00316E-06-1.26370E-06
 -1     14500 7.23976E-05-2.00316E-06 1.26370E-06
 -1     14501 7.26680E-05-2.15703E-06-1.26842E-06
 -1     14503 7.26680E-05-2.15703E-06 1.26842E-06
 -1     14504 7.18750E-05-2.00416E-06-1.25458E-06
 -1     14506 7.18750E-05-2.00416E-06 1.25458E-06
 -1     14507 7.50032E-05-2.15749E-06-1.30919E-06
 -1     14509 7.50032E-05-2.15749E-06 1.30919E-06
 -1     14510 6.63193E-05-6.48349E-06-1.15761E-06
 -1     14512 6.63193E-05-6.48349E-06 1.15761E-06
 -1     14513 6.64567E-05-6.66719E-06-1.16001E-06
 -1     14515 6.64567E-05-6.66719E-06 1.16001E-06
 -1     14516 6.66728E-05-2.41630E-06-1.16378E-06
 -1     14518 6.66728E-05-2.41630E-06 1.16378E-06
 -1     14519 6.67422E-05-6.18182E-06-1.16499E-06
 -1     14521 6.67422E-05-6.18182E-06 1.16499E-06
 -1     14522 6.67168E-05-5.97585E-06-1.16455E-06
 -1     14524 6.67168E-05-5.97585E-06 1.16455E-06
 -1     14525 1.15744E-04-5.18948E-06-2.02032E-06
 -1     14527 1.15744E-04-5.18948E-06 2.02032E-06
 -1     14528 1.15751E-04-5.35427E-06-2.02044E-06
 -1     14530 1.15751E-04-5.35427E-06 2.02044E-06
 -1     14531 6.67825E-05-2.62190E-06-1.16569E-06
 -1     14533 6.67825E-05-2.62190E-06 1.16569E-06
 -1     14534 6.70367E-05-2.46759E-06-1.17013E-06
 -1     14536 6.70367E-05-2.46759E-06 1.17013E-06
 -1     14537 6.65897E-05-4.35238E-06-1.16233E-06
 -1     14539 6.65897E-05-4.35238E-06 1.16233E-06
 -1     14540 6.65932E-05-4.17117E-06-1.16239E-06
 -1     14542 6.65932E-05-4.17117E-06 1.16239E-06
 -1     14543 1.20358E-04-3.64826E-06-2.10085E-06
 -1     14545 1.20358E-04-3.64826E-06 2.10085E-06
 -1     14546 1.20354E-04-3.82478E-06-2.10078E-06
 -1     14548 1.20354E-04-3.82478E-06 2.10078E-06
 -1     14549 1.17954E-04-3.56246E-06-2.05889E-06
 -1     14551 1.17954E-04-3.56246E-06 2.05889E-06
 -1     14552 6.66004E-05-3.98886E-06-1.16251E-06
 -1     14554 6.66004E-05-3.98886E-06 1.16251E-06
 -1     14555 6.66120E-05-3.80492E-06-1.16272E-06
 -1     14557 6.66120E-05-3.80492E-06 1.16272E-06
 -1     14558 6.68683E-05-4.08139E-06-1.16719E-06
 -1     14560 6.68683E-05-4.08139E-06 1.16719E-06
 -1     14561 6.65995E-05-6.48886E-06-1.16250E-06
 -1     14563 6.65995E-05-6.48886E-06 1.16250E-06
 -1     14564 6.66389E-05-5.42416E-06-1.16319E-06
 -1     14566 6.66389E-05-5.42416E-06 1.16319E-06
 -1     14567 6.66269E-05-5.24346E-06-1.16298E-06
 -1     14569 6.66269E-05-5.24346E-06 1.16298E-06
 -1     14570 6.67907E-05-2.81174E-06-1.16584E-06
 -1     14572 6.67907E-05-2.81174E-06 1.16584E-06
 -1     14573 6.99545E-05-2.01845E-06-1.22106E-06
 -1     14575 6.99545E-05-2.01845E-06 1.22106E-06
 -1     14576 7.04114E-05-2.01286E-06-1.22904E-06
 -1     14578 7.04114E-05-2.01286E-06 1.22904E-06
 -1     14579 6.97273E-05-2.17978E-06-1.21709E-06
 -1     14581 6.97273E-05-2.17978E-06 1.21709E-06
 -1     14582 7.66555E-05-2.00370E-06-1.33803E-06
 -1     14584 7.66555E-05-2.00370E-06 1.33803E-06
 -1     14585 7.73640E-05-2.00392E-06-1.35039E-06
 -1     14587 7.73640E-05-2.00392E-06 1.35039E-06
 -1     14588 7.77286E-05-2.15882E-06-1.35676E-06
 -1     14590 7.77286E-05-2.15882E-06 1.35676E-06
 -1     14591 7.63123E-05-2.15814E-06-1.33204E-06
 -1     14593 7.63123E-05-2.15814E-06 1.33204E-06
 -1     14594 6.66345E-05-3.61718E-06-1.16311E-06
 -1     14596 6.66345E-05-3.61718E-06 1.16311E-06
 -1     14597 6.66555E-05-3.42936E-06-1.16348E-06
 -1     14599 6.66555E-05-3.42936E-06 1.16348E-06
 -1     14600 6.68990E-05-3.71134E-06-1.16773E-06
 -1     14602 6.68990E-05-3.71134E-06 1.16773E-06
 -1     14603 7.08839E-05-2.00834E-06-1.23728E-06
 -1     14605 7.08839E-05-2.00834E-06 1.23728E-06
 -1     14606 7.13708E-05-2.00585E-06-1.24578E-06
 -1     14608 7.13708E-05-2.00585E-06 1.24578E-06
 -1     14609 7.16229E-05-2.15907E-06-1.25018E-06
 -1     14611 7.16229E-05-2.15907E-06 1.25018E-06
 -1     14612 7.06464E-05-2.16528E-06-1.23314E-06
 -1     14614 7.06464E-05-2.16528E-06 1.23314E-06
 -1     14615 6.66966E-05-3.23210E-06-1.16419E-06
 -1     14617 6.66966E-05-3.23210E-06 1.16419E-06
 -1     14618 6.67215E-05-3.03967E-06-1.16463E-06
 -1     14620 6.67215E-05-3.03967E-06 1.16463E-06
 -1     14621 6.69648E-05-3.32633E-06-1.16887E-06
 -1     14623 6.69648E-05-3.32633E-06 1.16887E-06
 -1     14624 7.35058E-05-2.31112E-06-1.28305E-06
 -1     14626 7.35058E-05-2.31112E-06 1.28305E-06
 -1     14627 7.40889E-05-2.31135E-06-1.29323E-06
 -1     14629 7.40889E-05-2.31135E-06 1.29323E-06
 -1     14630 1.15777E-04-5.51292E-06-2.02089E-06
 -1     14632 1.15777E-04-5.51292E-06 2.02089E-06
 -1     14633 1.15713E-04-5.67693E-06-2.01978E-06
 -1     14635 1.15713E-04-5.67693E-06 2.01978E-06
 -1     14636 1.13600E-04-5.42126E-06-1.98290E-06
 -1     14638 1.13600E-04-5.42126E-06 1.98290E-06
 -1     14639 1.20344E-04-3.99965E-06-2.10061E-06
 -1     14641 1.20344E-04-3.99965E-06 2.10061E-06
 -1     14642 1.20343E-04-4.17566E-06-2.10059E-06
 -1     14644 1.20343E-04-4.17566E-06 2.10059E-06
 -1     14645 1.17928E-04-3.91255E-06-2.05844E-06
 -1     14647 1.17928E-04-3.91255E-06 2.05844E-06
 -1     14648 1.13520E-04-6.58381E-06-1.98150E-06
 -1     14650 1.13520E-04-6.58381E-06 1.98150E-06
 -1     14651 1.11090E-04-6.60164E-06-1.93908E-06
 -1     14653 1.11090E-04-6.60164E-06 1.93908E-06
 -1     14654 1.14147E-04-6.43233E-06-1.99244E-06
 -1     14656 1.14147E-04-6.43233E-06 1.99244E-06
 -1     14657 1.08860E-04-6.61802E-06-1.90015E-06
 -1     14659 1.08860E-04-6.61802E-06 1.90015E-06
 -1     14660 1.06706E-04-6.62711E-06-1.86255E-06
 -1     14662 1.06706E-04-6.62711E-06 1.86255E-06
 -1     14663 1.09501E-04-6.47779E-06-1.91134E-06
 -1     14665 1.09501E-04-6.47779E-06 1.91134E-06
 -1     14666 1.04698E-04-6.63231E-06-1.82752E-06
 -1     14668 1.04698E-04-6.63231E-06 1.82752E-06
 -1     14669 1.02772E-04-6.63431E-06-1.79389E-06
 -1     14671 1.02772E-04-6.63431E-06 1.79389E-06
 -1     14672 1.05313E-04-6.49940E-06-1.83825E-06
 -1     14674 1.05313E-04-6.49940E-06 1.83825E-06
 -1     14675 1.00961E-04-6.63123E-06-1.76229E-06
 -1     14677 1.00961E-04-6.63123E-06 1.76229E-06
 -1     14678 9.92288E-05-6.62860E-06-1.73204E-06
 -1     14680 9.92288E-05-6.62860E-06 1.73204E-06
 -1     14681 1.01536E-04-6.50155E-06-1.77231E-06
 -1     14683 1.01536E-04-6.50155E-06 1.77231E-06
 -1     14684 9.75912E-05-6.62159E-06-1.70346E-06
 -1     14686 9.75912E-05-6.62159E-06 1.70346E-06
 -1     14687 9.60260E-05-6.61722E-06-1.67614E-06
 -1     14689 9.60260E-05-6.61722E-06 1.67614E-06
 -1     14690 9.81214E-05-6.49147E-06-1.71272E-06
 -1     14692 9.81214E-05-6.49147E-06 1.71272E-06
 -1     14693 9.45455E-05-6.61022E-06-1.65030E-06
 -1     14695 9.45455E-05-6.61022E-06 1.65030E-06
 -1     14696 9.31240E-05-6.60648E-06-1.62549E-06
 -1     14698 9.31240E-05-6.60648E-06 1.62549E-06
 -1     14699 9.50319E-05-6.47745E-06-1.65879E-06
 -1     14701 9.50319E-05-6.47745E-06 1.65879E-06
 -1     14702 9.17658E-05-6.60340E-06-1.60178E-06
 -1     14704 9.17658E-05-6.60340E-06 1.60178E-06
 -1     14705 9.04653E-05-6.60156E-06-1.57908E-06
 -1     14707 9.04653E-05-6.60156E-06 1.57908E-06
 -1     14708 9.22172E-05-6.46737E-06-1.60966E-06
 -1     14710 9.22172E-05-6.46737E-06 1.60966E-06
 -1     14711 8.92173E-05-6.60052E-06-1.55729E-06
 -1     14713 8.92173E-05-6.60052E-06 1.55729E-06
 -1     14714 8.80245E-05-6.59979E-06-1.53647E-06
 -1     14716 8.80245E-05-6.59979E-06 1.53647E-06
 -1     14717 8.96322E-05-6.46326E-06-1.56454E-06
 -1     14719 8.96322E-05-6.46326E-06 1.56454E-06
 -1     14720 8.68797E-05-6.59918E-06-1.51649E-06
 -1     14722 8.68797E-05-6.59918E-06 1.51649E-06
 -1     14723 8.57854E-05-6.59880E-06-1.49739E-06
 -1     14725 8.57854E-05-6.59880E-06 1.49739E-06
 -1     14726 8.72586E-05-6.46162E-06-1.52310E-06
 -1     14728 8.72586E-05-6.46162E-06 1.52310E-06
 -1     14729 8.47360E-05-6.59823E-06-1.47907E-06
 -1     14731 8.47360E-05-6.59823E-06 1.47907E-06
 -1     14732 8.37315E-05-6.59800E-06-1.46154E-06
 -1     14734 8.37315E-05-6.59800E-06 1.46154E-06
 -1     14735 8.50818E-05-6.46045E-06-1.48511E-06
 -1     14737 8.50818E-05-6.46045E-06 1.48511E-06
 -1     14738 8.27683E-05-6.59778E-06-1.44473E-06
 -1     14740 8.27683E-05-6.59778E-06 1.44473E-06
 -1     14741 8.18445E-05-6.59778E-06-1.42860E-06
 -1     14743 8.18445E-05-6.59778E-06 1.42860E-06
 -1     14744 8.30850E-05-6.45966E-06-1.45025E-06
 -1     14746 8.30850E-05-6.45966E-06 1.45025E-06
 -1     14747 8.09577E-05-6.59804E-06-1.41312E-06
 -1     14749 8.09577E-05-6.59804E-06 1.41312E-06
 -1     14750 8.01064E-05-6.59824E-06-1.39826E-06
 -1     14752 8.01064E-05-6.59824E-06 1.39826E-06
 -1     14753 8.12492E-05-6.45970E-06-1.41821E-06
 -1     14755 8.12492E-05-6.45970E-06 1.41821E-06
 -1     14756 7.92880E-05-6.59867E-06-1.38398E-06
 -1     14758 7.92880E-05-6.59867E-06 1.38398E-06
 -1     14759 7.85023E-05-6.59889E-06-1.37026E-06
 -1     14761 7.85023E-05-6.59889E-06 1.37026E-06
 -1     14762 7.95569E-05-6.46040E-06-1.38867E-06
 -1     14764 7.95569E-05-6.46040E-06 1.38867E-06
 -1     14765 7.77465E-05-6.59911E-06-1.35707E-06
 -1     14767 7.77465E-05-6.59911E-06 1.35707E-06
 -1     14768 7.70212E-05-6.59924E-06-1.34441E-06
 -1     14770 7.70212E-05-6.59924E-06 1.34441E-06
 -1     14771 7.79945E-05-6.46106E-06-1.36140E-06
 -1     14773 7.79945E-05-6.46106E-06 1.36140E-06
 -1     14774 7.63236E-05-6.59927E-06-1.33223E-06
 -1     14776 7.63236E-05-6.59927E-06 1.33223E-06
 -1     14777 7.56540E-05-6.59942E-06-1.32055E-06
 -1     14779 7.56540E-05-6.59942E-06 1.32055E-06
 -1     14780 7.65518E-05-6.46132E-06-1.33622E-06
 -1     14782 7.65518E-05-6.46132E-06 1.33622E-06
 -1     14783 7.50103E-05-6.59972E-06-1.30931E-06
 -1     14785 7.50103E-05-6.59972E-06 1.30931E-06
 -1     14786 7.43921E-05-6.60018E-06-1.29852E-06
 -1     14788 7.43921E-05-6.60018E-06 1.29852E-06
 -1     14789 7.52203E-05-6.46165E-06-1.31298E-06
 -1     14791 7.52203E-05-6.46165E-06 1.31298E-06
 -1     14792 7.37982E-05-6.60131E-06-1.28815E-06
 -1     14794 7.37982E-05-6.60131E-06 1.28815E-06
 -1     14795 7.32270E-05-6.60221E-06-1.27818E-06
 -1     14797 7.32270E-05-6.60221E-06 1.27818E-06
 -1     14798 7.39916E-05-6.46309E-06-1.29153E-06
 -1     14800 7.39916E-05-6.46309E-06 1.29153E-06
 -1     14801 7.26787E-05-6.60422E-06-1.26861E-06
 -1     14803 7.26787E-05-6.60422E-06 1.26861E-06
 -1     14804 7.21504E-05-6.60512E-06-1.25939E-06
 -1     14806 7.21504E-05-6.60512E-06 1.25939E-06
 -1     14807 7.28576E-05-6.46625E-06-1.27173E-06
 -1     14809 7.28576E-05-6.46625E-06 1.27173E-06
 -1     14810 7.16422E-05-6.60634E-06-1.25052E-06
 -1     14812 7.16422E-05-6.60634E-06 1.25052E-06
 -1     14813 7.11537E-05-6.60628E-06-1.24199E-06
 -1     14815 7.11537E-05-6.60628E-06 1.24199E-06
 -1     14816 7.18085E-05-6.46949E-06-1.25342E-06
 -1     14818 7.18085E-05-6.46949E-06 1.25342E-06
 -1     14819 7.06829E-05-6.60418E-06-1.23377E-06
 -1     14821 7.06829E-05-6.60418E-06 1.23377E-06
 -1     14822 7.02347E-05-6.60324E-06-1.22595E-06
 -1     14824 7.02347E-05-6.60324E-06 1.22595E-06
 -1     14825 7.08363E-05-6.46862E-06-1.23645E-06
 -1     14827 7.08363E-05-6.46862E-06 1.23645E-06
 -1     14828 6.98077E-05-6.60054E-06-1.21850E-06
 -1     14830 6.98077E-05-6.60054E-06 1.21850E-06
 -1     14831 6.94003E-05-6.60094E-06-1.21139E-06
 -1     14833 6.94003E-05-6.60094E-06 1.21139E-06
 -1     14834 6.99452E-05-6.46381E-06-1.22090E-06
 -1     14836 6.99452E-05-6.46381E-06 1.22090E-06
 -1     14837 6.90209E-05-6.60678E-06-1.20476E-06
 -1     14839 6.90209E-05-6.60678E-06 1.20476E-06
 -1     14840 6.86464E-05-6.60743E-06-1.19823E-06
 -1     14842 6.86464E-05-6.60743E-06 1.19823E-06
 -1     14843 6.91450E-05-6.46695E-06-1.20693E-06
 -1     14845 6.91450E-05-6.46695E-06 1.20693E-06
 -1     14846 6.82786E-05-6.60594E-06-1.19181E-06
 -1     14848 6.82786E-05-6.60594E-06 1.19181E-06
 -1     14849 6.79393E-05-6.60424E-06-1.18588E-06
 -1     14851 6.79393E-05-6.60424E-06 1.18588E-06
 -1     14852 6.84020E-05-6.47130E-06-1.19396E-06
 -1     14854 6.84020E-05-6.47130E-06 1.19396E-06
 -1     14855 6.75536E-05-6.58887E-06-1.17915E-06
 -1     14857 6.75536E-05-6.58887E-06 1.17915E-06
 -1     14858 6.72772E-05-6.60157E-06-1.17433E-06
 -1     14860 6.72772E-05-6.60157E-06 1.17433E-06
 -1     14861 6.76531E-05-6.45444E-06-1.18089E-06
 -1     14863 6.76531E-05-6.45444E-06 1.18089E-06
 -1     14864 6.66791E-05-5.79094E-06-1.16389E-06
 -1     14866 6.66791E-05-5.79094E-06 1.16389E-06
 -1     14867 6.66596E-05-5.60374E-06-1.16355E-06
 -1     14869 6.66596E-05-5.60374E-06 1.16355E-06
 -1     14870 6.69962E-05-5.87358E-06-1.16942E-06
 -1     14872 6.69962E-05-5.87358E-06 1.16942E-06
 -1     14873 7.46929E-05-2.31209E-06-1.30377E-06
 -1     14875 7.46929E-05-2.31209E-06 1.30377E-06
 -1     14876 7.53223E-05-2.31244E-06-1.31476E-06
 -1     14878 7.53223E-05-2.31244E-06 1.31476E-06
 -1     14879 7.43900E-05-2.46631E-06-1.29848E-06
 -1     14881 7.43900E-05-2.46631E-06 1.29848E-06
 -1     14882 1.15602E-04-5.83106E-06-2.01784E-06
 -1     14884 1.15602E-04-5.83106E-06 2.01784E-06
 -1     14885 1.15403E-04-5.99126E-06-2.01437E-06
 -1     14887 1.15403E-04-5.99126E-06 2.01437E-06
 -1     14888 1.13518E-04-5.73411E-06-1.98147E-06
 -1     14890 1.13518E-04-5.73411E-06 1.98147E-06
 -1     14891 6.66132E-05-5.06623E-06-1.16274E-06
 -1     14893 6.66132E-05-5.06623E-06 1.16274E-06
 -1     14894 6.66051E-05-4.88713E-06-1.16260E-06
 -1     14896 6.66051E-05-4.88713E-06 1.16260E-06
 -1     14897 6.68999E-05-5.15227E-06-1.16774E-06
 -1     14899 6.68999E-05-5.15227E-06 1.16774E-06
 -1     14900 8.62717E-05-2.30976E-06-1.50588E-06
 -1     14902 8.62717E-05-2.30976E-06 1.50588E-06
 -1     14903 8.73862E-05-2.30897E-06-1.52533E-06
 -1     14905 8.73862E-05-2.30897E-06 1.52533E-06
 -1     14906 6.68590E-05-6.37210E-06-1.16703E-06
 -1     14908 6.68590E-05-6.37210E-06 1.16703E-06
 -1     14909 6.71566E-05-6.24877E-06-1.17222E-06
 -1     14911 6.71566E-05-6.24877E-06 1.17222E-06
 -1     14912 1.17920E-04-4.26198E-06-2.05830E-06
 -1     14914 1.17920E-04-4.26198E-06 2.05830E-06
 -1     14915 1.15688E-04-3.12759E-06-2.01935E-06
 -1     14917 1.15688E-04-3.12759E-06 2.01935E-06
 -1     14918 1.15714E-04-3.30465E-06-2.01979E-06
 -1     14920 1.15714E-04-3.30465E-06 2.01979E-06
 -1     14921 6.73964E-05-2.46586E-06-1.17641E-06
 -1     14923 6.73964E-05-2.46586E-06 1.17641E-06
 -1     14924 6.70064E-05-6.55580E-06-1.16960E-06
 -1     14926 6.70064E-05-6.55580E-06 1.16960E-06
 -1     14927 6.69356E-05-5.50909E-06-1.16836E-06
 -1     14929 6.69356E-05-5.50909E-06 1.16836E-06
 -1     14930 7.88667E-05-2.31463E-06-1.37662E-06
 -1     14932 7.88667E-05-2.31463E-06 1.37662E-06
 -1     14933 7.96651E-05-2.31457E-06-1.39056E-06
 -1     14935 7.96651E-05-2.31457E-06 1.39056E-06
 -1     14936 6.86557E-05-2.37176E-06-1.19839E-06
 -1     14938 6.86557E-05-2.37176E-06 1.19839E-06
 -1     14939 6.90784E-05-2.35565E-06-1.20577E-06
 -1     14941 6.90784E-05-2.35565E-06 1.20577E-06
 -1     14942 1.03863E-04-2.30084E-06-1.81294E-06
 -1     14944 1.03863E-04-2.30084E-06 1.81294E-06
 -1     14945 1.05692E-04-2.28578E-06-1.84486E-06
 -1     14947 1.05692E-04-2.28578E-06 1.84486E-06
 -1     14948 9.23922E-05-2.00170E-06-1.61271E-06
 -1     14950 9.23922E-05-2.00170E-06 1.61271E-06
 -1     14951 9.37883E-05-2.00236E-06-1.63708E-06
 -1     14953 9.37883E-05-2.00236E-06 1.63708E-06
 -1     14954 9.17144E-05-2.15503E-06-1.60088E-06
 -1     14956 9.17144E-05-2.15503E-06 1.60088E-06
 -1     14957 8.09261E-05-2.15889E-06-1.41257E-06
 -1     14959 8.09261E-05-2.15889E-06 1.41257E-06
 -1     14960 1.15077E-04-6.13683E-06-2.00867E-06
 -1     14962 1.15077E-04-6.13683E-06 2.00867E-06
 -1     14963 1.14684E-04-6.29140E-06-2.00181E-06
 -1     14965 1.14684E-04-6.29140E-06 2.00181E-06
 -1     14966 1.12275E-04-6.32046E-06-1.95976E-06
 -1     14968 1.12275E-04-6.32046E-06 1.95976E-06
 -1     14969 1.13100E-04-6.03388E-06-1.97416E-06
 -1     14971 1.13100E-04-6.03388E-06 1.97416E-06
 -1     14972 6.78360E-05-2.41889E-06-1.18408E-06
 -1     14974 6.78360E-05-2.41889E-06 1.18408E-06
 -1     14975 6.82337E-05-2.40061E-06-1.19102E-06
 -1     14977 6.82337E-05-2.40061E-06 1.19102E-06
 -1     14978 6.84404E-05-2.55040E-06-1.19463E-06
 -1     14980 6.84404E-05-2.55040E-06 1.19463E-06
 -1     14981 6.75786E-05-2.62623E-06-1.17959E-06
 -1     14983 6.75786E-05-2.62623E-06 1.17959E-06
 -1     14984 1.15291E-04-2.05960E-06-2.01241E-06
 -1     14986 1.15291E-04-2.05960E-06 2.01241E-06
 -1     14987 1.15575E-04-2.24745E-06-2.01736E-06
 -1     14989 1.15575E-04-2.24745E-06 2.01736E-06
 -1     14990 1.12958E-04-2.01542E-06-1.97169E-06
 -1     14992 1.12958E-04-2.01542E-06 1.97169E-06
 -1     14993 1.09037E-04-1.94162E-06-1.90324E-06
 -1     14995 1.09037E-04-1.94162E-06 1.90324E-06
 -1     14996 1.11177E-04-1.95801E-06-1.94059E-06
 -1     14998 1.11177E-04-1.95801E-06 1.94059E-06
 -1     14999 1.11595E-04-2.12829E-06-1.94790E-06
 -1     15001 1.11595E-04-2.12829E-06 1.94790E-06
 -1     15002 1.08072E-04-2.09541E-06-1.88640E-06
 -1     15004 1.08072E-04-2.09541E-06 1.88640E-06
 -1     15005 6.70791E-05-2.90113E-06-1.17087E-06
 -1     15007 6.70791E-05-2.90113E-06 1.17087E-06
 -1     15008 1.15694E-04-5.02815E-06-2.01944E-06
 -1     15010 1.15694E-04-5.02815E-06 2.01944E-06
 -1     15011 1.13528E-04-5.10121E-06-1.98164E-06
 -1     15013 1.13528E-04-5.10121E-06 1.98164E-06
 -1     15014 1.15665E-04-4.85987E-06-2.01894E-06
 -1     15016 1.15665E-04-4.85987E-06 2.01894E-06
 -1     15017 7.59754E-05-2.31309E-06-1.32616E-06
 -1     15019 7.59754E-05-2.31309E-06 1.32616E-06
 -1     15020 7.66560E-05-2.31340E-06-1.33804E-06
 -1     15022 7.66560E-05-2.31340E-06 1.33804E-06
 -1     15023 7.56464E-05-2.46770E-06-1.32041E-06
 -1     15025 7.56464E-05-2.46770E-06 1.32041E-06
 -1     15026 7.29464E-05-2.31079E-06-1.27328E-06
 -1     15028 7.29464E-05-2.31079E-06 1.27328E-06
 -1     15029 7.32270E-05-2.46524E-06-1.27818E-06
 -1     15031 7.32270E-05-2.46524E-06 1.27818E-06
 -1     15032 7.24050E-05-2.31115E-06-1.26383E-06
 -1     15034 7.24050E-05-2.31115E-06 1.26383E-06
 -1     15035 8.85494E-05-2.30751E-06-1.54563E-06
 -1     15037 8.85494E-05-2.30751E-06 1.54563E-06
 -1     15038 8.97690E-05-2.30730E-06-1.56692E-06
 -1     15040 8.97690E-05-2.30730E-06 1.56692E-06
 -1     15041 8.79571E-05-2.46197E-06-1.53530E-06
 -1     15043 8.79571E-05-2.46197E-06 1.53530E-06
 -1     15044 7.73633E-05-2.31390E-06-1.35038E-06
 -1     15046 7.73633E-05-2.31390E-06 1.35038E-06
 -1     15047 7.81001E-05-2.31426E-06-1.36324E-06
 -1     15049 7.81001E-05-2.31426E-06 1.36324E-06
 -1     15050 7.84788E-05-2.46971E-06-1.36985E-06
 -1     15052 7.84788E-05-2.46971E-06 1.36985E-06
 -1     15053 7.70059E-05-2.46884E-06-1.34414E-06
 -1     15055 7.70059E-05-2.46884E-06 1.34414E-06
 -1     15056 6.65966E-05-4.71011E-06-1.16245E-06
 -1     15058 6.65966E-05-4.71011E-06 1.16245E-06
 -1     15059 6.65933E-05-4.53103E-06-1.16239E-06
 -1     15061 6.65933E-05-4.53103E-06 1.16239E-06
 -1     15062 6.68770E-05-4.79802E-06-1.16734E-06
 -1     15064 6.68770E-05-4.79802E-06 1.16734E-06
 -1     15065 9.67801E-05-2.00414E-06-1.68930E-06
 -1     15067 9.67801E-05-2.00414E-06 1.68930E-06
 -1     15068 9.75921E-05-2.15970E-06-1.70348E-06
 -1     15070 9.75921E-05-2.15970E-06 1.70348E-06
 -1     15071 9.52570E-05-2.00405E-06-1.66272E-06
 -1     15073 9.52570E-05-2.00405E-06 1.66272E-06
 -1     15074 1.15460E-04-2.42078E-06-2.01537E-06
 -1     15076 1.15460E-04-2.42078E-06 2.01537E-06
 -1     15077 1.15446E-04-2.60455E-06-2.01511E-06
 -1     15079 1.15446E-04-2.60455E-06 2.01511E-06
 -1     15080 1.13286E-04-2.35893E-06-1.97741E-06
 -1     15082 1.13286E-04-2.35893E-06 1.97741E-06
 -1     15083 1.15514E-04-2.77523E-06-2.01630E-06
 -1     15085 1.15514E-04-2.77523E-06 2.01630E-06
 -1     15086 1.15553E-04-2.95354E-06-2.01699E-06
 -1     15088 1.15553E-04-2.95354E-06 2.01699E-06
 -1     15089 1.13435E-04-3.04793E-06-1.98001E-06
 -1     15091 1.13435E-04-3.04793E-06 1.98001E-06
 -1     15092 1.13241E-04-2.70315E-06-1.97664E-06
 -1     15094 1.13241E-04-2.70315E-06 1.97664E-06
 -1     15095 8.22651E-05-2.31374E-06-1.43594E-06
 -1     15097 8.22651E-05-2.31374E-06 1.43594E-06
 -1     15098 8.32051E-05-2.31330E-06-1.45235E-06
 -1     15100 8.32051E-05-2.31330E-06 1.45235E-06
 -1     15101 1.01921E-04-2.31168E-06-1.77904E-06
 -1     15103 1.01921E-04-2.31168E-06 1.77904E-06
 -1     15104 1.03041E-04-2.46249E-06-1.79858E-06
 -1     15106 1.03041E-04-2.46249E-06 1.79858E-06
 -1     15107 1.00177E-04-2.31670E-06-1.74860E-06
 -1     15109 1.00177E-04-2.31670E-06 1.74860E-06
 -1     15110 1.15631E-04-4.69238E-06-2.01835E-06
 -1     15112 1.15631E-04-4.69238E-06 2.01835E-06
 -1     15113 1.13448E-04-4.77234E-06-1.98025E-06
 -1     15115 1.13448E-04-4.77234E-06 1.98025E-06
 -1     15116 1.15612E-04-4.52066E-06-2.01802E-06
 -1     15118 1.15612E-04-4.52066E-06 2.01802E-06
 -1     15119 6.68646E-05-4.44235E-06-1.16713E-06
 -1     15121 6.68646E-05-4.44235E-06 1.16713E-06
 -1     15122 6.74938E-05-6.30093E-06-1.17811E-06
 -1     15124 6.74938E-05-6.30093E-06 1.17811E-06
 -1     15125 6.73678E-05-6.11063E-06-1.17591E-06
 -1     15127 6.73678E-05-6.11063E-06 1.17591E-06
 -1     15128 6.71623E-05-3.81345E-06-1.17232E-06
 -1     15130 6.71623E-05-3.81345E-06 1.17232E-06
 -1     15131 6.71863E-05-3.62570E-06-1.17274E-06
 -1     15133 6.71863E-05-3.62570E-06 1.17274E-06
 -1     15134 8.36888E-05-2.46780E-06-1.46079E-06
 -1     15136 8.36888E-05-2.46780E-06 1.46079E-06
 -1     15137 8.41844E-05-2.31234E-06-1.46944E-06
 -1     15139 8.41844E-05-2.31234E-06 1.46944E-06
 -1     15140 1.15658E-04-3.47633E-06-2.01881E-06
 -1     15142 1.15658E-04-3.47633E-06 2.01881E-06
 -1     15143 1.15642E-04-3.65154E-06-2.01853E-06
 -1     15145 1.15642E-04-3.65154E-06 2.01853E-06
 -1     15146 1.13511E-04-3.39366E-06-1.98133E-06
 -1     15148 1.13511E-04-3.39366E-06 1.98133E-06
 -1     15149 6.73537E-05-3.04517E-06-1.17566E-06
 -1     15151 6.73537E-05-3.04517E-06 1.17566E-06
 -1     15152 6.74284E-05-2.81723E-06-1.17697E-06
 -1     15154 6.74284E-05-2.81723E-06 1.17697E-06
 -1     15155 1.11403E-04-5.01641E-06-1.94455E-06
 -1     15157 1.11403E-04-5.01641E-06 1.94455E-06
 -1     15158 1.11448E-04-5.17777E-06-1.94534E-06
 -1     15160 1.11448E-04-5.17777E-06 1.94534E-06
 -1     15161 6.95154E-05-2.33824E-06-1.21340E-06
 -1     15163 6.95154E-05-2.33824E-06 1.21340E-06
 -1     15164 6.99624E-05-2.32827E-06-1.22120E-06
 -1     15166 6.99624E-05-2.32827E-06 1.22120E-06
 -1     15167 6.92997E-05-2.50414E-06-1.20963E-06
 -1     15169 6.92997E-05-2.50414E-06 1.20963E-06
 -1     15170 6.72438E-05-5.58966E-06-1.17375E-06
 -1     15172 6.72438E-05-5.58966E-06 1.17375E-06
 -1     15173 6.72215E-05-5.41008E-06-1.17336E-06
 -1     15175 6.72215E-05-5.41008E-06 1.17336E-06
 -1     15176 1.11534E-04-5.33161E-06-1.94684E-06
 -1     15178 1.11534E-04-5.33161E-06 1.94684E-06
 -1     15179 1.11557E-04-5.49031E-06-1.94724E-06
 -1     15181 1.11557E-04-5.49031E-06 1.94724E-06
 -1     15182 1.09504E-04-5.24686E-06-1.91140E-06
 -1     15184 1.09504E-04-5.24686E-06 1.91140E-06
 -1     15185 8.32056E-05-2.62431E-06-1.45236E-06
 -1     15187 8.32056E-05-2.62431E-06 1.45236E-06
 -1     15188 8.41850E-05-2.62335E-06-1.46945E-06
 -1     15190 8.41850E-05-2.62335E-06 1.46945E-06
 -1     15191 6.71692E-05-4.88587E-06-1.17244E-06
 -1     15193 6.71692E-05-4.88587E-06 1.17244E-06
 -1     15194 6.71602E-05-4.70885E-06-1.17229E-06
 -1     15196 6.71602E-05-4.70885E-06 1.17229E-06
 -1     15197 6.71464E-05-4.53397E-06-1.17204E-06
 -1     15199 6.71464E-05-4.53397E-06 1.17204E-06
 -1     15200 6.71426E-05-4.35532E-06-1.17198E-06
 -1     15202 6.71426E-05-4.35532E-06 1.17198E-06
 -1     15203 6.74484E-05-4.62182E-06-1.17732E-06
 -1     15205 6.74484E-05-4.62182E-06 1.17732E-06
 -1     15206 8.52067E-05-2.31146E-06-1.48729E-06
 -1     15208 8.52067E-05-2.31146E-06 1.48729E-06
 -1     15209 1.15619E-04-3.82519E-06-2.01814E-06
 -1     15211 1.15619E-04-3.82519E-06 2.01814E-06
 -1     15212 1.15610E-04-4.00010E-06-2.01799E-06
 -1     15214 1.15610E-04-4.00010E-06 2.01799E-06
 -1     15215 1.13436E-04-3.73906E-06-1.98003E-06
 -1     15217 1.13436E-04-3.73906E-06 1.98003E-06
 -1     15218 1.10076E-04-6.34779E-06-1.92138E-06
 -1     15220 1.10076E-04-6.34779E-06 1.92138E-06
 -1     15221 1.07899E-04-6.36418E-06-1.88338E-06
 -1     15223 1.07899E-04-6.36418E-06 1.88338E-06
 -1     15224 1.10564E-04-6.20681E-06-1.92991E-06
 -1     15226 1.10564E-04-6.20681E-06 1.92991E-06
 -1     15227 8.04970E-05-2.31427E-06-1.40508E-06
 -1     15229 8.04970E-05-2.31427E-06 1.40508E-06
 -1     15230 8.13629E-05-2.31410E-06-1.42020E-06
 -1     15232 8.13629E-05-2.31410E-06 1.42020E-06
 -1     15233 8.18088E-05-2.46912E-06-1.42798E-06
 -1     15235 8.18088E-05-2.46912E-06 1.42798E-06
 -1     15236 8.00760E-05-2.46978E-06-1.39773E-06
 -1     15238 8.00760E-05-2.46978E-06 1.39773E-06
 -1     15239 1.05888E-04-6.37520E-06-1.84828E-06
 -1     15241 1.05888E-04-6.37520E-06 1.84828E-06
 -1     15242 1.03922E-04-6.38042E-06-1.81396E-06
 -1     15244 1.03922E-04-6.38042E-06 1.81396E-06
 -1     15245 1.06414E-04-6.24517E-06-1.85746E-06
 -1     15247 1.06414E-04-6.24517E-06 1.85746E-06
 -1     15248 1.02095E-04-6.37790E-06-1.78208E-06
 -1     15250 1.02095E-04-6.37790E-06 1.78208E-06
 -1     15251 1.00318E-04-6.37482E-06-1.75105E-06
 -1     15253 1.00318E-04-6.37482E-06 1.75105E-06
 -1     15254 1.02623E-04-6.25368E-06-1.79129E-06
 -1     15256 1.02623E-04-6.25368E-06 1.79129E-06
 -1     15257 9.86364E-05-6.36478E-06-1.72171E-06
 -1     15259 9.86364E-05-6.36478E-06 1.72171E-06
 -1     15260 9.70266E-05-6.35775E-06-1.69361E-06
 -1     15262 9.70266E-05-6.35775E-06 1.69361E-06
 -1     15263 9.91515E-05-6.24111E-06-1.73069E-06
 -1     15265 9.91515E-05-6.24111E-06 1.73069E-06
 -1     15266 9.55197E-05-6.34427E-06-1.66730E-06
 -1     15268 9.55197E-05-6.34427E-06 1.66730E-06
 -1     15269 9.40622E-05-6.33726E-06-1.64186E-06
 -1     15271 9.40622E-05-6.33726E-06 1.64186E-06
 -1     15272 9.59955E-05-6.21757E-06-1.67561E-06
 -1     15274 9.59955E-05-6.21757E-06 1.67561E-06
 -1     15275 9.26638E-05-6.33249E-06-1.61745E-06
 -1     15277 9.26638E-05-6.33249E-06 1.61745E-06
 -1     15278 9.13261E-05-6.32941E-06-1.59410E-06
 -1     15280 9.13261E-05-6.32941E-06 1.59410E-06
 -1     15281 9.31155E-05-6.19930E-06-1.62534E-06
 -1     15283 9.31155E-05-6.19930E-06 1.62534E-06
 -1     15284 9.00354E-05-6.32827E-06-1.57157E-06
 -1     15286 9.00354E-05-6.32827E-06 1.57157E-06
 -1     15287 8.88062E-05-6.32723E-06-1.55012E-06
 -1     15289 8.88062E-05-6.32723E-06 1.55012E-06
 -1     15290 9.04495E-05-6.19338E-06-1.57880E-06
 -1     15292 9.04495E-05-6.19338E-06 1.57880E-06
 -1     15293 8.76227E-05-6.32644E-06-1.52946E-06
 -1     15295 8.76227E-05-6.32644E-06 1.52946E-06
 -1     15296 8.64950E-05-6.32583E-06-1.50978E-06
 -1     15298 8.64950E-05-6.32583E-06 1.50978E-06
 -1     15299 8.79971E-05-6.19145E-06-1.53599E-06
 -1     15301 8.79971E-05-6.19145E-06 1.53599E-06
 -1     15302 8.54127E-05-6.32462E-06-1.49088E-06
 -1     15304 8.54127E-05-6.32462E-06 1.49088E-06
 -1     15305 8.43788E-05-6.32405E-06-1.47284E-06
 -1     15307 8.43788E-05-6.32405E-06 1.47284E-06
 -1     15308 8.57512E-05-6.18944E-06-1.49679E-06
 -1     15310 8.57512E-05-6.18944E-06 1.49679E-06
 -1     15311 8.33883E-05-6.32319E-06-1.45555E-06
 -1     15313 8.33883E-05-6.32319E-06 1.45555E-06
 -1     15314 8.24392E-05-6.32297E-06-1.43898E-06
 -1     15316 8.24392E-05-6.32297E-06 1.43898E-06
 -1     15317 8.36964E-05-6.18736E-06-1.46093E-06
 -1     15319 8.36964E-05-6.18736E-06 1.46093E-06
 -1     15320 8.15290E-05-6.32319E-06-1.42309E-06
 -1     15322 8.15290E-05-6.32319E-06 1.42309E-06
 -1     15323 8.06550E-05-6.32345E-06-1.40784E-06
 -1     15325 8.06550E-05-6.32345E-06 1.40784E-06
 -1     15326 8.18118E-05-6.18671E-06-1.42803E-06
 -1     15328 8.18118E-05-6.18671E-06 1.42803E-06
 -1     15329 7.98149E-05-6.32437E-06-1.39317E-06
 -1     15331 7.98149E-05-6.32437E-06 1.39317E-06
 -1     15332 7.90081E-05-6.32480E-06-1.37909E-06
 -1     15334 7.90081E-05-6.32480E-06 1.37909E-06
 -1     15335 8.00760E-05-6.18785E-06-1.39773E-06
 -1     15337 8.00760E-05-6.18785E-06 1.39773E-06
 -1     15338 7.82315E-05-6.32539E-06-1.36554E-06
 -1     15340 7.82315E-05-6.32539E-06 1.36554E-06
 -1     15341 7.74864E-05-6.32562E-06-1.35253E-06
 -1     15343 7.74864E-05-6.32562E-06 1.35253E-06
 -1     15344 7.84725E-05-6.18935E-06-1.36974E-06
 -1     15346 7.84725E-05-6.18935E-06 1.36974E-06
 -1     15347 7.67692E-05-6.32550E-06-1.34001E-06
 -1     15349 7.67692E-05-6.32550E-06 1.34001E-06
 -1     15350 7.60814E-05-6.32553E-06-1.32801E-06
 -1     15352 7.60814E-05-6.32553E-06 1.32801E-06
 -1     15353 7.69908E-05-6.18983E-06-1.34388E-06
 -1     15355 7.69908E-05-6.18983E-06 1.34388E-06
 -1     15356 7.54194E-05-6.32541E-06-1.31645E-06
 -1     15358 7.54194E-05-6.32541E-06 1.31645E-06
 -1     15359 7.47847E-05-6.32571E-06-1.30537E-06
 -1     15361 7.47847E-05-6.32571E-06 1.30537E-06
 -1     15362 7.56228E-05-6.18959E-06-1.32000E-06
 -1     15364 7.56228E-05-6.18959E-06 1.32000E-06
 -1     15365 7.41739E-05-6.32663E-06-1.29471E-06
 -1     15367 7.41739E-05-6.32663E-06 1.29471E-06
 -1     15368 7.35883E-05-6.32776E-06-1.28449E-06
 -1     15370 7.35883E-05-6.32776E-06 1.28449E-06
 -1     15371 7.43603E-05-6.19038E-06-1.29796E-06
 -1     15373 7.43603E-05-6.19038E-06 1.29796E-06
 -1     15374 7.30262E-05-6.33059E-06-1.27468E-06
 -1     15376 7.30262E-05-6.33059E-06 1.27468E-06
 -1     15377 7.24855E-05-6.33261E-06-1.26524E-06
 -1     15379 7.24855E-05-6.33261E-06 1.26524E-06
 -1     15380 7.31969E-05-6.19413E-06-1.27766E-06
 -1     15382 7.31969E-05-6.19413E-06 1.27766E-06
 -1     15383 7.19685E-05-6.33713E-06-1.25621E-06
 -1     15385 7.19685E-05-6.33713E-06 1.25621E-06
 -1     15386 7.14671E-05-6.33835E-06-1.24746E-06
 -1     15388 7.14671E-05-6.33835E-06 1.24746E-06
 -1     15389 7.21264E-05-6.20148E-06-1.25897E-06
 -1     15391 7.21264E-05-6.20148E-06 1.25897E-06
 -1     15392 7.09832E-05-6.33835E-06-1.23902E-06
 -1     15394 7.09832E-05-6.33835E-06 1.23902E-06
 -1     15395 7.05188E-05-6.33625E-06-1.23091E-06
 -1     15397 7.05188E-05-6.33625E-06 1.23091E-06
 -1     15398 7.11331E-05-6.20599E-06-1.24163E-06
 -1     15400 7.11331E-05-6.20599E-06 1.24163E-06
 -1     15401 7.00650E-05-6.32581E-06-1.22299E-06
 -1     15403 7.00650E-05-6.32581E-06 1.22299E-06
 -1     15404 6.96443E-05-6.32310E-06-1.21565E-06
 -1     15406 6.96443E-05-6.32310E-06 1.21565E-06
 -1     15407 7.02026E-05-6.19554E-06-1.22539E-06
 -1     15409 7.02026E-05-6.19554E-06 1.22539E-06
 -1     15410 6.92493E-05-6.32064E-06-1.20875E-06
 -1     15412 6.92493E-05-6.32064E-06 1.20875E-06
 -1     15413 6.88752E-05-6.32648E-06-1.20222E-06
 -1     15415 6.88752E-05-6.32648E-06 1.20222E-06
 -1     15416 6.93617E-05-6.18263E-06-1.21071E-06
 -1     15418 6.93617E-05-6.18263E-06 1.21071E-06
 -1     15419 6.78769E-05-6.31630E-06-1.18480E-06
 -1     15421 6.78769E-05-6.31630E-06 1.18480E-06
 -1     15422 6.73127E-05-5.94484E-06-1.17495E-06
 -1     15424 6.73127E-05-5.94484E-06 1.17495E-06
 -1     15425 6.72722E-05-5.75993E-06-1.17424E-06
 -1     15427 6.72722E-05-5.75993E-06 1.17424E-06
 -1     15428 6.75700E-05-5.66093E-06-1.17944E-06
 -1     15430 6.75700E-05-5.66093E-06 1.17944E-06
 -1     15431 6.76563E-05-5.99700E-06-1.18095E-06
 -1     15433 6.76563E-05-5.99700E-06 1.18095E-06
 -1     15434 6.72297E-05-3.43781E-06-1.17350E-06
 -1     15436 6.72297E-05-3.43781E-06 1.17350E-06
 -1     15437 6.72738E-05-3.24054E-06-1.17427E-06
 -1     15439 6.72738E-05-3.24054E-06 1.17427E-06
 -1     15440 6.75037E-05-3.53992E-06-1.17828E-06
 -1     15442 6.75037E-05-3.53992E-06 1.17828E-06
 -1     15443 7.40924E-05-2.62094E-06-1.29329E-06
 -1     15445 7.40924E-05-2.62094E-06 1.29329E-06
 -1     15446 7.46966E-05-2.62168E-06-1.30383E-06
 -1     15448 7.46966E-05-2.62168E-06 1.30383E-06
 -1     15449 1.11643E-04-5.63821E-06-1.94874E-06
 -1     15451 1.11643E-04-5.63821E-06 1.94874E-06
 -1     15452 1.11542E-04-5.79243E-06-1.94697E-06
 -1     15454 1.11542E-04-5.79243E-06 1.94697E-06
 -1     15455 1.09668E-04-5.54867E-06-1.91426E-06
 -1     15457 1.09668E-04-5.54867E-06 1.91426E-06
 -1     15458 6.72006E-05-5.23704E-06-1.17299E-06
 -1     15460 6.72006E-05-5.23704E-06 1.17299E-06
 -1     15461 6.71860E-05-5.05980E-06-1.17274E-06
 -1     15463 6.71860E-05-5.05980E-06 1.17274E-06
 -1     15464 6.75190E-05-5.31761E-06-1.17855E-06
 -1     15466 6.75190E-05-5.31761E-06 1.17855E-06
 -1     15467 8.57313E-05-2.46513E-06-1.49645E-06
 -1     15469 8.57313E-05-2.46513E-06 1.49645E-06
 -1     15470 8.52046E-05-2.62139E-06-1.48725E-06
 -1     15472 8.52046E-05-2.62139E-06 1.48725E-06
 -1     15473 8.62695E-05-2.61969E-06-1.50584E-06
 -1     15475 8.62695E-05-2.61969E-06 1.50584E-06
 -1     15476 8.46899E-05-2.77791E-06-1.47827E-06
 -1     15478 8.46899E-05-2.77791E-06 1.47827E-06
 -1     15479 1.15603E-04-4.17337E-06-2.01785E-06
 -1     15481 1.15603E-04-4.17337E-06 2.01785E-06
 -1     15482 1.15604E-04-4.34792E-06-2.01787E-06
 -1     15484 1.15604E-04-4.34792E-06 2.01787E-06
 -1     15485 1.11507E-04-2.97136E-06-1.94636E-06
 -1     15487 1.11507E-04-2.97136E-06 1.94636E-06
 -1     15488 1.11630E-04-3.14562E-06-1.94851E-06
 -1     15490 1.11630E-04-3.14562E-06 1.94851E-06
 -1     15491 1.13407E-04-4.08602E-06-1.97953E-06
 -1     15493 1.13407E-04-4.08602E-06 1.97953E-06
 -1     15494 1.13408E-04-4.43206E-06-1.97954E-06
 -1     15496 1.13408E-04-4.43206E-06 1.97954E-06
 -1     15497 1.11422E-04-3.30485E-06-1.94488E-06
 -1     15499 1.11422E-04-3.30485E-06 1.94488E-06
 -1     15500 1.11372E-04-3.47654E-06-1.94400E-06
 -1     15502 1.11372E-04-3.47654E-06 1.94400E-06
 -1     15503 1.09582E-04-3.22837E-06-1.91275E-06
 -1     15505 1.09582E-04-3.22837E-06 1.91275E-06
 -1     15506 1.07071E-04-2.41171E-06-1.86893E-06
 -1     15508 1.07071E-04-2.41171E-06 1.86893E-06
 -1     15509 1.07754E-04-2.24595E-06-1.88085E-06
 -1     15511 1.07754E-04-2.24595E-06 1.88085E-06
 -1     15512 9.45185E-05-2.15767E-06-1.64983E-06
 -1     15514 9.45185E-05-2.15767E-06 1.64983E-06
 -1     15515 6.76312E-05-3.15664E-06-1.18051E-06
 -1     15517 6.76312E-05-3.15664E-06 1.18051E-06
 -1     15518 6.74800E-05-4.97063E-06-1.17787E-06
 -1     15520 6.74800E-05-4.97063E-06 1.17787E-06
 -1     15521 1.11342E-04-5.93212E-06-1.94348E-06
 -1     15523 1.11342E-04-5.93212E-06 1.94348E-06
 -1     15524 1.11044E-04-6.07777E-06-1.93828E-06
 -1     15526 1.11044E-04-6.07777E-06 1.93828E-06
 -1     15527 1.08907E-04-6.10508E-06-1.90098E-06
 -1     15529 1.08907E-04-6.10508E-06 1.90098E-06
 -1     15530 1.09558E-04-5.83630E-06-1.91235E-06
 -1     15532 1.09558E-04-5.83630E-06 1.91235E-06
 -1     15533 6.91083E-05-2.66490E-06-1.20629E-06
 -1     15535 6.91083E-05-2.66490E-06 1.20629E-06
 -1     15536 6.95465E-05-2.64749E-06-1.21394E-06
 -1     15538 6.95465E-05-2.64749E-06 1.21394E-06
 -1     15539 6.71393E-05-4.17759E-06-1.17192E-06
 -1     15541 6.71393E-05-4.17759E-06 1.17192E-06
 -1     15542 6.71470E-05-3.99528E-06-1.17206E-06
 -1     15544 6.71470E-05-3.99528E-06 1.17206E-06
 -1     15545 1.09536E-04-2.22119E-06-1.91196E-06
 -1     15547 1.09536E-04-2.22119E-06 1.91196E-06
 -1     15548 1.11350E-04-4.85424E-06-1.94362E-06
 -1     15550 1.11350E-04-4.85424E-06 1.94362E-06
 -1     15551 1.09372E-04-4.93082E-06-1.90909E-06
 -1     15553 1.09372E-04-4.93082E-06 1.90909E-06
 -1     15554 1.11319E-04-4.68672E-06-1.94308E-06
 -1     15556 1.11319E-04-4.68672E-06 1.94308E-06
 -1     15557 9.10460E-05-2.30746E-06-1.58921E-06
 -1     15559 9.10460E-05-2.30746E-06 1.58921E-06
 -1     15560 9.23839E-05-2.30841E-06-1.61257E-06
 -1     15562 9.23839E-05-2.30841E-06 1.61257E-06
 -1     15563 9.03943E-05-2.46067E-06-1.57784E-06
 -1     15565 9.03943E-05-2.46067E-06 1.57784E-06
 -1     15566 6.74431E-05-3.90964E-06-1.17722E-06
 -1     15568 6.74431E-05-3.90964E-06 1.17722E-06
 -1     15569 6.78696E-05-2.77026E-06-1.18467E-06
 -1     15571 6.78696E-05-2.77026E-06 1.18467E-06
 -1     15572 7.53225E-05-2.62296E-06-1.31476E-06
 -1     15574 7.53225E-05-2.62296E-06 1.31476E-06
 -1     15575 7.59757E-05-2.62361E-06-1.32616E-06
 -1     15577 7.59757E-05-2.62361E-06 1.32616E-06
 -1     15578 7.50071E-05-2.77760E-06-1.30925E-06
 -1     15580 7.50071E-05-2.77760E-06 1.30925E-06
 -1     15581 7.18852E-05-2.31159E-06-1.25476E-06
 -1     15583 7.18852E-05-2.31159E-06 1.25476E-06
 -1     15584 7.21480E-05-2.46535E-06-1.25935E-06
 -1     15586 7.21480E-05-2.46535E-06 1.25935E-06
 -1     15587 7.13806E-05-2.31328E-06-1.24595E-06
 -1     15589 7.13806E-05-2.31328E-06 1.24595E-06
 -1     15590 7.04216E-05-2.32033E-06-1.22921E-06
 -1     15592 7.04216E-05-2.32033E-06 1.22921E-06
 -1     15593 7.08945E-05-2.31581E-06-1.23747E-06
 -1     15595 7.08945E-05-2.31581E-06 1.23747E-06
 -1     15596 7.11421E-05-2.46833E-06-1.24179E-06
 -1     15598 7.11421E-05-2.46833E-06 1.24179E-06
 -1     15599 7.01964E-05-2.47879E-06-1.22528E-06
 -1     15601 7.01964E-05-2.47879E-06 1.22528E-06
 -1     15602 8.22644E-05-2.62512E-06-1.43593E-06
 -1     15604 8.22644E-05-2.62512E-06 1.43593E-06
 -1     15605 8.27304E-05-2.78067E-06-1.44406E-06
 -1     15607 8.27304E-05-2.78067E-06 1.44406E-06
 -1     15608 8.13622E-05-2.62548E-06-1.42018E-06
 -1     15610 8.13622E-05-2.62548E-06 1.42018E-06
 -1     15611 8.73760E-05-2.61629E-06-1.52515E-06
 -1     15613 8.73760E-05-2.61629E-06 1.52515E-06
 -1     15614 8.85387E-05-2.61483E-06-1.54545E-06
 -1     15616 8.85387E-05-2.61483E-06 1.54545E-06
 -1     15617 8.68144E-05-2.77255E-06-1.51535E-06
 -1     15619 8.68144E-05-2.77255E-06 1.51535E-06
 -1     15620 6.74307E-05-4.26921E-06-1.17701E-06
 -1     15622 6.74307E-05-4.26921E-06 1.17701E-06
 -1     15623 7.80969E-05-2.62598E-06-1.36319E-06
 -1     15625 7.80969E-05-2.62598E-06 1.36319E-06
 -1     15626 7.88634E-05-2.62636E-06-1.37657E-06
 -1     15628 7.88634E-05-2.62636E-06 1.37657E-06
 -1     15629 7.96627E-05-2.62612E-06-1.39052E-06
 -1     15631 7.96627E-05-2.62612E-06 1.39052E-06
 -1     15632 8.04945E-05-2.62582E-06-1.40504E-06
 -1     15634 8.04945E-05-2.62582E-06 1.40504E-06
 -1     15635 7.92572E-05-2.78239E-06-1.38344E-06
 -1     15637 7.92572E-05-2.78239E-06 1.38344E-06
 -1     15638 6.85557E-05-6.35796E-06-1.19664E-06
 -1     15640 6.85557E-05-6.35796E-06 1.19664E-06
 -1     15641 6.81912E-05-6.35647E-06-1.19028E-06
 -1     15643 6.81912E-05-6.35647E-06 1.19028E-06
 -1     15644 7.35141E-05-2.61992E-06-1.28319E-06
 -1     15646 7.35141E-05-2.61992E-06 1.28319E-06
 -1     15647 7.38034E-05-2.77529E-06-1.28824E-06
 -1     15649 7.38034E-05-2.77529E-06 1.28824E-06
 -1     15650 7.29543E-05-2.61959E-06-1.27342E-06
 -1     15652 7.29543E-05-2.61959E-06 1.27342E-06
 -1     15653 9.84327E-05-2.31636E-06-1.71815E-06
 -1     15655 9.84327E-05-2.31636E-06 1.71815E-06
 -1     15656 9.93486E-05-2.47302E-06-1.73414E-06
 -1     15658 9.93486E-05-2.47302E-06 1.73414E-06
 -1     15659 9.68237E-05-2.31602E-06-1.69006E-06
 -1     15661 9.68237E-05-2.31602E-06 1.69006E-06
 -1     15662 1.02222E-04-2.63256E-06-1.78430E-06
 -1     15664 1.02222E-04-2.63256E-06 1.78430E-06
 -1     15665 1.04181E-04-2.62170E-06-1.81848E-06
 -1     15667 1.04181E-04-2.62170E-06 1.81848E-06
 -1     15668 1.06608E-04-2.59820E-06-1.86085E-06
 -1     15670 1.06608E-04-2.59820E-06 1.86085E-06
 -1     15671 1.08719E-04-2.55822E-06-1.89770E-06
 -1     15673 1.08719E-04-2.55822E-06 1.89770E-06
 -1     15674 1.05710E-04-2.76821E-06-1.84517E-06
 -1     15676 1.05710E-04-2.76821E-06 1.84517E-06
 -1     15677 6.80223E-05-6.20296E-06-1.18733E-06
 -1     15679 6.80223E-05-6.20296E-06 1.18733E-06
 -1     15680 1.06930E-04-6.12438E-06-1.86647E-06
 -1     15682 1.06930E-04-6.12438E-06 1.86647E-06
 -1     15683 1.04967E-04-6.13538E-06-1.83221E-06
 -1     15685 1.04967E-04-6.13538E-06 1.83221E-06
 -1     15686 1.07369E-04-5.99531E-06-1.87413E-06
 -1     15688 1.07369E-04-5.99531E-06 1.87413E-06
 -1     15689 1.11300E-04-3.99810E-06-1.94275E-06
 -1     15691 1.11300E-04-3.99810E-06 1.94275E-06
 -1     15692 1.11293E-04-4.17139E-06-1.94263E-06
 -1     15694 1.11293E-04-4.17139E-06 1.94263E-06
 -1     15695 1.11293E-04-4.34345E-06-1.94262E-06
 -1     15697 1.11293E-04-4.34345E-06 1.94262E-06
 -1     15698 1.11300E-04-4.51623E-06-1.94276E-06
 -1     15700 1.11300E-04-4.51623E-06 1.94276E-06
 -1     15701 1.09286E-04-4.25554E-06-1.90759E-06
 -1     15703 1.09286E-04-4.25554E-06 1.90759E-06
 -1     15704 6.86542E-05-6.21165E-06-1.19836E-06
 -1     15706 6.86542E-05-6.21165E-06 1.19836E-06
 -1     15707 9.37935E-05-2.31102E-06-1.63717E-06
 -1     15709 9.37935E-05-2.31102E-06 1.63717E-06
 -1     15710 9.52625E-05-2.31271E-06-1.66281E-06
 -1     15712 9.52625E-05-2.31271E-06 1.66281E-06
 -1     15713 9.60449E-05-2.46937E-06-1.67647E-06
 -1     15715 9.60449E-05-2.46937E-06 1.67647E-06
 -1     15716 9.30774E-05-2.46345E-06-1.62467E-06
 -1     15718 9.30774E-05-2.46345E-06 1.62467E-06
 -1     15719 6.77697E-05-3.65195E-06-1.18292E-06
 -1     15721 6.77697E-05-3.65195E-06 1.18292E-06
 -1     15722 6.78161E-05-3.46405E-06-1.18373E-06
 -1     15724 6.78161E-05-3.46405E-06 1.18373E-06
 -1     15725 1.07551E-04-5.16806E-06-1.87731E-06
 -1     15727 1.07551E-04-5.16806E-06 1.87731E-06
 -1     15728 1.07629E-04-5.32193E-06-1.87867E-06
 -1     15730 1.07629E-04-5.32193E-06 1.87867E-06
 -1     15731 6.81043E-05-2.91296E-06-1.18876E-06
 -1     15733 6.81043E-05-2.91296E-06 1.18876E-06
 -1     15734 6.82662E-05-2.72195E-06-1.19159E-06
 -1     15736 6.82662E-05-2.72195E-06 1.19159E-06
 -1     15737 6.86896E-05-2.69309E-06-1.19898E-06
 -1     15739 6.86896E-05-2.69309E-06 1.19898E-06
 -1     15740 1.11249E-04-2.27875E-06-1.94186E-06
 -1     15742 1.11249E-04-2.27875E-06 1.94186E-06
 -1     15743 6.78060E-05-5.05474E-06-1.18356E-06
 -1     15745 6.78060E-05-5.05474E-06 1.18356E-06
 -1     15746 6.77880E-05-4.88080E-06-1.18324E-06
 -1     15748 6.77880E-05-4.88080E-06 1.18324E-06
 -1     15749 6.86988E-05-5.90875E-06-1.19914E-06
 -1     15751 6.86988E-05-5.90875E-06 1.19914E-06
 -1     15752 6.86339E-05-6.07180E-06-1.19801E-06
 -1     15754 6.86339E-05-6.07180E-06 1.19801E-06
 -1     15755 6.90439E-05-6.01712E-06-1.20517E-06
 -1     15757 6.90439E-05-6.01712E-06 1.20517E-06
 -1     15758 7.66540E-05-2.62462E-06-1.33800E-06
 -1     15760 7.66540E-05-2.62462E-06 1.33800E-06
 -1     15761 7.73613E-05-2.62511E-06-1.35035E-06
 -1     15763 7.73613E-05-2.62511E-06 1.35035E-06
 -1     15764 7.63106E-05-2.77988E-06-1.33201E-06
 -1     15766 7.63106E-05-2.77988E-06 1.33201E-06
 -1     15767 6.77261E-05-4.36285E-06-1.18216E-06
 -1     15769 6.77261E-05-4.36285E-06 1.18216E-06
 -1     15770 6.77226E-05-4.18512E-06-1.18210E-06
 -1     15772 6.77226E-05-4.18512E-06 1.18210E-06
 -1     15773 7.77235E-05-2.78176E-06-1.35667E-06
 -1     15775 7.77235E-05-2.78176E-06 1.35667E-06
 -1     15776 6.78928E-05-3.28544E-06-1.18507E-06
 -1     15778 6.78928E-05-3.28544E-06 1.18507E-06
 -1     15779 6.79785E-05-3.09006E-06-1.18657E-06
 -1     15781 6.79785E-05-3.09006E-06 1.18657E-06
 -1     15782 6.83797E-05-3.04175E-06-1.19357E-06
 -1     15784 6.83797E-05-3.04175E-06 1.19357E-06
 -1     15785 6.81706E-05-3.39747E-06-1.18992E-06
 -1     15787 6.81706E-05-3.39747E-06 1.18992E-06
 -1     15788 1.11348E-04-3.65058E-06-1.94359E-06
 -1     15790 1.11348E-04-3.65058E-06 1.94359E-06
 -1     15791 1.11328E-04-3.82427E-06-1.94323E-06
 -1     15793 1.11328E-04-3.82427E-06 1.94323E-06
 -1     15794 1.09312E-04-3.90962E-06-1.90805E-06
 -1     15796 1.09312E-04-3.90962E-06 1.90805E-06
 -1     15797 1.09361E-04-3.56175E-06-1.90891E-06
 -1     15799 1.09361E-04-3.56175E-06 1.90891E-06
 -1     15800 6.77198E-05-4.01096E-06-1.18205E-06
 -1     15802 6.77198E-05-4.01096E-06 1.18205E-06
 -1     15803 6.77361E-05-3.82913E-06-1.18234E-06
 -1     15805 6.77361E-05-3.82913E-06 1.18234E-06
 -1     15806 6.80250E-05-4.10461E-06-1.18738E-06
 -1     15808 6.80250E-05-4.10461E-06 1.18738E-06
 -1     15809 6.89222E-05-2.83645E-06-1.20304E-06
 -1     15811 6.89222E-05-2.83645E-06 1.20304E-06
 -1     15812 6.77627E-05-4.70923E-06-1.18280E-06
 -1     15814 6.77627E-05-4.70923E-06 1.18280E-06
 -1     15815 6.77479E-05-4.53436E-06-1.18254E-06
 -1     15817 6.77479E-05-4.53436E-06 1.18254E-06
 -1     15818 6.80993E-05-4.79334E-06-1.18868E-06
 -1     15820 6.80993E-05-4.79334E-06 1.18868E-06
 -1     15821 6.87636E-05-2.99818E-06-1.20027E-06
 -1     15823 6.87636E-05-2.99818E-06 1.20027E-06
 -1     15824 6.91854E-05-2.96998E-06-1.20764E-06
 -1     15826 6.91854E-05-2.96998E-06 1.20764E-06
 -1     15827 1.11145E-04-2.45221E-06-1.94005E-06
 -1     15829 1.11145E-04-2.45221E-06 1.94005E-06
 -1     15830 1.03220E-04-6.13502E-06-1.80171E-06
 -1     15832 1.03220E-04-6.13502E-06 1.80171E-06
 -1     15833 1.01427E-04-6.13248E-06-1.77041E-06
 -1     15835 1.01427E-04-6.13248E-06 1.77041E-06
 -1     15836 1.03695E-04-6.01422E-06-1.81000E-06
 -1     15838 1.03695E-04-6.01422E-06 1.81000E-06
 -1     15839 9.97065E-05-6.12296E-06-1.74038E-06
 -1     15841 9.97065E-05-6.12296E-06 1.74038E-06
 -1     15842 9.80540E-05-6.11288E-06-1.71154E-06
 -1     15844 9.80540E-05-6.11288E-06 1.71154E-06
 -1     15845 1.00257E-04-6.00427E-06-1.74998E-06
 -1     15847 1.00257E-04-6.00427E-06 1.74998E-06
 -1     15848 9.65492E-05-6.08435E-06-1.68527E-06
 -1     15850 9.65492E-05-6.08435E-06 1.68527E-06
 -1     15851 9.50638E-05-6.07083E-06-1.65935E-06
 -1     15853 9.50638E-05-6.07083E-06 1.65935E-06
 -1     15854 9.70627E-05-5.96618E-06-1.69424E-06
 -1     15856 9.70627E-05-5.96618E-06 1.69424E-06
 -1     15857 9.36130E-05-6.06453E-06-1.63402E-06
 -1     15859 9.36130E-05-6.06453E-06 1.63402E-06
 -1     15860 9.22348E-05-6.05976E-06-1.60996E-06
 -1     15862 9.22348E-05-6.05976E-06 1.60996E-06
 -1     15863 9.41262E-05-5.93130E-06-1.64298E-06
 -1     15865 9.41262E-05-5.93130E-06 1.64298E-06
 -1     15866 9.08852E-05-6.05917E-06-1.58641E-06
 -1     15868 9.08852E-05-6.05917E-06 1.58641E-06
 -1     15869 8.96140E-05-6.05803E-06-1.56422E-06
 -1     15871 8.96140E-05-6.05803E-06 1.56422E-06
 -1     15872 9.13464E-05-5.92441E-06-1.59446E-06
 -1     15874 9.13464E-05-5.92441E-06 1.59446E-06
 -1     15875 8.83856E-05-6.05740E-06-1.54278E-06
 -1     15877 8.83856E-05-6.05740E-06 1.54278E-06
 -1     15878 8.72204E-05-6.05660E-06-1.52244E-06
 -1     15880 8.72204E-05-6.05660E-06 1.52244E-06
 -1     15881 8.87899E-05-5.92319E-06-1.54983E-06
 -1     15883 8.87899E-05-5.92319E-06 1.54983E-06
 -1     15884 8.61017E-05-6.05432E-06-1.50291E-06
 -1     15886 8.61017E-05-6.05432E-06 1.50291E-06
 -1     15887 8.50359E-05-6.05310E-06-1.48431E-06
 -1     15889 8.50359E-05-6.05310E-06 1.48431E-06
 -1     15890 8.64628E-05-5.92027E-06-1.50921E-06
 -1     15892 8.64628E-05-5.92027E-06 1.50921E-06
 -1     15893 8.40158E-05-6.05062E-06-1.46650E-06
 -1     15895 8.40158E-05-6.05062E-06 1.46650E-06
 -1     15896 8.30403E-05-6.04975E-06-1.44947E-06
 -1     15898 8.30403E-05-6.04975E-06 1.44947E-06
 -1     15899 8.43420E-05-5.91551E-06-1.47220E-06
 -1     15901 8.43420E-05-5.91551E-06 1.47220E-06
 -1     15902 8.21063E-05-6.04940E-06-1.43317E-06
 -1     15904 8.21063E-05-6.04940E-06 1.43317E-06
 -1     15905 8.12097E-05-6.04962E-06-1.41752E-06
 -1     15907 8.12097E-05-6.04962E-06 1.41752E-06
 -1     15908 8.24041E-05-5.91267E-06-1.43837E-06
 -1     15910 8.24041E-05-5.91267E-06 1.43837E-06
 -1     15911 8.03478E-05-6.05145E-06-1.40248E-06
 -1     15913 8.03478E-05-6.05145E-06 1.40248E-06
 -1     15914 7.95199E-05-6.05237E-06-1.38803E-06
 -1     15916 7.95199E-05-6.05237E-06 1.38803E-06
 -1     15917 8.06227E-05-5.91414E-06-1.40727E-06
 -1     15919 8.06227E-05-5.91414E-06 1.40727E-06
 -1     15920 7.87222E-05-6.05396E-06-1.37410E-06
 -1     15922 7.87222E-05-6.05396E-06 1.37410E-06
 -1     15923 7.79569E-05-6.05455E-06-1.36074E-06
 -1     15925 7.79569E-05-6.05455E-06 1.36074E-06
 -1     15926 7.89760E-05-5.91757E-06-1.37853E-06
 -1     15928 7.89760E-05-5.91757E-06 1.37853E-06
 -1     15929 7.72199E-05-6.05443E-06-1.34788E-06
 -1     15931 7.72199E-05-6.05443E-06 1.34788E-06
 -1     15932 7.65131E-05-6.05432E-06-1.33554E-06
 -1     15934 7.65131E-05-6.05432E-06 1.33554E-06
 -1     15935 7.74533E-05-5.91904E-06-1.35195E-06
 -1     15937 7.74533E-05-5.91904E-06 1.35195E-06
 -1     15938 7.58321E-05-6.05346E-06-1.32365E-06
 -1     15940 7.58321E-05-6.05346E-06 1.32365E-06
 -1     15941 7.51798E-05-6.05333E-06-1.31227E-06
 -1     15943 7.51798E-05-6.05333E-06 1.31227E-06
 -1     15944 7.60464E-05-5.91806E-06-1.32739E-06
 -1     15946 7.60464E-05-5.91806E-06 1.32739E-06
 -1     15947 7.45499E-05-6.05346E-06-1.30127E-06
 -1     15949 7.45499E-05-6.05346E-06 1.30127E-06
 -1     15950 7.39481E-05-6.05438E-06-1.29077E-06
 -1     15952 7.39481E-05-6.05438E-06 1.29077E-06
 -1     15953 7.47458E-05-5.91733E-06-1.30469E-06
 -1     15955 7.47458E-05-5.91733E-06 1.30469E-06
 -1     15956 7.33672E-05-6.05691E-06-1.28063E-06
 -1     15958 7.33672E-05-6.05691E-06 1.28063E-06
 -1     15959 7.28134E-05-6.05974E-06-1.27096E-06
 -1     15961 7.28134E-05-6.05974E-06 1.27096E-06
 -1     15962 7.35447E-05-5.91999E-06-1.28373E-06
 -1     15964 7.35447E-05-5.91999E-06 1.28373E-06
 -1     15965 7.22836E-05-6.06624E-06-1.26172E-06
 -1     15967 7.22836E-05-6.06624E-06 1.26172E-06
 -1     15968 7.17742E-05-6.07076E-06-1.25282E-06
 -1     15970 7.17742E-05-6.07076E-06 1.25282E-06
 -1     15971 7.24432E-05-5.92902E-06-1.26450E-06
 -1     15973 7.24432E-05-5.92902E-06 1.26450E-06
 -1     15974 7.12973E-05-6.08117E-06-1.24450E-06
 -1     15976 7.12973E-05-6.08117E-06 1.24450E-06
 -1     15977 7.08198E-05-6.08117E-06-1.23616E-06
 -1     15979 7.08198E-05-6.08117E-06 1.23616E-06
 -1     15980 7.14448E-05-5.94593E-06-1.24707E-06
 -1     15982 7.14448E-05-5.94593E-06 1.24707E-06
 -1     15983 7.03584E-05-6.07044E-06-1.22811E-06
 -1     15985 7.03584E-05-6.07044E-06 1.22811E-06
 -1     15986 6.99108E-05-6.05998E-06-1.22030E-06
 -1     15988 6.99108E-05-6.05998E-06 1.22030E-06
 -1     15989 7.05124E-05-5.94561E-06-1.23080E-06
 -1     15991 7.05124E-05-5.94561E-06 1.23080E-06
 -1     15992 6.94313E-05-6.01958E-06-1.21193E-06
 -1     15994 6.94313E-05-6.01958E-06 1.21193E-06
 -1     15995 1.07770E-04-5.47158E-06-1.88114E-06
 -1     15997 1.07770E-04-5.47158E-06 1.88114E-06
 -1     15998 1.07849E-04-5.61949E-06-1.88250E-06
 -1     16000 1.07849E-04-5.61949E-06 1.88250E-06
 -1     16001 1.05898E-04-5.39284E-06-1.84845E-06
 -1     16003 1.05898E-04-5.39284E-06 1.84845E-06
 -1     16004 1.00251E-04-2.63160E-06-1.74989E-06
 -1     16006 1.00251E-04-2.63160E-06 1.74989E-06
 -1     16007 1.01306E-04-2.79079E-06-1.76830E-06
 -1     16009 1.01306E-04-2.79079E-06 1.76830E-06
 -1     16010 9.85031E-05-2.63124E-06-1.71938E-06
 -1     16012 9.85031E-05-2.63124E-06 1.71938E-06
 -1     16013 8.41938E-05-2.93629E-06-1.46961E-06
 -1     16015 8.41938E-05-2.93629E-06 1.46961E-06
 -1     16016 8.52139E-05-2.93434E-06-1.48741E-06
 -1     16018 8.52139E-05-2.93434E-06 1.48741E-06
 -1     16019 1.10634E-04-2.63865E-06-1.93113E-06
 -1     16021 1.10634E-04-2.63865E-06 1.93113E-06
 -1     16022 1.09303E-04-4.59812E-06-1.90789E-06
 -1     16024 1.09303E-04-4.59812E-06 1.90789E-06
 -1     16025 1.07599E-04-3.10656E-06-1.87814E-06
 -1     16027 1.07599E-04-3.10656E-06 1.87814E-06
 -1     16028 1.07411E-04-3.26571E-06-1.87486E-06
 -1     16030 1.07411E-04-3.26571E-06 1.87486E-06
 -1     16031 6.83220E-05-6.10330E-06-1.19256E-06
 -1     16033 6.83220E-05-6.10330E-06 1.19256E-06
 -1     16034 6.80034E-05-6.06312E-06-1.18700E-06
 -1     16036 6.80034E-05-6.06312E-06 1.18700E-06
 -1     16037 1.07460E-04-5.01167E-06-1.87572E-06
 -1     16039 1.07460E-04-5.01167E-06 1.87572E-06
 -1     16040 1.05676E-04-5.08676E-06-1.84458E-06
 -1     16042 1.05676E-04-5.08676E-06 1.84458E-06
 -1     16043 1.07411E-04-4.84948E-06-1.87487E-06
 -1     16045 1.07411E-04-4.84948E-06 1.87487E-06
 -1     16046 6.80568E-05-3.75327E-06-1.18794E-06
 -1     16048 6.80568E-05-3.75327E-06 1.18794E-06
 -1     16049 1.00229E-04-2.94873E-06-1.74951E-06
 -1     16051 1.00229E-04-2.94873E-06 1.74951E-06
 -1     16052 1.02199E-04-2.94974E-06-1.78389E-06
 -1     16054 1.02199E-04-2.94974E-06 1.78389E-06
 -1     16055 6.80504E-05-4.45027E-06-1.18782E-06
 -1     16057 6.80504E-05-4.45027E-06 1.18782E-06
 -1     16058 6.94319E-05-3.10970E-06-1.21194E-06
 -1     16060 6.94319E-05-3.10970E-06 1.21194E-06
 -1     16061 6.96010E-05-2.94796E-06-1.21489E-06
 -1     16063 6.96010E-05-2.94796E-06 1.21489E-06
 -1     16064 8.97495E-05-2.61243E-06-1.56658E-06
 -1     16066 8.97495E-05-2.61243E-06 1.56658E-06
 -1     16067 9.10257E-05-2.61260E-06-1.58886E-06
 -1     16069 9.10257E-05-2.61260E-06 1.58886E-06
 -1     16070 8.91290E-05-2.76675E-06-1.55575E-06
 -1     16072 8.91290E-05-2.76675E-06 1.55575E-06
 -1     16073 6.78317E-05-5.22640E-06-1.18401E-06
 -1     16075 6.78317E-05-5.22640E-06 1.18401E-06
 -1     16076 6.81521E-05-5.13657E-06-1.18960E-06
 -1     16078 6.81521E-05-5.13657E-06 1.18960E-06
 -1     16079 6.78541E-05-5.39944E-06-1.18440E-06
 -1     16081 6.78541E-05-5.39944E-06 1.18440E-06
 -1     16082 7.46948E-05-2.93303E-06-1.30380E-06
 -1     16084 7.46948E-05-2.93303E-06 1.30380E-06
 -1     16085 7.53207E-05-2.93432E-06-1.31473E-06
 -1     16087 7.53207E-05-2.93432E-06 1.31473E-06
 -1     16088 8.09228E-05-2.78181E-06-1.41251E-06
 -1     16090 8.09228E-05-2.78181E-06 1.41251E-06
 -1     16091 6.86290E-05-3.17528E-06-1.19792E-06
 -1     16093 6.86290E-05-3.17528E-06 1.19792E-06
 -1     16094 7.24195E-05-2.61919E-06-1.26409E-06
 -1     16096 7.24195E-05-2.61919E-06 1.26409E-06
 -1     16097 7.26905E-05-2.77387E-06-1.26882E-06
 -1     16099 7.26905E-05-2.77387E-06 1.26882E-06
 -1     16100 7.18992E-05-2.61963E-06-1.25500E-06
 -1     16102 7.18992E-05-2.61963E-06 1.25500E-06
 -1     16103 8.62734E-05-2.93035E-06-1.50591E-06
 -1     16105 8.62734E-05-2.93035E-06 1.50591E-06
 -1     16106 8.73800E-05-2.92695E-06-1.52522E-06
 -1     16108 8.73800E-05-2.92695E-06 1.52522E-06
 -1     16109 8.57445E-05-3.08874E-06-1.49668E-06
 -1     16111 8.57445E-05-3.08874E-06 1.49668E-06
 -1     16112 7.88566E-05-2.94038E-06-1.37645E-06
 -1     16114 7.88566E-05-2.94038E-06 1.37645E-06
 -1     16115 7.96557E-05-2.94014E-06-1.39040E-06
 -1     16117 7.96557E-05-2.94014E-06 1.39040E-06
 -1     16118 1.10695E-04-2.80917E-06-1.93219E-06
 -1     16120 1.10695E-04-2.80917E-06 1.93219E-06
 -1     16121 6.79442E-05-5.89732E-06-1.18597E-06
 -1     16123 6.79442E-05-5.89732E-06 1.18597E-06
 -1     16124 1.03247E-04-3.12570E-06-1.80218E-06
 -1     16126 1.03247E-04-3.12570E-06 1.80218E-06
 -1     16127 1.04418E-04-2.96767E-06-1.82262E-06
 -1     16129 1.04418E-04-2.96767E-06 1.82262E-06
 -1     16130 6.97848E-05-2.79460E-06-1.21810E-06
 -1     16132 6.97848E-05-2.79460E-06 1.21810E-06
 -1     16133 6.99886E-05-2.63384E-06-1.22166E-06
 -1     16135 6.99886E-05-2.63384E-06 1.22166E-06
 -1     16136 8.32094E-05-2.93749E-06-1.45243E-06
 -1     16138 8.32094E-05-2.93749E-06 1.45243E-06
 -1     16139 8.37014E-05-3.09392E-06-1.46101E-06
 -1     16141 8.37014E-05-3.09392E-06 1.46101E-06
 -1     16142 8.22681E-05-2.93830E-06-1.43599E-06
 -1     16144 8.22681E-05-2.93830E-06 1.43599E-06
 -1     16145 1.09001E-04-2.90708E-06-1.90262E-06
 -1     16147 1.09001E-04-2.90708E-06 1.90262E-06
 -1     16148 1.06861E-04-2.94423E-06-1.86526E-06
 -1     16150 1.06861E-04-2.94423E-06 1.86526E-06
 -1     16151 7.40966E-05-2.93080E-06-1.29336E-06
 -1     16153 7.40966E-05-2.93080E-06 1.29336E-06
 -1     16154 7.43925E-05-3.08752E-06-1.29853E-06
 -1     16156 7.43925E-05-3.08752E-06 1.29853E-06
 -1     16157 7.35180E-05-2.92978E-06-1.28326E-06
 -1     16159 7.35180E-05-2.92978E-06 1.28326E-06
 -1     16160 7.80891E-05-2.93989E-06-1.36305E-06
 -1     16162 7.80891E-05-2.93989E-06 1.36305E-06
 -1     16163 7.84642E-05-3.09764E-06-1.36960E-06
 -1     16165 7.84642E-05-3.09764E-06 1.36960E-06
 -1     16166 7.73538E-05-2.93902E-06-1.35021E-06
 -1     16168 7.73538E-05-2.93902E-06 1.35021E-06
 -1     16169 7.00454E-05-2.93431E-06-1.22265E-06
 -1     16171 7.00454E-05-2.93431E-06 1.22265E-06
 -1     16172 7.04489E-05-2.62590E-06-1.22969E-06
 -1     16174 7.04489E-05-2.62590E-06 1.22969E-06
 -1     16175 6.83286E-05-3.85863E-06-1.19268E-06
 -1     16177 6.83286E-05-3.85863E-06 1.19268E-06
 -1     16178 6.83643E-05-3.68145E-06-1.19330E-06
 -1     16180 6.83643E-05-3.68145E-06 1.19330E-06
 -1     16181 1.07351E-04-4.16765E-06-1.87381E-06
 -1     16183 1.07351E-04-4.16765E-06 1.87381E-06
 -1     16184 1.07350E-04-4.33973E-06-1.87380E-06
 -1     16186 1.07350E-04-4.33973E-06 1.87380E-06
 -1     16187 9.84556E-05-2.94794E-06-1.71855E-06
 -1     16189 9.84556E-05-2.94794E-06 1.71855E-06
 -1     16190 9.92786E-05-3.10685E-06-1.73291E-06
 -1     16192 9.92786E-05-3.10685E-06 1.73291E-06
 -1     16193 1.08128E-04-5.74645E-06-1.88739E-06
 -1     16195 1.08128E-04-5.74645E-06 1.88739E-06
 -1     16196 1.07944E-04-5.88627E-06-1.88417E-06
 -1     16198 1.07944E-04-5.88627E-06 1.88417E-06
 -1     16199 1.06013E-04-5.90550E-06-1.85047E-06
 -1     16201 1.06013E-04-5.90550E-06 1.85047E-06
 -1     16202 1.06300E-04-5.66955E-06-1.85547E-06
 -1     16204 1.06300E-04-5.66955E-06 1.85547E-06
 -1     16205 6.83884E-05-4.53348E-06-1.19372E-06
 -1     16207 6.83884E-05-4.53348E-06 1.19372E-06
 -1     16208 6.83650E-05-4.36198E-06-1.19332E-06
 -1     16210 6.83650E-05-4.36198E-06 1.19332E-06
 -1     16211 6.92767E-05-3.25925E-06-1.20923E-06
 -1     16213 6.92767E-05-3.25925E-06 1.20923E-06
 -1     16214 6.96960E-05-3.23723E-06-1.21655E-06
 -1     16216 6.96960E-05-3.23723E-06 1.21655E-06
 -1     16217 6.78838E-05-5.56904E-06-1.18492E-06
 -1     16219 6.78838E-05-5.56904E-06 1.18492E-06
 -1     16220 6.82095E-05-5.47783E-06-1.19060E-06
 -1     16222 6.82095E-05-5.47783E-06 1.19060E-06
 -1     16223 7.59702E-05-2.93648E-06-1.32606E-06
 -1     16225 7.59702E-05-2.93648E-06 1.32606E-06
 -1     16226 7.66483E-05-2.93749E-06-1.33790E-06
 -1     16228 7.66483E-05-2.93749E-06 1.33790E-06
 -1     16229 7.56392E-05-3.09192E-06-1.32029E-06
 -1     16231 7.56392E-05-3.09192E-06 1.32029E-06
 -1     16232 6.79142E-05-5.73931E-06-1.18545E-06
 -1     16234 6.79142E-05-5.73931E-06 1.18545E-06
 -1     16235 8.04918E-05-2.93923E-06-1.40499E-06
 -1     16237 8.04918E-05-2.93923E-06 1.40499E-06
 -1     16238 8.13594E-05-2.93889E-06-1.42013E-06
 -1     16240 8.13594E-05-2.93889E-06 1.42013E-06
 -1     16241 8.18095E-05-3.09571E-06-1.42799E-06
 -1     16243 8.18095E-05-3.09571E-06 1.42799E-06
 -1     16244 8.00662E-05-3.09722E-06-1.39756E-06
 -1     16246 8.00662E-05-3.09722E-06 1.39756E-06
 -1     16247 7.02927E-05-3.08325E-06-1.22696E-06
 -1     16249 7.02927E-05-3.08325E-06 1.22696E-06
 -1     16250 7.04881E-05-2.92988E-06-1.23037E-06
 -1     16252 7.04881E-05-2.92988E-06 1.23037E-06
 -1     16253 6.85178E-05-5.21732E-06-1.19598E-06
 -1     16255 6.85178E-05-5.21732E-06 1.19598E-06
 -1     16256 6.84902E-05-5.04565E-06-1.19550E-06
 -1     16258 6.84902E-05-5.04565E-06 1.19550E-06
 -1     16259 6.84333E-05-3.51838E-06-1.19451E-06
 -1     16261 6.84333E-05-3.51838E-06 1.19451E-06
 -1     16262 6.85153E-05-3.33976E-06-1.19594E-06
 -1     16264 6.85153E-05-3.33976E-06 1.19594E-06
 -1     16265 6.89045E-05-3.29619E-06-1.20273E-06
 -1     16267 6.89045E-05-3.29619E-06 1.20273E-06
 -1     16268 6.87161E-05-3.62374E-06-1.19944E-06
 -1     16270 6.87161E-05-3.62374E-06 1.19944E-06
 -1     16271 7.09157E-05-2.62221E-06-1.23784E-06
 -1     16273 7.09157E-05-2.62221E-06 1.23784E-06
 -1     16274 7.14026E-05-2.61968E-06-1.24634E-06
 -1     16276 7.14026E-05-2.61968E-06 1.24634E-06
 -1     16277 7.16590E-05-2.77352E-06-1.25081E-06
 -1     16279 7.16590E-05-2.77352E-06 1.25081E-06
 -1     16280 7.06950E-05-2.77725E-06-1.23399E-06
 -1     16282 7.06950E-05-2.77725E-06 1.23399E-06
 -1     16283 6.84543E-05-4.87457E-06-1.19487E-06
 -1     16285 6.84543E-05-4.87457E-06 1.19487E-06
 -1     16286 6.84270E-05-4.70300E-06-1.19440E-06
 -1     16288 6.84270E-05-4.70300E-06 1.19440E-06
 -1     16289 6.88315E-05-4.95532E-06-1.20146E-06
 -1     16291 6.88315E-05-4.95532E-06 1.20146E-06
 -1     16292 1.04244E-04-5.87655E-06-1.81958E-06
 -1     16294 1.04244E-04-5.87655E-06 1.81958E-06
 -1     16295 1.02529E-04-5.87613E-06-1.78964E-06
 -1     16297 1.02529E-04-5.87613E-06 1.78964E-06
 -1     16298 1.04775E-04-5.76742E-06-1.82885E-06
 -1     16300 1.04775E-04-5.76742E-06 1.82885E-06
 -1     16301 1.01003E-04-5.90859E-06-1.76302E-06
 -1     16303 1.01003E-04-5.90859E-06 1.76302E-06
 -1     16304 9.93032E-05-5.89905E-06-1.73334E-06
 -1     16306 9.93032E-05-5.89905E-06 1.73334E-06
 -1     16307 1.01513E-04-5.77087E-06-1.77192E-06
 -1     16309 1.01513E-04-5.77087E-06 1.77192E-06
 -1     16310 9.46986E-05-5.79351E-06-1.65297E-06
 -1     16312 9.46986E-05-5.79351E-06 1.65297E-06
 -1     16313 9.32643E-05-5.78720E-06-1.62793E-06
 -1     16315 9.32643E-05-5.78720E-06 1.62793E-06
 -1     16316 9.18503E-05-5.78869E-06-1.60325E-06
 -1     16318 9.18503E-05-5.78869E-06 1.60325E-06
 -1     16319 9.05181E-05-5.78810E-06-1.58000E-06
 -1     16321 9.05181E-05-5.78810E-06 1.58000E-06
 -1     16322 9.23810E-05-5.65090E-06-1.61252E-06
 -1     16324 9.23810E-05-5.65090E-06 1.61252E-06
 -1     16325 8.92373E-05-5.78864E-06-1.55764E-06
 -1     16327 8.92373E-05-5.78864E-06 1.55764E-06
 -1     16328 8.80255E-05-5.78800E-06-1.53649E-06
 -1     16330 8.80255E-05-5.78800E-06 1.53649E-06
 -1     16331 8.97049E-05-5.65292E-06-1.56580E-06
 -1     16333 8.97049E-05-5.65292E-06 1.56580E-06
 -1     16334 8.68689E-05-5.78475E-06-1.51630E-06
 -1     16336 8.68689E-05-5.78475E-06 1.51630E-06
 -1     16337 8.57652E-05-5.78246E-06-1.49704E-06
 -1     16339 8.57652E-05-5.78246E-06 1.49704E-06
 -1     16340 8.72849E-05-5.65020E-06-1.52356E-06
 -1     16342 8.72849E-05-5.65020E-06 1.52356E-06
 -1     16343 8.47103E-05-5.77662E-06-1.47862E-06
 -1     16345 8.47103E-05-5.77662E-06 1.47862E-06
 -1     16346 8.37038E-05-5.77413E-06-1.46105E-06
 -1     16348 8.37038E-05-5.77413E-06 1.46105E-06
 -1     16349 8.50886E-05-5.64110E-06-1.48523E-06
 -1     16351 8.50886E-05-5.64110E-06 1.48523E-06
 -1     16352 8.27413E-05-5.77109E-06-1.44426E-06
 -1     16354 8.27413E-05-5.77109E-06 1.44426E-06
 -1     16355 8.18195E-05-5.77073E-06-1.42817E-06
 -1     16357 8.18195E-05-5.77073E-06 1.42817E-06
 -1     16358 8.30850E-05-5.63221E-06-1.45025E-06
 -1     16360 8.30850E-05-5.63221E-06 1.45025E-06
 -1     16361 8.09333E-05-5.77393E-06-1.41270E-06
 -1     16363 8.09333E-05-5.77393E-06 1.41270E-06
 -1     16364 8.00825E-05-5.77576E-06-1.39785E-06
 -1     16366 8.00825E-05-5.77576E-06 1.39785E-06
 -1     16367 8.12483E-05-5.63236E-06-1.41820E-06
 -1     16369 8.12483E-05-5.63236E-06 1.41820E-06
 -1     16370 7.92609E-05-5.78006E-06-1.38350E-06
 -1     16372 7.92609E-05-5.78006E-06 1.38350E-06
 -1     16373 7.84734E-05-5.78165E-06-1.36976E-06
 -1     16375 7.84734E-05-5.78165E-06 1.36976E-06
 -1     16376 7.95513E-05-5.63985E-06-1.38857E-06
 -1     16378 7.95513E-05-5.63985E-06 1.38857E-06
 -1     16379 7.77156E-05-5.78205E-06-1.35653E-06
 -1     16381 7.77156E-05-5.78205E-06 1.35653E-06
 -1     16382 7.69881E-05-5.78193E-06-1.34383E-06
 -1     16384 7.69881E-05-5.78193E-06 1.34383E-06
 -1     16385 7.79822E-05-5.64454E-06-1.36118E-06
 -1     16387 7.79822E-05-5.64454E-06 1.36118E-06
 -1     16388 7.62882E-05-5.77992E-06-1.33162E-06
 -1     16390 7.62882E-05-5.77992E-06 1.33162E-06
 -1     16391 7.56160E-05-5.77906E-06-1.31988E-06
 -1     16393 7.56160E-05-5.77906E-06 1.31988E-06
 -1     16394 7.65338E-05-5.64293E-06-1.33590E-06
 -1     16396 7.65338E-05-5.64293E-06 1.33590E-06
 -1     16397 7.49650E-05-5.77783E-06-1.30852E-06
 -1     16399 7.49650E-05-5.77783E-06 1.30852E-06
 -1     16400 7.43434E-05-5.77795E-06-1.29767E-06
 -1     16402 7.43434E-05-5.77795E-06 1.29767E-06
 -1     16403 7.51915E-05-5.63968E-06-1.31247E-06
 -1     16405 7.51915E-05-5.63968E-06 1.31247E-06
 -1     16406 7.37374E-05-5.77934E-06-1.28709E-06
 -1     16408 7.37374E-05-5.77934E-06 1.28709E-06
 -1     16409 7.31645E-05-5.78187E-06-1.27709E-06
 -1     16411 7.31645E-05-5.78187E-06 1.27709E-06
 -1     16412 7.39427E-05-5.63983E-06-1.29067E-06
 -1     16414 7.39427E-05-5.63983E-06 1.29067E-06
 -1     16415 7.26050E-05-5.78748E-06-1.26733E-06
 -1     16417 7.26050E-05-5.78748E-06 1.26733E-06
 -1     16418 7.20831E-05-5.79398E-06-1.25821E-06
 -1     16420 7.20831E-05-5.79398E-06 1.25821E-06
 -1     16421 7.27855E-05-5.64683E-06-1.27048E-06
 -1     16423 7.27855E-05-5.64683E-06 1.27048E-06
 -1     16424 7.15858E-05-5.80790E-06-1.24953E-06
 -1     16426 7.15858E-05-5.80790E-06 1.24953E-06
 -1     16427 7.11157E-05-5.81831E-06-1.24133E-06
 -1     16429 7.11157E-05-5.81831E-06 1.24133E-06
 -1     16430 7.17375E-05-5.66635E-06-1.25218E-06
 -1     16432 7.17375E-05-5.66635E-06 1.25218E-06
 -1     16433 7.07250E-05-5.84114E-06-1.23451E-06
 -1     16435 7.07250E-05-5.84114E-06 1.23451E-06
 -1     16436 7.02672E-05-5.83040E-06-1.22652E-06
 -1     16438 7.02672E-05-5.83040E-06 1.22652E-06
 -1     16439 7.08580E-05-5.70309E-06-1.23683E-06
 -1     16441 7.08580E-05-5.70309E-06 1.23683E-06
 -1     16442 1.04127E-04-5.32574E-06-1.81754E-06
 -1     16444 1.04127E-04-5.32574E-06 1.81754E-06
 -1     16445 1.04256E-04-5.47540E-06-1.81979E-06
 -1     16447 1.04256E-04-5.47540E-06 1.81979E-06
 -1     16448 1.01839E-04-3.25171E-06-1.77761E-06
 -1     16450 1.01839E-04-3.25171E-06 1.77761E-06
 -1     16451 1.04036E-04-3.26964E-06-1.81596E-06
 -1     16453 1.04036E-04-3.26964E-06 1.81596E-06
 -1     16454 9.68241E-05-2.62637E-06-1.69007E-06
 -1     16456 9.68241E-05-2.62637E-06 1.69007E-06
 -1     16457 9.76613E-05-2.78494E-06-1.70468E-06
 -1     16459 9.76613E-05-2.78494E-06 1.70468E-06
 -1     16460 9.67789E-05-2.94306E-06-1.68928E-06
 -1     16462 9.67789E-05-2.94306E-06 1.68928E-06
 -1     16463 9.52629E-05-2.62306E-06-1.66282E-06
 -1     16465 9.52629E-05-2.62306E-06 1.66282E-06
 -1     16466 1.07365E-04-4.51079E-06-1.87406E-06
 -1     16468 1.07365E-04-4.51079E-06 1.87406E-06
 -1     16469 1.07382E-04-4.68130E-06-1.87436E-06
 -1     16471 1.07382E-04-4.68130E-06 1.87436E-06
 -1     16472 1.05519E-04-4.42290E-06-1.84184E-06
 -1     16474 1.05519E-04-4.42290E-06 1.84184E-06
 -1     16475 6.83249E-05-4.19870E-06-1.19262E-06
 -1     16477 6.83249E-05-4.19870E-06 1.19262E-06
 -1     16478 6.83220E-05-4.02454E-06-1.19257E-06
 -1     16480 6.83220E-05-4.02454E-06 1.19257E-06
 -1     16481 7.53058E-05-3.24940E-06-1.31447E-06
 -1     16483 7.53058E-05-3.24940E-06 1.31447E-06
 -1     16484 7.59547E-05-3.25156E-06-1.32579E-06
 -1     16486 7.59547E-05-3.25156E-06 1.32579E-06
 -1     16487 9.23639E-05-2.61427E-06-1.61222E-06
 -1     16489 9.23639E-05-2.61427E-06 1.61222E-06
 -1     16490 9.37726E-05-2.61688E-06-1.63681E-06
 -1     16492 9.37726E-05-2.61688E-06 1.63681E-06
 -1     16493 9.44975E-05-2.77388E-06-1.64946E-06
 -1     16495 9.44975E-05-2.77388E-06 1.64946E-06
 -1     16496 9.16741E-05-2.76603E-06-1.60018E-06
 -1     16498 9.16741E-05-2.76603E-06 1.60018E-06
 -1     16499 8.85214E-05-2.91994E-06-1.54515E-06
 -1     16501 8.85214E-05-2.91994E-06 1.54515E-06
 -1     16502 8.97314E-05-2.91754E-06-1.56627E-06
 -1     16504 8.97314E-05-2.91754E-06 1.56627E-06
 -1     16505 8.79442E-05-3.07774E-06-1.53507E-06
 -1     16507 8.79442E-05-3.07774E-06 1.53507E-06
 -1     16508 6.91556E-05-3.42373E-06-1.20712E-06
 -1     16510 6.91556E-05-3.42373E-06 1.20712E-06
 -1     16511 6.87543E-05-4.61471E-06-1.20011E-06
 -1     16513 6.87543E-05-4.61471E-06 1.20011E-06
 -1     16514 6.95767E-05-5.89447E-06-1.21447E-06
 -1     16516 6.95767E-05-5.89447E-06 1.21447E-06
 -1     16517 6.85836E-05-5.56166E-06-1.19713E-06
 -1     16519 6.85836E-05-5.56166E-06 1.19713E-06
 -1     16520 6.85517E-05-5.39206E-06-1.19658E-06
 -1     16522 6.85517E-05-5.39206E-06 1.19658E-06
 -1     16523 1.05621E-04-3.34670E-06-1.84362E-06
 -1     16525 1.05621E-04-3.34670E-06 1.84362E-06
 -1     16526 1.07506E-04-3.46870E-06-1.87652E-06
 -1     16528 1.07506E-04-3.46870E-06 1.87652E-06
 -1     16529 6.86728E-05-4.28191E-06-1.19869E-06
 -1     16531 6.86728E-05-4.28191E-06 1.19869E-06
 -1     16532 7.69928E-05-3.09562E-06-1.34391E-06
 -1     16534 7.69928E-05-3.09562E-06 1.34391E-06
 -1     16535 6.89040E-05-5.30114E-06-1.20272E-06
 -1     16537 6.89040E-05-5.30114E-06 1.20272E-06
 -1     16538 7.09564E-05-2.92619E-06-1.23855E-06
 -1     16540 7.09564E-05-2.92619E-06 1.23855E-06
 -1     16541 7.96451E-05-3.25695E-06-1.39021E-06
 -1     16543 7.96451E-05-3.25695E-06 1.39021E-06
 -1     16544 8.04808E-05-3.25604E-06-1.40480E-06
 -1     16546 8.04808E-05-3.25604E-06 1.40480E-06
 -1     16547 7.01068E-05-3.23010E-06-1.22372E-06
 -1     16549 7.01068E-05-3.23010E-06 1.22372E-06
 -1     16550 7.05518E-05-3.22567E-06-1.23149E-06
 -1     16552 7.05518E-05-3.22567E-06 1.23149E-06
 -1     16553 6.99419E-05-3.37965E-06-1.22084E-06
 -1     16555 6.99419E-05-3.37965E-06 1.22084E-06
 -1     16556 8.52485E-05-3.25081E-06-1.48802E-06
 -1     16558 8.52485E-05-3.25081E-06 1.48802E-06
 -1     16559 8.63095E-05-3.24681E-06-1.50654E-06
 -1     16561 8.63095E-05-3.24681E-06 1.50654E-06
 -1     16562 7.29661E-05-2.92920E-06-1.27363E-06
 -1     16564 7.29661E-05-2.92920E-06 1.27363E-06
 -1     16565 7.32429E-05-3.08471E-06-1.27846E-06
 -1     16567 7.32429E-05-3.08471E-06 1.27846E-06
 -1     16568 7.24308E-05-2.92880E-06-1.26428E-06
 -1     16570 7.24308E-05-2.92880E-06 1.26428E-06
 -1     16571 6.86383E-05-3.95272E-06-1.19809E-06
 -1     16573 6.86383E-05-3.95272E-06 1.19809E-06
 -1     16574 1.04123E-04-3.47275E-06-1.81747E-06
 -1     16576 1.04123E-04-3.47275E-06 1.81747E-06
 -1     16577 1.07484E-04-3.64277E-06-1.87614E-06
 -1     16579 1.07484E-04-3.64277E-06 1.87614E-06
 -1     16580 7.88401E-05-3.25783E-06-1.37616E-06
 -1     16582 7.88401E-05-3.25783E-06 1.37616E-06
 -1     16583 7.92299E-05-3.41664E-06-1.38296E-06
 -1     16585 7.92299E-05-3.41664E-06 1.38296E-06
 -1     16586 7.80732E-05-3.25734E-06-1.36277E-06
 -1     16588 7.80732E-05-3.25734E-06 1.36277E-06
 -1     16589 8.42133E-05-3.25201E-06-1.46995E-06
 -1     16591 8.42133E-05-3.25201E-06 1.46995E-06
 -1     16592 8.47437E-05-3.41009E-06-1.47921E-06
 -1     16594 8.47437E-05-3.41009E-06 1.47921E-06
 -1     16595 8.32281E-05-3.25321E-06-1.45275E-06
 -1     16597 8.32281E-05-3.25321E-06 1.45275E-06
 -1     16598 6.99023E-05-5.77545E-06-1.22015E-06
 -1     16600 6.99023E-05-5.77545E-06 1.22015E-06
 -1     16601 6.94232E-05-5.73504E-06-1.21179E-06
 -1     16603 6.94232E-05-5.73504E-06 1.21179E-06
 -1     16604 7.01040E-05-5.67096E-06-1.22367E-06
 -1     16606 7.01040E-05-5.67096E-06 1.22367E-06
 -1     16607 1.00077E-04-3.28966E-06-1.74685E-06
 -1     16609 1.00077E-04-3.28966E-06 1.74685E-06
 -1     16610 1.00799E-04-3.43375E-06-1.75946E-06
 -1     16612 1.00799E-04-3.43375E-06 1.75946E-06
 -1     16613 9.83109E-05-3.28886E-06-1.71602E-06
 -1     16615 9.83109E-05-3.28886E-06 1.71602E-06
 -1     16616 1.05561E-04-4.76216E-06-1.84257E-06
 -1     16618 1.05561E-04-4.76216E-06 1.84257E-06
 -1     16619 1.07372E-04-3.99365E-06-1.87419E-06
 -1     16621 1.07372E-04-3.99365E-06 1.87419E-06
 -1     16622 1.05525E-04-4.07783E-06-1.84195E-06
 -1     16624 1.05525E-04-4.07783E-06 1.84195E-06
 -1     16625 1.07397E-04-3.81981E-06-1.87463E-06
 -1     16627 1.07397E-04-3.81981E-06 1.87463E-06
 -1     16628 9.78266E-05-5.82678E-06-1.70757E-06
 -1     16630 9.78266E-05-5.82678E-06 1.70757E-06
 -1     16631 9.63318E-05-5.79821E-06-1.68148E-06
 -1     16633 9.63318E-05-5.79821E-06 1.68148E-06
 -1     16634 1.03915E-04-5.16970E-06-1.81385E-06
 -1     16636 1.03915E-04-5.16970E-06 1.81385E-06
 -1     16637 1.02355E-04-5.25234E-06-1.78662E-06
 -1     16639 1.02355E-04-5.25234E-06 1.78662E-06
 -1     16640 1.03832E-04-5.01332E-06-1.81240E-06
 -1     16642 1.03832E-04-5.01332E-06 1.81240E-06
 -1     16643 7.46884E-05-3.24430E-06-1.30369E-06
 -1     16645 7.46884E-05-3.24430E-06 1.30369E-06
 -1     16646 7.49859E-05-3.40394E-06-1.30888E-06
 -1     16648 7.49859E-05-3.40394E-06 1.30888E-06
 -1     16649 7.40904E-05-3.24206E-06-1.29325E-06
 -1     16651 7.40904E-05-3.24206E-06 1.29325E-06
 -1     16652 6.93342E-05-5.54595E-06-1.21023E-06
 -1     16654 6.93342E-05-5.54595E-06 1.21023E-06
 -1     16655 6.90251E-05-5.66497E-06-1.20484E-06
 -1     16657 6.90251E-05-5.66497E-06 1.20484E-06
 -1     16658 9.54083E-05-5.65410E-06-1.66536E-06
 -1     16660 9.54083E-05-5.65410E-06 1.66536E-06
 -1     16661 6.90584E-05-3.57674E-06-1.20542E-06
 -1     16663 6.90584E-05-3.57674E-06 1.20542E-06
 -1     16664 6.94363E-05-3.53979E-06-1.21201E-06
 -1     16666 6.94363E-05-3.53979E-06 1.21201E-06
 -1     16667 6.89850E-05-3.73980E-06-1.20414E-06
 -1     16669 6.89850E-05-3.73980E-06 1.20414E-06
 -1     16670 1.04518E-04-5.64043E-06-1.82437E-06
 -1     16672 1.04518E-04-5.64043E-06 1.82437E-06
 -1     16673 7.27147E-05-4.19849E-06-1.26924E-06
 -1     16675 7.27147E-05-4.19849E-06 1.26924E-06
 -1     16676 7.32065E-05-4.15885E-06-1.27782E-06
 -1     16678 7.32065E-05-4.15885E-06 1.27782E-06
 -1     16679 7.27209E-05-4.01539E-06-1.26935E-06
 -1     16681 7.27209E-05-4.01539E-06 1.26935E-06
 -1     16682 1.02809E-04-5.57344E-06-1.79453E-06
 -1     16684 1.02809E-04-5.57344E-06 1.79453E-06
 -1     16685 9.85224E-05-5.73107E-06-1.71971E-06
 -1     16687 9.85224E-05-5.73107E-06 1.71971E-06
 -1     16688 6.90386E-05-4.34913E-06-1.20507E-06
 -1     16690 6.90386E-05-4.34913E-06 1.20507E-06
 -1     16691 6.89957E-05-4.18586E-06-1.20433E-06
 -1     16693 6.89957E-05-4.18586E-06 1.20433E-06
 -1     16694 6.93094E-05-5.37681E-06-1.20980E-06
 -1     16696 6.93094E-05-5.37681E-06 1.20980E-06
 -1     16697 6.92728E-05-5.20207E-06-1.20916E-06
 -1     16699 6.92728E-05-5.20207E-06 1.20916E-06
 -1     16700 6.97185E-05-5.44688E-06-1.21694E-06
 -1     16702 6.97185E-05-5.44688E-06 1.21694E-06
 -1     16703 7.14258E-05-2.92838E-06-1.24674E-06
 -1     16705 7.14258E-05-2.92838E-06 1.24674E-06
 -1     16706 7.19232E-05-2.92834E-06-1.25542E-06
 -1     16708 7.19232E-05-2.92834E-06 1.25542E-06
 -1     16709 7.21837E-05-3.08366E-06-1.25997E-06
 -1     16711 7.21837E-05-3.08366E-06 1.25997E-06
 -1     16712 7.12063E-05-3.08101E-06-1.24291E-06
 -1     16714 7.12063E-05-3.08101E-06 1.24291E-06
 -1     16715 6.92381E-05-5.03047E-06-1.20856E-06
 -1     16717 6.92381E-05-5.03047E-06 1.20856E-06
 -1     16718 6.91995E-05-4.85940E-06-1.20788E-06
 -1     16720 6.91995E-05-4.85940E-06 1.20788E-06
 -1     16721 6.96567E-05-5.10615E-06-1.21586E-06
 -1     16723 6.96567E-05-5.10615E-06 1.21586E-06
 -1     16724 1.03737E-04-4.33540E-06-1.81074E-06
 -1     16726 1.03737E-04-4.33540E-06 1.81074E-06
 -1     16727 1.03751E-04-4.50647E-06-1.81098E-06
 -1     16729 1.03751E-04-4.50647E-06 1.81098E-06
 -1     16730 7.04994E-05-5.58433E-06-1.23057E-06
 -1     16732 7.04994E-05-5.58433E-06 1.23057E-06
 -1     16733 7.01272E-05-5.52936E-06-1.22408E-06
 -1     16735 7.01272E-05-5.52936E-06 1.22408E-06
 -1     16736 7.01005E-05-5.36022E-06-1.22361E-06
 -1     16738 7.01005E-05-5.36022E-06 1.22361E-06
 -1     16739 7.08828E-05-5.56149E-06-1.23726E-06
 -1     16741 7.08828E-05-5.56149E-06 1.23726E-06
 -1     16742 8.13613E-05-3.25426E-06-1.42017E-06
 -1     16744 8.13613E-05-3.25426E-06 1.42017E-06
 -1     16745 8.22701E-05-3.25367E-06-1.43603E-06
 -1     16747 8.22701E-05-3.25367E-06 1.43603E-06
 -1     16748 8.27507E-05-3.41175E-06-1.44442E-06
 -1     16750 8.27507E-05-3.41175E-06 1.44442E-06
 -1     16751 8.09134E-05-3.41399E-06-1.41235E-06
 -1     16753 8.09134E-05-3.41399E-06 1.41235E-06
 -1     16754 6.91382E-05-4.68508E-06-1.20681E-06
 -1     16756 6.91382E-05-4.68508E-06 1.20681E-06
 -1     16757 6.90967E-05-4.51555E-06-1.20609E-06
 -1     16759 6.90967E-05-4.51555E-06 1.20609E-06
 -1     16760 6.94333E-05-4.41950E-06-1.21196E-06
 -1     16762 6.94333E-05-4.41950E-06 1.21196E-06
 -1     16763 6.95570E-05-4.76023E-06-1.21412E-06
 -1     16765 6.95570E-05-4.76023E-06 1.21412E-06
 -1     16766 9.29263E-05-5.51089E-06-1.62203E-06
 -1     16768 9.29263E-05-5.51089E-06 1.62203E-06
 -1     16769 9.15279E-05-5.51238E-06-1.59763E-06
 -1     16771 9.15279E-05-5.51238E-06 1.59763E-06
 -1     16772 6.89118E-05-4.04297E-06-1.20286E-06
 -1     16774 6.89118E-05-4.04297E-06 1.20286E-06
 -1     16775 6.89188E-05-3.87705E-06-1.20298E-06
 -1     16777 6.89188E-05-3.87705E-06 1.20298E-06
 -1     16778 6.92681E-05-3.83006E-06-1.20908E-06
 -1     16780 6.92681E-05-3.83006E-06 1.20908E-06
 -1     16781 6.92863E-05-4.11018E-06-1.20940E-06
 -1     16783 6.92863E-05-4.11018E-06 1.20940E-06
 -1     16784 1.01537E-04-5.65285E-06-1.77234E-06
 -1     16786 1.01537E-04-5.65285E-06 1.77234E-06
 -1     16787 1.00053E-04-5.68533E-06-1.74643E-06
 -1     16789 1.00053E-04-5.68533E-06 1.74643E-06
 -1     16790 8.11548E-05-4.66692E-06-1.41656E-06
 -1     16792 8.11548E-05-4.66692E-06 1.41656E-06
 -1     16793 8.13795E-05-4.49170E-06-1.42048E-06
 -1     16795 8.13795E-05-4.49170E-06 1.42048E-06
 -1     16796 8.06862E-05-4.53838E-06-1.40838E-06
 -1     16798 8.06862E-05-4.53838E-06 1.40838E-06
 -1     16799 9.85442E-05-5.61309E-06-1.72009E-06
 -1     16801 9.85442E-05-5.61309E-06 1.72009E-06
 -1     16802 9.02200E-05-5.51548E-06-1.57480E-06
 -1     16804 9.02200E-05-5.51548E-06 1.57480E-06
 -1     16805 8.89525E-05-5.51601E-06-1.55267E-06
 -1     16807 8.89525E-05-5.51601E-06 1.55267E-06
 -1     16808 9.07261E-05-5.37547E-06-1.58363E-06
 -1     16810 9.07261E-05-5.37547E-06 1.58363E-06
 -1     16811 8.77722E-05-5.51336E-06-1.53207E-06
 -1     16813 8.77722E-05-5.51336E-06 1.53207E-06
 -1     16814 8.66266E-05-5.51008E-06-1.51207E-06
 -1     16816 8.66266E-05-5.51008E-06 1.51207E-06
 -1     16817 8.82519E-05-5.37590E-06-1.54044E-06
 -1     16819 8.82519E-05-5.37590E-06 1.54044E-06
 -1     16820 8.55415E-05-5.50085E-06-1.49313E-06
 -1     16822 8.55415E-05-5.50085E-06 1.49313E-06
 -1     16823 8.44961E-05-5.49499E-06-1.47488E-06
 -1     16825 8.44961E-05-5.49499E-06 1.47488E-06
 -1     16826 8.59965E-05-5.36399E-06-1.50107E-06
 -1     16828 8.59965E-05-5.36399E-06 1.50107E-06
 -1     16829 8.34913E-05-5.48258E-06-1.45735E-06
 -1     16831 8.34913E-05-5.48258E-06 1.45735E-06
 -1     16832 8.25376E-05-5.47952E-06-1.44070E-06
 -1     16834 8.25376E-05-5.47952E-06 1.44070E-06
 -1     16835 8.39147E-05-5.34232E-06-1.46474E-06
 -1     16837 8.39147E-05-5.34232E-06 1.46474E-06
 -1     16838 8.16156E-05-5.48214E-06-1.42461E-06
 -1     16840 8.16156E-05-5.48214E-06 1.42461E-06
 -1     16841 8.07376E-05-5.48534E-06-1.40928E-06
 -1     16843 8.07376E-05-5.48534E-06 1.40928E-06
 -1     16844 8.19959E-05-5.33252E-06-1.43124E-06
 -1     16846 8.19959E-05-5.33252E-06 1.43124E-06
 -1     16847 7.98842E-05-5.49735E-06-1.39438E-06
 -1     16849 7.98842E-05-5.49735E-06 1.39438E-06
 -1     16850 7.90705E-05-5.50165E-06-1.38018E-06
 -1     16852 7.90705E-05-5.50165E-06 1.38018E-06
 -1     16853 8.02282E-05-5.34714E-06-1.40039E-06
 -1     16855 8.02282E-05-5.34714E-06 1.40039E-06
 -1     16856 7.82911E-05-5.50432E-06-1.36658E-06
 -1     16858 7.82911E-05-5.50432E-06 1.36658E-06
 -1     16859 7.75406E-05-5.50471E-06-1.35348E-06
 -1     16861 7.75406E-05-5.50471E-06 1.35348E-06
 -1     16862 7.86032E-05-5.36182E-06-1.37202E-06
 -1     16864 7.86032E-05-5.36182E-06 1.37202E-06
 -1     16865 7.68254E-05-5.50063E-06-1.34099E-06
 -1     16867 7.68254E-05-5.50063E-06 1.34099E-06
 -1     16868 7.61318E-05-5.49861E-06-1.32889E-06
 -1     16870 7.61318E-05-5.49861E-06 1.32889E-06
 -1     16871 7.71153E-05-5.36040E-06-1.34605E-06
 -1     16873 7.71153E-05-5.36040E-06 1.34605E-06
 -1     16874 7.54605E-05-5.49519E-06-1.31717E-06
 -1     16876 7.54605E-05-5.49519E-06 1.31717E-06
 -1     16877 7.48156E-05-5.49395E-06-1.30591E-06
 -1     16879 7.48156E-05-5.49395E-06 1.30591E-06
 -1     16880 7.57342E-05-5.35289E-06-1.32195E-06
 -1     16882 7.57342E-05-5.35289E-06 1.32195E-06
 -1     16883 7.41826E-05-5.49354E-06-1.29486E-06
 -1     16885 7.41826E-05-5.49354E-06 1.29486E-06
 -1     16886 7.35828E-05-5.49492E-06-1.28439E-06
 -1     16888 7.35828E-05-5.49492E-06 1.28439E-06
 -1     16889 7.44350E-05-5.34904E-06-1.29927E-06
 -1     16891 7.44350E-05-5.34904E-06 1.29927E-06
 -1     16892 7.29851E-05-5.49936E-06-1.27396E-06
 -1     16894 7.29851E-05-5.49936E-06 1.27396E-06
 -1     16895 7.24325E-05-5.50496E-06-1.26431E-06
 -1     16897 7.24325E-05-5.50496E-06 1.26431E-06
 -1     16898 7.32098E-05-5.35306E-06-1.27788E-06
 -1     16900 7.32098E-05-5.35306E-06 1.27788E-06
 -1     16901 7.18654E-05-5.51560E-06-1.25442E-06
 -1     16903 7.18654E-05-5.51560E-06 1.25442E-06
 -1     16904 7.13762E-05-5.52952E-06-1.24588E-06
 -1     16906 7.13762E-05-5.52952E-06 1.24588E-06
 -1     16907 7.20519E-05-5.36813E-06-1.25767E-06
 -1     16909 7.20519E-05-5.36813E-06 1.25767E-06
 -1     16910 1.05629E-04-3.72676E-06-1.84376E-06
 -1     16912 1.05629E-04-3.72676E-06 1.84376E-06
 -1     16913 1.02376E-04-3.55771E-06-1.78698E-06
 -1     16915 1.02376E-04-3.55771E-06 1.78698E-06
 -1     16916 1.03891E-04-3.63482E-06-1.81342E-06
 -1     16918 1.03891E-04-3.63482E-06 1.81342E-06
 -1     16919 1.03812E-04-3.81185E-06-1.81205E-06
 -1     16921 1.03812E-04-3.81185E-06 1.81205E-06
 -1     16922 1.00587E-04-3.59581E-06-1.75576E-06
 -1     16924 1.00587E-04-3.59581E-06 1.75576E-06
 -1     16925 6.82713E-05-5.80544E-06-1.19168E-06
 -1     16927 6.82713E-05-5.80544E-06 1.19168E-06
 -1     16928 7.66315E-05-3.25446E-06-1.33761E-06
 -1     16930 7.66315E-05-3.25446E-06 1.33761E-06
 -1     16931 7.73363E-05-3.25600E-06-1.34991E-06
 -1     16933 7.73363E-05-3.25600E-06 1.34991E-06
 -1     16934 7.76900E-05-3.41619E-06-1.35608E-06
 -1     16936 7.76900E-05-3.41619E-06 1.35608E-06
 -1     16937 7.62783E-05-3.41195E-06-1.33144E-06
 -1     16939 7.62783E-05-3.41195E-06 1.33144E-06
 -1     16940 1.03794E-04-4.67864E-06-1.81172E-06
 -1     16942 1.03794E-04-4.67864E-06 1.81172E-06
 -1     16943 1.03820E-04-4.84684E-06-1.81219E-06
 -1     16945 1.03820E-04-4.84684E-06 1.81219E-06
 -1     16946 7.46537E-05-3.56115E-06-1.30309E-06
 -1     16948 7.46537E-05-3.56115E-06 1.30309E-06
 -1     16949 7.52698E-05-3.56626E-06-1.31384E-06
 -1     16951 7.52698E-05-3.56626E-06 1.31384E-06
 -1     16952 7.88146E-05-3.57983E-06-1.37571E-06
 -1     16954 7.88146E-05-3.57983E-06 1.37571E-06
 -1     16955 7.96186E-05-3.57895E-06-1.38975E-06
 -1     16957 7.96186E-05-3.57895E-06 1.38975E-06
 -1     16958 9.44297E-05-5.50263E-06-1.64828E-06
 -1     16960 9.44297E-05-5.50263E-06 1.64828E-06
 -1     16961 9.35176E-05-5.36409E-06-1.63236E-06
 -1     16963 9.35176E-05-5.36409E-06 1.63236E-06
 -1     16964 9.60489E-05-5.50728E-06-1.67654E-06
 -1     16966 9.60489E-05-5.50728E-06 1.67654E-06
 -1     16967 8.68789E-05-3.40088E-06-1.51648E-06
 -1     16969 8.68789E-05-3.40088E-06 1.51648E-06
 -1     16970 8.74082E-05-3.23881E-06-1.52571E-06
 -1     16972 8.74082E-05-3.23881E-06 1.52571E-06
 -1     16973 6.86663E-05-5.75075E-06-1.19858E-06
 -1     16975 6.86663E-05-5.75075E-06 1.19858E-06
 -1     16976 1.02090E-04-4.59116E-06-1.78199E-06
 -1     16978 1.02090E-04-4.59116E-06 1.78199E-06
 -1     16979 6.97679E-05-3.50855E-06-1.21780E-06
 -1     16981 6.97679E-05-3.50855E-06 1.21780E-06
 -1     16982 7.01814E-05-3.50142E-06-1.22502E-06
 -1     16984 7.01814E-05-3.50142E-06 1.22502E-06
 -1     16985 6.96650E-05-3.66156E-06-1.21601E-06
 -1     16987 6.96650E-05-3.66156E-06 1.21601E-06
 -1     16988 7.09860E-05-3.23744E-06-1.23906E-06
 -1     16990 7.09860E-05-3.23744E-06 1.23906E-06
 -1     16991 7.14565E-05-3.23964E-06-1.24728E-06
 -1     16993 7.14565E-05-3.23964E-06 1.24728E-06
 -1     16994 7.07890E-05-3.38430E-06-1.23563E-06
 -1     16996 7.07890E-05-3.38430E-06 1.23563E-06
 -1     16997 7.10023E-05-5.41074E-06-1.23935E-06
 -1     16999 7.10023E-05-5.41074E-06 1.23935E-06
 -1     17000 1.03723E-04-4.16237E-06-1.81049E-06
 -1     17002 1.03723E-04-4.16237E-06 1.81049E-06
 -1     17003 1.02036E-04-4.24594E-06-1.78104E-06
 -1     17005 1.02036E-04-4.24594E-06 1.78104E-06
 -1     17006 1.03743E-04-3.98837E-06-1.81083E-06
 -1     17008 1.03743E-04-3.98837E-06 1.81083E-06
 -1     17009 9.65886E-05-3.25100E-06-1.68596E-06
 -1     17011 9.65886E-05-3.25100E-06 1.68596E-06
 -1     17012 9.73253E-05-3.43384E-06-1.69882E-06
 -1     17014 9.73253E-05-3.43384E-06 1.69882E-06
 -1     17015 1.02142E-04-4.92980E-06-1.78290E-06
 -1     17017 1.02142E-04-4.92980E-06 1.78290E-06
 -1     17018 8.04703E-05-3.57407E-06-1.40461E-06
 -1     17020 8.04703E-05-3.57407E-06 1.40461E-06
 -1     17021 8.13504E-05-3.57229E-06-1.41998E-06
 -1     17023 8.13504E-05-3.57229E-06 1.41998E-06
 -1     17024 8.00289E-05-3.73726E-06-1.39691E-06
 -1     17026 8.00289E-05-3.73726E-06 1.39691E-06
 -1     17027 1.00362E-04-5.19201E-06-1.75182E-06
 -1     17029 1.00362E-04-5.19201E-06 1.75182E-06
 -1     17030 1.00554E-04-5.34796E-06-1.75517E-06
 -1     17032 1.00554E-04-5.34796E-06 1.75517E-06
 -1     17033 7.35202E-05-3.23972E-06-1.28330E-06
 -1     17035 7.35202E-05-3.23972E-06 1.28330E-06
 -1     17036 7.37995E-05-3.39649E-06-1.28817E-06
 -1     17038 7.37995E-05-3.39649E-06 1.28817E-06
 -1     17039 7.29681E-05-3.23914E-06-1.27366E-06
 -1     17041 7.29681E-05-3.23914E-06 1.27366E-06
 -1     17042 8.42693E-05-3.57285E-06-1.47093E-06
 -1     17044 8.42693E-05-3.57285E-06 1.47093E-06
 -1     17045 8.53070E-05-3.57165E-06-1.48904E-06
 -1     17047 8.53070E-05-3.57165E-06 1.48904E-06
 -1     17048 9.52029E-05-2.92852E-06-1.66177E-06
 -1     17050 9.52029E-05-2.92852E-06 1.66177E-06
 -1     17051 9.59394E-05-3.09151E-06-1.67463E-06
 -1     17053 9.59394E-05-3.09151E-06 1.67463E-06
 -1     17054 9.50216E-05-3.23642E-06-1.65861E-06
 -1     17056 9.50216E-05-3.23642E-06 1.65861E-06
 -1     17057 9.37154E-05-2.92233E-06-1.63581E-06
 -1     17059 9.37154E-05-2.92233E-06 1.63581E-06
 -1     17060 9.78584E-05-5.47327E-06-1.70813E-06
 -1     17062 9.78584E-05-5.47327E-06 1.70813E-06
 -1     17063 9.68043E-05-5.32172E-06-1.68973E-06
 -1     17065 9.68043E-05-5.32172E-06 1.68973E-06
 -1     17066 8.85507E-05-3.23179E-06-1.54566E-06
 -1     17068 8.85507E-05-3.23179E-06 1.54566E-06
 -1     17069 9.09861E-05-2.91444E-06-1.58817E-06
 -1     17071 9.09861E-05-2.91444E-06 1.58817E-06
 -1     17072 9.23225E-05-2.91611E-06-1.61150E-06
 -1     17074 9.23225E-05-2.91611E-06 1.61150E-06
 -1     17075 9.29793E-05-3.07075E-06-1.62296E-06
 -1     17077 9.29793E-05-3.07075E-06 1.62296E-06
 -1     17078 9.03371E-05-3.06763E-06-1.57684E-06
 -1     17080 9.03371E-05-3.06763E-06 1.57684E-06
 -1     17081 7.59167E-05-3.57234E-06-1.32513E-06
 -1     17083 7.59167E-05-3.57234E-06 1.32513E-06
 -1     17084 7.65920E-05-3.57524E-06-1.33692E-06
 -1     17086 7.65920E-05-3.57524E-06 1.33692E-06
 -1     17087 7.55652E-05-3.72955E-06-1.31899E-06
 -1     17089 7.55652E-05-3.72955E-06 1.31899E-06
 -1     17090 8.64187E-05-3.57038E-06-1.50844E-06
 -1     17092 8.64187E-05-3.57038E-06 1.50844E-06
 -1     17093 8.75221E-05-3.56237E-06-1.52770E-06
 -1     17095 8.75221E-05-3.56237E-06 1.52770E-06
 -1     17096 8.59112E-05-3.73315E-06-1.49959E-06
 -1     17098 8.59112E-05-3.73315E-06 1.49959E-06
 -1     17099 9.72744E-05-5.16607E-06-1.69793E-06
 -1     17101 9.72744E-05-5.16607E-06 1.69793E-06
 -1     17102 9.54960E-05-5.20011E-06-1.66689E-06
 -1     17104 9.54960E-05-5.20011E-06 1.66689E-06
 -1     17105 9.93586E-05-5.42753E-06-1.73431E-06
 -1     17107 9.93586E-05-5.42753E-06 1.73431E-06
 -1     17108 1.01295E-04-5.48773E-06-1.76812E-06
 -1     17110 1.01295E-04-5.48773E-06 1.76812E-06
 -1     17111 9.40691E-05-5.21721E-06-1.64198E-06
 -1     17113 9.40691E-05-5.21721E-06 1.64198E-06
 -1     17114 9.25829E-05-5.22548E-06-1.61604E-06
 -1     17116 9.25829E-05-5.22548E-06 1.61604E-06
 -1     17117 9.45006E-05-5.06151E-06-1.64951E-06
 -1     17119 9.45006E-05-5.06151E-06 1.64951E-06
 -1     17120 7.01755E-05-5.18143E-06-1.22492E-06
 -1     17122 7.01755E-05-5.18143E-06 1.22492E-06
 -1     17123 7.01379E-05-5.00986E-06-1.22426E-06
 -1     17125 7.01379E-05-5.00986E-06 1.22426E-06
 -1     17126 7.06011E-05-5.26394E-06-1.23235E-06
 -1     17128 7.06011E-05-5.26394E-06 1.23235E-06
 -1     17129 1.00506E-04-4.50266E-06-1.75433E-06
 -1     17131 1.00506E-04-4.50266E-06 1.75433E-06
 -1     17132 1.00545E-04-4.67487E-06-1.75501E-06
 -1     17134 1.00545E-04-4.67487E-06 1.75501E-06
 -1     17135 7.10831E-05-5.23196E-06-1.24076E-06
 -1     17137 7.10831E-05-5.23196E-06 1.24076E-06
 -1     17138 1.00558E-04-4.84903E-06-1.75525E-06
 -1     17140 1.00558E-04-4.84903E-06 1.75525E-06
 -1     17141 1.00569E-04-5.01554E-06-1.75544E-06
 -1     17143 1.00569E-04-5.01554E-06 1.75544E-06
 -1     17144 9.88538E-05-5.11118E-06-1.72550E-06
 -1     17146 9.88538E-05-5.11118E-06 1.72550E-06
 -1     17147 9.90391E-05-4.76056E-06-1.72873E-06
 -1     17149 9.90391E-05-4.76056E-06 1.72873E-06
 -1     17150 7.80383E-05-3.58032E-06-1.36216E-06
 -1     17152 7.80383E-05-3.58032E-06 1.36216E-06
 -1     17153 7.84037E-05-3.74263E-06-1.36854E-06
 -1     17155 7.84037E-05-3.74263E-06 1.36854E-06
 -1     17156 7.73027E-05-3.57898E-06-1.34932E-06
 -1     17158 7.73027E-05-3.57898E-06 1.34932E-06
 -1     17159 9.12749E-05-5.23137E-06-1.59321E-06
 -1     17161 9.12749E-05-5.23137E-06 1.59321E-06
 -1     17162 8.99783E-05-5.23446E-06-1.57058E-06
 -1     17164 8.99783E-05-5.23446E-06 1.57058E-06
 -1     17165 9.17864E-05-5.08447E-06-1.60214E-06
 -1     17167 9.17864E-05-5.08447E-06 1.60214E-06
 -1     17168 8.88194E-05-5.23570E-06-1.55035E-06
 -1     17170 8.88194E-05-5.23570E-06 1.55035E-06
 -1     17171 8.76448E-05-5.23303E-06-1.52985E-06
 -1     17173 8.76448E-05-5.23303E-06 1.52985E-06
 -1     17174 8.93319E-05-5.09160E-06-1.55929E-06
 -1     17176 8.93319E-05-5.09160E-06 1.55929E-06
 -1     17177 8.65478E-05-5.22511E-06-1.51070E-06
 -1     17179 8.65478E-05-5.22511E-06 1.51070E-06
 -1     17180 8.54660E-05-5.21586E-06-1.49182E-06
 -1     17182 8.54660E-05-5.21586E-06 1.49182E-06
 -1     17183 8.70793E-05-5.08489E-06-1.51998E-06
 -1     17185 8.70793E-05-5.08489E-06 1.51998E-06
 -1     17186 8.44563E-05-5.19373E-06-1.47419E-06
 -1     17188 8.44563E-05-5.19373E-06 1.47419E-06
 -1     17189 8.34532E-05-5.18128E-06-1.45668E-06
 -1     17191 8.34532E-05-5.18128E-06 1.45668E-06
 -1     17192 8.49739E-05-5.05484E-06-1.48322E-06
 -1     17194 8.49739E-05-5.05484E-06 1.48322E-06
 -1     17195 8.24228E-05-5.15479E-06-1.43869E-06
 -1     17197 8.24228E-05-5.15479E-06 1.43869E-06
 -1     17198 8.15055E-05-5.15740E-06-1.42268E-06
 -1     17200 8.15055E-05-5.15740E-06 1.42268E-06
 -1     17201 8.29301E-05-5.00617E-06-1.44755E-06
 -1     17203 8.29301E-05-5.00617E-06 1.44755E-06
 -1     17204 8.05925E-05-5.19576E-06-1.40675E-06
 -1     17206 8.05925E-05-5.19576E-06 1.40675E-06
 -1     17207 7.97450E-05-5.20778E-06-1.39195E-06
 -1     17209 7.97450E-05-5.20778E-06 1.39195E-06
 -1     17210 8.09923E-05-5.01802E-06-1.41373E-06
 -1     17212 8.09923E-05-5.01802E-06 1.41373E-06
 -1     17213 7.89498E-05-5.21953E-06-1.37807E-06
 -1     17215 7.89498E-05-5.21953E-06 1.37807E-06
 -1     17216 7.81752E-05-5.22219E-06-1.36455E-06
 -1     17218 7.81752E-05-5.22219E-06 1.36455E-06
 -1     17219 7.92915E-05-5.06815E-06-1.38404E-06
 -1     17221 7.92915E-05-5.06815E-06 1.38404E-06
 -1     17222 7.74618E-05-5.21278E-06-1.35210E-06
 -1     17224 7.74618E-05-5.21278E-06 1.35210E-06
 -1     17225 7.67497E-05-5.20870E-06-1.33967E-06
 -1     17227 7.67497E-05-5.20870E-06 1.33967E-06
 -1     17228 7.77879E-05-5.07049E-06-1.35779E-06
 -1     17230 7.77879E-05-5.07049E-06 1.35779E-06
 -1     17231 7.60643E-05-5.20210E-06-1.32771E-06
 -1     17233 7.60643E-05-5.20210E-06 1.32771E-06
 -1     17234 7.53956E-05-5.19866E-06-1.31604E-06
 -1     17236 7.53956E-05-5.19866E-06 1.31604E-06
 -1     17237 7.63905E-05-5.05448E-06-1.33340E-06
 -1     17239 7.63905E-05-5.05448E-06 1.33340E-06
 -1     17240 7.47370E-05-5.19493E-06-1.30454E-06
 -1     17242 7.47370E-05-5.19493E-06 1.30454E-06
 -1     17243 7.41071E-05-5.19451E-06-1.29354E-06
 -1     17245 7.41071E-05-5.19451E-06 1.29354E-06
 -1     17246 7.50475E-05-5.04413E-06-1.30996E-06
 -1     17248 7.50475E-05-5.04413E-06 1.30996E-06
 -1     17249 7.34790E-05-5.19672E-06-1.28258E-06
 -1     17251 7.34790E-05-5.19672E-06 1.28258E-06
 -1     17252 7.28854E-05-5.20115E-06-1.27222E-06
 -1     17254 7.28854E-05-5.20115E-06 1.27222E-06
 -1     17255 7.37625E-05-5.04260E-06-1.28753E-06
 -1     17257 7.37625E-05-5.04260E-06 1.28753E-06
 -1     17258 7.22814E-05-5.21174E-06-1.26168E-06
 -1     17260 7.22814E-05-5.21174E-06 1.26168E-06
 -1     17261 7.17205E-05-5.22238E-06-1.25189E-06
 -1     17263 7.17205E-05-5.22238E-06 1.25189E-06
 -1     17264 7.25333E-05-5.05540E-06-1.26607E-06
 -1     17266 7.25333E-05-5.05540E-06 1.26607E-06
 -1     17267 8.22852E-05-3.57068E-06-1.43629E-06
 -1     17269 8.22852E-05-3.57068E-06 1.43629E-06
 -1     17270 8.32439E-05-3.57023E-06-1.45303E-06
 -1     17272 8.32439E-05-3.57023E-06 1.45303E-06
 -1     17273 8.18132E-05-3.73077E-06-1.42805E-06
 -1     17275 8.18132E-05-3.73077E-06 1.42805E-06
 -1     17276 8.37724E-05-3.73179E-06-1.46225E-06
 -1     17278 8.37724E-05-3.73179E-06 1.46225E-06
 -1     17279 9.60688E-05-3.54974E-06-1.67689E-06
 -1     17281 9.60688E-05-3.54974E-06 1.67689E-06
 -1     17282 9.77637E-05-3.58761E-06-1.70647E-06
 -1     17284 9.77637E-05-3.58761E-06 1.70647E-06
 -1     17285 7.19354E-05-3.24095E-06-1.25564E-06
 -1     17287 7.19354E-05-3.24095E-06 1.25564E-06
 -1     17288 7.24434E-05-3.24141E-06-1.26451E-06
 -1     17290 7.24434E-05-3.24141E-06 1.26451E-06
 -1     17291 7.27054E-05-3.39642E-06-1.26908E-06
 -1     17293 7.27054E-05-3.39642E-06 1.26908E-06
 -1     17294 7.17023E-05-3.39738E-06-1.25157E-06
 -1     17296 7.17023E-05-3.39738E-06 1.25157E-06
 -1     17297 7.40766E-05-3.54998E-06-1.29301E-06
 -1     17299 7.40766E-05-3.54998E-06 1.29301E-06
 -1     17300 7.43444E-05-3.71229E-06-1.29769E-06
 -1     17302 7.43444E-05-3.71229E-06 1.29769E-06
 -1     17303 7.35069E-05-3.54763E-06-1.28307E-06
 -1     17305 7.35069E-05-3.54763E-06 1.28307E-06
 -1     17306 8.32773E-05-3.88960E-06-1.45361E-06
 -1     17308 8.32773E-05-3.88960E-06 1.45361E-06
 -1     17309 8.43042E-05-3.89223E-06-1.47154E-06
 -1     17311 8.43042E-05-3.89223E-06 1.47154E-06
 -1     17312 8.81864E-05-3.71406E-06-1.53930E-06
 -1     17314 8.81864E-05-3.71406E-06 1.53930E-06
 -1     17315 8.86789E-05-3.54457E-06-1.54790E-06
 -1     17317 8.86789E-05-3.54457E-06 1.54790E-06
 -1     17318 7.12959E-05-5.07557E-06-1.24448E-06
 -1     17320 7.12959E-05-5.07557E-06 1.24448E-06
 -1     17321 9.74636E-05-4.98957E-06-1.70123E-06
 -1     17323 9.74636E-05-4.98957E-06 1.70123E-06
 -1     17324 6.96676E-05-3.82981E-06-1.21605E-06
 -1     17326 6.96676E-05-3.82981E-06 1.21605E-06
 -1     17327 7.00064E-05-3.79856E-06-1.22197E-06
 -1     17329 7.00064E-05-3.79856E-06 1.22197E-06
 -1     17330 6.95971E-05-3.96706E-06-1.21482E-06
 -1     17332 6.95971E-05-3.96706E-06 1.21482E-06
 -1     17333 7.69196E-05-3.73937E-06-1.34264E-06
 -1     17335 7.69196E-05-3.73937E-06 1.34264E-06
 -1     17336 7.03742E-05-3.66980E-06-1.22839E-06
 -1     17338 7.03742E-05-3.66980E-06 1.22839E-06
 -1     17339 7.05576E-05-3.54089E-06-1.23159E-06
 -1     17341 7.05576E-05-3.54089E-06 1.23159E-06
 -1     17342 7.09919E-05-3.55267E-06-1.23917E-06
 -1     17344 7.09919E-05-3.55267E-06 1.23917E-06
 -1     17345 7.03769E-05-3.83806E-06-1.22843E-06
 -1     17347 7.03769E-05-3.83806E-06 1.22843E-06
 -1     17348 1.00317E-04-4.33021E-06-1.75104E-06
 -1     17350 1.00317E-04-4.33021E-06 1.75104E-06
 -1     17351 9.88451E-05-4.41398E-06-1.72535E-06
 -1     17353 9.88451E-05-4.41398E-06 1.72535E-06
 -1     17354 1.00303E-04-4.15721E-06-1.75080E-06
 -1     17356 1.00303E-04-4.15721E-06 1.75080E-06
 -1     17357 6.99848E-05-4.82352E-06-1.22159E-06
 -1     17359 6.99848E-05-4.82352E-06 1.22159E-06
 -1     17360 6.99189E-05-4.64920E-06-1.22044E-06
 -1     17362 6.99189E-05-4.64920E-06 1.22044E-06
 -1     17363 7.51861E-05-3.89086E-06-1.31238E-06
 -1     17365 7.51861E-05-3.89086E-06 1.31238E-06
 -1     17366 7.58297E-05-3.89695E-06-1.32361E-06
 -1     17368 7.58297E-05-3.89695E-06 1.32361E-06
 -1     17369 7.05190E-05-4.89880E-06-1.23091E-06
 -1     17371 7.05190E-05-4.89880E-06 1.23091E-06
 -1     17372 7.79903E-05-3.91263E-06-1.36133E-06
 -1     17374 7.79903E-05-3.91263E-06 1.36133E-06
 -1     17375 7.87647E-05-3.91214E-06-1.37484E-06
 -1     17377 7.87647E-05-3.91214E-06 1.37484E-06
 -1     17378 6.96866E-05-4.10995E-06-1.21638E-06
 -1     17380 6.96866E-05-4.10995E-06 1.21638E-06
 -1     17381 7.95907E-05-3.90373E-06-1.38926E-06
 -1     17383 7.95907E-05-3.90373E-06 1.38926E-06
 -1     17384 8.04412E-05-3.89885E-06-1.40411E-06
 -1     17386 8.04412E-05-3.89885E-06 1.40411E-06
 -1     17387 7.91515E-05-4.07372E-06-1.38159E-06
 -1     17389 7.91515E-05-4.07372E-06 1.38159E-06
 -1     17390 1.02088E-04-3.89638E-06-1.78195E-06
 -1     17392 1.02088E-04-3.89638E-06 1.78195E-06
 -1     17393 6.98376E-05-4.46505E-06-1.21902E-06
 -1     17395 6.98376E-05-4.46505E-06 1.21902E-06
 -1     17396 6.97753E-05-4.29863E-06-1.21793E-06
 -1     17398 6.97753E-05-4.29863E-06 1.21793E-06
 -1     17399 7.02764E-05-4.52832E-06-1.22668E-06
 -1     17401 7.02764E-05-4.52832E-06 1.22668E-06
 -1     17402 7.01004E-05-4.15550E-06-1.22361E-06
 -1     17404 7.01004E-05-4.15550E-06 1.22361E-06
 -1     17405 9.47221E-05-3.54359E-06-1.65338E-06
 -1     17407 9.47221E-05-3.54359E-06 1.65338E-06
 -1     17408 9.51265E-05-3.69737E-06-1.66044E-06
 -1     17410 9.51265E-05-3.69737E-06 1.66044E-06
 -1     17411 9.89936E-05-3.67834E-06-1.72794E-06
 -1     17413 9.89936E-05-3.67834E-06 1.72794E-06
 -1     17414 1.00490E-04-3.80245E-06-1.75406E-06
 -1     17416 1.00490E-04-3.80245E-06 1.75406E-06
 -1     17417 1.00427E-04-3.97898E-06-1.75295E-06
 -1     17419 1.00427E-04-3.97898E-06 1.75295E-06
 -1     17420 9.76740E-05-3.79438E-06-1.70491E-06
 -1     17422 9.76740E-05-3.79438E-06 1.70491E-06
 -1     17423 9.36271E-05-3.21937E-06-1.63427E-06
 -1     17425 9.36271E-05-3.21937E-06 1.63427E-06
 -1     17426 9.42302E-05-3.37884E-06-1.64479E-06
 -1     17428 9.42302E-05-3.37884E-06 1.64479E-06
 -1     17429 9.33407E-05-3.52654E-06-1.62927E-06
 -1     17431 9.33407E-05-3.52654E-06 1.62927E-06
 -1     17432 9.22382E-05-3.21315E-06-1.61002E-06
 -1     17434 9.22382E-05-3.21315E-06 1.61002E-06
 -1     17435 8.91303E-05-3.37673E-06-1.55577E-06
 -1     17437 8.91303E-05-3.37673E-06 1.55577E-06
 -1     17438 8.97020E-05-3.21566E-06-1.56575E-06
 -1     17440 8.97020E-05-3.21566E-06 1.56575E-06
 -1     17441 9.09555E-05-3.21256E-06-1.58763E-06
 -1     17443 9.09555E-05-3.21256E-06 1.58763E-06
 -1     17444 8.54302E-05-3.90340E-06-1.49119E-06
 -1     17446 8.54302E-05-3.90340E-06 1.49119E-06
 -1     17447 8.65475E-05-3.90214E-06-1.51069E-06
 -1     17449 8.65475E-05-3.90214E-06 1.51069E-06
 -1     17450 8.48999E-05-4.06122E-06-1.48193E-06
 -1     17452 8.48999E-05-4.06122E-06 1.48193E-06
 -1     17453 8.98357E-05-3.52841E-06-1.56809E-06
 -1     17455 8.98357E-05-3.52841E-06 1.56809E-06
 -1     17456 7.45698E-05-3.88013E-06-1.30162E-06
 -1     17458 7.45698E-05-3.88013E-06 1.30162E-06
 -1     17459 7.48185E-05-4.04753E-06-1.30596E-06
 -1     17461 7.48185E-05-4.04753E-06 1.30596E-06
 -1     17462 7.39958E-05-3.86894E-06-1.29160E-06
 -1     17464 7.39958E-05-3.86894E-06 1.29160E-06
 -1     17465 8.78696E-05-3.89838E-06-1.53377E-06
 -1     17467 8.78696E-05-3.89838E-06 1.53377E-06
 -1     17468 8.90418E-05-3.88053E-06-1.55423E-06
 -1     17470 8.90418E-05-3.88053E-06 1.55423E-06
 -1     17471 8.73507E-05-4.06861E-06-1.52471E-06
 -1     17473 8.73507E-05-4.06861E-06 1.52471E-06
 -1     17474 8.22818E-05-3.88656E-06-1.43623E-06
 -1     17476 8.22818E-05-3.88656E-06 1.43623E-06
 -1     17477 8.27799E-05-4.04700E-06-1.44493E-06
 -1     17479 8.27799E-05-4.04700E-06 1.44493E-06
 -1     17480 8.13471E-05-3.88817E-06-1.41992E-06
 -1     17482 8.13471E-05-3.88817E-06 1.41992E-06
 -1     17483 9.78353E-05-4.84391E-06-1.70772E-06
 -1     17485 9.78353E-05-4.84391E-06 1.70772E-06
 -1     17486 9.63022E-05-4.89868E-06-1.68096E-06
 -1     17488 9.63022E-05-4.89868E-06 1.68096E-06
 -1     17489 9.78227E-05-4.66965E-06-1.70750E-06
 -1     17491 9.78227E-05-4.66965E-06 1.70750E-06
 -1     17492 7.29648E-05-3.54960E-06-1.27360E-06
 -1     17494 7.29648E-05-3.54960E-06 1.27360E-06
 -1     17495 7.32265E-05-3.70308E-06-1.27817E-06
 -1     17497 7.32265E-05-3.70308E-06 1.27817E-06
 -1     17498 7.24402E-05-3.55187E-06-1.26445E-06
 -1     17500 7.24402E-05-3.55187E-06 1.26445E-06
 -1     17501 7.06341E-05-4.21972E-06-1.23292E-06
 -1     17503 7.06341E-05-4.21972E-06 1.23292E-06
 -1     17504 7.05384E-05-4.03106E-06-1.23125E-06
 -1     17506 7.05384E-05-4.03106E-06 1.23125E-06
 -1     17507 9.44679E-05-3.87198E-06-1.64894E-06
 -1     17509 9.44679E-05-3.87198E-06 1.64894E-06
 -1     17510 9.58036E-05-3.87810E-06-1.67226E-06
 -1     17512 9.58036E-05-3.87810E-06 1.67226E-06
 -1     17513 7.65221E-05-3.90290E-06-1.33570E-06
 -1     17515 7.65221E-05-3.90290E-06 1.33570E-06
 -1     17516 7.72300E-05-3.90665E-06-1.34805E-06
 -1     17518 7.72300E-05-3.90665E-06 1.34805E-06
 -1     17519 7.75688E-05-4.07616E-06-1.35397E-06
 -1     17521 7.75688E-05-4.07616E-06 1.35397E-06
 -1     17522 7.61211E-05-4.06422E-06-1.32870E-06
 -1     17524 7.61211E-05-4.06422E-06 1.32870E-06
 -1     17525 9.23437E-05-4.94547E-06-1.61187E-06
 -1     17527 9.23437E-05-4.94547E-06 1.61187E-06
 -1     17528 9.10461E-05-4.95136E-06-1.58921E-06
 -1     17530 9.10461E-05-4.95136E-06 1.58921E-06
 -1     17531 8.98943E-05-4.92676E-06-1.56911E-06
 -1     17533 8.98943E-05-4.92676E-06 1.56911E-06
 -1     17534 8.87388E-05-4.92797E-06-1.54894E-06
 -1     17536 8.87388E-05-4.92797E-06 1.54894E-06
 -1     17537 9.04159E-05-4.78774E-06-1.57821E-06
 -1     17539 9.04159E-05-4.78774E-06 1.57821E-06
 -1     17540 8.76921E-05-4.95666E-06-1.53067E-06
 -1     17542 8.76921E-05-4.95666E-06 1.53067E-06
 -1     17543 8.65931E-05-4.94874E-06-1.51149E-06
 -1     17545 8.65931E-05-4.94874E-06 1.51149E-06
 -1     17546 8.82213E-05-4.79179E-06-1.53991E-06
 -1     17548 8.82213E-05-4.79179E-06 1.53991E-06
 -1     17549 8.56692E-05-4.90746E-06-1.49536E-06
 -1     17551 8.56692E-05-4.90746E-06 1.49536E-06
 -1     17552 8.46512E-05-4.88530E-06-1.47759E-06
 -1     17554 8.46512E-05-4.88530E-06 1.47759E-06
 -1     17555 8.62487E-05-4.77918E-06-1.50548E-06
 -1     17557 8.62487E-05-4.77918E-06 1.50548E-06
 -1     17558 8.37076E-05-4.86061E-06-1.46112E-06
 -1     17560 8.37076E-05-4.86061E-06 1.46112E-06
 -1     17561 8.26659E-05-4.83410E-06-1.44294E-06
 -1     17563 8.26659E-05-4.83410E-06 1.44294E-06
 -1     17564 8.43668E-05-4.71322E-06-1.47263E-06
 -1     17566 8.43668E-05-4.71322E-06 1.47263E-06
 -1     17567 8.11834E-05-4.84663E-06-1.41706E-06
 -1     17569 8.11834E-05-4.84663E-06 1.41706E-06
 -1     17570 8.02839E-05-4.88500E-06-1.40136E-06
 -1     17572 8.02839E-05-4.88500E-06 1.40136E-06
 -1     17573 8.26353E-05-4.65439E-06-1.44241E-06
 -1     17575 8.26353E-05-4.65439E-06 1.44241E-06
 -1     17576 8.18933E-05-4.79992E-06-1.42945E-06
 -1     17578 8.18933E-05-4.79992E-06 1.42945E-06
 -1     17579 7.96323E-05-4.93367E-06-1.38999E-06
 -1     17581 7.96323E-05-4.93367E-06 1.38999E-06
 -1     17582 7.88415E-05-4.94541E-06-1.37618E-06
 -1     17584 7.88415E-05-4.94541E-06 1.37618E-06
 -1     17585 7.98113E-05-4.76224E-06-1.39311E-06
 -1     17587 7.98113E-05-4.76224E-06 1.39311E-06
 -1     17588 7.81938E-05-4.91810E-06-1.36488E-06
 -1     17590 7.81938E-05-4.91810E-06 1.36488E-06
 -1     17591 7.74797E-05-4.90867E-06-1.35241E-06
 -1     17593 7.74797E-05-4.90867E-06 1.35241E-06
 -1     17594 7.85157E-05-4.78359E-06-1.37050E-06
 -1     17596 7.85157E-05-4.78359E-06 1.37050E-06
 -1     17597 7.67850E-05-4.89741E-06-1.34029E-06
 -1     17599 7.67850E-05-4.89741E-06 1.34029E-06
 -1     17600 7.60983E-05-4.89080E-06-1.32830E-06
 -1     17602 7.60983E-05-4.89080E-06 1.32830E-06
 -1     17603 7.71690E-05-4.74500E-06-1.34699E-06
 -1     17605 7.71690E-05-4.74500E-06 1.34699E-06
 -1     17606 7.54185E-05-4.88463E-06-1.31644E-06
 -1     17608 7.54185E-05-4.88463E-06 1.31644E-06
 -1     17609 7.47590E-05-4.88088E-06-1.30492E-06
 -1     17611 7.47590E-05-4.88088E-06 1.30492E-06
 -1     17612 7.57909E-05-4.72755E-06-1.32293E-06
 -1     17614 7.57909E-05-4.72755E-06 1.32293E-06
 -1     17615 7.40946E-05-4.87531E-06-1.29333E-06
 -1     17617 7.40946E-05-4.87531E-06 1.29333E-06
 -1     17618 7.34670E-05-4.87751E-06-1.28237E-06
 -1     17620 7.34670E-05-4.87751E-06 1.28237E-06
 -1     17621 7.44437E-05-4.71579E-06-1.29942E-06
 -1     17623 7.44437E-05-4.71579E-06 1.29942E-06
 -1     17624 7.28423E-05-4.88556E-06-1.27147E-06
 -1     17626 7.28423E-05-4.88556E-06 1.27147E-06
 -1     17627 7.22401E-05-4.89615E-06-1.26096E-06
 -1     17629 7.22401E-05-4.89615E-06 1.26096E-06
 -1     17630 7.31540E-05-4.71826E-06-1.27691E-06
 -1     17632 7.31540E-05-4.71826E-06 1.27691E-06
 -1     17633 9.49567E-05-4.89706E-06-1.65748E-06
 -1     17635 9.49567E-05-4.89706E-06 1.65748E-06
 -1     17636 9.35537E-05-4.91413E-06-1.63299E-06
 -1     17638 9.35537E-05-4.91413E-06 1.63299E-06
 -1     17639 9.27687E-05-4.78099E-06-1.61928E-06
 -1     17641 9.27687E-05-4.78099E-06 1.61928E-06
 -1     17642 9.53006E-05-4.75136E-06-1.66348E-06
 -1     17644 9.53006E-05-4.75136E-06 1.66348E-06
 -1     17645 9.15602E-05-3.36120E-06-1.59819E-06
 -1     17647 9.15602E-05-3.36120E-06 1.59819E-06
 -1     17648 8.08805E-05-4.05464E-06-1.41177E-06
 -1     17650 8.08805E-05-4.05464E-06 1.41177E-06
 -1     17651 7.34930E-05-3.83844E-06-1.28283E-06
 -1     17653 7.34930E-05-3.83844E-06 1.28283E-06
 -1     17654 7.37061E-05-4.00628E-06-1.28655E-06
 -1     17656 7.37061E-05-4.00628E-06 1.28655E-06
 -1     17657 7.29514E-05-3.84040E-06-1.27337E-06
 -1     17659 7.29514E-05-3.84040E-06 1.27337E-06
 -1     17660 9.73123E-05-4.51494E-06-1.69859E-06
 -1     17662 9.73123E-05-4.51494E-06 1.69859E-06
 -1     17663 9.61681E-05-4.59838E-06-1.67862E-06
 -1     17665 9.61681E-05-4.59838E-06 1.67862E-06
 -1     17666 9.71404E-05-4.34249E-06-1.69559E-06
 -1     17668 9.71404E-05-4.34249E-06 1.69559E-06
 -1     17669 7.16660E-05-4.91501E-06-1.25093E-06
 -1     17671 7.16660E-05-4.91501E-06 1.25093E-06
 -1     17672 7.10313E-05-4.92458E-06-1.23986E-06
 -1     17674 7.10313E-05-4.92458E-06 1.23986E-06
 -1     17675 7.08663E-05-4.73824E-06-1.23698E-06
 -1     17677 7.08663E-05-4.73824E-06 1.23698E-06
 -1     17678 7.09235E-05-3.90227E-06-1.23797E-06
 -1     17680 7.09235E-05-3.90227E-06 1.23797E-06
 -1     17681 9.87827E-05-4.06324E-06-1.72426E-06
 -1     17683 9.87827E-05-4.06324E-06 1.72426E-06
 -1     17684 9.69618E-05-3.96900E-06-1.69247E-06
 -1     17686 9.69618E-05-3.96900E-06 1.69247E-06
 -1     17687 7.71206E-05-4.24135E-06-1.34615E-06
 -1     17689 7.71206E-05-4.24135E-06 1.34615E-06
 -1     17690 7.78764E-05-4.24734E-06-1.35934E-06
 -1     17692 7.78764E-05-4.24734E-06 1.35934E-06
 -1     17693 7.87266E-05-4.26577E-06-1.37418E-06
 -1     17695 7.87266E-05-4.26577E-06 1.37418E-06
 -1     17696 7.95509E-05-4.25736E-06-1.38857E-06
 -1     17698 7.95509E-05-4.25736E-06 1.38857E-06
 -1     17699 7.82500E-05-4.43097E-06-1.36586E-06
 -1     17701 7.82500E-05-4.43097E-06 1.36586E-06
 -1     17702 7.12136E-05-3.72037E-06-1.24304E-06
 -1     17704 7.12136E-05-3.72037E-06 1.24304E-06
 -1     17705 7.14577E-05-3.56377E-06-1.24730E-06
 -1     17707 7.14577E-05-3.56377E-06 1.24730E-06
 -1     17708 7.06693E-05-4.59071E-06-1.23354E-06
 -1     17710 7.06693E-05-4.59071E-06 1.23354E-06
 -1     17711 7.05826E-05-4.40655E-06-1.23202E-06
 -1     17713 7.05826E-05-4.40655E-06 1.23202E-06
 -1     17714 7.19367E-05-3.56508E-06-1.25566E-06
 -1     17716 7.19367E-05-3.56508E-06 1.25566E-06
 -1     17717 7.44002E-05-4.20865E-06-1.29866E-06
 -1     17719 7.44002E-05-4.20865E-06 1.29866E-06
 -1     17720 7.50097E-05-4.21940E-06-1.30930E-06
 -1     17722 7.50097E-05-4.21940E-06 1.30930E-06
 -1     17723 7.19557E-05-4.74517E-06-1.25599E-06
 -1     17725 7.19557E-05-4.74517E-06 1.25599E-06
 -1     17726 9.01148E-05-4.00786E-06-1.57296E-06
 -1     17728 9.01148E-05-4.00786E-06 1.57296E-06
 -1     17729 9.04589E-05-3.82357E-06-1.57897E-06
 -1     17731 9.04589E-05-3.82357E-06 1.57897E-06
 -1     17732 9.09074E-05-3.48887E-06-1.58679E-06
 -1     17734 9.09074E-05-3.48887E-06 1.58679E-06
 -1     17735 9.21880E-05-3.48946E-06-1.60915E-06
 -1     17737 9.21880E-05-3.48946E-06 1.60915E-06
 -1     17738 9.26479E-05-3.65428E-06-1.61718E-06
 -1     17740 9.26479E-05-3.65428E-06 1.61718E-06
 -1     17741 9.04266E-05-3.65673E-06-1.57840E-06
 -1     17743 9.04266E-05-3.65673E-06 1.57840E-06
 -1     17744 7.57010E-05-4.22699E-06-1.32137E-06
 -1     17746 7.57010E-05-4.22699E-06 1.32137E-06
 -1     17747 7.63881E-05-4.23295E-06-1.33336E-06
 -1     17749 7.63881E-05-4.23295E-06 1.33336E-06
 -1     17750 7.52594E-05-4.38812E-06-1.31366E-06
 -1     17752 7.52594E-05-4.38812E-06 1.31366E-06
 -1     17753 8.42788E-05-4.21902E-06-1.47109E-06
 -1     17755 8.42788E-05-4.21902E-06 1.47109E-06
 -1     17756 8.54036E-05-4.23023E-06-1.49073E-06
 -1     17758 8.54036E-05-4.23023E-06 1.49073E-06
 -1     17759 9.26827E-05-3.82114E-06-1.61778E-06
 -1     17761 9.26827E-05-3.82114E-06 1.61778E-06
 -1     17762 9.33083E-05-4.00191E-06-1.62870E-06
 -1     17764 9.33083E-05-4.00191E-06 1.62870E-06
 -1     17765 7.11881E-05-4.61648E-06-1.24259E-06
 -1     17767 7.11881E-05-4.61648E-06 1.24259E-06
 -1     17768 7.10391E-05-4.28212E-06-1.23999E-06
 -1     17770 7.10391E-05-4.28212E-06 1.23999E-06
 -1     17771 8.32690E-05-4.19964E-06-1.45347E-06
 -1     17773 8.32690E-05-4.19964E-06 1.45347E-06
 -1     17774 8.37391E-05-4.36864E-06-1.46167E-06
 -1     17776 8.37391E-05-4.36864E-06 1.46167E-06
 -1     17777 8.22739E-05-4.19660E-06-1.43610E-06
 -1     17779 8.22739E-05-4.19660E-06 1.43610E-06
 -1     17780 9.15547E-05-3.78389E-06-1.59809E-06
 -1     17782 9.15547E-05-3.78389E-06 1.59809E-06
 -1     17783 7.14472E-05-4.44131E-06-1.24712E-06
 -1     17785 7.14472E-05-4.44131E-06 1.24712E-06
 -1     17786 7.15023E-05-4.25449E-06-1.24808E-06
 -1     17788 7.15023E-05-4.25449E-06 1.24808E-06
 -1     17789 8.67220E-05-4.26205E-06-1.51374E-06
 -1     17791 8.67220E-05-4.26205E-06 1.51374E-06
 -1     17792 8.80531E-05-4.25826E-06-1.53697E-06
 -1     17794 8.80531E-05-4.25826E-06 1.53697E-06
 -1     17795 8.60542E-05-4.41990E-06-1.50208E-06
 -1     17797 8.60542E-05-4.41990E-06 1.50208E-06
 -1     17798 7.21818E-05-3.71826E-06-1.25994E-06
 -1     17800 7.21818E-05-3.71826E-06 1.25994E-06
 -1     17801 7.13867E-05-3.91337E-06-1.24606E-06
 -1     17803 7.13867E-05-3.91337E-06 1.24606E-06
 -1     17804 7.66759E-05-4.40412E-06-1.33838E-06
 -1     17806 7.66759E-05-4.40412E-06 1.33838E-06
 -1     17807 9.15517E-05-4.60829E-06-1.59804E-06
 -1     17809 9.15517E-05-4.60829E-06 1.59804E-06
 -1     17810 9.03799E-05-4.58362E-06-1.57759E-06
 -1     17812 9.03799E-05-4.58362E-06 1.57759E-06
 -1     17813 7.16563E-05-4.07515E-06-1.25077E-06
 -1     17815 7.16563E-05-4.07515E-06 1.25077E-06
 -1     17816 7.19638E-05-3.89324E-06-1.25613E-06
 -1     17818 7.19638E-05-3.89324E-06 1.25613E-06
 -1     17819 7.24683E-05-3.88002E-06-1.26494E-06
 -1     17821 7.24683E-05-3.88002E-06 1.26494E-06
 -1     17822 7.20847E-05-4.23435E-06-1.25824E-06
 -1     17824 7.20847E-05-4.23435E-06 1.25824E-06
 -1     17825 7.36995E-05-4.18938E-06-1.28643E-06
 -1     17827 7.36995E-05-4.18938E-06 1.28643E-06
 -1     17828 7.38773E-05-4.36123E-06-1.28953E-06
 -1     17830 7.38773E-05-4.36123E-06 1.28953E-06
 -1     17831 9.00797E-05-4.23450E-06-1.57235E-06
 -1     17833 9.00797E-05-4.23450E-06 1.57235E-06
 -1     17834 9.15511E-05-4.17733E-06-1.59803E-06
 -1     17836 9.15511E-05-4.17733E-06 1.59803E-06
 -1     17837 8.83318E-05-4.60740E-06-1.54184E-06
 -1     17839 8.83318E-05-4.60740E-06 1.54184E-06
 -1     17840 8.73007E-05-4.63616E-06-1.52384E-06
 -1     17842 8.73007E-05-4.63616E-06 1.52384E-06
 -1     17843 8.63513E-05-4.59479E-06-1.50727E-06
 -1     17845 8.63513E-05-4.59479E-06 1.50727E-06
 -1     17846 8.50518E-05-4.56297E-06-1.48459E-06
 -1     17848 8.50518E-05-4.56297E-06 1.48459E-06
 -1     17849 8.40926E-05-4.53828E-06-1.46784E-06
 -1     17851 8.40926E-05-4.53828E-06 1.46784E-06
 -1     17852 7.97817E-05-4.58149E-06-1.39260E-06
 -1     17854 7.97817E-05-4.58149E-06 1.39260E-06
 -1     17855 7.91459E-05-4.63018E-06-1.38150E-06
 -1     17857 7.91459E-05-4.63018E-06 1.38150E-06
 -1     17858 7.84881E-05-4.60284E-06-1.37001E-06
 -1     17860 7.84881E-05-4.60284E-06 1.37001E-06
 -1     17861 7.76483E-05-4.58440E-06-1.35536E-06
 -1     17863 7.76483E-05-4.58440E-06 1.35536E-06
 -1     17864 7.69472E-05-4.57312E-06-1.34312E-06
 -1     17866 7.69472E-05-4.57312E-06 1.34312E-06
 -1     17867 7.62217E-05-4.56472E-06-1.33046E-06
 -1     17869 7.62217E-05-4.56472E-06 1.33046E-06
 -1     17870 7.55371E-05-4.55854E-06-1.31850E-06
 -1     17872 7.55371E-05-4.55854E-06 1.31850E-06
 -1     17873 7.48526E-05-4.55095E-06-1.30656E-06
 -1     17875 7.48526E-05-4.55095E-06 1.30656E-06
 -1     17876 7.41843E-05-4.54536E-06-1.29489E-06
 -1     17878 7.41843E-05-4.54536E-06 1.29489E-06
 -1     17879 7.34933E-05-4.52609E-06-1.28283E-06
 -1     17881 7.34933E-05-4.52609E-06 1.28283E-06
 -1     17882 7.28675E-05-4.53413E-06-1.27191E-06
 -1     17884 7.28675E-05-4.53413E-06 1.27191E-06
 -1     17885 9.68506E-05-4.14710E-06-1.69053E-06
 -1     17887 9.68506E-05-4.14710E-06 1.69053E-06
 -1     17888 9.32687E-05-4.22845E-06-1.62801E-06
 -1     17890 9.32687E-05-4.22845E-06 1.62801E-06
 -1     17891 8.04451E-05-4.21426E-06-1.40417E-06
 -1     17893 8.04451E-05-4.21426E-06 1.40417E-06
 -1     17894 8.13512E-05-4.20357E-06-1.41999E-06
 -1     17896 8.13512E-05-4.20357E-06 1.41999E-06
 -1     17897 8.18095E-05-4.35622E-06-1.42799E-06
 -1     17899 8.18095E-05-4.35622E-06 1.42799E-06
 -1     17900 7.99920E-05-4.40631E-06-1.39627E-06
 -1     17902 7.99920E-05-4.40631E-06 1.39627E-06
 -1     17903 8.93847E-05-4.42786E-06-1.56022E-06
 -1     17905 8.93847E-05-4.42786E-06 1.56022E-06
 -1     17906 9.48281E-05-4.59658E-06-1.65523E-06
 -1     17908 9.48281E-05-4.59658E-06 1.65523E-06
 -1     17909 7.22306E-05-4.57000E-06-1.26079E-06
 -1     17911 7.22306E-05-4.57000E-06 1.26079E-06
 -1     17912 7.16569E-05-4.58887E-06-1.25078E-06
 -1     17914 7.16569E-05-4.58887E-06 1.25078E-06
 -1     17915 8.30906E-05-4.51888E-06-1.45035E-06
 -1     17917 8.30906E-05-4.51888E-06 1.45035E-06
 -1     17918 9.54056E-05-4.24824E-06-1.66531E-06
 -1     17920 9.54056E-05-4.24824E-06 1.66531E-06
 -1     17921 7.25482E-05-4.37782E-06-1.26633E-06
 -1     17923 7.25482E-05-4.37782E-06 1.26633E-06
 -1     17924 9.35272E-05-4.42372E-06-1.63252E-06
 -1     17926 9.35272E-05-4.42372E-06 1.63252E-06
 -1     17927 8.23034E-05-4.48473E-06-1.43661E-06
 -1     17929 8.23034E-05-4.48473E-06 1.43661E-06
 -1     17930 9.27293E-05-4.57687E-06-1.61860E-06
 -1     17932 9.27293E-05-4.57687E-06 1.61860E-06
 -3
    1PSTEP                         2           1           1          
  100CL  101 1.000000000       10119                     0    1           1
 -4  STRESS      6    1
 -5  SXX         1    4    1    1
 -5  SYY         1    4    2    2
 -5  SZZ         1    4    3    3
 -5  SXY         1    4    1    2
 -5  SYZ         1    4    2    3
 -5  SZX         1    4    3    1
 -1      4484-9.97923E-01-2.91445E-04 1.13079E+00-2.97659E-04 5.19609E-06 3.71630E-02
 -1      4485-9.97923E-01-2.91445E-04 1.13079E+00-2.97659E-04-5.12425E-16 6.76692E-15
 -1      4486-9.97923E-01-2.91445E-04 1.13079E+00-2.97659E-04-5.19609E-06-3.71630E-02
 -1      4487-9.96131E-01-1.59727E-04 1.12964E+00-3.60975E-05 6.28345E-07 3.71153E-02
 -1      4488-9.96131E-01-1.59727E-04 1.12964E+00-3.60975E-05-3.45429E-18-8.33242E-17
 -1      4489-9.96131E-01-1.59727E-04 1.12964E+00-3.60975E-05-6.28345E-07-3.71153E-02
 -1      4490 2.33890E-05-5.77854E-07 1.33306E-01-1.59218E-06 2.77935E-08 2.32649E-03
 -1      4491 2.33890E-05-5.77854E-07 1.33306E-01-1.59218E-06 1.69203E-18 1.60541E-16
 -1      4492 2.33890E-05-5.77854E-07 1.33306E-01-1.59218E-06-2.77935E-08-2.32649E-03
 -1      4493 2.65270E-05 9.17399E-08 1.33306E-01-1.15928E-07 2.19837E-09 2.32643E-03
 -1      4494 2.65270E-05 9.17399E-08 1.33306E-01-1.15928E-07-7.38515E-17-1.83476E-16
 -1      4495 2.65270E-05 9.17399E-08 1.33306E-01-1.15928E-07-2.19837E-09-2.32643E-03
 -1      4496-9.96744E-01-5.31394E-05 1.13052E+00 9.87321E-05-1.72073E-06 3.71390E-02
 -1      4497-9.96744E-01-5.31394E-05 1.13052E+00 9.87321E-05 1.75626E-16-4.02027E-16
 -1      4498-9.96744E-01-5.31394E-05 1.13052E+00 9.87321E-05 1.72073E-06-3.71390E-02
 -1      4499-9.97378E-01-3.34181E-05 1.13081E+00 5.08946E-05-8.89093E-07 3.71542E-02
 -1      4500-9.97378E-01-3.34181E-05 1.13081E+00 5.08946E-05-8.73448E-17 1.50611E-15
 -1      4501-9.97378E-01-3.34181E-05 1.13081E+00 5.08946E-05 8.89093E-07-3.71542E-02
 -1      4502-9.97152E-01-2.32541E-05 1.13067E+00 2.08213E-05-3.63648E-07 3.71482E-02
 -1      4503-9.97152E-01-2.32541E-05 1.13067E+00 2.08213E-05 2.27123E-16 7.54991E-15
 -1      4504-9.97152E-01-2.32541E-05 1.13067E+00 2.08213E-05 3.63648E-07-3.71482E-02
 -1      4505-9.97108E-01-2.82291E-05 1.13063E+00 1.02492E-05-1.78906E-07 3.71468E-02
 -1      4506-9.97108E-01-2.82291E-05 1.13063E+00 1.02492E-05 8.83955E-17-3.19380E-15
 -1      4507-9.97108E-01-2.82291E-05 1.13063E+00 1.02492E-05 1.78906E-07-3.71468E-02
 -1      4508-9.97122E-01-2.79894E-05 1.13063E+00 5.24935E-06-9.15872E-08 3.71471E-02
 -1      4509-9.97122E-01-2.79894E-05 1.13063E+00 5.24935E-06-2.01360E-16 4.59626E-15
 -1      4510-9.97122E-01-2.79894E-05 1.13063E+00 5.24935E-06 9.15872E-08-3.71471E-02
 -1      4511-9.97151E-01-3.07993E-05 1.13065E+00 1.41945E-06-2.46849E-08 3.71479E-02
 -1      4512-9.97151E-01-3.07993E-05 1.13065E+00 1.41945E-06 6.51103E-17-6.15672E-15
 -1      4513-9.97151E-01-3.07993E-05 1.13065E+00 1.41945E-06 2.46849E-08-3.71479E-02
 -1      4514-9.97192E-01-3.22760E-05 1.13068E+00-4.93502E-07 8.73564E-09 3.71491E-02
 -1      4515-9.97192E-01-3.22760E-05 1.13068E+00-4.93502E-07-8.52336E-17-1.00222E-16
 -1      4516-9.97192E-01-3.22760E-05 1.13068E+00-4.93502E-07-8.73564E-09-3.71491E-02
 -1      4517-9.97234E-01-3.36333E-05 1.13072E+00-1.24791E-06 2.18871E-08 3.71504E-02
 -1      4518-9.97234E-01-3.36333E-05 1.13072E+00-1.24791E-06-2.51111E-17-8.42921E-15
 -1      4519-9.97234E-01-3.36333E-05 1.13072E+00-1.24791E-06-2.18871E-08-3.71504E-02
 -1      4520-9.97266E-01-3.39950E-05 1.13075E+00-1.19372E-06 2.09084E-08 3.71514E-02
 -1      4521-9.97266E-01-3.39950E-05 1.13075E+00-1.19372E-06 3.86542E-17-2.56816E-15
 -1      4522-9.97266E-01-3.39950E-05 1.13075E+00-1.19372E-06-2.09084E-08-3.71514E-02
 -1      4523-9.97287E-01-3.41355E-05 1.13077E+00-9.16799E-07 1.60405E-08 3.71520E-02
 -1      4524-9.97287E-01-3.41355E-05 1.13077E+00-9.16799E-07 2.83056E-16-5.94625E-15
 -1      4525-9.97287E-01-3.41355E-05 1.13077E+00-9.16799E-07-1.60405E-08-3.71520E-02
 -1      4526-9.97296E-01-3.42793E-05 1.13078E+00-4.99911E-07 8.73840E-09 3.71523E-02
 -1      4527-9.97296E-01-3.42793E-05 1.13078E+00-4.99911E-07-7.71320E-17 8.20793E-15
 -1      4528-9.97296E-01-3.42793E-05 1.13078E+00-4.99911E-07-8.73840E-09-3.71523E-02
 -1      4529-9.97298E-01-3.44300E-05 1.13078E+00-2.03515E-07 3.55057E-09 3.71523E-02
 -1      4530-9.97298E-01-3.44300E-05 1.13078E+00-2.03515E-07-1.96431E-16-5.60856E-15
 -1      4531-9.97298E-01-3.44300E-05 1.13078E+00-2.03515E-07-3.55057E-09-3.71523E-02
 -1      4532-9.97297E-01-3.45008E-05 1.13078E+00-8.27231E-08 1.44006E-09 3.71523E-02
 -1      4533-9.97297E-01-3.45008E-05 1.13078E+00-8.27231E-08-9.05240E-18-3.47716E-15
 -1      4534-9.97297E-01-3.45008E-05 1.13078E+00-8.27231E-08-1.44006E-09-3.71523E-02
 -1      4535-9.97296E-01-3.46670E-05 1.13078E+00 5.82853E-08-1.02216E-09 3.71523E-02
 -1      4536-9.97296E-01-3.46670E-05 1.13078E+00 5.82853E-08 1.36762E-16-6.03068E-15
 -1      4537-9.97296E-01-3.46670E-05 1.13078E+00 5.82853E-08 1.02216E-09-3.71523E-02
 -1      4538-9.97296E-01-3.48962E-05 1.13078E+00 1.85626E-07-3.23875E-09 3.71522E-02
 -1      4539-9.97296E-01-3.48962E-05 1.13078E+00 1.85626E-07-5.56687E-18-4.19881E-15
 -1      4540-9.97296E-01-3.48962E-05 1.13078E+00 1.85626E-07 3.23875E-09-3.71522E-02
 -1      4541-9.97299E-01-3.51342E-05 1.13078E+00 2.61519E-07-4.55090E-09 3.71523E-02
 -1      4542-9.97299E-01-3.51342E-05 1.13078E+00 2.61519E-07-1.06950E-16-4.03921E-15
 -1      4543-9.97299E-01-3.51342E-05 1.13078E+00 2.61519E-07 4.55090E-09-3.71523E-02
 -1      4544-9.97306E-01-3.52511E-05 1.13078E+00 7.14890E-07-1.24589E-08 3.71525E-02
 -1      4545-9.97306E-01-3.52511E-05 1.13078E+00 7.14890E-07 1.14546E-16 1.83456E-15
 -1      4546-9.97306E-01-3.52511E-05 1.13078E+00 7.14890E-07 1.24589E-08-3.71525E-02
 -1      4547-9.97310E-01-3.64207E-05 1.13079E+00 1.74553E-06-3.04690E-08 3.71526E-02
 -1      4548-9.97310E-01-3.64207E-05 1.13079E+00 1.74553E-06-7.99024E-17-1.74475E-15
 -1      4549-9.97310E-01-3.64207E-05 1.13079E+00 1.74553E-06 3.04690E-08-3.71526E-02
 -1      4550-9.97299E-01-3.79172E-05 1.13077E+00 3.73673E-06-6.52913E-08 3.71523E-02
 -1      4551-9.97299E-01-3.79172E-05 1.13077E+00 3.73673E-06-3.10714E-17-4.96907E-16
 -1      4552-9.97299E-01-3.79172E-05 1.13077E+00 3.73673E-06 6.52913E-08-3.71523E-02
 -1      4553-9.97271E-01-3.91627E-05 1.13074E+00 6.48742E-06-1.13364E-07 3.71513E-02
 -1      4554-9.97271E-01-3.91627E-05 1.13074E+00 6.48742E-06-2.03469E-17-3.85648E-15
 -1      4555-9.97271E-01-3.91627E-05 1.13074E+00 6.48742E-06 1.13364E-07-3.71513E-02
 -1      4556-9.97228E-01-4.02533E-05 1.13069E+00 8.92768E-06-1.55971E-07 3.71498E-02
 -1      4557-9.97228E-01-4.02533E-05 1.13069E+00 8.92768E-06-7.97158E-18 4.22505E-16
 -1      4558-9.97228E-01-4.02533E-05 1.13069E+00 8.92768E-06 1.55971E-07-3.71498E-02
 -1      4559-9.97169E-01-4.69498E-05 1.13063E+00 1.52354E-05-2.66158E-07 3.71479E-02
 -1      4560-9.97169E-01-4.69498E-05 1.13063E+00 1.52354E-05-8.55833E-18 7.44699E-15
 -1      4561-9.97169E-01-4.69498E-05 1.13063E+00 1.52354E-05 2.66158E-07-3.71479E-02
 -1      4562-9.97106E-01-4.19012E-05 1.13054E+00 3.43020E-05-5.99014E-07 3.71455E-02
 -1      4563-9.97106E-01-4.19012E-05 1.13054E+00 3.43020E-05 1.29764E-17-5.72418E-15
 -1      4564-9.97106E-01-4.19012E-05 1.13054E+00 3.43020E-05 5.99014E-07-3.71455E-02
 -1      4565-9.97041E-01-3.38520E-05 1.13032E+00 1.32973E-05-2.33066E-07 3.71411E-02
 -1      4566-9.97041E-01-3.38520E-05 1.13032E+00 1.32973E-05-1.33077E-17 3.10442E-15
 -1      4567-9.97041E-01-3.38520E-05 1.13032E+00 1.32973E-05 2.33066E-07-3.71411E-02
 -1      4568-8.44198E-01 3.65528E-04 9.77678E-01 6.73153E-05-1.17515E-06 3.18058E-02
 -1      4569-8.44198E-01 3.65528E-04 9.77678E-01 6.73153E-05 4.96288E-17-1.10021E-14
 -1      4570-8.44198E-01 3.65528E-04 9.77678E-01 6.73153E-05 1.17515E-06-3.18058E-02
 -1      4571-7.25353E-01-8.27232E-05 8.58671E-01-2.07015E-05 3.58524E-07 2.76546E-02
 -1      4572-7.25353E-01-8.27232E-05 8.58671E-01-2.07015E-05 4.08808E-18-1.74411E-15
 -1      4573-7.25353E-01-8.27232E-05 8.58671E-01-2.07015E-05-3.58524E-07-2.76546E-02
 -1      4574-6.29206E-01 1.91854E-05 7.62596E-01 3.65445E-06-6.82249E-08 2.42969E-02
 -1      4575-6.29206E-01 1.91854E-05 7.62596E-01 3.65445E-06-2.71059E-17-2.39876E-15
 -1      4576-6.29206E-01 1.91854E-05 7.62596E-01 3.65445E-06 6.82249E-08-2.42969E-02
 -1      4577-5.46372E-01-3.14416E-06 6.79716E-01 1.88429E-05-3.32001E-07 2.14039E-02
 -1      4578-5.46372E-01-3.14416E-06 6.79716E-01 1.88429E-05 2.15858E-17 1.12189E-15
 -1      4579-5.46372E-01-3.14416E-06 6.79716E-01 1.88429E-05 3.32001E-07-2.14039E-02
 -1      4580-4.79891E-01 6.15159E-07 6.13222E-01 9.11693E-06-1.61451E-07 1.90822E-02
 -1      4581-4.79891E-01 6.15159E-07 6.13222E-01 9.11693E-06-1.88482E-17-6.05710E-17
 -1      4582-4.79891E-01 6.15159E-07 6.13222E-01 9.11693E-06 1.61451E-07-1.90822E-02
 -1      4583-4.23620E-01 5.40333E-07 5.56953E-01 3.37121E-06-6.08574E-08 1.71175E-02
 -1      4584-4.23620E-01 5.40333E-07 5.56953E-01 3.37121E-06 1.54665E-17 2.43536E-16
 -1      4585-4.23620E-01 5.40333E-07 5.56953E-01 3.37121E-06 6.08574E-08-1.71175E-02
 -1      4586-3.73916E-01-2.38751E-07 5.07249E-01 6.27715E-06-1.11293E-07 1.53821E-02
 -1      4587-3.73916E-01-2.38751E-07 5.07249E-01 6.27715E-06-1.75899E-17 7.71774E-16
 -1      4588-3.73916E-01-2.38751E-07 5.07249E-01 6.27715E-06 1.11293E-07-1.53821E-02
 -1      4589-3.32884E-01-1.21501E-07 4.66214E-01 2.78188E-06-4.99430E-08 1.39493E-02
 -1      4590-3.32884E-01-1.21501E-07 4.66214E-01 2.78188E-06 9.49224E-18-1.62264E-16
 -1      4591-3.32884E-01-1.21501E-07 4.66214E-01 2.78188E-06 4.99430E-08-1.39493E-02
 -1      4592-2.97305E-01-3.38905E-08 4.30638E-01 9.99929E-07-1.87505E-08 1.27071E-02
 -1      4593-2.97305E-01-3.38905E-08 4.30638E-01 9.99929E-07 3.36725E-18 1.28654E-15
 -1      4594-2.97305E-01-3.38905E-08 4.30638E-01 9.99929E-07 1.87505E-08-1.27071E-02
 -1      4595-2.65167E-01 6.00196E-08 3.98500E-01 3.32140E-06-5.91258E-08 1.15851E-02
 -1      4596-2.65167E-01 6.00196E-08 3.98500E-01 3.32140E-06-4.91362E-19 2.33161E-16
 -1      4597-2.65167E-01 6.00196E-08 3.98500E-01 3.32140E-06 5.91258E-08-1.15851E-02
 -1      4598-2.38089E-01 1.78402E-07 3.71420E-01 1.55882E-06-2.81487E-08 1.06396E-02
 -1      4599-2.38089E-01 1.78402E-07 3.71420E-01 1.55882E-06 5.33425E-18 2.19493E-17
 -1      4600-2.38089E-01 1.78402E-07 3.71420E-01 1.55882E-06 2.81487E-08-1.06396E-02
 -1      4601-2.14181E-01 9.65648E-08 3.47514E-01 4.92670E-07-9.48608E-09 9.80491E-03
 -1      4602-2.14181E-01 9.65648E-08 3.47514E-01 4.92670E-07 2.37076E-17-2.83135E-15
 -1      4603-2.14181E-01 9.65648E-08 3.47514E-01 4.92670E-07 9.48608E-09-9.80491E-03
 -1      4604-1.92217E-01 3.95172E-08 3.25549E-01 1.89572E-06-3.38829E-08 9.03807E-03
 -1      4605-1.92217E-01 3.95172E-08 3.25549E-01 1.89572E-06-5.64640E-18 6.50043E-16
 -1      4606-1.92217E-01 3.95172E-08 3.25549E-01 1.89572E-06 3.38829E-08-9.03807E-03
 -1      4607-1.73419E-01 6.68710E-08 3.06751E-01 8.58310E-07-1.56374E-08 8.38174E-03
 -1      4608-1.73419E-01 6.68710E-08 3.06751E-01 8.58310E-07-1.00642E-17-3.17365E-16
 -1      4609-1.73419E-01 6.68710E-08 3.06751E-01 8.58310E-07 1.56374E-08-8.38174E-03
 -1      4610-1.56589E-01 1.83796E-08 2.89921E-01 2.15074E-07-4.38131E-09 7.79417E-03
 -1      4611-1.56589E-01 1.83796E-08 2.89921E-01 2.15074E-07-2.77230E-18-1.58541E-15
 -1      4612-1.56589E-01 1.83796E-08 2.89921E-01 2.15074E-07 4.38131E-09-7.79417E-03
 -1      4613-1.40920E-01 6.27504E-09 2.74252E-01 1.14157E-06-2.04948E-08 7.24712E-03
 -1      4614-1.40920E-01 6.27504E-09 2.74252E-01 1.14157E-06-1.12317E-17 3.95972E-16
 -1      4615-1.40920E-01 6.27504E-09 2.74252E-01 1.14157E-06 2.04948E-08-7.24712E-03
 -1      4616-1.27343E-01 1.99302E-08 2.60675E-01 4.93398E-07-9.08967E-09 6.77311E-03
 -1      4617-1.27343E-01 1.99302E-08 2.60675E-01 4.93398E-07-1.30300E-17 2.73747E-16
 -1      4618-1.27343E-01 1.99302E-08 2.60675E-01 4.93398E-07 9.08967E-09-6.77311E-03
 -1      4619-1.15053E-01 1.26985E-08 2.48385E-01 4.38182E-07-8.08093E-09 6.34403E-03
 -1      4620-1.15053E-01 1.26985E-08 2.48385E-01 4.38182E-07-5.07509E-18 1.49918E-16
 -1      4621-1.15053E-01 1.26985E-08 2.48385E-01 4.38182E-07 8.08093E-09-6.34403E-03
 -1      4622-1.03893E-01 1.03858E-08 2.37225E-01 6.66089E-08-1.58153E-09 5.95441E-03
 -1      4623-1.03893E-01 1.03858E-08 2.37225E-01 6.66089E-08-3.05300E-18-6.83840E-16
 -1      4624-1.03893E-01 1.03858E-08 2.37225E-01 6.66089E-08 1.58153E-09-5.95441E-03
 -1      4625-9.33589E-02 1.95357E-09 2.26691E-01 6.29048E-07-1.13637E-08 5.58665E-03
 -1      4626-9.33589E-02 1.95357E-09 2.26691E-01 6.29048E-07-5.00601E-18 1.44379E-15
 -1      4627-9.33589E-02 1.95357E-09 2.26691E-01 6.29048E-07 1.13637E-08-5.58665E-03
 -1      4628-8.41131E-02 1.85925E-08 2.17445E-01 2.68353E-07-5.00936E-09 5.26385E-03
 -1      4629-8.41131E-02 1.85925E-08 2.17445E-01 2.68353E-07 2.43435E-17 3.29348E-16
 -1      4630-8.41131E-02 1.85925E-08 2.17445E-01 2.68353E-07 5.00936E-09-5.26385E-03
 -1      4631-7.56428E-02 1.64950E-09 2.08975E-01 2.50759E-08-7.56026E-10 4.96815E-03
 -1      4632-7.56428E-02 1.64950E-09 2.08975E-01 2.50759E-08-4.08826E-18-6.45108E-16
 -1      4633-7.56428E-02 1.64950E-09 2.08975E-01 2.50759E-08 7.56026E-10-4.96815E-03
 -1      4634-6.75816E-02-3.78039E-09 2.00914E-01 4.25248E-07-7.71641E-09 4.68671E-03
 -1      4635-6.75816E-02-3.78039E-09 2.00914E-01 4.25248E-07 1.20055E-18-3.03970E-16
 -1      4636-6.75816E-02-3.78039E-09 2.00914E-01 4.25248E-07 7.71641E-09-4.68671E-03
 -1      4637-6.04507E-02 7.99293E-09 1.93783E-01 1.79006E-07-3.37528E-09 4.43776E-03
 -1      4638-6.04507E-02 7.99293E-09 1.93783E-01 1.79006E-07 5.17584E-18 1.31162E-16
 -1      4639-6.04507E-02 7.99293E-09 1.93783E-01 1.79006E-07 3.37528E-09-4.43776E-03
 -1      4640-5.38710E-02-4.40031E-09 1.87203E-01 9.60371E-09-4.14161E-10 4.20805E-03
 -1      4641-5.38710E-02-4.40031E-09 1.87203E-01 9.60371E-09 6.18331E-18-5.14650E-16
 -1      4642-5.38710E-02-4.40031E-09 1.87203E-01 9.60372E-09 4.14161E-10-4.20805E-03
 -1      4643-4.75654E-02-8.15044E-09 1.80897E-01 3.00832E-07-5.47973E-09 3.98791E-03
 -1      4644-4.75654E-02-8.15044E-09 1.80897E-01 3.00832E-07 1.15887E-17 1.57460E-16
 -1      4645-4.75654E-02-8.15044E-09 1.80897E-01 3.00832E-07 5.47973E-09-3.98791E-03
 -1      4646-4.19506E-02 3.27854E-09 1.75282E-01 1.27359E-07-2.41867E-09 3.79189E-03
 -1      4647-4.19506E-02 3.27854E-09 1.75282E-01 1.27359E-07-4.24013E-18-5.18266E-17
 -1      4648-4.19506E-02 3.27854E-09 1.75282E-01 1.27359E-07 2.41867E-09-3.79189E-03
 -1      4649-3.67382E-02-1.85099E-09 1.70070E-01-2.48058E-09-1.50880E-10 3.60992E-03
 -1      4650-3.67382E-02-1.85099E-09 1.70070E-01-2.48058E-09-1.42628E-17-1.50790E-16
 -1      4651-3.67382E-02-1.85099E-09 1.70070E-01-2.48058E-09 1.50880E-10-3.60992E-03
 -1      4652-3.17133E-02-3.97909E-09 1.65045E-01 2.08246E-07-3.81577E-09 3.43449E-03
 -1      4653-3.17133E-02-3.97909E-09 1.65045E-01 2.08246E-07-6.61661E-18-2.40525E-16
 -1      4654-3.17133E-02-3.97909E-09 1.65045E-01 2.08246E-07 3.81577E-09-3.43449E-03
 -1      4655-2.72136E-02 1.03839E-08 1.60546E-01 6.83807E-08-1.35177E-09 3.27740E-03
 -1      4656-2.72136E-02 1.03839E-08 1.60546E-01 6.83807E-08-2.15247E-17-2.90136E-16
 -1      4657-2.72136E-02 1.03839E-08 1.60546E-01 6.83807E-08 1.35177E-09-3.27740E-03
 -1      4658-2.30145E-02 2.02371E-08 1.56347E-01-4.65505E-08 6.50879E-10 3.13081E-03
 -1      4659-2.30145E-02 2.02371E-08 1.56347E-01-4.65505E-08 1.58929E-17-5.81489E-16
 -1      4660-2.30145E-02 2.02371E-08 1.56347E-01-4.65505E-08-6.50879E-10-3.13081E-03
 -1      4661-1.89456E-02 3.24283E-08 1.52278E-01 1.08346E-07-2.04830E-09 2.98876E-03
 -1      4662-1.89456E-02 3.24283E-08 1.52278E-01 1.08346E-07-8.39431E-18 5.45350E-16
 -1      4663-1.89456E-02 3.24283E-08 1.52278E-01 1.08346E-07 2.04830E-09-2.98876E-03
 -1      4664-1.52842E-02-7.58972E-09 1.48616E-01 4.77850E-08-9.71384E-10 2.86093E-03
 -1      4665-1.52842E-02-7.58972E-09 1.48616E-01 4.77850E-08 1.32317E-18 4.76699E-16
 -1      4666-1.52842E-02-7.58972E-09 1.48616E-01 4.77850E-08 9.71384E-10-2.86093E-03
 -1      4667-1.18518E-02-3.18517E-08 1.45184E-01 5.93677E-08-1.16787E-09 2.74110E-03
 -1      4668-1.18518E-02-3.18517E-08 1.45184E-01 5.93677E-08 3.84839E-18-3.30341E-17
 -1      4669-1.18518E-02-3.18517E-08 1.45184E-01 5.93677E-08 1.16787E-09-2.74110E-03
 -1      4670-8.51090E-03-3.71678E-08 1.41843E-01 1.82104E-07-3.29034E-09 2.62447E-03
 -1      4671-8.51090E-03-3.71678E-08 1.41843E-01 1.82104E-07 1.31559E-17-3.77569E-17
 -1      4672-8.51090E-03-3.71678E-08 1.41843E-01 1.82104E-07 3.29034E-09-2.62447E-03
 -1      4673-5.49169E-03 7.28288E-08 1.38823E-01 5.85673E-08-1.10806E-09 2.51906E-03
 -1      4674-5.49169E-03 7.28288E-08 1.38823E-01 5.85673E-08 1.01327E-17-6.27844E-16
 -1      4675-5.49169E-03 7.28288E-08 1.38823E-01 5.85673E-08 1.10806E-09-2.51906E-03
 -1      4676-2.64900E-03-7.41825E-08 1.35978E-01 6.14021E-07-1.06616E-08 2.41978E-03
 -1      4677-2.64900E-03-7.41825E-08 1.35978E-01 6.14021E-07 7.52802E-18-1.17703E-16
 -1      4678-2.64900E-03-7.41825E-08 1.35978E-01 6.14021E-07 1.06616E-08-2.41978E-03
 -1      4679 3.84488E-05 6.27207E-07 1.33298E-01 5.01458E-07-8.80473E-09 2.32610E-03
 -1      4680 3.84488E-05 6.27207E-07 1.33298E-01 5.01458E-07-8.99871E-18-7.00206E-16
 -1      4681 3.84488E-05 6.27207E-07 1.33298E-01 5.01458E-07 8.80473E-09-2.32610E-03
 -1      4682 2.65375E-05-3.45480E-07 1.33305E-01 3.44749E-07-5.99591E-09 2.32641E-03
 -1      4683 2.65375E-05-3.45480E-07 1.33305E-01 3.44749E-07-5.61423E-18 1.26353E-16
 -1      4684 2.65375E-05-3.45480E-07 1.33305E-01 3.44749E-07 5.99591E-09-2.32641E-03
 -1      4685 2.79645E-05-2.36772E-07 1.33305E-01-1.62437E-07 2.82680E-09 2.32639E-03
 -1      4686 2.79645E-05-2.36772E-07 1.33305E-01-1.62437E-07 1.74814E-18-4.73364E-17
 -1      4687 2.79645E-05-2.36772E-07 1.33305E-01-1.62437E-07-2.82680E-09-2.32639E-03
 -1      4688 2.73314E-05-2.30562E-07 1.33305E-01-6.22169E-08 1.07927E-09 2.32640E-03
 -1      4689 2.73314E-05-2.30562E-07 1.33305E-01-6.22169E-08-2.74679E-18-2.49576E-16
 -1      4690 2.73314E-05-2.30562E-07 1.33305E-01-6.22169E-08-1.07927E-09-2.32640E-03
 -1      4691 2.69952E-05-2.06303E-07 1.33306E-01-3.92993E-08 6.84428E-10 2.32641E-03
 -1      4692 2.69952E-05-2.06303E-07 1.33306E-01-3.92993E-08-5.91339E-18-7.38913E-16
 -1      4693 2.69952E-05-2.06303E-07 1.33306E-01-3.92993E-08-6.84429E-10-2.32641E-03
 -1      4694 2.69723E-05-2.04645E-07 1.33306E-01-2.29245E-08 4.01400E-10 2.32642E-03
 -1      4695 2.69723E-05-2.04645E-07 1.33306E-01-2.29245E-08 1.78408E-17-2.48203E-16
 -1      4696 2.69723E-05-2.04645E-07 1.33306E-01-2.29245E-08-4.01400E-10-2.32642E-03
 -1      4697 2.70768E-05-2.04775E-07 1.33306E-01-1.36156E-08 2.39199E-10 2.32641E-03
 -1      4698 2.70768E-05-2.04775E-07 1.33306E-01-1.36156E-08-7.70548E-18 2.04623E-17
 -1      4699 2.70768E-05-2.04775E-07 1.33306E-01-1.36156E-08-2.39199E-10-2.32641E-03
 -1      4700 2.71887E-05-2.01564E-07 1.33306E-01-7.05520E-09 1.24117E-10 2.32641E-03
 -1      4701 2.71887E-05-2.01564E-07 1.33306E-01-7.05520E-09 1.11223E-17-3.05666E-16
 -1      4702 2.71887E-05-2.01564E-07 1.33306E-01-7.05520E-09-1.24117E-10-2.32641E-03
 -1      4703 2.72463E-05-1.96080E-07 1.33305E-01-3.45339E-09 6.05744E-11 2.32641E-03
 -1      4704 2.72463E-05-1.96080E-07 1.33305E-01-3.45339E-09-5.88272E-18 3.63287E-16
 -1      4705 2.72463E-05-1.96080E-07 1.33305E-01-3.45339E-09-6.05744E-11-2.32641E-03
 -1      4706 2.72657E-05-1.94653E-07 1.33305E-01-1.87696E-09 3.26798E-11 2.32641E-03
 -1      4707 2.72657E-05-1.94653E-07 1.33305E-01-1.87696E-09-1.96100E-17-1.43108E-16
 -1      4708 2.72657E-05-1.94653E-07 1.33305E-01-1.87696E-09-3.26799E-11-2.32641E-03
 -1      4709 2.72568E-05-1.95506E-07 1.33305E-01-6.93575E-10 1.17866E-11 2.32641E-03
 -1      4710 2.72568E-05-1.95506E-07 1.33305E-01-6.93574E-10-1.92897E-17 5.57648E-16
 -1      4711 2.72568E-05-1.95506E-07 1.33305E-01-6.93573E-10-1.17866E-11-2.32641E-03
 -1      4712 2.72392E-05-1.95750E-07 1.33306E-01-1.82284E-10 2.94746E-12 2.32641E-03
 -1      4713 2.72392E-05-1.95750E-07 1.33306E-01-1.82285E-10-4.96395E-17 2.32532E-16
 -1      4714 2.72392E-05-1.95750E-07 1.33306E-01-1.82285E-10-2.94756E-12-2.32641E-03
 -1      4715 2.72250E-05-1.94713E-07 1.33306E-01 5.67253E-10-1.00609E-11 2.32641E-03
 -1      4716 2.72250E-05-1.94713E-07 1.33306E-01 5.67252E-10-6.36739E-17-1.02568E-17
 -1      4717 2.72250E-05-1.94713E-07 1.33306E-01 5.67251E-10 1.00608E-11-2.32641E-03
 -1      4718 2.72163E-05-1.92750E-07 1.33306E-01 6.16984E-10-1.07882E-11 2.32641E-03
 -1      4719 2.72163E-05-1.92750E-07 1.33306E-01 6.16984E-10 2.68537E-17 2.49518E-16
 -1      4720 2.72163E-05-1.92750E-07 1.33306E-01 6.16984E-10 1.07882E-11-2.32641E-03
 -1      4721 2.72032E-05-1.89008E-07 1.33306E-01 6.17075E-10-1.10361E-11 2.32641E-03
 -1      4722 2.72032E-05-1.89008E-07 1.33306E-01 6.17075E-10-6.27637E-17-5.23961E-17
 -1      4723 2.72032E-05-1.89008E-07 1.33306E-01 6.17075E-10 1.10360E-11-2.32641E-03
 -1      4724 2.71686E-05-1.85504E-07 1.33306E-01-4.32611E-10 6.95543E-12 2.32641E-03
 -1      4725 2.71686E-05-1.85504E-07 1.33306E-01-4.32611E-10 4.74816E-17-8.70183E-17
 -1      4726 2.71686E-05-1.85504E-07 1.33306E-01-4.32610E-10-6.95533E-12-2.32641E-03
 -1      4727 2.71157E-05-1.84319E-07 1.33306E-01-1.32205E-09 2.21853E-11 2.32641E-03
 -1      4728 2.71157E-05-1.84319E-07 1.33306E-01-1.32206E-09-6.93161E-18-2.74224E-16
 -1      4729 2.71157E-05-1.84319E-07 1.33306E-01-1.32206E-09-2.21853E-11-2.32641E-03
 -1      4730 2.70609E-05-1.81591E-07 1.33306E-01-2.26100E-09 3.87009E-11 2.32641E-03
 -1      4731 2.70609E-05-1.81591E-07 1.33306E-01-2.26100E-09-7.24876E-17 2.03081E-18
 -1      4732 2.70609E-05-1.81591E-07 1.33306E-01-2.26100E-09-3.87011E-11-2.32641E-03
 -1      4733 2.70713E-05-1.81165E-07 1.33306E-01-3.26971E-09 5.76716E-11 2.32641E-03
 -1      4734 2.70713E-05-1.81165E-07 1.33306E-01-3.26971E-09 2.55175E-17 7.25916E-16
 -1      4735 2.70713E-05-1.81165E-07 1.33306E-01-3.26971E-09-5.76716E-11-2.32641E-03
 -1      4736 2.72604E-05-1.95010E-07 1.33306E-01-3.22179E-09 5.96185E-11 2.32641E-03
 -1      4737 2.72604E-05-1.95010E-07 1.33306E-01-3.22179E-09 5.65743E-18 4.02670E-17
 -1      4738 2.72604E-05-1.95010E-07 1.33306E-01-3.22179E-09-5.96185E-11-2.32641E-03
 -1      4739 2.76445E-05-2.22935E-07 1.33305E-01-4.37319E-09 8.18723E-11 2.32640E-03
 -1      4740 2.76445E-05-2.22935E-07 1.33305E-01-4.37319E-09-4.19724E-17 1.87429E-16
 -1      4741 2.76445E-05-2.22935E-07 1.33305E-01-4.37319E-09-8.18723E-11-2.32640E-03
 -1      4742 2.76612E-05-1.81193E-07 1.33305E-01-4.71457E-08 8.19129E-10 2.32640E-03
 -1      4743 2.76612E-05-1.81193E-07 1.33305E-01-4.71457E-08-1.95951E-17-1.41084E-16
 -1      4744 2.76612E-05-1.81193E-07 1.33305E-01-4.71457E-08-8.19129E-10-2.32640E-03
 -1      4745 2.63712E-05-1.88795E-07 1.33306E-01-7.90594E-08 1.35295E-09 2.32643E-03
 -1      4746 2.63712E-05-1.88795E-07 1.33306E-01-7.90594E-08 3.78546E-17-2.16255E-16
 -1      4747 2.63712E-05-1.88795E-07 1.33306E-01-7.90594E-08-1.35295E-09-2.32643E-03
 -1      4748 2.34329E-05-2.93592E-07 1.33308E-01-9.67650E-08 1.64118E-09 2.32652E-03
 -1      4749 2.34329E-05-2.93592E-07 1.33308E-01-9.67650E-08-1.08972E-16-2.16617E-16
 -1      4750 2.34329E-05-2.93592E-07 1.33308E-01-9.67650E-08-1.64118E-09-2.32652E-03
 -1      4751-8.43426E-01 2.06901E-04 9.76851E-01 2.07416E-05-3.57857E-07 3.17802E-02
 -1      4752-8.43426E-01 2.06901E-04 9.76851E-01 2.07416E-05 6.87977E-17-9.52493E-15
 -1      4753-8.43426E-01 2.06901E-04 9.76851E-01 2.07416E-05 3.57857E-07-3.17802E-02
 -1      4754-7.25969E-01 4.71101E-05 8.59304E-01 9.35884E-06-1.58489E-07 2.76746E-02
 -1      4755-7.25969E-01 4.71101E-05 8.59304E-01 9.35884E-06 9.31079E-17-2.15907E-15
 -1      4756-7.25969E-01 4.71101E-05 8.59304E-01 9.35884E-06 1.58489E-07-2.76746E-02
 -1      4757-6.29178E-01 3.88066E-05 7.62527E-01 1.57305E-06-2.41655E-08 2.42954E-02
 -1      4758-6.29178E-01 3.88066E-05 7.62527E-01 1.57305E-06-1.08970E-16 9.69497E-16
 -1      4759-6.29178E-01 3.88066E-05 7.62527E-01 1.57305E-06 2.41655E-08-2.42954E-02
 -1      4760-5.46362E-01 3.17826E-05 6.79695E-01 2.63723E-06-4.34663E-08 2.14034E-02
 -1      4761-5.46362E-01 3.17826E-05 6.79695E-01 2.63723E-06-1.34638E-16-2.36838E-15
 -1      4762-5.46362E-01 3.17826E-05 6.79695E-01 2.63723E-06 4.34663E-08-2.14034E-02
 -1      4763-4.79890E-01 2.16332E-05 6.13213E-01 4.26471E-06-7.23798E-08 1.90821E-02
 -1      4764-4.79890E-01 2.16332E-05 6.13213E-01 4.26471E-06-3.94756E-17-6.60206E-16
 -1      4765-4.79890E-01 2.16332E-05 6.13213E-01 4.26471E-06 7.23798E-08-1.90821E-02
 -1      4766-4.23624E-01 2.09887E-05 5.56952E-01 4.50040E-06-7.66584E-08 1.71176E-02
 -1      4767-4.23624E-01 2.09887E-05 5.56952E-01 4.50040E-06-1.37837E-16-2.52971E-15
 -1      4768-4.23624E-01 2.09887E-05 5.56952E-01 4.50040E-06 7.66584E-08-1.71176E-02
 -1      4769-3.73919E-01 1.77703E-05 5.07249E-01 4.05433E-07-5.40982E-09 1.53821E-02
 -1      4770-3.73919E-01 1.77703E-05 5.07249E-01 4.05433E-07 1.79502E-16 5.25733E-16
 -1      4771-3.73919E-01 1.77703E-05 5.07249E-01 4.05433E-07 5.40982E-09-1.53821E-02
 -1      4772-3.32886E-01 1.21229E-05 4.66214E-01 1.67009E-06-2.78201E-08 1.39494E-02
 -1      4773-3.32886E-01 1.21229E-05 4.66214E-01 1.67009E-06 1.30902E-16-3.36052E-15
 -1      4774-3.32886E-01 1.21229E-05 4.66214E-01 1.67009E-06 2.78201E-08-1.39494E-02
 -1      4775-2.97308E-01 1.19994E-05 4.30638E-01 2.05444E-06-3.46241E-08 1.27072E-02
 -1      4776-2.97308E-01 1.19994E-05 4.30638E-01 2.05444E-06-1.30923E-16-2.30029E-15
 -1      4777-2.97308E-01 1.19994E-05 4.30638E-01 2.05444E-06 3.46241E-08-1.27072E-02
 -1      4778-2.65168E-01 1.02910E-05 3.98500E-01-2.51737E-08 1.53964E-09 1.15851E-02
 -1      4779-2.65168E-01 1.02910E-05 3.98500E-01-2.51737E-08 2.31431E-18 5.85888E-16
 -1      4780-2.65168E-01 1.02910E-05 3.98500E-01-2.51737E-08-1.53964E-09-1.15851E-02
 -1      4781-2.38090E-01 7.18913E-06 3.71420E-01 8.02465E-07-1.31140E-08 1.06396E-02
 -1      4782-2.38090E-01 7.18913E-06 3.71420E-01 8.02465E-07-1.00588E-16 1.51584E-15
 -1      4783-2.38090E-01 7.18913E-06 3.71420E-01 8.02465E-07 1.31140E-08-1.06396E-02
 -1      4784-2.14183E-01 7.22782E-06 3.47514E-01 1.13683E-06-1.90026E-08 9.80495E-03
 -1      4785-2.14183E-01 7.22782E-06 3.47514E-01 1.13683E-06-1.76071E-16-2.64822E-16
 -1      4786-2.14183E-01 7.22782E-06 3.47514E-01 1.13683E-06 1.90026E-08-9.80495E-03
 -1      4787-1.92218E-01 6.29883E-06 3.25549E-01-5.63244E-08 1.74047E-09 9.03808E-03
 -1      4788-1.92218E-01 6.29883E-06 3.25549E-01-5.63244E-08-4.88235E-17 7.51525E-16
 -1      4789-1.92218E-01 6.29883E-06 3.25549E-01-5.63244E-08-1.74047E-09-9.03808E-03
 -1      4790-1.73420E-01 4.48879E-06 3.06750E-01 4.71799E-07-7.61199E-09 8.38176E-03
 -1      4791-1.73420E-01 4.48879E-06 3.06750E-01 4.71799E-07 1.50678E-17-1.14627E-15
 -1      4792-1.73420E-01 4.48879E-06 3.06750E-01 4.71799E-07 7.61199E-09-8.38176E-03
 -1      4793-1.56590E-01 4.58403E-06 2.89921E-01 7.15010E-07-1.18857E-08 7.79419E-03
 -1      4794-1.56590E-01 4.58403E-06 2.89921E-01 7.15010E-07-1.03255E-16 9.38756E-16
 -1      4795-1.56590E-01 4.58403E-06 2.89921E-01 7.15010E-07 1.18857E-08-7.79419E-03
 -1      4796-1.40920E-01 4.06278E-06 2.74252E-01-2.75909E-08 1.02390E-09 7.24713E-03
 -1      4797-1.40920E-01 4.06278E-06 2.74252E-01-2.75909E-08 2.13728E-16 6.96038E-18
 -1      4798-1.40920E-01 4.06278E-06 2.74252E-01-2.75909E-08-1.02390E-09-7.24713E-03
 -1      4799-1.27344E-01 2.98970E-06 2.60675E-01 3.50761E-07-5.66978E-09 6.77312E-03
 -1      4800-1.27344E-01 2.98970E-06 2.60675E-01 3.50761E-07-1.22426E-16 8.76852E-16
 -1      4801-1.27344E-01 2.98970E-06 2.60675E-01 3.50761E-07 5.66978E-09-6.77312E-03
 -1      4802-1.15054E-01 2.67974E-06 2.48385E-01 1.78807E-07-2.70982E-09 6.34405E-03
 -1      4803-1.15054E-01 2.67974E-06 2.48385E-01 1.78807E-07-1.56130E-17 2.12512E-16
 -1      4804-1.15054E-01 2.67974E-06 2.48385E-01 1.78807E-07 2.70982E-09-6.34405E-03
 -1      4805-1.03893E-01 2.69360E-06 2.37225E-01 3.95950E-07-6.51409E-09 5.95443E-03
 -1      4806-1.03893E-01 2.69360E-06 2.37225E-01 3.95950E-07 7.03442E-18-2.49437E-16
 -1      4807-1.03893E-01 2.69360E-06 2.37225E-01 3.95950E-07 6.51409E-09-5.95443E-03
 -1      4808-9.33592E-02 2.41795E-06 2.26691E-01-3.33604E-08 9.48228E-10 5.58666E-03
 -1      4809-9.33592E-02 2.41795E-06 2.26691E-01-3.33604E-08-7.52392E-17 1.17274E-15
 -1      4810-9.33592E-02 2.41795E-06 2.26691E-01-3.33604E-08-9.48228E-10-5.58666E-03
 -1      4811-8.41135E-02 1.78314E-06 2.17445E-01 1.69258E-07-2.64549E-09 5.26386E-03
 -1      4812-8.41135E-02 1.78314E-06 2.17445E-01 1.69258E-07 2.69606E-17 7.78641E-16
 -1      4813-8.41135E-02 1.78314E-06 2.17445E-01 1.69258E-07 2.64549E-09-5.26386E-03
 -1      4814-7.56433E-02 1.87371E-06 2.08975E-01 2.80613E-07-4.59611E-09 4.96816E-03
 -1      4815-7.56433E-02 1.87371E-06 2.08975E-01 2.80613E-07-4.46590E-17-4.49807E-16
 -1      4816-7.56433E-02 1.87371E-06 2.08975E-01 2.80613E-07 4.59611E-09-4.96816E-03
 -1      4817-6.75819E-02 1.70362E-06 2.00914E-01-2.18738E-08 6.62508E-10 4.68672E-03
 -1      4818-6.75819E-02 1.70362E-06 2.00914E-01-2.18738E-08 4.29370E-17 1.62381E-16
 -1      4819-6.75819E-02 1.70362E-06 2.00914E-01-2.18738E-08-6.62508E-10-4.68672E-03
 -1      4820-6.04510E-02 1.27215E-06 1.93783E-01 1.20441E-07-1.86318E-09 4.43776E-03
 -1      4821-6.04510E-02 1.27215E-06 1.93783E-01 1.20441E-07 2.04178E-17 4.61604E-17
 -1      4822-6.04510E-02 1.27215E-06 1.93783E-01 1.20441E-07 1.86318E-09-4.43776E-03
 -1      4823-5.38713E-02 1.34992E-06 1.87203E-01 2.03376E-07-3.31424E-09 4.20806E-03
 -1      4824-5.38713E-02 1.34992E-06 1.87203E-01 2.03376E-07-5.43475E-17-3.12411E-16
 -1      4825-5.38713E-02 1.34992E-06 1.87203E-01 2.03376E-07 3.31424E-09-4.20806E-03
 -1      4826-4.75656E-02 1.23933E-06 1.80898E-01-1.28423E-08 4.44757E-10 3.98792E-03
 -1      4827-4.75656E-02 1.23933E-06 1.80898E-01-1.28423E-08-1.22459E-16 4.32413E-16
 -1      4828-4.75656E-02 1.23933E-06 1.80898E-01-1.28423E-08-4.44758E-10-3.98792E-03
 -1      4829-4.19508E-02 9.34570E-07 1.75283E-01 9.05705E-08-1.39170E-09 3.79189E-03
 -1      4830-4.19508E-02 9.34570E-07 1.75283E-01 9.05705E-08-1.61413E-16-4.86736E-16
 -1      4831-4.19508E-02 9.34570E-07 1.75283E-01 9.05705E-08 1.39170E-09-3.79189E-03
 -1      4832-3.67385E-02 9.96028E-07 1.70070E-01 1.51784E-07-2.46198E-09 3.60993E-03
 -1      4833-3.67385E-02 9.96028E-07 1.70070E-01 1.51784E-07 6.84607E-17 9.87333E-16
 -1      4834-3.67385E-02 9.96028E-07 1.70070E-01 1.51784E-07 2.46198E-09-3.60993E-03
 -1      4835-3.17134E-02 9.17549E-07 1.65045E-01-1.11269E-08 3.70129E-10 3.43450E-03
 -1      4836-3.17134E-02 9.17549E-07 1.65045E-01-1.11269E-08-9.15536E-17-2.68787E-16
 -1      4837-3.17134E-02 9.17549E-07 1.65045E-01-1.11269E-08-3.70129E-10-3.43450E-03
 -1      4838-2.72137E-02 6.87291E-07 1.60545E-01 5.74951E-08-8.52996E-10 3.27740E-03
 -1      4839-2.72137E-02 6.87291E-07 1.60545E-01 5.74951E-08-1.03600E-16-3.87498E-16
 -1      4840-2.72137E-02 6.87291E-07 1.60545E-01 5.74951E-08 8.52996E-10-3.27740E-03
 -1      4841-2.30146E-02 7.20402E-07 1.56346E-01 8.88230E-08-1.40250E-09 3.13081E-03
 -1      4842-2.30146E-02 7.20402E-07 1.56346E-01 8.88230E-08 8.93533E-17-1.23233E-16
 -1      4843-2.30146E-02 7.20402E-07 1.56346E-01 8.88230E-08 1.40250E-09-3.13081E-03
 -1      4844-1.89456E-02 6.40528E-07 1.52277E-01-5.27307E-08 1.05667E-09 2.98875E-03
 -1      4845-1.89456E-02 6.40528E-07 1.52277E-01-5.27307E-08-1.19775E-16-1.25915E-16
 -1      4846-1.89456E-02 6.40528E-07 1.52277E-01-5.27307E-08-1.05667E-09-2.98875E-03
 -1      4847-1.52842E-02 4.45038E-07 1.48616E-01-1.69417E-08 4.07251E-10 2.86093E-03
 -1      4848-1.52842E-02 4.45038E-07 1.48616E-01-1.69417E-08 1.56808E-17-3.40327E-17
 -1      4849-1.52842E-02 4.45038E-07 1.48616E-01-1.69417E-08-4.07251E-10-2.86093E-03
 -1      4850-1.18517E-02 4.45940E-07 1.45183E-01 3.48027E-09 4.33407E-11 2.74110E-03
 -1      4851-1.18517E-02 4.45940E-07 1.45183E-01 3.48027E-09 2.19524E-17-4.44164E-16
 -1      4852-1.18517E-02 4.45940E-07 1.45183E-01 3.48026E-09-4.33407E-11-2.74110E-03
 -1      4853-8.51106E-03 3.89828E-07 1.41843E-01 2.88506E-08-4.01315E-10 2.62447E-03
 -1      4854-8.51106E-03 3.89828E-07 1.41843E-01 2.88506E-08 8.59522E-17 4.38244E-18
 -1      4855-8.51106E-03 3.89828E-07 1.41843E-01 2.88506E-08 4.01315E-10-2.62447E-03
 -1      4856-5.49232E-03 4.43947E-07 1.38824E-01 1.99628E-07-3.37197E-09 2.51909E-03
 -1      4857-5.49232E-03 4.43947E-07 1.38824E-01 1.99628E-07-1.84117E-17 4.18411E-16
 -1      4858-5.49232E-03 4.43947E-07 1.38824E-01 1.99628E-07 3.37197E-09-2.51909E-03
 -1      4859-2.65134E-03 6.66229E-07 1.35984E-01 2.93151E-07-4.97199E-09 2.41992E-03
 -1      4860-2.65134E-03 6.66229E-07 1.35984E-01 2.93151E-07 2.67863E-18 9.74017E-17
 -1      4861-2.65134E-03 6.66229E-07 1.35984E-01 2.93151E-07 4.97199E-09-2.41992E-03
 -1      4862-8.69194E-01 2.10912E-06 1.00219E+00-1.56383E-05 2.72558E-07 3.26704E-02
 -1      4863-8.69194E-01 2.10912E-06 1.00219E+00-1.56383E-05 7.06341E-18-5.52314E-16
 -1      4864-8.69194E-01 2.10912E-06 1.00219E+00-1.56383E-05-2.72558E-07-3.26704E-02
 -1      4865-8.59845E-01 1.71072E-05 9.93105E-01-5.51241E-06 9.61885E-08 3.23494E-02
 -1      4866-8.59845E-01 1.71072E-05 9.93105E-01-5.51241E-06 1.04014E-16 2.00059E-15
 -1      4867-8.59845E-01 1.71072E-05 9.93105E-01-5.51241E-06-9.61885E-08-3.23494E-02
 -1      4868-8.60085E-01 2.20769E-05 9.93332E-01-1.42424E-06 2.49289E-08 3.23575E-02
 -1      4869-8.60085E-01 2.20769E-05 9.93332E-01-1.42424E-06 4.62826E-17 1.92250E-15
 -1      4870-8.60085E-01 2.20769E-05 9.93332E-01-1.42424E-06-2.49289E-08-3.23575E-02
 -1      4871-8.62093E-01 2.24579E-05 9.95338E-01-1.59950E-07 2.91911E-09 3.24275E-02
 -1      4872-8.62093E-01 2.24579E-05 9.95338E-01-1.59950E-07 3.23397E-17 3.51762E-15
 -1      4873-8.62093E-01 2.24579E-05 9.95338E-01-1.59950E-07-2.91911E-09-3.24275E-02
 -1      4874-8.63784E-01 2.28077E-05 9.97030E-01 3.41240E-07-5.89952E-09 3.24864E-02
 -1      4875-8.63784E-01 2.28077E-05 9.97030E-01 3.41240E-07 1.44774E-16-9.59905E-16
 -1      4876-8.63784E-01 2.28077E-05 9.97030E-01 3.41240E-07 5.89952E-09-3.24864E-02
 -1      4877-8.64274E-01 2.27932E-05 9.97521E-01 1.21710E-07-2.12216E-09 3.25034E-02
 -1      4878-8.64274E-01 2.27932E-05 9.97521E-01 1.21710E-07 1.33582E-16-4.16573E-15
 -1      4879-8.64274E-01 2.27932E-05 9.97521E-01 1.21710E-07 2.12216E-09-3.25034E-02
 -1      4880-8.64223E-01 2.27858E-05 9.97470E-01-1.77235E-08 3.03289E-10 3.25017E-02
 -1      4881-8.64223E-01 2.27858E-05 9.97470E-01-1.77235E-08-1.02967E-16 1.32872E-15
 -1      4882-8.64223E-01 2.27858E-05 9.97470E-01-1.77235E-08-3.03290E-10-3.25017E-02
 -1      4883-8.64192E-01 2.27409E-05 9.97441E-01-2.86658E-08 5.03449E-10 3.25006E-02
 -1      4884-8.64192E-01 2.27409E-05 9.97441E-01-2.86658E-08-3.76572E-17-9.78459E-16
 -1      4885-8.64192E-01 2.27409E-05 9.97441E-01-2.86658E-08-5.03449E-10-3.25006E-02
 -1      4886-8.64508E-01 2.29630E-05 9.97754E-01-7.86366E-07 1.37484E-08 3.25116E-02
 -1      4887-8.64508E-01 2.29630E-05 9.97754E-01-7.86366E-07 5.60505E-17-5.71371E-15
 -1      4888-8.64508E-01 2.29630E-05 9.97754E-01-7.86366E-07-1.37484E-08-3.25116E-02
 -1      4889-8.63849E-01 2.22830E-05 9.97097E-01-1.77624E-06 3.08726E-08 3.24887E-02
 -1      4890-8.63849E-01 2.22830E-05 9.97097E-01-1.77624E-06 2.65666E-17 4.08524E-15
 -1      4891-8.63849E-01 2.22830E-05 9.97097E-01-1.77624E-06-3.08726E-08-3.24887E-02
 -1      4892-8.61331E-01 2.83816E-05 9.94580E-01-4.72858E-06 8.23868E-08 3.24010E-02
 -1      4893-8.61331E-01 2.83816E-05 9.94580E-01-4.72858E-06-2.54296E-17 3.95959E-17
 -1      4894-8.61331E-01 2.83816E-05 9.94580E-01-4.72858E-06-8.23868E-08-3.24010E-02
 -1      4895-8.56880E-01 3.92194E-05 9.90238E-01-9.54876E-06 1.66500E-07 3.22478E-02
 -1      4896-8.56880E-01 3.92194E-05 9.90238E-01-9.54876E-06 4.22284E-18-6.05183E-16
 -1      4897-8.56880E-01 3.92194E-05 9.90238E-01-9.54876E-06-1.66500E-07-3.22478E-02
 -1      4898-8.49322E-01-9.94278E-06 9.82683E-01-3.06074E-05 5.33066E-07 3.19845E-02
 -1      4899-8.49322E-01-9.94278E-06 9.82683E-01-3.06074E-05 3.16985E-17-4.23503E-15
 -1      4900-8.49322E-01-9.94278E-06 9.82683E-01-3.06074E-05-5.33066E-07-3.19845E-02
 -1      4901-6.63653E-01-2.53137E-05 7.96929E-01 3.08370E-05-5.37467E-07 2.54971E-02
 -1      4902-6.63653E-01-2.53137E-05 7.96929E-01 3.08370E-05 2.66389E-17 1.19669E-15
 -1      4903-6.63653E-01-2.53137E-05 7.96929E-01 3.08370E-05 5.37467E-07-2.54971E-02
 -1      4904-5.12473E-01-4.67592E-07 6.45806E-01 3.84310E-06-6.70724E-08 2.02199E-02
 -1      4905-5.12473E-01-4.67592E-07 6.45806E-01 3.84310E-06-1.87067E-17 4.63770E-15
 -1      4906-5.12473E-01-4.67592E-07 6.45806E-01 3.84310E-06 6.70724E-08-2.02199E-02
 -1      4907-3.98311E-01-2.24012E-07 5.31639E-01-8.75785E-07 1.52851E-08 1.62337E-02
 -1      4908-3.98311E-01-2.24012E-07 5.31639E-01-8.75785E-07-6.79742E-18-3.64565E-16
 -1      4909-3.98311E-01-2.24012E-07 5.31639E-01-8.75785E-07-1.52851E-08-1.62337E-02
 -1      4910-3.14344E-01-9.10295E-08 4.47678E-01-2.00802E-07 3.52871E-09 1.33021E-02
 -1      4911-3.14344E-01-9.10295E-08 4.47678E-01-2.00802E-07 1.82088E-18-8.00396E-16
 -1      4912-3.14344E-01-9.10295E-08 4.47678E-01-2.00802E-07-3.52871E-09-1.33021E-02
 -1      4913-2.51270E-01 1.40630E-07 3.84603E-01 1.84616E-07-3.21133E-09 1.10999E-02
 -1      4914-2.51270E-01 1.40630E-07 3.84603E-01 1.84616E-07-3.31236E-18 5.06780E-16
 -1      4915-2.51270E-01 1.40630E-07 3.84603E-01 1.84616E-07 3.21133E-09-1.10999E-02
 -1      4916-2.02843E-01 5.90952E-08 3.36174E-01-3.72115E-08 6.26428E-10 9.40904E-03
 -1      4917-2.02843E-01 5.90952E-08 3.36174E-01-3.72115E-08-3.63981E-18 6.37066E-17
 -1      4918-2.02843E-01 5.90952E-08 3.36174E-01-3.72115E-08-6.26428E-10-9.40904E-03
 -1      4919-1.64697E-01 1.71583E-08 2.98029E-01-9.14511E-08 1.60384E-09 8.07725E-03
 -1      4920-1.64697E-01 1.71583E-08 2.98029E-01-9.14511E-08 1.15447E-18-4.31945E-16
 -1      4921-1.64697E-01 1.71583E-08 2.98029E-01-9.14511E-08-1.60384E-09-8.07725E-03
 -1      4922-1.34059E-01 1.29466E-08 2.67392E-01 7.77110E-08-1.35100E-09 7.00761E-03
 -1      4923-1.34059E-01 1.29466E-08 2.67392E-01 7.77110E-08 1.31585E-17-6.93678E-16
 -1      4924-1.34059E-01 1.29466E-08 2.67392E-01 7.77110E-08 1.35100E-09-7.00761E-03
 -1      4925-1.09257E-01 9.30009E-09 2.42589E-01-4.68419E-08 8.22219E-10 6.14167E-03
 -1      4926-1.09257E-01 9.30009E-09 2.42589E-01-4.68419E-08 1.25788E-17 8.45457E-16
 -1      4927-1.09257E-01 9.30009E-09 2.42589E-01-4.68419E-08-8.22219E-10-6.14167E-03
 -1      4928-8.86720E-02 6.58372E-09 2.22004E-01 4.75413E-08-8.25530E-10 5.42302E-03
 -1      4929-8.86720E-02 6.58372E-09 2.22004E-01 4.75413E-08 4.53200E-18-3.35754E-16
 -1      4930-8.86720E-02 6.58371E-09 2.22004E-01 4.75413E-08 8.25530E-10-5.42302E-03
 -1      4931-7.15205E-02-1.04884E-09 2.04852E-01-2.65844E-09 3.83930E-11 4.82422E-03
 -1      4932-7.15205E-02-1.04884E-09 2.04852E-01-2.65844E-09-7.18530E-18-4.25096E-17
 -1      4933-7.15205E-02-1.04884E-09 2.04852E-01-2.65845E-09-3.83930E-11-4.82422E-03
 -1      4934-5.70506E-02-3.14206E-09 1.90383E-01-2.59173E-08 4.55867E-10 4.31906E-03
 -1      4935-5.70506E-02-3.14206E-09 1.90383E-01-2.59173E-08 7.84843E-19-5.56273E-17
 -1      4936-5.70506E-02-3.14206E-09 1.90383E-01-2.59173E-08-4.55867E-10-4.31906E-03
 -1      4937-4.47025E-02-4.19837E-09 1.78035E-01 2.35534E-08-4.07517E-10 3.88797E-03
 -1      4938-4.47025E-02-4.19837E-09 1.78035E-01 2.35534E-08-2.18962E-18-2.41285E-16
 -1      4939-4.47025E-02-4.19837E-09 1.78035E-01 2.35534E-08 4.07517E-10-3.88797E-03
 -1      4940-3.41312E-02-3.12187E-09 1.67463E-01 9.78975E-10-2.08698E-11 3.51890E-03
 -1      4941-3.41312E-02-3.12187E-09 1.67463E-01 9.78976E-10 5.84209E-18 3.10134E-16
 -1      4942-3.41312E-02-3.12187E-09 1.67463E-01 9.78977E-10 2.08698E-11-3.51890E-03
 -1      4943-2.50180E-02 3.75605E-09 1.58350E-01-1.18539E-08 2.09797E-10 3.20075E-03
 -1      4944-2.50180E-02 3.75605E-09 1.58350E-01-1.18539E-08-5.38270E-18 3.38102E-16
 -1      4945-2.50180E-02 3.75605E-09 1.58350E-01-1.18539E-08-2.09797E-10-3.20075E-03
 -1      4946-1.71544E-02 2.48867E-08 1.50486E-01-3.97784E-08 6.88180E-10 2.92622E-03
 -1      4947-1.71544E-02 2.48867E-08 1.50486E-01-3.97784E-08 3.75824E-18-2.66000E-17
 -1      4948-1.71544E-02 2.48867E-08 1.50486E-01-3.97784E-08-6.88180E-10-2.92622E-03
 -1      4949-1.01822E-02-7.66334E-10 1.43514E-01 1.01564E-07-1.77812E-09 2.68282E-03
 -1      4950-1.01822E-02-7.66335E-10 1.43514E-01 1.01564E-07-1.12776E-17-2.50104E-16
 -1      4951-1.01822E-02-7.66335E-10 1.43514E-01 1.01564E-07 1.77812E-09-2.68282E-03
 -1      4952-3.76956E-03-2.42409E-07 1.37103E-01-4.32838E-07 7.53307E-09 2.45898E-03
 -1      4953-3.76956E-03-2.42409E-07 1.37103E-01-4.32838E-07-7.81440E-19 3.12551E-16
 -1      4954-3.76956E-03-2.42409E-07 1.37103E-01-4.32838E-07-7.53307E-09-2.45898E-03
 -1      4955-2.29676E-03 2.03522E-07 1.35626E-01-2.81263E-07 4.83995E-09 2.40748E-03
 -1      4956-2.29676E-03 2.03522E-07 1.35626E-01-2.81263E-07 1.11051E-17-6.81196E-17
 -1      4957-2.29676E-03 2.03522E-07 1.35626E-01-2.81263E-07-4.83995E-09-2.40748E-03
 -1      4958-2.39220E-03 1.77708E-07 1.35724E-01 6.54703E-08-1.15224E-09 2.41086E-03
 -1      4959-2.39220E-03 1.77708E-07 1.35724E-01 6.54703E-08-8.67638E-19 3.21177E-16
 -1      4960-2.39220E-03 1.77708E-07 1.35724E-01 6.54703E-08 1.15224E-09-2.41086E-03
 -1      4961-2.32325E-03 9.31029E-08 1.35655E-01 1.91113E-08-3.32116E-10 2.40844E-03
 -1      4962-2.32325E-03 9.31029E-08 1.35655E-01 1.91113E-08 9.35069E-18-4.90810E-16
 -1      4963-2.32325E-03 9.31029E-08 1.35655E-01 1.91113E-08 3.32116E-10-2.40844E-03
 -1      4964-2.34698E-03 9.57815E-08 1.35679E-01 8.51372E-09-1.47577E-10 2.40927E-03
 -1      4965-2.34698E-03 9.57815E-08 1.35679E-01 8.51372E-09-3.61806E-18 1.18039E-16
 -1      4966-2.34698E-03 9.57815E-08 1.35679E-01 8.51372E-09 1.47577E-10-2.40927E-03
 -1      4967-2.35759E-03 1.01377E-07 1.35689E-01-1.37045E-09 2.38638E-11 2.40965E-03
 -1      4968-2.35759E-03 1.01377E-07 1.35689E-01-1.37045E-09 1.25130E-17 4.59091E-16
 -1      4969-2.35759E-03 1.01377E-07 1.35689E-01-1.37045E-09-2.38638E-11-2.40965E-03
 -1      4970-2.35416E-03 9.91977E-08 1.35686E-01-1.59411E-09 2.73779E-11 2.40953E-03
 -1      4971-2.35416E-03 9.91977E-08 1.35686E-01-1.59411E-09 1.54290E-17-9.52607E-17
 -1      4972-2.35416E-03 9.91977E-08 1.35686E-01-1.59411E-09-2.73778E-11-2.40953E-03
 -1      4973-2.35081E-03 9.99121E-08 1.35682E-01 1.44439E-09-2.52426E-11 2.40941E-03
 -1      4974-2.35081E-03 9.99121E-08 1.35682E-01 1.44439E-09 4.24221E-17-7.04236E-18
 -1      4975-2.35081E-03 9.99121E-08 1.35682E-01 1.44439E-09 2.52427E-11-2.40941E-03
 -1      4976-2.34842E-03 1.00983E-07 1.35680E-01 1.16223E-09-2.06649E-11 2.40932E-03
 -1      4977-2.34842E-03 1.00983E-07 1.35680E-01 1.16223E-09-4.91178E-17 1.21147E-16
 -1      4978-2.34842E-03 1.00983E-07 1.35680E-01 1.16223E-09 2.06648E-11-2.40932E-03
 -1      4979-2.33578E-03 9.64340E-08 1.35667E-01-4.03991E-09 6.93644E-11 2.40888E-03
 -1      4980-2.33578E-03 9.64340E-08 1.35667E-01-4.03991E-09-9.54748E-18-8.63318E-17
 -1      4981-2.33578E-03 9.64340E-08 1.35667E-01-4.03991E-09-6.93645E-11-2.40888E-03
 -1      4982-2.33424E-03 9.75945E-08 1.35666E-01-5.38733E-09 9.49028E-11 2.40883E-03
 -1      4983-2.33424E-03 9.75945E-08 1.35666E-01-5.38733E-09-4.42526E-17-2.69128E-16
 -1      4984-2.33424E-03 9.75945E-08 1.35666E-01-5.38733E-09-9.49029E-11-2.40883E-03
 -1      4985-2.41029E-03 9.08214E-08 1.35742E-01 2.22633E-08-3.81036E-10 2.41149E-03
 -1      4986-2.41029E-03 9.08214E-08 1.35742E-01 2.22633E-08 6.01221E-17-1.38166E-16
 -1      4987-2.41029E-03 9.08214E-08 1.35742E-01 2.22633E-08 3.81036E-10-2.41149E-03
 -1      4988-2.15275E-03 2.27476E-07 1.35485E-01-1.89235E-08 2.92836E-10 2.40250E-03
 -1      4989-2.15275E-03 2.27476E-07 1.35485E-01-1.89235E-08-2.82686E-17 2.52504E-16
 -1      4990-2.15275E-03 2.27476E-07 1.35485E-01-1.89235E-08-2.92836E-10-2.40250E-03
 -1      4991-1.75166E-03-8.36887E-08 1.35083E-01-1.74188E-07 3.05969E-09 2.38847E-03
 -1      4992-1.75166E-03-8.36887E-08 1.35083E-01-1.74188E-07 9.09065E-17-2.68067E-16
 -1      4993-1.75166E-03-8.36887E-08 1.35083E-01-1.74188E-07-3.05969E-09-2.38847E-03
 -1      4994-7.72082E-01-6.91624E-05 9.05457E-01-3.26783E-05 5.70127E-07 2.92847E-02
 -1      4995-7.72082E-01-6.91624E-05 9.05457E-01-3.26783E-05 1.25174E-16 9.93282E-16
 -1      4996-7.72082E-01-6.91624E-05 9.05457E-01-3.26783E-05-5.70127E-07-2.92847E-02
 -1      4997-6.78828E-01-5.58147E-05 8.12118E-01-1.77332E-05 3.08694E-07 2.60279E-02
 -1      4998-6.78828E-01-5.58147E-05 8.12118E-01-1.77332E-05 8.00505E-17-1.05666E-15
 -1      4999-6.78828E-01-5.58147E-05 8.12118E-01-1.77332E-05-3.08694E-07-2.60279E-02
 -1      5000-5.91749E-01-3.24629E-05 7.25059E-01 1.63248E-05-2.85490E-07 2.29879E-02
 -1      5001-5.91749E-01-3.24629E-05 7.25059E-01 1.63248E-05 2.04852E-16-6.51642E-16
 -1      5002-5.91749E-01-3.24629E-05 7.25059E-01 1.63248E-05 2.85490E-07-2.29879E-02
 -1      5003-5.16221E-01-1.11993E-05 6.49557E-01-2.85131E-06 4.97672E-08 2.03509E-02
 -1      5004-5.16221E-01-1.11993E-05 6.49557E-01-2.85131E-06-2.35151E-17-3.83920E-16
 -1      5005-5.16221E-01-1.11993E-05 6.49557E-01-2.85131E-06-4.97672E-08-2.03509E-02
 -1      5006-4.53537E-01-1.09748E-05 5.86874E-01-1.16587E-06 2.03294E-08 1.81622E-02
 -1      5007-4.53537E-01-1.09748E-05 5.86874E-01-1.16587E-06 5.24140E-18-1.50152E-16
 -1      5008-4.53537E-01-1.09748E-05 5.86874E-01-1.16587E-06-2.03294E-08-1.81622E-02
 -1      5009-4.00367E-01-1.15253E-05 5.33698E-01-1.20562E-06 2.10936E-08 1.63056E-02
 -1      5010-4.00367E-01-1.15253E-05 5.33698E-01-1.20562E-06 4.66996E-17 2.64319E-15
 -1      5011-4.00367E-01-1.15253E-05 5.33698E-01-1.20562E-06-2.10936E-08-1.63056E-02
 -1      5012-3.54964E-01-7.24816E-06 4.88299E-01-1.43490E-06 2.50322E-08 1.47204E-02
 -1      5013-3.54964E-01-7.24816E-06 4.88299E-01-1.43490E-06 9.74807E-17 1.14923E-15
 -1      5014-3.54964E-01-7.24816E-06 4.88299E-01-1.43490E-06-2.50322E-08-1.47204E-02
 -1      5015-3.16047E-01-6.26088E-06 4.49381E-01-5.77437E-07 1.00632E-08 1.33615E-02
 -1      5016-3.16047E-01-6.26088E-06 4.49381E-01-5.77437E-07-2.94888E-16 9.09833E-16
 -1      5017-3.16047E-01-6.26088E-06 4.49381E-01-5.77437E-07-1.00632E-08-1.33615E-02
 -1      5018-2.82173E-01-6.53081E-06 4.15504E-01-6.73649E-07 1.17913E-08 1.21788E-02
 -1      5019-2.82173E-01-6.53081E-06 4.15504E-01-6.73649E-07 2.15455E-16-1.21814E-15
 -1      5020-2.82173E-01-6.53081E-06 4.15504E-01-6.73649E-07-1.17913E-08-1.21788E-02
 -1      5021-2.52608E-01-4.19427E-06 3.85942E-01-8.18470E-07 1.42788E-08 1.11466E-02
 -1      5022-2.52608E-01-4.19427E-06 3.85942E-01-8.18470E-07-1.00486E-16 8.45466E-16
 -1      5023-2.52608E-01-4.19427E-06 3.85942E-01-8.18470E-07-1.42788E-08-1.11466E-02
 -1      5024-2.26766E-01-3.68276E-06 3.60099E-01-3.06989E-07 5.34976E-09 1.02443E-02
 -1      5025-2.26766E-01-3.68276E-06 3.60099E-01-3.06989E-07 5.36081E-17-1.68276E-15
 -1      5026-2.26766E-01-3.68276E-06 3.60099E-01-3.06989E-07-5.34976E-09-1.02443E-02
 -1      5027-2.03864E-01-3.93157E-06 3.37196E-01-3.65483E-07 6.40347E-09 9.44470E-03
 -1      5028-2.03864E-01-3.93157E-06 3.37196E-01-3.65483E-07 8.00190E-17-1.75955E-16
 -1      5029-2.03864E-01-3.93157E-06 3.37196E-01-3.65483E-07-6.40347E-09-9.44470E-03
 -1      5030-1.83539E-01-2.58049E-06 3.16872E-01-4.61204E-07 8.04582E-09 8.73510E-03
 -1      5031-1.83539E-01-2.58049E-06 3.16872E-01-4.61204E-07-2.91391E-17 1.96898E-16
 -1      5032-1.83539E-01-2.58049E-06 3.16872E-01-4.61204E-07-8.04582E-09-8.73510E-03
 -1      5033-1.65498E-01-2.30539E-06 2.98831E-01-1.63550E-07 2.84902E-09 8.10522E-03
 -1      5034-1.65498E-01-2.30539E-06 2.98831E-01-1.63550E-07 7.50273E-17-8.56906E-16
 -1      5035-1.65498E-01-2.30539E-06 2.98831E-01-1.63550E-07-2.84902E-09-8.10522E-03
 -1      5036-1.49284E-01-2.50554E-06 2.82615E-01-2.16719E-07 3.80034E-09 7.53911E-03
 -1      5037-1.49284E-01-2.50554E-06 2.82615E-01-2.16719E-07-9.25829E-17 3.84323E-16
 -1      5038-1.49284E-01-2.50554E-06 2.82615E-01-2.16719E-07-3.80034E-09-7.53911E-03
 -1      5039-1.34710E-01-1.67458E-06 2.68042E-01-2.95454E-07 5.15462E-09 7.03032E-03
 -1      5040-1.34710E-01-1.67458E-06 2.68042E-01-2.95454E-07-3.14058E-17-1.16502E-17
 -1      5041-1.34710E-01-1.67458E-06 2.68042E-01-2.95454E-07-5.15462E-09-7.03032E-03
 -1      5042-1.21631E-01-1.55015E-06 2.54964E-01-1.58678E-07 2.76699E-09 6.57371E-03
 -1      5043-1.21631E-01-1.55015E-06 2.54964E-01-1.58678E-07-4.34314E-17-9.28874E-16
 -1      5044-1.21631E-01-1.55015E-06 2.54964E-01-1.58678E-07-2.76699E-09-6.57371E-03
 -1      5045-1.09787E-01-1.33733E-06 2.43119E-01-6.92682E-08 1.20524E-09 6.16019E-03
 -1      5046-1.09787E-01-1.33733E-06 2.43119E-01-6.92682E-08 5.74574E-17 2.41058E-16
 -1      5047-1.09787E-01-1.33733E-06 2.43119E-01-6.92682E-08-1.20524E-09-6.16019E-03
 -1      5048-9.89719E-02-1.47655E-06 2.32304E-01-1.16908E-07 2.05205E-09 5.78261E-03
 -1      5049-9.89719E-02-1.47655E-06 2.32304E-01-1.16908E-07-5.30851E-18-3.28053E-16
 -1      5050-9.89719E-02-1.47655E-06 2.32304E-01-1.16908E-07-2.05205E-09-5.78261E-03
 -1      5051-8.91122E-02-1.00498E-06 2.22445E-01-1.62555E-07 2.83487E-09 5.43839E-03
 -1      5052-8.91122E-02-1.00498E-06 2.22445E-01-1.62555E-07 5.27253E-17 5.20205E-16
 -1      5053-8.91122E-02-1.00498E-06 2.22445E-01-1.62555E-07-2.83487E-09-5.43839E-03
 -1      5054-8.01422E-02-9.22868E-07 2.13474E-01-5.24871E-08 9.12906E-10 5.12523E-03
 -1      5055-8.01422E-02-9.22868E-07 2.13474E-01-5.24871E-08-5.81207E-17-6.52887E-16
 -1      5056-8.01422E-02-9.22868E-07 2.13474E-01-5.24871E-08-9.12906E-10-5.12523E-03
 -1      5057-7.18945E-02-1.03372E-06 2.05226E-01-7.85995E-08 1.38058E-09 4.83728E-03
 -1      5058-7.18945E-02-1.03372E-06 2.05226E-01-7.85995E-08 7.14898E-17-1.15827E-15
 -1      5059-7.18945E-02-1.03372E-06 2.05226E-01-7.85995E-08-1.38058E-09-4.83728E-03
 -1      5060-6.43202E-02-7.11224E-07 1.97652E-01-1.11206E-07 1.93927E-09 4.57285E-03
 -1      5061-6.43202E-02-7.11224E-07 1.97652E-01-1.11206E-07-4.64037E-17-6.16494E-17
 -1      5062-6.43202E-02-7.11224E-07 1.97652E-01-1.11206E-07-1.93927E-09-4.57285E-03
 -1      5063-5.73809E-02-6.59387E-07 1.90713E-01-3.46491E-08 6.02544E-10 4.33059E-03
 -1      5064-5.73809E-02-6.59387E-07 1.90713E-01-3.46491E-08 2.99301E-17 5.71579E-16
 -1      5065-5.73809E-02-6.59387E-07 1.90713E-01-3.46491E-08-6.02543E-10-4.33059E-03
 -1      5066-5.09575E-02-7.45418E-07 1.84289E-01-5.51731E-08 9.70272E-10 4.10634E-03
 -1      5067-5.09575E-02-7.45418E-07 1.84289E-01-5.51731E-08 1.33974E-16-3.45230E-16
 -1      5068-5.09575E-02-7.45418E-07 1.84289E-01-5.51731E-08-9.70272E-10-4.10634E-03
 -1      5069-4.50205E-02-5.16447E-07 1.78353E-01-8.01502E-08 1.39821E-09 3.89907E-03
 -1      5070-4.50205E-02-5.16447E-07 1.78353E-01-8.01502E-08 3.76339E-18 1.06272E-16
 -1      5071-4.50205E-02-5.16447E-07 1.78353E-01-8.01502E-08-1.39821E-09-3.89907E-03
 -1      5072-3.95475E-02-4.82385E-07 1.72880E-01-2.61337E-08 4.55106E-10 3.70800E-03
 -1      5073-3.95475E-02-4.82385E-07 1.72880E-01-2.61337E-08 1.22643E-16 7.09103E-17
 -1      5074-3.95475E-02-4.82385E-07 1.72880E-01-2.61337E-08-4.55106E-10-3.70800E-03
 -1      5075-3.44503E-02-5.48775E-07 1.67782E-01-4.29496E-08 7.56261E-10 3.53005E-03
 -1      5076-3.44503E-02-5.48775E-07 1.67782E-01-4.29496E-08 7.68583E-17 1.98892E-16
 -1      5077-3.44503E-02-5.48775E-07 1.67782E-01-4.29496E-08-7.56261E-10-3.53005E-03
 -1      5078-2.97086E-02-3.80432E-07 1.63041E-01-6.40858E-08 1.11870E-09 3.36451E-03
 -1      5079-2.97086E-02-3.80432E-07 1.63041E-01-6.40858E-08 8.74674E-17-5.65323E-16
 -1      5080-2.97086E-02-3.80432E-07 1.63041E-01-6.40858E-08-1.11870E-09-3.36451E-03
 -1      5081-2.53070E-02-3.55085E-07 1.58639E-01-2.76429E-08 4.81974E-10 3.21084E-03
 -1      5082-2.53070E-02-3.55085E-07 1.58639E-01-2.76429E-08 3.80742E-17 3.72617E-16
 -1      5083-2.53070E-02-3.55085E-07 1.58639E-01-2.76429E-08-4.81974E-10-3.21084E-03
 -1      5084-2.11729E-02-3.98788E-07 1.54505E-01-3.99115E-08 7.01338E-10 3.06651E-03
 -1      5085-2.11729E-02-3.98788E-07 1.54505E-01-3.99115E-08-3.12099E-19 1.13276E-16
 -1      5086-2.11729E-02-3.98788E-07 1.54505E-01-3.99115E-08-7.01338E-10-3.06651E-03
 -1      5087-1.72827E-02-2.64079E-07 1.50615E-01-5.41715E-08 9.43393E-10 2.93071E-03
 -1      5088-1.72827E-02-2.64079E-07 1.50615E-01-5.41715E-08-2.10011E-17 1.98320E-16
 -1      5089-1.72827E-02-2.64079E-07 1.50615E-01-5.41715E-08-9.43393E-10-2.93071E-03
 -1      5090-1.36136E-02-2.54895E-07 1.46946E-01-5.52429E-08 9.56916E-10 2.80261E-03
 -1      5091-1.36136E-02-2.54895E-07 1.46946E-01-5.52429E-08-1.59751E-17-7.75576E-17
 -1      5092-1.36136E-02-2.54895E-07 1.46946E-01-5.52429E-08-9.56916E-10-2.80261E-03
 -1      5093-1.01141E-02-4.64001E-07 1.43446E-01-2.40006E-07 4.16418E-09 2.68044E-03
 -1      5094-1.01141E-02-4.64001E-07 1.43446E-01-2.40006E-07-2.27127E-18-1.67407E-16
 -1      5095-1.01141E-02-4.64001E-07 1.43446E-01-2.40006E-07-4.16418E-09-2.68044E-03
 -1      5096-6.89958E-03-4.38315E-07 1.40231E-01 2.71477E-07-4.76239E-09 2.56821E-03
 -1      5097-6.89958E-03-4.38315E-07 1.40231E-01 2.71477E-07 2.24329E-18-2.39402E-16
 -1      5098-6.89958E-03-4.38315E-07 1.40231E-01 2.71477E-07 4.76239E-09-2.56821E-03
 -1      5099-4.06661E-03-3.66830E-07 1.37398E-01 7.87373E-08-1.38577E-09 2.46930E-03
 -1      5100-4.06661E-03-3.66830E-07 1.37398E-01 7.87373E-08 9.99827E-17-3.42271E-16
 -1      5101-4.06661E-03-3.66830E-07 1.37398E-01 7.87373E-08 1.38577E-09-2.46930E-03
 -1      5102-8.62053E-01 1.66179E-05 9.95283E-01 6.62997E-07-1.19931E-08 3.24258E-02
 -1      5103-8.62053E-01 1.66179E-05 9.95283E-01 6.62997E-07 1.53091E-17-7.95583E-15
 -1      5104-8.62053E-01 1.66179E-05 9.95283E-01 6.62997E-07 1.19931E-08-3.24258E-02
 -1      5105-8.59721E-01 2.40076E-05 9.92965E-01-1.81536E-06 3.16635E-08 3.23448E-02
 -1      5106-8.59721E-01 2.40076E-05 9.92965E-01-1.81536E-06 2.68426E-17-5.95368E-15
 -1      5107-8.59721E-01 2.40076E-05 9.92965E-01-1.81536E-06-3.16635E-08-3.23448E-02
 -1      5108-8.60947E-01 2.29883E-05 9.94191E-01-3.02866E-07 5.39857E-09 3.23875E-02
 -1      5109-8.60947E-01 2.29883E-05 9.94191E-01-3.02866E-07 6.12902E-17 1.97906E-15
 -1      5110-8.60947E-01 2.29883E-05 9.94191E-01-3.02866E-07-5.39857E-09-3.23875E-02
 -1      5111-8.63092E-01 2.27162E-05 9.96338E-01 3.17549E-07-5.44246E-09 3.24622E-02
 -1      5112-8.63092E-01 2.27162E-05 9.96338E-01 3.17549E-07-2.95646E-17-1.26802E-15
 -1      5113-8.63092E-01 2.27162E-05 9.96338E-01 3.17549E-07 5.44246E-09-3.24622E-02
 -1      5114-8.64152E-01 2.27581E-05 9.97398E-01 2.68164E-07-4.65623E-09 3.24992E-02
 -1      5115-8.64152E-01 2.27581E-05 9.97398E-01 2.68164E-07-5.20826E-17 2.91889E-15
 -1      5116-8.64152E-01 2.27581E-05 9.97398E-01 2.68164E-07 4.65623E-09-3.24992E-02
 -1      5117-8.64260E-01 2.27915E-05 9.97507E-01 5.08078E-08-8.90995E-10 3.25029E-02
 -1      5118-8.64260E-01 2.27915E-05 9.97507E-01 5.08078E-08 6.18980E-18 5.19756E-16
 -1      5119-8.64260E-01 2.27915E-05 9.97507E-01 5.08078E-08 8.90995E-10-3.25029E-02
 -1      5120-8.64179E-01 2.27769E-05 9.97426E-01-7.53814E-08 1.31285E-09 3.25001E-02
 -1      5121-8.64179E-01 2.27769E-05 9.97426E-01-7.53814E-08 2.85495E-17 4.51252E-15
 -1      5122-8.64179E-01 2.27769E-05 9.97426E-01-7.53814E-08-1.31285E-09-3.25001E-02
 -1      5123-8.64325E-01 2.27422E-05 9.97572E-01-1.50464E-07 2.64465E-09 3.25052E-02
 -1      5124-8.64325E-01 2.27422E-05 9.97572E-01-1.50464E-07 6.18022E-17 1.75694E-16
 -1      5125-8.64325E-01 2.27422E-05 9.97572E-01-1.50464E-07-2.64465E-09-3.25052E-02
 -1      5126-8.64490E-01 2.25251E-05 9.97738E-01-1.38933E-06 2.42205E-08 3.25110E-02
 -1      5127-8.64490E-01 2.25251E-05 9.97738E-01-1.38933E-06 3.49636E-17 6.10511E-16
 -1      5128-8.64490E-01 2.25251E-05 9.97738E-01-1.38933E-06-2.42205E-08-3.25110E-02
 -1      5129-8.62652E-01 2.37872E-05 9.95899E-01-2.64827E-06 4.60519E-08 3.24470E-02
 -1      5130-8.62652E-01 2.37872E-05 9.95899E-01-2.64827E-06 9.36431E-18-4.65357E-15
 -1      5131-8.62652E-01 2.37872E-05 9.95899E-01-2.64827E-06-4.60519E-08-3.24470E-02
 -1      5132-8.59258E-01 2.99230E-05 9.92544E-01-5.43619E-06 9.45512E-08 3.23294E-02
 -1      5133-8.59258E-01 2.99230E-05 9.92544E-01-5.43619E-06-1.17308E-17-9.91156E-16
 -1      5134-8.59258E-01 2.99230E-05 9.92544E-01-5.43619E-06-9.45512E-08-3.23294E-02
 -1      5135-3.53106E-01-3.07900E-07 4.86439E-01 2.68673E-07-4.65055E-09 1.46554E-02
 -1      5136-3.53106E-01-3.07900E-07 4.86439E-01 2.68673E-07 1.30790E-17-1.14168E-15
 -1      5137-3.53106E-01-3.07900E-07 4.86439E-01 2.68673E-07 4.65055E-09-1.46554E-02
 -1      5138-7.44117E-01 2.69830E-06 8.77270E-01 5.48567E-06-9.44161E-08 2.83059E-02
 -1      5139-7.44117E-01 2.69830E-06 8.77270E-01 5.48567E-06-2.54563E-17-1.77676E-15
 -1      5140-7.44117E-01 2.69830E-06 8.77270E-01 5.48567E-06 9.44161E-08-2.83059E-02
 -1      5141-5.85524E-01-1.54250E-05 7.18800E-01-2.09190E-05 3.65869E-07 2.27697E-02
 -1      5142-5.85524E-01-1.54250E-05 7.18800E-01-2.09190E-05-1.81229E-18 1.03961E-15
 -1      5143-5.85524E-01-1.54250E-05 7.18800E-01-2.09190E-05-3.65869E-07-2.27697E-02
 -1      5144-4.51015E-01 7.65007E-07 5.84348E-01-8.73132E-07 1.53198E-08 1.80740E-02
 -1      5145-4.51015E-01 7.65007E-07 5.84348E-01-8.73132E-07 8.68875E-19-3.20585E-15
 -1      5146-4.51015E-01 7.65007E-07 5.84348E-01-8.73132E-07-1.53198E-08-1.80740E-02
 -1      5147-2.80638E-01 7.40552E-08 4.13968E-01-1.65464E-08 2.57024E-10 1.21252E-02
 -1      5148-2.80638E-01 7.40552E-08 4.13968E-01-1.65464E-08-4.35012E-18 1.23162E-15
 -1      5149-2.80638E-01 7.40552E-08 4.13968E-01-1.65464E-08-2.57024E-10-1.21252E-02
 -1      5150-2.25604E-01 1.06533E-07 3.58937E-01-1.67805E-07 2.93882E-09 1.02037E-02
 -1      5151-2.25604E-01 1.06533E-07 3.58937E-01-1.67805E-07 1.48766E-17 5.50545E-16
 -1      5152-2.25604E-01 1.06533E-07 3.58937E-01-1.67805E-07-2.93882E-09-1.02037E-02
 -1      5153-1.82641E-01 3.92869E-08 3.15974E-01 1.11988E-07-1.94637E-09 8.70373E-03
 -1      5154-1.82641E-01 3.92869E-08 3.15974E-01 1.11988E-07 1.33914E-18 1.38497E-17
 -1      5155-1.82641E-01 3.92869E-08 3.15974E-01 1.11988E-07 1.94637E-09-8.70373E-03
 -1      5156-1.48559E-01 7.01253E-09 2.81890E-01-1.07606E-08 1.71335E-10 7.51380E-03
 -1      5157-1.48559E-01 7.01253E-09 2.81890E-01-1.07606E-08 1.16617E-18 9.91131E-16
 -1      5158-1.48559E-01 7.01253E-09 2.81890E-01-1.07606E-08-1.71335E-10-7.51380E-03
 -1      5159-1.21046E-01 6.13594E-09 2.54378E-01-2.21623E-09 4.30366E-11 6.55326E-03
 -1      5160-1.21046E-01 6.13594E-09 2.54378E-01-2.21623E-09-1.15126E-18-9.49185E-16
 -1      5161-1.21046E-01 6.13594E-09 2.54378E-01-2.21623E-09-4.30366E-11-6.55326E-03
 -1      5162-9.84870E-02 4.45781E-09 2.31819E-01-2.45863E-09 3.19150E-11 5.76568E-03
 -1      5163-9.84870E-02 4.45781E-09 2.31819E-01-2.45863E-09-9.47224E-18-1.22239E-15
 -1      5164-9.84870E-02 4.45781E-09 2.31819E-01-2.45863E-09-3.19150E-11-5.76568E-03
 -1      5165-7.97401E-02 2.62358E-09 2.13072E-01-3.56325E-08 6.26010E-10 5.11119E-03
 -1      5166-7.97401E-02 2.62358E-09 2.13072E-01-3.56325E-08-1.19641E-18-3.83233E-16
 -1      5167-7.97401E-02 2.62358E-09 2.13072E-01-3.56325E-08-6.26010E-10-5.11119E-03
 -1      5168-6.39712E-02-4.28968E-11 1.97303E-01 3.32429E-08-5.76507E-10 4.56067E-03
 -1      5169-6.39712E-02-4.28959E-11 1.97303E-01 3.32429E-08 3.97205E-18-5.75446E-16
 -1      5170-6.39712E-02-4.28950E-11 1.97303E-01 3.32429E-08 5.76507E-10-4.56067E-03
 -1      5171-5.06323E-02-5.47960E-09 1.83964E-01 1.35786E-10-7.70316E-12 4.09498E-03
 -1      5172-5.06323E-02-5.47960E-09 1.83964E-01 1.35786E-10-3.42472E-18 3.66046E-16
 -1      5173-5.06323E-02-5.47961E-09 1.83964E-01 1.35786E-10 7.70315E-12-4.09498E-03
 -1      5174-3.92274E-02-3.73616E-09 1.72559E-01-1.81903E-08 3.21097E-10 3.69682E-03
 -1      5175-3.92274E-02-3.73616E-09 1.72559E-01-1.81903E-08 1.23179E-17-3.00028E-16
 -1      5176-3.92274E-02-3.73616E-09 1.72559E-01-1.81903E-08-3.21097E-10-3.69682E-03
 -1      5177-2.93936E-02-8.16843E-10 1.62726E-01 1.81878E-08-3.13480E-10 3.35351E-03
 -1      5178-2.93936E-02-8.16843E-10 1.62726E-01 1.81878E-08 2.66920E-18-4.26941E-16
 -1      5179-2.93936E-02-8.16843E-10 1.62726E-01 1.81878E-08 3.13480E-10-3.35351E-03
 -1      5180-2.09409E-02 1.58822E-08 1.54273E-01 2.92956E-09-5.65593E-11 3.05841E-03
 -1      5181-2.09409E-02 1.58822E-08 1.54273E-01 2.92956E-09-2.51517E-18-2.23304E-16
 -1      5182-2.09409E-02 1.58822E-08 1.54273E-01 2.92956E-09 5.65593E-11-3.05841E-03
 -1      5183-1.35869E-02-2.68412E-08 1.46919E-01 1.58300E-08-2.81845E-10 2.80168E-03
 -1      5184-1.35869E-02-2.68412E-08 1.46919E-01 1.58300E-08 4.13131E-18-3.78204E-16
 -1      5185-1.35869E-02-2.68412E-08 1.46919E-01 1.58300E-08 2.81845E-10-2.80168E-03
 -1      5186-6.91251E-03-1.62915E-07 1.40244E-01 2.11330E-07-3.66390E-09 2.56867E-03
 -1      5187-6.91251E-03-1.62915E-07 1.40244E-01 2.11330E-07 1.28444E-18-5.38603E-17
 -1      5188-6.91251E-03-1.62915E-07 1.40244E-01 2.11330E-07 3.66390E-09-2.56867E-03
 -1      5189-2.46102E-03 1.18700E-07 1.35793E-01 2.31974E-07-4.06451E-09 2.41327E-03
 -1      5190-2.46102E-03 1.18700E-07 1.35793E-01 2.31974E-07-1.54933E-18 1.34469E-16
 -1      5191-2.46102E-03 1.18700E-07 1.35793E-01 2.31974E-07 4.06451E-09-2.41327E-03
 -1      5192-2.33605E-03 1.05310E-07 1.35668E-01 2.56209E-08-4.50066E-10 2.40889E-03
 -1      5193-2.33605E-03 1.05310E-07 1.35668E-01 2.56209E-08-9.05808E-18 4.80634E-16
 -1      5194-2.33605E-03 1.05310E-07 1.35668E-01 2.56209E-08 4.50066E-10-2.40889E-03
 -1      5195-2.33400E-03 9.55386E-08 1.35666E-01 1.30296E-08-2.25396E-10 2.40882E-03
 -1      5196-2.33400E-03 9.55386E-08 1.35666E-01 1.30296E-08 6.75410E-18-1.17665E-16
 -1      5197-2.33400E-03 9.55386E-08 1.35666E-01 1.30296E-08 2.25396E-10-2.40882E-03
 -1      5198-2.35512E-03 1.00631E-07 1.35687E-01 4.11037E-09-7.12924E-11 2.40956E-03
 -1      5199-2.35512E-03 1.00631E-07 1.35687E-01 4.11037E-09-3.00840E-18 2.63176E-16
 -1      5200-2.35512E-03 1.00631E-07 1.35687E-01 4.11037E-09 7.12924E-11-2.40956E-03
 -1      5201-2.35690E-03 1.00099E-07 1.35689E-01-2.73874E-09 4.73678E-11 2.40962E-03
 -1      5202-2.35690E-03 1.00099E-07 1.35689E-01-2.73874E-09 1.02378E-17-2.64939E-16
 -1      5203-2.35690E-03 1.00099E-07 1.35689E-01-2.73874E-09-4.73678E-11-2.40962E-03
 -1      5204-2.35217E-03 9.96224E-08 1.35684E-01-6.60405E-10 1.13953E-11 2.40946E-03
 -1      5205-2.35217E-03 9.96224E-08 1.35684E-01-6.60406E-10-4.35850E-19-5.06715E-16
 -1      5206-2.35217E-03 9.96224E-08 1.35684E-01-6.60406E-10-1.13953E-11-2.40946E-03
 -1      5207-2.35068E-03 1.00298E-07 1.35682E-01 1.44501E-09-2.51796E-11 2.40940E-03
 -1      5208-2.35068E-03 1.00298E-07 1.35682E-01 1.44501E-09 8.60126E-18-7.80214E-17
 -1      5209-2.35068E-03 1.00298E-07 1.35682E-01 1.44501E-09 2.51797E-11-2.40940E-03
 -1      5210-2.34336E-03 1.01296E-07 1.35675E-01-2.68199E-09 4.59257E-11 2.40915E-03
 -1      5211-2.34336E-03 1.01296E-07 1.35675E-01-2.68199E-09 1.22630E-17 7.18760E-16
 -1      5212-2.34336E-03 1.01296E-07 1.35675E-01-2.68199E-09-4.59257E-11-2.40915E-03
 -1      5213-2.32919E-03 9.65502E-08 1.35661E-01-4.74961E-09 8.19781E-11 2.40865E-03
 -1      5214-2.32919E-03 9.65502E-08 1.35661E-01-4.74961E-09-3.47698E-19-1.23808E-16
 -1      5215-2.32919E-03 9.65502E-08 1.35661E-01-4.74961E-09-8.19781E-11-2.40865E-03
 -1      5216-2.36320E-03 1.11891E-07 1.35695E-01-5.67795E-09 1.04524E-10 2.40984E-03
 -1      5217-2.36320E-03 1.11891E-07 1.35695E-01-5.67795E-09 1.00429E-16-1.97827E-16
 -1      5218-2.36320E-03 1.11891E-07 1.35695E-01-5.67795E-09-1.04523E-10-2.40984E-03
 -1      5219-2.37927E-03 1.84620E-07 1.35711E-01-3.77854E-08 6.48856E-10 2.41041E-03
 -1      5220-2.37927E-03 1.84620E-07 1.35711E-01-3.77854E-08 2.67992E-17-9.22280E-17
 -1      5221-2.37927E-03 1.84620E-07 1.35711E-01-3.77854E-08-6.48856E-10-2.41041E-03
 -1      5222-7.50240E-01-3.16493E-06 8.83579E-01 6.41771E-07-1.10646E-08 2.85230E-02
 -1      5223-7.50240E-01-3.16493E-06 8.83579E-01 6.41771E-07-9.09606E-17-2.62984E-15
 -1      5224-7.50240E-01-3.16493E-06 8.83579E-01 6.41771E-07 1.10646E-08-2.85230E-02
 -1      5225-7.48639E-01-1.32205E-06 8.81970E-01 1.14058E-06-1.98711E-08 2.84670E-02
 -1      5226-7.48639E-01-1.32205E-06 8.81970E-01 1.14058E-06 2.79577E-18-2.04793E-16
 -1      5227-7.48639E-01-1.32205E-06 8.81970E-01 1.14058E-06 1.98711E-08-2.84670E-02
 -1      5228-7.54617E-01 3.75491E-05 8.88031E-01-3.74612E-05 6.52647E-07 2.86771E-02
 -1      5229-7.54617E-01 3.75491E-05 8.88031E-01-3.74612E-05-9.20931E-17 1.74112E-15
 -1      5230-7.54617E-01 3.75491E-05 8.88031E-01-3.74612E-05-6.52647E-07-2.86771E-02
 -1      5231-7.53529E-01-2.49153E-06 8.86865E-01 1.77819E-07-3.04101E-09 2.86376E-02
 -1      5232-7.53529E-01-2.49153E-06 8.86865E-01 1.77819E-07 2.34927E-16 3.47598E-15
 -1      5233-7.53529E-01-2.49153E-06 8.86865E-01 1.77819E-07 3.04101E-09-2.86376E-02
 -1      5234-7.54668E-01-2.31928E-06 8.88005E-01-1.03598E-08 1.83883E-10 2.86774E-02
 -1      5235-7.54668E-01-2.31928E-06 8.88005E-01-1.03598E-08-5.45407E-17-1.48489E-15
 -1      5236-7.54668E-01-2.31928E-06 8.88005E-01-1.03598E-08-1.83883E-10-2.86774E-02
 -1      5237-7.54620E-01-2.22935E-06 8.87957E-01-1.34980E-07 2.34873E-09 2.86757E-02
 -1      5238-7.54620E-01-2.22935E-06 8.87957E-01-1.34980E-07 6.02972E-17 7.71990E-16
 -1      5239-7.54620E-01-2.22935E-06 8.87957E-01-1.34980E-07-2.34873E-09-2.86757E-02
 -1      5240-7.54484E-01-2.28321E-06 8.87822E-01-8.94670E-08 1.55719E-09 2.86710E-02
 -1      5241-7.54484E-01-2.28321E-06 8.87822E-01-8.94670E-08 5.27417E-17-4.50040E-15
 -1      5242-7.54484E-01-2.28321E-06 8.87822E-01-8.94670E-08-1.55719E-09-2.86710E-02
 -1      5243-7.54788E-01-2.32859E-06 8.88126E-01 5.65529E-07-9.84769E-09 2.86816E-02
 -1      5244-7.54788E-01-2.32859E-06 8.88126E-01 5.65529E-07 1.05025E-17 2.96986E-15
 -1      5245-7.54788E-01-2.32859E-06 8.88126E-01 5.65529E-07 9.84769E-09-2.86816E-02
 -1      5246-7.54816E-01-2.63674E-06 8.88156E-01-5.83338E-07 1.01183E-08 2.86826E-02
 -1      5247-7.54816E-01-2.63674E-06 8.88156E-01-5.83338E-07-1.32605E-16 1.24410E-15
 -1      5248-7.54816E-01-2.63674E-06 8.88156E-01-5.83338E-07-1.01183E-08-2.86826E-02
 -1      5249-7.50489E-01-1.06153E-06 8.83822E-01 9.32559E-07-1.64312E-08 2.85316E-02
 -1      5250-7.50489E-01-1.06153E-06 8.83822E-01 9.32559E-07 2.69212E-17-1.02612E-15
 -1      5251-7.50489E-01-1.06153E-06 8.83822E-01 9.32559E-07 1.64312E-08-2.85316E-02
 -1      5252-7.44078E-01-8.56058E-06 8.77438E-01-1.95012E-05 3.39620E-07 2.83085E-02
 -1      5253-7.44078E-01-8.56058E-06 8.77438E-01-1.95012E-05-1.50096E-17 1.08235E-15
 -1      5254-7.44078E-01-8.56058E-06 8.77438E-01-1.95012E-05-3.39620E-07-2.83085E-02
 -1      5255-4.82396E-01 1.77585E-06 6.15729E-01 8.92885E-07-1.54118E-08 1.91698E-02
 -1      5256-4.82396E-01 1.77585E-06 6.15729E-01 8.92885E-07 1.92612E-17-2.40998E-15
 -1      5257-4.82396E-01 1.77585E-06 6.15729E-01 8.92885E-07 1.54118E-08-1.91698E-02
 -1      5258-2.13831E-01 5.54749E-08 3.47163E-01-4.85718E-08 8.44543E-10 9.79267E-03
 -1      5259-2.13831E-01 5.54749E-08 3.47163E-01-4.85718E-08-5.79223E-18-4.83209E-16
 -1      5260-2.13831E-01 5.54749E-08 3.47163E-01-4.85718E-08-8.44543E-10-9.79267E-03
 -1      5261-3.75221E-01-5.32010E-07 5.08552E-01-5.64117E-07 9.89638E-09 1.54276E-02
 -1      5262-3.75221E-01-5.32010E-07 5.08552E-01-5.64117E-07 1.23391E-17 1.23045E-15
 -1      5263-3.75221E-01-5.32010E-07 5.08552E-01-5.64117E-07-9.89638E-09-1.54276E-02
 -1      5264-2.96759E-01 1.45209E-07 4.30091E-01 7.08701E-08-1.24587E-09 1.26881E-02
 -1      5265-2.96759E-01 1.45209E-07 4.30091E-01 7.08701E-08-1.55355E-17-1.93405E-15
 -1      5266-2.96759E-01 1.45209E-07 4.30091E-01 7.08701E-08 1.24587E-09-1.26881E-02
 -1      5267-4.24703E-01-1.20815E-06 5.58035E-01-3.07618E-06 5.38594E-08 1.71553E-02
 -1      5268-4.24703E-01-1.20815E-06 5.58035E-01-3.07618E-06-6.10173E-18 3.53847E-16
 -1      5269-4.24703E-01-1.20815E-06 5.58035E-01-3.07618E-06-5.38594E-08-1.71553E-02
 -1      5270-6.42419E-01 5.16101E-06 7.75872E-01-1.05869E-05 1.84635E-07 2.47604E-02
 -1      5271-6.42419E-01 5.16101E-06 7.75872E-01-1.05869E-05-7.15396E-18 2.02085E-15
 -1      5272-6.42419E-01 5.16101E-06 7.75872E-01-1.05869E-05-1.84635E-07-2.47604E-02
 -1      5273-3.33018E-01 9.10314E-08 4.66350E-01-2.42471E-08 4.37362E-10 1.39541E-02
 -1      5274-3.33018E-01 9.10314E-08 4.66350E-01-2.42471E-08 1.88462E-17-1.34666E-15
 -1      5275-3.33018E-01 9.10314E-08 4.66350E-01-2.42471E-08-4.37362E-10-1.39541E-02
 -1      5276-5.01303E-03-5.90256E-08 1.38344E-01 9.96975E-08-1.75888E-09 2.50235E-03
 -1      5277-5.01303E-03-5.90256E-08 1.38344E-01 9.96975E-08 4.11542E-20-5.42603E-16
 -1      5278-5.01303E-03-5.90256E-08 1.38344E-01 9.96975E-08 1.75888E-09-2.50235E-03
 -1      5279-1.73417E-01 4.06798E-08 3.06749E-01-5.23835E-09 9.32716E-11 8.38169E-03
 -1      5280-1.73417E-01 4.06798E-08 3.06749E-01-5.23835E-09-3.35304E-18 5.35830E-16
 -1      5281-1.73417E-01 4.06798E-08 3.06749E-01-5.23835E-09-9.32716E-11-8.38169E-03
 -1      5282-1.41142E-01-1.88654E-09 2.74474E-01 1.50748E-08-2.64447E-10 7.25487E-03
 -1      5283-1.41142E-01-1.88654E-09 2.74474E-01 1.50748E-08-3.86671E-18-1.18979E-16
 -1      5284-1.41142E-01-1.88655E-09 2.74474E-01 1.50748E-08 2.64447E-10-7.25487E-03
 -1      5285-1.14993E-01 2.09261E-08 2.48325E-01-1.15016E-09 2.16725E-11 6.34196E-03
 -1      5286-1.14993E-01 2.09261E-08 2.48325E-01-1.15016E-09-1.99301E-17-6.62431E-16
 -1      5287-1.14993E-01 2.09261E-08 2.48325E-01-1.15016E-09-2.16726E-11-6.34196E-03
 -1      5288-9.34680E-02-6.65975E-11 2.26800E-01 3.59415E-09-6.35901E-11 5.59046E-03
 -1      5289-9.34680E-02-6.65958E-11 2.26800E-01 3.59415E-09 1.31491E-17-4.44111E-16
 -1      5290-9.34680E-02-6.65942E-11 2.26800E-01 3.59415E-09 6.35901E-11-5.59046E-03
 -1      5291-7.55346E-02-2.04702E-09 2.08867E-01-2.44478E-09 4.20614E-11 4.96437E-03
 -1      5292-7.55346E-02-2.04702E-09 2.08867E-01-2.44478E-09 4.72480E-18-8.17844E-16
 -1      5293-7.55346E-02-2.04702E-09 2.08867E-01-2.44479E-09-4.20614E-11-4.96437E-03
 -1      5294-6.04338E-02 6.92072E-09 1.93766E-01-3.33075E-10 6.90556E-12 4.43717E-03
 -1      5295-6.04338E-02 6.92072E-09 1.93766E-01-3.33075E-10 3.42573E-18-1.13649E-16
 -1      5296-6.04338E-02 6.92072E-09 1.93766E-01-3.33076E-10-6.90555E-12-4.43717E-03
 -1      5297-4.75882E-02-6.71252E-09 1.80920E-01 2.64328E-09-4.54374E-11 3.98871E-03
 -1      5298-4.75882E-02-6.71252E-09 1.80920E-01 2.64329E-09 1.02599E-17 6.60948E-17
 -1      5299-4.75882E-02-6.71252E-09 1.80920E-01 2.64329E-09 4.54374E-11-3.98871E-03
 -1      5300-3.65795E-02-5.11837E-09 1.69911E-01 3.38633E-09-5.73928E-11 3.60438E-03
 -1      5301-3.65795E-02-5.11838E-09 1.69911E-01 3.38633E-09-6.35029E-19 3.85006E-16
 -1      5302-3.65795E-02-5.11838E-09 1.69911E-01 3.38633E-09 5.73928E-11-3.60438E-03
 -1      5303-2.70816E-02-1.94986E-09 1.60414E-01 5.48688E-09-9.03478E-11 3.27279E-03
 -1      5304-2.70816E-02-1.94986E-09 1.60414E-01 5.48688E-09-5.45274E-18 3.83711E-16
 -1      5305-2.70816E-02-1.94986E-09 1.60414E-01 5.48688E-09 9.03478E-11-3.27279E-03
 -1      5306-1.89686E-02-1.83067E-08 1.52301E-01 4.61540E-09-7.81372E-11 2.98956E-03
 -1      5307-1.89686E-02-1.83067E-08 1.52301E-01 4.61540E-09-4.93960E-18-4.09256E-16
 -1      5308-1.89686E-02-1.83067E-08 1.52301E-01 4.61540E-09 7.81372E-11-2.98956E-03
 -1      5309-1.20245E-02-5.87205E-08 1.45357E-01 1.93851E-07-3.41131E-09 2.74713E-03
 -1      5310-1.20245E-02-5.87205E-08 1.45357E-01 1.93851E-07 7.39294E-18 1.66799E-16
 -1      5311-1.20245E-02-5.87205E-08 1.45357E-01 1.93851E-07 3.41131E-09-2.74713E-03
 -1      5312-5.27133E-03-1.14080E-08 1.38604E-01-9.68772E-08 1.69677E-09 2.51139E-03
 -1      5313-5.27133E-03-1.14080E-08 1.38604E-01-9.68772E-08-1.49626E-17 3.47924E-16
 -1      5314-5.27133E-03-1.14080E-08 1.38604E-01-9.68772E-08-1.69677E-09-2.51139E-03
 -1      5315-4.79060E-03-2.28780E-08 1.38123E-01-5.31130E-09 9.71577E-11 2.49459E-03
 -1      5316-4.79060E-03-2.28780E-08 1.38123E-01-5.31129E-09 2.12393E-18-3.82114E-16
 -1      5317-4.79060E-03-2.28780E-08 1.38123E-01-5.31129E-09-9.71577E-11-2.49459E-03
 -1      5318-4.84255E-03-5.98372E-08 1.38174E-01 8.19751E-09-1.48295E-10 2.49640E-03
 -1      5319-4.84255E-03-5.98372E-08 1.38174E-01 8.19751E-09 2.79125E-18-2.02721E-16
 -1      5320-4.84255E-03-5.98372E-08 1.38174E-01 8.19751E-09 1.48295E-10-2.49640E-03
 -1      5321-4.85018E-03-1.63907E-08 1.38182E-01-9.18467E-11 2.68834E-12 2.49667E-03
 -1      5322-4.85018E-03-1.63907E-08 1.38182E-01-9.18473E-11 5.76830E-18 5.49968E-16
 -1      5323-4.85018E-03-1.63907E-08 1.38182E-01-9.18480E-11-2.68833E-12-2.49667E-03
 -1      5324-4.87658E-03-1.95908E-09 1.38209E-01-1.52126E-09 2.63384E-11 2.49759E-03
 -1      5325-4.87658E-03-1.95908E-09 1.38209E-01-1.52126E-09-6.50102E-18-5.14064E-17
 -1      5326-4.87658E-03-1.95908E-09 1.38209E-01-1.52126E-09-2.63384E-11-2.49759E-03
 -1      5327-4.86806E-03-3.57543E-09 1.38200E-01-1.29979E-09 2.18248E-11 2.49729E-03
 -1      5328-4.86806E-03-3.57543E-09 1.38200E-01-1.29978E-09 2.58177E-17 2.54050E-16
 -1      5329-4.86806E-03-3.57543E-09 1.38200E-01-1.29978E-09-2.18248E-11-2.49729E-03
 -1      5330-4.85776E-03-1.44779E-09 1.38190E-01 6.10187E-10-1.05228E-11 2.49694E-03
 -1      5331-4.85776E-03-1.44779E-09 1.38190E-01 6.10186E-10-3.93524E-17 1.34609E-16
 -1      5332-4.85776E-03-1.44779E-09 1.38190E-01 6.10186E-10 1.05227E-11-2.49694E-03
 -1      5333-4.85761E-03-4.62822E-09 1.38190E-01 1.50419E-09-2.59843E-11 2.49693E-03
 -1      5334-4.85761E-03-4.62822E-09 1.38190E-01 1.50419E-09 6.31753E-18-1.79485E-16
 -1      5335-4.85761E-03-4.62822E-09 1.38190E-01 1.50419E-09 2.59843E-11-2.49693E-03
 -1      5336-4.83487E-03-2.60893E-09 1.38167E-01-5.06299E-09 8.65120E-11 2.49614E-03
 -1      5337-4.83487E-03-2.60893E-09 1.38167E-01-5.06299E-09 3.61241E-18-2.07382E-16
 -1      5338-4.83487E-03-2.60893E-09 1.38167E-01-5.06299E-09-8.65120E-11-2.49614E-03
 -1      5339-4.79800E-03-7.47388E-09 1.38130E-01-4.41920E-09 7.40713E-11 2.49485E-03
 -1      5340-4.79800E-03-7.47388E-09 1.38130E-01-4.41920E-09 3.07032E-17 8.61162E-17
 -1      5341-4.79800E-03-7.47388E-09 1.38130E-01-4.41920E-09-7.40712E-11-2.49485E-03
 -1      5342-4.91468E-03 3.42270E-08 1.38247E-01-5.98675E-08 1.05614E-09 2.49892E-03
 -1      5343-4.91468E-03 3.42270E-08 1.38247E-01-5.98675E-08 2.81434E-18 2.55021E-16
 -1      5344-4.91468E-03 3.42270E-08 1.38247E-01-5.98675E-08-1.05614E-09-2.49892E-03
 -1      5345-4.83084E-03 2.21098E-07 1.38163E-01 2.09750E-07-3.69801E-09 2.49600E-03
 -1      5346-4.83084E-03 2.21098E-07 1.38163E-01 2.09750E-07-8.94527E-17 1.13615E-16
 -1      5347-4.83084E-03 2.21098E-07 1.38163E-01 2.09750E-07 3.69801E-09-2.49600E-03
 -1      5348-5.49908E-01 5.27012E-06 6.83294E-01 1.09388E-05-1.91480E-07 2.15282E-02
 -1      5349-5.49908E-01 5.27012E-06 6.83294E-01 1.09388E-05-1.94491E-18-3.90838E-15
 -1      5350-5.49908E-01 5.27012E-06 6.83294E-01 1.09388E-05 1.91480E-07-2.15282E-02
 -1      5351-7.47601E-01-5.63252E-06 8.80941E-01 7.86542E-07-1.36782E-08 2.84310E-02
 -1      5352-7.47601E-01-5.63252E-06 8.80941E-01 7.86542E-07 7.31488E-17-8.34082E-16
 -1      5353-7.47601E-01-5.63252E-06 8.80941E-01 7.86542E-07 1.36782E-08-2.84310E-02
 -1      5354-7.48024E-01 1.79213E-06 8.81343E-01 4.56323E-06-7.98720E-08 2.84453E-02
 -1      5355-7.48024E-01 1.79213E-06 8.81343E-01 4.56323E-06-1.96007E-16-1.96803E-17
 -1      5356-7.48024E-01 1.79213E-06 8.81343E-01 4.56323E-06 7.98720E-08-2.84453E-02
 -1      5357-6.49871E-01-2.99380E-06 7.83245E-01 1.74379E-05-3.04005E-07 2.50192E-02
 -1      5358-6.49871E-01-2.99380E-06 7.83245E-01 1.74379E-05-1.17498E-17 7.36491E-16
 -1      5359-6.49871E-01-2.99380E-06 7.83245E-01 1.74379E-05 3.04005E-07-2.50192E-02
 -1      5360-5.55995E-01 7.59555E-06 6.89386E-01-6.88770E-06 1.20715E-07 2.17409E-02
 -1      5361-5.55995E-01 7.59555E-06 6.89386E-01-6.88770E-06 4.25996E-17-8.38088E-16
 -1      5362-5.55995E-01 7.59555E-06 6.89386E-01-6.88770E-06-1.20715E-07-2.17409E-02
 -1      5363-4.86525E-01 1.28756E-06 6.19861E-01-1.11596E-06 1.95099E-08 1.93140E-02
 -1      5364-4.86525E-01 1.28756E-06 6.19861E-01-1.11596E-06-9.61777E-17 1.09076E-15
 -1      5365-4.86525E-01 1.28756E-06 6.19861E-01-1.11596E-06-1.95099E-08-1.93140E-02
 -1      5366-4.28322E-01 7.18993E-07 5.61655E-01-6.72202E-07 1.17582E-08 1.72817E-02
 -1      5367-4.28322E-01 7.18993E-07 5.61655E-01-6.72202E-07-2.00155E-17 1.63163E-16
 -1      5368-4.28322E-01 7.18993E-07 5.61655E-01-6.72202E-07-1.17582E-08-1.72817E-02
 -1      5369-3.78891E-01 2.60324E-07 5.12224E-01-2.62582E-08 4.71457E-10 1.55557E-02
 -1      5370-3.78891E-01 2.60324E-07 5.12224E-01-2.62582E-08-2.78943E-17-5.99700E-16
 -1      5371-3.78891E-01 2.60324E-07 5.12224E-01-2.62582E-08-4.71457E-10-1.55557E-02
 -1      5372-3.36518E-01 4.66277E-07 4.69850E-01-3.95533E-08 6.94239E-10 1.40762E-02
 -1      5373-3.36518E-01 4.66277E-07 4.69850E-01-3.95533E-08-3.02150E-18 5.78740E-16
 -1      5374-3.36518E-01 4.66277E-07 4.69850E-01-3.95533E-08-6.94239E-10-1.40762E-02
 -1      5375-2.99936E-01 3.04940E-07 4.33269E-01-1.11851E-07 1.96289E-09 1.27990E-02
 -1      5376-2.99936E-01 3.04940E-07 4.33269E-01-1.11851E-07-4.69133E-17-1.05523E-15
 -1      5377-2.99936E-01 3.04940E-07 4.33269E-01-1.11851E-07-1.96289E-09-1.27990E-02
 -1      5378-2.68138E-01 1.81013E-07 4.01470E-01-3.74473E-08 6.65147E-10 1.16888E-02
 -1      5379-2.68138E-01 1.81013E-07 4.01470E-01-3.74473E-08-1.82307E-17-1.11979E-16
 -1      5380-2.68138E-01 1.81013E-07 4.01470E-01-3.74473E-08-6.65147E-10-1.16888E-02
 -1      5381-2.40339E-01 3.20560E-07 3.73671E-01-4.30383E-08 7.57278E-10 1.07182E-02
 -1      5382-2.40339E-01 3.20560E-07 3.73671E-01-4.30383E-08 2.24728E-16-1.07539E-15
 -1      5383-2.40339E-01 3.20560E-07 3.73671E-01-4.30383E-08-7.57278E-10-1.07182E-02
 -1      5384-2.15889E-01 1.97936E-07 3.49221E-01-4.91930E-08 8.67963E-10 9.86453E-03
 -1      5385-2.15889E-01 1.97936E-07 3.49221E-01-4.91930E-08-6.98625E-17-1.19383E-15
 -1      5386-2.15889E-01 1.97936E-07 3.49221E-01-4.91930E-08-8.67963E-10-9.86453E-03
 -1      5387-1.94256E-01 1.06092E-07 3.27588E-01 8.71460E-09-1.43439E-10 9.10924E-03
 -1      5388-1.94256E-01 1.06092E-07 3.27588E-01 8.71460E-09 4.60842E-17 1.17079E-15
 -1      5389-1.94256E-01 1.06092E-07 3.27588E-01 8.71460E-09 1.43439E-10-9.10924E-03
 -1      5390-1.75024E-01 1.82344E-07 3.08356E-01 2.97873E-09-4.77527E-11 8.43779E-03
 -1      5391-1.75024E-01 1.82344E-07 3.08356E-01 2.97873E-09 3.79592E-18-3.32307E-16
 -1      5392-1.75024E-01 1.82344E-07 3.08356E-01 2.97873E-09 4.77527E-11-8.43779E-03
 -1      5393-1.57848E-01 1.08638E-07 2.91180E-01-1.07707E-08 1.94392E-10 7.83812E-03
 -1      5394-1.57848E-01 1.08638E-07 2.91180E-01-1.07707E-08-7.09782E-17-6.87412E-16
 -1      5395-1.57848E-01 1.08638E-07 2.91180E-01-1.07707E-08-1.94392E-10-7.83812E-03
 -1      5396-1.42440E-01 5.39340E-08 2.75772E-01 1.36042E-08-2.31423E-10 7.30019E-03
 -1      5397-1.42440E-01 5.39340E-08 2.75772E-01 1.36042E-08 2.98144E-17-6.08980E-16
 -1      5398-1.42440E-01 5.39340E-08 2.75772E-01 1.36042E-08 2.31423E-10-7.30019E-03
 -1      5399-1.28574E-01 1.07170E-07 2.61906E-01 6.94374E-09-1.18638E-10 6.81608E-03
 -1      5400-1.28574E-01 1.07170E-07 2.61906E-01 6.94374E-09 9.65482E-17 3.37998E-16
 -1      5401-1.28574E-01 1.07170E-07 2.61906E-01 6.94374E-09 1.18638E-10-6.81608E-03
 -1      5402-1.16051E-01 8.86598E-08 2.49383E-01-3.31380E-10 7.77948E-12 6.37888E-03
 -1      5403-1.16051E-01 8.86598E-08 2.49383E-01-3.31379E-10-7.16387E-17-3.10412E-16
 -1      5404-1.16051E-01 8.86598E-08 2.49383E-01-3.31378E-10-7.77962E-12-6.37888E-03
 -1      5405-1.04686E-01 5.47416E-08 2.38018E-01-7.35350E-10 1.67258E-11 5.98211E-03
 -1      5406-1.04686E-01 5.47416E-08 2.38018E-01-7.35350E-10 8.12212E-17-2.27922E-16
 -1      5407-1.04686E-01 5.47416E-08 2.38018E-01-7.35350E-10-1.67256E-11-5.98211E-03
 -1      5408-9.43395E-02 3.19764E-08 2.27672E-01 1.17563E-08-2.01418E-10 5.62088E-03
 -1      5409-9.43395E-02 3.19764E-08 2.27672E-01 1.17563E-08 2.22366E-17 6.37629E-18
 -1      5410-9.43395E-02 3.19764E-08 2.27672E-01 1.17563E-08 2.01418E-10-5.62088E-03
 -1      5411-8.48994E-02 6.72239E-08 2.18231E-01 4.65292E-09-7.94652E-11 5.29131E-03
 -1      5412-8.48994E-02 6.72239E-08 2.18231E-01 4.65292E-09-1.00664E-16 6.60005E-16
 -1      5413-8.48994E-02 6.72239E-08 2.18231E-01 4.65292E-09 7.94650E-11-5.29131E-03
 -1      5414-7.62649E-02 4.22324E-08 2.09597E-01-1.55003E-09 3.00711E-11 4.98986E-03
 -1      5415-7.62649E-02 4.22324E-08 2.09597E-01-1.55003E-09 7.12889E-17 1.62836E-16
 -1      5416-7.62649E-02 4.22324E-08 2.09597E-01-1.55003E-09-3.00709E-11-4.98986E-03
 -1      5417-6.83468E-02 2.34891E-08 2.01679E-01 9.45065E-09-1.61906E-10 4.71342E-03
 -1      5418-6.83468E-02 2.34891E-08 2.01679E-01 9.45065E-09 1.57760E-17 7.50359E-16
 -1      5419-6.83468E-02 2.34891E-08 2.01679E-01 9.45065E-09 1.61906E-10-4.71342E-03
 -1      5420-6.10726E-02 4.76152E-08 1.94405E-01 5.23246E-09-8.96835E-11 4.45947E-03
 -1      5421-6.10726E-02 4.76152E-08 1.94405E-01 5.23246E-09-1.08225E-16-4.43686E-16
 -1      5422-6.10726E-02 4.76152E-08 1.94405E-01 5.23246E-09 8.96833E-11-4.45947E-03
 -1      5423-5.43758E-02 2.97552E-08 1.87708E-01 9.00034E-10-1.29023E-11 4.22567E-03
 -1      5424-5.43758E-02 2.97552E-08 1.87708E-01 9.00034E-10 2.65883E-17-1.23397E-15
 -1      5425-5.43758E-02 2.97552E-08 1.87708E-01 9.00034E-10 1.29024E-11-4.22567E-03
 -1      5426-4.81967E-02 1.63920E-08 1.81529E-01 8.63222E-09-1.47547E-10 4.00995E-03
 -1      5427-4.81967E-02 1.63920E-08 1.81529E-01 8.63222E-09 3.27363E-18-9.25624E-17
 -1      5428-4.81967E-02 1.63920E-08 1.81529E-01 8.63223E-09 1.47547E-10-4.00995E-03
 -1      5429-4.24870E-02 3.52382E-08 1.75819E-01 5.79840E-09-9.88414E-11 3.81062E-03
 -1      5430-4.24870E-02 3.52382E-08 1.75819E-01 5.79839E-09-9.53077E-17-1.18462E-16
 -1      5431-4.24870E-02 3.52382E-08 1.75819E-01 5.79839E-09 9.88413E-11-3.81062E-03
 -1      5432-3.72006E-02 2.35058E-08 1.70533E-01 3.33219E-09-5.44949E-11 3.62606E-03
 -1      5433-3.72006E-02 2.35058E-08 1.70533E-01 3.33219E-09 7.30638E-18-3.90166E-16
 -1      5434-3.72006E-02 2.35058E-08 1.70533E-01 3.33219E-09 5.44949E-11-3.62606E-03
 -1      5435-3.22937E-02 1.22112E-08 1.65626E-01 8.57139E-09-1.45354E-10 3.45476E-03
 -1      5436-3.22937E-02 1.22112E-08 1.65626E-01 8.57139E-09-2.72522E-17 5.03314E-17
 -1      5437-3.22937E-02 1.22112E-08 1.65626E-01 8.57140E-09 1.45354E-10-3.45476E-03
 -1      5438-2.77293E-02 2.58213E-08 1.61061E-01 4.39702E-09-7.28955E-11 3.29541E-03
 -1      5439-2.77293E-02 2.58213E-08 1.61061E-01 4.39702E-09 5.38054E-17 4.40769E-16
 -1      5440-2.77293E-02 2.58213E-08 1.61061E-01 4.39702E-09 7.28956E-11-3.29541E-03
 -1      5441-2.34698E-02 2.14233E-08 1.56802E-01 2.31751E-09-3.54063E-11 3.14670E-03
 -1      5442-2.34698E-02 2.14233E-08 1.56802E-01 2.31751E-09 1.56123E-17 2.08736E-17
 -1      5443-2.34698E-02 2.14233E-08 1.56802E-01 2.31751E-09 3.54064E-11-3.14670E-03
 -1      5444-1.94705E-02 2.77548E-08 1.52803E-01 1.43436E-08-2.44904E-10 3.00708E-03
 -1      5445-1.94705E-02 2.77548E-08 1.52803E-01 1.43436E-08-9.33119E-18 1.82946E-16
 -1      5446-1.94705E-02 2.77548E-08 1.52803E-01 1.43436E-08 2.44904E-10-3.00708E-03
 -1      5447-1.56750E-02 6.02480E-08 1.49007E-01 2.09360E-08-3.61212E-10 2.87458E-03
 -1      5448-1.56750E-02 6.02480E-08 1.49007E-01 2.09360E-08 1.29420E-17 9.85897E-17
 -1      5449-1.56750E-02 6.02480E-08 1.49007E-01 2.09360E-08 3.61212E-10-2.87458E-03
 -1      5450-1.19846E-02 1.01417E-07 1.45317E-01-9.87588E-08 1.72270E-09 2.74576E-03
 -1      5451-1.19846E-02 1.01417E-07 1.45317E-01-9.87588E-08-6.95352E-17 2.40566E-16
 -1      5452-1.19846E-02 1.01417E-07 1.45317E-01-9.87588E-08-1.72270E-09-2.74576E-03
 -1      5453-8.15058E-03 1.75258E-08 1.41483E-01-5.62472E-08 9.81935E-10 2.61191E-03
 -1      5454-8.15058E-03 1.75258E-08 1.41483E-01-5.62472E-08-1.04341E-17 1.01674E-16
 -1      5455-8.15058E-03 1.75258E-08 1.41483E-01-5.62472E-08-9.81935E-10-2.61191E-03
 -1      5456-2.37957E-01 1.81764E-07 3.71289E-01-2.81300E-08 4.89547E-10 1.06350E-02
 -1      5457-2.37957E-01 1.81764E-07 3.71289E-01-2.81300E-08-1.18696E-17 7.12385E-16
 -1      5458-2.37957E-01 1.81764E-07 3.71289E-01-2.81300E-08-4.89547E-10-1.06350E-02
 -1      5459-7.52081E-01-2.36677E-06 8.85417E-01 7.93073E-07-1.37160E-08 2.85872E-02
 -1      5460-7.52081E-01-2.36677E-06 8.85417E-01 7.93073E-07-2.71082E-16 3.08411E-15
 -1      5461-7.52081E-01-2.36677E-06 8.85417E-01 7.93073E-07 1.37160E-08-2.85872E-02
 -1      5462-7.47970E-01 9.93340E-06 8.81347E-01 1.19755E-05-2.08552E-07 2.84446E-02
 -1      5463-7.47970E-01 9.93340E-06 8.81347E-01 1.19755E-05-3.40774E-17-1.35194E-15
 -1      5464-7.47970E-01 9.93340E-06 8.81347E-01 1.19755E-05 2.08552E-07-2.84446E-02
 -1      5465-7.54329E-01-2.40926E-06 8.87666E-01 6.07151E-08-1.03291E-09 2.86656E-02
 -1      5466-7.54329E-01-2.40926E-06 8.87666E-01 6.07151E-08 1.34551E-16-1.74795E-15
 -1      5467-7.54329E-01-2.40926E-06 8.87666E-01 6.07151E-08 1.03291E-09-2.86656E-02
 -1      5468-7.54686E-01-2.29499E-06 8.88023E-01-1.92275E-07 3.35156E-09 2.86780E-02
 -1      5469-7.54686E-01-2.29499E-06 8.88023E-01-1.92275E-07-1.07557E-17-4.47960E-15
 -1      5470-7.54686E-01-2.29499E-06 8.88023E-01-1.92275E-07-3.35156E-09-2.86780E-02
 -1      5471-7.54528E-01-2.20973E-06 8.87866E-01-1.49613E-07 2.60748E-09 2.86725E-02
 -1      5472-7.54528E-01-2.20973E-06 8.87866E-01-1.49613E-07 4.45274E-17 7.42511E-16
 -1      5473-7.54528E-01-2.20973E-06 8.87866E-01-1.49613E-07-2.60748E-09-2.86725E-02
 -1      5474-7.54514E-01-2.27932E-06 8.87853E-01 1.64501E-07-2.87275E-09 2.86721E-02
 -1      5475-7.54514E-01-2.27932E-06 8.87853E-01 1.64502E-07-4.15897E-17-1.11277E-15
 -1      5476-7.54514E-01-2.27932E-06 8.87853E-01 1.64502E-07 2.87275E-09-2.86721E-02
 -1      5477-7.55183E-01-1.48530E-06 8.88516E-01 2.05476E-07-3.53326E-09 2.86953E-02
 -1      5478-7.55183E-01-1.48530E-06 8.88516E-01 2.05476E-07-8.89868E-17-9.95472E-16
 -1      5479-7.55183E-01-1.48530E-06 8.88516E-01 2.05476E-07 3.53326E-09-2.86953E-02
 -1      5480-7.52918E-01-3.29241E-06 8.86260E-01 3.14608E-07-5.73083E-09 2.86164E-02
 -1      5481-7.52918E-01-3.29241E-06 8.86260E-01 3.14608E-07-1.55128E-17 5.10834E-16
 -1      5482-7.52918E-01-3.29241E-06 8.86260E-01 3.14608E-07 5.73083E-09-2.86164E-02
 -1      5483-7.48725E-01-2.83195E-06 8.82051E-01-2.95433E-07 5.25281E-09 2.84699E-02
 -1      5484-7.48725E-01-2.83195E-06 8.82051E-01-2.95433E-07 6.39901E-17-2.84823E-15
 -1      5485-7.48725E-01-2.83195E-06 8.82051E-01-2.95433E-07-5.25281E-09-2.84699E-02
 -1      5486-2.65362E-01 1.66952E-07 3.98694E-01 4.55606E-08-8.04046E-10 1.15918E-02
 -1      5487-2.65362E-01 1.66952E-07 3.98694E-01 4.55606E-08-9.98041E-18-3.63897E-16
 -1      5488-2.65362E-01 1.66952E-07 3.98694E-01 4.55606E-08 8.04046E-10-1.15918E-02
 -1      5489-1.92449E-01 1.38836E-08 3.25781E-01-1.54257E-08 2.67176E-10 9.04615E-03
 -1      5490-1.92449E-01 1.38836E-08 3.25781E-01-1.54257E-08-6.20120E-18 3.51643E-16
 -1      5491-1.92449E-01 1.38836E-08 3.25781E-01-1.54258E-08-2.67176E-10-9.04615E-03
 -1      5492-1.56405E-01-6.57684E-10 2.89737E-01-1.56692E-09 2.57508E-11 7.78776E-03
 -1      5493-1.56405E-01-6.57684E-10 2.89737E-01-1.56692E-09-2.07669E-18-3.41881E-16
 -1      5494-1.56405E-01-6.57685E-10 2.89737E-01-1.56692E-09-2.57508E-11-7.78776E-03
 -1      5495-1.27403E-01 2.53919E-08 2.60735E-01 1.11026E-08-1.92009E-10 6.77522E-03
 -1      5496-1.27403E-01 2.53919E-08 2.60735E-01 1.11026E-08-2.16051E-18 4.27045E-16
 -1      5497-1.27403E-01 2.53919E-08 2.60735E-01 1.11026E-08 1.92009E-10-6.77522E-03
 -1      5498-1.03727E-01 9.66210E-10 2.37059E-01-4.19164E-09 7.22265E-11 5.94862E-03
 -1      5499-1.03727E-01 9.66209E-10 2.37059E-01-4.19164E-09-5.54234E-19-2.62571E-16
 -1      5500-1.03727E-01 9.66208E-10 2.37059E-01-4.19164E-09-7.22265E-11-5.94862E-03
 -1      5501-8.41041E-02 1.45928E-08 2.17436E-01 2.91509E-10-4.00289E-12 5.26354E-03
 -1      5502-8.41041E-02 1.45928E-08 2.17436E-01 2.91508E-10-2.19015E-17 5.13085E-16
 -1      5503-8.41041E-02 1.45928E-08 2.17436E-01 2.91508E-10 4.00285E-12-5.26354E-03
 -1      5504-6.76698E-02-3.86479E-09 2.01002E-01 3.14553E-09-5.52810E-11 4.68979E-03
 -1      5505-6.76698E-02-3.86479E-09 2.01002E-01 3.14553E-09 1.45244E-17 3.25651E-16
 -1      5506-6.76698E-02-3.86479E-09 2.01002E-01 3.14553E-09 5.52811E-11-4.68979E-03
 -1      5507-5.37631E-02-5.29228E-09 1.87095E-01 2.29594E-10-3.87686E-12 4.20429E-03
 -1      5508-5.37631E-02-5.29228E-09 1.87095E-01 2.29594E-10-1.17240E-17 5.26125E-16
 -1      5509-5.37631E-02-5.29228E-09 1.87095E-01 2.29593E-10 3.87684E-12-4.20429E-03
 -1      5510-4.18768E-02 7.35347E-10 1.75209E-01 4.91782E-09-8.36131E-11 3.78931E-03
 -1      5511-4.18768E-02 7.35347E-10 1.75209E-01 4.91782E-09-1.69767E-17 2.71853E-16
 -1      5512-4.18768E-02 7.35346E-10 1.75209E-01 4.91782E-09 8.36131E-11-3.78931E-03
 -1      5513-3.16603E-02-2.27908E-09 1.64992E-01 8.63704E-09-1.47911E-10 3.43264E-03
 -1      5514-3.16603E-02-2.27908E-09 1.64992E-01 8.63704E-09 1.19721E-17-7.72211E-16
 -1      5515-3.16603E-02-2.27908E-09 1.64992E-01 8.63704E-09 1.47911E-10-3.43264E-03
 -1      5516-2.28531E-02-1.92216E-08 1.56185E-01 1.33295E-08-2.26783E-10 3.12517E-03
 -1      5517-2.28531E-02-1.92216E-08 1.56185E-01 1.33295E-08-8.14115E-19-1.08143E-16
 -1      5518-2.28531E-02-1.92216E-08 1.56185E-01 1.33295E-08 2.26783E-10-3.12517E-03
 -1      5519-1.54301E-02-5.22604E-08 1.48762E-01-1.95102E-07 3.37901E-09 2.86602E-03
 -1      5520-1.54301E-02-5.22604E-08 1.48762E-01-1.95102E-07-4.71660E-18 3.92415E-17
 -1      5521-1.54301E-02-5.22604E-08 1.48762E-01-1.95102E-07-3.37901E-09-2.86602E-03
 -1      5522-8.76227E-03 6.92799E-09 1.42095E-01 1.08874E-07-1.89207E-09 2.63326E-03
 -1      5523-8.76227E-03 6.92799E-09 1.42095E-01 1.08874E-07-8.25421E-18-4.95332E-17
 -1      5524-8.76227E-03 6.92799E-09 1.42095E-01 1.08874E-07 1.89207E-09-2.63326E-03
 -1      5525-4.81504E-03-1.63099E-09 1.38147E-01 6.10521E-10-6.32576E-12 2.49544E-03
 -1      5526-4.81504E-03-1.63098E-09 1.38147E-01 6.10522E-10 1.75733E-17-2.04922E-16
 -1      5527-4.81504E-03-1.63098E-09 1.38147E-01 6.10522E-10 6.32579E-12-2.49544E-03
 -1      5528-4.86840E-03-9.18439E-10 1.38200E-01 5.40022E-09-9.38604E-11 2.49731E-03
 -1      5529-4.86840E-03-9.18439E-10 1.38200E-01 5.40022E-09-4.24440E-18 5.56415E-17
 -1      5530-4.86840E-03-9.18439E-10 1.38200E-01 5.40022E-09 9.38604E-11-2.49731E-03
 -1      5531-4.87574E-03-3.65406E-09 1.38208E-01-3.90115E-09 6.73697E-11 2.49756E-03
 -1      5532-4.87574E-03-3.65406E-09 1.38208E-01-3.90115E-09 1.61367E-17-2.81510E-16
 -1      5533-4.87574E-03-3.65406E-09 1.38208E-01-3.90115E-09-6.73697E-11-2.49756E-03
 -1      5534-4.86018E-03-2.26829E-09 1.38192E-01 8.82869E-10-1.59336E-11 2.49702E-03
 -1      5535-4.86018E-03-2.26829E-09 1.38192E-01 8.82869E-10 3.90866E-17-1.14180E-16
 -1      5536-4.86018E-03-2.26829E-09 1.38192E-01 8.82870E-10 1.59337E-11-2.49702E-03
 -1      5537-4.85702E-03-2.25762E-09 1.38189E-01 1.56644E-09-2.71036E-11 2.49691E-03
 -1      5538-4.85702E-03-2.25762E-09 1.38189E-01 1.56644E-09-1.37185E-17 5.23902E-17
 -1      5539-4.85702E-03-2.25762E-09 1.38189E-01 1.56644E-09 2.71035E-11-2.49691E-03
 -1      5540-4.85070E-03-4.13750E-09 1.38183E-01 1.43274E-09-2.56996E-11 2.49669E-03
 -1      5541-4.85070E-03-4.13750E-09 1.38183E-01 1.43274E-09 3.67563E-19 7.32800E-17
 -1      5542-4.85070E-03-4.13750E-09 1.38183E-01 1.43274E-09 2.56996E-11-2.49669E-03
 -1      5543-4.81422E-03-1.79527E-08 1.38146E-01-4.79430E-09 8.19018E-11 2.49541E-03
 -1      5544-4.81422E-03-1.79527E-08 1.38146E-01-4.79430E-09 5.87996E-18 2.11665E-16
 -1      5545-4.81422E-03-1.79527E-08 1.38146E-01-4.79430E-09-8.19018E-11-2.49541E-03
 -1      5546-4.81477E-03-1.49175E-08 1.38147E-01-9.28443E-09 1.62802E-10 2.49543E-03
 -1      5547-4.81477E-03-1.49175E-08 1.38147E-01-9.28443E-09 1.77343E-17-2.52771E-16
 -1      5548-4.81477E-03-1.49175E-08 1.38147E-01-9.28443E-09-1.62802E-10-2.49543E-03
 -1      5549-5.04789E-03 1.00473E-07 1.38380E-01-1.68556E-07 2.97047E-09 2.50358E-03
 -1      5550-5.04789E-03 1.00473E-07 1.38380E-01-1.68556E-07 1.24391E-17 1.26093E-16
 -1      5551-5.04789E-03 1.00473E-07 1.38380E-01-1.68556E-07-2.97047E-09-2.50358E-03
 -1      5552-2.02799E-01 1.53423E-08 3.36131E-01-3.48477E-08 6.07361E-10 9.40750E-03
 -1      5553-2.02799E-01 1.53423E-08 3.36131E-01-3.48477E-08-7.27924E-18-1.26133E-15
 -1      5554-2.02799E-01 1.53423E-08 3.36131E-01-3.48477E-08-6.07361E-10-9.40750E-03
 -1      5555-7.97259E-02 3.71472E-09 2.13058E-01-1.34805E-09 2.35758E-11 5.11069E-03
 -1      5556-7.97259E-02 3.71472E-09 2.13058E-01-1.34805E-09 5.25900E-18 5.32687E-17
 -1      5557-7.97259E-02 3.71472E-09 2.13058E-01-1.34805E-09-2.35758E-11-5.11069E-03
 -1      5558-6.55851E-01 3.07562E-06 7.89188E-01 5.19452E-07-8.90577E-09 2.52270E-02
 -1      5559-6.55851E-01 3.07562E-06 7.89188E-01 5.19452E-07 5.63136E-18-1.37920E-16
 -1      5560-6.55851E-01 3.07562E-06 7.89188E-01 5.19452E-07 8.90577E-09-2.52270E-02
 -1      5561-6.63372E-01-1.04664E-06 7.96703E-01-7.56253E-08 1.32230E-09 2.54892E-02
 -1      5562-6.63372E-01-1.04664E-06 7.96703E-01-7.56253E-08-2.13197E-16-3.86328E-16
 -1      5563-6.63372E-01-1.04664E-06 7.96703E-01-7.56253E-08-1.32230E-09-2.54892E-02
 -1      5564-6.63389E-01-8.75134E-07 7.96722E-01-1.13011E-07 1.96391E-09 2.54898E-02
 -1      5565-6.63389E-01-8.75134E-07 7.96722E-01-1.13011E-07-6.02404E-17 1.74391E-15
 -1      5566-6.63389E-01-8.75134E-07 7.96722E-01-1.13011E-07-1.96391E-09-2.54898E-02
 -1      5567-6.63169E-01-7.97498E-07 7.96502E-01-1.84255E-07 3.21264E-09 2.54821E-02
 -1      5568-6.63169E-01-7.97498E-07 7.96502E-01-1.84255E-07-5.10547E-17 1.73094E-17
 -1      5569-6.63169E-01-7.97498E-07 7.96502E-01-1.84255E-07-3.21264E-09-2.54821E-02
 -1      5570-7.50504E-03 4.96608E-09 1.40837E-01-3.30043E-10 6.52787E-12 2.58935E-03
 -1      5571-7.50504E-03 4.96608E-09 1.40837E-01-3.30043E-10-1.15571E-17 6.44259E-17
 -1      5572-7.50504E-03 4.96608E-09 1.40837E-01-3.30042E-10-6.52789E-12-2.58935E-03
 -1      5573-2.51058E-01 1.99897E-07 3.84390E-01 4.42448E-09-8.67522E-11 1.10924E-02
 -1      5574-2.51058E-01 1.99897E-07 3.84390E-01 4.42448E-09 3.84495E-18-7.89610E-16
 -1      5575-2.51058E-01 1.99897E-07 3.84390E-01 4.42449E-09 8.67522E-11-1.10924E-02
 -1      5576-6.63631E-01-1.20271E-06 7.96967E-01 1.27329E-06-2.21850E-08 2.54983E-02
 -1      5577-6.63631E-01-1.20271E-06 7.96967E-01 1.27329E-06 7.04163E-18 6.41175E-16
 -1      5578-6.63631E-01-1.20271E-06 7.96967E-01 1.27329E-06 2.21850E-08-2.54983E-02
 -1      5579-6.63311E-01-2.50040E-06 7.96646E-01-1.32944E-06 2.29951E-08 2.54871E-02
 -1      5580-6.63311E-01-2.50040E-06 7.96646E-01-1.32944E-06 2.51926E-17-4.62627E-15
 -1      5581-6.63311E-01-2.50040E-06 7.96646E-01-1.32944E-06-2.29951E-08-2.54871E-02
 -1      5582-6.58859E-01 1.27331E-06 7.92201E-01-5.45415E-07 8.97258E-09 2.53320E-02
 -1      5583-6.58859E-01 1.27331E-06 7.92201E-01-5.45415E-07 4.92405E-17 3.46705E-15
 -1      5584-6.58859E-01 1.27331E-06 7.92201E-01-5.45415E-07-8.97258E-09-2.53320E-02
 -1      5585-6.63256E-01-8.56213E-07 7.96589E-01-2.09646E-07 3.65613E-09 2.54852E-02
 -1      5586-6.63256E-01-8.56213E-07 7.96589E-01-2.09646E-07-4.40742E-17 1.98577E-16
 -1      5587-6.63256E-01-8.56213E-07 7.96589E-01-2.09646E-07-3.65613E-09-2.54852E-02
 -1      5588-6.54835E-01 1.68394E-06 7.88151E-01-2.90370E-07 4.85406E-09 2.51911E-02
 -1      5589-6.54835E-01 1.68394E-06 7.88151E-01-2.90370E-07 9.92278E-18 3.21109E-15
 -1      5590-6.54835E-01 1.68394E-06 7.88151E-01-2.90370E-07-4.85406E-09-2.51911E-02
 -1      5591-6.62756E-01-1.40994E-06 7.96088E-01 1.33629E-08-2.01052E-10 2.54677E-02
 -1      5592-6.62756E-01-1.40994E-06 7.96088E-01 1.33629E-08-3.72933E-17-1.69655E-15
 -1      5593-6.62756E-01-1.40994E-06 7.96088E-01 1.33629E-08 2.01052E-10-2.54677E-02
 -1      5594-7.53448E-03-2.17555E-09 1.40867E-01-8.82939E-10 1.38396E-11 2.59038E-03
 -1      5595-7.53448E-03-2.17555E-09 1.40867E-01-8.82940E-10-2.81881E-17 1.94816E-16
 -1      5596-7.53448E-03-2.17555E-09 1.40867E-01-8.82941E-10-1.38397E-11-2.59038E-03
 -1      5597-1.64674E-01 3.34440E-09 2.98006E-01 3.82514E-09-6.70283E-11 8.07646E-03
 -1      5598-1.64674E-01 3.34440E-09 2.98006E-01 3.82514E-09-3.27963E-18 5.88075E-16
 -1      5599-1.64674E-01 3.34440E-09 2.98006E-01 3.82514E-09 6.70282E-11-8.07646E-03
 -1      5600-2.80234E-01 3.27599E-07 4.13567E-01 1.53907E-07-2.70645E-09 1.21111E-02
 -1      5601-2.80234E-01 3.27599E-07 4.13567E-01 1.53907E-07-2.94976E-18 4.33871E-17
 -1      5602-2.80234E-01 3.27599E-07 4.13567E-01 1.53907E-07 2.70645E-09-1.21111E-02
 -1      5603-1.34101E-01 1.39543E-08 2.67433E-01 1.38037E-08-2.40849E-10 7.00905E-03
 -1      5604-1.34101E-01 1.39543E-08 2.67433E-01 1.38037E-08-1.21067E-17-7.88009E-16
 -1      5605-1.34101E-01 1.39543E-08 2.67433E-01 1.38037E-08 2.40849E-10-7.00905E-03
 -1      5606-1.09220E-01 1.23507E-08 2.42552E-01-8.21658E-10 1.44860E-11 6.14041E-03
 -1      5607-1.09220E-01 1.23507E-08 2.42552E-01-8.21658E-10-4.37275E-18-1.07871E-15
 -1      5608-1.09220E-01 1.23507E-08 2.42552E-01-8.21658E-10-1.44860E-11-6.14041E-03
 -1      5609-8.86805E-02 5.70843E-09 2.22013E-01 1.76788E-09-3.09155E-11 5.42332E-03
 -1      5610-8.86805E-02 5.70843E-09 2.22013E-01 1.76788E-09-1.92604E-19-4.42296E-16
 -1      5611-8.86805E-02 5.70843E-09 2.22013E-01 1.76788E-09 3.09155E-11-5.42332E-03
 -1      5612-6.39749E-02 4.56870E-10 1.97307E-01 2.03622E-09-3.54119E-11 4.56080E-03
 -1      5613-6.39749E-02 4.56869E-10 1.97307E-01 2.03622E-09 1.95651E-18 9.57467E-17
 -1      5614-6.39749E-02 4.56868E-10 1.97307E-01 2.03622E-09 3.54119E-11-4.56080E-03
 -1      5615-5.05980E-02-2.69348E-09 1.83930E-01 2.50843E-09-4.35243E-11 4.09379E-03
 -1      5616-5.05980E-02-2.69348E-09 1.83930E-01 2.50843E-09 1.56197E-18-9.56676E-16
 -1      5617-5.05980E-02-2.69348E-09 1.83930E-01 2.50843E-09 4.35243E-11-4.09379E-03
 -1      5618-3.91238E-02-5.18039E-09 1.72456E-01 1.08984E-08-1.86587E-10 3.69321E-03
 -1      5619-3.91238E-02-5.18039E-09 1.72456E-01 1.08984E-08 3.96874E-18 3.63841E-16
 -1      5620-3.91238E-02-5.18039E-09 1.72456E-01 1.08984E-08 1.86587E-10-3.69321E-03
 -1      5621-7.49858E-03-4.57068E-08 1.40831E-01-6.43697E-09 1.10544E-10 2.58913E-03
 -1      5622-7.49858E-03-4.57068E-08 1.40831E-01-6.43697E-09-2.48890E-17 2.61715E-16
 -1      5623-7.49858E-03-4.57068E-08 1.40831E-01-6.43697E-09-1.10544E-10-2.58913E-03
 -1      5624-2.47669E-02-1.08172E-08 1.58099E-01 9.31154E-09-1.51917E-10 3.19199E-03
 -1      5625-2.47669E-02-1.08172E-08 1.58099E-01 9.31154E-09-9.98338E-18 5.00655E-16
 -1      5626-2.47669E-02-1.08172E-08 1.58099E-01 9.31154E-09 1.51917E-10-3.19199E-03
 -1      5627-1.69374E-02-3.22872E-08 1.50269E-01-9.16347E-09 2.13391E-10 2.91863E-03
 -1      5628-1.69374E-02-3.22872E-08 1.50269E-01-9.16348E-09 7.72928E-18 3.90989E-16
 -1      5629-1.69374E-02-3.22872E-08 1.50269E-01-9.16348E-09-2.13391E-10-2.91863E-03
 -1      5630-6.57843E-01 3.98544E-07 7.91093E-01-8.77304E-06 1.52141E-07 2.52948E-02
 -1      5631-6.57843E-01 3.98544E-07 7.91093E-01-8.77304E-06 8.89734E-17 1.03972E-15
 -1      5632-6.57843E-01 3.98544E-07 7.91093E-01-8.77304E-06-1.52141E-07-2.52948E-02
 -1      5633-7.35405E-03-1.40425E-08 1.40686E-01-1.53368E-08 2.79622E-10 2.58408E-03
 -1      5634-7.35405E-03-1.40425E-08 1.40686E-01-1.53368E-08-1.49768E-19 1.51325E-16
 -1      5635-7.35405E-03-1.40425E-08 1.40686E-01-1.53368E-08-2.79622E-10-2.58408E-03
 -1      5636-2.92181E-02 4.20399E-09 1.62550E-01 1.24190E-08-2.11656E-10 3.34738E-03
 -1      5637-2.92181E-02 4.20399E-09 1.62550E-01 1.24190E-08 1.58155E-17-4.21860E-16
 -1      5638-2.92181E-02 4.20399E-09 1.62550E-01 1.24190E-08 2.11656E-10-3.34738E-03
 -1      5639-7.54791E-03-2.65875E-09 1.40880E-01-6.00939E-09 1.03445E-10 2.59085E-03
 -1      5640-7.54791E-03-2.65875E-09 1.40880E-01-6.00939E-09 1.13709E-19-3.69260E-16
 -1      5641-7.54791E-03-2.65875E-09 1.40880E-01-6.00939E-09-1.03445E-10-2.59085E-03
 -1      5642-7.54865E-03 5.41173E-09 1.40881E-01 7.75786E-10-1.38685E-11 2.59088E-03
 -1      5643-7.54865E-03 5.41173E-09 1.40881E-01 7.75786E-10 3.06273E-17-1.34603E-16
 -1      5644-7.54865E-03 5.41173E-09 1.40881E-01 7.75785E-10 1.38686E-11-2.59088E-03
 -1      5645-7.41486E-03 6.30563E-08 1.40747E-01-7.74047E-09 1.49361E-10 2.58620E-03
 -1      5646-7.41486E-03 6.30563E-08 1.40747E-01-7.74047E-09-9.23818E-18 2.50811E-16
 -1      5647-7.41486E-03 6.30563E-08 1.40747E-01-7.74047E-09-1.49362E-10-2.58620E-03
 -1      5648-7.89559E-03 4.87438E-08 1.41227E-01-5.64268E-08 9.53279E-10 2.60299E-03
 -1      5649-7.89559E-03 4.87438E-08 1.41227E-01-5.64268E-08 6.38694E-18 5.17285E-16
 -1      5650-7.89559E-03 4.87438E-08 1.41227E-01-5.64268E-08-9.53279E-10-2.60299E-03
 -1      5651-7.50442E-03 4.72809E-09 1.40836E-01 2.63617E-09-4.64814E-11 2.58933E-03
 -1      5652-7.50442E-03 4.72809E-09 1.40836E-01 2.63617E-09 1.54062E-17 4.20117E-16
 -1      5653-7.50442E-03 4.72809E-09 1.40836E-01 2.63617E-09 4.64815E-11-2.58933E-03
 -1      5654-6.63158E-01-9.24384E-07 7.96493E-01 1.98325E-07-3.46867E-09 2.54818E-02
 -1      5655-6.63158E-01-9.24384E-07 7.96493E-01 1.98325E-07 1.84901E-17-3.95260E-15
 -1      5656-6.63158E-01-9.24384E-07 7.96493E-01 1.98325E-07 3.46867E-09-2.54818E-02
 -1      5657-7.51088E-03-5.78002E-09 1.40843E-01 1.04335E-09-1.76399E-11 2.58956E-03
 -1      5658-7.51088E-03-5.78003E-09 1.40843E-01 1.04335E-09-1.34258E-17-2.59390E-16
 -1      5659-7.51088E-03-5.78003E-09 1.40843E-01 1.04335E-09 1.76399E-11-2.58956E-03
 -1      5660-7.45137E-03 9.32499E-09 1.40783E-01-1.05636E-08 1.79544E-10 2.58748E-03
 -1      5661-7.45137E-03 9.32498E-09 1.40783E-01-1.05636E-08-1.74582E-17 2.10619E-16
 -1      5662-7.45137E-03 9.32498E-09 1.40783E-01-1.05636E-08-1.79544E-10-2.58748E-03
 -1      5663-7.36342E-03 1.14950E-08 1.40695E-01 3.77135E-09-7.66618E-11 2.58441E-03
 -1      5664-7.36342E-03 1.14950E-08 1.40695E-01 3.77135E-09-1.23572E-17 3.59649E-17
 -1      5665-7.36342E-03 1.14950E-08 1.40695E-01 3.77135E-09 7.66618E-11-2.58441E-03
 -1      5666-6.56891E-01-5.77361E-06 7.90163E-01-1.06033E-05 1.85657E-07 2.52618E-02
 -1      5667-6.56891E-01-5.77361E-06 7.90163E-01-1.06033E-05 1.97840E-17-1.37085E-15
 -1      5668-6.56891E-01-5.77361E-06 7.90163E-01-1.06033E-05-1.85657E-07-2.52618E-02
 -1      5669-6.61399E-01-1.16304E-06 7.94729E-01 3.46149E-07-5.94543E-09 2.54203E-02
 -1      5670-6.61399E-01-1.16304E-06 7.94729E-01 3.46149E-07 5.03136E-17-9.99311E-16
 -1      5671-6.61399E-01-1.16304E-06 7.94729E-01 3.46149E-07 5.94543E-09-2.54203E-02
 -1      5672-6.53603E-01-3.64057E-08 7.86958E-01 9.65086E-06-1.68032E-07 2.51489E-02
 -1      5673-6.53603E-01-3.64057E-08 7.86958E-01 9.65086E-06-1.36148E-17 9.62458E-16
 -1      5674-6.53603E-01-3.64057E-08 7.86958E-01 9.65086E-06 1.68032E-07-2.51489E-02
 -1      5675-5.89567E-01-2.38553E-05 7.22806E-01-2.76130E-05 4.82140E-07 2.29098E-02
 -1      5676-5.89567E-01-2.38553E-05 7.22806E-01-2.76130E-05-8.26965E-17 2.07695E-15
 -1      5677-5.89567E-01-2.38553E-05 7.22806E-01-2.76130E-05-4.82140E-07-2.29098E-02
 -1      5678-5.21143E-01-1.22202E-05 6.54447E-01 1.37818E-05-2.41141E-07 2.05222E-02
 -1      5679-5.21143E-01-1.22202E-05 6.54447E-01 1.37818E-05-2.80560E-17-3.22860E-15
 -1      5680-5.21143E-01-1.22202E-05 6.54447E-01 1.37818E-05 2.41141E-07-2.05222E-02
 -1      5681-4.57893E-01 6.41034E-07 5.91221E-01 3.19104E-07-5.56615E-09 1.83141E-02
 -1      5682-4.57893E-01 6.41034E-07 5.91221E-01 3.19104E-07-2.34161E-17 8.03227E-17
 -1      5683-4.57893E-01 6.41034E-07 5.91221E-01 3.19104E-07 5.56615E-09-1.83141E-02
 -1      5684-4.04190E-01 3.47610E-09 5.37521E-01 4.36284E-07-7.60775E-09 1.64390E-02
 -1      5685-4.04190E-01 3.47610E-09 5.37521E-01 4.36284E-07 3.28077E-17-2.49926E-16
 -1      5686-4.04190E-01 3.47610E-09 5.37521E-01 4.36284E-07 7.60775E-09-1.64390E-02
 -1      5687-3.58169E-01-1.23974E-07 4.91501E-01-6.28554E-08 1.10662E-09 1.48322E-02
 -1      5688-3.58169E-01-1.23974E-07 4.91501E-01-6.28554E-08-3.59395E-17-7.51264E-16
 -1      5689-3.58169E-01-1.23974E-07 4.91501E-01-6.28554E-08-1.10662E-09-1.48322E-02
 -1      5690-3.18559E-01 3.07198E-08 4.51891E-01-1.26083E-07 2.21372E-09 1.34492E-02
 -1      5691-3.18559E-01 3.07198E-08 4.51891E-01-1.26083E-07 3.87292E-17-3.92529E-16
 -1      5692-3.18559E-01 3.07198E-08 4.51891E-01-1.26083E-07-2.21372E-09-1.34492E-02
 -1      5693-2.84285E-01 5.37859E-08 4.17617E-01-1.41638E-07 2.48728E-09 1.22525E-02
 -1      5694-2.84285E-01 5.37859E-08 4.17617E-01-1.41638E-07-8.78316E-18-1.44748E-16
 -1      5695-2.84285E-01 5.37859E-08 4.17617E-01-1.41638E-07-2.48728E-09-1.22525E-02
 -1      5696-2.54449E-01 6.44726E-08 3.87782E-01-1.14753E-07 2.01712E-09 1.12108E-02
 -1      5697-2.54449E-01 6.44726E-08 3.87782E-01-1.14753E-07-1.17369E-16-1.41077E-15
 -1      5698-2.54449E-01 6.44726E-08 3.87782E-01-1.14753E-07-2.01712E-09-1.12108E-02
 -1      5699-2.28311E-01 7.23324E-08 3.61644E-01-7.83142E-08 1.37945E-09 1.02982E-02
 -1      5700-2.28311E-01 7.23324E-08 3.61644E-01-7.83142E-08-1.54420E-16 1.17442E-15
 -1      5701-2.28311E-01 7.23324E-08 3.61644E-01-7.83142E-08-1.37945E-09-1.02982E-02
 -1      5702-2.05270E-01 3.71712E-08 3.38602E-01-5.73200E-08 1.01161E-09 9.49378E-03
 -1      5703-2.05270E-01 3.71712E-08 3.38602E-01-5.73200E-08-7.96324E-17 1.12994E-16
 -1      5704-2.05270E-01 3.71712E-08 3.38602E-01-5.73200E-08-1.01161E-09-9.49378E-03
 -1      5705-1.84839E-01 2.03979E-08 3.18171E-01-3.23676E-08 5.74222E-10 8.78047E-03
 -1      5706-1.84839E-01 2.03979E-08 3.18171E-01-3.23676E-08-3.75642E-17-1.33025E-15
 -1      5707-1.84839E-01 2.03979E-08 3.18171E-01-3.23676E-08-5.74222E-10-8.78047E-03
 -1      5708-1.66630E-01 1.73321E-08 2.99962E-01-1.74722E-08 3.12910E-10 8.14475E-03
 -1      5709-1.66630E-01 1.73321E-08 2.99962E-01-1.74722E-08-2.83325E-17 1.30471E-15
 -1      5710-1.66630E-01 1.73321E-08 2.99962E-01-1.74722E-08-3.12910E-10-8.14475E-03
 -1      5711-1.50332E-01-1.49129E-10 2.83664E-01-1.84845E-08 3.29867E-10 7.57573E-03
 -1      5712-1.50332E-01-1.49129E-10 2.83664E-01-1.84845E-08 2.12522E-17 6.32404E-16
 -1      5713-1.50332E-01-1.49129E-10 2.83664E-01-1.84845E-08-3.29867E-10-7.57573E-03
 -1      5714-1.35686E-01 8.47708E-11 2.69018E-01-1.28761E-08 2.30830E-10 7.06440E-03
 -1      5715-1.35686E-01 8.47720E-11 2.69018E-01-1.28761E-08 5.68666E-18-1.05734E-16
 -1      5716-1.35686E-01 8.47731E-11 2.69018E-01-1.28761E-08-2.30830E-10-7.06440E-03
 -1      5717-1.22475E-01 1.14229E-08 2.55807E-01-8.62623E-09 1.55457E-10 6.60317E-03
 -1      5718-1.22475E-01 1.14229E-08 2.55807E-01-8.62623E-09 3.44164E-19-8.25400E-16
 -1      5719-1.22475E-01 1.14229E-08 2.55807E-01-8.62623E-09-1.55457E-10-6.60317E-03
 -1      5720-1.10514E-01 4.96590E-09 2.43846E-01-7.92924E-09 1.43102E-10 6.18558E-03
 -1      5721-1.10514E-01 4.96590E-09 2.43846E-01-7.92924E-09 3.69259E-17-8.57834E-16
 -1      5722-1.10514E-01 4.96590E-09 2.43846E-01-7.92924E-09-1.43102E-10-6.18558E-03
 -1      5723-9.96477E-02-4.27478E-09 2.32980E-01-7.02104E-09 1.27090E-10 5.80620E-03
 -1      5724-9.96477E-02-4.27478E-09 2.32980E-01-7.02104E-09-3.35178E-17-2.43785E-16
 -1      5725-9.96477E-02-4.27478E-09 2.32980E-01-7.02104E-09-1.27090E-10-5.80620E-03
 -1      5726-8.97457E-02-2.58423E-09 2.23078E-01-5.04644E-09 9.21365E-11 5.46050E-03
 -1      5727-8.97457E-02-2.58423E-09 2.23078E-01-5.04644E-09 9.59468E-17-6.33897E-16
 -1      5728-8.97457E-02-2.58423E-09 2.23078E-01-5.04644E-09-9.21363E-11-5.46050E-03
 -1      5729-8.06991E-02 2.55267E-09 2.14031E-01-2.27138E-09 4.33918E-11 5.14467E-03
 -1      5730-8.06991E-02 2.55267E-09 2.14031E-01-2.27138E-09-3.16974E-17 6.39125E-16
 -1      5731-8.06991E-02 2.55267E-09 2.14031E-01-2.27138E-09-4.33919E-11-5.14467E-03
 -1      5732-7.24163E-02-1.25672E-09 2.05748E-01-2.69666E-09 5.07645E-11 4.85550E-03
 -1      5733-7.24163E-02-1.25672E-09 2.05748E-01-2.69666E-09 7.01222E-17-7.15313E-17
 -1      5734-7.24163E-02-1.25672E-09 2.05748E-01-2.69666E-09-5.07644E-11-4.85550E-03
 -1      5735-6.48159E-02-1.15081E-09 1.98148E-01-6.35406E-10 1.45135E-11 4.59016E-03
 -1      5736-6.48159E-02-1.15081E-09 1.98148E-01-6.35406E-10 3.96382E-17-2.75216E-17
 -1      5737-6.48159E-02-1.15081E-09 1.98148E-01-6.35405E-10-1.45135E-11-4.59016E-03
 -1      5738-5.78270E-02 7.55734E-10 1.91159E-01 1.23075E-09-1.81408E-11 4.34616E-03
 -1      5739-5.78270E-02 7.55733E-10 1.91159E-01 1.23075E-09-4.48643E-17-6.22399E-16
 -1      5740-5.78270E-02 7.55731E-10 1.91159E-01 1.23075E-09 1.81407E-11-4.34616E-03
 -1      5741-5.13897E-02-2.57801E-09 1.84722E-01 3.72233E-10-2.89281E-12 4.12142E-03
 -1      5742-5.13897E-02-2.57801E-09 1.84722E-01 3.72233E-10 1.38908E-16 2.63821E-16
 -1      5743-5.13897E-02-2.57801E-09 1.84722E-01 3.72232E-10 2.89309E-12-4.12142E-03
 -1      5744-4.54515E-02-1.86133E-09 1.78784E-01 1.71136E-09-2.59387E-11 3.91411E-03
 -1      5745-4.54515E-02-1.86133E-09 1.78784E-01 1.71136E-09 5.59334E-17-4.04693E-16
 -1      5746-4.54515E-02-1.86134E-09 1.78784E-01 1.71136E-09 2.59388E-11-3.91411E-03
 -1      5747-3.99654E-02 1.12654E-09 1.73297E-01 3.52726E-09-5.69889E-11 3.72258E-03
 -1      5748-3.99654E-02 1.12654E-09 1.73297E-01 3.52726E-09-5.71164E-17 2.33128E-16
 -1      5749-3.99654E-02 1.12654E-09 1.73297E-01 3.52726E-09 5.69888E-11-3.72258E-03
 -1      5750-3.48887E-02 9.34435E-10 1.68221E-01 4.82893E-09-7.86250E-11 3.54535E-03
 -1      5751-3.48887E-02 9.34434E-10 1.68221E-01 4.82893E-09-7.41925E-17 2.65336E-16
 -1      5752-3.48887E-02 9.34432E-10 1.68221E-01 4.82893E-09 7.86248E-11-3.54535E-03
 -1      5753-3.01803E-02-1.72087E-09 1.63512E-01 5.88718E-09-9.61686E-11 3.38097E-03
 -1      5754-3.01803E-02-1.72087E-09 1.63512E-01 5.88719E-09-3.63222E-17-3.88042E-16
 -1      5755-3.01803E-02-1.72087E-09 1.63512E-01 5.88719E-09 9.61685E-11-3.38097E-03
 -1      5756-2.58040E-02-2.61735E-09 1.59136E-01 9.11326E-10-8.26627E-12 3.22819E-03
 -1      5757-2.58040E-02-2.61735E-09 1.59136E-01 9.11326E-10 2.46580E-18 2.37717E-16
 -1      5758-2.58040E-02-2.61735E-09 1.59136E-01 9.11325E-10 8.26628E-12-3.22819E-03
 -1      5759-2.17268E-02 8.44789E-09 1.55059E-01 3.33436E-09-4.87533E-11 3.08585E-03
 -1      5760-2.17268E-02 8.44789E-09 1.55059E-01 3.33436E-09-1.09819E-16-3.03379E-16
 -1      5761-2.17268E-02 8.44789E-09 1.55059E-01 3.33436E-09 4.87531E-11-3.08585E-03
 -1      5762-1.79070E-02 2.40916E-08 1.51239E-01 2.71868E-08-4.62227E-10 2.95250E-03
 -1      5763-1.79070E-02 2.40916E-08 1.51239E-01 2.71868E-08 8.91983E-18-6.38002E-16
 -1      5764-1.79070E-02 2.40916E-08 1.51239E-01 2.71868E-08 4.62227E-10-2.95250E-03
 -1      5765-1.42894E-02 5.29301E-08 1.47622E-01 6.25284E-08-1.07184E-09 2.82621E-03
 -1      5766-1.42894E-02 5.29301E-08 1.47622E-01 6.25284E-08 3.28956E-17 6.31614E-17
 -1      5767-1.42894E-02 5.29301E-08 1.47622E-01 6.25284E-08 1.07184E-09-2.82621E-03
 -1      5768-1.08025E-02-4.43782E-08 1.44135E-01 4.70163E-08-7.72733E-10 2.70448E-03
 -1      5769-1.08025E-02-4.43782E-08 1.44135E-01 4.70163E-08-3.67343E-17-2.16136E-16
 -1      5770-1.08025E-02-4.43782E-08 1.44135E-01 4.70163E-08 7.72733E-10-2.70448E-03
 -1      5771-2.25460E-01 8.06232E-08 3.58792E-01-5.96346E-08 1.03696E-09 1.01987E-02
 -1      5772-2.25460E-01 8.06232E-08 3.58792E-01-5.96346E-08 2.00260E-18-3.59444E-16
 -1      5773-2.25460E-01 8.06232E-08 3.58792E-01-5.96346E-08-1.03696E-09-1.01987E-02
 -1      5774-6.58796E-01-5.11570E-07 7.92127E-01 1.46628E-06-2.54038E-08 2.53296E-02
 -1      5775-6.58796E-01-5.11570E-07 7.92127E-01 1.46628E-06-7.12105E-17 2.82434E-15
 -1      5776-6.58796E-01-5.11570E-07 7.92127E-01 1.46628E-06 2.54038E-08-2.53296E-02
 -1      5777-1.10216E-02 9.87310E-08 1.44353E-01-2.61726E-07 4.63002E-09 2.71212E-03
 -1      5778-1.10216E-02 9.87310E-08 1.44353E-01-2.61726E-07 7.42474E-18-2.42256E-16
 -1      5779-1.10216E-02 9.87310E-08 1.44353E-01-2.61726E-07-4.63002E-09-2.71212E-03
 -1      5780-7.50252E-03 3.05584E-08 1.40834E-01 2.50131E-08-4.56234E-10 2.58926E-03
 -1      5781-7.50252E-03 3.05584E-08 1.40834E-01 2.50131E-08 3.38751E-18-9.27831E-17
 -1      5782-7.50252E-03 3.05584E-08 1.40834E-01 2.50131E-08 4.56234E-10-2.58926E-03
 -1      5783-7.67672E-03-8.19208E-08 1.41008E-01-1.60456E-07 2.83224E-09 2.59533E-03
 -1      5784-7.67672E-03-8.19208E-08 1.41008E-01-1.60456E-07 4.05958E-17 1.52334E-16
 -1      5785-7.67672E-03-8.19208E-08 1.41008E-01-1.60456E-07-2.83224E-09-2.59533E-03
 -1      5786-4.46473E-02-4.77315E-09 1.77979E-01 9.99472E-09-1.72456E-10 3.88604E-03
 -1      5787-4.46473E-02-4.77315E-09 1.77979E-01 9.99472E-09 2.95706E-18-7.27759E-16
 -1      5788-4.46473E-02-4.77315E-09 1.77979E-01 9.99472E-09 1.72456E-10-3.88604E-03
 -1      5789-6.63475E-01-9.87058E-07 7.96808E-01-1.35822E-07 2.36432E-09 2.54928E-02
 -1      5790-6.63475E-01-9.87058E-07 7.96808E-01-1.35822E-07 5.31891E-17 4.70131E-15
 -1      5791-6.63475E-01-9.87058E-07 7.96808E-01-1.35822E-07-2.36432E-09-2.54928E-02
 -1      5792-6.63108E-01-8.40981E-07 7.96442E-01-2.04798E-07 3.56561E-09 2.54800E-02
 -1      5793-6.63108E-01-8.40981E-07 7.96442E-01-2.04798E-07 6.74230E-17 4.20147E-15
 -1      5794-6.63108E-01-8.40981E-07 7.96442E-01-2.04798E-07-3.56561E-09-2.54800E-02
 -1      5795-6.64574E-01 1.21203E-06 7.97899E-01 3.05903E-07-5.16789E-09 2.55310E-02
 -1      5796-6.64574E-01 1.21203E-06 7.97899E-01 3.05903E-07 5.07482E-17-1.77136E-15
 -1      5797-6.64574E-01 1.21203E-06 7.97899E-01 3.05903E-07 5.16789E-09-2.55310E-02
 -1      5798-4.55317E-01-1.06459E-05 5.88640E-01-1.30386E-05 2.28313E-07 1.82243E-02
 -1      5799-4.55317E-01-1.06459E-05 5.88640E-01-1.30386E-05-5.20837E-17 3.34972E-15
 -1      5800-4.55317E-01-1.06459E-05 5.88640E-01-1.30386E-05-2.28313E-07-1.82243E-02
 -1      5801-3.13832E-01 3.02641E-07 4.47165E-01 1.27177E-07-2.24122E-09 1.32842E-02
 -1      5802-3.13832E-01 3.02641E-07 4.47165E-01 1.27177E-07 1.26002E-18 2.57559E-16
 -1      5803-3.13832E-01 3.02641E-07 4.47165E-01 1.27177E-07 2.24122E-09-1.32842E-02
 -1      5804-3.53097E-01 2.05030E-07 4.86430E-01-6.64702E-07 1.16066E-08 1.46552E-02
 -1      5805-3.53097E-01 2.05030E-07 4.86430E-01-6.64702E-07 1.03129E-18-4.87832E-16
 -1      5806-3.53097E-01 2.05030E-07 4.86430E-01-6.64702E-07-1.16066E-08-1.46552E-02
 -1      5807-1.82653E-01-1.17425E-10 3.15985E-01-6.38225E-09 1.11272E-10 8.70415E-03
 -1      5808-1.82653E-01-1.17423E-10 3.15985E-01-6.38225E-09-2.48441E-17 1.26083E-15
 -1      5809-1.82653E-01-1.17422E-10 3.15985E-01-6.38225E-09-1.11272E-10-8.70415E-03
 -1      5810-1.21044E-01 1.82016E-08 2.54376E-01 5.94445E-09-1.03099E-10 6.55321E-03
 -1      5811-1.21044E-01 1.82016E-08 2.54376E-01 5.94445E-09-9.79266E-19 1.13855E-15
 -1      5812-1.21044E-01 1.82016E-08 2.54376E-01 5.94445E-09 1.03099E-10-6.55321E-03
 -1      5813-1.48574E-01 8.13579E-09 2.81906E-01 1.48795E-08-2.60062E-10 7.51433E-03
 -1      5814-1.48574E-01 8.13579E-09 2.81906E-01 1.48795E-08-5.14837E-18-5.04130E-16
 -1      5815-1.48574E-01 8.13579E-09 2.81906E-01 1.48795E-08 2.60062E-10-7.51433E-03
 -1      5816-9.84752E-02 7.96900E-09 2.31807E-01 6.35408E-11-1.31972E-12 5.76527E-03
 -1      5817-9.84752E-02 7.96900E-09 2.31807E-01 6.35402E-11-1.09877E-18 5.94519E-16
 -1      5818-9.84752E-02 7.96900E-09 2.31807E-01 6.35397E-11 1.31972E-12-5.76527E-03
 -1      5819-5.70266E-02-2.69000E-10 1.90359E-01-2.21933E-09 3.90380E-11 4.31822E-03
 -1      5820-5.70266E-02-2.69000E-10 1.90359E-01-2.21933E-09-8.40369E-18-3.89125E-16
 -1      5821-5.70266E-02-2.69000E-10 1.90359E-01-2.21933E-09-3.90380E-11-4.31822E-03
 -1      5822-7.15194E-02 1.16851E-09 2.04851E-01-1.43831E-10 2.44663E-12 4.82419E-03
 -1      5823-7.15194E-02 1.16851E-09 2.04851E-01-1.43831E-10-1.34103E-17 7.02916E-16
 -1      5824-7.15194E-02 1.16851E-09 2.04851E-01-1.43831E-10-2.44666E-12-4.82419E-03
 -1      5825-3.39994E-02-1.92135E-10 1.67331E-01 8.02678E-09-1.36177E-10 3.51431E-03
 -1      5826-3.39994E-02-1.92136E-10 1.67331E-01 8.02678E-09-3.14206E-18-2.56418E-16
 -1      5827-3.39994E-02-1.92138E-10 1.67331E-01 8.02678E-09 1.36177E-10-3.51431E-03
 -1      5828-2.06439E-02-5.78392E-08 1.53976E-01 3.88844E-08-6.56926E-10 3.04805E-03
 -1      5829-2.06439E-02-5.78392E-08 1.53976E-01 3.88844E-08-1.27005E-18-4.00643E-16
 -1      5830-2.06439E-02-5.78392E-08 1.53976E-01 3.88844E-08 6.56926E-10-3.04805E-03
 -1      5831-1.38739E-02 1.72040E-07 1.47205E-01-4.53893E-09 1.04575E-10 2.81166E-03
 -1      5832-1.38739E-02 1.72040E-07 1.47205E-01-4.53893E-09-2.35109E-18 2.79974E-17
 -1      5833-1.38739E-02 1.72040E-07 1.47205E-01-4.53893E-09-1.04575E-10-2.81166E-03
 -1      5834-6.55860E-01-2.55768E-06 7.89197E-01 6.89742E-07-1.18264E-08 2.52273E-02
 -1      5835-6.55860E-01-2.55768E-06 7.89197E-01 6.89742E-07-1.21663E-16-1.38895E-15
 -1      5836-6.55860E-01-2.55768E-06 7.89197E-01 6.89742E-07 1.18264E-08-2.52273E-02
 -1      5837-7.53252E-03 1.70735E-08 1.40865E-01 1.12920E-08-1.95641E-10 2.59031E-03
 -1      5838-7.53252E-03 1.70735E-08 1.40865E-01 1.12920E-08 2.08442E-17-6.40417E-16
 -1      5839-7.53252E-03 1.70735E-08 1.40865E-01 1.12920E-08 1.95641E-10-2.59031E-03
 -1      5840-7.51599E-03 2.16054E-09 1.40848E-01 1.51793E-09-2.75121E-11 2.58974E-03
 -1      5841-7.51599E-03 2.16054E-09 1.40848E-01 1.51793E-09-7.07488E-18 2.17658E-16
 -1      5842-7.51599E-03 2.16054E-09 1.40848E-01 1.51793E-09 2.75121E-11-2.58974E-03
 -1      5843-7.50892E-03 1.09263E-09 1.40841E-01-1.70473E-09 3.06548E-11 2.58949E-03
 -1      5844-7.50892E-03 1.09263E-09 1.40841E-01-1.70473E-09-2.58295E-17 1.64461E-16
 -1      5845-7.50892E-03 1.09263E-09 1.40841E-01-1.70473E-09-3.06549E-11-2.58949E-03
 -1      5846-7.49270E-03-1.23859E-09 1.40825E-01-3.82869E-10 5.13084E-12 2.58892E-03
 -1      5847-7.49270E-03-1.23859E-09 1.40825E-01-3.82869E-10 5.01096E-18-1.96143E-16
 -1      5848-7.49270E-03-1.23859E-09 1.40825E-01-3.82870E-10-5.13083E-12-2.58892E-03
 -1      5849-7.41208E-03-3.90788E-08 1.40744E-01-1.65115E-09 2.80121E-11 2.58611E-03
 -1      5850-7.41208E-03-3.90788E-08 1.40744E-01-1.65115E-09-1.93525E-17-3.83989E-16
 -1      5851-7.41208E-03-3.90788E-08 1.40744E-01-1.65115E-09-2.80121E-11-2.58611E-03
 -1      5852-7.40933E-03-7.80843E-08 1.40741E-01-1.51875E-08 2.67322E-10 2.58601E-03
 -1      5853-7.40933E-03-7.80843E-08 1.40741E-01-1.51875E-08-6.48690E-17-3.89662E-16
 -1      5854-7.40933E-03-7.80843E-08 1.40741E-01-1.51875E-08-2.67322E-10-2.58601E-03
 -1      5855-5.19316E-01-2.16927E-05 6.52595E-01 2.18124E-05-3.79739E-07 2.04580E-02
 -1      5856-5.19316E-01-2.16927E-05 6.52595E-01 2.18124E-05 4.01149E-18-1.34186E-15
 -1      5857-5.19316E-01-2.16927E-05 6.52595E-01 2.18124E-05 3.79739E-07-2.04580E-02
 -1      5858-3.99519E-01-3.76120E-07 5.32849E-01-3.07285E-06 5.37542E-08 1.62760E-02
 -1      5859-3.99519E-01-3.76120E-07 5.32849E-01-3.07285E-06-1.63347E-17-2.18502E-15
 -1      5860-3.99519E-01-3.76120E-07 5.32849E-01-3.07285E-06-5.37542E-08-1.62760E-02
 -1      5861-8.41067E-02 3.90632E-09 2.17439E-01-1.03027E-09 1.78547E-11 5.26363E-03
 -1      5862-8.41067E-02 3.90632E-09 2.17439E-01-1.03027E-09-1.76631E-18-2.16367E-16
 -1      5863-8.41067E-02 3.90632E-09 2.17439E-01-1.03027E-09-1.78547E-11-5.26363E-03
 -1      5864-1.03375E-02 2.57659E-09 1.43670E-01 6.68756E-09-1.19095E-10 2.68824E-03
 -1      5865-1.03375E-02 2.57659E-09 1.43670E-01 6.68756E-09 6.76100E-18-2.23704E-16
 -1      5866-1.03375E-02 2.57659E-09 1.43670E-01 6.68756E-09 1.19095E-10-2.68824E-03
 -1      5867-5.86706E-01-9.31548E-07 7.20037E-01-1.79590E-07 3.12438E-09 2.28121E-02
 -1      5868-5.86706E-01-9.31548E-07 7.20037E-01-1.79590E-07 1.29605E-16 4.69317E-16
 -1      5869-5.86706E-01-9.31548E-07 7.20037E-01-1.79590E-07-3.12438E-09-2.28121E-02
 -1      5870-5.89775E-01 1.65699E-06 7.23085E-01 2.46208E-06-4.24076E-08 2.29187E-02
 -1      5871-5.89775E-01 1.65699E-06 7.23085E-01 2.46208E-06 3.21256E-17 2.36095E-15
 -1      5872-5.89775E-01 1.65699E-06 7.23085E-01 2.46208E-06 4.24076E-08-2.29187E-02
 -1      5873-1.03721E-01 1.25012E-08 2.37053E-01-3.45969E-11 6.95179E-13 5.94840E-03
 -1      5874-1.03721E-01 1.25012E-08 2.37053E-01-3.45974E-11 2.74441E-18-9.27121E-17
 -1      5875-1.03721E-01 1.25012E-08 2.37053E-01-3.45978E-11-6.95174E-13-5.94840E-03
 -1      5876-9.34676E-02 8.00078E-09 2.26800E-01-1.05912E-09 1.84546E-11 5.59044E-03
 -1      5877-9.34676E-02 8.00078E-09 2.26800E-01-1.05912E-09 1.85346E-18-3.49160E-18
 -1      5878-9.34676E-02 8.00078E-09 2.26800E-01-1.05912E-09-1.84546E-11-5.59044E-03
 -1      5879-9.96800E-03 2.16150E-07 1.43300E-01 1.94126E-07-3.44147E-09 2.67533E-03
 -1      5880-9.96800E-03 2.16150E-07 1.43300E-01 1.94126E-07 3.20241E-17-3.37103E-16
 -1      5881-9.96800E-03 2.16150E-07 1.43300E-01 1.94126E-07 3.44147E-09-2.67533E-03
 -1      5882-1.03963E-02 2.28997E-09 1.43728E-01 1.40668E-09-2.23263E-11 2.69029E-03
 -1      5883-1.03963E-02 2.28997E-09 1.43728E-01 1.40668E-09-1.75802E-17 1.77402E-17
 -1      5884-1.03963E-02 2.28997E-09 1.43728E-01 1.40668E-09 2.23263E-11-2.69029E-03
 -1      5885-5.86111E-01-3.38877E-07 7.19446E-01-4.31313E-07 7.51172E-09 2.27914E-02
 -1      5886-5.86111E-01-3.38877E-07 7.19446E-01-4.31313E-07-1.74792E-18 3.42176E-16
 -1      5887-5.86111E-01-3.38877E-07 7.19446E-01-4.31313E-07-7.51172E-09-2.27914E-02
 -1      5888-5.87014E-01-1.69840E-06 7.20357E-01 2.60861E-06-4.54836E-08 2.28231E-02
 -1      5889-5.87014E-01-1.69840E-06 7.20357E-01 2.60861E-06 3.75703E-17-1.27874E-15
 -1      5890-5.87014E-01-1.69840E-06 7.20357E-01 2.60861E-06 4.54836E-08-2.28231E-02
 -1      5891-5.86462E-01-1.23730E-06 7.19793E-01 8.85579E-08-1.54317E-09 2.28035E-02
 -1      5892-5.86462E-01-1.23730E-06 7.19793E-01 8.85579E-08-2.65729E-17 3.13800E-16
 -1      5893-5.86462E-01-1.23730E-06 7.19793E-01 8.85579E-08 1.54317E-09-2.28035E-02
 -1      5894-2.64859E-01 2.96362E-07 3.98191E-01 1.17087E-07-2.06508E-09 1.15743E-02
 -1      5895-2.64859E-01 2.96362E-07 3.98191E-01 1.17087E-07 1.39566E-17-1.29937E-16
 -1      5896-2.64859E-01 2.96362E-07 3.98191E-01 1.17087E-07 2.06508E-09-1.15743E-02
 -1      5897-1.03120E-02 8.27301E-09 1.43644E-01-3.54187E-09 6.36044E-11 2.68735E-03
 -1      5898-1.03120E-02 8.27301E-09 1.43644E-01-3.54187E-09 1.18587E-18-1.53626E-16
 -1      5899-1.03120E-02 8.27301E-09 1.43644E-01-3.54187E-09-6.36044E-11-2.68735E-03
 -1      5900-5.83066E-01-1.57585E-06 7.16394E-01 5.04290E-07-8.66644E-09 2.26850E-02
 -1      5901-5.83066E-01-1.57585E-06 7.16394E-01 5.04290E-07 8.99989E-17 2.10127E-15
 -1      5902-5.83066E-01-1.57585E-06 7.16394E-01 5.04290E-07 8.66644E-09-2.26850E-02
 -1      5903-1.73407E-01-1.42795E-08 3.06739E-01 1.34457E-08-2.34669E-10 8.38135E-03
 -1      5904-1.73407E-01-1.42795E-08 3.06739E-01 1.34457E-08 1.77848E-17-1.57191E-16
 -1      5905-1.73407E-01-1.42795E-08 3.06739E-01 1.34457E-08 2.34669E-10-8.38135E-03
 -1      5906-1.41146E-01 1.72194E-08 2.74478E-01 1.96008E-08-3.42135E-10 7.25502E-03
 -1      5907-1.41146E-01 1.72194E-08 2.74478E-01 1.96008E-08 6.53422E-18-8.14748E-16
 -1      5908-1.41146E-01 1.72194E-08 2.74478E-01 1.96008E-08 3.42135E-10-7.25502E-03
 -1      5909-1.03298E-02-1.64551E-08 1.43662E-01-9.91923E-10 1.90318E-11 2.68797E-03
 -1      5910-1.03298E-02-1.64551E-08 1.43662E-01-9.91923E-10 1.30605E-17-4.23526E-17
 -1      5911-1.03298E-02-1.64551E-08 1.43662E-01-9.91924E-10-1.90318E-11-2.68797E-03
 -1      5912-5.86239E-01-5.13147E-07 7.19572E-01-2.46093E-07 4.29128E-09 2.27958E-02
 -1      5913-5.86239E-01-5.13147E-07 7.19572E-01-2.46093E-07-7.23913E-17-4.05883E-15
 -1      5914-5.86239E-01-5.13147E-07 7.19572E-01-2.46093E-07-4.29128E-09-2.27958E-02
 -1      5915-1.01036E-02 6.79798E-08 1.43435E-01-1.63964E-07 2.90214E-09 2.68006E-03
 -1      5916-1.01036E-02 6.79798E-08 1.43435E-01-1.63964E-07 2.35944E-17-3.79150E-16
 -1      5917-1.01036E-02 6.79798E-08 1.43435E-01-1.63964E-07-2.90214E-09-2.68006E-03
 -1      5918-1.56404E-01 5.63128E-09 2.89736E-01 2.10670E-08-3.67886E-10 7.78772E-03
 -1      5919-1.56404E-01 5.63128E-09 2.89736E-01 2.10670E-08 3.98178E-17-3.61830E-16
 -1      5920-1.56404E-01 5.63128E-09 2.89736E-01 2.10670E-08 3.67886E-10-7.78772E-03
 -1      5921-1.81959E-02 1.58032E-08 1.51528E-01 1.10493E-07-1.89901E-09 2.96260E-03
 -1      5922-1.81959E-02 1.58032E-08 1.51528E-01 1.10493E-07 7.83835E-18 1.09340E-16
 -1      5923-1.81959E-02 1.58032E-08 1.51528E-01 1.10493E-07 1.89901E-09-2.96260E-03
 -1      5924-1.14986E-01 1.65013E-08 2.48319E-01 1.87968E-09-3.25645E-11 6.34172E-03
 -1      5925-1.14986E-01 1.65013E-08 2.48319E-01 1.87968E-09-3.48749E-19-3.09559E-16
 -1      5926-1.14986E-01 1.65013E-08 2.48319E-01 1.87968E-09 3.25645E-11-6.34172E-03
 -1      5927-6.76701E-02 1.34761E-09 2.01002E-01 2.03010E-09-3.55052E-11 4.68980E-03
 -1      5928-6.76701E-02 1.34761E-09 2.01002E-01 2.03010E-09 8.03496E-18-5.96427E-16
 -1      5929-6.76701E-02 1.34761E-09 2.01002E-01 2.03010E-09 3.55052E-11-4.68980E-03
 -1      5930-5.37423E-02 3.27603E-10 1.87074E-01 2.05451E-09-3.59616E-11 4.20356E-03
 -1      5931-5.37423E-02 3.27602E-10 1.87074E-01 2.05451E-09-2.46886E-18 4.78494E-16
 -1      5932-5.37423E-02 3.27601E-10 1.87074E-01 2.05451E-09 3.59616E-11-4.20356E-03
 -1      5933-4.17860E-02-7.23859E-09 1.75118E-01 1.24597E-08-2.14272E-10 3.78615E-03
 -1      5934-4.17860E-02-7.23859E-09 1.75118E-01 1.24597E-08 3.75834E-18 3.11727E-16
 -1      5935-4.17860E-02-7.23859E-09 1.75118E-01 1.24597E-08 2.14272E-10-3.78615E-03
 -1      5936-5.74135E-01 6.77876E-06 7.07484E-01 1.04459E-05-1.81719E-07 2.23740E-02
 -1      5937-5.74135E-01 6.77876E-06 7.07484E-01 1.04459E-05-2.73873E-17 7.06778E-16
 -1      5938-5.74135E-01 6.77876E-06 7.07484E-01 1.04459E-05 1.81719E-07-2.23740E-02
 -1      5939-5.78879E-01 5.28276E-07 7.12205E-01 2.54169E-06-4.40546E-08 2.25389E-02
 -1      5940-5.78879E-01 5.28276E-07 7.12205E-01 2.54169E-06 1.07943E-17-6.41393E-16
 -1      5941-5.78879E-01 5.28276E-07 7.12205E-01 2.54169E-06 4.40546E-08-2.25389E-02
 -1      5942-1.00885E-02 3.16323E-07 1.43421E-01-4.12698E-07 7.28123E-09 2.67955E-03
 -1      5943-1.00885E-02 3.16323E-07 1.43421E-01-4.12698E-07-3.39350E-18-6.40432E-17
 -1      5944-1.00885E-02 3.16323E-07 1.43421E-01-4.12698E-07-7.28123E-09-2.67955E-03
 -1      5945-1.01414E-02 3.53616E-08 1.43474E-01-1.13895E-07 2.00613E-09 2.68140E-03
 -1      5946-1.01414E-02 3.53616E-08 1.43474E-01-1.13895E-07 5.04350E-17 4.20950E-16
 -1      5947-1.01414E-02 3.53616E-08 1.43474E-01-1.13895E-07-2.00613E-09-2.68140E-03
 -1      5948-1.03517E-02 5.38644E-08 1.43684E-01 5.23835E-09-8.59686E-11 2.68874E-03
 -1      5949-1.03517E-02 5.38644E-08 1.43684E-01 5.23835E-09-7.97896E-19 6.29208E-17
 -1      5950-1.03517E-02 5.38644E-08 1.43684E-01 5.23835E-09 8.59686E-11-2.68874E-03
 -1      5951-1.27407E-01 1.94795E-08 2.60739E-01 9.52753E-09-1.66158E-10 6.77535E-03
 -1      5952-1.27407E-01 1.94795E-08 2.60739E-01 9.52753E-09-1.29627E-18-9.84875E-16
 -1      5953-1.27407E-01 1.94795E-08 2.60739E-01 9.52753E-09 1.66158E-10-6.77535E-03
 -1      5954-1.41504E-02 5.43715E-08 1.47484E-01-3.35809E-07 5.86435E-09 2.82139E-03
 -1      5955-1.41504E-02 5.43715E-08 1.47484E-01-3.35809E-07-3.36892E-19 2.91047E-16
 -1      5956-1.41504E-02 5.43715E-08 1.47484E-01-3.35809E-07-5.86435E-09-2.82139E-03
 -1      5957-2.23813E-02 2.23735E-08 1.55713E-01 4.27019E-08-7.32820E-10 3.10871E-03
 -1      5958-2.23813E-02 2.23735E-08 1.55713E-01 4.27019E-08-1.56565E-18-3.69306E-16
 -1      5959-2.23813E-02 2.23735E-08 1.55713E-01 4.27019E-08 7.32820E-10-3.10871E-03
 -1      5960-1.03738E-02-6.06759E-09 1.43706E-01-3.32295E-09 5.48179E-11 2.68951E-03
 -1      5961-1.03738E-02-6.06759E-09 1.43706E-01-3.32295E-09 3.23325E-17-1.20312E-16
 -1      5962-1.03738E-02-6.06759E-09 1.43706E-01-3.32295E-09-5.48178E-11-2.68951E-03
 -1      5963-1.03998E-02-6.90308E-09 1.43732E-01-1.90198E-09 3.05028E-11 2.69041E-03
 -1      5964-1.03998E-02-6.90308E-09 1.43732E-01-1.90198E-09-5.39706E-18 4.50120E-16
 -1      5965-1.03998E-02-6.90308E-09 1.43732E-01-1.90198E-09-3.05028E-11-2.69041E-03
 -1      5966-5.85462E-01-1.40213E-06 7.18791E-01-3.39262E-08 6.53011E-10 2.27686E-02
 -1      5967-5.85462E-01-1.40213E-06 7.18791E-01-3.39262E-08-1.24667E-17-1.33667E-15
 -1      5968-5.85462E-01-1.40213E-06 7.18791E-01-3.39262E-08-6.53011E-10-2.27686E-02
 -1      5969-1.92428E-01-2.76780E-08 3.25760E-01-9.05467E-09 1.58709E-10 9.04541E-03
 -1      5970-1.92428E-01-2.76780E-08 3.25760E-01-9.05467E-09 2.03226E-17-4.51821E-16
 -1      5971-1.92428E-01-2.76780E-08 3.25760E-01-9.05467E-09-1.58709E-10-9.04541E-03
 -1      5972-1.03367E-02 6.90122E-08 1.43669E-01 2.11298E-07-3.71963E-09 2.68822E-03
 -1      5973-1.03367E-02 6.90122E-08 1.43669E-01 2.11298E-07-1.16854E-17-1.79107E-16
 -1      5974-1.03367E-02 6.90122E-08 1.43669E-01 2.11298E-07 3.71963E-09-2.68822E-03
 -1      5975-1.02993E-02 7.26468E-09 1.43631E-01 1.09916E-09-1.87466E-11 2.68690E-03
 -1      5976-1.02993E-02 7.26468E-09 1.43631E-01 1.09916E-09-4.93923E-18-2.63960E-16
 -1      5977-1.02993E-02 7.26468E-09 1.43631E-01 1.09916E-09 1.87465E-11-2.68690E-03
 -1      5978-5.86170E-01-2.37692E-07 7.19509E-01-1.82003E-07 3.16021E-09 2.27935E-02
 -1      5979-5.86170E-01-2.37692E-07 7.19509E-01-1.82003E-07-7.14774E-17 1.93146E-15
 -1      5980-5.86170E-01-2.37692E-07 7.19509E-01-1.82003E-07-3.16021E-09-2.27935E-02
 -1      5981-1.03281E-02 2.11786E-09 1.43660E-01-8.73781E-09 1.54857E-10 2.68791E-03
 -1      5982-1.03281E-02 2.11786E-09 1.43660E-01-8.73781E-09-1.07566E-17-1.57894E-17
 -1      5983-1.03281E-02 2.11786E-09 1.43660E-01-8.73781E-09-1.54857E-10-2.68791E-03
 -1      5984-1.01770E-02 9.39243E-09 1.43509E-01-8.16324E-09 1.28454E-10 2.68263E-03
 -1      5985-1.01770E-02 9.39243E-09 1.43509E-01-8.16324E-09-2.86336E-17 1.96335E-16
 -1      5986-1.01770E-02 9.39243E-09 1.43509E-01-8.16324E-09-1.28454E-10-2.68263E-03
 -1      5987-5.76361E-01 2.36471E-05 7.09772E-01 2.08568E-05-3.62764E-07 2.24527E-02
 -1      5988-5.76361E-01 2.36471E-05 7.09772E-01 2.08568E-05-1.04574E-17 2.08416E-15
 -1      5989-5.76361E-01 2.36471E-05 7.09772E-01 2.08568E-05 3.62764E-07-2.24527E-02
 -1      5990-5.86439E-01-9.49640E-06 7.19674E-01 1.70771E-05-2.98582E-07 2.28005E-02
 -1      5991-5.86439E-01-9.49640E-06 7.19674E-01 1.70771E-05 3.19188E-17-7.96761E-16
 -1      5992-5.86439E-01-9.49640E-06 7.19674E-01 1.70771E-05 2.98582E-07-2.28005E-02
 -1      5993-4.75515E-02-2.32977E-09 1.80883E-01 7.81285E-09-1.34936E-10 3.98743E-03
 -1      5994-4.75515E-02-2.32977E-09 1.80883E-01 7.81285E-09-1.88214E-17 2.77908E-17
 -1      5995-4.75515E-02-2.32976E-09 1.80883E-01 7.81284E-09 1.34936E-10-3.98743E-03
 -1      5996-4.90208E-01 1.00815E-05 6.23589E-01-6.22946E-06 1.09000E-07 1.94436E-02
 -1      5997-4.90208E-01 1.00815E-05 6.23589E-01-6.22946E-06 1.00122E-17 5.66132E-16
 -1      5998-4.90208E-01 1.00815E-05 6.23589E-01-6.22946E-06-1.09000E-07-1.94436E-02
 -1      5999-4.30726E-01-4.13639E-07 5.64059E-01 3.34828E-07-5.90253E-09 1.73656E-02
 -1      6000-4.30726E-01-4.13639E-07 5.64059E-01 3.34828E-07 1.29023E-16-7.99614E-16
 -1      6001-4.30726E-01-4.13639E-07 5.64059E-01 3.34828E-07 5.90253E-09-1.73656E-02
 -1      6002-3.80621E-01-4.47955E-07 5.13953E-01 1.48983E-07-2.60629E-09 1.56161E-02
 -1      6003-3.80621E-01-4.47955E-07 5.13953E-01 1.48983E-07-1.81715E-16-5.48882E-16
 -1      6004-3.80621E-01-4.47955E-07 5.13953E-01 1.48983E-07 2.60629E-09-1.56161E-02
 -1      6005-3.37681E-01-7.97204E-08 4.71013E-01-4.69709E-08 8.30493E-10 1.41169E-02
 -1      6006-3.37681E-01-7.97204E-08 4.71013E-01-4.69709E-08 1.64706E-16 2.75340E-17
 -1      6007-3.37681E-01-7.97204E-08 4.71013E-01-4.69709E-08-8.30492E-10-1.41169E-02
 -1      6008-3.00720E-01 4.17447E-08 4.34052E-01-1.06971E-07 1.88306E-09 1.28264E-02
 -1      6009-3.00720E-01 4.17447E-08 4.34052E-01-1.06971E-07 6.38925E-17 4.41600E-16
 -1      6010-3.00720E-01 4.17447E-08 4.34052E-01-1.06971E-07-1.88306E-09-1.28264E-02
 -1      6011-2.68719E-01 6.11895E-08 4.02052E-01-1.36844E-07 2.40430E-09 1.17091E-02
 -1      6012-2.68719E-01 6.11895E-08 4.02052E-01-1.36844E-07 3.84508E-17-5.28962E-16
 -1      6013-2.68719E-01 6.11895E-08 4.02052E-01-1.36844E-07-2.40430E-09-1.17091E-02
 -1      6014-2.40821E-01 5.82123E-08 3.74153E-01-1.16913E-07 2.05425E-09 1.07350E-02
 -1      6015-2.40821E-01 5.82123E-08 3.74153E-01-1.16913E-07 4.63867E-17 1.81763E-15
 -1      6016-2.40821E-01 5.82123E-08 3.74153E-01-1.16913E-07-2.05425E-09-1.07350E-02
 -1      6017-2.16323E-01 5.01003E-08 3.49655E-01-7.99142E-08 1.40606E-09 9.87969E-03
 -1      6018-2.16323E-01 5.01004E-08 3.49655E-01-7.99142E-08-1.84118E-17 1.51394E-16
 -1      6019-2.16323E-01 5.01004E-08 3.49655E-01-7.99142E-08-1.40606E-09-9.87969E-03
 -1      6020-1.94668E-01 2.52363E-08 3.28000E-01-4.79065E-08 8.45421E-10 9.12364E-03
 -1      6021-1.94668E-01 2.52363E-08 3.28000E-01-4.79065E-08-2.71600E-17-8.62213E-16
 -1      6022-1.94668E-01 2.52363E-08 3.28000E-01-4.79065E-08-8.45421E-10-9.12364E-03
 -1      6023-1.75413E-01 3.92600E-10 3.08745E-01-2.80519E-08 4.97353E-10 8.45138E-03
 -1      6024-1.75413E-01 3.92600E-10 3.08745E-01-2.80519E-08 3.60531E-18-9.99789E-16
 -1      6025-1.75413E-01 3.92601E-10 3.08745E-01-2.80519E-08-4.97353E-10-8.45138E-03
 -1      6026-1.58209E-01-7.65888E-09 2.91541E-01-2.27347E-08 4.03466E-10 7.85073E-03
 -1      6027-1.58209E-01-7.65888E-09 2.91541E-01-2.27347E-08-3.24202E-17 2.69822E-16
 -1      6028-1.58209E-01-7.65888E-09 2.91541E-01-2.27347E-08-4.03466E-10-7.85073E-03
 -1      6029-1.42775E-01-8.89837E-09 2.76107E-01-2.12874E-08 3.77384E-10 7.31187E-03
 -1      6030-1.42775E-01-8.89837E-09 2.76107E-01-2.12874E-08-2.27419E-17 1.25200E-16
 -1      6031-1.42775E-01-8.89838E-09 2.76107E-01-2.12874E-08-3.77384E-10-7.31187E-03
 -1      6032-1.28875E-01-6.54810E-09 2.62207E-01-1.54298E-08 2.74374E-10 6.82659E-03
 -1      6033-1.28875E-01-6.54810E-09 2.62207E-01-1.54298E-08 6.59482E-17-5.12680E-17
 -1      6034-1.28875E-01-6.54810E-09 2.62207E-01-1.54298E-08-2.74374E-10-6.82659E-03
 -1      6035-1.16311E-01-5.35523E-09 2.49643E-01-1.00947E-08 1.80646E-10 6.38795E-03
 -1      6036-1.16311E-01-5.35523E-09 2.49643E-01-1.00947E-08 3.20449E-17 3.74049E-16
 -1      6037-1.16311E-01-5.35523E-09 2.49643E-01-1.00947E-08-1.80646E-10-6.38795E-03
 -1      6038-1.04915E-01-8.12373E-09 2.38247E-01-8.46574E-09 1.51821E-10 5.99009E-03
 -1      6039-1.04915E-01-8.12373E-09 2.38247E-01-8.46574E-09-3.34903E-17-6.46307E-16
 -1      6040-1.04915E-01-8.12373E-09 2.38247E-01-8.46574E-09-1.51821E-10-5.99009E-03
 -1      6041-9.45460E-02-1.00689E-08 2.27878E-01-8.38912E-09 1.50183E-10 5.62809E-03
 -1      6042-9.45460E-02-1.00689E-08 2.27878E-01-8.38912E-09 3.75009E-17 1.43756E-16
 -1      6043-9.45460E-02-1.00689E-08 2.27878E-01-8.38912E-09-1.50183E-10-5.62809E-03
 -1      6044-8.50859E-02-8.64978E-09 2.18418E-01-6.57896E-09 1.18361E-10 5.29782E-03
 -1      6045-8.50859E-02-8.64978E-09 2.18418E-01-6.57896E-09-7.16558E-17 6.56368E-16
 -1      6046-8.50859E-02-8.64978E-09 2.18418E-01-6.57896E-09-1.18361E-10-5.29782E-03
 -1      6047-7.64353E-02-5.28922E-09 2.09767E-01-4.43386E-09 8.07366E-11 4.99581E-03
 -1      6048-7.64353E-02-5.28922E-09 2.09767E-01-4.43386E-09 6.53548E-17-4.75058E-16
 -1      6049-7.64353E-02-5.28922E-09 2.09767E-01-4.43386E-09-8.07365E-11-4.99581E-03
 -1      6050-6.85074E-02-4.94564E-09 2.01839E-01-2.32461E-09 4.37873E-11 4.71903E-03
 -1      6051-6.85074E-02-4.94564E-09 2.01839E-01-2.32460E-09-1.72028E-17 2.65628E-16
 -1      6052-6.85074E-02-4.94564E-09 2.01839E-01-2.32460E-09-4.37874E-11-4.71903E-03
 -1      6053-6.12258E-02-6.52164E-09 1.94558E-01 1.88199E-10-1.73791E-13 4.46482E-03
 -1      6054-6.12258E-02-6.52164E-09 1.94558E-01 1.88198E-10 3.11591E-17 1.97854E-16
 -1      6055-6.12258E-02-6.52164E-09 1.94558E-01 1.88197E-10 1.73853E-13-4.46482E-03
 -1      6056-5.45265E-02-7.25097E-09 1.87858E-01 2.38735E-10-9.91166E-13 4.23093E-03
 -1      6057-5.45265E-02-7.25097E-09 1.87858E-01 2.38735E-10-3.43283E-17 1.53716E-16
 -1      6058-5.45265E-02-7.25097E-09 1.87858E-01 2.38735E-10 9.91097E-13-4.23093E-03
 -1      6059-4.83566E-02-6.81284E-09 1.81689E-01 1.50085E-10 9.73659E-13 4.01553E-03
 -1      6060-4.83566E-02-6.81284E-09 1.81689E-01 1.50086E-10-9.54629E-18 1.02727E-17
 -1      6061-4.83566E-02-6.81284E-09 1.81689E-01 1.50087E-10-9.73678E-13-4.01553E-03
 -1      6062-4.26697E-02-6.80478E-09 1.76002E-01 2.75274E-09-4.36272E-11 3.81700E-03
 -1      6063-4.26697E-02-6.80478E-09 1.76002E-01 2.75274E-09 3.67060E-17 1.17040E-16
 -1      6064-4.26697E-02-6.80478E-09 1.76002E-01 2.75274E-09 4.36272E-11-3.81700E-03
 -1      6065-3.74236E-02-5.77437E-09 1.70756E-01 2.38728E-09-3.59258E-11 3.63384E-03
 -1      6066-3.74236E-02-5.77437E-09 1.70756E-01 2.38728E-09 1.13094E-16-4.70099E-16
 -1      6067-3.74236E-02-5.77437E-09 1.70756E-01 2.38728E-09 3.59260E-11-3.63384E-03
 -1      6068-3.25785E-02 3.09083E-09 1.65910E-01 8.64027E-09-1.42738E-10 3.46469E-03
 -1      6069-3.25785E-02 3.09083E-09 1.65910E-01 8.64027E-09 3.42359E-17 8.18829E-17
 -1      6070-3.25785E-02 3.09083E-09 1.65910E-01 8.64027E-09 1.42738E-10-3.46469E-03
 -1      6071-2.80916E-02-1.03525E-08 1.61424E-01 6.47961E-09-1.03710E-10 3.30805E-03
 -1      6072-2.80916E-02-1.03525E-08 1.61424E-01 6.47961E-09 5.17851E-17-4.69535E-16
 -1      6073-2.80916E-02-1.03525E-08 1.61424E-01 6.47961E-09 1.03710E-10-3.30805E-03
 -1      6074-2.39339E-02-1.37096E-08 1.57266E-01-2.25346E-08 4.03841E-10 3.16290E-03
 -1      6075-2.39339E-02-1.37096E-08 1.57266E-01-2.25346E-08-7.79354E-18-6.50774E-16
 -1      6076-2.39339E-02-1.37096E-08 1.57266E-01-2.25346E-08-4.03841E-10-3.16290E-03
 -1      6077-2.00860E-02 1.56920E-08 1.53418E-01-5.05343E-09 1.00921E-10 3.02856E-03
 -1      6078-2.00860E-02 1.56920E-08 1.53418E-01-5.05343E-09-1.64867E-17-6.26293E-17
 -1      6079-2.00860E-02 1.56920E-08 1.53418E-01-5.05343E-09-1.00921E-10-3.02856E-03
 -1      6080-1.65144E-02-5.74400E-09 1.49846E-01 2.43762E-08-4.09254E-10 2.90387E-03
 -1      6081-1.65144E-02-5.74400E-09 1.49846E-01 2.43762E-08 5.82633E-18 1.06474E-16
 -1      6082-1.65144E-02-5.74400E-09 1.49846E-01 2.43762E-08 4.09254E-10-2.90387E-03
 -1      6083-1.31837E-02-6.88140E-09 1.46516E-01 7.60368E-08-1.28858E-09 2.78761E-03
 -1      6084-1.31837E-02-6.88140E-09 1.46516E-01 7.60368E-08 1.52506E-17 1.84655E-16
 -1      6085-1.31837E-02-6.88141E-09 1.46516E-01 7.60368E-08 1.28858E-09-2.78761E-03
 -1      6086-1.04181E-02 1.64492E-07 1.43751E-01 3.30362E-07-5.83690E-09 2.69106E-03
 -1      6087-1.04181E-02 1.64492E-07 1.43751E-01 3.30362E-07-1.47951E-17 1.33639E-16
 -1      6088-1.04181E-02 1.64492E-07 1.43751E-01 3.30362E-07 5.83690E-09-2.69106E-03
 -1      6089-2.67799E-02 1.82364E-08 1.60112E-01 1.93309E-08-3.30352E-10 3.26227E-03
 -1      6090-2.67799E-02 1.82364E-08 1.60112E-01 1.93309E-08-4.97749E-19-1.63015E-16
 -1      6091-2.67799E-02 1.82364E-08 1.60112E-01 1.93309E-08 3.30352E-10-3.26227E-03
 -1      6092-5.69573E-01 1.09948E-06 7.02981E-01 9.61765E-06-1.67768E-07 2.22158E-02
 -1      6093-5.69573E-01 1.09948E-06 7.02981E-01 9.61765E-06-6.40545E-17-4.07764E-16
 -1      6094-5.69573E-01 1.09948E-06 7.02981E-01 9.61765E-06 1.67768E-07-2.22158E-02
 -1      6095-3.14303E-02 5.13575E-09 1.64762E-01 2.07311E-08-3.55968E-10 3.42461E-03
 -1      6096-3.14303E-02 5.13575E-09 1.64762E-01 2.07311E-08-5.68599E-18-8.42569E-17
 -1      6097-3.14303E-02 5.13575E-09 1.64762E-01 2.07311E-08 3.55968E-10-3.42461E-03
 -1      6098-5.86423E-01-6.29494E-07 7.19756E-01-1.32482E-07 2.30977E-09 2.28022E-02
 -1      6099-5.86423E-01-6.29494E-07 7.19756E-01-1.32482E-07 3.34104E-17 2.89807E-16
 -1      6100-5.86423E-01-6.29494E-07 7.19756E-01-1.32482E-07-2.30977E-09-2.28022E-02
 -1      6101-1.03103E-02 5.44195E-09 1.43642E-01 5.77550E-09-1.01784E-10 2.68729E-03
 -1      6102-1.03103E-02 5.44195E-09 1.43642E-01 5.77550E-09-1.69709E-17-2.92006E-16
 -1      6103-1.03103E-02 5.44195E-09 1.43642E-01 5.77550E-09 1.01784E-10-2.68729E-03
 -1      6104-2.37743E-01 7.70408E-08 3.71076E-01-5.81720E-08 1.00998E-09 1.06275E-02
 -1      6105-2.37743E-01 7.70408E-08 3.71076E-01-5.81720E-08 1.48326E-17-1.00740E-16
 -1      6106-2.37743E-01 7.70408E-08 3.71076E-01-5.81720E-08-1.00998E-09-1.06275E-02
 -1      6107-5.75131E-01 1.39669E-05 7.08512E-01-1.36780E-05 2.38013E-07 2.24094E-02
 -1      6108-5.75131E-01 1.39669E-05 7.08512E-01-1.36780E-05 1.78414E-17-1.60573E-15
 -1      6109-5.75131E-01 1.39669E-05 7.08512E-01-1.36780E-05-2.38013E-07-2.24094E-02
 -1      6110-5.86316E-01-6.02466E-07 7.19649E-01-1.51468E-07 2.64614E-09 2.27985E-02
 -1      6111-5.86316E-01-6.02466E-07 7.19649E-01-1.51468E-07 2.20256E-17-9.75949E-16
 -1      6112-5.86316E-01-6.02466E-07 7.19649E-01-1.51468E-07-2.64614E-09-2.27985E-02
 -1      6113-3.31700E-01 3.41386E-07 4.65034E-01 4.39281E-07-7.73391E-09 1.39081E-02
 -1      6114-3.31700E-01 3.41386E-07 4.65034E-01 4.39281E-07-9.30898E-18-5.86259E-16
 -1      6115-3.31700E-01 3.41386E-07 4.65034E-01 4.39281E-07 7.73391E-09-1.39081E-02
 -1      6116-6.04281E-02 6.37431E-11 1.93760E-01-1.12739E-09 1.98137E-11 4.43697E-03
 -1      6117-6.04281E-02 6.37434E-11 1.93760E-01-1.12739E-09 2.10968E-18 8.30984E-17
 -1      6118-6.04281E-02 6.37437E-11 1.93760E-01-1.12739E-09-1.98137E-11-4.43697E-03
 -1      6119-7.55366E-02 2.72643E-09 2.08869E-01-4.94282E-10 8.51747E-12 4.96444E-03
 -1      6120-7.55366E-02 2.72643E-09 2.08869E-01-4.94282E-10-5.63562E-19 4.74886E-16
 -1      6121-7.55366E-02 2.72643E-09 2.08869E-01-4.94282E-10-8.51747E-12-4.96444E-03
 -1      6122-4.96749E-01 1.99745E-06 6.30126E-01 2.79247E-06-4.84999E-08 1.96728E-02
 -1      6123-4.96749E-01 1.99745E-06 6.30126E-01 2.79247E-06 1.48300E-17-1.46297E-15
 -1      6124-4.96749E-01 1.99745E-06 6.30126E-01 2.79247E-06 4.84999E-08-1.96728E-02
 -1      6125-5.86604E-01-8.60139E-07 7.19936E-01-1.36571E-07 2.37113E-09 2.28085E-02
 -1      6126-5.86604E-01-8.60139E-07 7.19936E-01-1.36571E-07 5.37877E-17 1.77297E-15
 -1      6127-5.86604E-01-8.60139E-07 7.19936E-01-1.36571E-07-2.37113E-09-2.28085E-02
 -1      6128-1.02842E-02 3.42843E-09 1.43616E-01-4.07751E-09 6.63116E-11 2.68638E-03
 -1      6129-1.02842E-02 3.42843E-09 1.43616E-01-4.07751E-09-4.33148E-17 3.91128E-17
 -1      6130-1.02842E-02 3.42843E-09 1.43616E-01-4.07751E-09-6.63117E-11-2.68638E-03
 -1      6131-5.77187E-01 7.37297E-06 7.10478E-01-9.85972E-06 1.70956E-07 2.24793E-02
 -1      6132-5.77187E-01 7.37297E-06 7.10478E-01-9.85972E-06 1.95046E-16-1.08094E-15
 -1      6133-5.77187E-01 7.37297E-06 7.10478E-01-9.85972E-06-1.70956E-07-2.24793E-02
 -1      6134-2.13767E-01-1.18218E-08 3.47099E-01-5.71238E-08 9.96443E-10 9.79044E-03
 -1      6135-2.13767E-01-1.18218E-08 3.47099E-01-5.71238E-08 4.48991E-19 2.54923E-16
 -1      6136-2.13767E-01-1.18218E-08 3.47099E-01-5.71238E-08-9.96443E-10-9.79044E-03
 -1      6137-3.74176E-01 5.67741E-07 5.07512E-01-7.32972E-07 1.27613E-08 1.53913E-02
 -1      6138-3.74176E-01 5.67741E-07 5.07512E-01-7.32972E-07-1.03951E-18-7.83726E-16
 -1      6139-3.74176E-01 5.67741E-07 5.07512E-01-7.32972E-07-1.27613E-08-1.53913E-02
 -1      6140-9.93857E-03 1.02831E-07 1.43270E-01 5.87647E-08-1.02973E-09 2.67429E-03
 -1      6141-9.93857E-03 1.02831E-07 1.43270E-01 5.87647E-08 6.42741E-18-3.11012E-17
 -1      6142-9.93857E-03 1.02831E-07 1.43270E-01 5.87647E-08 1.02973E-09-2.67429E-03
 -1      6143-2.95789E-01 5.41975E-07 4.29122E-01 5.85634E-07-1.02709E-08 1.26542E-02
 -1      6144-2.95789E-01 5.41975E-07 4.29122E-01 5.85634E-07-1.62112E-17 2.36558E-15
 -1      6145-2.95789E-01 5.41975E-07 4.29122E-01 5.85634E-07 1.02709E-08-1.26542E-02
 -1      6146-3.64140E-02-7.12539E-09 1.69746E-01 1.83362E-08-3.14122E-10 3.59860E-03
 -1      6147-3.64140E-02-7.12538E-09 1.69746E-01 1.83362E-08-1.68222E-18 6.87642E-17
 -1      6148-3.64140E-02-7.12538E-09 1.69746E-01 1.83362E-08 3.14122E-10-3.59860E-03
 -1      6149-4.26180E-01 5.66443E-06 5.59535E-01-4.83937E-06 8.46042E-08 1.72077E-02
 -1      6150-4.26180E-01 5.66443E-06 5.59535E-01-4.83937E-06 3.57362E-18 1.13053E-15
 -1      6151-4.26180E-01 5.66443E-06 5.59535E-01-4.83937E-06-8.46042E-08-1.72077E-02
 -1      6152-5.15551E-01-3.14884E-06 6.48873E-01 1.74072E-06-3.01600E-08 2.03274E-02
 -1      6153-5.15551E-01-3.14884E-06 6.48873E-01 1.74072E-06-3.03865E-17 1.49487E-15
 -1      6154-5.15551E-01-3.14884E-06 6.48873E-01 1.74072E-06 3.01600E-08-2.03274E-02
 -1      6155-1.32584E-02 6.97454E-09 1.46590E-01 4.37625E-09-7.59781E-11 2.79021E-03
 -1      6156-1.32584E-02 6.97454E-09 1.46590E-01 4.37625E-09 1.79085E-17 2.38588E-17
 -1      6157-1.32584E-02 6.97454E-09 1.46590E-01 4.37625E-09 7.59781E-11-2.79021E-03
 -1      6158-1.23089E-02-4.64349E-08 1.45640E-01 2.27732E-07-3.98817E-09 2.75703E-03
 -1      6159-1.23089E-02-4.64349E-08 1.45640E-01 2.27732E-07-3.43969E-17 1.29933E-19
 -1      6160-1.23089E-02-4.64349E-08 1.45640E-01 2.27732E-07 3.98817E-09-2.75703E-03
 -1      6161-5.21110E-01-5.29363E-07 6.54443E-01-1.74800E-07 3.04539E-09 2.05216E-02
 -1      6162-5.21110E-01-5.29363E-07 6.54443E-01-1.74800E-07-5.52123E-17 1.75353E-15
 -1      6163-5.21110E-01-5.29363E-07 6.54443E-01-1.74800E-07-3.04539E-09-2.05216E-02
 -1      6164-3.37331E-02-1.39048E-08 1.67065E-01 3.68728E-08-6.34512E-10 3.50501E-03
 -1      6165-3.37331E-02-1.39048E-08 1.67065E-01 3.68728E-08 1.00590E-17 1.14412E-16
 -1      6166-3.37331E-02-1.39048E-08 1.67065E-01 3.68728E-08 6.34512E-10-3.50501E-03
 -1      6167-1.33030E-02 1.42244E-08 1.46635E-01-9.46988E-09 1.68881E-10 2.79177E-03
 -1      6168-1.33030E-02 1.42244E-08 1.46635E-01-9.46988E-09-4.61604E-18-1.28288E-17
 -1      6169-1.33030E-02 1.42244E-08 1.46635E-01-9.46988E-09-1.68881E-10-2.79177E-03
 -1      6170-5.21478E-01-8.03584E-07 6.54810E-01-1.22149E-07 2.11304E-09 2.05344E-02
 -1      6171-5.21478E-01-8.03584E-07 6.54810E-01-1.22149E-07 1.90118E-16-2.48329E-15
 -1      6172-5.21478E-01-8.03584E-07 6.54810E-01-1.22149E-07-2.11304E-09-2.05344E-02
 -1      6173-5.85386E-01 8.09319E-06 7.18708E-01-1.16702E-05 2.02622E-07 2.27658E-02
 -1      6174-5.85386E-01 8.09319E-06 7.18708E-01-1.16702E-05-2.82675E-17-2.02274E-15
 -1      6175-5.85386E-01 8.09319E-06 7.18708E-01-1.16702E-05-2.02622E-07-2.27658E-02
 -1      6176-5.20864E-01-4.51445E-07 6.54196E-01-3.94044E-07 6.87265E-09 2.05130E-02
 -1      6177-5.20864E-01-4.51445E-07 6.54196E-01-3.94044E-07-1.02530E-17 6.98268E-16
 -1      6178-5.20864E-01-4.51445E-07 6.54196E-01-3.94044E-07-6.87265E-09-2.05130E-02
 -1      6179-3.89742E-02-1.01907E-08 1.72306E-01 2.17533E-08-3.75154E-10 3.68799E-03
 -1      6180-3.89742E-02-1.01907E-08 1.72306E-01 2.17533E-08-9.11319E-18 4.02819E-16
 -1      6181-3.89742E-02-1.01907E-08 1.72306E-01 2.17533E-08 3.75154E-10-3.68799E-03
 -1      6182-1.36681E-02 2.12812E-08 1.47001E-01 4.95706E-07-8.66861E-09 2.80454E-03
 -1      6183-1.36681E-02 2.12812E-08 1.47001E-01 4.95706E-07-2.24306E-18 3.66225E-16
 -1      6184-1.36681E-02 2.12812E-08 1.47001E-01 4.95706E-07 8.66861E-09-2.80454E-03
 -1      6185-1.09218E-01 1.55027E-08 2.42550E-01-6.13876E-10 1.10383E-11 6.14031E-03
 -1      6186-1.09218E-01 1.55027E-08 2.42550E-01-6.13875E-10 1.16347E-17 7.46438E-16
 -1      6187-1.09218E-01 1.55027E-08 2.42550E-01-6.13874E-10-1.10383E-11-6.14031E-03
 -1      6188-5.17617E-01-2.17766E-05 6.50851E-01-2.78819E-05 4.86470E-07 2.03976E-02
 -1      6189-5.17617E-01-2.17766E-05 6.50851E-01-2.78819E-05-2.57857E-17-4.01143E-16
 -1      6190-5.17617E-01-2.17766E-05 6.50851E-01-2.78819E-05-4.86470E-07-2.03976E-02
 -1      6191-7.97348E-02 2.86256E-09 2.13067E-01-1.33706E-10 2.04364E-12 5.11100E-03
 -1      6192-7.97348E-02 2.86256E-09 2.13067E-01-1.33706E-10-6.83439E-18-6.59053E-16
 -1      6193-7.97348E-02 2.86256E-09 2.13067E-01-1.33706E-10-2.04366E-12-5.11100E-03
 -1      6194-1.57336E-02-7.02705E-09 1.49065E-01 1.32671E-07-2.30686E-09 2.87662E-03
 -1      6195-1.57336E-02-7.02705E-09 1.49065E-01 1.32671E-07 4.66374E-18 1.15770E-16
 -1      6196-1.57336E-02-7.02705E-09 1.49065E-01 1.32671E-07 2.30686E-09-2.87662E-03
 -1      6197-1.25954E-02-4.06248E-07 1.45927E-01-1.44480E-07 2.49820E-09 2.76704E-03
 -1      6198-1.25954E-02-4.06248E-07 1.45927E-01-1.44480E-07-3.36497E-18 1.63462E-16
 -1      6199-1.25954E-02-4.06248E-07 1.45927E-01-1.44480E-07-2.49820E-09-2.76704E-03
 -1      6200-6.39817E-02 1.33843E-09 1.97314E-01 1.45487E-09-2.56738E-11 4.56103E-03
 -1      6201-6.39817E-02 1.33843E-09 1.97314E-01 1.45487E-09-5.02119E-19 5.18657E-16
 -1      6202-6.39817E-02 1.33843E-09 1.97314E-01 1.45487E-09 2.56738E-11-4.56103E-03
 -1      6203-1.32892E-02 7.68258E-09 1.46621E-01 1.03781E-08-1.83523E-10 2.79129E-03
 -1      6204-1.32892E-02 7.68258E-09 1.46621E-01 1.03781E-08 2.68199E-17-5.86948E-16
 -1      6205-1.32892E-02 7.68259E-09 1.46621E-01 1.03781E-08 1.83523E-10-2.79129E-03
 -1      6206-7.15291E-02 1.55371E-09 2.04861E-01 5.32587E-10-9.57221E-12 4.82453E-03
 -1      6207-7.15291E-02 1.55371E-09 2.04861E-01 5.32587E-10 2.70338E-18-4.72288E-16
 -1      6208-7.15291E-02 1.55371E-09 2.04861E-01 5.32586E-10 9.57222E-12-4.82453E-03
 -1      6209-1.34712E-02 2.55752E-09 1.46803E-01 1.36561E-08-2.40911E-10 2.79764E-03
 -1      6210-1.34712E-02 2.55752E-09 1.46803E-01 1.36561E-08 6.10791E-18-2.77106E-16
 -1      6211-1.34712E-02 2.55752E-09 1.46803E-01 1.36561E-08 2.40911E-10-2.79764E-03
 -1      6212-1.34164E-02-1.30846E-08 1.46748E-01 3.70522E-08-6.36340E-10 2.79573E-03
 -1      6213-1.34164E-02-1.30846E-08 1.46748E-01 3.70522E-08 1.18168E-17-2.48476E-16
 -1      6214-1.34164E-02-1.30846E-08 1.46748E-01 3.70522E-08 6.36340E-10-2.79573E-03
 -1      6215-5.21373E-01-5.27141E-07 6.54705E-01-6.00957E-08 1.02920E-09 2.05308E-02
 -1      6216-5.21373E-01-5.27141E-07 6.54705E-01-6.00957E-08-7.31833E-17-3.63445E-16
 -1      6217-5.21373E-01-5.27141E-07 6.54705E-01-6.00957E-08-1.02920E-09-2.05308E-02
 -1      6218-1.99728E-02 1.94934E-08 1.53305E-01-1.06877E-07 1.86086E-09 3.02463E-03
 -1      6219-1.99728E-02 1.94934E-08 1.53305E-01-1.06877E-07 5.48587E-18 3.00412E-16
 -1      6220-1.99728E-02 1.94934E-08 1.53305E-01-1.06877E-07-1.86086E-09-3.02463E-03
 -1      6221-5.21914E-01-4.10221E-06 6.55293E-01-5.26864E-06 9.19593E-08 2.05505E-02
 -1      6222-5.21914E-01-4.10221E-06 6.55293E-01-5.26864E-06 4.54353E-17-3.03730E-15
 -1      6223-5.21914E-01-4.10221E-06 6.55293E-01-5.26864E-06-9.19593E-08-2.05505E-02
 -1      6224-1.33524E-02 8.65888E-09 1.46684E-01 9.65247E-09-1.73047E-10 2.79349E-03
 -1      6225-1.33524E-02 8.65888E-09 1.46684E-01 9.65247E-09-3.38968E-17-2.49661E-16
 -1      6226-1.33524E-02 8.65888E-09 1.46684E-01 9.65247E-09 1.73047E-10-2.79349E-03
 -1      6227-1.34239E-02-1.16003E-08 1.46756E-01 3.85499E-09-7.44588E-11 2.79599E-03
 -1      6228-1.34239E-02-1.16003E-08 1.46756E-01 3.85498E-09-5.57478E-18 1.90336E-16
 -1      6229-1.34239E-02-1.16003E-08 1.46756E-01 3.85498E-09 7.44587E-11-2.79599E-03
 -1      6230-5.21050E-01-1.16868E-06 6.54379E-01-6.91076E-08 1.22199E-09 2.05194E-02
 -1      6231-5.21050E-01-1.16868E-06 6.54379E-01-6.91076E-08-2.69913E-17-2.77988E-15
 -1      6232-5.21050E-01-1.16868E-06 6.54379E-01-6.91076E-08-1.22199E-09-2.05194E-02
 -1      6233-1.82644E-01-3.80446E-08 3.15976E-01 2.18955E-08-3.81434E-10 8.70382E-03
 -1      6234-1.82644E-01-3.80446E-08 3.15976E-01 2.18955E-08 6.48170E-18-3.54346E-16
 -1      6235-1.82644E-01-3.80446E-08 3.15976E-01 2.18955E-08 3.81434E-10-8.70382E-03
 -1      6236-1.32911E-02-1.16023E-08 1.46622E-01 1.62068E-08-2.58181E-10 2.79134E-03
 -1      6237-1.32911E-02-1.16023E-08 1.46622E-01 1.62068E-08-5.59979E-18-1.96853E-16
 -1      6238-1.32911E-02-1.16023E-08 1.46622E-01 1.62068E-08 2.58181E-10-2.79134E-03
 -1      6239-1.32667E-02 7.12929E-09 1.46599E-01 2.00863E-09-3.37666E-11 2.79050E-03
 -1      6240-1.32667E-02 7.12929E-09 1.46599E-01 2.00863E-09 3.93196E-17-5.51564E-16
 -1      6241-1.32667E-02 7.12929E-09 1.46599E-01 2.00863E-09 3.37667E-11-2.79050E-03
 -1      6242-5.20650E-01 3.96496E-06 6.53990E-01-3.64899E-06 6.36640E-08 2.05057E-02
 -1      6243-5.20650E-01 3.96496E-06 6.53990E-01-3.64899E-06-2.80475E-17 2.93233E-15
 -1      6244-5.20650E-01 3.96496E-06 6.53990E-01-3.64899E-06-6.36640E-08-2.05057E-02
 -1      6245-1.29377E-02-4.08741E-09 1.46269E-01-3.45785E-08 5.62962E-10 2.77900E-03
 -1      6246-1.29377E-02-4.08741E-09 1.46269E-01-3.45785E-08 2.03526E-17-6.63233E-16
 -1      6247-1.29377E-02-4.08741E-09 1.46269E-01-3.45785E-08-5.62962E-10-2.77900E-03
 -1      6248-1.32208E-02 7.45415E-08 1.46553E-01-1.76108E-08 2.91060E-10 2.78890E-03
 -1      6249-1.32208E-02 7.45415E-08 1.46553E-01-1.76108E-08-3.09916E-17 1.27477E-16
 -1      6250-1.32208E-02 7.45415E-08 1.46553E-01-1.76108E-08-2.91060E-10-2.78890E-03
 -1      6251-5.08755E-01-4.10707E-06 6.42057E-01 1.08629E-05-1.89007E-07 2.00900E-02
 -1      6252-5.08755E-01-4.10707E-06 6.42057E-01 1.08629E-05 1.00529E-16-3.08137E-15
 -1      6253-5.08755E-01-4.10707E-06 6.42057E-01 1.08629E-05 1.89007E-07-2.00900E-02
 -1      6254-4.58878E-01-1.57510E-05 5.92179E-01 1.49932E-05-2.62373E-07 1.83481E-02
 -1      6255-4.58878E-01-1.57510E-05 5.92179E-01 1.49932E-05 5.79798E-18-3.01917E-15
 -1      6256-4.58878E-01-1.57510E-05 5.92179E-01 1.49932E-05 2.62373E-07-1.83481E-02
 -1      6257-4.03489E-01-1.44777E-06 5.36818E-01 2.65690E-06-4.64564E-08 1.64146E-02
 -1      6258-4.03489E-01-1.44777E-06 5.36818E-01 2.65690E-06 1.87418E-16-1.88258E-16
 -1      6259-4.03489E-01-1.44777E-06 5.36818E-01 2.65690E-06 4.64564E-08-1.64146E-02
 -1      6260-3.56831E-01-8.33725E-08 4.90163E-01 7.03874E-07-1.22883E-08 1.47855E-02
 -1      6261-3.56831E-01-8.33725E-08 4.90163E-01 7.03874E-07 3.70228E-18 1.56736E-15
 -1      6262-3.56831E-01-8.33725E-08 4.90163E-01 7.03874E-07 1.22883E-08-1.47855E-02
 -1      6263-3.16994E-01 9.32298E-09 4.50326E-01 5.45814E-08-9.39470E-10 1.33946E-02
 -1      6264-3.16994E-01 9.32299E-09 4.50326E-01 5.45814E-08-1.03226E-16 1.36262E-15
 -1      6265-3.16994E-01 9.32299E-09 4.50326E-01 5.45814E-08 9.39470E-10-1.33946E-02
 -1      6266-2.82742E-01 4.87012E-08 4.16075E-01-1.29758E-07 2.27845E-09 1.21987E-02
 -1      6267-2.82742E-01 4.87012E-08 4.16075E-01-1.29758E-07 1.32324E-16-7.05887E-16
 -1      6268-2.82742E-01 4.87012E-08 4.16075E-01-1.29758E-07-2.27845E-09-1.21987E-02
 -1      6269-2.53049E-01 5.92679E-08 3.86381E-01-1.52100E-07 2.66510E-09 1.11619E-02
 -1      6270-2.53049E-01 5.92679E-08 3.86381E-01-1.52100E-07 7.63175E-17-5.09985E-16
 -1      6271-2.53049E-01 5.92679E-08 3.86381E-01-1.52100E-07-2.66510E-09-1.11619E-02
 -1      6272-2.27092E-01 6.26032E-08 3.60425E-01-1.13434E-07 1.98712E-09 1.02557E-02
 -1      6273-2.27092E-01 6.26032E-08 3.60425E-01-1.13434E-07-6.76611E-17 1.57472E-15
 -1      6274-2.27092E-01 6.26032E-08 3.60425E-01-1.13434E-07-1.98712E-09-1.02557E-02
 -1      6275-2.04226E-01 4.84355E-08 3.37559E-01-5.55218E-08 9.74151E-10 9.45735E-03
 -1      6276-2.04226E-01 4.84355E-08 3.37559E-01-5.55218E-08 2.48668E-17-6.41339E-16
 -1      6277-2.04226E-01 4.84355E-08 3.37559E-01-5.55218E-08-9.74151E-10-9.45735E-03
 -1      6278-1.83944E-01 4.64125E-10 3.17276E-01-2.28122E-08 4.01684E-10 8.74921E-03
 -1      6279-1.83944E-01 4.64126E-10 3.17276E-01-2.28122E-08 1.08562E-16-7.53780E-16
 -1      6280-1.83944E-01 4.64127E-10 3.17276E-01-2.28122E-08-4.01684E-10-8.74921E-03
 -1      6281-1.65850E-01-2.07226E-08 2.99182E-01-1.96899E-08 3.46426E-10 8.11751E-03
 -1      6282-1.65850E-01-2.07226E-08 2.99182E-01-1.96899E-08 6.90886E-17 4.05207E-16
 -1      6283-1.65850E-01-2.07226E-08 2.99182E-01-1.96899E-08-3.46425E-10-8.11751E-03
 -1      6284-1.49640E-01-1.85422E-08 2.82972E-01-2.12166E-08 3.72683E-10 7.55157E-03
 -1      6285-1.49640E-01-1.85422E-08 2.82972E-01-2.12166E-08 1.17455E-17-3.65049E-16
 -1      6286-1.49640E-01-1.85422E-08 2.82972E-01-2.12166E-08-3.72683E-10-7.55157E-03
 -1      6287-1.35064E-01-1.21852E-08 2.68396E-01-1.62690E-08 2.86030E-10 7.04268E-03
 -1      6288-1.35064E-01-1.21852E-08 2.68396E-01-1.62690E-08-1.40829E-17 6.44176E-16
 -1      6289-1.35064E-01-1.21852E-08 2.68396E-01-1.62690E-08-2.86030E-10-7.04268E-03
 -1      6290-1.21909E-01-1.03037E-08 2.55242E-01-7.96792E-09 1.40862E-10 6.58341E-03
 -1      6291-1.21909E-01-1.03037E-08 2.55242E-01-7.96792E-09-5.07280E-18-2.29164E-16
 -1      6292-1.21909E-01-1.03037E-08 2.55242E-01-7.96792E-09-1.40862E-10-6.58341E-03
 -1      6293-1.09995E-01-1.31138E-08 2.43327E-01-3.71976E-09 6.64653E-11 6.16744E-03
 -1      6294-1.09995E-01-1.31138E-08 2.43327E-01-3.71976E-09-2.91742E-17 6.74152E-17
 -1      6295-1.09995E-01-1.31138E-08 2.43327E-01-3.71976E-09-6.64653E-11-6.16744E-03
 -1      6296-9.91679E-02-1.62066E-08 2.32500E-01-4.65949E-09 8.27005E-11 5.78946E-03
 -1      6297-9.91679E-02-1.62066E-08 2.32500E-01-4.65949E-09 5.66368E-17-5.19547E-16
 -1      6298-9.91679E-02-1.62066E-08 2.32500E-01-4.65949E-09-8.27004E-11-5.78946E-03
 -1      6299-8.93028E-02-1.55798E-08 2.22635E-01-6.36281E-09 1.12367E-10 5.44504E-03
 -1      6300-8.93028E-02-1.55798E-08 2.22635E-01-6.36281E-09 5.58501E-17-2.22135E-16
 -1      6301-8.93028E-02-1.55798E-08 2.22635E-01-6.36281E-09-1.12367E-10-5.44504E-03
 -1      6302-8.02932E-02-1.12139E-08 2.13625E-01-5.73530E-09 1.01429E-10 5.13050E-03
 -1      6303-8.02932E-02-1.12139E-08 2.13625E-01-5.73530E-09 2.79217E-17-7.41304E-16
 -1      6304-8.02932E-02-1.12139E-08 2.13625E-01-5.73530E-09-1.01429E-10-5.13050E-03
 -1      6305-7.20463E-02-7.16374E-09 2.05378E-01-2.21246E-09 4.00024E-11 4.84258E-03
 -1      6306-7.20463E-02-7.16374E-09 2.05378E-01-2.21246E-09 1.68111E-17 8.38449E-16
 -1      6307-7.20463E-02-7.16374E-09 2.05378E-01-2.21246E-09-4.00024E-11-4.84258E-03
 -1      6308-6.44798E-02-7.50106E-09 1.97812E-01 2.56838E-09-4.33687E-11 4.57842E-03
 -1      6309-6.44798E-02-7.50106E-09 1.97812E-01 2.56838E-09 1.63325E-17-6.41211E-16
 -1      6310-6.44798E-02-7.50106E-09 1.97812E-01 2.56838E-09 4.33688E-11-4.57842E-03
 -1      6311-5.75237E-02-1.16998E-08 1.90856E-01 3.59803E-09-6.13676E-11 4.33557E-03
 -1      6312-5.75237E-02-1.16998E-08 1.90856E-01 3.59803E-09-7.64320E-18-5.35409E-16
 -1      6313-5.75237E-02-1.16998E-08 1.90856E-01 3.59803E-09 6.13676E-11-4.33557E-03
 -1      6314-5.11231E-02-1.36557E-08 1.84455E-01-4.10342E-10 8.73628E-12 4.11212E-03
 -1      6315-5.11231E-02-1.36557E-08 1.84455E-01-4.10341E-10-6.16794E-18 6.67250E-16
 -1      6316-5.11231E-02-1.36557E-08 1.84455E-01-4.10340E-10-8.73629E-12-4.11212E-03
 -1      6317-4.52350E-02-9.27125E-09 1.78567E-01 2.30365E-09-3.76818E-11 3.90655E-03
 -1      6318-4.52350E-02-9.27125E-09 1.78567E-01 2.30365E-09-2.88730E-18 3.21749E-16
 -1      6319-4.52350E-02-9.27125E-09 1.78567E-01 2.30365E-09 3.76818E-11-3.90655E-03
 -1      6320-3.98194E-02-1.39938E-08 1.73151E-01 8.54945E-09-1.45378E-10 3.71749E-03
 -1      6321-3.98194E-02-1.39938E-08 1.73151E-01 8.54945E-09-1.21578E-17-2.46412E-17
 -1      6322-3.98194E-02-1.39938E-08 1.73151E-01 8.54945E-09 1.45378E-10-3.71749E-03
 -1      6323-3.48391E-02-1.92229E-08 1.68171E-01-5.11169E-09 9.50493E-11 3.54361E-03
 -1      6324-3.48391E-02-1.92229E-08 1.68171E-01-5.11169E-09-3.73032E-18-6.00269E-17
 -1      6325-3.48391E-02-1.92229E-08 1.68171E-01-5.11169E-09-9.50493E-11-3.54361E-03
 -1      6326-3.02624E-02 1.73550E-08 1.63594E-01 3.20359E-08-5.46640E-10 3.38383E-03
 -1      6327-3.02624E-02 1.73550E-08 1.63594E-01 3.20359E-08-7.00965E-17-2.47684E-16
 -1      6328-3.02624E-02 1.73550E-08 1.63594E-01 3.20359E-08 5.46640E-10-3.38383E-03
 -1      6329-2.60257E-02-4.32433E-08 1.59358E-01-1.03847E-08 1.93240E-10 3.23593E-03
 -1      6330-2.60257E-02-4.32433E-08 1.59358E-01-1.03847E-08-3.16685E-17 1.31157E-17
 -1      6331-2.60257E-02-4.32433E-08 1.59358E-01-1.03847E-08-1.93240E-10-3.23593E-03
 -1      6332-2.21189E-02 1.82494E-08 1.55451E-01-1.02332E-07 1.79708E-09 3.09953E-03
 -1      6333-2.21189E-02 1.82494E-08 1.55451E-01-1.02332E-07-3.26369E-17-3.44721E-17
 -1      6334-2.21189E-02 1.82494E-08 1.55451E-01-1.02332E-07-1.79708E-09-3.09953E-03
 -1      6335-1.85279E-02 1.54656E-08 1.51860E-01 3.31488E-08-5.72286E-10 2.97417E-03
 -1      6336-1.85279E-02 1.54656E-08 1.51860E-01 3.31488E-08 3.98790E-17-2.66305E-16
 -1      6337-1.85279E-02 1.54656E-08 1.51860E-01 3.31488E-08 5.72286E-10-2.97417E-03
 -1      6338-2.43248E-02 1.74400E-08 1.57657E-01-4.28350E-08 7.51897E-10 3.17656E-03
 -1      6339-2.43248E-02 1.74400E-08 1.57657E-01-4.28350E-08 1.11030E-17-1.02358E-18
 -1      6340-2.43248E-02 1.74400E-08 1.57657E-01-4.28350E-08-7.51897E-10-3.17656E-03
 -1      6341-5.20630E-01 3.00771E-07 6.53962E-01-1.01088E-06 1.76179E-08 2.05048E-02
 -1      6342-5.20630E-01 3.00771E-07 6.53962E-01-1.01088E-06-4.66654E-18 6.28329E-16
 -1      6343-5.20630E-01 3.00771E-07 6.53962E-01-1.01088E-06-1.76179E-08-2.05048E-02
 -1      6344-1.33529E-02-4.05065E-08 1.46685E-01 1.14074E-09-1.38855E-11 2.79352E-03
 -1      6345-1.33529E-02-4.05065E-08 1.46685E-01 1.14074E-09-2.97876E-17-2.57731E-17
 -1      6346-1.33529E-02-4.05065E-08 1.46685E-01 1.14074E-09 1.38854E-11-2.79352E-03
 -1      6347-1.31922E-02 2.44760E-08 1.46525E-01-2.25719E-07 3.94497E-09 2.78792E-03
 -1      6348-1.31922E-02 2.44760E-08 1.46525E-01-2.25719E-07 1.20414E-17-1.15143E-17
 -1      6349-1.31922E-02 2.44760E-08 1.46525E-01-2.25719E-07-3.94497E-09-2.78792E-03
 -1      6350-5.11704E-01-2.02090E-05 6.45040E-01-3.64476E-06 6.29041E-08 2.01935E-02
 -1      6351-5.11704E-01-2.02090E-05 6.45040E-01-3.64476E-06-3.12873E-17 1.02928E-15
 -1      6352-5.11704E-01-2.02090E-05 6.45040E-01-3.64476E-06-6.29041E-08-2.01935E-02
 -1      6353-5.20976E-01-5.74195E-07 6.54309E-01-4.64098E-09 8.74706E-11 2.05169E-02
 -1      6354-5.20976E-01-5.74195E-07 6.54309E-01-4.64098E-09 5.44751E-17-2.19816E-15
 -1      6355-5.20976E-01-5.74195E-07 6.54309E-01-4.64098E-09-8.74705E-11-2.05169E-02
 -1      6356-1.34094E-01 2.74938E-08 2.67426E-01 1.50108E-08-2.61881E-10 7.00882E-03
 -1      6357-1.34094E-01 2.74938E-08 2.67426E-01 1.50108E-08 1.17385E-18-2.03385E-18
 -1      6358-1.34094E-01 2.74938E-08 2.67426E-01 1.50108E-08 2.61881E-10-7.00882E-03
 -1      6359-2.88710E-02 1.01896E-08 1.62203E-01 2.23546E-08-3.80950E-10 3.33527E-03
 -1      6360-2.88710E-02 1.01896E-08 1.62203E-01 2.23546E-08-6.59235E-18-1.88171E-16
 -1      6361-2.88710E-02 1.01896E-08 1.62203E-01 2.23546E-08 3.80950E-10-3.33527E-03
 -1      6362-5.20963E-01-3.76956E-07 6.54295E-01-3.94153E-08 6.96498E-10 2.05165E-02
 -1      6363-5.20963E-01-3.76956E-07 6.54295E-01-3.94153E-08-5.42317E-18 4.45943E-15
 -1      6364-5.20963E-01-3.76956E-07 6.54295E-01-3.94153E-08-6.96498E-10-2.05165E-02
 -1      6365-3.11705E-01 6.43115E-07 4.45040E-01 1.80307E-06-3.16006E-08 1.32099E-02
 -1      6366-3.11705E-01 6.43115E-07 4.45040E-01 1.80307E-06 1.14489E-17-5.43045E-16
 -1      6367-3.11705E-01 6.43115E-07 4.45040E-01 1.80307E-06 3.16006E-08-1.32099E-02
 -1      6368-5.19270E-01-1.73926E-06 6.52598E-01 5.86455E-07-1.01540E-08 2.04573E-02
 -1      6369-5.19270E-01-1.73926E-06 6.52598E-01 5.86455E-07 7.34934E-17 3.45736E-16
 -1      6370-5.19270E-01-1.73926E-06 6.52598E-01 5.86455E-07 1.01540E-08-2.04573E-02
 -1      6371-5.70220E-02 2.33544E-09 1.90354E-01 2.87065E-09-5.01529E-11 4.31806E-03
 -1      6372-5.70220E-02 2.33544E-09 1.90354E-01 2.87065E-09-3.83205E-18 2.35952E-17
 -1      6373-5.70220E-02 2.33544E-09 1.90354E-01 2.87065E-09 5.01529E-11-4.31806E-03
 -1      6374-1.48564E-01 2.10769E-08 2.81896E-01 2.92685E-08-5.11200E-10 7.51399E-03
 -1      6375-1.48564E-01 2.10769E-08 2.81896E-01 2.92685E-08 6.62714E-19-4.56560E-17
 -1      6376-1.48564E-01 2.10769E-08 2.81896E-01 2.92685E-08 5.11200E-10-7.51399E-03
 -1      6377-5.30868E-01 8.59674E-06 6.64164E-01 2.78754E-06-4.87499E-08 2.08613E-02
 -1      6378-5.30868E-01 8.59674E-06 6.64164E-01 2.78754E-06-5.31993E-17 4.85756E-16
 -1      6379-5.30868E-01 8.59674E-06 6.64164E-01 2.78754E-06 4.87499E-08-2.08613E-02
 -1      6380-2.50749E-01 3.64065E-08 3.84081E-01-8.71061E-08 1.51651E-09 1.10816E-02
 -1      6381-2.50749E-01 3.64065E-08 3.84081E-01-8.71061E-08-5.25023E-17 2.68175E-16
 -1      6382-2.50749E-01 3.64065E-08 3.84081E-01-8.71061E-08-1.51651E-09-1.10816E-02
 -1      6383-1.21040E-01 2.25628E-08 2.54372E-01 7.02702E-10-1.21320E-11 6.55307E-03
 -1      6384-1.21040E-01 2.25628E-08 2.54372E-01 7.02702E-10-1.24712E-17-3.99928E-16
 -1      6385-1.21040E-01 2.25628E-08 2.54372E-01 7.02702E-10 1.21320E-11-6.55307E-03
 -1      6386-8.86851E-02 5.55315E-09 2.22017E-01-1.98537E-09 3.45549E-11 5.42348E-03
 -1      6387-8.86851E-02 5.55315E-09 2.22017E-01-1.98536E-09-1.31034E-17 5.64855E-16
 -1      6388-8.86851E-02 5.55315E-09 2.22017E-01-1.98536E-09-3.45549E-11-5.42348E-03
 -1      6389-1.64663E-01-2.87932E-09 2.97995E-01 3.52302E-08-6.15021E-10 8.07605E-03
 -1      6390-1.64663E-01-2.87932E-09 2.97995E-01 3.52302E-08-5.24392E-17-8.88994E-17
 -1      6391-1.64663E-01-2.87932E-09 2.97995E-01 3.52302E-08 6.15021E-10-8.07605E-03
 -1      6392-1.33457E-02 1.77609E-08 1.46678E-01-2.46548E-08 4.36346E-10 2.79326E-03
 -1      6393-1.33457E-02 1.77609E-08 1.46678E-01-2.46548E-08 1.57536E-17-7.50311E-17
 -1      6394-1.33457E-02 1.77609E-08 1.46678E-01-2.46548E-08-4.36346E-10-2.79326E-03
 -1      6395-2.02798E-01-7.04203E-08 3.36130E-01-2.68316E-08 4.70814E-10 9.40747E-03
 -1      6396-2.02798E-01-7.04203E-08 3.36130E-01-2.68316E-08-7.96260E-18 5.58253E-16
 -1      6397-2.02798E-01-7.04203E-08 3.36130E-01-2.68316E-08-4.70814E-10-9.40747E-03
 -1      6398-1.51800E-02-2.16531E-07 1.48511E-01-2.02239E-07 3.51459E-09 2.85728E-03
 -1      6399-1.51800E-02-2.16531E-07 1.48511E-01-2.02239E-07-8.85423E-18 2.13395E-16
 -1      6400-1.51800E-02-2.16531E-07 1.48511E-01-2.02239E-07-3.51459E-09-2.85728E-03
 -1      6401-3.49550E-01-3.48112E-07 4.82885E-01-4.66954E-09-9.00800E-11 1.45313E-02
 -1      6402-3.49550E-01-3.48112E-07 4.82885E-01-4.66954E-09-1.74152E-17-1.68219E-15
 -1      6403-3.49550E-01-3.48112E-07 4.82885E-01-4.66954E-09 9.00800E-11-1.45313E-02
 -1      6404-1.24496E-02-2.30119E-07 1.45782E-01-3.92501E-08 7.13437E-10 2.76196E-03
 -1      6405-1.24496E-02-2.30119E-07 1.45782E-01-3.92501E-08-1.04893E-17-1.65407E-17
 -1      6406-1.24496E-02-2.30119E-07 1.45782E-01-3.92501E-08-7.13437E-10-2.76196E-03
 -1      6407-4.45806E-02-2.62171E-09 1.77913E-01 8.99468E-09-1.55013E-10 3.88371E-03
 -1      6408-4.45806E-02-2.62171E-09 1.77913E-01 8.99468E-09-6.00064E-19 1.01989E-16
 -1      6409-4.45806E-02-2.62171E-09 1.77913E-01 8.99468E-09 1.55013E-10-3.88371E-03
 -1      6410-4.48463E-01-9.77890E-06 5.81769E-01 2.24315E-06-3.96496E-08 1.79848E-02
 -1      6411-4.48463E-01-9.77890E-06 5.81769E-01 2.24315E-06 5.03233E-17 1.51581E-15
 -1      6412-4.48463E-01-9.77890E-06 5.81769E-01 2.24315E-06 3.96496E-08-1.79848E-02
 -1      6413-5.05828E-02 1.84707E-09 1.83915E-01 1.00123E-09-1.71252E-11 4.09326E-03
 -1      6414-5.05828E-02 1.84707E-09 1.83915E-01 1.00123E-09-6.28013E-18-3.93612E-16
 -1      6415-5.05828E-02 1.84707E-09 1.83915E-01 1.00123E-09 1.71251E-11-4.09326E-03
 -1      6416-9.84754E-02 1.02428E-08 2.31807E-01-3.78859E-09 6.62843E-11 5.76528E-03
 -1      6417-9.84754E-02 1.02428E-08 2.31807E-01-3.78859E-09 1.40392E-18-3.58205E-16
 -1      6418-9.84754E-02 1.02428E-08 2.31807E-01-3.78858E-09-6.62843E-11-5.76528E-03
 -1      6419-1.65133E-02 1.39647E-08 1.49845E-01-5.53139E-09 1.02277E-10 2.90384E-03
 -1      6420-1.65133E-02 1.39647E-08 1.49845E-01-5.53139E-09-3.04119E-17 5.34878E-16
 -1      6421-1.65133E-02 1.39647E-08 1.49845E-01-5.53139E-09-1.02277E-10-2.90384E-03
 -1      6422-2.25395E-01-7.57175E-08 3.58727E-01-8.46707E-08 1.48185E-09 1.01964E-02
 -1      6423-2.25395E-01-7.57175E-08 3.58727E-01-8.46707E-08 9.60648E-19-1.35661E-15
 -1      6424-2.25395E-01-7.57175E-08 3.58727E-01-8.46707E-08-1.48185E-09-1.01964E-02
 -1      6425-4.64847E-01-1.39785E-06 5.98178E-01-3.77807E-07 6.57392E-09 1.85570E-02
 -1      6426-4.64847E-01-1.39785E-06 5.98178E-01-3.77807E-07-1.78541E-17 1.04456E-15
 -1      6427-4.64847E-01-1.39785E-06 5.98178E-01-3.77807E-07-6.57392E-09-1.85570E-02
 -1      6428-4.27359E-01 6.99360E-06 5.60720E-01 6.77520E-06-1.18520E-07 1.72489E-02
 -1      6429-4.27359E-01 6.99360E-06 5.60720E-01 6.77520E-06-5.02974E-18 9.42170E-16
 -1      6430-4.27359E-01 6.99360E-06 5.60720E-01 6.77520E-06 1.18520E-07-1.72489E-02
 -1      6431-1.64729E-02 1.64106E-08 1.49805E-01 9.87099E-09-1.76386E-10 2.90243E-03
 -1      6432-1.64729E-02 1.64106E-08 1.49805E-01 9.87099E-09 6.11465E-18-7.86667E-17
 -1      6433-1.64729E-02 1.64106E-08 1.49805E-01 9.87099E-09 1.76386E-10-2.90243E-03
 -1      6434-4.65500E-01-4.58518E-07 5.98831E-01-3.06859E-07 5.32271E-09 1.85798E-02
 -1      6435-4.65500E-01-4.58518E-07 5.98831E-01-3.06859E-07-7.12640E-18-4.04308E-16
 -1      6436-4.65500E-01-4.58518E-07 5.98831E-01-3.06859E-07-5.32271E-09-1.85798E-02
 -1      6437-3.10528E-02-3.33209E-08 1.64385E-01 7.11151E-08-1.22485E-09 3.41144E-03
 -1      6438-3.10528E-02-3.33209E-08 1.64385E-01 7.11151E-08 4.26652E-18-6.89304E-16
 -1      6439-3.10528E-02-3.33209E-08 1.64385E-01 7.11151E-08 1.22485E-09-3.41144E-03
 -1      6440-4.66851E-01-1.10652E-05 6.00180E-01 5.15167E-06-8.99152E-08 1.86273E-02
 -1      6441-4.66851E-01-1.10652E-05 6.00180E-01 5.15167E-06 1.90175E-18-1.70316E-15
 -1      6442-4.66851E-01-1.10652E-05 6.00180E-01 5.15167E-06 8.99152E-08-1.86273E-02
 -1      6443-1.61244E-02 4.10943E-08 1.49455E-01-5.32786E-08 9.00795E-10 2.89023E-03
 -1      6444-1.61244E-02 4.10943E-08 1.49455E-01-5.32786E-08-9.78680E-18-1.02773E-16
 -1      6445-1.61244E-02 4.10943E-08 1.49455E-01-5.32786E-08-9.00795E-10-2.89023E-03
 -1      6446-2.79267E-01 3.68788E-07 4.12600E-01 4.15372E-07-7.28767E-09 1.20773E-02
 -1      6447-2.79267E-01 3.68788E-07 4.12600E-01 4.15372E-07 9.84408E-18-1.45342E-15
 -1      6448-2.79267E-01 3.68788E-07 4.12600E-01 4.15372E-07 7.28767E-09-1.20773E-02
 -1      6449-1.67539E-02-8.49375E-09 1.50086E-01 4.22336E-09-8.80364E-11 2.91226E-03
 -1      6450-1.67539E-02-8.49374E-09 1.50086E-01 4.22336E-09-9.91892E-18 2.42512E-16
 -1      6451-1.67539E-02-8.49374E-09 1.50086E-01 4.22336E-09 8.80364E-11-2.91226E-03
 -1      6452-4.97816E-01 2.08995E-07 6.31234E-01-3.59116E-06 6.22773E-08 1.97107E-02
 -1      6453-4.97816E-01 2.08995E-07 6.31234E-01-3.59116E-06-3.58883E-17 1.33723E-15
 -1      6454-4.97816E-01 2.08995E-07 6.31234E-01-3.59116E-06-6.22773E-08-1.97107E-02
 -1      6455-1.67916E-02 1.71247E-07 1.50124E-01 1.47126E-07-2.56649E-09 2.91357E-03
 -1      6456-1.67916E-02 1.71247E-07 1.50124E-01 1.47126E-07 2.77543E-17-4.99159E-16
 -1      6457-1.67916E-02 1.71247E-07 1.50124E-01 1.47126E-07 2.56649E-09-2.91357E-03
 -1      6458-3.94426E-01-5.41418E-07 5.27755E-01-3.20692E-06 5.57757E-08 1.60982E-02
 -1      6459-3.94426E-01-5.41418E-07 5.27755E-01-3.20692E-06-1.76455E-17-1.97970E-15
 -1      6460-3.94426E-01-5.41418E-07 5.27755E-01-3.20692E-06-5.57757E-08-1.60982E-02
 -1      6461-1.63933E-02-2.75749E-09 1.49725E-01 2.79619E-09-4.69662E-11 2.89965E-03
 -1      6462-1.63933E-02-2.75749E-09 1.49725E-01 2.79619E-09 1.16208E-18 3.17727E-16
 -1      6463-1.63933E-02-2.75749E-09 1.49725E-01 2.79619E-09 4.69662E-11-2.89965E-03
 -1      6464-2.64615E-01-2.14456E-07 3.97947E-01-3.11622E-07 5.46280E-09 1.15657E-02
 -1      6465-2.64615E-01-2.14456E-07 3.97947E-01-3.11622E-07-6.96279E-18 1.06749E-15
 -1      6466-2.64615E-01-2.14456E-07 3.97947E-01-3.11622E-07-5.46280E-09-1.15657E-02
 -1      6467-1.03718E-01 1.13034E-08 2.37050E-01-2.46382E-09 4.35430E-11 5.94832E-03
 -1      6468-1.03718E-01 1.13034E-08 2.37050E-01-2.46382E-09 3.56010E-18-1.01580E-15
 -1      6469-1.03718E-01 1.13034E-08 2.37050E-01-2.46382E-09-4.35430E-11-5.94832E-03
 -1      6470-1.77580E-02-1.24756E-07 1.51091E-01-3.06172E-07 5.28734E-09 2.94732E-03
 -1      6471-1.77580E-02-1.24756E-07 1.51091E-01-3.06172E-07-1.59174E-17 1.13333E-16
 -1      6472-1.77580E-02-1.24756E-07 1.51091E-01-3.06172E-07-5.28734E-09-2.94732E-03
 -1      6473-1.65732E-02 1.81574E-07 1.49906E-01-3.53431E-08 6.55697E-10 2.90595E-03
 -1      6474-1.65732E-02 1.81574E-07 1.49906E-01-3.53431E-08 1.55534E-18 1.56104E-17
 -1      6475-1.65732E-02 1.81574E-07 1.49906E-01-3.53431E-08-6.55697E-10-2.90595E-03
 -1      6476-1.65970E-02 3.89236E-08 1.49929E-01 2.39440E-08-4.27880E-10 2.90677E-03
 -1      6477-1.65970E-02 3.89236E-08 1.49929E-01 2.39440E-08 2.07920E-17 2.73756E-16
 -1      6478-1.65970E-02 3.89236E-08 1.49929E-01 2.39440E-08 4.27880E-10-2.90677E-03
 -1      6479-4.65654E-01-3.17134E-07 5.98985E-01-2.19029E-07 3.79610E-09 1.85852E-02
 -1      6480-4.65654E-01-3.17134E-07 5.98985E-01-2.19029E-07-1.63254E-16 1.11703E-15
 -1      6481-4.65654E-01-3.17134E-07 5.98985E-01-2.19029E-07-3.79610E-09-1.85852E-02
 -1      6482-6.04493E-02 4.01040E-09 1.93781E-01 4.04474E-09-7.14440E-11 4.43771E-03
 -1      6483-6.04493E-02 4.01040E-09 1.93781E-01 4.04474E-09-1.33757E-17 3.68365E-17
 -1      6484-6.04493E-02 4.01040E-09 1.93781E-01 4.04474E-09 7.14440E-11-4.43771E-03
 -1      6485-1.64307E-02-5.34681E-09 1.49763E-01-1.50009E-10 6.12646E-12 2.90096E-03
 -1      6486-1.64307E-02-5.34681E-09 1.49763E-01-1.50008E-10-1.70974E-17-3.03778E-16
 -1      6487-1.64307E-02-5.34681E-09 1.49763E-01-1.50008E-10-6.12649E-12-2.90096E-03
 -1      6488-4.64615E-01-5.55166E-06 5.97907E-01 1.44081E-06-2.51880E-08 1.85483E-02
 -1      6489-4.64615E-01-5.55166E-06 5.97907E-01 1.44081E-06-3.58012E-17 2.48637E-16
 -1      6490-4.64615E-01-5.55166E-06 5.97907E-01 1.44081E-06 2.51880E-08-1.85483E-02
 -1      6491-1.62560E-02 5.41057E-07 1.49589E-01 3.65783E-07-6.45702E-09 2.89489E-03
 -1      6492-1.62560E-02 5.41057E-07 1.49589E-01 3.65783E-07-9.27741E-17 4.42825E-16
 -1      6493-1.62560E-02 5.41057E-07 1.49589E-01 3.65783E-07 6.45702E-09-2.89489E-03
 -1      6494-4.64815E-01-2.22802E-07 5.98147E-01 1.20101E-07-2.08385E-09 1.85559E-02
 -1      6495-4.64815E-01-2.22802E-07 5.98147E-01 1.20101E-07-4.18630E-17 1.78037E-15
 -1      6496-4.64815E-01-2.22802E-07 5.98147E-01 1.20101E-07 2.08385E-09-1.85559E-02
 -1      6497-4.56449E-01 2.34346E-06 5.89780E-01 7.20720E-08-9.33733E-10 1.82639E-02
 -1      6498-4.56449E-01 2.34346E-06 5.89780E-01 7.20720E-08 5.72173E-17-4.79527E-16
 -1      6499-4.56449E-01 2.34346E-06 5.89780E-01 7.20720E-08 9.33734E-10-1.82639E-02
 -1      6500-4.62107E-01 4.49703E-07 5.95436E-01 1.87444E-07-3.14273E-09 1.84613E-02
 -1      6501-4.62107E-01 4.49703E-07 5.95436E-01 1.87444E-07-8.86878E-17-9.83868E-16
 -1      6502-4.62107E-01 4.49703E-07 5.95436E-01 1.87444E-07 3.14273E-09-1.84613E-02
 -1      6503-3.61972E-02-1.73458E-08 1.69529E-01 3.72615E-08-6.43039E-10 3.59104E-03
 -1      6504-3.61972E-02-1.73458E-08 1.69529E-01 3.72615E-08 6.25455E-18 1.01716E-17
 -1      6505-3.61972E-02-1.73458E-08 1.69529E-01 3.72615E-08 6.43039E-10-3.59104E-03
 -1      6506-3.75468E-01 3.84206E-07 5.08806E-01 9.64961E-08-1.71731E-09 1.54364E-02
 -1      6507-3.75468E-01 3.84206E-07 5.08806E-01 9.64961E-08 4.08590E-17 6.00569E-16
 -1      6508-3.75468E-01 3.84206E-07 5.08806E-01 9.64961E-08 1.71731E-09-1.54364E-02
 -1      6509-3.32603E-01 1.18140E-07 4.65937E-01-3.16306E-08 5.65396E-10 1.39396E-02
 -1      6510-3.32603E-01 1.18140E-07 4.65937E-01-3.16306E-08 8.60121E-17-1.00950E-15
 -1      6511-3.32603E-01 1.18140E-07 4.65937E-01-3.16306E-08-5.65396E-10-1.39396E-02
 -1      6512-2.96128E-01 1.12545E-07 4.29461E-01-2.02053E-07 3.54151E-09 1.26661E-02
 -1      6513-2.96128E-01 1.12545E-07 4.29461E-01-2.02053E-07 1.83471E-17 1.57971E-15
 -1      6514-2.96128E-01 1.12545E-07 4.29461E-01-2.02053E-07-3.54151E-09-1.26661E-02
 -1      6515-2.64677E-01 1.33172E-07 3.98010E-01-2.27545E-07 3.97911E-09 1.15680E-02
 -1      6516-2.64677E-01 1.33172E-07 3.98010E-01-2.27545E-07-5.78863E-17 1.23618E-15
 -1      6517-2.64677E-01 1.33172E-07 3.98010E-01-2.27545E-07-3.97911E-09-1.15680E-02
 -1      6518-2.37304E-01 1.19166E-07 3.70636E-01-1.89020E-07 3.30073E-09 1.06122E-02
 -1      6519-2.37304E-01 1.19166E-07 3.70636E-01-1.89020E-07-8.77479E-17 1.74701E-16
 -1      6520-2.37304E-01 1.19166E-07 3.70636E-01-1.89020E-07-3.30073E-09-1.06122E-02
 -1      6521-2.13278E-01 1.49214E-07 3.46610E-01-8.81452E-08 1.53749E-09 9.77338E-03
 -1      6522-2.13278E-01 1.49214E-07 3.46610E-01-8.81452E-08-1.98798E-17-9.28677E-16
 -1      6523-2.13278E-01 1.49214E-07 3.46610E-01-8.81452E-08-1.53749E-09-9.77338E-03
 -1      6524-1.92021E-01 3.88353E-08 3.25353E-01-8.20643E-09 1.40261E-10 9.03123E-03
 -1      6525-1.92021E-01 3.88353E-08 3.25353E-01-8.20643E-09 1.37437E-17 9.87905E-16
 -1      6526-1.92021E-01 3.88353E-08 3.25353E-01-8.20644E-09-1.40261E-10-9.03123E-03
 -1      6527-1.73080E-01-9.17962E-09 3.06412E-01-9.93634E-09 1.70045E-10 8.36992E-03
 -1      6528-1.73080E-01-9.17963E-09 3.06412E-01-9.93634E-09-5.40925E-17 1.01901E-16
 -1      6529-1.73080E-01-9.17963E-09 3.06412E-01-9.93634E-09-1.70046E-10-8.36992E-03
 -1      6530-1.56126E-01-6.29236E-09 2.89458E-01-1.99574E-08 3.45121E-10 7.77801E-03
 -1      6531-1.56126E-01-6.29236E-09 2.89458E-01-1.99574E-08-2.37139E-17 3.01795E-17
 -1      6532-1.56126E-01-6.29236E-09 2.89458E-01-1.99574E-08-3.45122E-10-7.77801E-03
 -1      6533-1.40900E-01 7.73766E-09 2.74232E-01-1.72935E-08 2.98966E-10 7.24644E-03
 -1      6534-1.40900E-01 7.73766E-09 2.74232E-01-1.72935E-08 5.12363E-17-3.09120E-17
 -1      6535-1.40900E-01 7.73766E-09 2.74232E-01-1.72935E-08-2.98966E-10-7.24644E-03
 -1      6536-1.27180E-01 1.26505E-08 2.60512E-01-5.55911E-09 9.45293E-11 6.76744E-03
 -1      6537-1.27180E-01 1.26505E-08 2.60512E-01-5.55911E-09 3.06133E-17-9.42564E-16
 -1      6538-1.27180E-01 1.26505E-08 2.60512E-01-5.55911E-09-9.45292E-11-6.76744E-03
 -1      6539-1.14771E-01 4.81553E-09 2.48103E-01 3.30000E-09-5.98506E-11 6.33421E-03
 -1      6540-1.14771E-01 4.81553E-09 2.48103E-01 3.30000E-09-4.63713E-17-3.54057E-16
 -1      6541-1.14771E-01 4.81553E-09 2.48103E-01 3.30000E-09 5.98505E-11-6.33421E-03
 -1      6542-1.03508E-01-6.05779E-09 2.36841E-01 2.38757E-09-4.38281E-11 5.94100E-03
 -1      6543-1.03508E-01-6.05779E-09 2.36841E-01 2.38757E-09-1.28335E-17 5.79086E-16
 -1      6544-1.03508E-01-6.05779E-09 2.36841E-01 2.38757E-09 4.38281E-11-5.94100E-03
 -1      6545-9.32565E-02-9.61835E-09 2.26589E-01-3.95041E-09 6.68997E-11 5.58308E-03
 -1      6546-9.32565E-02-9.61835E-09 2.26589E-01-3.95041E-09-3.43173E-18-2.76796E-17
 -1      6547-9.32565E-02-9.61835E-09 2.26589E-01-3.95041E-09-6.68997E-11-5.58308E-03
 -1      6548-8.39039E-02-5.52009E-09 2.17236E-01-7.75874E-09 1.33516E-10 5.25656E-03
 -1      6549-8.39039E-02-5.52009E-09 2.17236E-01-7.75874E-09 2.87870E-18 6.23915E-16
 -1      6550-8.39039E-02-5.52009E-09 2.17236E-01-7.75874E-09-1.33516E-10-5.25656E-03
 -1      6551-7.53537E-02 6.90427E-10 2.08686E-01-5.12458E-09 8.78539E-11 4.95805E-03
 -1      6552-7.53537E-02 6.90428E-10 2.08686E-01-5.12458E-09-9.03256E-18-6.96681E-16
 -1      6553-7.53537E-02 6.90429E-10 2.08686E-01-5.12457E-09-8.78539E-11-4.95805E-03
 -1      6554-6.75182E-02 4.16904E-09 2.00850E-01 3.32849E-09-5.91154E-11 4.68450E-03
 -1      6555-6.75182E-02 4.16904E-09 2.00850E-01 3.32849E-09 2.39508E-17 3.51546E-16
 -1      6556-6.75182E-02 4.16903E-09 2.00850E-01 3.32849E-09 5.91155E-11-4.68450E-03
 -1      6557-6.03199E-02-2.15740E-10 1.93652E-01 1.07397E-08-1.88105E-10 4.43319E-03
 -1      6558-6.03199E-02-2.15739E-10 1.93652E-01 1.07397E-08-1.75627E-17 6.95230E-17
 -1      6559-6.03199E-02-2.15738E-10 1.93652E-01 1.07397E-08 1.88105E-10-4.43319E-03
 -1      6560-5.36959E-02-1.24164E-08 1.87028E-01 4.37275E-09-7.74364E-11 4.20194E-03
 -1      6561-5.36959E-02-1.24164E-08 1.87028E-01 4.37274E-09 6.54225E-17-5.89367E-16
 -1      6562-5.36959E-02-1.24164E-08 1.87028E-01 4.37274E-09 7.74365E-11-4.20194E-03
 -1      6563-4.76055E-02-1.37897E-08 1.80937E-01-8.59728E-09 1.48892E-10 3.98931E-03
 -1      6564-4.76055E-02-1.37897E-08 1.80937E-01-8.59728E-09-1.55061E-17 2.87631E-16
 -1      6565-4.76055E-02-1.37897E-08 1.80937E-01-8.59728E-09-1.48892E-10-3.98931E-03
 -1      6566-4.20209E-02 4.95096E-09 1.75353E-01 1.31288E-08-2.27830E-10 3.79434E-03
 -1      6567-4.20209E-02 4.95096E-09 1.75353E-01 1.31288E-08 7.03737E-17-1.75976E-16
 -1      6568-4.20209E-02 4.95096E-09 1.75353E-01 1.31288E-08 2.27830E-10-3.79434E-03
 -1      6569-3.69003E-02-2.92669E-08 1.70232E-01 2.09520E-08-3.64082E-10 3.61557E-03
 -1      6570-3.69003E-02-2.92669E-08 1.70232E-01 2.09520E-08 3.41455E-19-1.55834E-16
 -1      6571-3.69003E-02-2.92669E-08 1.70232E-01 2.09520E-08 3.64082E-10-3.61557E-03
 -1      6572-3.22150E-02-7.26685E-08 1.65547E-01-6.78155E-08 1.18457E-09 3.45200E-03
 -1      6573-3.22150E-02-7.26685E-08 1.65547E-01-6.78155E-08-6.67617E-17 2.18826E-16
 -1      6574-3.22150E-02-7.26685E-08 1.65547E-01-6.78155E-08-1.18457E-09-3.45200E-03
 -1      6575-2.79841E-02-1.63115E-08 1.61316E-01 1.59809E-07-2.76140E-09 3.30430E-03
 -1      6576-2.79841E-02-1.63115E-08 1.61316E-01 1.59809E-07 7.84660E-17 1.51509E-16
 -1      6577-2.79841E-02-1.63115E-08 1.61316E-01 1.59809E-07 2.76140E-09-3.30430E-03
 -1      6578-2.40189E-02-1.88137E-07 1.57351E-01-2.42425E-07 4.25270E-09 3.16586E-03
 -1      6579-2.40189E-02-1.88137E-07 1.57351E-01-2.42425E-07-3.71400E-18 3.31575E-16
 -1      6580-2.40189E-02-1.88137E-07 1.57351E-01-2.42425E-07-4.25270E-09-3.16586E-03
 -1      6581-2.04024E-02 9.98038E-08 1.53735E-01 5.71663E-08-1.00779E-09 3.03961E-03
 -1      6582-2.04024E-02 9.98038E-08 1.53735E-01 5.71663E-08 5.70042E-18-3.38128E-16
 -1      6583-2.04024E-02 9.98038E-08 1.53735E-01 5.71663E-08 1.00779E-09-3.03961E-03
 -1      6584-2.19003E-02-7.32317E-08 1.55232E-01-1.70785E-07 2.97748E-09 3.09191E-03
 -1      6585-2.19003E-02-7.32317E-08 1.55232E-01-1.70785E-07 2.43765E-18 6.94574E-17
 -1      6586-2.19003E-02-7.32317E-08 1.55232E-01-1.70785E-07-2.97748E-09-3.09191E-03
 -1      6587-2.94362E-01 3.81825E-09 4.27693E-01 7.49098E-07-1.31153E-08 1.26042E-02
 -1      6588-2.94362E-01 3.81825E-09 4.27693E-01 7.49098E-07 2.32283E-18-9.74891E-16
 -1      6589-2.94362E-01 3.81825E-09 4.27693E-01 7.49098E-07 1.31153E-08-1.26042E-02
 -1      6590-4.64461E-01-2.59833E-06 5.97785E-01-6.50125E-07 1.13001E-08 1.85434E-02
 -1      6591-4.64461E-01-2.59833E-06 5.97785E-01-6.50125E-07-4.85170E-17-7.95649E-16
 -1      6592-4.64461E-01-2.59833E-06 5.97785E-01-6.50125E-07-1.13001E-08-1.85434E-02
 -1      6593-1.66583E-02 5.05357E-08 1.49991E-01-2.43358E-07 4.27944E-09 2.90892E-03
 -1      6594-1.66583E-02 5.05357E-08 1.49991E-01-2.43358E-07 2.29470E-17-1.80821E-16
 -1      6595-1.66583E-02 5.05357E-08 1.49991E-01-2.43358E-07-4.27944E-09-2.90892E-03
 -1      6596-4.46112E-01-6.11840E-06 5.79443E-01-5.73569E-06 1.00814E-07 1.79032E-02
 -1      6597-4.46112E-01-6.11840E-06 5.79443E-01-5.73569E-06 8.43455E-18 2.52715E-15
 -1      6598-4.46112E-01-6.11840E-06 5.79443E-01-5.73569E-06-1.00814E-07-1.79032E-02
 -1      6599-4.65114E-01-3.19384E-07 5.98447E-01-1.28033E-07 2.22306E-09 1.85664E-02
 -1      6600-4.65114E-01-3.19384E-07 5.98447E-01-1.28033E-07 3.97833E-17-1.60532E-16
 -1      6601-4.65114E-01-3.19384E-07 5.98447E-01-1.28033E-07-2.22306E-09-1.85664E-02
 -1      6602-9.34705E-02 6.71404E-09 2.26803E-01-6.20622E-09 1.08528E-10 5.59055E-03
 -1      6603-9.34705E-02 6.71404E-09 2.26803E-01-6.20621E-09 9.90308E-18 6.01421E-16
 -1      6604-9.34705E-02 6.71404E-09 2.26803E-01-6.20621E-09-1.08528E-10-5.59055E-03
 -1      6605-4.65013E-01-2.17248E-07 5.98343E-01-8.01613E-08 1.42303E-09 1.85628E-02
 -1      6606-4.65013E-01-2.17248E-07 5.98343E-01-8.01613E-08-5.55235E-18-1.70992E-15
 -1      6607-4.65013E-01-2.17248E-07 5.98343E-01-8.01613E-08-1.42303E-09-1.85628E-02
 -1      6608-4.16822E-02-2.44417E-09 1.75014E-01 1.81712E-08-3.14801E-10 3.78253E-03
 -1      6609-4.16822E-02-2.44417E-09 1.75014E-01 1.81712E-08 1.60771E-17-4.95305E-16
 -1      6610-4.16822E-02-2.44417E-09 1.75014E-01 1.81712E-08 3.14801E-10-3.78253E-03
 -1      6611-2.37811E-01-2.14178E-07 3.71143E-01-1.88141E-07 3.30452E-09 1.06299E-02
 -1      6612-2.37811E-01-2.14178E-07 3.71143E-01-1.88141E-07 1.10221E-17 1.73772E-16
 -1      6613-2.37811E-01-2.14178E-07 3.71143E-01-1.88141E-07-3.30452E-09-1.06299E-02
 -1      6614-1.41126E-01 4.14739E-08 2.74458E-01 2.33872E-08-4.08456E-10 7.25430E-03
 -1      6615-1.41126E-01 4.14739E-08 2.74458E-01 2.33872E-08-1.92920E-17 5.72383E-16
 -1      6616-1.41126E-01 4.14739E-08 2.74458E-01 2.33872E-08 4.08456E-10-7.25430E-03
 -1      6617-1.14982E-01 1.90766E-08 2.48314E-01-6.84114E-09 1.19796E-10 6.34157E-03
 -1      6618-1.14982E-01 1.90766E-08 2.48314E-01-6.84114E-09 2.67678E-17 3.18208E-17
 -1      6619-1.14982E-01 1.90766E-08 2.48314E-01-6.84114E-09-1.19796E-10-6.34157E-03
 -1      6620-1.73380E-01-1.69346E-08 3.06712E-01 5.10115E-08-8.90692E-10 8.38039E-03
 -1      6621-1.73380E-01-1.69346E-08 3.06712E-01 5.10115E-08-2.60728E-18-1.06033E-17
 -1      6622-1.73380E-01-1.69346E-08 3.06712E-01 5.10115E-08 8.90692E-10-8.38039E-03
 -1      6623-3.27371E-01-1.65927E-06 4.60711E-01 4.69464E-06-8.22882E-08 1.37569E-02
 -1      6624-3.27371E-01-1.65927E-06 4.60711E-01 4.69464E-06-7.42820E-18 3.44660E-16
 -1      6625-3.27371E-01-1.65927E-06 4.60711E-01 4.69464E-06 8.22882E-08-1.37569E-02
 -1      6626-1.63986E-02 2.27669E-09 1.49731E-01 5.92575E-09-1.03947E-10 2.89984E-03
 -1      6627-1.63986E-02 2.27669E-09 1.49731E-01 5.92575E-09-4.69425E-17 2.78804E-16
 -1      6628-1.63986E-02 2.27669E-09 1.49731E-01 5.92575E-09 1.03947E-10-2.89984E-03
 -1      6629-6.76928E-02 8.48444E-10 2.01025E-01 1.72997E-09-3.09834E-11 4.69059E-03
 -1      6630-6.76928E-02 8.48443E-10 2.01025E-01 1.72997E-09-3.22355E-17 4.61318E-16
 -1      6631-6.76928E-02 8.48442E-10 2.01025E-01 1.72997E-09 3.09833E-11-4.69059E-03
 -1      6632-7.55549E-02 7.90321E-10 2.08887E-01-1.00712E-09 1.70606E-11 4.96508E-03
 -1      6633-7.55549E-02 7.90321E-10 2.08887E-01-1.00713E-09-1.16167E-18 1.89404E-17
 -1      6634-7.55549E-02 7.90321E-10 2.08887E-01-1.00713E-09-1.70606E-11-4.96508E-03
 -1      6635-2.62944E-02 9.20644E-09 1.59626E-01 1.02519E-08-1.62208E-10 3.24532E-03
 -1      6636-2.62944E-02 9.20644E-09 1.59626E-01 1.02519E-08-7.88472E-20-5.04190E-16
 -1      6637-2.62944E-02 9.20644E-09 1.59626E-01 1.02519E-08 1.62208E-10-3.24532E-03
 -1      6638-8.41164E-02 3.06101E-09 2.17448E-01-1.82020E-09 3.15067E-11 5.26397E-03
 -1      6639-8.41164E-02 3.06101E-09 2.17448E-01-1.82020E-09-1.25425E-17-5.93032E-17
 -1      6640-8.41164E-02 3.06101E-09 2.17448E-01-1.82020E-09-3.15067E-11-5.26397E-03
 -1      6641-1.27394E-01 3.27162E-08 2.60726E-01-1.93513E-09 3.41651E-11 6.77490E-03
 -1      6642-1.27394E-01 3.27162E-08 2.60726E-01-1.93513E-09 4.34186E-18-4.73130E-16
 -1      6643-1.27394E-01 3.27162E-08 2.60726E-01-1.93513E-09-3.41651E-11-6.77490E-03
 -1      6644-5.37495E-02 7.11367E-09 1.87081E-01-7.11037E-11 7.95444E-13 4.20381E-03
 -1      6645-5.37495E-02 7.11367E-09 1.87081E-01-7.11036E-11 5.23858E-18-4.81604E-16
 -1      6646-5.37495E-02 7.11367E-09 1.87081E-01-7.11035E-11-7.95433E-13-4.20381E-03
 -1      6647-1.92431E-01-6.78823E-08 3.25762E-01 2.09230E-09-3.46717E-11 9.04551E-03
 -1      6648-1.92431E-01-6.78823E-08 3.25762E-01 2.09230E-09-2.22995E-17-3.39064E-16
 -1      6649-1.92431E-01-6.78823E-08 3.25762E-01 2.09230E-09 3.46717E-11-9.04551E-03
 -1      6650-1.66202E-02 9.85534E-08 1.49952E-01-7.62647E-08 1.34443E-09 2.90758E-03
 -1      6651-1.66202E-02 9.85534E-08 1.49952E-01-7.62647E-08-9.34975E-18 2.99485E-16
 -1      6652-1.66202E-02 9.85534E-08 1.49952E-01-7.62647E-08-1.34443E-09-2.90758E-03
 -1      6653-1.55450E-02 9.33607E-09 1.48876E-01 1.81844E-07-3.16336E-09 2.87000E-03
 -1      6654-1.55450E-02 9.33607E-09 1.48876E-01 1.81844E-07 7.53114E-18-5.72086E-17
 -1      6655-1.55450E-02 9.33607E-09 1.48876E-01 1.81844E-07 3.16336E-09-2.87000E-03
 -1      6656-4.64893E-01-4.29265E-07 5.98226E-01-1.12148E-08 2.00749E-10 1.85587E-02
 -1      6657-4.64893E-01-4.29265E-07 5.98226E-01-1.12148E-08-7.77767E-17-1.09928E-15
 -1      6658-4.64893E-01-4.29265E-07 5.98226E-01-1.12148E-08-2.00749E-10-1.85587E-02
 -1      6659-1.34069E-01 5.04894E-08 2.67401E-01-7.33573E-09 1.28644E-10 7.00792E-03
 -1      6660-1.34069E-01 5.04894E-08 2.67401E-01-7.33573E-09-1.77124E-17 3.31759E-16
 -1      6661-1.34069E-01 5.04894E-08 2.67401E-01-7.33573E-09-1.28644E-10-7.00792E-03
 -1      6662-4.12235E-01 7.71416E-07 5.45567E-01-3.53399E-07 6.36039E-09 1.67200E-02
 -1      6663-4.12235E-01 7.71416E-07 5.45567E-01-3.53399E-07-7.94010E-17 5.83490E-16
 -1      6664-4.12235E-01 7.71416E-07 5.45567E-01-3.53399E-07-6.36039E-09-1.67200E-02
 -1      6665-4.16741E-01-5.41316E-08 5.50074E-01-4.42143E-07 7.69657E-09 1.68774E-02
 -1      6666-4.16741E-01-5.41316E-08 5.50074E-01-4.42143E-07-9.72592E-17 5.18754E-16
 -1      6667-4.16741E-01-5.41316E-08 5.50074E-01-4.42143E-07-7.69657E-09-1.68774E-02
 -1      6668-1.97397E-02-2.19671E-08 1.53072E-01 5.60774E-09-9.38168E-11 3.01648E-03
 -1      6669-1.97397E-02-2.19671E-08 1.53072E-01 5.60774E-09 3.16197E-17 3.94332E-16
 -1      6670-1.97397E-02-2.19671E-08 1.53072E-01 5.60774E-09 9.38168E-11-3.01648E-03
 -1      6671-1.97419E-02-1.18323E-08 1.53074E-01 5.09005E-09-8.96973E-11 3.01656E-03
 -1      6672-1.97419E-02-1.18323E-08 1.53074E-01 5.09005E-09 2.30083E-17-6.24787E-17
 -1      6673-1.97419E-02-1.18323E-08 1.53074E-01 5.09005E-09 8.96974E-11-3.01656E-03
 -1      6674-2.02412E-02-6.21957E-08 1.53572E-01-8.50801E-08 1.51153E-09 3.03398E-03
 -1      6675-2.02412E-02-6.21957E-08 1.53572E-01-8.50801E-08 5.68191E-17-3.48692E-18
 -1      6676-2.02412E-02-6.21957E-08 1.53572E-01-8.50801E-08-1.51153E-09-3.03398E-03
 -1      6677-1.94975E-02-1.11476E-07 1.52829E-01-2.66862E-07 4.67743E-09 3.00801E-03
 -1      6678-1.94975E-02-1.11476E-07 1.52829E-01-2.66862E-07-9.35162E-18 4.78243E-16
 -1      6679-1.94975E-02-1.11476E-07 1.52829E-01-2.66862E-07-4.67743E-09-3.00801E-03
 -1      6680-1.99954E-02-9.16252E-08 1.53327E-01-9.65326E-09 1.77548E-10 3.02541E-03
 -1      6681-1.99954E-02-9.16252E-08 1.53327E-01-9.65326E-09 3.61064E-17 1.03012E-16
 -1      6682-1.99954E-02-9.16252E-08 1.53327E-01-9.65326E-09-1.77548E-10-3.02541E-03
 -1      6683-2.13822E-01-1.21088E-07 3.47154E-01-8.02523E-08 1.41006E-09 9.79235E-03
 -1      6684-2.13822E-01-1.21088E-07 3.47154E-01-8.02523E-08 3.20240E-18-9.92928E-16
 -1      6685-2.13822E-01-1.21088E-07 3.47154E-01-8.02523E-08-1.41006E-09-9.79235E-03
 -1      6686-2.01560E-02 1.01856E-07 1.53488E-01 9.47147E-08-1.67244E-09 3.03102E-03
 -1      6687-2.01560E-02 1.01856E-07 1.53488E-01 9.47147E-08 1.38533E-17-5.97836E-16
 -1      6688-2.01560E-02 1.01856E-07 1.53488E-01 9.47147E-08 1.67244E-09-3.03102E-03
 -1      6689-1.56372E-01 2.60370E-08 2.89705E-01 4.63709E-08-8.10212E-10 7.78661E-03
 -1      6690-1.56372E-01 2.60370E-08 2.89705E-01 4.63709E-08 2.72582E-17-3.01689E-16
 -1      6691-1.56372E-01 2.60370E-08 2.89705E-01 4.63709E-08 8.10212E-10-7.78661E-03
 -1      6692-1.69039E-02 4.35551E-08 1.50237E-01 1.56048E-07-2.71283E-09 2.91749E-03
 -1      6693-1.69039E-02 4.35551E-08 1.50237E-01 1.56048E-07 2.42560E-17-6.63957E-17
 -1      6694-1.69039E-02 4.35551E-08 1.50237E-01 1.56048E-07 2.71283E-09-2.91749E-03
 -1      6695-2.04687E-02 1.67399E-07 1.53801E-01 3.20206E-07-5.63612E-09 3.04196E-03
 -1      6696-2.04687E-02 1.67399E-07 1.53801E-01 3.20206E-07 2.92308E-18 2.49791E-16
 -1      6697-2.04687E-02 1.67399E-07 1.53801E-01 3.20206E-07 5.63612E-09-3.04196E-03
 -1      6698-1.98430E-02-4.58805E-08 1.53175E-01 1.02242E-10 3.42151E-12 3.02008E-03
 -1      6699-1.98430E-02-4.58805E-08 1.53175E-01 1.02241E-10-2.07901E-17-5.30939E-16
 -1      6700-1.98430E-02-4.58805E-08 1.53175E-01 1.02241E-10-3.42156E-12-3.02008E-03
 -1      6701-2.03661E-02 4.33914E-07 1.53698E-01-4.23172E-07 7.44055E-09 3.03836E-03
 -1      6702-2.03661E-02 4.33914E-07 1.53698E-01-4.23172E-07-1.35934E-17 6.61694E-18
 -1      6703-2.03661E-02 4.33914E-07 1.53698E-01-4.23172E-07-7.44055E-09-3.03836E-03
 -1      6704-4.75230E-02 4.76700E-09 1.80855E-01 2.37123E-09-4.18212E-11 3.98643E-03
 -1      6705-4.75230E-02 4.76700E-09 1.80855E-01 2.37123E-09-2.23405E-18-3.36353E-16
 -1      6706-4.75230E-02 4.76700E-09 1.80855E-01 2.37123E-09 4.18212E-11-3.98643E-03
 -1      6707-4.15807E-01 2.08718E-06 5.49144E-01 5.21833E-06-9.11785E-08 1.68449E-02
 -1      6708-4.15807E-01 2.08718E-06 5.49144E-01 5.21833E-06 2.27876E-17-4.68190E-16
 -1      6709-4.15807E-01 2.08718E-06 5.49144E-01 5.21833E-06 9.11785E-08-1.68449E-02
 -1      6710-4.17495E-01 4.23129E-07 5.50826E-01-4.09315E-07 7.07739E-09 1.69036E-02
 -1      6711-4.17495E-01 4.23129E-07 5.50826E-01-4.09315E-07 5.74988E-18 1.42245E-15
 -1      6712-4.17495E-01 4.23129E-07 5.50826E-01-4.09315E-07-7.07739E-09-1.69036E-02
 -1      6713-1.98890E-02 7.82547E-09 1.53221E-01 7.75531E-09-1.44112E-10 3.02169E-03
 -1      6714-1.98890E-02 7.82547E-09 1.53221E-01 7.75531E-09 3.29564E-17-1.55594E-16
 -1      6715-1.98890E-02 7.82547E-09 1.53221E-01 7.75531E-09 1.44112E-10-3.02169E-03
 -1      6716-4.17331E-01 5.45085E-08 5.50664E-01-3.95526E-07 6.85104E-09 1.68979E-02
 -1      6717-4.17331E-01 5.45085E-08 5.50664E-01-3.95526E-07-4.07110E-17-3.93406E-15
 -1      6718-4.17331E-01 5.45085E-08 5.50664E-01-3.95526E-07-6.85104E-09-1.68979E-02
 -1      6719-2.36031E-02-2.93595E-07 1.56935E-01-6.09713E-07 1.06841E-08 3.15136E-03
 -1      6720-2.36031E-02-2.93595E-07 1.56935E-01-6.09713E-07 2.63912E-17-5.12060E-17
 -1      6721-2.36031E-02-2.93595E-07 1.56935E-01-6.09713E-07-1.06841E-08-3.15136E-03
 -1      6722-4.64921E-01-4.59616E-07 5.98253E-01 2.32532E-07-4.04651E-09 1.85596E-02
 -1      6723-4.64921E-01-4.59616E-07 5.98253E-01 2.32532E-07 2.56517E-17-1.21262E-15
 -1      6724-4.64921E-01-4.59616E-07 5.98253E-01 2.32532E-07 4.04651E-09-1.85596E-02
 -1      6725-4.16341E-01-2.15642E-06 5.49675E-01-3.62356E-07 6.19648E-09 1.68634E-02
 -1      6726-4.16341E-01-2.15642E-06 5.49675E-01-3.62356E-07-3.98695E-18 8.44931E-16
 -1      6727-4.16341E-01-2.15642E-06 5.49675E-01-3.62356E-07-6.19648E-09-1.68634E-02
 -1      6728-1.96979E-02-1.31827E-08 1.53030E-01-4.71159E-09 8.53015E-11 3.01502E-03
 -1      6729-1.96979E-02-1.31827E-08 1.53030E-01-4.71159E-09 3.01566E-17-3.92432E-16
 -1      6730-1.96979E-02-1.31827E-08 1.53030E-01-4.71159E-09-8.53014E-11-3.01502E-03
 -1      6731-4.16225E-01 1.59373E-07 5.49556E-01-6.15412E-07 1.07669E-08 1.68592E-02
 -1      6732-4.16225E-01 1.59373E-07 5.49556E-01-6.15412E-07-8.77658E-17-9.04813E-16
 -1      6733-4.16225E-01 1.59373E-07 5.49556E-01-6.15412E-07-1.07669E-08-1.68592E-02
 -1      6734-3.34411E-02-4.07757E-08 1.66773E-01 1.39091E-07-2.41710E-09 3.49482E-03
 -1      6735-3.34411E-02-4.07757E-08 1.66773E-01 1.39091E-07 6.04348E-18-4.03728E-16
 -1      6736-3.34411E-02-4.07757E-08 1.66773E-01 1.39091E-07 2.41710E-09-3.49482E-03
 -1      6737-3.91977E-01 6.76069E-07 5.25311E-01 6.41486E-07-1.11102E-08 1.60128E-02
 -1      6738-3.91977E-01 6.76069E-07 5.25311E-01 6.41486E-07-2.79698E-17-2.19421E-15
 -1      6739-3.91977E-01 6.76069E-07 5.25311E-01 6.41486E-07 1.11102E-08-1.60128E-02
 -1      6740-3.46879E-01 2.67918E-08 4.80213E-01 9.46143E-09-1.11904E-10 1.44381E-02
 -1      6741-3.46879E-01 2.67918E-08 4.80213E-01 9.46144E-09-1.83474E-17-6.90178E-16
 -1      6742-3.46879E-01 2.67918E-08 4.80213E-01 9.46144E-09 1.11904E-10-1.44381E-02
 -1      6743-3.08544E-01 2.07826E-07 4.41877E-01-2.84927E-07 5.01203E-09 1.30996E-02
 -1      6744-3.08544E-01 2.07826E-07 4.41877E-01-2.84927E-07-5.21471E-17 1.99351E-15
 -1      6745-3.08544E-01 2.07826E-07 4.41877E-01-2.84927E-07-5.01203E-09-1.30996E-02
 -1      6746-2.75525E-01 3.67510E-07 4.08858E-01-3.69672E-07 6.47159E-09 1.19467E-02
 -1      6747-2.75525E-01 3.67510E-07 4.08858E-01-3.69672E-07-8.23635E-18-8.58671E-16
 -1      6748-2.75525E-01 3.67510E-07 4.08858E-01-3.69672E-07-6.47159E-09-1.19467E-02
 -1      6749-2.46838E-01 1.76721E-07 3.80171E-01-3.44981E-07 6.02359E-09 1.09451E-02
 -1      6750-2.46838E-01 1.76721E-07 3.80171E-01-3.44981E-07 1.79783E-16 5.26983E-16
 -1      6751-2.46838E-01 1.76721E-07 3.80171E-01-3.44981E-07-6.02359E-09-1.09451E-02
 -1      6752-2.21730E-01 3.64618E-07 3.55062E-01-2.08694E-07 3.63991E-09 1.00685E-02
 -1      6753-2.21730E-01 3.64618E-07 3.55062E-01-2.08694E-07-1.16101E-17-1.01009E-15
 -1      6754-2.21730E-01 3.64618E-07 3.55062E-01-2.08694E-07-3.63991E-09-1.00685E-02
 -1      6755-1.99580E-01 1.02313E-07 3.32912E-01 5.80221E-09-1.09093E-10 9.29514E-03
 -1      6756-1.99580E-01 1.02313E-07 3.32912E-01 5.80222E-09 4.21978E-17-2.87609E-16
 -1      6757-1.99580E-01 1.02313E-07 3.32912E-01 5.80222E-09 1.09093E-10-9.29514E-03
 -1      6758-1.79846E-01 2.03335E-08 3.13178E-01-2.70639E-09 3.87562E-11 8.60615E-03
 -1      6759-1.79846E-01 2.03335E-08 3.13178E-01-2.70639E-09-2.43701E-17-1.88070E-15
 -1      6760-1.79846E-01 2.03335E-08 3.13178E-01-2.70639E-09-3.87562E-11-8.60615E-03
 -1      6761-1.62182E-01 3.29028E-08 2.95514E-01-2.72883E-08 4.68277E-10 7.98945E-03
 -1      6762-1.62182E-01 3.29028E-08 2.95514E-01-2.72883E-08 5.28948E-17 6.81622E-16
 -1      6763-1.62182E-01 3.29028E-08 2.95514E-01-2.72883E-08-4.68277E-10-7.98945E-03
 -1      6764-1.46334E-01 5.69080E-08 2.79666E-01-3.24911E-08 5.59905E-10 7.43616E-03
 -1      6765-1.46334E-01 5.69080E-08 2.79666E-01-3.24911E-08 1.30269E-16-8.59763E-16
 -1      6766-1.46334E-01 5.69080E-08 2.79666E-01-3.24911E-08-5.59904E-10-7.43616E-03
 -1      6767-1.32077E-01 6.82509E-08 2.65409E-01-1.73640E-08 2.96990E-10 6.93841E-03
 -1      6768-1.32077E-01 6.82509E-08 2.65409E-01-1.73640E-08-1.42558E-17-9.05469E-17
 -1      6769-1.32077E-01 6.82509E-08 2.65409E-01-1.73640E-08-2.96990E-10-6.93841E-03
 -1      6770-1.19204E-01 5.38570E-08 2.52536E-01 2.47297E-09-4.82837E-11 6.48898E-03
 -1      6771-1.19204E-01 5.38570E-08 2.52536E-01 2.47297E-09-3.34079E-17-8.13145E-16
 -1      6772-1.19204E-01 5.38570E-08 2.52536E-01 2.47297E-09 4.82836E-11-6.48898E-03
 -1      6773-1.07534E-01 2.61806E-08 2.40866E-01 5.54903E-09-1.01497E-10 6.08153E-03
 -1      6774-1.07534E-01 2.61806E-08 2.40866E-01 5.54903E-09 7.05380E-17-3.86076E-17
 -1      6775-1.07534E-01 2.61806E-08 2.40866E-01 5.54903E-09 1.01497E-10-6.08153E-03
 -1      6776-9.69179E-02 1.21273E-08 2.30250E-01-6.72646E-09 1.12881E-10 5.71091E-03
 -1      6777-9.69179E-02 1.21273E-08 2.30250E-01-6.72645E-09-1.25337E-17 7.32811E-17
 -1      6778-9.69179E-02 1.21273E-08 2.30250E-01-6.72645E-09-1.12881E-10-5.71091E-03
 -1      6779-8.72405E-02 1.45189E-08 2.20573E-01-1.69405E-08 2.91122E-10 5.37305E-03
 -1      6780-8.72405E-02 1.45189E-08 2.20573E-01-1.69405E-08 7.98820E-17-4.72536E-17
 -1      6781-8.72405E-02 1.45189E-08 2.20573E-01-1.69405E-08-2.91122E-10-5.37305E-03
 -1      6782-7.84026E-02 2.04846E-08 2.11735E-01-1.68389E-08 2.89487E-10 5.06450E-03
 -1      6783-7.84026E-02 2.04846E-08 2.11735E-01-1.68389E-08-5.98245E-18-2.01646E-16
 -1      6784-7.84026E-02 2.04846E-08 2.11735E-01-1.68389E-08-2.89487E-10-5.06450E-03
 -1      6785-7.03147E-02 2.53505E-08 2.03647E-01-7.42133E-09 1.25947E-10 4.78213E-03
 -1      6786-7.03147E-02 2.53505E-08 2.03647E-01-7.42133E-09-3.94152E-17 2.69238E-16
 -1      6787-7.03147E-02 2.53505E-08 2.03647E-01-7.42133E-09-1.25947E-10-4.78213E-03
 -1      6788-6.28945E-02 2.82492E-08 1.96227E-01 1.11882E-08-1.97157E-10 4.52308E-03
 -1      6789-6.28945E-02 2.82492E-08 1.96227E-01 1.11882E-08 3.74209E-17-6.08346E-16
 -1      6790-6.28945E-02 2.82492E-08 1.96227E-01 1.11882E-08 1.97157E-10-4.52308E-03
 -1      6791-5.60660E-02 1.52084E-08 1.89398E-01 1.93741E-08-3.39650E-10 4.28468E-03
 -1      6792-5.60660E-02 1.52084E-08 1.89398E-01 1.93741E-08 4.29140E-17-3.72198E-17
 -1      6793-5.60660E-02 1.52084E-08 1.89398E-01 1.93741E-08 3.39650E-10-4.28468E-03
 -1      6794-4.97735E-02-1.39663E-08 1.83106E-01-1.55835E-08 2.67467E-10 4.06500E-03
 -1      6795-4.97735E-02-1.39663E-08 1.83106E-01-1.55835E-08-9.50883E-17 2.23181E-16
 -1      6796-4.97735E-02-1.39663E-08 1.83106E-01-1.55835E-08-2.67467E-10-4.06500E-03
 -1      6797-4.40060E-02-8.98629E-09 1.77338E-01-4.14808E-08 7.18833E-10 3.86365E-03
 -1      6798-4.40060E-02-8.98629E-09 1.77338E-01-4.14808E-08 1.52343E-17-6.56123E-16
 -1      6799-4.40060E-02-8.98629E-09 1.77338E-01-4.14808E-08-7.18833E-10-3.86365E-03
 -1      6800-3.87601E-02 5.20970E-08 1.72092E-01 8.67832E-08-1.50971E-09 3.68050E-03
 -1      6801-3.87601E-02 5.20970E-08 1.72092E-01 8.67832E-08-4.41961E-17 2.12893E-16
 -1      6802-3.87601E-02 5.20970E-08 1.72092E-01 8.67832E-08 1.50971E-09-3.68050E-03
 -1      6803-3.39316E-02-3.26943E-08 1.67263E-01-4.71361E-08 8.15984E-10 3.51193E-03
 -1      6804-3.39316E-02-3.26943E-08 1.67263E-01-4.71361E-08-4.21121E-17-6.02740E-16
 -1      6805-3.39316E-02-3.26943E-08 1.67263E-01-4.71361E-08-8.15984E-10-3.51193E-03
 -1      6806-2.95323E-02-1.70711E-07 1.62864E-01-4.45890E-07 7.70389E-09 3.35834E-03
 -1      6807-2.95323E-02-1.70711E-07 1.62864E-01-4.45890E-07 6.39298E-17 4.80194E-16
 -1      6808-2.95323E-02-1.70711E-07 1.62864E-01-4.45890E-07-7.70389E-09-3.35834E-03
 -1      6809-2.59018E-02 5.16393E-07 1.59232E-01 2.25985E-07-3.98507E-09 3.23156E-03
 -1      6810-2.59018E-02 5.16393E-07 1.59232E-01 2.25985E-07 3.58697E-17-1.06306E-15
 -1      6811-2.59018E-02 5.16393E-07 1.59232E-01 2.25985E-07 3.98507E-09-3.23156E-03
 -1      6812-2.24228E-02-3.39389E-07 1.55753E-01-4.67762E-07 8.03625E-09 3.11011E-03
 -1      6813-2.24228E-02-3.39389E-07 1.55753E-01-4.67762E-07 7.06293E-17-3.81743E-16
 -1      6814-2.24228E-02-3.39389E-07 1.55753E-01-4.67762E-07-8.03625E-09-3.11011E-03
 -1      6815-2.80074E-01-1.22863E-06 4.13404E-01-1.06398E-06 1.87448E-08 1.21054E-02
 -1      6816-2.80074E-01-1.22863E-06 4.13404E-01-1.06398E-06-3.44449E-17-2.19771E-15
 -1      6817-2.80074E-01-1.22863E-06 4.13404E-01-1.06398E-06-1.87448E-08-1.21054E-02
 -1      6818-4.15536E-01 3.40826E-06 5.48860E-01 2.00519E-06-3.50876E-08 1.68352E-02
 -1      6819-4.15536E-01 3.40826E-06 5.48860E-01 2.00519E-06 2.11157E-17-6.91695E-17
 -1      6820-4.15536E-01 3.40826E-06 5.48860E-01 2.00519E-06 3.50876E-08-1.68352E-02
 -1      6821-4.10149E-01 2.61336E-06 5.43486E-01-7.66219E-06 1.33844E-07 1.66473E-02
 -1      6822-4.10149E-01 2.61336E-06 5.43486E-01-7.66219E-06-2.82015E-17-2.36490E-16
 -1      6823-4.10149E-01 2.61336E-06 5.43486E-01-7.66219E-06-1.33844E-07-1.66473E-02
 -1      6824-2.83100E-02-3.36039E-07 1.61641E-01 3.87991E-07-6.71745E-09 3.31568E-03
 -1      6825-2.83100E-02-3.36039E-07 1.61641E-01 3.87991E-07 9.75592E-18 4.36000E-16
 -1      6826-2.83100E-02-3.36039E-07 1.61641E-01 3.87991E-07 6.71745E-09-3.31568E-03
 -1      6827-2.05547E-02-4.20675E-08 1.53889E-01-5.38075E-08 9.21858E-10 3.04499E-03
 -1      6828-2.05547E-02-4.20675E-08 1.53889E-01-5.38075E-08 6.61732E-17 1.54179E-16
 -1      6829-2.05547E-02-4.20675E-08 1.53889E-01-5.38075E-08-9.21858E-10-3.04499E-03
 -1      6830-4.16859E-01 6.57488E-07 5.50187E-01-3.12675E-08 6.10953E-10 1.68814E-02
 -1      6831-4.16859E-01 6.57488E-07 5.50187E-01-3.12675E-08 5.57379E-17 2.79059E-16
 -1      6832-4.16859E-01 6.57488E-07 5.50187E-01-3.12675E-08-6.10953E-10-1.68814E-02
 -1      6833-9.84722E-02 5.66410E-09 2.31804E-01-9.64119E-09 1.69111E-10 5.76516E-03
 -1      6834-9.84722E-02 5.66410E-09 2.31804E-01-9.64119E-09 2.53908E-17 1.67122E-17
 -1      6835-9.84722E-02 5.66410E-09 2.31804E-01-9.64119E-09-1.69111E-10-5.76516E-03
 -1      6836-3.88609E-02-1.51258E-10 1.72193E-01 4.61616E-08-8.04958E-10 3.68403E-03
 -1      6837-3.88609E-02-1.51260E-10 1.72193E-01 4.61616E-08-1.68712E-17 3.68933E-16
 -1      6838-3.88609E-02-1.51261E-10 1.72193E-01 4.61616E-08 8.04958E-10-3.68403E-03
 -1      6839-6.40300E-02 1.51923E-09 1.97362E-01 4.36026E-09-7.78757E-11 4.56272E-03
 -1      6840-6.40300E-02 1.51923E-09 1.97362E-01 4.36027E-09 1.62108E-17 3.95847E-16
 -1      6841-6.40300E-02 1.51923E-09 1.97362E-01 4.36027E-09 7.78758E-11-4.56272E-03
 -1      6842-3.11065E-01-2.45236E-06 4.44388E-01 1.70212E-06-2.94044E-08 1.31872E-02
 -1      6843-3.11065E-01-2.45236E-06 4.44388E-01 1.70212E-06 2.90700E-17 2.78426E-16
 -1      6844-3.11065E-01-2.45236E-06 4.44388E-01 1.70212E-06 2.94044E-08-1.31872E-02
 -1      6845-1.64595E-01 2.51559E-08 2.97928E-01 8.35333E-08-1.46053E-09 8.07370E-03
 -1      6846-1.64595E-01 2.51559E-08 2.97928E-01 8.35333E-08-2.01953E-17-1.38415E-15
 -1      6847-1.64595E-01 2.51559E-08 2.97928E-01 8.35333E-08 1.46053E-09-8.07370E-03
 -1      6848-1.09210E-01 8.27484E-09 2.42542E-01-3.91478E-09 6.94266E-11 6.14006E-03
 -1      6849-1.09210E-01 8.27484E-09 2.42542E-01-3.91478E-09 4.13384E-18-5.07550E-16
 -1      6850-1.09210E-01 8.27484E-09 2.42542E-01-3.91478E-09-6.94266E-11-6.14006E-03
 -1      6851-4.04372E-01-7.72057E-07 5.37705E-01 1.62565E-07-2.55281E-09 1.64455E-02
 -1      6852-4.04372E-01-7.72057E-07 5.37705E-01 1.62565E-07 7.52709E-17-1.74037E-15
 -1      6853-4.04372E-01-7.72057E-07 5.37705E-01 1.62565E-07 2.55281E-09-1.64455E-02
 -1      6854-7.97526E-02 6.28167E-10 2.13085E-01-3.51631E-09 6.08416E-11 5.11162E-03
 -1      6855-7.97526E-02 6.28167E-10 2.13085E-01-3.51631E-09-1.60896E-18-1.55118E-16
 -1      6856-7.97526E-02 6.28167E-10 2.13085E-01-3.51631E-09-6.08416E-11-5.11162E-03
 -1      6857-3.65995E-01-1.67297E-06 4.99325E-01-6.71629E-06 1.16809E-07 1.51053E-02
 -1      6858-3.65995E-01-1.67297E-06 4.99325E-01-6.71629E-06-5.85406E-18 1.08254E-15
 -1      6859-3.65995E-01-1.67297E-06 4.99325E-01-6.71629E-06-1.16809E-07-1.51053E-02
 -1      6860-7.15624E-02-2.25342E-09 2.04894E-01-1.23223E-09 2.03815E-11 4.82569E-03
 -1      6861-7.15624E-02-2.25342E-09 2.04894E-01-1.23223E-09 1.01304E-17-5.53969E-16
 -1      6862-7.15624E-02-2.25341E-09 2.04894E-01-1.23223E-09-2.03815E-11-4.82569E-03
 -1      6863-4.16366E-01-3.44460E-07 5.49699E-01-3.66834E-08 6.41441E-10 1.68643E-02
 -1      6864-4.16366E-01-3.44460E-07 5.49699E-01-3.66834E-08 4.06891E-17-4.54380E-16
 -1      6865-4.16366E-01-3.44460E-07 5.49699E-01-3.66834E-08-6.41440E-10-1.68643E-02
 -1      6866-1.87347E-02-5.76815E-07 1.52066E-01 5.70685E-07-1.00137E-08 2.98138E-03
 -1      6867-1.87347E-02-5.76815E-07 1.52066E-01 5.70685E-07 1.36734E-17 2.62941E-16
 -1      6868-1.87347E-02-5.76815E-07 1.52066E-01 5.70685E-07 1.00137E-08-2.98138E-03
 -1      6869-1.82592E-01-4.70709E-08 3.15924E-01 3.86568E-08-6.76866E-10 8.70201E-03
 -1      6870-1.82592E-01-4.70709E-08 3.15924E-01 3.86568E-08 3.43714E-18-1.13627E-15
 -1      6871-1.82592E-01-4.70709E-08 3.15924E-01 3.86568E-08 6.76866E-10-8.70201E-03
 -1      6872-1.21027E-01 2.29243E-08 2.54360E-01-1.91990E-08 3.36212E-10 6.55262E-03
 -1      6873-1.21027E-01 2.29243E-08 2.54360E-01-1.91990E-08-2.04177E-17 4.76904E-16
 -1      6874-1.21027E-01 2.29243E-08 2.54360E-01-1.91990E-08-3.36212E-10-6.55262E-03
 -1      6875-1.48517E-01 6.63520E-08 2.81849E-01 4.02224E-08-7.03083E-10 7.51236E-03
 -1      6876-1.48517E-01 6.63520E-08 2.81849E-01 4.02224E-08-1.21713E-17 6.05811E-16
 -1      6877-1.48517E-01 6.63520E-08 2.81849E-01 4.02224E-08 7.03083E-10-7.51236E-03
 -1      6878-2.51364E-01-4.91489E-07 3.84695E-01-4.35030E-07 7.66809E-09 1.11031E-02
 -1      6879-2.51364E-01-4.91489E-07 3.84695E-01-4.35030E-07 3.80032E-17 5.42620E-16
 -1      6880-2.51364E-01-4.91489E-07 3.84695E-01-4.35030E-07-7.66809E-09-1.11031E-02
 -1      6881-5.70751E-02 1.14981E-08 1.90407E-01 2.14604E-09-3.97495E-11 4.31991E-03
 -1      6882-5.70751E-02 1.14981E-08 1.90407E-01 2.14604E-09-5.96829E-18-1.14972E-16
 -1      6883-5.70751E-02 1.14981E-08 1.90407E-01 2.14604E-09 3.97494E-11-4.31991E-03
 -1      6884-2.43324E-02-7.94222E-08 1.57663E-01-1.11845E-07 2.00620E-09 3.17681E-03
 -1      6885-2.43324E-02-7.94222E-08 1.57663E-01-1.11845E-07-3.38205E-18-4.94662E-16
 -1      6886-2.43324E-02-7.94222E-08 1.57663E-01-1.11845E-07-2.00620E-09-3.17681E-03
 -1      6887-3.75579E-01 2.75482E-07 5.08911E-01-9.53969E-07 1.65527E-08 1.54401E-02
 -1      6888-3.75579E-01 2.75482E-07 5.08911E-01-9.53969E-07 7.51754E-17-1.80276E-15
 -1      6889-3.75579E-01 2.75482E-07 5.08911E-01-9.53969E-07-1.65527E-08-1.54401E-02
 -1      6890-2.50787E-02 1.66949E-08 1.58412E-01 7.09856E-08-1.23799E-09 3.20292E-03
 -1      6891-2.50787E-02 1.66949E-08 1.58412E-01 7.09856E-08-8.07427E-19-1.15195E-16
 -1      6892-2.50787E-02 1.66949E-08 1.58412E-01 7.09856E-08 1.23799E-09-3.20292E-03
 -1      6893-2.31967E-02-2.11135E-08 1.56529E-01 6.55633E-09-1.09368E-10 3.13716E-03
 -1      6894-2.31967E-02-2.11135E-08 1.56529E-01 6.55633E-09-3.89333E-17 2.24484E-16
 -1      6895-2.31967E-02-2.11135E-08 1.56529E-01 6.55633E-09 1.09368E-10-3.13716E-03
 -1      6896-4.16524E-01-5.59509E-07 5.49856E-01 4.09150E-07-7.11964E-09 1.68698E-02
 -1      6897-4.16524E-01-5.59509E-07 5.49856E-01 4.09150E-07 4.03498E-17 5.02879E-16
 -1      6898-4.16524E-01-5.59509E-07 5.49856E-01 4.09150E-07 7.11964E-09-1.68698E-02
 -1      6899-2.32947E-02-4.02407E-08 1.56627E-01 1.76604E-09-3.35202E-11 3.14059E-03
 -1      6900-2.32947E-02-4.02407E-08 1.56627E-01 1.76604E-09-7.64716E-18-6.01310E-17
 -1      6901-2.32947E-02-4.02407E-08 1.56627E-01 1.76604E-09 3.35202E-11-3.14059E-03
 -1      6902-2.35426E-02-4.43788E-08 1.56874E-01 7.75948E-09-1.28944E-10 3.14925E-03
 -1      6903-2.35426E-02-4.43788E-08 1.56874E-01 7.75948E-09-4.03713E-18 2.37055E-16
 -1      6904-2.35426E-02-4.43788E-08 1.56874E-01 7.75948E-09 1.28944E-10-3.14925E-03
 -1      6905-4.45744E-02 6.59259E-09 1.77906E-01 3.99097E-09-7.19918E-11 3.88350E-03
 -1      6906-4.45744E-02 6.59259E-09 1.77906E-01 3.99097E-09 1.75553E-17 6.27575E-16
 -1      6907-4.45744E-02 6.59259E-09 1.77906E-01 3.99097E-09 7.19919E-11-3.88350E-03
 -1      6908-8.86899E-02 3.82100E-09 2.22022E-01-3.62084E-09 6.31615E-11 5.42364E-03
 -1      6909-8.86899E-02 3.82100E-09 2.22022E-01-3.62084E-09 8.84558E-18 4.43496E-16
 -1      6910-8.86899E-02 3.82099E-09 2.22022E-01-3.62084E-09-6.31615E-11-5.42364E-03
 -1      6911-2.35977E-02-9.07127E-08 1.56929E-01 2.80800E-08-5.06260E-10 3.15116E-03
 -1      6912-2.35977E-02-9.07127E-08 1.56929E-01 2.80800E-08-1.73413E-17 2.79621E-16
 -1      6913-2.35977E-02-9.07127E-08 1.56929E-01 2.80800E-08 5.06260E-10-3.15116E-03
 -1      6914-5.06167E-02 1.38161E-08 1.83949E-01-7.51356E-09 1.28748E-10 4.09444E-03
 -1      6915-5.06167E-02 1.38161E-08 1.83949E-01-7.51356E-09-9.03375E-18 9.78163E-17
 -1      6916-5.06167E-02 1.38161E-08 1.83949E-01-7.51356E-09-1.28748E-10-4.09444E-03
 -1      6917-2.41508E-02-1.97009E-07 1.57481E-01 2.46539E-07-4.34540E-09 3.17046E-03
 -1      6918-2.41508E-02-1.97009E-07 1.57481E-01 2.46539E-07-2.19400E-17 4.61518E-16
 -1      6919-2.41508E-02-1.97009E-07 1.57481E-01 2.46539E-07 4.34540E-09-3.17046E-03
 -1      6920-6.77556E-02-8.14589E-09 2.01088E-01 4.20146E-10-9.62657E-12 4.69278E-03
 -1      6921-6.77556E-02-8.14589E-09 2.01088E-01 4.20146E-10 1.19760E-17-1.21195E-16
 -1      6922-6.77556E-02-8.14589E-09 2.01088E-01 4.20146E-10 9.62659E-12-4.69278E-03
 -1      6923-3.76055E-01 6.48437E-07 5.09385E-01-9.13059E-07 1.57810E-08 1.54566E-02
 -1      6924-3.76055E-01 6.48437E-07 5.09385E-01-9.13059E-07 7.03370E-17 9.09134E-16
 -1      6925-3.76055E-01 6.48437E-07 5.09385E-01-9.13059E-07-1.57810E-08-1.54566E-02
 -1      6926-4.16345E-01-2.54467E-07 5.49677E-01 1.86100E-07-3.24043E-09 1.68635E-02
 -1      6927-4.16345E-01-2.54467E-07 5.49677E-01 1.86100E-07-2.95248E-18-1.66261E-15
 -1      6928-4.16345E-01-2.54467E-07 5.49677E-01 1.86100E-07 3.24043E-09-1.68635E-02
 -1      6929-3.59006E-01 1.39363E-07 4.92338E-01 8.01914E-07-1.38359E-08 1.48615E-02
 -1      6930-3.59006E-01 1.39363E-07 4.92338E-01 8.01914E-07 1.15333E-17 8.24630E-16
 -1      6931-3.59006E-01 1.39363E-07 4.92338E-01 8.01914E-07 1.38359E-08-1.48615E-02
 -1      6932-3.19703E-01 1.06687E-07 4.53036E-01-3.35599E-08 6.95818E-10 1.34892E-02
 -1      6933-3.19703E-01 1.06687E-07 4.53036E-01-3.35599E-08 1.28683E-16 4.70211E-16
 -1      6934-3.19703E-01 1.06687E-07 4.53036E-01-3.35599E-08-6.95818E-10-1.34892E-02
 -1      6935-2.85570E-01 7.99427E-07 4.18903E-01-4.99887E-07 8.79956E-09 1.22974E-02
 -1      6936-2.85570E-01 7.99427E-07 4.18903E-01-4.99887E-07-3.49448E-17-1.32618E-16
 -1      6937-2.85570E-01 7.99427E-07 4.18903E-01-4.99887E-07-8.79956E-09-1.22974E-02
 -1      6938-2.55797E-01 1.27966E-07 3.89129E-01-5.57305E-07 9.75150E-09 1.12579E-02
 -1      6939-2.55797E-01 1.27966E-07 3.89129E-01-5.57305E-07-9.72073E-17-1.41802E-15
 -1      6940-2.55797E-01 1.27966E-07 3.89129E-01-5.57305E-07-9.75150E-09-1.12579E-02
 -1      6941-2.29693E-01 6.12425E-07 3.63026E-01-5.01683E-07 8.76868E-09 1.03465E-02
 -1      6942-2.29693E-01 6.12425E-07 3.63026E-01-5.01683E-07-2.94672E-17 5.27567E-17
 -1      6943-2.29693E-01 6.12425E-07 3.63026E-01-5.01683E-07-8.76868E-09-1.03465E-02
 -1      6944-2.06761E-01 8.03166E-08 3.40092E-01 6.75996E-08-1.18692E-09 9.54584E-03
 -1      6945-2.06761E-01 8.03166E-08 3.40092E-01 6.75996E-08-6.10689E-19-8.25963E-16
 -1      6946-2.06761E-01 8.03166E-08 3.40092E-01 6.75996E-08 1.18692E-09-9.54584E-03
 -1      6947-1.86275E-01 1.86893E-08 3.19607E-01 1.94014E-08-3.47882E-10 8.83060E-03
 -1      6948-1.86275E-01 1.86893E-08 3.19607E-01 1.94014E-08 8.70654E-18-6.38851E-16
 -1      6949-1.86275E-01 1.86893E-08 3.19607E-01 1.94014E-08 3.47882E-10-8.83060E-03
 -1      6950-1.67912E-01 8.20721E-08 3.01244E-01-2.82930E-08 4.85499E-10 8.18950E-03
 -1      6951-1.67912E-01 8.20721E-08 3.01244E-01-2.82930E-08 1.25200E-17 4.45576E-16
 -1      6952-1.67912E-01 8.20721E-08 3.01244E-01-2.82930E-08-4.85499E-10-8.18950E-03
 -1      6953-1.51448E-01 1.11092E-07 2.84780E-01-5.94040E-08 1.02943E-09 7.61468E-03
 -1      6954-1.51448E-01 1.11092E-07 2.84780E-01-5.94040E-08-1.45489E-16 6.51350E-16
 -1      6955-1.51448E-01 1.11092E-07 2.84780E-01-5.94040E-08-1.02943E-09-7.61468E-03
 -1      6956-1.36667E-01 1.30533E-07 2.69999E-01-5.13286E-08 8.89913E-10 7.09865E-03
 -1      6957-1.36667E-01 1.30533E-07 2.69999E-01-5.13286E-08-9.23429E-17-1.17563E-16
 -1      6958-1.36667E-01 1.30533E-07 2.69999E-01-5.13286E-08-8.89914E-10-7.09865E-03
 -1      6959-1.23353E-01 1.19401E-07 2.56685E-01-1.04779E-08 1.78580E-10 6.63383E-03
 -1      6960-1.23353E-01 1.19401E-07 2.56685E-01-1.04779E-08-4.75851E-17-5.32556E-16
 -1      6961-1.23353E-01 1.19401E-07 2.56685E-01-1.04779E-08-1.78580E-10-6.63383E-03
 -1      6962-1.11300E-01 6.68289E-08 2.44632E-01 7.89510E-09-1.41205E-10 6.21303E-03
 -1      6963-1.11300E-01 6.68289E-08 2.44632E-01 7.89510E-09-7.09376E-17-6.42223E-17
 -1      6964-1.11300E-01 6.68289E-08 2.44632E-01 7.89510E-09 1.41205E-10-6.21303E-03
 -1      6965-1.00342E-01 3.45907E-08 2.33674E-01-1.33845E-08 2.30198E-10 5.83043E-03
 -1      6966-1.00342E-01 3.45907E-08 2.33674E-01-1.33845E-08-6.89380E-17-2.42280E-16
 -1      6967-1.00342E-01 3.45907E-08 2.33674E-01-1.33845E-08-2.30198E-10-5.83043E-03
 -1      6968-9.03534E-02 3.79141E-08 2.23685E-01-3.48377E-08 6.04091E-10 5.48173E-03
 -1      6969-9.03534E-02 3.79141E-08 2.23685E-01-3.48377E-08 7.52314E-18 6.49869E-16
 -1      6970-9.03534E-02 3.79141E-08 2.23685E-01-3.48377E-08-6.04091E-10-5.48173E-03
 -1      6971-8.12374E-02 4.43323E-08 2.14569E-01-3.72227E-08 6.44951E-10 5.16347E-03
 -1      6972-8.12374E-02 4.43323E-08 2.14569E-01-3.72227E-08-6.66795E-17-6.89595E-16
 -1      6973-8.12374E-02 4.43323E-08 2.14569E-01-3.72227E-08-6.44951E-10-5.16347E-03
 -1      6974-7.29040E-02 4.43108E-08 2.06236E-01-2.89747E-08 5.00757E-10 4.87253E-03
 -1      6975-7.29040E-02 4.43108E-08 2.06236E-01-2.89747E-08 4.04807E-17-9.14101E-18
 -1      6976-7.29040E-02 4.43108E-08 2.06236E-01-2.89747E-08-5.00757E-10-4.87253E-03
 -1      6977-6.52730E-02 4.87801E-08 1.98605E-01-1.00268E-08 1.71882E-10 4.60612E-03
 -1      6978-6.52730E-02 4.87801E-08 1.98605E-01-1.00268E-08 4.19027E-17-8.90880E-17
 -1      6979-6.52730E-02 4.87801E-08 1.98605E-01-1.00268E-08-1.71882E-10-4.60612E-03
 -1      6980-5.82679E-02 5.80269E-08 1.91600E-01 3.55341E-08-6.18004E-10 4.36156E-03
 -1      6981-5.82679E-02 5.80269E-08 1.91600E-01 3.55341E-08 1.20742E-17 1.29478E-16
 -1      6982-5.82679E-02 5.80269E-08 1.91600E-01 3.55341E-08 6.18004E-10-4.36156E-03
 -1      6983-5.17986E-02 3.12761E-08 1.85131E-01 2.56218E-08-4.46009E-10 4.13570E-03
 -1      6984-5.17986E-02 3.12761E-08 1.85131E-01 2.56218E-08-5.37897E-17 4.36060E-17
 -1      6985-5.17986E-02 3.12761E-08 1.85131E-01 2.56218E-08 4.46009E-10-4.13570E-03
 -1      6986-4.58173E-02-3.94409E-09 1.79149E-01-1.11328E-07 1.92986E-09 3.92688E-03
 -1      6987-4.58173E-02-3.94409E-09 1.79149E-01-1.11328E-07-6.54532E-17-4.44926E-16
 -1      6988-4.58173E-02-3.94409E-09 1.79149E-01-1.11328E-07-1.92986E-09-3.92688E-03
 -1      6989-4.03958E-02-2.83625E-09 1.73728E-01-1.30278E-07 2.26079E-09 3.73761E-03
 -1      6990-4.03958E-02-2.83625E-09 1.73728E-01-1.30278E-07 3.82801E-17 4.46446E-16
 -1      6991-4.03958E-02-2.83625E-09 1.73728E-01-1.30278E-07-2.26079E-09-3.73761E-03
 -1      6992-3.55668E-02-1.64715E-07 1.68899E-01 3.43567E-07-5.95611E-09 3.56902E-03
 -1      6993-3.55668E-02-1.64715E-07 1.68899E-01 3.43567E-07 2.45533E-17 9.67051E-18
 -1      6994-3.55668E-02-1.64715E-07 1.68899E-01 3.43567E-07 5.95611E-09-3.56902E-03
 -1      6995-3.08623E-02 1.60628E-07 1.64196E-01-1.53538E-07 2.71839E-09 3.40481E-03
 -1      6996-3.08623E-02 1.60628E-07 1.64196E-01-1.53538E-07 4.24828E-17-1.79019E-16
 -1      6997-3.08623E-02 1.60628E-07 1.64196E-01-1.53538E-07-2.71839E-09-3.40481E-03
 -1      6998-2.59144E-02 2.39435E-07 1.59249E-01-8.05543E-08 1.34452E-09 3.23211E-03
 -1      6999-2.59144E-02 2.39435E-07 1.59249E-01-8.05543E-08-2.77702E-17 1.53337E-16
 -1      7000-2.59144E-02 2.39435E-07 1.59249E-01-8.05543E-08-1.34452E-09-3.23211E-03
 -1      7001-2.38229E-02-3.20232E-08 1.57155E-01-3.03463E-08 5.37738E-10 3.15903E-03
 -1      7002-2.38229E-02-3.20232E-08 1.57155E-01-3.03463E-08-4.66296E-17 5.91735E-16
 -1      7003-2.38229E-02-3.20232E-08 1.57155E-01-3.03463E-08-5.37739E-10-3.15903E-03
 -1      7004-7.55866E-02-3.09428E-09 2.08919E-01-7.46636E-09 1.29198E-10 4.96618E-03
 -1      7005-7.55866E-02-3.09428E-09 2.08919E-01-7.46636E-09-2.48275E-17-6.55589E-17
 -1      7006-7.55866E-02-3.09428E-09 2.08919E-01-7.46636E-09-1.29198E-10-4.96618E-03
 -1      7007-3.74106E-01-4.29825E-07 5.07438E-01-2.62252E-07 4.66513E-09 1.53885E-02
 -1      7008-3.74106E-01-4.29825E-07 5.07438E-01-2.62252E-07 5.49829E-17 9.47970E-16
 -1      7009-3.74106E-01-4.29825E-07 5.07438E-01-2.62252E-07-4.66513E-09-1.53885E-02
 -1      7010-2.33586E-02-2.10517E-08 1.56691E-01-9.39565E-09 1.70378E-10 3.14282E-03
 -1      7011-2.33586E-02-2.10517E-08 1.56691E-01-9.39565E-09-1.95173E-17-3.55274E-17
 -1      7012-2.33586E-02-2.10517E-08 1.56691E-01-9.39566E-09-1.70378E-10-3.14282E-03
 -1      7013-1.56287E-01 1.08141E-07 2.89619E-01 1.00646E-07-1.76036E-09 7.78363E-03
 -1      7014-1.56287E-01 1.08141E-07 2.89619E-01 1.00646E-07 6.93765E-18 4.15052E-16
 -1      7015-1.56287E-01 1.08141E-07 2.89619E-01 1.00646E-07 1.76036E-09-7.78363E-03
 -1      7016-3.75492E-01 9.43097E-07 5.08814E-01 1.59301E-06-2.75808E-08 1.54368E-02
 -1      7017-3.75492E-01 9.43097E-07 5.08814E-01 1.59301E-06 1.40346E-17 2.65058E-15
 -1      7018-3.75492E-01 9.43097E-07 5.08814E-01 1.59301E-06 2.75808E-08-1.54368E-02
 -1      7019-1.03701E-01-2.65280E-09 2.37033E-01 3.88489E-09-6.56154E-11 5.94771E-03
 -1      7020-1.03701E-01-2.65280E-09 2.37033E-01 3.88489E-09-1.56111E-17 1.31648E-16
 -1      7021-1.03701E-01-2.65280E-09 2.37033E-01 3.88489E-09 6.56153E-11-5.94771E-03
 -1      7022-3.61814E-02 2.67621E-08 1.69514E-01 1.67043E-08-2.98212E-10 3.59050E-03
 -1      7023-3.61814E-02 2.67621E-08 1.69514E-01 1.67043E-08-1.60675E-17 1.96729E-16
 -1      7024-3.61814E-02 2.67621E-08 1.69514E-01 1.67043E-08 2.98212E-10-3.59050E-03
 -1      7025-2.99716E-01-3.05110E-06 4.33047E-01-3.71612E-06 6.54421E-08 1.27914E-02
 -1      7026-2.99716E-01-3.05110E-06 4.33047E-01-3.71612E-06-1.41764E-17 5.38433E-16
 -1      7027-2.99716E-01-3.05110E-06 4.33047E-01-3.71612E-06-6.54421E-08-1.27914E-02
 -1      7028-2.02827E-01-7.80986E-08 3.36158E-01-1.06884E-07 1.87096E-09 9.40848E-03
 -1      7029-2.02827E-01-7.80986E-08 3.36158E-01-1.06884E-07 5.77867E-17 2.28074E-16
 -1      7030-2.02827E-01-7.80986E-08 3.36158E-01-1.06884E-07-1.87096E-09-9.40848E-03
 -1      7031-3.68361E-01 7.33964E-07 5.01692E-01 1.50800E-06-2.60456E-08 1.51880E-02
 -1      7032-3.68361E-01 7.33964E-07 5.01692E-01 1.50800E-06 9.39530E-17-5.91182E-16
 -1      7033-3.68361E-01 7.33964E-07 5.01692E-01 1.50800E-06 2.60456E-08-1.51880E-02
 -1      7034-3.07541E-02 1.23571E-07 1.64087E-01 1.43956E-07-2.51415E-09 3.40105E-03
 -1      7035-3.07541E-02 1.23571E-07 1.64087E-01 1.43956E-07-6.55026E-18-5.24830E-16
 -1      7036-3.07541E-02 1.23571E-07 1.64087E-01 1.43956E-07 2.51415E-09-3.40105E-03
 -1      7037-3.73960E-01 4.81652E-06 5.07279E-01 2.24628E-06-3.86647E-08 1.53832E-02
 -1      7038-3.73960E-01 4.81652E-06 5.07279E-01 2.24628E-06-1.88118E-18-1.16115E-15
 -1      7039-3.73960E-01 4.81652E-06 5.07279E-01 2.24628E-06 3.86647E-08-1.53832E-02
 -1      7040-3.42087E-01-4.19713E-07 4.75388E-01 2.27281E-06-3.95107E-08 1.42698E-02
 -1      7041-3.42087E-01-4.19713E-07 4.75388E-01 2.27281E-06 3.34789E-18 7.73141E-19
 -1      7042-3.42087E-01-4.19713E-07 4.75388E-01 2.27281E-06 3.95107E-08-1.42698E-02
 -1      7043-3.74687E-01 2.23814E-07 5.08021E-01-4.55029E-07 7.90930E-09 1.54090E-02
 -1      7044-3.74687E-01 2.23814E-07 5.08021E-01-4.55029E-07 3.28685E-17-7.92020E-17
 -1      7045-3.74687E-01 2.23814E-07 5.08021E-01-4.55029E-07-7.90930E-09-1.54090E-02
 -1      7046-8.41232E-02 3.30423E-09 2.17455E-01-4.38027E-09 7.62822E-11 5.26421E-03
 -1      7047-8.41232E-02 3.30423E-09 2.17455E-01-4.38027E-09-1.02740E-17-6.95678E-17
 -1      7048-8.41232E-02 3.30423E-09 2.17455E-01-4.38027E-09-7.62822E-11-5.26421E-03
 -1      7049-6.05468E-02 5.92842E-09 1.93879E-01 9.64075E-09-1.71769E-10 4.44111E-03
 -1      7050-6.05468E-02 5.92842E-09 1.93879E-01 9.64075E-09 1.78779E-17-6.56848E-16
 -1      7051-6.05468E-02 5.92842E-09 1.93879E-01 9.64075E-09 1.71769E-10-4.44111E-03
 -1      7052-1.73245E-01-1.88827E-08 3.06577E-01 1.47217E-07-2.57763E-09 8.37569E-03
 -1      7053-1.73245E-01-1.88827E-08 3.06577E-01 1.47217E-07-2.27498E-17 5.27756E-16
 -1      7054-1.73245E-01-1.88827E-08 3.06577E-01 1.47217E-07 2.57763E-09-8.37569E-03
 -1      7055-9.34610E-02 3.06980E-09 2.26793E-01-1.06404E-08 1.86495E-10 5.59021E-03
 -1      7056-9.34610E-02 3.06980E-09 2.26793E-01-1.06404E-08 1.75640E-19-1.87950E-16
 -1      7057-9.34610E-02 3.06980E-09 2.26793E-01-1.06404E-08-1.86495E-10-5.59021E-03
 -1      7058-2.32446E-02-8.31846E-09 1.56577E-01-6.68799E-09 1.24683E-10 3.13884E-03
 -1      7059-2.32446E-02-8.31846E-09 1.56577E-01-6.68799E-09-2.63363E-17-4.09491E-16
 -1      7060-2.32446E-02-8.31846E-09 1.56577E-01-6.68799E-09-1.24683E-10-3.13884E-03
 -1      7061-2.25646E-01-1.22293E-07 3.58977E-01-2.39557E-07 4.20674E-09 1.02052E-02
 -1      7062-2.25646E-01-1.22293E-07 3.58977E-01-2.39557E-07-4.68177E-17-4.02257E-16
 -1      7063-2.25646E-01-1.22293E-07 3.58977E-01-2.39557E-07-4.20674E-09-1.02052E-02
 -1      7064-3.71816E-01 4.11031E-06 5.05171E-01 8.22466E-06-1.43021E-07 1.53093E-02
 -1      7065-3.71816E-01 4.11031E-06 5.05171E-01 8.22466E-06 1.82107E-18-5.20339E-16
 -1      7066-3.71816E-01 4.11031E-06 5.05171E-01 8.22466E-06 1.43021E-07-1.53093E-02
 -1      7067-3.73040E-01 1.02990E-05 5.06383E-01-1.02817E-05 1.78617E-07 1.53518E-02
 -1      7068-3.73040E-01 1.02990E-05 5.06383E-01-1.02817E-05 7.07733E-17-1.12504E-15
 -1      7069-3.73040E-01 1.02990E-05 5.06383E-01-1.02817E-05-1.78617E-07-1.53518E-02
 -1      7070-1.27378E-01 2.53172E-08 2.60710E-01-4.09525E-08 7.17515E-10 6.77435E-03
 -1      7071-1.27378E-01 2.53172E-08 2.60710E-01-4.09525E-08 1.20123E-17 3.23688E-16
 -1      7072-1.27378E-01 2.53172E-08 2.60710E-01-4.09525E-08-7.17515E-10-6.77435E-03
 -1      7073-2.66908E-01-9.51537E-07 4.00240E-01-1.52767E-06 2.68373E-08 1.16459E-02
 -1      7074-2.66908E-01-9.51537E-07 4.00240E-01-1.52767E-06-8.67200E-18 3.69123E-16
 -1      7075-2.66908E-01-9.51537E-07 4.00240E-01-1.52767E-06-2.68373E-08-1.16459E-02
 -1      7076-3.74091E-01-1.07232E-07 5.07426E-01-1.69655E-07 2.95911E-09 1.53882E-02
 -1      7077-3.74091E-01-1.07232E-07 5.07426E-01-1.69655E-07 1.02317E-16 1.19806E-15
 -1      7078-3.74091E-01-1.07232E-07 5.07426E-01-1.69655E-07-2.95911E-09-1.53882E-02
 -1      7079-2.87362E-02-6.30656E-07 1.62068E-01-7.50964E-08 1.28385E-09 3.33055E-03
 -1      7080-2.87362E-02-6.30656E-07 1.62068E-01-7.50964E-08-3.26485E-18 5.98398E-16
 -1      7081-2.87362E-02-6.30656E-07 1.62068E-01-7.50964E-08-1.28385E-09-3.33055E-03
 -1      7082-2.70885E-02-4.43746E-09 1.60420E-01 2.79410E-08-4.96351E-10 3.27303E-03
 -1      7083-2.70885E-02-4.43746E-09 1.60420E-01 2.79410E-08-8.12567E-18 3.18507E-17
 -1      7084-2.70885E-02-4.43745E-09 1.60420E-01 2.79410E-08 4.96351E-10-3.27303E-03
 -1      7085-1.41087E-01 8.77294E-08 2.74419E-01-1.50029E-08 2.62855E-10 7.25297E-03
 -1      7086-1.41087E-01 8.77294E-08 2.74419E-01-1.50029E-08 1.08868E-17-1.57353E-16
 -1      7087-1.41087E-01 8.77294E-08 2.74419E-01-1.50029E-08-2.62855E-10-7.25297E-03
 -1      7088-3.74476E-01-1.30953E-06 5.07812E-01 1.03511E-06-1.80542E-08 1.54017E-02
 -1      7089-3.74476E-01-1.30953E-06 5.07812E-01 1.03511E-06 3.33053E-18 1.75197E-15
 -1      7090-3.74476E-01-1.30953E-06 5.07812E-01 1.03511E-06 1.80542E-08-1.54017E-02
 -1      7091-2.87364E-02-1.60693E-07 1.62068E-01-7.97719E-08 1.32690E-09 3.33058E-03
 -1      7092-2.87364E-02-1.60693E-07 1.62068E-01-7.97719E-08-4.56186E-17 1.77691E-16
 -1      7093-2.87364E-02-1.60693E-07 1.62068E-01-7.97719E-08-1.32690E-09-3.33058E-03
 -1      7094-3.37944E-01 9.99333E-07 4.71279E-01-7.35088E-07 1.27691E-08 1.41261E-02
 -1      7095-3.37944E-01 9.99333E-07 4.71279E-01-7.35088E-07-2.78201E-17 2.36102E-16
 -1      7096-3.37944E-01 9.99333E-07 4.71279E-01-7.35088E-07-1.27691E-08-1.41261E-02
 -1      7097-4.17800E-02 4.42926E-09 1.75112E-01-4.92190E-09 7.83150E-11 3.78595E-03
 -1      7098-4.17800E-02 4.42926E-09 1.75112E-01-4.92190E-09 1.71085E-17-2.13713E-16
 -1      7099-4.17800E-02 4.42926E-09 1.75112E-01-4.92190E-09-7.83149E-11-3.78595E-03
 -1      7100-2.76144E-02-1.13754E-08 1.60947E-01 1.27569E-07-2.22126E-09 3.29141E-03
 -1      7101-2.76144E-02-1.13754E-08 1.60947E-01 1.27569E-07-2.94896E-17 2.65215E-16
 -1      7102-2.76144E-02-1.13754E-08 1.60947E-01 1.27569E-07 2.22126E-09-3.29141E-03
 -1      7103-3.39416E-01 3.54846E-07 4.72753E-01-9.93421E-07 1.71884E-08 1.41775E-02
 -1      7104-3.39416E-01 3.54846E-07 4.72753E-01-9.93421E-07 9.23299E-17 2.98734E-15
 -1      7105-3.39416E-01 3.54846E-07 4.72753E-01-9.93421E-07-1.71884E-08-1.41775E-02
 -1      7106-1.34076E-01 2.93379E-08 2.67408E-01-1.01128E-07 1.77120E-09 7.00819E-03
 -1      7107-1.34076E-01 2.93379E-08 2.67408E-01-1.01128E-07-1.67153E-17 5.94280E-16
 -1      7108-1.34076E-01 2.93379E-08 2.67408E-01-1.01128E-07-1.77120E-09-7.00819E-03
 -1      7109-2.71106E-02 1.34242E-08 1.60443E-01-3.78286E-09 7.83562E-11 3.27381E-03
 -1      7110-2.71106E-02 1.34242E-08 1.60443E-01-3.78286E-09-7.94849E-18 6.86025E-17
 -1      7111-2.71106E-02 1.34242E-08 1.60443E-01-3.78285E-09-7.83563E-11-3.27381E-03
 -1      7112-2.69269E-02 5.23752E-09 1.60259E-01-3.61823E-09 7.70639E-11 3.26739E-03
 -1      7113-2.69269E-02 5.23752E-09 1.60259E-01-3.61823E-09-3.74545E-17-3.39143E-16
 -1      7114-2.69269E-02 5.23752E-09 1.60259E-01-3.61823E-09-7.70640E-11-3.26739E-03
 -1      7115-3.74080E-01 2.89430E-07 5.07414E-01-1.11334E-07 1.96498E-09 1.53878E-02
 -1      7116-3.74080E-01 2.89430E-07 5.07414E-01-1.11334E-07-7.28256E-17-6.46671E-16
 -1      7117-3.74080E-01 2.89430E-07 5.07414E-01-1.11334E-07-1.96498E-09-1.53878E-02
 -1      7118-3.29361E-01 4.63935E-07 4.62693E-01 1.58025E-07-2.55168E-09 1.38264E-02
 -1      7119-3.29361E-01 4.63935E-07 4.62693E-01 1.58025E-07-3.82158E-17-5.58362E-16
 -1      7120-3.29361E-01 4.63935E-07 4.62693E-01 1.58025E-07 2.55168E-09-1.38264E-02
 -1      7121-1.14967E-01-3.05455E-09 2.48299E-01-2.29720E-08 4.03222E-10 6.34105E-03
 -1      7122-1.14967E-01-3.05455E-09 2.48299E-01-2.29720E-08-3.91740E-18-8.52091E-16
 -1      7123-1.14967E-01-3.05455E-09 2.48299E-01-2.29720E-08-4.03222E-10-6.34105E-03
 -1      7124-2.94903E-01 8.93859E-07 4.28240E-01-7.63214E-07 1.35313E-08 1.26233E-02
 -1      7125-2.94903E-01 8.93859E-07 4.28240E-01-7.63214E-07-1.59245E-17 1.67498E-15
 -1      7126-2.94903E-01 8.93859E-07 4.28240E-01-7.63214E-07-1.35313E-08-1.26233E-02
 -1      7127-2.64601E-01 1.18561E-07 3.97930E-01-4.73357E-07 8.35303E-09 1.15652E-02
 -1      7128-2.64601E-01 1.18561E-07 3.97930E-01-4.73357E-07 4.78524E-17 7.09701E-16
 -1      7129-2.64601E-01 1.18561E-07 3.97930E-01-4.73357E-07-8.35303E-09-1.15652E-02
 -1      7130-2.37561E-01 4.20008E-07 3.70895E-01-1.20436E-06 2.10864E-08 1.06212E-02
 -1      7131-2.37561E-01 4.20008E-07 3.70895E-01-1.20436E-06 1.27019E-16 1.13007E-15
 -1      7132-2.37561E-01 4.20008E-07 3.70895E-01-1.20436E-06-2.10864E-08-1.06212E-02
 -1      7133-2.14018E-01-3.50083E-07 3.47349E-01 4.08045E-07-7.13212E-09 9.79918E-03
 -1      7134-2.14018E-01-3.50083E-07 3.47349E-01 4.08045E-07 7.54173E-17 1.69052E-15
 -1      7135-2.14018E-01-3.50083E-07 3.47349E-01 4.08045E-07 7.13212E-09-9.79918E-03
 -1      7136-1.92750E-01-9.77187E-09 3.26081E-01 1.44251E-07-2.53003E-09 9.05667E-03
 -1      7137-1.92750E-01-9.77187E-09 3.26081E-01 1.44251E-07-3.75432E-17 1.42020E-17
 -1      7138-1.92750E-01-9.77187E-09 3.26081E-01 1.44251E-07 2.53003E-09-9.05667E-03
 -1      7139-1.73619E-01 1.21198E-07 3.06951E-01 5.76129E-08-1.00976E-09 8.38875E-03
 -1      7140-1.73619E-01 1.21198E-07 3.06951E-01 5.76129E-08 6.22869E-17-2.62890E-16
 -1      7141-1.73619E-01 1.21198E-07 3.06951E-01 5.76129E-08 1.00976E-09-8.38875E-03
 -1      7142-1.56492E-01 1.30740E-07 2.89824E-01-5.56598E-08 9.69871E-10 7.79079E-03
 -1      7143-1.56492E-01 1.30740E-07 2.89824E-01-5.56598E-08 1.17445E-16 7.12459E-16
 -1      7144-1.56492E-01 1.30740E-07 2.89824E-01-5.56598E-08-9.69871E-10-7.79079E-03
 -1      7145-1.41162E-01 1.38259E-07 2.74494E-01-9.32353E-08 1.62626E-09 7.25559E-03
 -1      7146-1.41162E-01 1.38259E-07 2.74494E-01-9.32353E-08 1.76542E-17 3.27927E-16
 -1      7147-1.41162E-01 1.38259E-07 2.74494E-01-9.32353E-08-1.62626E-09-7.25559E-03
 -1      7148-1.27403E-01 1.66513E-07 2.60735E-01-2.73174E-08 4.77439E-10 6.77522E-03
 -1      7149-1.27403E-01 1.66513E-07 2.60735E-01-2.73174E-08 1.16203E-16-9.37821E-16
 -1      7150-1.27403E-01 1.66513E-07 2.60735E-01-2.73174E-08-4.77439E-10-6.77522E-03
 -1      7151-1.14978E-01 9.20840E-08 2.48310E-01 3.87099E-08-6.73496E-10 6.34144E-03
 -1      7152-1.14978E-01 9.20840E-08 2.48310E-01 3.87099E-08-9.32443E-18 2.35218E-16
 -1      7153-1.14978E-01 9.20840E-08 2.48310E-01 3.87099E-08 6.73496E-10-6.34144E-03
 -1      7154-1.03685E-01 2.65872E-08 2.37017E-01 4.24516E-10-5.07771E-12 5.94717E-03
 -1      7155-1.03685E-01 2.65872E-08 2.37017E-01 4.24516E-10 9.81824E-17 2.58935E-16
 -1      7156-1.03685E-01 2.65872E-08 2.37017E-01 4.24517E-10 5.07791E-12-5.94717E-03
 -1      7157-9.33888E-02 4.10467E-08 2.26721E-01-4.78490E-08 8.36597E-10 5.58770E-03
 -1      7158-9.33888E-02 4.10467E-08 2.26721E-01-4.78490E-08-1.60293E-17-4.97011E-16
 -1      7159-9.33888E-02 4.10467E-08 2.26721E-01-4.78490E-08-8.36597E-10-5.58770E-03
 -1      7160-8.39926E-02 5.61092E-08 2.17325E-01-5.27158E-08 9.19494E-10 5.25966E-03
 -1      7161-8.39926E-02 5.61092E-08 2.17325E-01-5.27158E-08 1.59437E-16-2.78152E-16
 -1      7162-8.39926E-02 5.61092E-08 2.17325E-01-5.27158E-08-9.19494E-10-5.25966E-03
 -1      7163-7.54056E-02 4.92010E-08 2.08738E-01-4.27628E-08 7.43203E-10 4.95987E-03
 -1      7164-7.54056E-02 4.92010E-08 2.08738E-01-4.27628E-08-1.65192E-17-1.00164E-15
 -1      7165-7.54056E-02 4.92010E-08 2.08738E-01-4.27628E-08-7.43204E-10-4.95987E-03
 -1      7166-6.75483E-02 4.36361E-08 2.00880E-01-3.49788E-08 6.05838E-10 4.68556E-03
 -1      7167-6.75483E-02 4.36361E-08 2.00880E-01-3.49788E-08-4.66629E-17 7.12437E-16
 -1      7168-6.75483E-02 4.36361E-08 2.00880E-01-3.49788E-08-6.05838E-10-4.68556E-03
 -1      7169-6.03620E-02 5.42029E-08 1.93694E-01-1.96374E-09 3.38019E-11 4.43466E-03
 -1      7170-6.03620E-02 5.42029E-08 1.93694E-01-1.96374E-09-2.30128E-17-3.14579E-16
 -1      7171-6.03620E-02 5.42029E-08 1.93694E-01-1.96374E-09-3.38020E-11-4.43466E-03
 -1      7172-5.37808E-02 7.97856E-08 1.87113E-01 1.28315E-07-2.21973E-09 4.20490E-03
 -1      7173-5.37808E-02 7.97856E-08 1.87113E-01 1.28315E-07-2.07780E-17-5.61188E-16
 -1      7174-5.37808E-02 7.97856E-08 1.87113E-01 1.28315E-07 2.21973E-09-4.20490E-03
 -1      7175-4.76350E-02-1.89247E-08 1.80967E-01-8.12302E-08 1.43166E-09 3.99034E-03
 -1      7176-4.76350E-02-1.89247E-08 1.80967E-01-8.12302E-08 3.45793E-17 5.12058E-16
 -1      7177-4.76350E-02-1.89247E-08 1.80967E-01-8.12302E-08-1.43166E-09-3.99034E-03
 -1      7178-4.18771E-02-3.90595E-07 1.75209E-01-4.98157E-07 8.63531E-09 3.78932E-03
 -1      7179-4.18771E-02-3.90595E-07 1.75209E-01-4.98157E-07 2.23419E-17-1.93125E-16
 -1      7180-4.18771E-02-3.90595E-07 1.75209E-01-4.98157E-07-8.63531E-09-3.78932E-03
 -1      7181-3.68626E-02 5.58513E-08 1.70194E-01 7.41683E-07-1.30417E-08 3.61424E-03
 -1      7182-3.68626E-02 5.58513E-08 1.70194E-01 7.41683E-07-4.99583E-18-3.18279E-16
 -1      7183-3.68626E-02 5.58513E-08 1.70194E-01 7.41683E-07 1.30417E-08-3.61424E-03
 -1      7184-2.79945E-02 9.85269E-08 1.61327E-01 5.03459E-09-9.33351E-11 3.30468E-03
 -1      7185-2.79945E-02 9.85269E-08 1.61327E-01 5.03458E-09 9.25574E-17-7.74039E-16
 -1      7186-2.79945E-02 9.85269E-08 1.61327E-01 5.03458E-09 9.33353E-11-3.30468E-03
 -1      7187-2.76690E-02 1.06701E-07 1.61001E-01 4.79846E-08-8.67113E-10 3.29330E-03
 -1      7188-2.76690E-02 1.06701E-07 1.61001E-01 4.79846E-08 2.62764E-17 1.46416E-16
 -1      7189-2.76690E-02 1.06701E-07 1.61001E-01 4.79846E-08 8.67113E-10-3.29330E-03
 -1      7190-7.16091E-02-1.19539E-08 2.04941E-01-1.96920E-08 3.41181E-10 4.82732E-03
 -1      7191-7.16091E-02-1.19539E-08 2.04941E-01-1.96920E-08-2.36607E-17-1.09090E-16
 -1      7192-7.16091E-02-1.19539E-08 2.04941E-01-1.96920E-08-3.41181E-10-4.82732E-03
 -1      7193-3.40935E-01 2.39619E-06 4.74261E-01-2.09417E-06 3.61326E-08 1.42302E-02
 -1      7194-3.40935E-01 2.39619E-06 4.74261E-01-2.09417E-06-1.86529E-17 1.94878E-15
 -1      7195-3.40935E-01 2.39619E-06 4.74261E-01-2.09417E-06-3.61326E-08-1.42302E-02
 -1      7196-2.73344E-02 4.50285E-08 1.60667E-01 3.01700E-09-4.45745E-11 3.28163E-03
 -1      7197-2.73344E-02 4.50285E-08 1.60667E-01 3.01700E-09-2.36283E-17 2.47794E-16
 -1      7198-2.73344E-02 4.50285E-08 1.60667E-01 3.01700E-09 4.45745E-11-3.28163E-03
 -1      7199-1.48488E-01 1.70222E-07 2.81820E-01-1.11659E-08 1.96465E-10 7.51135E-03
 -1      7200-1.48488E-01 1.70222E-07 2.81820E-01-1.11659E-08-6.95072E-18-1.35688E-15
 -1      7201-1.48488E-01 1.70222E-07 2.81820E-01-1.11659E-08-1.96465E-10-7.51135E-03
 -1      7202-3.73944E-01 3.97820E-08 5.07277E-01 1.13365E-07-1.97697E-09 1.53831E-02
 -1      7203-3.73944E-01 3.97820E-08 5.07277E-01 1.13365E-07-6.50396E-17 8.35194E-17
 -1      7204-3.73944E-01 3.97821E-08 5.07277E-01 1.13365E-07 1.97697E-09-1.53831E-02
 -1      7205-3.41202E-01-4.68447E-06 4.74512E-01-2.74368E-06 4.76131E-08 1.42393E-02
 -1      7206-3.41202E-01-4.68447E-06 4.74512E-01-2.74368E-06-3.11636E-17-9.74554E-16
 -1      7207-3.41202E-01-4.68447E-06 4.74512E-01-2.74368E-06-4.76131E-08-1.42393E-02
 -1      7208-3.37583E-01 7.67345E-07 4.70935E-01-4.79720E-06 8.35925E-08 1.41138E-02
 -1      7209-3.37583E-01 7.67345E-07 4.70935E-01-4.79720E-06-6.08281E-17-1.14527E-15
 -1      7210-3.37583E-01 7.67345E-07 4.70935E-01-4.79720E-06-8.35925E-08-1.41138E-02
 -1      7211-3.36038E-01-1.84464E-06 4.69369E-01 8.42034E-06-1.46248E-07 1.40595E-02
 -1      7212-3.36038E-01-1.84464E-06 4.69369E-01 8.42034E-06-2.46710E-17 1.58624E-15
 -1      7213-3.36038E-01-1.84464E-06 4.69369E-01 8.42034E-06 1.46248E-07-1.40595E-02
 -1      7214-3.37522E-01 6.40454E-07 4.70852E-01 4.45068E-06-7.71751E-08 1.41111E-02
 -1      7215-3.37522E-01 6.40454E-07 4.70852E-01 4.45068E-06 5.97768E-18-3.56192E-17
 -1      7216-3.37522E-01 6.40454E-07 4.70852E-01 4.45068E-06 7.71751E-08-1.41111E-02
 -1      7217-3.92516E-02-1.08424E-08 1.72584E-01 1.00753E-08-1.94836E-10 3.69767E-03
 -1      7218-3.92516E-02-1.08424E-08 1.72584E-01 1.00753E-08 1.88545E-18-8.83766E-16
 -1      7219-3.92516E-02-1.08424E-08 1.72584E-01 1.00753E-08 1.94836E-10-3.69767E-03
 -1      7220-2.68838E-02-1.81775E-08 1.60216E-01 6.19498E-09-1.00558E-10 3.26588E-03
 -1      7221-2.68838E-02-1.81775E-08 1.60216E-01 6.19498E-09-2.23355E-18 3.63572E-17
 -1      7222-2.68838E-02-1.81775E-08 1.60216E-01 6.19498E-09 1.00558E-10-3.26588E-03
 -1      7223-3.37036E-01-1.93503E-07 4.70371E-01-6.33768E-08 1.10447E-09 1.40944E-02
 -1      7224-3.37036E-01-1.93503E-07 4.70371E-01-6.33768E-08-1.17928E-17 8.52474E-16
 -1      7225-3.37036E-01-1.93503E-07 4.70371E-01-6.33768E-08-1.10447E-09-1.40944E-02
 -1      7226-1.92306E-01-9.87500E-08 3.25638E-01-5.99987E-08 1.04124E-09 9.04116E-03
 -1      7227-1.92306E-01-9.87500E-08 3.25638E-01-5.99987E-08-1.97694E-17-3.72587E-16
 -1      7228-1.92306E-01-9.87500E-08 3.25638E-01-5.99987E-08-1.04124E-09-9.04116E-03
 -1      7229-7.97558E-02 5.68832E-09 2.13088E-01-1.34640E-08 2.34514E-10 5.11173E-03
 -1      7230-7.97558E-02 5.68832E-09 2.13088E-01-1.34640E-08 1.09999E-17 2.14305E-16
 -1      7231-7.97558E-02 5.68832E-09 2.13088E-01-1.34640E-08-2.34514E-10-5.11173E-03
 -1      7232-5.38779E-02 2.77231E-08 1.87210E-01-9.75950E-09 1.65215E-10 4.20829E-03
 -1      7233-5.38779E-02 2.77231E-08 1.87210E-01-9.75950E-09 1.81148E-17 1.00886E-16
 -1      7234-5.38779E-02 2.77231E-08 1.87210E-01-9.75950E-09-1.65215E-10-4.20829E-03
 -1      7235-4.76554E-02 1.69498E-08 1.80988E-01-2.81358E-08 4.84748E-10 3.99106E-03
 -1      7236-4.76554E-02 1.69498E-08 1.80988E-01-2.81358E-08-1.40036E-17-3.18082E-16
 -1      7237-4.76554E-02 1.69498E-08 1.80988E-01-2.81358E-08-4.84748E-10-3.99106E-03
 -1      7238-1.21017E-01-3.37235E-08 2.54349E-01-4.62236E-08 8.12206E-10 6.55227E-03
 -1      7239-1.21017E-01-3.37235E-08 2.54349E-01-4.62236E-08 1.56590E-17 1.18396E-16
 -1      7240-1.21017E-01-3.37235E-08 2.54349E-01-4.62236E-08-8.12206E-10-6.55227E-03
 -1      7241-1.64446E-01 1.62744E-07 2.97778E-01 3.04799E-07-5.33201E-09 8.06847E-03
 -1      7242-1.64446E-01 1.62744E-07 2.97778E-01 3.04799E-07-1.07071E-17 1.92586E-16
 -1      7243-1.64446E-01 1.62744E-07 2.97778E-01 3.04799E-07 5.33201E-09-8.06847E-03
 -1      7244-9.84294E-02-3.91737E-09 2.31761E-01-4.52989E-09 8.24066E-11 5.76367E-03
 -1      7245-9.84294E-02-3.91737E-09 2.31761E-01-4.52989E-09-3.20348E-17 9.86356E-16
 -1      7246-9.84294E-02-3.91737E-09 2.31761E-01-4.52989E-09-8.24066E-11-5.76367E-03
 -1      7247-1.09177E-01-2.53081E-08 2.42509E-01 1.40611E-08-2.41263E-10 6.13889E-03
 -1      7248-1.09177E-01-2.53081E-08 2.42509E-01 1.40611E-08-5.59133E-19-1.06918E-17
 -1      7249-1.09177E-01-2.53081E-08 2.42509E-01 1.40611E-08 2.41263E-10-6.13889E-03
 -1      7250-3.27913E-02 4.53943E-07 1.66122E-01-1.28482E-07 2.20992E-09 3.47208E-03
 -1      7251-3.27913E-02 4.53943E-07 1.66122E-01-1.28482E-07-4.29838E-17 1.97418E-16
 -1      7252-3.27913E-02 4.53943E-07 1.66122E-01-1.28482E-07-2.20992E-09-3.47208E-03
 -1      7253-6.41348E-02-2.10384E-08 1.97467E-01 1.68779E-08-2.98444E-10 4.56638E-03
 -1      7254-6.41348E-02-2.10384E-08 1.97467E-01 1.68779E-08 1.04239E-17-2.01344E-16
 -1      7255-6.41348E-02-2.10384E-08 1.97467E-01 1.68779E-08 2.98444E-10-4.56638E-03
 -1      7256-2.38510E-01 1.68205E-07 3.71842E-01-6.38163E-07 1.11869E-08 1.06543E-02
 -1      7257-2.38510E-01 1.68205E-07 3.71842E-01-6.38163E-07 3.76214E-17 9.13401E-16
 -1      7258-2.38510E-01 1.68205E-07 3.71842E-01-6.38163E-07-1.11869E-08-1.06543E-02
 -1      7259-2.85161E-01-4.00961E-07 4.18503E-01-3.73654E-06 6.54451E-08 1.22835E-02
 -1      7260-2.85161E-01-4.00961E-07 4.18503E-01-3.73654E-06 6.17862E-17-2.52634E-15
 -1      7261-2.85161E-01-4.00961E-07 4.18503E-01-3.73654E-06-6.54451E-08-1.22835E-02
 -1      7262-3.27270E-01-2.10296E-06 4.60643E-01 5.95542E-06-1.03994E-07 1.37545E-02
 -1      7263-3.27270E-01-2.10296E-06 4.60643E-01 5.95542E-06-1.13562E-17-1.42787E-16
 -1      7264-3.27270E-01-2.10296E-06 4.60643E-01 5.95542E-06 1.03994E-07-1.37545E-02
 -1      7265-3.03384E-01-3.10376E-06 4.36721E-01-4.10377E-06 7.18574E-08 1.29194E-02
 -1      7266-3.03384E-01-3.10376E-06 4.36721E-01-4.10377E-06 2.14710E-17 1.12678E-15
 -1      7267-3.03384E-01-3.10376E-06 4.36721E-01-4.10377E-06-7.18574E-08-1.29194E-02
 -1      7268-3.36729E-01 3.88115E-07 4.70062E-01-1.14291E-07 2.01159E-09 1.40837E-02
 -1      7269-3.36729E-01 3.88115E-07 4.70062E-01-1.14291E-07-5.91472E-17 1.07499E-15
 -1      7270-3.36729E-01 3.88115E-07 4.70062E-01-1.14291E-07-2.01159E-09-1.40837E-02
 -1      7271-3.36721E-01 1.04073E-07 4.70054E-01 8.81002E-08-1.54594E-09 1.40834E-02
 -1      7272-3.36721E-01 1.04073E-07 4.70054E-01 8.81002E-08-7.37885E-17 2.60105E-16
 -1      7273-3.36721E-01 1.04073E-07 4.70054E-01 8.81002E-08 1.54594E-09-1.40834E-02
 -1      7274-2.13899E-01 1.28050E-08 3.47231E-01-4.12335E-07 7.20722E-09 9.79506E-03
 -1      7275-2.13899E-01 1.28050E-08 3.47231E-01-4.12335E-07-6.69698E-17 4.76229E-16
 -1      7276-2.13899E-01 1.28050E-08 3.47231E-01-4.12335E-07-7.20722E-09-9.79506E-03
 -1      7277-3.11759E-02 8.63861E-08 1.64508E-01 7.85151E-08-1.39500E-09 3.41572E-03
 -1      7278-3.11759E-02 8.63861E-08 1.64508E-01 7.85151E-08-2.68118E-17-4.77243E-17
 -1      7279-3.11759E-02 8.63861E-08 1.64508E-01 7.85151E-08 1.39500E-09-3.41572E-03
 -1      7280-3.05912E-01 2.96418E-06 4.39247E-01-4.33280E-07 7.40751E-09 1.30077E-02
 -1      7281-3.05912E-01 2.96418E-06 4.39247E-01-4.33280E-07-3.84376E-17-9.33805E-16
 -1      7282-3.05912E-01 2.96418E-06 4.39247E-01-4.33280E-07-7.40751E-09-1.30077E-02
 -1      7283-3.38686E-02-3.22433E-08 1.67201E-01 2.26094E-08-4.20174E-10 3.50975E-03
 -1      7284-3.38686E-02-3.22433E-08 1.67201E-01 2.26094E-08 2.58585E-17 3.19996E-16
 -1      7285-3.38686E-02-3.22433E-08 1.67201E-01 2.26094E-08 4.20174E-10-3.50975E-03
 -1      7286-3.13911E-02 4.71813E-08 1.64723E-01 2.01270E-08-3.38347E-10 3.42325E-03
 -1      7287-3.13911E-02 4.71813E-08 1.64723E-01 2.01270E-08-1.55227E-18-6.53509E-17
 -1      7288-3.13911E-02 4.71813E-08 1.64723E-01 2.01270E-08 3.38347E-10-3.42325E-03
 -1      7289-3.77120E-02-1.79061E-07 1.71045E-01-7.86280E-08 1.34329E-09 3.64397E-03
 -1      7290-3.77120E-02-1.79061E-07 1.71045E-01-7.86280E-08-8.32752E-17 4.26846E-16
 -1      7291-3.77120E-02-1.79061E-07 1.71045E-01-7.86280E-08-1.34329E-09-3.64397E-03
 -1      7292-8.86638E-02 4.30080E-09 2.21996E-01-3.21601E-09 5.70235E-11 5.42273E-03
 -1      7293-8.86638E-02 4.30080E-09 2.21996E-01-3.21601E-09-8.05331E-19 3.58570E-16
 -1      7294-8.86638E-02 4.30080E-09 2.21996E-01-3.21601E-09-5.70235E-11-5.42273E-03
 -1      7295-3.07650E-02 7.06640E-08 1.64097E-01-3.11051E-08 5.72087E-10 3.40138E-03
 -1      7296-3.07650E-02 7.06640E-08 1.64097E-01-3.11051E-08-1.13488E-17-1.98884E-16
 -1      7297-3.07650E-02 7.06640E-08 1.64097E-01-3.11051E-08-5.72087E-10-3.40138E-03
 -1      7298-3.21954E-02-5.86941E-08 1.65527E-01 5.69648E-08-1.03149E-09 3.45133E-03
 -1      7299-3.21954E-02-5.86941E-08 1.65527E-01 5.69648E-08 4.51413E-17 1.36393E-16
 -1      7300-3.21954E-02-5.86941E-08 1.65527E-01 5.69648E-08 1.03149E-09-3.45133E-03
 -1      7301-3.37204E-01 2.05132E-06 4.70538E-01-1.26763E-06 2.21930E-08 1.41003E-02
 -1      7302-3.37204E-01 2.05132E-06 4.70538E-01-1.26764E-06 8.85535E-17-1.93814E-15
 -1      7303-3.37204E-01 2.05132E-06 4.70538E-01-1.26764E-06-2.21930E-08-1.41003E-02
 -1      7304-3.07300E-02-6.85309E-09 1.64062E-01 1.50721E-08-2.57782E-10 3.40016E-03
 -1      7305-3.07300E-02-6.85309E-09 1.64062E-01 1.50721E-08-6.29584E-19 4.47883E-16
 -1      7306-3.07300E-02-6.85309E-09 1.64062E-01 1.50721E-08 2.57782E-10-3.40016E-03
 -1      7307-3.10539E-02-1.56137E-08 1.64386E-01-1.37543E-09 4.20948E-11 3.41148E-03
 -1      7308-3.10539E-02-1.56137E-08 1.64386E-01-1.37543E-09-2.25585E-17 2.64252E-16
 -1      7309-3.10539E-02-1.56137E-08 1.64386E-01-1.37543E-09-4.20948E-11-3.41148E-03
 -1      7310-3.71542E-02 7.25681E-09 1.70486E-01 9.46477E-08-1.68811E-09 3.62444E-03
 -1      7311-3.71542E-02 7.25681E-09 1.70486E-01 9.46477E-08-7.52273E-18-1.16870E-16
 -1      7312-3.71542E-02 7.25681E-09 1.70486E-01 9.46477E-08 1.68811E-09-3.62444E-03
 -1      7313-2.74115E-01-3.42582E-06 4.07449E-01 5.98917E-06-1.04175E-07 1.18974E-02
 -1      7314-2.74115E-01-3.42582E-06 4.07449E-01 5.98917E-06-5.30654E-17 1.36151E-15
 -1      7315-2.74115E-01-3.42582E-06 4.07449E-01 5.98917E-06 1.04175E-07-1.18974E-02
 -1      7316-2.46133E-01-8.72499E-07 3.79466E-01-4.96411E-06 8.68994E-08 1.09204E-02
 -1      7317-2.46133E-01-8.72499E-07 3.79466E-01-4.96411E-06 1.04121E-17-1.77057E-15
 -1      7318-2.46133E-01-8.72499E-07 3.79466E-01-4.96411E-06-8.68994E-08-1.09204E-02
 -1      7319-2.22344E-01-1.57665E-06 3.55671E-01 2.14760E-06-3.76412E-08 1.00898E-02
 -1      7320-2.22344E-01-1.57665E-06 3.55671E-01 2.14760E-06 3.43565E-17-6.30258E-16
 -1      7321-2.22344E-01-1.57665E-06 3.55671E-01 2.14760E-06 3.76412E-08-1.00898E-02
 -1      7322-2.00027E-01-9.76555E-08 3.33358E-01 7.40909E-07-1.29631E-08 9.31073E-03
 -1      7323-2.00027E-01-9.76555E-08 3.33358E-01 7.40909E-07-5.34701E-17-3.81483E-16
 -1      7324-2.00027E-01-9.76555E-08 3.33358E-01 7.40909E-07 1.29631E-08-9.31073E-03
 -1      7325-1.79833E-01 1.38165E-07 3.13165E-01 1.91177E-07-3.34301E-09 8.60571E-03
 -1      7326-1.79833E-01 1.38165E-07 3.13165E-01 1.91177E-07-8.37833E-17-2.05009E-17
 -1      7327-1.79833E-01 1.38165E-07 3.13165E-01 1.91177E-07 3.34301E-09-8.60571E-03
 -1      7328-1.61911E-01 1.00215E-07 2.95244E-01 2.27599E-08-3.89891E-10 7.98001E-03
 -1      7329-1.61911E-01 1.00215E-07 2.95244E-01 2.27599E-08-6.24246E-17 3.52240E-18
 -1      7330-1.61911E-01 1.00215E-07 2.95244E-01 2.27599E-08 3.89891E-10-7.98001E-03
 -1      7331-1.45953E-01 3.28601E-08 2.79285E-01-1.23096E-07 2.15261E-09 7.42286E-03
 -1      7332-1.45953E-01 3.28601E-08 2.79285E-01-1.23096E-07 1.02579E-16 6.58383E-16
 -1      7333-1.45953E-01 3.28601E-08 2.79285E-01-1.23096E-07-2.15261E-09-7.42286E-03
 -1      7334-1.31693E-01 1.23627E-07 2.65025E-01-8.19901E-08 1.43291E-09 6.92498E-03
 -1      7335-1.31693E-01 1.23627E-07 2.65025E-01-8.19901E-08-9.08312E-17 5.51709E-16
 -1      7336-1.31693E-01 1.23627E-07 2.65025E-01-8.19901E-08-1.43291E-09-6.92498E-03
 -1      7337-1.18870E-01 9.99167E-08 2.52201E-01 1.34662E-07-2.34637E-09 6.47729E-03
 -1      7338-1.18870E-01 9.99167E-08 2.52201E-01 1.34662E-07-3.90958E-17-1.57819E-15
 -1      7339-1.18870E-01 9.99167E-08 2.52201E-01 1.34662E-07 2.34637E-09-6.47729E-03
 -1      7340-1.07225E-01-4.50119E-08 2.40557E-01 7.63869E-08-1.32660E-09 6.07074E-03
 -1      7341-1.07225E-01-4.50119E-08 2.40557E-01 7.63869E-08-2.26793E-17 7.41405E-16
 -1      7342-1.07225E-01-4.50119E-08 2.40557E-01 7.63869E-08 1.32660E-09-6.07074E-03
 -1      7343-9.65990E-02-2.80139E-10 2.29931E-01-4.39520E-08 7.74851E-10 5.69977E-03
 -1      7344-9.65990E-02-2.80137E-10 2.29931E-01-4.39520E-08 8.17659E-17 5.13073E-16
 -1      7345-9.65990E-02-2.80136E-10 2.29931E-01-4.39520E-08-7.74851E-10-5.69977E-03
 -1      7346-8.69050E-02 4.09867E-08 2.20237E-01-5.45595E-08 9.57392E-10 5.36134E-03
 -1      7347-8.69050E-02 4.09867E-08 2.20237E-01-5.45595E-08-7.84909E-17-1.55850E-16
 -1      7348-8.69050E-02 4.09867E-08 2.20237E-01-5.45595E-08-9.57392E-10-5.36134E-03
 -1      7349-7.80436E-02 2.30271E-08 2.11376E-01-3.25716E-08 5.68490E-10 5.05197E-03
 -1      7350-7.80436E-02 2.30271E-08 2.11376E-01-3.25716E-08 5.94325E-17 3.25971E-16
 -1      7351-7.80436E-02 2.30271E-08 2.11376E-01-3.25716E-08-5.68489E-10-5.05197E-03
 -1      7352-6.99192E-02 1.59221E-08 2.03251E-01-2.63593E-08 4.54320E-10 4.76833E-03
 -1      7353-6.99192E-02 1.59221E-08 2.03251E-01-2.63593E-08 2.15569E-17 2.63576E-16
 -1      7354-6.99192E-02 1.59221E-08 2.03251E-01-2.63593E-08-4.54320E-10-4.76833E-03
 -1      7355-6.24799E-02 7.01294E-09 1.95812E-01-3.78091E-08 6.48320E-10 4.50861E-03
 -1      7356-6.24799E-02 7.01294E-09 1.95812E-01-3.78091E-08-1.14522E-17-4.10103E-16
 -1      7357-6.24799E-02 7.01294E-09 1.95812E-01-3.78091E-08-6.48320E-10-4.50861E-03
 -1      7358-5.57306E-02 2.62977E-09 1.89063E-01 2.32314E-08-4.10562E-10 4.27297E-03
 -1      7359-5.57306E-02 2.62977E-09 1.89063E-01 2.32314E-08 2.34573E-17 1.41854E-15
 -1      7360-5.57306E-02 2.62977E-09 1.89063E-01 2.32314E-08 4.10562E-10-4.27297E-03
 -1      7361-4.96695E-02 6.04459E-09 1.83002E-01 4.79771E-07-8.30036E-09 4.06138E-03
 -1      7362-4.96695E-02 6.04459E-09 1.83002E-01 4.79771E-07 3.85053E-17 1.60382E-16
 -1      7363-4.96695E-02 6.04459E-09 1.83002E-01 4.79771E-07 8.30036E-09-4.06138E-03
 -1      7364-4.38037E-02-3.62057E-08 1.77137E-01-5.82521E-07 1.02357E-08 3.85662E-03
 -1      7365-4.38037E-02-3.62057E-08 1.77137E-01-5.82521E-07-2.02690E-17-9.71602E-16
 -1      7366-4.38037E-02-3.62057E-08 1.77137E-01-5.82521E-07-1.02357E-08-3.85662E-03
 -1      7367-3.08254E-01-6.45149E-07 4.41602E-01 1.34082E-06-2.36102E-08 1.30896E-02
 -1      7368-3.08254E-01-6.45149E-07 4.41602E-01 1.34082E-06-1.44799E-17-9.34815E-16
 -1      7369-3.08254E-01-6.45149E-07 4.41602E-01 1.34082E-06 2.36102E-08-1.30896E-02
 -1      7370-2.52502E-01 1.47983E-06 3.85839E-01-4.02837E-07 7.06542E-09 1.11430E-02
 -1      7371-2.52502E-01 1.47983E-06 3.85839E-01-4.02837E-07 4.06000E-17 7.60333E-16
 -1      7372-2.52502E-01 1.47983E-06 3.85839E-01-4.02837E-07-7.06542E-09-1.11430E-02
 -1      7373-1.41215E-01 3.80336E-08 2.74547E-01-2.55347E-07 4.47194E-09 7.25742E-03
 -1      7374-1.41215E-01 3.80336E-08 2.74547E-01-2.55347E-07 3.52946E-17-8.29212E-16
 -1      7375-1.41215E-01 3.80336E-08 2.74547E-01-2.55347E-07-4.47194E-09-7.25742E-03
 -1      7376-3.03826E-01-3.27125E-06 4.37154E-01 1.71977E-06-3.04736E-08 1.29350E-02
 -1      7377-3.03826E-01-3.27125E-06 4.37154E-01 1.71977E-06 5.55483E-17 3.13401E-15
 -1      7378-3.03826E-01-3.27125E-06 4.37154E-01 1.71977E-06 3.04736E-08-1.29350E-02
 -1      7379-3.25281E-02 8.19993E-07 1.65861E-01 3.86290E-07-6.85397E-09 3.46297E-03
 -1      7380-3.25281E-02 8.19993E-07 1.65861E-01 3.86290E-07-7.26002E-17-1.95522E-16
 -1      7381-3.25281E-02 8.19993E-07 1.65861E-01 3.86290E-07 6.85397E-09-3.46297E-03
 -1      7382-3.04402E-01-7.51135E-08 4.37737E-01 2.60550E-07-4.51418E-09 1.29550E-02
 -1      7383-3.04402E-01-7.51135E-08 4.37737E-01 2.60550E-07-4.77505E-19-3.03192E-16
 -1      7384-3.04402E-01-7.51135E-08 4.37737E-01 2.60550E-07 4.51418E-09-1.29550E-02
 -1      7385-2.66495E-01-1.66720E-06 3.99841E-01 5.53147E-06-9.66801E-08 1.16318E-02
 -1      7386-2.66495E-01-1.66720E-06 3.99841E-01 5.53147E-06 3.17146E-18 1.92088E-15
 -1      7387-2.66495E-01-1.66720E-06 3.99841E-01 5.53147E-06 9.66801E-08-1.16318E-02
 -1      7388-4.24947E-02-3.41024E-08 1.75827E-01 3.94381E-09-9.70261E-11 3.81089E-03
 -1      7389-4.24947E-02-3.41024E-08 1.75827E-01 3.94381E-09 1.51824E-17 5.81353E-16
 -1      7390-4.24947E-02-3.41024E-08 1.75827E-01 3.94381E-09 9.70262E-11-3.81089E-03
 -1      7391-1.82296E-01-2.27035E-07 3.15628E-01 2.38570E-07-4.18531E-09 8.69169E-03
 -1      7392-1.82296E-01-2.27035E-07 3.15628E-01 2.38570E-07-6.31253E-17-1.70406E-15
 -1      7393-1.82296E-01-2.27035E-07 3.15628E-01 2.38570E-07 4.18531E-09-8.69169E-03
 -1      7394-3.17325E-02 2.02542E-07 1.65065E-01-3.18355E-08 5.62990E-10 3.43518E-03
 -1      7395-3.17325E-02 2.02542E-07 1.65065E-01-3.18355E-08 1.78459E-17 3.25390E-16
 -1      7396-3.17325E-02 2.02542E-07 1.65065E-01-3.18355E-08-5.62990E-10-3.43518E-03
 -1      7397-7.55646E-02 1.78516E-08 2.08897E-01-4.88206E-08 8.49451E-10 4.96541E-03
 -1      7398-7.55646E-02 1.78516E-08 2.08897E-01-4.88206E-08 6.33984E-18 2.05928E-16
 -1      7399-7.55646E-02 1.78516E-08 2.08897E-01-4.88206E-08-8.49451E-10-4.96541E-03
 -1      7400-5.72584E-02 2.20759E-08 1.90590E-01 2.01759E-08-3.58001E-10 4.32631E-03
 -1      7401-5.72584E-02 2.20759E-08 1.90590E-01 2.01759E-08 5.29682E-18 1.08423E-16
 -1      7402-5.72584E-02 2.20759E-08 1.90590E-01 2.01759E-08 3.58001E-10-4.32631E-03
 -1      7403-1.56346E-01 3.38322E-07 2.89678E-01 2.79891E-08-4.82804E-10 7.78568E-03
 -1      7404-1.56346E-01 3.38322E-07 2.89678E-01 2.79891E-08-3.64837E-17 9.88587E-16
 -1      7405-1.56346E-01 3.38322E-07 2.89678E-01 2.79891E-08 4.82804E-10-7.78568E-03
 -1      7406-1.03608E-01-1.64592E-08 2.36940E-01 2.94060E-08-5.06433E-10 5.94448E-03
 -1      7407-1.03608E-01-1.64592E-08 2.36940E-01 2.94060E-08 2.27572E-17-4.51658E-18
 -1      7408-1.03608E-01-1.64592E-08 2.36940E-01 2.94060E-08 5.06433E-10-5.94448E-03
 -1      7409-4.49179E-02-6.16209E-09 1.78250E-01-6.18010E-08 1.06417E-09 3.89549E-03
 -1      7410-4.49179E-02-6.16209E-09 1.78250E-01-6.18010E-08 5.91760E-18 1.28260E-17
 -1      7411-4.49179E-02-6.16209E-09 1.78250E-01-6.18010E-08-1.06417E-09-3.89549E-03
 -1      7412-1.27429E-01-9.91054E-08 2.60761E-01-9.49421E-08 1.66824E-09 6.77612E-03
 -1      7413-1.27429E-01-9.91054E-08 2.60761E-01-9.49421E-08 5.55632E-17-1.69052E-16
 -1      7414-1.27429E-01-9.91054E-08 2.60761E-01-9.49421E-08-1.66824E-09-6.77612E-03
 -1      7415-6.78090E-02-4.11011E-08 2.01141E-01-2.28784E-08 3.94498E-10 4.69465E-03
 -1      7416-6.78090E-02-4.11011E-08 2.01141E-01-2.28784E-08 2.37156E-17-1.24816E-16
 -1      7417-6.78090E-02-4.11011E-08 2.01141E-01-2.28784E-08-3.94498E-10-4.69465E-03
 -1      7418-9.33592E-02-3.33901E-10 2.26691E-01-5.05587E-09 9.27329E-11 5.58666E-03
 -1      7419-9.33592E-02-3.33902E-10 2.26691E-01-5.05587E-09 4.25751E-17-2.85588E-16
 -1      7420-9.33592E-02-3.33902E-10 2.26691E-01-5.05587E-09-9.27329E-11-5.58666E-03
 -1      7421-3.47380E-02 8.96854E-08 1.68069E-01 1.43842E-07-2.54542E-09 3.54007E-03
 -1      7422-3.47380E-02 8.96853E-08 1.68069E-01 1.43842E-07 3.58449E-17 5.49922E-16
 -1      7423-3.47380E-02 8.96853E-08 1.68069E-01 1.43842E-07 2.54542E-09-3.54007E-03
 -1      7424-3.03677E-01 7.50677E-07 4.37009E-01-8.18303E-08 1.41448E-09 1.29297E-02
 -1      7425-3.03677E-01 7.50677E-07 4.37009E-01-8.18303E-08 4.88064E-17-4.16583E-16
 -1      7426-3.03677E-01 7.50677E-07 4.37009E-01-8.18303E-08-1.41448E-09-1.29297E-02
 -1      7427-2.37762E-01-1.75002E-06 3.71091E-01-2.56482E-06 4.48571E-08 1.06282E-02
 -1      7428-2.37762E-01-1.75002E-06 3.71091E-01-2.56482E-06 5.50880E-18-1.54808E-16
 -1      7429-2.37762E-01-1.75002E-06 3.71091E-01-2.56482E-06-4.48571E-08-1.06282E-02
 -1      7430-3.12995E-01 6.42380E-06 4.46316E-01-3.55180E-06 6.19258E-08 1.32545E-02
 -1      7431-3.12995E-01 6.42380E-06 4.46316E-01-3.55180E-06-7.91452E-17 3.75565E-16
 -1      7432-3.12995E-01 6.42380E-06 4.46316E-01-3.55180E-06-6.19258E-08-1.32545E-02
 -1      7433-3.51764E-02 5.86926E-08 1.68509E-01-7.56538E-08 1.34624E-09 3.55540E-03
 -1      7434-3.51764E-02 5.86926E-08 1.68509E-01-7.56538E-08 1.54941E-17-5.89840E-17
 -1      7435-3.51764E-02 5.86926E-08 1.68509E-01-7.56538E-08-1.34624E-09-3.55540E-03
 -1      7436-4.04495E-02 8.84058E-08 1.73782E-01 2.54603E-07-4.50487E-09 3.73948E-03
 -1      7437-4.04495E-02 8.84058E-08 1.73782E-01 2.54603E-07-1.82166E-17-2.83156E-16
 -1      7438-4.04495E-02 8.84058E-08 1.73782E-01 2.54603E-07 4.50487E-09-3.73948E-03
 -1      7439-3.21244E-02 1.33193E-07 1.65458E-01-2.74321E-07 4.82361E-09 3.44889E-03
 -1      7440-3.21244E-02 1.33193E-07 1.65458E-01-2.74321E-07-8.16813E-18 1.20247E-16
 -1      7441-3.21244E-02 1.33193E-07 1.65458E-01-2.74321E-07-4.82361E-09-3.44889E-03
 -1      7442-8.40504E-02 2.35249E-09 2.17382E-01-1.69485E-09 3.19467E-11 5.26167E-03
 -1      7443-8.40504E-02 2.35249E-09 2.17382E-01-1.69485E-09 2.09869E-17-6.90879E-16
 -1      7444-8.40504E-02 2.35248E-09 2.17382E-01-1.69485E-09-3.19466E-11-5.26167E-03
 -1      7445-1.14928E-01-7.71740E-08 2.48260E-01 2.08795E-08-3.55998E-10 6.33969E-03
 -1      7446-1.14928E-01-7.71740E-08 2.48260E-01 2.08795E-08 2.24024E-17-1.35588E-15
 -1      7447-1.14928E-01-7.71740E-08 2.48260E-01 2.08795E-08 3.55998E-10-6.33969E-03
 -1      7448-4.81685E-02 3.23557E-08 1.81501E-01-1.94358E-07 3.37301E-09 4.00897E-03
 -1      7449-4.81685E-02 3.23557E-08 1.81501E-01-1.94358E-07 3.15676E-18 1.01998E-15
 -1      7450-4.81685E-02 3.23557E-08 1.81501E-01-1.94358E-07-3.37301E-09-4.00897E-03
 -1      7451-3.61638E-02 4.75538E-08 1.69496E-01-1.94195E-08 3.41454E-10 3.58988E-03
 -1      7452-3.61638E-02 4.75538E-08 1.69496E-01-1.94195E-08-2.67497E-17 3.29762E-16
 -1      7453-3.61638E-02 4.75538E-08 1.69496E-01-1.94195E-08-3.41454E-10-3.58988E-03
 -1      7454-3.56495E-02-1.09483E-07 1.68982E-01 7.45118E-08-1.32750E-09 3.57191E-03
 -1      7455-3.56495E-02-1.09483E-07 1.68982E-01 7.45118E-08-1.87220E-17-4.14263E-16
 -1      7456-3.56495E-02-1.09483E-07 1.68982E-01 7.45118E-08 1.32750E-09-3.57191E-03
 -1      7457-5.08937E-02 5.32217E-08 1.84226E-01-5.81780E-08 1.00534E-09 4.10411E-03
 -1      7458-5.08937E-02 5.32217E-08 1.84226E-01-5.81780E-08 7.49707E-18 1.36163E-16
 -1      7459-5.08937E-02 5.32217E-08 1.84226E-01-5.81780E-08-1.00534E-09-4.10411E-03
 -1      7460-3.56872E-02-1.05310E-07 1.69020E-01 7.04243E-08-1.20538E-09 3.57325E-03
 -1      7461-3.56872E-02-1.05310E-07 1.69020E-01 7.04243E-08-2.54004E-17 8.49716E-17
 -1      7462-3.56872E-02-1.05310E-07 1.69020E-01 7.04243E-08 1.20538E-09-3.57325E-03
 -1      7463-2.57862E-01 3.09629E-06 3.91189E-01-3.52922E-06 6.14415E-08 1.13297E-02
 -1      7464-2.57862E-01 3.09629E-06 3.91189E-01-3.52922E-06 1.38971E-16 3.28020E-16
 -1      7465-2.57862E-01 3.09629E-06 3.91189E-01-3.52922E-06-6.14415E-08-1.13297E-02
 -1      7466-2.08471E-01 6.90323E-07 3.41805E-01 1.33723E-06-2.34370E-08 9.60564E-03
 -1      7467-2.08471E-01 6.90323E-07 3.41805E-01 1.33723E-06 4.18998E-18 1.06048E-15
 -1      7468-2.08471E-01 6.90323E-07 3.41805E-01 1.33723E-06 2.34370E-08-9.60564E-03
 -1      7469-1.87082E-01 3.47116E-07 3.20415E-01 2.35395E-07-4.10164E-09 8.85883E-03
 -1      7470-1.87082E-01 3.47116E-07 3.20415E-01 2.35395E-07 1.63904E-17 5.95161E-16
 -1      7471-1.87082E-01 3.47116E-07 3.20415E-01 2.35395E-07 4.10164E-09-8.85883E-03
 -1      7472-1.68202E-01 7.72412E-08 3.01535E-01 7.04617E-08-1.20757E-09 8.19965E-03
 -1      7473-1.68202E-01 7.72412E-08 3.01535E-01 7.04617E-08-4.79896E-17 7.05460E-16
 -1      7474-1.68202E-01 7.72412E-08 3.01535E-01 7.04617E-08 1.20757E-09-8.19965E-03
 -1      7475-1.51547E-01-1.75898E-07 2.84879E-01-1.58245E-07 2.77604E-09 7.61815E-03
 -1      7476-1.51547E-01-1.75898E-07 2.84879E-01-1.58245E-07-1.36462E-17-5.02254E-16
 -1      7477-1.51547E-01-1.75898E-07 2.84879E-01-1.58245E-07-2.77604E-09-7.61815E-03
 -1      7478-1.36671E-01-8.24158E-08 2.70004E-01-2.43923E-07 4.24834E-09 7.09880E-03
 -1      7479-1.36671E-01-8.24158E-08 2.70004E-01-2.43923E-07 1.94441E-18 1.24680E-17
 -1      7480-1.36671E-01-8.24158E-08 2.70004E-01-2.43923E-07-4.24834E-09-7.09880E-03
 -1      7481-1.23352E-01 1.72788E-07 2.56684E-01 1.69938E-07-2.97917E-09 6.63379E-03
 -1      7482-1.23352E-01 1.72788E-07 2.56684E-01 1.69938E-07 5.26718E-17 1.65960E-16
 -1      7483-1.23352E-01 1.72788E-07 2.56684E-01 1.69938E-07 2.97917E-09-6.63379E-03
 -1      7484-1.11292E-01-1.72474E-07 2.44624E-01 2.88027E-07-5.02890E-09 6.21274E-03
 -1      7485-1.11292E-01-1.72474E-07 2.44624E-01 2.88027E-07-2.33515E-17-4.86048E-16
 -1      7486-1.11292E-01-1.72474E-07 2.44624E-01 2.88027E-07 5.02890E-09-6.21274E-03
 -1      7487-1.00279E-01-7.76997E-08 2.33611E-01-3.13749E-08 5.57502E-10 5.82825E-03
 -1      7488-1.00279E-01-7.76997E-08 2.33611E-01-3.13749E-08-5.76052E-17-1.86110E-16
 -1      7489-1.00279E-01-7.76997E-08 2.33611E-01-3.13749E-08-5.57502E-10-5.82825E-03
 -1      7490-9.02557E-02 2.21931E-08 2.23588E-01-8.40764E-08 1.47641E-09 5.47832E-03
 -1      7491-9.02557E-02 2.21931E-08 2.23588E-01-8.40764E-08 1.45223E-17 8.20679E-16
 -1      7492-9.02557E-02 2.21931E-08 2.23588E-01-8.40764E-08-1.47641E-09-5.47832E-03
 -1      7493-8.11015E-02-3.43571E-08 2.14434E-01-2.47796E-08 4.32246E-10 5.15872E-03
 -1      7494-8.11015E-02-3.43571E-08 2.14434E-01-2.47796E-08 1.02574E-17 4.32716E-16
 -1      7495-8.11015E-02-3.43571E-08 2.14434E-01-2.47796E-08-4.32246E-10-5.15872E-03
 -1      7496-7.26683E-02-4.94901E-08 2.06000E-01-1.71344E-08 2.90567E-10 4.86430E-03
 -1      7497-7.26683E-02-4.94901E-08 2.06000E-01-1.71344E-08 7.77285E-17-4.88662E-17
 -1      7498-7.26683E-02-4.94901E-08 2.06000E-01-1.71344E-08-2.90567E-10-4.86430E-03
 -1      7499-6.48803E-02-3.16224E-08 1.98212E-01 7.24658E-09-1.45211E-10 4.59241E-03
 -1      7500-6.48803E-02-3.16224E-08 1.98212E-01 7.24658E-09-1.81730E-17-4.32757E-18
 -1      7501-6.48803E-02-3.16224E-08 1.98212E-01 7.24658E-09 1.45211E-10-4.59241E-03
 -1      7502-5.77367E-02-4.19566E-08 1.91068E-01-3.44893E-08 5.56149E-10 4.34301E-03
 -1      7503-5.77367E-02-4.19566E-08 1.91068E-01-3.44893E-08 2.33737E-17-6.90765E-16
 -1      7504-5.77367E-02-4.19566E-08 1.91068E-01-3.44893E-08-5.56149E-10-4.34301E-03
 -1      7505-5.14174E-02 5.75429E-08 1.84749E-01 1.26068E-07-2.27517E-09 4.12237E-03
 -1      7506-5.14174E-02 5.75429E-08 1.84749E-01 1.26068E-07 5.87192E-17-3.77379E-16
 -1      7507-5.14174E-02 5.75429E-08 1.84749E-01 1.26068E-07 2.27517E-09-4.12237E-03
 -1      7508-4.64548E-02 1.42211E-07 1.79784E-01 7.15975E-08-1.26182E-09 3.94907E-03
 -1      7509-4.64548E-02 1.42211E-07 1.79784E-01 7.15975E-08-5.91294E-17-3.23674E-16
 -1      7510-4.64548E-02 1.42211E-07 1.79784E-01 7.15975E-08 1.26182E-09-3.94907E-03
 -1      7511-2.78699E-01 2.92771E-06 4.12030E-01-8.31081E-06 1.44380E-07 1.20575E-02
 -1      7512-2.78699E-01 2.92771E-06 4.12030E-01-8.31081E-06-4.38247E-17 2.14924E-15
 -1      7513-2.78699E-01 2.92771E-06 4.12030E-01-8.31081E-06-1.44380E-07-1.20575E-02
 -1      7514-2.79091E-01 2.50906E-06 4.12405E-01 6.75494E-06-1.18214E-07 1.20708E-02
 -1      7515-2.79091E-01 2.50906E-06 4.12405E-01 6.75494E-06-4.76334E-17-7.87578E-16
 -1      7516-2.79091E-01 2.50906E-06 4.12405E-01 6.75494E-06 1.18214E-07-1.20708E-02
 -1      7517-2.25642E-01 2.00719E-07 3.58974E-01-7.90464E-07 1.38152E-08 1.02051E-02
 -1      7518-2.25642E-01 2.00719E-07 3.58974E-01-7.90464E-07-1.75248E-17 1.58782E-16
 -1      7519-2.25642E-01 2.00719E-07 3.58974E-01-7.90464E-07-1.38152E-08-1.02051E-02
 -1      7520-3.03922E-01-1.30988E-07 4.37257E-01 1.52038E-07-2.68129E-09 1.29383E-02
 -1      7521-3.03922E-01-1.30988E-07 4.37257E-01 1.52038E-07-2.12205E-17-3.28576E-16
 -1      7522-3.03922E-01-1.30988E-07 4.37257E-01 1.52038E-07 2.68129E-09-1.29383E-02
 -1      7523-3.46490E-02 2.17327E-07 1.67981E-01-1.19121E-07 2.14752E-09 3.53697E-03
 -1      7524-3.46490E-02 2.17327E-07 1.67981E-01-1.19121E-07-1.67997E-17 3.27237E-16
 -1      7525-3.46490E-02 2.17327E-07 1.67981E-01-1.19121E-07-2.14752E-09-3.53697E-03
 -1      7526-7.95579E-02-6.74776E-09 2.12890E-01 6.83670E-09-1.14775E-10 5.10482E-03
 -1      7527-7.95579E-02-6.74776E-09 2.12890E-01 6.83670E-09-2.88881E-17-5.39119E-16
 -1      7528-7.95579E-02-6.74776E-09 2.12890E-01 6.83670E-09 1.14775E-10-5.10482E-03
 -1      7529-2.02512E-01-6.46312E-08 3.35844E-01-3.77108E-07 6.56195E-09 9.39750E-03
 -1      7530-2.02512E-01-6.46312E-08 3.35844E-01-3.77108E-07 4.76864E-17-1.06252E-15
 -1      7531-2.02512E-01-6.46312E-08 3.35844E-01-3.77108E-07-6.56195E-09-9.39750E-03
 -1      7532-1.72988E-01 7.81775E-08 3.06321E-01 1.01092E-06-1.76830E-08 8.36672E-03
 -1      7533-1.72988E-01 7.81775E-08 3.06321E-01 1.01092E-06 4.17385E-18-1.15795E-16
 -1      7534-1.72988E-01 7.81775E-08 3.06321E-01 1.01092E-06 1.76830E-08-8.36672E-03
 -1      7535-3.66167E-02-3.24548E-07 1.69947E-01-2.32766E-07 4.06422E-09 3.60567E-03
 -1      7536-3.66167E-02-3.24548E-07 1.69947E-01-2.32766E-07 4.85858E-18-1.92517E-16
 -1      7537-3.66167E-02-3.24548E-07 1.69947E-01-2.32766E-07-4.06422E-09-3.60567E-03
 -1      7538-3.05498E-01-1.63453E-06 4.38808E-01-5.78463E-07 1.02926E-08 1.29928E-02
 -1      7539-3.05498E-01-1.63453E-06 4.38808E-01-5.78463E-07-3.11711E-17-2.02422E-16
 -1      7540-3.05498E-01-1.63453E-06 4.38808E-01-5.78463E-07-1.02926E-08-1.29928E-02
 -1      7541-1.09029E-01-4.88065E-08 2.42361E-01 1.34236E-07-2.33139E-09 6.13373E-03
 -1      7542-1.09029E-01-4.88065E-08 2.42361E-01 1.34236E-07-3.67925E-17-5.77061E-16
 -1      7543-1.09029E-01-4.88065E-08 2.42361E-01 1.34236E-07 2.33138E-09-6.13373E-03
 -1      7544-4.57221E-02-3.19831E-07 1.79054E-01-3.89299E-07 6.75040E-09 3.92355E-03
 -1      7545-4.57221E-02-3.19831E-07 1.79054E-01-3.89299E-07 2.25784E-17-4.61394E-16
 -1      7546-4.57221E-02-3.19831E-07 1.79054E-01-3.89299E-07-6.75040E-09-3.92355E-03
 -1      7547-1.48992E-01 1.52948E-08 2.82324E-01-6.40933E-07 1.12327E-08 7.52893E-03
 -1      7548-1.48992E-01 1.52948E-08 2.82324E-01-6.40933E-07-3.19888E-17-2.08845E-16
 -1      7549-1.48992E-01 1.52948E-08 2.82324E-01-6.40933E-07-1.12327E-08-7.52893E-03
 -1      7550-6.06964E-02-4.16001E-08 1.94028E-01 7.69322E-08-1.34740E-09 4.44633E-03
 -1      7551-6.06964E-02-4.16001E-08 1.94028E-01 7.69322E-08-7.96971E-18-1.47074E-16
 -1      7552-6.06964E-02-4.16001E-08 1.94028E-01 7.69322E-08 1.34740E-09-4.44633E-03
 -1      7553-9.82117E-02 1.62354E-08 2.31544E-01-1.65797E-09 4.01951E-11 5.75607E-03
 -1      7554-9.82117E-02 1.62354E-08 2.31544E-01-1.65797E-09-1.91424E-17 9.23492E-17
 -1      7555-9.82117E-02 1.62354E-08 2.31544E-01-1.65796E-09-4.01951E-11-5.75607E-03
 -1      7556-1.34340E-01-2.13849E-07 2.67672E-01-2.49319E-07 4.37660E-09 7.01739E-03
 -1      7557-1.34340E-01-2.13849E-07 2.67672E-01-2.49319E-07 4.41671E-17 9.36927E-16
 -1      7558-1.34340E-01-2.13849E-07 2.67672E-01-2.49319E-07-4.37660E-09-7.01739E-03
 -1      7559-4.17722E-02-3.32267E-07 1.75103E-01-2.59036E-07 4.47898E-09 3.78564E-03
 -1      7560-4.17722E-02-3.32267E-07 1.75103E-01-2.59036E-07-3.75717E-18-6.72364E-17
 -1      7561-4.17722E-02-3.32267E-07 1.75103E-01-2.59036E-07-4.47898E-09-3.78564E-03
 -1      7562-2.50083E-01-1.57423E-06 3.83412E-01-1.17092E-06 2.03470E-08 1.10585E-02
 -1      7563-2.50083E-01-1.57423E-06 3.83412E-01-1.17092E-06-2.89652E-17 1.54216E-15
 -1      7564-2.50083E-01-1.57423E-06 3.83412E-01-1.17092E-06-2.03470E-08-1.10585E-02
 -1      7565-3.04036E-01-1.32399E-06 4.37368E-01 3.15671E-07-5.46311E-09 1.29422E-02
 -1      7566-3.04036E-01-1.32399E-06 4.37368E-01 3.15671E-07-8.68497E-17-1.36180E-16
 -1      7567-3.04036E-01-1.32399E-06 4.37368E-01 3.15671E-07 5.46311E-09-1.29422E-02
 -1      7568-2.33984E-01 9.81162E-09 3.67307E-01 3.50330E-06-6.13895E-08 1.04962E-02
 -1      7569-2.33984E-01 9.81162E-09 3.67307E-01 3.50330E-06-7.25326E-17-2.39307E-15
 -1      7570-2.33984E-01 9.81162E-09 3.67307E-01 3.50330E-06 6.13895E-08-1.04962E-02
 -1      7571-2.75296E-01 2.08534E-06 4.08628E-01 3.95942E-06-6.87924E-08 1.19388E-02
 -1      7572-2.75296E-01 2.08534E-06 4.08628E-01 3.95942E-06-8.85931E-17-5.51886E-16
 -1      7573-2.75296E-01 2.08534E-06 4.08628E-01 3.95942E-06 6.87924E-08-1.19388E-02
 -1      7574-7.15285E-02 5.33936E-08 2.04861E-01-1.50984E-07 2.62489E-09 4.82450E-03
 -1      7575-7.15285E-02 5.33936E-08 2.04861E-01-1.50984E-07-4.23226E-17 9.30870E-17
 -1      7576-7.15285E-02 5.33936E-08 2.04861E-01-1.50984E-07-2.62489E-09-4.82450E-03
 -1      7577-3.91671E-02-4.12292E-07 1.72500E-01-4.55571E-07 7.99591E-09 3.69471E-03
 -1      7578-3.91671E-02-4.12292E-07 1.72500E-01-4.55571E-07-4.59822E-17 3.49994E-16
 -1      7579-3.91671E-02-4.12292E-07 1.72500E-01-4.55571E-07-7.99591E-09-3.69471E-03
 -1      7580-2.82949E-01-3.15460E-06 4.16269E-01 2.92046E-07-5.27277E-09 1.22056E-02
 -1      7581-2.82949E-01-3.15460E-06 4.16269E-01 2.92046E-07 3.95989E-19-2.12073E-16
 -1      7582-2.82949E-01-3.15460E-06 4.16269E-01 2.92046E-07 5.27277E-09-1.22056E-02
 -1      7583-3.93978E-02-2.54731E-07 1.72731E-01 1.32859E-07-2.29397E-09 3.70279E-03
 -1      7584-3.93978E-02-2.54731E-07 1.72731E-01 1.32859E-07-1.08228E-17 4.27595E-16
 -1      7585-3.93978E-02-2.54731E-07 1.72731E-01 1.32859E-07 2.29397E-09-3.70279E-03
 -1      7586-4.14341E-02 5.97458E-07 1.74767E-01 7.25517E-07-1.27681E-08 3.77389E-03
 -1      7587-4.14341E-02 5.97458E-07 1.74767E-01 7.25517E-07-1.10845E-17 2.48175E-17
 -1      7588-4.14341E-02 5.97458E-07 1.74767E-01 7.25517E-07 1.27681E-08-3.77389E-03
 -1      7589-5.41821E-02 7.02500E-08 1.87514E-01 2.38214E-08-4.22148E-10 4.21891E-03
 -1      7590-5.41821E-02 7.02500E-08 1.87514E-01 2.38214E-08 4.30112E-17-8.68624E-17
 -1      7591-5.41821E-02 7.02500E-08 1.87514E-01 2.38214E-08 4.22148E-10-4.21891E-03
 -1      7592-4.09725E-02 6.34670E-07 1.74306E-01-4.71396E-07 8.30808E-09 3.75779E-03
 -1      7593-4.09725E-02 6.34670E-07 1.74306E-01-4.71396E-07 7.57559E-18-3.56295E-16
 -1      7594-4.09725E-02 6.34670E-07 1.74306E-01-4.71396E-07-8.30808E-09-3.75779E-03
 -1      7595-2.74441E-01 1.28891E-07 4.07773E-01-5.83746E-07 1.00164E-08 1.19089E-02
 -1      7596-2.74441E-01 1.28891E-07 4.07773E-01-5.83746E-07-8.84273E-18-9.12118E-17
 -1      7597-2.74441E-01 1.28891E-07 4.07773E-01-5.83746E-07-1.00164E-08-1.19089E-02
 -1      7598-4.67480E-02 3.47215E-07 1.80080E-01 7.14883E-07-1.26032E-08 3.95938E-03
 -1      7599-4.67480E-02 3.47215E-07 1.80080E-01 7.14883E-07-2.90539E-17 3.00674E-16
 -1      7600-4.67480E-02 3.47215E-07 1.80080E-01 7.14883E-07 1.26032E-08-3.95938E-03
 -1      7601-1.21041E-01-1.55285E-07 2.54373E-01 6.33919E-09-9.75883E-11 6.55312E-03
 -1      7602-1.21041E-01-1.55285E-07 2.54373E-01 6.33919E-09-6.86953E-17-2.00579E-16
 -1      7603-1.21041E-01-1.55285E-07 2.54373E-01 6.33919E-09 9.75881E-11-6.55312E-03
 -1      7604-4.01653E-02 2.07359E-07 1.73498E-01 9.50633E-08-1.63514E-09 3.72958E-03
 -1      7605-4.01653E-02 2.07359E-07 1.73498E-01 9.50633E-08 1.16127E-17 5.63171E-16
 -1      7606-4.01653E-02 2.07359E-07 1.73498E-01 9.50633E-08 1.63514E-09-3.72958E-03
 -1      7607-1.95000E-01 3.27461E-07 3.28334E-01-6.68959E-07 1.17096E-08 9.13529E-03
 -1      7608-1.95000E-01 3.27461E-07 3.28334E-01-6.68959E-07-6.21869E-17-4.34500E-16
 -1      7609-1.95000E-01 3.27461E-07 3.28334E-01-6.68959E-07-1.17096E-08-9.13529E-03
 -1      7610-3.82970E-02 8.41730E-07 1.71629E-01 7.97947E-08-1.37856E-09 3.66432E-03
 -1      7611-3.82970E-02 8.41730E-07 1.71629E-01 7.97947E-08 2.86090E-17-2.29586E-17
 -1      7612-3.82970E-02 8.41730E-07 1.71629E-01 7.97947E-08 1.37856E-09-3.66432E-03
 -1      7613-2.58219E-01-8.95205E-06 3.91542E-01-5.10622E-06 8.88453E-08 1.13422E-02
 -1      7614-2.58219E-01-8.95205E-06 3.91542E-01-5.10622E-06-3.69949E-17 4.70397E-16
 -1      7615-2.58219E-01-8.95205E-06 3.91542E-01-5.10622E-06-8.88453E-08-1.13422E-02
 -1      7616-1.75517E-01 4.83581E-07 3.08850E-01 4.23150E-08-6.74154E-10 8.45502E-03
 -1      7617-1.75517E-01 4.83581E-07 3.08850E-01 4.23150E-08 2.09376E-18 4.49704E-16
 -1      7618-1.75517E-01 4.83581E-07 3.08850E-01 4.23150E-08 6.74154E-10-8.45502E-03
 -1      7619-1.58324E-01-4.33353E-07 2.91656E-01-9.73406E-08 1.73479E-09 7.85475E-03
 -1      7620-1.58324E-01-4.33353E-07 2.91656E-01-9.73406E-08 1.30917E-17 1.07992E-15
 -1      7621-1.58324E-01-4.33353E-07 2.91656E-01-9.73406E-08-1.73479E-09-7.85475E-03
 -1      7622-1.42847E-01-1.86951E-09 2.76179E-01-6.48826E-07 1.13399E-08 7.31441E-03
 -1      7623-1.42847E-01-1.86952E-09 2.76179E-01-6.48826E-07 5.35237E-17 5.06325E-16
 -1      7624-1.42847E-01-1.86952E-09 2.76179E-01-6.48826E-07-1.13399E-08-7.31441E-03
 -1      7625-1.28792E-01-1.06084E-06 2.62124E-01-9.06616E-07 1.57451E-08 6.82371E-03
 -1      7626-1.28792E-01-1.06084E-06 2.62124E-01-9.06616E-07 8.63995E-17 7.63167E-17
 -1      7627-1.28792E-01-1.06084E-06 2.62124E-01-9.06616E-07-1.57451E-08-6.82371E-03
 -1      7628-1.16133E-01-7.24765E-07 2.49464E-01 1.51641E-06-2.65068E-08 6.38174E-03
 -1      7629-1.16133E-01-7.24765E-07 2.49464E-01 1.51641E-06-9.35796E-17-7.62462E-16
 -1      7630-1.16133E-01-7.24765E-07 2.49464E-01 1.51641E-06 2.65068E-08-6.38174E-03
 -1      7631-1.04605E-01-9.30847E-08 2.37937E-01 1.82683E-07-3.17141E-09 5.97927E-03
 -1      7632-1.04605E-01-9.30847E-08 2.37937E-01 1.82683E-07 6.91017E-18 2.51667E-16
 -1      7633-1.04605E-01-9.30847E-08 2.37937E-01 1.82683E-07 3.17141E-09-5.97927E-03
 -1      7634-9.42229E-02 5.52005E-08 2.27555E-01-2.57317E-07 4.51278E-09 5.61682E-03
 -1      7635-9.42229E-02 5.52005E-08 2.27555E-01-2.57317E-07-1.99702E-18 1.15678E-16
 -1      7636-9.42229E-02 5.52005E-08 2.27555E-01-2.57317E-07-4.51278E-09-5.61682E-03
 -1      7637-8.48064E-02-6.82611E-08 2.18138E-01-4.77472E-08 8.31580E-10 5.28806E-03
 -1      7638-8.48064E-02-6.82611E-08 2.18138E-01-4.77472E-08-8.21604E-18-4.31558E-16
 -1      7639-8.48064E-02-6.82611E-08 2.18138E-01-4.77472E-08-8.31580E-10-5.28806E-03
 -1      7640-7.60558E-02-1.21424E-07 2.09388E-01-4.63719E-08 7.94686E-10 4.98257E-03
 -1      7641-7.60558E-02-1.21424E-07 2.09388E-01-4.63719E-08 4.36328E-17-5.33992E-16
 -1      7642-7.60558E-02-1.21424E-07 2.09388E-01-4.63719E-08-7.94686E-10-4.98257E-03
 -1      7643-6.78767E-02-6.57904E-08 2.01209E-01-5.93274E-08 1.01333E-09 4.69703E-03
 -1      7644-6.78767E-02-6.57904E-08 2.01209E-01-5.93274E-08-1.95698E-17-1.81492E-16
 -1      7645-6.78767E-02-6.57904E-08 2.01209E-01-5.93274E-08-1.01333E-09-4.69703E-03
 -1      7646-6.02123E-02-6.15520E-08 1.93544E-01 3.49710E-09-9.21420E-11 4.42946E-03
 -1      7647-6.02123E-02-6.15520E-08 1.93544E-01 3.49710E-09-3.78091E-17 4.44670E-16
 -1      7648-6.02123E-02-6.15520E-08 1.93544E-01 3.49710E-09 9.21420E-11-4.42946E-03
 -1      7649-5.29911E-02-4.52973E-07 1.86322E-01-3.87077E-07 6.63294E-09 4.17734E-03
 -1      7650-5.29911E-02-4.52973E-07 1.86322E-01-3.87077E-07-5.70144E-17-3.69693E-16
 -1      7651-5.29911E-02-4.52973E-07 1.86322E-01-3.87077E-07-6.63294E-09-4.17734E-03
 -1      7652-2.75303E-01 2.87908E-07 4.08653E-01-2.16642E-06 3.78227E-08 1.19393E-02
 -1      7653-2.75303E-01 2.87908E-07 4.08653E-01-2.16642E-06 9.42382E-17-1.69941E-15
 -1      7654-2.75303E-01 2.87908E-07 4.08653E-01-2.16642E-06-3.78227E-08-1.19393E-02
 -1      7655-8.84372E-02-3.81542E-08 2.21769E-01-2.50040E-08 4.45110E-10 5.41482E-03
 -1      7656-8.84372E-02-3.81542E-08 2.21769E-01-2.50040E-08 5.82375E-17 5.25926E-16
 -1      7657-8.84372E-02-3.81542E-08 2.21769E-01-2.50040E-08-4.45110E-10-5.41482E-03
 -1      7658-2.75133E-01-3.19050E-08 4.08467E-01 1.23865E-07-2.15381E-09 1.19331E-02
 -1      7659-2.75133E-01-3.19050E-08 4.08467E-01 1.23865E-07 5.18647E-17 1.86548E-16
 -1      7660-2.75133E-01-3.19050E-08 4.08467E-01 1.23865E-07 2.15381E-09-1.19331E-02
 -1      7661-7.51053E-02-1.00423E-07 2.08437E-01 6.04796E-08-1.04139E-09 4.94938E-03
 -1      7662-7.51053E-02-1.00423E-07 2.08437E-01 6.04796E-08-1.54092E-18 1.44082E-15
 -1      7663-7.51053E-02-1.00423E-07 2.08437E-01 6.04796E-08 1.04139E-09-4.94938E-03
 -1      7664-1.03257E-01 1.09811E-07 2.36589E-01 1.72845E-07-2.99578E-09 5.93222E-03
 -1      7665-1.03257E-01 1.09811E-07 2.36589E-01 1.72845E-07 3.71850E-17 3.17318E-16
 -1      7666-1.03257E-01 1.09811E-07 2.36589E-01 1.72845E-07 2.99578E-09-5.93222E-03
 -1      7667-2.17989E-01 1.74521E-06 3.51331E-01-6.85270E-07 1.20389E-08 9.93812E-03
 -1      7668-2.17989E-01 1.74521E-06 3.51331E-01-6.85270E-07 4.84956E-18 3.41720E-16
 -1      7669-2.17989E-01 1.74521E-06 3.51331E-01-6.85270E-07-1.20389E-08-9.93812E-03
 -1      7670-1.64869E-01 3.42660E-07 2.98201E-01 5.28656E-08-8.82540E-10 8.08324E-03
 -1      7671-1.64869E-01 3.42660E-07 2.98201E-01 5.28656E-08-4.23423E-17-3.83539E-16
 -1      7672-1.64869E-01 3.42660E-07 2.98201E-01 5.28656E-08 8.82540E-10-8.08324E-03
 -1      7673-4.34412E-02 3.05234E-07 1.76770E-01 1.67134E-08-2.62547E-10 3.84386E-03
 -1      7674-4.34412E-02 3.05234E-07 1.76770E-01 1.67134E-08 1.04475E-17-5.75881E-16
 -1      7675-4.34412E-02 3.05234E-07 1.76770E-01 1.67134E-08 2.62547E-10-3.84386E-03
 -1      7676-5.12819E-02 8.24109E-08 1.84614E-01-4.80341E-08 8.45300E-10 4.11765E-03
 -1      7677-5.12819E-02 8.24109E-08 1.84614E-01-4.80341E-08-1.69201E-17-2.10215E-17
 -1      7678-5.12819E-02 8.24109E-08 1.84614E-01-4.80341E-08-8.45300E-10-4.11765E-03
 -1      7679-2.74202E-01 2.51304E-06 4.07534E-01 1.10382E-07-1.82535E-09 1.19006E-02
 -1      7680-2.74202E-01 2.51304E-06 4.07534E-01 1.10382E-07 4.64948E-18 1.88987E-15
 -1      7681-2.74202E-01 2.51304E-06 4.07534E-01 1.10382E-07 1.82535E-09-1.19006E-02
 -1      7682-2.22725E-01 2.89137E-06 3.56067E-01 6.61798E-07-1.15938E-08 1.01034E-02
 -1      7683-2.22725E-01 2.89137E-06 3.56067E-01 6.61798E-07-3.03774E-17-7.80503E-16
 -1      7684-2.22725E-01 2.89137E-06 3.56067E-01 6.61798E-07 1.15938E-08-1.01034E-02
 -1      7685-1.14779E-01-1.09237E-07 2.48111E-01 2.18070E-07-3.79474E-09 6.33448E-03
 -1      7686-1.14779E-01-1.09237E-07 2.48111E-01 2.18070E-07-2.35140E-17 9.09543E-16
 -1      7687-1.14779E-01-1.09237E-07 2.48111E-01 2.18070E-07 3.79474E-09-6.33448E-03
 -1      7688-2.46544E-01-2.05756E-06 3.79899E-01 3.59596E-06-6.29454E-08 1.09355E-02
 -1      7689-2.46544E-01-2.05756E-06 3.79899E-01 3.59596E-06 6.23590E-17 7.14637E-16
 -1      7690-2.46544E-01-2.05756E-06 3.79899E-01 3.59596E-06 6.29454E-08-1.09355E-02
 -1      7691-6.41629E-02-1.10721E-07 1.97495E-01 3.48505E-08-6.16809E-10 4.56735E-03
 -1      7692-6.41629E-02-1.10721E-07 1.97495E-01 3.48505E-08-2.16126E-17-5.48509E-16
 -1      7693-6.41629E-02-1.10721E-07 1.97495E-01 3.48505E-08 6.16809E-10-4.56735E-03
 -1      7694-1.42016E-01-4.50192E-07 2.75347E-01-5.76968E-07 1.01258E-08 7.28540E-03
 -1      7695-1.42016E-01-4.50192E-07 2.75347E-01-5.76968E-07 1.02946E-17-2.97545E-16
 -1      7696-1.42016E-01-4.50192E-07 2.75347E-01-5.76968E-07-1.01258E-08-7.28540E-03
 -1      7697-2.12991E-01 7.67601E-07 3.46325E-01-1.22738E-06 2.13596E-08 9.76340E-03
 -1      7698-2.12991E-01 7.67601E-07 3.46325E-01-1.22738E-06 2.17525E-17-5.25174E-16
 -1      7699-2.12991E-01 7.67601E-07 3.46325E-01-1.22738E-06-2.13596E-08-9.76340E-03
 -1      7700-1.91699E-01-7.50997E-07 3.25031E-01 4.64212E-08-8.64714E-10 9.01996E-03
 -1      7701-1.91699E-01-7.50997E-07 3.25031E-01 4.64212E-08 4.80208E-17 1.45010E-15
 -1      7702-1.91699E-01-7.50997E-07 3.25031E-01 4.64212E-08 8.64714E-10-9.01996E-03
 -1      7703-8.35410E-02-6.97473E-08 2.16873E-01 1.70491E-08-2.79696E-10 5.24388E-03
 -1      7704-8.35410E-02-6.97473E-08 2.16873E-01 1.70491E-08-1.84219E-17-1.66496E-16
 -1      7705-8.35410E-02-6.97473E-08 2.16873E-01 1.70491E-08 2.79696E-10-5.24388E-03
 -1      7706-1.57945E-01-3.90622E-07 2.91277E-01-1.44141E-06 2.53473E-08 7.84155E-03
 -1      7707-1.57945E-01-3.90622E-07 2.91277E-01-1.44141E-06-7.78978E-20 5.90489E-16
 -1      7708-1.57945E-01-3.90622E-07 2.91277E-01-1.44141E-06-2.53473E-08-7.84155E-03
 -1      7709-2.25039E-01-9.87069E-07 3.58378E-01-2.72076E-06 4.78800E-08 1.01842E-02
 -1      7710-2.25039E-01-9.87069E-07 3.58378E-01-2.72076E-06 4.26169E-17 1.91252E-15
 -1      7711-2.25039E-01-9.87069E-07 3.58378E-01-2.72076E-06-4.78800E-08-1.01842E-02
 -1      7712-2.03096E-01-2.09299E-07 3.36426E-01 4.88606E-08-6.64013E-10 9.41783E-03
 -1      7713-2.03096E-01-2.09299E-07 3.36426E-01 4.88606E-08 8.33727E-17-4.23637E-16
 -1      7714-2.03096E-01-2.09299E-07 3.36426E-01 4.88606E-08 6.64013E-10-9.41783E-03
 -1      7715-4.77249E-02-2.85593E-08 1.81060E-01 5.35016E-08-9.45030E-10 3.99359E-03
 -1      7716-4.77249E-02-2.85593E-08 1.81060E-01 5.35016E-08 3.73243E-17-1.85374E-16
 -1      7717-4.77249E-02-2.85593E-08 1.81060E-01 5.35016E-08 9.45030E-10-3.99359E-03
 -1      7718-2.49626E-01 1.32774E-06 3.82954E-01-2.97646E-06 5.14873E-08 1.10424E-02
 -1      7719-2.49626E-01 1.32774E-06 3.82954E-01-2.97646E-06-1.30417E-16-1.64610E-15
 -1      7720-2.49626E-01 1.32774E-06 3.82954E-01-2.97646E-06-5.14873E-08-1.10424E-02
 -1      7721-2.49854E-01 2.71041E-07 3.83171E-01 3.37228E-06-5.84477E-08 1.10501E-02
 -1      7722-2.49854E-01 2.71041E-07 3.83171E-01 3.37228E-06-5.43787E-17 2.09770E-15
 -1      7723-2.49854E-01 2.71041E-07 3.83171E-01 3.37228E-06 5.84477E-08-1.10501E-02
 -1      7724-9.29040E-02-9.74177E-08 2.26236E-01-1.43588E-07 2.52828E-09 5.57077E-03
 -1      7725-9.29040E-02-9.74177E-08 2.26236E-01-1.43588E-07 1.73634E-17-4.55318E-16
 -1      7726-9.29040E-02-9.74177E-08 2.26236E-01-1.43588E-07-2.52828E-09-5.57077E-03
 -1      7727-1.83398E-01 1.34397E-07 3.16730E-01-1.17599E-06 2.06021E-08 8.73013E-03
 -1      7728-1.83398E-01 1.34397E-07 3.16730E-01-1.17599E-06-2.79373E-17-5.96432E-16
 -1      7729-1.83398E-01 1.34397E-07 3.16730E-01-1.17599E-06-2.06021E-08-8.73013E-03
 -1      7730-1.66310E-01-1.12072E-06 2.99643E-01 2.05333E-06-3.57619E-08 8.13355E-03
 -1      7731-1.66310E-01-1.12072E-06 2.99643E-01 2.05333E-06-6.29292E-17-1.03742E-15
 -1      7732-1.66310E-01-1.12072E-06 2.99643E-01 2.05333E-06 3.57619E-08-8.13355E-03
 -1      7733-1.50452E-01-3.57801E-07 2.83784E-01-1.49320E-06 2.61520E-08 7.57989E-03
 -1      7734-1.50452E-01-3.57801E-07 2.83784E-01-1.49320E-06-4.15689E-17-2.11698E-16
 -1      7735-1.50452E-01-3.57801E-07 2.83784E-01-1.49320E-06-2.61520E-08-7.57989E-03
 -1      7736-1.36119E-01 1.39687E-07 2.69454E-01-7.73378E-09 9.80098E-11 7.07957E-03
 -1      7737-1.36119E-01 1.39687E-07 2.69454E-01-7.73378E-09-2.60037E-17 3.73792E-16
 -1      7738-1.36119E-01 1.39687E-07 2.69454E-01-7.73378E-09-9.80099E-11-7.07957E-03
 -1      7739-1.21782E-01 3.24403E-07 2.55121E-01 5.36031E-08-8.84835E-10 6.57913E-03
 -1      7740-1.21782E-01 3.24403E-07 2.55121E-01 5.36031E-08-2.10951E-17 2.40290E-16
 -1      7741-1.21782E-01 3.24403E-07 2.55121E-01 5.36031E-08 8.84835E-10-6.57913E-03
 -1      7742-1.09366E-01 5.23933E-07 2.42700E-01 1.40553E-06-2.44661E-08 6.14553E-03
 -1      7743-1.09366E-01 5.23933E-07 2.42700E-01 1.40553E-06 2.39099E-17-3.07425E-16
 -1      7744-1.09366E-01 5.23933E-07 2.42700E-01 1.40553E-06 2.44661E-08-6.14553E-03
 -1      7745-9.87012E-02-2.96420E-07 2.32034E-01-1.00430E-06 1.76074E-08 5.77317E-03
 -1      7746-9.87012E-02-2.96420E-07 2.32034E-01-1.00430E-06-3.24742E-17 1.04938E-16
 -1      7747-9.87012E-02-2.96420E-07 2.32034E-01-1.00430E-06-1.76074E-08-5.77317E-03
 -1      7748-8.92373E-02-1.74439E-07 2.22569E-01-3.67046E-08 6.33468E-10 5.44275E-03
 -1      7749-8.92373E-02-1.74439E-07 2.22569E-01-3.67046E-08 6.83206E-17 3.36671E-16
 -1      7750-8.92373E-02-1.74439E-07 2.22569E-01-3.67046E-08-6.33468E-10-5.44275E-03
 -1      7751-8.02342E-02-1.15963E-07 2.13566E-01-4.26951E-08 7.25523E-10 5.12844E-03
 -1      7752-8.02342E-02-1.15963E-07 2.13566E-01-4.26951E-08-4.40389E-17 3.98055E-16
 -1      7753-8.02342E-02-1.15963E-07 2.13566E-01-4.26951E-08-7.25523E-10-5.12844E-03
 -1      7754-7.16650E-02-1.68567E-07 2.04997E-01-1.34953E-07 2.32310E-09 4.82928E-03
 -1      7755-7.16650E-02-1.68567E-07 2.04997E-01-1.34953E-07 2.13324E-17-2.86690E-16
 -1      7756-7.16650E-02-1.68567E-07 2.04997E-01-1.34953E-07-2.32310E-09-4.82928E-03
 -1      7757-6.35633E-02 8.87096E-08 1.96896E-01 2.23954E-08-4.21407E-10 4.54646E-03
 -1      7758-6.35633E-02 8.87096E-08 1.96896E-01 2.23954E-08-2.97598E-17 4.79316E-16
 -1      7759-6.35633E-02 8.87096E-08 1.96896E-01 2.23954E-08 4.21407E-10-4.54646E-03
 -1      7760-5.58247E-02 3.10922E-07 1.89159E-01 3.10279E-07-5.41683E-09 4.27633E-03
 -1      7761-5.58247E-02 3.10922E-07 1.89159E-01 3.10279E-07 3.56826E-17 7.40643E-18
 -1      7762-5.58247E-02 3.10922E-07 1.89159E-01 3.10279E-07 5.41683E-09-4.27633E-03
 -1      7763-1.27639E-01-1.40684E-07 2.60970E-01-6.63388E-08 1.17022E-09 6.78345E-03
 -1      7764-1.27639E-01-1.40684E-07 2.60970E-01-6.63388E-08 1.02320E-17 4.74722E-16
 -1      7765-1.27639E-01-1.40684E-07 2.60970E-01-6.63388E-08-1.17022E-09-6.78345E-03
 -1      7766-2.29385E-01-8.37091E-06 3.62691E-01 1.19482E-05-2.08337E-07 1.03352E-02
 -1      7767-2.29385E-01-8.37091E-06 3.62691E-01 1.19482E-05-5.86446E-18-1.14890E-15
 -1      7768-2.29385E-01-8.37091E-06 3.62691E-01 1.19482E-05 2.08337E-07-1.03352E-02
 -1      7769-5.74193E-02 2.92070E-09 1.90751E-01 2.67449E-07-4.66640E-09 4.33192E-03
 -1      7770-5.74193E-02 2.92070E-09 1.90751E-01 2.67449E-07 1.46958E-17-8.92532E-16
 -1      7771-5.74193E-02 2.92070E-09 1.90751E-01 2.67449E-07 4.66640E-09-4.33192E-03
 -1      7772-6.76370E-02-1.50312E-07 2.00969E-01-4.68491E-07 8.13721E-09 4.68864E-03
 -1      7773-6.76370E-02-1.50312E-07 2.00969E-01-4.68491E-07 1.58707E-17 5.52551E-17
 -1      7774-6.76370E-02-1.50312E-07 2.00969E-01-4.68491E-07-8.13721E-09-4.68864E-03
 -1      7775-1.34809E-01 2.49156E-07 2.68142E-01-6.15147E-07 1.07174E-08 7.03381E-03
 -1      7776-1.34809E-01 2.49156E-07 2.68142E-01-6.15147E-07-6.22669E-17 6.07273E-16
 -1      7777-1.34809E-01 2.49156E-07 2.68142E-01-6.15147E-07-1.07174E-08-7.03381E-03
 -1      7778-1.74925E-01-8.78694E-07 3.08251E-01 1.32881E-06-2.27966E-08 8.43423E-03
 -1      7779-1.74925E-01-8.78694E-07 3.08251E-01 1.32881E-06 3.78770E-17 7.38030E-16
 -1      7780-1.74925E-01-8.78694E-07 3.08251E-01 1.32881E-06 2.27966E-08-8.43423E-03
 -1      7781-4.34563E-02-1.38579E-08 1.76790E-01-1.74888E-07 3.12724E-09 3.84451E-03
 -1      7782-4.34563E-02-1.38579E-08 1.76790E-01-1.74888E-07 3.08423E-17-7.92194E-17
 -1      7783-4.34563E-02-1.38579E-08 1.76790E-01-1.74888E-07-3.12724E-09-3.84451E-03
 -1      7784-4.82448E-02-3.15744E-07 1.81575E-01-6.93375E-07 1.22222E-08 4.01160E-03
 -1      7785-4.82448E-02-3.15744E-07 1.81575E-01-6.93375E-07-2.06695E-17 3.21163E-16
 -1      7786-4.82448E-02-3.15744E-07 1.81575E-01-6.93375E-07-1.22222E-08-4.01160E-03
 -1      7787-2.46640E-01 2.12712E-06 3.79977E-01-1.89455E-06 3.27985E-08 1.09385E-02
 -1      7788-2.46640E-01 2.12712E-06 3.79977E-01-1.89455E-06 4.08552E-17-2.72411E-16
 -1      7789-2.46640E-01 2.12712E-06 3.79977E-01-1.89455E-06-3.27985E-08-1.09385E-02
 -1      7790-4.57090E-02-3.31110E-07 1.79039E-01-1.22067E-06 2.14249E-08 3.92309E-03
 -1      7791-4.57090E-02-3.31110E-07 1.79039E-01-1.22067E-06-1.38322E-17 2.28477E-18
 -1      7792-4.57090E-02-3.31110E-07 1.79039E-01-1.22067E-06-2.14249E-08-3.92309E-03
 -1      7793-7.84419E-02 2.62698E-08 2.11773E-01 8.47601E-08-1.43574E-09 5.06586E-03
 -1      7794-7.84419E-02 2.62698E-08 2.11773E-01 8.47601E-08-1.99035E-17-8.25356E-16
 -1      7795-7.84419E-02 2.62698E-08 2.11773E-01 8.47601E-08 1.43574E-09-5.06586E-03
 -1      7796-9.75536E-02-4.84986E-07 2.30885E-01-9.22362E-07 1.61592E-08 5.73310E-03
 -1      7797-9.75536E-02-4.84986E-07 2.30885E-01-9.22362E-07-5.33285E-17-3.48190E-16
 -1      7798-9.75536E-02-4.84986E-07 2.30885E-01-9.22362E-07-1.61592E-08-5.73310E-03
 -1      7799-1.08639E-01-5.96659E-07 2.41971E-01 1.19034E-06-2.07478E-08 6.12012E-03
 -1      7800-1.08639E-01-5.96659E-07 2.41971E-01 1.19034E-06 7.24523E-17-2.32092E-16
 -1      7801-1.08639E-01-5.96659E-07 2.41971E-01 1.19034E-06 2.07478E-08-6.12012E-03
 -1      7802-4.46349E-02 1.05119E-07 1.77965E-01 1.20602E-07-2.20798E-09 3.88558E-03
 -1      7803-4.46349E-02 1.05119E-07 1.77965E-01 1.20602E-07 2.14659E-17 8.30087E-17
 -1      7804-4.46349E-02 1.05119E-07 1.77965E-01 1.20602E-07 2.20798E-09-3.88558E-03
 -1      7805-2.08495E-01-4.29033E-06 3.41812E-01-7.28416E-06 1.27585E-07 9.60609E-03
 -1      7806-2.08495E-01-4.29033E-06 3.41812E-01-7.28416E-06 1.53009E-17 6.49641E-16
 -1      7807-2.08495E-01-4.29033E-06 3.41812E-01-7.28416E-06-1.27585E-07-9.60609E-03
 -1      7808-2.48577E-01 2.93605E-06 3.81906E-01 5.25403E-06-9.11122E-08 1.10059E-02
 -1      7809-2.48577E-01 2.93605E-06 3.81906E-01 5.25403E-06-4.82830E-17 1.38864E-15
 -1      7810-2.48577E-01 2.93605E-06 3.81906E-01 5.25403E-06 9.11122E-08-1.10059E-02
 -1      7811-2.01211E-01-1.84005E-06 3.34543E-01-2.19578E-06 3.81644E-08 9.35202E-03
 -1      7812-2.01211E-01-1.84005E-06 3.34543E-01-2.19578E-06-7.65958E-18-5.73894E-16
 -1      7813-2.01211E-01-1.84005E-06 3.34543E-01-2.19578E-06-3.81644E-08-9.35202E-03
 -1      7814-1.81862E-01-1.57956E-06 3.15194E-01 2.94173E-06-5.14826E-08 8.67650E-03
 -1      7815-1.81862E-01-1.57956E-06 3.15194E-01 2.94173E-06-7.43924E-18-4.94473E-16
 -1      7816-1.81862E-01-1.57956E-06 3.15194E-01 2.94173E-06 5.14826E-08-8.67650E-03
 -1      7817-1.50761E-01-2.16336E-06 2.84095E-01-2.93068E-06 5.12863E-08 7.59082E-03
 -1      7818-1.50761E-01-2.16336E-06 2.84095E-01-2.93068E-06 2.04560E-17 1.64338E-16
 -1      7819-1.50761E-01-2.16336E-06 2.84095E-01-2.93068E-06-5.12863E-08-7.59082E-03
 -1      7820-7.04625E-02 8.28310E-08 2.03793E-01 3.81114E-07-6.50255E-09 4.78727E-03
 -1      7821-7.04625E-02 8.28310E-08 2.03793E-01 3.81114E-07 3.06751E-17 1.52270E-16
 -1      7822-7.04625E-02 8.28310E-08 2.03793E-01 3.81114E-07 6.50255E-09-4.78727E-03
 -1      7823-1.70008E-01-3.25923E-06 3.03329E-01-2.58905E-07 5.30577E-09 8.26270E-03
 -1      7824-1.70008E-01-3.25923E-06 3.03329E-01-2.58905E-07 3.18479E-17 7.39355E-16
 -1      7825-1.70008E-01-3.25923E-06 3.03329E-01-2.58905E-07-5.30577E-09-8.26270E-03
 -1      7826-1.20991E-01 9.20624E-09 2.54323E-01 2.56940E-07-4.51364E-09 6.55137E-03
 -1      7827-1.20991E-01 9.20625E-09 2.54323E-01 2.56940E-07 2.98512E-17-7.05016E-16
 -1      7828-1.20991E-01 9.20625E-09 2.54323E-01 2.56940E-07 4.51364E-09-6.55137E-03
 -1      7829-2.30751E-01-6.30708E-07 3.64060E-01-3.32796E-06 5.79794E-08 1.03829E-02
 -1      7830-2.30751E-01-6.30708E-07 3.64060E-01-3.32796E-06 1.08394E-16-5.83205E-16
 -1      7831-2.30751E-01-6.30708E-07 3.64060E-01-3.32796E-06-5.79794E-08-1.03829E-02
 -1      7832-6.06560E-02-1.81182E-07 1.93988E-01 6.05573E-07-1.05983E-08 4.44492E-03
 -1      7833-6.06560E-02-1.81182E-07 1.93988E-01 6.05573E-07 1.61064E-18 4.35332E-17
 -1      7834-6.06560E-02-1.81182E-07 1.93988E-01 6.05573E-07 1.05983E-08-4.44492E-03
 -1      7835-5.03733E-02 2.25616E-07 1.83709E-01-1.35210E-07 2.34905E-09 4.08604E-03
 -1      7836-5.03733E-02 2.25616E-07 1.83709E-01-1.35210E-07-9.63092E-18-3.86927E-16
 -1      7837-5.03733E-02 2.25616E-07 1.83709E-01-1.35210E-07-2.34905E-09-4.08604E-03
 -1      7838-2.18482E-01-2.16090E-06 3.51843E-01 7.04487E-06-1.22216E-07 9.95601E-03
 -1      7839-2.18482E-01-2.16090E-06 3.51843E-01 7.04487E-06 2.74929E-17-1.25375E-16
 -1      7840-2.18482E-01-2.16090E-06 3.51843E-01 7.04487E-06 1.22216E-07-9.95601E-03
 -1      7841-8.74938E-02 2.79790E-08 2.20826E-01-7.68029E-08 1.36212E-09 5.38190E-03
 -1      7842-8.74938E-02 2.79790E-08 2.20826E-01-7.68029E-08 2.37592E-17 6.94454E-16
 -1      7843-8.74938E-02 2.79790E-08 2.20826E-01-7.68029E-08-1.36212E-09-5.38190E-03
 -1      7844-1.91519E-01 1.13066E-05 3.24831E-01-2.58426E-06 4.48869E-08 9.01326E-03
 -1      7845-1.91519E-01 1.13066E-05 3.24831E-01-2.58426E-06 2.76773E-17 1.82280E-15
 -1      7846-1.91519E-01 1.13066E-05 3.24831E-01-2.58426E-06-4.48869E-08-9.01326E-03
 -1      7847-1.74305E-01-1.17973E-05 3.07608E-01 3.59381E-06-6.37755E-08 8.41224E-03
 -1      7848-1.74305E-01-1.17973E-05 3.07608E-01 3.59381E-06 3.79604E-17 4.36988E-16
 -1      7849-1.74305E-01-1.17973E-05 3.07608E-01 3.59381E-06 6.37755E-08-8.41224E-03
 -1      7850-1.59033E-01 3.86962E-06 2.92351E-01 2.96057E-06-5.18337E-08 7.87917E-03
 -1      7851-1.59033E-01 3.86962E-06 2.92351E-01 2.96057E-06-1.13208E-16 2.02400E-17
 -1      7852-1.59033E-01 3.86962E-06 2.92351E-01 2.96057E-06 5.18337E-08-7.87917E-03
 -1      7853-1.45678E-01-7.18223E-07 2.79007E-01 1.62007E-06-2.86291E-08 7.41319E-03
 -1      7854-1.45678E-01-7.18223E-07 2.79007E-01 1.62007E-06-8.68411E-17 1.03161E-16
 -1      7855-1.45678E-01-7.18223E-07 2.79007E-01 1.62007E-06 2.86291E-08-7.41319E-03
 -1      7856-1.32285E-01-2.11844E-07 2.65614E-01 8.74042E-07-1.51387E-08 6.94558E-03
 -1      7857-1.32285E-01-2.11844E-07 2.65614E-01 8.74042E-07-2.22741E-17-1.57159E-15
 -1      7858-1.32285E-01-2.11844E-07 2.65614E-01 8.74042E-07 1.51387E-08-6.94558E-03
 -1      7859-1.11870E-01 8.99855E-08 2.45200E-01-1.32136E-06 2.30720E-08 6.23286E-03
 -1      7860-1.11870E-01 8.99855E-08 2.45200E-01-1.32136E-06-8.19006E-17 1.21037E-15
 -1      7861-1.11870E-01 8.99855E-08 2.45200E-01-1.32136E-06-2.30720E-08-6.23286E-03
 -1      7862-1.03146E-01 9.22589E-08 2.36471E-01-7.45544E-07 1.29957E-08 5.92815E-03
 -1      7863-1.03146E-01 9.22589E-08 2.36471E-01-7.45544E-07-6.40348E-17-1.15597E-16
 -1      7864-1.03146E-01 9.22589E-08 2.36471E-01-7.45544E-07-1.29957E-08-5.92815E-03
 -1      7865-9.44697E-02-1.87587E-07 2.27800E-01 4.90689E-07-8.72729E-09 5.62539E-03
 -1      7866-9.44697E-02-1.87587E-07 2.27800E-01 4.90689E-07-5.16863E-18-1.10011E-16
 -1      7867-9.44697E-02-1.87587E-07 2.27800E-01 4.90689E-07 8.72729E-09-5.62539E-03
 -1      7868-8.52619E-02 8.99615E-09 2.18593E-01 1.04192E-07-1.86196E-09 5.30396E-03
 -1      7869-8.52619E-02 8.99615E-09 2.18593E-01 1.04192E-07-2.31966E-17-4.61827E-16
 -1      7870-8.52619E-02 8.99615E-09 2.18593E-01 1.04192E-07 1.86196E-09-5.30396E-03
 -1      7871-7.63448E-02 4.02800E-08 2.09677E-01-6.22210E-08 1.05949E-09 4.99267E-03
 -1      7872-7.63448E-02 4.02800E-08 2.09677E-01-6.22210E-08 2.09046E-17 2.35756E-16
 -1      7873-7.63448E-02 4.02800E-08 2.09677E-01-6.22210E-08-1.05949E-09-4.99267E-03
 -1      7874-6.77134E-02-5.15528E-07 2.01045E-01-5.86812E-07 1.01885E-08 4.69134E-03
 -1      7875-6.77134E-02-5.15528E-07 2.01045E-01-5.86812E-07-3.27160E-17-2.55197E-16
 -1      7876-6.77134E-02-5.15528E-07 2.01045E-01-5.86812E-07-1.01885E-08-4.69134E-03
 -1      7877-5.96672E-02-5.21263E-07 1.92998E-01 6.79634E-07-1.18979E-08 4.41042E-03
 -1      7878-5.96672E-02-5.21263E-07 1.92998E-01 6.79634E-07 1.92237E-17-8.89331E-18
 -1      7879-5.96672E-02-5.21263E-07 1.92998E-01 6.79634E-07 1.18979E-08-4.41042E-03
 -1      7880-2.09849E-01-1.56421E-05 3.43160E-01-1.94319E-06 3.31677E-08 9.65330E-03
 -1      7881-2.09849E-01-1.56421E-05 3.43160E-01-1.94319E-06-9.76588E-17-8.81707E-16
 -1      7882-2.09849E-01-1.56421E-05 3.43160E-01-1.94319E-06-3.31677E-08-9.65330E-03
 -1      7883-6.39976E-02 6.23001E-07 1.97326E-01 1.05617E-08-1.08748E-10 4.56150E-03
 -1      7884-6.39976E-02 6.23001E-07 1.97326E-01 1.05617E-08-4.55591E-17 1.60334E-16
 -1      7885-6.39976E-02 6.23001E-07 1.97326E-01 1.05617E-08 1.08748E-10-4.56150E-03
 -1      7886-2.22864E-01 6.47551E-06 3.56223E-01-1.11745E-05 1.94274E-07 1.01088E-02
 -1      7887-2.22864E-01 6.47551E-06 3.56223E-01-1.11745E-05 1.98240E-17 4.65588E-16
 -1      7888-2.22864E-01 6.47551E-06 3.56223E-01-1.11745E-05-1.94274E-07-1.01088E-02
 -1      7889-5.23058E-02-8.20672E-07 1.85638E-01 9.99056E-07-1.73086E-08 4.15343E-03
 -1      7890-5.23058E-02-8.20672E-07 1.85638E-01 9.99056E-07 2.51937E-17 1.63673E-16
 -1      7891-5.23058E-02-8.20672E-07 1.85638E-01 9.99056E-07 1.73086E-08-4.15343E-03
 -1      7892-9.14182E-02 4.29742E-07 2.24752E-01-1.58304E-07 2.76314E-09 5.51895E-03
 -1      7893-9.14182E-02 4.29742E-07 2.24752E-01-1.58304E-07 6.69756E-17 9.22413E-17
 -1      7894-9.14182E-02 4.29742E-07 2.24752E-01-1.58304E-07-2.76314E-09-5.51895E-03
 -1      7895-1.02717E-01 4.74139E-07 2.36054E-01 5.20087E-08-9.86622E-10 5.91350E-03
 -1      7896-1.02717E-01 4.74139E-07 2.36054E-01 5.20087E-08 5.08620E-17-2.43903E-16
 -1      7897-1.02717E-01 4.74139E-07 2.36054E-01 5.20087E-08 9.86622E-10-5.91350E-03
 -1      7898-5.41975E-02-5.47716E-07 1.87529E-01 4.44347E-07-7.68416E-09 4.21944E-03
 -1      7899-5.41975E-02-5.47716E-07 1.87529E-01 4.44347E-07 3.26069E-17 3.69079E-16
 -1      7900-5.41975E-02-5.47716E-07 1.87529E-01 4.44347E-07 7.68416E-09-4.21944E-03
 -1      7901-4.97137E-02 2.06172E-07 1.83042E-01 3.78276E-07-6.61453E-09 4.06284E-03
 -1      7902-4.97137E-02 2.06172E-07 1.83042E-01 3.78276E-07 2.59770E-17-5.41001E-16
 -1      7903-4.97137E-02 2.06172E-07 1.83042E-01 3.78276E-07 6.61453E-09-4.06284E-03
 -1      7904-7.28497E-02 3.07796E-07 2.06183E-01-1.50608E-07 2.63817E-09 4.87069E-03
 -1      7905-7.28497E-02 3.07796E-07 2.06183E-01-1.50608E-07-5.04656E-17-1.59622E-16
 -1      7906-7.28497E-02 3.07796E-07 2.06183E-01-1.50608E-07-2.63817E-09-4.87069E-03
 -1      7907-1.91407E-01 1.28082E-05 3.24733E-01-1.95037E-06 3.49263E-08 9.00985E-03
 -1      7908-1.91407E-01 1.28082E-05 3.24733E-01-1.95037E-06 2.01351E-17-4.03268E-16
 -1      7909-1.91407E-01 1.28082E-05 3.24733E-01-1.95037E-06-3.49263E-08-9.00985E-03
 -1      7910-1.91011E-01 6.96390E-07 3.24325E-01 9.65823E-07-1.67281E-08 8.99552E-03
 -1      7911-1.91011E-01 6.96390E-07 3.24325E-01 9.65823E-07-2.78102E-17 1.03234E-16
 -1      7912-1.91011E-01 6.96390E-07 3.24325E-01 9.65823E-07 1.67281E-08-8.99552E-03
 -1      7913-8.18154E-02 7.53020E-08 2.15148E-01 2.94206E-07-5.13514E-09 5.18367E-03
 -1      7914-8.18154E-02 7.53020E-08 2.15148E-01 2.94206E-07-2.64004E-17 3.54276E-16
 -1      7915-8.18154E-02 7.53020E-08 2.15148E-01 2.94206E-07 5.13514E-09-5.18367E-03
 -1      7916-1.41633E-01 1.53793E-06 2.74970E-01-1.16840E-06 2.04144E-08 7.27217E-03
 -1      7917-1.41633E-01 1.53793E-06 2.74970E-01-1.16840E-06 6.73299E-18-2.08883E-16
 -1      7918-1.41633E-01 1.53793E-06 2.74970E-01-1.16840E-06-2.04144E-08-7.27217E-03
 -1      7919-1.27531E-01-1.33631E-07 2.60864E-01-9.34724E-07 1.61880E-08 6.77970E-03
 -1      7920-1.27531E-01-1.33631E-07 2.60864E-01-9.34724E-07 1.00209E-17-5.28658E-16
 -1      7921-1.27531E-01-1.33631E-07 2.60864E-01-9.34724E-07-1.61880E-08-6.77970E-03
 -1      7922-5.57116E-02-3.11170E-08 1.89044E-01-1.15153E-07 1.94026E-09 4.27234E-03
 -1      7923-5.57116E-02-3.11170E-08 1.89044E-01-1.15153E-07-1.92405E-18 7.53207E-16
 -1      7924-5.57116E-02-3.11170E-08 1.89044E-01-1.15153E-07-1.94026E-09-4.27234E-03
 -1      7925-1.60408E-01 3.88052E-06 2.93774E-01 2.37906E-06-4.18874E-08 7.92840E-03
 -1      7926-1.60408E-01 3.88052E-06 2.93774E-01 2.37906E-06 9.73854E-17-7.06210E-16
 -1      7927-1.60408E-01 3.88052E-06 2.93774E-01 2.37906E-06 4.18874E-08-7.92840E-03
 -1      7928-1.90656E-01 2.20002E-06 3.24032E-01 3.37686E-06-5.94532E-08 8.98494E-03
 -1      7929-1.90656E-01 2.20002E-06 3.24032E-01 3.37686E-06-2.29936E-17 3.59015E-16
 -1      7930-1.90656E-01 2.20002E-06 3.24032E-01 3.37686E-06 5.94532E-08-8.98494E-03
 -1      7931-5.77663E-02 2.42871E-07 1.91098E-01-1.37525E-07 2.55363E-09 4.34406E-03
 -1      7932-5.77663E-02 2.42871E-07 1.91098E-01-1.37525E-07 1.28005E-17-3.87698E-16
 -1      7933-5.77663E-02 2.42871E-07 1.91098E-01-1.37525E-07-2.55363E-09-4.34406E-03
 -1      7934-6.38831E-02 3.34606E-07 1.97218E-01-6.42539E-08 1.18514E-09 4.55770E-03
 -1      7935-6.38831E-02 3.34606E-07 1.97218E-01-6.42539E-08-2.31704E-17 5.23636E-16
 -1      7936-6.38831E-02 3.34606E-07 1.97218E-01-6.42539E-08-1.18514E-09-4.55770E-03
 -1      7937-1.21426E-01-1.96410E-07 2.54749E-01-5.95566E-07 1.03977E-08 6.56631E-03
 -1      7938-1.21426E-01-1.96410E-07 2.54749E-01-5.95566E-07 1.33701E-16-2.19838E-16
 -1      7939-1.21426E-01-1.96410E-07 2.54749E-01-5.95566E-07-1.03977E-08-6.56631E-03
 -1      7940-1.14833E-01 3.17481E-07 2.48168E-01 1.75775E-06-3.07934E-08 6.33642E-03
 -1      7941-1.14833E-01 3.17481E-07 2.48168E-01 1.75775E-06 4.48711E-17-4.50776E-16
 -1      7942-1.14833E-01 3.17481E-07 2.48168E-01 1.75775E-06 3.07934E-08-6.33642E-03
 -1      7943-9.97340E-01-3.24111E-05 1.13103E+00 2.05441E-04-3.58559E-06 3.71568E-02
 -1      7945-9.97340E-01-3.24111E-05 1.13103E+00 2.05441E-04 3.58559E-06-3.71568E-02
 -1      7946-9.19553E-01-5.07133E-06 1.05277E+00 1.73739E-04-3.02852E-06 3.44367E-02
 -1      7948-9.19553E-01-5.07133E-06 1.05277E+00 1.73739E-04 3.02852E-06-3.44367E-02
 -1      7949-9.19856E-01-2.04752E-04 1.05246E+00-4.41993E-04 7.71548E-06 3.44371E-02
 -1      7951-9.19856E-01-2.04752E-04 1.05246E+00-4.41993E-04-7.71548E-06-3.44371E-02
 -1      7952-9.97106E-01 4.32346E-04 1.13207E+00-7.06881E-05 1.23375E-06 3.71689E-02
 -1      7954-9.97106E-01 4.32346E-04 1.13207E+00-7.06881E-05-1.23375E-06-3.71689E-02
 -1      7955-9.33439E-01-2.24710E-04 1.06587E+00 2.10004E-04-3.66680E-06 3.49052E-02
 -1      7957-9.33439E-01-2.24710E-04 1.06587E+00 2.10004E-04 3.66680E-06-3.49052E-02
 -1      7958-9.33057E-01-2.21198E-04 1.06581E+00-1.76285E-04 3.08080E-06 3.48978E-02
 -1      7960-9.33057E-01-2.21198E-04 1.06581E+00-1.76285E-04-3.08080E-06-3.48978E-02
 -1      7961-9.96942E-01 4.22245E-04 1.13183E+00 7.03094E-06-1.22709E-07 3.71626E-02
 -1      7963-9.96942E-01 4.22245E-04 1.13183E+00 7.03094E-06 1.22709E-07-3.71626E-02
 -1      7964-9.28591E-01-2.03687E-04 1.06113E+00 1.67336E-04-2.92086E-06 3.47387E-02
 -1      7966-9.28591E-01-2.03687E-04 1.06113E+00 1.67336E-04 2.92086E-06-3.47387E-02
 -1      7967-9.28525E-01-2.12511E-04 1.06116E+00-1.64543E-04 2.87171E-06 3.47381E-02
 -1      7969-9.28525E-01-2.12511E-04 1.06116E+00-1.64543E-04-2.87171E-06-3.47381E-02
 -1      7970-9.96957E-01 4.29512E-04 1.13184E+00-7.10152E-06 1.23945E-07 3.71629E-02
 -1      7972-9.96957E-01 4.29512E-04 1.13184E+00-7.10152E-06-1.23945E-07-3.71629E-02
 -1      7973-9.28695E-01-2.07409E-04 1.06126E+00 1.72296E-04-3.00726E-06 3.47428E-02
 -1      7975-9.28695E-01-2.07409E-04 1.06126E+00 1.72296E-04 3.00726E-06-3.47428E-02
 -1      7976-9.28665E-01-2.11328E-04 1.06126E+00-1.68888E-04 2.94799E-06 3.47423E-02
 -1      7978-9.28665E-01-2.11328E-04 1.06126E+00-1.68888E-04-2.94799E-06-3.47423E-02
 -1      7979-9.97050E-01 4.16678E-04 1.13187E+00-9.59038E-06 1.67383E-07 3.71650E-02
 -1      7981-9.97050E-01 4.16678E-04 1.13187E+00-9.59038E-06-1.67383E-07-3.71650E-02
 -1      7982-9.29726E-01-2.03053E-04 1.06233E+00 1.69904E-04-2.96548E-06 3.47792E-02
 -1      7984-9.29726E-01-2.03053E-04 1.06233E+00 1.69904E-04 2.96548E-06-3.47792E-02
 -1      7985-9.29716E-01-2.05764E-04 1.06232E+00-1.66654E-04 2.90914E-06 3.47788E-02
 -1      7987-9.29716E-01-2.05764E-04 1.06232E+00-1.66654E-04-2.90914E-06-3.47788E-02
 -1      7988-9.97124E-01 4.05213E-04 1.13190E+00-4.40546E-06 7.68891E-08 3.71667E-02
 -1      7990-9.97124E-01 4.05213E-04 1.13190E+00-4.40546E-06-7.68891E-08-3.71667E-02
 -1      7991-9.30596E-01-1.98745E-04 1.06322E+00 1.65915E-04-2.89596E-06 3.48098E-02
 -1      7993-9.30596E-01-1.98745E-04 1.06322E+00 1.65915E-04 2.89596E-06-3.48098E-02
 -1      7994-9.30595E-01-1.99606E-04 1.06321E+00-1.64517E-04 2.87175E-06 3.48096E-02
 -1      7996-9.30595E-01-1.99606E-04 1.06321E+00-1.64517E-04-2.87175E-06-3.48096E-02
 -1      7997-9.97147E-01 4.00460E-04 1.13191E+00-4.22627E-07 7.37612E-09 3.71672E-02
 -1      7999-9.97147E-01 4.00460E-04 1.13191E+00-4.22627E-07-7.37612E-09-3.71672E-02
 -1      8000-9.30849E-01-1.97241E-04 1.06348E+00 1.64046E-04-2.86341E-06 3.48186E-02
 -1      8002-9.30849E-01-1.97241E-04 1.06348E+00 1.64046E-04 2.86341E-06-3.48186E-02
 -1      8003-9.30851E-01-1.96938E-04 1.06348E+00-1.64143E-04 2.86513E-06 3.48186E-02
 -1      8005-9.30851E-01-1.96938E-04 1.06348E+00-1.64143E-04-2.86513E-06-3.48186E-02
 -1      8006-9.97145E-01 3.99878E-04 1.13191E+00 3.24298E-07-5.66003E-09 3.71671E-02
 -1      8008-9.97145E-01 3.99878E-04 1.13191E+00 3.24298E-07 5.66003E-09-3.71671E-02
 -1      8009-9.30824E-01-1.97253E-04 1.06345E+00 1.63848E-04-2.85997E-06 3.48177E-02
 -1      8011-9.30824E-01-1.97253E-04 1.06345E+00 1.63848E-04 2.85997E-06-3.48177E-02
 -1      8012-9.30824E-01-1.96967E-04 1.06345E+00-1.64090E-04 2.86418E-06 3.48177E-02
 -1      8014-9.30824E-01-1.96967E-04 1.06345E+00-1.64090E-04-2.86418E-06-3.48177E-02
 -1      8015-9.97145E-01 3.99209E-04 1.13190E+00-7.36150E-07 1.28482E-08 3.71671E-02
 -1      8017-9.97145E-01 3.99209E-04 1.13190E+00-7.36150E-07-1.28482E-08-3.71671E-02
 -1      8018-9.30810E-01-1.97113E-04 1.06344E+00 1.64022E-04-2.86296E-06 3.48172E-02
 -1      8020-9.30810E-01-1.97113E-04 1.06344E+00 1.64022E-04 2.86296E-06-3.48172E-02
 -1      8021-9.30808E-01-1.97209E-04 1.06344E+00-1.63709E-04 2.85754E-06 3.48172E-02
 -1      8023-9.30808E-01-1.97209E-04 1.06344E+00-1.63709E-04-2.85754E-06-3.48172E-02
 -1      8024-9.97159E-01 3.98385E-04 1.13191E+00-1.16847E-06 2.03938E-08 3.71674E-02
 -1      8026-9.97159E-01 3.98385E-04 1.13191E+00-1.16847E-06-2.03938E-08-3.71674E-02
 -1      8027-9.30976E-01-1.96439E-04 1.06360E+00 1.64221E-04-2.86646E-06 3.48229E-02
 -1      8029-9.30976E-01-1.96439E-04 1.06360E+00 1.64221E-04 2.86646E-06-3.48229E-02
 -1      8030-9.30968E-01-1.97469E-04 1.06360E+00-1.63495E-04 2.85382E-06 3.48228E-02
 -1      8032-9.30968E-01-1.97469E-04 1.06360E+00-1.63495E-04-2.85382E-06-3.48228E-02
 -1      8033-9.97134E-01 4.02909E-04 1.13190E+00 6.34999E-06-1.10827E-07 3.71668E-02
 -1      8035-9.97134E-01 4.02909E-04 1.13190E+00 6.34999E-06 1.10827E-07-3.71668E-02
 -1      8036-9.30643E-01-2.01416E-04 1.06324E+00 1.64989E-04-2.88009E-06 3.48110E-02
 -1      8038-9.30643E-01-2.01416E-04 1.06324E+00 1.64989E-04 2.88009E-06-3.48110E-02
 -1      8039-9.30623E-01-2.00839E-04 1.06326E+00-1.66723E-04 2.91002E-06 3.48109E-02
 -1      8041-9.30623E-01-2.00839E-04 1.06326E+00-1.66723E-04-2.91002E-06-3.48109E-02
 -1      8042-9.97033E-01 4.18507E-04 1.13185E+00 1.07372E-05-1.87396E-07 3.71644E-02
 -1      8044-9.97033E-01 4.18507E-04 1.13185E+00 1.07372E-05 1.87396E-07-3.71644E-02
 -1      8045-9.29357E-01-2.09415E-04 1.06190E+00 1.68577E-04-2.94288E-06 3.47654E-02
 -1      8047-9.29357E-01-2.09415E-04 1.06190E+00 1.68577E-04 2.94288E-06-3.47654E-02
 -1      8048-9.29313E-01-2.10897E-04 1.06194E+00-1.71990E-04 3.00183E-06 3.47652E-02
 -1      8050-9.29313E-01-2.10897E-04 1.06194E+00-1.71990E-04-3.00183E-06-3.47652E-02
 -1      8051-9.96886E-01 4.95743E-04 1.13177E+00 2.66464E-05-4.65056E-07 3.71608E-02
 -1      8053-9.96886E-01 4.95743E-04 1.13177E+00 2.66464E-05 4.65056E-07-3.71608E-02
 -1      8054-9.27129E-01-2.02031E-04 1.05952E+00 1.58551E-04-2.76913E-06 3.46856E-02
 -1      8056-9.27129E-01-2.02031E-04 1.05952E+00 1.58551E-04 2.76913E-06-3.46856E-02
 -1      8057-9.26989E-01-2.43921E-04 1.05963E+00-1.66128E-04 2.89927E-06 3.46848E-02
 -1      8059-9.26989E-01-2.43921E-04 1.05963E+00-1.66128E-04-2.89927E-06-3.46848E-02
 -1      8060-9.96582E-01 3.91866E-04 1.13158E+00 1.01989E-05-1.78001E-07 3.71527E-02
 -1      8062-9.96582E-01 3.91866E-04 1.13158E+00 1.01989E-05 1.78001E-07-3.71527E-02
 -1      8063-9.22820E-01-1.83802E-04 1.05562E+00 1.00150E-05-1.76359E-07 3.45432E-02
 -1      8065-9.22820E-01-1.83802E-04 1.05562E+00 1.00150E-05 1.76359E-07-3.45432E-02
 -1      8066-9.23109E-01-2.12607E-04 1.05564E+00-1.58132E-04 2.75865E-06 3.45483E-02
 -1      8068-9.23109E-01-2.12607E-04 1.05564E+00-1.58132E-04-2.75865E-06-3.45483E-02
 -1      8069-8.52656E-01 4.28758E-04 9.87729E-01 7.14315E-05-1.24712E-06 3.21282E-02
 -1      8071-8.52656E-01 4.28758E-04 9.87729E-01 7.14315E-05 1.24712E-06-3.21282E-02
 -1      8072-9.19714E-01-1.89588E-04 1.05259E+00-2.71935E-04 4.74332E-06 3.44364E-02
 -1      8074-9.19714E-01-1.89588E-04 1.05259E+00-2.71935E-04-4.74332E-06-3.44364E-02
 -1      8075-8.46572E-01 2.92205E-04 9.80696E-01 7.14072E-05-1.24653E-06 3.18999E-02
 -1      8077-8.46572E-01 2.92205E-04 9.80696E-01 7.14072E-05 1.24653E-06-3.18999E-02
 -1      8078-7.84637E-01-1.00147E-04 9.17231E-01 2.62214E-04-4.57399E-06 2.97134E-02
 -1      8080-7.84637E-01-1.00147E-04 9.17231E-01 2.62214E-04 4.57399E-06-2.97134E-02
 -1      8081-7.87094E-01-1.42857E-04 9.20183E-01 4.64951E-05-8.13391E-07 2.98079E-02
 -1      8083-7.87094E-01-1.42857E-04 9.20183E-01 4.64951E-05 8.13391E-07-2.98079E-02
 -1      8084-6.77273E-01-9.27935E-05 8.10397E-01-1.24292E-04 2.15773E-06 2.59720E-02
 -1      8086-6.77273E-01-9.27935E-05 8.10397E-01-1.24292E-04-2.15773E-06-2.59720E-02
 -1      8087-6.46587E-01 3.90338E-05 7.79940E-01 1.68489E-04-2.94252E-06 2.49024E-02
 -1      8089-6.46587E-01 3.90338E-05 7.79940E-01 1.68489E-04 2.94252E-06-2.49024E-02
 -1      8090-6.94968E-01-1.14577E-04 8.28091E-01-9.36247E-05 1.63038E-06 2.65881E-02
 -1      8092-6.94968E-01-1.14577E-04 8.28091E-01-9.36247E-05-1.63038E-06-2.65881E-02
 -1      8093-5.12923E-01-7.92556E-07 6.46251E-01-8.09453E-06 1.33613E-07 2.02362E-02
 -1      8095-5.12923E-01-7.92556E-07 6.46251E-01-8.09453E-06-1.33613E-07-2.02362E-02
 -1      8096-4.96308E-01-4.04210E-06 6.29624E-01 9.85240E-05-1.72007E-06 1.96549E-02
 -1      8098-4.96308E-01-4.04210E-06 6.29624E-01 9.85240E-05 1.72007E-06-1.96549E-02
 -1      8099-5.29562E-01 3.55809E-06 6.62918E-01-1.12013E-04 1.95562E-06 2.08166E-02
 -1      8101-5.29562E-01 3.55809E-06 6.62918E-01-1.12013E-04-1.95562E-06-2.08166E-02
 -1      8102-3.98585E-01 3.78970E-07 5.31922E-01-3.52512E-06 5.58165E-08 1.62440E-02
 -1      8104-3.98585E-01 3.78970E-07 5.31922E-01-3.52512E-06-5.58165E-08-1.62440E-02
 -1      8105-3.86185E-01-1.30998E-06 5.19511E-01 6.53086E-05-1.14027E-06 1.58101E-02
 -1      8107-3.86185E-01-1.30998E-06 5.19511E-01 6.53086E-05 1.14027E-06-1.58101E-02
 -1      8108-4.11044E-01 2.06081E-06 5.44381E-01-7.36915E-05 1.28639E-06 1.66782E-02
 -1      8110-4.11044E-01 2.06081E-06 5.44381E-01-7.36915E-05-1.28639E-06-1.66782E-02
 -1      8111-3.15001E-01 2.92855E-07 4.48331E-01-2.81251E-06 4.51121E-08 1.33252E-02
 -1      8113-3.15001E-01 2.92855E-07 4.48331E-01-2.81251E-06-4.51121E-08-1.33252E-02
 -1      8114-3.05880E-01 2.07190E-07 4.39215E-01 4.34692E-05-7.58816E-07 1.30064E-02
 -1      8116-3.05880E-01 2.07190E-07 4.39215E-01 4.34692E-05 7.58816E-07-1.30064E-02
 -1      8117-3.23671E-01-3.20036E-07 4.57003E-01-4.71164E-05 8.22615E-07 1.36275E-02
 -1      8119-3.23671E-01-3.20036E-07 4.57003E-01-4.71164E-05-8.22615E-07-1.36275E-02
 -1      8120-2.51564E-01 2.66404E-07 3.84894E-01-2.14211E-06 3.43424E-08 1.11102E-02
 -1      8122-2.51564E-01 2.66404E-07 3.84894E-01-2.14211E-06-3.43424E-08-1.11102E-02
 -1      8123-2.44716E-01 1.24932E-07 3.78048E-01 2.98123E-05-5.20437E-07 1.08709E-02
 -1      8125-2.44716E-01 1.24932E-07 3.78048E-01 2.98123E-05 5.20437E-07-1.08709E-02
 -1      8126-2.58262E-01 7.45745E-08 3.91595E-01-3.31318E-05 5.78465E-07 1.13438E-02
 -1      8128-2.58262E-01 7.45745E-08 3.91595E-01-3.31318E-05-5.78465E-07-1.13438E-02
 -1      8129-2.03136E-01-4.02812E-07 3.36470E-01-1.32808E-06 2.06132E-08 9.41950E-03
 -1      8131-2.03136E-01-4.02812E-07 3.36470E-01-1.32808E-06-2.06132E-08-9.41950E-03
 -1      8132-1.97554E-01 1.43148E-07 3.30885E-01 2.25098E-05-3.93041E-07 9.22431E-03
 -1      8134-1.97554E-01 1.43148E-07 3.30885E-01 2.25098E-05 3.93041E-07-9.22431E-03
 -1      8135-2.08538E-01 6.02947E-08 3.41869E-01-2.42658E-05 4.23570E-07 9.60779E-03
 -1      8137-2.08538E-01 6.02947E-08 3.41869E-01-2.42658E-05-4.23570E-07-9.60779E-03
 -1      8138-1.64969E-01 1.27434E-07 2.98300E-01-8.15020E-07 1.23373E-08 8.08682E-03
 -1      8140-1.64969E-01 1.27434E-07 2.98300E-01-8.15020E-07-1.23373E-08-8.08682E-03
 -1      8141-1.60663E-01 5.66957E-08 2.93996E-01 1.60987E-05-2.81027E-07 7.93637E-03
 -1      8143-1.60663E-01 5.66957E-08 2.93996E-01 1.60987E-05 2.81027E-07-7.93637E-03
 -1      8144-1.69078E-01-1.92096E-08 3.02410E-01-1.70554E-05 2.97773E-07 8.23015E-03
 -1      8146-1.69078E-01-1.92096E-08 3.02410E-01-1.70554E-05-2.97773E-07-8.23015E-03
 -1      8147-1.34105E-01 8.54193E-08 2.67437E-01-5.96017E-07 8.87883E-09 7.00928E-03
 -1      8149-1.34105E-01 8.54193E-08 2.67437E-01-5.96017E-07-8.87883E-09-7.00928E-03
 -1      8150-1.30716E-01-9.67149E-08 2.64048E-01 1.18582E-05-2.07011E-07 6.89081E-03
 -1      8152-1.30716E-01-9.67149E-08 2.64048E-01 1.18582E-05 2.07011E-07-6.89081E-03
 -1      8153-1.37506E-01 9.50141E-08 2.70839E-01-1.30364E-05 2.27611E-07 7.12791E-03
 -1      8155-1.37506E-01 9.50141E-08 2.70839E-01-1.30364E-05-2.27611E-07-7.12791E-03
 -1      8156-1.09453E-01 5.86068E-08 2.42784E-01-4.42931E-07 6.47986E-09 6.14857E-03
 -1      8158-1.09453E-01 5.86068E-08 2.42784E-01-4.42931E-07-6.47986E-09-6.14857E-03
 -1      8159-1.06587E-01 7.25877E-08 2.39919E-01 9.35653E-06-1.63331E-07 6.04843E-03
 -1      8161-1.06587E-01 7.25877E-08 2.39919E-01 9.35653E-06 1.63331E-07-6.04843E-03
 -1      8162-1.12166E-01-7.06656E-08 2.45498E-01-9.73508E-06 1.69966E-07 6.24322E-03
 -1      8164-1.12166E-01-7.06656E-08 2.45498E-01-9.73508E-06-1.69966E-07-6.24322E-03
 -1      8165-8.87204E-02 5.89822E-08 2.22052E-01-3.45447E-07 4.99181E-09 5.42475E-03
 -1      8167-8.87204E-02 5.89822E-08 2.22052E-01-3.45447E-07-4.99181E-09-5.42475E-03
 -1      8168-8.64011E-02-1.90261E-08 2.19733E-01 7.17787E-06-1.25302E-07 5.34371E-03
 -1      8170-8.64011E-02-1.90261E-08 2.19733E-01 7.17787E-06 1.25302E-07-5.34371E-03
 -1      8171-9.10254E-02 2.03087E-08 2.24358E-01-7.76255E-06 1.35534E-07 5.50516E-03
 -1      8173-9.10254E-02 2.03087E-08 2.24358E-01-7.76255E-06-1.35534E-07-5.50516E-03
 -1      8174-7.15956E-02-1.11930E-07 2.04928E-01-2.43119E-07 3.30245E-09 4.82690E-03
 -1      8176-7.15956E-02-1.11930E-07 2.04928E-01-2.43119E-07-3.30245E-09-4.82690E-03
 -1      8177-6.95574E-02 1.68489E-08 2.02889E-01 5.97888E-06-1.04402E-07 4.75567E-03
 -1      8179-6.95574E-02 1.68489E-08 2.02889E-01 5.97888E-06 1.04402E-07-4.75567E-03
 -1      8180-7.35884E-02 5.13506E-09 2.06920E-01-6.30440E-06 1.10040E-07 4.89640E-03
 -1      8182-7.35884E-02 5.13506E-09 2.06920E-01-6.30440E-06-1.10040E-07-4.89640E-03
 -1      8183-5.71508E-02 3.73717E-08 1.90483E-01-1.79273E-07 2.39276E-09 4.32258E-03
 -1      8185-5.71508E-02 3.73717E-08 1.90483E-01-1.79273E-07-2.39276E-09-4.32258E-03
 -1      8186-5.54667E-02 2.35219E-08 1.88799E-01 4.66214E-06-8.13804E-08 4.26375E-03
 -1      8188-5.54667E-02 2.35219E-08 1.88799E-01 4.66214E-06 8.13804E-08-4.26375E-03
 -1      8189-5.87564E-02-2.53152E-08 1.92088E-01-4.81746E-06 8.41120E-08 4.37859E-03
 -1      8191-5.87564E-02-2.53152E-08 1.92088E-01-4.81746E-06-8.41120E-08-4.37859E-03
 -1      8192-4.47500E-02 3.55456E-08 1.78082E-01-1.79222E-07 2.50251E-09 3.88964E-03
 -1      8194-4.47500E-02 3.55456E-08 1.78082E-01-1.79222E-07-2.50251E-09-3.88964E-03
 -1      8195-4.33310E-02 1.08311E-08 1.76663E-01 3.71328E-06-6.48196E-08 3.84007E-03
 -1      8197-4.33310E-02 1.08311E-08 1.76663E-01 3.71328E-06 6.48196E-08-3.84007E-03
 -1      8198-4.61390E-02-1.80520E-08 1.79471E-01-3.95016E-06 6.89731E-08 3.93810E-03
 -1      8200-4.61390E-02-1.80520E-08 1.79471E-01-3.95016E-06-6.89731E-08-3.93810E-03
 -1      8201-3.42169E-02-5.13295E-08 1.67549E-01-1.63517E-07 2.27575E-09 3.52193E-03
 -1      8203-3.42169E-02-5.13295E-08 1.67549E-01-1.63517E-07-2.27575E-09-3.52193E-03
 -1      8204-3.29256E-02 5.74097E-08 1.66258E-01 3.18351E-06-5.55907E-08 3.47681E-03
 -1      8206-3.29256E-02 5.74097E-08 1.66258E-01 3.18351E-06 5.55907E-08-3.47681E-03
 -1      8207-3.54382E-02-4.56656E-08 1.68770E-01-3.28430E-06 5.73249E-08 3.56452E-03
 -1      8209-3.54382E-02-4.56656E-08 1.68770E-01-3.28430E-06-5.73249E-08-3.56452E-03
 -1      8210-2.51084E-02 3.17986E-08 1.58440E-01-1.14157E-07 1.52695E-09 3.20392E-03
 -1      8212-2.51084E-02 3.17986E-08 1.58440E-01-1.14157E-07-1.52695E-09-3.20392E-03
 -1      8213-2.40194E-02 9.04136E-08 1.57352E-01 2.52993E-06-4.41628E-08 3.16588E-03
 -1      8215-2.40194E-02 9.04136E-08 1.57352E-01 2.52993E-06 4.41628E-08-3.16588E-03
 -1      8216-2.61189E-02-7.24913E-08 1.59451E-01-2.57431E-06 4.49457E-08 3.23917E-03
 -1      8218-2.61189E-02-7.24913E-08 1.59451E-01-2.57431E-06-4.49457E-08-3.23917E-03
 -1      8219-1.71103E-02-6.64958E-08 1.50442E-01 7.89006E-09-5.65035E-10 2.92469E-03
 -1      8221-1.71103E-02-6.64958E-08 1.50442E-01 7.89006E-09 5.65035E-10-2.92469E-03
 -1      8222-1.62216E-02-2.25850E-08 1.49553E-01 2.11000E-06-3.68331E-08 2.89365E-03
 -1      8224-1.62216E-02-2.25850E-08 1.49553E-01 2.11000E-06 3.68331E-08-2.89365E-03
 -1      8225-1.80530E-02 3.12164E-08 1.51385E-01-2.27272E-06 3.96738E-08 2.95759E-03
 -1      8227-1.80530E-02 3.12164E-08 1.51385E-01-2.27272E-06-3.96738E-08-2.95759E-03
 -1      8228-1.01763E-02-9.12842E-08 1.43508E-01-3.89383E-08 2.86849E-10 2.68263E-03
 -1      8230-1.01763E-02-9.12842E-08 1.43508E-01-3.89383E-08-2.86849E-10-2.68263E-03
 -1      8231-9.34887E-03-1.11548E-07 1.42680E-01 1.91861E-06-3.34984E-08 2.65371E-03
 -1      8233-9.34887E-03-1.11548E-07 1.42680E-01 1.91861E-06 3.34984E-08-2.65371E-03
 -1      8234-1.10189E-02 1.45751E-07 1.44351E-01-1.99206E-06 3.47765E-08 2.71203E-03
 -1      8236-1.10189E-02 1.45751E-07 1.44351E-01-1.99206E-06-3.47765E-08-2.71203E-03
 -1      8237-4.06851E-03 2.78327E-07 1.37400E-01 1.46888E-08-5.53786E-10 2.46938E-03
 -1      8239-4.06851E-03 2.78327E-07 1.37400E-01 1.46888E-08 5.53786E-10-2.46938E-03
 -1      8240-3.21105E-03 2.18394E-07 1.36544E-01 2.49660E-06-4.34948E-08 2.43946E-03
 -1      8242-3.21105E-03 2.18394E-07 1.36544E-01 2.49660E-06 4.34948E-08-2.43946E-03
 -1      8243-4.63413E-03-1.28535E-07 1.37966E-01-1.67034E-06 2.91856E-08 2.48912E-03
 -1      8245-4.63413E-03-1.28535E-07 1.37966E-01-1.67034E-06-2.91856E-08-2.48912E-03
 -1      8246-1.31017E-03-9.40761E-07 1.34638E-01-2.55401E-06 4.45821E-08 2.37302E-03
 -1      8248-1.31017E-03-9.40761E-07 1.34638E-01-2.55401E-06-4.45821E-08-2.37302E-03
 -1      8249 2.66965E-05 8.71325E-07 1.33308E-01 1.18416E-06-2.06675E-08 2.32645E-03
 -1      8251 2.66965E-05 8.71325E-07 1.33308E-01 1.18416E-06 2.06675E-08-2.32645E-03
 -1      8252-1.30496E-03 1.15556E-07 1.34636E-01-7.84452E-07 1.39254E-08 2.37292E-03
 -1      8254-1.30496E-03 1.15556E-07 1.34636E-01-7.84452E-07-1.39254E-08-2.37292E-03
 -1      8255 2.82737E-05 1.97603E-06 1.33311E-01-2.63258E-07 4.59486E-09 2.32648E-03
 -1      8257 2.82737E-05 1.97603E-06 1.33311E-01-2.63258E-07-4.59486E-09-2.32648E-03
 -1      8258-1.13599E-03-1.26056E-06 1.34464E-01 8.86210E-07-1.54373E-08 2.36694E-03
 -1      8260-1.13599E-03-1.26056E-06 1.34464E-01 8.86210E-07 1.54373E-08-2.36694E-03
 -1      8261-1.13159E-03 2.67525E-07 1.34462E-01 6.52887E-07-1.17336E-08 2.36683E-03
 -1      8263-1.13159E-03 2.67525E-07 1.34462E-01 6.52887E-07 1.17336E-08-2.36683E-03
 -1      8264 2.83858E-05 1.92422E-06 1.33311E-01-1.19300E-07 2.08215E-09 2.32647E-03
 -1      8266 2.83858E-05 1.92422E-06 1.33311E-01-1.19300E-07-2.08215E-09-2.32647E-03
 -1      8267-1.18328E-03-9.65726E-07 1.34512E-01 7.30775E-07-1.27653E-08 2.36860E-03
 -1      8269-1.18328E-03-9.65726E-07 1.34512E-01 7.30775E-07 1.27653E-08-2.36860E-03
 -1      8270-1.18341E-03-1.00778E-06 1.34512E-01-6.23102E-07 1.08637E-08 2.36860E-03
 -1      8272-1.18341E-03-1.00778E-06 1.34512E-01-6.23102E-07-1.08637E-08-2.36860E-03
 -1      8273 2.76615E-05 1.85711E-06 1.33311E-01 4.75145E-09-8.29364E-11 2.32648E-03
 -1      8275 2.76615E-05 1.85711E-06 1.33311E-01 4.75145E-09 8.29364E-11-2.32648E-03
 -1      8276-1.14903E-03-9.49733E-07 1.34478E-01 6.64989E-07-1.16055E-08 2.36741E-03
 -1      8278-1.14903E-03-9.49733E-07 1.34478E-01 6.64989E-07 1.16055E-08-2.36741E-03
 -1      8279-1.14917E-03-9.15370E-07 1.34478E-01-6.76550E-07 1.18069E-08 2.36741E-03
 -1      8281-1.14917E-03-9.15370E-07 1.34478E-01-6.76550E-07-1.18069E-08-2.36741E-03
 -1      8282 2.78802E-05 1.86586E-06 1.33311E-01 2.44041E-08-4.25933E-10 2.32648E-03
 -1      8284 2.78802E-05 1.86586E-06 1.33311E-01 2.44041E-08 4.25933E-10-2.32648E-03
 -1      8285-1.16088E-03-9.42466E-07 1.34490E-01 6.65778E-07-1.16197E-08 2.36782E-03
 -1      8287-1.16088E-03-9.42466E-07 1.34490E-01 6.65778E-07 1.16197E-08-2.36782E-03
 -1      8288-1.16096E-03-9.27295E-07 1.34490E-01-6.75975E-07 1.18013E-08 2.36782E-03
 -1      8290-1.16096E-03-9.27295E-07 1.34490E-01-6.75975E-07-1.18013E-08-2.36782E-03
 -1      8291 2.80119E-05 1.89342E-06 1.33311E-01 3.07691E-09-5.37021E-11 2.32648E-03
 -1      8293 2.80119E-05 1.89342E-06 1.33311E-01 3.07691E-09 5.37020E-11-2.32648E-03
 -1      8294-1.16617E-03-9.40677E-07 1.34495E-01 6.71410E-07-1.17195E-08 2.36800E-03
 -1      8296-1.16617E-03-9.40677E-07 1.34495E-01 6.71410E-07 1.17195E-08-2.36800E-03
 -1      8297-1.16618E-03-9.41848E-07 1.34495E-01-6.74337E-07 1.17709E-08 2.36800E-03
 -1      8299-1.16618E-03-9.41848E-07 1.34495E-01-6.74337E-07-1.17709E-08-2.36800E-03
 -1      8300 2.79915E-05 1.88932E-06 1.33311E-01-4.84523E-09 8.45656E-11 2.32648E-03
 -1      8302 2.79915E-05 1.88932E-06 1.33311E-01-4.84523E-09-8.45656E-11-2.32648E-03
 -1      8303-1.16446E-03-9.40504E-07 1.34493E-01 6.72766E-07-1.17434E-08 2.36794E-03
 -1      8305-1.16446E-03-9.40504E-07 1.34493E-01 6.72766E-07 1.17434E-08-2.36794E-03
 -1      8306-1.16446E-03-9.45152E-07 1.34493E-01-6.71182E-07 1.17150E-08 2.36794E-03
 -1      8308-1.16446E-03-9.45152E-07 1.34493E-01-6.71182E-07-1.17150E-08-2.36794E-03
 -1      8309 2.79588E-05 1.88521E-06 1.33311E-01-1.68057E-09 2.93315E-11 2.32648E-03
 -1      8311 2.79588E-05 1.88521E-06 1.33311E-01-1.68057E-09-2.93316E-11-2.32648E-03
 -1      8312-1.16280E-03-9.38306E-07 1.34491E-01 6.71602E-07-1.17228E-08 2.36789E-03
 -1      8314-1.16280E-03-9.38306E-07 1.34491E-01 6.71602E-07 1.17228E-08-2.36789E-03
 -1      8315-1.16280E-03-9.39859E-07 1.34491E-01-6.69358E-07 1.16834E-08 2.36789E-03
 -1      8317-1.16280E-03-9.39859E-07 1.34491E-01-6.69358E-07-1.16834E-08-2.36789E-03
 -1      8318 2.79272E-05 1.88242E-06 1.33311E-01-7.38086E-09 1.28820E-10 2.32648E-03
 -1      8320 2.79272E-05 1.88242E-06 1.33311E-01-7.38086E-09-1.28820E-10-2.32648E-03
 -1      8321-1.16162E-03-9.28071E-07 1.34490E-01 6.71179E-07-1.17162E-08 2.36785E-03
 -1      8323-1.16162E-03-9.28071E-07 1.34490E-01 6.71179E-07 1.17162E-08-2.36785E-03
 -1      8324-1.16161E-03-9.33319E-07 1.34490E-01-6.66077E-07 1.16259E-08 2.36784E-03
 -1      8326-1.16161E-03-9.33319E-07 1.34490E-01-6.66077E-07-1.16259E-08-2.36784E-03
 -1      8327 2.78061E-05 1.86666E-06 1.33311E-01-1.34400E-08 2.34574E-10 2.32648E-03
 -1      8329 2.78061E-05 1.86666E-06 1.33311E-01-1.34400E-08-2.34574E-10-2.32648E-03
 -1      8330-1.15533E-03-9.16223E-07 1.34484E-01 6.67644E-07-1.16548E-08 2.36763E-03
 -1      8332-1.15533E-03-9.16223E-07 1.34484E-01 6.67644E-07 1.16548E-08-2.36763E-03
 -1      8333-1.15532E-03-9.28703E-07 1.34484E-01-6.62350E-07 1.15600E-08 2.36763E-03
 -1      8335-1.15532E-03-9.28703E-07 1.34484E-01-6.62350E-07-1.15600E-08-2.36763E-03
 -1      8336 2.78446E-05 1.88666E-06 1.33311E-01 3.60591E-08-6.29344E-10 2.32648E-03
 -1      8338 2.78446E-05 1.88666E-06 1.33311E-01 3.60591E-08 6.29344E-10-2.32648E-03
 -1      8339-1.15448E-03-9.47250E-07 1.34483E-01 6.57147E-07-1.14655E-08 2.36760E-03
 -1      8341-1.15448E-03-9.47250E-07 1.34483E-01 6.57147E-07 1.14655E-08-2.36760E-03
 -1      8342-1.15455E-03-9.32224E-07 1.34483E-01-6.78961E-07 1.18521E-08 2.36760E-03
 -1      8344-1.15455E-03-9.32224E-07 1.34483E-01-6.78961E-07-1.18521E-08-2.36760E-03
 -1      8345 2.85657E-05 1.86701E-06 1.33310E-01 2.27517E-08-3.97100E-10 2.32646E-03
 -1      8347 2.85657E-05 1.86701E-06 1.33310E-01 2.27517E-08 3.97100E-10-2.32646E-03
 -1      8348-1.19238E-03-9.97920E-07 1.34521E-01 6.27193E-07-1.09531E-08 2.36892E-03
 -1      8350-1.19238E-03-9.97920E-07 1.34521E-01 6.27193E-07 1.09531E-08-2.36892E-03
 -1      8351-1.19248E-03-9.39575E-07 1.34521E-01-6.65718E-07 1.16282E-08 2.36892E-03
 -1      8353-1.19248E-03-9.39575E-07 1.34521E-01-6.65718E-07-1.16282E-08-2.36892E-03
 -1      8354 2.56095E-05 1.41642E-06 1.33311E-01-5.37346E-07 9.37839E-09 2.32653E-03
 -1      8356 2.56095E-05 1.41642E-06 1.33311E-01-5.37346E-07-9.37839E-09-2.32653E-03
 -1      8357-1.06498E-03-7.14022E-07 1.34394E-01 7.27383E-07-1.27666E-08 2.36448E-03
 -1      8359-1.06498E-03-7.14022E-07 1.34394E-01 7.27383E-07 1.27666E-08-2.36448E-03
 -1      8360-1.06445E-03-8.34437E-07 1.34394E-01-3.99624E-07 6.93611E-09 2.36446E-03
 -1      8362-1.06445E-03-8.34437E-07 1.34394E-01-3.99624E-07-6.93611E-09-2.36446E-03
 -1      8363 2.27116E-05 1.75547E-06 1.33313E-01-6.03543E-08 1.05335E-09 2.32660E-03
 -1      8365 2.27116E-05 1.75547E-06 1.33313E-01-6.03543E-08-1.05335E-09-2.32660E-03
 -1      8366-8.63387E-04-3.40161E-07 1.34194E-01 1.60540E-07-2.62806E-09 2.35746E-03
 -1      8368-8.63387E-04-3.40161E-07 1.34194E-01 1.60540E-07 2.62806E-09-2.35746E-03
 -1      8369-8.64773E-04-9.24292E-07 1.34195E-01-5.03470E-07 8.71772E-09 2.35749E-03
 -1      8371-8.64773E-04-9.24292E-07 1.34195E-01-5.03470E-07-8.71772E-09-2.35749E-03
 -1      8372-1.95121E-03 1.38853E-06 1.35288E-01-7.84947E-07 1.36992E-08 2.39553E-03
 -1      8374-1.95121E-03 1.38853E-06 1.35288E-01-7.84947E-07-1.36992E-08-2.39553E-03
 -1      8375-1.30919E-03-1.07077E-06 1.34641E-01-4.95977E-07 9.00370E-09 2.37305E-03
 -1      8377-1.30919E-03-1.07077E-06 1.34641E-01-4.95977E-07-9.00370E-09-2.37305E-03
 -1      8378-2.20296E-03 7.69187E-07 1.35535E-01 8.99303E-07-1.56475E-08 2.40424E-03
 -1      8380-2.20296E-03 7.69187E-07 1.35535E-01 8.99303E-07 1.56475E-08-2.40424E-03
 -1      8381-7.84735E-01-1.90085E-04 9.17686E-01 1.48494E-04-2.57837E-06 2.97219E-02
 -1      8383-7.84735E-01-1.90085E-04 9.17686E-01 1.48494E-04 2.57837E-06-2.97219E-02
 -1      8384-8.08395E-01-2.51720E-05 9.41596E-01 5.00867E-05-8.69924E-07 3.05499E-02
 -1      8386-8.08395E-01-2.51720E-05 9.41596E-01 5.00867E-05 8.69924E-07-3.05499E-02
 -1      8387-7.49215E-01 2.75396E-05 8.82533E-01-9.16912E-05 1.60293E-06 2.84852E-02
 -1      8389-7.49215E-01 2.75396E-05 8.82533E-01-9.16912E-05-1.60293E-06-2.84852E-02
 -1      8390-6.77168E-01-6.85196E-05 8.10456E-01 1.65889E-06-1.90286E-08 2.59712E-02
 -1      8392-6.77168E-01-6.85196E-05 8.10456E-01 1.65889E-06 1.90286E-08-2.59712E-02
 -1      8393-7.02529E-01 7.25239E-05 8.36044E-01 7.18550E-05-1.25393E-06 2.68586E-02
 -1      8395-7.02529E-01 7.25239E-05 8.36044E-01 7.18550E-05 1.25393E-06-2.68586E-02
 -1      8396-6.54213E-01-4.88155E-06 7.87466E-01-7.89163E-05 1.37826E-06 2.51673E-02
 -1      8398-6.54213E-01-4.88155E-06 7.87466E-01-7.89163E-05-1.37826E-06-2.51673E-02
 -1      8399-7.25290E-01-1.22537E-04 8.58434E-01-6.42756E-07 9.15835E-09 2.76481E-02
 -1      8401-7.25290E-01-1.22537E-04 8.58434E-01-6.42756E-07-9.15835E-09-2.76481E-02
 -1      8402-5.87431E-01-4.41692E-05 7.20730E-01-1.15141E-05 2.09483E-07 2.28378E-02
 -1      8404-5.87431E-01-4.41692E-05 7.20730E-01-1.15141E-05-2.09483E-07-2.28378E-02
 -1      8405-6.10612E-01 5.81988E-05 7.44069E-01 8.79435E-05-1.53517E-06 2.36483E-02
 -1      8407-6.10612E-01 5.81988E-05 7.44069E-01 8.79435E-05 1.53517E-06-2.36483E-02
 -1      8408-5.69174E-01-1.06980E-05 7.02484E-01-6.84542E-05 1.19536E-06 2.21993E-02
 -1      8410-5.69174E-01-1.06980E-05 7.02484E-01-6.84542E-05-1.19536E-06-2.21993E-02
 -1      8411-6.35033E-01-1.68751E-05 7.68290E-01-5.68854E-06 9.82583E-08 2.44991E-02
 -1      8413-6.35033E-01-1.68751E-05 7.68290E-01-5.68854E-06-9.82583E-08-2.44991E-02
 -1      8414-5.12941E-01-3.89132E-05 6.46232E-01-6.90532E-06 1.27329E-07 2.02362E-02
 -1      8416-5.12941E-01-3.89132E-05 6.46232E-01-6.90532E-06-1.27329E-07-2.02362E-02
 -1      8417-5.31438E-01 4.96868E-05 6.64836E-01 7.32730E-05-1.27948E-06 2.08828E-02
 -1      8419-5.31438E-01 4.96868E-05 6.64836E-01 7.32730E-05 1.27948E-06-2.08828E-02
 -1      8420-4.98159E-01 1.42837E-06 6.31480E-01-5.36719E-05 9.37037E-07 1.97197E-02
 -1      8422-4.98159E-01 1.42837E-06 6.31480E-01-5.36719E-05-9.37037E-07-1.97197E-02
 -1      8423-5.53730E-01-3.41780E-05 6.87026E-01-1.18276E-05 2.06652E-07 2.16608E-02
 -1      8425-5.53730E-01-3.41780E-05 6.87026E-01-1.18276E-05-2.06652E-07-2.16608E-02
 -1      8426-4.51598E-01-3.17236E-05 5.84897E-01-2.83345E-06 5.53309E-08 1.80943E-02
 -1      8428-4.51598E-01-3.17236E-05 5.84897E-01-2.83345E-06-5.53309E-08-1.80943E-02
 -1      8429-4.66815E-01 3.32122E-05 6.00192E-01 5.81257E-05-1.01496E-06 1.86261E-02
 -1      8431-4.66815E-01 3.32122E-05 6.00192E-01 5.81257E-05 1.01496E-06-1.86261E-02
 -1      8432-4.38671E-01 3.91821E-06 5.71999E-01-4.37809E-05 7.64350E-07 1.76427E-02
 -1      8434-4.38671E-01 3.91821E-06 5.71999E-01-4.37809E-05-7.64350E-07-1.76427E-02
 -1      8435-4.84680E-01-1.77554E-05 6.17995E-01-7.70909E-06 1.34630E-07 1.92498E-02
 -1      8437-4.84680E-01-1.77554E-05 6.17995E-01-7.70909E-06-1.34630E-07-1.92498E-02
 -1      8438-3.98599E-01-3.01819E-05 5.31908E-01-3.45091E-06 6.56825E-08 1.62440E-02
 -1      8440-3.98599E-01-3.01819E-05 5.31908E-01-3.45091E-06-6.56825E-08-1.62440E-02
 -1      8441-4.12071E-01 2.63440E-05 5.45434E-01 4.85292E-05-8.47225E-07 1.67145E-02
 -1      8443-4.12071E-01 2.63440E-05 5.45434E-01 4.85292E-05 8.47225E-07-1.67145E-02
 -1      8444-3.87205E-01 9.01334E-07 5.20527E-01-3.67838E-05 6.42417E-07 1.58457E-02
 -1      8446-3.87205E-01 9.01334E-07 5.20527E-01-3.67838E-05-6.42417E-07-1.58457E-02
 -1      8447-4.26789E-01-1.55773E-05 5.60108E-01-5.27565E-06 9.21095E-08 1.72284E-02
 -1      8449-4.26789E-01-1.55773E-05 5.60108E-01-5.27565E-06-9.21095E-08-1.72284E-02
 -1      8450-3.53300E-01-2.09316E-05 4.86610E-01-2.71976E-06 5.18125E-08 1.46621E-02
 -1      8452-3.53300E-01-2.09316E-05 4.86610E-01-2.71976E-06-5.18125E-08-1.46621E-02
 -1      8453-3.64513E-01 2.45926E-05 4.97878E-01 3.88569E-05-6.78517E-07 1.50540E-02
 -1      8455-3.64513E-01 2.45926E-05 4.97878E-01 3.88569E-05 6.78517E-07-1.50540E-02
 -1      8456-3.43980E-01 1.17413E-06 4.77308E-01-2.91456E-05 5.08861E-07 1.43365E-02
 -1      8458-3.43980E-01 1.17413E-06 4.77308E-01-2.91456E-05-5.08861E-07-1.43365E-02
 -1      8459-3.77534E-01-1.32034E-05 5.10853E-01-5.01869E-06 8.76455E-08 1.55085E-02
 -1      8461-3.77534E-01-1.32034E-05 5.10853E-01-5.01869E-06-8.76455E-08-1.55085E-02
 -1      8462-3.15008E-01-1.76529E-05 4.48323E-01-1.45162E-06 2.91288E-08 1.33252E-02
 -1      8464-3.15008E-01-1.76529E-05 4.48323E-01-1.45162E-06-2.91288E-08-1.33252E-02
 -1      8465-3.24519E-01 1.71758E-05 4.57874E-01 3.13290E-05-5.47057E-07 1.36575E-02
 -1      8467-3.24519E-01 1.71758E-05 4.57874E-01 3.13290E-05 5.47057E-07-1.36575E-02
 -1      8468-3.06727E-01 3.03331E-06 4.40057E-01-2.46462E-05 4.30289E-07 1.30359E-02
 -1      8470-3.06727E-01 3.03331E-06 4.40057E-01-2.46462E-05-4.30289E-07-1.30359E-02
 -1      8471-3.35399E-01-1.00133E-05 4.68722E-01-3.77279E-06 6.58791E-08 1.40373E-02
 -1      8473-3.35399E-01-1.00133E-05 4.68722E-01-3.77279E-06-6.58791E-08-1.40373E-02
 -1      8474-2.81140E-01-1.71585E-05 4.14460E-01-1.87866E-06 3.63607E-08 1.21428E-02
 -1      8476-2.81140E-01-1.71585E-05 4.14460E-01-1.87866E-06-3.63607E-08-1.21428E-02
 -1      8477-2.89781E-01 1.41355E-05 4.23130E-01 2.68706E-05-4.69098E-07 1.24446E-02
 -1      8479-2.89781E-01 1.41355E-05 4.23130E-01 2.68706E-05 4.69098E-07-1.24446E-02
 -1      8480-2.73706E-01 1.12762E-06 4.07033E-01-2.10831E-05 3.68227E-07 1.18830E-02
 -1      8482-2.73706E-01 1.12762E-06 4.07033E-01-2.10831E-05-3.68227E-07-1.18830E-02
 -1      8483-2.99020E-01-8.51978E-06 4.32344E-01-2.64565E-06 4.61893E-08 1.27671E-02
 -1      8485-2.99020E-01-8.51978E-06 4.32344E-01-2.64565E-06-4.61893E-08-1.27671E-02
 -1      8486-2.51569E-01-1.21972E-05 3.84889E-01-1.57128E-06 3.03127E-08 1.11102E-02
 -1      8488-2.51569E-01-1.21972E-05 3.84889E-01-1.57128E-06-3.03127E-08-1.11102E-02
 -1      8489-2.58928E-01 1.36205E-05 3.92278E-01 2.20460E-05-3.84973E-07 1.13674E-02
 -1      8491-2.58928E-01 1.36205E-05 3.92278E-01 2.20460E-05 3.84973E-07-1.13674E-02
 -1      8492-2.45381E-01 1.08706E-06 3.78710E-01-1.69879E-05 2.96599E-07 1.08941E-02
 -1      8494-2.45381E-01 1.08706E-06 3.78710E-01-1.69879E-05-2.96599E-07-1.08941E-02
 -1      8495-2.67316E-01-7.43186E-06 4.00641E-01-2.67695E-06 4.67514E-08 1.16602E-02
 -1      8497-2.67316E-01-7.43186E-06 4.00641E-01-2.67695E-06-4.67514E-08-1.16602E-02
 -1      8498-2.26083E-01-1.04593E-05 3.59405E-01-9.07281E-07 1.83921E-08 1.02204E-02
 -1      8500-2.26083E-01-1.04593E-05 3.59405E-01-9.07281E-07-1.83921E-08-1.02204E-02
 -1      8501-2.32458E-01 9.78021E-06 3.65803E-01 1.81913E-05-3.17653E-07 1.04431E-02
 -1      8503-2.32458E-01 9.78021E-06 3.65803E-01 1.81913E-05 3.17653E-07-1.04431E-02
 -1      8504-2.20504E-01 2.05089E-06 3.53835E-01-1.45987E-05 2.54873E-07 1.00255E-02
 -1      8506-2.20504E-01 2.05089E-06 3.53835E-01-1.45987E-05-2.54873E-07-1.00255E-02
 -1      8507-2.39625E-01-5.79757E-06 3.72952E-01-2.06075E-06 3.59847E-08 1.06934E-02
 -1      8509-2.39625E-01-5.79757E-06 3.72952E-01-2.06075E-06-3.59847E-08-1.06934E-02
 -1      8510-2.03141E-01-1.03554E-05 3.36465E-01-1.21707E-06 2.36834E-08 9.41950E-03
 -1      8512-2.03141E-01-1.03554E-05 3.36465E-01-1.21707E-06-2.36834E-08-9.41950E-03
 -1      8513-2.09048E-01 8.28805E-06 3.42389E-01 1.59723E-05-2.78830E-07 9.62576E-03
 -1      8515-2.09048E-01 8.28805E-06 3.42389E-01 1.59723E-05 2.78830E-07-9.62576E-03
 -1      8516-1.98062E-01 8.06897E-07 3.31391E-01-1.27002E-05 2.21828E-07 9.24202E-03
 -1      8518-1.98062E-01 8.06897E-07 3.31391E-01-1.27002E-05-2.21828E-07-9.24202E-03
 -1      8519-2.15261E-01-5.04627E-06 3.48589E-01-1.49851E-06 2.61608E-08 9.84271E-03
 -1      8521-2.15261E-01-5.04627E-06 3.48589E-01-1.49851E-06-2.61608E-08-9.84271E-03
 -1      8522-1.82781E-01-7.50329E-06 3.16106E-01-1.06584E-06 2.06045E-08 8.70862E-03
 -1      8524-1.82781E-01-7.50329E-06 3.16106E-01-1.06584E-06-2.06045E-08-8.70862E-03
 -1      8525-1.87903E-01 8.21132E-06 3.21246E-01 1.33924E-05-2.33864E-07 8.88754E-03
 -1      8527-1.87903E-01 8.21132E-06 3.21246E-01 1.33924E-05 2.33864E-07-8.88754E-03
 -1      8528-1.78499E-01 7.26379E-07 3.11829E-01-1.04244E-05 1.82003E-07 8.55903E-03
 -1      8530-1.78499E-01 7.26379E-07 3.11829E-01-1.04244E-05-1.82003E-07-8.55903E-03
 -1      8531-1.93656E-01-4.49181E-06 3.26984E-01-1.59726E-06 2.78954E-08 9.08837E-03
 -1      8533-1.93656E-01-4.49181E-06 3.26984E-01-1.59726E-06-2.78954E-08-9.08837E-03
 -1      8534-1.64971E-01-6.54462E-06 2.98297E-01-6.70497E-07 1.34989E-08 8.08682E-03
 -1      8536-1.64971E-01-6.54462E-06 2.98297E-01-6.70497E-07-1.34989E-08-8.08682E-03
 -1      8537-1.69478E-01 6.04388E-06 3.02818E-01 1.12852E-05-1.97061E-07 8.24423E-03
 -1      8539-1.69478E-01 6.04388E-06 3.02818E-01 1.12852E-05 1.97061E-07-8.24423E-03
 -1      8540-1.61062E-01 1.30443E-06 2.94393E-01-9.12263E-06 1.59267E-07 7.95028E-03
 -1      8542-1.61062E-01 1.30443E-06 2.94393E-01-9.12263E-06-1.59267E-07-7.95028E-03
 -1      8543-1.74480E-01-3.58038E-06 3.07809E-01-1.27789E-06 2.23144E-08 8.41886E-03
 -1      8545-1.74480E-01-3.58038E-06 3.07809E-01-1.27789E-06-2.23144E-08-8.41886E-03
 -1      8546-1.48717E-01-6.59711E-06 2.82044E-01-8.83372E-07 1.71560E-08 7.51937E-03
 -1      8548-1.48717E-01-6.59711E-06 2.82044E-01-8.83372E-07-1.71560E-08-7.51937E-03
 -1      8549-1.52952E-01 5.24426E-06 2.86290E-01 1.01087E-05-1.76463E-07 7.66725E-03
 -1      8551-1.52952E-01 5.24426E-06 2.86290E-01 1.01087E-05 1.76463E-07-7.66725E-03
 -1      8552-1.45115E-01 5.02033E-07 2.78445E-01-8.06850E-06 1.40935E-07 7.39352E-03
 -1      8554-1.45115E-01 5.02033E-07 2.78445E-01-8.06850E-06-1.40935E-07-7.39352E-03
 -1      8555-1.57357E-01-3.17745E-06 2.90686E-01-9.70301E-07 1.69390E-08 7.82103E-03
 -1      8557-1.57357E-01-3.17745E-06 2.90686E-01-9.70301E-07-1.69390E-08-7.82103E-03
 -1      8558-1.34108E-01-4.85898E-06 2.67435E-01-7.80729E-07 1.50690E-08 7.00927E-03
 -1      8560-1.34108E-01-4.85898E-06 2.67435E-01-7.80729E-07-1.50690E-08-7.00927E-03
 -1      8561-1.37831E-01 5.30775E-06 2.71170E-01 8.62310E-06-1.50581E-07 7.13933E-03
 -1      8563-1.37831E-01 5.30775E-06 2.71170E-01 8.62310E-06 1.50581E-07-7.13933E-03
 -1      8564-1.31039E-01 4.33137E-07 2.64370E-01-6.70911E-06 1.17139E-07 6.90210E-03
 -1      8566-1.31039E-01 4.33137E-07 2.64370E-01-6.70911E-06-1.17139E-07-6.90210E-03
 -1      8567-1.41967E-01-2.87794E-06 2.75297E-01-1.06228E-06 1.85530E-08 7.28373E-03
 -1      8569-1.41967E-01-2.87794E-06 2.75297E-01-1.06228E-06-1.85530E-08-7.28373E-03
 -1      8570-1.21176E-01-4.32848E-06 2.54503E-01-5.64327E-07 1.11581E-08 6.55779E-03
 -1      8572-1.21176E-01-4.32848E-06 2.54503E-01-5.64327E-07-1.11581E-08-6.55779E-03
 -1      8573-1.24500E-01 4.01836E-06 2.57837E-01 7.38094E-06-1.28884E-07 6.67390E-03
 -1      8575-1.24500E-01 4.01836E-06 2.57837E-01 7.38094E-06 1.28884E-07-6.67390E-03
 -1      8576-1.18354E-01 5.95394E-07 2.51685E-01-5.93007E-06 1.03536E-07 6.45922E-03
 -1      8578-1.18354E-01 5.95394E-07 2.51685E-01-5.93007E-06-1.03536E-07-6.45922E-03
 -1      8579-1.28145E-01-2.33165E-06 2.61475E-01-8.91771E-07 1.55728E-08 6.80117E-03
 -1      8581-1.28145E-01-2.33165E-06 2.61475E-01-8.91771E-07-1.55728E-08-6.80117E-03
 -1      8582-1.09454E-01-3.77765E-06 2.42783E-01-4.00238E-07 8.17674E-09 6.14857E-03
 -1      8584-1.09454E-01-3.77765E-06 2.42783E-01-4.00238E-07-8.17674E-09-6.14857E-03
 -1      8585-1.12431E-01 3.33867E-06 2.45767E-01 6.40523E-06-1.11847E-07 6.25254E-03
 -1      8587-1.12431E-01 3.33867E-06 2.45767E-01 6.40523E-06 1.11847E-07-6.25254E-03
 -1      8588-1.06851E-01 8.71514E-07 2.40182E-01-5.30772E-06 9.26629E-08 6.05764E-03
 -1      8590-1.06851E-01 8.71514E-07 2.40182E-01-5.30772E-06-9.26629E-08-6.05764E-03
 -1      8591-1.15687E-01-2.04437E-06 2.49017E-01-6.54080E-07 1.14217E-08 6.36621E-03
 -1      8593-1.15687E-01-2.04437E-06 2.49017E-01-6.54080E-07-1.14217E-08-6.36621E-03
 -1      8594-9.86038E-02-3.89008E-06 2.31933E-01-5.17444E-07 1.02000E-08 5.76978E-03
 -1      8596-9.86038E-02-3.89008E-06 2.31933E-01-5.17444E-07-1.02000E-08-5.76978E-03
 -1      8597-1.01442E-01 2.96993E-06 2.34777E-01 5.88335E-06-1.02699E-07 5.86886E-03
 -1      8599-1.01442E-01 2.96993E-06 2.34777E-01 5.88335E-06 1.02699E-07-5.86886E-03
 -1      8600-9.61734E-02 3.89924E-07 2.29504E-01-4.79624E-06 8.37797E-08 5.68487E-03
 -1      8602-9.61734E-02 3.89924E-07 2.29504E-01-4.79624E-06-8.37797E-08-5.68487E-03
 -1      8603-1.04359E-01-1.84435E-06 2.37690E-01-5.30478E-07 9.26067E-09 5.97074E-03
 -1      8605-1.04359E-01-1.84435E-06 2.37690E-01-5.30478E-07-9.26067E-09-5.97074E-03
 -1      8606-8.87216E-02-2.92007E-06 2.22051E-01-4.60230E-07 9.01608E-09 5.42475E-03
 -1      8608-8.87216E-02-2.92007E-06 2.22051E-01-4.60230E-07-9.01608E-09-5.42475E-03
 -1      8609-9.12450E-02 3.06532E-06 2.24581E-01 5.11943E-06-8.94005E-08 5.51289E-03
 -1      8611-9.12450E-02 3.06532E-06 2.24581E-01 5.11943E-06 8.94005E-08-5.51289E-03
 -1      8612-8.66203E-02 3.55920E-07 2.19952E-01-4.08025E-06 7.12361E-08 5.35136E-03
 -1      8614-8.66203E-02 3.55920E-07 2.19952E-01-4.08025E-06-7.12361E-08-5.35136E-03
 -1      8615-9.40245E-02-1.70108E-06 2.27355E-01-6.00709E-07 1.04919E-08 5.60991E-03
 -1      8617-9.40245E-02-1.70108E-06 2.27355E-01-6.00709E-07-1.04919E-08-5.60991E-03
 -1      8618-7.98649E-02-2.62349E-06 2.13194E-01-3.02923E-07 6.19074E-09 5.11554E-03
 -1      8620-7.98649E-02-2.62349E-06 2.13194E-01-3.02923E-07-6.19074E-09-5.11554E-03
 -1      8621-8.21353E-02 2.32617E-06 2.15470E-01 4.45991E-06-7.78805E-08 5.19483E-03
 -1      8623-8.21353E-02 2.32617E-06 2.15470E-01 4.45991E-06 7.78805E-08-5.19483E-03
 -1      8624-7.79001E-02 5.95467E-07 2.11232E-01-3.68882E-06 6.43979E-08 5.04692E-03
 -1      8626-7.79001E-02 5.95467E-07 2.11232E-01-3.68882E-06-6.43979E-08-5.04692E-03
 -1      8627-8.46118E-02-1.40505E-06 2.17943E-01-4.93508E-07 8.61809E-09 5.28130E-03
 -1      8629-8.46118E-02-1.40505E-06 2.17943E-01-4.93508E-07-8.61809E-09-5.28130E-03
 -1      8630-7.15968E-02-2.72631E-06 2.04927E-01-3.87477E-07 7.65708E-09 4.82691E-03
 -1      8632-7.15968E-02-2.72631E-06 2.04927E-01-3.87477E-07-7.65708E-09-4.82691E-03
 -1      8633-7.37752E-02 2.07788E-06 2.07110E-01 4.12114E-06-7.19373E-08 4.90296E-03
 -1      8635-7.37752E-02 2.07788E-06 2.07110E-01 4.12114E-06 7.19373E-08-4.90296E-03
 -1      8636-6.97437E-02 2.72902E-07 2.03075E-01-3.36354E-06 5.87555E-08 4.76217E-03
 -1      8638-6.97437E-02 2.72902E-07 2.03075E-01-3.36354E-06-5.87555E-08-4.76217E-03
 -1      8639-7.60045E-02-1.28777E-06 2.09335E-01-3.83037E-07 6.68688E-09 4.98079E-03
 -1      8641-7.60045E-02-1.28777E-06 2.09335E-01-3.83037E-07-6.68688E-09-4.98079E-03
 -1      8642-6.40060E-02-2.06967E-06 1.97336E-01-3.44775E-07 6.77592E-09 4.56188E-03
 -1      8644-6.40060E-02-2.06967E-06 1.97336E-01-3.44775E-07-6.77592E-09-4.56188E-03
 -1      8645-6.59576E-02 2.16181E-06 1.99292E-01 3.61572E-06-6.31420E-08 4.63004E-03
 -1      8647-6.59576E-02 2.16181E-06 1.99292E-01 3.61572E-06 6.31420E-08-4.63004E-03
 -1      8648-6.23909E-02 2.52226E-07 1.95722E-01-2.88731E-06 5.04085E-08 4.50547E-03
 -1      8650-6.23909E-02 2.52226E-07 1.95722E-01-2.88731E-06-5.04085E-08-4.50547E-03
 -1      8651-6.80950E-02-1.19825E-06 2.01426E-01-4.28854E-07 7.49072E-09 4.70465E-03
 -1      8653-6.80950E-02-1.19825E-06 2.01426E-01-4.28854E-07-7.49072E-09-4.70465E-03
 -1      8654-5.71516E-02-1.87802E-06 1.90482E-01-2.36239E-07 4.82524E-09 4.32258E-03
 -1      8656-5.71516E-02-1.87802E-06 1.90482E-01-2.36239E-07-4.82524E-09-4.32258E-03
 -1      8657-5.89213E-02 1.66131E-06 1.92255E-01 3.17828E-06-5.55005E-08 4.38438E-03
 -1      8659-5.89213E-02 1.66131E-06 1.92255E-01 3.17828E-06 5.55005E-08-4.38438E-03
 -1      8660-5.56313E-02 4.20268E-07 1.88963E-01-2.63074E-06 4.59261E-08 4.26949E-03
 -1      8662-5.56313E-02 4.20268E-07 1.88963E-01-2.63074E-06-4.59261E-08-4.26949E-03
 -1      8663-6.08396E-02-9.99955E-07 1.94171E-01-3.56105E-07 6.21880E-09 4.45135E-03
 -1      8665-6.08396E-02-9.99955E-07 1.94171E-01-3.56105E-07-6.21880E-09-4.45135E-03
 -1      8666-5.07071E-02-1.97055E-06 1.84038E-01-3.05266E-07 6.02745E-09 4.09760E-03
 -1      8668-5.07071E-02-1.97055E-06 1.84038E-01-3.05266E-07-6.02745E-09-4.09760E-03
 -1      8669-5.24190E-02 1.50731E-06 1.85753E-01 2.96506E-06-5.17554E-08 4.15737E-03
 -1      8671-5.24190E-02 1.50731E-06 1.85753E-01 2.96506E-06 5.17554E-08-4.15737E-03
 -1      8672-4.92655E-02 1.81902E-07 1.82597E-01-2.41534E-06 4.21945E-08 4.04724E-03
 -1      8674-4.92655E-02 1.81902E-07 1.82597E-01-2.41534E-06-4.21945E-08-4.04724E-03
 -1      8675-5.41593E-02-9.25759E-07 1.87490E-01-2.83832E-07 4.95496E-09 4.21813E-03
 -1      8677-5.41593E-02-9.25759E-07 1.87490E-01-2.83832E-07-4.95496E-09-4.21813E-03
 -1      8678-4.47506E-02-1.51241E-06 1.78081E-01-2.78896E-07 5.46458E-09 3.88964E-03
 -1      8680-4.47506E-02-1.51241E-06 1.78081E-01-2.78896E-07-5.46458E-09-3.88964E-03
 -1      8681-4.62978E-02 1.59290E-06 1.79632E-01 2.62564E-06-4.58520E-08 3.94368E-03
 -1      8683-4.62978E-02 1.59290E-06 1.79632E-01 2.62564E-06 4.58520E-08-3.94368E-03
 -1      8684-4.34895E-02 1.58239E-07 1.76821E-01-2.08605E-06 3.64200E-08 3.84560E-03
 -1      8686-4.34895E-02 1.58239E-07 1.76821E-01-2.08605E-06-3.64200E-08-3.84560E-03
 -1      8687-4.79801E-02-8.71888E-07 1.81311E-01-3.24834E-07 5.67396E-09 4.00240E-03
 -1      8689-4.79801E-02-8.71888E-07 1.81311E-01-3.24834E-07-5.67396E-09-4.00240E-03
 -1      8690-3.93376E-02-1.38594E-06 1.72668E-01-2.07034E-07 4.16925E-09 3.70067E-03
 -1      8692-3.93376E-02-1.38594E-06 1.72668E-01-2.07034E-07-4.16925E-09-3.70067E-03
 -1      8693-4.07531E-02 1.25350E-06 1.74087E-01 2.32930E-06-4.06747E-08 3.75010E-03
 -1      8695-4.07531E-02 1.25350E-06 1.74087E-01 2.32930E-06 4.06747E-08-3.75010E-03
 -1      8696-3.81468E-02 2.69131E-07 1.71479E-01-1.91057E-06 3.33541E-08 3.65908E-03
 -1      8698-3.81468E-02 2.69131E-07 1.71479E-01-1.91057E-06-3.33541E-08-3.65908E-03
 -1      8699-4.22761E-02-7.36763E-07 1.75607E-01-2.81085E-07 4.90867E-09 3.80327E-03
 -1      8701-4.22761E-02-7.36763E-07 1.75607E-01-2.81085E-07-4.90867E-09-3.80327E-03
 -1      8702-3.42175E-02-1.46508E-06 1.67548E-01-2.68954E-07 5.25044E-09 3.52193E-03
 -1      8704-3.42175E-02-1.46508E-06 1.67548E-01-2.68954E-07-5.25044E-09-3.52193E-03
 -1      8705-3.55977E-02 1.16330E-06 1.68931E-01 2.19316E-06-3.82804E-08 3.57012E-03
 -1      8707-3.55977E-02 1.16330E-06 1.68931E-01 2.19316E-06 3.82804E-08-3.57012E-03
 -1      8708-3.30848E-02 8.40974E-08 1.66416E-01-1.76325E-06 3.08052E-08 3.48235E-03
 -1      8710-3.30848E-02 8.40974E-08 1.66416E-01-1.76325E-06-3.08052E-08-3.48235E-03
 -1      8711-3.69916E-02-6.91054E-07 1.70323E-01-2.37697E-07 4.14949E-09 3.61878E-03
 -1      8713-3.69916E-02-6.91054E-07 1.70323E-01-2.37697E-07-4.14949E-09-3.61878E-03
 -1      8714-2.94579E-02-1.13442E-06 1.62789E-01-2.46456E-07 4.77723E-09 3.35575E-03
 -1      8716-2.94579E-02-1.13442E-06 1.62789E-01-2.46457E-07-4.77723E-09-3.35575E-03
 -1      8717-3.07145E-02 1.24516E-06 1.64048E-01 1.95506E-06-3.41416E-08 3.39964E-03
 -1      8719-3.07145E-02 1.24516E-06 1.64048E-01 1.95506E-06 3.41416E-08-3.39964E-03
 -1      8720-2.84640E-02 6.04242E-08 1.61796E-01-1.53216E-06 2.67497E-08 3.32104E-03
 -1      8722-2.84640E-02 6.04242E-08 1.61796E-01-1.53216E-06-2.67497E-08-3.32104E-03
 -1      8723-3.20729E-02-6.63718E-07 1.65404E-01-2.76260E-07 4.82563E-09 3.44705E-03
 -1      8725-3.20729E-02-6.63718E-07 1.65404E-01-2.76260E-07-4.82563E-09-3.44705E-03
 -1      8726-2.51089E-02-1.04351E-06 1.58440E-01-1.88347E-07 3.73050E-09 3.20392E-03
 -1      8728-2.51089E-02-1.04351E-06 1.58440E-01-1.88347E-07-3.73050E-09-3.20392E-03
 -1      8729-2.62632E-02 1.00030E-06 1.59597E-01 1.73937E-06-3.03742E-08 3.24424E-03
 -1      8731-2.62632E-02 1.00030E-06 1.59597E-01 1.73937E-06 3.03742E-08-3.24424E-03
 -1      8732-2.41637E-02 1.42973E-07 1.57495E-01-1.41467E-06 2.46956E-08 3.17091E-03
 -1      8734-2.41637E-02 1.42973E-07 1.57495E-01-1.41467E-06-2.46956E-08-3.17091E-03
 -1      8735-2.75019E-02-5.70055E-07 1.60833E-01-2.50397E-07 4.37276E-09 3.28747E-03
 -1      8737-2.75019E-02-5.70055E-07 1.60833E-01-2.50397E-07-4.37276E-09-3.28747E-03
 -1      8738-2.09738E-02-1.10117E-06 1.54305E-01-2.20570E-07 4.29158E-09 3.05957E-03
 -1      8740-2.09738E-02-1.10117E-06 1.54305E-01-2.20570E-07-4.29158E-09-3.05957E-03
 -1      8741-2.20962E-02 9.25207E-07 1.55429E-01 1.63566E-06-2.85516E-08 3.09876E-03
 -1      8743-2.20962E-02 9.25207E-07 1.55429E-01 1.63566E-06 2.85516E-08-3.09876E-03
 -1      8744-2.00615E-02 2.33515E-08 1.53393E-01-1.32166E-06 2.30881E-08 3.02770E-03
 -1      8746-2.00615E-02 2.33515E-08 1.53393E-01-1.32166E-06-2.30881E-08-3.02770E-03
 -1      8747-2.32344E-02-5.44000E-07 1.56566E-01-2.19243E-07 3.82736E-09 3.13849E-03
 -1      8749-2.32344E-02-5.44000E-07 1.56566E-01-2.19243E-07-3.82736E-09-3.13849E-03
 -1      8750-1.71107E-02-8.35679E-07 1.50442E-01-1.55217E-07 3.08361E-09 2.92470E-03
 -1      8752-1.71107E-02-8.35679E-07 1.50442E-01-1.55217E-07-3.08361E-09-2.92470E-03
 -1      8753-1.81168E-02 9.51510E-07 1.51450E-01 1.44492E-06-2.52390E-08 2.95984E-03
 -1      8755-1.81168E-02 9.51510E-07 1.51450E-01 1.44492E-06 2.52390E-08-2.95984E-03
 -1      8756-1.62859E-02 5.51017E-08 1.49617E-01-1.17495E-06 2.05066E-08 2.89589E-03
 -1      8758-1.62859E-02 5.51017E-08 1.49617E-01-1.17495E-06-2.05066E-08-2.89589E-03
 -1      8759-1.92227E-02-5.31474E-07 1.52554E-01-2.34335E-07 4.09334E-09 2.99844E-03
 -1      8761-1.92227E-02-5.31474E-07 1.52554E-01-2.34335E-07-4.09334E-09-2.99844E-03
 -1      8762-1.35641E-02-6.98733E-07 1.46895E-01-1.63028E-08 6.25744E-10 2.80088E-03
 -1      8764-1.35641E-02-6.98733E-07 1.46895E-01-1.63028E-08-6.25744E-10-2.80088E-03
 -1      8765-1.44510E-02 6.66346E-07 1.47784E-01 1.26502E-06-2.21020E-08 2.83186E-03
 -1      8767-1.44510E-02 6.66346E-07 1.47784E-01 1.26502E-06 2.21020E-08-2.83186E-03
 -1      8768-1.27352E-02 2.16706E-07 1.46067E-01-1.13550E-06 1.98126E-08 2.77194E-03
 -1      8770-1.27352E-02 2.16706E-07 1.46067E-01-1.13550E-06-1.98126E-08-2.77194E-03
 -1      8771-1.54434E-02-4.64807E-07 1.48775E-01-1.69769E-07 2.96593E-09 2.86650E-03
 -1      8773-1.54434E-02-4.64807E-07 1.48775E-01-1.69769E-07-2.96593E-09-2.86650E-03
 -1      8774-1.01766E-02-5.22495E-07 1.43508E-01 8.21855E-08-1.10472E-09 2.68263E-03
 -1      8776-1.01766E-02-5.22495E-07 1.43508E-01 8.21855E-08 1.10472E-09-2.68263E-03
 -1      8777-1.09847E-02 2.86546E-07 1.44317E-01 1.12892E-06-1.97208E-08 2.71084E-03
 -1      8779-1.09847E-02 2.86546E-07 1.44317E-01 1.12892E-06 1.97208E-08-2.71084E-03
 -1      8780-9.31450E-03 3.19346E-07 1.42647E-01-1.13278E-06 1.97775E-08 2.65253E-03
 -1      8782-9.31450E-03 3.19346E-07 1.42647E-01-1.13278E-06-1.97775E-08-2.65253E-03
 -1      8783-1.18592E-02-4.96197E-07 1.45191E-01-3.09561E-08 5.41738E-10 2.74137E-03
 -1      8785-1.18592E-02-4.96197E-07 1.45191E-01-3.09561E-08-5.41737E-10-2.74137E-03
 -1      8786-6.99816E-03-5.18533E-07 1.40330E-01 9.01438E-08-1.27501E-09 2.57166E-03
 -1      8788-6.99816E-03-5.18533E-07 1.40330E-01 9.01438E-08 1.27501E-09-2.57166E-03
 -1      8789-7.70766E-03 1.50317E-07 1.41039E-01 1.05157E-06-1.83681E-08 2.59641E-03
 -1      8791-7.70766E-03 1.50317E-07 1.41039E-01 1.05157E-06 1.83681E-08-2.59641E-03
 -1      8792-6.19727E-03 5.68764E-07 1.39531E-01-7.29190E-07 1.27315E-08 2.54372E-03
 -1      8794-6.19727E-03 5.68764E-07 1.39531E-01-7.29190E-07-1.27315E-08-2.54372E-03
 -1      8795-8.50321E-03-1.55916E-08 1.41835E-01 6.21843E-08-1.11357E-09 2.62420E-03
 -1      8797-8.50321E-03-1.55916E-08 1.41835E-01 6.21843E-08 1.11357E-09-2.62420E-03
 -1      8798-4.06792E-03-8.54573E-07 1.37400E-01 8.15298E-08-1.09121E-09 2.46936E-03
 -1      8800-4.06792E-03-8.54573E-07 1.37400E-01 8.15298E-08 1.09121E-09-2.46936E-03
 -1      8801-4.78151E-03 1.32337E-07 1.38113E-01 7.44831E-07-1.29830E-08 2.49425E-03
 -1      8803-4.78151E-03 1.32337E-07 1.38113E-01 7.44831E-07 1.29830E-08-2.49425E-03
 -1      8804-3.35994E-03 4.98752E-07 1.36693E-01-5.52067E-07 9.68104E-09 2.44465E-03
 -1      8806-3.35994E-03 4.98752E-07 1.36693E-01-5.52067E-07-9.68104E-09-2.44465E-03
 -1      8807-2.90780E-03-7.04898E-07 1.36238E-01-2.80068E-08 4.34783E-10 2.42883E-03
 -1      8809-2.90780E-03-7.04898E-07 1.36238E-01-2.80068E-08-4.34783E-10-2.42883E-03
 -1      8810-5.48023E-03-7.54162E-07 1.38811E-01 1.89982E-07-3.35016E-09 2.51866E-03
 -1      8812-5.48023E-03-7.54162E-07 1.38811E-01 1.89982E-07 3.35016E-09-2.51866E-03
 -1      8813-9.97047E-01 3.92707E-04 1.13186E+00 3.20588E-05-5.59524E-07 3.71648E-02
 -1      8815-9.97047E-01 3.92707E-04 1.13186E+00 3.20588E-05 5.59524E-07-3.71648E-02
 -1      8816-9.29731E-01-1.91136E-04 1.06227E+00 1.58713E-04-2.77072E-06 3.47784E-02
 -1      8818-9.29731E-01-1.91136E-04 1.06227E+00 1.58713E-04 2.77072E-06-3.47784E-02
 -1      8819-9.29642E-01-2.10064E-04 1.06236E+00-1.62336E-04 2.83243E-06 3.47781E-02
 -1      8821-9.29642E-01-2.10064E-04 1.06236E+00-1.62336E-04-2.83243E-06-3.47781E-02
 -1      8822-9.96934E-01 4.31629E-04 1.13183E+00-2.72380E-06 4.75406E-08 3.71625E-02
 -1      8824-9.96934E-01 4.31629E-04 1.13183E+00-2.72380E-06-4.75406E-08-3.71625E-02
 -1      8825-9.28512E-01-2.06949E-04 1.06106E+00 1.72154E-04-3.00488E-06 3.47361E-02
 -1      8827-9.28512E-01-2.06949E-04 1.06106E+00 1.72154E-04 3.00488E-06-3.47361E-02
 -1      8828-9.28462E-01-2.12607E-04 1.06107E+00-1.67384E-04 2.92165E-06 3.47355E-02
 -1      8830-9.28462E-01-2.12607E-04 1.06107E+00-1.67384E-04-2.92165E-06-3.47355E-02
 -1      8831-9.96999E-01 4.23083E-04 1.13185E+00-9.49781E-06 1.65767E-07 3.71638E-02
 -1      8833-9.96999E-01 4.23083E-04 1.13185E+00-9.49781E-06-1.65767E-07-3.71638E-02
 -1      8834-9.29135E-01-2.05137E-04 1.06172E+00 1.71829E-04-2.99905E-06 3.47584E-02
 -1      8836-9.29135E-01-2.05137E-04 1.06172E+00 1.71829E-04 2.99905E-06-3.47584E-02
 -1      8837-9.29117E-01-2.08472E-04 1.06171E+00-1.67919E-04 2.93117E-06 3.47579E-02
 -1      8839-9.29117E-01-2.08472E-04 1.06171E+00-1.67919E-04-2.93117E-06-3.47579E-02
 -1      8840-9.97094E-01 4.10038E-04 1.13189E+00-7.22811E-06 1.26153E-07 3.71660E-02
 -1      8842-9.97094E-01 4.10038E-04 1.13189E+00-7.22811E-06-1.26153E-07-3.71660E-02
 -1      8843-9.30240E-01-2.00493E-04 1.06286E+00 1.67810E-04-2.92898E-06 3.47973E-02
 -1      8845-9.30240E-01-2.00493E-04 1.06286E+00 1.67810E-04 2.92898E-06-3.47973E-02
 -1      8846-9.30236E-01-2.02506E-04 1.06285E+00-1.65253E-04 2.88466E-06 3.47970E-02
 -1      8848-9.30236E-01-2.02506E-04 1.06285E+00-1.65253E-04-2.88466E-06-3.47970E-02
 -1      8849-9.97141E-01 4.02020E-04 1.13191E+00-1.99872E-06 3.48840E-08 3.71670E-02
 -1      8851-9.97141E-01 4.02020E-04 1.13191E+00-1.99872E-06-3.48840E-08-3.71670E-02
 -1      8852-9.30786E-01-1.97673E-04 1.06341E+00 1.64732E-04-2.87536E-06 3.48164E-02
 -1      8854-9.30786E-01-1.97673E-04 1.06341E+00 1.64732E-04 2.87536E-06-3.48164E-02
 -1      8855-9.30787E-01-1.97765E-04 1.06341E+00-1.64238E-04 2.86682E-06 3.48164E-02
 -1      8857-9.30787E-01-1.97765E-04 1.06341E+00-1.64238E-04-2.86682E-06-3.48164E-02
 -1      8858-9.97147E-01 3.99872E-04 1.13191E+00 2.42012E-07-4.22392E-09 3.71672E-02
 -1      8860-9.97147E-01 3.99872E-04 1.13191E+00 2.42012E-07 4.22392E-09-3.71672E-02
 -1      8861-9.30842E-01-1.97126E-04 1.06347E+00 1.63817E-04-2.85941E-06 3.48184E-02
 -1      8863-9.30842E-01-1.97126E-04 1.06347E+00 1.63817E-04 2.85941E-06-3.48184E-02
 -1      8864-9.30843E-01-1.96823E-04 1.06347E+00-1.64063E-04 2.86369E-06 3.48184E-02
 -1      8866-9.30843E-01-1.96823E-04 1.06347E+00-1.64063E-04-2.86369E-06-3.48184E-02
 -1      8867-9.97144E-01 3.99670E-04 1.13190E+00 4.95142E-08-8.64164E-10 3.71671E-02
 -1      8869-9.97144E-01 3.99670E-04 1.13190E+00 4.95142E-08 8.64164E-10-3.71671E-02
 -1      8870-9.30801E-01-1.97285E-04 1.06343E+00 1.63900E-04-2.86086E-06 3.48169E-02
 -1      8872-9.30801E-01-1.97285E-04 1.06343E+00 1.63900E-04 2.86086E-06-3.48169E-02
 -1      8873-9.30801E-01-1.97147E-04 1.06343E+00-1.64033E-04 2.86317E-06 3.48169E-02
 -1      8875-9.30801E-01-1.97147E-04 1.06343E+00-1.64033E-04-2.86317E-06-3.48169E-02
 -1      8876-9.97151E-01 3.98593E-04 1.13191E+00-1.47089E-06 2.56718E-08 3.71672E-02
 -1      8878-9.97151E-01 3.98593E-04 1.13191E+00-1.47089E-06-2.56718E-08-3.71672E-02
 -1      8879-9.30880E-01-1.96485E-04 1.06351E+00 1.64277E-04-2.86741E-06 3.48197E-02
 -1      8881-9.30880E-01-1.96485E-04 1.06351E+00 1.64277E-04 2.86741E-06-3.48197E-02
 -1      8882-9.30875E-01-1.97250E-04 1.06351E+00-1.63391E-04 2.85200E-06 3.48195E-02
 -1      8884-9.30875E-01-1.97250E-04 1.06351E+00-1.63391E-04-2.85200E-06-3.48195E-02
 -1      8885-9.97158E-01 3.99772E-04 1.13191E+00 1.87426E-06-3.27113E-08 3.71674E-02
 -1      8887-9.97158E-01 3.99772E-04 1.13191E+00 1.87426E-06 3.27113E-08-3.71674E-02
 -1      8888-9.30969E-01-1.98317E-04 1.06359E+00 1.64224E-04-2.86662E-06 3.48226E-02
 -1      8890-9.30969E-01-1.98317E-04 1.06359E+00 1.64224E-04 2.86662E-06-3.48226E-02
 -1      8891-9.30957E-01-1.98880E-04 1.06359E+00-1.64638E-04 2.87374E-06 3.48225E-02
 -1      8893-9.30957E-01-1.98880E-04 1.06359E+00-1.64638E-04-2.87374E-06-3.48225E-02
 -1      8894-9.97088E-01 4.09014E-04 1.13188E+00 9.01180E-06-1.57283E-07 3.71657E-02
 -1      8896-9.97088E-01 4.09014E-04 1.13188E+00 9.01180E-06 1.57283E-07-3.71657E-02
 -1      8897-9.30032E-01-2.04169E-04 1.06261E+00 1.66625E-04-2.90867E-06 3.47894E-02
 -1      8899-9.30032E-01-2.04169E-04 1.06261E+00 1.66625E-04 2.90867E-06-3.47894E-02
 -1      8900-9.30002E-01-2.04398E-04 1.06264E+00-1.68652E-04 2.94359E-06 3.47893E-02
 -1      8902-9.30002E-01-2.04398E-04 1.06264E+00-1.68652E-04-2.94359E-06-3.47893E-02
 -1      8903-9.96957E-01 4.31997E-04 1.13181E+00 1.58412E-05-2.76477E-07 3.71626E-02
 -1      8905-9.96957E-01 4.31997E-04 1.13181E+00 1.58412E-05 2.76477E-07-3.71626E-02
 -1      8906-9.28320E-01-2.19347E-04 1.06081E+00 1.72073E-04-3.00398E-06 3.47285E-02
 -1      8908-9.28320E-01-2.19347E-04 1.06081E+00 1.72073E-04 3.00398E-06-3.47285E-02
 -1      8909-9.28241E-01-2.20590E-04 1.06086E+00-1.74071E-04 3.03800E-06 3.47280E-02
 -1      8911-9.28241E-01-2.20590E-04 1.06086E+00-1.74071E-04-3.03800E-06-3.47280E-02
 -1      8912-3.63588E-01 3.84979E-07 4.96926E-01-5.83527E-05 1.01881E-06 1.50213E-02
 -1      8914-3.63588E-01 3.84979E-07 4.96926E-01-5.83527E-05-1.01881E-06-1.50213E-02
 -1      8915-3.75567E-01 3.43497E-07 5.08899E-01 1.88363E-06-3.28801E-08 1.54401E-02
 -1      8917-3.75567E-01 3.43497E-07 5.08899E-01 1.88363E-06 3.28801E-08-1.54401E-02
 -1      8918-3.53291E-01 6.96400E-07 4.86620E-01-3.39311E-06 5.46647E-08 1.46621E-02
 -1      8920-3.53291E-01 6.96400E-07 4.86620E-01-3.39311E-06-5.46647E-08-1.46621E-02
 -1      8921-3.43057E-01-7.43132E-07 4.76390E-01 5.13550E-05-8.96486E-07 1.43044E-02
 -1      8923-3.43057E-01-7.43132E-07 4.76390E-01 5.13550E-05 8.96486E-07-1.43044E-02
 -1      8924-7.34779E-01 2.77925E-04 8.69002E-01 3.64469E-05-6.37501E-07 2.79969E-02
 -1      8926-7.34779E-01 2.77925E-04 8.69002E-01 3.64469E-05 6.37501E-07-2.79969E-02
 -1      8927-7.97121E-01-2.12686E-04 9.29670E-01-4.62159E-05 8.04867E-07 3.01472E-02
 -1      8929-7.97121E-01-2.12686E-04 9.29670E-01-4.62159E-05-8.04867E-07-3.01472E-02
 -1      8930-8.00670E-01-2.10786E-04 9.33298E-01-1.08287E-05 1.90385E-07 3.02727E-02
 -1      8932-8.00670E-01-2.10786E-04 9.33298E-01-1.08287E-05-1.90385E-07-3.02727E-02
 -1      8933-7.04000E-01-7.93799E-05 8.36944E-01 3.52751E-05-6.09551E-07 2.69011E-02
 -1      8935-7.04000E-01-7.93799E-05 8.36944E-01 3.52751E-05 6.09551E-07-2.69011E-02
 -1      8936-5.87397E-01 8.05005E-06 7.20757E-01-8.48200E-06 1.37849E-07 2.28377E-02
 -1      8938-5.87397E-01 8.05005E-06 7.20757E-01-8.48200E-06-1.37849E-07-2.28377E-02
 -1      8939-5.66080E-01-9.20187E-06 6.99387E-01 1.32884E-04-2.32030E-06 2.20910E-02
 -1      8941-5.66080E-01-9.20187E-06 6.99387E-01 1.32884E-04 2.32030E-06-2.20910E-02
 -1      8942-6.07489E-01 1.89204E-05 7.40892E-01-1.34365E-04 2.34456E-06 2.35383E-02
 -1      8944-6.07489E-01 1.89204E-05 7.40892E-01-1.34365E-04-2.34456E-06-2.35383E-02
 -1      8945-4.51583E-01 3.02248E-06 5.84912E-01-4.86291E-06 7.86097E-08 1.80943E-02
 -1      8947-4.51583E-01 3.02248E-06 5.84912E-01-4.86291E-06-7.86097E-08-1.80943E-02
 -1      8948-4.37421E-01-2.01226E-06 5.70749E-01 7.81602E-05-1.36444E-06 1.75990E-02
 -1      8950-4.37421E-01-2.01226E-06 5.70749E-01 7.81602E-05 1.36444E-06-1.75990E-02
 -1      8951-4.65553E-01 4.55325E-06 5.98902E-01-8.76242E-05 1.52983E-06 1.85816E-02
 -1      8953-4.65553E-01 4.55325E-06 5.98902E-01-8.76242E-05-1.52983E-06-1.85816E-02
 -1      8954-3.33611E-01-4.97595E-07 4.66943E-01 3.48815E-07-6.09876E-09 1.39751E-02
 -1      8956-3.33611E-01-4.97595E-07 4.66943E-01 3.48815E-07 6.09876E-09-1.39751E-02
 -1      8957-2.81133E-01-7.53078E-07 4.14467E-01-2.55368E-06 4.08153E-08 1.21428E-02
 -1      8959-2.81133E-01-7.53078E-07 4.14467E-01-2.55368E-06-4.08153E-08-1.21428E-02
 -1      8960-2.72943E-01 3.61731E-07 4.06274E-01 3.73901E-05-6.52844E-07 1.18564E-02
 -1      8962-2.72943E-01 3.61731E-07 4.06274E-01 3.73901E-05 6.52844E-07-1.18564E-02
 -1      8963-2.89016E-01-1.00001E-07 4.22345E-01-4.07409E-05 7.11174E-07 1.24175E-02
 -1      8965-2.89016E-01-1.00001E-07 4.22345E-01-4.07409E-05-7.11174E-07-1.24175E-02
 -1      8966-2.26079E-01 2.31858E-07 3.59410E-01-1.58797E-06 2.50319E-08 1.02204E-02
 -1      8968-2.26079E-01 2.31858E-07 3.59410E-01-1.58797E-06-2.50319E-08-1.02204E-02
 -1      8969-2.19925E-01 2.56888E-07 3.53259E-01 2.56467E-05-4.47706E-07 1.00054E-02
 -1      8971-2.19925E-01 2.56888E-07 3.53259E-01 2.56467E-05 4.47706E-07-1.00054E-02
 -1      8972-2.31879E-01-5.00469E-08 3.65211E-01-2.73693E-05 4.77843E-07 1.04227E-02
 -1      8974-2.31879E-01-5.00469E-08 3.65211E-01-2.73693E-05-4.77843E-07-1.04227E-02
 -1      8975-1.82778E-01 1.66191E-07 3.16109E-01-1.10398E-06 1.71576E-08 8.70862E-03
 -1      8977-1.82778E-01 1.66191E-07 3.16109E-01-1.10398E-06-1.71576E-08-8.70862E-03
 -1      8978-1.78052E-01-4.49053E-08 3.11384E-01 1.83444E-05-3.20240E-07 8.54345E-03
 -1      8980-1.78052E-01-4.49053E-08 3.11384E-01 1.83444E-05 3.20240E-07-8.54345E-03
 -1      8981-1.87455E-01 9.50968E-08 3.20788E-01-2.02033E-05 3.52741E-07 8.87174E-03
 -1      8983-1.87455E-01 9.50968E-08 3.20788E-01-2.02033E-05-3.52741E-07-8.87174E-03
 -1      8984-1.48714E-01-2.80006E-07 2.82047E-01-6.99633E-07 1.03810E-08 7.51937E-03
 -1      8986-1.48714E-01-2.80006E-07 2.82047E-01-6.99633E-07-1.03810E-08-7.51937E-03
 -1      8987-1.44755E-01 1.86893E-08 2.78086E-01 1.43645E-05-2.50823E-07 7.38094E-03
 -1      8989-1.44755E-01 1.86893E-08 2.78086E-01 1.43645E-05 2.50823E-07-7.38094E-03
 -1      8990-1.52590E-01 5.20075E-08 2.85921E-01-1.54125E-05 2.69028E-07 7.65450E-03
 -1      8992-1.52590E-01 5.20075E-08 2.85921E-01-1.54125E-05-2.69028E-07-7.65450E-03
 -1      8993-1.21174E-01 7.93214E-08 2.54505E-01-4.99507E-07 7.33999E-09 6.55779E-03
 -1      8995-1.21174E-01 7.93214E-08 2.54505E-01-4.99507E-07-7.33999E-09-6.55779E-03
 -1      8996-1.18062E-01 2.47396E-08 2.51394E-01 1.04366E-05-1.82193E-07 6.44905E-03
 -1      8998-1.18062E-01 2.47396E-08 2.51394E-01 1.04366E-05 1.82193E-07-6.44905E-03
 -1      8999-1.24208E-01 3.83991E-08 2.57540E-01-1.11589E-05 1.94823E-07 6.66361E-03
 -1      9001-1.24208E-01 3.83991E-08 2.57540E-01-1.11589E-05-1.94823E-07-6.66361E-03
 -1      9002-9.86021E-02-1.65632E-07 2.31935E-01-3.92818E-07 5.62626E-09 5.76978E-03
 -1      9004-9.86021E-02-1.65632E-07 2.31935E-01-3.92818E-07-5.62626E-09-5.76978E-03
 -1      9005-9.59320E-02 4.14081E-08 2.29264E-01 8.51345E-06-1.48658E-07 5.67645E-03
 -1      9007-9.59320E-02 4.14081E-08 2.29264E-01 8.51345E-06 1.48658E-07-5.67645E-03
 -1      9008-1.01200E-01-2.12641E-09 2.34531E-01-9.00381E-06 1.57158E-07 5.86035E-03
 -1      9010-1.01200E-01-2.12641E-09 2.34531E-01-9.00381E-06-1.57158E-07-5.86035E-03
 -1      9011-7.98638E-02 5.09200E-08 2.13196E-01-2.60800E-07 3.60230E-09 5.11554E-03
 -1      9013-7.98638E-02 5.09200E-08 2.13196E-01-2.60800E-07-3.60230E-09-5.11554E-03
 -1      9014-7.76997E-02 2.71698E-08 2.11032E-01 6.50081E-06-1.13478E-07 5.03994E-03
 -1      9016-7.76997E-02 2.71698E-08 2.11032E-01 6.50081E-06 1.13478E-07-5.03994E-03
 -1      9017-8.19346E-02-2.20066E-08 2.15267E-01-6.76694E-06 1.18147E-07 5.18778E-03
 -1      9019-8.19346E-02-2.20066E-08 2.15267E-01-6.76694E-06-1.18147E-07-5.18778E-03
 -1      9020-6.40051E-02 4.43200E-08 1.97337E-01-2.28676E-07 3.19186E-09 4.56188E-03
 -1      9022-6.40051E-02 4.43200E-08 1.97337E-01-2.28676E-07-3.19186E-09-4.56188E-03
 -1      9023-6.22171E-02-1.71908E-08 1.95549E-01 5.09460E-06-8.89337E-08 4.49941E-03
 -1      9025-6.22171E-02-1.71908E-08 1.95549E-01 5.09460E-06 8.89337E-08-4.49941E-03
 -1      9026-6.57834E-02 1.15087E-08 1.99116E-01-5.48211E-06 9.57197E-08 4.62392E-03
 -1      9028-6.57834E-02 1.15087E-08 1.99116E-01-5.48211E-06-9.57197E-08-4.62392E-03
 -1      9029-5.07062E-02-7.44334E-08 1.84039E-01-1.89810E-07 2.57993E-09 4.09760E-03
 -1      9031-5.07062E-02-7.44334E-08 1.84039E-01-1.89810E-07-2.57993E-09-4.09760E-03
 -1      9032-4.91035E-02 2.33936E-08 1.82435E-01 4.32138E-06-7.54596E-08 4.04159E-03
 -1      9034-4.91035E-02 2.33936E-08 1.82435E-01 4.32138E-06 7.54596E-08-4.04159E-03
 -1      9035-5.22564E-02-1.59268E-08 1.85588E-01-4.52202E-06 7.89300E-08 4.15167E-03
 -1      9037-5.22564E-02-1.59268E-08 1.85588E-01-4.52202E-06-7.89300E-08-4.15167E-03
 -1      9038-3.93370E-02 3.36507E-08 1.72669E-01-1.62523E-07 2.25899E-09 3.70067E-03
 -1      9040-3.93370E-02 3.36507E-08 1.72669E-01-1.62523E-07-2.25899E-09-3.70067E-03
 -1      9041-3.79872E-02 5.08668E-08 1.71320E-01 3.41007E-06-5.95246E-08 3.65352E-03
 -1      9043-3.79872E-02 5.08668E-08 1.71320E-01 3.41007E-06 5.95246E-08-3.65352E-03
 -1      9044-4.05932E-02-5.22104E-08 1.73925E-01-3.48851E-06 6.09111E-08 3.74449E-03
 -1      9046-4.05932E-02-5.22104E-08 1.73925E-01-3.48851E-06-6.09111E-08-3.74449E-03
 -1      9047-2.94574E-02 3.75053E-08 1.62789E-01-1.59078E-07 2.27960E-09 3.35575E-03
 -1      9049-2.94574E-02 3.75053E-08 1.62789E-01-1.59078E-07-2.27960E-09-3.35575E-03
 -1      9050-2.83069E-02 5.38819E-08 1.61639E-01 2.74104E-06-4.78490E-08 3.31556E-03
 -1      9052-2.83069E-02 5.38819E-08 1.61639E-01 2.74104E-06 4.78490E-08-3.31556E-03
 -1      9053-3.05572E-02-5.46872E-08 1.63889E-01-2.89293E-06 5.05137E-08 3.39412E-03
 -1      9055-3.05572E-02-5.46872E-08 1.63889E-01-2.89293E-06-5.05137E-08-3.39412E-03
 -1      9056-2.09733E-02-4.14142E-08 1.54305E-01-7.34489E-08 8.03473E-10 3.05957E-03
 -1      9058-2.09733E-02-4.14142E-08 1.54305E-01-7.34489E-08-8.03473E-10-3.05957E-03
 -1      9059-1.99456E-02 8.27401E-08 1.53278E-01 2.38806E-06-4.17055E-08 3.02366E-03
 -1      9061-1.99456E-02 8.27401E-08 1.53278E-01 2.38806E-06 4.17055E-08-3.02366E-03
 -1      9062-2.19804E-02-3.93396E-08 1.55312E-01-2.47580E-06 4.32053E-08 3.09469E-03
 -1      9064-2.19804E-02-3.93396E-08 1.55312E-01-2.47580E-06-4.32053E-08-3.09469E-03
 -1      9065-1.35637E-02-9.02957E-08 1.46896E-01 1.59175E-08-6.83209E-10 2.80088E-03
 -1      9067-1.35637E-02-9.02957E-08 1.46896E-01 1.59175E-08 6.83209E-10-2.80088E-03
 -1      9068-1.27219E-02-1.09705E-07 1.46054E-01 2.02656E-06-3.53745E-08 2.77147E-03
 -1      9070-1.27219E-02-1.09705E-07 1.46054E-01 2.02656E-06 3.53745E-08-2.77147E-03
 -1      9071-1.44380E-02 6.55693E-08 1.47770E-01-2.10923E-06 3.68241E-08 2.83138E-03
 -1      9073-1.44380E-02 6.55693E-08 1.47770E-01-2.10923E-06-3.68241E-08-2.83138E-03
 -1      9074-6.99810E-03 2.88870E-07 1.40330E-01-1.40007E-07 2.12679E-09 2.57166E-03
 -1      9076-6.99810E-03 2.88870E-07 1.40330E-01-1.40007E-07-2.12679E-09-2.57166E-03
 -1      9077-6.20420E-03 5.95599E-08 1.39537E-01 1.87395E-06-3.26895E-08 2.54394E-03
 -1      9079-6.20420E-03 5.95599E-08 1.39537E-01 1.87395E-06 3.26895E-08-2.54394E-03
 -1      9080-7.71377E-03-2.97056E-08 1.41046E-01-1.74196E-06 3.04345E-08 2.59665E-03
 -1      9082-7.71377E-03-2.97056E-08 1.41046E-01-1.74196E-06-3.04345E-08-2.59665E-03
 -1      9083-1.85651E-03-9.90176E-07 1.35190E-01 2.45091E-08-5.32709E-10 2.39223E-03
 -1      9085-1.85651E-03-9.90176E-07 1.35190E-01 2.45091E-08 5.32709E-10-2.39223E-03
 -1      9086 2.88168E-05 1.91671E-06 1.33310E-01 7.04956E-08-1.23041E-09 2.32645E-03
 -1      9088 2.88168E-05 1.91671E-06 1.33310E-01 7.04956E-08 1.23041E-09-2.32645E-03
 -1      9089-1.21775E-03-9.86627E-07 1.34546E-01 5.57960E-07-9.75155E-09 2.36981E-03
 -1      9091-1.21775E-03-9.86627E-07 1.34546E-01 5.57960E-07 9.75155E-09-2.36981E-03
 -1      9092-1.21833E-03-1.00263E-06 1.34546E-01-5.36337E-07 9.39437E-09 2.36982E-03
 -1      9094-1.21833E-03-1.00263E-06 1.34546E-01-5.36337E-07-9.39437E-09-2.36982E-03
 -1      9095 2.78195E-05 1.89662E-06 1.33311E-01-5.77197E-08 1.00738E-09 2.32648E-03
 -1      9097 2.78195E-05 1.89662E-06 1.33311E-01-5.77197E-08-1.00738E-09-2.32648E-03
 -1      9098-1.15537E-03-9.56788E-07 1.34484E-01 6.89535E-07-1.20380E-08 2.36763E-03
 -1      9100-1.15537E-03-9.56788E-07 1.34484E-01 6.89535E-07 1.20380E-08-2.36763E-03
 -1      9101-1.15551E-03-9.57617E-07 1.34484E-01-6.66423E-07 1.16226E-08 2.36763E-03
 -1      9103-1.15551E-03-9.57617E-07 1.34484E-01-6.66423E-07-1.16226E-08-2.36763E-03
 -1      9104 2.77487E-05 1.85055E-06 1.33311E-01 2.78690E-08-4.86408E-10 2.32648E-03
 -1      9106 2.77487E-05 1.85055E-06 1.33311E-01 2.78690E-08 4.86408E-10-2.32648E-03
 -1      9107-1.15441E-03-9.44078E-07 1.34483E-01 6.60330E-07-1.15237E-08 2.36759E-03
 -1      9109-1.15441E-03-9.44078E-07 1.34483E-01 6.60330E-07 1.15237E-08-2.36759E-03
 -1      9110-1.15452E-03-9.12830E-07 1.34483E-01-6.76946E-07 1.18179E-08 2.36760E-03
 -1      9112-1.15452E-03-9.12830E-07 1.34483E-01-6.76946E-07-1.18179E-08-2.36760E-03
 -1      9113 2.79747E-05 1.88343E-06 1.33311E-01 1.32952E-08-2.32046E-10 2.32648E-03
 -1      9115 2.79747E-05 1.88343E-06 1.33311E-01 1.32952E-08 2.32046E-10-2.32648E-03
 -1      9116-1.16493E-03-9.40621E-07 1.34494E-01 6.70198E-07-1.16978E-08 2.36796E-03
 -1      9118-1.16493E-03-9.40621E-07 1.34494E-01 6.70198E-07 1.16978E-08-2.36796E-03
 -1      9119-1.16497E-03-9.36155E-07 1.34494E-01-6.74340E-07 1.17720E-08 2.36796E-03
 -1      9121-1.16497E-03-9.36155E-07 1.34494E-01-6.74340E-07-1.17720E-08-2.36796E-03
 -1      9122 2.80131E-05 1.89191E-06 1.33311E-01-3.21492E-09 5.61115E-11 2.32648E-03
 -1      9124 2.80131E-05 1.89191E-06 1.33311E-01-3.21492E-09-5.61115E-11-2.32648E-03
 -1      9125-1.16582E-03-9.40356E-07 1.34494E-01 6.72522E-07-1.17393E-08 2.36799E-03
 -1      9127-1.16582E-03-9.40356E-07 1.34494E-01 6.72522E-07 1.17393E-08-2.36799E-03
 -1      9128-1.16583E-03-9.44810E-07 1.34494E-01-6.72947E-07 1.17461E-08 2.36799E-03
 -1      9130-1.16583E-03-9.44810E-07 1.34494E-01-6.72947E-07-1.17461E-08-2.36799E-03
 -1      9131 2.79727E-05 1.88520E-06 1.33311E-01-3.37202E-09 5.88530E-11 2.32648E-03
 -1      9133 2.79727E-05 1.88520E-06 1.33311E-01-3.37202E-09-5.88531E-11-2.32648E-03
 -1      9134-1.16347E-03-9.39527E-07 1.34492E-01 6.71892E-07-1.17280E-08 2.36791E-03
 -1      9136-1.16347E-03-9.39527E-07 1.34492E-01 6.71892E-07 1.17280E-08-2.36791E-03
 -1      9137-1.16347E-03-9.41943E-07 1.34492E-01-6.70662E-07 1.17060E-08 2.36791E-03
 -1      9139-1.16347E-03-9.41943E-07 1.34492E-01-6.70662E-07-1.17060E-08-2.36791E-03
 -1      9140 2.79525E-05 1.88333E-06 1.33311E-01-2.35395E-09 4.10840E-11 2.32648E-03
 -1      9142 2.79525E-05 1.88333E-06 1.33311E-01-2.35395E-09-4.10840E-11-2.32648E-03
 -1      9143-1.16274E-03-9.34209E-07 1.34491E-01 6.71252E-07-1.17170E-08 2.36788E-03
 -1      9145-1.16274E-03-9.34209E-07 1.34491E-01 6.71252E-07 1.17170E-08-2.36788E-03
 -1      9146-1.16273E-03-9.35995E-07 1.34491E-01-6.68648E-07 1.16712E-08 2.36788E-03
 -1      9148-1.16273E-03-9.35995E-07 1.34491E-01-6.68648E-07-1.16712E-08-2.36788E-03
 -1      9149 2.78763E-05 1.87532E-06 1.33311E-01-1.28471E-08 2.24225E-10 2.32648E-03
 -1      9151 2.78763E-05 1.87532E-06 1.33311E-01-1.28471E-08-2.24225E-10-2.32648E-03
 -1      9152-1.15910E-03-9.20335E-07 1.34488E-01 6.69139E-07-1.16811E-08 2.36776E-03
 -1      9154-1.15910E-03-9.20335E-07 1.34488E-01 6.69139E-07 1.16811E-08-2.36776E-03
 -1      9155-1.15909E-03-9.29846E-07 1.34488E-01-6.64479E-07 1.15976E-08 2.36776E-03
 -1      9157-1.15909E-03-9.29846E-07 1.34488E-01-6.64479E-07-1.15976E-08-2.36776E-03
 -1      9158 2.77598E-05 1.86863E-06 1.33311E-01 6.18044E-12-1.04961E-13 2.32648E-03
 -1      9160 2.77598E-05 1.86863E-06 1.33311E-01 6.17913E-12 1.05029E-13-2.32648E-03
 -1      9161-1.15203E-03-9.19562E-07 1.34481E-01 6.64638E-07-1.16003E-08 2.36751E-03
 -1      9163-1.15203E-03-9.19562E-07 1.34481E-01 6.64638E-07 1.16003E-08-2.36751E-03
 -1      9164-1.15204E-03-9.27630E-07 1.34481E-01-6.64798E-07 1.16029E-08 2.36751E-03
 -1      9166-1.15204E-03-9.27630E-07 1.34481E-01-6.64798E-07-1.16029E-08-2.36751E-03
 -1      9167 2.81686E-05 1.90727E-06 1.33311E-01 7.96732E-08-1.39055E-09 2.32647E-03
 -1      9169 2.81686E-05 1.90727E-06 1.33311E-01 7.96732E-08 1.39055E-09-2.32647E-03
 -1      9170-1.16884E-03-9.97355E-07 1.34497E-01 6.34083E-07-1.10598E-08 2.36810E-03
 -1      9172-1.16884E-03-9.97355E-07 1.34497E-01 6.34083E-07 1.10598E-08-2.36810E-03
 -1      9173-1.16899E-03-9.39749E-07 1.34498E-01-7.02292E-07 1.22633E-08 2.36810E-03
 -1      9175-1.16899E-03-9.39749E-07 1.34498E-01-7.02292E-07-1.22633E-08-2.36810E-03
 -1      9176 2.80211E-05 1.68648E-06 1.33311E-01-2.75845E-07 4.81437E-09 2.32647E-03
 -1      9178 2.80211E-05 1.68648E-06 1.33311E-01-2.75845E-07-4.81437E-09-2.32647E-03
 -1      9179-1.17713E-03-8.59558E-07 1.34506E-01 6.51985E-07-1.14198E-08 2.36839E-03
 -1      9181-1.17713E-03-8.59558E-07 1.34506E-01 6.51985E-07 1.14198E-08-2.36839E-03
 -1      9182-1.17706E-03-8.81789E-07 1.34506E-01-5.51130E-07 9.61456E-09 2.36838E-03
 -1      9184-1.17706E-03-8.81789E-07 1.34506E-01-5.51130E-07-9.61456E-09-2.36838E-03
 -1      9185-8.59482E-01 4.02977E-04 9.94260E-01-2.88588E-06 5.03799E-08 3.23612E-02
 -1      9187-8.59482E-01 4.02977E-04 9.94260E-01-2.88588E-06-5.03799E-08-3.23612E-02
 -1      9188-8.65193E-01 3.39788E-04 9.99741E-01 7.71527E-05-1.34676E-06 3.25563E-02
 -1      9190-8.65193E-01 3.39788E-04 9.99741E-01 7.71527E-05 1.34676E-06-3.25563E-02
 -1      9191-8.56470E-01 4.20720E-04 9.90730E-01-2.05572E-05 3.60510E-07 3.22466E-02
 -1      9193-8.56470E-01 4.20720E-04 9.90730E-01-2.05572E-05-3.60510E-07-3.22466E-02
 -1      9194-8.59372E-01 4.05292E-04 9.94152E-01 3.56966E-07-6.23641E-09 3.23574E-02
 -1      9196-8.59372E-01 4.05292E-04 9.94152E-01 3.56966E-07 6.23641E-09-3.23574E-02
 -1      9197-8.60099E-01 4.01128E-04 9.94868E-01-6.06650E-06 1.05909E-07 3.23826E-02
 -1      9199-8.60099E-01 4.01128E-04 9.94868E-01-6.06650E-06-1.05909E-07-3.23826E-02
 -1      9200-8.62189E-01 3.91739E-04 9.96918E-01-6.40669E-06 1.11851E-07 3.24547E-02
 -1      9202-8.62189E-01 3.91739E-04 9.96918E-01-6.40669E-06-1.11851E-07-3.24547E-02
 -1      9203-8.63572E-01 3.84241E-04 9.98273E-01-2.15977E-06 3.77071E-08 3.25024E-02
 -1      9205-8.63572E-01 3.84241E-04 9.98273E-01-2.15977E-06-3.77071E-08-3.25024E-02
 -1      9206-8.63871E-01 3.81954E-04 9.98567E-01 1.46100E-07-2.55035E-09 3.25128E-02
 -1      9208-8.63871E-01 3.81954E-04 9.98567E-01 1.46100E-07 2.55035E-09-3.25128E-02
 -1      9209-8.63805E-01 3.82161E-04 9.98502E-01 2.19228E-07-3.82768E-09 3.25105E-02
 -1      9211-8.63805E-01 3.82161E-04 9.98502E-01 2.19228E-07 3.82768E-09-3.25105E-02
 -1      9212-8.63862E-01 3.81629E-04 9.98560E-01-8.03934E-07 1.40355E-08 3.25125E-02
 -1      9214-8.63862E-01 3.81629E-04 9.98560E-01-8.03934E-07-1.40355E-08-3.25125E-02
 -1      9215-8.64106E-01 3.82019E-04 9.98799E-01-9.89614E-07 1.72712E-08 3.25209E-02
 -1      9217-8.64106E-01 3.82019E-04 9.98799E-01-9.89614E-07-1.72712E-08-3.25209E-02
 -1      9218-8.62848E-01 3.89318E-04 9.97571E-01 7.95502E-06-1.38881E-07 3.24776E-02
 -1      9220-8.62848E-01 3.89318E-04 9.97571E-01 7.95502E-06 1.38881E-07-3.24776E-02
 -1      9221-8.59887E-01 4.18101E-04 9.94687E-01 1.10682E-05-1.93251E-07 3.23757E-02
 -1      9223-8.59887E-01 4.18101E-04 9.94687E-01 1.10682E-05 1.93251E-07-3.23757E-02
 -1      9224-4.81542E-01 2.61624E-06 6.14871E-01 2.03498E-06-3.54505E-08 1.91405E-02
 -1      9226-4.81542E-01 2.61624E-06 6.14871E-01 2.03498E-06 3.54505E-08-1.91405E-02
 -1      9227-6.24405E-01-4.47446E-06 7.57636E-01-2.17816E-05 3.81590E-07 2.41269E-02
 -1      9229-6.24405E-01-4.47446E-06 7.57636E-01-2.17816E-05-3.81590E-07-2.41269E-02
 -1      9230-2.97395E-01-1.95688E-07 4.30727E-01-7.29431E-07 1.27275E-08 1.27105E-02
 -1      9232-2.97395E-01-1.95688E-07 4.30727E-01-7.29431E-07-1.27275E-08-1.27105E-02
 -1      9233-2.38371E-01-9.81440E-08 3.71703E-01-1.38604E-07 2.41784E-09 1.06497E-02
 -1      9235-2.38371E-01-9.81440E-08 3.71703E-01-1.38604E-07-2.41784E-09-1.06497E-02
 -1      9236-1.92694E-01 5.18401E-08 3.26025E-01 3.09285E-07-5.39914E-09 9.05483E-03
 -1      9238-1.92694E-01 5.18401E-08 3.26025E-01 3.09285E-07 5.39914E-09-9.05483E-03
 -1      9239-1.56592E-01 1.21215E-08 2.89924E-01-2.39945E-07 4.18914E-09 7.79437E-03
 -1      9241-1.56592E-01 1.21215E-08 2.89924E-01-2.39945E-07-4.18914E-09-7.79437E-03
 -1      9242-1.27526E-01-2.78193E-08 2.60858E-01 5.78919E-08-1.01135E-09 6.77957E-03
 -1      9244-1.27526E-01-2.78193E-08 2.60858E-01 5.78919E-08 1.01135E-09-6.77957E-03
 -1      9245-1.03851E-01 9.84627E-09 2.37183E-01-1.68285E-07 2.93793E-09 5.95300E-03
 -1      9247-1.03851E-01 9.84627E-09 2.37183E-01-1.68285E-07-2.93793E-09-5.95300E-03
 -1      9248-8.41898E-02-2.85643E-08 2.17522E-01-3.45800E-09 5.98877E-11 5.26658E-03
 -1      9250-8.41898E-02-2.85643E-08 2.17522E-01-3.45800E-09-5.98876E-11-5.26658E-03
 -1      9251-6.77327E-02 4.11522E-09 2.01065E-01 8.88188E-08-1.55077E-09 4.69202E-03
 -1      9253-6.77327E-02 4.11522E-09 2.01065E-01 8.88188E-08 1.55077E-09-4.69202E-03
 -1      9254-5.38308E-02-1.28449E-09 1.87163E-01-8.86472E-08 1.54704E-09 4.20668E-03
 -1      9256-5.38308E-02-1.28449E-09 1.87163E-01-8.86472E-08-1.54704E-09-4.20668E-03
 -1      9257-4.19564E-02-1.45346E-08 1.75288E-01-3.76439E-08 6.56695E-10 3.79212E-03
 -1      9259-4.19564E-02-1.45346E-08 1.75288E-01-3.76439E-08-6.56695E-10-3.79212E-03
 -1      9260-3.17553E-02 1.69782E-08 1.65087E-01-6.35244E-09 1.11732E-10 3.43598E-03
 -1      9262-3.17553E-02 1.69782E-08 1.65087E-01-6.35244E-09-1.11732E-10-3.43598E-03
 -1      9263-2.29737E-02 3.42273E-08 1.56306E-01-7.67471E-08 1.34322E-09 3.12940E-03
 -1      9265-2.29737E-02 3.42273E-08 1.56306E-01-7.67471E-08-1.34322E-09-3.12940E-03
 -1      9266-1.53658E-02-1.74713E-07 1.48698E-01 9.24248E-08-1.62042E-09 2.86379E-03
 -1      9268-1.53658E-02-1.74713E-07 1.48698E-01 9.24248E-08 1.62042E-09-2.86379E-03
 -1      9269-8.54302E-03-1.81829E-07 1.41875E-01 9.16090E-08-1.59571E-09 2.62560E-03
 -1      9271-8.54302E-03-1.81829E-07 1.41875E-01 9.16090E-08 1.59571E-09-2.62560E-03
 -1      9272-2.37529E-03 1.48166E-06 1.35715E-01 7.45819E-07-1.30227E-08 2.41040E-03
 -1      9274-2.37529E-03 1.48166E-06 1.35715E-01 7.45819E-07 1.30227E-08-2.41040E-03
 -1      9275-2.36208E-03 2.22696E-06 1.35702E-01-1.08515E-07 1.89430E-09 2.40993E-03
 -1      9277-2.36208E-03 2.22696E-06 1.35702E-01-1.08515E-07-1.89430E-09-2.40993E-03
 -1      9278-2.32646E-03 2.09529E-06 1.35666E-01 3.48679E-08-6.08657E-10 2.40868E-03
 -1      9280-2.32646E-03 2.09529E-06 1.35666E-01 3.48679E-08 6.08657E-10-2.40868E-03
 -1      9281-2.34883E-03 2.13853E-06 1.35688E-01 1.90215E-08-3.32069E-10 2.40947E-03
 -1      9283-2.34883E-03 2.13853E-06 1.35688E-01 1.90215E-08 3.32069E-10-2.40947E-03
 -1      9284-2.35503E-03 2.14984E-06 1.35695E-01-4.79608E-09 8.37146E-11 2.40969E-03
 -1      9286-2.35503E-03 2.14984E-06 1.35695E-01-4.79608E-09-8.37146E-11-2.40969E-03
 -1      9287-2.35098E-03 2.14290E-06 1.35691E-01-5.11578E-09 8.93055E-11 2.40954E-03
 -1      9289-2.35098E-03 2.14290E-06 1.35691E-01-5.11578E-09-8.93054E-11-2.40954E-03
 -1      9290-2.34856E-03 2.13765E-06 1.35688E-01 1.80730E-09-3.15419E-11 2.40946E-03
 -1      9292-2.34856E-03 2.13765E-06 1.35688E-01 1.80730E-09 3.15419E-11-2.40946E-03
 -1      9293-2.34369E-03 2.12529E-06 1.35683E-01-1.05348E-08 1.83915E-10 2.40929E-03
 -1      9295-2.34369E-03 2.12529E-06 1.35683E-01-1.05348E-08-1.83915E-10-2.40929E-03
 -1      9296-2.33033E-03 2.09502E-06 1.35670E-01-1.92872E-08 3.36685E-10 2.40882E-03
 -1      9298-2.33033E-03 2.09502E-06 1.35670E-01-1.92872E-08-3.36685E-10-2.40882E-03
 -1      9299-2.34664E-03 2.15399E-06 1.35686E-01 5.27304E-08-9.20496E-10 2.40939E-03
 -1      9301-2.34664E-03 2.15399E-06 1.35686E-01 5.27304E-08 9.20496E-10-2.40939E-03
 -1      9302-2.39222E-03 2.10885E-06 1.35732E-01-2.74371E-08 4.79385E-10 2.41099E-03
 -1      9304-2.39222E-03 2.10885E-06 1.35732E-01-2.74371E-08-4.79385E-10-2.41099E-03
 -1      9305-8.60529E-01 3.81704E-04 9.95270E-01 1.53263E-05-2.67566E-07 3.23971E-02
 -1      9307-8.60529E-01 3.81704E-04 9.95270E-01 1.53263E-05 2.67566E-07-3.23971E-02
 -1      9308-8.61109E-01 3.96456E-04 9.95858E-01-7.58599E-06 1.32439E-07 3.24174E-02
 -1      9310-8.61109E-01 3.96456E-04 9.95858E-01-7.58599E-06-1.32439E-07-3.24174E-02
 -1      9311-8.63040E-01 3.87568E-04 9.97752E-01-4.16073E-06 7.26411E-08 3.24841E-02
 -1      9313-8.63040E-01 3.87568E-04 9.97752E-01-4.16073E-06-7.26411E-08-3.24841E-02
 -1      9314-8.63818E-01 3.82616E-04 9.98514E-01-6.35500E-07 1.10956E-08 3.25109E-02
 -1      9316-8.63818E-01 3.82616E-04 9.98514E-01-6.35500E-07-1.10956E-08-3.25109E-02
 -1      9317-8.63846E-01 3.82037E-04 9.98542E-01 2.28212E-07-3.98418E-09 3.25119E-02
 -1      9319-8.63846E-01 3.82037E-04 9.98542E-01 2.28212E-07 3.98418E-09-3.25119E-02
 -1      9320-8.63789E-01 3.82250E-04 9.98488E-01-4.75254E-08 8.29933E-10 3.25100E-02
 -1      9322-8.63789E-01 3.82250E-04 9.98488E-01-4.75254E-08-8.29933E-10-3.25100E-02
 -1      9323-8.64021E-01 3.81041E-04 9.98715E-01-1.56766E-06 2.73664E-08 3.25179E-02
 -1      9325-8.64021E-01 3.81041E-04 9.98715E-01-1.56766E-06-2.73664E-08-3.25179E-02
 -1      9326-8.63778E-01 3.85229E-04 9.98477E-01 3.12182E-06-5.45074E-08 3.25096E-02
 -1      9328-8.63778E-01 3.85229E-04 9.98477E-01 3.12182E-06 5.45074E-08-3.25096E-02
 -1      9329-8.61578E-01 3.96756E-04 9.96328E-01 7.47325E-06-1.30478E-07 3.24338E-02
 -1      9331-8.61578E-01 3.96756E-04 9.96328E-01 7.47325E-06 1.30478E-07-3.24338E-02
 -1      9332-8.57630E-01 4.28399E-04 9.92521E-01 1.22206E-05-2.13378E-07 3.22986E-02
 -1      9334-8.57630E-01 4.28399E-04 9.92521E-01 1.22206E-05 2.13378E-07-3.22986E-02
 -1      9335-2.14167E-01 5.65648E-08 3.47498E-01-4.86707E-07 8.49716E-09 9.80456E-03
 -1      9337-2.14167E-01 5.65648E-08 3.47498E-01-4.86707E-07-8.49716E-09-9.80456E-03
 -1      9338-1.73628E-01-6.58143E-08 3.06960E-01-7.72986E-10 1.26385E-11 8.38917E-03
 -1      9340-1.73628E-01-6.58143E-08 3.06960E-01-7.72987E-10-1.26385E-11-8.38917E-03
 -1      9341-1.41278E-01 1.69204E-08 2.74610E-01 2.51355E-07-4.38819E-09 7.25970E-03
 -1      9343-1.41278E-01 1.69204E-08 2.74610E-01 2.51355E-07 4.38819E-09-7.25970E-03
 -1      9344-1.15128E-01-1.93664E-08 2.48460E-01-4.90596E-08 8.55786E-10 6.34671E-03
 -1      9346-1.15128E-01-1.93664E-08 2.48460E-01-4.90596E-08-8.55786E-10-6.34671E-03
 -1      9347-9.35609E-02 1.11130E-08 2.26893E-01 1.22217E-07-2.13357E-09 5.59375E-03
 -1      9349-9.35609E-02 1.11130E-08 2.26893E-01 1.22217E-07 2.13357E-09-5.59375E-03
 -1      9350-7.56155E-02 2.97919E-09 2.08948E-01-1.06155E-07 1.85318E-09 4.96723E-03
 -1      9352-7.56155E-02 2.97919E-09 2.08948E-01-1.06155E-07-1.85318E-09-4.96723E-03
 -1      9353-6.04994E-02-2.40738E-08 1.93831E-01-8.29291E-09 1.44128E-10 4.43949E-03
 -1      9355-6.04994E-02-2.40738E-08 1.93831E-01-8.29291E-09-1.44128E-10-4.43949E-03
 -1      9356-4.76578E-02 5.20517E-09 1.80990E-01 3.77088E-08-6.58483E-10 3.99117E-03
 -1      9358-4.76578E-02 5.20517E-09 1.80990E-01 3.77088E-08 6.58483E-10-3.99117E-03
 -1      9359-3.66715E-02 6.22297E-09 1.70003E-01-1.01264E-07 1.76778E-09 3.60761E-03
 -1      9361-3.66715E-02 6.22298E-09 1.70003E-01-1.01264E-07-1.76778E-09-3.60761E-03
 -1      9362-2.71995E-02 1.27188E-08 1.60532E-01-5.97082E-08 1.04403E-09 3.27693E-03
 -1      9364-2.71995E-02 1.27188E-08 1.60532E-01-5.97082E-08-1.04403E-09-3.27693E-03
 -1      9365-1.90425E-02 1.97270E-08 1.52374E-01 5.34129E-08-9.28704E-10 2.99215E-03
 -1      9367-1.90425E-02 1.97270E-08 1.52374E-01 5.34128E-08 9.28704E-10-2.99215E-03
 -1      9368-1.18799E-02-2.02912E-07 1.45212E-01 9.46729E-08-1.65914E-09 2.74210E-03
 -1      9370-1.18799E-02-2.02912E-07 1.45212E-01 9.46729E-08 1.65914E-09-2.74210E-03
 -1      9371-5.33874E-03 1.38768E-07 1.38670E-01-3.73749E-08 6.73608E-10 2.51374E-03
 -1      9373-5.33874E-03 1.38768E-07 1.38670E-01-3.73749E-08-6.73608E-10-2.51374E-03
 -1      9374-2.32757E-03 2.11545E-06 1.35667E-01-7.73695E-09 1.35138E-10 2.40872E-03
 -1      9376-2.32757E-03 2.11545E-06 1.35667E-01-7.73694E-09-1.35138E-10-2.40872E-03
 -1      9377-2.33828E-03 2.11267E-06 1.35678E-01 3.07186E-08-5.36273E-10 2.40910E-03
 -1      9379-2.33828E-03 2.11267E-06 1.35678E-01 3.07186E-08 5.36273E-10-2.40910E-03
 -1      9380-2.35413E-03 2.14958E-06 1.35694E-01 5.34587E-09-9.33269E-11 2.40965E-03
 -1      9382-2.35413E-03 2.14958E-06 1.35694E-01 5.34587E-09 9.33269E-11-2.40965E-03
 -1      9383-2.35333E-03 2.14644E-06 1.35693E-01-8.65664E-09 1.51113E-10 2.40963E-03
 -1      9385-2.35333E-03 2.14644E-06 1.35693E-01-8.65664E-09-1.51113E-10-2.40963E-03
 -1      9386-2.34930E-03 2.13844E-06 1.35689E-01-9.29681E-10 1.62387E-11 2.40948E-03
 -1      9388-2.34930E-03 2.13844E-06 1.35689E-01-9.29680E-10-1.62386E-11-2.40948E-03
 -1      9389-2.34735E-03 2.13251E-06 1.35687E-01-1.35593E-09 2.36871E-11 2.40942E-03
 -1      9391-2.34735E-03 2.13251E-06 1.35687E-01-1.35593E-09-2.36872E-11-2.40942E-03
 -1      9392-2.33739E-03 2.11164E-06 1.35677E-01-1.96741E-08 3.43449E-10 2.40907E-03
 -1      9394-2.33739E-03 2.11164E-06 1.35677E-01-1.96741E-08-3.43449E-10-2.40907E-03
 -1      9395-2.32960E-03 2.09708E-06 1.35669E-01-2.58543E-09 4.50882E-11 2.40879E-03
 -1      9397-2.32960E-03 2.09708E-06 1.35669E-01-2.58543E-09-4.50882E-11-2.40879E-03
 -1      9398-2.38456E-03 2.23690E-06 1.35724E-01 1.31840E-07-2.30141E-09 2.41072E-03
 -1      9400-2.38456E-03 2.23690E-06 1.35724E-01 1.31840E-07 2.30141E-09-2.41072E-03
 -1      9401-2.26380E-03 1.82276E-06 1.35603E-01-5.90667E-07 1.03132E-08 2.40649E-03
 -1      9403-2.26380E-03 1.82276E-06 1.35603E-01-5.90667E-07-1.03132E-08-2.40649E-03
 -1      9404-5.48723E-01-5.94268E-06 6.82046E-01 3.52748E-06-6.16994E-08 2.14863E-02
 -1      9406-5.48723E-01-5.94268E-06 6.82046E-01 3.52748E-06 6.16994E-08-2.14863E-02
 -1      9407-4.24491E-01 3.03642E-06 5.57823E-01 2.76945E-07-4.78111E-09 1.71484E-02
 -1      9409-4.24491E-01 3.03642E-06 5.57823E-01 2.76945E-07 4.78111E-09-1.71484E-02
 -1      9410-2.65875E-01-9.79437E-09 3.99206E-01 3.92340E-07-6.85233E-09 1.16100E-02
 -1      9412-2.65875E-01-9.79437E-09 3.99206E-01 3.92340E-07 6.85233E-09-1.16100E-02
 -1      9413-2.42445E-03 2.37027E-06 1.35765E-01-2.39609E-07 4.18265E-09 2.41212E-03
 -1      9415-2.42445E-03 2.37027E-06 1.35765E-01-2.39609E-07-4.18265E-09-2.41212E-03
 -1      9416-8.20727E-01-1.47306E-04 9.53625E-01-7.77373E-05 1.35162E-06 3.09760E-02
 -1      9418-8.20727E-01-1.47306E-04 9.53625E-01-7.77373E-05-1.35162E-06-3.09760E-02
 -1      9419-8.06338E-01-1.88498E-04 9.39000E-01-5.27489E-06 9.22245E-08 3.04710E-02
 -1      9421-8.06338E-01-1.88498E-04 9.39000E-01-5.27489E-06-9.22245E-08-3.04710E-02
 -1      9422-8.05809E-01-1.94393E-04 9.38445E-01 1.56140E-05-2.72430E-07 3.04521E-02
 -1      9424-8.05809E-01-1.94393E-04 9.38445E-01 1.56140E-05 2.72430E-07-3.04521E-02
 -1      9425-8.04971E-01-1.92518E-04 9.37620E-01-6.37933E-06 1.11504E-07 3.04232E-02
 -1      9427-8.04971E-01-1.92518E-04 9.37620E-01-6.37933E-06-1.11504E-07-3.04232E-02
 -1      9428-8.04569E-01-1.92358E-04 9.37207E-01 1.40873E-05-2.45845E-07 3.04089E-02
 -1      9430-8.04569E-01-1.92358E-04 9.37207E-01 1.40873E-05 2.45845E-07-3.04089E-02
 -1      9431-7.49092E-01 3.38911E-04 8.83645E-01-1.14948E-05 2.00671E-07 2.85026E-02
 -1      9433-7.49092E-01 3.38911E-04 8.83645E-01-1.14948E-05-2.00671E-07-2.85026E-02
 -1      9434-8.08586E-01-1.73494E-04 9.41263E-01-5.63282E-05 9.83103E-07 3.05495E-02
 -1      9436-8.08586E-01-1.73494E-04 9.41263E-01-5.63282E-05-9.83103E-07-3.05495E-02
 -1      9437-8.11867E-01-5.92853E-05 9.44640E-01-3.08757E-05 5.36939E-07 3.06659E-02
 -1      9439-8.11867E-01-5.92853E-05 9.44640E-01-3.08757E-05-5.36939E-07-3.06659E-02
 -1      9440-8.08828E-01-1.85359E-04 9.41501E-01-6.98926E-06 1.22034E-07 3.05580E-02
 -1      9442-8.08828E-01-1.85359E-04 9.41501E-01-6.98926E-06-1.22034E-07-3.05580E-02
 -1      9443-8.08509E-01-1.89617E-04 9.41164E-01 1.32636E-05-2.31363E-07 3.05465E-02
 -1      9445-8.08509E-01-1.89617E-04 9.41164E-01 1.32636E-05 2.31363E-07-3.05465E-02
 -1      9446-8.09651E-01-1.84967E-04 9.42323E-01-9.67024E-06 1.68777E-07 3.05866E-02
 -1      9448-8.09651E-01-1.84967E-04 9.42323E-01-9.67024E-06-1.68777E-07-3.05866E-02
 -1      9449-8.09594E-01-1.85766E-04 9.42263E-01 1.05500E-05-1.84107E-07 3.05846E-02
 -1      9451-8.09594E-01-1.85766E-04 9.42263E-01 1.05500E-05 1.84107E-07-3.05846E-02
 -1      9452-8.09603E-01-1.85262E-04 9.42273E-01-1.04674E-05 1.82696E-07 3.05849E-02
 -1      9454-8.09603E-01-1.85262E-04 9.42273E-01-1.04674E-05-1.82696E-07-3.05849E-02
 -1      9455-8.09620E-01-1.85102E-04 9.42291E-01 9.84406E-06-1.71834E-07 3.05855E-02
 -1      9457-8.09620E-01-1.85102E-04 9.42291E-01 9.84406E-06 1.71834E-07-3.05855E-02
 -1      9458-8.09519E-01-1.85685E-04 9.42189E-01-1.02878E-05 1.79577E-07 3.05820E-02
 -1      9460-8.09519E-01-1.85685E-04 9.42189E-01-1.02878E-05-1.79577E-07-3.05820E-02
 -1      9461-8.09512E-01-1.85315E-04 9.42183E-01 1.01098E-05-1.76476E-07 3.05818E-02
 -1      9463-8.09512E-01-1.85315E-04 9.42183E-01 1.01098E-05 1.76476E-07-3.05818E-02
 -1      9464-8.09825E-01-1.84892E-04 9.42498E-01-9.29963E-06 1.62365E-07 3.05927E-02
 -1      9466-8.09825E-01-1.84892E-04 9.42498E-01-9.29963E-06-1.62365E-07-3.05927E-02
 -1      9467-8.09740E-01-1.84887E-04 9.42410E-01 1.14541E-05-1.99908E-07 3.05897E-02
 -1      9469-8.09740E-01-1.84887E-04 9.42410E-01 1.14541E-05 1.99908E-07-3.05897E-02
 -1      9470-8.09532E-01-1.91556E-04 9.42189E-01-1.41258E-05 2.46318E-07 3.05822E-02
 -1      9472-8.09532E-01-1.91556E-04 9.42189E-01-1.41258E-05-2.46318E-07-3.05822E-02
 -1      9473-8.09825E-01-1.83843E-04 9.42503E-01 6.91302E-06-1.20636E-07 3.05928E-02
 -1      9475-8.09825E-01-1.83843E-04 9.42503E-01 6.91302E-06 1.20636E-07-3.05928E-02
 -1      9476-8.06124E-01-1.95761E-04 9.38754E-01-1.69639E-05 2.95972E-07 3.04630E-02
 -1      9478-8.06124E-01-1.95761E-04 9.38754E-01-1.69639E-05-2.95972E-07-3.04630E-02
 -1      9479-8.06728E-01-1.81648E-04 9.39398E-01 5.78453E-06-1.01210E-07 3.04848E-02
 -1      9481-8.06728E-01-1.81648E-04 9.39398E-01 5.78453E-06 1.01210E-07-3.04848E-02
 -1      9482-8.00755E-01-2.09990E-04 9.33374E-01-3.76934E-05 6.58276E-07 3.02756E-02
 -1      9484-8.00755E-01-2.09990E-04 9.33374E-01-3.76934E-05-6.58276E-07-3.02756E-02
 -1      9485-8.01835E-01-1.78075E-04 9.34495E-01 3.95873E-06-6.95782E-08 3.03141E-02
 -1      9487-8.01835E-01-1.78075E-04 9.34495E-01 3.95873E-06 6.95782E-08-3.03141E-02
 -1      9488-7.43605E-01 2.62732E-04 8.78123E-01-1.74752E-05 3.04995E-07 2.83108E-02
 -1      9490-7.43605E-01 2.62732E-04 8.78123E-01-1.74752E-05-3.04995E-07-2.83108E-02
 -1      9491-4.66833E-01-1.05317E-05 6.00124E-01 8.72866E-05-1.52375E-06 1.86253E-02
 -1      9493-4.66833E-01-1.05317E-05 6.00124E-01 8.72866E-05 1.52375E-06-1.86253E-02
 -1      9494-4.97522E-01 1.77467E-05 6.30924E-01-9.90793E-05 1.72991E-06 1.96987E-02
 -1      9496-4.97522E-01 1.77467E-05 6.30924E-01-9.90793E-05-1.72991E-06-1.96987E-02
 -1      9497-2.08365E-01 6.08394E-08 3.41697E-01 2.37645E-05-4.14890E-07 9.60176E-03
 -1      9499-2.08365E-01 6.08393E-08 3.41697E-01 2.37645E-05 4.14890E-07-9.60176E-03
 -1      9500-2.19748E-01-4.83392E-08 3.53079E-01-2.56587E-05 4.47946E-07 9.99915E-03
 -1      9502-2.19748E-01-4.83392E-08 3.53079E-01-2.56587E-05-4.47946E-07-9.99915E-03
 -1      9503-3.64234E-01-7.60112E-07 4.97565E-01 5.90921E-05-1.03159E-06 1.50437E-02
 -1      9505-3.64234E-01-7.60112E-07 4.97565E-01 5.90921E-05 1.03159E-06-1.50437E-02
 -1      9506-3.86843E-01 9.71268E-07 5.20181E-01-6.67346E-05 1.16510E-06 1.58333E-02
 -1      9508-3.86843E-01 9.71268E-07 5.20181E-01-6.67346E-05-1.16510E-06-1.58333E-02
 -1      9509-2.88745E-01 7.19046E-07 4.22080E-01 4.03704E-05-7.04799E-07 1.24082E-02
 -1      9511-2.88745E-01 7.19046E-07 4.22080E-01 4.03704E-05 7.04799E-07-1.24082E-02
 -1      9512-3.05605E-01-6.52940E-07 4.38933E-01-4.39663E-05 7.67576E-07 1.29967E-02
 -1      9514-3.05605E-01-6.52940E-07 4.38933E-01-4.39663E-05-7.67576E-07-1.29967E-02
 -1      9515-4.11598E-01-5.56628E-06 5.44921E-01 7.12542E-05-1.24385E-06 1.66973E-02
 -1      9517-4.11598E-01-5.56628E-06 5.44921E-01 7.12542E-05 1.24385E-06-1.66973E-02
 -1      9518-4.37944E-01 8.35002E-06 5.71307E-01-8.25883E-05 1.44190E-06 1.76179E-02
 -1      9520-4.37944E-01 8.35002E-06 5.71307E-01-8.25883E-05-1.44190E-06-1.76179E-02
 -1      9521-4.53361E-01 8.18924E-06 5.86691E-01 2.49468E-06-4.33582E-08 1.81565E-02
 -1      9523-4.53361E-01 8.18924E-06 5.86691E-01 2.49468E-06 4.33582E-08-1.81565E-02
 -1      9524-3.99802E-01 1.10529E-07 5.33134E-01 1.60307E-06-2.79528E-08 1.62864E-02
 -1      9526-3.99802E-01 1.10529E-07 5.33134E-01 1.60307E-06 2.79528E-08-1.62864E-02
 -1      9527-6.14178E-01-4.26049E-05 7.47442E-01 1.51871E-04-2.64780E-06 2.37701E-02
 -1      9529-6.14178E-01-4.26049E-05 7.47442E-01 1.51871E-04 2.64780E-06-2.37701E-02
 -1      9530-6.52928E-01 1.17985E-04 7.86899E-01-8.15795E-05 1.42536E-06 2.51346E-02
 -1      9532-6.52928E-01 1.17985E-04 7.86899E-01-8.15795E-05-1.42536E-06-2.51346E-02
 -1      9533-3.23738E-01 8.86122E-07 4.57073E-01 4.84365E-05-8.45581E-07 1.36299E-02
 -1      9535-3.23738E-01 8.86122E-07 4.57073E-01 4.84365E-05 8.45581E-07-1.36299E-02
 -1      9536-3.43127E-01-1.66454E-07 4.76458E-01-5.33587E-05 9.31579E-07 1.43068E-02
 -1      9538-3.43127E-01-1.66454E-07 4.76458E-01-5.33587E-05-9.31579E-07-1.43068E-02
 -1      9539-3.53991E-01-9.85973E-07 4.87322E-01 3.12544E-07-5.46603E-09 1.46867E-02
 -1      9541-3.53991E-01-9.85973E-07 4.87322E-01 3.12544E-07 5.46603E-09-1.46867E-02
 -1      9542-3.14783E-01-6.61343E-07 4.48115E-01-2.99359E-07 5.21128E-09 1.33177E-02
 -1      9544-3.14783E-01-6.61343E-07 4.48115E-01-2.99359E-07-5.21128E-09-1.33177E-02
 -1      9545-3.70305E-03-1.13842E-06 1.37031E-01 1.92405E-07-3.37435E-09 2.45656E-03
 -1      9547-3.70305E-03-1.13842E-06 1.37031E-01 1.92405E-07 3.37435E-09-2.45656E-03
 -1      9548-3.73838E-03-1.23983E-06 1.37066E-01 1.82673E-07-3.21754E-09 2.45778E-03
 -1      9550-3.73838E-03-1.23983E-06 1.37066E-01 1.82673E-07 3.21754E-09-2.45778E-03
 -1      9551-1.69078E-01 8.07753E-08 3.02410E-01 1.72683E-05-3.01468E-07 8.23013E-03
 -1      9553-1.69078E-01 8.07753E-08 3.02410E-01 1.72683E-05 3.01468E-07-8.23013E-03
 -1      9554-1.78051E-01 1.27098E-07 3.11383E-01-1.86183E-05 3.25046E-07 8.54342E-03
 -1      9556-1.78051E-01 1.27098E-07 3.11383E-01-1.86183E-05-3.25046E-07-8.54342E-03
 -1      9557-1.37616E-01-4.02079E-08 2.70948E-01 1.30202E-05-2.27312E-07 7.13172E-03
 -1      9559-1.37616E-01-4.02079E-08 2.70948E-01 1.30202E-05 2.27312E-07-7.13172E-03
 -1      9560-1.44867E-01-2.49769E-08 2.78199E-01-1.40538E-05 2.45348E-07 7.38487E-03
 -1      9562-1.44867E-01-2.49769E-08 2.78199E-01-1.40538E-05-2.45348E-07-7.38487E-03
 -1      9563-1.12137E-01 9.65085E-08 2.45469E-01 9.90032E-06-1.72837E-07 6.24219E-03
 -1      9565-1.12137E-01 9.65085E-08 2.45469E-01 9.90032E-06 1.72837E-07-6.24219E-03
 -1      9566-1.18032E-01-2.17897E-09 2.51364E-01-1.05421E-05 1.84048E-07 6.44801E-03
 -1      9568-1.18032E-01-2.17897E-09 2.51364E-01-1.05421E-05-1.84048E-07-6.44801E-03
 -1      9569-9.10792E-02 1.65567E-08 2.24411E-01 7.78812E-06-1.35967E-07 5.50703E-03
 -1      9571-9.10792E-02 1.65567E-08 2.24411E-01 7.78812E-06 1.35967E-07-5.50703E-03
 -1      9572-9.59873E-02-5.37457E-08 2.29319E-01-8.30714E-06 1.45024E-07 5.67838E-03
 -1      9574-9.59873E-02-5.37457E-08 2.29319E-01-8.30714E-06-1.45024E-07-5.67838E-03
 -1      9575-7.35348E-02-1.88453E-08 2.06867E-01 6.19435E-06-1.08143E-07 4.89453E-03
 -1      9577-7.35348E-02-1.88453E-08 2.06867E-01 6.19435E-06 1.08143E-07-4.89453E-03
 -1      9578-7.76451E-02-3.71076E-09 2.10977E-01-6.52181E-06 1.13857E-07 5.03802E-03
 -1      9580-7.76451E-02-3.71076E-09 2.10977E-01-6.52181E-06-1.13857E-07-5.03802E-03
 -1      9581-5.87481E-02 2.69269E-08 1.92080E-01 4.91273E-06-8.57641E-08 4.37830E-03
 -1      9583-5.87481E-02 2.69269E-08 1.92080E-01 4.91273E-06 8.57641E-08-4.37830E-03
 -1      9584-6.22087E-02 2.54221E-08 1.95541E-01-5.17984E-06 9.04333E-08 4.49912E-03
 -1      9586-6.22087E-02 2.54221E-08 1.95541E-01-5.17984E-06-9.04333E-08-4.49912E-03
 -1      9587-4.61501E-02 2.97592E-08 1.79482E-01 4.01668E-06-7.01231E-08 3.93849E-03
 -1      9589-4.61501E-02 2.97592E-08 1.79482E-01 4.01668E-06 7.01231E-08-3.93849E-03
 -1      9590-4.91152E-02-4.77213E-08 1.82447E-01-4.23543E-06 7.39436E-08 4.04200E-03
 -1      9592-4.91152E-02-4.77213E-08 1.82447E-01-4.23543E-06-7.39436E-08-4.04200E-03
 -1      9593-3.53591E-02 7.56341E-08 1.68692E-01 3.28937E-06-5.74257E-08 3.56177E-03
 -1      9595-3.53591E-02 7.56341E-08 1.68692E-01 3.28937E-06 5.74257E-08-3.56177E-03
 -1      9596-3.79076E-02-7.68880E-08 1.71239E-01-3.40455E-06 5.94393E-08 3.65073E-03
 -1      9598-3.79076E-02-7.68880E-08 1.71239E-01-3.40455E-06-5.94393E-08-3.65073E-03
 -1      9599-2.60527E-02 1.95425E-07 1.59385E-01 2.64667E-06-4.62035E-08 3.23688E-03
 -1      9601-2.60527E-02 1.95425E-07 1.59385E-01 2.64667E-06 4.62035E-08-3.23688E-03
 -1      9602-2.82411E-02-1.45426E-07 1.61573E-01-2.74217E-06 4.78798E-08 3.31325E-03
 -1      9604-2.82411E-02-1.45426E-07 1.61573E-01-2.74217E-06-4.78798E-08-3.31325E-03
 -1      9605-1.80637E-02 2.12600E-07 1.51396E-01 2.10542E-06-3.67646E-08 2.95797E-03
 -1      9607-1.80637E-02 2.12600E-07 1.51396E-01 2.10542E-06 3.67646E-08-2.95797E-03
 -1      9608-1.99578E-02-2.27854E-07 1.53289E-01-2.21378E-06 3.86435E-08 3.02407E-03
 -1      9610-1.99578E-02-2.27854E-07 1.53289E-01-2.21378E-06-3.86435E-08-3.02407E-03
 -1      9611-1.11063E-02-4.59063E-07 1.44436E-01 1.80958E-06-3.16111E-08 2.71504E-03
 -1      9613-1.11063E-02-4.59063E-07 1.44436E-01 1.80958E-06 3.16111E-08-2.71504E-03
 -1      9614-1.28074E-02 4.10804E-07 1.46140E-01-2.03135E-06 3.54489E-08 2.77448E-03
 -1      9616-1.28074E-02 4.10804E-07 1.46140E-01-2.03135E-06-3.54489E-08-2.77448E-03
 -1      9617-4.52384E-03 1.66909E-07 1.37859E-01 1.37604E-06-2.40100E-08 2.48532E-03
 -1      9619-4.52384E-03 1.66909E-07 1.37859E-01 1.37604E-06 2.40100E-08-2.48532E-03
 -1      9620-6.09339E-03 2.93670E-07 1.39427E-01-1.76786E-06 3.09083E-08 2.54010E-03
 -1      9622-6.09339E-03 2.93670E-07 1.39427E-01-1.76786E-06-3.09083E-08-2.54010E-03
 -1      9623-3.55793E-03-1.18595E-06 1.36886E-01-2.00037E-08 3.55702E-10 2.45149E-03
 -1      9625-3.55793E-03-1.18595E-06 1.36886E-01-2.00037E-08-3.55702E-10-2.45149E-03
 -1      9626-3.56445E-03-1.18944E-06 1.36892E-01 1.58159E-08-2.82725E-10 2.45171E-03
 -1      9628-3.56445E-03-1.18944E-06 1.36892E-01 1.58159E-08 2.82725E-10-2.45171E-03
 -1      9629-3.03423E-03 1.48489E-07 1.36365E-01-2.54212E-06 4.42032E-08 2.43325E-03
 -1      9631-3.03423E-03 1.48489E-07 1.36365E-01-2.54212E-06-4.42032E-08-2.43325E-03
 -1      9632-3.59004E-03-1.15979E-06 1.36918E-01 5.83576E-08-1.01759E-09 2.45261E-03
 -1      9634-3.59004E-03-1.15979E-06 1.36918E-01 5.83576E-08 1.01759E-09-2.45261E-03
 -1      9635-3.61880E-03-1.28464E-06 1.36946E-01 6.67398E-08-1.18390E-09 2.45361E-03
 -1      9637-3.61880E-03-1.28464E-06 1.36946E-01 6.67398E-08 1.18390E-09-2.45361E-03
 -1      9638-4.81436E-03 2.39173E-06 1.38155E-01-6.04928E-08 1.05600E-09 2.49555E-03
 -1      9640-4.81436E-03 2.39173E-06 1.38155E-01-6.04928E-08-1.05600E-09-2.49555E-03
 -1      9641-7.63146E-01 2.25142E-04 8.97362E-01 7.56877E-05-1.32178E-06 2.89870E-02
 -1      9643-7.63146E-01 2.25142E-04 8.97362E-01 7.56877E-05 1.32178E-06-2.89870E-02
 -1      9644-3.59972E-03-1.19402E-06 1.36927E-01-4.87596E-08 8.51940E-10 2.45295E-03
 -1      9646-3.59972E-03-1.19402E-06 1.36927E-01-4.87596E-08-8.51940E-10-2.45295E-03
 -1      9647-3.59309E-03-1.18539E-06 1.36921E-01 1.13148E-08-1.93643E-10 2.45272E-03
 -1      9649-3.59309E-03-1.18539E-06 1.36921E-01 1.13148E-08 1.93643E-10-2.45272E-03
 -1      9650-3.61819E-03-1.19554E-06 1.36946E-01-3.60802E-08 6.29181E-10 2.45359E-03
 -1      9652-3.61819E-03-1.19554E-06 1.36946E-01-3.60802E-08-6.29181E-10-2.45359E-03
 -1      9653-3.61694E-03-1.20423E-06 1.36945E-01 3.05039E-08-5.31458E-10 2.45355E-03
 -1      9655-3.61694E-03-1.20423E-06 1.36945E-01 3.05039E-08 5.31458E-10-2.45355E-03
 -1      9656-3.61218E-03-1.19204E-06 1.36940E-01-2.72528E-08 4.74837E-10 2.45338E-03
 -1      9658-3.61218E-03-1.19204E-06 1.36940E-01-2.72528E-08-4.74837E-10-2.45338E-03
 -1      9659-3.61359E-03-1.20599E-06 1.36941E-01 3.64051E-08-6.36279E-10 2.45343E-03
 -1      9661-3.61359E-03-1.20599E-06 1.36941E-01 3.64051E-08 6.36279E-10-2.45343E-03
 -1      9662-3.60536E-03-1.19162E-06 1.36933E-01-2.91729E-08 5.09332E-10 2.45314E-03
 -1      9664-3.60536E-03-1.19162E-06 1.36933E-01-2.91729E-08-5.09332E-10-2.45314E-03
 -1      9665-3.60606E-03-1.19218E-06 1.36934E-01 3.26726E-08-5.70473E-10 2.45317E-03
 -1      9667-3.60606E-03-1.19218E-06 1.36934E-01 3.26726E-08 5.70473E-10-2.45317E-03
 -1      9668-3.60408E-03-1.18909E-06 1.36932E-01-2.74935E-08 4.79119E-10 2.45310E-03
 -1      9670-3.60408E-03-1.18909E-06 1.36932E-01-2.74935E-08-4.79119E-10-2.45310E-03
 -1      9671-3.60523E-03-1.18901E-06 1.36933E-01 3.48036E-08-6.06984E-10 2.45314E-03
 -1      9673-3.60523E-03-1.18901E-06 1.36933E-01 3.48036E-08 6.06984E-10-2.45314E-03
 -1      9674-3.58632E-03-1.16389E-06 1.36914E-01-1.94651E-08 3.37590E-10 2.45248E-03
 -1      9676-3.58632E-03-1.16389E-06 1.36914E-01-1.94651E-08-3.37590E-10-2.45248E-03
 -1      9677-3.59022E-03-1.19058E-06 1.36918E-01 4.08713E-08-7.14777E-10 2.45261E-03
 -1      9679-3.59022E-03-1.19058E-06 1.36918E-01 4.08713E-08 7.14778E-10-2.45261E-03
 -1      9680-3.56716E-03-1.15611E-06 1.36895E-01-2.20981E-08 3.87622E-10 2.45181E-03
 -1      9682-3.56716E-03-1.15611E-06 1.36895E-01-2.20981E-08-3.87622E-10-2.45181E-03
 -1      9683-3.56462E-03-1.18515E-06 1.36892E-01 2.46448E-08-4.33787E-10 2.45172E-03
 -1      9685-3.56462E-03-1.18515E-06 1.36892E-01 2.46448E-08 4.33787E-10-2.45172E-03
 -1      9686-3.66380E-03-1.29230E-06 1.36991E-01-1.57403E-07 2.76127E-09 2.45518E-03
 -1      9688-3.66380E-03-1.29230E-06 1.36991E-01-1.57403E-07-2.76127E-09-2.45518E-03
 -1      9689-3.63973E-03-1.16663E-06 1.36968E-01-8.17532E-08 1.43507E-09 2.45434E-03
 -1      9691-3.63973E-03-1.16663E-06 1.36968E-01-8.17532E-08-1.43507E-09-2.45434E-03
 -1      9692-3.49115E-03-5.71899E-07 1.36820E-01 2.80446E-07-4.96552E-09 2.44919E-03
 -1      9694-3.49115E-03-5.71899E-07 1.36820E-01 2.80446E-07 4.96552E-09-2.44919E-03
 -1      9695-3.60691E-03-1.21440E-06 1.36935E-01 6.13864E-07-1.07076E-08 2.45320E-03
 -1      9697-3.60691E-03-1.21440E-06 1.36935E-01 6.13864E-07 1.07076E-08-2.45320E-03
 -1      9698-5.31408E-01-1.23283E-05 6.64672E-01 1.16014E-04-2.02552E-06 2.08796E-02
 -1      9700-5.31408E-01-1.23283E-05 6.64672E-01 1.16014E-04 2.02552E-06-2.08796E-02
 -1      9701-5.67774E-01 2.12781E-05 7.01172E-01-1.61384E-04 2.81855E-06 2.21519E-02
 -1      9703-5.67774E-01 2.12781E-05 7.01172E-01-1.61384E-04-2.81855E-06-2.21519E-02
 -1      9704-5.95781E-01-6.53983E-05 7.29028E-01-8.32097E-06 1.44160E-07 2.31294E-02
 -1      9706-5.95781E-01-6.53983E-05 7.29028E-01-8.32097E-06-1.44160E-07-2.31294E-02
 -1      9707-5.15980E-01-4.49179E-06 6.49297E-01 4.43574E-06-7.72178E-08 2.03428E-02
 -1      9709-5.15980E-01-4.49179E-06 6.49297E-01 4.43574E-06 7.72178E-08-2.03428E-02
 -1      9710-8.04036E-01-1.96794E-04 9.36674E-01-8.60186E-06 1.50270E-07 3.03903E-02
 -1      9712-8.04036E-01-1.96794E-04 9.36674E-01-8.60186E-06-1.50270E-07-3.03903E-02
 -1      9713-8.03861E-01-1.90224E-04 9.36501E-01 1.12080E-05-1.95762E-07 3.03843E-02
 -1      9715-8.03861E-01-1.90224E-04 9.36501E-01 1.12080E-05 1.95762E-07-3.03843E-02
 -1      9716-7.47777E-01 3.44788E-04 8.82341E-01-6.02552E-06 1.05198E-07 2.84569E-02
 -1      9718-7.47777E-01 3.44788E-04 8.82341E-01-6.02552E-06-1.05198E-07-2.84569E-02
 -1      9719-3.11162E-03-8.06732E-07 1.36441E-01 7.69539E-07-1.34769E-08 2.43592E-03
 -1      9721-3.11162E-03-8.06732E-07 1.36441E-01 7.69539E-07 1.34769E-08-2.43592E-03
 -1      9722-7.17044E-01-1.11892E-04 8.49981E-01-9.45793E-05 1.64917E-06 2.73564E-02
 -1      9724-7.17044E-01-1.11892E-04 8.49981E-01-9.45793E-05-1.64917E-06-2.73564E-02
 -1      9725-8.04071E-01-2.02195E-04 9.36697E-01-8.78051E-06 1.53211E-07 3.03913E-02
 -1      9727-8.04071E-01-2.02195E-04 9.36697E-01-8.78051E-06-1.53211E-07-3.03913E-02
 -1      9728-8.04113E-01-1.85604E-04 9.36774E-01 9.98795E-06-1.74339E-07 3.03934E-02
 -1      9730-8.04113E-01-1.85604E-04 9.36774E-01 9.98795E-06 1.74339E-07-3.03934E-02
 -1      9731-7.47451E-01 3.35754E-04 8.82008E-01 3.79574E-06-6.62597E-08 2.84454E-02
 -1      9733-7.47451E-01 3.35754E-04 8.82008E-01 3.79574E-06 6.62597E-08-2.84454E-02
 -1      9734-6.64368E-01 8.89504E-05 7.98205E-01 1.00693E-04-1.75860E-06 2.55319E-02
 -1      9736-6.64368E-01 8.89504E-05 7.98205E-01 1.00693E-04 1.75860E-06-2.55319E-02
 -1      9737-6.20968E-01-4.16690E-05 7.54260E-01-1.32175E-04 2.30529E-06 2.40078E-02
 -1      9739-6.20968E-01-4.16690E-05 7.54260E-01-1.32175E-04-2.30529E-06-2.40078E-02
 -1      9740-7.02120E-01-7.60445E-05 8.35087E-01-3.26888E-05 5.67560E-07 2.68376E-02
 -1      9742-7.02120E-01-7.60445E-05 8.35087E-01-3.26888E-05-5.67560E-07-2.68376E-02
 -1      9743-5.74016E-01 1.57657E-05 7.07367E-01 1.41945E-04-2.47868E-06 2.23690E-02
 -1      9745-5.74016E-01 1.57657E-05 7.07367E-01 1.41945E-04 2.47868E-06-2.23690E-02
 -1      9746-5.36296E-01 2.50110E-06 6.69588E-01-1.07036E-04 1.86866E-06 2.10508E-02
 -1      9748-5.36296E-01 2.50110E-06 6.69588E-01-1.07036E-04-1.86866E-06-2.10508E-02
 -1      9749-6.02531E-01-4.65794E-05 7.35769E-01 1.94370E-05-3.38456E-07 2.33650E-02
 -1      9751-6.02531E-01-4.65794E-05 7.35769E-01 1.94370E-05 3.38456E-07-2.33650E-02
 -1      9752-5.01489E-01 1.30327E-05 6.34865E-01 9.99781E-05-1.74546E-06 1.98368E-02
 -1      9754-5.01489E-01 1.30327E-05 6.34865E-01 9.99781E-05 1.74546E-06-1.98368E-02
 -1      9755-4.70149E-01-9.64449E-06 6.03446E-01-8.34278E-05 1.45646E-06 1.87413E-02
 -1      9757-4.70149E-01-9.64449E-06 6.03446E-01-8.34278E-05-1.45646E-06-1.87413E-02
 -1      9758-5.21059E-01 6.38417E-07 6.54385E-01-7.72589E-07 1.35658E-08 2.05204E-02
 -1      9760-5.21059E-01 6.38417E-07 6.54385E-01-7.72589E-07-1.35658E-08-2.05204E-02
 -1      9761-4.41021E-01 9.47918E-06 5.74386E-01 7.97941E-05-1.39304E-06 1.77253E-02
 -1      9763-4.41021E-01 9.47918E-06 5.74386E-01 7.97941E-05 1.39304E-06-1.77253E-02
 -1      9764-4.14439E-01-9.05026E-06 5.47743E-01-6.85215E-05 1.19625E-06 1.67962E-02
 -1      9766-4.14439E-01-9.05026E-06 5.47743E-01-6.85215E-05-1.19625E-06-1.67962E-02
 -1      9767-4.57229E-01-9.94087E-07 5.90559E-01-4.81094E-06 8.40436E-08 1.82916E-02
 -1      9769-4.57229E-01-9.94087E-07 5.90559E-01-4.81094E-06-8.40436E-08-1.82916E-02
 -1      9770-3.89701E-01 6.76675E-06 5.23064E-01 6.54078E-05-1.14188E-06 1.59335E-02
 -1      9772-3.89701E-01 6.76675E-06 5.23064E-01 6.54078E-05 1.14188E-06-1.59335E-02
 -1      9773-3.67005E-01-7.08843E-06 5.00311E-01-5.51415E-05 9.62658E-07 1.51401E-02
 -1      9775-3.67005E-01-7.08843E-06 5.00311E-01-5.51415E-05-9.62658E-07-1.51401E-02
 -1      9776-4.03449E-01 4.15018E-07 5.36780E-01-3.77426E-06 6.59342E-08 1.64136E-02
 -1      9778-4.03449E-01 4.15018E-07 5.36780E-01-3.77426E-06-6.59342E-08-1.64136E-02
 -1      9779-3.45801E-01 6.72651E-06 4.79156E-01 5.30066E-05-9.25404E-07 1.44005E-02
 -1      9781-3.45801E-01 6.72651E-06 4.79156E-01 5.30066E-05 9.25404E-07-1.44005E-02
 -1      9782-3.26346E-01-5.47408E-06 4.59658E-01-4.54535E-05 7.93508E-07 1.37206E-02
 -1      9784-3.26346E-01-5.47408E-06 4.59658E-01-4.54535E-05-7.93508E-07-1.37206E-02
 -1      9785-3.57576E-01-4.49181E-07 4.90907E-01-2.81283E-06 4.91458E-08 1.48119E-02
 -1      9787-3.57576E-01-4.49181E-07 4.90907E-01-2.81283E-06-4.91458E-08-1.48119E-02
 -1      9788-3.08040E-01 4.90103E-06 4.41390E-01 4.39506E-05-7.67292E-07 1.30821E-02
 -1      9790-3.08040E-01 4.90103E-06 4.41390E-01 4.39506E-05 7.67292E-07-1.30821E-02
 -1      9791-2.91107E-01-4.93465E-06 4.24424E-01-3.83430E-05 6.69394E-07 1.24903E-02
 -1      9793-2.91107E-01-4.93465E-06 4.24424E-01-3.83430E-05-6.69394E-07-1.24903E-02
 -1      9794-3.18121E-01-1.79079E-07 4.51452E-01-2.34134E-06 4.09101E-08 1.34342E-02
 -1      9796-3.18121E-01-1.79079E-07 4.51452E-01-2.34134E-06-4.09101E-08-1.34342E-02
 -1      9797-2.75196E-01 3.54652E-06 4.08544E-01 3.68028E-05-6.42501E-07 1.19353E-02
 -1      9799-2.75196E-01 3.54652E-06 4.08544E-01 3.68028E-05 6.42501E-07-1.19353E-02
 -1      9800-2.60417E-01-3.82587E-06 3.93735E-01-3.15622E-05 5.51018E-07 1.14189E-02
 -1      9802-2.60417E-01-3.82587E-06 3.93735E-01-3.15622E-05-5.51018E-07-1.14189E-02
 -1      9803-2.83949E-01 2.09725E-07 4.17281E-01-1.83050E-06 3.19919E-08 1.22411E-02
 -1      9805-2.83949E-01 2.09725E-07 4.17281E-01-1.83050E-06-3.19919E-08-1.22411E-02
 -1      9806-2.46507E-01 3.72426E-06 3.79852E-01 3.04406E-05-5.31443E-07 1.09336E-02
 -1      9808-2.46507E-01 3.72426E-06 3.79852E-01 3.04406E-05 5.31443E-07-1.09336E-02
 -1      9809-2.33589E-01-3.07530E-06 3.66910E-01-2.64796E-05 4.62276E-07 1.04822E-02
 -1      9811-2.33589E-01-3.07530E-06 3.66910E-01-2.64796E-05-4.62276E-07-1.04822E-02
 -1      9812-2.54165E-01-1.79080E-07 3.87496E-01-1.42265E-06 2.48650E-08 1.12011E-02
 -1      9814-2.54165E-01-1.79080E-07 3.87496E-01-1.42265E-06-2.48650E-08-1.12011E-02
 -1      9815-2.21356E-01 2.84710E-06 3.54698E-01 2.57979E-05-4.50379E-07 1.00555E-02
 -1      9817-2.21356E-01 2.84710E-06 3.54698E-01 2.57979E-05 4.50379E-07-1.00555E-02
 -1      9818-2.09907E-01-2.93700E-06 3.43231E-01-2.27557E-05 3.97275E-07 9.65547E-03
 -1      9820-2.09907E-01-2.93700E-06 3.43231E-01-2.27557E-05-3.97275E-07-9.65547E-03
 -1      9821-2.28052E-01-3.80257E-08 3.61383E-01-1.24878E-06 2.18234E-08 1.02894E-02
 -1      9823-2.28052E-01-3.80257E-08 3.61383E-01-1.24878E-06-2.18234E-08-1.02894E-02
 -1      9824-1.99084E-01 2.15227E-06 3.32426E-01 2.20903E-05-3.85649E-07 9.27789E-03
 -1      9826-1.99084E-01 2.15227E-06 3.32426E-01 2.20903E-05 3.85649E-07-9.27789E-03
 -1      9827-1.88924E-01-2.37673E-06 3.22247E-01-1.91067E-05 3.33571E-07 8.92288E-03
 -1      9829-1.88924E-01-2.37673E-06 3.22247E-01-1.91067E-05-3.33571E-07-8.92288E-03
 -1      9830-2.05020E-01 1.65948E-07 3.38351E-01-1.03720E-06 1.81286E-08 9.48519E-03
 -1      9832-2.05020E-01 1.65948E-07 3.38351E-01-1.03720E-06-1.81286E-08-9.48519E-03
 -1      9833-1.79302E-01 2.32464E-06 3.12642E-01 1.86798E-05-3.26118E-07 8.58723E-03
 -1      9835-1.79302E-01 2.32464E-06 3.12642E-01 1.86798E-05 3.26118E-07-8.58723E-03
 -1      9836-1.70284E-01-1.97562E-06 3.03609E-01-1.63619E-05 2.85642E-07 8.27212E-03
 -1      9838-1.70284E-01-1.97562E-06 3.03609E-01-1.63619E-05-2.85642E-07-8.27212E-03
 -1      9839-1.84595E-01-9.15931E-08 3.17926E-01-8.57227E-07 1.49828E-08 8.77206E-03
 -1      9841-1.84595E-01-9.15931E-08 3.17926E-01-8.57227E-07-1.49828E-08-8.77206E-03
 -1      9842-1.61691E-01 1.83301E-06 2.95029E-01 1.61594E-05-2.82109E-07 7.97233E-03
 -1      9844-1.61691E-01 1.83301E-06 2.95029E-01 1.61594E-05 2.82109E-07-7.97233E-03
 -1      9845-1.53585E-01-1.92792E-06 2.86911E-01-1.43392E-05 2.50337E-07 7.68916E-03
 -1      9847-1.53585E-01-1.92792E-06 2.86911E-01-1.43392E-05-2.50337E-07-7.68916E-03
 -1      9848-1.66397E-01-2.24719E-08 2.99729E-01-7.88356E-07 1.37775E-08 8.13670E-03
 -1      9850-1.66397E-01-2.24719E-08 2.99729E-01-7.88356E-07-1.37775E-08-8.13670E-03
 -1      9851-1.45877E-01 1.42715E-06 2.79215E-01 1.40855E-05-2.45902E-07 7.42024E-03
 -1      9853-1.45877E-01 1.42715E-06 2.79215E-01 1.40855E-05 2.45902E-07-7.42024E-03
 -1      9854-1.38592E-01-1.59615E-06 2.71918E-01-1.22504E-05 2.13872E-07 7.16571E-03
 -1      9856-1.38592E-01-1.59615E-06 2.71918E-01-1.22504E-05-2.13872E-07-7.16571E-03
 -1      9857-1.50110E-01 1.02051E-07 2.83442E-01-6.76877E-07 1.18316E-08 7.56807E-03
 -1      9859-1.50110E-01 1.02051E-07 2.83442E-01-6.76877E-07-1.18316E-08-7.56807E-03
 -1      9860-1.31655E-01 1.55435E-06 2.64993E-01 1.20887E-05-2.11049E-07 6.92370E-03
 -1      9862-1.31655E-01 1.55435E-06 2.64993E-01 1.20887E-05 2.11049E-07-6.92370E-03
 -1      9863-1.25117E-01-1.36754E-06 2.58445E-01-1.06449E-05 1.85836E-07 6.69529E-03
 -1      9865-1.25117E-01-1.36754E-06 2.58445E-01-1.06449E-05-1.85836E-07-6.69529E-03
 -1      9866-1.35477E-01-6.46383E-08 2.68809E-01-5.71137E-07 9.98366E-09 7.05719E-03
 -1      9868-1.35477E-01-6.46383E-08 2.68809E-01-5.71137E-07-9.98366E-09-7.05719E-03
 -1      9869-1.18853E-01 1.19252E-06 2.52189E-01 1.05593E-05-1.84348E-07 6.47674E-03
 -1      9871-1.18853E-01 1.19252E-06 2.52189E-01 1.05593E-05 1.84348E-07-6.47674E-03
 -1      9872-1.12932E-01-1.09157E-06 2.46260E-01-9.36931E-06 1.63565E-07 6.26989E-03
 -1      9874-1.12932E-01-1.09157E-06 2.46260E-01-9.36931E-06-1.63565E-07-6.26989E-03
 -1      9875-1.22287E-01-3.79786E-09 2.55619E-01-5.07604E-07 8.87282E-09 6.59666E-03
 -1      9877-1.22287E-01-3.79785E-09 2.55619E-01-5.07604E-07-8.87282E-09-6.59666E-03
 -1      9878-1.07247E-01 9.94806E-07 2.40582E-01 9.35757E-06-1.63363E-07 6.07153E-03
 -1      9880-1.07247E-01 9.94806E-07 2.40582E-01 9.35757E-06 1.63363E-07-6.07153E-03
 -1      9881-1.01840E-01-1.08359E-06 2.35169E-01-8.40234E-06 1.46690E-07 5.88267E-03
 -1      9883-1.01840E-01-1.08359E-06 2.35169E-01-8.40234E-06-1.46690E-07-5.88267E-03
 -1      9884-1.10346E-01-9.99216E-09 2.43678E-01-4.40970E-07 7.70780E-09 6.17977E-03
 -1      9886-1.10346E-01-9.99216E-09 2.43678E-01-4.40970E-07-7.70780E-09-6.17977E-03
 -1      9887-9.66647E-02 7.88774E-07 2.30000E-01 8.32798E-06-1.45387E-07 5.70209E-03
 -1      9889-9.66647E-02 7.88774E-07 2.30000E-01 8.32798E-06 1.45387E-07-5.70209E-03
 -1      9890-9.17360E-02-9.01940E-07 2.25065E-01-7.32940E-06 1.27959E-07 5.52991E-03
 -1      9892-9.17360E-02-9.01940E-07 2.25065E-01-7.32940E-06-1.27959E-07-5.52991E-03
 -1      9893-9.94930E-02 6.74662E-08 2.32825E-01-3.79476E-07 6.63459E-09 5.80086E-03
 -1      9895-9.94930E-02 6.74662E-08 2.32825E-01-3.79476E-07-6.63459E-09-5.80086E-03
 -1      9896-8.70138E-02 8.80925E-07 2.20349E-01 7.29250E-06-1.27315E-07 5.36515E-03
 -1      9898-8.70138E-02 8.80925E-07 2.20349E-01 7.29250E-06 1.27315E-07-5.36515E-03
 -1      9899-8.25298E-02-7.65798E-07 2.15859E-01-6.49507E-06 1.13388E-07 5.20851E-03
 -1      9901-8.25298E-02-7.65798E-07 2.15859E-01-6.49507E-06-1.13388E-07-5.20851E-03
 -1      9902-8.96019E-02-2.87476E-08 2.22934E-01-3.26088E-07 5.70123E-09 5.45553E-03
 -1      9904-8.96019E-02-2.87476E-08 2.22934E-01-3.26088E-07-5.70123E-09-5.45553E-03
 -1      9905-7.82107E-02 7.12957E-07 2.11545E-01 6.51351E-06-1.13712E-07 5.05781E-03
 -1      9907-7.82107E-02 7.12957E-07 2.11545E-01 6.51351E-06 1.13712E-07-5.05781E-03
 -1      9908-7.40877E-02-7.68046E-07 2.07417E-01-5.87226E-06 1.02520E-07 4.91379E-03
 -1      9910-7.40877E-02-7.68046E-07 2.07417E-01-5.87226E-06-1.02520E-07-4.91379E-03
 -1      9911-8.05665E-02-4.33004E-09 2.13898E-01-3.07208E-07 5.37046E-09 5.14008E-03
 -1      9913-8.05665E-02-4.33004E-09 2.13898E-01-3.07208E-07-5.37046E-09-5.14008E-03
 -1      9914-7.01269E-02 5.65708E-07 2.03462E-01 5.84973E-06-1.02123E-07 4.77560E-03
 -1      9916-7.01269E-02 5.65708E-07 2.03462E-01 5.84973E-06 1.02123E-07-4.77560E-03
 -1      9917-6.63407E-02-6.45771E-07 1.99670E-01-5.16408E-06 9.01564E-08 4.64333E-03
 -1      9919-6.63407E-02-6.45771E-07 1.99670E-01-5.16408E-06-9.01564E-08-4.64333E-03
 -1      9920-7.22919E-02 4.76368E-08 2.05624E-01-2.68124E-07 4.68845E-09 4.85120E-03
 -1      9922-7.22919E-02 4.76368E-08 2.05624E-01-2.68124E-07-4.68845E-09-4.85120E-03
 -1      9923-6.27021E-02 6.35440E-07 1.96036E-01 5.16600E-06-9.01900E-08 4.51638E-03
 -1      9925-6.27021E-02 6.35440E-07 1.96036E-01 5.16600E-06 9.01900E-08-4.51638E-03
 -1      9926-5.92331E-02-5.58537E-07 1.92563E-01-4.61111E-06 8.04995E-08 4.39520E-03
 -1      9928-5.92331E-02-5.58537E-07 1.92563E-01-4.61111E-06-8.04995E-08-4.39520E-03
 -1      9929-6.46972E-02-2.03242E-08 1.98029E-01-2.32520E-07 4.06591E-09 4.58605E-03
 -1      9931-6.46972E-02-2.03242E-08 1.98029E-01-2.32520E-07-4.06591E-09-4.58605E-03
 -1      9932-5.58834E-02 5.27035E-07 1.89217E-01 4.65142E-06-8.12037E-08 4.27832E-03
 -1      9934-5.58834E-02 5.27035E-07 1.89217E-01 4.65142E-06 8.12037E-08-4.27832E-03
 -1      9935-5.26724E-02-5.73267E-07 1.86003E-01-4.19822E-06 7.32948E-08 4.16616E-03
 -1      9937-5.26724E-02-5.73267E-07 1.86003E-01-4.19822E-06-7.32948E-08-4.16616E-03
 -1      9938-5.77130E-02-4.04465E-09 1.91045E-01-2.23276E-07 3.90364E-09 4.34221E-03
 -1      9940-5.77130E-02-4.04466E-09 1.91045E-01-2.23276E-07-3.90364E-09-4.34221E-03
 -1      9941-4.95817E-02 4.36656E-07 1.82916E-01 4.20888E-06-7.34767E-08 4.05832E-03
 -1      9943-4.95817E-02 4.36656E-07 1.82916E-01 4.20888E-06 7.34767E-08-4.05832E-03
 -1      9944-4.66139E-02-5.01747E-07 1.79944E-01-3.71316E-06 6.48270E-08 3.95465E-03
 -1      9946-4.66139E-02-5.01747E-07 1.79944E-01-3.71316E-06-6.48270E-08-3.95465E-03
 -1      9947-5.12763E-02 3.17944E-08 1.84608E-01-2.01489E-07 3.52357E-09 4.11749E-03
 -1      9949-5.12763E-02 3.17944E-08 1.84608E-01-2.01489E-07-3.52357E-09-4.11749E-03
 -1      9950-4.37578E-02 5.08574E-07 1.77092E-01 3.74499E-06-6.53806E-08 3.85500E-03
 -1      9952-4.37578E-02 5.08574E-07 1.77092E-01 3.74499E-06 6.53806E-08-3.85500E-03
 -1      9953-4.10220E-02-4.59115E-07 1.74352E-01-3.33326E-06 5.81926E-08 3.75943E-03
 -1      9955-4.10220E-02-4.59115E-07 1.74352E-01-3.33326E-06-5.81926E-08-3.75943E-03
 -1      9956-4.53329E-02-2.01772E-08 1.78665E-01-1.84466E-07 3.22565E-09 3.91000E-03
 -1      9958-4.53329E-02-2.01772E-08 1.78665E-01-1.84466E-07-3.22565E-09-3.91000E-03
 -1      9959-3.83777E-02 4.55766E-07 1.71711E-01 3.39869E-06-5.93324E-08 3.66717E-03
 -1      9961-3.83777E-02 4.55766E-07 1.71711E-01 3.39869E-06 5.93324E-08-3.66717E-03
 -1      9962-3.58298E-02-4.94309E-07 1.69160E-01-3.05099E-06 5.32678E-08 3.57817E-03
 -1      9964-3.58298E-02-4.94309E-07 1.69160E-01-3.05099E-06-5.32678E-08-3.57817E-03
 -1      9965-3.98357E-02-1.21891E-08 1.73168E-01-1.89001E-07 3.30421E-09 3.71808E-03
 -1      9967-3.98357E-02-1.21891E-08 1.73168E-01-1.89001E-07-3.30421E-09-3.71808E-03
 -1      9968-3.33752E-02 4.19781E-07 1.66709E-01 3.09884E-06-5.40965E-08 3.49253E-03
 -1      9970-3.33752E-02 4.19781E-07 1.66709E-01 3.09884E-06 5.40965E-08-3.49253E-03
 -1      9971-3.10051E-02-4.71669E-07 1.64335E-01-2.71048E-06 4.73236E-08 3.40973E-03
 -1      9973-3.10051E-02-4.71669E-07 1.64335E-01-2.71048E-06-4.73236E-08-3.40973E-03
 -1      9974-3.47399E-02 6.31464E-09 1.68072E-01-1.85736E-07 3.24766E-09 3.54017E-03
 -1      9976-3.47399E-02 6.31465E-09 1.68072E-01-1.85736E-07-3.24766E-09-3.54017E-03
 -1      9977-2.87218E-02 5.08353E-07 1.62056E-01 2.78077E-06-4.85457E-08 3.33007E-03
 -1      9979-2.87218E-02 5.08353E-07 1.62056E-01 2.78077E-06 4.85457E-08-3.33007E-03
 -1      9980-2.65218E-02-4.69764E-07 1.59852E-01-2.44945E-06 4.27647E-08 3.25321E-03
 -1      9982-2.65218E-02-4.69764E-07 1.59852E-01-2.44945E-06-4.27647E-08-3.25321E-03
 -1      9983-3.00049E-02-4.24758E-08 1.63337E-01-1.87291E-07 3.27441E-09 3.37487E-03
 -1      9985-3.00049E-02-4.24758E-08 1.63337E-01-1.87291E-07-3.27441E-09-3.37487E-03
 -1      9986-2.43909E-02 5.07686E-07 1.57725E-01 2.54833E-06-4.44857E-08 3.17888E-03
 -1      9988-2.43909E-02 5.07686E-07 1.57725E-01 2.54833E-06 4.44857E-08-3.17888E-03
 -1      9989-2.23248E-02-5.20828E-07 1.55655E-01-2.26390E-06 3.95269E-08 3.10669E-03
 -1      9991-2.23248E-02-5.20828E-07 1.55655E-01-2.26390E-06-3.95269E-08-3.10669E-03
 -1      9992-2.55936E-02-4.51564E-08 1.58925E-01-2.06694E-07 3.61237E-09 3.22086E-03
 -1      9994-2.55936E-02-4.51564E-08 1.58925E-01-2.06694E-07-3.61237E-09-3.22086E-03
 -1      9995-2.03239E-02 5.34822E-07 1.53658E-01 2.35980E-06-4.11936E-08 3.03690E-03
 -1      9997-2.03239E-02 5.34822E-07 1.53658E-01 2.35980E-06 4.11936E-08-3.03690E-03
 -1      9998-1.83799E-02-5.20391E-07 1.51710E-01-2.04380E-06 3.56817E-08 2.96897E-03
 -1     10000-1.83799E-02-5.20391E-07 1.51710E-01-2.04380E-06-3.56817E-08-2.96897E-03
 -1     10001-2.14647E-02-4.42781E-08 1.54797E-01-2.21893E-07 3.87731E-09 3.07671E-03
 -1     10003-2.14647E-02-4.42781E-08 1.54797E-01-2.21893E-07-3.87731E-09-3.07671E-03
 -1     10004-1.64809E-02 6.73297E-07 1.49815E-01 2.18217E-06-3.80957E-08 2.90274E-03
 -1     10006-1.64809E-02 6.73297E-07 1.49815E-01 2.18217E-06 3.80957E-08-2.90274E-03
 -1     10007-1.46476E-02-4.97907E-07 1.47978E-01-1.91663E-06 3.34515E-08 2.83867E-03
 -1     10009-1.46476E-02-4.97907E-07 1.47978E-01-1.91663E-06-3.34515E-08-2.83867E-03
 -1     10010-1.75678E-02-1.13313E-07 1.50899E-01-2.51827E-07 4.39827E-09 2.94067E-03
 -1     10012-1.75678E-02-1.13313E-07 1.50899E-01-2.51827E-07-4.39827E-09-2.94067E-03
 -1     10013-1.28014E-02 7.35387E-07 1.46135E-01 2.04101E-06-3.56415E-08 2.77428E-03
 -1     10015-1.28014E-02 7.35387E-07 1.46135E-01 2.04101E-06 3.56415E-08-2.77428E-03
 -1     10016-1.10525E-02-3.17258E-07 1.44383E-01-1.98778E-06 3.46648E-08 2.71317E-03
 -1     10018-1.10525E-02-3.17258E-07 1.44383E-01-1.98778E-06-3.46648E-08-2.71317E-03
 -1     10019-1.38252E-02-2.34962E-07 1.47157E-01-3.45606E-07 6.03108E-09 2.81001E-03
 -1     10021-1.38252E-02-2.34962E-07 1.47157E-01-3.45606E-07-6.03108E-09-2.81001E-03
 -1     10022-9.13431E-03-6.83427E-08 1.42467E-01 1.79787E-06-3.14616E-08 2.64625E-03
 -1     10024-9.13431E-03-6.83427E-08 1.42467E-01 1.79787E-06 3.14616E-08-2.64625E-03
 -1     10025-7.52659E-03 6.81119E-07 1.40863E-01-1.26488E-06 2.20522E-08 2.59017E-03
 -1     10027-7.52659E-03 6.81119E-07 1.40863E-01-1.26488E-06-2.20522E-08-2.59017E-03
 -1     10028-1.00616E-02-4.40138E-07 1.43392E-01-3.70370E-07 6.44492E-09 2.67862E-03
 -1     10030-1.00616E-02-4.40138E-07 1.43392E-01-3.70370E-07-6.44492E-09-2.67862E-03
 -1     10031-2.31814E-01 4.29692E-07 3.65146E-01 2.77135E-05-4.83823E-07 1.04204E-02
 -1     10033-2.31814E-01 4.29692E-07 3.65146E-01 2.77135E-05 4.83823E-07-1.04204E-02
 -1     10034-2.44650E-01 4.42892E-08 3.77982E-01-3.01650E-05 5.26630E-07 1.08686E-02
 -1     10036-2.44650E-01 4.42892E-08 3.77982E-01-3.01650E-05-5.26630E-07-1.08686E-02
 -1     10037-2.25833E-01-3.04727E-08 3.59165E-01-1.34167E-07 2.34372E-09 1.02119E-02
 -1     10039-2.25833E-01-3.04727E-08 3.59165E-01-1.34167E-07-2.34372E-09-1.02119E-02
 -1     10040-3.78218E-03-4.94925E-07 1.37111E-01-1.94258E-07 3.52120E-09 2.45934E-03
 -1     10042-3.78218E-03-4.94925E-07 1.37111E-01-1.94258E-07-3.52120E-09-2.45934E-03
 -1     10043-8.07294E-01-1.92394E-04 9.39939E-01 1.53026E-05-2.66929E-07 3.05040E-02
 -1     10045-8.07294E-01-1.92394E-04 9.39939E-01 1.53026E-05 2.66929E-07-3.05040E-02
 -1     10046-7.50824E-01 3.37339E-04 8.85362E-01-1.33031E-05 2.32241E-07 2.85628E-02
 -1     10048-7.50824E-01 3.37339E-04 8.85362E-01-1.33031E-05-2.32241E-07-2.85628E-02
 -1     10049-8.07754E-01-1.85988E-04 9.40425E-01-5.15938E-06 9.01622E-08 3.05205E-02
 -1     10051-8.07754E-01-1.85988E-04 9.40425E-01-5.15938E-06-9.01622E-08-3.05205E-02
 -1     10052-4.44866E-03 1.61762E-06 1.37786E-01-1.16685E-06 2.03674E-08 2.48273E-03
 -1     10054-4.44866E-03 1.61762E-06 1.37786E-01-1.16685E-06-2.03674E-08-2.48273E-03
 -1     10055-8.05169E-01-1.72315E-04 9.37830E-01 1.75534E-05-3.07166E-07 3.04303E-02
 -1     10057-8.05169E-01-1.72315E-04 9.37830E-01 1.75534E-05 3.07166E-07-3.04303E-02
 -1     10058-7.50931E-01 2.92901E-04 8.85441E-01 5.47912E-05-9.56394E-07 2.85663E-02
 -1     10060-7.50931E-01 2.92901E-04 8.85441E-01 5.47912E-05 9.56394E-07-2.85663E-02
 -1     10061-8.04147E-01-1.92098E-04 9.36774E-01-1.95908E-05 3.42296E-07 3.03940E-02
 -1     10063-8.04147E-01-1.92098E-04 9.36774E-01-1.95908E-05-3.42296E-07-3.03940E-02
 -1     10064-7.52476E-01 3.33700E-04 8.86994E-01-9.45942E-06 1.65145E-07 2.86200E-02
 -1     10066-7.52476E-01 3.33700E-04 8.86994E-01-9.45942E-06-1.65145E-07-2.86200E-02
 -1     10067-8.09416E-01-1.85004E-04 9.42089E-01-8.59989E-06 1.50114E-07 3.05785E-02
 -1     10069-8.09416E-01-1.85004E-04 9.42089E-01-8.59989E-06-1.50114E-07-3.05785E-02
 -1     10070-8.09246E-01-1.87104E-04 9.41911E-01 1.16597E-05-2.03432E-07 3.05724E-02
 -1     10072-8.09246E-01-1.87104E-04 9.41911E-01 1.16597E-05 2.03432E-07-3.05724E-02
 -1     10073-8.09654E-01-1.85056E-04 9.42325E-01-1.02835E-05 1.79488E-07 3.05867E-02
 -1     10075-8.09654E-01-1.85056E-04 9.42325E-01-1.02835E-05-1.79488E-07-3.05867E-02
 -1     10076-8.09661E-01-1.85141E-04 9.42332E-01 9.95084E-06-1.73685E-07 3.05870E-02
 -1     10078-8.09661E-01-1.85141E-04 9.42332E-01 9.95084E-06 1.73685E-07-3.05870E-02
 -1     10079-8.09535E-01-1.85469E-04 9.42205E-01-1.04764E-05 1.82863E-07 3.05826E-02
 -1     10081-8.09535E-01-1.85469E-04 9.42205E-01-1.04764E-05-1.82863E-07-3.05826E-02
 -1     10082-8.09556E-01-1.85165E-04 9.42226E-01 9.91310E-06-1.73042E-07 3.05833E-02
 -1     10084-8.09556E-01-1.85165E-04 9.42226E-01 9.91310E-06 1.73042E-07-3.05833E-02
 -1     10085-8.09598E-01-1.85454E-04 9.42268E-01-9.89742E-06 1.72787E-07 3.05848E-02
 -1     10087-8.09598E-01-1.85454E-04 9.42268E-01-9.89742E-06-1.72787E-07-3.05848E-02
 -1     10088-8.09535E-01-1.85121E-04 9.42206E-01 1.07349E-05-1.87392E-07 3.05826E-02
 -1     10090-8.09535E-01-1.85121E-04 9.42206E-01 1.07349E-05 1.87392E-07-3.05826E-02
 -1     10091-8.10018E-01-1.85726E-04 9.42689E-01-1.02570E-05 1.78971E-07 3.05994E-02
 -1     10093-8.10018E-01-1.85726E-04 9.42689E-01-1.02570E-05-1.78971E-07-3.05994E-02
 -1     10094-8.10026E-01-1.84693E-04 9.42697E-01 1.03986E-05-1.81434E-07 3.05997E-02
 -1     10096-8.10026E-01-1.84693E-04 9.42697E-01 1.03986E-05 1.81434E-07-3.05997E-02
 -1     10097-8.07999E-01-1.97065E-04 9.40637E-01-1.73290E-05 3.02208E-07 3.05285E-02
 -1     10099-8.07999E-01-1.97065E-04 9.40637E-01-1.73290E-05-3.02208E-07-3.05285E-02
 -1     10100-8.08544E-01-1.81646E-04 9.41224E-01 4.50732E-06-7.88360E-08 3.05482E-02
 -1     10102-8.08544E-01-1.81646E-04 9.41224E-01 4.50732E-06 7.88360E-08-3.05482E-02
 -1     10103-8.04232E-01-2.03876E-04 9.36852E-01-2.01001E-05 3.50314E-07 3.03968E-02
 -1     10105-8.04232E-01-2.03876E-04 9.36852E-01-2.01001E-05-3.50314E-07-3.03968E-02
 -1     10106-8.05187E-01-1.89768E-04 9.37840E-01 4.42526E-06-7.72457E-08 3.04308E-02
 -1     10108-8.05187E-01-1.89768E-04 9.37840E-01 4.42526E-06 7.72457E-08-3.04308E-02
 -1     10109-3.86673E-03-5.49401E-07 1.37195E-01-5.13157E-07 8.87756E-09 2.46229E-03
 -1     10111-3.86673E-03-5.49401E-07 1.37195E-01-5.13157E-07-8.87756E-09-2.46229E-03
 -1     10112-6.93187E-01-6.05148E-05 8.26048E-01 4.03764E-06-6.62973E-08 2.65238E-02
 -1     10114-6.93187E-01-6.05148E-05 8.26048E-01 4.03764E-06 6.62973E-08-2.65238E-02
 -1     10115-5.14128E-03 2.13792E-06 1.38481E-01-5.12071E-07 8.93747E-09 2.50697E-03
 -1     10117-5.14128E-03 2.13792E-06 1.38481E-01-5.12071E-07-8.93747E-09-2.50697E-03
 -1     10118-7.54246E-01 3.28220E-04 8.88751E-01 4.94853E-07-8.63970E-09 2.86816E-02
 -1     10120-7.54246E-01 3.28220E-04 8.88751E-01 4.94853E-07 8.63970E-09-2.86816E-02
 -1     10121-7.54350E-01 3.27856E-04 8.88853E-01-5.55175E-08 9.69524E-10 2.86851E-02
 -1     10123-7.54350E-01 3.27856E-04 8.88853E-01-5.55175E-08-9.69525E-10-2.86851E-02
 -1     10124-2.58356E-01 5.81203E-07 3.91688E-01 3.33058E-05-5.81467E-07 1.13471E-02
 -1     10126-2.58356E-01 5.81203E-07 3.91688E-01 3.33058E-05 5.81467E-07-1.13471E-02
 -1     10127-2.73044E-01-5.61975E-07 4.06374E-01-3.65437E-05 6.37981E-07 1.18599E-02
 -1     10129-2.73044E-01-5.61975E-07 4.06374E-01-3.65437E-05-6.37981E-07-1.18599E-02
 -1     10130-7.53602E-01 3.29831E-04 8.88108E-01-4.93273E-06 8.61182E-08 2.86591E-02
 -1     10132-7.53602E-01 3.29831E-04 8.88108E-01-4.93273E-06-8.61182E-08-2.86591E-02
 -1     10133-1.87569E-01 5.27236E-08 3.20900E-01 2.02160E-05-3.52936E-07 8.87570E-03
 -1     10135-1.87569E-01 5.27236E-08 3.20900E-01 2.02160E-05 3.52936E-07-8.87570E-03
 -1     10136-1.97672E-01-1.12229E-07 3.31004E-01-2.19824E-05 3.83765E-07 9.22843E-03
 -1     10138-1.97672E-01-1.12229E-07 3.31004E-01-2.19824E-05-3.83765E-07-9.22843E-03
 -1     10139-1.52500E-01-6.84200E-08 2.85832E-01 1.50908E-05-2.63462E-07 7.65135E-03
 -1     10141-1.52500E-01-6.84200E-08 2.85832E-01 1.50908E-05 2.63462E-07-7.65135E-03
 -1     10142-1.60570E-01 2.18295E-08 2.93902E-01-1.61520E-05 2.81980E-07 7.93311E-03
 -1     10144-1.60570E-01 2.18295E-08 2.93902E-01-1.61520E-05-2.81980E-07-7.93311E-03
 -1     10145-1.24238E-01-1.55045E-08 2.57570E-01 1.12654E-05-1.96670E-07 6.66467E-03
 -1     10147-1.24238E-01-1.55045E-08 2.57570E-01 1.12654E-05 1.96670E-07-6.66467E-03
 -1     10148-1.30746E-01 1.36244E-07 2.64078E-01-1.20635E-05 2.10610E-07 6.89188E-03
 -1     10150-1.30746E-01 1.36244E-07 2.64078E-01-1.20635E-05-2.10610E-07-6.89188E-03
 -1     10151-1.01117E-01 1.03946E-09 2.34450E-01 8.84083E-06-1.54346E-07 5.85748E-03
 -1     10153-1.01117E-01 1.03946E-09 2.34450E-01 8.84083E-06 1.54346E-07-5.85748E-03
 -1     10154-1.06503E-01-3.38518E-08 2.39834E-01-9.34394E-06 1.63125E-07 6.04549E-03
 -1     10156-1.06503E-01-3.38518E-08 2.39834E-01-9.34394E-06-1.63125E-07-6.04549E-03
 -1     10157-8.19303E-02 3.75218E-08 2.15262E-01 6.86920E-06-1.19920E-07 5.18763E-03
 -1     10159-8.19303E-02 3.75218E-08 2.15262E-01 6.86920E-06 1.19920E-07-5.18763E-03
 -1     10160-8.63967E-02 3.81222E-08 2.19729E-01-7.28031E-06 1.27103E-07 5.34356E-03
 -1     10162-8.63967E-02 3.81222E-08 2.19729E-01-7.28031E-06-1.27103E-07-5.34356E-03
 -1     10163-6.58270E-02 1.62930E-09 1.99159E-01 5.51536E-06-9.62881E-08 4.62544E-03
 -1     10165-6.58270E-02 1.62930E-09 1.99159E-01 5.51536E-06 9.62881E-08-4.62544E-03
 -1     10166-6.96020E-02-2.97426E-08 2.02934E-01-5.85497E-06 1.02215E-07 4.75723E-03
 -1     10168-6.96020E-02-2.97426E-08 2.02934E-01-5.85497E-06-1.02215E-07-4.75723E-03
 -1     10169-5.22029E-02-1.68634E-09 1.85535E-01 4.48365E-06-7.82760E-08 4.14980E-03
 -1     10171-5.22029E-02-1.68634E-09 1.85535E-01 4.48365E-06 7.82760E-08-4.14980E-03
 -1     10172-5.54124E-02-1.51214E-08 1.88744E-01-4.68472E-06 8.17857E-08 4.26185E-03
 -1     10174-5.54124E-02-1.51214E-08 1.88744E-01-4.68472E-06-8.17857E-08-4.26185E-03
 -1     10175-4.05563E-02 7.25493E-08 1.73889E-01 3.60497E-06-6.29333E-08 3.74321E-03
 -1     10177-4.05563E-02 7.25493E-08 1.73889E-01 3.60497E-06 6.29333E-08-3.74321E-03
 -1     10178-4.32941E-02-3.01451E-08 1.76626E-01-3.76240E-06 6.56880E-08 3.83878E-03
 -1     10180-4.32941E-02-3.01451E-08 1.76626E-01-3.76240E-06-6.56880E-08-3.83878E-03
 -1     10181-3.05303E-02 1.29300E-07 1.63863E-01 2.97183E-06-5.18809E-08 3.39319E-03
 -1     10183-3.05303E-02 1.29300E-07 1.63863E-01 2.97183E-06 5.18809E-08-3.39319E-03
 -1     10184-3.28995E-02-1.24588E-07 1.66231E-01-3.08670E-06 5.38894E-08 3.47589E-03
 -1     10186-3.28995E-02-1.24588E-07 1.66231E-01-3.08670E-06-5.38894E-08-3.47589E-03
 -1     10187-2.18995E-02 2.26299E-07 1.55232E-01 2.38955E-06-4.17197E-08 3.09189E-03
 -1     10189-2.18995E-02 2.26299E-07 1.55232E-01 2.38955E-06 4.17197E-08-3.09189E-03
 -1     10190-2.39388E-02-2.17280E-07 1.57270E-01-2.45626E-06 4.28838E-08 3.16305E-03
 -1     10192-2.39388E-02-2.17280E-07 1.57270E-01-2.45626E-06-4.28838E-08-3.16305E-03
 -1     10193-1.45107E-02-1.37502E-07 1.47842E-01 1.97124E-06-3.44255E-08 2.83391E-03
 -1     10195-1.45107E-02-1.37502E-07 1.47842E-01 1.97124E-06 3.44255E-08-2.83391E-03
 -1     10196-1.62950E-02 7.56221E-09 1.49627E-01-2.12861E-06 3.71362E-08 2.89620E-03
 -1     10198-1.62950E-02 7.56221E-09 1.49627E-01-2.12861E-06-3.71362E-08-2.89620E-03
 -1     10199-7.84046E-03-4.08252E-07 1.41170E-01 1.76270E-06-3.07443E-08 2.60102E-03
 -1     10201-7.84046E-03-4.08252E-07 1.41170E-01 1.76270E-06 3.07443E-08-2.60102E-03
 -1     10202-9.47392E-03 8.78592E-07 1.42809E-01-1.87027E-06 3.26452E-08 2.65813E-03
 -1     10204-9.47392E-03 8.78592E-07 1.42809E-01-1.87027E-06-3.26452E-08-2.65813E-03
 -1     10205-7.47706E-01 3.66136E-04 8.82269E-01-8.14942E-06 1.42235E-07 2.84543E-02
 -1     10207-7.47706E-01 3.66136E-04 8.82269E-01-8.14942E-06-1.42235E-07-2.84543E-02
 -1     10208-2.03088E-01 1.47819E-07 3.36419E-01-6.39378E-08 1.11539E-09 9.41774E-03
 -1     10210-2.03088E-01 1.47819E-07 3.36419E-01-6.39378E-08-1.11539E-09-9.41774E-03
 -1     10211-4.92558E-03 2.41119E-06 1.38266E-01-3.00272E-07 5.24105E-09 2.49944E-03
 -1     10213-4.92558E-03 2.41119E-06 1.38266E-01-3.00272E-07-5.24105E-09-2.49944E-03
 -1     10214-3.57565E-03-1.18692E-06 1.36903E-01-5.03757E-08 8.83555E-10 2.45211E-03
 -1     10216-3.57565E-03-1.18692E-06 1.36903E-01-5.03757E-08-8.83555E-10-2.45211E-03
 -1     10217-3.57012E-03-1.16411E-06 1.36898E-01 2.94098E-09-4.89688E-11 2.45191E-03
 -1     10219-3.57012E-03-1.16411E-06 1.36898E-01 2.94098E-09 4.89688E-11-2.45191E-03
 -1     10220-3.61289E-03-1.19597E-06 1.36941E-01-3.84250E-08 6.70667E-10 2.45341E-03
 -1     10222-3.61289E-03-1.19597E-06 1.36941E-01-3.84250E-08-6.70667E-10-2.45341E-03
 -1     10223-3.60874E-03-1.19748E-06 1.36936E-01 2.69713E-08-4.69041E-10 2.45326E-03
 -1     10225-3.60874E-03-1.19748E-06 1.36936E-01 2.69713E-08 4.69041E-10-2.45326E-03
 -1     10226-3.61740E-03-1.19362E-06 1.36945E-01-3.15429E-08 5.49378E-10 2.45356E-03
 -1     10228-3.61740E-03-1.19362E-06 1.36945E-01-3.15429E-08-5.49378E-10-2.45356E-03
 -1     10229-3.61777E-03-1.20582E-06 1.36945E-01 3.31753E-08-5.79092E-10 2.45358E-03
 -1     10231-3.61777E-03-1.20582E-06 1.36945E-01 3.31753E-08 5.79092E-10-2.45358E-03
 -1     10232-3.60726E-03-1.19302E-06 1.36935E-01-2.70479E-08 4.72060E-10 2.45321E-03
 -1     10234-3.60726E-03-1.19302E-06 1.36935E-01-2.70479E-08-4.72060E-10-2.45321E-03
 -1     10235-3.60828E-03-1.20046E-06 1.36936E-01 3.58276E-08-6.26364E-10 2.45324E-03
 -1     10237-3.60828E-03-1.20046E-06 1.36936E-01 3.58276E-08 6.26364E-10-2.45324E-03
 -1     10238-3.60494E-03-1.19448E-06 1.36933E-01-2.99698E-08 5.23244E-10 2.45313E-03
 -1     10240-3.60494E-03-1.19448E-06 1.36933E-01-2.99698E-08-5.23244E-10-2.45313E-03
 -1     10241-3.60500E-03-1.19052E-06 1.36933E-01 3.25766E-08-5.68721E-10 2.45313E-03
 -1     10243-3.60500E-03-1.19052E-06 1.36933E-01 3.25766E-08 5.68721E-10-2.45313E-03
 -1     10244-3.59807E-03-1.17836E-06 1.36926E-01-2.21055E-08 3.84032E-10 2.45289E-03
 -1     10246-3.59807E-03-1.17836E-06 1.36926E-01-2.21055E-08-3.84032E-10-2.45289E-03
 -1     10247-3.60066E-03-1.19024E-06 1.36928E-01 4.07467E-08-7.11505E-10 2.45298E-03
 -1     10249-3.60066E-03-1.19024E-06 1.36928E-01 4.07467E-08 7.11505E-10-2.45298E-03
 -1     10250-3.57271E-03-1.15878E-06 1.36901E-01-1.64899E-08 2.86236E-10 2.45200E-03
 -1     10252-3.57271E-03-1.15878E-06 1.36901E-01-1.64899E-08-2.86236E-10-2.45200E-03
 -1     10253-3.57610E-03-1.19115E-06 1.36904E-01 3.84756E-08-6.73942E-10 2.45212E-03
 -1     10255-3.57610E-03-1.19115E-06 1.36904E-01 3.84756E-08 6.73942E-10-2.45212E-03
 -1     10256-3.59021E-03-1.21133E-06 1.36918E-01-5.56479E-08 9.82800E-10 2.45261E-03
 -1     10258-3.59021E-03-1.21133E-06 1.36918E-01-5.56479E-08-9.82800E-10-2.45261E-03
 -1     10259-3.57541E-03-1.18964E-06 1.36903E-01-2.20506E-08 3.82639E-10 2.45210E-03
 -1     10261-3.57541E-03-1.18964E-06 1.36903E-01-2.20506E-08-3.82639E-10-2.45210E-03
 -1     10262-3.71465E-03-1.14032E-06 1.37042E-01-2.02490E-07 3.50445E-09 2.45696E-03
 -1     10264-3.71465E-03-1.14032E-06 1.37042E-01-2.02490E-07-3.50445E-09-2.45696E-03
 -1     10265-3.73043E-03-1.11857E-06 1.37058E-01 1.13825E-07-1.95894E-09 2.45751E-03
 -1     10267-3.73043E-03-1.11857E-06 1.37058E-01 1.13825E-07 1.95894E-09-2.45751E-03
 -1     10268-7.46115E-01 3.65011E-04 8.80677E-01 3.33921E-05-5.82993E-07 2.83988E-02
 -1     10270-7.46115E-01 3.65011E-04 8.80677E-01 3.33921E-05 5.82993E-07-2.83988E-02
 -1     10271-7.51364E-01 3.33952E-04 8.85899E-01 1.93443E-05-3.37700E-07 2.85816E-02
 -1     10273-7.51364E-01 3.33952E-04 8.85899E-01 1.93443E-05 3.37700E-07-2.85816E-02
 -1     10274-7.54679E-01 3.29409E-04 8.89175E-01 2.32700E-07-4.07366E-09 2.86965E-02
 -1     10276-7.54679E-01 3.29409E-04 8.89175E-01 2.32700E-07 4.07366E-09-2.86965E-02
 -1     10277-2.51588E-01-9.93125E-08 3.84919E-01-2.60496E-07 4.54695E-09 1.11111E-02
 -1     10279-2.51588E-01-9.93125E-08 3.84919E-01-2.60496E-07-4.54695E-09-1.11111E-02
 -1     10280-5.86829E-03-8.92228E-07 1.39196E-01 9.09012E-07-1.59143E-08 2.53215E-03
 -1     10282-5.86829E-03-8.92228E-07 1.39196E-01 9.09012E-07 1.59143E-08-2.53215E-03
 -1     10283-4.93587E-03 1.92706E-06 1.38277E-01-6.20219E-07 1.08337E-08 2.49982E-03
 -1     10285-4.93587E-03 1.92706E-06 1.38277E-01-6.20219E-07-1.08337E-08-2.49982E-03
 -1     10286-4.86250E-03 2.48274E-06 1.38203E-01 1.93462E-07-3.37681E-09 2.49724E-03
 -1     10288-4.86250E-03 2.48274E-06 1.38203E-01 1.93462E-07 3.37681E-09-2.49724E-03
 -1     10289-4.80369E-03 2.37737E-06 1.38144E-01-4.64554E-08 8.10946E-10 2.49518E-03
 -1     10291-4.80369E-03 2.37737E-06 1.38144E-01-4.64554E-08-8.10946E-10-2.49518E-03
 -1     10292-4.84030E-03 2.45157E-06 1.38181E-01-3.76434E-08 6.57166E-10 2.49647E-03
 -1     10294-4.84030E-03 2.45157E-06 1.38181E-01-3.76434E-08-6.57166E-10-2.49647E-03
 -1     10295-4.85484E-03 2.47724E-06 1.38196E-01 4.36375E-09-7.61672E-11 2.49698E-03
 -1     10297-4.85484E-03 2.47724E-06 1.38196E-01 4.36375E-09 7.61672E-11-2.49698E-03
 -1     10298-4.85652E-03 2.48173E-06 1.38197E-01-5.45559E-09 9.52410E-11 2.49703E-03
 -1     10300-4.85652E-03 2.48173E-06 1.38197E-01-5.45559E-09-9.52410E-11-2.49703E-03
 -1     10301-7.01172E-03-4.99857E-07 1.40342E-01 4.27002E-07-7.40384E-09 2.57213E-03
 -1     10303-7.01172E-03-4.99857E-07 1.40342E-01 4.27002E-07 7.40384E-09-2.57213E-03
 -1     10304-1.37226E-02-6.83875E-07 1.47054E-01 1.74449E-07-3.07625E-09 2.80642E-03
 -1     10306-1.37226E-02-6.83875E-07 1.47054E-01 1.74449E-07 3.07625E-09-2.80642E-03
 -1     10307-2.09056E-02 5.78110E-08 1.54238E-01-8.38762E-08 1.47305E-09 3.05720E-03
 -1     10309-2.09056E-02 5.78110E-08 1.54238E-01-8.38762E-08-1.47305E-09-3.05720E-03
 -1     10310-4.83009E-03 2.43696E-06 1.38171E-01 7.91904E-08-1.38255E-09 2.49611E-03
 -1     10312-4.83009E-03 2.43696E-06 1.38171E-01 7.91904E-08 1.38255E-09-2.49611E-03
 -1     10313-2.93641E-02 3.22905E-09 1.62696E-01-7.66466E-08 1.34076E-09 3.35250E-03
 -1     10315-2.93641E-02 3.22905E-09 1.62696E-01-7.66466E-08-1.34076E-09-3.35250E-03
 -1     10316-3.92199E-02-4.72995E-09 1.72552E-01-4.11355E-08 7.19011E-10 3.69658E-03
 -1     10318-3.92199E-02-4.72995E-09 1.72552E-01-4.11355E-08-7.19011E-10-3.69658E-03
 -1     10319-5.06656E-02 1.42447E-08 1.83998E-01-1.62623E-08 2.83246E-10 4.09617E-03
 -1     10321-5.06656E-02 1.42447E-08 1.83998E-01-1.62623E-08-2.83246E-10-4.09617E-03
 -1     10322-6.40394E-02-2.22805E-08 1.97371E-01-3.14935E-09 5.50993E-11 4.56308E-03
 -1     10324-6.40394E-02-2.22805E-08 1.97371E-01-3.14935E-09-5.50993E-11-4.56308E-03
 -1     10325-4.97899E-03 2.76854E-06 1.38320E-01 4.54157E-07-7.92753E-09 2.50132E-03
 -1     10327-4.97899E-03 2.76854E-06 1.38320E-01 4.54157E-07 7.92753E-09-2.50132E-03
 -1     10328-4.80407E-03 2.37467E-06 1.38144E-01 1.79788E-09-3.14739E-11 2.49519E-03
 -1     10330-4.80407E-03 2.37467E-06 1.38144E-01 1.79788E-09 3.14739E-11-2.49519E-03
 -1     10331-4.82211E-03 2.42997E-06 1.38163E-01-5.58981E-08 9.75802E-10 2.49583E-03
 -1     10333-4.82211E-03 2.42997E-06 1.38163E-01-5.58981E-08-9.75802E-10-2.49583E-03
 -1     10334-4.85167E-03 2.46691E-06 1.38192E-01-1.03298E-08 1.80361E-10 2.49687E-03
 -1     10336-4.85167E-03 2.46691E-06 1.38192E-01-1.03298E-08-1.80361E-10-2.49687E-03
 -1     10337-7.54322E-01 3.27918E-04 8.88829E-01-1.64627E-06 2.87416E-08 2.86842E-02
 -1     10339-7.54322E-01 3.27918E-04 8.88829E-01-1.64627E-06-2.87416E-08-2.86842E-02
 -1     10340-4.85492E-03 2.47688E-06 1.38196E-01 2.20918E-09-3.85497E-11 2.49698E-03
 -1     10342-4.85492E-03 2.47688E-06 1.38196E-01 2.20918E-09 3.85497E-11-2.49698E-03
 -1     10343-4.86165E-03 2.48624E-06 1.38203E-01-1.80527E-08 3.15155E-10 2.49721E-03
 -1     10345-4.86165E-03 2.48624E-06 1.38203E-01-1.80527E-08-3.15156E-10-2.49721E-03
 -1     10346-4.80039E-03 2.39026E-06 1.38141E-01 8.70385E-08-1.51933E-09 2.49507E-03
 -1     10348-4.80039E-03 2.39026E-06 1.38141E-01 8.70385E-08 1.51933E-09-2.49507E-03
 -1     10349-1.03902E-02-3.13009E-07 1.43721E-01 3.20710E-07-5.57263E-09 2.69008E-03
 -1     10351-1.03902E-02-3.13009E-07 1.43721E-01 3.20710E-07 5.57263E-09-2.69008E-03
 -1     10352-1.71951E-02-3.94776E-08 1.50527E-01-2.73471E-08 4.88439E-10 2.92765E-03
 -1     10354-1.71951E-02-3.94776E-08 1.50527E-01-2.73471E-08-4.88439E-10-2.92765E-03
 -1     10355-2.49613E-02 1.87114E-08 1.58293E-01-9.41431E-08 1.64834E-09 3.19879E-03
 -1     10357-2.49613E-02 1.87114E-08 1.58293E-01-9.41431E-08-1.64834E-09-3.19879E-03
 -1     10358-3.41125E-02 2.65349E-08 1.67444E-01-5.26667E-08 9.20372E-10 3.51827E-03
 -1     10360-3.41125E-02 2.65349E-08 1.67444E-01-5.26667E-08-9.20372E-10-3.51827E-03
 -1     10361-4.47234E-02-1.28905E-08 1.78055E-01-3.02682E-08 5.28441E-10 3.88872E-03
 -1     10363-4.47234E-02-1.28905E-08 1.78055E-01-3.02682E-08-5.28441E-10-3.88872E-03
 -1     10364-5.70874E-02-1.90881E-08 1.90419E-01-5.51730E-09 9.61988E-11 4.32037E-03
 -1     10366-5.70874E-02-1.90881E-08 1.90419E-01-5.51730E-09-9.61988E-11-4.32037E-03
 -1     10367-7.15884E-02 2.89729E-08 2.04920E-01 9.69615E-10-1.75145E-11 4.82664E-03
 -1     10369-7.15884E-02 2.89729E-08 2.04920E-01 9.69615E-10 1.75145E-11-4.82664E-03
 -1     10370-8.87686E-02-2.35180E-08 2.22101E-01-2.87728E-09 5.06024E-11 5.42644E-03
 -1     10372-8.87686E-02-2.35180E-08 2.22101E-01-2.87728E-09-5.06024E-11-5.42644E-03
 -1     10373-1.09338E-01-2.02886E-08 2.42670E-01-1.13496E-08 1.98602E-10 6.14457E-03
 -1     10375-1.09338E-01-2.02886E-08 2.42670E-01-1.13496E-08-1.98602E-10-6.14457E-03
 -1     10376-1.34244E-01-3.76042E-08 2.67576E-01 2.05292E-08-3.57998E-10 7.01411E-03
 -1     10378-1.34244E-01-3.76042E-08 2.67576E-01 2.05292E-08 3.57998E-10-7.01411E-03
 -1     10379-2.80974E-01 1.52211E-09 4.14306E-01-3.30941E-07 5.76750E-09 1.21372E-02
 -1     10381-2.80974E-01 1.52211E-09 4.14306E-01-3.30941E-07-5.76750E-09-1.21372E-02
 -1     10382-7.49249E-01 3.31410E-04 8.83796E-01 9.92593E-06-1.73299E-07 2.85080E-02
 -1     10384-7.49249E-01 3.31410E-04 8.83796E-01 9.92593E-06 1.73299E-07-2.85080E-02
 -1     10385-7.53547E-01 3.34149E-04 8.88058E-01 1.24738E-05-2.17774E-07 2.86573E-02
 -1     10387-7.53547E-01 3.34149E-04 8.88058E-01 1.24738E-05 2.17774E-07-2.86573E-02
 -1     10388-7.54656E-01 3.26490E-04 8.89156E-01-3.19727E-06 5.58151E-08 2.86958E-02
 -1     10390-7.54656E-01 3.26490E-04 8.89156E-01-3.19727E-06-5.58151E-08-2.86958E-02
 -1     10391-7.54171E-01 3.28750E-04 8.88678E-01-1.84449E-07 3.22027E-09 2.86790E-02
 -1     10393-7.54171E-01 3.28750E-04 8.88678E-01-1.84449E-07-3.22027E-09-2.86790E-02
 -1     10394-7.54178E-01 3.28592E-04 8.88684E-01 1.86404E-07-3.25474E-09 2.86792E-02
 -1     10396-7.54178E-01 3.28592E-04 8.88684E-01 1.86404E-07 3.25474E-09-2.86792E-02
 -1     10397-7.54326E-01 3.28000E-04 8.88829E-01 4.31887E-07-7.53993E-09 2.86843E-02
 -1     10399-7.54326E-01 3.28000E-04 8.88829E-01 4.31887E-07 7.53993E-09-2.86843E-02
 -1     10400-7.54172E-01 3.28379E-04 8.88675E-01-2.02346E-06 3.53270E-08 2.86789E-02
 -1     10402-7.54172E-01 3.28379E-04 8.88675E-01-2.02346E-06-3.53270E-08-2.86789E-02
 -1     10403-7.98038E-02-1.97594E-08 2.13136E-01-8.46225E-10 1.50911E-11 5.11346E-03
 -1     10405-7.98038E-02-1.97594E-08 2.13136E-01-8.46228E-10-1.50911E-11-5.11346E-03
 -1     10406-9.85778E-02 4.94463E-08 2.31910E-01-5.63204E-09 9.77929E-11 5.76891E-03
 -1     10408-9.85778E-02 4.94463E-08 2.31910E-01-5.63204E-09-9.77929E-11-5.76891E-03
 -1     10409-1.21173E-01-2.31722E-08 2.54505E-01 4.97806E-09-8.67091E-11 6.55778E-03
 -1     10411-1.21173E-01-2.31722E-08 2.54505E-01 4.97806E-09 8.67091E-11-6.55778E-03
 -1     10412-1.48740E-01 7.60245E-08 2.82072E-01 1.85497E-08-3.24773E-10 7.52025E-03
 -1     10414-1.48740E-01 7.60245E-08 2.82072E-01 1.85497E-08 3.24773E-10-7.52025E-03
 -1     10415-6.48836E-03-6.26903E-07 1.39817E-01 2.78663E-07-4.98134E-09 2.55383E-03
 -1     10417-6.48836E-03-6.26903E-07 1.39817E-01 2.78663E-07 4.98134E-09-2.55383E-03
 -1     10418-1.82888E-01-5.86137E-08 3.16220E-01-2.56050E-08 4.47782E-10 8.71249E-03
 -1     10420-1.82888E-01-5.86137E-08 3.16220E-01-2.56050E-08-4.47782E-10-8.71249E-03
 -1     10421-1.64873E-01-5.00917E-08 2.98205E-01 1.31479E-09-2.22644E-11 8.08349E-03
 -1     10423-1.64873E-01-5.00917E-08 2.98205E-01 1.31479E-09 2.22644E-11-8.08349E-03
 -1     10424-4.86941E-03 2.49408E-06 1.38210E-01-2.01552E-08 3.51853E-10 2.49749E-03
 -1     10426-4.86941E-03 2.49408E-06 1.38210E-01-2.01552E-08-3.51853E-10-2.49749E-03
 -1     10427-4.86998E-03 2.50501E-06 1.38211E-01 1.84448E-08-3.22013E-10 2.49751E-03
 -1     10429-4.86998E-03 2.50501E-06 1.38211E-01 1.84448E-08 3.22013E-10-2.49751E-03
 -1     10430-4.85678E-03 2.49071E-06 1.38198E-01 4.58897E-08-8.01131E-10 2.49705E-03
 -1     10432-4.85678E-03 2.49071E-06 1.38198E-01 4.58897E-08 8.01131E-10-2.49705E-03
 -1     10433-4.87366E-03 2.50195E-06 1.38215E-01-7.25176E-09 1.26576E-10 2.49763E-03
 -1     10435-4.87366E-03 2.50195E-06 1.38215E-01-7.25176E-09-1.26576E-10-2.49763E-03
 -1     10436-1.97650E-01 5.16260E-08 3.30982E-01 2.17846E-05-3.80319E-07 9.22765E-03
 -1     10438-1.97650E-01 5.16260E-08 3.30982E-01 2.17846E-05 3.80319E-07-9.22765E-03
 -1     10439-2.08343E-01-4.82491E-08 3.41675E-01-2.35838E-05 4.11725E-07 9.60098E-03
 -1     10441-2.08343E-01-4.82491E-08 3.41675E-01-2.35838E-05-4.11725E-07-9.60098E-03
 -1     10442-6.59933E-03-7.63246E-07 1.39927E-01 2.44894E-07-4.15998E-09 2.55768E-03
 -1     10444-6.59933E-03-7.63246E-07 1.39927E-01 2.44894E-07 4.15998E-09-2.55768E-03
 -1     10445-7.76379E-02 1.96352E-09 2.10970E-01 6.51835E-06-1.13798E-07 5.03778E-03
 -1     10447-7.76379E-02 1.96352E-09 2.10970E-01 6.51835E-06 1.13798E-07-5.03778E-03
 -1     10448-8.19232E-02 8.79241E-09 2.15255E-01-6.90364E-06 1.20524E-07 5.18738E-03
 -1     10450-8.19232E-02 8.79241E-09 2.15255E-01-6.90364E-06-1.20524E-07-5.18738E-03
 -1     10451-7.02476E-01-1.45294E-04 8.35268E-01-7.41709E-06 1.29934E-07 2.68462E-02
 -1     10453-7.02476E-01-1.45294E-04 8.35268E-01-7.41709E-06-1.29934E-07-2.68462E-02
 -1     10454-7.03315E-01-1.41294E-04 8.36129E-01 1.20742E-08-4.82553E-10 2.68760E-02
 -1     10456-7.03315E-01-1.41294E-04 8.36129E-01 1.20742E-08 4.82553E-10-2.68760E-02
 -1     10457-7.09182E-01-1.43243E-04 8.42003E-01-1.07793E-06 1.87799E-08 2.70806E-02
 -1     10459-7.09182E-01-1.43243E-04 8.42003E-01-1.07793E-06-1.87799E-08-2.70806E-02
 -1     10460-7.09022E-01-1.44497E-04 8.41838E-01 3.02831E-06-5.28018E-08 2.70749E-02
 -1     10462-7.09022E-01-1.44497E-04 8.41838E-01 3.02831E-06 5.28018E-08-2.70749E-02
 -1     10463-7.09171E-01-1.43794E-04 8.41989E-01-2.33363E-06 4.07197E-08 2.70802E-02
 -1     10465-7.09171E-01-1.43794E-04 8.41989E-01-2.33363E-06-4.07197E-08-2.70802E-02
 -1     10466-7.09202E-01-1.43396E-04 8.42021E-01 1.57282E-06-2.74584E-08 2.70813E-02
 -1     10468-7.09202E-01-1.43396E-04 8.42021E-01 1.57282E-06 2.74584E-08-2.70813E-02
 -1     10469-7.08993E-01-1.44083E-04 8.41811E-01-2.32822E-06 4.06349E-08 2.70739E-02
 -1     10471-7.08993E-01-1.44083E-04 8.41811E-01-2.32822E-06-4.06349E-08-2.70739E-02
 -1     10472-7.09013E-01-1.43786E-04 8.41832E-01 1.65443E-06-2.88869E-08 2.70747E-02
 -1     10474-7.09013E-01-1.43786E-04 8.41832E-01 1.65443E-06 2.88869E-08-2.70747E-02
 -1     10475-6.18234E-03-1.27859E-06 1.39510E-01-4.07136E-09 7.18661E-11 2.54310E-03
 -1     10477-6.18234E-03-1.27859E-06 1.39510E-01-4.07136E-09-7.18661E-11-2.54310E-03
 -1     10478-6.18271E-03-1.27207E-06 1.39510E-01 5.11722E-10-8.69417E-12 2.54312E-03
 -1     10480-6.18271E-03-1.27207E-06 1.39510E-01 5.11723E-10 8.69413E-12-2.54312E-03
 -1     10481-2.44543E-01 5.69400E-07 3.77876E-01 3.02040E-05-5.27318E-07 1.08649E-02
 -1     10483-2.44543E-01 5.69400E-07 3.77876E-01 3.02040E-05 5.27318E-07-1.08649E-02
 -1     10484-2.58250E-01-4.20225E-07 3.91580E-01-3.28941E-05 5.74264E-07 1.13434E-02
 -1     10486-2.58250E-01-4.20225E-07 3.91580E-01-3.28941E-05-5.74264E-07-1.13434E-02
 -1     10487-7.09565E-01-1.41152E-04 8.42388E-01-1.26769E-07 2.31685E-09 2.70940E-02
 -1     10489-7.09565E-01-1.41152E-04 8.42388E-01-1.26769E-07-2.31685E-09-2.70940E-02
 -1     10490-7.09381E-01-1.44046E-04 8.42197E-01 4.74224E-06-8.27507E-08 2.70875E-02
 -1     10492-7.09381E-01-1.44046E-04 8.42197E-01 4.74224E-06 8.27507E-08-2.70875E-02
 -1     10493-7.08320E-01-1.54800E-04 8.41115E-01-1.14657E-05 1.99614E-07 2.70500E-02
 -1     10495-7.08320E-01-1.54800E-04 8.41115E-01-1.14657E-05-1.99614E-07-2.70500E-02
 -1     10496-7.09207E-01-1.41463E-04 8.42044E-01-6.27103E-06 1.09528E-07 2.70817E-02
 -1     10498-7.09207E-01-1.41463E-04 8.42044E-01-6.27103E-06-1.09528E-07-2.70817E-02
 -1     10499-7.04888E-01-1.55820E-04 8.37661E-01-1.60191E-05 2.79423E-07 2.69300E-02
 -1     10501-7.04888E-01-1.55820E-04 8.37661E-01-1.60191E-05-2.79423E-07-2.69300E-02
 -1     10502-7.06014E-01-1.34658E-04 8.38857E-01-8.93866E-06 1.55598E-07 2.69706E-02
 -1     10504-7.06014E-01-1.34658E-04 8.38857E-01-8.93866E-06-1.55598E-07-2.69706E-02
 -1     10505-6.60847E-01 2.69378E-04 7.95104E-01 3.26494E-05-5.69990E-07 2.54160E-02
 -1     10507-6.60847E-01 2.69378E-04 7.95104E-01 3.26494E-05 5.69990E-07-2.54160E-02
 -1     10508-6.57054E-01 2.53476E-04 7.91362E-01 2.66510E-05-4.65220E-07 2.52847E-02
 -1     10510-6.57054E-01 2.53476E-04 7.91362E-01 2.66510E-05 4.65220E-07-2.52847E-02
 -1     10511-7.09059E-01-1.43906E-04 8.41877E-01-2.42034E-06 4.22457E-08 2.70762E-02
 -1     10513-7.09059E-01-1.43906E-04 8.41877E-01-2.42034E-06-4.22457E-08-2.70762E-02
 -1     10514-7.09102E-01-1.43536E-04 8.41921E-01 1.55003E-06-2.70650E-08 2.70778E-02
 -1     10516-7.09102E-01-1.43536E-04 8.41921E-01 1.55003E-06 2.70650E-08-2.70778E-02
 -1     10517-6.63065E-01 2.57231E-04 7.97316E-01 7.90580E-07-1.38022E-08 2.54934E-02
 -1     10519-6.63065E-01 2.57231E-04 7.97316E-01 7.90580E-07 1.38022E-08-2.54934E-02
 -1     10520-6.62955E-01 2.57683E-04 7.97207E-01 4.27110E-07-7.45710E-09 2.54895E-02
 -1     10522-6.62955E-01 2.57683E-04 7.97207E-01 4.27110E-07 7.45710E-09-2.54895E-02
 -1     10523-7.01895E-01-1.51441E-04 8.34688E-01 1.10162E-06-1.92088E-08 2.68260E-02
 -1     10525-7.01895E-01-1.51441E-04 8.34688E-01 1.10162E-06 1.92088E-08-2.68260E-02
 -1     10526-7.01399E-01-1.51365E-04 8.34192E-01 3.33648E-06-5.82079E-08 2.68086E-02
 -1     10528-7.01399E-01-1.51365E-04 8.34192E-01 3.33648E-06 5.82080E-08-2.68086E-02
 -1     10529-7.08698E-01-1.42691E-04 8.41523E-01 6.29797E-07-1.10089E-08 2.70638E-02
 -1     10531-7.08698E-01-1.42691E-04 8.41523E-01 6.29797E-07 1.10089E-08-2.70638E-02
 -1     10532-7.08322E-01-1.46697E-04 8.41131E-01 4.91825E-06-8.57299E-08 2.70504E-02
 -1     10534-7.08322E-01-1.46697E-04 8.41131E-01 4.91825E-06 8.57299E-08-2.70504E-02
 -1     10535-6.62808E-01 2.57001E-04 7.97056E-01-3.65264E-06 6.37694E-08 2.54843E-02
 -1     10537-6.62808E-01 2.57001E-04 7.97056E-01-3.65264E-06-6.37694E-08-2.54843E-02
 -1     10538-6.20254E-03-1.27502E-06 1.39530E-01 8.85328E-09-1.56325E-10 2.54381E-03
 -1     10540-6.20254E-03-1.27502E-06 1.39530E-01 8.85328E-09 1.56325E-10-2.54381E-03
 -1     10541-6.20649E-03-1.30665E-06 1.39534E-01 1.48170E-08-2.59584E-10 2.54395E-03
 -1     10543-6.20649E-03-1.30665E-06 1.39534E-01 1.48170E-08 2.59584E-10-2.54395E-03
 -1     10544-1.60559E-01 5.53943E-09 2.93891E-01 1.61267E-05-2.81543E-07 7.93272E-03
 -1     10546-1.60559E-01 5.53943E-09 2.93891E-01 1.61267E-05 2.81543E-07-7.93272E-03
 -1     10547-1.69066E-01 1.82026E-08 3.02398E-01-1.73434E-05 3.02782E-07 8.22973E-03
 -1     10549-1.69066E-01 1.82026E-08 3.02398E-01-1.73434E-05-3.02782E-07-8.22973E-03
 -1     10550-2.72840E-01 1.27431E-06 4.06176E-01 3.65287E-05-6.37746E-07 1.18529E-02
 -1     10552-2.72840E-01 1.27431E-06 4.06176E-01 3.65287E-05 6.37746E-07-1.18529E-02
 -1     10553-2.88546E-01-1.15332E-06 4.21873E-01-3.97342E-05 6.93683E-07 1.24011E-02
 -1     10555-2.88546E-01-1.15332E-06 4.21873E-01-3.97342E-05-6.93683E-07-1.24011E-02
 -1     10556-2.65568E-01 8.27170E-09 3.98900E-01-4.95698E-07 8.65069E-09 1.15993E-02
 -1     10558-2.65568E-01 8.27170E-09 3.98900E-01-4.95698E-07-8.65069E-09-1.15993E-02
 -1     10559-1.30767E-01-4.94569E-09 2.64098E-01 1.21333E-05-2.11825E-07 6.89260E-03
 -1     10561-1.30767E-01-4.94569E-09 2.64098E-01 1.21333E-05 2.11825E-07-6.89260E-03
 -1     10562-1.37637E-01 3.43385E-08 2.70969E-01-1.29964E-05 2.26893E-07 7.13245E-03
 -1     10564-1.37637E-01 3.43385E-08 2.70969E-01-1.29964E-05-2.26893E-07-7.13245E-03
 -1     10565-1.06485E-01 2.61289E-08 2.39817E-01 9.34017E-06-1.63061E-07 6.04487E-03
 -1     10567-1.06485E-01 2.61289E-08 2.39817E-01 9.34017E-06 1.63061E-07-6.04487E-03
 -1     10568-1.12119E-01 6.45854E-10 2.45451E-01-9.93865E-06 1.73510E-07 6.24156E-03
 -1     10570-1.12119E-01 6.45856E-10 2.45451E-01-9.93865E-06-1.73510E-07-6.24156E-03
 -1     10571-8.64010E-02 1.04730E-08 2.19733E-01 7.32046E-06-1.27801E-07 5.34371E-03
 -1     10573-8.64010E-02 1.04730E-08 2.19733E-01 7.32046E-06 1.27801E-07-5.34371E-03
 -1     10574-9.10835E-02 1.09819E-09 2.24415E-01-7.76871E-06 1.35626E-07 5.50718E-03
 -1     10576-9.10835E-02 1.09819E-09 2.24415E-01-7.76871E-06-1.35626E-07-5.50718E-03
 -1     10577-8.41868E-02-1.04879E-08 2.17519E-01 1.77430E-09-3.06594E-11 5.26648E-03
 -1     10579-8.41868E-02-1.04879E-08 2.17519E-01 1.77430E-09 3.06594E-11-5.26648E-03
 -1     10580-6.22106E-02-1.24506E-09 1.95543E-01 5.22366E-06-9.11948E-08 4.49918E-03
 -1     10582-6.22106E-02-1.24506E-09 1.95543E-01 5.22366E-06 9.11948E-08-4.49918E-03
 -1     10583-6.58288E-02 5.22367E-09 1.99161E-01-5.51487E-06 9.62790E-08 4.62550E-03
 -1     10585-6.58288E-02 5.22367E-09 1.99161E-01-5.51487E-06-9.62790E-08-4.62550E-03
 -1     10586-4.90982E-02 5.50331E-09 1.82430E-01 4.26355E-06-7.44325E-08 4.04141E-03
 -1     10588-4.90982E-02 5.50331E-09 1.82430E-01 4.26355E-06 7.44325E-08-4.04141E-03
 -1     10589-5.21858E-02-5.47447E-09 1.85518E-01-4.47094E-06 7.80548E-08 4.14920E-03
 -1     10591-5.21858E-02-5.47447E-09 1.85518E-01-4.47094E-06-7.80548E-08-4.14920E-03
 -1     10592-3.78557E-02 7.88642E-08 1.71188E-01 3.48418E-06-6.08251E-08 3.64893E-03
 -1     10594-3.78557E-02 7.88642E-08 1.71188E-01 3.48418E-06 6.08251E-08-3.64893E-03
 -1     10595-4.05046E-02-6.22715E-08 1.73836E-01-3.61977E-06 6.31983E-08 3.74139E-03
 -1     10597-4.05046E-02-6.22715E-08 1.73836E-01-3.61977E-06-6.31983E-08-3.74139E-03
 -1     10598-6.17589E-03-1.30128E-06 1.39503E-01-4.85848E-08 8.47612E-10 2.54288E-03
 -1     10600-6.17589E-03-1.30128E-06 1.39503E-01-4.85848E-08-8.47612E-10-2.54288E-03
 -1     10601-6.15797E-03-1.24578E-06 1.39485E-01-3.93276E-08 6.95251E-10 2.54225E-03
 -1     10603-6.15797E-03-1.24578E-06 1.39485E-01-3.93276E-08-6.95251E-10-2.54225E-03
 -1     10604-2.38125E-02 3.67757E-07 1.57146E-01 2.57432E-06-4.49358E-08 3.15868E-03
 -1     10606-2.38125E-02 3.67757E-07 1.57146E-01 2.57432E-06 4.49358E-08-3.15868E-03
 -1     10607-2.59278E-02-3.05232E-07 1.59259E-01-2.61591E-06 4.56801E-08 3.23249E-03
 -1     10609-2.59278E-02-3.05232E-07 1.59259E-01-2.61591E-06-4.56801E-08-3.23249E-03
 -1     10610-1.61853E-02 5.93964E-07 1.49520E-01 1.42866E-06-2.49665E-08 2.89243E-03
 -1     10612-1.61853E-02 5.93964E-07 1.49520E-01 1.42866E-06 2.49665E-08-2.89243E-03
 -1     10613-1.79564E-02-4.52387E-07 1.51286E-01-1.87486E-06 3.27386E-08 2.95417E-03
 -1     10615-1.79564E-02-4.52387E-07 1.51286E-01-1.87486E-06-3.27386E-08-2.95417E-03
 -1     10616-7.03131E-01-1.73853E-04 8.35906E-01-1.87622E-06 3.20417E-08 2.68685E-02
 -1     10618-7.03131E-01-1.73853E-04 8.35906E-01-1.87622E-06-3.20417E-08-2.68685E-02
 -1     10619-7.03099E-01-1.39157E-04 8.35921E-01-1.89499E-05 3.31919E-07 2.68683E-02
 -1     10621-7.03099E-01-1.39157E-04 8.35921E-01-1.89499E-05-3.31919E-07-2.68683E-02
 -1     10622-6.93254E-01-9.15551E-05 8.26135E-01-3.10471E-06 5.16252E-08 2.65266E-02
 -1     10624-6.93254E-01-9.15551E-05 8.26135E-01-3.10471E-06-5.16252E-08-2.65266E-02
 -1     10625-6.07346E-03-1.27276E-06 1.39401E-01 6.61256E-09-9.55991E-11 2.53930E-03
 -1     10627-6.07346E-03-1.27276E-06 1.39401E-01 6.61256E-09 9.55990E-11-2.53930E-03
 -1     10628-6.09986E-03-1.25832E-06 1.39427E-01 1.12005E-08-2.12171E-10 2.54022E-03
 -1     10630-6.09986E-03-1.25832E-06 1.39427E-01 1.12005E-08 2.12171E-10-2.54022E-03
 -1     10631-2.81529E-02 2.45339E-07 1.61486E-01 2.87624E-06-5.02087E-08 3.31020E-03
 -1     10633-2.81529E-02 2.45339E-07 1.61486E-01 2.87624E-06 5.02087E-08-3.31020E-03
 -1     10634-3.04429E-02-1.81857E-07 1.63774E-01-2.93389E-06 5.12260E-08 3.39012E-03
 -1     10636-3.04429E-02-1.81857E-07 1.63774E-01-2.93389E-06-5.12260E-08-3.39012E-03
 -1     10637-2.69860E-02 3.61664E-10 1.60318E-01-1.21594E-07 2.12678E-09 3.26948E-03
 -1     10639-2.69860E-02 3.61663E-10 1.60318E-01-1.21594E-07-2.12678E-09-3.26948E-03
 -1     10640-6.21315E-03-1.28552E-06 1.39541E-01-2.21621E-09 3.65128E-11 2.54418E-03
 -1     10642-6.21315E-03-1.28552E-06 1.39541E-01-2.21621E-09-3.65128E-11-2.54418E-03
 -1     10643-6.21361E-03-1.30618E-06 1.39541E-01 6.70241E-09-1.16964E-10 2.54419E-03
 -1     10645-6.21361E-03-1.30618E-06 1.39541E-01 6.70241E-09 1.16964E-10-2.54419E-03
 -1     10646-7.53849E-03 2.70284E-06 1.40880E-01-3.97979E-08 6.94750E-10 2.59068E-03
 -1     10648-7.53849E-03 2.70284E-06 1.40880E-01-3.97979E-08-6.94750E-10-2.59068E-03
 -1     10649-6.21398E-03-1.29323E-06 1.39541E-01-1.15105E-08 1.99305E-10 2.54421E-03
 -1     10651-6.21398E-03-1.29323E-06 1.39541E-01-1.15105E-08-1.99305E-10-2.54421E-03
 -1     10652-6.20984E-03-1.29341E-06 1.39537E-01-1.40889E-09 2.59704E-11 2.54406E-03
 -1     10654-6.20984E-03-1.29341E-06 1.39537E-01-1.40889E-09-2.59704E-11-2.54406E-03
 -1     10655-7.54554E-03 2.71629E-06 1.40887E-01-9.53670E-09 1.66455E-10 2.59093E-03
 -1     10657-7.54554E-03 2.71629E-06 1.40887E-01-9.53670E-09-1.66455E-10-2.59093E-03
 -1     10658-6.11640E-03-1.29476E-06 1.39444E-01-6.21191E-08 1.09501E-09 2.54080E-03
 -1     10660-6.11640E-03-1.29476E-06 1.39444E-01-6.21191E-08-1.09501E-09-2.54080E-03
 -1     10661-6.10382E-03-1.16712E-06 1.39432E-01-6.67759E-08 1.17204E-09 2.54037E-03
 -1     10663-6.10382E-03-1.16712E-06 1.39432E-01-6.67759E-08-1.17204E-09-2.54037E-03
 -1     10664-7.45380E-03 2.55517E-06 1.40795E-01 1.86693E-07-3.25978E-09 2.58772E-03
 -1     10666-7.45380E-03 2.55517E-06 1.40795E-01 1.86693E-07 3.25978E-09-2.58772E-03
 -1     10667-6.58528E-03-9.77527E-07 1.39913E-01 1.02600E-06-1.80253E-08 2.55718E-03
 -1     10669-6.58528E-03-9.77527E-07 1.39913E-01 1.02600E-06 1.80253E-08-2.55718E-03
 -1     10670-8.32774E-03 1.46024E-06 1.41666E-01-1.83988E-06 3.20913E-08 2.61818E-03
 -1     10672-8.32774E-03 1.46024E-06 1.41666E-01-1.83988E-06-3.20913E-08-2.61818E-03
 -1     10673-6.45362E-03-8.68052E-07 1.39782E-01 3.08170E-07-5.40609E-09 2.55260E-03
 -1     10675-6.45362E-03-8.68052E-07 1.39782E-01 3.08170E-07 5.40609E-09-2.55260E-03
 -1     10676-6.18240E-03-1.27635E-06 1.39510E-01 3.66215E-09-6.33810E-11 2.54311E-03
 -1     10678-6.18240E-03-1.27635E-06 1.39510E-01 3.66215E-09 6.33811E-11-2.54311E-03
 -1     10679-6.18364E-03-1.28303E-06 1.39511E-01 9.43644E-09-1.66265E-10 2.54315E-03
 -1     10681-6.18364E-03-1.28303E-06 1.39511E-01 9.43644E-09 1.66266E-10-2.54315E-03
 -1     10682-7.50210E-03 2.67068E-06 1.40844E-01 1.98613E-09-3.46702E-11 2.58940E-03
 -1     10684-7.50210E-03 2.67068E-06 1.40844E-01 1.98613E-09 3.46702E-11-2.58940E-03
 -1     10685-7.09134E-01-1.43391E-04 8.41954E-01-1.40802E-06 2.46182E-08 2.70789E-02
 -1     10687-7.09134E-01-1.43391E-04 8.41954E-01-1.40802E-06-2.46182E-08-2.70789E-02
 -1     10688-7.09004E-01-1.44194E-04 8.41821E-01 2.91997E-06-5.10030E-08 2.70743E-02
 -1     10690-7.09004E-01-1.44194E-04 8.41821E-01 2.91997E-06 5.10030E-08-2.70743E-02
 -1     10691-6.63135E-01 2.57011E-04 7.97391E-01-2.65809E-06 4.64065E-08 2.54959E-02
 -1     10693-6.63135E-01 2.57011E-04 7.97391E-01-2.65809E-06-4.64065E-08-2.54959E-02
 -1     10694-6.18206E-03-1.27394E-06 1.39509E-01 5.67265E-09-1.00925E-10 2.54309E-03
 -1     10696-6.18206E-03-1.27394E-06 1.39509E-01 5.67265E-09 1.00925E-10-2.54309E-03
 -1     10697-6.18557E-03-1.27868E-06 1.39513E-01 9.36577E-09-1.61903E-10 2.54322E-03
 -1     10699-6.18557E-03-1.27868E-06 1.39513E-01 9.36577E-09 1.61903E-10-2.54322E-03
 -1     10700-6.13394E-03-1.21962E-06 1.39462E-01 2.38937E-08-4.20073E-10 2.54142E-03
 -1     10702-6.13394E-03-1.21962E-06 1.39462E-01 2.38937E-08 4.20073E-10-2.54142E-03
 -1     10703-6.14452E-03-1.29222E-06 1.39472E-01 2.71423E-08-4.77221E-10 2.54178E-03
 -1     10705-6.14452E-03-1.29222E-06 1.39472E-01 2.71423E-08 4.77221E-10-2.54178E-03
 -1     10706-6.09039E-03-1.19863E-06 1.39418E-01 2.64939E-08-4.57848E-10 2.53989E-03
 -1     10708-6.09039E-03-1.19863E-06 1.39418E-01 2.64939E-08 4.57848E-10-2.53989E-03
 -1     10709-6.08193E-03-1.25990E-06 1.39410E-01 2.57444E-09-5.59351E-11 2.53960E-03
 -1     10711-6.08193E-03-1.25990E-06 1.39410E-01 2.57444E-09 5.59350E-11-2.53960E-03
 -1     10712-7.00748E-01-1.58117E-04 8.33508E-01-1.25088E-05 2.16495E-07 2.67851E-02
 -1     10714-7.00748E-01-1.58117E-04 8.33508E-01-1.25088E-05-2.16495E-07-2.67851E-02
 -1     10715-7.02940E-01-1.68896E-04 8.35755E-01-1.18125E-05 2.07107E-07 2.68627E-02
 -1     10717-7.02940E-01-1.68896E-04 8.35755E-01-1.18125E-05-2.07107E-07-2.68627E-02
 -1     10718-6.56062E-01 2.41962E-04 7.90329E-01-2.74830E-05 4.79692E-07 2.52493E-02
 -1     10720-6.56062E-01 2.41962E-04 7.90329E-01-2.74830E-05-4.79692E-07-2.52493E-02
 -1     10721-6.49628E-01 2.29650E-04 7.83762E-01 3.08019E-05-5.38555E-07 2.50221E-02
 -1     10723-6.49628E-01 2.29650E-04 7.83762E-01 3.08019E-05 5.38555E-07-2.50221E-02
 -1     10724-7.07612E-01-1.42402E-04 8.40439E-01 3.40200E-06-5.93657E-08 2.70259E-02
 -1     10726-7.07612E-01-1.42402E-04 8.40439E-01 3.40200E-06 5.93657E-08-2.70259E-02
 -1     10727-7.06934E-01-1.51001E-04 8.39731E-01 7.70923E-06-1.34324E-07 2.70017E-02
 -1     10729-7.06934E-01-1.51001E-04 8.39731E-01 7.70923E-06 1.34324E-07-2.70017E-02
 -1     10730-6.61821E-01 2.58873E-04 7.96073E-01-8.39232E-06 1.46515E-07 2.54500E-02
 -1     10732-6.61821E-01 2.58873E-04 7.96073E-01-8.39232E-06-1.46515E-07-2.54500E-02
 -1     10733-7.00792E-01-1.45098E-04 8.33581E-01-2.74242E-06 4.81397E-08 2.67875E-02
 -1     10735-7.00792E-01-1.45098E-04 8.33581E-01-2.74242E-06-4.81397E-08-2.67875E-02
 -1     10736-7.00980E-01-1.48513E-04 8.33777E-01 6.73207E-06-1.18126E-07 2.67941E-02
 -1     10738-7.00980E-01-1.48513E-04 8.33777E-01 6.73207E-06 1.18126E-07-2.67941E-02
 -1     10739-6.55364E-01 2.25305E-04 7.89640E-01 3.66787E-05-6.40216E-07 2.52253E-02
 -1     10741-6.55364E-01 2.25305E-04 7.89640E-01 3.66787E-05 6.40216E-07-2.52253E-02
 -1     10742-6.53986E-01 2.91651E-04 7.88298E-01-1.03521E-05 1.80719E-07 2.51776E-02
 -1     10744-6.53986E-01 2.91651E-04 7.88298E-01-1.03521E-05-1.80719E-07-2.51776E-02
 -1     10745-6.99002E-01-1.04221E-04 8.31855E-01-1.80024E-05 3.16527E-07 2.67265E-02
 -1     10747-6.99002E-01-1.04221E-04 8.31855E-01-1.80024E-05-3.16527E-07-2.67265E-02
 -1     10748-6.19936E-01-7.65502E-05 7.53045E-01 8.50767E-05-1.47999E-06 2.39684E-02
 -1     10750-6.19936E-01-7.65502E-05 7.53045E-01 8.50767E-05 1.47999E-06-2.39684E-02
 -1     10751-5.72807E-01 3.02205E-05 7.06225E-01-1.61766E-04 2.82610E-06 2.23278E-02
 -1     10753-5.72807E-01 3.02205E-05 7.06225E-01-1.61766E-04-2.82610E-06-2.23278E-02
 -1     10754-5.38741E-01-1.61324E-08 6.72154E-01 1.03949E-04-1.81408E-06 2.11380E-02
 -1     10756-5.38741E-01-1.61324E-08 6.72154E-01 1.03949E-04 1.81408E-06-2.11380E-02
 -1     10757-5.03946E-01-9.22013E-06 6.37260E-01-9.72651E-05 1.69813E-06 1.99216E-02
 -1     10759-5.03946E-01-9.22013E-06 6.37260E-01-9.72651E-05-1.69813E-06-1.99216E-02
 -1     10760-5.55205E-01 1.21801E-05 6.88447E-01 4.80492E-06-8.48348E-08 2.17108E-02
 -1     10762-5.55205E-01 1.21801E-05 6.88447E-01 4.80492E-06 8.48348E-08-2.17108E-02
 -1     10763-4.72320E-01 6.61274E-06 6.05672E-01 8.80431E-05-1.53700E-06 1.88179E-02
 -1     10765-4.72320E-01 6.61274E-06 6.05672E-01 8.80431E-05 1.53700E-06-1.88179E-02
 -1     10766-4.43208E-01-4.28946E-06 5.76521E-01-7.73797E-05 1.35092E-06 1.78008E-02
 -1     10768-4.43208E-01-4.28946E-06 5.76521E-01-7.73797E-05-1.35092E-06-1.78008E-02
 -1     10769-4.89298E-01-8.20167E-06 6.22619E-01-3.64280E-06 6.37045E-08 1.94112E-02
 -1     10771-4.89298E-01-8.20167E-06 6.22619E-01-3.64280E-06-6.37045E-08-1.94112E-02
 -1     10772-4.16342E-01 5.44660E-06 5.49693E-01 7.19904E-05-1.25679E-06 1.68634E-02
 -1     10774-4.16342E-01 5.44660E-06 5.49693E-01 7.19904E-05 1.25679E-06-1.68634E-02
 -1     10775-3.91621E-01-4.36929E-06 5.24938E-01-6.24307E-05 1.08991E-06 1.59997E-02
 -1     10777-3.91621E-01-4.36929E-06 5.24938E-01-6.24307E-05-1.08991E-06-1.59997E-02
 -1     10778-4.30868E-01 1.15449E-06 5.64197E-01-1.59568E-06 2.79108E-08 1.73710E-02
 -1     10780-4.30868E-01 1.15449E-06 5.64197E-01-1.59568E-06-2.79108E-08-1.73710E-02
 -1     10781-3.68600E-01 4.11947E-06 5.01947E-01 5.90369E-05-1.03067E-06 1.51964E-02
 -1     10783-3.68600E-01 4.11947E-06 5.01947E-01 5.90369E-05 1.03067E-06-1.51964E-02
 -1     10784-3.47410E-01-3.43731E-06 4.80729E-01-5.14750E-05 8.98640E-07 1.44562E-02
 -1     10786-3.47410E-01-3.43731E-06 4.80729E-01-5.14750E-05-8.98640E-07-1.44562E-02
 -1     10787-3.81035E-01-5.13383E-07 5.14366E-01-1.66335E-06 2.90979E-08 1.56310E-02
 -1     10789-3.81035E-01-5.13383E-07 5.14366E-01-1.66335E-06-2.90979E-08-1.56310E-02
 -1     10790-3.27595E-01 3.41934E-06 4.60938E-01 4.85840E-05-8.48189E-07 1.37647E-02
 -1     10792-3.27595E-01 3.41934E-06 4.60938E-01 4.85840E-05 8.48189E-07-1.37647E-02
 -1     10793-3.09302E-01-2.62889E-06 4.42625E-01-4.27054E-05 7.45548E-07 1.31257E-02
 -1     10795-3.09302E-01-2.62889E-06 4.42625E-01-4.27054E-05-7.45548E-07-1.31257E-02
 -1     10796-3.38246E-01-6.94410E-07 4.71577E-01-1.22109E-06 2.13775E-08 1.41369E-02
 -1     10798-3.38246E-01-6.94410E-07 4.71577E-01-1.22109E-06-2.13775E-08-1.41369E-02
 -1     10799-2.92157E-01 2.70342E-06 4.25498E-01 4.01522E-05-7.00986E-07 1.25274E-02
 -1     10801-2.92157E-01 2.70342E-06 4.25498E-01 4.01522E-05 7.00986E-07-1.25274E-02
 -1     10802-2.76257E-01-2.18971E-06 4.09581E-01-3.54809E-05 6.19429E-07 1.19720E-02
 -1     10804-2.76257E-01-2.18971E-06 4.09581E-01-3.54809E-05-6.19429E-07-1.19720E-02
 -1     10805-3.01325E-01-4.57051E-07 4.34656E-01-8.34053E-07 1.46159E-08 1.28477E-02
 -1     10807-3.01325E-01-4.57051E-07 4.34656E-01-8.34053E-07-1.46159E-08-1.28477E-02
 -1     10808-2.61332E-01 2.29633E-06 3.94672E-01 3.33868E-05-5.82873E-07 1.14511E-02
 -1     10810-2.61332E-01 2.29633E-06 3.94672E-01 3.33868E-05 5.82873E-07-1.14511E-02
 -1     10811-2.47432E-01-1.79850E-06 3.80757E-01-2.95638E-05 5.16131E-07 1.09656E-02
 -1     10813-2.47432E-01-1.79850E-06 3.80757E-01-2.95638E-05-5.16131E-07-1.09656E-02
 -1     10814-2.69286E-01-3.33408E-07 4.02618E-01-5.73085E-07 1.00515E-08 1.17291E-02
 -1     10816-2.69286E-01-3.33408E-07 4.02618E-01-5.73085E-07-1.00515E-08-1.17291E-02
 -1     10817-2.34357E-01 2.01740E-06 3.67696E-01 2.79650E-05-4.88219E-07 1.05093E-02
 -1     10819-2.34357E-01 2.01740E-06 3.67696E-01 2.79650E-05 4.88219E-07-1.05093E-02
 -1     10820-2.22132E-01-1.54450E-06 3.55459E-01-2.48976E-05 4.34669E-07 1.00823E-02
 -1     10822-2.22132E-01-1.54450E-06 3.55459E-01-2.48976E-05-4.34669E-07-1.00823E-02
 -1     10823-2.41312E-01-2.95087E-07 3.74644E-01-4.50029E-07 7.89413E-09 1.07524E-02
 -1     10825-2.41312E-01-2.95087E-07 3.74644E-01-4.50029E-07-7.89413E-09-1.07524E-02
 -1     10826-2.10606E-01 1.66400E-06 3.43944E-01 2.36370E-05-4.12658E-07 9.68011E-03
 -1     10828-2.10606E-01 1.66400E-06 3.43944E-01 2.36370E-05 4.12658E-07-9.68011E-03
 -1     10829-1.99790E-01-1.39394E-06 3.33117E-01-2.11047E-05 3.68450E-07 9.30231E-03
 -1     10831-1.99790E-01-1.39394E-06 3.33117E-01-2.11047E-05-3.68450E-07-9.30231E-03
 -1     10832-2.16733E-01-1.78927E-07 3.50065E-01-3.92747E-07 6.88803E-09 9.89417E-03
 -1     10834-2.16733E-01-1.78927E-07 3.50065E-01-3.92747E-07-6.88803E-09-9.89417E-03
 -1     10835-1.89570E-01 1.44886E-06 3.22908E-01 2.01493E-05-3.51767E-07 8.94567E-03
 -1     10837-1.89570E-01 1.44886E-06 3.22908E-01 2.01493E-05 3.51767E-07-8.94567E-03
 -1     10838-1.79955E-01-1.19546E-06 3.13282E-01-1.79916E-05 3.14101E-07 8.60981E-03
 -1     10840-1.79955E-01-1.19546E-06 3.13282E-01-1.79916E-05-3.14101E-07-8.60981E-03
 -1     10841-1.95005E-01-1.49648E-07 3.28337E-01-3.32946E-07 5.83941E-09 9.13555E-03
 -1     10843-1.95005E-01-1.49647E-07 3.28337E-01-3.32946E-07-5.83941E-09-9.13555E-03
 -1     10844-1.70847E-01 1.28792E-06 3.04183E-01 1.72901E-05-3.01852E-07 8.29197E-03
 -1     10846-1.70847E-01 1.28792E-06 3.04183E-01 1.72901E-05 3.01852E-07-8.29197E-03
 -1     10847-1.62259E-01-1.04534E-06 2.95587E-01-1.54999E-05 2.70600E-07 7.99202E-03
 -1     10849-1.62259E-01-1.04534E-06 2.95587E-01-1.54999E-05-2.70600E-07-7.99202E-03
 -1     10850-1.75693E-01-1.63589E-07 3.09024E-01-2.96374E-07 5.19712E-09 8.46125E-03
 -1     10852-1.75693E-01-1.63589E-07 3.09024E-01-2.96374E-07-5.19712E-09-8.46125E-03
 -1     10853-1.54107E-01 1.07831E-06 2.87443E-01 1.49276E-05-2.60607E-07 7.70753E-03
 -1     10855-1.54107E-01 1.07831E-06 2.87443E-01 1.49276E-05 2.60607E-07-7.70753E-03
 -1     10856-1.46404E-01-9.46235E-07 2.79732E-01-1.34110E-05 2.34132E-07 7.43847E-03
 -1     10858-1.46404E-01-9.46235E-07 2.79732E-01-1.34110E-05-2.34132E-07-7.43847E-03
 -1     10859-1.58445E-01-1.13708E-07 2.91777E-01-2.70898E-07 4.75031E-09 7.85907E-03
 -1     10861-1.58445E-01-1.13708E-07 2.91777E-01-2.70898E-07-4.75031E-09-7.85907E-03
 -1     10862-1.39078E-01 9.50876E-07 2.72413E-01 1.29536E-05-2.26145E-07 7.18282E-03
 -1     10864-1.39078E-01 9.50876E-07 2.72413E-01 1.29536E-05 2.26145E-07-7.18282E-03
 -1     10865-1.32145E-01-8.08390E-07 2.65474E-01-1.16355E-05 2.03133E-07 6.94067E-03
 -1     10867-1.32145E-01-8.08390E-07 2.65474E-01-1.16355E-05-2.03133E-07-6.94067E-03
 -1     10868-1.42978E-01-1.01108E-07 2.76310E-01-2.31327E-07 4.05757E-09 7.31905E-03
 -1     10870-1.42978E-01-1.01108E-07 2.76310E-01-2.31327E-07-4.05757E-09-7.31905E-03
 -1     10871-1.25537E-01 8.49500E-07 2.58872E-01 1.12926E-05-1.97148E-07 6.71008E-03
 -1     10873-1.25537E-01 8.49500E-07 2.58872E-01 1.12926E-05 1.97148E-07-6.71008E-03
 -1     10874-1.19276E-01-6.68841E-07 2.52606E-01-1.01902E-05 1.77900E-07 6.49141E-03
 -1     10876-1.19276E-01-6.68841E-07 2.52606E-01-1.01902E-05-1.77900E-07-6.49141E-03
 -1     10877-1.29053E-01-1.07070E-07 2.62385E-01-1.98955E-07 3.49020E-09 6.83290E-03
 -1     10879-1.29053E-01-1.07070E-07 2.62385E-01-1.98955E-07-3.49020E-09-6.83290E-03
 -1     10880-1.13294E-01 6.99997E-07 2.46628E-01 9.90220E-06-1.72874E-07 6.28263E-03
 -1     10882-1.13294E-01 6.99997E-07 2.46628E-01 9.90220E-06 1.72874E-07-6.28263E-03
 -1     10883-1.07612E-01-5.82820E-07 2.40942E-01-8.98055E-06 1.56783E-07 6.08418E-03
 -1     10885-1.07612E-01-5.82820E-07 2.40942E-01-8.98055E-06-1.56783E-07-6.08418E-03
 -1     10886-1.16471E-01-8.34942E-08 2.49803E-01-1.74514E-07 3.06181E-09 6.39360E-03
 -1     10888-1.16471E-01-8.34942E-08 2.49803E-01-1.74514E-07-3.06181E-09-6.39360E-03
 -1     10889-1.02177E-01 5.87875E-07 2.35511E-01 8.74063E-06-1.52594E-07 5.89451E-03
 -1     10891-1.02177E-01 5.87875E-07 2.35511E-01 8.74063E-06 1.52594E-07-5.89451E-03
 -1     10892-9.70039E-02-5.26347E-07 2.30334E-01-7.93681E-06 1.38562E-07 5.71384E-03
 -1     10894-9.70039E-02-5.26347E-07 2.30334E-01-7.93681E-06-1.38562E-07-5.71384E-03
 -1     10895-1.05060E-01-6.08417E-08 2.38392E-01-1.51072E-07 2.65145E-09 5.99521E-03
 -1     10897-1.05060E-01-6.08417E-08 2.38392E-01-1.51072E-07-2.65145E-09-5.99521E-03
 -1     10898-9.20514E-02 5.27594E-07 2.25385E-01 7.73658E-06-1.35066E-07 5.54101E-03
 -1     10900-9.20514E-02 5.27594E-07 2.25385E-01 7.73658E-06 1.35066E-07-5.54101E-03
 -1     10901-8.73316E-02-4.53083E-07 2.20662E-01-7.02229E-06 1.22596E-07 5.37617E-03
 -1     10903-8.73316E-02-4.53083E-07 2.20662E-01-7.02229E-06-1.22596E-07-5.37617E-03
 -1     10904-9.46779E-02-5.48164E-08 2.28010E-01-1.25693E-07 2.20721E-09 5.63275E-03
 -1     10906-9.46779E-02-5.48164E-08 2.28010E-01-1.25693E-07-2.20721E-09-5.63275E-03
 -1     10907-8.28071E-02 4.82412E-07 2.16141E-01 6.86457E-06-1.19843E-07 5.21826E-03
 -1     10909-8.28071E-02 4.82412E-07 2.16141E-01 6.86457E-06 1.19843E-07-5.21826E-03
 -1     10910-7.84901E-02-4.00390E-07 2.11821E-01-6.25063E-06 1.09124E-07 5.06750E-03
 -1     10912-7.84901E-02-4.00390E-07 2.11821E-01-6.25063E-06-1.09124E-07-5.06750E-03
 -1     10913-8.52057E-02-6.09236E-08 2.18538E-01-1.10380E-07 1.93846E-09 5.30205E-03
 -1     10915-8.52057E-02-6.09236E-08 2.18538E-01-1.10380E-07-1.93846E-09-5.30205E-03
 -1     10916-7.43476E-02 4.14400E-07 2.07681E-01 6.10981E-06-1.06666E-07 4.92293E-03
 -1     10918-7.43476E-02 4.14400E-07 2.07681E-01 6.10981E-06 1.06666E-07-4.92293E-03
 -1     10919-7.03887E-02-3.69881E-07 2.03719E-01-5.56810E-06 9.72091E-08 4.78467E-03
 -1     10921-7.03887E-02-3.69881E-07 2.03719E-01-5.56810E-06-9.72091E-08-4.78467E-03
 -1     10922-7.65429E-02-4.09494E-08 2.09875E-01-1.00605E-07 1.76707E-09 4.99961E-03
 -1     10924-7.65429E-02-4.09494E-08 2.09875E-01-1.00605E-07-1.76707E-09-4.99961E-03
 -1     10925-6.65875E-02 3.77792E-07 1.99921E-01 5.45203E-06-9.51819E-08 4.65201E-03
 -1     10927-6.65875E-02 3.77792E-07 1.99921E-01 5.45203E-06 9.51819E-08-4.65201E-03
 -1     10928-6.29506E-02-3.27775E-07 1.96281E-01-4.96084E-06 8.66075E-08 4.52500E-03
 -1     10930-6.29506E-02-3.27775E-07 1.96281E-01-4.96084E-06-8.66075E-08-4.52500E-03
 -1     10931-6.86028E-02-3.65939E-08 2.01935E-01-8.73460E-08 1.53484E-09 4.72240E-03
 -1     10933-6.86028E-02-3.65939E-08 2.01935E-01-8.73460E-08-1.53484E-09-4.72240E-03
 -1     10934-5.94553E-02 3.53989E-07 1.92788E-01 4.87366E-06-8.50849E-08 4.40301E-03
 -1     10936-5.94553E-02 3.53989E-07 1.92788E-01 4.87366E-06 8.50849E-08-4.40301E-03
 -1     10937-5.61071E-02-3.02375E-07 1.89438E-01-4.44213E-06 7.75524E-08 4.28608E-03
 -1     10939-5.61071E-02-3.02375E-07 1.89438E-01-4.44213E-06-7.75524E-08-4.28608E-03
 -1     10940-6.13096E-02-4.22513E-08 1.94642E-01-7.99658E-08 1.40510E-09 4.46778E-03
 -1     10942-6.13096E-02-4.22513E-08 1.94642E-01-7.99658E-08-1.40510E-09-4.46778E-03
 -1     10943-5.28877E-02 3.18345E-07 1.86221E-01 4.36625E-06-7.62259E-08 4.17372E-03
 -1     10945-5.28877E-02 3.18345E-07 1.86221E-01 4.36625E-06 7.62259E-08-4.17372E-03
 -1     10946-4.97984E-02-2.96183E-07 1.83129E-01-3.97520E-06 6.94015E-08 4.06584E-03
 -1     10948-4.97984E-02-2.96183E-07 1.83129E-01-3.97520E-06-6.94015E-08-4.06584E-03
 -1     10949-5.45977E-02-2.99462E-08 1.87930E-01-7.76495E-08 1.36415E-09 4.23345E-03
 -1     10951-5.45977E-02-2.99462E-08 1.87930E-01-7.76495E-08-1.36415E-09-4.23345E-03
 -1     10952-4.68285E-02 3.12118E-07 1.80162E-01 3.91813E-06-6.84021E-08 3.96219E-03
 -1     10954-4.68285E-02 3.12118E-07 1.80162E-01 3.91813E-06 6.84021E-08-3.96219E-03
 -1     10955-4.39739E-02-2.88230E-07 1.77305E-01-3.55144E-06 6.20042E-08 3.86250E-03
 -1     10957-4.39739E-02-2.88230E-07 1.77305E-01-3.55144E-06-6.20042E-08-3.86250E-03
 -1     10958-4.84111E-02-2.88001E-08 1.81743E-01-7.60147E-08 1.33504E-09 4.01746E-03
 -1     10960-4.84111E-02-2.88001E-08 1.81743E-01-7.60147E-08-1.33504E-09-4.01746E-03
 -1     10961-4.12301E-02 3.25319E-07 1.74563E-01 3.52212E-06-6.14880E-08 3.76674E-03
 -1     10963-4.12301E-02 3.25319E-07 1.74563E-01 3.52212E-06 6.14880E-08-3.76674E-03
 -1     10964-3.85873E-02-3.01775E-07 1.71918E-01-3.18638E-06 5.56320E-08 3.67444E-03
 -1     10966-3.85873E-02-3.01775E-07 1.71918E-01-3.18638E-06-5.56320E-08-3.67444E-03
 -1     10967-4.26999E-02-3.54462E-08 1.76032E-01-8.36153E-08 1.46712E-09 3.81807E-03
 -1     10969-4.26999E-02-3.54462E-08 1.76032E-01-8.36153E-08-1.46712E-09-3.81807E-03
 -1     10970-3.60482E-02 3.42990E-07 1.69381E-01 3.17806E-06-5.54801E-08 3.58584E-03
 -1     10972-3.60482E-02 3.42990E-07 1.69381E-01 3.17806E-06 5.54801E-08-3.58584E-03
 -1     10973-3.35951E-02-3.42143E-07 1.66926E-01-2.85617E-06 4.98684E-08 3.50016E-03
 -1     10975-3.35951E-02-3.42143E-07 1.66926E-01-2.85617E-06-4.98684E-08-3.50016E-03
 -1     10976-3.74194E-02-2.95103E-08 1.70751E-01-9.98591E-08 1.75066E-09 3.63372E-03
 -1     10978-3.74194E-02-2.95103E-08 1.70751E-01-9.98591E-08-1.75066E-09-3.63372E-03
 -1     10979-3.12400E-02 3.92015E-07 1.64573E-01 2.87752E-06-5.02322E-08 3.41798E-03
 -1     10981-3.12400E-02 3.92015E-07 1.64573E-01 2.87752E-06 5.02322E-08-3.41798E-03
 -1     10982-2.89585E-02-3.94745E-07 1.62289E-01-2.55493E-06 4.46106E-08 3.33828E-03
 -1     10984-2.89585E-02-3.94745E-07 1.62289E-01-2.55493E-06-4.46106E-08-3.33828E-03
 -1     10985-3.25276E-02-4.03423E-08 1.65860E-01-1.18609E-07 2.07829E-09 3.46294E-03
 -1     10987-3.25276E-02-4.03423E-08 1.65860E-01-1.18609E-07-2.07829E-09-3.46294E-03
 -1     10988-2.67692E-02 4.66859E-07 1.60103E-01 2.61021E-06-4.55646E-08 3.26190E-03
 -1     10990-2.67692E-02 4.66859E-07 1.60103E-01 2.61021E-06 4.55646E-08-3.26190E-03
 -1     10991-2.46403E-02-4.68961E-07 1.57971E-01-2.29462E-06 4.00680E-08 3.18753E-03
 -1     10993-2.46403E-02-4.68961E-07 1.57971E-01-2.29462E-06-4.00680E-08-3.18753E-03
 -1     10994-2.79859E-02-5.57198E-08 1.61318E-01-1.45426E-07 2.54639E-09 3.30438E-03
 -1     10996-2.79859E-02-5.57198E-08 1.61318E-01-1.45426E-07-2.54639E-09-3.30438E-03
 -1     10997-2.26004E-02 5.72488E-07 1.55934E-01 2.38575E-06-4.16432E-08 3.11637E-03
 -1     10999-2.26004E-02 5.72488E-07 1.55934E-01 2.38575E-06 4.16432E-08-3.11637E-03
 -1     11000-2.06020E-02-5.72625E-07 1.53932E-01-2.06025E-06 3.59787E-08 3.04654E-03
 -1     11002-2.06020E-02-5.72625E-07 1.53932E-01-2.06025E-06-3.59787E-08-3.04654E-03
 -1     11003-2.37598E-02-5.47088E-08 1.57092E-01-1.84229E-07 3.22299E-09 3.15684E-03
 -1     11005-2.37598E-02-5.47088E-08 1.57092E-01-1.84229E-07-3.22299E-09-3.15684E-03
 -1     11006-1.86904E-02 7.56064E-07 1.52025E-01 2.23458E-06-3.89997E-08 2.97988E-03
 -1     11008-1.86904E-02 7.56064E-07 1.52025E-01 2.23458E-06 3.89997E-08-2.97988E-03
 -1     11009-1.67944E-02-7.32023E-07 1.50124E-01-1.87007E-06 3.26618E-08 2.91361E-03
 -1     11011-1.67944E-02-7.32023E-07 1.50124E-01-1.87007E-06-3.26618E-08-2.91361E-03
 -1     11012-1.98120E-02-7.23288E-08 1.53144E-01-2.32445E-07 4.06360E-09 3.01901E-03
 -1     11014-1.98120E-02-7.23288E-08 1.53144E-01-2.32445E-07-4.06360E-09-3.01901E-03
 -1     11015-1.49833E-02 1.07888E-06 1.48319E-01 2.21638E-06-3.86737E-08 2.85048E-03
 -1     11017-1.49833E-02 1.07888E-06 1.48319E-01 2.21638E-06 3.86737E-08-2.85048E-03
 -1     11018-1.31408E-02-1.00346E-06 1.46469E-01-1.75496E-06 3.06646E-08 2.78605E-03
 -1     11020-1.31408E-02-1.00346E-06 1.46469E-01-1.75496E-06-3.06646E-08-2.78605E-03
 -1     11021-1.60940E-02-1.18710E-07 1.49425E-01-3.06380E-07 5.35347E-09 2.88921E-03
 -1     11023-1.60940E-02-1.18710E-07 1.49425E-01-3.06380E-07-5.35347E-09-2.88921E-03
 -1     11024-1.13931E-02 1.30864E-06 1.44730E-01 2.30140E-06-4.01412E-08 2.72518E-03
 -1     11026-1.13931E-02 1.30864E-06 1.44730E-01 2.30140E-06 4.01412E-08-2.72518E-03
 -1     11027-9.47932E-03-1.02260E-06 1.42807E-01-1.42429E-06 2.49865E-08 2.65822E-03
 -1     11029-9.47932E-03-1.02260E-06 1.42807E-01-1.42429E-06-2.49865E-08-2.65822E-03
 -1     11030-1.25424E-02-3.36979E-07 1.45873E-01-3.71059E-07 6.48765E-09 2.76520E-03
 -1     11032-1.25424E-02-3.36979E-07 1.45873E-01-3.71059E-07-6.48765E-09-2.76520E-03
 -1     11033-2.19675E-01 2.10557E-07 3.53008E-01 2.54905E-05-4.45020E-07 9.99665E-03
 -1     11035-2.19675E-01 2.10557E-07 3.53008E-01 2.54905E-05 4.45020E-07-9.99665E-03
 -1     11036-2.31742E-01-9.60557E-08 3.65073E-01-2.76611E-05 4.82904E-07 1.04179E-02
 -1     11038-2.31742E-01-9.60557E-08 3.65073E-01-2.76611E-05-4.82904E-07-1.04179E-02
 -1     11039-2.38193E-01 4.21023E-08 3.71525E-01-2.56518E-07 4.48062E-09 1.06434E-02
 -1     11041-2.38193E-01 4.21023E-08 3.71525E-01-2.56518E-07-4.48062E-09-1.06434E-02
 -1     11042-2.14073E-01 3.88543E-08 3.47405E-01-9.14349E-08 1.59770E-09 9.80129E-03
 -1     11044-2.14073E-01 3.88543E-08 3.47405E-01-9.14349E-08-1.59770E-09-9.80129E-03
 -1     11045-7.05578E-01-1.41929E-04 8.38402E-01 6.54180E-06-1.14009E-07 2.69550E-02
 -1     11047-7.05578E-01-1.41929E-04 8.38402E-01 6.54180E-06 1.14009E-07-2.69550E-02
 -1     11048-7.04717E-01-1.54502E-04 8.37501E-01 1.06550E-05-1.85746E-07 2.69242E-02
 -1     11050-7.04717E-01-1.54502E-04 8.37501E-01 1.06550E-05 1.85746E-07-2.69242E-02
 -1     11051-6.59840E-01 2.63971E-04 7.94105E-01-1.61212E-05 2.81449E-07 2.53810E-02
 -1     11053-6.59840E-01 2.63971E-04 7.94105E-01-1.61212E-05-2.81449E-07-2.53810E-02
 -1     11054-9.89566E-03-1.03261E-06 1.43224E-01 1.30182E-06-2.27474E-08 2.67275E-03
 -1     11056-9.89566E-03-1.03261E-06 1.43224E-01 1.30182E-06 2.27474E-08-2.67275E-03
 -1     11057-1.15237E-02 1.50985E-06 1.44861E-01-1.18221E-06 2.06088E-08 2.72973E-03
 -1     11059-1.15237E-02 1.50985E-06 1.44861E-01-1.18221E-06-2.06088E-08-2.72973E-03
 -1     11060-9.45710E-03-5.57841E-07 1.42786E-01 2.04831E-07-3.55345E-09 2.65747E-03
 -1     11062-9.45710E-03-5.57841E-07 1.42786E-01 2.04831E-07 3.55345E-09-2.65747E-03
 -1     11063-6.17289E-03-1.09427E-06 1.39501E-01 2.10433E-07-3.66990E-09 2.54279E-03
 -1     11065-6.17289E-03-1.09427E-06 1.39501E-01 2.10433E-07 3.66990E-09-2.54279E-03
 -1     11066-6.25989E-03-1.38255E-06 1.39587E-01 2.16348E-07-3.81576E-09 2.54580E-03
 -1     11068-6.25989E-03-1.38255E-06 1.39587E-01 2.16348E-07 3.81576E-09-2.54580E-03
 -1     11069-7.69697E-03 2.23046E-06 1.41037E-01-7.11004E-07 1.24097E-08 2.59619E-03
 -1     11071-7.69697E-03 2.23046E-06 1.41037E-01-7.11004E-07-1.24097E-08-2.59619E-03
 -1     11072-7.42645E-03 2.54898E-06 1.40767E-01-1.87409E-07 3.27014E-09 2.58674E-03
 -1     11074-7.42645E-03 2.54898E-06 1.40767E-01-1.87409E-07-3.27014E-09-2.58674E-03
 -1     11075-7.91299E-03 2.25494E-06 1.41253E-01 6.64856E-07-1.16014E-08 2.60374E-03
 -1     11077-7.91299E-03 2.25494E-06 1.41253E-01 6.64856E-07 1.16014E-08-2.60374E-03
 -1     11078-6.36406E-03-1.47972E-06 1.39691E-01-9.36575E-08 1.68329E-09 2.54944E-03
 -1     11080-6.36406E-03-1.47972E-06 1.39691E-01-9.36575E-08-1.68329E-09-2.54944E-03
 -1     11081-6.29591E-03-1.23510E-06 1.39624E-01-3.69634E-07 6.47121E-09 2.54708E-03
 -1     11083-6.29591E-03-1.23510E-06 1.39624E-01-3.69634E-07-6.47121E-09-2.54708E-03
 -1     11084-9.23794E-03-7.11028E-07 1.42567E-01-3.51222E-07 6.17501E-09 2.64981E-03
 -1     11086-9.23794E-03-7.11028E-07 1.42567E-01-3.51222E-07-6.17501E-09-2.64981E-03
 -1     11087-4.61225E-02-2.26620E-08 1.79454E-01-4.02258E-06 7.02288E-08 3.93753E-03
 -1     11089-4.61225E-02-2.26620E-08 1.79454E-01-4.02258E-06-7.02288E-08-3.93753E-03
 -1     11090-4.76131E-02-5.49842E-09 1.80945E-01-1.44250E-08 2.51262E-10 3.98961E-03
 -1     11092-4.76131E-02-5.49842E-09 1.80945E-01-1.44250E-08-2.51262E-10-3.98961E-03
 -1     11093-4.32666E-02 3.27778E-08 1.76599E-01 3.85371E-06-6.72760E-08 3.83782E-03
 -1     11095-4.32666E-02 3.27778E-08 1.76599E-01 3.85371E-06 6.72760E-08-3.83782E-03
 -1     11096-7.09246E-01-1.43754E-04 8.42065E-01-2.12825E-06 3.71300E-08 2.70828E-02
 -1     11098-7.09246E-01-1.43754E-04 8.42065E-01-2.12825E-06-3.71300E-08-2.70828E-02
 -1     11099-7.09238E-01-1.43626E-04 8.42056E-01 2.05872E-06-3.59182E-08 2.70825E-02
 -1     11101-7.09238E-01-1.43626E-04 8.42056E-01 2.05872E-06 3.59182E-08-2.70825E-02
 -1     11102-6.53893E-01 2.40115E-04 7.87980E-01-4.36932E-07 8.03201E-09 2.51701E-02
 -1     11104-6.53893E-01 2.40115E-04 7.87980E-01-4.36932E-07-8.03201E-09-2.51701E-02
 -1     11105-7.08977E-01-1.44228E-04 8.41795E-01-2.11414E-06 3.69068E-08 2.70734E-02
 -1     11107-7.08977E-01-1.44228E-04 8.41795E-01-2.11414E-06-3.69068E-08-2.70734E-02
 -1     11108-7.08962E-01-1.44026E-04 8.41780E-01 1.90721E-06-3.33063E-08 2.70729E-02
 -1     11110-7.08962E-01-1.44026E-04 8.41780E-01 1.90721E-06 3.33063E-08-2.70729E-02
 -1     11111-7.09868E-01-1.42830E-04 8.42689E-01-2.61499E-06 4.54740E-08 2.71045E-02
 -1     11113-7.09868E-01-1.42830E-04 8.42689E-01-2.61499E-06-4.54740E-08-2.71045E-02
 -1     11114-7.10043E-01-1.44464E-04 8.42863E-01 2.51128E-06-4.36058E-08 2.71106E-02
 -1     11116-7.10043E-01-1.44464E-04 8.42863E-01 2.51128E-06 4.36058E-08-2.71106E-02
 -1     11117-6.63838E-01 2.51899E-04 7.98081E-01-7.03533E-06 1.22817E-07 2.55202E-02
 -1     11119-6.63838E-01 2.51899E-04 7.98081E-01-7.03533E-06-1.22817E-07-2.55202E-02
 -1     11120-4.40125E-01-1.66611E-05 5.73431E-01 8.17640E-05-1.42704E-06 1.76932E-02
 -1     11122-4.40125E-01-1.66611E-05 5.73431E-01 8.17640E-05 1.42704E-06-1.76932E-02
 -1     11123-4.68931E-01 2.46192E-05 6.02374E-01-9.61257E-05 1.67833E-06 1.87012E-02
 -1     11125-4.68931E-01 2.46192E-05 6.02374E-01-9.61257E-05-1.67833E-06-1.87012E-02
 -1     11126-3.05346E-01 2.32123E-06 4.38685E-01 4.47377E-05-7.81058E-07 1.29878E-02
 -1     11128-3.05346E-01 2.32123E-06 4.38685E-01 4.47377E-05 7.81058E-07-1.29878E-02
 -1     11129-3.23487E-01-2.01547E-06 4.56809E-01-4.89140E-05 8.53970E-07 1.36209E-02
 -1     11131-3.23487E-01-2.01547E-06 4.56809E-01-4.89140E-05-8.53970E-07-1.36209E-02
 -1     11132-2.96940E-01-5.00001E-07 4.30271E-01-8.78320E-07 1.53157E-08 1.26946E-02
 -1     11134-2.96940E-01-5.00001E-07 4.30271E-01-8.78320E-07-1.53157E-08-1.26946E-02
 -1     11135-3.43119E-01 2.93544E-06 4.76461E-01 5.50425E-05-9.60912E-07 1.43067E-02
 -1     11137-3.43119E-01 2.93544E-06 4.76461E-01 5.50425E-05 9.60912E-07-1.43067E-02
 -1     11138-3.64237E-01-1.92291E-06 4.97558E-01-6.12944E-05 1.07015E-06 1.50437E-02
 -1     11140-3.64237E-01-1.92291E-06 4.97558E-01-6.12944E-05-1.07015E-06-1.50437E-02
 -1     11141-3.33348E-01-1.64105E-06 4.66679E-01-1.29113E-06 2.25088E-08 1.39659E-02
 -1     11143-3.33348E-01-1.64105E-06 4.66679E-01-1.29113E-06-2.25088E-08-1.39659E-02
 -1     11144-1.78057E-01 2.85005E-08 3.11389E-01 1.86905E-05-3.26301E-07 8.54363E-03
 -1     11146-1.78057E-01 2.85005E-08 3.11389E-01 1.86905E-05 3.26301E-07-8.54363E-03
 -1     11147-1.87575E-01-8.21091E-09 3.20907E-01-2.01746E-05 3.52208E-07 8.87591E-03
 -1     11149-1.87575E-01-8.21091E-09 3.20907E-01-2.01746E-05-3.52208E-07-8.87591E-03
 -1     11150-6.62881E-01 2.58138E-04 7.97135E-01 2.77881E-07-4.85170E-09 2.54870E-02
 -1     11152-6.62881E-01 2.58138E-04 7.97135E-01 2.77881E-07 4.85170E-09-2.54870E-02
 -1     11153-1.24237E-01 3.58849E-08 2.57569E-01-1.13236E-05 1.97690E-07 6.66465E-03
 -1     11155-1.24237E-01 3.58849E-08 2.57569E-01-1.13236E-05-1.97690E-07-6.66465E-03
 -1     11156-1.27546E-01-1.32289E-08 2.60878E-01 7.66828E-09-1.33395E-10 6.78026E-03
 -1     11158-1.27546E-01-1.32289E-08 2.60878E-01 7.66828E-09 1.33395E-10-6.78026E-03
 -1     11159-1.18031E-01 2.64767E-08 2.51364E-01 1.06074E-05-1.85183E-07 6.44799E-03
 -1     11161-1.18031E-01 2.64767E-08 2.51364E-01 1.06074E-05 1.85183E-07-6.44799E-03
 -1     11162-1.44874E-01-1.68765E-08 2.78206E-01 1.39732E-05-2.43946E-07 7.38513E-03
 -1     11164-1.44874E-01-1.68765E-08 2.78206E-01 1.39732E-05 2.43946E-07-7.38513E-03
 -1     11165-1.52507E-01 1.00261E-08 2.85839E-01-1.49924E-05 2.61738E-07 7.65162E-03
 -1     11167-1.52507E-01 1.00261E-08 2.85839E-01-1.49924E-05-2.61738E-07-7.65162E-03
 -1     11168-1.15109E-01-6.78992E-09 2.48441E-01 1.82462E-09-3.12742E-11 6.34605E-03
 -1     11170-1.15109E-01-6.78992E-09 2.48441E-01 1.82462E-09 3.12742E-11-6.34605E-03
 -1     11171-1.56588E-01-2.79571E-09 2.89920E-01 1.38985E-08-2.42861E-10 7.79425E-03
 -1     11173-1.56588E-01-2.79571E-09 2.89920E-01 1.38985E-08 2.42861E-10-7.79425E-03
 -1     11174-9.59814E-02 1.13652E-08 2.29313E-01 8.26054E-06-1.44213E-07 5.67818E-03
 -1     11176-9.59814E-02 1.13652E-08 2.29313E-01 8.26054E-06 1.44213E-07-5.67818E-03
 -1     11177-1.01111E-01-1.16459E-08 2.34443E-01-8.77746E-06 1.53237E-07 5.85728E-03
 -1     11179-1.01111E-01-1.16459E-08 2.34443E-01-8.77746E-06-1.53237E-07-5.85728E-03
 -1     11180-5.87361E-02 6.85124E-09 1.92068E-01-4.94949E-06 8.64090E-08 4.37788E-03
 -1     11182-5.87361E-02 6.85124E-09 1.92068E-01-4.94949E-06-8.64090E-08-4.37788E-03
 -1     11183-6.04891E-02-1.16228E-08 1.93821E-01-1.70238E-09 2.97080E-11 4.43913E-03
 -1     11185-6.04891E-02-1.16228E-08 1.93821E-01-1.70238E-09-2.97080E-11-4.43913E-03
 -1     11186-5.54004E-02-1.44302E-09 1.88732E-01 4.71159E-06-8.22537E-08 4.26143E-03
 -1     11188-5.54004E-02-1.44302E-09 1.88732E-01 4.71159E-06 8.22537E-08-4.26143E-03
 -1     11189-4.18768E-02-2.64355E-09 1.75209E-01-3.98490E-08 6.95993E-10 3.78934E-03
 -1     11191-4.18768E-02-2.64355E-09 1.75209E-01-3.98490E-08-6.95993E-10-3.78934E-03
 -1     11192-6.96015E-02-5.98986E-09 2.02933E-01 5.83199E-06-1.01815E-07 4.75721E-03
 -1     11194-6.96015E-02-5.98986E-09 2.02933E-01 5.83199E-06 1.01815E-07-4.75721E-03
 -1     11195-7.35343E-02 4.81332E-10 2.06866E-01-6.16345E-06 1.07602E-07 4.89451E-03
 -1     11197-7.35343E-02 4.81331E-10 2.06866E-01-6.16345E-06-1.07602E-07-4.89451E-03
 -1     11198-5.38016E-02-7.37772E-09 1.87134E-01-1.00385E-08 1.74710E-10 4.20566E-03
 -1     11200-5.38016E-02-7.37772E-09 1.87134E-01-1.00385E-08-1.74710E-10-4.20566E-03
 -1     11201-7.56080E-02 1.86414E-10 2.08940E-01 2.75035E-09-4.80473E-11 4.96697E-03
 -1     11203-7.56080E-02 1.86410E-10 2.08940E-01 2.75035E-09 4.80473E-11-4.96697E-03
 -1     11204-6.63166E-01 2.56664E-04 7.97415E-01-5.00426E-07 8.73726E-09 2.54968E-02
 -1     11206-6.63166E-01 2.56664E-04 7.97415E-01-5.00426E-07-8.73726E-09-2.54968E-02
 -1     11207-3.28334E-02 1.47788E-07 1.66166E-01 3.16744E-06-5.52930E-08 3.47360E-03
 -1     11209-3.28334E-02 1.47788E-07 1.66166E-01 3.16744E-06 5.52930E-08-3.47360E-03
 -1     11210-3.52935E-02-1.14889E-07 1.68625E-01-3.25325E-06 5.67993E-08 3.55946E-03
 -1     11212-3.52935E-02-1.14889E-07 1.68625E-01-3.25325E-06-5.67993E-08-3.55946E-03
 -1     11213-7.38192E-03 2.51029E-06 1.40723E-01 2.38992E-07-4.17164E-09 2.58520E-03
 -1     11215-7.38192E-03 2.51029E-06 1.40723E-01 2.38992E-07 4.17164E-09-2.58520E-03
 -1     11216-1.98081E-02 5.57745E-07 1.53142E-01 2.18995E-06-3.82314E-08 3.01890E-03
 -1     11218-1.98081E-02 5.57745E-07 1.53142E-01 2.18995E-06 3.82314E-08-3.01890E-03
 -1     11219-2.17519E-02-4.76700E-07 1.55082E-01-2.26976E-06 3.96413E-08 3.08669E-03
 -1     11221-2.17519E-02-4.76700E-07 1.55082E-01-2.26976E-06-3.96413E-08-3.08669E-03
 -1     11222-1.29520E-02-5.85425E-07 1.46281E-01 1.17493E-06-2.06090E-08 2.77945E-03
 -1     11224-1.29520E-02-5.85425E-07 1.46281E-01 1.17493E-06 2.06090E-08-2.77945E-03
 -1     11225-1.46544E-02 1.72439E-07 1.47985E-01-1.62834E-06 2.83507E-08 2.83891E-03
 -1     11227-1.46544E-02 1.72439E-07 1.47985E-01-1.62834E-06-2.83507E-08-2.83891E-03
 -1     11228-1.24471E-02-8.10228E-07 1.45776E-01 7.72391E-08-1.16251E-09 2.76183E-03
 -1     11230-1.24471E-02-8.10228E-07 1.45776E-01 7.72391E-08 1.16251E-09-2.76183E-03
 -1     11231-7.02445E-01-1.54147E-04 8.35223E-01 8.64493E-06-1.50962E-07 2.68449E-02
 -1     11233-7.02445E-01-1.54147E-04 8.35223E-01 8.64493E-06 1.50962E-07-2.68449E-02
 -1     11234-6.55047E-01 2.61091E-04 7.89358E-01-8.61093E-06 1.50315E-07 2.52147E-02
 -1     11236-6.55047E-01 2.61091E-04 7.89358E-01-8.61093E-06-1.50315E-07-2.52147E-02
 -1     11237-7.03195E-01-1.43056E-04 8.36010E-01 4.91369E-06-8.54977E-08 2.68718E-02
 -1     11239-7.03195E-01-1.43056E-04 8.36010E-01 4.91369E-06 8.54977E-08-2.68718E-02
 -1     11240-2.26996E-02-9.52540E-09 1.56031E-01-1.83912E-07 3.21815E-09 3.11983E-03
 -1     11242-2.26996E-02-9.52540E-09 1.56031E-01-1.83912E-07-3.21815E-09-3.11983E-03
 -1     11243-3.65538E-02 1.62878E-08 1.69886E-01-7.16128E-08 1.25228E-09 3.60350E-03
 -1     11245-3.65538E-02 1.62878E-08 1.69886E-01-7.16128E-08-1.25228E-09-3.60350E-03
 -1     11246-3.16015E-02 9.45683E-09 1.64934E-01-9.59206E-08 1.67765E-09 3.43061E-03
 -1     11248-3.16015E-02 9.45683E-09 1.64934E-01-9.59206E-08-1.67765E-09-3.43061E-03
 -1     11249-6.57063E-01 2.70155E-04 7.91356E-01-2.08393E-05 3.63801E-07 2.52847E-02
 -1     11251-6.57063E-01 2.70155E-04 7.91356E-01-2.08393E-05-3.63801E-07-2.52847E-02
 -1     11252-6.20186E-03-1.30119E-06 1.39529E-01-1.67917E-08 2.92624E-10 2.54378E-03
 -1     11254-6.20186E-03-1.30119E-06 1.39529E-01-1.67917E-08-2.92624E-10-2.54378E-03
 -1     11255-6.19257E-03-1.27491E-06 1.39520E-01-9.51749E-09 1.68827E-10 2.54346E-03
 -1     11257-6.19257E-03-1.27491E-06 1.39520E-01-9.51749E-09-1.68827E-10-2.54346E-03
 -1     11258-1.92678E-01 5.63254E-09 3.26010E-01-3.79790E-08 6.63402E-10 9.05428E-03
 -1     11260-1.92678E-01 5.63254E-09 3.26010E-01-3.79790E-08-6.63402E-10-9.05428E-03
 -1     11261-6.18937E-03-1.27129E-06 1.39517E-01 9.75718E-09-1.70878E-10 2.54335E-03
 -1     11263-6.18937E-03-1.27129E-06 1.39517E-01 9.75718E-09 1.70878E-10-2.54335E-03
 -1     11264-6.19340E-03-1.29630E-06 1.39521E-01 1.56331E-08-2.74647E-10 2.54349E-03
 -1     11266-6.19340E-03-1.29630E-06 1.39521E-01 1.56331E-08 2.74647E-10-2.54349E-03
 -1     11267-6.18460E-03-1.28639E-06 1.39512E-01-5.35122E-09 9.36382E-11 2.54318E-03
 -1     11269-6.18460E-03-1.28639E-06 1.39512E-01-5.35122E-09-9.36382E-11-2.54318E-03
 -1     11270-6.18428E-03-1.27307E-06 1.39512E-01-4.27277E-10 8.02387E-12 2.54317E-03
 -1     11272-6.18428E-03-1.27307E-06 1.39512E-01-4.27277E-10-8.02389E-12-2.54317E-03
 -1     11273-6.16499E-03-1.24565E-06 1.39492E-01 2.03409E-08-3.59340E-10 2.54250E-03
 -1     11275-6.16499E-03-1.24565E-06 1.39492E-01 2.03409E-08 3.59341E-10-2.54250E-03
 -1     11276-6.17308E-03-1.28482E-06 1.39500E-01 2.57148E-08-4.49141E-10 2.54278E-03
 -1     11278-6.17308E-03-1.28482E-06 1.39500E-01 2.57148E-08 4.49141E-10-2.54278E-03
 -1     11279-6.10621E-03-1.21034E-06 1.39434E-01 2.26118E-08-4.00090E-10 2.54045E-03
 -1     11281-6.10621E-03-1.21034E-06 1.39434E-01 2.26118E-08 4.00090E-10-2.54045E-03
 -1     11282-6.11453E-03-1.26922E-06 1.39442E-01 2.41520E-08-4.25393E-10 2.54074E-03
 -1     11284-6.11453E-03-1.26922E-06 1.39442E-01 2.41520E-08 4.25393E-10-2.54074E-03
 -1     11285-6.16377E-03-1.36900E-06 1.39491E-01-3.44919E-08 6.27672E-10 2.54245E-03
 -1     11287-6.16377E-03-1.36900E-06 1.39491E-01-3.44919E-08-6.27672E-10-2.54245E-03
 -1     11288-6.11283E-03-1.23210E-06 1.39441E-01-1.22501E-07 2.12923E-09 2.54068E-03
 -1     11290-6.11283E-03-1.23210E-06 1.39441E-01-1.22501E-07-2.12923E-09-2.54068E-03
 -1     11291-5.01026E-01-2.32598E-05 6.34229E-01 9.87143E-05-1.72321E-06 1.98178E-02
 -1     11293-5.01026E-01-2.32598E-05 6.34229E-01 9.87143E-05 1.72321E-06-1.98178E-02
 -1     11294-5.34729E-01 3.56285E-05 6.68257E-01-8.45893E-05 1.47645E-06 2.09999E-02
 -1     11296-5.34729E-01 3.56285E-05 6.68257E-01-8.45893E-05-1.47645E-06-2.09999E-02
 -1     11297-4.87117E-01 9.94731E-06 6.20415E-01 3.89294E-06-6.71314E-08 1.93347E-02
 -1     11299-4.87117E-01 9.94731E-06 6.20415E-01 3.89294E-06 6.71314E-08-1.93347E-02
 -1     11300-7.38413E-03 2.42997E-06 1.40725E-01-2.03861E-08 3.55760E-10 2.58527E-03
 -1     11302-7.38413E-03 2.42997E-06 1.40725E-01-2.03861E-08-3.55760E-10-2.58527E-03
 -1     11303-7.42921E-03 2.61161E-06 1.40770E-01-1.08085E-07 1.88676E-09 2.58686E-03
 -1     11305-7.42921E-03 2.61161E-06 1.40770E-01-1.08085E-07-1.88676E-09-2.58686E-03
 -1     11306-3.87450E-01-5.81500E-08 5.20787E-01 6.77185E-05-1.18211E-06 1.58545E-02
 -1     11308-3.87450E-01-5.81500E-08 5.20787E-01 6.77185E-05 1.18211E-06-1.58545E-02
 -1     11309-4.12198E-01 3.12872E-06 5.45537E-01-7.91050E-05 1.38121E-06 1.67186E-02
 -1     11311-4.12198E-01 3.12872E-06 5.45537E-01-7.91050E-05-1.38121E-06-1.67186E-02
 -1     11312-4.27230E-01-6.91531E-06 5.60553E-01 2.66079E-06-4.63593E-08 1.72441E-02
 -1     11314-4.27230E-01-6.91531E-06 5.60553E-01 2.66079E-06 4.63593E-08-1.72441E-02
 -1     11315-3.76163E-01-3.04926E-06 5.09492E-01-9.93676E-07 1.73361E-08 1.54609E-02
 -1     11317-3.76163E-01-3.04926E-06 5.09492E-01-9.93676E-07-1.73361E-08-1.54609E-02
 -1     11318-7.54104E-03 2.46556E-06 1.40881E-01 3.78885E-07-6.61135E-09 2.59074E-03
 -1     11320-7.54104E-03 2.46556E-06 1.40881E-01 3.78885E-07 6.61135E-09-2.59074E-03
 -1     11321-1.54036E-02-4.92591E-07 1.48734E-01-6.83461E-08 1.30271E-09 2.86507E-03
 -1     11323-1.54036E-02-4.92591E-07 1.48734E-01-6.83461E-08-1.30271E-09-2.86507E-03
 -1     11324-7.51289E-03 2.74401E-06 1.40855E-01 8.09960E-08-1.41403E-09 2.58979E-03
 -1     11326-7.51289E-03 2.74401E-06 1.40855E-01 8.09960E-08 1.41403E-09-2.58979E-03
 -1     11327-6.63175E-01 2.57038E-04 7.97425E-01 5.70969E-07-9.96782E-09 2.54972E-02
 -1     11329-6.63175E-01 2.57038E-04 7.97425E-01 5.70969E-07 9.96782E-09-2.54972E-02
 -1     11330-6.63707E-01 2.60776E-04 7.97935E-01 3.36977E-06-5.88585E-08 2.55153E-02
 -1     11332-6.63707E-01 2.60776E-04 7.97935E-01 3.36977E-06 5.88585E-08-2.55153E-02
 -1     11333-6.62876E-01 2.58408E-04 7.97131E-01-3.19473E-07 5.57745E-09 2.54868E-02
 -1     11335-6.62876E-01 2.58408E-04 7.97131E-01-3.19473E-07-5.57745E-09-2.54868E-02
 -1     11336-1.03827E-01 8.19501E-09 2.37159E-01 4.77882E-10-8.21195E-12 5.95217E-03
 -1     11338-1.03827E-01 8.19501E-09 2.37159E-01 4.77881E-10 8.21194E-12-5.95217E-03
 -1     11339-7.52257E-03 2.68614E-06 1.40864E-01-4.18484E-08 7.30577E-10 2.59012E-03
 -1     11341-7.52257E-03 2.68614E-06 1.40864E-01-4.18484E-08-7.30577E-10-2.59012E-03
 -1     11342-1.73622E-01-3.82834E-08 3.06954E-01-5.14634E-09 9.02833E-11 8.38897E-03
 -1     11344-1.73622E-01-3.82834E-08 3.06954E-01-5.14634E-09-9.02833E-11-8.38897E-03
 -1     11345-1.41306E-01 4.13186E-09 2.74638E-01 1.06507E-08-1.85997E-10 7.26070E-03
 -1     11347-1.41306E-01 4.13186E-09 2.74638E-01 1.06507E-08 1.85997E-10-7.26070E-03
 -1     11348-9.35593E-02 4.97265E-09 2.26891E-01-8.26527E-10 1.44813E-11 5.59370E-03
 -1     11350-9.35593E-02 4.97265E-09 2.26891E-01-8.26527E-10-1.44813E-11-5.59370E-03
 -1     11351-6.77340E-02-2.18802E-09 2.01066E-01-7.85127E-10 1.35075E-11 4.69207E-03
 -1     11353-6.77340E-02-2.18802E-09 2.01066E-01-7.85127E-10-1.35075E-11-4.69207E-03
 -1     11354-1.87862E-02 4.46022E-08 1.52118E-01-1.15417E-07 2.04155E-09 2.98319E-03
 -1     11356-1.87862E-02 4.46022E-08 1.52118E-01-1.15417E-07-2.04155E-09-2.98319E-03
 -1     11357-7.38505E-03 2.43395E-06 1.40726E-01-1.11075E-07 1.93916E-09 2.58531E-03
 -1     11359-7.38505E-03 2.43395E-06 1.40726E-01-1.11075E-07-1.93916E-09-2.58531E-03
 -1     11360-7.46933E-03 2.61477E-06 1.40811E-01-1.04855E-07 1.83054E-09 2.58826E-03
 -1     11362-7.46933E-03 2.61477E-06 1.40811E-01-1.04855E-07-1.83054E-09-2.58826E-03
 -1     11363-7.50722E-03 2.67231E-06 1.40849E-01 7.83021E-09-1.36683E-10 2.58959E-03
 -1     11365-7.50722E-03 2.67231E-06 1.40849E-01 7.83021E-09 1.36683E-10-2.58959E-03
 -1     11366-7.53783E-03 2.71927E-06 1.40880E-01 4.69834E-08-8.20210E-10 2.59066E-03
 -1     11368-7.53783E-03 2.71927E-06 1.40880E-01 4.69834E-08 8.20210E-10-2.59066E-03
 -1     11369-7.50756E-03 2.67049E-06 1.40849E-01-2.32961E-08 4.06706E-10 2.58960E-03
 -1     11371-7.50756E-03 2.67049E-06 1.40849E-01-2.32961E-08-4.06706E-10-2.58960E-03
 -1     11372-7.50432E-03 2.66891E-06 1.40846E-01 1.35203E-08-2.36011E-10 2.58948E-03
 -1     11374-7.50432E-03 2.66891E-06 1.40846E-01 1.35202E-08 2.36011E-10-2.58948E-03
 -1     11375-7.49908E-03 2.65303E-06 1.40841E-01-3.33964E-08 5.83087E-10 2.58930E-03
 -1     11377-7.49908E-03 2.65303E-06 1.40841E-01-3.33964E-08-5.83087E-10-2.58930E-03
 -1     11378-8.19244E-02-1.20531E-09 2.15256E-01 6.90175E-06-1.20491E-07 5.18742E-03
 -1     11380-8.19244E-02-1.20531E-09 2.15256E-01 6.90175E-06 1.20491E-07-5.18742E-03
 -1     11381-8.64023E-02 7.55520E-09 2.19734E-01-7.31810E-06 1.27760E-07 5.34375E-03
 -1     11383-8.64023E-02 7.55520E-09 2.19734E-01-7.31810E-06-1.27760E-07-5.34375E-03
 -1     11384-8.92807E-03-1.36865E-06 1.42255E-01 2.49451E-08-4.36749E-10 2.63895E-03
 -1     11386-8.92807E-03-1.36865E-06 1.42255E-01 2.49451E-08 4.36749E-10-2.63895E-03
 -1     11387-8.93752E-03-1.42600E-06 1.42264E-01 3.81311E-08-6.68536E-10 2.63928E-03
 -1     11389-8.93752E-03-1.42600E-06 1.42264E-01 3.81311E-08 6.68536E-10-2.63928E-03
 -1     11390-6.25218E-01-1.14051E-04 7.58144E-01-1.49604E-06 2.60783E-08 2.41503E-02
 -1     11392-6.25218E-01-1.14051E-04 7.58144E-01-1.49604E-06-2.60783E-08-2.41503E-02
 -1     11393-6.25169E-01-1.14262E-04 7.58092E-01 1.87860E-06-3.27624E-08 2.41485E-02
 -1     11395-6.25169E-01-1.14262E-04 7.58092E-01 1.87860E-06 3.27624E-08-2.41485E-02
 -1     11396-6.26697E-01-1.15291E-04 7.59623E-01-4.17047E-07 6.69246E-09 2.42017E-02
 -1     11398-6.26697E-01-1.15291E-04 7.59623E-01-4.17047E-07-6.69246E-09-2.42017E-02
 -1     11399-6.27301E-01-1.17400E-04 7.60232E-01 2.52667E-06-4.33997E-08 2.42229E-02
 -1     11401-6.27301E-01-1.17400E-04 7.60232E-01 2.52667E-06 4.33997E-08-2.42229E-02
 -1     11402-6.23836E-01-9.33516E-05 7.56801E-01-2.01557E-05 3.47442E-07 2.41022E-02
 -1     11404-6.23836E-01-9.33516E-05 7.56801E-01-2.01557E-05-3.47442E-07-2.41022E-02
 -1     11405-1.01108E-01 1.50850E-08 2.34440E-01 8.76668E-06-1.53050E-07 5.85716E-03
 -1     11407-1.01108E-01 1.50850E-08 2.34440E-01 8.76668E-06 1.53050E-07-5.85716E-03
 -1     11408-1.06482E-01 6.73513E-09 2.39814E-01-9.33005E-06 1.62885E-07 6.04476E-03
 -1     11410-1.06482E-01 6.73513E-09 2.39814E-01-9.33005E-06-1.62885E-07-6.04476E-03
 -1     11411-9.10833E-02 6.32536E-09 2.24415E-01 7.76323E-06-1.35531E-07 5.50717E-03
 -1     11413-9.10833E-02 6.32536E-09 2.24415E-01 7.76323E-06 1.35531E-07-5.50717E-03
 -1     11414-9.59812E-02 6.09012E-09 2.29313E-01-8.24501E-06 1.43942E-07 5.67817E-03
 -1     11416-9.59812E-02 6.09012E-09 2.29313E-01-8.24501E-06-1.43942E-07-5.67817E-03
 -1     11417-9.85745E-02 4.42778E-09 2.31906E-01 9.83301E-10-1.66388E-11 5.76879E-03
 -1     11419-9.85745E-02 4.42777E-09 2.31906E-01 9.83301E-10 1.66388E-11-5.76879E-03
 -1     11420-8.87697E-02-2.64478E-09 2.22102E-01 2.96152E-09-5.13355E-11 5.42648E-03
 -1     11422-8.87697E-02-2.64478E-09 2.22102E-01 2.96152E-09 5.13356E-11-5.42648E-03
 -1     11423-8.69039E-03-1.15830E-06 1.42018E-01 1.03598E-07-1.79411E-09 2.63066E-03
 -1     11425-8.69039E-03-1.15830E-06 1.42018E-01 1.03598E-07 1.79411E-09-2.63066E-03
 -1     11426-8.66716E-03-1.36481E-06 1.41995E-01 1.34688E-07-2.38770E-09 2.62985E-03
 -1     11428-8.66716E-03-1.36481E-06 1.41995E-01 1.34688E-07 2.38770E-09-2.62985E-03
 -1     11429-8.97397E-03-1.42201E-06 1.42301E-01-3.33479E-08 5.79702E-10 2.64055E-03
 -1     11431-8.97397E-03-1.42201E-06 1.42301E-01-3.33479E-08-5.79702E-10-2.64055E-03
 -1     11432-8.96577E-03-1.39197E-06 1.42293E-01-2.21154E-08 3.91093E-10 2.64027E-03
 -1     11434-8.96577E-03-1.39197E-06 1.42293E-01-2.21154E-08-3.91093E-10-2.64027E-03
 -1     11435-6.24763E-01-1.14754E-04 7.57687E-01-1.88752E-06 3.29502E-08 2.41344E-02
 -1     11437-6.24763E-01-1.14754E-04 7.57687E-01-1.88752E-06-3.29502E-08-2.41344E-02
 -1     11438-6.24739E-01-1.14477E-04 7.57662E-01 1.34600E-06-2.35260E-08 2.41335E-02
 -1     11440-6.24739E-01-1.14477E-04 7.57662E-01 1.34600E-06 2.35260E-08-2.41335E-02
 -1     11441-6.25907E-01-1.07759E-04 7.58840E-01 2.04304E-06-3.53198E-08 2.41745E-02
 -1     11443-6.25907E-01-1.07759E-04 7.58840E-01 2.04304E-06 3.53198E-08-2.41745E-02
 -1     11444-6.25466E-01-1.14355E-04 7.58386E-01 8.48544E-06-1.48105E-07 2.41588E-02
 -1     11446-6.25466E-01-1.14355E-04 7.58386E-01 8.48544E-06 1.48105E-07-2.41588E-02
 -1     11447-5.88167E-01 1.87398E-04 7.22209E-01-2.14855E-05 3.75061E-07 2.28746E-02
 -1     11449-5.88167E-01 1.87398E-04 7.22209E-01-2.14855E-05-3.75061E-07-2.28746E-02
 -1     11450-6.25039E-01-1.13341E-04 7.57968E-01-3.36448E-08 5.32590E-10 2.41441E-02
 -1     11452-6.25039E-01-1.13341E-04 7.57968E-01-3.36448E-08-5.32590E-10-2.41441E-02
 -1     11453-6.24746E-01-1.15874E-04 7.57666E-01 3.59989E-06-6.27535E-08 2.41337E-02
 -1     11455-6.24746E-01-1.15874E-04 7.57666E-01 3.59989E-06 6.27535E-08-2.41337E-02
 -1     11456-5.86378E-01 2.04397E-04 7.20441E-01-1.20658E-06 2.10660E-08 2.28125E-02
 -1     11458-5.86378E-01 2.04397E-04 7.20441E-01-1.20658E-06-2.10660E-08-2.28125E-02
 -1     11459-2.57996E-01 9.62197E-07 3.91331E-01 3.26757E-05-5.70483E-07 1.13346E-02
 -1     11461-2.57996E-01 9.62197E-07 3.91331E-01 3.26757E-05 5.70483E-07-1.13346E-02
 -1     11462-2.72590E-01-9.56151E-07 4.05918E-01-3.53600E-05 6.17301E-07 1.18440E-02
 -1     11464-2.72590E-01-9.56151E-07 4.05918E-01-3.53600E-05-6.17301E-07-1.18440E-02
 -1     11465-8.91189E-03-1.39301E-06 1.42239E-01-1.93098E-08 3.39143E-10 2.63839E-03
 -1     11467-8.91189E-03-1.39301E-06 1.42239E-01-1.93098E-08-3.39143E-10-2.63839E-03
 -1     11468-8.90988E-03-1.36630E-06 1.42237E-01-9.23582E-09 1.62677E-10 2.63832E-03
 -1     11470-8.90988E-03-1.36630E-06 1.42237E-01-9.23582E-09-1.62677E-10-2.63832E-03
 -1     11471-6.22329E-01-1.11237E-04 7.55267E-01 6.81871E-06-1.19001E-07 2.40497E-02
 -1     11473-6.22329E-01-1.11237E-04 7.55267E-01 6.81871E-06 1.19001E-07-2.40497E-02
 -1     11474-6.21103E-01-1.24960E-04 7.53993E-01 1.04981E-05-1.82903E-07 2.40060E-02
 -1     11476-6.21103E-01-1.24960E-04 7.53993E-01 1.04981E-05 1.82903E-07-2.40060E-02
 -1     11477-1.69061E-01 5.11785E-09 3.02394E-01 1.73533E-05-3.02956E-07 8.22956E-03
 -1     11479-1.69061E-01 5.11785E-09 3.02394E-01 1.73533E-05 3.02956E-07-8.22956E-03
 -1     11480-1.78052E-01-1.90544E-08 3.11384E-01-1.86752E-05 3.26033E-07 8.54346E-03
 -1     11482-1.78052E-01-1.90544E-08 3.11384E-01-1.86752E-05-3.26033E-07-8.54346E-03
 -1     11483-1.37639E-01 7.98184E-09 2.70971E-01 1.30151E-05-2.27220E-07 7.13253E-03
 -1     11485-1.37639E-01 7.98184E-09 2.70971E-01 1.30151E-05 2.27220E-07-7.13253E-03
 -1     11486-1.44876E-01 1.88796E-08 2.78208E-01-1.39331E-05 2.43246E-07 7.38520E-03
 -1     11488-1.44876E-01 1.88796E-08 2.78208E-01-1.39331E-05-2.43246E-07-7.38520E-03
 -1     11489-8.91261E-03-1.37972E-06 1.42240E-01 1.18902E-08-2.12234E-10 2.63842E-03
 -1     11491-8.91261E-03-1.37972E-06 1.42240E-01 1.18902E-08 2.12234E-10-2.63842E-03
 -1     11492-8.92186E-03-1.39567E-06 1.42249E-01 2.33169E-08-4.03404E-10 2.63874E-03
 -1     11494-8.92186E-03-1.39567E-06 1.42249E-01 2.33169E-08 4.03404E-10-2.63874E-03
 -1     11495-6.24803E-01-1.14629E-04 7.57727E-01-2.00042E-06 3.49044E-08 2.41358E-02
 -1     11497-6.24803E-01-1.14629E-04 7.57727E-01-2.00042E-06-3.49044E-08-2.41358E-02
 -1     11498-6.24832E-01-1.14354E-04 7.57756E-01 1.18902E-06-2.07588E-08 2.41368E-02
 -1     11500-6.24832E-01-1.14354E-04 7.57756E-01 1.18902E-06 2.07588E-08-2.41368E-02
 -1     11501-5.85971E-01 2.06772E-04 7.20039E-01 5.99793E-07-1.04719E-08 2.27983E-02
 -1     11503-5.85971E-01 2.06772E-04 7.20039E-01 5.99793E-07 1.04719E-08-2.27983E-02
 -1     11504-8.89275E-03-1.44767E-06 1.42219E-01-4.11344E-07 7.25148E-09 2.63770E-03
 -1     11506-8.89275E-03-1.44767E-06 1.42219E-01-4.11344E-07-7.25148E-09-2.63770E-03
 -1     11507-8.75650E-03-1.09857E-06 1.42085E-01-3.04788E-07 5.30137E-09 2.63298E-03
 -1     11509-8.75650E-03-1.09857E-06 1.42085E-01-3.04788E-07-5.30137E-09-2.63298E-03
 -1     11510-1.04514E-02 1.95654E-06 1.43791E-01 1.13433E-06-1.97924E-08 2.69233E-03
 -1     11512-1.04514E-02 1.95654E-06 1.43791E-01 1.13433E-06 1.97924E-08-2.69233E-03
 -1     11513-1.52507E-01 8.66618E-09 2.85839E-01 1.50011E-05-2.61891E-07 7.65159E-03
 -1     11515-1.52507E-01 8.66618E-09 2.85839E-01 1.50011E-05 2.61891E-07-7.65159E-03
 -1     11516-1.60558E-01 3.33383E-10 2.93890E-01-1.60962E-05 2.81009E-07 7.93270E-03
 -1     11518-1.60558E-01 3.33380E-10 2.93890E-01-1.60962E-05-2.81009E-07-7.93270E-03
 -1     11519-1.64867E-01-2.68429E-08 2.98199E-01 1.26573E-08-2.21158E-10 8.08330E-03
 -1     11521-1.64867E-01-2.68429E-08 2.98199E-01 1.26573E-08 2.21158E-10-8.08330E-03
 -1     11522-1.48742E-01-8.24931E-09 2.82074E-01 1.17224E-08-2.04659E-10 7.52030E-03
 -1     11524-1.48742E-01-8.24931E-09 2.82074E-01 1.17224E-08 2.04659E-10-7.52030E-03
 -1     11525-1.75662E-02 1.07034E-06 1.50904E-01 2.38139E-06-4.15272E-08 2.94069E-03
 -1     11527-1.75662E-02 1.07034E-06 1.50904E-01 2.38139E-06 4.15272E-08-2.94069E-03
 -1     11528-1.94240E-02-1.03886E-06 1.52753E-01-2.27995E-06 3.98596E-08 3.00541E-03
 -1     11530-1.94240E-02-1.03886E-06 1.52753E-01-2.27995E-06-3.98596E-08-3.00541E-03
 -1     11531-1.12115E-01 1.79616E-08 2.45447E-01 9.94694E-06-1.73655E-07 6.24144E-03
 -1     11533-1.12115E-01 1.79616E-08 2.45447E-01 9.94694E-06 1.73655E-07-6.24144E-03
 -1     11534-1.18028E-01 1.74769E-08 2.51360E-01-1.06072E-05 1.85181E-07 6.44787E-03
 -1     11536-1.18028E-01 1.74769E-08 2.51360E-01-1.06072E-05-1.85181E-07-6.44787E-03
 -1     11537-1.09331E-01 4.72287E-09 2.42663E-01 5.07492E-10-8.31194E-12 6.14434E-03
 -1     11539-1.09331E-01 4.72287E-09 2.42663E-01 5.07492E-10 8.31191E-12-6.14434E-03
 -1     11540-6.58290E-02-1.13355E-08 1.99161E-01 5.52460E-06-9.64485E-08 4.62551E-03
 -1     11542-6.58290E-02-1.13355E-08 1.99161E-01 5.52460E-06 9.64485E-08-4.62551E-03
 -1     11543-6.96016E-02 1.27471E-08 2.02934E-01-5.82981E-06 1.01777E-07 4.75721E-03
 -1     11545-6.96016E-02 1.27471E-08 2.02934E-01-5.82981E-06-1.01777E-07-4.75721E-03
 -1     11546-5.21755E-02-1.61710E-08 1.85507E-01 4.50099E-06-7.85780E-08 4.14884E-03
 -1     11548-5.21755E-02-1.61710E-08 1.85507E-01 4.50099E-06 7.85780E-08-4.14884E-03
 -1     11549-5.53899E-02 1.84372E-08 1.88722E-01-4.72208E-06 8.24376E-08 4.26106E-03
 -1     11551-5.53899E-02 1.84372E-08 1.88722E-01-4.72208E-06-8.24376E-08-4.26106E-03
 -1     11552-4.04593E-02 4.71467E-08 1.73791E-01 3.74169E-06-6.53178E-08 3.73982E-03
 -1     11554-4.04593E-02 4.71467E-08 1.73791E-01 3.74169E-06 6.53178E-08-3.73982E-03
 -1     11555-4.32212E-02-2.29744E-08 1.76553E-01-3.87384E-06 6.76340E-08 3.83624E-03
 -1     11557-4.32212E-02-2.29744E-08 1.76553E-01-3.87384E-06-6.76340E-08-3.83624E-03
 -1     11558-6.15114E-01-1.06648E-04 7.48028E-01 5.10575E-06-8.84403E-08 2.37978E-02
 -1     11560-6.15114E-01-1.06648E-04 7.48028E-01 5.10575E-06 8.84403E-08-2.37978E-02
 -1     11561-6.14627E-01-1.22050E-04 7.47511E-01 1.29168E-05-2.26157E-07 2.37802E-02
 -1     11563-6.14627E-01-1.22050E-04 7.47511E-01 1.29168E-05 2.26157E-07-2.37802E-02
 -1     11564-6.18922E-01-1.10651E-04 7.51857E-01 1.17908E-05-2.05520E-07 2.39309E-02
 -1     11566-6.18922E-01-1.10651E-04 7.51857E-01 1.17908E-05 2.05520E-07-2.39309E-02
 -1     11567-6.17545E-01-1.31056E-04 7.50420E-01 1.46706E-05-2.55700E-07 2.38817E-02
 -1     11569-6.17545E-01-1.31056E-04 7.50420E-01 1.46706E-05 2.55700E-07-2.38817E-02
 -1     11570-5.80771E-01 2.14155E-04 7.14850E-01-2.50595E-05 4.37498E-07 2.26171E-02
 -1     11572-5.80771E-01 2.14155E-04 7.14850E-01-2.50595E-05-4.37498E-07-2.26171E-02
 -1     11573-8.75385E-03-1.47851E-06 1.42081E-01-3.17611E-07 5.58042E-09 2.63287E-03
 -1     11575-8.75385E-03-1.47851E-06 1.42081E-01-3.17611E-07-5.58042E-09-2.63287E-03
 -1     11576-8.72257E-03-1.05552E-06 1.42050E-01-2.94268E-07 5.15263E-09 2.63179E-03
 -1     11578-8.72257E-03-1.05552E-06 1.42050E-01-2.94268E-07-5.15263E-09-2.63179E-03
 -1     11579-8.75347E-03-1.24485E-06 1.42081E-01-5.24600E-08 8.94413E-10 2.63286E-03
 -1     11581-8.75347E-03-1.24485E-06 1.42081E-01-5.24600E-08-8.94413E-10-2.63286E-03
 -1     11582-8.77838E-03-1.26925E-06 1.42106E-01 5.52387E-08-9.61581E-10 2.63373E-03
 -1     11584-8.77838E-03-1.26925E-06 1.42106E-01 5.52387E-08 9.61581E-10-2.63373E-03
 -1     11585-1.00510E-02 2.16405E-06 1.43392E-01-4.48994E-07 7.84117E-09 2.67839E-03
 -1     11587-1.00510E-02 2.16405E-06 1.43392E-01-4.48994E-07-7.84117E-09-2.67839E-03
 -1     11588-8.94369E-03-1.45639E-06 1.42270E-01-2.69340E-08 4.71883E-10 2.63950E-03
 -1     11590-8.94369E-03-1.45639E-06 1.42270E-01-2.69340E-08-4.71883E-10-2.63950E-03
 -1     11591-8.92640E-03-1.39690E-06 1.42253E-01-1.26920E-08 2.17674E-10 2.63890E-03
 -1     11593-8.92640E-03-1.39690E-06 1.42253E-01-1.26920E-08-2.17674E-10-2.63890E-03
 -1     11594-1.03710E-02 2.95197E-06 1.43714E-01 1.35355E-07-2.36295E-09 2.68958E-03
 -1     11596-1.03710E-02 2.95197E-06 1.43714E-01 1.35355E-07 2.36295E-09-2.68958E-03
 -1     11597-1.24239E-01 1.53776E-08 2.57571E-01 1.13465E-05-1.98088E-07 6.66471E-03
 -1     11599-1.24239E-01 1.53776E-08 2.57571E-01 1.13465E-05 1.98088E-07-6.66471E-03
 -1     11600-1.30768E-01 2.45673E-08 2.64100E-01-1.21218E-05 2.11625E-07 6.89266E-03
 -1     11602-1.30768E-01 2.45673E-08 2.64100E-01-1.21218E-05-2.11625E-07-6.89266E-03
 -1     11603-1.34248E-01 1.66851E-09 2.67580E-01 7.01734E-09-1.22019E-10 7.01425E-03
 -1     11605-1.34248E-01 1.66851E-09 2.67580E-01 7.01734E-09 1.22019E-10-7.01425E-03
 -1     11606-1.21171E-01 6.93568E-11 2.54503E-01 2.82976E-09-4.87426E-11 6.55772E-03
 -1     11608-1.21171E-01 6.93581E-11 2.54503E-01 2.82976E-09 4.87426E-11-6.55772E-03
 -1     11609-1.25864E-02-5.58297E-07 1.45914E-01 1.12893E-06-1.95166E-08 2.76670E-03
 -1     11611-1.25864E-02-5.58297E-07 1.45914E-01 1.12893E-06 1.95166E-08-2.76670E-03
 -1     11612-1.40113E-02 1.67921E-06 1.47351E-01 5.02131E-07-8.75977E-09 2.81662E-03
 -1     11614-1.40113E-02 1.67920E-06 1.47351E-01 5.02131E-07 8.75977E-09-2.81662E-03
 -1     11615-1.55471E-02-8.66610E-07 1.48875E-01-1.69821E-06 2.98058E-08 2.87004E-03
 -1     11617-1.55471E-02-8.66610E-07 1.48875E-01-1.69821E-06-2.98058E-08-2.87004E-03
 -1     11618-2.15144E-02 6.94368E-07 1.54849E-01 2.70110E-06-4.71316E-08 3.07847E-03
 -1     11620-2.15144E-02 6.94368E-07 1.54849E-01 2.70110E-06 4.71316E-08-3.07847E-03
 -1     11621-2.35780E-02-5.23849E-07 1.56908E-01-2.56128E-06 4.47356E-08 3.15044E-03
 -1     11623-2.35780E-02-5.23849E-07 1.56908E-01-2.56128E-06-4.47356E-08-3.15044E-03
 -1     11624-2.02829E-02-1.75043E-07 1.53614E-01-3.23877E-07 5.65561E-09 3.03546E-03
 -1     11626-2.02829E-02-1.75043E-07 1.53614E-01-3.23877E-07-5.65561E-09-3.03546E-03
 -1     11627-8.95551E-03-1.38312E-06 1.42283E-01 1.71153E-08-3.02566E-10 2.63991E-03
 -1     11629-8.95551E-03-1.38312E-06 1.42283E-01 1.71153E-08 3.02566E-10-2.63991E-03
 -1     11630-8.96241E-03-1.44190E-06 1.42289E-01 3.17839E-08-5.56892E-10 2.64015E-03
 -1     11632-8.96241E-03-1.44190E-06 1.42289E-01 3.17839E-08 5.56892E-10-2.64015E-03
 -1     11633-1.03527E-02 2.93512E-06 1.43695E-01-8.87025E-08 1.54854E-09 2.68894E-03
 -1     11635-1.03527E-02 2.93512E-06 1.43695E-01-8.87025E-08-1.54854E-09-2.68894E-03
 -1     11636-8.97527E-03-1.40121E-06 1.42302E-01-5.57305E-09 9.28763E-11 2.64060E-03
 -1     11638-8.97527E-03-1.40121E-06 1.42302E-01-5.57304E-09-9.28763E-11-2.64060E-03
 -1     11639-8.97571E-03-1.43409E-06 1.42303E-01 1.60636E-08-2.79608E-10 2.64061E-03
 -1     11641-8.97571E-03-1.43409E-06 1.42303E-01 1.60636E-08 2.79608E-10-2.64061E-03
 -1     11642-1.03838E-02 2.97026E-06 1.43726E-01-7.85081E-08 1.37054E-09 2.69003E-03
 -1     11644-1.03838E-02 2.97026E-06 1.43726E-01-7.85081E-08-1.37054E-09-2.69003E-03
 -1     11645-6.24222E-01-1.12426E-04 7.57156E-01 2.58589E-06-4.51718E-08 2.41157E-02
 -1     11647-6.24222E-01-1.12426E-04 7.57156E-01 2.58589E-06 4.51718E-08-2.41157E-02
 -1     11648-6.23581E-01-1.18875E-04 7.56489E-01 6.53485E-06-1.13846E-07 2.40928E-02
 -1     11650-6.23581E-01-1.18875E-04 7.56489E-01 6.53485E-06 1.13846E-07-2.40928E-02
 -1     11651-5.85759E-01 2.04968E-04 7.19820E-01-5.57735E-06 9.73725E-08 2.27908E-02
 -1     11653-5.85759E-01 2.04968E-04 7.19820E-01-5.57735E-06-9.73725E-08-2.27908E-02
 -1     11654-1.87564E-01-1.14900E-09 3.20896E-01 2.01418E-05-3.51637E-07 8.87554E-03
 -1     11656-1.87564E-01-1.14900E-09 3.20896E-01 2.01418E-05 3.51637E-07-8.87554E-03
 -1     11657-1.97639E-01-2.65546E-08 3.30971E-01-2.17393E-05 3.79524E-07 9.22728E-03
 -1     11659-1.97639E-01-2.65546E-08 3.30971E-01-2.17393E-05-3.79524E-07-9.22728E-03
 -1     11660-1.82873E-01-3.64348E-08 3.16205E-01 3.23116E-09-5.64924E-11 8.71195E-03
 -1     11662-1.82873E-01-3.64348E-08 3.16205E-01 3.23116E-09 5.64924E-11-8.71195E-03
 -1     11663-8.91964E-03-1.34027E-06 1.42246E-01-1.24182E-07 2.15391E-09 2.63866E-03
 -1     11665-8.91964E-03-1.34027E-06 1.42246E-01-1.24182E-07-2.15391E-09-2.63866E-03
 -1     11666-8.87693E-03-1.30159E-06 1.42204E-01 4.22870E-08-7.06085E-10 2.63717E-03
 -1     11668-8.87693E-03-1.30159E-06 1.42204E-01 4.22870E-08 7.06085E-10-2.63717E-03
 -1     11669-1.03418E-02 3.28907E-06 1.43685E-01-8.93840E-08 1.55996E-09 2.68857E-03
 -1     11671-1.03418E-02 3.28907E-06 1.43685E-01-8.93840E-08-1.55996E-09-2.68857E-03
 -1     11672-8.90360E-03-1.38496E-06 1.42231E-01-3.98099E-09 7.15545E-11 2.63810E-03
 -1     11674-8.90360E-03-1.38496E-06 1.42231E-01-3.98099E-09-7.15545E-11-2.63810E-03
 -1     11675-8.90327E-03-1.37626E-06 1.42230E-01 4.96343E-09-8.86315E-11 2.63809E-03
 -1     11677-8.90327E-03-1.37626E-06 1.42230E-01 4.96343E-09 8.86315E-11-2.63809E-03
 -1     11678-1.03028E-02 2.88881E-06 1.43645E-01 2.91311E-08-5.08558E-10 2.68719E-03
 -1     11680-1.03028E-02 2.88881E-06 1.43645E-01 2.91311E-08 5.08558E-10-2.68719E-03
 -1     11681-6.25023E-01-1.13242E-04 7.57950E-01-1.15654E-06 2.02654E-08 2.41435E-02
 -1     11683-6.25023E-01-1.13242E-04 7.57950E-01-1.15654E-06-2.02654E-08-2.41435E-02
 -1     11684-6.24798E-01-1.14990E-04 7.57719E-01 3.08512E-06-5.39167E-08 2.41356E-02
 -1     11686-6.24798E-01-1.14990E-04 7.57719E-01 3.08512E-06 5.39167E-08-2.41356E-02
 -1     11687-5.86384E-01 2.05667E-04 7.20463E-01-3.72062E-06 6.49609E-08 2.28130E-02
 -1     11689-5.86384E-01 2.05667E-04 7.20463E-01-3.72062E-06-6.49609E-08-2.28130E-02
 -1     11690-8.92095E-03-1.40549E-06 1.42248E-01-1.90732E-08 3.32874E-10 2.63870E-03
 -1     11692-8.92095E-03-1.40549E-06 1.42248E-01-1.90732E-08-3.32874E-10-2.63870E-03
 -1     11693-8.91992E-03-1.37297E-06 1.42247E-01-8.68301E-09 1.53987E-10 2.63867E-03
 -1     11695-8.91992E-03-1.37297E-06 1.42247E-01-8.68301E-09-1.53987E-10-2.63867E-03
 -1     11696-1.03260E-02 2.92534E-06 1.43669E-01 1.59492E-08-2.78386E-10 2.68801E-03
 -1     11698-1.03260E-02 2.92534E-06 1.43669E-01 1.59492E-08 2.78386E-10-2.68801E-03
 -1     11699-8.79570E-03-1.29908E-06 1.42123E-01 6.17121E-08-1.07610E-09 2.63434E-03
 -1     11701-8.79570E-03-1.29908E-06 1.42123E-01 6.17121E-08 1.07610E-09-2.63434E-03
 -1     11702-8.81583E-03-1.44614E-06 1.42143E-01 6.07683E-08-1.07234E-09 2.63503E-03
 -1     11704-8.81583E-03-1.44614E-06 1.42143E-01 6.07683E-08 1.07234E-09-2.63503E-03
 -1     11705-1.01571E-02 2.97281E-06 1.43499E-01-3.82863E-08 6.68279E-10 2.68209E-03
 -1     11707-1.01571E-02 2.97281E-06 1.43499E-01-3.82863E-08-6.68279E-10-2.68209E-03
 -1     11708-6.16710E-01-6.87076E-05 7.49664E-01 5.76310E-07-8.19428E-09 2.38540E-02
 -1     11710-6.16710E-01-6.87076E-05 7.49664E-01 5.76310E-07 8.19428E-09-2.38540E-02
 -1     11711-6.16280E-01-1.10784E-04 7.49179E-01 3.36690E-05-5.87585E-07 2.38381E-02
 -1     11713-6.16280E-01-1.10784E-04 7.49179E-01 3.36690E-05 5.87585E-07-2.38381E-02
 -1     11714-5.68282E-01 1.44314E-05 7.01548E-01 1.47979E-04-2.58647E-06 2.21672E-02
 -1     11716-5.68282E-01 1.44314E-05 7.01548E-01 1.47979E-04 2.58647E-06-2.21672E-02
 -1     11717-6.14676E-01-5.51250E-05 7.47827E-01-1.15497E-04 2.01075E-06 2.37854E-02
 -1     11719-6.14676E-01-5.51250E-05 7.47827E-01-1.15497E-04-2.01075E-06-2.37854E-02
 -1     11720-4.61042E-02-3.32230E-09 1.79436E-01 4.09998E-06-7.15743E-08 3.93689E-03
 -1     11722-4.61042E-02-3.32230E-09 1.79436E-01 4.09998E-06 7.15743E-08-3.93689E-03
 -1     11723-4.90797E-02 1.08322E-08 1.82412E-01-4.27513E-06 7.46359E-08 4.04077E-03
 -1     11725-4.90797E-02 1.08322E-08 1.82412E-01-4.27513E-06-7.46359E-08-4.04077E-03
 -1     11726-5.06368E-02-7.28570E-09 1.83969E-01-3.45394E-09 5.96051E-11 4.09517E-03
 -1     11728-5.06368E-02-7.28570E-09 1.83969E-01-3.45394E-09-5.96051E-11-4.09517E-03
 -1     11729-4.46595E-02-1.07787E-08 1.77991E-01-3.02712E-08 5.28190E-10 3.88649E-03
 -1     11731-4.46595E-02-1.07787E-08 1.77991E-01-3.02712E-08-5.28190E-10-3.88649E-03
 -1     11732-5.05775E-01 8.41361E-06 6.39111E-01 1.16298E-04-2.03112E-06 1.99860E-02
 -1     11734-5.05775E-01 8.41361E-06 6.39111E-01 1.16298E-04 2.03112E-06-1.99860E-02
 -1     11735-4.74193E-01 8.96121E-06 6.07522E-01-9.14806E-05 1.59695E-06 1.88830E-02
 -1     11737-4.74193E-01 8.96121E-06 6.07522E-01-9.14806E-05-1.59695E-06-1.88830E-02
 -1     11738-4.44408E-01 1.12146E-06 5.77748E-01 8.41983E-05-1.47005E-06 1.78432E-02
 -1     11740-4.44408E-01 1.12146E-06 5.77748E-01 8.41983E-05 1.47005E-06-1.78432E-02
 -1     11741-4.17545E-01-7.45621E-07 5.50880E-01-7.18867E-05 1.25494E-06 1.69052E-02
 -1     11743-4.17545E-01-7.45621E-07 5.50880E-01-7.18867E-05-1.25494E-06-1.69052E-02
 -1     11744-4.60298E-01 5.54627E-06 5.93629E-01 6.41882E-07-1.12058E-08 1.83988E-02
 -1     11746-4.60298E-01 5.54627E-06 5.93629E-01 6.41882E-07 1.12058E-08-1.83988E-02
 -1     11747-3.92490E-01-7.77681E-07 5.25819E-01 6.67341E-05-1.16506E-06 1.60303E-02
 -1     11749-3.92490E-01-7.77681E-07 5.25819E-01 6.67341E-05 1.16506E-06-1.60303E-02
 -1     11750-3.69464E-01 1.00720E-06 5.02800E-01-5.98189E-05 1.04428E-06 1.52264E-02
 -1     11752-3.69464E-01 1.00720E-06 5.02800E-01-5.98189E-05-1.04428E-06-1.52264E-02
 -1     11753-4.05515E-01-1.12510E-06 5.38846E-01 2.44925E-07-4.22198E-09 1.64858E-02
 -1     11755-4.05515E-01-1.12510E-06 5.38846E-01 2.44925E-07 4.22198E-09-1.64858E-02
 -1     11756-3.47994E-01-1.00423E-06 4.81322E-01 5.45712E-05-9.52720E-07 1.44767E-02
 -1     11758-3.47994E-01-1.00423E-06 4.81322E-01 5.45712E-05 9.52720E-07-1.44767E-02
 -1     11759-3.28177E-01 1.41272E-06 4.61513E-01-4.95211E-05 8.64527E-07 1.37849E-02
 -1     11761-3.28177E-01 1.41272E-06 4.61513E-01-4.95211E-05-8.64527E-07-1.37849E-02
 -1     11762-3.59019E-01-1.41089E-06 4.92349E-01 9.88054E-07-1.71800E-08 1.48622E-02
 -1     11764-3.59019E-01-1.41089E-06 4.92349E-01 9.88054E-07 1.71800E-08-1.48622E-02
 -1     11765-3.09696E-01-8.21143E-07 4.43024E-01 4.48141E-05-7.82381E-07 1.31395E-02
 -1     11767-3.09696E-01-8.21143E-07 4.43024E-01 4.48141E-05 7.82381E-07-1.31395E-02
 -1     11768-2.92550E-01 1.27343E-06 4.25885E-01-4.09460E-05 7.14838E-07 1.25410E-02
 -1     11770-2.92550E-01 1.27343E-06 4.25885E-01-4.09460E-05-7.14838E-07-1.25410E-02
 -1     11771-3.19093E-01-1.11259E-06 4.52423E-01 1.31775E-06-2.29407E-08 1.34681E-02
 -1     11773-3.19093E-01-1.11259E-06 4.52423E-01 1.31775E-06 2.29407E-08-1.34681E-02
 -1     11774-2.76548E-01-6.18234E-07 4.09877E-01 3.69379E-05-6.44875E-07 1.19822E-02
 -1     11776-2.76548E-01-6.18234E-07 4.09877E-01 3.69379E-05 6.44875E-07-1.19822E-02
 -1     11777-2.61624E-01 9.82276E-07 3.94959E-01-3.39450E-05 5.92621E-07 1.14613E-02
 -1     11779-2.61624E-01 9.82276E-07 3.94959E-01-3.39450E-05-5.92621E-07-1.14613E-02
 -1     11780-2.84631E-01-7.87245E-07 4.17962E-01 1.25633E-06-2.18797E-08 1.22649E-02
 -1     11782-2.84631E-01-7.87245E-07 4.17962E-01 1.25633E-06 2.18797E-08-1.22649E-02
 -1     11783-2.47673E-01-4.33075E-07 3.81003E-01 3.06851E-05-5.35710E-07 1.09741E-02
 -1     11785-2.47673E-01-4.33075E-07 3.81003E-01 3.06851E-05 5.35710E-07-1.09741E-02
 -1     11786-2.34599E-01 7.39530E-07 3.67933E-01-2.83225E-05 4.94463E-07 1.05177E-02
 -1     11788-2.34599E-01 7.39530E-07 3.67933E-01-2.83225E-05-4.94463E-07-1.05177E-02
 -1     11789-2.54696E-01-5.58955E-07 3.88027E-01 1.06869E-06-1.86157E-08 1.12197E-02
 -1     11791-2.54696E-01-5.58955E-07 3.88027E-01 1.06869E-06 1.86157E-08-1.12197E-02
 -1     11792-2.22349E-01-3.03749E-07 3.55679E-01 2.57445E-05-4.49454E-07 1.00900E-02
 -1     11794-2.22349E-01-3.03749E-07 3.55679E-01 2.57445E-05 4.49454E-07-1.00900E-02
 -1     11795-2.10825E-01 5.57373E-07 3.44158E-01-2.38526E-05 4.16427E-07 9.68766E-03
 -1     11797-2.10825E-01 5.57373E-07 3.44158E-01-2.38526E-05-4.16427E-07-9.68766E-03
 -1     11798-2.28510E-01-4.04924E-07 3.61841E-01 8.71921E-07-1.51899E-08 1.03053E-02
 -1     11800-2.28510E-01-4.04924E-07 3.61841E-01 8.71921E-07 1.51899E-08-1.03053E-02
 -1     11801-1.99996E-01-2.42420E-07 3.33327E-01 2.18206E-05-3.80948E-07 9.30955E-03
 -1     11803-1.99996E-01-2.42420E-07 3.33327E-01 2.18206E-05 3.80948E-07-9.30955E-03
 -1     11804-1.89778E-01 4.24708E-07 3.23111E-01-2.02738E-05 3.53945E-07 8.95284E-03
 -1     11806-1.89778E-01 4.24708E-07 3.23111E-01-2.02738E-05-3.53945E-07-8.95284E-03
 -1     11807-2.05443E-01-3.06138E-07 3.38774E-01 7.09985E-07-1.23688E-08 9.49997E-03
 -1     11809-2.05443E-01-3.06138E-07 3.38774E-01 7.09985E-07 1.23688E-08-9.49997E-03
 -1     11810-1.80149E-01-2.06678E-07 3.13480E-01 1.86669E-05-3.25888E-07 8.61664E-03
 -1     11812-1.80149E-01-2.06678E-07 3.13480E-01 1.86669E-05 3.25888E-07-8.61664E-03
 -1     11813-1.71042E-01 3.41538E-07 3.04375E-01-1.73778E-05 3.03385E-07 8.29873E-03
 -1     11815-1.71042E-01 3.41538E-07 3.04375E-01-1.73778E-05-3.03385E-07-8.29873E-03
 -1     11816-1.84995E-01-2.62365E-07 3.18327E-01 5.86778E-07-1.02216E-08 8.78606E-03
 -1     11818-1.84995E-01-2.62365E-07 3.18327E-01 5.86778E-07 1.02216E-08-8.78606E-03
 -1     11819-1.62440E-01-1.78055E-07 2.95771E-01 1.60767E-05-2.80669E-07 7.99836E-03
 -1     11821-1.62440E-01-1.78055E-07 2.95771E-01 1.60767E-05 2.80669E-07-7.99836E-03
 -1     11822-1.54288E-01 2.84812E-07 2.87621E-01-1.50036E-05 2.61936E-07 7.71381E-03
 -1     11824-1.54288E-01 2.84812E-07 2.87621E-01-1.50036E-05-2.61936E-07-7.71381E-03
 -1     11825-1.66772E-01-2.34622E-07 3.00104E-01 4.90674E-07-8.54624E-09 8.14980E-03
 -1     11827-1.66772E-01-2.34622E-07 3.00104E-01 4.90674E-07 8.54624E-09-8.14980E-03
 -1     11828-1.46571E-01-1.58901E-07 2.79902E-01 1.39199E-05-2.43016E-07 7.44434E-03
 -1     11830-1.46571E-01-1.58901E-07 2.79902E-01 1.39199E-05 2.43016E-07-7.44434E-03
 -1     11831-1.39246E-01 2.45167E-07 2.72578E-01-1.30222E-05 2.27342E-07 7.18863E-03
 -1     11833-1.39246E-01 2.45167E-07 2.72578E-01-1.30222E-05-2.27342E-07-7.18863E-03
 -1     11834-1.50458E-01-2.02083E-07 2.83790E-01 4.17923E-07-7.27798E-09 7.58022E-03
 -1     11836-1.50458E-01-2.02083E-07 2.83790E-01 4.17923E-07 7.27798E-09-7.58022E-03
 -1     11837-1.32295E-01-1.40290E-07 2.65627E-01 1.21207E-05-2.11605E-07 6.94596E-03
 -1     11839-1.32295E-01-1.40290E-07 2.65627E-01 1.21207E-05 2.11605E-07-6.94596E-03
 -1     11840-1.25688E-01 2.28533E-07 2.59021E-01-1.13628E-05 1.98373E-07 6.71532E-03
 -1     11842-1.25688E-01 2.28533E-07 2.59021E-01-1.13628E-05-1.98373E-07-6.71532E-03
 -1     11843-1.35795E-01-1.78278E-07 2.69127E-01 3.64716E-07-6.35091E-09 7.06829E-03
 -1     11845-1.35795E-01-1.78278E-07 2.69127E-01 3.64716E-07 6.35091E-09-7.06829E-03
 -1     11846-1.19406E-01-1.30525E-07 2.52737E-01 1.06082E-05-1.85200E-07 6.49597E-03
 -1     11848-1.19406E-01-1.30525E-07 2.52737E-01 1.06082E-05 1.85200E-07-6.49597E-03
 -1     11849-1.13424E-01 2.12967E-07 2.46757E-01-9.97379E-06 1.74123E-07 6.28715E-03
 -1     11851-1.13424E-01 2.12967E-07 2.46757E-01-9.97379E-06-1.74123E-07-6.28715E-03
 -1     11852-1.22567E-01-1.57434E-07 2.55899E-01 3.22235E-07-5.61096E-09 6.60644E-03
 -1     11854-1.22567E-01-1.57434E-07 2.55899E-01 3.22235E-07 5.61096E-09-6.60644E-03
 -1     11855-1.07726E-01-1.33078E-07 2.41058E-01 9.32911E-06-1.62869E-07 6.08820E-03
 -1     11857-1.07726E-01-1.33078E-07 2.41058E-01 9.32911E-06 1.62869E-07-6.08820E-03
 -1     11858-1.02292E-01 1.92011E-07 2.35624E-01-8.79509E-06 1.53545E-07 5.89849E-03
 -1     11860-1.02292E-01 1.92011E-07 2.35624E-01-8.79509E-06-1.53545E-07-5.89849E-03
 -1     11861-1.10590E-01-1.34128E-07 2.43922E-01 2.86383E-07-4.98631E-09 6.18829E-03
 -1     11863-1.10590E-01-1.34128E-07 2.43922E-01 2.86383E-07 4.98631E-09-6.18829E-03
 -1     11864-9.71070E-02-1.28113E-07 2.30439E-01 8.23947E-06-1.43846E-07 5.71747E-03
 -1     11866-9.71070E-02-1.28113E-07 2.30439E-01 8.23947E-06 1.43846E-07-5.71747E-03
 -1     11867-9.21549E-02 1.73186E-07 2.25487E-01-7.78314E-06 1.35879E-07 5.54460E-03
 -1     11869-9.21549E-02 1.73186E-07 2.25487E-01-7.78314E-06-1.35879E-07-5.54460E-03
 -1     11870-9.97105E-02-1.17435E-07 2.33042E-01 2.57114E-07-4.47644E-09 5.80845E-03
 -1     11872-9.97105E-02-1.17435E-07 2.33042E-01 2.57114E-07 4.47644E-09-5.80845E-03
 -1     11873-8.74248E-02-1.16115E-07 2.20756E-01 7.30140E-06-1.27469E-07 5.37944E-03
 -1     11875-8.74248E-02-1.16115E-07 2.20756E-01 7.30140E-06 1.27469E-07-5.37944E-03
 -1     11876-8.29006E-02 1.58826E-07 2.16233E-01-6.90500E-06 1.20548E-07 5.22151E-03
 -1     11878-8.29006E-02 1.58826E-07 2.16233E-01-6.90500E-06-1.20548E-07-5.22151E-03
 -1     11879-8.97983E-02-1.06122E-07 2.23130E-01 2.31146E-07-4.02429E-09 5.46239E-03
 -1     11881-8.97983E-02-1.06122E-07 2.23130E-01 2.31146E-07 4.02429E-09-5.46239E-03
 -1     11882-7.85752E-02-1.01795E-07 2.11907E-01 6.48665E-06-1.13245E-07 5.07049E-03
 -1     11884-7.85752E-02-1.01795E-07 2.11907E-01 6.48665E-06 1.13245E-07-5.07049E-03
 -1     11885-7.44330E-02 1.42044E-07 2.07765E-01-6.14170E-06 1.07223E-07 4.92589E-03
 -1     11887-7.44330E-02 1.42044E-07 2.07765E-01-6.14170E-06-1.07223E-07-4.92589E-03
 -1     11888-8.07449E-02-9.26657E-08 2.14077E-01 2.05560E-07-3.57861E-09 5.14631E-03
 -1     11890-8.07449E-02-9.26657E-08 2.14077E-01 2.05560E-07 3.57861E-09-5.14631E-03
 -1     11891-7.04690E-02-8.98474E-08 2.03801E-01 5.77757E-06-1.00865E-07 4.78749E-03
 -1     11893-7.04690E-02-8.98474E-08 2.03801E-01 5.77757E-06 1.00865E-07-4.78749E-03
 -1     11894-6.66680E-02 1.22035E-07 2.00000E-01-5.47358E-06 9.55590E-08 4.65480E-03
 -1     11896-6.66680E-02 1.22035E-07 2.00000E-01-5.47358E-06-9.55590E-08-4.65480E-03
 -1     11897-7.24574E-02-7.88418E-08 2.05789E-01 1.82606E-07-3.17857E-09 4.85697E-03
 -1     11899-7.24574E-02-7.88418E-08 2.05789E-01 1.82606E-07 3.17857E-09-4.85697E-03
 -1     11900-6.30272E-02-7.59267E-08 1.96359E-01 5.15985E-06-9.00813E-08 4.52768E-03
 -1     11902-6.30272E-02-7.59267E-08 1.96359E-01 5.15985E-06 9.00813E-08-4.52768E-03
 -1     11903-5.95321E-02 1.01635E-07 1.92864E-01-4.88531E-06 8.52895E-08 4.40568E-03
 -1     11905-5.95321E-02 1.01635E-07 1.92864E-01-4.88531E-06-8.52895E-08-4.40568E-03
 -1     11906-6.48541E-02-7.19195E-08 1.98186E-01 1.63477E-07-2.84520E-09 4.59153E-03
 -1     11908-6.48541E-02-7.19195E-08 1.98186E-01 1.63477E-07 2.84520E-09-4.59153E-03
 -1     11909-5.61824E-02-5.87438E-08 1.89514E-01 4.61248E-06-8.05253E-08 4.28872E-03
 -1     11911-5.61824E-02-5.87438E-08 1.89514E-01 4.61248E-06 8.05253E-08-4.28872E-03
 -1     11912-5.29632E-02 7.64840E-08 1.86295E-01-4.36206E-06 7.61554E-08 4.17635E-03
 -1     11914-5.29632E-02 7.64839E-08 1.86295E-01-4.36206E-06-7.61554E-08-4.17635E-03
 -1     11915-5.78650E-02-6.52932E-08 1.91197E-01 1.44620E-07-2.51656E-09 4.34752E-03
 -1     11917-5.78650E-02-6.52932E-08 1.91197E-01 1.44620E-07 2.51656E-09-4.34752E-03
 -1     11918-4.98782E-02-3.56448E-08 1.83210E-01 4.12298E-06-7.19791E-08 4.06864E-03
 -1     11920-4.98782E-02-3.56448E-08 1.83210E-01 4.12298E-06 7.19791E-08-4.06864E-03
 -1     11921-4.69087E-02 4.25178E-08 1.80241E-01-3.88884E-06 6.78951E-08 3.96497E-03
 -1     11923-4.69087E-02 4.25178E-08 1.80241E-01-3.88884E-06-6.78951E-08-3.96497E-03
 -1     11924-5.14316E-02-5.68420E-08 1.84763E-01 1.23129E-07-2.14200E-09 4.12291E-03
 -1     11926-5.14316E-02-5.68420E-08 1.84763E-01 1.23129E-07 2.14200E-09-4.12291E-03
 -1     11927-4.40651E-02 7.23258E-10 1.77397E-01 3.68888E-06-6.43997E-08 3.86570E-03
 -1     11929-4.40651E-02 7.23255E-10 1.77397E-01 3.68888E-06 6.43997E-08-3.86570E-03
 -1     11930-4.13218E-02-5.84730E-09 1.74654E-01-3.46196E-06 6.04441E-08 3.76992E-03
 -1     11932-4.13218E-02-5.84730E-09 1.74654E-01-3.46196E-06-6.04441E-08-3.76992E-03
 -1     11933-4.55042E-02-5.28162E-08 1.78836E-01 9.71913E-08-1.68975E-09 3.91598E-03
 -1     11935-4.55042E-02-5.28162E-08 1.78836E-01 9.71913E-08 1.68975E-09-3.91598E-03
 -1     11936-3.86984E-02 5.66929E-08 1.72031E-01 3.30550E-06-5.77052E-08 3.67834E-03
 -1     11938-3.86984E-02 5.66929E-08 1.72031E-01 3.30550E-06 5.77052E-08-3.67834E-03
 -1     11939-3.61600E-02-7.57795E-08 1.69492E-01-3.08203E-06 5.38130E-08 3.58971E-03
 -1     11941-3.61600E-02-7.57795E-08 1.69492E-01-3.08203E-06-5.38130E-08-3.58971E-03
 -1     11942-4.00387E-02-4.74380E-08 1.73371E-01 6.26796E-08-1.08740E-09 3.72516E-03
 -1     11944-4.00387E-02-4.74380E-08 1.73371E-01 6.26796E-08 1.08740E-09-3.72516E-03
 -1     11945-3.37370E-02 1.46155E-07 1.67069E-01 2.97517E-06-5.19361E-08 3.50514E-03
 -1     11947-3.37370E-02 1.46155E-07 1.67069E-01 2.97517E-06 5.19361E-08-3.50514E-03
 -1     11948-3.13830E-02-1.75813E-07 1.64714E-01-2.73753E-06 4.78005E-08 3.42294E-03
 -1     11950-3.13830E-02-1.75813E-07 1.64714E-01-2.73753E-06-4.78005E-08-3.42294E-03
 -1     11951-3.49939E-02-3.52771E-08 1.68326E-01 1.68131E-08-2.86205E-10 3.54904E-03
 -1     11953-3.49939E-02-3.52771E-08 1.68326E-01 1.68131E-08 2.86205E-10-3.54904E-03
 -1     11954-2.91389E-02 2.54098E-07 1.62472E-01 2.68829E-06-4.69267E-08 3.34462E-03
 -1     11956-2.91389E-02 2.54098E-07 1.62472E-01 2.68829E-06 4.69267E-08-3.34462E-03
 -1     11957-2.69512E-02-3.11301E-07 1.60282E-01-2.42423E-06 4.23338E-08 3.26821E-03
 -1     11959-2.69512E-02-3.11301E-07 1.60282E-01-2.42423E-06-4.23338E-08-3.26821E-03
 -1     11960-3.03286E-02-5.85248E-08 1.63661E-01-3.11474E-08 5.53090E-10 3.38616E-03
 -1     11962-3.03286E-02-5.85248E-08 1.63661E-01-3.11474E-08-5.53090E-10-3.38616E-03
 -1     11963-2.48713E-02 3.90204E-07 1.58205E-01 2.40991E-06-4.20656E-08 3.19564E-03
 -1     11965-2.48713E-02 3.90204E-07 1.58205E-01 2.40991E-06 4.20656E-08-3.19564E-03
 -1     11966-2.28337E-02-4.49126E-07 1.56164E-01-2.12947E-06 3.71918E-08 3.12446E-03
 -1     11968-2.28337E-02-4.49126E-07 1.56164E-01-2.12947E-06-3.71918E-08-3.12446E-03
 -1     11969-2.60069E-02-5.62245E-08 1.59339E-01-8.51596E-08 1.49639E-09 3.23529E-03
 -1     11971-2.60069E-02-5.62245E-08 1.59339E-01-8.51596E-08-1.49639E-09-3.23529E-03
 -1     11972-2.09082E-02 5.86229E-07 1.54242E-01 2.17233E-06-3.79139E-08 3.05730E-03
 -1     11974-2.09082E-02 5.86229E-07 1.54242E-01 2.17233E-06 3.79139E-08-3.05730E-03
 -1     11975-1.89997E-02-6.11925E-07 1.52330E-01-1.84811E-06 3.22850E-08 2.99060E-03
 -1     11977-1.89997E-02-6.11925E-07 1.52330E-01-1.84811E-06-3.22850E-08-2.99060E-03
 -1     11978-2.20049E-02-3.34227E-08 1.55337E-01-1.48800E-07 2.60529E-09 3.09557E-03
 -1     11980-2.20049E-02-3.34227E-08 1.55337E-01-1.48800E-07-2.60529E-09-3.09557E-03
 -1     11981-1.72118E-02 8.24573E-07 1.50547E-01 2.00589E-06-3.50020E-08 2.92827E-03
 -1     11983-1.72118E-02 8.24573E-07 1.50547E-01 2.00589E-06 3.50020E-08-2.92827E-03
 -1     11984-1.54051E-02-8.75502E-07 1.48734E-01-1.65624E-06 2.89441E-08 2.86510E-03
 -1     11986-1.54051E-02-8.75502E-07 1.48734E-01-1.65624E-06-2.89441E-08-2.86510E-03
 -1     11987-1.82959E-02-3.67642E-08 1.51628E-01-1.98399E-07 3.47217E-09 2.96608E-03
 -1     11989-1.82959E-02-3.67642E-08 1.51628E-01-1.98399E-07-3.47217E-09-2.96608E-03
 -1     11990-1.37367E-02 1.30256E-06 1.47074E-01 1.93968E-06-3.38363E-08 2.80698E-03
 -1     11992-1.37367E-02 1.30256E-06 1.47074E-01 1.93968E-06 3.38363E-08-2.80698E-03
 -1     11993-1.19964E-02-1.19844E-06 1.45324E-01-1.33979E-06 2.34559E-08 2.74608E-03
 -1     11995-1.19964E-02-1.19844E-06 1.45324E-01-1.33979E-06-2.34559E-08-2.74608E-03
 -1     11996-1.16413E-02-5.81217E-07 1.44971E-01-3.68820E-07 6.48364E-09 2.73373E-03
 -1     11998-1.16413E-02-5.81217E-07 1.44971E-01-3.68820E-07-6.48364E-09-2.73373E-03
 -1     11999-1.48457E-02-5.85647E-09 1.48177E-01-2.37571E-07 4.16318E-09 2.84562E-03
 -1     12001-1.48457E-02-5.85647E-09 1.48177E-01-2.37571E-07-4.16318E-09-2.84562E-03
 -1     12002-9.16020E-03-1.38692E-06 1.42487E-01 9.61356E-07-1.68248E-08 2.64706E-03
 -1     12004-9.16020E-03-1.38692E-06 1.42487E-01 9.61356E-07 1.68248E-08-2.64706E-03
 -1     12005-1.07169E-02 1.43356E-06 1.44057E-01-1.79559E-06 3.13631E-08 2.70161E-03
 -1     12007-1.07169E-02 1.43356E-06 1.44057E-01-1.79559E-06-3.13631E-08-2.70161E-03
 -1     12008-8.96017E-03-7.50454E-07 1.42289E-01 3.77140E-07-6.60113E-09 2.64011E-03
 -1     12010-8.96017E-03-7.50454E-07 1.42289E-01 3.77140E-07 6.60113E-09-2.64011E-03
 -1     12011-6.21758E-01-8.58960E-05 7.54755E-01 1.77246E-05-3.05520E-07 2.40302E-02
 -1     12013-6.21758E-01-8.58960E-05 7.54755E-01 1.77246E-05 3.05520E-07-2.40302E-02
 -1     12014-2.57761E-02 4.30726E-07 1.59110E-01 2.87054E-06-5.01008E-08 3.22723E-03
 -1     12016-2.57761E-02 4.30726E-07 1.59110E-01 2.87054E-06 5.01008E-08-3.22723E-03
 -1     12017-2.80029E-02-3.03109E-07 1.61334E-01-2.81449E-06 4.91428E-08 3.30493E-03
 -1     12019-2.80029E-02-3.03109E-07 1.61334E-01-2.81449E-06-4.91428E-08-3.30493E-03
 -1     12020-2.45741E-02-4.39672E-08 1.57906E-01-1.76295E-07 3.08270E-09 3.18528E-03
 -1     12022-2.45741E-02-4.39672E-08 1.57906E-01-1.76295E-07-3.08270E-09-3.18528E-03
 -1     12023-5.79488E-01 9.32682E-05 7.13319E-01 7.65868E-05-1.33798E-06 2.25680E-02
 -1     12025-5.79488E-01 9.32682E-05 7.13319E-01 7.65868E-05 1.33798E-06-2.25680E-02
 -1     12026-5.45487E-01-2.81913E-05 6.78819E-01-1.14644E-04 1.99890E-06 2.13727E-02
 -1     12028-5.45487E-01-2.81913E-05 6.78819E-01-1.14644E-04-1.99890E-06-2.13727E-02
 -1     12029-5.29594E-01-4.24185E-05 6.62839E-01 1.35383E-05-2.35886E-07 2.08179E-02
 -1     12031-5.29594E-01-4.24185E-05 6.62839E-01 1.35383E-05 2.35886E-07-2.08179E-02
 -1     12032-6.13605E-01-6.62921E-05 7.46566E-01-2.09570E-05 3.63018E-07 2.37464E-02
 -1     12034-6.13605E-01-6.62921E-05 7.46566E-01-2.09570E-05-3.63018E-07-2.37464E-02
 -1     12035-3.03276E-02 2.59456E-07 1.63660E-01 3.09406E-06-5.40108E-08 3.38612E-03
 -1     12037-3.03276E-02 2.59456E-07 1.63660E-01 3.09406E-06 5.40108E-08-3.38612E-03
 -1     12038-3.27187E-02-1.86436E-07 1.66050E-01-3.11221E-06 5.43386E-08 3.46957E-03
 -1     12040-3.27187E-02-1.86436E-07 1.66050E-01-3.11221E-06-5.43386E-08-3.46957E-03
 -1     12041-2.90983E-02 1.28277E-08 1.62430E-01-1.34877E-07 2.36048E-09 3.34322E-03
 -1     12043-2.90983E-02 1.28277E-08 1.62430E-01-1.34877E-07-2.36048E-09-3.34322E-03
 -1     12044-5.81224E-01 1.76143E-04 7.15208E-01-6.54948E-05 1.14356E-06 2.26311E-02
 -1     12046-5.81224E-01 1.76143E-04 7.15208E-01-6.54948E-05-1.14356E-06-2.26311E-02
 -1     12047-5.52745E-01-5.62797E-05 6.85936E-01 9.51420E-06-1.64173E-07 2.16240E-02
 -1     12049-5.52745E-01-5.62797E-05 6.85936E-01 9.51420E-06 1.64173E-07-2.16240E-02
 -1     12050-5.76312E-01 2.34428E-04 7.10440E-01-3.81359E-05 6.65728E-07 2.24624E-02
 -1     12052-5.76312E-01 2.34428E-04 7.10440E-01-3.81359E-05-6.65728E-07-2.24624E-02
 -1     12053-1.03950E-02 2.95441E-06 1.43738E-01 1.16909E-08-2.04092E-10 2.69042E-03
 -1     12055-1.03950E-02 2.95441E-06 1.43738E-01 1.16909E-08 2.04092E-10-2.69042E-03
 -1     12056-6.24970E-01-1.14342E-04 7.57893E-01-2.11817E-06 3.69745E-08 2.41416E-02
 -1     12058-6.24970E-01-1.14342E-04 7.57893E-01-2.11817E-06-3.69745E-08-2.41416E-02
 -1     12059-6.25033E-01-1.13942E-04 7.57958E-01 1.18736E-06-2.07361E-08 2.41438E-02
 -1     12061-6.25033E-01-1.13942E-04 7.57958E-01 1.18736E-06 2.07361E-08-2.41438E-02
 -1     12062-8.90871E-03-1.36646E-06 1.42236E-01 1.49203E-08-2.60247E-10 2.63828E-03
 -1     12064-8.90871E-03-1.36646E-06 1.42236E-01 1.49203E-08 2.60247E-10-2.63828E-03
 -1     12065-8.91462E-03-1.39569E-06 1.42242E-01 2.52012E-08-4.42472E-10 2.63848E-03
 -1     12067-8.91462E-03-1.39569E-06 1.42242E-01 2.52012E-08 4.42472E-10-2.63848E-03
 -1     12068-1.00351E-02 2.58462E-06 1.43375E-01-3.27011E-08 5.73604E-10 2.67779E-03
 -1     12070-1.00351E-02 2.58462E-06 1.43375E-01-3.27011E-08-5.73604E-10-2.67779E-03
 -1     12071-1.03172E-02 2.91109E-06 1.43660E-01 4.11974E-08-7.19198E-10 2.68770E-03
 -1     12073-1.03172E-02 2.91109E-06 1.43660E-01 4.11974E-08 7.19198E-10-2.68770E-03
 -1     12074-2.44436E-01-2.25067E-07 3.77768E-01-2.96967E-05 5.18436E-07 1.08611E-02
 -1     12076-2.44436E-01-2.25067E-07 3.77768E-01-2.96967E-05-5.18436E-07-1.08611E-02
 -1     12077-2.51230E-01 2.10703E-07 3.84562E-01-3.55757E-07 6.21690E-09 1.10986E-02
 -1     12079-2.51230E-01 2.10703E-07 3.84562E-01-3.55757E-07-6.21690E-09-1.10986E-02
 -1     12080-2.31634E-01 2.36933E-07 3.64967E-01 2.73816E-05-4.78038E-07 1.04142E-02
 -1     12082-2.31634E-01 2.36933E-07 3.64967E-01 2.73816E-05 4.78038E-07-1.04142E-02
 -1     12083-6.11633E-01-8.56959E-05 7.44579E-01-7.05357E-06 1.25047E-07 2.36771E-02
 -1     12085-6.11633E-01-8.56959E-05 7.44579E-01-7.05357E-06-1.25047E-07-2.36771E-02
 -1     12086-5.85936E-01 2.07672E-04 7.20009E-01-1.94663E-07 3.39940E-09 2.27972E-02
 -1     12088-5.85936E-01 2.07672E-04 7.20009E-01-1.94663E-07-3.39940E-09-2.27972E-02
 -1     12089-6.15665E-01-1.18602E-04 7.48539E-01-3.18658E-05 5.56977E-07 2.38163E-02
 -1     12091-6.15665E-01-1.18602E-04 7.48539E-01-3.18658E-05-5.56977E-07-2.38163E-02
 -1     12092-6.17075E-01-9.57560E-05 7.50013E-01-1.22081E-05 2.11681E-07 2.38668E-02
 -1     12094-6.17075E-01-9.57560E-05 7.50013E-01-1.22081E-05-2.11681E-07-2.38668E-02
 -1     12095-5.75447E-01 1.74206E-04 7.09639E-01-1.21547E-05 2.12143E-07 2.24336E-02
 -1     12097-5.75447E-01 1.74206E-04 7.09639E-01-1.21547E-05-2.12143E-07-2.24336E-02
 -1     12098-6.24872E-01-1.14327E-04 7.57796E-01-1.95722E-06 3.41633E-08 2.41382E-02
 -1     12100-6.24872E-01-1.14327E-04 7.57796E-01-1.95722E-06-3.41633E-08-2.41382E-02
 -1     12101-6.24914E-01-1.14199E-04 7.57838E-01 1.24355E-06-2.17116E-08 2.41396E-02
 -1     12103-6.24914E-01-1.14199E-04 7.57838E-01 1.24355E-06 2.17116E-08-2.41396E-02
 -1     12104-5.86072E-01 2.06125E-04 7.20139E-01 3.01652E-07-5.26702E-09 2.28019E-02
 -1     12106-5.86072E-01 2.06125E-04 7.20139E-01 3.01652E-07 5.26702E-09-2.28019E-02
 -1     12107-1.02085E-02 2.20573E-06 1.43551E-01 8.21891E-07-1.43552E-08 2.68391E-03
 -1     12109-1.02085E-02 2.20573E-06 1.43551E-01 8.21891E-07 1.43552E-08-2.68391E-03
 -1     12110-3.22818E-01 5.91124E-06 4.56167E-01 5.03658E-05-8.79360E-07 1.35980E-02
 -1     12112-3.22818E-01 5.91124E-06 4.56167E-01 5.03658E-05 8.79360E-07-1.35980E-02
 -1     12113-3.42474E-01-6.09594E-06 4.75781E-01-5.42258E-05 9.46683E-07 1.42836E-02
 -1     12115-3.42474E-01-6.09594E-06 4.75781E-01-5.42258E-05-9.46683E-07-1.42836E-02
 -1     12116-5.84059E-01 2.06047E-04 7.18125E-01-1.38265E-05 2.41390E-07 2.27316E-02
 -1     12118-5.84059E-01 2.06047E-04 7.18125E-01-1.38265E-05-2.41390E-07-2.27316E-02
 -1     12119-1.22798E-02-8.24536E-07 1.45609E-01 4.17972E-07-7.45118E-09 2.75603E-03
 -1     12121-1.22798E-02-8.24536E-07 1.45609E-01 4.17972E-07 7.45118E-09-2.75603E-03
 -1     12122-6.22077E-02 1.36385E-08 1.95540E-01-5.23140E-06 9.13303E-08 4.49908E-03
 -1     12124-6.22077E-02 1.36385E-08 1.95540E-01-5.23140E-06-9.13303E-08-4.49908E-03
 -1     12125-6.40367E-02-7.35937E-09 1.97369E-01 4.90399E-09-8.57734E-11 4.56299E-03
 -1     12127-6.40367E-02-7.35938E-09 1.97369E-01 4.90399E-09 8.57734E-11-4.56299E-03
 -1     12128-5.87333E-02-1.46919E-08 1.92065E-01 4.96896E-06-8.67473E-08 4.37778E-03
 -1     12130-5.87333E-02-1.46919E-08 1.92065E-01 4.96896E-06 8.67473E-08-4.37778E-03
 -1     12131-7.35353E-02-6.68519E-09 2.06867E-01 6.15986E-06-1.07539E-07 4.89454E-03
 -1     12133-7.35353E-02-6.68519E-09 2.06867E-01 6.15986E-06 1.07539E-07-4.89454E-03
 -1     12134-7.76389E-02 1.03510E-08 2.10971E-01-6.51881E-06 1.13806E-07 5.03781E-03
 -1     12136-7.76389E-02 1.03510E-08 2.10971E-01-6.51881E-06-1.13806E-07-5.03781E-03
 -1     12137-1.61681E-02-2.29143E-07 1.49499E-01-4.64554E-07 8.12359E-09 2.89180E-03
 -1     12139-1.61681E-02-2.29143E-07 1.49499E-01-4.64554E-07-8.12359E-09-2.89180E-03
 -1     12140-5.70740E-02-6.60514E-09 1.90406E-01-2.43755E-09 4.20162E-11 4.31991E-03
 -1     12142-5.70740E-02-6.60514E-09 1.90406E-01-2.43755E-09-4.20162E-11-4.31991E-03
 -1     12143-7.98061E-02-6.47576E-09 2.13138E-01 5.50221E-09-9.59307E-11 5.11354E-03
 -1     12145-7.98061E-02-6.47576E-09 2.13138E-01 5.50221E-09 9.59307E-11-5.11354E-03
 -1     12146-4.76197E-01-2.03357E-05 6.09502E-01 1.02434E-04-1.78633E-06 1.89531E-02
 -1     12148-4.76197E-01-2.03357E-05 6.09502E-01 1.02434E-04 1.78633E-06-1.89531E-02
 -1     12149-5.08041E-01 7.63187E-05 6.41749E-01-7.49303E-05 1.30902E-06 2.00715E-02
 -1     12151-5.08041E-01 7.63187E-05 6.41749E-01-7.49303E-05-1.30902E-06-2.00715E-02
 -1     12152-6.25126E-01-1.14450E-04 7.58050E-01-2.08742E-06 3.64166E-08 2.41471E-02
 -1     12154-6.25126E-01-1.14450E-04 7.58050E-01-2.08742E-06-3.64166E-08-2.41471E-02
 -1     12155-6.25167E-01-1.13864E-04 7.58092E-01 1.21087E-06-2.11399E-08 2.41485E-02
 -1     12157-6.25167E-01-1.13864E-04 7.58092E-01 1.21087E-06 2.11399E-08-2.41485E-02
 -1     12158-5.86450E-01 2.04989E-04 7.20514E-01 8.15550E-07-1.42369E-08 2.28150E-02
 -1     12160-5.86450E-01 2.04989E-04 7.20514E-01 8.15550E-07 1.42369E-08-2.28150E-02
 -1     12161-1.03210E-02 2.90066E-06 1.43663E-01-6.04890E-08 1.05599E-09 2.68783E-03
 -1     12163-1.03210E-02 2.90066E-06 1.43663E-01-6.04890E-08-1.05599E-09-2.68783E-03
 -1     12164-1.03019E-02 2.88140E-06 1.43644E-01-1.65228E-08 2.88479E-10 2.68716E-03
 -1     12166-1.03019E-02 2.88140E-06 1.43644E-01-1.65228E-08-2.88479E-10-2.68716E-03
 -1     12167-8.86891E-03-1.29407E-06 1.42196E-01 5.50187E-08-9.71453E-10 2.63689E-03
 -1     12169-8.86891E-03-1.29407E-06 1.42196E-01 5.50187E-08 9.71453E-10-2.63689E-03
 -1     12170-8.89005E-03-1.40710E-06 1.42217E-01 7.04125E-08-1.22951E-09 2.63762E-03
 -1     12172-8.89005E-03-1.40710E-06 1.42217E-01 7.04125E-08 1.22951E-09-2.63762E-03
 -1     12173-5.48060E-01-8.07051E-05 6.81069E-01 5.73117E-05-9.98330E-07 2.14573E-02
 -1     12175-5.48060E-01-8.07051E-05 6.81069E-01 5.73117E-05 9.98330E-07-2.14573E-02
 -1     12176-6.16176E-01-1.45878E-04 7.49053E-01-4.63883E-06 8.02340E-08 2.38339E-02
 -1     12178-6.16176E-01-1.45878E-04 7.49053E-01-4.63883E-06-8.02340E-08-2.38339E-02
 -1     12179-6.15591E-01-1.23063E-04 7.48478E-01-1.04721E-05 1.83802E-07 2.38137E-02
 -1     12181-6.15591E-01-1.23063E-04 7.48478E-01-1.04721E-05-1.83802E-07-2.38137E-02
 -1     12182-5.75335E-01 1.80731E-04 7.09485E-01 2.69746E-05-4.70808E-07 2.24289E-02
 -1     12184-5.75335E-01 1.80731E-04 7.09485E-01 2.69746E-05 4.70808E-07-2.24289E-02
 -1     12185-7.15895E-02-4.44480E-09 2.04921E-01 6.17161E-09-1.07864E-10 4.82667E-03
 -1     12187-7.15895E-02-4.44480E-09 2.04921E-01 6.17161E-09 1.07864E-10-4.82667E-03
 -1     12188-2.08310E-01 3.54987E-08 3.41643E-01 2.34218E-05-4.08900E-07 9.59986E-03
 -1     12190-2.08310E-01 3.54987E-08 3.41643E-01 2.34218E-05 4.08900E-07-9.59986E-03
 -1     12191-2.19644E-01-4.92401E-08 3.52976E-01-2.53217E-05 4.42059E-07 9.99553E-03
 -1     12193-2.19644E-01-4.92401E-08 3.52976E-01-2.53217E-05-4.42059E-07-9.99553E-03
 -1     12194-2.03045E-01-8.93941E-09 3.36377E-01-1.23676E-08 2.17035E-10 9.41625E-03
 -1     12196-2.03045E-01-8.93940E-09 3.36377E-01-1.23676E-08-2.17035E-10-9.41625E-03
 -1     12197-3.63700E-01 1.02024E-05 4.97063E-01 6.33095E-05-1.10528E-06 1.50257E-02
 -1     12199-3.63700E-01 1.02024E-05 4.97063E-01 6.33095E-05 1.10528E-06-1.50257E-02
 -1     12200-3.86947E-01-7.95336E-06 5.20241E-01-7.05147E-05 1.23121E-06 1.58362E-02
 -1     12202-3.86947E-01-7.95336E-06 5.20241E-01-7.05147E-05-1.23121E-06-1.58362E-02
 -1     12203-3.52814E-01-4.20893E-06 4.86141E-01-3.96267E-06 6.91306E-08 1.46456E-02
 -1     12205-3.52814E-01-4.20893E-06 4.86141E-01-3.96267E-06-6.91306E-08-1.46456E-02
 -1     12206-8.64706E-03-1.26075E-06 1.41975E-01 1.00730E-07-1.70619E-09 2.62915E-03
 -1     12208-8.64706E-03-1.26075E-06 1.41975E-01 1.00730E-07 1.70619E-09-2.62915E-03
 -1     12209-8.72249E-03-1.36571E-06 1.42050E-01 2.12308E-07-3.76718E-09 2.63177E-03
 -1     12211-8.72249E-03-1.36571E-06 1.42050E-01 2.12308E-07 3.76718E-09-2.63177E-03
 -1     12212-1.01776E-02 2.43785E-06 1.43517E-01-7.84839E-07 1.36892E-08 2.68277E-03
 -1     12214-1.01776E-02 2.43785E-06 1.43517E-01-7.84839E-07-1.36892E-08-2.68277E-03
 -1     12215-1.00123E-02 2.82401E-06 1.43353E-01 3.71373E-07-6.47924E-09 2.67701E-03
 -1     12217-1.00123E-02 2.82401E-06 1.43353E-01 3.71373E-07 6.47924E-09-2.67701E-03
 -1     12218-2.88057E-01 2.77631E-06 4.21396E-01 4.00787E-05-6.99755E-07 1.23842E-02
 -1     12220-2.88057E-01 2.77631E-06 4.21396E-01 4.00787E-05 6.99755E-07-1.23842E-02
 -1     12221-3.04866E-01-2.93787E-06 4.38187E-01-4.31613E-05 7.53506E-07 1.29708E-02
 -1     12223-3.04866E-01-2.93787E-06 4.38187E-01-4.31613E-05-7.53506E-07-1.29708E-02
 -1     12224-3.13643E-01-1.51781E-06 4.46973E-01-2.02470E-06 3.53064E-08 1.32778E-02
 -1     12226-3.13643E-01-1.51781E-06 4.46973E-01-2.02470E-06-3.53064E-08-1.32778E-02
 -1     12227-2.80241E-01 7.10426E-08 4.13572E-01-9.36544E-07 1.63460E-08 1.21115E-02
 -1     12229-2.80241E-01 7.10426E-08 4.13572E-01-9.36544E-07-1.63460E-08-1.21115E-02
 -1     12230-3.52107E-02 1.33887E-07 1.68543E-01 3.38844E-06-5.91507E-08 3.55659E-03
 -1     12232-3.52107E-02 1.33887E-07 1.68543E-01 3.38844E-06 5.91507E-08-3.55659E-03
 -1     12233-3.77730E-02-1.00653E-07 1.71105E-01-3.47650E-06 6.07014E-08 3.64603E-03
 -1     12235-3.77730E-02-1.00653E-07 1.71105E-01-3.47650E-06-6.07014E-08-3.64603E-03
 -1     12236-1.03040E-02 2.86348E-06 1.43646E-01-9.62193E-08 1.67999E-09 2.68724E-03
 -1     12238-1.03040E-02 2.86348E-06 1.43646E-01-9.62193E-08-1.67999E-09-2.68724E-03
 -1     12239-3.90914E-02-6.47600E-09 1.72423E-01-6.70247E-08 1.17080E-09 3.69210E-03
 -1     12241-3.90914E-02-6.47600E-09 1.72423E-01-6.70247E-08-1.17080E-09-3.69210E-03
 -1     12242-3.39146E-02 2.23531E-08 1.67247E-01-1.15937E-07 2.02734E-09 3.51137E-03
 -1     12244-3.39146E-02 2.23531E-08 1.67247E-01-1.15937E-07-2.02734E-09-3.51137E-03
 -1     12245-5.86307E-01 2.05366E-04 7.20374E-01 1.12811E-06-1.96944E-08 2.28101E-02
 -1     12247-5.86307E-01 2.05366E-04 7.20374E-01 1.12811E-06 1.96944E-08-2.28101E-02
 -1     12248-4.40847E-01 3.03949E-06 5.74160E-01-1.06260E-04 1.85601E-06 1.77187E-02
 -1     12250-4.40847E-01 3.03949E-06 5.74160E-01-1.06260E-04-1.85601E-06-1.77187E-02
 -1     12251-4.61192E-01-2.45409E-05 5.94469E-01-7.30812E-06 1.28176E-07 1.84301E-02
 -1     12253-4.61192E-01-2.45409E-05 5.94469E-01-7.30812E-06-1.28176E-07-1.84301E-02
 -1     12254-4.12955E-01 1.36816E-05 5.46323E-01 8.00131E-05-1.39669E-06 1.67456E-02
 -1     12256-4.12955E-01 1.36816E-05 5.46323E-01 8.00131E-05 1.39669E-06-1.67456E-02
 -1     12257-1.02276E-02 2.75337E-06 1.43570E-01-2.92530E-07 5.10700E-09 2.68457E-03
 -1     12259-1.02276E-02 2.75337E-06 1.43570E-01-2.92530E-07-5.10700E-09-2.68457E-03
 -1     12260-5.49357E-01-8.78572E-05 6.82389E-01 1.16401E-05-2.03164E-07 2.15032E-02
 -1     12262-5.49357E-01-8.78572E-05 6.82389E-01 1.16401E-05 2.03164E-07-2.15032E-02
 -1     12263-5.47380E-01-1.08249E-04 6.80333E-01 1.32763E-05-2.31162E-07 2.14327E-02
 -1     12265-5.47380E-01-1.08249E-04 6.80333E-01 1.32763E-05 2.31162E-07-2.14327E-02
 -1     12266-5.86164E-01 2.05819E-04 7.20231E-01 5.74522E-07-1.00304E-08 2.28051E-02
 -1     12268-5.86164E-01 2.05819E-04 7.20231E-01 5.74522E-07 1.00304E-08-2.28051E-02
 -1     12269-1.17803E-02-1.48403E-06 1.45107E-01 5.73974E-09-9.68227E-11 2.73852E-03
 -1     12271-1.17803E-02-1.48403E-06 1.45107E-01 5.73974E-09 9.68227E-11-2.73852E-03
 -1     12272-1.17860E-02-1.49769E-06 1.45113E-01 2.11136E-08-3.71817E-10 2.73872E-03
 -1     12274-1.17860E-02-1.49769E-06 1.45113E-01 2.11136E-08 3.71817E-10-2.73872E-03
 -1     12275-1.12084E-02-1.34342E-06 1.44536E-01-3.15167E-07 5.63299E-09 2.71856E-03
 -1     12277-1.12084E-02-1.34342E-06 1.44536E-01-3.15167E-07-5.63299E-09-2.71856E-03
 -1     12278-1.11400E-02-1.16488E-06 1.44468E-01 1.38385E-07-2.59102E-09 2.71617E-03
 -1     12280-1.11400E-02-1.16488E-06 1.44468E-01 1.38385E-07 2.59102E-09-2.71617E-03
 -1     12281-1.27460E-02 1.20350E-06 1.46082E-01 1.53295E-06-2.67284E-08 2.77238E-03
 -1     12283-1.27460E-02 1.20350E-06 1.46082E-01 1.53295E-06 2.67284E-08-2.77238E-03
 -1     12284-5.53871E-01-9.21074E-05 6.86874E-01-1.74063E-06 3.03875E-08 2.16602E-02
 -1     12286-5.53871E-01-9.21074E-05 6.86874E-01-1.74063E-06-3.03875E-08-2.16602E-02
 -1     12287-5.53957E-01-9.15977E-05 6.86961E-01 6.30314E-07-1.10199E-08 2.16632E-02
 -1     12289-5.53957E-01-9.15977E-05 6.86961E-01 6.30314E-07 1.10199E-08-2.16632E-02
 -1     12290-3.25855E-02 2.02588E-07 1.65918E-01 3.32232E-06-5.79946E-08 3.46495E-03
 -1     12292-3.25855E-02 2.02588E-07 1.65918E-01 3.32232E-06 5.79946E-08-3.46495E-03
 -1     12293-3.50775E-02-1.44779E-07 1.68409E-01-3.36449E-06 5.87495E-08 3.55193E-03
 -1     12295-3.50775E-02-1.44779E-07 1.68409E-01-3.36449E-06-5.87495E-08-3.55193E-03
 -1     12296-1.18172E-02-1.54037E-06 1.45144E-01-4.70326E-08 8.25460E-10 2.73981E-03
 -1     12298-1.18172E-02-1.54037E-06 1.45144E-01-4.70326E-08-8.25460E-10-2.73981E-03
 -1     12299-1.18089E-02-1.47096E-06 1.45136E-01-3.49280E-08 6.12936E-10 2.73952E-03
 -1     12301-1.18089E-02-1.47096E-06 1.45136E-01-3.49280E-08-6.12936E-10-2.73952E-03
 -1     12302-5.54193E-01-9.17602E-05 6.87198E-01-9.33164E-07 1.62290E-08 2.16715E-02
 -1     12304-5.54193E-01-9.17602E-05 6.87198E-01-9.33164E-07-1.62290E-08-2.16715E-02
 -1     12305-5.54076E-01-9.23918E-05 6.87078E-01 2.00677E-06-3.49877E-08 2.16673E-02
 -1     12307-5.54076E-01-9.23918E-05 6.87078E-01 2.00677E-06 3.49877E-08-2.16673E-02
 -1     12308-6.22331E-01-1.34950E-04 7.55207E-01-2.59216E-05 4.51226E-07 2.40486E-02
 -1     12310-6.22331E-01-1.34950E-04 7.55207E-01-2.59216E-05-4.51226E-07-2.40486E-02
 -1     12311-6.24419E-01-1.04542E-04 7.57393E-01-2.14149E-05 3.73703E-07 2.41232E-02
 -1     12313-6.24419E-01-1.04542E-04 7.57393E-01-2.14149E-05-3.73703E-07-2.41232E-02
 -1     12314-5.53592E-01-9.22304E-05 6.86596E-01-1.60663E-06 2.80228E-08 2.16505E-02
 -1     12316-5.53592E-01-9.22304E-05 6.86596E-01-1.60663E-06-2.80228E-08-2.16505E-02
 -1     12317-5.53653E-01-9.18835E-05 6.86657E-01 4.97846E-07-8.68764E-09 2.16526E-02
 -1     12319-5.53653E-01-9.18835E-05 6.86657E-01 4.97846E-07 8.68764E-09-2.16526E-02
 -1     12320-3.76984E-02 6.49980E-08 1.71031E-01 3.67156E-06-6.40921E-08 3.64344E-03
 -1     12322-3.76984E-02 6.49980E-08 1.71031E-01 3.67156E-06 6.40921E-08-3.64344E-03
 -1     12323-4.03844E-02-2.69786E-08 1.73716E-01-3.76077E-06 6.56606E-08 3.73720E-03
 -1     12325-4.03844E-02-2.69786E-08 1.73716E-01-3.76077E-06-6.56606E-08-3.73720E-03
 -1     12326-3.63453E-02-6.84755E-09 1.69677E-01-1.01160E-07 1.76785E-09 3.59623E-03
 -1     12328-3.63453E-02-6.84755E-09 1.69677E-01-1.01160E-07-1.76785E-09-3.59623E-03
 -1     12329-1.20025E-02-9.26828E-07 1.45330E-01-3.90298E-07 6.68720E-09 2.74630E-03
 -1     12331-1.20025E-02-9.26828E-07 1.45330E-01-3.90298E-07-6.68720E-09-2.74630E-03
 -1     12332-1.18756E-02-1.04248E-06 1.45204E-01-4.38313E-07 7.84259E-09 2.74189E-03
 -1     12334-1.18756E-02-1.04248E-06 1.45204E-01-4.38313E-07-7.84259E-09-2.74189E-03
 -1     12335-1.06480E-01 1.55567E-08 2.39812E-01 9.32106E-06-1.62728E-07 6.04471E-03
 -1     12337-1.06480E-01 1.55567E-08 2.39812E-01 9.32106E-06 1.62728E-07-6.04471E-03
 -1     12338-1.12114E-01 1.52442E-08 2.45446E-01-9.93457E-06 1.73439E-07 6.24139E-03
 -1     12340-1.12114E-01 1.52442E-08 2.45446E-01-9.93457E-06-1.73439E-07-6.24139E-03
 -1     12341-5.43783E-01-7.57816E-05 6.76912E-01 6.76129E-05-1.17602E-06 2.13098E-02
 -1     12343-5.43783E-01-7.57816E-05 6.76912E-01 6.76129E-05 1.17602E-06-2.13098E-02
 -1     12344-5.03938E-01 3.43192E-05 6.37343E-01-1.42847E-04 2.49538E-06 1.99229E-02
 -1     12346-5.03938E-01 3.43192E-05 6.37343E-01-1.42847E-04-2.49538E-06-1.99229E-02
 -1     12347-7.76434E-02-1.02676E-08 2.10975E-01 6.50965E-06-1.13646E-07 5.03796E-03
 -1     12349-7.76434E-02-1.02676E-08 2.10975E-01 6.50965E-06 1.13646E-07-5.03796E-03
 -1     12350-8.19289E-02 1.25660E-08 2.15261E-01-6.89809E-06 1.20427E-07 5.18758E-03
 -1     12352-8.19289E-02 1.25660E-08 2.15261E-01-6.89809E-06-1.20427E-07-5.18758E-03
 -1     12353-1.49449E-02 6.63201E-07 1.48282E-01 1.46961E-06-2.57066E-08 2.84916E-03
 -1     12355-1.49449E-02 6.63201E-07 1.48282E-01 1.46961E-06 2.57066E-08-2.84916E-03
 -1     12356-1.69679E-02-7.24399E-07 1.50297E-01-2.20994E-06 3.86203E-08 2.91966E-03
 -1     12358-1.69679E-02-7.24399E-07 1.50297E-01-2.20994E-06-3.86203E-08-2.91966E-03
 -1     12359-1.15100E-02-7.41020E-07 1.44837E-01 1.24761E-06-2.19910E-08 2.72909E-03
 -1     12361-1.15100E-02-7.41020E-07 1.44837E-01 1.24761E-06 2.19910E-08-2.72909E-03
 -1     12362-1.33752E-02 3.14555E-07 1.46709E-01-1.84023E-06 3.19793E-08 2.79431E-03
 -1     12364-1.33752E-02 3.14555E-07 1.46709E-01-1.84023E-06-3.19793E-08-2.79431E-03
 -1     12365-1.41637E-02 4.48708E-07 1.47493E-01 8.23520E-07-1.41922E-08 2.82178E-03
 -1     12367-1.41637E-02 4.48708E-07 1.47493E-01 8.23520E-07 1.41922E-08-2.82178E-03
 -1     12368-1.12673E-02-1.27894E-06 1.44596E-01-1.80472E-08 3.60711E-10 2.72063E-03
 -1     12370-1.12673E-02-1.27894E-06 1.44596E-01-1.80472E-08-3.60711E-10-2.72063E-03
 -1     12371-6.22111E-02-2.82245E-08 1.95543E-01 5.24206E-06-9.15156E-08 4.49920E-03
 -1     12373-6.22111E-02-2.82245E-08 1.95543E-01 5.24206E-06 9.15156E-08-4.49920E-03
 -1     12374-6.58323E-02 2.77415E-08 1.99164E-01-5.52768E-06 9.65021E-08 4.62562E-03
 -1     12376-6.58323E-02 2.77415E-08 1.99164E-01-5.52768E-06-9.65021E-08-4.62562E-03
 -1     12377-1.18012E-02-1.47104E-06 1.45128E-01 3.90303E-08-6.81653E-10 2.73925E-03
 -1     12379-1.18012E-02-1.47104E-06 1.45128E-01 3.90303E-08 6.81653E-10-2.73925E-03
 -1     12380-1.18151E-02-1.53851E-06 1.45142E-01 5.63193E-08-9.88999E-10 2.73973E-03
 -1     12382-1.18151E-02-1.53851E-06 1.45142E-01 5.63193E-08 9.88999E-10-2.73973E-03
 -1     12383-1.32708E-02 3.12334E-06 1.46614E-01-5.94562E-08 1.03799E-09 2.79082E-03
 -1     12385-1.32708E-02 3.12334E-06 1.46614E-01-5.94562E-08-1.03799E-09-2.79082E-03
 -1     12386-6.96065E-02-2.08966E-08 2.02938E-01 5.82896E-06-1.01762E-07 4.75738E-03
 -1     12388-6.96065E-02-2.08966E-08 2.02938E-01 5.82896E-06 1.01762E-07-4.75738E-03
 -1     12389-7.35401E-02 2.09963E-08 2.06872E-01-6.16116E-06 1.07561E-07 4.89471E-03
 -1     12391-7.35401E-02 2.09963E-08 2.06872E-01-6.16116E-06-1.07561E-07-4.89471E-03
 -1     12392-7.56173E-02-7.35312E-09 2.08949E-01 1.14771E-08-2.00017E-10 4.96729E-03
 -1     12394-7.56173E-02-7.35312E-09 2.08949E-01 1.14771E-08 2.00017E-10-4.96729E-03
 -1     12395-6.77423E-02-9.04818E-09 2.01074E-01 1.45592E-08-2.54221E-10 4.69236E-03
 -1     12397-6.77423E-02-9.04818E-09 2.01074E-01 1.45592E-08 2.54221E-10-4.69236E-03
 -1     12398-1.19371E-02-1.52512E-06 1.45263E-01-2.65034E-08 4.53601E-10 2.74399E-03
 -1     12400-1.19371E-02-1.52512E-06 1.45263E-01-2.65034E-08-4.53601E-10-2.74399E-03
 -1     12401-1.19354E-02-1.56063E-06 1.45262E-01 1.29486E-08-2.16654E-10 2.74393E-03
 -1     12403-1.19354E-02-1.56063E-06 1.45262E-01 1.29486E-08 2.16654E-10-2.74393E-03
 -1     12404-1.19081E-02-1.61717E-06 1.45234E-01-8.55532E-08 1.49481E-09 2.74298E-03
 -1     12406-1.19081E-02-1.61717E-06 1.45234E-01-8.55532E-08-1.49481E-09-2.74298E-03
 -1     12407-1.18853E-02-1.49733E-06 1.45212E-01-1.22026E-07 2.14453E-09 2.74219E-03
 -1     12409-1.18853E-02-1.49733E-06 1.45212E-01-1.22026E-07-2.14453E-09-2.74219E-03
 -1     12410-1.34403E-02 3.19026E-06 1.46784E-01 1.99245E-07-3.47845E-09 2.79676E-03
 -1     12412-1.34403E-02 3.19026E-06 1.46784E-01 1.99245E-07 3.47845E-09-2.79676E-03
 -1     12413-5.54092E-01-9.20977E-05 6.87096E-01-1.64121E-06 2.86159E-08 2.16679E-02
 -1     12415-5.54092E-01-9.20977E-05 6.87096E-01-1.64121E-06-2.86159E-08-2.16679E-02
 -1     12416-5.54140E-01-9.14273E-05 6.87145E-01 8.19396E-07-1.43047E-08 2.16696E-02
 -1     12418-5.54140E-01-9.14273E-05 6.87145E-01 8.19396E-07 1.43047E-08-2.16696E-02
 -1     12419-5.21074E-01 1.66135E-04 6.55001E-01 1.72337E-06-3.00856E-08 2.05300E-02
 -1     12421-5.21074E-01 1.66135E-04 6.55001E-01 1.72337E-06 3.00856E-08-2.05300E-02
 -1     12422-1.90866E-02 9.89171E-07 1.52421E-01 2.93780E-06-5.12689E-08 2.99372E-03
 -1     12424-1.90866E-02 9.89171E-07 1.52421E-01 2.93780E-06 5.12689E-08-2.99372E-03
 -1     12425-2.11811E-02-6.03259E-07 1.54511E-01-2.61382E-06 4.56401E-08 3.06676E-03
 -1     12427-2.11811E-02-6.03259E-07 1.54511E-01-2.61382E-06-4.56401E-08-3.06676E-03
 -1     12428-1.78454E-02-6.43295E-07 1.51177E-01-2.22201E-07 3.85831E-09 2.95037E-03
 -1     12430-1.78454E-02-6.43295E-07 1.51177E-01-2.22201E-07-3.85831E-09-2.95037E-03
 -1     12431-5.55897E-01-8.08873E-05 6.88920E-01 4.97399E-06-8.55764E-08 2.17313E-02
 -1     12433-5.55897E-01-8.08873E-05 6.88920E-01 4.97399E-06 8.55764E-08-2.17313E-02
 -1     12434-5.54600E-01-9.05037E-05 6.87597E-01 2.22901E-05-3.89286E-07 2.16856E-02
 -1     12436-5.54600E-01-9.05037E-05 6.87597E-01 2.22901E-05 3.89286E-07-2.16856E-02
 -1     12437-1.18463E-02-1.47088E-06 1.45173E-01 5.66849E-08-9.93648E-10 2.74083E-03
 -1     12439-1.18463E-02-1.47088E-06 1.45173E-01 5.66849E-08 9.93648E-10-2.74083E-03
 -1     12440-1.18649E-02-1.58513E-06 1.45191E-01 7.65246E-08-1.34159E-09 2.74147E-03
 -1     12442-1.18649E-02-1.58513E-06 1.45191E-01 7.65246E-08 1.34159E-09-2.74147E-03
 -1     12443-1.33177E-02 3.17139E-06 1.46661E-01-1.36640E-07 2.38543E-09 2.79246E-03
 -1     12445-1.33177E-02 3.17139E-06 1.46661E-01-1.36640E-07-2.38543E-09-2.79246E-03
 -1     12446-5.87459E-01 2.19311E-04 7.21458E-01 1.65024E-05-2.88230E-07 2.28488E-02
 -1     12448-5.87459E-01 2.19311E-04 7.21458E-01 1.65024E-05 2.88230E-07-2.28488E-02
 -1     12449-1.19003E-02-1.50728E-06 1.45227E-01 3.83292E-08-6.76622E-10 2.74271E-03
 -1     12451-1.19003E-02-1.50728E-06 1.45227E-01 3.83292E-08 6.76622E-10-2.74271E-03
 -1     12452-1.19137E-02-1.62766E-06 1.45240E-01 7.44169E-08-1.30251E-09 2.74317E-03
 -1     12454-1.19137E-02-1.62766E-06 1.45240E-01 7.44169E-08 1.30251E-09-2.74317E-03
 -1     12455-1.33850E-02 3.26925E-06 1.46729E-01-1.88117E-07 3.28405E-09 2.79482E-03
 -1     12457-1.33850E-02 3.26925E-06 1.46729E-01-1.88117E-07-3.28405E-09-2.79482E-03
 -1     12458-5.53847E-01-9.03066E-05 6.86860E-01 1.52430E-06-2.66881E-08 2.16595E-02
 -1     12460-5.53847E-01-9.03066E-05 6.86860E-01 1.52430E-06 2.66881E-08-2.16595E-02
 -1     12461-5.53371E-01-9.42258E-05 6.86367E-01 4.44297E-06-7.73855E-08 2.16426E-02
 -1     12463-5.53371E-01-9.42258E-05 6.86367E-01 4.44297E-06 7.73855E-08-2.16426E-02
 -1     12464-5.21100E-01 1.64779E-04 6.55019E-01-1.64631E-06 2.87456E-08 2.05307E-02
 -1     12466-5.21100E-01 1.64779E-04 6.55019E-01-1.64631E-06-2.87456E-08-2.05307E-02
 -1     12467-1.78048E-01-1.27931E-09 3.11380E-01 1.87148E-05-3.26723E-07 8.54329E-03
 -1     12469-1.78048E-01-1.27931E-09 3.11380E-01 1.87148E-05 3.26723E-07-8.54329E-03
 -1     12470-1.87559E-01-4.26202E-08 3.20891E-01-2.01443E-05 3.51681E-07 8.87538E-03
 -1     12472-1.87559E-01-4.26202E-08 3.20891E-01-2.01443E-05-3.51681E-07-8.87538E-03
 -1     12473-1.18229E-02-1.85959E-06 1.45149E-01 9.01212E-08-1.55262E-09 2.74000E-03
 -1     12475-1.18229E-02-1.85959E-06 1.45149E-01 9.01212E-08 1.55262E-09-2.74000E-03
 -1     12476-1.18155E-02-1.52566E-06 1.45142E-01-1.16391E-07 1.96079E-09 2.73975E-03
 -1     12478-1.18155E-02-1.52566E-06 1.45142E-01-1.16391E-07-1.96079E-09-2.73975E-03
 -1     12479-1.33503E-02 2.94069E-06 1.46693E-01 5.85458E-07-1.02198E-08 2.79360E-03
 -1     12481-1.33503E-02 2.94069E-06 1.46693E-01 5.85458E-07 1.02198E-08-2.79360E-03
 -1     12482-1.17910E-02-1.51125E-06 1.45118E-01-2.21833E-08 3.91158E-10 2.73889E-03
 -1     12484-1.17910E-02-1.51125E-06 1.45118E-01-2.21833E-08-3.91158E-10-2.73889E-03
 -1     12485-1.17845E-02-1.47111E-06 1.45111E-01-1.06268E-08 1.84654E-10 2.73867E-03
 -1     12487-1.17845E-02-1.47111E-06 1.45111E-01-1.06268E-08-1.84654E-10-2.73867E-03
 -1     12488-1.32818E-02 3.14879E-06 1.46625E-01 8.26188E-08-1.44233E-09 2.79121E-03
 -1     12490-1.32818E-02 3.14879E-06 1.46625E-01 8.26187E-08 1.44233E-09-2.79121E-03
 -1     12491-5.53920E-01-8.79679E-05 6.86934E-01-2.65396E-06 4.64226E-08 2.16622E-02
 -1     12493-5.53920E-01-8.79679E-05 6.86934E-01-2.65396E-06-4.64226E-08-2.16622E-02
 -1     12494-5.53522E-01-9.33951E-05 6.86518E-01 2.49761E-06-4.37320E-08 2.16479E-02
 -1     12496-5.53522E-01-9.33951E-05 6.86518E-01 2.49761E-06 4.37320E-08-2.16479E-02
 -1     12497-5.21121E-01 1.64715E-04 6.55073E-01-6.41317E-06 1.11965E-07 2.05321E-02
 -1     12499-5.21121E-01 1.64715E-04 6.55073E-01-6.41317E-06-1.11965E-07-2.05321E-02
 -1     12500-5.36450E-01-4.66889E-05 6.69504E-01 9.30271E-06-1.58909E-07 2.10542E-02
 -1     12502-5.36450E-01-4.66889E-05 6.69504E-01 9.30271E-06 1.58909E-07-2.10542E-02
 -1     12503-1.15411E-02-1.41258E-06 1.44868E-01 2.03101E-07-3.49783E-09 2.73017E-03
 -1     12505-1.15411E-02-1.41258E-06 1.44868E-01 2.03101E-07 3.49783E-09-2.73017E-03
 -1     12506-1.15592E-02-1.77697E-06 1.44886E-01 3.85963E-08-7.17300E-10 2.73080E-03
 -1     12508-1.15592E-02-1.77697E-06 1.44886E-01 3.85963E-08 7.17300E-10-2.73080E-03
 -1     12509-1.16997E-02-1.28315E-06 1.45027E-01 1.67272E-07-2.94969E-09 2.73572E-03
 -1     12511-1.16997E-02-1.28315E-06 1.45027E-01 1.67272E-07 2.94969E-09-2.73572E-03
 -1     12512-1.17546E-02-1.56676E-06 1.45081E-01 1.93824E-07-3.38695E-09 2.73762E-03
 -1     12514-1.17546E-02-1.56676E-06 1.45081E-01 1.93824E-07 3.38695E-09-2.73762E-03
 -1     12515-1.30759E-02 2.79813E-06 1.46418E-01-8.93856E-07 1.56052E-08 2.78400E-03
 -1     12517-1.30759E-02 2.79813E-06 1.46418E-01-8.93856E-07-1.56052E-08-2.78400E-03
 -1     12518-5.43836E-01-9.50518E-05 6.76860E-01 2.33637E-05-4.07327E-07 2.13106E-02
 -1     12520-5.43836E-01-9.50518E-05 6.76860E-01 2.33637E-05 4.07327E-07-2.13106E-02
 -1     12521-5.41619E-01-1.13372E-04 6.74538E-01 1.54114E-05-2.67823E-07 2.12313E-02
 -1     12523-5.41619E-01-1.13372E-04 6.74538E-01 1.54114E-05 2.67823E-07-2.12313E-02
 -1     12524-5.12000E-01 1.66680E-04 6.45918E-01-3.06993E-05 5.36028E-07 2.02131E-02
 -1     12526-5.12000E-01 1.66680E-04 6.45918E-01-3.06993E-05-5.36028E-07-2.02131E-02
 -1     12527-4.74691E-01-4.54554E-06 6.08064E-01 9.29551E-05-1.62228E-06 1.89011E-02
 -1     12529-4.74691E-01-4.54554E-06 6.08064E-01 9.29551E-05 1.62228E-06-1.89011E-02
 -1     12530-4.44875E-01-9.85579E-07 5.78230E-01-8.55771E-05 1.49388E-06 1.78598E-02
 -1     12532-4.44875E-01-9.85579E-07 5.78230E-01-8.55771E-05-1.49388E-06-1.78598E-02
 -1     12533-4.17216E-01-7.37320E-06 5.50516E-01 7.67941E-05-1.34077E-06 1.68931E-02
 -1     12535-4.17216E-01-7.37320E-06 5.50516E-01 7.67941E-05 1.34077E-06-1.68931E-02
 -1     12536-3.92124E-01 8.71243E-06 5.25490E-01-7.00793E-05 1.22337E-06 1.60181E-02
 -1     12538-3.92124E-01 8.71243E-06 5.25490E-01-7.00793E-05-1.22337E-06-1.60181E-02
 -1     12539-4.30983E-01-9.72675E-06 5.64307E-01 3.06898E-06-5.35458E-08 1.73751E-02
 -1     12541-4.30983E-01-9.72675E-06 5.64307E-01 3.06898E-06 5.35458E-08-1.73751E-02
 -1     12542-3.68812E-01-8.08488E-06 5.02112E-01 6.10051E-05-1.06506E-06 1.52031E-02
 -1     12544-3.68812E-01-8.08488E-06 5.02112E-01 6.10051E-05 1.06506E-06-1.52031E-02
 -1     12545-3.47311E-01 9.16805E-06 4.80673E-01-5.78253E-05 1.00949E-06 1.44534E-02
 -1     12547-3.47311E-01 9.16805E-06 4.80673E-01-5.78253E-05-1.00949E-06-1.44534E-02
 -1     12548-3.80018E-01-4.71556E-06 5.13341E-01 5.54166E-06-9.66959E-08 1.55954E-02
 -1     12550-3.80018E-01-4.71556E-06 5.13341E-01 5.54166E-06 9.66959E-08-1.55954E-02
 -1     12551-3.27406E-01-6.87030E-06 4.60712E-01 4.96243E-05-8.66366E-07 1.37575E-02
 -1     12553-3.27406E-01-6.87030E-06 4.60712E-01 4.96243E-05 8.66366E-07-1.37575E-02
 -1     12554-3.08903E-01 7.50170E-06 4.42259E-01-4.76144E-05 8.31258E-07 1.31123E-02
 -1     12556-3.08903E-01 7.50170E-06 4.42259E-01-4.76144E-05-8.31258E-07-1.31123E-02
 -1     12557-3.36796E-01-3.05526E-06 4.70122E-01 5.10241E-06-8.90281E-08 1.40862E-02
 -1     12559-3.36796E-01-3.05526E-06 4.70122E-01 5.10241E-06 8.90281E-08-1.40862E-02
 -1     12560-2.91786E-01-5.40912E-06 4.25098E-01 4.05319E-05-7.07624E-07 1.25140E-02
 -1     12562-2.91786E-01-5.40912E-06 4.25098E-01 4.05319E-05 7.07624E-07-1.25140E-02
 -1     12563-2.75770E-01 5.85221E-06 4.09121E-01-3.91855E-05 6.84115E-07 1.19554E-02
 -1     12565-2.75770E-01 5.85221E-06 4.09121E-01-3.91855E-05-6.84115E-07-1.19554E-02
 -1     12566-2.99773E-01-2.04648E-06 4.33101E-01 4.22367E-06-7.36951E-08 1.27935E-02
 -1     12568-2.99773E-01-2.04648E-06 4.33101E-01 4.22367E-06 7.36951E-08-1.27935E-02
 -1     12569-2.60928E-01-4.23595E-06 3.94245E-01 3.33341E-05-5.81960E-07 1.14367E-02
 -1     12571-2.60928E-01-4.23595E-06 3.94245E-01 3.33341E-05 5.81960E-07-1.14367E-02
 -1     12572-2.46967E-01 4.59807E-06 3.80314E-01-3.24057E-05 5.65754E-07 1.09497E-02
 -1     12574-2.46967E-01 4.59807E-06 3.80314E-01-3.24057E-05-5.65754E-07-1.09497E-02
 -1     12575-2.67817E-01-1.38797E-06 4.01146E-01 3.41779E-06-5.96380E-08 1.16778E-02
 -1     12577-2.67817E-01-1.38797E-06 4.01146E-01 3.41779E-06 5.96380E-08-1.16778E-02
 -1     12578-2.33993E-01-3.39110E-06 3.67313E-01 2.77081E-05-4.83736E-07 1.04963E-02
 -1     12580-2.33993E-01-3.39110E-06 3.67313E-01 2.77081E-05 4.83736E-07-1.04963E-02
 -1     12581-2.21735E-01 3.71606E-06 3.55080E-01-2.70507E-05 4.72263E-07 1.00688E-02
 -1     12583-2.21735E-01 3.71606E-06 3.55080E-01-2.70507E-05-4.72263E-07-1.00688E-02
 -1     12584-2.40005E-01-9.78524E-07 3.73335E-01 2.75912E-06-4.81497E-08 1.07067E-02
 -1     12586-2.40005E-01-9.78524E-07 3.73335E-01 2.75912E-06 4.81497E-08-1.07067E-02
 -1     12587-2.10306E-01-2.80195E-06 3.43627E-01 2.33240E-05-4.07195E-07 9.66935E-03
 -1     12589-2.10306E-01-2.80195E-06 3.43627E-01 2.33240E-05 4.07195E-07-9.66935E-03
 -1     12590-1.99471E-01 3.07746E-06 3.32813E-01-2.28432E-05 3.98803E-07 9.29140E-03
 -1     12592-1.99471E-01 3.07746E-06 3.32813E-01-2.28432E-05-3.98803E-07-9.29140E-03
 -1     12593-2.15604E-01-7.37055E-07 3.48934E-01 2.25224E-06-3.93074E-08 9.85472E-03
 -1     12595-2.15604E-01-7.37055E-07 3.48934E-01 2.25224E-06 3.93074E-08-9.85472E-03
 -1     12596-1.89332E-01-2.39536E-06 3.22656E-01 1.98692E-05-3.46879E-07 8.93714E-03
 -1     12598-1.89332E-01-2.39536E-06 3.22656E-01 1.98692E-05 3.46879E-07-8.93714E-03
 -1     12599-1.79698E-01 2.59217E-06 3.13039E-01-1.95091E-05 3.40594E-07 8.60107E-03
 -1     12601-1.79698E-01 2.59217E-06 3.13039E-01-1.95091E-05-3.40594E-07-8.60107E-03
 -1     12602-1.94038E-01-5.95364E-07 3.27368E-01 1.87454E-06-3.27163E-08 9.10174E-03
 -1     12604-1.94038E-01-5.95364E-07 3.27368E-01 1.87454E-06 3.27163E-08-9.10174E-03
 -1     12605-1.70655E-01-2.07933E-06 3.03979E-01 1.70704E-05-2.98017E-07 8.28506E-03
 -1     12607-1.70655E-01-2.07933E-06 3.03979E-01 1.70704E-05 2.98017E-07-8.28506E-03
 -1     12608-1.62047E-01 2.23131E-06 2.95386E-01-1.68062E-05 2.93405E-07 7.98478E-03
 -1     12610-1.62047E-01 2.23131E-06 2.95386E-01-1.68062E-05-2.93405E-07-7.98478E-03
 -1     12611-1.74856E-01-5.34646E-07 3.08187E-01 1.58646E-06-2.76877E-08 8.43203E-03
 -1     12613-1.74856E-01-5.34646E-07 3.08187E-01 1.58646E-06 2.76877E-08-8.43203E-03
 -1     12614-1.53944E-01-1.80834E-06 2.87270E-01 1.47519E-05-2.57541E-07 7.70168E-03
 -1     12616-1.53944E-01-1.80834E-06 2.87270E-01 1.47519E-05 2.57541E-07-7.70168E-03
 -1     12617-1.46222E-01 1.94555E-06 2.79561E-01-1.45635E-05 2.54251E-07 7.43229E-03
 -1     12619-1.46222E-01 1.94555E-06 2.79561E-01-1.45635E-05-2.54251E-07-7.43229E-03
 -1     12620-1.57710E-01-4.77964E-07 2.91041E-01 1.36148E-06-2.37606E-08 7.83339E-03
 -1     12622-1.57710E-01-4.77964E-07 2.91041E-01 1.36148E-06 2.37606E-08-7.83339E-03
 -1     12623-1.38937E-01-1.57822E-06 2.72263E-01 1.28161E-05-2.23745E-07 7.17774E-03
 -1     12625-1.38937E-01-1.57822E-06 2.72263E-01 1.28161E-05 2.23745E-07-7.17774E-03
 -1     12626-1.31982E-01 1.70770E-06 2.65320E-01-1.26830E-05 2.21422E-07 6.93514E-03
 -1     12628-1.31982E-01 1.70770E-06 2.65320E-01-1.26830E-05-2.21422E-07-6.93514E-03
 -1     12629-1.42322E-01-4.17455E-07 2.75653E-01 1.18199E-06-2.06280E-08 7.29613E-03
 -1     12631-1.42322E-01-4.17455E-07 2.75653E-01 1.18199E-06 2.06280E-08-7.29613E-03
 -1     12632-1.25407E-01-1.38646E-06 2.58734E-01 1.11959E-05-1.95460E-07 6.70541E-03
 -1     12634-1.25407E-01-1.38646E-06 2.58734E-01 1.11959E-05 1.95460E-07-6.70541E-03
 -1     12635-1.19121E-01 1.50614E-06 2.52458E-01-1.11030E-05 1.93836E-07 6.48612E-03
 -1     12637-1.19121E-01 1.50614E-06 2.52458E-01-1.11030E-05-1.93836E-07-6.48612E-03
 -1     12638-1.28460E-01-3.63660E-07 2.61791E-01 1.03652E-06-1.80893E-08 6.81218E-03
 -1     12640-1.28460E-01-3.63660E-07 2.61791E-01 1.03652E-06 1.80893E-08-6.81218E-03
 -1     12641-1.13166E-01-1.22850E-06 2.46493E-01 9.82912E-06-1.71598E-07 6.27805E-03
 -1     12643-1.13166E-01-1.22850E-06 2.46493E-01 9.82912E-06 1.71598E-07-6.27805E-03
 -1     12644-1.07465E-01 1.33228E-06 2.40801E-01-9.76970E-06 1.70560E-07 6.07915E-03
 -1     12646-1.07465E-01 1.33228E-06 2.40801E-01-9.76970E-06-1.70560E-07-6.07915E-03
 -1     12647-1.15929E-01-3.20118E-07 2.49260E-01 9.15382E-07-1.59750E-08 6.37467E-03
 -1     12649-1.15929E-01-3.20118E-07 2.49260E-01 9.15382E-07 1.59750E-08-6.37467E-03
 -1     12650-1.02053E-01-1.09530E-06 2.35381E-01 8.66381E-06-1.51254E-07 5.89008E-03
 -1     12652-1.02053E-01-1.09530E-06 2.35381E-01 8.66381E-06 1.51254E-07-5.89008E-03
 -1     12653-9.68656E-02 1.18207E-06 2.30202E-01-8.63204E-06 1.50699E-07 5.70911E-03
 -1     12655-9.68656E-02 1.18207E-06 2.30202E-01-8.63204E-06-1.50699E-07-5.70911E-03
 -1     12656-1.04561E-01-2.84946E-07 2.37892E-01 8.11613E-07-1.41638E-08 5.97778E-03
 -1     12658-1.04561E-01-2.84946E-07 2.37892E-01 8.11613E-07 1.41638E-08-5.97778E-03
 -1     12659-9.19347E-02-9.77001E-07 2.25263E-01 7.66073E-06-1.33742E-07 5.53684E-03
 -1     12661-9.19347E-02-9.77001E-07 2.25263E-01 7.66073E-06 1.33742E-07-5.53684E-03
 -1     12662-8.72020E-02 1.05280E-06 2.20538E-01-7.64759E-06 1.33513E-07 5.37173E-03
 -1     12664-8.72020E-02 1.05280E-06 2.20538E-01-7.64759E-06-1.33513E-07-5.37173E-03
 -1     12665-9.42171E-02-2.54360E-07 2.27548E-01 7.20229E-07-1.25690E-08 5.61665E-03
 -1     12667-9.42171E-02-2.54360E-07 2.27548E-01 7.20229E-07 1.25690E-08-5.61665E-03
 -1     12668-8.26987E-02-8.69041E-07 2.16027E-01 6.79237E-06-1.18582E-07 5.21440E-03
 -1     12670-8.26987E-02-8.69041E-07 2.16027E-01 6.79237E-06 1.18582E-07-5.21440E-03
 -1     12671-7.83710E-02 9.40684E-07 2.11706E-01-6.78983E-06 1.18538E-07 5.06342E-03
 -1     12673-7.83710E-02 9.40684E-07 2.11706E-01-6.78983E-06-1.18538E-07-5.06342E-03
 -1     12674-8.47818E-02-2.24194E-07 2.18113E-01 6.38297E-07-1.11392E-08 5.28724E-03
 -1     12676-8.47818E-02-2.24194E-07 2.18113E-01 6.38297E-07 1.11392E-08-5.28724E-03
 -1     12677-7.42489E-02-7.71218E-07 2.07578E-01 6.04046E-06-1.05455E-07 4.91941E-03
 -1     12679-7.42489E-02-7.71218E-07 2.07578E-01 6.04046E-06 1.05455E-07-4.91941E-03
 -1     12680-7.02829E-02 8.38540E-07 2.03618E-01-6.04380E-06 1.05514E-07 4.78105E-03
 -1     12682-7.02829E-02 8.38540E-07 2.03618E-01-6.04380E-06-1.05514E-07-4.78105E-03
 -1     12683-7.61554E-02-1.95909E-07 2.09487E-01 5.66357E-07-9.88365E-09 4.98607E-03
 -1     12685-7.61554E-02-1.95909E-07 2.09487E-01 5.66357E-07 9.88365E-09-4.98607E-03
 -1     12686-6.65009E-02-6.85344E-07 1.99830E-01 5.38927E-06-9.40866E-08 4.64892E-03
 -1     12688-6.65009E-02-6.85344E-07 1.99830E-01 5.38927E-06 9.40866E-08-4.64892E-03
 -1     12689-6.28582E-02 7.41850E-07 1.96193E-01-5.39102E-06 9.41178E-08 4.52183E-03
 -1     12691-6.28582E-02 7.41850E-07 1.96193E-01-5.39102E-06-9.41178E-08-4.52183E-03
 -1     12692-6.82503E-02-1.73547E-07 2.01582E-01 5.05833E-07-8.82703E-09 4.71009E-03
 -1     12694-6.82503E-02-1.73547E-07 2.01582E-01 5.05833E-07 8.82703E-09-4.71009E-03
 -1     12695-5.93812E-02-6.08577E-07 1.92711E-01 4.81526E-06-8.40657E-08 4.40037E-03
 -1     12697-5.93812E-02-6.08577E-07 1.92711E-01 4.81526E-06 8.40657E-08-4.40037E-03
 -1     12698-5.60299E-02 6.50673E-07 1.89364E-01-4.80895E-06 8.39569E-08 4.28344E-03
 -1     12700-5.60299E-02 6.50673E-07 1.89364E-01-4.80895E-06-8.39569E-08-4.28344E-03
 -1     12701-6.09903E-02-1.57487E-07 1.94322E-01 4.54465E-07-7.93014E-09 4.45662E-03
 -1     12703-6.09903E-02-1.57487E-07 1.94322E-01 4.54465E-07 7.93014E-09-4.45662E-03
 -1     12704-5.28305E-02-5.34067E-07 1.86161E-01 4.29387E-06-7.49634E-08 4.17168E-03
 -1     12706-5.28305E-02-5.34067E-07 1.86161E-01 4.29387E-06 7.49634E-08-4.17168E-03
 -1     12707-4.97442E-02 5.63492E-07 1.83078E-01-4.27715E-06 7.46742E-08 4.06399E-03
 -1     12709-4.97442E-02 5.63492E-07 1.83078E-01-4.27715E-06-7.46742E-08-4.06399E-03
 -1     12710-5.43132E-02-1.41896E-07 1.87645E-01 4.05131E-07-7.06918E-09 4.22351E-03
 -1     12712-5.43132E-02-1.41896E-07 1.87645E-01 4.05131E-07 7.06918E-09-4.22351E-03
 -1     12713-4.68009E-02-4.53173E-07 1.80131E-01 3.81986E-06-6.66875E-08 3.96118E-03
 -1     12715-4.68009E-02-4.53173E-07 1.80131E-01 3.81986E-06 6.66875E-08-3.96118E-03
 -1     12716-4.39563E-02 4.68538E-07 1.77290E-01-3.78583E-06 6.60984E-08 3.86192E-03
 -1     12718-4.39563E-02 4.68538E-07 1.77290E-01-3.78583E-06-6.60984E-08-3.86192E-03
 -1     12719-4.81699E-02-1.23454E-07 1.81502E-01 3.51224E-07-6.12893E-09 4.00904E-03
 -1     12721-4.81699E-02-1.23454E-07 1.81502E-01 3.51224E-07 6.12893E-09-4.00904E-03
 -1     12722-4.12491E-02-3.64399E-07 1.74580E-01 3.39910E-06-5.93402E-08 3.76736E-03
 -1     12724-4.12491E-02-3.64399E-07 1.74580E-01 3.39910E-06 5.93402E-08-3.76736E-03
 -1     12725-3.86251E-02 3.47814E-07 1.71958E-01-3.34119E-06 5.83380E-08 3.67580E-03
 -1     12727-3.86251E-02 3.47814E-07 1.71958E-01-3.34119E-06-5.83380E-08-3.67580E-03
 -1     12728-4.25190E-02-1.12103E-07 1.75851E-01 2.94064E-07-5.13116E-09 3.81175E-03
 -1     12730-4.25190E-02-1.12103E-07 1.75851E-01 2.94064E-07 5.13116E-09-3.81175E-03
 -1     12731-3.61353E-02-2.52824E-07 1.69466E-01 3.02179E-06-5.27509E-08 3.58884E-03
 -1     12733-3.61353E-02-2.52824E-07 1.69466E-01 3.02179E-06 5.27509E-08-3.58884E-03
 -1     12734-3.37121E-02 2.06495E-07 1.67045E-01-2.94595E-06 5.14409E-08 3.50427E-03
 -1     12736-3.37121E-02 2.06495E-07 1.67045E-01-2.94595E-06-5.14409E-08-3.50427E-03
 -1     12737-3.73220E-02-9.29015E-08 1.70654E-01 2.26699E-07-3.95452E-09 3.63031E-03
 -1     12739-3.73220E-02-9.29015E-08 1.70654E-01 2.26699E-07 3.95452E-09-3.63031E-03
 -1     12740-3.14238E-02-6.23478E-08 1.64755E-01 2.71464E-06-4.73841E-08 3.42437E-03
 -1     12742-3.14238E-02-6.23478E-08 1.64755E-01 2.71464E-06 4.73841E-08-3.42437E-03
 -1     12743-2.91802E-02 1.19239E-08 1.62512E-01-2.57988E-06 4.50527E-08 3.34604E-03
 -1     12745-2.91802E-02 1.19239E-08 1.62512E-01-2.57988E-06-4.50527E-08-3.34604E-03
 -1     12746-3.25443E-02-3.95556E-08 1.65876E-01 1.35351E-07-2.35913E-09 3.46352E-03
 -1     12748-3.25443E-02-3.95556E-08 1.65876E-01 1.35351E-07 2.35913E-09-3.46352E-03
 -1     12749-2.70613E-02 1.00660E-07 1.60394E-01 2.44542E-06-4.26850E-08 3.27208E-03
 -1     12751-2.70613E-02 1.00660E-07 1.60394E-01 2.44542E-06 4.26850E-08-3.27208E-03
 -1     12752-2.49830E-02-2.47287E-07 1.58314E-01-2.26094E-06 3.94890E-08 3.19950E-03
 -1     12754-2.49830E-02-2.47287E-07 1.58314E-01-2.26094E-06-3.94890E-08-3.19950E-03
 -1     12755-2.81381E-02-1.37574E-07 1.61470E-01 5.04814E-08-8.68781E-10 3.30969E-03
 -1     12757-2.81381E-02-1.37574E-07 1.61470E-01 5.04814E-08 8.68781E-10-3.30969E-03
 -1     12758-2.30285E-02 3.23552E-07 1.56362E-01 2.10780E-06-3.67921E-08 3.13130E-03
 -1     12760-2.30285E-02 3.23552E-07 1.56362E-01 2.10780E-06 3.67921E-08-3.13130E-03
 -1     12761-2.11056E-02-3.67299E-07 1.54436E-01-1.92726E-06 3.36653E-08 3.06413E-03
 -1     12763-2.11056E-02-3.67299E-07 1.54436E-01-1.92726E-06-3.36653E-08-3.06413E-03
 -1     12764-2.40671E-02-8.02133E-08 1.57399E-01-3.17616E-08 5.64067E-10 3.16756E-03
 -1     12766-2.40671E-02-8.02133E-08 1.57399E-01-3.17616E-08-5.64067E-10-3.16756E-03
 -1     12767-1.93086E-02 5.27611E-07 1.52643E-01 1.90140E-06-3.31850E-08 3.00145E-03
 -1     12769-1.93086E-02 5.27611E-07 1.52643E-01 1.90140E-06 3.31850E-08-3.00145E-03
 -1     12770-1.75241E-02-5.10871E-07 1.50854E-01-1.62358E-06 2.83613E-08 2.93909E-03
 -1     12772-1.75241E-02-5.10871E-07 1.50854E-01-1.62358E-06-2.83613E-08-2.93909E-03
 -1     12773-2.03191E-02 9.26615E-08 1.53651E-01-1.04181E-07 1.82051E-09 3.03671E-03
 -1     12775-2.03191E-02 9.26615E-08 1.53651E-01-1.04181E-07-1.82051E-09-3.03671E-03
 -1     12776-2.33555E-02 6.32303E-07 1.56690E-01 2.91634E-06-5.08983E-08 3.14274E-03
 -1     12778-2.33555E-02 6.32303E-07 1.56690E-01 2.91634E-06 5.08983E-08-3.14274E-03
 -1     12779-2.55563E-02-4.37844E-07 1.58887E-01-2.76100E-06 4.82037E-08 3.21951E-03
 -1     12781-2.55563E-02-4.37844E-07 1.58887E-01-2.76100E-06-4.82037E-08-3.21951E-03
 -1     12782-2.21422E-02-1.68381E-07 1.55474E-01-2.00566E-07 3.50553E-09 3.10038E-03
 -1     12784-2.21422E-02-1.68381E-07 1.55474E-01-2.00566E-07-3.50553E-09-3.10038E-03
 -1     12785-5.53502E-01-9.23923E-05 6.86507E-01-1.65772E-06 2.89316E-08 2.16474E-02
 -1     12787-5.53502E-01-9.23923E-05 6.86507E-01-1.65772E-06-2.89316E-08-2.16474E-02
 -1     12788-5.53473E-01-9.21708E-05 6.86475E-01 4.84790E-07-8.51475E-09 2.16463E-02
 -1     12790-5.53473E-01-9.21708E-05 6.86475E-01 4.84790E-07 8.51475E-09-2.16463E-02
 -1     12791-5.20474E-01 1.69818E-04 6.54407E-01 1.00172E-07-1.74765E-09 2.05091E-02
 -1     12793-5.20474E-01 1.69818E-04 6.54407E-01 1.00172E-07 1.74765E-09-2.05091E-02
 -1     12794-5.80073E-01 2.19249E-04 7.14149E-01 8.11149E-05-1.41601E-06 2.25928E-02
 -1     12796-5.80073E-01 2.19249E-04 7.14149E-01 8.11149E-05 1.41601E-06-2.25928E-02
 -1     12797-1.18199E-02-1.48458E-06 1.45147E-01 3.11295E-08-5.58401E-10 2.73991E-03
 -1     12799-1.18199E-02-1.48458E-06 1.45147E-01 3.11295E-08 5.58402E-10-2.73991E-03
 -1     12800-1.18432E-02-1.52878E-06 1.45170E-01 6.89899E-08-1.19446E-09 2.74072E-03
 -1     12802-1.18432E-02-1.52878E-06 1.45170E-01 6.89899E-08 1.19446E-09-2.74072E-03
 -1     12803-1.32832E-02 3.06911E-06 1.46627E-01-3.18637E-07 5.56411E-09 2.79127E-03
 -1     12805-1.32832E-02 3.06911E-06 1.46627E-01-3.18637E-07-5.56411E-09-2.79127E-03
 -1     12806-1.15788E-02-8.55394E-07 1.44907E-01 3.03946E-07-5.42918E-09 2.73152E-03
 -1     12808-1.15788E-02-8.55394E-07 1.44907E-01 3.03946E-07 5.42918E-09-2.73152E-03
 -1     12809-1.16674E-02-9.67462E-07 1.44995E-01 1.41328E-07-2.39203E-09 2.73460E-03
 -1     12811-1.16674E-02-9.67462E-07 1.44995E-01 1.41328E-07 2.39203E-09-2.73460E-03
 -1     12812-1.30653E-02 2.61919E-06 1.46406E-01-4.98933E-08 8.77423E-10 2.78360E-03
 -1     12814-1.30653E-02 2.61919E-06 1.46406E-01-4.98933E-08-8.77423E-10-2.78360E-03
 -1     12815-1.27506E-02 1.02533E-06 1.46088E-01-1.10431E-06 1.92315E-08 2.77255E-03
 -1     12817-1.27506E-02 1.02533E-06 1.46088E-01-1.10431E-06-1.92315E-08-2.77255E-03
 -1     12818-5.35892E-01-5.20882E-05 6.68911E-01 3.13237E-06-5.75333E-08 2.10340E-02
 -1     12820-5.35892E-01-5.20882E-05 6.68911E-01 3.13237E-06 5.75333E-08-2.10340E-02
 -1     12821-5.21259E-01 1.65481E-04 6.55184E-01 9.23792E-07-1.61260E-08 2.05364E-02
 -1     12823-5.21259E-01 1.65481E-04 6.55184E-01 9.23792E-07 1.61260E-08-2.05364E-02
 -1     12824-1.32595E-02 3.10210E-06 1.46603E-01 2.27030E-08-3.96321E-10 2.79043E-03
 -1     12826-1.32595E-02 3.10210E-06 1.46603E-01 2.27030E-08 3.96321E-10-2.79043E-03
 -1     12827-4.00030E-01-1.03700E-05 5.33351E-01-6.88837E-06 1.20338E-07 1.62943E-02
 -1     12829-4.00030E-01-1.03700E-05 5.33351E-01-6.88837E-06-1.20338E-07-1.62943E-02
 -1     12830-5.04203E-01 1.21898E-04 6.38052E-01 7.04584E-05-1.23046E-06 1.99399E-02
 -1     12832-5.04203E-01 1.21898E-04 6.38052E-01 7.04584E-05 1.23046E-06-1.99399E-02
 -1     12833-5.43618E-01-1.02499E-04 6.76564E-01-4.32433E-05 7.53986E-07 2.13015E-02
 -1     12835-5.43618E-01-1.02499E-04 6.76564E-01-4.32433E-05-7.53986E-07-2.13015E-02
 -1     12836-5.53801E-01-9.18538E-05 6.86805E-01 9.30303E-07-1.62449E-08 2.16578E-02
 -1     12838-5.53801E-01-9.18538E-05 6.86805E-01 9.30303E-07 1.62449E-08-2.16578E-02
 -1     12839-5.20876E-01 1.66418E-04 6.54804E-01 8.32949E-07-1.45413E-08 2.05231E-02
 -1     12841-5.20876E-01 1.66418E-04 6.54804E-01 8.32949E-07 1.45413E-08-2.05231E-02
 -1     12842-5.53749E-01-9.19166E-05 6.86753E-01-1.39961E-06 2.44449E-08 2.16560E-02
 -1     12844-5.53749E-01-9.19166E-05 6.86753E-01-1.39961E-06-2.44449E-08-2.16560E-02
 -1     12845-5.48443E-01-8.96319E-05 6.81530E-01-4.08033E-05 7.10336E-07 2.14727E-02
 -1     12847-5.48443E-01-8.96319E-05 6.81530E-01-4.08033E-05-7.10336E-07-2.14727E-02
 -1     12848-1.30765E-01 2.20834E-08 2.64097E-01 1.21353E-05-2.11860E-07 6.89255E-03
 -1     12850-1.30765E-01 2.20834E-08 2.64097E-01 1.21353E-05 2.11860E-07-6.89255E-03
 -1     12851-1.37636E-01 2.18098E-08 2.70968E-01-1.29732E-05 2.26488E-07 7.13241E-03
 -1     12853-1.37636E-01 2.18098E-08 2.70968E-01-1.29732E-05-2.26488E-07-7.13241E-03
 -1     12854-2.25695E-01 8.48846E-08 3.59027E-01-1.14800E-07 2.00867E-09 1.02071E-02
 -1     12856-2.25695E-01 8.48846E-08 3.59027E-01-1.14800E-07-2.00867E-09-1.02071E-02
 -1     12857-1.34442E-02 3.29403E-06 1.46788E-01-1.42195E-07 2.48248E-09 2.79689E-03
 -1     12859-1.34442E-02 3.29403E-06 1.46788E-01-1.42195E-07-2.48248E-09-2.79689E-03
 -1     12860-2.78287E-02 4.11874E-07 1.61162E-01 3.03416E-06-5.29615E-08 3.29889E-03
 -1     12862-2.78287E-02 4.11874E-07 1.61162E-01 3.03416E-06 5.29615E-08-3.29889E-03
 -1     12863-3.01545E-02-2.82595E-07 1.63486E-01-2.98878E-06 5.21871E-08 3.38005E-03
 -1     12865-3.01545E-02-2.82595E-07 1.63486E-01-2.98878E-06-5.21871E-08-3.38005E-03
 -1     12866-5.53704E-01-9.17807E-05 6.86708E-01-1.30884E-06 2.28404E-08 2.16544E-02
 -1     12868-5.53704E-01-9.17807E-05 6.86708E-01-1.30884E-06-2.28404E-08-2.16544E-02
 -1     12869-5.53741E-01-9.19291E-05 6.86745E-01 9.04180E-07-1.57727E-08 2.16557E-02
 -1     12871-5.53741E-01-9.19291E-05 6.86745E-01 9.04180E-07 1.57727E-08-2.16557E-02
 -1     12872-5.20748E-01 1.66601E-04 6.54673E-01 3.75662E-07-6.55926E-09 2.05185E-02
 -1     12874-5.20748E-01 1.66601E-04 6.54673E-01 3.75662E-07 6.55926E-09-2.05185E-02
 -1     12875-3.03794E-01 5.57982E-06 4.37139E-01 4.39943E-05-7.68192E-07 1.29337E-02
 -1     12877-3.03794E-01 5.57982E-06 4.37139E-01 4.39943E-05 7.68192E-07-1.29337E-02
 -1     12878-3.21768E-01-7.06530E-06 4.55076E-01-4.54970E-05 7.94211E-07 1.35607E-02
 -1     12880-3.21768E-01-7.06530E-06 4.55076E-01-4.54970E-05-7.94211E-07-1.35607E-02
 -1     12881-3.12948E-02 4.65996E-08 1.64627E-01-1.59666E-07 2.79441E-09 3.41991E-03
 -1     12883-3.12948E-02 4.65996E-08 1.64627E-01-1.59666E-07-2.79441E-09-3.41991E-03
 -1     12884-5.52439E-01-8.83708E-05 6.85460E-01 5.52616E-06-9.65187E-08 2.16106E-02
 -1     12886-5.52439E-01-8.83708E-05 6.85460E-01 5.52616E-06 9.65187E-08-2.16106E-02
 -1     12887-5.51303E-01-9.88144E-05 6.84284E-01 9.20831E-06-1.60432E-07 2.15701E-02
 -1     12889-5.51303E-01-9.88144E-05 6.84284E-01 9.20831E-06 1.60432E-07-2.15701E-02
 -1     12890-1.34797E-02 2.86144E-06 1.46822E-01-3.12145E-07 5.43623E-09 2.79809E-03
 -1     12892-1.34797E-02 2.86144E-06 1.46822E-01-3.12145E-07-5.43623E-09-2.79809E-03
 -1     12893-5.87308E-02 3.60433E-08 1.92063E-01-4.98206E-06 8.69765E-08 4.37770E-03
 -1     12895-5.87308E-02 3.60433E-08 1.92063E-01-4.98206E-06-8.69765E-08-4.37770E-03
 -1     12896-6.04901E-02-9.64388E-09 1.93822E-01 1.37994E-08-2.41432E-10 4.43917E-03
 -1     12898-6.04901E-02-9.64388E-09 1.93822E-01 1.37994E-08 2.41432E-10-4.43917E-03
 -1     12899-5.53878E-02-3.62895E-08 1.88720E-01 4.74109E-06-8.27691E-08 4.26099E-03
 -1     12901-5.53878E-02-3.62895E-08 1.88720E-01 4.74109E-06 8.27691E-08-4.26099E-03
 -1     12902-2.65914E-02 1.31332E-08 1.59923E-01-1.92787E-07 3.37589E-09 3.25570E-03
 -1     12904-2.65914E-02 1.31332E-08 1.59923E-01-1.92787E-07-3.37589E-09-3.25570E-03
 -1     12905-1.44872E-01 2.68648E-08 2.78204E-01 1.39671E-05-2.43839E-07 7.38503E-03
 -1     12907-1.44872E-01 2.68648E-08 2.78204E-01 1.39671E-05 2.43839E-07-7.38503E-03
 -1     12908-1.52502E-01 3.65131E-09 2.85834E-01-1.49514E-05 2.61024E-07 7.65142E-03
 -1     12910-1.52502E-01 3.65131E-09 2.85834E-01-1.49514E-05-2.61024E-07-7.65142E-03
 -1     12911-1.41298E-01 2.38270E-09 2.74630E-01 3.81757E-09-6.59784E-11 7.26041E-03
 -1     12913-1.41298E-01 2.38270E-09 2.74630E-01 3.81757E-09 6.59785E-11-7.26041E-03
 -1     12914-4.88126E-01 1.92469E-05 6.21389E-01 9.27083E-06-1.62512E-07 1.93689E-02
 -1     12916-4.88126E-01 1.92469E-05 6.21389E-01 9.27083E-06 1.62512E-07-1.93689E-02
 -1     12917-5.17251E-01 1.63737E-04 6.51166E-01-1.88409E-05 3.28949E-07 2.03963E-02
 -1     12919-5.17251E-01 1.63737E-04 6.51166E-01-1.88409E-05-3.28949E-07-2.03963E-02
 -1     12920-5.58335E-01-8.60075E-05 6.91335E-01-1.74076E-05 3.00828E-07 2.18154E-02
 -1     12922-5.58335E-01-8.60075E-05 6.91335E-01-1.74076E-05-3.00828E-07-2.18154E-02
 -1     12923-5.60440E-01-9.58346E-05 6.93486E-01 3.41577E-06-5.72784E-08 2.18898E-02
 -1     12925-5.60440E-01-9.58346E-05 6.93486E-01 3.41577E-06 5.72784E-08-2.18898E-02
 -1     12926-2.44281E-01 4.59066E-08 3.77613E-01 2.91827E-05-5.09484E-07 1.08557E-02
 -1     12928-2.44281E-01 4.59066E-08 3.77613E-01 2.91827E-05 5.09484E-07-1.08557E-02
 -1     12929-2.57842E-01-1.35885E-07 3.91174E-01-3.14770E-05 5.49496E-07 1.13292E-02
 -1     12931-2.57842E-01-1.35885E-07 3.91174E-01-3.14770E-05-5.49496E-07-1.13292E-02
 -1     12932-1.18026E-01 1.94074E-08 2.51358E-01 1.06071E-05-1.85180E-07 6.44779E-03
 -1     12934-1.18026E-01 1.94074E-08 2.51358E-01 1.06071E-05 1.85180E-07-6.44779E-03
 -1     12935-1.24237E-01 2.29624E-08 2.57569E-01-1.13227E-05 1.97673E-07 6.66464E-03
 -1     12937-1.24237E-01 2.29624E-08 2.57569E-01-1.13227E-05-1.97673E-07-6.66464E-03
 -1     12938-1.15105E-01 5.79797E-09 2.48437E-01-1.23263E-09 2.24699E-11 6.34593E-03
 -1     12940-1.15105E-01 5.79797E-09 2.48437E-01-1.23263E-09-2.24699E-11-6.34593E-03
 -1     12941-5.26239E-01 1.15723E-04 6.60036E-01-6.63311E-05 1.15788E-06 2.07081E-02
 -1     12943-5.26239E-01 1.15723E-04 6.60036E-01-6.63311E-05-1.15788E-06-2.07081E-02
 -1     12944-5.19997E-01 1.63926E-04 6.53913E-01-8.93250E-06 1.55954E-07 2.04922E-02
 -1     12946-5.19997E-01 1.63926E-04 6.53913E-01-8.93250E-06-1.55954E-07-2.04922E-02
 -1     12947-8.64046E-02 2.47883E-10 2.19737E-01 7.30523E-06-1.27535E-07 5.34383E-03
 -1     12949-8.64046E-02 2.47880E-10 2.19737E-01 7.30523E-06 1.27535E-07-5.34383E-03
 -1     12950-9.10856E-02 7.00105E-09 2.24418E-01-7.75322E-06 1.35356E-07 5.50725E-03
 -1     12952-9.10856E-02 7.00105E-09 2.24418E-01-7.75322E-06-1.35356E-07-5.50725E-03
 -1     12953-8.41935E-02-5.21869E-09 2.17525E-01 5.49060E-09-9.53697E-11 5.26671E-03
 -1     12955-8.41935E-02-5.21869E-09 2.17525E-01 5.49060E-09 9.53697E-11-5.26671E-03
 -1     12956-1.60553E-01 2.25709E-08 2.93885E-01 1.61408E-05-2.81788E-07 7.93250E-03
 -1     12958-1.60553E-01 2.25709E-08 2.93885E-01 1.61408E-05 2.81788E-07-7.93250E-03
 -1     12959-1.69056E-01-3.01812E-08 3.02388E-01-1.73184E-05 3.02347E-07 8.22936E-03
 -1     12961-1.69056E-01-3.01812E-08 3.02388E-01-1.73184E-05-3.02347E-07-8.22936E-03
 -1     12962-1.73612E-01-5.01600E-08 3.06944E-01 1.36337E-08-2.38923E-10 8.38861E-03
 -1     12964-1.73612E-01-5.01600E-08 3.06944E-01 1.36337E-08 2.38923E-10-8.38861E-03
 -1     12965-1.56578E-01-1.98266E-08 2.89910E-01 6.43663E-09-1.12480E-10 7.79388E-03
 -1     12967-1.56578E-01-1.98266E-08 2.89910E-01 6.43663E-09 1.12480E-10-7.79388E-03
 -1     12968-1.18394E-02-1.55695E-06 1.45166E-01-5.40510E-08 9.44425E-10 2.74058E-03
 -1     12970-1.18394E-02-1.55695E-06 1.45166E-01-5.40510E-08-9.44425E-10-2.74058E-03
 -1     12971-1.18385E-02-1.48874E-06 1.45165E-01-3.04696E-08 5.38893E-10 2.74055E-03
 -1     12973-1.18385E-02-1.48874E-06 1.45165E-01-3.04696E-08-5.38893E-10-2.74055E-03
 -1     12974-1.97638E-01-5.50520E-08 3.30970E-01 2.17040E-05-3.78905E-07 9.22726E-03
 -1     12976-1.97638E-01-5.50520E-08 3.30970E-01 2.17040E-05 3.78905E-07-9.22726E-03
 -1     12977-2.08310E-01-1.01808E-08 3.41642E-01-2.33915E-05 4.08364E-07 9.59985E-03
 -1     12979-2.08310E-01-1.01808E-08 3.41642E-01-2.33915E-05-4.08364E-07-9.59985E-03
 -1     12980-1.92672E-01-6.38859E-08 3.26004E-01 2.69633E-08-4.71447E-10 9.05409E-03
 -1     12982-1.92672E-01-6.38859E-08 3.26004E-01 2.69633E-08 4.71447E-10-9.05409E-03
 -1     12983-5.20582E-01 1.67390E-04 6.54508E-01 1.28926E-06-2.25082E-08 2.05128E-02
 -1     12985-5.20582E-01 1.67390E-04 6.54508E-01 1.28926E-06 2.25082E-08-2.05128E-02
 -1     12986-1.58482E-02 5.31193E-07 1.49183E-01 1.68334E-06-2.93775E-08 2.88065E-03
 -1     12988-1.58482E-02 5.31193E-07 1.49183E-01 1.68334E-06 2.93775E-08-2.88065E-03
 -1     12989-1.41845E-02-6.24398E-07 1.47515E-01-1.45141E-06 2.53832E-08 2.82251E-03
 -1     12991-1.41845E-02-6.24398E-07 1.47515E-01-1.45141E-06-2.53832E-08-2.82251E-03
 -1     12992-1.37424E-02 1.72727E-07 1.47073E-01-6.14794E-08 1.06434E-09 2.80708E-03
 -1     12994-1.37424E-02 1.72727E-07 1.47073E-01-6.14794E-08-1.06434E-09-2.80708E-03
 -1     12995-1.68499E-02-1.12835E-07 1.50182E-01-9.41332E-08 1.65875E-09 2.91559E-03
 -1     12997-1.68499E-02-1.12835E-07 1.50182E-01-9.41332E-08-1.65875E-09-2.91559E-03
 -1     12998-3.40670E-01 1.38714E-05 4.74044E-01 5.64383E-05-9.85468E-07 1.42217E-02
 -1     13000-3.40670E-01 1.38714E-05 4.74044E-01 5.64383E-05 9.85468E-07-1.42217E-02
 -1     13001-3.61963E-01-1.68026E-05 4.95236E-01-5.65283E-05 9.86711E-07 1.49635E-02
 -1     13003-3.61963E-01-1.68026E-05 4.95236E-01-5.65283E-05-9.86711E-07-1.49635E-02
 -1     13004-3.30523E-01-3.89300E-06 4.63849E-01-4.69587E-06 8.18640E-08 1.38671E-02
 -1     13006-3.30523E-01-3.89300E-06 4.63849E-01-4.69587E-06-8.18640E-08-1.38671E-02
 -1     13007-5.73401E-01 2.16185E-04 7.07401E-01 6.64726E-06-1.15614E-07 2.23582E-02
 -1     13009-5.73401E-01 2.16185E-04 7.07401E-01 6.64726E-06 1.15614E-07-2.23582E-02
 -1     13010-1.12722E-02-9.62652E-07 1.44599E-01-5.68467E-07 1.01472E-08 2.72078E-03
 -1     13012-1.12722E-02-9.62652E-07 1.44599E-01-5.68467E-07-1.01472E-08-2.72078E-03
 -1     13013-1.11956E-02-1.60622E-06 1.44524E-01 1.13173E-07-2.02908E-09 2.71812E-03
 -1     13015-1.11956E-02-1.60622E-06 1.44524E-01 1.13173E-07 2.02908E-09-2.71812E-03
 -1     13016-1.25184E-02 7.23423E-07 1.45858E-01-5.89819E-07 1.03015E-08 2.76450E-03
 -1     13018-1.25184E-02 7.23423E-07 1.45858E-01-5.89819E-07-1.03015E-08-2.76450E-03
 -1     13019-1.30602E-02 9.18939E-07 1.46396E-01 1.67690E-06-2.91794E-08 2.78335E-03
 -1     13021-1.30602E-02 9.18939E-07 1.46396E-01 1.67690E-06 2.91794E-08-2.78335E-03
 -1     13022-4.31881E-02-1.44169E-08 1.76520E-01 3.99518E-06-6.97431E-08 3.83508E-03
 -1     13024-4.31881E-02-1.44169E-08 1.76520E-01 3.99518E-06 6.97431E-08-3.83508E-03
 -1     13025-4.60707E-02 2.93769E-08 1.79403E-01-4.12923E-06 7.20898E-08 3.93572E-03
 -1     13027-4.60707E-02 2.93769E-08 1.79403E-01-4.12923E-06-7.20898E-08-3.93572E-03
 -1     13028-4.17684E-02-1.43298E-08 1.75100E-01-5.35595E-08 9.34221E-10 3.78556E-03
 -1     13030-4.17684E-02-1.43298E-08 1.75100E-01-5.35595E-08-9.34221E-10-3.78556E-03
 -1     13031-5.21250E-01 9.96733E-05 6.54878E-01 8.23083E-05-1.43761E-06 2.05310E-02
 -1     13033-5.21250E-01 9.96733E-05 6.54878E-01 8.23083E-05 1.43761E-06-2.05310E-02
 -1     13034-4.72777E-01-4.82555E-05 6.05943E-01-9.28375E-05 1.61876E-06 1.88315E-02
 -1     13036-4.72777E-01-4.82555E-05 6.05943E-01-9.28375E-05-1.61876E-06-1.88315E-02
 -1     13037-4.79972E-01-1.33405E-06 6.13210E-01-6.54660E-06 1.13895E-07 1.90843E-02
 -1     13039-4.79972E-01-1.33405E-06 6.13210E-01-6.54660E-06-1.13895E-07-1.90843E-02
 -1     13040-4.37322E-01 4.47834E-05 5.70827E-01 1.02050E-04-1.78223E-06 1.75989E-02
 -1     13042-4.37322E-01 4.47834E-05 5.70827E-01 1.02050E-04 1.78223E-06-1.75989E-02
 -1     13043-1.33212E-02 3.23071E-06 1.46665E-01 1.10444E-07-1.92808E-09 2.79259E-03
 -1     13045-1.33212E-02 3.23071E-06 1.46665E-01 1.10444E-07 1.92808E-09-2.79259E-03
 -1     13046-5.21678E-02 4.27104E-08 1.85500E-01-4.51608E-06 7.88416E-08 4.14858E-03
 -1     13048-5.21678E-02 4.27104E-08 1.85500E-01-4.51608E-06-7.88416E-08-4.14858E-03
 -1     13049-5.37918E-02-8.06806E-09 1.87124E-01 5.79140E-09-1.01882E-10 4.20532E-03
 -1     13051-5.37918E-02-8.06806E-09 1.87124E-01 5.79140E-09 1.01881E-10-4.20532E-03
 -1     13052-4.90724E-02-3.51867E-08 1.82404E-01 4.33380E-06-7.56556E-08 4.04051E-03
 -1     13054-4.90724E-02-3.51867E-08 1.82404E-01 4.33380E-06 7.56556E-08-4.04051E-03
 -1     13055-1.33460E-02 3.28584E-06 1.46690E-01 5.81875E-08-1.01567E-09 2.79346E-03
 -1     13057-1.33460E-02 3.28584E-06 1.46690E-01 5.81875E-08 1.01567E-09-2.79346E-03
 -1     13058-1.27540E-01 1.30466E-08 2.60872E-01-2.46459E-09 4.41876E-11 6.78008E-03
 -1     13060-1.27540E-01 1.30466E-08 2.60872E-01-2.46459E-09-4.41876E-11-6.78008E-03
 -1     13061-9.59813E-02 1.03537E-08 2.29313E-01 8.23053E-06-1.43689E-07 5.67817E-03
 -1     13063-9.59813E-02 1.03537E-08 2.29313E-01 8.23053E-06 1.43689E-07-5.67817E-03
 -1     13064-1.01108E-01 8.57909E-09 2.34440E-01-8.75477E-06 1.52841E-07 5.85717E-03
 -1     13066-1.01108E-01 8.57909E-09 2.34440E-01-8.75477E-06-1.52841E-07-5.85717E-03
 -1     13067-1.49315E-02-1.74145E-06 1.48257E-01-8.99800E-08 1.58140E-09 2.84852E-03
 -1     13069-1.49315E-02-1.74145E-06 1.48257E-01-8.99800E-08-1.58140E-09-2.84852E-03
 -1     13070-1.49096E-02-1.60223E-06 1.48236E-01-7.89131E-08 1.38380E-09 2.84776E-03
 -1     13072-1.49096E-02-1.60223E-06 1.48236E-01-7.89131E-08-1.38380E-09-2.84776E-03
 -1     13073-2.19611E-01-1.23851E-07 3.52943E-01 2.50685E-05-4.37642E-07 9.99437E-03
 -1     13075-2.19611E-01-1.23851E-07 3.52943E-01 2.50685E-05 4.37642E-07-9.99437E-03
 -1     13076-2.31601E-01 5.23661E-08 3.64934E-01-2.70684E-05 4.72548E-07 1.04130E-02
 -1     13078-2.31601E-01 5.23661E-08 3.64934E-01-2.70684E-05-4.72548E-07-1.04130E-02
 -1     13079-2.38007E-01 2.57848E-07 3.71339E-01-1.75166E-08 3.15575E-10 1.06369E-02
 -1     13081-2.38007E-01 2.57848E-07 3.71339E-01-1.75166E-08-3.15575E-10-1.06369E-02
 -1     13082-2.14040E-01 8.47186E-09 3.47372E-01 3.85848E-08-6.70925E-10 9.80014E-03
 -1     13084-2.14040E-01 8.47186E-09 3.47372E-01 3.85848E-08 6.70925E-10-9.80014E-03
 -1     13085-4.92823E-01-7.49756E-05 6.25888E-01-1.06645E-06 1.85850E-08 1.95295E-02
 -1     13087-4.92823E-01-7.49756E-05 6.25888E-01-1.06645E-06-1.85850E-08-1.95295E-02
 -1     13088-4.92935E-01-7.46051E-05 6.26002E-01-2.68630E-07 4.69646E-09 1.95335E-02
 -1     13090-4.92935E-01-7.46051E-05 6.26002E-01-2.68630E-07-4.69646E-09-1.95335E-02
 -1     13091-5.47504E-01-7.82423E-05 6.80511E-01-2.12523E-05 3.66249E-07 2.14378E-02
 -1     13093-5.47504E-01-7.82423E-05 6.80511E-01-2.12523E-05-3.66249E-07-2.14378E-02
 -1     13094-4.43222E-01-1.08773E-05 5.76482E-01 1.03282E-04-1.80427E-06 1.78007E-02
 -1     13096-4.43222E-01-1.08773E-05 5.76482E-01 1.03282E-04 1.80427E-06-1.78007E-02
 -1     13097-4.15517E-01 3.29559E-05 5.48938E-01-8.40388E-05 1.46695E-06 1.68359E-02
 -1     13099-4.15517E-01 3.29559E-05 5.48938E-01-8.40388E-05-1.46695E-06-1.68359E-02
 -1     13100-1.48824E-02-1.56857E-06 1.48209E-01 8.51890E-08-1.48829E-09 2.84682E-03
 -1     13102-1.48824E-02-1.56857E-06 1.48209E-01 8.51890E-08 1.48829E-09-2.84682E-03
 -1     13103-1.49147E-02-1.71411E-06 1.48241E-01 1.06484E-07-1.86856E-09 2.84794E-03
 -1     13105-1.49147E-02-1.71411E-06 1.48241E-01 1.06484E-07 1.86856E-09-2.84794E-03
 -1     13106-4.93521E-01-7.51903E-05 6.26585E-01-1.65547E-06 2.88415E-08 1.95539E-02
 -1     13108-4.93521E-01-7.51903E-05 6.26585E-01-1.65547E-06-2.88415E-08-1.95539E-02
 -1     13109-4.93570E-01-7.42009E-05 6.26636E-01 4.83061E-07-8.44182E-09 1.95556E-02
 -1     13111-4.93570E-01-7.42009E-05 6.26636E-01 4.83061E-07 8.44182E-09-1.95556E-02
 -1     13112-2.99656E-02 3.02788E-07 1.63299E-01 3.27490E-06-5.71643E-08 3.37349E-03
 -1     13114-2.99656E-02 3.02788E-07 1.63299E-01 3.27490E-06 5.71643E-08-3.37349E-03
 -1     13115-3.23967E-02-2.09382E-07 1.65728E-01-3.26551E-06 5.70280E-08 3.45834E-03
 -1     13117-3.23967E-02-2.09382E-07 1.65728E-01-3.26551E-06-5.70280E-08-3.45834E-03
 -1     13118-4.89439E-01-4.95113E-05 6.22696E-01-6.65638E-05 1.16227E-06 1.94144E-02
 -1     13120-4.89439E-01-4.95113E-05 6.22696E-01-6.65638E-05-1.16227E-06-1.94144E-02
 -1     13121-4.98740E-01-3.67444E-05 6.31894E-01 4.72837E-06-8.13959E-08 1.97381E-02
 -1     13123-4.98740E-01-3.67444E-05 6.31894E-01 4.72837E-06 8.13959E-08-1.97381E-02
 -1     13124-4.57665E-01 7.31225E-05 5.91313E-01 5.50479E-05-9.60980E-07 1.83114E-02
 -1     13126-4.57665E-01 7.31225E-05 5.91313E-01 5.50479E-05 9.60980E-07-1.83114E-02
 -1     13127-1.47089E-02-1.47181E-06 1.48036E-01-8.87403E-08 1.69168E-09 2.84076E-03
 -1     13129-1.47089E-02-1.47181E-06 1.48036E-01-8.87403E-08-1.69168E-09-2.84076E-03
 -1     13130-1.48999E-02-7.26350E-07 1.48228E-01 1.57231E-06-2.76946E-08 2.84744E-03
 -1     13132-1.48999E-02-7.26350E-07 1.48228E-01 1.57231E-06 2.76946E-08-2.84744E-03
 -1     13133-4.94467E-01-4.86127E-05 6.27641E-01 4.46770E-05-7.81123E-07 1.95889E-02
 -1     13135-4.94467E-01-4.86127E-05 6.27641E-01 4.46770E-05 7.81123E-07-1.95889E-02
 -1     13136-2.72104E-01 1.24840E-06 4.05439E-01 3.48934E-05-6.09229E-07 1.18271E-02
 -1     13138-2.72104E-01 1.24840E-06 4.05439E-01 3.48934E-05 6.09229E-07-1.18271E-02
 -1     13139-2.87575E-01-1.74047E-06 4.20902E-01-3.72317E-05 6.49947E-07 1.23672E-02
 -1     13141-2.87575E-01-1.74047E-06 4.20902E-01-3.72317E-05-6.49947E-07-1.23672E-02
 -1     13142-1.50905E-02-1.62064E-06 1.48417E-01 5.90060E-08-1.04812E-09 2.85408E-03
 -1     13144-1.50905E-02-1.62064E-06 1.48417E-01 5.90060E-08 1.04812E-09-2.85408E-03
 -1     13145-1.51148E-02-1.85594E-06 1.48440E-01 1.56573E-07-2.73074E-09 2.85492E-03
 -1     13147-1.51148E-02-1.85594E-06 1.48440E-01 1.56573E-07 2.73074E-09-2.85492E-03
 -1     13148-5.07666E-01 7.77081E-05 6.41424E-01 7.27530E-05-1.27142E-06 2.00591E-02
 -1     13150-5.07666E-01 7.77081E-05 6.41424E-01 7.27530E-05 1.27142E-06-2.00591E-02
 -1     13151-4.78490E-01-1.24829E-05 6.11875E-01-1.07471E-04 1.87361E-06 1.90343E-02
 -1     13153-4.78490E-01-1.24829E-05 6.11875E-01-1.07471E-04-1.87361E-06-1.90343E-02
 -1     13154-2.64934E-01 7.10630E-07 3.98266E-01-3.68566E-07 6.45014E-09 1.15771E-02
 -1     13156-2.64934E-01 7.10630E-07 3.98266E-01-3.68566E-07-6.45014E-09-1.15771E-02
 -1     13157-1.51334E-02-1.66761E-06 1.48459E-01-1.41261E-07 2.44820E-09 2.85557E-03
 -1     13159-1.51334E-02-1.66761E-06 1.48459E-01-1.41261E-07-2.44820E-09-2.85557E-03
 -1     13160-1.51055E-02-1.56804E-06 1.48431E-01 3.59886E-10 2.38593E-11 2.85460E-03
 -1     13162-1.51055E-02-1.56804E-06 1.48431E-01 3.59887E-10-2.38593E-11-2.85460E-03
 -1     13163-1.67687E-02 3.72415E-06 1.50115E-01-1.56424E-07 2.73093E-09 2.91299E-03
 -1     13165-1.67687E-02 3.72415E-06 1.50115E-01-1.56424E-07-2.73093E-09-2.91299E-03
 -1     13166-3.84336E-01 2.89791E-05 5.17756E-01 7.29430E-05-1.27366E-06 1.57472E-02
 -1     13168-3.84336E-01 2.89791E-05 5.17756E-01 7.29430E-05 1.27366E-06-1.57472E-02
 -1     13169-4.10466E-01-3.08202E-05 5.43687E-01-6.91913E-05 1.20757E-06 1.66563E-02
 -1     13171-4.10466E-01-3.08202E-05 5.43687E-01-6.91913E-05-1.20757E-06-1.66563E-02
 -1     13172-4.21300E-01-2.07321E-05 5.54583E-01-1.43321E-05 2.50521E-07 1.70363E-02
 -1     13174-4.21300E-01-2.07321E-05 5.54583E-01-1.43321E-05-2.50521E-07-1.70363E-02
 -1     13175-3.71861E-01-9.24011E-06 5.05175E-01-9.78682E-06 1.70799E-07 1.53104E-02
 -1     13177-3.71861E-01-9.24011E-06 5.05175E-01-9.78682E-06-1.70799E-07-1.53104E-02
 -1     13178-1.48317E-02-1.62754E-06 1.48158E-01-1.76718E-08 3.13370E-10 2.84504E-03
 -1     13180-1.48317E-02-1.62754E-06 1.48158E-01-1.76718E-08-3.13370E-10-2.84504E-03
 -1     13181-1.48275E-02-1.59092E-06 1.48154E-01-5.31520E-09 9.04284E-11 2.84490E-03
 -1     13183-1.48275E-02-1.59092E-06 1.48154E-01-5.31520E-09-9.04283E-11-2.84490E-03
 -1     13184-1.03826E-01 6.36718E-09 2.37158E-01-2.37897E-09 4.25053E-11 5.95212E-03
 -1     13186-1.03826E-01 6.36718E-09 2.37158E-01-2.37897E-09-4.25053E-11-5.95212E-03
 -1     13187-9.35618E-02 3.49005E-10 2.26894E-01 1.49373E-09-2.54159E-11 5.59378E-03
 -1     13189-9.35618E-02 3.49003E-10 2.26894E-01 1.49373E-09 2.54159E-11-5.59378E-03
 -1     13190-5.37387E-01-4.87028E-05 6.70403E-01-1.56026E-05 2.69120E-07 2.10862E-02
 -1     13192-5.37387E-01-4.87028E-05 6.70403E-01-1.56026E-05-2.69120E-07-2.10862E-02
 -1     13193-2.95401E-01 5.03720E-07 4.28732E-01-1.42341E-06 2.48444E-08 1.26408E-02
 -1     13195-2.95401E-01 5.03720E-07 4.28732E-01-1.42341E-06-2.48444E-08-1.26408E-02
 -1     13196-2.57721E-01-1.07753E-06 3.91050E-01 3.05763E-05-5.33796E-07 1.13249E-02
 -1     13198-2.57721E-01-1.07753E-06 3.91050E-01 3.05763E-05 5.33796E-07-1.13249E-02
 -1     13199-2.71980E-01 1.08453E-06 4.05318E-01-3.27961E-05 5.72506E-07 1.18228E-02
 -1     13201-2.71980E-01 1.08453E-06 4.05318E-01-3.27961E-05-5.72506E-07-1.18228E-02
 -1     13202-1.01107E-01 1.49233E-08 2.34439E-01 8.73512E-06-1.52499E-07 5.85713E-03
 -1     13204-1.01107E-01 1.49233E-08 2.34439E-01 8.73512E-06 1.52499E-07-5.85713E-03
 -1     13205-1.06479E-01 9.50451E-09 2.39811E-01-9.30590E-06 1.62463E-07 6.04466E-03
 -1     13207-1.06479E-01 9.50451E-09 2.39811E-01-9.30590E-06-1.62463E-07-6.04466E-03
 -1     13208-1.67481E-02 1.12036E-07 1.50080E-01 2.63691E-06-4.60666E-08 2.91204E-03
 -1     13210-1.67481E-02 1.12036E-07 1.50080E-01 2.63691E-06 4.60666E-08-2.91204E-03
 -1     13211-1.88696E-02-1.30977E-07 1.52200E-01-2.74526E-06 4.78897E-08 2.98607E-03
 -1     13213-1.88696E-02-1.30977E-07 1.52200E-01-2.74526E-06-4.78897E-08-2.98607E-03
 -1     13214-1.49970E-02-1.66200E-06 1.48323E-01-4.23974E-07 7.41683E-09 2.85081E-03
 -1     13216-1.49970E-02-1.66200E-06 1.48323E-01-4.23974E-07-7.41683E-09-2.85081E-03
 -1     13217-1.49327E-02-1.07989E-06 1.48260E-01-3.08882E-07 5.45548E-09 2.84858E-03
 -1     13219-1.49327E-02-1.07989E-06 1.48260E-01-3.08882E-07-5.45548E-09-2.84858E-03
 -1     13220-1.66785E-02 3.30169E-06 1.50024E-01 8.89375E-07-1.55273E-08 2.90983E-03
 -1     13222-1.66785E-02 3.30169E-06 1.50024E-01 8.89375E-07 1.55273E-08-2.90983E-03
 -1     13223-1.49761E-02-1.59316E-06 1.48302E-01 1.22306E-07-2.14290E-09 2.85009E-03
 -1     13225-1.49761E-02-1.59316E-06 1.48302E-01 1.22306E-07 2.14290E-09-2.85009E-03
 -1     13226-1.50127E-02-1.81789E-06 1.48338E-01 1.75444E-07-3.07657E-09 2.85135E-03
 -1     13228-1.50127E-02-1.81789E-06 1.48338E-01 1.75444E-07 3.07657E-09-2.85135E-03
 -1     13229-1.65316E-02 3.52944E-06 1.49876E-01-2.95775E-07 5.16336E-09 2.90468E-03
 -1     13231-1.65316E-02 3.52944E-06 1.49876E-01-2.95775E-07-5.16336E-09-2.90468E-03
 -1     13232-4.93645E-01-7.37957E-05 6.26715E-01-1.88215E-07 3.18743E-09 1.95583E-02
 -1     13234-4.93645E-01-7.37957E-05 6.26715E-01-1.88215E-07-3.18743E-09-1.95583E-02
 -1     13235-4.93440E-01-7.50315E-05 6.26502E-01 2.62665E-06-4.57586E-08 1.95510E-02
 -1     13237-4.93440E-01-7.50315E-05 6.26502E-01 2.62665E-06 4.57586E-08-1.95510E-02
 -1     13238-4.65442E-01 1.35055E-04 5.99255E-01 1.47526E-06-2.57521E-08 1.85856E-02
 -1     13240-4.65442E-01 1.35055E-04 5.99255E-01 1.47526E-06 2.57521E-08-1.85856E-02
 -1     13241-5.87416E-02-5.81220E-08 1.92073E-01 4.99089E-06-8.71301E-08 4.37807E-03
 -1     13243-5.87416E-02-5.81220E-08 1.92073E-01 4.99089E-06 8.71301E-08-4.37807E-03
 -1     13244-6.22216E-02 5.80998E-08 1.95554E-01-5.25021E-06 9.16571E-08 4.49957E-03
 -1     13246-6.22216E-02 5.80998E-08 1.95554E-01-5.25021E-06-9.16571E-08-4.49957E-03
 -1     13247-1.48688E-02-1.68468E-06 1.48195E-01-5.83137E-08 1.02557E-09 2.84633E-03
 -1     13249-1.48688E-02-1.68468E-06 1.48195E-01-5.83137E-08-1.02557E-09-2.84633E-03
 -1     13250-1.48502E-02-1.58744E-06 1.48177E-01-4.50253E-08 7.85849E-10 2.84569E-03
 -1     13252-1.48502E-02-1.58744E-06 1.48177E-01-4.50253E-08-7.85849E-10-2.84569E-03
 -1     13253-1.64686E-02 3.44104E-06 1.49813E-01 1.94602E-07-3.39734E-09 2.90248E-03
 -1     13255-1.64686E-02 3.44104E-06 1.49813E-01 1.94602E-07 3.39734E-09-2.90248E-03
 -1     13256-4.93317E-01-5.87224E-05 6.26421E-01-5.65073E-07 1.00043E-08 1.95475E-02
 -1     13258-4.93317E-01-5.87224E-05 6.26421E-01-5.65073E-07-1.00043E-08-1.95475E-02
 -1     13259-4.92722E-01-7.30926E-05 6.25768E-01 1.48775E-06-2.61509E-08 1.95257E-02
 -1     13261-4.92722E-01-7.30926E-05 6.25768E-01 1.48775E-06 2.61509E-08-1.95257E-02
 -1     13262-1.45967E-02-8.63817E-07 1.47925E-01 5.30084E-07-9.33539E-09 2.83687E-03
 -1     13264-1.45967E-02-8.63817E-07 1.47925E-01 5.30084E-07 9.33539E-09-2.83687E-03
 -1     13265-1.47417E-02-1.73755E-06 1.48067E-01 7.44112E-07-1.30088E-08 2.84189E-03
 -1     13267-1.47417E-02-1.73755E-06 1.48067E-01 7.44112E-07 1.30088E-08-2.84189E-03
 -1     13268-4.92998E-01-7.15098E-05 6.26076E-01 2.82949E-06-4.95219E-08 1.95359E-02
 -1     13270-4.92998E-01-7.15098E-05 6.26076E-01 2.82949E-06 4.95219E-08-1.95359E-02
 -1     13271-4.92147E-01-7.75955E-05 6.25201E-01 7.39269E-06-1.28820E-07 1.95057E-02
 -1     13273-4.92147E-01-7.75955E-05 6.25201E-01 7.39269E-06 1.28820E-07-1.95057E-02
 -1     13274-4.65100E-01 1.33722E-04 5.98911E-01-3.64429E-06 6.36290E-08 1.85736E-02
 -1     13276-4.65100E-01 1.33722E-04 5.98911E-01-3.64429E-06-6.36290E-08-1.85736E-02
 -1     13277-4.85998E-01-5.94965E-05 6.19119E-01 1.32959E-05-2.32086E-07 1.92924E-02
 -1     13279-4.85998E-01-5.94965E-05 6.19119E-01 1.32959E-05 2.32086E-07-1.92924E-02
 -1     13280-4.82768E-01-7.95631E-05 6.15782E-01 3.24267E-05-5.65077E-07 1.91776E-02
 -1     13282-4.82768E-01-7.95631E-05 6.15782E-01 3.24267E-05 5.65077E-07-1.91776E-02
 -1     13283-5.03210E-01 1.56270E-04 6.37139E-01-4.64363E-05 8.10913E-07 1.99067E-02
 -1     13285-5.03210E-01 1.56270E-04 6.37139E-01-4.64363E-05-8.10913E-07-1.99067E-02
 -1     13286-5.35977E-01-6.28901E-05 6.68976E-01-7.88115E-06 1.40082E-07 2.10365E-02
 -1     13288-5.35977E-01-6.28901E-05 6.68976E-01-7.88115E-06-1.40082E-07-2.10365E-02
 -1     13289-4.90728E-01-6.67794E-05 6.23824E-01 7.86022E-06-1.37294E-07 1.94570E-02
 -1     13291-4.90728E-01-6.67794E-05 6.23824E-01 7.86022E-06 1.37294E-07-1.94570E-02
 -1     13292-4.88957E-01-8.10402E-05 6.21994E-01 1.57847E-05-2.75042E-07 1.93940E-02
 -1     13294-4.88957E-01-8.10402E-05 6.21994E-01 1.57847E-05 2.75042E-07-1.93940E-02
 -1     13295-4.63335E-01 1.32544E-04 5.97135E-01-1.28387E-05 2.24159E-07 1.85118E-02
 -1     13297-4.63335E-01 1.32544E-04 5.97135E-01-1.28387E-05-2.24159E-07-1.85118E-02
 -1     13298-3.49695E-02 5.54353E-08 1.68302E-01 3.64125E-06-6.35605E-08 3.54817E-03
 -1     13300-3.49695E-02 5.54353E-08 1.68302E-01 3.64125E-06 6.35605E-08-3.54817E-03
 -1     13301-3.75897E-02-5.13204E-09 1.70922E-01-3.69024E-06 6.44323E-08 3.63964E-03
 -1     13303-3.75897E-02-5.13204E-09 1.70922E-01-3.69024E-06-6.44323E-08-3.63964E-03
 -1     13304-3.36167E-02-1.32776E-08 1.66949E-01-1.62188E-07 2.83496E-09 3.50097E-03
 -1     13306-3.36167E-02-1.32776E-08 1.66949E-01-1.62188E-07-2.83496E-09-3.50097E-03
 -1     13307-3.89589E-01-2.02956E-05 5.22844E-01 6.81518E-05-1.19000E-06 1.59279E-02
 -1     13309-3.89589E-01-2.02956E-05 5.22844E-01 6.81518E-05 1.19000E-06-1.59279E-02
 -1     13310-3.66199E-01 2.40415E-05 4.99607E-01-6.76559E-05 1.18111E-06 1.51137E-02
 -1     13312-3.66199E-01 2.40415E-05 4.99607E-01-6.76559E-05-1.18111E-06-1.51137E-02
 -1     13313-4.01285E-01-1.34175E-05 5.34591E-01 1.43416E-05-2.50529E-07 1.63379E-02
 -1     13315-4.01285E-01-1.34175E-05 5.34591E-01 1.43416E-05 2.50529E-07-1.63379E-02
 -1     13316-3.44801E-01-1.62128E-05 4.78074E-01 5.38113E-05-9.39472E-07 1.43643E-02
 -1     13318-3.44801E-01-1.62128E-05 4.78074E-01 5.38113E-05 9.39472E-07-1.43643E-02
 -1     13319-3.24838E-01 1.76691E-05 4.58228E-01-5.52008E-05 9.63714E-07 1.36692E-02
 -1     13321-3.24838E-01 1.76691E-05 4.58228E-01-5.52008E-05-9.63714E-07-1.36692E-02
 -1     13322-3.53920E-01-7.16423E-06 4.87235E-01 1.04289E-05-1.82090E-07 1.46840E-02
 -1     13324-3.53920E-01-7.16423E-06 4.87235E-01 1.04289E-05 1.82090E-07-1.46840E-02
 -1     13325-3.06626E-01-1.23008E-05 4.39914E-01 4.36177E-05-7.61490E-07 1.30317E-02
 -1     13327-3.06626E-01-1.23008E-05 4.39914E-01 4.36177E-05 7.61490E-07-1.30317E-02
 -1     13328-2.89470E-01 1.31070E-05 4.22845E-01-4.50423E-05 7.86375E-07 1.24341E-02
 -1     13330-2.89470E-01 1.31070E-05 4.22845E-01-4.50423E-05-7.86375E-07-1.24341E-02
 -1     13331-3.14269E-01-4.39347E-06 4.47589E-01 8.06905E-06-1.40859E-07 1.32996E-02
 -1     13333-3.14269E-01-4.39347E-06 4.47589E-01 8.06905E-06 1.40859E-07-1.32996E-02
 -1     13334-2.73762E-01-9.34360E-06 4.07061E-01 3.56368E-05-6.22161E-07 1.18845E-02
 -1     13336-2.73762E-01-9.34360E-06 4.07061E-01 3.56368E-05 6.22161E-07-1.18845E-02
 -1     13337-2.58893E-01 1.00089E-05 3.92258E-01-3.68806E-05 6.43885E-07 1.13664E-02
 -1     13339-2.58893E-01 1.00089E-05 3.92258E-01-3.68806E-05-6.43885E-07-1.13664E-02
 -1     13340-2.80323E-01-2.87564E-06 4.13647E-01 6.36928E-06-1.11186E-07 1.21143E-02
 -1     13342-2.80323E-01-2.87564E-06 4.13647E-01 6.36928E-06 1.11186E-07-1.21143E-02
 -1     13343-2.45218E-01-7.33855E-06 3.78524E-01 2.93548E-05-5.12488E-07 1.08880E-02
 -1     13345-2.45218E-01-7.33855E-06 3.78524E-01 2.93548E-05 5.12488E-07-1.08880E-02
 -1     13346-2.32224E-01 7.96237E-06 3.65582E-01-3.04610E-05 5.31804E-07 1.04352E-02
 -1     13348-2.32224E-01 7.96237E-06 3.65582E-01-3.04610E-05-5.31804E-07-1.04352E-02
 -1     13349-2.50924E-01-1.95734E-06 3.84250E-01 5.07013E-06-8.85156E-08 1.10879E-02
 -1     13351-2.50924E-01-1.95734E-06 3.84250E-01 5.07013E-06 8.85156E-08-1.10879E-02
 -1     13352-2.20220E-01-5.97754E-06 3.53531E-01 2.44880E-05-4.27519E-07 1.00153E-02
 -1     13354-2.20220E-01-5.97754E-06 3.53531E-01 2.44880E-05 4.27519E-07-1.00153E-02
 -1     13355-2.08774E-01 6.58395E-06 3.42128E-01-2.54851E-05 4.44929E-07 9.61640E-03
 -1     13357-2.08774E-01 6.58395E-06 3.42128E-01-2.54851E-05-4.44929E-07-9.61640E-03
 -1     13358-2.25235E-01-1.45340E-06 3.58562E-01 4.07769E-06-7.11977E-08 1.01909E-02
 -1     13360-2.25235E-01-1.45340E-06 3.58562E-01 4.07769E-06 7.11977E-08-1.01909E-02
 -1     13361-1.98154E-01-5.06602E-06 3.31468E-01 2.07673E-05-3.62558E-07 9.24497E-03
 -1     13363-1.98154E-01-5.06602E-06 3.31468E-01 2.07673E-05 3.62558E-07-9.24497E-03
 -1     13364-1.88001E-01 5.54079E-06 3.21352E-01-2.16529E-05 3.78020E-07 8.89109E-03
 -1     13366-1.88001E-01 5.54079E-06 3.21352E-01-2.16529E-05-3.78020E-07-8.89109E-03
 -1     13367-2.02602E-01-1.11242E-06 3.35930E-01 3.37163E-06-5.88726E-08 9.40071E-03
 -1     13369-2.02602E-01-1.11242E-06 3.35930E-01 3.37163E-06 5.88726E-08-9.40071E-03
 -1     13370-1.78538E-01-4.39599E-06 3.11854E-01 1.77984E-05-3.10726E-07 8.56015E-03
 -1     13372-1.78538E-01-4.39599E-06 3.11854E-01 1.77984E-05 3.10726E-07-8.56015E-03
 -1     13373-1.69480E-01 4.78523E-06 3.02829E-01-1.86275E-05 3.25200E-07 8.24446E-03
 -1     13375-1.69480E-01 4.78523E-06 3.02829E-01-1.86275E-05-3.25200E-07-8.24446E-03
 -1     13376-1.82509E-01-1.02756E-06 3.15838E-01 2.85617E-06-4.98711E-08 8.69920E-03
 -1     13378-1.82509E-01-1.02756E-06 3.15838E-01 2.85617E-06 4.98711E-08-8.69920E-03
 -1     13379-1.61010E-01-3.83112E-06 2.94329E-01 1.53522E-05-2.68021E-07 7.94826E-03
 -1     13381-1.61010E-01-3.83112E-06 2.94329E-01 1.53522E-05 2.68021E-07-7.94826E-03
 -1     13382-1.52896E-01 4.18599E-06 2.86243E-01-1.61221E-05 2.81461E-07 7.66543E-03
 -1     13384-1.52896E-01 4.18599E-06 2.86243E-01-1.61221E-05-2.81461E-07-7.66543E-03
 -1     13385-1.64567E-01-9.40773E-07 2.97896E-01 2.45841E-06-4.29259E-08 8.07277E-03
 -1     13387-1.64567E-01-9.40773E-07 2.97896E-01 2.45841E-06 4.29259E-08-8.07277E-03
 -1     13388-1.45290E-01-3.34072E-06 2.78610E-01 1.33055E-05-2.32290E-07 7.39944E-03
 -1     13390-1.45290E-01-3.34072E-06 2.78610E-01 1.33055E-05 2.32290E-07-7.39944E-03
 -1     13391-1.37994E-01 3.67473E-06 2.71338E-01-1.40106E-05 2.44598E-07 7.14512E-03
 -1     13393-1.37994E-01 3.67473E-06 2.71338E-01-1.40106E-05-2.44598E-07-7.14512E-03
 -1     13394-1.48482E-01-8.30418E-07 2.81811E-01 2.13483E-06-3.72768E-08 7.51119E-03
 -1     13396-1.48482E-01-8.30418E-07 2.81811E-01 2.13483E-06 3.72768E-08-7.51119E-03
 -1     13397-1.31139E-01-2.92324E-06 2.64461E-01 1.15952E-05-2.02430E-07 6.90544E-03
 -1     13399-1.31139E-01-2.92324E-06 2.64461E-01 1.15952E-05 2.02430E-07-6.90544E-03
 -1     13400-1.24555E-01 3.22892E-06 2.57898E-01-1.22354E-05 2.13606E-07 6.67592E-03
 -1     13402-1.24555E-01 3.22892E-06 2.57898E-01-1.22354E-05-2.13606E-07-6.67592E-03
 -1     13403-1.34013E-01-7.22524E-07 2.67343E-01 1.86631E-06-3.25888E-08 7.00604E-03
 -1     13405-1.34013E-01-7.22524E-07 2.67343E-01 1.86631E-06 3.25888E-08-7.00604E-03
 -1     13406-1.18355E-01-2.57377E-06 2.51678E-01 1.01635E-05-1.77436E-07 6.45914E-03
 -1     13408-1.18355E-01-2.57377E-06 2.51678E-01 1.01635E-05 1.77436E-07-6.45914E-03
 -1     13409-1.12392E-01 2.84152E-06 2.45734E-01-1.07449E-05 1.87586E-07 6.25126E-03
 -1     13411-1.12392E-01 2.84152E-06 2.45734E-01-1.07449E-05-1.87586E-07-6.25126E-03
 -1     13412-1.20952E-01-6.33798E-07 2.54282E-01 1.64311E-06-2.86916E-08 6.55004E-03
 -1     13414-1.20952E-01-6.33798E-07 2.54282E-01 1.64311E-06 2.86916E-08-6.55004E-03
 -1     13415-1.06765E-01-2.27940E-06 2.40088E-01 8.94783E-06-1.56213E-07 6.05451E-03
 -1     13417-1.06765E-01-2.27940E-06 2.40088E-01 8.94783E-06 1.56213E-07-6.05451E-03
 -1     13418-1.01346E-01 2.50918E-06 2.34687E-01-9.48055E-06 1.65512E-07 5.86561E-03
 -1     13420-1.01346E-01 2.50918E-06 2.34687E-01-9.48055E-06-1.65512E-07-5.86561E-03
 -1     13421-1.09119E-01-5.65293E-07 2.42449E-01 1.45324E-06-2.53760E-08 6.13691E-03
 -1     13423-1.09119E-01-5.65293E-07 2.42449E-01 1.45324E-06 2.53760E-08-6.13691E-03
 -1     13424-9.62237E-02-2.02449E-06 2.29548E-01 7.89822E-06-1.37889E-07 5.68652E-03
 -1     13426-9.62237E-02-2.02449E-06 2.29548E-01 7.89822E-06 1.37889E-07-5.68652E-03
 -1     13427-9.12865E-02 2.22723E-06 2.24626E-01-8.38875E-06 1.46452E-07 5.51439E-03
 -1     13429-9.12865E-02 2.22723E-06 2.24626E-01-8.38875E-06-1.46452E-07-5.51439E-03
 -1     13430-9.83641E-02-5.07542E-07 2.31695E-01 1.28617E-06-2.24588E-08 5.76142E-03
 -1     13432-9.83641E-02-5.07542E-07 2.31695E-01 1.28617E-06 2.24588E-08-5.76142E-03
 -1     13433-8.66136E-02-1.79905E-06 2.19939E-01 6.98635E-06-1.21969E-07 5.35103E-03
 -1     13435-8.66136E-02-1.79905E-06 2.19939E-01 6.98635E-06 1.21969E-07-5.35103E-03
 -1     13436-8.21046E-02 1.98699E-06 2.15443E-01-7.43621E-06 1.29822E-07 5.19383E-03
 -1     13438-8.21046E-02 1.98699E-06 2.15443E-01-7.43621E-06-1.29822E-07-5.19383E-03
 -1     13439-8.85640E-02-4.51437E-07 2.21895E-01 1.13713E-06-1.98568E-08 5.41928E-03
 -1     13441-8.85640E-02-4.51437E-07 2.21895E-01 1.13713E-06 1.98568E-08-5.41928E-03
 -1     13442-7.78325E-02-1.59909E-06 2.11159E-01 6.19796E-06-1.08205E-07 5.04448E-03
 -1     13444-7.78325E-02-1.59909E-06 2.11159E-01 6.19796E-06 1.08205E-07-5.04448E-03
 -1     13445-7.37054E-02 1.77691E-06 2.07043E-01-6.60767E-06 1.15358E-07 4.90058E-03
 -1     13447-7.37054E-02 1.77691E-06 2.07043E-01-6.60767E-06-1.15358E-07-4.90058E-03
 -1     13448-7.96144E-02-3.97140E-07 2.12945E-01 1.00654E-06-1.75770E-08 5.10683E-03
 -1     13450-7.96144E-02-3.97140E-07 2.12945E-01 1.00654E-06 1.75770E-08-5.10683E-03
 -1     13451-6.97904E-02-1.42230E-06 2.03117E-01 5.52196E-06-9.64030E-08 4.76372E-03
 -1     13453-6.97904E-02-1.42230E-06 2.03117E-01 5.52196E-06 9.64030E-08-4.76372E-03
 -1     13454-6.60038E-02 1.58453E-06 1.99341E-01-5.89016E-06 1.02831E-07 4.63170E-03
 -1     13456-6.60038E-02 1.58453E-06 1.99341E-01-5.89016E-06-1.02831E-07-4.63170E-03
 -1     13457-7.14232E-02-3.50123E-07 2.04754E-01 8.95550E-07-1.56389E-08 4.82085E-03
 -1     13459-7.14232E-02-3.50123E-07 2.04754E-01 8.95550E-07 1.56389E-08-4.82085E-03
 -1     13460-6.24071E-02-1.26672E-06 1.95734E-01 4.93847E-06-8.62165E-08 4.50597E-03
 -1     13462-6.24071E-02-1.26672E-06 1.95734E-01 4.93847E-06 8.62165E-08-4.50597E-03
 -1     13463-5.89260E-02 1.40223E-06 1.92263E-01-5.25982E-06 9.18274E-08 4.38459E-03
 -1     13465-5.89260E-02 1.40223E-06 1.92263E-01-5.25982E-06-9.18274E-08-4.38459E-03
 -1     13466-6.39076E-02-3.15164E-07 1.97239E-01 8.04639E-07-1.40504E-08 4.55846E-03
 -1     13468-6.39076E-02-3.15164E-07 1.97239E-01 8.04639E-07 1.40504E-08-4.55846E-03
 -1     13469-5.56162E-02-1.12937E-06 1.88944E-01 4.41000E-06-7.69915E-08 4.26890E-03
 -1     13471-5.56162E-02-1.12937E-06 1.88944E-01 4.41000E-06 7.69915E-08-4.26890E-03
 -1     13472-5.24134E-02 1.23457E-06 1.85750E-01-4.68077E-06 8.17199E-08 4.15722E-03
 -1     13474-5.24134E-02 1.23457E-06 1.85750E-01-4.68077E-06-8.17199E-08-4.15722E-03
 -1     13475-5.69976E-02-2.89027E-07 1.90329E-01 7.28012E-07-1.27116E-08 4.31722E-03
 -1     13477-5.69976E-02-2.89027E-07 1.90329E-01 7.28012E-07 1.27116E-08-4.31722E-03
 -1     13478-4.93700E-02-9.97733E-07 1.82698E-01 3.90318E-06-6.81442E-08 4.05084E-03
 -1     13480-4.93700E-02-9.97733E-07 1.82698E-01 3.90318E-06 6.81442E-08-4.05084E-03
 -1     13481-4.64237E-02 1.08732E-06 1.79759E-01-4.12543E-06 7.20271E-08 3.94810E-03
 -1     13483-4.64237E-02 1.08732E-06 1.79759E-01-4.12543E-06-7.20271E-08-3.94810E-03
 -1     13484-5.06415E-02-2.57299E-07 1.83973E-01 6.47002E-07-1.12984E-08 4.09532E-03
 -1     13486-5.06415E-02-2.57299E-07 1.83973E-01 6.47002E-07 1.12984E-08-4.09532E-03
 -1     13487-4.36330E-02-8.54883E-07 1.76962E-01 3.43815E-06-6.00238E-08 3.85056E-03
 -1     13489-4.36330E-02-8.54883E-07 1.76962E-01 3.43815E-06 6.00238E-08-3.85056E-03
 -1     13490-4.09233E-02 9.22879E-07 1.74258E-01-3.60647E-06 6.29689E-08 3.75606E-03
 -1     13492-4.09233E-02 9.22879E-07 1.74258E-01-3.60647E-06-6.29689E-08-3.75606E-03
 -1     13493-4.48051E-02-2.16685E-07 1.78136E-01 5.50461E-07-9.61515E-09 3.89156E-03
 -1     13495-4.48051E-02-2.16685E-07 1.78136E-01 5.50461E-07 9.61515E-09-3.89156E-03
 -1     13496-3.83643E-02-7.25054E-07 1.71694E-01 3.04245E-06-5.31137E-08 3.66663E-03
 -1     13498-3.83643E-02-7.25054E-07 1.71694E-01 3.04245E-06 5.31137E-08-3.66663E-03
 -1     13499-3.58726E-02 7.03905E-07 1.69207E-01-3.14686E-06 5.49480E-08 3.57972E-03
 -1     13501-3.58726E-02 7.03905E-07 1.69207E-01-3.14686E-06-5.49480E-08-3.57972E-03
 -1     13502-3.94534E-02-2.10987E-07 1.72785E-01 4.68846E-07-8.18781E-09 3.70472E-03
 -1     13504-3.94534E-02-2.10987E-07 1.72785E-01 4.68846E-07 8.18781E-09-3.70472E-03
 -1     13505-3.35309E-02-5.65981E-07 1.66861E-01 2.64546E-06-4.61809E-08 3.49790E-03
 -1     13507-3.35309E-02-5.65981E-07 1.66861E-01 2.64546E-06 4.61809E-08-3.49790E-03
 -1     13508-3.12414E-02 5.25816E-07 1.64575E-01-2.71137E-06 4.73521E-08 3.41803E-03
 -1     13510-3.12414E-02 5.25816E-07 1.64575E-01-2.71137E-06-4.73521E-08-3.41803E-03
 -1     13511-3.45513E-02-1.73247E-07 1.67883E-01 3.81641E-07-6.66529E-09 3.53358E-03
 -1     13513-3.45513E-02-1.73247E-07 1.67883E-01 3.81641E-07 6.66529E-09-3.53358E-03
 -1     13514-2.91266E-02-2.06554E-07 1.62457E-01 2.39678E-06-4.18224E-08 3.34415E-03
 -1     13516-2.91266E-02-2.06554E-07 1.62457E-01 2.39678E-06 4.18224E-08-3.34415E-03
 -1     13517-2.70077E-02 1.21435E-07 1.60340E-01-2.32057E-06 4.05321E-08 3.27020E-03
 -1     13519-2.70077E-02 1.21435E-07 1.60340E-01-2.32057E-06-4.05321E-08-3.27020E-03
 -1     13520-3.00944E-02 3.67871E-09 1.63426E-01 1.78524E-07-3.12760E-09 3.37798E-03
 -1     13522-3.00944E-02 3.67871E-09 1.63426E-01 1.78524E-07 3.12760E-09-3.37798E-03
 -1     13523-2.50243E-02 1.31130E-08 1.58357E-01 2.09893E-06-3.66374E-08 3.20096E-03
 -1     13525-2.50243E-02 1.31130E-08 1.58357E-01 2.09893E-06 3.66374E-08-3.20096E-03
 -1     13526-2.30721E-02-2.95329E-07 1.56403E-01-2.09668E-06 3.66288E-08 3.13278E-03
 -1     13528-2.30721E-02-2.95329E-07 1.56403E-01-2.09668E-06-3.66288E-08-3.13278E-03
 -1     13529-2.59959E-02-7.91067E-07 1.59328E-01 3.66839E-08-6.08440E-10 3.23489E-03
 -1     13531-2.59959E-02-7.91067E-07 1.59328E-01 3.66839E-08 6.08440E-10-3.23489E-03
 -1     13532-2.12626E-02 4.11739E-07 1.54596E-01 1.80040E-06-3.14276E-08 3.06965E-03
 -1     13534-2.12626E-02 4.11739E-07 1.54596E-01 1.80040E-06 3.14276E-08-3.06965E-03
 -1     13535-1.94679E-02-2.52494E-07 1.52799E-01-1.74774E-06 3.05063E-08 3.00696E-03
 -1     13537-1.94679E-02-2.52494E-07 1.52799E-01-1.74774E-06-3.05063E-08-3.00696E-03
 -1     13538-2.22066E-02 1.56757E-07 1.55538E-01-2.86399E-08 4.85585E-10 3.10260E-03
 -1     13540-2.22066E-02 1.56757E-07 1.55538E-01-2.86399E-08-4.85585E-10-3.10260E-03
 -1     13541-2.09388E-02 6.25535E-07 1.54273E-01 2.75078E-06-4.80244E-08 3.05838E-03
 -1     13543-2.09388E-02 6.25535E-07 1.54273E-01 2.75078E-06 4.80244E-08-3.05838E-03
 -1     13544-2.31166E-02-6.02739E-07 1.56446E-01-2.67777E-06 4.67361E-08 3.13433E-03
 -1     13546-2.31166E-02-6.02739E-07 1.56446E-01-2.67777E-06-4.67361E-08-3.13433E-03
 -1     13547-1.98235E-02-4.39290E-07 1.53155E-01-1.28093E-07 2.23827E-09 3.01942E-03
 -1     13549-1.98235E-02-4.39290E-07 1.53155E-01-1.28093E-07-2.23827E-09-3.01942E-03
 -1     13550-2.86859E-01 1.60405E-07 4.20189E-01 3.62231E-05-6.32472E-07 1.23422E-02
 -1     13552-2.86859E-01 1.60405E-07 4.20189E-01 3.62231E-05 6.32472E-07-1.23422E-02
 -1     13553-3.03081E-01-1.79408E-06 4.36413E-01-3.75032E-05 6.54600E-07 1.29086E-02
 -1     13555-3.03081E-01-1.79408E-06 4.36413E-01-3.75032E-05-6.54600E-07-1.29086E-02
 -1     13556-2.79411E-01 1.75042E-06 4.12743E-01 1.11137E-07-1.89581E-09 1.20825E-02
 -1     13558-2.79411E-01 1.75042E-06 4.12743E-01 1.11137E-07 1.89581E-09-1.20825E-02
 -1     13559-4.92634E-01-7.22885E-05 6.25706E-01 1.16658E-07-2.01318E-09 1.95231E-02
 -1     13561-4.92634E-01-7.22885E-05 6.25706E-01 1.16658E-07 2.01318E-09-1.95231E-02
 -1     13562-4.92626E-01-7.47624E-05 6.25689E-01-3.45450E-07 5.95758E-09 1.95226E-02
 -1     13564-4.92626E-01-7.47624E-05 6.25689E-01-3.45450E-07-5.95758E-09-1.95226E-02
 -1     13565-4.64394E-01 1.31514E-04 5.98202E-01 2.00720E-06-3.50291E-08 1.85489E-02
 -1     13567-4.64394E-01 1.31514E-04 5.98202E-01 2.00720E-06 3.50291E-08-1.85489E-02
 -1     13568-1.49408E-02-1.53924E-06 1.48267E-01-2.81296E-08 4.42780E-10 2.84886E-03
 -1     13570-1.49408E-02-1.53924E-06 1.48267E-01-2.81296E-08-4.42780E-10-2.84886E-03
 -1     13571-1.50082E-02-1.65907E-06 1.48334E-01 2.61453E-07-4.53092E-09 2.85120E-03
 -1     13573-1.50082E-02-1.65907E-06 1.48334E-01 2.61453E-07 4.53092E-09-2.85120E-03
 -1     13574-1.64525E-02 2.77461E-06 1.49797E-01-1.39732E-06 2.44058E-08 2.90194E-03
 -1     13576-1.64525E-02 2.77461E-06 1.49797E-01-1.39732E-06-2.44058E-08-2.90194E-03
 -1     13577-4.62345E-01-3.28532E-05 5.95592E-01 1.48441E-05-2.59990E-07 1.84698E-02
 -1     13579-4.62345E-01-3.28532E-05 5.95592E-01 1.48441E-05 2.59990E-07-1.84698E-02
 -1     13580-4.77368E-01-3.93178E-05 6.10521E-01 1.58011E-05-2.75429E-07 1.89920E-02
 -1     13582-4.77368E-01-3.93178E-05 6.10521E-01 1.58011E-05 2.75429E-07-1.89920E-02
 -1     13583-4.72143E-01-6.05527E-05 6.05254E-01 8.39451E-05-1.46308E-06 1.88086E-02
 -1     13585-4.72143E-01-6.05527E-05 6.05254E-01 8.39451E-05 1.46308E-06-1.88086E-02
 -1     13586-4.36700E-01 6.81215E-05 5.70290E-01-1.14076E-04 1.99211E-06 1.75787E-02
 -1     13588-4.36700E-01 6.81215E-05 5.70290E-01-1.14076E-04-1.99211E-06-1.75787E-02
 -1     13589-4.51181E-01 1.12747E-04 5.84953E-01-5.74298E-05 1.00275E-06 1.80871E-02
 -1     13591-4.51181E-01 1.12747E-04 5.84953E-01-5.74298E-05-1.00275E-06-1.80871E-02
 -1     13592-1.64087E-02 3.36103E-06 1.49753E-01 1.01372E-07-1.76964E-09 2.90038E-03
 -1     13594-1.64087E-02 3.36103E-06 1.49753E-01 1.01372E-07 1.76964E-09-2.90038E-03
 -1     13595-5.20803E-01 1.66463E-04 6.54730E-01 5.17991E-08-9.04506E-10 2.05205E-02
 -1     13597-5.20803E-01 1.66463E-04 6.54730E-01 5.17991E-08 9.04506E-10-2.05205E-02
 -1     13598-4.93323E-01-7.43230E-05 6.26388E-01 3.08053E-07-5.40397E-09 1.95470E-02
 -1     13600-4.93323E-01-7.43230E-05 6.26388E-01 3.08053E-07 5.40397E-09-1.95470E-02
 -1     13601-4.65169E-01 1.35783E-04 5.98989E-01 2.38241E-06-4.15908E-08 1.85762E-02
 -1     13603-4.65169E-01 1.35783E-04 5.98989E-01 2.38241E-06 4.15908E-08-1.85762E-02
 -1     13604-4.93197E-01-7.52247E-05 6.26260E-01-1.73841E-06 3.03467E-08 1.95426E-02
 -1     13606-4.93197E-01-7.52247E-05 6.26260E-01-1.73841E-06-3.03467E-08-1.95426E-02
 -1     13607-4.75719E-02-1.85486E-08 1.80904E-01-1.38107E-08 2.39587E-10 3.98817E-03
 -1     13609-4.75719E-02-1.85486E-08 1.80904E-01-1.38107E-08-2.39587E-10-3.98817E-03
 -1     13610-9.59827E-02 2.91006E-09 2.29315E-01-8.21868E-06 1.43482E-07 5.67822E-03
 -1     13612-9.59827E-02 2.91006E-09 2.29315E-01-8.21868E-06-1.43482E-07-5.67822E-03
 -1     13613-9.85748E-02 4.18215E-09 2.31907E-01-2.69765E-09 4.86946E-11 5.76880E-03
 -1     13615-9.85748E-02 4.18215E-09 2.31907E-01-2.69765E-09-4.86946E-11-5.76880E-03
 -1     13616-9.10870E-02 8.98580E-09 2.24419E-01 7.73168E-06-1.34980E-07 5.50730E-03
 -1     13618-9.10870E-02 8.98579E-09 2.24419E-01 7.73168E-06 1.34980E-07-5.50730E-03
 -1     13619-4.93021E-01-7.44536E-05 6.26087E-01-8.85249E-07 1.54387E-08 1.95365E-02
 -1     13621-4.93021E-01-7.44536E-05 6.26087E-01-8.85249E-07-1.54387E-08-1.95365E-02
 -1     13622-4.93070E-01-7.48150E-05 6.26135E-01 6.60975E-07-1.15047E-08 1.95381E-02
 -1     13624-4.93070E-01-7.48150E-05 6.26135E-01 6.60975E-07 1.15047E-08-1.95381E-02
 -1     13625-4.64796E-01 1.36100E-04 5.98611E-01 4.99182E-07-8.71678E-09 1.85630E-02
 -1     13627-4.64796E-01 1.36100E-04 5.98611E-01 4.99182E-07 8.71678E-09-1.85630E-02
 -1     13628-4.64518E-01 1.35004E-04 5.98333E-01 2.92812E-06-5.11150E-08 1.85534E-02
 -1     13630-4.64518E-01 1.35004E-04 5.98333E-01 2.92812E-06 5.11150E-08-1.85534E-02
 -1     13631-4.03331E-02-6.03142E-08 1.73665E-01 3.93866E-06-6.87542E-08 3.73541E-03
 -1     13633-4.03331E-02-6.03142E-08 1.73665E-01 3.93866E-06 6.87542E-08-3.73541E-03
 -1     13634-4.31358E-02 8.59612E-08 1.76468E-01-4.03847E-06 7.05062E-08 3.83326E-03
 -1     13636-4.31358E-02 8.59612E-08 1.76468E-01-4.03847E-06-7.05062E-08-3.83326E-03
 -1     13637-3.89308E-02-3.23220E-08 1.72263E-01-6.62346E-08 1.15437E-09 3.68650E-03
 -1     13639-3.89308E-02-3.23220E-08 1.72263E-01-6.62346E-08-1.15437E-09-3.68650E-03
 -1     13640-2.44314E-01 6.32314E-07 3.77649E-01-2.88821E-05 5.04210E-07 1.08569E-02
 -1     13642-2.44314E-01 6.32314E-07 3.77649E-01-2.88821E-05-5.04210E-07-1.08569E-02
 -1     13643-2.51143E-01 6.44340E-07 3.84476E-01 3.32435E-07-5.78113E-09 1.10956E-02
 -1     13645-2.51143E-01 6.44340E-07 3.84476E-01 3.32435E-07 5.78113E-09-1.10956E-02
 -1     13646-2.31635E-01-6.39609E-07 3.64966E-01 2.67625E-05-4.67199E-07 1.04142E-02
 -1     13648-2.31635E-01-6.39609E-07 3.64966E-01 2.67625E-05 4.67199E-07-1.04142E-02
 -1     13649-4.59160E-01 1.29084E-04 5.92951E-01-2.87037E-05 5.01162E-07 1.83659E-02
 -1     13651-4.59160E-01 1.29084E-04 5.92951E-01-2.87037E-05-5.01162E-07-1.83659E-02
 -1     13652-1.63462E-02 2.50435E-06 1.49687E-01 1.30314E-06-2.27425E-08 2.89816E-03
 -1     13654-1.63462E-02 2.50435E-06 1.49687E-01 1.30314E-06 2.27425E-08-2.89816E-03
 -1     13655-4.65685E-01 1.21344E-04 5.99448E-01-1.31546E-06 2.29981E-08 1.85932E-02
 -1     13657-4.65685E-01 1.21344E-04 5.99448E-01-1.31546E-06-2.29981E-08-1.85932E-02
 -1     13658-1.37625E-01 4.01641E-08 2.70957E-01 1.29914E-05-2.26807E-07 7.13205E-03
 -1     13660-1.37625E-01 4.01641E-08 2.70957E-01 1.29914E-05 2.26807E-07-7.13205E-03
 -1     13661-1.44861E-01 1.84898E-08 2.78193E-01-1.38892E-05 2.42480E-07 7.38467E-03
 -1     13663-1.44861E-01 1.84898E-08 2.78193E-01-1.38892E-05-2.42480E-07-7.38467E-03
 -1     13664-1.66719E-02 3.75680E-06 1.50017E-01-4.29086E-07 7.49087E-09 2.90960E-03
 -1     13666-1.66719E-02 3.75680E-06 1.50017E-01-4.29086E-07-7.49087E-09-2.90960E-03
 -1     13667-1.12112E-01 1.94890E-08 2.45444E-01 9.91773E-06-1.73145E-07 6.24131E-03
 -1     13669-1.12112E-01 1.94890E-08 2.45444E-01 9.91773E-06 1.73145E-07-6.24131E-03
 -1     13670-1.18024E-01 2.04490E-08 2.51356E-01-1.05819E-05 1.84740E-07 6.44772E-03
 -1     13672-1.18024E-01 2.04490E-08 2.51356E-01-1.05819E-05-1.84740E-07-6.44772E-03
 -1     13673-1.09328E-01 7.24585E-09 2.42660E-01-7.87100E-09 1.38859E-10 6.14423E-03
 -1     13675-1.09328E-01 7.24585E-09 2.42660E-01-7.87100E-09-1.38859E-10-6.14423E-03
 -1     13676-1.69042E-01 5.14560E-08 3.02374E-01 1.74211E-05-3.04140E-07 8.22889E-03
 -1     13678-1.69042E-01 5.14560E-08 3.02374E-01 1.74211E-05 3.04140E-07-8.22889E-03
 -1     13679-1.78034E-01-8.46278E-08 3.11366E-01-1.86955E-05 3.26390E-07 8.54281E-03
 -1     13681-1.78034E-01-8.46278E-08 3.11366E-01-1.86955E-05-3.26390E-07-8.54281E-03
 -1     13682-1.69427E-02 2.83789E-07 1.50276E-01-2.55460E-06 4.44585E-08 2.91884E-03
 -1     13684-1.69427E-02 2.83789E-07 1.50276E-01-2.55460E-06-4.44585E-08-2.91884E-03
 -1     13685-1.57071E-02-6.33092E-07 1.49038E-01 4.12676E-07-7.28199E-09 2.87571E-03
 -1     13687-1.57071E-02-6.33092E-07 1.49038E-01 4.12676E-07 7.28199E-09-2.87571E-03
 -1     13688-3.19585E-01 9.06137E-06 4.52938E-01 4.73889E-05-8.27624E-07 1.34851E-02
 -1     13690-3.19585E-01 9.06137E-06 4.52938E-01 4.73889E-05 8.27624E-07-1.34851E-02
 -1     13691-3.38534E-01-1.46659E-05 4.71820E-01-4.51897E-05 7.88630E-07 1.41456E-02
 -1     13693-3.38534E-01-1.46659E-05 4.71820E-01-4.51897E-05-7.88630E-07-1.41456E-02
 -1     13694-3.10789E-01 4.77758E-07 4.44117E-01-1.21067E-06 2.11435E-08 1.31780E-02
 -1     13696-3.10789E-01 4.77758E-07 4.44117E-01-1.21067E-06-2.11435E-08-1.31780E-02
 -1     13697-1.48300E-02-1.59698E-06 1.48156E-01 3.25087E-08-5.62911E-10 2.84499E-03
 -1     13699-1.48300E-02-1.59698E-06 1.48156E-01 3.25087E-08 5.62911E-10-2.84499E-03
 -1     13700-1.48457E-02-1.64449E-06 1.48172E-01 4.81721E-08-8.47963E-10 2.84553E-03
 -1     13702-1.48457E-02-1.64449E-06 1.48172E-01 4.81721E-08 8.47963E-10-2.84553E-03
 -1     13703-6.58438E-02-4.26314E-08 1.99176E-01 5.51961E-06-9.63615E-08 4.62602E-03
 -1     13705-6.58438E-02-4.26314E-08 1.99176E-01 5.51961E-06 9.63615E-08-4.62602E-03
 -1     13706-6.96178E-02 3.66186E-08 2.02950E-01-5.82597E-06 1.01709E-07 4.75778E-03
 -1     13708-6.96178E-02 3.66186E-08 2.02950E-01-5.82597E-06-1.01709E-07-4.75778E-03
 -1     13709-6.40586E-02-1.45242E-08 1.97391E-01 3.05897E-08-5.34211E-10 4.56376E-03
 -1     13711-6.40586E-02-1.45242E-08 1.97391E-01 3.05897E-08 5.34211E-10-4.56376E-03
 -1     13712-1.64325E-02 3.38244E-06 1.49776E-01-1.54781E-07 2.70206E-09 2.90121E-03
 -1     13714-1.64325E-02 3.38244E-06 1.49776E-01-1.54781E-07-2.70206E-09-2.90121E-03
 -1     13715-7.35493E-02-2.48214E-08 2.06881E-01 6.14134E-06-1.07216E-07 4.89503E-03
 -1     13717-7.35493E-02-2.48214E-08 2.06881E-01 6.14134E-06 1.07216E-07-4.89503E-03
 -1     13718-7.76525E-02 1.88520E-08 2.10985E-01-6.49960E-06 1.13469E-07 5.03828E-03
 -1     13720-7.76525E-02 1.88520E-08 2.10985E-01-6.49960E-06-1.13469E-07-5.03828E-03
 -1     13721-7.16100E-02-1.15354E-08 2.04942E-01 2.06282E-08-3.59753E-10 4.82739E-03
 -1     13723-7.16100E-02-1.15353E-08 2.04942E-01 2.06282E-08 3.59753E-10-4.82739E-03
 -1     13724-2.53125E-02 6.34875E-07 1.58647E-01 2.87803E-06-5.02384E-08 3.21107E-03
 -1     13726-2.53125E-02 6.34875E-07 1.58647E-01 2.87803E-06 5.02384E-08-3.21107E-03
 -1     13727-2.75866E-02-4.12397E-07 1.60917E-01-2.87017E-06 5.01193E-08 3.29040E-03
 -1     13729-2.75866E-02-4.12397E-07 1.60917E-01-2.87017E-06-5.01193E-08-3.29040E-03
 -1     13730-8.19337E-02-6.08015E-09 2.15266E-01 6.87445E-06-1.20015E-07 5.18775E-03
 -1     13732-8.19337E-02-6.08015E-09 2.15266E-01 6.87445E-06 1.20015E-07-5.18775E-03
 -1     13733-8.64094E-02 6.21811E-09 2.19741E-01-7.29319E-06 1.27324E-07 5.34400E-03
 -1     13735-8.64094E-02 6.21811E-09 2.19741E-01-7.29319E-06-1.27324E-07-5.34400E-03
 -1     13736-8.87760E-02-5.95407E-09 2.22108E-01 2.81800E-09-4.81585E-11 5.42670E-03
 -1     13738-8.87760E-02-5.95407E-09 2.22108E-01 2.81800E-09 4.81585E-11-5.42670E-03
 -1     13739-7.98202E-02-7.85614E-09 2.13152E-01 1.05973E-08-1.84198E-10 5.11403E-03
 -1     13741-7.98202E-02-7.85615E-09 2.13152E-01 1.05973E-08 1.84198E-10-5.11403E-03
 -1     13742-1.24231E-01 2.59903E-08 2.57563E-01 1.13088E-05-1.97431E-07 6.66441E-03
 -1     13744-1.24231E-01 2.59903E-08 2.57563E-01 1.13088E-05 1.97431E-07-6.66441E-03
 -1     13745-1.30759E-01 2.97719E-08 2.64091E-01-1.20877E-05 2.11029E-07 6.89232E-03
 -1     13747-1.30759E-01 2.97719E-08 2.64091E-01-1.20877E-05-2.11029E-07-6.89232E-03
 -1     13748-1.21163E-01 1.91651E-08 2.54495E-01-1.09019E-08 1.92071E-10 6.55742E-03
 -1     13750-1.21163E-01 1.91651E-08 2.54495E-01-1.09019E-08-1.92071E-10-6.55742E-03
 -1     13751-5.53912E-02 7.83360E-08 1.88723E-01-4.76039E-06 8.31064E-08 4.26111E-03
 -1     13753-5.53912E-02 7.83360E-08 1.88723E-01-4.76039E-06-8.31064E-08-4.26111E-03
 -1     13754-5.70882E-02-1.72829E-08 1.90420E-01 3.18762E-08-5.57386E-10 4.32040E-03
 -1     13756-5.70882E-02-1.72829E-08 1.90420E-01 3.18762E-08 5.57386E-10-4.32040E-03
 -1     13757-5.21717E-02-7.56888E-08 1.85503E-01 4.55042E-06-7.94385E-08 4.14871E-03
 -1     13759-5.21717E-02-7.56888E-08 1.85503E-01 4.55042E-06 7.94385E-08-4.14871E-03
 -1     13760-1.87561E-01 4.56905E-09 3.20893E-01 2.02460E-05-3.53453E-07 8.87543E-03
 -1     13762-1.87561E-01 4.56905E-09 3.20893E-01 2.02460E-05 3.53453E-07-8.87543E-03
 -1     13763-1.97640E-01-6.97379E-08 3.30972E-01-2.17927E-05 3.80458E-07 9.22732E-03
 -1     13765-1.97640E-01-6.97379E-08 3.30972E-01-2.17927E-05-3.80458E-07-9.22732E-03
 -1     13766-1.82860E-01-1.00995E-07 3.16192E-01 6.35137E-09-1.13687E-10 8.71151E-03
 -1     13768-1.82860E-01-1.00995E-07 3.16192E-01 6.35137E-09 1.13687E-10-8.71151E-03
 -1     13769-1.49884E-02-1.76518E-06 1.48314E-01-1.54299E-07 2.69892E-09 2.85051E-03
 -1     13771-1.49884E-02-1.76518E-06 1.48314E-01-1.54299E-07-2.69892E-09-2.85051E-03
 -1     13772-1.49846E-02-1.62109E-06 1.48311E-01-9.10369E-08 1.60609E-09 2.85038E-03
 -1     13774-1.49846E-02-1.62109E-06 1.48311E-01-9.10369E-08-1.60609E-09-2.85038E-03
 -1     13775-1.42428E-02-1.33193E-06 1.47570E-01 2.44898E-07-4.44414E-09 2.82449E-03
 -1     13777-1.42428E-02-1.33193E-06 1.47570E-01 2.44898E-07 4.44414E-09-2.82449E-03
 -1     13778-1.58995E-02 2.56836E-06 1.49239E-01-1.47928E-06 2.58006E-08 2.88253E-03
 -1     13780-1.58995E-02 2.56836E-06 1.49239E-01-1.47928E-06-2.58006E-08-2.88253E-03
 -1     13781-1.43709E-02-7.81267E-07 1.47700E-01-1.09753E-06 1.93681E-08 2.82899E-03
 -1     13783-1.43709E-02-7.81267E-07 1.47700E-01-1.09753E-06-1.93681E-08-2.82899E-03
 -1     13784-1.63927E-02 3.34014E-06 1.49737E-01-6.44258E-09 1.12490E-10 2.89982E-03
 -1     13786-1.63927E-02 3.34014E-06 1.49737E-01-6.44258E-09-1.12490E-10-2.89982E-03
 -1     13787-1.41876E-02-9.64320E-08 1.47521E-01 1.65823E-06-2.90549E-08 2.82266E-03
 -1     13789-1.41876E-02-9.64320E-08 1.47521E-01 1.65823E-06 2.90549E-08-2.82266E-03
 -1     13790-2.86665E-02 2.04848E-07 1.61998E-01-2.15317E-07 3.77486E-09 3.32815E-03
 -1     13792-2.86665E-02 2.04848E-07 1.61998E-01-2.15317E-07-3.77486E-09-3.32815E-03
 -1     13793-4.93083E-01-7.47911E-05 6.26147E-01 5.92610E-07-1.03619E-08 1.95386E-02
 -1     13795-4.93083E-01-7.47911E-05 6.26147E-01 5.92610E-07 1.03619E-08-1.95386E-02
 -1     13796-4.64866E-01 1.36555E-04 5.98687E-01 1.36488E-06-2.38273E-08 1.85656E-02
 -1     13798-4.64866E-01 1.36555E-04 5.98687E-01 1.36488E-06 2.38273E-08-1.85656E-02
 -1     13799-4.93018E-01-7.49960E-05 6.26082E-01-1.10316E-06 1.92824E-08 1.95363E-02
 -1     13801-4.93018E-01-7.49960E-05 6.26082E-01-1.10316E-06-1.92824E-08-1.95363E-02
 -1     13802-1.34231E-01 2.62028E-08 2.67563E-01-1.29791E-08 2.28434E-10 7.01367E-03
 -1     13804-1.34231E-01 2.62028E-08 2.67563E-01-1.29791E-08-2.28434E-10-7.01367E-03
 -1     13805-1.65633E-02 3.67545E-06 1.49908E-01 2.80460E-07-4.89612E-09 2.90580E-03
 -1     13807-1.65633E-02 3.67545E-06 1.49908E-01 2.80460E-07 4.89612E-09-2.90580E-03
 -1     13808-2.40912E-02-6.13160E-08 1.57423E-01-2.22261E-07 3.90278E-09 3.16841E-03
 -1     13810-2.40912E-02-6.13160E-08 1.57423E-01-2.22261E-07-3.90278E-09-3.16841E-03
 -1     13811-1.66357E-02 3.96969E-06 1.49982E-01 3.04040E-07-5.30715E-09 2.90835E-03
 -1     13813-1.66357E-02 3.96969E-06 1.49982E-01 3.04040E-07 5.30715E-09-2.90835E-03
 -1     13814-1.30746E-01 3.03481E-08 2.64078E-01 1.20605E-05-2.10555E-07 6.89187E-03
 -1     13816-1.30746E-01 3.03481E-08 2.64078E-01 1.20605E-05 2.10555E-07-6.89187E-03
 -1     13817-1.37612E-01 5.31217E-08 2.70944E-01-1.29074E-05 2.25339E-07 7.13160E-03
 -1     13819-1.37612E-01 5.31217E-08 2.70944E-01-1.29074E-05-2.25339E-07-7.13160E-03
 -1     13820-1.47032E-02-1.27998E-07 1.48038E-01-1.74009E-06 3.04439E-08 2.84069E-03
 -1     13822-1.47032E-02-1.27998E-07 1.48038E-01-1.74009E-06-3.04439E-08-2.84069E-03
 -1     13823-4.37178E-01-4.65417E-05 5.70339E-01 8.92529E-06-1.55950E-07 1.75883E-02
 -1     13825-4.37178E-01-4.65417E-05 5.70339E-01 8.92529E-06 1.55950E-07-1.75883E-02
 -1     13826-4.34465E-01-6.29591E-05 5.67561E-01 2.52024E-05-4.39254E-07 1.74923E-02
 -1     13828-4.34465E-01-6.29591E-05 5.67561E-01 2.52024E-05 4.39254E-07-1.74923E-02
 -1     13829-4.40999E-01-6.21871E-05 5.74108E-01-1.97798E-06 3.45205E-08 1.77207E-02
 -1     13831-4.40999E-01-6.21871E-05 5.74108E-01-1.97798E-06-3.45205E-08-1.77207E-02
 -1     13832-4.41183E-01-6.07592E-05 5.74296E-01-4.20154E-07 7.28846E-09 1.77272E-02
 -1     13834-4.41183E-01-6.07592E-05 5.74296E-01-4.20154E-07-7.28846E-09-1.77272E-02
 -1     13835-1.80873E-02-1.82440E-06 1.51413E-01-6.57860E-08 1.15938E-09 2.95869E-03
 -1     13837-1.80873E-02-1.82440E-06 1.51413E-01-6.57860E-08-1.15938E-09-2.95869E-03
 -1     13838-1.80681E-02-1.71514E-06 1.51394E-01-5.25815E-08 9.18312E-10 2.95803E-03
 -1     13840-1.80681E-02-1.71514E-06 1.51394E-01-5.25815E-08-9.18312E-10-2.95803E-03
 -1     13841-1.80717E-02-1.70128E-06 1.51398E-01 7.75768E-08-1.34858E-09 2.95815E-03
 -1     13843-1.80717E-02-1.70128E-06 1.51398E-01 7.75768E-08 1.34858E-09-2.95815E-03
 -1     13844-1.81096E-02-1.81767E-06 1.51435E-01 8.95794E-08-1.57517E-09 2.95947E-03
 -1     13846-1.81096E-02-1.81767E-06 1.51435E-01 8.95794E-08 1.57517E-09-2.95947E-03
 -1     13847-1.84518E-02-2.02325E-06 1.51776E-01-1.67962E-07 2.97743E-09 2.97141E-03
 -1     13849-1.84518E-02-2.02325E-06 1.51776E-01-1.67962E-07-2.97743E-09-2.97141E-03
 -1     13850-1.84319E-02-1.90149E-06 1.51757E-01-3.26099E-07 5.72629E-09 2.97072E-03
 -1     13852-1.84319E-02-1.90149E-06 1.51757E-01-3.26099E-07-5.72629E-09-2.97072E-03
 -1     13853-1.78089E-02-4.25062E-07 1.51138E-01-2.66765E-07 4.74457E-09 2.94903E-03
 -1     13855-1.78089E-02-4.25062E-07 1.51138E-01-2.66765E-07-4.74457E-09-2.94903E-03
 -1     13856-1.86300E-02 6.25472E-07 1.51965E-01 2.04666E-06-3.57870E-08 2.97779E-03
 -1     13858-1.86300E-02 6.25472E-07 1.51965E-01 2.04666E-06 3.57870E-08-2.97779E-03
 -1     13859-2.07031E-02-8.76709E-07 1.54031E-01-2.03072E-06 3.54229E-08 3.05004E-03
 -1     13861-2.07031E-02-8.76709E-07 1.54031E-01-2.03072E-06-3.54229E-08-3.05004E-03
 -1     13862-1.80386E-02-1.54851E-06 1.51365E-01-1.15658E-06 2.02427E-08 2.95701E-03
 -1     13864-1.80386E-02-1.54851E-06 1.51365E-01-1.15658E-06-2.02427E-08-2.95701E-03
 -1     13865-1.83104E-02-2.06405E-06 1.51635E-01-1.11409E-07 1.96725E-09 2.96647E-03
 -1     13867-1.83104E-02-2.06405E-06 1.51635E-01-1.11409E-07-1.96725E-09-2.96647E-03
 -1     13868-1.82556E-02-1.79995E-06 1.51581E-01-1.77811E-07 3.11058E-09 2.96457E-03
 -1     13870-1.82556E-02-1.79995E-06 1.51581E-01-1.77811E-07-3.11058E-09-2.96457E-03
 -1     13871-2.01146E-02 3.99011E-06 1.53460E-01 5.29432E-07-9.24260E-09 3.02979E-03
 -1     13873-2.01146E-02 3.99011E-06 1.53460E-01 5.29432E-07 9.24260E-09-3.02979E-03
 -1     13874-2.08338E-01-1.87524E-07 3.41669E-01 2.33823E-05-4.08194E-07 9.60080E-03
 -1     13876-2.08338E-01-1.87524E-07 3.41669E-01 2.33823E-05 4.08194E-07-9.60080E-03
 -1     13877-2.19638E-01 1.41603E-07 3.52971E-01-2.52016E-05 4.39967E-07 9.99534E-03
 -1     13879-2.19638E-01 1.41603E-07 3.52971E-01-2.52016E-05-4.39967E-07-9.99534E-03
 -1     13880-2.25755E-01 6.69411E-08 3.59087E-01 2.16223E-07-3.76882E-09 1.02092E-02
 -1     13882-2.25755E-01 6.69411E-08 3.59087E-01 2.16223E-07 3.76882E-09-1.02092E-02
 -1     13883-2.03074E-01-9.14759E-08 3.36406E-01 5.76478E-08-1.00798E-09 9.41725E-03
 -1     13885-2.03074E-01-9.14759E-08 3.36406E-01 5.76478E-08 1.00798E-09-9.41725E-03
 -1     13886-1.83776E-02-1.69658E-06 1.51703E-01 2.64861E-07-4.63911E-09 2.96883E-03
 -1     13888-1.83776E-02-1.69658E-06 1.51703E-01 2.64861E-07 4.63911E-09-2.96883E-03
 -1     13889-1.84579E-02-2.15566E-06 1.51783E-01 3.87887E-07-6.79536E-09 2.97161E-03
 -1     13891-1.84579E-02-2.15566E-06 1.51783E-01 3.87887E-07 6.79536E-09-2.97161E-03
 -1     13892-1.60537E-01-2.79421E-08 2.93869E-01-1.60643E-05 2.80454E-07 7.93194E-03
 -1     13894-1.60537E-01-2.79421E-08 2.93869E-01-1.60643E-05-2.80454E-07-7.93194E-03
 -1     13895-1.64838E-01-4.53585E-08 2.98170E-01-7.90178E-09 1.36920E-10 8.08227E-03
 -1     13897-1.64838E-01-4.53585E-08 2.98170E-01-7.90179E-09-1.36920E-10-8.08227E-03
 -1     13898-1.52486E-01 5.35081E-08 2.85818E-01 1.50091E-05-2.62032E-07 7.65087E-03
 -1     13900-1.52486E-01 5.35081E-08 2.85818E-01 1.50091E-05 2.62032E-07-7.65087E-03
 -1     13901-1.40902E-02 5.56728E-07 1.47419E-01-4.21452E-07 7.23458E-09 2.81921E-03
 -1     13903-1.40902E-02 5.56728E-07 1.47419E-01-4.21452E-07-7.23458E-09-2.81921E-03
 -1     13904-1.60442E-02-1.82968E-07 1.49375E-01-1.84429E-06 3.21499E-08 2.88743E-03
 -1     13906-1.60442E-02-1.82968E-07 1.49375E-01-1.84429E-06-3.21499E-08-2.88743E-03
 -1     13907-1.50426E-02-7.19233E-07 1.48374E-01-3.16668E-07 5.54938E-09 2.85250E-03
 -1     13909-1.50426E-02-7.19233E-07 1.48374E-01-3.16668E-07-5.54938E-09-2.85250E-03
 -1     13910-1.62255E-02 4.35964E-07 1.49558E-01 2.14786E-06-3.74107E-08 2.89379E-03
 -1     13912-1.62255E-02 4.35964E-07 1.49558E-01 2.14786E-06 3.74107E-08-2.89379E-03
 -1     13913-1.77183E-02 4.48114E-07 1.51052E-01 1.86124E-06-3.24926E-08 2.94592E-03
 -1     13915-1.77183E-02 4.48114E-07 1.51052E-01 1.86124E-06 3.24926E-08-2.94592E-03
 -1     13916-1.86136E-02-1.72355E-06 1.51939E-01-3.28526E-08 5.27799E-10 2.97706E-03
 -1     13918-1.86136E-02-1.72355E-06 1.51939E-01-3.28526E-08-5.27799E-10-2.97706E-03
 -1     13919-1.86333E-02-2.04997E-06 1.51957E-01 4.75963E-07-8.28212E-09 2.97774E-03
 -1     13921-1.86333E-02-2.04997E-06 1.51957E-01 4.75963E-07 8.28212E-09-2.97774E-03
 -1     13922-2.03086E-02 4.65478E-06 1.53656E-01-1.10992E-06 1.93758E-08 3.03660E-03
 -1     13924-2.03086E-02 4.65478E-06 1.53656E-01-1.10992E-06-1.93758E-08-3.03660E-03
 -1     13925-1.81804E-02-1.90413E-06 1.51506E-01-1.03358E-07 1.81558E-09 2.96194E-03
 -1     13927-1.81804E-02-1.90413E-06 1.51506E-01-1.03358E-07-1.81558E-09-2.96194E-03
 -1     13928-1.81382E-02-1.71470E-06 1.51464E-01-1.10296E-07 1.92819E-09 2.96047E-03
 -1     13930-1.81382E-02-1.71470E-06 1.51464E-01-1.10296E-07-1.92819E-09-2.96047E-03
 -1     13931-1.99154E-02 3.74215E-06 1.53261E-01 3.54402E-07-6.18712E-09 3.02283E-03
 -1     13933-1.99154E-02 3.74215E-06 1.53261E-01 3.54402E-07 6.18712E-09-3.02283E-03
 -1     13934-1.85814E-02-1.84516E-06 1.51907E-01-8.18620E-07 1.42619E-08 2.97594E-03
 -1     13936-1.85814E-02-1.84516E-06 1.51907E-01-8.18620E-07-1.42619E-08-2.97594E-03
 -1     13937-1.84696E-02-9.46622E-07 1.51797E-01-5.23068E-07 9.22466E-09 2.97207E-03
 -1     13939-1.84696E-02-9.46622E-07 1.51797E-01-5.23068E-07-9.22466E-09-2.97207E-03
 -1     13940-2.04112E-02 3.22129E-06 1.53759E-01 6.21431E-07-1.08510E-08 3.04020E-03
 -1     13942-2.04112E-02 3.22129E-06 1.53759E-01 6.21431E-07 1.08510E-08-3.04020E-03
 -1     13943-4.60569E-02-8.37676E-08 1.79389E-01 4.22743E-06-7.37973E-08 3.93523E-03
 -1     13945-4.60569E-02-8.37676E-08 1.79389E-01 4.22743E-06 7.37973E-08-3.93523E-03
 -1     13946-4.90578E-02 9.91665E-08 1.82390E-01-4.36975E-06 7.62848E-08 4.04001E-03
 -1     13948-4.90578E-02 9.91665E-08 1.82390E-01-4.36975E-06-7.62848E-08-4.04001E-03
 -1     13949-4.45930E-02-3.53141E-08 1.77925E-01-1.74935E-09 2.76379E-11 3.88417E-03
 -1     13951-4.45930E-02-3.53141E-08 1.77925E-01-1.74935E-09-2.76379E-11-3.88417E-03
 -1     13952-4.41390E-01-4.57560E-05 5.74502E-01-1.12822E-05 1.95510E-07 1.77347E-02
 -1     13954-4.41390E-01-4.57560E-05 5.74502E-01-1.12822E-05-1.95510E-07-1.77347E-02
 -1     13955-4.40268E-01-6.58634E-05 5.73376E-01-3.93541E-06 6.83962E-08 1.76952E-02
 -1     13957-4.40268E-01-6.58634E-05 5.73376E-01-3.93541E-06-6.83962E-08-1.76952E-02
 -1     13958-4.41636E-01-6.00150E-05 5.74753E-01-1.41924E-07 2.30379E-09 1.77431E-02
 -1     13960-4.41636E-01-6.00150E-05 5.74753E-01-1.41924E-07-2.30379E-09-1.77431E-02
 -1     13961-4.41231E-01-6.09611E-05 5.74342E-01 3.80609E-06-6.63299E-08 1.77288E-02
 -1     13963-4.41231E-01-6.09611E-05 5.74342E-01 3.80609E-06 6.63299E-08-1.77288E-02
 -1     13964-1.86495E-02 1.86207E-07 1.51981E-01-7.17754E-08 1.24660E-09 2.97842E-03
 -1     13966-1.86495E-02 1.86207E-07 1.51981E-01-7.17754E-08-1.24660E-09-2.97842E-03
 -1     13967-1.81822E-02-1.68829E-06 1.51508E-01 1.72188E-07-3.00819E-09 2.96201E-03
 -1     13969-1.81822E-02-1.68829E-06 1.51508E-01 1.72188E-07 3.00819E-09-2.96201E-03
 -1     13970-1.82456E-02-1.95894E-06 1.51571E-01 1.95774E-07-3.44001E-09 2.96421E-03
 -1     13972-1.82456E-02-1.95894E-06 1.51571E-01 1.95774E-07 3.44001E-09-2.96421E-03
 -1     13973-1.98120E-02 3.65446E-06 1.53157E-01-3.18742E-07 5.56407E-09 3.01921E-03
 -1     13975-1.98120E-02 3.65446E-06 1.53157E-01-3.18742E-07-5.56407E-09-3.01921E-03
 -1     13976-4.41485E-01-6.16007E-05 5.74598E-01-1.85897E-06 3.23624E-08 1.77377E-02
 -1     13978-4.41485E-01-6.16007E-05 5.74598E-01-1.85897E-06-3.23624E-08-1.77377E-02
 -1     13979-4.41558E-01-6.01295E-05 5.74672E-01 4.69540E-07-8.19943E-09 1.77403E-02
 -1     13981-4.41558E-01-6.01295E-05 5.74672E-01 4.69540E-07 8.19943E-09-1.77403E-02
 -1     13982-4.16922E-01 1.12425E-04 5.50658E-01 3.52280E-06-6.14992E-08 1.68902E-02
 -1     13984-4.16922E-01 1.12425E-04 5.50658E-01 3.52280E-06 6.14992E-08-1.68902E-02
 -1     13985-2.27536E-02 1.15238E-06 1.56090E-01 2.23484E-06-3.90173E-08 3.12177E-03
 -1     13987-2.27536E-02 1.15238E-06 1.56090E-01 2.23484E-06 3.90173E-08-3.12177E-03
 -1     13988-2.49533E-02-6.89748E-07 1.58282E-01-2.72492E-06 4.75998E-08 3.19843E-03
 -1     13990-2.49533E-02-6.89748E-07 1.58282E-01-2.72492E-06-4.75998E-08-3.19843E-03
 -1     13991-4.93024E-01-7.45320E-05 6.26089E-01-5.91193E-07 1.03378E-08 1.95366E-02
 -1     13993-4.93024E-01-7.45320E-05 6.26089E-01-5.91193E-07-1.03378E-08-1.95366E-02
 -1     13994-4.93031E-01-7.49417E-05 6.26096E-01 1.00190E-06-1.74807E-08 1.95368E-02
 -1     13996-4.93031E-01-7.49417E-05 6.26096E-01 1.00190E-06 1.74807E-08-1.95368E-02
 -1     13997-4.64830E-01 1.35692E-04 5.98647E-01-5.54744E-07 9.68430E-09 1.85643E-02
 -1     13999-4.64830E-01 1.35692E-04 5.98647E-01-5.54744E-07-9.68430E-09-1.85643E-02
 -1     14000-1.48716E-01 4.40078E-09 2.82048E-01-8.73690E-09 1.53221E-10 7.51939E-03
 -1     14002-1.48716E-01 4.40078E-09 2.82048E-01-8.73690E-09-1.53221E-10-7.51939E-03
 -1     14003-4.40474E-01-6.48333E-05 5.73580E-01-1.34420E-06 2.33807E-08 1.77023E-02
 -1     14005-4.40474E-01-6.48333E-05 5.73580E-01-1.34420E-06-2.33807E-08-1.77023E-02
 -1     14006-4.40656E-01-6.03844E-05 5.73774E-01-2.11211E-06 3.68352E-08 1.77089E-02
 -1     14008-4.40656E-01-6.03844E-05 5.73774E-01-2.11211E-06-3.68352E-08-1.77089E-02
 -1     14009-1.80474E-02-1.77250E-06 1.51373E-01-9.94891E-09 1.81679E-10 2.95730E-03
 -1     14011-1.80474E-02-1.77250E-06 1.51373E-01-9.94892E-09-1.81679E-10-2.95730E-03
 -1     14012-1.80500E-02-1.73244E-06 1.51376E-01 6.10368E-09-1.13004E-10 2.95739E-03
 -1     14014-1.80500E-02-1.73244E-06 1.51376E-01 6.10368E-09 1.13004E-10-2.95739E-03
 -1     14015-1.97152E-02 3.59618E-06 1.53060E-01 1.05767E-07-1.84641E-09 3.01583E-03
 -1     14017-1.97152E-02 3.59618E-06 1.53060E-01 1.05767E-07 1.84641E-09-3.01583E-03
 -1     14018-4.40561E-01-5.49971E-05 5.73697E-01 3.93646E-06-6.89156E-08 1.77059E-02
 -1     14020-4.40561E-01-5.49971E-05 5.73697E-01 3.93646E-06 6.89156E-08-1.77059E-02
 -1     14021-4.39262E-01-6.29453E-05 5.72364E-01 1.08673E-05-1.89354E-07 1.76598E-02
 -1     14023-4.39262E-01-6.29453E-05 5.72364E-01 1.08673E-05 1.89354E-07-1.76598E-02
 -1     14024-4.16755E-01 1.08787E-04 5.50471E-01-5.34178E-06 9.32698E-08 1.68840E-02
 -1     14026-4.16755E-01 1.08787E-04 5.50471E-01-5.34178E-06-9.32698E-08-1.68840E-02
 -1     14027-3.22516E-02 1.54962E-08 1.65583E-01 3.70086E-06-6.45944E-08 3.45328E-03
 -1     14029-3.22516E-02 1.54962E-08 1.65583E-01 3.70086E-06 6.45944E-08-3.45328E-03
 -1     14030-3.48227E-02 1.20723E-07 1.68155E-01-3.67645E-06 6.41986E-08 3.54305E-03
 -1     14032-3.48227E-02 1.20723E-07 1.68155E-01-3.67645E-06-6.41986E-08-3.54305E-03
 -1     14033-4.09834E-01-4.58470E-05 5.43016E-01 6.92425E-05-1.20855E-06 1.66336E-02
 -1     14035-4.09834E-01-4.58470E-05 5.43016E-01 6.92425E-05 1.20855E-06-1.66336E-02
 -1     14036-3.83738E-01 4.85085E-05 5.17226E-01-7.93810E-05 1.38597E-06 1.57275E-02
 -1     14038-3.83738E-01 4.85085E-05 5.17226E-01-7.93810E-05-1.38597E-06-1.57275E-02
 -1     14039-4.18940E-01-2.05940E-05 5.52188E-01 1.89013E-05-3.30318E-07 1.69534E-02
 -1     14041-4.18940E-01-2.05940E-05 5.52188E-01 1.89013E-05 3.30318E-07-1.69534E-02
 -1     14042-3.61280E-01-3.07094E-05 4.94508E-01 5.48118E-05-9.56803E-07 1.49390E-02
 -1     14044-3.61280E-01-3.07094E-05 4.94508E-01 5.48118E-05 9.56803E-07-1.49390E-02
 -1     14045-3.39764E-01 3.22019E-05 4.73202E-01-6.22429E-05 1.08670E-06 1.41912E-02
 -1     14047-3.39764E-01 3.22019E-05 4.73202E-01-6.22429E-05-1.08670E-06-1.41912E-02
 -1     14048-3.69325E-01-1.18261E-05 5.02615E-01 1.59677E-05-2.78884E-07 1.52215E-02
 -1     14050-3.69325E-01-1.18261E-05 5.02615E-01 1.59677E-05 2.78884E-07-1.52215E-02
 -1     14051-3.20651E-01-2.12514E-05 4.53910E-01 4.51550E-05-7.88267E-07 1.35209E-02
 -1     14053-3.20651E-01-2.12514E-05 4.53910E-01 4.51550E-05 7.88267E-07-1.35209E-02
 -1     14054-3.02361E-01 2.25262E-05 4.35768E-01-5.06118E-05 8.83627E-07 1.28848E-02
 -1     14056-3.02361E-01 2.25262E-05 4.35768E-01-5.06118E-05-8.83627E-07-1.28848E-02
 -1     14057-3.27621E-01-7.56509E-06 4.60928E-01 1.21457E-05-2.12062E-07 1.37655E-02
 -1     14059-3.27621E-01-7.56509E-06 4.60928E-01 1.21457E-05 2.12062E-07-1.37655E-02
 -1     14060-2.85885E-01-1.53099E-05 4.19164E-01 3.72412E-05-6.50145E-07 1.23074E-02
 -1     14062-2.85885E-01-1.53099E-05 4.19164E-01 3.72412E-05 6.50145E-07-1.23074E-02
 -1     14063-2.70126E-01 1.64420E-05 4.03513E-01-4.12810E-05 7.20719E-07 1.17590E-02
 -1     14065-2.70126E-01 1.64420E-05 4.03513E-01-4.12810E-05-7.20719E-07-1.17590E-02
 -1     14066-2.91957E-01-4.88708E-06 4.25272E-01 9.43709E-06-1.64751E-07 1.25204E-02
 -1     14068-2.91957E-01-4.88708E-06 4.25272E-01 9.43709E-06 1.64751E-07-1.25204E-02
 -1     14069-2.55804E-01-1.15917E-05 3.89096E-01 3.06770E-05-5.35567E-07 1.12574E-02
 -1     14071-2.55804E-01-1.15917E-05 3.89096E-01 3.06770E-05 5.35567E-07-1.12574E-02
 -1     14072-2.42093E-01 1.25898E-05 3.75469E-01-3.37769E-05 5.89702E-07 1.07800E-02
 -1     14074-2.42093E-01 1.25898E-05 3.75469E-01-3.37769E-05-5.89702E-07-1.07800E-02
 -1     14075-2.61115E-01-3.08349E-06 3.94436E-01 7.44307E-06-1.29948E-07 1.14436E-02
 -1     14077-2.61115E-01-3.08349E-06 3.94436E-01 7.44307E-06 1.29948E-07-1.14436E-02
 -1     14078-2.29555E-01-9.19136E-06 3.62854E-01 2.53251E-05-4.42135E-07 1.03411E-02
 -1     14080-2.29555E-01-9.19136E-06 3.62854E-01 2.53251E-05 4.42135E-07-1.03411E-02
 -1     14081-2.17523E-01 1.03189E-05 3.50890E-01-2.79309E-05 4.87633E-07 9.92207E-03
 -1     14083-2.17523E-01 1.03189E-05 3.50890E-01-2.79309E-05-4.87633E-07-9.92207E-03
 -1     14084-2.34228E-01-2.27138E-06 3.67551E-01 5.85925E-06-1.02313E-07 1.05049E-02
 -1     14086-2.34228E-01-2.27138E-06 3.67551E-01 5.85925E-06 1.02313E-07-1.05049E-02
 -1     14087-2.06461E-01-7.68285E-06 3.39766E-01 2.13829E-05-3.73305E-07 9.53488E-03
 -1     14089-2.06461E-01-7.68285E-06 3.39766E-01 2.13829E-05 3.73305E-07-9.53488E-03
 -1     14090-1.95816E-01 8.60485E-06 3.29179E-01-2.35413E-05 4.10987E-07 9.16415E-03
 -1     14092-1.95816E-01 8.60485E-06 3.29179E-01-2.35413E-05-4.10987E-07-9.16415E-03
 -1     14093-2.10607E-01-1.53240E-06 3.43932E-01 4.74404E-06-8.28454E-08 9.68017E-03
 -1     14095-2.10607E-01-1.53240E-06 3.43932E-01 4.74404E-06 8.28454E-08-9.68017E-03
 -1     14096-1.85962E-01-6.69146E-06 3.19270E-01 1.82834E-05-3.19194E-07 8.81922E-03
 -1     14098-1.85962E-01-6.69146E-06 3.19270E-01 1.82834E-05 3.19194E-07-8.81922E-03
 -1     14099-1.76476E-01 7.49429E-06 3.09835E-01-2.02508E-05 3.53538E-07 8.48886E-03
 -1     14101-1.76476E-01 7.49429E-06 3.09835E-01-2.02508E-05-3.53538E-07-8.48886E-03
 -1     14102-1.89672E-01-1.54948E-06 3.22998E-01 4.02514E-06-7.02892E-08 8.94923E-03
 -1     14104-1.89672E-01-1.54948E-06 3.22998E-01 4.02514E-06 7.02892E-08-8.94923E-03
 -1     14105-1.67655E-01-5.86673E-06 3.00967E-01 1.57459E-05-2.74895E-07 8.18015E-03
 -1     14107-1.67655E-01-5.86673E-06 3.00967E-01 1.57459E-05 2.74895E-07-8.18015E-03
 -1     14108-1.59165E-01 6.61124E-06 2.92521E-01-1.75242E-05 3.05938E-07 7.88445E-03
 -1     14110-1.59165E-01 6.61124E-06 2.92521E-01-1.75242E-05-3.05938E-07-7.88445E-03
 -1     14111-1.70978E-01-1.48366E-06 3.04305E-01 3.48945E-06-6.09352E-08 8.29658E-03
 -1     14113-1.70978E-01-1.48366E-06 3.04305E-01 3.48945E-06 6.09352E-08-8.29658E-03
 -1     14114-1.51251E-01-5.13228E-06 2.84565E-01 1.36067E-05-2.37549E-07 7.60748E-03
 -1     14116-1.51251E-01-5.13228E-06 2.84565E-01 1.36067E-05 2.37549E-07-7.60748E-03
 -1     14117-1.43627E-01 5.82814E-06 2.76979E-01-1.51939E-05 2.65255E-07 7.34192E-03
 -1     14119-1.43627E-01 5.82814E-06 2.76979E-01-1.51939E-05-2.65255E-07-7.34192E-03
 -1     14120-1.54227E-01-1.32966E-06 2.87555E-01 3.04051E-06-5.30980E-08 7.71175E-03
 -1     14122-1.54227E-01-1.32966E-06 2.87555E-01 3.04051E-06 5.30980E-08-7.71175E-03
 -1     14123-1.36507E-01-4.48777E-06 2.69823E-01 1.18133E-05-2.06239E-07 7.09277E-03
 -1     14125-1.36507E-01-4.48777E-06 2.69823E-01 1.18133E-05 2.06239E-07-7.09277E-03
 -1     14126-1.29637E-01 5.12501E-06 2.62987E-01-1.32253E-05 2.30888E-07 6.85346E-03
 -1     14128-1.29637E-01 5.12501E-06 2.62987E-01-1.32253E-05-2.30888E-07-6.85346E-03
 -1     14129-1.39179E-01-1.15818E-06 2.72507E-01 2.64969E-06-4.62753E-08 7.18636E-03
 -1     14131-1.39179E-01-1.15818E-06 2.72507E-01 2.64969E-06 4.62753E-08-7.18636E-03
 -1     14132-1.23209E-01-3.94070E-06 2.56526E-01 1.03301E-05-1.80345E-07 6.62851E-03
 -1     14134-1.23209E-01-3.94070E-06 2.56526E-01 1.03301E-05 1.80345E-07-6.62851E-03
 -1     14135-1.16995E-01 4.49962E-06 2.50343E-01-1.15859E-05 2.02266E-07 6.41207E-03
 -1     14137-1.16995E-01 4.49962E-06 2.50343E-01-1.15859E-05-2.02266E-07-6.41207E-03
 -1     14138-1.25618E-01-1.00945E-06 2.58946E-01 2.32376E-06-4.05837E-08 6.71289E-03
 -1     14140-1.25618E-01-1.00945E-06 2.58946E-01 2.32376E-06 4.05837E-08-6.71289E-03
 -1     14141-1.11167E-01-3.48216E-06 2.44486E-01 9.08823E-06-1.58663E-07 6.20813E-03
 -1     14143-1.11167E-01-3.48216E-06 2.44486E-01 9.08823E-06 1.58663E-07-6.20813E-03
 -1     14144-1.05527E-01 3.95856E-06 2.38873E-01-1.02133E-05 1.78303E-07 6.01168E-03
 -1     14146-1.05527E-01 3.95856E-06 2.38873E-01-1.02133E-05-1.78303E-07-6.01168E-03
 -1     14147-1.13349E-01-8.98277E-07 2.46677E-01 2.05349E-06-3.58631E-08 6.28455E-03
 -1     14149-1.13349E-01-8.98277E-07 2.46677E-01 2.05349E-06 3.58631E-08-6.28455E-03
 -1     14150-1.00226E-01-3.08823E-06 2.33547E-01 8.01641E-06-1.39952E-07 5.82618E-03
 -1     14152-1.00226E-01-3.08823E-06 2.33547E-01 8.01641E-06 1.39952E-07-5.82618E-03
 -1     14153-9.50928E-02 3.50483E-06 2.28437E-01-9.03405E-06 1.57717E-07 5.64736E-03
 -1     14155-9.50928E-02 3.50483E-06 2.28437E-01-9.03405E-06-1.57717E-07-5.64736E-03
 -1     14156-1.02208E-01-8.12600E-07 2.35537E-01 1.81745E-06-3.17406E-08 5.89559E-03
 -1     14158-1.02208E-01-8.12600E-07 2.35537E-01 1.81745E-06 3.17406E-08-5.89559E-03
 -1     14159-9.02596E-02-2.74168E-06 2.23582E-01 7.07688E-06-1.23550E-07 5.47827E-03
 -1     14161-9.02596E-02-2.74168E-06 2.23582E-01 7.07688E-06 1.23550E-07-5.47827E-03
 -1     14162-8.55771E-02 3.12489E-06 2.18920E-01-7.99802E-06 1.39630E-07 5.31513E-03
 -1     14164-8.55771E-02 3.12489E-06 2.18920E-01-7.99802E-06-1.39630E-07-5.31513E-03
 -1     14165-9.20633E-02-7.28748E-07 2.25393E-01 1.60559E-06-2.80415E-08 5.54143E-03
 -1     14167-9.20633E-02-7.28748E-07 2.25393E-01 1.60559E-06 2.80415E-08-5.54143E-03
 -1     14168-8.11631E-02-2.43789E-06 2.14486E-01 6.25791E-06-1.09253E-07 5.16071E-03
 -1     14170-8.11631E-02-2.43789E-06 2.14486E-01 6.25791E-06 1.09253E-07-5.16071E-03
 -1     14171-7.68825E-02 2.79984E-06 2.10224E-01-7.08889E-06 1.23759E-07 5.01157E-03
 -1     14173-7.68825E-02 2.79984E-06 2.10224E-01-7.08889E-06-1.23759E-07-5.01157E-03
 -1     14174-8.28075E-02-6.43903E-07 2.16137E-01 1.41864E-06-2.47781E-08 5.21829E-03
 -1     14176-8.28075E-02-6.43903E-07 2.16137E-01 1.41864E-06 2.47781E-08-5.21829E-03
 -1     14177-7.28430E-02-2.17229E-06 2.06167E-01 5.55535E-06-9.69864E-08 4.87025E-03
 -1     14179-7.28430E-02-2.17229E-06 2.06167E-01 5.55535E-06 9.69864E-08-4.87025E-03
 -1     14180-6.89203E-02 2.51172E-06 2.02261E-01-6.30492E-06 1.10072E-07 4.73357E-03
 -1     14182-6.89203E-02 2.51172E-06 2.02261E-01-6.30492E-06-1.10072E-07-4.73357E-03
 -1     14183-7.43462E-02-5.69114E-07 2.07676E-01 1.25748E-06-2.19643E-08 4.92288E-03
 -1     14185-7.43462E-02-5.69114E-07 2.07676E-01 1.25748E-06 2.19643E-08-4.92288E-03
 -1     14186-6.52142E-02-1.93493E-06 1.98539E-01 4.96432E-06-8.66668E-08 4.60393E-03
 -1     14188-6.52142E-02-1.93493E-06 1.98539E-01 4.96432E-06 8.66668E-08-4.60393E-03
 -1     14189-6.16106E-02 2.23779E-06 1.94950E-01-5.63777E-06 9.84249E-08 4.47836E-03
 -1     14191-6.16106E-02 2.23779E-06 1.94950E-01-5.63777E-06-9.84249E-08-4.47836E-03
 -1     14192-6.65935E-02-5.08883E-07 1.99924E-01 1.12309E-06-1.96167E-08 4.65222E-03
 -1     14194-6.65935E-02-5.08883E-07 1.99924E-01 1.12309E-06 1.96167E-08-4.65222E-03
 -1     14195-5.81999E-02-1.72359E-06 1.91526E-01 4.46055E-06-7.78725E-08 4.35907E-03
 -1     14197-5.81999E-02-1.72359E-06 1.91526E-01 4.46055E-06 7.78725E-08-4.35907E-03
 -1     14198-5.48840E-02 1.96612E-06 1.88223E-01-5.04757E-06 8.81220E-08 4.24352E-03
 -1     14200-5.48840E-02 1.96612E-06 1.88223E-01-5.04757E-06-8.81220E-08-4.24352E-03
 -1     14201-5.94702E-02-4.67564E-07 1.92801E-01 1.02038E-06-1.78199E-08 4.40354E-03
 -1     14203-5.94702E-02-4.67564E-07 1.92801E-01 1.02038E-06 1.78199E-08-4.40354E-03
 -1     14204-5.17409E-02-1.54089E-06 1.85067E-01 3.96959E-06-6.93052E-08 4.13358E-03
 -1     14206-5.17409E-02-1.54089E-06 1.85067E-01 3.96959E-06 6.93052E-08-4.13358E-03
 -1     14207-4.86923E-02 1.73320E-06 1.82030E-01-4.45604E-06 7.77978E-08 4.02734E-03
 -1     14209-4.86923E-02 1.73320E-06 1.82030E-01-4.45604E-06-7.77978E-08-4.02734E-03
 -1     14210-5.29107E-02-4.30513E-07 1.86241E-01 9.35893E-07-1.63429E-08 4.17453E-03
 -1     14212-5.29107E-02-4.30513E-07 1.86241E-01 9.35893E-07 1.63429E-08-4.17453E-03
 -1     14213-4.58111E-02-1.36196E-06 1.79138E-01 3.43890E-06-6.00421E-08 3.92658E-03
 -1     14215-4.58111E-02-1.36196E-06 1.79138E-01 3.43890E-06 6.00421E-08-3.92658E-03
 -1     14216-4.30159E-02 1.56710E-06 1.76353E-01-3.83803E-06 6.70118E-08 3.82916E-03
 -1     14218-4.30159E-02 1.56710E-06 1.76353E-01-3.83803E-06-6.70118E-08-3.82916E-03
 -1     14219-4.68818E-02-3.64118E-07 1.80213E-01 8.11590E-07-1.41793E-08 3.96405E-03
 -1     14221-4.68818E-02-3.64118E-07 1.80213E-01 8.11590E-07 1.41793E-08-3.96405E-03
 -1     14222-4.03954E-02-1.15919E-06 1.73723E-01 2.98712E-06-5.21474E-08 3.73751E-03
 -1     14224-4.03954E-02-1.15919E-06 1.73723E-01 2.98712E-06 5.21474E-08-3.73751E-03
 -1     14225-3.78324E-02 1.30634E-06 1.71169E-01-3.33368E-06 5.82059E-08 3.64818E-03
 -1     14227-3.78324E-02 1.30634E-06 1.71169E-01-3.33368E-06-5.82059E-08-3.64818E-03
 -1     14228-4.13763E-02-3.00938E-07 1.74707E-01 6.46245E-07-1.12984E-08 3.77184E-03
 -1     14230-4.13763E-02-3.00938E-07 1.74707E-01 6.46245E-07 1.12984E-08-3.77184E-03
 -1     14231-3.54201E-02-1.02114E-06 1.68749E-01 2.66501E-06-4.65282E-08 3.56383E-03
 -1     14233-3.54201E-02-1.02114E-06 1.68749E-01 2.66501E-06 4.65282E-08-3.56383E-03
 -1     14234-3.30753E-02 9.88211E-07 1.66411E-01-2.90552E-06 5.07344E-08 3.48209E-03
 -1     14236-3.30753E-02 9.88211E-07 1.66411E-01-2.90552E-06-5.07344E-08-3.48209E-03
 -1     14237-3.63395E-02-3.58315E-07 1.69671E-01 5.77895E-07-1.00852E-08 3.59600E-03
 -1     14239-3.63395E-02-3.58315E-07 1.69671E-01 5.77895E-07 1.00852E-08-3.59600E-03
 -1     14240-3.08776E-02-8.47805E-07 1.64207E-01 2.21452E-06-3.86732E-08 3.40525E-03
 -1     14242-3.08776E-02-8.47805E-07 1.64207E-01 2.21452E-06 3.86732E-08-3.40525E-03
 -1     14243-2.87602E-02 1.03823E-06 1.62097E-01-1.89971E-06 3.31982E-08 3.33145E-03
 -1     14245-2.87602E-02 1.03823E-06 1.62097E-01-1.89971E-06-3.31982E-08-3.33145E-03
 -1     14246-3.17271E-02-3.29863E-07 1.65058E-01 4.74029E-07-8.28753E-09 3.43496E-03
 -1     14248-3.17271E-02-3.29863E-07 1.65058E-01 4.74029E-07 8.28753E-09-3.43496E-03
 -1     14249-2.69462E-02-1.17852E-08 1.60276E-01 1.69915E-06-2.95908E-08 3.26800E-03
 -1     14251-2.69462E-02-1.17852E-08 1.60276E-01 1.69915E-06 2.95908E-08-3.26800E-03
 -1     14252-2.49636E-02-1.49945E-07 1.58293E-01-1.31792E-06 2.30846E-08 3.19878E-03
 -1     14254-2.49636E-02-1.49945E-07 1.58293E-01-1.31792E-06-2.30846E-08-3.19878E-03
 -1     14255-2.77150E-02-4.16715E-07 1.61044E-01-6.91809E-08 1.02970E-09 3.29486E-03
 -1     14257-2.77150E-02-4.16715E-07 1.61044E-01-6.91809E-08-1.02970E-09-3.29486E-03
 -1     14258-2.32222E-02 4.83087E-07 1.56558E-01 9.90516E-07-1.72891E-08 3.13810E-03
 -1     14260-2.32222E-02 4.83087E-07 1.56558E-01 9.90516E-07 1.72891E-08-3.13810E-03
 -1     14261-2.14158E-02-1.59689E-07 1.54746E-01-2.14573E-06 3.74315E-08 3.07496E-03
 -1     14263-2.14158E-02-1.59689E-07 1.54746E-01-2.14573E-06-3.74315E-08-3.07496E-03
 -1     14264-2.41597E-02-1.45509E-06 1.57488E-01-3.03712E-07 5.12598E-09 3.17073E-03
 -1     14266-2.41597E-02-1.45509E-06 1.57488E-01-3.03712E-07-5.12598E-09-3.17073E-03
 -1     14267-2.72391E-01-4.75773E-06 4.05709E-01 3.16202E-05-5.51932E-07 1.18369E-02
 -1     14269-2.72391E-01-4.75773E-06 4.05709E-01 3.16202E-05 5.51932E-07-1.18369E-02
 -1     14270-2.87250E-01 6.29158E-06 4.20611E-01-3.34803E-05 5.84460E-07 1.23563E-02
 -1     14272-2.87250E-01 6.29158E-06 4.20611E-01-3.34803E-05-5.84460E-07-1.23563E-02
 -1     14273-4.40131E-01-6.38838E-05 5.73233E-01 4.88743E-06-8.52853E-08 1.76903E-02
 -1     14275-4.40131E-01-6.38838E-05 5.73233E-01 4.88743E-06 8.52853E-08-1.76903E-02
 -1     14276-4.40058E-01-6.03495E-05 5.73171E-01-2.11121E-06 3.66848E-08 1.76880E-02
 -1     14278-4.40058E-01-6.03495E-05 5.73171E-01-2.11121E-06-3.66848E-08-1.76880E-02
 -1     14279-4.15821E-01 1.12954E-04 5.49560E-01 6.49607E-06-1.13394E-07 1.68518E-02
 -1     14281-4.15821E-01 1.12954E-04 5.49560E-01 6.49607E-06 1.13394E-07-1.68518E-02
 -1     14282-4.15550E-01 1.15319E-04 5.49302E-01-8.80019E-06 1.53598E-07 1.68426E-02
 -1     14284-4.15550E-01 1.15319E-04 5.49302E-01-8.80019E-06-1.53598E-07-1.68426E-02
 -1     14285-4.29469E-01-5.55480E-05 5.62594E-01-4.62571E-05 8.07315E-07 1.73182E-02
 -1     14287-4.29469E-01-5.55480E-05 5.62594E-01-4.62571E-05-8.07315E-07-1.73182E-02
 -1     14288-4.38400E-01-2.79076E-05 5.71603E-01-1.64078E-05 2.87689E-07 1.76321E-02
 -1     14290-4.38400E-01-2.79076E-05 5.71603E-01-1.64078E-05-2.87689E-07-1.76321E-02
 -1     14291-4.12870E-01 9.10998E-05 5.46578E-01 2.89778E-05-5.06065E-07 1.67483E-02
 -1     14293-4.12870E-01 9.10998E-05 5.46578E-01 2.89778E-05 5.06065E-07-1.67483E-02
 -1     14294-4.02287E-01 6.62655E-05 5.35828E-01 6.28332E-05-1.09718E-06 1.63759E-02
 -1     14296-4.02287E-01 6.62655E-05 5.35828E-01 6.28332E-05 1.09718E-06-1.63759E-02
 -1     14297-2.73053E-02 4.95848E-07 1.60640E-01 3.33835E-06-5.82639E-08 3.28065E-03
 -1     14299-2.73053E-02 4.95848E-07 1.60640E-01 3.33835E-06 5.82639E-08-3.28065E-03
 -1     14300-2.96851E-02-4.48596E-07 1.63017E-01-3.25080E-06 5.67887E-08 3.36368E-03
 -1     14302-2.96851E-02-4.48596E-07 1.63017E-01-3.25080E-06-5.67887E-08-3.36368E-03
 -1     14303-3.08673E-02-2.36956E-07 1.64199E-01-1.89245E-07 3.30678E-09 3.40499E-03
 -1     14305-3.08673E-02-2.36956E-07 1.64199E-01-1.89245E-07-3.30678E-09-3.40499E-03
 -1     14306-2.59500E-02 3.73035E-07 1.59281E-01-3.69520E-07 6.51593E-09 3.23330E-03
 -1     14308-2.59500E-02 3.73035E-07 1.59281E-01-3.69520E-07-6.51593E-09-3.23330E-03
 -1     14309-1.86086E-02-1.18707E-06 1.51934E-01 8.75575E-07-1.51403E-08 2.97691E-03
 -1     14311-1.86086E-02-1.18707E-06 1.51934E-01 8.75575E-07 1.51403E-08-2.97691E-03
 -1     14312-2.03966E-02 4.18361E-06 1.53743E-01 9.38864E-07-1.63880E-08 3.03966E-03
 -1     14314-2.03966E-02 4.18361E-06 1.53743E-01 9.38864E-07 1.63880E-08-3.03966E-03
 -1     14315-1.84030E-02-1.04339E-06 1.51730E-01 2.69342E-07-4.87652E-09 2.96976E-03
 -1     14317-1.84030E-02-1.04339E-06 1.51730E-01 2.69342E-07 4.87652E-09-2.96976E-03
 -1     14318-1.97876E-02 3.65702E-06 1.53133E-01 2.31072E-07-4.03405E-09 3.01837E-03
 -1     14320-1.97876E-02 3.65702E-06 1.53133E-01 2.31072E-07 4.03405E-09-3.01837E-03
 -1     14321-4.14135E-01 1.03649E-04 5.47836E-01-2.03228E-05 3.54833E-07 1.67922E-02
 -1     14323-4.14135E-01 1.03649E-04 5.47836E-01-2.03228E-05-3.54833E-07-1.67922E-02
 -1     14324-1.97164E-02 3.57997E-06 1.53061E-01-7.17434E-08 1.25250E-09 3.01587E-03
 -1     14326-1.97164E-02 3.57997E-06 1.53061E-01-7.17434E-08-1.25250E-09-3.01587E-03
 -1     14327-4.40922E-01-6.17059E-05 5.74034E-01-5.66046E-07 9.81680E-09 1.77180E-02
 -1     14329-4.40922E-01-6.17059E-05 5.74034E-01-5.66046E-07-9.81680E-09-1.77180E-02
 -1     14330-4.41002E-01-6.16522E-05 5.74114E-01 3.82733E-07-6.59397E-09 1.77209E-02
 -1     14332-4.41002E-01-6.16522E-05 5.74114E-01 3.82733E-07 6.59397E-09-1.77209E-02
 -1     14333-4.16497E-01 1.15182E-04 5.50225E-01 1.26158E-06-2.20328E-08 1.68752E-02
 -1     14335-4.16497E-01 1.15182E-04 5.50225E-01 1.26158E-06 2.20328E-08-1.68752E-02
 -1     14336-9.59811E-02 2.16847E-08 2.29313E-01 8.18490E-06-1.42893E-07 5.67817E-03
 -1     14338-9.59811E-02 2.16847E-08 2.29313E-01 8.18490E-06 1.42893E-07-5.67817E-03
 -1     14339-1.01106E-01-6.51487E-09 2.34438E-01-8.71419E-06 1.52133E-07 5.85707E-03
 -1     14341-1.01106E-01-6.51487E-09 2.34438E-01-8.71419E-06-1.52133E-07-5.85707E-03
 -1     14342-4.17299E-01 1.10603E-04 5.51029E-01 1.37505E-06-2.40031E-08 1.69032E-02
 -1     14344-4.17299E-01 1.10603E-04 5.51029E-01 1.37505E-06 2.40031E-08-1.69032E-02
 -1     14345-2.15456E-02-1.08949E-06 1.54876E-01-5.45475E-07 9.58813E-09 3.07951E-03
 -1     14347-2.15456E-02-1.08949E-06 1.54876E-01-5.45475E-07-9.58813E-09-3.07951E-03
 -1     14348-3.75342E-02-1.91137E-07 1.70865E-01 3.93771E-06-6.87342E-08 3.63769E-03
 -1     14350-3.75342E-02-1.91137E-07 1.70865E-01 3.93771E-06 6.87342E-08-3.63769E-03
 -1     14351-4.02755E-02 2.59867E-07 1.73608E-01-4.00816E-06 6.99771E-08 3.73342E-03
 -1     14353-4.02755E-02 2.59867E-07 1.73608E-01-4.00816E-06-6.99771E-08-3.73342E-03
 -1     14354-3.61420E-02-1.28652E-07 1.69474E-01 3.41034E-09-6.36965E-11 3.58914E-03
 -1     14356-3.61420E-02-1.28652E-07 1.69474E-01 3.41034E-09 6.36965E-11-3.58914E-03
 -1     14357-2.00189E-02 3.93175E-06 1.53364E-01-6.44041E-07 1.12425E-08 3.02645E-03
 -1     14359-2.00189E-02 3.93175E-06 1.53364E-01-6.44041E-07-1.12425E-08-3.02645E-03
 -1     14360-6.22459E-02-8.29329E-08 1.95578E-01 5.22411E-06-9.12031E-08 4.50041E-03
 -1     14362-6.22459E-02-8.29329E-08 1.95578E-01 5.22411E-06 9.12031E-08-4.50041E-03
 -1     14363-6.58678E-02 6.78122E-08 1.99200E-01-5.51157E-06 9.62185E-08 4.62687E-03
 -1     14365-6.58678E-02 6.78122E-08 1.99200E-01-5.51157E-06-9.62185E-08-4.62687E-03
 -1     14366-3.02769E-01-4.16821E-06 4.36076E-01 3.46889E-05-6.05646E-07 1.28972E-02
 -1     14368-3.02769E-01-4.16821E-06 4.36076E-01 3.46889E-05 6.05646E-07-1.28972E-02
 -1     14369-3.19260E-01 3.54480E-06 4.52630E-01-3.04686E-05 5.31618E-07 1.34740E-02
 -1     14371-3.19260E-01 3.54480E-06 4.52630E-01-3.04686E-05-5.31618E-07-1.34740E-02
 -1     14372-2.95495E-01 2.52950E-06 4.28820E-01 7.47644E-07-1.28427E-08 1.26439E-02
 -1     14374-2.95495E-01 2.52950E-06 4.28820E-01 7.47644E-07 1.28427E-08-1.26439E-02
 -1     14375-1.60503E-01 9.69068E-08 2.93835E-01 1.61728E-05-2.82351E-07 7.93077E-03
 -1     14377-1.60503E-01 9.69068E-08 2.93835E-01 1.61728E-05 2.82351E-07-7.93077E-03
 -1     14378-1.69008E-01-9.66077E-08 3.02340E-01-1.73140E-05 3.02272E-07 8.22770E-03
 -1     14380-1.69008E-01-9.66077E-08 3.02340E-01-1.73140E-05-3.02272E-07-8.22770E-03
 -1     14381-1.06475E-01 2.08175E-08 2.39807E-01 9.28011E-06-1.62013E-07 6.04454E-03
 -1     14383-1.06475E-01 2.08175E-08 2.39807E-01 9.28011E-06 1.62013E-07-6.04454E-03
 -1     14384-1.12108E-01 7.03478E-09 2.45440E-01-9.89547E-06 1.72756E-07 6.24119E-03
 -1     14386-1.12108E-01 7.03478E-09 2.45440E-01-9.89547E-06-1.72756E-07-6.24119E-03
 -1     14387-1.03820E-01 8.01719E-09 2.37152E-01-1.31799E-08 2.33017E-10 5.95194E-03
 -1     14389-1.03820E-01 8.01719E-09 2.37152E-01-1.31799E-08-2.33017E-10-5.95194E-03
 -1     14390-4.30366E-01-3.09978E-05 5.63565E-01 1.30852E-05-2.28516E-07 1.73512E-02
 -1     14392-4.30366E-01-3.09978E-05 5.63565E-01 1.30852E-05 2.28516E-07-1.73512E-02
 -1     14393-4.25392E-01-6.29907E-05 5.58509E-01 5.28165E-05-9.21111E-07 1.71759E-02
 -1     14395-4.25392E-01-6.29907E-05 5.58509E-01 5.28165E-05 9.21111E-07-1.71759E-02
 -1     14396-3.98132E-01 6.95041E-05 5.31726E-01-7.10550E-05 1.24064E-06 1.62318E-02
 -1     14398-3.98132E-01 6.95041E-05 5.31726E-01-7.10550E-05-1.24064E-06-1.62318E-02
 -1     14399-4.08224E-01 9.05229E-05 5.41895E-01-4.43236E-05 7.73883E-07 1.65854E-02
 -1     14401-4.08224E-01 9.05229E-05 5.41895E-01-4.43236E-05-7.73883E-07-1.65854E-02
 -1     14402-7.76614E-02-1.63065E-08 2.10993E-01 6.46106E-06-1.12798E-07 5.03859E-03
 -1     14404-7.76614E-02-1.63065E-08 2.10993E-01 6.46106E-06 1.12798E-07-5.03859E-03
 -1     14405-8.19426E-02 5.36025E-09 2.15275E-01-6.85133E-06 1.19610E-07 5.18806E-03
 -1     14407-8.19426E-02 5.36026E-09 2.15275E-01-6.85133E-06-1.19610E-07-5.18806E-03
 -1     14408-3.57786E-01 2.91200E-05 4.91208E-01 5.87449E-05-1.02582E-06 1.48201E-02
 -1     14410-3.57786E-01 2.91200E-05 4.91208E-01 5.87449E-05 1.02582E-06-1.48201E-02
 -1     14411-3.80329E-01-3.66683E-05 5.13540E-01-4.61368E-05 8.04794E-07 1.56037E-02
 -1     14413-3.80329E-01-3.66683E-05 5.13540E-01-4.61368E-05-8.04794E-07-1.56037E-02
 -1     14414-3.88016E-01-1.89520E-05 5.21275E-01-1.61627E-05 2.82761E-07 1.58733E-02
 -1     14416-3.88016E-01-1.89520E-05 5.21275E-01-1.61627E-05-2.82761E-07-1.58733E-02
 -1     14417-3.46578E-01-1.38386E-05 4.79889E-01-1.02737E-05 1.78944E-07 1.44273E-02
 -1     14419-3.46578E-01-1.38386E-05 4.79889E-01-1.02737E-05-1.78944E-07-1.44273E-02
 -1     14420-6.96345E-02-4.79091E-08 2.02966E-01 5.78948E-06-1.01074E-07 4.75836E-03
 -1     14422-6.96345E-02-4.79091E-08 2.02966E-01 5.78948E-06 1.01074E-07-4.75836E-03
 -1     14423-7.35659E-02 2.99790E-08 2.06898E-01-6.12478E-06 1.06925E-07 4.89562E-03
 -1     14425-7.35659E-02 2.99790E-08 2.06898E-01-6.12478E-06-1.06925E-07-4.89562E-03
 -1     14426-6.77832E-02-1.96294E-08 2.01115E-01 3.91811E-08-6.83600E-10 4.69379E-03
 -1     14428-6.77832E-02-1.96294E-08 2.01115E-01 3.91811E-08 6.83600E-10-4.69379E-03
 -1     14429-4.40805E-01-6.15122E-05 5.73917E-01 2.49168E-07-4.38155E-09 1.77140E-02
 -1     14431-4.40805E-01-6.15122E-05 5.73917E-01 2.49168E-07 4.38154E-09-1.77140E-02
 -1     14432-4.16440E-01 1.13324E-04 5.50178E-01 2.15645E-06-3.76463E-08 1.68734E-02
 -1     14434-4.16440E-01 1.13324E-04 5.50178E-01 2.15645E-06 3.76463E-08-1.68734E-02
 -1     14435-4.40699E-01-6.21517E-05 5.73809E-01-1.19184E-06 2.08366E-08 1.77103E-02
 -1     14437-4.40699E-01-6.21517E-05 5.73809E-01-1.19184E-06-2.08366E-08-1.77103E-02
 -1     14438-1.95705E-02 3.38008E-07 1.52903E-01 2.20930E-06-3.85781E-08 3.01057E-03
 -1     14440-1.95705E-02 3.38008E-07 1.52903E-01 2.20930E-06 3.85781E-08-3.01057E-03
 -1     14441-1.78218E-02-2.50027E-07 1.51155E-01-1.41117E-06 2.46470E-08 2.94953E-03
 -1     14443-1.78218E-02-2.50027E-07 1.51155E-01-1.41117E-06-2.46470E-08-2.94953E-03
 -1     14444-5.06261E-02-1.88778E-08 1.83958E-01 1.73267E-08-3.04392E-10 4.09480E-03
 -1     14446-5.06261E-02-1.88778E-08 1.83958E-01 1.73267E-08 3.04392E-10-4.09480E-03
 -1     14447-1.78008E-01 1.30177E-07 3.11340E-01 1.88766E-05-3.29551E-07 8.54192E-03
 -1     14449-1.78008E-01 1.30177E-07 3.11340E-01 1.88766E-05 3.29551E-07-8.54192E-03
 -1     14450-1.87535E-01-2.07268E-07 3.20867E-01-2.03019E-05 3.54436E-07 8.87452E-03
 -1     14452-1.87535E-01-2.07268E-07 3.20867E-01-2.03019E-05-3.54436E-07-8.87452E-03
 -1     14453-1.73552E-01-1.26449E-07 3.06884E-01-5.24949E-08 9.12798E-10 8.38653E-03
 -1     14455-1.73552E-01-1.26449E-07 3.06884E-01-5.24949E-08-9.12798E-10-8.38653E-03
 -1     14456-4.64770E-01 1.36465E-04 5.98590E-01-4.20958E-08 7.35346E-10 1.85623E-02
 -1     14458-4.64770E-01 1.36465E-04 5.98590E-01-4.20958E-08-7.35346E-10-1.85623E-02
 -1     14459-1.24224E-01 3.28466E-08 2.57556E-01-1.12740E-05 1.96822E-07 6.66419E-03
 -1     14461-1.24224E-01 3.28466E-08 2.57556E-01-1.12740E-05-1.96822E-07-6.66419E-03
 -1     14462-1.27521E-01 4.00709E-08 2.60853E-01-2.36050E-08 4.15050E-10 6.77941E-03
 -1     14464-1.27521E-01 4.00709E-08 2.60853E-01-2.36050E-08-4.15050E-10-6.77941E-03
 -1     14465-1.18017E-01 1.96149E-08 2.51349E-01 1.05436E-05-1.84071E-07 6.44750E-03
 -1     14467-1.18017E-01 1.96149E-08 2.51349E-01 1.05436E-05 1.84071E-07-6.44750E-03
 -1     14468-1.44838E-01 5.94086E-08 2.78170E-01 1.39131E-05-2.42899E-07 7.38386E-03
 -1     14470-1.44838E-01 5.94086E-08 2.78170E-01 1.39131E-05 2.42899E-07-7.38386E-03
 -1     14471-1.52462E-01 1.92110E-08 2.85794E-01-1.48769E-05 2.59724E-07 7.65005E-03
 -1     14473-1.52462E-01 1.92110E-08 2.85794E-01-1.48769E-05-2.59724E-07-7.65005E-03
 -1     14474-1.56521E-01-8.78744E-09 2.89853E-01-2.75751E-08 4.82019E-10 7.79189E-03
 -1     14476-1.56521E-01-8.78745E-09 2.89853E-01-2.75751E-08-4.82019E-10-7.79189E-03
 -1     14477-1.41262E-01 5.41885E-08 2.74594E-01-2.77703E-08 4.87708E-10 7.25915E-03
 -1     14479-1.41262E-01 5.41885E-08 2.74594E-01-2.77703E-08-4.87708E-10-7.25915E-03
 -1     14480-1.99310E-02 3.09662E-06 1.53273E-01 1.85402E-06-3.23672E-08 3.02331E-03
 -1     14482-1.99310E-02 3.09662E-06 1.53273E-01 1.85402E-06 3.23672E-08-3.02331E-03
 -1     14483-1.71373E-02-7.78411E-07 1.50468E-01 1.02520E-08-2.27749E-10 2.92560E-03
 -1     14485-1.71373E-02-7.78411E-07 1.50468E-01 1.02520E-08 2.27749E-10-2.92560E-03
 -1     14486-1.74989E-02-1.00609E-06 1.50827E-01 1.54473E-06-2.71121E-08 2.93818E-03
 -1     14488-1.74989E-02-1.00609E-06 1.50827E-01 1.54473E-06 2.71121E-08-2.93818E-03
 -1     14489-2.58023E-01 2.64842E-06 3.91367E-01-3.14373E-05 5.48852E-07 1.13356E-02
 -1     14491-2.58023E-01 2.64842E-06 3.91367E-01-3.14373E-05-5.48852E-07-1.13356E-02
 -1     14492-2.65644E-01 1.12183E-06 3.98975E-01 1.38530E-06-2.41301E-08 1.16018E-02
 -1     14494-2.65644E-01 1.12183E-06 3.98975E-01 1.38530E-06 2.41301E-08-1.16018E-02
 -1     14495-2.44625E-01-2.16564E-06 3.77952E-01 2.87452E-05-5.01763E-07 1.08676E-02
 -1     14497-2.44625E-01-2.16564E-06 3.77952E-01 2.87452E-05 5.01763E-07-1.08676E-02
 -1     14498-5.87680E-02 1.20846E-07 1.92100E-01-5.00068E-06 8.72987E-08 4.37900E-03
 -1     14500-5.87680E-02 1.20846E-07 1.92100E-01-5.00068E-06-8.72987E-08-4.37900E-03
 -1     14501-6.05408E-02-1.98456E-08 1.93873E-01 5.83383E-08-1.01860E-09 4.44094E-03
 -1     14503-6.05408E-02-1.98456E-08 1.93873E-01 5.83383E-08 1.01860E-09-4.44094E-03
 -1     14504-5.54181E-02-1.21545E-07 1.88750E-01 4.75752E-06-8.30557E-08 4.26204E-03
 -1     14506-5.54181E-02-1.21545E-07 1.88750E-01 4.75752E-06 8.30557E-08-4.26204E-03
 -1     14507-7.56429E-02-1.35932E-08 2.08975E-01 1.98565E-08-3.45601E-10 4.96819E-03
 -1     14509-7.56429E-02-1.35932E-08 2.08975E-01 1.98565E-08 3.45601E-10-4.96819E-03
 -1     14510-1.96480E-02-9.28337E-08 1.52984E-01-2.09019E-06 3.63887E-08 3.01335E-03
 -1     14512-1.96480E-02-9.28337E-08 1.52984E-01-2.09019E-06-3.63887E-08-3.01335E-03
 -1     14513-2.05745E-02 8.94741E-07 1.53906E-01 2.45060E-07-4.30465E-09 3.04562E-03
 -1     14515-2.05745E-02 8.94741E-07 1.53906E-01 2.45060E-07 4.30465E-09-3.04562E-03
 -1     14516-2.19893E-02-1.82327E-06 1.55314E-01-1.26742E-06 2.21935E-08 3.09490E-03
 -1     14518-2.19893E-02-1.82327E-06 1.55314E-01-1.26742E-06-2.21935E-08-3.09490E-03
 -1     14519-2.24473E-02-1.94300E-06 1.55770E-01-1.73665E-06 3.05533E-08 3.11088E-03
 -1     14521-2.24473E-02-1.94300E-06 1.55770E-01-1.73665E-06-3.05533E-08-3.11088E-03
 -1     14522-2.22859E-02-2.03941E-06 1.55611E-01-6.71539E-07 1.17570E-08 3.10528E-03
 -1     14524-2.22859E-02-2.03941E-06 1.55611E-01-6.71539E-07-1.17570E-08-3.10528E-03
 -1     14525-3.96516E-01-5.13768E-05 5.29663E-01-2.87137E-06 4.99697E-08 1.61681E-02
 -1     14527-3.96516E-01-5.13768E-05 5.29663E-01-2.87137E-06-4.99697E-08-1.61681E-02
 -1     14528-3.96588E-01-4.83081E-05 5.29743E-01-5.38143E-08 8.76314E-10 1.61708E-02
 -1     14530-3.96588E-01-4.83081E-05 5.29743E-01-5.38143E-08-8.76314E-10-1.61708E-02
 -1     14531-2.27200E-02-1.19692E-06 1.56045E-01-3.83267E-07 6.88350E-09 3.12046E-03
 -1     14533-2.27200E-02-1.19692E-06 1.56045E-01-3.83267E-07-6.88350E-09-3.12046E-03
 -1     14534-2.43431E-02 1.58772E-06 1.57684E-01 2.23867E-06-3.90528E-08 3.17734E-03
 -1     14536-2.43431E-02 1.58772E-06 1.57684E-01 2.23867E-06 3.90528E-08-3.17734E-03
 -1     14537-2.14491E-02-1.89729E-06 1.54774E-01 1.36619E-08-2.22724E-10 3.07605E-03
 -1     14539-2.14491E-02-1.89729E-06 1.54774E-01 1.36619E-08 2.22724E-10-3.07605E-03
 -1     14540-2.14715E-02-1.89745E-06 1.54797E-01 3.52364E-08-6.23694E-10 3.07683E-03
 -1     14542-2.14715E-02-1.89745E-06 1.54797E-01 3.52364E-08 6.23694E-10-3.07683E-03
 -1     14543-4.40834E-01-6.09341E-05 5.73946E-01 4.41860E-08-7.27028E-10 1.77150E-02
 -1     14545-4.40834E-01-6.09341E-05 5.73946E-01 4.41860E-08 7.27028E-10-1.77150E-02
 -1     14546-4.40791E-01-6.18734E-05 5.73902E-01 1.39269E-06-2.42909E-08 1.77135E-02
 -1     14548-4.40791E-01-6.18734E-05 5.73902E-01 1.39269E-06 2.42909E-08-1.77135E-02
 -1     14549-4.16577E-01 1.11113E-04 5.50308E-01-1.98858E-06 3.47150E-08 1.68780E-02
 -1     14551-4.16577E-01 1.11113E-04 5.50308E-01-1.98858E-06-3.47150E-08-1.68780E-02
 -1     14552-2.15196E-02-1.81350E-06 1.54845E-01 1.60996E-07-2.80145E-09 3.07852E-03
 -1     14554-2.15196E-02-1.81350E-06 1.54845E-01 1.60996E-07 2.80145E-09-3.07852E-03
 -1     14555-2.15946E-02-2.04012E-06 1.54919E-01 1.66173E-07-2.92488E-09 3.08112E-03
 -1     14557-2.15946E-02-2.04012E-06 1.54919E-01 1.66173E-07 2.92488E-09-3.08112E-03
 -1     14558-2.32420E-02 3.79885E-06 1.56587E-01-1.66018E-07 2.89818E-09 3.13897E-03
 -1     14560-2.32420E-02 3.79885E-06 1.56587E-01-1.66018E-07-2.89818E-09-3.13897E-03
 -1     14561-2.14877E-02 9.40431E-07 1.54826E-01 2.87276E-06-5.03267E-08 3.07762E-03
 -1     14563-2.14877E-02 9.40431E-07 1.54826E-01 2.87276E-06 5.03267E-08-3.07762E-03
 -1     14564-2.17721E-02-2.21983E-06 1.55096E-01-2.25022E-07 3.94938E-09 3.08731E-03
 -1     14566-2.17721E-02-2.21983E-06 1.55096E-01-2.25022E-07-3.94938E-09-3.08731E-03
 -1     14567-2.16941E-02-1.86954E-06 1.55020E-01-2.01501E-07 3.52198E-09 3.08461E-03
 -1     14569-2.16941E-02-1.86954E-06 1.55020E-01-2.01501E-07-3.52198E-09-3.08461E-03
 -1     14570-2.27725E-02-1.10416E-06 1.56098E-01-1.97357E-07 3.27698E-09 3.12228E-03
 -1     14572-2.27725E-02-1.10416E-06 1.56098E-01-1.97357E-07-3.27698E-09-3.12228E-03
 -1     14573-4.31336E-02-2.19082E-07 1.76465E-01 4.15925E-06-7.26056E-08 3.83317E-03
 -1     14575-4.31336E-02-2.19082E-07 1.76465E-01 4.15925E-06 7.26056E-08-3.83317E-03
 -1     14576-4.60532E-02 2.37796E-07 1.79386E-01-4.28719E-06 7.48410E-08 3.93512E-03
 -1     14578-4.60532E-02 2.37796E-07 1.79386E-01-4.28719E-06-7.48410E-08-3.93512E-03
 -1     14579-4.17082E-02-8.98582E-08 1.75040E-01 6.11963E-08-1.07347E-09 3.78346E-03
 -1     14581-4.17082E-02-8.98582E-08 1.75040E-01 6.11963E-08 1.07347E-09-3.78346E-03
 -1     14582-8.64117E-02 1.04790E-08 2.19744E-01 7.25865E-06-1.26723E-07 5.34408E-03
 -1     14584-8.64117E-02 1.04790E-08 2.19744E-01 7.25865E-06 1.26723E-07-5.34408E-03
 -1     14585-9.10894E-02-9.10260E-09 2.24421E-01-7.70945E-06 1.34591E-07 5.50739E-03
 -1     14587-9.10894E-02-9.10261E-09 2.24421E-01-7.70945E-06-1.34591E-07-5.50739E-03
 -1     14588-9.35626E-02-5.19656E-09 2.26895E-01-2.80859E-09 5.09984E-11 5.59381E-03
 -1     14590-9.35626E-02-5.19656E-09 2.26895E-01-2.80859E-09-5.09984E-11-5.59381E-03
 -1     14591-8.42049E-02-7.26071E-09 2.17537E-01 5.34441E-09-9.16838E-11 5.26711E-03
 -1     14593-8.42049E-02-7.26071E-09 2.17537E-01 5.34441E-09 9.16838E-11-5.26711E-03
 -1     14594-2.17439E-02-1.79474E-06 1.55070E-01 3.53191E-07-6.16875E-09 3.08635E-03
 -1     14596-2.17439E-02-1.79474E-06 1.55070E-01 3.53191E-07 6.16875E-09-3.08635E-03
 -1     14597-2.18804E-02-2.33908E-06 1.55204E-01 3.06342E-07-5.39075E-09 3.09108E-03
 -1     14599-2.18804E-02-2.33908E-06 1.55204E-01 3.06342E-07 5.39075E-09-3.09108E-03
 -1     14600-2.34426E-02 3.82416E-06 1.56788E-01-5.76000E-07 1.00541E-08 3.14597E-03
 -1     14602-2.34426E-02 3.82416E-06 1.56788E-01-5.76000E-07-1.00541E-08-3.14597E-03
 -1     14603-4.90753E-02-1.77292E-07 1.82407E-01 4.39873E-06-7.67892E-08 4.04060E-03
 -1     14605-4.90753E-02-1.77292E-07 1.82407E-01 4.39873E-06 7.67892E-08-4.04060E-03
 -1     14606-5.21882E-02 1.80005E-07 1.85521E-01-4.59173E-06 8.01592E-08 4.14930E-03
 -1     14608-5.21882E-02 1.80005E-07 1.85521E-01-4.59173E-06-8.01592E-08-4.14930E-03
 -1     14609-5.38352E-02-3.14722E-08 1.87167E-01 7.17157E-08-1.25335E-09 4.20683E-03
 -1     14611-5.38352E-02-3.14722E-08 1.87167E-01 7.17157E-08 1.25335E-09-4.20683E-03
 -1     14612-4.75857E-02-4.84532E-08 1.80918E-01 7.03201E-08-1.23123E-09 3.98865E-03
 -1     14614-4.75857E-02-4.84532E-08 1.80918E-01 7.03201E-08 1.23123E-09-3.98865E-03
 -1     14615-2.21533E-02-2.05484E-06 1.55479E-01 7.22061E-07-1.26366E-08 3.10064E-03
 -1     14617-2.21533E-02-2.05484E-06 1.55479E-01 7.22061E-07 1.26366E-08-3.10064E-03
 -1     14618-2.23136E-02-2.58383E-06 1.55636E-01 4.24883E-07-7.50617E-09 3.10619E-03
 -1     14620-2.23136E-02-2.58383E-06 1.55636E-01 4.24883E-07 7.50617E-09-3.10619E-03
 -1     14621-2.38706E-02 3.99335E-06 1.57217E-01-1.01063E-06 1.76395E-08 3.16092E-03
 -1     14623-2.38706E-02 3.99335E-06 1.57217E-01-1.01063E-06-1.76395E-08-3.16092E-03
 -1     14624-6.58993E-02-8.44885E-08 1.99231E-01 5.43937E-06-9.49632E-08 4.62796E-03
 -1     14626-6.58993E-02-8.44885E-08 1.99231E-01 5.43937E-06 9.49632E-08-4.62796E-03
 -1     14627-6.96658E-02 4.48022E-08 2.02998E-01-5.76092E-06 1.00571E-07 4.75946E-03
 -1     14629-6.96658E-02 4.48022E-08 2.02998E-01-5.76092E-06-1.00571E-07-4.75946E-03
 -1     14630-3.96822E-01-4.83949E-05 5.29983E-01-2.16107E-07 3.46112E-09 1.61790E-02
 -1     14632-3.96822E-01-4.83949E-05 5.29983E-01-2.16107E-07-3.46112E-09-1.61790E-02
 -1     14633-3.96207E-01-4.93790E-05 5.29359E-01 4.63194E-06-8.06751E-08 1.61573E-02
 -1     14635-3.96207E-01-4.93790E-05 5.29359E-01 4.63194E-06 8.06751E-08-1.61573E-02
 -1     14636-3.75723E-01 8.94622E-05 5.09378E-01 3.27602E-06-5.71891E-08 1.54503E-02
 -1     14638-3.75723E-01 8.94622E-05 5.09378E-01 3.27602E-06 5.71891E-08-1.54503E-02
 -1     14639-4.40699E-01-6.15534E-05 5.73811E-01-3.71780E-07 6.51776E-09 1.77103E-02
 -1     14641-4.40699E-01-6.15534E-05 5.73811E-01-3.71780E-07-6.51776E-09-1.77103E-02
 -1     14642-4.40687E-01-6.18374E-05 5.73798E-01 8.17421E-07-1.42766E-08 1.77099E-02
 -1     14644-4.40687E-01-6.18374E-05 5.73798E-01 8.17421E-07 1.42766E-08-1.77099E-02
 -1     14645-4.16320E-01 1.12892E-04 5.50057E-01-8.27257E-07 1.44426E-08 1.68692E-02
 -1     14647-4.16320E-01 1.12892E-04 5.50057E-01-8.27257E-07-1.44426E-08-1.68692E-02
 -1     14648-3.75608E-01-4.43755E-05 5.08790E-01 4.91442E-05-8.57511E-07 1.54386E-02
 -1     14650-3.75608E-01-4.43755E-05 5.08790E-01 4.91442E-05 8.57511E-07-1.54386E-02
 -1     14651-3.52936E-01 4.76191E-05 4.86435E-01-6.30974E-05 1.10165E-06 1.46521E-02
 -1     14653-3.52936E-01 4.76191E-05 4.86435E-01-6.30974E-05-1.10165E-06-1.46521E-02
 -1     14654-3.81620E-01-1.92738E-05 5.14874E-01 1.69834E-05-2.96599E-07 1.56501E-02
 -1     14656-3.81620E-01-1.92738E-05 5.14874E-01 1.69834E-05 2.96599E-07-1.56501E-02
 -1     14657-3.33378E-01-3.06811E-05 4.66606E-01 4.36766E-05-7.62286E-07 1.39648E-02
 -1     14659-3.33378E-01-3.06811E-05 4.66606E-01 4.36766E-05 7.62286E-07-1.39648E-02
 -1     14660-3.14133E-01 3.26529E-05 4.47578E-01-5.37384E-05 9.38237E-07 1.32964E-02
 -1     14662-3.14133E-01 3.26529E-05 4.47578E-01-5.37384E-05-9.38237E-07-1.32964E-02
 -1     14663-3.39278E-01-1.14993E-05 4.72566E-01 1.49596E-05-2.61170E-07 1.41722E-02
 -1     14665-3.39278E-01-1.14993E-05 4.72566E-01 1.49596E-05 2.61170E-07-1.41722E-02
 -1     14666-2.97121E-01-2.12711E-05 4.30380E-01 3.76153E-05-6.56592E-07 1.26994E-02
 -1     14668-2.97121E-01-2.12711E-05 4.30380E-01 3.76153E-05 6.56592E-07-1.26994E-02
 -1     14669-2.80564E-01 2.28412E-05 4.13974E-01-4.48858E-05 7.83671E-07 1.21238E-02
 -1     14671-2.80564E-01 2.28412E-05 4.13974E-01-4.48858E-05-7.83671E-07-1.21238E-02
 -1     14672-3.02564E-01-7.32320E-06 4.35869E-01 1.18741E-05-2.07258E-07 1.28906E-02
 -1     14674-3.02564E-01-7.32320E-06 4.35869E-01 1.18741E-05 2.07258E-07-1.28906E-02
 -1     14675-2.65710E-01-1.53135E-05 3.98990E-01 3.18541E-05-5.56085E-07 1.16031E-02
 -1     14677-2.65710E-01-1.53135E-05 3.98990E-01 3.18541E-05 5.56085E-07-1.16031E-02
 -1     14678-2.51336E-01 1.62692E-05 3.84726E-01-3.68446E-05 6.43269E-07 1.11030E-02
 -1     14680-2.51336E-01 1.62692E-05 3.84726E-01-3.68446E-05-6.43269E-07-1.11030E-02
 -1     14681-2.70619E-01-3.86864E-06 4.03934E-01 9.33256E-06-1.62884E-07 1.17753E-02
 -1     14683-2.70619E-01-3.86864E-06 4.03934E-01 9.33256E-06 1.62884E-07-1.17753E-02
 -1     14684-2.38305E-01-1.16539E-05 3.71596E-01 2.61478E-05-4.56498E-07 1.06464E-02
 -1     14686-2.38305E-01-1.16539E-05 3.71596E-01 2.61478E-05 4.56498E-07-1.06464E-02
 -1     14687-2.25728E-01 1.31394E-05 3.59107E-01-3.01507E-05 5.26398E-07 1.02087E-02
 -1     14689-2.25728E-01 1.31394E-05 3.59107E-01-3.01507E-05-5.26398E-07-1.02087E-02
 -1     14690-2.42689E-01-2.86714E-06 3.76009E-01 7.39550E-06-1.29106E-07 1.08002E-02
 -1     14692-2.42689E-01-2.86714E-06 3.76009E-01 7.39550E-06 1.29106E-07-1.08002E-02
 -1     14693-2.14279E-01-9.48628E-06 3.47577E-01 2.20033E-05-3.84133E-07 9.80771E-03
 -1     14695-2.14279E-01-9.48628E-06 3.47577E-01 2.20033E-05 3.84133E-07-9.80771E-03
 -1     14696-2.03184E-01 1.07524E-05 3.36555E-01-2.50684E-05 4.37643E-07 9.42153E-03
 -1     14698-2.03184E-01 1.07524E-05 3.36555E-01-2.50684E-05-4.37643E-07-9.42153E-03
 -1     14699-2.18180E-01-1.24959E-06 3.51503E-01 5.58928E-06-9.75902E-08 9.94454E-03
 -1     14701-2.18180E-01-1.24959E-06 3.51503E-01 5.58928E-06 9.75902E-08-9.94454E-03
 -1     14702-1.92957E-01-8.38582E-06 3.26259E-01 1.87664E-05-3.27625E-07 9.06336E-03
 -1     14704-1.92957E-01-8.38582E-06 3.26259E-01 1.87664E-05 3.27625E-07-9.06336E-03
 -1     14705-1.83071E-01 9.61575E-06 3.16438E-01-2.16363E-05 3.77720E-07 8.71927E-03
 -1     14707-1.83071E-01 9.61575E-06 3.16438E-01-2.16363E-05-3.77720E-07-8.71927E-03
 -1     14708-1.96476E-01-1.78430E-06 3.29800E-01 4.79252E-06-8.36733E-08 9.18677E-03
 -1     14710-1.96476E-01-1.78430E-06 3.29800E-01 4.79252E-06 8.36733E-08-9.18677E-03
 -1     14711-1.73905E-01-7.46832E-06 3.07210E-01 1.61504E-05-2.81959E-07 8.39824E-03
 -1     14713-1.73905E-01-7.46832E-06 3.07210E-01 1.61504E-05 2.81959E-07-8.39824E-03
 -1     14714-1.65056E-01 8.65260E-06 2.98419E-01-1.87486E-05 3.27310E-07 8.09025E-03
 -1     14716-1.65056E-01 8.65260E-06 2.98419E-01-1.87486E-05-3.27310E-07-8.09025E-03
 -1     14717-1.77057E-01-1.87720E-06 3.10382E-01 4.24577E-06-7.41287E-08 8.50879E-03
 -1     14719-1.77057E-01-1.87720E-06 3.10382E-01 4.24577E-06 7.41287E-08-8.50879E-03
 -1     14720-1.56837E-01-6.59134E-06 2.90146E-01 1.39053E-05-2.42766E-07 7.80243E-03
 -1     14722-1.56837E-01-6.59134E-06 2.90146E-01 1.39053E-05 2.42766E-07-7.80243E-03
 -1     14723-1.48899E-01 7.68433E-06 2.82258E-01-1.62097E-05 2.82989E-07 7.52609E-03
 -1     14725-1.48899E-01 7.68433E-06 2.82258E-01-1.62097E-05-2.82989E-07-7.52609E-03
 -1     14726-1.59649E-01-1.72184E-06 2.92974E-01 3.74191E-06-6.53363E-08 7.90100E-03
 -1     14728-1.59649E-01-1.72184E-06 2.92974E-01 3.74191E-06 6.53363E-08-7.90100E-03
 -1     14729-1.41520E-01-5.77302E-06 2.74832E-01 1.19928E-05-2.09376E-07 7.26771E-03
 -1     14731-1.41520E-01-5.77302E-06 2.74832E-01 1.19928E-05 2.09376E-07-7.26771E-03
 -1     14732-1.34379E-01 6.77689E-06 2.67735E-01-1.40346E-05 2.45017E-07 7.01911E-03
 -1     14734-1.34379E-01 6.77689E-06 2.67735E-01-1.40346E-05-2.45017E-07-7.01911E-03
 -1     14735-1.44031E-01-1.49659E-06 2.77357E-01 3.24301E-06-5.66300E-08 7.35573E-03
 -1     14737-1.44031E-01-1.49659E-06 2.77357E-01 3.24301E-06 5.66300E-08-7.35573E-03
 -1     14738-1.27732E-01-5.05867E-06 2.61046E-01 1.04336E-05-1.82151E-07 6.78639E-03
 -1     14740-1.27732E-01-5.05867E-06 2.61046E-01 1.04336E-05 1.82151E-07-6.78639E-03
 -1     14741-1.21284E-01 5.95070E-06 2.54638E-01-1.22408E-05 2.13700E-07 6.56191E-03
 -1     14743-1.21284E-01 5.95070E-06 2.54638E-01-1.22408E-05-2.13700E-07-6.56191E-03
 -1     14744-1.29987E-01-1.29190E-06 2.63314E-01 2.81793E-06-4.92087E-08 6.86543E-03
 -1     14746-1.29987E-01-1.29190E-06 2.63314E-01 2.81793E-06 4.92087E-08-6.86543E-03
 -1     14747-1.15267E-01-4.46750E-06 2.48584E-01 9.17149E-06-1.60116E-07 6.35124E-03
 -1     14749-1.15267E-01-4.46750E-06 2.48584E-01 9.17149E-06 1.60116E-07-6.35124E-03
 -1     14750-1.09422E-01 5.21945E-06 2.42773E-01-1.07814E-05 1.88221E-07 6.14772E-03
 -1     14752-1.09422E-01 5.21945E-06 2.42773E-01-1.07814E-05-1.88221E-07-6.14772E-03
 -1     14753-1.17307E-01-1.14687E-06 2.50634E-01 2.48812E-06-4.34478E-08 6.42271E-03
 -1     14755-1.17307E-01-1.14687E-06 2.50634E-01 2.48812E-06 4.34478E-08-6.42271E-03
 -1     14756-1.03951E-01-3.96602E-06 2.37269E-01 8.09487E-06-1.41321E-07 5.95619E-03
 -1     14758-1.03951E-01-3.96602E-06 2.37269E-01 8.09487E-06 1.41321E-07-5.95619E-03
 -1     14759-9.86340E-02 4.61007E-06 2.31983E-01-9.55115E-06 1.66743E-07 5.77106E-03
 -1     14761-9.86340E-02 4.61007E-06 2.31983E-01-9.55115E-06-1.66743E-07-5.77106E-03
 -1     14762-1.05803E-01-1.05448E-06 2.39131E-01 2.20889E-06-3.85704E-08 6.02110E-03
 -1     14764-1.05803E-01-1.05448E-06 2.39131E-01 2.20889E-06 3.85704E-08-6.02110E-03
 -1     14765-9.36474E-02-3.51969E-06 2.26967E-01 7.14135E-06-1.24676E-07 5.59650E-03
 -1     14767-9.36474E-02-3.51969E-06 2.26967E-01 7.14135E-06 1.24676E-07-5.59650E-03
 -1     14768-8.88008E-02 4.10818E-06 2.22148E-01-8.45763E-06 1.47653E-07 5.42774E-03
 -1     14770-8.88008E-02 4.10818E-06 2.22148E-01-8.45763E-06-1.47653E-07-5.42774E-03
 -1     14771-9.53317E-02-9.56107E-07 2.28660E-01 1.95363E-06-3.41139E-08 5.65552E-03
 -1     14773-9.53317E-02-9.56107E-07 2.28660E-01 1.95363E-06 3.41139E-08-5.65552E-03
 -1     14774-8.42493E-02-3.12764E-06 2.17570E-01 6.29776E-06-1.09949E-07 5.26842E-03
 -1     14776-8.42493E-02-3.12764E-06 2.17570E-01 6.29776E-06 1.09949E-07-5.26842E-03
 -1     14777-7.98233E-02 3.68548E-06 2.13169E-01-7.47524E-06 1.30503E-07 5.11429E-03
 -1     14779-7.98233E-02 3.68548E-06 2.13169E-01-7.47524E-06-1.30503E-07-5.11429E-03
 -1     14780-8.57815E-02-8.41241E-07 2.19110E-01 1.72528E-06-3.01287E-08 5.32210E-03
 -1     14782-8.57815E-02-8.41241E-07 2.19110E-01 1.72528E-06 3.01287E-08-5.32210E-03
 -1     14783-7.56625E-02-2.79353E-06 2.08985E-01 5.56115E-06-9.70893E-08 4.96866E-03
 -1     14785-7.56625E-02-2.79353E-06 2.08985E-01 5.56115E-06 9.70893E-08-4.96866E-03
 -1     14786-7.16122E-02 3.32705E-06 2.04956E-01-6.61480E-06 1.15482E-07 4.82761E-03
 -1     14788-7.16122E-02 3.32705E-06 2.04956E-01-6.61480E-06-1.15482E-07-4.82761E-03
 -1     14789-7.70584E-02-7.44230E-07 2.10388E-01 1.52689E-06-2.66667E-08 5.01756E-03
 -1     14791-7.70584E-02-7.44230E-07 2.10388E-01 1.52689E-06 2.66667E-08-5.01756E-03
 -1     14792-6.78021E-02-2.50173E-06 2.01125E-01 4.93460E-06-8.61486E-08 4.69425E-03
 -1     14794-6.78021E-02-2.50173E-06 2.01125E-01 4.93460E-06 8.61486E-08-4.69425E-03
 -1     14795-6.40862E-02 3.00355E-06 1.97429E-01-5.89023E-06 1.02832E-07 4.56484E-03
 -1     14797-6.40862E-02 3.00355E-06 1.97429E-01-5.89023E-06-1.02832E-07-4.56484E-03
 -1     14798-6.90777E-02-6.73260E-07 2.02407E-01 1.35519E-06-2.36699E-08 4.73894E-03
 -1     14800-6.90777E-02-6.73260E-07 2.02407E-01 1.35519E-06 2.36699E-08-4.73894E-03
 -1     14801-6.05886E-02-2.22543E-06 1.93913E-01 4.43505E-06-7.74237E-08 4.44243E-03
 -1     14803-6.05886E-02-2.22543E-06 1.93913E-01 4.43505E-06 7.74237E-08-4.44243E-03
 -1     14804-5.71692E-02 2.65446E-06 1.90511E-01-5.31582E-06 9.28038E-08 4.32334E-03
 -1     14806-5.71692E-02 2.65446E-06 1.90511E-01-5.31582E-06-9.28038E-08-4.32334E-03
 -1     14807-6.17608E-02-6.15075E-07 1.95090E-01 1.21457E-06-2.12125E-08 4.48349E-03
 -1     14809-6.17608E-02-6.15075E-07 1.95090E-01 1.21457E-06 2.12125E-08-4.48349E-03
 -1     14810-5.39388E-02-1.97367E-06 1.87264E-01 4.03705E-06-7.04784E-08 4.21029E-03
 -1     14812-5.39388E-02-1.97367E-06 1.87264E-01 4.03705E-06 7.04784E-08-4.21029E-03
 -1     14813-5.07882E-02 2.27274E-06 1.84128E-01-4.79956E-06 8.37918E-08 4.10055E-03
 -1     14815-5.07882E-02 2.27274E-06 1.84128E-01-4.79956E-06-8.37918E-08-4.10055E-03
 -1     14816-5.50244E-02-5.89882E-07 1.88354E-01 1.13122E-06-1.97464E-08 4.24832E-03
 -1     14818-5.50244E-02-5.89882E-07 1.88354E-01 1.13122E-06 1.97464E-08-4.24832E-03
 -1     14819-4.78010E-02-1.77076E-06 1.81127E-01 3.54837E-06-6.19607E-08 3.99603E-03
 -1     14821-4.78010E-02-1.77076E-06 1.81127E-01 3.54837E-06 6.19607E-08-3.99603E-03
 -1     14822-4.49136E-02 2.03035E-06 1.78253E-01-4.11166E-06 7.17877E-08 3.89544E-03
 -1     14824-4.49136E-02 2.03035E-06 1.78253E-01-4.11166E-06-7.17877E-08-3.89544E-03
 -1     14825-4.87998E-02-5.23559E-07 1.82130E-01 1.06708E-06-1.86253E-08 4.03101E-03
 -1     14827-4.87998E-02-5.23559E-07 1.82130E-01 1.06708E-06 1.86253E-08-4.03101E-03
 -1     14828-4.22059E-02-1.55728E-06 1.75532E-01 2.88811E-06-5.04337E-08 3.80070E-03
 -1     14830-4.22059E-02-1.55728E-06 1.75532E-01 2.88811E-06 5.04337E-08-3.80070E-03
 -1     14831-3.95795E-02 2.01795E-06 1.72919E-01-3.29378E-06 5.75134E-08 3.70921E-03
 -1     14833-3.95795E-02 2.01795E-06 1.72919E-01-3.29378E-06-5.75134E-08-3.70921E-03
 -1     14834-4.31000E-02-2.89892E-07 1.76430E-01 8.17230E-07-1.42937E-08 3.83201E-03
 -1     14836-4.31000E-02-2.89892E-07 1.76430E-01 8.17230E-07 1.42937E-08-3.83201E-03
 -1     14837-3.71683E-02-1.40834E-06 1.70495E-01 2.55329E-06-4.45507E-08 3.62484E-03
 -1     14839-3.71683E-02-1.40834E-06 1.70495E-01 2.55329E-06 4.45507E-08-3.62484E-03
 -1     14840-3.47503E-02 1.40668E-06 1.68087E-01-3.26946E-06 5.70720E-08 3.54058E-03
 -1     14842-3.47503E-02 1.40668E-06 1.68087E-01-3.26946E-06-5.70720E-08-3.54058E-03
 -1     14843-3.79765E-02-5.47759E-07 1.71307E-01 5.64601E-07-9.89281E-09 3.65313E-03
 -1     14845-3.79765E-02-5.47759E-07 1.71307E-01 5.64601E-07 9.89281E-09-3.65313E-03
 -1     14846-3.24011E-02-1.04902E-06 1.65730E-01 2.46211E-06-4.30165E-08 3.45844E-03
 -1     14848-3.24011E-02-1.04902E-06 1.65730E-01 2.46211E-06 4.30165E-08-3.45844E-03
 -1     14849-3.01979E-02 9.61187E-07 1.63534E-01-3.46540E-06 6.04461E-08 3.38165E-03
 -1     14851-3.01979E-02 9.61187E-07 1.63534E-01-3.46540E-06-6.04461E-08-3.38165E-03
 -1     14852-3.32085E-02-1.34159E-06 1.66539E-01 5.74067E-07-9.94592E-09 3.48669E-03
 -1     14854-3.32085E-02-1.34159E-06 1.66539E-01 5.74067E-07 9.94592E-09-3.48669E-03
 -1     14855-2.77253E-02-3.62273E-07 1.61055E-01 2.29253E-06-4.02789E-08 3.29524E-03
 -1     14857-2.77253E-02-3.62273E-07 1.61055E-01 2.29253E-06 4.02789E-08-3.29524E-03
 -1     14858-2.59087E-02 2.63470E-06 1.59251E-01 5.73297E-07-1.00057E-08 3.23201E-03
 -1     14860-2.59087E-02 2.63470E-06 1.59251E-01 5.73297E-07 1.00057E-08-3.23201E-03
 -1     14861-2.83825E-02-6.97871E-07 1.61712E-01 2.42015E-07-4.17618E-09 3.31820E-03
 -1     14863-2.83825E-02-6.97871E-07 1.61712E-01 2.42015E-07 4.17618E-09-3.31820E-03
 -1     14864-2.20357E-02-2.37833E-06 1.55359E-01-2.59866E-07 4.58153E-09 3.09650E-03
 -1     14866-2.20357E-02-2.37833E-06 1.55359E-01-2.59866E-07-4.58153E-09-3.09650E-03
 -1     14867-2.19097E-02-1.92623E-06 1.55235E-01-3.60799E-07 6.30346E-09 3.09214E-03
 -1     14869-2.19097E-02-1.92623E-06 1.55235E-01-3.60799E-07-6.30346E-09-3.09214E-03
 -1     14870-2.40738E-02 3.89450E-06 1.57421E-01 7.04720E-07-1.23008E-08 3.16804E-03
 -1     14872-2.40738E-02 3.89450E-06 1.57421E-01 7.04720E-07 1.23008E-08-3.16804E-03
 -1     14873-7.35817E-02-2.59117E-08 2.06914E-01 6.05862E-06-1.05773E-07 4.89616E-03
 -1     14875-7.35817E-02-2.59117E-08 2.06914E-01 6.05862E-06 1.05773E-07-4.89616E-03
 -1     14876-7.76773E-02-8.30871E-10 2.11009E-01-6.42604E-06 1.12184E-07 5.03915E-03
 -1     14878-7.76773E-02-8.30872E-10 2.11009E-01-6.42604E-06-1.12184E-07-5.03915E-03
 -1     14879-7.16574E-02-2.62397E-08 2.04989E-01 2.93466E-08-5.11129E-10 4.82904E-03
 -1     14881-7.16574E-02-2.62397E-08 2.04989E-01 2.93466E-08 5.11129E-10-4.82904E-03
 -1     14882-3.95183E-01-4.08644E-05 5.28368E-01 5.40301E-06-9.46020E-08 1.61222E-02
 -1     14884-3.95183E-01-4.08644E-05 5.28368E-01 5.40301E-06 9.46020E-08-1.61222E-02
 -1     14885-3.93259E-01-5.11225E-05 5.26406E-01 1.64198E-05-2.86093E-07 1.60543E-02
 -1     14887-3.93259E-01-5.11225E-05 5.26406E-01 1.64198E-05 2.86093E-07-1.60543E-02
 -1     14888-3.75002E-01 8.65827E-05 5.08638E-01-7.68625E-06 1.34220E-07 1.54248E-02
 -1     14890-3.75002E-01 8.65827E-05 5.08638E-01-7.68625E-06-1.34220E-07-1.54248E-02
 -1     14891-2.16035E-02-2.09894E-06 1.54928E-01-1.73039E-07 3.03404E-09 3.08143E-03
 -1     14893-2.16035E-02-2.09894E-06 1.54928E-01-1.73039E-07-3.03404E-09-3.08143E-03
 -1     14894-2.15507E-02-1.83424E-06 1.54876E-01-1.29503E-07 2.26181E-09 3.07960E-03
 -1     14896-2.15507E-02-1.83424E-06 1.54876E-01-1.29503E-07-2.26181E-09-3.07960E-03
 -1     14897-2.34465E-02 4.07183E-06 1.56793E-01 4.06785E-07-7.10218E-09 3.14613E-03
 -1     14899-2.34465E-02 4.07183E-06 1.56793E-01 4.06785E-07 7.10218E-09-3.14613E-03
 -1     14900-1.52420E-01 7.00351E-08 2.85752E-01 1.49098E-05-2.60304E-07 7.64856E-03
 -1     14902-1.52420E-01 7.00351E-08 2.85752E-01 1.49098E-05 2.60304E-07-7.64856E-03
 -1     14903-1.60460E-01 1.87010E-08 2.93792E-01-1.59228E-05 2.77982E-07 7.92927E-03
 -1     14905-1.60460E-01 1.87010E-08 2.93792E-01-1.59228E-05-2.77982E-07-7.92927E-03
 -1     14906-2.32236E-02-7.53168E-07 1.56553E-01-1.24507E-06 2.16784E-08 3.13813E-03
 -1     14908-2.32236E-02-7.53168E-07 1.56553E-01-1.24507E-06-2.16784E-08-3.13813E-03
 -1     14909-2.51210E-02 2.57389E-06 1.58465E-01 3.13042E-06-5.45599E-08 3.20455E-03
 -1     14911-2.51210E-02 2.57389E-06 1.58465E-01 3.13042E-06 5.45599E-08-3.20455E-03
 -1     14912-4.16242E-01 1.13600E-04 5.49980E-01 2.17808E-07-3.80202E-09 1.68665E-02
 -1     14914-4.16242E-01 1.13600E-04 5.49980E-01 2.17808E-07 3.80202E-09-1.68665E-02
 -1     14915-3.95982E-01-5.42228E-05 5.29127E-01 2.59658E-07-4.87989E-09 1.61494E-02
 -1     14917-3.95982E-01-5.42228E-05 5.29127E-01 2.59658E-07 4.87989E-09-1.61494E-02
 -1     14918-3.96228E-01-5.26649E-05 5.29379E-01 2.58059E-07-4.23929E-09 1.61581E-02
 -1     14920-3.96228E-01-5.26649E-05 5.29379E-01 2.58059E-07 4.23929E-09-1.61581E-02
 -1     14921-2.66966E-02-3.69576E-07 1.60029E-01-3.20541E-06 5.61042E-08 3.25938E-03
 -1     14923-2.66966E-02-3.69576E-07 1.60029E-01-3.20541E-06-5.61042E-08-3.25938E-03
 -1     14924-2.41713E-02-1.14714E-06 1.57496E-01-2.04839E-06 3.54007E-08 3.17108E-03
 -1     14926-2.41713E-02-1.14714E-06 1.57496E-01-2.04839E-06-3.54007E-08-3.17108E-03
 -1     14927-2.36786E-02 4.11015E-06 1.57025E-01 5.26732E-07-9.19636E-09 3.15424E-03
 -1     14929-2.36786E-02 4.11015E-06 1.57025E-01 5.26732E-07 9.19636E-09-3.15424E-03
 -1     14930-1.01097E-01 3.82084E-08 2.34429E-01 8.67862E-06-1.51512E-07 5.85677E-03
 -1     14932-1.01097E-01 3.82084E-08 2.34429E-01 8.67862E-06 1.51512E-07-5.85677E-03
 -1     14933-1.06467E-01-2.79194E-08 2.39799E-01-9.24264E-06 1.61360E-07 6.04424E-03
 -1     14935-1.06467E-01-2.79194E-08 2.39799E-01-9.24264E-06-1.61360E-07-6.04424E-03
 -1     14936-3.48172E-02-5.82620E-07 1.68147E-01 3.90753E-06-6.82042E-08 3.54281E-03
 -1     14938-3.48172E-02-5.82620E-07 1.68147E-01 3.90753E-06 6.82042E-08-3.54281E-03
 -1     14939-3.75245E-02 7.50108E-07 1.70859E-01-4.06073E-06 7.08889E-08 3.63741E-03
 -1     14941-3.75245E-02 7.50108E-07 1.70859E-01-4.06073E-06-7.08889E-08-3.63741E-03
 -1     14942-2.89963E-01-1.51433E-05 4.23252E-01 3.59488E-05-6.27080E-07 1.24499E-02
 -1     14944-2.89963E-01-1.51433E-05 4.23252E-01 3.59488E-05 6.27080E-07-1.24499E-02
 -1     14945-3.05386E-01 2.30558E-05 4.38827E-01-3.64986E-05 6.37456E-07 1.29909E-02
 -1     14947-3.05386E-01 2.30558E-05 4.38827E-01-3.64986E-05-6.37456E-07-1.29909E-02
 -1     14948-1.97654E-01 5.88968E-08 3.30987E-01 2.19725E-05-3.83588E-07 9.22783E-03
 -1     14950-1.97654E-01 5.88968E-08 3.30987E-01 2.19725E-05 3.83588E-07-9.22783E-03
 -1     14951-2.08352E-01-6.85748E-08 3.41684E-01-2.37892E-05 4.15320E-07 9.60131E-03
 -1     14953-2.08352E-01-6.85748E-08 3.41684E-01-2.37892E-05-4.15320E-07-9.60131E-03
 -1     14954-1.92660E-01-2.04496E-07 3.25992E-01-7.48453E-08 1.30008E-09 9.05368E-03
 -1     14956-1.92660E-01-2.04496E-07 3.25992E-01-7.48453E-08-1.30008E-09-9.05368E-03
 -1     14957-1.15095E-01 1.50121E-08 2.48427E-01-1.88449E-08 3.31325E-10 6.34558E-03
 -1     14959-1.15095E-01 1.50121E-08 2.48427E-01-1.88449E-08-3.31325E-10-6.34558E-03
 -1     14960-3.90274E-01-2.93448E-05 5.23491E-01 1.18863E-05-2.07653E-07 1.59515E-02
 -1     14962-3.90274E-01-2.93448E-05 5.23491E-01 1.18863E-05 2.07653E-07-1.59515E-02
 -1     14963-3.86475E-01-5.05561E-05 5.19630E-01 3.41297E-05-5.95144E-07 1.58175E-02
 -1     14965-3.86475E-01-5.05561E-05 5.19630E-01 3.41297E-05 5.95144E-07-1.58175E-02
 -1     14966-3.63642E-01 6.09755E-05 4.97201E-01-5.23008E-05 9.13154E-07 1.50269E-02
 -1     14968-3.63642E-01 6.09755E-05 4.97201E-01-5.23008E-05-9.13154E-07-1.50269E-02
 -1     14969-3.71169E-01 7.58153E-05 5.04776E-01-3.08326E-05 5.38353E-07 1.52905E-02
 -1     14971-3.71169E-01 7.58153E-05 5.04776E-01-3.08326E-05-5.38353E-07-1.52905E-02
 -1     14972-2.95376E-02-1.46558E-07 1.62867E-01 3.98428E-06-6.94942E-08 3.35850E-03
 -1     14974-2.95376E-02-1.46558E-07 1.62867E-01 3.98428E-06 6.94942E-08-3.35850E-03
 -1     14975-3.21013E-02 8.97257E-07 1.65436E-01-3.76575E-06 6.57630E-08 3.44808E-03
 -1     14977-3.21013E-02 8.97257E-07 1.65436E-01-3.76575E-06-6.57630E-08-3.44808E-03
 -1     14978-3.34597E-02-4.07025E-07 1.66791E-01 3.56794E-07-6.22844E-09 3.49549E-03
 -1     14980-3.34597E-02-4.07025E-07 1.66791E-01 3.56794E-07 6.22844E-09-3.49549E-03
 -1     14981-2.79048E-02-8.21681E-07 1.61235E-01 4.19825E-07-7.31441E-09 3.30158E-03
 -1     14983-2.79048E-02-8.21681E-07 1.61235E-01 4.19825E-07 7.31441E-09-3.30158E-03
 -1     14984-3.92159E-01-4.98173E-05 5.25324E-01-2.35338E-05 4.10213E-07 1.60161E-02
 -1     14986-3.92159E-01-4.98173E-05 5.25324E-01-2.35338E-05-4.10213E-07-1.60161E-02
 -1     14987-3.94928E-01-4.68292E-05 5.28093E-01 8.50671E-06-1.47284E-07 1.61130E-02
 -1     14989-3.94928E-01-4.68292E-05 5.28093E-01 8.50671E-06 1.47284E-07-1.61130E-02
 -1     14990-3.69955E-01 6.37496E-05 5.03506E-01 2.55386E-05-4.46167E-07 1.52470E-02
 -1     14992-3.69955E-01 6.37496E-05 5.03506E-01 2.55386E-05 4.46167E-07-1.52470E-02
 -1     14993-3.34756E-01 1.30646E-05 4.68108E-01 4.50204E-05-7.86743E-07 1.40147E-02
 -1     14995-3.34756E-01 1.30646E-05 4.68108E-01 4.50204E-05 7.86743E-07-1.40147E-02
 -1     14996-3.54119E-01-3.07041E-05 4.87357E-01-2.60635E-05 4.53444E-07 1.46888E-02
 -1     14998-3.54119E-01-3.07041E-05 4.87357E-01-2.60635E-05-4.53444E-07-1.46888E-02
 -1     14999-3.58053E-01-3.09730E-05 4.91268E-01 1.59577E-06-2.56543E-08 1.48260E-02
 -1     15001-3.58053E-01-3.09730E-05 4.91268E-01 1.59577E-06 2.56543E-08-1.48260E-02
 -1     15002-3.26526E-01-6.20299E-06 4.59824E-01-1.13872E-06 2.05337E-08 1.37267E-02
 -1     15004-3.26526E-01-6.20299E-06 4.59824E-01-1.13872E-06-2.05337E-08-1.37267E-02
 -1     15005-2.46136E-02 3.91198E-06 1.57960E-01-1.57335E-06 2.74514E-08 3.18688E-03
 -1     15007-2.46136E-02 3.91198E-06 1.57960E-01-1.57335E-06-2.74514E-08-3.18688E-03
 -1     15008-3.96058E-01-4.96394E-05 5.29210E-01-7.56323E-07 1.31298E-08 1.61523E-02
 -1     15010-3.96058E-01-4.96394E-05 5.29210E-01-7.56323E-07-1.31298E-08-1.61523E-02
 -1     15011-3.75035E-01 9.31668E-05 5.08706E-01 4.85218E-06-8.47082E-08 1.54266E-02
 -1     15013-3.75035E-01 9.31668E-05 5.08706E-01 4.85218E-06 8.47082E-08-1.54266E-02
 -1     15014-3.95776E-01-5.19641E-05 5.28921E-01-2.74987E-06 4.79871E-08 1.61423E-02
 -1     15016-3.95776E-01-5.19641E-05 5.28921E-01-2.74987E-06-4.79871E-08-1.61423E-02
 -1     15017-8.19459E-02 1.82347E-08 2.15278E-01 6.79699E-06-1.18664E-07 5.18817E-03
 -1     15019-8.19459E-02 1.82347E-08 2.15278E-01 6.79699E-06 1.18664E-07-5.18817E-03
 -1     15020-8.64152E-02-2.97306E-08 2.19747E-01-7.21436E-06 1.25948E-07 5.34420E-03
 -1     15022-8.64152E-02-2.97306E-08 2.19747E-01-7.21436E-06-1.25948E-07-5.34420E-03
 -1     15023-7.98395E-02-1.25702E-08 2.13171E-01 5.99104E-09-1.02543E-10 5.11470E-03
 -1     15025-7.98395E-02-1.25702E-08 2.13171E-01 5.99104E-09 1.02543E-10-5.11470E-03
 -1     15026-6.22944E-02 1.24494E-07 1.95627E-01-5.20158E-06 9.08043E-08 4.50211E-03
 -1     15028-6.22944E-02 1.24494E-07 1.95627E-01-5.20158E-06-9.08043E-08-4.50211E-03
 -1     15029-6.41389E-02-2.46698E-08 1.97471E-01 6.47858E-08-1.13033E-09 4.56655E-03
 -1     15031-6.41389E-02-2.46698E-08 1.97471E-01 6.47858E-08 1.13033E-09-4.56655E-03
 -1     15032-5.88170E-02-1.54422E-07 1.92148E-01 4.92211E-06-8.59326E-08 4.38070E-03
 -1     15034-5.88170E-02-1.54422E-07 1.92148E-01 4.92211E-06 8.59326E-08-4.38070E-03
 -1     15035-1.68941E-01 1.83466E-07 3.02273E-01 1.74938E-05-3.05418E-07 8.22536E-03
 -1     15037-1.68941E-01 1.83466E-07 3.02273E-01 1.74938E-05 3.05418E-07-8.22536E-03
 -1     15038-1.77941E-01-3.00606E-07 3.11272E-01-1.87168E-05 3.26762E-07 8.53955E-03
 -1     15040-1.77941E-01-3.00606E-07 3.11272E-01-1.87168E-05-3.26762E-07-8.53955E-03
 -1     15041-1.64728E-01-8.51110E-08 2.98060E-01-5.61459E-08 9.79619E-10 8.07844E-03
 -1     15043-1.64728E-01-8.51110E-08 2.98060E-01-5.61459E-08-9.79619E-10-8.07844E-03
 -1     15044-9.10845E-02 4.55581E-08 2.24417E-01 7.66543E-06-1.33825E-07 5.50722E-03
 -1     15046-9.10845E-02 4.55581E-08 2.24417E-01 7.66543E-06 1.33825E-07-5.50722E-03
 -1     15047-9.59764E-02-3.75962E-08 2.29308E-01-8.14788E-06 1.42246E-07 5.67800E-03
 -1     15049-9.59764E-02-3.75962E-08 2.29308E-01-8.14788E-06-1.42246E-07-5.67800E-03
 -1     15050-9.85614E-02 5.71658E-09 2.31893E-01-1.75460E-08 3.10746E-10 5.76833E-03
 -1     15052-9.85614E-02 5.71658E-09 2.31893E-01-1.75460E-08-3.10747E-10-5.76833E-03
 -1     15053-8.87748E-02-6.36034E-09 2.22107E-01-6.49701E-09 1.16247E-10 5.42666E-03
 -1     15055-8.87748E-02-6.36034E-09 2.22107E-01-6.49701E-09-1.16247E-10-5.42666E-03
 -1     15056-2.14944E-02-1.97855E-06 1.54819E-01-9.49508E-08 1.66968E-09 3.07763E-03
 -1     15058-2.14944E-02-1.97855E-06 1.54819E-01-9.49508E-08-1.66968E-09-3.07763E-03
 -1     15059-2.14729E-02-1.81090E-06 1.54798E-01-7.01687E-08 1.22558E-09 3.07688E-03
 -1     15061-2.14729E-02-1.81090E-06 1.54798E-01-7.01687E-08-1.22558E-09-3.07688E-03
 -1     15062-2.32976E-02 3.96326E-06 1.56644E-01 2.94091E-07-5.13421E-09 3.14092E-03
 -1     15064-2.32976E-02 3.96326E-06 1.56644E-01 2.94091E-07 5.13421E-09-3.14092E-03
 -1     15065-2.31760E-01 7.09058E-07 3.65095E-01-2.76030E-05 4.81912E-07 1.04186E-02
 -1     15067-2.31760E-01 7.09058E-07 3.65095E-01-2.76030E-05-4.81912E-07-1.04186E-02
 -1     15068-2.38438E-01 7.25613E-08 3.71770E-01 6.37492E-07-1.11179E-08 1.06520E-02
 -1     15070-2.38438E-01 7.25613E-08 3.71770E-01 6.37492E-07 1.11179E-08-1.06520E-02
 -1     15071-2.19764E-01-4.58499E-07 3.53096E-01 2.53369E-05-4.42298E-07 9.99973E-03
 -1     15073-2.19764E-01-4.58499E-07 3.53096E-01 2.53369E-05 4.42298E-07-9.99973E-03
 -1     15074-3.93884E-01-4.12859E-05 5.27033E-01-5.79361E-06 1.01457E-07 1.60764E-02
 -1     15076-3.93884E-01-4.12859E-05 5.27033E-01-5.79361E-06-1.01457E-07-1.60764E-02
 -1     15077-3.93746E-01-5.24238E-05 5.26884E-01 9.85165E-06-1.72229E-07 1.60714E-02
 -1     15079-3.93746E-01-5.24238E-05 5.26884E-01 9.85165E-06 1.72229E-07-1.60714E-02
 -1     15080-3.72791E-01 9.46032E-05 5.06466E-01-1.80363E-05 3.14850E-07 1.53484E-02
 -1     15082-3.72791E-01 9.46032E-05 5.06466E-01-1.80363E-05-3.14850E-07-1.53484E-02
 -1     15083-3.94364E-01-5.52059E-05 5.27499E-01-8.78207E-06 1.53184E-07 1.60929E-02
 -1     15085-3.94364E-01-5.52059E-05 5.27499E-01-8.78207E-06-1.53184E-07-1.60929E-02
 -1     15086-3.94740E-01-4.37687E-05 5.27904E-01-7.80374E-06 1.35900E-07 1.61065E-02
 -1     15088-3.94740E-01-4.37687E-05 5.27904E-01-7.80374E-06-1.35900E-07-1.61065E-02
 -1     15089-3.74220E-01 1.12543E-04 5.07876E-01 1.16750E-05-2.03863E-07 1.53978E-02
 -1     15091-3.74220E-01 1.12543E-04 5.07876E-01 1.16750E-05 2.03863E-07-1.53978E-02
 -1     15092-3.72286E-01 7.72570E-05 5.05989E-01 1.25908E-05-2.19741E-07 1.53314E-02
 -1     15094-3.72286E-01 7.72570E-05 5.05989E-01 1.25908E-05 2.19741E-07-1.53314E-02
 -1     15095-1.24216E-01-3.70042E-09 2.57548E-01 1.12068E-05-1.95648E-07 6.66391E-03
 -1     15097-1.24216E-01-3.70043E-09 2.57548E-01 1.12068E-05 1.95648E-07-6.66391E-03
 -1     15098-1.30738E-01 8.27966E-08 2.64070E-01-1.20218E-05 2.09879E-07 6.89159E-03
 -1     15100-1.30738E-01 8.27966E-08 2.64070E-01-1.20218E-05-2.09879E-07-6.89159E-03
 -1     15101-2.73516E-01 8.02965E-06 4.06883E-01-3.85500E-05 6.73196E-07 1.18770E-02
 -1     15103-2.73516E-01 8.02965E-06 4.06883E-01-3.85500E-05-6.73196E-07-1.18770E-02
 -1     15104-2.83229E-01 5.07811E-07 4.16551E-01 3.21361E-06-5.60236E-08 1.22158E-02
 -1     15106-2.83229E-01 5.07811E-07 4.16551E-01 3.21361E-06 5.60236E-08-1.22158E-02
 -1     15107-2.59184E-01-5.77171E-06 3.92503E-01 3.24694E-05-5.66649E-07 1.13758E-02
 -1     15109-2.59184E-01-5.77171E-06 3.92503E-01 3.24694E-05 5.66649E-07-1.13758E-02
 -1     15110-3.95469E-01-5.09351E-05 5.28617E-01-3.85516E-07 6.68000E-09 1.61316E-02
 -1     15112-3.95469E-01-5.09351E-05 5.28617E-01-3.85516E-07-6.68000E-09-1.61316E-02
 -1     15113-3.74293E-01 9.51932E-05 5.07967E-01 3.27533E-06-5.71793E-08 1.54008E-02
 -1     15115-3.74293E-01 9.51932E-05 5.07967E-01 3.27533E-06 5.71793E-08-1.54008E-02
 -1     15116-3.95288E-01-5.21400E-05 5.28434E-01-1.49682E-06 2.61636E-08 1.61253E-02
 -1     15118-3.95288E-01-5.21400E-05 5.28434E-01-1.49682E-06-2.61636E-08-1.61253E-02
 -1     15119-2.32168E-02 3.86985E-06 1.56563E-01 1.39725E-07-2.43908E-09 3.13809E-03
 -1     15121-2.32168E-02 3.86985E-06 1.56563E-01 1.39725E-07 2.43908E-09-3.13809E-03
 -1     15122-2.73321E-02-1.62567E-06 1.60660E-01-2.84097E-06 4.96953E-08 3.28148E-03
 -1     15124-2.73321E-02-1.62567E-06 1.60660E-01-2.84097E-06-4.96953E-08-3.28148E-03
 -1     15125-2.65310E-02-4.79799E-07 1.59859E-01-6.11538E-08 9.92738E-10 3.25353E-03
 -1     15127-2.65310E-02-4.79799E-07 1.59859E-01-6.11538E-08-9.92738E-10-3.25353E-03
 -1     15128-2.51922E-02-1.79345E-06 1.58518E-01 3.02265E-07-5.26029E-09 3.20674E-03
 -1     15130-2.51922E-02-1.79345E-06 1.58518E-01 3.02265E-07 5.26029E-09-3.20674E-03
 -1     15131-2.53469E-02-2.29761E-06 1.58671E-01 4.30486E-07-7.55779E-09 3.21209E-03
 -1     15133-2.53469E-02-2.29761E-06 1.58671E-01 4.30486E-07 7.55779E-09-3.21209E-03
 -1     15134-1.34204E-01 8.96778E-08 2.67536E-01-3.36531E-08 5.92553E-10 7.01273E-03
 -1     15136-1.34204E-01 8.96778E-08 2.67536E-01-3.36531E-08-5.92553E-10-7.01273E-03
 -1     15137-1.37594E-01 3.68578E-09 2.70925E-01 1.28459E-05-2.24266E-07 7.13094E-03
 -1     15139-1.37594E-01 3.68578E-09 2.70925E-01 1.28459E-05 2.24266E-07-7.13094E-03
 -1     15140-3.95719E-01-4.95956E-05 5.28869E-01 9.25263E-07-1.60249E-08 1.61404E-02
 -1     15142-3.95719E-01-4.95956E-05 5.28869E-01 9.25263E-07 1.60249E-08-1.61404E-02
 -1     15143-3.95560E-01-5.16290E-05 5.28708E-01 2.57723E-06-4.49664E-08 1.61348E-02
 -1     15145-3.95560E-01-5.16290E-05 5.28708E-01 2.57723E-06 4.49664E-08-1.61348E-02
 -1     15146-3.74881E-01 8.77553E-05 5.08542E-01-6.29245E-06 1.09845E-07 1.54210E-02
 -1     15148-3.74881E-01 8.77553E-05 5.08542E-01-6.29245E-06-1.09845E-07-1.54210E-02
 -1     15149-2.64402E-02-1.07969E-06 1.59768E-01 5.89267E-07-1.03228E-08 3.25036E-03
 -1     15151-2.64402E-02-1.07969E-06 1.59768E-01 5.89267E-07 1.03228E-08-3.25036E-03
 -1     15152-2.69138E-02-1.90154E-06 1.60238E-01 2.87136E-06-5.03161E-08 3.26683E-03
 -1     15154-2.69138E-02-1.90154E-06 1.60238E-01 2.87136E-06 5.03161E-08-3.26683E-03
 -1     15155-3.56372E-01-4.40258E-05 4.89544E-01-3.87281E-06 6.75803E-08 1.47669E-02
 -1     15157-3.56372E-01-4.40258E-05 4.89544E-01-3.87281E-06-6.75803E-08-1.47669E-02
 -1     15158-3.56796E-01-3.98649E-05 4.89981E-01-1.90494E-06 3.31099E-08 1.47819E-02
 -1     15160-3.56796E-01-3.98649E-05 4.89981E-01-1.90494E-06-3.31099E-08-1.47819E-02
 -1     15161-4.03263E-02-5.45744E-07 1.73656E-01 4.07466E-06-7.11316E-08 3.73514E-03
 -1     15163-4.03263E-02-5.45744E-07 1.73656E-01 4.07466E-06 7.11316E-08-3.73514E-03
 -1     15164-4.31811E-02 5.56756E-07 1.76515E-01-4.27241E-06 7.45776E-08 3.83487E-03
 -1     15166-4.31811E-02 5.56756E-07 1.76515E-01-4.27241E-06-7.45776E-08-3.83487E-03
 -1     15167-3.89718E-02-2.07077E-07 1.72303E-01 2.36141E-07-4.12737E-09 3.68793E-03
 -1     15169-3.89718E-02-2.07077E-07 1.72303E-01 2.36141E-07 4.12737E-09-3.68793E-03
 -1     15170-2.57229E-02-2.39788E-06 1.59046E-01-5.47560E-07 9.57648E-09 3.22522E-03
 -1     15172-2.57229E-02-2.39788E-06 1.59046E-01-5.47560E-07-9.57648E-09-3.22522E-03
 -1     15173-2.55795E-02-1.89325E-06 1.58905E-01-2.37739E-07 4.14955E-09 3.22025E-03
 -1     15175-2.55795E-02-1.89325E-06 1.58905E-01-2.37739E-07-4.14955E-09-3.22025E-03
 -1     15176-3.57554E-01-4.26547E-05 4.90730E-01-4.98344E-06 8.67630E-08 1.48082E-02
 -1     15178-3.57554E-01-4.26547E-05 4.90730E-01-4.98344E-06-8.67630E-08-1.48082E-02
 -1     15179-3.57773E-01-3.76558E-05 4.90964E-01-6.94193E-07 1.18934E-08 1.48161E-02
 -1     15181-3.57773E-01-3.76558E-05 4.90964E-01-6.94193E-07-1.18934E-08-1.48161E-02
 -1     15182-3.38598E-01 7.75289E-05 4.72216E-01 7.71084E-06-1.34615E-07 1.41535E-02
 -1     15184-3.38598E-01 7.75289E-05 4.72216E-01 7.71084E-06 1.34615E-07-1.41535E-02
 -1     15185-1.30742E-01-1.13446E-07 2.64074E-01 1.18906E-05-2.07583E-07 6.89173E-03
 -1     15187-1.30742E-01-1.13446E-07 2.64074E-01 1.18906E-05 2.07583E-07-6.89173E-03
 -1     15188-1.37597E-01 2.54849E-07 2.70930E-01-1.28271E-05 2.23936E-07 7.13107E-03
 -1     15190-1.37597E-01 2.54849E-07 2.70930E-01-1.28271E-05-2.23936E-07-7.13107E-03
 -1     15191-2.52375E-02-2.26779E-06 1.58561E-01-2.50846E-07 4.39785E-09 3.20828E-03
 -1     15193-2.52375E-02-2.26779E-06 1.58561E-01-2.50846E-07-4.39785E-09-3.20828E-03
 -1     15194-2.51791E-02-1.92562E-06 1.58504E-01-1.77586E-07 3.11121E-09 3.20627E-03
 -1     15196-2.51791E-02-1.92562E-06 1.58504E-01-1.77586E-07-3.11121E-09-3.20627E-03
 -1     15197-2.50884E-02-2.17491E-06 1.58413E-01-1.28985E-07 2.27512E-09 3.20308E-03
 -1     15199-2.50884E-02-2.17491E-06 1.58413E-01-1.28985E-07-2.27512E-09-3.20308E-03
 -1     15200-2.50636E-02-1.93655E-06 1.58389E-01-8.10195E-08 1.41313E-09 3.20223E-03
 -1     15202-2.50636E-02-1.93655E-06 1.58389E-01-8.10195E-08-1.41313E-09-3.20223E-03
 -1     15203-2.70144E-02 4.29632E-06 1.60362E-01 4.83871E-07-8.44736E-09 3.27070E-03
 -1     15205-2.70144E-02 4.29632E-06 1.60362E-01 4.83871E-07 8.44736E-09-3.27070E-03
 -1     15206-1.44818E-01 1.31644E-07 2.78151E-01-1.37682E-05 2.40367E-07 7.38318E-03
 -1     15208-1.44818E-01 1.31644E-07 2.78151E-01-1.37682E-05-2.40367E-07-7.38318E-03
 -1     15209-3.95355E-01-5.08240E-05 5.28505E-01-1.64363E-07 2.91239E-09 1.61277E-02
 -1     15211-3.95355E-01-5.08240E-05 5.28505E-01-1.64363E-07-2.91239E-09-1.61277E-02
 -1     15212-3.95271E-01-5.19077E-05 5.28417E-01 1.18180E-06-2.06325E-08 1.61247E-02
 -1     15214-3.95271E-01-5.19077E-05 5.28417E-01 1.18180E-06 2.06325E-08-1.61247E-02
 -1     15215-3.74184E-01 9.51200E-05 5.07857E-01-1.89504E-06 3.30840E-08 1.53969E-02
 -1     15217-3.74184E-01 9.51200E-05 5.07857E-01-1.89504E-06-3.30840E-08-1.53969E-02
 -1     15218-3.44272E-01-3.70464E-05 4.77476E-01 3.78690E-05-6.60649E-07 1.43448E-02
 -1     15220-3.44272E-01-3.70464E-05 4.77476E-01 3.78690E-05 6.60649E-07-1.43448E-02
 -1     15221-3.24522E-01 4.12736E-05 4.58004E-01-5.15481E-05 9.00016E-07 1.36598E-02
 -1     15223-3.24522E-01 4.12736E-05 4.58004E-01-5.15481E-05-9.00016E-07-1.36598E-02
 -1     15224-3.48808E-01-1.75592E-05 4.82073E-01 1.46504E-05-2.55646E-07 1.45045E-02
 -1     15226-3.48808E-01-1.75592E-05 4.82073E-01 1.46504E-05 2.55646E-07-1.45045E-02
 -1     15227-1.12101E-01 1.40524E-08 2.45433E-01 9.85482E-06-1.72046E-07 6.24093E-03
 -1     15229-1.12101E-01 1.40524E-08 2.45433E-01 9.85482E-06 1.72046E-07-6.24093E-03
 -1     15230-1.18010E-01 1.64054E-08 2.51342E-01-1.05335E-05 1.83895E-07 6.44724E-03
 -1     15232-1.18010E-01 1.64054E-08 2.51342E-01-1.05335E-05-1.83895E-07-6.44724E-03
 -1     15233-1.21148E-01 3.20684E-08 2.54480E-01-3.05106E-08 5.36899E-10 6.55689E-03
 -1     15235-1.21148E-01 3.20684E-08 2.54480E-01-3.05106E-08-5.36899E-10-6.55689E-03
 -1     15236-1.09312E-01 3.77905E-09 2.42644E-01-2.51334E-08 4.42084E-10 6.14366E-03
 -1     15238-1.09312E-01 3.77905E-09 2.42644E-01-2.51333E-08-4.42084E-10-6.14366E-03
 -1     15239-3.07371E-01-2.59868E-05 4.40613E-01 3.58622E-05-6.25820E-07 1.30570E-02
 -1     15241-3.07371E-01-2.59868E-05 4.40613E-01 3.58622E-05 6.25820E-07-1.30570E-02
 -1     15242-2.90245E-01 2.80914E-05 4.23674E-01-4.64299E-05 8.10663E-07 1.24621E-02
 -1     15244-2.90245E-01 2.80914E-05 4.23674E-01-4.64299E-05-8.10663E-07-1.24621E-02
 -1     15245-3.12070E-01-8.99275E-06 4.45364E-01 1.31399E-05-2.29296E-07 1.32222E-02
 -1     15247-3.12070E-01-8.99275E-06 4.45364E-01 1.31399E-05 2.29296E-07-1.32222E-02
 -1     15248-2.75136E-01-1.75779E-05 4.08409E-01 3.28402E-05-5.73190E-07 1.19320E-02
 -1     15250-2.75136E-01-1.75779E-05 4.08409E-01 3.28402E-05 5.73190E-07-1.19320E-02
 -1     15251-2.60215E-01 1.75127E-05 3.93612E-01-3.96588E-05 6.92408E-07 1.14131E-02
 -1     15253-2.60215E-01 1.75127E-05 3.93612E-01-3.96588E-05-6.92408E-07-1.14131E-02
 -1     15254-2.79690E-01-4.10861E-06 4.13004E-01 8.87578E-06-1.54766E-07 1.20920E-02
 -1     15256-2.79690E-01-4.10861E-06 4.13004E-01 8.87578E-06 1.54766E-07-1.20920E-02
 -1     15257-2.46716E-01-1.23942E-05 3.80005E-01 2.76493E-05-4.82705E-07 1.09401E-02
 -1     15259-2.46716E-01-1.23942E-05 3.80005E-01 2.76493E-05 4.82705E-07-1.09401E-02
 -1     15260-2.33647E-01 1.34184E-05 3.67026E-01-3.25419E-05 5.68175E-07 1.04852E-02
 -1     15262-2.33647E-01 1.34184E-05 3.67026E-01-3.25419E-05-5.68175E-07-1.04852E-02
 -1     15263-2.51018E-01-3.87349E-06 3.84338E-01 8.87055E-06-1.54740E-07 1.10910E-02
 -1     15265-2.51018E-01-3.87349E-06 3.84338E-01 8.87055E-06 1.54740E-07-1.10910E-02
 -1     15266-2.21889E-01-9.52140E-06 3.55188E-01 2.31664E-05-4.04429E-07 1.00734E-02
 -1     15268-2.21889E-01-9.52140E-06 3.55188E-01 2.31664E-05 4.04429E-07-1.00734E-02
 -1     15269-2.10403E-01 1.05882E-05 3.43777E-01-2.63740E-05 4.60423E-07 9.67360E-03
 -1     15271-2.10403E-01 1.05882E-05 3.43777E-01-2.63740E-05-4.60423E-07-9.67360E-03
 -1     15272-2.25742E-01 5.86278E-07 3.59067E-01 5.28501E-06-9.22510E-08 1.02086E-02
 -1     15274-2.25742E-01 5.86278E-07 3.59067E-01 5.28501E-06 9.22510E-08-1.02086E-02
 -1     15275-1.99786E-01-8.86802E-06 3.33086E-01 1.97519E-05-3.44833E-07 9.30175E-03
 -1     15277-1.99786E-01-8.86802E-06 3.33086E-01 1.97519E-05 3.44833E-07-9.30175E-03
 -1     15278-1.89523E-01 1.03375E-05 3.22894E-01-2.30570E-05 4.02509E-07 8.94459E-03
 -1     15280-1.89523E-01 1.03375E-05 3.22894E-01-2.30570E-05-4.02509E-07-8.94459E-03
 -1     15281-2.03339E-01-1.59474E-06 3.36664E-01 4.67633E-06-8.16082E-08 9.42639E-03
 -1     15283-2.03339E-01-1.59474E-06 3.36664E-01 4.67633E-06 8.16082E-08-9.42639E-03
 -1     15284-1.79974E-01-8.21750E-06 3.13276E-01 1.70276E-05-2.97282E-07 8.61009E-03
 -1     15286-1.79974E-01-8.21750E-06 3.13276E-01 1.70276E-05 2.97282E-07-8.61009E-03
 -1     15287-1.70774E-01 9.72535E-06 3.04142E-01-2.00324E-05 3.49717E-07 8.28995E-03
 -1     15289-1.70774E-01 9.72535E-06 3.04142E-01-2.00324E-05-3.49717E-07-8.28995E-03
 -1     15290-1.83146E-01-1.95809E-06 3.16470E-01 4.58756E-06-8.00649E-08 8.72137E-03
 -1     15292-1.83146E-01-1.95809E-06 3.16470E-01 4.58756E-06 8.00649E-08-8.72137E-03
 -1     15293-1.62225E-01-7.39415E-06 2.95531E-01 1.45885E-05-2.54700E-07 7.99048E-03
 -1     15295-1.62225E-01-7.39415E-06 2.95531E-01 1.45885E-05 2.54700E-07-7.99048E-03
 -1     15296-1.53977E-01 8.70135E-06 2.87340E-01-1.72654E-05 3.01417E-07 7.70345E-03
 -1     15298-1.53977E-01 8.70135E-06 2.87340E-01-1.72654E-05-3.01417E-07-7.70345E-03
 -1     15299-1.65023E-01-1.83995E-06 2.98348E-01 4.12320E-06-7.19646E-08 8.08862E-03
 -1     15301-1.65023E-01-1.83995E-06 2.98348E-01 4.12320E-06 7.19646E-08-8.08862E-03
 -1     15302-1.46325E-01-6.49758E-06 2.79634E-01 1.24510E-05-2.17380E-07 7.43543E-03
 -1     15304-1.46325E-01-6.49758E-06 2.79634E-01 1.24510E-05 2.17380E-07-7.43543E-03
 -1     15305-1.38921E-01 7.68593E-06 2.72281E-01-1.48231E-05 2.58782E-07 7.17774E-03
 -1     15307-1.38921E-01 7.68593E-06 2.72281E-01-1.48231E-05-2.58782E-07-7.17774E-03
 -1     15308-1.48799E-01-1.55725E-06 2.82125E-01 3.54576E-06-6.18925E-08 7.52221E-03
 -1     15310-1.48799E-01-1.55725E-06 2.82125E-01 3.54576E-06 6.18925E-08-7.52221E-03
 -1     15311-1.32053E-01-5.67292E-06 2.65364E-01 1.07099E-05-1.86978E-07 6.93719E-03
 -1     15313-1.32053E-01-5.67292E-06 2.65364E-01 1.07099E-05 1.86978E-07-6.93719E-03
 -1     15314-1.25383E-01 6.78451E-06 2.58740E-01-1.28102E-05 2.23640E-07 6.70506E-03
 -1     15316-1.25383E-01 6.78451E-06 2.58740E-01-1.28102E-05-2.23640E-07-6.70506E-03
 -1     15317-1.34259E-01-1.29882E-06 2.67585E-01 3.01224E-06-5.25839E-08 7.01456E-03
 -1     15319-1.34259E-01-1.29882E-06 2.67585E-01 3.01224E-06 5.25839E-08-7.01456E-03
 -1     15320-1.19181E-01-5.01434E-06 2.52495E-01 9.38503E-06-1.63843E-07 6.48786E-03
 -1     15322-1.19181E-01-5.01434E-06 2.52495E-01 9.38503E-06 1.63843E-07-6.48786E-03
 -1     15323-1.13143E-01 5.94773E-06 2.46497E-01-1.12494E-05 1.96391E-07 6.27770E-03
 -1     15325-1.13143E-01 5.94773E-06 2.46497E-01-1.12494E-05-1.96391E-07-6.27770E-03
 -1     15326-1.21170E-01-1.14641E-06 2.54497E-01 2.64355E-06-4.61455E-08 6.55760E-03
 -1     15328-1.21170E-01-1.14641E-06 2.54497E-01 2.64355E-06 4.61455E-08-6.55760E-03
 -1     15329-1.07507E-01-4.47872E-06 2.40823E-01 8.29802E-06-1.44865E-07 6.08030E-03
 -1     15331-1.07507E-01-4.47872E-06 2.40823E-01 8.29802E-06 1.44865E-07-6.08030E-03
 -1     15332-1.02017E-01 5.24153E-06 2.35368E-01-1.00078E-05 1.74714E-07 5.88922E-03
 -1     15334-1.02017E-01 5.24153E-06 2.35368E-01-1.00078E-05-1.74714E-07-5.88922E-03
 -1     15335-1.09314E-01-1.10826E-06 2.42641E-01 2.36799E-06-4.13309E-08 6.14366E-03
 -1     15337-1.09314E-01-1.10826E-06 2.42641E-01 2.36799E-06 4.13309E-08-6.14366E-03
 -1     15338-9.68773E-02-3.97823E-06 2.30195E-01 7.32992E-06-1.27967E-07 5.70924E-03
 -1     15340-9.68773E-02-3.97823E-06 2.30195E-01 7.32992E-06 1.27967E-07-5.70924E-03
 -1     15341-9.18744E-02 4.66840E-06 2.25223E-01-8.89415E-06 1.55273E-07 5.53508E-03
 -1     15343-9.18744E-02 4.66840E-06 2.25223E-01-8.89415E-06-1.55273E-07-5.53508E-03
 -1     15344-9.85209E-02-1.03880E-06 2.31849E-01 2.10476E-06-3.67354E-08 5.76686E-03
 -1     15346-9.85209E-02-1.03880E-06 2.31849E-01 2.10476E-06 3.67354E-08-5.76686E-03
 -1     15347-8.71837E-02-3.52449E-06 2.20503E-01 6.46295E-06-1.12834E-07 5.37084E-03
 -1     15349-8.71837E-02-3.52449E-06 2.20503E-01 6.46295E-06 1.12834E-07-5.37084E-03
 -1     15350-8.26178E-02 4.18406E-06 2.15965E-01-7.85345E-06 1.37105E-07 5.21189E-03
 -1     15352-8.26178E-02 4.18406E-06 2.15965E-01-7.85345E-06-1.37105E-07-5.21189E-03
 -1     15353-8.86764E-02-8.92775E-07 2.22005E-01 1.86077E-06-3.24787E-08 5.42317E-03
 -1     15355-8.86764E-02-8.92775E-07 2.22005E-01 1.86077E-06 3.24787E-08-5.42317E-03
 -1     15356-7.83310E-02-3.15170E-06 2.11652E-01 5.68867E-06-9.93184E-08 5.06180E-03
 -1     15358-7.83310E-02-3.15170E-06 2.11652E-01 5.68867E-06 9.93184E-08-5.06180E-03
 -1     15359-7.41571E-02 3.79439E-06 2.07503E-01-6.91350E-06 1.20695E-07 4.91649E-03
 -1     15361-7.41571E-02 3.79439E-06 2.07503E-01-6.91350E-06-1.20695E-07-4.91649E-03
 -1     15362-7.96866E-02-7.70169E-07 2.13015E-01 1.65038E-06-2.88094E-08 5.10931E-03
 -1     15364-7.96866E-02-7.70169E-07 2.13015E-01 1.65038E-06 2.88094E-08-5.10931E-03
 -1     15365-7.02347E-02-2.85015E-06 2.03556E-01 4.99786E-06-8.72577E-08 4.77916E-03
 -1     15367-7.02347E-02-2.85015E-06 2.03556E-01 4.99786E-06 8.72577E-08-4.77916E-03
 -1     15368-6.64125E-02 3.48934E-06 1.99757E-01-6.08575E-06 1.06245E-07 4.64609E-03
 -1     15370-6.64125E-02 3.48934E-06 1.99757E-01-6.08575E-06-1.06245E-07-4.64609E-03
 -1     15371-7.14660E-02-7.08674E-07 2.04795E-01 1.46882E-06-2.56438E-08 4.82231E-03
 -1     15373-7.14660E-02-7.08674E-07 2.04795E-01 1.46882E-06 2.56438E-08-4.82231E-03
 -1     15374-6.28252E-02-2.57365E-06 1.96148E-01 4.41009E-06-7.69905E-08 4.52049E-03
 -1     15376-6.28252E-02-2.57365E-06 1.96148E-01 4.41009E-06 7.69905E-08-4.52049E-03
 -1     15377-5.93165E-02 3.18687E-06 1.92660E-01-5.41013E-06 9.44517E-08 4.39834E-03
 -1     15379-5.93165E-02 3.18687E-06 1.92660E-01-5.41013E-06-9.44517E-08-4.39834E-03
 -1     15380-6.39456E-02-6.72392E-07 1.97275E-01 1.30235E-06-2.27421E-08 4.55976E-03
 -1     15382-6.39456E-02-6.72392E-07 1.97275E-01 1.30235E-06 2.27421E-08-4.55976E-03
 -1     15383-5.60313E-02-2.25758E-06 1.89355E-01 4.01606E-06-7.00975E-08 4.28333E-03
 -1     15385-5.60313E-02-2.25758E-06 1.89355E-01 4.01606E-06 7.00975E-08-4.28333E-03
 -1     15386-5.27913E-02 2.71468E-06 1.86133E-01-5.04611E-06 8.80949E-08 4.17050E-03
 -1     15388-5.27913E-02 2.71468E-06 1.86133E-01-5.04611E-06-8.80949E-08-4.17050E-03
 -1     15389-5.70630E-02-6.50841E-07 1.90392E-01 1.16074E-06-2.02666E-08 4.31948E-03
 -1     15391-5.70630E-02-6.50841E-07 1.90392E-01 1.16074E-06 2.02666E-08-4.31948E-03
 -1     15392-4.97227E-02-1.95771E-06 1.83048E-01 3.80699E-06-6.64615E-08 4.06311E-03
 -1     15394-4.97227E-02-1.95771E-06 1.83048E-01 3.80699E-06 6.64615E-08-4.06311E-03
 -1     15395-4.67280E-02 2.15079E-06 1.80068E-01-4.73817E-06 8.27177E-08 3.95880E-03
 -1     15397-4.67280E-02 2.15079E-06 1.80068E-01-4.73817E-06-8.27177E-08-3.95880E-03
 -1     15398-5.06995E-02-7.61155E-07 1.84030E-01 1.10310E-06-1.92214E-08 4.09733E-03
 -1     15400-5.06995E-02-7.61155E-07 1.84030E-01 1.10310E-06 1.92214E-08-4.09733E-03
 -1     15401-4.38518E-02-1.86431E-06 1.77178E-01 3.32562E-06-5.81074E-08 3.85817E-03
 -1     15403-4.38518E-02-1.86431E-06 1.77178E-01 3.32562E-06 5.81074E-08-3.85817E-03
 -1     15404-4.11375E-02 1.99546E-06 1.74479E-01-3.61201E-06 6.30670E-08 3.76365E-03
 -1     15406-4.11375E-02 1.99546E-06 1.74479E-01-3.61201E-06-6.30670E-08-3.76365E-03
 -1     15407-4.47481E-02-7.27484E-07 1.78078E-01 1.08066E-06-1.88339E-08 3.88956E-03
 -1     15409-4.47481E-02-7.27484E-07 1.78078E-01 1.08066E-06 1.88339E-08-3.88956E-03
 -1     15410-3.86345E-02-1.26906E-06 1.71960E-01 2.16645E-06-3.78469E-08 3.67600E-03
 -1     15412-3.86345E-02-1.26906E-06 1.71960E-01 2.16645E-06 3.78469E-08-3.67600E-03
 -1     15413-3.62157E-02 2.74762E-06 1.69557E-01-1.45806E-06 2.54827E-08 3.59181E-03
 -1     15415-3.62157E-02 2.74762E-06 1.69557E-01-1.45806E-06-2.54827E-08-3.59181E-03
 -1     15416-3.93661E-02-1.53790E-07 1.72695E-01 5.30090E-07-9.35425E-09 3.70162E-03
 -1     15418-3.93661E-02-1.53790E-07 1.72695E-01 5.30090E-07 9.35425E-09-3.70162E-03
 -1     15419-2.98016E-02 1.17643E-06 1.63137E-01 2.57792E-06-4.49146E-08 3.36780E-03
 -1     15421-2.98016E-02 1.17643E-06 1.63137E-01 2.57792E-06 4.49146E-08-3.36780E-03
 -1     15422-2.61687E-02-2.02650E-06 1.59492E-01-1.41701E-06 2.47816E-08 3.24079E-03
 -1     15424-2.61687E-02-2.02650E-06 1.59492E-01-1.41701E-06-2.47816E-08-3.24079E-03
 -1     15425-2.59088E-02-1.50849E-06 1.59235E-01-2.82585E-07 4.91465E-09 3.23176E-03
 -1     15427-2.59088E-02-1.50849E-06 1.59235E-01-2.82585E-07-4.91465E-09-3.23176E-03
 -1     15428-2.77998E-02 4.54168E-06 1.61149E-01 1.00952E-06-1.76257E-08 3.29815E-03
 -1     15430-2.77998E-02 4.54168E-06 1.61149E-01 1.00952E-06 1.76257E-08-3.29815E-03
 -1     15431-2.83611E-02 3.12385E-06 1.61707E-01 1.81289E-06-3.16474E-08 3.31770E-03
 -1     15433-2.83611E-02 3.12385E-06 1.61707E-01 1.81289E-06 3.16474E-08-3.31770E-03
 -1     15434-2.56324E-02-1.59637E-06 1.58959E-01 5.48229E-07-9.57446E-09 3.22212E-03
 -1     15436-2.56324E-02-1.59637E-06 1.58959E-01 5.48229E-07 9.57446E-09-3.22212E-03
 -1     15437-2.59152E-02-2.42805E-06 1.59237E-01 1.02576E-06-1.79868E-08 3.23191E-03
 -1     15439-2.59152E-02-2.42805E-06 1.59237E-01 1.02576E-06 1.79868E-08-3.23191E-03
 -1     15440-2.73754E-02 3.91647E-06 1.60721E-01-1.04033E-06 1.81567E-08 3.28327E-03
 -1     15442-2.73754E-02 3.91647E-06 1.60721E-01-1.04033E-06-1.81567E-08-3.28327E-03
 -1     15443-6.96891E-02-3.29247E-08 2.03021E-01 5.65138E-06-9.86663E-08 4.76026E-03
 -1     15445-6.96891E-02-3.29247E-08 2.03021E-01 5.65138E-06 9.86663E-08-4.76026E-03
 -1     15446-7.36051E-02-2.55761E-08 2.06937E-01-6.00618E-06 1.04853E-07 4.89698E-03
 -1     15448-7.36051E-02-2.55761E-08 2.06937E-01-6.00618E-06-1.04853E-07-4.89698E-03
 -1     15449-3.58533E-01-3.98081E-05 4.91728E-01-1.23524E-06 2.09083E-08 1.48426E-02
 -1     15451-3.58533E-01-3.98081E-05 4.91728E-01-1.23524E-06-2.09083E-08-1.48426E-02
 -1     15452-3.57582E-01-3.92873E-05 4.90772E-01 5.85301E-06-1.01788E-07 1.48092E-02
 -1     15454-3.57582E-01-3.92873E-05 4.90772E-01 5.85301E-06 1.01788E-07-1.48092E-02
 -1     15455-3.40093E-01 6.85518E-05 4.73685E-01 9.66572E-06-1.68735E-07 1.42052E-02
 -1     15457-3.40093E-01 6.85518E-05 4.73685E-01 9.66572E-06 1.68735E-07-1.42052E-02
 -1     15458-2.54419E-02-2.36409E-06 1.58765E-01-3.60336E-07 6.30667E-09 3.21542E-03
 -1     15460-2.54419E-02-2.36409E-06 1.58765E-01-3.60336E-07-6.30667E-09-3.21542E-03
 -1     15461-2.53478E-02-1.93975E-06 1.58673E-01-2.30686E-07 4.03287E-09 3.21216E-03
 -1     15463-2.53478E-02-1.93975E-06 1.58673E-01-2.30686E-07-4.03287E-09-3.21216E-03
 -1     15464-2.74698E-02 4.69271E-06 1.60819E-01 7.42219E-07-1.29584E-08 3.28663E-03
 -1     15466-2.74698E-02 4.69271E-06 1.60819E-01 7.42219E-07 1.29584E-08-3.28663E-03
 -1     15467-1.48654E-01 1.09660E-07 2.81986E-01-3.01250E-08 5.30773E-10 7.51724E-03
 -1     15469-1.48654E-01 1.09660E-07 2.81986E-01-3.01250E-08-5.30773E-10-7.51724E-03
 -1     15470-1.44805E-01-1.14079E-07 2.78136E-01 1.36307E-05-2.37968E-07 7.38268E-03
 -1     15472-1.44805E-01-1.14079E-07 2.78136E-01 1.36307E-05 2.37968E-07-7.38268E-03
 -1     15473-1.52405E-01 3.61359E-07 2.85738E-01-1.46175E-05 2.55190E-07 7.64805E-03
 -1     15475-1.52405E-01 3.61359E-07 2.85738E-01-1.46175E-05-2.55190E-07-7.64805E-03
 -1     15476-1.41252E-01 2.17531E-07 2.74584E-01-4.12525E-09 8.15526E-11 7.25878E-03
 -1     15478-1.41252E-01 2.17531E-07 2.74584E-01-4.12525E-09-8.15526E-11-7.25878E-03
 -1     15479-3.95200E-01-5.15781E-05 5.28347E-01-4.36181E-07 7.64262E-09 1.61222E-02
 -1     15481-3.95200E-01-5.15781E-05 5.28347E-01-4.36181E-07-7.64262E-09-1.61222E-02
 -1     15482-3.95211E-01-5.14715E-05 5.28359E-01 4.80308E-07-8.40802E-09 1.61226E-02
 -1     15484-3.95211E-01-5.14715E-05 5.28359E-01 4.80308E-07 8.40802E-09-1.61226E-02
 -1     15485-3.57225E-01-4.07306E-05 4.90382E-01-9.18508E-06 1.58023E-07 1.47963E-02
 -1     15487-3.57225E-01-4.07306E-05 4.90382E-01-9.18508E-06-1.58023E-07-1.47963E-02
 -1     15488-3.58398E-01-5.48631E-05 4.91589E-01 6.30090E-08-5.35702E-11 1.48378E-02
 -1     15490-3.58398E-01-5.48631E-05 4.91589E-01 6.30090E-08 5.35703E-11-1.48378E-02
 -1     15491-3.73916E-01 9.53515E-05 5.07590E-01-6.89830E-07 1.20429E-08 1.53876E-02
 -1     15493-3.73916E-01 9.53515E-05 5.07590E-01-6.89830E-07-1.20429E-08-1.53876E-02
 -1     15494-3.73924E-01 9.58292E-05 5.07596E-01 8.57265E-07-1.49655E-08 1.53878E-02
 -1     15496-3.73924E-01 9.58292E-05 5.07596E-01 8.57265E-07 1.49655E-08-1.53878E-02
 -1     15497-3.56572E-01-4.07609E-05 4.89754E-01-2.33644E-07 4.58857E-09 1.47741E-02
 -1     15499-3.56572E-01-4.07609E-05 4.89754E-01-2.33644E-07-4.58857E-09-1.47741E-02
 -1     15500-3.56089E-01-4.20853E-05 4.89266E-01 6.43371E-06-1.12396E-07 1.47571E-02
 -1     15502-3.56089E-01-4.20853E-05 4.89266E-01 6.43371E-06 1.12396E-07-1.47571E-02
 -1     15503-3.39301E-01 5.44635E-05 4.72879E-01-3.08345E-05 5.38194E-07 1.41774E-02
 -1     15505-3.39301E-01 5.44635E-05 4.72879E-01-3.08345E-05-5.38194E-07-1.41774E-02
 -1     15506-3.17815E-01-5.62863E-06 4.51100E-01 4.57717E-06-7.93494E-08 1.34228E-02
 -1     15508-3.17815E-01-5.62863E-06 4.51100E-01 4.57717E-06 7.93494E-08-1.34228E-02
 -1     15509-3.23632E-01-2.21112E-05 4.56871E-01 3.25932E-05-5.68017E-07 1.36246E-02
 -1     15511-3.23632E-01-2.21112E-05 4.56871E-01 3.25932E-05 5.68017E-07-1.36246E-02
 -1     15512-2.14179E-01-1.34434E-07 3.47511E-01 8.57393E-08-1.49898E-09 9.80499E-03
 -1     15514-2.14179E-01-1.34434E-07 3.47511E-01 8.57393E-08 1.49898E-09-9.80499E-03
 -1     15515-2.81999E-02 3.63033E-06 1.61546E-01-2.05322E-06 3.58286E-08 3.31207E-03
 -1     15517-2.81999E-02 3.63033E-06 1.61546E-01-2.05322E-06-3.58286E-08-3.31207E-03
 -1     15518-2.72180E-02 4.51068E-06 1.60566E-01 5.88997E-07-1.02831E-08 3.27782E-03
 -1     15520-2.72180E-02 4.51068E-06 1.60566E-01 5.88997E-07 1.02831E-08-3.27782E-03
 -1     15521-3.55809E-01-2.78413E-05 4.89042E-01 9.34345E-06-1.63396E-07 1.47482E-02
 -1     15523-3.55809E-01-2.78413E-05 4.89042E-01 9.34345E-06 1.63396E-07-1.47482E-02
 -1     15524-3.53025E-01-4.11786E-05 4.86213E-01 2.44246E-05-4.25567E-07 1.46501E-02
 -1     15526-3.53025E-01-4.11786E-05 4.86213E-01 2.44246E-05 4.25567E-07-1.46501E-02
 -1     15527-3.33407E-01 4.80384E-05 4.66914E-01-4.53185E-05 7.91243E-07 1.39703E-02
 -1     15529-3.33407E-01 4.80384E-05 4.66914E-01-4.53185E-05-7.91243E-07-1.39703E-02
 -1     15530-3.39190E-01 6.82786E-05 4.72743E-01-1.16869E-05 2.04158E-07 1.41729E-02
 -1     15532-3.39190E-01 6.82786E-05 4.72743E-01-1.16869E-05-2.04158E-07-1.41729E-02
 -1     15533-3.77232E-02-1.21334E-06 1.71051E-01 3.78199E-06-6.60425E-08 3.64423E-03
 -1     15535-3.77232E-02-1.21334E-06 1.71051E-01 3.78199E-06 6.60425E-08-3.64423E-03
 -1     15536-4.05186E-02 1.15044E-06 1.73854E-01-4.23112E-06 7.38454E-08 3.74196E-03
 -1     15538-4.05186E-02 1.15044E-06 1.73854E-01-4.23112E-06-7.38454E-08-3.74196E-03
 -1     15539-2.50419E-02-1.98821E-06 1.58367E-01 6.38687E-08-1.09095E-09 3.20148E-03
 -1     15541-2.50419E-02-1.98821E-06 1.58367E-01 6.38687E-08 1.09095E-09-3.20148E-03
 -1     15542-2.50918E-02-2.04742E-06 1.58416E-01 9.84272E-08-1.73510E-09 3.20321E-03
 -1     15544-2.50918E-02-2.04742E-06 1.58416E-01 9.84272E-08 1.73510E-09-3.20321E-03
 -1     15545-3.39003E-01 4.52858E-05 4.72527E-01-1.78975E-05 3.12700E-07 1.41659E-02
 -1     15547-3.39003E-01 4.52858E-05 4.72527E-01-1.78975E-05-3.12700E-07-1.41659E-02
 -1     15548-3.55903E-01-4.24128E-05 4.89082E-01-8.96865E-07 1.55809E-08 1.47507E-02
 -1     15550-3.55903E-01-4.24128E-05 4.89082E-01-8.96865E-07-1.55809E-08-1.47507E-02
 -1     15551-3.37408E-01 8.01171E-05 4.71030E-01 4.68134E-06-8.17257E-08 1.41121E-02
 -1     15553-3.37408E-01 8.01171E-05 4.71030E-01 4.68134E-06 8.17257E-08-1.41121E-02
 -1     15554-3.55616E-01-4.43517E-05 4.88790E-01-2.07303E-06 3.62303E-08 1.47405E-02
 -1     15556-3.55616E-01-4.43517E-05 4.88790E-01-2.07303E-06-3.62303E-08-1.47405E-02
 -1     15557-1.87472E-01 3.64843E-07 3.20806E-01 2.05496E-05-3.58763E-07 8.87237E-03
 -1     15559-1.87472E-01 3.64843E-07 3.20806E-01 2.05496E-05 3.58763E-07-8.87237E-03
 -1     15560-1.97593E-01-5.25809E-07 3.30923E-01-2.22619E-05 3.88659E-07 9.22564E-03
 -1     15562-1.97593E-01-5.25809E-07 3.30923E-01-2.22619E-05-3.88659E-07-9.22564E-03
 -1     15563-1.82731E-01-3.22060E-07 3.16063E-01-2.11340E-07 3.67969E-09 8.70699E-03
 -1     15565-1.82731E-01-3.22060E-07 3.16063E-01-2.11340E-07-3.67969E-09-8.70699E-03
 -1     15566-2.69825E-02 3.97376E-06 1.60328E-01-3.46743E-07 6.05224E-09 3.26956E-03
 -1     15568-2.69825E-02 3.97376E-06 1.60328E-01-3.46743E-07-6.05224E-09-3.26956E-03
 -1     15569-2.97441E-02 2.22288E-06 1.63085E-01-4.30908E-06 7.51603E-08 3.36590E-03
 -1     15571-2.97441E-02 2.22288E-06 1.63085E-01-4.30908E-06-7.51603E-08-3.36590E-03
 -1     15572-7.76787E-02 5.32816E-08 2.11011E-01 6.34319E-06-1.10742E-07 5.03920E-03
 -1     15574-7.76787E-02 5.32816E-08 2.11011E-01 6.34319E-06 1.10742E-07-5.03920E-03
 -1     15575-8.19477E-02-7.38205E-08 2.15279E-01-6.72961E-06 1.17484E-07 5.18823E-03
 -1     15577-8.19477E-02-7.38205E-08 2.15279E-01-6.72961E-06-1.17484E-07-5.18823E-03
 -1     15578-7.56680E-02-3.12109E-08 2.09000E-01-5.31099E-09 9.51131E-11 4.96906E-03
 -1     15580-7.56680E-02-3.12109E-08 2.09000E-01-5.31099E-09-9.51131E-11-4.96906E-03
 -1     15581-5.54818E-02 2.42525E-07 1.88815E-01-4.77146E-06 8.32924E-08 4.26429E-03
 -1     15583-5.54818E-02 2.42525E-07 1.88815E-01-4.77146E-06-8.32924E-08-4.26429E-03
 -1     15584-5.72013E-02-1.87248E-08 1.90533E-01 1.04591E-07-1.82542E-09 4.32435E-03
 -1     15586-5.72013E-02-1.87248E-08 1.90533E-01 1.04591E-07 1.82542E-09-4.32435E-03
 -1     15587-5.22530E-02-2.50914E-07 1.85584E-01 4.51515E-06-7.88259E-08 4.15153E-03
 -1     15589-5.22530E-02-2.50914E-07 1.85584E-01 4.51515E-06 7.88259E-08-4.15153E-03
 -1     15590-4.61205E-02-4.00198E-07 1.79451E-01 4.24945E-06-7.41841E-08 3.93744E-03
 -1     15592-4.61205E-02-4.00198E-07 1.79451E-01 4.24945E-06 7.41841E-08-3.93744E-03
 -1     15593-4.91407E-02 3.83968E-07 1.82474E-01-4.47520E-06 7.81183E-08 4.04292E-03
 -1     15595-4.91407E-02 3.83968E-07 1.82474E-01-4.47520E-06-7.81183E-08-4.04292E-03
 -1     15596-5.07566E-02-5.59549E-08 1.84088E-01 1.43930E-07-2.51430E-09 4.09935E-03
 -1     15598-5.07566E-02-5.59549E-08 1.84088E-01 1.43930E-07 2.51430E-09-4.09935E-03
 -1     15599-4.47082E-02-1.17292E-07 1.78040E-01 1.82101E-07-3.18393E-09 3.88820E-03
 -1     15601-4.47082E-02-1.17292E-07 1.78040E-01 1.82101E-07 3.18393E-09-3.88820E-03
 -1     15602-1.24211E-01 6.42426E-08 2.57543E-01-1.12424E-05 1.96274E-07 6.66374E-03
 -1     15604-1.24211E-01 6.42426E-08 2.57543E-01-1.12424E-05-1.96274E-07-6.66374E-03
 -1     15605-1.27520E-01 5.80175E-08 2.60852E-01-2.61319E-08 4.61967E-10 6.77936E-03
 -1     15607-1.27520E-01 5.80175E-08 2.60852E-01-2.61319E-08-4.61967E-10-6.77936E-03
 -1     15608-1.18005E-01-3.93609E-08 2.51337E-01 1.04731E-05-1.82837E-07 6.44706E-03
 -1     15610-1.18005E-01-3.93610E-08 2.51337E-01 1.04731E-05 1.82837E-07-6.44706E-03
 -1     15611-1.60386E-01 4.26142E-08 2.93717E-01 1.59846E-05-2.79077E-07 7.92666E-03
 -1     15613-1.60386E-01 4.26142E-08 2.93717E-01 1.59846E-05 2.79077E-07-7.92666E-03
 -1     15614-1.68865E-01-3.08866E-08 3.02197E-01-1.69381E-05 2.95705E-07 8.22272E-03
 -1     15616-1.68865E-01-3.08866E-08 3.02197E-01-1.69381E-05-2.95705E-07-8.22272E-03
 -1     15617-1.56432E-01 2.30675E-07 2.89764E-01 2.49331E-08-4.26161E-10 7.78879E-03
 -1     15619-1.56432E-01 2.30675E-07 2.89764E-01 2.49331E-08 4.26161E-10-7.78879E-03
 -1     15620-2.69014E-02 4.10343E-06 1.60248E-01 1.87335E-07-3.26990E-09 3.26674E-03
 -1     15622-2.69014E-02 4.10343E-06 1.60248E-01 1.87335E-07 3.26990E-09-3.26674E-03
 -1     15623-9.59548E-02 9.78296E-08 2.29287E-01 8.10181E-06-1.41442E-07 5.67725E-03
 -1     15625-9.59548E-02 9.78296E-08 2.29287E-01 8.10181E-06 1.41442E-07-5.67725E-03
 -1     15626-1.01076E-01-9.00675E-08 2.34407E-01-8.61473E-06 1.50400E-07 5.85602E-03
 -1     15628-1.01076E-01-9.00675E-08 2.34407E-01-8.61473E-06-1.50400E-07-5.85602E-03
 -1     15629-1.06450E-01 4.90277E-08 2.39782E-01 9.23769E-06-1.61272E-07 6.04366E-03
 -1     15631-1.06450E-01 4.90277E-08 2.39782E-01 9.23769E-06 1.61272E-07-6.04366E-03
 -1     15632-1.12084E-01-3.98932E-08 2.45416E-01-9.83790E-06 1.71753E-07 6.24034E-03
 -1     15634-1.12084E-01-3.98932E-08 2.45416E-01-9.83790E-06-1.71753E-07-6.24034E-03
 -1     15635-1.03782E-01 4.86835E-09 2.37114E-01-3.96341E-08 6.98598E-10 5.95061E-03
 -1     15637-1.03782E-01 4.86835E-09 2.37114E-01-3.96341E-08-6.98598E-10-5.95061E-03
 -1     15638-3.41836E-02-1.21421E-06 1.67510E-01 1.60871E-06-2.79249E-08 3.52062E-03
 -1     15640-3.41836E-02-1.21421E-06 1.67510E-01 1.60871E-06 2.79249E-08-3.52062E-03
 -1     15641-3.18309E-02 1.11068E-06 1.65163E-01-2.55015E-06 4.46221E-08 3.43858E-03
 -1     15643-3.18309E-02 1.11068E-06 1.65163E-01-2.55015E-06-4.46221E-08-3.43858E-03
 -1     15644-6.59516E-02 5.62153E-08 1.99284E-01-5.37991E-06 9.39175E-08 4.62979E-03
 -1     15646-6.59516E-02 5.62153E-08 1.99284E-01-5.37991E-06-9.39175E-08-4.62979E-03
 -1     15647-6.78591E-02-4.90053E-08 2.01191E-01 3.40961E-08-5.94897E-10 4.69643E-03
 -1     15649-6.78591E-02-4.90053E-08 2.01191E-01 3.40961E-08 5.94897E-10-4.69643E-03
 -1     15650-6.23470E-02-1.34546E-07 1.95679E-01 5.06961E-06-8.85113E-08 4.50394E-03
 -1     15652-6.23470E-02-1.34546E-07 1.95679E-01 5.06961E-06 8.85113E-08-4.50394E-03
 -1     15653-2.44970E-01 2.15477E-06 3.78308E-01-3.18798E-05 5.56652E-07 1.08799E-02
 -1     15655-2.44970E-01 2.15477E-06 3.78308E-01-3.18798E-05-5.56652E-07-1.08799E-02
 -1     15656-2.52633E-01-9.80326E-07 3.85963E-01 1.25376E-06-2.18723E-08 1.11476E-02
 -1     15658-2.52633E-01-9.80326E-07 3.85963E-01 1.25376E-06 2.18723E-08-1.11476E-02
 -1     15659-2.32113E-01-7.43884E-07 3.65443E-01 2.81006E-05-4.90516E-07 1.04309E-02
 -1     15661-2.32113E-01-7.43884E-07 3.65443E-01 2.81006E-05 4.90516E-07-1.04309E-02
 -1     15662-2.76104E-01-1.09903E-05 4.09417E-01 4.15913E-05-7.25772E-07 1.19665E-02
 -1     15664-2.76104E-01-1.09903E-05 4.09417E-01 4.15913E-05 7.25772E-07-1.19665E-02
 -1     15665-2.92449E-01 1.70753E-05 4.25851E-01-5.93629E-05 1.03695E-06 1.25388E-02
 -1     15667-2.92449E-01 1.70753E-05 4.25851E-01-5.93629E-05-1.03695E-06-1.25388E-02
 -1     15668-3.13591E-01-2.31170E-05 4.46839E-01 5.17273E-05-9.01604E-07 1.32745E-02
 -1     15670-3.13591E-01-2.31170E-05 4.46839E-01 5.17273E-05 9.01604E-07-1.32745E-02
 -1     15671-3.31631E-01 5.85615E-05 4.65216E-01-3.32591E-05 5.80942E-07 1.39098E-02
 -1     15673-3.31631E-01 5.85615E-05 4.65216E-01-3.32591E-05-5.80942E-07-1.39098E-02
 -1     15674-3.06084E-01-7.17017E-06 4.39393E-01 6.57341E-06-1.14576E-07 1.30141E-02
 -1     15676-3.06084E-01-7.17017E-06 4.39393E-01 6.57341E-06 1.14576E-07-1.30141E-02
 -1     15677-3.07617E-02-1.29276E-06 1.64090E-01-1.97070E-07 3.25869E-09 3.40121E-03
 -1     15679-3.07617E-02-1.29276E-06 1.64090E-01-1.97070E-07-3.25869E-09-3.40121E-03
 -1     15680-3.16435E-01-2.84728E-05 4.49670E-01 3.40752E-05-5.94476E-07 1.33733E-02
 -1     15682-3.16435E-01-2.84728E-05 4.49670E-01 3.40752E-05 5.94476E-07-1.33733E-02
 -1     15683-2.99146E-01 2.83565E-05 4.32592E-01-4.43716E-05 7.74827E-07 1.27731E-02
 -1     15685-2.99146E-01 2.83565E-05 4.32592E-01-4.43716E-05-7.74827E-07-1.27731E-02
 -1     15686-3.20393E-01-1.89888E-05 4.53676E-01 1.40838E-05-2.45205E-07 1.35125E-02
 -1     15688-3.20393E-01-1.89888E-05 4.53676E-01 1.40838E-05 2.45205E-07-1.35125E-02
 -1     15689-3.55449E-01-4.27384E-05 4.88627E-01 2.74963E-08-4.16038E-10 1.47348E-02
 -1     15691-3.55449E-01-4.27384E-05 4.88627E-01 2.74963E-08 4.16037E-10-1.47348E-02
 -1     15692-3.55385E-01-4.36982E-05 4.88559E-01 9.98196E-07-1.74445E-08 1.47325E-02
 -1     15694-3.55385E-01-4.36982E-05 4.88559E-01 9.98196E-07 1.74445E-08-1.47325E-02
 -1     15695-3.55381E-01-4.37606E-05 4.88556E-01-6.81157E-07 1.19167E-08 1.47323E-02
 -1     15697-3.55381E-01-4.37606E-05 4.88556E-01-6.81157E-07-1.19167E-08-1.47323E-02
 -1     15698-3.55451E-01-4.30956E-05 4.88629E-01 9.21656E-09-1.96094E-10 1.47349E-02
 -1     15700-3.55451E-01-4.30956E-05 4.88629E-01 9.21656E-09 1.96094E-10-1.47349E-02
 -1     15701-3.36643E-01 8.09353E-05 4.70265E-01 1.69081E-07-2.95092E-09 1.40854E-02
 -1     15703-3.36643E-01 8.09353E-05 4.70265E-01 1.69081E-07 2.95092E-09-1.40854E-02
 -1     15704-3.48261E-02-2.25587E-06 1.68153E-01 4.93113E-07-8.84846E-09 3.54307E-03
 -1     15706-3.48261E-02-2.25587E-06 1.68153E-01 4.93113E-07 8.84846E-09-3.54307E-03
 -1     15707-2.08390E-01 3.63332E-07 3.41724E-01 2.40532E-05-4.19906E-07 9.60269E-03
 -1     15709-2.08390E-01 3.63332E-07 3.41724E-01 2.40532E-05 4.19906E-07-9.60269E-03
 -1     15710-2.19804E-01-5.40494E-08 3.53134E-01-2.65321E-05 4.63229E-07 1.00011E-02
 -1     15712-2.19804E-01-5.40494E-08 3.53134E-01-2.65321E-05-4.63229E-07-1.00011E-02
 -1     15713-2.26142E-01-2.46868E-07 3.59473E-01-5.76842E-08 1.01043E-09 1.02227E-02
 -1     15715-2.26142E-01-2.46868E-07 3.59473E-01-5.76842E-08-1.01043E-09-1.02227E-02
 -1     15716-2.03049E-01-4.89707E-07 3.36381E-01-3.19386E-07 5.56332E-09 9.41640E-03
 -1     15718-2.03049E-01-4.89707E-07 3.36381E-01-3.19386E-07-5.56332E-09-9.41640E-03
 -1     15719-2.91315E-02-1.51222E-06 1.62458E-01 4.45985E-07-7.76705E-09 3.34427E-03
 -1     15721-2.91315E-02-1.51222E-06 1.62458E-01 4.45985E-07 7.76705E-09-3.34427E-03
 -1     15722-2.94275E-02-2.33783E-06 1.62750E-01 1.04200E-06-1.82619E-08 3.35454E-03
 -1     15724-2.94275E-02-2.33783E-06 1.62750E-01 1.04200E-06 1.82619E-08-3.35454E-03
 -1     15725-3.21983E-01-3.84442E-05 4.55175E-01-5.90580E-06 1.03054E-07 1.35665E-02
 -1     15727-3.21983E-01-3.84442E-05 4.55175E-01-5.90580E-06-1.03054E-07-1.35665E-02
 -1     15728-3.22684E-01-3.03742E-05 4.55900E-01-3.03127E-06 5.26992E-08 1.35914E-02
 -1     15730-3.22684E-01-3.03742E-05 4.55900E-01-3.03127E-06-5.26992E-08-1.35914E-02
 -1     15731-3.12959E-02-4.73529E-07 1.64626E-01 5.42943E-07-9.46703E-09 3.41992E-03
 -1     15733-3.12959E-02-4.73529E-07 1.64626E-01 5.42943E-07 9.46703E-09-3.41992E-03
 -1     15734-3.23194E-02-1.78550E-06 1.65645E-01 3.51870E-06-6.14684E-08 3.45556E-03
 -1     15736-3.23194E-02-1.78550E-06 1.65645E-01 3.51870E-06 6.14684E-08-3.45556E-03
 -1     15737-3.50265E-02 1.73639E-06 1.68364E-01-4.13955E-06 7.22399E-08 3.55025E-03
 -1     15739-3.50265E-02 1.73639E-06 1.68364E-01-4.13955E-06-7.22399E-08-3.55025E-03
 -1     15740-3.54992E-01-3.51626E-05 4.88199E-01 7.46068E-06-1.29371E-07 1.47193E-02
 -1     15742-3.54992E-01-3.51626E-05 4.88199E-01 7.46068E-06 1.29371E-07-1.47193E-02
 -1     15743-2.93667E-02-2.63487E-06 1.62689E-01-4.54377E-07 7.95198E-09 3.35242E-03
 -1     15745-2.93667E-02-2.63487E-06 1.62689E-01-4.54377E-07-7.95198E-09-3.35242E-03
 -1     15746-2.92520E-02-2.07631E-06 1.62576E-01-2.84670E-07 4.98775E-09 3.34845E-03
 -1     15748-2.92520E-02-2.07631E-06 1.62576E-01-2.84670E-07-4.98775E-09-3.34845E-03
 -1     15749-3.51206E-02-1.84131E-06 1.68442E-01-3.21456E-07 5.34160E-09 3.55330E-03
 -1     15751-3.51206E-02-1.84131E-06 1.68442E-01-3.21456E-07-5.34160E-09-3.55330E-03
 -1     15752-3.46975E-02-2.18385E-06 1.68020E-01 2.92989E-07-5.33789E-09 3.53853E-03
 -1     15754-3.46975E-02-2.18385E-06 1.68020E-01 2.92989E-07 5.33789E-09-3.53853E-03
 -1     15755-3.72865E-02 2.94931E-06 1.70633E-01-1.54357E-06 2.69242E-08 3.62930E-03
 -1     15757-3.72865E-02 2.94931E-06 1.70633E-01-1.54357E-06-2.69242E-08-3.62930E-03
 -1     15758-8.64019E-02 1.03901E-07 2.19734E-01 7.16154E-06-1.25028E-07 5.34374E-03
 -1     15760-8.64019E-02 1.03901E-07 2.19734E-01 7.16154E-06 1.25028E-07-5.34374E-03
 -1     15761-9.10717E-02-1.03519E-07 2.24403E-01-7.58430E-06 1.32407E-07 5.50676E-03
 -1     15763-9.10717E-02-1.03519E-07 2.24403E-01-7.58430E-06-1.32407E-07-5.50676E-03
 -1     15764-8.41935E-02-5.51888E-10 2.17525E-01-2.32611E-08 4.10466E-10 5.26671E-03
 -1     15766-8.41935E-02-5.51889E-10 2.17525E-01-2.32611E-08-4.10466E-10-5.26671E-03
 -1     15767-2.88487E-02-2.31937E-06 1.62173E-01-1.99364E-07 3.52362E-09 3.33435E-03
 -1     15769-2.88487E-02-2.31937E-06 1.62173E-01-1.99364E-07-3.52362E-09-3.33435E-03
 -1     15770-2.88263E-02-1.98948E-06 1.62151E-01-1.15357E-07 2.01208E-09 3.33359E-03
 -1     15772-2.88263E-02-1.98948E-06 1.62151E-01-1.15357E-07-2.01208E-09-3.33359E-03
 -1     15773-9.35282E-02 7.17290E-09 2.26860E-01-3.67743E-08 6.47356E-10 5.59261E-03
 -1     15775-9.35282E-02 7.17290E-09 2.26860E-01-3.67743E-08-6.47356E-10-5.59261E-03
 -1     15776-2.99289E-02-9.25402E-07 1.63257E-01 5.02134E-07-8.76971E-09 3.37215E-03
 -1     15778-2.99289E-02-9.25402E-07 1.63257E-01 5.02134E-07 8.76971E-09-3.37215E-03
 -1     15779-3.04727E-02-2.46008E-06 1.63796E-01 2.42359E-06-4.24087E-08 3.39104E-03
 -1     15781-3.04727E-02-2.46008E-06 1.63796E-01 2.42359E-06 4.24087E-08-3.39104E-03
 -1     15782-3.30308E-02 2.68030E-06 1.66373E-01-3.42848E-06 5.98218E-08 3.48066E-03
 -1     15784-3.30308E-02 2.68030E-06 1.66373E-01-3.42848E-06-5.98218E-08-3.48066E-03
 -1     15785-3.16829E-02 3.44830E-06 1.65028E-01-1.99750E-06 3.48582E-08 3.43364E-03
 -1     15787-3.16829E-02 3.44830E-06 1.65028E-01-1.99750E-06-3.48582E-08-3.43364E-03
 -1     15788-3.55881E-01-4.19257E-05 4.89063E-01-5.35369E-07 9.35363E-09 1.47499E-02
 -1     15790-3.55881E-01-4.19257E-05 4.89063E-01-5.35369E-07-9.35363E-09-1.47499E-02
 -1     15791-3.55694E-01-4.44647E-05 4.88867E-01 1.23622E-06-2.15581E-08 1.47432E-02
 -1     15793-3.55694E-01-4.44647E-05 4.88867E-01 1.23622E-06 2.15581E-08-1.47432E-02
 -1     15794-3.36885E-01 8.03028E-05 4.70504E-01-2.87833E-06 5.02463E-08 1.40937E-02
 -1     15796-3.36885E-01 8.03028E-05 4.70504E-01-2.87833E-06-5.02463E-08-1.40937E-02
 -1     15797-3.37325E-01 8.37292E-05 4.70949E-01-9.61023E-07 1.67834E-08 1.41092E-02
 -1     15799-3.37325E-01 8.37292E-05 4.70949E-01-9.61023E-07-1.67834E-08-1.41092E-02
 -1     15800-2.88083E-02-2.00658E-06 1.62133E-01 1.44802E-07-2.48805E-09 3.33296E-03
 -1     15802-2.88083E-02-2.00658E-06 1.62133E-01 1.44802E-07 2.48805E-09-3.33296E-03
 -1     15803-2.89125E-02-2.19115E-06 1.62237E-01 2.92596E-07-5.14705E-09 3.33658E-03
 -1     15805-2.89125E-02-2.19115E-06 1.62237E-01 2.92596E-07 5.14705E-09-3.33658E-03
 -1     15806-3.07437E-02 4.29775E-06 1.64090E-01 2.29899E-07-4.01253E-09 3.40088E-03
 -1     15808-3.07437E-02 4.29775E-06 1.64090E-01 2.29899E-07 4.01253E-09-3.40088E-03
 -1     15809-3.65522E-02-3.52455E-07 1.69883E-01 5.26701E-07-9.19775E-09 3.60344E-03
 -1     15811-3.65522E-02-3.52455E-07 1.69883E-01 5.26701E-07 9.19775E-09-3.60344E-03
 -1     15812-2.90859E-02-2.53549E-06 1.62409E-01-3.75524E-07 6.58224E-09 3.34262E-03
 -1     15814-2.90859E-02-2.53549E-06 1.62409E-01-3.75524E-07-6.58224E-09-3.34262E-03
 -1     15815-2.89917E-02-2.00541E-06 1.62316E-01-2.56606E-07 4.49669E-09 3.33937E-03
 -1     15817-2.89917E-02-2.00541E-06 1.62316E-01-2.56606E-07-4.49669E-09-3.33937E-03
 -1     15818-3.12176E-02 4.89604E-06 1.64567E-01 9.50703E-07-1.65981E-08 3.41748E-03
 -1     15820-3.12176E-02 4.89604E-06 1.64567E-01 9.50703E-07 1.65981E-08-3.41748E-03
 -1     15821-3.55184E-02-2.00833E-06 1.68843E-01 3.06460E-06-5.35627E-08 3.56721E-03
 -1     15823-3.55184E-02-2.00833E-06 1.68843E-01 3.06460E-06 5.35627E-08-3.56721E-03
 -1     15824-3.82038E-02 1.94093E-06 1.71543E-01-3.95079E-06 6.89422E-08 3.66119E-03
 -1     15826-3.82038E-02 1.94093E-06 1.71543E-01-3.95079E-06-6.89422E-08-3.66119E-03
 -1     15827-3.54008E-01-4.60815E-05 4.87160E-01 1.39319E-05-2.41883E-07 1.46841E-02
 -1     15829-3.54008E-01-4.60815E-05 4.87160E-01 1.39319E-05 2.41883E-07-1.46841E-02
 -1     15830-2.84569E-01-1.71629E-05 4.17839E-01 3.20454E-05-5.59007E-07 1.22613E-02
 -1     15832-2.84569E-01-1.71629E-05 4.17839E-01 3.20454E-05 5.59007E-07-1.22613E-02
 -1     15833-2.69372E-01 1.68682E-05 4.02762E-01-3.96584E-05 6.92381E-07 1.17327E-02
 -1     15835-2.69372E-01 1.68682E-05 4.02762E-01-3.96584E-05-6.92381E-07-1.17327E-02
 -1     15836-2.88712E-01-1.60678E-06 4.22021E-01 7.46941E-06-1.30489E-07 1.24068E-02
 -1     15838-2.88712E-01-1.60678E-06 4.22021E-01 7.46941E-06 1.30489E-07-1.24068E-02
 -1     15839-2.55398E-01-1.01550E-05 3.88692E-01 2.99994E-05-5.23689E-07 1.12433E-02
 -1     15841-2.55398E-01-1.01550E-05 3.88692E-01 2.99994E-05 5.23689E-07-1.12433E-02
 -1     15842-2.41878E-01 1.00037E-05 3.75242E-01-3.54122E-05 6.18409E-07 1.07723E-02
 -1     15844-2.41878E-01 1.00037E-05 3.75242E-01-3.54122E-05-6.18409E-07-1.07723E-02
 -1     15845-2.60042E-01-1.40759E-05 3.93365E-01 4.97425E-06-8.62098E-08 1.14061E-02
 -1     15847-2.60042E-01-1.40759E-05 3.93365E-01 4.97425E-06 8.62098E-08-1.14061E-02
 -1     15848-2.29984E-01-6.62015E-06 3.63301E-01 2.50005E-05-4.36435E-07 1.03563E-02
 -1     15850-2.29984E-01-6.62015E-06 3.63301E-01 2.50005E-05 4.36435E-07-1.03563E-02
 -1     15851-2.18201E-01 6.66481E-06 3.51564E-01-2.74105E-05 4.78463E-07 9.94566E-03
 -1     15853-2.18201E-01 6.66481E-06 3.51564E-01-2.74105E-05-4.78463E-07-9.94566E-03
 -1     15854-2.34198E-01 2.37506E-06 3.67524E-01 3.11303E-06-5.44558E-08 1.05038E-02
 -1     15856-2.34198E-01 2.37506E-06 3.67524E-01 3.11303E-06 5.44558E-08-1.05038E-02
 -1     15857-2.07055E-01-7.62780E-06 3.40358E-01 2.18650E-05-3.81749E-07 9.55557E-03
 -1     15859-2.07055E-01-7.62780E-06 3.40358E-01 2.18650E-05 3.81749E-07-9.55557E-03
 -1     15860-1.96402E-01 9.64514E-06 3.29770E-01-2.47522E-05 4.32067E-07 9.18470E-03
 -1     15862-1.96402E-01 9.64514E-06 3.29770E-01-2.47522E-05-4.32067E-07-9.18470E-03
 -1     15863-2.11133E-01-1.83506E-06 3.44460E-01 4.23065E-06-7.38575E-08 9.69857E-03
 -1     15865-2.11133E-01-1.83506E-06 3.44460E-01 4.23065E-06 7.38575E-08-9.69857E-03
 -1     15866-1.86320E-01-7.94639E-06 3.19622E-01 1.90002E-05-3.31753E-07 8.83166E-03
 -1     15868-1.86320E-01-7.94639E-06 3.19622E-01 1.90002E-05 3.31753E-07-8.83166E-03
 -1     15869-1.76737E-01 9.60936E-06 3.10104E-01-2.17250E-05 3.79258E-07 8.49812E-03
 -1     15871-1.76737E-01 9.60936E-06 3.10104E-01-2.17250E-05-3.79258E-07-8.49812E-03
 -1     15872-1.89884E-01-2.03375E-06 3.23211E-01 4.36673E-06-7.62049E-08 8.95668E-03
 -1     15874-1.89884E-01-2.03375E-06 3.23211E-01 4.36673E-06 7.62049E-08-8.95668E-03
 -1     15875-1.67790E-01-7.33718E-06 3.01095E-01 1.60971E-05-2.81049E-07 8.18476E-03
 -1     15877-1.67790E-01-7.33718E-06 3.01095E-01 1.60971E-05 2.81049E-07-8.18476E-03
 -1     15878-1.59210E-01 8.55186E-06 2.92574E-01-1.86306E-05 3.25253E-07 7.88616E-03
 -1     15880-1.59210E-01 8.55186E-06 2.92574E-01-1.86306E-05-3.25253E-07-7.88616E-03
 -1     15881-1.70836E-01-1.75856E-06 3.04162E-01 4.03604E-06-7.04215E-08 8.29161E-03
 -1     15883-1.70836E-01-1.75856E-06 3.04162E-01 4.03604E-06 7.04215E-08-8.29161E-03
 -1     15884-1.51243E-01-6.45231E-06 2.84553E-01 1.35716E-05-2.36952E-07 7.60714E-03
 -1     15886-1.51243E-01-6.45231E-06 2.84553E-01 1.35716E-05 2.36952E-07-7.60714E-03
 -1     15887-1.43565E-01 7.42079E-06 2.76924E-01-1.58432E-05 2.76595E-07 7.33988E-03
 -1     15889-1.43565E-01 7.42079E-06 2.76924E-01-1.58432E-05-2.76595E-07-7.33988E-03
 -1     15890-1.53902E-01-1.36501E-06 2.87229E-01 3.42184E-06-5.97041E-08 7.70038E-03
 -1     15892-1.53902E-01-1.36501E-06 2.87229E-01 3.42184E-06 5.97041E-08-7.70038E-03
 -1     15893-1.36446E-01-5.58377E-06 2.69758E-01 1.14583E-05-2.00051E-07 7.09056E-03
 -1     15895-1.36446E-01-5.58377E-06 2.69758E-01 1.14583E-05 2.00051E-07-7.09056E-03
 -1     15896-1.29554E-01 6.63975E-06 2.62910E-01-1.34773E-05 2.35287E-07 6.85066E-03
 -1     15898-1.29554E-01 6.63975E-06 2.62910E-01-1.34773E-05-2.35287E-07-6.85066E-03
 -1     15899-1.38797E-01-9.62354E-07 2.72125E-01 2.81735E-06-4.91670E-08 7.17302E-03
 -1     15901-1.38797E-01-9.62354E-07 2.72125E-01 2.81735E-06 4.91670E-08-7.17302E-03
 -1     15902-1.23153E-01-4.93484E-06 2.56467E-01 9.94295E-06-1.73585E-07 6.62650E-03
 -1     15904-1.23153E-01-4.93484E-06 2.56467E-01 9.94295E-06 1.73585E-07-6.62650E-03
 -1     15905-1.16929E-01 5.90009E-06 2.50282E-01-1.16973E-05 2.04209E-07 6.40985E-03
 -1     15907-1.16929E-01 5.90009E-06 2.50282E-01-1.16973E-05-2.04209E-07-6.40985E-03
 -1     15908-1.25259E-01-7.65688E-07 2.58587E-01 2.39673E-06-4.18295E-08 6.70036E-03
 -1     15910-1.25259E-01-7.65688E-07 2.58587E-01 2.39673E-06 4.18295E-08-6.70036E-03
 -1     15911-1.11116E-01-4.50813E-06 2.44432E-01 8.80651E-06-1.53740E-07 6.20631E-03
 -1     15913-1.11116E-01-4.50813E-06 2.44432E-01 8.80651E-06 1.53740E-07-6.20631E-03
 -1     15914-1.05459E-01 5.19716E-06 2.38810E-01-1.04743E-05 1.82856E-07 6.00938E-03
 -1     15916-1.05459E-01 5.19716E-06 2.38810E-01-1.04743E-05-1.82856E-07-6.00938E-03
 -1     15917-1.13027E-01-8.97909E-07 2.46356E-01 2.19268E-06-3.82590E-08 6.27333E-03
 -1     15919-1.13027E-01-8.97909E-07 2.46356E-01 2.19268E-06 3.82590E-08-6.27333E-03
 -1     15920-1.00155E-01-4.02453E-06 2.33473E-01 7.79613E-06-1.36105E-07 5.82366E-03
 -1     15922-1.00155E-01-4.02453E-06 2.33473E-01 7.79613E-06 1.36105E-07-5.82366E-03
 -1     15923-9.49976E-02 4.63406E-06 2.28347E-01-9.39389E-06 1.63997E-07 5.64412E-03
 -1     15925-9.49976E-02 4.63406E-06 2.28347E-01-9.39389E-06-1.63997E-07-5.64412E-03
 -1     15926-1.01894E-01-9.84045E-07 2.35223E-01 1.98034E-06-3.45476E-08 5.88464E-03
 -1     15928-1.01894E-01-9.84045E-07 2.35223E-01 1.98034E-06 3.45476E-08-5.88464E-03
 -1     15929-9.01581E-02-3.52938E-06 2.23478E-01 6.89596E-06-1.20393E-07 5.47468E-03
 -1     15931-9.01581E-02-3.52938E-06 2.23478E-01 6.89596E-06 1.20393E-07-5.47468E-03
 -1     15932-8.54521E-02 4.12438E-06 2.18799E-01-8.31474E-06 1.45158E-07 5.31084E-03
 -1     15934-8.54521E-02 4.12438E-06 2.18799E-01-8.31474E-06-1.45158E-07-5.31084E-03
 -1     15935-9.17364E-02-7.96152E-07 2.25065E-01 1.75141E-06-3.05547E-08 5.53001E-03
 -1     15937-9.17364E-02-7.96152E-07 2.25065E-01 1.75141E-06 3.05547E-08-5.53001E-03
 -1     15938-8.10280E-02-3.14773E-06 2.14349E-01 6.08900E-06-1.06309E-07 5.15596E-03
 -1     15940-8.10280E-02-3.14773E-06 2.14349E-01 6.08900E-06 1.06309E-07-5.15596E-03
 -1     15941-7.67274E-02 3.73254E-06 2.10073E-01-7.32517E-06 1.27880E-07 5.00622E-03
 -1     15943-7.67274E-02 3.73254E-06 2.10073E-01-7.32517E-06-1.27880E-07-5.00622E-03
 -1     15944-8.24606E-02-6.15228E-07 2.15790E-01 1.55642E-06-2.71556E-08 5.20617E-03
 -1     15946-8.24606E-02-6.15228E-07 2.15790E-01 1.55642E-06 2.71556E-08-5.20617E-03
 -1     15947-7.26713E-02-2.88694E-06 2.05993E-01 5.34193E-06-9.32705E-08 4.86423E-03
 -1     15949-7.26713E-02-2.88694E-06 2.05993E-01 5.34193E-06 9.32705E-08-4.86423E-03
 -1     15950-6.87358E-02 3.50021E-06 2.02081E-01-6.42067E-06 1.12088E-07 4.72721E-03
 -1     15952-6.87358E-02 3.50021E-06 2.02081E-01-6.42067E-06-1.12088E-07-4.72721E-03
 -1     15953-7.39693E-02-5.55736E-07 2.07299E-01 1.40687E-06-2.45496E-08 4.90972E-03
 -1     15955-7.39693E-02-5.55736E-07 2.07299E-01 1.40687E-06 2.45496E-08-4.90972E-03
 -1     15956-6.50222E-02-2.68690E-06 1.98344E-01 4.62667E-06-8.07850E-08 4.59719E-03
 -1     15958-6.50222E-02-2.68690E-06 1.98344E-01 4.62667E-06 8.07850E-08-4.59719E-03
 -1     15959-6.14223E-02 3.36529E-06 1.94767E-01-5.53313E-06 9.65976E-08 4.47187E-03
 -1     15961-6.14223E-02 3.36529E-06 1.94767E-01-5.53313E-06-9.65976E-08-4.47187E-03
 -1     15962-6.61891E-02-5.54996E-07 1.99519E-01 1.28471E-06-2.24247E-08 4.63809E-03
 -1     15964-6.61891E-02-5.54996E-07 1.99519E-01 1.28471E-06 2.24247E-08-4.63809E-03
 -1     15965-5.80536E-02-2.44813E-06 1.91376E-01 3.97822E-06-6.94496E-08 4.35391E-03
 -1     15967-5.80536E-02-2.44813E-06 1.91376E-01 3.97822E-06 6.94496E-08-4.35391E-03
 -1     15968-5.47569E-02 3.13321E-06 1.88100E-01-4.75830E-06 8.30803E-08 4.23915E-03
 -1     15970-5.47569E-02 3.13321E-06 1.88100E-01-4.75830E-06-8.30803E-08-4.23915E-03
 -1     15971-5.90965E-02-5.84456E-07 1.92426E-01 1.13242E-06-1.97811E-08 4.39047E-03
 -1     15973-5.90965E-02-5.84456E-07 1.92426E-01 1.13242E-06 1.97811E-08-4.39047E-03
 -1     15974-5.17321E-02-1.95634E-06 1.85056E-01 3.73622E-06-6.51650E-08 4.13324E-03
 -1     15976-5.17321E-02-1.95634E-06 1.85056E-01 3.73622E-06 6.51650E-08-4.13324E-03
 -1     15977-4.86545E-02 2.24173E-06 1.81993E-01-4.88074E-06 8.52173E-08 4.02603E-03
 -1     15979-4.86545E-02 2.24173E-06 1.81993E-01-4.88074E-06-8.52173E-08-4.02603E-03
 -1     15980-5.26934E-02-8.53807E-07 1.86023E-01 9.99515E-07-1.74672E-08 4.16692E-03
 -1     15982-5.26934E-02-8.53807E-07 1.86023E-01 9.99515E-07 1.74672E-08-4.16692E-03
 -1     15983-4.57247E-02-1.07408E-06 1.79053E-01 3.80618E-06-6.64411E-08 3.92358E-03
 -1     15985-4.57247E-02-1.07408E-06 1.79053E-01 3.80618E-06 6.64411E-08-3.92358E-03
 -1     15986-4.28437E-02 1.38934E-06 1.76179E-01-4.97836E-06 8.68782E-08 3.82312E-03
 -1     15988-4.28437E-02 1.38934E-06 1.76179E-01-4.97836E-06-8.68782E-08-3.82312E-03
 -1     15989-4.67284E-02-1.79187E-06 1.80059E-01 4.38091E-07-7.53976E-09 3.95870E-03
 -1     15991-4.67284E-02-1.79187E-06 1.80059E-01 4.38091E-07 7.53976E-09-3.95870E-03
 -1     15992-3.97975E-02-1.22795E-06 1.73127E-01 3.15497E-06-5.52982E-08 3.71670E-03
 -1     15994-3.97975E-02-1.22795E-06 1.73127E-01 3.15497E-06 5.52982E-08-3.71670E-03
 -1     15995-3.23891E-01-3.48850E-05 4.57092E-01-1.07228E-05 1.86954E-07 1.36332E-02
 -1     15997-3.23891E-01-3.48850E-05 4.57092E-01-1.07228E-05-1.86954E-07-1.36332E-02
 -1     15998-3.24602E-01-2.60485E-05 4.57831E-01-2.93517E-06 5.04372E-08 1.36585E-02
 -1     16000-3.24602E-01-2.60485E-05 4.57831E-01-2.93517E-06-5.04372E-08-1.36585E-02
 -1     16001-3.07022E-01 6.30594E-05 4.40589E-01 1.35435E-05-2.36444E-07 1.30502E-02
 -1     16003-3.07022E-01 6.30594E-05 4.40589E-01 1.35435E-05 2.36444E-07-1.30502E-02
 -1     16004-2.59744E-01 4.14235E-06 3.93081E-01-3.95030E-05 6.89876E-07 1.13957E-02
 -1     16006-2.59744E-01 4.14235E-06 3.93081E-01-3.95030E-05-6.89876E-07-1.13957E-02
 -1     16007-2.68745E-01-5.94439E-06 4.02072E-01 2.16530E-07-3.76730E-09 1.17103E-02
 -1     16009-2.68745E-01-5.94439E-06 4.02072E-01 2.16530E-07 3.76730E-09-1.17103E-02
 -1     16010-2.45548E-01 7.69155E-07 3.78881E-01 3.29039E-05-5.74385E-07 1.09000E-02
 -1     16012-2.45548E-01 7.69155E-07 3.78881E-01 3.29039E-05 5.74385E-07-1.09000E-02
 -1     16013-1.37662E-01-4.41771E-07 2.70992E-01 1.25462E-05-2.19021E-07 7.13329E-03
 -1     16015-1.37662E-01-4.41771E-07 2.70992E-01 1.25462E-05 2.19021E-07-7.13329E-03
 -1     16016-1.44867E-01 7.57209E-07 2.78202E-01-1.36766E-05 2.38764E-07 7.38491E-03
 -1     16018-1.44867E-01 7.57209E-07 2.78202E-01-1.36766E-05-2.38764E-07-7.38491E-03
 -1     16019-3.49515E-01-2.32576E-05 4.82706E-01-5.95801E-06 1.05883E-07 1.45284E-02
 -1     16021-3.49515E-01-2.32576E-05 4.82706E-01-5.95801E-06-1.05883E-07-1.45284E-02
 -1     16022-3.36799E-01 8.16660E-05 4.70421E-01 1.77096E-06-3.09162E-08 1.40908E-02
 -1     16024-3.36799E-01 8.16660E-05 4.70421E-01 1.77096E-06 3.09162E-08-1.40908E-02
 -1     16025-3.22459E-01-3.59006E-06 4.55712E-01 1.75976E-06-2.97099E-08 1.35844E-02
 -1     16027-3.22459E-01-3.59006E-06 4.55712E-01 1.75976E-06 2.97099E-08-1.35844E-02
 -1     16028-3.20733E-01-1.64041E-05 4.53975E-01 1.92575E-05-3.37081E-07 1.35238E-02
 -1     16030-3.20733E-01-1.64041E-05 4.53975E-01 1.92575E-05 3.37081E-07-1.35238E-02
 -1     16031-3.26562E-02 4.08127E-06 1.66002E-01 2.46512E-07-4.30778E-09 3.46763E-03
 -1     16033-3.26562E-02 4.08127E-06 1.66002E-01 2.46512E-07 4.30778E-09-3.46763E-03
 -1     16034-3.06371E-02-1.74629E-06 1.63962E-01-1.31206E-06 2.28137E-08 3.39680E-03
 -1     16036-3.06371E-02-1.74629E-06 1.63962E-01-1.31206E-06-2.28137E-08-3.39680E-03
 -1     16037-3.21203E-01-3.47582E-05 4.54408E-01-1.84385E-06 3.20425E-08 1.35395E-02
 -1     16039-3.21203E-01-3.47582E-05 4.54408E-01-1.84385E-06-3.20425E-08-1.35395E-02
 -1     16040-3.05082E-01 6.57357E-05 4.38663E-01 7.62485E-06-1.33109E-07 1.29827E-02
 -1     16042-3.05082E-01 6.57357E-05 4.38663E-01 7.62485E-06 1.33109E-07-1.29827E-02
 -1     16043-3.20766E-01-3.77387E-05 4.53962E-01-2.74076E-06 4.79147E-08 1.35241E-02
 -1     16045-3.20766E-01-3.77387E-05 4.53962E-01-2.74076E-06-4.79147E-08-1.35241E-02
 -1     16046-3.09497E-02 3.95350E-06 1.64295E-01-8.12550E-07 1.41799E-08 3.40805E-03
 -1     16048-3.09497E-02 3.95350E-06 1.64295E-01-8.12550E-07-1.41799E-08-3.40805E-03
 -1     16049-2.59550E-01 7.94656E-06 3.92898E-01 4.26133E-05-7.44115E-07 1.13892E-02
 -1     16051-2.59550E-01 7.94656E-06 3.92898E-01 4.26133E-05 7.44115E-07-1.13892E-02
 -1     16052-2.75894E-01-5.58396E-08 4.09204E-01-4.65249E-05 8.12421E-07 1.19592E-02
 -1     16054-2.75894E-01-5.58396E-08 4.09204E-01-4.65249E-05-8.12421E-07-1.19592E-02
 -1     16055-3.09047E-02 4.49579E-06 1.64253E-01 8.04957E-07-1.40527E-08 3.40653E-03
 -1     16057-3.09047E-02 4.49579E-06 1.64253E-01 8.04957E-07 1.40527E-08-3.40653E-03
 -1     16058-3.98169E-02-4.24473E-07 1.73148E-01 6.11934E-07-1.06990E-08 3.71741E-03
 -1     16060-3.98169E-02-4.24473E-07 1.73148E-01 6.11934E-07 1.06990E-08-3.71741E-03
 -1     16061-4.08793E-02-1.37016E-06 1.74207E-01 3.59490E-06-6.27924E-08 3.75441E-03
 -1     16063-4.08793E-02-1.37016E-06 1.74207E-01 3.59490E-06 6.27924E-08-3.75441E-03
 -1     16064-1.77793E-01 3.32942E-07 3.11126E-01 1.89729E-05-3.31257E-07 8.53442E-03
 -1     16066-1.77793E-01 3.32942E-07 3.11126E-01 1.89729E-05 3.31257E-07-8.53442E-03
 -1     16067-1.87326E-01-8.68281E-07 3.20655E-01-2.03214E-05 3.54773E-07 8.86717E-03
 -1     16069-1.87326E-01-8.68281E-07 3.20655E-01-2.03214E-05-3.54773E-07-8.86717E-03
 -1     16070-1.73330E-01-3.73248E-07 3.06662E-01-9.55645E-08 1.66142E-09 8.37878E-03
 -1     16072-1.73330E-01-3.73248E-07 3.06662E-01-9.55645E-08-1.66142E-09-8.37878E-03
 -1     16073-2.95347E-02-2.12071E-06 1.62859E-01-3.27494E-07 5.72563E-09 3.35832E-03
 -1     16075-2.95347E-02-2.12071E-06 1.62859E-01-3.27494E-07-5.72563E-09-3.35832E-03
 -1     16076-3.15566E-02 5.24052E-06 1.64907E-01 1.01169E-06-1.76628E-08 3.42934E-03
 -1     16078-3.15566E-02 5.24052E-06 1.64907E-01 1.01169E-06 1.76628E-08-3.42934E-03
 -1     16079-2.96777E-02-2.75521E-06 1.63000E-01-6.81760E-07 1.19210E-08 3.36328E-03
 -1     16081-2.96777E-02-2.75521E-06 1.63000E-01-6.81760E-07-1.19210E-08-3.36328E-03
 -1     16082-7.35937E-02 1.39823E-07 2.06926E-01 5.87632E-06-1.02594E-07 4.89659E-03
 -1     16084-7.35937E-02 1.39823E-07 2.06926E-01 5.87632E-06 1.02594E-07-4.89659E-03
 -1     16085-7.76681E-02-1.70458E-07 2.10999E-01-6.23541E-06 1.08855E-07 5.03881E-03
 -1     16087-7.76681E-02-1.70458E-07 2.10999E-01-6.23541E-06-1.08855E-07-5.03881E-03
 -1     16088-1.15073E-01 7.31872E-10 2.48405E-01-3.24885E-08 5.71716E-10 6.34481E-03
 -1     16090-1.15073E-01 7.31872E-10 2.48405E-01-3.24885E-08-5.71716E-10-6.34481E-03
 -1     16091-3.46693E-02-5.30902E-07 1.67999E-01 6.32631E-07-1.10410E-08 3.53767E-03
 -1     16093-3.46693E-02-5.30902E-07 1.67999E-01 6.32631E-07 1.10410E-08-3.53767E-03
 -1     16094-5.89081E-02 2.08398E-07 1.92241E-01-4.86436E-06 8.49135E-08 4.38390E-03
 -1     16096-5.89081E-02 2.08398E-07 1.92241E-01-4.86436E-06-8.49135E-08-4.38390E-03
 -1     16097-6.06851E-02-1.51193E-08 1.94017E-01 9.48205E-08-1.65371E-09 4.44598E-03
 -1     16099-6.06851E-02-1.51193E-08 1.94017E-01 9.48205E-08 1.65371E-09-4.44598E-03
 -1     16100-5.55739E-02-2.50342E-07 1.88905E-01 4.57543E-06-7.98841E-08 4.26747E-03
 -1     16102-5.55739E-02-2.50342E-07 1.88905E-01 4.57543E-06 7.98841E-08-4.26747E-03
 -1     16103-1.52436E-01-4.93494E-07 2.85765E-01 1.43153E-05-2.49921E-07 7.64907E-03
 -1     16105-1.52436E-01-4.93494E-07 2.85765E-01 1.43153E-05 2.49921E-07-7.64907E-03
 -1     16106-1.60413E-01 9.98728E-07 2.93748E-01-1.52896E-05 2.66917E-07 7.92767E-03
 -1     16108-1.60413E-01 9.98728E-07 2.93748E-01-1.52896E-05-2.66917E-07-7.92767E-03
 -1     16109-1.48748E-01 5.45302E-07 2.82080E-01 1.28480E-07-2.22180E-09 7.52050E-03
 -1     16111-1.48748E-01 5.45302E-07 2.82080E-01 1.28480E-07 2.22180E-09-7.52050E-03
 -1     16112-1.01029E-01 1.68216E-07 2.34362E-01 8.63499E-06-1.50749E-07 5.85441E-03
 -1     16114-1.01029E-01 1.68216E-07 2.34362E-01 8.63499E-06 1.50749E-07-5.85441E-03
 -1     16115-1.06404E-01-1.45979E-07 2.39735E-01-9.15341E-06 1.59808E-07 6.04203E-03
 -1     16117-1.06404E-01-1.45979E-07 2.39735E-01-9.15341E-06-1.59808E-07-6.04203E-03
 -1     16118-3.50092E-01-3.30677E-05 4.83285E-01-8.59564E-06 1.47619E-07 1.45486E-02
 -1     16120-3.50092E-01-3.30677E-05 4.83285E-01-8.59564E-06-1.47619E-07-1.45486E-02
 -1     16121-3.02612E-02-1.27308E-06 1.63587E-01 1.44312E-07-2.57723E-09 3.38371E-03
 -1     16123-3.02612E-02-1.27308E-06 1.63587E-01 1.44312E-07 2.57723E-09-3.38371E-03
 -1     16124-2.85025E-01-1.72568E-05 4.18336E-01-1.19485E-05 2.08331E-07 1.22786E-02
 -1     16126-2.85025E-01-1.72568E-05 4.18336E-01-1.19485E-05-2.08331E-07-1.22786E-02
 -1     16127-2.94540E-01 2.30295E-06 4.27876E-01 5.49597E-05-9.59420E-07 1.26108E-02
 -1     16129-2.94540E-01 2.30295E-06 4.27876E-01 5.49597E-05 9.59420E-07-1.26108E-02
 -1     16130-4.20759E-02-2.25929E-07 1.75407E-01 3.88607E-07-6.79296E-09 3.79629E-03
 -1     16132-4.20759E-02-2.25929E-07 1.75407E-01 3.88607E-07 6.79296E-09-3.79629E-03
 -1     16133-4.33550E-02-8.18566E-07 1.76684E-01 4.00742E-06-6.99694E-08 3.84086E-03
 -1     16135-4.33550E-02-8.18566E-07 1.76684E-01 4.00742E-06 6.99694E-08-3.84086E-03
 -1     16136-1.30767E-01 2.54937E-07 2.64100E-01-1.21001E-05 2.11250E-07 6.89262E-03
 -1     16138-1.30767E-01 2.54937E-07 2.64100E-01-1.21001E-05-2.11250E-07-6.89262E-03
 -1     16139-1.34293E-01 1.09709E-07 2.67625E-01 4.73379E-08-8.18324E-10 7.01583E-03
 -1     16141-1.34293E-01 1.09709E-07 2.67625E-01 4.73379E-08 8.18324E-10-7.01583E-03
 -1     16142-1.24237E-01-2.13171E-07 2.57569E-01 1.11783E-05-1.95143E-07 6.66463E-03
 -1     16144-1.24237E-01-2.13171E-07 2.57569E-01 1.11783E-05 1.95143E-07-6.66463E-03
 -1     16145-3.34264E-01 3.30537E-05 4.67729E-01 4.12054E-05-7.20245E-07 1.39997E-02
 -1     16147-3.34264E-01 3.30537E-05 4.67729E-01 4.12054E-05 7.20245E-07-1.39997E-02
 -1     16148-3.15615E-01-4.50822E-06 4.49008E-01-4.35453E-05 7.59447E-07 1.33476E-02
 -1     16150-3.15615E-01-4.50822E-06 4.49008E-01-4.35453E-05-7.59447E-07-1.33476E-02
 -1     16151-6.97159E-02-8.81098E-08 2.03048E-01-5.57161E-06 9.72639E-08 4.76120E-03
 -1     16153-6.97159E-02-8.81098E-08 2.03048E-01-5.57161E-06-9.72639E-08-4.76120E-03
 -1     16154-7.16733E-02-9.77850E-08 2.05005E-01-3.63072E-08 6.34194E-10 4.82960E-03
 -1     16156-7.16733E-02-9.77850E-08 2.05005E-01-3.63072E-08-6.34194E-10-4.82960E-03
 -1     16157-6.59782E-02-3.75367E-08 1.99310E-01 5.23686E-06-9.14333E-08 4.63071E-03
 -1     16159-6.59782E-02-3.75367E-08 1.99310E-01 5.23686E-06 9.14333E-08-4.63071E-03
 -1     16160-9.59043E-02-2.16243E-07 2.29235E-01-7.98564E-06 1.39418E-07 5.67547E-03
 -1     16162-9.59043E-02-2.16243E-07 2.29235E-01-7.98564E-06-1.39418E-07-5.67547E-03
 -1     16163-9.84641E-02 1.69147E-08 2.31796E-01-8.76881E-08 1.54006E-09 5.76494E-03
 -1     16165-9.84641E-02 1.69147E-08 2.31796E-01-8.76881E-08-1.54006E-09-5.76494E-03
 -1     16166-9.10202E-02 2.43630E-07 2.24353E-01 7.55239E-06-1.31851E-07 5.50499E-03
 -1     16168-9.10202E-02 2.43630E-07 2.24353E-01 7.55239E-06 1.31851E-07-5.50499E-03
 -1     16169-4.37092E-02 1.14902E-06 1.77045E-01-4.18381E-06 7.30083E-08 3.85334E-03
 -1     16171-4.37092E-02 1.14902E-06 1.77045E-01-4.18381E-06-7.30083E-08-3.85334E-03
 -1     16172-4.62906E-02 7.24586E-07 1.79625E-01-4.37481E-06 7.63554E-08 3.94344E-03
 -1     16174-4.62906E-02 7.24586E-07 1.79625E-01-4.37481E-06-7.63554E-08-3.94344E-03
 -1     16175-3.27344E-02-1.75227E-06 1.66060E-01 3.51677E-07-6.08341E-09 3.47004E-03
 -1     16177-3.27344E-02-1.75227E-06 1.66060E-01 3.51677E-07 6.08341E-09-3.47004E-03
 -1     16178-3.29612E-02-2.27810E-06 1.66285E-01 7.90191E-07-1.38761E-08 3.47791E-03
 -1     16180-3.29612E-02-2.27810E-06 1.66285E-01 7.90191E-07 1.38761E-08-3.47791E-03
 -1     16181-3.20241E-01-3.62557E-05 4.53441E-01-3.04258E-07 5.37632E-09 1.35059E-02
 -1     16183-3.20241E-01-3.62557E-05 4.53441E-01-3.04258E-07-5.37632E-09-1.35059E-02
 -1     16184-3.20238E-01-3.65422E-05 4.53437E-01 4.17371E-07-7.33256E-09 1.35057E-02
 -1     16186-3.20238E-01-3.65422E-05 4.53437E-01 4.17371E-07 7.33256E-09-1.35057E-02
 -1     16187-2.45180E-01-3.53725E-06 3.78501E-01-3.38700E-05 5.91341E-07 1.08870E-02
 -1     16189-2.45180E-01-3.53725E-06 3.78501E-01-3.38700E-05-5.91341E-07-1.08870E-02
 -1     16190-2.52071E-01 2.70923E-06 3.85398E-01-1.92073E-06 3.37602E-08 1.11280E-02
 -1     16192-2.52071E-01 2.70923E-06 3.85398E-01-1.92073E-06-3.37602E-08-1.11280E-02
 -1     16193-3.27006E-01-3.16496E-05 4.60234E-01-2.78322E-06 4.69309E-08 1.37422E-02
 -1     16195-3.27006E-01-3.16496E-05 4.60234E-01-2.78322E-06-4.69309E-08-1.37422E-02
 -1     16196-3.25328E-01-2.82570E-05 4.58556E-01 1.48625E-05-2.57798E-07 1.36835E-02
 -1     16198-3.25328E-01-2.82570E-05 4.58556E-01 1.48625E-05 2.57798E-07-1.36835E-02
 -1     16199-3.08194E-01 3.02393E-05 4.41596E-01-4.04555E-05 7.06657E-07 1.30882E-02
 -1     16201-3.08194E-01 3.02393E-05 4.41596E-01-4.04555E-05-7.06657E-07-1.30882E-02
 -1     16202-3.10567E-01 4.45100E-05 4.44075E-01 2.56945E-05-4.48611E-07 1.31729E-02
 -1     16204-3.10567E-01 4.45100E-05 4.44075E-01 2.56945E-05 4.48611E-07-1.31729E-02
 -1     16205-3.31194E-02-2.75127E-06 1.66442E-01-6.77820E-07 1.18712E-08 3.48343E-03
 -1     16207-3.31194E-02-2.75127E-06 1.66442E-01-6.77820E-07-1.18712E-08-3.48343E-03
 -1     16208-3.29713E-02-1.95401E-06 1.66296E-01-4.62731E-07 8.11962E-09 3.47830E-03
 -1     16210-3.29713E-02-1.95401E-06 1.66296E-01-4.62731E-07-8.11962E-09-3.47830E-03
 -1     16211-3.88080E-02-1.76646E-06 1.72133E-01 2.71521E-06-4.74849E-08 3.68206E-03
 -1     16213-3.88080E-02-1.76646E-06 1.72133E-01 2.71521E-06 4.74849E-08-3.68206E-03
 -1     16214-4.14734E-02 1.69176E-06 1.74811E-01-3.67463E-06 6.41127E-08 3.77531E-03
 -1     16216-4.14734E-02 1.69176E-06 1.74811E-01-3.67463E-06-6.41127E-08-3.77531E-03
 -1     16217-2.98718E-02-2.03971E-06 1.63196E-01-1.71147E-07 2.98732E-09 3.37009E-03
 -1     16219-2.98718E-02-2.03971E-06 1.63196E-01-1.71147E-07-2.98732E-09-3.37009E-03
 -1     16220-3.19239E-02 6.02165E-06 1.65276E-01 1.53292E-06-2.67611E-08 3.44219E-03
 -1     16222-3.19239E-02 6.02165E-06 1.65276E-01 1.53292E-06 2.67611E-08-3.44219E-03
 -1     16223-8.19108E-02 2.32363E-07 2.15244E-01 6.66319E-06-1.16329E-07 5.18696E-03
 -1     16225-8.19108E-02 2.32363E-07 2.15244E-01 6.66319E-06 1.16329E-07-5.18696E-03
 -1     16226-8.63660E-02-2.40152E-07 2.19697E-01-7.01931E-06 1.22543E-07 5.34247E-03
 -1     16228-8.63660E-02-2.40152E-07 2.19697E-01-7.01931E-06-1.22543E-07-5.34247E-03
 -1     16229-7.97923E-02 7.11241E-09 2.13124E-01-7.40390E-08 1.29939E-09 5.11305E-03
 -1     16231-7.97923E-02 7.11240E-09 2.13124E-01-7.40390E-08-1.29939E-09-5.11305E-03
 -1     16232-3.00658E-02-3.03502E-06 1.63387E-01-1.33743E-06 2.33500E-08 3.37681E-03
 -1     16234-3.00658E-02-3.03502E-06 1.63387E-01-1.33743E-06-2.33500E-08-3.37681E-03
 -1     16235-1.12065E-01 1.12145E-09 2.45397E-01 9.88294E-06-1.72533E-07 6.23968E-03
 -1     16237-1.12065E-01 1.12145E-09 2.45397E-01 9.88294E-06 1.72533E-07-6.23968E-03
 -1     16238-1.17985E-01-1.90715E-08 2.51318E-01-1.05520E-05 1.84224E-07 6.44638E-03
 -1     16240-1.17985E-01-1.90715E-08 2.51318E-01-1.05520E-05-1.84224E-07-6.44638E-03
 -1     16241-1.21153E-01-4.43173E-08 2.54485E-01 9.80195E-10-1.21853E-11 6.55708E-03
 -1     16243-1.21153E-01-4.43173E-08 2.54485E-01 9.80196E-10 1.21853E-11-6.55708E-03
 -1     16244-1.09246E-01 2.94014E-09 2.42578E-01-6.22695E-08 1.09428E-09 6.14136E-03
 -1     16246-1.09246E-01 2.94014E-09 2.42578E-01-6.22695E-08-1.09428E-09-6.14136E-03
 -1     16247-4.53229E-02-2.35126E-07 1.78654E-01 4.14717E-07-7.25160E-09 3.90964E-03
 -1     16249-4.53229E-02-2.35126E-07 1.78654E-01 4.14717E-07 7.25160E-09-3.90964E-03
 -1     16250-4.65486E-02-7.90156E-07 1.79878E-01 3.80822E-06-6.64990E-08 3.95236E-03
 -1     16252-4.65486E-02-7.90156E-07 1.79878E-01 3.80822E-06 6.64990E-08-3.95236E-03
 -1     16253-3.39530E-02-3.10286E-06 1.67274E-01-5.28461E-07 9.24106E-09 3.51251E-03
 -1     16255-3.39530E-02-3.10286E-06 1.67274E-01-5.28461E-07-9.24106E-09-3.51251E-03
 -1     16256-3.37782E-02-2.38297E-06 1.67102E-01-4.11000E-07 7.19552E-09 3.50646E-03
 -1     16258-3.37782E-02-2.38297E-06 1.67102E-01-4.11000E-07-7.19552E-09-3.50646E-03
 -1     16259-3.34100E-02-1.08248E-06 1.66738E-01 6.05572E-07-1.05671E-08 3.49367E-03
 -1     16261-3.34100E-02-1.08248E-06 1.66738E-01 6.05572E-07 1.05671E-08-3.49367E-03
 -1     16262-3.39285E-02-2.33334E-06 1.67252E-01 1.94980E-06-3.41185E-08 3.51168E-03
 -1     16264-3.39285E-02-2.33334E-06 1.67252E-01 1.94980E-06 3.41185E-08-3.51168E-03
 -1     16265-3.64009E-02 2.73669E-06 1.69743E-01-2.94673E-06 5.14152E-08 3.59830E-03
 -1     16267-3.64009E-02 2.73669E-06 1.69743E-01-2.94673E-06-5.14152E-08-3.59830E-03
 -1     16268-3.51909E-02 3.21320E-06 1.68535E-01-1.85760E-06 3.24170E-08 3.55609E-03
 -1     16270-3.51909E-02 3.21320E-06 1.68535E-01-1.85760E-06-3.24170E-08-3.55609E-03
 -1     16271-4.92802E-02-4.71481E-07 1.82610E-01 4.21421E-06-7.35763E-08 4.04774E-03
 -1     16273-4.92802E-02-4.71481E-07 1.82610E-01 4.21421E-06 7.35763E-08-4.04774E-03
 -1     16274-5.23906E-02 4.37136E-07 1.85724E-01-4.53953E-06 7.92359E-08 4.15638E-03
 -1     16276-5.23906E-02 4.37136E-07 1.85724E-01-4.53953E-06-7.92359E-08-4.15638E-03
 -1     16277-5.40658E-02 1.30462E-08 1.87398E-01 1.63389E-07-2.84972E-09 4.21488E-03
 -1     16279-5.40658E-02 1.30462E-08 1.87398E-01 1.63389E-07 2.84972E-09-4.21488E-03
 -1     16280-4.78963E-02-1.01233E-07 1.81228E-01 2.52978E-07-4.41927E-09 3.99949E-03
 -1     16282-4.78963E-02-1.01233E-07 1.81228E-01 2.52978E-07 4.41927E-09-3.99949E-03
 -1     16283-3.35442E-02-3.08882E-06 1.66865E-01-6.60151E-07 1.15466E-08 3.49824E-03
 -1     16285-3.35442E-02-3.08882E-06 1.66865E-01-6.60151E-07-1.15466E-08-3.49824E-03
 -1     16286-3.33714E-02-2.18723E-06 1.66696E-01-4.30675E-07 7.54607E-09 3.49227E-03
 -1     16288-3.33714E-02-2.18723E-06 1.66696E-01-4.30675E-07-7.54607E-09-3.49227E-03
 -1     16289-3.59196E-02 5.47815E-06 1.69272E-01 1.48215E-06-2.58781E-08 3.58168E-03
 -1     16291-3.59196E-02 5.47815E-06 1.69272E-01 1.48215E-06 2.58781E-08-3.58168E-03
 -1     16292-2.93202E-01-1.31174E-05 4.26524E-01 2.67877E-05-4.67848E-07 1.25635E-02
 -1     16294-2.93202E-01-1.31174E-05 4.26524E-01 2.67877E-05 4.67848E-07-1.25635E-02
 -1     16295-2.78557E-01 1.74342E-05 4.11973E-01-2.36683E-05 4.13266E-07 1.20537E-02
 -1     16297-2.78557E-01 1.74342E-05 4.11973E-01-2.36683E-05-4.13266E-07-1.20537E-02
 -1     16298-2.97913E-01-1.17960E-05 4.31199E-01-9.80801E-07 1.64001E-08 1.27276E-02
 -1     16300-2.97913E-01-1.17960E-05 4.31199E-01-9.80801E-07-1.64001E-08-1.27276E-02
 -1     16301-2.66038E-01-5.32839E-06 3.99325E-01 2.58817E-05-4.50730E-07 1.16145E-02
 -1     16303-2.66038E-01-5.32839E-06 3.99325E-01 2.58817E-05 4.50730E-07-1.16145E-02
 -1     16304-2.52034E-01 1.25367E-05 3.85360E-01-2.98260E-05 5.21553E-07 1.11262E-02
 -1     16306-2.52034E-01 1.25367E-05 3.85360E-01-2.98260E-05-5.21553E-07-1.11262E-02
 -1     16307-2.70406E-01-1.21637E-05 4.03677E-01 2.82504E-06-5.05470E-08 1.17669E-02
 -1     16309-2.70406E-01-1.21637E-05 4.03677E-01 2.82504E-06 5.05470E-08-1.17669E-02
 -1     16310-2.15437E-01-4.54192E-06 3.48746E-01 2.71327E-05-4.73968E-07 9.84835E-03
 -1     16312-2.15437E-01-4.54192E-06 3.48746E-01 2.71327E-05 4.73968E-07-9.84835E-03
 -1     16313-2.04273E-01 8.88781E-06 3.37636E-01-2.69715E-05 4.70773E-07 9.45941E-03
 -1     16315-2.04273E-01 8.88781E-06 3.37636E-01-2.69715E-05-4.70773E-07-9.45941E-03
 -1     16316-1.93585E-01-7.07206E-06 3.26890E-01 2.16035E-05-3.77190E-07 9.08534E-03
 -1     16318-1.93585E-01-7.07206E-06 3.26890E-01 2.16035E-05 3.77190E-07-9.08534E-03
 -1     16319-1.83472E-01 8.96082E-06 3.16834E-01-2.37423E-05 4.14480E-07 8.73319E-03
 -1     16321-1.83472E-01 8.96082E-06 3.16834E-01-2.37423E-05-4.14480E-07-8.73319E-03
 -1     16322-1.97731E-01-2.73894E-06 3.31057E-01 4.31047E-06-7.52685E-08 9.23066E-03
 -1     16324-1.97731E-01-2.73894E-06 3.31057E-01 4.31047E-06 7.52685E-08-9.23066E-03
 -1     16325-1.74044E-01-6.50414E-06 3.07352E-01 1.83635E-05-3.20618E-07 8.40316E-03
 -1     16327-1.74044E-01-6.50414E-06 3.07352E-01 1.83635E-05 3.20618E-07-8.40316E-03
 -1     16328-1.65070E-01 7.34641E-06 2.98427E-01-2.01225E-05 3.51312E-07 8.09063E-03
 -1     16330-1.65070E-01 7.34641E-06 2.98427E-01-2.01225E-05-3.51312E-07-8.09063E-03
 -1     16331-1.77600E-01-1.73654E-06 3.10928E-01 3.41061E-06-5.95223E-08 8.52782E-03
 -1     16333-1.77600E-01-1.73654E-06 3.10928E-01 3.41061E-06 5.95223E-08-8.52782E-03
 -1     16334-1.56751E-01-5.42337E-06 2.90064E-01 1.53741E-05-2.68416E-07 7.79949E-03
 -1     16336-1.56751E-01-5.42337E-06 2.90064E-01 1.53741E-05 2.68416E-07-7.79949E-03
 -1     16337-1.48761E-01 5.80591E-06 2.82114E-01-1.70249E-05 2.97234E-07 7.52119E-03
 -1     16339-1.48761E-01 5.80591E-06 2.82114E-01-1.70249E-05-2.97234E-07-7.52119E-03
 -1     16340-1.59840E-01-1.11850E-06 2.93169E-01 2.64073E-06-4.60691E-08 7.90774E-03
 -1     16342-1.59840E-01-1.11850E-06 2.93169E-01 2.64073E-06 4.60691E-08-7.90774E-03
 -1     16343-1.41331E-01-4.57713E-06 2.74647E-01 1.28203E-05-2.23841E-07 7.26118E-03
 -1     16345-1.41331E-01-4.57713E-06 2.74647E-01 1.28203E-05 2.23841E-07-7.26118E-03
 -1     16346-1.34192E-01 5.12533E-06 2.67542E-01-1.43355E-05 2.50273E-07 7.01249E-03
 -1     16348-1.34192E-01 5.12533E-06 2.67542E-01-1.43355E-05-2.50273E-07-7.01249E-03
 -1     16349-1.44079E-01-8.36317E-07 2.77409E-01 2.11076E-06-3.68322E-08 7.35748E-03
 -1     16351-1.44079E-01-8.36317E-07 2.77409E-01 2.11076E-06 3.68322E-08-7.35748E-03
 -1     16352-1.27539E-01-3.98134E-06 2.60857E-01 1.08969E-05-1.90251E-07 6.77970E-03
 -1     16354-1.27539E-01-3.98134E-06 2.60857E-01 1.08969E-05 1.90251E-07-6.77970E-03
 -1     16355-1.21118E-01 4.97182E-06 2.54468E-01-1.20617E-05 2.10567E-07 6.55604E-03
 -1     16357-1.21118E-01 4.97182E-06 2.54468E-01-1.20617E-05-2.10567E-07-6.55604E-03
 -1     16358-1.29987E-01 2.15204E-07 2.63317E-01 1.77583E-06-3.10191E-08 6.86546E-03
 -1     16360-1.29987E-01 2.15204E-07 2.63317E-01 1.77583E-06 3.10191E-08-6.86546E-03
 -1     16361-1.15097E-01-3.96081E-06 2.48414E-01 9.66532E-06-1.68733E-07 6.34530E-03
 -1     16363-1.15097E-01-3.96081E-06 2.48414E-01 9.66532E-06 1.68733E-07-6.34530E-03
 -1     16364-1.09264E-01 4.43811E-06 2.42613E-01-1.08159E-05 1.88815E-07 6.14218E-03
 -1     16366-1.09264E-01 4.43811E-06 2.42613E-01-1.08159E-05-1.88815E-07-6.14218E-03
 -1     16367-1.17300E-01-2.39990E-07 2.50630E-01 1.57797E-06-2.75536E-08 6.42253E-03
 -1     16369-1.17300E-01-2.39990E-07 2.50630E-01 1.57797E-06 2.75536E-08-6.42253E-03
 -1     16370-1.03765E-01-3.63526E-06 2.37084E-01 8.53375E-06-1.48979E-07 5.94973E-03
 -1     16372-1.03765E-01-3.63526E-06 2.37084E-01 8.53375E-06 1.48979E-07-5.94973E-03
 -1     16373-9.84443E-02 4.01133E-06 2.31791E-01-9.87056E-06 1.72321E-07 5.76440E-03
 -1     16375-9.84443E-02 4.01133E-06 2.31791E-01-9.87056E-06-1.72321E-07-5.76440E-03
 -1     16376-1.05765E-01-9.87149E-07 2.39095E-01 1.56830E-06-2.73590E-08 6.01982E-03
 -1     16378-1.05765E-01-9.87149E-07 2.39095E-01 1.56830E-06 2.73590E-08-6.01982E-03
 -1     16379-9.34391E-02-3.06945E-06 2.26760E-01 7.57169E-06-1.32187E-07 5.58925E-03
 -1     16381-9.34391E-02-3.06945E-06 2.26760E-01 7.57169E-06 1.32187E-07-5.58925E-03
 -1     16382-8.85854E-02 3.47568E-06 2.21930E-01-8.76073E-06 1.52947E-07 5.42018E-03
 -1     16384-8.85854E-02 3.47568E-06 2.21930E-01-8.76073E-06-1.52947E-07-5.42018E-03
 -1     16385-9.52498E-02-6.98467E-07 2.28580E-01 1.37399E-06-2.39687E-08 5.65269E-03
 -1     16387-9.52498E-02-6.98467E-07 2.28580E-01 1.37399E-06 2.39687E-08-5.65269E-03
 -1     16388-8.40136E-02-2.67221E-06 2.17336E-01 6.74628E-06-1.17781E-07 5.26022E-03
 -1     16390-8.40136E-02-2.67221E-06 2.17336E-01 6.74628E-06 1.17781E-07-5.26022E-03
 -1     16391-7.95770E-02 3.06098E-06 2.12920E-01-7.76934E-06 1.35632E-07 5.10566E-03
 -1     16393-7.95770E-02 3.06098E-06 2.12920E-01-7.76934E-06-1.35632E-07-5.10566E-03
 -1     16394-8.56632E-02-3.66023E-07 2.18994E-01 1.18130E-06-2.06127E-08 5.31800E-03
 -1     16396-8.56632E-02-3.66023E-07 2.18994E-01 1.18130E-06 2.06127E-08-5.31800E-03
 -1     16397-7.53653E-02-2.50973E-06 2.08689E-01 5.99443E-06-1.04663E-07 4.95830E-03
 -1     16399-7.53653E-02-2.50973E-06 2.08689E-01 5.99443E-06 1.04663E-07-4.95830E-03
 -1     16400-7.12971E-02 2.95106E-06 2.04640E-01-6.94078E-06 1.21161E-07 4.81659E-03
 -1     16402-7.12971E-02 2.95106E-06 2.04640E-01-6.94078E-06-1.21161E-07-4.81659E-03
 -1     16403-7.68710E-02-3.03255E-07 2.10202E-01 1.08070E-06-1.88598E-08 5.01105E-03
 -1     16405-7.68710E-02-3.03255E-07 2.10202E-01 1.08070E-06 1.88598E-08-5.01105E-03
 -1     16406-6.74084E-02-2.48100E-06 2.00732E-01 5.26628E-06-9.19630E-08 4.68051E-03
 -1     16408-6.74084E-02-2.48100E-06 2.00732E-01 5.26628E-06 9.19630E-08-4.68051E-03
 -1     16409-6.36823E-02 3.01223E-06 1.97026E-01-6.06789E-06 1.05921E-07 4.55076E-03
 -1     16411-6.36823E-02 3.01223E-06 1.97026E-01-6.06789E-06-1.05921E-07-4.55076E-03
 -1     16412-6.87619E-02-2.92115E-07 2.02092E-01 1.05819E-06-1.84690E-08 4.72794E-03
 -1     16414-6.87619E-02-2.92115E-07 2.02092E-01 1.05819E-06 1.84690E-08-4.72794E-03
 -1     16415-6.01162E-02-2.47184E-06 1.93439E-01 4.41823E-06-7.71723E-08 4.42593E-03
 -1     16417-6.01162E-02-2.47184E-06 1.93439E-01 4.41823E-06 7.71723E-08-4.42593E-03
 -1     16418-5.67345E-02 3.19203E-06 1.90079E-01-4.80277E-06 8.38472E-08 4.30821E-03
 -1     16420-5.67345E-02 3.19203E-06 1.90079E-01-4.80277E-06-8.38472E-08-4.30821E-03
 -1     16421-6.12980E-02-3.34052E-07 1.94628E-01 1.07905E-06-1.88405E-08 4.46735E-03
 -1     16423-6.12980E-02-3.34052E-07 1.94628E-01 1.07905E-06 1.88405E-08-4.46735E-03
 -1     16424-5.35808E-02-2.06095E-06 1.86904E-01 3.26726E-06-5.70556E-08 4.19776E-03
 -1     16426-5.35808E-02-2.06095E-06 1.86904E-01 3.26726E-06 5.70556E-08-4.19776E-03
 -1     16427-5.05452E-02 3.14393E-06 1.83889E-01-2.98364E-06 5.21436E-08 4.09211E-03
 -1     16429-5.05452E-02 3.14393E-06 1.83889E-01-2.98364E-06-5.21436E-08-4.09211E-03
 -1     16430-5.45692E-02-4.96525E-07 1.87898E-01 9.01694E-07-1.57984E-08 4.23240E-03
 -1     16432-5.45692E-02-4.96525E-07 1.87898E-01 9.01694E-07 1.57984E-08-4.23240E-03
 -1     16433-4.80676E-02-7.18003E-07 1.81394E-01 3.27342E-06-5.69204E-08 4.00533E-03
 -1     16435-4.80676E-02-7.18003E-07 1.81394E-01 3.27342E-06 5.69204E-08-4.00533E-03
 -1     16436-4.51353E-02-2.68419E-07 1.78465E-01-3.03682E-06 5.32291E-08 3.90301E-03
 -1     16438-4.51353E-02-2.68419E-07 1.78465E-01-3.03682E-06-5.32291E-08-3.90301E-03
 -1     16439-4.89345E-02-1.60318E-06 1.82261E-01 2.73725E-07-4.96780E-09 4.03562E-03
 -1     16441-4.89345E-02-1.60318E-06 1.82261E-01 2.73725E-07 4.96780E-09-4.03562E-03
 -1     16442-2.92372E-01-3.48890E-05 4.25581E-01-1.13436E-05 1.97752E-07 1.25328E-02
 -1     16444-2.92372E-01-3.48890E-05 4.25581E-01-1.13436E-05-1.97752E-07-1.25328E-02
 -1     16445-2.93492E-01-1.97374E-05 4.26747E-01-6.69638E-06 1.16579E-07 1.25728E-02
 -1     16447-2.93492E-01-1.97374E-05 4.26747E-01-6.69638E-06-1.16579E-07-1.25728E-02
 -1     16448-2.72809E-01 1.20348E-05 4.06164E-01 4.83253E-05-8.44500E-07 1.18522E-02
 -1     16450-2.72809E-01 1.20348E-05 4.06164E-01 4.83253E-05 8.44500E-07-1.18522E-02
 -1     16451-2.91510E-01-1.50742E-05 4.24769E-01-2.71506E-05 4.71594E-07 1.25036E-02
 -1     16453-2.91510E-01-1.50742E-05 4.24769E-01-2.71506E-05-4.71594E-07-1.25036E-02
 -1     16454-2.32113E-01-5.96913E-07 3.65440E-01-3.02838E-05 5.28760E-07 1.04308E-02
 -1     16456-2.32113E-01-5.96913E-07 3.65440E-01-3.02838E-05-5.28760E-07-1.04308E-02
 -1     16457-2.39004E-01 1.47054E-07 3.72335E-01-5.36764E-07 9.42161E-09 1.06718E-02
 -1     16459-2.39004E-01 1.47054E-07 3.72335E-01-5.36764E-07-9.42161E-09-1.06718E-02
 -1     16460-2.31728E-01 3.94447E-06 3.65078E-01 2.97495E-05-5.19367E-07 1.04178E-02
 -1     16462-2.31728E-01 3.94447E-06 3.65078E-01 2.97495E-05 5.19367E-07-1.04178E-02
 -1     16463-2.19800E-01 1.49491E-06 3.53138E-01 2.67312E-05-4.66661E-07 1.00011E-02
 -1     16465-2.19800E-01 1.49491E-06 3.53138E-01 2.67312E-05 4.66661E-07-1.00011E-02
 -1     16466-3.20365E-01-3.80041E-05 4.53562E-01-1.09404E-06 1.91054E-08 1.35101E-02
 -1     16468-3.20365E-01-3.80041E-05 4.53562E-01-1.09404E-06-1.91054E-08-1.35101E-02
 -1     16469-3.20516E-01-3.64116E-05 4.53719E-01-4.74275E-07 8.23976E-09 1.35155E-02
 -1     16471-3.20516E-01-3.64116E-05 4.53719E-01-4.74275E-07-8.23976E-09-1.35155E-02
 -1     16472-3.03730E-01 6.95874E-05 4.37311E-01 2.03505E-06-3.55235E-08 1.29355E-02
 -1     16474-3.03730E-01 6.95874E-05 4.37311E-01 2.03505E-06 3.55235E-08-1.29355E-02
 -1     16475-3.27102E-02-2.46734E-06 1.66034E-01-2.96740E-07 5.26980E-09 3.46915E-03
 -1     16477-3.27102E-02-2.46734E-06 1.66034E-01-2.96740E-07-5.26980E-09-3.46915E-03
 -1     16478-3.26917E-02-1.99522E-06 1.66016E-01-1.71590E-07 2.97390E-09 3.46852E-03
 -1     16480-3.26917E-02-1.99522E-06 1.66016E-01-1.71590E-07-2.97390E-09-3.46852E-03
 -1     16481-7.75680E-02 5.23796E-07 2.10902E-01 6.14093E-06-1.07214E-07 5.03536E-03
 -1     16483-7.75680E-02 5.23796E-07 2.10902E-01 6.14093E-06 1.07214E-07-5.03536E-03
 -1     16484-8.18128E-02-5.18720E-07 2.15143E-01-6.41491E-06 1.11994E-07 5.18349E-03
 -1     16486-8.18128E-02-5.18720E-07 2.15143E-01-6.41491E-06-1.11994E-07-5.18349E-03
 -1     16487-1.97434E-01 1.14148E-06 3.30770E-01 2.24926E-05-3.92695E-07 9.22018E-03
 -1     16489-1.97434E-01 1.14148E-06 3.30770E-01 2.24926E-05 3.92695E-07-9.22018E-03
 -1     16490-2.08237E-01-1.32606E-06 3.41563E-01-2.46080E-05 4.29617E-07 9.59719E-03
 -1     16492-2.08237E-01-1.32606E-06 3.41563E-01-2.46080E-05-4.29617E-07-9.59719E-03
 -1     16493-2.14019E-01-1.31619E-06 3.47350E-01-8.67399E-07 1.51280E-08 9.79943E-03
 -1     16495-2.14019E-01-1.31619E-06 3.47350E-01-8.67399E-07-1.51280E-08-9.79943E-03
 -1     16496-1.92356E-01-8.04180E-07 3.25687E-01-5.94311E-07 1.03506E-08 9.04304E-03
 -1     16498-1.92356E-01-8.04180E-07 3.25687E-01-5.94311E-07-1.03506E-08-9.04304E-03
 -1     16499-1.68739E-01-1.68897E-07 3.02069E-01 1.71150E-05-2.98837E-07 8.21825E-03
 -1     16501-1.68739E-01-1.68897E-07 3.02069E-01 1.71150E-05 2.98837E-07-8.21825E-03
 -1     16502-1.77663E-01-3.06669E-07 3.10995E-01-1.77680E-05 3.10184E-07 8.52986E-03
 -1     16504-1.77663E-01-3.06669E-07 3.10995E-01-1.77680E-05-3.10184E-07-8.52986E-03
 -1     16505-1.64631E-01 4.73054E-07 2.97963E-01 2.76052E-07-4.79642E-09 8.07504E-03
 -1     16507-1.64631E-01 4.73054E-07 2.97963E-01 2.76052E-07 4.79642E-09-8.07504E-03
 -1     16508-3.80450E-02-5.55166E-07 1.71375E-01 5.38631E-07-9.39062E-09 3.65551E-03
 -1     16510-3.80450E-02-5.55166E-07 1.71375E-01 5.38631E-07 9.39062E-09-3.65551E-03
 -1     16511-3.54269E-02 5.27051E-06 1.68778E-01 1.43540E-06-2.50593E-08 3.56445E-03
 -1     16513-3.54269E-02 5.27051E-06 1.68778E-01 1.43540E-06 2.50593E-08-3.56445E-03
 -1     16514-4.07486E-02-1.52193E-06 1.74077E-01-2.14644E-07 3.73465E-09 3.74993E-03
 -1     16516-4.07486E-02-1.52193E-06 1.74077E-01-2.14644E-07-3.73465E-09-3.74993E-03
 -1     16517-3.43755E-02-3.19018E-06 1.67695E-01-8.09731E-07 1.42582E-08 3.52725E-03
 -1     16519-3.43755E-02-3.19018E-06 1.67695E-01-8.09731E-07-1.42582E-08-3.52725E-03
 -1     16520-3.41749E-02-2.96191E-06 1.67498E-01-7.84377E-07 1.36959E-08 3.52030E-03
 -1     16522-3.41749E-02-2.96191E-06 1.67498E-01-7.84377E-07-1.36959E-08-3.52030E-03
 -1     16523-3.04670E-01 5.55047E-05 4.38200E-01 3.73284E-06-6.52105E-08 1.29674E-02
 -1     16525-3.04670E-01 5.55047E-05 4.38200E-01 3.73284E-06 6.52105E-08-1.29674E-02
 -1     16526-3.21575E-01-3.00750E-05 4.54790E-01 1.32931E-06-2.35164E-08 1.35526E-02
 -1     16528-3.21575E-01-3.00750E-05 4.54790E-01 1.32931E-06 2.35164E-08-1.35526E-02
 -1     16529-3.49078E-02 4.41152E-06 1.68256E-01 1.49411E-06-2.60837E-08 3.54628E-03
 -1     16531-3.49078E-02 4.41152E-06 1.68256E-01 1.49411E-06 2.60837E-08-3.54628E-03
 -1     16532-8.86876E-02 2.04387E-08 2.22020E-01-8.69185E-08 1.52535E-09 5.42361E-03
 -1     16534-8.86876E-02 2.04387E-08 2.22020E-01-8.69185E-08-1.52535E-09-5.42361E-03
 -1     16535-3.63841E-02 5.36633E-06 1.69737E-01 7.77588E-07-1.35782E-08 3.59790E-03
 -1     16537-3.63841E-02 5.36633E-06 1.69737E-01 7.77588E-07 1.35782E-08-3.59790E-03
 -1     16538-4.95354E-02 6.37182E-07 1.82869E-01-4.29079E-06 7.48806E-08 4.05670E-03
 -1     16540-4.95354E-02 6.37182E-07 1.82869E-01-4.29079E-06-7.48806E-08-4.05670E-03
 -1     16541-1.06330E-01 1.95786E-07 2.39663E-01 9.34256E-06-1.63099E-07 6.03947E-03
 -1     16543-1.06330E-01 1.95786E-07 2.39663E-01 9.34256E-06 1.63099E-07-6.03947E-03
 -1     16544-1.11991E-01-1.60527E-07 2.45322E-01-9.87090E-06 1.72344E-07 6.23708E-03
 -1     16546-1.11991E-01-1.60527E-07 2.45322E-01-9.87090E-06-1.72344E-07-6.23708E-03
 -1     16547-4.41130E-02-1.07076E-06 1.77442E-01 3.36327E-06-5.87523E-08 3.86732E-03
 -1     16549-4.41130E-02-1.07076E-06 1.77442E-01 3.36327E-06 5.87523E-08-3.86732E-03
 -1     16550-4.69495E-02 5.02130E-07 1.80283E-01-3.97483E-06 6.93427E-08 3.96641E-03
 -1     16552-4.69495E-02 5.02130E-07 1.80283E-01-3.97483E-06-6.93427E-08-3.96641E-03
 -1     16553-4.30779E-02-1.09058E-06 1.76409E-01 5.15309E-07-9.05006E-09 3.83124E-03
 -1     16555-4.30779E-02-1.09058E-06 1.76409E-01 5.15309E-07 9.05006E-09-3.83124E-03
 -1     16556-1.45121E-01-1.24247E-06 2.78449E-01 1.30851E-05-2.28403E-07 7.39369E-03
 -1     16558-1.45121E-01-1.24247E-06 2.78449E-01 1.30851E-05 2.28403E-07-7.39369E-03
 -1     16559-1.52684E-01 2.16268E-06 2.86023E-01-1.45245E-05 2.53566E-07 7.65790E-03
 -1     16561-1.52684E-01 2.16268E-06 2.86023E-01-1.45245E-05-2.53566E-07-7.65790E-03
 -1     16562-6.24215E-02 4.90764E-08 1.95754E-01-4.94215E-06 8.62749E-08 4.50655E-03
 -1     16564-6.24215E-02 4.90764E-08 1.95754E-01-4.94215E-06-8.62749E-08-4.50655E-03
 -1     16565-6.42406E-02-9.39820E-08 1.97573E-01 2.30376E-08-4.03441E-10 4.57010E-03
 -1     16567-6.42406E-02-9.39820E-08 1.97573E-01 2.30376E-08 4.03441E-10-4.57010E-03
 -1     16568-5.89832E-02-1.65900E-07 1.92315E-01 4.65830E-06-8.13365E-08 4.38650E-03
 -1     16570-5.89832E-02-1.65900E-07 1.92315E-01 4.65830E-06 8.13365E-08-4.38650E-03
 -1     16571-3.46912E-02 4.29363E-06 1.68037E-01-1.23172E-08 2.13647E-10 3.53866E-03
 -1     16573-3.46912E-02 4.29363E-06 1.68037E-01-1.23172E-08-2.13647E-10-3.53866E-03
 -1     16574-2.92327E-01-2.83346E-05 4.25563E-01 3.41784E-06-5.87346E-08 1.25317E-02
 -1     16576-2.92327E-01-2.83346E-05 4.25563E-01 3.41784E-06 5.87346E-08-1.25317E-02
 -1     16577-3.21395E-01-3.99933E-05 4.54589E-01-4.92147E-07 8.78356E-09 1.35460E-02
 -1     16579-3.21395E-01-3.99933E-05 4.54589E-01-4.92147E-07-8.78356E-09-1.35460E-02
 -1     16580-1.00921E-01-3.21661E-07 2.34252E-01-8.48536E-06 1.48151E-07 5.85060E-03
 -1     16582-1.00921E-01-3.21661E-07 2.34252E-01-8.48536E-06-1.48151E-07-5.85060E-03
 -1     16583-1.03599E-01 7.15864E-08 2.36931E-01-1.53494E-07 2.69356E-09 5.94423E-03
 -1     16585-1.03599E-01 7.15864E-08 2.36931E-01-1.53494E-07-2.69356E-09-5.94423E-03
 -1     16586-9.57947E-02 4.31243E-07 2.29128E-01 8.03762E-06-1.40320E-07 5.67169E-03
 -1     16588-9.57947E-02 4.31243E-07 2.29128E-01 8.03762E-06 1.40320E-07-5.67169E-03
 -1     16589-1.37792E-01 7.53226E-07 2.71127E-01-1.32393E-05 2.31142E-07 7.13792E-03
 -1     16591-1.37792E-01 7.53226E-07 2.71127E-01-1.32393E-05-2.31142E-07-7.13792E-03
 -1     16592-1.41634E-01 2.46412E-07 2.74966E-01 2.97239E-07-5.16914E-09 7.27214E-03
 -1     16594-1.41634E-01 2.46412E-07 2.74966E-01 2.97239E-07 5.16914E-09-7.27214E-03
 -1     16595-1.30900E-01-6.44592E-07 2.64230E-01 1.20142E-05-2.09722E-07 6.89722E-03
 -1     16597-1.30900E-01-6.44592E-07 2.64230E-01 1.20142E-05 2.09722E-07-6.89722E-03
 -1     16598-4.27892E-02 2.52422E-06 1.76131E-01 3.18274E-06-5.54406E-08 3.82131E-03
 -1     16600-4.27892E-02 2.52422E-06 1.76131E-01 3.18274E-06 5.54406E-08-3.82131E-03
 -1     16601-3.97491E-02-2.06494E-06 1.73073E-01-2.80776E-06 4.92001E-08 3.71491E-03
 -1     16603-3.97491E-02-2.06494E-06 1.73073E-01-2.80776E-06-4.92001E-08-3.71491E-03
 -1     16604-4.41133E-02-2.19245E-06 1.77438E-01-2.00565E-07 3.18998E-09 3.86727E-03
 -1     16606-4.41133E-02-2.19245E-06 1.77438E-01-2.00565E-07-3.18998E-09-3.86727E-03
 -1     16607-2.58339E-01-6.86143E-06 3.91697E-01-2.77253E-05 4.84071E-07 1.13470E-02
 -1     16609-2.58339E-01-6.86143E-06 3.91697E-01-2.77253E-05-4.84071E-07-1.13470E-02
 -1     16610-2.64538E-01-9.49616E-06 3.97819E-01 2.02743E-06-3.45550E-08 1.15624E-02
 -1     16612-2.64538E-01-9.49616E-06 3.97819E-01 2.02743E-06 3.45550E-08-1.15624E-02
 -1     16613-2.43945E-01 7.27699E-06 3.77317E-01 3.06595E-05-5.35063E-07 1.08447E-02
 -1     16615-2.43945E-01 7.27699E-06 3.77317E-01 3.06595E-05 5.35063E-07-1.08447E-02
 -1     16616-3.04097E-01 7.09634E-05 4.37677E-01 2.21617E-06-3.86908E-08 1.29483E-02
 -1     16618-3.04097E-01 7.09634E-05 4.37677E-01 2.21617E-06 3.86908E-08-1.29483E-02
 -1     16619-3.20427E-01-3.74690E-05 4.53624E-01 2.20276E-06-3.84618E-08 1.35123E-02
 -1     16621-3.20427E-01-3.74690E-05 4.53624E-01 2.20276E-06 3.84618E-08-1.35123E-02
 -1     16622-3.03785E-01 6.78877E-05 4.37365E-01-1.74885E-06 3.05299E-08 1.29375E-02
 -1     16624-3.03785E-01 6.78877E-05 4.37365E-01-1.74885E-06-3.05299E-08-1.29375E-02
 -1     16625-3.20652E-01-3.40323E-05 4.53859E-01 1.84106E-06-3.19595E-08 1.35203E-02
 -1     16627-3.20652E-01-3.40323E-05 4.53859E-01 1.84106E-06 3.19595E-08-1.35203E-02
 -1     16628-2.40100E-01 1.08345E-07 3.73464E-01 2.15605E-05-3.76493E-07 1.07102E-02
 -1     16630-2.40100E-01 1.08345E-07 3.73464E-01 2.15605E-05 3.76493E-07-1.07102E-02
 -1     16631-2.28195E-01 2.09062E-06 3.61540E-01-2.95180E-05 5.14829E-07 1.02943E-02
 -1     16633-2.28195E-01 2.09062E-06 3.61540E-01-2.95180E-05-5.14829E-07-1.02943E-02
 -1     16634-2.90620E-01-2.54714E-05 4.23851E-01-1.12816E-06 1.93007E-08 1.24722E-02
 -1     16636-2.90620E-01-2.54714E-05 4.23851E-01-1.12816E-06-1.93007E-08-1.24722E-02
 -1     16637-2.76917E-01 4.22199E-05 4.10451E-01 2.01616E-05-3.51856E-07 1.19987E-02
 -1     16639-2.76917E-01 4.22199E-05 4.10451E-01 2.01616E-05 3.51856E-07-1.19987E-02
 -1     16640-2.89895E-01-2.99784E-05 4.23109E-01-4.21690E-06 7.38632E-08 1.24465E-02
 -1     16642-2.89895E-01-2.99784E-05 4.23109E-01-4.21690E-06-7.38632E-08-1.24465E-02
 -1     16643-7.35544E-02-3.39937E-07 2.06885E-01-5.70092E-06 9.95173E-08 4.89518E-03
 -1     16645-7.35544E-02-3.39937E-07 2.06885E-01-5.70092E-06-9.95173E-08-4.89518E-03
 -1     16646-7.55295E-02 8.67102E-09 2.08861E-01-1.60917E-07 2.82027E-09 4.96422E-03
 -1     16648-7.55295E-02 8.67101E-09 2.08861E-01-1.60917E-07-2.82027E-09-4.96422E-03
 -1     16649-6.96748E-02 2.92350E-07 2.03008E-01 5.39067E-06-9.41187E-08 4.75978E-03
 -1     16651-6.96748E-02 2.92350E-07 2.03008E-01 5.39067E-06 9.41187E-08-4.75978E-03
 -1     16652-3.91921E-02-1.98710E-06 1.72517E-01-3.72064E-07 6.38406E-09 3.69549E-03
 -1     16654-3.91921E-02-1.98710E-06 1.72517E-01-3.72064E-07-6.38406E-09-3.69549E-03
 -1     16655-3.71622E-02 5.12352E-06 1.70513E-01 2.01212E-06-3.50927E-08 3.62503E-03
 -1     16657-3.71622E-02 5.12352E-06 1.70513E-01 2.01212E-06 3.50927E-08-3.62503E-03
 -1     16658-2.21149E-01-7.23829E-06 3.54476E-01 4.02366E-06-7.03832E-08 1.00484E-02
 -1     16660-2.21149E-01-7.23829E-06 3.54476E-01 4.02366E-06 7.03832E-08-1.00484E-02
 -1     16661-3.74139E-02-2.11873E-06 1.70738E-01 1.75603E-06-3.07157E-08 3.63337E-03
 -1     16663-3.74139E-02-2.11873E-06 1.70738E-01 1.75603E-06 3.07157E-08-3.63337E-03
 -1     16664-3.98082E-02 2.88206E-06 1.73151E-01-1.97143E-06 3.43751E-08 3.71726E-03
 -1     16666-3.98082E-02 2.88206E-06 1.73151E-01-1.97143E-06-3.43751E-08-3.71726E-03
 -1     16667-3.69510E-02-1.54410E-06 1.70278E-01 5.12410E-07-8.96284E-09 3.61727E-03
 -1     16669-3.69510E-02-1.54410E-06 1.70278E-01 5.12410E-07 8.96284E-09-3.61727E-03
 -1     16670-2.95646E-01-2.23070E-05 4.28902E-01-1.91377E-05 3.34272E-07 1.26479E-02
 -1     16672-2.95646E-01-2.23070E-05 4.28902E-01-1.91377E-05-3.34272E-07-1.26479E-02
 -1     16673-6.08313E-02-1.71822E-06 1.94153E-01 4.33501E-06-7.52969E-08 4.45091E-03
 -1     16675-6.08313E-02-1.71822E-06 1.94153E-01 4.33501E-06 7.52969E-08-4.45091E-03
 -1     16676-6.39402E-02 4.53178E-06 1.97294E-01-1.40302E-07 2.44960E-09 4.55993E-03
 -1     16678-6.39402E-02 4.53178E-06 1.97294E-01-1.40302E-07-2.44960E-09-4.55993E-03
 -1     16679-6.08778E-02-1.64274E-06 1.94204E-01 2.22967E-07-3.59638E-09 4.45258E-03
 -1     16681-6.08778E-02-1.64274E-06 1.94204E-01 2.22967E-07 3.59638E-09-4.45258E-03
 -1     16682-2.80821E-01 4.99809E-05 4.14308E-01 1.48205E-05-2.58789E-07 1.21340E-02
 -1     16684-2.80821E-01 4.99809E-05 4.14308E-01 1.48205E-05 2.58789E-07-1.21340E-02
 -1     16685-2.45897E-01 3.54135E-06 3.79198E-01 8.92562E-06-1.57305E-07 1.09118E-02
 -1     16687-2.45897E-01 3.54135E-06 3.79198E-01 8.92562E-06 1.57305E-07-1.09118E-02
 -1     16688-3.72923E-02-2.88680E-06 1.70614E-01-1.33089E-06 2.32691E-08 3.62910E-03
 -1     16690-3.72923E-02-2.88680E-06 1.70614E-01-1.33089E-06-2.32691E-08-3.62910E-03
 -1     16691-3.70222E-02-2.02835E-06 1.70347E-01-8.41484E-07 1.48021E-08 3.61973E-03
 -1     16693-3.70222E-02-2.02835E-06 1.70347E-01-8.41484E-07-1.48021E-08-3.61973E-03
 -1     16694-3.90318E-02-2.53205E-06 1.72351E-01-7.74111E-07 1.34858E-08 3.68980E-03
 -1     16696-3.90318E-02-2.53205E-06 1.72351E-01-7.74111E-07-1.34858E-08-3.68980E-03
 -1     16697-3.88005E-02-2.48079E-06 1.72123E-01 2.60529E-08-4.54888E-10 3.68178E-03
 -1     16699-3.88005E-02-2.48079E-06 1.72123E-01 2.60529E-08 4.54888E-10-3.68178E-03
 -1     16700-4.15975E-02 5.94573E-06 1.74952E-01-7.54452E-08 1.31441E-09 3.77993E-03
 -1     16702-4.15975E-02 5.94573E-06 1.74952E-01-7.54452E-08-1.31441E-09-3.77993E-03
 -1     16703-5.25433E-02-3.16592E-07 1.85874E-01 4.13547E-06-7.22096E-08 4.16166E-03
 -1     16705-5.25433E-02-3.16592E-07 1.85874E-01 4.13547E-06 7.22096E-08-4.16166E-03
 -1     16706-5.57253E-02 2.88125E-07 1.89058E-01-4.45190E-06 7.77091E-08 4.27278E-03
 -1     16708-5.57253E-02 2.88125E-07 1.89058E-01-4.45190E-06-7.77091E-08-4.27278E-03
 -1     16709-5.74288E-02 6.00302E-08 1.90761E-01 1.13711E-07-1.97984E-09 4.33228E-03
 -1     16711-5.74288E-02 6.00302E-08 1.90761E-01 1.13711E-07 1.97984E-09-4.33228E-03
 -1     16712-5.11661E-02 1.40484E-07 1.84498E-01 1.83234E-07-3.19168E-09 4.11364E-03
 -1     16714-5.11661E-02 1.40484E-07 1.84498E-01 1.83234E-07 3.19168E-09-4.11364E-03
 -1     16715-3.85752E-02-3.67147E-06 1.71894E-01-1.42730E-06 2.49042E-08 3.67385E-03
 -1     16717-3.85752E-02-3.67147E-06 1.71894E-01-1.42730E-06-2.49042E-08-3.67385E-03
 -1     16718-3.83309E-02-2.05969E-06 1.71654E-01-6.80973E-07 1.19375E-08 3.66541E-03
 -1     16720-3.83309E-02-2.05969E-06 1.71654E-01-6.80973E-07-1.19375E-08-3.66541E-03
 -1     16721-4.11933E-02 5.16666E-06 1.74551E-01 1.71303E-06-2.99238E-08 3.76590E-03
 -1     16723-4.11933E-02 5.16666E-06 1.74551E-01 1.71303E-06 2.99238E-08-3.76590E-03
 -1     16724-2.89097E-01-3.33328E-05 4.22311E-01-1.59709E-06 2.78742E-08 1.24187E-02
 -1     16726-2.89097E-01-3.33328E-05 4.22311E-01-1.59709E-06-2.78742E-08-1.24187E-02
 -1     16727-2.89213E-01-3.03079E-05 4.22435E-01-1.34496E-06 2.33885E-08 1.24229E-02
 -1     16729-2.89213E-01-3.03079E-05 4.22435E-01-1.34496E-06-2.33885E-08-1.24229E-02
 -1     16730-4.65967E-02 4.25801E-06 1.79946E-01-1.84399E-07 3.21653E-09 3.95436E-03
 -1     16732-4.65967E-02 4.25801E-06 1.79946E-01-1.84399E-07-3.21653E-09-3.95436E-03
 -1     16733-4.42634E-02-2.99729E-06 1.77585E-01-2.76039E-07 4.69065E-09 3.87247E-03
 -1     16735-4.42634E-02-2.99729E-06 1.77585E-01-2.76039E-07-4.69065E-09-3.87247E-03
 -1     16736-4.40942E-02-3.10350E-06 1.77414E-01 4.55518E-07-8.21023E-09 3.86654E-03
 -1     16738-4.40942E-02-3.10350E-06 1.77414E-01 4.55518E-07 8.21023E-09-3.86654E-03
 -1     16739-4.90891E-02-2.21443E-06 1.82410E-01 2.17998E-06-3.82838E-08 4.04092E-03
 -1     16741-4.90891E-02-2.21443E-06 1.82410E-01 2.17998E-06 3.82838E-08-4.04092E-03
 -1     16742-1.17998E-01-1.64052E-07 2.51330E-01 1.07222E-05-1.87177E-07 6.44682E-03
 -1     16744-1.17998E-01-1.64052E-07 2.51330E-01 1.07222E-05 1.87177E-07-6.44682E-03
 -1     16745-1.24249E-01 1.09057E-07 2.57581E-01-1.15219E-05 2.01166E-07 6.66506E-03
 -1     16747-1.24249E-01 1.09057E-07 2.57581E-01-1.15219E-05-2.01166E-07-6.66506E-03
 -1     16748-1.27662E-01-2.04628E-07 2.60994E-01 1.25848E-07-2.19511E-09 6.78435E-03
 -1     16750-1.27662E-01-2.04628E-07 2.60994E-01 1.25848E-07 2.19511E-09-6.78435E-03
 -1     16751-1.15011E-01-9.80746E-08 2.48343E-01-5.47368E-08 9.57456E-10 6.34263E-03
 -1     16753-1.15011E-01-9.80746E-08 2.48343E-01-5.47368E-08-9.57456E-10-6.34263E-03
 -1     16754-3.79320E-02-3.42673E-06 1.71252E-01-1.10064E-06 1.92614E-08 3.65141E-03
 -1     16756-3.79320E-02-3.42673E-06 1.71252E-01-1.10064E-06-1.92614E-08-3.65141E-03
 -1     16757-3.76704E-02-2.04100E-06 1.70995E-01-6.60683E-07 1.15734E-08 3.64235E-03
 -1     16759-3.76704E-02-2.04100E-06 1.70995E-01-6.60683E-07-1.15734E-08-3.64235E-03
 -1     16760-3.97774E-02 4.96922E-06 1.73128E-01 2.10825E-06-3.68000E-08 3.71633E-03
 -1     16762-3.97774E-02 4.96922E-06 1.73128E-01 2.10825E-06 3.68000E-08-3.71633E-03
 -1     16763-4.05653E-02 7.03591E-06 1.73919E-01 2.62749E-06-4.58642E-08 3.74389E-03
 -1     16765-4.05653E-02 7.03591E-06 1.73919E-01 2.62749E-06 4.58642E-08-3.74389E-03
 -1     16766-2.01772E-01-8.00989E-06 3.35075E-01 2.38216E-05-4.15930E-07 9.37116E-03
 -1     16768-2.01772E-01-8.00989E-06 3.35075E-01 2.38216E-05 4.15930E-07-9.37116E-03
 -1     16769-1.91059E-01 9.08800E-06 3.24420E-01-2.52776E-05 4.41333E-07 8.99806E-03
 -1     16771-1.91059E-01 9.08800E-06 3.24420E-01-2.52776E-05-4.41333E-07-8.99806E-03
 -1     16772-3.64769E-02-1.88374E-06 1.69801E-01-2.68825E-07 4.92084E-09 3.60065E-03
 -1     16774-3.64769E-02-1.88374E-06 1.69801E-01-2.68825E-07-4.92084E-09-3.60065E-03
 -1     16775-3.65213E-02-2.00858E-06 1.69846E-01 3.89449E-07-6.94897E-09 3.60221E-03
 -1     16777-3.65213E-02-2.00858E-06 1.69846E-01 3.89449E-07 6.94897E-09-3.60221E-03
 -1     16778-3.87288E-02 2.25615E-06 1.72071E-01-2.44095E-06 4.26224E-08 3.67956E-03
 -1     16780-3.87288E-02 2.25615E-06 1.72071E-01-2.44095E-06-4.26224E-08-3.67956E-03
 -1     16781-3.88454E-02 3.37714E-06 1.72188E-01 2.69046E-06-4.69547E-08 3.68364E-03
 -1     16783-3.88454E-02 3.37714E-06 1.72188E-01 2.69046E-06 4.69547E-08-3.68364E-03
 -1     16784-2.70590E-01-2.05027E-05 4.03859E-01 3.54602E-06-6.11405E-08 1.17733E-02
 -1     16786-2.70590E-01-2.05027E-05 4.03859E-01 3.54602E-06 6.11405E-08-1.17733E-02
 -1     16787-2.57968E-01 4.95726E-06 3.91427E-01-1.41141E-05 2.46340E-07 1.13357E-02
 -1     16789-2.57968E-01 4.95727E-06 3.91427E-01-1.41141E-05-2.46340E-07-1.13357E-02
 -1     16790-1.16645E-01-3.94876E-06 2.49962E-01-6.76368E-07 1.22267E-08 6.39933E-03
 -1     16792-1.16645E-01-3.94876E-06 2.49962E-01-6.76368E-07-1.22267E-08-6.39933E-03
 -1     16793-1.18145E-01-3.09544E-06 2.51463E-01 7.57003E-06-1.32631E-07 6.45169E-03
 -1     16795-1.18145E-01-3.09544E-06 2.51463E-01 7.57003E-06 1.32631E-07-6.45169E-03
 -1     16796-1.13349E-01 6.44926E-06 2.46713E-01-5.71921E-06 9.96860E-08 6.28505E-03
 -1     16798-1.13349E-01 6.44926E-06 2.46713E-01-5.71921E-06-9.96860E-08-6.28505E-03
 -1     16799-2.46089E-01 6.44061E-06 3.79377E-01-5.57269E-06 9.83450E-08 1.09183E-02
 -1     16801-2.46089E-01 6.44061E-06 3.79377E-01-5.57269E-06-9.83450E-08-1.09183E-02
 -1     16802-1.81328E-01-5.42918E-06 3.14639E-01 1.97158E-05-3.44147E-07 8.65749E-03
 -1     16804-1.81328E-01-5.42918E-06 3.14639E-01 1.97158E-05 3.44147E-07-8.65749E-03
 -1     16805-1.71875E-01 5.85960E-06 3.05225E-01-2.08164E-05 3.63476E-07 8.32811E-03
 -1     16807-1.71875E-01 5.85960E-06 3.05225E-01-2.08164E-05-3.63476E-07-8.32811E-03
 -1     16808-1.85217E-01-1.44741E-06 3.18545E-01 2.81957E-06-4.92342E-08 8.79375E-03
 -1     16810-1.85217E-01-1.44741E-06 3.18545E-01 2.81957E-06 4.92342E-08-8.79375E-03
 -1     16811-1.63286E-01-3.60428E-06 2.96606E-01 1.70751E-05-2.98061E-07 8.02774E-03
 -1     16813-1.63286E-01-3.60428E-06 2.96606E-01 1.70751E-05 2.98061E-07-8.02774E-03
 -1     16814-1.54952E-01 3.03573E-06 2.88294E-01-1.75165E-05 3.05842E-07 7.73712E-03
 -1     16816-1.54952E-01 3.03573E-06 2.88294E-01-1.75165E-05-3.05842E-07-7.73712E-03
 -1     16817-1.66883E-01-7.07560E-07 3.00214E-01 1.28130E-06-2.23590E-08 8.15367E-03
 -1     16819-1.66883E-01-7.07560E-07 3.00214E-01 1.28130E-06 2.23590E-08-8.15367E-03
 -1     16820-1.47215E-01-1.99326E-06 2.80540E-01 1.42808E-05-2.49318E-07 7.46674E-03
 -1     16822-1.47215E-01-1.99326E-06 2.80540E-01 1.42808E-05 2.49318E-07-7.46674E-03
 -1     16823-1.39775E-01 2.33530E-06 2.73113E-01-1.48946E-05 2.60043E-07 7.20720E-03
 -1     16825-1.39775E-01 2.33530E-06 2.73113E-01-1.48946E-05-2.60043E-07-7.20720E-03
 -1     16826-1.50552E-01-1.30557E-06 2.83883E-01 5.66002E-07-9.87886E-09 7.58350E-03
 -1     16828-1.50552E-01-1.30557E-06 2.83883E-01 5.66002E-07 9.87886E-09-7.58350E-03
 -1     16829-1.32747E-01-2.25460E-06 2.66074E-01 1.21595E-05-2.12330E-07 6.96168E-03
 -1     16831-1.32747E-01-2.25460E-06 2.66074E-01 1.21595E-05 2.12330E-07-6.96168E-03
 -1     16832-1.26084E-01 2.61071E-06 2.59427E-01-1.29427E-05 2.25931E-07 6.72929E-03
 -1     16834-1.26084E-01 2.61071E-06 2.59427E-01-1.29427E-05-2.25931E-07-6.72929E-03
 -1     16835-1.35791E-01-8.99503E-07 2.69121E-01 5.73521E-07-1.00502E-08 7.06812E-03
 -1     16837-1.35791E-01-8.99503E-07 2.69121E-01 5.73521E-07 1.00502E-08-7.06812E-03
 -1     16838-1.19759E-01-2.60935E-06 2.53081E-01 1.10108E-05-1.92239E-07 6.50814E-03
 -1     16840-1.19759E-01-2.60935E-06 2.53081E-01 1.10108E-05 1.92239E-07-6.50814E-03
 -1     16841-1.13720E-01 3.15616E-06 2.47065E-01-1.06428E-05 1.85774E-07 6.29768E-03
 -1     16843-1.13720E-01 3.15616E-06 2.47065E-01-1.06428E-05-1.85774E-07-6.29768E-03
 -1     16844-1.22439E-01 1.60714E-06 2.55770E-01 8.33020E-07-1.46463E-08 6.60197E-03
 -1     16846-1.22439E-01 1.60714E-06 2.55770E-01 8.33020E-07 1.46463E-08-6.60197E-03
 -1     16847-1.07964E-01-3.06619E-06 2.41284E-01 9.26686E-06-1.61772E-07 6.09631E-03
 -1     16849-1.07964E-01-3.06619E-06 2.41284E-01 9.26686E-06 1.61772E-07-6.09631E-03
 -1     16850-1.02449E-01 3.20859E-06 2.35792E-01-1.01109E-05 1.76522E-07 5.90415E-03
 -1     16852-1.02449E-01 3.20859E-06 2.35792E-01-1.01109E-05-1.76522E-07-5.90415E-03
 -1     16853-1.10346E-01-2.04786E-06 2.43676E-01 1.20581E-06-2.10477E-08 6.17975E-03
 -1     16855-1.10346E-01-2.04786E-06 2.43676E-01 1.20581E-06 2.10477E-08-6.17975E-03
 -1     16856-9.72629E-02-2.26622E-06 2.30587E-01 8.21584E-06-1.43424E-07 5.72279E-03
 -1     16858-9.72629E-02-2.26622E-06 2.30587E-01 8.21584E-06 1.43424E-07-5.72279E-03
 -1     16859-9.22467E-02 2.42247E-06 2.25586E-01-8.93431E-06 1.55992E-07 5.54792E-03
 -1     16861-9.22467E-02 2.42247E-06 2.25586E-01-8.93431E-06-1.55992E-07-5.54792E-03
 -1     16862-9.93944E-02-9.32968E-07 2.32725E-01 1.00811E-06-1.75836E-08 5.79740E-03
 -1     16864-9.93944E-02-9.32968E-07 2.32725E-01 1.00811E-06 1.75836E-08-5.79740E-03
 -1     16865-8.75413E-02-1.64893E-06 2.20868E-01 7.37415E-06-1.28732E-07 5.38343E-03
 -1     16867-8.75413E-02-1.64893E-06 2.20868E-01 7.37415E-06 1.28732E-07-5.38343E-03
 -1     16868-8.29607E-02 1.80554E-06 2.16299E-01-7.91528E-06 1.38182E-07 5.22370E-03
 -1     16870-8.29607E-02 1.80554E-06 2.16299E-01-7.91528E-06-1.38182E-07-5.22370E-03
 -1     16871-8.94981E-02-1.15172E-07 2.22830E-01 5.91223E-07-1.03333E-08 5.45190E-03
 -1     16873-8.94981E-02-1.15172E-07 2.22830E-01 5.91223E-07 1.03333E-08-5.45190E-03
 -1     16874-7.85881E-02-1.57230E-06 2.11915E-01 6.69935E-06-1.16963E-07 5.07087E-03
 -1     16876-7.85881E-02-1.57230E-06 2.11915E-01 6.69935E-06 1.16963E-07-5.07087E-03
 -1     16877-7.43677E-02 1.81029E-06 2.07706E-01-7.30586E-06 1.27527E-07 4.92372E-03
 -1     16879-7.43677E-02 1.81029E-06 2.07706E-01-7.30586E-06-1.27527E-07-4.92372E-03
 -1     16880-8.04155E-02-1.41252E-07 2.13747E-01 4.93481E-07-8.62990E-09 5.13481E-03
 -1     16882-8.04155E-02-1.41252E-07 2.13747E-01 4.93481E-07 8.62990E-09-5.13481E-03
 -1     16883-7.02816E-02-1.76811E-06 2.03608E-01 6.09362E-06-1.06403E-07 4.78086E-03
 -1     16885-7.02816E-02-1.76811E-06 2.03608E-01 6.09362E-06 1.06403E-07-4.78086E-03
 -1     16886-6.63827E-02 2.18748E-06 1.99723E-01-6.79635E-06 1.18620E-07 4.64498E-03
 -1     16888-6.63827E-02 2.18748E-06 1.99723E-01-6.79635E-06-1.18620E-07-4.64498E-03
 -1     16889-7.19519E-02-8.43348E-08 2.05283E-01 5.35164E-07-9.35731E-09 4.83933E-03
 -1     16891-7.19519E-02-8.43348E-08 2.05283E-01 5.35164E-07 9.35731E-09-4.83933E-03
 -1     16892-6.25553E-02-2.18580E-06 1.95880E-01 5.48603E-06-9.58226E-08 4.51111E-03
 -1     16894-6.25553E-02-2.18580E-06 1.95880E-01 5.48603E-06 9.58226E-08-4.51111E-03
 -1     16895-5.89762E-02 2.65985E-06 1.92319E-01-6.23387E-06 1.08785E-07 4.38645E-03
 -1     16897-5.89762E-02 2.65985E-06 1.92319E-01-6.23387E-06-1.08785E-07-4.38645E-03
 -1     16898-6.40316E-02-1.27745E-07 1.97363E-01 6.87598E-07-1.20123E-08 4.56281E-03
 -1     16900-6.40316E-02-1.27745E-07 1.97363E-01 6.87598E-07 1.20123E-08-4.56281E-03
 -1     16901-5.53719E-02-2.66682E-06 1.88695E-01 4.57625E-06-8.00256E-08 4.26030E-03
 -1     16903-5.53719E-02-2.66682E-06 1.88695E-01 4.57625E-06 8.00256E-08-4.26030E-03
 -1     16904-5.22022E-02 3.20175E-06 1.85550E-01-3.97396E-06 6.93524E-08 4.15005E-03
 -1     16906-5.22022E-02 3.20175E-06 1.85550E-01-3.97396E-06-6.93524E-08-4.15005E-03
 -1     16907-5.65899E-02-3.96035E-07 1.89920E-01 9.26117E-07-1.61580E-08 4.30300E-03
 -1     16909-5.65899E-02-3.96035E-07 1.89920E-01 9.26117E-07 1.61580E-08-4.30300E-03
 -1     16910-3.04692E-01 6.25138E-05 4.38255E-01-8.59432E-06 1.50024E-07 1.29688E-02
 -1     16912-3.04692E-01 6.25138E-05 4.38255E-01-8.59432E-06-1.50024E-07-1.29688E-02
 -1     16913-2.77134E-01 4.13870E-05 4.10648E-01-2.25044E-05 3.92833E-07 1.20058E-02
 -1     16915-2.77134E-01 4.13870E-05 4.10648E-01-2.25044E-05-3.92833E-07-1.20058E-02
 -1     16916-2.90412E-01-2.51788E-05 4.23641E-01 2.62486E-06-4.53488E-08 1.24649E-02
 -1     16918-2.90412E-01-2.51788E-05 4.23641E-01 2.62486E-06 4.53488E-08-1.24649E-02
 -1     16919-2.89718E-01-3.17782E-05 4.22933E-01 6.23367E-06-1.08846E-07 1.24404E-02
 -1     16921-2.89718E-01-3.17782E-05 4.22933E-01 6.23367E-06 1.08846E-07-1.24404E-02
 -1     16922-2.62725E-01-1.78309E-05 3.95985E-01 1.37940E-05-2.41232E-07 1.14987E-02
 -1     16924-2.62725E-01-1.78309E-05 3.95985E-01 1.37940E-05 2.41232E-07-1.14987E-02
 -1     16925-3.23183E-02 4.12016E-06 1.65671E-01 1.14921E-06-2.00790E-08 3.45597E-03
 -1     16927-3.23183E-02 4.12016E-06 1.65671E-01 1.14921E-06 2.00790E-08-3.45597E-03
 -1     16928-8.62516E-02 5.15011E-07 2.19586E-01 7.02671E-06-1.22672E-07 5.33852E-03
 -1     16930-8.62516E-02 5.15011E-07 2.19586E-01 7.02671E-06 1.22672E-07-5.33852E-03
 -1     16931-9.09080E-02-4.89623E-07 2.24238E-01-7.35350E-06 1.28384E-07 5.50103E-03
 -1     16933-9.09080E-02-4.89623E-07 2.24238E-01-7.35350E-06-1.28384E-07-5.50103E-03
 -1     16934-9.33063E-02 6.40788E-08 2.26638E-01-2.04404E-07 3.58319E-09 5.58486E-03
 -1     16936-9.33063E-02 6.40788E-08 2.26638E-01-2.04404E-07-3.58319E-09-5.58486E-03
 -1     16937-8.39813E-02-2.22109E-08 2.17313E-01-1.99967E-07 3.50269E-09 5.25930E-03
 -1     16939-8.39813E-02-2.22109E-08 2.17313E-01-1.99967E-07-3.50269E-09-5.25930E-03
 -1     16940-2.89567E-01-3.31625E-05 4.22782E-01-1.22618E-06 2.13603E-08 1.24351E-02
 -1     16942-2.89567E-01-3.31625E-05 4.22782E-01-1.22618E-06-2.13603E-08-1.24351E-02
 -1     16943-2.89797E-01-3.12940E-05 4.23020E-01-6.02222E-07 1.05582E-08 1.24433E-02
 -1     16945-2.89797E-01-3.12940E-05 4.23020E-01-6.02222E-07-1.05582E-08-1.24433E-02
 -1     16946-7.33224E-02 1.18054E-06 2.06659E-01 5.46929E-06-9.54972E-08 4.88718E-03
 -1     16948-7.33224E-02 1.18054E-06 2.06659E-01 5.46929E-06 9.54972E-08-4.88718E-03
 -1     16949-7.73405E-02-1.03293E-06 2.10669E-01-5.66965E-06 9.89899E-08 5.02732E-03
 -1     16951-7.73405E-02-1.03293E-06 2.10669E-01-5.66965E-06-9.89899E-08-5.02732E-03
 -1     16952-1.00745E-01 5.78726E-07 2.34079E-01 8.74960E-06-1.52744E-07 5.84451E-03
 -1     16954-1.00745E-01 5.78726E-07 2.34079E-01 8.74960E-06 1.52744E-07-5.84451E-03
 -1     16955-1.06154E-01-2.89237E-07 2.39485E-01-9.16085E-06 1.59960E-07 6.03332E-03
 -1     16957-1.06154E-01-2.89237E-07 2.39485E-01-9.16085E-06-1.59960E-07-6.03332E-03
 -1     16958-2.13255E-01 1.55831E-05 3.46624E-01-3.24306E-05 5.66183E-07 9.77316E-03
 -1     16960-2.13255E-01 1.55831E-05 3.46624E-01-3.24306E-05-5.66183E-07-9.77316E-03
 -1     16961-2.06447E-01-3.80277E-06 3.39770E-01 4.98768E-06-8.71218E-08 9.53495E-03
 -1     16963-2.06447E-01-3.80277E-06 3.39770E-01 4.98768E-06 8.71218E-08-9.53495E-03
 -1     16964-2.26024E-01-8.95789E-06 3.59316E-01 2.82355E-05-4.92962E-07 1.02177E-02
 -1     16966-2.26024E-01-8.95789E-06 3.59316E-01 2.82355E-05 4.92962E-07-1.02177E-02
 -1     16967-1.56897E-01 1.28439E-06 2.90228E-01 3.78692E-07-6.55438E-09 7.80500E-03
 -1     16969-1.56897E-01 1.28439E-06 2.90228E-01 3.78692E-07 6.55438E-09-7.80500E-03
 -1     16970-1.60630E-01-1.59348E-06 2.93953E-01 1.46774E-05-2.56235E-07 7.93504E-03
 -1     16972-1.60630E-01-1.59348E-06 2.93953E-01 1.46774E-05 2.56235E-07-7.93504E-03
 -1     16973-3.49146E-02-1.32479E-06 1.68238E-01-4.74609E-07 8.38797E-09 3.54617E-03
 -1     16975-3.49146E-02-1.32479E-06 1.68238E-01-4.74609E-07-8.38797E-09-3.54617E-03
 -1     16976-2.74735E-01 6.26582E-05 4.08277E-01 4.44347E-06-7.75709E-08 1.19225E-02
 -1     16978-2.74735E-01 6.26582E-05 4.08277E-01 4.44347E-06 7.75709E-08-1.19225E-02
 -1     16979-4.19503E-02-8.90334E-07 1.75276E-01 2.16546E-06-3.79648E-08 3.79176E-03
 -1     16981-4.19503E-02-8.90334E-07 1.75276E-01 2.16546E-06 3.79648E-08-3.79176E-03
 -1     16982-4.45854E-02 1.21542E-07 1.77916E-01-2.38310E-06 4.14940E-08 3.88382E-03
 -1     16984-4.45854E-02 1.21542E-07 1.77916E-01-2.38310E-06-4.14940E-08-3.88382E-03
 -1     16985-4.13027E-02-9.18699E-07 1.74631E-01-2.90179E-07 5.24392E-09 3.76919E-03
 -1     16987-4.13027E-02-9.18699E-07 1.74631E-01-2.90179E-07-5.24392E-09-3.76919E-03
 -1     16988-4.97298E-02-1.74204E-07 1.83062E-01 3.52679E-06-6.15901E-08 4.06345E-03
 -1     16990-4.97298E-02-1.74204E-07 1.83062E-01 3.52679E-06 6.15901E-08-4.06345E-03
 -1     16991-5.27368E-02 2.20029E-07 1.86069E-01-3.99699E-06 6.97685E-08 4.16844E-03
 -1     16993-5.27368E-02 2.20029E-07 1.86069E-01-3.99699E-06-6.97685E-08-4.16844E-03
 -1     16994-4.84945E-02 3.73551E-08 1.81826E-01 1.11163E-07-1.92257E-09 4.02036E-03
 -1     16996-4.84945E-02 3.73551E-08 1.81826E-01 1.11163E-07 1.92257E-09-4.02036E-03
 -1     16997-4.98652E-02-9.12484E-07 1.83191E-01 6.53491E-07-1.15246E-08 4.06813E-03
 -1     16999-4.98652E-02-9.12484E-07 1.83191E-01 6.53491E-07 1.15246E-08-4.06813E-03
 -1     17000-2.88975E-01-3.16255E-05 4.22190E-01 1.29097E-06-2.26393E-08 1.24145E-02
 -1     17002-2.88975E-01-3.16255E-05 4.22190E-01 1.29097E-06 2.26393E-08-1.24145E-02
 -1     17003-2.74252E-01 5.62239E-05 4.07801E-01 2.19088E-06-3.82407E-08 1.19058E-02
 -1     17005-2.74252E-01 5.62239E-05 4.07801E-01 2.19088E-06 3.82407E-08-1.19058E-02
 -1     17006-2.89146E-01-2.92157E-05 4.22368E-01 4.67919E-07-8.02447E-09 1.24206E-02
 -1     17008-2.89146E-01-2.92157E-05 4.22368E-01 4.67919E-07 8.02447E-09-1.24206E-02
 -1     17009-2.30292E-01-7.64262E-06 3.63582E-01-2.44821E-05 4.27467E-07 1.03667E-02
 -1     17011-2.30292E-01-7.64262E-06 3.63582E-01-2.44821E-05-4.27467E-07-1.03667E-02
 -1     17012-2.36335E-01-5.84012E-06 3.69643E-01-8.56803E-06 1.49752E-07 1.05783E-02
 -1     17014-2.36335E-01-5.84012E-06 3.69643E-01-8.56803E-06-1.49752E-07-1.05783E-02
 -1     17015-2.75164E-01 6.41575E-05 4.08711E-01-3.15969E-06 5.51417E-08 1.19376E-02
 -1     17017-2.75164E-01 6.41575E-05 4.08711E-01-3.15969E-06-5.51417E-08-1.19376E-02
 -1     17018-1.11917E-01 5.32346E-08 2.45249E-01 1.03870E-05-1.81332E-07 6.23452E-03
 -1     17020-1.11917E-01 5.32346E-08 2.45249E-01 1.03870E-05 1.81332E-07-6.23452E-03
 -1     17021-1.17923E-01-6.76010E-08 2.51255E-01-1.09749E-05 1.91627E-07 6.44421E-03
 -1     17023-1.17923E-01-6.76010E-08 2.51255E-01-1.09749E-05-1.91627E-07-6.44421E-03
 -1     17024-1.08995E-01 1.45286E-07 2.42327E-01-2.23389E-07 3.91358E-09 6.13261E-03
 -1     17026-1.08995E-01 1.45286E-07 2.42327E-01-2.23389E-07-3.91358E-09-6.13261E-03
 -1     17027-2.60927E-01-1.72960E-05 3.94166E-01-8.93718E-06 1.57371E-07 1.14358E-02
 -1     17029-2.60927E-01-1.72960E-05 3.94166E-01-8.93718E-06-1.57371E-07-1.14358E-02
 -1     17030-2.62553E-01-1.95188E-05 3.95819E-01-1.01120E-05 1.74778E-07 1.14931E-02
 -1     17032-2.62553E-01-1.95188E-05 3.95819E-01-1.01120E-05-1.74778E-07-1.14931E-02
 -1     17033-6.59924E-02-2.01387E-07 1.99324E-01-5.10188E-06 8.90623E-08 4.63120E-03
 -1     17035-6.59924E-02-2.01387E-07 1.99324E-01-5.10188E-06-8.90623E-08-4.63120E-03
 -1     17036-6.78330E-02-3.08399E-07 2.01165E-01-9.22140E-08 1.60152E-09 4.69552E-03
 -1     17038-6.78330E-02-3.08399E-07 2.01165E-01-9.22140E-08-1.60152E-09-4.69552E-03
 -1     17039-6.24355E-02-6.30586E-08 1.95767E-01 4.82623E-06-8.42702E-08 4.50703E-03
 -1     17041-6.24355E-02-6.30586E-08 1.95767E-01 4.82623E-06 8.42702E-08-4.50703E-03
 -1     17042-1.38195E-01-1.47875E-06 2.71524E-01 1.31330E-05-2.29214E-07 7.15190E-03
 -1     17044-1.38195E-01-1.47875E-06 2.71524E-01 1.31330E-05 2.29214E-07-7.15190E-03
 -1     17045-1.45518E-01 1.78843E-06 2.78858E-01-1.50866E-05 2.63421E-07 7.40774E-03
 -1     17047-1.45518E-01 1.78843E-06 2.78858E-01-1.50866E-05-2.63421E-07-7.40774E-03
 -1     17048-2.19356E-01-3.25259E-06 3.52671E-01-2.62714E-05 4.58640E-07 9.98523E-03
 -1     17050-2.19356E-01-3.25259E-06 3.52671E-01-2.62714E-05-4.58640E-07-9.98523E-03
 -1     17051-2.25313E-01-3.73452E-06 3.58641E-01-2.38037E-06 4.15788E-08 1.01937E-02
 -1     17053-2.25313E-01-3.73452E-06 3.58641E-01-2.38037E-06-4.15788E-08-1.01937E-02
 -1     17054-2.17881E-01 1.40806E-05 3.51248E-01 2.63364E-05-4.59925E-07 9.93457E-03
 -1     17056-2.17881E-01 1.40806E-05 3.51248E-01 2.63364E-05 4.59925E-07-9.93457E-03
 -1     17057-2.07776E-01 4.05220E-06 3.41119E-01 2.44170E-05-4.26322E-07 9.58137E-03
 -1     17059-2.07776E-01 4.05220E-06 3.41119E-01 2.44170E-05 4.26322E-07-9.58137E-03
 -1     17060-2.40306E-01 5.79143E-06 3.73702E-01-2.39039E-05 4.16800E-07 1.07181E-02
 -1     17062-2.40306E-01 5.79143E-06 3.73702E-01-2.39039E-05-4.16800E-07-1.07181E-02
 -1     17063-2.32204E-01-7.37492E-06 3.65510E-01 7.98943E-06-1.39622E-07 1.04341E-02
 -1     17065-2.32204E-01-7.37492E-06 3.65510E-01 7.98943E-06 1.39622E-07-1.04341E-02
 -1     17066-1.68945E-01 2.82476E-06 3.02287E-01-1.50987E-05 2.63563E-07 8.22565E-03
 -1     17068-1.68945E-01 2.82476E-06 3.02287E-01-1.50987E-05-2.63563E-07-8.22565E-03
 -1     17069-1.87020E-01 6.66289E-07 3.20355E-01 2.05033E-05-3.58006E-07 8.85660E-03
 -1     17071-1.87020E-01 6.66289E-07 3.20355E-01 2.05033E-05 3.58006E-07-8.85660E-03
 -1     17072-1.97134E-01-2.32803E-06 3.30459E-01-2.20007E-05 3.84060E-07 9.20954E-03
 -1     17074-1.97134E-01-2.32803E-06 3.30459E-01-2.20007E-05-3.84060E-07-9.20954E-03
 -1     17075-2.02295E-01-1.77601E-06 3.35625E-01-1.55908E-06 2.71708E-08 9.39003E-03
 -1     17077-2.02295E-01-1.77601E-06 3.35625E-01-1.55908E-06-2.71708E-08-9.39003E-03
 -1     17078-1.82300E-01-1.50094E-06 3.15632E-01-2.34340E-07 4.05464E-09 8.69194E-03
 -1     17080-1.82300E-01-1.50094E-06 3.15632E-01-2.34340E-07-4.05464E-09-8.69194E-03
 -1     17081-8.15559E-02 1.11044E-06 2.14892E-01 6.52414E-06-1.13898E-07 5.17462E-03
 -1     17083-8.15559E-02 1.11044E-06 2.14892E-01 6.52414E-06 1.13898E-07-5.17462E-03
 -1     17084-8.59990E-02-1.02879E-06 2.19327E-01-6.68546E-06 1.16726E-07 5.32961E-03
 -1     17086-8.59990E-02-1.02879E-06 2.19327E-01-6.68546E-06-1.16726E-07-5.32961E-03
 -1     17087-7.93084E-02-1.51101E-07 2.12640E-01-4.58044E-07 8.02194E-09 5.09615E-03
 -1     17089-7.93084E-02-1.51101E-07 2.12640E-01-4.58044E-07-8.02194E-09-5.09615E-03
 -1     17090-1.53492E-01-3.04731E-06 2.86814E-01 1.37671E-05-2.40230E-07 7.68583E-03
 -1     17092-1.53492E-01-3.04731E-06 2.86814E-01 1.37671E-05 2.40230E-07-7.68583E-03
 -1     17093-1.61418E-01 6.00301E-06 2.94774E-01-1.50020E-05 2.61936E-07 7.96311E-03
 -1     17095-1.61418E-01 6.00301E-06 2.94774E-01-1.50020E-05-2.61936E-07-7.96311E-03
 -1     17096-1.49946E-01 7.20378E-07 2.83278E-01 8.25210E-07-1.43638E-08 7.56237E-03
 -1     17098-1.49946E-01 7.20378E-07 2.83278E-01 8.25210E-07 1.43638E-08-7.56237E-03
 -1     17099-2.35843E-01-1.71284E-05 3.69100E-01 2.39969E-05-4.17917E-07 1.05601E-02
 -1     17101-2.35843E-01-1.71284E-05 3.69100E-01 2.39969E-05 4.17917E-07-1.05601E-02
 -1     17102-2.21502E-01 2.00435E-05 3.54924E-01-3.36901E-05 5.88476E-07 1.00620E-02
 -1     17104-2.21502E-01 2.00435E-05 3.54924E-01-3.36901E-05-5.88476E-07-1.00620E-02
 -1     17105-2.52402E-01 1.39469E-05 3.85800E-01 3.13578E-05-5.48675E-07 1.11404E-02
 -1     17107-2.52402E-01 1.39469E-05 3.85800E-01 3.13578E-05 5.48675E-07-1.11404E-02
 -1     17108-2.68521E-01-1.62825E-05 4.01753E-01-1.60956E-05 2.79129E-07 1.17004E-02
 -1     17110-2.68521E-01-1.62825E-05 4.01753E-01-1.60956E-05-2.79129E-07-1.17004E-02
 -1     17111-2.10589E-01-1.41180E-05 3.43880E-01 2.32607E-05-4.05708E-07 9.67877E-03
 -1     17113-2.10589E-01-1.41180E-05 3.43880E-01 2.32607E-05 4.05708E-07-9.67877E-03
 -1     17114-1.99057E-01 1.05670E-05 3.32422E-01-2.52509E-05 4.41000E-07 9.27735E-03
 -1     17116-1.99057E-01 1.05670E-05 3.32422E-01-2.52509E-05-4.41000E-07-9.27735E-03
 -1     17117-2.14038E-01 2.03302E-06 3.47355E-01 1.30783E-06-2.28784E-08 9.79978E-03
 -1     17119-2.14038E-01 2.03302E-06 3.47355E-01 1.30783E-06 2.28784E-08-9.79978E-03
 -1     17120-4.45810E-02-2.03394E-06 1.77900E-01-9.18066E-07 1.57169E-08 3.88356E-03
 -1     17122-4.45810E-02-2.03394E-06 1.77900E-01-9.18066E-07-1.57169E-08-3.88356E-03
 -1     17123-4.43439E-02-1.59592E-06 1.77666E-01-7.86101E-07 1.39695E-08 3.87536E-03
 -1     17125-4.43439E-02-1.59592E-06 1.77666E-01-7.86101E-07-1.39695E-08-3.87536E-03
 -1     17126-4.72350E-02 5.17388E-06 1.80591E-01-2.43038E-06 4.24049E-08 3.97678E-03
 -1     17128-4.72350E-02 5.17388E-06 1.80591E-01-2.43038E-06-4.24049E-08-3.97678E-03
 -1     17129-2.62077E-01-3.33352E-05 3.95304E-01-4.75086E-06 8.24787E-08 1.14755E-02
 -1     17131-2.62077E-01-3.33352E-05 3.95304E-01-4.75086E-06-8.24787E-08-1.14755E-02
 -1     17132-2.62407E-01-2.69210E-05 3.95649E-01-5.77819E-06 1.00929E-07 1.14872E-02
 -1     17134-2.62407E-01-2.69210E-05 3.95649E-01-5.77819E-06-1.00929E-07-1.14872E-02
 -1     17135-5.03649E-02-2.39422E-06 1.83688E-01 5.39041E-06-9.44546E-08 4.08554E-03
 -1     17137-5.03649E-02-2.39422E-06 1.83688E-01 5.39041E-06 9.44546E-08-4.08554E-03
 -1     17138-2.62519E-01-2.95401E-05 3.95754E-01 4.70748E-06-8.21705E-08 1.14910E-02
 -1     17140-2.62519E-01-2.95401E-05 3.95754E-01 4.70748E-06 8.21705E-08-1.14910E-02
 -1     17141-2.62605E-01-2.93377E-05 3.95832E-01 2.77107E-08 1.73218E-10 1.14939E-02
 -1     17143-2.62605E-01-2.93377E-05 3.95832E-01 2.77107E-08-1.73218E-10-1.14939E-02
 -1     17144-2.48173E-01 4.03804E-05 3.81670E-01-1.23915E-05 2.16381E-07 1.09944E-02
 -1     17146-2.48173E-01 4.03804E-05 3.81670E-01-1.23915E-05-2.16381E-07-1.09944E-02
 -1     17147-2.49720E-01 5.51802E-05 3.83207E-01 3.53557E-06-6.17170E-08 1.10482E-02
 -1     17149-2.49720E-01 5.51802E-05 3.83207E-01 3.53557E-06 6.17170E-08-1.10482E-02
 -1     17150-9.55686E-02-7.23841E-07 2.28898E-01-7.86629E-06 1.37349E-07 5.66373E-03
 -1     17152-9.55686E-02-7.23841E-07 2.28898E-01-7.86629E-06-1.37349E-07-5.66373E-03
 -1     17153-9.80610E-02 3.82634E-07 2.31393E-01-2.91405E-07 5.11328E-09 5.75087E-03
 -1     17155-9.80610E-02 3.82634E-07 2.31393E-01-2.91405E-07-5.11328E-09-5.75087E-03
 -1     17156-9.06787E-02 8.42947E-07 2.24014E-01 7.46536E-06-1.30322E-07 5.49311E-03
 -1     17158-9.06787E-02 8.42947E-07 2.24014E-01 7.46536E-06 1.30322E-07-5.49311E-03
 -1     17159-1.89230E-01-6.40211E-06 3.22542E-01 1.89819E-05-3.31275E-07 8.93338E-03
 -1     17161-1.89230E-01-6.40211E-06 3.22542E-01 1.89819E-05 3.31275E-07-8.93338E-03
 -1     17162-1.79475E-01 4.91908E-06 3.12821E-01-2.01432E-05 3.51793E-07 8.59334E-03
 -1     17164-1.79475E-01 4.91908E-06 3.12821E-01-2.01432E-05-3.51793E-07-8.59334E-03
 -1     17165-1.93203E-01-7.16158E-06 3.26528E-01 2.77308E-06-4.83212E-08 9.07246E-03
 -1     17167-1.93203E-01-7.16158E-06 3.26528E-01 2.77308E-06 4.83212E-08-9.07246E-03
 -1     17168-1.70938E-01-1.59140E-06 3.04263E-01 1.79299E-05-3.12879E-07 8.29496E-03
 -1     17170-1.70938E-01-1.59140E-06 3.04263E-01 1.79299E-05 3.12879E-07-8.29496E-03
 -1     17171-1.62334E-01 9.00025E-08 2.95668E-01-1.59043E-05 2.77731E-07 7.99472E-03
 -1     17173-1.62334E-01 9.00025E-08 2.95668E-01-1.59043E-05-2.77731E-07-7.99472E-03
 -1     17174-1.74822E-01 4.41973E-06 3.08154E-01 1.40646E-06-2.46656E-08 8.43081E-03
 -1     17176-1.74822E-01 4.41973E-06 3.08154E-01 1.40646E-06 2.46656E-08-8.43081E-03
 -1     17177-1.54403E-01 9.02918E-07 2.87738E-01 1.48708E-05-2.59562E-07 7.71784E-03
 -1     17179-1.54403E-01 9.02918E-07 2.87738E-01 1.48708E-05 2.59562E-07-7.71784E-03
 -1     17180-1.46671E-01-1.57784E-06 2.79994E-01-1.39037E-05 2.42822E-07 7.44770E-03
 -1     17182-1.46671E-01-1.57784E-06 2.79994E-01-1.39037E-05-2.42822E-07-7.44770E-03
 -1     17183-1.58345E-01-5.81633E-06 2.91674E-01-1.43785E-06 2.51701E-08 7.85551E-03
 -1     17185-1.58345E-01-5.81633E-06 2.91674E-01-1.43785E-06-2.51701E-08-7.85551E-03
 -1     17186-1.39497E-01 4.44359E-06 2.72841E-01 1.29057E-05-2.25283E-07 7.19760E-03
 -1     17188-1.39497E-01 4.44359E-06 2.72841E-01 1.29057E-05 2.25283E-07-7.19760E-03
 -1     17189-1.32476E-01-1.66686E-06 2.65797E-01-1.19878E-05 2.09205E-07 6.95210E-03
 -1     17191-1.32476E-01-1.66686E-06 2.65797E-01-1.19878E-05-2.09205E-07-6.95210E-03
 -1     17192-1.43262E-01-7.98055E-07 2.76590E-01-1.18177E-06 2.04760E-08 7.32888E-03
 -1     17194-1.43262E-01-7.98055E-07 2.76590E-01-1.18177E-06-2.04760E-08-7.32888E-03
 -1     17195-1.25300E-01 1.40897E-07 2.58639E-01 1.11036E-05-1.94028E-07 6.70189E-03
 -1     17197-1.25300E-01 1.40897E-07 2.58639E-01 1.11036E-05 1.94028E-07-6.70189E-03
 -1     17198-1.18969E-01 2.63084E-06 2.52317E-01-9.81605E-06 1.71269E-07 6.48100E-03
 -1     17200-1.18969E-01 2.63084E-06 2.52317E-01-9.81605E-06-1.71269E-07-6.48100E-03
 -1     17201-1.28920E-01-1.64648E-06 2.62245E-01-1.73237E-06 3.00355E-08 6.82820E-03
 -1     17203-1.28920E-01-1.64648E-06 2.62245E-01-1.73237E-06-3.00355E-08-6.82820E-03
 -1     17204-1.12768E-01-3.36634E-06 2.46083E-01 8.71760E-06-1.52186E-07 6.26395E-03
 -1     17206-1.12768E-01-3.36634E-06 2.46083E-01 8.71760E-06 1.52186E-07-6.26395E-03
 -1     17207-1.06992E-01 4.65054E-06 2.40335E-01-9.96220E-06 1.73949E-07 6.06277E-03
 -1     17209-1.06992E-01 4.65054E-06 2.40335E-01-9.96220E-06-1.73949E-07-6.06277E-03
 -1     17210-1.15555E-01-1.77734E-06 2.48878E-01 1.52473E-06-2.68598E-08 6.36153E-03
 -1     17212-1.15555E-01-1.77734E-06 2.48878E-01 1.52473E-06 2.68598E-08-6.36153E-03
 -1     17213-1.01665E-01-2.03352E-06 2.34990E-01 8.39297E-06-1.46485E-07 5.87648E-03
 -1     17215-1.01665E-01-2.03352E-06 2.34990E-01 8.39297E-06 1.46485E-07-5.87648E-03
 -1     17216-9.64714E-02 1.42855E-06 2.29806E-01-8.81139E-06 1.53898E-07 5.69533E-03
 -1     17218-9.64714E-02 1.42855E-06 2.29806E-01-8.81139E-06-1.53898E-07-5.69533E-03
 -1     17219-1.04014E-01-2.84062E-06 2.37343E-01 1.50072E-06-2.61201E-08 5.95865E-03
 -1     17221-1.04014E-01-2.84062E-06 2.37343E-01 1.50072E-06 2.61201E-08-5.95865E-03
 -1     17222-9.17395E-02-2.19459E-07 2.25071E-01 7.47952E-06-1.30547E-07 5.53008E-03
 -1     17224-9.17395E-02-2.19459E-07 2.25071E-01 7.47952E-06 1.30547E-07-5.53008E-03
 -1     17225-8.70307E-02 1.76139E-07 2.20363E-01-7.51038E-06 1.31121E-07 5.36570E-03
 -1     17227-8.70307E-02 1.76139E-07 2.20363E-01-7.51038E-06-1.31121E-07-5.36570E-03
 -1     17228-9.39542E-02-8.90234E-08 2.27285E-01 3.43381E-08-6.42283E-10 5.60745E-03
 -1     17230-9.39542E-02-8.90234E-08 2.27285E-01 3.43381E-08 6.42283E-10-5.60745E-03
 -1     17231-8.25288E-02-5.06261E-08 2.15861E-01 7.07920E-06-1.23580E-07 5.20853E-03
 -1     17233-8.25288E-02-5.06261E-08 2.15861E-01 7.07920E-06 1.23580E-07-5.20853E-03
 -1     17234-7.81532E-02 2.27605E-07 2.11486E-01-7.16652E-06 1.25090E-07 5.05578E-03
 -1     17236-7.81532E-02 2.27605E-07 2.11486E-01-7.16652E-06-1.25090E-07-5.05578E-03
 -1     17237-8.47196E-02-1.04429E-07 2.18051E-01-2.25023E-07 3.88723E-09 5.28507E-03
 -1     17239-8.47196E-02-1.04429E-07 2.18051E-01-2.25023E-07-3.88723E-09-5.28507E-03
 -1     17240-7.38687E-02-4.86032E-07 2.07200E-01 6.73300E-06-1.17556E-07 4.90618E-03
 -1     17242-7.38687E-02-4.86032E-07 2.07200E-01 6.73300E-06 1.17556E-07-4.90618E-03
 -1     17243-6.97778E-02 7.49106E-07 2.03112E-01-7.04541E-06 1.22961E-07 4.76342E-03
 -1     17245-6.97778E-02 7.49106E-07 2.03112E-01-7.04541E-06-1.22961E-07-4.76342E-03
 -1     17246-7.59338E-02-2.32619E-07 2.09265E-01-1.56388E-07 2.69651E-09 4.97835E-03
 -1     17248-7.59338E-02-2.32619E-07 2.09265E-01-1.56388E-07-2.69651E-09-4.97835E-03
 -1     17249-6.57290E-02-1.00679E-06 1.99058E-01 6.40074E-06-1.11765E-07 4.62197E-03
 -1     17251-6.57290E-02-1.00679E-06 1.99058E-01 6.40074E-06 1.11765E-07-4.62197E-03
 -1     17252-6.18929E-02 1.68418E-06 1.95230E-01-6.90689E-06 1.20524E-07 4.48820E-03
 -1     17254-6.18929E-02 1.68418E-06 1.95230E-01-6.90689E-06-1.20524E-07-4.48820E-03
 -1     17255-6.75995E-02 1.47945E-07 2.00931E-01 9.71943E-08-1.73336E-09 4.68740E-03
 -1     17257-6.75995E-02 1.47945E-07 2.00931E-01 9.71943E-08 1.73336E-09-4.68740E-03
 -1     17258-5.80296E-02-1.78423E-06 1.91355E-01 6.21363E-06-1.08514E-07 4.35314E-03
 -1     17260-5.80296E-02-1.78423E-06 1.91355E-01 6.21363E-06 1.08514E-07-4.35314E-03
 -1     17261-5.44091E-02 2.44927E-06 1.87750E-01-7.69721E-06 1.34248E-07 4.22700E-03
 -1     17263-5.44091E-02 2.44927E-06 1.87750E-01-7.69721E-06-1.34248E-07-4.22700E-03
 -1     17264-5.96814E-02-1.63597E-07 1.93013E-01 3.10919E-07-5.45441E-09 4.41096E-03
 -1     17266-5.96814E-02-1.63597E-07 1.93013E-01 3.10919E-07 5.45441E-09-4.41096E-03
 -1     17267-1.24355E-01-3.67845E-07 2.57686E-01 1.18868E-05-2.07498E-07 6.66875E-03
 -1     17269-1.24355E-01-3.67845E-07 2.57686E-01 1.18868E-05 2.07498E-07-6.66875E-03
 -1     17270-1.31004E-01 3.86589E-07 2.64337E-01-1.29740E-05 2.26530E-07 6.90091E-03
 -1     17272-1.31004E-01 3.86589E-07 2.64337E-01-1.29740E-05-2.26530E-07-6.90091E-03
 -1     17273-1.21182E-01-5.27064E-07 2.54513E-01-2.43863E-08 4.13341E-10 6.55809E-03
 -1     17275-1.21182E-01-5.27064E-07 2.54513E-01-2.43863E-08-4.13341E-10-6.55809E-03
 -1     17276-1.34795E-01-8.02067E-07 2.68127E-01 4.76630E-07-8.32697E-09 7.03340E-03
 -1     17278-1.34795E-01-8.02067E-07 2.68127E-01 4.76630E-07 8.32697E-09-7.03340E-03
 -1     17279-2.26032E-01 1.43662E-05 3.59437E-01 3.54125E-05-6.18526E-07 1.02198E-02
 -1     17281-2.26032E-01 1.43662E-05 3.59437E-01 3.54125E-05 6.18526E-07-1.02198E-02
 -1     17282-2.39758E-01-2.38917E-05 3.73025E-01-8.81311E-06 1.52305E-07 1.06968E-02
 -1     17284-2.39758E-01-2.38917E-05 3.73025E-01-8.81311E-06-1.52305E-07-1.06968E-02
 -1     17285-5.58061E-02-4.44196E-08 1.89138E-01 4.23077E-06-7.38749E-08 4.27558E-03
 -1     17287-5.58061E-02-4.44196E-08 1.89138E-01 4.23077E-06 7.38749E-08-4.27558E-03
 -1     17288-5.90632E-02 1.00177E-08 1.92396E-01-4.37408E-06 7.63629E-08 4.38930E-03
 -1     17290-5.90632E-02 1.00177E-08 1.92396E-01-4.37408E-06-7.63629E-08-4.38930E-03
 -1     17291-6.07800E-02-2.34143E-07 1.94112E-01-1.71851E-08 2.95842E-10 4.44928E-03
 -1     17293-6.07800E-02-2.34143E-07 1.94112E-01-1.71851E-08-2.95842E-10-4.44928E-03
 -1     17294-5.43412E-02 5.23636E-07 1.87673E-01 5.57763E-08-9.54120E-10 4.22449E-03
 -1     17296-5.43412E-02 5.23636E-07 1.87673E-01 5.57763E-08 9.54120E-10-4.22449E-03
 -1     17297-6.95907E-02-6.46573E-07 2.02919E-01-5.09748E-06 8.89587E-08 4.75677E-03
 -1     17299-6.95907E-02-6.46573E-07 2.02919E-01-5.09748E-06-8.89587E-08-4.75677E-03
 -1     17300-7.13600E-02-1.50970E-07 2.04691E-01-2.56587E-07 4.51293E-09 4.81863E-03
 -1     17302-7.13600E-02-1.50970E-07 2.04691E-01-2.56587E-07-4.51293E-09-4.81863E-03
 -1     17303-6.59051E-02 3.75638E-07 1.99238E-01 4.89714E-06-8.55103E-08 4.62817E-03
 -1     17305-6.59051E-02 3.75638E-07 1.99238E-01 4.89714E-06 8.55103E-08-4.62817E-03
 -1     17306-1.31240E-01 3.34414E-07 2.64572E-01 1.34228E-05-2.34314E-07 6.90913E-03
 -1     17308-1.31240E-01 3.34414E-07 2.64572E-01 1.34228E-05 2.34314E-07-6.90913E-03
 -1     17309-1.38430E-01 3.83875E-07 2.71760E-01-1.50290E-05 2.62436E-07 7.16014E-03
 -1     17311-1.38430E-01 3.83875E-07 2.71760E-01-1.50290E-05-2.62436E-07-7.16014E-03
 -1     17312-1.66405E-01 1.74892E-06 2.99730E-01-6.67076E-07 1.18663E-08 8.13687E-03
 -1     17314-1.66405E-01 1.74892E-06 2.99730E-01-6.67076E-07-1.18663E-08-8.13687E-03
 -1     17315-1.69928E-01-3.17898E-06 3.03236E-01 1.37650E-05-2.40222E-07 8.25940E-03
 -1     17317-1.69928E-01-3.17898E-06 3.03236E-01 1.37650E-05 2.40222E-07-8.25940E-03
 -1     17318-5.17557E-02-1.68089E-06 1.85086E-01 4.20994E-07-7.30933E-09 4.13428E-03
 -1     17320-5.17557E-02-1.68089E-06 1.85086E-01 4.20994E-07 7.30933E-09-4.13428E-03
 -1     17321-2.37421E-01-1.45930E-05 3.70701E-01 7.26271E-06-1.26176E-07 1.06156E-02
 -1     17323-2.37421E-01-1.45930E-05 3.70701E-01 7.26271E-06 1.26176E-07-1.06156E-02
 -1     17324-4.13151E-02-8.06863E-07 1.74644E-01 2.09820E-06-3.64386E-08 3.76966E-03
 -1     17326-4.13151E-02-8.06863E-07 1.74644E-01 2.09820E-06 3.64386E-08-3.76966E-03
 -1     17327-4.34481E-02 4.00505E-06 1.76794E-01 1.24622E-06-2.17511E-08 3.84439E-03
 -1     17329-4.34481E-02 4.00505E-06 1.76794E-01 1.24622E-06 2.17511E-08-3.84439E-03
 -1     17330-4.08749E-02-1.29250E-06 1.74200E-01-1.48514E-07 2.56458E-09 3.75424E-03
 -1     17332-4.08749E-02-1.29250E-06 1.74200E-01-1.48514E-07-2.56458E-09-3.75424E-03
 -1     17333-8.82054E-02-2.01586E-07 2.21537E-01-4.16718E-07 7.29170E-09 5.40677E-03
 -1     17335-8.82054E-02-2.01586E-07 2.21537E-01-4.16718E-07-7.29170E-09-5.40677E-03
 -1     17336-4.58394E-02-2.02987E-06 1.79167E-01-4.72939E-07 8.48652E-09 3.92757E-03
 -1     17338-4.58394E-02-2.02987E-06 1.79167E-01-4.72939E-07-8.48652E-09-3.92757E-03
 -1     17339-4.69868E-02 5.91168E-07 1.80324E-01 1.88306E-06-3.29099E-08 3.96776E-03
 -1     17341-4.69868E-02 5.91168E-07 1.80324E-01 1.88306E-06 3.29099E-08-3.96776E-03
 -1     17342-4.97694E-02-1.68935E-07 1.83099E-01-3.69617E-06 6.45482E-08 4.06479E-03
 -1     17344-4.97694E-02-1.68935E-07 1.83099E-01-3.69617E-06-6.45482E-08-4.06479E-03
 -1     17345-4.58536E-02-1.93272E-06 1.79175E-01-1.97896E-06 3.48861E-08 3.92799E-03
 -1     17347-4.58536E-02-1.93272E-06 1.79175E-01-1.97896E-06-3.48861E-08-3.92799E-03
 -1     17348-2.60564E-01-2.31104E-05 3.93801E-01-6.26290E-07 1.04138E-08 1.14229E-02
 -1     17350-2.60564E-01-2.31104E-05 3.93801E-01-6.26290E-07-1.04138E-08-1.14229E-02
 -1     17351-2.48078E-01 5.14554E-05 3.81598E-01 2.03033E-05-3.54390E-07 1.09915E-02
 -1     17353-2.48078E-01 5.14554E-05 3.81598E-01 2.03033E-05 3.54390E-07-1.09915E-02
 -1     17354-2.60452E-01-2.59247E-05 3.93683E-01-3.29665E-06 5.79400E-08 1.14189E-02
 -1     17356-2.60452E-01-2.59247E-05 3.93683E-01-3.29665E-06-5.79400E-08-1.14189E-02
 -1     17357-4.33485E-02-3.70877E-06 1.76666E-01-1.84149E-06 3.23521E-08 3.84046E-03
 -1     17359-4.33485E-02-3.70877E-06 1.76666E-01-1.84149E-06-3.23521E-08-3.84046E-03
 -1     17360-4.29345E-02-2.65043E-06 1.76260E-01-1.14032E-06 1.99273E-08 3.82615E-03
 -1     17362-4.29345E-02-2.65043E-06 1.76260E-01-1.14032E-06-1.99273E-08-3.82615E-03
 -1     17363-7.67781E-02 2.20850E-06 2.10119E-01 5.86511E-06-1.02393E-07 5.00790E-03
 -1     17365-7.67781E-02 2.20850E-06 2.10119E-01 5.86511E-06 1.02393E-07-5.00790E-03
 -1     17366-8.10015E-02-1.82339E-06 2.14327E-01-5.98582E-06 1.04538E-07 5.15510E-03
 -1     17368-8.10015E-02-1.82339E-06 2.14327E-01-5.98582E-06-1.04538E-07-5.15510E-03
 -1     17369-4.67175E-02 3.90156E-06 1.80067E-01 4.33268E-06-7.55772E-08 3.95861E-03
 -1     17371-4.67175E-02 3.90156E-06 1.80067E-01 4.33268E-06 7.55772E-08-3.95861E-03
 -1     17372-9.52372E-02 9.80417E-07 2.28575E-01 8.01646E-06-1.39922E-07 5.65229E-03
 -1     17374-9.52372E-02 9.80417E-07 2.28575E-01 8.01646E-06 1.39922E-07-5.65229E-03
 -1     17375-1.00417E-01-5.15138E-07 2.33747E-01-8.89941E-06 1.55408E-07 5.83301E-03
 -1     17377-1.00417E-01-5.15138E-07 2.33747E-01-8.89941E-06-1.55408E-07-5.83301E-03
 -1     17378-4.14339E-02-2.90329E-06 1.74761E-01-2.72038E-06 4.74457E-08 3.77377E-03
 -1     17380-4.14339E-02-2.90329E-06 1.74761E-01-2.72038E-06-4.74457E-08-3.77377E-03
 -1     17381-1.05961E-01 1.30894E-07 2.39293E-01 1.02336E-05-1.78648E-07 6.02659E-03
 -1     17383-1.05961E-01 1.30894E-07 2.39293E-01 1.02336E-05 1.78648E-07-6.02659E-03
 -1     17384-1.11720E-01-1.85118E-07 2.45053E-01-1.01668E-05 1.77534E-07 6.22768E-03
 -1     17386-1.11720E-01-1.85118E-07 2.45053E-01-1.01668E-05-1.77534E-07-6.22768E-03
 -1     17387-1.03076E-01 1.37901E-06 2.36407E-01-3.50750E-07 6.19417E-09 5.92595E-03
 -1     17389-1.03076E-01 1.37901E-06 2.36407E-01-3.50750E-07-6.19417E-09-5.92595E-03
 -1     17390-2.74700E-01 6.19378E-05 4.08251E-01-6.26557E-06 1.09377E-07 1.19215E-02
 -1     17392-2.74700E-01 6.19378E-05 4.08251E-01-6.26557E-06-1.09377E-07-1.19215E-02
 -1     17393-4.24072E-02-2.71897E-06 1.75727E-01-1.30174E-06 2.27551E-08 3.80763E-03
 -1     17395-4.24072E-02-2.71897E-06 1.75727E-01-1.30174E-06-2.27551E-08-3.80763E-03
 -1     17396-4.20147E-02-1.25820E-06 1.75341E-01 3.34580E-08-5.55169E-10 3.79405E-03
 -1     17398-4.20147E-02-1.25820E-06 1.75341E-01 3.34580E-08 5.55169E-10-3.79405E-03
 -1     17399-4.51707E-02 5.41810E-06 1.78521E-01 6.49706E-07-1.13220E-08 3.90460E-03
 -1     17401-4.51707E-02 5.41810E-06 1.78521E-01 6.49706E-07 1.13220E-08-3.90460E-03
 -1     17402-4.40392E-02 3.47314E-06 1.77390E-01 2.55247E-06-4.46181E-08 3.86512E-03
 -1     17404-4.40392E-02 3.47314E-06 1.77390E-01 2.55247E-06 4.46181E-08-3.86512E-03
 -1     17405-2.15651E-01-6.19721E-06 3.48958E-01-2.39179E-05 4.17366E-07 9.85571E-03
 -1     17407-2.15651E-01-6.19721E-06 3.48958E-01-2.39179E-05-4.17366E-07-9.85571E-03
 -1     17408-2.18914E-01 1.17341E-05 3.52225E-01 1.50600E-06-2.62873E-08 9.96981E-03
 -1     17410-2.18914E-01 1.17341E-05 3.52225E-01 1.50600E-06 2.62873E-08-9.96981E-03
 -1     17411-2.49347E-01 5.03298E-05 3.82827E-01-7.13854E-06 1.24644E-07 1.10350E-02
 -1     17413-2.49347E-01 5.03298E-05 3.82827E-01-7.13854E-06-1.24644E-07-1.10350E-02
 -1     17414-2.61968E-01-2.09267E-05 3.95218E-01 4.88776E-06-8.52629E-08 1.14721E-02
 -1     17416-2.61968E-01-2.09267E-05 3.95218E-01 4.88776E-06 8.52629E-08-1.14721E-02
 -1     17417-2.61443E-01-3.37310E-05 3.94661E-01 6.13526E-06-1.06916E-07 1.14532E-02
 -1     17419-2.61443E-01-3.37310E-05 3.94661E-01 6.13526E-06 1.06916E-07-1.14532E-02
 -1     17420-2.39022E-01-2.20435E-05 3.72265E-01 8.37041E-06-1.44284E-07 1.06707E-02
 -1     17422-2.39022E-01-2.20435E-05 3.72265E-01 8.37041E-06 1.44284E-07-1.06707E-02
 -1     17423-2.07138E-01-5.72871E-06 3.40450E-01-2.23065E-05 3.89263E-07 9.55857E-03
 -1     17425-2.07138E-01-5.72871E-06 3.40450E-01-2.23065E-05-3.89263E-07-9.55857E-03
 -1     17426-2.11934E-01 1.26670E-06 3.45258E-01-3.04924E-06 5.33625E-08 9.72642E-03
 -1     17428-2.11934E-01 1.26670E-06 3.45258E-01-3.04924E-06-5.33625E-08-9.72642E-03
 -1     17429-2.04859E-01 8.62981E-06 3.38240E-01 1.13297E-05-1.97978E-07 9.48011E-03
 -1     17431-2.04859E-01 8.62981E-06 3.38240E-01 1.13297E-05 1.97978E-07-9.48011E-03
 -1     17432-1.96472E-01 2.47765E-06 3.29813E-01 2.08634E-05-3.64338E-07 9.18669E-03
 -1     17434-1.96472E-01 2.47765E-06 3.29813E-01 2.08634E-05 3.64338E-07-9.18669E-03
 -1     17435-1.73333E-01-6.60965E-07 3.06662E-01 9.56799E-07-1.66175E-08 8.37879E-03
 -1     17437-1.73333E-01-6.60965E-07 3.06662E-01 9.56799E-07 1.66175E-08-8.37879E-03
 -1     17438-1.77451E-01-1.22498E-06 3.10775E-01 1.81145E-05-3.16369E-07 8.52230E-03
 -1     17440-1.77451E-01-1.22498E-06 3.10775E-01 1.81145E-05 3.16369E-07-8.52230E-03
 -1     17441-1.86802E-01-1.57376E-06 3.20131E-01-1.81902E-05 3.17509E-07 8.84887E-03
 -1     17443-1.86802E-01-1.57376E-06 3.20131E-01-1.81902E-05-3.17509E-07-8.84887E-03
 -1     17444-1.46411E-01-2.75591E-06 2.79741E-01 1.51035E-05-2.63540E-07 7.43879E-03
 -1     17446-1.46411E-01-2.75591E-06 2.79741E-01 1.51035E-05 2.63540E-07-7.43879E-03
 -1     17447-1.54364E-01 4.35339E-06 2.87715E-01-2.12260E-05 3.70758E-07 7.71681E-03
 -1     17449-1.54364E-01 4.35339E-06 2.87715E-01-2.12260E-05-3.70758E-07-7.71681E-03
 -1     17450-1.42751E-01-3.44320E-06 2.76081E-01 1.45865E-07-2.53007E-09 7.31118E-03
 -1     17452-1.42751E-01-3.44320E-06 2.76081E-01 1.45865E-07 2.53007E-09-7.31118E-03
 -1     17453-1.78407E-01 8.62419E-06 3.11775E-01-8.51141E-06 1.48516E-07 8.55638E-03
 -1     17455-1.78407E-01 8.62419E-06 3.11775E-01-8.51141E-06-1.48516E-07-8.55638E-03
 -1     17456-7.27941E-02-1.72525E-06 2.06119E-01-4.68990E-06 8.19099E-08 4.86855E-03
 -1     17458-7.27941E-02-1.72525E-06 2.06119E-01-4.68990E-06-8.19099E-08-4.86855E-03
 -1     17459-7.44415E-02-3.64931E-07 2.07771E-01-5.96624E-07 1.04764E-08 4.92619E-03
 -1     17461-7.44415E-02-3.64931E-07 2.07771E-01-5.96624E-07-1.04764E-08-4.92619E-03
 -1     17462-6.90536E-02 2.69155E-06 2.02397E-01 3.30943E-06-5.78185E-08 4.73825E-03
 -1     17464-6.90536E-02 2.69155E-06 2.02397E-01 3.30943E-06 5.78185E-08-4.73825E-03
 -1     17465-1.64014E-01-8.33984E-06 2.97323E-01 2.02392E-05-3.52825E-07 8.05305E-03
 -1     17467-1.64014E-01-8.33984E-06 2.97323E-01 2.02392E-05 3.52825E-07-8.05305E-03
 -1     17468-1.72450E-01 1.47617E-05 3.05866E-01-1.08149E-05 1.89025E-07 8.34935E-03
 -1     17470-1.72450E-01 1.47617E-05 3.05866E-01-1.08149E-05-1.89025E-07-8.34935E-03
 -1     17471-1.60349E-01 2.86212E-06 2.93671E-01-3.10570E-07 5.49711E-09 7.92554E-03
 -1     17473-1.60349E-01 2.86212E-06 2.93671E-01-3.10570E-07-5.49711E-09-7.92554E-03
 -1     17474-1.24329E-01 1.75017E-07 2.57661E-01-1.24632E-05 2.17603E-07 6.66786E-03
 -1     17476-1.24329E-01 1.75017E-07 2.57661E-01-1.24632E-05-2.17603E-07-6.66786E-03
 -1     17477-1.27870E-01-1.47219E-06 2.61201E-01-6.25095E-08 1.05072E-09 6.79161E-03
 -1     17479-1.27870E-01-1.47219E-06 2.61201E-01-6.25095E-08-1.05072E-09-6.79161E-03
 -1     17480-1.17900E-01-9.22474E-08 2.51230E-01 1.15749E-05-2.02079E-07 6.44338E-03
 -1     17482-1.17900E-01-9.22474E-08 2.51230E-01 1.15749E-05 2.02079E-07-6.44338E-03
 -1     17483-2.40338E-01-2.38825E-05 3.73590E-01 2.63515E-06-4.48324E-08 1.07167E-02
 -1     17485-2.40338E-01-2.38825E-05 3.73590E-01 2.63515E-06 4.48324E-08-1.07167E-02
 -1     17486-2.27876E-01 2.24604E-05 3.61293E-01-2.15624E-05 3.76646E-07 1.02843E-02
 -1     17488-2.27876E-01 2.24604E-05 3.61293E-01-2.15624E-05-3.76646E-07-1.02843E-02
 -1     17489-2.40228E-01-2.46096E-05 3.73476E-01-4.87855E-06 8.36580E-08 1.07128E-02
 -1     17491-2.40228E-01-2.46096E-05 3.73476E-01-4.87855E-06-8.36580E-08-1.07128E-02
 -1     17492-6.24148E-02-1.32662E-07 1.95747E-01-4.48438E-06 7.82858E-08 4.50630E-03
 -1     17494-6.24148E-02-1.32662E-07 1.95747E-01-4.48438E-06-7.82858E-08-4.50630E-03
 -1     17495-6.41342E-02-1.74769E-06 1.97465E-01-6.70723E-08 1.12016E-09 4.56637E-03
 -1     17497-6.41342E-02-1.74769E-06 1.97465E-01-6.70723E-08-1.12016E-09-4.56637E-03
 -1     17498-5.90438E-02-1.17296E-07 1.92374E-01 4.55479E-06-7.95317E-08 4.38859E-03
 -1     17500-5.90438E-02-1.17296E-07 1.92374E-01 4.55479E-06 7.95317E-08-4.38859E-03
 -1     17501-4.75065E-02-2.10876E-06 1.80826E-01-1.44174E-06 2.48153E-08 3.98569E-03
 -1     17503-4.75065E-02-2.10876E-06 1.80826E-01-1.44174E-06-2.48153E-08-3.98569E-03
 -1     17504-4.69041E-02-8.59192E-07 1.80230E-01-1.22901E-06 2.15706E-08 3.96480E-03
 -1     17506-4.69041E-02-8.59192E-07 1.80230E-01-1.22901E-06-2.15706E-08-3.96480E-03
 -1     17507-2.13503E-01 1.44072E-05 3.46936E-01 1.75106E-05-3.04898E-07 9.78296E-03
 -1     17509-2.13503E-01 1.44072E-05 3.46936E-01 1.75106E-05 3.04898E-07-9.78296E-03
 -1     17510-2.23957E-01 1.23597E-05 3.57371E-01-2.71359E-05 4.74787E-07 1.01476E-02
 -1     17512-2.23957E-01 1.23597E-05 3.57371E-01-2.71359E-05-4.74787E-07-1.01476E-02
 -1     17513-8.55237E-02 1.95443E-06 2.18863E-01 7.20057E-06-1.25690E-07 5.31320E-03
 -1     17515-8.55237E-02 1.95443E-06 2.18863E-01 7.20057E-06 1.25690E-07-5.31320E-03
 -1     17516-9.02105E-02-1.58652E-06 2.23536E-01-7.12206E-06 1.24370E-07 5.47661E-03
 -1     17518-9.02105E-02-1.58652E-06 2.23536E-01-7.12206E-06-1.24370E-07-5.47661E-03
 -1     17519-9.25048E-02-9.86991E-07 2.25836E-01-7.29293E-07 1.27543E-08 5.55688E-03
 -1     17521-9.25048E-02-9.86991E-07 2.25836E-01-7.29293E-07-1.27543E-08-5.55688E-03
 -1     17522-8.29517E-02-3.87862E-07 2.16282E-01-8.75941E-07 1.53128E-08 5.22335E-03
 -1     17524-8.29517E-02-3.87862E-07 2.16282E-01-8.75941E-07-1.53128E-08-5.22335E-03
 -1     17525-1.97345E-01-3.34401E-06 3.30635E-01 1.02608E-05-1.78747E-07 9.21626E-03
 -1     17527-1.97345E-01-3.34401E-06 3.30635E-01 1.02608E-05 1.78747E-07-9.21626E-03
 -1     17528-1.87478E-01 9.72510E-06 3.20803E-01-1.58130E-05 2.76316E-07 8.87237E-03
 -1     17530-1.87478E-01 9.72510E-06 3.20803E-01-1.58130E-05-2.76316E-07-8.87237E-03
 -1     17531-1.78867E-01-3.19995E-06 3.12216E-01 1.65334E-05-2.88632E-07 8.57216E-03
 -1     17533-1.78867E-01-3.19995E-06 3.12216E-01 1.65334E-05 2.88632E-07-8.57216E-03
 -1     17534-1.70321E-01-3.45190E-06 3.03674E-01-1.32816E-05 2.31898E-07 8.27387E-03
 -1     17536-1.70321E-01-3.45190E-06 3.03674E-01-1.32816E-05-2.31898E-07-8.27387E-03
 -1     17537-1.82884E-01-4.82856E-07 3.16191E-01 2.54994E-06-4.53097E-08 8.71183E-03
 -1     17539-1.82884E-01-4.82856E-07 3.16191E-01 2.54994E-06 4.53097E-08-8.71183E-03
 -1     17540-1.62691E-01 2.53040E-06 2.96012E-01 1.31672E-05-2.29615E-07 8.00691E-03
 -1     17542-1.62691E-01 2.53040E-06 2.96012E-01 1.31672E-05 2.29615E-07-8.00691E-03
 -1     17543-1.54764E-01-3.23413E-06 2.88072E-01-7.78684E-06 1.36334E-07 7.72996E-03
 -1     17545-1.54764E-01-3.23413E-06 2.88072E-01-7.78684E-06-1.36334E-07-7.72996E-03
 -1     17546-1.66652E-01-5.94688E-06 2.99961E-01 2.65614E-07-5.19407E-09 8.14514E-03
 -1     17548-1.66652E-01-5.94688E-06 2.99961E-01 2.65614E-07 5.19407E-09-8.14514E-03
 -1     17549-1.48071E-01 9.91981E-06 2.81442E-01 7.41411E-06-1.29354E-07 7.49735E-03
 -1     17551-1.48071E-01 9.91981E-06 2.81442E-01 7.41411E-06 1.29354E-07-7.49735E-03
 -1     17552-1.40925E-01-5.77730E-06 2.74235E-01-9.72271E-06 1.69813E-07 7.24690E-03
 -1     17554-1.40925E-01-5.77730E-06 2.74235E-01-9.72271E-06-1.69813E-07-7.24690E-03
 -1     17555-1.52344E-01-7.01054E-06 2.85654E-01 7.77218E-07-1.44243E-08 7.64560E-03
 -1     17557-1.52344E-01-7.01054E-06 2.85654E-01 7.77218E-07 1.44243E-08-7.64560E-03
 -1     17558-1.34197E-01 6.57748E-06 2.67563E-01 1.15668E-05-2.01817E-07 7.01293E-03
 -1     17560-1.34197E-01 6.57748E-06 2.67563E-01 1.15668E-05 2.01817E-07-7.01293E-03
 -1     17561-1.27043E-01-3.68239E-06 2.60356E-01-8.18115E-06 1.43369E-07 6.76233E-03
 -1     17563-1.27043E-01-3.68239E-06 2.60356E-01-8.18115E-06-1.43369E-07-6.76233E-03
 -1     17564-1.38969E-01-1.84195E-06 2.72289E-01-3.63834E-07 6.34339E-09 7.17885E-03
 -1     17566-1.38969E-01-1.84195E-06 2.72289E-01-3.63834E-07-6.34339E-09-7.17885E-03
 -1     17567-1.16837E-01-3.16004E-06 2.50148E-01 5.38121E-06-9.34065E-08 6.40599E-03
 -1     17569-1.16837E-01-3.16004E-06 2.50148E-01 5.38121E-06 9.34065E-08-6.40599E-03
 -1     17570-1.10612E-01 7.12556E-06 2.43978E-01-5.33111E-06 9.32046E-08 6.18952E-03
 -1     17572-1.10612E-01 7.12556E-06 2.43978E-01-5.33111E-06-9.32046E-08-6.18952E-03
 -1     17573-1.26847E-01-2.67639E-06 2.60166E-01-4.22375E-07 7.81152E-09 6.75558E-03
 -1     17575-1.26847E-01-2.67639E-06 2.60166E-01-4.22375E-07-7.81152E-09-6.75558E-03
 -1     17576-1.21602E-01 8.85638E-06 2.54975E-01 1.42208E-06-2.48245E-08 6.57329E-03
 -1     17578-1.21602E-01 8.85638E-06 2.54975E-01 1.42208E-06 2.48245E-08-6.57329E-03
 -1     17579-1.06271E-01-4.04038E-06 2.39587E-01 5.56174E-06-9.66908E-08 6.03712E-03
 -1     17581-1.06271E-01-4.04038E-06 2.39587E-01 5.56174E-06 9.66908E-08-6.03712E-03
 -1     17582-1.00930E-01 1.01201E-06 2.34261E-01-7.21806E-06 1.26257E-07 5.85090E-03
 -1     17584-1.00930E-01 1.01201E-06 2.34261E-01-7.21806E-06-1.26257E-07-5.85090E-03
 -1     17585-1.07507E-01-3.99771E-06 2.40825E-01-3.77512E-07 6.21819E-09 6.08032E-03
 -1     17587-1.07507E-01-3.99771E-06 2.40825E-01-3.77512E-07-6.21819E-09-6.08032E-03
 -1     17588-9.65935E-02 1.89128E-06 2.29937E-01 5.21125E-06-9.08975E-08 5.69971E-03
 -1     17590-9.65935E-02 1.89128E-06 2.29937E-01 5.21125E-06 9.08975E-08-5.69971E-03
 -1     17591-9.18654E-02-1.42632E-06 2.25191E-01-6.56653E-06 1.14630E-07 5.53437E-03
 -1     17593-9.18654E-02-1.42632E-06 2.25191E-01-6.56653E-06-1.14630E-07-5.53437E-03
 -1     17594-9.87995E-02-1.96052E-06 2.32123E-01-1.44109E-07 2.14493E-09 5.77644E-03
 -1     17596-9.87995E-02-1.96052E-06 2.32123E-01-1.44109E-07-2.14493E-09-5.77644E-03
 -1     17597-8.72559E-02 1.88279E-06 2.20595E-01 6.87551E-06-1.20017E-07 5.37367E-03
 -1     17599-8.72559E-02 1.88279E-06 2.20595E-01 6.87551E-06 1.20017E-07-5.37367E-03
 -1     17600-8.27583E-02-1.44341E-06 2.16085E-01-6.57351E-06 1.14727E-07 5.21645E-03
 -1     17602-8.27583E-02-1.44341E-06 2.16085E-01-6.57351E-06-1.14727E-07-5.21645E-03
 -1     17603-8.98522E-02-3.37736E-07 2.23181E-01-5.59376E-07 9.68590E-09 5.46421E-03
 -1     17605-8.98522E-02-3.37736E-07 2.23181E-01-5.59376E-07-9.68590E-09-5.46421E-03
 -1     17606-7.82965E-02 1.43894E-06 2.11634E-01 7.09317E-06-1.23828E-07 5.06086E-03
 -1     17608-7.82965E-02 1.43894E-06 2.11634E-01 7.09317E-06 1.23828E-07-5.06086E-03
 -1     17609-7.40142E-02-9.27060E-07 2.07342E-01-6.71317E-06 1.17150E-07 4.91121E-03
 -1     17611-7.40142E-02-9.27060E-07 2.07342E-01-6.71317E-06-1.17150E-07-4.91121E-03
 -1     17612-8.07880E-02-3.40706E-07 2.14119E-01-8.28026E-07 1.44129E-08 5.14781E-03
 -1     17614-8.07880E-02-3.40706E-07 2.14119E-01-8.28026E-07-1.44129E-08-5.14781E-03
 -1     17615-6.96963E-02 3.24129E-07 2.03031E-01 6.86070E-06-1.19800E-07 4.76058E-03
 -1     17617-6.96963E-02 3.24129E-07 2.03031E-01 6.86070E-06 1.19800E-07-4.76058E-03
 -1     17618-6.56465E-02 8.66477E-08 1.98979E-01-7.01662E-06 1.22451E-07 4.61916E-03
 -1     17620-6.56465E-02 8.66477E-08 1.98979E-01-7.01662E-06-1.22451E-07-4.61916E-03
 -1     17621-7.20122E-02-8.79943E-07 2.05343E-01-6.34129E-07 1.10332E-08 4.84145E-03
 -1     17623-7.20122E-02-8.79943E-07 2.05343E-01-6.34129E-07-1.10332E-08-4.84145E-03
 -1     17624-6.16236E-02-4.21311E-07 1.94954E-01 7.04432E-06-1.22977E-07 4.47868E-03
 -1     17626-6.16236E-02-4.21311E-07 1.94954E-01 7.04432E-06 1.22977E-07-4.47868E-03
 -1     17627-5.77534E-02 6.03898E-07 1.91089E-01-6.42370E-06 1.12139E-07 4.34366E-03
 -1     17629-5.77534E-02 6.03898E-07 1.91089E-01-6.42370E-06-1.12139E-07-4.34366E-03
 -1     17630-6.36754E-02 7.56168E-07 1.97007E-01-2.09775E-07 3.59675E-09 4.55041E-03
 -1     17632-6.36754E-02 7.56168E-07 1.97007E-01-2.09775E-07-3.59675E-09-4.55041E-03
 -1     17633-2.17486E-01-1.41160E-05 3.50793E-01 2.25592E-05-3.93618E-07 9.91980E-03
 -1     17635-2.17486E-01-1.41160E-05 3.50793E-01 2.25592E-05 3.93618E-07-9.91980E-03
 -1     17636-2.06472E-01 8.67887E-06 3.39873E-01-1.61014E-05 2.81225E-07 9.53679E-03
 -1     17638-2.06472E-01 8.67887E-06 3.39873E-01-1.61014E-05-2.81225E-07-9.53679E-03
 -1     17639-2.00662E-01-5.14450E-06 3.33965E-01-2.52518E-06 4.31329E-08 9.33244E-03
 -1     17641-2.00662E-01-5.14450E-06 3.33965E-01-2.52518E-06-4.31329E-08-9.33244E-03
 -1     17642-2.20275E-01-3.69981E-06 3.53579E-01 2.67918E-06-4.66518E-08 1.00172E-02
 -1     17644-2.20275E-01-3.69981E-06 3.53579E-01 2.67918E-06 4.66518E-08-1.00172E-02
 -1     17645-1.91488E-01-7.96017E-06 3.24817E-01-4.00832E-07 6.82113E-09 9.01266E-03
 -1     17647-1.91488E-01-7.96017E-06 3.24817E-01-4.00832E-07-6.82113E-09-9.01266E-03
 -1     17648-1.14789E-01-1.55180E-06 2.48120E-01 1.82508E-08-3.48684E-10 6.33490E-03
 -1     17650-1.14789E-01-1.55180E-06 2.48120E-01 1.82508E-08 3.48684E-10-6.33490E-03
 -1     17651-6.58250E-02-6.74748E-07 1.99151E-01-3.26751E-06 5.69132E-08 4.62524E-03
 -1     17653-6.58250E-02-6.74748E-07 1.99151E-01-3.26751E-06-5.69132E-08-4.62524E-03
 -1     17654-6.72255E-02-1.82628E-06 2.00551E-01-2.05289E-07 3.90867E-09 4.67417E-03
 -1     17656-6.72255E-02-1.82628E-06 2.00551E-01-2.05289E-07-3.90867E-09-4.67417E-03
 -1     17657-6.23335E-02-3.49199E-08 1.95660E-01 3.43564E-06-6.00920E-08 4.50337E-03
 -1     17659-6.23335E-02-3.49199E-08 1.95660E-01 3.43564E-06 6.00920E-08-4.50337E-03
 -1     17660-2.36237E-01-2.03628E-05 3.69508E-01-1.33612E-05 2.32238E-07 1.05742E-02
 -1     17662-2.36237E-01-2.03628E-05 3.69508E-01-1.33612E-05-2.32238E-07-1.05742E-02
 -1     17663-2.26824E-01 3.27702E-05 3.60242E-01 2.02326E-05-3.53739E-07 1.02477E-02
 -1     17665-2.26824E-01 3.27702E-05 3.60242E-01 2.02326E-05 3.53739E-07-1.02477E-02
 -1     17666-2.34818E-01-2.78738E-05 3.68049E-01-1.26439E-05 2.20433E-07 1.05239E-02
 -1     17668-2.34818E-01-2.78738E-05 3.68049E-01-1.26439E-05-2.20433E-07-1.05239E-02
 -1     17669-5.40725E-02 4.67939E-07 1.87403E-01 7.56473E-06-1.31912E-07 4.21507E-03
 -1     17671-5.40725E-02 4.67939E-07 1.87403E-01 7.56473E-06 1.31912E-07-4.21507E-03
 -1     17672-5.00219E-02-1.16361E-06 1.83351E-01-6.09014E-06 1.06579E-07 4.07365E-03
 -1     17674-5.00219E-02-1.16361E-06 1.83351E-01-6.09014E-06-1.06579E-07-4.07365E-03
 -1     17675-4.89973E-02-1.11572E-06 1.82326E-01-9.56041E-07 1.68195E-08 4.03790E-03
 -1     17677-4.89973E-02-1.11572E-06 1.82326E-01-9.56041E-07-1.68195E-08-4.03790E-03
 -1     17678-4.93098E-02 2.02774E-06 1.82654E-01 3.55872E-06-6.20162E-08 4.04902E-03
 -1     17680-4.93098E-02 2.02774E-06 1.82654E-01 3.55872E-06 6.20162E-08-4.04902E-03
 -1     17681-2.47526E-01 4.04182E-05 3.81059E-01-1.22587E-05 2.13920E-07 1.09726E-02
 -1     17683-2.47526E-01 4.04182E-05 3.81059E-01-1.22587E-05-2.13920E-07-1.09726E-02
 -1     17684-2.33494E-01-1.68281E-05 3.66746E-01 5.56174E-06-9.54713E-08 1.04784E-02
 -1     17686-2.33494E-01-1.68281E-05 3.66746E-01 5.56174E-06 9.54713E-08-1.04784E-02
 -1     17687-8.94632E-02 3.76863E-06 2.22806E-01 8.12161E-06-1.41776E-07 5.45080E-03
 -1     17689-8.94632E-02 3.76863E-06 2.22806E-01 8.12161E-06 1.41776E-07-5.45080E-03
 -1     17690-9.44992E-02-2.25051E-06 2.27820E-01-7.69226E-06 1.34374E-07 5.62628E-03
 -1     17692-9.44992E-02-2.25051E-06 2.27820E-01-7.69226E-06-1.34374E-07-5.62628E-03
 -1     17693-1.00146E-01 1.09273E-06 2.33486E-01 8.90465E-06-1.55343E-07 5.82372E-03
 -1     17695-1.00146E-01 1.09273E-06 2.33486E-01 8.90465E-06 1.55343E-07-5.82372E-03
 -1     17696-1.05688E-01 9.12955E-07 2.39029E-01-8.48481E-06 1.48240E-07 6.01723E-03
 -1     17698-1.05688E-01 9.12955E-07 2.39029E-01-8.48481E-06-1.48240E-07-6.01723E-03
 -1     17699-9.70455E-02-1.18599E-06 2.30372E-01-1.73451E-06 3.03713E-08 5.71538E-03
 -1     17701-9.70455E-02-1.18599E-06 2.30372E-01-1.73451E-06-3.03713E-08-5.71538E-03
 -1     17702-5.12132E-02 8.86312E-07 1.84544E-01 1.13163E-07-1.91269E-09 4.11526E-03
 -1     17704-5.12132E-02 8.86312E-07 1.84544E-01 1.13163E-07 1.91269E-09-4.11526E-03
 -1     17705-5.27440E-02 3.29824E-07 1.86078E-01 3.96219E-06-6.91574E-08 4.16872E-03
 -1     17707-5.27440E-02 3.29824E-07 1.86078E-01 3.96219E-06 6.91574E-08-4.16872E-03
 -1     17708-4.77188E-02-2.14094E-06 1.81039E-01-2.35336E-06 4.13635E-08 3.99307E-03
 -1     17710-4.77188E-02-2.14094E-06 1.81039E-01-2.35336E-06-4.13635E-08-3.99307E-03
 -1     17711-4.71737E-02-2.93049E-06 1.80497E-01-4.27002E-07 7.18387E-09 3.97410E-03
 -1     17713-4.71737E-02-2.93049E-06 1.80497E-01-4.27002E-07-7.18387E-09-3.97410E-03
 -1     17714-5.58134E-02-9.63082E-08 1.89147E-01-3.92597E-06 6.85635E-08 4.27586E-03
 -1     17716-5.58134E-02-9.63082E-08 1.89147E-01-3.92597E-06-6.85635E-08-4.27586E-03
 -1     17717-7.16544E-02 3.08772E-06 2.05002E-01 6.90264E-06-1.20403E-07 4.82916E-03
 -1     17719-7.16544E-02 3.08772E-06 2.05002E-01 6.90264E-06 1.20403E-07-4.82916E-03
 -1     17720-7.56571E-02-3.07415E-06 2.08980E-01-5.76908E-06 1.00824E-07 4.96849E-03
 -1     17722-7.56571E-02-3.07415E-06 2.08980E-01-5.76908E-06-1.00824E-07-4.96849E-03
 -1     17723-5.59736E-02-8.23809E-07 1.89305E-01-8.28383E-08 1.42796E-09 4.28151E-03
 -1     17725-5.59736E-02-8.23809E-07 1.89305E-01-8.28383E-08-1.42796E-09-4.28151E-03
 -1     17726-1.80684E-01-1.22440E-05 3.13967E-01 1.59111E-06-2.69793E-08 8.63490E-03
 -1     17728-1.80684E-01-1.22440E-05 3.13967E-01 1.59111E-06 2.69793E-08-8.63490E-03
 -1     17729-1.83197E-01-8.48315E-06 3.16468E-01 2.69856E-06-4.61204E-08 8.72219E-03
 -1     17731-1.83197E-01-8.48315E-06 3.16468E-01 2.69856E-06 4.61204E-08-8.72219E-03
 -1     17732-1.86460E-01-2.04654E-06 3.19772E-01 1.34342E-05-2.34995E-07 8.83658E-03
 -1     17734-1.86460E-01-2.04654E-06 3.19772E-01 1.34342E-05 2.34995E-07-8.83658E-03
 -1     17735-1.96141E-01-5.72971E-06 3.29445E-01-1.30334E-05 2.27048E-07 9.17444E-03
 -1     17737-1.96141E-01-5.72971E-06 3.29445E-01-1.30334E-05-2.27048E-07-9.17444E-03
 -1     17738-1.99735E-01-1.76153E-05 3.33038E-01-2.25155E-06 4.00362E-08 9.30002E-03
 -1     17740-1.99735E-01-1.76153E-05 3.33038E-01-2.25155E-06-4.00362E-08-9.30002E-03
 -1     17741-1.82953E-01-1.31862E-05 3.16256E-01 1.60849E-06-2.72105E-08 8.71413E-03
 -1     17743-1.82953E-01-1.31862E-05 3.16256E-01 1.60849E-06 2.72105E-08-8.71413E-03
 -1     17744-8.01323E-02 3.07169E-06 2.13475E-01 7.45870E-06-1.30177E-07 5.12504E-03
 -1     17746-8.01323E-02 3.07169E-06 2.13475E-01 7.45870E-06 1.30177E-07-5.12504E-03
 -1     17747-8.46664E-02-2.65109E-06 2.17989E-01-6.45342E-06 1.12689E-07 5.28302E-03
 -1     17749-8.46664E-02-2.65109E-06 2.17989E-01-6.45342E-06-1.12689E-07-5.28302E-03
 -1     17750-7.73178E-02-5.49881E-07 2.10648E-01-1.24846E-06 2.17828E-08 5.02666E-03
 -1     17752-7.73178E-02-5.49881E-07 2.10648E-01-1.24846E-06-2.17828E-08-5.02666E-03
 -1     17753-1.38238E-01 6.43914E-06 2.71585E-01 1.50573E-05-2.62950E-07 7.15372E-03
 -1     17755-1.38238E-01 6.43914E-06 2.71585E-01 1.50573E-05 2.62950E-07-7.15372E-03
 -1     17756-1.46223E-01-1.52979E-06 2.79539E-01-1.68847E-05 2.94966E-07 7.43204E-03
 -1     17758-1.46223E-01-1.52979E-06 2.79539E-01-1.68847E-05-2.94966E-07-7.43204E-03
 -1     17759-1.99983E-01-1.58879E-05 3.33235E-01-7.98451E-06 1.40990E-07 9.30792E-03
 -1     17761-1.99983E-01-1.58879E-05 3.33235E-01-7.98451E-06-1.40990E-07-9.30792E-03
 -1     17762-2.04895E-01-1.65764E-05 3.38162E-01-1.84113E-06 3.39618E-08 9.48017E-03
 -1     17764-2.04895E-01-1.65764E-05 3.38162E-01-1.84113E-06-3.39618E-08-9.48017E-03
 -1     17765-5.10138E-02 9.55462E-07 1.84349E-01 5.04530E-06-8.79371E-08 4.10834E-03
 -1     17767-5.10138E-02 9.55462E-07 1.84349E-01 5.04530E-06 8.79371E-08-4.10834E-03
 -1     17768-5.00419E-02 4.47606E-06 1.83393E-01-1.45834E-06 2.54508E-08 4.07468E-03
 -1     17770-5.00419E-02 4.47606E-06 1.83393E-01-1.45834E-06-2.54508E-08-4.07468E-03
 -1     17771-1.31190E-01-1.68575E-06 2.64513E-01-1.27393E-05 2.22311E-07 6.90725E-03
 -1     17773-1.31190E-01-1.68575E-06 2.64513E-01-1.27393E-05-2.22311E-07-6.90725E-03
 -1     17774-1.34562E-01-1.32383E-06 2.67890E-01-1.73110E-06 3.03035E-08 7.02518E-03
 -1     17776-1.34562E-01-1.32383E-06 2.67890E-01-1.73110E-06-3.03035E-08-7.02518E-03
 -1     17777-1.24274E-01 8.90852E-07 2.57606E-01 1.23277E-05-2.15296E-07 6.66593E-03
 -1     17779-1.24274E-01 8.90852E-07 2.57606E-01 1.23277E-05 2.15296E-07-6.66593E-03
 -1     17780-1.91202E-01 3.61169E-05 3.24623E-01 4.09947E-06-7.15526E-08 9.00401E-03
 -1     17782-1.91202E-01 3.61169E-05 3.24623E-01 4.09947E-06 7.15526E-08-9.00401E-03
 -1     17783-5.27090E-02-2.74597E-07 1.86036E-01 1.21560E-07-2.31936E-09 4.16742E-03
 -1     17785-5.27090E-02-2.74597E-07 1.86036E-01 1.21560E-07 2.31936E-09-4.16742E-03
 -1     17786-5.30496E-02-1.78580E-06 1.86375E-01 4.52352E-06-7.91838E-08 4.17929E-03
 -1     17788-5.30496E-02-1.78580E-06 1.86375E-01 4.52352E-06 7.91838E-08-4.17929E-03
 -1     17789-1.55634E-01-5.27594E-06 2.88979E-01 2.20393E-05-3.84571E-07 7.76111E-03
 -1     17791-1.55634E-01-5.27594E-06 2.88979E-01 2.20393E-05 3.84571E-07-7.76111E-03
 -1     17792-1.65192E-01 1.01337E-05 2.98573E-01-4.22744E-05 7.38979E-07 8.09560E-03
 -1     17794-1.65192E-01 1.01337E-05 2.98573E-01-4.22744E-05-7.38979E-07-8.09560E-03
 -1     17795-1.51008E-01-3.62020E-06 2.84319E-01-1.26107E-06 2.23514E-08 7.59927E-03
 -1     17797-1.51008E-01-3.62020E-06 2.84319E-01-1.26107E-06-2.23514E-08-7.59927E-03
 -1     17798-5.74171E-02-2.64876E-07 1.90749E-01-4.35461E-08 7.84042E-10 4.33186E-03
 -1     17800-5.74171E-02-2.64876E-07 1.90749E-01-4.35461E-08-7.84042E-10-4.33186E-03
 -1     17801-5.22911E-02-5.74072E-07 1.85625E-01-4.44133E-06 7.77114E-08 4.15293E-03
 -1     17803-5.22911E-02-5.74072E-07 1.85625E-01-4.44133E-06-7.77114E-08-4.15293E-03
 -1     17804-8.66018E-02-5.91357E-07 2.19932E-01-1.36217E-06 2.37883E-08 5.35078E-03
 -1     17806-8.66018E-02-5.91357E-07 2.19932E-01-1.36217E-06-2.37883E-08-5.35078E-03
 -1     17807-1.91151E-01 2.42250E-05 3.24591E-01 4.25534E-07-7.43793E-09 9.00259E-03
 -1     17809-1.91151E-01 2.42250E-05 3.24591E-01 4.25534E-07 7.43793E-09-9.00259E-03
 -1     17810-1.82495E-01-8.46537E-07 3.15833E-01-3.96136E-05 6.88901E-07 8.69903E-03
 -1     17812-1.82495E-01-8.46537E-07 3.15833E-01-3.96136E-05-6.88901E-07-8.69903E-03
 -1     17813-5.40573E-02-6.80862E-07 1.87386E-01 2.51776E-07-4.30085E-09 4.21457E-03
 -1     17815-5.40573E-02-6.80862E-07 1.87386E-01 2.51776E-07 4.30085E-09-4.21457E-03
 -1     17816-5.59891E-02-4.36647E-07 1.89317E-01 4.61793E-06-8.04907E-08 4.28192E-03
 -1     17818-5.59891E-02-4.36647E-07 1.89317E-01 4.61793E-06 8.04907E-08-4.28192E-03
 -1     17819-5.92165E-02 2.14543E-06 1.92557E-01-2.88681E-06 5.03829E-08 4.39479E-03
 -1     17821-5.92165E-02 2.14543E-06 1.92557E-01-2.88681E-06-5.03829E-08-4.39479E-03
 -1     17822-5.67331E-02 2.28459E-06 1.90080E-01-6.39110E-06 1.11599E-07 4.30823E-03
 -1     17824-5.67331E-02 2.28459E-06 1.90080E-01-6.39110E-06-1.11599E-07-4.30823E-03
 -1     17825-6.71768E-02-1.85907E-06 2.00498E-01-4.39812E-06 7.72104E-08 4.67243E-03
 -1     17827-6.71768E-02-1.85907E-06 2.00498E-01-4.39812E-06-7.72104E-08-4.67243E-03
 -1     17828-6.83491E-02-8.39782E-07 2.01677E-01-1.48377E-06 2.58104E-08 4.71354E-03
 -1     17830-6.83491E-02-8.39782E-07 2.01677E-01-1.48377E-06-2.58104E-08-4.71354E-03
 -1     17831-1.80358E-01-1.33034E-05 3.13627E-01 3.42416E-05-5.95668E-07 8.62343E-03
 -1     17833-1.80358E-01-1.33034E-05 3.13627E-01 3.42416E-05 5.95668E-07-8.62343E-03
 -1     17834-1.91014E-01 3.35259E-05 3.24514E-01-1.13768E-06 1.98861E-08 8.99912E-03
 -1     17836-1.91014E-01 3.35259E-05 3.24514E-01-1.13768E-06-1.98861E-08-8.99912E-03
 -1     17837-1.67356E-01-2.98469E-06 3.00661E-01 3.50933E-05-6.14956E-07 8.16985E-03
 -1     17839-1.67356E-01-2.98469E-06 3.00661E-01 3.50933E-05 6.14956E-07-8.16985E-03
 -1     17840-1.59749E-01 1.91879E-05 2.93155E-01-6.28272E-06 1.09646E-07 7.90569E-03
 -1     17842-1.59749E-01 1.91879E-05 2.93155E-01-6.28272E-06-1.09646E-07-7.90569E-03
 -1     17843-1.53082E-01-4.11572E-06 2.86382E-01-1.26313E-05 2.19388E-07 7.67131E-03
 -1     17845-1.53082E-01-4.11572E-06 2.86382E-01-1.26313E-05-2.19388E-07-7.67131E-03
 -1     17846-1.43641E-01 7.73404E-06 2.77021E-01 1.48180E-05-2.58924E-07 7.34293E-03
 -1     17848-1.43641E-01 7.73404E-06 2.77021E-01 1.48180E-05 2.58924E-07-7.34293E-03
 -1     17849-1.36987E-01-7.00507E-06 2.70297E-01-1.08351E-05 1.88968E-07 7.10942E-03
 -1     17851-1.36987E-01-7.00507E-06 2.70297E-01-1.08351E-05-1.88968E-07-7.10942E-03
 -1     17852-1.07303E-01-2.88955E-06 2.40616E-01 5.08503E-06-8.93234E-08 6.07316E-03
 -1     17854-1.07303E-01-2.88955E-06 2.40616E-01 5.08503E-06 8.93234E-08-6.07316E-03
 -1     17855-1.02931E-01 7.40681E-06 2.36296E-01 1.08934E-06-1.90172E-08 5.92133E-03
 -1     17857-1.02931E-01 7.40681E-06 2.36296E-01 1.08934E-06 1.90172E-08-5.92133E-03
 -1     17858-9.86008E-02-2.24416E-06 2.31920E-01-6.25506E-06 1.08710E-07 5.76946E-03
 -1     17860-9.86008E-02-2.24416E-06 2.31920E-01-6.25506E-06-1.08710E-07-5.76946E-03
 -1     17861-9.29423E-02 3.65872E-06 2.26292E-01 8.60895E-06-1.50389E-07 5.57239E-03
 -1     17863-9.29423E-02 3.65872E-06 2.26292E-01 8.60895E-06 1.50389E-07-5.57239E-03
 -1     17864-8.83529E-02-3.26804E-06 2.21675E-01-6.49935E-06 1.13361E-07 5.41170E-03
 -1     17866-8.83529E-02-3.26804E-06 2.21675E-01-6.49935E-06-1.13361E-07-5.41170E-03
 -1     17867-8.35429E-02 3.06456E-06 2.16886E-01 7.73350E-06-1.35026E-07 5.24412E-03
 -1     17869-8.35429E-02 3.06456E-06 2.16886E-01 7.73350E-06 1.35026E-07-5.24412E-03
 -1     17870-7.90910E-02-2.45715E-06 2.12415E-01-6.26865E-06 1.09391E-07 5.08839E-03
 -1     17872-7.90910E-02-2.45715E-06 2.12415E-01-6.26865E-06-1.09391E-07-5.08839E-03
 -1     17873-7.46032E-02 3.28612E-06 2.07944E-01 7.47033E-06-1.30405E-07 4.93200E-03
 -1     17875-7.46032E-02 3.28612E-06 2.07944E-01 7.47033E-06 1.30405E-07-4.93200E-03
 -1     17876-7.02919E-02-1.83765E-06 2.03615E-01-6.35801E-06 1.10931E-07 4.78120E-03
 -1     17878-7.02919E-02-1.83765E-06 2.03615E-01-6.35801E-06-1.10931E-07-4.78120E-03
 -1     17879-6.58054E-02 9.76357E-07 1.99144E-01 6.89886E-06-1.20521E-07 4.62483E-03
 -1     17881-6.58054E-02 9.76357E-07 1.99144E-01 6.89886E-06 1.20521E-07-4.62483E-03
 -1     17882-6.17814E-02 2.82991E-07 1.95118E-01-6.15871E-06 1.07430E-07 4.48432E-03
 -1     17884-6.17814E-02 2.82991E-07 1.95118E-01-6.15871E-06-1.07430E-07-4.48432E-03
 -1     17885-2.32577E-01-1.78636E-05 3.65813E-01 9.93521E-06-1.74641E-07 1.04460E-02
 -1     17887-2.32577E-01-1.78636E-05 3.65813E-01 9.93521E-06 1.74641E-07-1.04460E-02
 -1     17888-2.04563E-01-9.78219E-06 3.37823E-01-2.87607E-05 5.03082E-07 9.46864E-03
 -1     17890-2.04563E-01-9.78219E-06 3.37823E-01-2.87607E-05-5.03082E-07-9.46864E-03
 -1     17891-1.11754E-01-1.34101E-06 2.45075E-01 9.86832E-06-1.72314E-07 6.22865E-03
 -1     17893-1.11754E-01-1.34101E-06 2.45075E-01 9.86832E-06 1.72314E-07-6.22865E-03
 -1     17894-1.17924E-01 2.23809E-06 2.51260E-01-1.12463E-05 1.96298E-07 6.44432E-03
 -1     17896-1.17924E-01 2.23809E-06 2.51260E-01-1.12463E-05-1.96298E-07-6.44432E-03
 -1     17897-1.21156E-01-3.40712E-06 2.54486E-01 7.96941E-07-1.40399E-08 6.55716E-03
 -1     17899-1.21156E-01-3.40712E-06 2.54486E-01 7.96941E-07 1.40399E-08-6.55716E-03
 -1     17900-1.08753E-01-1.25595E-06 2.42079E-01 1.26634E-06-2.19397E-08 6.12409E-03
 -1     17902-1.08753E-01-1.25595E-06 2.42079E-01 1.26634E-06 2.19397E-08-6.12409E-03
 -1     17903-1.75376E-01-8.46474E-06 3.08696E-01 7.04270E-06-1.23468E-07 8.45089E-03
 -1     17905-1.75376E-01-8.46474E-06 3.08696E-01 7.04270E-06 1.23468E-07-8.45089E-03
 -1     17906-2.16390E-01-2.20968E-06 3.49705E-01-3.44623E-05 6.00068E-07 9.88183E-03
 -1     17908-2.16390E-01-2.20968E-06 3.49705E-01-3.44623E-05-6.00068E-07-9.88183E-03
 -1     17909-5.76990E-02-8.38110E-07 1.91025E-01 5.98293E-06-1.04489E-07 4.34159E-03
 -1     17911-5.76990E-02-8.38110E-07 1.91025E-01 5.98293E-06 1.04489E-07-4.34159E-03
 -1     17912-5.40148E-02 1.14817E-06 1.87353E-01-4.66326E-06 8.15221E-08 4.21318E-03
 -1     17914-5.40148E-02 1.14817E-06 1.87353E-01-4.66326E-06-8.15221E-08-4.21318E-03
 -1     17915-1.29913E-01 6.13256E-06 2.63271E-01 8.88411E-06-1.55272E-07 6.86322E-03
 -1     17917-1.29913E-01 6.13256E-06 2.63271E-01 8.88411E-06 1.55272E-07-6.86322E-03
 -1     17918-2.20626E-01 3.38819E-05 3.54135E-01 3.00703E-05-5.24737E-07 1.00332E-02
 -1     17920-2.20626E-01 3.38819E-05 3.54135E-01 3.00703E-05 5.24737E-07-1.00332E-02
 -1     17921-5.97818E-02-8.41604E-07 1.93110E-01 7.72449E-07-1.35908E-08 4.41444E-03
 -1     17923-5.97818E-02-8.41604E-07 1.93110E-01 7.72449E-07 1.35908E-08-4.41444E-03
 -1     17924-2.06651E-01-8.46010E-06 3.39928E-01-1.13601E-06 1.83357E-08 9.54200E-03
 -1     17926-2.06651E-01-8.46010E-06 3.39928E-01-1.13601E-06-1.83357E-08-9.54200E-03
 -1     17927-1.24493E-01-1.44988E-06 2.57816E-01-8.98788E-06 1.56531E-07 6.67338E-03
 -1     17929-1.24493E-01-1.44988E-06 2.57816E-01-8.98788E-06-1.56531E-07-6.67338E-03
 -1     17930-2.00267E-01-8.16602E-06 3.33606E-01 3.38558E-05-5.93514E-07 9.31952E-03
 -1     17932-2.00267E-01-8.16602E-06 3.33606E-01 3.38558E-05 5.93514E-07-9.31952E-03
 -3
    1PSTEP                         3           1           1          
  100CL  101 1.000000000       10119                     0    1           1
 -4  TOSTRAIN    6    1
 -5  EXX         1    4    1    1
 -5  EYY         1    4    2    2
 -5  EZZ         1    4    3    3
 -5  EXY         1    4    1    2
 -5  EYZ         1    4    2    3
 -5  EZX         1    4    3    1
 -1      4484-6.25934E-06-1.78543E-07 6.71566E-06-1.81430E-09 3.16714E-11 2.26517E-07
 -1      4485-6.25934E-06-1.78543E-07 6.71566E-06-1.81430E-09-3.12334E-21 4.12528E-20
 -1      4486-6.25934E-06-1.78543E-07 6.71566E-06-1.81430E-09-3.16714E-11-2.26517E-07
 -1      4487-6.24946E-06-1.78773E-07 6.70763E-06-2.20023E-10 3.82991E-12 2.26226E-07
 -1      4488-6.24946E-06-1.78773E-07 6.70763E-06-2.20023E-10-2.10549E-23-4.75729E-22
 -1      4489-6.24946E-06-1.78773E-07 6.70763E-06-2.20023E-10-3.82991E-12-2.26226E-07
 -1      4490-1.77630E-07-1.77776E-07 6.34762E-07-9.70471E-12 1.69408E-13 1.41805E-08
 -1      4491-1.77630E-07-1.77776E-07 6.34762E-07-9.70471E-12 1.03134E-23 9.79270E-22
 -1      4492-1.77630E-07-1.77776E-07 6.34762E-07-9.70471E-12-1.69408E-13-1.41805E-08
 -1      4493-1.77615E-07-1.77777E-07 6.34756E-07-7.06610E-13 1.33996E-14 1.41802E-08
 -1      4494-1.77615E-07-1.77777E-07 6.34756E-07-7.06610E-13-4.50143E-22-1.11805E-21
 -1      4495-1.77615E-07-1.77777E-07 6.34756E-07-7.06610E-13-1.33996E-14-1.41802E-08
 -1      4496-6.25369E-06-1.78624E-07 6.71250E-06 6.01796E-10-1.04883E-11 2.26371E-07
 -1      4497-6.25369E-06-1.78624E-07 6.71250E-06 6.01796E-10 1.07048E-21-2.44387E-21
 -1      4498-6.25369E-06-1.78624E-07 6.71250E-06 6.01796E-10 1.04883E-11-2.26371E-07
 -1      4499-6.25713E-06-1.78074E-07 6.71471E-06 3.10214E-10-5.41924E-12 2.26464E-07
 -1      4500-6.25713E-06-1.78074E-07 6.71471E-06 3.10214E-10-5.32388E-22 9.16719E-21
 -1      4501-6.25713E-06-1.78074E-07 6.71471E-06 3.10214E-10 5.41924E-12-2.26464E-07
 -1      4502-6.25587E-06-1.78137E-07 6.71372E-06 1.26911E-10-2.21652E-12 2.26427E-07
 -1      4503-6.25587E-06-1.78137E-07 6.71372E-06 1.26911E-10 1.38437E-21 4.60177E-20
 -1      4504-6.25587E-06-1.78137E-07 6.71372E-06 1.26911E-10 2.21652E-12-2.26427E-07
 -1      4505-6.25560E-06-1.78162E-07 6.71346E-06 6.24711E-11-1.09048E-12 2.26419E-07
 -1      4506-6.25560E-06-1.78162E-07 6.71346E-06 6.24711E-11 5.38792E-22-1.95082E-20
 -1      4507-6.25560E-06-1.78162E-07 6.71346E-06 6.24711E-11 1.09048E-12-2.26419E-07
 -1      4508-6.25567E-06-1.78144E-07 6.71348E-06 3.19960E-11-5.58246E-13 2.26420E-07
 -1      4509-6.25567E-06-1.78144E-07 6.71348E-06 3.19960E-11-1.22734E-21 2.80182E-20
 -1      4510-6.25567E-06-1.78144E-07 6.71348E-06 3.19960E-11 5.58246E-13-2.26420E-07
 -1      4511-6.25583E-06-1.78145E-07 6.71362E-06 8.65189E-12-1.50461E-13 2.26425E-07
 -1      4512-6.25583E-06-1.78145E-07 6.71362E-06 8.65189E-12 3.96863E-22-3.75342E-20
 -1      4513-6.25583E-06-1.78145E-07 6.71362E-06 8.65189E-12 1.50461E-13-2.26425E-07
 -1      4514-6.25607E-06-1.78143E-07 6.71384E-06-3.00801E-12 5.32458E-14 2.26433E-07
 -1      4515-6.25607E-06-1.78143E-07 6.71384E-06-3.00801E-12-5.19516E-22-6.39745E-22
 -1      4516-6.25607E-06-1.78143E-07 6.71384E-06-3.00801E-12-5.32458E-14-2.26433E-07
 -1      4517-6.25632E-06-1.78143E-07 6.71408E-06-7.60631E-12 1.33407E-13 2.26440E-07
 -1      4518-6.25632E-06-1.78143E-07 6.71408E-06-7.60631E-12-1.53055E-22-5.13868E-20
 -1      4519-6.25632E-06-1.78143E-07 6.71408E-06-7.60631E-12-1.33407E-13-2.26440E-07
 -1      4520-6.25651E-06-1.78141E-07 6.71426E-06-7.27600E-12 1.27442E-13 2.26446E-07
 -1      4521-6.25651E-06-1.78141E-07 6.71426E-06-7.27600E-12 2.35603E-22-1.56261E-20
 -1      4522-6.25651E-06-1.78141E-07 6.71426E-06-7.27600E-12-1.27442E-13-2.26446E-07
 -1      4523-6.25663E-06-1.78139E-07 6.71438E-06-5.58811E-12 9.77707E-14 2.26450E-07
 -1      4524-6.25663E-06-1.78139E-07 6.71438E-06-5.58811E-12 1.72529E-21-3.62196E-20
 -1      4525-6.25663E-06-1.78139E-07 6.71438E-06-5.58811E-12-9.77707E-14-2.26450E-07
 -1      4526-6.25669E-06-1.78139E-07 6.71443E-06-3.04708E-12 5.32626E-14 2.26452E-07
 -1      4527-6.25669E-06-1.78139E-07 6.71443E-06-3.04708E-12-4.70137E-22 5.00145E-20
 -1      4528-6.25669E-06-1.78139E-07 6.71443E-06-3.04708E-12-5.32626E-14-2.26452E-07
 -1      4529-6.25670E-06-1.78138E-07 6.71444E-06-1.24048E-12 2.16415E-14 2.26452E-07
 -1      4530-6.25670E-06-1.78138E-07 6.71444E-06-1.24048E-12-1.19729E-21-3.42035E-20
 -1      4531-6.25670E-06-1.78138E-07 6.71444E-06-1.24048E-12-2.16416E-14-2.26452E-07
 -1      4532-6.25669E-06-1.78139E-07 6.71444E-06-5.04217E-13 8.77749E-15 2.26452E-07
 -1      4533-6.25669E-06-1.78139E-07 6.71444E-06-5.04217E-13-5.51782E-23-2.12289E-20
 -1      4534-6.25669E-06-1.78139E-07 6.71444E-06-5.04217E-13-8.77749E-15-2.26452E-07
 -1      4535-6.25668E-06-1.78140E-07 6.71443E-06 3.55263E-13-6.23028E-15 2.26452E-07
 -1      4536-6.25668E-06-1.78140E-07 6.71443E-06 3.55263E-13 8.33595E-22-3.67711E-20
 -1      4537-6.25668E-06-1.78140E-07 6.71443E-06 3.55263E-13 6.23028E-15-2.26452E-07
 -1      4538-6.25668E-06-1.78141E-07 6.71442E-06 1.13144E-12-1.97410E-14 2.26452E-07
 -1      4539-6.25668E-06-1.78141E-07 6.71442E-06 1.13144E-12-3.39304E-23-2.55611E-20
 -1      4540-6.25668E-06-1.78141E-07 6.71442E-06 1.13144E-12 1.97410E-14-2.26452E-07
 -1      4541-6.25670E-06-1.78139E-07 6.71444E-06 1.59402E-12-2.77388E-14 2.26452E-07
 -1      4542-6.25670E-06-1.78139E-07 6.71444E-06 1.59402E-12-6.51885E-22-2.46126E-20
 -1      4543-6.25670E-06-1.78139E-07 6.71444E-06 1.59402E-12 2.77388E-14-2.26452E-07
 -1      4544-6.25674E-06-1.78139E-07 6.71447E-06 4.35743E-12-7.59398E-14 2.26453E-07
 -1      4545-6.25674E-06-1.78139E-07 6.71447E-06 4.35743E-12 6.98190E-22 1.11878E-20
 -1      4546-6.25674E-06-1.78139E-07 6.71447E-06 4.35743E-12 7.59398E-14-2.26453E-07
 -1      4547-6.25676E-06-1.78141E-07 6.71449E-06 1.06394E-11-1.85716E-13 2.26454E-07
 -1      4548-6.25676E-06-1.78141E-07 6.71449E-06 1.06394E-11-4.87022E-22-1.06586E-20
 -1      4549-6.25676E-06-1.78141E-07 6.71449E-06 1.06394E-11 1.85716E-13-2.26454E-07
 -1      4550-6.25669E-06-1.78147E-07 6.71442E-06 2.27763E-11-3.97966E-13 2.26452E-07
 -1      4551-6.25669E-06-1.78147E-07 6.71442E-06 2.27763E-11-1.89391E-22-3.03533E-21
 -1      4552-6.25669E-06-1.78147E-07 6.71442E-06 2.27763E-11 3.97966E-13-2.26452E-07
 -1      4553-6.25651E-06-1.78145E-07 6.71422E-06 3.95424E-11-6.90980E-13 2.26446E-07
 -1      4554-6.25651E-06-1.78145E-07 6.71422E-06 3.95424E-11-1.24016E-22-2.35097E-20
 -1      4555-6.25651E-06-1.78145E-07 6.71422E-06 3.95424E-11 6.90980E-13-2.26446E-07
 -1      4556-6.25624E-06-1.78145E-07 6.71395E-06 5.44163E-11-9.50683E-13 2.26437E-07
 -1      4557-6.25624E-06-1.78145E-07 6.71395E-06 5.44163E-11-4.85885E-23 2.54985E-21
 -1      4558-6.25624E-06-1.78145E-07 6.71395E-06 5.44163E-11 9.50683E-13-2.26437E-07
 -1      4559-6.25587E-06-1.78171E-07 6.71357E-06 9.28634E-11-1.62229E-12 2.26425E-07
 -1      4560-6.25587E-06-1.78171E-07 6.71357E-06 9.28634E-11-5.21656E-23 4.53868E-20
 -1      4561-6.25587E-06-1.78171E-07 6.71357E-06 9.28634E-11 1.62229E-12-2.26425E-07
 -1      4562-6.25546E-06-1.78118E-07 6.71307E-06 2.09079E-10-3.65113E-12 2.26411E-07
 -1      4563-6.25546E-06-1.78118E-07 6.71307E-06 2.09079E-10 7.90961E-23-3.49092E-20
 -1      4564-6.25546E-06-1.78118E-07 6.71307E-06 2.09079E-10 3.65113E-12-2.26411E-07
 -1      4565-6.25487E-06-1.77873E-07 6.71193E-06 8.10505E-11-1.42059E-12 2.26384E-07
 -1      4566-6.25487E-06-1.77873E-07 6.71193E-06 8.10505E-11-8.11081E-23 1.89437E-20
 -1      4567-6.25487E-06-1.77873E-07 6.71193E-06 8.10505E-11 1.42059E-12-2.26384E-07
 -1      4568-5.32405E-06-1.76233E-07 5.78072E-06 4.10303E-10-7.16283E-12 1.93864E-07
 -1      4569-5.32405E-06-1.76233E-07 5.78072E-06 4.10303E-10 3.02499E-22-6.70728E-20
 -1      4570-5.32405E-06-1.76233E-07 5.78072E-06 4.10303E-10 7.16283E-12-1.93864E-07
 -1      4571-4.59885E-06-1.78151E-07 5.05616E-06-1.26181E-10 2.18529E-12 1.68561E-07
 -1      4572-4.59885E-06-1.78151E-07 5.05616E-06-1.26181E-10 2.49193E-23-1.06332E-20
 -1      4573-4.59885E-06-1.78151E-07 5.05616E-06-1.26181E-10-2.18529E-12-1.68561E-07
 -1      4574-4.01304E-06-1.77761E-07 4.47033E-06 2.22747E-11-4.15847E-13 1.48095E-07
 -1      4575-4.01304E-06-1.77761E-07 4.47033E-06 2.22747E-11-1.65218E-22-1.46322E-20
 -1      4576-4.01304E-06-1.77761E-07 4.47033E-06 2.22747E-11 4.15847E-13-1.48095E-07
 -1      4577-3.50806E-06-1.77807E-07 3.96525E-06 1.14852E-10-2.02362E-12 1.30462E-07
 -1      4578-3.50806E-06-1.77807E-07 3.96525E-06 1.14852E-10 1.31571E-22 6.84365E-21
 -1      4579-3.50806E-06-1.77807E-07 3.96525E-06 1.14852E-10 2.02362E-12-1.30462E-07
 -1      4580-3.10282E-06-1.77772E-07 3.55996E-06 5.55698E-11-9.84083E-13 1.16311E-07
 -1      4581-3.10282E-06-1.77772E-07 3.55996E-06 5.55698E-11-1.14882E-22-3.74877E-22
 -1      4582-3.10282E-06-1.77772E-07 3.55996E-06 5.55698E-11 9.84083E-13-1.16311E-07
 -1      4583-2.75984E-06-1.77776E-07 3.21698E-06 2.05483E-11-3.70940E-13 1.04335E-07
 -1      4584-2.75984E-06-1.77776E-07 3.21698E-06 2.05483E-11 9.42732E-23 1.49133E-21
 -1      4585-2.75984E-06-1.77776E-07 3.21698E-06 2.05483E-11 3.70940E-13-1.04335E-07
 -1      4586-2.45689E-06-1.77779E-07 2.91403E-06 3.82607E-11-6.78357E-13 9.37573E-08
 -1      4587-2.45689E-06-1.77779E-07 2.91403E-06 3.82607E-11-1.07214E-22 4.70701E-21
 -1      4588-2.45689E-06-1.77779E-07 2.91403E-06 3.82607E-11 6.78357E-13-9.37573E-08
 -1      4589-2.20678E-06-1.77774E-07 2.66391E-06 1.69562E-11-3.04414E-13 8.50243E-08
 -1      4590-2.20678E-06-1.77774E-07 2.66391E-06 1.69562E-11 5.78576E-23-9.82037E-22
 -1      4591-2.20678E-06-1.77774E-07 2.66391E-06 1.69562E-11 3.04414E-13-8.50243E-08
 -1      4592-1.98992E-06-1.77777E-07 2.44706E-06 6.09480E-12-1.14289E-13 7.74530E-08
 -1      4593-1.98992E-06-1.77777E-07 2.44706E-06 6.09480E-12 2.05242E-23 7.83469E-21
 -1      4594-1.98992E-06-1.77777E-07 2.44706E-06 6.09480E-12 1.14289E-13-7.74530E-08
 -1      4595-1.79403E-06-1.77777E-07 2.25118E-06 2.02447E-11-3.60386E-13 7.06137E-08
 -1      4596-1.79403E-06-1.77777E-07 2.25118E-06 2.02447E-11-2.99437E-24 1.41770E-21
 -1      4597-1.79403E-06-1.77777E-07 2.25118E-06 2.02447E-11 3.60386E-13-7.06137E-08
 -1      4598-1.62898E-06-1.77774E-07 2.08612E-06 9.50136E-12-1.71573E-13 6.48508E-08
 -1      4599-1.62898E-06-1.77774E-07 2.08612E-06 9.50136E-12 3.25133E-23 1.29865E-22
 -1      4600-1.62898E-06-1.77774E-07 2.08612E-06 9.50136E-12 1.71573E-13-6.48508E-08
 -1      4601-1.48326E-06-1.77776E-07 1.94040E-06 3.00294E-12-5.78199E-14 5.97633E-08
 -1      4602-1.48326E-06-1.77776E-07 1.94040E-06 3.00294E-12 1.44503E-22-1.72540E-20
 -1      4603-1.48326E-06-1.77776E-07 1.94040E-06 3.00294E-12 5.78199E-14-5.97633E-08
 -1      4604-1.34938E-06-1.77777E-07 1.80652E-06 1.15549E-11-2.06524E-13 5.50892E-08
 -1      4605-1.34938E-06-1.77777E-07 1.80652E-06 1.15549E-11-3.44163E-23 3.96142E-21
 -1      4606-1.34938E-06-1.77777E-07 1.80652E-06 1.15549E-11 2.06524E-13-5.50892E-08
 -1      4607-1.23481E-06-1.77775E-07 1.69194E-06 5.23160E-12-9.53136E-14 5.10887E-08
 -1      4608-1.23481E-06-1.77775E-07 1.69194E-06 5.23160E-12-6.13436E-23-1.93173E-21
 -1      4609-1.23481E-06-1.77775E-07 1.69194E-06 5.23160E-12 9.53136E-14-5.10887E-08
 -1      4610-1.13222E-06-1.77776E-07 1.58936E-06 1.31093E-12-2.67051E-14 4.75073E-08
 -1      4611-1.13222E-06-1.77776E-07 1.58936E-06 1.31093E-12-1.68979E-23-9.66268E-21
 -1      4612-1.13222E-06-1.77776E-07 1.58936E-06 1.31093E-12 2.67051E-14-4.75073E-08
 -1      4613-1.03672E-06-1.77776E-07 1.49386E-06 6.95813E-12-1.24921E-13 4.41729E-08
 -1      4614-1.03672E-06-1.77776E-07 1.49386E-06 6.95813E-12-6.84601E-23 2.40931E-21
 -1      4615-1.03672E-06-1.77776E-07 1.49386E-06 6.95813E-12 1.24921E-13-4.41729E-08
 -1      4616-9.53962E-07-1.77776E-07 1.41110E-06 3.00738E-12-5.54037E-14 4.12837E-08
 -1      4617-9.53962E-07-1.77776E-07 1.41110E-06 3.00738E-12-7.94209E-23 1.67057E-21
 -1      4618-9.53962E-07-1.77776E-07 1.41110E-06 3.00738E-12 5.54037E-14-4.12837E-08
 -1      4619-8.79052E-07-1.77776E-07 1.33619E-06 2.67083E-12-4.92552E-14 3.86684E-08
 -1      4620-8.79052E-07-1.77776E-07 1.33619E-06 2.67083E-12-3.09336E-23 9.19843E-22
 -1      4621-8.79052E-07-1.77776E-07 1.33619E-06 2.67083E-12 4.92552E-14-3.86684E-08
 -1      4622-8.11028E-07-1.77776E-07 1.26817E-06 4.05997E-13-9.63979E-15 3.62936E-08
 -1      4623-8.11028E-07-1.77776E-07 1.26817E-06 4.05997E-13-1.86087E-23-4.16726E-21
 -1      4624-8.11028E-07-1.77776E-07 1.26817E-06 4.05997E-13 9.63979E-15-3.62936E-08
 -1      4625-7.46821E-07-1.77776E-07 1.20396E-06 3.83420E-12-6.92646E-14 3.40520E-08
 -1      4626-7.46821E-07-1.77776E-07 1.20396E-06 3.83420E-12-3.05128E-23 8.79866E-21
 -1      4627-7.46821E-07-1.77776E-07 1.20396E-06 3.83420E-12 6.92646E-14-3.40520E-08
 -1      4628-6.90465E-07-1.77776E-07 1.14760E-06 1.63567E-12-3.05332E-14 3.20844E-08
 -1      4629-6.90465E-07-1.77776E-07 1.14760E-06 1.63567E-12 1.48379E-22 2.00614E-21
 -1      4630-6.90465E-07-1.77776E-07 1.14760E-06 1.63567E-12 3.05332E-14-3.20844E-08
 -1      4631-6.38837E-07-1.77776E-07 1.09598E-06 1.52843E-13-4.60816E-15 3.02820E-08
 -1      4632-6.38837E-07-1.77776E-07 1.09598E-06 1.52843E-13-2.49189E-23-3.93552E-21
 -1      4633-6.38837E-07-1.77776E-07 1.09598E-06 1.52843E-13 4.60816E-15-3.02820E-08
 -1      4634-5.89702E-07-1.77776E-07 1.04684E-06 2.59199E-12-4.70334E-14 2.85666E-08
 -1      4635-5.89702E-07-1.77776E-07 1.04684E-06 2.59199E-12 7.31762E-24-1.85383E-21
 -1      4636-5.89702E-07-1.77776E-07 1.04684E-06 2.59199E-12 4.70334E-14-2.85666E-08
 -1      4637-5.46237E-07-1.77776E-07 1.00338E-06 1.09108E-12-2.05732E-14 2.70492E-08
 -1      4638-5.46237E-07-1.77776E-07 1.00338E-06 1.09108E-12 3.15480E-23 7.99023E-22
 -1      4639-5.46237E-07-1.77776E-07 1.00338E-06 1.09108E-12 2.05732E-14-2.70492E-08
 -1      4640-5.06133E-07-1.77776E-07 9.63271E-07 5.85369E-14-2.52441E-15 2.56491E-08
 -1      4641-5.06133E-07-1.77776E-07 9.63271E-07 5.85369E-14 3.76888E-23-3.13786E-21
 -1      4642-5.06133E-07-1.77776E-07 9.63271E-07 5.85369E-14 2.52441E-15-2.56491E-08
 -1      4643-4.67698E-07-1.77776E-07 9.24837E-07 1.83364E-12-3.34003E-14 2.43073E-08
 -1      4644-4.67698E-07-1.77776E-07 9.24837E-07 1.83364E-12 7.06359E-23 9.58636E-22
 -1      4645-4.67698E-07-1.77776E-07 9.24837E-07 1.83364E-12 3.34003E-14-2.43073E-08
 -1      4646-4.33475E-07-1.77776E-07 8.90613E-07 7.76284E-13-1.47424E-14 2.31125E-08
 -1      4647-4.33475E-07-1.77776E-07 8.90613E-07 7.76284E-13-2.58446E-23-3.13788E-22
 -1      4648-4.33475E-07-1.77776E-07 8.90613E-07 7.76284E-13 1.47424E-14-2.31125E-08
 -1      4649-4.01704E-07-1.77776E-07 8.58843E-07-1.51197E-14-9.19647E-16 2.20033E-08
 -1      4650-4.01704E-07-1.77776E-07 8.58843E-07-1.51197E-14-8.69351E-23-9.20356E-22
 -1      4651-4.01704E-07-1.77776E-07 8.58843E-07-1.51197E-14 9.19647E-16-2.20033E-08
 -1      4652-3.71076E-07-1.77776E-07 8.28215E-07 1.26931E-12-2.32580E-14 2.09341E-08
 -1      4653-3.71076E-07-1.77776E-07 8.28215E-07 1.26931E-12-4.03298E-23-1.46751E-21
 -1      4654-3.71076E-07-1.77776E-07 8.28215E-07 1.26931E-12 2.32580E-14-2.09341E-08
 -1      4655-3.43649E-07-1.77776E-07 8.00787E-07 4.16797E-13-8.23934E-15 1.99765E-08
 -1      4656-3.43649E-07-1.77776E-07 8.00787E-07 4.16797E-13-1.31198E-22-1.76745E-21
 -1      4657-3.43649E-07-1.77776E-07 8.00787E-07 4.16797E-13 8.23934E-15-1.99765E-08
 -1      4658-3.18055E-07-1.77776E-07 7.75193E-07-2.83736E-13 3.96726E-15 1.90830E-08
 -1      4659-3.18055E-07-1.77776E-07 7.75193E-07-2.83736E-13 9.68711E-23-3.54386E-21
 -1      4660-3.18055E-07-1.77776E-07 7.75193E-07-2.83736E-13-3.96726E-15-1.90830E-08
 -1      4661-2.93254E-07-1.77776E-07 7.50393E-07 6.60394E-13-1.24849E-14 1.82172E-08
 -1      4662-2.93254E-07-1.77776E-07 7.50393E-07 6.60394E-13-5.11653E-23 3.32257E-21
 -1      4663-2.93254E-07-1.77776E-07 7.50393E-07 6.60394E-13 1.24849E-14-1.82172E-08
 -1      4664-2.70937E-07-1.77776E-07 7.28075E-07 2.91261E-13-5.92081E-15 1.74380E-08
 -1      4665-2.70937E-07-1.77776E-07 7.28075E-07 2.91261E-13 8.06504E-24 2.90455E-21
 -1      4666-2.70937E-07-1.77776E-07 7.28075E-07 2.91261E-13 5.92081E-15-1.74380E-08
 -1      4667-2.50015E-07-1.77776E-07 7.07153E-07 3.61860E-13-7.11846E-15 1.67077E-08
 -1      4668-2.50015E-07-1.77776E-07 7.07153E-07 3.61860E-13 2.34569E-23-2.01434E-22
 -1      4669-2.50015E-07-1.77776E-07 7.07153E-07 3.61860E-13 7.11846E-15-1.67077E-08
 -1      4670-2.29652E-07-1.77776E-07 6.86789E-07 1.10997E-12-2.00554E-14 1.59968E-08
 -1      4671-2.29652E-07-1.77776E-07 6.86789E-07 1.10997E-12 8.01885E-23-2.28719E-22
 -1      4672-2.29652E-07-1.77776E-07 6.86789E-07 1.10997E-12 2.00554E-14-1.59968E-08
 -1      4673-2.11249E-07-1.77775E-07 6.68386E-07 3.56982E-13-6.75388E-15 1.53543E-08
 -1      4674-2.11249E-07-1.77775E-07 6.68386E-07 3.56982E-13 6.17610E-23-3.82636E-21
 -1      4675-2.11249E-07-1.77775E-07 6.68386E-07 3.56982E-13 6.75388E-15-1.53543E-08
 -1      4676-1.93918E-07-1.77772E-07 6.51046E-07 3.74261E-12-6.49851E-14 1.47491E-08
 -1      4677-1.93918E-07-1.77772E-07 6.51046E-07 3.74261E-12 4.58851E-23-7.17342E-22
 -1      4678-1.93918E-07-1.77772E-07 6.51046E-07 3.74261E-12 6.49851E-14-1.47491E-08
 -1      4679-1.77548E-07-1.77778E-07 6.34698E-07 3.05651E-12-5.36669E-14 1.41781E-08
 -1      4680-1.77548E-07-1.77778E-07 6.34698E-07 3.05651E-12-5.48492E-23-4.26898E-21
 -1      4681-1.77548E-07-1.77778E-07 6.34698E-07 3.05651E-12 5.36669E-14-1.41781E-08
 -1      4682-1.77613E-07-1.77777E-07 6.34751E-07 2.10133E-12-3.65465E-14 1.41800E-08
 -1      4683-1.77613E-07-1.77777E-07 6.34751E-07 2.10133E-12-3.42201E-23 7.70546E-22
 -1      4684-1.77613E-07-1.77777E-07 6.34751E-07 2.10133E-12 3.65465E-14-1.41800E-08
 -1      4685-1.77606E-07-1.77778E-07 6.34748E-07-9.90093E-13 1.72300E-14 1.41799E-08
 -1      4686-1.77606E-07-1.77778E-07 6.34748E-07-9.90093E-13 1.06553E-23-2.88520E-22
 -1      4687-1.77606E-07-1.77778E-07 6.34748E-07-9.90093E-13-1.72300E-14-1.41799E-08
 -1      4688-1.77610E-07-1.77778E-07 6.34751E-07-3.79227E-13 6.57839E-15 1.41800E-08
 -1      4689-1.77610E-07-1.77778E-07 6.34751E-07-3.79227E-13-1.67423E-23-1.52047E-21
 -1      4690-1.77610E-07-1.77778E-07 6.34751E-07-3.79227E-13-6.57839E-15-1.41800E-08
 -1      4691-1.77612E-07-1.77778E-07 6.34753E-07-2.39539E-13 4.17175E-15 1.41801E-08
 -1      4692-1.77612E-07-1.77778E-07 6.34753E-07-2.39539E-13-3.60436E-23-4.50245E-21
 -1      4693-1.77612E-07-1.77778E-07 6.34753E-07-2.39539E-13-4.17175E-15-1.41801E-08
 -1      4694-1.77612E-07-1.77778E-07 6.34753E-07-1.39730E-13 2.44663E-15 1.41801E-08
 -1      4695-1.77612E-07-1.77778E-07 6.34753E-07-1.39730E-13 1.08744E-22-1.51358E-21
 -1      4696-1.77612E-07-1.77778E-07 6.34753E-07-1.39730E-13-2.44663E-15-1.41801E-08
 -1      4697-1.77612E-07-1.77778E-07 6.34753E-07-8.29903E-14 1.45797E-15 1.41800E-08
 -1      4698-1.77612E-07-1.77778E-07 6.34753E-07-8.29903E-14-4.69667E-23 1.24518E-22
 -1      4699-1.77612E-07-1.77778E-07 6.34753E-07-8.29903E-14-1.45797E-15-1.41800E-08
 -1      4700-1.77611E-07-1.77778E-07 6.34752E-07-4.30031E-14 7.56525E-16 1.41800E-08
 -1      4701-1.77611E-07-1.77778E-07 6.34752E-07-4.30031E-14 6.77933E-23-1.86430E-21
 -1      4702-1.77611E-07-1.77778E-07 6.34752E-07-4.30031E-14-7.56525E-16-1.41800E-08
 -1      4703-1.77611E-07-1.77778E-07 6.34752E-07-2.10492E-14 3.69215E-16 1.41800E-08
 -1      4704-1.77611E-07-1.77778E-07 6.34752E-07-2.10492E-14-3.58566E-23 2.21287E-21
 -1      4705-1.77611E-07-1.77778E-07 6.34752E-07-2.10492E-14-3.69215E-16-1.41800E-08
 -1      4706-1.77611E-07-1.77778E-07 6.34752E-07-1.14405E-14 1.99191E-16 1.41800E-08
 -1      4707-1.77611E-07-1.77778E-07 6.34752E-07-1.14405E-14-1.19528E-22-8.71132E-22
 -1      4708-1.77611E-07-1.77778E-07 6.34752E-07-1.14405E-14-1.99192E-16-1.41800E-08
 -1      4709-1.77611E-07-1.77778E-07 6.34752E-07-4.22751E-15 7.18420E-17 1.41800E-08
 -1      4710-1.77611E-07-1.77778E-07 6.34752E-07-4.22750E-15-1.17575E-22 3.39795E-21
 -1      4711-1.77611E-07-1.77778E-07 6.34752E-07-4.22749E-15-7.18423E-17-1.41800E-08
 -1      4712-1.77611E-07-1.77778E-07 6.34752E-07-1.11107E-15 1.79655E-17 1.41800E-08
 -1      4713-1.77611E-07-1.77778E-07 6.34752E-07-1.11107E-15-3.02565E-22 1.41795E-21
 -1      4714-1.77611E-07-1.77778E-07 6.34752E-07-1.11107E-15-1.79661E-17-1.41800E-08
 -1      4715-1.77611E-07-1.77778E-07 6.34752E-07 3.45754E-15-6.13238E-17 1.41800E-08
 -1      4716-1.77611E-07-1.77778E-07 6.34752E-07 3.45754E-15-3.88108E-22-6.15975E-23
 -1      4717-1.77611E-07-1.77778E-07 6.34752E-07 3.45753E-15 6.13230E-17-1.41800E-08
 -1      4718-1.77611E-07-1.77778E-07 6.34752E-07 3.76066E-15-6.57565E-17 1.41800E-08
 -1      4719-1.77611E-07-1.77778E-07 6.34752E-07 3.76066E-15 1.63680E-22 1.52135E-21
 -1      4720-1.77611E-07-1.77778E-07 6.34752E-07 3.76067E-15 6.57568E-17-1.41800E-08
 -1      4721-1.77611E-07-1.77778E-07 6.34752E-07 3.76122E-15-6.72677E-17 1.41800E-08
 -1      4722-1.77611E-07-1.77778E-07 6.34752E-07 3.76122E-15-3.82560E-22-3.16921E-22
 -1      4723-1.77611E-07-1.77778E-07 6.34752E-07 3.76122E-15 6.72669E-17-1.41800E-08
 -1      4724-1.77611E-07-1.77778E-07 6.34752E-07-2.63687E-15 4.23950E-17 1.41800E-08
 -1      4725-1.77611E-07-1.77778E-07 6.34752E-07-2.63686E-15 2.89412E-22-5.30609E-22
 -1      4726-1.77611E-07-1.77778E-07 6.34752E-07-2.63686E-15-4.23944E-17-1.41800E-08
 -1      4727-1.77611E-07-1.77778E-07 6.34753E-07-8.05824E-15 1.35225E-16 1.41800E-08
 -1      4728-1.77611E-07-1.77778E-07 6.34753E-07-8.05824E-15-4.22498E-23-1.66991E-21
 -1      4729-1.77611E-07-1.77778E-07 6.34753E-07-8.05824E-15-1.35225E-16-1.41800E-08
 -1      4730-1.77612E-07-1.77778E-07 6.34753E-07-1.37813E-14 2.35891E-16 1.41800E-08
 -1      4731-1.77612E-07-1.77778E-07 6.34753E-07-1.37813E-14-4.41829E-22 1.14700E-23
 -1      4732-1.77612E-07-1.77778E-07 6.34753E-07-1.37813E-14-2.35892E-16-1.41800E-08
 -1      4733-1.77612E-07-1.77778E-07 6.34753E-07-1.99297E-14 3.51522E-16 1.41800E-08
 -1      4734-1.77612E-07-1.77778E-07 6.34753E-07-1.99297E-14 1.55535E-22 4.42393E-21
 -1      4735-1.77612E-07-1.77778E-07 6.34753E-07-1.99297E-14-3.51522E-16-1.41800E-08
 -1      4736-1.77611E-07-1.77778E-07 6.34752E-07-1.96376E-14 3.63389E-16 1.41800E-08
 -1      4737-1.77611E-07-1.77778E-07 6.34752E-07-1.96376E-14 3.44834E-23 2.44735E-22
 -1      4738-1.77611E-07-1.77778E-07 6.34752E-07-1.96376E-14-3.63389E-16-1.41800E-08
 -1      4739-1.77608E-07-1.77778E-07 6.34750E-07-2.66556E-14 4.99031E-16 1.41799E-08
 -1      4740-1.77608E-07-1.77778E-07 6.34750E-07-2.66556E-14-2.55832E-22 1.14140E-21
 -1      4741-1.77608E-07-1.77778E-07 6.34750E-07-2.66556E-14-4.99031E-16-1.41799E-08
 -1      4742-1.77608E-07-1.77778E-07 6.34750E-07-2.87364E-13 4.99279E-15 1.41799E-08
 -1      4743-1.77608E-07-1.77778E-07 6.34750E-07-2.87364E-13-1.19437E-22-8.61205E-22
 -1      4744-1.77608E-07-1.77778E-07 6.34750E-07-2.87364E-13-4.99279E-15-1.41799E-08
 -1      4745-1.77616E-07-1.77778E-07 6.34756E-07-4.81886E-13 8.24653E-15 1.41802E-08
 -1      4746-1.77616E-07-1.77778E-07 6.34756E-07-4.81886E-13 2.30733E-22-1.31781E-21
 -1      4747-1.77616E-07-1.77778E-07 6.34756E-07-4.81886E-13-8.24653E-15-1.41802E-08
 -1      4748-1.77633E-07-1.77777E-07 6.34771E-07-5.89806E-13 1.00034E-14 1.41807E-08
 -1      4749-1.77633E-07-1.77777E-07 6.34771E-07-5.89806E-13-6.64212E-22-1.32084E-21
 -1      4750-1.77633E-07-1.77777E-07 6.34771E-07-5.89806E-13-1.00034E-14-1.41807E-08
 -1      4751-5.31906E-06-1.76914E-07 5.77596E-06 1.26425E-10-2.18122E-12 1.93708E-07
 -1      4752-5.31906E-06-1.76914E-07 5.77596E-06 1.26425E-10 4.19339E-22-5.80658E-20
 -1      4753-5.31906E-06-1.76914E-07 5.77596E-06 1.26425E-10 2.18122E-12-1.93708E-07
 -1      4754-4.60279E-06-1.77556E-07 5.05982E-06 5.70443E-11-9.66027E-13 1.68683E-07
 -1      4755-4.60279E-06-1.77556E-07 5.05982E-06 5.70443E-11 5.67515E-22-1.31516E-20
 -1      4756-4.60279E-06-1.77556E-07 5.05982E-06 5.70443E-11 9.66027E-13-1.68683E-07
 -1      4757-4.01284E-06-1.77614E-07 4.46994E-06 9.58811E-12-1.47295E-13 1.48086E-07
 -1      4758-4.01284E-06-1.77614E-07 4.46994E-06 9.58811E-12-6.64199E-22 5.89511E-21
 -1      4759-4.01284E-06-1.77614E-07 4.46994E-06 9.58811E-12 1.47295E-13-1.48086E-07
 -1      4760-3.50803E-06-1.77627E-07 3.96508E-06 1.60745E-11-2.64937E-13 1.30459E-07
 -1      4761-3.50803E-06-1.77627E-07 3.96508E-06 1.60745E-11-8.20651E-22-1.44248E-20
 -1      4762-3.50803E-06-1.77627E-07 3.96508E-06 1.60745E-11 2.64937E-13-1.30459E-07
 -1      4763-3.10284E-06-1.77661E-07 3.55989E-06 2.59944E-11-4.41172E-13 1.16310E-07
 -1      4764-3.10284E-06-1.77661E-07 3.55989E-06 2.59944E-11-2.40613E-22-4.01667E-21
 -1      4765-3.10284E-06-1.77661E-07 3.55989E-06 2.59944E-11 4.41172E-13-1.16310E-07
 -1      4766-2.75989E-06-1.77672E-07 3.21696E-06 2.74310E-11-4.67251E-13 1.04336E-07
 -1      4767-2.75989E-06-1.77672E-07 3.21696E-06 2.74310E-11-8.40147E-22-1.54074E-20
 -1      4768-2.75989E-06-1.77672E-07 3.21696E-06 2.74310E-11 4.67251E-13-1.04336E-07
 -1      4769-2.45692E-06-1.77689E-07 2.91401E-06 2.47121E-12-3.29742E-14 9.37576E-08
 -1      4770-2.45692E-06-1.77689E-07 2.91401E-06 2.47121E-12 1.09411E-21 3.20706E-21
 -1      4771-2.45692E-06-1.77689E-07 2.91401E-06 2.47121E-12 3.29742E-14-9.37576E-08
 -1      4772-2.20681E-06-1.77713E-07 2.66390E-06 1.01796E-11-1.69570E-13 8.50246E-08
 -1      4773-2.20681E-06-1.77713E-07 2.66390E-06 1.01796E-11 7.97877E-22-2.04792E-20
 -1      4774-2.20681E-06-1.77713E-07 2.66390E-06 1.01796E-11 1.69570E-13-8.50246E-08
 -1      4775-1.98995E-06-1.77717E-07 2.44705E-06 1.25223E-11-2.11042E-13 7.74534E-08
 -1      4776-1.98995E-06-1.77717E-07 2.44705E-06 1.25223E-11-7.98007E-22-1.40161E-20
 -1      4777-1.98995E-06-1.77717E-07 2.44705E-06 1.25223E-11 2.11042E-13-7.74534E-08
 -1      4778-1.79405E-06-1.77726E-07 2.25116E-06-1.53440E-13 9.38447E-15 7.06138E-08
 -1      4779-1.79405E-06-1.77726E-07 2.25116E-06-1.53440E-13 1.41064E-23 3.58381E-21
 -1      4780-1.79405E-06-1.77726E-07 2.25116E-06-1.53440E-13-9.38447E-15-7.06138E-08
 -1      4781-1.62900E-06-1.77739E-07 2.08611E-06 4.89121E-12-7.99332E-14 6.48509E-08
 -1      4782-1.62900E-06-1.77739E-07 2.08611E-06 4.89121E-12-6.13106E-22 9.23326E-21
 -1      4783-1.62900E-06-1.77739E-07 2.08611E-06 4.89121E-12 7.99332E-14-6.48509E-08
 -1      4784-1.48328E-06-1.77741E-07 1.94040E-06 6.92926E-12-1.15825E-13 5.97635E-08
 -1      4785-1.48328E-06-1.77741E-07 1.94040E-06 6.92926E-12-1.07319E-21-1.61033E-21
 -1      4786-1.48328E-06-1.77741E-07 1.94040E-06 6.92926E-12 1.15825E-13-5.97635E-08
 -1      4787-1.34940E-06-1.77745E-07 1.80652E-06-3.43311E-13 1.06086E-14 5.50893E-08
 -1      4788-1.34940E-06-1.77745E-07 1.80652E-06-3.43311E-13-2.97591E-22 4.58566E-21
 -1      4789-1.34940E-06-1.77745E-07 1.80652E-06-3.43311E-13-1.06086E-14-5.50893E-08
 -1      4790-1.23482E-06-1.77753E-07 1.69194E-06 2.87573E-12-4.63969E-14 5.10888E-08
 -1      4791-1.23482E-06-1.77753E-07 1.69194E-06 2.87573E-12 9.18417E-23-6.98635E-21
 -1      4792-1.23482E-06-1.77753E-07 1.69194E-06 2.87573E-12 4.63969E-14-5.10888E-08
 -1      4793-1.13223E-06-1.77754E-07 1.58936E-06 4.35816E-12-7.24462E-14 4.75075E-08
 -1      4794-1.13223E-06-1.77754E-07 1.58936E-06 4.35816E-12-6.29363E-22 5.72398E-21
 -1      4795-1.13223E-06-1.77754E-07 1.58936E-06 4.35816E-12 7.24462E-14-4.75075E-08
 -1      4796-1.03672E-06-1.77756E-07 1.49385E-06-1.68173E-13 6.24093E-15 4.41730E-08
 -1      4797-1.03672E-06-1.77756E-07 1.49385E-06-1.68173E-13 1.30272E-21 4.13697E-23
 -1      4798-1.03672E-06-1.77756E-07 1.49385E-06-1.68173E-13-6.24093E-15-4.41730E-08
 -1      4799-9.53969E-07-1.77761E-07 1.41110E-06 2.13797E-12-3.45587E-14 4.12838E-08
 -1      4800-9.53969E-07-1.77761E-07 1.41110E-06 2.13797E-12-7.46218E-22 5.34436E-21
 -1      4801-9.53969E-07-1.77761E-07 1.41110E-06 2.13797E-12 3.45586E-14-4.12838E-08
 -1      4802-8.79058E-07-1.77762E-07 1.33619E-06 1.08987E-12-1.65170E-14 3.86685E-08
 -1      4803-8.79058E-07-1.77762E-07 1.33619E-06 1.08987E-12-9.51648E-23 1.29924E-21
 -1      4804-8.79058E-07-1.77762E-07 1.33619E-06 1.08987E-12 1.65170E-14-3.86685E-08
 -1      4805-8.11035E-07-1.77763E-07 1.26817E-06 2.41341E-12-3.97049E-14 3.62937E-08
 -1      4806-8.11035E-07-1.77763E-07 1.26817E-06 2.41341E-12 4.28765E-23-1.52249E-21
 -1      4807-8.11035E-07-1.77763E-07 1.26817E-06 2.41341E-12 3.97049E-14-3.62937E-08
 -1      4808-7.46826E-07-1.77764E-07 1.20396E-06-2.03340E-13 5.77968E-15 3.40520E-08
 -1      4809-7.46826E-07-1.77764E-07 1.20396E-06-2.03340E-13-4.58601E-22 7.14871E-21
 -1      4810-7.46826E-07-1.77764E-07 1.20396E-06-2.03339E-13-5.77968E-15-3.40520E-08
 -1      4811-6.90469E-07-1.77767E-07 1.14760E-06 1.03167E-12-1.61249E-14 3.20845E-08
 -1      4812-6.90469E-07-1.77767E-07 1.14760E-06 1.03167E-12 1.64331E-22 4.74356E-21
 -1      4813-6.90469E-07-1.77767E-07 1.14760E-06 1.03167E-12 1.61249E-14-3.20845E-08
 -1      4814-6.38842E-07-1.77767E-07 1.09597E-06 1.71040E-12-2.80144E-14 3.02821E-08
 -1      4815-6.38842E-07-1.77767E-07 1.09597E-06 1.71040E-12-2.72207E-22-2.74107E-21
 -1      4816-6.38842E-07-1.77767E-07 1.09597E-06 1.71040E-12 2.80144E-14-3.02821E-08
 -1      4817-5.89706E-07-1.77768E-07 1.04684E-06-1.33326E-13 4.03815E-15 2.85667E-08
 -1      4818-5.89706E-07-1.77768E-07 1.04684E-06-1.33326E-13 2.61711E-22 9.88915E-22
 -1      4819-5.89706E-07-1.77768E-07 1.04684E-06-1.33326E-13-4.03815E-15-2.85667E-08
 -1      4820-5.46241E-07-1.77769E-07 1.00337E-06 7.34117E-13-1.13565E-14 2.70492E-08
 -1      4821-5.46241E-07-1.77769E-07 1.00337E-06 7.34117E-13 1.24452E-22 2.78451E-22
 -1      4822-5.46241E-07-1.77769E-07 1.00337E-06 7.34117E-13 1.13565E-14-2.70492E-08
 -1      4823-5.06136E-07-1.77769E-07 9.63271E-07 1.23963E-12-2.02011E-14 2.56491E-08
 -1      4824-5.06136E-07-1.77769E-07 9.63271E-07 1.23963E-12-3.31261E-22-1.90536E-21
 -1      4825-5.06136E-07-1.77769E-07 9.63271E-07 1.23963E-12 2.02011E-14-2.56491E-08
 -1      4826-4.67701E-07-1.77770E-07 9.24836E-07-7.82770E-14 2.71090E-15 2.43073E-08
 -1      4827-4.67701E-07-1.77770E-07 9.24836E-07-7.82770E-14-7.46419E-22 2.63395E-21
 -1      4828-4.67701E-07-1.77770E-07 9.24836E-07-7.82770E-14-2.71090E-15-2.43073E-08
 -1      4829-4.33477E-07-1.77771E-07 8.90612E-07 5.52049E-13-8.48276E-15 2.31125E-08
 -1      4830-4.33477E-07-1.77771E-07 8.90612E-07 5.52049E-13-9.83852E-22-2.96738E-21
 -1      4831-4.33477E-07-1.77771E-07 8.90612E-07 5.52049E-13 8.48276E-15-2.31125E-08
 -1      4832-4.01707E-07-1.77771E-07 8.58842E-07 9.25163E-13-1.50064E-14 2.20034E-08
 -1      4833-4.01707E-07-1.77771E-07 8.58842E-07 9.25163E-13 4.17284E-22 6.01859E-21
 -1      4834-4.01707E-07-1.77771E-07 8.58842E-07 9.25163E-13 1.50064E-14-2.20034E-08
 -1      4835-3.71078E-07-1.77772E-07 8.28214E-07-6.78209E-14 2.25603E-15 2.09341E-08
 -1      4836-3.71078E-07-1.77772E-07 8.28214E-07-6.78209E-14-5.58041E-22-1.64011E-21
 -1      4837-3.71078E-07-1.77772E-07 8.28214E-07-6.78209E-14-2.25603E-15-2.09341E-08
 -1      4838-3.43651E-07-1.77772E-07 8.00786E-07 3.50446E-13-5.19921E-15 1.99765E-08
 -1      4839-3.43651E-07-1.77772E-07 8.00786E-07 3.50446E-13-6.31467E-22-2.36247E-21
 -1      4840-3.43651E-07-1.77772E-07 8.00786E-07 3.50446E-13 5.19921E-15-1.99765E-08
 -1      4841-3.18056E-07-1.77772E-07 7.75192E-07 5.41398E-13-8.54859E-15 1.90830E-08
 -1      4842-3.18056E-07-1.77772E-07 7.75192E-07 5.41398E-13 5.44630E-22-7.54603E-22
 -1      4843-3.18056E-07-1.77772E-07 7.75192E-07 5.41398E-13 8.54859E-15-1.90830E-08
 -1      4844-2.93255E-07-1.77773E-07 7.50391E-07-3.21406E-13 6.44064E-15 1.82172E-08
 -1      4845-2.93255E-07-1.77773E-07 7.50391E-07-3.21406E-13-7.30056E-22-7.67006E-22
 -1      4846-2.93255E-07-1.77773E-07 7.50391E-07-3.21406E-13-6.44064E-15-1.82172E-08
 -1      4847-2.70937E-07-1.77773E-07 7.28073E-07-1.03264E-13 2.48229E-15 1.74380E-08
 -1      4848-2.70937E-07-1.77773E-07 7.28073E-07-1.03264E-13 9.55783E-23-2.06202E-22
 -1      4849-2.70937E-07-1.77773E-07 7.28073E-07-1.03264E-13-2.48229E-15-1.74380E-08
 -1      4850-2.50015E-07-1.77774E-07 7.07152E-07 2.12131E-14 2.64172E-16 1.67076E-08
 -1      4851-2.50015E-07-1.77774E-07 7.07152E-07 2.12130E-14 1.33805E-22-2.70779E-21
 -1      4852-2.50015E-07-1.77774E-07 7.07152E-07 2.12130E-14-2.64172E-16-1.67076E-08
 -1      4853-2.29653E-07-1.77774E-07 6.86790E-07 1.75851E-13-2.44611E-15 1.59968E-08
 -1      4854-2.29653E-07-1.77774E-07 6.86790E-07 1.75851E-13 5.23899E-22 2.66039E-23
 -1      4855-2.29653E-07-1.77774E-07 6.86790E-07 1.75851E-13 2.44611E-15-1.59968E-08
 -1      4856-2.11254E-07-1.77774E-07 6.68391E-07 1.21678E-12-2.05529E-14 1.53544E-08
 -1      4857-2.11254E-07-1.77774E-07 6.68391E-07 1.21678E-12-1.12223E-22 2.54900E-21
 -1      4858-2.11254E-07-1.77774E-07 6.68391E-07 1.21678E-12 2.05529E-14-1.53544E-08
 -1      4859-1.93938E-07-1.77774E-07 6.51078E-07 1.78682E-12-3.03054E-14 1.47500E-08
 -1      4860-1.93938E-07-1.77774E-07 6.51078E-07 1.78682E-12 1.63269E-23 5.94012E-22
 -1      4861-1.93938E-07-1.77774E-07 6.51078E-07 1.78682E-12 3.03054E-14-1.47500E-08
 -1      4862-5.47527E-06-1.77312E-07 5.93124E-06-9.53189E-11 1.66131E-12 1.99134E-07
 -1      4863-5.47527E-06-1.77312E-07 5.93124E-06-9.53189E-11 4.30537E-23-3.37849E-21
 -1      4864-5.47527E-06-1.77312E-07 5.93124E-06-9.53189E-11-1.66131E-12-1.99134E-07
 -1      4865-5.41866E-06-1.77598E-07 5.87551E-06-3.35995E-11 5.86292E-13 1.97177E-07
 -1      4866-5.41866E-06-1.77598E-07 5.87551E-06-3.35995E-11 6.33991E-22 1.21882E-20
 -1      4867-5.41866E-06-1.77598E-07 5.87551E-06-3.35995E-11-5.86292E-13-1.97177E-07
 -1      4868-5.42012E-06-1.77557E-07 5.87690E-06-8.68105E-12 1.51948E-13 1.97227E-07
 -1      4869-5.42012E-06-1.77557E-07 5.87690E-06-8.68105E-12 2.82104E-22 1.17226E-20
 -1      4870-5.42012E-06-1.77557E-07 5.87690E-06-8.68105E-12-1.51948E-13-1.97227E-07
 -1      4871-5.43235E-06-1.77554E-07 5.88913E-06-9.74936E-13 1.77927E-14 1.97653E-07
 -1      4872-5.43235E-06-1.77554E-07 5.88913E-06-9.74936E-13 1.97119E-22 2.14554E-20
 -1      4873-5.43235E-06-1.77554E-07 5.88913E-06-9.74936E-13-1.77927E-14-1.97653E-07
 -1      4874-5.44266E-06-1.77554E-07 5.89945E-06 2.07994E-12-3.59590E-14 1.98012E-07
 -1      4875-5.44266E-06-1.77554E-07 5.89945E-06 2.07994E-12 8.82433E-22-5.84947E-21
 -1      4876-5.44266E-06-1.77554E-07 5.89945E-06 2.07994E-12 3.59590E-14-1.98012E-07
 -1      4877-5.44565E-06-1.77554E-07 5.90244E-06 7.41854E-13-1.29350E-14 1.98116E-07
 -1      4878-5.44565E-06-1.77554E-07 5.90244E-06 7.41854E-13 8.14212E-22-2.53956E-20
 -1      4879-5.44565E-06-1.77554E-07 5.90244E-06 7.41854E-13 1.29350E-14-1.98116E-07
 -1      4880-5.44534E-06-1.77554E-07 5.90213E-06-1.08029E-13 1.84862E-15 1.98105E-07
 -1      4881-5.44534E-06-1.77554E-07 5.90213E-06-1.08029E-13-6.27607E-22 8.10639E-21
 -1      4882-5.44534E-06-1.77554E-07 5.90213E-06-1.08029E-13-1.84862E-15-1.98105E-07
 -1      4883-5.44515E-06-1.77556E-07 5.90194E-06-1.74725E-13 3.06864E-15 1.98099E-07
 -1      4884-5.44515E-06-1.77556E-07 5.90194E-06-1.74725E-13-2.29529E-22-5.96889E-21
 -1      4885-5.44515E-06-1.77556E-07 5.90194E-06-1.74725E-13-3.06864E-15-1.98099E-07
 -1      4886-5.44707E-06-1.77553E-07 5.90386E-06-4.79309E-12 8.38000E-14 1.98166E-07
 -1      4887-5.44707E-06-1.77553E-07 5.90386E-06-4.79309E-12 3.41641E-22-3.48190E-20
 -1      4888-5.44707E-06-1.77553E-07 5.90386E-06-4.79309E-12-8.38000E-14-1.98166E-07
 -1      4889-5.44306E-06-1.77558E-07 5.89985E-06-1.08266E-11 1.88176E-13 1.98026E-07
 -1      4890-5.44306E-06-1.77558E-07 5.89985E-06-1.08266E-11 1.61930E-22 2.49040E-20
 -1      4891-5.44306E-06-1.77558E-07 5.89985E-06-1.08266E-11-1.88176E-13-1.98026E-07
 -1      4892-5.42772E-06-1.77530E-07 5.88450E-06-2.88218E-11 5.02167E-13 1.97492E-07
 -1      4893-5.42772E-06-1.77530E-07 5.88450E-06-2.88218E-11-1.54999E-22 2.33792E-22
 -1      4894-5.42772E-06-1.77530E-07 5.88450E-06-2.88218E-11-5.02167E-13-1.97492E-07
 -1      4895-5.40075E-06-1.77625E-07 5.85787E-06-5.82020E-11 1.01486E-12 1.96558E-07
 -1      4896-5.40075E-06-1.77625E-07 5.85787E-06-5.82020E-11 2.57389E-23-3.71795E-21
 -1      4897-5.40075E-06-1.77625E-07 5.85787E-06-5.82020E-11-1.01486E-12-1.96558E-07
 -1      4898-5.35462E-06-1.77862E-07 5.81189E-06-1.86559E-10 3.24916E-12 1.94953E-07
 -1      4899-5.35462E-06-1.77862E-07 5.81189E-06-1.86559E-10 1.93210E-22-2.58256E-20
 -1      4900-5.35462E-06-1.77862E-07 5.81189E-06-1.86559E-10-3.24916E-12-1.94953E-07
 -1      4901-4.22279E-06-1.77823E-07 4.67981E-06 1.87959E-10-3.27599E-12 1.55411E-07
 -1      4902-4.22279E-06-1.77823E-07 4.67981E-06 1.87959E-10 1.62372E-22 7.28465E-21
 -1      4903-4.22279E-06-1.77823E-07 4.67981E-06 1.87959E-10 3.27599E-12-1.55411E-07
 -1      4904-3.30142E-06-1.77779E-07 3.75856E-06 2.34246E-11-4.08823E-13 1.23245E-07
 -1      4905-3.30142E-06-1.77779E-07 3.75856E-06 2.34246E-11-1.14023E-22 2.82565E-20
 -1      4906-3.30142E-06-1.77779E-07 3.75856E-06 2.34246E-11 4.08823E-13-1.23245E-07
 -1      4907-2.60557E-06-1.77772E-07 3.06270E-06-5.33812E-12 9.31663E-14 9.89485E-08
 -1      4908-2.60557E-06-1.77772E-07 3.06270E-06-5.33812E-12-4.14312E-23-2.21540E-21
 -1      4909-2.60557E-06-1.77772E-07 3.06270E-06-5.33812E-12-9.31663E-14-9.89485E-08
 -1      4910-2.09378E-06-1.77778E-07 2.55092E-06-1.22393E-12 2.15084E-14 8.10792E-08
 -1      4911-2.09378E-06-1.77778E-07 2.55092E-06-1.22393E-12 1.10988E-23-4.88573E-21
 -1      4912-2.09378E-06-1.77778E-07 2.55092E-06-1.22393E-12-2.15084E-14-8.10792E-08
 -1      4913-1.70933E-06-1.77777E-07 2.16647E-06 1.12528E-12-1.95738E-14 6.76562E-08
 -1      4914-1.70933E-06-1.77777E-07 2.16647E-06 1.12528E-12-2.01896E-23 3.08795E-21
 -1      4915-1.70933E-06-1.77777E-07 2.16647E-06 1.12528E-12 1.95738E-14-6.76562E-08
 -1      4916-1.41415E-06-1.77774E-07 1.87129E-06-2.26813E-13 3.81823E-15 5.73503E-08
 -1      4917-1.41415E-06-1.77774E-07 1.87129E-06-2.26813E-13-2.21855E-23 3.88336E-22
 -1      4918-1.41415E-06-1.77774E-07 1.87129E-06-2.26813E-13-3.81823E-15-5.73503E-08
 -1      4919-1.18164E-06-1.77777E-07 1.63878E-06-5.57416E-13 9.77577E-15 4.92327E-08
 -1      4920-1.18164E-06-1.77777E-07 1.63878E-06-5.57416E-13 7.03674E-24-2.63052E-21
 -1      4921-1.18164E-06-1.77777E-07 1.63878E-06-5.57416E-13-9.77577E-15-4.92327E-08
 -1      4922-9.94901E-07-1.77776E-07 1.45204E-06 4.73667E-13-8.23465E-15 4.27130E-08
 -1      4923-9.94901E-07-1.77776E-07 1.45204E-06 4.73667E-13 8.02044E-23-4.23003E-21
 -1      4924-9.94901E-07-1.77776E-07 1.45204E-06 4.73667E-13 8.23465E-15-4.27130E-08
 -1      4925-8.43721E-07-1.77776E-07 1.30086E-06-2.85513E-13 5.01162E-15 3.74350E-08
 -1      4926-8.43721E-07-1.77776E-07 1.30086E-06-2.85513E-13 7.66706E-23 5.15161E-21
 -1      4927-8.43721E-07-1.77776E-07 1.30086E-06-2.85513E-13-5.01162E-15-3.74350E-08
 -1      4928-7.18253E-07-1.77776E-07 1.17539E-06 2.89776E-13-5.03180E-15 3.30546E-08
 -1      4929-7.18253E-07-1.77776E-07 1.17539E-06 2.89776E-13 2.76236E-23-2.04549E-21
 -1      4930-7.18253E-07-1.77776E-07 1.17539E-06 2.89776E-13 5.03180E-15-3.30546E-08
 -1      4931-6.13710E-07-1.77776E-07 1.07085E-06-1.62038E-14 2.34015E-16 2.94048E-08
 -1      4932-6.13710E-07-1.77776E-07 1.07085E-06-1.62039E-14-4.37961E-23-2.60862E-22
 -1      4933-6.13710E-07-1.77776E-07 1.07085E-06-1.62039E-14-2.34015E-16-2.94048E-08
 -1      4934-5.25513E-07-1.77776E-07 9.82652E-07-1.57972E-13 2.77862E-15 2.63257E-08
 -1      4935-5.25513E-07-1.77776E-07 9.82652E-07-1.57972E-13 4.78377E-24-3.38845E-22
 -1      4936-5.25513E-07-1.77776E-07 9.82652E-07-1.57972E-13-2.77862E-15-2.63257E-08
 -1      4937-4.50248E-07-1.77776E-07 9.07387E-07 1.43564E-13-2.48392E-15 2.36981E-08
 -1      4938-4.50248E-07-1.77776E-07 9.07387E-07 1.43564E-13-1.33463E-23-1.47141E-21
 -1      4939-4.50248E-07-1.77776E-07 9.07387E-07 1.43564E-13 2.48392E-15-2.36981E-08
 -1      4940-3.85813E-07-1.77776E-07 8.42951E-07 5.96709E-15-1.27207E-16 2.14485E-08
 -1      4941-3.85813E-07-1.77776E-07 8.42951E-07 5.96709E-15 3.56090E-23 1.88876E-21
 -1      4942-3.85813E-07-1.77776E-07 8.42951E-07 5.96710E-15 1.27207E-16-2.14485E-08
 -1      4943-3.30266E-07-1.77776E-07 7.87405E-07-7.22526E-14 1.27876E-15 1.95093E-08
 -1      4944-3.30266E-07-1.77776E-07 7.87405E-07-7.22526E-14-3.28089E-23 2.06211E-21
 -1      4945-3.30266E-07-1.77776E-07 7.87405E-07-7.22526E-14-1.27876E-15-1.95093E-08
 -1      4946-2.82336E-07-1.77776E-07 7.39475E-07-2.42459E-13 4.19462E-15 1.78360E-08
 -1      4947-2.82336E-07-1.77776E-07 7.39475E-07-2.42459E-13 2.29074E-23-1.61000E-22
 -1      4948-2.82336E-07-1.77776E-07 7.39475E-07-2.42459E-13-4.19462E-15-1.78360E-08
 -1      4949-2.39839E-07-1.77776E-07 6.96977E-07 6.19058E-13-1.08381E-14 1.63524E-08
 -1      4950-2.39839E-07-1.77776E-07 6.96977E-07 6.19058E-13-6.87398E-23-1.52368E-21
 -1      4951-2.39839E-07-1.77776E-07 6.96977E-07 6.19058E-13 1.08381E-14-1.63524E-08
 -1      4952-2.00754E-07-1.77779E-07 6.57898E-07-2.63825E-12 4.59159E-14 1.49881E-08
 -1      4953-2.00754E-07-1.77779E-07 6.57898E-07-2.63825E-12-4.76304E-24 1.90509E-21
 -1      4954-2.00754E-07-1.77779E-07 6.57898E-07-2.63825E-12-4.59159E-14-1.49881E-08
 -1      4955-1.91772E-07-1.77772E-07 6.48901E-07-1.71436E-12 2.95007E-14 1.46742E-08
 -1      4956-1.91772E-07-1.77772E-07 6.48901E-07-1.71436E-12 6.76880E-23-4.15434E-22
 -1      4957-1.91772E-07-1.77772E-07 6.48901E-07-1.71436E-12-2.95007E-14-1.46742E-08
 -1      4958-1.92357E-07-1.77775E-07 6.49494E-07 3.99057E-13-7.02320E-15 1.46947E-08
 -1      4959-1.92357E-07-1.77775E-07 6.49494E-07 3.99057E-13-5.28846E-24 1.95823E-21
 -1      4960-1.92357E-07-1.77775E-07 6.49494E-07 3.99057E-13 7.02320E-15-1.46947E-08
 -1      4961-1.91936E-07-1.77775E-07 6.49073E-07 1.16488E-13-2.02433E-15 1.46800E-08
 -1      4962-1.91936E-07-1.77775E-07 6.49073E-07 1.16488E-13 5.69947E-23-2.99033E-21
 -1      4963-1.91936E-07-1.77775E-07 6.49073E-07 1.16488E-13 2.02433E-15-1.46800E-08
 -1      4964-1.92081E-07-1.77775E-07 6.49218E-07 5.18932E-14-8.99516E-16 1.46851E-08
 -1      4965-1.92081E-07-1.77775E-07 6.49218E-07 5.18932E-14-2.20529E-23 7.19281E-22
 -1      4966-1.92081E-07-1.77775E-07 6.49218E-07 5.18932E-14 8.99516E-16-1.46851E-08
 -1      4967-1.92146E-07-1.77775E-07 6.49282E-07-8.35321E-15 1.45456E-16 1.46874E-08
 -1      4968-1.92146E-07-1.77775E-07 6.49282E-07-8.35321E-15 7.62697E-23 2.79839E-21
 -1      4969-1.92146E-07-1.77775E-07 6.49282E-07-8.35322E-15-1.45456E-16-1.46874E-08
 -1      4970-1.92125E-07-1.77775E-07 6.49262E-07-9.71651E-15 1.66875E-16 1.46866E-08
 -1      4971-1.92125E-07-1.77775E-07 6.49262E-07-9.71651E-15 9.40433E-23-5.81603E-22
 -1      4972-1.92125E-07-1.77775E-07 6.49262E-07-9.71651E-15-1.66874E-16-1.46866E-08
 -1      4973-1.92104E-07-1.77775E-07 6.49241E-07 8.80387E-15-1.53860E-16 1.46859E-08
 -1      4974-1.92104E-07-1.77775E-07 6.49241E-07 8.80387E-15 2.58573E-22-4.36576E-23
 -1      4975-1.92104E-07-1.77775E-07 6.49241E-07 8.80388E-15 1.53860E-16-1.46859E-08
 -1      4976-1.92090E-07-1.77775E-07 6.49227E-07 7.08407E-15-1.25957E-16 1.46854E-08
 -1      4977-1.92090E-07-1.77775E-07 6.49227E-07 7.08407E-15-2.99385E-22 7.38306E-22
 -1      4978-1.92090E-07-1.77775E-07 6.49227E-07 7.08407E-15 1.25957E-16-1.46854E-08
 -1      4979-1.92013E-07-1.77775E-07 6.49150E-07-2.46242E-14 4.22793E-16 1.46827E-08
 -1      4980-1.92013E-07-1.77775E-07 6.49150E-07-2.46242E-14-5.81941E-23-5.26444E-22
 -1      4981-1.92013E-07-1.77775E-07 6.49150E-07-2.46242E-14-4.22793E-16-1.46827E-08
 -1      4982-1.92003E-07-1.77775E-07 6.49140E-07-3.28370E-14 5.78455E-16 1.46824E-08
 -1      4983-1.92003E-07-1.77775E-07 6.49140E-07-3.28370E-14-2.69730E-22-1.64079E-21
 -1      4984-1.92003E-07-1.77775E-07 6.49140E-07-3.28370E-14-5.78456E-16-1.46824E-08
 -1      4985-1.92467E-07-1.77775E-07 6.49605E-07 1.35700E-13-2.32251E-15 1.46986E-08
 -1      4986-1.92467E-07-1.77775E-07 6.49605E-07 1.35700E-13 3.66459E-22-8.42345E-22
 -1      4987-1.92467E-07-1.77775E-07 6.49605E-07 1.35700E-13 2.32251E-15-1.46986E-08
 -1      4988-1.90898E-07-1.77775E-07 6.48036E-07-1.15343E-13 1.78490E-15 1.46438E-08
 -1      4989-1.90898E-07-1.77775E-07 6.48036E-07-1.15343E-13-1.72304E-22 1.53834E-21
 -1      4990-1.90898E-07-1.77775E-07 6.48036E-07-1.15343E-13-1.78490E-15-1.46438E-08
 -1      4991-1.88451E-07-1.77775E-07 6.45587E-07-1.06172E-12 1.86495E-14 1.45583E-08
 -1      4992-1.88451E-07-1.77775E-07 6.45587E-07-1.06172E-12 5.54096E-22-1.63380E-21
 -1      4993-1.88451E-07-1.77775E-07 6.45587E-07-1.06172E-12-1.86495E-14-1.45583E-08
 -1      4994-4.88377E-06-1.78163E-07 5.34124E-06-1.99182E-10 3.47506E-12 1.78498E-07
 -1      4995-4.88377E-06-1.78163E-07 5.34124E-06-1.99182E-10 7.62962E-22 6.07077E-21
 -1      4996-4.88377E-06-1.78163E-07 5.34124E-06-1.99182E-10-3.47506E-12-1.78498E-07
 -1      4997-4.31526E-06-1.77986E-07 4.77241E-06-1.08088E-10 1.88156E-12 1.58646E-07
 -1      4998-4.31526E-06-1.77986E-07 4.77241E-06-1.08088E-10 4.87926E-22-6.42170E-21
 -1      4999-4.31526E-06-1.77986E-07 4.77241E-06-1.08088E-10-1.88156E-12-1.58646E-07
 -1      5000-3.78455E-06-1.77901E-07 4.24170E-06 9.95037E-11-1.74013E-12 1.40117E-07
 -1      5001-3.78455E-06-1.77901E-07 4.24170E-06 9.95037E-11 1.24862E-21-3.96340E-21
 -1      5002-3.78455E-06-1.77901E-07 4.24170E-06 9.95037E-11 1.74013E-12-1.40117E-07
 -1      5003-3.32426E-06-1.77835E-07 3.78144E-06-1.73794E-11 3.03343E-13 1.24044E-07
 -1      5004-3.32426E-06-1.77835E-07 3.78144E-06-1.73794E-11-1.43331E-22-2.33870E-21
 -1      5005-3.32426E-06-1.77835E-07 3.78144E-06-1.73794E-11-3.03343E-13-1.24044E-07
 -1      5006-2.94218E-06-1.77835E-07 3.39937E-06-7.10628E-12 1.23912E-13 1.10703E-07
 -1      5007-2.94218E-06-1.77835E-07 3.39937E-06-7.10628E-12 3.19470E-23-9.09971E-22
 -1      5008-2.94218E-06-1.77835E-07 3.39937E-06-7.10628E-12-1.23912E-13-1.10703E-07
 -1      5009-2.61809E-06-1.77830E-07 3.07526E-06-7.34856E-12 1.28571E-13 9.93863E-08
 -1      5010-2.61809E-06-1.77830E-07 3.07526E-06-7.34856E-12 2.84645E-22 1.61112E-20
 -1      5011-2.61809E-06-1.77830E-07 3.07526E-06-7.34856E-12-1.28571E-13-9.93863E-08
 -1      5012-2.34136E-06-1.77814E-07 2.79853E-06-8.74609E-12 1.52577E-13 8.97241E-08
 -1      5013-2.34136E-06-1.77814E-07 2.79853E-06-8.74609E-12 5.94168E-22 7.00859E-21
 -1      5014-2.34136E-06-1.77814E-07 2.79853E-06-8.74609E-12-1.52577E-13-8.97241E-08
 -1      5015-2.10415E-06-1.77809E-07 2.56131E-06-3.51961E-12 6.13374E-14 8.14416E-08
 -1      5016-2.10415E-06-1.77809E-07 2.56131E-06-3.51961E-12-1.79741E-21 5.54430E-21
 -1      5017-2.10415E-06-1.77809E-07 2.56131E-06-3.51961E-12-6.13374E-14-8.14416E-08
 -1      5018-1.89768E-06-1.77806E-07 2.35483E-06-4.10605E-12 7.18706E-14 7.42326E-08
 -1      5019-1.89768E-06-1.77806E-07 2.35483E-06-4.10605E-12 1.31325E-21-7.43038E-21
 -1      5020-1.89768E-06-1.77806E-07 2.35483E-06-4.10605E-12-7.18706E-14-7.42326E-08
 -1      5021-1.71748E-06-1.77798E-07 2.17464E-06-4.98877E-12 8.70326E-14 6.79410E-08
 -1      5022-1.71748E-06-1.77798E-07 2.17464E-06-4.98877E-12-6.12487E-22 5.15270E-21
 -1      5023-1.71748E-06-1.77798E-07 2.17464E-06-4.98877E-12-8.70326E-14-6.79410E-08
 -1      5024-1.55996E-06-1.77795E-07 2.01712E-06-1.87117E-12 3.26081E-14 6.24415E-08
 -1      5025-1.55996E-06-1.77795E-07 2.01712E-06-1.87117E-12 3.26754E-22-1.02566E-20
 -1      5026-1.55996E-06-1.77795E-07 2.01712E-06-1.87117E-12-3.26081E-14-6.24415E-08
 -1      5027-1.42037E-06-1.77794E-07 1.87752E-06-2.22771E-12 3.90306E-14 5.75677E-08
 -1      5028-1.42037E-06-1.77794E-07 1.87752E-06-2.22771E-12 4.87735E-22-1.07268E-21
 -1      5029-1.42037E-06-1.77794E-07 1.87752E-06-2.22771E-12-3.90306E-14-5.75677E-08
 -1      5030-1.29649E-06-1.77789E-07 1.75364E-06-2.81115E-12 4.90412E-14 5.32425E-08
 -1      5031-1.29649E-06-1.77789E-07 1.75364E-06-2.81115E-12-1.77609E-22 1.20125E-21
 -1      5032-1.29649E-06-1.77789E-07 1.75364E-06-2.81115E-12-4.90412E-14-5.32425E-08
 -1      5033-1.18652E-06-1.77788E-07 1.64367E-06-9.96874E-13 1.73654E-14 4.94032E-08
 -1      5034-1.18652E-06-1.77788E-07 1.64367E-06-9.96874E-13 4.57309E-22-5.22020E-21
 -1      5035-1.18652E-06-1.77788E-07 1.64367E-06-9.96874E-13-1.73654E-14-4.94032E-08
 -1      5036-1.08769E-06-1.77788E-07 1.54483E-06-1.32095E-12 2.31640E-14 4.59527E-08
 -1      5037-1.08769E-06-1.77788E-07 1.54483E-06-1.32095E-12-5.64315E-22 2.34186E-21
 -1      5038-1.08769E-06-1.77788E-07 1.54483E-06-1.32095E-12-2.31640E-14-4.59527E-08
 -1      5039-9.98863E-07-1.77785E-07 1.45601E-06-1.80086E-12 3.14187E-14 4.28515E-08
 -1      5040-9.98863E-07-1.77785E-07 1.45601E-06-1.80086E-12-1.91426E-22-7.25576E-23
 -1      5041-9.98863E-07-1.77785E-07 1.45601E-06-1.80086E-12-3.14187E-14-4.28515E-08
 -1      5042-9.19147E-07-1.77784E-07 1.37629E-06-9.67181E-13 1.68654E-14 4.00684E-08
 -1      5043-9.19147E-07-1.77784E-07 1.37629E-06-9.67181E-13-2.64725E-22-5.66226E-21
 -1      5044-9.19147E-07-1.77784E-07 1.37629E-06-9.67181E-13-1.68654E-14-4.00684E-08
 -1      5045-8.46951E-07-1.77783E-07 1.30409E-06-4.22206E-13 7.34623E-15 3.75478E-08
 -1      5046-8.46951E-07-1.77783E-07 1.30409E-06-4.22206E-13 3.50217E-22 1.46696E-21
 -1      5047-8.46951E-07-1.77783E-07 1.30409E-06-4.22206E-13-7.34623E-15-3.75478E-08
 -1      5048-7.81031E-07-1.77783E-07 1.23817E-06-7.12581E-13 1.25077E-14 3.52464E-08
 -1      5049-7.81031E-07-1.77783E-07 1.23817E-06-7.12581E-13-3.23566E-23-1.99692E-21
 -1      5050-7.81031E-07-1.77783E-07 1.23817E-06-7.12581E-13-1.25077E-14-3.52464E-08
 -1      5051-7.20935E-07-1.77781E-07 1.17808E-06-9.90810E-13 1.72792E-14 3.31483E-08
 -1      5052-7.20935E-07-1.77781E-07 1.17808E-06-9.90810E-13 3.21373E-22 3.17149E-21
 -1      5053-7.20935E-07-1.77781E-07 1.17808E-06-9.90810E-13-1.72792E-14-3.31483E-08
 -1      5054-6.66261E-07-1.77781E-07 1.12340E-06-3.19921E-13 5.56438E-15 3.12395E-08
 -1      5055-6.66261E-07-1.77781E-07 1.12340E-06-3.19921E-13-3.54259E-22-3.97858E-21
 -1      5056-6.66261E-07-1.77781E-07 1.12340E-06-3.19921E-13-5.56438E-15-3.12395E-08
 -1      5057-6.15988E-07-1.77781E-07 1.07313E-06-4.79083E-13 8.41496E-15 2.94844E-08
 -1      5058-6.15988E-07-1.77781E-07 1.07313E-06-4.79083E-13 4.35747E-22-7.05781E-21
 -1      5059-6.15988E-07-1.77781E-07 1.07313E-06-4.79083E-13-8.41496E-15-2.94844E-08
 -1      5060-5.69822E-07-1.77780E-07 1.02696E-06-6.77829E-13 1.18203E-14 2.78726E-08
 -1      5061-5.69822E-07-1.77780E-07 1.02696E-06-6.77829E-13-2.82842E-22-3.75704E-22
 -1      5062-5.69822E-07-1.77780E-07 1.02696E-06-6.77829E-13-1.18203E-14-2.78726E-08
 -1      5063-5.27525E-07-1.77779E-07 9.84666E-07-2.11194E-13 3.67265E-15 2.63960E-08
 -1      5064-5.27525E-07-1.77779E-07 9.84666E-07-2.11194E-13 1.82431E-22 3.48662E-21
 -1      5065-5.27525E-07-1.77779E-07 9.84666E-07-2.11194E-13-3.67265E-15-2.63960E-08
 -1      5066-4.88373E-07-1.77779E-07 9.45513E-07-3.36293E-13 5.91404E-15 2.50291E-08
 -1      5067-4.88373E-07-1.77779E-07 9.45513E-07-3.36293E-13 8.16601E-22-2.10584E-21
 -1      5068-4.88373E-07-1.77779E-07 9.45513E-07-3.36293E-13-5.91404E-15-2.50291E-08
 -1      5069-4.52186E-07-1.77779E-07 9.09327E-07-4.88535E-13 8.52239E-15 2.37658E-08
 -1      5070-4.52186E-07-1.77779E-07 9.09327E-07-4.88535E-13 2.29387E-23 6.48413E-22
 -1      5071-4.52186E-07-1.77779E-07 9.09327E-07-4.88535E-13-8.52239E-15-2.37658E-08
 -1      5072-4.18827E-07-1.77778E-07 8.75967E-07-1.59291E-13 2.77398E-15 2.26011E-08
 -1      5073-4.18827E-07-1.77778E-07 8.75967E-07-1.59291E-13 7.47540E-22 4.33296E-22
 -1      5074-4.18827E-07-1.77778E-07 8.75967E-07-1.59291E-13-2.77398E-15-2.26011E-08
 -1      5075-3.87758E-07-1.77779E-07 8.44898E-07-2.61788E-13 4.60959E-15 2.15165E-08
 -1      5076-3.87758E-07-1.77779E-07 8.44898E-07-2.61788E-13 4.68470E-22 1.21382E-21
 -1      5077-3.87758E-07-1.77779E-07 8.44898E-07-2.61788E-13-4.60959E-15-2.15165E-08
 -1      5078-3.58857E-07-1.77778E-07 8.15996E-07-3.90618E-13 6.81876E-15 2.05075E-08
 -1      5079-3.58857E-07-1.77778E-07 8.15996E-07-3.90618E-13 5.33134E-22-3.44518E-21
 -1      5080-3.58857E-07-1.77778E-07 8.15996E-07-3.90618E-13-6.81875E-15-2.05075E-08
 -1      5081-3.32028E-07-1.77778E-07 7.89167E-07-1.68490E-13 2.93775E-15 1.95708E-08
 -1      5082-3.32028E-07-1.77778E-07 7.89167E-07-1.68490E-13 2.32071E-22 2.27034E-21
 -1      5083-3.32028E-07-1.77778E-07 7.89167E-07-1.68490E-13-2.93775E-15-1.95708E-08
 -1      5084-3.06829E-07-1.77778E-07 7.63969E-07-2.43270E-13 4.27482E-15 1.86911E-08
 -1      5085-3.06829E-07-1.77778E-07 7.63969E-07-2.43270E-13-1.90233E-24 6.89651E-22
 -1      5086-3.06829E-07-1.77778E-07 7.63969E-07-2.43270E-13-4.27482E-15-1.86911E-08
 -1      5087-2.83118E-07-1.77777E-07 7.40258E-07-3.30188E-13 5.75020E-15 1.78634E-08
 -1      5088-2.83118E-07-1.77777E-07 7.40258E-07-3.30188E-13-1.28007E-22 1.20816E-21
 -1      5089-2.83118E-07-1.77777E-07 7.40258E-07-3.30188E-13-5.75020E-15-1.78634E-08
 -1      5090-2.60754E-07-1.77777E-07 7.17893E-07-3.36719E-13 5.83263E-15 1.70826E-08
 -1      5091-2.60754E-07-1.77777E-07 7.17893E-07-3.36719E-13-9.73718E-23-4.73789E-22
 -1      5092-2.60754E-07-1.77777E-07 7.17893E-07-3.36719E-13-5.83263E-15-1.70826E-08
 -1      5093-2.39423E-07-1.77778E-07 6.96562E-07-1.46289E-12 2.53816E-14 1.63379E-08
 -1      5094-2.39423E-07-1.77778E-07 6.96562E-07-1.46289E-12-1.38439E-23-1.01960E-21
 -1      5095-2.39423E-07-1.77778E-07 6.96562E-07-1.46289E-12-2.53816E-14-1.63379E-08
 -1      5096-2.19830E-07-1.77778E-07 6.76968E-07 1.65472E-12-2.90279E-14 1.56539E-08
 -1      5097-2.19830E-07-1.77778E-07 6.76968E-07 1.65472E-12 1.36733E-23-1.45836E-21
 -1      5098-2.19830E-07-1.77778E-07 6.76968E-07 1.65472E-12 2.90279E-14-1.56539E-08
 -1      5099-2.02562E-07-1.77777E-07 6.59700E-07 4.79922E-13-8.44661E-15 1.50510E-08
 -1      5100-2.02562E-07-1.77777E-07 6.59700E-07 4.79922E-13 6.09418E-22-2.08656E-21
 -1      5101-2.02562E-07-1.77777E-07 6.59700E-07 4.79922E-13 8.44661E-15-1.50510E-08
 -1      5102-5.43208E-06-1.77560E-07 5.88882E-06 4.04113E-12-7.31005E-14 1.97643E-07
 -1      5103-5.43208E-06-1.77560E-07 5.88882E-06 4.04113E-12 9.33124E-23-4.85086E-20
 -1      5104-5.43208E-06-1.77560E-07 5.88882E-06 4.04113E-12 7.31005E-14-1.97643E-07
 -1      5105-5.41789E-06-1.77545E-07 5.87467E-06-1.10650E-11 1.92997E-13 1.97149E-07
 -1      5106-5.41789E-06-1.77545E-07 5.87467E-06-1.10650E-11 1.63611E-22-3.62867E-20
 -1      5107-5.41789E-06-1.77545E-07 5.87467E-06-1.10650E-11-1.92997E-13-1.97149E-07
 -1      5108-5.42537E-06-1.77549E-07 5.88214E-06-1.84604E-12 3.29056E-14 1.97410E-07
 -1      5109-5.42537E-06-1.77549E-07 5.88214E-06-1.84604E-12 3.73578E-22 1.20617E-20
 -1      5110-5.42537E-06-1.77549E-07 5.88214E-06-1.84604E-12-3.29056E-14-1.97410E-07
 -1      5111-5.43844E-06-1.77554E-07 5.89523E-06 1.93553E-12-3.31731E-14 1.97865E-07
 -1      5112-5.43844E-06-1.77554E-07 5.89523E-06 1.93553E-12-1.80203E-22-7.71728E-21
 -1      5113-5.43844E-06-1.77554E-07 5.89523E-06 1.93553E-12 3.31731E-14-1.97865E-07
 -1      5114-5.44490E-06-1.77553E-07 5.90169E-06 1.63453E-12-2.83808E-14 1.98090E-07
 -1      5115-5.44490E-06-1.77553E-07 5.90169E-06 1.63453E-12-3.17456E-22 1.77944E-20
 -1      5116-5.44490E-06-1.77553E-07 5.90169E-06 1.63453E-12 2.83808E-14-1.98090E-07
 -1      5117-5.44556E-06-1.77554E-07 5.90235E-06 3.09685E-13-5.43083E-15 1.98113E-07
 -1      5118-5.44556E-06-1.77554E-07 5.90235E-06 3.09685E-13 3.77284E-23 3.15652E-21
 -1      5119-5.44556E-06-1.77554E-07 5.90235E-06 3.09685E-13 5.43083E-15-1.98113E-07
 -1      5120-5.44507E-06-1.77555E-07 5.90186E-06-4.59467E-13 8.00213E-15 1.98096E-07
 -1      5121-5.44507E-06-1.77555E-07 5.90186E-06-4.59467E-13 1.74016E-22 2.74977E-20
 -1      5122-5.44507E-06-1.77555E-07 5.90186E-06-4.59467E-13-8.00213E-15-1.98096E-07
 -1      5123-5.44596E-06-1.77554E-07 5.90275E-06-9.17112E-13 1.61198E-14 1.98127E-07
 -1      5124-5.44596E-06-1.77554E-07 5.90275E-06-9.17112E-13 3.76699E-22 1.06977E-21
 -1      5125-5.44596E-06-1.77554E-07 5.90275E-06-9.17111E-13-1.61198E-14-1.98127E-07
 -1      5126-5.44697E-06-1.77556E-07 5.90376E-06-8.46830E-12 1.47630E-13 1.98162E-07
 -1      5127-5.44697E-06-1.77556E-07 5.90376E-06-8.46830E-12 2.13111E-22 3.71662E-21
 -1      5128-5.44697E-06-1.77556E-07 5.90376E-06-8.46830E-12-1.47630E-13-1.98162E-07
 -1      5129-5.43576E-06-1.77550E-07 5.89255E-06-1.61418E-11 2.80697E-13 1.97772E-07
 -1      5130-5.43576E-06-1.77550E-07 5.89255E-06-1.61418E-11 5.70777E-23-2.83590E-20
 -1      5131-5.43576E-06-1.77550E-07 5.89255E-06-1.61418E-11-2.80697E-13-1.97772E-07
 -1      5132-5.41514E-06-1.77572E-07 5.87204E-06-3.31349E-11 5.76312E-13 1.97056E-07
 -1      5133-5.41514E-06-1.77572E-07 5.87204E-06-3.31349E-11-7.15026E-23-6.05345E-21
 -1      5134-5.41514E-06-1.77572E-07 5.87204E-06-3.31349E-11-5.76312E-13-1.97056E-07
 -1      5135-2.33004E-06-1.77780E-07 2.78719E-06 1.63763E-12-2.83462E-14 8.93284E-08
 -1      5136-2.33004E-06-1.77780E-07 2.78719E-06 1.63763E-12 7.97198E-23-6.95504E-21
 -1      5137-2.33004E-06-1.77780E-07 2.78719E-06 1.63763E-12 2.83462E-14-8.93284E-08
 -1      5138-4.71311E-06-1.77525E-07 5.16963E-06 3.34364E-11-5.75488E-13 1.72531E-07
 -1      5139-4.71311E-06-1.77525E-07 5.16963E-06 3.34364E-11-1.55163E-22-1.08313E-20
 -1      5140-4.71311E-06-1.77525E-07 5.16963E-06 3.34364E-11 5.75488E-13-1.72531E-07
 -1      5141-3.74659E-06-1.77776E-07 4.20358E-06-1.27506E-10 2.23006E-12 1.38787E-07
 -1      5142-3.74659E-06-1.77776E-07 4.20358E-06-1.27506E-10-1.10461E-23 6.33359E-21
 -1      5143-3.74659E-06-1.77776E-07 4.20358E-06-1.27506E-10-2.23006E-12-1.38787E-07
 -1      5144-2.92682E-06-1.77775E-07 3.38396E-06-5.32195E-12 9.33781E-14 1.10165E-07
 -1      5145-2.92682E-06-1.77775E-07 3.38396E-06-5.32195E-12 5.29474E-24-1.95373E-20
 -1      5146-2.92682E-06-1.77775E-07 3.38396E-06-5.32195E-12-9.33781E-14-1.10165E-07
 -1      5147-1.88833E-06-1.77773E-07 2.34546E-06-1.00854E-13 1.56662E-15 7.39058E-08
 -1      5148-1.88833E-06-1.77773E-07 2.34546E-06-1.00854E-13-2.65148E-23 7.50744E-21
 -1      5149-1.88833E-06-1.77773E-07 2.34546E-06-1.00854E-13-1.56662E-15-7.39058E-08
 -1      5150-1.55289E-06-1.77777E-07 2.01003E-06-1.02281E-12 1.79128E-14 6.21941E-08
 -1      5151-1.55289E-06-1.77777E-07 2.01003E-06-1.02281E-12 9.06763E-23 3.36078E-21
 -1      5152-1.55289E-06-1.77777E-07 2.01003E-06-1.02281E-12-1.79128E-14-6.21941E-08
 -1      5153-1.29102E-06-1.77777E-07 1.74816E-06 6.82594E-13-1.18636E-14 5.30513E-08
 -1      5154-1.29102E-06-1.77777E-07 1.74816E-06 6.82594E-13 8.16224E-24 8.57771E-23
 -1      5155-1.29102E-06-1.77777E-07 1.74816E-06 6.82594E-13 1.18636E-14-5.30513E-08
 -1      5156-1.08328E-06-1.77775E-07 1.54041E-06-6.55881E-14 1.04433E-15 4.57984E-08
 -1      5157-1.08328E-06-1.77775E-07 1.54041E-06-6.55881E-14 7.10833E-24 6.03879E-21
 -1      5158-1.08328E-06-1.77775E-07 1.54041E-06-6.55881E-14-1.04433E-15-4.57984E-08
 -1      5159-9.15579E-07-1.77776E-07 1.37272E-06-1.35084E-14 2.62318E-16 3.99437E-08
 -1      5160-9.15579E-07-1.77776E-07 1.37272E-06-1.35084E-14-7.01707E-24-5.78424E-21
 -1      5161-9.15579E-07-1.77776E-07 1.37272E-06-1.35084E-14-2.62318E-16-3.99437E-08
 -1      5162-7.78077E-07-1.77775E-07 1.23521E-06-1.49859E-14 1.94530E-16 3.51432E-08
 -1      5163-7.78077E-07-1.77775E-07 1.23521E-06-1.49859E-14-5.77356E-23-7.44934E-21
 -1      5164-7.78077E-07-1.77775E-07 1.23521E-06-1.49859E-14-1.94530E-16-3.51432E-08
 -1      5165-6.63811E-07-1.77776E-07 1.12095E-06-2.17189E-13 3.81568E-15 3.11539E-08
 -1      5166-6.63811E-07-1.77776E-07 1.12095E-06-2.17189E-13-7.29237E-24-2.33440E-21
 -1      5167-6.63811E-07-1.77776E-07 1.12095E-06-2.17189E-13-3.81568E-15-3.11539E-08
 -1      5168-5.67696E-07-1.77776E-07 1.02483E-06 2.02623E-13-3.51395E-15 2.77984E-08
 -1      5169-5.67696E-07-1.77776E-07 1.02483E-06 2.02623E-13 2.42106E-23-3.50853E-21
 -1      5170-5.67696E-07-1.77776E-07 1.02483E-06 2.02623E-13 3.51395E-15-2.77984E-08
 -1      5171-4.86391E-07-1.77776E-07 9.43529E-07 8.27650E-16-4.69526E-17 2.49599E-08
 -1      5172-4.86391E-07-1.77776E-07 9.43529E-07 8.27649E-16-2.08745E-23 2.22993E-21
 -1      5173-4.86391E-07-1.77776E-07 9.43529E-07 8.27648E-16 4.69526E-17-2.49599E-08
 -1      5174-4.16876E-07-1.77776E-07 8.74015E-07-1.10874E-13 1.95716E-15 2.25330E-08
 -1      5175-4.16876E-07-1.77776E-07 8.74015E-07-1.10874E-13 7.50807E-23-1.82853E-21
 -1      5176-4.16876E-07-1.77776E-07 8.74015E-07-1.10874E-13-1.95716E-15-2.25330E-08
 -1      5177-3.56937E-07-1.77776E-07 8.14076E-07 1.10859E-13-1.91073E-15 2.04404E-08
 -1      5178-3.56937E-07-1.77776E-07 8.14076E-07 1.10859E-13 1.62694E-23-2.60094E-21
 -1      5179-3.56937E-07-1.77776E-07 8.14076E-07 1.10859E-13 1.91073E-15-2.04404E-08
 -1      5180-3.05415E-07-1.77776E-07 7.62553E-07 1.78564E-14-3.44742E-16 1.86417E-08
 -1      5181-3.05415E-07-1.77776E-07 7.62553E-07 1.78564E-14-1.53306E-23-1.36076E-21
 -1      5182-3.05415E-07-1.77776E-07 7.62553E-07 1.78564E-14 3.44742E-16-1.86417E-08
 -1      5183-2.60591E-07-1.77776E-07 7.17730E-07 9.64878E-14-1.71791E-15 1.70769E-08
 -1      5184-2.60591E-07-1.77776E-07 7.17730E-07 9.64878E-14 2.51813E-23-2.30597E-21
 -1      5185-2.60591E-07-1.77776E-07 7.17730E-07 9.64878E-14 1.71791E-15-1.70769E-08
 -1      5186-2.19909E-07-1.77777E-07 6.77048E-07 1.28811E-12-2.23323E-14 1.56567E-08
 -1      5187-2.19909E-07-1.77777E-07 6.77048E-07 1.28811E-12 7.82896E-24-3.28166E-22
 -1      5188-2.19909E-07-1.77777E-07 6.77048E-07 1.28811E-12 2.23323E-14-1.56567E-08
 -1      5189-1.92777E-07-1.77776E-07 6.49916E-07 1.41394E-12-2.47741E-14 1.47095E-08
 -1      5190-1.92777E-07-1.77776E-07 6.49916E-07 1.41394E-12-9.44353E-24 8.20112E-22
 -1      5191-1.92777E-07-1.77776E-07 6.49916E-07 1.41394E-12 2.47741E-14-1.47095E-08
 -1      5192-1.92014E-07-1.77775E-07 6.49151E-07 1.56165E-13-2.74326E-15 1.46828E-08
 -1      5193-1.92014E-07-1.77775E-07 6.49151E-07 1.56165E-13-5.52111E-23 2.93048E-21
 -1      5194-1.92014E-07-1.77775E-07 6.49151E-07 1.56165E-13 2.74326E-15-1.46828E-08
 -1      5195-1.92002E-07-1.77775E-07 6.49139E-07 7.94182E-14-1.37384E-15 1.46823E-08
 -1      5196-1.92002E-07-1.77775E-07 6.49139E-07 7.94182E-14 4.11679E-23-7.18211E-22
 -1      5197-1.92002E-07-1.77775E-07 6.49139E-07 7.94182E-14 1.37384E-15-1.46823E-08
 -1      5198-1.92131E-07-1.77775E-07 6.49267E-07 2.50537E-14-4.34544E-16 1.46868E-08
 -1      5199-1.92131E-07-1.77775E-07 6.49267E-07 2.50537E-14-1.83369E-23 1.60436E-21
 -1      5200-1.92131E-07-1.77775E-07 6.49267E-07 2.50537E-14 4.34544E-16-1.46868E-08
 -1      5201-1.92141E-07-1.77775E-07 6.49278E-07-1.66933E-14 2.88718E-16 1.46872E-08
 -1      5202-1.92141E-07-1.77775E-07 6.49278E-07-1.66933E-14 6.24021E-23-1.61517E-21
 -1      5203-1.92141E-07-1.77775E-07 6.49278E-07-1.66933E-14-2.88718E-16-1.46872E-08
 -1      5204-1.92113E-07-1.77775E-07 6.49249E-07-4.02533E-15 6.94572E-17 1.46862E-08
 -1      5205-1.92113E-07-1.77775E-07 6.49249E-07-4.02533E-15-2.65661E-24-3.08879E-21
 -1      5206-1.92113E-07-1.77775E-07 6.49249E-07-4.02533E-15-6.94572E-17-1.46862E-08
 -1      5207-1.92104E-07-1.77775E-07 6.49240E-07 8.80771E-15-1.53476E-16 1.46859E-08
 -1      5208-1.92104E-07-1.77775E-07 6.49240E-07 8.80771E-15 5.24267E-23-4.75170E-22
 -1      5209-1.92104E-07-1.77775E-07 6.49240E-07 8.80771E-15 1.53476E-16-1.46859E-08
 -1      5210-1.92059E-07-1.77775E-07 6.49196E-07-1.63474E-14 2.79928E-16 1.46843E-08
 -1      5211-1.92059E-07-1.77775E-07 6.49196E-07-1.63474E-14 7.47458E-23 4.38149E-21
 -1      5212-1.92059E-07-1.77775E-07 6.49196E-07-1.63474E-14-2.79928E-16-1.46843E-08
 -1      5213-1.91973E-07-1.77775E-07 6.49109E-07-2.89500E-14 4.99676E-16 1.46813E-08
 -1      5214-1.91973E-07-1.77775E-07 6.49109E-07-2.89500E-14-2.11930E-24-7.54879E-22
 -1      5215-1.91973E-07-1.77775E-07 6.49109E-07-2.89500E-14-4.99676E-16-1.46813E-08
 -1      5216-1.92180E-07-1.77775E-07 6.49317E-07-3.46085E-14 6.37096E-16 1.46886E-08
 -1      5217-1.92180E-07-1.77775E-07 6.49317E-07-3.46085E-14 6.12136E-22-1.20558E-21
 -1      5218-1.92180E-07-1.77775E-07 6.49317E-07-3.46085E-14-6.37095E-16-1.46886E-08
 -1      5219-1.92278E-07-1.77775E-07 6.49416E-07-2.30311E-13 3.95493E-15 1.46920E-08
 -1      5220-1.92278E-07-1.77775E-07 6.49416E-07-2.30311E-13 1.63347E-22-5.62735E-22
 -1      5221-1.92278E-07-1.77775E-07 6.49416E-07-2.30311E-13-3.95493E-15-1.46920E-08
 -1      5222-4.75067E-06-1.77799E-07 5.20784E-06 3.91175E-12-6.74411E-14 1.73855E-07
 -1      5223-4.75067E-06-1.77799E-07 5.20784E-06 3.91175E-12-5.54426E-22-1.60284E-20
 -1      5224-4.75067E-06-1.77799E-07 5.20784E-06 3.91175E-12 6.74411E-14-1.73855E-07
 -1      5225-4.74091E-06-1.77781E-07 5.19804E-06 6.95210E-12-1.21119E-13 1.73513E-07
 -1      5226-4.74091E-06-1.77781E-07 5.19804E-06 6.95210E-12 1.70408E-23-1.25487E-21
 -1      5227-4.74091E-06-1.77781E-07 5.19804E-06 6.95210E-12 1.21119E-13-1.73513E-07
 -1      5228-4.77751E-06-1.77707E-07 5.23483E-06-2.28335E-10 3.97804E-12 1.74794E-07
 -1      5229-4.77751E-06-1.77707E-07 5.23483E-06-2.28335E-10-5.61329E-22 1.06079E-20
 -1      5230-4.77751E-06-1.77707E-07 5.23483E-06-2.28335E-10-3.97804E-12-1.74794E-07
 -1      5231-4.77072E-06-1.77793E-07 5.22787E-06 1.08385E-12-1.85357E-14 1.74553E-07
 -1      5232-4.77072E-06-1.77793E-07 5.22787E-06 1.08385E-12 1.43194E-21 2.11856E-20
 -1      5233-4.77072E-06-1.77793E-07 5.22787E-06 1.08385E-12 1.85357E-14-1.74553E-07
 -1      5234-4.77766E-06-1.77793E-07 5.23482E-06-6.31456E-14 1.12081E-15 1.74796E-07
 -1      5235-4.77766E-06-1.77793E-07 5.23482E-06-6.31456E-14-3.32439E-22-9.06134E-21
 -1      5236-4.77766E-06-1.77793E-07 5.23482E-06-6.31456E-14-1.12081E-15-1.74796E-07
 -1      5237-4.77737E-06-1.77794E-07 5.23453E-06-8.22734E-13 1.43161E-14 1.74785E-07
 -1      5238-4.77737E-06-1.77794E-07 5.23453E-06-8.22734E-13 3.67526E-22 4.69195E-21
 -1      5239-4.77737E-06-1.77794E-07 5.23453E-06-8.22734E-13-1.43161E-14-1.74785E-07
 -1      5240-4.77654E-06-1.77795E-07 5.23370E-06-5.45323E-13 9.49147E-15 1.74756E-07
 -1      5241-4.77654E-06-1.77795E-07 5.23370E-06-5.45323E-13 3.21473E-22-2.74224E-20
 -1      5242-4.77654E-06-1.77795E-07 5.23370E-06-5.45323E-13-9.49147E-15-1.74756E-07
 -1      5243-4.77839E-06-1.77795E-07 5.23556E-06 3.44703E-12-6.00240E-14 1.74821E-07
 -1      5244-4.77839E-06-1.77795E-07 5.23556E-06 3.44703E-12 6.40154E-23 1.81142E-20
 -1      5245-4.77839E-06-1.77795E-07 5.23556E-06 3.44703E-12 6.00240E-14-1.74821E-07
 -1      5246-4.77857E-06-1.77799E-07 5.23574E-06-3.55558E-12 6.16735E-14 1.74827E-07
 -1      5247-4.77857E-06-1.77799E-07 5.23574E-06-3.55558E-12-8.08257E-22 7.55937E-21
 -1      5248-4.77857E-06-1.77799E-07 5.23574E-06-3.55558E-12-6.16735E-14-1.74827E-07
 -1      5249-4.75218E-06-1.77784E-07 5.20933E-06 5.68417E-12-1.00152E-13 1.73907E-07
 -1      5250-4.75218E-06-1.77784E-07 5.20933E-06 5.68417E-12 1.64091E-22-6.24580E-21
 -1      5251-4.75218E-06-1.77784E-07 5.20933E-06 5.68417E-12 1.00152E-13-1.73907E-07
 -1      5252-4.71313E-06-1.77855E-07 5.17039E-06-1.18865E-10 2.07007E-12 1.72547E-07
 -1      5253-4.71313E-06-1.77855E-07 5.17039E-06-1.18865E-10-9.14871E-23 6.60343E-21
 -1      5254-4.71313E-06-1.77855E-07 5.17039E-06-1.18865E-10-2.07007E-12-1.72547E-07
 -1      5255-3.11810E-06-1.77770E-07 3.57524E-06 5.44235E-12-9.39386E-14 1.16844E-07
 -1      5256-3.11810E-06-1.77770E-07 3.57524E-06 5.44235E-12 1.17403E-22-1.46914E-20
 -1      5257-3.11810E-06-1.77770E-07 3.57524E-06 5.44235E-12 9.39386E-14-1.16844E-07
 -1      5258-1.48112E-06-1.77776E-07 1.93826E-06-2.96057E-13 5.14769E-15 5.96886E-08
 -1      5259-1.48112E-06-1.77776E-07 1.93826E-06-2.96057E-13-3.53048E-23-2.94679E-21
 -1      5260-1.48112E-06-1.77776E-07 1.93826E-06-2.96057E-13-5.14769E-15-5.96886E-08
 -1      5261-2.46483E-06-1.77778E-07 2.92197E-06-3.43843E-12 6.03208E-14 9.40348E-08
 -1      5262-2.46483E-06-1.77778E-07 2.92197E-06-3.43843E-12 7.52095E-23 7.49970E-21
 -1      5263-2.46483E-06-1.77778E-07 2.92197E-06-3.43843E-12-6.03208E-14-9.40348E-08
 -1      5264-1.98659E-06-1.77776E-07 2.44373E-06 4.31970E-13-7.59385E-15 7.73367E-08
 -1      5265-1.98659E-06-1.77776E-07 2.44373E-06 4.31970E-13-9.46925E-23-1.17878E-20
 -1      5266-1.98659E-06-1.77776E-07 2.44373E-06 4.31970E-13 7.59385E-15-7.73367E-08
 -1      5267-2.76644E-06-1.77781E-07 3.22358E-06-1.87501E-11 3.28286E-13 1.04566E-07
 -1      5268-2.76644E-06-1.77781E-07 3.22358E-06-1.87501E-11-3.71910E-23 2.15337E-21
 -1      5269-2.76644E-06-1.77781E-07 3.22358E-06-1.87501E-11-3.28286E-13-1.04566E-07
 -1      5270-4.09364E-06-1.77914E-07 4.55118E-06-6.45295E-11 1.12540E-12 1.50920E-07
 -1      5271-4.09364E-06-1.77914E-07 4.55118E-06-6.45295E-11-4.36067E-23 1.23066E-20
 -1      5272-4.09364E-06-1.77914E-07 4.55118E-06-6.45295E-11-1.12540E-12-1.50920E-07
 -1      5273-2.20760E-06-1.77776E-07 2.66474E-06-1.47792E-13 2.66582E-15 8.50533E-08
 -1      5274-2.20760E-06-1.77776E-07 2.66474E-06-1.47792E-13 1.14872E-22-8.20618E-21
 -1      5275-2.20760E-06-1.77776E-07 2.66474E-06-1.47792E-13-2.66582E-15-8.50533E-08
 -1      5276-2.08331E-07-1.77775E-07 6.65467E-07 6.07680E-13-1.07208E-14 1.52524E-08
 -1      5277-2.08331E-07-1.77775E-07 6.65467E-07 6.07680E-13 2.50843E-25-3.30791E-21
 -1      5278-2.08331E-07-1.77775E-07 6.65467E-07 6.07680E-13 1.07208E-14-1.52524E-08
 -1      5279-1.23479E-06-1.77776E-07 1.69193E-06-3.19290E-14 5.68512E-16 5.10884E-08
 -1      5280-1.23479E-06-1.77776E-07 1.69193E-06-3.19290E-14-2.04377E-23 3.26407E-21
 -1      5281-1.23479E-06-1.77776E-07 1.69193E-06-3.19290E-14-5.68512E-16-5.10884E-08
 -1      5282-1.03807E-06-1.77776E-07 1.49521E-06 9.18842E-14-1.61187E-15 4.42201E-08
 -1      5283-1.03807E-06-1.77776E-07 1.49521E-06 9.18842E-14-2.35686E-23-7.24765E-22
 -1      5284-1.03807E-06-1.77776E-07 1.49521E-06 9.18842E-14 1.61187E-15-4.42201E-08
 -1      5285-8.78688E-07-1.77776E-07 1.33583E-06-7.01049E-15 1.32099E-16 3.86557E-08
 -1      5286-8.78688E-07-1.77776E-07 1.33583E-06-7.01050E-15-1.21479E-22-4.03989E-21
 -1      5287-8.78688E-07-1.77776E-07 1.33583E-06-7.01050E-15-1.32099E-16-3.86557E-08
 -1      5288-7.47486E-07-1.77776E-07 1.20462E-06 2.19072E-14-3.87597E-16 3.40752E-08
 -1      5289-7.47486E-07-1.77776E-07 1.20462E-06 2.19072E-14 8.01470E-23-2.71191E-21
 -1      5290-7.47486E-07-1.77776E-07 1.20462E-06 2.19072E-14 3.87597E-16-3.40752E-08
 -1      5291-6.38177E-07-1.77776E-07 1.09532E-06-1.49015E-14 2.56374E-16 3.02590E-08
 -1      5292-6.38177E-07-1.77776E-07 1.09532E-06-1.49015E-14 2.87987E-23-4.98265E-21
 -1      5293-6.38177E-07-1.77776E-07 1.09532E-06-1.49015E-14-2.56374E-16-3.02590E-08
 -1      5294-5.46135E-07-1.77776E-07 1.00327E-06-2.03017E-15 4.20910E-17 2.70456E-08
 -1      5295-5.46135E-07-1.77776E-07 1.00327E-06-2.03017E-15 2.08806E-23-6.94577E-22
 -1      5296-5.46135E-07-1.77776E-07 1.00327E-06-2.03018E-15-4.20910E-17-2.70456E-08
 -1      5297-4.67838E-07-1.77776E-07 9.24976E-07 1.61115E-14-2.76952E-16 2.43121E-08
 -1      5298-4.67838E-07-1.77776E-07 9.24976E-07 1.61115E-14 6.25367E-23 4.01927E-22
 -1      5299-4.67838E-07-1.77776E-07 9.24976E-07 1.61115E-14 2.76952E-16-2.43121E-08
 -1      5300-4.00737E-07-1.77776E-07 8.57875E-07 2.06405E-14-3.49823E-16 2.19695E-08
 -1      5301-4.00737E-07-1.77776E-07 8.57875E-07 2.06405E-14-3.87068E-24 2.34602E-21
 -1      5302-4.00737E-07-1.77776E-07 8.57875E-07 2.06405E-14 3.49823E-16-2.19695E-08
 -1      5303-3.42844E-07-1.77776E-07 7.99983E-07 3.34438E-14-5.50692E-16 1.99484E-08
 -1      5304-3.42844E-07-1.77776E-07 7.99983E-07 3.34438E-14-3.32357E-23 2.33877E-21
 -1      5305-3.42844E-07-1.77776E-07 7.99983E-07 3.34438E-14 5.50691E-16-1.99484E-08
 -1      5306-2.93394E-07-1.77776E-07 7.50533E-07 2.81319E-14-4.76265E-16 1.82221E-08
 -1      5307-2.93394E-07-1.77776E-07 7.50533E-07 2.81319E-14-3.01081E-23-2.49556E-21
 -1      5308-2.93394E-07-1.77776E-07 7.50533E-07 2.81320E-14 4.76265E-16-1.82221E-08
 -1      5309-2.51068E-07-1.77777E-07 7.08207E-07 1.18157E-12-2.07927E-14 1.67444E-08
 -1      5310-2.51068E-07-1.77777E-07 7.08207E-07 1.18157E-12 4.50617E-23 1.01632E-21
 -1      5311-2.51068E-07-1.77777E-07 7.08207E-07 1.18157E-12 2.07927E-14-1.67444E-08
 -1      5312-2.09906E-07-1.77776E-07 6.67045E-07-5.90489E-13 1.03422E-14 1.53075E-08
 -1      5313-2.09906E-07-1.77776E-07 6.67045E-07-5.90489E-13-9.12004E-23 2.11990E-21
 -1      5314-2.09906E-07-1.77776E-07 6.67045E-07-5.90489E-13-1.03422E-14-1.53075E-08
 -1      5315-2.06976E-07-1.77776E-07 6.64114E-07-3.23736E-14 5.92199E-16 1.52051E-08
 -1      5316-2.06976E-07-1.77776E-07 6.64114E-07-3.23736E-14 1.29459E-23-2.32808E-21
 -1      5317-2.06976E-07-1.77776E-07 6.64114E-07-3.23736E-14-5.92199E-16-1.52051E-08
 -1      5318-2.07292E-07-1.77776E-07 6.64430E-07 4.99658E-14-9.03892E-16 1.52162E-08
 -1      5319-2.07292E-07-1.77776E-07 6.64430E-07 4.99658E-14 1.70133E-23-1.23542E-21
 -1      5320-2.07292E-07-1.77776E-07 6.64430E-07 4.99658E-14 9.03892E-16-1.52162E-08
 -1      5321-2.07339E-07-1.77776E-07 6.64477E-07-5.59828E-16 1.63861E-17 1.52178E-08
 -1      5322-2.07339E-07-1.77776E-07 6.64477E-07-5.59831E-16 3.51592E-23 3.35185E-21
 -1      5323-2.07339E-07-1.77776E-07 6.64477E-07-5.59835E-16-1.63860E-17-1.52178E-08
 -1      5324-2.07500E-07-1.77776E-07 6.64638E-07-9.27242E-15 1.60539E-16 1.52234E-08
 -1      5325-2.07500E-07-1.77776E-07 6.64638E-07-9.27242E-15-3.96253E-23-3.13412E-22
 -1      5326-2.07500E-07-1.77776E-07 6.64638E-07-9.27242E-15-1.60539E-16-1.52234E-08
 -1      5327-2.07448E-07-1.77776E-07 6.64586E-07-7.92250E-15 1.33028E-16 1.52216E-08
 -1      5328-2.07448E-07-1.77776E-07 6.64586E-07-7.92250E-15 1.57365E-22 1.54803E-21
 -1      5329-2.07448E-07-1.77776E-07 6.64586E-07-7.92250E-15-1.33027E-16-1.52216E-08
 -1      5330-2.07385E-07-1.77776E-07 6.64524E-07 3.71923E-15-6.41390E-17 1.52194E-08
 -1      5331-2.07385E-07-1.77776E-07 6.64524E-07 3.71923E-15-2.39862E-22 8.20115E-22
 -1      5332-2.07385E-07-1.77776E-07 6.64524E-07 3.71923E-15 6.41385E-17-1.52194E-08
 -1      5333-2.07384E-07-1.77776E-07 6.64523E-07 9.16842E-15-1.58380E-16 1.52194E-08
 -1      5334-2.07384E-07-1.77776E-07 6.64523E-07 9.16842E-15 3.85069E-23-1.09453E-21
 -1      5335-2.07384E-07-1.77776E-07 6.64523E-07 9.16841E-15 1.58381E-16-1.52194E-08
 -1      5336-2.07246E-07-1.77776E-07 6.64384E-07-3.08601E-14 5.27311E-16 1.52145E-08
 -1      5337-2.07246E-07-1.77776E-07 6.64384E-07-3.08601E-14 2.20185E-23-1.26436E-21
 -1      5338-2.07246E-07-1.77776E-07 6.64384E-07-3.08601E-14-5.27311E-16-1.52145E-08
 -1      5339-2.07021E-07-1.77776E-07 6.64159E-07-2.69361E-14 4.51482E-16 1.52067E-08
 -1      5340-2.07021E-07-1.77776E-07 6.64159E-07-2.69361E-14 1.87143E-22 5.24305E-22
 -1      5341-2.07021E-07-1.77776E-07 6.64159E-07-2.69361E-14-4.51482E-16-1.52067E-08
 -1      5342-2.07732E-07-1.77776E-07 6.64870E-07-3.64907E-13 6.43743E-15 1.52315E-08
 -1      5343-2.07732E-07-1.77776E-07 6.64870E-07-3.64907E-13 1.71541E-23 1.55433E-21
 -1      5344-2.07732E-07-1.77776E-07 6.64870E-07-3.64907E-13-6.43743E-15-1.52315E-08
 -1      5345-2.07222E-07-1.77775E-07 6.64360E-07 1.27847E-12-2.25402E-14 1.52137E-08
 -1      5346-2.07222E-07-1.77775E-07 6.64360E-07 1.27847E-12-5.45235E-22 6.93025E-22
 -1      5347-2.07222E-07-1.77775E-07 6.64360E-07 1.27847E-12 2.25402E-14-1.52137E-08
 -1      5348-3.52968E-06-1.77822E-07 3.98699E-06 6.66747E-11-1.16711E-12 1.31220E-07
 -1      5349-3.52968E-06-1.77822E-07 3.98699E-06 6.66747E-11-1.18539E-23-2.38419E-20
 -1      5350-3.52968E-06-1.77822E-07 3.98699E-06 6.66747E-11 1.16711E-12-1.31220E-07
 -1      5351-4.73458E-06-1.77814E-07 5.19177E-06 4.79416E-12-8.33720E-14 1.73294E-07
 -1      5352-4.73458E-06-1.77814E-07 5.19177E-06 4.79416E-12 4.45859E-22-5.08780E-21
 -1      5353-4.73458E-06-1.77814E-07 5.19177E-06 4.79416E-12 8.33720E-14-1.73294E-07
 -1      5354-4.73715E-06-1.77750E-07 5.19424E-06 2.78140E-11-4.86839E-13 1.73381E-07
 -1      5355-4.73715E-06-1.77750E-07 5.19424E-06 2.78140E-11-1.19471E-21-1.07382E-22
 -1      5356-4.73715E-06-1.77750E-07 5.19424E-06 2.78140E-11 4.86839E-13-1.73381E-07
 -1      5357-4.13895E-06-1.77846E-07 4.59624E-06 1.06288E-10-1.85298E-12 1.52498E-07
 -1      5358-4.13895E-06-1.77846E-07 4.59624E-06 1.06288E-10-7.16181E-23 4.49629E-21
 -1      5359-4.13895E-06-1.77846E-07 4.59624E-06 1.06288E-10 1.85298E-12-1.52498E-07
 -1      5360-3.56679E-06-1.77819E-07 4.02411E-06-4.19822E-11 7.35786E-13 1.32516E-07
 -1      5361-3.56679E-06-1.77819E-07 4.02411E-06-4.19822E-11 2.59655E-22-5.11024E-21
 -1      5362-3.56679E-06-1.77819E-07 4.02411E-06-4.19822E-11-7.35786E-13-1.32516E-07
 -1      5363-3.14327E-06-1.77775E-07 3.60041E-06-6.80205E-12 1.18918E-13 1.17723E-07
 -1      5364-3.14327E-06-1.77775E-07 3.60041E-06-6.80205E-12-5.86225E-22 6.64900E-21
 -1      5365-3.14327E-06-1.77775E-07 3.60041E-06-6.80205E-12-1.18918E-13-1.17723E-07
 -1      5366-2.78850E-06-1.77774E-07 3.24564E-06-4.09723E-12 7.16688E-14 1.05336E-07
 -1      5367-2.78850E-06-1.77774E-07 3.24564E-06-4.09723E-12-1.22000E-22 9.92618E-22
 -1      5368-2.78850E-06-1.77774E-07 3.24564E-06-4.09723E-12-7.16688E-14-1.05336E-07
 -1      5369-2.48721E-06-1.77775E-07 2.94435E-06-1.60050E-13 2.87364E-15 9.48159E-08
 -1      5370-2.48721E-06-1.77775E-07 2.94435E-06-1.60050E-13-1.70022E-22-3.65453E-21
 -1      5371-2.48721E-06-1.77775E-07 2.94435E-06-1.60050E-13-2.87364E-15-9.48159E-08
 -1      5372-2.22893E-06-1.77774E-07 2.68607E-06-2.41087E-13 4.23156E-15 8.57981E-08
 -1      5373-2.22893E-06-1.77774E-07 2.68607E-06-2.41087E-13-1.84166E-23 3.52614E-21
 -1      5374-2.22893E-06-1.77774E-07 2.68607E-06-2.41087E-13-4.23156E-15-8.57981E-08
 -1      5375-2.00596E-06-1.77775E-07 2.46310E-06-6.81757E-13 1.19643E-14 7.80129E-08
 -1      5376-2.00596E-06-1.77775E-07 2.46310E-06-6.81757E-13-2.85948E-22-6.43228E-21
 -1      5377-2.00596E-06-1.77775E-07 2.46310E-06-6.81757E-13-1.19643E-14-7.80129E-08
 -1      5378-1.81214E-06-1.77775E-07 2.26928E-06-2.28250E-13 4.05423E-15 7.12459E-08
 -1      5379-1.81214E-06-1.77775E-07 2.26928E-06-2.28250E-13-1.11121E-22-6.86658E-22
 -1      5380-1.81214E-06-1.77775E-07 2.26928E-06-2.28250E-13-4.05423E-15-7.12459E-08
 -1      5381-1.64270E-06-1.77775E-07 2.09984E-06-2.62329E-13 4.61579E-15 6.53298E-08
 -1      5382-1.64270E-06-1.77775E-07 2.09984E-06-2.62329E-13 1.36977E-21-6.56315E-21
 -1      5383-1.64270E-06-1.77775E-07 2.09984E-06-2.62329E-13-4.61579E-15-6.53298E-08
 -1      5384-1.49367E-06-1.77775E-07 1.95081E-06-2.99843E-13 5.29044E-15 6.01267E-08
 -1      5385-1.49367E-06-1.77775E-07 1.95081E-06-2.99843E-13-4.25828E-22-7.28054E-21
 -1      5386-1.49367E-06-1.77775E-07 1.95081E-06-2.99843E-13-5.29044E-15-6.01267E-08
 -1      5387-1.36181E-06-1.77776E-07 1.81895E-06 5.31176E-14-8.74295E-16 5.55230E-08
 -1      5388-1.36181E-06-1.77776E-07 1.81895E-06 5.31176E-14 2.80894E-22 7.13351E-21
 -1      5389-1.36181E-06-1.77776E-07 1.81895E-06 5.31176E-14 8.74295E-16-5.55230E-08
 -1      5390-1.24459E-06-1.77775E-07 1.70173E-06 1.81561E-14-2.91064E-16 5.14303E-08
 -1      5391-1.24459E-06-1.77775E-07 1.70173E-06 1.81561E-14 2.31371E-23-2.02502E-21
 -1      5392-1.24459E-06-1.77775E-07 1.70173E-06 1.81561E-14 2.91064E-16-5.14303E-08
 -1      5393-1.13990E-06-1.77776E-07 1.59703E-06-6.56501E-14 1.18486E-15 4.77752E-08
 -1      5394-1.13990E-06-1.77776E-07 1.59703E-06-6.56502E-14-4.32629E-22-4.18547E-21
 -1      5395-1.13990E-06-1.77776E-07 1.59703E-06-6.56502E-14-1.18486E-15-4.77752E-08
 -1      5396-1.04598E-06-1.77776E-07 1.50312E-06 8.29206E-14-1.41058E-15 4.44964E-08
 -1      5397-1.04598E-06-1.77776E-07 1.50312E-06 8.29206E-14 1.81726E-22-3.71130E-21
 -1      5398-1.04598E-06-1.77776E-07 1.50312E-06 8.29206E-14 1.41058E-15-4.44964E-08
 -1      5399-9.61463E-07-1.77776E-07 1.41860E-06 4.23238E-14-7.23124E-16 4.15456E-08
 -1      5400-9.61463E-07-1.77776E-07 1.41860E-06 4.23238E-14 5.88484E-22 2.05733E-21
 -1      5401-9.61463E-07-1.77776E-07 1.41860E-06 4.23238E-14 7.23126E-16-4.15456E-08
 -1      5402-8.85135E-07-1.77776E-07 1.34227E-06-2.01984E-15 4.74178E-17 3.88808E-08
 -1      5403-8.85135E-07-1.77776E-07 1.34227E-06-2.01983E-15-4.36655E-22-1.89111E-21
 -1      5404-8.85135E-07-1.77776E-07 1.34227E-06-2.01983E-15-4.74186E-17-3.88808E-08
 -1      5405-8.15864E-07-1.77776E-07 1.27300E-06-4.48213E-15 1.01948E-16 3.64624E-08
 -1      5406-8.15864E-07-1.77776E-07 1.27300E-06-4.48213E-15 4.95063E-22-1.38853E-21
 -1      5407-8.15864E-07-1.77776E-07 1.27300E-06-4.48214E-15-1.01947E-16-3.64624E-08
 -1      5408-7.52798E-07-1.77776E-07 1.20994E-06 7.16573E-14-1.22769E-15 3.42606E-08
 -1      5409-7.52798E-07-1.77776E-07 1.20994E-06 7.16573E-14 1.35537E-22 3.97427E-23
 -1      5410-7.52798E-07-1.77776E-07 1.20994E-06 7.16573E-14 1.22769E-15-3.42606E-08
 -1      5411-6.95258E-07-1.77776E-07 1.15240E-06 2.83606E-14-4.84359E-16 3.22518E-08
 -1      5412-6.95258E-07-1.77776E-07 1.15240E-06 2.83606E-14-6.13573E-22 4.02056E-21
 -1      5413-6.95258E-07-1.77776E-07 1.15240E-06 2.83606E-14 4.84358E-16-3.22518E-08
 -1      5414-6.42629E-07-1.77776E-07 1.09977E-06-9.44782E-15 1.83290E-16 3.04144E-08
 -1      5415-6.42629E-07-1.77776E-07 1.09977E-06-9.44782E-15 4.34523E-22 9.93463E-22
 -1      5416-6.42629E-07-1.77776E-07 1.09977E-06-9.44782E-15-1.83289E-16-3.04144E-08
 -1      5417-5.94366E-07-1.77776E-07 1.05150E-06 5.76040E-14-9.86854E-16 2.87294E-08
 -1      5418-5.94366E-07-1.77776E-07 1.05150E-06 5.76040E-14 9.61585E-23 4.57417E-21
 -1      5419-5.94366E-07-1.77776E-07 1.05150E-06 5.76040E-14 9.86854E-16-2.87294E-08
 -1      5420-5.50028E-07-1.77776E-07 1.00717E-06 3.18931E-14-5.46643E-16 2.71815E-08
 -1      5421-5.50028E-07-1.77776E-07 1.00717E-06 3.18931E-14-6.59657E-22-2.70317E-21
 -1      5422-5.50028E-07-1.77776E-07 1.00717E-06 3.18931E-14 5.46641E-16-2.71815E-08
 -1      5423-5.09210E-07-1.77776E-07 9.66348E-07 5.48592E-15-7.86426E-17 2.57565E-08
 -1      5424-5.09210E-07-1.77776E-07 9.66348E-07 5.48592E-15 1.62062E-22-7.52119E-21
 -1      5425-5.09210E-07-1.77776E-07 9.66348E-07 5.48592E-15 7.86429E-17-2.57565E-08
 -1      5426-4.71547E-07-1.77776E-07 9.28685E-07 5.26155E-14-8.99334E-16 2.44416E-08
 -1      5427-4.71547E-07-1.77776E-07 9.28685E-07 5.26155E-14 1.99536E-23-5.65501E-22
 -1      5428-4.71547E-07-1.77776E-07 9.28685E-07 5.26155E-14 8.99334E-16-2.44416E-08
 -1      5429-4.36745E-07-1.77776E-07 8.93883E-07 3.53426E-14-6.02462E-16 2.32266E-08
 -1      5430-4.36745E-07-1.77776E-07 8.93883E-07 3.53426E-14-5.80923E-22-7.23091E-22
 -1      5431-4.36745E-07-1.77776E-07 8.93883E-07 3.53426E-14 6.02461E-16-2.32266E-08
 -1      5432-4.04523E-07-1.77776E-07 8.61661E-07 2.03105E-14-3.32160E-16 2.21017E-08
 -1      5433-4.04523E-07-1.77776E-07 8.61661E-07 2.03105E-14 4.45342E-23-2.37792E-21
 -1      5434-4.04523E-07-1.77776E-07 8.61661E-07 2.03105E-14 3.32160E-16-2.21017E-08
 -1      5435-3.74614E-07-1.77776E-07 8.31752E-07 5.22447E-14-8.85968E-16 2.10576E-08
 -1      5436-3.74614E-07-1.77776E-07 8.31752E-07 5.22447E-14-1.66109E-22 3.07188E-22
 -1      5437-3.74614E-07-1.77776E-07 8.31752E-07 5.22447E-14 8.85968E-16-2.10576E-08
 -1      5438-3.46793E-07-1.77776E-07 8.03931E-07 2.68009E-14-4.44316E-16 2.00863E-08
 -1      5439-3.46793E-07-1.77776E-07 8.03931E-07 2.68009E-14 3.27957E-22 2.68626E-21
 -1      5440-3.46793E-07-1.77776E-07 8.03931E-07 2.68009E-14 4.44316E-16-2.00863E-08
 -1      5441-3.20830E-07-1.77776E-07 7.77968E-07 1.41258E-14-2.15810E-16 1.91799E-08
 -1      5442-3.20830E-07-1.77776E-07 7.77968E-07 1.41257E-14 9.51605E-23 1.27383E-22
 -1      5443-3.20830E-07-1.77776E-07 7.77968E-07 1.41257E-14 2.15810E-16-1.91799E-08
 -1      5444-2.96454E-07-1.77776E-07 7.53592E-07 8.74279E-14-1.49275E-15 1.83289E-08
 -1      5445-2.96454E-07-1.77776E-07 7.53592E-07 8.74279E-14-5.68758E-23 1.11609E-21
 -1      5446-2.96454E-07-1.77776E-07 7.53592E-07 8.74279E-14 1.49275E-15-1.83289E-08
 -1      5447-2.73319E-07-1.77776E-07 7.30458E-07 1.27610E-13-2.20167E-15 1.75213E-08
 -1      5448-2.73319E-07-1.77776E-07 7.30458E-07 1.27610E-13 7.88848E-23 6.00834E-22
 -1      5449-2.73319E-07-1.77776E-07 7.30458E-07 1.27610E-13 2.20167E-15-1.75213E-08
 -1      5450-2.50826E-07-1.77776E-07 7.07966E-07-6.01958E-13 1.05003E-14 1.67360E-08
 -1      5451-2.50826E-07-1.77776E-07 7.07966E-07-6.01958E-13-4.23833E-22 1.46468E-21
 -1      5452-2.50826E-07-1.77776E-07 7.07966E-07-6.01958E-13-1.05003E-14-1.67360E-08
 -1      5453-2.27456E-07-1.77777E-07 6.84597E-07-3.42840E-13 5.98513E-15 1.59202E-08
 -1      5454-2.27456E-07-1.77777E-07 6.84597E-07-3.42840E-13-6.35985E-23 6.19607E-22
 -1      5455-2.27456E-07-1.77777E-07 6.84597E-07-3.42840E-13-5.98513E-15-1.59202E-08
 -1      5456-1.62818E-06-1.77776E-07 2.08532E-06-1.71459E-13 2.98391E-15 6.48230E-08
 -1      5457-1.62818E-06-1.77776E-07 2.08532E-06-1.71459E-13-7.23477E-23 4.33976E-21
 -1      5458-1.62818E-06-1.77776E-07 2.08532E-06-1.71459E-13-2.98391E-15-6.48230E-08
 -1      5459-4.76189E-06-1.77793E-07 5.21905E-06 4.83397E-12-8.36020E-14 1.74245E-07
 -1      5460-4.76189E-06-1.77793E-07 5.21905E-06 4.83397E-12-1.65231E-21 1.87868E-20
 -1      5461-4.76189E-06-1.77793E-07 5.21905E-06 4.83397E-12 8.36020E-14-1.74245E-07
 -1      5462-4.73691E-06-1.77788E-07 5.19417E-06 7.29935E-11-1.27117E-12 1.73376E-07
 -1      5463-4.73691E-06-1.77788E-07 5.19417E-06 7.29935E-11-2.07710E-22-8.23579E-21
 -1      5464-4.73691E-06-1.77788E-07 5.19417E-06 7.29935E-11 1.27117E-12-1.73376E-07
 -1      5465-4.77560E-06-1.77793E-07 5.23276E-06 3.70073E-13-6.29583E-15 1.74723E-07
 -1      5466-4.77560E-06-1.77793E-07 5.23276E-06 3.70073E-13 8.20122E-22-1.06625E-20
 -1      5467-4.77560E-06-1.77793E-07 5.23276E-06 3.70073E-13 6.29584E-15-1.74723E-07
 -1      5468-4.77777E-06-1.77793E-07 5.23493E-06-1.17196E-12 2.04286E-14 1.74799E-07
 -1      5469-4.77777E-06-1.77793E-07 5.23493E-06-1.17196E-12-6.55584E-23-2.73012E-20
 -1      5470-4.77777E-06-1.77793E-07 5.23493E-06-1.17196E-12-2.04286E-14-1.74799E-07
 -1      5471-4.77681E-06-1.77794E-07 5.23397E-06-9.11926E-13 1.58932E-14 1.74766E-07
 -1      5472-4.77681E-06-1.77794E-07 5.23397E-06-9.11926E-13 2.71405E-22 4.53320E-21
 -1      5473-4.77681E-06-1.77794E-07 5.23397E-06-9.11926E-13-1.58932E-14-1.74766E-07
 -1      5474-4.77672E-06-1.77796E-07 5.23389E-06 1.00268E-12-1.75101E-14 1.74763E-07
 -1      5475-4.77672E-06-1.77796E-07 5.23389E-06 1.00268E-12-2.53499E-22-6.78482E-21
 -1      5476-4.77672E-06-1.77796E-07 5.23389E-06 1.00268E-12 1.75101E-14-1.74763E-07
 -1      5477-4.78079E-06-1.77785E-07 5.23794E-06 1.25243E-12-2.15361E-14 1.74904E-07
 -1      5478-4.78079E-06-1.77785E-07 5.23794E-06 1.25243E-12-5.42396E-22-6.06181E-21
 -1      5479-4.78079E-06-1.77785E-07 5.23794E-06 1.25243E-12 2.15361E-14-1.74904E-07
 -1      5480-4.76700E-06-1.77806E-07 5.22418E-06 1.91761E-12-3.49308E-14 1.74424E-07
 -1      5481-4.76700E-06-1.77806E-07 5.22418E-06 1.91761E-12-9.45541E-23 3.12268E-21
 -1      5482-4.76700E-06-1.77806E-07 5.22418E-06 1.91761E-12 3.49308E-14-1.74424E-07
 -1      5483-4.74142E-06-1.77781E-07 5.19854E-06-1.80074E-12 3.20172E-14 1.73531E-07
 -1      5484-4.74142E-06-1.77781E-07 5.19854E-06-1.80074E-12 3.90035E-22-1.73441E-20
 -1      5485-4.74142E-06-1.77781E-07 5.19854E-06-1.80074E-12-3.20172E-14-1.73531E-07
 -1      5486-1.79522E-06-1.77776E-07 2.25236E-06 2.77703E-13-4.90086E-15 7.06550E-08
 -1      5487-1.79522E-06-1.77776E-07 2.25236E-06 2.77703E-13-6.08330E-23-2.22094E-21
 -1      5488-1.79522E-06-1.77776E-07 2.25236E-06 2.77703E-13 4.90085E-15-7.06550E-08
 -1      5489-1.35080E-06-1.77776E-07 1.80794E-06-9.40236E-14 1.62850E-15 5.51384E-08
 -1      5490-1.35080E-06-1.77776E-07 1.80794E-06-9.40236E-14-3.77977E-23 2.14200E-21
 -1      5491-1.35080E-06-1.77776E-07 1.80794E-06-9.40236E-14-1.62850E-15-5.51384E-08
 -1      5492-1.13110E-06-1.77776E-07 1.58824E-06-9.55074E-15 1.56957E-16 4.74683E-08
 -1      5493-1.13110E-06-1.77776E-07 1.58824E-06-9.55074E-15-1.26579E-23-2.08115E-21
 -1      5494-1.13110E-06-1.77776E-07 1.58824E-06-9.55074E-15-1.56957E-16-4.74683E-08
 -1      5495-9.54330E-07-1.77776E-07 1.41147E-06 6.76731E-14-1.17034E-15 4.12966E-08
 -1      5496-9.54330E-07-1.77776E-07 1.41147E-06 6.76731E-14-1.31689E-23 2.60138E-21
 -1      5497-9.54330E-07-1.77776E-07 1.41147E-06 6.76731E-14 1.17034E-15-4.12966E-08
 -1      5498-8.10017E-07-1.77776E-07 1.26715E-06-2.55491E-14 4.40238E-16 3.62583E-08
 -1      5499-8.10017E-07-1.77776E-07 1.26715E-06-2.55491E-14-3.37818E-24-1.60398E-21
 -1      5500-8.10017E-07-1.77776E-07 1.26715E-06-2.55491E-14-4.40238E-16-3.62583E-08
 -1      5501-6.90411E-07-1.77776E-07 1.14755E-06 1.77681E-15-2.43986E-17 3.20826E-08
 -1      5502-6.90411E-07-1.77776E-07 1.14755E-06 1.77681E-15-1.33495E-22 3.12946E-21
 -1      5503-6.90411E-07-1.77776E-07 1.14755E-06 1.77681E-15 2.43983E-17-3.20826E-08
 -1      5504-5.90240E-07-1.77776E-07 1.04738E-06 1.91728E-14-3.36951E-16 2.85854E-08
 -1      5505-5.90240E-07-1.77776E-07 1.04738E-06 1.91728E-14 8.85298E-23 1.98367E-21
 -1      5506-5.90240E-07-1.77776E-07 1.04738E-06 1.91728E-14 3.36951E-16-2.85854E-08
 -1      5507-5.05475E-07-1.77776E-07 9.62613E-07 1.39943E-15-2.36304E-17 2.56261E-08
 -1      5508-5.05475E-07-1.77776E-07 9.62613E-07 1.39943E-15-7.14602E-23 3.20560E-21
 -1      5509-5.05475E-07-1.77776E-07 9.62613E-07 1.39943E-15 2.36302E-17-2.56261E-08
 -1      5510-4.33025E-07-1.77776E-07 8.90163E-07 2.99753E-14-5.09642E-16 2.30968E-08
 -1      5511-4.33025E-07-1.77776E-07 8.90163E-07 2.99753E-14-1.03477E-22 1.65606E-21
 -1      5512-4.33025E-07-1.77776E-07 8.90163E-07 2.99753E-14 5.09642E-16-2.30968E-08
 -1      5513-3.70753E-07-1.77776E-07 8.27891E-07 5.26448E-14-9.01554E-16 2.09228E-08
 -1      5514-3.70753E-07-1.77776E-07 8.27891E-07 5.26448E-14 7.29729E-23-4.70560E-21
 -1      5515-3.70753E-07-1.77776E-07 8.27891E-07 5.26448E-14 9.01554E-16-2.09228E-08
 -1      5516-3.17071E-07-1.77776E-07 7.74209E-07 8.12466E-14-1.38230E-15 1.90487E-08
 -1      5517-3.17071E-07-1.77776E-07 7.74209E-07 8.12466E-14-4.96222E-24-6.58805E-22
 -1      5518-3.17071E-07-1.77776E-07 7.74209E-07 8.12466E-14 1.38230E-15-1.90487E-08
 -1      5519-2.71826E-07-1.77776E-07 7.28965E-07-1.18919E-12 2.05958E-14 1.74691E-08
 -1      5520-2.71826E-07-1.77776E-07 7.28965E-07-1.18919E-12-2.87488E-23 2.38712E-22
 -1      5521-2.71826E-07-1.77776E-07 7.28965E-07-1.18919E-12-2.05958E-14-1.74691E-08
 -1      5522-2.31185E-07-1.77777E-07 6.88325E-07 6.63615E-13-1.15326E-14 1.60503E-08
 -1      5523-2.31185E-07-1.77777E-07 6.88325E-07 6.63615E-13-5.03114E-23-3.03353E-22
 -1      5524-2.31185E-07-1.77777E-07 6.88325E-07 6.63615E-13 1.15326E-14-1.60503E-08
 -1      5525-2.07125E-07-1.77776E-07 6.64263E-07 3.72127E-15-3.85570E-17 1.52103E-08
 -1      5526-2.07125E-07-1.77776E-07 6.64263E-07 3.72127E-15 1.07113E-22-1.24946E-21
 -1      5527-2.07125E-07-1.77776E-07 6.64263E-07 3.72128E-15 3.85572E-17-1.52103E-08
 -1      5528-2.07450E-07-1.77776E-07 6.64588E-07 3.29156E-14-5.72101E-16 1.52217E-08
 -1      5529-2.07450E-07-1.77776E-07 6.64588E-07 3.29156E-14-2.58706E-23 3.38137E-22
 -1      5530-2.07450E-07-1.77776E-07 6.64588E-07 3.29156E-14 5.72101E-16-1.52217E-08
 -1      5531-2.07495E-07-1.77776E-07 6.64633E-07-2.37784E-14 4.10635E-16 1.52232E-08
 -1      5532-2.07495E-07-1.77776E-07 6.64633E-07-2.37784E-14 9.83573E-23-1.71714E-21
 -1      5533-2.07495E-07-1.77776E-07 6.64633E-07-2.37784E-14-4.10634E-16-1.52232E-08
 -1      5534-2.07400E-07-1.77776E-07 6.64538E-07 5.38130E-15-9.71193E-17 1.52199E-08
 -1      5535-2.07400E-07-1.77776E-07 6.64538E-07 5.38130E-15 2.38242E-22-6.95005E-22
 -1      5536-2.07400E-07-1.77776E-07 6.64538E-07 5.38130E-15 9.71198E-17-1.52199E-08
 -1      5537-2.07381E-07-1.77776E-07 6.64519E-07 9.54782E-15-1.65203E-16 1.52193E-08
 -1      5538-2.07381E-07-1.77776E-07 6.64519E-07 9.54782E-15-8.36175E-23 3.18293E-22
 -1      5539-2.07381E-07-1.77776E-07 6.64519E-07 9.54781E-15 1.65203E-16-1.52193E-08
 -1      5540-2.07342E-07-1.77776E-07 6.64480E-07 8.73286E-15-1.56645E-16 1.52179E-08
 -1      5541-2.07342E-07-1.77776E-07 6.64480E-07 8.73286E-15 2.24039E-24 4.46511E-22
 -1      5542-2.07342E-07-1.77776E-07 6.64480E-07 8.73286E-15 1.56645E-16-1.52179E-08
 -1      5543-2.07120E-07-1.77776E-07 6.64258E-07-2.92224E-14 4.99211E-16 1.52101E-08
 -1      5544-2.07120E-07-1.77776E-07 6.64258E-07-2.92224E-14 3.58397E-23 1.28971E-21
 -1      5545-2.07120E-07-1.77776E-07 6.64258E-07-2.92224E-14-4.99211E-16-1.52101E-08
 -1      5546-2.07123E-07-1.77776E-07 6.64261E-07-5.65908E-14 9.92320E-16 1.52102E-08
 -1      5547-2.07123E-07-1.77776E-07 6.64261E-07-5.65908E-14 1.08095E-22-1.53897E-21
 -1      5548-2.07123E-07-1.77776E-07 6.64261E-07-5.65908E-14-9.92320E-16-1.52102E-08
 -1      5549-2.08545E-07-1.77776E-07 6.65683E-07-1.02739E-12 1.81057E-14 1.52599E-08
 -1      5550-2.08545E-07-1.77776E-07 6.65683E-07-1.02739E-12 7.58193E-23 7.68413E-22
 -1      5551-2.08545E-07-1.77776E-07 6.65683E-07-1.02739E-12-1.81057E-14-1.52599E-08
 -1      5552-1.41388E-06-1.77776E-07 1.87102E-06-2.12405E-13 3.70201E-15 5.73410E-08
 -1      5553-1.41388E-06-1.77776E-07 1.87102E-06-2.12405E-13-4.43685E-23-7.68822E-21
 -1      5554-1.41388E-06-1.77776E-07 1.87102E-06-2.12405E-13-3.70201E-15-5.73410E-08
 -1      5555-6.63724E-07-1.77776E-07 1.12086E-06-8.21668E-15 1.43700E-16 3.11509E-08
 -1      5556-6.63724E-07-1.77776E-07 1.12086E-06-8.21667E-15 3.20548E-23 3.23069E-22
 -1      5557-6.63724E-07-1.77776E-07 1.12086E-06-8.21667E-15-1.43700E-16-3.11509E-08
 -1      5558-4.17535E-06-1.77769E-07 4.63250E-06 3.16618E-12-5.42828E-14 1.53765E-07
 -1      5559-4.17535E-06-1.77769E-07 4.63250E-06 3.16618E-12 3.43245E-23-8.32681E-22
 -1      5560-4.17535E-06-1.77769E-07 4.63250E-06 3.16618E-12 5.42828E-14-1.53765E-07
 -1      5561-4.22118E-06-1.77780E-07 4.67832E-06-4.60954E-13 8.05973E-15 1.55363E-07
 -1      5562-4.22118E-06-1.77780E-07 4.67832E-06-4.60954E-13-1.29948E-21-2.35369E-21
 -1      5563-4.22118E-06-1.77780E-07 4.67832E-06-4.60954E-13-8.05974E-15-1.55363E-07
 -1      5564-4.22129E-06-1.77781E-07 4.67843E-06-6.88829E-13 1.19705E-14 1.55366E-07
 -1      5565-4.22129E-06-1.77781E-07 4.67843E-06-6.88829E-13-3.67180E-22 1.06341E-20
 -1      5566-4.22129E-06-1.77781E-07 4.67843E-06-6.88829E-13-1.19705E-14-1.55366E-07
 -1      5567-4.21995E-06-1.77782E-07 4.67709E-06-1.12308E-12 1.95818E-14 1.55320E-07
 -1      5568-4.21995E-06-1.77782E-07 4.67709E-06-1.12308E-12-3.11191E-22 1.10358E-22
 -1      5569-4.21995E-06-1.77782E-07 4.67709E-06-1.12308E-12-1.95818E-14-1.55320E-07
 -1      5570-2.23521E-07-1.77776E-07 6.80659E-07-2.01169E-15 3.97889E-17 1.57827E-08
 -1      5571-2.23521E-07-1.77776E-07 6.80659E-07-2.01169E-15-7.04434E-23 3.92693E-22
 -1      5572-2.23521E-07-1.77776E-07 6.80659E-07-2.01169E-15-3.97891E-17-1.57827E-08
 -1      5573-1.70803E-06-1.77776E-07 2.16517E-06 2.69683E-14-5.28776E-16 6.76109E-08
 -1      5574-1.70803E-06-1.77776E-07 2.16517E-06 2.69683E-14 2.34357E-23-4.81202E-21
 -1      5575-1.70803E-06-1.77776E-07 2.16517E-06 2.69683E-14 5.28776E-16-6.76109E-08
 -1      5576-4.22277E-06-1.77787E-07 4.67992E-06 7.76103E-12-1.35223E-13 1.55418E-07
 -1      5577-4.22277E-06-1.77787E-07 4.67992E-06 7.76103E-12 4.29205E-23 3.91725E-21
 -1      5578-4.22277E-06-1.77787E-07 4.67992E-06 7.76103E-12 1.35223E-13-1.55418E-07
 -1      5579-4.22082E-06-1.77791E-07 4.67797E-06-8.10326E-12 1.40161E-13 1.55350E-07
 -1      5580-4.22082E-06-1.77791E-07 4.67797E-06-8.10326E-12 1.53555E-22-2.81948E-20
 -1      5581-4.22082E-06-1.77791E-07 4.67797E-06-8.10326E-12-1.40161E-13-1.55350E-07
 -1      5582-4.19369E-06-1.77783E-07 4.65086E-06-3.32444E-12 5.46900E-14 1.54405E-07
 -1      5583-4.19369E-06-1.77783E-07 4.65086E-06-3.32444E-12 3.00133E-22 2.11372E-20
 -1      5584-4.19369E-06-1.77783E-07 4.65086E-06-3.32444E-12-5.46900E-14-1.54405E-07
 -1      5585-4.22048E-06-1.77781E-07 4.67762E-06-1.27784E-12 2.22850E-14 1.55338E-07
 -1      5586-4.22048E-06-1.77781E-07 4.67762E-06-1.27784E-12-2.68643E-22 1.20879E-21
 -1      5587-4.22048E-06-1.77781E-07 4.67762E-06-1.27784E-12-2.22850E-14-1.55338E-07
 -1      5588-4.16913E-06-1.77747E-07 4.62621E-06-1.76987E-12 2.95867E-14 1.53546E-07
 -1      5589-4.16913E-06-1.77747E-07 4.62621E-06-1.76987E-12 6.04817E-23 1.95719E-20
 -1      5590-4.16913E-06-1.77747E-07 4.62621E-06-1.76987E-12-2.95867E-14-1.53546E-07
 -1      5591-4.21743E-06-1.77782E-07 4.67457E-06 8.14503E-14-1.22546E-15 1.55232E-07
 -1      5592-4.21743E-06-1.77782E-07 4.67457E-06 8.14503E-14-2.27311E-22-1.03449E-20
 -1      5593-4.21743E-06-1.77782E-07 4.67457E-06 8.14502E-14 1.22546E-15-1.55232E-07
 -1      5594-2.23700E-07-1.77776E-07 6.80839E-07-5.38173E-15 8.43559E-17 1.57890E-08
 -1      5595-2.23700E-07-1.77776E-07 6.80839E-07-5.38173E-15-1.71813E-22 1.18732E-21
 -1      5596-2.23700E-07-1.77776E-07 6.80839E-07-5.38173E-15-8.43562E-17-1.57890E-08
 -1      5597-1.18151E-06-1.77776E-07 1.63864E-06 2.33151E-14-4.08553E-16 4.92279E-08
 -1      5598-1.18151E-06-1.77776E-07 1.63864E-06 2.33151E-14-1.99900E-23 3.58382E-21
 -1      5599-1.18151E-06-1.77776E-07 1.63864E-06 2.33151E-14 4.08553E-16-4.92279E-08
 -1      5600-1.88587E-06-1.77775E-07 2.34301E-06 9.38100E-13-1.64964E-14 7.38200E-08
 -1      5601-1.88587E-06-1.77775E-07 2.34301E-06 9.38100E-13-1.79797E-23 2.64945E-22
 -1      5602-1.88587E-06-1.77775E-07 2.34301E-06 9.38100E-13 1.64964E-14-7.38200E-08
 -1      5603-9.95154E-07-1.77776E-07 1.45229E-06 8.41366E-14-1.46803E-15 4.27218E-08
 -1      5604-9.95154E-07-1.77776E-07 1.45229E-06 8.41366E-14-7.37933E-23-4.80578E-21
 -1      5605-9.95154E-07-1.77776E-07 1.45229E-06 8.41366E-14 1.46803E-15-4.27218E-08
 -1      5606-8.43501E-07-1.77776E-07 1.30064E-06-5.00820E-15 8.82956E-17 3.74273E-08
 -1      5607-8.43501E-07-1.77776E-07 1.30064E-06-5.00820E-15-2.66529E-23-6.57116E-21
 -1      5608-8.43501E-07-1.77776E-07 1.30064E-06-5.00820E-15-8.82957E-17-3.74273E-08
 -1      5609-7.18305E-07-1.77776E-07 1.17544E-06 1.07757E-14-1.88437E-16 3.30564E-08
 -1      5610-7.18305E-07-1.77776E-07 1.17544E-06 1.07757E-14-1.17401E-24-2.69676E-21
 -1      5611-7.18305E-07-1.77776E-07 1.17544E-06 1.07757E-14 1.88437E-16-3.30564E-08
 -1      5612-5.67718E-07-1.77776E-07 1.02486E-06 1.24112E-14-2.15844E-16 2.77991E-08
 -1      5613-5.67718E-07-1.77776E-07 1.02486E-06 1.24112E-14 1.19254E-23 5.83807E-22
 -1      5614-5.67718E-07-1.77776E-07 1.02486E-06 1.24112E-14 2.15844E-16-2.77991E-08
 -1      5615-4.86183E-07-1.77776E-07 9.43321E-07 1.52895E-14-2.65291E-16 2.49526E-08
 -1      5616-4.86183E-07-1.77776E-07 9.43321E-07 1.52895E-14 9.52055E-24-5.83285E-21
 -1      5617-4.86183E-07-1.77776E-07 9.43321E-07 1.52895E-14 2.65291E-16-2.49526E-08
 -1      5618-4.16245E-07-1.77776E-07 8.73383E-07 6.64282E-14-1.13729E-15 2.25110E-08
 -1      5619-4.16245E-07-1.77776E-07 8.73383E-07 6.64282E-14 2.41904E-23 2.21729E-21
 -1      5620-4.16245E-07-1.77776E-07 8.73383E-07 6.64282E-14 1.13729E-15-2.25110E-08
 -1      5621-2.23482E-07-1.77776E-07 6.80621E-07-3.92349E-14 6.73792E-16 1.57814E-08
 -1      5622-2.23482E-07-1.77776E-07 6.80621E-07-3.92349E-14-1.51705E-22 1.59459E-21
 -1      5623-2.23482E-07-1.77776E-07 6.80621E-07-3.92349E-14-6.73793E-16-1.57814E-08
 -1      5624-3.28736E-07-1.77776E-07 7.85874E-07 5.67561E-14-9.25970E-16 1.94559E-08
 -1      5625-3.28736E-07-1.77776E-07 7.85874E-07 5.67561E-14-6.08511E-23 3.05160E-21
 -1      5626-3.28736E-07-1.77776E-07 7.85874E-07 5.67561E-14 9.25970E-16-1.94559E-08
 -1      5627-2.81012E-07-1.77775E-07 7.38149E-07-5.58536E-14 1.30067E-15 1.77898E-08
 -1      5628-2.81012E-07-1.77775E-07 7.38149E-07-5.58536E-14 4.71118E-23 2.38302E-21
 -1      5629-2.81012E-07-1.77775E-07 7.38149E-07-5.58536E-14-1.30067E-15-1.77898E-08
 -1      5630-4.18737E-06-1.77665E-07 4.64423E-06-5.34738E-11 9.27337E-13 1.54178E-07
 -1      5631-4.18737E-06-1.77665E-07 4.64423E-06-5.34738E-11 5.42314E-22 6.33256E-21
 -1      5632-4.18737E-06-1.77665E-07 4.64423E-06-5.34738E-11-9.27337E-13-1.54178E-07
 -1      5633-2.22601E-07-1.77776E-07 6.79738E-07-9.34817E-14 1.70436E-15 1.57506E-08
 -1      5634-2.22601E-07-1.77776E-07 6.79738E-07-9.34817E-14-9.12871E-25 9.21926E-22
 -1      5635-2.22601E-07-1.77776E-07 6.79738E-07-9.34817E-14-1.70436E-15-1.57506E-08
 -1      5636-3.55867E-07-1.77776E-07 8.13006E-07 7.56965E-14-1.29009E-15 2.04031E-08
 -1      5637-3.55867E-07-1.77776E-07 8.13006E-07 7.56965E-14 9.63993E-23-2.57048E-21
 -1      5638-3.55867E-07-1.77776E-07 8.13006E-07 7.56965E-14 1.29009E-15-2.04031E-08
 -1      5639-2.23782E-07-1.77776E-07 6.80921E-07-3.66287E-14 6.30521E-16 1.57919E-08
 -1      5640-2.23782E-07-1.77776E-07 6.80921E-07-3.66287E-14 6.93084E-25-2.25156E-21
 -1      5641-2.23782E-07-1.77776E-07 6.80921E-07-3.66287E-14-6.30521E-16-1.57919E-08
 -1      5642-2.23787E-07-1.77776E-07 6.80925E-07 4.72860E-15-8.45318E-17 1.57920E-08
 -1      5643-2.23787E-07-1.77776E-07 6.80925E-07 4.72860E-15 1.86680E-22-8.19986E-22
 -1      5644-2.23787E-07-1.77776E-07 6.80925E-07 4.72860E-15 8.45322E-17-1.57920E-08
 -1      5645-2.22971E-07-1.77776E-07 6.80109E-07-4.71800E-14 9.10394E-16 1.57635E-08
 -1      5646-2.22971E-07-1.77776E-07 6.80109E-07-4.71800E-14-5.63089E-23 1.52958E-21
 -1      5647-2.22971E-07-1.77776E-07 6.80109E-07-4.71800E-14-9.10394E-16-1.57635E-08
 -1      5648-2.25901E-07-1.77775E-07 6.83039E-07-3.43935E-13 5.81046E-15 1.58658E-08
 -1      5649-2.25901E-07-1.77775E-07 6.83039E-07-3.43935E-13 3.89299E-23 3.15381E-21
 -1      5650-2.25901E-07-1.77775E-07 6.83039E-07-3.43935E-13-5.81046E-15-1.58658E-08
 -1      5651-2.23517E-07-1.77776E-07 6.80656E-07 1.60681E-14-2.83315E-16 1.57826E-08
 -1      5652-2.23517E-07-1.77776E-07 6.80656E-07 1.60681E-14 9.39042E-23 2.55991E-21
 -1      5653-2.23517E-07-1.77776E-07 6.80656E-07 1.60681E-14 2.83316E-16-1.57826E-08
 -1      5654-4.21988E-06-1.77785E-07 4.67703E-06 1.20884E-12-2.11424E-14 1.55318E-07
 -1      5655-4.21988E-06-1.77785E-07 4.67703E-06 1.20884E-12 1.12701E-22-2.40874E-20
 -1      5656-4.21988E-06-1.77785E-07 4.67703E-06 1.20884E-12 2.11424E-14-1.55318E-07
 -1      5657-2.23557E-07-1.77776E-07 6.80695E-07 6.35944E-15-1.07519E-16 1.57840E-08
 -1      5658-2.23557E-07-1.77776E-07 6.80695E-07 6.35944E-15-8.18335E-23-1.58096E-21
 -1      5659-2.23557E-07-1.77776E-07 6.80695E-07 6.35944E-15 1.07519E-16-1.57840E-08
 -1      5660-2.23194E-07-1.77776E-07 6.80332E-07-6.43879E-14 1.09437E-15 1.57713E-08
 -1      5661-2.23194E-07-1.77776E-07 6.80332E-07-6.43879E-14-1.06412E-22 1.28443E-21
 -1      5662-2.23194E-07-1.77776E-07 6.80332E-07-6.43879E-14-1.09437E-15-1.57713E-08
 -1      5663-2.22658E-07-1.77776E-07 6.79795E-07 2.29873E-14-4.67272E-16 1.57526E-08
 -1      5664-2.22658E-07-1.77776E-07 6.79795E-07 2.29873E-14-7.53199E-23 2.19091E-22
 -1      5665-2.22658E-07-1.77776E-07 6.79795E-07 2.29873E-14 4.67272E-16-1.57526E-08
 -1      5666-4.18160E-06-1.77722E-07 4.63854E-06-6.46299E-11 1.13162E-12 1.53977E-07
 -1      5667-4.18160E-06-1.77722E-07 4.63854E-06-6.46299E-11 1.20588E-22-8.36850E-21
 -1      5668-4.18160E-06-1.77722E-07 4.63854E-06-6.46299E-11-1.13162E-12-1.53977E-07
 -1      5669-4.20916E-06-1.77779E-07 4.66629E-06 2.10986E-12-3.62388E-14 1.54943E-07
 -1      5670-4.20916E-06-1.77779E-07 4.66629E-06 2.10986E-12 3.06673E-22-6.09107E-21
 -1      5671-4.20916E-06-1.77779E-07 4.66629E-06 2.10986E-12 3.62388E-14-1.54943E-07
 -1      5672-4.16167E-06-1.77806E-07 4.61889E-06 5.88243E-11-1.02420E-12 1.53288E-07
 -1      5673-4.16167E-06-1.77806E-07 4.61889E-06 5.88243E-11-8.29853E-23 5.86805E-21
 -1      5674-4.16167E-06-1.77806E-07 4.61889E-06 5.88243E-11 1.02420E-12-1.53288E-07
 -1      5675-3.77117E-06-1.77765E-07 4.22805E-06-1.68308E-10 2.93876E-12 1.39641E-07
 -1      5676-3.77117E-06-1.77765E-07 4.22805E-06-1.68308E-10-5.04054E-22 1.26657E-20
 -1      5677-3.77117E-06-1.77765E-07 4.22805E-06-1.68308E-10-2.93876E-12-1.39641E-07
 -1      5678-3.35421E-06-1.77797E-07 3.81129E-06 8.40033E-11-1.46981E-12 1.25088E-07
 -1      5679-3.35421E-06-1.77797E-07 3.81129E-06 8.40033E-11-1.71007E-22-1.96845E-20
 -1      5680-3.35421E-06-1.77797E-07 3.81129E-06 8.40033E-11 1.46981E-12-1.25088E-07
 -1      5681-2.96874E-06-1.77767E-07 3.42586E-06 1.94501E-12-3.39270E-14 1.11629E-07
 -1      5682-2.96874E-06-1.77767E-07 3.42586E-06 1.94501E-12-1.42727E-22 4.83062E-22
 -1      5683-2.96874E-06-1.77767E-07 3.42586E-06 1.94501E-12 3.39270E-14-1.11629E-07
 -1      5684-2.64141E-06-1.77776E-07 3.09855E-06 2.65925E-12-4.63710E-14 1.00200E-07
 -1      5685-2.64141E-06-1.77776E-07 3.09855E-06 2.65925E-12 1.99970E-22-1.52826E-21
 -1      5686-2.64141E-06-1.77776E-07 3.09855E-06 2.65925E-12 4.63710E-14-1.00200E-07
 -1      5687-2.36090E-06-1.77777E-07 2.81804E-06-3.83119E-13 6.74513E-15 9.04059E-08
 -1      5688-2.36090E-06-1.77777E-07 2.81804E-06-3.83119E-13-2.19060E-22-4.57102E-21
 -1      5689-2.36090E-06-1.77777E-07 2.81804E-06-3.83119E-13-6.74513E-15-9.04059E-08
 -1      5690-2.11947E-06-1.77776E-07 2.57661E-06-7.68509E-13 1.34932E-14 8.19762E-08
 -1      5691-2.11947E-06-1.77776E-07 2.57661E-06-7.68509E-13 2.36064E-22-2.39410E-21
 -1      5692-2.11947E-06-1.77776E-07 2.57661E-06-7.68509E-13-1.34932E-14-8.19762E-08
 -1      5693-1.91056E-06-1.77776E-07 2.36770E-06-8.63319E-13 1.51606E-14 7.46821E-08
 -1      5694-1.91056E-06-1.77776E-07 2.36770E-06-8.63319E-13-5.35352E-23-8.86205E-22
 -1      5695-1.91056E-06-1.77776E-07 2.36770E-06-8.63319E-13-1.51606E-14-7.46821E-08
 -1      5696-1.72871E-06-1.77776E-07 2.18584E-06-6.99444E-13 1.22948E-14 6.83327E-08
 -1      5697-1.72871E-06-1.77776E-07 2.18584E-06-6.99444E-13-7.15394E-22-8.59421E-21
 -1      5698-1.72871E-06-1.77776E-07 2.18584E-06-6.99444E-13-1.22948E-14-6.83327E-08
 -1      5699-1.56939E-06-1.77776E-07 2.02653E-06-4.77344E-13 8.40807E-15 6.27703E-08
 -1      5700-1.56939E-06-1.77776E-07 2.02653E-06-4.77344E-13-9.41227E-22 7.16048E-21
 -1      5701-1.56939E-06-1.77776E-07 2.02653E-06-4.77344E-13-8.40807E-15-6.27703E-08
 -1      5702-1.42895E-06-1.77776E-07 1.88608E-06-3.49379E-13 6.16601E-15 5.78669E-08
 -1      5703-1.42895E-06-1.77776E-07 1.88608E-06-3.49379E-13-4.85378E-22 6.85412E-22
 -1      5704-1.42895E-06-1.77776E-07 1.88608E-06-3.49379E-13-6.16602E-15-5.78669E-08
 -1      5705-1.30441E-06-1.77776E-07 1.76155E-06-1.97288E-13 3.50002E-15 5.35190E-08
 -1      5706-1.30441E-06-1.77776E-07 1.76155E-06-1.97288E-13-2.28962E-22-8.10936E-21
 -1      5707-1.30441E-06-1.77776E-07 1.76155E-06-1.97288E-13-3.50002E-15-5.35190E-08
 -1      5708-1.19343E-06-1.77776E-07 1.65057E-06-1.06497E-13 1.90726E-15 4.96442E-08
 -1      5709-1.19343E-06-1.77776E-07 1.65057E-06-1.06497E-13-1.72694E-22 7.95484E-21
 -1      5710-1.19343E-06-1.77776E-07 1.65057E-06-1.06498E-13-1.90726E-15-4.96442E-08
 -1      5711-1.09409E-06-1.77776E-07 1.55123E-06-1.12668E-13 2.01062E-15 4.61759E-08
 -1      5712-1.09409E-06-1.77776E-07 1.55123E-06-1.12668E-13 1.29537E-22 3.85426E-21
 -1      5713-1.09409E-06-1.77776E-07 1.55123E-06-1.12668E-13-2.01062E-15-4.61759E-08
 -1      5714-1.00482E-06-1.77776E-07 1.46195E-06-7.84828E-14 1.40697E-15 4.30592E-08
 -1      5715-1.00482E-06-1.77776E-07 1.46195E-06-7.84828E-14 3.46614E-23-6.45144E-22
 -1      5716-1.00482E-06-1.77776E-07 1.46195E-06-7.84828E-14-1.40697E-15-4.30592E-08
 -1      5717-9.24292E-07-1.77776E-07 1.38143E-06-5.25790E-14 9.47548E-16 4.02479E-08
 -1      5718-9.24292E-07-1.77776E-07 1.38143E-06-5.25790E-14 2.09779E-24-5.03202E-21
 -1      5719-9.24292E-07-1.77776E-07 1.38143E-06-5.25790E-14-9.47548E-16-4.02479E-08
 -1      5720-8.51387E-07-1.77776E-07 1.30853E-06-4.83306E-14 8.72240E-16 3.77026E-08
 -1      5721-8.51387E-07-1.77776E-07 1.30853E-06-4.83306E-14 2.25072E-22-5.22989E-21
 -1      5722-8.51387E-07-1.77776E-07 1.30853E-06-4.83306E-14-8.72240E-16-3.77026E-08
 -1      5723-7.85153E-07-1.77776E-07 1.24229E-06-4.27949E-14 7.74643E-16 3.53902E-08
 -1      5724-7.85153E-07-1.77776E-07 1.24229E-06-4.27949E-14-2.04299E-22-1.48513E-21
 -1      5725-7.85153E-07-1.77776E-07 1.24229E-06-4.27949E-14-7.74644E-16-3.53902E-08
 -1      5726-7.24797E-07-1.77776E-07 1.18194E-06-3.07592E-14 5.61594E-16 3.32831E-08
 -1      5727-7.24797E-07-1.77776E-07 1.18194E-06-3.07592E-14 5.84818E-22-3.86388E-21
 -1      5728-7.24797E-07-1.77776E-07 1.18194E-06-3.07592E-14-5.61593E-16-3.32831E-08
 -1      5729-6.69657E-07-1.77776E-07 1.12679E-06-1.38446E-14 2.64483E-16 3.13580E-08
 -1      5730-6.69657E-07-1.77776E-07 1.12679E-06-1.38446E-14-1.93203E-22 3.89466E-21
 -1      5731-6.69657E-07-1.77776E-07 1.12679E-06-1.38446E-14-2.64484E-16-3.13580E-08
 -1      5732-6.19171E-07-1.77776E-07 1.07631E-06-1.64368E-14 3.09422E-16 2.95954E-08
 -1      5733-6.19171E-07-1.77776E-07 1.07631E-06-1.64368E-14 4.27411E-22-4.37169E-22
 -1      5734-6.19171E-07-1.77776E-07 1.07631E-06-1.64368E-14-3.09421E-16-2.95954E-08
 -1      5735-5.72844E-07-1.77776E-07 1.02998E-06-3.87295E-15 8.84635E-17 2.79781E-08
 -1      5736-5.72844E-07-1.77776E-07 1.02998E-06-3.87295E-15 2.41605E-22-1.65695E-22
 -1      5737-5.72844E-07-1.77776E-07 1.02998E-06-3.87295E-15-8.84630E-17-2.79781E-08
 -1      5738-5.30245E-07-1.77776E-07 9.87383E-07 7.50173E-15-1.10572E-16 2.64909E-08
 -1      5739-5.30245E-07-1.77776E-07 9.87383E-07 7.50173E-15-2.73459E-22-3.79208E-21
 -1      5740-5.30245E-07-1.77776E-07 9.87383E-07 7.50174E-15 1.10572E-16-2.64909E-08
 -1      5741-4.91009E-07-1.77776E-07 9.48147E-07 2.26885E-15-1.76324E-17 2.51211E-08
 -1      5742-4.91009E-07-1.77776E-07 9.48147E-07 2.26885E-15 8.46679E-22 1.60705E-21
 -1      5743-4.91009E-07-1.77776E-07 9.48147E-07 2.26884E-15 1.76341E-17-2.51211E-08
 -1      5744-4.54814E-07-1.77776E-07 9.11952E-07 1.04312E-14-1.58103E-16 2.38574E-08
 -1      5745-4.54814E-07-1.77776E-07 9.11952E-07 1.04312E-14 3.40927E-22-2.46762E-21
 -1      5746-4.54814E-07-1.77776E-07 9.11952E-07 1.04312E-14 1.58103E-16-2.38574E-08
 -1      5747-4.21375E-07-1.77776E-07 8.78513E-07 2.14995E-14-3.47361E-16 2.26900E-08
 -1      5748-4.21375E-07-1.77776E-07 8.78513E-07 2.14995E-14-3.48138E-22 1.42146E-21
 -1      5749-4.21375E-07-1.77776E-07 8.78513E-07 2.14995E-14 3.47360E-16-2.26900E-08
 -1      5750-3.90431E-07-1.77776E-07 8.47569E-07 2.94335E-14-4.79238E-16 2.16097E-08
 -1      5751-3.90431E-07-1.77776E-07 8.47569E-07 2.94335E-14-4.52221E-22 1.61633E-21
 -1      5752-3.90431E-07-1.77776E-07 8.47569E-07 2.94335E-14 4.79237E-16-2.16097E-08
 -1      5753-3.61732E-07-1.77776E-07 8.18871E-07 3.58838E-14-5.86170E-16 2.06078E-08
 -1      5754-3.61732E-07-1.77776E-07 8.18871E-07 3.58838E-14-2.21392E-22-2.36551E-21
 -1      5755-3.61732E-07-1.77776E-07 8.18871E-07 3.58838E-14 5.86170E-16-2.06078E-08
 -1      5756-3.35057E-07-1.77776E-07 7.92196E-07 5.55475E-15-5.03849E-17 1.96766E-08
 -1      5757-3.35057E-07-1.77776E-07 7.92196E-07 5.55475E-15 1.50296E-23 1.45106E-21
 -1      5758-3.35057E-07-1.77776E-07 7.92196E-07 5.55475E-15 5.03849E-17-1.96766E-08
 -1      5759-3.10206E-07-1.77776E-07 7.67345E-07 2.03237E-14-2.97163E-16 1.88090E-08
 -1      5760-3.10206E-07-1.77776E-07 7.67345E-07 2.03237E-14-6.69371E-22-1.84690E-21
 -1      5761-3.10206E-07-1.77776E-07 7.67345E-07 2.03237E-14 2.97162E-16-1.88090E-08
 -1      5762-2.86924E-07-1.77776E-07 7.44062E-07 1.65710E-13-2.81738E-15 1.79962E-08
 -1      5763-2.86924E-07-1.77776E-07 7.44062E-07 1.65710E-13 5.43685E-23-3.89049E-21
 -1      5764-2.86924E-07-1.77776E-07 7.44062E-07 1.65710E-13 2.81738E-15-1.79962E-08
 -1      5765-2.64874E-07-1.77776E-07 7.22013E-07 3.81126E-13-6.53312E-15 1.72264E-08
 -1      5766-2.64874E-07-1.77776E-07 7.22013E-07 3.81126E-13 2.00507E-22 3.84596E-22
 -1      5767-2.64874E-07-1.77776E-07 7.22013E-07 3.81126E-13 6.53312E-15-1.72264E-08
 -1      5768-2.43620E-07-1.77776E-07 7.00759E-07 2.86576E-13-4.70999E-15 1.64844E-08
 -1      5769-2.43620E-07-1.77776E-07 7.00759E-07 2.86576E-13-2.23904E-22-1.31735E-21
 -1      5770-2.43620E-07-1.77776E-07 7.00759E-07 2.86576E-13 4.70999E-15-1.64844E-08
 -1      5771-1.55201E-06-1.77776E-07 2.00915E-06-3.63487E-13 6.32054E-15 6.21634E-08
 -1      5772-1.55201E-06-1.77776E-07 2.00915E-06-3.63487E-13 1.22062E-23-2.19115E-21
 -1      5773-1.55201E-06-1.77776E-07 2.00915E-06-3.63487E-13-6.32054E-15-6.21634E-08
 -1      5774-4.19329E-06-1.77777E-07 4.65043E-06 8.93732E-12-1.54842E-13 1.54390E-07
 -1      5775-4.19329E-06-1.77777E-07 4.65043E-06 8.93732E-12-4.34045E-22 1.72131E-20
 -1      5776-4.19329E-06-1.77777E-07 4.65043E-06 8.93732E-12 1.54842E-13-1.54390E-07
 -1      5777-2.44955E-07-1.77775E-07 7.02093E-07-1.59528E-12 2.82211E-14 1.65310E-08
 -1      5778-2.44955E-07-1.77775E-07 7.02093E-07-1.59528E-12 4.52555E-23-1.47715E-21
 -1      5779-2.44955E-07-1.77775E-07 7.02093E-07-1.59528E-12-2.82211E-14-1.65310E-08
 -1      5780-2.23506E-07-1.77776E-07 6.80643E-07 1.52461E-13-2.78086E-15 1.57822E-08
 -1      5781-2.23506E-07-1.77776E-07 6.80643E-07 1.52461E-13 2.06477E-23-5.66007E-22
 -1      5782-2.23506E-07-1.77776E-07 6.80643E-07 1.52461E-13 2.78086E-15-1.57822E-08
 -1      5783-2.24566E-07-1.77775E-07 6.81702E-07-9.78017E-13 1.72632E-14 1.58192E-08
 -1      5784-2.24566E-07-1.77775E-07 6.81702E-07-9.78017E-13 2.47441E-22 9.28854E-22
 -1      5785-2.24566E-07-1.77775E-07 6.81702E-07-9.78017E-13-1.72632E-14-1.58192E-08
 -1      5786-4.49912E-07-1.77776E-07 9.07050E-07 6.09202E-14-1.05116E-15 2.36863E-08
 -1      5787-4.49912E-07-1.77776E-07 9.07050E-07 6.09202E-14 1.80240E-23-4.43792E-21
 -1      5788-4.49912E-07-1.77776E-07 9.07050E-07 6.09202E-14 1.05116E-15-2.36863E-08
 -1      5789-4.22181E-06-1.77782E-07 4.67896E-06-8.27866E-13 1.44111E-14 1.55385E-07
 -1      5790-4.22181E-06-1.77782E-07 4.67896E-06-8.27866E-13 3.24200E-22 2.86556E-20
 -1      5791-4.22181E-06-1.77782E-07 4.67896E-06-8.27866E-13-1.44111E-14-1.55385E-07
 -1      5792-4.21958E-06-1.77783E-07 4.67673E-06-1.24829E-12 2.17333E-14 1.55307E-07
 -1      5793-4.21958E-06-1.77783E-07 4.67673E-06-1.24829E-12 4.10959E-22 2.56096E-20
 -1      5794-4.21958E-06-1.77783E-07 4.67673E-06-1.24829E-12-2.17333E-14-1.55307E-07
 -1      5795-4.22850E-06-1.77761E-07 4.68562E-06 1.86455E-12-3.14995E-14 1.55617E-07
 -1      5796-4.22850E-06-1.77761E-07 4.68562E-06 1.86455E-12 3.09323E-22-1.07918E-20
 -1      5797-4.22850E-06-1.77761E-07 4.68562E-06 1.86455E-12 3.14995E-14-1.55617E-07
 -1      5798-2.95301E-06-1.77814E-07 3.41015E-06-7.94734E-11 1.39162E-12 1.11081E-07
 -1      5799-2.95301E-06-1.77814E-07 3.41015E-06-7.94734E-11-3.17463E-22 2.04123E-20
 -1      5800-2.95301E-06-1.77814E-07 3.41015E-06-7.94734E-11-1.39162E-12-1.11081E-07
 -1      5801-2.09066E-06-1.77776E-07 2.54780E-06 7.75173E-13-1.36607E-14 8.09703E-08
 -1      5802-2.09066E-06-1.77776E-07 2.54780E-06 7.75173E-13 7.68060E-24 1.57108E-21
 -1      5803-2.09066E-06-1.77776E-07 2.54780E-06 7.75173E-13 1.36607E-14-8.09703E-08
 -1      5804-2.32999E-06-1.77776E-07 2.78713E-06-4.05152E-12 7.07452E-14 8.93268E-08
 -1      5805-2.32999E-06-1.77776E-07 2.78713E-06-4.05152E-12 6.28625E-24-2.97464E-21
 -1      5806-2.32999E-06-1.77776E-07 2.78713E-06-4.05152E-12-7.07452E-14-8.93268E-08
 -1      5807-1.29109E-06-1.77776E-07 1.74823E-06-3.89013E-14 6.78229E-16 5.30539E-08
 -1      5808-1.29109E-06-1.77776E-07 1.74823E-06-3.89013E-14-1.51430E-22 7.68315E-21
 -1      5809-1.29109E-06-1.77776E-07 1.74823E-06-3.89013E-14-6.78229E-16-5.30539E-08
 -1      5810-9.15571E-07-1.77776E-07 1.37271E-06 3.62329E-14-6.28415E-16 3.99434E-08
 -1      5811-9.15571E-07-1.77776E-07 1.37271E-06 3.62328E-14-5.96896E-24 6.94000E-21
 -1      5812-9.15571E-07-1.77776E-07 1.37271E-06 3.62328E-14 6.28415E-16-3.99434E-08
 -1      5813-1.08337E-06-1.77776E-07 1.54051E-06 9.06939E-14-1.58514E-15 4.58017E-08
 -1      5814-1.08337E-06-1.77776E-07 1.54051E-06 9.06939E-14-3.13804E-23-3.07565E-21
 -1      5815-1.08337E-06-1.77776E-07 1.54051E-06 9.06939E-14 1.58514E-15-4.58017E-08
 -1      5816-7.78006E-07-1.77776E-07 1.23514E-06 3.87296E-16-8.04403E-18 3.51407E-08
 -1      5817-7.78006E-07-1.77776E-07 1.23514E-06 3.87293E-16-6.69733E-24 3.62441E-21
 -1      5818-7.78006E-07-1.77776E-07 1.23514E-06 3.87289E-16 8.04402E-18-3.51407E-08
 -1      5819-5.25367E-07-1.77776E-07 9.82505E-07-1.35274E-14 2.37946E-16 2.63206E-08
 -1      5820-5.25367E-07-1.77776E-07 9.82505E-07-1.35274E-14-5.12225E-23-2.37259E-21
 -1      5821-5.25367E-07-1.77776E-07 9.82505E-07-1.35274E-14-2.37946E-16-2.63206E-08
 -1      5822-6.13704E-07-1.77776E-07 1.07084E-06-8.76685E-16 1.49128E-17 2.94046E-08
 -1      5823-6.13704E-07-1.77776E-07 1.07084E-06-8.76684E-16-8.17389E-23 4.28394E-21
 -1      5824-6.13704E-07-1.77776E-07 1.07084E-06-8.76683E-16-1.49130E-17-2.94046E-08
 -1      5825-3.85010E-07-1.77776E-07 8.42149E-07 4.89251E-14-8.30031E-16 2.14205E-08
 -1      5826-3.85010E-07-1.77776E-07 8.42149E-07 4.89251E-14-1.91516E-23-1.56296E-21
 -1      5827-3.85010E-07-1.77776E-07 8.42149E-07 4.89251E-14 8.30031E-16-2.14205E-08
 -1      5828-3.03606E-07-1.77776E-07 7.60744E-07 2.37010E-13-4.00412E-15 1.85786E-08
 -1      5829-3.03606E-07-1.77776E-07 7.60744E-07 2.37010E-13-7.74128E-24-2.44166E-21
 -1      5830-3.03606E-07-1.77776E-07 7.60744E-07 2.37010E-13 4.00412E-15-1.85786E-08
 -1      5831-2.62339E-07-1.77773E-07 7.19472E-07-2.76659E-14 6.37408E-16 1.71378E-08
 -1      5832-2.62339E-07-1.77773E-07 7.19472E-07-2.76659E-14-1.43305E-23 1.69840E-22
 -1      5833-2.62339E-07-1.77773E-07 7.19472E-07-2.76659E-14-6.37408E-16-1.71378E-08
 -1      5834-4.17540E-06-1.77796E-07 4.63257E-06 4.20414E-12-7.20849E-14 1.53766E-07
 -1      5835-4.17540E-06-1.77796E-07 4.63257E-06 4.20414E-12-7.41563E-22-8.47584E-21
 -1      5836-4.17540E-06-1.77796E-07 4.63257E-06 4.20414E-12 7.20849E-14-1.53766E-07
 -1      5837-2.23689E-07-1.77776E-07 6.80827E-07 6.88274E-14-1.19248E-15 1.57886E-08
 -1      5838-2.23689E-07-1.77776E-07 6.80827E-07 6.88274E-14 1.27050E-22-3.90426E-21
 -1      5839-2.23689E-07-1.77776E-07 6.80827E-07 6.88274E-14 1.19248E-15-1.57886E-08
 -1      5840-2.23588E-07-1.77776E-07 6.80726E-07 9.25213E-15-1.67693E-16 1.57851E-08
 -1      5841-2.23588E-07-1.77776E-07 6.80726E-07 9.25213E-15-4.31231E-23 1.32657E-21
 -1      5842-2.23588E-07-1.77776E-07 6.80726E-07 9.25213E-15 1.67693E-16-1.57851E-08
 -1      5843-2.23545E-07-1.77776E-07 6.80683E-07-1.03907E-14 1.86848E-16 1.57836E-08
 -1      5844-2.23545E-07-1.77776E-07 6.80683E-07-1.03907E-14-1.57437E-22 1.00398E-21
 -1      5845-2.23545E-07-1.77776E-07 6.80683E-07-1.03907E-14-1.86849E-16-1.57836E-08
 -1      5846-2.23446E-07-1.77776E-07 6.80584E-07-2.33368E-15 3.12737E-17 1.57801E-08
 -1      5847-2.23446E-07-1.77776E-07 6.80584E-07-2.33368E-15 3.05430E-23-1.19466E-21
 -1      5848-2.23446E-07-1.77776E-07 6.80584E-07-2.33368E-15-3.12736E-17-1.57801E-08
 -1      5849-2.22954E-07-1.77776E-07 6.80093E-07-1.00641E-14 1.70740E-16 1.57630E-08
 -1      5850-2.22954E-07-1.77776E-07 6.80093E-07-1.00641E-14-1.17958E-22-2.34245E-21
 -1      5851-2.22954E-07-1.77776E-07 6.80093E-07-1.00641E-14-1.70741E-16-1.57630E-08
 -1      5852-2.22937E-07-1.77776E-07 6.80075E-07-9.25715E-14 1.62939E-15 1.57623E-08
 -1      5853-2.22937E-07-1.77776E-07 6.80075E-07-9.25715E-14-3.95392E-22-2.37581E-21
 -1      5854-2.22937E-07-1.77776E-07 6.80075E-07-9.25715E-14-1.62939E-15-1.57623E-08
 -1      5855-3.34303E-06-1.77809E-07 3.80005E-06 1.32952E-10-2.31460E-12 1.24697E-07
 -1      5856-3.34303E-06-1.77809E-07 3.80005E-06 1.32952E-10 2.44510E-23-8.17317E-21
 -1      5857-3.34303E-06-1.77809E-07 3.80005E-06 1.32952E-10 2.31460E-12-1.24697E-07
 -1      5858-2.61294E-06-1.77775E-07 3.07007E-06-1.87297E-11 3.27645E-13 9.92064E-08
 -1      5859-2.61294E-06-1.77775E-07 3.07007E-06-1.87297E-11-9.95632E-23-1.33071E-20
 -1      5860-2.61294E-06-1.77775E-07 3.07007E-06-1.87297E-11-3.27645E-13-9.92064E-08
 -1      5861-6.90426E-07-1.77776E-07 1.14756E-06-6.27974E-15 1.08829E-16 3.20831E-08
 -1      5862-6.90426E-07-1.77776E-07 1.14756E-06-6.27974E-15-1.07661E-23-1.31802E-21
 -1      5863-6.90426E-07-1.77776E-07 1.14756E-06-6.27974E-15-1.08829E-16-3.20831E-08
 -1      5864-2.40785E-07-1.77776E-07 6.97924E-07 4.07623E-14-7.25911E-16 1.63855E-08
 -1      5865-2.40785E-07-1.77776E-07 6.97924E-07 4.07623E-14 4.12099E-23-1.36360E-21
 -1      5866-2.40785E-07-1.77776E-07 6.97924E-07 4.07623E-14 7.25912E-16-1.63855E-08
 -1      5867-3.75388E-06-1.77779E-07 4.21102E-06-1.09464E-12 1.90439E-14 1.39045E-07
 -1      5868-3.75388E-06-1.77779E-07 4.21102E-06-1.09464E-12 7.89976E-22 2.86735E-21
 -1      5869-3.75388E-06-1.77779E-07 4.21102E-06-1.09464E-12-1.90438E-14-1.39045E-07
 -1      5870-3.77257E-06-1.77738E-07 4.22962E-06 1.50070E-11-2.58484E-13 1.39695E-07
 -1      5871-3.77257E-06-1.77738E-07 4.22962E-06 1.50070E-11 1.95814E-22 1.43860E-20
 -1      5872-3.77257E-06-1.77738E-07 4.22962E-06 1.50070E-11 2.58484E-13-1.39695E-07
 -1      5873-8.09978E-07-1.77776E-07 1.26712E-06-2.10877E-16 4.23728E-18 3.62569E-08
 -1      5874-8.09978E-07-1.77776E-07 1.26712E-06-2.10879E-16 1.67277E-23-5.66138E-22
 -1      5875-8.09978E-07-1.77776E-07 1.26712E-06-2.10882E-16-4.23725E-18-3.62569E-08
 -1      5876-7.47484E-07-1.77776E-07 1.20462E-06-6.45560E-15 1.12485E-16 3.40751E-08
 -1      5877-7.47484E-07-1.77776E-07 1.20462E-06-6.45560E-15 1.12972E-23-2.13693E-23
 -1      5878-7.47484E-07-1.77776E-07 1.20462E-06-6.45561E-15-1.12485E-16-3.40751E-08
 -1      5879-2.38533E-07-1.77775E-07 6.95670E-07 1.18324E-12-2.09766E-14 1.63068E-08
 -1      5880-2.38533E-07-1.77775E-07 6.95670E-07 1.18324E-12 1.95195E-22-2.05429E-21
 -1      5881-2.38533E-07-1.77775E-07 6.95670E-07 1.18324E-12 2.09766E-14-1.63068E-08
 -1      5882-2.41144E-07-1.77776E-07 6.98282E-07 8.57406E-15-1.36084E-16 1.63980E-08
 -1      5883-2.41144E-07-1.77776E-07 6.98282E-07 8.57406E-15-1.07156E-22 1.07363E-22
 -1      5884-2.41144E-07-1.77776E-07 6.98282E-07 8.57407E-15 1.36084E-16-1.63980E-08
 -1      5885-3.75027E-06-1.77781E-07 4.20742E-06-2.62896E-12 4.57857E-14 1.38919E-07
 -1      5886-3.75027E-06-1.77781E-07 4.20742E-06-2.62896E-12-1.06540E-23 2.08693E-21
 -1      5887-3.75027E-06-1.77781E-07 4.20742E-06-2.62896E-12-4.57857E-14-1.38919E-07
 -1      5888-3.75578E-06-1.77800E-07 4.21296E-06 1.59001E-11-2.77233E-13 1.39112E-07
 -1      5889-3.75578E-06-1.77800E-07 4.21296E-06 1.59001E-11 2.29000E-22-7.79800E-21
 -1      5890-3.75578E-06-1.77800E-07 4.21296E-06 1.59001E-11 2.77233E-13-1.39112E-07
 -1      5891-3.75240E-06-1.77781E-07 4.20954E-06 5.39782E-13-9.40600E-15 1.38993E-07
 -1      5892-3.75240E-06-1.77781E-07 4.20954E-06 5.39782E-13-1.61968E-22 1.92344E-21
 -1      5893-3.75240E-06-1.77781E-07 4.20954E-06 5.39782E-13 9.40600E-15-1.38993E-07
 -1      5894-1.79215E-06-1.77775E-07 2.24929E-06 7.13673E-13-1.25871E-14 7.05478E-08
 -1      5895-1.79215E-06-1.77775E-07 2.24929E-06 7.13673E-13 8.50689E-23-7.92295E-22
 -1      5896-1.79215E-06-1.77775E-07 2.24929E-06 7.13673E-13 1.25871E-14-7.05478E-08
 -1      5897-2.40630E-07-1.77776E-07 6.97768E-07-2.15885E-14 3.87684E-16 1.63800E-08
 -1      5898-2.40630E-07-1.77776E-07 6.97768E-07-2.15885E-14 7.22819E-24-9.37579E-22
 -1      5899-2.40630E-07-1.77776E-07 6.97768E-07-2.15885E-14-3.87684E-16-1.63800E-08
 -1      5900-3.73170E-06-1.77778E-07 4.18882E-06 3.07377E-12-5.28240E-14 1.38270E-07
 -1      5901-3.73170E-06-1.77778E-07 4.18882E-06 3.07377E-12 5.48564E-22 1.28139E-20
 -1      5902-3.73170E-06-1.77778E-07 4.18882E-06 3.07377E-12 5.28240E-14-1.38270E-07
 -1      5903-1.23474E-06-1.77776E-07 1.69187E-06 8.19546E-14-1.43037E-15 5.10863E-08
 -1      5904-1.23474E-06-1.77776E-07 1.69187E-06 8.19546E-14 1.08403E-22-9.57298E-22
 -1      5905-1.23474E-06-1.77776E-07 1.69187E-06 8.19546E-14 1.43037E-15-5.10863E-08
 -1      5906-1.03810E-06-1.77776E-07 1.49523E-06 1.19472E-13-2.08540E-15 4.42210E-08
 -1      5907-1.03810E-06-1.77776E-07 1.49523E-06 1.19472E-13 3.98275E-23-4.96545E-21
 -1      5908-1.03810E-06-1.77776E-07 1.49523E-06 1.19472E-13 2.08540E-15-4.42210E-08
 -1      5909-2.40739E-07-1.77776E-07 6.97877E-07-6.04601E-15 1.16004E-16 1.63838E-08
 -1      5910-2.40739E-07-1.77776E-07 6.97877E-07-6.04601E-15 7.96068E-23-2.57098E-22
 -1      5911-2.40739E-07-1.77776E-07 6.97877E-07-6.04601E-15-1.16003E-16-1.63838E-08
 -1      5912-3.75104E-06-1.77779E-07 4.20819E-06-1.50000E-12 2.61564E-14 1.38946E-07
 -1      5913-3.75104E-06-1.77779E-07 4.20819E-06-1.50000E-12-4.41242E-22-2.47381E-20
 -1      5914-3.75104E-06-1.77779E-07 4.20819E-06-1.50000E-12-2.61564E-14-1.38946E-07
 -1      5915-2.39359E-07-1.77775E-07 6.96495E-07-9.99400E-13 1.76892E-14 1.63356E-08
 -1      5916-2.39359E-07-1.77775E-07 6.96495E-07-9.99400E-13 1.43813E-22-2.31220E-21
 -1      5917-2.39359E-07-1.77775E-07 6.96495E-07-9.99400E-13-1.76892E-14-1.63356E-08
 -1      5918-1.13110E-06-1.77776E-07 1.58823E-06 1.28408E-13-2.24235E-15 4.74680E-08
 -1      5919-1.13110E-06-1.77776E-07 1.58823E-06 1.28408E-13 2.42699E-22-2.20744E-21
 -1      5920-1.13110E-06-1.77776E-07 1.58823E-06 1.28408E-13 2.24235E-15-4.74680E-08
 -1      5921-2.88685E-07-1.77777E-07 7.45825E-07 6.73481E-13-1.15749E-14 1.80578E-08
 -1      5922-2.88685E-07-1.77777E-07 7.45825E-07 6.73481E-13 4.77766E-23 6.67057E-22
 -1      5923-2.88685E-07-1.77777E-07 7.45825E-07 6.73481E-13 1.15749E-14-1.80578E-08
 -1      5924-8.78646E-07-1.77776E-07 1.33578E-06 1.14571E-14-1.98488E-16 3.86543E-08
 -1      5925-8.78646E-07-1.77776E-07 1.33578E-06 1.14571E-14-2.12558E-24-1.88701E-21
 -1      5926-8.78646E-07-1.77776E-07 1.33578E-06 1.14571E-14 1.98488E-16-3.86543E-08
 -1      5927-5.90241E-07-1.77776E-07 1.04738E-06 1.23740E-14-2.16413E-16 2.85854E-08
 -1      5928-5.90241E-07-1.77776E-07 1.04738E-06 1.23740E-14 4.89750E-23-3.63537E-21
 -1      5929-5.90241E-07-1.77776E-07 1.04738E-06 1.23740E-14 2.16413E-16-2.85854E-08
 -1      5930-5.05348E-07-1.77776E-07 9.62486E-07 1.25227E-14-2.19195E-16 2.56217E-08
 -1      5931-5.05348E-07-1.77776E-07 9.62486E-07 1.25227E-14-1.50483E-23 2.91555E-21
 -1      5932-5.05348E-07-1.77776E-07 9.62486E-07 1.25227E-14 2.19195E-16-2.56217E-08
 -1      5933-4.32472E-07-1.77776E-07 8.89610E-07 7.59445E-14-1.30604E-15 2.30775E-08
 -1      5934-4.32472E-07-1.77776E-07 8.89610E-07 7.59445E-14 2.29080E-23 1.90097E-21
 -1      5935-4.32472E-07-1.77776E-07 8.89610E-07 7.59445E-14 1.30604E-15-2.30775E-08
 -1      5936-3.67730E-06-1.77766E-07 4.13448E-06 6.36703E-11-1.10762E-12 1.36375E-07
 -1      5937-3.67730E-06-1.77766E-07 4.13448E-06 6.36703E-11-1.66932E-22 4.29727E-21
 -1      5938-3.67730E-06-1.77766E-07 4.13448E-06 6.36703E-11 1.10762E-12-1.36375E-07
 -1      5939-3.70617E-06-1.77766E-07 4.16329E-06 1.54922E-11-2.68523E-13 1.37380E-07
 -1      5940-3.70617E-06-1.77766E-07 4.16329E-06 1.54922E-11 6.57941E-23-3.91851E-21
 -1      5941-3.70617E-06-1.77766E-07 4.16329E-06 1.54922E-11 2.68523E-13-1.37380E-07
 -1      5942-2.39269E-07-1.77775E-07 6.96407E-07-2.51550E-12 4.43808E-14 1.63325E-08
 -1      5943-2.39269E-07-1.77775E-07 6.96407E-07-2.51550E-12-2.06842E-23-3.88440E-22
 -1      5944-2.39269E-07-1.77775E-07 6.96407E-07-2.51550E-12-4.43808E-14-1.63325E-08
 -1      5945-2.39590E-07-1.77776E-07 6.96730E-07-6.94217E-13 1.22279E-14 1.63437E-08
 -1      5946-2.39590E-07-1.77776E-07 6.96730E-07-6.94217E-13 3.07413E-22 2.56566E-21
 -1      5947-2.39590E-07-1.77776E-07 6.96730E-07-6.94217E-13-1.22279E-14-1.63437E-08
 -1      5948-2.40872E-07-1.77776E-07 6.98010E-07 3.19290E-14-5.23999E-16 1.63885E-08
 -1      5949-2.40872E-07-1.77776E-07 6.98010E-07 3.19290E-14-4.86336E-24 3.84778E-22
 -1      5950-2.40872E-07-1.77776E-07 6.98010E-07 3.19290E-14 5.23999E-16-1.63885E-08
 -1      5951-9.54353E-07-1.77776E-07 1.41149E-06 5.80726E-14-1.01278E-15 4.12974E-08
 -1      5952-9.54353E-07-1.77776E-07 1.41149E-06 5.80726E-14-7.90096E-24-6.00130E-21
 -1      5953-9.54353E-07-1.77776E-07 1.41149E-06 5.80726E-14 1.01278E-15-4.12974E-08
 -1      5954-2.64028E-07-1.77778E-07 7.21171E-07-2.04683E-12 3.57446E-14 1.71970E-08
 -1      5955-2.64028E-07-1.77778E-07 7.21171E-07-2.04683E-12-2.05344E-24 1.77365E-21
 -1      5956-2.64028E-07-1.77778E-07 7.21171E-07-2.04683E-12-3.57446E-14-1.71970E-08
 -1      5957-3.14196E-07-1.77776E-07 7.71334E-07 2.60278E-13-4.46672E-15 1.89483E-08
 -1      5958-3.14196E-07-1.77776E-07 7.71334E-07 2.60278E-13-9.54300E-24-2.25160E-21
 -1      5959-3.14196E-07-1.77776E-07 7.71334E-07 2.60278E-13 4.46672E-15-1.89483E-08
 -1      5960-2.41007E-07-1.77776E-07 6.98145E-07-2.02542E-14 3.34128E-16 1.63932E-08
 -1      5961-2.41007E-07-1.77776E-07 6.98145E-07-2.02542E-14 1.97075E-22-7.31933E-22
 -1      5962-2.41007E-07-1.77776E-07 6.98145E-07-2.02542E-14-3.34128E-16-1.63932E-08
 -1      5963-2.41165E-07-1.77776E-07 6.98303E-07-1.15930E-14 1.85922E-16 1.63987E-08
 -1      5964-2.41165E-07-1.77776E-07 6.98303E-07-1.15930E-14-3.28963E-23 2.74331E-21
 -1      5965-2.41165E-07-1.77776E-07 6.98303E-07-1.15930E-14-1.85922E-16-1.63987E-08
 -1      5966-3.74630E-06-1.77779E-07 4.20343E-06-2.06789E-13 3.98026E-15 1.38780E-07
 -1      5967-3.74630E-06-1.77779E-07 4.20343E-06-2.06789E-13-7.59874E-23-8.14535E-21
 -1      5968-3.74630E-06-1.77779E-07 4.20343E-06-2.06789E-13-3.98026E-15-1.38780E-07
 -1      5969-1.35067E-06-1.77776E-07 1.80781E-06-5.51904E-14 9.67368E-16 5.51339E-08
 -1      5970-1.35067E-06-1.77776E-07 1.80781E-06-5.51904E-14 1.23871E-22-2.75379E-21
 -1      5971-1.35067E-06-1.77776E-07 1.80781E-06-5.51904E-14-9.67367E-16-5.51339E-08
 -1      5972-2.40781E-07-1.77776E-07 6.97921E-07 1.28791E-12-2.26720E-14 1.63854E-08
 -1      5973-2.40781E-07-1.77776E-07 6.97921E-07 1.28791E-12-7.12251E-23-1.09090E-21
 -1      5974-2.40781E-07-1.77776E-07 6.97921E-07 1.28791E-12 2.26720E-14-1.63854E-08
 -1      5975-2.40553E-07-1.77776E-07 6.97691E-07 6.69967E-15-1.14265E-16 1.63773E-08
 -1      5976-2.40553E-07-1.77776E-07 6.97691E-07 6.69967E-15-3.01058E-23-1.60841E-21
 -1      5977-2.40553E-07-1.77776E-07 6.97691E-07 6.69967E-15 1.14265E-16-1.63773E-08
 -1      5978-3.75063E-06-1.77786E-07 4.20779E-06-1.10935E-12 1.92622E-14 1.38932E-07
 -1      5979-3.75063E-06-1.77786E-07 4.20779E-06-1.10935E-12-4.35672E-22 1.17770E-20
 -1      5980-3.75063E-06-1.77786E-07 4.20779E-06-1.10935E-12-1.92622E-14-1.38932E-07
 -1      5981-2.40728E-07-1.77776E-07 6.97867E-07-5.32591E-14 9.43889E-16 1.63835E-08
 -1      5982-2.40728E-07-1.77776E-07 6.97867E-07-5.32591E-14-6.55641E-23-9.57965E-23
 -1      5983-2.40728E-07-1.77776E-07 6.97867E-07-5.32591E-14-9.43889E-16-1.63835E-08
 -1      5984-2.39807E-07-1.77776E-07 6.96945E-07-4.97569E-14 7.82957E-16 1.63513E-08
 -1      5985-2.39807E-07-1.77776E-07 6.96945E-07-4.97569E-14-1.74528E-22 1.19720E-21
 -1      5986-2.39807E-07-1.77776E-07 6.96945E-07-4.97569E-14-7.82957E-16-1.63513E-08
 -1      5987-3.69097E-06-1.77769E-07 4.14832E-06 1.27127E-10-2.21114E-12 1.36854E-07
 -1      5988-3.69097E-06-1.77769E-07 4.14832E-06 1.27127E-10-6.37405E-23 1.27042E-20
 -1      5989-3.69097E-06-1.77769E-07 4.14832E-06 1.27127E-10 2.21114E-12-1.36854E-07
 -1      5990-3.75212E-06-1.77692E-07 4.20895E-06 1.04089E-10-1.81993E-12 1.38974E-07
 -1      5991-3.75212E-06-1.77692E-07 4.20895E-06 1.04089E-10 1.94553E-22-4.85762E-21
 -1      5992-3.75212E-06-1.77692E-07 4.20895E-06 1.04089E-10 1.81993E-12-1.38974E-07
 -1      5993-4.67614E-07-1.77776E-07 9.24752E-07 4.76212E-14-8.22469E-16 2.43043E-08
 -1      5994-4.67614E-07-1.77776E-07 9.24752E-07 4.76212E-14-1.14721E-22 1.67311E-22
 -1      5995-4.67614E-07-1.77776E-07 9.24752E-07 4.76211E-14 8.22469E-16-2.43043E-08
 -1      5996-3.16579E-06-1.77793E-07 3.62307E-06-3.79701E-11 6.64380E-13 1.18513E-07
 -1      5997-3.16579E-06-1.77793E-07 3.62307E-06-3.79701E-11 6.10266E-23 3.44890E-21
 -1      5998-3.16579E-06-1.77793E-07 3.62307E-06-3.79701E-11-6.64380E-13-1.18513E-07
 -1      5999-2.80315E-06-1.77779E-07 3.26029E-06 2.04086E-12-3.59773E-14 1.05848E-07
 -1      6000-2.80315E-06-1.77779E-07 3.26029E-06 2.04086E-12 7.86427E-22-4.87775E-21
 -1      6001-2.80315E-06-1.77779E-07 3.26029E-06 2.04086E-12 3.59773E-14-1.05848E-07
 -1      6002-2.49775E-06-1.77777E-07 2.95489E-06 9.08089E-13-1.58860E-14 9.51841E-08
 -1      6003-2.49775E-06-1.77777E-07 2.95489E-06 9.08089E-13-1.10760E-21-3.34480E-21
 -1      6004-2.49775E-06-1.77777E-07 2.95489E-06 9.08089E-13 1.58860E-14-9.51841E-08
 -1      6005-2.23602E-06-1.77776E-07 2.69316E-06-2.86299E-13 5.06205E-15 8.60456E-08
 -1      6006-2.23602E-06-1.77776E-07 2.69316E-06-2.86299E-13 1.00392E-21 1.66920E-22
 -1      6007-2.23602E-06-1.77776E-07 2.69316E-06-2.86299E-13-5.06205E-15-8.60456E-08
 -1      6008-2.01074E-06-1.77776E-07 2.46788E-06-6.52012E-13 1.14777E-14 7.81798E-08
 -1      6009-2.01074E-06-1.77776E-07 2.46788E-06-6.52012E-13 3.89440E-22 2.69480E-21
 -1      6010-2.01074E-06-1.77776E-07 2.46788E-06-6.52012E-13-1.14777E-14-7.81798E-08
 -1      6011-1.81569E-06-1.77776E-07 2.27282E-06-8.34094E-13 1.46548E-14 7.13696E-08
 -1      6012-1.81569E-06-1.77776E-07 2.27282E-06-8.34094E-13 2.34367E-22-3.22378E-21
 -1      6013-1.81569E-06-1.77776E-07 2.27282E-06-8.34094E-13-1.46548E-14-7.13696E-08
 -1      6014-1.64564E-06-1.77776E-07 2.10277E-06-7.12611E-13 1.25211E-14 6.54324E-08
 -1      6015-1.64564E-06-1.77776E-07 2.10277E-06-7.12611E-13 2.82738E-22 1.10797E-20
 -1      6016-1.64564E-06-1.77776E-07 2.10277E-06-7.12611E-13-1.25211E-14-6.54324E-08
 -1      6017-1.49632E-06-1.77776E-07 1.95346E-06-4.87096E-13 8.57026E-15 6.02191E-08
 -1      6018-1.49632E-06-1.77776E-07 1.95346E-06-4.87096E-13-1.12225E-22 9.26970E-22
 -1      6019-1.49632E-06-1.77776E-07 1.95346E-06-4.87096E-13-8.57026E-15-6.02191E-08
 -1      6020-1.36433E-06-1.77776E-07 1.82146E-06-2.92001E-13 5.15304E-15 5.56108E-08
 -1      6021-1.36433E-06-1.77776E-07 1.82146E-06-2.92001E-13-1.65546E-22-5.25796E-21
 -1      6022-1.36433E-06-1.77776E-07 1.82146E-06-2.92001E-13-5.15304E-15-5.56108E-08
 -1      6023-1.24696E-06-1.77776E-07 1.70410E-06-1.70983E-13 3.03148E-15 5.15132E-08
 -1      6024-1.24696E-06-1.77776E-07 1.70410E-06-1.70983E-13 2.19751E-23-6.09393E-21
 -1      6025-1.24696E-06-1.77776E-07 1.70410E-06-1.70983E-13-3.03148E-15-5.15132E-08
 -1      6026-1.14210E-06-1.77776E-07 1.59924E-06-1.38573E-13 2.45922E-15 4.78521E-08
 -1      6027-1.14210E-06-1.77776E-07 1.59924E-06-1.38573E-13-1.97609E-22 1.64367E-21
 -1      6028-1.14210E-06-1.77776E-07 1.59924E-06-1.38573E-13-2.45922E-15-4.78521E-08
 -1      6029-1.04802E-06-1.77776E-07 1.50516E-06-1.29752E-13 2.30025E-15 4.45676E-08
 -1      6030-1.04802E-06-1.77776E-07 1.50516E-06-1.29752E-13-1.38617E-22 7.66250E-22
 -1      6031-1.04802E-06-1.77776E-07 1.50516E-06-1.29752E-13-2.30025E-15-4.45676E-08
 -1      6032-9.63299E-07-1.77776E-07 1.42044E-06-9.40486E-14 1.67237E-15 4.16097E-08
 -1      6033-9.63299E-07-1.77776E-07 1.42044E-06-9.40486E-14 4.01970E-22-3.10842E-22
 -1      6034-9.63299E-07-1.77776E-07 1.42044E-06-9.40486E-14-1.67237E-15-4.16097E-08
 -1      6035-8.86718E-07-1.77776E-07 1.34386E-06-6.15298E-14 1.10108E-15 3.89361E-08
 -1      6036-8.86718E-07-1.77776E-07 1.34386E-06-6.15298E-14 1.95321E-22 2.28375E-21
 -1      6037-8.86718E-07-1.77776E-07 1.34386E-06-6.15298E-14-1.10108E-15-3.89361E-08
 -1      6038-8.17257E-07-1.77776E-07 1.27440E-06-5.16007E-14 9.25387E-16 3.65110E-08
 -1      6039-8.17257E-07-1.77776E-07 1.27440E-06-5.16007E-14-2.04132E-22-3.93807E-21
 -1      6040-8.17257E-07-1.77776E-07 1.27440E-06-5.16007E-14-9.25388E-16-3.65110E-08
 -1      6041-7.54057E-07-1.77776E-07 1.21120E-06-5.11337E-14 9.15402E-16 3.43046E-08
 -1      6042-7.54057E-07-1.77776E-07 1.21120E-06-5.11337E-14 2.28577E-22 8.76695E-22
 -1      6043-7.54057E-07-1.77776E-07 1.21120E-06-5.11337E-14-9.15401E-16-3.43046E-08
 -1      6044-6.96395E-07-1.77776E-07 1.15353E-06-4.01003E-14 7.21436E-16 3.22915E-08
 -1      6045-6.96395E-07-1.77776E-07 1.15353E-06-4.01003E-14-4.36759E-22 4.00168E-21
 -1      6046-6.96395E-07-1.77776E-07 1.15353E-06-4.01003E-14-7.21437E-16-3.22915E-08
 -1      6047-6.43667E-07-1.77776E-07 1.10081E-06-2.70255E-14 4.92109E-16 3.04507E-08
 -1      6048-6.43667E-07-1.77776E-07 1.10081E-06-2.70255E-14 3.98353E-22-2.89386E-21
 -1      6049-6.43667E-07-1.77776E-07 1.10081E-06-2.70255E-14-4.92108E-16-3.04507E-08
 -1      6050-5.95345E-07-1.77776E-07 1.05248E-06-1.41690E-14 2.66894E-16 2.87636E-08
 -1      6051-5.95345E-07-1.77776E-07 1.05248E-06-1.41690E-14-1.04855E-22 1.61991E-21
 -1      6052-5.95345E-07-1.77776E-07 1.05248E-06-1.41690E-14-2.66894E-16-2.87636E-08
 -1      6053-5.50962E-07-1.77776E-07 1.00810E-06 1.14712E-15-1.05930E-18 2.72141E-08
 -1      6054-5.50962E-07-1.77776E-07 1.00810E-06 1.14711E-15 1.89922E-22 1.20404E-21
 -1      6055-5.50962E-07-1.77776E-07 1.00810E-06 1.14710E-15 1.05968E-18-2.72141E-08
 -1      6056-5.10128E-07-1.77776E-07 9.67266E-07 1.45515E-15-6.04139E-18 2.57885E-08
 -1      6057-5.10128E-07-1.77776E-07 9.67266E-07 1.45515E-15-2.09239E-22 9.36070E-22
 -1      6058-5.10128E-07-1.77776E-07 9.67266E-07 1.45515E-15 6.04097E-18-2.57885E-08
 -1      6059-4.72521E-07-1.77776E-07 9.29659E-07 9.14806E-16 5.93469E-18 2.44756E-08
 -1      6060-4.72521E-07-1.77776E-07 9.29659E-07 9.14812E-16-5.81869E-23 6.05550E-23
 -1      6061-4.72521E-07-1.77776E-07 9.29659E-07 9.14818E-16-5.93480E-18-2.44756E-08
 -1      6062-4.37858E-07-1.77776E-07 8.94997E-07 1.67786E-14-2.65918E-16 2.32655E-08
 -1      6063-4.37858E-07-1.77776E-07 8.94997E-07 1.67786E-14 2.23732E-22 7.13861E-22
 -1      6064-4.37858E-07-1.77776E-07 8.94997E-07 1.67786E-14 2.65918E-16-2.32655E-08
 -1      6065-4.05882E-07-1.77776E-07 8.63020E-07 1.45511E-14-2.18976E-16 2.21491E-08
 -1      6066-4.05882E-07-1.77776E-07 8.63020E-07 1.45511E-14 6.89338E-22-2.86557E-21
 -1      6067-4.05882E-07-1.77776E-07 8.63020E-07 1.45511E-14 2.18978E-16-2.21491E-08
 -1      6068-3.76350E-07-1.77776E-07 8.33488E-07 5.26645E-14-8.70021E-16 2.11181E-08
 -1      6069-3.76350E-07-1.77776E-07 8.33488E-07 5.26645E-14 2.08676E-22 4.98882E-22
 -1      6070-3.76350E-07-1.77776E-07 8.33488E-07 5.26645E-14 8.70021E-16-2.11181E-08
 -1      6071-3.49001E-07-1.77776E-07 8.06139E-07 3.94947E-14-6.32138E-16 2.01634E-08
 -1      6072-3.49001E-07-1.77776E-07 8.06139E-07 3.94947E-14 3.15643E-22-2.86136E-21
 -1      6073-3.49001E-07-1.77776E-07 8.06139E-07 3.94947E-14 6.32138E-16-2.01634E-08
 -1      6074-3.23659E-07-1.77776E-07 7.80797E-07-1.37354E-13 2.46151E-15 1.92786E-08
 -1      6075-3.23659E-07-1.77776E-07 7.80797E-07-1.37354E-13-4.75035E-23-3.96558E-21
 -1      6076-3.23659E-07-1.77776E-07 7.80797E-07-1.37354E-13-2.46151E-15-1.92786E-08
 -1      6077-3.00205E-07-1.77776E-07 7.57343E-07-3.08018E-14 6.15136E-16 1.84598E-08
 -1      6078-3.00205E-07-1.77776E-07 7.57343E-07-3.08018E-14-1.00491E-22-3.81288E-22
 -1      6079-3.00205E-07-1.77776E-07 7.57343E-07-3.08019E-14-6.15137E-16-1.84598E-08
 -1      6080-2.78435E-07-1.77776E-07 7.35573E-07 1.48579E-13-2.49450E-15 1.76998E-08
 -1      6081-2.78435E-07-1.77776E-07 7.35573E-07 1.48579E-13 3.55129E-23 6.48184E-22
 -1      6082-2.78435E-07-1.77776E-07 7.35573E-07 1.48579E-13 2.49450E-15-1.76998E-08
 -1      6083-2.58134E-07-1.77777E-07 7.15274E-07 4.63463E-13-7.85421E-15 1.69911E-08
 -1      6084-2.58134E-07-1.77777E-07 7.15274E-07 4.63463E-13 9.29560E-23 1.12464E-21
 -1      6085-2.58134E-07-1.77777E-07 7.15274E-07 4.63463E-13 7.85421E-15-1.69911E-08
 -1      6086-2.41278E-07-1.77776E-07 6.98418E-07 2.01364E-12-3.55773E-14 1.64027E-08
 -1      6087-2.41278E-07-1.77776E-07 6.98418E-07 2.01364E-12-9.01797E-23 8.16516E-22
 -1      6088-2.41278E-07-1.77776E-07 6.98418E-07 2.01364E-12 3.55773E-14-1.64027E-08
 -1      6089-3.41006E-07-1.77776E-07 7.98145E-07 1.17826E-13-2.01357E-15 1.98843E-08
 -1      6090-3.41006E-07-1.77776E-07 7.98145E-07 1.17826E-13-3.03389E-24-9.93436E-22
 -1      6091-3.41006E-07-1.77776E-07 7.98145E-07 1.17826E-13 2.01357E-15-1.98843E-08
 -1      6092-3.64956E-06-1.77872E-07 4.10696E-06 5.86219E-11-1.02259E-12 1.35411E-07
 -1      6093-3.64956E-06-1.77872E-07 4.10696E-06 5.86219E-11-3.90427E-22-2.46773E-21
 -1      6094-3.64956E-06-1.77872E-07 4.10696E-06 5.86219E-11 1.02259E-12-1.35411E-07
 -1      6095-3.69351E-07-1.77776E-07 8.26489E-07 1.26361E-13-2.16971E-15 2.08738E-08
 -1      6096-3.69351E-07-1.77776E-07 8.26489E-07 1.26361E-13-3.46574E-23-5.12455E-22
 -1      6097-3.69351E-07-1.77776E-07 8.26489E-07 1.26361E-13 2.16971E-15-2.08738E-08
 -1      6098-3.75217E-06-1.77780E-07 4.20931E-06-8.07512E-13 1.40786E-14 1.38985E-07
 -1      6099-3.75217E-06-1.77780E-07 4.20931E-06-8.07512E-13 2.03644E-22 1.75142E-21
 -1      6100-3.75217E-06-1.77780E-07 4.20931E-06-8.07512E-13-1.40786E-14-1.38985E-07
 -1      6101-2.40620E-07-1.77776E-07 6.97758E-07 3.52030E-14-6.20400E-16 1.63797E-08
 -1      6102-2.40620E-07-1.77776E-07 6.97758E-07 3.52030E-14-1.03442E-22-1.78020E-21
 -1      6103-2.40620E-07-1.77776E-07 6.97758E-07 3.52030E-14 6.20400E-16-1.63797E-08
 -1      6104-1.62688E-06-1.77776E-07 2.08402E-06-3.54572E-13 6.15606E-15 6.47774E-08
 -1      6105-1.62688E-06-1.77776E-07 2.08402E-06-3.54572E-13 9.04085E-23-6.13237E-22
 -1      6106-1.62688E-06-1.77776E-07 2.08402E-06-3.54572E-13-6.15606E-15-6.47774E-08
 -1      6107-3.68342E-06-1.77774E-07 4.14069E-06-8.33708E-11 1.45074E-12 1.36591E-07
 -1      6108-3.68342E-06-1.77774E-07 4.14069E-06-8.33708E-11 1.08748E-22-9.78761E-21
 -1      6109-3.68342E-06-1.77774E-07 4.14069E-06-8.33708E-11-1.45074E-12-1.36591E-07
 -1      6110-3.75151E-06-1.77780E-07 4.20865E-06-9.23231E-13 1.61289E-14 1.38962E-07
 -1      6111-3.75151E-06-1.77780E-07 4.20865E-06-9.23231E-13 1.34251E-22-5.94680E-21
 -1      6112-3.75151E-06-1.77780E-07 4.20865E-06-9.23231E-13-1.61289E-14-1.38962E-07
 -1      6113-2.19957E-06-1.77777E-07 2.65672E-06 2.67752E-12-4.71400E-14 8.47730E-08
 -1      6114-2.19957E-06-1.77777E-07 2.65672E-06 2.67752E-12-5.67403E-23-3.58181E-21
 -1      6115-2.19957E-06-1.77777E-07 2.65672E-06 2.67752E-12 4.71400E-14-8.47730E-08
 -1      6116-5.46100E-07-1.77776E-07 1.00324E-06-6.87169E-15 1.20769E-16 2.70444E-08
 -1      6117-5.46100E-07-1.77776E-07 1.00324E-06-6.87169E-15 1.28590E-23 5.05942E-22
 -1      6118-5.46100E-07-1.77776E-07 1.00324E-06-6.87170E-15-1.20769E-16-2.70444E-08
 -1      6119-6.38190E-07-1.77776E-07 1.09533E-06-3.01277E-15 5.19160E-17 3.02594E-08
 -1      6120-6.38190E-07-1.77776E-07 1.09533E-06-3.01277E-15-3.43505E-24 2.89321E-21
 -1      6121-6.38190E-07-1.77776E-07 1.09533E-06-3.01276E-15-5.19160E-17-3.02594E-08
 -1      6122-3.20564E-06-1.77827E-07 3.66293E-06 1.70207E-11-2.95619E-13 1.19910E-07
 -1      6123-3.20564E-06-1.77827E-07 3.66293E-06 1.70207E-11 9.03920E-23-8.91926E-21
 -1      6124-3.20564E-06-1.77827E-07 3.66293E-06 1.70207E-11 2.95619E-13-1.19910E-07
 -1      6125-3.75327E-06-1.77780E-07 4.21041E-06-8.32434E-13 1.44526E-14 1.39023E-07
 -1      6126-3.75327E-06-1.77780E-07 4.21041E-06-8.32434E-13 3.27849E-22 1.08106E-20
 -1      6127-3.75327E-06-1.77780E-07 4.21041E-06-8.32434E-13-1.44526E-14-1.39023E-07
 -1      6128-2.40461E-07-1.77776E-07 6.97599E-07-2.48534E-14 4.04185E-16 1.63741E-08
 -1      6129-2.40461E-07-1.77776E-07 6.97599E-07-2.48534E-14-2.64014E-22 2.37590E-22
 -1      6130-2.40461E-07-1.77776E-07 6.97599E-07-2.48534E-14-4.04185E-16-1.63741E-08
 -1      6131-3.69582E-06-1.77686E-07 4.15280E-06-6.00973E-11 1.04202E-12 1.37017E-07
 -1      6132-3.69582E-06-1.77686E-07 4.15280E-06-6.00973E-11 1.18885E-21-6.59289E-21
 -1      6133-3.69582E-06-1.77686E-07 4.15280E-06-6.00973E-11-1.04202E-12-1.37017E-07
 -1      6134-1.48074E-06-1.77776E-07 1.93787E-06-3.48183E-13 6.07356E-15 5.96750E-08
 -1      6135-1.48074E-06-1.77776E-07 1.93787E-06-3.48183E-13 2.73687E-24 1.55092E-21
 -1      6136-1.48074E-06-1.77776E-07 1.93787E-06-3.48183E-13-6.07356E-15-5.96750E-08
 -1      6137-2.45847E-06-1.77779E-07 2.91562E-06-4.46764E-12 7.77833E-14 9.38133E-08
 -1      6138-2.45847E-06-1.77779E-07 2.91562E-06-4.46764E-12-6.33520E-24-4.77708E-21
 -1      6139-2.45847E-06-1.77779E-07 2.91562E-06-4.46764E-12-7.77833E-14-9.38133E-08
 -1      6140-2.38353E-07-1.77774E-07 6.95488E-07 3.58185E-13-6.27643E-15 1.63004E-08
 -1      6141-2.38353E-07-1.77774E-07 6.95488E-07 3.58185E-13 3.91766E-23-1.89253E-22
 -1      6142-2.38353E-07-1.77774E-07 6.95488E-07 3.58185E-13 6.27643E-15-1.63004E-08
 -1      6143-1.98068E-06-1.77775E-07 2.43782E-06 3.56958E-12-6.26036E-14 7.71303E-08
 -1      6144-1.98068E-06-1.77775E-07 2.43782E-06 3.56958E-12-9.88115E-23 1.44191E-20
 -1      6145-1.98068E-06-1.77775E-07 2.43782E-06 3.56958E-12 6.26036E-14-7.71303E-08
 -1      6146-3.99728E-07-1.77776E-07 8.56866E-07 1.11763E-13-1.91465E-15 2.19343E-08
 -1      6147-3.99728E-07-1.77776E-07 8.56866E-07 1.11763E-13-1.02535E-23 4.19091E-22
 -1      6148-3.99728E-07-1.77776E-07 8.56866E-07 1.11763E-13 1.91465E-15-2.19343E-08
 -1      6149-2.77548E-06-1.77780E-07 3.23269E-06-2.94971E-11 5.15683E-13 1.04885E-07
 -1      6150-2.77548E-06-1.77780E-07 3.23269E-06-2.94971E-11 2.17821E-23 6.89256E-21
 -1      6151-2.77548E-06-1.77780E-07 3.23269E-06-2.94971E-11-5.15683E-13-1.04885E-07
 -1      6152-3.32016E-06-1.77777E-07 3.77728E-06 1.06101E-11-1.83833E-13 1.23900E-07
 -1      6153-3.32016E-06-1.77777E-07 3.77728E-06 1.06101E-11-1.85213E-22 9.11219E-21
 -1      6154-3.32016E-06-1.77777E-07 3.77728E-06 1.06101E-11 1.83833E-13-1.23900E-07
 -1      6155-2.58589E-07-1.77776E-07 7.15727E-07 2.66743E-14-4.63104E-16 1.70070E-08
 -1      6156-2.58589E-07-1.77776E-07 7.15727E-07 2.66743E-14 1.09156E-22 1.46310E-22
 -1      6157-2.58589E-07-1.77776E-07 7.15727E-07 2.66743E-14 4.63105E-16-1.70070E-08
 -1      6158-2.52800E-07-1.77775E-07 7.09935E-07 1.38808E-12-2.43089E-14 1.68048E-08
 -1      6159-2.52800E-07-1.77775E-07 7.09935E-07 1.38808E-12-2.09657E-22 1.27015E-24
 -1      6160-2.52800E-07-1.77775E-07 7.09935E-07 1.38808E-12 2.43089E-14-1.68048E-08
 -1      6161-3.35407E-06-1.77779E-07 3.81121E-06-1.06545E-12 1.85624E-14 1.25084E-07
 -1      6162-3.35407E-06-1.77779E-07 3.81121E-06-1.06545E-12-3.36532E-22 1.06918E-20
 -1      6163-3.35407E-06-1.77779E-07 3.81121E-06-1.06545E-12-1.85624E-14-1.25084E-07
 -1      6164-3.83387E-07-1.77776E-07 8.40526E-07 2.24749E-13-3.86750E-15 2.13639E-08
 -1      6165-3.83387E-07-1.77776E-07 8.40526E-07 2.24749E-13 6.13120E-23 6.98198E-22
 -1      6166-3.83387E-07-1.77776E-07 8.40526E-07 2.24749E-13 3.86750E-15-2.13639E-08
 -1      6167-2.58861E-07-1.77776E-07 7.15999E-07-5.77212E-14 1.02937E-15 1.70165E-08
 -1      6168-2.58861E-07-1.77776E-07 7.15999E-07-5.77212E-14-2.81359E-23-7.84404E-23
 -1      6169-2.58861E-07-1.77776E-07 7.15999E-07-5.77212E-14-1.02937E-15-1.70165E-08
 -1      6170-3.35631E-06-1.77779E-07 3.81345E-06-7.44529E-13 1.28795E-14 1.25162E-07
 -1      6171-3.35631E-06-1.77779E-07 3.81345E-06-7.44529E-13 1.15881E-21-1.51518E-20
 -1      6172-3.35631E-06-1.77779E-07 3.81345E-06-7.44529E-13-1.28795E-14-1.25162E-07
 -1      6173-3.74584E-06-1.77724E-07 4.20292E-06-7.11327E-11 1.23503E-12 1.38763E-07
 -1      6174-3.74584E-06-1.77724E-07 4.20292E-06-7.11327E-11-1.72298E-22-1.23187E-20
 -1      6175-3.74584E-06-1.77724E-07 4.20292E-06-7.11327E-11-1.23503E-12-1.38763E-07
 -1      6176-3.35257E-06-1.77778E-07 3.80971E-06-2.40180E-12 4.18904E-14 1.25032E-07
 -1      6177-3.35257E-06-1.77778E-07 3.80971E-06-2.40180E-12-6.24948E-23 4.26204E-21
 -1      6178-3.35257E-06-1.77778E-07 3.80971E-06-2.40180E-12-4.18904E-14-1.25032E-07
 -1      6179-4.15333E-07-1.77776E-07 8.72471E-07 1.32592E-13-2.28665E-15 2.24792E-08
 -1      6180-4.15333E-07-1.77776E-07 8.72471E-07 1.32592E-13-5.55470E-23 2.45756E-21
 -1      6181-4.15333E-07-1.77776E-07 8.72471E-07 1.32592E-13 2.28665E-15-2.24792E-08
 -1      6182-2.61088E-07-1.77777E-07 7.18230E-07 3.02144E-12-5.28372E-14 1.70944E-08
 -1      6183-2.61088E-07-1.77777E-07 7.18230E-07 3.02144E-12-1.36720E-23 2.23345E-21
 -1      6184-2.61088E-07-1.77777E-07 7.18230E-07 3.02144E-12 5.28372E-14-1.70944E-08
 -1      6185-8.43483E-07-1.77776E-07 1.30062E-06-3.74172E-15 6.72813E-17 3.74266E-08
 -1      6186-8.43483E-07-1.77776E-07 1.30062E-06-3.74171E-15 7.09164E-23 4.54945E-21
 -1      6187-8.43483E-07-1.77776E-07 1.30062E-06-3.74171E-15-6.72812E-17-3.74266E-08
 -1      6188-3.33261E-06-1.77750E-07 3.78948E-06-1.69947E-10 2.96515E-12 1.24328E-07
 -1      6189-3.33261E-06-1.77750E-07 3.78948E-06-1.69947E-10-1.57169E-22-2.44514E-21
 -1      6190-3.33261E-06-1.77750E-07 3.78948E-06-1.69947E-10-2.96515E-12-1.24328E-07
 -1      6191-6.63778E-07-1.77776E-07 1.12092E-06-8.14970E-16 1.24565E-17 3.11528E-08
 -1      6192-6.63778E-07-1.77776E-07 1.12092E-06-8.14971E-16-4.16573E-23-4.01688E-21
 -1      6193-6.63778E-07-1.77776E-07 1.12092E-06-8.14971E-16-1.24566E-17-3.11528E-08
 -1      6194-2.73675E-07-1.77775E-07 7.30810E-07 8.08664E-13-1.40608E-14 1.75337E-08
 -1      6195-2.73675E-07-1.77775E-07 7.30810E-07 8.08664E-13 2.84266E-23 7.06591E-22
 -1      6196-2.73675E-07-1.77775E-07 7.30810E-07 8.08664E-13 1.40608E-14-1.75337E-08
 -1      6197-2.54546E-07-1.77777E-07 7.11684E-07-8.80638E-13 1.52271E-14 1.68658E-08
 -1      6198-2.54546E-07-1.77777E-07 7.11684E-07-8.80638E-13-2.05103E-23 9.95658E-22
 -1      6199-2.54546E-07-1.77777E-07 7.11684E-07-8.80638E-13-1.52271E-14-1.68658E-08
 -1      6200-5.67760E-07-1.77776E-07 1.02490E-06 8.86780E-15-1.56488E-16 2.78006E-08
 -1      6201-5.67760E-07-1.77776E-07 1.02490E-06 8.86780E-15-3.06057E-24 3.16102E-21
 -1      6202-5.67760E-07-1.77776E-07 1.02490E-06 8.86779E-15 1.56488E-16-2.78006E-08
 -1      6203-2.58777E-07-1.77776E-07 7.15915E-07 6.32571E-14-1.11862E-15 1.70136E-08
 -1      6204-2.58777E-07-1.77776E-07 7.15915E-07 6.32571E-14 1.63474E-22-3.57768E-21
 -1      6205-2.58777E-07-1.77776E-07 7.15915E-07 6.32571E-14 1.11862E-15-1.70136E-08
 -1      6206-6.13763E-07-1.77776E-07 1.07090E-06 3.24625E-15-5.83449E-17 2.94066E-08
 -1      6207-6.13763E-07-1.77776E-07 1.07090E-06 3.24624E-15 1.64777E-23-2.87724E-21
 -1      6208-6.13763E-07-1.77776E-07 1.07090E-06 3.24624E-15 5.83449E-17-2.94066E-08
 -1      6209-2.59886E-07-1.77776E-07 7.17025E-07 8.32374E-14-1.46841E-15 1.70523E-08
 -1      6210-2.59886E-07-1.77776E-07 7.17025E-07 8.32374E-14 3.72292E-23-1.69047E-21
 -1      6211-2.59886E-07-1.77776E-07 7.17025E-07 8.32374E-14 1.46841E-15-1.70523E-08
 -1      6212-2.59552E-07-1.77776E-07 7.16690E-07 2.25842E-13-3.87864E-15 1.70406E-08
 -1      6213-2.59552E-07-1.77776E-07 7.16690E-07 2.25842E-13 7.20264E-23-1.51313E-21
 -1      6214-2.59552E-07-1.77776E-07 7.16690E-07 2.25842E-13 3.87864E-15-1.70406E-08
 -1      6215-3.35567E-06-1.77779E-07 3.81281E-06-3.66298E-13 6.27324E-15 1.25140E-07
 -1      6216-3.35567E-06-1.77779E-07 3.81281E-06-3.66298E-13-4.46069E-22-2.21902E-21
 -1      6217-3.35567E-06-1.77779E-07 3.81281E-06-3.66298E-13-6.27324E-15-1.25140E-07
 -1      6218-2.99515E-07-1.77776E-07 7.56654E-07-6.51440E-13 1.13424E-14 1.84358E-08
 -1      6219-2.99515E-07-1.77776E-07 7.56654E-07-6.51440E-13 3.34377E-23 1.82902E-21
 -1      6220-2.99515E-07-1.77776E-07 7.56654E-07-6.51440E-13-1.13424E-14-1.84358E-08
 -1      6221-3.35902E-06-1.77858E-07 3.81633E-06-3.21136E-11 5.60514E-13 1.25260E-07
 -1      6222-3.35902E-06-1.77858E-07 3.81633E-06-3.21136E-11 2.76939E-22-1.85050E-20
 -1      6223-3.35902E-06-1.77858E-07 3.81633E-06-3.21136E-11-5.60514E-13-1.25260E-07
 -1      6224-2.59162E-07-1.77776E-07 7.16301E-07 5.88341E-14-1.05476E-15 1.70270E-08
 -1      6225-2.59162E-07-1.77776E-07 7.16301E-07 5.88341E-14-2.06609E-22-1.51998E-21
 -1      6226-2.59162E-07-1.77776E-07 7.16301E-07 5.88341E-14 1.05476E-15-1.70270E-08
 -1      6227-2.59598E-07-1.77776E-07 7.16737E-07 2.34971E-14-4.53844E-16 1.70422E-08
 -1      6228-2.59598E-07-1.77776E-07 7.16737E-07 2.34970E-14-3.39796E-23 1.16141E-21
 -1      6229-2.59598E-07-1.77776E-07 7.16737E-07 2.34970E-14 4.53844E-16-1.70422E-08
 -1      6230-3.35369E-06-1.77778E-07 3.81082E-06-4.21228E-13 7.44832E-15 1.25071E-07
 -1      6231-3.35369E-06-1.77778E-07 3.81082E-06-4.21228E-13-1.64518E-22-1.69338E-20
 -1      6232-3.35369E-06-1.77778E-07 3.81082E-06-4.21228E-13-7.44832E-15-1.25071E-07
 -1      6233-1.29103E-06-1.77776E-07 1.74817E-06 1.33458E-13-2.32493E-15 5.30518E-08
 -1      6234-1.29103E-06-1.77776E-07 1.74817E-06 1.33458E-13 3.95073E-23-2.16416E-21
 -1      6235-1.29103E-06-1.77776E-07 1.74817E-06 1.33458E-13 2.32493E-15-5.30518E-08
 -1      6236-2.58787E-07-1.77775E-07 7.15923E-07 9.87843E-14-1.57368E-15 1.70139E-08
 -1      6237-2.58787E-07-1.77775E-07 7.15923E-07 9.87843E-14-3.41320E-23-1.20009E-21
 -1      6238-2.58787E-07-1.77775E-07 7.15923E-07 9.87843E-14 1.57367E-15-1.70139E-08
 -1      6239-2.58640E-07-1.77776E-07 7.15778E-07 1.22431E-14-2.05816E-16 1.70088E-08
 -1      6240-2.58640E-07-1.77776E-07 7.15778E-07 1.22431E-14 2.39663E-22-3.36260E-21
 -1      6241-2.58640E-07-1.77776E-07 7.15778E-07 1.22431E-14 2.05816E-16-1.70088E-08
 -1      6242-3.35128E-06-1.77768E-07 3.80843E-06-2.22415E-11 3.88047E-13 1.24987E-07
 -1      6243-3.35128E-06-1.77768E-07 3.80843E-06-2.22415E-11-1.70956E-22 1.78765E-20
 -1      6244-3.35128E-06-1.77768E-07 3.80843E-06-2.22415E-11-3.88047E-13-1.24987E-07
 -1      6245-2.56633E-07-1.77775E-07 7.13769E-07-2.10764E-13 3.43139E-15 1.69387E-08
 -1      6246-2.56633E-07-1.77775E-07 7.13769E-07-2.10764E-13 1.24054E-22-4.04367E-21
 -1      6247-2.56633E-07-1.77775E-07 7.13769E-07-2.10764E-13-3.43139E-15-1.69387E-08
 -1      6248-2.58360E-07-1.77776E-07 7.15498E-07-1.07342E-13 1.77408E-15 1.69990E-08
 -1      6249-2.58360E-07-1.77776E-07 7.15498E-07-1.07342E-13-1.88901E-22 7.76650E-22
 -1      6250-2.58360E-07-1.77776E-07 7.15498E-07-1.07342E-13-1.77408E-15-1.69990E-08
 -1      6251-3.27872E-06-1.77755E-07 3.73576E-06 6.62122E-11-1.15204E-12 1.22453E-07
 -1      6252-3.27872E-06-1.77755E-07 3.73576E-06 6.62122E-11 6.12749E-22-1.87819E-20
 -1      6253-3.27872E-06-1.77755E-07 3.73576E-06 6.62122E-11 1.15204E-12-1.22453E-07
 -1      6254-2.97468E-06-1.77811E-07 3.43176E-06 9.13869E-11-1.59922E-12 1.11836E-07
 -1      6255-2.97468E-06-1.77811E-07 3.43176E-06 9.13869E-11 3.53413E-23-1.84027E-20
 -1      6256-2.97468E-06-1.77811E-07 3.43176E-06 9.13869E-11 1.59922E-12-1.11836E-07
 -1      6257-2.63713E-06-1.77778E-07 3.09426E-06 1.61944E-11-2.83163E-13 1.00051E-07
 -1      6258-2.63713E-06-1.77778E-07 3.09426E-06 1.61944E-11 1.14236E-21-1.14282E-21
 -1      6259-2.63713E-06-1.77778E-07 3.09426E-06 1.61944E-11 2.83163E-13-1.00051E-07
 -1      6260-2.35274E-06-1.77777E-07 2.80988E-06 4.29028E-12-7.49003E-14 9.01212E-08
 -1      6261-2.35274E-06-1.77777E-07 2.80988E-06 4.29028E-12 2.25664E-23 9.56594E-21
 -1      6262-2.35274E-06-1.77777E-07 2.80988E-06 4.29028E-12 7.49003E-14-9.01212E-08
 -1      6263-2.10993E-06-1.77777E-07 2.56707E-06 3.32687E-13-5.72630E-15 8.16432E-08
 -1      6264-2.10993E-06-1.77777E-07 2.56707E-06 3.32687E-13-6.29186E-22 8.30638E-21
 -1      6265-2.10993E-06-1.77777E-07 2.56707E-06 3.32687E-13 5.72629E-15-8.16432E-08
 -1      6266-1.90116E-06-1.77777E-07 2.35830E-06-7.90905E-13 1.38877E-14 7.43539E-08
 -1      6267-1.90116E-06-1.77777E-07 2.35830E-06-7.90905E-13 8.06545E-22-4.30627E-21
 -1      6268-1.90116E-06-1.77777E-07 2.35830E-06-7.90905E-13-1.38877E-14-7.43539E-08
 -1      6269-1.72017E-06-1.77776E-07 2.17731E-06-9.27087E-13 1.62444E-14 6.80346E-08
 -1      6270-1.72017E-06-1.77776E-07 2.17731E-06-9.27087E-13 4.65173E-22-3.11282E-21
 -1      6271-1.72017E-06-1.77776E-07 2.17731E-06-9.27087E-13-1.62444E-14-6.80346E-08
 -1      6272-1.56196E-06-1.77776E-07 2.01910E-06-6.91408E-13 1.21120E-14 6.25109E-08
 -1      6273-1.56196E-06-1.77776E-07 2.01910E-06-6.91408E-13-4.12410E-22 9.59771E-21
 -1      6274-1.56196E-06-1.77776E-07 2.01910E-06-6.91408E-13-1.21120E-14-6.25109E-08
 -1      6275-1.42259E-06-1.77776E-07 1.87972E-06-3.38418E-13 5.93768E-15 5.76448E-08
 -1      6276-1.42259E-06-1.77776E-07 1.87972E-06-3.38418E-13 1.51570E-22-3.90687E-21
 -1      6277-1.42259E-06-1.77776E-07 1.87972E-06-3.38418E-13-5.93768E-15-5.76448E-08
 -1      6278-1.29896E-06-1.77776E-07 1.75610E-06-1.39046E-13 2.44836E-15 5.33285E-08
 -1      6279-1.29896E-06-1.77776E-07 1.75610E-06-1.39046E-13 6.61712E-22-4.59704E-21
 -1      6280-1.29896E-06-1.77776E-07 1.75610E-06-1.39046E-13-2.44836E-15-5.33285E-08
 -1      6281-1.18867E-06-1.77776E-07 1.64581E-06-1.20015E-13 2.11155E-15 4.94781E-08
 -1      6282-1.18867E-06-1.77776E-07 1.64581E-06-1.20015E-13 4.21112E-22 2.47287E-21
 -1      6283-1.18867E-06-1.77776E-07 1.64581E-06-1.20015E-13-2.11155E-15-4.94781E-08
 -1      6284-1.08987E-06-1.77776E-07 1.54701E-06-1.29320E-13 2.27159E-15 4.60286E-08
 -1      6285-1.08987E-06-1.77776E-07 1.54701E-06-1.29320E-13 7.15919E-23-2.22279E-21
 -1      6286-1.08987E-06-1.77776E-07 1.54701E-06-1.29320E-13-2.27159E-15-4.60286E-08
 -1      6287-1.00102E-06-1.77776E-07 1.45816E-06-9.91635E-14 1.74342E-15 4.29268E-08
 -1      6288-1.00102E-06-1.77776E-07 1.45816E-06-9.91635E-14-8.58385E-23 3.92577E-21
 -1      6289-1.00102E-06-1.77776E-07 1.45816E-06-9.91635E-14-1.74342E-15-4.29268E-08
 -1      6290-9.20843E-07-1.77776E-07 1.37798E-06-4.85664E-14 8.58589E-16 4.01275E-08
 -1      6291-9.20843E-07-1.77776E-07 1.37798E-06-4.85664E-14-3.09198E-23-1.39752E-21
 -1      6292-9.20843E-07-1.77776E-07 1.37798E-06-4.85664E-14-8.58589E-16-4.01275E-08
 -1      6293-8.48220E-07-1.77776E-07 1.30536E-06-2.26728E-14 4.05122E-16 3.75920E-08
 -1      6294-8.48220E-07-1.77776E-07 1.30536E-06-2.26728E-14-1.77824E-22 4.10215E-22
 -1      6295-8.48220E-07-1.77776E-07 1.30536E-06-2.26728E-14-4.05122E-16-3.75920E-08
 -1      6296-7.82228E-07-1.77776E-07 1.23937E-06-2.84007E-14 5.04079E-16 3.52881E-08
 -1      6297-7.82228E-07-1.77776E-07 1.23937E-06-2.84007E-14 3.45215E-22-3.16560E-21
 -1      6298-7.82228E-07-1.77776E-07 1.23937E-06-2.84007E-14-5.04079E-16-3.52881E-08
 -1      6299-7.22098E-07-1.77776E-07 1.17924E-06-3.87829E-14 6.84902E-16 3.31888E-08
 -1      6300-7.22098E-07-1.77776E-07 1.17924E-06-3.87829E-14 3.40420E-22-1.35278E-21
 -1      6301-7.22098E-07-1.77776E-07 1.17924E-06-3.87829E-14-6.84901E-16-3.31888E-08
 -1      6302-6.67182E-07-1.77776E-07 1.12432E-06-3.49580E-14 6.18231E-16 3.12716E-08
 -1      6303-6.67182E-07-1.77776E-07 1.12432E-06-3.49580E-14 1.70189E-22-4.51967E-21
 -1      6304-6.67182E-07-1.77776E-07 1.12432E-06-3.49580E-14-6.18231E-16-3.12716E-08
 -1      6305-6.16916E-07-1.77776E-07 1.07405E-06-1.34855E-14 2.43824E-16 2.95167E-08
 -1      6306-6.16916E-07-1.77776E-07 1.07405E-06-1.34855E-14 1.02467E-22 5.11211E-21
 -1      6307-6.16916E-07-1.77776E-07 1.07405E-06-1.34855E-14-2.43824E-16-2.95167E-08
 -1      6308-5.70796E-07-1.77776E-07 1.02793E-06 1.56549E-14-2.64343E-16 2.79066E-08
 -1      6309-5.70796E-07-1.77776E-07 1.02793E-06 1.56549E-14 9.95507E-23-3.90651E-21
 -1      6310-5.70796E-07-1.77776E-07 1.02793E-06 1.56549E-14 2.64343E-16-2.79066E-08
 -1      6311-5.28397E-07-1.77776E-07 9.85535E-07 2.19309E-14-3.74050E-16 2.64264E-08
 -1      6312-5.28397E-07-1.77776E-07 9.85535E-07 2.19308E-14-4.65871E-23-3.26356E-21
 -1      6313-5.28397E-07-1.77776E-07 9.85535E-07 2.19308E-14 3.74050E-16-2.64264E-08
 -1      6314-4.89384E-07-1.77776E-07 9.46522E-07-2.50113E-15 5.32497E-17 2.50643E-08
 -1      6315-4.89384E-07-1.77776E-07 9.46522E-07-2.50113E-15-3.75950E-23 4.06590E-21
 -1      6316-4.89384E-07-1.77776E-07 9.46522E-07-2.50112E-15-5.32498E-17-2.50643E-08
 -1      6317-4.53494E-07-1.77776E-07 9.10633E-07 1.40413E-14-2.29679E-16 2.38114E-08
 -1      6318-4.53494E-07-1.77776E-07 9.10633E-07 1.40413E-14-1.75987E-23 1.96182E-21
 -1      6319-4.53494E-07-1.77776E-07 9.10633E-07 1.40413E-14 2.29679E-16-2.38114E-08
 -1      6320-4.20485E-07-1.77776E-07 8.77623E-07 5.21109E-14-8.86115E-16 2.26590E-08
 -1      6321-4.20485E-07-1.77776E-07 8.77623E-07 5.21109E-14-7.41045E-23-1.50345E-22
 -1      6322-4.20485E-07-1.77776E-07 8.77623E-07 5.21109E-14 8.86115E-16-2.26590E-08
 -1      6323-3.90129E-07-1.77776E-07 8.47267E-07-3.11570E-14 5.79348E-16 2.15992E-08
 -1      6324-3.90129E-07-1.77776E-07 8.47267E-07-3.11570E-14-2.27372E-23-3.65279E-22
 -1      6325-3.90129E-07-1.77776E-07 8.47267E-07-3.11570E-14-5.79348E-16-2.15992E-08
 -1      6326-3.62232E-07-1.77776E-07 8.19371E-07 1.95266E-13-3.33190E-15 2.06253E-08
 -1      6327-3.62232E-07-1.77776E-07 8.19371E-07 1.95266E-13-4.27255E-22-1.50889E-21
 -1      6328-3.62232E-07-1.77776E-07 8.19371E-07 1.95266E-13 3.33190E-15-2.06253E-08
 -1      6329-3.36409E-07-1.77776E-07 7.93547E-07-6.32970E-14 1.17784E-15 1.97237E-08
 -1      6330-3.36409E-07-1.77776E-07 7.93547E-07-6.32970E-14-1.93027E-22 7.97049E-23
 -1      6331-3.36409E-07-1.77776E-07 7.93547E-07-6.32970E-14-1.17784E-15-1.97237E-08
 -1      6332-3.12596E-07-1.77776E-07 7.69734E-07-6.23737E-13 1.09536E-14 1.88924E-08
 -1      6333-3.12596E-07-1.77776E-07 7.69734E-07-6.23737E-13-1.98930E-22-2.08271E-22
 -1      6334-3.12596E-07-1.77776E-07 7.69734E-07-6.23737E-13-1.09536E-14-1.88924E-08
 -1      6335-2.90708E-07-1.77776E-07 7.47846E-07 2.02050E-13-3.48822E-15 1.81283E-08
 -1      6336-2.90708E-07-1.77776E-07 7.47846E-07 2.02050E-13 2.43072E-22-1.62421E-21
 -1      6337-2.90708E-07-1.77776E-07 7.47846E-07 2.02050E-13 3.48822E-15-1.81283E-08
 -1      6338-3.26042E-07-1.77776E-07 7.83180E-07-2.61090E-13 4.58299E-15 1.93619E-08
 -1      6339-3.26042E-07-1.77776E-07 7.83180E-07-2.61090E-13 6.76751E-23-5.87945E-24
 -1      6340-3.26042E-07-1.77776E-07 7.83180E-07-2.61090E-13-4.58299E-15-1.93619E-08
 -1      6341-3.35114E-06-1.77776E-07 3.80828E-06-6.16155E-12 1.07385E-13 1.24982E-07
 -1      6342-3.35114E-06-1.77776E-07 3.80828E-06-6.16155E-12-2.84436E-23 3.84311E-21
 -1      6343-3.35114E-06-1.77776E-07 3.80828E-06-6.16155E-12-1.07385E-13-1.24982E-07
 -1      6344-2.59165E-07-1.77776E-07 7.16304E-07 6.95307E-15-8.46351E-17 1.70271E-08
 -1      6345-2.59165E-07-1.77776E-07 7.16304E-07 6.95307E-15-1.81562E-22-1.56508E-22
 -1      6346-2.59165E-07-1.77776E-07 7.16304E-07 6.95307E-15 8.46348E-17-1.70271E-08
 -1      6347-2.58187E-07-1.77777E-07 7.15329E-07-1.37581E-12 2.40455E-14 1.69930E-08
 -1      6348-2.58187E-07-1.77777E-07 7.15329E-07-1.37581E-12 7.33952E-23-6.95349E-23
 -1      6349-2.58187E-07-1.77777E-07 7.15329E-07-1.37581E-12-2.40455E-14-1.69930E-08
 -1      6350-3.29671E-06-1.77878E-07 3.75392E-06-2.22157E-11 3.83416E-13 1.23084E-07
 -1      6351-3.29671E-06-1.77878E-07 3.75392E-06-2.22157E-11-1.90704E-22 6.28279E-21
 -1      6352-3.29671E-06-1.77878E-07 3.75392E-06-2.22157E-11-3.83416E-13-1.23084E-07
 -1      6353-3.35325E-06-1.77780E-07 3.81039E-06-2.82879E-14 5.33154E-16 1.25056E-07
 -1      6354-3.35325E-06-1.77780E-07 3.81039E-06-2.82879E-14 3.32039E-22-1.34022E-20
 -1      6355-3.35325E-06-1.77780E-07 3.81039E-06-2.82879E-14-5.33154E-16-1.25056E-07
 -1      6356-9.95114E-07-1.77776E-07 1.45225E-06 9.14945E-14-1.59623E-15 4.27204E-08
 -1      6357-9.95114E-07-1.77776E-07 1.45225E-06 9.14945E-14 7.15481E-24-1.14381E-23
 -1      6358-9.95114E-07-1.77776E-07 1.45225E-06 9.14945E-14 1.59623E-15-4.27204E-08
 -1      6359-3.53752E-07-1.77776E-07 8.10890E-07 1.36257E-13-2.32198E-15 2.03293E-08
 -1      6360-3.53752E-07-1.77776E-07 8.10890E-07 1.36257E-13-4.01819E-23-1.14665E-21
 -1      6361-3.53752E-07-1.77776E-07 8.10890E-07 1.36257E-13 2.32198E-15-2.03293E-08
 -1      6362-3.35317E-06-1.77777E-07 3.81031E-06-2.40245E-13 4.24532E-15 1.25053E-07
 -1      6363-3.35317E-06-1.77777E-07 3.81031E-06-2.40245E-13-3.30555E-23 2.71804E-20
 -1      6364-3.35317E-06-1.77777E-07 3.81031E-06-2.40245E-13-4.24532E-15-1.25053E-07
 -1      6365-2.07770E-06-1.77777E-07 2.53485E-06 1.09901E-11-1.92613E-13 8.05175E-08
 -1      6366-2.07770E-06-1.77777E-07 2.53485E-06 1.09901E-11 6.97835E-23-3.30991E-21
 -1      6367-2.07770E-06-1.77777E-07 2.53485E-06 1.09901E-11 1.92613E-13-8.05175E-08
 -1      6368-3.34284E-06-1.77779E-07 3.79997E-06 3.57458E-12-6.18909E-14 1.24692E-07
 -1      6369-3.34284E-06-1.77779E-07 3.79997E-06 3.57458E-12 4.47960E-22 2.10374E-21
 -1      6370-3.34284E-06-1.77779E-07 3.79997E-06 3.57458E-12 6.18909E-14-1.24692E-07
 -1      6371-5.25339E-07-1.77776E-07 9.82477E-07 1.74973E-14-3.05694E-16 2.63196E-08
 -1      6372-5.25339E-07-1.77776E-07 9.82477E-07 1.74973E-14-2.33573E-23 1.44525E-22
 -1      6373-5.25339E-07-1.77776E-07 9.82477E-07 1.74973E-14 3.05694E-16-2.63196E-08
 -1      6374-1.08331E-06-1.77776E-07 1.54045E-06 1.78399E-13-3.11588E-15 4.57996E-08
 -1      6375-1.08331E-06-1.77776E-07 1.54045E-06 1.78399E-13 4.03935E-24-2.79767E-22
 -1      6376-1.08331E-06-1.77776E-07 1.54045E-06 1.78399E-13 3.11588E-15-4.57996E-08
 -1      6377-3.41351E-06-1.77687E-07 3.87050E-06 1.69907E-11-2.97142E-13 1.27154E-07
 -1      6378-3.41351E-06-1.77687E-07 3.87050E-06 1.69907E-11-3.24262E-22 2.96595E-21
 -1      6379-3.41351E-06-1.77687E-07 3.87050E-06 1.69907E-11 2.97142E-13-1.27154E-07
 -1      6380-1.70615E-06-1.77776E-07 2.16329E-06-5.30933E-13 9.24348E-15 6.75451E-08
 -1      6381-1.70615E-06-1.77776E-07 2.16329E-06-5.30933E-13-3.20014E-22 1.63581E-21
 -1      6382-1.70615E-06-1.77776E-07 2.16329E-06-5.30933E-13-9.24348E-15-6.75451E-08
 -1      6383-9.15545E-07-1.77776E-07 1.37268E-06 4.28314E-15-7.39476E-17 3.99425E-08
 -1      6384-9.15545E-07-1.77776E-07 1.37268E-06 4.28314E-15-7.60146E-23-2.43636E-21
 -1      6385-9.15545E-07-1.77776E-07 1.37268E-06 4.28313E-15 7.39474E-17-3.99425E-08
 -1      6386-7.18333E-07-1.77776E-07 1.17547E-06-1.21013E-14 2.10620E-16 3.30574E-08
 -1      6387-7.18333E-07-1.77776E-07 1.17547E-06-1.21013E-14-7.98685E-23 3.44423E-21
 -1      6388-7.18333E-07-1.77776E-07 1.17547E-06-1.21013E-14-2.10621E-16-3.30574E-08
 -1      6389-1.18144E-06-1.77776E-07 1.63857E-06 2.14736E-13-3.74870E-15 4.92255E-08
 -1      6390-1.18144E-06-1.77776E-07 1.63857E-06 2.14736E-13-3.19629E-22-5.41041E-22
 -1      6391-1.18144E-06-1.77776E-07 1.63857E-06 2.14736E-13 3.74870E-15-4.92255E-08
 -1      6392-2.59122E-07-1.77776E-07 7.16260E-07-1.50277E-13 2.65963E-15 1.70256E-08
 -1      6393-2.59122E-07-1.77776E-07 7.16260E-07-1.50277E-13 9.60218E-23-4.56218E-22
 -1      6394-2.59122E-07-1.77776E-07 7.16260E-07-1.50277E-13-2.65963E-15-1.70256E-08
 -1      6395-1.41388E-06-1.77776E-07 1.87102E-06-1.63545E-13 2.86972E-15 5.73408E-08
 -1      6396-1.41388E-06-1.77776E-07 1.87102E-06-1.63545E-13-4.85340E-23 3.40262E-21
 -1      6397-1.41388E-06-1.77776E-07 1.87102E-06-1.63545E-13-2.86972E-15-5.73408E-08
 -1      6398-2.70301E-07-1.77776E-07 7.27438E-07-1.23270E-12 2.14223E-14 1.74158E-08
 -1      6399-2.70301E-07-1.77776E-07 7.27438E-07-1.23270E-12-5.39686E-23 1.30127E-21
 -1      6400-2.70301E-07-1.77776E-07 7.27438E-07-1.23270E-12-2.14223E-14-1.74158E-08
 -1      6401-2.30837E-06-1.77781E-07 2.76552E-06-2.84620E-14-5.49059E-16 8.85718E-08
 -1      6402-2.30837E-06-1.77781E-07 2.76552E-06-2.84620E-14-1.06150E-22-1.02490E-20
 -1      6403-2.30837E-06-1.77781E-07 2.76552E-06-2.84620E-14 5.49059E-16-8.85718E-08
 -1      6404-2.53659E-07-1.77777E-07 7.10798E-07-2.39239E-13 4.34857E-15 1.68348E-08
 -1      6405-2.53659E-07-1.77777E-07 7.10798E-07-2.39239E-13-6.39347E-23-1.00413E-22
 -1      6406-2.53659E-07-1.77777E-07 7.10798E-07-2.39239E-13-4.34857E-15-1.68348E-08
 -1      6407-4.49505E-07-1.77776E-07 9.06644E-07 5.48247E-14-9.44841E-16 2.36721E-08
 -1      6408-4.49505E-07-1.77776E-07 9.06644E-07 5.48247E-14-3.65752E-24 6.22823E-22
 -1      6409-4.49505E-07-1.77776E-07 9.06644E-07 5.48247E-14 9.44841E-16-2.36721E-08
 -1      6410-2.91122E-06-1.77788E-07 3.36829E-06 1.36725E-11-2.41674E-13 1.09621E-07
 -1      6411-2.91122E-06-1.77788E-07 3.36829E-06 1.36725E-11 3.06733E-22 9.23837E-21
 -1      6412-2.91122E-06-1.77788E-07 3.36829E-06 1.36725E-11 2.41674E-13-1.09621E-07
 -1      6413-4.86090E-07-1.77776E-07 9.43229E-07 6.10272E-15-1.04382E-16 2.49494E-08
 -1      6414-4.86090E-07-1.77776E-07 9.43229E-07 6.10272E-15-3.82789E-23-2.39866E-21
 -1      6415-4.86090E-07-1.77776E-07 9.43229E-07 6.10273E-15 1.04382E-16-2.49494E-08
 -1      6416-7.78007E-07-1.77776E-07 1.23515E-06-2.30923E-14 4.04018E-16 3.51407E-08
 -1      6417-7.78007E-07-1.77776E-07 1.23515E-06-2.30923E-14 8.55728E-24-2.18184E-21
 -1      6418-7.78007E-07-1.77776E-07 1.23515E-06-2.30923E-14-4.04018E-16-3.51407E-08
 -1      6419-2.78428E-07-1.77776E-07 7.35566E-07-3.37151E-14 6.23403E-16 1.76996E-08
 -1      6420-2.78428E-07-1.77776E-07 7.35566E-07-3.37151E-14-1.85367E-22 3.26015E-21
 -1      6421-2.78428E-07-1.77776E-07 7.35566E-07-3.37151E-14-6.23403E-16-1.76996E-08
 -1      6422-1.55161E-06-1.77776E-07 2.00875E-06-5.16088E-13 9.03221E-15 6.21495E-08
 -1      6423-1.55161E-06-1.77776E-07 2.00875E-06-5.16088E-13 5.85538E-24-8.27364E-21
 -1      6424-1.55161E-06-1.77776E-07 2.00875E-06-5.16088E-13-9.03221E-15-6.21495E-08
 -1      6425-3.01112E-06-1.77781E-07 3.46826E-06-2.30282E-12 4.00696E-14 1.13109E-07
 -1      6426-3.01112E-06-1.77781E-07 3.46826E-06-2.30282E-12-1.08825E-22 6.36960E-21
 -1      6427-3.01112E-06-1.77781E-07 3.46826E-06-2.30282E-12-4.00696E-14-1.13109E-07
 -1      6428-2.78268E-06-1.77781E-07 3.23990E-06 4.12964E-11-7.22410E-13 1.05136E-07
 -1      6429-2.78268E-06-1.77781E-07 3.23990E-06 4.12964E-11-3.06569E-23 5.73803E-21
 -1      6430-2.78268E-06-1.77781E-07 3.23990E-06 4.12964E-11 7.22410E-13-1.05136E-07
 -1      6431-2.78182E-07-1.77776E-07 7.35321E-07 6.01661E-14-1.07511E-15 1.76910E-08
 -1      6432-2.78182E-07-1.77776E-07 7.35321E-07 6.01661E-14 3.72702E-23-4.79508E-22
 -1      6433-2.78182E-07-1.77776E-07 7.35321E-07 6.01661E-14 1.07511E-15-1.76910E-08
 -1      6434-3.01511E-06-1.77777E-07 3.47224E-06-1.87038E-12 3.24432E-14 1.13248E-07
 -1      6435-3.01511E-06-1.77777E-07 3.47224E-06-1.87038E-12-4.34371E-23-2.46407E-21
 -1      6436-3.01511E-06-1.77777E-07 3.47224E-06-1.87038E-12-3.24432E-14-1.13248E-07
 -1      6437-3.67050E-07-1.77776E-07 8.24188E-07 4.33463E-13-7.46577E-15 2.07935E-08
 -1      6438-3.67050E-07-1.77776E-07 8.24188E-07 4.33463E-13 2.60055E-23-4.20195E-21
 -1      6439-3.67050E-07-1.77776E-07 8.24188E-07 4.33463E-13 7.46577E-15-2.07935E-08
 -1      6440-3.02332E-06-1.77825E-07 3.48048E-06 3.14006E-11-5.48055E-13 1.13538E-07
 -1      6441-3.02332E-06-1.77825E-07 3.48048E-06 3.14006E-11 1.15909E-23-1.03783E-20
 -1      6442-3.02332E-06-1.77825E-07 3.48048E-06 3.14006E-11 5.48055E-13-1.13538E-07
 -1      6443-2.76056E-07-1.77774E-07 7.33190E-07-3.24746E-13 5.49056E-15 1.76167E-08
 -1      6444-2.76056E-07-1.77774E-07 7.33190E-07-3.24746E-13-5.96529E-23-6.26926E-22
 -1      6445-2.76056E-07-1.77774E-07 7.33190E-07-3.24746E-13-5.49056E-15-1.76167E-08
 -1      6446-1.87998E-06-1.77775E-07 2.33712E-06 2.53179E-12-4.44201E-14 7.36140E-08
 -1      6447-1.87998E-06-1.77775E-07 2.33712E-06 2.53179E-12 6.00020E-23-8.86200E-21
 -1      6448-1.87998E-06-1.77775E-07 2.33712E-06 2.53179E-12 4.44201E-14-7.36140E-08
 -1      6449-2.79896E-07-1.77777E-07 7.37035E-07 2.57424E-14-5.36603E-16 1.77509E-08
 -1      6450-2.79896E-07-1.77777E-07 7.37035E-07 2.57424E-14-6.04582E-23 1.47905E-21
 -1      6451-2.79896E-07-1.77777E-07 7.37035E-07 2.57424E-14 5.36603E-16-1.77509E-08
 -1      6452-3.21220E-06-1.77890E-07 3.66963E-06-2.18890E-11 3.79595E-13 1.20141E-07
 -1      6453-3.21220E-06-1.77890E-07 3.66963E-06-2.18890E-11-2.18748E-22 8.14727E-21
 -1      6454-3.21220E-06-1.77890E-07 3.66963E-06-2.18890E-11-3.79595E-13-1.20141E-07
 -1      6455-2.80126E-07-1.77776E-07 7.37265E-07 8.96768E-13-1.56434E-14 1.77589E-08
 -1      6456-2.80126E-07-1.77776E-07 7.37265E-07 8.96768E-13 1.69169E-22-3.04180E-21
 -1      6457-2.80126E-07-1.77776E-07 7.37265E-07 8.96768E-13 1.56434E-14-1.77589E-08
 -1      6458-2.58189E-06-1.77774E-07 3.03902E-06-1.95470E-11 3.39966E-13 9.81221E-08
 -1      6459-2.58189E-06-1.77774E-07 3.03902E-06-1.95470E-11-1.07553E-22-1.20747E-20
 -1      6460-2.58189E-06-1.77774E-07 3.03902E-06-1.95470E-11-3.39966E-13-9.81221E-08
 -1      6461-2.77697E-07-1.77776E-07 7.34835E-07 1.70434E-14-2.86270E-16 1.76741E-08
 -1      6462-2.77697E-07-1.77776E-07 7.34835E-07 1.70434E-14 7.08313E-24 1.93757E-21
 -1      6463-2.77697E-07-1.77776E-07 7.34835E-07 1.70434E-14 2.86270E-16-1.76741E-08
 -1      6464-1.79067E-06-1.77777E-07 2.24781E-06-1.89941E-12 3.32971E-14 7.04958E-08
 -1      6465-1.79067E-06-1.77777E-07 2.24781E-06-1.89941E-12-4.24398E-23 6.51024E-21
 -1      6466-1.79067E-06-1.77777E-07 2.24781E-06-1.89941E-12-3.32971E-14-7.04958E-08
 -1      6467-8.09964E-07-1.77776E-07 1.26710E-06-1.50176E-14 2.65405E-16 3.62564E-08
 -1      6468-8.09964E-07-1.77776E-07 1.26710E-06-1.50176E-14 2.16997E-23-6.19041E-21
 -1      6469-8.09964E-07-1.77776E-07 1.26710E-06-1.50176E-14-2.65405E-16-3.62564E-08
 -1      6470-2.86016E-07-1.77778E-07 7.43158E-07-1.86619E-12 3.22276E-14 1.79646E-08
 -1      6471-2.86016E-07-1.77778E-07 7.43158E-07-1.86619E-12-9.70201E-23 6.90545E-22
 -1      6472-2.86016E-07-1.77778E-07 7.43158E-07-1.86619E-12-3.22276E-14-1.79646E-08
 -1      6473-2.78795E-07-1.77776E-07 7.35935E-07-2.15425E-13 3.99663E-15 1.77125E-08
 -1      6474-2.78795E-07-1.77776E-07 7.35935E-07-2.15425E-13 9.48018E-24 9.55835E-23
 -1      6475-2.78795E-07-1.77776E-07 7.35935E-07-2.15425E-13-3.99663E-15-1.77125E-08
 -1      6476-2.78939E-07-1.77776E-07 7.36078E-07 1.45944E-13-2.60803E-15 1.77175E-08
 -1      6477-2.78939E-07-1.77776E-07 7.36078E-07 1.45944E-13 1.26732E-22 1.66886E-21
 -1      6478-2.78939E-07-1.77776E-07 7.36078E-07 1.45944E-13 2.60803E-15-1.77175E-08
 -1      6479-3.01605E-06-1.77776E-07 3.47318E-06-1.33504E-12 2.31381E-14 1.13281E-07
 -1      6480-3.01605E-06-1.77776E-07 3.47318E-06-1.33504E-12-9.95071E-22 6.79803E-21
 -1      6481-3.01605E-06-1.77776E-07 3.47318E-06-1.33504E-12-2.31381E-14-1.13281E-07
 -1      6482-5.46229E-07-1.77776E-07 1.00337E-06 2.46537E-14-4.35468E-16 2.70489E-08
 -1      6483-5.46229E-07-1.77776E-07 1.00337E-06 2.46537E-14-8.15284E-23 2.23307E-22
 -1      6484-5.46229E-07-1.77776E-07 1.00337E-06 2.46537E-14 4.35468E-16-2.70489E-08
 -1      6485-2.77925E-07-1.77776E-07 7.35063E-07-9.14339E-16 3.73422E-17 1.76820E-08
 -1      6486-2.77925E-07-1.77776E-07 7.35063E-07-9.14337E-16-1.04213E-22-1.85177E-21
 -1      6487-2.77925E-07-1.77776E-07 7.35063E-07-9.14335E-16-3.73424E-17-1.76820E-08
 -1      6488-3.00965E-06-1.77749E-07 3.46667E-06 8.78207E-12-1.53527E-13 1.13056E-07
 -1      6489-3.00965E-06-1.77749E-07 3.46667E-06 8.78207E-12-2.18217E-22 1.52031E-21
 -1      6490-3.00965E-06-1.77749E-07 3.46667E-06 8.78207E-12 1.53527E-13-1.13056E-07
 -1      6491-2.76863E-07-1.77775E-07 7.34004E-07 2.22953E-12-3.93570E-14 1.76450E-08
 -1      6492-2.76863E-07-1.77775E-07 7.34004E-07 2.22953E-12-5.65480E-22 2.69923E-21
 -1      6493-2.76863E-07-1.77775E-07 7.34004E-07 2.22953E-12 3.93570E-14-1.76450E-08
 -1      6494-3.01094E-06-1.77777E-07 3.46807E-06 7.32046E-13-1.27016E-14 1.13103E-07
 -1      6495-3.01094E-06-1.77777E-07 3.46807E-06 7.32046E-13-2.55165E-22 1.08552E-20
 -1      6496-3.01094E-06-1.77777E-07 3.46807E-06 7.32046E-13 1.27016E-14-1.13103E-07
 -1      6497-2.95994E-06-1.77763E-07 3.41707E-06 4.39296E-13-5.69133E-15 1.11323E-07
 -1      6498-2.95994E-06-1.77763E-07 3.41707E-06 4.39296E-13 3.48753E-22-2.92274E-21
 -1      6499-2.95994E-06-1.77763E-07 3.41707E-06 4.39296E-13 5.69133E-15-1.11323E-07
 -1      6500-2.99443E-06-1.77770E-07 3.45155E-06 1.14252E-12-1.91557E-14 1.12526E-07
 -1      6501-2.99443E-06-1.77770E-07 3.45155E-06 1.14252E-12-5.40573E-22-5.99194E-21
 -1      6502-2.99443E-06-1.77770E-07 3.45155E-06 1.14252E-12 1.91557E-14-1.12526E-07
 -1      6503-3.98406E-07-1.77776E-07 8.55544E-07 2.27118E-13-3.91948E-15 2.18882E-08
 -1      6504-3.98406E-07-1.77776E-07 8.55544E-07 2.27118E-13 3.81230E-23 6.30137E-23
 -1      6505-3.98406E-07-1.77776E-07 8.55544E-07 2.27118E-13 3.91948E-15-2.18882E-08
 -1      6506-2.46635E-06-1.77782E-07 2.92351E-06 5.88167E-13-1.04674E-14 9.40886E-08
 -1      6507-2.46635E-06-1.77782E-07 2.92351E-06 5.88167E-13 2.49045E-22 3.67022E-21
 -1      6508-2.46635E-06-1.77782E-07 2.92351E-06 5.88167E-13 1.04674E-14-9.40886E-08
 -1      6509-2.20507E-06-1.77778E-07 2.66222E-06-1.92796E-13 3.44622E-15 8.49654E-08
 -1      6510-2.20507E-06-1.77778E-07 2.66222E-06-1.92796E-13 5.24264E-22-6.15446E-21
 -1      6511-2.20507E-06-1.77778E-07 2.66222E-06-1.92796E-13-3.44622E-15-8.49654E-08
 -1      6512-1.98275E-06-1.77777E-07 2.43989E-06-1.23156E-12 2.15863E-14 7.72026E-08
 -1      6513-1.98275E-06-1.77777E-07 2.43989E-06-1.23156E-12 1.11831E-22 9.62449E-21
 -1      6514-1.98275E-06-1.77777E-07 2.43989E-06-1.23156E-12-2.15863E-14-7.72026E-08
 -1      6515-1.79105E-06-1.77776E-07 2.24819E-06-1.38694E-12 2.42536E-14 7.05095E-08
 -1      6516-1.79105E-06-1.77776E-07 2.24819E-06-1.38694E-12-3.52831E-22 7.53148E-21
 -1      6517-1.79105E-06-1.77776E-07 2.24819E-06-1.38694E-12-2.42536E-14-7.05095E-08
 -1      6518-1.62420E-06-1.77776E-07 2.08134E-06-1.15212E-12 2.01187E-14 6.46841E-08
 -1      6519-1.62420E-06-1.77776E-07 2.08134E-06-1.15212E-12-5.34844E-22 1.06351E-21
 -1      6520-1.62420E-06-1.77776E-07 2.08134E-06-1.15212E-12-2.01187E-14-6.46841E-08
 -1      6521-1.47776E-06-1.77776E-07 1.93490E-06-5.37266E-13 9.37138E-15 5.95711E-08
 -1      6522-1.47776E-06-1.77776E-07 1.93490E-06-5.37266E-13-1.21172E-22-5.66008E-21
 -1      6523-1.47776E-06-1.77776E-07 1.93490E-06-5.37266E-13-9.37138E-15-5.95711E-08
 -1      6524-1.34819E-06-1.77776E-07 1.80533E-06-5.00202E-14 8.54922E-16 5.50475E-08
 -1      6525-1.34819E-06-1.77776E-07 1.80533E-06-5.00202E-14 8.37711E-23 6.02069E-21
 -1      6526-1.34819E-06-1.77776E-07 1.80533E-06-5.00202E-14-8.54922E-16-5.50475E-08
 -1      6527-1.23274E-06-1.77776E-07 1.68988E-06-6.05644E-14 1.03647E-15 5.10167E-08
 -1      6528-1.23274E-06-1.77776E-07 1.68988E-06-6.05644E-14-3.29707E-22 6.17898E-22
 -1      6529-1.23274E-06-1.77776E-07 1.68988E-06-6.05644E-14-1.03647E-15-5.10167E-08
 -1      6530-1.12940E-06-1.77776E-07 1.58654E-06-1.21645E-13 2.10360E-15 4.74088E-08
 -1      6531-1.12940E-06-1.77776E-07 1.58654E-06-1.21645E-13-1.44542E-22 1.87735E-22
 -1      6532-1.12940E-06-1.77776E-07 1.58654E-06-1.21645E-13-2.10360E-15-4.74088E-08
 -1      6533-1.03660E-06-1.77776E-07 1.49374E-06-1.05408E-13 1.82227E-15 4.41688E-08
 -1      6534-1.03660E-06-1.77776E-07 1.49374E-06-1.05408E-13 3.12297E-22-1.89123E-22
 -1      6535-1.03660E-06-1.77776E-07 1.49374E-06-1.05408E-13-1.82227E-15-4.41688E-08
 -1      6536-9.52970E-07-1.77776E-07 1.41011E-06-3.38841E-14 5.76178E-16 4.12491E-08
 -1      6537-9.52970E-07-1.77776E-07 1.41011E-06-3.38841E-14 1.86596E-22-5.74526E-21
 -1      6538-9.52970E-07-1.77776E-07 1.41011E-06-3.38841E-14-5.76178E-16-4.12491E-08
 -1      6539-8.77335E-07-1.77776E-07 1.33447E-06 2.01143E-14-3.64803E-16 3.86085E-08
 -1      6540-8.77335E-07-1.77776E-07 1.33447E-06 2.01143E-14-2.82644E-22-2.15706E-21
 -1      6541-8.77335E-07-1.77776E-07 1.33447E-06 2.01143E-14 3.64803E-16-3.86085E-08
 -1      6542-8.08685E-07-1.77776E-07 1.26582E-06 1.45528E-14-2.67143E-16 3.62118E-08
 -1      6543-8.08685E-07-1.77776E-07 1.26582E-06 1.45528E-14-7.82230E-23 3.52801E-21
 -1      6544-8.08685E-07-1.77776E-07 1.26582E-06 1.45528E-14 2.67143E-16-3.62118E-08
 -1      6545-7.46197E-07-1.77776E-07 1.20334E-06-2.40787E-14 4.07770E-16 3.40302E-08
 -1      6546-7.46197E-07-1.77776E-07 1.20334E-06-2.40787E-14-2.09172E-23-1.67347E-22
 -1      6547-7.46197E-07-1.77776E-07 1.20334E-06-2.40787E-14-4.07770E-16-3.40302E-08
 -1      6548-6.89191E-07-1.77776E-07 1.14633E-06-4.72914E-14 8.13813E-16 3.20400E-08
 -1      6549-6.89191E-07-1.77776E-07 1.14633E-06-4.72914E-14 1.75464E-23 3.80404E-21
 -1      6550-6.89191E-07-1.77776E-07 1.14633E-06-4.72914E-14-8.13813E-16-3.20400E-08
 -1      6551-6.37075E-07-1.77776E-07 1.09421E-06-3.12355E-14 5.35490E-16 3.02205E-08
 -1      6552-6.37075E-07-1.77776E-07 1.09421E-06-3.12355E-14-5.50556E-23-4.24908E-21
 -1      6553-6.37075E-07-1.77776E-07 1.09421E-06-3.12355E-14-5.35491E-16-3.02205E-08
 -1      6554-5.89316E-07-1.77776E-07 1.04645E-06 2.02880E-14-3.60323E-16 2.85531E-08
 -1      6555-5.89316E-07-1.77776E-07 1.04645E-06 2.02879E-14 1.45986E-22 2.14067E-21
 -1      6556-5.89316E-07-1.77776E-07 1.04645E-06 2.02879E-14 3.60323E-16-2.85531E-08
 -1      6557-5.45440E-07-1.77776E-07 1.00258E-06 6.54612E-14-1.14655E-15 2.70214E-08
 -1      6558-5.45440E-07-1.77776E-07 1.00258E-06 6.54612E-14-1.07049E-22 4.23581E-22
 -1      6559-5.45440E-07-1.77776E-07 1.00258E-06 6.54612E-14 1.14655E-15-2.70214E-08
 -1      6560-5.05065E-07-1.77776E-07 9.62204E-07 2.66529E-14-4.71993E-16 2.56118E-08
 -1      6561-5.05065E-07-1.77776E-07 9.62204E-07 2.66529E-14 3.98766E-22-3.59019E-21
 -1      6562-5.05065E-07-1.77776E-07 9.62204E-07 2.66529E-14 4.71994E-16-2.56118E-08
 -1      6563-4.67943E-07-1.77776E-07 9.25081E-07-5.24025E-14 9.07530E-16 2.43158E-08
 -1      6564-4.67943E-07-1.77776E-07 9.25081E-07-5.24025E-14-9.45131E-23 1.75022E-21
 -1      6565-4.67943E-07-1.77776E-07 9.25081E-07-5.24025E-14-9.07530E-16-2.43158E-08
 -1      6566-4.33903E-07-1.77776E-07 8.91042E-07 8.00233E-14-1.38868E-15 2.31274E-08
 -1      6567-4.33903E-07-1.77776E-07 8.91042E-07 8.00233E-14 4.28944E-22-1.07402E-21
 -1      6568-4.33903E-07-1.77776E-07 8.91042E-07 8.00233E-14 1.38868E-15-2.31274E-08
 -1      6569-4.02692E-07-1.77776E-07 8.59830E-07 1.27708E-13-2.21916E-15 2.20378E-08
 -1      6570-4.02692E-07-1.77776E-07 8.59830E-07 1.27708E-13 2.08125E-24-9.50807E-22
 -1      6571-4.02692E-07-1.77776E-07 8.59830E-07 1.27708E-13 2.21916E-15-2.20378E-08
 -1      6572-3.74134E-07-1.77776E-07 8.31273E-07-4.13352E-13 7.22026E-15 2.10408E-08
 -1      6573-3.74134E-07-1.77776E-07 8.31273E-07-4.13352E-13-4.06929E-22 1.33295E-21
 -1      6574-3.74134E-07-1.77776E-07 8.31273E-07-4.13352E-13-7.22026E-15-2.10408E-08
 -1      6575-3.48346E-07-1.77776E-07 8.05485E-07 9.74074E-13-1.68314E-14 2.01405E-08
 -1      6576-3.48346E-07-1.77776E-07 8.05485E-07 9.74074E-13 4.78269E-22 9.21692E-22
 -1      6577-3.48346E-07-1.77776E-07 8.05485E-07 9.74074E-13 1.68314E-14-2.01405E-08
 -1      6578-3.24177E-07-1.77777E-07 7.81315E-07-1.47764E-12 2.59212E-14 1.92967E-08
 -1      6579-3.24177E-07-1.77777E-07 7.81315E-07-1.47764E-12-2.26377E-23 2.01984E-21
 -1      6580-3.24177E-07-1.77777E-07 7.81315E-07-1.47764E-12-2.59212E-14-1.92967E-08
 -1      6581-3.02134E-07-1.77776E-07 7.59272E-07 3.48442E-13-6.14273E-15 1.85271E-08
 -1      6582-3.02134E-07-1.77776E-07 7.59272E-07 3.48442E-13 3.47454E-23-2.06070E-21
 -1      6583-3.02134E-07-1.77776E-07 7.59272E-07 3.48442E-13 6.14273E-15-1.85271E-08
 -1      6584-3.11263E-07-1.77776E-07 7.68401E-07-1.04098E-12 1.81485E-14 1.88459E-08
 -1      6585-3.11263E-07-1.77776E-07 7.68401E-07-1.04098E-12 1.48581E-23 4.23031E-22
 -1      6586-3.11263E-07-1.77776E-07 7.68401E-07-1.04098E-12-1.81485E-14-1.88459E-08
 -1      6587-1.97198E-06-1.77775E-07 2.42912E-06 4.56593E-12-7.99408E-14 7.68259E-08
 -1      6588-1.97198E-06-1.77775E-07 2.42912E-06 4.56593E-12 1.41585E-23-5.93842E-21
 -1      6589-1.97198E-06-1.77775E-07 2.42912E-06 4.56593E-12 7.99408E-14-7.68259E-08
 -1      6590-3.00876E-06-1.77777E-07 3.46588E-06-3.96267E-12 6.88768E-14 1.13027E-07
 -1      6591-3.00876E-06-1.77777E-07 3.46588E-06-3.96267E-12-2.95723E-22-4.85660E-21
 -1      6592-3.00876E-06-1.77777E-07 3.46588E-06-3.96267E-12-6.88768E-14-1.13027E-07
 -1      6593-2.79313E-07-1.77777E-07 7.36453E-07-1.48332E-12 2.60842E-14 1.77306E-08
 -1      6594-2.79313E-07-1.77777E-07 7.36453E-07-1.48332E-12 1.39868E-22-1.10334E-21
 -1      6595-2.79313E-07-1.77777E-07 7.36453E-07-1.48332E-12-2.60842E-14-1.77306E-08
 -1      6596-2.89692E-06-1.77805E-07 3.35408E-06-3.49604E-11 6.14488E-13 1.09124E-07
 -1      6597-2.89692E-06-1.77805E-07 3.35408E-06-3.49604E-11 5.14106E-23 1.53999E-20
 -1      6598-2.89692E-06-1.77805E-07 3.35408E-06-3.49604E-11-6.14488E-13-1.09124E-07
 -1      6599-3.01276E-06-1.77779E-07 3.46990E-06-7.80390E-13 1.35501E-14 1.13166E-07
 -1      6600-3.01276E-06-1.77779E-07 3.46990E-06-7.80390E-13 2.42488E-22-9.82579E-22
 -1      6601-3.01276E-06-1.77779E-07 3.46990E-06-7.80390E-13-1.35501E-14-1.13166E-07
 -1      6602-7.47501E-07-1.77776E-07 1.20464E-06-3.78284E-14 6.61505E-16 3.40757E-08
 -1      6603-7.47501E-07-1.77776E-07 1.20464E-06-3.78284E-14 6.03616E-23 3.66675E-21
 -1      6604-7.47501E-07-1.77776E-07 1.20464E-06-3.78284E-14-6.61505E-16-3.40757E-08
 -1      6605-3.01214E-06-1.77775E-07 3.46927E-06-4.88602E-13 8.67370E-15 1.13145E-07
 -1      6606-3.01214E-06-1.77775E-07 3.46927E-06-4.88602E-13-3.38429E-23-1.04190E-20
 -1      6607-3.01214E-06-1.77775E-07 3.46927E-06-4.88602E-13-8.67370E-15-1.13145E-07
 -1      6608-4.31839E-07-1.77776E-07 8.88977E-07 1.10758E-13-1.91879E-15 2.30554E-08
 -1      6609-4.31839E-07-1.77776E-07 8.88977E-07 1.10758E-13 9.79939E-23-3.01847E-21
 -1      6610-4.31839E-07-1.77776E-07 8.88977E-07 1.10758E-13 1.91879E-15-2.30554E-08
 -1      6611-1.62729E-06-1.77777E-07 2.08443E-06-1.14676E-12 2.01418E-14 6.47918E-08
 -1      6612-1.62729E-06-1.77777E-07 2.08443E-06-1.14676E-12 6.71823E-23 1.06093E-21
 -1      6613-1.62729E-06-1.77777E-07 2.08443E-06-1.14676E-12-2.01418E-14-6.47918E-08
 -1      6614-1.03797E-06-1.77776E-07 1.49511E-06 1.42551E-13-2.48964E-15 4.42167E-08
 -1      6615-1.03797E-06-1.77776E-07 1.49511E-06 1.42551E-13-1.17589E-22 3.48946E-21
 -1      6616-1.03797E-06-1.77776E-07 1.49511E-06 1.42551E-13 2.48964E-15-4.42167E-08
 -1      6617-8.78620E-07-1.77776E-07 1.33576E-06-4.16984E-14 7.30183E-16 3.86534E-08
 -1      6618-8.78620E-07-1.77776E-07 1.33576E-06-4.16984E-14 1.63156E-22 1.95285E-22
 -1      6619-8.78620E-07-1.77776E-07 1.33576E-06-4.16984E-14-7.30182E-16-3.86534E-08
 -1      6620-1.23457E-06-1.77776E-07 1.69171E-06 3.10927E-13-5.42898E-15 5.10805E-08
 -1      6621-1.23457E-06-1.77776E-07 1.69171E-06 3.10927E-13-1.58922E-23-6.61287E-23
 -1      6622-1.23457E-06-1.77776E-07 1.69171E-06 3.10927E-13 5.42898E-15-5.10805E-08
 -1      6623-2.17319E-06-1.77795E-07 2.63036E-06 2.86149E-11-5.01566E-13 8.38514E-08
 -1      6624-2.17319E-06-1.77795E-07 2.63036E-06 2.86149E-11-4.52767E-23 2.10580E-21
 -1      6625-2.17319E-06-1.77795E-07 2.63036E-06 2.86149E-11 5.01566E-13-8.38514E-08
 -1      6626-2.77729E-07-1.77776E-07 7.34867E-07 3.61188E-14-6.33582E-16 1.76752E-08
 -1      6627-2.77729E-07-1.77776E-07 7.34867E-07 3.61188E-14-2.86126E-22 1.69796E-21
 -1      6628-2.77729E-07-1.77776E-07 7.34867E-07 3.61188E-14 6.33582E-16-1.76752E-08
 -1      6629-5.90380E-07-1.77776E-07 1.04752E-06 1.05446E-14-1.88851E-16 2.85903E-08
 -1      6630-5.90380E-07-1.77776E-07 1.04752E-06 1.05446E-14-1.96483E-22 2.81001E-21
 -1      6631-5.90380E-07-1.77776E-07 1.04752E-06 1.05446E-14 1.88851E-16-2.85903E-08
 -1      6632-6.38301E-07-1.77776E-07 1.09544E-06-6.13867E-15 1.03988E-16 3.02633E-08
 -1      6633-6.38301E-07-1.77776E-07 1.09544E-06-6.13867E-15-7.08074E-24 1.17733E-22
 -1      6634-6.38301E-07-1.77776E-07 1.09544E-06-6.13867E-15-1.03988E-16-3.02633E-08
 -1      6635-3.38047E-07-1.77776E-07 7.95185E-07 6.24876E-14-9.88694E-16 1.97810E-08
 -1      6636-3.38047E-07-1.77776E-07 7.95185E-07 6.24876E-14-4.80563E-25-3.07288E-21
 -1      6637-3.38047E-07-1.77776E-07 7.95185E-07 6.24876E-14 9.88694E-16-1.97810E-08
 -1      6638-6.90485E-07-1.77776E-07 1.14762E-06-1.10945E-14 1.92041E-16 3.20852E-08
 -1      6639-6.90485E-07-1.77776E-07 1.14762E-06-1.10945E-14-7.64497E-23-3.58496E-22
 -1      6640-6.90485E-07-1.77776E-07 1.14762E-06-1.10945E-14-1.92041E-16-3.20852E-08
 -1      6641-9.54274E-07-1.77776E-07 1.41141E-06-1.17951E-14 2.08244E-16 4.12946E-08
 -1      6642-9.54274E-07-1.77776E-07 1.41141E-06-1.17951E-14 2.64647E-23-2.88503E-21
 -1      6643-9.54274E-07-1.77776E-07 1.41141E-06-1.17951E-14-2.08244E-16-4.12946E-08
 -1      6644-5.05392E-07-1.77776E-07 9.62530E-07-4.33394E-16 4.84842E-18 2.56232E-08
 -1      6645-5.05392E-07-1.77776E-07 9.62530E-07-4.33394E-16 3.19304E-23-2.93483E-21
 -1      6646-5.05392E-07-1.77776E-07 9.62530E-07-4.33393E-16-4.84835E-18-2.56232E-08
 -1      6647-1.35069E-06-1.77776E-07 1.80782E-06 1.27531E-14-2.11333E-16 5.51346E-08
 -1      6648-1.35069E-06-1.77776E-07 1.80782E-06 1.27531E-14-1.35921E-22-2.07330E-21
 -1      6649-1.35069E-06-1.77776E-07 1.80782E-06 1.27531E-14 2.11332E-16-5.51346E-08
 -1      6650-2.79080E-07-1.77776E-07 7.36219E-07-4.64852E-13 8.19464E-15 1.77224E-08
 -1      6651-2.79080E-07-1.77776E-07 7.36219E-07-4.64852E-13-5.69890E-23 1.82656E-21
 -1      6652-2.79080E-07-1.77776E-07 7.36219E-07-4.64852E-13-8.19464E-15-1.77224E-08
 -1      6653-2.72524E-07-1.77774E-07 7.29658E-07 1.10838E-12-1.92815E-14 1.74933E-08
 -1      6654-2.72524E-07-1.77774E-07 7.29658E-07 1.10838E-12 4.59041E-23-3.48230E-22
 -1      6655-2.72524E-07-1.77774E-07 7.29658E-07 1.10838E-12 1.92815E-14-1.74933E-08
 -1      6656-3.01141E-06-1.77779E-07 3.46855E-06-6.83570E-14 1.22361E-15 1.13119E-07
 -1      6657-3.01141E-06-1.77779E-07 3.46855E-06-6.83570E-14-4.74068E-22-6.68445E-21
 -1      6658-3.01141E-06-1.77779E-07 3.46855E-06-6.83570E-14-1.22361E-15-1.13119E-07
 -1      6659-9.94957E-07-1.77776E-07 1.45209E-06-4.47130E-14 7.84116E-16 4.27150E-08
 -1      6660-9.94957E-07-1.77776E-07 1.45209E-06-4.47130E-14-1.07961E-22 2.02289E-21
 -1      6661-9.94957E-07-1.77776E-07 1.45209E-06-4.47130E-14-7.84116E-16-4.27150E-08
 -1      6662-2.69045E-06-1.77772E-07 3.14759E-06-2.15405E-12 3.87681E-14 1.01912E-07
 -1      6663-2.69045E-06-1.77772E-07 3.14759E-06-2.15405E-12-4.83968E-22 3.55896E-21
 -1      6664-2.69045E-06-1.77772E-07 3.14759E-06-2.15405E-12-3.87681E-14-1.01912E-07
 -1      6665-2.71791E-06-1.77777E-07 3.17505E-06-2.69497E-12 4.69124E-14 1.02871E-07
 -1      6666-2.71791E-06-1.77777E-07 3.17505E-06-2.69497E-12-5.92818E-22 3.15193E-21
 -1      6667-2.71791E-06-1.77777E-07 3.17505E-06-2.69497E-12-4.69124E-14-1.02871E-07
 -1      6668-2.98094E-07-1.77776E-07 7.55232E-07 3.41805E-14-5.71836E-16 1.83862E-08
 -1      6669-2.98094E-07-1.77776E-07 7.55232E-07 3.41805E-14 1.92730E-22 2.40216E-21
 -1      6670-2.98094E-07-1.77776E-07 7.55232E-07 3.41805E-14 5.71836E-16-1.83862E-08
 -1      6671-2.98107E-07-1.77776E-07 7.55246E-07 3.10251E-14-5.46727E-16 1.83866E-08
 -1      6672-2.98107E-07-1.77776E-07 7.55246E-07 3.10251E-14 1.40241E-22-3.79102E-22
 -1      6673-2.98107E-07-1.77776E-07 7.55246E-07 3.10251E-14 5.46727E-16-1.83866E-08
 -1      6674-3.01150E-07-1.77775E-07 7.58285E-07-5.18583E-13 9.21313E-15 1.84928E-08
 -1      6675-3.01150E-07-1.77775E-07 7.58285E-07-5.18583E-13 3.46326E-22-2.07532E-23
 -1      6676-3.01150E-07-1.77775E-07 7.58285E-07-5.18583E-13-9.21313E-15-1.84928E-08
 -1      6677-2.96617E-07-1.77776E-07 7.53753E-07-1.62659E-12 2.85101E-14 1.83346E-08
 -1      6678-2.96617E-07-1.77776E-07 7.53753E-07-1.62659E-12-5.70003E-23 2.91491E-21
 -1      6679-2.96617E-07-1.77776E-07 7.53753E-07-1.62659E-12-2.85101E-14-1.83346E-08
 -1      6680-2.99652E-07-1.77776E-07 7.56790E-07-5.88389E-14 1.08220E-15 1.84406E-08
 -1      6681-2.99652E-07-1.77776E-07 7.56790E-07-5.88389E-14 2.20077E-22 6.29318E-22
 -1      6682-2.99652E-07-1.77776E-07 7.56790E-07-5.88389E-14-1.08220E-15-1.84406E-08
 -1      6683-1.48107E-06-1.77776E-07 1.93821E-06-4.89157E-13 8.59468E-15 5.96867E-08
 -1      6684-1.48107E-06-1.77776E-07 1.93821E-06-4.89157E-13 1.95193E-23-6.05257E-21
 -1      6685-1.48107E-06-1.77776E-07 1.93821E-06-4.89157E-13-8.59468E-15-5.96867E-08
 -1      6686-3.00632E-07-1.77775E-07 7.57770E-07 5.77309E-13-1.01939E-14 1.84748E-08
 -1      6687-3.00632E-07-1.77775E-07 7.57770E-07 5.77309E-13 8.44389E-23-3.64347E-21
 -1      6688-3.00632E-07-1.77775E-07 7.57770E-07 5.77309E-13 1.01939E-14-1.84748E-08
 -1      6689-1.13090E-06-1.77776E-07 1.58804E-06 2.82641E-13-4.93844E-15 4.74613E-08
 -1      6690-1.13090E-06-1.77776E-07 1.58804E-06 2.82641E-13 1.66145E-22-1.83628E-21
 -1      6691-1.13090E-06-1.77776E-07 1.58804E-06 2.82641E-13 4.93844E-15-4.74613E-08
 -1      6692-2.80811E-07-1.77777E-07 7.37951E-07 9.51147E-13-1.65354E-14 1.77828E-08
 -1      6693-2.80811E-07-1.77777E-07 7.37951E-07 9.51147E-13 1.47846E-22-4.04005E-22
 -1      6694-2.80811E-07-1.77777E-07 7.37951E-07 9.51147E-13 1.65354E-14-1.77828E-08
 -1      6695-3.02539E-07-1.77776E-07 7.59678E-07 1.95173E-12-3.43535E-14 1.85414E-08
 -1      6696-3.02539E-07-1.77776E-07 7.59678E-07 1.95173E-12 1.78169E-23 1.52370E-21
 -1      6697-3.02539E-07-1.77776E-07 7.59678E-07 1.95173E-12 3.43535E-14-1.85414E-08
 -1      6698-2.98723E-07-1.77776E-07 7.55861E-07 6.23187E-16 2.08549E-17 1.84081E-08
 -1      6699-2.98723E-07-1.77776E-07 7.55861E-07 6.23186E-16-1.26721E-22-3.23653E-21
 -1      6700-2.98723E-07-1.77776E-07 7.55861E-07 6.23185E-16-2.08552E-17-1.84081E-08
 -1      6701-3.01913E-07-1.77774E-07 7.59051E-07-2.57933E-12 4.53519E-14 1.85196E-08
 -1      6702-3.01913E-07-1.77774E-07 7.59051E-07-2.57933E-12-8.28549E-23 3.87102E-23
 -1      6703-3.01913E-07-1.77774E-07 7.59051E-07-2.57933E-12-4.53519E-14-1.85196E-08
 -1      6704-4.67440E-07-1.77776E-07 9.24578E-07 1.44532E-14-2.54910E-16 2.42983E-08
 -1      6705-4.67440E-07-1.77776E-07 9.24578E-07 1.44532E-14-1.36170E-23-2.05089E-21
 -1      6706-4.67440E-07-1.77776E-07 9.24578E-07 1.44532E-14 2.54910E-16-2.42983E-08
 -1      6707-2.71223E-06-1.77772E-07 3.16938E-06 3.18070E-11-5.55754E-13 1.02674E-07
 -1      6708-2.71223E-06-1.77772E-07 3.16938E-06 3.18070E-11 1.38896E-22-2.85160E-21
 -1      6709-2.71223E-06-1.77772E-07 3.16938E-06 3.18070E-11 5.55754E-13-1.02674E-07
 -1      6710-2.72250E-06-1.77773E-07 3.17964E-06-2.49487E-12 4.31384E-14 1.03031E-07
 -1      6711-2.72250E-06-1.77773E-07 3.17964E-06-2.49487E-12 3.50469E-23 8.66591E-21
 -1      6712-2.72250E-06-1.77773E-07 3.17964E-06-2.49487E-12-4.31384E-14-1.03031E-07
 -1      6713-2.99004E-07-1.77776E-07 7.56142E-07 4.72705E-14-8.78399E-16 1.84179E-08
 -1      6714-2.99004E-07-1.77776E-07 7.56142E-07 4.72705E-14 2.00877E-22-9.48587E-22
 -1      6715-2.99004E-07-1.77776E-07 7.56142E-07 4.72705E-14 8.78399E-16-1.84179E-08
 -1      6716-2.72151E-06-1.77777E-07 3.17865E-06-2.41083E-12 4.17587E-14 1.02997E-07
 -1      6717-2.72151E-06-1.77777E-07 3.17865E-06-2.41083E-12-2.48143E-22-2.39911E-20
 -1      6718-2.72151E-06-1.77777E-07 3.17865E-06-2.41083E-12-4.17587E-14-1.02997E-07
 -1      6719-3.21642E-07-1.77777E-07 7.78779E-07-3.71634E-12 6.51222E-14 1.92083E-08
 -1      6720-3.21642E-07-1.77777E-07 7.78779E-07-3.71634E-12 1.60861E-22-3.11397E-22
 -1      6721-3.21642E-07-1.77777E-07 7.78779E-07-3.71634E-12-6.51222E-14-1.92083E-08
 -1      6722-3.01158E-06-1.77778E-07 3.46872E-06 1.41734E-12-2.46644E-14 1.13125E-07
 -1      6723-3.01158E-06-1.77778E-07 3.46872E-06 1.41734E-12 1.56353E-22-7.39033E-21
 -1      6724-3.01158E-06-1.77778E-07 3.46872E-06 1.41734E-12 2.46644E-14-1.13125E-07
 -1      6725-2.71547E-06-1.77789E-07 3.17262E-06-2.20864E-12 3.77690E-14 1.02786E-07
 -1      6726-2.71547E-06-1.77789E-07 3.17262E-06-2.20864E-12-2.43015E-23 5.15732E-21
 -1      6727-2.71547E-06-1.77789E-07 3.17262E-06-2.20864E-12-3.77690E-14-1.02786E-07
 -1      6728-2.97839E-07-1.77776E-07 7.54977E-07-2.87183E-14 5.19933E-16 1.83773E-08
 -1      6729-2.97839E-07-1.77776E-07 7.54977E-07-2.87183E-14 1.83811E-22-2.39270E-21
 -1      6730-2.97839E-07-1.77776E-07 7.54977E-07-2.87183E-14-5.19933E-16-1.83773E-08
 -1      6731-2.71476E-06-1.77775E-07 3.17190E-06-3.75108E-12 6.56271E-14 1.02761E-07
 -1      6732-2.71476E-06-1.77775E-07 3.17190E-06-3.75108E-12-5.34954E-22-5.51874E-21
 -1      6733-2.71476E-06-1.77775E-07 3.17190E-06-3.75108E-12-6.56271E-14-1.02761E-07
 -1      6734-3.81607E-07-1.77776E-07 8.38745E-07 8.47794E-13-1.47328E-14 2.13018E-08
 -1      6735-3.81607E-07-1.77776E-07 8.38745E-07 8.47794E-13 3.68365E-23-2.45948E-21
 -1      6736-3.81607E-07-1.77776E-07 8.38745E-07 8.47794E-13 1.47328E-14-2.13018E-08
 -1      6737-2.56697E-06-1.77775E-07 3.02412E-06 3.91001E-12-6.77194E-14 9.76020E-08
 -1      6738-2.56697E-06-1.77775E-07 3.02412E-06 3.91001E-12-1.70483E-22-1.33721E-20
 -1      6739-2.56697E-06-1.77775E-07 3.02412E-06 3.91001E-12 6.77194E-14-9.76020E-08
 -1      6740-2.29209E-06-1.77778E-07 2.74923E-06 5.76697E-14-6.82084E-16 8.80037E-08
 -1      6741-2.29209E-06-1.77778E-07 2.74923E-06 5.76697E-14-1.11831E-22-4.20195E-21
 -1      6742-2.29209E-06-1.77778E-07 2.74923E-06 5.76697E-14 6.82084E-16-8.80037E-08
 -1      6743-2.05843E-06-1.77777E-07 2.51557E-06-1.73670E-12 3.05495E-14 7.98451E-08
 -1      6744-2.05843E-06-1.77777E-07 2.51557E-06-1.73670E-12-3.17850E-22 1.21475E-20
 -1      6745-2.05843E-06-1.77777E-07 2.51557E-06-1.73670E-12-3.05495E-14-7.98451E-08
 -1      6746-1.85717E-06-1.77775E-07 2.31431E-06-2.25324E-12 3.94459E-14 7.28180E-08
 -1      6747-1.85717E-06-1.77775E-07 2.31431E-06-2.25324E-12-5.02027E-23-5.23174E-21
 -1      6748-1.85717E-06-1.77775E-07 2.31431E-06-2.25324E-12-3.94459E-14-7.28180E-08
 -1      6749-1.68231E-06-1.77776E-07 2.13945E-06-2.10274E-12 3.67152E-14 6.67131E-08
 -1      6750-1.68231E-06-1.77776E-07 2.13945E-06-2.10274E-12 1.09582E-21 3.21589E-21
 -1      6751-1.68231E-06-1.77776E-07 2.13945E-06-2.10274E-12-3.67152E-14-6.67131E-08
 -1      6752-1.52927E-06-1.77775E-07 1.98641E-06-1.27204E-12 2.21861E-14 6.13697E-08
 -1      6753-1.52927E-06-1.77775E-07 1.98641E-06-1.27204E-12-7.07664E-23-6.15663E-21
 -1      6754-1.52927E-06-1.77775E-07 1.98641E-06-1.27204E-12-2.21861E-14-6.13697E-08
 -1      6755-1.39427E-06-1.77776E-07 1.85140E-06 3.53659E-14-6.64950E-16 5.66561E-08
 -1      6756-1.39427E-06-1.77776E-07 1.85140E-06 3.53659E-14 2.57206E-22-1.74997E-21
 -1      6757-1.39427E-06-1.77776E-07 1.85140E-06 3.53659E-14 6.64951E-16-5.66561E-08
 -1      6758-1.27398E-06-1.77776E-07 1.73112E-06-1.64961E-14 2.36228E-16 5.24565E-08
 -1      6759-1.27398E-06-1.77776E-07 1.73112E-06-1.64961E-14-1.48542E-22-1.14640E-20
 -1      6760-1.27398E-06-1.77776E-07 1.73112E-06-1.64961E-14-2.36228E-16-5.24565E-08
 -1      6761-1.16631E-06-1.77776E-07 1.62345E-06-1.66328E-13 2.85426E-15 4.86976E-08
 -1      6762-1.16631E-06-1.77776E-07 1.62345E-06-1.66328E-13 3.22407E-22 4.15754E-21
 -1      6763-1.16631E-06-1.77776E-07 1.62345E-06-1.66328E-13-2.85426E-15-4.86976E-08
 -1      6764-1.06972E-06-1.77776E-07 1.52686E-06-1.98041E-13 3.41275E-15 4.53251E-08
 -1      6765-1.06972E-06-1.77776E-07 1.52686E-06-1.98041E-13 7.94018E-22-5.24008E-21
 -1      6766-1.06972E-06-1.77776E-07 1.52686E-06-1.98041E-13-3.41275E-15-4.53251E-08
 -1      6767-9.82819E-07-1.77776E-07 1.43996E-06-1.05838E-13 1.81022E-15 4.22913E-08
 -1      6768-9.82819E-07-1.77776E-07 1.43996E-06-1.05838E-13-8.68928E-23-5.50909E-22
 -1      6769-9.82819E-07-1.77776E-07 1.43996E-06-1.05838E-13-1.81022E-15-4.22913E-08
 -1      6770-9.04356E-07-1.77776E-07 1.36149E-06 1.50734E-14-2.94300E-16 3.95519E-08
 -1      6771-9.04356E-07-1.77776E-07 1.36149E-06 1.50734E-14-2.03629E-22-4.95679E-21
 -1      6772-9.04356E-07-1.77776E-07 1.36149E-06 1.50734E-14 2.94300E-16-3.95519E-08
 -1      6773-8.33220E-07-1.77776E-07 1.29036E-06 3.38227E-14-6.18646E-16 3.70684E-08
 -1      6774-8.33220E-07-1.77776E-07 1.29036E-06 3.38227E-14 4.29946E-22-2.34804E-22
 -1      6775-8.33220E-07-1.77776E-07 1.29036E-06 3.38227E-14 6.18647E-16-3.70684E-08
 -1      6776-7.68514E-07-1.77776E-07 1.22565E-06-4.09993E-14 6.88034E-16 3.48093E-08
 -1      6777-7.68514E-07-1.77776E-07 1.22565E-06-4.09993E-14-7.63963E-23 4.49754E-22
 -1      6778-7.68514E-07-1.77776E-07 1.22565E-06-4.09993E-14-6.88035E-16-3.48093E-08
 -1      6779-7.09528E-07-1.77776E-07 1.16667E-06-1.03257E-13 1.77446E-15 3.27500E-08
 -1      6780-7.09528E-07-1.77776E-07 1.16667E-06-1.03257E-13 4.86900E-22-2.88036E-22
 -1      6781-7.09528E-07-1.77776E-07 1.16667E-06-1.03257E-13-1.77446E-15-3.27500E-08
 -1      6782-6.55659E-07-1.77776E-07 1.11280E-06-1.02637E-13 1.76449E-15 3.08693E-08
 -1      6783-6.55659E-07-1.77776E-07 1.11280E-06-1.02637E-13-3.64645E-23-1.23104E-21
 -1      6784-6.55659E-07-1.77776E-07 1.11280E-06-1.02637E-13-1.76449E-15-3.08693E-08
 -1      6785-6.06361E-07-1.77776E-07 1.06350E-06-4.52348E-14 7.67674E-16 2.91482E-08
 -1      6786-6.06361E-07-1.77776E-07 1.06350E-06-4.52348E-14-2.40245E-22 1.64007E-21
 -1      6787-6.06361E-07-1.77776E-07 1.06350E-06-4.52348E-14-7.67674E-16-2.91482E-08
 -1      6788-5.61133E-07-1.77776E-07 1.01827E-06 6.81944E-14-1.20172E-15 2.75692E-08
 -1      6789-5.61133E-07-1.77776E-07 1.01827E-06 6.81944E-14 2.28089E-22-3.70983E-21
 -1      6790-5.61133E-07-1.77776E-07 1.01827E-06 6.81945E-14 1.20172E-15-2.75692E-08
 -1      6791-5.19512E-07-1.77776E-07 9.76650E-07 1.18089E-13-2.07025E-15 2.61162E-08
 -1      6792-5.19512E-07-1.77776E-07 9.76650E-07 1.18089E-13 2.61571E-22-2.26441E-22
 -1      6793-5.19512E-07-1.77776E-07 9.76650E-07 1.18090E-13 2.07025E-15-2.61162E-08
 -1      6794-4.81158E-07-1.77776E-07 9.38296E-07-9.49854E-14 1.63027E-15 2.47772E-08
 -1      6795-4.81158E-07-1.77776E-07 9.38296E-07-9.49854E-14-5.79586E-22 1.36010E-21
 -1      6796-4.81158E-07-1.77776E-07 9.38296E-07-9.49854E-14-1.63028E-15-2.47772E-08
 -1      6797-4.46003E-07-1.77776E-07 9.03142E-07-2.52835E-13 4.38146E-15 2.35499E-08
 -1      6798-4.46003E-07-1.77776E-07 9.03142E-07-2.52835E-13 9.28566E-23-4.00014E-21
 -1      6799-4.46003E-07-1.77776E-07 9.03142E-07-2.52835E-13-4.38146E-15-2.35499E-08
 -1      6800-4.14028E-07-1.77776E-07 8.71166E-07 5.28964E-13-9.20205E-15 2.24335E-08
 -1      6801-4.14028E-07-1.77776E-07 8.71166E-07 5.28964E-13-2.69385E-22 1.29829E-21
 -1      6802-4.14028E-07-1.77776E-07 8.71166E-07 5.28964E-13 9.20205E-15-2.24335E-08
 -1      6803-3.84597E-07-1.77776E-07 8.41734E-07-2.87306E-13 4.97361E-15 2.14060E-08
 -1      6804-3.84597E-07-1.77776E-07 8.41734E-07-2.87306E-13-2.56683E-22-3.67222E-21
 -1      6805-3.84597E-07-1.77776E-07 8.41734E-07-2.87306E-13-4.97361E-15-2.14060E-08
 -1      6806-3.57782E-07-1.77776E-07 8.14919E-07-2.71781E-12 4.69571E-14 2.04699E-08
 -1      6807-3.57782E-07-1.77776E-07 8.14919E-07-2.71781E-12 3.89667E-22 2.92755E-21
 -1      6808-3.57782E-07-1.77776E-07 8.14919E-07-2.71781E-12-4.69571E-14-2.04699E-08
 -1      6809-3.35652E-07-1.77771E-07 7.92783E-07 1.37743E-12-2.42899E-14 1.96971E-08
 -1      6810-3.35652E-07-1.77771E-07 7.92783E-07 1.37743E-12 2.18635E-22-6.47908E-21
 -1      6811-3.35652E-07-1.77771E-07 7.92783E-07 1.37743E-12 2.42899E-14-1.96971E-08
 -1      6812-3.14445E-07-1.77775E-07 7.71577E-07-2.85112E-12 4.89828E-14 1.89569E-08
 -1      6813-3.14445E-07-1.77775E-07 7.71577E-07-2.85112E-12 4.30502E-22-2.32746E-21
 -1      6814-3.14445E-07-1.77775E-07 7.71577E-07-2.85112E-12-4.89828E-14-1.89569E-08
 -1      6815-1.88489E-06-1.77779E-07 2.34202E-06-6.48520E-12 1.14254E-13 7.37854E-08
 -1      6816-1.88489E-06-1.77779E-07 2.34202E-06-6.48520E-12-2.09950E-22-1.33922E-20
 -1      6817-1.88489E-06-1.77779E-07 2.34202E-06-6.48520E-12-1.14254E-13-7.37854E-08
 -1      6818-2.71056E-06-1.77749E-07 3.16766E-06 1.22221E-11-2.13867E-13 1.02614E-07
 -1      6819-2.71056E-06-1.77749E-07 3.16766E-06 1.22221E-11 1.28705E-22-4.20585E-22
 -1      6820-2.71056E-06-1.77749E-07 3.16766E-06 1.22221E-11 2.13867E-13-1.02614E-07
 -1      6821-2.67774E-06-1.77771E-07 3.13489E-06-4.67029E-11 8.15810E-13 1.01469E-07
 -1      6822-2.67774E-06-1.77771E-07 3.13489E-06-4.67029E-11-1.71896E-22-1.43786E-21
 -1      6823-2.67774E-06-1.77771E-07 3.13489E-06-4.67029E-11-8.15810E-13-1.01469E-07
 -1      6824-3.50331E-07-1.77777E-07 8.07468E-07 2.36490E-12-4.09445E-14 2.02099E-08
 -1      6825-3.50331E-07-1.77777E-07 8.07468E-07 2.36490E-12 5.94647E-23 2.65687E-21
 -1      6826-3.50331E-07-1.77777E-07 8.07468E-07 2.36490E-12 4.09445E-14-2.02099E-08
 -1      6827-3.03064E-07-1.77779E-07 7.60210E-07-3.27969E-13 5.61894E-15 1.85600E-08
 -1      6828-3.03064E-07-1.77779E-07 7.60210E-07-3.27969E-13 4.03341E-22 9.40983E-22
 -1      6829-3.03064E-07-1.77779E-07 7.60210E-07-3.27969E-13-5.61894E-15-1.85600E-08
 -1      6830-2.71863E-06-1.77768E-07 3.17575E-06-1.90583E-13 3.72390E-15 1.02896E-07
 -1      6831-2.71863E-06-1.77768E-07 3.17575E-06-1.90583E-13 3.39736E-22 1.69711E-21
 -1      6832-2.71863E-06-1.77768E-07 3.17575E-06-1.90583E-13-3.72390E-15-1.02896E-07
 -1      6833-7.77988E-07-1.77776E-07 1.23513E-06-5.87653E-14 1.03077E-15 3.51401E-08
 -1      6834-7.77988E-07-1.77776E-07 1.23513E-06-5.87653E-14 1.54763E-22 1.01178E-22
 -1      6835-7.77988E-07-1.77776E-07 1.23513E-06-5.87653E-14-1.03077E-15-3.51401E-08
 -1      6836-4.14642E-07-1.77776E-07 8.71781E-07 2.81366E-13-4.90641E-15 2.24551E-08
 -1      6837-4.14642E-07-1.77776E-07 8.71781E-07 2.81366E-13-1.02834E-22 2.24837E-21
 -1      6838-4.14642E-07-1.77776E-07 8.71781E-07 2.81366E-13 4.90641E-15-2.24551E-08
 -1      6839-5.68054E-07-1.77776E-07 1.02519E-06 2.65768E-14-4.74671E-16 2.78109E-08
 -1      6840-5.68054E-07-1.77776E-07 1.02519E-06 2.65769E-14 9.88089E-23 2.41432E-21
 -1      6841-5.68054E-07-1.77776E-07 1.02519E-06 2.65769E-14 4.74671E-16-2.78109E-08
 -1      6842-2.07378E-06-1.77776E-07 2.53089E-06 1.03748E-11-1.79227E-13 8.03794E-08
 -1      6843-2.07378E-06-1.77776E-07 2.53089E-06 1.03748E-11 1.77189E-22 1.69667E-21
 -1      6844-2.07378E-06-1.77776E-07 2.53089E-06 1.03748E-11 1.79227E-13-8.03794E-08
 -1      6845-1.18102E-06-1.77776E-07 1.63816E-06 5.09155E-13-8.90226E-15 4.92111E-08
 -1      6846-1.18102E-06-1.77776E-07 1.63816E-06 5.09155E-13-1.23095E-22-8.43726E-21
 -1      6847-1.18102E-06-1.77776E-07 1.63816E-06 5.09155E-13 8.90226E-15-4.92111E-08
 -1      6848-8.43440E-07-1.77776E-07 1.30058E-06-2.38615E-14 4.23172E-16 3.74251E-08
 -1      6849-8.43440E-07-1.77776E-07 1.30058E-06-2.38615E-14 2.51967E-23-3.09424E-21
 -1      6850-8.43440E-07-1.77776E-07 1.30058E-06-2.38615E-14-4.23172E-16-3.74251E-08
 -1      6851-2.64252E-06-1.77782E-07 3.09966E-06 9.90872E-13-1.55600E-14 1.00239E-07
 -1      6852-2.64252E-06-1.77782E-07 3.09966E-06 9.90872E-13 4.58794E-22-1.06020E-20
 -1      6853-2.64252E-06-1.77782E-07 3.09966E-06 9.90872E-13 1.55600E-14-1.00239E-07
 -1      6854-6.63887E-07-1.77776E-07 1.12103E-06-2.14327E-14 3.70844E-16 3.11566E-08
 -1      6855-6.63887E-07-1.77776E-07 1.12103E-06-2.14327E-14-9.80706E-24-9.47500E-22
 -1      6856-6.63887E-07-1.77776E-07 1.12103E-06-2.14327E-14-3.70844E-16-3.11566E-08
 -1      6857-2.40860E-06-1.77782E-07 2.86573E-06-4.09374E-11 7.11980E-13 9.20702E-08
 -1      6858-2.40860E-06-1.77782E-07 2.86573E-06-4.09374E-11-3.56817E-23 6.59559E-21
 -1      6859-2.40860E-06-1.77782E-07 2.86573E-06-4.09374E-11-7.11980E-13-9.20702E-08
 -1      6860-6.13966E-07-1.77776E-07 1.07110E-06-7.51074E-15 1.24230E-16 2.94137E-08
 -1      6861-6.13966E-07-1.77776E-07 1.07110E-06-7.51074E-15 6.17469E-23-3.37633E-21
 -1      6862-6.13966E-07-1.77776E-07 1.07110E-06-7.51075E-15-1.24230E-16-2.94137E-08
 -1      6863-2.71563E-06-1.77780E-07 3.17277E-06-2.23594E-13 3.90973E-15 1.02792E-07
 -1      6864-2.71563E-06-1.77780E-07 3.17277E-06-2.23594E-13 2.48010E-22-2.76378E-21
 -1      6865-2.71563E-06-1.77780E-07 3.17277E-06-2.23594E-13-3.90973E-15-1.02792E-07
 -1      6866-2.91967E-07-1.77778E-07 7.49105E-07 3.47846E-12-6.10357E-14 1.81722E-08
 -1      6867-2.91967E-07-1.77778E-07 7.49105E-07 3.47846E-12 8.33425E-23 1.60358E-21
 -1      6868-2.91967E-07-1.77778E-07 7.49105E-07 3.47846E-12 6.10357E-14-1.81722E-08
 -1      6869-1.29072E-06-1.77776E-07 1.74785E-06 2.35623E-13-4.12566E-15 5.30408E-08
 -1      6870-1.29072E-06-1.77776E-07 1.74785E-06 2.35623E-13 2.09501E-23-6.92978E-21
 -1      6871-1.29072E-06-1.77776E-07 1.74785E-06 2.35623E-13 4.12566E-15-5.30408E-08
 -1      6872-9.15467E-07-1.77776E-07 1.37261E-06-1.17023E-13 2.04929E-15 3.99398E-08
 -1      6873-9.15467E-07-1.77776E-07 1.37261E-06-1.17023E-13-1.24451E-22 2.90723E-21
 -1      6874-9.15467E-07-1.77776E-07 1.37261E-06-1.17023E-13-2.04929E-15-3.99398E-08
 -1      6875-1.08302E-06-1.77776E-07 1.54016E-06 2.45165E-13-4.28546E-15 4.57896E-08
 -1      6876-1.08302E-06-1.77776E-07 1.54016E-06 2.45165E-13-7.41872E-23 3.69129E-21
 -1      6877-1.08302E-06-1.77776E-07 1.54016E-06 2.45165E-13 4.28546E-15-4.57896E-08
 -1      6878-1.70990E-06-1.77777E-07 2.16704E-06-2.65161E-12 4.67388E-14 6.76760E-08
 -1      6879-1.70990E-06-1.77777E-07 2.16704E-06-2.65161E-12 2.31639E-22 3.30405E-21
 -1      6880-1.70990E-06-1.77777E-07 2.16704E-06-2.65161E-12-4.67388E-14-6.76760E-08
 -1      6881-5.25663E-07-1.77776E-07 9.82801E-07 1.30806E-14-2.42282E-16 2.63309E-08
 -1      6882-5.25663E-07-1.77776E-07 9.82801E-07 1.30806E-14-3.63782E-23-7.01444E-22
 -1      6883-5.25663E-07-1.77776E-07 9.82801E-07 1.30806E-14 2.42282E-16-2.63309E-08
 -1      6884-3.26086E-07-1.77775E-07 7.83221E-07-6.81722E-13 1.22282E-14 1.93634E-08
 -1      6885-3.26086E-07-1.77775E-07 7.83221E-07-6.81722E-13-2.06144E-23-3.01296E-21
 -1      6886-3.26086E-07-1.77775E-07 7.83221E-07-6.81722E-13-1.22282E-14-1.93634E-08
 -1      6887-2.46702E-06-1.77774E-07 2.92416E-06-5.81467E-12 1.00893E-13 9.41110E-08
 -1      6888-2.46702E-06-1.77774E-07 2.92416E-06-5.81467E-12 4.58212E-22-1.09886E-20
 -1      6889-2.46702E-06-1.77774E-07 2.92416E-06-5.81467E-12-1.00893E-13-9.41110E-08
 -1      6890-3.30638E-07-1.77777E-07 7.87780E-07 4.32674E-13-7.54587E-15 1.95226E-08
 -1      6891-3.30638E-07-1.77777E-07 7.87780E-07 4.32674E-13-4.92149E-24-7.01392E-22
 -1      6892-3.30638E-07-1.77777E-07 7.87780E-07 4.32674E-13 7.54587E-15-1.95226E-08
 -1      6893-3.19165E-07-1.77776E-07 7.76303E-07 3.99624E-14-6.66627E-16 1.91218E-08
 -1      6894-3.19165E-07-1.77776E-07 7.76303E-07 3.99624E-14-2.37308E-22 1.36808E-21
 -1      6895-3.19165E-07-1.77776E-07 7.76303E-07 3.99624E-14 6.66626E-16-1.91218E-08
 -1      6896-2.71659E-06-1.77780E-07 3.17373E-06 2.49387E-12-4.33959E-14 1.02825E-07
 -1      6897-2.71659E-06-1.77780E-07 3.17373E-06 2.49387E-12 2.45942E-22 3.06386E-21
 -1      6898-2.71659E-06-1.77780E-07 3.17373E-06 2.49387E-12 4.33959E-14-1.02825E-07
 -1      6899-3.19763E-07-1.77776E-07 7.76900E-07 1.07644E-14-2.04314E-16 1.91426E-08
 -1      6900-3.19763E-07-1.77776E-07 7.76900E-07 1.07644E-14-4.66113E-23-3.66864E-22
 -1      6901-3.19763E-07-1.77776E-07 7.76900E-07 1.07644E-14 2.04314E-16-1.91426E-08
 -1      6902-3.21274E-07-1.77776E-07 7.78412E-07 4.72959E-14-7.85946E-16 1.91954E-08
 -1      6903-3.21274E-07-1.77776E-07 7.78412E-07 4.72959E-14-2.46072E-23 1.44696E-21
 -1      6904-3.21274E-07-1.77776E-07 7.78412E-07 4.72959E-14 7.85946E-16-1.91954E-08
 -1      6905-4.49467E-07-1.77776E-07 9.06606E-07 2.43259E-14-4.38807E-16 2.36708E-08
 -1      6906-4.49467E-07-1.77776E-07 9.06606E-07 2.43259E-14 1.07004E-22 3.82540E-21
 -1      6907-4.49467E-07-1.77776E-07 9.06606E-07 2.43259E-14 4.38808E-16-2.36708E-08
 -1      6908-7.18362E-07-1.77776E-07 1.17550E-06-2.20699E-14 3.84985E-16 3.30584E-08
 -1      6909-7.18362E-07-1.77776E-07 1.17550E-06-2.20699E-14 5.39159E-23 2.70307E-21
 -1      6910-7.18362E-07-1.77776E-07 1.17550E-06-2.20699E-14-3.84984E-16-3.30584E-08
 -1      6911-3.21609E-07-1.77776E-07 7.78746E-07 1.71154E-13-3.08577E-15 1.92071E-08
 -1      6912-3.21609E-07-1.77776E-07 7.78746E-07 1.71154E-13-1.05700E-22 1.70224E-21
 -1      6913-3.21609E-07-1.77776E-07 7.78746E-07 1.71154E-13 3.08577E-15-1.92071E-08
 -1      6914-4.86297E-07-1.77776E-07 9.43435E-07-4.57969E-14 7.84749E-16 2.49566E-08
 -1      6915-4.86297E-07-1.77776E-07 9.43435E-07-4.57969E-14-5.50629E-23 5.95984E-22
 -1      6916-4.86297E-07-1.77776E-07 9.43435E-07-4.57969E-14-7.84749E-16-2.49566E-08
 -1      6917-3.24979E-07-1.77775E-07 7.82113E-07 1.50271E-12-2.64862E-14 1.93247E-08
 -1      6918-3.24979E-07-1.77775E-07 7.82113E-07 1.50271E-12-1.33729E-22 2.81273E-21
 -1      6919-3.24979E-07-1.77775E-07 7.82113E-07 1.50271E-12 2.64862E-14-1.93247E-08
 -1      6920-5.90762E-07-1.77776E-07 1.04790E-06 2.56089E-15-5.86762E-17 2.86036E-08
 -1      6921-5.90762E-07-1.77776E-07 1.04790E-06 2.56089E-15 7.29967E-23-7.38919E-22
 -1      6922-5.90762E-07-1.77776E-07 1.04790E-06 2.56089E-15 5.86764E-17-2.86036E-08
 -1      6923-2.46992E-06-1.77771E-07 2.92705E-06-5.56531E-12 9.61893E-14 9.42117E-08
 -1      6924-2.46992E-06-1.77771E-07 2.92705E-06-5.56531E-12 4.28721E-22 5.54804E-21
 -1      6925-2.46992E-06-1.77771E-07 2.92705E-06-5.56531E-12-9.61893E-14-9.42117E-08
 -1      6926-2.71550E-06-1.77778E-07 3.17264E-06 1.13433E-12-1.97512E-14 1.02787E-07
 -1      6927-2.71550E-06-1.77778E-07 3.17264E-06 1.13433E-12-1.79961E-23-1.01367E-20
 -1      6928-2.71550E-06-1.77778E-07 3.17264E-06 1.13433E-12 1.97512E-14-1.02787E-07
 -1      6929-2.36600E-06-1.77775E-07 2.82314E-06 4.88786E-12-8.43332E-14 9.05843E-08
 -1      6930-2.36600E-06-1.77775E-07 2.82314E-06 4.88786E-12 7.02978E-23 5.02585E-21
 -1      6931-2.36600E-06-1.77775E-07 2.82314E-06 4.88786E-12 8.43332E-14-9.05843E-08
 -1      6932-2.12644E-06-1.77777E-07 2.58359E-06-2.04556E-13 4.24118E-15 8.22199E-08
 -1      6933-2.12644E-06-1.77777E-07 2.58359E-06-2.04556E-13 7.84353E-22 2.87254E-21
 -1      6934-2.12644E-06-1.77777E-07 2.58359E-06-2.04556E-13-4.24117E-15-8.22199E-08
 -1      6935-1.91839E-06-1.77774E-07 2.37553E-06-3.04693E-12 5.36354E-14 7.49557E-08
 -1      6936-1.91839E-06-1.77774E-07 2.37553E-06-3.04693E-12-2.12997E-22-8.11064E-22
 -1      6937-1.91839E-06-1.77774E-07 2.37553E-06-3.04693E-12-5.36354E-14-7.49557E-08
 -1      6938-1.73692E-06-1.77776E-07 2.19406E-06-3.39691E-12 5.94377E-14 6.86196E-08
 -1      6939-1.73692E-06-1.77776E-07 2.19406E-06-3.39691E-12-5.92502E-22-8.63823E-21
 -1      6940-1.73692E-06-1.77776E-07 2.19406E-06-3.39691E-12-5.94377E-14-6.86196E-08
 -1      6941-1.57781E-06-1.77774E-07 2.03495E-06-3.05787E-12 5.34472E-14 6.30645E-08
 -1      6942-1.57781E-06-1.77774E-07 2.03495E-06-3.05787E-12-1.79610E-22 3.26934E-22
 -1      6943-1.57781E-06-1.77774E-07 2.03495E-06-3.05787E-12-5.34472E-14-6.30645E-08
 -1      6944-1.43803E-06-1.77775E-07 1.89517E-06 4.12036E-13-7.23455E-15 5.81841E-08
 -1      6945-1.43803E-06-1.77775E-07 1.89517E-06 4.12036E-13-3.72210E-24-5.03372E-21
 -1      6946-1.43803E-06-1.77775E-07 1.89517E-06 4.12036E-13 7.23455E-15-5.81841E-08
 -1      6947-1.31317E-06-1.77775E-07 1.77030E-06 1.18256E-13-2.12043E-15 5.38246E-08
 -1      6948-1.31317E-06-1.77775E-07 1.77030E-06 1.18256E-13 5.30684E-23-3.89953E-21
 -1      6949-1.31317E-06-1.77775E-07 1.77030E-06 1.18256E-13 2.12043E-15-5.38246E-08
 -1      6950-1.20124E-06-1.77775E-07 1.65838E-06-1.72453E-13 2.95923E-15 4.99169E-08
 -1      6951-1.20124E-06-1.77775E-07 1.65838E-06-1.72453E-13 7.63126E-23 2.72059E-21
 -1      6952-1.20124E-06-1.77775E-07 1.65838E-06-1.72453E-13-2.95923E-15-4.99169E-08
 -1      6953-1.10089E-06-1.77775E-07 1.55802E-06-3.62081E-13 6.27461E-15 4.64133E-08
 -1      6954-1.10089E-06-1.77775E-07 1.55802E-06-3.62081E-13-8.86790E-22 3.96979E-21
 -1      6955-1.10089E-06-1.77775E-07 1.55802E-06-3.62081E-13-6.27461E-15-4.64133E-08
 -1      6956-1.01079E-06-1.77775E-07 1.46793E-06-3.12860E-13 5.42423E-15 4.32680E-08
 -1      6957-1.01079E-06-1.77775E-07 1.46793E-06-3.12860E-13-5.62852E-22-7.14808E-22
 -1      6958-1.01079E-06-1.77775E-07 1.46793E-06-3.12860E-13-5.42424E-15-4.32680E-08
 -1      6959-9.29643E-07-1.77775E-07 1.38678E-06-6.38655E-14 1.08849E-15 4.04347E-08
 -1      6960-9.29643E-07-1.77775E-07 1.38678E-06-6.38655E-14-2.90043E-22-3.24597E-21
 -1      6961-9.29643E-07-1.77775E-07 1.38678E-06-6.38655E-14-1.08849E-15-4.04347E-08
 -1      6962-8.56178E-07-1.77776E-07 1.31332E-06 4.81225E-14-8.60679E-16 3.78699E-08
 -1      6963-8.56178E-07-1.77776E-07 1.31332E-06 4.81225E-14-4.32382E-22-3.92022E-22
 -1      6964-8.56178E-07-1.77776E-07 1.31332E-06 4.81225E-14 8.60678E-16-3.78699E-08
 -1      6965-7.89381E-07-1.77776E-07 1.24652E-06-8.15818E-14 1.40311E-15 3.55379E-08
 -1      6966-7.89381E-07-1.77776E-07 1.24652E-06-8.15818E-14-4.20193E-22-1.47517E-21
 -1      6967-7.89381E-07-1.77776E-07 1.24652E-06-8.15818E-14-1.40311E-15-3.55379E-08
 -1      6968-7.28502E-07-1.77776E-07 1.18564E-06-2.12344E-13 3.68208E-15 3.34124E-08
 -1      6969-7.28502E-07-1.77776E-07 1.18564E-06-2.12344E-13 4.58554E-23 3.96025E-21
 -1      6970-7.28502E-07-1.77776E-07 1.18564E-06-2.12344E-13-3.68208E-15-3.34124E-08
 -1      6971-6.72937E-07-1.77776E-07 1.13008E-06-2.26881E-13 3.93113E-15 3.14726E-08
 -1      6972-6.72937E-07-1.77776E-07 1.13008E-06-2.26881E-13-4.06427E-22-4.20108E-21
 -1      6973-6.72937E-07-1.77776E-07 1.13008E-06-2.26881E-13-3.93113E-15-3.14726E-08
 -1      6974-6.22143E-07-1.77776E-07 1.07928E-06-1.76608E-13 3.05224E-15 2.96992E-08
 -1      6975-6.22143E-07-1.77776E-07 1.07928E-06-1.76608E-13 2.46740E-22-5.23421E-23
 -1      6976-6.22143E-07-1.77776E-07 1.07928E-06-1.76608E-13-3.05224E-15-2.96992E-08
 -1      6977-5.75630E-07-1.77776E-07 1.03277E-06-6.11156E-14 1.04766E-15 2.80754E-08
 -1      6978-5.75630E-07-1.77776E-07 1.03277E-06-6.11157E-14 2.55407E-22-5.44057E-22
 -1      6979-5.75630E-07-1.77776E-07 1.03277E-06-6.11157E-14-1.04766E-15-2.80754E-08
 -1      6980-5.32933E-07-1.77776E-07 9.90071E-07 2.16589E-13-3.76688E-15 2.65847E-08
 -1      6981-5.32933E-07-1.77776E-07 9.90071E-07 2.16589E-13 7.35954E-23 7.89348E-22
 -1      6982-5.32933E-07-1.77776E-07 9.90071E-07 2.16589E-13 3.76688E-15-2.65847E-08
 -1      6983-4.93501E-07-1.77776E-07 9.50639E-07 1.56171E-13-2.71853E-15 2.52081E-08
 -1      6984-4.93501E-07-1.77776E-07 9.50639E-07 1.56171E-13-3.27861E-22 2.64505E-22
 -1      6985-4.93501E-07-1.77776E-07 9.50639E-07 1.56171E-13 2.71853E-15-2.52081E-08
 -1      6986-4.57043E-07-1.77776E-07 9.14181E-07-6.78569E-13 1.17629E-14 2.39353E-08
 -1      6987-4.57043E-07-1.77776E-07 9.14181E-07-6.78569E-13-3.98953E-22-2.71219E-21
 -1      6988-4.57043E-07-1.77776E-07 9.14181E-07-6.78569E-13-1.17629E-14-2.39353E-08
 -1      6989-4.23998E-07-1.77776E-07 8.81138E-07-7.94078E-13 1.37800E-14 2.27816E-08
 -1      6990-4.23998E-07-1.77776E-07 8.81138E-07-7.94078E-13 2.33326E-22 2.72064E-21
 -1      6991-4.23998E-07-1.77776E-07 8.81138E-07-7.94078E-13-1.37800E-14-2.27816E-08
 -1      6992-3.94564E-07-1.77777E-07 8.51703E-07 2.09412E-12-3.63039E-14 2.17540E-08
 -1      6993-3.94564E-07-1.77777E-07 8.51703E-07 2.09412E-12 1.49658E-22 6.01755E-23
 -1      6994-3.94564E-07-1.77777E-07 8.51703E-07 2.09412E-12 3.63039E-14-2.17540E-08
 -1      6995-3.65891E-07-1.77777E-07 8.23033E-07-9.35854E-13 1.65693E-14 2.07531E-08
 -1      6996-3.65891E-07-1.77777E-07 8.23033E-07-9.35854E-13 2.58943E-22-1.09216E-21
 -1      6997-3.65891E-07-1.77777E-07 8.23033E-07-9.35854E-13-1.65692E-14-2.07531E-08
 -1      6998-3.35734E-07-1.77778E-07 7.92880E-07-4.90998E-13 8.19515E-15 1.97005E-08
 -1      6999-3.35734E-07-1.77778E-07 7.92880E-07-4.90998E-13-1.69266E-22 9.35092E-22
 -1      7000-3.35734E-07-1.77778E-07 7.92880E-07-4.90998E-13-8.19515E-15-1.97005E-08
 -1      7001-3.22982E-07-1.77776E-07 7.80119E-07-1.84968E-13 3.27764E-15 1.92550E-08
 -1      7002-3.22982E-07-1.77776E-07 7.80119E-07-1.84968E-13-2.84218E-22 3.60679E-21
 -1      7003-3.22982E-07-1.77776E-07 7.80119E-07-1.84968E-13-3.27764E-15-1.92550E-08
 -1      7004-6.38494E-07-1.77776E-07 1.09563E-06-4.55093E-14 7.87495E-16 3.02700E-08
 -1      7005-6.38494E-07-1.77776E-07 1.09563E-06-4.55093E-14-1.51330E-22-4.00106E-22
 -1      7006-6.38494E-07-1.77776E-07 1.09563E-06-4.55093E-14-7.87495E-16-3.02700E-08
 -1      7007-2.45804E-06-1.77778E-07 2.91518E-06-1.59849E-12 2.84351E-14 9.37969E-08
 -1      7008-2.45804E-06-1.77778E-07 2.91518E-06-1.59849E-12 3.35134E-22 5.77449E-21
 -1      7009-2.45804E-06-1.77778E-07 2.91518E-06-1.59849E-12-2.84351E-14-9.37969E-08
 -1      7010-3.20152E-07-1.77776E-07 7.77290E-07-5.72687E-14 1.03850E-15 1.91562E-08
 -1      7011-3.20152E-07-1.77776E-07 7.77290E-07-5.72688E-14-1.18963E-22-2.17192E-22
 -1      7012-3.20152E-07-1.77776E-07 7.77290E-07-5.72688E-14-1.03850E-15-1.91562E-08
 -1      7013-1.13038E-06-1.77776E-07 1.58752E-06 6.13461E-13-1.07298E-14 4.74431E-08
 -1      7014-1.13038E-06-1.77776E-07 1.58752E-06 6.13461E-13 4.22865E-23 2.52633E-21
 -1      7015-1.13038E-06-1.77776E-07 1.58752E-06 6.13461E-13 1.07298E-14-4.74431E-08
 -1      7016-2.46648E-06-1.77758E-07 2.92358E-06 9.70979E-12-1.68112E-13 9.40912E-08
 -1      7017-2.46648E-06-1.77758E-07 2.92358E-06 9.70979E-12 8.55441E-23 1.61551E-20
 -1      7018-2.46648E-06-1.77758E-07 2.92358E-06 9.70979E-12 1.68112E-13-9.40912E-08
 -1      7019-8.09858E-07-1.77776E-07 1.26700E-06 2.36794E-14-3.99941E-16 3.62527E-08
 -1      7020-8.09858E-07-1.77776E-07 1.26700E-06 2.36794E-14-9.51531E-23 8.04790E-22
 -1      7021-8.09858E-07-1.77776E-07 1.26700E-06 2.36794E-14 3.99941E-16-3.62527E-08
 -1      7022-3.98311E-07-1.77776E-07 8.55450E-07 1.01817E-13-1.81767E-15 2.18849E-08
 -1      7023-3.98311E-07-1.77776E-07 8.55450E-07 1.01817E-13-9.79355E-23 1.19985E-21
 -1      7024-3.98311E-07-1.77776E-07 8.55450E-07 1.01817E-13 1.81767E-15-2.18849E-08
 -1      7025-2.00461E-06-1.77788E-07 2.46175E-06-2.26506E-11 3.98885E-13 7.79664E-08
 -1      7026-2.00461E-06-1.77788E-07 2.46175E-06-2.26506E-11-8.64084E-23 3.28230E-21
 -1      7027-2.00461E-06-1.77788E-07 2.46175E-06-2.26506E-11-3.98885E-13-7.79664E-08
 -1      7028-1.41405E-06-1.77776E-07 1.87119E-06-6.51484E-13 1.14040E-14 5.73469E-08
 -1      7029-1.41405E-06-1.77776E-07 1.87119E-06-6.51484E-13 3.52224E-22 1.39254E-21
 -1      7030-1.41405E-06-1.77776E-07 1.87119E-06-6.51484E-13-1.14040E-14-5.73469E-08
 -1      7031-2.42302E-06-1.77772E-07 2.88016E-06 9.19163E-12-1.58754E-13 9.25746E-08
 -1      7032-2.42302E-06-1.77772E-07 2.88016E-06 9.19163E-12 5.72666E-22-3.60587E-21
 -1      7033-2.42302E-06-1.77772E-07 2.88016E-06 9.19163E-12 1.58754E-13-9.25746E-08
 -1      7034-3.65231E-07-1.77777E-07 8.22373E-07 8.77448E-13-1.53244E-14 2.07302E-08
 -1      7035-3.65231E-07-1.77777E-07 8.22373E-07 8.77448E-13-3.99254E-23-3.19863E-21
 -1      7036-3.65231E-07-1.77777E-07 8.22373E-07 8.77448E-13 1.53244E-14-2.07302E-08
 -1      7037-2.45714E-06-1.77735E-07 2.91422E-06 1.36916E-11-2.35670E-13 9.37643E-08
 -1      7038-2.45714E-06-1.77735E-07 2.91422E-06 1.36916E-11-1.14663E-23-7.07979E-21
 -1      7039-2.45714E-06-1.77735E-07 2.91422E-06 1.36916E-11 2.35670E-13-9.37643E-08
 -1      7040-2.26284E-06-1.77736E-07 2.71987E-06 1.38533E-11-2.40827E-13 8.69777E-08
 -1      7041-2.26284E-06-1.77736E-07 2.71987E-06 1.38533E-11 2.04063E-23 7.25078E-24
 -1      7042-2.26284E-06-1.77736E-07 2.71987E-06 1.38533E-11 2.40827E-13-8.69777E-08
 -1      7043-2.46159E-06-1.77778E-07 2.91873E-06-2.77351E-12 4.82090E-14 9.39216E-08
 -1      7044-2.46159E-06-1.77778E-07 2.91873E-06-2.77351E-12 2.00341E-22-4.80537E-22
 -1      7045-2.46159E-06-1.77778E-07 2.91873E-06-2.77351E-12-4.82090E-14-9.39216E-08
 -1      7046-6.90527E-07-1.77776E-07 1.14767E-06-2.66988E-14 4.64958E-16 3.20866E-08
 -1      7047-6.90527E-07-1.77776E-07 1.14767E-06-2.66988E-14-6.26223E-23-4.25227E-22
 -1      7048-6.90527E-07-1.77776E-07 1.14767E-06-2.66988E-14-4.64958E-16-3.20866E-08
 -1      7049-5.46823E-07-1.77776E-07 1.00396E-06 5.87627E-14-1.04697E-15 2.70696E-08
 -1      7050-5.46823E-07-1.77776E-07 1.00396E-06 5.87627E-14 1.08970E-22-4.00228E-21
 -1      7051-5.46823E-07-1.77776E-07 1.00396E-06 5.87627E-14 1.04697E-15-2.70696E-08
 -1      7052-1.23375E-06-1.77776E-07 1.69089E-06 8.97324E-13-1.57113E-14 5.10518E-08
 -1      7053-1.23375E-06-1.77776E-07 1.69089E-06 8.97324E-13-1.38666E-22 3.21622E-21
 -1      7054-1.23375E-06-1.77776E-07 1.69089E-06 8.97324E-13 1.57113E-14-5.10518E-08
 -1      7055-7.47443E-07-1.77776E-07 1.20458E-06-6.48560E-14 1.13673E-15 3.40737E-08
 -1      7056-7.47443E-07-1.77776E-07 1.20458E-06-6.48559E-14 1.07048E-24-1.14468E-21
 -1      7057-7.47443E-07-1.77776E-07 1.20458E-06-6.48559E-14-1.13673E-15-3.40737E-08
 -1      7058-3.19458E-07-1.77776E-07 7.76596E-07-4.07649E-14 7.59971E-16 1.91320E-08
 -1      7059-3.19458E-07-1.77776E-07 7.76596E-07-4.07649E-14-1.60526E-22-2.49682E-21
 -1      7060-3.19458E-07-1.77776E-07 7.76596E-07-4.07649E-14-7.59971E-16-1.91320E-08
 -1      7061-1.55314E-06-1.77776E-07 2.01028E-06-1.46016E-12 2.56411E-14 6.22030E-08
 -1      7062-1.55314E-06-1.77776E-07 2.01028E-06-1.46016E-12-2.85365E-22-2.45047E-21
 -1      7063-1.55314E-06-1.77776E-07 2.01028E-06-1.46016E-12-2.56411E-14-6.22030E-08
 -1      7064-2.44412E-06-1.77787E-07 2.90133E-06 5.01313E-11-8.71747E-13 9.33140E-08
 -1      7065-2.44412E-06-1.77787E-07 2.90133E-06 5.01313E-11 1.10998E-23-3.17060E-21
 -1      7066-2.44412E-06-1.77787E-07 2.90133E-06 5.01313E-11 8.71747E-13-9.33140E-08
 -1      7067-2.45157E-06-1.77741E-07 2.90872E-06-6.26696E-11 1.08871E-12 9.35728E-08
 -1      7068-2.45157E-06-1.77741E-07 2.90872E-06-6.26696E-11 4.31380E-22-6.84970E-21
 -1      7069-2.45157E-06-1.77741E-07 2.90872E-06-6.26696E-11-1.08871E-12-9.35728E-08
 -1      7070-9.54177E-07-1.77776E-07 1.41132E-06-2.49616E-13 4.37343E-15 4.12913E-08
 -1      7071-9.54177E-07-1.77776E-07 1.41132E-06-2.49616E-13 7.32179E-23 1.97164E-21
 -1      7072-9.54177E-07-1.77776E-07 1.41132E-06-2.49616E-13-4.37342E-15-4.12913E-08
 -1      7073-1.80464E-06-1.77780E-07 2.26178E-06-9.31153E-12 1.63580E-13 7.09844E-08
 -1      7074-1.80464E-06-1.77780E-07 2.26178E-06-9.31153E-12-5.28580E-23 2.25351E-21
 -1      7075-1.80464E-06-1.77780E-07 2.26178E-06-9.31153E-12-1.63580E-13-7.09844E-08
 -1      7076-2.45795E-06-1.77779E-07 2.91510E-06-1.03408E-12 1.80365E-14 9.37949E-08
 -1      7077-2.45795E-06-1.77779E-07 2.91510E-06-1.03408E-12 6.23647E-22 7.30754E-21
 -1      7078-2.45795E-06-1.77779E-07 2.91510E-06-1.03408E-12-1.80365E-14-9.37949E-08
 -1      7079-3.52929E-07-1.77778E-07 8.10067E-07-4.57731E-13 7.82538E-15 2.03005E-08
 -1      7080-3.52929E-07-1.77778E-07 8.10067E-07-4.57731E-13-1.99000E-23 3.64779E-21
 -1      7081-3.52929E-07-1.77778E-07 8.10067E-07-4.57731E-13-7.82538E-15-2.03005E-08
 -1      7082-3.42887E-07-1.77776E-07 8.00024E-07 1.70307E-13-3.02538E-15 1.99499E-08
 -1      7083-3.42887E-07-1.77776E-07 8.00024E-07 1.70307E-13-4.95279E-23 1.93338E-22
 -1      7084-3.42887E-07-1.77776E-07 8.00024E-07 1.70307E-13 3.02538E-15-1.99499E-08
 -1      7085-1.03774E-06-1.77776E-07 1.49488E-06-9.14460E-14 1.60216E-15 4.42086E-08
 -1      7086-1.03774E-06-1.77776E-07 1.49488E-06-9.14460E-14 6.63577E-23-9.60747E-22
 -1      7087-1.03774E-06-1.77776E-07 1.49488E-06-9.14460E-14-1.60216E-15-4.42086E-08
 -1      7088-2.46030E-06-1.77788E-07 2.91746E-06 6.30927E-12-1.10045E-13 9.38768E-08
 -1      7089-2.46030E-06-1.77788E-07 2.91746E-06 6.30927E-12 2.03004E-23 1.06821E-20
 -1      7090-2.46030E-06-1.77788E-07 2.91746E-06 6.30927E-12 1.10045E-13-9.38768E-08
 -1      7091-3.52931E-07-1.77777E-07 8.10070E-07-4.86228E-13 8.08777E-15 2.03007E-08
 -1      7092-3.52931E-07-1.77777E-07 8.10070E-07-4.86228E-13-2.78056E-22 1.08298E-21
 -1      7093-3.52931E-07-1.77777E-07 8.10070E-07-4.86228E-13-8.08777E-15-2.03007E-08
 -1      7094-2.23763E-06-1.77774E-07 2.69477E-06-4.48054E-12 7.78306E-14 8.61021E-08
 -1      7095-2.23763E-06-1.77774E-07 2.69477E-06-4.48054E-12-1.69570E-22 1.44279E-21
 -1      7096-2.23763E-06-1.77774E-07 2.69477E-06-4.48054E-12-7.78306E-14-8.61021E-08
 -1      7097-4.32435E-07-1.77776E-07 8.89574E-07-3.00001E-14 4.77348E-16 2.30762E-08
 -1      7098-4.32435E-07-1.77776E-07 8.89574E-07-3.00001E-14 1.04280E-22-1.30131E-21
 -1      7099-4.32435E-07-1.77776E-07 8.89574E-07-3.00001E-14-4.77348E-16-2.30762E-08
 -1      7100-3.46093E-07-1.77776E-07 8.03232E-07 7.77564E-13-1.35391E-14 2.00619E-08
 -1      7101-3.46093E-07-1.77776E-07 8.03232E-07 7.77564E-13-1.79746E-22 1.61707E-21
 -1      7102-3.46093E-07-1.77776E-07 8.03232E-07 7.77564E-13 1.35391E-14-2.00619E-08
 -1      7103-2.24660E-06-1.77781E-07 2.70376E-06-6.05514E-12 1.04768E-13 8.64153E-08
 -1      7104-2.24660E-06-1.77781E-07 2.70376E-06-6.05514E-12 5.62773E-22 1.82004E-20
 -1      7105-2.24660E-06-1.77781E-07 2.70376E-06-6.05514E-12-1.04767E-13-8.64153E-08
 -1      7106-9.95004E-07-1.77776E-07 1.45214E-06-6.16398E-13 1.07959E-14 4.27166E-08
 -1      7107-9.95004E-07-1.77776E-07 1.45214E-06-6.16398E-13-1.01884E-22 3.62100E-21
 -1      7108-9.95004E-07-1.77776E-07 1.45214E-06-6.16398E-13-1.07959E-14-4.27166E-08
 -1      7109-3.43021E-07-1.77776E-07 8.00160E-07-2.30574E-14 4.77600E-16 1.99546E-08
 -1      7110-3.43021E-07-1.77776E-07 8.00160E-07-2.30574E-14-4.84479E-23 4.18591E-22
 -1      7111-3.43021E-07-1.77776E-07 8.00160E-07-2.30574E-14-4.77600E-16-1.99546E-08
 -1      7112-3.41902E-07-1.77776E-07 7.99040E-07-2.20540E-14 4.69723E-16 1.99155E-08
 -1      7113-3.41902E-07-1.77776E-07 7.99040E-07-2.20540E-14-2.28294E-22-2.06750E-21
 -1      7114-3.41902E-07-1.77776E-07 7.99040E-07-2.20540E-14-4.69723E-16-1.99155E-08
 -1      7115-2.45789E-06-1.77777E-07 2.91503E-06-6.78608E-13 1.19770E-14 9.37925E-08
 -1      7116-2.45789E-06-1.77777E-07 2.91503E-06-6.78608E-13-4.43890E-22-3.93880E-21
 -1      7117-2.45789E-06-1.77777E-07 2.91503E-06-6.78608E-13-1.19770E-14-9.37925E-08
 -1      7118-2.18531E-06-1.77775E-07 2.64245E-06 9.63201E-13-1.55531E-14 8.42749E-08
 -1      7119-2.18531E-06-1.77775E-07 2.64245E-06 9.63201E-13-2.32934E-22-3.40250E-21
 -1      7120-2.18531E-06-1.77775E-07 2.64245E-06 9.63201E-13 1.55531E-14-8.42749E-08
 -1      7121-8.78530E-07-1.77776E-07 1.33567E-06-1.40020E-13 2.45774E-15 3.86502E-08
 -1      7122-8.78530E-07-1.77776E-07 1.33567E-06-1.40020E-13-2.38775E-23-5.19351E-21
 -1      7123-8.78530E-07-1.77776E-07 1.33567E-06-1.40020E-13-2.45774E-15-3.86502E-08
 -1      7124-1.97529E-06-1.77778E-07 2.43244E-06-4.65197E-12 8.24762E-14 7.69422E-08
 -1      7125-1.97529E-06-1.77778E-07 2.43244E-06-4.65197E-12-9.70636E-23 1.02088E-20
 -1      7126-1.97529E-06-1.77778E-07 2.43244E-06-4.65197E-12-8.24762E-14-7.69422E-08
 -1      7127-1.79058E-06-1.77772E-07 2.24771E-06-2.88522E-12 5.09137E-14 7.04928E-08
 -1      7128-1.79058E-06-1.77772E-07 2.24771E-06-2.88522E-12 2.91672E-22 4.32870E-21
 -1      7129-1.79058E-06-1.77772E-07 2.24771E-06-2.88522E-12-5.09137E-14-7.04928E-08
 -1      7130-1.62577E-06-1.77777E-07 2.08291E-06-7.34084E-12 1.28527E-13 6.47388E-08
 -1      7131-1.62577E-06-1.77777E-07 2.08291E-06-7.34084E-12 7.74214E-22 6.89218E-21
 -1      7132-1.62577E-06-1.77777E-07 2.08291E-06-7.34084E-12-1.28527E-13-6.47388E-08
 -1      7133-1.48226E-06-1.77776E-07 1.93940E-06 2.48713E-12-4.34719E-14 5.97283E-08
 -1      7134-1.48226E-06-1.77776E-07 1.93940E-06 2.48713E-12 4.59686E-22 1.03012E-20
 -1      7135-1.48226E-06-1.77776E-07 1.93940E-06 2.48713E-12 4.34719E-14-5.97283E-08
 -1      7136-1.35263E-06-1.77775E-07 1.80977E-06 8.79244E-13-1.54212E-14 5.52026E-08
 -1      7137-1.35263E-06-1.77775E-07 1.80977E-06 8.79244E-13-2.28834E-22 9.03639E-23
 -1      7138-1.35263E-06-1.77775E-07 1.80977E-06 8.79244E-13 1.54212E-14-5.52026E-08
 -1      7139-1.23602E-06-1.77775E-07 1.69316E-06 3.51164E-13-6.15473E-15 5.11314E-08
 -1      7140-1.23602E-06-1.77775E-07 1.69316E-06 3.51164E-13 3.79654E-22-1.60045E-21
 -1      7141-1.23602E-06-1.77775E-07 1.69316E-06 3.51164E-13 6.15474E-15-5.11314E-08
 -1      7142-1.13163E-06-1.77775E-07 1.58877E-06-3.39260E-13 5.91160E-15 4.74867E-08
 -1      7143-1.13163E-06-1.77775E-07 1.58877E-06-3.39260E-13 7.15858E-22 4.34487E-21
 -1      7144-1.13163E-06-1.77775E-07 1.58877E-06-3.39260E-13-5.91159E-15-4.74867E-08
 -1      7145-1.03819E-06-1.77775E-07 1.49533E-06-5.68291E-13 9.91242E-15 4.42245E-08
 -1      7146-1.03819E-06-1.77775E-07 1.49533E-06-5.68291E-13 1.07607E-22 1.99885E-21
 -1      7147-1.03819E-06-1.77775E-07 1.49533E-06-5.68291E-13-9.91242E-15-4.42245E-08
 -1      7148-9.54329E-07-1.77775E-07 1.41147E-06-1.66506E-13 2.91011E-15 4.12966E-08
 -1      7149-9.54329E-07-1.77775E-07 1.41147E-06-1.66506E-13 7.08286E-22-5.71620E-21
 -1      7150-9.54329E-07-1.77775E-07 1.41147E-06-1.66506E-13-2.91010E-15-4.12966E-08
 -1      7151-8.78596E-07-1.77775E-07 1.33573E-06 2.35946E-13-4.10512E-15 3.86526E-08
 -1      7152-8.78596E-07-1.77775E-07 1.33573E-06 2.35946E-13-5.68347E-23 1.43385E-21
 -1      7153-8.78596E-07-1.77775E-07 1.33573E-06 2.35946E-13 4.10512E-15-3.86526E-08
 -1      7154-8.09763E-07-1.77776E-07 1.26690E-06 2.58752E-15-3.09499E-17 3.62494E-08
 -1      7155-8.09763E-07-1.77776E-07 1.26690E-06 2.58753E-15 5.98445E-22 1.57739E-21
 -1      7156-8.09763E-07-1.77776E-07 1.26690E-06 2.58753E-15 3.09511E-17-3.62494E-08
 -1      7157-7.47003E-07-1.77776E-07 1.20414E-06-2.91651E-13 5.09926E-15 3.40584E-08
 -1      7158-7.47003E-07-1.77776E-07 1.20414E-06-2.91651E-13-9.77027E-23-3.03114E-21
 -1      7159-7.47003E-07-1.77776E-07 1.20414E-06-2.91651E-13-5.09926E-15-3.40584E-08
 -1      7160-6.89731E-07-1.77776E-07 1.14687E-06-3.21316E-13 5.60454E-15 3.20589E-08
 -1      7161-6.89731E-07-1.77776E-07 1.14687E-06-3.21316E-13 9.71807E-22-1.69513E-21
 -1      7162-6.89731E-07-1.77776E-07 1.14687E-06-3.21316E-13-5.60453E-15-3.20589E-08
 -1      7163-6.37391E-07-1.77776E-07 1.09453E-06-2.60649E-13 4.53000E-15 3.02316E-08
 -1      7164-6.37391E-07-1.77776E-07 1.09453E-06-2.60649E-13-1.00688E-22-6.10421E-21
 -1      7165-6.37391E-07-1.77776E-07 1.09453E-06-2.60649E-13-4.53000E-15-3.02316E-08
 -1      7166-5.89499E-07-1.77776E-07 1.04664E-06-2.13204E-13 3.69273E-15 2.85596E-08
 -1      7167-5.89499E-07-1.77776E-07 1.04664E-06-2.13204E-13-2.84422E-22 4.34316E-21
 -1      7168-5.89499E-07-1.77776E-07 1.04664E-06-2.13204E-13-3.69273E-15-2.85596E-08
 -1      7169-5.45697E-07-1.77776E-07 1.00283E-06-1.19695E-14 2.06031E-16 2.70303E-08
 -1      7170-5.45697E-07-1.77776E-07 1.00283E-06-1.19695E-14-1.40268E-22-1.91792E-21
 -1      7171-5.45697E-07-1.77776E-07 1.00283E-06-1.19695E-14-2.06031E-16-2.70303E-08
 -1      7172-5.05583E-07-1.77776E-07 9.62721E-07 7.82109E-13-1.35298E-14 2.56299E-08
 -1      7173-5.05583E-07-1.77776E-07 9.62721E-07 7.82109E-13-1.26647E-22-3.42262E-21
 -1      7174-5.05583E-07-1.77776E-07 9.62721E-07 7.82109E-13 1.35298E-14-2.56299E-08
 -1      7175-4.68122E-07-1.77776E-07 9.25261E-07-4.95118E-13 8.72630E-15 2.43221E-08
 -1      7176-4.68122E-07-1.77776E-07 9.25261E-07-4.95118E-13 2.10769E-22 3.11946E-21
 -1      7177-4.68122E-07-1.77776E-07 9.25261E-07-4.95118E-13-8.72630E-15-2.43221E-08
 -1      7178-4.33026E-07-1.77777E-07 8.90163E-07-3.03639E-12 5.26342E-14 2.30968E-08
 -1      7179-4.33026E-07-1.77777E-07 8.90163E-07-3.03639E-12 1.36179E-22-1.17621E-21
 -1      7180-4.33026E-07-1.77777E-07 8.90163E-07-3.03639E-12-5.26342E-14-2.30968E-08
 -1      7181-4.02461E-07-1.77774E-07 8.59596E-07 4.52073E-12-7.94920E-14 2.20297E-08
 -1      7182-4.02461E-07-1.77774E-07 8.59596E-07 4.52073E-12-3.04508E-23-1.94036E-21
 -1      7183-4.02461E-07-1.77774E-07 8.59596E-07 4.52073E-12 7.94920E-14-2.20297E-08
 -1      7184-3.48410E-07-1.77776E-07 8.05548E-07 3.06870E-14-5.68900E-16 2.01428E-08
 -1      7185-3.48410E-07-1.77776E-07 8.05548E-07 3.06870E-14 5.64159E-22-4.71914E-21
 -1      7186-3.48410E-07-1.77776E-07 8.05548E-07 3.06870E-14 5.68901E-16-2.01428E-08
 -1      7187-3.46425E-07-1.77775E-07 8.03561E-07 2.92478E-13-5.28526E-15 2.00734E-08
 -1      7188-3.46425E-07-1.77775E-07 8.03561E-07 2.92478E-13 1.60161E-22 8.92149E-22
 -1      7189-3.46425E-07-1.77775E-07 8.03561E-07 2.92478E-13 5.28526E-15-2.00734E-08
 -1      7190-6.14251E-07-1.77776E-07 1.07139E-06-1.20027E-13 2.07958E-15 2.94236E-08
 -1      7191-6.14251E-07-1.77776E-07 1.07139E-06-1.20027E-13-1.44218E-22-6.66522E-22
 -1      7192-6.14251E-07-1.77776E-07 1.07139E-06-1.20027E-13-2.07958E-15-2.94236E-08
 -1      7193-2.25585E-06-1.77756E-07 2.71296E-06-1.27645E-11 2.20237E-13 8.67366E-08
 -1      7194-2.25585E-06-1.77756E-07 2.71296E-06-1.27645E-11-1.13694E-22 1.18763E-20
 -1      7195-2.25585E-06-1.77756E-07 2.71296E-06-1.27645E-11-2.20237E-13-8.67366E-08
 -1      7196-3.44386E-07-1.77776E-07 8.01524E-07 1.83893E-14-2.71692E-16 2.00023E-08
 -1      7197-3.44386E-07-1.77776E-07 8.01524E-07 1.83893E-14-1.44020E-22 1.51223E-21
 -1      7198-3.44386E-07-1.77776E-07 8.01524E-07 1.83893E-14 2.71692E-16-2.00023E-08
 -1      7199-1.08285E-06-1.77775E-07 1.53999E-06-6.80588E-14 1.19750E-15 4.57834E-08
 -1      7200-1.08285E-06-1.77775E-07 1.53999E-06-6.80588E-14-4.23664E-23-8.26972E-21
 -1      7201-1.08285E-06-1.77775E-07 1.53999E-06-6.80588E-14-1.19750E-15-4.57834E-08
 -1      7202-2.45705E-06-1.77777E-07 2.91420E-06 6.90987E-13-1.20501E-14 9.37634E-08
 -1      7203-2.45705E-06-1.77777E-07 2.91420E-06 6.90987E-13-3.96432E-22 5.13738E-22
 -1      7204-2.45705E-06-1.77777E-07 2.91420E-06 6.90987E-13 1.20501E-14-9.37634E-08
 -1      7205-2.25745E-06-1.77769E-07 2.71452E-06-1.67234E-11 2.90213E-13 8.67919E-08
 -1      7206-2.25745E-06-1.77769E-07 2.71452E-06-1.67234E-11-1.89950E-22-5.94382E-21
 -1      7207-2.25745E-06-1.77769E-07 2.71452E-06-1.67234E-11-2.90213E-13-8.67919E-08
 -1      7208-2.23545E-06-1.77799E-07 2.69266E-06-2.92401E-11 5.09516E-13 8.60272E-08
 -1      7209-2.23545E-06-1.77799E-07 2.69266E-06-2.92401E-11-3.70762E-22-6.97875E-21
 -1      7210-2.23545E-06-1.77799E-07 2.69266E-06-2.92401E-11-5.09516E-13-8.60272E-08
 -1      7211-2.22600E-06-1.77784E-07 2.68314E-06 5.13240E-11-8.91414E-13 8.56959E-08
 -1      7212-2.22600E-06-1.77784E-07 2.68314E-06 5.13240E-11-1.50376E-22 9.66418E-21
 -1      7213-2.22600E-06-1.77784E-07 2.68314E-06 5.13240E-11 8.91414E-13-8.56959E-08
 -1      7214-2.23505E-06-1.77770E-07 2.69218E-06 2.71280E-11-4.70401E-13 8.60106E-08
 -1      7215-2.23505E-06-1.77770E-07 2.69218E-06 2.71280E-11 3.64352E-23-2.20080E-22
 -1      7216-2.23505E-06-1.77770E-07 2.69218E-06 2.71280E-11 4.70401E-13-8.60106E-08
 -1      7217-4.17024E-07-1.77776E-07 8.74163E-07 6.14116E-14-1.18757E-15 2.25382E-08
 -1      7218-4.17024E-07-1.77776E-07 8.74163E-07 6.14116E-14 1.14923E-23-5.38653E-21
 -1      7219-4.17024E-07-1.77776E-07 8.74163E-07 6.14116E-14 1.18757E-15-2.25382E-08
 -1      7220-3.41639E-07-1.77776E-07 7.98777E-07 3.77599E-14-6.12925E-16 1.99063E-08
 -1      7221-3.41639E-07-1.77776E-07 7.98777E-07 3.77599E-14-1.36140E-23 2.22994E-22
 -1      7222-3.41639E-07-1.77776E-07 7.98777E-07 3.77599E-14 6.12925E-16-1.99063E-08
 -1      7223-2.23209E-06-1.77781E-07 2.68924E-06-3.86297E-13 6.73202E-15 8.59089E-08
 -1      7224-2.23209E-06-1.77781E-07 2.68924E-06-3.86297E-13-7.18800E-23 5.19556E-21
 -1      7225-2.23209E-06-1.77781E-07 2.68924E-06-3.86297E-13-6.73202E-15-8.59089E-08
 -1      7226-1.34992E-06-1.77777E-07 1.80706E-06-3.65706E-13 6.34659E-15 5.51080E-08
 -1      7227-1.34992E-06-1.77777E-07 1.80706E-06-3.65706E-13-1.20499E-22-2.27008E-21
 -1      7228-1.34992E-06-1.77777E-07 1.80706E-06-3.65706E-13-6.34659E-15-5.51080E-08
 -1      7229-6.63907E-07-1.77776E-07 1.12105E-06-8.20661E-14 1.42942E-15 3.11572E-08
 -1      7230-6.63907E-07-1.77776E-07 1.12105E-06-8.20661E-14 6.70472E-23 1.30574E-21
 -1      7231-6.63907E-07-1.77776E-07 1.12105E-06-8.20661E-14-1.42942E-15-3.11572E-08
 -1      7232-5.06175E-07-1.77776E-07 9.63313E-07-5.94865E-14 1.00702E-15 2.56506E-08
 -1      7233-5.06175E-07-1.77776E-07 9.63313E-07-5.94865E-14 1.10414E-22 6.13402E-22
 -1      7234-5.06175E-07-1.77776E-07 9.63313E-07-5.94865E-14-1.00702E-15-2.56506E-08
 -1      7235-4.68247E-07-1.77776E-07 9.25386E-07-1.71494E-13 2.95466E-15 2.43265E-08
 -1      7236-4.68247E-07-1.77776E-07 9.25386E-07-1.71494E-13-8.53555E-23-1.93767E-21
 -1      7237-4.68247E-07-1.77776E-07 9.25386E-07-1.71494E-13-2.95466E-15-2.43265E-08
 -1      7238-9.15406E-07-1.77776E-07 1.37254E-06-2.81744E-13 4.95059E-15 3.99376E-08
 -1      7239-9.15406E-07-1.77776E-07 1.37254E-06-2.81744E-13 9.54454E-23 7.20176E-22
 -1      7240-9.15406E-07-1.77776E-07 1.37254E-06-2.81744E-13-4.95059E-15-3.99376E-08
 -1      7241-1.18011E-06-1.77775E-07 1.63725E-06 1.85782E-12-3.24999E-14 4.91792E-08
 -1      7242-1.18011E-06-1.77775E-07 1.63725E-06 1.85782E-12-6.52623E-23 1.17635E-21
 -1      7243-1.18011E-06-1.77775E-07 1.63725E-06 1.85782E-12 3.24999E-14-4.91792E-08
 -1      7244-7.77726E-07-1.77776E-07 1.23486E-06-2.76107E-14 5.02288E-16 3.51309E-08
 -1      7245-7.77726E-07-1.77776E-07 1.23486E-06-2.76107E-14-1.95260E-22 6.01335E-21
 -1      7246-7.77726E-07-1.77776E-07 1.23486E-06-2.76108E-14-5.02288E-16-3.51309E-08
 -1      7247-8.43235E-07-1.77776E-07 1.30037E-06 8.57059E-14-1.47056E-15 3.74180E-08
 -1      7248-8.43235E-07-1.77776E-07 1.30037E-06 8.57059E-14-3.40800E-24-6.23221E-23
 -1      7249-8.43235E-07-1.77776E-07 1.30037E-06 8.57059E-14 1.47056E-15-3.74180E-08
 -1      7250-3.77645E-07-1.77772E-07 8.34776E-07-7.83127E-13 1.34700E-14 2.11632E-08
 -1      7251-3.77645E-07-1.77772E-07 8.34776E-07-7.83127E-13-2.61997E-22 1.20425E-21
 -1      7252-3.77645E-07-1.77772E-07 8.34776E-07-7.83127E-13-1.34700E-14-2.11632E-08
 -1      7253-5.68693E-07-1.77776E-07 1.02583E-06 1.02875E-13-1.81909E-15 2.78332E-08
 -1      7254-5.68693E-07-1.77776E-07 1.02583E-06 1.02875E-13 6.35362E-23-1.22784E-21
 -1      7255-5.68693E-07-1.77776E-07 1.02583E-06 1.02875E-13 1.81909E-15-2.78332E-08
 -1      7256-1.63155E-06-1.77775E-07 2.08869E-06-3.88975E-12 6.81871E-14 6.49407E-08
 -1      7257-1.63155E-06-1.77775E-07 2.08869E-06-3.88975E-12 2.29311E-22 5.56358E-21
 -1      7258-1.63155E-06-1.77775E-07 2.08869E-06-3.88975E-12-6.81871E-14-6.49407E-08
 -1      7259-1.91591E-06-1.77791E-07 2.37309E-06-2.27751E-11 3.98903E-13 7.48710E-08
 -1      7260-1.91591E-06-1.77791E-07 2.37309E-06-2.27751E-11 3.76602E-22-1.53978E-20
 -1      7261-1.91591E-06-1.77791E-07 2.37309E-06-2.27751E-11-3.98903E-13-7.48710E-08
 -1      7262-2.17262E-06-1.77840E-07 2.62990E-06 3.62997E-11-6.33867E-13 8.38372E-08
 -1      7263-2.17262E-06-1.77840E-07 2.62990E-06 3.62997E-11-6.92182E-23-8.74504E-22
 -1      7264-2.17262E-06-1.77840E-07 2.62990E-06 3.62997E-11 6.33867E-13-8.38372E-08
 -1      7265-2.02698E-06-1.77798E-07 2.48414E-06-2.50134E-11 4.37988E-13 7.87466E-08
 -1      7266-2.02698E-06-1.77798E-07 2.48414E-06-2.50134E-11 1.30870E-22 6.86180E-21
 -1      7267-2.02698E-06-1.77798E-07 2.48414E-06-2.50134E-11-4.37988E-13-7.87466E-08
 -1      7268-2.23022E-06-1.77775E-07 2.68736E-06-6.96629E-13 1.22611E-14 8.58434E-08
 -1      7269-2.23022E-06-1.77775E-07 2.68736E-06-6.96629E-13-3.60516E-22 6.55788E-21
 -1      7270-2.23022E-06-1.77775E-07 2.68736E-06-6.96629E-13-1.22611E-14-8.58434E-08
 -1      7271-2.23017E-06-1.77777E-07 2.68731E-06 5.36992E-13-9.42285E-15 8.58417E-08
 -1      7272-2.23017E-06-1.77777E-07 2.68731E-06 5.36992E-13-4.49759E-22 1.59259E-21
 -1      7273-2.23017E-06-1.77777E-07 2.68731E-06 5.36992E-13 9.42285E-15-8.58417E-08
 -1      7274-1.48154E-06-1.77776E-07 1.93868E-06-2.51328E-12 4.39297E-14 5.97032E-08
 -1      7275-1.48154E-06-1.77776E-07 1.93868E-06-2.51328E-12-4.08197E-22 2.90078E-21
 -1      7276-1.48154E-06-1.77776E-07 1.93868E-06-2.51328E-12-4.39297E-14-5.97032E-08
 -1      7277-3.67800E-07-1.77775E-07 8.24937E-07 4.78568E-13-8.50289E-15 2.08196E-08
 -1      7278-3.67800E-07-1.77775E-07 8.24937E-07 4.78568E-13-1.63424E-22-2.90856E-22
 -1      7279-3.67800E-07-1.77775E-07 8.24937E-07 4.78568E-13 8.50289E-15-2.08196E-08
 -1      7280-2.04239E-06-1.77766E-07 2.49953E-06-2.64094E-12 4.51506E-14 7.92851E-08
 -1      7281-2.04239E-06-1.77766E-07 2.49953E-06-2.64094E-12-2.34286E-22-5.69007E-21
 -1      7282-2.04239E-06-1.77766E-07 2.49953E-06-2.64094E-12-4.51506E-14-7.92851E-08
 -1      7283-3.84213E-07-1.77776E-07 8.41352E-07 1.37809E-13-2.56106E-15 2.13928E-08
 -1      7284-3.84213E-07-1.77776E-07 8.41352E-07 1.37809E-13 1.57614E-22 1.95183E-21
 -1      7285-3.84213E-07-1.77776E-07 8.41352E-07 1.37809E-13 2.56106E-15-2.13928E-08
 -1      7286-3.69113E-07-1.77776E-07 8.26251E-07 1.22679E-13-2.06230E-15 2.08656E-08
 -1      7287-3.69113E-07-1.77776E-07 8.26251E-07 1.22679E-13-9.46145E-24-3.97999E-22
 -1      7288-3.69113E-07-1.77776E-07 8.26251E-07 1.22679E-13 2.06230E-15-2.08656E-08
 -1      7289-4.07641E-07-1.77778E-07 8.64783E-07-4.79257E-13 8.18770E-15 2.22108E-08
 -1      7290-4.07641E-07-1.77778E-07 8.64783E-07-4.79257E-13-5.07582E-22 2.60121E-21
 -1      7291-4.07641E-07-1.77778E-07 8.64783E-07-4.79257E-13-8.18770E-15-2.22108E-08
 -1      7292-7.18203E-07-1.77776E-07 1.17534E-06-1.96023E-14 3.47572E-16 3.30528E-08
 -1      7293-7.18203E-07-1.77776E-07 1.17534E-06-1.96023E-14-4.90866E-24 2.18748E-21
 -1      7294-7.18203E-07-1.77776E-07 1.17534E-06-1.96023E-14-3.47572E-16-3.30528E-08
 -1      7295-3.65296E-07-1.77775E-07 8.22433E-07-1.89593E-13 3.48701E-15 2.07322E-08
 -1      7296-3.65296E-07-1.77775E-07 8.22433E-07-1.89593E-13-6.91737E-23-1.21258E-21
 -1      7297-3.65296E-07-1.77775E-07 8.22433E-07-1.89593E-13-3.48701E-15-2.07322E-08
 -1      7298-3.74014E-07-1.77776E-07 8.31153E-07 3.47214E-13-6.28715E-15 2.10367E-08
 -1      7299-3.74014E-07-1.77776E-07 8.31153E-07 3.47214E-13 2.75147E-22 8.30867E-22
 -1      7300-3.74014E-07-1.77776E-07 8.31153E-07 3.47214E-13 6.28715E-15-2.10367E-08
 -1      7301-2.23312E-06-1.77768E-07 2.69026E-06-7.72654E-12 1.35272E-13 8.59444E-08
 -1      7302-2.23312E-06-1.77768E-07 2.69026E-06-7.72654E-12 5.39755E-22-1.18169E-20
 -1      7303-2.23312E-06-1.77768E-07 2.69026E-06-7.72654E-12-1.35272E-13-8.59444E-08
 -1      7304-3.65083E-07-1.77776E-07 8.22220E-07 9.18683E-14-1.57124E-15 2.07248E-08
 -1      7305-3.65083E-07-1.77776E-07 8.22220E-07 9.18683E-14-3.83746E-24 2.72813E-21
 -1      7306-3.65083E-07-1.77776E-07 8.22220E-07 9.18683E-14 1.57124E-15-2.07248E-08
 -1      7307-3.67057E-07-1.77776E-07 8.24196E-07-8.38357E-15 2.56578E-16 2.07938E-08
 -1      7308-3.67057E-07-1.77776E-07 8.24196E-07-8.38357E-15-1.37499E-22 1.61092E-21
 -1      7309-3.67057E-07-1.77776E-07 8.24196E-07-8.38357E-15-2.56578E-16-2.07938E-08
 -1      7310-4.04240E-07-1.77776E-07 8.61378E-07 5.76900E-13-1.02895E-14 2.20919E-08
 -1      7311-4.04240E-07-1.77776E-07 8.61378E-07 5.76900E-13-4.58529E-23-7.11942E-22
 -1      7312-4.04240E-07-1.77776E-07 8.61378E-07 5.76900E-13 1.02895E-14-2.20919E-08
 -1      7313-1.84857E-06-1.77795E-07 2.30573E-06 3.65054E-11-6.34972E-13 7.25175E-08
 -1      7314-1.84857E-06-1.77795E-07 2.30573E-06 3.65054E-11-3.23446E-22 8.29647E-21
 -1      7315-1.84857E-06-1.77795E-07 2.30573E-06 3.65054E-11 6.34972E-13-7.25175E-08
 -1      7316-1.67801E-06-1.77782E-07 2.13516E-06-3.02575E-11 5.29672E-13 6.65627E-08
 -1      7317-1.67801E-06-1.77782E-07 2.13516E-06-3.02575E-11 6.34637E-23-1.07949E-20
 -1      7318-1.67801E-06-1.77782E-07 2.13516E-06-3.02575E-11-5.29672E-13-6.65627E-08
 -1      7319-1.53301E-06-1.77778E-07 1.99013E-06 1.30901E-11-2.29432E-13 6.14998E-08
 -1      7320-1.53301E-06-1.77778E-07 1.99013E-06 1.30901E-11 2.09411E-22-3.83988E-21
 -1      7321-1.53301E-06-1.77778E-07 1.99013E-06 1.30901E-11 2.29432E-13-6.14998E-08
 -1      7322-1.39698E-06-1.77776E-07 1.85412E-06 4.51602E-12-7.90134E-14 5.67511E-08
 -1      7323-1.39698E-06-1.77776E-07 1.85412E-06 4.51602E-12-3.25913E-22-2.31941E-21
 -1      7324-1.39698E-06-1.77776E-07 1.85412E-06 4.51602E-12 7.90134E-14-5.67511E-08
 -1      7325-1.27390E-06-1.77775E-07 1.73104E-06 1.16527E-12-2.03765E-14 5.24539E-08
 -1      7326-1.27390E-06-1.77775E-07 1.73104E-06 1.16527E-12-5.10680E-22-1.23334E-22
 -1      7327-1.27390E-06-1.77775E-07 1.73104E-06 1.16527E-12 2.03765E-14-5.24539E-08
 -1      7328-1.16466E-06-1.77776E-07 1.62180E-06 1.38727E-13-2.37648E-15 4.86401E-08
 -1      7329-1.16466E-06-1.77776E-07 1.62180E-06 1.38727E-13-3.80493E-22 2.07381E-23
 -1      7330-1.16466E-06-1.77776E-07 1.62180E-06 1.38727E-13 2.37648E-15-4.86401E-08
 -1      7331-1.06740E-06-1.77776E-07 1.52453E-06-7.50298E-13 1.31207E-14 4.52441E-08
 -1      7332-1.06740E-06-1.77776E-07 1.52453E-06-7.50298E-13 6.25244E-22 4.00973E-21
 -1      7333-1.06740E-06-1.77776E-07 1.52453E-06-7.50298E-13-1.31207E-14-4.52441E-08
 -1      7334-9.80475E-07-1.77776E-07 1.43761E-06-4.99749E-13 8.73395E-15 4.22094E-08
 -1      7335-9.80475E-07-1.77776E-07 1.43761E-06-4.99749E-13-5.53638E-22 3.36139E-21
 -1      7336-9.80475E-07-1.77776E-07 1.43761E-06-4.99749E-13-8.73395E-15-4.22094E-08
 -1      7337-9.02314E-07-1.77775E-07 1.35945E-06 8.20796E-13-1.43017E-14 3.94806E-08
 -1      7338-9.02314E-07-1.77775E-07 1.35945E-06 8.20796E-13-2.38298E-22-9.61743E-21
 -1      7339-9.02314E-07-1.77775E-07 1.35945E-06 8.20796E-13 1.43017E-14-3.94806E-08
 -1      7340-8.31335E-07-1.77776E-07 1.28847E-06 4.65596E-13-8.08593E-15 3.70026E-08
 -1      7341-8.31335E-07-1.77776E-07 1.28847E-06 4.65596E-13-1.38236E-22 4.52006E-21
 -1      7342-8.31335E-07-1.77776E-07 1.28847E-06 4.65596E-13 8.08592E-15-3.70026E-08
 -1      7343-7.66570E-07-1.77776E-07 1.22371E-06-2.67898E-13 4.72290E-15 3.47415E-08
 -1      7344-7.66570E-07-1.77776E-07 1.22371E-06-2.67898E-13 4.98383E-22 3.13337E-21
 -1      7345-7.66570E-07-1.77776E-07 1.22371E-06-2.67898E-13-4.72290E-15-3.47415E-08
 -1      7346-7.07483E-07-1.77776E-07 1.16462E-06-3.32553E-13 5.83553E-15 3.26786E-08
 -1      7347-7.07483E-07-1.77776E-07 1.16462E-06-3.32553E-13-4.78421E-22-9.48979E-22
 -1      7348-7.07483E-07-1.77776E-07 1.16462E-06-3.32553E-13-5.83553E-15-3.26786E-08
 -1      7349-6.53471E-07-1.77776E-07 1.11061E-06-1.98532E-13 3.46508E-15 3.07929E-08
 -1      7350-6.53471E-07-1.77776E-07 1.11061E-06-1.98532E-13 3.62255E-22 1.98585E-21
 -1      7351-6.53471E-07-1.77776E-07 1.11061E-06-1.98532E-13-3.46508E-15-3.07929E-08
 -1      7352-6.03950E-07-1.77776E-07 1.06109E-06-1.60666E-13 2.76919E-15 2.90641E-08
 -1      7353-6.03950E-07-1.77776E-07 1.06109E-06-1.60666E-13 1.31394E-22 1.60535E-21
 -1      7354-6.03950E-07-1.77776E-07 1.06109E-06-1.60666E-13-2.76919E-15-2.90641E-08
 -1      7355-5.58606E-07-1.77776E-07 1.01574E-06-2.30456E-13 3.95167E-15 2.74810E-08
 -1      7356-5.58606E-07-1.77776E-07 1.01574E-06-2.30456E-13-6.98041E-23-2.49908E-21
 -1      7357-5.58606E-07-1.77776E-07 1.01574E-06-2.30456E-13-3.95167E-15-2.74810E-08
 -1      7358-5.17467E-07-1.77776E-07 9.74605E-07 1.41601E-13-2.50247E-15 2.60448E-08
 -1      7359-5.17467E-07-1.77776E-07 9.74605E-07 1.41601E-13 1.42978E-22 8.64587E-21
 -1      7360-5.17467E-07-1.77776E-07 9.74605E-07 1.41601E-13 2.50247E-15-2.60448E-08
 -1      7361-4.80524E-07-1.77777E-07 9.37665E-07 2.92432E-12-5.05927E-14 2.47551E-08
 -1      7362-4.80524E-07-1.77777E-07 9.37665E-07 2.92432E-12 2.34699E-22 9.79124E-22
 -1      7363-4.80524E-07-1.77777E-07 9.37665E-07 2.92432E-12 5.05927E-14-2.47551E-08
 -1      7364-4.44772E-07-1.77779E-07 9.01917E-07-3.55060E-12 6.23893E-14 2.35070E-08
 -1      7365-4.44772E-07-1.77779E-07 9.01917E-07-3.55060E-12-1.23544E-22-5.92125E-21
 -1      7366-4.44772E-07-1.77779E-07 9.01917E-07-3.55060E-12-6.23893E-14-2.35070E-08
 -1      7367-2.05668E-06-1.77800E-07 2.51387E-06 8.17262E-12-1.43910E-13 7.97845E-08
 -1      7368-2.05668E-06-1.77800E-07 2.51387E-06 8.17262E-12-8.82581E-23-5.70065E-21
 -1      7369-2.05668E-06-1.77800E-07 2.51387E-06 8.17262E-12 1.43910E-13-7.97845E-08
 -1      7370-1.71684E-06-1.77775E-07 2.17399E-06-2.45539E-12 4.30654E-14 6.79192E-08
 -1      7371-1.71684E-06-1.77775E-07 2.17399E-06-2.45539E-12 2.47467E-22 4.63000E-21
 -1      7372-1.71684E-06-1.77775E-07 2.17399E-06-2.45539E-12-4.30654E-14-6.79192E-08
 -1      7373-1.03851E-06-1.77776E-07 1.49565E-06-1.55640E-12 2.72575E-14 4.42357E-08
 -1      7374-1.03851E-06-1.77776E-07 1.49565E-06-1.55640E-12 2.15129E-22-5.05483E-21
 -1      7375-1.03851E-06-1.77776E-07 1.49565E-06-1.55640E-12-2.72575E-14-4.42357E-08
 -1      7376-2.02966E-06-1.77786E-07 2.48679E-06 1.04824E-11-1.85744E-13 7.88420E-08
 -1      7377-2.02966E-06-1.77786E-07 2.48679E-06 1.04824E-11 3.38580E-22 1.91003E-20
 -1      7378-2.02966E-06-1.77786E-07 2.48679E-06 1.04824E-11 1.85744E-13-7.88420E-08
 -1      7379-3.76045E-07-1.77773E-07 8.33184E-07 2.35453E-12-4.17766E-14 2.11076E-08
 -1      7380-3.76045E-07-1.77773E-07 8.33184E-07 2.35453E-12-4.42516E-22-1.19074E-21
 -1      7381-3.76045E-07-1.77773E-07 8.33184E-07 2.35453E-12 4.17766E-14-2.11076E-08
 -1      7382-2.03318E-06-1.77781E-07 2.49033E-06 1.58811E-12-2.75150E-14 7.89639E-08
 -1      7383-2.03318E-06-1.77781E-07 2.49033E-06 1.58811E-12-2.91050E-24-1.85083E-21
 -1      7384-2.03318E-06-1.77781E-07 2.49033E-06 1.58811E-12 2.75150E-14-7.89639E-08
 -1      7385-1.80214E-06-1.77803E-07 2.25934E-06 3.37156E-11-5.89288E-13 7.08986E-08
 -1      7386-1.80214E-06-1.77803E-07 2.25934E-06 3.37156E-11 1.93304E-23 1.17046E-20
 -1      7387-1.80214E-06-1.77803E-07 2.25934E-06 3.37156E-11 5.89288E-13-7.08986E-08
 -1      7388-4.36791E-07-1.77776E-07 8.93930E-07 2.40384E-14-5.91397E-16 2.32283E-08
 -1      7389-4.36791E-07-1.77776E-07 8.93930E-07 2.40384E-14 9.25401E-23 3.54295E-21
 -1      7390-4.36791E-07-1.77776E-07 8.93930E-07 2.40384E-14 5.91398E-16-2.32283E-08
 -1      7391-1.28891E-06-1.77778E-07 1.74605E-06 1.45414E-12-2.55105E-14 5.29779E-08
 -1      7392-1.28891E-06-1.77778E-07 1.74605E-06 1.45414E-12-3.84764E-22-1.03905E-20
 -1      7393-1.28891E-06-1.77778E-07 1.74605E-06 1.45414E-12 2.55105E-14-5.29779E-08
 -1      7394-3.71194E-07-1.77775E-07 8.28333E-07-1.94045E-13 3.43156E-15 2.09382E-08
 -1      7395-3.71194E-07-1.77775E-07 8.28333E-07-1.94045E-13 1.08775E-22 1.98210E-21
 -1      7396-3.71194E-07-1.77775E-07 8.28333E-07-1.94045E-13-3.43156E-15-2.09382E-08
 -1      7397-6.38360E-07-1.77776E-07 1.09550E-06-2.97573E-13 5.17761E-15 3.02654E-08
 -1      7398-6.38360E-07-1.77776E-07 1.09550E-06-2.97573E-13 3.86428E-23 1.25427E-21
 -1      7399-6.38360E-07-1.77776E-07 1.09550E-06-2.97573E-13-5.17761E-15-3.02654E-08
 -1      7400-5.26780E-07-1.77776E-07 9.83918E-07 1.22977E-13-2.18210E-15 2.63699E-08
 -1      7401-5.26780E-07-1.77776E-07 9.83918E-07 1.22977E-13 3.22854E-23 6.58855E-22
 -1      7402-5.26780E-07-1.77776E-07 9.83918E-07 1.22977E-13 2.18210E-15-2.63699E-08
 -1      7403-1.13074E-06-1.77774E-07 1.58788E-06 1.70600E-13-2.94280E-15 4.74556E-08
 -1      7404-1.13074E-06-1.77774E-07 1.58788E-06 1.70600E-13-2.22377E-22 6.02636E-21
 -1      7405-1.13074E-06-1.77774E-07 1.58788E-06 1.70600E-13 2.94280E-15-4.74556E-08
 -1      7406-8.09293E-07-1.77776E-07 1.26643E-06 1.79236E-13-3.08683E-15 3.62330E-08
 -1      7407-8.09293E-07-1.77776E-07 1.26643E-06 1.79236E-13 1.38711E-22-2.45268E-23
 -1      7408-8.09293E-07-1.77776E-07 1.26643E-06 1.79236E-13 3.08683E-15-3.62330E-08
 -1      7409-4.51562E-07-1.77776E-07 9.08700E-07-3.76692E-13 6.48638E-15 2.37439E-08
 -1      7410-4.51562E-07-1.77776E-07 9.08700E-07-3.76692E-13 3.60692E-23 8.02168E-23
 -1      7411-4.51562E-07-1.77776E-07 9.08700E-07-3.76692E-13-6.48638E-15-2.37439E-08
 -1      7412-9.54486E-07-1.77776E-07 1.41162E-06-5.78694E-13 1.01683E-14 4.13020E-08
 -1      7413-9.54486E-07-1.77776E-07 1.41162E-06-5.78694E-13 3.38671E-22-1.02776E-21
 -1      7414-9.54486E-07-1.77776E-07 1.41162E-06-5.78694E-13-1.01683E-14-4.13020E-08
 -1      7415-5.91088E-07-1.77776E-07 1.04823E-06-1.39449E-13 2.40456E-15 2.86150E-08
 -1      7416-5.91088E-07-1.77776E-07 1.04823E-06-1.39449E-13 1.44552E-22-7.59639E-22
 -1      7417-5.91088E-07-1.77776E-07 1.04823E-06-1.39449E-13-2.40456E-15-2.86150E-08
 -1      7418-7.46822E-07-1.77776E-07 1.20396E-06-3.08168E-14 5.65229E-16 3.40520E-08
 -1      7419-7.46822E-07-1.77776E-07 1.20396E-06-3.08167E-14 2.59506E-22-1.74182E-21
 -1      7420-7.46822E-07-1.77776E-07 1.20396E-06-3.08167E-14-5.65229E-16-3.40520E-08
 -1      7421-3.89512E-07-1.77775E-07 8.46647E-07 8.76754E-13-1.55149E-14 2.15775E-08
 -1      7422-3.89512E-07-1.77775E-07 8.46647E-07 8.76754E-13 2.18483E-22 3.34994E-21
 -1      7423-3.89512E-07-1.77775E-07 8.46647E-07 8.76754E-13 1.55149E-14-2.15775E-08
 -1      7424-2.02876E-06-1.77772E-07 2.48589E-06-4.98775E-13 8.62158E-15 7.88093E-08
 -1      7425-2.02876E-06-1.77772E-07 2.48589E-06-4.98775E-13 2.97486E-22-2.53739E-21
 -1      7426-2.02876E-06-1.77772E-07 2.48589E-06-4.98775E-13-8.62158E-15-7.88093E-08
 -1      7427-1.62699E-06-1.77781E-07 2.08412E-06-1.56332E-11 2.73415E-13 6.47815E-08
 -1      7428-1.62699E-06-1.77781E-07 2.08412E-06-1.56332E-11 3.35771E-23-9.43019E-22
 -1      7429-1.62699E-06-1.77781E-07 2.08412E-06-1.56332E-11-2.73415E-13-6.47815E-08
 -1      7430-2.08555E-06-1.77730E-07 2.54263E-06-2.16491E-11 3.77453E-13 8.07891E-08
 -1      7431-2.08555E-06-1.77730E-07 2.54263E-06-2.16491E-11-4.82409E-22 2.28683E-21
 -1      7432-2.08555E-06-1.77730E-07 2.54263E-06-2.16491E-11-3.77453E-13-8.07891E-08
 -1      7433-3.92185E-07-1.77776E-07 8.49324E-07-4.61128E-13 8.20564E-15 2.16710E-08
 -1      7434-3.92185E-07-1.77776E-07 8.49324E-07-4.61128E-13 9.44404E-23-3.59741E-22
 -1      7435-3.92185E-07-1.77776E-07 8.49324E-07-4.61128E-13-8.20564E-15-2.16710E-08
 -1      7436-4.24326E-07-1.77776E-07 8.81465E-07 1.55187E-12-2.74583E-14 2.27930E-08
 -1      7437-4.24326E-07-1.77776E-07 8.81465E-07 1.55187E-12-1.11035E-22-1.72770E-21
 -1      7438-4.24326E-07-1.77776E-07 8.81465E-07 1.55187E-12 2.74583E-14-2.27930E-08
 -1      7439-3.73584E-07-1.77778E-07 8.30728E-07-1.67205E-12 2.94010E-14 2.10218E-08
 -1      7440-3.73584E-07-1.77778E-07 8.30728E-07-1.67205E-12-4.97867E-23 7.33588E-22
 -1      7441-3.73584E-07-1.77778E-07 8.30728E-07-1.67205E-12-2.94010E-14-2.10218E-08
 -1      7442-6.90083E-07-1.77776E-07 1.14722E-06-1.03305E-14 1.94723E-16 3.20711E-08
 -1      7443-6.90083E-07-1.77776E-07 1.14722E-06-1.03305E-14 1.27920E-22-4.21201E-21
 -1      7444-6.90083E-07-1.77776E-07 1.14722E-06-1.03305E-14-1.94722E-16-3.20711E-08
 -1      7445-8.78292E-07-1.77776E-07 1.33543E-06 1.27266E-13-2.16989E-15 3.86419E-08
 -1      7446-8.78292E-07-1.77776E-07 1.33543E-06 1.27266E-13 1.36548E-22-8.26563E-21
 -1      7447-8.78292E-07-1.77776E-07 1.33543E-06 1.27266E-13 2.16989E-15-3.86419E-08
 -1      7448-4.71375E-07-1.77776E-07 9.28514E-07-1.18466E-12 2.05593E-14 2.44356E-08
 -1      7449-4.71375E-07-1.77776E-07 9.28514E-07-1.18466E-12 1.92412E-23 6.21630E-21
 -1      7450-4.71375E-07-1.77776E-07 9.28514E-07-1.18466E-12-2.05593E-14-2.44356E-08
 -1      7451-3.98203E-07-1.77775E-07 8.55340E-07-1.18367E-13 2.08124E-15 2.18812E-08
 -1      7452-3.98203E-07-1.77775E-07 8.55340E-07-1.18367E-13-1.63046E-22 2.01022E-21
 -1      7453-3.98203E-07-1.77775E-07 8.55340E-07-1.18367E-13-2.08124E-15-2.18812E-08
 -1      7454-3.95068E-07-1.77777E-07 8.52207E-07 4.54167E-13-8.09142E-15 2.17716E-08
 -1      7455-3.95068E-07-1.77777E-07 8.52207E-07 4.54167E-13-1.14115E-22-2.52565E-21
 -1      7456-3.95068E-07-1.77777E-07 8.52207E-07 4.54167E-13 8.09142E-15-2.17716E-08
 -1      7457-4.87985E-07-1.77776E-07 9.45124E-07-3.54609E-13 6.12780E-15 2.50155E-08
 -1      7458-4.87985E-07-1.77776E-07 9.45124E-07-3.54609E-13 4.56965E-23 8.30696E-22
 -1      7459-4.87985E-07-1.77776E-07 9.45124E-07-3.54609E-13-6.12780E-15-2.50155E-08
 -1      7460-3.95299E-07-1.77777E-07 8.52439E-07 4.29253E-13-7.34705E-15 2.17798E-08
 -1      7461-3.95299E-07-1.77777E-07 8.52439E-07 4.29253E-13-1.54822E-22 5.18068E-22
 -1      7462-3.95299E-07-1.77777E-07 8.52439E-07 4.29253E-13 7.34705E-15-2.17798E-08
 -1      7463-1.74950E-06-1.77754E-07 2.20661E-06-2.15114E-11 3.74500E-13 6.90574E-08
 -1      7464-1.74950E-06-1.77754E-07 2.20661E-06-2.15114E-11 8.47059E-22 1.98917E-21
 -1      7465-1.74950E-06-1.77754E-07 2.20661E-06-2.15114E-11-3.74500E-13-6.90574E-08
 -1      7466-1.44846E-06-1.77776E-07 1.90561E-06 8.15075E-12-1.42854E-13 5.85487E-08
 -1      7467-1.44846E-06-1.77776E-07 1.90561E-06 8.15075E-12 2.55392E-23 6.46005E-21
 -1      7468-1.44846E-06-1.77776E-07 1.90561E-06 8.15075E-12 1.42854E-13-5.85487E-08
 -1      7469-1.31809E-06-1.77775E-07 1.77523E-06 1.43479E-12-2.50005E-14 5.39967E-08
 -1      7470-1.31809E-06-1.77775E-07 1.77523E-06 1.43479E-12 9.99033E-23 3.62500E-21
 -1      7471-1.31809E-06-1.77775E-07 1.77523E-06 1.43479E-12 2.50005E-14-5.39967E-08
 -1      7472-1.20301E-06-1.77777E-07 1.66015E-06 4.29481E-13-7.36041E-15 4.99788E-08
 -1      7473-1.20301E-06-1.77777E-07 1.66015E-06 4.29481E-13-2.92508E-22 4.29257E-21
 -1      7474-1.20301E-06-1.77777E-07 1.66015E-06 4.29481E-13 7.36041E-15-4.99788E-08
 -1      7475-1.10149E-06-1.77777E-07 1.55863E-06-9.64539E-13 1.69206E-14 4.64344E-08
 -1      7476-1.10149E-06-1.77777E-07 1.55863E-06-9.64539E-13-8.31770E-23-3.05856E-21
 -1      7477-1.10149E-06-1.77777E-07 1.55863E-06-9.64539E-13-1.69206E-14-4.64344E-08
 -1      7478-1.01082E-06-1.77776E-07 1.46796E-06-1.48677E-12 2.58946E-14 4.32689E-08
 -1      7479-1.01082E-06-1.77776E-07 1.46796E-06-1.48677E-12 1.18517E-23 7.65253E-23
 -1      7480-1.01082E-06-1.77776E-07 1.46796E-06-1.48677E-12-2.58946E-14-4.32689E-08
 -1      7481-9.29637E-07-1.77775E-07 1.38678E-06 1.03582E-12-1.81588E-14 4.04345E-08
 -1      7482-9.29637E-07-1.77775E-07 1.38678E-06 1.03582E-12 3.21047E-22 1.01346E-21
 -1      7483-9.29637E-07-1.77775E-07 1.38678E-06 1.03582E-12 1.81588E-14-4.04345E-08
 -1      7484-8.56128E-07-1.77776E-07 1.31327E-06 1.75559E-12-3.06523E-14 3.78681E-08
 -1      7485-8.56128E-07-1.77776E-07 1.31327E-06 1.75559E-12-1.42333E-22-2.96069E-21
 -1      7486-8.56128E-07-1.77776E-07 1.31327E-06 1.75559E-12 3.06523E-14-3.78681E-08
 -1      7487-7.89000E-07-1.77776E-07 1.24614E-06-1.91238E-13 3.39811E-15 3.55245E-08
 -1      7488-7.89000E-07-1.77776E-07 1.24614E-06-1.91238E-13-3.51118E-22-1.13157E-21
 -1      7489-7.89000E-07-1.77776E-07 1.24614E-06-1.91238E-13-3.39811E-15-3.55245E-08
 -1      7490-7.27906E-07-1.77776E-07 1.18504E-06-5.12466E-13 8.99910E-15 3.33916E-08
 -1      7491-7.27906E-07-1.77776E-07 1.18504E-06-5.12466E-13 8.85171E-23 5.00477E-21
 -1      7492-7.27906E-07-1.77776E-07 1.18504E-06-5.12466E-13-8.99910E-15-3.33916E-08
 -1      7493-6.72109E-07-1.77776E-07 1.12925E-06-1.51037E-13 2.63464E-15 3.14436E-08
 -1      7494-6.72109E-07-1.77776E-07 1.12925E-06-1.51037E-13 6.25210E-23 2.63704E-21
 -1      7495-6.72109E-07-1.77776E-07 1.12925E-06-1.51037E-13-2.63464E-15-3.14436E-08
 -1      7496-6.20706E-07-1.77776E-07 1.07784E-06-1.04438E-13 1.77107E-15 2.96491E-08
 -1      7497-6.20706E-07-1.77776E-07 1.07784E-06-1.04438E-13 4.73774E-22-2.97839E-22
 -1      7498-6.20706E-07-1.77776E-07 1.07784E-06-1.04438E-13-1.77107E-15-2.96491E-08
 -1      7499-5.73237E-07-1.77776E-07 1.03037E-06 4.41696E-14-8.85096E-16 2.79918E-08
 -1      7500-5.73237E-07-1.77776E-07 1.03037E-06 4.41696E-14-1.10769E-22-2.51220E-23
 -1      7501-5.73237E-07-1.77776E-07 1.03037E-06 4.41696E-14 8.85095E-16-2.79918E-08
 -1      7502-5.29694E-07-1.77776E-07 9.86831E-07-2.10220E-13 3.38986E-15 2.64717E-08
 -1      7503-5.29694E-07-1.77776E-07 9.86831E-07-2.10220E-13 1.42468E-22-4.21084E-21
 -1      7504-5.29694E-07-1.77776E-07 9.86831E-07-2.10220E-13-3.38986E-15-2.64717E-08
 -1      7505-4.91176E-07-1.77775E-07 9.48312E-07 7.68415E-13-1.38677E-14 2.51268E-08
 -1      7506-4.91176E-07-1.77775E-07 9.48312E-07 7.68415E-13 3.57908E-22-2.29975E-21
 -1      7507-4.91176E-07-1.77775E-07 9.48312E-07 7.68415E-13 1.38677E-14-2.51268E-08
 -1      7508-4.60926E-07-1.77772E-07 9.18054E-07 4.36404E-13-7.69112E-15 2.40705E-08
 -1      7509-4.60926E-07-1.77772E-07 9.18054E-07 4.36404E-13-3.60408E-22-1.97338E-21
 -1      7510-4.60926E-07-1.77772E-07 9.18054E-07 4.36404E-13 7.69112E-15-2.40705E-08
 -1      7511-1.87651E-06-1.77760E-07 2.33364E-06-5.06564E-11 8.80028E-13 7.34934E-08
 -1      7512-1.87651E-06-1.77760E-07 2.33364E-06-5.06564E-11-2.67122E-22 1.30962E-20
 -1      7513-1.87651E-06-1.77760E-07 2.33364E-06-5.06564E-11-8.80028E-13-7.34934E-08
 -1      7514-1.87888E-06-1.77740E-07 2.33595E-06 4.11730E-11-7.20546E-13 7.35745E-08
 -1      7515-1.87888E-06-1.77740E-07 2.33595E-06 4.11730E-11-2.90337E-22-4.80823E-21
 -1      7516-1.87888E-06-1.77740E-07 2.33595E-06 4.11730E-11 7.20545E-13-7.35745E-08
 -1      7517-1.55312E-06-1.77775E-07 2.01026E-06-4.81807E-12 8.42068E-14 6.22024E-08
 -1      7518-1.55312E-06-1.77775E-07 2.01026E-06-4.81807E-12-1.06818E-22 9.68542E-22
 -1      7519-1.55312E-06-1.77775E-07 2.01026E-06-4.81807E-12-8.42068E-14-6.22024E-08
 -1      7520-2.03026E-06-1.77781E-07 2.48741E-06 9.26707E-13-1.63431E-14 7.88618E-08
 -1      7521-2.03026E-06-1.77781E-07 2.48741E-06 9.26707E-13-1.29344E-22-2.00487E-21
 -1      7522-2.03026E-06-1.77781E-07 2.48741E-06 9.26707E-13 1.63431E-14-7.88618E-08
 -1      7523-3.88970E-07-1.77774E-07 8.46106E-07-7.26073E-13 1.30897E-14 2.15587E-08
 -1      7524-3.88970E-07-1.77774E-07 8.46106E-07-7.26073E-13-1.02398E-22 1.99343E-21
 -1      7525-3.88970E-07-1.77774E-07 8.46106E-07-7.26073E-13-1.30897E-14-2.15587E-08
 -1      7526-6.62700E-07-1.77776E-07 1.11984E-06 4.16713E-14-6.99582E-16 3.11151E-08
 -1      7527-6.62700E-07-1.77776E-07 1.11984E-06 4.16713E-14-1.76080E-22-3.28552E-21
 -1      7528-6.62700E-07-1.77776E-07 1.11984E-06 4.16713E-14 6.99582E-16-3.11151E-08
 -1      7529-1.41213E-06-1.77777E-07 1.86927E-06-2.29856E-12 3.99967E-14 5.72800E-08
 -1      7530-1.41213E-06-1.77777E-07 1.86927E-06-2.29856E-12 2.90660E-22-6.48198E-21
 -1      7531-1.41213E-06-1.77777E-07 1.86927E-06-2.29856E-12-3.99967E-14-5.72800E-08
 -1      7532-1.23218E-06-1.77776E-07 1.68932E-06 6.16177E-12-1.07782E-13 5.09971E-08
 -1      7533-1.23218E-06-1.77776E-07 1.68932E-06 6.16177E-12 2.54406E-23-7.04971E-22
 -1      7534-1.23218E-06-1.77776E-07 1.68932E-06 6.16177E-12 1.07782E-13-5.09971E-08
 -1      7535-4.00961E-07-1.77775E-07 8.58095E-07-1.41877E-12 2.47724E-14 2.19774E-08
 -1      7536-4.00961E-07-1.77775E-07 8.58095E-07-1.41877E-12 2.96142E-23-1.17559E-21
 -1      7537-4.00961E-07-1.77775E-07 8.58095E-07-1.41877E-12-2.47724E-14-2.19774E-08
 -1      7538-2.03983E-06-1.77755E-07 2.49689E-06-3.52587E-12 6.27360E-14 7.91941E-08
 -1      7539-2.03983E-06-1.77755E-07 2.49689E-06-3.52587E-12-1.89995E-22-1.23180E-21
 -1      7540-2.03983E-06-1.77755E-07 2.49689E-06-3.52587E-12-6.27360E-14-7.91941E-08
 -1      7541-8.42333E-07-1.77776E-07 1.29947E-06 8.18200E-13-1.42103E-14 3.73865E-08
 -1      7542-8.42333E-07-1.77776E-07 1.29947E-06 8.18200E-13-2.24259E-22-3.51376E-21
 -1      7543-8.42333E-07-1.77776E-07 1.29947E-06 8.18200E-13 1.42103E-14-3.73865E-08
 -1      7544-4.56463E-07-1.77778E-07 9.13602E-07-2.37287E-12 4.11453E-14 2.39150E-08
 -1      7545-4.56463E-07-1.77778E-07 9.13602E-07-2.37287E-12 1.37621E-22-2.81193E-21
 -1      7546-4.56463E-07-1.77778E-07 9.13602E-07-2.37287E-12-4.11453E-14-2.39150E-08
 -1      7547-1.08592E-06-1.77776E-07 1.54305E-06-3.90664E-12 6.84661E-14 4.58906E-08
 -1      7548-1.08592E-06-1.77776E-07 1.54305E-06-3.90664E-12-1.94980E-22-1.27546E-21
 -1      7549-1.08592E-06-1.77776E-07 1.54305E-06-3.90664E-12-6.84661E-14-4.58906E-08
 -1      7550-5.47735E-07-1.77776E-07 1.00487E-06 4.68920E-13-8.21272E-15 2.71015E-08
 -1      7551-5.47735E-07-1.77776E-07 1.00487E-06 4.68920E-13-4.85772E-23-8.98810E-22
 -1      7552-5.47735E-07-1.77776E-07 1.00487E-06 4.68920E-13 8.21272E-15-2.71015E-08
 -1      7553-7.76400E-07-1.77776E-07 1.23354E-06-1.01057E-14 2.44999E-16 3.50846E-08
 -1      7554-7.76400E-07-1.77776E-07 1.23354E-06-1.01057E-14-1.16677E-22 5.64042E-22
 -1      7555-7.76400E-07-1.77776E-07 1.23354E-06-1.01057E-14-2.44999E-16-3.50846E-08
 -1      7556-9.96608E-07-1.77777E-07 1.45375E-06-1.51966E-12 2.66764E-14 4.27727E-08
 -1      7557-9.96608E-07-1.77777E-07 1.45375E-06-1.51966E-12 2.69209E-22 5.71302E-21
 -1      7558-9.96608E-07-1.77777E-07 1.45375E-06-1.51966E-12-2.66764E-14-4.27727E-08
 -1      7559-4.32385E-07-1.77776E-07 8.89519E-07-1.57889E-12 2.73004E-14 2.30744E-08
 -1      7560-4.32385E-07-1.77776E-07 8.89519E-07-1.57889E-12-2.29008E-23-4.09607E-22
 -1      7561-4.32385E-07-1.77776E-07 8.89519E-07-1.57889E-12-2.73004E-14-2.30744E-08
 -1      7562-1.70208E-06-1.77779E-07 2.15922E-06-7.13704E-12 1.24020E-13 6.74039E-08
 -1      7563-1.70208E-06-1.77779E-07 2.15922E-06-7.13704E-12-1.76549E-22 9.39479E-21
 -1      7564-1.70208E-06-1.77779E-07 2.15922E-06-7.13704E-12-1.24020E-13-6.74039E-08
 -1      7565-2.03095E-06-1.77782E-07 2.48809E-06 1.92409E-12-3.32990E-14 7.88857E-08
 -1      7566-2.03095E-06-1.77782E-07 2.48809E-06 1.92409E-12-5.29370E-22-8.27053E-22
 -1      7567-2.03095E-06-1.77782E-07 2.48809E-06 1.92409E-12 3.32990E-14-7.88857E-08
 -1      7568-1.60395E-06-1.77764E-07 2.06106E-06 2.13534E-11-3.74184E-13 6.39770E-08
 -1      7569-1.60395E-06-1.77764E-07 2.06106E-06 2.13534E-11-4.42103E-22-1.45899E-20
 -1      7570-1.60395E-06-1.77764E-07 2.06106E-06 2.13534E-11 3.74184E-13-6.39770E-08
 -1      7571-1.85577E-06-1.77767E-07 2.31291E-06 2.41336E-11-4.19306E-13 7.27698E-08
 -1      7572-1.85577E-06-1.77767E-07 2.31291E-06 2.41336E-11-5.39996E-22-3.36765E-21
 -1      7573-1.85577E-06-1.77767E-07 2.31291E-06 2.41336E-11 4.19306E-13-7.27698E-08
 -1      7574-6.13760E-07-1.77776E-07 1.07090E-06-9.20281E-13 1.59993E-14 2.94065E-08
 -1      7575-6.13760E-07-1.77776E-07 1.07090E-06-9.20281E-13-2.57966E-22 5.68519E-22
 -1      7576-6.13760E-07-1.77776E-07 1.07090E-06-9.20281E-13-1.59993E-14-2.94065E-08
 -1      7577-4.16509E-07-1.77779E-07 8.73651E-07-2.77681E-12 4.87370E-14 2.25202E-08
 -1      7578-4.16509E-07-1.77779E-07 8.73651E-07-2.77681E-12-2.80273E-22 2.13095E-21
 -1      7579-4.16509E-07-1.77779E-07 8.73651E-07-2.77681E-12-4.87370E-14-2.25202E-08
 -1      7580-1.90240E-06-1.77775E-07 2.35950E-06 1.78009E-12-3.21388E-14 7.43963E-08
 -1      7581-1.90240E-06-1.77775E-07 2.35950E-06 1.78009E-12 2.41353E-24-1.29517E-21
 -1      7582-1.90240E-06-1.77775E-07 2.35950E-06 1.78009E-12 3.21388E-14-7.43963E-08
 -1      7583-4.17916E-07-1.77779E-07 8.75059E-07 8.09809E-13-1.39823E-14 2.25694E-08
 -1      7584-4.17916E-07-1.77779E-07 8.75059E-07 8.09809E-13-6.59672E-23 2.60806E-21
 -1      7585-4.17916E-07-1.77779E-07 8.75059E-07 8.09809E-13 1.39823E-14-2.25694E-08
 -1      7586-4.30328E-07-1.77774E-07 8.87466E-07 4.42220E-12-7.78246E-14 2.30028E-08
 -1      7587-4.30328E-07-1.77774E-07 8.87466E-07 4.42220E-12-6.75626E-23 1.53679E-22
 -1      7588-4.30328E-07-1.77774E-07 8.87466E-07 4.42220E-12 7.78246E-14-2.30028E-08
 -1      7589-5.08029E-07-1.77776E-07 9.65167E-07 1.45197E-13-2.57309E-15 2.57152E-08
 -1      7590-5.08029E-07-1.77776E-07 9.65167E-07 1.45197E-13 2.62163E-22-5.27783E-22
 -1      7591-5.08029E-07-1.77776E-07 9.65167E-07 1.45197E-13 2.57309E-15-2.57152E-08
 -1      7592-4.27516E-07-1.77774E-07 8.84656E-07-2.87327E-12 5.06397E-14 2.29046E-08
 -1      7593-4.27516E-07-1.77774E-07 8.84656E-07-2.87327E-12 4.61750E-23-2.17173E-21
 -1      7594-4.27516E-07-1.77774E-07 8.84656E-07-2.87327E-12-5.06397E-14-2.29046E-08
 -1      7595-1.85056E-06-1.77776E-07 2.30770E-06-3.55807E-12 6.10524E-14 7.25876E-08
 -1      7596-1.85056E-06-1.77776E-07 2.30770E-06-3.55807E-12-5.38985E-23-5.55705E-22
 -1      7597-1.85056E-06-1.77776E-07 2.30770E-06-3.55807E-12-6.10524E-14-7.25876E-08
 -1      7598-4.62717E-07-1.77774E-07 9.19854E-07 4.35738E-12-7.68193E-14 2.41334E-08
 -1      7599-4.62717E-07-1.77774E-07 9.19854E-07 4.35738E-12-1.77090E-22 1.83330E-21
 -1      7600-4.62717E-07-1.77774E-07 9.19854E-07 4.35738E-12 7.68193E-14-2.41334E-08
 -1      7601-9.15552E-07-1.77777E-07 1.37269E-06 3.86388E-14-5.94824E-16 3.99428E-08
 -1      7602-9.15552E-07-1.77777E-07 1.37269E-06 3.86388E-14-4.18714E-22-1.21930E-21
 -1      7603-9.15552E-07-1.77777E-07 1.37269E-06 3.86388E-14 5.94823E-16-3.99428E-08
 -1      7604-4.22594E-07-1.77776E-07 8.79734E-07 5.79433E-13-9.96655E-15 2.27327E-08
 -1      7605-4.22594E-07-1.77776E-07 8.79734E-07 5.79433E-13 7.07824E-23 3.43274E-21
 -1      7606-4.22594E-07-1.77776E-07 8.79734E-07 5.79433E-13 9.96655E-15-2.27327E-08
 -1      7607-1.36635E-06-1.77777E-07 1.82350E-06-4.07747E-12 7.13729E-14 5.56818E-08
 -1      7608-1.36635E-06-1.77777E-07 1.82350E-06-4.07747E-12-3.79043E-22-2.64873E-21
 -1      7609-1.36635E-06-1.77777E-07 1.82350E-06-4.07747E-12-7.13729E-14-5.56818E-08
 -1      7610-4.11206E-07-1.77772E-07 8.68341E-07 4.86368E-13-8.40265E-15 2.23349E-08
 -1      7611-4.11206E-07-1.77772E-07 8.68341E-07 4.86368E-13 1.74379E-22-1.41544E-22
 -1      7612-4.11206E-07-1.77772E-07 8.68341E-07 4.86368E-13 8.40265E-15-2.23349E-08
 -1      7613-1.75166E-06-1.77807E-07 2.20879E-06-3.11236E-11 5.41533E-13 6.91332E-08
 -1      7614-1.75166E-06-1.77807E-07 2.20879E-06-3.11236E-11-2.25493E-22 2.86505E-21
 -1      7615-1.75166E-06-1.77807E-07 2.20879E-06-3.11236E-11-5.41533E-13-6.91332E-08
 -1      7616-1.24759E-06-1.77775E-07 1.70473E-06 2.57920E-13-4.10913E-15 5.15353E-08
 -1      7617-1.24759E-06-1.77775E-07 1.70473E-06 2.57920E-13 1.27619E-23 2.74414E-21
 -1      7618-1.24759E-06-1.77775E-07 1.70473E-06 2.57920E-13 4.10913E-15-5.15353E-08
 -1      7619-1.14280E-06-1.77778E-07 1.59994E-06-5.93314E-13 1.05739E-14 4.78766E-08
 -1      7620-1.14280E-06-1.77778E-07 1.59994E-06-5.93314E-13 7.97969E-23 6.58572E-21
 -1      7621-1.14280E-06-1.77778E-07 1.59994E-06-5.93314E-13-1.05739E-14-4.78766E-08
 -1      7622-1.04846E-06-1.77776E-07 1.50560E-06-3.95475E-12 6.91193E-14 4.45831E-08
 -1      7623-1.04846E-06-1.77776E-07 1.50560E-06-3.95475E-12 3.26240E-22 3.08561E-21
 -1      7624-1.04846E-06-1.77776E-07 1.50560E-06-3.95475E-12-6.91193E-14-4.45831E-08
 -1      7625-9.62793E-07-1.77780E-07 1.41993E-06-5.52604E-12 9.59704E-14 4.15921E-08
 -1      7626-9.62793E-07-1.77780E-07 1.41993E-06-5.52604E-12 5.26626E-22 4.65667E-22
 -1      7627-9.62793E-07-1.77780E-07 1.41993E-06-5.52604E-12-9.59704E-14-4.15921E-08
 -1      7628-8.85632E-07-1.77778E-07 1.34277E-06 9.24285E-12-1.61565E-13 3.88982E-08
 -1      7629-8.85632E-07-1.77778E-07 1.34277E-06 9.24285E-12-5.70390E-22-4.64789E-21
 -1      7630-8.85632E-07-1.77778E-07 1.34277E-06 9.24285E-12 1.61565E-13-3.88982E-08
 -1      7631-8.15366E-07-1.77776E-07 1.27250E-06 1.11350E-12-1.93305E-14 3.64450E-08
 -1      7632-8.15366E-07-1.77776E-07 1.27250E-06 1.11350E-12 4.21191E-23 1.53424E-21
 -1      7633-8.15366E-07-1.77776E-07 1.27250E-06 1.11350E-12 1.93305E-14-3.64450E-08
 -1      7634-7.52087E-07-1.77776E-07 1.20923E-06-1.56841E-12 2.75065E-14 3.42358E-08
 -1      7635-7.52087E-07-1.77776E-07 1.20923E-06-1.56841E-12-1.21724E-23 7.03780E-22
 -1      7636-7.52087E-07-1.77776E-07 1.20923E-06-1.56841E-12-2.75065E-14-3.42358E-08
 -1      7637-6.94691E-07-1.77776E-07 1.15183E-06-2.91030E-13 5.06868E-15 3.22320E-08
 -1      7638-6.94691E-07-1.77776E-07 1.15183E-06-2.91030E-13-5.00788E-23-2.63321E-21
 -1      7639-6.94691E-07-1.77776E-07 1.15183E-06-2.91030E-13-5.06868E-15-3.22320E-08
 -1      7640-6.41354E-07-1.77777E-07 1.09849E-06-2.82647E-13 4.84380E-15 3.03699E-08
 -1      7641-6.41354E-07-1.77777E-07 1.09849E-06-2.82647E-13 2.65952E-22-3.25533E-21
 -1      7642-6.41354E-07-1.77777E-07 1.09849E-06-2.82647E-13-4.84380E-15-3.03699E-08
 -1      7643-5.91501E-07-1.77776E-07 1.04864E-06-3.61615E-13 6.17649E-15 2.86295E-08
 -1      7644-5.91501E-07-1.77776E-07 1.04864E-06-3.61615E-13-1.19283E-22-1.10517E-21
 -1      7645-5.91501E-07-1.77776E-07 1.04864E-06-3.61615E-13-6.17649E-15-2.86295E-08
 -1      7646-5.44784E-07-1.77776E-07 1.00192E-06 2.13157E-14-5.61628E-16 2.69986E-08
 -1      7647-5.44784E-07-1.77776E-07 1.00192E-06 2.13157E-14-2.30455E-22 2.71192E-21
 -1      7648-5.44784E-07-1.77776E-07 1.00192E-06 2.13157E-14 5.61627E-16-2.69986E-08
 -1      7649-5.00767E-07-1.77777E-07 9.57904E-07-2.35932E-12 4.04293E-14 2.54619E-08
 -1      7650-5.00767E-07-1.77777E-07 9.57904E-07-2.35932E-12-3.47516E-22-2.25239E-21
 -1      7651-5.00767E-07-1.77777E-07 9.57904E-07-2.35932E-12-4.04293E-14-2.54619E-08
 -1      7652-1.85584E-06-1.77799E-07 2.31304E-06-1.32049E-11 2.30538E-13 7.27730E-08
 -1      7653-1.85584E-06-1.77799E-07 2.31304E-06-1.32049E-11 5.74404E-22-1.03568E-20
 -1      7654-1.85584E-06-1.77799E-07 2.31304E-06-1.32049E-11-2.30538E-13-7.27730E-08
 -1      7655-7.16822E-07-1.77776E-07 1.17396E-06-1.52405E-13 2.71305E-15 3.30046E-08
 -1      7656-7.16822E-07-1.77776E-07 1.17396E-06-1.52405E-13 3.54971E-22 3.20508E-21
 -1      7657-7.16822E-07-1.77776E-07 1.17396E-06-1.52405E-13-2.71305E-15-3.30046E-08
 -1      7658-1.85478E-06-1.77779E-07 2.31193E-06 7.54989E-13-1.31280E-14 7.27348E-08
 -1      7659-1.85478E-06-1.77779E-07 2.31193E-06 7.54989E-13 3.16127E-22 1.14005E-21
 -1      7660-1.85478E-06-1.77779E-07 2.31193E-06 7.54989E-13 1.31280E-14-7.27348E-08
 -1      7661-6.35561E-07-1.77777E-07 1.09270E-06 3.68637E-13-6.34755E-15 3.01676E-08
 -1      7662-6.35561E-07-1.77777E-07 1.09270E-06 3.68637E-13-9.39225E-24 8.78416E-21
 -1      7663-6.35561E-07-1.77777E-07 1.09270E-06 3.68637E-13 6.34755E-15-3.01676E-08
 -1      7664-8.07153E-07-1.77776E-07 1.26429E-06 1.05353E-12-1.82600E-14 3.61583E-08
 -1      7665-8.07153E-07-1.77776E-07 1.26429E-06 1.05353E-12 2.26651E-22 1.93615E-21
 -1      7666-8.07153E-07-1.77776E-07 1.26429E-06 1.05353E-12 1.82600E-14-3.61583E-08
 -1      7667-1.50648E-06-1.77781E-07 1.96365E-06-4.17688E-12 7.33798E-14 6.05752E-08
 -1      7668-1.50648E-06-1.77781E-07 1.96365E-06-4.17688E-12 2.95592E-23 2.08378E-21
 -1      7669-1.50648E-06-1.77781E-07 1.96365E-06-4.17688E-12-7.33798E-14-6.05752E-08
 -1      7670-1.18269E-06-1.77774E-07 1.63983E-06 3.22228E-13-5.37929E-15 4.92693E-08
 -1      7671-1.18269E-06-1.77774E-07 1.63983E-06 3.22228E-13-2.58086E-22-2.33949E-21
 -1      7672-1.18269E-06-1.77774E-07 1.63983E-06 3.22228E-13 5.37929E-15-4.92693E-08
 -1      7673-4.42557E-07-1.77771E-07 8.99685E-07 1.01872E-13-1.60029E-15 2.34292E-08
 -1      7674-4.42557E-07-1.77771E-07 8.99685E-07 1.01872E-13 6.36800E-23-3.51101E-21
 -1      7675-4.42557E-07-1.77771E-07 8.99685E-07 1.01872E-13 1.60029E-15-2.34292E-08
 -1      7676-4.90351E-07-1.77776E-07 9.47489E-07-2.92779E-13 5.15230E-15 2.50981E-08
 -1      7677-4.90351E-07-1.77776E-07 9.47489E-07-2.92779E-13-1.03132E-22-1.29674E-22
 -1      7678-4.90351E-07-1.77776E-07 9.47489E-07-2.92779E-13-5.15230E-15-2.50981E-08
 -1      7679-1.84911E-06-1.77764E-07 2.30624E-06 6.72804E-13-1.11259E-14 7.25369E-08
 -1      7680-1.84911E-06-1.77764E-07 2.30624E-06 6.72804E-13 2.83397E-23 1.15169E-20
 -1      7681-1.84911E-06-1.77764E-07 2.30624E-06 6.72804E-13 1.11259E-14-7.25369E-08
 -1      7682-1.53535E-06-1.77776E-07 1.99252E-06 4.03382E-12-7.06669E-14 6.15825E-08
 -1      7683-1.53535E-06-1.77776E-07 1.99252E-06 4.03382E-12-1.85158E-22-4.75889E-21
 -1      7684-1.53535E-06-1.77776E-07 1.99252E-06 4.03382E-12 7.06669E-14-6.15825E-08
 -1      7685-8.77381E-07-1.77776E-07 1.33452E-06 1.32919E-12-2.31298E-14 3.86102E-08
 -1      7686-8.77381E-07-1.77776E-07 1.33452E-06 1.32919E-12-1.43323E-22 5.54288E-21
 -1      7687-8.77381E-07-1.77776E-07 1.33452E-06 1.32919E-12 2.31298E-14-3.86102E-08
 -1      7688-1.68055E-06-1.77817E-07 2.13777E-06 2.19183E-11-3.83667E-13 6.66543E-08
 -1      7689-1.68055E-06-1.77817E-07 2.13777E-06 2.19183E-11 3.80093E-22 4.35776E-21
 -1      7690-1.68055E-06-1.77817E-07 2.13777E-06 2.19183E-11 3.83667E-13-6.66543E-08
 -1      7691-5.68864E-07-1.77776E-07 1.02600E-06 2.12422E-13-3.75960E-15 2.78391E-08
 -1      7692-5.68864E-07-1.77776E-07 1.02600E-06 2.12422E-13-1.31734E-22-3.34379E-21
 -1      7693-5.68864E-07-1.77776E-07 1.02600E-06 2.12422E-13 3.75960E-15-2.78391E-08
 -1      7694-1.04339E-06-1.77778E-07 1.50053E-06-3.51676E-12 6.17195E-14 4.44062E-08
 -1      7695-1.04339E-06-1.77778E-07 1.50053E-06-3.51676E-12 6.27478E-23-1.80902E-21
 -1      7696-1.04339E-06-1.77778E-07 1.50053E-06-3.51676E-12-6.17195E-14-4.44062E-08
 -1      7697-1.47601E-06-1.77775E-07 1.93315E-06-7.48116E-12 1.30192E-13 5.95102E-08
 -1      7698-1.47601E-06-1.77775E-07 1.93315E-06-7.48116E-12 1.32587E-22-3.19707E-21
 -1      7699-1.47601E-06-1.77775E-07 1.93315E-06-7.48116E-12-1.30192E-13-5.95102E-08
 -1      7700-1.34622E-06-1.77780E-07 1.80337E-06 2.82949E-13-5.27064E-15 5.49788E-08
 -1      7701-1.34622E-06-1.77780E-07 1.80337E-06 2.82949E-13 2.92698E-22 8.83996E-21
 -1      7702-1.34622E-06-1.77780E-07 1.80337E-06 2.82949E-13 5.27064E-15-5.49788E-08
 -1      7703-6.86978E-07-1.77776E-07 1.14412E-06 1.03918E-13-1.70482E-15 3.19627E-08
 -1      7704-6.86978E-07-1.77776E-07 1.14412E-06 1.03918E-13-1.12286E-22-1.01485E-21
 -1      7705-6.86978E-07-1.77776E-07 1.14412E-06 1.03919E-13 1.70482E-15-3.19627E-08
 -1      7706-1.14049E-06-1.77778E-07 1.59763E-06-8.78575E-12 1.54498E-13 4.77961E-08
 -1      7707-1.14049E-06-1.77778E-07 1.59763E-06-8.78575E-12-4.74877E-25 3.59602E-21
 -1      7708-1.14049E-06-1.77778E-07 1.59763E-06-8.78575E-12-1.54498E-13-4.77961E-08
 -1      7709-1.54945E-06-1.77790E-07 2.00662E-06-1.65837E-11 2.91840E-13 6.20749E-08
 -1      7710-1.54945E-06-1.77790E-07 2.00662E-06-1.65837E-11 2.59760E-22 1.16551E-20
 -1      7711-1.54945E-06-1.77790E-07 2.00662E-06-1.65837E-11-2.91840E-13-6.20749E-08
 -1      7712-1.41569E-06-1.77774E-07 1.87282E-06 2.97817E-13-4.04732E-15 5.74039E-08
 -1      7713-1.41569E-06-1.77774E-07 1.87282E-06 2.97817E-13 5.08176E-22-2.58474E-21
 -1      7714-1.41569E-06-1.77774E-07 1.87282E-06 2.97817E-13 4.04732E-15-5.74039E-08
 -1      7715-4.68675E-07-1.77780E-07 9.25824E-07 3.26105E-13-5.76018E-15 2.43419E-08
 -1      7716-4.68675E-07-1.77780E-07 9.25824E-07 3.26105E-13 2.27501E-22-1.12905E-21
 -1      7717-4.68675E-07-1.77780E-07 9.25824E-07 3.26105E-13 5.76018E-15-2.43419E-08
 -1      7718-1.69930E-06-1.77764E-07 2.15642E-06-1.81423E-11 3.13827E-13 6.73060E-08
 -1      7719-1.69930E-06-1.77764E-07 2.15642E-06-1.81423E-11-7.94925E-22-1.00299E-20
 -1      7720-1.69930E-06-1.77764E-07 2.15642E-06-1.81423E-11-3.13827E-13-6.73060E-08
 -1      7721-1.70068E-06-1.77754E-07 2.15776E-06 2.05548E-11-3.56253E-13 6.73532E-08
 -1      7722-1.70068E-06-1.77754E-07 2.15776E-06 2.05548E-11-3.31451E-22 1.27847E-20
 -1      7723-1.70068E-06-1.77754E-07 2.15776E-06 2.05548E-11 3.56253E-13-6.73532E-08
 -1      7724-7.44048E-07-1.77776E-07 1.20119E-06-8.75204E-13 1.54105E-14 3.39552E-08
 -1      7725-7.44048E-07-1.77776E-07 1.20119E-06-8.75204E-13 1.05834E-22-2.77105E-21
 -1      7726-7.44048E-07-1.77776E-07 1.20119E-06-8.75204E-13-1.54105E-14-3.39552E-08
 -1      7727-1.29563E-06-1.77774E-07 1.75277E-06-7.16795E-12 1.25575E-13 5.32122E-08
 -1      7728-1.29563E-06-1.77774E-07 1.75277E-06-7.16795E-12-1.70285E-22-3.63600E-21
 -1      7729-1.29563E-06-1.77774E-07 1.75277E-06-7.16795E-12-1.25575E-13-5.32122E-08
 -1      7730-1.19148E-06-1.77783E-07 1.64862E-06 1.25156E-11-2.17978E-13 4.95759E-08
 -1      7731-1.19148E-06-1.77783E-07 1.64862E-06 1.25156E-11-3.83569E-22-6.32261E-21
 -1      7732-1.19148E-06-1.77783E-07 1.64862E-06 1.25156E-11 2.17978E-13-4.95759E-08
 -1      7733-1.09482E-06-1.77777E-07 1.55196E-06-9.10141E-12 1.59402E-13 4.62013E-08
 -1      7734-1.09482E-06-1.77777E-07 1.55196E-06-9.10141E-12-2.53373E-22-1.29089E-21
 -1      7735-1.09482E-06-1.77777E-07 1.55196E-06-9.10141E-12-1.59402E-13-4.62013E-08
 -1      7736-1.00746E-06-1.77780E-07 1.46461E-06-4.71392E-14 5.97393E-16 4.31517E-08
 -1      7737-1.00746E-06-1.77780E-07 1.46461E-06-4.71392E-14-1.58499E-22 2.28165E-21
 -1      7738-1.00746E-06-1.77780E-07 1.46461E-06-4.71392E-14-5.97394E-16-4.31517E-08
 -1      7739-9.20077E-07-1.77783E-07 1.37724E-06 3.26724E-13-5.39328E-15 4.01014E-08
 -1      7740-9.20077E-07-1.77783E-07 1.37724E-06 3.26724E-13-1.28579E-22 1.46123E-21
 -1      7741-9.20077E-07-1.77783E-07 1.37724E-06 3.26724E-13 5.39328E-15-4.01014E-08
 -1      7742-8.44393E-07-1.77775E-07 1.30153E-06 8.56705E-12-1.49127E-13 3.74585E-08
 -1      7743-8.44393E-07-1.77775E-07 1.30153E-06 8.56705E-12 1.45736E-22-1.87509E-21
 -1      7744-8.44393E-07-1.77775E-07 1.30153E-06 8.56705E-12 1.49127E-13-3.74585E-08
 -1      7745-7.79384E-07-1.77779E-07 1.23653E-06-6.12145E-12 1.07321E-13 3.51888E-08
 -1      7746-7.79384E-07-1.77779E-07 1.23653E-06-6.12145E-12-1.97938E-22 6.39777E-22
 -1      7747-7.79384E-07-1.77779E-07 1.23653E-06-6.12145E-12-1.07321E-13-3.51888E-08
 -1      7748-7.21698E-07-1.77777E-07 1.17884E-06-2.23723E-13 3.86114E-15 3.31749E-08
 -1      7749-7.21698E-07-1.77777E-07 1.17884E-06-2.23723E-13 4.16430E-22 2.05139E-21
 -1      7750-7.21698E-07-1.77777E-07 1.17884E-06-2.23723E-13-3.86114E-15-3.31749E-08
 -1      7751-6.66822E-07-1.77777E-07 1.12396E-06-2.60237E-13 4.42224E-15 3.12591E-08
 -1      7752-6.66822E-07-1.77777E-07 1.12396E-06-2.60237E-13-2.68427E-22 2.42704E-21
 -1      7753-6.66822E-07-1.77777E-07 1.12396E-06-2.60237E-13-4.42224E-15-3.12591E-08
 -1      7754-6.14591E-07-1.77777E-07 1.07173E-06-8.22573E-13 1.41599E-14 2.94356E-08
 -1      7755-6.14591E-07-1.77777E-07 1.07173E-06-8.22573E-13 1.30026E-22-1.74824E-21
 -1      7756-6.14591E-07-1.77777E-07 1.07173E-06-8.22573E-13-1.41599E-14-2.94356E-08
 -1      7757-5.65210E-07-1.77776E-07 1.02235E-06 1.36505E-13-2.56858E-15 2.77117E-08
 -1      7758-5.65210E-07-1.77776E-07 1.02235E-06 1.36505E-13-1.81393E-22 2.92035E-21
 -1      7759-5.65210E-07-1.77776E-07 1.02235E-06 1.36505E-13 2.56858E-15-2.77117E-08
 -1      7760-5.18044E-07-1.77777E-07 9.75189E-07 1.89122E-12-3.30169E-14 2.60653E-08
 -1      7761-5.18044E-07-1.77777E-07 9.75189E-07 1.89122E-12 2.17494E-22 4.50537E-23
 -1      7762-5.18044E-07-1.77777E-07 9.75189E-07 1.89122E-12 3.30169E-14-2.60653E-08
 -1      7763-9.55763E-07-1.77777E-07 1.41290E-06-4.04351E-13 7.13274E-15 4.13467E-08
 -1      7764-9.55763E-07-1.77777E-07 1.41290E-06-4.04351E-13 6.23665E-23 2.89072E-21
 -1      7765-9.55763E-07-1.77777E-07 1.41290E-06-4.04351E-13-7.13274E-15-4.13467E-08
 -1      7766-1.57589E-06-1.77781E-07 2.03296E-06 7.28271E-11-1.26986E-12 6.29956E-08
 -1      7767-1.57589E-06-1.77781E-07 2.03296E-06 7.28271E-11-3.57451E-23-7.00121E-21
 -1      7768-1.57589E-06-1.77781E-07 2.03296E-06 7.28271E-11 1.26986E-12-6.29956E-08
 -1      7769-5.27760E-07-1.77776E-07 9.84898E-07 1.63016E-12-2.84428E-14 2.64041E-08
 -1      7770-5.27760E-07-1.77776E-07 9.84898E-07 1.63016E-12 8.95743E-23-5.44172E-21
 -1      7771-5.27760E-07-1.77776E-07 9.84898E-07 1.63016E-12 2.84428E-14-2.64041E-08
 -1      7772-5.90040E-07-1.77777E-07 1.04718E-06-2.85556E-12 4.95982E-14 2.85784E-08
 -1      7773-5.90040E-07-1.77777E-07 1.04718E-06-2.85556E-12 9.67359E-23 3.39813E-22
 -1      7774-5.90040E-07-1.77777E-07 1.04718E-06-2.85556E-12-4.95982E-14-2.85784E-08
 -1      7775-9.99469E-07-1.77776E-07 1.45661E-06-3.74947E-12 6.53251E-14 4.28727E-08
 -1      7776-9.99469E-07-1.77776E-07 1.45661E-06-3.74947E-12-3.79532E-22 3.70372E-21
 -1      7777-9.99469E-07-1.77776E-07 1.45661E-06-3.74947E-12-6.53251E-14-4.28727E-08
 -1      7778-1.24398E-06-1.77773E-07 1.70110E-06 8.09940E-12-1.38951E-13 5.14086E-08
 -1      7779-1.24398E-06-1.77773E-07 1.70110E-06 8.09940E-12 2.30869E-22 4.49821E-21
 -1      7780-1.24398E-06-1.77773E-07 1.70110E-06 8.09940E-12 1.38951E-13-5.14086E-08
 -1      7781-4.42655E-07-1.77779E-07 8.99800E-07-1.06598E-12 1.90613E-14 2.34332E-08
 -1      7782-4.42655E-07-1.77779E-07 8.99800E-07-1.06598E-12 1.87991E-22-4.82318E-22
 -1      7783-4.42655E-07-1.77779E-07 8.99800E-07-1.06598E-12-1.90613E-14-2.34332E-08
 -1      7784-4.71837E-07-1.77775E-07 9.28970E-07-4.22629E-12 7.44972E-14 2.44516E-08
 -1      7785-4.71837E-07-1.77775E-07 9.28970E-07-4.22629E-12-1.25986E-22 1.95929E-21
 -1      7786-4.71837E-07-1.77775E-07 9.28970E-07-4.22629E-12-7.44972E-14-2.44516E-08
 -1      7787-1.68112E-06-1.77772E-07 2.13827E-06-1.15477E-11 1.99915E-13 6.66726E-08
 -1      7788-1.68112E-06-1.77772E-07 2.13827E-06-1.15477E-11 2.49022E-22-1.65661E-21
 -1      7789-1.68112E-06-1.77772E-07 2.13827E-06-1.15477E-11-1.99915E-13-6.66726E-08
 -1      7790-4.56381E-07-1.77775E-07 9.13514E-07-7.44025E-12 1.30590E-13 2.39122E-08
 -1      7791-4.56381E-07-1.77775E-07 9.13514E-07-7.44025E-12-8.43104E-23 1.29010E-23
 -1      7792-4.56381E-07-1.77775E-07 9.13514E-07-7.44025E-12-1.30590E-13-2.39122E-08
 -1      7793-6.55898E-07-1.77775E-07 1.11303E-06 5.16633E-13-8.75116E-15 3.08777E-08
 -1      7794-6.55898E-07-1.77775E-07 1.11303E-06 5.16633E-13-1.21317E-22-5.03114E-21
 -1      7795-6.55898E-07-1.77775E-07 1.11303E-06 5.16633E-13 8.75116E-15-3.08777E-08
 -1      7796-7.72387E-07-1.77778E-07 1.22953E-06-5.62202E-12 9.84944E-14 3.49446E-08
 -1      7797-7.72387E-07-1.77778E-07 1.22953E-06-5.62202E-12-3.25050E-22-2.12215E-21
 -1      7798-7.72387E-07-1.77778E-07 1.22953E-06-5.62202E-12-9.84944E-14-3.49446E-08
 -1      7799-8.39956E-07-1.77778E-07 1.29709E-06 7.25541E-12-1.26463E-13 3.73036E-08
 -1      7800-8.39956E-07-1.77778E-07 1.29709E-06 7.25541E-12 4.41614E-22-1.41243E-21
 -1      7801-8.39956E-07-1.77778E-07 1.29709E-06 7.25541E-12 1.26463E-13-3.73036E-08
 -1      7802-4.49834E-07-1.77773E-07 9.06966E-07 7.35101E-13-1.34582E-14 2.36835E-08
 -1      7803-4.49834E-07-1.77773E-07 9.06966E-07 7.35101E-13 1.30840E-22 5.07805E-22
 -1      7804-4.49834E-07-1.77773E-07 9.06966E-07 7.35101E-13 1.34582E-14-2.36835E-08
 -1      7805-1.44858E-06-1.77777E-07 1.90568E-06-4.43987E-11 7.77660E-13 5.85514E-08
 -1      7806-1.44858E-06-1.77777E-07 1.90568E-06-4.43987E-11 9.32627E-23 3.95534E-21
 -1      7807-1.44858E-06-1.77777E-07 1.90568E-06-4.43987E-11-7.77660E-13-5.85514E-08
 -1      7808-1.69291E-06-1.77758E-07 2.15003E-06 3.20246E-11-5.55351E-13 6.70835E-08
 -1      7809-1.69291E-06-1.77758E-07 2.15003E-06 3.20246E-11-2.94297E-22 8.46774E-21
 -1      7810-1.69291E-06-1.77758E-07 2.15003E-06 3.20246E-11 5.55351E-13-6.70835E-08
 -1      7811-1.40420E-06-1.77785E-07 1.86135E-06-1.33838E-11 2.32621E-13 5.70028E-08
 -1      7812-1.40420E-06-1.77785E-07 1.86135E-06-1.33838E-11-4.66869E-23-3.49820E-21
 -1      7813-1.40420E-06-1.77785E-07 1.86135E-06-1.33838E-11-2.32621E-13-5.70028E-08
 -1      7814-1.28627E-06-1.77784E-07 1.74341E-06 1.79305E-11-3.13798E-13 5.28854E-08
 -1      7815-1.28627E-06-1.77784E-07 1.74341E-06 1.79305E-11-4.53438E-23-3.01502E-21
 -1      7816-1.28627E-06-1.77784E-07 1.74341E-06 1.79305E-11 3.13798E-13-5.28854E-08
 -1      7817-1.09670E-06-1.77789E-07 1.55385E-06-1.78632E-11 3.12602E-13 4.62679E-08
 -1      7818-1.09670E-06-1.77789E-07 1.55385E-06-1.78632E-11 1.24684E-22 1.00513E-21
 -1      7819-1.09670E-06-1.77789E-07 1.55385E-06-1.78632E-11-3.12602E-13-4.62679E-08
 -1      7820-6.07261E-07-1.77774E-07 1.06440E-06 2.32298E-12-3.96346E-14 2.91796E-08
 -1      7821-6.07261E-07-1.77774E-07 1.06440E-06 2.32298E-12 1.86972E-22 9.27484E-22
 -1      7822-6.07261E-07-1.77774E-07 1.06440E-06 2.32298E-12 3.96346E-14-2.91796E-08
 -1      7823-1.21400E-06-1.77776E-07 1.67111E-06-1.57809E-12 3.23399E-14 5.03631E-08
 -1      7824-1.21400E-06-1.77776E-07 1.67111E-06-1.57809E-12 1.94120E-22 4.50850E-21
 -1      7825-1.21400E-06-1.77776E-07 1.67111E-06-1.57809E-12-3.23399E-14-5.03631E-08
 -1      7826-9.15244E-07-1.77777E-07 1.37238E-06 1.56611E-12-2.75117E-14 3.99322E-08
 -1      7827-9.15244E-07-1.77777E-07 1.37238E-06 1.56611E-12 1.81950E-22-4.29638E-21
 -1      7828-9.15244E-07-1.77777E-07 1.37238E-06 1.56611E-12 2.75117E-14-3.99322E-08
 -1      7829-1.58423E-06-1.77749E-07 2.04129E-06-2.02847E-11 3.53398E-13 6.32862E-08
 -1      7830-1.58423E-06-1.77749E-07 2.04129E-06-2.02847E-11 6.60686E-22-3.55189E-21
 -1      7831-1.58423E-06-1.77749E-07 2.04129E-06-2.02847E-11-3.53398E-13-6.32862E-08
 -1      7832-5.47489E-07-1.77777E-07 1.00463E-06 3.69111E-12-6.45992E-14 2.70928E-08
 -1      7833-5.47489E-07-1.77777E-07 1.00463E-06 3.69111E-12 9.81721E-24 2.63684E-22
 -1      7834-5.47489E-07-1.77777E-07 1.00463E-06 3.69111E-12 6.45992E-14-2.70928E-08
 -1      7835-4.84818E-07-1.77780E-07 9.41968E-07-8.24136E-13 1.43180E-14 2.49054E-08
 -1      7836-4.84818E-07-1.77780E-07 9.41968E-07-8.24136E-13-5.87028E-23-2.35998E-21
 -1      7837-4.84818E-07-1.77780E-07 9.41968E-07-8.24136E-13-1.43180E-14-2.49054E-08
 -1      7838-1.50951E-06-1.77826E-07 1.96676E-06 4.29402E-11-7.44933E-13 6.06842E-08
 -1      7839-1.50951E-06-1.77826E-07 1.96676E-06 4.29402E-11 1.67575E-22-7.56429E-22
 -1      7840-1.50951E-06-1.77826E-07 1.96676E-06 4.29402E-11 7.44933E-13-6.06842E-08
 -1      7841-7.11072E-07-1.77776E-07 1.16821E-06-4.68132E-13 8.30245E-15 3.28039E-08
 -1      7842-7.11072E-07-1.77776E-07 1.16821E-06-4.68132E-13 1.44818E-22 4.23314E-21
 -1      7843-7.11072E-07-1.77776E-07 1.16821E-06-4.68132E-13-8.30245E-15-3.28039E-08
 -1      7844-1.34512E-06-1.77695E-07 1.80216E-06-1.57517E-11 2.73596E-13 5.49380E-08
 -1      7845-1.34512E-06-1.77695E-07 1.80216E-06-1.57517E-11 1.68700E-22 1.11112E-20
 -1      7846-1.34512E-06-1.77695E-07 1.80216E-06-1.57517E-11-2.73596E-13-5.49380E-08
 -1      7847-1.24015E-06-1.77794E-07 1.69722E-06 2.19051E-11-3.88727E-13 5.12746E-08
 -1      7848-1.24015E-06-1.77794E-07 1.69722E-06 2.19051E-11 2.31378E-22 2.66344E-21
 -1      7849-1.24015E-06-1.77794E-07 1.69722E-06 2.19051E-11 3.88727E-13-5.12746E-08
 -1      7850-1.14710E-06-1.77739E-07 1.60418E-06 1.80454E-11-3.15939E-13 4.80254E-08
 -1      7851-1.14710E-06-1.77739E-07 1.60418E-06 1.80454E-11-6.90030E-22 1.24691E-22
 -1      7852-1.14710E-06-1.77739E-07 1.60418E-06 1.80454E-11 3.15939E-13-4.80254E-08
 -1      7853-1.06571E-06-1.77776E-07 1.52284E-06 9.87468E-12-1.74501E-13 4.51852E-08
 -1      7854-1.06571E-06-1.77776E-07 1.52284E-06 9.87468E-12-5.29317E-22 6.29529E-22
 -1      7855-1.06571E-06-1.77776E-07 1.52284E-06 9.87468E-12 1.74501E-13-4.51852E-08
 -1      7856-9.84080E-07-1.77773E-07 1.44121E-06 5.32749E-12-9.22737E-14 4.23350E-08
 -1      7857-9.84080E-07-1.77773E-07 1.44121E-06 5.32749E-12-1.35766E-22-9.57946E-21
 -1      7858-9.84080E-07-1.77773E-07 1.44121E-06 5.32749E-12 9.22737E-14-4.23350E-08
 -1      7859-8.59649E-07-1.77772E-07 1.31678E-06-8.05401E-12 1.40629E-13 3.79908E-08
 -1      7860-8.59649E-07-1.77772E-07 1.31678E-06-8.05401E-12-4.99204E-22 7.37588E-21
 -1      7861-8.59649E-07-1.77772E-07 1.31678E-06-8.05401E-12-1.40629E-13-3.79908E-08
 -1      7862-8.06466E-07-1.77766E-07 1.26358E-06-4.54427E-12 7.92117E-14 3.61335E-08
 -1      7863-8.06466E-07-1.77766E-07 1.26358E-06-4.54427E-12-3.90307E-22-7.05114E-22
 -1      7864-8.06466E-07-1.77766E-07 1.26358E-06-4.54427E-12-7.92117E-14-3.61335E-08
 -1      7865-7.53589E-07-1.77775E-07 1.21072E-06 2.99087E-12-5.31949E-14 3.42881E-08
 -1      7866-7.53589E-07-1.77775E-07 1.21072E-06 2.99087E-12-3.15040E-23-6.69523E-22
 -1      7867-7.53589E-07-1.77775E-07 1.21072E-06 2.99087E-12 5.31949E-14-3.42881E-08
 -1      7868-6.97467E-07-1.77775E-07 1.15460E-06 6.35073E-13-1.13491E-14 3.23289E-08
 -1      7869-6.97467E-07-1.77775E-07 1.15460E-06 6.35073E-13-1.41389E-22-2.81608E-21
 -1      7870-6.97467E-07-1.77775E-07 1.15460E-06 6.35073E-13 1.13491E-14-3.23289E-08
 -1      7871-6.43116E-07-1.77776E-07 1.10025E-06-3.79252E-13 6.45786E-15 3.04315E-08
 -1      7872-6.43116E-07-1.77776E-07 1.10025E-06-3.79252E-13 1.27418E-22 1.43787E-21
 -1      7873-6.43116E-07-1.77776E-07 1.10025E-06-3.79252E-13-6.45786E-15-3.04315E-08
 -1      7874-5.90504E-07-1.77778E-07 1.04764E-06-3.57676E-12 6.21011E-14 2.85948E-08
 -1      7875-5.90504E-07-1.77778E-07 1.04764E-06-3.57676E-12-1.99412E-22-1.55642E-21
 -1      7876-5.90504E-07-1.77778E-07 1.04764E-06-3.57676E-12-6.21011E-14-2.85948E-08
 -1      7877-5.41460E-07-1.77778E-07 9.98597E-07 4.14253E-12-7.25203E-14 2.68826E-08
 -1      7878-5.41460E-07-1.77778E-07 9.98597E-07 4.14253E-12 1.17173E-22-5.23877E-23
 -1      7879-5.41460E-07-1.77778E-07 9.98597E-07 4.14253E-12 7.25203E-14-2.68826E-08
 -1      7880-1.45680E-06-1.77822E-07 1.91391E-06-1.18442E-11 2.02165E-13 5.88392E-08
 -1      7881-1.45680E-06-1.77822E-07 1.91391E-06-1.18442E-11-5.95254E-22-5.37131E-21
 -1      7882-1.45680E-06-1.77822E-07 1.91391E-06-1.18442E-11-2.02165E-13-5.88392E-08
 -1      7883-5.67852E-07-1.77768E-07 1.02498E-06 6.43758E-14-6.62843E-16 2.78034E-08
 -1      7884-5.67852E-07-1.77768E-07 1.02498E-06 6.43758E-14-2.77693E-22 9.76482E-22
 -1      7885-5.67852E-07-1.77768E-07 1.02498E-06 6.43758E-14 6.62842E-16-2.78034E-08
 -1      7886-1.53623E-06-1.77782E-07 1.99344E-06-6.81112E-11 1.18415E-12 6.16155E-08
 -1      7887-1.53623E-06-1.77782E-07 1.99344E-06-6.81112E-11 1.20832E-22 2.84114E-21
 -1      7888-1.53623E-06-1.77782E-07 1.99344E-06-6.81112E-11-1.18415E-12-6.16155E-08
 -1      7889-4.96591E-07-1.77780E-07 9.53731E-07 6.08948E-12-1.05500E-13 2.53161E-08
 -1      7890-4.96591E-07-1.77780E-07 9.53731E-07 6.08948E-12 1.53562E-22 9.94803E-22
 -1      7891-4.96591E-07-1.77780E-07 9.53731E-07 6.08948E-12 1.05500E-13-2.53161E-08
 -1      7892-7.34995E-07-1.77776E-07 1.19214E-06-9.64900E-13 1.68420E-14 3.36393E-08
 -1      7893-7.34995E-07-1.77776E-07 1.19214E-06-9.64900E-13 4.08232E-22 5.62495E-22
 -1      7894-7.34995E-07-1.77776E-07 1.19214E-06-9.64900E-13-1.68420E-14-3.36393E-08
 -1      7895-8.03869E-07-1.77780E-07 1.26102E-06 3.17005E-13-6.01370E-15 3.60442E-08
 -1      7896-8.03869E-07-1.77780E-07 1.26102E-06 3.17005E-13 3.10016E-22-1.48868E-21
 -1      7897-8.03869E-07-1.77780E-07 1.26102E-06 3.17005E-13 6.01370E-15-3.60442E-08
 -1      7898-5.08122E-07-1.77778E-07 9.65260E-07 2.70840E-12-4.68368E-14 2.57185E-08
 -1      7899-5.08122E-07-1.77778E-07 9.65260E-07 2.70840E-12 1.98747E-22 2.25015E-21
 -1      7900-5.08122E-07-1.77778E-07 9.65260E-07 2.70840E-12 4.68368E-14-2.57185E-08
 -1      7901-4.80788E-07-1.77770E-07 9.37914E-07 2.30568E-12-4.03171E-14 2.47640E-08
 -1      7902-4.80788E-07-1.77770E-07 9.37914E-07 2.30568E-12 1.58336E-22-3.29699E-21
 -1      7903-4.80788E-07-1.77770E-07 9.37914E-07 2.30568E-12 4.03171E-14-2.47640E-08
 -1      7904-6.21815E-07-1.77777E-07 1.07896E-06-9.17991E-13 1.60802E-14 2.96880E-08
 -1      7905-6.21815E-07-1.77777E-07 1.07896E-06-9.17991E-13-3.07600E-22-9.73506E-22
 -1      7906-6.21815E-07-1.77777E-07 1.07896E-06-9.17991E-13-1.60802E-14-2.96880E-08
 -1      7907-1.34446E-06-1.77707E-07 1.80154E-06-1.18880E-11 2.12884E-13 5.49172E-08
 -1      7908-1.34446E-06-1.77707E-07 1.80154E-06-1.18880E-11 1.22728E-22-2.45745E-21
 -1      7909-1.34446E-06-1.77707E-07 1.80154E-06-1.18880E-11-2.12884E-13-5.49172E-08
 -1      7910-1.34201E-06-1.77748E-07 1.79908E-06 5.88692E-12-1.01962E-13 5.48298E-08
 -1      7911-1.34201E-06-1.77748E-07 1.79908E-06 5.88692E-12-1.69510E-22 6.28233E-22
 -1      7912-1.34201E-06-1.77748E-07 1.79908E-06 5.88692E-12 1.01962E-13-5.48298E-08
 -1      7913-6.76461E-07-1.77777E-07 1.13360E-06 1.79325E-12-3.12999E-14 3.15957E-08
 -1      7914-6.76461E-07-1.77777E-07 1.13360E-06 1.79325E-12-1.60916E-22 2.15895E-21
 -1      7915-6.76461E-07-1.77777E-07 1.13360E-06 1.79325E-12 3.12999E-14-3.15957E-08
 -1      7916-1.04107E-06-1.77775E-07 1.49822E-06-7.12170E-12 1.24431E-13 4.43256E-08
 -1      7917-1.04107E-06-1.77775E-07 1.49822E-06-7.12170E-12 4.10393E-23-1.26832E-21
 -1      7918-1.04107E-06-1.77775E-07 1.49822E-06-7.12170E-12-1.24431E-13-4.43256E-08
 -1      7919-9.55108E-07-1.77779E-07 1.41225E-06-5.69737E-12 9.86698E-14 4.13239E-08
 -1      7920-9.55108E-07-1.77779E-07 1.41225E-06-5.69737E-12 6.10796E-23-3.22317E-21
 -1      7921-9.55108E-07-1.77779E-07 1.41225E-06-5.69737E-12-9.86698E-14-4.13239E-08
 -1      7922-5.17352E-07-1.77777E-07 9.74491E-07-7.01884E-13 1.18263E-14 2.60409E-08
 -1      7923-5.17352E-07-1.77777E-07 9.74491E-07-7.01884E-13-1.17276E-23 4.59077E-21
 -1      7924-5.17352E-07-1.77777E-07 9.74491E-07-7.01884E-13-1.18263E-14-2.60409E-08
 -1      7925-1.15555E-06-1.77803E-07 1.61280E-06 1.45010E-11-2.55313E-13 4.83255E-08
 -1      7926-1.15555E-06-1.77803E-07 1.61280E-06 1.45010E-11 5.93587E-22-4.30163E-21
 -1      7927-1.15555E-06-1.77803E-07 1.61280E-06 1.45010E-11 2.55313E-13-4.83255E-08
 -1      7928-1.33993E-06-1.77825E-07 1.79722E-06 2.05827E-11-3.62382E-13 5.47654E-08
 -1      7929-1.33993E-06-1.77825E-07 1.79722E-06 2.05827E-11-1.40152E-22 2.19019E-21
 -1      7930-1.33993E-06-1.77825E-07 1.79722E-06 2.05827E-11 3.62382E-13-5.47654E-08
 -1      7931-5.29876E-07-1.77775E-07 9.87013E-07-8.38249E-13 1.55650E-14 2.64781E-08
 -1      7932-5.29876E-07-1.77775E-07 9.87013E-07-8.38249E-13 7.80224E-23-2.36184E-21
 -1      7933-5.29876E-07-1.77775E-07 9.87013E-07-8.38249E-13-1.55650E-14-2.64781E-08
 -1      7934-5.67164E-07-1.77779E-07 1.02431E-06-3.91643E-13 7.22369E-15 2.77803E-08
 -1      7935-5.67164E-07-1.77779E-07 1.02431E-06-3.91643E-13-1.41229E-22 3.19355E-21
 -1      7936-5.67164E-07-1.77779E-07 1.02431E-06-3.91643E-13-7.22369E-15-2.77803E-08
 -1      7937-9.17885E-07-1.77765E-07 1.37499E-06-3.63012E-12 6.33766E-14 4.00232E-08
 -1      7938-9.17885E-07-1.77765E-07 1.37499E-06-3.63012E-12 8.14941E-22-1.34212E-21
 -1      7939-9.17885E-07-1.77765E-07 1.37499E-06-3.63012E-12-6.33766E-14-4.00232E-08
 -1      7940-8.77717E-07-1.77778E-07 1.33486E-06 1.07139E-11-1.87693E-13 3.86220E-08
 -1      7941-8.77717E-07-1.77778E-07 1.33486E-06 1.07139E-11 2.73500E-22-2.74882E-21
 -1      7942-8.77717E-07-1.77778E-07 1.33486E-06 1.07139E-11 1.87693E-13-3.86220E-08
 -1      7943-6.25723E-06-1.78404E-07 6.71567E-06 1.25221E-09-2.18550E-11 2.26480E-07
 -1      7945-6.25723E-06-1.78404E-07 6.71567E-06 1.25221E-09 2.18550E-11-2.26480E-07
 -1      7946-5.78252E-06-1.77650E-07 6.23928E-06 1.05898E-09-1.84596E-11 2.09900E-07
 -1      7948-5.78252E-06-1.77650E-07 6.23928E-06 1.05898E-09 1.84596E-11-2.09900E-07
 -1      7949-5.78328E-06-1.77784E-07 6.23847E-06-2.69405E-09 4.70277E-11 2.09902E-07
 -1      7951-5.78328E-06-1.77784E-07 6.23847E-06-2.69405E-09-4.70277E-11-2.09902E-07
 -1      7952-6.25812E-06-1.77893E-07 6.71970E-06-4.30861E-10 7.52000E-12 2.26553E-07
 -1      7954-6.25812E-06-1.77893E-07 6.71970E-06-4.30861E-10-7.52000E-12-2.26553E-07
 -1      7955-5.86582E-06-1.77650E-07 6.32048E-06 1.28003E-09-2.23500E-11 2.12756E-07
 -1      7957-5.86582E-06-1.77650E-07 6.32048E-06 1.28003E-09 2.23500E-11-2.12756E-07
 -1      7958-5.86391E-06-1.78056E-07 6.31965E-06-1.07450E-09 1.87782E-11 2.12710E-07
 -1      7960-5.86391E-06-1.78056E-07 6.31965E-06-1.07450E-09-1.87782E-11-2.12710E-07
 -1      7961-6.25702E-06-1.77842E-07 6.71837E-06 4.28553E-11-7.47943E-13 2.26515E-07
 -1      7963-6.25702E-06-1.77842E-07 6.71837E-06 4.28553E-11 7.47943E-13-2.26515E-07
 -1      7964-5.83643E-06-1.77688E-07 6.29139E-06 1.01995E-09-1.78033E-11 2.11741E-07
 -1      7966-5.83643E-06-1.77688E-07 6.29139E-06 1.01995E-09 1.78033E-11-2.11741E-07
 -1      7967-5.83615E-06-1.77863E-07 6.29147E-06-1.00293E-09 1.75038E-11 2.11737E-07
 -1      7969-5.83615E-06-1.77863E-07 6.29147E-06-1.00293E-09-1.75038E-11-2.11737E-07
 -1      7970-6.25711E-06-1.77794E-07 6.71841E-06-4.32854E-11 7.55475E-13 2.26517E-07
 -1      7972-6.25711E-06-1.77794E-07 6.71841E-06-4.32854E-11-7.55475E-13-2.26517E-07
 -1      7973-5.83710E-06-1.77746E-07 6.29218E-06 1.05019E-09-1.83300E-11 2.11766E-07
 -1      7975-5.83710E-06-1.77746E-07 6.29218E-06 1.05019E-09 1.83300E-11-2.11766E-07
 -1      7976-5.83695E-06-1.77803E-07 6.29213E-06-1.02941E-09 1.79687E-11 2.11762E-07
 -1      7978-5.83695E-06-1.77803E-07 6.29213E-06-1.02941E-09-1.79687E-11-2.11762E-07
 -1      7979-6.25757E-06-1.77777E-07 6.71871E-06-5.84556E-11 1.02024E-12 2.26530E-07
 -1      7981-6.25757E-06-1.77777E-07 6.71871E-06-5.84556E-11-1.02024E-12-2.26530E-07
 -1      7982-5.84344E-06-1.77775E-07 6.29863E-06 1.03561E-09-1.80753E-11 2.11988E-07
 -1      7984-5.84344E-06-1.77775E-07 6.29863E-06 1.03561E-09 1.80753E-11-2.11988E-07
 -1      7985-5.84337E-06-1.77781E-07 6.29855E-06-1.01580E-09 1.77319E-11 2.11985E-07
 -1      7987-5.84337E-06-1.77781E-07 6.29855E-06-1.01580E-09-1.77319E-11-2.11985E-07
 -1      7988-6.25795E-06-1.77771E-07 6.71896E-06-2.68523E-11 4.68658E-13 2.26540E-07
 -1      7990-6.25795E-06-1.77771E-07 6.71896E-06-2.68523E-11-4.68658E-13-2.26540E-07
 -1      7991-5.84878E-06-1.77781E-07 6.30402E-06 1.01129E-09-1.76516E-11 2.12174E-07
 -1      7993-5.84878E-06-1.77781E-07 6.30402E-06 1.01129E-09 1.76516E-11-2.12174E-07
 -1      7994-5.84876E-06-1.77776E-07 6.30398E-06-1.00277E-09 1.75040E-11 2.12173E-07
 -1      7996-5.84876E-06-1.77776E-07 6.30398E-06-1.00277E-09-1.75040E-11-2.12173E-07
 -1      7997-6.25806E-06-1.77773E-07 6.71903E-06-2.57601E-12 4.49592E-14 2.26543E-07
 -1      7999-6.25806E-06-1.77773E-07 6.71903E-06-2.57601E-12-4.49592E-14-2.26543E-07
 -1      8000-5.85033E-06-1.77779E-07 6.30558E-06 9.99897E-10-1.74531E-11 2.12228E-07
 -1      8002-5.85033E-06-1.77779E-07 6.30558E-06 9.99897E-10 1.74531E-11-2.12228E-07
 -1      8003-5.85033E-06-1.77774E-07 6.30558E-06-1.00049E-09 1.74636E-11 2.12228E-07
 -1      8005-5.85033E-06-1.77774E-07 6.30558E-06-1.00049E-09-1.74636E-11-2.12228E-07
 -1      8006-6.25805E-06-1.77776E-07 6.71902E-06 1.97667E-12-3.44992E-14 2.26542E-07
 -1      8008-6.25805E-06-1.77776E-07 6.71902E-06 1.97667E-12 3.44992E-14-2.26542E-07
 -1      8009-5.85017E-06-1.77777E-07 6.30542E-06 9.98695E-10-1.74322E-11 2.12222E-07
 -1      8011-5.85017E-06-1.77777E-07 6.30542E-06 9.98695E-10 1.74322E-11-2.12222E-07
 -1      8012-5.85017E-06-1.77776E-07 6.30542E-06-1.00017E-09 1.74578E-11 2.12222E-07
 -1      8014-5.85017E-06-1.77776E-07 6.30542E-06-1.00017E-09-1.74578E-11-2.12222E-07
 -1      8015-6.25805E-06-1.77778E-07 6.71901E-06-4.48701E-12 7.83129E-14 2.26542E-07
 -1      8017-6.25805E-06-1.77778E-07 6.71901E-06-4.48701E-12-7.83129E-14-2.26542E-07
 -1      8018-5.85008E-06-1.77775E-07 6.30533E-06 9.99752E-10-1.74505E-11 2.12219E-07
 -1      8020-5.85008E-06-1.77775E-07 6.30533E-06 9.99752E-10 1.74505E-11-2.12219E-07
 -1      8021-5.85007E-06-1.77778E-07 6.30533E-06-9.97848E-10 1.74174E-11 2.12219E-07
 -1      8023-5.85007E-06-1.77778E-07 6.30533E-06-9.97848E-10-1.74174E-11-2.12219E-07
 -1      8024-6.25812E-06-1.77771E-07 6.71906E-06-7.12209E-12 1.24305E-13 2.26544E-07
 -1      8026-6.25812E-06-1.77771E-07 6.71906E-06-7.12209E-12-1.24305E-13-2.26544E-07
 -1      8027-5.85109E-06-1.77769E-07 6.30633E-06 1.00096E-09-1.74718E-11 2.12254E-07
 -1      8029-5.85109E-06-1.77769E-07 6.30633E-06 1.00096E-09 1.74718E-11-2.12254E-07
 -1      8030-5.85105E-06-1.77787E-07 6.30633E-06-9.96541E-10 1.73947E-11 2.12253E-07
 -1      8032-5.85105E-06-1.77787E-07 6.30633E-06-9.96541E-10-1.73947E-11-2.12253E-07
 -1      8033-6.25799E-06-1.77767E-07 6.71896E-06 3.87047E-11-6.75515E-13 2.26541E-07
 -1      8035-6.25799E-06-1.77767E-07 6.71896E-06 3.87047E-11 6.75515E-13-2.26541E-07
 -1      8036-5.84902E-06-1.77759E-07 6.30419E-06 1.00565E-09-1.75548E-11 2.12181E-07
 -1      8038-5.84902E-06-1.77759E-07 6.30419E-06 1.00565E-09 1.75548E-11-2.12181E-07
 -1      8039-5.84895E-06-1.77809E-07 6.30425E-06-1.01622E-09 1.77372E-11 2.12181E-07
 -1      8041-5.84895E-06-1.77809E-07 6.30425E-06-1.01622E-09-1.77372E-11-2.12181E-07
 -1      8042-6.25747E-06-1.77765E-07 6.71859E-06 6.54458E-11-1.14222E-12 2.26526E-07
 -1      8044-6.25747E-06-1.77765E-07 6.71859E-06 6.54458E-11 1.14222E-12-2.26526E-07
 -1      8045-5.84110E-06-1.77723E-07 6.29609E-06 1.02752E-09-1.79375E-11 2.11903E-07
 -1      8047-5.84110E-06-1.77723E-07 6.29609E-06 1.02752E-09 1.79375E-11-2.11903E-07
 -1      8048-5.84094E-06-1.77838E-07 6.29622E-06-1.04832E-09 1.82969E-11 2.11902E-07
 -1      8050-5.84094E-06-1.77838E-07 6.29622E-06-1.04832E-09-1.82969E-11-2.11902E-07
 -1      8051-6.25677E-06-1.77489E-07 6.71792E-06 1.62416E-10-2.83462E-12 2.26504E-07
 -1      8053-6.25677E-06-1.77489E-07 6.71792E-06 1.62416E-10 2.83462E-12-2.26504E-07
 -1      8054-5.82732E-06-1.77481E-07 6.28177E-06 9.66404E-10-1.68785E-11 2.11417E-07
 -1      8056-5.82732E-06-1.77481E-07 6.28177E-06 9.66404E-10 1.68785E-11-2.11417E-07
 -1      8057-5.82675E-06-1.78010E-07 6.28215E-06-1.01259E-09 1.76717E-11 2.11412E-07
 -1      8059-5.82675E-06-1.78010E-07 6.28215E-06-1.01259E-09-1.76717E-11-2.11412E-07
 -1      8060-6.25492E-06-1.78127E-07 6.71672E-06 6.21645E-11-1.08496E-12 2.26454E-07
 -1      8062-6.25492E-06-1.78127E-07 6.71672E-06 6.21645E-11 1.08496E-12-2.26454E-07
 -1      8063-5.80163E-06-1.77942E-07 6.25743E-06 6.10436E-11-1.07495E-12 2.10549E-07
 -1      8065-5.80163E-06-1.77942E-07 6.25743E-06 6.10436E-11 1.07495E-12-2.10549E-07
 -1      8066-5.80299E-06-1.77718E-07 6.25794E-06-9.63851E-10 1.68146E-11 2.10580E-07
 -1      8068-5.80299E-06-1.77718E-07 6.25794E-06-9.63851E-10-1.68146E-11-2.10580E-07
 -1      8069-5.37781E-06-1.78056E-07 5.83978E-06 4.35392E-10-7.60152E-12 1.95829E-07
 -1      8071-5.37781E-06-1.78056E-07 5.83978E-06 4.35392E-10 7.60152E-12-1.95829E-07
 -1      8072-5.78279E-06-1.78067E-07 6.23886E-06-1.65751E-09 2.89117E-11 2.09898E-07
 -1      8074-5.78279E-06-1.78067E-07 6.23886E-06-1.65751E-09-2.89117E-11-2.09898E-07
 -1      8075-5.33928E-06-1.77440E-07 5.79836E-06 4.35244E-10-7.59793E-12 1.94437E-07
 -1      8077-5.33928E-06-1.77440E-07 5.79836E-06 4.35244E-10 7.59793E-12-1.94437E-07
 -1      8078-4.95921E-06-1.77269E-07 5.41408E-06 1.59826E-09-2.78796E-11 1.81110E-07
 -1      8080-4.95921E-06-1.77269E-07 5.41408E-06 1.59826E-09 2.78796E-11-1.81110E-07
 -1      8081-4.97479E-06-1.78132E-07 5.43148E-06 2.83399E-10-4.95781E-12 1.81686E-07
 -1      8083-4.97479E-06-1.78132E-07 5.43148E-06 2.83399E-10 4.95781E-12-1.81686E-07
 -1      8084-4.30552E-06-1.77940E-07 4.76219E-06-7.57591E-10 1.31519E-11 1.58306E-07
 -1      8086-4.30552E-06-1.77940E-07 4.76219E-06-7.57591E-10-1.31519E-11-1.58306E-07
 -1      8087-4.11896E-06-1.77618E-07 4.57606E-06 1.02698E-09-1.79354E-11 1.51786E-07
 -1      8089-4.11896E-06-1.77618E-07 4.57606E-06 1.02698E-09 1.79354E-11-1.51786E-07
 -1      8090-4.41334E-06-1.78043E-07 4.87007E-06-5.70665E-10 9.93757E-12 1.62061E-07
 -1      8092-4.41334E-06-1.78043E-07 4.87007E-06-5.70665E-10-9.93757E-12-1.62061E-07
 -1      8093-3.30416E-06-1.77775E-07 3.76128E-06-4.93381E-11 8.14401E-13 1.23345E-07
 -1      8095-3.30416E-06-1.77775E-07 3.76128E-06-4.93381E-11-8.14401E-13-1.23345E-07
 -1      8096-3.20286E-06-1.77774E-07 3.65996E-06 6.00527E-10-1.04842E-11 1.19801E-07
 -1      8098-3.20286E-06-1.77774E-07 3.65996E-06 6.00527E-10 1.04842E-11-1.19801E-07
 -1      8099-3.40562E-06-1.77791E-07 3.86283E-06-6.82745E-10 1.19200E-11 1.26882E-07
 -1      8101-3.40562E-06-1.77791E-07 3.86283E-06-6.82745E-10-1.19200E-11-1.26882E-07
 -1      8102-2.60725E-06-1.77781E-07 3.06441E-06-2.14864E-11 3.40215E-13 9.90109E-08
 -1      8104-2.60725E-06-1.77781E-07 3.06441E-06-2.14864E-11-3.40215E-13-9.90109E-08
 -1      8105-2.53166E-06-1.77775E-07 2.98878E-06 3.98071E-10-6.95019E-12 9.63664E-08
 -1      8107-2.53166E-06-1.77775E-07 2.98878E-06 3.98071E-10 6.95019E-12-9.63664E-08
 -1      8108-2.68320E-06-1.77772E-07 3.14035E-06-4.49167E-10 7.84087E-12 1.01658E-07
 -1      8110-2.68320E-06-1.77772E-07 3.14035E-06-4.49167E-10-7.84087E-12-1.01658E-07
 -1      8111-2.09778E-06-1.77772E-07 2.55491E-06-1.71429E-11 2.74969E-13 8.12202E-08
 -1      8113-2.09778E-06-1.77772E-07 2.55491E-06-1.71429E-11-2.74969E-13-8.12202E-08
 -1      8114-2.04219E-06-1.77779E-07 2.49934E-06 2.64955E-10-4.62516E-12 7.92772E-08
 -1      8116-2.04219E-06-1.77779E-07 2.49934E-06 2.64955E-10 4.62516E-12-7.92772E-08
 -1      8117-2.15063E-06-1.77778E-07 2.60777E-06-2.87186E-10 5.01403E-12 8.30629E-08
 -1      8119-2.15063E-06-1.77778E-07 2.60777E-06-2.87186E-10-5.01403E-12-8.30629E-08
 -1      8120-1.71112E-06-1.77773E-07 2.16825E-06-1.30567E-11 2.09325E-13 6.77196E-08
 -1      8122-1.71112E-06-1.77773E-07 2.16825E-06-1.30567E-11-2.09325E-13-6.77196E-08
 -1      8123-1.66938E-06-1.77776E-07 2.12652E-06 1.81713E-10-3.17219E-12 6.62606E-08
 -1      8125-1.66938E-06-1.77776E-07 2.12652E-06 1.81713E-10 3.17219E-12-6.62606E-08
 -1      8126-1.75194E-06-1.77777E-07 2.20909E-06-2.01946E-10 3.52588E-12 6.91434E-08
 -1      8128-1.75194E-06-1.77777E-07 2.20909E-06-2.01946E-10-3.52588E-12-6.91434E-08
 -1      8129-1.41594E-06-1.77780E-07 1.87309E-06-8.09499E-12 1.25642E-13 5.74141E-08
 -1      8131-1.41594E-06-1.77780E-07 1.87309E-06-8.09499E-12-1.25642E-13-5.74141E-08
 -1      8132-1.38191E-06-1.77774E-07 1.83905E-06 1.37203E-10-2.39568E-12 5.62244E-08
 -1      8134-1.38191E-06-1.77774E-07 1.83905E-06 1.37203E-10 2.39568E-12-5.62244E-08
 -1      8135-1.44886E-06-1.77774E-07 1.90600E-06-1.47906E-10 2.58176E-12 5.85618E-08
 -1      8137-1.44886E-06-1.77774E-07 1.90600E-06-1.47906E-10-2.58176E-12-5.85618E-08
 -1      8138-1.18330E-06-1.77774E-07 1.64043E-06-4.96774E-12 7.51987E-14 4.92911E-08
 -1      8140-1.18330E-06-1.77774E-07 1.64043E-06-4.96774E-12-7.51987E-14-4.92911E-08
 -1      8141-1.15706E-06-1.77777E-07 1.61420E-06 9.81255E-11-1.71293E-12 4.83741E-08
 -1      8143-1.15706E-06-1.77777E-07 1.61420E-06 9.81255E-11 1.71293E-12-4.83741E-08
 -1      8144-1.20835E-06-1.77776E-07 1.66549E-06-1.03957E-10 1.81500E-12 5.01647E-08
 -1      8146-1.20835E-06-1.77776E-07 1.66549E-06-1.03957E-10-1.81500E-12-5.01647E-08
 -1      8147-9.95180E-07-1.77775E-07 1.45232E-06-3.63287E-12 5.41186E-14 4.27232E-08
 -1      8149-9.95180E-07-1.77775E-07 1.45232E-06-3.63287E-12-5.41186E-14-4.27232E-08
 -1      8150-9.74518E-07-1.77776E-07 1.43166E-06 7.22787E-11-1.26178E-12 4.20011E-08
 -1      8152-9.74518E-07-1.77776E-07 1.43166E-06 7.22787E-11 1.26178E-12-4.20011E-08
 -1      8153-1.01591E-06-1.77777E-07 1.47305E-06-7.94600E-11 1.38735E-12 4.34463E-08
 -1      8155-1.01591E-06-1.77777E-07 1.47305E-06-7.94600E-11-1.38735E-12-4.34463E-08
 -1      8156-8.44915E-07-1.77775E-07 1.30205E-06-2.69977E-12 3.94963E-14 3.74770E-08
 -1      8158-8.44915E-07-1.77775E-07 1.30205E-06-2.69977E-12-3.94963E-14-3.74770E-08
 -1      8159-8.27447E-07-1.77776E-07 1.28459E-06 5.70303E-11-9.95538E-13 3.68666E-08
 -1      8161-8.27447E-07-1.77776E-07 1.28459E-06 5.70303E-11 9.95538E-13-3.68666E-08
 -1      8162-8.61457E-07-1.77776E-07 1.31860E-06-5.93377E-11 1.03598E-12 3.80539E-08
 -1      8164-8.61457E-07-1.77776E-07 1.31860E-06-5.93377E-11-1.03598E-12-3.80539E-08
 -1      8165-7.18547E-07-1.77775E-07 1.17568E-06-2.10558E-12 3.04262E-14 3.30651E-08
 -1      8167-7.18547E-07-1.77775E-07 1.17568E-06-2.10558E-12-3.04262E-14-3.30651E-08
 -1      8168-7.04412E-07-1.77776E-07 1.16155E-06 4.37508E-11-7.63746E-13 3.25712E-08
 -1      8170-7.04412E-07-1.77776E-07 1.16155E-06 4.37508E-11 7.63746E-13-3.25712E-08
 -1      8171-7.32598E-07-1.77776E-07 1.18974E-06-4.73146E-11 8.26113E-13 3.35553E-08
 -1      8173-7.32598E-07-1.77776E-07 1.18974E-06-4.73146E-11-8.26113E-13-3.35553E-08
 -1      8174-6.14169E-07-1.77777E-07 1.07131E-06-1.48187E-12 2.01292E-14 2.94211E-08
 -1      8176-6.14169E-07-1.77777E-07 1.07131E-06-1.48187E-12-2.01292E-14-2.94211E-08
 -1      8177-6.01745E-07-1.77776E-07 1.05888E-06 3.64427E-11-6.36354E-13 2.89869E-08
 -1      8179-6.01745E-07-1.77776E-07 1.05888E-06 3.64427E-11 6.36354E-13-2.89869E-08
 -1      8180-6.26314E-07-1.77776E-07 1.08345E-06-3.84268E-11 6.70722E-13 2.98447E-08
 -1      8182-6.26314E-07-1.77776E-07 1.08345E-06-3.84268E-11-6.70722E-13-2.98447E-08
 -1      8183-5.26123E-07-1.77776E-07 9.83261E-07-1.09271E-12 1.45844E-14 2.63472E-08
 -1      8185-5.26123E-07-1.77776E-07 9.83261E-07-1.09271E-12-1.45844E-14-2.63472E-08
 -1      8186-5.15859E-07-1.77776E-07 9.72999E-07 2.84168E-11-4.96033E-13 2.59886E-08
 -1      8188-5.15859E-07-1.77776E-07 9.72999E-07 2.84168E-11 4.96033E-13-2.59886E-08
 -1      8189-5.35910E-07-1.77776E-07 9.93049E-07-2.93636E-11 5.12683E-13 2.66886E-08
 -1      8191-5.35910E-07-1.77776E-07 9.93049E-07-2.93636E-11-5.12683E-13-2.66886E-08
 -1      8192-4.50538E-07-1.77776E-07 9.07675E-07-1.09240E-12 1.52534E-14 2.37083E-08
 -1      8194-4.50538E-07-1.77776E-07 9.07675E-07-1.09240E-12-1.52534E-14-2.37083E-08
 -1      8195-4.41889E-07-1.77776E-07 8.99028E-07 2.26334E-11-3.95091E-13 2.34061E-08
 -1      8197-4.41889E-07-1.77776E-07 8.99028E-07 2.26334E-11 3.95091E-13-2.34061E-08
 -1      8198-4.59005E-07-1.77776E-07 9.16143E-07-2.40771E-11 4.20407E-13 2.40037E-08
 -1      8200-4.59005E-07-1.77776E-07 9.16143E-07-2.40771E-11-4.20407E-13-2.40037E-08
 -1      8201-3.86336E-07-1.77777E-07 8.43476E-07-9.96678E-13 1.38712E-14 2.14670E-08
 -1      8203-3.86336E-07-1.77777E-07 8.43476E-07-9.96678E-13-1.38712E-14-2.14670E-08
 -1      8204-3.78466E-07-1.77776E-07 8.35604E-07 1.94042E-11-3.38838E-13 2.11920E-08
 -1      8206-3.78466E-07-1.77776E-07 8.35604E-07 1.94042E-11 3.38838E-13-2.11920E-08
 -1      8207-3.93780E-07-1.77776E-07 8.50917E-07-2.00186E-11 3.49409E-13 2.17266E-08
 -1      8209-3.93780E-07-1.77776E-07 8.50917E-07-2.00186E-11-3.49409E-13-2.17266E-08
 -1      8210-3.30818E-07-1.77776E-07 7.87956E-07-6.95813E-13 9.30710E-15 1.95287E-08
 -1      8212-3.30818E-07-1.77776E-07 7.87956E-07-6.95813E-13-9.30710E-15-1.95287E-08
 -1      8213-3.24180E-07-1.77776E-07 7.81320E-07 1.54205E-11-2.69183E-13 1.92968E-08
 -1      8215-3.24180E-07-1.77776E-07 7.81320E-07 1.54205E-11 2.69183E-13-1.92968E-08
 -1      8216-3.36977E-07-1.77776E-07 7.94114E-07-1.56910E-11 2.73955E-13 1.97435E-08
 -1      8218-3.36977E-07-1.77776E-07 7.94114E-07-1.56910E-11-2.73955E-13-1.97435E-08
 -1      8219-2.82067E-07-1.77776E-07 7.39205E-07 4.80918E-14-3.44402E-15 1.78267E-08
 -1      8221-2.82067E-07-1.77776E-07 7.39205E-07 4.80918E-14 3.44402E-15-1.78267E-08
 -1      8222-2.76650E-07-1.77776E-07 7.33788E-07 1.28609E-11-2.24507E-13 1.76375E-08
 -1      8224-2.76650E-07-1.77776E-07 7.33788E-07 1.28609E-11 2.24507E-13-1.76375E-08
 -1      8225-2.87814E-07-1.77776E-07 7.44952E-07-1.38528E-11 2.41821E-13 1.80272E-08
 -1      8227-2.87814E-07-1.77776E-07 7.44952E-07-1.38528E-11-2.41821E-13-1.80272E-08
 -1      8228-2.39803E-07-1.77776E-07 6.96942E-07-2.37338E-13 1.74841E-15 1.63512E-08
 -1      8230-2.39803E-07-1.77776E-07 6.96942E-07-2.37338E-13-1.74841E-15-1.63512E-08
 -1      8231-2.34759E-07-1.77776E-07 6.91895E-07 1.16944E-11-2.04181E-13 1.61750E-08
 -1      8233-2.34759E-07-1.77776E-07 6.91895E-07 1.16944E-11 2.04181E-13-1.61750E-08
 -1      8234-2.44940E-07-1.77776E-07 7.02079E-07-1.21421E-11 2.11971E-13 1.65304E-08
 -1      8236-2.44940E-07-1.77776E-07 7.02079E-07-1.21421E-11-2.11971E-13-1.65304E-08
 -1      8237-2.02574E-07-1.77774E-07 6.59708E-07 8.95316E-14-3.37546E-15 1.50514E-08
 -1      8239-2.02574E-07-1.77774E-07 6.59708E-07 8.95316E-14 3.37546E-15-1.50514E-08
 -1      8240-1.97349E-07-1.77776E-07 6.54489E-07 1.52174E-11-2.65111E-13 1.48691E-08
 -1      8242-1.97349E-07-1.77776E-07 6.54489E-07 1.52174E-11 2.65111E-13-1.48691E-08
 -1      8243-2.06021E-07-1.77776E-07 6.63159E-07-1.01811E-11 1.77893E-13 1.51718E-08
 -1      8245-2.06021E-07-1.77776E-07 6.63159E-07-1.01811E-11-1.77893E-13-1.51718E-08
 -1      8246-1.85755E-07-1.77775E-07 6.42881E-07-1.55673E-11 2.71739E-13 1.44642E-08
 -1      8248-1.85755E-07-1.77775E-07 6.42881E-07-1.55673E-11-2.71739E-13-1.44642E-08
 -1      8249-1.77618E-07-1.77775E-07 6.34762E-07 7.21776E-12-1.25973E-13 1.41803E-08
 -1      8251-1.77618E-07-1.77775E-07 6.34762E-07 7.21776E-12 1.25973E-13-1.41803E-08
 -1      8252-1.85730E-07-1.77775E-07 6.42866E-07-4.78142E-12 8.48788E-14 1.44635E-08
 -1      8254-1.85730E-07-1.77775E-07 6.42866E-07-4.78142E-12-8.48788E-14-1.44635E-08
 -1      8255-1.77616E-07-1.77777E-07 6.34775E-07-1.60462E-12 2.80068E-14 1.41804E-08
 -1      8257-1.77616E-07-1.77777E-07 6.34775E-07-1.60462E-12-2.80068E-14-1.41804E-08
 -1      8258-1.84693E-07-1.77776E-07 6.41820E-07 5.40166E-12-9.40941E-14 1.44270E-08
 -1      8260-1.84693E-07-1.77776E-07 6.41820E-07 5.40166E-12 9.40941E-14-1.44270E-08
 -1      8261-1.84671E-07-1.77772E-07 6.41802E-07 3.97950E-12-7.15189E-14 1.44264E-08
 -1      8263-1.84671E-07-1.77772E-07 6.41802E-07 3.97950E-12 7.15189E-14-1.44264E-08
 -1      8264-1.77615E-07-1.77776E-07 6.34772E-07-7.27160E-13 1.26912E-14 1.41804E-08
 -1      8266-1.77615E-07-1.77776E-07 6.34772E-07-7.27160E-13-1.26912E-14-1.41804E-08
 -1      8267-1.84983E-07-1.77776E-07 6.42112E-07 4.45425E-12-7.78077E-14 1.44372E-08
 -1      8269-1.84983E-07-1.77776E-07 6.42112E-07 4.45425E-12 7.78077E-14-1.44372E-08
 -1      8270-1.84983E-07-1.77776E-07 6.42111E-07-3.79796E-12 6.62168E-14 1.44372E-08
 -1      8272-1.84983E-07-1.77776E-07 6.42111E-07-3.79796E-12-6.62168E-14-1.44372E-08
 -1      8273-1.77619E-07-1.77776E-07 6.34774E-07 2.89612E-14-5.05517E-16 1.41805E-08
 -1      8275-1.77619E-07-1.77776E-07 6.34774E-07 2.89612E-14 5.05517E-16-1.41805E-08
 -1      8276-1.84774E-07-1.77776E-07 6.41904E-07 4.05327E-12-7.07381E-14 1.44299E-08
 -1      8278-1.84774E-07-1.77776E-07 6.41904E-07 4.05327E-12 7.07381E-14-1.44299E-08
 -1      8279-1.84775E-07-1.77776E-07 6.41904E-07-4.12373E-12 7.19659E-14 1.44299E-08
 -1      8281-1.84775E-07-1.77776E-07 6.41904E-07-4.12373E-12-7.19659E-14-1.44299E-08
 -1      8282-1.77617E-07-1.77776E-07 6.34773E-07 1.48749E-13-2.59616E-15 1.41804E-08
 -1      8284-1.77617E-07-1.77776E-07 6.34773E-07 1.48749E-13 2.59616E-15-1.41804E-08
 -1      8285-1.84846E-07-1.77776E-07 6.41976E-07 4.05808E-12-7.08248E-14 1.44324E-08
 -1      8287-1.84846E-07-1.77776E-07 6.41976E-07 4.05808E-12 7.08248E-14-1.44324E-08
 -1      8288-1.84847E-07-1.77776E-07 6.41976E-07-4.12023E-12 7.19320E-14 1.44324E-08
 -1      8290-1.84847E-07-1.77776E-07 6.41976E-07-4.12023E-12-7.19320E-14-1.44324E-08
 -1      8291-1.77617E-07-1.77776E-07 6.34773E-07 1.87545E-14-3.27327E-16 1.41804E-08
 -1      8293-1.77617E-07-1.77776E-07 6.34773E-07 1.87545E-14 3.27326E-16-1.41804E-08
 -1      8294-1.84878E-07-1.77776E-07 6.42008E-07 4.09241E-12-7.14334E-14 1.44335E-08
 -1      8296-1.84878E-07-1.77776E-07 6.42008E-07 4.09241E-12 7.14334E-14-1.44335E-08
 -1      8297-1.84878E-07-1.77776E-07 6.42008E-07-4.11025E-12 7.17466E-14 1.44335E-08
 -1      8299-1.84878E-07-1.77776E-07 6.42008E-07-4.11025E-12-7.17466E-14-1.44335E-08
 -1      8300-1.77617E-07-1.77776E-07 6.34773E-07-2.95328E-14 5.15448E-16 1.41804E-08
 -1      8302-1.77617E-07-1.77776E-07 6.34773E-07-2.95328E-14-5.15448E-16-1.41804E-08
 -1      8303-1.84868E-07-1.77776E-07 6.41997E-07 4.10067E-12-7.15789E-14 1.44332E-08
 -1      8305-1.84868E-07-1.77776E-07 6.41997E-07 4.10067E-12 7.15789E-14-1.44332E-08
 -1      8306-1.84868E-07-1.77776E-07 6.41997E-07-4.09101E-12 7.14054E-14 1.44332E-08
 -1      8308-1.84868E-07-1.77776E-07 6.41997E-07-4.09101E-12-7.14054E-14-1.44332E-08
 -1      8309-1.77617E-07-1.77776E-07 6.34773E-07-1.02434E-14 1.78782E-16 1.41804E-08
 -1      8311-1.77617E-07-1.77776E-07 6.34773E-07-1.02435E-14-1.78783E-16-1.41804E-08
 -1      8312-1.84858E-07-1.77776E-07 6.41987E-07 4.09357E-12-7.14531E-14 1.44328E-08
 -1      8314-1.84858E-07-1.77776E-07 6.41987E-07 4.09357E-12 7.14531E-14-1.44328E-08
 -1      8315-1.84858E-07-1.77776E-07 6.41987E-07-4.07990E-12 7.12129E-14 1.44328E-08
 -1      8317-1.84858E-07-1.77776E-07 6.41987E-07-4.07990E-12-7.12129E-14-1.44328E-08
 -1      8318-1.77617E-07-1.77776E-07 6.34773E-07-4.49881E-14 7.85191E-16 1.41804E-08
 -1      8320-1.77617E-07-1.77776E-07 6.34773E-07-4.49881E-14-7.85191E-16-1.41804E-08
 -1      8321-1.84851E-07-1.77776E-07 6.41980E-07 4.09100E-12-7.14133E-14 1.44326E-08
 -1      8323-1.84851E-07-1.77776E-07 6.41980E-07 4.09100E-12 7.14133E-14-1.44326E-08
 -1      8324-1.84851E-07-1.77776E-07 6.41980E-07-4.05990E-12 7.08628E-14 1.44326E-08
 -1      8326-1.84851E-07-1.77776E-07 6.41980E-07-4.05990E-12-7.08628E-14-1.44326E-08
 -1      8327-1.77618E-07-1.77776E-07 6.34774E-07-8.19203E-14 1.42978E-15 1.41805E-08
 -1      8329-1.77618E-07-1.77776E-07 6.34774E-07-8.19203E-14-1.42978E-15-1.41805E-08
 -1      8330-1.84812E-07-1.77776E-07 6.41942E-07 4.06945E-12-7.10387E-14 1.44312E-08
 -1      8332-1.84812E-07-1.77776E-07 6.41942E-07 4.06945E-12 7.10387E-14-1.44312E-08
 -1      8333-1.84812E-07-1.77776E-07 6.41942E-07-4.03718E-12 7.04608E-14 1.44312E-08
 -1      8335-1.84812E-07-1.77776E-07 6.41942E-07-4.03718E-12-7.04608E-14-1.44312E-08
 -1      8336-1.77618E-07-1.77776E-07 6.34774E-07 2.19789E-13-3.83600E-15 1.41804E-08
 -1      8338-1.77618E-07-1.77776E-07 6.34774E-07 2.19789E-13 3.83600E-15-1.41804E-08
 -1      8339-1.84807E-07-1.77776E-07 6.41937E-07 4.00547E-12-6.98850E-14 1.44311E-08
 -1      8341-1.84807E-07-1.77776E-07 6.41937E-07 4.00547E-12 6.98850E-14-1.44311E-08
 -1      8342-1.84808E-07-1.77776E-07 6.41937E-07-4.13843E-12 7.22411E-14 1.44311E-08
 -1      8344-1.84808E-07-1.77776E-07 6.41937E-07-4.13843E-12-7.22411E-14-1.44311E-08
 -1      8345-1.77614E-07-1.77776E-07 6.34771E-07 1.38677E-13-2.42042E-15 1.41803E-08
 -1      8347-1.77614E-07-1.77776E-07 6.34771E-07 1.38677E-13 2.42042E-15-1.41803E-08
 -1      8348-1.85038E-07-1.77776E-07 6.42167E-07 3.82289E-12-6.67616E-14 1.44391E-08
 -1      8350-1.85038E-07-1.77776E-07 6.42167E-07 3.82289E-12 6.67616E-14-1.44391E-08
 -1      8351-1.85038E-07-1.77776E-07 6.42167E-07-4.05771E-12 7.08764E-14 1.44391E-08
 -1      8353-1.85038E-07-1.77776E-07 6.42167E-07-4.05771E-12-7.08764E-14-1.44391E-08
 -1      8354-1.77628E-07-1.77776E-07 6.34780E-07-3.27525E-12 5.71635E-14 1.41807E-08
 -1      8356-1.77628E-07-1.77776E-07 6.34780E-07-3.27525E-12-5.71635E-14-1.41807E-08
 -1      8357-1.84263E-07-1.77776E-07 6.41395E-07 4.43357E-12-7.78157E-14 1.44121E-08
 -1      8359-1.84263E-07-1.77776E-07 6.41395E-07 4.43357E-12 7.78157E-14-1.44121E-08
 -1      8360-1.84259E-07-1.77776E-07 6.41390E-07-2.43580E-12 4.22773E-14 1.44119E-08
 -1      8362-1.84259E-07-1.77776E-07 6.41390E-07-2.43580E-12-4.22773E-14-1.44119E-08
 -1      8363-1.77645E-07-1.77773E-07 6.34792E-07-3.67874E-13 6.42045E-15 1.41812E-08
 -1      8365-1.77645E-07-1.77773E-07 6.34792E-07-3.67874E-13-6.42045E-15-1.41812E-08
 -1      8366-1.83036E-07-1.77776E-07 6.40171E-07 9.78527E-13-1.60187E-14 1.43693E-08
 -1      8368-1.83036E-07-1.77776E-07 6.40171E-07 9.78527E-13 1.60187E-14-1.43693E-08
 -1      8369-1.83043E-07-1.77778E-07 6.40177E-07-3.06877E-12 5.31366E-14 1.43695E-08
 -1      8371-1.83043E-07-1.77778E-07 6.40177E-07-3.06877E-12-5.31366E-14-1.43695E-08
 -1      8372-1.89677E-07-1.77776E-07 6.46827E-07-4.78444E-12 8.34999E-14 1.46013E-08
 -1      8374-1.89677E-07-1.77776E-07 6.46827E-07-4.78444E-12-8.34999E-14-1.46013E-08
 -1      8375-1.85754E-07-1.77780E-07 6.42893E-07-3.02310E-12 5.48797E-14 1.44643E-08
 -1      8377-1.85754E-07-1.77780E-07 6.42893E-07-3.02310E-12-5.48797E-14-1.44643E-08
 -1      8378-1.91205E-07-1.77772E-07 6.48341E-07 5.48146E-12-9.53751E-14 1.46544E-08
 -1      8380-1.91205E-07-1.77772E-07 6.48341E-07 5.48146E-12 9.53751E-14-1.46544E-08
 -1      8381-4.96016E-06-1.78173E-07 5.41650E-06 9.05107E-10-1.57158E-11 1.81162E-07
 -1      8383-4.96016E-06-1.78173E-07 5.41650E-06 9.05107E-10 1.57158E-11-1.81162E-07
 -1      8384-5.10493E-06-1.77721E-07 5.56168E-06 3.05290E-10-5.30239E-12 1.86209E-07
 -1      8386-5.10493E-06-1.77721E-07 5.56168E-06 3.05290E-10 5.30239E-12-1.86209E-07
 -1      8387-4.74444E-06-1.77626E-07 5.20145E-06-5.58879E-10 9.77024E-12 1.73624E-07
 -1      8389-4.74444E-06-1.77626E-07 5.20145E-06-5.58879E-10-9.77024E-12-1.73624E-07
 -1      8390-4.30513E-06-1.78043E-07 4.76230E-06 1.01113E-11-1.15984E-13 1.58300E-07
 -1      8392-4.30513E-06-1.78043E-07 4.76230E-06 1.01113E-11 1.15984E-13-1.58300E-07
 -1      8393-4.46020E-06-1.77674E-07 4.91777E-06 4.37973E-10-7.64299E-12 1.63709E-07
 -1      8395-4.46020E-06-1.77674E-07 4.91777E-06 4.37973E-10 7.64299E-12-1.63709E-07
 -1      8396-4.16525E-06-1.77694E-07 4.62213E-06-4.81014E-10 8.40084E-12 1.53401E-07
 -1      8398-4.16525E-06-1.77694E-07 4.62213E-06-4.81014E-10-8.40084E-12-1.53401E-07
 -1      8399-4.59818E-06-1.78109E-07 5.05500E-06-3.91775E-12 5.58223E-14 1.68522E-07
 -1      8401-4.59818E-06-1.78109E-07 5.05500E-06-3.91775E-12-5.58223E-14-1.68522E-07
 -1      8402-3.75820E-06-1.77943E-07 4.21535E-06-7.01811E-11 1.27685E-12 1.39202E-07
 -1      8404-3.75820E-06-1.77943E-07 4.21535E-06-7.01811E-11-1.27685E-12-1.39202E-07
 -1      8405-3.89984E-06-1.77666E-07 4.35726E-06 5.36037E-10-9.35723E-12 1.44142E-07
 -1      8407-3.89984E-06-1.77666E-07 4.35726E-06 5.36037E-10 9.35723E-12-1.44142E-07
 -1      8408-3.64698E-06-1.77797E-07 4.10407E-06-4.17245E-10 7.28603E-12 1.35310E-07
 -1      8410-3.64698E-06-1.77797E-07 4.10407E-06-4.17245E-10-7.28603E-12-1.35310E-07
 -1      8411-4.04833E-06-1.77757E-07 4.50526E-06-3.46730E-11 5.98908E-13 1.49328E-07
 -1      8413-4.04833E-06-1.77757E-07 4.50526E-06-3.46730E-11-5.98908E-13-1.49328E-07
 -1      8414-3.30417E-06-1.77907E-07 3.76127E-06-4.20896E-11 7.76100E-13 1.23345E-07
 -1      8416-3.30417E-06-1.77907E-07 3.76127E-06-4.20896E-11-7.76100E-13-1.23345E-07
 -1      8417-3.41717E-06-1.77626E-07 3.87440E-06 4.46617E-10-7.79873E-12 1.27286E-07
 -1      8419-3.41717E-06-1.77626E-07 3.87440E-06 4.46617E-10 7.79873E-12-1.27286E-07
 -1      8420-3.21416E-06-1.77754E-07 3.67126E-06-3.27143E-10 5.71146E-12 1.20196E-07
 -1      8422-3.21416E-06-1.77754E-07 3.67126E-06-3.27143E-10-5.71146E-12-1.20196E-07
 -1      8423-3.55280E-06-1.77892E-07 4.00990E-06-7.20918E-11 1.25959E-12 1.32028E-07
 -1      8425-3.55280E-06-1.77892E-07 4.00990E-06-7.20918E-11-1.25959E-12-1.32028E-07
 -1      8426-2.93029E-06-1.77883E-07 3.38739E-06-1.72706E-11 3.37255E-13 1.10289E-07
 -1      8428-2.93029E-06-1.77883E-07 3.38739E-06-1.72706E-11-3.37255E-13-1.10289E-07
 -1      8429-3.02323E-06-1.77678E-07 3.48043E-06 3.54290E-10-6.18643E-12 1.13531E-07
 -1      8431-3.02323E-06-1.77678E-07 3.48043E-06 3.54290E-10 6.18643E-12-1.13531E-07
 -1      8432-2.85158E-06-1.77752E-07 3.30869E-06-2.66855E-10 4.65889E-12 1.07536E-07
 -1      8434-2.85158E-06-1.77752E-07 3.30869E-06-2.66855E-10-4.65889E-12-1.07536E-07
 -1      8435-3.13197E-06-1.77838E-07 3.58910E-06-4.69888E-11 8.20603E-13 1.17332E-07
 -1      8437-3.13197E-06-1.77838E-07 3.58910E-06-4.69888E-11-8.20603E-13-1.17332E-07
 -1      8438-2.60726E-06-1.77890E-07 3.06440E-06-2.10341E-11 4.00350E-13 9.90110E-08
 -1      8440-2.60726E-06-1.77890E-07 3.06440E-06-2.10341E-11-4.00350E-13-9.90110E-08
 -1      8441-2.68952E-06-1.77692E-07 3.14670E-06 2.95797E-10-5.16404E-12 1.01879E-07
 -1      8443-2.68952E-06-1.77692E-07 3.14670E-06 2.95797E-10 5.16404E-12-1.01879E-07
 -1      8444-2.53787E-06-1.77758E-07 2.99497E-06-2.24206E-10 3.91569E-12 9.65833E-08
 -1      8446-2.53787E-06-1.77758E-07 2.99497E-06-2.24206E-10-3.91569E-12-9.65833E-08
 -1      8447-2.77912E-06-1.77832E-07 3.23625E-06-3.21563E-11 5.61429E-13 1.05011E-07
 -1      8449-2.77912E-06-1.77832E-07 3.23625E-06-3.21563E-11-5.61429E-13-1.05011E-07
 -1      8450-2.33117E-06-1.77847E-07 2.78829E-06-1.65776E-11 3.15810E-13 8.93692E-08
 -1      8452-2.33117E-06-1.77847E-07 2.78829E-06-1.65776E-11-3.15810E-13-8.93692E-08
 -1      8453-2.39965E-06-1.77702E-07 2.85683E-06 2.36842E-10-4.13572E-12 9.17578E-08
 -1      8455-2.39965E-06-1.77702E-07 2.85683E-06 2.36842E-10 4.13572E-12-9.17578E-08
 -1      8456-2.27441E-06-1.77764E-07 2.73153E-06-1.77649E-10 3.10163E-12 8.73847E-08
 -1      8458-2.27441E-06-1.77764E-07 2.73153E-06-1.77649E-10-3.10163E-12-8.73847E-08
 -1      8459-2.47890E-06-1.77822E-07 2.93603E-06-3.05901E-11 5.34220E-13 9.45282E-08
 -1      8461-2.47890E-06-1.77822E-07 2.93603E-06-3.05901E-11-5.34220E-13-9.45282E-08
 -1      8462-2.09778E-06-1.77837E-07 2.55491E-06-8.84799E-12 1.77547E-13 8.12202E-08
 -1      8464-2.09778E-06-1.77837E-07 2.55491E-06-8.84799E-12-1.77547E-13-8.12202E-08
 -1      8465-2.15585E-06-1.77725E-07 2.61302E-06 1.90958E-10-3.33444E-12 8.32457E-08
 -1      8467-2.15585E-06-1.77725E-07 2.61302E-06 1.90958E-10 3.33444E-12-8.32457E-08
 -1      8468-2.04735E-06-1.77759E-07 2.50448E-06-1.50224E-10 2.62271E-12 7.94570E-08
 -1      8470-2.04735E-06-1.77759E-07 2.50448E-06-1.50224E-10-2.62271E-12-7.94570E-08
 -1      8471-2.22209E-06-1.77812E-07 2.67922E-06-2.29960E-11 4.01549E-13 8.55610E-08
 -1      8473-2.22209E-06-1.77812E-07 2.67922E-06-2.29960E-11-4.01549E-13-8.55610E-08
 -1      8474-1.89135E-06-1.77842E-07 2.34850E-06-1.14509E-11 2.21627E-13 7.40134E-08
 -1      8476-1.89135E-06-1.77842E-07 2.34850E-06-1.14509E-11-2.21627E-13-7.40134E-08
 -1      8477-1.94410E-06-1.77731E-07 2.40126E-06 1.63783E-10-2.85926E-12 7.58526E-08
 -1      8479-1.94410E-06-1.77731E-07 2.40126E-06 1.63783E-10 2.85926E-12-7.58526E-08
 -1      8480-1.84607E-06-1.77764E-07 2.30319E-06-1.28506E-10 2.24443E-12 7.24296E-08
 -1      8482-1.84607E-06-1.77764E-07 2.30319E-06-1.28506E-10-2.24443E-12-7.24296E-08
 -1      8483-2.00035E-06-1.77807E-07 2.45749E-06-1.61259E-11 2.81535E-13 7.78188E-08
 -1      8485-2.00035E-06-1.77807E-07 2.45749E-06-1.61259E-11-2.81535E-13-7.78188E-08
 -1      8486-1.71112E-06-1.77818E-07 2.16824E-06-9.57734E-12 1.84763E-13 6.77196E-08
 -1      8488-1.71112E-06-1.77818E-07 2.16824E-06-9.57734E-12-1.84763E-13-6.77196E-08
 -1      8489-1.75605E-06-1.77735E-07 2.21321E-06 1.34376E-10-2.34650E-12 6.92869E-08
 -1      8491-1.75605E-06-1.77735E-07 2.21321E-06 1.34376E-10 2.34650E-12-6.92869E-08
 -1      8492-1.67343E-06-1.77767E-07 2.13056E-06-1.03545E-10 1.80784E-12 6.64020E-08
 -1      8494-1.67343E-06-1.77767E-07 2.13056E-06-1.03545E-10-1.80784E-12-6.64020E-08
 -1      8495-1.80711E-06-1.77802E-07 2.26424E-06-1.63167E-11 2.84961E-13 7.10715E-08
 -1      8497-1.80711E-06-1.77802E-07 2.26424E-06-1.63167E-11-2.84961E-13-7.10715E-08
 -1      8498-1.55578E-06-1.77813E-07 2.01291E-06-5.53009E-12 1.12104E-13 6.22960E-08
 -1      8500-1.55578E-06-1.77813E-07 2.01291E-06-5.53009E-12-1.12104E-13-6.22960E-08
 -1      8501-1.59470E-06-1.77746E-07 2.05185E-06 1.10880E-10-1.93617E-12 6.36534E-08
 -1      8503-1.59470E-06-1.77746E-07 2.05185E-06 1.10880E-10 1.93617E-12-6.36534E-08
 -1      8504-1.52180E-06-1.77765E-07 1.97893E-06-8.89823E-11 1.55351E-12 6.11081E-08
 -1      8506-1.52180E-06-1.77765E-07 1.97893E-06-8.89823E-11-1.55351E-12-6.11081E-08
 -1      8507-1.63833E-06-1.77797E-07 2.09547E-06-1.25608E-11 2.19335E-13 6.51785E-08
 -1      8509-1.63833E-06-1.77797E-07 2.09547E-06-1.25608E-11-2.19335E-13-6.51785E-08
 -1      8510-1.41594E-06-1.77816E-07 1.87308E-06-7.41832E-12 1.44356E-13 5.74141E-08
 -1      8512-1.41594E-06-1.77816E-07 1.87308E-06-7.41832E-12-1.44356E-13-5.74141E-08
 -1      8513-1.45200E-06-1.77749E-07 1.90914E-06 9.73549E-11-1.69954E-12 5.86713E-08
 -1      8515-1.45200E-06-1.77749E-07 1.90914E-06 9.73549E-11 1.69954E-12-5.86713E-08
 -1      8516-1.38501E-06-1.77768E-07 1.84213E-06-7.74108E-11 1.35209E-12 5.63323E-08
 -1      8518-1.38501E-06-1.77768E-07 1.84213E-06-7.74108E-11-1.35209E-12-5.63323E-08
 -1      8519-1.48983E-06-1.77794E-07 1.94697E-06-9.13377E-12 1.59456E-13 5.99937E-08
 -1      8521-1.48983E-06-1.77794E-07 1.94697E-06-9.13377E-12-1.59456E-13-5.99937E-08
 -1      8522-1.29185E-06-1.77802E-07 1.74898E-06-6.49652E-12 1.25589E-13 5.30811E-08
 -1      8524-1.29185E-06-1.77802E-07 1.74898E-06-6.49652E-12-1.25589E-13-5.30811E-08
 -1      8525-1.32311E-06-1.77751E-07 1.78027E-06 8.16301E-11-1.42546E-12 5.41717E-08
 -1      8527-1.32311E-06-1.77751E-07 1.78027E-06 8.16301E-11 1.42546E-12-5.41717E-08
 -1      8528-1.26577E-06-1.77770E-07 1.72290E-06-6.35390E-11 1.10935E-12 5.21693E-08
 -1      8530-1.26577E-06-1.77770E-07 1.72290E-06-6.35390E-11-1.10935E-12-5.21693E-08
 -1      8531-1.35814E-06-1.77792E-07 1.81528E-06-9.73571E-12 1.70029E-13 5.53958E-08
 -1      8533-1.35814E-06-1.77792E-07 1.81528E-06-9.73571E-12-1.70029E-13-5.53958E-08
 -1      8534-1.18330E-06-1.77799E-07 1.64043E-06-4.08684E-12 8.22791E-14 4.92911E-08
 -1      8536-1.18330E-06-1.77799E-07 1.64043E-06-4.08684E-12-8.22791E-14-4.92911E-08
 -1      8537-1.21080E-06-1.77758E-07 1.66795E-06 6.87860E-11-1.20113E-12 5.02505E-08
 -1      8539-1.21080E-06-1.77758E-07 1.66795E-06 6.87860E-11 1.20113E-12-5.02505E-08
 -1      8540-1.15949E-06-1.77769E-07 1.61662E-06-5.56046E-11 9.70773E-13 4.84588E-08
 -1      8542-1.15949E-06-1.77769E-07 1.61662E-06-5.56046E-11-9.70773E-13-4.84588E-08
 -1      8543-1.24126E-06-1.77789E-07 1.69840E-06-7.78907E-12 1.36011E-13 5.13150E-08
 -1      8545-1.24126E-06-1.77789E-07 1.69840E-06-7.78907E-12-1.36011E-13-5.13150E-08
 -1      8546-1.08423E-06-1.77801E-07 1.54137E-06-5.38436E-12 1.04570E-13 4.58324E-08
 -1      8548-1.08423E-06-1.77801E-07 1.54137E-06-5.38436E-12-1.04570E-13-4.58324E-08
 -1      8549-1.11007E-06-1.77759E-07 1.56722E-06 6.16148E-11-1.07558E-12 4.67337E-08
 -1      8551-1.11007E-06-1.77759E-07 1.56722E-06 6.16148E-11 1.07558E-12-4.67337E-08
 -1      8552-1.06229E-06-1.77771E-07 1.51941E-06-4.91794E-11 8.59031E-13 4.50653E-08
 -1      8554-1.06229E-06-1.77771E-07 1.51941E-06-4.91794E-11-8.59031E-13-4.50653E-08
 -1      8555-1.13689E-06-1.77787E-07 1.59403E-06-5.91422E-12 1.03247E-13 4.76711E-08
 -1      8557-1.13689E-06-1.77787E-07 1.59403E-06-5.91422E-12-1.03247E-13-4.76711E-08
 -1      8558-9.95180E-07-1.77793E-07 1.45232E-06-4.75873E-12 9.18494E-14 4.27232E-08
 -1      8560-9.95180E-07-1.77793E-07 1.45232E-06-4.75873E-12-9.18494E-14-4.27232E-08
 -1      8561-1.01790E-06-1.77760E-07 1.47505E-06 5.25598E-11-9.17826E-13 4.35159E-08
 -1      8563-1.01790E-06-1.77760E-07 1.47505E-06 5.25598E-11 9.17826E-13-4.35159E-08
 -1      8564-9.76490E-07-1.77772E-07 1.43362E-06-4.08936E-11 7.13987E-13 4.20699E-08
 -1      8566-9.76490E-07-1.77772E-07 1.43362E-06-4.08936E-11-7.13987E-13-4.20699E-08
 -1      8567-1.04309E-06-1.77786E-07 1.50023E-06-6.47484E-12 1.13085E-13 4.43961E-08
 -1      8569-1.04309E-06-1.77786E-07 1.50023E-06-6.47484E-12-1.13085E-13-4.43961E-08
 -1      8570-9.16358E-07-1.77791E-07 1.37349E-06-3.43971E-12 6.80111E-14 3.99713E-08
 -1      8572-9.16358E-07-1.77791E-07 1.37349E-06-3.43971E-12-6.80111E-14-3.99713E-08
 -1      8573-9.36645E-07-1.77764E-07 1.39379E-06 4.49886E-11-7.85578E-13 4.06790E-08
 -1      8575-9.36645E-07-1.77764E-07 1.39379E-06 4.49886E-11 7.85578E-13-4.06790E-08
 -1      8576-8.99169E-07-1.77772E-07 1.35630E-06-3.61452E-11 6.31077E-13 3.93705E-08
 -1      8578-8.99169E-07-1.77772E-07 1.35630E-06-3.61452E-11-6.31077E-13-3.93705E-08
 -1      8579-9.58847E-07-1.77784E-07 1.41598E-06-5.43556E-12 9.49202E-14 4.14548E-08
 -1      8581-9.58847E-07-1.77784E-07 1.41598E-06-5.43556E-12-9.49202E-14-4.14548E-08
 -1      8582-8.44915E-07-1.77789E-07 1.30205E-06-2.43955E-12 4.98392E-14 3.74770E-08
 -1      8584-8.44915E-07-1.77789E-07 1.30205E-06-2.43955E-12-4.98392E-14-3.74770E-08
 -1      8585-8.63081E-07-1.77766E-07 1.32023E-06 3.90414E-11-6.81735E-13 3.81107E-08
 -1      8587-8.63081E-07-1.77766E-07 1.32023E-06 3.90414E-11 6.81735E-13-3.81107E-08
 -1      8588-8.29057E-07-1.77771E-07 1.28619E-06-3.23518E-11 5.64803E-13 3.69228E-08
 -1      8590-8.29057E-07-1.77771E-07 1.28619E-06-3.23518E-11-5.64803E-13-3.69228E-08
 -1      8591-8.82910E-07-1.77783E-07 1.34005E-06-3.98678E-12 6.96178E-14 3.88035E-08
 -1      8593-8.82910E-07-1.77783E-07 1.34005E-06-3.98678E-12-6.96178E-14-3.88035E-08
 -1      8594-7.78781E-07-1.77791E-07 1.23592E-06-3.15394E-12 6.21715E-14 3.51682E-08
 -1      8596-7.78781E-07-1.77791E-07 1.23592E-06-3.15394E-12-6.21715E-14-3.51682E-08
 -1      8597-7.96096E-07-1.77766E-07 1.25324E-06 3.58604E-11-6.25977E-13 3.57721E-08
 -1      8599-7.96096E-07-1.77766E-07 1.25324E-06 3.58604E-11 6.25977E-13-3.57721E-08
 -1      8600-7.63975E-07-1.77773E-07 1.22111E-06-2.92342E-11 5.10657E-13 3.46506E-08
 -1      8602-7.63975E-07-1.77773E-07 1.22111E-06-2.92342E-11-5.10657E-13-3.46506E-08
 -1      8603-8.13867E-07-1.77783E-07 1.27100E-06-3.23339E-12 5.64460E-14 3.63931E-08
 -1      8605-8.13867E-07-1.77783E-07 1.27100E-06-3.23339E-12-5.64460E-14-3.63931E-08
 -1      8606-7.18548E-07-1.77786E-07 1.17568E-06-2.80521E-12 5.49552E-14 3.30651E-08
 -1      8608-7.18548E-07-1.77786E-07 1.17568E-06-2.80521E-12-5.49552E-14-3.30651E-08
 -1      8609-7.33946E-07-1.77767E-07 1.19109E-06 3.12042E-11-5.44917E-13 3.36024E-08
 -1      8611-7.33946E-07-1.77767E-07 1.19109E-06 3.12042E-11 5.44917E-13-3.36024E-08
 -1      8612-7.05747E-07-1.77773E-07 1.16288E-06-2.48701E-11 4.34201E-13 3.26178E-08
 -1      8614-7.05747E-07-1.77773E-07 1.16288E-06-2.48701E-11-4.34201E-13-3.26178E-08
 -1      8615-7.50873E-07-1.77782E-07 1.20801E-06-3.66146E-12 6.39508E-14 3.41938E-08
 -1      8617-7.50873E-07-1.77782E-07 1.20801E-06-3.66146E-12-6.39508E-14-3.41938E-08
 -1      8618-6.64565E-07-1.77785E-07 1.12170E-06-1.84639E-12 3.77340E-14 3.11805E-08
 -1      8620-6.64565E-07-1.77785E-07 1.12170E-06-1.84639E-12-3.77340E-14-3.11805E-08
 -1      8621-6.78418E-07-1.77769E-07 1.13556E-06 2.71842E-11-4.74700E-13 3.16638E-08
 -1      8623-6.78418E-07-1.77769E-07 1.13556E-06 2.71842E-11 4.74700E-13-3.16638E-08
 -1      8624-6.52596E-07-1.77773E-07 1.10973E-06-2.24842E-11 3.92520E-13 3.07622E-08
 -1      8626-6.52596E-07-1.77773E-07 1.10973E-06-2.24842E-11-3.92520E-13-3.07622E-08
 -1      8627-6.93502E-07-1.77781E-07 1.15064E-06-3.00805E-12 5.25293E-14 3.21908E-08
 -1      8629-6.93502E-07-1.77781E-07 1.15064E-06-3.00805E-12-5.25293E-14-3.21908E-08
 -1      8630-6.14169E-07-1.77786E-07 1.07131E-06-2.36177E-12 4.66717E-14 2.94211E-08
 -1      8632-6.14169E-07-1.77786E-07 1.07131E-06-2.36177E-12-4.66717E-14-2.94211E-08
 -1      8633-6.27459E-07-1.77769E-07 1.08460E-06 2.51193E-11-4.38475E-13 2.98847E-08
 -1      8635-6.27459E-07-1.77769E-07 1.08460E-06 2.51193E-11 4.38475E-13-2.98847E-08
 -1      8636-6.02879E-07-1.77774E-07 1.06001E-06-2.05016E-11 3.58129E-13 2.90265E-08
 -1      8638-6.02879E-07-1.77774E-07 1.06001E-06-2.05016E-11-3.58129E-13-2.90265E-08
 -1      8639-6.41038E-07-1.77781E-07 1.09818E-06-2.33470E-12 4.07581E-14 3.03591E-08
 -1      8641-6.41038E-07-1.77781E-07 1.09818E-06-2.33470E-12-4.07581E-14-3.03591E-08
 -1      8642-5.67902E-07-1.77783E-07 1.02504E-06-2.10149E-12 4.13009E-14 2.78057E-08
 -1      8644-5.67902E-07-1.77783E-07 1.02504E-06-2.10149E-12-4.13009E-14-2.78057E-08
 -1      8645-5.79810E-07-1.77770E-07 1.03695E-06 2.20387E-11-3.84866E-13 2.82212E-08
 -1      8647-5.79810E-07-1.77770E-07 1.03695E-06 2.20387E-11 3.84866E-13-2.82212E-08
 -1      8648-5.58063E-07-1.77774E-07 1.01520E-06-1.75989E-11 3.07252E-13 2.74619E-08
 -1      8650-5.58063E-07-1.77774E-07 1.01520E-06-1.75989E-11-3.07252E-13-2.74619E-08
 -1      8651-5.92828E-07-1.77780E-07 1.04997E-06-2.61397E-12 4.56577E-14 2.86760E-08
 -1      8653-5.92828E-07-1.77780E-07 1.04997E-06-2.61397E-12-4.56577E-14-2.86760E-08
 -1      8654-5.26123E-07-1.77783E-07 9.83261E-07-1.43993E-12 2.94110E-14 2.63471E-08
 -1      8656-5.26123E-07-1.77783E-07 9.83261E-07-1.43993E-12-2.94110E-14-2.63471E-08
 -1      8657-5.36920E-07-1.77771E-07 9.94062E-07 1.93724E-11-3.38289E-13 2.67239E-08
 -1      8659-5.36920E-07-1.77771E-07 9.94062E-07 1.93724E-11 3.38289E-13-2.67239E-08
 -1      8660-5.16863E-07-1.77774E-07 9.73999E-07-1.60350E-11 2.79931E-13 2.60236E-08
 -1      8662-5.16863E-07-1.77774E-07 9.73999E-07-1.60350E-11-2.79931E-13-2.60236E-08
 -1      8663-5.48605E-07-1.77780E-07 1.00574E-06-2.17054E-12 3.79051E-14 2.71321E-08
 -1      8665-5.48605E-07-1.77780E-07 1.00574E-06-2.17054E-12-3.79051E-14-2.71321E-08
 -1      8666-4.86843E-07-1.77784E-07 9.43982E-07-1.86067E-12 3.67388E-14 2.49759E-08
 -1      8668-4.86843E-07-1.77784E-07 9.43982E-07-1.86067E-12-3.67388E-14-2.49759E-08
 -1      8669-4.97286E-07-1.77771E-07 9.54427E-07 1.80728E-11-3.15462E-13 2.53402E-08
 -1      8671-4.97286E-07-1.77771E-07 9.54427E-07 1.80728E-11 3.15462E-13-2.53402E-08
 -1      8672-4.78060E-07-1.77774E-07 9.35196E-07-1.47221E-11 2.57186E-13 2.46689E-08
 -1      8674-4.78060E-07-1.77774E-07 9.35196E-07-1.47221E-11-2.57186E-13-2.46689E-08
 -1      8675-5.07887E-07-1.77779E-07 9.65025E-07-1.73002E-12 3.02016E-14 2.57105E-08
 -1      8677-5.07887E-07-1.77779E-07 9.65025E-07-1.73002E-12-3.02016E-14-2.57105E-08
 -1      8678-4.50538E-07-1.77781E-07 9.07675E-07-1.69994E-12 3.33079E-14 2.37083E-08
 -1      8680-4.50538E-07-1.77781E-07 9.07675E-07-1.69994E-12-3.33079E-14-2.37083E-08
 -1      8681-4.59977E-07-1.77771E-07 9.17118E-07 1.60039E-11-2.79479E-13 2.40377E-08
 -1      8683-4.59977E-07-1.77771E-07 9.17118E-07 1.60039E-11 2.79479E-13-2.40377E-08
 -1      8684-4.42855E-07-1.77775E-07 8.99991E-07-1.27150E-11 2.21989E-13 2.34398E-08
 -1      8686-4.42855E-07-1.77775E-07 8.99991E-07-1.27150E-11-2.21989E-13-2.34398E-08
 -1      8687-4.70224E-07-1.77779E-07 9.27362E-07-1.97994E-12 3.45841E-14 2.43956E-08
 -1      8689-4.70224E-07-1.77779E-07 9.27362E-07-1.97994E-12-3.45841E-14-2.43956E-08
 -1      8690-4.17544E-07-1.77781E-07 8.74682E-07-1.26192E-12 2.54126E-14 2.25564E-08
 -1      8692-4.17544E-07-1.77781E-07 8.74682E-07-1.26192E-12-2.54126E-14-2.25564E-08
 -1      8693-4.26180E-07-1.77772E-07 8.83320E-07 1.41976E-11-2.47922E-13 2.28577E-08
 -1      8695-4.26180E-07-1.77772E-07 8.83320E-07 1.41976E-11 2.47922E-13-2.28577E-08
 -1      8696-4.10290E-07-1.77774E-07 8.67426E-07-1.16454E-11 2.03301E-13 2.23030E-08
 -1      8698-4.10290E-07-1.77774E-07 8.67426E-07-1.16454E-11-2.03301E-13-2.23030E-08
 -1      8699-4.35457E-07-1.77779E-07 8.92595E-07-1.71328E-12 2.99195E-14 2.31818E-08
 -1      8701-4.35457E-07-1.77779E-07 8.92595E-07-1.71328E-12-2.99195E-14-2.31818E-08
 -1      8702-3.86337E-07-1.77782E-07 8.43475E-07-1.63934E-12 3.20027E-14 2.14670E-08
 -1      8704-3.86337E-07-1.77782E-07 8.43475E-07-1.63934E-12-3.20027E-14-2.14670E-08
 -1      8705-3.94756E-07-1.77772E-07 8.51896E-07 1.33679E-11-2.33328E-13 2.17607E-08
 -1      8707-3.94756E-07-1.77772E-07 8.51896E-07 1.33679E-11 2.33328E-13-2.17607E-08
 -1      8708-3.79435E-07-1.77775E-07 8.36571E-07-1.07474E-11 1.87765E-13 2.12258E-08
 -1      8710-3.79435E-07-1.77775E-07 8.36571E-07-1.07474E-11-1.87765E-13-2.12258E-08
 -1      8711-4.03247E-07-1.77778E-07 8.60385E-07-1.44882E-12 2.52921E-14 2.20573E-08
 -1      8713-4.03247E-07-1.77778E-07 8.60385E-07-1.44882E-12-2.52921E-14-2.20573E-08
 -1      8714-3.57326E-07-1.77780E-07 8.14463E-07-1.50221E-12 2.91184E-14 2.04541E-08
 -1      8716-3.57326E-07-1.77780E-07 8.14463E-07-1.50221E-12-2.91184E-14-2.04541E-08
 -1      8717-3.64992E-07-1.77772E-07 8.22133E-07 1.19166E-11-2.08101E-13 2.07216E-08
 -1      8719-3.64992E-07-1.77772E-07 8.22133E-07 1.19166E-11 2.08101E-13-2.07216E-08
 -1      8720-3.51270E-07-1.77775E-07 8.08407E-07-9.33887E-12 1.63046E-13 2.02425E-08
 -1      8722-3.51270E-07-1.77775E-07 8.08407E-07-9.33887E-12-1.63046E-13-2.02425E-08
 -1      8723-3.73266E-07-1.77778E-07 8.30404E-07-1.68387E-12 2.94134E-14 2.10106E-08
 -1      8725-3.73266E-07-1.77778E-07 8.30404E-07-1.68387E-12-2.94134E-14-2.10106E-08
 -1      8726-3.30818E-07-1.77780E-07 7.87955E-07-1.14802E-12 2.27383E-14 1.95287E-08
 -1      8728-3.30818E-07-1.77780E-07 7.87955E-07-1.14802E-12-2.27383E-14-1.95287E-08
 -1      8729-3.37860E-07-1.77773E-07 7.95001E-07 1.06019E-11-1.85138E-13 1.97744E-08
 -1      8731-3.37860E-07-1.77773E-07 7.95001E-07 1.06019E-11 1.85138E-13-1.97744E-08
 -1      8732-3.25059E-07-1.77775E-07 7.82196E-07-8.62273E-12 1.50525E-13 1.93275E-08
 -1      8734-3.25059E-07-1.77775E-07 7.82196E-07-8.62273E-12-1.50525E-13-1.93275E-08
 -1      8735-3.45405E-07-1.77778E-07 8.02543E-07-1.52623E-12 2.66530E-14 2.00379E-08
 -1      8737-3.45405E-07-1.77778E-07 8.02543E-07-1.52623E-12-2.66530E-14-2.00379E-08
 -1      8738-3.05614E-07-1.77780E-07 7.62752E-07-1.34442E-12 2.61582E-14 1.86488E-08
 -1      8740-3.05614E-07-1.77780E-07 7.62752E-07-1.34442E-12-2.61582E-14-1.86488E-08
 -1      8741-3.12461E-07-1.77773E-07 7.69601E-07 9.96975E-12-1.74029E-13 1.88877E-08
 -1      8743-3.12461E-07-1.77773E-07 7.69601E-07 9.96975E-12 1.74029E-13-1.88877E-08
 -1      8744-3.00055E-07-1.77775E-07 7.57191E-07-8.05583E-12 1.40727E-13 1.84545E-08
 -1      8746-3.00055E-07-1.77775E-07 7.57191E-07-8.05583E-12-1.40727E-13-1.84545E-08
 -1      8747-3.19394E-07-1.77778E-07 7.76532E-07-1.33634E-12 2.33287E-14 1.91299E-08
 -1      8749-3.19394E-07-1.77778E-07 7.76532E-07-1.33634E-12-2.33287E-14-1.91299E-08
 -1      8750-2.82068E-07-1.77779E-07 7.39205E-07-9.46084E-13 1.87953E-14 1.78267E-08
 -1      8752-2.82068E-07-1.77779E-07 7.39205E-07-9.46084E-13-1.87953E-14-1.78267E-08
 -1      8753-2.88205E-07-1.77773E-07 7.45346E-07 8.80716E-12-1.53838E-13 1.80409E-08
 -1      8755-2.88205E-07-1.77773E-07 7.45346E-07 8.80716E-12 1.53838E-13-1.80409E-08
 -1      8756-2.77042E-07-1.77775E-07 7.34178E-07-7.16158E-12 1.24993E-13 1.76511E-08
 -1      8758-2.77042E-07-1.77775E-07 7.34178E-07-7.16158E-12-1.24993E-13-1.76511E-08
 -1      8759-2.94942E-07-1.77778E-07 7.52080E-07-1.42833E-12 2.49499E-14 1.82762E-08
 -1      8761-2.94942E-07-1.77778E-07 7.52080E-07-1.42833E-12-2.49499E-14-1.82762E-08
 -1      8762-2.60450E-07-1.77778E-07 7.17588E-07-9.93693E-14 3.81406E-15 1.70720E-08
 -1      8764-2.60450E-07-1.77778E-07 7.17588E-07-9.93693E-14-3.81406E-15-1.70720E-08
 -1      8765-2.65861E-07-1.77774E-07 7.23001E-07 7.71060E-12-1.34717E-13 1.72608E-08
 -1      8767-2.65861E-07-1.77774E-07 7.23001E-07 7.71060E-12 1.34717E-13-1.72608E-08
 -1      8768-2.55400E-07-1.77775E-07 7.12538E-07-6.92114E-12 1.20762E-13 1.68956E-08
 -1      8770-2.55400E-07-1.77775E-07 7.12538E-07-6.92114E-12-1.20762E-13-1.68956E-08
 -1      8771-2.71906E-07-1.77778E-07 7.29044E-07-1.03478E-12 1.80781E-14 1.74720E-08
 -1      8773-2.71906E-07-1.77778E-07 7.29044E-07-1.03478E-12-1.80781E-14-1.74720E-08
 -1      8774-2.39804E-07-1.77778E-07 6.96942E-07 5.00940E-13-6.73356E-15 1.63513E-08
 -1      8776-2.39804E-07-1.77778E-07 6.96942E-07 5.00940E-13 6.73356E-15-1.63513E-08
 -1      8777-2.44731E-07-1.77775E-07 7.01871E-07 6.88103E-12-1.20203E-13 1.65232E-08
 -1      8779-2.44731E-07-1.77775E-07 7.01871E-07 6.88103E-12 1.20203E-13-1.65232E-08
 -1      8780-2.34552E-07-1.77776E-07 6.91692E-07-6.90458E-12 1.20549E-13 1.61678E-08
 -1      8782-2.34552E-07-1.77776E-07 6.91692E-07-6.90458E-12-1.20549E-13-1.61678E-08
 -1      8783-2.50060E-07-1.77778E-07 7.07198E-07-1.88685E-13 3.30202E-15 1.67093E-08
 -1      8785-2.50060E-07-1.77778E-07 7.07198E-07-1.88685E-13-3.30202E-15-1.67093E-08
 -1      8786-2.20430E-07-1.77778E-07 6.77568E-07 5.49448E-13-7.77147E-15 1.56749E-08
 -1      8788-2.20430E-07-1.77778E-07 6.77568E-07 5.49448E-13 7.77147E-15-1.56749E-08
 -1      8789-2.24756E-07-1.77775E-07 6.81892E-07 6.40959E-12-1.11958E-13 1.58258E-08
 -1      8791-2.24756E-07-1.77775E-07 6.81892E-07 6.40959E-12 1.11958E-13-1.58258E-08
 -1      8792-2.15553E-07-1.77775E-07 6.72695E-07-4.44459E-12 7.76018E-14 1.55046E-08
 -1      8794-2.15553E-07-1.77775E-07 6.72695E-07-4.44459E-12-7.76018E-14-1.55046E-08
 -1      8795-2.29604E-07-1.77775E-07 6.86741E-07 3.79028E-13-6.78749E-15 1.59952E-08
 -1      8797-2.29604E-07-1.77775E-07 6.86741E-07 3.79028E-13 6.78749E-15-1.59952E-08
 -1      8798-2.02569E-07-1.77780E-07 6.59709E-07 4.96943E-13-6.65116E-15 1.50514E-08
 -1      8800-2.02569E-07-1.77780E-07 6.59709E-07 4.96943E-13 6.65116E-15-1.50514E-08
 -1      8801-2.06919E-07-1.77774E-07 6.64054E-07 4.53992E-12-7.91347E-14 1.52030E-08
 -1      8803-2.06919E-07-1.77774E-07 6.64054E-07 4.53992E-12 7.91347E-14-1.52030E-08
 -1      8804-1.98258E-07-1.77775E-07 6.55399E-07-3.36498E-12 5.90082E-14 1.49008E-08
 -1      8806-1.98258E-07-1.77775E-07 6.55399E-07-3.36498E-12-5.90082E-14-1.49008E-08
 -1      8807-1.95497E-07-1.77777E-07 6.52631E-07-1.70708E-13 2.65011E-15 1.48043E-08
 -1      8809-1.95497E-07-1.77777E-07 6.52631E-07-1.70708E-13-2.65010E-15-1.48043E-08
 -1      8810-2.11177E-07-1.77778E-07 6.68314E-07 1.15799E-12-2.04200E-14 1.53518E-08
 -1      8812-2.11177E-07-1.77778E-07 6.68314E-07 1.15799E-12 2.04200E-14-1.53518E-08
 -1      8813-6.25752E-06-1.77886E-07 6.71870E-06 1.95406E-10-3.41043E-12 2.26528E-07
 -1      8815-6.25752E-06-1.77886E-07 6.71870E-06 1.95406E-10 3.41043E-12-2.26528E-07
 -1      8816-5.84340E-06-1.77634E-07 6.29834E-06 9.67396E-10-1.68882E-11 2.11982E-07
 -1      8818-5.84340E-06-1.77634E-07 6.29834E-06 9.67396E-10 1.68882E-11-2.11982E-07
 -1      8819-5.84307E-06-1.77958E-07 6.29866E-06-9.89478E-10 1.72643E-11 2.11981E-07
 -1      8821-5.84307E-06-1.77958E-07 6.29866E-06-9.89478E-10-1.72643E-11-2.11981E-07
 -1      8822-6.25699E-06-1.77809E-07 6.71835E-06-1.66022E-11 2.89771E-13 2.26514E-07
 -1      8824-6.25699E-06-1.77809E-07 6.71835E-06-1.66022E-11-2.89771E-13-2.26514E-07
 -1      8825-5.83596E-06-1.77718E-07 6.29097E-06 1.04932E-09-1.83154E-11 2.11725E-07
 -1      8827-5.83596E-06-1.77718E-07 6.29097E-06 1.04932E-09 1.83154E-11-2.11725E-07
 -1      8828-5.83573E-06-1.77827E-07 6.29096E-06-1.02025E-09 1.78082E-11 2.11721E-07
 -1      8830-5.83573E-06-1.77827E-07 6.29096E-06-1.02025E-09-1.78082E-11-2.11721E-07
 -1      8831-6.25731E-06-1.77788E-07 6.71853E-06-5.78914E-11 1.01039E-12 2.26522E-07
 -1      8833-6.25731E-06-1.77788E-07 6.71853E-06-5.78914E-11-1.01039E-12-2.26522E-07
 -1      8834-5.83981E-06-1.77762E-07 6.29495E-06 1.04734E-09-1.82800E-11 2.11861E-07
 -1      8836-5.83981E-06-1.77762E-07 6.29495E-06 1.04734E-09 1.82800E-11-2.11861E-07
 -1      8837-5.83971E-06-1.77787E-07 6.29487E-06-1.02351E-09 1.78662E-11 2.11858E-07
 -1      8839-5.83971E-06-1.77787E-07 6.29487E-06-1.02351E-09-1.78662E-11-2.11858E-07
 -1      8840-6.25780E-06-1.77773E-07 6.71885E-06-4.40571E-11 7.68936E-13 2.26536E-07
 -1      8842-6.25780E-06-1.77773E-07 6.71885E-06-4.40571E-11-7.68936E-13-2.26536E-07
 -1      8843-5.84659E-06-1.77779E-07 6.30182E-06 1.02284E-09-1.78528E-11 2.12098E-07
 -1      8845-5.84659E-06-1.77779E-07 6.30182E-06 1.02284E-09 1.78528E-11-2.12098E-07
 -1      8846-5.84655E-06-1.77778E-07 6.30176E-06-1.00726E-09 1.75827E-11 2.12096E-07
 -1      8848-5.84655E-06-1.77778E-07 6.30176E-06-1.00726E-09-1.75827E-11-2.12096E-07
 -1      8849-6.25803E-06-1.77771E-07 6.71901E-06-1.21827E-11 2.12626E-13 2.26542E-07
 -1      8851-6.25803E-06-1.77771E-07 6.71901E-06-1.21827E-11-2.12626E-13-2.26542E-07
 -1      8852-5.84994E-06-1.77780E-07 6.30519E-06 1.00408E-09-1.75260E-11 2.12214E-07
 -1      8854-5.84994E-06-1.77780E-07 6.30519E-06 1.00408E-09 1.75260E-11-2.12214E-07
 -1      8855-5.84993E-06-1.77774E-07 6.30517E-06-1.00107E-09 1.74739E-11 2.12214E-07
 -1      8857-5.84993E-06-1.77774E-07 6.30517E-06-1.00107E-09-1.74739E-11-2.12214E-07
 -1      8858-6.25806E-06-1.77775E-07 6.71902E-06 1.47512E-12-2.57458E-14 2.26543E-07
 -1      8860-6.25806E-06-1.77775E-07 6.71902E-06 1.47512E-12 2.57458E-14-2.26543E-07
 -1      8861-5.85028E-06-1.77778E-07 6.30554E-06 9.98502E-10-1.74288E-11 2.12226E-07
 -1      8863-5.85028E-06-1.77778E-07 6.30554E-06 9.98502E-10 1.74288E-11-2.12226E-07
 -1      8864-5.85029E-06-1.77775E-07 6.30554E-06-1.00000E-09 1.74549E-11 2.12226E-07
 -1      8866-5.85029E-06-1.77775E-07 6.30554E-06-1.00000E-09-1.74549E-11-2.12226E-07
 -1      8867-6.25804E-06-1.77778E-07 6.71901E-06 3.01801E-13-5.26728E-15 2.26542E-07
 -1      8869-6.25804E-06-1.77778E-07 6.71901E-06 3.01801E-13 5.26728E-15-2.26542E-07
 -1      8870-5.85003E-06-1.77776E-07 6.30528E-06 9.99010E-10-1.74376E-11 2.12217E-07
 -1      8872-5.85003E-06-1.77776E-07 6.30528E-06 9.99010E-10 1.74376E-11-2.12217E-07
 -1      8873-5.85003E-06-1.77777E-07 6.30528E-06-9.99820E-10 1.74517E-11 2.12217E-07
 -1      8875-5.85003E-06-1.77777E-07 6.30528E-06-9.99820E-10-1.74517E-11-2.12217E-07
 -1      8876-6.25808E-06-1.77776E-07 6.71903E-06-8.96541E-12 1.56476E-13 2.26543E-07
 -1      8878-6.25808E-06-1.77776E-07 6.71903E-06-8.96541E-12-1.56476E-13-2.26543E-07
 -1      8879-5.85051E-06-1.77772E-07 6.30576E-06 1.00131E-09-1.74776E-11 2.12234E-07
 -1      8881-5.85051E-06-1.77772E-07 6.30576E-06 1.00131E-09 1.74776E-11-2.12234E-07
 -1      8882-5.85049E-06-1.77781E-07 6.30575E-06-9.95907E-10 1.73836E-11 2.12233E-07
 -1      8884-5.85049E-06-1.77781E-07 6.30575E-06-9.95907E-10-1.73836E-11-2.12233E-07
 -1      8885-6.25812E-06-1.77766E-07 6.71906E-06 1.14241E-11-1.99383E-13 2.26544E-07
 -1      8887-6.25812E-06-1.77766E-07 6.71906E-06 1.14241E-11 1.99383E-13-2.26544E-07
 -1      8888-5.85104E-06-1.77768E-07 6.30626E-06 1.00098E-09-1.74727E-11 2.12252E-07
 -1      8890-5.85104E-06-1.77768E-07 6.30626E-06 1.00098E-09 1.74727E-11-2.12252E-07
 -1      8891-5.85099E-06-1.77797E-07 6.30628E-06-1.00351E-09 1.75162E-11 2.12251E-07
 -1      8893-5.85099E-06-1.77797E-07 6.30628E-06-1.00351E-09-1.75162E-11-2.12251E-07
 -1      8894-6.25775E-06-1.77768E-07 6.71879E-06 5.49291E-11-9.58679E-13 2.26534E-07
 -1      8896-6.25775E-06-1.77768E-07 6.71879E-06 5.49291E-11 9.58679E-13-2.26534E-07
 -1      8897-5.84526E-06-1.77742E-07 6.30036E-06 1.01562E-09-1.77291E-11 2.12049E-07
 -1      8899-5.84526E-06-1.77742E-07 6.30036E-06 1.01562E-09 1.77291E-11-2.12049E-07
 -1      8900-5.84516E-06-1.77819E-07 6.30045E-06-1.02797E-09 1.79419E-11 2.12049E-07
 -1      8902-5.84516E-06-1.77819E-07 6.30045E-06-1.02797E-09-1.79419E-11-2.12049E-07
 -1      8903-6.25707E-06-1.77749E-07 6.71828E-06 9.65561E-11-1.68519E-12 2.26515E-07
 -1      8905-6.25707E-06-1.77749E-07 6.71828E-06 9.65561E-11 1.68519E-12-2.26515E-07
 -1      8906-5.83469E-06-1.77694E-07 6.28952E-06 1.04883E-09-1.83100E-11 2.11678E-07
 -1      8908-5.83469E-06-1.77694E-07 6.28952E-06 1.04883E-09 1.83100E-11-2.11678E-07
 -1      8909-5.83438E-06-1.77881E-07 6.28968E-06-1.06100E-09 1.85174E-11 2.11675E-07
 -1      8911-5.83438E-06-1.77881E-07 6.28968E-06-1.06100E-09-1.85174E-11-2.11675E-07
 -1      8912-2.39394E-06-1.77782E-07 2.85110E-06-3.55674E-10 6.20988E-12 9.15583E-08
 -1      8914-2.39394E-06-1.77782E-07 2.85110E-06-3.55674E-10-6.20988E-12-9.15583E-08
 -1      8915-2.46695E-06-1.77774E-07 2.92408E-06 1.14812E-11-2.00412E-13 9.41110E-08
 -1      8917-2.46695E-06-1.77774E-07 2.92408E-06 1.14812E-11 2.00412E-13-9.41110E-08
 -1      8918-2.33116E-06-1.77769E-07 2.78829E-06-2.06818E-11 3.33194E-13 8.93692E-08
 -1      8920-2.33116E-06-1.77769E-07 2.78829E-06-2.06818E-11-3.33194E-13-8.93692E-08
 -1      8921-2.26879E-06-1.77780E-07 2.72593E-06 3.13021E-10-5.46429E-12 8.71886E-08
 -1      8923-2.26879E-06-1.77780E-07 2.72593E-06 3.13021E-10 5.46429E-12-8.71886E-08
 -1      8924-4.65799E-06-1.77641E-07 5.11744E-06 2.22153E-10-3.88572E-12 1.70648E-07
 -1      8926-4.65799E-06-1.77641E-07 5.11744E-06 2.22153E-10 3.88572E-12-1.70648E-07
 -1      8927-5.03509E-06-1.77745E-07 5.49011E-06-2.81697E-10 4.90585E-12 1.83754E-07
 -1      8929-5.03509E-06-1.77745E-07 5.49011E-06-2.81697E-10-4.90585E-12-1.83754E-07
 -1      8930-5.05683E-06-1.77841E-07 5.51212E-06-6.60037E-11 1.16044E-12 1.84519E-07
 -1      8932-5.05683E-06-1.77841E-07 5.51212E-06-6.60037E-11-1.16044E-12-1.84519E-07
 -1      8933-4.46820E-06-1.77637E-07 4.92422E-06 2.15010E-10-3.71536E-12 1.63968E-07
 -1      8935-4.46820E-06-1.77637E-07 4.92422E-06 2.15010E-10 3.71536E-12-1.63968E-07
 -1      8936-3.75815E-06-1.77776E-07 4.21536E-06-5.16998E-11 8.40225E-13 1.39201E-07
 -1      8938-3.75815E-06-1.77776E-07 4.21536E-06-5.16998E-11-8.40225E-13-1.39201E-07
 -1      8939-3.62812E-06-1.77787E-07 4.08520E-06 8.09959E-10-1.41428E-11 1.34650E-07
 -1      8941-3.62812E-06-1.77787E-07 4.08520E-06 8.09959E-10 1.41428E-11-1.34650E-07
 -1      8942-3.88068E-06-1.77781E-07 4.33801E-06-8.18989E-10 1.42907E-11 1.43472E-07
 -1      8944-3.88068E-06-1.77781E-07 4.33801E-06-8.18989E-10-1.42907E-11-1.43472E-07
 -1      8945-2.93028E-06-1.77757E-07 3.38740E-06-2.96406E-11 4.79145E-13 1.10289E-07
 -1      8947-2.93028E-06-1.77757E-07 3.38740E-06-2.96406E-11-4.79145E-13-1.10289E-07
 -1      8948-2.84395E-06-1.77779E-07 3.30108E-06 4.76405E-10-8.31662E-12 1.07270E-07
 -1      8950-2.84395E-06-1.77779E-07 3.30108E-06 4.76405E-10 8.31662E-12-1.07270E-07
 -1      8951-3.01546E-06-1.77777E-07 3.47264E-06-5.34091E-10 9.32470E-12 1.13259E-07
 -1      8953-3.01546E-06-1.77777E-07 3.47264E-06-5.34091E-10-9.32470E-12-1.13259E-07
 -1      8954-2.21122E-06-1.77778E-07 2.66836E-06 2.12611E-12-3.71734E-14 8.51815E-08
 -1      8956-2.21122E-06-1.77778E-07 2.66836E-06 2.12611E-12 3.71734E-14-8.51815E-08
 -1      8957-1.89135E-06-1.77783E-07 2.34850E-06-1.55653E-11 2.48779E-13 7.40133E-08
 -1      8959-1.89135E-06-1.77783E-07 2.34850E-06-1.55653E-11-2.48779E-13-7.40133E-08
 -1      8960-1.84143E-06-1.77773E-07 2.29856E-06 2.27901E-10-3.97924E-12 7.22675E-08
 -1      8962-1.84143E-06-1.77773E-07 2.29856E-06 2.27901E-10 3.97924E-12-7.22675E-08
 -1      8963-1.93939E-06-1.77773E-07 2.39652E-06-2.48325E-10 4.33478E-12 7.56878E-08
 -1      8965-1.93939E-06-1.77773E-07 2.39652E-06-2.48325E-10-4.33478E-12-7.56878E-08
 -1      8966-1.55578E-06-1.77773E-07 2.01291E-06-9.67908E-12 1.52575E-13 6.22960E-08
 -1      8968-1.55578E-06-1.77773E-07 2.01291E-06-9.67908E-12-1.52575E-13-6.22960E-08
 -1      8969-1.51828E-06-1.77777E-07 1.97542E-06 1.56322E-10-2.72887E-12 6.09852E-08
 -1      8971-1.51828E-06-1.77777E-07 1.97542E-06 1.56322E-10 2.72887E-12-6.09852E-08
 -1      8972-1.59113E-06-1.77776E-07 2.04827E-06-1.66822E-10 2.91257E-12 6.35288E-08
 -1      8974-1.59113E-06-1.77776E-07 2.04827E-06-1.66822E-10-2.91257E-12-6.35288E-08
 -1      8975-1.29185E-06-1.77774E-07 1.74899E-06-6.72904E-12 1.04580E-13 5.30811E-08
 -1      8977-1.29185E-06-1.77774E-07 1.74899E-06-6.72904E-12-1.04580E-13-5.30811E-08
 -1      8978-1.26305E-06-1.77776E-07 1.72018E-06 1.11814E-10-1.95194E-12 5.20743E-08
 -1      8980-1.26305E-06-1.77776E-07 1.72018E-06 1.11814E-10 1.95194E-12-5.20743E-08
 -1      8981-1.32036E-06-1.77777E-07 1.77750E-06-1.23144E-10 2.15004E-12 5.40754E-08
 -1      8983-1.32036E-06-1.77777E-07 1.77750E-06-1.23144E-10-2.15004E-12-5.40754E-08
 -1      8984-1.08422E-06-1.77779E-07 1.54137E-06-4.26443E-12 6.32748E-14 4.58323E-08
 -1      8986-1.08422E-06-1.77779E-07 1.54137E-06-4.26443E-12-6.32748E-14-4.58323E-08
 -1      8987-1.06009E-06-1.77775E-07 1.51722E-06 8.75553E-11-1.52883E-12 4.49886E-08
 -1      8989-1.06009E-06-1.77775E-07 1.51722E-06 8.75553E-11 1.52883E-12-4.49886E-08
 -1      8990-1.10785E-06-1.77775E-07 1.56498E-06-9.39431E-11 1.63979E-12 4.66560E-08
 -1      8992-1.10785E-06-1.77775E-07 1.56498E-06-9.39431E-11-1.63979E-12-4.66560E-08
 -1      8993-9.16358E-07-1.77775E-07 1.37350E-06-3.04462E-12 4.47390E-14 3.99713E-08
 -1      8995-9.16358E-07-1.77775E-07 1.37350E-06-3.04462E-12-4.47390E-14-3.99713E-08
 -1      8996-8.97392E-07-1.77776E-07 1.35453E-06 6.36136E-11-1.11051E-12 3.93085E-08
 -1      8998-8.97392E-07-1.77776E-07 1.35453E-06 6.36136E-11 1.11051E-12-3.93085E-08
 -1      8999-9.34852E-07-1.77776E-07 1.39199E-06-6.80160E-11 1.18750E-12 4.06163E-08
 -1      9001-9.34852E-07-1.77776E-07 1.39199E-06-6.80160E-11-1.18750E-12-4.06163E-08
 -1      9002-7.78780E-07-1.77778E-07 1.23592E-06-2.39432E-12 3.42934E-14 3.51682E-08
 -1      9004-7.78780E-07-1.77778E-07 1.23592E-06-2.39432E-12-3.42934E-14-3.51682E-08
 -1      9005-7.62504E-07-1.77775E-07 1.21964E-06 5.18915E-11-9.06108E-13 3.45993E-08
 -1      9007-7.62504E-07-1.77775E-07 1.21964E-06 5.18915E-11 9.06108E-13-3.45993E-08
 -1      9008-7.94610E-07-1.77775E-07 1.25175E-06-5.48804E-11 9.57918E-13 3.57202E-08
 -1      9010-7.94610E-07-1.77775E-07 1.25175E-06-5.48804E-11-9.57918E-13-3.57202E-08
 -1      9011-6.64565E-07-1.77775E-07 1.12170E-06-1.58964E-12 2.19569E-14 3.11805E-08
 -1      9013-6.64565E-07-1.77775E-07 1.12170E-06-1.58964E-12-2.19569E-14-3.11805E-08
 -1      9014-6.51375E-07-1.77776E-07 1.10851E-06 3.96240E-11-6.91676E-13 3.07196E-08
 -1      9016-6.51375E-07-1.77776E-07 1.10851E-06 3.96240E-11 6.91676E-13-3.07196E-08
 -1      9017-6.77187E-07-1.77776E-07 1.13433E-06-4.12461E-11 7.20136E-13 3.16207E-08
 -1      9019-6.77187E-07-1.77776E-07 1.13433E-06-4.12461E-11-7.20136E-13-3.16207E-08
 -1      9020-5.67902E-07-1.77775E-07 1.02504E-06-1.39384E-12 1.94552E-14 2.78057E-08
 -1      9022-5.67902E-07-1.77775E-07 1.02504E-06-1.39384E-12-1.94552E-14-2.78057E-08
 -1      9023-5.57004E-07-1.77776E-07 1.01414E-06 3.10528E-11-5.42072E-13 2.74250E-08
 -1      9025-5.57004E-07-1.77776E-07 1.01414E-06 3.10528E-11 5.42072E-13-2.74250E-08
 -1      9026-5.78742E-07-1.77776E-07 1.03588E-06-3.34148E-11 5.83434E-13 2.81839E-08
 -1      9028-5.78742E-07-1.77776E-07 1.03588E-06-3.34148E-11-5.83434E-13-2.81839E-08
 -1      9029-4.86843E-07-1.77777E-07 9.43982E-07-1.15694E-12 1.57253E-14 2.49759E-08
 -1      9031-4.86843E-07-1.77777E-07 9.43982E-07-1.15694E-12-1.57253E-14-2.49759E-08
 -1      9032-4.77073E-07-1.77776E-07 9.34211E-07 2.63399E-11-4.59944E-13 2.46345E-08
 -1      9034-4.77073E-07-1.77776E-07 9.34211E-07 2.63399E-11 4.59944E-13-2.46345E-08
 -1      9035-4.96291E-07-1.77776E-07 9.53428E-07-2.75628E-11 4.81097E-13 2.53054E-08
 -1      9037-4.96291E-07-1.77776E-07 9.53428E-07-2.75628E-11-4.81097E-13-2.53054E-08
 -1      9038-4.17544E-07-1.77776E-07 8.74682E-07-9.90615E-13 1.37691E-14 2.25564E-08
 -1      9040-4.17544E-07-1.77776E-07 8.74682E-07-9.90615E-13-1.37691E-14-2.25564E-08
 -1      9041-4.09317E-07-1.77776E-07 8.66457E-07 2.07852E-11-3.62816E-13 2.22690E-08
 -1      9043-4.09317E-07-1.77776E-07 8.66457E-07 2.07852E-11 3.62816E-13-2.22690E-08
 -1      9044-4.25201E-07-1.77776E-07 8.82339E-07-2.12633E-11 3.71268E-13 2.28235E-08
 -1      9046-4.25201E-07-1.77776E-07 8.82339E-07-2.12633E-11-3.71268E-13-2.28235E-08
 -1      9047-3.57326E-07-1.77776E-07 8.14464E-07-9.69617E-13 1.38947E-14 2.04541E-08
 -1      9049-3.57326E-07-1.77776E-07 8.14464E-07-9.69617E-13-1.38947E-14-2.04541E-08
 -1      9050-3.50314E-07-1.77776E-07 8.07453E-07 1.67073E-11-2.91651E-13 2.02092E-08
 -1      9052-3.50314E-07-1.77776E-07 8.07453E-07 1.67073E-11 2.91651E-13-2.02092E-08
 -1      9053-3.64029E-07-1.77776E-07 8.21168E-07-1.76331E-11 3.07893E-13 2.06880E-08
 -1      9055-3.64029E-07-1.77776E-07 8.21168E-07-1.76331E-11-3.07893E-13-2.06880E-08
 -1      9056-3.05613E-07-1.77776E-07 7.62752E-07-4.47688E-13 4.89736E-15 1.86488E-08
 -1      9058-3.05613E-07-1.77776E-07 7.62752E-07-4.47688E-13-4.89736E-15-1.86488E-08
 -1      9059-2.99349E-07-1.77776E-07 7.56488E-07 1.45558E-11-2.54205E-13 1.84299E-08
 -1      9061-2.99349E-07-1.77776E-07 7.56488E-07 1.45558E-11 2.54205E-13-1.84299E-08
 -1      9062-3.11751E-07-1.77776E-07 7.68888E-07-1.50906E-11 2.63347E-13 1.88629E-08
 -1      9064-3.11751E-07-1.77776E-07 7.68888E-07-1.50906E-11-2.63347E-13-1.88629E-08
 -1      9065-2.60450E-07-1.77776E-07 7.17588E-07 9.70210E-14-4.16432E-15 1.70720E-08
 -1      9067-2.60450E-07-1.77776E-07 7.17588E-07 9.70210E-14 4.16432E-15-1.70720E-08
 -1      9068-2.55318E-07-1.77776E-07 7.12456E-07 1.23523E-11-2.15616E-13 1.68927E-08
 -1      9070-2.55318E-07-1.77776E-07 7.12456E-07 1.23523E-11 2.15616E-13-1.68927E-08
 -1      9071-2.65779E-07-1.77776E-07 7.22918E-07-1.28562E-11 2.24451E-13 1.72580E-08
 -1      9073-2.65779E-07-1.77776E-07 7.22918E-07-1.28562E-11-2.24451E-13-1.72580E-08
 -1      9074-2.20431E-07-1.77774E-07 6.77568E-07-8.53378E-13 1.29633E-14 1.56749E-08
 -1      9076-2.20431E-07-1.77774E-07 6.77568E-07-8.53378E-13-1.29633E-14-1.56749E-08
 -1      9077-2.15593E-07-1.77776E-07 6.72732E-07 1.14222E-11-1.99250E-13 1.55059E-08
 -1      9079-2.15593E-07-1.77776E-07 6.72732E-07 1.14222E-11 1.99250E-13-1.55059E-08
 -1      9080-2.24794E-07-1.77777E-07 6.81934E-07-1.06177E-11 1.85505E-13 1.58272E-08
 -1      9082-2.24794E-07-1.77777E-07 6.81934E-07-1.06177E-11-1.85505E-13-1.58272E-08
 -1      9083-1.89092E-07-1.77783E-07 6.46238E-07 1.49389E-13-3.24699E-15 1.45812E-08
 -1      9085-1.89092E-07-1.77783E-07 6.46238E-07 1.49389E-13 3.24699E-15-1.45812E-08
 -1      9086-1.77612E-07-1.77776E-07 6.34769E-07 4.29688E-13-7.49965E-15 1.41803E-08
 -1      9088-1.77612E-07-1.77776E-07 6.34769E-07 4.29688E-13 7.49965E-15-1.41803E-08
 -1      9089-1.85193E-07-1.77776E-07 6.42322E-07 3.40090E-12-5.94380E-14 1.44445E-08
 -1      9091-1.85193E-07-1.77776E-07 6.42322E-07 3.40090E-12 5.94380E-14-1.44445E-08
 -1      9092-1.85195E-07-1.77776E-07 6.42323E-07-3.26910E-12 5.72609E-14 1.44446E-08
 -1      9094-1.85195E-07-1.77776E-07 6.42323E-07-3.26910E-12-5.72609E-14-1.44446E-08
 -1      9095-1.77618E-07-1.77776E-07 6.34774E-07-3.51815E-13 6.14023E-15 1.41805E-08
 -1      9097-1.77618E-07-1.77776E-07 6.34774E-07-3.51815E-13-6.14023E-15-1.41805E-08
 -1      9098-1.84813E-07-1.77776E-07 6.41943E-07 4.20288E-12-7.33742E-14 1.44313E-08
 -1      9100-1.84813E-07-1.77776E-07 6.41943E-07 4.20288E-12 7.33742E-14-1.44313E-08
 -1      9101-1.84813E-07-1.77776E-07 6.41942E-07-4.06201E-12 7.08424E-14 1.44313E-08
 -1      9103-1.84813E-07-1.77776E-07 6.41942E-07-4.06201E-12-7.08424E-14-1.44313E-08
 -1      9104-1.77618E-07-1.77776E-07 6.34774E-07 1.69868E-13-2.96477E-15 1.41805E-08
 -1      9106-1.77618E-07-1.77776E-07 6.34774E-07 1.69868E-13 2.96477E-15-1.41805E-08
 -1      9107-1.84807E-07-1.77776E-07 6.41936E-07 4.02487E-12-7.02400E-14 1.44311E-08
 -1      9109-1.84807E-07-1.77776E-07 6.41936E-07 4.02487E-12 7.02400E-14-1.44311E-08
 -1      9110-1.84807E-07-1.77776E-07 6.41937E-07-4.12615E-12 7.20328E-14 1.44311E-08
 -1      9112-1.84807E-07-1.77776E-07 6.41937E-07-4.12615E-12-7.20328E-14-1.44311E-08
 -1      9113-1.77617E-07-1.77776E-07 6.34773E-07 8.10376E-14-1.41438E-15 1.41804E-08
 -1      9115-1.77617E-07-1.77776E-07 6.34773E-07 8.10376E-14 1.41438E-15-1.41804E-08
 -1      9116-1.84871E-07-1.77776E-07 6.42000E-07 4.08502E-12-7.13010E-14 1.44333E-08
 -1      9118-1.84871E-07-1.77776E-07 6.42000E-07 4.08502E-12 7.13010E-14-1.44333E-08
 -1      9119-1.84871E-07-1.77776E-07 6.42000E-07-4.11026E-12 7.17530E-14 1.44333E-08
 -1      9121-1.84871E-07-1.77776E-07 6.42000E-07-4.11026E-12-7.17530E-14-1.44333E-08
 -1      9122-1.77617E-07-1.77776E-07 6.34773E-07-1.95957E-14 3.42013E-16 1.41804E-08
 -1      9124-1.77617E-07-1.77776E-07 6.34773E-07-1.95957E-14-3.42013E-16-1.41804E-08
 -1      9125-1.84876E-07-1.77776E-07 6.42005E-07 4.09918E-12-7.15538E-14 1.44335E-08
 -1      9127-1.84876E-07-1.77776E-07 6.42005E-07 4.09918E-12 7.15538E-14-1.44335E-08
 -1      9128-1.84876E-07-1.77776E-07 6.42005E-07-4.10177E-12 7.15954E-14 1.44335E-08
 -1      9130-1.84876E-07-1.77776E-07 6.42005E-07-4.10177E-12-7.15954E-14-1.44335E-08
 -1      9131-1.77617E-07-1.77776E-07 6.34773E-07-2.05532E-14 3.58723E-16 1.41804E-08
 -1      9133-1.77617E-07-1.77776E-07 6.34773E-07-2.05532E-14-3.58723E-16-1.41804E-08
 -1      9134-1.84862E-07-1.77776E-07 6.41991E-07 4.09534E-12-7.14853E-14 1.44330E-08
 -1      9136-1.84862E-07-1.77776E-07 6.41991E-07 4.09534E-12 7.14853E-14-1.44330E-08
 -1      9137-1.84862E-07-1.77776E-07 6.41991E-07-4.08784E-12 7.13509E-14 1.44330E-08
 -1      9139-1.84862E-07-1.77776E-07 6.41991E-07-4.08784E-12-7.13509E-14-1.44330E-08
 -1      9140-1.77617E-07-1.77776E-07 6.34773E-07-1.43479E-14 2.50417E-16 1.41804E-08
 -1      9142-1.77617E-07-1.77776E-07 6.34773E-07-1.43479E-14-2.50417E-16-1.41804E-08
 -1      9143-1.84857E-07-1.77776E-07 6.41987E-07 4.09144E-12-7.14181E-14 1.44328E-08
 -1      9145-1.84857E-07-1.77776E-07 6.41987E-07 4.09144E-12 7.14181E-14-1.44328E-08
 -1      9146-1.84857E-07-1.77776E-07 6.41987E-07-4.07557E-12 7.11385E-14 1.44328E-08
 -1      9148-1.84857E-07-1.77776E-07 6.41987E-07-4.07557E-12-7.11385E-14-1.44328E-08
 -1      9149-1.77617E-07-1.77776E-07 6.34774E-07-7.83064E-14 1.36671E-15 1.41804E-08
 -1      9151-1.77617E-07-1.77776E-07 6.34774E-07-7.83064E-14-1.36671E-15-1.41804E-08
 -1      9152-1.84835E-07-1.77776E-07 6.41965E-07 4.07856E-12-7.11988E-14 1.44320E-08
 -1      9154-1.84835E-07-1.77776E-07 6.41965E-07 4.07856E-12 7.11988E-14-1.44320E-08
 -1      9155-1.84835E-07-1.77776E-07 6.41965E-07-4.05016E-12 7.06899E-14 1.44320E-08
 -1      9157-1.84835E-07-1.77776E-07 6.41965E-07-4.05016E-12-7.06899E-14-1.44320E-08
 -1      9158-1.77618E-07-1.77776E-07 6.34774E-07 3.76712E-17-6.39765E-19 1.41805E-08
 -1      9160-1.77618E-07-1.77776E-07 6.34774E-07 3.76633E-17 6.40176E-19-1.41805E-08
 -1      9161-1.84792E-07-1.77776E-07 6.41922E-07 4.05113E-12-7.07068E-14 1.44305E-08
 -1      9163-1.84792E-07-1.77776E-07 6.41922E-07 4.05113E-12 7.07068E-14-1.44305E-08
 -1      9164-1.84792E-07-1.77776E-07 6.41922E-07-4.05210E-12 7.07223E-14 1.44305E-08
 -1      9166-1.84792E-07-1.77776E-07 6.41922E-07-4.05210E-12-7.07223E-14-1.44305E-08
 -1      9167-1.77616E-07-1.77776E-07 6.34773E-07 4.85627E-13-8.47574E-15 1.41804E-08
 -1      9169-1.77616E-07-1.77776E-07 6.34773E-07 4.85627E-13 8.47574E-15-1.41804E-08
 -1      9170-1.84895E-07-1.77776E-07 6.42024E-07 3.86489E-12-6.74118E-14 1.44341E-08
 -1      9172-1.84895E-07-1.77776E-07 6.42024E-07 3.86489E-12 6.74118E-14-1.44341E-08
 -1      9173-1.84895E-07-1.77776E-07 6.42024E-07-4.28063E-12 7.47480E-14 1.44341E-08
 -1      9175-1.84895E-07-1.77776E-07 6.42024E-07-4.28063E-12-7.47480E-14-1.44341E-08
 -1      9176-1.77616E-07-1.77777E-07 6.34772E-07-1.68134E-12 2.93447E-14 1.41804E-08
 -1      9178-1.77616E-07-1.77777E-07 6.34772E-07-1.68134E-12-2.93447E-14-1.41804E-08
 -1      9179-1.84946E-07-1.77776E-07 6.42076E-07 3.97401E-12-6.96061E-14 1.44359E-08
 -1      9181-1.84946E-07-1.77776E-07 6.42076E-07 3.97401E-12 6.96061E-14-1.44359E-08
 -1      9182-1.84945E-07-1.77776E-07 6.42073E-07-3.35927E-12 5.86030E-14 1.44359E-08
 -1      9184-1.84945E-07-1.77776E-07 6.42073E-07-3.35927E-12-5.86030E-14-1.44359E-08
 -1      9185-5.41899E-06-1.77785E-07 5.88001E-06-1.75901E-11 3.07077E-13 1.97249E-07
 -1      9187-5.41899E-06-1.77785E-07 5.88001E-06-1.75901E-11-3.07077E-13-1.97249E-07
 -1      9188-5.45341E-06-1.77779E-07 5.91381E-06 4.70264E-10-8.20881E-12 1.98439E-07
 -1      9190-5.45341E-06-1.77779E-07 5.91381E-06 4.70264E-10 8.20881E-12-1.98439E-07
 -1      9191-5.39996E-06-1.77010E-07 5.85916E-06-1.25301E-10 2.19739E-12 1.96551E-07
 -1      9193-5.39996E-06-1.77010E-07 5.85916E-06-1.25301E-10-2.19739E-12-1.96551E-07
 -1      9194-5.41832E-06-1.77777E-07 5.87935E-06 2.17580E-12-3.80124E-14 1.97226E-07
 -1      9196-5.41832E-06-1.77777E-07 5.87935E-06 2.17580E-12 3.80124E-14-1.97226E-07
 -1      9197-5.42274E-06-1.77782E-07 5.88373E-06-3.69768E-11 6.45541E-13 1.97379E-07
 -1      9199-5.42274E-06-1.77782E-07 5.88373E-06-3.69768E-11-6.45541E-13-1.97379E-07
 -1      9200-5.43541E-06-1.77773E-07 5.89629E-06-3.90503E-11 6.81757E-13 1.97819E-07
 -1      9202-5.43541E-06-1.77773E-07 5.89629E-06-3.90503E-11-6.81757E-13-1.97819E-07
 -1      9203-5.44379E-06-1.77772E-07 5.90460E-06-1.31643E-11 2.29834E-13 1.98110E-07
 -1      9205-5.44379E-06-1.77772E-07 5.90460E-06-1.31643E-11-2.29834E-13-1.98110E-07
 -1      9206-5.44561E-06-1.77776E-07 5.90640E-06 8.90517E-13-1.55450E-14 1.98173E-07
 -1      9208-5.44561E-06-1.77776E-07 5.90640E-06 8.90517E-13 1.55450E-14-1.98173E-07
 -1      9209-5.44520E-06-1.77777E-07 5.90600E-06 1.33625E-12-2.33306E-14 1.98159E-07
 -1      9211-5.44520E-06-1.77777E-07 5.90600E-06 1.33625E-12 2.33306E-14-1.98159E-07
 -1      9212-5.44555E-06-1.77780E-07 5.90635E-06-4.90017E-12 8.55497E-14 1.98171E-07
 -1      9214-5.44555E-06-1.77780E-07 5.90635E-06-4.90017E-12-8.55497E-14-1.98171E-07
 -1      9215-5.44703E-06-1.77772E-07 5.90782E-06-6.03194E-12 1.05272E-13 1.98223E-07
 -1      9217-5.44703E-06-1.77772E-07 5.90782E-06-6.03194E-12-1.05272E-13-1.98223E-07
 -1      9218-5.43941E-06-1.77776E-07 5.90028E-06 4.84877E-11-8.46514E-13 1.97959E-07
 -1      9220-5.43941E-06-1.77776E-07 5.90028E-06 4.84877E-11 8.46514E-13-1.97959E-07
 -1      9221-5.42151E-06-1.77742E-07 5.88256E-06 6.74632E-11-1.17791E-12 1.97337E-07
 -1      9223-5.42151E-06-1.77742E-07 5.88256E-06 6.74632E-11 1.17791E-12-1.97337E-07
 -1      9224-3.11289E-06-1.77761E-07 3.57001E-06 1.24037E-11-2.16079E-13 1.16666E-07
 -1      9226-3.11289E-06-1.77761E-07 3.57001E-06 1.24037E-11 2.16079E-13-1.16666E-07
 -1      9227-3.98353E-06-1.77664E-07 4.44034E-06-1.32764E-10 2.32588E-12 1.47059E-07
 -1      9229-3.98353E-06-1.77664E-07 4.44034E-06-1.32764E-10-2.32588E-12-1.47059E-07
 -1      9230-1.99047E-06-1.77776E-07 2.44761E-06-4.44606E-12 7.75771E-14 7.74738E-08
 -1      9232-1.99047E-06-1.77776E-07 2.44761E-06-4.44606E-12-7.75771E-14-7.74738E-08
 -1      9233-1.63071E-06-1.77776E-07 2.08785E-06-8.44822E-13 1.47373E-14 6.49123E-08
 -1      9235-1.63071E-06-1.77776E-07 2.08785E-06-8.44822E-13-1.47373E-14-6.49123E-08
 -1      9236-1.35229E-06-1.77775E-07 1.80943E-06 1.88517E-12-3.29090E-14 5.51914E-08
 -1      9238-1.35229E-06-1.77775E-07 1.80943E-06 1.88517E-12 3.29090E-14-5.51914E-08
 -1      9239-1.13224E-06-1.77776E-07 1.58938E-06-1.46252E-12 2.55338E-14 4.75085E-08
 -1      9241-1.13224E-06-1.77776E-07 1.58938E-06-1.46252E-12-2.55338E-14-4.75085E-08
 -1      9242-9.55077E-07-1.77776E-07 1.41221E-06 3.52865E-13-6.16440E-15 4.13231E-08
 -1      9244-9.55077E-07-1.77776E-07 1.41221E-06 3.52865E-13 6.16440E-15-4.13231E-08
 -1      9245-8.10770E-07-1.77776E-07 1.26791E-06-1.02574E-12 1.79074E-14 3.62849E-08
 -1      9247-8.10770E-07-1.77776E-07 1.26791E-06-1.02574E-12-1.79074E-14-3.62849E-08
 -1      9248-6.90933E-07-1.77776E-07 1.14807E-06-2.10773E-14 3.65030E-16 3.21011E-08
 -1      9250-6.90933E-07-1.77776E-07 1.14807E-06-2.10773E-14-3.65029E-16-3.21011E-08
 -1      9251-5.90623E-07-1.77776E-07 1.04776E-06 5.41372E-13-9.45232E-15 2.85990E-08
 -1      9253-5.90623E-07-1.77776E-07 1.04776E-06 5.41372E-13 9.45232E-15-2.85990E-08
 -1      9254-5.05887E-07-1.77776E-07 9.63026E-07-5.40326E-13 9.42958E-15 2.56407E-08
 -1      9256-5.05887E-07-1.77776E-07 9.63026E-07-5.40326E-13-9.42958E-15-2.56407E-08
 -1      9257-4.33510E-07-1.77776E-07 8.90649E-07-2.29449E-13 4.00271E-15 2.31139E-08
 -1      9259-4.33510E-07-1.77776E-07 8.90649E-07-2.29449E-13-4.00271E-15-2.31139E-08
 -1      9260-3.71332E-07-1.77776E-07 8.28470E-07-3.87196E-14 6.81034E-16 2.09431E-08
 -1      9262-3.71332E-07-1.77776E-07 8.28470E-07-3.87196E-14-6.81034E-16-2.09431E-08
 -1      9263-3.17806E-07-1.77776E-07 7.74944E-07-4.67792E-13 8.18727E-15 1.90744E-08
 -1      9265-3.17806E-07-1.77776E-07 7.74944E-07-4.67792E-13-8.18728E-15-1.90744E-08
 -1      9266-2.71434E-07-1.77777E-07 7.28572E-07 5.63351E-13-9.87687E-15 1.74555E-08
 -1      9268-2.71434E-07-1.77777E-07 7.28572E-07 5.63351E-13 9.87687E-15-1.74555E-08
 -1      9269-2.29847E-07-1.77777E-07 6.86985E-07 5.58379E-13-9.72621E-15 1.60037E-08
 -1      9271-2.29847E-07-1.77777E-07 6.86985E-07 5.58379E-13 9.72621E-15-1.60037E-08
 -1      9272-1.92267E-07-1.77780E-07 6.49428E-07 4.54594E-12-7.93767E-14 1.46920E-08
 -1      9274-1.92267E-07-1.77780E-07 6.49428E-07 4.54594E-12 7.93767E-14-1.46920E-08
 -1      9275-1.92187E-07-1.77776E-07 6.49345E-07-6.61427E-13 1.15462E-14 1.46891E-08
 -1      9277-1.92187E-07-1.77776E-07 6.49345E-07-6.61427E-13-1.15462E-14-1.46891E-08
 -1      9278-1.91969E-07-1.77776E-07 6.49127E-07 2.12528E-13-3.70991E-15 1.46815E-08
 -1      9280-1.91969E-07-1.77776E-07 6.49127E-07 2.12528E-13 3.70991E-15-1.46815E-08
 -1      9281-1.92106E-07-1.77776E-07 6.49265E-07 1.15941E-13-2.02404E-15 1.46863E-08
 -1      9283-1.92106E-07-1.77776E-07 6.49265E-07 1.15941E-13 2.02404E-15-1.46863E-08
 -1      9284-1.92144E-07-1.77776E-07 6.49302E-07-2.92333E-14 5.10260E-16 1.46876E-08
 -1      9286-1.92144E-07-1.77776E-07 6.49302E-07-2.92333E-14-5.10260E-16-1.46876E-08
 -1      9287-1.92119E-07-1.77776E-07 6.49278E-07-3.11819E-14 5.44338E-16 1.46867E-08
 -1      9289-1.92119E-07-1.77776E-07 6.49278E-07-3.11819E-14-5.44338E-16-1.46867E-08
 -1      9290-1.92104E-07-1.77776E-07 6.49263E-07 1.10159E-14-1.92255E-16 1.46862E-08
 -1      9292-1.92104E-07-1.77776E-07 6.49263E-07 1.10159E-14 1.92256E-16-1.46862E-08
 -1      9293-1.92074E-07-1.77776E-07 6.49233E-07-6.42122E-14 1.12101E-15 1.46852E-08
 -1      9295-1.92074E-07-1.77776E-07 6.49233E-07-6.42122E-14-1.12101E-15-1.46852E-08
 -1      9296-1.91993E-07-1.77776E-07 6.49151E-07-1.17560E-13 2.05217E-15 1.46823E-08
 -1      9298-1.91993E-07-1.77776E-07 6.49151E-07-1.17560E-13-2.05217E-15-1.46823E-08
 -1      9299-1.92092E-07-1.77776E-07 6.49251E-07 3.21404E-13-5.61064E-15 1.46858E-08
 -1      9301-1.92092E-07-1.77776E-07 6.49251E-07 3.21404E-13 5.61064E-15-1.46858E-08
 -1      9302-1.92371E-07-1.77777E-07 6.49532E-07-1.67236E-13 2.92197E-15 1.46956E-08
 -1      9304-1.92371E-07-1.77777E-07 6.49532E-07-1.67236E-13-2.92196E-15-1.46956E-08
 -1      9305-5.42529E-06-1.77837E-07 5.88624E-06 9.34177E-11-1.63088E-12 1.97468E-07
 -1      9307-5.42529E-06-1.77837E-07 5.88624E-06 9.34177E-11 1.63088E-12-1.97468E-07
 -1      9308-5.42886E-06-1.77777E-07 5.88980E-06-4.62384E-11 8.07245E-13 1.97592E-07
 -1      9310-5.42886E-06-1.77777E-07 5.88980E-06-4.62384E-11-8.07245E-13-1.97592E-07
 -1      9311-5.44057E-06-1.77770E-07 5.90140E-06-2.53607E-11 4.42765E-13 1.97998E-07
 -1      9313-5.44057E-06-1.77770E-07 5.90140E-06-2.53607E-11-4.42765E-13-1.97998E-07
 -1      9314-5.44528E-06-1.77773E-07 5.90608E-06-3.87352E-12 6.76303E-14 1.98162E-07
 -1      9316-5.44528E-06-1.77773E-07 5.90608E-06-3.87352E-12-6.76303E-14-1.98162E-07
 -1      9317-5.44545E-06-1.77776E-07 5.90625E-06 1.39101E-12-2.42845E-14 1.98168E-07
 -1      9319-5.44545E-06-1.77776E-07 5.90625E-06 1.39101E-12 2.42845E-14-1.98168E-07
 -1      9320-5.44511E-06-1.77778E-07 5.90591E-06-2.89678E-13 5.05864E-15 1.98156E-07
 -1      9322-5.44511E-06-1.77778E-07 5.90591E-06-2.89678E-13-5.05864E-15-1.98156E-07
 -1      9323-5.44651E-06-1.77777E-07 5.90730E-06-9.55526E-12 1.66805E-13 1.98205E-07
 -1      9325-5.44651E-06-1.77777E-07 5.90730E-06-9.55526E-12-1.66805E-13-1.98205E-07
 -1      9326-5.44505E-06-1.77765E-07 5.90584E-06 1.90282E-11-3.32235E-13 1.98154E-07
 -1      9328-5.44505E-06-1.77765E-07 5.90584E-06 1.90282E-11 3.32235E-13-1.98154E-07
 -1      9329-5.43172E-06-1.77777E-07 5.89266E-06 4.55512E-11-7.95293E-13 1.97692E-07
 -1      9331-5.43172E-06-1.77777E-07 5.89266E-06 4.55512E-11 7.95293E-13-1.97692E-07
 -1      9332-5.40789E-06-1.77814E-07 5.86922E-06 7.44876E-11-1.30059E-12 1.96868E-07
 -1      9334-5.40789E-06-1.77814E-07 5.86922E-06 7.44876E-11 1.30059E-12-1.96868E-07
 -1      9335-1.48317E-06-1.77775E-07 1.94031E-06-2.96659E-12 5.17922E-14 5.97611E-08
 -1      9337-1.48317E-06-1.77775E-07 1.94031E-06-2.96659E-12-5.17922E-14-5.97611E-08
 -1      9338-1.23608E-06-1.77776E-07 1.69322E-06-4.71153E-15 7.70345E-17 5.11340E-08
 -1      9340-1.23608E-06-1.77776E-07 1.69322E-06-4.71154E-15-7.70345E-17-5.11340E-08
 -1      9341-1.03890E-06-1.77776E-07 1.49604E-06 1.53207E-12-2.67471E-14 4.42496E-08
 -1      9343-1.03890E-06-1.77776E-07 1.49604E-06 1.53207E-12 2.67471E-14-4.42496E-08
 -1      9344-8.79506E-07-1.77776E-07 1.33664E-06-2.99030E-13 5.21622E-15 3.86847E-08
 -1      9346-8.79506E-07-1.77776E-07 1.33664E-06-2.99030E-13-5.21622E-15-3.86847E-08
 -1      9347-7.48052E-07-1.77776E-07 1.20519E-06 7.44941E-13-1.30046E-14 3.40953E-08
 -1      9349-7.48052E-07-1.77776E-07 1.20519E-06 7.44941E-13 1.30046E-14-3.40953E-08
 -1      9350-6.38671E-07-1.77776E-07 1.09581E-06-6.47041E-13 1.12956E-14 3.02765E-08
 -1      9352-6.38671E-07-1.77776E-07 1.09581E-06-6.47041E-13-1.12956E-14-3.02765E-08
 -1      9353-5.46534E-07-1.77776E-07 1.00367E-06-5.05473E-14 8.78493E-16 2.70598E-08
 -1      9355-5.46534E-07-1.77776E-07 1.00367E-06-5.05473E-14-8.78493E-16-2.70598E-08
 -1      9356-4.68262E-07-1.77776E-07 9.25400E-07 2.29844E-13-4.01361E-15 2.43271E-08
 -1      9358-4.68262E-07-1.77776E-07 9.25400E-07 2.29844E-13 4.01361E-15-2.43271E-08
 -1      9359-4.01297E-07-1.77776E-07 8.58436E-07-6.17231E-13 1.07750E-14 2.19893E-08
 -1      9361-4.01297E-07-1.77776E-07 8.58436E-07-6.17231E-13-1.07750E-14-2.19893E-08
 -1      9362-3.43564E-07-1.77776E-07 8.00702E-07-3.63936E-13 6.36361E-15 1.99737E-08
 -1      9364-3.43564E-07-1.77776E-07 8.00702E-07-3.63936E-13-6.36361E-15-1.99737E-08
 -1      9365-2.93845E-07-1.77776E-07 7.50983E-07 3.25564E-13-5.66068E-15 1.82379E-08
 -1      9367-2.93845E-07-1.77776E-07 7.50983E-07 3.25564E-13 5.66068E-15-1.82379E-08
 -1      9368-2.50186E-07-1.77777E-07 7.07325E-07 5.77054E-13-1.01129E-14 1.67137E-08
 -1      9370-2.50186E-07-1.77777E-07 7.07325E-07 5.77054E-13 1.01129E-14-1.67137E-08
 -1      9371-2.10317E-07-1.77775E-07 6.67454E-07-2.27809E-13 4.10580E-15 1.53218E-08
 -1      9373-2.10317E-07-1.77775E-07 6.67454E-07-2.27809E-13-4.10580E-15-1.53218E-08
 -1      9374-1.91976E-07-1.77776E-07 6.49134E-07-4.71585E-14 8.23696E-16 1.46817E-08
 -1      9376-1.91976E-07-1.77776E-07 6.49134E-07-4.71585E-14-8.23696E-16-1.46817E-08
 -1      9377-1.92041E-07-1.77776E-07 6.49200E-07 1.87237E-13-3.26871E-15 1.46840E-08
 -1      9379-1.92041E-07-1.77776E-07 6.49200E-07 1.87237E-13 3.26871E-15-1.46840E-08
 -1      9380-1.92138E-07-1.77776E-07 6.49297E-07 3.25844E-14-5.68850E-16 1.46874E-08
 -1      9382-1.92138E-07-1.77776E-07 6.49297E-07 3.25844E-14 5.68850E-16-1.46874E-08
 -1      9383-1.92133E-07-1.77776E-07 6.49292E-07-5.27643E-14 9.21067E-16 1.46872E-08
 -1      9385-1.92133E-07-1.77776E-07 6.49292E-07-5.27643E-14-9.21067E-16-1.46872E-08
 -1      9386-1.92109E-07-1.77776E-07 6.49267E-07-5.66663E-15 9.89786E-17 1.46864E-08
 -1      9388-1.92109E-07-1.77776E-07 6.49267E-07-5.66662E-15-9.89784E-17-1.46864E-08
 -1      9389-1.92097E-07-1.77776E-07 6.49255E-07-8.26473E-15 1.44379E-16 1.46860E-08
 -1      9391-1.92097E-07-1.77776E-07 6.49255E-07-8.26473E-15-1.44379E-16-1.46860E-08
 -1      9392-1.92036E-07-1.77776E-07 6.49194E-07-1.19918E-13 2.09340E-15 1.46838E-08
 -1      9394-1.92036E-07-1.77776E-07 6.49194E-07-1.19918E-13-2.09340E-15-1.46838E-08
 -1      9395-1.91988E-07-1.77776E-07 6.49146E-07-1.57588E-14 2.74823E-16 1.46822E-08
 -1      9397-1.91988E-07-1.77776E-07 6.49146E-07-1.57588E-14-2.74824E-16-1.46822E-08
 -1      9398-1.92324E-07-1.77776E-07 6.49483E-07 8.03597E-13-1.40277E-14 1.46939E-08
 -1      9400-1.92324E-07-1.77776E-07 6.49483E-07 8.03597E-13 1.40277E-14-1.46939E-08
 -1      9401-1.91586E-07-1.77777E-07 6.48744E-07-3.60026E-12 6.28611E-14 1.46681E-08
 -1      9403-1.91586E-07-1.77777E-07 6.48744E-07-3.60026E-12-6.28611E-14-1.46681E-08
 -1      9404-3.52236E-06-1.77791E-07 3.97948E-06 2.15008E-11-3.76072E-13 1.30964E-07
 -1      9406-3.52236E-06-1.77791E-07 3.97948E-06 2.15008E-11 3.76072E-13-1.30964E-07
 -1      9407-2.76516E-06-1.77761E-07 3.22228E-06 1.68804E-12-2.91420E-14 1.04524E-07
 -1      9409-2.76516E-06-1.77761E-07 3.22228E-06 1.68804E-12 2.91420E-14-1.04524E-07
 -1      9410-1.79835E-06-1.77775E-07 2.25548E-06 2.39140E-12-4.17666E-14 7.07655E-08
 -1      9412-1.79835E-06-1.77775E-07 2.25548E-06 2.39140E-12 4.17666E-14-7.07655E-08
 -1      9413-1.92568E-07-1.77776E-07 6.49729E-07-1.46048E-12 2.54942E-14 1.47025E-08
 -1      9415-1.92568E-07-1.77776E-07 6.49729E-07-1.46048E-12-2.54942E-14-1.47025E-08
 -1      9416-5.17953E-06-1.77898E-07 5.63557E-06-4.73828E-10 8.23847E-12 1.88806E-07
 -1      9418-5.17953E-06-1.77898E-07 5.63557E-06-4.73828E-10-8.23847E-12-1.88806E-07
 -1      9419-5.09146E-06-1.77781E-07 5.54680E-06-3.21517E-11 5.62130E-13 1.85728E-07
 -1      9421-5.09146E-06-1.77781E-07 5.54680E-06-3.21517E-11-5.62130E-13-1.85728E-07
 -1      9422-5.08818E-06-1.77774E-07 5.54346E-06 9.51711E-11-1.66053E-12 1.85613E-07
 -1      9424-5.08818E-06-1.77774E-07 5.54346E-06 9.51711E-11 1.66053E-12-1.85613E-07
 -1      9425-5.08310E-06-1.77782E-07 5.53841E-06-3.88835E-11 6.79646E-13 1.85436E-07
 -1      9427-5.08310E-06-1.77782E-07 5.53841E-06-3.88835E-11-6.79646E-13-1.85436E-07
 -1      9428-5.08064E-06-1.77766E-07 5.53590E-06 8.58655E-11-1.49849E-12 1.85349E-07
 -1      9430-5.08064E-06-1.77766E-07 5.53590E-06 8.58655E-11 1.49849E-12-1.85349E-07
 -1      9431-4.74575E-06-1.77791E-07 5.20617E-06-7.00634E-11 1.22314E-12 1.73730E-07
 -1      9433-4.74575E-06-1.77791E-07 5.20617E-06-7.00634E-11-1.22314E-12-1.73730E-07
 -1      9434-5.10520E-06-1.77729E-07 5.56055E-06-3.43334E-10 5.99225E-12 1.86207E-07
 -1      9436-5.10520E-06-1.77729E-07 5.56055E-06-3.43334E-10-5.99225E-12-1.86207E-07
 -1      9437-5.12547E-06-1.77313E-07 5.58085E-06-1.88195E-10 3.27277E-12 1.86916E-07
 -1      9439-5.12547E-06-1.77313E-07 5.58085E-06-1.88195E-10-3.27277E-12-1.86916E-07
 -1      9440-5.10665E-06-1.77780E-07 5.56202E-06-4.26012E-11 7.43826E-13 1.86258E-07
 -1      9442-5.10665E-06-1.77780E-07 5.56202E-06-4.26012E-11-7.43826E-13-1.86258E-07
 -1      9443-5.10467E-06-1.77777E-07 5.56000E-06 8.08450E-11-1.41021E-12 1.86188E-07
 -1      9445-5.10467E-06-1.77777E-07 5.56000E-06 8.08450E-11 1.41021E-12-1.86188E-07
 -1      9446-5.11166E-06-1.77777E-07 5.56703E-06-5.89424E-11 1.02874E-12 1.86433E-07
 -1      9448-5.11166E-06-1.77777E-07 5.56703E-06-5.89424E-11-1.02874E-12-1.86433E-07
 -1      9449-5.11131E-06-1.77777E-07 5.56667E-06 6.43045E-11-1.12217E-12 1.86420E-07
 -1      9451-5.11131E-06-1.77777E-07 5.56667E-06 6.43045E-11 1.12217E-12-1.86420E-07
 -1      9452-5.11137E-06-1.77776E-07 5.56673E-06-6.38012E-11 1.11358E-12 1.86423E-07
 -1      9454-5.11137E-06-1.77776E-07 5.56673E-06-6.38012E-11-1.11358E-12-1.86423E-07
 -1      9455-5.11147E-06-1.77777E-07 5.56684E-06 6.00019E-11-1.04737E-12 1.86426E-07
 -1      9457-5.11147E-06-1.77777E-07 5.56684E-06 6.00019E-11 1.04737E-12-1.86426E-07
 -1      9458-5.11086E-06-1.77778E-07 5.56622E-06-6.27067E-11 1.09456E-12 1.86405E-07
 -1      9460-5.11086E-06-1.77778E-07 5.56622E-06-6.27067E-11-1.09456E-12-1.86405E-07
 -1      9461-5.11082E-06-1.77776E-07 5.56618E-06 6.16217E-11-1.07566E-12 1.86403E-07
 -1      9463-5.11082E-06-1.77776E-07 5.56618E-06 6.16217E-11 1.07566E-12-1.86403E-07
 -1      9464-5.11273E-06-1.77777E-07 5.56810E-06-5.66835E-11 9.89655E-13 1.86470E-07
 -1      9466-5.11273E-06-1.77777E-07 5.56810E-06-5.66835E-11-9.89655E-13-1.86470E-07
 -1      9467-5.11220E-06-1.77774E-07 5.56757E-06 6.98152E-11-1.21849E-12 1.86452E-07
 -1      9469-5.11220E-06-1.77774E-07 5.56757E-06 6.98152E-11 1.21849E-12-1.86452E-07
 -1      9470-5.11091E-06-1.77789E-07 5.56625E-06-8.61003E-11 1.50136E-12 1.86406E-07
 -1      9472-5.11091E-06-1.77789E-07 5.56625E-06-8.61003E-11-1.50136E-12-1.86406E-07
 -1      9473-5.11273E-06-1.77780E-07 5.56812E-06 4.21365E-11-7.35304E-13 1.86470E-07
 -1      9475-5.11273E-06-1.77780E-07 5.56812E-06 4.21365E-11 7.35304E-13-1.86470E-07
 -1      9476-5.09010E-06-1.77772E-07 5.54535E-06-1.03399E-10 1.80402E-12 1.85679E-07
 -1      9478-5.09010E-06-1.77772E-07 5.54535E-06-1.03399E-10-1.80402E-12-1.85679E-07
 -1      9479-5.09385E-06-1.77759E-07 5.54920E-06 3.52581E-11-6.16902E-13 1.85812E-07
 -1      9481-5.09385E-06-1.77759E-07 5.54920E-06 3.52581E-11 6.16902E-13-1.85812E-07
 -1      9482-5.05734E-06-1.77825E-07 5.51259E-06-2.29750E-10 4.01235E-12 1.84537E-07
 -1      9484-5.05734E-06-1.77825E-07 5.51259E-06-2.29750E-10-4.01235E-12-1.84537E-07
 -1      9485-5.06402E-06-1.77729E-07 5.51933E-06 2.41294E-11-4.24096E-13 1.84772E-07
 -1      9487-5.06402E-06-1.77729E-07 5.51933E-06 2.41294E-11 4.24096E-13-1.84772E-07
 -1      9488-4.71216E-06-1.78106E-07 5.17266E-06-1.06515E-10 1.85902E-12 1.72561E-07
 -1      9490-4.71216E-06-1.78106E-07 5.17266E-06-1.06515E-10-1.85902E-12-1.72561E-07
 -1      9491-3.02317E-06-1.77772E-07 3.48019E-06 5.32033E-10-9.28764E-12 1.13526E-07
 -1      9493-3.02317E-06-1.77772E-07 3.48019E-06 5.32033E-10 9.28764E-12-1.13526E-07
 -1      9494-3.21041E-06-1.77785E-07 3.66774E-06-6.03912E-10 1.05442E-11 1.20068E-07
 -1      9496-3.21041E-06-1.77785E-07 3.66774E-06-6.03912E-10-1.05442E-11-1.20068E-07
 -1      9497-1.44781E-06-1.77777E-07 1.90495E-06 1.44850E-10-2.52885E-12 5.85250E-08
 -1      9499-1.44781E-06-1.77777E-07 1.90495E-06 1.44850E-10 2.52885E-12-5.85250E-08
 -1      9500-1.51719E-06-1.77775E-07 1.97432E-06-1.56396E-10 2.73034E-12 6.09472E-08
 -1      9502-1.51719E-06-1.77775E-07 1.97432E-06-1.56396E-10-2.73034E-12-6.09472E-08
 -1      9503-2.39787E-06-1.77778E-07 2.85500E-06 3.60180E-10-6.28776E-12 9.16952E-08
 -1      9505-2.39787E-06-1.77778E-07 2.85500E-06 3.60180E-10 6.28776E-12-9.16952E-08
 -1      9506-2.53568E-06-1.77780E-07 2.99284E-06-4.06763E-10 7.10158E-12 9.65075E-08
 -1      9508-2.53568E-06-1.77780E-07 2.99284E-06-4.06763E-10-7.10158E-12-9.65075E-08
 -1      9509-1.93775E-06-1.77777E-07 2.39490E-06 2.46067E-10-4.29592E-12 7.56307E-08
 -1      9511-1.93775E-06-1.77777E-07 2.39490E-06 2.46067E-10 4.29592E-12-7.56307E-08
 -1      9512-2.04051E-06-1.77773E-07 2.49763E-06-2.67985E-10 4.67856E-12 7.92179E-08
 -1      9514-2.04051E-06-1.77773E-07 2.49763E-06-2.67985E-10-4.67856E-12-7.92179E-08
 -1      9515-2.68654E-06-1.77790E-07 3.14367E-06 4.34311E-10-7.58158E-12 1.01774E-07
 -1      9517-2.68654E-06-1.77790E-07 3.14367E-06 4.34311E-10 7.58158E-12-1.01774E-07
 -1      9518-2.84720E-06-1.77777E-07 3.30442E-06-5.03395E-10 8.78874E-12 1.07385E-07
 -1      9520-2.84720E-06-1.77777E-07 3.30442E-06-5.03395E-10-8.78874E-12-1.07385E-07
 -1      9521-2.94113E-06-1.77734E-07 3.39824E-06 1.52057E-11-2.64279E-13 1.10668E-07
 -1      9523-2.94113E-06-1.77734E-07 3.39824E-06 1.52057E-11 2.64279E-13-1.10668E-07
 -1      9524-2.61466E-06-1.77775E-07 3.07180E-06 9.77109E-12-1.70379E-13 9.92692E-08
 -1      9526-2.61466E-06-1.77775E-07 3.07180E-06 9.77109E-12 1.70379E-13-9.92692E-08
 -1      9527-3.92119E-06-1.77888E-07 4.37821E-06 9.25688E-10-1.61390E-11 1.44884E-07
 -1      9529-3.92119E-06-1.77888E-07 4.37821E-06 9.25688E-10 1.61390E-11-1.44884E-07
 -1      9530-4.15854E-06-1.78067E-07 4.61755E-06-4.97246E-10 8.68790E-12 1.53201E-07
 -1      9532-4.15854E-06-1.78067E-07 4.61755E-06-4.97246E-10-8.68790E-12-1.53201E-07
 -1      9533-2.15104E-06-1.77776E-07 2.60819E-06 2.95232E-10-5.15402E-12 8.30776E-08
 -1      9535-2.15104E-06-1.77776E-07 2.60819E-06 2.95232E-10 5.15402E-12-8.30776E-08
 -1      9536-2.26922E-06-1.77774E-07 2.72635E-06-3.25234E-10 5.67819E-12 8.72034E-08
 -1      9538-2.26922E-06-1.77774E-07 2.72635E-06-3.25234E-10-5.67819E-12-8.72034E-08
 -1      9539-2.33543E-06-1.77779E-07 2.79257E-06 1.90503E-12-3.33168E-14 8.95189E-08
 -1      9541-2.33543E-06-1.77779E-07 2.79257E-06 1.90503E-12 3.33168E-14-8.95189E-08
 -1      9542-2.09645E-06-1.77778E-07 2.55359E-06-1.82467E-12 3.17640E-14 8.11744E-08
 -1      9544-2.09645E-06-1.77778E-07 2.55359E-06-1.82467E-12-3.17640E-14-8.11744E-08
 -1      9545-2.00340E-07-1.77776E-07 6.57467E-07 1.17276E-12-2.05675E-14 1.49733E-08
 -1      9547-2.00340E-07-1.77776E-07 6.57467E-07 1.17276E-12 2.05675E-14-1.49733E-08
 -1      9548-2.00554E-07-1.77776E-07 6.57680E-07 1.11343E-12-1.96117E-14 1.49808E-08
 -1      9550-2.00554E-07-1.77776E-07 6.57680E-07 1.11343E-12 1.96117E-14-1.49808E-08
 -1      9551-1.20834E-06-1.77776E-07 1.66548E-06 1.05255E-10-1.83752E-12 5.01646E-08
 -1      9553-1.20834E-06-1.77776E-07 1.66548E-06 1.05255E-10 1.83752E-12-5.01646E-08
 -1      9554-1.26304E-06-1.77776E-07 1.72018E-06-1.13483E-10 1.98123E-12 5.20742E-08
 -1      9556-1.26304E-06-1.77776E-07 1.72018E-06-1.13483E-10-1.98123E-12-5.20742E-08
 -1      9557-1.01658E-06-1.77776E-07 1.47372E-06 7.93614E-11-1.38552E-12 4.34695E-08
 -1      9559-1.01658E-06-1.77776E-07 1.47372E-06 7.93614E-11 1.38552E-12-4.34695E-08
 -1      9560-1.06077E-06-1.77777E-07 1.51791E-06-8.56610E-11 1.49546E-12 4.50125E-08
 -1      9562-1.06077E-06-1.77777E-07 1.51791E-06-8.56610E-11-1.49546E-12-4.50125E-08
 -1      9563-8.61277E-07-1.77776E-07 1.31842E-06 6.03448E-11-1.05348E-12 3.80477E-08
 -1      9565-8.61277E-07-1.77776E-07 1.31842E-06 6.03448E-11 1.05348E-12-3.80477E-08
 -1      9566-8.97210E-07-1.77776E-07 1.35435E-06-6.42565E-11 1.12182E-12 3.93021E-08
 -1      9568-8.97210E-07-1.77776E-07 1.35435E-06-6.42565E-11-1.12182E-12-3.93021E-08
 -1      9569-7.32925E-07-1.77776E-07 1.19006E-06 4.74704E-11-8.28751E-13 3.35667E-08
 -1      9571-7.32925E-07-1.77776E-07 1.19006E-06 4.74704E-11 8.28751E-13-3.35667E-08
 -1      9572-7.62841E-07-1.77776E-07 1.21998E-06-5.06340E-11 8.83954E-13 3.46111E-08
 -1      9574-7.62841E-07-1.77776E-07 1.21998E-06-5.06340E-11-8.83954E-13-3.46111E-08
 -1      9575-6.25988E-07-1.77776E-07 1.08313E-06 3.77560E-11-6.59158E-13 2.98333E-08
 -1      9577-6.25988E-07-1.77776E-07 1.08313E-06 3.77560E-11 6.59158E-13-2.98333E-08
 -1      9578-6.51041E-07-1.77776E-07 1.10818E-06-3.97520E-11 6.93986E-13 3.07079E-08
 -1      9580-6.51041E-07-1.77776E-07 1.10818E-06-3.97520E-11-6.93986E-13-3.07079E-08
 -1      9581-5.35860E-07-1.77776E-07 9.92998E-07 2.99442E-11-5.22752E-13 2.66868E-08
 -1      9583-5.35860E-07-1.77776E-07 9.92998E-07 2.99442E-11 5.22752E-13-2.66868E-08
 -1      9584-5.56953E-07-1.77776E-07 1.01409E-06-3.15724E-11 5.51213E-13 2.74232E-08
 -1      9586-5.56953E-07-1.77776E-07 1.01409E-06-3.15724E-11-5.51213E-13-2.74232E-08
 -1      9587-4.59072E-07-1.77776E-07 9.16210E-07 2.44826E-11-4.27417E-13 2.40060E-08
 -1      9589-4.59072E-07-1.77776E-07 9.16210E-07 2.44826E-11 4.27417E-13-2.40060E-08
 -1      9590-4.77145E-07-1.77776E-07 9.34283E-07-2.58159E-11 4.50704E-13 2.46370E-08
 -1      9592-4.77145E-07-1.77776E-07 9.34283E-07-2.58159E-11-4.50704E-13-2.46370E-08
 -1      9593-3.93299E-07-1.77776E-07 8.50438E-07 2.00495E-11-3.50023E-13 2.17098E-08
 -1      9595-3.93299E-07-1.77776E-07 8.50438E-07 2.00495E-11 3.50023E-13-2.17098E-08
 -1      9596-4.08831E-07-1.77776E-07 8.65968E-07-2.07516E-11 3.62297E-13 2.22520E-08
 -1      9598-4.08831E-07-1.77776E-07 8.65968E-07-2.07516E-11-3.62297E-13-2.22520E-08
 -1      9599-3.36575E-07-1.77776E-07 7.93715E-07 1.61321E-11-2.81622E-13 1.97295E-08
 -1      9601-3.36575E-07-1.77776E-07 7.93715E-07 1.61321E-11 2.81622E-13-1.97295E-08
 -1      9602-3.49911E-07-1.77776E-07 8.07048E-07-1.67142E-11 2.91839E-13 2.01951E-08
 -1      9604-3.49911E-07-1.77776E-07 8.07048E-07-1.67142E-11-2.91839E-13-2.01951E-08
 -1      9605-2.87880E-07-1.77776E-07 7.45020E-07 1.28330E-11-2.24089E-13 1.80295E-08
 -1      9607-2.87880E-07-1.77776E-07 7.45020E-07 1.28330E-11 2.24089E-13-1.80295E-08
 -1      9608-2.99422E-07-1.77776E-07 7.56558E-07-1.34935E-11 2.35541E-13 1.84324E-08
 -1      9610-2.99422E-07-1.77776E-07 7.56558E-07-1.34935E-11-2.35541E-13-1.84324E-08
 -1      9611-2.45468E-07-1.77776E-07 7.02601E-07 1.10298E-11-1.92677E-13 1.65488E-08
 -1      9613-2.45468E-07-1.77776E-07 7.02601E-07 1.10298E-11 1.92677E-13-1.65488E-08
 -1      9614-2.55842E-07-1.77775E-07 7.12983E-07-1.23816E-11 2.16070E-13 1.69111E-08
 -1      9616-2.55842E-07-1.77775E-07 7.12983E-07-1.23816E-11-2.16070E-13-1.69111E-08
 -1      9617-2.05354E-07-1.77779E-07 6.62502E-07 8.38727E-12-1.46346E-13 1.51486E-08
 -1      9619-2.05354E-07-1.77779E-07 6.62502E-07 8.38727E-12 1.46346E-13-1.51486E-08
 -1      9620-2.14919E-07-1.77777E-07 6.72063E-07-1.07755E-11 1.88394E-13 1.54825E-08
 -1      9622-2.14919E-07-1.77777E-07 6.72063E-07-1.07755E-11-1.88394E-13-1.54825E-08
 -1      9623-1.99455E-07-1.77776E-07 6.56582E-07-1.21927E-13 2.16809E-15 1.49424E-08
 -1      9625-1.99455E-07-1.77776E-07 6.56582E-07-1.21927E-13-2.16809E-15-1.49424E-08
 -1      9626-1.99495E-07-1.77776E-07 6.56622E-07 9.64017E-14-1.72328E-15 1.49438E-08
 -1      9628-1.99495E-07-1.77776E-07 6.56622E-07 9.64017E-14 1.72328E-15-1.49438E-08
 -1      9629-1.96269E-07-1.77773E-07 6.53402E-07-1.54948E-11 2.69429E-13 1.48313E-08
 -1      9631-1.96269E-07-1.77773E-07 6.53402E-07-1.54948E-11-2.69429E-13-1.48313E-08
 -1      9632-1.99651E-07-1.77776E-07 6.56779E-07 3.55704E-13-6.20243E-15 1.49493E-08
 -1      9634-1.99651E-07-1.77776E-07 6.56779E-07 3.55704E-13 6.20243E-15-1.49493E-08
 -1      9635-1.99826E-07-1.77776E-07 6.56952E-07 4.06795E-13-7.21618E-15 1.49553E-08
 -1      9637-1.99826E-07-1.77776E-07 6.56952E-07 4.06795E-13 7.21618E-15-1.49553E-08
 -1      9638-2.07135E-07-1.77776E-07 6.64295E-07-3.68718E-13 6.43659E-15 1.52110E-08
 -1      9640-2.07135E-07-1.77776E-07 6.64295E-07-3.68718E-13-6.43659E-15-1.52110E-08
 -1      9641-4.83081E-06-1.77884E-07 5.29038E-06 4.61334E-10-8.05658E-12 1.76683E-07
 -1      9643-4.83081E-06-1.77884E-07 5.29038E-06 4.61334E-10 8.05658E-12-1.76683E-07
 -1      9644-1.99710E-07-1.77776E-07 6.56837E-07-2.97201E-13 5.19278E-15 1.49513E-08
 -1      9646-1.99710E-07-1.77776E-07 6.56837E-07-2.97201E-13-5.19278E-15-1.49513E-08
 -1      9647-1.99670E-07-1.77776E-07 6.56796E-07 6.89662E-14-1.18030E-15 1.49499E-08
 -1      9649-1.99670E-07-1.77776E-07 6.56796E-07 6.89662E-14 1.18030E-15-1.49499E-08
 -1      9650-1.99822E-07-1.77776E-07 6.56949E-07-2.19918E-13 3.83501E-15 1.49552E-08
 -1      9652-1.99822E-07-1.77776E-07 6.56949E-07-2.19918E-13-3.83501E-15-1.49552E-08
 -1      9653-1.99815E-07-1.77776E-07 6.56941E-07 1.85928E-13-3.23936E-15 1.49550E-08
 -1      9655-1.99815E-07-1.77776E-07 6.56941E-07 1.85928E-13 3.23936E-15-1.49550E-08
 -1      9656-1.99786E-07-1.77776E-07 6.56913E-07-1.66112E-13 2.89424E-15 1.49539E-08
 -1      9658-1.99786E-07-1.77776E-07 6.56913E-07-1.66112E-13-2.89424E-15-1.49539E-08
 -1      9659-1.99794E-07-1.77776E-07 6.56921E-07 2.21898E-13-3.87827E-15 1.49542E-08
 -1      9661-1.99794E-07-1.77776E-07 6.56921E-07 2.21898E-13 3.87827E-15-1.49542E-08
 -1      9662-1.99744E-07-1.77776E-07 6.56871E-07-1.77816E-13 3.10450E-15 1.49525E-08
 -1      9664-1.99744E-07-1.77776E-07 6.56871E-07-1.77816E-13-3.10450E-15-1.49525E-08
 -1      9665-1.99748E-07-1.77776E-07 6.56875E-07 1.99147E-13-3.47717E-15 1.49526E-08
 -1      9667-1.99748E-07-1.77776E-07 6.56875E-07 1.99147E-13 3.47717E-15-1.49526E-08
 -1      9668-1.99736E-07-1.77776E-07 6.56863E-07-1.67579E-13 2.92034E-15 1.49522E-08
 -1      9670-1.99736E-07-1.77776E-07 6.56863E-07-1.67579E-13-2.92034E-15-1.49522E-08
 -1      9671-1.99743E-07-1.77776E-07 6.56870E-07 2.12136E-13-3.69971E-15 1.49525E-08
 -1      9673-1.99743E-07-1.77776E-07 6.56870E-07 2.12136E-13 3.69971E-15-1.49525E-08
 -1      9674-1.99628E-07-1.77776E-07 6.56755E-07-1.18644E-13 2.05769E-15 1.49484E-08
 -1      9676-1.99628E-07-1.77776E-07 6.56755E-07-1.18644E-13-2.05769E-15-1.49484E-08
 -1      9677-1.99652E-07-1.77776E-07 6.56779E-07 2.49120E-13-4.35674E-15 1.49493E-08
 -1      9679-1.99652E-07-1.77776E-07 6.56779E-07 2.49120E-13 4.35674E-15-1.49493E-08
 -1      9680-1.99512E-07-1.77776E-07 6.56639E-07-1.34693E-13 2.36265E-15 1.49444E-08
 -1      9682-1.99512E-07-1.77776E-07 6.56639E-07-1.34693E-13-2.36265E-15-1.49444E-08
 -1      9683-1.99496E-07-1.77776E-07 6.56623E-07 1.50216E-13-2.64403E-15 1.49438E-08
 -1      9685-1.99496E-07-1.77776E-07 6.56623E-07 1.50216E-13 2.64404E-15-1.49438E-08
 -1      9686-2.00100E-07-1.77776E-07 6.57226E-07-9.59407E-13 1.68306E-14 1.49649E-08
 -1      9688-2.00100E-07-1.77776E-07 6.57226E-07-9.59407E-13-1.68306E-14-1.49649E-08
 -1      9689-1.99954E-07-1.77776E-07 6.57081E-07-4.98305E-13 8.74712E-15 1.49598E-08
 -1      9691-1.99954E-07-1.77776E-07 6.57081E-07-4.98305E-13-8.74712E-15-1.49598E-08
 -1      9692-1.99051E-07-1.77775E-07 6.56181E-07 1.70939E-12-3.02660E-14 1.49284E-08
 -1      9694-1.99051E-07-1.77775E-07 6.56181E-07 1.70939E-12 3.02660E-14-1.49284E-08
 -1      9695-1.99754E-07-1.77776E-07 6.56880E-07 3.74165E-12-6.52653E-14 1.49528E-08
 -1      9697-1.99754E-07-1.77776E-07 6.56880E-07 3.74165E-12 6.52653E-14-1.49528E-08
 -1      9698-3.41673E-06-1.77745E-07 3.87367E-06 7.07135E-10-1.23460E-11 1.27266E-07
 -1      9700-3.41673E-06-1.77745E-07 3.87367E-06 7.07135E-10 1.23460E-11-1.27266E-07
 -1      9701-3.63861E-06-1.77763E-07 4.09592E-06-9.83675E-10 1.71798E-11 1.35021E-07
 -1      9703-3.63861E-06-1.77763E-07 4.09592E-06-9.83675E-10-1.71798E-11-1.35021E-07
 -1      9704-3.80900E-06-1.77975E-07 4.26603E-06-5.07183E-11 8.78686E-13 1.40979E-07
 -1      9706-3.80900E-06-1.77975E-07 4.26603E-06-5.07183E-11-8.78686E-13-1.40979E-07
 -1      9707-3.32277E-06-1.77779E-07 3.77987E-06 2.70369E-11-4.70661E-13 1.23994E-07
 -1      9709-3.32277E-06-1.77779E-07 3.77987E-06 2.70369E-11 4.70661E-13-1.23994E-07
 -1      9710-5.07738E-06-1.77788E-07 5.53266E-06-5.24304E-11 9.15934E-13 1.85236E-07
 -1      9712-5.07738E-06-1.77788E-07 5.53266E-06-5.24304E-11-9.15934E-13-1.85236E-07
 -1      9713-5.07632E-06-1.77760E-07 5.53160E-06 6.83155E-11-1.19321E-12 1.85199E-07
 -1      9715-5.07632E-06-1.77760E-07 5.53160E-06 6.83155E-11 1.19321E-12-1.85199E-07
 -1      9716-4.73776E-06-1.77777E-07 5.19820E-06-3.67270E-11 6.41209E-13 1.73452E-07
 -1      9718-4.73776E-06-1.77777E-07 5.19820E-06-3.67270E-11-6.41209E-13-1.73452E-07
 -1      9719-1.96737E-07-1.77776E-07 6.53868E-07 4.69052E-12-8.21451E-14 1.48475E-08
 -1      9721-1.96737E-07-1.77776E-07 6.53868E-07 4.69052E-12 8.21451E-14-1.48475E-08
 -1      9722-4.54766E-06-1.77782E-07 5.00374E-06-5.76483E-10 1.00521E-11 1.66744E-07
 -1      9724-4.54766E-06-1.77782E-07 5.00374E-06-5.76483E-10-1.00521E-11-1.66744E-07
 -1      9725-5.07757E-06-1.77797E-07 5.53282E-06-5.35193E-11 9.33858E-13 1.85242E-07
 -1      9727-5.07757E-06-1.77797E-07 5.53282E-06-5.35193E-11-9.33858E-13-1.85242E-07
 -1      9728-5.07790E-06-1.77765E-07 5.53323E-06 6.08789E-11-1.06264E-12 1.85255E-07
 -1      9730-5.07790E-06-1.77765E-07 5.53323E-06 6.08789E-11 1.06264E-12-1.85255E-07
 -1      9731-4.73575E-06-1.77810E-07 5.19619E-06 2.31359E-11-4.03869E-13 1.73382E-07
 -1      9733-4.73575E-06-1.77810E-07 5.19619E-06 2.31359E-11 4.03869E-13-1.73382E-07
 -1      9734-4.22805E-06-1.78027E-07 4.68668E-06 6.13749E-10-1.07191E-11 1.55623E-07
 -1      9736-4.22805E-06-1.78027E-07 4.68668E-06 6.13749E-10 1.07191E-11-1.55623E-07
 -1      9737-3.96262E-06-1.77921E-07 4.41973E-06-8.05639E-10 1.40513E-11 1.46334E-07
 -1      9739-3.96262E-06-1.77921E-07 4.41973E-06-8.05639E-10-1.40513E-11-1.46334E-07
 -1      9740-4.45678E-06-1.77651E-07 4.91286E-06-1.99246E-10 3.45941E-12 1.63582E-07
 -1      9742-4.45678E-06-1.77651E-07 4.91286E-06-1.99246E-10-3.45941E-12-1.63582E-07
 -1      9743-3.67659E-06-1.77726E-07 4.13375E-06 8.65190E-10-1.51081E-11 1.36344E-07
 -1      9745-3.67659E-06-1.77726E-07 4.13375E-06 8.65190E-10 1.51081E-11-1.36344E-07
 -1      9746-3.44658E-06-1.77710E-07 3.90357E-06-6.52410E-10 1.13899E-11 1.28310E-07
 -1      9748-3.44658E-06-1.77710E-07 3.90357E-06-6.52410E-10-1.13899E-11-1.28310E-07
 -1      9749-3.85016E-06-1.77872E-07 4.30710E-06 1.18473E-10-2.06297E-12 1.42415E-07
 -1      9751-3.85016E-06-1.77872E-07 4.30710E-06 1.18473E-10 2.06297E-12-1.42415E-07
 -1      9752-3.23455E-06-1.77774E-07 3.69180E-06 6.09390E-10-1.06390E-11 1.20910E-07
 -1      9754-3.23455E-06-1.77774E-07 3.69180E-06 6.09390E-10 1.06390E-11-1.20910E-07
 -1      9755-3.04339E-06-1.77776E-07 3.50043E-06-5.08512E-10 8.87747E-12 1.14233E-07
 -1      9757-3.04339E-06-1.77776E-07 3.50043E-06-5.08512E-10-8.87747E-12-1.14233E-07
 -1      9758-3.35375E-06-1.77766E-07 3.81086E-06-4.70912E-12 8.26870E-14 1.25077E-07
 -1      9760-3.35375E-06-1.77766E-07 3.81086E-06-4.70912E-12-8.26870E-14-1.25077E-07
 -1      9761-2.86596E-06-1.77775E-07 3.32319E-06 4.86364E-10-8.49092E-12 1.08040E-07
 -1      9763-2.86596E-06-1.77775E-07 3.32319E-06 4.86364E-10 8.49092E-12-1.08040E-07
 -1      9764-2.70383E-06-1.77782E-07 3.16090E-06-4.17655E-10 7.29141E-12 1.02377E-07
 -1      9766-2.70383E-06-1.77782E-07 3.16090E-06-4.17655E-10-7.29141E-12-1.02377E-07
 -1      9767-2.96469E-06-1.77779E-07 3.42183E-06-2.93238E-11 5.12266E-13 1.11491E-07
 -1      9769-2.96469E-06-1.77779E-07 3.42183E-06-2.93238E-11-5.12266E-13-1.11491E-07
 -1      9770-2.55315E-06-1.77785E-07 3.01038E-06 3.98676E-10-6.96002E-12 9.71182E-08
 -1      9772-2.55315E-06-1.77785E-07 3.01038E-06 3.98676E-10 6.96002E-12-9.71182E-08
 -1      9773-2.41472E-06-1.77774E-07 2.87178E-06-3.36101E-10 5.86763E-12 9.22825E-08
 -1      9775-2.41472E-06-1.77774E-07 2.87178E-06-3.36101E-10-5.86763E-12-9.22825E-08
 -1      9776-2.63689E-06-1.77773E-07 3.09403E-06-2.30050E-11 4.01884E-13 1.00045E-07
 -1      9778-2.63689E-06-1.77773E-07 3.09403E-06-2.30050E-11-4.01884E-13-1.00045E-07
 -1      9779-2.28555E-06-1.77776E-07 2.74276E-06 3.23088E-10-5.64056E-12 8.77747E-08
 -1      9781-2.28555E-06-1.77776E-07 2.74276E-06 3.23088E-10 5.64056E-12-8.77747E-08
 -1      9782-2.16690E-06-1.77776E-07 2.62398E-06-2.77050E-10 4.83662E-12 8.36303E-08
 -1      9784-2.16690E-06-1.77776E-07 2.62398E-06-2.77050E-10-4.83662E-12-8.36303E-08
 -1      9785-2.35728E-06-1.77777E-07 2.81442E-06-1.71449E-11 2.99555E-13 9.02818E-08
 -1      9787-2.35728E-06-1.77777E-07 2.81442E-06-1.71449E-11-2.99555E-13-9.02818E-08
 -1      9788-2.05539E-06-1.77776E-07 2.51257E-06 2.67890E-10-4.67683E-12 7.97383E-08
 -1      9790-2.05539E-06-1.77776E-07 2.51257E-06 2.67890E-10 4.67683E-12-7.97383E-08
 -1      9791-1.95212E-06-1.77780E-07 2.40922E-06-2.33710E-10 4.08011E-12 7.61316E-08
 -1      9793-1.95212E-06-1.77780E-07 2.40922E-06-2.33710E-10-4.08011E-12-7.61316E-08
 -1      9794-2.11680E-06-1.77776E-07 2.57394E-06-1.42710E-11 2.49357E-13 8.18847E-08
 -1      9796-2.11680E-06-1.77776E-07 2.57394E-06-1.42710E-11-2.49357E-13-8.18847E-08
 -1      9797-1.85519E-06-1.77781E-07 2.31237E-06 2.24322E-10-3.91620E-12 7.27486E-08
 -1      9799-1.85519E-06-1.77781E-07 2.31237E-06 2.24322E-10 3.91620E-12-7.27486E-08
 -1      9800-1.76506E-06-1.77775E-07 2.22216E-06-1.92379E-10 3.35859E-12 6.96006E-08
 -1      9802-1.76506E-06-1.77775E-07 2.22216E-06-1.92379E-10-3.35859E-12-6.96006E-08
 -1      9803-1.90851E-06-1.77774E-07 2.36565E-06-1.11573E-11 1.94998E-13 7.46122E-08
 -1      9805-1.90851E-06-1.77774E-07 2.36565E-06-1.11573E-11-1.94998E-13-7.46122E-08
 -1      9806-1.68032E-06-1.77776E-07 2.13749E-06 1.85543E-10-3.23927E-12 6.66432E-08
 -1      9808-1.68032E-06-1.77776E-07 2.13749E-06 1.85543E-10 3.23927E-12-6.66432E-08
 -1      9809-1.60154E-06-1.77776E-07 2.05865E-06-1.61400E-10 2.81768E-12 6.38917E-08
 -1      9811-1.60154E-06-1.77776E-07 2.05865E-06-1.61400E-10-2.81768E-12-6.38917E-08
 -1      9812-1.72697E-06-1.77776E-07 2.18411E-06-8.67139E-12 1.51558E-13 6.82734E-08
 -1      9814-1.72697E-06-1.77776E-07 2.18411E-06-8.67139E-12-1.51558E-13-6.82734E-08
 -1      9815-1.52701E-06-1.77776E-07 1.98418E-06 1.57244E-10-2.74517E-12 6.12905E-08
 -1      9817-1.52701E-06-1.77776E-07 1.98418E-06 1.57244E-10 2.74517E-12-6.12905E-08
 -1      9818-1.45720E-06-1.77778E-07 1.91431E-06-1.38702E-10 2.42149E-12 5.88524E-08
 -1      9820-1.45720E-06-1.77778E-07 1.91431E-06-1.38702E-10-2.42149E-12-5.88524E-08
 -1      9821-1.56780E-06-1.77776E-07 2.02494E-06-7.61160E-12 1.33019E-13 6.27161E-08
 -1      9823-1.56780E-06-1.77776E-07 2.02494E-06-7.61160E-12-1.33019E-13-6.27161E-08
 -1      9824-1.39126E-06-1.77779E-07 1.84842E-06 1.34646E-10-2.35062E-12 5.65510E-08
 -1      9826-1.39126E-06-1.77779E-07 1.84842E-06 1.34646E-10 2.35062E-12-5.65510E-08
 -1      9827-1.32930E-06-1.77775E-07 1.78641E-06-1.16460E-10 2.03319E-12 5.43871E-08
 -1      9829-1.32930E-06-1.77775E-07 1.78641E-06-1.16460E-10-2.03319E-12-5.43871E-08
 -1      9830-1.42742E-06-1.77775E-07 1.88456E-06-6.32197E-12 1.10498E-13 5.78145E-08
 -1      9832-1.42742E-06-1.77775E-07 1.88456E-06-6.32197E-12-1.10498E-13-5.78145E-08
 -1      9833-1.27068E-06-1.77776E-07 1.72784E-06 1.13858E-10-1.98777E-12 5.23412E-08
 -1      9835-1.27068E-06-1.77776E-07 1.72784E-06 1.13858E-10 1.98777E-12-5.23412E-08
 -1      9836-1.21568E-06-1.77776E-07 1.67280E-06-9.97296E-11 1.74106E-12 5.04205E-08
 -1      9838-1.21568E-06-1.77776E-07 1.67280E-06-9.97296E-11-1.74106E-12-5.04205E-08
 -1      9839-1.30292E-06-1.77776E-07 1.76006E-06-5.22500E-12 9.13240E-14 5.34678E-08
 -1      9841-1.30292E-06-1.77776E-07 1.76006E-06-5.22500E-12-9.13240E-14-5.34678E-08
 -1      9842-1.16333E-06-1.77776E-07 1.62048E-06 9.84951E-11-1.71952E-12 4.85932E-08
 -1      9844-1.16333E-06-1.77776E-07 1.62048E-06 9.84951E-11 1.71952E-12-4.85932E-08
 -1      9845-1.11390E-06-1.77777E-07 1.57103E-06-8.74006E-11 1.52587E-12 4.68672E-08
 -1      9847-1.11390E-06-1.77777E-07 1.57103E-06-8.74006E-11-1.52587E-12-4.68672E-08
 -1      9848-1.19200E-06-1.77776E-07 1.64914E-06-4.80522E-12 8.39770E-14 4.95951E-08
 -1      9850-1.19200E-06-1.77776E-07 1.64914E-06-4.80522E-12-8.39770E-14-4.95951E-08
 -1      9851-1.06694E-06-1.77778E-07 1.52410E-06 8.58546E-11-1.49883E-12 4.52281E-08
 -1      9853-1.06694E-06-1.77778E-07 1.52410E-06 8.58546E-11 1.49883E-12-4.52281E-08
 -1      9854-1.02252E-06-1.77776E-07 1.47964E-06-7.46692E-11 1.30360E-12 4.36767E-08
 -1      9856-1.02252E-06-1.77776E-07 1.47964E-06-7.46692E-11-1.30360E-12-4.36767E-08
 -1      9857-1.09273E-06-1.77775E-07 1.54987E-06-4.12572E-12 7.21167E-14 4.61292E-08
 -1      9859-1.09273E-06-1.77775E-07 1.54987E-06-4.12572E-12-7.21167E-14-4.61292E-08
 -1      9860-9.80254E-07-1.77776E-07 1.43741E-06 7.36835E-11-1.28640E-12 4.22016E-08
 -1      9862-9.80254E-07-1.77776E-07 1.43741E-06 7.36835E-11 1.28640E-12-4.22016E-08
 -1      9863-9.40388E-07-1.77776E-07 1.39751E-06-6.48833E-11 1.13271E-12 4.08094E-08
 -1      9865-9.40388E-07-1.77776E-07 1.39751E-06-6.48833E-11-1.13271E-12-4.08094E-08
 -1      9866-1.00354E-06-1.77776E-07 1.46068E-06-3.48121E-12 6.08528E-14 4.30153E-08
 -1      9868-1.00354E-06-1.77776E-07 1.46068E-06-3.48121E-12-6.08528E-14-4.30153E-08
 -1      9869-9.02221E-07-1.77776E-07 1.35937E-06 6.43616E-11-1.12365E-12 3.94773E-08
 -1      9871-9.02221E-07-1.77776E-07 1.35937E-06 6.43616E-11 1.12365E-12-3.94773E-08
 -1      9872-8.66117E-07-1.77776E-07 1.32324E-06-5.71082E-11 9.96970E-13 3.82165E-08
 -1      9874-8.66117E-07-1.77776E-07 1.32324E-06-5.71082E-11-9.96970E-13-3.82165E-08
 -1      9875-9.23143E-07-1.77776E-07 1.38028E-06-3.09397E-12 5.40820E-14 4.02082E-08
 -1      9877-9.23143E-07-1.77776E-07 1.38028E-06-3.09397E-12-5.40820E-14-4.02082E-08
 -1      9878-8.31477E-07-1.77776E-07 1.28862E-06 5.70366E-11-9.95736E-13 3.70074E-08
 -1      9880-8.31477E-07-1.77776E-07 1.28862E-06 5.70366E-11 9.95736E-13-3.70074E-08
 -1      9881-7.98512E-07-1.77777E-07 1.25564E-06-5.12143E-11 8.94110E-13 3.58563E-08
 -1      9883-7.98512E-07-1.77777E-07 1.25564E-06-5.12143E-11-8.94110E-13-3.58563E-08
 -1      9884-8.50362E-07-1.77776E-07 1.30750E-06-2.68781E-12 4.69808E-14 3.76672E-08
 -1      9886-8.50362E-07-1.77776E-07 1.30750E-06-2.68781E-12-4.69808E-14-3.76672E-08
 -1      9887-7.66976E-07-1.77777E-07 1.22413E-06 5.07610E-11-8.86170E-13 3.47556E-08
 -1      9889-7.66976E-07-1.77777E-07 1.22413E-06 5.07610E-11 8.86170E-13-3.47556E-08
 -1      9890-7.36923E-07-1.77776E-07 1.19405E-06-4.46744E-11 7.79938E-13 3.37061E-08
 -1      9892-7.36923E-07-1.77776E-07 1.19405E-06-4.46744E-11-7.79938E-13-3.37061E-08
 -1      9893-7.84209E-07-1.77776E-07 1.24135E-06-2.31300E-12 4.04394E-14 3.53576E-08
 -1      9895-7.84209E-07-1.77776E-07 1.24135E-06-2.31300E-12-4.04394E-14-3.53576E-08
 -1      9896-7.08151E-07-1.77776E-07 1.16530E-06 4.44495E-11-7.76016E-13 3.27019E-08
 -1      9898-7.08151E-07-1.77776E-07 1.16530E-06 4.44495E-11 7.76016E-13-3.27019E-08
 -1      9899-6.80810E-07-1.77776E-07 1.13794E-06-3.95890E-11 6.91130E-13 3.17471E-08
 -1      9901-6.80810E-07-1.77776E-07 1.13794E-06-3.95890E-11-6.91130E-13-3.17471E-08
 -1      9902-7.23920E-07-1.77776E-07 1.18106E-06-1.98758E-12 3.47503E-14 3.32528E-08
 -1      9904-7.23920E-07-1.77776E-07 1.18106E-06-1.98758E-12-3.47503E-14-3.32528E-08
 -1      9905-6.54493E-07-1.77776E-07 1.11164E-06 3.97014E-11-6.93103E-13 3.08286E-08
 -1      9907-6.54493E-07-1.77776E-07 1.11164E-06 3.97014E-11 6.93103E-13-3.08286E-08
 -1      9908-6.29354E-07-1.77777E-07 1.08649E-06-3.57928E-11 6.24881E-13 2.99507E-08
 -1      9910-6.29354E-07-1.77777E-07 1.08649E-06-3.57928E-11-6.24881E-13-2.99507E-08
 -1      9911-6.68848E-07-1.77776E-07 1.12599E-06-1.87251E-12 3.27343E-14 3.13300E-08
 -1      9913-6.68848E-07-1.77776E-07 1.12599E-06-1.87251E-12-3.27343E-14-3.13300E-08
 -1      9914-6.05221E-07-1.77777E-07 1.06237E-06 3.56555E-11-6.22463E-13 2.91084E-08
 -1      9916-6.05221E-07-1.77777E-07 1.06237E-06 3.56555E-11 6.22463E-13-2.91084E-08
 -1      9917-5.82134E-07-1.77776E-07 1.03927E-06-3.14763E-11 5.49525E-13 2.83022E-08
 -1      9919-5.82134E-07-1.77776E-07 1.03927E-06-3.14763E-11-5.49525E-13-2.83022E-08
 -1      9920-6.18412E-07-1.77776E-07 1.07555E-06-1.63428E-12 2.85772E-14 2.95692E-08
 -1      9922-6.18412E-07-1.77776E-07 1.07555E-06-1.63428E-12-2.85772E-14-2.95692E-08
 -1      9923-5.59964E-07-1.77776E-07 1.01711E-06 3.14880E-11-5.49729E-13 2.75284E-08
 -1      9925-5.59964E-07-1.77776E-07 1.01711E-06 3.14880E-11 5.49729E-13-2.75284E-08
 -1      9926-5.38812E-07-1.77776E-07 9.95945E-07-2.81058E-11 4.90664E-13 2.67898E-08
 -1      9928-5.38812E-07-1.77776E-07 9.95945E-07-2.81058E-11-4.90664E-13-2.67898E-08
 -1      9929-5.72121E-07-1.77776E-07 1.02926E-06-1.41727E-12 2.47827E-14 2.79530E-08
 -1      9931-5.72121E-07-1.77776E-07 1.02926E-06-1.41727E-12-2.47827E-14-2.79530E-08
 -1      9932-5.18402E-07-1.77776E-07 9.75545E-07 2.83515E-11-4.94956E-13 2.60774E-08
 -1      9934-5.18402E-07-1.77776E-07 9.75545E-07 2.83515E-11 4.94956E-13-2.60774E-08
 -1      9935-4.98824E-07-1.77776E-07 9.55958E-07-2.55892E-11 4.46749E-13 2.53938E-08
 -1      9937-4.98824E-07-1.77776E-07 9.55958E-07-2.55892E-11-4.46749E-13-2.53938E-08
 -1      9938-5.29551E-07-1.77776E-07 9.86689E-07-1.36092E-12 2.37936E-14 2.64668E-08
 -1      9940-5.29551E-07-1.77776E-07 9.86689E-07-1.36092E-12-2.37936E-14-2.64668E-08
 -1      9941-4.79991E-07-1.77777E-07 9.37135E-07 2.56541E-11-4.47858E-13 2.47364E-08
 -1      9943-4.79991E-07-1.77777E-07 9.37135E-07 2.56541E-11 4.47858E-13-2.47364E-08
 -1      9944-4.61895E-07-1.77776E-07 9.19028E-07-2.26326E-11 3.95136E-13 2.41045E-08
 -1      9946-4.61895E-07-1.77776E-07 9.19028E-07-2.26326E-11-3.95136E-13-2.41045E-08
 -1      9947-4.90317E-07-1.77776E-07 9.47455E-07-1.22813E-12 2.14770E-14 2.50971E-08
 -1      9949-4.90317E-07-1.77776E-07 9.47455E-07-1.22813E-12-2.14770E-14-2.50971E-08
 -1      9950-4.44493E-07-1.77776E-07 9.01636E-07 2.28266E-11-3.98510E-13 2.34971E-08
 -1      9952-4.44493E-07-1.77776E-07 9.01636E-07 2.28266E-11 3.98510E-13-2.34971E-08
 -1      9953-4.27812E-07-1.77776E-07 8.84946E-07-2.03170E-11 3.54698E-13 2.29146E-08
 -1      9955-4.27812E-07-1.77776E-07 8.84946E-07-2.03170E-11-3.54698E-13-2.29146E-08
 -1      9956-4.54091E-07-1.77776E-07 9.11229E-07-1.12436E-12 1.96611E-14 2.38324E-08
 -1      9958-4.54091E-07-1.77776E-07 9.11229E-07-1.12436E-12-1.96611E-14-2.38324E-08
 -1      9959-4.11700E-07-1.77776E-07 8.68843E-07 2.07158E-11-3.61645E-13 2.23523E-08
 -1      9961-4.11700E-07-1.77776E-07 8.68843E-07 2.07158E-11 3.61645E-13-2.23523E-08
 -1      9962-3.96164E-07-1.77776E-07 8.53299E-07-1.85965E-11 3.24680E-13 2.18098E-08
 -1      9964-3.96164E-07-1.77776E-07 8.53299E-07-1.85965E-11-3.24680E-13-2.18098E-08
 -1      9965-4.20584E-07-1.77776E-07 8.77722E-07-1.15201E-12 2.01400E-14 2.26626E-08
 -1      9967-4.20584E-07-1.77776E-07 8.77722E-07-1.15201E-12-2.01400E-14-2.26626E-08
 -1      9968-3.81209E-07-1.77776E-07 8.38352E-07 1.88882E-11-3.29731E-13 2.12878E-08
 -1      9970-3.81209E-07-1.77776E-07 8.38352E-07 1.88882E-11 3.29731E-13-2.12878E-08
 -1      9971-3.66757E-07-1.77776E-07 8.23890E-07-1.65210E-11 2.88449E-13 2.07831E-08
 -1      9973-3.66757E-07-1.77776E-07 8.23890E-07-1.65210E-11-2.88449E-13-2.07831E-08
 -1      9974-3.89524E-07-1.77776E-07 8.46662E-07-1.13211E-12 1.97952E-14 2.15782E-08
 -1      9976-3.89524E-07-1.77776E-07 8.46662E-07-1.13211E-12-1.97952E-14-2.15782E-08
 -1      9977-3.52845E-07-1.77776E-07 8.09988E-07 1.69495E-11-2.95897E-13 2.02976E-08
 -1      9979-3.52845E-07-1.77776E-07 8.09988E-07 1.69495E-11 2.95897E-13-2.02976E-08
 -1      9980-3.39430E-07-1.77776E-07 7.96564E-07-1.49300E-11 2.60661E-13 1.98291E-08
 -1      9982-3.39430E-07-1.77776E-07 7.96564E-07-1.49300E-11-2.60661E-13-1.98291E-08
 -1      9983-3.60663E-07-1.77776E-07 8.17801E-07-1.14158E-12 1.99583E-14 2.05706E-08
 -1      9985-3.60663E-07-1.77776E-07 8.17801E-07-1.14158E-12-1.99583E-14-2.05706E-08
 -1      9986-3.26447E-07-1.77776E-07 7.83590E-07 1.55327E-11-2.71151E-13 1.93760E-08
 -1      9988-3.26447E-07-1.77776E-07 7.83590E-07 1.55327E-11 2.71151E-13-1.93760E-08
 -1      9989-3.13848E-07-1.77776E-07 7.70982E-07-1.37990E-11 2.40926E-13 1.89360E-08
 -1      9991-3.13848E-07-1.77776E-07 7.70982E-07-1.37990E-11-2.40926E-13-1.89360E-08
 -1      9992-3.33775E-07-1.77776E-07 7.90913E-07-1.25985E-12 2.20183E-14 1.96319E-08
 -1      9994-3.33775E-07-1.77776E-07 7.90913E-07-1.25985E-12-2.20183E-14-1.96319E-08
 -1      9995-3.01658E-07-1.77776E-07 7.58802E-07 1.43835E-11-2.51085E-13 1.85106E-08
 -1      9997-3.01658E-07-1.77776E-07 7.58802E-07 1.43835E-11 2.51085E-13-1.85106E-08
 -1      9998-2.89803E-07-1.77776E-07 7.46936E-07-1.24574E-11 2.17489E-13 1.80966E-08
 -1     10000-2.89803E-07-1.77776E-07 7.46936E-07-1.24574E-11-2.17489E-13-1.80966E-08
 -1     10001-3.08608E-07-1.77776E-07 7.65746E-07-1.35249E-12 2.36331E-14 1.87533E-08
 -1     10003-3.08608E-07-1.77776E-07 7.65746E-07-1.35249E-12-2.36331E-14-1.87533E-08
 -1     10004-2.78235E-07-1.77776E-07 7.35378E-07 1.33008E-11-2.32202E-13 1.76929E-08
 -1     10006-2.78235E-07-1.77776E-07 7.35378E-07 1.33008E-11 2.32202E-13-1.76929E-08
 -1     10007-2.67053E-07-1.77776E-07 7.24186E-07-1.16823E-11 2.03895E-13 1.73024E-08
 -1     10009-2.67053E-07-1.77776E-07 7.24186E-07-1.16823E-11-2.03895E-13-1.73024E-08
 -1     10010-2.84855E-07-1.77776E-07 7.41993E-07-1.53495E-12 2.68085E-14 1.79241E-08
 -1     10012-2.84855E-07-1.77776E-07 7.41993E-07-1.53495E-12-2.68085E-14-1.79241E-08
 -1     10013-2.55807E-07-1.77775E-07 7.12950E-07 1.24404E-11-2.17243E-13 1.69099E-08
 -1     10015-2.55807E-07-1.77775E-07 7.12950E-07 1.24404E-11 2.17243E-13-1.69099E-08
 -1     10016-2.45141E-07-1.77775E-07 7.02274E-07-1.21160E-11 2.11290E-13 1.65374E-08
 -1     10018-2.45141E-07-1.77775E-07 7.02274E-07-1.21160E-11-2.11290E-13-1.65374E-08
 -1     10019-2.62043E-07-1.77776E-07 7.19180E-07-2.10655E-12 3.67609E-14 1.71277E-08
 -1     10021-2.62043E-07-1.77776E-07 7.19180E-07-2.10655E-12-3.67609E-14-1.71277E-08
 -1     10022-2.33453E-07-1.77778E-07 6.90595E-07 1.09584E-11-1.91766E-13 1.61295E-08
 -1     10024-2.33453E-07-1.77778E-07 6.90595E-07 1.09584E-11 1.91766E-13-1.61295E-08
 -1     10025-2.23659E-07-1.77778E-07 6.80809E-07-7.70975E-12 1.34414E-13 1.57877E-08
 -1     10027-2.23659E-07-1.77778E-07 6.80809E-07-7.70975E-12-1.34414E-13-1.57877E-08
 -1     10028-2.39102E-07-1.77777E-07 6.96237E-07-2.25750E-12 3.92833E-14 1.63268E-08
 -1     10030-2.39102E-07-1.77777E-07 6.96237E-07-2.25750E-12-3.92833E-14-1.63268E-08
 -1     10031-1.59074E-06-1.77775E-07 2.04788E-06 1.68920E-10-2.94902E-12 6.35150E-08
 -1     10033-1.59074E-06-1.77775E-07 2.04788E-06 1.68920E-10 2.94902E-12-6.35150E-08
 -1     10034-1.66898E-06-1.77775E-07 2.12611E-06-1.83863E-10 3.20994E-12 6.62466E-08
 -1     10036-1.66898E-06-1.77775E-07 2.12611E-06-1.83863E-10-3.20994E-12-6.62466E-08
 -1     10037-1.55428E-06-1.77776E-07 2.01142E-06-8.17777E-13 1.42855E-14 6.22439E-08
 -1     10039-1.55428E-06-1.77776E-07 2.01142E-06-8.17777E-13-1.42855E-14-6.22439E-08
 -1     10040-2.00824E-07-1.77774E-07 6.57953E-07-1.18405E-12 2.14625E-14 1.49903E-08
 -1     10042-2.00824E-07-1.77774E-07 6.57953E-07-1.18405E-12-2.14625E-14-1.49903E-08
 -1     10043-5.09725E-06-1.77776E-07 5.55255E-06 9.32730E-11-1.62700E-12 1.85929E-07
 -1     10045-5.09725E-06-1.77776E-07 5.55255E-06 9.32730E-11 1.62700E-12-1.85929E-07
 -1     10046-4.75628E-06-1.77777E-07 5.21666E-06-8.10856E-11 1.41557E-12 1.74097E-07
 -1     10048-4.75628E-06-1.77777E-07 5.21666E-06-8.10856E-11-1.41557E-12-1.74097E-07
 -1     10049-5.10010E-06-1.77779E-07 5.55547E-06-3.14477E-11 5.49560E-13 1.86030E-07
 -1     10051-5.10010E-06-1.77779E-07 5.55547E-06-3.14477E-11-5.49560E-13-1.86030E-07
 -1     10052-2.04900E-07-1.77775E-07 6.62051E-07-7.11222E-12 1.24144E-13 1.51328E-08
 -1     10054-2.04900E-07-1.77775E-07 6.62051E-07-7.11222E-12-1.24144E-13-1.51328E-08
 -1     10055-5.08435E-06-1.77702E-07 5.53964E-06 1.06992E-10-1.87225E-12 1.85480E-07
 -1     10057-5.08435E-06-1.77702E-07 5.53964E-06 1.06992E-10 1.87225E-12-1.85480E-07
 -1     10058-4.75684E-06-1.77952E-07 5.21724E-06 3.33965E-10-5.82945E-12 1.74118E-07
 -1     10060-4.75684E-06-1.77952E-07 5.21724E-06 3.33965E-10 5.82945E-12-1.74118E-07
 -1     10061-5.07805E-06-1.77750E-07 5.53328E-06-1.19411E-10 2.08638E-12 1.85259E-07
 -1     10063-5.07805E-06-1.77750E-07 5.53328E-06-1.19411E-10-2.08638E-12-1.85259E-07
 -1     10064-4.76632E-06-1.77767E-07 5.22664E-06-5.76574E-11 1.00660E-12 1.74446E-07
 -1     10066-4.76632E-06-1.77767E-07 5.22664E-06-5.76574E-11-1.00660E-12-1.74446E-07
 -1     10067-5.11024E-06-1.77778E-07 5.56561E-06-5.24184E-11 9.14983E-13 1.86383E-07
 -1     10069-5.11024E-06-1.77778E-07 5.56561E-06-5.24184E-11-9.14983E-13-1.86383E-07
 -1     10070-5.10919E-06-1.77777E-07 5.56453E-06 7.10686E-11-1.23997E-12 1.86346E-07
 -1     10072-5.10919E-06-1.77777E-07 5.56453E-06 7.10686E-11 1.23997E-12-1.86346E-07
 -1     10073-5.11168E-06-1.77776E-07 5.56705E-06-6.26802E-11 1.09402E-12 1.86433E-07
 -1     10075-5.11168E-06-1.77776E-07 5.56705E-06-6.26802E-11-1.09402E-12-1.86433E-07
 -1     10076-5.11172E-06-1.77776E-07 5.56709E-06 6.06527E-11-1.05865E-12 1.86435E-07
 -1     10078-5.11172E-06-1.77776E-07 5.56709E-06 6.06527E-11 1.05865E-12-1.86435E-07
 -1     10079-5.11096E-06-1.77777E-07 5.56632E-06-6.38560E-11 1.11459E-12 1.86408E-07
 -1     10081-5.11096E-06-1.77777E-07 5.56632E-06-6.38560E-11-1.11459E-12-1.86408E-07
 -1     10082-5.11108E-06-1.77776E-07 5.56645E-06 6.04227E-11-1.05473E-12 1.86413E-07
 -1     10084-5.11108E-06-1.77776E-07 5.56645E-06 6.04227E-11 1.05473E-12-1.86413E-07
 -1     10085-5.11134E-06-1.77777E-07 5.56670E-06-6.03271E-11 1.05318E-12 1.86422E-07
 -1     10087-5.11134E-06-1.77777E-07 5.56670E-06-6.03271E-11-1.05318E-12-1.86422E-07
 -1     10088-5.11096E-06-1.77775E-07 5.56632E-06 6.54319E-11-1.14220E-12 1.86408E-07
 -1     10090-5.11096E-06-1.77775E-07 5.56632E-06 6.54319E-11 1.14220E-12-1.86408E-07
 -1     10091-5.11390E-06-1.77779E-07 5.56927E-06-6.25188E-11 1.09087E-12 1.86511E-07
 -1     10093-5.11390E-06-1.77779E-07 5.56927E-06-6.25188E-11-1.09087E-12-1.86511E-07
 -1     10094-5.11395E-06-1.77775E-07 5.56932E-06 6.33819E-11-1.10588E-12 1.86512E-07
 -1     10096-5.11395E-06-1.77775E-07 5.56932E-06 6.33819E-11 1.10588E-12-1.86512E-07
 -1     10097-5.10153E-06-1.77790E-07 5.55682E-06-1.05624E-10 1.84203E-12 1.86078E-07
 -1     10099-5.10153E-06-1.77790E-07 5.55682E-06-1.05624E-10-1.84203E-12-1.86078E-07
 -1     10100-5.10493E-06-1.77772E-07 5.56032E-06 2.74732E-11-4.80524E-13 1.86199E-07
 -1     10102-5.10493E-06-1.77772E-07 5.56032E-06 2.74732E-11 4.80524E-13-1.86199E-07
 -1     10103-5.07854E-06-1.77797E-07 5.53378E-06-1.22515E-10 2.13525E-12 1.85276E-07
 -1     10105-5.07854E-06-1.77797E-07 5.53378E-06-1.22515E-10-2.13525E-12-1.85276E-07
 -1     10106-5.08443E-06-1.77774E-07 5.53974E-06 2.69730E-11-4.70831E-13 1.85483E-07
 -1     10108-5.08443E-06-1.77774E-07 5.53974E-06 2.69730E-11 4.70831E-13-1.85483E-07
 -1     10109-2.01339E-07-1.77774E-07 6.58466E-07-3.12781E-12 5.41108E-14 1.50082E-08
 -1     10111-2.01339E-07-1.77774E-07 6.58466E-07-3.12781E-12-5.41108E-14-1.50082E-08
 -1     10112-4.40221E-06-1.77436E-07 4.85789E-06 2.46104E-11-4.04098E-13 1.61669E-07
 -1     10114-4.40221E-06-1.77436E-07 4.85789E-06 2.46104E-11 4.04098E-13-1.61669E-07
 -1     10115-2.09127E-07-1.77777E-07 6.66288E-07-3.12119E-12 5.44760E-14 1.52806E-08
 -1     10117-2.09127E-07-1.77777E-07 6.66288E-07-3.12119E-12-5.44760E-14-1.52806E-08
 -1     10118-4.77709E-06-1.77777E-07 5.23737E-06 3.01624E-12-5.26610E-14 1.74821E-07
 -1     10120-4.77709E-06-1.77777E-07 5.23737E-06 3.01624E-12 5.26610E-14-1.74821E-07
 -1     10121-4.77772E-06-1.77776E-07 5.23799E-06-3.38393E-13 5.90948E-15 1.74843E-07
 -1     10123-4.77772E-06-1.77776E-07 5.23799E-06-3.38393E-13-5.90948E-15-1.74843E-07
 -1     10124-1.75252E-06-1.77774E-07 2.20965E-06 2.03007E-10-3.54418E-12 6.91633E-08
 -1     10126-1.75252E-06-1.77774E-07 2.20965E-06 2.03007E-10 3.54418E-12-6.91633E-08
 -1     10127-1.84204E-06-1.77777E-07 2.29918E-06-2.22743E-10 3.88864E-12 7.22889E-08
 -1     10129-1.84204E-06-1.77777E-07 2.29918E-06-2.22743E-10-3.88864E-12-7.22889E-08
 -1     10130-4.77316E-06-1.77772E-07 5.23345E-06-3.00662E-11 5.24911E-13 1.74684E-07
 -1     10132-4.77316E-06-1.77772E-07 5.23345E-06-3.00662E-11-5.24911E-13-1.74684E-07
 -1     10133-1.32105E-06-1.77775E-07 1.77819E-06 1.23221E-10-2.15123E-12 5.40995E-08
 -1     10135-1.32105E-06-1.77775E-07 1.77819E-06 1.23221E-10 2.15123E-12-5.40995E-08
 -1     10136-1.38263E-06-1.77777E-07 1.83977E-06-1.33988E-10 2.33914E-12 5.62495E-08
 -1     10138-1.38263E-06-1.77777E-07 1.83977E-06-1.33988E-10-2.33914E-12-5.62495E-08
 -1     10139-1.10730E-06-1.77777E-07 1.56444E-06 9.19822E-11-1.60586E-12 4.66368E-08
 -1     10141-1.10730E-06-1.77777E-07 1.56444E-06 9.19822E-11 1.60586E-12-4.66368E-08
 -1     10142-1.15649E-06-1.77775E-07 1.61363E-06-9.84500E-11 1.71873E-12 4.83542E-08
 -1     10144-1.15649E-06-1.77775E-07 1.61363E-06-9.84500E-11-1.71873E-12-4.83542E-08
 -1     10145-9.35036E-07-1.77776E-07 1.39217E-06 6.86655E-11-1.19875E-12 4.06227E-08
 -1     10147-9.35036E-07-1.77776E-07 1.39217E-06 6.86655E-11 1.19875E-12-4.06227E-08
 -1     10148-9.74703E-07-1.77776E-07 1.43184E-06-7.35297E-11 1.28372E-12 4.20076E-08
 -1     10150-9.74703E-07-1.77776E-07 1.43184E-06-7.35297E-11-1.28372E-12-4.20076E-08
 -1     10151-7.94110E-07-1.77776E-07 1.25125E-06 5.38870E-11-9.40778E-13 3.57028E-08
 -1     10153-7.94110E-07-1.77776E-07 1.25125E-06 5.38870E-11 9.40778E-13-3.57028E-08
 -1     10154-8.26936E-07-1.77776E-07 1.28407E-06-5.69535E-11 9.94286E-13 3.68487E-08
 -1     10156-8.26936E-07-1.77776E-07 1.28407E-06-5.69535E-11-9.94286E-13-3.68487E-08
 -1     10157-6.77161E-07-1.77776E-07 1.13430E-06 4.18694E-11-7.30943E-13 3.16198E-08
 -1     10159-6.77161E-07-1.77776E-07 1.13430E-06 4.18694E-11 7.30943E-13-3.16198E-08
 -1     10160-7.04385E-07-1.77776E-07 1.16152E-06-4.43752E-11 7.74724E-13 3.25703E-08
 -1     10162-7.04385E-07-1.77776E-07 1.16152E-06-4.43752E-11-7.74724E-13-3.25703E-08
 -1     10163-5.79007E-07-1.77776E-07 1.03615E-06 3.36174E-11-5.86899E-13 2.81931E-08
 -1     10165-5.79007E-07-1.77776E-07 1.03615E-06 3.36174E-11 5.86899E-13-2.81931E-08
 -1     10166-6.02017E-07-1.77776E-07 1.05916E-06-3.56874E-11 6.23023E-13 2.89964E-08
 -1     10168-6.02017E-07-1.77776E-07 1.05916E-06-3.56874E-11-6.23023E-13-2.89964E-08
 -1     10169-4.95965E-07-1.77776E-07 9.53104E-07 2.73289E-11-4.77111E-13 2.52940E-08
 -1     10171-4.95965E-07-1.77776E-07 9.53104E-07 2.73289E-11 4.77111E-13-2.52940E-08
 -1     10172-5.15528E-07-1.77776E-07 9.72665E-07-2.85545E-11 4.98504E-13 2.59770E-08
 -1     10174-5.15528E-07-1.77776E-07 9.72665E-07-2.85545E-11-4.98504E-13-2.59770E-08
 -1     10175-4.24977E-07-1.77776E-07 8.82116E-07 2.19731E-11-3.83593E-13 2.28157E-08
 -1     10177-4.24977E-07-1.77776E-07 8.82116E-07 2.19731E-11 3.83593E-13-2.28157E-08
 -1     10178-4.41664E-07-1.77776E-07 8.98802E-07-2.29327E-11 4.00384E-13 2.33983E-08
 -1     10180-4.41664E-07-1.77776E-07 8.98802E-07-2.29327E-11-4.00384E-13-2.33983E-08
 -1     10181-3.63866E-07-1.77776E-07 8.21006E-07 1.81140E-11-3.16226E-13 2.06823E-08
 -1     10183-3.63866E-07-1.77776E-07 8.21006E-07 1.81140E-11 3.16226E-13-2.06823E-08
 -1     10184-3.78306E-07-1.77776E-07 8.35443E-07-1.88142E-11 3.28469E-13 2.11864E-08
 -1     10186-3.78306E-07-1.77776E-07 8.35443E-07-1.88142E-11-3.28469E-13-2.11864E-08
 -1     10187-3.11260E-07-1.77776E-07 7.68401E-07 1.45649E-11-2.54292E-13 1.88458E-08
 -1     10189-3.11260E-07-1.77776E-07 7.68401E-07 1.45649E-11 2.54292E-13-1.88458E-08
 -1     10190-3.23687E-07-1.77776E-07 7.80823E-07-1.49715E-11 2.61387E-13 1.92796E-08
 -1     10192-3.23687E-07-1.77776E-07 7.80823E-07-1.49715E-11-2.61387E-13-1.92796E-08
 -1     10193-2.66221E-07-1.77776E-07 7.23358E-07 1.20152E-11-2.09832E-13 1.72734E-08
 -1     10195-2.66221E-07-1.77776E-07 7.23358E-07 1.20152E-11 2.09832E-13-1.72734E-08
 -1     10196-2.77098E-07-1.77775E-07 7.34234E-07-1.29744E-11 2.26354E-13 1.76531E-08
 -1     10198-2.77098E-07-1.77775E-07 7.34234E-07-1.29744E-11-2.26354E-13-1.76531E-08
 -1     10199-2.25562E-07-1.77775E-07 6.82693E-07 1.07441E-11-1.87394E-13 1.58539E-08
 -1     10201-2.25562E-07-1.77775E-07 6.82693E-07 1.07441E-11 1.87394E-13-1.58539E-08
 -1     10202-2.35526E-07-1.77775E-07 6.92671E-07-1.13997E-11 1.98980E-13 1.62019E-08
 -1     10204-2.35526E-07-1.77775E-07 6.92671E-07-1.13997E-11-1.98980E-13-1.62019E-08
 -1     10205-4.73735E-06-1.77674E-07 5.19773E-06-4.96726E-11 8.66956E-13 1.73436E-07
 -1     10207-4.73735E-06-1.77674E-07 5.19773E-06-4.96726E-11-8.66956E-13-1.73436E-07
 -1     10208-1.41564E-06-1.77775E-07 1.87278E-06-3.89716E-13 6.79857E-15 5.74034E-08
 -1     10210-1.41564E-06-1.77775E-07 1.87278E-06-3.89716E-13-6.79857E-15-5.74034E-08
 -1     10211-2.07813E-07-1.77776E-07 6.64973E-07-1.83023E-12 3.19455E-14 1.52347E-08
 -1     10213-2.07813E-07-1.77776E-07 6.64973E-07-1.83023E-12-3.19455E-14-1.52347E-08
 -1     10214-1.99563E-07-1.77776E-07 6.56690E-07-3.07052E-13 5.38548E-15 1.49462E-08
 -1     10216-1.99563E-07-1.77776E-07 6.56690E-07-3.07052E-13-5.38548E-15-1.49462E-08
 -1     10217-1.99530E-07-1.77776E-07 6.56657E-07 1.79260E-14-2.98476E-16 1.49450E-08
 -1     10219-1.99530E-07-1.77776E-07 6.56657E-07 1.79260E-14 2.98477E-16-1.49450E-08
 -1     10220-1.99790E-07-1.77776E-07 6.56917E-07-2.34209E-13 4.08788E-15 1.49541E-08
 -1     10222-1.99790E-07-1.77776E-07 6.56917E-07-2.34209E-13-4.08788E-15-1.49541E-08
 -1     10223-1.99765E-07-1.77776E-07 6.56892E-07 1.64396E-13-2.85892E-15 1.49532E-08
 -1     10225-1.99765E-07-1.77776E-07 6.56892E-07 1.64396E-13 2.85892E-15-1.49532E-08
 -1     10226-1.99818E-07-1.77776E-07 6.56944E-07-1.92262E-13 3.34859E-15 1.49551E-08
 -1     10228-1.99818E-07-1.77776E-07 6.56944E-07-1.92262E-13-3.34859E-15-1.49551E-08
 -1     10229-1.99820E-07-1.77776E-07 6.56946E-07 2.02211E-13-3.52970E-15 1.49551E-08
 -1     10231-1.99820E-07-1.77776E-07 6.56946E-07 2.02211E-13 3.52970E-15-1.49551E-08
 -1     10232-1.99756E-07-1.77776E-07 6.56883E-07-1.64864E-13 2.87732E-15 1.49529E-08
 -1     10234-1.99756E-07-1.77776E-07 6.56883E-07-1.64864E-13-2.87732E-15-1.49529E-08
 -1     10235-1.99762E-07-1.77776E-07 6.56889E-07 2.18378E-13-3.81784E-15 1.49531E-08
 -1     10237-1.99762E-07-1.77776E-07 6.56889E-07 2.18378E-13 3.81784E-15-1.49531E-08
 -1     10238-1.99742E-07-1.77776E-07 6.56869E-07-1.82673E-13 3.18930E-15 1.49524E-08
 -1     10240-1.99742E-07-1.77776E-07 6.56869E-07-1.82673E-13-3.18930E-15-1.49524E-08
 -1     10241-1.99742E-07-1.77776E-07 6.56869E-07 1.98562E-13-3.46649E-15 1.49524E-08
 -1     10243-1.99742E-07-1.77776E-07 6.56869E-07 1.98562E-13 3.46649E-15-1.49524E-08
 -1     10244-1.99700E-07-1.77776E-07 6.56827E-07-1.34738E-13 2.34076E-15 1.49509E-08
 -1     10246-1.99700E-07-1.77776E-07 6.56827E-07-1.34738E-13-2.34076E-15-1.49509E-08
 -1     10247-1.99716E-07-1.77776E-07 6.56842E-07 2.48361E-13-4.33679E-15 1.49515E-08
 -1     10249-1.99716E-07-1.77776E-07 6.56842E-07 2.48361E-13 4.33679E-15-1.49515E-08
 -1     10250-1.99545E-07-1.77776E-07 6.56673E-07-1.00510E-13 1.74468E-15 1.49456E-08
 -1     10252-1.99545E-07-1.77776E-07 6.56673E-07-1.00510E-13-1.74468E-15-1.49456E-08
 -1     10253-1.99566E-07-1.77776E-07 6.56693E-07 2.34518E-13-4.10783E-15 1.49463E-08
 -1     10255-1.99566E-07-1.77776E-07 6.56693E-07 2.34518E-13 4.10784E-15-1.49463E-08
 -1     10256-1.99652E-07-1.77776E-07 6.56779E-07-3.39187E-13 5.99040E-15 1.49493E-08
 -1     10258-1.99652E-07-1.77776E-07 6.56779E-07-3.39187E-13-5.99040E-15-1.49493E-08
 -1     10259-1.99562E-07-1.77776E-07 6.56689E-07-1.34404E-13 2.33227E-15 1.49461E-08
 -1     10261-1.99562E-07-1.77776E-07 6.56689E-07-1.34404E-13-2.33227E-15-1.49461E-08
 -1     10262-2.00410E-07-1.77776E-07 6.57536E-07-1.23423E-12 2.13605E-14 1.49758E-08
 -1     10264-2.00410E-07-1.77776E-07 6.57536E-07-1.23423E-12-2.13605E-14-1.49758E-08
 -1     10265-2.00506E-07-1.77775E-07 6.57632E-07 6.93791E-13-1.19402E-14 1.49791E-08
 -1     10267-2.00506E-07-1.77775E-07 6.57632E-07 6.93791E-13 1.19402E-14-1.49791E-08
 -1     10268-4.72765E-06-1.77677E-07 5.18803E-06 2.03533E-10-3.55348E-12 1.73097E-07
 -1     10270-4.72765E-06-1.77677E-07 5.18803E-06 2.03533E-10 3.55348E-12-1.73097E-07
 -1     10271-4.75957E-06-1.77790E-07 5.21994E-06 1.17908E-10-2.05836E-12 1.74211E-07
 -1     10273-4.75957E-06-1.77790E-07 5.21994E-06 1.17908E-10 2.05836E-12-1.74211E-07
 -1     10274-4.77971E-06-1.77759E-07 5.23997E-06 1.41836E-12-2.48299E-14 1.74912E-07
 -1     10276-4.77971E-06-1.77759E-07 5.23997E-06 1.41836E-12 2.48299E-14-1.74912E-07
 -1     10277-1.71126E-06-1.77776E-07 2.16840E-06-1.58779E-12 2.77147E-14 6.77249E-08
 -1     10279-1.71126E-06-1.77776E-07 2.16840E-06-1.58779E-12-2.77147E-14-6.77249E-08
 -1     10280-2.13538E-07-1.77775E-07 6.70666E-07 5.54065E-12-9.70017E-14 1.54340E-08
 -1     10282-2.13538E-07-1.77775E-07 6.70666E-07 5.54065E-12 9.70017E-14-1.54340E-08
 -1     10283-2.07876E-07-1.77779E-07 6.65041E-07-3.78038E-12 6.60338E-14 1.52370E-08
 -1     10285-2.07876E-07-1.77779E-07 6.65041E-07-3.78038E-12-6.60338E-14-1.52370E-08
 -1     10286-2.07429E-07-1.77776E-07 6.64590E-07 1.17920E-12-2.05825E-14 1.52213E-08
 -1     10288-2.07429E-07-1.77776E-07 6.64590E-07 1.17920E-12 2.05825E-14-1.52213E-08
 -1     10289-2.07070E-07-1.77776E-07 6.64231E-07-2.83157E-13 4.94291E-15 1.52087E-08
 -1     10291-2.07070E-07-1.77776E-07 6.64231E-07-2.83157E-13-4.94291E-15-1.52087E-08
 -1     10292-2.07294E-07-1.77776E-07 6.64456E-07-2.29446E-13 4.00558E-15 1.52166E-08
 -1     10294-2.07294E-07-1.77776E-07 6.64456E-07-2.29446E-13-4.00558E-15-1.52166E-08
 -1     10295-2.07382E-07-1.77776E-07 6.64544E-07 2.65981E-14-4.64257E-16 1.52197E-08
 -1     10297-2.07382E-07-1.77776E-07 6.64544E-07 2.65981E-14 4.64257E-16-1.52197E-08
 -1     10298-2.07393E-07-1.77776E-07 6.64555E-07-3.32531E-14 5.80516E-16 1.52200E-08
 -1     10300-2.07393E-07-1.77776E-07 6.64555E-07-3.32531E-14-5.80516E-16-1.52200E-08
 -1     10301-2.20512E-07-1.77777E-07 6.77647E-07 2.60268E-12-4.51282E-14 1.56778E-08
 -1     10303-2.20512E-07-1.77777E-07 6.77647E-07 2.60268E-12 4.51282E-14-1.56778E-08
 -1     10304-2.61417E-07-1.77779E-07 7.18556E-07 1.06331E-12-1.87505E-14 1.71058E-08
 -1     10306-2.61417E-07-1.77779E-07 7.18556E-07 1.06331E-12 1.87505E-14-1.71058E-08
 -1     10307-3.05201E-07-1.77776E-07 7.62339E-07-5.11245E-13 8.97861E-15 1.86343E-08
 -1     10309-3.05201E-07-1.77776E-07 7.62339E-07-5.11245E-13-8.97861E-15-1.86343E-08
 -1     10310-2.07232E-07-1.77776E-07 6.64393E-07 4.82684E-13-8.42695E-15 1.52144E-08
 -1     10312-2.07232E-07-1.77776E-07 6.64393E-07 4.82684E-13 8.42695E-15-1.52144E-08
 -1     10313-3.56757E-07-1.77776E-07 8.13895E-07-4.67179E-13 8.17222E-15 2.04343E-08
 -1     10315-3.56757E-07-1.77776E-07 8.13895E-07-4.67179E-13-8.17222E-15-2.04343E-08
 -1     10316-4.16831E-07-1.77776E-07 8.73969E-07-2.50731E-13 4.38254E-15 2.25316E-08
 -1     10318-4.16831E-07-1.77776E-07 8.73969E-07-2.50731E-13-4.38254E-15-2.25316E-08
 -1     10319-4.86595E-07-1.77776E-07 9.43733E-07-9.91226E-14 1.72645E-15 2.49672E-08
 -1     10321-4.86595E-07-1.77776E-07 9.43733E-07-9.91226E-14-1.72645E-15-2.49672E-08
 -1     10322-5.68111E-07-1.77776E-07 1.02525E-06-1.91960E-14 3.35843E-16 2.78131E-08
 -1     10324-5.68111E-07-1.77776E-07 1.02525E-06-1.91961E-14-3.35843E-16-2.78131E-08
 -1     10325-2.08140E-07-1.77775E-07 6.65303E-07 2.76819E-12-4.83202E-14 1.52461E-08
 -1     10327-2.08140E-07-1.77775E-07 6.65303E-07 2.76819E-12 4.83202E-14-1.52461E-08
 -1     10328-2.07072E-07-1.77776E-07 6.64233E-07 1.09585E-14-1.91841E-16 1.52088E-08
 -1     10330-2.07072E-07-1.77776E-07 6.64233E-07 1.09585E-14 1.91841E-16-1.52088E-08
 -1     10331-2.07183E-07-1.77776E-07 6.64344E-07-3.40712E-13 5.94775E-15 1.52127E-08
 -1     10333-2.07183E-07-1.77776E-07 6.64344E-07-3.40712E-13-5.94775E-15-1.52127E-08
 -1     10334-2.07363E-07-1.77776E-07 6.64525E-07-6.29625E-14 1.09934E-15 1.52190E-08
 -1     10336-2.07363E-07-1.77776E-07 6.64525E-07-6.29625E-14-1.09934E-15-1.52190E-08
 -1     10337-4.77755E-06-1.77781E-07 5.23784E-06-1.00344E-11 1.75187E-13 1.74837E-07
 -1     10339-4.77755E-06-1.77781E-07 5.23784E-06-1.00344E-11-1.75187E-13-1.74837E-07
 -1     10340-2.07383E-07-1.77776E-07 6.64545E-07 1.34655E-14-2.34970E-16 1.52197E-08
 -1     10342-2.07383E-07-1.77776E-07 6.64545E-07 1.34655E-14 2.34970E-16-1.52197E-08
 -1     10343-2.07424E-07-1.77776E-07 6.64586E-07-1.10035E-13 1.92095E-15 1.52211E-08
 -1     10345-2.07424E-07-1.77776E-07 6.64586E-07-1.10035E-13-1.92095E-15-1.52211E-08
 -1     10346-2.07050E-07-1.77776E-07 6.64211E-07 5.30521E-13-9.26070E-15 1.52080E-08
 -1     10348-2.07050E-07-1.77776E-07 6.64211E-07 5.30521E-13 9.26070E-15-1.52080E-08
 -1     10349-2.41105E-07-1.77776E-07 6.98242E-07 1.95480E-12-3.39665E-14 1.63967E-08
 -1     10351-2.41105E-07-1.77776E-07 6.98242E-07 1.95480E-12 3.39665E-14-1.63967E-08
 -1     10352-2.82584E-07-1.77776E-07 7.39722E-07-1.66687E-13 2.97715E-15 1.78447E-08
 -1     10354-2.82584E-07-1.77776E-07 7.39722E-07-1.66687E-13-2.97715E-15-1.78447E-08
 -1     10355-3.29921E-07-1.77776E-07 7.87059E-07-5.73825E-13 1.00470E-14 1.94974E-08
 -1     10357-3.29921E-07-1.77776E-07 7.87059E-07-5.73825E-13-1.00470E-14-1.94974E-08
 -1     10358-3.85700E-07-1.77776E-07 8.42838E-07-3.21016E-13 5.60989E-15 2.14447E-08
 -1     10360-3.85700E-07-1.77776E-07 8.42838E-07-3.21016E-13-5.60989E-15-2.14447E-08
 -1     10361-4.50376E-07-1.77776E-07 9.07514E-07-1.84492E-13 3.22097E-15 2.37027E-08
 -1     10363-4.50376E-07-1.77776E-07 9.07514E-07-1.84492E-13-3.22097E-15-2.37027E-08
 -1     10364-5.25737E-07-1.77776E-07 9.82875E-07-3.36292E-14 5.86355E-16 2.63337E-08
 -1     10366-5.25737E-07-1.77776E-07 9.82875E-07-3.36292E-14-5.86355E-16-2.63337E-08
 -1     10367-6.14124E-07-1.77776E-07 1.07126E-06 5.91003E-15-1.06755E-16 2.94195E-08
 -1     10369-6.14124E-07-1.77776E-07 1.07126E-06 5.91003E-15 1.06755E-16-2.94195E-08
 -1     10370-7.18842E-07-1.77776E-07 1.17598E-06-1.75377E-14 3.08434E-16 3.30755E-08
 -1     10372-7.18842E-07-1.77776E-07 1.17598E-06-1.75377E-14-3.08434E-16-3.30755E-08
 -1     10373-8.44217E-07-1.77776E-07 1.30135E-06-6.91782E-14 1.21052E-15 3.74526E-08
 -1     10375-8.44217E-07-1.77776E-07 1.30135E-06-6.91782E-14-1.21052E-15-3.74526E-08
 -1     10376-9.96023E-07-1.77776E-07 1.45316E-06 1.25130E-13-2.18208E-15 4.27527E-08
 -1     10378-9.96023E-07-1.77776E-07 1.45316E-06 1.25130E-13 2.18208E-15-4.27527E-08
 -1     10379-1.89038E-06-1.77776E-07 2.34752E-06-2.01716E-12 3.51543E-14 7.39790E-08
 -1     10381-1.89038E-06-1.77776E-07 2.34752E-06-2.01716E-12-3.51543E-14-7.39790E-08
 -1     10382-4.74669E-06-1.77817E-07 5.20711E-06 6.05009E-11-1.05630E-12 1.73763E-07
 -1     10384-4.74669E-06-1.77817E-07 5.20711E-06 6.05009E-11 1.05630E-12-1.73763E-07
 -1     10385-4.77284E-06-1.77757E-07 5.23313E-06 7.60310E-11-1.32738E-12 1.74673E-07
 -1     10387-4.77284E-06-1.77757E-07 5.23313E-06 7.60310E-11 1.32738E-12-1.74673E-07
 -1     10388-4.77958E-06-1.77779E-07 5.23985E-06-1.94881E-11 3.40206E-13 1.74908E-07
 -1     10390-4.77958E-06-1.77779E-07 5.23985E-06-1.94881E-11-3.40206E-13-1.74908E-07
 -1     10391-4.77663E-06-1.77777E-07 5.23692E-06-1.12426E-12 1.96283E-14 1.74805E-07
 -1     10393-4.77663E-06-1.77777E-07 5.23692E-06-1.12426E-12-1.96283E-14-1.74805E-07
 -1     10394-4.77667E-06-1.77776E-07 5.23696E-06 1.13618E-12-1.98384E-14 1.74807E-07
 -1     10396-4.77667E-06-1.77776E-07 5.23696E-06 1.13618E-12 1.98384E-14-1.74807E-07
 -1     10397-4.77757E-06-1.77776E-07 5.23785E-06 2.63246E-12-4.59577E-14 1.74838E-07
 -1     10399-4.77757E-06-1.77776E-07 5.23785E-06 2.63246E-12 4.59577E-14-1.74838E-07
 -1     10400-4.77663E-06-1.77774E-07 5.23691E-06-1.23335E-11 2.15326E-13 1.74805E-07
 -1     10402-4.77663E-06-1.77774E-07 5.23691E-06-1.23335E-11-2.15326E-13-1.74805E-07
 -1     10403-6.64199E-07-1.77776E-07 1.12134E-06-5.15795E-15 9.19838E-17 3.11677E-08
 -1     10405-6.64199E-07-1.77776E-07 1.12134E-06-5.15796E-15-9.19840E-17-3.11677E-08
 -1     10406-7.78631E-07-1.77776E-07 1.23577E-06-3.43286E-14 5.96071E-16 3.51629E-08
 -1     10408-7.78631E-07-1.77776E-07 1.23577E-06-3.43286E-14-5.96071E-16-3.51629E-08
 -1     10409-9.16355E-07-1.77776E-07 1.37349E-06 3.03425E-14-5.28513E-16 3.99712E-08
 -1     10411-9.16355E-07-1.77776E-07 1.37349E-06 3.03425E-14 5.28513E-16-3.99712E-08
 -1     10412-1.08438E-06-1.77776E-07 1.54152E-06 1.13065E-13-1.97957E-15 4.58377E-08
 -1     10414-1.08438E-06-1.77776E-07 1.54152E-06 1.13065E-13 1.97957E-15-4.58377E-08
 -1     10415-2.17319E-07-1.77775E-07 6.74448E-07 1.69852E-12-3.03625E-14 1.55662E-08
 -1     10417-2.17319E-07-1.77775E-07 6.74448E-07 1.69852E-12 3.03625E-14-1.55662E-08
 -1     10418-1.29252E-06-1.77776E-07 1.74966E-06-1.56069E-13 2.72934E-15 5.31047E-08
 -1     10420-1.29252E-06-1.77776E-07 1.74966E-06-1.56069E-13-2.72934E-15-5.31047E-08
 -1     10421-1.18271E-06-1.77776E-07 1.63985E-06 8.01394E-15-1.35707E-16 4.92708E-08
 -1     10423-1.18271E-06-1.77776E-07 1.63985E-06 8.01396E-15 1.35707E-16-4.92708E-08
 -1     10424-2.07471E-07-1.77776E-07 6.64634E-07-1.22851E-13 2.14463E-15 1.52228E-08
 -1     10426-2.07471E-07-1.77776E-07 6.64634E-07-1.22851E-13-2.14463E-15-1.52228E-08
 -1     10427-2.07475E-07-1.77776E-07 6.64637E-07 1.12426E-13-1.96275E-15 1.52229E-08
 -1     10429-2.07475E-07-1.77776E-07 6.64637E-07 1.12426E-13 1.96275E-15-1.52229E-08
 -1     10430-2.07394E-07-1.77776E-07 6.64557E-07 2.79709E-13-4.88309E-15 1.52201E-08
 -1     10432-2.07394E-07-1.77776E-07 6.64557E-07 2.79709E-13 4.88309E-15-1.52201E-08
 -1     10433-2.07497E-07-1.77776E-07 6.64660E-07-4.42012E-14 7.71511E-16 1.52237E-08
 -1     10435-2.07497E-07-1.77776E-07 6.64660E-07-4.42012E-14-7.71511E-16-1.52237E-08
 -1     10436-1.38250E-06-1.77776E-07 1.83964E-06 1.32782E-10-2.31813E-12 5.62447E-08
 -1     10438-1.38250E-06-1.77776E-07 1.83964E-06 1.32782E-10 2.31813E-12-5.62447E-08
 -1     10439-1.44767E-06-1.77776E-07 1.90481E-06-1.43749E-10 2.50956E-12 5.85203E-08
 -1     10441-1.44767E-06-1.77776E-07 1.90481E-06-1.43749E-10-2.50956E-12-5.85203E-08
 -1     10442-2.17994E-07-1.77774E-07 6.75119E-07 1.49268E-12-2.53561E-14 1.55897E-08
 -1     10444-2.17994E-07-1.77774E-07 6.75119E-07 1.49268E-12 2.53561E-14-1.55897E-08
 -1     10445-6.50998E-07-1.77776E-07 1.10814E-06 3.97309E-11-6.93625E-13 3.07064E-08
 -1     10447-6.50998E-07-1.77776E-07 1.10814E-06 3.97309E-11 6.93625E-13-3.07064E-08
 -1     10448-6.77117E-07-1.77776E-07 1.13426E-06-4.20793E-11 7.34625E-13 3.16183E-08
 -1     10450-6.77117E-07-1.77776E-07 1.13426E-06-4.20793E-11-7.34625E-13-3.16183E-08
 -1     10451-4.45862E-06-1.77749E-07 4.91430E-06-4.52089E-11 7.91976E-13 1.63634E-07
 -1     10453-4.45862E-06-1.77749E-07 4.91430E-06-4.52089E-11-7.91976E-13-1.63634E-07
 -1     10454-4.46377E-06-1.77758E-07 4.91951E-06 7.35952E-14-2.94127E-15 1.63815E-07
 -1     10456-4.46377E-06-1.77758E-07 4.91951E-06 7.35952E-14 2.94127E-15-1.63815E-07
 -1     10457-4.49954E-06-1.77777E-07 4.95531E-06-6.57026E-12 1.14468E-13 1.65063E-07
 -1     10459-4.49954E-06-1.77777E-07 4.95531E-06-6.57026E-12-1.14468E-13-1.65063E-07
 -1     10460-4.49855E-06-1.77776E-07 4.95431E-06 1.84583E-11-3.21839E-13 1.65028E-07
 -1     10462-4.49855E-06-1.77776E-07 4.95431E-06 1.84583E-11 3.21839E-13-1.65028E-07
 -1     10463-4.49946E-06-1.77776E-07 4.95522E-06-1.42240E-11 2.48196E-13 1.65060E-07
 -1     10465-4.49946E-06-1.77776E-07 4.95522E-06-1.42240E-11-2.48196E-13-1.65060E-07
 -1     10466-4.49965E-06-1.77776E-07 4.95542E-06 9.58669E-12-1.67365E-13 1.65067E-07
 -1     10468-4.49965E-06-1.77776E-07 4.95542E-06 9.58669E-12 1.67365E-13-1.65067E-07
 -1     10469-4.49838E-06-1.77777E-07 4.95414E-06-1.41910E-11 2.47680E-13 1.65022E-07
 -1     10471-4.49838E-06-1.77777E-07 4.95414E-06-1.41910E-11-2.47680E-13-1.65022E-07
 -1     10472-4.49850E-06-1.77777E-07 4.95427E-06 1.00841E-11-1.76073E-13 1.65027E-07
 -1     10474-4.49850E-06-1.77777E-07 4.95427E-06 1.00841E-11 1.76073E-13-1.65027E-07
 -1     10475-2.15451E-07-1.77776E-07 6.72577E-07-2.48159E-14 4.38041E-16 1.55008E-08
 -1     10477-2.15451E-07-1.77776E-07 6.72577E-07-2.48159E-14-4.38041E-16-1.55008E-08
 -1     10478-2.15453E-07-1.77776E-07 6.72579E-07 3.11907E-15-5.29931E-17 1.55009E-08
 -1     10480-2.15453E-07-1.77776E-07 6.72579E-07 3.11907E-15 5.29928E-17-1.55009E-08
 -1     10481-1.66833E-06-1.77775E-07 2.12547E-06 1.84101E-10-3.21413E-12 6.62240E-08
 -1     10483-1.66833E-06-1.77775E-07 2.12547E-06 1.84101E-10 3.21413E-12-6.62240E-08
 -1     10484-1.75187E-06-1.77776E-07 2.20900E-06-2.00497E-10 3.50027E-12 6.91405E-08
 -1     10486-1.75187E-06-1.77776E-07 2.20900E-06-2.00497E-10-3.50027E-12-6.91405E-08
 -1     10487-4.50188E-06-1.77769E-07 4.95764E-06-7.72690E-13 1.41217E-14 1.65144E-07
 -1     10489-4.50188E-06-1.77769E-07 4.95764E-06-7.72690E-13-1.41217E-14-1.65144E-07
 -1     10490-4.50074E-06-1.77775E-07 4.95650E-06 2.89051E-11-5.04385E-13 1.65104E-07
 -1     10492-4.50074E-06-1.77775E-07 4.95650E-06 2.89051E-11 5.04385E-13-1.65104E-07
 -1     10493-4.49423E-06-1.77796E-07 4.94994E-06-6.98862E-11 1.21669E-12 1.64876E-07
 -1     10495-4.49423E-06-1.77796E-07 4.94994E-06-6.98862E-11-1.21669E-12-1.64876E-07
 -1     10496-4.49971E-06-1.77790E-07 4.95553E-06-3.82234E-11 6.67601E-13 1.65069E-07
 -1     10498-4.49971E-06-1.77790E-07 4.95553E-06-3.82234E-11-6.67601E-13-1.65069E-07
 -1     10499-4.47328E-06-1.77773E-07 4.92892E-06-9.76402E-11 1.70315E-12 1.64145E-07
 -1     10501-4.47328E-06-1.77773E-07 4.92892E-06-9.76402E-11-1.70315E-12-1.64145E-07
 -1     10502-4.48027E-06-1.77765E-07 4.93609E-06-5.44833E-11 9.48404E-13 1.64392E-07
 -1     10504-4.48027E-06-1.77765E-07 4.93609E-06-5.44833E-11-9.48404E-13-1.64392E-07
 -1     10505-4.20739E-06-1.77727E-07 4.66698E-06 1.99006E-10-3.47422E-12 1.54917E-07
 -1     10507-4.20739E-06-1.77727E-07 4.66698E-06 1.99006E-10 3.47422E-12-1.54917E-07
 -1     10508-4.18432E-06-1.77871E-07 4.64412E-06 1.62444E-10-2.83563E-12 1.54117E-07
 -1     10510-4.18432E-06-1.77871E-07 4.64412E-06 1.62444E-10 2.83563E-12-1.54117E-07
 -1     10511-4.49878E-06-1.77776E-07 4.95454E-06-1.47526E-11 2.57498E-13 1.65036E-07
 -1     10513-4.49878E-06-1.77776E-07 4.95454E-06-1.47526E-11-2.57498E-13-1.65036E-07
 -1     10514-4.49905E-06-1.77776E-07 4.95481E-06 9.44780E-12-1.64967E-13 1.65045E-07
 -1     10516-4.49905E-06-1.77776E-07 4.95481E-06 9.44780E-12 1.64967E-13-1.65045E-07
 -1     10517-4.22088E-06-1.77777E-07 4.68049E-06 4.81877E-12-8.41278E-14 1.55388E-07
 -1     10519-4.22088E-06-1.77777E-07 4.68049E-06 4.81877E-12 8.41278E-14-1.55388E-07
 -1     10520-4.22022E-06-1.77776E-07 4.67982E-06 2.60334E-12-4.54528E-14 1.55365E-07
 -1     10522-4.22022E-06-1.77776E-07 4.67982E-06 2.60334E-12 4.54528E-14-1.55365E-07
 -1     10523-4.45507E-06-1.77779E-07 4.91077E-06 6.71466E-12-1.17082E-13 1.63511E-07
 -1     10525-4.45507E-06-1.77779E-07 4.91077E-06 6.71466E-12 1.17082E-13-1.63511E-07
 -1     10526-4.45205E-06-1.77777E-07 4.90774E-06 2.03367E-11-3.54791E-13 1.63405E-07
 -1     10528-4.45205E-06-1.77777E-07 4.90774E-06 2.03367E-11 3.54791E-13-1.63405E-07
 -1     10529-4.49660E-06-1.77779E-07 4.95237E-06 3.83876E-12-6.71021E-14 1.64960E-07
 -1     10531-4.49660E-06-1.77779E-07 4.95237E-06 3.83876E-12 6.71021E-14-1.64960E-07
 -1     10532-4.49428E-06-1.77777E-07 4.95001E-06 2.99779E-11-5.22544E-13 1.64878E-07
 -1     10534-4.49428E-06-1.77777E-07 4.95001E-06 2.99779E-11 5.22544E-13-1.64878E-07
 -1     10535-4.21931E-06-1.77774E-07 4.67890E-06-2.22637E-11 3.88689E-13 1.55333E-07
 -1     10537-4.21931E-06-1.77774E-07 4.67890E-06-2.22637E-11-3.88689E-13-1.55333E-07
 -1     10538-2.15574E-07-1.77776E-07 6.72700E-07 5.39628E-14-9.52838E-16 1.55051E-08
 -1     10540-2.15574E-07-1.77776E-07 6.72700E-07 5.39628E-14 9.52839E-16-1.55051E-08
 -1     10541-2.15598E-07-1.77776E-07 6.72724E-07 9.03131E-14-1.58222E-15 1.55060E-08
 -1     10543-2.15598E-07-1.77776E-07 6.72724E-07 9.03131E-14 1.58222E-15-1.55060E-08
 -1     10544-1.15642E-06-1.77776E-07 1.61356E-06 9.82963E-11-1.71607E-12 4.83518E-08
 -1     10546-1.15642E-06-1.77776E-07 1.61356E-06 9.82963E-11 1.71607E-12-4.83518E-08
 -1     10547-1.20828E-06-1.77776E-07 1.66541E-06-1.05712E-10 1.84553E-12 5.01622E-08
 -1     10549-1.20828E-06-1.77776E-07 1.66541E-06-1.05712E-10-1.84553E-12-5.01622E-08
 -1     10550-1.84081E-06-1.77774E-07 2.29796E-06 2.22651E-10-3.88721E-12 7.22460E-08
 -1     10552-1.84081E-06-1.77774E-07 2.29796E-06 2.22651E-10 3.88721E-12-7.22460E-08
 -1     10553-1.93652E-06-1.77775E-07 2.39365E-06-2.42189E-10 4.22816E-12 7.55875E-08
 -1     10555-1.93652E-06-1.77775E-07 2.39365E-06-2.42189E-10-4.22816E-12-7.55875E-08
 -1     10556-1.79648E-06-1.77776E-07 2.25361E-06-3.02140E-12 5.27280E-14 7.07002E-08
 -1     10558-1.79648E-06-1.77776E-07 2.25361E-06-3.02140E-12-5.27280E-14-7.07002E-08
 -1     10559-9.74829E-07-1.77776E-07 1.43197E-06 7.39555E-11-1.29112E-12 4.20120E-08
 -1     10561-9.74829E-07-1.77776E-07 1.43197E-06 7.39555E-11 1.29112E-12-4.20120E-08
 -1     10562-1.01671E-06-1.77776E-07 1.47384E-06-7.92162E-11 1.38297E-12 4.34740E-08
 -1     10564-1.01671E-06-1.77776E-07 1.47384E-06-7.92162E-11-1.38297E-12-4.34740E-08
 -1     10565-8.26826E-07-1.77776E-07 1.28396E-06 5.69305E-11-9.93898E-13 3.68449E-08
 -1     10567-8.26826E-07-1.77776E-07 1.28396E-06 5.69305E-11 9.93898E-13-3.68449E-08
 -1     10568-8.61166E-07-1.77776E-07 1.31830E-06-6.05784E-11 1.05759E-12 3.80438E-08
 -1     10570-8.61166E-07-1.77776E-07 1.31830E-06-6.05784E-11-1.05759E-12-3.80438E-08
 -1     10571-7.04410E-07-1.77776E-07 1.16155E-06 4.46199E-11-7.78978E-13 3.25712E-08
 -1     10573-7.04410E-07-1.77776E-07 1.16155E-06 4.46199E-11 7.78978E-13-3.25712E-08
 -1     10574-7.32951E-07-1.77776E-07 1.19009E-06-4.73521E-11 8.26674E-13 3.35676E-08
 -1     10576-7.32951E-07-1.77776E-07 1.19009E-06-4.73521E-11-8.26674E-13-3.35676E-08
 -1     10577-6.90914E-07-1.77776E-07 1.14805E-06 1.08148E-14-1.86877E-16 3.21004E-08
 -1     10579-6.90914E-07-1.77776E-07 1.14805E-06 1.08148E-14 1.86876E-16-3.21004E-08
 -1     10580-5.56964E-07-1.77776E-07 1.01410E-06 3.18395E-11-5.55854E-13 2.74236E-08
 -1     10582-5.56964E-07-1.77776E-07 1.01410E-06 3.18395E-11 5.55854E-13-2.74236E-08
 -1     10583-5.79019E-07-1.77776E-07 1.03616E-06-3.36144E-11 5.86843E-13 2.81935E-08
 -1     10585-5.79019E-07-1.77776E-07 1.03616E-06-3.36144E-11-5.86843E-13-2.81935E-08
 -1     10586-4.77041E-07-1.77776E-07 9.34179E-07 2.59873E-11-4.53684E-13 2.46334E-08
 -1     10588-4.77041E-07-1.77776E-07 9.34179E-07 2.59873E-11 4.53684E-13-2.46334E-08
 -1     10589-4.95861E-07-1.77776E-07 9.52999E-07-2.72515E-11 4.75763E-13 2.52904E-08
 -1     10591-4.95861E-07-1.77776E-07 9.52999E-07-2.72515E-11-4.75763E-13-2.52904E-08
 -1     10592-4.08516E-07-1.77776E-07 8.65655E-07 2.12369E-11-3.70743E-13 2.22411E-08
 -1     10594-4.08516E-07-1.77776E-07 8.65655E-07 2.12369E-11 3.70743E-13-2.22411E-08
 -1     10595-4.24661E-07-1.77776E-07 8.81799E-07-2.20634E-11 3.85208E-13 2.28047E-08
 -1     10597-4.24661E-07-1.77776E-07 8.81799E-07-2.20634E-11-3.85208E-13-2.28047E-08
 -1     10598-2.15412E-07-1.77776E-07 6.72537E-07-2.96136E-13 5.16640E-15 1.54994E-08
 -1     10600-2.15412E-07-1.77776E-07 6.72537E-07-2.96136E-13-5.16640E-15-1.54994E-08
 -1     10601-2.15303E-07-1.77776E-07 6.72429E-07-2.39711E-13 4.23772E-15 1.54956E-08
 -1     10603-2.15303E-07-1.77776E-07 6.72429E-07-2.39711E-13-4.23772E-15-1.54956E-08
 -1     10604-3.22921E-07-1.77776E-07 7.80064E-07 1.56911E-11-2.73894E-13 1.92529E-08
 -1     10606-3.22921E-07-1.77776E-07 7.80064E-07 1.56911E-11 2.73894E-13-1.92529E-08
 -1     10607-3.35810E-07-1.77776E-07 7.92946E-07-1.59446E-11 2.78431E-13 1.97028E-08
 -1     10609-3.35810E-07-1.77776E-07 7.92946E-07-1.59446E-11-2.78431E-13-1.97028E-08
 -1     10610-2.76434E-07-1.77777E-07 7.33581E-07 8.70801E-12-1.52176E-13 1.76300E-08
 -1     10612-2.76434E-07-1.77777E-07 7.33581E-07 8.70801E-12 1.52176E-13-1.76300E-08
 -1     10613-2.87221E-07-1.77775E-07 7.44353E-07-1.14277E-11 1.99550E-13 1.80064E-08
 -1     10615-2.87221E-07-1.77775E-07 7.44353E-07-1.14277E-11-1.99550E-13-1.80064E-08
 -1     10616-4.46255E-06-1.77861E-07 4.91824E-06-1.14360E-11 1.95302E-13 1.63770E-07
 -1     10618-4.46255E-06-1.77861E-07 4.91824E-06-1.14360E-11-1.95302E-13-1.63770E-07
 -1     10619-4.46247E-06-1.77759E-07 4.91823E-06-1.15504E-10 2.02312E-12 1.63769E-07
 -1     10621-4.46247E-06-1.77759E-07 4.91823E-06-1.15504E-10-2.02312E-12-1.63769E-07
 -1     10622-4.40260E-06-1.77610E-07 4.85844E-06-1.89239E-11 3.14668E-13 1.61686E-07
 -1     10624-4.40260E-06-1.77610E-07 4.85844E-06-1.89239E-11-3.14668E-13-1.61686E-07
 -1     10625-2.14788E-07-1.77776E-07 6.71915E-07 4.03051E-14-5.82699E-16 1.54777E-08
 -1     10627-2.14788E-07-1.77776E-07 6.71915E-07 4.03051E-14 5.82699E-16-1.54777E-08
 -1     10628-2.14948E-07-1.77776E-07 6.72074E-07 6.82696E-14-1.29323E-15 1.54833E-08
 -1     10630-2.14948E-07-1.77776E-07 6.72074E-07 6.82696E-14 1.29323E-15-1.54833E-08
 -1     10631-3.49376E-07-1.77776E-07 8.06517E-07 1.75314E-11-3.06034E-13 2.01765E-08
 -1     10633-3.49376E-07-1.77776E-07 8.06517E-07 1.75314E-11 3.06034E-13-2.01765E-08
 -1     10634-3.63332E-07-1.77776E-07 8.20468E-07-1.78828E-11 3.12235E-13 2.06636E-08
 -1     10636-3.63332E-07-1.77776E-07 8.20468E-07-1.78828E-11-3.12235E-13-2.06636E-08
 -1     10637-3.42262E-07-1.77776E-07 7.99400E-07-7.41145E-13 1.29632E-14 1.99282E-08
 -1     10639-3.42262E-07-1.77776E-07 7.99400E-07-7.41145E-13-1.29632E-14-1.99282E-08
 -1     10640-2.15639E-07-1.77776E-07 6.72765E-07-1.35083E-14 2.22554E-16 1.55074E-08
 -1     10642-2.15639E-07-1.77776E-07 6.72765E-07-1.35083E-14-2.22554E-16-1.55074E-08
 -1     10643-2.15641E-07-1.77776E-07 6.72767E-07 4.08528E-14-7.12923E-16 1.55075E-08
 -1     10645-2.15641E-07-1.77776E-07 6.72767E-07 4.08528E-14 7.12923E-16-1.55075E-08
 -1     10646-2.23741E-07-1.77776E-07 6.80906E-07-2.42578E-13 4.23467E-15 1.57908E-08
 -1     10648-2.23741E-07-1.77776E-07 6.80906E-07-2.42578E-13-4.23467E-15-1.57908E-08
 -1     10649-2.15644E-07-1.77776E-07 6.72769E-07-7.01591E-14 1.21481E-15 1.55075E-08
 -1     10651-2.15644E-07-1.77776E-07 6.72769E-07-7.01591E-14-1.21481E-15-1.55075E-08
 -1     10652-2.15618E-07-1.77776E-07 6.72744E-07-8.58751E-15 1.58296E-16 1.55067E-08
 -1     10654-2.15618E-07-1.77776E-07 6.72744E-07-8.58751E-15-1.58296E-16-1.55067E-08
 -1     10655-2.23784E-07-1.77776E-07 6.80949E-07-5.81285E-14 1.01459E-15 1.57923E-08
 -1     10657-2.23784E-07-1.77776E-07 6.80949E-07-5.81285E-14-1.01458E-15-1.57923E-08
 -1     10658-2.15049E-07-1.77776E-07 6.72175E-07-3.78631E-13 6.67437E-15 1.54868E-08
 -1     10660-2.15049E-07-1.77776E-07 6.72175E-07-3.78631E-13-6.67437E-15-1.54868E-08
 -1     10661-2.14973E-07-1.77776E-07 6.72100E-07-4.07015E-13 7.14387E-15 1.54841E-08
 -1     10663-2.14973E-07-1.77776E-07 6.72100E-07-4.07015E-13-7.14387E-15-1.54841E-08
 -1     10664-2.23225E-07-1.77777E-07 6.80389E-07 1.13794E-12-1.98691E-14 1.57728E-08
 -1     10666-2.23225E-07-1.77777E-07 6.80389E-07 1.13794E-12 1.98691E-14-1.57728E-08
 -1     10667-2.17908E-07-1.77775E-07 6.75034E-07 6.25370E-12-1.09868E-13 1.55866E-08
 -1     10669-2.17908E-07-1.77775E-07 6.75034E-07 6.25370E-12 1.09868E-13-1.55866E-08
 -1     10670-2.28546E-07-1.77777E-07 6.85702E-07-1.12145E-11 1.95604E-13 1.59584E-08
 -1     10672-2.28546E-07-1.77777E-07 6.85702E-07-1.12145E-11-1.95604E-13-1.59584E-08
 -1     10673-2.17107E-07-1.77776E-07 6.74236E-07 1.87837E-12-3.29514E-14 1.55587E-08
 -1     10675-2.17107E-07-1.77776E-07 6.74236E-07 1.87837E-12 3.29514E-14-1.55587E-08
 -1     10676-2.15451E-07-1.77776E-07 6.72577E-07 2.23217E-14-3.86323E-16 1.55008E-08
 -1     10678-2.15451E-07-1.77776E-07 6.72577E-07 2.23217E-14 3.86323E-16-1.55008E-08
 -1     10679-2.15459E-07-1.77776E-07 6.72585E-07 5.75174E-14-1.01343E-15 1.55011E-08
 -1     10681-2.15459E-07-1.77776E-07 6.72585E-07 5.75174E-14 1.01343E-15-1.55011E-08
 -1     10682-2.23519E-07-1.77776E-07 6.80683E-07 1.21059E-14-2.11323E-16 1.57830E-08
 -1     10684-2.23519E-07-1.77776E-07 6.80683E-07 1.21059E-14 2.11323E-16-1.57830E-08
 -1     10685-4.49924E-06-1.77775E-07 4.95501E-06-8.58220E-12 1.50054E-13 1.65052E-07
 -1     10687-4.49924E-06-1.77775E-07 4.95501E-06-8.58220E-12-1.50054E-13-1.65052E-07
 -1     10688-4.49845E-06-1.77776E-07 4.95420E-06 1.77979E-11-3.10875E-13 1.65024E-07
 -1     10690-4.49845E-06-1.77776E-07 4.95420E-06 1.77979E-11 3.10875E-13-1.65024E-07
 -1     10691-4.22131E-06-1.77784E-07 4.68094E-06-1.62017E-11 2.82859E-13 1.55404E-07
 -1     10693-4.22131E-06-1.77784E-07 4.68094E-06-1.62017E-11-2.82859E-13-1.55404E-07
 -1     10694-2.15449E-07-1.77776E-07 6.72575E-07 3.45762E-14-6.15159E-16 1.55008E-08
 -1     10696-2.15449E-07-1.77776E-07 6.72575E-07 3.45762E-14 6.15159E-16-1.55008E-08
 -1     10697-2.15471E-07-1.77776E-07 6.72597E-07 5.70866E-14-9.86840E-16 1.55015E-08
 -1     10699-2.15471E-07-1.77776E-07 6.72597E-07 5.70866E-14 9.86840E-16-1.55015E-08
 -1     10700-2.15156E-07-1.77776E-07 6.72283E-07 1.45638E-13-2.56044E-15 1.54905E-08
 -1     10702-2.15156E-07-1.77776E-07 6.72283E-07 1.45638E-13 2.56044E-15-1.54905E-08
 -1     10703-2.15220E-07-1.77776E-07 6.72346E-07 1.65439E-13-2.90878E-15 1.54928E-08
 -1     10705-2.15220E-07-1.77776E-07 6.72346E-07 1.65439E-13 2.90878E-15-1.54928E-08
 -1     10706-2.14891E-07-1.77776E-07 6.72018E-07 1.61487E-13-2.79069E-15 1.54813E-08
 -1     10708-2.14891E-07-1.77776E-07 6.72018E-07 1.61487E-13 2.79069E-15-1.54813E-08
 -1     10709-2.14839E-07-1.77776E-07 6.71966E-07 1.56918E-14-3.40938E-16 1.54795E-08
 -1     10711-2.14839E-07-1.77776E-07 6.71966E-07 1.56918E-14 3.40937E-16-1.54795E-08
 -1     10712-4.44803E-06-1.77767E-07 4.90363E-06-7.62443E-11 1.31959E-12 1.63261E-07
 -1     10714-4.44803E-06-1.77767E-07 4.90363E-06-7.62443E-11-1.31959E-12-1.63261E-07
 -1     10715-4.46145E-06-1.77890E-07 4.91726E-06-7.20002E-11 1.26237E-12 1.63734E-07
 -1     10717-4.46145E-06-1.77890E-07 4.91726E-06-7.20002E-11-1.26237E-12-1.63734E-07
 -1     10718-4.17820E-06-1.77870E-07 4.63790E-06-1.67515E-10 2.92383E-12 1.53901E-07
 -1     10720-4.17820E-06-1.77870E-07 4.63790E-06-1.67515E-10-2.92383E-12-1.53901E-07
 -1     10721-4.13879E-06-1.77752E-07 4.59806E-06 1.87745E-10-3.28262E-12 1.52516E-07
 -1     10723-4.13879E-06-1.77752E-07 4.59806E-06 1.87745E-10 3.28262E-12-1.52516E-07
 -1     10724-4.48998E-06-1.77780E-07 4.94576E-06 2.07360E-11-3.61848E-13 1.64730E-07
 -1     10726-4.48998E-06-1.77780E-07 4.94576E-06 2.07360E-11 3.61848E-13-1.64730E-07
 -1     10727-4.48579E-06-1.77781E-07 4.94150E-06 4.69896E-11-8.18735E-13 1.64582E-07
 -1     10729-4.48579E-06-1.77781E-07 4.94150E-06 4.69896E-11 8.18735E-13-1.64582E-07
 -1     10730-4.21331E-06-1.77770E-07 4.67291E-06-5.11532E-11 8.93045E-13 1.55124E-07
 -1     10732-4.21331E-06-1.77770E-07 4.67291E-06-5.11532E-11-8.93045E-13-1.55124E-07
 -1     10733-4.44835E-06-1.77742E-07 4.90402E-06-1.67157E-11 2.93423E-13 1.63276E-07
 -1     10735-4.44835E-06-1.77742E-07 4.90402E-06-1.67157E-11-2.93423E-13-1.63276E-07
 -1     10736-4.44950E-06-1.77770E-07 4.90520E-06 4.10336E-11-7.20008E-13 1.63317E-07
 -1     10738-4.44950E-06-1.77770E-07 4.90520E-06 4.10336E-11 7.20008E-13-1.63317E-07
 -1     10739-4.17393E-06-1.77962E-07 4.63371E-06 2.23565E-10-3.90227E-12 1.53754E-07
 -1     10741-4.17393E-06-1.77962E-07 4.63371E-06 2.23565E-10 3.90227E-12-1.53754E-07
 -1     10742-4.16567E-06-1.77693E-07 4.62539E-06-6.30988E-11 1.10152E-12 1.53463E-07
 -1     10744-4.16567E-06-1.77693E-07 4.62539E-06-6.30988E-11-1.10152E-12-1.53463E-07
 -1     10745-4.43758E-06-1.77634E-07 4.89335E-06-1.09729E-10 1.92931E-12 1.62904E-07
 -1     10747-4.43758E-06-1.77634E-07 4.89335E-06-1.09729E-10-1.92931E-12-1.62904E-07
 -1     10748-3.95603E-06-1.77843E-07 4.41261E-06 5.18563E-10-9.02090E-12 1.46093E-07
 -1     10750-3.95603E-06-1.77843E-07 4.41261E-06 5.18563E-10 9.02090E-12-1.46093E-07
 -1     10751-3.66933E-06-1.77747E-07 4.12668E-06-9.86004E-10 1.72258E-11 1.36093E-07
 -1     10753-3.66933E-06-1.77747E-07 4.12668E-06-9.86004E-10-1.72258E-11-1.36093E-07
 -1     10754-3.46164E-06-1.77884E-07 3.91905E-06 6.33592E-10-1.10572E-11 1.28841E-07
 -1     10756-3.46164E-06-1.77884E-07 3.91905E-06 6.33592E-10 1.10572E-11-1.28841E-07
 -1     10757-3.24941E-06-1.77796E-07 3.70651E-06-5.92854E-10 1.03505E-11 1.21427E-07
 -1     10759-3.24941E-06-1.77796E-07 3.70651E-06-5.92854E-10-1.03505E-11-1.21427E-07
 -1     10760-3.56178E-06-1.77599E-07 4.01858E-06 2.92871E-11-5.17088E-13 1.32332E-07
 -1     10762-3.56178E-06-1.77599E-07 4.01858E-06 2.92871E-11 5.17088E-13-1.32332E-07
 -1     10763-3.05671E-06-1.77771E-07 3.51390E-06 5.36644E-10-9.36838E-12 1.14700E-07
 -1     10765-3.05671E-06-1.77771E-07 3.51390E-06 5.36644E-10 9.36838E-12-1.14700E-07
 -1     10766-2.87920E-06-1.77771E-07 3.33629E-06-4.71648E-10 8.23417E-12 1.08500E-07
 -1     10768-2.87920E-06-1.77771E-07 3.33629E-06-4.71648E-10-8.23417E-12-1.08500E-07
 -1     10769-3.16014E-06-1.77801E-07 3.61726E-06-2.22037E-11 3.88294E-13 1.18316E-07
 -1     10771-3.16014E-06-1.77801E-07 3.61726E-06-2.22037E-11-3.88294E-13-1.18316E-07
 -1     10772-2.71551E-06-1.77775E-07 3.17270E-06 4.38798E-10-7.66044E-12 1.02787E-07
 -1     10774-2.71551E-06-1.77775E-07 3.17270E-06 4.38798E-10 7.66044E-12-1.02787E-07
 -1     10775-2.56477E-06-1.77776E-07 3.02187E-06-3.80530E-10 6.64324E-12 9.75222E-08
 -1     10777-2.56477E-06-1.77776E-07 3.02187E-06-3.80530E-10-6.64324E-12-9.75222E-08
 -1     10778-2.80402E-06-1.77767E-07 3.26114E-06-9.72606E-12 1.70123E-13 1.05881E-07
 -1     10780-2.80402E-06-1.77767E-07 3.26114E-06-9.72606E-12-1.70123E-13-1.05881E-07
 -1     10781-2.42450E-06-1.77776E-07 2.88168E-06 3.59844E-10-6.28217E-12 9.26258E-08
 -1     10783-2.42450E-06-1.77776E-07 2.88168E-06 3.59844E-10 6.28217E-12-9.26258E-08
 -1     10784-2.29530E-06-1.77776E-07 2.75241E-06-3.13752E-10 5.47742E-12 8.81137E-08
 -1     10786-2.29530E-06-1.77776E-07 2.75241E-06-3.13752E-10-5.47742E-12-8.81137E-08
 -1     10787-2.50027E-06-1.77777E-07 2.95741E-06-1.01385E-11 1.77359E-13 9.52747E-08
 -1     10789-2.50027E-06-1.77777E-07 2.95741E-06-1.01385E-11-1.77359E-13-9.52747E-08
 -1     10790-2.17457E-06-1.77775E-07 2.63173E-06 2.96131E-10-5.16992E-12 8.38992E-08
 -1     10792-2.17457E-06-1.77775E-07 2.63173E-06 2.96131E-10 5.16992E-12-8.38992E-08
 -1     10793-2.06303E-06-1.77776E-07 2.52015E-06-2.60300E-10 4.54429E-12 8.00043E-08
 -1     10795-2.06303E-06-1.77776E-07 2.52015E-06-2.60300E-10-4.54429E-12-8.00043E-08
 -1     10796-2.23946E-06-1.77778E-07 2.69660E-06-7.44281E-12 1.30301E-13 8.61678E-08
 -1     10798-2.23946E-06-1.77778E-07 2.69660E-06-7.44281E-12-1.30301E-13-8.61678E-08
 -1     10799-1.95856E-06-1.77775E-07 2.41572E-06 2.44737E-10-4.27268E-12 7.63574E-08
 -1     10801-1.95856E-06-1.77775E-07 2.41572E-06 2.44737E-10 4.27268E-12-7.63574E-08
 -1     10802-1.86162E-06-1.77776E-07 2.31873E-06-2.16264E-10 3.77557E-12 7.29721E-08
 -1     10804-1.86162E-06-1.77776E-07 2.31873E-06-2.16264E-10-3.77557E-12-7.29721E-08
 -1     10805-2.01442E-06-1.77777E-07 2.47156E-06-5.08375E-12 8.90873E-14 7.83100E-08
 -1     10807-2.01442E-06-1.77777E-07 2.47156E-06-5.08375E-12-8.90873E-14-7.83100E-08
 -1     10808-1.77067E-06-1.77776E-07 2.22783E-06 2.03500E-10-3.55275E-12 6.97975E-08
 -1     10810-1.77067E-06-1.77776E-07 2.22783E-06 2.03500E-10 3.55275E-12-6.97975E-08
 -1     10811-1.68592E-06-1.77775E-07 2.14304E-06-1.80199E-10 3.14594E-12 6.68381E-08
 -1     10813-1.68592E-06-1.77775E-07 2.14304E-06-1.80199E-10-3.14594E-12-6.68381E-08
 -1     10814-1.81914E-06-1.77777E-07 2.27628E-06-3.49309E-12 6.12665E-14 7.14915E-08
 -1     10816-1.81914E-06-1.77777E-07 2.27628E-06-3.49309E-12-6.12665E-14-7.14915E-08
 -1     10817-1.60625E-06-1.77775E-07 2.06340E-06 1.70453E-10-2.97581E-12 6.40569E-08
 -1     10819-1.60625E-06-1.77775E-07 2.06340E-06 1.70453E-10 2.97581E-12-6.40569E-08
 -1     10820-1.53172E-06-1.77776E-07 1.98884E-06-1.51757E-10 2.64941E-12 6.14542E-08
 -1     10822-1.53172E-06-1.77776E-07 1.98884E-06-1.51757E-10-2.64941E-12-6.14542E-08
 -1     10823-1.64863E-06-1.77777E-07 2.10577E-06-2.74303E-12 4.81166E-14 6.55382E-08
 -1     10825-1.64863E-06-1.77777E-07 2.10577E-06-2.74303E-12-4.81166E-14-6.55382E-08
 -1     10826-1.46148E-06-1.77776E-07 1.91864E-06 1.44073E-10-2.51525E-12 5.90026E-08
 -1     10828-1.46148E-06-1.77776E-07 1.91864E-06 1.44073E-10 2.51525E-12-5.90026E-08
 -1     10829-1.39554E-06-1.77776E-07 1.85266E-06-1.28638E-10 2.24579E-12 5.66998E-08
 -1     10831-1.39554E-06-1.77776E-07 1.85266E-06-1.28638E-10-2.24579E-12-5.66998E-08
 -1     10832-1.49882E-06-1.77776E-07 1.95595E-06-2.39388E-12 4.19842E-14 6.03073E-08
 -1     10834-1.49882E-06-1.77776E-07 1.95595E-06-2.39388E-12-4.19842E-14-6.03073E-08
 -1     10835-1.33326E-06-1.77776E-07 1.79041E-06 1.22815E-10-2.14411E-12 5.45260E-08
 -1     10837-1.33326E-06-1.77776E-07 1.79041E-06 1.22815E-10 2.14411E-12-5.45260E-08
 -1     10838-1.27464E-06-1.77776E-07 1.73176E-06-1.09663E-10 1.91452E-12 5.24788E-08
 -1     10840-1.27464E-06-1.77776E-07 1.73176E-06-1.09663E-10-1.91452E-12-5.24788E-08
 -1     10841-1.36638E-06-1.77776E-07 1.82352E-06-2.02939E-12 3.55926E-14 5.56834E-08
 -1     10843-1.36638E-06-1.77776E-07 1.82352E-06-2.02939E-12-3.55926E-14-5.56834E-08
 -1     10844-1.21914E-06-1.77776E-07 1.67629E-06 1.05387E-10-1.83986E-12 5.05415E-08
 -1     10846-1.21914E-06-1.77776E-07 1.67629E-06 1.05387E-10 1.83986E-12-5.05415E-08
 -1     10847-1.16678E-06-1.77776E-07 1.62391E-06-9.44755E-11 1.64937E-12 4.87132E-08
 -1     10849-1.16678E-06-1.77776E-07 1.62391E-06-9.44755E-11-1.64937E-12-4.87132E-08
 -1     10850-1.24866E-06-1.77777E-07 1.70580E-06-1.80647E-12 3.16777E-14 5.15734E-08
 -1     10852-1.24866E-06-1.77777E-07 1.70580E-06-1.80647E-12-3.16777E-14-5.15734E-08
 -1     10853-1.11710E-06-1.77776E-07 1.57425E-06 9.09872E-11-1.58846E-12 4.69792E-08
 -1     10855-1.11710E-06-1.77776E-07 1.57425E-06 9.09872E-11 1.58846E-12-4.69792E-08
 -1     10856-1.07013E-06-1.77776E-07 1.52726E-06-8.17431E-11 1.42709E-12 4.53392E-08
 -1     10858-1.07013E-06-1.77776E-07 1.52726E-06-8.17431E-11-1.42709E-12-4.53392E-08
 -1     10859-1.14354E-06-1.77776E-07 1.60067E-06-1.65119E-12 2.89543E-14 4.79029E-08
 -1     10861-1.14354E-06-1.77776E-07 1.60067E-06-1.65119E-12-2.89543E-14-4.79029E-08
 -1     10862-1.02549E-06-1.77776E-07 1.48264E-06 7.89550E-11-1.37840E-12 4.37810E-08
 -1     10864-1.02549E-06-1.77776E-07 1.48264E-06 7.89550E-11 1.37840E-12-4.37810E-08
 -1     10865-9.83227E-07-1.77776E-07 1.44036E-06-7.09209E-11 1.23814E-12 4.23051E-08
 -1     10867-9.83227E-07-1.77776E-07 1.44036E-06-7.09209E-11-1.23814E-12-4.23051E-08
 -1     10868-1.04926E-06-1.77776E-07 1.50640E-06-1.40999E-12 2.47319E-14 4.46114E-08
 -1     10870-1.04926E-06-1.77776E-07 1.50640E-06-1.40999E-12-2.47319E-14-4.46114E-08
 -1     10871-9.42961E-07-1.77776E-07 1.40011E-06 6.88309E-11-1.20166E-12 4.08995E-08
 -1     10873-9.42961E-07-1.77776E-07 1.40011E-06 6.88309E-11 1.20166E-12-4.08995E-08
 -1     10874-9.04790E-07-1.77776E-07 1.36192E-06-6.21116E-11 1.08434E-12 3.95667E-08
 -1     10876-9.04790E-07-1.77776E-07 1.36192E-06-6.21116E-11-1.08434E-12-3.95667E-08
 -1     10877-9.64386E-07-1.77776E-07 1.42152E-06-1.21268E-12 2.12736E-14 4.16481E-08
 -1     10879-9.64386E-07-1.77776E-07 1.42152E-06-1.21268E-12-2.12736E-14-4.16481E-08
 -1     10880-8.68334E-07-1.77776E-07 1.32548E-06 6.03563E-11-1.05371E-12 3.82941E-08
 -1     10882-8.68334E-07-1.77776E-07 1.32548E-06 6.03563E-11 1.05371E-12-3.82941E-08
 -1     10883-8.33692E-07-1.77776E-07 1.29083E-06-5.47386E-11 9.55629E-13 3.70846E-08
 -1     10885-8.33692E-07-1.77776E-07 1.29083E-06-5.47386E-11-9.55629E-13-3.70846E-08
 -1     10886-8.87692E-07-1.77776E-07 1.34483E-06-1.06371E-12 1.86625E-14 3.89705E-08
 -1     10888-8.87692E-07-1.77776E-07 1.34483E-06-1.06371E-12-1.86625E-14-3.89705E-08
 -1     10889-8.00573E-07-1.77776E-07 1.25772E-06 5.32762E-11-9.30099E-13 3.59284E-08
 -1     10891-8.00573E-07-1.77776E-07 1.25772E-06 5.32762E-11 9.30099E-13-3.59284E-08
 -1     10892-7.69035E-07-1.77776E-07 1.22617E-06-4.83768E-11 8.44566E-13 3.48272E-08
 -1     10894-7.69035E-07-1.77776E-07 1.22617E-06-4.83768E-11-8.44566E-13-3.48272E-08
 -1     10895-8.18140E-07-1.77776E-07 1.27528E-06-9.20818E-13 1.61612E-14 3.65422E-08
 -1     10897-8.18140E-07-1.77776E-07 1.27528E-06-9.20818E-13-1.61612E-14-3.65422E-08
 -1     10898-7.38855E-07-1.77776E-07 1.19600E-06 4.71563E-11-8.23257E-13 3.37737E-08
 -1     10900-7.38855E-07-1.77776E-07 1.19600E-06 4.71563E-11 8.23257E-13-3.37737E-08
 -1     10901-7.10080E-07-1.77776E-07 1.16721E-06-4.28026E-11 7.47250E-13 3.27690E-08
 -1     10903-7.10080E-07-1.77776E-07 1.16721E-06-4.28026E-11-7.47250E-13-3.27690E-08
 -1     10904-7.54860E-07-1.77776E-07 1.21200E-06-7.66131E-13 1.34535E-14 3.43330E-08
 -1     10906-7.54860E-07-1.77776E-07 1.21200E-06-7.66131E-13-1.34535E-14-3.43330E-08
 -1     10907-6.82508E-07-1.77776E-07 1.13965E-06 4.18412E-11-7.30469E-13 3.18066E-08
 -1     10909-6.82508E-07-1.77776E-07 1.13965E-06 4.18412E-11 7.30469E-13-3.18066E-08
 -1     10910-6.56189E-07-1.77776E-07 1.11332E-06-3.80991E-11 6.65139E-13 3.08876E-08
 -1     10912-6.56189E-07-1.77776E-07 1.11332E-06-3.80991E-11-6.65139E-13-3.08876E-08
 -1     10913-6.97125E-07-1.77776E-07 1.15426E-06-6.72791E-13 1.18154E-14 3.23173E-08
 -1     10915-6.97125E-07-1.77776E-07 1.15426E-06-6.72791E-13-1.18154E-14-3.23173E-08
 -1     10916-6.30945E-07-1.77776E-07 1.08809E-06 3.72407E-11-6.50152E-13 3.00064E-08
 -1     10918-6.30945E-07-1.77776E-07 1.08809E-06 3.72407E-11 6.50152E-13-3.00064E-08
 -1     10919-6.06810E-07-1.77776E-07 1.06394E-06-3.39389E-11 5.92513E-13 2.91637E-08
 -1     10921-6.06810E-07-1.77776E-07 1.06394E-06-3.39389E-11-5.92513E-13-2.91637E-08
 -1     10922-6.44323E-07-1.77776E-07 1.10146E-06-6.13211E-13 1.07707E-14 3.04738E-08
 -1     10924-6.44323E-07-1.77776E-07 1.10146E-06-6.13211E-13-1.07707E-14-3.04738E-08
 -1     10925-5.83645E-07-1.77776E-07 1.04079E-06 3.32314E-11-5.80156E-13 2.83551E-08
 -1     10927-5.83645E-07-1.77776E-07 1.04079E-06 3.32314E-11 5.80156E-13-2.83551E-08
 -1     10928-5.61473E-07-1.77776E-07 1.01861E-06-3.02375E-11 5.27893E-13 2.75809E-08
 -1     10930-5.61473E-07-1.77776E-07 1.01861E-06-3.02375E-11-5.27893E-13-2.75809E-08
 -1     10931-5.95927E-07-1.77776E-07 1.05306E-06-5.32395E-13 9.35520E-15 2.87842E-08
 -1     10933-5.95927E-07-1.77776E-07 1.05306E-06-5.32395E-13-9.35519E-15-2.87842E-08
 -1     10934-5.40172E-07-1.77776E-07 9.97314E-07 2.97061E-11-5.18613E-13 2.68374E-08
 -1     10936-5.40172E-07-1.77776E-07 9.97314E-07 2.97061E-11 5.18613E-13-2.68374E-08
 -1     10937-5.19760E-07-1.77776E-07 9.76896E-07-2.70758E-11 4.72700E-13 2.61247E-08
 -1     10939-5.19760E-07-1.77776E-07 9.76896E-07-2.70758E-11-4.72700E-13-2.61247E-08
 -1     10940-5.51472E-07-1.77776E-07 1.00861E-06-4.87410E-13 8.56440E-15 2.72322E-08
 -1     10942-5.51472E-07-1.77776E-07 1.00861E-06-4.87410E-13-8.56440E-15-2.72322E-08
 -1     10943-5.00141E-07-1.77776E-07 9.57282E-07 2.66133E-11-4.64615E-13 2.54398E-08
 -1     10945-5.00141E-07-1.77776E-07 9.57282E-07 2.66133E-11 4.64615E-13-2.54398E-08
 -1     10946-4.81307E-07-1.77776E-07 9.38443E-07-2.42298E-11 4.23019E-13 2.47823E-08
 -1     10948-4.81307E-07-1.77776E-07 9.38443E-07-2.42298E-11-4.23019E-13-2.47823E-08
 -1     10949-5.10562E-07-1.77776E-07 9.67700E-07-4.73292E-13 8.31480E-15 2.58039E-08
 -1     10951-5.10562E-07-1.77776E-07 9.67700E-07-4.73292E-13-8.31480E-15-2.58039E-08
 -1     10952-4.63209E-07-1.77776E-07 9.20350E-07 2.38819E-11-4.16927E-13 2.41505E-08
 -1     10954-4.63209E-07-1.77776E-07 9.20350E-07 2.38819E-11 4.16927E-13-2.41505E-08
 -1     10955-4.45806E-07-1.77776E-07 9.02941E-07-2.16469E-11 3.77930E-13 2.35428E-08
 -1     10957-4.45806E-07-1.77776E-07 9.02941E-07-2.16469E-11-3.77930E-13-2.35428E-08
 -1     10958-4.72853E-07-1.77776E-07 9.29991E-07-4.63328E-13 8.13739E-15 2.44874E-08
 -1     10960-4.72853E-07-1.77776E-07 9.29991E-07-4.63328E-13-8.13739E-15-2.44874E-08
 -1     10961-4.29085E-07-1.77776E-07 8.86227E-07 2.14682E-11-3.74784E-13 2.29592E-08
 -1     10963-4.29085E-07-1.77776E-07 8.86227E-07 2.14682E-11 3.74784E-13-2.29592E-08
 -1     10964-4.12973E-07-1.77776E-07 8.70108E-07-1.94218E-11 3.39091E-13 2.23966E-08
 -1     10966-4.12973E-07-1.77776E-07 8.70108E-07-1.94218E-11-3.39091E-13-2.23966E-08
 -1     10967-4.38042E-07-1.77776E-07 8.95180E-07-5.09655E-13 8.94247E-15 2.32721E-08
 -1     10969-4.38042E-07-1.77776E-07 8.95180E-07-5.09655E-13-8.94247E-15-2.32721E-08
 -1     10970-3.97500E-07-1.77776E-07 8.54642E-07 1.93710E-11-3.38164E-13 2.18565E-08
 -1     10972-3.97500E-07-1.77776E-07 8.54642E-07 1.93710E-11 3.38164E-13-2.18565E-08
 -1     10973-3.82544E-07-1.77776E-07 8.39679E-07-1.74090E-11 3.03960E-13 2.13343E-08
 -1     10975-3.82544E-07-1.77776E-07 8.39679E-07-1.74090E-11-3.03960E-13-2.13343E-08
 -1     10976-4.05856E-07-1.77776E-07 8.62994E-07-6.08665E-13 1.06707E-14 2.21484E-08
 -1     10978-4.05856E-07-1.77776E-07 8.62994E-07-6.08665E-13-1.06707E-14-2.21484E-08
 -1     10979-3.68194E-07-1.77776E-07 8.25336E-07 1.75391E-11-3.06177E-13 2.08334E-08
 -1     10981-3.68194E-07-1.77776E-07 8.25336E-07 1.75391E-11 3.06177E-13-2.08334E-08
 -1     10982-3.54282E-07-1.77776E-07 8.11417E-07-1.55729E-11 2.71912E-13 2.03476E-08
 -1     10984-3.54282E-07-1.77776E-07 8.11417E-07-1.55729E-11-2.71912E-13-2.03476E-08
 -1     10985-3.76039E-07-1.77776E-07 8.33178E-07-7.22950E-13 1.26677E-14 2.11074E-08
 -1     10987-3.76039E-07-1.77776E-07 8.33178E-07-7.22950E-13-1.26677E-14-2.11074E-08
 -1     10988-3.40944E-07-1.77776E-07 7.98086E-07 1.59099E-11-2.77727E-13 1.98821E-08
 -1     10990-3.40944E-07-1.77776E-07 7.98086E-07 1.59099E-11 2.77727E-13-1.98821E-08
 -1     10991-3.27962E-07-1.77776E-07 7.85096E-07-1.39862E-11 2.44224E-13 1.94288E-08
 -1     10993-3.27962E-07-1.77776E-07 7.85096E-07-1.39862E-11-2.44224E-13-1.94288E-08
 -1     10994-3.48357E-07-1.77776E-07 8.05495E-07-8.86405E-13 1.55208E-14 2.01410E-08
 -1     10996-3.48357E-07-1.77776E-07 8.05495E-07-8.86405E-13-1.55208E-14-2.01410E-08
 -1     10997-3.15534E-07-1.77776E-07 7.72678E-07 1.45417E-11-2.53825E-13 1.89950E-08
 -1     10999-3.15534E-07-1.77776E-07 7.72678E-07 1.45417E-11 2.53825E-13-1.89950E-08
 -1     11000-3.03347E-07-1.77776E-07 7.60480E-07-1.25577E-11 2.19299E-13 1.85694E-08
 -1     11002-3.03347E-07-1.77776E-07 7.60480E-07-1.25577E-11-2.19299E-13-1.85694E-08
 -1     11003-3.22598E-07-1.77776E-07 7.79735E-07-1.12292E-12 1.96449E-14 1.92417E-08
 -1     11005-3.22598E-07-1.77776E-07 7.79735E-07-1.12292E-12-1.96449E-14-1.92417E-08
 -1     11006-2.91703E-07-1.77776E-07 7.48848E-07 1.36203E-11-2.37712E-13 1.81631E-08
 -1     11008-2.91703E-07-1.77776E-07 7.48848E-07 1.36203E-11 2.37712E-13-1.81631E-08
 -1     11009-2.80137E-07-1.77776E-07 7.37269E-07-1.13985E-11 1.99081E-13 1.77591E-08
 -1     11011-2.80137E-07-1.77776E-07 7.37269E-07-1.13985E-11-1.99081E-13-1.77591E-08
 -1     11012-2.98534E-07-1.77776E-07 7.55672E-07-1.41681E-12 2.47686E-14 1.84016E-08
 -1     11014-2.98534E-07-1.77776E-07 7.55672E-07-1.41681E-12-2.47686E-14-1.84016E-08
 -1     11015-2.69109E-07-1.77776E-07 7.26256E-07 1.35093E-11-2.35725E-13 1.73744E-08
 -1     11017-2.69109E-07-1.77776E-07 7.26256E-07 1.35093E-11 2.35725E-13-1.73744E-08
 -1     11018-2.57867E-07-1.77776E-07 7.14996E-07-1.06969E-11 1.86908E-13 1.69816E-08
 -1     11020-2.57867E-07-1.77776E-07 7.14996E-07-1.06969E-11-1.86908E-13-1.69816E-08
 -1     11021-2.75872E-07-1.77776E-07 7.33008E-07-1.86746E-12 3.26306E-14 1.76104E-08
 -1     11023-2.75872E-07-1.77776E-07 7.33008E-07-1.86746E-12-3.26306E-14-1.76104E-08
 -1     11024-2.47228E-07-1.77777E-07 7.04381E-07 1.40276E-11-2.44670E-13 1.66106E-08
 -1     11026-2.47228E-07-1.77777E-07 7.04381E-07 1.40276E-11 2.44670E-13-1.66106E-08
 -1     11027-2.35548E-07-1.77775E-07 6.92675E-07-8.68139E-12 1.52299E-13 1.62025E-08
 -1     11029-2.35548E-07-1.77775E-07 6.92675E-07-8.68139E-12-1.52299E-13-1.62025E-08
 -1     11030-2.54223E-07-1.77776E-07 7.11357E-07-2.26169E-12 3.95438E-14 1.68546E-08
 -1     11032-2.54223E-07-1.77776E-07 7.11357E-07-2.26169E-12-3.95438E-14-1.68546E-08
 -1     11033-1.51675E-06-1.77776E-07 1.97389E-06 1.55371E-10-2.71250E-12 6.09319E-08
 -1     11035-1.51675E-06-1.77776E-07 1.97389E-06 1.55371E-10 2.71250E-12-6.09319E-08
 -1     11036-1.59030E-06-1.77776E-07 2.04743E-06-1.68601E-10 2.94342E-12 6.34996E-08
 -1     11038-1.59030E-06-1.77776E-07 2.04743E-06-1.68601E-10-2.94342E-12-6.34996E-08
 -1     11039-1.62962E-06-1.77776E-07 2.08676E-06-1.56354E-12 2.73104E-14 6.48743E-08
 -1     11041-1.62962E-06-1.77776E-07 2.08676E-06-1.56354E-12-2.73104E-14-6.48743E-08
 -1     11042-1.48260E-06-1.77776E-07 1.93974E-06-5.57317E-13 9.73839E-15 5.97412E-08
 -1     11044-1.48260E-06-1.77776E-07 1.93974E-06-5.57317E-13-9.73839E-15-5.97412E-08
 -1     11045-4.47757E-06-1.77775E-07 4.93335E-06 3.98738E-11-6.94914E-13 1.64297E-07
 -1     11047-4.47757E-06-1.77775E-07 4.93335E-06 3.98738E-11 6.94914E-13-1.64297E-07
 -1     11048-4.47226E-06-1.77781E-07 4.92793E-06 6.49449E-11-1.13217E-12 1.64109E-07
 -1     11050-4.47226E-06-1.77781E-07 4.92793E-06 6.49449E-11 1.13217E-12-1.64109E-07
 -1     11051-4.20125E-06-1.77763E-07 4.66089E-06-9.82626E-11 1.71550E-12 1.54704E-07
 -1     11053-4.20125E-06-1.77763E-07 4.66089E-06-9.82626E-11-1.71550E-12-1.54704E-07
 -1     11054-2.38086E-07-1.77776E-07 6.95214E-07 7.93493E-12-1.38651E-13 1.62910E-08
 -1     11056-2.38086E-07-1.77776E-07 6.95214E-07 7.93493E-12 1.38651E-13-1.62910E-08
 -1     11057-2.48025E-07-1.77776E-07 7.05178E-07-7.20582E-12 1.25616E-13 1.66384E-08
 -1     11059-2.48025E-07-1.77776E-07 7.05178E-07-7.20582E-12-1.25616E-13-1.66384E-08
 -1     11060-2.35415E-07-1.77775E-07 6.92546E-07 1.24849E-12-2.16592E-14 1.61979E-08
 -1     11062-2.35415E-07-1.77775E-07 6.92546E-07 1.24849E-12 2.16592E-14-1.61979E-08
 -1     11063-2.15395E-07-1.77776E-07 6.72523E-07 1.28264E-12-2.23689E-14 1.54989E-08
 -1     11065-2.15395E-07-1.77776E-07 6.72523E-07 1.28264E-12 2.23689E-14-1.54989E-08
 -1     11066-2.15923E-07-1.77776E-07 6.73047E-07 1.31869E-12-2.32580E-14 1.55172E-08
 -1     11068-2.15923E-07-1.77776E-07 6.73047E-07 1.31869E-12 2.32580E-14-1.55172E-08
 -1     11069-2.24705E-07-1.77777E-07 6.81866E-07-4.33374E-12 7.56403E-14 1.58244E-08
 -1     11071-2.24705E-07-1.77777E-07 6.81866E-07-4.33374E-12-7.56403E-14-1.58244E-08
 -1     11072-2.23057E-07-1.77775E-07 6.80217E-07-1.14230E-12 1.99323E-14 1.57668E-08
 -1     11074-2.23057E-07-1.77775E-07 6.80217E-07-1.14230E-12-1.99323E-14-1.57668E-08
 -1     11075-2.26022E-07-1.77777E-07 6.83183E-07 4.05245E-12-7.07134E-14 1.58704E-08
 -1     11077-2.26022E-07-1.77777E-07 6.83183E-07 4.05245E-12 7.07134E-14-1.58704E-08
 -1     11078-2.16557E-07-1.77776E-07 6.73682E-07-5.70865E-13 1.02601E-14 1.55394E-08
 -1     11080-2.16557E-07-1.77776E-07 6.73682E-07-5.70865E-13-1.02601E-14-1.55394E-08
 -1     11081-2.16144E-07-1.77776E-07 6.73271E-07-2.25301E-12 3.94435E-14 1.55250E-08
 -1     11083-2.16144E-07-1.77776E-07 6.73271E-07-2.25301E-12-3.94435E-14-1.55250E-08
 -1     11084-2.34079E-07-1.77776E-07 6.91209E-07-2.14078E-12 3.76382E-14 1.61513E-08
 -1     11086-2.34079E-07-1.77776E-07 6.91209E-07-2.14078E-12-3.76382E-14-1.61513E-08
 -1     11087-4.58904E-07-1.77776E-07 9.16042E-07-2.45186E-11 4.28061E-13 2.40002E-08
 -1     11089-4.58904E-07-1.77776E-07 9.16042E-07-2.45186E-11-4.28061E-13-2.40002E-08
 -1     11090-4.67989E-07-1.77776E-07 9.25127E-07-8.79238E-14 1.53150E-15 2.43176E-08
 -1     11092-4.67989E-07-1.77776E-07 9.25127E-07-8.79238E-14-1.53150E-15-2.43176E-08
 -1     11093-4.41496E-07-1.77776E-07 8.98635E-07 2.34893E-11-4.10063E-13 2.33924E-08
 -1     11095-4.41496E-07-1.77776E-07 8.98635E-07 2.34893E-11 4.10063E-13-2.33924E-08
 -1     11096-4.49992E-06-1.77777E-07 4.95569E-06-1.29722E-11 2.26316E-13 1.65076E-07
 -1     11098-4.49992E-06-1.77777E-07 4.95569E-06-1.29722E-11-2.26316E-13-1.65076E-07
 -1     11099-4.49987E-06-1.77776E-07 4.95563E-06 1.25484E-11-2.18930E-13 1.65074E-07
 -1     11101-4.49987E-06-1.77776E-07 4.95563E-06 1.25484E-11 2.18930E-13-1.65074E-07
 -1     11102-4.16474E-06-1.77639E-07 4.62382E-06-2.66320E-12 4.89570E-14 1.53418E-07
 -1     11104-4.16474E-06-1.77639E-07 4.62382E-06-2.66320E-12-4.89570E-14-1.53418E-07
 -1     11105-4.49828E-06-1.77778E-07 4.95404E-06-1.28862E-11 2.24956E-13 1.65019E-07
 -1     11107-4.49828E-06-1.77778E-07 4.95404E-06-1.28862E-11-2.24956E-13-1.65019E-07
 -1     11108-4.49819E-06-1.77777E-07 4.95395E-06 1.16249E-11-2.03010E-13 1.65016E-07
 -1     11110-4.49819E-06-1.77777E-07 4.95395E-06 1.16249E-11 2.03010E-13-1.65016E-07
 -1     11111-4.50372E-06-1.77774E-07 4.95948E-06-1.59390E-11 2.77175E-13 1.65208E-07
 -1     11113-4.50372E-06-1.77774E-07 4.95948E-06-1.59390E-11-2.77175E-13-1.65208E-07
 -1     11114-4.50478E-06-1.77781E-07 4.96055E-06 1.53069E-11-2.65788E-13 1.65245E-07
 -1     11116-4.50478E-06-1.77781E-07 4.96055E-06 1.53069E-11 2.65788E-13-1.65245E-07
 -1     11117-4.22558E-06-1.77792E-07 4.68517E-06-4.28820E-11 7.48598E-13 1.55552E-07
 -1     11119-4.22558E-06-1.77792E-07 4.68517E-06-4.28820E-11-7.48598E-13-1.55552E-07
 -1     11120-2.86039E-06-1.77821E-07 3.31748E-06 4.98371E-10-8.69815E-12 1.07844E-07
 -1     11122-2.86039E-06-1.77821E-07 3.31748E-06 4.98371E-10 8.69815E-12-1.07844E-07
 -1     11123-3.03620E-06-1.77807E-07 3.49365E-06-5.85909E-10 1.02298E-11 1.13988E-07
 -1     11125-3.03620E-06-1.77807E-07 3.49365E-06-5.85909E-10-1.02298E-11-1.13988E-07
 -1     11126-2.03895E-06-1.77774E-07 2.49610E-06 2.72687E-10-4.76073E-12 7.91640E-08
 -1     11128-2.03895E-06-1.77774E-07 2.49610E-06 2.72687E-10 4.76073E-12-7.91640E-08
 -1     11129-2.14949E-06-1.77773E-07 2.60660E-06-2.98143E-10 5.20515E-12 8.30229E-08
 -1     11131-2.14949E-06-1.77773E-07 2.60660E-06-2.98143E-10-5.20515E-12-8.30229E-08
 -1     11132-1.98769E-06-1.77777E-07 2.44483E-06-5.35357E-12 9.33531E-14 7.73768E-08
 -1     11134-1.98769E-06-1.77777E-07 2.44483E-06-5.35357E-12-9.33531E-14-7.73768E-08
 -1     11135-2.26918E-06-1.77775E-07 2.72635E-06 3.35497E-10-5.85699E-12 8.72028E-08
 -1     11137-2.26918E-06-1.77775E-07 2.72635E-06 3.35497E-10 5.85699E-12-8.72028E-08
 -1     11138-2.39787E-06-1.77771E-07 2.85498E-06-3.73604E-10 6.52282E-12 9.16949E-08
 -1     11140-2.39787E-06-1.77771E-07 2.85498E-06-3.73604E-10-6.52282E-12-9.16949E-08
 -1     11141-2.20961E-06-1.77782E-07 2.66675E-06-7.86975E-12 1.37196E-13 8.51255E-08
 -1     11143-2.20961E-06-1.77782E-07 2.66675E-06-7.86975E-12-1.37196E-13-8.51255E-08
 -1     11144-1.26308E-06-1.77776E-07 1.72022E-06 1.13923E-10-1.98888E-12 5.20754E-08
 -1     11146-1.26308E-06-1.77776E-07 1.72022E-06 1.13923E-10 1.98888E-12-5.20754E-08
 -1     11147-1.32109E-06-1.77776E-07 1.77823E-06-1.22969E-10 2.14679E-12 5.41008E-08
 -1     11149-1.32109E-06-1.77776E-07 1.77823E-06-1.22969E-10-2.14679E-12-5.41008E-08
 -1     11150-4.21977E-06-1.77776E-07 4.67938E-06 1.69375E-12-2.95723E-14 1.55349E-07
 -1     11152-4.21977E-06-1.77776E-07 4.67938E-06 1.69375E-12 2.95723E-14-1.55349E-07
 -1     11153-9.35032E-07-1.77776E-07 1.39217E-06-6.90200E-11 1.20497E-12 4.06226E-08
 -1     11155-9.35032E-07-1.77776E-07 1.39217E-06-6.90200E-11-1.20497E-12-4.06226E-08
 -1     11156-9.55197E-07-1.77776E-07 1.41234E-06 4.67400E-14-8.13076E-16 4.13273E-08
 -1     11158-9.55197E-07-1.77776E-07 1.41234E-06 4.67400E-14 8.13076E-16-4.13273E-08
 -1     11159-8.97206E-07-1.77776E-07 1.35434E-06 6.46544E-11-1.12874E-12 3.93020E-08
 -1     11161-8.97206E-07-1.77776E-07 1.35434E-06 6.46544E-11 1.12874E-12-3.93020E-08
 -1     11162-1.06082E-06-1.77776E-07 1.51796E-06 8.51699E-11-1.48691E-12 4.50141E-08
 -1     11164-1.06082E-06-1.77776E-07 1.51796E-06 8.51699E-11 1.48691E-12-4.50141E-08
 -1     11165-1.10734E-06-1.77776E-07 1.56448E-06-9.13821E-11 1.59535E-12 4.66384E-08
 -1     11167-1.10734E-06-1.77776E-07 1.56448E-06-9.13821E-11-1.59535E-12-4.66384E-08
 -1     11168-8.79391E-07-1.77776E-07 1.33653E-06 1.11215E-14-1.90624E-16 3.86807E-08
 -1     11170-8.79391E-07-1.77776E-07 1.33653E-06 1.11215E-14 1.90624E-16-3.86807E-08
 -1     11171-1.13222E-06-1.77776E-07 1.58936E-06 8.47147E-14-1.48030E-15 4.75078E-08
 -1     11173-1.13222E-06-1.77776E-07 1.58936E-06 8.47147E-14 1.48030E-15-4.75078E-08
 -1     11174-7.62805E-07-1.77776E-07 1.21994E-06 5.03499E-11-8.79015E-13 3.46098E-08
 -1     11176-7.62805E-07-1.77776E-07 1.21994E-06 5.03499E-11 8.79015E-13-3.46098E-08
 -1     11177-7.94074E-07-1.77776E-07 1.25121E-06-5.35007E-11 9.34017E-13 3.57015E-08
 -1     11179-7.94074E-07-1.77776E-07 1.25121E-06-5.35007E-11-9.34017E-13-3.57015E-08
 -1     11180-5.35786E-07-1.77776E-07 9.92925E-07-3.01684E-11 5.26683E-13 2.66842E-08
 -1     11182-5.35786E-07-1.77776E-07 9.92925E-07-3.01684E-11-5.26683E-13-2.66842E-08
 -1     11183-5.46471E-07-1.77776E-07 1.00361E-06-1.03764E-14 1.81077E-16 2.70576E-08
 -1     11185-5.46471E-07-1.77776E-07 1.00361E-06-1.03764E-14-1.81077E-16-2.70576E-08
 -1     11186-5.15455E-07-1.77776E-07 9.72593E-07 2.87183E-11-5.01356E-13 2.59744E-08
 -1     11188-5.15455E-07-1.77776E-07 9.72593E-07 2.87183E-11 5.01356E-13-2.59744E-08
 -1     11189-4.33025E-07-1.77776E-07 8.90164E-07-2.42889E-13 4.24224E-15 2.30969E-08
 -1     11191-4.33025E-07-1.77776E-07 8.90164E-07-2.42889E-13-4.24224E-15-2.30969E-08
 -1     11192-6.02014E-07-1.77776E-07 1.05915E-06 3.55474E-11-6.20587E-13 2.89963E-08
 -1     11194-6.02014E-07-1.77776E-07 1.05915E-06 3.55474E-11 6.20587E-13-2.89963E-08
 -1     11195-6.25985E-07-1.77776E-07 1.08312E-06-3.75677E-11 6.55858E-13 2.98332E-08
 -1     11197-6.25985E-07-1.77776E-07 1.08312E-06-3.75677E-11-6.55858E-13-2.98332E-08
 -1     11198-5.05710E-07-1.77776E-07 9.62848E-07-6.11868E-14 1.06490E-15 2.56345E-08
 -1     11200-5.05710E-07-1.77776E-07 9.62848E-07-6.11868E-14-1.06490E-15-2.56345E-08
 -1     11201-6.38625E-07-1.77776E-07 1.09576E-06 1.67641E-14-2.92860E-16 3.02749E-08
 -1     11203-6.38625E-07-1.77776E-07 1.09576E-06 1.67641E-14 2.92860E-16-3.02749E-08
 -1     11204-4.22150E-06-1.77777E-07 4.68109E-06-3.05022E-12 5.32557E-14 1.55409E-07
 -1     11206-4.22150E-06-1.77777E-07 4.68109E-06-3.05022E-12-5.32557E-14-1.55409E-07
 -1     11207-3.77905E-07-1.77776E-07 8.35044E-07 1.93063E-11-3.37024E-13 2.11724E-08
 -1     11209-3.77905E-07-1.77776E-07 8.35044E-07 1.93063E-11 3.37024E-13-2.11724E-08
 -1     11210-3.92897E-07-1.77776E-07 8.50035E-07-1.98293E-11 3.46205E-13 2.16958E-08
 -1     11212-3.92897E-07-1.77776E-07 8.50035E-07-1.98293E-11-3.46205E-13-2.16958E-08
 -1     11213-2.22786E-07-1.77776E-07 6.79948E-07 1.45671E-12-2.54271E-14 1.57574E-08
 -1     11215-2.22786E-07-1.77776E-07 6.79948E-07 1.45671E-12 2.54271E-14-1.57574E-08
 -1     11216-2.98515E-07-1.77777E-07 7.55660E-07 1.33483E-11-2.33029E-13 1.84009E-08
 -1     11218-2.98515E-07-1.77777E-07 7.55660E-07 1.33483E-11 2.33029E-13-1.84009E-08
 -1     11219-3.10357E-07-1.77776E-07 7.67491E-07-1.38347E-11 2.41623E-13 1.88141E-08
 -1     11221-3.10357E-07-1.77776E-07 7.67491E-07-1.38347E-11-2.41623E-13-1.88141E-08
 -1     11222-2.56717E-07-1.77775E-07 7.13847E-07 7.16150E-12-1.25617E-13 1.69414E-08
 -1     11224-2.56717E-07-1.77775E-07 7.13847E-07 7.16150E-12 1.25617E-13-1.69414E-08
 -1     11225-2.67097E-07-1.77774E-07 7.24230E-07-9.92514E-12 1.72805E-13 1.73038E-08
 -1     11227-2.67097E-07-1.77774E-07 7.24230E-07-9.92514E-12-1.72805E-13-1.73038E-08
 -1     11228-2.53639E-07-1.77776E-07 7.10768E-07 4.70791E-13-7.08575E-15 1.68340E-08
 -1     11230-2.53639E-07-1.77776E-07 7.10768E-07 4.70791E-13 7.08575E-15-1.68340E-08
 -1     11231-4.45840E-06-1.77773E-07 4.91405E-06 5.26929E-11-9.20146E-13 1.63626E-07
 -1     11233-4.45840E-06-1.77773E-07 4.91405E-06 5.26929E-11 9.20146E-13-1.63626E-07
 -1     11234-4.17210E-06-1.77838E-07 4.63190E-06-5.24856E-11 9.16204E-13 1.53690E-07
 -1     11236-4.17210E-06-1.77838E-07 4.63190E-06-5.24856E-11-9.16204E-13-1.53690E-07
 -1     11237-4.46304E-06-1.77768E-07 4.91878E-06 2.99501E-11-5.21129E-13 1.63790E-07
 -1     11239-4.46304E-06-1.77768E-07 4.91878E-06 2.99501E-11 5.21129E-13-1.63790E-07
 -1     11240-3.16135E-07-1.77776E-07 7.73273E-07-1.12099E-12 1.96154E-14 1.90161E-08
 -1     11242-3.16135E-07-1.77776E-07 7.73273E-07-1.12099E-12-1.96154E-14-1.90161E-08
 -1     11243-4.00580E-07-1.77776E-07 8.57718E-07-4.36497E-13 7.63295E-15 2.19642E-08
 -1     11245-4.00580E-07-1.77776E-07 8.57718E-07-4.36497E-13-7.63295E-15-2.19642E-08
 -1     11246-3.70395E-07-1.77776E-07 8.27533E-07-5.84659E-13 1.02257E-14 2.09104E-08
 -1     11248-3.70395E-07-1.77776E-07 8.27533E-07-5.84659E-13-1.02257E-14-2.09104E-08
 -1     11249-4.18437E-06-1.77771E-07 4.64409E-06-1.27021E-10 2.21745E-12 1.54116E-07
 -1     11251-4.18437E-06-1.77771E-07 4.64409E-06-1.27021E-10-2.21745E-12-1.54116E-07
 -1     11252-2.15570E-07-1.77776E-07 6.72695E-07-1.02350E-13 1.78361E-15 1.55050E-08
 -1     11254-2.15570E-07-1.77776E-07 6.72695E-07-1.02350E-13-1.78361E-15-1.55050E-08
 -1     11255-2.15513E-07-1.77776E-07 6.72639E-07-5.80114E-14 1.02904E-15 1.55030E-08
 -1     11257-2.15513E-07-1.77776E-07 6.72639E-07-5.80114E-14-1.02904E-15-1.55030E-08
 -1     11258-1.35219E-06-1.77776E-07 1.80933E-06-2.31491E-13 4.04359E-15 5.51880E-08
 -1     11260-1.35219E-06-1.77776E-07 1.80933E-06-2.31491E-13-4.04359E-15-5.51880E-08
 -1     11261-2.15494E-07-1.77776E-07 6.72620E-07 5.94724E-14-1.04154E-15 1.55023E-08
 -1     11263-2.15494E-07-1.77776E-07 6.72620E-07 5.94724E-14 1.04154E-15-1.55023E-08
 -1     11264-2.15518E-07-1.77776E-07 6.72644E-07 9.52873E-14-1.67404E-15 1.55032E-08
 -1     11266-2.15518E-07-1.77776E-07 6.72644E-07 9.52873E-14 1.67404E-15-1.55032E-08
 -1     11267-2.15465E-07-1.77776E-07 6.72591E-07-3.26170E-14 5.70747E-16 1.55013E-08
 -1     11269-2.15465E-07-1.77776E-07 6.72591E-07-3.26170E-14-5.70747E-16-1.55013E-08
 -1     11270-2.15463E-07-1.77776E-07 6.72589E-07-2.60436E-15 4.89074E-17 1.55012E-08
 -1     11272-2.15463E-07-1.77776E-07 6.72589E-07-2.60436E-15-4.89075E-17-1.55012E-08
 -1     11273-2.15345E-07-1.77776E-07 6.72472E-07 1.23982E-13-2.19027E-15 1.54971E-08
 -1     11275-2.15345E-07-1.77776E-07 6.72472E-07 1.23982E-13 2.19027E-15-1.54971E-08
 -1     11276-2.15395E-07-1.77776E-07 6.72520E-07 1.56738E-13-2.73762E-15 1.54988E-08
 -1     11278-2.15395E-07-1.77776E-07 6.72520E-07 1.56738E-13 2.73762E-15-1.54988E-08
 -1     11279-2.14987E-07-1.77776E-07 6.72114E-07 1.37824E-13-2.43864E-15 1.54846E-08
 -1     11281-2.14987E-07-1.77776E-07 6.72114E-07 1.37824E-13 2.43864E-15-1.54846E-08
 -1     11282-2.15038E-07-1.77776E-07 6.72164E-07 1.47212E-13-2.59287E-15 1.54864E-08
 -1     11284-2.15038E-07-1.77776E-07 6.72164E-07 1.47212E-13 2.59287E-15-1.54864E-08
 -1     11285-2.15337E-07-1.77776E-07 6.72463E-07-2.10237E-13 3.82581E-15 1.54968E-08
 -1     11287-2.15337E-07-1.77776E-07 6.72463E-07-2.10237E-13-3.82581E-15-1.54968E-08
 -1     11288-2.15028E-07-1.77776E-07 6.72155E-07-7.46676E-13 1.29782E-14 1.54861E-08
 -1     11290-2.15028E-07-1.77776E-07 6.72155E-07-7.46676E-13-1.29782E-14-1.54861E-08
 -1     11291-3.23145E-06-1.77715E-07 3.68821E-06 6.01687E-10-1.05034E-11 1.20794E-07
 -1     11293-3.23145E-06-1.77715E-07 3.68821E-06 6.01687E-10 1.05034E-11-1.20794E-07
 -1     11294-3.43739E-06-1.77868E-07 3.89510E-06-5.15592E-10 8.99932E-12 1.27999E-07
 -1     11296-3.43739E-06-1.77868E-07 3.89510E-06-5.15592E-10-8.99932E-12-1.27999E-07
 -1     11297-3.14684E-06-1.77683E-07 3.60383E-06 2.37284E-11-4.09182E-13 1.17850E-07
 -1     11299-3.14684E-06-1.77683E-07 3.60383E-06 2.37284E-11 4.09182E-13-1.17850E-07
 -1     11300-2.22799E-07-1.77776E-07 6.79959E-07-1.24258E-13 2.16844E-15 1.57578E-08
 -1     11302-2.22799E-07-1.77776E-07 6.79959E-07-1.24258E-13-2.16844E-15-1.57578E-08
 -1     11303-2.23075E-07-1.77776E-07 6.80238E-07-6.58803E-13 1.15003E-14 1.57675E-08
 -1     11305-2.23075E-07-1.77776E-07 6.80238E-07-6.58803E-13-1.15003E-14-1.57675E-08
 -1     11306-2.53938E-06-1.77783E-07 2.99654E-06 4.12761E-10-7.20527E-12 9.66368E-08
 -1     11308-2.53938E-06-1.77783E-07 2.99654E-06 4.12761E-10 7.20527E-12-9.66368E-08
 -1     11309-2.69024E-06-1.77770E-07 3.14739E-06-4.82164E-10 8.41878E-12 1.01904E-07
 -1     11311-2.69024E-06-1.77770E-07 3.14739E-06-4.82164E-10-8.41878E-12-1.01904E-07
 -1     11312-2.78182E-06-1.77797E-07 3.23895E-06 1.62182E-11-2.82571E-13 1.05107E-07
 -1     11314-2.78182E-06-1.77797E-07 3.23895E-06 1.62182E-11 2.82571E-13-1.05107E-07
 -1     11315-2.47057E-06-1.77786E-07 2.92771E-06-6.05669E-12 1.05668E-13 9.42380E-08
 -1     11317-2.47057E-06-1.77786E-07 2.92771E-06-6.05669E-12-1.05668E-13-9.42380E-08
 -1     11318-2.23755E-07-1.77775E-07 6.80915E-07 2.30939E-12-4.02977E-14 1.57912E-08
 -1     11320-2.23755E-07-1.77775E-07 6.80915E-07 2.30939E-12 4.02977E-14-1.57912E-08
 -1     11321-2.71661E-07-1.77776E-07 7.28794E-07-4.16586E-13 7.94030E-15 1.74633E-08
 -1     11323-2.71661E-07-1.77776E-07 7.28794E-07-4.16586E-13-7.94030E-15-1.74633E-08
 -1     11324-2.23585E-07-1.77776E-07 6.80750E-07 4.93690E-13-8.61885E-15 1.57854E-08
 -1     11326-2.23585E-07-1.77776E-07 6.80750E-07 4.93690E-13 8.61885E-15-1.57854E-08
 -1     11327-4.22155E-06-1.77776E-07 4.68115E-06 3.48019E-12-6.07562E-14 1.55411E-07
 -1     11329-4.22155E-06-1.77776E-07 4.68115E-06 3.48019E-12 6.07562E-14-1.55411E-07
 -1     11330-4.22477E-06-1.77729E-07 4.68429E-06 2.05395E-11-3.58757E-13 1.55522E-07
 -1     11332-4.22477E-06-1.77729E-07 4.68429E-06 2.05395E-11 3.58757E-13-1.55522E-07
 -1     11333-4.21974E-06-1.77776E-07 4.67935E-06-1.94727E-12 3.39959E-14 1.55348E-07
 -1     11335-4.21974E-06-1.77776E-07 4.67935E-06-1.94727E-12-3.39959E-14-1.55348E-07
 -1     11336-8.10626E-07-1.77776E-07 1.26776E-06 2.91281E-15-5.00538E-17 3.62799E-08
 -1     11338-8.10626E-07-1.77776E-07 1.26776E-06 2.91280E-15 5.00537E-17-3.62799E-08
 -1     11339-2.23644E-07-1.77776E-07 6.80808E-07-2.55076E-13 4.45304E-15 1.57874E-08
 -1     11341-2.23644E-07-1.77776E-07 6.80808E-07-2.55076E-13-4.45304E-15-1.57874E-08
 -1     11342-1.23604E-06-1.77776E-07 1.69318E-06-3.13682E-14 5.50298E-16 5.11328E-08
 -1     11344-1.23604E-06-1.77776E-07 1.69318E-06-3.13681E-14-5.50298E-16-5.11328E-08
 -1     11345-1.03907E-06-1.77776E-07 1.49621E-06 6.49185E-14-1.13370E-15 4.42557E-08
 -1     11347-1.03907E-06-1.77776E-07 1.49621E-06 6.49185E-14 1.13370E-15-4.42557E-08
 -1     11348-7.48043E-07-1.77776E-07 1.20518E-06-5.03788E-15 8.82668E-17 3.40949E-08
 -1     11350-7.48043E-07-1.77776E-07 1.20518E-06-5.03788E-15-8.82668E-17-3.40949E-08
 -1     11351-5.90631E-07-1.77776E-07 1.04777E-06-4.78554E-15 8.23315E-17 2.85993E-08
 -1     11353-5.90631E-07-1.77776E-07 1.04777E-06-4.78553E-15-8.23315E-17-2.85993E-08
 -1     11354-2.92282E-07-1.77775E-07 7.49418E-07-7.03493E-13 1.24437E-14 1.81833E-08
 -1     11356-2.92282E-07-1.77775E-07 7.49418E-07-7.03493E-13-1.24437E-14-1.81833E-08
 -1     11357-2.22805E-07-1.77776E-07 6.79967E-07-6.77031E-13 1.18196E-14 1.57581E-08
 -1     11359-2.22805E-07-1.77776E-07 6.79967E-07-6.77031E-13-1.18196E-14-1.57581E-08
 -1     11360-2.23319E-07-1.77776E-07 6.80483E-07-6.39118E-13 1.11576E-14 1.57761E-08
 -1     11362-2.23319E-07-1.77776E-07 6.80483E-07-6.39118E-13-1.11576E-14-1.57761E-08
 -1     11363-2.23551E-07-1.77776E-07 6.80714E-07 4.77270E-14-8.33115E-16 1.57841E-08
 -1     11365-2.23551E-07-1.77776E-07 6.80714E-07 4.77270E-14 8.33115E-16-1.57841E-08
 -1     11366-2.23737E-07-1.77776E-07 6.80902E-07 2.86375E-13-4.99938E-15 1.57907E-08
 -1     11368-2.23737E-07-1.77776E-07 6.80902E-07 2.86375E-13 4.99938E-15-1.57907E-08
 -1     11369-2.23553E-07-1.77776E-07 6.80716E-07-1.41996E-13 2.47897E-15 1.57842E-08
 -1     11371-2.23553E-07-1.77776E-07 6.80716E-07-1.41996E-13-2.47897E-15-1.57842E-08
 -1     11372-2.23533E-07-1.77776E-07 6.80697E-07 8.24092E-14-1.43854E-15 1.57835E-08
 -1     11374-2.23533E-07-1.77776E-07 6.80697E-07 8.24091E-14 1.43854E-15-1.57835E-08
 -1     11375-2.23501E-07-1.77776E-07 6.80665E-07-2.03559E-13 3.55405E-15 1.57824E-08
 -1     11377-2.23501E-07-1.77776E-07 6.80665E-07-2.03559E-13-3.55405E-15-1.57824E-08
 -1     11378-6.77125E-07-1.77776E-07 1.13426E-06 4.20678E-11-7.34422E-13 3.16186E-08
 -1     11380-6.77125E-07-1.77776E-07 1.13426E-06 4.20678E-11 7.34422E-13-3.16186E-08
 -1     11381-7.04418E-07-1.77776E-07 1.16156E-06-4.46055E-11 7.78725E-13 3.25714E-08
 -1     11383-7.04418E-07-1.77776E-07 1.16156E-06-4.46055E-11-7.78725E-13-3.25714E-08
 -1     11384-2.32186E-07-1.77776E-07 6.89311E-07 1.52047E-13-2.66209E-15 1.60851E-08
 -1     11386-2.32186E-07-1.77776E-07 6.89311E-07 1.52047E-13 2.66209E-15-1.60851E-08
 -1     11387-2.32244E-07-1.77776E-07 6.89368E-07 2.32418E-13-4.07489E-15 1.60871E-08
 -1     11389-2.32244E-07-1.77776E-07 6.89368E-07 2.32418E-13 4.07489E-15-1.60871E-08
 -1     11390-3.98793E-06-1.77778E-07 4.44398E-06-9.11874E-12 1.58954E-13 1.47202E-07
 -1     11392-3.98793E-06-1.77778E-07 4.44398E-06-9.11874E-12-1.58954E-13-1.47202E-07
 -1     11393-3.98763E-06-1.77775E-07 4.44367E-06 1.14505E-11-1.99695E-13 1.47191E-07
 -1     11395-3.98763E-06-1.77775E-07 4.44367E-06 1.14505E-11 1.99695E-13-1.47191E-07
 -1     11396-3.99695E-06-1.77784E-07 4.45300E-06-2.54200E-12 4.07921E-14 1.47515E-07
 -1     11398-3.99695E-06-1.77784E-07 4.45300E-06-2.54200E-12-4.07921E-14-1.47515E-07
 -1     11399-4.00063E-06-1.77801E-07 4.45671E-06 1.54006E-11-2.64531E-13 1.47645E-07
 -1     11401-4.00063E-06-1.77801E-07 4.45671E-06 1.54006E-11 2.64531E-13-1.47645E-07
 -1     11402-3.97959E-06-1.77730E-07 4.43572E-06-1.22854E-10 2.11774E-12 1.46909E-07
 -1     11404-3.97959E-06-1.77730E-07 4.43572E-06-1.22854E-10-2.11774E-12-1.46909E-07
 -1     11405-7.94055E-07-1.77776E-07 1.25119E-06 5.34350E-11-9.32874E-13 3.57008E-08
 -1     11407-7.94055E-07-1.77776E-07 1.25119E-06 5.34350E-11 9.32874E-13-3.57008E-08
 -1     11408-8.26807E-07-1.77776E-07 1.28394E-06-5.68689E-11 9.92821E-13 3.68442E-08
 -1     11410-8.26807E-07-1.77776E-07 1.28394E-06-5.68689E-11-9.92821E-13-3.68442E-08
 -1     11411-7.32950E-07-1.77776E-07 1.19009E-06 4.73187E-11-8.26094E-13 3.35675E-08
 -1     11413-7.32950E-07-1.77776E-07 1.19009E-06 4.73187E-11 8.26094E-13-3.35675E-08
 -1     11414-7.62804E-07-1.77776E-07 1.21994E-06-5.02553E-11 8.77359E-13 3.46098E-08
 -1     11416-7.62804E-07-1.77776E-07 1.21994E-06-5.02553E-11-8.77359E-13-3.46098E-08
 -1     11417-7.78611E-07-1.77776E-07 1.23575E-06 5.99346E-15-1.01417E-16 3.51622E-08
 -1     11419-7.78611E-07-1.77776E-07 1.23575E-06 5.99345E-15 1.01417E-16-3.51622E-08
 -1     11420-7.18849E-07-1.77776E-07 1.17599E-06 1.80512E-14-3.12902E-16 3.30757E-08
 -1     11422-7.18849E-07-1.77776E-07 1.17599E-06 1.80512E-14 3.12902E-16-3.30757E-08
 -1     11423-2.30738E-07-1.77776E-07 6.87864E-07 6.31455E-13-1.09355E-14 1.60345E-08
 -1     11425-2.30738E-07-1.77776E-07 6.87864E-07 6.31455E-13 1.09355E-14-1.60345E-08
 -1     11426-2.30597E-07-1.77777E-07 6.87723E-07 8.20956E-13-1.45536E-14 1.60295E-08
 -1     11428-2.30597E-07-1.77777E-07 6.87723E-07 8.20956E-13 1.45536E-14-1.60295E-08
 -1     11429-2.32466E-07-1.77776E-07 6.89590E-07-2.03264E-13 3.53342E-15 1.60948E-08
 -1     11431-2.32466E-07-1.77776E-07 6.89590E-07-2.03264E-13-3.53342E-15-1.60948E-08
 -1     11432-2.32416E-07-1.77776E-07 6.89541E-07-1.34799E-13 2.38381E-15 1.60931E-08
 -1     11434-2.32416E-07-1.77776E-07 6.89541E-07-1.34799E-13-2.38381E-15-1.60931E-08
 -1     11435-3.98516E-06-1.77778E-07 4.44120E-06-1.15049E-11 2.00839E-13 1.47105E-07
 -1     11437-3.98516E-06-1.77778E-07 4.44120E-06-1.15049E-11-2.00839E-13-1.47105E-07
 -1     11438-3.98501E-06-1.77776E-07 4.44105E-06 8.20417E-12-1.43396E-13 1.47100E-07
 -1     11440-3.98501E-06-1.77776E-07 4.44105E-06 8.20417E-12 1.43396E-13-1.47100E-07
 -1     11441-3.99215E-06-1.77757E-07 4.44821E-06 1.24528E-11-2.15283E-13 1.47349E-07
 -1     11443-3.99215E-06-1.77757E-07 4.44821E-06 1.24528E-11 2.15283E-13-1.47349E-07
 -1     11444-3.98944E-06-1.77772E-07 4.44547E-06 5.17208E-11-9.02738E-13 1.47254E-07
 -1     11446-3.98944E-06-1.77772E-07 4.44547E-06 5.17208E-11 9.02738E-13-1.47254E-07
 -1     11447-3.76399E-06-1.77831E-07 4.22306E-06-1.30959E-10 2.28609E-12 1.39426E-07
 -1     11449-3.76399E-06-1.77831E-07 4.22306E-06-1.30959E-10-2.28609E-12-1.39426E-07
 -1     11450-3.98685E-06-1.77778E-07 4.44291E-06-2.05073E-13 3.24626E-15 1.47164E-07
 -1     11452-3.98685E-06-1.77778E-07 4.44291E-06-2.05073E-13-3.24626E-15-1.47164E-07
 -1     11453-3.98505E-06-1.77778E-07 4.44108E-06 2.19422E-11-3.82498E-13 1.47101E-07
 -1     11455-3.98505E-06-1.77778E-07 4.44108E-06 2.19422E-11 3.82498E-13-1.47101E-07
 -1     11456-3.75314E-06-1.77778E-07 4.21224E-06-7.35441E-12 1.28402E-13 1.39047E-07
 -1     11458-3.75314E-06-1.77778E-07 4.21224E-06-7.35441E-12-1.28402E-13-1.39047E-07
 -1     11459-1.75033E-06-1.77774E-07 2.20747E-06 1.99166E-10-3.47723E-12 6.90870E-08
 -1     11461-1.75033E-06-1.77774E-07 2.20747E-06 1.99166E-10 3.47723E-12-6.90870E-08
 -1     11462-1.83927E-06-1.77776E-07 2.29640E-06-2.15528E-10 3.76260E-12 7.21921E-08
 -1     11464-1.83927E-06-1.77776E-07 2.29640E-06-2.15528E-10-3.76260E-12-7.21921E-08
 -1     11465-2.32088E-07-1.77776E-07 6.89213E-07-1.17698E-13 2.06715E-15 1.60816E-08
 -1     11467-2.32088E-07-1.77776E-07 6.89213E-07-1.17698E-13-2.06715E-15-1.60816E-08
 -1     11468-2.32075E-07-1.77776E-07 6.89201E-07-5.62945E-14 9.91554E-16 1.60812E-08
 -1     11470-2.32075E-07-1.77776E-07 6.89201E-07-5.62945E-14-9.91554E-16-1.60812E-08
 -1     11471-3.97034E-06-1.77781E-07 4.42643E-06 4.15616E-11-7.25340E-13 1.46589E-07
 -1     11473-3.97034E-06-1.77781E-07 4.42643E-06 4.15616E-11 7.25340E-13-1.46589E-07
 -1     11474-3.96279E-06-1.77782E-07 4.41875E-06 6.39886E-11-1.11484E-12 1.46322E-07
 -1     11476-3.96279E-06-1.77782E-07 4.41875E-06 6.39886E-11 1.11484E-12-1.46322E-07
 -1     11477-1.20825E-06-1.77776E-07 1.66538E-06 1.05772E-10-1.84659E-12 5.01611E-08
 -1     11479-1.20825E-06-1.77776E-07 1.66538E-06 1.05772E-10 1.84659E-12-5.01611E-08
 -1     11480-1.26305E-06-1.77776E-07 1.72019E-06-1.13830E-10 1.98725E-12 5.20744E-08
 -1     11482-1.26305E-06-1.77776E-07 1.72019E-06-1.13830E-10-1.98725E-12-5.20744E-08
 -1     11483-1.01672E-06-1.77776E-07 1.47386E-06 7.93303E-11-1.38496E-12 4.34745E-08
 -1     11485-1.01672E-06-1.77776E-07 1.47386E-06 7.93303E-11 1.38496E-12-4.34745E-08
 -1     11486-1.06083E-06-1.77776E-07 1.51797E-06-8.49254E-11 1.48264E-12 4.50146E-08
 -1     11488-1.06083E-06-1.77776E-07 1.51797E-06-8.49254E-11-1.48264E-12-4.50146E-08
 -1     11489-2.32092E-07-1.77776E-07 6.89217E-07 7.24737E-14-1.29362E-15 1.60818E-08
 -1     11491-2.32092E-07-1.77776E-07 6.89217E-07 7.24737E-14 1.29362E-15-1.60818E-08
 -1     11492-2.32148E-07-1.77776E-07 6.89273E-07 1.42122E-13-2.45884E-15 1.60837E-08
 -1     11494-2.32148E-07-1.77776E-07 6.89273E-07 1.42122E-13 2.45884E-15-1.60837E-08
 -1     11495-3.98540E-06-1.77777E-07 4.44145E-06-1.21931E-11 2.12750E-13 1.47113E-07
 -1     11497-3.98540E-06-1.77777E-07 4.44145E-06-1.21931E-11-2.12750E-13-1.47113E-07
 -1     11498-3.98558E-06-1.77776E-07 4.44162E-06 7.24737E-12-1.26530E-13 1.47119E-07
 -1     11500-3.98558E-06-1.77776E-07 4.44162E-06 7.24737E-12 1.26530E-13-1.47119E-07
 -1     11501-3.75066E-06-1.77773E-07 4.20977E-06 3.65588E-12-6.38289E-14 1.38961E-07
 -1     11503-3.75066E-06-1.77773E-07 4.20977E-06 3.65588E-12 6.38289E-14-1.38961E-07
 -1     11504-2.31970E-07-1.77775E-07 6.89093E-07-2.50724E-12 4.41995E-14 1.60774E-08
 -1     11506-2.31970E-07-1.77775E-07 6.89093E-07-2.50724E-12-4.41995E-14-1.60774E-08
 -1     11507-2.31143E-07-1.77777E-07 6.88272E-07-1.85775E-12 3.23131E-14 1.60487E-08
 -1     11509-2.31143E-07-1.77777E-07 6.88272E-07-1.85775E-12-3.23131E-14-1.60487E-08
 -1     11510-2.41493E-07-1.77777E-07 6.98652E-07 6.91404E-12-1.20640E-13 1.64104E-08
 -1     11512-2.41493E-07-1.77777E-07 6.98652E-07 6.91404E-12 1.20640E-13-1.64104E-08
 -1     11513-1.10734E-06-1.77776E-07 1.56448E-06 9.14351E-11-1.59629E-12 4.66383E-08
 -1     11515-1.10734E-06-1.77776E-07 1.56448E-06 9.14351E-11 1.59629E-12-4.66383E-08
 -1     11516-1.15642E-06-1.77776E-07 1.61356E-06-9.81101E-11 1.71282E-12 4.83517E-08
 -1     11518-1.15642E-06-1.77776E-07 1.61356E-06-9.81101E-11-1.71282E-12-4.83517E-08
 -1     11519-1.18268E-06-1.77776E-07 1.63982E-06 7.71491E-14-1.34801E-15 4.92697E-08
 -1     11521-1.18268E-06-1.77776E-07 1.63982E-06 7.71491E-14 1.34801E-15-4.92697E-08
 -1     11522-1.08439E-06-1.77776E-07 1.54153E-06 7.14509E-14-1.24745E-15 4.58380E-08
 -1     11524-1.08439E-06-1.77776E-07 1.54153E-06 7.14509E-14 1.24745E-15-4.58380E-08
 -1     11525-2.84855E-07-1.77778E-07 7.42009E-07 1.45151E-11-2.53118E-13 1.79242E-08
 -1     11527-2.84855E-07-1.77778E-07 7.42009E-07 1.45151E-11 2.53118E-13-1.79242E-08
 -1     11528-2.96165E-07-1.77777E-07 7.53296E-07-1.38968E-11 2.42954E-13 1.83187E-08
 -1     11530-2.96165E-07-1.77777E-07 7.53296E-07-1.38968E-11-2.42954E-13-1.83187E-08
 -1     11531-8.61145E-07-1.77776E-07 1.31828E-06 6.06290E-11-1.05847E-12 3.80431E-08
 -1     11533-8.61145E-07-1.77776E-07 1.31828E-06 6.06290E-11 1.05847E-12-3.80431E-08
 -1     11534-8.97185E-07-1.77776E-07 1.35432E-06-6.46531E-11 1.12872E-12 3.93013E-08
 -1     11536-8.97185E-07-1.77776E-07 1.35432E-06-6.46531E-11-1.12872E-12-3.93013E-08
 -1     11537-8.44176E-07-1.77776E-07 1.30131E-06 3.09329E-15-5.06633E-17 3.74512E-08
 -1     11539-8.44176E-07-1.77776E-07 1.30131E-06 3.09328E-15 5.06630E-17-3.74512E-08
 -1     11540-5.79019E-07-1.77776E-07 1.03616E-06 3.36738E-11-5.87877E-13 2.81936E-08
 -1     11542-5.79019E-07-1.77776E-07 1.03616E-06 3.36738E-11 5.87877E-13-2.81936E-08
 -1     11543-6.02014E-07-1.77776E-07 1.05915E-06-3.55341E-11 6.20353E-13 2.89964E-08
 -1     11545-6.02014E-07-1.77776E-07 1.05915E-06-3.55341E-11-6.20353E-13-2.89964E-08
 -1     11546-4.95798E-07-1.77776E-07 9.52936E-07 2.74346E-11-4.78952E-13 2.52882E-08
 -1     11548-4.95798E-07-1.77776E-07 9.52936E-07 2.74346E-11 4.78952E-13-2.52882E-08
 -1     11549-5.15391E-07-1.77776E-07 9.72529E-07-2.87822E-11 5.02477E-13 2.59722E-08
 -1     11551-5.15391E-07-1.77776E-07 9.72529E-07-2.87822E-11-5.02477E-13-2.59722E-08
 -1     11552-4.24385E-07-1.77776E-07 8.81524E-07 2.28065E-11-3.98127E-13 2.27951E-08
 -1     11554-4.24385E-07-1.77776E-07 8.81524E-07 2.28065E-11 3.98127E-13-2.27951E-08
 -1     11555-4.41219E-07-1.77776E-07 8.98357E-07-2.36120E-11 4.12245E-13 2.33828E-08
 -1     11557-4.41219E-07-1.77776E-07 8.98357E-07-2.36120E-11-4.12245E-13-2.33828E-08
 -1     11558-3.92634E-06-1.77726E-07 4.38233E-06 3.11208E-11-5.39064E-13 1.45053E-07
 -1     11560-3.92634E-06-1.77726E-07 4.38233E-06 3.11208E-11 5.39064E-13-1.45053E-07
 -1     11561-3.92331E-06-1.77760E-07 4.37924E-06 7.87310E-11-1.37848E-12 1.44946E-07
 -1     11563-3.92331E-06-1.77760E-07 4.37924E-06 7.87310E-11 1.37848E-12-1.44946E-07
 -1     11564-3.94958E-06-1.77773E-07 4.40565E-06 7.18678E-11-1.25269E-12 1.45865E-07
 -1     11566-3.94958E-06-1.77773E-07 4.40565E-06 7.18678E-11 1.25269E-12-1.45865E-07
 -1     11567-3.94108E-06-1.77791E-07 4.39700E-06 8.94208E-11-1.55855E-12 1.45565E-07
 -1     11569-3.94108E-06-1.77791E-07 4.39700E-06 8.94208E-11 1.55855E-12-1.45565E-07
 -1     11570-3.71900E-06-1.77752E-07 4.17812E-06-1.52743E-10 2.66666E-12 1.37856E-07
 -1     11572-3.71900E-06-1.77752E-07 4.17812E-06-1.52743E-10-2.66666E-12-1.37856E-07
 -1     11573-2.31124E-07-1.77776E-07 6.88249E-07-1.93591E-12 3.40140E-14 1.60480E-08
 -1     11575-2.31124E-07-1.77776E-07 6.88249E-07-1.93591E-12-3.40140E-14-1.60480E-08
 -1     11576-2.30935E-07-1.77775E-07 6.88062E-07-1.79363E-12 3.14065E-14 1.60414E-08
 -1     11578-2.30935E-07-1.77775E-07 6.88062E-07-1.79363E-12-3.14065E-14-1.60414E-08
 -1     11579-2.31123E-07-1.77776E-07 6.88249E-07-3.19756E-13 5.45166E-15 1.60479E-08
 -1     11581-2.31123E-07-1.77776E-07 6.88249E-07-3.19756E-13-5.45166E-15-1.60479E-08
 -1     11582-2.31274E-07-1.77776E-07 6.88399E-07 3.36693E-13-5.86107E-15 1.60532E-08
 -1     11584-2.31274E-07-1.77776E-07 6.88399E-07 3.36693E-13 5.86107E-15-1.60532E-08
 -1     11585-2.39055E-07-1.77778E-07 6.96219E-07-2.73672E-12 4.77938E-14 1.63254E-08
 -1     11587-2.39055E-07-1.77778E-07 6.96219E-07-2.73672E-12-4.77938E-14-1.63254E-08
 -1     11588-2.32281E-07-1.77776E-07 6.89405E-07-1.64169E-13 2.87624E-15 1.60884E-08
 -1     11590-2.32281E-07-1.77776E-07 6.89405E-07-1.64169E-13-2.87624E-15-1.60884E-08
 -1     11591-2.32176E-07-1.77776E-07 6.89301E-07-7.73608E-14 1.32677E-15 1.60847E-08
 -1     11593-2.32176E-07-1.77776E-07 6.89301E-07-7.73608E-14-1.32677E-15-1.60847E-08
 -1     11594-2.41008E-07-1.77776E-07 6.98174E-07 8.25021E-13-1.44028E-14 1.63936E-08
 -1     11596-2.41008E-07-1.77776E-07 6.98174E-07 8.25021E-13 1.44028E-14-1.63936E-08
 -1     11597-9.35044E-07-1.77776E-07 1.39218E-06 6.91597E-11-1.20740E-12 4.06230E-08
 -1     11599-9.35044E-07-1.77776E-07 1.39218E-06 6.91597E-11 1.20740E-12-4.06230E-08
 -1     11600-9.74841E-07-1.77776E-07 1.43198E-06-7.38855E-11 1.28990E-12 4.20124E-08
 -1     11602-9.74841E-07-1.77776E-07 1.43198E-06-7.38855E-11-1.28990E-12-4.20124E-08
 -1     11603-9.96047E-07-1.77776E-07 1.45319E-06 4.27724E-14-7.43737E-16 4.27536E-08
 -1     11605-9.96047E-07-1.77776E-07 1.45319E-06 4.27724E-14 7.43737E-16-4.27536E-08
 -1     11606-9.16345E-07-1.77776E-07 1.37348E-06 1.72481E-14-2.97098E-16 3.99709E-08
 -1     11608-9.16345E-07-1.77776E-07 1.37348E-06 1.72481E-14 2.97098E-16-3.99709E-08
 -1     11609-2.54487E-07-1.77773E-07 7.11614E-07 6.88112E-12-1.18958E-13 1.68637E-08
 -1     11611-2.54487E-07-1.77773E-07 7.11614E-07 6.88112E-12 1.18958E-13-1.68637E-08
 -1     11612-2.63191E-07-1.77779E-07 7.20353E-07 3.06061E-12-5.33929E-14 1.71680E-08
 -1     11614-2.63191E-07-1.77779E-07 7.20353E-07 3.06061E-12 5.33929E-14-1.71680E-08
 -1     11615-2.72532E-07-1.77774E-07 7.29657E-07-1.03510E-11 1.81673E-13 1.74936E-08
 -1     11617-2.72532E-07-1.77774E-07 7.29657E-07-1.03510E-11-1.81673E-13-1.74936E-08
 -1     11618-3.08916E-07-1.77776E-07 7.66061E-07 1.64638E-11-2.87278E-13 1.87640E-08
 -1     11620-3.08916E-07-1.77776E-07 7.66061E-07 1.64638E-11 2.87278E-13-1.87640E-08
 -1     11621-3.21486E-07-1.77776E-07 7.78620E-07-1.56116E-11 2.72674E-13 1.92027E-08
 -1     11623-3.21486E-07-1.77776E-07 7.78620E-07-1.56116E-11-2.72674E-13-1.92027E-08
 -1     11624-3.01404E-07-1.77776E-07 7.58541E-07-1.97411E-12 3.44723E-14 1.85018E-08
 -1     11626-3.01404E-07-1.77776E-07 7.58541E-07-1.97411E-12-3.44723E-14-1.85018E-08
 -1     11627-2.32354E-07-1.77776E-07 6.89479E-07 1.04322E-13-1.84421E-15 1.60909E-08
 -1     11629-2.32354E-07-1.77776E-07 6.89479E-07 1.04322E-13 1.84421E-15-1.60909E-08
 -1     11630-2.32395E-07-1.77776E-07 6.89520E-07 1.93731E-13-3.39439E-15 1.60923E-08
 -1     11632-2.32395E-07-1.77776E-07 6.89520E-07 1.93731E-13 3.39439E-15-1.60923E-08
 -1     11633-2.40896E-07-1.77776E-07 6.98063E-07-5.40663E-13 9.43872E-15 1.63897E-08
 -1     11635-2.40896E-07-1.77776E-07 6.98063E-07-5.40663E-13-9.43872E-15-1.63897E-08
 -1     11636-2.32474E-07-1.77776E-07 6.89599E-07-3.39690E-14 5.66103E-16 1.60951E-08
 -1     11638-2.32474E-07-1.77776E-07 6.89599E-07-3.39690E-14-5.66103E-16-1.60951E-08
 -1     11639-2.32476E-07-1.77776E-07 6.89601E-07 9.79117E-14-1.70427E-15 1.60952E-08
 -1     11641-2.32476E-07-1.77776E-07 6.89601E-07 9.79117E-14 1.70427E-15-1.60952E-08
 -1     11642-2.41086E-07-1.77776E-07 6.98253E-07-4.78526E-13 8.35378E-15 1.63964E-08
 -1     11644-2.41086E-07-1.77776E-07 6.98253E-07-4.78526E-13-8.35378E-15-1.63964E-08
 -1     11645-3.98187E-06-1.77781E-07 4.43795E-06 1.57616E-11-2.75333E-13 1.46991E-07
 -1     11647-3.98187E-06-1.77781E-07 4.43795E-06 1.57616E-11 2.75333E-13-1.46991E-07
 -1     11648-3.97793E-06-1.77777E-07 4.43393E-06 3.98315E-11-6.93919E-13 1.46851E-07
 -1     11650-3.97793E-06-1.77777E-07 4.43393E-06 3.98315E-11 6.93919E-13-1.46851E-07
 -1     11651-3.74936E-06-1.77771E-07 4.20845E-06-3.39953E-11 5.93508E-13 1.38915E-07
 -1     11653-3.74936E-06-1.77771E-07 4.20845E-06-3.39953E-11-5.93508E-13-1.38915E-07
 -1     11654-1.32102E-06-1.77776E-07 1.77816E-06 1.22769E-10-2.14331E-12 5.40986E-08
 -1     11656-1.32102E-06-1.77776E-07 1.77816E-06 1.22769E-10 2.14331E-12-5.40986E-08
 -1     11657-1.38243E-06-1.77776E-07 1.83957E-06-1.32506E-10 2.31329E-12 5.62425E-08
 -1     11659-1.38243E-06-1.77776E-07 1.83957E-06-1.32506E-10-2.31329E-12-5.62425E-08
 -1     11660-1.29243E-06-1.77776E-07 1.74957E-06 1.96947E-14-3.44334E-16 5.31014E-08
 -1     11662-1.29243E-06-1.77776E-07 1.74957E-06 1.96947E-14 3.44335E-16-5.31014E-08
 -1     11663-2.32135E-07-1.77776E-07 6.89259E-07-7.56917E-13 1.31286E-14 1.60832E-08
 -1     11665-2.32135E-07-1.77776E-07 6.89259E-07-7.56917E-13-1.31286E-14-1.60832E-08
 -1     11666-2.31875E-07-1.77776E-07 6.89000E-07 2.57750E-13-4.30376E-15 1.60742E-08
 -1     11668-2.31875E-07-1.77776E-07 6.89000E-07 2.57749E-13 4.30376E-15-1.60742E-08
 -1     11669-2.40831E-07-1.77775E-07 6.97997E-07-5.44817E-13 9.50830E-15 1.63874E-08
 -1     11671-2.40831E-07-1.77775E-07 6.97997E-07-5.44816E-13-9.50830E-15-1.63874E-08
 -1     11672-2.32037E-07-1.77776E-07 6.89162E-07-2.42651E-14 4.36142E-16 1.60798E-08
 -1     11674-2.32037E-07-1.77776E-07 6.89162E-07-2.42651E-14-4.36142E-16-1.60798E-08
 -1     11675-2.32035E-07-1.77776E-07 6.89160E-07 3.02533E-14-5.40230E-16 1.60798E-08
 -1     11677-2.32035E-07-1.77776E-07 6.89160E-07 3.02533E-14 5.40230E-16-1.60798E-08
 -1     11678-2.40591E-07-1.77776E-07 6.97757E-07 1.77561E-13-3.09978E-15 1.63791E-08
 -1     11680-2.40591E-07-1.77776E-07 6.97757E-07 1.77561E-13 3.09978E-15-1.63791E-08
 -1     11681-3.98675E-06-1.77775E-07 4.44280E-06-7.04939E-12 1.23522E-13 1.47161E-07
 -1     11683-3.98675E-06-1.77775E-07 4.44280E-06-7.04939E-12-1.23522E-13-1.47161E-07
 -1     11684-3.98537E-06-1.77775E-07 4.44140E-06 1.88046E-11-3.28635E-13 1.47112E-07
 -1     11686-3.98537E-06-1.77775E-07 4.44140E-06 1.88046E-11 3.28635E-13-1.47112E-07
 -1     11687-3.75320E-06-1.77792E-07 4.21235E-06-2.26781E-11 3.95952E-13 1.39050E-07
 -1     11689-3.75320E-06-1.77792E-07 4.21235E-06-2.26781E-11-3.95952E-13-1.39050E-07
 -1     11690-2.32143E-07-1.77776E-07 6.89268E-07-1.16255E-13 2.02894E-15 1.60835E-08
 -1     11692-2.32143E-07-1.77776E-07 6.89268E-07-1.16255E-13-2.02894E-15-1.60835E-08
 -1     11693-2.32137E-07-1.77776E-07 6.89262E-07-5.29250E-14 9.38587E-16 1.60833E-08
 -1     11695-2.32137E-07-1.77776E-07 6.89262E-07-5.29250E-14-9.38587E-16-1.60833E-08
 -1     11696-2.40733E-07-1.77776E-07 6.97900E-07 9.72145E-14-1.69683E-15 1.63841E-08
 -1     11698-2.40733E-07-1.77776E-07 6.97900E-07 9.72145E-14 1.69683E-15-1.63841E-08
 -1     11699-2.31380E-07-1.77776E-07 6.88506E-07 3.76150E-13-6.55911E-15 1.60569E-08
 -1     11701-2.31380E-07-1.77776E-07 6.88506E-07 3.76150E-13 6.55911E-15-1.60569E-08
 -1     11702-2.31502E-07-1.77776E-07 6.88627E-07 3.70397E-13-6.53618E-15 1.60611E-08
 -1     11704-2.31502E-07-1.77776E-07 6.88627E-07 3.70397E-13 6.53618E-15-1.60611E-08
 -1     11705-2.39703E-07-1.77775E-07 6.96866E-07-2.33364E-13 4.07332E-15 1.63480E-08
 -1     11707-2.39703E-07-1.77775E-07 6.96866E-07-2.33364E-13-4.07332E-15-1.63480E-08
 -1     11708-3.93617E-06-1.77600E-07 4.39220E-06 3.51275E-12-4.99461E-14 1.45396E-07
 -1     11710-3.93617E-06-1.77600E-07 4.39220E-06 3.51275E-12 4.99461E-14-1.45396E-07
 -1     11711-3.93342E-06-1.77727E-07 4.38937E-06 2.05221E-10-3.58147E-12 1.45299E-07
 -1     11713-3.93342E-06-1.77727E-07 4.38937E-06 2.05221E-10 3.58147E-12-1.45299E-07
 -1     11714-3.64152E-06-1.77619E-07 4.09840E-06 9.01967E-10-1.57651E-11 1.35114E-07
 -1     11716-3.64152E-06-1.77619E-07 4.09840E-06 9.01967E-10 1.57651E-11-1.35114E-07
 -1     11717-3.92406E-06-1.77797E-07 4.38072E-06-7.03984E-10 1.22560E-11 1.44978E-07
 -1     11719-3.92406E-06-1.77797E-07 4.38072E-06-7.03984E-10-1.22560E-11-1.44978E-07
 -1     11720-4.58792E-07-1.77776E-07 9.15930E-07 2.49904E-11-4.36262E-13 2.39963E-08
 -1     11722-4.58792E-07-1.77776E-07 9.15930E-07 2.49904E-11 4.36262E-13-2.39963E-08
 -1     11723-4.76929E-07-1.77776E-07 9.34067E-07-2.60579E-11 4.54924E-13 2.46294E-08
 -1     11725-4.76929E-07-1.77776E-07 9.34067E-07-2.60579E-11-4.54924E-13-2.46294E-08
 -1     11726-4.86419E-07-1.77776E-07 9.43558E-07-2.10526E-14 3.63307E-16 2.49610E-08
 -1     11728-4.86419E-07-1.77776E-07 9.43558E-07-2.10526E-14-3.63307E-16-2.49610E-08
 -1     11729-4.49986E-07-1.77776E-07 9.07124E-07-1.84510E-13 3.21944E-15 2.36891E-08
 -1     11731-4.49986E-07-1.77776E-07 9.07124E-07-1.84510E-13-3.21944E-15-2.36891E-08
 -1     11732-3.26061E-06-1.77741E-07 3.71774E-06 7.08862E-10-1.23802E-11 1.21819E-07
 -1     11734-3.26061E-06-1.77741E-07 3.71774E-06 7.08862E-10 1.23802E-11-1.21819E-07
 -1     11735-3.06811E-06-1.77729E-07 3.52521E-06-5.57596E-10 9.73382E-12 1.15097E-07
 -1     11737-3.06811E-06-1.77729E-07 3.52521E-06-5.57596E-10-9.73382E-12-1.15097E-07
 -1     11738-2.88656E-06-1.77781E-07 3.34372E-06 5.13209E-10-8.96028E-12 1.08758E-07
 -1     11740-2.88656E-06-1.77781E-07 3.34372E-06 5.13209E-10 8.96028E-12-1.08758E-07
 -1     11741-2.72281E-06-1.77783E-07 3.17997E-06-4.38166E-10 7.64915E-12 1.03041E-07
 -1     11743-2.72281E-06-1.77783E-07 3.17997E-06-4.38166E-10-7.64915E-12-1.03041E-07
 -1     11744-2.98341E-06-1.77749E-07 3.44053E-06 3.91243E-12-6.83018E-14 1.12145E-07
 -1     11746-2.98341E-06-1.77749E-07 3.44053E-06 3.91243E-12 6.83018E-14-1.12145E-07
 -1     11747-2.57009E-06-1.77776E-07 3.02722E-06 4.06760E-10-7.10131E-12 9.77083E-08
 -1     11749-2.57009E-06-1.77776E-07 3.02722E-06 4.06760E-10 7.10131E-12-9.77083E-08
 -1     11750-2.42975E-06-1.77777E-07 2.88690E-06-3.64610E-10 6.36515E-12 9.28087E-08
 -1     11752-2.42975E-06-1.77777E-07 2.88690E-06-3.64610E-10-6.36515E-12-9.28087E-08
 -1     11753-2.64948E-06-1.77779E-07 3.10662E-06 1.49287E-12-2.57340E-14 1.00485E-07
 -1     11755-2.64948E-06-1.77779E-07 3.10662E-06 1.49287E-12 2.57340E-14-1.00485E-07
 -1     11756-2.29888E-06-1.77774E-07 2.75600E-06 3.32624E-10-5.80706E-12 8.82388E-08
 -1     11758-2.29888E-06-1.77774E-07 2.75600E-06 3.32624E-10 5.80706E-12-8.82388E-08
 -1     11759-2.17810E-06-1.77775E-07 2.63525E-06-3.01843E-10 5.26950E-12 8.40223E-08
 -1     11761-2.17810E-06-1.77775E-07 2.63525E-06-3.01843E-10-5.26950E-12-8.40223E-08
 -1     11762-2.36608E-06-1.77780E-07 2.82321E-06 6.02242E-12-1.04716E-13 9.05889E-08
 -1     11764-2.36608E-06-1.77780E-07 2.82321E-06 6.02242E-12 1.04716E-13-9.05889E-08
 -1     11765-2.06544E-06-1.77774E-07 2.52256E-06 2.73153E-10-4.76880E-12 8.00885E-08
 -1     11767-2.06544E-06-1.77774E-07 2.52256E-06 2.73153E-10 4.76880E-12-8.00885E-08
 -1     11768-1.96094E-06-1.77775E-07 2.41809E-06-2.49575E-10 4.35711E-12 7.64405E-08
 -1     11770-1.96094E-06-1.77775E-07 2.41809E-06-2.49575E-10-4.35711E-12-7.64405E-08
 -1     11771-2.12272E-06-1.77779E-07 2.57985E-06 8.03197E-12-1.39829E-13 8.20915E-08
 -1     11773-2.12272E-06-1.77779E-07 2.57985E-06 8.03197E-12 1.39829E-13-8.20915E-08
 -1     11774-1.86340E-06-1.77775E-07 2.32053E-06 2.25145E-10-3.93067E-12 7.30344E-08
 -1     11776-1.86340E-06-1.77775E-07 2.32053E-06 2.25145E-10 3.93067E-12-7.30344E-08
 -1     11777-1.77244E-06-1.77775E-07 2.22959E-06-2.06903E-10 3.61217E-12 6.98591E-08
 -1     11779-1.77244E-06-1.77775E-07 2.22959E-06-2.06903E-10-3.61217E-12-6.98591E-08
 -1     11780-1.91267E-06-1.77778E-07 2.36980E-06 7.65764E-12-1.33362E-13 7.47572E-08
 -1     11782-1.91267E-06-1.77778E-07 2.36980E-06 7.65764E-12 1.33362E-13-7.47572E-08
 -1     11783-1.68740E-06-1.77775E-07 2.14453E-06 1.87033E-10-3.26528E-12 6.68897E-08
 -1     11785-1.68740E-06-1.77775E-07 2.14453E-06 1.87033E-10 3.26528E-12-6.68897E-08
 -1     11786-1.60772E-06-1.77775E-07 2.06486E-06-1.72632E-10 3.01387E-12 6.41080E-08
 -1     11788-1.60772E-06-1.77775E-07 2.06486E-06-1.72632E-10-3.01387E-12-6.41080E-08
 -1     11789-1.73021E-06-1.77777E-07 2.18734E-06 6.51391E-12-1.13467E-13 6.83864E-08
 -1     11791-1.73021E-06-1.77777E-07 2.18734E-06 6.51391E-12 1.13467E-13-6.83864E-08
 -1     11792-1.53304E-06-1.77775E-07 1.99018E-06 1.56919E-10-2.73953E-12 6.15007E-08
 -1     11794-1.53304E-06-1.77775E-07 1.99018E-06 1.56919E-10 2.73953E-12-6.15007E-08
 -1     11795-1.46281E-06-1.77775E-07 1.91995E-06-1.45387E-10 2.53822E-12 5.90486E-08
 -1     11797-1.46281E-06-1.77775E-07 1.91995E-06-1.45387E-10-2.53822E-12-5.90486E-08
 -1     11798-1.57060E-06-1.77777E-07 2.02773E-06 5.31457E-12-9.25860E-14 6.28135E-08
 -1     11800-1.57060E-06-1.77777E-07 2.02773E-06 5.31457E-12 9.25860E-14-6.28135E-08
 -1     11801-1.39680E-06-1.77776E-07 1.85393E-06 1.33002E-10-2.32197E-12 5.67439E-08
 -1     11803-1.39680E-06-1.77776E-07 1.85393E-06 1.33002E-10 2.32197E-12-5.67439E-08
 -1     11804-1.33452E-06-1.77776E-07 1.79166E-06-1.23574E-10 2.15738E-12 5.45697E-08
 -1     11806-1.33452E-06-1.77776E-07 1.79166E-06-1.23574E-10-2.15738E-12-5.45697E-08
 -1     11807-1.43000E-06-1.77777E-07 1.88714E-06 4.32753E-12-7.53910E-14 5.79046E-08
 -1     11809-1.43000E-06-1.77777E-07 1.88714E-06 4.32753E-12 7.53910E-14-5.79046E-08
 -1     11810-1.27583E-06-1.77776E-07 1.73296E-06 1.13779E-10-1.98637E-12 5.25205E-08
 -1     11812-1.27583E-06-1.77776E-07 1.73296E-06 1.13779E-10 1.98637E-12-5.25205E-08
 -1     11813-1.22032E-06-1.77776E-07 1.67746E-06-1.05922E-10 1.84921E-12 5.05828E-08
 -1     11815-1.22032E-06-1.77776E-07 1.67746E-06-1.05922E-10-1.84921E-12-5.05828E-08
 -1     11816-1.30537E-06-1.77777E-07 1.76250E-06 3.57655E-12-6.23033E-14 5.35531E-08
 -1     11818-1.30537E-06-1.77777E-07 1.76250E-06 3.57655E-12 6.23033E-14-5.35531E-08
 -1     11819-1.16788E-06-1.77776E-07 1.62502E-06 9.79915E-11-1.71075E-12 4.87519E-08
 -1     11821-1.16788E-06-1.77776E-07 1.62502E-06 9.79915E-11 1.71075E-12-4.87519E-08
 -1     11822-1.11820E-06-1.77776E-07 1.57534E-06-9.14505E-11 1.59656E-12 4.70175E-08
 -1     11824-1.11820E-06-1.77776E-07 1.57534E-06-9.14505E-11-1.59656E-12-4.70175E-08
 -1     11825-1.19429E-06-1.77777E-07 1.65143E-06 2.99078E-12-5.20914E-14 4.96750E-08
 -1     11827-1.19429E-06-1.77777E-07 1.65143E-06 2.99078E-12 5.20914E-14-4.96750E-08
 -1     11828-1.07116E-06-1.77776E-07 1.52829E-06 8.48453E-11-1.48124E-12 4.53750E-08
 -1     11830-1.07116E-06-1.77776E-07 1.52829E-06 8.48453E-11 1.48124E-12-4.53750E-08
 -1     11831-1.02651E-06-1.77776E-07 1.48365E-06-7.93731E-11 1.38571E-12 4.38164E-08
 -1     11833-1.02651E-06-1.77776E-07 1.48365E-06-7.93731E-11-1.38571E-12-4.38164E-08
 -1     11834-1.09485E-06-1.77777E-07 1.55199E-06 2.54734E-12-4.43610E-14 4.62032E-08
 -1     11836-1.09485E-06-1.77777E-07 1.55199E-06 2.54734E-12 4.43610E-14-4.62032E-08
 -1     11837-9.84147E-07-1.77776E-07 1.44128E-06 7.38786E-11-1.28978E-12 4.23373E-08
 -1     11839-9.84147E-07-1.77776E-07 1.44128E-06 7.38786E-11 1.28978E-12-4.23373E-08
 -1     11840-9.43878E-07-1.77776E-07 1.40102E-06-6.92592E-11 1.20913E-12 4.09314E-08
 -1     11842-9.43878E-07-1.77776E-07 1.40102E-06-6.92592E-11-1.20913E-12-4.09314E-08
 -1     11843-1.00548E-06-1.77777E-07 1.46262E-06 2.22303E-12-3.87103E-14 4.30829E-08
 -1     11845-1.00548E-06-1.77777E-07 1.46262E-06 2.22303E-12 3.87103E-14-4.30829E-08
 -1     11846-9.05583E-07-1.77776E-07 1.36272E-06 6.46596E-11-1.12884E-12 3.95945E-08
 -1     11848-9.05583E-07-1.77776E-07 1.36272E-06 6.46596E-11 1.12884E-12-3.95945E-08
 -1     11849-8.69125E-07-1.77776E-07 1.32626E-06-6.07926E-11 1.06132E-12 3.83217E-08
 -1     11851-8.69125E-07-1.77776E-07 1.32626E-06-6.07926E-11-1.06132E-12-3.83217E-08
 -1     11852-9.24851E-07-1.77776E-07 1.38199E-06 1.96410E-12-3.42001E-14 4.02679E-08
 -1     11854-9.24851E-07-1.77776E-07 1.38199E-06 1.96410E-12 3.42001E-14-4.02679E-08
 -1     11855-8.34391E-07-1.77776E-07 1.29153E-06 5.68632E-11-9.92724E-13 3.71090E-08
 -1     11857-8.34391E-07-1.77776E-07 1.29153E-06 5.68632E-11 9.92724E-13-3.71090E-08
 -1     11858-8.01269E-07-1.77776E-07 1.25841E-06-5.36082E-11 9.35895E-13 3.59527E-08
 -1     11860-8.01269E-07-1.77776E-07 1.25841E-06-5.36082E-11-9.35895E-13-3.59527E-08
 -1     11861-8.51849E-07-1.77776E-07 1.30899E-06 1.74557E-12-3.03927E-14 3.77191E-08
 -1     11863-8.51849E-07-1.77776E-07 1.30899E-06 1.74557E-12 3.03927E-14-3.77191E-08
 -1     11864-7.69666E-07-1.77776E-07 1.22680E-06 5.02215E-11-8.76773E-13 3.48493E-08
 -1     11866-7.69666E-07-1.77776E-07 1.22680E-06 5.02215E-11 8.76773E-13-3.48493E-08
 -1     11867-7.39483E-07-1.77776E-07 1.19662E-06-4.74401E-11 8.28213E-13 3.37956E-08
 -1     11869-7.39483E-07-1.77776E-07 1.19662E-06-4.74401E-11-8.28213E-13-3.37956E-08
 -1     11870-7.85535E-07-1.77776E-07 1.24267E-06 1.56717E-12-2.72850E-14 3.54039E-08
 -1     11872-7.85535E-07-1.77776E-07 1.24267E-06 1.56717E-12 2.72850E-14-3.54039E-08
 -1     11873-7.10650E-07-1.77776E-07 1.16779E-06 4.45038E-11-7.76952E-13 3.27890E-08
 -1     11875-7.10650E-07-1.77776E-07 1.16779E-06 4.45038E-11 7.76952E-13-3.27890E-08
 -1     11876-6.83076E-07-1.77776E-07 1.14022E-06-4.20876E-11 7.34771E-13 3.18263E-08
 -1     11878-6.83076E-07-1.77776E-07 1.14022E-06-4.20876E-11-7.34771E-13-3.18263E-08
 -1     11879-7.25118E-07-1.77776E-07 1.18226E-06 1.40889E-12-2.45290E-14 3.32946E-08
 -1     11881-7.25118E-07-1.77776E-07 1.18226E-06 1.40889E-12 2.45290E-14-3.32946E-08
 -1     11882-6.56710E-07-1.77776E-07 1.11385E-06 3.95377E-11-6.90254E-13 3.09058E-08
 -1     11884-6.56710E-07-1.77776E-07 1.11385E-06 3.95377E-11 6.90254E-13-3.09058E-08
 -1     11885-6.31463E-07-1.77776E-07 1.08860E-06-3.74351E-11 6.53549E-13 3.00245E-08
 -1     11887-6.31463E-07-1.77776E-07 1.08860E-06-3.74351E-11-6.53549E-13-3.00245E-08
 -1     11888-6.69935E-07-1.77776E-07 1.12707E-06 1.25294E-12-2.18125E-14 3.13680E-08
 -1     11890-6.69935E-07-1.77776E-07 1.12707E-06 1.25294E-12 2.18125E-14-3.13680E-08
 -1     11891-6.07300E-07-1.77776E-07 1.06444E-06 3.52157E-11-6.14799E-13 2.91809E-08
 -1     11893-6.07300E-07-1.77776E-07 1.06444E-06 3.52157E-11 6.14799E-13-2.91809E-08
 -1     11894-5.84134E-07-1.77776E-07 1.04127E-06-3.33628E-11 5.82455E-13 2.83721E-08
 -1     11896-5.84134E-07-1.77776E-07 1.04127E-06-3.33628E-11-5.82455E-13-2.83721E-08
 -1     11897-6.19421E-07-1.77776E-07 1.07656E-06 1.11303E-12-1.93742E-14 2.96044E-08
 -1     11899-6.19421E-07-1.77776E-07 1.07656E-06 1.11303E-12 1.93742E-14-2.96044E-08
 -1     11900-5.61941E-07-1.77776E-07 1.01908E-06 3.14505E-11-5.49067E-13 2.75973E-08
 -1     11902-5.61941E-07-1.77776E-07 1.01908E-06 3.14505E-11 5.49067E-13-2.75973E-08
 -1     11903-5.40639E-07-1.77776E-07 9.97778E-07-2.97772E-11 5.19860E-13 2.68536E-08
 -1     11905-5.40639E-07-1.77776E-07 9.97778E-07-2.97772E-11-5.19860E-13-2.68536E-08
 -1     11906-5.73077E-07-1.77776E-07 1.03022E-06 9.96431E-13-1.73422E-14 2.79864E-08
 -1     11908-5.73077E-07-1.77776E-07 1.03022E-06 9.96431E-13 1.73422E-14-2.79864E-08
 -1     11909-5.20220E-07-1.77776E-07 9.77358E-07 2.81142E-11-4.90821E-13 2.61408E-08
 -1     11911-5.20220E-07-1.77776E-07 9.77358E-07 2.81142E-11 4.90821E-13-2.61408E-08
 -1     11912-5.00600E-07-1.77776E-07 9.57739E-07-2.65878E-11 4.64185E-13 2.54558E-08
 -1     11914-5.00600E-07-1.77776E-07 9.57739E-07-2.65878E-11-4.64185E-13-2.54558E-08
 -1     11915-5.30477E-07-1.77776E-07 9.87615E-07 8.81492E-13-1.53390E-14 2.64992E-08
 -1     11917-5.30477E-07-1.77776E-07 9.87615E-07 8.81492E-13 1.53390E-14-2.64992E-08
 -1     11918-4.81795E-07-1.77776E-07 9.38933E-07 2.51306E-11-4.38730E-13 2.47993E-08
 -1     11920-4.81795E-07-1.77776E-07 9.38933E-07 2.51306E-11 4.38730E-13-2.47993E-08
 -1     11921-4.63696E-07-1.77776E-07 9.20834E-07-2.37034E-11 4.13837E-13 2.41675E-08
 -1     11923-4.63696E-07-1.77776E-07 9.20834E-07-2.37034E-11-4.13837E-13-2.41675E-08
 -1     11924-4.91263E-07-1.77776E-07 9.48402E-07 7.50503E-13-1.30560E-14 2.51301E-08
 -1     11926-4.91263E-07-1.77776E-07 9.48402E-07 7.50503E-13 1.30560E-14-2.51301E-08
 -1     11927-4.46363E-07-1.77776E-07 9.03501E-07 2.24846E-11-3.92531E-13 2.35623E-08
 -1     11929-4.46363E-07-1.77776E-07 9.03501E-07 2.24846E-11 3.92531E-13-2.35623E-08
 -1     11930-4.29642E-07-1.77776E-07 8.86780E-07-2.11015E-11 3.68421E-13 2.29786E-08
 -1     11932-4.29642E-07-1.77776E-07 8.86780E-07-2.11015E-11-3.68421E-13-2.29786E-08
 -1     11933-4.55135E-07-1.77776E-07 9.12273E-07 5.92404E-13-1.02994E-14 2.38688E-08
 -1     11935-4.55135E-07-1.77776E-07 9.12273E-07 5.92404E-13 1.02994E-14-2.38688E-08
 -1     11936-4.13653E-07-1.77776E-07 8.70791E-07 2.01478E-11-3.51727E-13 2.24204E-08
 -1     11938-4.13653E-07-1.77776E-07 8.70791E-07 2.01478E-11 3.51727E-13-2.24204E-08
 -1     11939-3.98179E-07-1.77776E-07 8.55317E-07-1.87857E-11 3.28003E-13 2.18802E-08
 -1     11941-3.98179E-07-1.77776E-07 8.55317E-07-1.87857E-11-3.28003E-13-2.18802E-08
 -1     11942-4.21821E-07-1.77776E-07 8.78959E-07 3.82047E-13-6.62794E-15 2.27058E-08
 -1     11944-4.21821E-07-1.77776E-07 8.78959E-07 3.82047E-13 6.62795E-15-2.27058E-08
 -1     11945-3.83412E-07-1.77776E-07 8.40552E-07 1.81343E-11-3.16563E-13 2.13647E-08
 -1     11947-3.83412E-07-1.77776E-07 8.40552E-07 1.81343E-11 3.16563E-13-2.13647E-08
 -1     11948-3.69062E-07-1.77776E-07 8.26198E-07-1.66859E-11 2.91355E-13 2.08636E-08
 -1     11950-3.69062E-07-1.77776E-07 8.26198E-07-1.66859E-11-2.91355E-13-2.08636E-08
 -1     11951-3.91072E-07-1.77776E-07 8.48210E-07 1.02480E-13-1.74449E-15 2.16322E-08
 -1     11953-3.91072E-07-1.77776E-07 8.48210E-07 1.02480E-13 1.74449E-15-2.16322E-08
 -1     11954-3.55386E-07-1.77776E-07 8.12526E-07 1.63858E-11-2.86029E-13 2.03862E-08
 -1     11956-3.55386E-07-1.77776E-07 8.12526E-07 1.63858E-11 2.86029E-13-2.03862E-08
 -1     11957-3.42048E-07-1.77776E-07 7.99183E-07-1.47763E-11 2.58035E-13 1.99205E-08
 -1     11959-3.42048E-07-1.77776E-07 7.99183E-07-1.47763E-11-2.58035E-13-1.99205E-08
 -1     11960-3.62636E-07-1.77776E-07 8.19774E-07-1.89851E-13 3.37121E-15 2.06395E-08
 -1     11962-3.62636E-07-1.77776E-07 8.19774E-07-1.89851E-13-3.37121E-15-2.06395E-08
 -1     11963-3.29375E-07-1.77776E-07 7.86517E-07 1.46890E-11-2.56400E-13 1.94782E-08
 -1     11965-3.29375E-07-1.77776E-07 7.86517E-07 1.46890E-11 2.56400E-13-1.94782E-08
 -1     11966-3.16950E-07-1.77776E-07 7.74084E-07-1.29796E-11 2.26693E-13 1.90443E-08
 -1     11968-3.16950E-07-1.77776E-07 7.74084E-07-1.29796E-11-2.26693E-13-1.90443E-08
 -1     11969-3.36294E-07-1.77776E-07 7.93433E-07-5.19068E-13 9.12088E-15 1.97198E-08
 -1     11971-3.36294E-07-1.77776E-07 7.93433E-07-5.19068E-13-9.12088E-15-1.97198E-08
 -1     11972-3.05220E-07-1.77776E-07 7.62364E-07 1.32409E-11-2.31095E-13 1.86349E-08
 -1     11974-3.05220E-07-1.77776E-07 7.62364E-07 1.32409E-11 2.31095E-13-1.86349E-08
 -1     11975-2.93580E-07-1.77776E-07 7.50713E-07-1.12646E-11 1.96785E-13 1.82284E-08
 -1     11977-2.93580E-07-1.77776E-07 7.50713E-07-1.12646E-11-1.96785E-13-1.82284E-08
 -1     11978-3.11901E-07-1.77776E-07 7.69039E-07-9.06974E-13 1.58799E-14 1.88682E-08
 -1     11980-3.11901E-07-1.77776E-07 7.69039E-07-9.06974E-13-1.58799E-14-1.88682E-08
 -1     11981-2.82691E-07-1.77776E-07 7.39838E-07 1.22264E-11-2.13345E-13 1.78485E-08
 -1     11983-2.82691E-07-1.77776E-07 7.39838E-07 1.22264E-11 2.13345E-13-1.78485E-08
 -1     11984-2.71669E-07-1.77776E-07 7.28800E-07-1.00952E-11 1.76421E-13 1.74635E-08
 -1     11986-2.71669E-07-1.77776E-07 7.28800E-07-1.00952E-11-1.76421E-13-1.74635E-08
 -1     11987-2.89293E-07-1.77776E-07 7.46431E-07-1.20929E-12 2.11637E-14 1.80789E-08
 -1     11989-2.89293E-07-1.77776E-07 7.46431E-07-1.20929E-12-2.11637E-14-1.80789E-08
 -1     11990-2.61513E-07-1.77776E-07 7.18664E-07 1.18228E-11-2.06240E-13 1.71092E-08
 -1     11992-2.61513E-07-1.77776E-07 7.18664E-07 1.18228E-11 2.06240E-13-1.71092E-08
 -1     11993-2.50890E-07-1.77776E-07 7.08017E-07-8.16632E-12 1.42969E-13 1.67380E-08
 -1     11995-2.50890E-07-1.77776E-07 7.08017E-07-8.16632E-12-1.42969E-13-1.67380E-08
 -1     11996-2.48729E-07-1.77776E-07 7.05862E-07-2.24804E-12 3.95193E-14 1.66627E-08
 -1     11998-2.48729E-07-1.77776E-07 7.05862E-07-2.24804E-12-3.95193E-14-1.66627E-08
 -1     11999-2.68263E-07-1.77775E-07 7.25399E-07-1.44805E-12 2.53756E-14 1.73447E-08
 -1     12001-2.68263E-07-1.77775E-07 7.25399E-07-1.44805E-12-2.53756E-14-1.73447E-08
 -1     12002-2.33601E-07-1.77776E-07 6.90727E-07 5.85970E-12-1.02551E-13 1.61344E-08
 -1     12004-2.33601E-07-1.77776E-07 6.90727E-07 5.85970E-12 1.02551E-13-1.61344E-08
 -1     12005-2.43110E-07-1.77779E-07 7.00271E-07-1.09446E-11 1.91165E-13 1.64670E-08
 -1     12007-2.43110E-07-1.77779E-07 7.00271E-07-1.09446E-11-1.91165E-13-1.64670E-08
 -1     12008-2.32385E-07-1.77776E-07 6.89516E-07 2.29876E-12-4.02355E-14 1.60921E-08
 -1     12010-2.32385E-07-1.77776E-07 6.89516E-07 2.29876E-12 4.02355E-14-1.60921E-08
 -1     12011-3.96698E-06-1.77737E-07 4.42320E-06 1.08035E-10-1.86222E-12 1.46470E-07
 -1     12013-3.96698E-06-1.77737E-07 4.42320E-06 1.08035E-10 1.86222E-12-1.46470E-07
 -1     12014-3.34890E-07-1.77776E-07 7.92032E-07 1.74966E-11-3.05376E-13 1.96708E-08
 -1     12016-3.34890E-07-1.77776E-07 7.92032E-07 1.74966E-11 3.05376E-13-1.96708E-08
 -1     12017-3.48458E-07-1.77776E-07 8.05594E-07-1.71550E-11 2.99537E-13 2.01443E-08
 -1     12019-3.48458E-07-1.77776E-07 8.05594E-07-1.71550E-11-2.99537E-13-2.01443E-08
 -1     12020-3.27561E-07-1.77776E-07 7.84699E-07-1.07456E-12 1.87898E-14 1.94150E-08
 -1     12022-3.27561E-07-1.77776E-07 7.84699E-07-1.07456E-12-1.87898E-14-1.94150E-08
 -1     12023-3.71068E-06-1.77997E-07 4.16928E-06 4.66815E-10-8.15533E-12 1.37557E-07
 -1     12025-3.71068E-06-1.77997E-07 4.16928E-06 4.66815E-10 8.15533E-12-1.37557E-07
 -1     12026-3.50261E-06-1.77911E-07 3.95982E-06-6.98783E-10 1.21838E-11 1.30272E-07
 -1     12028-3.50261E-06-1.77911E-07 3.95982E-06-6.98783E-10-1.21838E-11-1.30272E-07
 -1     12029-3.40560E-06-1.77862E-07 3.86256E-06 8.25195E-11-1.43778E-12 1.26890E-07
 -1     12031-3.40560E-06-1.77862E-07 3.86256E-06 8.25195E-11 1.43778E-12-1.26890E-07
 -1     12032-3.91726E-06-1.77597E-07 4.37330E-06-1.27738E-10 2.21268E-12 1.44740E-07
 -1     12034-3.91726E-06-1.77597E-07 4.37330E-06-1.27738E-10-2.21268E-12-1.44740E-07
 -1     12035-3.62631E-07-1.77776E-07 8.19772E-07 1.88590E-11-3.29209E-13 2.06392E-08
 -1     12037-3.62631E-07-1.77776E-07 8.19772E-07 1.88590E-11 3.29209E-13-2.06392E-08
 -1     12038-3.77203E-07-1.77776E-07 8.34340E-07-1.89697E-11 3.31207E-13 2.11479E-08
 -1     12040-3.77203E-07-1.77776E-07 8.34340E-07-1.89697E-11-3.31207E-13-2.11479E-08
 -1     12041-3.55137E-07-1.77776E-07 8.12275E-07-8.22110E-13 1.43877E-14 2.03777E-08
 -1     12043-3.55137E-07-1.77776E-07 8.12275E-07-8.22110E-13-1.43877E-14-2.03777E-08
 -1     12044-3.72158E-06-1.77807E-07 4.18048E-06-3.99206E-10 6.97030E-12 1.37942E-07
 -1     12046-3.72158E-06-1.77807E-07 4.18048E-06-3.99206E-10-6.97030E-12-1.37942E-07
 -1     12047-3.54663E-06-1.77856E-07 4.00343E-06 5.79913E-11-1.00067E-12 1.31803E-07
 -1     12049-3.54663E-06-1.77856E-07 4.00343E-06 5.79913E-11 1.00067E-12-1.31803E-07
 -1     12050-3.69191E-06-1.77722E-07 4.15115E-06-2.32447E-10 4.05777E-12 1.36913E-07
 -1     12052-3.69191E-06-1.77722E-07 4.15115E-06-2.32447E-10-4.05777E-12-1.36913E-07
 -1     12053-2.41154E-07-1.77776E-07 6.98321E-07 7.12587E-14-1.24399E-15 1.63987E-08
 -1     12055-2.41154E-07-1.77776E-07 6.98321E-07 7.12587E-14 1.24399E-15-1.63987E-08
 -1     12056-3.98642E-06-1.77776E-07 4.44246E-06-1.29108E-11 2.25368E-13 1.47149E-07
 -1     12058-3.98642E-06-1.77776E-07 4.44246E-06-1.29108E-11-2.25368E-13-1.47149E-07
 -1     12059-3.98681E-06-1.77775E-07 4.44285E-06 7.23727E-12-1.26392E-13 1.47162E-07
 -1     12061-3.98681E-06-1.77775E-07 4.44285E-06 7.23727E-12 1.26392E-13-1.47162E-07
 -1     12062-2.32068E-07-1.77776E-07 6.89193E-07 9.09426E-14-1.58627E-15 1.60809E-08
 -1     12064-2.32068E-07-1.77776E-07 6.89193E-07 9.09426E-14 1.58627E-15-1.60809E-08
 -1     12065-2.32104E-07-1.77776E-07 6.89229E-07 1.53607E-13-2.69697E-15 1.60822E-08
 -1     12067-2.32104E-07-1.77776E-07 6.89229E-07 1.53607E-13 2.69697E-15-1.60822E-08
 -1     12068-2.38956E-07-1.77774E-07 6.96113E-07-1.99321E-13 3.49625E-15 1.63218E-08
 -1     12070-2.38956E-07-1.77774E-07 6.96113E-07-1.99321E-13-3.49625E-15-1.63218E-08
 -1     12071-2.40679E-07-1.77776E-07 6.97845E-07 2.51108E-13-4.38368E-15 1.63821E-08
 -1     12073-2.40679E-07-1.77776E-07 6.97845E-07 2.51108E-13 4.38368E-15-1.63821E-08
 -1     12074-1.66767E-06-1.77776E-07 2.12481E-06-1.81009E-10 3.15999E-12 6.62010E-08
 -1     12076-1.66767E-06-1.77776E-07 2.12481E-06-1.81009E-10-3.15999E-12-6.62010E-08
 -1     12077-1.70908E-06-1.77775E-07 2.16622E-06-2.16842E-12 3.78935E-14 6.76488E-08
 -1     12079-1.70908E-06-1.77775E-07 2.16622E-06-2.16842E-12-3.78935E-14-6.76488E-08
 -1     12080-1.58964E-06-1.77776E-07 2.04678E-06 1.66897E-10-2.91376E-12 6.34768E-08
 -1     12082-1.58964E-06-1.77776E-07 2.04678E-06 1.66897E-10 2.91376E-12-6.34768E-08
 -1     12083-3.90520E-06-1.77669E-07 4.36124E-06-4.29932E-11 7.62189E-13 1.44318E-07
 -1     12085-3.90520E-06-1.77669E-07 4.36124E-06-4.29932E-11-7.62189E-13-1.44318E-07
 -1     12086-3.75046E-06-1.77775E-07 4.20958E-06-1.18652E-12 2.07202E-14 1.38954E-07
 -1     12088-3.75046E-06-1.77775E-07 4.20958E-06-1.18652E-12-2.07202E-14-1.38954E-07
 -1     12089-3.92963E-06-1.77730E-07 4.38552E-06-1.94230E-10 3.39491E-12 1.45166E-07
 -1     12091-3.92963E-06-1.77730E-07 4.38552E-06-1.94230E-10-3.39491E-12-1.45166E-07
 -1     12092-3.93834E-06-1.77706E-07 4.39438E-06-7.44116E-11 1.29024E-12 1.45474E-07
 -1     12094-3.93834E-06-1.77706E-07 4.39438E-06-7.44116E-11-1.29024E-12-1.45474E-07
 -1     12095-3.68664E-06-1.78092E-07 4.14626E-06-7.40856E-11 1.29306E-12 1.36738E-07
 -1     12097-3.68664E-06-1.78092E-07 4.14626E-06-7.40856E-11-1.29306E-12-1.36738E-07
 -1     12098-3.98582E-06-1.77776E-07 4.44186E-06-1.19297E-11 2.08233E-13 1.47128E-07
 -1     12100-3.98582E-06-1.77776E-07 4.44186E-06-1.19297E-11-2.08233E-13-1.47128E-07
 -1     12101-3.98608E-06-1.77776E-07 4.44212E-06 7.57974E-12-1.32337E-13 1.47137E-07
 -1     12103-3.98608E-06-1.77776E-07 4.44212E-06 7.57974E-12 1.32337E-13-1.47137E-07
 -1     12104-3.75128E-06-1.77775E-07 4.21039E-06 1.83864E-12-3.21037E-14 1.38983E-07
 -1     12106-3.75128E-06-1.77775E-07 4.21039E-06 1.83864E-12 3.21037E-14-1.38983E-07
 -1     12107-2.40016E-07-1.77779E-07 6.97184E-07 5.00962E-12-8.74982E-14 1.63591E-08
 -1     12109-2.40016E-07-1.77779E-07 6.97184E-07 5.00962E-12 8.74982E-14-1.63591E-08
 -1     12110-2.14546E-06-1.77771E-07 2.60264E-06 3.06992E-10-5.35991E-12 8.28832E-08
 -1     12112-2.14546E-06-1.77771E-07 2.60264E-06 3.06992E-10 5.35991E-12-8.28832E-08
 -1     12113-2.26520E-06-1.77772E-07 2.72227E-06-3.30519E-10 5.77026E-12 8.70621E-08
 -1     12115-2.26520E-06-1.77772E-07 2.72227E-06-3.30519E-10-5.77026E-12-8.70621E-08
 -1     12116-3.73901E-06-1.77773E-07 4.19811E-06-8.42757E-11 1.47133E-12 1.38554E-07
 -1     12118-3.73901E-06-1.77773E-07 4.19811E-06-8.42757E-11-1.47133E-12-1.38554E-07
 -1     12119-2.52620E-07-1.77777E-07 7.09751E-07 2.54764E-12-4.54167E-14 1.67986E-08
 -1     12121-2.52620E-07-1.77777E-07 7.09751E-07 2.54764E-12 4.54167E-14-1.67986E-08
 -1     12122-5.56947E-07-1.77776E-07 1.01409E-06-3.18866E-11 5.56680E-13 2.74230E-08
 -1     12124-5.56947E-07-1.77776E-07 1.01409E-06-3.18866E-11-5.56680E-13-2.74230E-08
 -1     12125-5.68095E-07-1.77776E-07 1.02523E-06 2.98910E-14-5.22809E-16 2.78125E-08
 -1     12127-5.68095E-07-1.77776E-07 1.02523E-06 2.98910E-14 5.22809E-16-2.78125E-08
 -1     12128-5.35769E-07-1.77776E-07 9.92907E-07 3.02870E-11-5.28746E-13 2.66836E-08
 -1     12130-5.35769E-07-1.77776E-07 9.92907E-07 3.02870E-11 5.28746E-13-2.66836E-08
 -1     12131-6.25991E-07-1.77776E-07 1.08313E-06 3.75458E-11-6.55476E-13 2.98334E-08
 -1     12133-6.25991E-07-1.77776E-07 1.08313E-06 3.75458E-11 6.55476E-13-2.98334E-08
 -1     12134-6.51004E-07-1.77776E-07 1.10814E-06-3.97337E-11 6.93673E-13 3.07067E-08
 -1     12136-6.51004E-07-1.77776E-07 1.10814E-06-3.97337E-11-6.93673E-13-3.07067E-08
 -1     12137-2.76323E-07-1.77775E-07 7.33457E-07-2.83157E-12 4.95152E-14 1.76262E-08
 -1     12139-2.76323E-07-1.77775E-07 7.33457E-07-2.83157E-12-4.95152E-14-1.76262E-08
 -1     12140-5.25656E-07-1.77776E-07 9.82794E-07-1.48574E-14 2.56099E-16 2.63309E-08
 -1     12142-5.25656E-07-1.77776E-07 9.82794E-07-1.48574E-14-2.56099E-16-2.63309E-08
 -1     12143-6.64213E-07-1.77776E-07 1.12135E-06 3.35373E-14-5.84721E-16 3.11682E-08
 -1     12145-6.64213E-07-1.77776E-07 1.12135E-06 3.35373E-14 5.84721E-16-3.11682E-08
 -1     12146-3.08024E-06-1.77837E-07 3.53734E-06 6.24361E-10-1.08881E-11 1.15524E-07
 -1     12148-3.08024E-06-1.77837E-07 3.53734E-06 6.24361E-10 1.08881E-11-1.15524E-07
 -1     12149-3.27501E-06-1.77913E-07 3.73323E-06-4.56718E-10 7.97881E-12 1.22341E-07
 -1     12151-3.27501E-06-1.77913E-07 3.73323E-06-4.56718E-10-7.97881E-12-1.22341E-07
 -1     12152-3.98737E-06-1.77776E-07 4.44342E-06-1.27233E-11 2.21968E-13 1.47182E-07
 -1     12154-3.98737E-06-1.77776E-07 4.44342E-06-1.27233E-11-2.21968E-13-1.47182E-07
 -1     12155-3.98762E-06-1.77776E-07 4.44367E-06 7.38053E-12-1.28853E-13 1.47191E-07
 -1     12157-3.98762E-06-1.77776E-07 4.44367E-06 7.38053E-12 1.28853E-13-1.47191E-07
 -1     12158-3.75358E-06-1.77776E-07 4.21268E-06 4.97097E-12-8.67771E-14 1.39063E-07
 -1     12160-3.75358E-06-1.77776E-07 4.21268E-06 4.97097E-12 8.67771E-14-1.39063E-07
 -1     12161-2.40703E-07-1.77776E-07 6.97869E-07-3.68695E-13 6.43651E-15 1.63830E-08
 -1     12163-2.40703E-07-1.77776E-07 6.97869E-07-3.68695E-13-6.43651E-15-1.63830E-08
 -1     12164-2.40586E-07-1.77776E-07 6.97752E-07-1.00710E-13 1.75835E-15 1.63789E-08
 -1     12166-2.40586E-07-1.77776E-07 6.97752E-07-1.00710E-13-1.75835E-15-1.63789E-08
 -1     12167-2.31826E-07-1.77776E-07 6.88952E-07 3.35352E-13-5.92124E-15 1.60725E-08
 -1     12169-2.31826E-07-1.77776E-07 6.88952E-07 3.35352E-13 5.92124E-15-1.60725E-08
 -1     12170-2.31954E-07-1.77776E-07 6.89079E-07 4.29181E-13-7.49416E-15 1.60769E-08
 -1     12172-2.31954E-07-1.77776E-07 6.89079E-07 4.29181E-13 7.49416E-15-1.60769E-08
 -1     12173-3.51779E-06-1.77730E-07 3.97404E-06 3.49329E-10-6.08506E-12 1.30787E-07
 -1     12175-3.51779E-06-1.77730E-07 3.97404E-06 3.49329E-10 6.08506E-12-1.30787E-07
 -1     12176-3.93272E-06-1.77863E-07 4.38868E-06-2.82747E-11 4.89045E-13 1.45274E-07
 -1     12178-3.93272E-06-1.77863E-07 4.38868E-06-2.82747E-11-4.89045E-13-1.45274E-07
 -1     12179-3.92919E-06-1.77768E-07 4.38513E-06-6.38299E-11 1.12032E-12 1.45150E-07
 -1     12181-3.92919E-06-1.77768E-07 4.38513E-06-6.38299E-11-1.12032E-12-1.45150E-07
 -1     12182-3.68591E-06-1.78005E-07 4.14537E-06 1.64417E-10-2.86969E-12 1.36710E-07
 -1     12184-3.68591E-06-1.78005E-07 4.14537E-06 1.64417E-10 2.86969E-12-1.36710E-07
 -1     12185-6.14131E-07-1.77776E-07 1.07127E-06 3.76174E-14-6.57455E-16 2.94197E-08
 -1     12187-6.14131E-07-1.77776E-07 1.07127E-06 3.76174E-14 6.57454E-16-2.94197E-08
 -1     12188-1.44748E-06-1.77776E-07 1.90462E-06 1.42761E-10-2.49234E-12 5.85134E-08
 -1     12190-1.44748E-06-1.77776E-07 1.90462E-06 1.42761E-10 2.49234E-12-5.85134E-08
 -1     12191-1.51656E-06-1.77776E-07 1.97369E-06-1.54342E-10 2.69445E-12 6.09251E-08
 -1     12193-1.51656E-06-1.77776E-07 1.97369E-06-1.54342E-10-2.69445E-12-6.09251E-08
 -1     12194-1.41538E-06-1.77776E-07 1.87252E-06-7.53835E-14 1.32288E-15 5.73943E-08
 -1     12196-1.41538E-06-1.77776E-07 1.87252E-06-7.53835E-14-1.32288E-15-5.73943E-08
 -1     12197-2.39467E-06-1.77769E-07 2.85189E-06 3.85887E-10-6.73696E-12 9.15851E-08
 -1     12199-2.39467E-06-1.77769E-07 2.85189E-06 3.85887E-10 6.73696E-12-9.15851E-08
 -1     12200-2.53625E-06-1.77763E-07 2.99328E-06-4.29804E-10 7.50450E-12 9.65256E-08
 -1     12202-2.53625E-06-1.77763E-07 2.99328E-06-4.29804E-10-7.50450E-12-9.65256E-08
 -1     12203-2.32825E-06-1.77789E-07 2.78538E-06-2.41534E-11 4.21367E-13 8.92682E-08
 -1     12205-2.32825E-06-1.77789E-07 2.78538E-06-2.41534E-11-4.21367E-13-8.92682E-08
 -1     12206-2.30475E-07-1.77776E-07 6.87602E-07 6.13972E-13-1.03997E-14 1.60253E-08
 -1     12208-2.30475E-07-1.77776E-07 6.87602E-07 6.13972E-13 1.03997E-14-1.60253E-08
 -1     12209-2.30933E-07-1.77776E-07 6.88058E-07 1.29407E-12-2.29619E-14 1.60413E-08
 -1     12211-2.30933E-07-1.77776E-07 6.88058E-07 1.29407E-12 2.29619E-14-1.60413E-08
 -1     12212-2.39824E-07-1.77775E-07 6.96982E-07-4.78378E-12 8.34389E-14 1.63521E-08
 -1     12214-2.39824E-07-1.77775E-07 6.96982E-07-4.78378E-12-8.34389E-14-1.63521E-08
 -1     12215-2.38818E-07-1.77774E-07 6.95978E-07 2.26360E-12-3.94925E-14 1.63170E-08
 -1     12217-2.38818E-07-1.77774E-07 6.95978E-07 2.26360E-12 3.94925E-14-1.63170E-08
 -1     12218-1.93356E-06-1.77772E-07 2.39072E-06 2.44289E-10-4.26518E-12 7.54845E-08
 -1     12220-1.93356E-06-1.77772E-07 2.39072E-06 2.44289E-10 4.26518E-12-7.54845E-08
 -1     12221-2.03599E-06-1.77775E-07 2.49310E-06-2.63079E-10 4.59280E-12 7.90601E-08
 -1     12223-2.03599E-06-1.77775E-07 2.49310E-06-2.63079E-10-4.59280E-12-7.90601E-08
 -1     12224-2.08950E-06-1.77781E-07 2.54664E-06-1.23410E-11 2.15201E-13 8.09316E-08
 -1     12226-2.08950E-06-1.77781E-07 2.54664E-06-1.23410E-11-2.15201E-13-8.09316E-08
 -1     12227-1.88591E-06-1.77775E-07 2.34305E-06-5.70846E-12 9.96327E-14 7.38227E-08
 -1     12229-1.88591E-06-1.77775E-07 2.34305E-06-5.70846E-12-9.96327E-14-7.38227E-08
 -1     12230-3.92394E-07-1.77776E-07 8.49534E-07 2.06534E-11-3.60538E-13 2.16783E-08
 -1     12232-3.92394E-07-1.77776E-07 8.49534E-07 2.06534E-11 3.60538E-13-2.16783E-08
 -1     12233-4.08011E-07-1.77776E-07 8.65148E-07-2.11901E-11 3.69990E-13 2.22234E-08
 -1     12235-4.08011E-07-1.77776E-07 8.65148E-07-2.11901E-11-3.69990E-13-2.22234E-08
 -1     12236-2.40599E-07-1.77776E-07 6.97765E-07-5.86480E-13 1.02400E-14 1.63794E-08
 -1     12238-2.40599E-07-1.77776E-07 6.97765E-07-5.86480E-13-1.02400E-14-1.63794E-08
 -1     12239-4.16048E-07-1.77776E-07 8.73186E-07-4.08532E-13 7.13632E-15 2.25042E-08
 -1     12241-4.16048E-07-1.77776E-07 8.73186E-07-4.08532E-13-7.13632E-15-2.25042E-08
 -1     12242-3.84493E-07-1.77776E-07 8.41631E-07-7.06664E-13 1.23571E-14 2.14026E-08
 -1     12244-3.84493E-07-1.77776E-07 8.41631E-07-7.06664E-13-1.23571E-14-2.14026E-08
 -1     12245-3.75271E-06-1.77778E-07 4.21182E-06 6.87612E-12-1.20042E-13 1.39033E-07
 -1     12247-3.75271E-06-1.77778E-07 4.21182E-06 6.87612E-12 1.20042E-13-1.39033E-07
 -1     12248-2.86482E-06-1.77737E-07 3.32189E-06-6.47682E-10 1.13128E-11 1.08000E-07
 -1     12250-2.86482E-06-1.77737E-07 3.32189E-06-6.47682E-10-1.13128E-11-1.08000E-07
 -1     12251-2.98875E-06-1.77820E-07 3.44576E-06-4.45447E-11 7.81264E-13 1.12336E-07
 -1     12253-2.98875E-06-1.77820E-07 3.44576E-06-4.45447E-11-7.81264E-13-1.12336E-07
 -1     12254-2.69490E-06-1.77758E-07 3.15212E-06 4.87699E-10-8.51314E-12 1.02069E-07
 -1     12256-2.69490E-06-1.77758E-07 3.15212E-06 4.87699E-10 8.51314E-12-1.02069E-07
 -1     12257-2.40133E-07-1.77776E-07 6.97298E-07-1.78304E-12 3.11284E-14 1.63631E-08
 -1     12259-2.40133E-07-1.77776E-07 6.97298E-07-1.78304E-12-3.11284E-14-1.63631E-08
 -1     12260-3.52572E-06-1.77794E-07 3.98206E-06 7.09492E-11-1.23833E-12 1.31067E-07
 -1     12262-3.52572E-06-1.77794E-07 3.98206E-06 7.09492E-11 1.23833E-12-1.31067E-07
 -1     12263-3.51354E-06-1.77787E-07 3.96967E-06 8.09225E-11-1.40899E-12 1.30638E-07
 -1     12265-3.51354E-06-1.77787E-07 3.96967E-06 8.09225E-11 1.40899E-12-1.30638E-07
 -1     12266-3.75184E-06-1.77776E-07 4.21095E-06 3.50185E-12-6.11376E-14 1.39002E-07
 -1     12268-3.75184E-06-1.77776E-07 4.21095E-06 3.50185E-12 6.11376E-14-1.39002E-07
 -1     12269-2.49571E-07-1.77776E-07 7.06695E-07 3.49851E-14-5.90157E-16 1.66920E-08
 -1     12271-2.49571E-07-1.77776E-07 7.06695E-07 3.49851E-14 5.90157E-16-1.66920E-08
 -1     12272-2.49605E-07-1.77776E-07 7.06729E-07 1.28693E-13-2.26631E-15 1.66931E-08
 -1     12274-2.49605E-07-1.77776E-07 7.06729E-07 1.28693E-13 2.26631E-15-1.66931E-08
 -1     12275-2.46086E-07-1.77776E-07 7.03213E-07-1.92101E-12 3.43344E-14 1.65702E-08
 -1     12277-2.46086E-07-1.77776E-07 7.03213E-07-1.92101E-12-3.43344E-14-1.65702E-08
 -1     12278-2.45670E-07-1.77776E-07 7.02796E-07 8.43487E-13-1.57929E-14 1.65557E-08
 -1     12280-2.45670E-07-1.77776E-07 7.02796E-07 8.43487E-13 1.57929E-14-1.65557E-08
 -1     12281-2.55473E-07-1.77776E-07 7.12622E-07 9.34370E-12-1.62916E-13 1.68983E-08
 -1     12283-2.55473E-07-1.77776E-07 7.12622E-07 9.34370E-12 1.62916E-13-1.68983E-08
 -1     12284-3.55319E-06-1.77776E-07 4.00944E-06-1.06095E-11 1.85219E-13 1.32024E-07
 -1     12286-3.55319E-06-1.77776E-07 4.00944E-06-1.06095E-11-1.85219E-13-1.32024E-07
 -1     12287-3.55372E-06-1.77775E-07 4.00998E-06 3.84192E-12-6.71688E-14 1.32043E-07
 -1     12289-3.55372E-06-1.77775E-07 4.00998E-06 3.84192E-12 6.71688E-14-1.32043E-07
 -1     12290-3.76394E-07-1.77776E-07 8.33534E-07 2.02503E-11-3.53491E-13 2.11197E-08
 -1     12292-3.76394E-07-1.77776E-07 8.33534E-07 2.02503E-11 3.53491E-13-2.11197E-08
 -1     12293-3.91581E-07-1.77776E-07 8.48718E-07-2.05074E-11 3.58092E-13 2.16498E-08
 -1     12295-3.91581E-07-1.77776E-07 8.48718E-07-2.05074E-11-3.58092E-13-2.16498E-08
 -1     12296-2.49795E-07-1.77776E-07 7.06919E-07-2.86675E-13 5.03137E-15 1.66998E-08
 -1     12298-2.49795E-07-1.77776E-07 7.06919E-07-2.86675E-13-5.03137E-15-1.66998E-08
 -1     12299-2.49745E-07-1.77776E-07 7.06869E-07-2.12895E-13 3.73599E-15 1.66980E-08
 -1     12301-2.49745E-07-1.77776E-07 7.06869E-07-2.12895E-13-3.73599E-15-1.66980E-08
 -1     12302-3.55515E-06-1.77777E-07 4.01142E-06-5.68786E-12 9.89196E-14 1.32093E-07
 -1     12304-3.55515E-06-1.77777E-07 4.01142E-06-5.68786E-12-9.89196E-14-1.32093E-07
 -1     12305-3.55444E-06-1.77776E-07 4.01069E-06 1.22317E-11-2.13258E-13 1.32067E-07
 -1     12307-3.55444E-06-1.77776E-07 4.01069E-06 1.22317E-11 2.13258E-13-1.32067E-07
 -1     12308-3.97024E-06-1.77811E-07 4.42618E-06-1.57998E-10 2.75033E-12 1.46582E-07
 -1     12310-3.97024E-06-1.77811E-07 4.42618E-06-1.57998E-10-2.75033E-12-1.46582E-07
 -1     12311-3.98314E-06-1.77796E-07 4.43933E-06-1.30529E-10 2.27781E-12 1.47037E-07
 -1     12313-3.98314E-06-1.77796E-07 4.43933E-06-1.30529E-10-2.27781E-12-1.47037E-07
 -1     12314-3.55149E-06-1.77777E-07 4.00775E-06-9.79279E-12 1.70806E-13 1.31965E-07
 -1     12316-3.55149E-06-1.77777E-07 4.00775E-06-9.79279E-12-1.70806E-13-1.31965E-07
 -1     12317-3.55186E-06-1.77776E-07 4.00812E-06 3.03449E-12-5.29532E-14 1.31978E-07
 -1     12319-3.55186E-06-1.77776E-07 4.00812E-06 3.03449E-12 5.29532E-14-1.31978E-07
 -1     12320-4.07557E-07-1.77776E-07 8.64696E-07 2.23790E-11-3.90656E-13 2.22076E-08
 -1     12322-4.07557E-07-1.77776E-07 8.64696E-07 2.23790E-11 3.90656E-13-2.22076E-08
 -1     12323-4.23928E-07-1.77776E-07 8.81067E-07-2.29228E-11 4.00217E-13 2.27791E-08
 -1     12325-4.23928E-07-1.77776E-07 8.81067E-07-2.29228E-11-4.00217E-13-2.27791E-08
 -1     12326-3.99309E-07-1.77776E-07 8.56448E-07-6.16595E-13 1.07755E-14 2.19199E-08
 -1     12328-3.99309E-07-1.77776E-07 8.56448E-07-6.16595E-13-1.07755E-14-2.19199E-08
 -1     12329-2.50926E-07-1.77774E-07 7.08050E-07-2.37896E-12 4.07601E-14 1.67393E-08
 -1     12331-2.50926E-07-1.77774E-07 7.08050E-07-2.37896E-12-4.07601E-14-1.67393E-08
 -1     12332-2.50154E-07-1.77775E-07 7.07281E-07-2.67163E-12 4.78024E-14 1.67125E-08
 -1     12334-2.50154E-07-1.77775E-07 7.07281E-07-2.67163E-12-4.78024E-14-1.67125E-08
 -1     12335-8.26798E-07-1.77776E-07 1.28394E-06 5.68141E-11-9.91866E-13 3.68439E-08
 -1     12337-8.26798E-07-1.77776E-07 1.28394E-06 5.68141E-11 9.91866E-13-3.68439E-08
 -1     12338-8.61136E-07-1.77776E-07 1.31827E-06-6.05535E-11 1.05715E-12 3.80427E-08
 -1     12340-8.61136E-07-1.77776E-07 1.31827E-06-6.05535E-11-1.05715E-12-3.80427E-08
 -1     12341-3.49189E-06-1.77867E-07 3.94854E-06 4.12117E-10-7.16811E-12 1.29888E-07
 -1     12343-3.49189E-06-1.77867E-07 3.94854E-06 4.12117E-10 7.16811E-12-1.29888E-07
 -1     12344-3.24954E-06-1.77710E-07 3.70684E-06-8.70689E-10 1.52099E-11 1.21435E-07
 -1     12346-3.24954E-06-1.77710E-07 3.70684E-06-8.70689E-10-1.52099E-11-1.21435E-07
 -1     12347-6.51031E-07-1.77776E-07 1.10817E-06 3.96779E-11-6.92701E-13 3.07076E-08
 -1     12349-6.51031E-07-1.77776E-07 1.10817E-06 3.96779E-11 6.92701E-13-3.07076E-08
 -1     12350-6.77152E-07-1.77776E-07 1.13429E-06-4.20455E-11 7.34029E-13 3.16195E-08
 -1     12352-6.77152E-07-1.77776E-07 1.13429E-06-4.20455E-11-7.34029E-13-3.16195E-08
 -1     12353-2.68876E-07-1.77779E-07 7.26029E-07 8.95760E-12-1.56688E-13 1.73663E-08
 -1     12355-2.68876E-07-1.77779E-07 7.26029E-07 8.95760E-12 1.56688E-13-1.73663E-08
 -1     12356-2.81194E-07-1.77775E-07 7.38324E-07-1.34701E-11 2.35400E-13 1.77961E-08
 -1     12358-2.81194E-07-1.77775E-07 7.38324E-07-1.34701E-11-2.35400E-13-1.77961E-08
 -1     12359-2.47925E-07-1.77774E-07 7.05050E-07 7.60450E-12-1.34041E-13 1.66344E-08
 -1     12361-2.47925E-07-1.77774E-07 7.05050E-07 7.60450E-12 1.34041E-13-1.66344E-08
 -1     12362-2.59304E-07-1.77777E-07 7.16447E-07-1.12166E-11 1.94922E-13 1.70320E-08
 -1     12364-2.59304E-07-1.77777E-07 7.16447E-07-1.12166E-11-1.94922E-13-1.70320E-08
 -1     12365-2.64105E-07-1.77771E-07 7.21234E-07 5.01955E-12-8.65049E-14 1.71994E-08
 -1     12367-2.64105E-07-1.77771E-07 7.21234E-07 5.01955E-12 8.65049E-14-1.71994E-08
 -1     12368-2.46447E-07-1.77777E-07 7.03576E-07-1.10002E-13 2.19862E-15 1.65829E-08
 -1     12370-2.46447E-07-1.77777E-07 7.03576E-07-1.10002E-13-2.19862E-15-1.65829E-08
 -1     12371-5.56968E-07-1.77776E-07 1.01411E-06 3.19516E-11-5.57809E-13 2.74237E-08
 -1     12373-5.56968E-07-1.77776E-07 1.01411E-06 3.19516E-11 5.57809E-13-2.74237E-08
 -1     12374-5.79040E-07-1.77776E-07 1.03618E-06-3.36925E-11 5.88203E-13 2.81943E-08
 -1     12376-5.79040E-07-1.77776E-07 1.03618E-06-3.36925E-11-5.88203E-13-2.81943E-08
 -1     12377-2.49698E-07-1.77776E-07 7.06822E-07 2.37899E-13-4.15484E-15 1.66964E-08
 -1     12379-2.49698E-07-1.77776E-07 7.06822E-07 2.37899E-13 4.15484E-15-1.66964E-08
 -1     12380-2.49782E-07-1.77776E-07 7.06906E-07 3.43279E-13-6.02818E-15 1.66993E-08
 -1     12382-2.49782E-07-1.77776E-07 7.06906E-07 3.43279E-13 6.02818E-15-1.66993E-08
 -1     12383-2.58683E-07-1.77776E-07 7.15851E-07-3.62399E-13 6.32679E-15 1.70107E-08
 -1     12385-2.58683E-07-1.77776E-07 7.15851E-07-3.62399E-13-6.32679E-15-1.70107E-08
 -1     12386-6.02044E-07-1.77776E-07 1.05918E-06 3.55289E-11-6.20263E-13 2.89974E-08
 -1     12388-6.02044E-07-1.77776E-07 1.05918E-06 3.55289E-11 6.20263E-13-2.89974E-08
 -1     12389-6.26021E-07-1.77776E-07 1.08316E-06-3.75537E-11 6.55611E-13 2.98345E-08
 -1     12391-6.26021E-07-1.77776E-07 1.08316E-06-3.75537E-11-6.55611E-13-2.98345E-08
 -1     12392-6.38681E-07-1.77776E-07 1.09582E-06 6.99559E-14-1.21915E-15 3.02768E-08
 -1     12394-6.38681E-07-1.77776E-07 1.09582E-06 6.99559E-14 1.21915E-15-3.02768E-08
 -1     12395-5.90681E-07-1.77776E-07 1.04782E-06 8.87419E-14-1.54954E-15 2.86010E-08
 -1     12397-5.90681E-07-1.77776E-07 1.04782E-06 8.87419E-14 1.54954E-15-2.86010E-08
 -1     12398-2.50526E-07-1.77776E-07 7.07649E-07-1.61544E-13 2.76481E-15 1.67253E-08
 -1     12400-2.50526E-07-1.77776E-07 7.07649E-07-1.61544E-13-2.76481E-15-1.67253E-08
 -1     12401-2.50515E-07-1.77776E-07 7.07638E-07 7.89247E-14-1.32056E-15 1.67249E-08
 -1     12403-2.50515E-07-1.77776E-07 7.07638E-07 7.89248E-14 1.32056E-15-1.67249E-08
 -1     12404-2.50349E-07-1.77776E-07 7.07472E-07-5.21467E-13 9.11123E-15 1.67191E-08
 -1     12406-2.50349E-07-1.77776E-07 7.07472E-07-5.21467E-13-9.11123E-15-1.67191E-08
 -1     12407-2.50211E-07-1.77776E-07 7.07335E-07-7.43775E-13 1.30714E-14 1.67143E-08
 -1     12409-2.50211E-07-1.77776E-07 7.07335E-07-7.43775E-13-1.30714E-14-1.67143E-08
 -1     12410-2.59718E-07-1.77777E-07 7.16888E-07 1.21444E-12-2.12020E-14 1.70469E-08
 -1     12412-2.59718E-07-1.77777E-07 7.16888E-07 1.21444E-12 2.12020E-14-1.70469E-08
 -1     12413-3.55454E-06-1.77777E-07 4.01080E-06-1.00036E-11 1.74420E-13 1.32071E-07
 -1     12415-3.55454E-06-1.77777E-07 4.01080E-06-1.00036E-11-1.74420E-13-1.32071E-07
 -1     12416-3.55483E-06-1.77776E-07 4.01109E-06 4.99441E-12-8.71905E-14 1.32081E-07
 -1     12418-3.55483E-06-1.77776E-07 4.01109E-06 4.99441E-12 8.71905E-14-1.32081E-07
 -1     12419-3.35486E-06-1.77778E-07 3.81360E-06 1.05044E-11-1.83379E-13 1.25135E-07
 -1     12421-3.35486E-06-1.77778E-07 3.81360E-06 1.05044E-11 1.83379E-13-1.25135E-07
 -1     12422-2.94118E-07-1.77775E-07 7.51263E-07 1.79066E-11-3.12496E-13 1.82474E-08
 -1     12424-2.94118E-07-1.77775E-07 7.51263E-07 1.79066E-11 3.12496E-13-1.82474E-08
 -1     12425-3.06876E-07-1.77776E-07 7.64008E-07-1.59319E-11 2.78187E-13 1.86926E-08
 -1     12427-3.06876E-07-1.77776E-07 7.64008E-07-1.59319E-11-2.78187E-13-1.86926E-08
 -1     12428-2.86547E-07-1.77779E-07 7.43686E-07-1.35437E-12 2.35173E-14 1.79832E-08
 -1     12430-2.86547E-07-1.77779E-07 7.43686E-07-1.35437E-12-2.35173E-14-1.79832E-08
 -1     12431-3.56558E-06-1.77748E-07 4.02187E-06 3.03176E-11-5.21608E-13 1.32458E-07
 -1     12433-3.56558E-06-1.77748E-07 4.02187E-06 3.03176E-11 5.21608E-13-1.32458E-07
 -1     12434-3.55763E-06-1.77760E-07 4.01386E-06 1.35863E-10-2.37279E-12 1.32179E-07
 -1     12436-3.55763E-06-1.77760E-07 4.01386E-06 1.35863E-10 2.37279E-12-1.32179E-07
 -1     12437-2.49973E-07-1.77776E-07 7.07097E-07 3.45508E-13-6.05652E-15 1.67060E-08
 -1     12439-2.49973E-07-1.77776E-07 7.07097E-07 3.45508E-13 6.05652E-15-1.67060E-08
 -1     12440-2.50086E-07-1.77776E-07 7.07209E-07 4.66436E-13-8.17728E-15 1.67099E-08
 -1     12442-2.50086E-07-1.77776E-07 7.07209E-07 4.66436E-13 8.17728E-15-1.67099E-08
 -1     12443-2.58970E-07-1.77776E-07 7.16138E-07-8.32855E-13 1.45398E-14 1.70207E-08
 -1     12445-2.58970E-07-1.77776E-07 7.16138E-07-8.32855E-13-1.45398E-14-1.70207E-08
 -1     12446-3.75966E-06-1.77620E-07 4.21850E-06 1.00586E-10-1.75683E-12 1.39269E-07
 -1     12448-3.75966E-06-1.77620E-07 4.21850E-06 1.00586E-10 1.75683E-12-1.39269E-07
 -1     12449-2.50302E-07-1.77776E-07 7.07426E-07 2.33625E-13-4.12417E-15 1.67175E-08
 -1     12451-2.50302E-07-1.77776E-07 7.07426E-07 2.33625E-13 4.12417E-15-1.67175E-08
 -1     12452-2.50383E-07-1.77776E-07 7.07506E-07 4.53589E-13-7.93912E-15 1.67203E-08
 -1     12454-2.50383E-07-1.77776E-07 7.07506E-07 4.53589E-13 7.93912E-15-1.67203E-08
 -1     12455-2.59380E-07-1.77776E-07 7.16550E-07-1.14662E-12 2.00171E-14 1.70351E-08
 -1     12457-2.59380E-07-1.77776E-07 7.16550E-07-1.14662E-12-2.00171E-14-1.70351E-08
 -1     12458-3.55306E-06-1.77781E-07 4.00934E-06 9.29094E-12-1.62670E-13 1.32020E-07
 -1     12460-3.55306E-06-1.77781E-07 4.00934E-06 9.29094E-12 1.62670E-13-1.32020E-07
 -1     12461-3.55013E-06-1.77777E-07 4.00637E-06 2.70810E-11-4.71683E-13 1.31917E-07
 -1     12463-3.55013E-06-1.77777E-07 4.00637E-06 2.70810E-11 4.71683E-13-1.31917E-07
 -1     12464-3.35501E-06-1.77774E-07 3.81372E-06-1.00346E-11 1.75212E-13 1.25140E-07
 -1     12466-3.35501E-06-1.77774E-07 3.81372E-06-1.00346E-11-1.75212E-13-1.25140E-07
 -1     12467-1.26302E-06-1.77776E-07 1.72016E-06 1.14071E-10-1.99146E-12 5.20734E-08
 -1     12469-1.26302E-06-1.77776E-07 1.72016E-06 1.14071E-10 1.99146E-12-5.20734E-08
 -1     12470-1.32100E-06-1.77776E-07 1.77813E-06-1.22784E-10 2.14358E-12 5.40975E-08
 -1     12472-1.32100E-06-1.77776E-07 1.77813E-06-1.22784E-10-2.14358E-12-5.40975E-08
 -1     12473-2.49829E-07-1.77777E-07 7.06953E-07 5.49310E-13-9.46356E-15 1.67010E-08
 -1     12475-2.49829E-07-1.77777E-07 7.06953E-07 5.49310E-13 9.46356E-15-1.67010E-08
 -1     12476-2.49785E-07-1.77776E-07 7.06907E-07-7.09429E-13 1.19515E-14 1.66994E-08
 -1     12478-2.49785E-07-1.77776E-07 7.06907E-07-7.09429E-13-1.19515E-14-1.66994E-08
 -1     12479-2.59168E-07-1.77776E-07 7.16335E-07 3.56851E-12-6.22919E-14 1.70276E-08
 -1     12481-2.59168E-07-1.77776E-07 7.16335E-07 3.56851E-12 6.22919E-14-1.70276E-08
 -1     12482-2.49636E-07-1.77776E-07 7.06759E-07-1.35212E-13 2.38420E-15 1.66942E-08
 -1     12484-2.49636E-07-1.77776E-07 7.06759E-07-1.35212E-13-2.38420E-15-1.66942E-08
 -1     12485-2.49596E-07-1.77776E-07 7.06720E-07-6.47728E-14 1.12551E-15 1.66928E-08
 -1     12487-2.49596E-07-1.77776E-07 7.06720E-07-6.47728E-14-1.12551E-15-1.66928E-08
 -1     12488-2.58751E-07-1.77776E-07 7.15919E-07 5.03581E-13-8.79133E-15 1.70131E-08
 -1     12490-2.58751E-07-1.77776E-07 7.15919E-07 5.03581E-13 8.79133E-15-1.70131E-08
 -1     12491-3.55351E-06-1.77771E-07 4.00979E-06-1.61765E-11 2.82957E-13 1.32036E-07
 -1     12493-3.55351E-06-1.77771E-07 4.00979E-06-1.61765E-11-2.82957E-13-1.32036E-07
 -1     12494-3.55105E-06-1.77772E-07 4.00729E-06 1.52236E-11-2.66557E-13 1.31949E-07
 -1     12496-3.55105E-06-1.77772E-07 4.00729E-06 1.52236E-11 2.66557E-13-1.31949E-07
 -1     12497-3.35518E-06-1.77818E-07 3.81401E-06-3.90898E-11 6.82451E-13 1.25148E-07
 -1     12499-3.35518E-06-1.77818E-07 3.81401E-06-3.90898E-11-6.82451E-13-1.25148E-07
 -1     12500-3.44714E-06-1.77628E-07 3.90345E-06 5.67022E-11-9.68590E-13 1.28330E-07
 -1     12502-3.44714E-06-1.77628E-07 3.90345E-06 5.67022E-11 9.68590E-13-1.28330E-07
 -1     12503-2.48113E-07-1.77776E-07 7.05238E-07 1.23795E-12-2.13201E-14 1.66411E-08
 -1     12505-2.48113E-07-1.77776E-07 7.05238E-07 1.23795E-12 2.13201E-14-1.66411E-08
 -1     12506-2.48223E-07-1.77777E-07 7.05347E-07 2.35254E-13-4.37211E-15 1.66449E-08
 -1     12508-2.48223E-07-1.77777E-07 7.05347E-07 2.35254E-13 4.37211E-15-1.66449E-08
 -1     12509-2.49080E-07-1.77776E-07 7.06206E-07 1.01956E-12-1.79791E-14 1.66749E-08
 -1     12511-2.49080E-07-1.77776E-07 7.06206E-07 1.01956E-12 1.79791E-14-1.66749E-08
 -1     12512-2.49413E-07-1.77776E-07 7.06536E-07 1.18140E-12-2.06442E-14 1.66864E-08
 -1     12514-2.49413E-07-1.77776E-07 7.06536E-07 1.18140E-12 2.06442E-14-1.66864E-08
 -1     12515-2.57494E-07-1.77776E-07 7.14660E-07-5.44826E-12 9.51174E-14 1.69692E-08
 -1     12517-2.57494E-07-1.77776E-07 7.14660E-07-5.44826E-12-9.51174E-14-1.69692E-08
 -1     12518-3.49205E-06-1.77818E-07 3.94838E-06 1.42407E-10-2.48276E-12 1.29893E-07
 -1     12520-3.49205E-06-1.77818E-07 3.94838E-06 1.42407E-10 2.48276E-12-1.29893E-07
 -1     12521-3.47837E-06-1.77766E-07 3.93440E-06 9.39363E-11-1.63244E-12 1.29410E-07
 -1     12523-3.47837E-06-1.77766E-07 3.93440E-06 9.39363E-11 1.63244E-12-1.29410E-07
 -1     12524-3.29954E-06-1.77763E-07 3.75824E-06-1.87119E-10 3.26722E-12 1.23204E-07
 -1     12526-3.29954E-06-1.77763E-07 3.75824E-06-1.87119E-10-3.26722E-12-1.23204E-07
 -1     12527-3.07118E-06-1.77853E-07 3.52847E-06 5.66583E-10-9.88818E-12 1.15206E-07
 -1     12529-3.07118E-06-1.77853E-07 3.52847E-06 5.66583E-10 9.88818E-12-1.15206E-07
 -1     12530-2.88943E-06-1.77812E-07 3.34665E-06-5.21613E-10 9.10555E-12 1.08860E-07
 -1     12532-2.88943E-06-1.77812E-07 3.34665E-06-5.21613E-10-9.10555E-12-1.08860E-07
 -1     12533-2.72076E-06-1.77769E-07 3.17780E-06 4.68078E-10-8.17230E-12 1.02968E-07
 -1     12535-2.72076E-06-1.77769E-07 3.17780E-06 4.68078E-10 8.17230E-12-1.02968E-07
 -1     12536-2.56792E-06-1.77779E-07 3.02515E-06-4.27150E-10 7.45670E-12 9.76344E-08
 -1     12538-2.56792E-06-1.77779E-07 3.02515E-06-4.27150E-10-7.45670E-12-9.76344E-08
 -1     12539-2.80470E-06-1.77812E-07 3.26183E-06 1.87062E-11-3.26374E-13 1.05905E-07
 -1     12541-2.80470E-06-1.77812E-07 3.26183E-06 1.87062E-11 3.26374E-13-1.05905E-07
 -1     12542-2.42572E-06-1.77771E-07 2.88277E-06 3.71841E-10-6.49181E-12 9.26665E-08
 -1     12544-2.42572E-06-1.77771E-07 2.88277E-06 3.71841E-10 6.49181E-12-9.26665E-08
 -1     12545-2.29477E-06-1.77773E-07 2.75199E-06-3.52459E-10 6.15309E-12 8.80969E-08
 -1     12547-2.29477E-06-1.77773E-07 2.75199E-06-3.52459E-10-6.15309E-12-8.80969E-08
 -1     12548-2.49406E-06-1.77788E-07 2.95118E-06 3.37778E-11-5.89385E-13 9.50577E-08
 -1     12550-2.49406E-06-1.77788E-07 2.95118E-06 3.37778E-11 5.89385E-13-9.50577E-08
 -1     12551-2.17335E-06-1.77773E-07 2.63042E-06 3.02472E-10-5.28071E-12 8.38553E-08
 -1     12553-2.17335E-06-1.77773E-07 2.63042E-06 3.02472E-10 5.28071E-12-8.38553E-08
 -1     12554-2.06065E-06-1.77773E-07 2.51786E-06-2.90221E-10 5.06672E-12 7.99227E-08
 -1     12556-2.06065E-06-1.77773E-07 2.51786E-06-2.90221E-10-5.06672E-12-7.99227E-08
 -1     12557-2.23061E-06-1.77783E-07 2.68774E-06 3.11004E-11-5.42647E-13 8.58589E-08
 -1     12559-2.23061E-06-1.77783E-07 2.68774E-06 3.11004E-11 5.42647E-13-8.58589E-08
 -1     12560-1.95625E-06-1.77775E-07 2.41333E-06 2.47052E-10-4.31314E-12 7.62756E-08
 -1     12562-1.95625E-06-1.77775E-07 2.41333E-06 2.47052E-10 4.31314E-12-7.62756E-08
 -1     12563-1.85869E-06-1.77773E-07 2.31588E-06-2.38845E-10 4.16984E-12 7.28710E-08
 -1     12565-1.85869E-06-1.77773E-07 2.31588E-06-2.38845E-10-4.16984E-12-7.28710E-08
 -1     12566-2.00496E-06-1.77780E-07 2.46209E-06 2.57443E-11-4.49189E-13 7.79796E-08
 -1     12568-2.00496E-06-1.77780E-07 2.46209E-06 2.57443E-11 4.49189E-13-7.79796E-08
 -1     12569-1.76817E-06-1.77775E-07 2.22527E-06 2.03179E-10-3.54719E-12 6.97093E-08
 -1     12571-1.76817E-06-1.77775E-07 2.22527E-06 2.03179E-10 3.54719E-12-6.97093E-08
 -1     12572-1.68313E-06-1.77774E-07 2.14030E-06-1.97521E-10 3.44840E-12 6.67413E-08
 -1     12574-1.68313E-06-1.77774E-07 2.14030E-06-1.97521E-10-3.44840E-12-6.67413E-08
 -1     12575-1.81018E-06-1.77778E-07 2.26731E-06 2.08323E-11-3.63508E-13 7.11787E-08
 -1     12577-1.81018E-06-1.77778E-07 2.26731E-06 2.08323E-11 3.63508E-13-7.11787E-08
 -1     12578-1.60400E-06-1.77775E-07 2.06110E-06 1.68887E-10-2.94849E-12 6.39776E-08
 -1     12580-1.60400E-06-1.77775E-07 2.06110E-06 1.68887E-10 2.94849E-12-6.39776E-08
 -1     12581-1.52933E-06-1.77775E-07 1.98650E-06-1.64881E-10 2.87855E-12 6.13715E-08
 -1     12583-1.52933E-06-1.77775E-07 1.98650E-06-1.64881E-10-2.87855E-12-6.13715E-08
 -1     12584-1.64066E-06-1.77777E-07 2.09779E-06 1.68175E-11-2.93484E-13 6.52597E-08
 -1     12586-1.64066E-06-1.77777E-07 2.09779E-06 1.68175E-11 2.93484E-13-6.52597E-08
 -1     12587-1.45962E-06-1.77776E-07 1.91673E-06 1.42165E-10-2.48195E-12 5.89370E-08
 -1     12589-1.45962E-06-1.77776E-07 1.91673E-06 1.42165E-10 2.48195E-12-5.89370E-08
 -1     12590-1.39361E-06-1.77775E-07 1.85078E-06-1.39234E-10 2.43080E-12 5.66333E-08
 -1     12592-1.39361E-06-1.77775E-07 1.85078E-06-1.39234E-10-2.43080E-12-5.66333E-08
 -1     12593-1.49193E-06-1.77777E-07 1.94906E-06 1.37279E-11-2.39588E-13 6.00668E-08
 -1     12595-1.49193E-06-1.77777E-07 1.94906E-06 1.37279E-11 2.39588E-13-6.00668E-08
 -1     12596-1.33179E-06-1.77776E-07 1.78890E-06 1.21107E-10-2.11431E-12 5.44740E-08
 -1     12598-1.33179E-06-1.77776E-07 1.78890E-06 1.21107E-10 2.11431E-12-5.44740E-08
 -1     12599-1.27310E-06-1.77775E-07 1.73026E-06-1.18913E-10 2.07600E-12 5.24256E-08
 -1     12601-1.27310E-06-1.77775E-07 1.73026E-06-1.18913E-10-2.07600E-12-5.24256E-08
 -1     12602-1.36048E-06-1.77777E-07 1.81761E-06 1.14258E-11-1.99414E-13 5.54773E-08
 -1     12604-1.36048E-06-1.77777E-07 1.81761E-06 1.14258E-11 1.99414E-13-5.54773E-08
 -1     12605-1.21794E-06-1.77776E-07 1.67506E-06 1.04048E-10-1.81649E-12 5.04994E-08
 -1     12607-1.21794E-06-1.77776E-07 1.67506E-06 1.04048E-10 1.81649E-12-5.04994E-08
 -1     12608-1.16550E-06-1.77775E-07 1.62266E-06-1.02438E-10 1.78838E-12 4.86691E-08
 -1     12610-1.16550E-06-1.77775E-07 1.62266E-06-1.02438E-10-1.78838E-12-4.86691E-08
 -1     12611-1.24356E-06-1.77777E-07 1.70070E-06 9.66983E-12-1.68763E-13 5.13952E-08
 -1     12613-1.24356E-06-1.77777E-07 1.70070E-06 9.66983E-12 1.68763E-13-5.13952E-08
 -1     12614-1.11609E-06-1.77776E-07 1.57321E-06 8.99164E-11-1.56977E-12 4.69436E-08
 -1     12616-1.11609E-06-1.77776E-07 1.57321E-06 8.99164E-11 1.56977E-12-4.69436E-08
 -1     12617-1.06905E-06-1.77776E-07 1.52620E-06-8.87680E-11 1.54972E-12 4.53016E-08
 -1     12619-1.06905E-06-1.77776E-07 1.52620E-06-8.87680E-11-1.54972E-12-4.53016E-08
 -1     12620-1.13905E-06-1.77777E-07 1.59619E-06 8.29853E-12-1.44827E-13 4.77464E-08
 -1     12622-1.13905E-06-1.77777E-07 1.59619E-06 8.29853E-12 1.44827E-13-4.77464E-08
 -1     12623-1.02462E-06-1.77776E-07 1.48174E-06 7.81170E-11-1.36378E-12 4.37500E-08
 -1     12625-1.02462E-06-1.77776E-07 1.48174E-06 7.81170E-11 1.36378E-12-4.37500E-08
 -1     12626-9.82250E-07-1.77776E-07 1.43940E-06-7.73061E-11 1.34962E-12 4.22713E-08
 -1     12628-9.82250E-07-1.77776E-07 1.43940E-06-7.73061E-11-1.34962E-12-4.22713E-08
 -1     12629-1.04526E-06-1.77777E-07 1.50239E-06 7.20449E-12-1.25732E-13 4.44716E-08
 -1     12631-1.04526E-06-1.77777E-07 1.50239E-06 7.20449E-12 1.25732E-13-4.44716E-08
 -1     12632-9.42154E-07-1.77776E-07 1.39928E-06 6.82418E-11-1.19137E-12 4.08710E-08
 -1     12634-9.42154E-07-1.77776E-07 1.39928E-06 6.82418E-11 1.19137E-12-4.08710E-08
 -1     12635-9.03858E-07-1.77776E-07 1.36101E-06-6.76751E-11 1.18148E-12 3.95344E-08
 -1     12637-9.03858E-07-1.77776E-07 1.36101E-06-6.76751E-11-1.18148E-12-3.95344E-08
 -1     12638-9.60769E-07-1.77777E-07 1.41791E-06 6.31785E-12-1.10258E-13 4.15218E-08
 -1     12640-9.60769E-07-1.77777E-07 1.41791E-06 6.31785E-12 1.10258E-13-4.15218E-08
 -1     12641-8.67542E-07-1.77776E-07 1.32467E-06 5.99108E-11-1.04593E-12 3.82662E-08
 -1     12643-8.67542E-07-1.77776E-07 1.32467E-06 5.99108E-11 1.04593E-12-3.82662E-08
 -1     12644-8.32806E-07-1.77776E-07 1.28996E-06-5.95487E-11 1.03960E-12 3.70539E-08
 -1     12646-8.32806E-07-1.77776E-07 1.28996E-06-5.95487E-11-1.03960E-12-3.70539E-08
 -1     12647-8.84387E-07-1.77776E-07 1.34152E-06 5.57947E-12-9.73711E-14 3.88551E-08
 -1     12649-8.84387E-07-1.77776E-07 1.34152E-06 5.57947E-12 9.73711E-14-3.88551E-08
 -1     12650-7.99807E-07-1.77776E-07 1.25693E-06 5.28080E-11-9.21930E-13 3.59015E-08
 -1     12652-7.99807E-07-1.77776E-07 1.25693E-06 5.28080E-11 9.21930E-13-3.59015E-08
 -1     12653-7.68202E-07-1.77776E-07 1.22535E-06-5.26143E-11 9.18544E-13 3.47984E-08
 -1     12655-7.68202E-07-1.77776E-07 1.22535E-06-5.26143E-11-9.18544E-13-3.47984E-08
 -1     12656-8.15097E-07-1.77776E-07 1.27223E-06 4.94697E-12-8.63317E-14 3.64360E-08
 -1     12658-8.15097E-07-1.77776E-07 1.27223E-06 4.94697E-12 8.63317E-14-3.64360E-08
 -1     12659-7.38134E-07-1.77776E-07 1.19526E-06 4.66940E-11-8.15191E-13 3.37484E-08
 -1     12661-7.38134E-07-1.77776E-07 1.19526E-06 4.66940E-11 8.15191E-13-3.37484E-08
 -1     12662-7.09299E-07-1.77776E-07 1.16645E-06-4.66139E-11 8.13791E-13 3.27420E-08
 -1     12664-7.09299E-07-1.77776E-07 1.16645E-06-4.66139E-11-8.13791E-13-3.27420E-08
 -1     12665-7.52050E-07-1.77776E-07 1.20919E-06 4.38996E-12-7.66111E-14 3.42348E-08
 -1     12667-7.52050E-07-1.77776E-07 1.20919E-06 4.38996E-12 7.66111E-14-3.42348E-08
 -1     12668-6.81839E-07-1.77776E-07 1.13897E-06 4.14011E-11-7.22787E-13 3.17830E-08
 -1     12670-6.81839E-07-1.77776E-07 1.13897E-06 4.14011E-11 7.22787E-13-3.17830E-08
 -1     12671-6.55472E-07-1.77776E-07 1.11262E-06-4.13856E-11 7.22517E-13 3.08628E-08
 -1     12673-6.55472E-07-1.77776E-07 1.11262E-06-4.13856E-11-7.22517E-13-3.08628E-08
 -1     12674-6.94540E-07-1.77776E-07 1.15168E-06 3.89058E-12-6.78963E-14 3.22270E-08
 -1     12676-6.94540E-07-1.77776E-07 1.15168E-06 3.89058E-12 6.78963E-14-3.22270E-08
 -1     12677-6.30336E-07-1.77776E-07 1.08747E-06 3.68180E-11-6.42774E-13 2.99850E-08
 -1     12679-6.30336E-07-1.77776E-07 1.08747E-06 3.68180E-11 6.42774E-13-2.99850E-08
 -1     12680-6.06172E-07-1.77776E-07 1.06332E-06-3.68384E-11 6.43132E-13 2.91416E-08
 -1     12682-6.06172E-07-1.77776E-07 1.06332E-06-3.68384E-11-6.43132E-13-2.91416E-08
 -1     12683-6.41960E-07-1.77776E-07 1.09910E-06 3.45208E-12-6.02432E-14 3.03913E-08
 -1     12685-6.41960E-07-1.77776E-07 1.09910E-06 3.45208E-12 6.02432E-14-3.03913E-08
 -1     12686-5.83110E-07-1.77776E-07 1.04024E-06 3.28489E-11-5.73480E-13 2.83363E-08
 -1     12688-5.83110E-07-1.77776E-07 1.04024E-06 3.28489E-11 5.73480E-13-2.83363E-08
 -1     12689-5.60916E-07-1.77776E-07 1.01806E-06-3.28595E-11 5.73670E-13 2.75616E-08
 -1     12691-5.60916E-07-1.77776E-07 1.01806E-06-3.28595E-11-5.73670E-13-2.75616E-08
 -1     12692-5.93777E-07-1.77776E-07 1.05091E-06 3.08317E-12-5.38029E-14 2.87091E-08
 -1     12694-5.93777E-07-1.77776E-07 1.05091E-06 3.08317E-12 5.38029E-14-2.87091E-08
 -1     12695-5.39715E-07-1.77776E-07 9.96847E-07 2.93502E-11-5.12401E-13 2.68213E-08
 -1     12697-5.39715E-07-1.77776E-07 9.96847E-07 2.93502E-11 5.12401E-13-2.68213E-08
 -1     12698-5.19296E-07-1.77776E-07 9.76440E-07-2.93117E-11 5.11737E-13 2.61086E-08
 -1     12700-5.19296E-07-1.77776E-07 9.76440E-07-2.93117E-11-5.11737E-13-2.61086E-08
 -1     12701-5.49526E-07-1.77776E-07 1.00666E-06 2.77007E-12-4.83361E-14 2.71642E-08
 -1     12703-5.49526E-07-1.77776E-07 1.00666E-06 2.77007E-12 4.83361E-14-2.71642E-08
 -1     12704-4.99787E-07-1.77776E-07 9.56920E-07 2.61721E-11-4.56920E-13 2.54274E-08
 -1     12706-4.99787E-07-1.77776E-07 9.56920E-07 2.61721E-11 4.56920E-13-2.54274E-08
 -1     12707-4.80982E-07-1.77776E-07 9.38126E-07-2.60703E-11 4.55157E-13 2.47710E-08
 -1     12709-4.80982E-07-1.77776E-07 9.38126E-07-2.60703E-11-4.55157E-13-2.47710E-08
 -1     12710-5.08827E-07-1.77776E-07 9.65964E-07 2.46937E-12-4.30884E-14 2.57433E-08
 -1     12712-5.08827E-07-1.77776E-07 9.65964E-07 2.46937E-12 4.30884E-14-2.57433E-08
 -1     12713-4.63036E-07-1.77776E-07 9.20170E-07 2.32830E-11-4.06477E-13 2.41443E-08
 -1     12715-4.63036E-07-1.77776E-07 9.20170E-07 2.32830E-11 4.06477E-13-2.41443E-08
 -1     12716-4.45703E-07-1.77776E-07 9.02845E-07-2.30755E-11 4.02886E-13 2.35393E-08
 -1     12718-4.45703E-07-1.77776E-07 9.02845E-07-2.30755E-11-4.02886E-13-2.35393E-08
 -1     12719-4.71382E-07-1.77776E-07 9.28520E-07 2.14079E-12-3.73573E-14 2.44360E-08
 -1     12721-4.71382E-07-1.77776E-07 9.28520E-07 2.14079E-12 3.73573E-14-2.44360E-08
 -1     12722-4.29197E-07-1.77776E-07 8.86331E-07 2.07183E-11-3.61693E-13 2.29630E-08
 -1     12724-4.29197E-07-1.77776E-07 8.86331E-07 2.07183E-11 3.61693E-13-2.29630E-08
 -1     12725-4.13207E-07-1.77776E-07 8.70349E-07-2.03653E-11 3.55584E-13 2.24049E-08
 -1     12727-4.13207E-07-1.77776E-07 8.70349E-07-2.03653E-11-3.55584E-13-2.24049E-08
 -1     12728-4.36939E-07-1.77776E-07 8.94077E-07 1.79239E-12-3.12756E-14 2.32335E-08
 -1     12730-4.36939E-07-1.77776E-07 8.94077E-07 1.79239E-12 3.12756E-14-2.32335E-08
 -1     12731-3.98028E-07-1.77776E-07 8.55163E-07 1.84185E-11-3.21529E-13 2.18748E-08
 -1     12733-3.98028E-07-1.77776E-07 8.55163E-07 1.84185E-11 3.21529E-13-2.18748E-08
 -1     12734-3.83260E-07-1.77776E-07 8.40401E-07-1.79563E-11 3.13545E-13 2.13594E-08
 -1     12736-3.83260E-07-1.77776E-07 8.40401E-07-1.79563E-11-3.13545E-13-2.13594E-08
 -1     12737-4.05262E-07-1.77776E-07 8.62400E-07 1.38178E-12-2.41037E-14 2.21276E-08
 -1     12739-4.05262E-07-1.77776E-07 8.62400E-07 1.38178E-12 2.41037E-14-2.21276E-08
 -1     12740-3.69311E-07-1.77776E-07 8.26448E-07 1.65464E-11-2.88817E-13 2.08723E-08
 -1     12742-3.69311E-07-1.77776E-07 8.26448E-07 1.65464E-11 2.88817E-13-2.08723E-08
 -1     12743-3.55636E-07-1.77776E-07 8.12774E-07-1.57250E-11 2.74607E-13 2.03949E-08
 -1     12745-3.55636E-07-1.77776E-07 8.12774E-07-1.57250E-11-2.74607E-13-2.03949E-08
 -1     12746-3.76141E-07-1.77776E-07 8.33279E-07 8.24997E-13-1.43794E-14 2.11109E-08
 -1     12748-3.76141E-07-1.77776E-07 8.33279E-07 8.24997E-13 1.43794E-14-2.11109E-08
 -1     12749-3.42722E-07-1.77776E-07 7.99861E-07 1.49054E-11-2.60175E-13 1.99441E-08
 -1     12751-3.42722E-07-1.77776E-07 7.99861E-07 1.49054E-11 2.60175E-13-1.99441E-08
 -1     12752-3.30052E-07-1.77776E-07 7.87188E-07-1.37810E-11 2.40695E-13 1.95017E-08
 -1     12754-3.30052E-07-1.77776E-07 7.87188E-07-1.37810E-11-2.40695E-13-1.95017E-08
 -1     12755-3.49284E-07-1.77777E-07 8.06423E-07 3.07696E-13-5.29543E-15 2.01733E-08
 -1     12757-3.49284E-07-1.77777E-07 8.06423E-07 3.07696E-13 5.29543E-15-2.01733E-08
 -1     12758-3.18142E-07-1.77776E-07 7.75283E-07 1.28475E-11-2.24256E-13 1.90860E-08
 -1     12760-3.18142E-07-1.77776E-07 7.75283E-07 1.28475E-11 2.24256E-13-1.90860E-08
 -1     12761-3.06417E-07-1.77776E-07 7.63551E-07-1.17471E-11 2.05198E-13 1.86766E-08
 -1     12763-3.06417E-07-1.77776E-07 7.63551E-07-1.17471E-11-2.05198E-13-1.86766E-08
 -1     12764-3.24470E-07-1.77776E-07 7.81609E-07-1.93595E-13 3.43812E-15 1.93070E-08
 -1     12766-3.24470E-07-1.77776E-07 7.81609E-07-1.93595E-13-3.43812E-15-1.93070E-08
 -1     12767-2.95470E-07-1.77776E-07 7.52613E-07 1.15895E-11-2.02271E-13 1.82945E-08
 -1     12769-2.95470E-07-1.77776E-07 7.52613E-07 1.15895E-11 2.02271E-13-1.82945E-08
 -1     12770-2.84586E-07-1.77776E-07 7.41720E-07-9.89613E-12 1.72869E-13 1.79144E-08
 -1     12772-2.84586E-07-1.77776E-07 7.41720E-07-9.89614E-12-1.72869E-13-1.79144E-08
 -1     12773-3.01626E-07-1.77775E-07 7.58763E-07-6.35010E-13 1.10965E-14 1.85095E-08
 -1     12775-3.01626E-07-1.77775E-07 7.58763E-07-6.35010E-13-1.10965E-14-1.85095E-08
 -1     12776-3.20137E-07-1.77776E-07 7.77281E-07 1.77758E-11-3.10237E-13 1.91558E-08
 -1     12778-3.20137E-07-1.77776E-07 7.77281E-07 1.77758E-11 3.10237E-13-1.91558E-08
 -1     12779-3.33545E-07-1.77776E-07 7.90679E-07-1.68290E-11 2.93813E-13 1.96237E-08
 -1     12781-3.33545E-07-1.77776E-07 7.90679E-07-1.68290E-11-2.93813E-13-1.96237E-08
 -1     12782-3.12738E-07-1.77777E-07 7.69876E-07-1.22250E-12 2.13671E-14 1.88975E-08
 -1     12784-3.12738E-07-1.77777E-07 7.69876E-07-1.22250E-12-2.13671E-14-1.88975E-08
 -1     12785-3.55094E-06-1.77780E-07 4.00721E-06-1.01042E-11 1.76345E-13 1.31946E-07
 -1     12787-3.55094E-06-1.77780E-07 4.00721E-06-1.01042E-11-1.76345E-13-1.31946E-07
 -1     12788-3.55076E-06-1.77775E-07 4.00702E-06 2.95491E-12-5.18994E-14 1.31939E-07
 -1     12790-3.55076E-06-1.77775E-07 4.00702E-06 2.95491E-12 5.18994E-14-1.31939E-07
 -1     12791-3.35122E-06-1.77768E-07 3.80996E-06 6.10573E-13-1.06523E-14 1.25008E-07
 -1     12793-3.35122E-06-1.77768E-07 3.80996E-06 6.10573E-13 1.06523E-14-1.25008E-07
 -1     12794-3.71474E-06-1.77725E-07 4.17385E-06 4.94414E-10-8.63090E-12 1.37708E-07
 -1     12796-3.71474E-06-1.77725E-07 4.17385E-06 4.94414E-10 8.63090E-12-1.37708E-07
 -1     12797-2.49812E-07-1.77776E-07 7.06936E-07 1.89742E-13-3.40359E-15 1.67004E-08
 -1     12799-2.49812E-07-1.77776E-07 7.06936E-07 1.89742E-13 3.40359E-15-1.67004E-08
 -1     12800-2.49954E-07-1.77776E-07 7.07077E-07 4.20510E-13-7.28052E-15 1.67053E-08
 -1     12802-2.49954E-07-1.77776E-07 7.07077E-07 4.20510E-13 7.28051E-15-1.67053E-08
 -1     12803-2.58760E-07-1.77777E-07 7.15930E-07-1.94217E-12 3.39145E-14 1.70135E-08
 -1     12805-2.58760E-07-1.77777E-07 7.15930E-07-1.94217E-12-3.39145E-14-1.70135E-08
 -1     12806-2.48345E-07-1.77775E-07 7.05472E-07 1.85262E-12-3.30922E-14 1.66492E-08
 -1     12808-2.48345E-07-1.77775E-07 7.05472E-07 1.85262E-12 3.30922E-14-1.66492E-08
 -1     12809-2.48885E-07-1.77775E-07 7.06010E-07 8.61427E-13-1.45800E-14 1.66680E-08
 -1     12811-2.48885E-07-1.77775E-07 7.06010E-07 8.61427E-13 1.45800E-14-1.66680E-08
 -1     12812-2.57427E-07-1.77775E-07 7.14587E-07-3.04112E-13 5.34810E-15 1.69667E-08
 -1     12814-2.57427E-07-1.77775E-07 7.14587E-07-3.04112E-13-5.34810E-15-1.69667E-08
 -1     12815-2.55502E-07-1.77778E-07 7.12655E-07-6.73104E-12 1.17221E-13 1.68994E-08
 -1     12817-2.55502E-07-1.77778E-07 7.12655E-07-6.73104E-12-1.17221E-13-1.68994E-08
 -1     12818-3.44368E-06-1.77607E-07 3.89988E-06 1.90925E-11-3.50679E-13 1.28207E-07
 -1     12820-3.44368E-06-1.77607E-07 3.89988E-06 1.90925E-11 3.50679E-13-1.28207E-07
 -1     12821-3.35598E-06-1.77779E-07 3.81471E-06 5.63073E-12-9.82915E-14 1.25174E-07
 -1     12823-3.35598E-06-1.77779E-07 3.81471E-06 5.63073E-12 9.82915E-14-1.25174E-07
 -1     12824-2.58615E-07-1.77776E-07 7.15782E-07 1.38380E-13-2.41567E-15 1.70083E-08
 -1     12826-2.58615E-07-1.77776E-07 7.15782E-07 1.38380E-13 2.41567E-15-1.70083E-08
 -1     12827-2.61602E-06-1.77810E-07 3.07315E-06-4.19862E-11 7.33488E-13 9.93178E-08
 -1     12829-2.61602E-06-1.77810E-07 3.07315E-06-4.19862E-11-7.33488E-13-9.93178E-08
 -1     12830-3.25186E-06-1.77885E-07 3.71045E-06 4.29461E-10-7.49997E-12 1.21539E-07
 -1     12832-3.25186E-06-1.77885E-07 3.71045E-06 4.29461E-10 7.49997E-12-1.21539E-07
 -1     12833-3.49061E-06-1.77749E-07 3.94669E-06-2.63578E-10 4.59572E-12 1.29838E-07
 -1     12835-3.49061E-06-1.77749E-07 3.94669E-06-2.63578E-10-4.59572E-12-1.29838E-07
 -1     12836-3.55277E-06-1.77776E-07 4.00902E-06 5.67042E-12-9.90164E-14 1.32009E-07
 -1     12838-3.55277E-06-1.77776E-07 4.00902E-06 5.67042E-12 9.90164E-14-1.32009E-07
 -1     12839-3.35366E-06-1.77777E-07 3.81239E-06 5.07702E-12-8.86329E-14 1.25093E-07
 -1     12841-3.35366E-06-1.77777E-07 3.81239E-06 5.07702E-12 8.86329E-14-1.25093E-07
 -1     12842-3.55245E-06-1.77776E-07 4.00871E-06-8.53094E-12 1.48998E-13 1.31998E-07
 -1     12844-3.55245E-06-1.77776E-07 4.00871E-06-8.53094E-12-1.48998E-13-1.31998E-07
 -1     12845-3.52022E-06-1.77876E-07 3.97676E-06-2.48706E-10 4.32967E-12 1.30881E-07
 -1     12847-3.52022E-06-1.77876E-07 3.97676E-06-2.48706E-10-4.32967E-12-1.30881E-07
 -1     12848-9.74821E-07-1.77776E-07 1.43196E-06 7.39675E-11-1.29134E-12 4.20117E-08
 -1     12850-9.74821E-07-1.77776E-07 1.43196E-06 7.39675E-11 1.29134E-12-4.20117E-08
 -1     12851-1.01670E-06-1.77776E-07 1.47384E-06-7.90749E-11 1.38050E-12 4.34737E-08
 -1     12853-1.01670E-06-1.77776E-07 1.47384E-06-7.90749E-11-1.38050E-12-4.34737E-08
 -1     12854-1.55344E-06-1.77776E-07 2.01058E-06-6.99732E-13 1.22433E-14 6.22145E-08
 -1     12856-1.55344E-06-1.77776E-07 2.01058E-06-6.99732E-13-1.22433E-14-6.22145E-08
 -1     12857-2.59742E-07-1.77776E-07 7.16912E-07-8.66711E-13 1.51313E-14 1.70477E-08
 -1     12859-2.59742E-07-1.77776E-07 7.16912E-07-8.66711E-13-1.51313E-14-1.70477E-08
 -1     12860-3.47401E-07-1.77776E-07 8.04543E-07 1.84939E-11-3.22813E-13 2.01075E-08
 -1     12862-3.47401E-07-1.77776E-07 8.04543E-07 1.84939E-11 3.22813E-13-2.01075E-08
 -1     12863-3.61573E-07-1.77776E-07 8.18709E-07-1.82173E-11 3.18093E-13 2.06022E-08
 -1     12865-3.61573E-07-1.77776E-07 8.18709E-07-1.82173E-11-3.18093E-13-2.06022E-08
 -1     12866-3.55217E-06-1.77775E-07 4.00843E-06-7.97768E-12 1.39218E-13 1.31989E-07
 -1     12868-3.55217E-06-1.77775E-07 4.00843E-06-7.97768E-12-1.39218E-13-1.31989E-07
 -1     12869-3.55240E-06-1.77776E-07 4.00866E-06 5.51119E-12-9.61386E-14 1.31997E-07
 -1     12871-3.55240E-06-1.77776E-07 4.00866E-06 5.51119E-12 9.61386E-14-1.31997E-07
 -1     12872-3.35287E-06-1.77774E-07 3.81160E-06 2.28975E-12-3.99803E-14 1.25065E-07
 -1     12874-3.35287E-06-1.77774E-07 3.81160E-06 2.28975E-12 3.99803E-14-1.25065E-07
 -1     12875-2.02950E-06-1.77767E-07 2.48667E-06 2.68156E-10-4.68231E-12 7.88341E-08
 -1     12877-2.02950E-06-1.77767E-07 2.48667E-06 2.68156E-10 4.68231E-12-7.88341E-08
 -1     12878-2.13898E-06-1.77777E-07 2.59606E-06-2.77315E-10 4.84090E-12 8.26555E-08
 -1     12880-2.13898E-06-1.77777E-07 2.59606E-06-2.77315E-10-4.84090E-12-8.26555E-08
 -1     12881-3.68525E-07-1.77776E-07 8.25663E-07-9.73201E-13 1.70326E-14 2.08451E-08
 -1     12883-3.68525E-07-1.77776E-07 8.25663E-07-9.73201E-13-1.70326E-14-2.08451E-08
 -1     12884-3.54449E-06-1.77782E-07 4.00080E-06 3.36833E-11-5.88304E-13 1.31721E-07
 -1     12886-3.54449E-06-1.77782E-07 4.00080E-06 3.36833E-11 5.88304E-13-1.31721E-07
 -1     12887-3.53750E-06-1.77778E-07 3.99370E-06 5.61268E-11-9.77869E-13 1.31475E-07
 -1     12889-3.53750E-06-1.77778E-07 3.99370E-06 5.61268E-11 9.77869E-13-1.31475E-07
 -1     12890-2.59955E-07-1.77776E-07 7.17119E-07-1.90260E-12 3.31351E-14 1.70550E-08
 -1     12892-2.59955E-07-1.77776E-07 7.17119E-07-1.90260E-12-3.31351E-14-1.70550E-08
 -1     12893-5.35755E-07-1.77776E-07 9.92893E-07-3.03668E-11 5.30143E-13 2.66831E-08
 -1     12895-5.35755E-07-1.77776E-07 9.92893E-07-3.03668E-11-5.30143E-13-2.66831E-08
 -1     12896-5.46477E-07-1.77776E-07 1.00362E-06 8.41108E-14-1.47158E-15 2.70578E-08
 -1     12898-5.46477E-07-1.77776E-07 1.00362E-06 8.41108E-14 1.47158E-15-2.70578E-08
 -1     12899-5.15377E-07-1.77776E-07 9.72515E-07 2.88981E-11-5.04497E-13 2.59717E-08
 -1     12901-5.15377E-07-1.77776E-07 9.72515E-07 2.88981E-11 5.04497E-13-2.59717E-08
 -1     12902-3.39856E-07-1.77776E-07 7.96994E-07-1.17508E-12 2.05769E-14 1.98443E-08
 -1     12904-3.39856E-07-1.77776E-07 7.96994E-07-1.17508E-12-2.05769E-14-1.98443E-08
 -1     12905-1.06080E-06-1.77776E-07 1.51794E-06 8.51326E-11-1.48626E-12 4.50135E-08
 -1     12907-1.06080E-06-1.77776E-07 1.51794E-06 8.51326E-11 1.48626E-12-4.50135E-08
 -1     12908-1.10731E-06-1.77776E-07 1.56445E-06-9.11325E-11 1.59100E-12 4.66372E-08
 -1     12910-1.10731E-06-1.77776E-07 1.56445E-06-9.11325E-11-1.59100E-12-4.66372E-08
 -1     12911-1.03902E-06-1.77776E-07 1.49616E-06 2.32690E-14-4.02154E-16 4.42539E-08
 -1     12913-1.03902E-06-1.77776E-07 1.49616E-06 2.32690E-14 4.02154E-16-4.42539E-08
 -1     12914-3.15295E-06-1.77593E-07 3.60981E-06 5.65079E-11-9.90548E-13 1.18058E-07
 -1     12916-3.15295E-06-1.77593E-07 3.60981E-06 5.65079E-11 9.90548E-13-1.18058E-07
 -1     12917-3.33154E-06-1.77774E-07 3.79024E-06-1.14840E-10 2.00502E-12 1.24320E-07
 -1     12919-3.33154E-06-1.77774E-07 3.79024E-06-1.14840E-10-2.00502E-12-1.24320E-07
 -1     12920-3.58040E-06-1.77743E-07 4.03663E-06-1.06103E-10 1.83362E-12 1.32970E-07
 -1     12922-3.58040E-06-1.77743E-07 4.03663E-06-1.06103E-10-1.83362E-12-1.32970E-07
 -1     12923-3.59328E-06-1.77850E-07 4.04970E-06 2.08199E-11-3.49125E-13 1.33423E-07
 -1     12925-3.59328E-06-1.77850E-07 4.04970E-06 2.08199E-11 3.49125E-13-1.33423E-07
 -1     12926-1.66673E-06-1.77776E-07 2.12387E-06 1.77875E-10-3.10543E-12 6.61681E-08
 -1     12928-1.66673E-06-1.77776E-07 2.12387E-06 1.77875E-10 3.10543E-12-6.61681E-08
 -1     12929-1.74938E-06-1.77777E-07 2.20652E-06-1.91860E-10 3.34931E-12 6.90539E-08
 -1     12931-1.74938E-06-1.77777E-07 2.20652E-06-1.91860E-10-3.34931E-12-6.90539E-08
 -1     12932-8.97172E-07-1.77776E-07 1.35431E-06 6.46527E-11-1.12871E-12 3.93008E-08
 -1     12934-8.97172E-07-1.77776E-07 1.35431E-06 6.46527E-11 1.12871E-12-3.93008E-08
 -1     12935-9.35031E-07-1.77776E-07 1.39217E-06-6.90148E-11 1.20487E-12 4.06226E-08
 -1     12937-9.35031E-07-1.77776E-07 1.39217E-06-6.90148E-11-1.20487E-12-4.06226E-08
 -1     12938-8.79369E-07-1.77776E-07 1.33651E-06-7.51318E-15 1.36960E-16 3.86799E-08
 -1     12940-8.79369E-07-1.77776E-07 1.33651E-06-7.51318E-15-1.36959E-16-3.86799E-08
 -1     12941-3.38610E-06-1.77845E-07 3.84453E-06-4.04304E-10 7.05758E-12 1.26221E-07
 -1     12943-3.38610E-06-1.77845E-07 3.84453E-06-4.04304E-10-7.05758E-12-1.26221E-07
 -1     12944-3.34828E-06-1.77775E-07 3.80698E-06-5.44457E-11 9.50577E-13 1.24905E-07
 -1     12946-3.34828E-06-1.77775E-07 3.80698E-06-5.44457E-11-9.50577E-13-1.24905E-07
 -1     12947-7.04432E-07-1.77776E-07 1.16157E-06 4.45271E-11-7.77358E-13 3.25719E-08
 -1     12949-7.04432E-07-1.77776E-07 1.16157E-06 4.45271E-11 7.77358E-13-3.25719E-08
 -1     12950-7.32964E-07-1.77776E-07 1.19010E-06-4.72577E-11 8.25025E-13 3.35680E-08
 -1     12952-7.32964E-07-1.77776E-07 1.19010E-06-4.72577E-11-8.25025E-13-3.35680E-08
 -1     12953-6.90955E-07-1.77776E-07 1.14809E-06 3.34665E-14-5.81301E-16 3.21019E-08
 -1     12955-6.90955E-07-1.77776E-07 1.14809E-06 3.34665E-14 5.81301E-16-3.21019E-08
 -1     12956-1.15638E-06-1.77776E-07 1.61352E-06 9.83822E-11-1.71757E-12 4.83505E-08
 -1     12958-1.15638E-06-1.77776E-07 1.61352E-06 9.83822E-11 1.71757E-12-4.83505E-08
 -1     12959-1.20821E-06-1.77776E-07 1.66535E-06-1.05560E-10 1.84288E-12 5.01599E-08
 -1     12961-1.20821E-06-1.77776E-07 1.66535E-06-1.05560E-10-1.84288E-12-5.01599E-08
 -1     12962-1.23598E-06-1.77776E-07 1.69312E-06 8.31005E-14-1.45629E-15 5.11306E-08
 -1     12964-1.23598E-06-1.77776E-07 1.69312E-06 8.31005E-14 1.45629E-15-5.11306E-08
 -1     12965-1.13215E-06-1.77776E-07 1.58929E-06 3.92328E-14-6.85590E-16 4.75055E-08
 -1     12967-1.13215E-06-1.77776E-07 1.58929E-06 3.92328E-14 6.85590E-16-4.75055E-08
 -1     12968-2.49931E-07-1.77776E-07 7.07054E-07-3.29454E-13 5.75650E-15 1.67045E-08
 -1     12970-2.49931E-07-1.77776E-07 7.07054E-07-3.29454E-13-5.75650E-15-1.67045E-08
 -1     12971-2.49925E-07-1.77776E-07 7.07049E-07-1.85719E-13 3.28468E-15 1.67043E-08
 -1     12973-2.49925E-07-1.77776E-07 7.07049E-07-1.85719E-13-3.28468E-15-1.67043E-08
 -1     12974-1.38243E-06-1.77776E-07 1.83957E-06 1.32291E-10-2.30952E-12 5.62424E-08
 -1     12976-1.38243E-06-1.77776E-07 1.83957E-06 1.32291E-10 2.30952E-12-5.62424E-08
 -1     12977-1.44748E-06-1.77776E-07 1.90462E-06-1.42577E-10 2.48907E-12 5.85133E-08
 -1     12979-1.44748E-06-1.77776E-07 1.90462E-06-1.42577E-10-2.48907E-12-5.85133E-08
 -1     12980-1.35216E-06-1.77776E-07 1.80930E-06 1.64348E-13-2.87358E-15 5.51868E-08
 -1     12982-1.35216E-06-1.77776E-07 1.80930E-06 1.64348E-13 2.87358E-15-5.51868E-08
 -1     12983-3.35186E-06-1.77771E-07 3.81059E-06 7.85837E-12-1.37193E-13 1.25030E-07
 -1     12985-3.35186E-06-1.77771E-07 3.81059E-06 7.85837E-12 1.37193E-13-1.25030E-07
 -1     12986-2.74379E-07-1.77777E-07 7.31524E-07 1.02603E-11-1.79063E-13 1.75583E-08
 -1     12988-2.74379E-07-1.77777E-07 7.31524E-07 1.02603E-11 1.79063E-13-1.75583E-08
 -1     12989-2.64231E-07-1.77777E-07 7.21366E-07-8.84671E-12 1.54717E-13 1.72038E-08
 -1     12991-2.64231E-07-1.77777E-07 7.21366E-07-8.84671E-12-1.54717E-13-1.72038E-08
 -1     12992-2.61538E-07-1.77774E-07 7.18672E-07-3.74731E-13 6.48738E-15 1.71098E-08
 -1     12994-2.61538E-07-1.77774E-07 7.18672E-07-3.74731E-13-6.48738E-15-1.71098E-08
 -1     12995-2.80480E-07-1.77776E-07 7.37618E-07-5.73764E-13 1.01105E-14 1.77712E-08
 -1     12997-2.80480E-07-1.77776E-07 7.37618E-07-5.73764E-13-1.01105E-14-1.77712E-08
 -1     12998-2.25432E-06-1.77766E-07 2.71156E-06 3.44005E-10-6.00666E-12 8.66849E-08
 -1     13000-2.25432E-06-1.77766E-07 2.71156E-06 3.44005E-10 6.00666E-12-8.66849E-08
 -1     13001-2.38392E-06-1.77777E-07 2.84091E-06-3.44554E-10 6.01424E-12 9.12062E-08
 -1     13003-2.38392E-06-1.77777E-07 2.84091E-06-3.44554E-10-6.01424E-12-9.12062E-08
 -1     13004-2.19238E-06-1.77787E-07 2.64951E-06-2.86224E-11 4.98981E-13 8.45234E-08
 -1     13006-2.19238E-06-1.77787E-07 2.64951E-06-2.86224E-11-4.98981E-13-8.45234E-08
 -1     13007-3.67397E-06-1.77638E-07 4.13282E-06 4.05166E-11-7.04692E-13 1.36279E-07
 -1     13009-3.67397E-06-1.77638E-07 4.13282E-06 4.05166E-11 7.04692E-13-1.36279E-07
 -1     13010-2.46475E-07-1.77774E-07 7.03598E-07-3.46494E-12 6.18498E-14 1.65838E-08
 -1     13012-2.46475E-07-1.77774E-07 7.03598E-07-3.46494E-12-6.18498E-14-1.65838E-08
 -1     13013-2.46008E-07-1.77778E-07 7.03137E-07 6.89815E-13-1.23677E-14 1.65676E-08
 -1     13015-2.46008E-07-1.77778E-07 7.03137E-07 6.89815E-13 1.23677E-14-1.65676E-08
 -1     13016-2.54090E-07-1.77783E-07 7.11253E-07-3.59509E-12 6.27899E-14 1.68503E-08
 -1     13018-2.54090E-07-1.77783E-07 7.11253E-07-3.59509E-12-6.27899E-14-1.68503E-08
 -1     13019-2.57387E-07-1.77777E-07 7.14536E-07 1.02211E-11-1.77855E-13 1.69652E-08
 -1     13021-2.57387E-07-1.77777E-07 7.14536E-07 1.02211E-11 1.77855E-13-1.69652E-08
 -1     13022-4.41018E-07-1.77776E-07 8.98156E-07 2.43516E-11-4.25101E-13 2.33757E-08
 -1     13024-4.41018E-07-1.77776E-07 8.98156E-07 2.43516E-11 4.25101E-13-2.33757E-08
 -1     13025-4.58588E-07-1.77776E-07 9.15727E-07-2.51686E-11 4.39404E-13 2.39892E-08
 -1     13027-4.58588E-07-1.77776E-07 9.15727E-07-2.51686E-11-4.39404E-13-2.39892E-08
 -1     13028-4.32364E-07-1.77776E-07 8.89503E-07-3.26458E-13 5.69430E-15 2.30739E-08
 -1     13030-4.32364E-07-1.77776E-07 8.89503E-07-3.26458E-13-5.69430E-15-2.30739E-08
 -1     13031-3.35544E-06-1.77696E-07 3.81333E-06 5.01689E-10-8.76259E-12 1.25142E-07
 -1     13033-3.35544E-06-1.77696E-07 3.81333E-06 5.01689E-10 8.76259E-12-1.25142E-07
 -1     13034-3.05918E-06-1.77785E-07 3.51588E-06-5.65867E-10 9.86671E-12 1.14783E-07
 -1     13036-3.05918E-06-1.77785E-07 3.51588E-06-5.65867E-10-9.86671E-12-1.14783E-07
 -1     13037-3.10319E-06-1.77657E-07 3.56001E-06-3.99031E-11 6.94217E-13 1.16323E-07
 -1     13039-3.10319E-06-1.77657E-07 3.56001E-06-3.99031E-11-6.94217E-13-1.16323E-07
 -1     13040-2.84365E-06-1.77793E-07 3.30126E-06 6.22021E-10-1.08631E-11 1.07269E-07
 -1     13042-2.84365E-06-1.77793E-07 3.30126E-06 6.22021E-10 1.08631E-11-1.07269E-07
 -1     13043-2.58991E-07-1.77776E-07 7.16160E-07 6.73182E-13-1.17521E-14 1.70215E-08
 -1     13045-2.58991E-07-1.77776E-07 7.16160E-07 6.73182E-13 1.17521E-14-1.70215E-08
 -1     13046-4.95751E-07-1.77776E-07 9.52890E-07-2.75266E-11 4.80558E-13 2.52866E-08
 -1     13048-4.95751E-07-1.77776E-07 9.52890E-07-2.75266E-11-4.80558E-13-2.52866E-08
 -1     13049-5.05650E-07-1.77776E-07 9.62788E-07 3.52999E-14-6.20992E-16 2.56324E-08
 -1     13051-5.05650E-07-1.77776E-07 9.62788E-07 3.52999E-14 6.20992E-16-2.56324E-08
 -1     13052-4.76883E-07-1.77776E-07 9.34021E-07 2.64156E-11-4.61139E-13 2.46278E-08
 -1     13054-4.76883E-07-1.77776E-07 9.34021E-07 2.64156E-11 4.61139E-13-2.46278E-08
 -1     13055-2.59143E-07-1.77776E-07 7.16314E-07 3.54667E-13-6.19072E-15 1.70268E-08
 -1     13057-2.59143E-07-1.77776E-07 7.16314E-07 3.54667E-13 6.19072E-15-1.70268E-08
 -1     13058-9.55164E-07-1.77776E-07 1.41230E-06-1.50223E-14 2.69334E-16 4.13262E-08
 -1     13060-9.55164E-07-1.77776E-07 1.41230E-06-1.50223E-14-2.69334E-16-4.13262E-08
 -1     13061-7.62805E-07-1.77776E-07 1.21994E-06 5.01670E-11-8.75820E-13 3.46098E-08
 -1     13063-7.62805E-07-1.77776E-07 1.21994E-06 5.01670E-11 8.75820E-13-3.46098E-08
 -1     13064-7.94056E-07-1.77776E-07 1.25119E-06-5.33624E-11 9.31605E-13 3.57008E-08
 -1     13066-7.94056E-07-1.77776E-07 1.25119E-06-5.33624E-11-9.31605E-13-3.57008E-08
 -1     13067-2.68777E-07-1.77776E-07 7.25898E-07-5.48450E-13 9.63901E-15 1.73624E-08
 -1     13069-2.68777E-07-1.77776E-07 7.25898E-07-5.48450E-13-9.63901E-15-1.73624E-08
 -1     13070-2.68644E-07-1.77776E-07 7.25766E-07-4.80994E-13 8.43461E-15 1.73578E-08
 -1     13072-2.68644E-07-1.77776E-07 7.25766E-07-4.80994E-13-8.43461E-15-1.73578E-08
 -1     13073-1.51635E-06-1.77777E-07 1.97349E-06 1.52799E-10-2.66754E-12 6.09181E-08
 -1     13075-1.51635E-06-1.77777E-07 1.97349E-06 1.52799E-10 2.66754E-12-6.09181E-08
 -1     13076-1.58944E-06-1.77777E-07 2.04658E-06-1.64988E-10 2.88029E-12 6.34698E-08
 -1     13078-1.58944E-06-1.77777E-07 2.04658E-06-1.64988E-10-2.88029E-12-6.34698E-08
 -1     13079-1.62849E-06-1.77775E-07 2.08562E-06-1.06768E-13 1.92350E-15 6.48346E-08
 -1     13081-1.62849E-06-1.77775E-07 2.08562E-06-1.06768E-13-1.92350E-15-6.48346E-08
 -1     13082-1.48240E-06-1.77776E-07 1.93954E-06 2.35183E-13-4.08945E-15 5.97342E-08
 -1     13084-1.48240E-06-1.77776E-07 1.93954E-06 2.35183E-13 4.08945E-15-5.97342E-08
 -1     13085-3.18120E-06-1.77777E-07 3.63762E-06-6.50029E-12 1.13280E-13 1.19037E-07
 -1     13087-3.18120E-06-1.77777E-07 3.63762E-06-6.50029E-12-1.13280E-13-1.19037E-07
 -1     13088-3.18188E-06-1.77777E-07 3.63831E-06-1.63736E-12 2.86260E-14 1.19061E-07
 -1     13090-3.18188E-06-1.77777E-07 3.63831E-06-1.63736E-12-2.86260E-14-1.19061E-07
 -1     13091-3.51441E-06-1.77715E-07 3.97064E-06-1.29538E-10 2.23237E-12 1.30669E-07
 -1     13093-3.51441E-06-1.77715E-07 3.97064E-06-1.29538E-10-2.23237E-12-1.30669E-07
 -1     13094-2.87921E-06-1.77732E-07 3.33613E-06 6.29530E-10-1.09975E-11 1.08500E-07
 -1     13096-2.87921E-06-1.77732E-07 3.33613E-06 6.29530E-10 1.09975E-11-1.08500E-07
 -1     13097-2.71061E-06-1.77738E-07 3.16797E-06-5.12237E-10 8.94139E-12 1.02619E-07
 -1     13099-2.71061E-06-1.77738E-07 3.16797E-06-5.12237E-10-8.94139E-12-1.02619E-07
 -1     13100-2.68478E-07-1.77776E-07 7.25602E-07 5.19247E-13-9.07147E-15 1.73520E-08
 -1     13102-2.68478E-07-1.77776E-07 7.25602E-07 5.19247E-13 9.07147E-15-1.73520E-08
 -1     13103-2.68674E-07-1.77776E-07 7.25796E-07 6.49044E-13-1.13893E-14 1.73588E-08
 -1     13105-2.68674E-07-1.77776E-07 7.25796E-07 6.49044E-13 1.13893E-14-1.73588E-08
 -1     13106-3.18545E-06-1.77776E-07 3.64187E-06-1.00905E-11 1.75796E-13 1.19186E-07
 -1     13108-3.18545E-06-1.77776E-07 3.64187E-06-1.00905E-11-1.75796E-13-1.19186E-07
 -1     13109-3.18575E-06-1.77775E-07 3.64217E-06 2.94437E-12-5.14549E-14 1.19196E-07
 -1     13111-3.18575E-06-1.77775E-07 3.64217E-06 2.94437E-12 5.14549E-14-1.19196E-07
 -1     13112-3.60425E-07-1.77776E-07 8.17567E-07 1.99613E-11-3.48430E-13 2.05622E-08
 -1     13114-3.60425E-07-1.77776E-07 8.17567E-07 1.99613E-11 3.48430E-13-2.05622E-08
 -1     13115-3.75241E-07-1.77776E-07 8.32378E-07-1.99041E-11 3.47599E-13 2.10794E-08
 -1     13117-3.75241E-07-1.77776E-07 8.32378E-07-1.99041E-11-3.47599E-13-2.10794E-08
 -1     13118-3.16086E-06-1.77912E-07 3.61787E-06-4.05722E-10 7.08430E-12 1.18336E-07
 -1     13120-3.16086E-06-1.77912E-07 3.61787E-06-4.05722E-10-7.08430E-12-1.18336E-07
 -1     13121-3.21743E-06-1.77715E-07 3.67406E-06 2.88205E-11-4.96127E-13 1.20308E-07
 -1     13123-3.21743E-06-1.77715E-07 3.67406E-06 2.88205E-11 4.96127E-13-1.20308E-07
 -1     13124-2.96787E-06-1.77849E-07 3.42590E-06 3.35530E-10-5.85740E-12 1.11612E-07
 -1     13126-2.96787E-06-1.77849E-07 3.42590E-06 3.35530E-10 5.85740E-12-1.11612E-07
 -1     13127-2.67422E-07-1.77777E-07 7.24548E-07-5.40894E-13 1.03112E-14 1.73151E-08
 -1     13129-2.67422E-07-1.77777E-07 7.24548E-07-5.40894E-13-1.03112E-14-1.73151E-08
 -1     13130-2.68587E-07-1.77774E-07 7.25713E-07 9.58359E-12-1.68805E-13 1.73558E-08
 -1     13132-2.68587E-07-1.77774E-07 7.25713E-07 9.58359E-12 1.68805E-13-1.73558E-08
 -1     13133-3.19139E-06-1.77797E-07 3.64812E-06 2.72317E-10-4.76113E-12 1.19399E-07
 -1     13135-3.19139E-06-1.77797E-07 3.64812E-06 2.72317E-10 4.76113E-12-1.19399E-07
 -1     13136-1.83632E-06-1.77774E-07 2.29346E-06 2.12684E-10-3.71339E-12 7.20891E-08
 -1     13138-1.83632E-06-1.77774E-07 2.29346E-06 2.12684E-10 3.71339E-12-7.20891E-08
 -1     13139-1.93060E-06-1.77778E-07 2.38773E-06-2.26936E-10 3.96158E-12 7.53807E-08
 -1     13141-1.93060E-06-1.77778E-07 2.38773E-06-2.26936E-10-3.96158E-12-7.53807E-08
 -1     13142-2.69746E-07-1.77776E-07 7.26868E-07 3.59656E-13-6.38853E-15 1.73963E-08
 -1     13144-2.69746E-07-1.77776E-07 7.26868E-07 3.59656E-13 6.38853E-15-1.73963E-08
 -1     13145-2.69893E-07-1.77776E-07 7.27014E-07 9.54347E-13-1.66445E-14 1.74014E-08
 -1     13147-2.69893E-07-1.77776E-07 7.27014E-07 9.54347E-13 1.66445E-14-1.74014E-08
 -1     13148-3.27279E-06-1.77974E-07 3.73118E-06 4.43447E-10-7.74964E-12 1.22265E-07
 -1     13150-3.27279E-06-1.77974E-07 3.73118E-06 4.43447E-10 7.74964E-12-1.22265E-07
 -1     13151-3.09434E-06-1.77906E-07 3.55169E-06-6.55061E-10 1.14201E-11 1.16019E-07
 -1     13153-3.09434E-06-1.77906E-07 3.55169E-06-6.55061E-10-1.14201E-11-1.16019E-07
 -1     13154-1.79261E-06-1.77773E-07 2.24975E-06-2.24650E-12 3.93151E-14 7.05650E-08
 -1     13156-1.79261E-06-1.77773E-07 2.24975E-06-2.24650E-12-3.93151E-14-7.05650E-08
 -1     13157-2.70007E-07-1.77776E-07 7.27128E-07-8.61019E-13 1.49224E-14 1.74054E-08
 -1     13159-2.70007E-07-1.77776E-07 7.27128E-07-8.61019E-13-1.49224E-14-1.74054E-08
 -1     13160-2.69837E-07-1.77775E-07 7.26959E-07 2.19359E-15 1.45428E-16 1.73995E-08
 -1     13162-2.69837E-07-1.77775E-07 7.26959E-07 2.19360E-15-1.45428E-16-1.73995E-08
 -1     13163-2.80009E-07-1.77777E-07 7.37185E-07-9.53443E-13 1.66456E-14 1.77554E-08
 -1     13165-2.80009E-07-1.77777E-07 7.37185E-07-9.53443E-13-1.66456E-14-1.77554E-08
 -1     13166-2.52055E-06-1.77755E-07 2.97791E-06 4.44605E-10-7.76324E-12 9.59827E-08
 -1     13168-2.52055E-06-1.77755E-07 2.97791E-06 4.44605E-10 7.76324E-12-9.59827E-08
 -1     13169-2.67947E-06-1.77775E-07 3.13631E-06-4.21737E-10 7.36045E-12 1.01524E-07
 -1     13171-2.67947E-06-1.77775E-07 3.13631E-06-4.21737E-10-7.36045E-12-1.01524E-07
 -1     13172-2.74561E-06-1.77810E-07 3.20263E-06-8.73577E-11 1.52699E-12 1.03840E-07
 -1     13174-2.74561E-06-1.77810E-07 3.20263E-06-8.73577E-11-1.52699E-12-1.03840E-07
 -1     13175-2.44432E-06-1.77796E-07 2.90142E-06-5.96530E-11 1.04106E-12 9.33204E-08
 -1     13177-2.44432E-06-1.77796E-07 2.90142E-06-5.96530E-11-1.04106E-12-9.33204E-08
 -1     13178-2.68169E-07-1.77776E-07 7.25292E-07-1.07714E-13 1.91006E-15 1.73412E-08
 -1     13180-2.68169E-07-1.77776E-07 7.25292E-07-1.07714E-13-1.91006E-15-1.73412E-08
 -1     13181-2.68143E-07-1.77776E-07 7.25266E-07-3.23974E-14 5.51183E-16 1.73403E-08
 -1     13183-2.68143E-07-1.77776E-07 7.25266E-07-3.23974E-14-5.51182E-16-1.73403E-08
 -1     13184-8.10617E-07-1.77776E-07 1.26776E-06-1.45004E-14 2.59080E-16 3.62796E-08
 -1     13186-8.10617E-07-1.77776E-07 1.26776E-06-1.45004E-14-2.59080E-16-3.62796E-08
 -1     13187-7.48057E-07-1.77776E-07 1.20520E-06 9.10462E-15-1.54916E-16 3.40954E-08
 -1     13189-7.48057E-07-1.77776E-07 1.20520E-06 9.10461E-15 1.54916E-16-3.40954E-08
 -1     13190-3.45279E-06-1.77587E-07 3.90898E-06-9.51013E-11 1.64035E-12 1.28525E-07
 -1     13192-3.45279E-06-1.77587E-07 3.90898E-06-9.51013E-11-1.64035E-12-1.28525E-07
 -1     13193-1.97831E-06-1.77772E-07 2.43545E-06-8.67601E-12 1.51432E-13 7.70488E-08
 -1     13195-1.97831E-06-1.77772E-07 2.43545E-06-8.67601E-12-1.51432E-13-7.70488E-08
 -1     13196-1.74864E-06-1.77777E-07 2.20577E-06 1.86370E-10-3.25361E-12 6.90277E-08
 -1     13198-1.74864E-06-1.77777E-07 2.20577E-06 1.86370E-10 3.25361E-12-6.90277E-08
 -1     13199-1.83557E-06-1.77779E-07 2.29272E-06-1.99900E-10 3.48956E-12 7.20630E-08
 -1     13201-1.83557E-06-1.77779E-07 2.29272E-06-1.99900E-10-3.48956E-12-7.20630E-08
 -1     13202-7.94049E-07-1.77776E-07 1.25119E-06 5.32427E-11-9.29516E-13 3.57006E-08
 -1     13204-7.94049E-07-1.77776E-07 1.25119E-06 5.32427E-11 9.29516E-13-3.57006E-08
 -1     13205-8.26790E-07-1.77776E-07 1.28393E-06-5.67217E-11 9.90253E-13 3.68437E-08
 -1     13207-8.26790E-07-1.77776E-07 1.28393E-06-5.67217E-11-9.90253E-13-3.68437E-08
 -1     13208-2.79860E-07-1.77775E-07 7.36997E-07 1.60726E-11-2.80787E-13 1.77496E-08
 -1     13210-2.79860E-07-1.77775E-07 7.36997E-07 1.60726E-11 2.80787E-13-1.77496E-08
 -1     13211-2.92788E-07-1.77774E-07 7.49920E-07-1.67330E-11 2.91899E-13 1.82008E-08
 -1     13213-2.92788E-07-1.77774E-07 7.49920E-07-1.67330E-11-2.91899E-13-1.82008E-08
 -1     13214-2.69176E-07-1.77776E-07 7.26298E-07-2.58422E-12 4.52073E-14 1.73764E-08
 -1     13216-2.69176E-07-1.77776E-07 7.26298E-07-2.58422E-12-4.52073E-14-1.73764E-08
 -1     13217-2.68786E-07-1.77774E-07 7.25910E-07-1.88271E-12 3.32524E-14 1.73628E-08
 -1     13219-2.68786E-07-1.77774E-07 7.25910E-07-1.88271E-12-3.32524E-14-1.73628E-08
 -1     13220-2.79458E-07-1.77778E-07 7.36632E-07 5.42095E-12-9.46424E-14 1.77361E-08
 -1     13222-2.79458E-07-1.77778E-07 7.36632E-07 5.42095E-12 9.46424E-14-1.77361E-08
 -1     13223-2.69049E-07-1.77776E-07 7.26172E-07 7.45482E-13-1.30615E-14 1.73720E-08
 -1     13225-2.69049E-07-1.77776E-07 7.26172E-07 7.45482E-13 1.30615E-14-1.73720E-08
 -1     13226-2.69271E-07-1.77776E-07 7.26393E-07 1.06937E-12-1.87524E-14 1.73797E-08
 -1     13228-2.69271E-07-1.77776E-07 7.26393E-07 1.06937E-12 1.87524E-14-1.73797E-08
 -1     13229-2.78561E-07-1.77776E-07 7.35733E-07-1.80282E-12 3.14719E-14 1.77047E-08
 -1     13231-2.78561E-07-1.77776E-07 7.35733E-07-1.80282E-12-3.14719E-14-1.77047E-08
 -1     13232-3.18621E-06-1.77779E-07 3.64265E-06-1.14721E-12 1.94281E-14 1.19212E-07
 -1     13234-3.18621E-06-1.77779E-07 3.64265E-06-1.14721E-12-1.94281E-14-1.19212E-07
 -1     13235-3.18495E-06-1.77773E-07 3.64136E-06 1.60100E-11-2.78910E-13 1.19168E-07
 -1     13237-3.18495E-06-1.77773E-07 3.64136E-06 1.60100E-11 2.78910E-13-1.19168E-07
 -1     13238-3.01558E-06-1.77774E-07 3.47400E-06 8.99208E-12-1.56965E-13 1.13283E-07
 -1     13240-3.01558E-06-1.77774E-07 3.47400E-06 8.99208E-12 1.56965E-13-1.13283E-07
 -1     13241-5.35820E-07-1.77776E-07 9.92957E-07 3.04207E-11-5.31078E-13 2.66854E-08
 -1     13243-5.35820E-07-1.77776E-07 9.92957E-07 3.04207E-11 5.31078E-13-2.66854E-08
 -1     13244-5.57032E-07-1.77776E-07 1.01417E-06-3.20013E-11 5.58672E-13 2.74260E-08
 -1     13246-5.57032E-07-1.77776E-07 1.01417E-06-3.20013E-11-5.58672E-13-2.74260E-08
 -1     13247-2.68395E-07-1.77776E-07 7.25517E-07-3.55436E-13 6.25111E-15 1.73491E-08
 -1     13249-2.68395E-07-1.77776E-07 7.25517E-07-3.55436E-13-6.25111E-15-1.73491E-08
 -1     13250-2.68282E-07-1.77776E-07 7.25405E-07-2.74440E-13 4.78994E-15 1.73452E-08
 -1     13252-2.68282E-07-1.77776E-07 7.25405E-07-2.74440E-13-4.78994E-15-1.73452E-08
 -1     13253-2.78177E-07-1.77776E-07 7.35348E-07 1.18615E-12-2.07076E-14 1.76913E-08
 -1     13255-2.78177E-07-1.77776E-07 7.35348E-07 1.18615E-12 2.07076E-14-1.76913E-08
 -1     13256-3.18428E-06-1.77752E-07 3.64079E-06-3.44426E-12 6.09787E-14 1.19147E-07
 -1     13258-3.18428E-06-1.77752E-07 3.64079E-06-3.44426E-12-6.09787E-14-1.19147E-07
 -1     13259-3.18056E-06-1.77742E-07 3.63691E-06 9.06822E-12-1.59396E-13 1.19014E-07
 -1     13261-3.18056E-06-1.77742E-07 3.63691E-06 9.06822E-12 1.59396E-13-1.19014E-07
 -1     13262-2.66740E-07-1.77775E-07 7.23866E-07 3.23099E-12-5.69014E-14 1.72914E-08
 -1     13264-2.66740E-07-1.77775E-07 7.23866E-07 3.23099E-12 5.69014E-14-1.72914E-08
 -1     13265-2.67619E-07-1.77776E-07 7.24741E-07 4.53554E-12-7.92915E-14 1.73220E-08
 -1     13267-2.67619E-07-1.77776E-07 7.24741E-07 4.53554E-12 7.92915E-14-1.73220E-08
 -1     13268-3.18228E-06-1.77778E-07 3.63874E-06 1.72464E-11-3.01848E-13 1.19076E-07
 -1     13270-3.18228E-06-1.77778E-07 3.63874E-06 1.72464E-11 3.01848E-13-1.19076E-07
 -1     13271-3.17706E-06-1.77775E-07 3.63345E-06 4.50602E-11-7.85186E-13 1.18892E-07
 -1     13273-3.17706E-06-1.77775E-07 3.63345E-06 4.50602E-11 7.85186E-13-1.18892E-07
 -1     13274-3.01349E-06-1.77777E-07 3.47191E-06-2.22128E-11 3.87834E-13 1.13210E-07
 -1     13276-3.01349E-06-1.77777E-07 3.47191E-06-2.22128E-11-3.87834E-13-1.13210E-07
 -1     13277-3.13969E-06-1.77777E-07 3.59626E-06 8.10417E-11-1.41462E-12 1.17592E-07
 -1     13279-3.13969E-06-1.77777E-07 3.59626E-06 8.10417E-11 1.41462E-12-1.17592E-07
 -1     13280-3.11983E-06-1.77731E-07 3.57609E-06 1.97648E-10-3.44428E-12 1.16892E-07
 -1     13282-3.11983E-06-1.77731E-07 3.57609E-06 1.97648E-10 3.44428E-12-1.16892E-07
 -1     13283-3.24597E-06-1.77828E-07 3.70473E-06-2.83040E-10 4.94271E-12 1.21336E-07
 -1     13285-3.24597E-06-1.77828E-07 3.70473E-06-2.83040E-10-4.94271E-12-1.21336E-07
 -1     13286-3.44415E-06-1.77632E-07 3.90032E-06-4.80375E-11 8.53830E-13 1.28222E-07
 -1     13288-3.44415E-06-1.77632E-07 3.90032E-06-4.80375E-11-8.53830E-13-1.28222E-07
 -1     13289-3.16847E-06-1.77780E-07 3.62498E-06 4.79099E-11-8.36838E-13 1.18595E-07
 -1     13291-3.16847E-06-1.77780E-07 3.62498E-06 4.79099E-11 8.36838E-13-1.18595E-07
 -1     13292-3.15758E-06-1.77769E-07 3.61392E-06 9.62112E-11-1.67645E-12 1.18211E-07
 -1     13294-3.15758E-06-1.77769E-07 3.61392E-06 9.62112E-11 1.67645E-12-1.18211E-07
 -1     13295-3.00271E-06-1.77769E-07 3.46110E-06-7.82549E-11 1.36630E-12 1.12834E-07
 -1     13297-3.00271E-06-1.77769E-07 3.46110E-06-7.82549E-11-1.36630E-12-1.12834E-07
 -1     13298-3.90924E-07-1.77776E-07 8.48063E-07 2.21943E-11-3.87416E-13 2.16269E-08
 -1     13300-3.90924E-07-1.77776E-07 8.48063E-07 2.21943E-11 3.87416E-13-2.16269E-08
 -1     13301-4.06894E-07-1.77776E-07 8.64033E-07-2.24929E-11 3.92730E-13 2.21845E-08
 -1     13303-4.06894E-07-1.77776E-07 8.64033E-07-2.24929E-11-3.92730E-13-2.21845E-08
 -1     13304-3.82678E-07-1.77776E-07 8.39816E-07-9.88574E-13 1.72798E-14 2.13393E-08
 -1     13306-3.82678E-07-1.77776E-07 8.39816E-07-9.88574E-13-1.72798E-14-2.13393E-08
 -1     13307-2.55228E-06-1.77770E-07 3.00921E-06 4.15402E-10-7.25335E-12 9.70841E-08
 -1     13309-2.55228E-06-1.77770E-07 3.00921E-06 4.15402E-10 7.25335E-12-9.70841E-08
 -1     13310-2.40998E-06-1.77763E-07 2.86731E-06-4.12379E-10 7.19915E-12 9.21215E-08
 -1     13312-2.40998E-06-1.77763E-07 2.86731E-06-4.12379E-10-7.19915E-12-9.21215E-08
 -1     13313-2.62365E-06-1.77804E-07 3.08073E-06 8.74154E-11-1.52704E-12 9.95833E-08
 -1     13315-2.62365E-06-1.77804E-07 3.08073E-06 8.74154E-11 1.52704E-12-9.95833E-08
 -1     13316-2.27932E-06-1.77775E-07 2.73630E-06 3.27993E-10-5.72631E-12 8.75541E-08
 -1     13318-2.27932E-06-1.77775E-07 2.73630E-06 3.27993E-10 5.72631E-12-8.75541E-08
 -1     13319-2.15784E-06-1.77768E-07 2.61513E-06-3.36462E-10 5.87407E-12 8.33173E-08
 -1     13321-2.15784E-06-1.77768E-07 2.61513E-06-3.36462E-10-5.87407E-12-8.33173E-08
 -1     13322-2.33497E-06-1.77787E-07 2.79207E-06 6.35668E-11-1.10988E-12 8.95025E-08
 -1     13324-2.33497E-06-1.77787E-07 2.79207E-06 6.35668E-11 1.10988E-12-8.95025E-08
 -1     13325-2.04666E-06-1.77776E-07 2.50368E-06 2.65860E-10-4.64146E-12 7.94315E-08
 -1     13327-2.04666E-06-1.77776E-07 2.50368E-06 2.65860E-10 4.64146E-12-7.94315E-08
 -1     13328-1.94224E-06-1.77771E-07 2.39949E-06-2.74544E-10 4.79314E-12 7.57890E-08
 -1     13330-1.94224E-06-1.77771E-07 2.39949E-06-2.74544E-10-4.79314E-12-7.57890E-08
 -1     13331-2.09330E-06-1.77781E-07 2.55041E-06 4.91828E-11-8.58569E-13 8.10640E-08
 -1     13333-2.09330E-06-1.77781E-07 2.55041E-06 4.91828E-11 8.58569E-13-8.10640E-08
 -1     13334-1.84636E-06-1.77776E-07 2.30341E-06 2.17215E-10-3.79222E-12 7.24386E-08
 -1     13336-1.84636E-06-1.77776E-07 2.30341E-06 2.17215E-10 3.79222E-12-7.24386E-08
 -1     13337-1.75585E-06-1.77773E-07 2.21307E-06-2.24796E-10 3.92463E-12 6.92810E-08
 -1     13339-1.75585E-06-1.77773E-07 2.21307E-06-2.24796E-10-3.92463E-12-6.92810E-08
 -1     13340-1.88640E-06-1.77778E-07 2.34351E-06 3.88223E-11-6.77703E-13 7.38397E-08
 -1     13342-1.88640E-06-1.77778E-07 2.34351E-06 3.88223E-11 6.77703E-13-7.38397E-08
 -1     13343-1.67239E-06-1.77776E-07 2.12946E-06 1.78925E-10-3.12374E-12 6.63650E-08
 -1     13345-1.67239E-06-1.77776E-07 2.12946E-06 1.78925E-10 3.12374E-12-6.63650E-08
 -1     13346-1.59328E-06-1.77774E-07 2.05049E-06-1.85667E-10 3.24147E-12 6.36049E-08
 -1     13348-1.59328E-06-1.77774E-07 2.05049E-06-1.85667E-10-3.24147E-12-6.36049E-08
 -1     13349-1.70721E-06-1.77777E-07 2.16433E-06 3.09036E-11-5.39524E-13 6.75832E-08
 -1     13351-1.70721E-06-1.77777E-07 2.16433E-06 3.09036E-11 5.39524E-13-6.75832E-08
 -1     13352-1.52003E-06-1.77776E-07 1.97711E-06 1.49260E-10-2.60583E-12 6.10458E-08
 -1     13354-1.52003E-06-1.77776E-07 1.97711E-06 1.49260E-10 2.60583E-12-6.10458E-08
 -1     13355-1.45034E-06-1.77774E-07 1.90754E-06-1.55338E-10 2.71195E-12 5.86142E-08
 -1     13357-1.45034E-06-1.77774E-07 1.90754E-06-1.55338E-10-2.71195E-12-5.86142E-08
 -1     13358-1.55063E-06-1.77776E-07 2.00775E-06 2.48545E-11-4.33967E-13 6.21161E-08
 -1     13360-1.55063E-06-1.77776E-07 2.00775E-06 2.48545E-11 4.33967E-13-6.21161E-08
 -1     13361-1.38554E-06-1.77776E-07 1.84263E-06 1.26581E-10-2.20988E-12 5.63503E-08
 -1     13363-1.38554E-06-1.77776E-07 1.84263E-06 1.26581E-10 2.20988E-12-5.63503E-08
 -1     13364-1.32372E-06-1.77775E-07 1.78091E-06-1.31979E-10 2.30412E-12 5.41933E-08
 -1     13366-1.32372E-06-1.77775E-07 1.78091E-06-1.31979E-10-2.30412E-12-5.41933E-08
 -1     13367-1.41267E-06-1.77776E-07 1.86980E-06 2.05509E-11-3.58842E-13 5.72995E-08
 -1     13369-1.41267E-06-1.77776E-07 1.86980E-06 2.05509E-11 3.58842E-13-5.72995E-08
 -1     13370-1.26598E-06-1.77776E-07 1.72307E-06 1.08485E-10-1.89395E-12 5.21762E-08
 -1     13372-1.26598E-06-1.77776E-07 1.72307E-06 1.08485E-10 1.89395E-12-5.21762E-08
 -1     13373-1.21083E-06-1.77775E-07 1.66801E-06-1.13539E-10 1.98217E-12 5.02520E-08
 -1     13375-1.21083E-06-1.77775E-07 1.66801E-06-1.13539E-10-1.98217E-12-5.02520E-08
 -1     13376-1.29021E-06-1.77776E-07 1.74734E-06 1.74090E-11-3.03976E-13 5.30237E-08
 -1     13378-1.29021E-06-1.77776E-07 1.74734E-06 1.74090E-11 3.03976E-13-5.30237E-08
 -1     13379-1.15915E-06-1.77776E-07 1.61625E-06 9.35753E-11-1.63365E-12 4.84465E-08
 -1     13381-1.15915E-06-1.77776E-07 1.61625E-06 9.35753E-11 1.63365E-12-4.84465E-08
 -1     13382-1.10974E-06-1.77775E-07 1.56692E-06-9.82679E-11 1.71557E-12 4.67226E-08
 -1     13384-1.10974E-06-1.77775E-07 1.56692E-06-9.82679E-11-1.71557E-12-4.67226E-08
 -1     13385-1.18085E-06-1.77777E-07 1.63798E-06 1.49846E-11-2.61644E-13 4.92055E-08
 -1     13387-1.18085E-06-1.77777E-07 1.63798E-06 1.49846E-11 2.61644E-13-4.92055E-08
 -1     13388-1.06333E-06-1.77776E-07 1.52044E-06 8.11004E-11-1.41587E-12 4.51013E-08
 -1     13390-1.06333E-06-1.77776E-07 1.52044E-06 8.11004E-11 1.41587E-12-4.51013E-08
 -1     13391-1.01890E-06-1.77775E-07 1.47607E-06-8.53977E-11 1.49088E-12 4.35512E-08
 -1     13393-1.01890E-06-1.77775E-07 1.47607E-06-8.53977E-11-1.49088E-12-4.35512E-08
 -1     13394-1.08280E-06-1.77776E-07 1.53994E-06 1.30123E-11-2.27211E-13 4.57825E-08
 -1     13396-1.08280E-06-1.77776E-07 1.53994E-06 1.30123E-11 2.27211E-13-4.57825E-08
 -1     13397-9.77083E-07-1.77776E-07 1.43419E-06 7.06753E-11-1.23386E-12 4.20903E-08
 -1     13399-9.77083E-07-1.77776E-07 1.43419E-06 7.06753E-11 1.23386E-12-4.20903E-08
 -1     13400-9.36987E-07-1.77775E-07 1.39415E-06-7.45777E-11 1.30198E-12 4.06913E-08
 -1     13402-9.36987E-07-1.77775E-07 1.39415E-06-7.45777E-11-1.30198E-12-4.06913E-08
 -1     13403-9.94615E-07-1.77776E-07 1.45175E-06 1.13756E-11-1.98637E-13 4.27035E-08
 -1     13405-9.94615E-07-1.77776E-07 1.45175E-06 1.13756E-11 1.98637E-13-4.27035E-08
 -1     13406-8.99164E-07-1.77776E-07 1.35628E-06 6.19491E-11-1.08152E-12 3.93700E-08
 -1     13408-8.99164E-07-1.77776E-07 1.35628E-06 6.19491E-11 1.08152E-12-3.93700E-08
 -1     13409-8.62848E-07-1.77776E-07 1.32001E-06-6.54930E-11 1.14338E-12 3.81029E-08
 -1     13411-8.62848E-07-1.77776E-07 1.32001E-06-6.54930E-11-1.14338E-12-3.81029E-08
 -1     13412-9.15005E-07-1.77776E-07 1.37214E-06 1.00152E-11-1.74882E-13 3.99240E-08
 -1     13414-9.15005E-07-1.77776E-07 1.37214E-06 1.00152E-11 1.74882E-13-3.99240E-08
 -1     13415-8.28518E-07-1.77776E-07 1.28563E-06 5.45392E-11-9.52153E-13 3.69037E-08
 -1     13417-8.28518E-07-1.77776E-07 1.28563E-06 5.45392E-11 9.52153E-13-3.69037E-08
 -1     13418-7.95518E-07-1.77776E-07 1.25268E-06-5.77862E-11 1.00883E-12 3.57523E-08
 -1     13420-7.95518E-07-1.77776E-07 1.25268E-06-5.77862E-11-1.00883E-12-3.57523E-08
 -1     13421-8.42880E-07-1.77776E-07 1.30001E-06 8.85785E-12-1.54672E-13 3.74059E-08
 -1     13423-8.42880E-07-1.77776E-07 1.30001E-06 8.85785E-12 1.54672E-13-3.74059E-08
 -1     13424-7.64270E-07-1.77776E-07 1.22139E-06 4.81415E-11-8.40464E-13 3.46607E-08
 -1     13426-7.64270E-07-1.77776E-07 1.22139E-06 4.81415E-11 8.40464E-13-3.46607E-08
 -1     13427-7.34202E-07-1.77776E-07 1.19136E-06-5.11314E-11 8.92657E-13 3.36116E-08
 -1     13429-7.34202E-07-1.77776E-07 1.19136E-06-5.11314E-11-8.92657E-13-3.36116E-08
 -1     13430-7.77326E-07-1.77776E-07 1.23446E-06 7.83951E-12-1.36892E-13 3.51172E-08
 -1     13432-7.77326E-07-1.77776E-07 1.23446E-06 7.83951E-12 1.36892E-13-3.51172E-08
 -1     13433-7.05695E-07-1.77776E-07 1.16282E-06 4.25835E-11-7.43431E-13 3.26158E-08
 -1     13435-7.05695E-07-1.77776E-07 1.16282E-06 4.25835E-11 7.43431E-13-3.26158E-08
 -1     13436-6.78235E-07-1.77776E-07 1.13539E-06-4.53254E-11 7.91298E-13 3.16576E-08
 -1     13438-6.78235E-07-1.77776E-07 1.13539E-06-4.53254E-11-7.91298E-13-3.16576E-08
 -1     13439-7.17592E-07-1.77776E-07 1.17473E-06 6.93108E-12-1.21032E-13 3.30318E-08
 -1     13441-7.17592E-07-1.77776E-07 1.17473E-06 6.93108E-12 1.21032E-13-3.30318E-08
 -1     13442-6.52174E-07-1.77776E-07 1.10930E-06 3.77781E-11-6.59537E-13 3.07473E-08
 -1     13444-6.52174E-07-1.77776E-07 1.10930E-06 3.77781E-11 6.59537E-13-3.07473E-08
 -1     13445-6.27038E-07-1.77776E-07 1.08419E-06-4.02753E-11 7.03133E-13 2.98702E-08
 -1     13447-6.27038E-07-1.77776E-07 1.08419E-06-4.02753E-11-7.03133E-13-2.98702E-08
 -1     13448-6.63043E-07-1.77776E-07 1.12018E-06 6.13510E-12-1.07136E-13 3.11273E-08
 -1     13450-6.63043E-07-1.77776E-07 1.12018E-06 6.13510E-12 1.07136E-13-3.11273E-08
 -1     13451-6.03156E-07-1.77776E-07 1.06028E-06 3.36576E-11-5.87599E-13 2.90360E-08
 -1     13453-6.03156E-07-1.77776E-07 1.06028E-06 3.36576E-11 5.87599E-13-2.90360E-08
 -1     13454-5.80094E-07-1.77776E-07 1.03725E-06-3.59019E-11 6.26782E-13 2.82313E-08
 -1     13456-5.80094E-07-1.77776E-07 1.03725E-06-3.59019E-11-6.26782E-13-2.82313E-08
 -1     13457-6.13115E-07-1.77776E-07 1.07025E-06 5.45859E-12-9.53225E-14 2.93842E-08
 -1     13459-6.13115E-07-1.77776E-07 1.07025E-06 5.45859E-12 9.53225E-14-2.93842E-08
 -1     13460-5.58154E-07-1.77776E-07 1.01528E-06 3.01012E-11-5.25510E-13 2.74650E-08
 -1     13462-5.58154E-07-1.77776E-07 1.01528E-06 3.01012E-11 5.25510E-13-2.74650E-08
 -1     13463-5.36953E-07-1.77776E-07 9.94104E-07-3.20599E-11 5.59710E-13 2.67251E-08
 -1     13465-5.36953E-07-1.77776E-07 9.94104E-07-3.20599E-11-5.59710E-13-2.67251E-08
 -1     13466-5.67306E-07-1.77776E-07 1.02444E-06 4.90447E-12-8.56408E-14 2.77849E-08
 -1     13468-5.67306E-07-1.77776E-07 1.02444E-06 4.90447E-12 8.56408E-14-2.77849E-08
 -1     13469-5.16763E-07-1.77776E-07 9.73891E-07 2.68800E-11-4.69281E-13 2.60200E-08
 -1     13471-5.16763E-07-1.77776E-07 9.73891E-07 2.68800E-11 4.69281E-13-2.60200E-08
 -1     13472-4.97255E-07-1.77776E-07 9.54405E-07-2.85304E-11 4.98102E-13 2.53392E-08
 -1     13474-4.97255E-07-1.77776E-07 9.54405E-07-2.85304E-11-4.98102E-13-2.53392E-08
 -1     13475-5.25189E-07-1.77776E-07 9.82325E-07 4.43740E-12-7.74800E-14 2.63145E-08
 -1     13477-5.25189E-07-1.77776E-07 9.82325E-07 4.43740E-12 7.74800E-14-2.63145E-08
 -1     13478-4.78692E-07-1.77776E-07 9.35820E-07 2.37908E-11-4.15355E-13 2.46908E-08
 -1     13480-4.78692E-07-1.77776E-07 9.35820E-07 2.37908E-11 4.15355E-13-2.46908E-08
 -1     13481-4.60746E-07-1.77776E-07 9.17894E-07-2.51455E-11 4.39022E-13 2.40646E-08
 -1     13483-4.60746E-07-1.77776E-07 9.17894E-07-2.51455E-11-4.39022E-13-2.40646E-08
 -1     13484-4.86447E-07-1.77776E-07 9.43583E-07 3.94363E-12-6.88663E-14 2.49619E-08
 -1     13486-4.86447E-07-1.77776E-07 9.43583E-07 3.94363E-12 6.88663E-14-2.49619E-08
 -1     13487-4.43724E-07-1.77776E-07 9.00854E-07 2.09563E-11-3.65860E-13 2.34701E-08
 -1     13489-4.43724E-07-1.77776E-07 9.00854E-07 2.09563E-11 3.65860E-13-2.34701E-08
 -1     13490-4.27219E-07-1.77776E-07 8.84365E-07-2.19823E-11 3.83810E-13 2.28941E-08
 -1     13492-4.27219E-07-1.77776E-07 8.84365E-07-2.19823E-11-3.83810E-13-2.28941E-08
 -1     13493-4.50873E-07-1.77776E-07 9.08009E-07 3.35519E-12-5.86066E-14 2.37200E-08
 -1     13495-4.50873E-07-1.77776E-07 9.08009E-07 3.35519E-12 5.86066E-14-2.37200E-08
 -1     13496-4.11611E-07-1.77776E-07 8.68743E-07 1.85444E-11-3.23741E-13 2.23490E-08
 -1     13498-4.11611E-07-1.77776E-07 8.68743E-07 1.85444E-11 3.23741E-13-2.23490E-08
 -1     13499-3.96432E-07-1.77776E-07 8.53577E-07-1.91808E-11 3.34921E-13 2.18193E-08
 -1     13501-3.96432E-07-1.77776E-07 8.53577E-07-1.91808E-11-3.34921E-13-2.18193E-08
 -1     13502-4.18253E-07-1.77776E-07 8.75390E-07 2.85773E-12-4.99066E-14 2.25811E-08
 -1     13504-4.18253E-07-1.77776E-07 8.75390E-07 2.85773E-12 4.99066E-14-2.25811E-08
 -1     13505-3.82151E-07-1.77776E-07 8.39284E-07 1.61247E-11-2.81484E-13 2.13205E-08
 -1     13507-3.82151E-07-1.77776E-07 8.39284E-07 1.61247E-11 2.81484E-13-2.13205E-08
 -1     13508-3.68203E-07-1.77776E-07 8.25346E-07-1.65264E-11 2.88622E-13 2.08337E-08
 -1     13510-3.68203E-07-1.77776E-07 8.25346E-07-1.65264E-11-2.88622E-13-2.08337E-08
 -1     13511-3.88373E-07-1.77776E-07 8.45511E-07 2.32620E-12-4.06265E-14 2.15380E-08
 -1     13513-3.88373E-07-1.77776E-07 8.45511E-07 2.32620E-12 4.06265E-14-2.15380E-08
 -1     13514-3.55308E-07-1.77775E-07 8.12442E-07 1.46089E-11-2.54918E-13 2.03834E-08
 -1     13516-3.55308E-07-1.77775E-07 8.12442E-07 1.46089E-11 2.54918E-13-2.03834E-08
 -1     13517-3.42395E-07-1.77776E-07 7.99533E-07-1.41444E-11 2.47053E-13 1.99326E-08
 -1     13519-3.42395E-07-1.77776E-07 7.99533E-07-1.41444E-11-2.47053E-13-1.99326E-08
 -1     13520-3.61208E-07-1.77776E-07 8.18345E-07 1.08815E-12-1.90634E-14 2.05896E-08
 -1     13522-3.61208E-07-1.77776E-07 8.18345E-07 1.08815E-12 1.90634E-14-2.05896E-08
 -1     13523-3.30306E-07-1.77776E-07 7.87446E-07 1.27935E-11-2.23314E-13 1.95106E-08
 -1     13525-3.30306E-07-1.77776E-07 7.87446E-07 1.27935E-11 2.23314E-13-1.95106E-08
 -1     13526-3.18404E-07-1.77776E-07 7.75539E-07-1.27797E-11 2.23261E-13 1.90950E-08
 -1     13528-3.18404E-07-1.77776E-07 7.75539E-07-1.27797E-11-2.23261E-13-1.90950E-08
 -1     13529-3.36226E-07-1.77779E-07 7.93365E-07 2.23597E-13-3.70859E-15 1.97174E-08
 -1     13531-3.36226E-07-1.77779E-07 7.93365E-07 2.23597E-13 3.70859E-15-1.97174E-08
 -1     13532-3.07379E-07-1.77776E-07 7.64522E-07 1.09738E-11-1.91559E-13 1.87103E-08
 -1     13534-3.07379E-07-1.77776E-07 7.64522E-07 1.09738E-11 1.91559E-13-1.87103E-08
 -1     13535-2.96436E-07-1.77776E-07 7.53571E-07-1.06529E-11 1.85943E-13 1.83281E-08
 -1     13537-2.96436E-07-1.77776E-07 7.53571E-07-1.06529E-11-1.85943E-13-1.83281E-08
 -1     13538-3.13131E-07-1.77775E-07 7.70268E-07-1.74567E-13 2.95976E-15 1.89111E-08
 -1     13540-3.13131E-07-1.77775E-07 7.70268E-07-1.74567E-13-2.95976E-15-1.89111E-08
 -1     13541-3.05407E-07-1.77776E-07 7.62552E-07 1.67667E-11-2.92720E-13 1.86415E-08
 -1     13543-3.05407E-07-1.77776E-07 7.62552E-07 1.67667E-11 2.92720E-13-1.86415E-08
 -1     13544-3.18673E-07-1.77776E-07 7.75805E-07-1.63217E-11 2.84868E-13 1.91045E-08
 -1     13546-3.18673E-07-1.77776E-07 7.75805E-07-1.63217E-11-2.84868E-13-1.91045E-08
 -1     13547-2.98604E-07-1.77777E-07 7.55742E-07-7.80759E-13 1.36428E-14 1.84041E-08
 -1     13549-2.98604E-07-1.77777E-07 7.55742E-07-7.80759E-13-1.36428E-14-1.84041E-08
 -1     13550-1.92625E-06-1.77773E-07 2.38338E-06 2.20788E-10-3.85507E-12 7.52284E-08
 -1     13552-1.92625E-06-1.77773E-07 2.38338E-06 2.20788E-10 3.85507E-12-7.52284E-08
 -1     13553-2.02513E-06-1.77784E-07 2.48227E-06-2.28591E-10 3.98994E-12 7.86809E-08
 -1     13555-2.02513E-06-1.77784E-07 2.48227E-06-2.28591E-10-3.98994E-12-7.86809E-08
 -1     13556-1.88086E-06-1.77767E-07 2.33799E-06 6.77404E-13-1.15554E-14 7.36458E-08
 -1     13558-1.88086E-06-1.77767E-07 2.33799E-06 6.77404E-13 1.15554E-14-7.36458E-08
 -1     13559-3.18006E-06-1.77772E-07 3.63649E-06 7.11056E-13-1.22708E-14 1.18998E-07
 -1     13561-3.18006E-06-1.77772E-07 3.63649E-06 7.11056E-13 1.22708E-14-1.18998E-07
 -1     13562-3.17999E-06-1.77773E-07 3.63640E-06-2.10560E-12 3.63128E-14 1.18995E-07
 -1     13564-3.17999E-06-1.77773E-07 3.63640E-06-2.10560E-12-3.63128E-14-1.18995E-07
 -1     13565-3.00918E-06-1.77784E-07 3.46760E-06 1.22343E-11-2.13511E-13 1.13060E-07
 -1     13567-3.00918E-06-1.77784E-07 3.46760E-06 1.22343E-11 2.13511E-13-1.13060E-07
 -1     13568-2.68834E-07-1.77775E-07 7.25956E-07-1.71457E-13 2.69885E-15 1.73645E-08
 -1     13570-2.68834E-07-1.77775E-07 7.25956E-07-1.71457E-13-2.69885E-15-1.73645E-08
 -1     13571-2.69244E-07-1.77775E-07 7.26364E-07 1.59362E-12-2.76170E-14 1.73787E-08
 -1     13573-2.69244E-07-1.77775E-07 7.26364E-07 1.59362E-12 2.76170E-14-1.73787E-08
 -1     13574-2.78079E-07-1.77780E-07 7.35254E-07-8.51699E-12 1.48759E-13 1.76880E-08
 -1     13576-2.78079E-07-1.77780E-07 7.35254E-07-8.51699E-12-1.48759E-13-1.76880E-08
 -1     13577-2.99572E-06-1.77820E-07 3.45266E-06 9.04781E-11-1.58470E-12 1.12578E-07
 -1     13579-2.99572E-06-1.77820E-07 3.45266E-06 9.04781E-11 1.58470E-12-1.12578E-07
 -1     13580-3.08716E-06-1.77725E-07 3.54379E-06 9.63116E-11-1.67881E-12 1.15761E-07
 -1     13582-3.08716E-06-1.77725E-07 3.54379E-06 9.63116E-11 1.67881E-12-1.15761E-07
 -1     13583-3.05522E-06-1.77769E-07 3.51177E-06 5.11666E-10-8.91779E-12 1.14643E-07
 -1     13585-3.05522E-06-1.77769E-07 3.51177E-06 5.11666E-10 8.91779E-12-1.14643E-07
 -1     13586-2.84000E-06-1.77795E-07 3.29784E-06-6.95323E-10 1.21424E-11 1.07146E-07
 -1     13588-2.84000E-06-1.77795E-07 3.29784E-06-6.95323E-10-1.21424E-11-1.07146E-07
 -1     13589-2.92857E-06-1.77825E-07 3.38691E-06-3.50048E-10 6.11198E-12 1.10245E-07
 -1     13591-2.92857E-06-1.77825E-07 3.38691E-06-3.50048E-10-6.11198E-12-1.10245E-07
 -1     13592-2.77811E-07-1.77776E-07 7.34982E-07 6.17887E-13-1.07864E-14 1.76785E-08
 -1     13594-2.77811E-07-1.77776E-07 7.34982E-07 6.17887E-13 1.07864E-14-1.76785E-08
 -1     13595-3.35321E-06-1.77776E-07 3.81194E-06 3.15728E-13-5.51318E-15 1.25077E-07
 -1     13597-3.35321E-06-1.77776E-07 3.81194E-06 3.15728E-13 5.51318E-15-1.25077E-07
 -1     13598-3.18424E-06-1.77775E-07 3.64066E-06 1.87765E-12-3.29385E-14 1.19144E-07
 -1     13600-3.18424E-06-1.77775E-07 3.64066E-06 1.87765E-12 3.29385E-14-1.19144E-07
 -1     13601-3.01392E-06-1.77780E-07 3.47237E-06 1.45214E-11-2.53506E-13 1.13226E-07
 -1     13603-3.01392E-06-1.77780E-07 3.47237E-06 1.45214E-11 2.53506E-13-1.13226E-07
 -1     13604-3.18347E-06-1.77776E-07 3.63989E-06-1.05960E-11 1.84971E-13 1.19117E-07
 -1     13606-3.18347E-06-1.77776E-07 3.63989E-06-1.05960E-11-1.84971E-13-1.19117E-07
 -1     13607-4.67738E-07-1.77776E-07 9.24876E-07-8.41796E-14 1.46034E-15 2.43089E-08
 -1     13609-4.67738E-07-1.77776E-07 9.24876E-07-8.41796E-14-1.46034E-15-2.43089E-08
 -1     13610-7.62814E-07-1.77776E-07 1.21995E-06-5.00948E-11 8.74556E-13 3.46101E-08
 -1     13612-7.62814E-07-1.77776E-07 1.21995E-06-5.00948E-11-8.74556E-13-3.46101E-08
 -1     13613-7.78613E-07-1.77776E-07 1.23575E-06-1.64428E-14 2.96805E-16 3.51622E-08
 -1     13615-7.78613E-07-1.77776E-07 1.23575E-06-1.64428E-14-2.96805E-16-3.51622E-08
 -1     13616-7.32973E-07-1.77776E-07 1.19011E-06 4.71264E-11-8.22737E-13 3.35683E-08
 -1     13618-7.32973E-07-1.77776E-07 1.19011E-06 4.71264E-11 8.22737E-13-3.35683E-08
 -1     13619-3.18240E-06-1.77775E-07 3.63883E-06-5.39580E-12 9.41024E-14 1.19079E-07
 -1     13621-3.18240E-06-1.77775E-07 3.63883E-06-5.39580E-12-9.41024E-14-1.19079E-07
 -1     13622-3.18270E-06-1.77776E-07 3.63912E-06 4.02880E-12-7.01239E-14 1.19090E-07
 -1     13624-3.18270E-06-1.77776E-07 3.63912E-06 4.02880E-12 7.01239E-14-1.19090E-07
 -1     13625-3.01164E-06-1.77772E-07 3.47007E-06 3.04263E-12-5.31309E-14 1.13146E-07
 -1     13627-3.01164E-06-1.77772E-07 3.47007E-06 3.04263E-12 5.31309E-14-1.13146E-07
 -1     13628-3.00995E-06-1.77776E-07 3.46838E-06 1.78476E-11-3.11558E-13 1.13087E-07
 -1     13630-3.00995E-06-1.77776E-07 3.46838E-06 1.78476E-11 3.11558E-13-1.13087E-07
 -1     13631-4.23615E-07-1.77776E-07 8.80753E-07 2.40071E-11-4.19073E-13 2.27682E-08
 -1     13633-4.23615E-07-1.77776E-07 8.80753E-07 2.40071E-11 4.19073E-13-2.27682E-08
 -1     13634-4.40699E-07-1.77776E-07 8.97839E-07-2.46154E-11 4.29752E-13 2.33647E-08
 -1     13636-4.40699E-07-1.77776E-07 8.97839E-07-2.46154E-11-4.29752E-13-2.33647E-08
 -1     13637-4.15069E-07-1.77776E-07 8.72207E-07-4.03715E-13 7.03614E-15 2.24701E-08
 -1     13639-4.15069E-07-1.77776E-07 8.72207E-07-4.03715E-13-7.03614E-15-2.24701E-08
 -1     13640-1.66693E-06-1.77777E-07 2.12408E-06-1.76044E-10 3.07328E-12 6.61753E-08
 -1     13642-1.66693E-06-1.77777E-07 2.12408E-06-1.76044E-10-3.07328E-12-6.61753E-08
 -1     13643-1.70856E-06-1.77773E-07 2.16569E-06 2.02627E-12-3.52374E-14 6.76302E-08
 -1     13645-1.70856E-06-1.77773E-07 2.16569E-06 2.02627E-12 3.52374E-14-6.76302E-08
 -1     13646-1.58965E-06-1.77777E-07 2.04678E-06 1.63124E-10-2.84769E-12 6.34769E-08
 -1     13648-1.58965E-06-1.77777E-07 2.04678E-06 1.63124E-10 2.84769E-12-6.34769E-08
 -1     13649-2.97725E-06-1.77773E-07 3.43562E-06-1.74956E-10 3.05470E-12 1.11945E-07
 -1     13651-2.97725E-06-1.77773E-07 3.43562E-06-1.74956E-10-3.05470E-12-1.11945E-07
 -1     13652-2.77426E-07-1.77776E-07 7.34589E-07 7.94296E-12-1.38621E-13 1.76649E-08
 -1     13654-2.77426E-07-1.77776E-07 7.34589E-07 7.94296E-12 1.38621E-13-1.76649E-08
 -1     13655-3.01697E-06-1.77774E-07 3.47527E-06-8.01806E-12 1.40179E-13 1.13330E-07
 -1     13657-3.01697E-06-1.77774E-07 3.47527E-06-8.01806E-12-1.40179E-13-1.13330E-07
 -1     13658-1.01664E-06-1.77776E-07 1.47377E-06 7.91859E-11-1.38244E-12 4.34716E-08
 -1     13660-1.01664E-06-1.77776E-07 1.47377E-06 7.91859E-11 1.38244E-12-4.34716E-08
 -1     13661-1.06074E-06-1.77776E-07 1.51788E-06-8.46581E-11 1.47797E-12 4.50113E-08
 -1     13663-1.06074E-06-1.77776E-07 1.51788E-06-8.46581E-11-1.47797E-12-4.50113E-08
 -1     13664-2.79418E-07-1.77776E-07 7.36592E-07-2.61538E-12 4.56586E-14 1.77347E-08
 -1     13666-2.79418E-07-1.77776E-07 7.36592E-07-2.61538E-12-4.56586E-14-1.77347E-08
 -1     13667-8.61123E-07-1.77776E-07 1.31826E-06 6.04509E-11-1.05536E-12 3.80423E-08
 -1     13669-8.61123E-07-1.77776E-07 1.31826E-06 6.04509E-11 1.05536E-12-3.80423E-08
 -1     13670-8.97159E-07-1.77776E-07 1.35430E-06-6.44994E-11 1.12603E-12 3.93004E-08
 -1     13672-8.97159E-07-1.77776E-07 1.35430E-06-6.44994E-11-1.12603E-12-3.93004E-08
 -1     13673-8.44156E-07-1.77776E-07 1.30129E-06-4.79756E-14 8.46378E-16 3.74505E-08
 -1     13675-8.44156E-07-1.77776E-07 1.30129E-06-4.79756E-14-8.46378E-16-3.74505E-08
 -1     13676-1.20813E-06-1.77776E-07 1.66527E-06 1.06186E-10-1.85381E-12 5.01570E-08
 -1     13678-1.20813E-06-1.77776E-07 1.66527E-06 1.06186E-10 1.85381E-12-5.01570E-08
 -1     13679-1.26293E-06-1.77776E-07 1.72007E-06-1.13954E-10 1.98943E-12 5.20705E-08
 -1     13681-1.26293E-06-1.77776E-07 1.72007E-06-1.13954E-10-1.98943E-12-5.20705E-08
 -1     13682-2.81047E-07-1.77776E-07 7.38189E-07-1.55709E-11 2.70985E-13 1.77910E-08
 -1     13684-2.81047E-07-1.77776E-07 7.38189E-07-1.55709E-11-2.70985E-13-1.77910E-08
 -1     13685-2.73512E-07-1.77778E-07 7.30648E-07 2.51536E-12-4.43855E-14 1.75281E-08
 -1     13687-2.73512E-07-1.77778E-07 7.30648E-07 2.51536E-12 4.43855E-14-1.75281E-08
 -1     13688-2.12576E-06-1.77761E-07 2.58295E-06 2.88847E-10-5.04457E-12 8.21951E-08
 -1     13690-2.12576E-06-1.77761E-07 2.58295E-06 2.88847E-10 5.04457E-12-8.21951E-08
 -1     13691-2.24114E-06-1.77785E-07 2.69816E-06-2.75442E-10 4.80689E-12 8.62211E-08
 -1     13693-2.24114E-06-1.77785E-07 2.69816E-06-2.75442E-10-4.80689E-12-8.62211E-08
 -1     13694-2.07210E-06-1.77769E-07 2.52923E-06-7.37932E-12 1.28875E-13 8.03228E-08
 -1     13696-2.07210E-06-1.77769E-07 2.52923E-06-7.37932E-12-1.28875E-13-8.03228E-08
 -1     13697-2.68159E-07-1.77776E-07 7.25282E-07 1.98148E-13-3.43108E-15 1.73409E-08
 -1     13699-2.68159E-07-1.77776E-07 7.25282E-07 1.98148E-13 3.43108E-15-1.73409E-08
 -1     13700-2.68254E-07-1.77776E-07 7.25377E-07 2.93621E-13-5.16854E-15 1.73442E-08
 -1     13702-2.68254E-07-1.77776E-07 7.25377E-07 2.93621E-13 5.16854E-15-1.73442E-08
 -1     13703-5.79109E-07-1.77776E-07 1.03625E-06 3.36433E-11-5.87346E-13 2.81967E-08
 -1     13705-5.79109E-07-1.77776E-07 1.03625E-06 3.36433E-11 5.87346E-13-2.81967E-08
 -1     13706-6.02113E-07-1.77776E-07 1.05925E-06-3.55107E-11 6.19938E-13 2.89998E-08
 -1     13708-6.02113E-07-1.77776E-07 1.05925E-06-3.55107E-11-6.19938E-13-2.89998E-08
 -1     13709-5.68229E-07-1.77776E-07 1.02537E-06 1.86451E-13-3.25614E-15 2.78172E-08
 -1     13711-5.68229E-07-1.77776E-07 1.02537E-06 1.86451E-13 3.25614E-15-2.78172E-08
 -1     13712-2.77956E-07-1.77776E-07 7.35126E-07-9.43426E-13 1.64697E-14 1.76836E-08
 -1     13714-2.77956E-07-1.77776E-07 7.35126E-07-9.43426E-13-1.64697E-14-1.76836E-08
 -1     13715-6.26076E-07-1.77776E-07 1.08321E-06 3.74329E-11-6.53508E-13 2.98364E-08
 -1     13717-6.26076E-07-1.77776E-07 1.08321E-06 3.74329E-11 6.53508E-13-2.98364E-08
 -1     13718-6.51087E-07-1.77776E-07 1.10823E-06-3.96166E-11 6.91623E-13 3.07095E-08
 -1     13720-6.51087E-07-1.77776E-07 1.10823E-06-3.96166E-11-6.91623E-13-3.07095E-08
 -1     13721-6.14256E-07-1.77776E-07 1.07139E-06 1.25734E-13-2.19278E-15 2.94241E-08
 -1     13723-6.14256E-07-1.77776E-07 1.07139E-06 1.25734E-13 2.19278E-15-2.94241E-08
 -1     13724-3.32066E-07-1.77776E-07 7.89211E-07 1.75423E-11-3.06215E-13 1.95722E-08
 -1     13726-3.32066E-07-1.77776E-07 7.89211E-07 1.75423E-11 3.06215E-13-1.95722E-08
 -1     13727-3.45920E-07-1.77776E-07 8.03055E-07-1.74943E-11 3.05489E-13 2.00557E-08
 -1     13729-3.45920E-07-1.77776E-07 8.03055E-07-1.74943E-11-3.05489E-13-2.00557E-08
 -1     13730-6.77181E-07-1.77776E-07 1.13432E-06 4.19014E-11-7.31521E-13 3.16206E-08
 -1     13732-6.77181E-07-1.77776E-07 1.13432E-06 4.19014E-11 7.31521E-13-3.16206E-08
 -1     13733-7.04462E-07-1.77776E-07 1.16160E-06-4.44537E-11 7.76072E-13 3.25730E-08
 -1     13735-7.04462E-07-1.77776E-07 1.16160E-06-4.44537E-11-7.76072E-13-3.25730E-08
 -1     13736-7.18887E-07-1.77776E-07 1.17603E-06 1.71764E-14-2.93538E-16 3.30770E-08
 -1     13738-7.18887E-07-1.77776E-07 1.17603E-06 1.71764E-14 2.93538E-16-3.30770E-08
 -1     13739-6.64299E-07-1.77776E-07 1.12144E-06 6.45928E-14-1.12273E-15 3.11712E-08
 -1     13741-6.64299E-07-1.77776E-07 1.12144E-06 6.45928E-14 1.12273E-15-3.11712E-08
 -1     13742-9.34992E-07-1.77776E-07 1.39213E-06 6.89300E-11-1.20339E-12 4.06212E-08
 -1     13744-9.34992E-07-1.77776E-07 1.39213E-06 6.89300E-11 1.20339E-12-4.06212E-08
 -1     13745-9.74781E-07-1.77776E-07 1.43192E-06-7.36777E-11 1.28627E-12 4.20103E-08
 -1     13747-9.74781E-07-1.77776E-07 1.43192E-06-7.36777E-11-1.28627E-12-4.20103E-08
 -1     13748-9.16293E-07-1.77776E-07 1.37343E-06-6.64496E-14 1.17072E-15 3.99690E-08
 -1     13750-9.16293E-07-1.77776E-07 1.37343E-06-6.64496E-14-1.17072E-15-3.99690E-08
 -1     13751-5.15399E-07-1.77776E-07 9.72538E-07-2.90157E-11 5.06553E-13 2.59725E-08
 -1     13753-5.15399E-07-1.77776E-07 9.72538E-07-2.90157E-11-5.06553E-13-2.59725E-08
 -1     13754-5.25742E-07-1.77776E-07 9.82880E-07 1.94293E-13-3.39740E-15 2.63339E-08
 -1     13756-5.25742E-07-1.77776E-07 9.82880E-07 1.94293E-13 3.39740E-15-2.63339E-08
 -1     13757-4.95774E-07-1.77776E-07 9.52912E-07 2.77359E-11-4.84197E-13 2.52873E-08
 -1     13759-4.95774E-07-1.77776E-07 9.52912E-07 2.77359E-11 4.84197E-13-2.52873E-08
 -1     13760-1.32100E-06-1.77776E-07 1.77814E-06 1.23404E-10-2.15438E-12 5.40979E-08
 -1     13762-1.32100E-06-1.77776E-07 1.77814E-06 1.23404E-10 2.15438E-12-5.40979E-08
 -1     13763-1.38244E-06-1.77776E-07 1.83958E-06-1.32831E-10 2.31898E-12 5.62427E-08
 -1     13765-1.38244E-06-1.77776E-07 1.83958E-06-1.32831E-10-2.31898E-12-5.62427E-08
 -1     13766-1.29235E-06-1.77776E-07 1.74949E-06 3.87131E-14-6.92950E-16 5.30988E-08
 -1     13768-1.29235E-06-1.77776E-07 1.74949E-06 3.87131E-14 6.92950E-16-5.30988E-08
 -1     13769-2.69123E-07-1.77776E-07 7.26245E-07-9.40487E-13 1.64506E-14 1.73745E-08
 -1     13771-2.69123E-07-1.77776E-07 7.26245E-07-9.40487E-13-1.64506E-14-1.73745E-08
 -1     13772-2.69100E-07-1.77776E-07 7.26222E-07-5.54892E-13 9.78948E-15 1.73737E-08
 -1     13774-2.69100E-07-1.77776E-07 7.26222E-07-5.54892E-13-9.78948E-15-1.73737E-08
 -1     13775-2.64581E-07-1.77776E-07 7.21707E-07 1.49271E-12-2.70881E-14 1.72159E-08
 -1     13777-2.64581E-07-1.77776E-07 7.21707E-07 1.49271E-12 2.70881E-14-1.72159E-08
 -1     13778-2.74701E-07-1.77774E-07 7.31860E-07-9.01654E-12 1.57261E-13 1.75697E-08
 -1     13780-2.74701E-07-1.77774E-07 7.31860E-07-9.01654E-12-1.57261E-13-1.75697E-08
 -1     13781-2.65365E-07-1.77776E-07 7.22495E-07-6.68972E-12 1.18053E-13 1.72434E-08
 -1     13783-2.65365E-07-1.77776E-07 7.22495E-07-6.68972E-12-1.18053E-13-1.72434E-08
 -1     13784-2.77713E-07-1.77776E-07 7.34883E-07-3.92691E-14 6.85654E-16 1.76751E-08
 -1     13786-2.77713E-07-1.77776E-07 7.34883E-07-3.92691E-14-6.85654E-16-1.76751E-08
 -1     13787-2.64254E-07-1.77778E-07 7.21396E-07 1.01073E-11-1.77097E-13 1.72048E-08
 -1     13789-2.64254E-07-1.77778E-07 7.21396E-07 1.01073E-11 1.77097E-13-1.72048E-08
 -1     13790-3.52505E-07-1.77775E-07 8.09643E-07-1.31241E-12 2.30087E-14 2.02859E-08
 -1     13792-3.52505E-07-1.77775E-07 8.09643E-07-1.31241E-12-2.30087E-14-2.02859E-08
 -1     13793-3.18278E-06-1.77775E-07 3.63920E-06 3.61210E-12-6.31580E-14 1.19093E-07
 -1     13795-3.18278E-06-1.77775E-07 3.63920E-06 3.61210E-12 6.31580E-14-1.19093E-07
 -1     13796-3.01208E-06-1.77778E-07 3.47053E-06 8.31925E-12-1.45233E-13 1.13162E-07
 -1     13798-3.01208E-06-1.77778E-07 3.47053E-06 8.31925E-12 1.45233E-13-1.13162E-07
 -1     13799-3.18238E-06-1.77776E-07 3.63880E-06-6.72400E-12 1.17531E-13 1.19079E-07
 -1     13801-3.18238E-06-1.77776E-07 3.63880E-06-6.72400E-12-1.17531E-13-1.19079E-07
 -1     13802-9.95945E-07-1.77776E-07 1.45308E-06-7.91104E-14 1.39236E-15 4.27500E-08
 -1     13804-9.95945E-07-1.77776E-07 1.45308E-06-7.91104E-14-1.39236E-15-4.27500E-08
 -1     13805-2.78755E-07-1.77775E-07 7.35927E-07 1.70947E-12-2.98430E-14 1.77115E-08
 -1     13807-2.78755E-07-1.77775E-07 7.35927E-07 1.70947E-12 2.98430E-14-1.77115E-08
 -1     13808-3.24617E-07-1.77776E-07 7.81754E-07-1.35473E-12 2.37884E-14 1.93122E-08
 -1     13810-3.24617E-07-1.77776E-07 7.81754E-07-1.35473E-12-2.37884E-14-1.93122E-08
 -1     13811-2.79198E-07-1.77776E-07 7.36374E-07 1.85319E-12-3.23484E-14 1.77271E-08
 -1     13813-2.79198E-07-1.77776E-07 7.36374E-07 1.85319E-12 3.23484E-14-1.77271E-08
 -1     13814-9.74703E-07-1.77776E-07 1.43184E-06 7.35118E-11-1.28338E-12 4.20076E-08
 -1     13816-9.74703E-07-1.77776E-07 1.43184E-06 7.35118E-11 1.28338E-12-4.20076E-08
 -1     13817-1.01656E-06-1.77776E-07 1.47369E-06-7.86739E-11 1.37350E-12 4.34688E-08
 -1     13819-1.01656E-06-1.77776E-07 1.47369E-06-7.86739E-11-1.37350E-12-4.34688E-08
 -1     13820-2.67399E-07-1.77780E-07 7.24547E-07-1.06062E-11 1.85563E-13 1.73147E-08
 -1     13822-2.67399E-07-1.77780E-07 7.24547E-07-1.06062E-11-1.85563E-13-1.73147E-08
 -1     13823-2.84219E-06-1.77770E-07 3.29887E-06 5.44018E-11-9.50552E-13 1.07205E-07
 -1     13825-2.84219E-06-1.77770E-07 3.29887E-06 5.44018E-11 9.50552E-13-1.07205E-07
 -1     13826-2.82555E-06-1.77761E-07 3.28204E-06 1.53615E-10-2.67736E-12 1.06619E-07
 -1     13828-2.82555E-06-1.77761E-07 3.28204E-06 1.53615E-10 2.67736E-12-1.06619E-07
 -1     13829-2.86539E-06-1.77775E-07 3.32193E-06-1.20563E-11 2.10411E-13 1.08012E-07
 -1     13831-2.86539E-06-1.77775E-07 3.32193E-06-1.20563E-11-2.10411E-13-1.08012E-07
 -1     13832-2.86652E-06-1.77773E-07 3.32307E-06-2.56094E-12 4.44249E-14 1.08052E-07
 -1     13834-2.86652E-06-1.77773E-07 3.32307E-06-2.56094E-12-4.44249E-14-1.08052E-07
 -1     13835-2.88011E-07-1.77776E-07 7.45132E-07-4.00981E-13 7.06669E-15 1.80339E-08
 -1     13837-2.88011E-07-1.77776E-07 7.45132E-07-4.00981E-13-7.06669E-15-1.80339E-08
 -1     13838-2.87895E-07-1.77776E-07 7.45017E-07-3.20496E-13 5.59733E-15 1.80299E-08
 -1     13840-2.87895E-07-1.77776E-07 7.45017E-07-3.20496E-13-5.59733E-15-1.80299E-08
 -1     13841-2.87917E-07-1.77776E-07 7.45039E-07 4.72849E-13-8.21989E-15 1.80306E-08
 -1     13843-2.87917E-07-1.77776E-07 7.45039E-07 4.72849E-13 8.21989E-15-1.80306E-08
 -1     13844-2.88147E-07-1.77776E-07 7.45268E-07 5.46007E-13-9.60106E-15 1.80386E-08
 -1     13846-2.88147E-07-1.77776E-07 7.45268E-07 5.46007E-13 9.60106E-15-1.80386E-08
 -1     13847-2.90232E-07-1.77776E-07 7.47350E-07-1.02377E-12 1.81482E-14 1.81114E-08
 -1     13849-2.90232E-07-1.77776E-07 7.47350E-07-1.02377E-12-1.81482E-14-1.81114E-08
 -1     13850-2.90111E-07-1.77776E-07 7.47231E-07-1.98765E-12 3.49031E-14 1.81072E-08
 -1     13852-2.90111E-07-1.77776E-07 7.47231E-07-1.98765E-12-3.49031E-14-1.81072E-08
 -1     13853-2.86322E-07-1.77775E-07 7.43452E-07-1.62600E-12 2.89193E-14 1.79751E-08
 -1     13855-2.86322E-07-1.77775E-07 7.43452E-07-1.62600E-12-2.89193E-14-1.79751E-08
 -1     13856-2.91336E-07-1.77778E-07 7.48484E-07 1.24749E-11-2.18130E-13 1.81503E-08
 -1     13858-2.91336E-07-1.77778E-07 7.48484E-07 1.24749E-11 2.18130E-13-1.81503E-08
 -1     13859-3.03960E-07-1.77775E-07 7.61087E-07-1.23777E-11 2.15911E-13 1.85907E-08
 -1     13861-3.03960E-07-1.77775E-07 7.61087E-07-1.23777E-11-2.15911E-13-1.85907E-08
 -1     13862-2.87717E-07-1.77776E-07 7.44841E-07-7.04964E-12 1.23384E-13 1.80237E-08
 -1     13864-2.87717E-07-1.77776E-07 7.44841E-07-7.04964E-12-1.23384E-13-1.80237E-08
 -1     13865-2.89370E-07-1.77776E-07 7.46489E-07-6.79063E-13 1.19908E-14 1.80813E-08
 -1     13867-2.89370E-07-1.77776E-07 7.46489E-07-6.79063E-13-1.19908E-14-1.80813E-08
 -1     13868-2.89038E-07-1.77776E-07 7.46159E-07-1.08380E-12 1.89597E-14 1.80698E-08
 -1     13870-2.89038E-07-1.77776E-07 7.46159E-07-1.08380E-12-1.89597E-14-1.80698E-08
 -1     13871-3.00403E-07-1.77775E-07 7.57578E-07 3.22702E-12-5.63358E-14 1.84673E-08
 -1     13873-3.00403E-07-1.77775E-07 7.57578E-07 3.22702E-12 5.63358E-14-1.84673E-08
 -1     13874-1.44764E-06-1.77777E-07 1.90478E-06 1.42520E-10-2.48804E-12 5.85192E-08
 -1     13876-1.44764E-06-1.77777E-07 1.90478E-06 1.42520E-10 2.48804E-12-5.85192E-08
 -1     13877-1.51652E-06-1.77776E-07 1.97366E-06-1.53610E-10 2.68171E-12 6.09240E-08
 -1     13879-1.51652E-06-1.77776E-07 1.97366E-06-1.53610E-10-2.68171E-12-6.09240E-08
 -1     13880-1.55381E-06-1.77776E-07 2.01095E-06 1.31793E-12-2.29719E-14 6.22274E-08
 -1     13882-1.55381E-06-1.77776E-07 2.01095E-06 1.31793E-12 2.29719E-14-6.22274E-08
 -1     13883-1.41556E-06-1.77776E-07 1.87270E-06 3.51377E-13-6.14390E-15 5.74004E-08
 -1     13885-1.41556E-06-1.77776E-07 1.87270E-06 3.51377E-13 6.14390E-15-5.74004E-08
 -1     13886-2.89781E-07-1.77776E-07 7.46903E-07 1.61439E-12-2.82765E-14 1.80957E-08
 -1     13888-2.89781E-07-1.77776E-07 7.46903E-07 1.61439E-12 2.82765E-14-1.80957E-08
 -1     13889-2.90269E-07-1.77776E-07 7.47387E-07 2.36426E-12-4.14193E-14 1.81127E-08
 -1     13891-2.90269E-07-1.77776E-07 7.47387E-07 2.36426E-12 4.14193E-14-1.81127E-08
 -1     13892-1.15629E-06-1.77776E-07 1.61342E-06-9.79160E-11 1.70943E-12 4.83471E-08
 -1     13894-1.15629E-06-1.77776E-07 1.61342E-06-9.79160E-11-1.70943E-12-4.83471E-08
 -1     13895-1.18250E-06-1.77776E-07 1.63964E-06-4.81633E-14 8.34562E-16 4.92634E-08
 -1     13897-1.18250E-06-1.77776E-07 1.63964E-06-4.81633E-14-8.34561E-16-4.92634E-08
 -1     13898-1.10721E-06-1.77776E-07 1.56435E-06 9.14838E-11-1.59715E-12 4.66339E-08
 -1     13900-1.10721E-06-1.77776E-07 1.56435E-06 9.14838E-11 1.59715E-12-4.66339E-08
 -1     13901-2.63656E-07-1.77770E-07 7.20784E-07-2.56885E-12 4.40965E-14 1.71838E-08
 -1     13903-2.63656E-07-1.77770E-07 7.20784E-07-2.56885E-12-4.40965E-14-1.71838E-08
 -1     13904-2.75567E-07-1.77775E-07 7.32702E-07-1.12414E-11 1.95962E-13 1.75996E-08
 -1     13906-2.75567E-07-1.77775E-07 7.32702E-07-1.12414E-11-1.95962E-13-1.75996E-08
 -1     13907-2.69462E-07-1.77778E-07 7.26599E-07-1.93017E-12 3.38248E-14 1.73867E-08
 -1     13909-2.69462E-07-1.77778E-07 7.26599E-07-1.93017E-12-3.38248E-14-1.73867E-08
 -1     13910-2.76676E-07-1.77775E-07 7.33815E-07 1.30917E-11-2.28027E-13 1.76383E-08
 -1     13912-2.76676E-07-1.77775E-07 7.33815E-07 1.30917E-11 2.28027E-13-1.76383E-08
 -1     13913-2.85776E-07-1.77775E-07 7.42917E-07 1.13447E-11-1.98050E-13 1.79561E-08
 -1     13915-2.85776E-07-1.77775E-07 7.42917E-07 1.13447E-11 1.98050E-13-1.79561E-08
 -1     13916-2.91219E-07-1.77775E-07 7.48338E-07-2.00245E-13 3.21706E-15 1.81459E-08
 -1     13918-2.91219E-07-1.77775E-07 7.48338E-07-2.00245E-13-3.21706E-15-1.81459E-08
 -1     13919-2.91337E-07-1.77775E-07 7.48454E-07 2.90111E-12-5.04815E-14 1.81500E-08
 -1     13921-2.91337E-07-1.77775E-07 7.48454E-07 2.90111E-12 5.04815E-14-1.81500E-08
 -1     13922-3.01589E-07-1.77775E-07 7.58768E-07-6.76523E-12 1.18100E-13 1.85088E-08
 -1     13924-3.01589E-07-1.77775E-07 7.58768E-07-6.76523E-12-1.18100E-13-1.85088E-08
 -1     13925-2.88578E-07-1.77776E-07 7.45699E-07-6.29989E-13 1.10664E-14 1.80537E-08
 -1     13927-2.88578E-07-1.77776E-07 7.45699E-07-6.29989E-13-1.10664E-14-1.80537E-08
 -1     13928-2.88322E-07-1.77776E-07 7.45444E-07-6.72282E-13 1.17528E-14 1.80448E-08
 -1     13930-2.88322E-07-1.77776E-07 7.45444E-07-6.72282E-13-1.17528E-14-1.80448E-08
 -1     13931-2.99188E-07-1.77776E-07 7.56362E-07 2.16016E-12-3.77120E-14 1.84249E-08
 -1     13933-2.99188E-07-1.77776E-07 7.56362E-07 2.16016E-12 3.77120E-14-1.84249E-08
 -1     13934-2.91022E-07-1.77776E-07 7.48142E-07-4.98969E-12 8.69294E-14 1.81391E-08
 -1     13936-2.91022E-07-1.77776E-07 7.48142E-07-4.98969E-12-8.69294E-14-1.81391E-08
 -1     13937-2.90345E-07-1.77774E-07 7.47469E-07-3.18822E-12 5.62265E-14 1.81155E-08
 -1     13939-2.90345E-07-1.77774E-07 7.47469E-07-3.18822E-12-5.62265E-14-1.81155E-08
 -1     13940-3.02213E-07-1.77782E-07 7.59397E-07 3.78777E-12-6.61393E-14 1.85307E-08
 -1     13942-3.02213E-07-1.77782E-07 7.59397E-07 3.78777E-12 6.61393E-14-1.85307E-08
 -1     13943-4.58503E-07-1.77776E-07 9.15640E-07 2.57672E-11-4.49812E-13 2.39862E-08
 -1     13945-4.58503E-07-1.77776E-07 9.15640E-07 2.57672E-11 4.49812E-13-2.39862E-08
 -1     13946-4.76795E-07-1.77776E-07 9.33935E-07-2.66347E-11 4.64974E-13 2.46248E-08
 -1     13948-4.76795E-07-1.77776E-07 9.33935E-07-2.66347E-11-4.64974E-13-2.46248E-08
 -1     13949-4.49581E-07-1.77776E-07 9.06719E-07-1.06627E-14 1.68460E-16 2.36750E-08
 -1     13951-4.49581E-07-1.77776E-07 9.06719E-07-1.06627E-14-1.68459E-16-2.36750E-08
 -1     13952-2.86780E-06-1.77701E-07 3.32431E-06-6.87677E-11 1.19168E-12 1.08097E-07
 -1     13954-2.86780E-06-1.77701E-07 3.32431E-06-6.87677E-11-1.19168E-12-1.08097E-07
 -1     13955-2.86093E-06-1.77791E-07 3.31747E-06-2.39873E-11 4.16891E-13 1.07857E-07
 -1     13957-2.86093E-06-1.77791E-07 3.31747E-06-2.39873E-11-4.16891E-13-1.07857E-07
 -1     13958-2.86929E-06-1.77775E-07 3.32585E-06-8.65062E-13 1.40422E-14 1.08148E-07
 -1     13960-2.86929E-06-1.77775E-07 3.32585E-06-8.65062E-13-1.40422E-14-1.08148E-07
 -1     13961-2.86681E-06-1.77771E-07 3.32335E-06 2.31990E-11-4.04297E-13 1.08061E-07
 -1     13963-2.86681E-06-1.77771E-07 3.32335E-06 2.31990E-11 4.04297E-13-1.08061E-07
 -1     13964-2.91449E-07-1.77775E-07 7.48587E-07-4.37488E-13 7.59833E-15 1.81542E-08
 -1     13966-2.91449E-07-1.77775E-07 7.48587E-07-4.37488E-13-7.59833E-15-1.81542E-08
 -1     13967-2.88590E-07-1.77776E-07 7.45713E-07 1.04952E-12-1.83357E-14 1.80542E-08
 -1     13969-2.88590E-07-1.77776E-07 7.45713E-07 1.04952E-12 1.83357E-14-1.80542E-08
 -1     13970-2.88975E-07-1.77776E-07 7.46095E-07 1.19329E-12-2.09677E-14 1.80676E-08
 -1     13972-2.88975E-07-1.77776E-07 7.46095E-07 1.19329E-12 2.09677E-14-1.80676E-08
 -1     13973-2.98557E-07-1.77776E-07 7.55729E-07-1.94281E-12 3.39143E-14 1.84028E-08
 -1     13975-2.98557E-07-1.77776E-07 7.55729E-07-1.94281E-12-3.39143E-14-1.84028E-08
 -1     13976-2.86836E-06-1.77776E-07 3.32491E-06-1.13309E-11 1.97257E-13 1.08116E-07
 -1     13978-2.86836E-06-1.77776E-07 3.32491E-06-1.13309E-11-1.97257E-13-1.08116E-07
 -1     13979-2.86880E-06-1.77772E-07 3.32536E-06 2.86196E-12-4.99775E-14 1.08131E-07
 -1     13981-2.86880E-06-1.77772E-07 3.32536E-06 2.86196E-12 4.99775E-14-1.08131E-07
 -1     13982-2.71970E-06-1.77779E-07 3.17793E-06 2.14723E-11-3.74852E-13 1.02950E-07
 -1     13984-2.71970E-06-1.77779E-07 3.17793E-06 2.14723E-11 3.74852E-13-1.02950E-07
 -1     13985-3.16472E-07-1.77777E-07 7.73624E-07 1.36219E-11-2.37820E-13 1.90279E-08
 -1     13987-3.16472E-07-1.77777E-07 7.73624E-07 1.36219E-11 2.37820E-13-1.90279E-08
 -1     13988-3.29867E-07-1.77775E-07 7.86995E-07-1.66090E-11 2.90132E-13 1.94952E-08
 -1     13990-3.29867E-07-1.77775E-07 7.86995E-07-1.66090E-11-2.90132E-13-1.94952E-08
 -1     13991-3.18242E-06-1.77775E-07 3.63884E-06-3.60346E-12 6.30115E-14 1.19080E-07
 -1     13993-3.18242E-06-1.77775E-07 3.63884E-06-3.60346E-12-6.30115E-14-1.19080E-07
 -1     13994-3.18246E-06-1.77776E-07 3.63888E-06 6.10679E-12-1.06549E-13 1.19081E-07
 -1     13996-3.18246E-06-1.77776E-07 3.63888E-06 6.10679E-12 1.06549E-13-1.19081E-07
 -1     13997-3.01185E-06-1.77777E-07 3.47029E-06-3.38129E-12 5.90281E-14 1.13154E-07
 -1     13999-3.01185E-06-1.77777E-07 3.47029E-06-3.38129E-12-5.90281E-14-1.13154E-07
 -1     14000-1.08423E-06-1.77776E-07 1.54137E-06-5.32535E-14 9.33918E-16 4.58325E-08
 -1     14002-1.08423E-06-1.77776E-07 1.54137E-06-5.32535E-14-9.33918E-16-4.58325E-08
 -1     14003-2.86218E-06-1.77784E-07 3.31872E-06-8.19324E-12 1.42511E-13 1.07900E-07
 -1     14005-2.86218E-06-1.77784E-07 3.31872E-06-8.19324E-12-1.42511E-13-1.07900E-07
 -1     14006-2.86331E-06-1.77778E-07 3.31988E-06-1.28738E-11 2.24519E-13 1.07940E-07
 -1     14008-2.86331E-06-1.77778E-07 3.31988E-06-1.28738E-11-2.24519E-13-1.07940E-07
 -1     14009-2.87769E-07-1.77776E-07 7.44890E-07-6.06410E-14 1.10738E-15 1.80254E-08
 -1     14011-2.87769E-07-1.77776E-07 7.44890E-07-6.06410E-14-1.10738E-15-1.80254E-08
 -1     14012-2.87785E-07-1.77776E-07 7.44906E-07 3.72034E-14-6.88789E-16 1.80260E-08
 -1     14014-2.87785E-07-1.77776E-07 7.44906E-07 3.72034E-14 6.88788E-16-1.80260E-08
 -1     14015-2.97967E-07-1.77776E-07 7.55139E-07 6.44675E-13-1.12543E-14 1.83822E-08
 -1     14017-2.97967E-07-1.77776E-07 7.55139E-07 6.44675E-13 1.12543E-14-1.83822E-08
 -1     14018-2.86276E-06-1.77777E-07 3.31938E-06 2.39937E-11-4.20057E-13 1.07921E-07
 -1     14020-2.86276E-06-1.77777E-07 3.31938E-06 2.39937E-11 4.20057E-13-1.07921E-07
 -1     14021-2.85479E-06-1.77769E-07 3.31131E-06 6.62388E-11-1.15416E-12 1.07641E-07
 -1     14023-2.85479E-06-1.77769E-07 3.31131E-06 6.62388E-11 1.15416E-12-1.07641E-07
 -1     14024-2.71865E-06-1.77770E-07 3.17682E-06-3.25594E-11 5.68502E-13 1.02912E-07
 -1     14026-2.71865E-06-1.77770E-07 3.17682E-06-3.25594E-11-5.68502E-13-1.02912E-07
 -1     14027-3.74357E-07-1.77776E-07 8.31494E-07 2.25576E-11-3.93718E-13 2.10485E-08
 -1     14029-3.74357E-07-1.77776E-07 8.31494E-07 2.25576E-11 3.93718E-13-2.10485E-08
 -1     14030-3.90030E-07-1.77776E-07 8.47170E-07-2.24088E-11 3.91306E-13 2.15958E-08
 -1     14032-3.90030E-07-1.77776E-07 8.47170E-07-2.24088E-11-3.91306E-13-2.15958E-08
 -1     14033-2.67555E-06-1.77795E-07 3.13230E-06 4.22049E-10-7.36643E-12 1.01386E-07
 -1     14035-2.67555E-06-1.77795E-07 3.13230E-06 4.22049E-10 7.36643E-12-1.01386E-07
 -1     14036-2.51702E-06-1.77752E-07 2.97457E-06-4.83846E-10 8.44780E-12 9.58626E-08
 -1     14038-2.51702E-06-1.77752E-07 2.97457E-06-4.83846E-10-8.44780E-12-9.58626E-08
 -1     14039-2.73118E-06-1.77761E-07 3.18808E-06 1.15208E-10-2.01337E-12 1.03335E-07
 -1     14041-2.73118E-06-1.77761E-07 3.18808E-06 1.15208E-10 2.01337E-12-1.03335E-07
 -1     14042-2.37968E-06-1.77784E-07 2.83655E-06 3.34091E-10-5.83194E-12 9.10568E-08
 -1     14044-2.37968E-06-1.77784E-07 2.83655E-06 3.34091E-10 5.83194E-12-9.10568E-08
 -1     14045-2.24890E-06-1.77764E-07 2.70632E-06-3.79385E-10 6.62370E-12 8.64988E-08
 -1     14047-2.24890E-06-1.77764E-07 2.70632E-06-3.79385E-10-6.62370E-12-8.64988E-08
 -1     14048-2.42883E-06-1.77777E-07 2.88586E-06 9.73267E-11-1.69986E-12 9.27787E-08
 -1     14050-2.42883E-06-1.77777E-07 2.88586E-06 9.73267E-11 1.69986E-12-9.27787E-08
 -1     14051-2.13209E-06-1.77780E-07 2.58904E-06 2.75231E-10-4.80468E-12 8.24133E-08
 -1     14053-2.13209E-06-1.77780E-07 2.58904E-06 2.75231E-10 4.80468E-12-8.24133E-08
 -1     14054-2.02087E-06-1.77769E-07 2.47820E-06-3.08491E-10 5.38592E-12 7.85357E-08
 -1     14056-2.02087E-06-1.77769E-07 2.47820E-06-3.08491E-10-5.38592E-12-7.85357E-08
 -1     14057-2.17466E-06-1.77778E-07 2.63173E-06 7.40311E-11-1.29257E-12 8.39042E-08
 -1     14059-2.17466E-06-1.77778E-07 2.63173E-06 7.40311E-11 1.29257E-12-8.39042E-08
 -1     14060-1.92022E-06-1.77778E-07 2.37722E-06 2.26994E-10-3.96279E-12 7.50167E-08
 -1     14062-1.92022E-06-1.77778E-07 2.37722E-06 2.26994E-10 3.96279E-12-7.50167E-08
 -1     14063-1.82435E-06-1.77772E-07 2.28164E-06-2.51618E-10 4.39296E-12 7.16737E-08
 -1     14065-1.82435E-06-1.77772E-07 2.28164E-06-2.51618E-10-4.39296E-12-7.16737E-08
 -1     14066-1.95729E-06-1.77777E-07 2.41439E-06 5.75213E-11-1.00420E-12 7.63147E-08
 -1     14068-1.95729E-06-1.77777E-07 2.41439E-06 5.75213E-11 1.00420E-12-7.63147E-08
 -1     14069-1.73689E-06-1.77778E-07 2.19392E-06 1.86984E-10-3.26441E-12 6.86165E-08
 -1     14071-1.73689E-06-1.77778E-07 2.19392E-06 1.86984E-10 3.26441E-12-6.86165E-08
 -1     14072-1.65347E-06-1.77774E-07 2.11072E-06-2.05878E-10 3.59437E-12 6.57069E-08
 -1     14074-1.65347E-06-1.77774E-07 2.11072E-06-2.05878E-10-3.59437E-12-6.57069E-08
 -1     14075-1.76932E-06-1.77775E-07 2.22642E-06 4.53673E-11-7.92064E-13 6.97515E-08
 -1     14077-1.76932E-06-1.77775E-07 2.22642E-06 4.53673E-11 7.92064E-13-6.97515E-08
 -1     14078-1.57691E-06-1.77777E-07 2.03396E-06 1.54362E-10-2.69492E-12 6.30312E-08
 -1     14080-1.57691E-06-1.77777E-07 2.03396E-06 1.54362E-10 2.69492E-12-6.30312E-08
 -1     14081-1.50369E-06-1.77774E-07 1.96092E-06-1.70245E-10 2.97224E-12 6.04774E-08
 -1     14083-1.50369E-06-1.77774E-07 1.96092E-06-1.70245E-10-2.97224E-12-6.04774E-08
 -1     14084-1.60544E-06-1.77775E-07 2.06255E-06 3.57135E-11-6.23619E-13 6.40296E-08
 -1     14086-1.60544E-06-1.77775E-07 2.06255E-06 3.57135E-11 6.23619E-13-6.40296E-08
 -1     14087-1.43616E-06-1.77776E-07 1.89323E-06 1.30334E-10-2.27538E-12 5.81174E-08
 -1     14089-1.43616E-06-1.77776E-07 1.89323E-06 1.30334E-10 2.27538E-12-5.81174E-08
 -1     14090-1.37138E-06-1.77775E-07 1.82859E-06-1.43490E-10 2.50507E-12 5.58577E-08
 -1     14092-1.37138E-06-1.77775E-07 1.82859E-06-1.43490E-10-2.50507E-12-5.58577E-08
 -1     14093-1.46147E-06-1.77774E-07 1.91859E-06 2.89161E-11-5.04962E-13 5.90030E-08
 -1     14095-1.46147E-06-1.77774E-07 1.91859E-06 2.89161E-11 5.04962E-13-5.90030E-08
 -1     14096-1.31122E-06-1.77776E-07 1.76829E-06 1.11442E-10-1.94556E-12 5.37552E-08
 -1     14098-1.31122E-06-1.77776E-07 1.76829E-06 1.11442E-10 1.94556E-12-5.37552E-08
 -1     14099-1.25348E-06-1.77776E-07 1.71069E-06-1.23434E-10 2.15490E-12 5.17416E-08
 -1     14101-1.25348E-06-1.77776E-07 1.71069E-06-1.23434E-10-2.15490E-12-5.17416E-08
 -1     14102-1.33386E-06-1.77775E-07 1.79098E-06 2.45342E-11-4.28430E-13 5.45477E-08
 -1     14104-1.33386E-06-1.77775E-07 1.79098E-06 2.45342E-11 4.28430E-13-5.45477E-08
 -1     14105-1.19964E-06-1.77776E-07 1.65672E-06 9.59748E-11-1.67555E-12 4.98600E-08
 -1     14107-1.19964E-06-1.77776E-07 1.65672E-06 9.59748E-11 1.67555E-12-4.98600E-08
 -1     14108-1.14797E-06-1.77776E-07 1.60517E-06-1.06814E-10 1.86477E-12 4.80576E-08
 -1     14110-1.14797E-06-1.77776E-07 1.60517E-06-1.06814E-10-1.86477E-12-4.80576E-08
 -1     14111-1.21992E-06-1.77776E-07 1.67704E-06 2.12691E-11-3.71415E-13 5.05696E-08
 -1     14113-1.21992E-06-1.77776E-07 1.67704E-06 2.12691E-11 3.71415E-13-5.05696E-08
 -1     14114-1.09966E-06-1.77776E-07 1.55675E-06 8.29360E-11-1.44792E-12 4.63694E-08
 -1     14116-1.09966E-06-1.77776E-07 1.55675E-06 8.29360E-11 1.44792E-12-4.63694E-08
 -1     14117-1.05325E-06-1.77776E-07 1.51044E-06-9.26103E-11 1.61680E-12 4.47507E-08
 -1     14119-1.05325E-06-1.77776E-07 1.51044E-06-9.26103E-11-1.61680E-12-4.47507E-08
 -1     14120-1.11782E-06-1.77776E-07 1.57495E-06 1.85326E-11-3.23645E-13 4.70049E-08
 -1     14122-1.11782E-06-1.77776E-07 1.57495E-06 1.85326E-11 3.23645E-13-4.70049E-08
 -1     14123-1.00979E-06-1.77776E-07 1.46689E-06 7.20047E-11-1.25708E-12 4.32321E-08
 -1     14125-1.00979E-06-1.77776E-07 1.46689E-06 7.20047E-11 1.25708E-12-4.32321E-08
 -1     14126-9.67976E-07-1.77776E-07 1.42516E-06-8.06114E-11 1.40732E-12 4.17735E-08
 -1     14128-9.67976E-07-1.77776E-07 1.42516E-06-8.06114E-11-1.40732E-12-4.17735E-08
 -1     14129-1.02610E-06-1.77776E-07 1.48323E-06 1.61505E-11-2.82059E-13 4.38026E-08
 -1     14131-1.02610E-06-1.77776E-07 1.48323E-06 1.61505E-11 2.82059E-13-4.38026E-08
 -1     14132-9.28738E-07-1.77776E-07 1.38584E-06 6.29646E-11-1.09924E-12 4.04024E-08
 -1     14134-9.28738E-07-1.77776E-07 1.38584E-06 6.29646E-11 1.09924E-12-4.04024E-08
 -1     14135-8.90916E-07-1.77776E-07 1.34810E-06-7.06187E-11 1.23286E-12 3.90831E-08
 -1     14137-8.90916E-07-1.77776E-07 1.34810E-06-7.06187E-11-1.23286E-12-3.90831E-08
 -1     14138-9.43439E-07-1.77776E-07 1.40057E-06 1.41639E-11-2.47367E-13 4.09167E-08
 -1     14140-9.43439E-07-1.77776E-07 1.40057E-06 1.41639E-11 2.47367E-13-4.09167E-08
 -1     14141-8.55343E-07-1.77776E-07 1.31245E-06 5.53949E-11-9.67090E-13 3.78400E-08
 -1     14143-8.55343E-07-1.77776E-07 1.31245E-06 5.53949E-11 9.67090E-13-3.78400E-08
 -1     14144-8.21015E-07-1.77776E-07 1.27819E-06-6.22523E-11 1.08680E-12 3.66426E-08
 -1     14146-8.21015E-07-1.77776E-07 1.27819E-06-6.22523E-11-1.08680E-12-3.66426E-08
 -1     14147-8.68657E-07-1.77776E-07 1.32579E-06 1.25165E-11-2.18594E-13 3.83058E-08
 -1     14149-8.68657E-07-1.77776E-07 1.32579E-06 1.25165E-11 2.18594E-13-3.83058E-08
 -1     14150-7.88657E-07-1.77776E-07 1.24577E-06 4.88619E-11-8.53040E-13 3.55120E-08
 -1     14152-7.88657E-07-1.77776E-07 1.24577E-06 4.88619E-11 8.53040E-13-3.55120E-08
 -1     14153-7.57410E-07-1.77776E-07 1.21458E-06-5.50647E-11 9.61321E-13 3.44220E-08
 -1     14155-7.57410E-07-1.77776E-07 1.21458E-06-5.50647E-11-9.61321E-13-3.44220E-08
 -1     14156-8.00752E-07-1.77776E-07 1.25788E-06 1.10778E-11-1.93466E-13 3.59351E-08
 -1     14158-8.00752E-07-1.77776E-07 1.25788E-06 1.10778E-11 1.93466E-13-3.59351E-08
 -1     14159-7.27913E-07-1.77776E-07 1.18503E-06 4.31352E-11-7.53067E-13 3.33913E-08
 -1     14161-7.27913E-07-1.77776E-07 1.18503E-06 4.31352E-11 7.53067E-13-3.33913E-08
 -1     14162-6.99408E-07-1.77776E-07 1.15658E-06-4.87498E-11 8.51078E-13 3.23970E-08
 -1     14164-6.99408E-07-1.77776E-07 1.15658E-06-4.87498E-11-8.51078E-13-3.23970E-08
 -1     14165-7.38919E-07-1.77776E-07 1.19605E-06 9.78643E-12-1.70920E-13 3.37763E-08
 -1     14167-7.38919E-07-1.77776E-07 1.19605E-06 9.78643E-12 1.70920E-13-3.37763E-08
 -1     14168-6.72470E-07-1.77776E-07 1.12958E-06 3.81435E-11-6.65920E-13 3.14558E-08
 -1     14170-6.72470E-07-1.77776E-07 1.12958E-06 3.81435E-11 6.65920E-13-3.14558E-08
 -1     14171-6.46410E-07-1.77776E-07 1.10357E-06-4.32085E-11 7.54339E-13 3.05467E-08
 -1     14173-6.46410E-07-1.77776E-07 1.10357E-06-4.32085E-11-7.54339E-13-3.05467E-08
 -1     14174-6.82503E-07-1.77776E-07 1.13964E-06 8.64697E-12-1.51028E-13 3.18067E-08
 -1     14176-6.82503E-07-1.77776E-07 1.13964E-06 8.64697E-12 1.51028E-13-3.18067E-08
 -1     14177-6.21758E-07-1.77776E-07 1.07888E-06 3.38612E-11-5.91155E-13 2.96854E-08
 -1     14179-6.21758E-07-1.77776E-07 1.07888E-06 3.38612E-11 5.91155E-13-2.96854E-08
 -1     14180-5.97877E-07-1.77776E-07 1.05504E-06-3.84300E-11 6.70916E-13 2.88523E-08
 -1     14182-5.97877E-07-1.77776E-07 1.05504E-06-3.84300E-11-6.70916E-13-2.88523E-08
 -1     14183-6.30930E-07-1.77776E-07 1.08806E-06 7.66461E-12-1.33878E-13 3.00062E-08
 -1     14185-6.30930E-07-1.77776E-07 1.08806E-06 7.66461E-12 1.33878E-13-3.00062E-08
 -1     14186-5.75260E-07-1.77776E-07 1.03238E-06 3.02587E-11-5.28255E-13 2.80621E-08
 -1     14188-5.75260E-07-1.77776E-07 1.03238E-06 3.02587E-11 5.28255E-13-2.80621E-08
 -1     14189-5.53321E-07-1.77776E-07 1.01048E-06-3.43635E-11 5.99923E-13 2.72967E-08
 -1     14191-5.53321E-07-1.77776E-07 1.01048E-06-3.43635E-11-5.99923E-13-2.72967E-08
 -1     14192-5.83676E-07-1.77776E-07 1.04081E-06 6.84548E-12-1.19568E-13 2.83564E-08
 -1     14194-5.83676E-07-1.77776E-07 1.04081E-06 6.84548E-12 1.19568E-13-2.83564E-08
 -1     14195-5.32508E-07-1.77776E-07 9.89629E-07 2.71881E-11-4.74652E-13 2.65696E-08
 -1     14197-5.32508E-07-1.77776E-07 9.89629E-07 2.71881E-11 4.74652E-13-2.65696E-08
 -1     14198-5.12319E-07-1.77776E-07 9.69476E-07-3.07662E-11 5.37124E-13 2.58652E-08
 -1     14200-5.12319E-07-1.77776E-07 9.69476E-07-3.07662E-11-5.37124E-13-2.58652E-08
 -1     14201-5.40258E-07-1.77776E-07 9.97392E-07 6.21948E-12-1.08617E-13 2.68406E-08
 -1     14203-5.40258E-07-1.77776E-07 9.97392E-07 6.21948E-12 1.08617E-13-2.68406E-08
 -1     14204-4.93140E-07-1.77776E-07 9.50263E-07 2.41956E-11-4.22432E-13 2.51952E-08
 -1     14206-4.93140E-07-1.77776E-07 9.50263E-07 2.41956E-11 4.22432E-13-2.51952E-08
 -1     14207-4.74578E-07-1.77776E-07 9.31733E-07-2.71607E-11 4.74196E-13 2.45476E-08
 -1     14209-4.74578E-07-1.77776E-07 9.31733E-07-2.71607E-11-4.74196E-13-2.45476E-08
 -1     14210-5.00277E-07-1.77776E-07 9.57411E-07 5.70449E-12-9.96139E-14 2.54448E-08
 -1     14212-5.00277E-07-1.77776E-07 9.57411E-07 5.70449E-12 9.96139E-14-2.54448E-08
 -1     14213-4.56998E-07-1.77776E-07 9.14123E-07 2.09609E-11-3.65971E-13 2.39334E-08
 -1     14215-4.56998E-07-1.77776E-07 9.14123E-07 2.09609E-11 3.65971E-13-2.39334E-08
 -1     14216-4.39978E-07-1.77776E-07 8.97131E-07-2.33937E-11 4.08453E-13 2.33396E-08
 -1     14218-4.39978E-07-1.77776E-07 8.97131E-07-2.33937E-11-4.08453E-13-2.33396E-08
 -1     14219-4.63530E-07-1.77776E-07 9.20664E-07 4.94684E-12-8.64261E-14 2.41618E-08
 -1     14221-4.63530E-07-1.77776E-07 9.20664E-07 4.94684E-12 8.64261E-14-2.41618E-08
 -1     14222-4.23988E-07-1.77776E-07 8.81115E-07 1.82072E-11-3.17851E-13 2.27810E-08
 -1     14224-4.23988E-07-1.77776E-07 8.81115E-07 1.82072E-11 3.17851E-13-2.27810E-08
 -1     14225-4.08381E-07-1.77776E-07 8.65531E-07-2.03196E-11 3.54779E-13 2.22365E-08
 -1     14227-4.08381E-07-1.77776E-07 8.65531E-07-2.03196E-11-3.54779E-13-2.22365E-08
 -1     14228-4.29972E-07-1.77776E-07 8.87107E-07 3.93902E-12-6.88664E-14 2.29903E-08
 -1     14230-4.29972E-07-1.77776E-07 8.87107E-07 3.93902E-12 6.88664E-14-2.29903E-08
 -1     14231-3.93664E-07-1.77776E-07 8.50793E-07 1.62439E-11-2.83600E-13 2.17224E-08
 -1     14233-3.93664E-07-1.77776E-07 8.50793E-07 1.62439E-11 2.83600E-13-2.17224E-08
 -1     14234-3.79384E-07-1.77776E-07 8.36533E-07-1.77098E-11 3.09238E-13 2.12242E-08
 -1     14236-3.79384E-07-1.77776E-07 8.36533E-07-1.77098E-11-3.09238E-13-2.12242E-08
 -1     14237-3.99272E-07-1.77777E-07 8.56408E-07 3.52241E-12-6.14719E-14 2.19185E-08
 -1     14239-3.99272E-07-1.77777E-07 8.56408E-07 3.52241E-12 6.14719E-14-2.19185E-08
 -1     14240-3.65977E-07-1.77776E-07 8.23108E-07 1.34980E-11-2.35723E-13 2.07558E-08
 -1     14242-3.65977E-07-1.77776E-07 8.23108E-07 1.34980E-11 2.35723E-13-2.07558E-08
 -1     14243-3.53084E-07-1.77777E-07 8.10235E-07-1.15792E-11 2.02351E-13 2.03060E-08
 -1     14245-3.53084E-07-1.77777E-07 8.10235E-07-1.15792E-11-2.02351E-13-2.03060E-08
 -1     14246-3.71158E-07-1.77776E-07 8.28293E-07 2.88932E-12-5.05145E-14 2.09369E-08
 -1     14248-3.71158E-07-1.77776E-07 8.28293E-07 2.88932E-12 5.05145E-14-2.09369E-08
 -1     14249-3.42016E-07-1.77773E-07 7.99146E-07 1.03567E-11-1.80363E-13 1.99193E-08
 -1     14251-3.42016E-07-1.77773E-07 7.99146E-07 1.03567E-11 1.80363E-13-1.99193E-08
 -1     14252-3.29931E-07-1.77773E-07 7.87060E-07-8.03301E-12 1.40706E-13 1.94973E-08
 -1     14254-3.29931E-07-1.77773E-07 7.87060E-07-8.03301E-12-1.40706E-13-1.94973E-08
 -1     14255-3.46701E-07-1.77774E-07 8.03831E-07-4.21674E-13 6.27628E-15 2.00829E-08
 -1     14257-3.46701E-07-1.77774E-07 8.03831E-07-4.21674E-13-6.27628E-15-2.00829E-08
 -1     14258-3.19327E-07-1.77779E-07 7.76477E-07 6.03743E-12-1.05381E-13 1.91275E-08
 -1     14260-3.19327E-07-1.77779E-07 7.76477E-07 6.03743E-12 1.05381E-13-1.91275E-08
 -1     14261-3.08308E-07-1.77775E-07 7.65442E-07-1.30788E-11 2.28154E-13 1.87426E-08
 -1     14263-3.08308E-07-1.77775E-07 7.65442E-07-1.30788E-11-2.28154E-13-1.87426E-08
 -1     14264-3.25029E-07-1.77779E-07 7.82160E-07-1.85120E-12 3.12441E-14 1.93264E-08
 -1     14266-3.25029E-07-1.77779E-07 7.82160E-07-1.85120E-12-3.12441E-14-1.93264E-08
 -1     14267-1.83804E-06-1.77779E-07 2.29514E-06 1.92733E-10-3.36416E-12 7.21485E-08
 -1     14269-1.83804E-06-1.77779E-07 2.29514E-06 1.92733E-10 3.36416E-12-7.21485E-08
 -1     14270-1.92868E-06-1.77784E-07 2.38590E-06-2.04071E-10 3.56243E-12 7.53148E-08
 -1     14272-1.92868E-06-1.77784E-07 2.38590E-06-2.04071E-10-3.56243E-12-7.53148E-08
 -1     14273-2.86009E-06-1.77774E-07 3.31661E-06 2.97901E-11-5.19834E-13 1.07827E-07
 -1     14275-2.86009E-06-1.77774E-07 3.31661E-06 2.97901E-11 5.19834E-13-1.07827E-07
 -1     14276-2.85966E-06-1.77772E-07 3.31621E-06-1.28683E-11 2.23603E-13 1.07812E-07
 -1     14278-2.85966E-06-1.77772E-07 3.31621E-06-1.28683E-11-2.23603E-13-1.07812E-07
 -1     14279-2.71300E-06-1.77780E-07 3.17123E-06 3.95951E-11-6.91166E-13 1.02716E-07
 -1     14281-2.71300E-06-1.77780E-07 3.17123E-06 3.95951E-11 6.91166E-13-1.02716E-07
 -1     14282-2.71137E-06-1.77786E-07 3.16963E-06-5.36392E-11 9.36214E-13 1.02660E-07
 -1     14284-2.71137E-06-1.77786E-07 3.16963E-06-5.36392E-11-9.36214E-13-1.02660E-07
 -1     14285-2.79514E-06-1.77765E-07 3.25172E-06-2.81948E-10 4.92078E-12 1.05559E-07
 -1     14287-2.79514E-06-1.77765E-07 3.25172E-06-2.81948E-10-4.92078E-12-1.05559E-07
 -1     14288-2.84972E-06-1.77738E-07 3.30649E-06-1.00010E-10 1.75353E-12 1.07472E-07
 -1     14290-2.84972E-06-1.77738E-07 3.30649E-06-1.00010E-10-1.75353E-12-1.07472E-07
 -1     14291-2.69494E-06-1.77843E-07 3.15312E-06 1.76627E-10-3.08459E-12 1.02085E-07
 -1     14293-2.69494E-06-1.77843E-07 3.15312E-06 1.76627E-10 3.08459E-12-1.02085E-07
 -1     14294-2.63018E-06-1.77739E-07 3.08786E-06 3.82983E-10-6.68758E-12 9.98151E-08
 -1     14296-2.63018E-06-1.77739E-07 3.08786E-06 3.82983E-10 6.68758E-12-9.98151E-08
 -1     14297-3.44213E-07-1.77778E-07 8.01360E-07 2.03480E-11-3.55132E-13 1.99963E-08
 -1     14299-3.44213E-07-1.77778E-07 8.01360E-07 2.03480E-11 3.55132E-13-1.99963E-08
 -1     14300-3.58712E-07-1.77777E-07 8.15850E-07-1.98144E-11 3.46141E-13 2.05024E-08
 -1     14302-3.58712E-07-1.77777E-07 8.15850E-07-1.98144E-11-3.46141E-13-2.05024E-08
 -1     14303-3.65919E-07-1.77777E-07 8.23057E-07-1.15349E-12 2.01556E-14 2.07542E-08
 -1     14305-3.65919E-07-1.77777E-07 8.23057E-07-1.15349E-12-2.01556E-14-2.07542E-08
 -1     14306-3.35947E-07-1.77773E-07 7.93081E-07-2.25232E-12 3.97161E-14 1.97078E-08
 -1     14308-3.35947E-07-1.77773E-07 7.93081E-07-2.25232E-12-3.97161E-14-1.97078E-08
 -1     14309-2.91189E-07-1.77773E-07 7.48309E-07 5.33684E-12-9.22837E-14 1.81450E-08
 -1     14311-2.91189E-07-1.77773E-07 7.48309E-07 5.33684E-12 9.22837E-14-1.81450E-08
 -1     14312-3.02123E-07-1.77776E-07 7.59301E-07 5.72260E-12-9.98889E-14 1.85275E-08
 -1     14314-3.02123E-07-1.77776E-07 7.59301E-07 5.72260E-12 9.98889E-14-1.85275E-08
 -1     14315-2.89939E-07-1.77774E-07 7.47063E-07 1.64171E-12-2.97236E-14 1.81014E-08
 -1     14317-2.89939E-07-1.77774E-07 7.47063E-07 1.64171E-12 2.97236E-14-1.81014E-08
 -1     14318-2.98409E-07-1.77776E-07 7.55582E-07 1.40844E-12-2.45885E-14 1.83977E-08
 -1     14320-2.98409E-07-1.77776E-07 7.55582E-07 1.40844E-12 2.45885E-14-1.83977E-08
 -1     14321-2.70266E-06-1.77775E-07 3.16078E-06-1.23873E-10 2.16279E-12 1.02353E-07
 -1     14323-2.70266E-06-1.77775E-07 3.16078E-06-1.23873E-10-2.16279E-12-1.02353E-07
 -1     14324-2.97974E-07-1.77776E-07 7.55146E-07-4.37293E-13 7.63430E-15 1.83824E-08
 -1     14326-2.97974E-07-1.77776E-07 7.55146E-07-4.37293E-13-7.63430E-15-1.83824E-08
 -1     14327-2.86492E-06-1.77777E-07 3.32147E-06-3.45019E-12 5.98357E-14 1.07996E-07
 -1     14329-2.86492E-06-1.77777E-07 3.32147E-06-3.45019E-12-5.98357E-14-1.07996E-07
 -1     14330-2.86541E-06-1.77777E-07 3.32196E-06 2.33285E-12-4.01918E-14 1.08013E-07
 -1     14332-2.86541E-06-1.77777E-07 3.32196E-06 2.33285E-12 4.01918E-14-1.08013E-07
 -1     14333-2.71710E-06-1.77756E-07 3.17529E-06 7.68962E-12-1.34295E-13 1.02858E-07
 -1     14335-2.71710E-06-1.77756E-07 3.17529E-06 7.68962E-12 1.34295E-13-1.02858E-07
 -1     14336-7.62804E-07-1.77776E-07 1.21994E-06 4.98889E-11-8.70965E-13 3.46098E-08
 -1     14338-7.62804E-07-1.77776E-07 1.21994E-06 4.98889E-11 8.70965E-13-3.46098E-08
 -1     14339-7.94039E-07-1.77776E-07 1.25118E-06-5.31151E-11 9.27290E-13 3.57002E-08
 -1     14341-7.94039E-07-1.77776E-07 1.25118E-06-5.31151E-11-9.27290E-13-3.57002E-08
 -1     14342-2.72199E-06-1.77780E-07 3.18020E-06 8.38127E-12-1.46304E-13 1.03029E-07
 -1     14344-2.72199E-06-1.77780E-07 3.18020E-06 8.38127E-12 1.46304E-13-1.03029E-07
 -1     14345-3.09098E-07-1.77779E-07 7.66232E-07-3.32480E-12 5.84419E-14 1.87704E-08
 -1     14347-3.09098E-07-1.77779E-07 7.66232E-07-3.32480E-12-5.84419E-14-1.87704E-08
 -1     14348-4.06555E-07-1.77776E-07 8.63690E-07 2.40013E-11-4.18951E-13 2.21726E-08
 -1     14350-4.06555E-07-1.77776E-07 8.63690E-07 2.40013E-11 4.18951E-13-2.21726E-08
 -1     14351-4.23266E-07-1.77776E-07 8.80407E-07-2.44307E-11 4.26527E-13 2.27561E-08
 -1     14353-4.23266E-07-1.77776E-07 8.80407E-07-2.44307E-11-4.26527E-13-2.27561E-08
 -1     14354-3.98070E-07-1.77777E-07 8.55208E-07 2.07868E-14-3.88245E-16 2.18767E-08
 -1     14356-3.98070E-07-1.77777E-07 8.55208E-07 2.07868E-14 3.88245E-16-2.18767E-08
 -1     14357-2.99819E-07-1.77775E-07 7.56993E-07-3.92558E-12 6.85255E-14 1.84469E-08
 -1     14359-2.99819E-07-1.77775E-07 7.56993E-07-3.92558E-12-6.85255E-14-1.84469E-08
 -1     14360-5.57179E-07-1.77776E-07 1.01432E-06 3.18422E-11-5.55905E-13 2.74311E-08
 -1     14362-5.57179E-07-1.77776E-07 1.01432E-06 3.18422E-11 5.55905E-13-2.74311E-08
 -1     14363-5.79257E-07-1.77776E-07 1.03640E-06-3.35943E-11 5.86474E-13 2.82018E-08
 -1     14365-5.79257E-07-1.77776E-07 1.03640E-06-3.35943E-11-5.86474E-13-2.82018E-08
 -1     14366-2.02319E-06-1.77763E-07 2.48025E-06 2.11437E-10-3.69156E-12 7.86116E-08
 -1     14368-2.02319E-06-1.77763E-07 2.48025E-06 2.11437E-10 3.69156E-12-7.86116E-08
 -1     14369-2.12380E-06-1.77810E-07 2.58106E-06-1.85714E-10 3.24034E-12 8.21273E-08
 -1     14371-2.12380E-06-1.77810E-07 2.58106E-06-1.85714E-10-3.24034E-12-8.21273E-08
 -1     14372-1.97888E-06-1.77755E-07 2.43599E-06 4.55707E-12-7.82790E-14 7.70678E-08
 -1     14374-1.97888E-06-1.77755E-07 2.43599E-06 4.55707E-12 7.82790E-14-7.70678E-08
 -1     14375-1.15608E-06-1.77776E-07 1.61322E-06 9.85772E-11-1.72100E-12 4.83399E-08
 -1     14377-1.15608E-06-1.77776E-07 1.61322E-06 9.85772E-11 1.72100E-12-4.83399E-08
 -1     14378-1.20792E-06-1.77776E-07 1.66506E-06-1.05533E-10 1.84242E-12 5.01498E-08
 -1     14380-1.20792E-06-1.77776E-07 1.66506E-06-1.05533E-10-1.84242E-12-5.01498E-08
 -1     14381-8.26769E-07-1.77776E-07 1.28391E-06 5.65645E-11-9.87509E-13 3.68429E-08
 -1     14383-8.26769E-07-1.77776E-07 1.28391E-06 5.65645E-11 9.87509E-13-3.68429E-08
 -1     14384-8.61101E-07-1.77776E-07 1.31824E-06-6.03152E-11 1.05299E-12 3.80415E-08
 -1     14386-8.61101E-07-1.77776E-07 1.31824E-06-6.03152E-11-1.05299E-12-3.80415E-08
 -1     14387-8.10586E-07-1.77776E-07 1.26772E-06-8.03348E-14 1.42029E-15 3.62785E-08
 -1     14389-8.10586E-07-1.77776E-07 1.26772E-06-8.03348E-14-1.42029E-15-3.62785E-08
 -1     14390-2.80074E-06-1.77746E-07 3.25750E-06 7.97572E-11-1.39286E-12 1.05760E-07
 -1     14392-2.80074E-06-1.77746E-07 3.25750E-06 7.97572E-11 1.39286E-12-1.05760E-07
 -1     14393-2.77027E-06-1.77789E-07 3.22684E-06 3.21929E-10-5.61439E-12 1.04691E-07
 -1     14395-2.77027E-06-1.77789E-07 3.22684E-06 3.21929E-10 5.61439E-12-1.04691E-07
 -1     14396-2.60493E-06-1.77794E-07 3.06278E-06-4.33097E-10 7.56198E-12 9.89368E-08
 -1     14398-2.60493E-06-1.77794E-07 3.06278E-06-4.33097E-10-7.56198E-12-9.89368E-08
 -1     14399-2.66657E-06-1.77797E-07 3.12463E-06-2.70163E-10 4.71700E-12 1.01092E-07
 -1     14401-2.66657E-06-1.77797E-07 3.12463E-06-2.70163E-10-4.71700E-12-1.01092E-07
 -1     14402-6.51141E-07-1.77776E-07 1.10828E-06 3.93817E-11-6.87534E-13 3.07114E-08
 -1     14404-6.51141E-07-1.77776E-07 1.10828E-06 3.93817E-11 6.87534E-13-3.07114E-08
 -1     14405-6.77236E-07-1.77776E-07 1.13437E-06-4.17605E-11 7.29050E-13 3.16224E-08
 -1     14407-6.77236E-07-1.77776E-07 1.13437E-06-4.17605E-11-7.29050E-13-3.16224E-08
 -1     14408-2.35873E-06-1.77757E-07 2.81609E-06 3.58064E-10-6.25263E-12 9.03320E-08
 -1     14410-2.35873E-06-1.77757E-07 2.81609E-06 3.58064E-10 6.25263E-12-9.03320E-08
 -1     14411-2.49576E-06-1.77789E-07 2.95258E-06-2.81215E-10 4.90541E-12 9.51083E-08
 -1     14413-2.49576E-06-1.77789E-07 2.95258E-06-2.81215E-10-4.90541E-12-9.51083E-08
 -1     14414-2.54270E-06-1.77769E-07 2.99964E-06-9.85154E-11 1.72350E-12 9.67518E-08
 -1     14416-2.54270E-06-1.77769E-07 2.99964E-06-9.85154E-11-1.72350E-12-9.67518E-08
 -1     14417-2.29021E-06-1.77814E-07 2.74731E-06-6.26209E-11 1.09071E-12 8.79381E-08
 -1     14419-2.29021E-06-1.77814E-07 2.74731E-06-6.26209E-11-1.09071E-12-8.79381E-08
 -1     14420-6.02215E-07-1.77776E-07 1.05935E-06 3.52883E-11-6.16069E-13 2.90033E-08
 -1     14422-6.02215E-07-1.77776E-07 1.05935E-06 3.52883E-11 6.16069E-13-2.90033E-08
 -1     14423-6.26178E-07-1.77776E-07 1.08332E-06-3.73320E-11 6.51732E-13 2.98399E-08
 -1     14425-6.26178E-07-1.77776E-07 1.08332E-06-3.73320E-11-6.51732E-13-2.98399E-08
 -1     14426-5.90930E-07-1.77776E-07 1.04807E-06 2.38818E-13-4.16671E-15 2.86097E-08
 -1     14428-5.90930E-07-1.77776E-07 1.04807E-06 2.38818E-13 4.16671E-15-2.86097E-08
 -1     14429-2.86421E-06-1.77775E-07 3.32076E-06 1.51874E-12-2.67066E-14 1.07971E-07
 -1     14431-2.86421E-06-1.77775E-07 3.32076E-06 1.51874E-12 2.67066E-14-1.07971E-07
 -1     14432-2.71677E-06-1.77778E-07 3.17500E-06 1.31441E-11-2.29463E-13 1.02847E-07
 -1     14434-2.71677E-06-1.77778E-07 3.17500E-06 1.31441E-11 2.29463E-13-1.02847E-07
 -1     14435-2.86356E-06-1.77776E-07 3.32011E-06-7.26457E-12 1.27004E-13 1.07948E-07
 -1     14437-2.86356E-06-1.77776E-07 3.32011E-06-7.26457E-12-1.27004E-13-1.07948E-07
 -1     14438-2.97065E-07-1.77776E-07 7.54205E-07 1.34662E-11-2.35142E-13 1.83502E-08
 -1     14440-2.97065E-07-1.77776E-07 7.54205E-07 1.34662E-11 2.35142E-13-1.83502E-08
 -1     14441-2.86405E-07-1.77779E-07 7.43548E-07-8.60142E-12 1.50230E-13 1.79781E-08
 -1     14443-2.86405E-07-1.77779E-07 7.43548E-07-8.60142E-12-1.50230E-13-1.79781E-08
 -1     14444-4.86354E-07-1.77776E-07 9.43492E-07 1.05610E-13-1.85534E-15 2.49588E-08
 -1     14446-4.86354E-07-1.77776E-07 9.43492E-07 1.05611E-13 1.85534E-15-2.49588E-08
 -1     14447-1.26278E-06-1.77776E-07 1.71992E-06 1.15057E-10-2.00869E-12 5.20650E-08
 -1     14449-1.26278E-06-1.77776E-07 1.71992E-06 1.15057E-10 2.00869E-12-5.20650E-08
 -1     14450-1.32085E-06-1.77776E-07 1.77798E-06-1.23745E-10 2.16037E-12 5.40923E-08
 -1     14452-1.32085E-06-1.77776E-07 1.77798E-06-1.23745E-10-2.16037E-12-5.40923E-08
 -1     14453-1.23562E-06-1.77776E-07 1.69276E-06-3.19969E-13 5.56372E-15 5.11179E-08
 -1     14455-1.23562E-06-1.77776E-07 1.69276E-06-3.19969E-13-5.56372E-15-5.11179E-08
 -1     14456-3.01149E-06-1.77776E-07 3.46994E-06-2.56584E-13 4.48211E-15 1.13141E-07
 -1     14458-3.01149E-06-1.77776E-07 3.46994E-06-2.56584E-13-4.48211E-15-1.13141E-07
 -1     14459-9.34952E-07-1.77776E-07 1.39209E-06-6.87176E-11 1.19968E-12 4.06198E-08
 -1     14461-9.34952E-07-1.77776E-07 1.39209E-06-6.87176E-11-1.19968E-12-4.06198E-08
 -1     14462-9.55047E-07-1.77776E-07 1.41219E-06-1.43878E-13 2.52983E-15 4.13221E-08
 -1     14464-9.55047E-07-1.77776E-07 1.41219E-06-1.43878E-13-2.52983E-15-4.13221E-08
 -1     14465-8.97120E-07-1.77776E-07 1.35426E-06 6.42656E-11-1.12195E-12 3.92990E-08
 -1     14467-8.97120E-07-1.77776E-07 1.35426E-06 6.42656E-11 1.12195E-12-3.92990E-08
 -1     14468-1.06060E-06-1.77776E-07 1.51774E-06 8.48038E-11-1.48053E-12 4.50064E-08
 -1     14470-1.06060E-06-1.77776E-07 1.51774E-06 8.48038E-11 1.48053E-12-4.50064E-08
 -1     14471-1.10707E-06-1.77776E-07 1.56421E-06-9.06783E-11 1.58308E-12 4.66289E-08
 -1     14473-1.10707E-06-1.77776E-07 1.56421E-06-9.06783E-11-1.58308E-12-4.66289E-08
 -1     14474-1.13181E-06-1.77776E-07 1.58894E-06-1.68077E-13 2.93802E-15 4.74934E-08
 -1     14476-1.13181E-06-1.77776E-07 1.58894E-06-1.68077E-13-2.93802E-15-4.74934E-08
 -1     14477-1.03880E-06-1.77776E-07 1.49594E-06-1.69266E-13 2.97270E-15 4.42462E-08
 -1     14479-1.03880E-06-1.77776E-07 1.49594E-06-1.69267E-13-2.97270E-15-4.42462E-08
 -1     14480-2.99277E-07-1.77774E-07 7.56440E-07 1.13007E-11-1.97286E-13 1.84278E-08
 -1     14482-2.99277E-07-1.77774E-07 7.56440E-07 1.13007E-11 1.97286E-13-1.84278E-08
 -1     14483-2.82229E-07-1.77778E-07 7.39363E-07 6.24881E-14-1.38818E-15 1.78322E-08
 -1     14485-2.82229E-07-1.77778E-07 7.39363E-07 6.24881E-14 1.38818E-15-1.78322E-08
 -1     14486-2.84429E-07-1.77775E-07 7.41555E-07 9.41550E-12-1.65255E-13 1.79089E-08
 -1     14488-2.84429E-07-1.77775E-07 7.41555E-07 9.41550E-12 1.65255E-13-1.79089E-08
 -1     14489-1.75050E-06-1.77779E-07 2.20768E-06-1.91618E-10 3.34538E-12 6.90935E-08
 -1     14491-1.75050E-06-1.77779E-07 2.20768E-06-1.91618E-10-3.34538E-12-6.90935E-08
 -1     14492-1.79694E-06-1.77769E-07 2.25407E-06 8.44371E-12-1.47079E-13 7.07160E-08
 -1     14494-1.79694E-06-1.77769E-07 2.25407E-06 8.44371E-12 1.47079E-13-7.07160E-08
 -1     14495-1.66881E-06-1.77780E-07 2.12594E-06 1.75209E-10-3.05837E-12 6.62407E-08
 -1     14497-1.66881E-06-1.77780E-07 2.12594E-06 1.75209E-10 3.05837E-12-6.62407E-08
 -1     14498-5.35981E-07-1.77776E-07 9.93121E-07-3.04804E-11 5.32106E-13 2.66911E-08
 -1     14500-5.35981E-07-1.77776E-07 9.93121E-07-3.04804E-11-5.32106E-13-2.66911E-08
 -1     14501-5.46787E-07-1.77776E-07 1.00392E-06 3.55586E-13-6.20864E-15 2.70686E-08
 -1     14503-5.46787E-07-1.77776E-07 1.00392E-06 3.55586E-13 6.20864E-15-2.70686E-08
 -1     14504-5.15562E-07-1.77776E-07 9.72698E-07 2.89982E-11-5.06244E-13 2.59781E-08
 -1     14506-5.15562E-07-1.77776E-07 9.72698E-07 2.89982E-11 5.06244E-13-2.59781E-08
 -1     14507-6.38838E-07-1.77776E-07 1.09598E-06 1.21030E-13-2.10652E-15 3.02823E-08
 -1     14509-6.38838E-07-1.77776E-07 1.09598E-06 1.21030E-13 2.10652E-15-3.02823E-08
 -1     14510-2.97541E-07-1.77782E-07 7.54694E-07-1.27402E-11 2.21798E-13 1.83671E-08
 -1     14512-2.97541E-07-1.77782E-07 7.54694E-07-1.27402E-11-2.21798E-13-1.83671E-08
 -1     14513-3.03183E-07-1.77771E-07 7.60317E-07 1.49370E-12-2.62379E-14 1.85638E-08
 -1     14515-3.03183E-07-1.77771E-07 7.60317E-07 1.49370E-12 2.62379E-14-1.85638E-08
 -1     14516-3.11793E-07-1.77775E-07 7.68911E-07-7.72522E-12 1.35274E-13 1.88641E-08
 -1     14518-3.11793E-07-1.77775E-07 7.68911E-07-7.72522E-12-1.35274E-13-1.88641E-08
 -1     14519-3.14583E-07-1.77773E-07 7.71695E-07-1.05853E-11 1.86230E-13 1.89615E-08
 -1     14521-3.14583E-07-1.77773E-07 7.71695E-07-1.05853E-11-1.86230E-13-1.89615E-08
 -1     14522-3.13602E-07-1.77777E-07 7.70724E-07-4.09319E-12 7.16614E-14 1.89274E-08
 -1     14524-3.13602E-07-1.77777E-07 7.70724E-07-4.09319E-12-7.16614E-14-1.89274E-08
 -1     14525-2.59432E-06-1.77773E-07 3.05096E-06-1.75017E-11 3.04577E-13 9.85486E-08
 -1     14527-2.59432E-06-1.77773E-07 3.05096E-06-1.75017E-11-3.04577E-13-9.85486E-08
 -1     14528-2.59478E-06-1.77770E-07 3.05143E-06-3.28011E-13 5.34134E-15 9.85647E-08
 -1     14530-2.59478E-06-1.77770E-07 3.05143E-06-3.28011E-13-5.34134E-15-9.85647E-08
 -1     14531-3.16249E-07-1.77773E-07 7.73368E-07-2.33611E-12 4.19566E-14 1.90199E-08
 -1     14533-3.16249E-07-1.77773E-07 7.73368E-07-2.33611E-12-4.19566E-14-1.90199E-08
 -1     14534-3.26167E-07-1.77780E-07 7.83332E-07 1.36452E-11-2.38036E-13 1.93667E-08
 -1     14536-3.26167E-07-1.77780E-07 7.83332E-07 1.36452E-11 2.38036E-13-1.93667E-08
 -1     14537-3.08502E-07-1.77776E-07 7.65623E-07 8.32724E-14-1.35755E-15 1.87493E-08
 -1     14539-3.08502E-07-1.77776E-07 7.65623E-07 8.32724E-14 1.35755E-15-1.87493E-08
 -1     14540-3.08638E-07-1.77776E-07 7.65758E-07 2.14774E-13-3.80156E-15 1.87540E-08
 -1     14542-3.08638E-07-1.77776E-07 7.65758E-07 2.14774E-13 3.80156E-15-1.87540E-08
 -1     14543-2.86439E-06-1.77774E-07 3.32094E-06 2.69324E-13-4.43141E-15 1.07977E-07
 -1     14545-2.86439E-06-1.77774E-07 3.32094E-06 2.69324E-13 4.43141E-15-1.07977E-07
 -1     14546-2.86413E-06-1.77776E-07 3.32067E-06 8.48879E-12-1.48059E-13 1.07968E-07
 -1     14548-2.86413E-06-1.77776E-07 3.32067E-06 8.48879E-12 1.48059E-13-1.07968E-07
 -1     14549-2.71759E-06-1.77779E-07 3.17580E-06-1.21209E-11 2.11596E-13 1.02876E-07
 -1     14551-2.71759E-06-1.77779E-07 3.17580E-06-1.21209E-11-2.11596E-13-1.02876E-07
 -1     14552-3.08932E-07-1.77776E-07 7.66054E-07 9.81311E-13-1.70755E-14 1.87643E-08
 -1     14554-3.08932E-07-1.77776E-07 7.66054E-07 9.81311E-13 1.70755E-14-1.87643E-08
 -1     14555-3.09388E-07-1.77776E-07 7.66507E-07 1.01286E-12-1.78279E-14 1.87801E-08
 -1     14557-3.09388E-07-1.77776E-07 7.66507E-07 1.01286E-12 1.78279E-14-1.87801E-08
 -1     14558-3.19465E-07-1.77776E-07 7.76639E-07-1.01192E-12 1.76651E-14 1.91328E-08
 -1     14560-3.19465E-07-1.77776E-07 7.76639E-07-1.01192E-12-1.76651E-14-1.91328E-08
 -1     14561-3.08759E-07-1.77780E-07 7.65917E-07 1.75102E-11-3.06753E-13 1.87588E-08
 -1     14563-3.08759E-07-1.77780E-07 7.65917E-07 1.75102E-11 3.06753E-13-1.87588E-08
 -1     14564-3.10468E-07-1.77776E-07 7.67586E-07-1.37156E-12 2.40724E-14 1.88179E-08
 -1     14566-3.10468E-07-1.77776E-07 7.67586E-07-1.37156E-12-2.40724E-14-1.88179E-08
 -1     14567-3.09995E-07-1.77776E-07 7.67116E-07-1.22820E-12 2.14673E-14 1.88014E-08
 -1     14569-3.09995E-07-1.77776E-07 7.67116E-07-1.22820E-12-2.14673E-14-1.88014E-08
 -1     14570-3.16569E-07-1.77772E-07 7.73687E-07-1.20294E-12 1.99740E-14 1.90311E-08
 -1     14572-3.16569E-07-1.77772E-07 7.73687E-07-1.20294E-12-1.99740E-14-1.90311E-08
 -1     14573-4.40684E-07-1.77776E-07 8.97820E-07 2.53516E-11-4.42548E-13 2.33641E-08
 -1     14575-4.40684E-07-1.77776E-07 8.97820E-07 2.53516E-11 4.42548E-13-2.33641E-08
 -1     14576-4.58482E-07-1.77776E-07 9.15623E-07-2.61314E-11 4.56174E-13 2.39855E-08
 -1     14578-4.58482E-07-1.77776E-07 9.15623E-07-2.61314E-11-4.56174E-13-2.39855E-08
 -1     14579-4.31998E-07-1.77776E-07 8.89136E-07 3.73006E-13-6.54306E-15 2.30611E-08
 -1     14581-4.31998E-07-1.77776E-07 8.89136E-07 3.73006E-13 6.54306E-15-2.30611E-08
 -1     14582-7.04476E-07-1.77776E-07 1.16161E-06 4.42432E-11-7.72407E-13 3.25735E-08
 -1     14584-7.04476E-07-1.77776E-07 1.16161E-06 4.42432E-11 7.72407E-13-3.25735E-08
 -1     14585-7.32988E-07-1.77776E-07 1.19013E-06-4.69910E-11 8.20367E-13 3.35688E-08
 -1     14587-7.32988E-07-1.77776E-07 1.19013E-06-4.69910E-11-8.20367E-13-3.35688E-08
 -1     14588-7.48062E-07-1.77776E-07 1.20520E-06-1.71190E-14 3.10848E-16 3.40956E-08
 -1     14590-7.48062E-07-1.77776E-07 1.20520E-06-1.71190E-14-3.10847E-16-3.40956E-08
 -1     14591-6.91025E-07-1.77776E-07 1.14816E-06 3.25754E-14-5.58835E-16 3.21043E-08
 -1     14593-6.91025E-07-1.77776E-07 1.14816E-06 3.25754E-14 5.58835E-16-3.21043E-08
 -1     14594-3.10300E-07-1.77776E-07 7.67422E-07 2.15279E-12-3.76000E-14 1.88121E-08
 -1     14596-3.10300E-07-1.77776E-07 7.67422E-07 2.15279E-12 3.76000E-14-1.88121E-08
 -1     14597-3.11128E-07-1.77776E-07 7.68245E-07 1.86722E-12-3.28579E-14 1.88409E-08
 -1     14599-3.11128E-07-1.77776E-07 7.68245E-07 1.86722E-12 3.28579E-14-1.88409E-08
 -1     14600-3.20688E-07-1.77776E-07 7.77862E-07-3.51086E-12 6.12821E-14 1.91754E-08
 -1     14602-3.20688E-07-1.77776E-07 7.77862E-07-3.51086E-12-6.12821E-14-1.91754E-08
 -1     14603-4.76901E-07-1.77776E-07 9.34037E-07 2.68113E-11-4.68049E-13 2.46284E-08
 -1     14605-4.76901E-07-1.77776E-07 9.34037E-07 2.68113E-11 4.68049E-13-2.46284E-08
 -1     14606-4.95876E-07-1.77776E-07 9.53016E-07-2.79877E-11 4.88589E-13 2.52910E-08
 -1     14608-4.95876E-07-1.77776E-07 9.53016E-07-2.79877E-11-4.88589E-13-2.52910E-08
 -1     14609-5.05915E-07-1.77776E-07 9.63053E-07 4.37124E-13-7.63949E-15 2.56417E-08
 -1     14611-5.05915E-07-1.77776E-07 9.63053E-07 4.37124E-13 7.63949E-15-2.56417E-08
 -1     14612-4.67822E-07-1.77776E-07 9.24960E-07 4.28617E-13-7.50462E-15 2.43118E-08
 -1     14614-4.67822E-07-1.77776E-07 9.24960E-07 4.28617E-13 7.50462E-15-2.43118E-08
 -1     14615-3.12794E-07-1.77777E-07 7.69914E-07 4.40113E-12-7.70229E-14 1.88992E-08
 -1     14617-3.12794E-07-1.77777E-07 7.69914E-07 4.40113E-12 7.70229E-14-1.88992E-08
 -1     14618-3.13766E-07-1.77776E-07 7.70879E-07 2.58976E-12-4.57519E-14 1.89330E-08
 -1     14620-3.13766E-07-1.77776E-07 7.70879E-07 2.58976E-12 4.57519E-14-1.89330E-08
 -1     14621-3.23297E-07-1.77776E-07 7.80473E-07-6.16006E-12 1.07517E-13 1.92666E-08
 -1     14623-3.23297E-07-1.77776E-07 7.80473E-07-6.16006E-12-1.07517E-13-1.92666E-08
 -1     14624-5.79447E-07-1.77776E-07 1.03659E-06 3.31543E-11-5.78824E-13 2.82085E-08
 -1     14626-5.79447E-07-1.77776E-07 1.03659E-06 3.31543E-11 5.78824E-13-2.82085E-08
 -1     14627-6.02406E-07-1.77776E-07 1.05954E-06-3.51142E-11 6.13004E-13 2.90100E-08
 -1     14629-6.02406E-07-1.77776E-07 1.05954E-06-3.51142E-11-6.13004E-13-2.90100E-08
 -1     14630-2.59621E-06-1.77778E-07 3.05289E-06-1.31723E-12 2.10963E-14 9.86149E-08
 -1     14632-2.59621E-06-1.77778E-07 3.05289E-06-1.31723E-12-2.10963E-14-9.86149E-08
 -1     14633-2.59245E-06-1.77770E-07 3.04910E-06 2.82328E-11-4.91734E-13 9.84827E-08
 -1     14635-2.59245E-06-1.77770E-07 3.04910E-06 2.82328E-11 4.91734E-13-9.84827E-08
 -1     14636-2.46845E-06-1.77781E-07 2.92646E-06 1.99681E-11-3.48581E-13 9.41734E-08
 -1     14638-2.46845E-06-1.77781E-07 2.92646E-06 1.99681E-11 3.48581E-13-9.41734E-08
 -1     14639-2.86357E-06-1.77775E-07 3.32011E-06-2.26609E-12 3.97273E-14 1.07948E-07
 -1     14641-2.86357E-06-1.77775E-07 3.32011E-06-2.26609E-12-3.97273E-14-1.07948E-07
 -1     14642-2.86349E-06-1.77776E-07 3.32004E-06 4.98237E-12-8.70192E-14 1.07946E-07
 -1     14644-2.86349E-06-1.77776E-07 3.32004E-06 4.98237E-12 8.70192E-14-1.07946E-07
 -1     14645-2.71604E-06-1.77778E-07 3.17426E-06-5.04233E-12 8.80311E-14 1.02822E-07
 -1     14647-2.71604E-06-1.77778E-07 3.17426E-06-5.04233E-12-8.80311E-14-1.02822E-07
 -1     14648-2.46694E-06-1.77787E-07 2.92368E-06 2.99545E-10-5.22674E-12 9.41017E-08
 -1     14650-2.46694E-06-1.77787E-07 2.92368E-06 2.99545E-10 5.22674E-12-9.41017E-08
 -1     14651-2.32929E-06-1.77772E-07 2.78687E-06-3.84593E-10 6.71483E-12 8.93082E-08
 -1     14653-2.32929E-06-1.77772E-07 2.78687E-06-3.84593E-10-6.71483E-12-8.93082E-08
 -1     14654-2.50371E-06-1.77765E-07 2.96063E-06 1.03518E-10-1.80784E-12 9.53911E-08
 -1     14656-2.50371E-06-1.77765E-07 2.96063E-06 1.03518E-10 1.80784E-12-9.53911E-08
 -1     14657-2.20961E-06-1.77783E-07 2.66648E-06 2.66219E-10-4.64631E-12 8.51189E-08
 -1     14659-2.20961E-06-1.77783E-07 2.66648E-06 2.66219E-10 4.64631E-12-8.51189E-08
 -1     14660-2.09269E-06-1.77771E-07 2.55012E-06-3.27549E-10 5.71878E-12 8.10448E-08
 -1     14662-2.09269E-06-1.77771E-07 2.55012E-06-3.27549E-10-5.71878E-12-8.10448E-08
 -1     14663-2.24568E-06-1.77771E-07 2.70270E-06 9.11824E-11-1.59189E-12 8.63830E-08
 -1     14665-2.24568E-06-1.77771E-07 2.70270E-06 9.11824E-11 1.59189E-12-8.63830E-08
 -1     14666-1.98867E-06-1.77780E-07 2.44562E-06 2.29274E-10-4.00208E-12 7.74060E-08
 -1     14668-1.98867E-06-1.77780E-07 2.44562E-06 2.29274E-10 4.00208E-12-7.74060E-08
 -1     14669-1.88802E-06-1.77771E-07 2.34536E-06-2.73590E-10 4.77666E-12 7.38974E-08
 -1     14671-1.88802E-06-1.77771E-07 2.34536E-06-2.73590E-10-4.77666E-12-7.38974E-08
 -1     14672-2.02193E-06-1.77775E-07 2.47900E-06 7.23754E-11-1.26329E-12 7.85711E-08
 -1     14674-2.02193E-06-1.77775E-07 2.47900E-06 7.23754E-11 1.26329E-12-7.85711E-08
 -1     14675-1.79725E-06-1.77779E-07 2.25425E-06 1.94158E-10-3.38947E-12 7.07234E-08
 -1     14677-1.79725E-06-1.77779E-07 2.25425E-06 1.94158E-10 3.38947E-12-7.07234E-08
 -1     14678-1.70983E-06-1.77776E-07 2.16712E-06-2.24576E-10 3.92087E-12 6.76753E-08
 -1     14680-1.70983E-06-1.77776E-07 2.16712E-06-2.24576E-10-3.92087E-12-6.76753E-08
 -1     14681-1.82723E-06-1.77772E-07 2.28433E-06 5.68842E-11-9.92817E-13 7.17734E-08
 -1     14683-1.82723E-06-1.77772E-07 2.28433E-06 5.68842E-11 9.92817E-13-7.17734E-08
 -1     14684-1.63023E-06-1.77777E-07 2.08726E-06 1.59377E-10-2.78246E-12 6.48925E-08
 -1     14686-1.63023E-06-1.77777E-07 2.08726E-06 1.59377E-10 2.78246E-12-6.48925E-08
 -1     14687-1.55372E-06-1.77775E-07 2.01099E-06-1.83776E-10 3.20852E-12 6.22247E-08
 -1     14689-1.55372E-06-1.77775E-07 2.01099E-06-1.83776E-10-3.20852E-12-6.22247E-08
 -1     14690-1.65700E-06-1.77774E-07 2.11411E-06 4.50773E-11-7.86932E-13 6.58299E-08
 -1     14692-1.65700E-06-1.77774E-07 2.11411E-06 4.50773E-11 7.86932E-13-6.58299E-08
 -1     14693-1.48380E-06-1.77777E-07 1.94085E-06 1.34115E-10-2.34138E-12 5.97803E-08
 -1     14695-1.48380E-06-1.77777E-07 1.94085E-06 1.34115E-10 2.34138E-12-5.97803E-08
 -1     14696-1.41630E-06-1.77777E-07 1.87354E-06-1.52798E-10 2.66754E-12 5.74265E-08
 -1     14698-1.41630E-06-1.77777E-07 1.87354E-06-1.52798E-10-2.66754E-12-5.74265E-08
 -1     14699-1.50762E-06-1.77770E-07 1.96473E-06 3.40680E-11-5.94835E-13 6.06143E-08
 -1     14701-1.50762E-06-1.77770E-07 1.96473E-06 3.40680E-11 5.94835E-13-6.06143E-08
 -1     14702-1.35384E-06-1.77776E-07 1.81090E-06 1.14386E-10-1.99695E-12 5.52434E-08
 -1     14704-1.35384E-06-1.77776E-07 1.81090E-06 1.14386E-10 1.99695E-12-5.52434E-08
 -1     14705-1.29370E-06-1.77777E-07 1.75093E-06-1.31878E-10 2.30229E-12 5.31460E-08
 -1     14707-1.29370E-06-1.77777E-07 1.75093E-06-1.31878E-10-2.30229E-12-5.31460E-08
 -1     14708-1.37533E-06-1.77774E-07 1.83245E-06 2.92116E-11-5.10008E-13 5.59955E-08
 -1     14710-1.37533E-06-1.77774E-07 1.83245E-06 2.92116E-11 5.10008E-13-5.59955E-08
 -1     14711-1.23772E-06-1.77776E-07 1.69479E-06 9.84402E-11-1.71860E-12 5.11893E-08
 -1     14713-1.23772E-06-1.77776E-07 1.69479E-06 9.84402E-11 1.71860E-12-5.11893E-08
 -1     14714-1.18389E-06-1.77776E-07 1.64111E-06-1.14277E-10 1.99503E-12 4.93120E-08
 -1     14716-1.18389E-06-1.77776E-07 1.64111E-06-1.14277E-10-1.99503E-12-4.93120E-08
 -1     14717-1.25697E-06-1.77775E-07 1.71409E-06 2.58790E-11-4.51832E-13 5.18631E-08
 -1     14719-1.25697E-06-1.77775E-07 1.71409E-06 2.58790E-11 4.51832E-13-5.18631E-08
 -1     14720-1.13370E-06-1.77776E-07 1.59077E-06 8.47562E-11-1.47972E-12 4.75576E-08
 -1     14722-1.13370E-06-1.77776E-07 1.59077E-06 8.47562E-11 1.47972E-12-4.75576E-08
 -1     14723-1.08540E-06-1.77776E-07 1.54261E-06-9.88021E-11 1.72488E-12 4.58733E-08
 -1     14725-1.08540E-06-1.77776E-07 1.54261E-06-9.88021E-11-1.72488E-12-4.58733E-08
 -1     14726-1.15086E-06-1.77775E-07 1.60798E-06 2.28079E-11-3.98240E-13 4.81585E-08
 -1     14728-1.15086E-06-1.77775E-07 1.60798E-06 2.28079E-11 3.98240E-13-4.81585E-08
 -1     14729-1.04034E-06-1.77776E-07 1.49742E-06 7.30990E-11-1.27620E-12 4.42984E-08
 -1     14731-1.04034E-06-1.77776E-07 1.49742E-06 7.30990E-11 1.27620E-12-4.42984E-08
 -1     14732-9.96888E-07-1.77776E-07 1.45409E-06-8.55443E-11 1.49344E-12 4.27832E-08
 -1     14734-9.96888E-07-1.77776E-07 1.45409E-06-8.55443E-11-1.49344E-12-4.27832E-08
 -1     14735-1.05567E-06-1.77775E-07 1.51279E-06 1.97669E-11-3.45174E-13 4.48349E-08
 -1     14737-1.05567E-06-1.77775E-07 1.51279E-06 1.97669E-11 3.45174E-13-4.48349E-08
 -1     14738-9.56304E-07-1.77776E-07 1.41339E-06 6.35951E-11-1.11025E-12 4.13646E-08
 -1     14740-9.56304E-07-1.77776E-07 1.41339E-06 6.35951E-11 1.11025E-12-4.13646E-08
 -1     14741-9.17070E-07-1.77776E-07 1.37427E-06-7.46106E-11 1.30255E-12 3.99964E-08
 -1     14743-9.17070E-07-1.77776E-07 1.37427E-06-7.46106E-11-1.30255E-12-3.99964E-08
 -1     14744-9.70070E-07-1.77775E-07 1.42719E-06 1.71759E-11-2.99939E-13 4.18464E-08
 -1     14746-9.70070E-07-1.77775E-07 1.42719E-06 1.71759E-11 2.99939E-13-4.18464E-08
 -1     14747-8.80331E-07-1.77776E-07 1.33743E-06 5.59024E-11-9.75943E-13 3.87123E-08
 -1     14749-8.80331E-07-1.77776E-07 1.33743E-06 5.59024E-11 9.75943E-13-3.87123E-08
 -1     14750-8.44761E-07-1.77776E-07 1.30195E-06-6.57154E-11 1.14725E-12 3.74718E-08
 -1     14752-8.44761E-07-1.77776E-07 1.30195E-06-6.57154E-11-1.14725E-12-3.74718E-08
 -1     14753-8.92780E-07-1.77775E-07 1.34991E-06 1.51657E-11-2.64825E-13 3.91480E-08
 -1     14755-8.92780E-07-1.77775E-07 1.34991E-06 1.51657E-11 2.64825E-13-3.91480E-08
 -1     14756-8.11357E-07-1.77776E-07 1.26846E-06 4.93402E-11-8.61383E-13 3.63044E-08
 -1     14758-8.11357E-07-1.77776E-07 1.26846E-06 4.93402E-11 8.61383E-13-3.63044E-08
 -1     14759-7.79002E-07-1.77776E-07 1.23619E-06-5.82165E-11 1.01634E-12 3.51760E-08
 -1     14761-7.79002E-07-1.77776E-07 1.23619E-06-5.82165E-11-1.01634E-12-3.51760E-08
 -1     14762-8.22664E-07-1.77776E-07 1.27979E-06 1.34637E-11-2.35096E-13 3.67000E-08
 -1     14764-8.22664E-07-1.77776E-07 1.27979E-06 1.34637E-11 2.35096E-13-3.67000E-08
 -1     14765-7.48558E-07-1.77776E-07 1.20566E-06 4.35282E-11-7.59929E-13 3.41120E-08
 -1     14767-7.48558E-07-1.77776E-07 1.20566E-06 4.35282E-11 7.59929E-13-3.41120E-08
 -1     14768-7.19063E-07-1.77776E-07 1.17624E-06-5.15513E-11 8.99981E-13 3.30833E-08
 -1     14770-7.19063E-07-1.77776E-07 1.17624E-06-5.15513E-11-8.99981E-13-3.30833E-08
 -1     14771-7.58840E-07-1.77776E-07 1.21597E-06 1.19078E-11-2.07932E-13 3.44718E-08
 -1     14773-7.58840E-07-1.77776E-07 1.21597E-06 1.19078E-11 2.07932E-13-3.44718E-08
 -1     14774-6.91277E-07-1.77776E-07 1.14839E-06 3.83863E-11-6.70168E-13 3.21123E-08
 -1     14776-6.91277E-07-1.77776E-07 1.14839E-06 3.83863E-11 6.70168E-13-3.21123E-08
 -1     14777-6.64341E-07-1.77776E-07 1.12151E-06-4.55634E-11 7.95447E-13 3.11728E-08
 -1     14779-6.64341E-07-1.77776E-07 1.12151E-06-4.55634E-11-7.95447E-13-3.11728E-08
 -1     14780-7.00629E-07-1.77776E-07 1.15776E-06 1.05160E-11-1.83641E-13 3.24395E-08
 -1     14782-7.00629E-07-1.77776E-07 1.15776E-06 1.05160E-11 1.83641E-13-3.24395E-08
 -1     14783-6.38940E-07-1.77776E-07 1.09605E-06 3.38965E-11-5.91782E-13 3.02851E-08
 -1     14785-6.38940E-07-1.77776E-07 1.09605E-06 3.38965E-11 5.91782E-13-3.02851E-08
 -1     14786-6.14290E-07-1.77776E-07 1.07146E-06-4.03188E-11 7.03887E-13 2.94254E-08
 -1     14788-6.14290E-07-1.77776E-07 1.07146E-06-4.03188E-11-7.03887E-13-2.94254E-08
 -1     14789-6.47461E-07-1.77776E-07 1.10459E-06 9.30677E-12-1.62540E-13 3.05832E-08
 -1     14791-6.47461E-07-1.77776E-07 1.10459E-06 9.30677E-12 1.62540E-13-3.05832E-08
 -1     14792-5.91031E-07-1.77776E-07 1.04815E-06 3.00775E-11-5.25096E-13 2.86126E-08
 -1     14794-5.91031E-07-1.77776E-07 1.04815E-06 3.00775E-11 5.25096E-13-2.86126E-08
 -1     14795-5.68415E-07-1.77776E-07 1.02558E-06-3.59024E-11 6.26787E-13 2.78238E-08
 -1     14797-5.68415E-07-1.77776E-07 1.02558E-06-3.59024E-11-6.26787E-13-2.78238E-08
 -1     14798-5.98816E-07-1.77776E-07 1.05595E-06 8.26020E-12-1.44274E-13 2.88850E-08
 -1     14800-5.98816E-07-1.77776E-07 1.05595E-06 8.26020E-12 1.44274E-13-2.88850E-08
 -1     14801-5.47064E-07-1.77776E-07 1.00418E-06 2.70327E-11-4.71916E-13 2.70777E-08
 -1     14803-5.47064E-07-1.77776E-07 1.00418E-06 2.70327E-11 4.71916E-13-2.70777E-08
 -1     14804-5.26252E-07-1.77776E-07 9.83415E-07-3.24012E-11 5.65661E-13 2.63518E-08
 -1     14806-5.26252E-07-1.77776E-07 9.83415E-07-3.24012E-11-5.65661E-13-2.63518E-08
 -1     14807-5.54219E-07-1.77776E-07 1.01135E-06 7.40311E-12-1.29295E-13 2.73280E-08
 -1     14809-5.54219E-07-1.77776E-07 1.01135E-06 7.40311E-12 1.29295E-13-2.73280E-08
 -1     14810-5.06534E-07-1.77776E-07 9.63654E-07 2.46068E-11-4.29583E-13 2.56627E-08
 -1     14812-5.06534E-07-1.77776E-07 9.63654E-07 2.46068E-11 4.29583E-13-2.56627E-08
 -1     14813-4.87356E-07-1.77776E-07 9.44517E-07-2.92545E-11 5.10731E-13 2.49938E-08
 -1     14815-4.87356E-07-1.77776E-07 9.44517E-07-2.92545E-11-5.10731E-13-2.49938E-08
 -1     14816-5.13159E-07-1.77776E-07 9.70292E-07 6.89504E-12-1.20359E-13 2.58945E-08
 -1     14818-5.13159E-07-1.77776E-07 9.70292E-07 6.89504E-12 1.20359E-13-2.58945E-08
 -1     14819-4.69124E-07-1.77776E-07 9.26246E-07 2.16281E-11-3.77665E-13 2.43567E-08
 -1     14821-4.69124E-07-1.77776E-07 9.26246E-07 2.16281E-11 3.77665E-13-2.43567E-08
 -1     14822-4.51548E-07-1.77777E-07 9.08707E-07-2.50615E-11 4.37563E-13 2.37437E-08
 -1     14824-4.51548E-07-1.77777E-07 9.08707E-07-2.50615E-11-4.37563E-13-2.37437E-08
 -1     14825-4.75220E-07-1.77776E-07 9.32353E-07 6.50410E-12-1.13526E-13 2.45699E-08
 -1     14827-4.75220E-07-1.77776E-07 9.32353E-07 6.50410E-12 1.13526E-13-2.45699E-08
 -1     14828-4.35022E-07-1.77776E-07 8.92145E-07 1.76037E-11-3.07405E-13 2.31662E-08
 -1     14830-4.35022E-07-1.77776E-07 8.92145E-07 1.76037E-11 3.07405E-13-2.31662E-08
 -1     14831-4.19034E-07-1.77776E-07 8.76192E-07-2.00764E-11 3.50558E-13 2.26085E-08
 -1     14833-4.19034E-07-1.77776E-07 8.76192E-07-2.00764E-11-3.50558E-13-2.26085E-08
 -1     14834-4.40478E-07-1.77775E-07 8.97611E-07 4.98121E-12-8.71234E-14 2.33570E-08
 -1     14836-4.40478E-07-1.77775E-07 8.97611E-07 4.98121E-12 8.71234E-14-2.33570E-08
 -1     14837-4.04317E-07-1.77776E-07 8.61441E-07 1.55629E-11-2.71547E-13 2.20942E-08
 -1     14839-4.04317E-07-1.77776E-07 8.61441E-07 1.55629E-11 2.71547E-13-2.20942E-08
 -1     14840-3.89596E-07-1.77775E-07 8.46746E-07-1.99282E-11 3.47867E-13 2.15807E-08
 -1     14842-3.89596E-07-1.77775E-07 8.46746E-07-1.99282E-11-3.47867E-13-2.15807E-08
 -1     14843-4.09249E-07-1.77776E-07 8.66382E-07 3.44138E-12-6.02990E-14 2.22667E-08
 -1     14845-4.09249E-07-1.77776E-07 8.66382E-07 3.44138E-12 6.02990E-14-2.22667E-08
 -1     14846-3.75262E-07-1.77776E-07 8.32392E-07 1.50072E-11-2.62196E-13 2.10800E-08
 -1     14848-3.75262E-07-1.77776E-07 8.32392E-07 1.50072E-11 2.62196E-13-2.10800E-08
 -1     14849-3.61846E-07-1.77777E-07 8.18997E-07-2.11224E-11 3.68434E-13 2.06120E-08
 -1     14851-3.61846E-07-1.77777E-07 8.18997E-07-2.11224E-11-3.68434E-13-2.06120E-08
 -1     14852-3.80187E-07-1.77781E-07 8.37325E-07 3.49908E-12-6.06227E-14 2.12522E-08
 -1     14854-3.80187E-07-1.77781E-07 8.37325E-07 3.49908E-12 6.06227E-14-2.12522E-08
 -1     14855-3.46765E-07-1.77775E-07 8.03896E-07 1.39735E-11-2.45509E-13 2.00852E-08
 -1     14857-3.46765E-07-1.77775E-07 8.03896E-07 1.39735E-11 2.45509E-13-2.00852E-08
 -1     14858-3.35714E-07-1.77778E-07 7.92882E-07 3.49438E-12-6.09870E-14 1.96999E-08
 -1     14860-3.35714E-07-1.77778E-07 7.92882E-07 3.49438E-12 6.09870E-14-1.96999E-08
 -1     14861-3.50770E-07-1.77776E-07 8.07902E-07 1.47514E-12-2.54548E-14 2.02252E-08
 -1     14863-3.50770E-07-1.77776E-07 8.07902E-07 1.47514E-12 2.54548E-14-2.02252E-08
 -1     14864-3.12074E-07-1.77776E-07 7.69188E-07-1.58395E-12 2.79255E-14 1.88739E-08
 -1     14866-3.12074E-07-1.77776E-07 7.69188E-07-1.58395E-12-2.79255E-14-1.88739E-08
 -1     14867-3.11310E-07-1.77777E-07 7.68431E-07-2.19916E-12 3.84211E-14 1.88473E-08
 -1     14869-3.11310E-07-1.77777E-07 7.68431E-07-2.19916E-12-3.84211E-14-1.88473E-08
 -1     14870-3.24537E-07-1.77777E-07 7.81716E-07 4.29543E-12-7.49764E-14 1.93099E-08
 -1     14872-3.24537E-07-1.77777E-07 7.81716E-07 4.29543E-12 7.49764E-14-1.93099E-08
 -1     14873-6.26274E-07-1.77776E-07 1.08341E-06 3.69287E-11-6.44714E-13 2.98433E-08
 -1     14875-6.26274E-07-1.77776E-07 1.08341E-06 3.69287E-11 6.44714E-13-2.98433E-08
 -1     14876-6.51237E-07-1.77776E-07 1.10838E-06-3.91682E-11 6.83788E-13 3.07148E-08
 -1     14878-6.51237E-07-1.77776E-07 1.10838E-06-3.91682E-11-6.83788E-13-3.07148E-08
 -1     14879-6.14545E-07-1.77776E-07 1.07168E-06 1.78874E-13-3.11545E-15 2.94342E-08
 -1     14881-6.14545E-07-1.77776E-07 1.07168E-06 1.78874E-13 3.11545E-15-2.94342E-08
 -1     14882-2.58626E-06-1.77775E-07 3.04300E-06 3.29327E-11-5.76622E-13 9.82687E-08
 -1     14884-2.58626E-06-1.77775E-07 3.04300E-06 3.29327E-11 5.76622E-13-9.82687E-08
 -1     14885-2.57447E-06-1.77772E-07 3.03111E-06 1.00083E-10-1.74380E-12 9.78545E-08
 -1     14887-2.57447E-06-1.77772E-07 3.03111E-06 1.00083E-10 1.74380E-12-9.78545E-08
 -1     14888-2.46402E-06-1.77768E-07 2.92197E-06-4.68495E-11 8.18102E-13 9.40176E-08
 -1     14890-2.46402E-06-1.77768E-07 2.92197E-06-4.68495E-11-8.18102E-13-9.40176E-08
 -1     14891-3.09442E-07-1.77776E-07 7.66560E-07-1.05471E-12 1.84932E-14 1.87820E-08
 -1     14893-3.09442E-07-1.77776E-07 7.66560E-07-1.05471E-12-1.84932E-14-1.87820E-08
 -1     14894-3.09121E-07-1.77776E-07 7.66242E-07-7.89353E-13 1.37863E-14 1.87709E-08
 -1     14896-3.09121E-07-1.77776E-07 7.66242E-07-7.89353E-13-1.37863E-14-1.87709E-08
 -1     14897-3.20713E-07-1.77776E-07 7.77891E-07 2.47945E-12-4.32895E-14 1.91764E-08
 -1     14899-3.20713E-07-1.77776E-07 7.77891E-07 2.47945E-12 4.32895E-14-1.91764E-08
 -1     14900-1.10681E-06-1.77775E-07 1.56395E-06 9.08789E-11-1.58661E-12 4.66198E-08
 -1     14902-1.10681E-06-1.77775E-07 1.56395E-06 9.08789E-11 1.58661E-12-4.66198E-08
 -1     14903-1.15582E-06-1.77776E-07 1.61296E-06-9.70530E-11 1.69437E-12 4.83308E-08
 -1     14905-1.15582E-06-1.77776E-07 1.61296E-06-9.70530E-11-1.69437E-12-4.83308E-08
 -1     14906-3.19325E-07-1.77776E-07 7.76456E-07-7.58899E-12 1.32135E-13 1.91276E-08
 -1     14908-3.19325E-07-1.77776E-07 7.76456E-07-7.58899E-12-1.32135E-13-1.91276E-08
 -1     14909-3.30913E-07-1.77779E-07 7.88084E-07 1.90806E-11-3.32555E-13 1.95325E-08
 -1     14911-3.30913E-07-1.77779E-07 7.88084E-07 1.90806E-11 3.32555E-13-1.95325E-08
 -1     14912-2.71557E-06-1.77776E-07 3.17379E-06 1.32759E-12-2.31742E-14 1.02805E-07
 -1     14914-2.71557E-06-1.77776E-07 3.17379E-06 1.32759E-12 2.31742E-14-1.02805E-07
 -1     14915-2.59106E-06-1.77785E-07 3.04770E-06 1.58268E-12-2.97441E-14 9.84345E-08
 -1     14917-2.59106E-06-1.77785E-07 3.04770E-06 1.58268E-12 2.97441E-14-9.84345E-08
 -1     14918-2.59257E-06-1.77785E-07 3.04923E-06 1.57293E-12-2.58395E-14 9.84875E-08
 -1     14920-2.59257E-06-1.77785E-07 3.04923E-06 1.57293E-12 2.58395E-14-9.84875E-08
 -1     14921-3.40498E-07-1.77778E-07 7.97639E-07-1.95377E-11 3.41968E-13 1.98667E-08
 -1     14923-3.40498E-07-1.77778E-07 7.97639E-07-1.95377E-11-3.41968E-13-1.98667E-08
 -1     14924-3.25095E-07-1.77772E-07 7.82211E-07-1.24854E-11 2.15776E-13 1.93285E-08
 -1     14926-3.25095E-07-1.77772E-07 7.82211E-07-1.24854E-11-2.15776E-13-1.93285E-08
 -1     14927-3.22128E-07-1.77776E-07 7.79306E-07 3.21056E-12-5.60540E-14 1.92258E-08
 -1     14929-3.22128E-07-1.77776E-07 7.79306E-07 3.21056E-12 5.60540E-14-1.92258E-08
 -1     14930-7.93986E-07-1.77776E-07 1.25112E-06 5.28982E-11-9.23502E-13 3.56984E-08
 -1     14932-7.93986E-07-1.77776E-07 1.25112E-06 5.28982E-11 9.23502E-13-3.56984E-08
 -1     14933-8.26716E-07-1.77776E-07 1.28385E-06-5.63361E-11 9.83528E-13 3.68411E-08
 -1     14935-8.26716E-07-1.77776E-07 1.28385E-06-5.63361E-11-9.83528E-13-3.68411E-08
 -1     14936-3.89991E-07-1.77775E-07 8.47122E-07 2.38173E-11-4.15721E-13 2.15943E-08
 -1     14938-3.89991E-07-1.77775E-07 8.47122E-07 2.38173E-11 4.15721E-13-2.15943E-08
 -1     14939-4.06501E-07-1.77776E-07 8.63645E-07-2.47511E-11 4.32085E-13 2.21709E-08
 -1     14941-4.06501E-07-1.77776E-07 8.63645E-07-2.47511E-11-4.32085E-13-2.21709E-08
 -1     14942-1.94509E-06-1.77790E-07 2.40212E-06 2.19117E-10-3.82220E-12 7.58853E-08
 -1     14944-1.94509E-06-1.77790E-07 2.40212E-06 2.19117E-10 3.82220E-12-7.58853E-08
 -1     14945-2.03935E-06-1.77812E-07 2.49680E-06-2.22467E-10 3.88544E-12 7.91826E-08
 -1     14947-2.03935E-06-1.77812E-07 2.49680E-06-2.22467E-10-3.88544E-12-7.91826E-08
 -1     14948-1.38253E-06-1.77777E-07 1.83967E-06 1.33927E-10-2.33806E-12 5.62458E-08
 -1     14950-1.38253E-06-1.77777E-07 1.83967E-06 1.33927E-10 2.33806E-12-5.62458E-08
 -1     14951-1.44773E-06-1.77776E-07 1.90487E-06-1.45001E-10 2.53147E-12 5.85223E-08
 -1     14953-1.44773E-06-1.77776E-07 1.90487E-06-1.45001E-10-2.53147E-12-5.85223E-08
 -1     14954-1.35209E-06-1.77777E-07 1.80923E-06-4.56200E-13 7.92431E-15 5.51844E-08
 -1     14956-1.35209E-06-1.77777E-07 1.80923E-06-4.56200E-13-7.92431E-15-5.51844E-08
 -1     14957-8.79309E-07-1.77776E-07 1.33645E-06-1.14864E-13 2.01950E-15 3.86778E-08
 -1     14959-8.79309E-07-1.77776E-07 1.33645E-06-1.14864E-13-2.01950E-15-3.86778E-08
 -1     14960-2.55639E-06-1.77763E-07 3.01322E-06 7.24495E-11-1.26569E-12 9.72280E-08
 -1     14962-2.55639E-06-1.77763E-07 3.01322E-06 7.24495E-11 1.26569E-12-9.72280E-08
 -1     14963-2.53313E-06-1.77780E-07 2.98980E-06 2.08029E-10-3.62754E-12 9.64117E-08
 -1     14965-2.53313E-06-1.77780E-07 2.98980E-06 2.08029E-10 3.62754E-12-9.64117E-08
 -1     14966-2.39465E-06-1.77787E-07 2.85240E-06-3.18786E-10 5.56589E-12 9.15926E-08
 -1     14968-2.39465E-06-1.77787E-07 2.85240E-06-3.18786E-10-5.56589E-12-9.15926E-08
 -1     14969-2.44061E-06-1.77782E-07 2.89849E-06-1.87932E-10 3.28139E-12 9.31990E-08
 -1     14971-2.44061E-06-1.77782E-07 2.89849E-06-1.87932E-10-3.28139E-12-9.31990E-08
 -1     14972-3.57811E-07-1.77774E-07 8.14943E-07 2.42852E-11-4.23584E-13 2.04709E-08
 -1     14974-3.57811E-07-1.77774E-07 8.14943E-07 2.42852E-11 4.23584E-13-2.04709E-08
 -1     14975-3.73446E-07-1.77775E-07 8.30590E-07-2.29531E-11 4.00841E-13 2.10169E-08
 -1     14977-3.73446E-07-1.77775E-07 8.30590E-07-2.29531E-11-4.00841E-13-2.10169E-08
 -1     14978-3.81719E-07-1.77777E-07 8.38857E-07 2.17475E-12-3.79638E-14 2.13059E-08
 -1     14980-3.81719E-07-1.77777E-07 8.38857E-07 2.17475E-12 3.79638E-14-2.13059E-08
 -1     14981-3.47859E-07-1.77778E-07 8.04995E-07 2.55893E-12-4.45831E-14 2.01239E-08
 -1     14983-3.47859E-07-1.77778E-07 8.04995E-07 2.55893E-12 4.45831E-14-2.01239E-08
 -1     14984-2.56779E-06-1.77791E-07 3.02449E-06-1.43444E-10 2.50035E-12 9.76219E-08
 -1     14986-2.56779E-06-1.77791E-07 3.02449E-06-1.43444E-10-2.50035E-12-9.76219E-08
 -1     14987-2.58467E-06-1.77777E-07 3.04136E-06 5.18504E-11-8.97731E-13 9.82124E-08
 -1     14989-2.58467E-06-1.77777E-07 3.04136E-06 5.18504E-11 8.97731E-13-9.82124E-08
 -1     14990-2.43312E-06-1.77764E-07 2.89083E-06 1.55664E-10-2.71949E-12 9.29341E-08
 -1     14992-2.43312E-06-1.77764E-07 2.89083E-06 1.55664E-10 2.71949E-12-9.29341E-08
 -1     14993-2.21824E-06-1.77739E-07 2.67541E-06 2.74410E-10-4.79539E-12 8.54228E-08
 -1     14995-2.21824E-06-1.77739E-07 2.67541E-06 2.74410E-10 4.79539E-12-8.54228E-08
 -1     14996-2.33605E-06-1.77797E-07 2.79295E-06-1.58863E-10 2.76385E-12 8.95319E-08
 -1     14998-2.33605E-06-1.77797E-07 2.79295E-06-1.58863E-10-2.76385E-12-8.95319E-08
 -1     14999-2.36000E-06-1.77769E-07 2.81682E-06 9.72658E-12-1.56369E-13 9.03679E-08
 -1     15001-2.36000E-06-1.77769E-07 2.81682E-06 9.72658E-12 1.56369E-13-9.03679E-08
 -1     15002-2.16797E-06-1.77760E-07 2.62501E-06-6.94080E-12 1.25158E-13 8.36674E-08
 -1     15004-2.16797E-06-1.77760E-07 2.62501E-06-6.94080E-12-1.25158E-13-8.36674E-08
 -1     15005-3.27827E-07-1.77777E-07 7.85004E-07-9.58992E-12 1.67323E-13 1.94248E-08
 -1     15007-3.27827E-07-1.77777E-07 7.85004E-07-9.58992E-12-1.67323E-13-1.94248E-08
 -1     15008-2.59154E-06-1.77772E-07 3.04819E-06-4.60997E-12 8.00293E-14 9.84519E-08
 -1     15010-2.59154E-06-1.77772E-07 3.04819E-06-4.60997E-12-8.00293E-14-9.84519E-08
 -1     15011-2.46428E-06-1.77784E-07 2.92233E-06 2.95752E-11-5.16317E-13 9.40289E-08
 -1     15013-2.46428E-06-1.77784E-07 2.92233E-06 2.95752E-11 5.16317E-13-9.40289E-08
 -1     15014-2.58981E-06-1.77775E-07 3.04644E-06-1.67611E-11 2.92493E-13 9.83910E-08
 -1     15016-2.58981E-06-1.77775E-07 3.04644E-06-1.67611E-11-2.92493E-13-9.83910E-08
 -1     15017-6.77256E-07-1.77776E-07 1.13439E-06 4.14292E-11-7.23284E-13 3.16232E-08
 -1     15019-6.77256E-07-1.77776E-07 1.13439E-06 4.14292E-11 7.23284E-13-3.16232E-08
 -1     15020-7.04497E-07-1.77776E-07 1.16164E-06-4.39733E-11 7.67682E-13 3.25742E-08
 -1     15022-7.04497E-07-1.77776E-07 1.16164E-06-4.39733E-11-7.67682E-13-3.25742E-08
 -1     15023-6.64417E-07-1.77776E-07 1.12156E-06 3.65168E-14-6.25023E-16 3.11753E-08
 -1     15025-6.64417E-07-1.77776E-07 1.12156E-06 3.65168E-14 6.25023E-16-3.11753E-08
 -1     15026-5.57476E-07-1.77776E-07 1.01462E-06-3.17049E-11 5.53474E-13 2.74415E-08
 -1     15028-5.57476E-07-1.77776E-07 1.01462E-06-3.17049E-11-5.53474E-13-2.74415E-08
 -1     15029-5.68718E-07-1.77776E-07 1.02586E-06 3.94885E-13-6.88964E-15 2.78342E-08
 -1     15031-5.68718E-07-1.77776E-07 1.02586E-06 3.94885E-13 6.88964E-15-2.78342E-08
 -1     15032-5.36278E-07-1.77776E-07 9.93415E-07 3.00015E-11-5.23779E-13 2.67014E-08
 -1     15034-5.36278E-07-1.77776E-07 9.93415E-07 3.00015E-11 5.23779E-13-2.67014E-08
 -1     15035-1.20751E-06-1.77776E-07 1.66465E-06 1.06629E-10-1.86160E-12 5.01355E-08
 -1     15037-1.20751E-06-1.77776E-07 1.66465E-06 1.06629E-10 1.86160E-12-5.01355E-08
 -1     15038-1.26237E-06-1.77776E-07 1.71950E-06-1.14083E-10 1.99169E-12 5.20506E-08
 -1     15040-1.26237E-06-1.77776E-07 1.71950E-06-1.14083E-10-1.99169E-12-5.20506E-08
 -1     15041-1.18183E-06-1.77776E-07 1.63897E-06-3.42223E-13 5.97101E-15 4.92400E-08
 -1     15043-1.18183E-06-1.77776E-07 1.63897E-06-3.42223E-13-5.97101E-15-4.92400E-08
 -1     15044-7.32958E-07-1.77776E-07 1.19010E-06 4.67226E-11-8.15694E-13 3.35678E-08
 -1     15046-7.32958E-07-1.77776E-07 1.19010E-06 4.67226E-11 8.15694E-13-3.35678E-08
 -1     15047-7.62775E-07-1.77776E-07 1.21991E-06-4.96633E-11 8.67024E-13 3.46088E-08
 -1     15049-7.62775E-07-1.77776E-07 1.21991E-06-4.96633E-11-8.67024E-13-3.46088E-08
 -1     15050-7.78531E-07-1.77776E-07 1.23567E-06-1.06947E-13 1.89407E-15 3.51594E-08
 -1     15052-7.78531E-07-1.77776E-07 1.23567E-06-1.06947E-13-1.89407E-15-3.51594E-08
 -1     15053-7.18879E-07-1.77776E-07 1.17602E-06-3.96008E-14 7.08554E-16 3.30768E-08
 -1     15055-7.18879E-07-1.77776E-07 1.17602E-06-3.96008E-14-7.08554E-16-3.30768E-08
 -1     15056-3.08778E-07-1.77776E-07 7.65897E-07-5.78748E-13 1.01771E-14 1.87589E-08
 -1     15058-3.08778E-07-1.77776E-07 7.65897E-07-5.78748E-13-1.01771E-14-1.87589E-08
 -1     15059-3.08647E-07-1.77776E-07 7.65768E-07-4.27695E-13 7.47023E-15 1.87543E-08
 -1     15061-3.08647E-07-1.77776E-07 7.65768E-07-4.27695E-13-7.47023E-15-1.87543E-08
 -1     15062-3.19805E-07-1.77776E-07 7.76981E-07 1.79255E-12-3.12942E-14 1.91447E-08
 -1     15064-3.19805E-07-1.77776E-07 7.76981E-07 1.79255E-12 3.12942E-14-1.91447E-08
 -1     15065-1.59041E-06-1.77776E-07 2.04756E-06-1.68247E-10 2.93737E-12 6.35038E-08
 -1     15067-1.59041E-06-1.77776E-07 2.04756E-06-1.68247E-10-2.93737E-12-6.35038E-08
 -1     15068-1.63111E-06-1.77775E-07 2.08825E-06 3.88567E-12-6.77664E-14 6.49264E-08
 -1     15070-1.63111E-06-1.77775E-07 2.08825E-06 3.88567E-12 6.77664E-14-6.49264E-08
 -1     15071-1.51729E-06-1.77777E-07 1.97443E-06 1.54434E-10-2.69591E-12 6.09508E-08
 -1     15073-1.51729E-06-1.77777E-07 1.97443E-06 1.54434E-10 2.69591E-12-6.09508E-08
 -1     15074-2.57829E-06-1.77728E-07 3.03491E-06-3.53135E-11 6.18402E-13 9.79895E-08
 -1     15076-2.57829E-06-1.77728E-07 3.03491E-06-3.53135E-11-6.18402E-13-9.79895E-08
 -1     15077-2.57742E-06-1.77768E-07 3.03404E-06 6.00482E-11-1.04978E-12 9.79590E-08
 -1     15079-2.57742E-06-1.77768E-07 3.03404E-06 6.00482E-11 1.04978E-12-9.79590E-08
 -1     15080-2.45061E-06-1.77784E-07 2.90867E-06-1.09935E-10 1.91909E-12 9.35519E-08
 -1     15082-2.45061E-06-1.77784E-07 2.90867E-06-1.09935E-10-1.91909E-12-9.35519E-08
 -1     15083-2.58118E-06-1.77776E-07 3.03779E-06-5.35288E-11 9.33693E-13 9.80898E-08
 -1     15085-2.58118E-06-1.77776E-07 3.03779E-06-5.35288E-11-9.33693E-13-9.80898E-08
 -1     15086-2.58353E-06-1.77761E-07 3.04021E-06-4.75657E-11 8.28343E-13 9.81728E-08
 -1     15088-2.58353E-06-1.77761E-07 3.04021E-06-4.75657E-11-8.28343E-13-9.81728E-08
 -1     15089-2.45932E-06-1.77672E-07 2.91727E-06 7.11617E-11-1.24259E-12 9.38534E-08
 -1     15091-2.45932E-06-1.77672E-07 2.91727E-06 7.11617E-11 1.24259E-12-9.38534E-08
 -1     15092-2.44755E-06-1.77903E-07 2.90575E-06 7.67442E-11-1.33937E-12 9.34487E-08
 -1     15094-2.44755E-06-1.77903E-07 2.90575E-06 7.67442E-11 1.33937E-12-9.34487E-08
 -1     15095-9.34904E-07-1.77776E-07 1.39204E-06 6.83080E-11-1.19252E-12 4.06181E-08
 -1     15097-9.34904E-07-1.77776E-07 1.39204E-06 6.83080E-11 1.19252E-12-4.06181E-08
 -1     15098-9.74654E-07-1.77776E-07 1.43179E-06-7.32760E-11 1.27926E-12 4.20059E-08
 -1     15100-9.74654E-07-1.77776E-07 1.43179E-06-7.32760E-11-1.27926E-12-4.20059E-08
 -1     15101-1.84498E-06-1.77784E-07 2.30221E-06-2.34971E-10 4.10329E-12 7.23931E-08
 -1     15103-1.84498E-06-1.77784E-07 2.30221E-06-2.34971E-10-4.10329E-12-7.23931E-08
 -1     15104-1.90411E-06-1.77761E-07 2.36122E-06 1.95877E-11-3.41477E-13 7.44584E-08
 -1     15106-1.90411E-06-1.77761E-07 2.36122E-06 1.95877E-11 3.41477E-13-7.44584E-08
 -1     15107-1.75754E-06-1.77786E-07 2.21465E-06 1.97909E-10-3.45386E-12 6.93383E-08
 -1     15109-1.75754E-06-1.77786E-07 2.21465E-06 1.97909E-10 3.45386E-12-6.93383E-08
 -1     15110-2.58794E-06-1.77774E-07 3.04459E-06-2.34981E-12 4.07162E-14 9.83261E-08
 -1     15112-2.58794E-06-1.77774E-07 3.04459E-06-2.34981E-12-4.07162E-14-9.83261E-08
 -1     15113-2.45977E-06-1.77779E-07 2.91782E-06 1.99639E-11-3.48522E-13 9.38714E-08
 -1     15115-2.45977E-06-1.77779E-07 2.91782E-06 1.99639E-11 3.48522E-13-9.38714E-08
 -1     15116-2.58683E-06-1.77776E-07 3.04347E-06-9.12346E-12 1.59473E-13 9.82873E-08
 -1     15118-2.58683E-06-1.77776E-07 3.04347E-06-9.12346E-12-1.59473E-13-9.82873E-08
 -1     15119-3.19312E-07-1.77776E-07 7.76487E-07 8.51655E-13-1.48668E-14 1.91274E-08
 -1     15121-3.19312E-07-1.77776E-07 7.76487E-07 8.51655E-13 1.48668E-14-1.91274E-08
 -1     15122-3.44365E-07-1.77779E-07 8.01495E-07-1.73164E-11 3.02905E-13 2.00014E-08
 -1     15124-3.44365E-07-1.77779E-07 8.01495E-07-1.73164E-11-3.02905E-13-2.00014E-08
 -1     15125-3.39483E-07-1.77774E-07 7.96611E-07-3.72747E-13 6.05097E-15 1.98311E-08
 -1     15127-3.39483E-07-1.77774E-07 7.96611E-07-3.72747E-13-6.05097E-15-1.98311E-08
 -1     15128-3.31318E-07-1.77776E-07 7.88440E-07 1.84238E-12-3.20627E-14 1.95458E-08
 -1     15130-3.31318E-07-1.77776E-07 7.88440E-07 1.84238E-12 3.20627E-14-1.95458E-08
 -1     15131-3.32257E-07-1.77776E-07 7.89373E-07 2.62392E-12-4.60665E-14 1.95785E-08
 -1     15133-3.32257E-07-1.77776E-07 7.89373E-07 2.62392E-12 4.60665E-14-1.95785E-08
 -1     15134-9.95782E-07-1.77776E-07 1.45292E-06-2.05124E-13 3.61175E-15 4.27443E-08
 -1     15136-9.95782E-07-1.77776E-07 1.45292E-06-2.05124E-13-3.61175E-15-4.27443E-08
 -1     15137-1.01644E-06-1.77776E-07 1.47358E-06 7.82988E-11-1.36696E-12 4.34648E-08
 -1     15139-1.01644E-06-1.77776E-07 1.47358E-06 7.82988E-11 1.36696E-12-4.34648E-08
 -1     15140-2.58947E-06-1.77771E-07 3.04612E-06 5.63970E-12-9.76754E-14 9.83794E-08
 -1     15142-2.58947E-06-1.77771E-07 3.04612E-06 5.63970E-12 9.76754E-14-9.83794E-08
 -1     15143-2.58849E-06-1.77776E-07 3.04514E-06 1.57088E-11-2.74081E-13 9.83453E-08
 -1     15145-2.58849E-06-1.77776E-07 3.04514E-06 1.57088E-11 2.74081E-13-9.83453E-08
 -1     15146-2.46332E-06-1.77797E-07 2.92135E-06-3.83540E-11 6.69530E-13 9.39949E-08
 -1     15148-2.46332E-06-1.77797E-07 2.92135E-06-3.83540E-11-6.69530E-13-9.39949E-08
 -1     15149-3.38928E-07-1.77775E-07 7.96055E-07 3.59172E-12-6.29199E-14 1.98117E-08
 -1     15151-3.38928E-07-1.77775E-07 7.96055E-07 3.59172E-12 6.29199E-14-1.98117E-08
 -1     15152-3.41810E-07-1.77775E-07 7.98927E-07 1.75016E-11-3.06689E-13 1.99121E-08
 -1     15154-3.41810E-07-1.77775E-07 7.98927E-07 1.75016E-11 3.06689E-13-1.99121E-08
 -1     15155-2.34967E-06-1.77773E-07 2.80638E-06-2.36057E-11 4.11918E-13 9.00076E-08
 -1     15157-2.34967E-06-1.77773E-07 2.80638E-06-2.36057E-11-4.11918E-13-9.00076E-08
 -1     15158-2.35228E-06-1.77769E-07 2.80902E-06-1.16111E-11 2.01812E-13 9.00994E-08
 -1     15160-2.35228E-06-1.77769E-07 2.80902E-06-1.16111E-11-2.01812E-13-9.00994E-08
 -1     15161-4.23571E-07-1.77776E-07 8.80703E-07 2.48360E-11-4.33564E-13 2.27666E-08
 -1     15163-4.23571E-07-1.77776E-07 8.80703E-07 2.48360E-11 4.33564E-13-2.27666E-08
 -1     15164-4.40978E-07-1.77776E-07 8.98121E-07-2.60413E-11 4.54568E-13 2.33745E-08
 -1     15166-4.40978E-07-1.77776E-07 8.98121E-07-2.60413E-11-4.54568E-13-2.33745E-08
 -1     15167-4.15318E-07-1.77777E-07 8.72455E-07 1.43933E-12-2.51573E-14 2.24788E-08
 -1     15169-4.15318E-07-1.77777E-07 8.72455E-07 1.43933E-12 2.51573E-14-2.24788E-08
 -1     15170-3.34548E-07-1.77775E-07 7.91661E-07-3.33751E-12 5.83709E-14 1.96585E-08
 -1     15172-3.34548E-07-1.77775E-07 7.91661E-07-3.33751E-12-5.83709E-14-1.96585E-08
 -1     15173-3.33677E-07-1.77776E-07 7.90797E-07-1.44907E-12 2.52925E-14 1.96282E-08
 -1     15175-3.33677E-07-1.77776E-07 7.90797E-07-1.44907E-12-2.52925E-14-1.96282E-08
 -1     15176-2.35689E-06-1.77772E-07 2.81361E-06-3.03753E-11 5.28841E-13 9.02594E-08
 -1     15178-2.35689E-06-1.77772E-07 2.81361E-06-3.03753E-11-5.28841E-13-9.02594E-08
 -1     15179-2.35825E-06-1.77767E-07 2.81500E-06-4.23127E-12 7.24929E-14 9.03074E-08
 -1     15181-2.35825E-06-1.77767E-07 2.81500E-06-4.23127E-12-7.24929E-14-9.03074E-08
 -1     15182-2.24209E-06-1.77788E-07 2.70001E-06 4.69994E-11-8.20512E-13 8.62690E-08
 -1     15184-2.24209E-06-1.77788E-07 2.70001E-06 4.69994E-11 8.20512E-13-8.62690E-08
 -1     15185-9.74679E-07-1.77776E-07 1.43182E-06 7.24758E-11-1.26527E-12 4.20067E-08
 -1     15187-9.74679E-07-1.77776E-07 1.43182E-06 7.24758E-11 1.26527E-12-4.20067E-08
 -1     15188-1.01646E-06-1.77776E-07 1.47360E-06-7.81842E-11 1.36494E-12 4.34656E-08
 -1     15190-1.01646E-06-1.77776E-07 1.47360E-06-7.81842E-11-1.36494E-12-4.34656E-08
 -1     15191-3.31591E-07-1.77776E-07 7.88707E-07-1.52896E-12 2.68060E-14 1.95553E-08
 -1     15193-3.31591E-07-1.77776E-07 7.88707E-07-1.52896E-12-2.68060E-14-1.95553E-08
 -1     15194-3.31237E-07-1.77776E-07 7.88356E-07-1.08243E-12 1.89636E-14 1.95430E-08
 -1     15196-3.31237E-07-1.77776E-07 7.88356E-07-1.08243E-12-1.89636E-14-1.95430E-08
 -1     15197-3.30682E-07-1.77776E-07 7.87800E-07-7.86192E-13 1.38674E-14 1.95236E-08
 -1     15199-3.30682E-07-1.77776E-07 7.87800E-07-7.86192E-13-1.38674E-14-1.95236E-08
 -1     15200-3.30533E-07-1.77776E-07 7.87652E-07-4.93833E-13 8.61337E-15 1.95184E-08
 -1     15202-3.30533E-07-1.77776E-07 7.87652E-07-4.93833E-13-8.61337E-15-1.95184E-08
 -1     15203-3.42461E-07-1.77776E-07 7.99641E-07 2.94931E-12-5.14887E-14 1.99357E-08
 -1     15205-3.42461E-07-1.77776E-07 7.99641E-07 2.94931E-12 5.14887E-14-1.99357E-08
 -1     15206-1.06048E-06-1.77776E-07 1.51762E-06-8.39207E-11 1.46509E-12 4.50023E-08
 -1     15208-1.06048E-06-1.77776E-07 1.51762E-06-8.39207E-11-1.46509E-12-4.50023E-08
 -1     15209-2.58725E-06-1.77775E-07 3.04390E-06-1.00183E-12 1.77517E-14 9.83020E-08
 -1     15211-2.58725E-06-1.77775E-07 3.04390E-06-1.00183E-12-1.77517E-14-9.83020E-08
 -1     15212-2.58673E-06-1.77775E-07 3.04337E-06 7.20336E-12-1.25760E-13 9.82836E-08
 -1     15214-2.58673E-06-1.77775E-07 3.04337E-06 7.20336E-12 1.25760E-13-9.82836E-08
 -1     15215-2.45910E-06-1.77777E-07 2.91715E-06-1.15507E-11 2.01655E-13 9.38480E-08
 -1     15217-2.45910E-06-1.77777E-07 2.91715E-06-1.15507E-11-2.01655E-13-9.38480E-08
 -1     15218-2.27598E-06-1.77781E-07 2.73277E-06 2.30821E-10-4.02681E-12 8.74349E-08
 -1     15220-2.27598E-06-1.77781E-07 2.73277E-06 2.30821E-10 4.02681E-12-8.74349E-08
 -1     15221-2.15607E-06-1.77781E-07 2.61361E-06-3.14198E-10 5.48581E-12 8.32594E-08
 -1     15223-2.15607E-06-1.77781E-07 2.61361E-06-3.14198E-10-5.48581E-12-8.32594E-08
 -1     15224-2.30373E-06-1.77770E-07 2.76069E-06 8.92975E-11-1.55822E-12 8.84082E-08
 -1     15226-2.30373E-06-1.77770E-07 2.76069E-06 8.92975E-11 1.55822E-12-8.84082E-08
 -1     15227-8.61056E-07-1.77776E-07 1.31819E-06 6.00675E-11-1.04866E-12 3.80400E-08
 -1     15229-8.61056E-07-1.77776E-07 1.31819E-06 6.00675E-11 1.04866E-12-3.80400E-08
 -1     15230-8.97075E-07-1.77776E-07 1.35421E-06-6.42041E-11 1.12088E-12 3.92974E-08
 -1     15232-8.97075E-07-1.77776E-07 1.35421E-06-6.42041E-11-1.12088E-12-3.92974E-08
 -1     15233-9.16199E-07-1.77776E-07 1.37334E-06-1.85969E-13 3.27253E-15 3.99658E-08
 -1     15235-9.16199E-07-1.77776E-07 1.37334E-06-1.85969E-13-3.27253E-15-3.99658E-08
 -1     15236-8.44058E-07-1.77776E-07 1.30120E-06-1.53194E-13 2.69461E-15 3.74471E-08
 -1     15238-8.44058E-07-1.77776E-07 1.30120E-06-1.53194E-13-2.69461E-15-3.74471E-08
 -1     15239-2.05112E-06-1.77781E-07 2.50802E-06 2.18588E-10-3.81452E-12 7.95856E-08
 -1     15241-2.05112E-06-1.77781E-07 2.50802E-06 2.18588E-10 3.81452E-12-7.95856E-08
 -1     15242-1.94706E-06-1.77772E-07 2.40445E-06-2.83001E-10 4.94118E-12 7.59595E-08
 -1     15244-1.94706E-06-1.77772E-07 2.40445E-06-2.83001E-10-4.94118E-12-7.59595E-08
 -1     15245-2.07985E-06-1.77768E-07 2.53688E-06 8.00907E-11-1.39761E-12 8.05926E-08
 -1     15247-2.07985E-06-1.77768E-07 2.53688E-06 8.00907E-11 1.39761E-12-8.05926E-08
 -1     15248-1.85469E-06-1.77781E-07 2.31167E-06 2.00169E-10-3.49373E-12 7.27286E-08
 -1     15250-1.85469E-06-1.77781E-07 2.31167E-06 2.00169E-10 3.49373E-12-7.27286E-08
 -1     15251-1.76396E-06-1.77779E-07 2.22127E-06-2.41730E-10 4.22039E-12 6.95655E-08
 -1     15253-1.76396E-06-1.77779E-07 2.22127E-06-2.41730E-10-4.22039E-12-6.95655E-08
 -1     15254-1.88252E-06-1.77771E-07 2.33961E-06 5.41000E-11-9.43335E-13 7.37036E-08
 -1     15256-1.88252E-06-1.77771E-07 2.33961E-06 5.41000E-11 9.43335E-13-7.37036E-08
 -1     15257-1.68150E-06-1.77778E-07 2.13852E-06 1.68529E-10-2.94220E-12 6.66823E-08
 -1     15259-1.68150E-06-1.77778E-07 2.13852E-06 1.68529E-10 2.94220E-12-6.66823E-08
 -1     15260-1.60199E-06-1.77776E-07 2.05926E-06-1.98351E-10 3.46316E-12 6.39098E-08
 -1     15262-1.60199E-06-1.77776E-07 2.05926E-06-1.98351E-10-3.46316E-12-6.39098E-08
 -1     15263-1.70777E-06-1.77778E-07 2.16488E-06 5.40681E-11-9.43178E-13 6.76025E-08
 -1     15265-1.70777E-06-1.77778E-07 2.16488E-06 5.40681E-11 9.43178E-13-6.76025E-08
 -1     15266-1.53018E-06-1.77778E-07 1.98724E-06 1.41205E-10-2.46509E-12 6.13999E-08
 -1     15268-1.53018E-06-1.77778E-07 1.98724E-06 1.41205E-10 2.46509E-12-6.13999E-08
 -1     15269-1.46030E-06-1.77781E-07 1.91756E-06-1.60756E-10 2.80639E-12 5.89629E-08
 -1     15271-1.46030E-06-1.77781E-07 1.91756E-06-1.60756E-10-2.80639E-12-5.89629E-08
 -1     15272-1.55372E-06-1.77764E-07 2.01083E-06 3.22134E-11-5.62292E-13 6.22238E-08
 -1     15274-1.55372E-06-1.77764E-07 2.01083E-06 3.22134E-11 5.62292E-13-6.22238E-08
 -1     15275-1.39546E-06-1.77776E-07 1.85252E-06 1.20392E-10-2.10184E-12 5.66964E-08
 -1     15277-1.39546E-06-1.77776E-07 1.85252E-06 1.20392E-10 2.10184E-12-5.66964E-08
 -1     15278-1.33303E-06-1.77779E-07 1.79027E-06-1.40538E-10 2.45339E-12 5.45194E-08
 -1     15280-1.33303E-06-1.77779E-07 1.79027E-06-1.40538E-10-2.45339E-12-5.45194E-08
 -1     15281-1.41716E-06-1.77774E-07 1.87428E-06 2.85033E-11-4.97421E-13 5.74561E-08
 -1     15283-1.41716E-06-1.77774E-07 1.87428E-06 2.85033E-11 4.97421E-13-5.74561E-08
 -1     15284-1.27471E-06-1.77775E-07 1.73177E-06 1.03787E-10-1.81200E-12 5.24805E-08
 -1     15286-1.27471E-06-1.77775E-07 1.73177E-06 1.03787E-10 1.81200E-12-5.24805E-08
 -1     15287-1.21874E-06-1.77777E-07 1.67598E-06-1.22102E-10 2.13161E-12 5.05292E-08
 -1     15289-1.21874E-06-1.77777E-07 1.67598E-06-1.22102E-10-2.13161E-12-5.05292E-08
 -1     15290-1.29408E-06-1.77775E-07 1.75120E-06 2.79623E-11-4.88015E-13 5.31588E-08
 -1     15292-1.29408E-06-1.77775E-07 1.75120E-06 2.79623E-11 4.88015E-13-5.31588E-08
 -1     15293-1.16653E-06-1.77776E-07 1.62360E-06 8.89202E-11-1.55246E-12 4.87039E-08
 -1     15295-1.16653E-06-1.77776E-07 1.62360E-06 8.89202E-11 1.55246E-12-4.87039E-08
 -1     15296-1.11635E-06-1.77777E-07 1.57358E-06-1.05236E-10 1.83721E-12 4.69544E-08
 -1     15298-1.11635E-06-1.77777E-07 1.57358E-06-1.05236E-10-1.83721E-12-4.69544E-08
 -1     15299-1.18362E-06-1.77775E-07 1.64074E-06 2.51319E-11-4.38641E-13 4.93021E-08
 -1     15301-1.18362E-06-1.77775E-07 1.64074E-06 2.51319E-11 4.38641E-13-4.93021E-08
 -1     15302-1.06962E-06-1.77776E-07 1.52670E-06 7.58916E-11-1.32498E-12 4.53207E-08
 -1     15304-1.06962E-06-1.77776E-07 1.52670E-06 7.58916E-11 1.32498E-12-4.53207E-08
 -1     15305-1.02458E-06-1.77777E-07 1.48179E-06-9.03500E-11 1.57734E-12 4.37500E-08
 -1     15307-1.02458E-06-1.77777E-07 1.48179E-06-9.03500E-11-1.57734E-12-4.37500E-08
 -1     15308-1.08473E-06-1.77775E-07 1.54185E-06 2.16123E-11-3.77250E-13 4.58496E-08
 -1     15310-1.08473E-06-1.77775E-07 1.54185E-06 2.16123E-11 3.77250E-13-4.58496E-08
 -1     15311-9.82635E-07-1.77776E-07 1.43972E-06 6.52794E-11-1.13968E-12 4.22838E-08
 -1     15313-9.82635E-07-1.77776E-07 1.43972E-06 6.52794E-11 1.13968E-12-4.22838E-08
 -1     15314-9.42057E-07-1.77776E-07 1.39926E-06-7.80810E-11 1.36314E-12 4.08689E-08
 -1     15316-9.42057E-07-1.77776E-07 1.39926E-06-7.80810E-11-1.36314E-12-4.08689E-08
 -1     15317-9.96108E-07-1.77775E-07 1.45323E-06 1.83603E-11-3.20511E-13 4.27554E-08
 -1     15319-9.96108E-07-1.77775E-07 1.45323E-06 1.83603E-11 3.20511E-13-4.27554E-08
 -1     15320-9.04184E-07-1.77776E-07 1.36127E-06 5.72040E-11-9.98660E-13 3.95450E-08
 -1     15322-9.04184E-07-1.77776E-07 1.36127E-06 5.72040E-11 9.98660E-13-3.95450E-08
 -1     15323-8.67449E-07-1.77777E-07 1.32465E-06-6.85680E-11 1.19705E-12 3.82641E-08
 -1     15325-8.67449E-07-1.77777E-07 1.32465E-06-6.85680E-11-1.19705E-12-3.82641E-08
 -1     15326-9.16329E-07-1.77775E-07 1.37345E-06 1.61131E-11-2.81268E-13 3.99701E-08
 -1     15328-9.16329E-07-1.77775E-07 1.37345E-06 1.61131E-11 2.81268E-13-3.99701E-08
 -1     15329-8.33027E-07-1.77776E-07 1.29012E-06 5.05784E-11-8.82989E-13 3.70609E-08
 -1     15331-8.33027E-07-1.77776E-07 1.29012E-06 5.05784E-11 8.82989E-13-3.70609E-08
 -1     15332-7.99627E-07-1.77777E-07 1.25682E-06-6.09999E-11 1.06492E-12 3.58962E-08
 -1     15334-7.99627E-07-1.77777E-07 1.25682E-06-6.09999E-11-1.06492E-12-3.58962E-08
 -1     15335-8.44061E-07-1.77775E-07 1.30119E-06 1.44335E-11-2.51922E-13 3.74470E-08
 -1     15337-8.44061E-07-1.77775E-07 1.30119E-06 1.44335E-11 2.51922E-13-3.74470E-08
 -1     15338-7.68242E-07-1.77776E-07 1.22534E-06 4.46776E-11-7.79991E-13 3.47992E-08
 -1     15340-7.68242E-07-1.77776E-07 1.22534E-06 4.46776E-11 7.79991E-13-3.47992E-08
 -1     15341-7.37801E-07-1.77777E-07 1.19499E-06-5.42119E-11 9.46426E-13 3.37376E-08
 -1     15343-7.37801E-07-1.77777E-07 1.19499E-06-5.42119E-11-9.46426E-13-3.37376E-08
 -1     15344-7.78278E-07-1.77776E-07 1.23541E-06 1.28290E-11-2.23911E-13 3.51504E-08
 -1     15346-7.78278E-07-1.77776E-07 1.23541E-06 1.28290E-11 2.23911E-13-3.51504E-08
 -1     15347-7.09160E-07-1.77776E-07 1.16626E-06 3.93932E-11-6.87752E-13 3.27366E-08
 -1     15349-7.09160E-07-1.77776E-07 1.16626E-06 3.93932E-11 6.87752E-13-3.27366E-08
 -1     15350-6.81377E-07-1.77777E-07 1.13856E-06-4.78686E-11 8.35686E-13 3.17677E-08
 -1     15352-6.81377E-07-1.77777E-07 1.13856E-06-4.78686E-11-8.35686E-13-3.17677E-08
 -1     15353-7.18274E-07-1.77776E-07 1.17540E-06 1.13418E-11-1.97965E-13 3.30555E-08
 -1     15355-7.18274E-07-1.77776E-07 1.17540E-06 1.13418E-11 1.97965E-13-3.30555E-08
 -1     15356-6.55203E-07-1.77776E-07 1.11231E-06 3.46738E-11-6.05369E-13 3.08529E-08
 -1     15358-6.55203E-07-1.77776E-07 1.11231E-06 3.46738E-11 6.05369E-13-3.08529E-08
 -1     15359-6.29805E-07-1.77776E-07 1.08698E-06-4.21394E-11 7.35664E-13 2.99672E-08
 -1     15361-6.29805E-07-1.77776E-07 1.08698E-06-4.21394E-11-7.35664E-13-2.99672E-08
 -1     15362-6.63479E-07-1.77775E-07 1.12061E-06 1.00595E-11-1.75600E-13 3.11425E-08
 -1     15364-6.63479E-07-1.77775E-07 1.12061E-06 1.00595E-11 1.75600E-13-3.11425E-08
 -1     15365-6.05856E-07-1.77776E-07 1.06297E-06 3.04632E-11-5.31857E-13 2.91301E-08
 -1     15367-6.05856E-07-1.77776E-07 1.06297E-06 3.04632E-11 5.31857E-13-2.91301E-08
 -1     15368-5.82598E-07-1.77776E-07 1.03977E-06-3.70941E-11 6.47587E-13 2.83190E-08
 -1     15370-5.82598E-07-1.77776E-07 1.03977E-06-3.70941E-11-6.47587E-13-2.83190E-08
 -1     15371-6.13373E-07-1.77775E-07 1.07050E-06 8.95279E-12-1.56305E-13 2.93932E-08
 -1     15373-6.13373E-07-1.77775E-07 1.07050E-06 8.95279E-12 1.56305E-13-2.93932E-08
 -1     15374-5.60695E-07-1.77776E-07 1.01781E-06 2.68806E-11-4.69275E-13 2.75535E-08
 -1     15376-5.60695E-07-1.77776E-07 1.01781E-06 2.68806E-11 4.69275E-13-2.75535E-08
 -1     15377-5.39344E-07-1.77776E-07 9.96513E-07-3.29760E-11 5.75705E-13 2.68089E-08
 -1     15379-5.39344E-07-1.77776E-07 9.96513E-07-3.29760E-11-5.75705E-13-2.68089E-08
 -1     15380-5.67535E-07-1.77775E-07 1.02467E-06 7.93816E-12-1.38619E-13 2.77928E-08
 -1     15382-5.67535E-07-1.77775E-07 1.02467E-06 7.93816E-12 1.38619E-13-2.77928E-08
 -1     15383-5.19286E-07-1.77776E-07 9.76402E-07 2.44789E-11-4.27261E-13 2.61079E-08
 -1     15385-5.19286E-07-1.77776E-07 9.76402E-07 2.44789E-11 4.27261E-13-2.61079E-08
 -1     15386-4.99568E-07-1.77776E-07 9.56731E-07-3.07573E-11 5.36959E-13 2.54202E-08
 -1     15388-4.99568E-07-1.77776E-07 9.56731E-07-3.07573E-11-5.36959E-13-2.54202E-08
 -1     15389-5.25584E-07-1.77776E-07 9.82715E-07 7.07498E-12-1.23530E-13 2.63282E-08
 -1     15391-5.25584E-07-1.77776E-07 9.82715E-07 7.07498E-12 1.23530E-13-2.63282E-08
 -1     15392-4.80836E-07-1.77776E-07 9.37956E-07 2.32045E-11-4.05099E-13 2.47656E-08
 -1     15394-4.80836E-07-1.77776E-07 9.37956E-07 2.32045E-11 4.05099E-13-2.47656E-08
 -1     15395-4.62608E-07-1.77776E-07 9.19767E-07-2.88803E-11 5.04184E-13 2.41298E-08
 -1     15397-4.62608E-07-1.77776E-07 9.19767E-07-2.88803E-11-5.04184E-13-2.41298E-08
 -1     15398-4.86798E-07-1.77777E-07 9.43932E-07 6.72365E-12-1.17159E-13 2.49742E-08
 -1     15400-4.86798E-07-1.77777E-07 9.43932E-07 6.72365E-12 1.17159E-13-2.49742E-08
 -1     15401-4.45053E-07-1.77777E-07 9.02177E-07 2.02704E-11-3.54179E-13 2.35164E-08
 -1     15403-4.45053E-07-1.77777E-07 9.02177E-07 2.02704E-11 3.54179E-13-2.35164E-08
 -1     15404-4.28534E-07-1.77779E-07 8.85699E-07-2.20160E-11 3.84409E-13 2.29403E-08
 -1     15406-4.28534E-07-1.77779E-07 8.85699E-07-2.20160E-11-3.84409E-13-2.29403E-08
 -1     15407-4.50523E-07-1.77777E-07 9.07657E-07 6.58689E-12-1.14797E-13 2.37078E-08
 -1     15409-4.50523E-07-1.77777E-07 9.07657E-07 6.58689E-12 1.14797E-13-2.37078E-08
 -1     15410-4.13252E-07-1.77773E-07 8.70371E-07 1.32050E-11-2.30686E-13 2.24061E-08
 -1     15412-4.13252E-07-1.77773E-07 8.70371E-07 1.32050E-11 2.30686E-13-2.24061E-08
 -1     15413-3.98535E-07-1.77775E-07 8.55697E-07-8.88720E-12 1.55323E-13 2.18929E-08
 -1     15415-3.98535E-07-1.77775E-07 8.55697E-07-8.88720E-12-1.55323E-13-2.18929E-08
 -1     15416-4.17717E-07-1.77772E-07 8.74843E-07 3.23102E-12-5.70163E-14 2.25622E-08
 -1     15418-4.17717E-07-1.77772E-07 8.74843E-07 3.23102E-12 5.70163E-14-2.25622E-08
 -1     15419-3.59430E-07-1.77775E-07 8.16578E-07 1.57131E-11-2.73765E-13 2.05276E-08
 -1     15421-3.59430E-07-1.77775E-07 8.16578E-07 1.57131E-11 2.73765E-13-2.05276E-08
 -1     15422-3.37266E-07-1.77774E-07 7.94380E-07-8.63700E-12 1.51050E-13 1.97534E-08
 -1     15424-3.37266E-07-1.77774E-07 7.94380E-07-8.63700E-12-1.51050E-13-1.97534E-08
 -1     15425-3.35686E-07-1.77775E-07 7.92808E-07-1.72242E-12 2.99559E-14 1.96984E-08
 -1     15427-3.35686E-07-1.77775E-07 7.92808E-07-1.72242E-12-2.99559E-14-1.96984E-08
 -1     15428-3.47251E-07-1.77777E-07 8.04435E-07 6.15324E-12-1.07433E-13 2.01030E-08
 -1     15430-3.47251E-07-1.77777E-07 8.04435E-07 6.15324E-12 1.07433E-13-2.01030E-08
 -1     15431-3.50667E-07-1.77780E-07 8.07846E-07 1.10500E-11-1.92899E-13 2.02222E-08
 -1     15433-3.50667E-07-1.77780E-07 8.07846E-07 1.10500E-11 1.92899E-13-2.02222E-08
 -1     15434-3.34002E-07-1.77776E-07 7.91126E-07 3.34158E-12-5.83586E-14 1.96396E-08
 -1     15436-3.34002E-07-1.77776E-07 7.91126E-07 3.34158E-12 5.83586E-14-1.96396E-08
 -1     15437-3.35719E-07-1.77774E-07 7.92830E-07 6.25222E-12-1.09634E-13 1.96993E-08
 -1     15439-3.35719E-07-1.77774E-07 7.92830E-07 6.25222E-12 1.09634E-13-1.96993E-08
 -1     15440-3.44659E-07-1.77776E-07 8.01834E-07-6.34103E-12 1.10669E-13 2.00123E-08
 -1     15442-3.44659E-07-1.77776E-07 8.01834E-07-6.34103E-12-1.10669E-13-2.00123E-08
 -1     15443-6.02547E-07-1.77776E-07 1.05969E-06 3.44465E-11-6.01395E-13 2.90149E-08
 -1     15445-6.02547E-07-1.77776E-07 1.05969E-06 3.44465E-11 6.01395E-13-2.90149E-08
 -1     15446-6.26417E-07-1.77776E-07 1.08355E-06-3.66091E-11 6.39102E-13 2.98483E-08
 -1     15448-6.26417E-07-1.77776E-07 1.08355E-06-3.66091E-11-6.39102E-13-2.98483E-08
 -1     15449-2.36288E-06-1.77783E-07 2.81966E-06-7.52907E-12 1.27441E-13 9.04691E-08
 -1     15451-2.36288E-06-1.77783E-07 2.81966E-06-7.52907E-12-1.27441E-13-9.04691E-08
 -1     15452-2.35708E-06-1.77773E-07 2.81384E-06 3.56755E-11-6.20423E-13 9.02657E-08
 -1     15454-2.35708E-06-1.77773E-07 2.81384E-06 3.56755E-11 6.20423E-13-9.02657E-08
 -1     15455-2.25116E-06-1.77796E-07 2.70901E-06 5.89149E-11-1.02848E-12 8.65842E-08
 -1     15457-2.25116E-06-1.77796E-07 2.70901E-06 5.89149E-11 1.02848E-12-8.65842E-08
 -1     15458-3.32836E-07-1.77776E-07 7.89951E-07-2.19634E-12 3.84407E-14 1.95987E-08
 -1     15460-3.32836E-07-1.77776E-07 7.89951E-07-2.19634E-12-3.84407E-14-1.95987E-08
 -1     15461-3.32265E-07-1.77776E-07 7.89384E-07-1.40608E-12 2.45813E-14 1.95789E-08
 -1     15463-3.32265E-07-1.77776E-07 7.89384E-07-1.40608E-12-2.45813E-14-1.95789E-08
 -1     15464-3.45240E-07-1.77776E-07 8.02423E-07 4.52400E-12-7.89846E-14 2.00328E-08
 -1     15466-3.45240E-07-1.77776E-07 8.02423E-07 4.52400E-12 7.89846E-14-2.00328E-08
 -1     15467-1.08386E-06-1.77775E-07 1.54100E-06-1.83619E-13 3.23519E-15 4.58194E-08
 -1     15469-1.08386E-06-1.77775E-07 1.54100E-06-1.83619E-13-3.23519E-15-4.58194E-08
 -1     15470-1.06039E-06-1.77775E-07 1.51753E-06 8.30823E-11-1.45047E-12 4.49992E-08
 -1     15472-1.06039E-06-1.77775E-07 1.51753E-06 8.30823E-11 1.45047E-12-4.49992E-08
 -1     15473-1.10672E-06-1.77776E-07 1.56386E-06-8.90969E-11 1.55544E-12 4.66167E-08
 -1     15475-1.10672E-06-1.77776E-07 1.56386E-06-8.90969E-11-1.55544E-12-4.66167E-08
 -1     15476-1.03874E-06-1.77775E-07 1.49588E-06-2.51444E-14 4.97082E-16 4.42440E-08
 -1     15478-1.03874E-06-1.77775E-07 1.49588E-06-2.51444E-14-4.97082E-16-4.42440E-08
 -1     15479-2.58630E-06-1.77775E-07 3.04294E-06-2.65863E-12 4.65836E-14 9.82688E-08
 -1     15481-2.58630E-06-1.77775E-07 3.04294E-06-2.65863E-12-4.65836E-14-9.82688E-08
 -1     15482-2.58636E-06-1.77776E-07 3.04301E-06 2.92759E-12-5.12489E-14 9.82711E-08
 -1     15484-2.58636E-06-1.77776E-07 3.04301E-06 2.92759E-12 5.12489E-14-9.82711E-08
 -1     15485-2.35486E-06-1.77737E-07 2.81151E-06-5.59852E-11 9.63190E-13 9.01868E-08
 -1     15487-2.35486E-06-1.77737E-07 2.81151E-06-5.59852E-11-9.63190E-13-9.01868E-08
 -1     15488-2.36204E-06-1.77849E-07 2.81884E-06 3.84055E-13-3.26523E-16 9.04397E-08
 -1     15490-2.36204E-06-1.77849E-07 2.81884E-06 3.84055E-13 3.26524E-16-9.04397E-08
 -1     15491-2.45747E-06-1.77777E-07 2.91552E-06-4.20468E-12 7.34041E-14 9.37911E-08
 -1     15493-2.45747E-06-1.77777E-07 2.91552E-06-4.20468E-12-7.34041E-14-9.37911E-08
 -1     15494-2.45751E-06-1.77774E-07 2.91556E-06 5.22523E-12-9.12183E-14 9.37926E-08
 -1     15496-2.45751E-06-1.77774E-07 2.91556E-06 5.22523E-12 9.12183E-14-9.37926E-08
 -1     15497-2.35091E-06-1.77770E-07 2.80764E-06-1.42412E-12 2.79684E-14 9.00514E-08
 -1     15499-2.35091E-06-1.77770E-07 2.80764E-06-1.42412E-12-2.79684E-14-9.00514E-08
 -1     15500-2.34796E-06-1.77769E-07 2.80468E-06 3.92150E-11-6.85080E-13 8.99480E-08
 -1     15502-2.34796E-06-1.77769E-07 2.80468E-06 3.92150E-11 6.85080E-13-8.99480E-08
 -1     15503-2.24630E-06-1.77845E-07 2.70414E-06-1.87944E-10 3.28042E-12 8.64148E-08
 -1     15505-2.24630E-06-1.77845E-07 2.70414E-06-1.87944E-10-3.28042E-12-8.64148E-08
 -1     15506-2.11486E-06-1.77740E-07 2.57186E-06 2.78990E-11-4.83653E-13 8.18149E-08
 -1     15508-2.11486E-06-1.77740E-07 2.57186E-06 2.78990E-11 4.83653E-13-8.18149E-08
 -1     15509-2.15023E-06-1.77758E-07 2.60711E-06 1.98663E-10-3.46220E-12 8.30451E-08
 -1     15511-2.15023E-06-1.77758E-07 2.60711E-06 1.98663E-10 3.46220E-12-8.30451E-08
 -1     15512-1.48325E-06-1.77776E-07 1.94038E-06 5.22601E-13-9.13662E-15 5.97637E-08
 -1     15514-1.48325E-06-1.77776E-07 1.94038E-06 5.22601E-13 9.13662E-15-5.97637E-08
 -1     15515-3.49684E-07-1.77777E-07 8.06861E-07-1.25148E-11 2.18384E-13 2.01878E-08
 -1     15517-3.49684E-07-1.77777E-07 8.06861E-07-1.25148E-11-2.18384E-13-2.01878E-08
 -1     15518-3.43703E-07-1.77776E-07 8.00885E-07 3.59008E-12-6.26778E-14 1.99791E-08
 -1     15520-3.43703E-07-1.77776E-07 8.00885E-07 3.59008E-12 6.26778E-14-1.99791E-08
 -1     15521-2.34635E-06-1.77776E-07 2.80322E-06 5.69506E-11-9.95938E-13 8.98936E-08
 -1     15523-2.34635E-06-1.77776E-07 2.80322E-06 5.69506E-11 9.95938E-13-8.98936E-08
 -1     15524-2.32930E-06-1.77779E-07 2.78605E-06 1.48874E-10-2.59393E-12 8.92956E-08
 -1     15526-2.32930E-06-1.77779E-07 2.78605E-06 1.48874E-10 2.59393E-12-8.92956E-08
 -1     15527-2.21027E-06-1.77781E-07 2.66788E-06-2.76227E-10 4.82281E-12 8.51525E-08
 -1     15529-2.21027E-06-1.77781E-07 2.66788E-06-2.76227E-10-4.82281E-12-8.51525E-08
 -1     15530-2.24561E-06-1.77745E-07 2.70332E-06-7.12344E-11 1.24439E-12 8.63873E-08
 -1     15532-2.24561E-06-1.77745E-07 2.70332E-06-7.12344E-11-1.24439E-12-8.63873E-08
 -1     15533-4.07701E-07-1.77776E-07 8.64827E-07 2.30521E-11-4.02545E-13 2.22125E-08
 -1     15535-4.07701E-07-1.77776E-07 8.64827E-07 2.30521E-11 4.02545E-13-2.22125E-08
 -1     15536-4.24753E-07-1.77776E-07 8.81901E-07-2.57897E-11 4.50105E-13 2.28081E-08
 -1     15538-4.24753E-07-1.77776E-07 8.81901E-07-2.57897E-11-4.50105E-13-2.28081E-08
 -1     15539-3.30401E-07-1.77776E-07 7.87521E-07 3.89295E-13-6.64962E-15 1.95138E-08
 -1     15541-3.30401E-07-1.77776E-07 7.87521E-07 3.89295E-13 6.64962E-15-1.95138E-08
 -1     15542-3.30704E-07-1.77776E-07 7.87822E-07 5.99937E-13-1.05759E-14 1.95243E-08
 -1     15544-3.30704E-07-1.77776E-07 7.87822E-07 5.99937E-13 1.05759E-14-1.95243E-08
 -1     15545-2.24440E-06-1.77816E-07 2.70207E-06-1.09089E-10 1.90598E-12 8.63446E-08
 -1     15547-2.24440E-06-1.77816E-07 2.70207E-06-1.09089E-10-1.90598E-12-8.63446E-08
 -1     15548-2.34683E-06-1.77774E-07 2.80356E-06-5.46661E-12 9.49693E-14 8.99088E-08
 -1     15550-2.34683E-06-1.77774E-07 2.80356E-06-5.46661E-12-9.49693E-14-8.99088E-08
 -1     15551-2.23485E-06-1.77782E-07 2.69277E-06 2.85339E-11-4.98137E-13 8.60164E-08
 -1     15553-2.23485E-06-1.77782E-07 2.69277E-06 2.85339E-11 4.98137E-13-8.60164E-08
 -1     15554-2.34507E-06-1.77776E-07 2.80178E-06-1.26356E-11 2.20832E-13 8.98471E-08
 -1     15556-2.34507E-06-1.77776E-07 2.80178E-06-1.26356E-11-2.20832E-13-8.98471E-08
 -1     15557-1.32047E-06-1.77776E-07 1.77761E-06 1.25255E-10-2.18674E-12 5.40792E-08
 -1     15559-1.32047E-06-1.77776E-07 1.77761E-06 1.25255E-10 2.18674E-12-5.40792E-08
 -1     15560-1.38215E-06-1.77776E-07 1.83928E-06-1.35691E-10 2.36897E-12 5.62325E-08
 -1     15562-1.38215E-06-1.77776E-07 1.83928E-06-1.35691E-10-2.36897E-12-5.62325E-08
 -1     15563-1.29156E-06-1.77777E-07 1.74870E-06-1.28817E-12 2.24286E-14 5.30712E-08
 -1     15565-1.29156E-06-1.77777E-07 1.74870E-06-1.28817E-12-2.24286E-14-5.30712E-08
 -1     15566-3.42265E-07-1.77776E-07 7.99440E-07-2.11348E-12 3.68898E-14 1.99287E-08
 -1     15568-3.42265E-07-1.77776E-07 7.99440E-07-2.11348E-12-3.68898E-14-1.99287E-08
 -1     15569-3.59088E-07-1.77777E-07 8.16250E-07-2.62649E-11 4.58120E-13 2.05160E-08
 -1     15571-3.59088E-07-1.77777E-07 8.16250E-07-2.62649E-11-4.58120E-13-2.05160E-08
 -1     15572-6.51246E-07-1.77776E-07 1.10839E-06 3.86633E-11-6.75001E-13 3.07151E-08
 -1     15574-6.51246E-07-1.77776E-07 1.10839E-06 3.86633E-11 6.75001E-13-3.07151E-08
 -1     15575-6.77267E-07-1.77776E-07 1.13440E-06-4.10185E-11 7.16095E-13 3.16235E-08
 -1     15577-6.77267E-07-1.77776E-07 1.13440E-06-4.10185E-11-7.16095E-13-3.16235E-08
 -1     15578-6.38991E-07-1.77776E-07 1.09613E-06-3.23718E-14 5.79737E-16 3.02876E-08
 -1     15580-6.38991E-07-1.77776E-07 1.09613E-06-3.23717E-14-5.79737E-16-3.02876E-08
 -1     15581-5.15952E-07-1.77776E-07 9.73093E-07-2.90832E-11 5.07687E-13 2.59918E-08
 -1     15583-5.15952E-07-1.77776E-07 9.73093E-07-2.90832E-11-5.07687E-13-2.59918E-08
 -1     15584-5.26432E-07-1.77776E-07 9.83570E-07 6.37509E-13-1.11264E-14 2.63579E-08
 -1     15586-5.26432E-07-1.77776E-07 9.83570E-07 6.37509E-13 1.11264E-14-2.63579E-08
 -1     15587-4.96269E-07-1.77776E-07 9.53405E-07 2.75209E-11-4.80463E-13 2.53046E-08
 -1     15589-4.96269E-07-1.77776E-07 9.53405E-07 2.75209E-11 4.80463E-13-2.53046E-08
 -1     15590-4.58889E-07-1.77776E-07 9.16023E-07 2.59014E-11-4.52170E-13 2.39996E-08
 -1     15592-4.58889E-07-1.77776E-07 9.16023E-07 2.59014E-11 4.52170E-13-2.39996E-08
 -1     15593-4.77303E-07-1.77776E-07 9.34444E-07-2.72774E-11 4.76149E-13 2.46425E-08
 -1     15595-4.77303E-07-1.77776E-07 9.34444E-07-2.72774E-11-4.76149E-13-2.46425E-08
 -1     15596-4.87149E-07-1.77776E-07 9.44287E-07 8.77286E-13-1.53253E-14 2.49865E-08
 -1     15598-4.87149E-07-1.77776E-07 9.44287E-07 8.77286E-13 1.53253E-14-2.49865E-08
 -1     15599-4.50283E-07-1.77776E-07 9.07421E-07 1.10995E-12-1.94068E-14 2.36995E-08
 -1     15601-4.50283E-07-1.77776E-07 9.07421E-07 1.10995E-12 1.94068E-14-2.36995E-08
 -1     15602-9.34873E-07-1.77776E-07 1.39201E-06-6.85253E-11 1.19633E-12 4.06171E-08
 -1     15604-9.34873E-07-1.77776E-07 1.39201E-06-6.85253E-11-1.19633E-12-4.06171E-08
 -1     15605-9.55039E-07-1.77776E-07 1.41218E-06-1.59280E-13 2.81580E-15 4.13218E-08
 -1     15607-9.55039E-07-1.77776E-07 1.41218E-06-1.59280E-13-2.81580E-15-4.13218E-08
 -1     15608-8.97045E-07-1.77776E-07 1.35418E-06 6.38357E-11-1.11443E-12 3.92964E-08
 -1     15610-8.97045E-07-1.77776E-07 1.35418E-06 6.38357E-11 1.11443E-12-3.92964E-08
 -1     15611-1.15537E-06-1.77775E-07 1.61250E-06 9.74298E-11-1.70104E-12 4.83149E-08
 -1     15613-1.15537E-06-1.77775E-07 1.61250E-06 9.74298E-11 1.70104E-12-4.83149E-08
 -1     15614-1.20705E-06-1.77776E-07 1.66419E-06-1.03242E-10 1.80239E-12 5.01194E-08
 -1     15616-1.20705E-06-1.77776E-07 1.66419E-06-1.03242E-10-1.80239E-12-5.01194E-08
 -1     15617-1.13127E-06-1.77775E-07 1.58840E-06 1.51973E-13-2.59756E-15 4.74745E-08
 -1     15619-1.13127E-06-1.77775E-07 1.58840E-06 1.51973E-13 2.59756E-15-4.74745E-08
 -1     15620-3.41771E-07-1.77776E-07 7.98948E-07 1.14185E-12-1.99308E-14 1.99115E-08
 -1     15622-3.41771E-07-1.77776E-07 7.98948E-07 1.14185E-12 1.99308E-14-1.99115E-08
 -1     15623-7.62644E-07-1.77776E-07 1.21978E-06 4.93824E-11-8.62125E-13 3.46042E-08
 -1     15625-7.62644E-07-1.77776E-07 1.21978E-06 4.93824E-11 8.62125E-13-3.46042E-08
 -1     15626-7.93855E-07-1.77776E-07 1.25099E-06-5.25088E-11 9.16724E-13 3.56938E-08
 -1     15628-7.93855E-07-1.77776E-07 1.25099E-06-5.25088E-11-9.16724E-13-3.56938E-08
 -1     15629-8.26614E-07-1.77776E-07 1.28375E-06 5.63059E-11-9.82988E-13 3.68375E-08
 -1     15631-8.26614E-07-1.77776E-07 1.28375E-06 5.63059E-11 9.82988E-13-3.68375E-08
 -1     15632-8.60954E-07-1.77776E-07 1.31809E-06-5.99643E-11 1.04688E-12 3.80364E-08
 -1     15634-8.60954E-07-1.77776E-07 1.31809E-06-5.99643E-11-1.04688E-12-3.80364E-08
 -1     15635-8.10353E-07-1.77776E-07 1.26749E-06-2.41579E-13 4.25812E-15 3.62704E-08
 -1     15637-8.10353E-07-1.77776E-07 1.26749E-06-2.41579E-13-4.25812E-15-3.62704E-08
 -1     15638-3.86124E-07-1.77774E-07 8.43247E-07 9.80547E-12-1.70209E-13 2.14590E-08
 -1     15640-3.86124E-07-1.77774E-07 8.43247E-07 9.80547E-12 1.70209E-13-2.14590E-08
 -1     15641-3.71794E-07-1.77771E-07 8.28929E-07-1.55437E-11 2.71982E-13 2.09589E-08
 -1     15643-3.71794E-07-1.77771E-07 8.28929E-07-1.55437E-11-2.71982E-13-2.09589E-08
 -1     15644-5.79767E-07-1.77776E-07 1.03691E-06-3.27918E-11 5.72449E-13 2.82197E-08
 -1     15646-5.79767E-07-1.77776E-07 1.03691E-06-3.27918E-11-5.72449E-13-2.82197E-08
 -1     15647-5.91393E-07-1.77776E-07 1.04853E-06 2.07824E-13-3.62604E-15 2.86259E-08
 -1     15649-5.91393E-07-1.77776E-07 1.04853E-06 2.07824E-13 3.62604E-15-2.86259E-08
 -1     15650-5.57795E-07-1.77776E-07 1.01493E-06 3.09005E-11-5.39497E-13 2.74526E-08
 -1     15652-5.57795E-07-1.77776E-07 1.01493E-06 3.09005E-11 5.39497E-13-2.74526E-08
 -1     15653-1.67094E-06-1.77774E-07 2.12809E-06-1.94315E-10 3.39293E-12 6.63154E-08
 -1     15655-1.67094E-06-1.77774E-07 2.12809E-06-1.94315E-10-3.39293E-12-6.63154E-08
 -1     15656-1.71763E-06-1.77778E-07 2.17477E-06 7.64197E-12-1.33317E-13 6.79476E-08
 -1     15658-1.71763E-06-1.77778E-07 2.17477E-06 7.64197E-12 1.33317E-13-6.79476E-08
 -1     15659-1.59256E-06-1.77778E-07 2.04969E-06 1.71280E-10-2.98981E-12 6.35786E-08
 -1     15661-1.59256E-06-1.77778E-07 2.04969E-06 1.71280E-10 2.98981E-12-6.35786E-08
 -1     15662-1.86065E-06-1.77803E-07 2.31776E-06 2.53509E-10-4.42375E-12 7.29389E-08
 -1     15664-1.86065E-06-1.77803E-07 2.31776E-06 2.53509E-10 4.42375E-12-7.29389E-08
 -1     15665-1.96044E-06-1.77788E-07 2.41777E-06-3.61831E-10 6.32046E-12 7.64270E-08
 -1     15667-1.96044E-06-1.77788E-07 2.41777E-06-3.61831E-10-6.32046E-12-7.64270E-08
 -1     15668-2.08904E-06-1.77774E-07 2.54595E-06 3.15290E-10-5.49549E-12 8.09112E-08
 -1     15670-2.08904E-06-1.77774E-07 2.54595E-06 3.15290E-10 5.49549E-12-8.09112E-08
 -1     15671-2.19956E-06-1.77834E-07 2.65741E-06-2.02722E-10 3.54098E-12 8.47838E-08
 -1     15673-2.19956E-06-1.77834E-07 2.65741E-06-2.02722E-10-3.54098E-12-8.47838E-08
 -1     15674-2.04339E-06-1.77779E-07 2.50047E-06 4.00665E-11-6.98371E-13 7.93239E-08
 -1     15676-2.04339E-06-1.77779E-07 2.50047E-06 4.00665E-11 6.98371E-13-7.93239E-08
 -1     15677-3.65269E-07-1.77777E-07 8.22397E-07-1.20119E-12 1.98625E-14 2.07312E-08
 -1     15679-3.65269E-07-1.77777E-07 8.22397E-07-1.20119E-12-1.98625E-14-2.07312E-08
 -1     15680-2.10635E-06-1.77783E-07 2.56324E-06 2.07697E-10-3.62347E-12 8.15136E-08
 -1     15682-2.10635E-06-1.77783E-07 2.56324E-06 2.07697E-10 3.62347E-12-8.15136E-08
 -1     15683-2.00133E-06-1.77793E-07 2.45879E-06-2.70456E-10 4.72275E-12 7.78551E-08
 -1     15685-2.00133E-06-1.77793E-07 2.45879E-06-2.70456E-10-4.72275E-12-7.78551E-08
 -1     15686-2.13056E-06-1.77801E-07 2.58758E-06 8.58438E-11-1.49458E-12 8.23622E-08
 -1     15688-2.13056E-06-1.77801E-07 2.58758E-06 8.58438E-11 1.49458E-12-8.23622E-08
 -1     15689-2.34406E-06-1.77774E-07 2.80079E-06 1.67596E-13-2.53585E-15 8.98121E-08
 -1     15691-2.34406E-06-1.77774E-07 2.80079E-06 1.67596E-13 2.53585E-15-8.98121E-08
 -1     15692-2.34366E-06-1.77774E-07 2.80038E-06 6.08424E-12-1.06329E-13 8.97980E-08
 -1     15694-2.34366E-06-1.77774E-07 2.80038E-06 6.08424E-12 1.06329E-13-8.97980E-08
 -1     15695-2.34364E-06-1.77775E-07 2.80036E-06-4.15182E-12 7.26349E-14 8.97972E-08
 -1     15697-2.34364E-06-1.77775E-07 2.80036E-06-4.15182E-12-7.26349E-14-8.97972E-08
 -1     15698-2.34407E-06-1.77776E-07 2.80080E-06 5.61771E-14-1.19524E-15 8.98125E-08
 -1     15700-2.34407E-06-1.77776E-07 2.80080E-06 5.61772E-14 1.19524E-15-8.98125E-08
 -1     15701-2.23019E-06-1.77778E-07 2.68811E-06 1.03059E-12-1.79866E-14 8.58536E-08
 -1     15703-2.23019E-06-1.77778E-07 2.68811E-06 1.03059E-12 1.79866E-14-8.58536E-08
 -1     15704-3.90039E-07-1.77779E-07 8.47165E-07 3.00564E-12-5.39335E-14 2.15958E-08
 -1     15706-3.90039E-07-1.77779E-07 8.47165E-07 3.00564E-12 5.39335E-14-2.15958E-08
 -1     15707-1.44797E-06-1.77777E-07 1.90511E-06 1.46610E-10-2.55943E-12 5.85307E-08
 -1     15709-1.44797E-06-1.77777E-07 1.90511E-06 1.46610E-10 2.55943E-12-5.85307E-08
 -1     15710-1.51753E-06-1.77774E-07 1.97466E-06-1.61719E-10 2.82349E-12 6.09591E-08
 -1     15712-1.51753E-06-1.77774E-07 1.97466E-06-1.61719E-10-2.82349E-12-6.09591E-08
 -1     15713-1.55616E-06-1.77776E-07 2.01330E-06-3.51599E-13 6.15879E-15 6.23097E-08
 -1     15715-1.55616E-06-1.77776E-07 2.01330E-06-3.51599E-13-6.15879E-15-6.23097E-08
 -1     15716-1.41541E-06-1.77778E-07 1.87255E-06-1.94673E-12 3.39097E-14 5.73952E-08
 -1     15718-1.41541E-06-1.77778E-07 1.87255E-06-1.94673E-12-3.39097E-14-5.73952E-08
 -1     15719-3.55330E-07-1.77776E-07 8.12454E-07 2.71839E-12-4.73420E-14 2.03842E-08
 -1     15721-3.55330E-07-1.77776E-07 8.12454E-07 2.71839E-12 4.73420E-14-2.03842E-08
 -1     15722-3.57128E-07-1.77775E-07 8.14242E-07 6.35121E-12-1.11310E-13 2.04467E-08
 -1     15724-3.57128E-07-1.77775E-07 8.14242E-07 6.35121E-12 1.11310E-13-2.04467E-08
 -1     15725-2.14010E-06-1.77772E-07 2.59686E-06-3.59973E-11 6.28137E-13 8.26909E-08
 -1     15727-2.14010E-06-1.77772E-07 2.59686E-06-3.59973E-11-6.28137E-13-8.26909E-08
 -1     15728-2.14442E-06-1.77766E-07 2.60124E-06-1.84763E-11 3.21214E-13 8.28429E-08
 -1     15730-2.14442E-06-1.77766E-07 2.60124E-06-1.84763E-11-3.21214E-13-8.28429E-08
 -1     15731-3.68528E-07-1.77775E-07 8.25660E-07 3.30936E-12-5.77038E-14 2.08452E-08
 -1     15733-3.68528E-07-1.77775E-07 8.25660E-07 3.30936E-12 5.77038E-14-2.08452E-08
 -1     15734-3.74760E-07-1.77777E-07 8.31883E-07 2.14473E-11-3.74665E-13 2.10624E-08
 -1     15736-3.74760E-07-1.77777E-07 8.31883E-07 2.14473E-11 3.74665E-13-2.10624E-08
 -1     15737-3.91281E-07-1.77775E-07 8.48434E-07-2.52316E-11 4.40319E-13 2.16396E-08
 -1     15739-3.91281E-07-1.77775E-07 8.48434E-07-2.52316E-11-4.40319E-13-2.16396E-08
 -1     15740-2.34132E-06-1.77777E-07 2.79813E-06 4.54746E-11-7.88549E-13 8.97177E-08
 -1     15742-2.34132E-06-1.77777E-07 2.79813E-06 4.54746E-11 7.88549E-13-8.97177E-08
 -1     15743-3.56757E-07-1.77776E-07 8.13869E-07-2.76953E-12 4.84692E-14 2.04338E-08
 -1     15745-3.56757E-07-1.77776E-07 8.13869E-07-2.76953E-12-4.84692E-14-2.04338E-08
 -1     15746-3.56061E-07-1.77776E-07 8.13179E-07-1.73513E-12 3.04015E-14 2.04096E-08
 -1     15748-3.56061E-07-1.77776E-07 8.13179E-07-1.73513E-12-3.04015E-14-2.04096E-08
 -1     15749-3.91828E-07-1.77770E-07 8.48934E-07-1.95935E-12 3.25583E-14 2.16582E-08
 -1     15751-3.91828E-07-1.77770E-07 8.48934E-07-1.95935E-12-3.25583E-14-2.16582E-08
 -1     15752-3.89251E-07-1.77774E-07 8.46363E-07 1.78584E-12-3.25357E-14 2.15682E-08
 -1     15754-3.89251E-07-1.77774E-07 8.46363E-07 1.78584E-12 3.25357E-14-2.15682E-08
 -1     15755-4.05070E-07-1.77782E-07 8.62251E-07-9.40843E-12 1.64109E-13 2.21215E-08
 -1     15757-4.05070E-07-1.77782E-07 8.62251E-07-9.40843E-12-1.64109E-13-2.21215E-08
 -1     15758-7.04417E-07-1.77776E-07 1.16156E-06 4.36513E-11-7.62078E-13 3.25714E-08
 -1     15760-7.04417E-07-1.77776E-07 1.16156E-06 4.36513E-11 7.62078E-13-3.25714E-08
 -1     15761-7.32879E-07-1.77776E-07 1.19002E-06-4.62281E-11 8.07049E-13 3.35650E-08
 -1     15763-7.32879E-07-1.77776E-07 1.19002E-06-4.62281E-11-8.07049E-13-3.35650E-08
 -1     15764-6.90955E-07-1.77776E-07 1.14809E-06-1.41782E-13 2.50189E-15 3.21019E-08
 -1     15766-6.90955E-07-1.77776E-07 1.14809E-06-1.41782E-13-2.50189E-15-3.21019E-08
 -1     15767-3.53602E-07-1.77776E-07 8.10719E-07-1.21517E-12 2.14773E-14 2.03237E-08
 -1     15769-3.53602E-07-1.77776E-07 8.10719E-07-1.21517E-12-2.14773E-14-2.03237E-08
 -1     15770-3.53467E-07-1.77776E-07 8.10585E-07-7.03131E-13 1.22641E-14 2.03190E-08
 -1     15772-3.53467E-07-1.77776E-07 8.10585E-07-7.03131E-13-1.22641E-14-2.03190E-08
 -1     15773-7.47853E-07-1.77776E-07 1.20499E-06-2.24148E-13 3.94579E-15 3.40883E-08
 -1     15775-7.47853E-07-1.77776E-07 1.20499E-06-2.24148E-13-3.94579E-15-3.40883E-08
 -1     15776-3.60194E-07-1.77775E-07 8.17321E-07 3.06063E-12-5.34535E-14 2.05541E-08
 -1     15778-3.60194E-07-1.77775E-07 8.17321E-07 3.06063E-12 5.34535E-14-2.05541E-08
 -1     15779-3.63500E-07-1.77776E-07 8.20615E-07 1.47723E-11-2.58491E-13 2.06692E-08
 -1     15781-3.63500E-07-1.77776E-07 8.20615E-07 1.47723E-11 2.58491E-13-2.06692E-08
 -1     15782-3.79124E-07-1.77777E-07 8.36290E-07-2.08974E-11 3.64628E-13 2.12154E-08
 -1     15784-3.79124E-07-1.77777E-07 8.36290E-07-2.08974E-11-3.64628E-13-2.12154E-08
 -1     15785-3.70913E-07-1.77777E-07 8.28086E-07-1.21752E-11 2.12469E-13 2.09288E-08
 -1     15787-3.70913E-07-1.77777E-07 8.28086E-07-1.21752E-11-2.12469E-13-2.09288E-08
 -1     15788-2.34670E-06-1.77776E-07 2.80344E-06-3.26320E-12 5.70126E-14 8.99043E-08
 -1     15790-2.34670E-06-1.77776E-07 2.80344E-06-3.26320E-12-5.70126E-14-8.99043E-08
 -1     15791-2.34554E-06-1.77776E-07 2.80225E-06 7.53503E-12-1.31402E-13 8.98634E-08
 -1     15793-2.34554E-06-1.77776E-07 2.80225E-06 7.53503E-12 1.31402E-13-8.98634E-08
 -1     15794-2.23166E-06-1.77776E-07 2.68957E-06-1.75441E-11 3.06263E-13 8.59047E-08
 -1     15796-2.23166E-06-1.77776E-07 2.68957E-06-1.75441E-11-3.06263E-13-8.59047E-08
 -1     15797-2.23435E-06-1.77767E-07 2.69227E-06-5.85766E-12 1.02299E-13 8.59987E-08
 -1     15799-2.23435E-06-1.77767E-07 2.69227E-06-5.85766E-12-1.02299E-13-8.59987E-08
 -1     15800-3.53358E-07-1.77776E-07 8.10478E-07 8.82603E-13-1.51653E-14 2.03152E-08
 -1     15802-3.53358E-07-1.77776E-07 8.10478E-07 8.82603E-13 1.51653E-14-2.03152E-08
 -1     15803-3.53991E-07-1.77776E-07 8.11108E-07 1.78345E-12-3.13725E-14 2.03372E-08
 -1     15805-3.53991E-07-1.77776E-07 8.11108E-07 1.78345E-12 3.13725E-14-2.03372E-08
 -1     15806-3.65192E-07-1.77775E-07 8.22369E-07 1.40129E-12-2.44573E-14 2.07292E-08
 -1     15808-3.65192E-07-1.77775E-07 8.22369E-07 1.40129E-12 2.44573E-14-2.07292E-08
 -1     15809-4.00568E-07-1.77776E-07 8.57704E-07 3.21037E-12-5.60625E-14 2.19638E-08
 -1     15811-4.00568E-07-1.77776E-07 8.57704E-07 3.21037E-12 5.60625E-14-2.19638E-08
 -1     15812-3.55046E-07-1.77776E-07 8.12160E-07-2.28891E-12 4.01203E-14 2.03741E-08
 -1     15814-3.55046E-07-1.77776E-07 8.12160E-07-2.28891E-12-4.01203E-14-2.03741E-08
 -1     15815-3.54475E-07-1.77776E-07 8.11594E-07-1.56407E-12 2.74084E-14 2.03542E-08
 -1     15817-3.54475E-07-1.77776E-07 8.11594E-07-1.56407E-12-2.74084E-14-2.03542E-08
 -1     15818-3.68085E-07-1.77776E-07 8.25270E-07 5.79476E-12-1.01169E-13 2.08303E-08
 -1     15820-3.68085E-07-1.77776E-07 8.25270E-07 5.79476E-12 1.01169E-13-2.08303E-08
 -1     15821-3.94257E-07-1.77776E-07 8.51377E-07 1.86794E-11-3.26477E-13 2.17430E-08
 -1     15823-3.94257E-07-1.77776E-07 8.51377E-07 1.86794E-11 3.26477E-13-2.17430E-08
 -1     15824-4.10649E-07-1.77776E-07 8.67805E-07-2.40810E-11 4.20219E-13 2.23158E-08
 -1     15826-4.10649E-07-1.77776E-07 8.67805E-07-2.40810E-11-4.20219E-13-2.23158E-08
 -1     15827-2.33524E-06-1.77756E-07 2.79188E-06 8.49184E-11-1.47433E-12 8.95028E-08
 -1     15829-2.33524E-06-1.77756E-07 2.79188E-06 8.49184E-11 1.47433E-12-8.95028E-08
 -1     15830-1.91219E-06-1.77776E-07 2.36916E-06 1.95325E-10-3.40728E-12 7.47354E-08
 -1     15832-1.91219E-06-1.77776E-07 2.36916E-06 1.95325E-10 3.40728E-12-7.47354E-08
 -1     15833-1.81976E-06-1.77773E-07 2.27706E-06-2.41728E-10 4.22023E-12 7.15134E-08
 -1     15835-1.81976E-06-1.77773E-07 2.27706E-06-2.41728E-10-4.22023E-12-7.15134E-08
 -1     15836-1.93751E-06-1.77753E-07 2.39458E-06 4.55278E-11-7.95359E-13 7.56223E-08
 -1     15838-1.93751E-06-1.77753E-07 2.39458E-06 4.55278E-11 7.95359E-13-7.56223E-08
 -1     15839-1.73442E-06-1.77774E-07 2.19146E-06 1.82854E-10-3.19201E-12 6.85303E-08
 -1     15841-1.73442E-06-1.77774E-07 2.19146E-06 1.82854E-10 3.19201E-12-6.85303E-08
 -1     15842-1.65214E-06-1.77770E-07 2.10936E-06-2.15846E-10 3.76935E-12 6.56597E-08
 -1     15844-1.65214E-06-1.77770E-07 2.10936E-06-2.15846E-10-3.76935E-12-6.56597E-08
 -1     15845-1.76276E-06-1.77831E-07 2.21991E-06 3.03192E-11-5.25469E-13 6.95231E-08
 -1     15847-1.76276E-06-1.77831E-07 2.21991E-06 3.03192E-11 5.25469E-13-6.95231E-08
 -1     15848-1.57956E-06-1.77787E-07 2.03666E-06 1.52384E-10-2.66018E-12 6.31242E-08
 -1     15850-1.57956E-06-1.77787E-07 2.03666E-06 1.52384E-10 2.66018E-12-6.31242E-08
 -1     15851-1.50781E-06-1.77786E-07 1.96504E-06-1.67074E-10 2.91634E-12 6.06212E-08
 -1     15853-1.50781E-06-1.77786E-07 1.96504E-06-1.67074E-10-2.91634E-12-6.06212E-08
 -1     15854-1.60526E-06-1.77756E-07 2.06237E-06 1.89747E-11-3.31921E-13 6.40230E-08
 -1     15856-1.60526E-06-1.77756E-07 2.06237E-06 1.89747E-11 3.31921E-13-6.40230E-08
 -1     15857-1.43978E-06-1.77774E-07 1.89684E-06 1.33273E-10-2.32685E-12 5.82435E-08
 -1     15859-1.43978E-06-1.77774E-07 1.89684E-06 1.33273E-10 2.32685E-12-5.82435E-08
 -1     15860-1.37496E-06-1.77778E-07 1.83219E-06-1.50871E-10 2.63355E-12 5.59830E-08
 -1     15862-1.37496E-06-1.77778E-07 1.83219E-06-1.50871E-10-2.63355E-12-5.59830E-08
 -1     15863-1.46467E-06-1.77777E-07 1.92180E-06 2.57868E-11-4.50179E-13 5.91151E-08
 -1     15865-1.46467E-06-1.77777E-07 1.92180E-06 2.57868E-11 4.50179E-13-5.91151E-08
 -1     15866-1.31339E-06-1.77774E-07 1.77045E-06 1.15811E-10-2.02211E-12 5.38311E-08
 -1     15868-1.31339E-06-1.77774E-07 1.77045E-06 1.15811E-10 2.02211E-12-5.38311E-08
 -1     15869-1.25509E-06-1.77777E-07 1.71232E-06-1.32419E-10 2.31167E-12 5.17981E-08
 -1     15871-1.25509E-06-1.77777E-07 1.71232E-06-1.32419E-10-2.31167E-12-5.17981E-08
 -1     15872-1.33515E-06-1.77778E-07 1.79228E-06 2.66163E-11-4.64487E-13 5.45931E-08
 -1     15874-1.33515E-06-1.77778E-07 1.79228E-06 2.66163E-11 4.64487E-13-5.45931E-08
 -1     15875-1.20045E-06-1.77776E-07 1.65752E-06 9.81155E-11-1.71306E-12 4.98881E-08
 -1     15877-1.20045E-06-1.77776E-07 1.65752E-06 9.81155E-11 1.71306E-12-4.98881E-08
 -1     15878-1.14825E-06-1.77777E-07 1.60548E-06-1.13558E-10 1.98249E-12 4.80680E-08
 -1     15880-1.14825E-06-1.77777E-07 1.60548E-06-1.13558E-10-1.98249E-12-4.80680E-08
 -1     15881-1.21905E-06-1.77776E-07 1.67617E-06 2.46006E-11-4.29236E-13 5.05393E-08
 -1     15883-1.21905E-06-1.77776E-07 1.67617E-06 2.46006E-11 4.29236E-13-5.05393E-08
 -1     15884-1.09960E-06-1.77776E-07 1.55668E-06 8.27221E-11-1.44428E-12 4.63673E-08
 -1     15886-1.09960E-06-1.77776E-07 1.55668E-06 8.27221E-11 1.44428E-12-4.63673E-08
 -1     15887-1.05289E-06-1.77777E-07 1.51010E-06-9.65683E-11 1.68591E-12 4.47383E-08
 -1     15889-1.05289E-06-1.77777E-07 1.51010E-06-9.65683E-11-1.68591E-12-4.47383E-08
 -1     15890-1.11583E-06-1.77776E-07 1.57296E-06 2.08569E-11-3.63911E-13 4.69356E-08
 -1     15892-1.11583E-06-1.77776E-07 1.57296E-06 2.08569E-11 3.63911E-13-4.69356E-08
 -1     15893-1.00941E-06-1.77776E-07 1.46650E-06 6.98409E-11-1.21936E-12 4.32187E-08
 -1     15895-1.00941E-06-1.77776E-07 1.46650E-06 6.98409E-11 1.21936E-12-4.32187E-08
 -1     15896-9.67479E-07-1.77777E-07 1.42468E-06-8.21471E-11 1.43413E-12 4.17564E-08
 -1     15898-9.67479E-07-1.77777E-07 1.42468E-06-8.21471E-11-1.43413E-12-4.17564E-08
 -1     15899-1.02377E-06-1.77775E-07 1.48090E-06 1.71724E-11-2.99685E-13 4.37213E-08
 -1     15901-1.02377E-06-1.77775E-07 1.48090E-06 1.71724E-11 2.99685E-13-4.37213E-08
 -1     15902-9.28390E-07-1.77776E-07 1.38548E-06 6.06047E-11-1.05804E-12 4.03901E-08
 -1     15904-9.28390E-07-1.77776E-07 1.38548E-06 6.06047E-11 1.05804E-12-4.03901E-08
 -1     15905-8.90521E-07-1.77777E-07 1.34772E-06-7.12981E-11 1.24470E-12 3.90696E-08
 -1     15907-8.90521E-07-1.77777E-07 1.34772E-06-7.12981E-11-1.24470E-12-3.90696E-08
 -1     15908-9.41252E-07-1.77774E-07 1.39838E-06 1.46086E-11-2.54961E-13 4.08403E-08
 -1     15910-9.41252E-07-1.77774E-07 1.39838E-06 1.46086E-11 2.54961E-13-4.08403E-08
 -1     15911-8.55027E-07-1.77776E-07 1.31212E-06 5.36777E-11-9.37082E-13 3.78289E-08
 -1     15913-8.55027E-07-1.77776E-07 1.31212E-06 5.36777E-11 9.37082E-13-3.78289E-08
 -1     15914-8.20606E-07-1.77777E-07 1.27780E-06-6.38433E-11 1.11455E-12 3.66286E-08
 -1     15916-8.20606E-07-1.77777E-07 1.27780E-06-6.38433E-11-1.11455E-12-3.66286E-08
 -1     15917-8.66698E-07-1.77775E-07 1.32383E-06 1.33649E-11-2.33198E-13 3.82374E-08
 -1     15919-8.66698E-07-1.77775E-07 1.32383E-06 1.33649E-11 2.33198E-13-3.82374E-08
 -1     15920-7.88219E-07-1.77776E-07 1.24532E-06 4.75193E-11-8.29590E-13 3.54966E-08
 -1     15922-7.88219E-07-1.77776E-07 1.24532E-06 4.75193E-11 8.29590E-13-3.54966E-08
 -1     15923-7.56838E-07-1.77777E-07 1.21402E-06-5.72580E-11 9.99603E-13 3.44022E-08
 -1     15925-7.56838E-07-1.77777E-07 1.21402E-06-5.72580E-11-9.99603E-13-3.44022E-08
 -1     15926-7.98839E-07-1.77776E-07 1.25597E-06 1.20707E-11-2.10576E-13 3.58683E-08
 -1     15928-7.98839E-07-1.77776E-07 1.25597E-06 1.20707E-11 2.10576E-13-3.58683E-08
 -1     15929-7.27289E-07-1.77776E-07 1.18439E-06 4.20325E-11-7.33827E-13 3.33695E-08
 -1     15931-7.27289E-07-1.77776E-07 1.18439E-06 4.20325E-11 7.33827E-13-3.33695E-08
 -1     15932-6.98653E-07-1.77777E-07 1.15583E-06-5.06803E-11 8.84770E-13 3.23708E-08
 -1     15934-6.98653E-07-1.77777E-07 1.15583E-06-5.06803E-11-8.84770E-13-3.23708E-08
 -1     15935-7.36926E-07-1.77776E-07 1.19406E-06 1.06752E-11-1.86238E-13 3.37067E-08
 -1     15937-7.36926E-07-1.77776E-07 1.19406E-06 1.06752E-11 1.86238E-13-3.37067E-08
 -1     15938-6.71642E-07-1.77776E-07 1.12875E-06 3.71139E-11-6.47978E-13 3.14268E-08
 -1     15940-6.71642E-07-1.77776E-07 1.12875E-06 3.71139E-11 6.47978E-13-3.14268E-08
 -1     15941-6.45471E-07-1.77777E-07 1.10265E-06-4.46486E-11 7.79456E-13 3.05141E-08
 -1     15943-6.45471E-07-1.77777E-07 1.10265E-06-4.46486E-11-7.79456E-13-3.05141E-08
 -1     15944-6.80389E-07-1.77775E-07 1.13752E-06 9.48675E-12-1.65520E-13 3.17329E-08
 -1     15946-6.80389E-07-1.77775E-07 1.13752E-06 9.48675E-12 1.65520E-13-3.17329E-08
 -1     15947-6.20708E-07-1.77776E-07 1.07782E-06 3.25603E-11-5.68506E-13 2.96486E-08
 -1     15949-6.20708E-07-1.77776E-07 1.07782E-06 3.25603E-11 5.68506E-13-2.96486E-08
 -1     15950-5.96759E-07-1.77777E-07 1.05393E-06-3.91355E-11 6.83204E-13 2.88135E-08
 -1     15952-5.96759E-07-1.77777E-07 1.05393E-06-3.91355E-11-6.83204E-13-2.88135E-08
 -1     15953-6.28632E-07-1.77775E-07 1.08576E-06 8.57519E-12-1.49636E-13 2.99259E-08
 -1     15955-6.28632E-07-1.77775E-07 1.08576E-06 8.57519E-12 1.49636E-13-2.99259E-08
 -1     15956-5.74085E-07-1.77776E-07 1.03120E-06 2.82006E-11-4.92404E-13 2.80210E-08
 -1     15958-5.74085E-07-1.77776E-07 1.03120E-06 2.82006E-11 4.92404E-13-2.80210E-08
 -1     15959-5.52181E-07-1.77777E-07 1.00935E-06-3.37257E-11 5.88786E-13 2.72571E-08
 -1     15961-5.52181E-07-1.77777E-07 1.00935E-06-3.37257E-11-5.88786E-13-2.72571E-08
 -1     15962-5.81210E-07-1.77775E-07 1.03834E-06 7.83063E-12-1.36684E-13 2.82703E-08
 -1     15964-5.81210E-07-1.77775E-07 1.03834E-06 7.83063E-12 1.36684E-13-2.82703E-08
 -1     15965-5.31611E-07-1.77775E-07 9.88724E-07 2.42482E-11-4.23312E-13 2.65381E-08
 -1     15967-5.31611E-07-1.77775E-07 9.88724E-07 2.42482E-11 4.23312E-13-2.65381E-08
 -1     15968-5.11552E-07-1.77776E-07 9.68720E-07-2.90030E-11 5.06394E-13 2.58386E-08
 -1     15970-5.11552E-07-1.77776E-07 9.68720E-07-2.90030E-11-5.06394E-13-2.58386E-08
 -1     15971-5.37979E-07-1.77775E-07 9.95109E-07 6.90240E-12-1.20571E-13 2.67610E-08
 -1     15973-5.37979E-07-1.77775E-07 9.95109E-07 6.90240E-12 1.20571E-13-2.67610E-08
 -1     15974-4.93082E-07-1.77775E-07 9.50199E-07 2.27732E-11-3.97196E-13 2.51931E-08
 -1     15976-4.93082E-07-1.77775E-07 9.50199E-07 2.27732E-11 3.97196E-13-2.51931E-08
 -1     15977-4.74349E-07-1.77774E-07 9.31504E-07-2.97493E-11 5.19420E-13 2.45396E-08
 -1     15979-4.74349E-07-1.77774E-07 9.31504E-07-2.97493E-11-5.19420E-13-2.45396E-08
 -1     15980-4.98950E-07-1.77777E-07 9.56082E-07 6.09228E-12-1.06467E-13 2.53983E-08
 -1     15982-4.98950E-07-1.77777E-07 9.56082E-07 6.09228E-12 1.06467E-13-2.53983E-08
 -1     15983-4.56472E-07-1.77776E-07 9.13599E-07 2.31996E-11-4.04975E-13 2.39151E-08
 -1     15985-4.56472E-07-1.77776E-07 9.13599E-07 2.31996E-11 4.04975E-13-2.39151E-08
 -1     15986-4.38925E-07-1.77774E-07 8.96071E-07-3.03443E-11 5.29543E-13 2.33028E-08
 -1     15988-4.38925E-07-1.77774E-07 8.96071E-07-3.03443E-11-5.29543E-13-2.33028E-08
 -1     15989-4.62593E-07-1.77783E-07 9.19731E-07 2.67027E-12-4.59567E-14 2.41292E-08
 -1     15991-4.62593E-07-1.77783E-07 9.19731E-07 2.67027E-12 4.59567E-14-2.41292E-08
 -1     15992-4.20347E-07-1.77779E-07 8.77481E-07 1.92303E-11-3.37056E-13 2.26542E-08
 -1     15994-4.20347E-07-1.77779E-07 8.77481E-07 1.92303E-11 3.37056E-13-2.26542E-08
 -1     15995-2.15175E-06-1.77768E-07 2.60853E-06-6.53579E-11 1.13953E-12 8.30975E-08
 -1     15997-2.15175E-06-1.77768E-07 2.60853E-06-6.53579E-11-1.13953E-12-8.30975E-08
 -1     15998-2.15613E-06-1.77762E-07 2.61299E-06-1.78906E-11 3.07426E-13 8.32519E-08
 -1     16000-2.15613E-06-1.77762E-07 2.61299E-06-1.78906E-11-3.07426E-13-8.32519E-08
 -1     16001-2.04955E-06-1.77789E-07 2.50732E-06 8.25510E-11-1.44118E-12 7.95440E-08
 -1     16003-2.04955E-06-1.77789E-07 2.50732E-06 8.25510E-11 1.44118E-12-7.95440E-08
 -1     16004-1.76099E-06-1.77763E-07 2.21814E-06-2.40780E-10 4.20496E-12 6.94597E-08
 -1     16006-1.76099E-06-1.77763E-07 2.21814E-06-2.40780E-10-4.20496E-12-6.94597E-08
 -1     16007-1.81583E-06-1.77797E-07 2.27296E-06 1.31980E-12-2.29626E-14 7.13771E-08
 -1     16009-1.81583E-06-1.77797E-07 2.27296E-06 1.31980E-12 2.29626E-14-7.13771E-08
 -1     16010-1.67445E-06-1.77774E-07 2.13159E-06 2.00557E-10-3.50101E-12 6.64381E-08
 -1     16012-1.67445E-06-1.77774E-07 2.13159E-06 2.00557E-10 3.50101E-12-6.64381E-08
 -1     16013-1.01685E-06-1.77776E-07 1.47399E-06 7.64722E-11-1.33499E-12 4.34791E-08
 -1     16015-1.01685E-06-1.77776E-07 1.47399E-06 7.64722E-11 1.33499E-12-4.34791E-08
 -1     16016-1.06078E-06-1.77776E-07 1.51792E-06-8.33620E-11 1.45533E-12 4.50128E-08
 -1     16018-1.06078E-06-1.77776E-07 1.51792E-06-8.33620E-11-1.45533E-12-4.50128E-08
 -1     16019-2.30793E-06-1.77698E-07 2.76465E-06-3.63155E-11 6.45385E-13 8.85540E-08
 -1     16021-2.30793E-06-1.77698E-07 2.76465E-06-3.63155E-11-6.45385E-13-8.85540E-08
 -1     16022-2.23114E-06-1.77773E-07 2.68906E-06 1.07944E-11-1.88442E-13 8.58868E-08
 -1     16024-2.23114E-06-1.77773E-07 2.68906E-06 1.07944E-11 1.88442E-13-8.58868E-08
 -1     16025-2.14313E-06-1.77688E-07 2.60001E-06 1.07261E-11-1.81089E-13 8.28001E-08
 -1     16027-2.14313E-06-1.77688E-07 2.60001E-06 1.07261E-11 1.81089E-13-8.28001E-08
 -1     16028-2.13258E-06-1.77734E-07 2.58945E-06 1.17379E-10-2.05459E-12 8.24311E-08
 -1     16030-2.13258E-06-1.77734E-07 2.58945E-06 1.17379E-10 2.05459E-12-8.24311E-08
 -1     16031-3.76847E-07-1.77775E-07 8.34022E-07 1.50255E-12-2.62569E-14 2.11360E-08
 -1     16033-3.76847E-07-1.77775E-07 8.34022E-07 1.50255E-12 2.62569E-14-2.11360E-08
 -1     16034-3.64504E-07-1.77775E-07 8.21622E-07-7.99734E-12 1.39055E-13 2.07043E-08
 -1     16036-3.64504E-07-1.77775E-07 8.21622E-07-7.99734E-12-1.39055E-13-2.07043E-08
 -1     16037-2.13537E-06-1.77773E-07 2.59217E-06-1.12387E-11 1.95306E-13 8.25267E-08
 -1     16039-2.13537E-06-1.77773E-07 2.59217E-06-1.12387E-11-1.95306E-13-8.25267E-08
 -1     16040-2.03774E-06-1.77794E-07 2.49556E-06 4.64753E-11-8.11328E-13 7.91329E-08
 -1     16042-2.03774E-06-1.77794E-07 2.49556E-06 4.64753E-11 8.11328E-13-7.91329E-08
 -1     16043-2.13269E-06-1.77775E-07 2.58946E-06-1.67056E-11 2.92051E-13 8.24326E-08
 -1     16045-2.13269E-06-1.77775E-07 2.58946E-06-1.67056E-11-2.92051E-13-8.24326E-08
 -1     16046-3.66446E-07-1.77775E-07 8.23620E-07-4.95269E-12 8.64300E-14 2.07729E-08
 -1     16048-3.66446E-07-1.77775E-07 8.23620E-07-4.95269E-12-8.64300E-14-2.07729E-08
 -1     16049-1.75983E-06-1.77760E-07 2.21700E-06 2.59738E-10-4.53556E-12 6.94196E-08
 -1     16051-1.75983E-06-1.77760E-07 2.21700E-06 2.59738E-10 4.53556E-12-6.94196E-08
 -1     16052-1.85938E-06-1.77747E-07 2.31645E-06-2.83581E-10 4.95190E-12 7.28944E-08
 -1     16054-1.85938E-06-1.77747E-07 2.31645E-06-2.83581E-10-4.95190E-12-7.28944E-08
 -1     16055-3.66175E-07-1.77776E-07 8.23357E-07 4.90640E-12-8.56545E-14 2.07636E-08
 -1     16057-3.66175E-07-1.77776E-07 8.23357E-07 4.90640E-12 8.56545E-14-2.07636E-08
 -1     16058-4.20467E-07-1.77776E-07 8.77603E-07 3.72988E-12-6.52132E-14 2.26585E-08
 -1     16060-4.20467E-07-1.77776E-07 8.77603E-07 3.72988E-12 6.52132E-14-2.26585E-08
 -1     16061-4.26937E-07-1.77776E-07 8.84063E-07 2.19118E-11-3.82735E-13 2.28840E-08
 -1     16063-4.26937E-07-1.77776E-07 8.84063E-07 2.19118E-11 3.82735E-13-2.28840E-08
 -1     16064-1.26147E-06-1.77776E-07 1.71861E-06 1.15645E-10-2.01909E-12 5.20193E-08
 -1     16066-1.26147E-06-1.77776E-07 1.71861E-06 1.15645E-10 2.01909E-12-5.20193E-08
 -1     16067-1.31957E-06-1.77777E-07 1.77670E-06-1.23864E-10 2.16242E-12 5.40475E-08
 -1     16069-1.31957E-06-1.77777E-07 1.77670E-06-1.23864E-10-2.16242E-12-5.40475E-08
 -1     16070-1.23427E-06-1.77777E-07 1.69140E-06-5.82488E-13 1.01267E-14 5.10706E-08
 -1     16072-1.23427E-06-1.77777E-07 1.69140E-06-5.82488E-13-1.01267E-14-5.10706E-08
 -1     16073-3.57784E-07-1.77776E-07 8.14900E-07-1.99615E-12 3.48991E-14 2.04698E-08
 -1     16075-3.57784E-07-1.77776E-07 8.14900E-07-1.99615E-12-3.48991E-14-2.04698E-08
 -1     16076-3.70153E-07-1.77776E-07 8.27341E-07 6.16648E-12-1.07659E-13 2.09026E-08
 -1     16078-3.70153E-07-1.77776E-07 8.27341E-07 6.16648E-12 1.07659E-13-2.09026E-08
 -1     16079-3.58652E-07-1.77776E-07 8.15764E-07-4.15549E-12 7.26616E-14 2.05000E-08
 -1     16081-3.58652E-07-1.77776E-07 8.15764E-07-4.15549E-12-7.26616E-14-2.05000E-08
 -1     16082-6.26348E-07-1.77776E-07 1.08349E-06 3.58175E-11-6.25334E-13 2.98459E-08
 -1     16084-6.26348E-07-1.77776E-07 1.08349E-06 3.58175E-11 6.25334E-13-2.98459E-08
 -1     16085-6.51180E-07-1.77776E-07 1.10832E-06-3.80063E-11 6.63498E-13 3.07128E-08
 -1     16087-6.51180E-07-1.77776E-07 1.10832E-06-3.80063E-11-6.63498E-13-3.07128E-08
 -1     16088-8.79175E-07-1.77776E-07 1.33631E-06-1.98025E-13 3.48475E-15 3.86732E-08
 -1     16090-8.79175E-07-1.77776E-07 1.33631E-06-1.98025E-13-3.48475E-15-3.86732E-08
 -1     16091-3.89090E-07-1.77775E-07 8.46221E-07 3.85603E-12-6.72976E-14 2.15630E-08
 -1     16093-3.89090E-07-1.77775E-07 8.46221E-07 3.85603E-12 6.72976E-14-2.15630E-08
 -1     16094-5.36836E-07-1.77776E-07 9.93976E-07-2.96494E-11 5.17568E-13 2.67209E-08
 -1     16096-5.36836E-07-1.77776E-07 9.93976E-07-2.96494E-11-5.17568E-13-2.67209E-08
 -1     16097-5.47666E-07-1.77776E-07 1.00480E-06 5.77954E-13-1.00798E-14 2.70993E-08
 -1     16099-5.47666E-07-1.77776E-07 1.00480E-06 5.77954E-13 1.00798E-14-2.70993E-08
 -1     16100-5.16511E-07-1.77776E-07 9.73647E-07 2.78883E-11-4.86913E-13 2.60113E-08
 -1     16102-5.16511E-07-1.77776E-07 9.73647E-07 2.78883E-11 4.86913E-13-2.60113E-08
 -1     16103-1.10690E-06-1.77775E-07 1.56403E-06 8.72552E-11-1.52333E-12 4.66229E-08
 -1     16105-1.10690E-06-1.77775E-07 1.56403E-06 8.72552E-11 1.52333E-12-4.66229E-08
 -1     16106-1.15554E-06-1.77776E-07 1.61268E-06-9.31937E-11 1.62692E-12 4.83210E-08
 -1     16108-1.15554E-06-1.77776E-07 1.61268E-06-9.31937E-11-1.62692E-12-4.83210E-08
 -1     16109-1.08443E-06-1.77773E-07 1.54157E-06 7.83119E-13-1.35424E-14 4.58393E-08
 -1     16111-1.08443E-06-1.77773E-07 1.54157E-06 7.83119E-13 1.35424E-14-4.58393E-08
 -1     16112-7.93573E-07-1.77776E-07 1.25071E-06 5.26323E-11-9.18851E-13 3.56840E-08
 -1     16114-7.93573E-07-1.77776E-07 1.25071E-06 5.26323E-11 9.18851E-13-3.56840E-08
 -1     16115-8.26331E-07-1.77776E-07 1.28347E-06-5.57922E-11 9.74070E-13 3.68276E-08
 -1     16117-8.26331E-07-1.77776E-07 1.28347E-06-5.57922E-11-9.74070E-13-3.68276E-08
 -1     16118-2.31144E-06-1.77748E-07 2.76819E-06-5.23925E-11 8.99771E-13 8.86773E-08
 -1     16120-2.31144E-06-1.77748E-07 2.76819E-06-5.23925E-11-8.99771E-13-8.86773E-08
 -1     16121-3.62215E-07-1.77774E-07 8.19336E-07 8.79614E-13-1.57088E-14 2.06245E-08
 -1     16123-3.62215E-07-1.77774E-07 8.19336E-07 8.79614E-13 1.57088E-14-2.06245E-08
 -1     16124-1.91502E-06-1.77831E-07 2.37213E-06-7.28291E-11 1.26983E-12 7.48413E-08
 -1     16126-1.91502E-06-1.77831E-07 2.37213E-06-7.28291E-11-1.26983E-12-7.48413E-08
 -1     16127-1.97307E-06-1.77770E-07 2.43022E-06 3.34993E-10-5.84789E-12 7.68656E-08
 -1     16129-1.97307E-06-1.77770E-07 2.43022E-06 3.34993E-10 5.84789E-12-7.68656E-08
 -1     16130-4.34238E-07-1.77776E-07 8.91375E-07 2.36865E-12-4.14047E-14 2.31393E-08
 -1     16132-4.34238E-07-1.77776E-07 8.91375E-07 2.36865E-12 4.14047E-14-2.31393E-08
 -1     16133-4.42030E-07-1.77776E-07 8.99161E-07 2.44262E-11-4.26480E-13 2.34110E-08
 -1     16135-4.42030E-07-1.77776E-07 8.99161E-07 2.44262E-11 4.26480E-13-2.34110E-08
 -1     16136-9.74832E-07-1.77776E-07 1.43197E-06-7.37531E-11 1.28762E-12 4.20122E-08
 -1     16138-9.74832E-07-1.77776E-07 1.43197E-06-7.37531E-11-1.28762E-12-4.20122E-08
 -1     16139-9.96321E-07-1.77776E-07 1.45346E-06 2.88536E-13-4.98788E-15 4.27631E-08
 -1     16141-9.96321E-07-1.77776E-07 1.45346E-06 2.88536E-13 4.98788E-15-4.27631E-08
 -1     16142-9.35029E-07-1.77777E-07 1.39217E-06 6.81344E-11-1.18944E-12 4.06225E-08
 -1     16144-9.35029E-07-1.77777E-07 1.39217E-06 6.81344E-11 1.18944E-12-4.06225E-08
 -1     16145-2.21541E-06-1.77796E-07 2.67292E-06 2.51157E-10-4.39006E-12 8.53316E-08
 -1     16147-2.21541E-06-1.77796E-07 2.67292E-06 2.51157E-10 4.39006E-12-8.53316E-08
 -1     16148-2.10160E-06-1.77879E-07 2.55896E-06-2.65419E-10 4.62901E-12 8.13565E-08
 -1     16150-2.10160E-06-1.77879E-07 2.55896E-06-2.65419E-10-4.62901E-12-8.13565E-08
 -1     16151-6.02711E-07-1.77776E-07 1.05985E-06-3.39603E-11 5.92847E-13 2.90206E-08
 -1     16153-6.02711E-07-1.77776E-07 1.05985E-06-3.39603E-11-5.92847E-13-2.90206E-08
 -1     16154-6.14642E-07-1.77776E-07 1.07178E-06-2.21301E-13 3.86556E-15 2.94375E-08
 -1     16156-6.14642E-07-1.77776E-07 1.07178E-06-2.21301E-13-3.86556E-15-2.94375E-08
 -1     16157-5.79929E-07-1.77776E-07 1.03707E-06 3.19199E-11-5.57308E-13 2.82253E-08
 -1     16159-5.79929E-07-1.77776E-07 1.03707E-06 3.19199E-11 5.57308E-13-2.82253E-08
 -1     16160-7.62334E-07-1.77776E-07 1.21947E-06-4.86744E-11 8.49786E-13 3.45933E-08
 -1     16162-7.62334E-07-1.77776E-07 1.21947E-06-4.86744E-11-8.49786E-13-3.45933E-08
 -1     16163-7.77938E-07-1.77776E-07 1.23508E-06-5.34480E-13 9.38706E-15 3.51387E-08
 -1     16165-7.77938E-07-1.77776E-07 1.23508E-06-5.34480E-13-9.38706E-15-3.51387E-08
 -1     16166-7.32568E-07-1.77776E-07 1.18971E-06 4.60336E-11-8.03664E-13 3.35542E-08
 -1     16168-7.32568E-07-1.77776E-07 1.18971E-06 4.60336E-11 8.03664E-13-3.35542E-08
 -1     16169-4.44201E-07-1.77776E-07 9.01349E-07-2.55013E-11 4.45003E-13 2.34870E-08
 -1     16171-4.44201E-07-1.77776E-07 9.01349E-07-2.55013E-11-4.45003E-13-2.34870E-08
 -1     16172-4.59933E-07-1.77776E-07 9.17077E-07-2.66655E-11 4.65404E-13 2.40362E-08
 -1     16174-4.59933E-07-1.77776E-07 9.17077E-07-2.66655E-11-4.65404E-13-2.40362E-08
 -1     16175-3.77289E-07-1.77776E-07 8.34411E-07 2.14356E-12-3.70798E-14 2.11507E-08
 -1     16177-3.77289E-07-1.77776E-07 8.34411E-07 2.14356E-12 3.70798E-14-2.11507E-08
 -1     16178-3.78668E-07-1.77776E-07 8.35783E-07 4.81640E-12-8.45781E-14 2.11987E-08
 -1     16180-3.78668E-07-1.77776E-07 8.35783E-07 4.81640E-12 8.45781E-14-2.11987E-08
 -1     16181-2.12950E-06-1.77773E-07 2.58628E-06-1.85453E-12 3.27700E-14 8.23214E-08
 -1     16183-2.12950E-06-1.77773E-07 2.58628E-06-1.85453E-12-3.27700E-14-8.23214E-08
 -1     16184-2.12948E-06-1.77772E-07 2.58626E-06 2.54398E-12-4.46937E-14 8.23206E-08
 -1     16186-2.12948E-06-1.77772E-07 2.58626E-06 2.54398E-12 4.46937E-14-8.23206E-08
 -1     16187-1.67219E-06-1.77777E-07 2.12930E-06-2.06446E-10 3.60436E-12 6.63586E-08
 -1     16189-1.67219E-06-1.77777E-07 2.12930E-06-2.06446E-10-3.60436E-12-6.63586E-08
 -1     16190-1.71421E-06-1.77756E-07 2.17132E-06-1.17073E-11 2.05776E-13 6.78279E-08
 -1     16192-1.71421E-06-1.77756E-07 2.17132E-06-1.17073E-11-2.05776E-13-6.78279E-08
 -1     16193-2.17078E-06-1.77787E-07 2.62764E-06-1.69644E-11 2.86055E-13 8.37619E-08
 -1     16195-2.17078E-06-1.77787E-07 2.62764E-06-1.69644E-11-2.86055E-13-8.37619E-08
 -1     16196-2.16055E-06-1.77772E-07 2.61741E-06 9.05907E-11-1.57134E-12 8.34043E-08
 -1     16198-2.16055E-06-1.77772E-07 2.61741E-06 9.05907E-11 1.57134E-12-8.34043E-08
 -1     16199-2.05642E-06-1.77725E-07 2.51372E-06-2.46586E-10 4.30725E-12 7.97755E-08
 -1     16201-2.05642E-06-1.77725E-07 2.51372E-06-2.46586E-10-4.30725E-12-7.97755E-08
 -1     16202-2.07105E-06-1.77798E-07 2.52867E-06 1.56614E-10-2.73439E-12 8.02918E-08
 -1     16204-2.07105E-06-1.77798E-07 2.52867E-06 1.56614E-10 2.73439E-12-8.02918E-08
 -1     16205-3.79630E-07-1.77776E-07 8.36743E-07-4.13147E-12 7.23575E-14 2.12323E-08
 -1     16207-3.79630E-07-1.77776E-07 8.36743E-07-4.13147E-12-7.23575E-14-2.12323E-08
 -1     16208-3.78732E-07-1.77775E-07 8.35850E-07-2.82045E-12 4.94910E-14 2.12011E-08
 -1     16210-3.78732E-07-1.77775E-07 8.35850E-07-2.82045E-12-4.94910E-14-2.12011E-08
 -1     16211-4.14309E-07-1.77776E-07 8.71429E-07 1.65499E-11-2.89432E-13 2.24430E-08
 -1     16213-4.14309E-07-1.77776E-07 8.71429E-07 1.65499E-11 2.89432E-13-2.24430E-08
 -1     16214-4.30576E-07-1.77775E-07 8.87729E-07-2.23977E-11 3.90782E-13 2.30114E-08
 -1     16216-4.30576E-07-1.77775E-07 8.87729E-07-2.23977E-11-3.90782E-13-2.30114E-08
 -1     16217-3.59839E-07-1.77775E-07 8.16955E-07-1.04318E-12 1.82084E-14 2.05415E-08
 -1     16219-3.59839E-07-1.77775E-07 8.16955E-07-1.04318E-12-1.82084E-14-2.05415E-08
 -1     16220-3.72395E-07-1.77775E-07 8.29587E-07 9.34351E-12-1.63115E-13 2.09810E-08
 -1     16222-3.72395E-07-1.77775E-07 8.29587E-07 9.34351E-12 1.63115E-13-2.09810E-08
 -1     16223-6.77043E-07-1.77776E-07 1.13418E-06 4.06137E-11-7.09052E-13 3.16157E-08
 -1     16225-6.77043E-07-1.77776E-07 1.13418E-06 4.06137E-11 7.09052E-13-3.16157E-08
 -1     16226-7.04196E-07-1.77776E-07 1.16133E-06-4.27844E-11 7.46929E-13 3.25636E-08
 -1     16228-7.04196E-07-1.77776E-07 1.16133E-06-4.27844E-11-7.46929E-13-3.25636E-08
 -1     16229-6.64129E-07-1.77776E-07 1.12127E-06-4.51285E-13 7.92011E-15 3.11653E-08
 -1     16231-6.64129E-07-1.77776E-07 1.12127E-06-4.51285E-13-7.92011E-15-3.11653E-08
 -1     16232-3.61016E-07-1.77776E-07 8.18126E-07-8.15195E-12 1.42324E-13 2.05825E-08
 -1     16234-3.61016E-07-1.77776E-07 8.18126E-07-8.15195E-12-1.42324E-13-2.05825E-08
 -1     16235-8.60837E-07-1.77776E-07 1.31798E-06 6.02389E-11-1.05163E-12 3.80323E-08
 -1     16237-8.60837E-07-1.77776E-07 1.31798E-06 6.02389E-11 1.05163E-12-3.80323E-08
 -1     16238-8.96926E-07-1.77776E-07 1.35406E-06-6.43167E-11 1.12289E-12 3.92922E-08
 -1     16240-8.96926E-07-1.77776E-07 1.35406E-06-6.43167E-11-1.12289E-12-3.92922E-08
 -1     16241-9.16232E-07-1.77776E-07 1.37337E-06 5.97452E-15-7.42720E-17 3.99670E-08
 -1     16243-9.16232E-07-1.77776E-07 1.37337E-06 5.97453E-15 7.42722E-17-3.99670E-08
 -1     16244-8.43655E-07-1.77776E-07 1.30079E-06-3.79547E-13 6.66992E-15 3.74331E-08
 -1     16246-8.43655E-07-1.77776E-07 1.30079E-06-3.79547E-13-6.66992E-15-3.74331E-08
 -1     16247-4.54029E-07-1.77777E-07 9.11166E-07 2.52780E-12-4.42002E-14 2.38302E-08
 -1     16249-4.54029E-07-1.77777E-07 9.11166E-07 2.52780E-12 4.42002E-14-2.38302E-08
 -1     16250-4.61496E-07-1.77776E-07 9.18628E-07 2.32120E-11-4.05327E-13 2.40906E-08
 -1     16252-4.61496E-07-1.77776E-07 9.18628E-07 2.32120E-11 4.05327E-13-2.40906E-08
 -1     16253-3.84709E-07-1.77776E-07 8.41817E-07-3.22110E-12 5.63264E-14 2.14096E-08
 -1     16255-3.84709E-07-1.77776E-07 8.41817E-07-3.22110E-12-5.63264E-14-2.14096E-08
 -1     16256-3.83648E-07-1.77776E-07 8.40763E-07-2.50514E-12 4.38584E-14 2.13727E-08
 -1     16258-3.83648E-07-1.77776E-07 8.40763E-07-2.50514E-12-4.38584E-14-2.13727E-08
 -1     16259-3.81411E-07-1.77776E-07 8.38538E-07 3.69110E-12-6.44092E-14 2.12947E-08
 -1     16261-3.81411E-07-1.77776E-07 8.38538E-07 3.69110E-12 6.44092E-14-2.12947E-08
 -1     16262-3.84564E-07-1.77776E-07 8.41680E-07 1.18845E-11-2.07960E-13 2.14045E-08
 -1     16264-3.84564E-07-1.77776E-07 8.41680E-07 1.18845E-11 2.07960E-13-2.14045E-08
 -1     16265-3.99665E-07-1.77777E-07 8.56832E-07-1.79610E-11 3.13388E-13 2.19325E-08
 -1     16267-3.99665E-07-1.77777E-07 8.56832E-07-1.79610E-11-3.13388E-13-2.19325E-08
 -1     16268-3.92293E-07-1.77777E-07 8.49465E-07-1.13225E-11 1.97590E-13 2.16752E-08
 -1     16270-3.92293E-07-1.77777E-07 8.49465E-07-1.13225E-11-1.97590E-13-2.16752E-08
 -1     16271-4.78148E-07-1.77776E-07 9.35281E-07 2.56866E-11-4.48465E-13 2.46719E-08
 -1     16273-4.78148E-07-1.77776E-07 9.35281E-07 2.56866E-11 4.48465E-13-2.46719E-08
 -1     16274-4.97112E-07-1.77776E-07 9.54253E-07-2.76695E-11 4.82962E-13 2.53341E-08
 -1     16276-4.97112E-07-1.77776E-07 9.54253E-07-2.76695E-11-4.82962E-13-2.53341E-08
 -1     16277-5.07320E-07-1.77776E-07 9.64458E-07 9.95892E-13-1.73697E-14 2.56907E-08
 -1     16279-5.07320E-07-1.77776E-07 9.64458E-07 9.95892E-13 1.73697E-14-2.56907E-08
 -1     16280-4.69715E-07-1.77776E-07 9.26853E-07 1.54196E-12-2.69365E-14 2.43779E-08
 -1     16282-4.69715E-07-1.77776E-07 9.26853E-07 1.54196E-12 2.69365E-14-2.43779E-08
 -1     16283-3.82218E-07-1.77776E-07 8.39327E-07-4.02378E-12 7.03794E-14 2.13226E-08
 -1     16285-3.82218E-07-1.77776E-07 8.39327E-07-4.02378E-12-7.03794E-14-2.13226E-08
 -1     16286-3.81169E-07-1.77776E-07 8.38287E-07-2.62507E-12 4.59951E-14 2.12862E-08
 -1     16288-3.81169E-07-1.77776E-07 8.38287E-07-2.62507E-12-4.59951E-14-2.12862E-08
 -1     16289-3.96749E-07-1.77777E-07 8.53943E-07 9.03406E-12-1.57733E-13 2.18312E-08
 -1     16291-3.96749E-07-1.77777E-07 8.53943E-07 9.03406E-12 1.57733E-13-2.18312E-08
 -1     16292-1.96488E-06-1.77825E-07 2.42202E-06 1.63277E-10-2.85165E-12 7.65778E-08
 -1     16294-1.96488E-06-1.77825E-07 2.42202E-06 1.63277E-10 2.85165E-12-7.65778E-08
 -1     16295-1.87578E-06-1.77805E-07 2.33316E-06-1.44264E-10 2.51895E-12 7.34701E-08
 -1     16297-1.87578E-06-1.77805E-07 2.33316E-06-1.44264E-10-2.51895E-12-7.34701E-08
 -1     16298-1.99355E-06-1.77770E-07 2.45056E-06-5.97822E-12 9.99623E-14 7.75780E-08
 -1     16300-1.99355E-06-1.77770E-07 2.45056E-06-5.97822E-12-9.99623E-14-7.75780E-08
 -1     16301-1.79927E-06-1.77741E-07 2.25627E-06 1.57755E-10-2.74730E-12 7.07930E-08
 -1     16303-1.79927E-06-1.77741E-07 2.25627E-06 1.57755E-10 2.74730E-12-7.07930E-08
 -1     16304-1.71399E-06-1.77709E-07 2.17108E-06-1.81797E-10 3.17899E-12 6.78168E-08
 -1     16306-1.71399E-06-1.77709E-07 2.17108E-06-1.81797E-10-3.17899E-12-6.78168E-08
 -1     16307-1.82587E-06-1.77752E-07 2.28283E-06 1.72193E-11-3.08096E-13 7.17219E-08
 -1     16309-1.82587E-06-1.77752E-07 2.28283E-06 1.72193E-11 3.08096E-13-7.17219E-08
 -1     16310-1.49088E-06-1.77767E-07 1.94795E-06 1.65381E-10-2.88895E-12 6.00280E-08
 -1     16312-1.49088E-06-1.77767E-07 1.94795E-06 1.65381E-10 2.88895E-12-6.00280E-08
 -1     16313-1.42292E-06-1.77775E-07 1.88014E-06-1.64398E-10 2.86947E-12 5.76573E-08
 -1     16315-1.42292E-06-1.77775E-07 1.88014E-06-1.64398E-10-2.86947E-12-5.76573E-08
 -1     16316-1.35768E-06-1.77773E-07 1.81474E-06 1.31678E-10-2.29906E-12 5.53773E-08
 -1     16318-1.35768E-06-1.77773E-07 1.81474E-06 1.31678E-10 2.29906E-12-5.53773E-08
 -1     16319-1.29613E-06-1.77774E-07 1.75335E-06-1.44715E-10 2.52636E-12 5.32309E-08
 -1     16321-1.29613E-06-1.77774E-07 1.75335E-06-1.44715E-10-2.52636E-12-5.32309E-08
 -1     16322-1.38298E-06-1.77781E-07 1.84011E-06 2.62734E-11-4.58779E-13 5.62631E-08
 -1     16324-1.38298E-06-1.77781E-07 1.84011E-06 2.62734E-11 4.58779E-13-5.62631E-08
 -1     16325-1.23858E-06-1.77775E-07 1.69565E-06 1.11930E-10-1.95424E-12 5.12193E-08
 -1     16327-1.23858E-06-1.77775E-07 1.69565E-06 1.11930E-10 1.95424E-12-5.12193E-08
 -1     16328-1.18396E-06-1.77775E-07 1.64116E-06-1.22652E-10 2.14133E-12 4.93143E-08
 -1     16330-1.18396E-06-1.77775E-07 1.64116E-06-1.22652E-10-2.14133E-12-4.93143E-08
 -1     16331-1.26028E-06-1.77779E-07 1.71741E-06 2.07885E-11-3.62803E-13 5.19791E-08
 -1     16333-1.26028E-06-1.77779E-07 1.71741E-06 2.07885E-11 3.62803E-13-5.19791E-08
 -1     16334-1.13318E-06-1.77777E-07 1.59027E-06 9.37091E-11-1.63606E-12 4.75397E-08
 -1     16336-1.13318E-06-1.77777E-07 1.59027E-06 9.37091E-11 1.63606E-12-4.75397E-08
 -1     16337-1.08455E-06-1.77776E-07 1.54174E-06-1.03771E-10 1.81171E-12 4.58434E-08
 -1     16339-1.08455E-06-1.77776E-07 1.54174E-06-1.03771E-10-1.81171E-12-4.58434E-08
 -1     16340-1.15203E-06-1.77777E-07 1.60916E-06 1.60959E-11-2.80802E-13 4.81996E-08
 -1     16342-1.15203E-06-1.77777E-07 1.60916E-06 1.60959E-11 2.80802E-13-4.81996E-08
 -1     16343-1.03919E-06-1.77777E-07 1.49629E-06 7.81428E-11-1.36437E-12 4.42586E-08
 -1     16345-1.03919E-06-1.77777E-07 1.49629E-06 7.81428E-11 1.36437E-12-4.42586E-08
 -1     16346-9.95738E-07-1.77777E-07 1.45293E-06-8.73780E-11 1.52547E-12 4.27428E-08
 -1     16348-9.95738E-07-1.77777E-07 1.45293E-06-8.73780E-11-1.52547E-12-4.27428E-08
 -1     16349-1.05597E-06-1.77777E-07 1.51310E-06 1.28656E-11-2.24501E-13 4.48456E-08
 -1     16351-1.05597E-06-1.77777E-07 1.51310E-06 1.28656E-11 2.24501E-13-4.48456E-08
 -1     16352-9.55134E-07-1.77776E-07 1.41223E-06 6.64191E-11-1.15962E-12 4.13239E-08
 -1     16354-9.55134E-07-1.77776E-07 1.41223E-06 6.64191E-11 1.15962E-12-4.13239E-08
 -1     16355-9.16049E-07-1.77776E-07 1.37324E-06-7.35191E-11 1.28345E-12 3.99606E-08
 -1     16357-9.16049E-07-1.77776E-07 1.37324E-06-7.35191E-11-1.28345E-12-3.99606E-08
 -1     16358-9.70074E-07-1.77772E-07 1.42720E-06 1.08241E-11-1.89069E-13 4.18466E-08
 -1     16360-9.70074E-07-1.77772E-07 1.42720E-06 1.08241E-11 1.89069E-13-4.18466E-08
 -1     16361-8.79293E-07-1.77776E-07 1.33639E-06 5.89125E-11-1.02847E-12 3.86761E-08
 -1     16363-8.79293E-07-1.77776E-07 1.33639E-06 5.89125E-11 1.02847E-12-3.86761E-08
 -1     16364-8.43794E-07-1.77777E-07 1.30098E-06-6.59256E-11 1.15087E-12 3.74380E-08
 -1     16366-8.43794E-07-1.77777E-07 1.30098E-06-6.59256E-11-1.15087E-12-3.74380E-08
 -1     16367-8.92745E-07-1.77774E-07 1.34988E-06 9.61812E-12-1.67945E-13 3.91468E-08
 -1     16369-8.92745E-07-1.77774E-07 1.34988E-06 9.61812E-12 1.67945E-13-3.91468E-08
 -1     16370-8.10229E-07-1.77776E-07 1.26733E-06 5.20153E-11-9.08060E-13 3.62650E-08
 -1     16372-8.10229E-07-1.77776E-07 1.26733E-06 5.20153E-11 9.08060E-13-3.62650E-08
 -1     16373-7.77842E-07-1.77776E-07 1.23502E-06-6.01634E-11 1.05034E-12 3.51354E-08
 -1     16375-7.77842E-07-1.77776E-07 1.23502E-06-6.01634E-11-1.05034E-12-3.51354E-08
 -1     16376-8.22438E-07-1.77778E-07 1.27957E-06 9.55916E-12-1.66760E-13 3.66922E-08
 -1     16378-8.22438E-07-1.77778E-07 1.27957E-06 9.55916E-12 1.66760E-13-3.66922E-08
 -1     16379-7.47291E-07-1.77776E-07 1.20440E-06 4.61513E-11-8.05712E-13 3.40678E-08
 -1     16381-7.47291E-07-1.77776E-07 1.20440E-06 4.61513E-11 8.05712E-13-3.40678E-08
 -1     16382-7.17746E-07-1.77776E-07 1.17492E-06-5.33988E-11 9.32248E-13 3.30373E-08
 -1     16384-7.17746E-07-1.77776E-07 1.17492E-06-5.33988E-11-9.32248E-13-3.30373E-08
 -1     16385-7.58343E-07-1.77777E-07 1.21548E-06 8.37481E-12-1.46095E-13 3.44545E-08
 -1     16387-7.58343E-07-1.77777E-07 1.21548E-06 8.37481E-12 1.46095E-13-3.44545E-08
 -1     16388-6.89843E-07-1.77776E-07 1.14696E-06 4.11202E-11-7.17903E-13 3.20623E-08
 -1     16390-6.89843E-07-1.77776E-07 1.14696E-06 4.11202E-11 7.17903E-13-3.20623E-08
 -1     16391-6.62835E-07-1.77776E-07 1.12000E-06-4.73560E-11 8.26710E-13 3.11202E-08
 -1     16393-6.62835E-07-1.77776E-07 1.12000E-06-4.73560E-11-8.26710E-13-3.11202E-08
 -1     16394-6.99911E-07-1.77776E-07 1.15705E-06 7.20029E-12-1.25639E-13 3.24145E-08
 -1     16396-6.99911E-07-1.77776E-07 1.15705E-06 7.20029E-12 1.25639E-13-3.24145E-08
 -1     16397-6.37131E-07-1.77776E-07 1.09425E-06 3.65375E-11-6.37948E-13 3.02220E-08
 -1     16399-6.37131E-07-1.77776E-07 1.09425E-06 3.65375E-11 6.37948E-13-3.02220E-08
 -1     16400-6.12368E-07-1.77777E-07 1.06954E-06-4.23057E-11 7.38505E-13 2.93583E-08
 -1     16402-6.12368E-07-1.77777E-07 1.06954E-06-4.23057E-11-7.38505E-13-2.93583E-08
 -1     16403-6.46321E-07-1.77776E-07 1.10346E-06 6.58712E-12-1.14955E-13 3.05435E-08
 -1     16405-6.46321E-07-1.77776E-07 1.10346E-06 6.58712E-12 1.14955E-13-3.05435E-08
 -1     16406-5.88631E-07-1.77776E-07 1.04575E-06 3.20992E-11-5.60536E-13 2.85288E-08
 -1     16408-5.88631E-07-1.77776E-07 1.04575E-06 3.20992E-11 5.60536E-13-2.85288E-08
 -1     16409-5.65954E-07-1.77777E-07 1.02312E-06-3.69853E-11 6.45615E-13 2.77379E-08
 -1     16411-5.65954E-07-1.77777E-07 1.02312E-06-3.69853E-11-6.45615E-13-2.77379E-08
 -1     16412-5.96894E-07-1.77775E-07 1.05403E-06 6.44994E-12-1.12573E-13 2.88179E-08
 -1     16414-5.96894E-07-1.77775E-07 1.05403E-06 6.44994E-12 1.12573E-13-2.88179E-08
 -1     16415-5.44183E-07-1.77776E-07 1.00130E-06 2.69302E-11-4.70384E-13 2.69771E-08
 -1     16417-5.44183E-07-1.77776E-07 1.00130E-06 2.69302E-11 4.70384E-13-2.69771E-08
 -1     16418-5.23607E-07-1.77777E-07 9.80780E-07-2.92740E-11 5.11069E-13 2.62596E-08
 -1     16420-5.23607E-07-1.77777E-07 9.80780E-07-2.92740E-11-5.11069E-13-2.62596E-08
 -1     16421-5.51398E-07-1.77775E-07 1.00853E-06 6.57709E-12-1.14837E-13 2.72295E-08
 -1     16423-5.51398E-07-1.77775E-07 1.00853E-06 6.57709E-12 1.14837E-13-2.72295E-08
 -1     16424-5.04349E-07-1.77774E-07 9.61461E-07 1.99147E-11-3.47767E-13 2.55863E-08
 -1     16426-5.04349E-07-1.77774E-07 9.61461E-07 1.99147E-11 3.47767E-13-2.55863E-08
 -1     16427-4.85880E-07-1.77776E-07 9.43050E-07-1.81860E-11 3.17828E-13 2.49424E-08
 -1     16429-4.85880E-07-1.77776E-07 9.43050E-07-1.81860E-11-3.17828E-13-2.49424E-08
 -1     16430-5.10383E-07-1.77774E-07 9.67512E-07 5.49604E-12-9.62952E-14 2.57975E-08
 -1     16432-5.10383E-07-1.77774E-07 9.67512E-07 5.49604E-12 9.62952E-14-2.57975E-08
 -1     16433-4.70751E-07-1.77772E-07 9.27873E-07 1.99523E-11-3.46944E-13 2.44134E-08
 -1     16435-4.70751E-07-1.77772E-07 9.27873E-07 1.99523E-11 3.46944E-13-2.44134E-08
 -1     16436-4.52883E-07-1.77774E-07 9.10015E-07-1.85101E-11 3.24444E-13 2.37898E-08
 -1     16438-4.52883E-07-1.77774E-07 9.10015E-07-1.85101E-11-3.24444E-13-2.37898E-08
 -1     16439-4.76034E-07-1.77777E-07 9.33159E-07 1.66842E-12-3.02799E-14 2.45980E-08
 -1     16441-4.76034E-07-1.77777E-07 9.33159E-07 1.66842E-12 3.02799E-14-2.45980E-08
 -1     16442-1.95964E-06-1.77778E-07 2.41645E-06-6.91416E-11 1.20534E-12 7.63907E-08
 -1     16444-1.95964E-06-1.77778E-07 2.41645E-06-6.91416E-11-1.20534E-12-7.63907E-08
 -1     16445-1.96655E-06-1.77767E-07 2.42348E-06-4.08160E-11 7.10577E-13 7.66340E-08
 -1     16447-1.96655E-06-1.77767E-07 2.42348E-06-4.08160E-11-7.10577E-13-7.66340E-08
 -1     16448-1.84066E-06-1.77750E-07 2.29784E-06 2.94554E-10-5.14743E-12 7.22419E-08
 -1     16450-1.84066E-06-1.77750E-07 2.29784E-06 2.94554E-10 5.14743E-12-7.22419E-08
 -1     16451-1.95448E-06-1.77751E-07 2.41141E-06-1.65489E-10 2.87448E-12 7.62125E-08
 -1     16453-1.95448E-06-1.77751E-07 2.41141E-06-1.65489E-10-2.87448E-12-7.62125E-08
 -1     16454-1.59255E-06-1.77772E-07 2.04968E-06-1.84587E-10 3.22292E-12 6.35783E-08
 -1     16456-1.59255E-06-1.77772E-07 2.04968E-06-1.84587E-10-3.22292E-12-6.35783E-08
 -1     16457-1.63456E-06-1.77774E-07 2.09170E-06-3.27171E-12 5.74269E-14 6.50473E-08
 -1     16459-1.63456E-06-1.77774E-07 2.09170E-06-3.27171E-12-5.74269E-14-6.50473E-08
 -1     16460-1.59024E-06-1.77782E-07 2.04743E-06 1.81331E-10-3.16567E-12 6.34988E-08
 -1     16462-1.59024E-06-1.77782E-07 2.04743E-06 1.81331E-10 3.16567E-12-6.34988E-08
 -1     16463-1.51752E-06-1.77777E-07 1.97467E-06 1.62933E-10-2.84441E-12 6.09591E-08
 -1     16465-1.51752E-06-1.77777E-07 1.97467E-06 1.62933E-10 2.84441E-12-6.09591E-08
 -1     16466-2.13025E-06-1.77777E-07 2.58702E-06-6.66842E-12 1.16452E-13 8.23474E-08
 -1     16468-2.13025E-06-1.77777E-07 2.58702E-06-6.66842E-12-1.16452E-13-8.23474E-08
 -1     16469-2.13118E-06-1.77777E-07 2.58797E-06-2.89082E-12 5.02233E-14 8.23802E-08
 -1     16471-2.13118E-06-1.77777E-07 2.58797E-06-2.89082E-12-5.02233E-14-8.23802E-08
 -1     16472-2.02951E-06-1.77776E-07 2.48731E-06 1.24041E-11-2.16524E-13 7.88452E-08
 -1     16474-2.02951E-06-1.77776E-07 2.48731E-06 1.24041E-11 2.16524E-13-7.88452E-08
 -1     16475-3.77138E-07-1.77776E-07 8.34253E-07-1.80870E-12 3.21207E-14 2.11453E-08
 -1     16477-3.77138E-07-1.77776E-07 8.34253E-07-1.80870E-12-3.21207E-14-2.11453E-08
 -1     16478-3.77027E-07-1.77776E-07 8.34146E-07-1.04588E-12 1.81266E-14 2.11415E-08
 -1     16480-3.77027E-07-1.77776E-07 8.34146E-07-1.04588E-12-1.81266E-14-2.11415E-08
 -1     16481-6.50575E-07-1.77776E-07 1.10772E-06 3.74304E-11-6.53498E-13 3.06917E-08
 -1     16483-6.50575E-07-1.77776E-07 1.10772E-06 3.74304E-11 6.53498E-13-3.06917E-08
 -1     16484-6.76441E-07-1.77776E-07 1.13357E-06-3.91004E-11 6.82632E-13 3.15946E-08
 -1     16486-6.76441E-07-1.77776E-07 1.13357E-06-3.91004E-11-6.82632E-13-3.15946E-08
 -1     16487-1.38119E-06-1.77776E-07 1.83834E-06 1.37098E-10-2.39357E-12 5.61992E-08
 -1     16489-1.38119E-06-1.77776E-07 1.83834E-06 1.37098E-10 2.39357E-12-5.61992E-08
 -1     16490-1.44702E-06-1.77774E-07 1.90414E-06-1.49991E-10 2.61862E-12 5.84971E-08
 -1     16492-1.44702E-06-1.77774E-07 1.90414E-06-1.49991E-10-2.61862E-12-5.84971E-08
 -1     16493-1.48227E-06-1.77781E-07 1.93941E-06-5.28700E-12 9.22090E-14 5.97298E-08
 -1     16495-1.48227E-06-1.77781E-07 1.93941E-06-5.28700E-12-9.22090E-14-5.97298E-08
 -1     16496-1.35023E-06-1.77779E-07 1.80737E-06-3.62247E-12 6.30894E-14 5.51195E-08
 -1     16498-1.35023E-06-1.77779E-07 1.80737E-06-3.62247E-12-6.30894E-14-5.51195E-08
 -1     16499-1.20628E-06-1.77774E-07 1.66341E-06 1.04320E-10-1.82148E-12 5.00922E-08
 -1     16501-1.20628E-06-1.77774E-07 1.66341E-06 1.04320E-10 1.82148E-12-5.00922E-08
 -1     16502-1.26067E-06-1.77777E-07 1.71781E-06-1.08300E-10 1.89065E-12 5.19916E-08
 -1     16504-1.26067E-06-1.77777E-07 1.71781E-06-1.08300E-10-1.89065E-12-5.19916E-08
 -1     16505-1.18124E-06-1.77773E-07 1.63838E-06 1.68260E-12-2.92353E-14 4.92193E-08
 -1     16507-1.18124E-06-1.77773E-07 1.63838E-06 1.68260E-12 2.92353E-14-4.92193E-08
 -1     16508-4.09665E-07-1.77775E-07 8.66797E-07 3.28309E-12-5.72381E-14 2.22812E-08
 -1     16510-4.09665E-07-1.77775E-07 8.66797E-07 3.28309E-12 5.72381E-14-2.22812E-08
 -1     16511-3.93744E-07-1.77776E-07 8.50933E-07 8.74909E-12-1.52742E-13 2.17262E-08
 -1     16513-3.93744E-07-1.77776E-07 8.50933E-07 8.74909E-12 1.52742E-13-2.17262E-08
 -1     16514-4.26142E-07-1.77779E-07 8.83273E-07-1.30830E-12 2.27636E-14 2.28567E-08
 -1     16516-4.26142E-07-1.77779E-07 8.83273E-07-1.30830E-12-2.27636E-14-2.28567E-08
 -1     16517-3.87282E-07-1.77775E-07 8.44387E-07-4.93550E-12 8.69070E-14 2.14994E-08
 -1     16519-3.87282E-07-1.77775E-07 8.44387E-07-4.93550E-12-8.69070E-14-2.14994E-08
 -1     16520-3.86064E-07-1.77778E-07 8.43178E-07-4.78096E-12 8.34797E-14 2.14571E-08
 -1     16522-3.86064E-07-1.77778E-07 8.43178E-07-4.78096E-12-8.34797E-14-2.14571E-08
 -1     16523-2.03515E-06-1.77776E-07 2.49282E-06 2.27525E-11-3.97473E-13 7.90394E-08
 -1     16525-2.03515E-06-1.77776E-07 2.49282E-06 2.27525E-11 3.97473E-13-7.90394E-08
 -1     16526-2.13765E-06-1.77763E-07 2.59447E-06 8.10247E-12-1.43338E-13 8.26065E-08
 -1     16528-2.13765E-06-1.77763E-07 2.59447E-06 8.10247E-12 1.43338E-13-8.26065E-08
 -1     16529-3.90575E-07-1.77776E-07 8.47756E-07 9.10696E-12-1.58987E-13 2.16154E-08
 -1     16531-3.90575E-07-1.77776E-07 8.47756E-07 9.10696E-12 1.58987E-13-2.16154E-08
 -1     16532-7.18348E-07-1.77776E-07 1.17549E-06-5.29789E-13 9.29734E-15 3.30582E-08
 -1     16534-7.18348E-07-1.77776E-07 1.17549E-06-5.29789E-13-9.29734E-15-3.30582E-08
 -1     16535-3.99580E-07-1.77778E-07 8.56774E-07 4.73959E-12-8.27621E-14 2.19301E-08
 -1     16537-3.99580E-07-1.77778E-07 8.56774E-07 4.73959E-12 8.27621E-14-2.19301E-08
 -1     16538-4.79710E-07-1.77775E-07 9.36853E-07-2.61534E-11 4.56415E-13 2.47266E-08
 -1     16540-4.79710E-07-1.77775E-07 9.36853E-07-2.61534E-11-4.56415E-13-2.47266E-08
 -1     16541-8.25883E-07-1.77776E-07 1.28302E-06 5.69451E-11-9.94126E-13 3.68120E-08
 -1     16543-8.25883E-07-1.77776E-07 1.28302E-06 5.69451E-11 9.94126E-13-3.68120E-08
 -1     16544-8.60384E-07-1.77776E-07 1.31752E-06-6.01655E-11 1.05048E-12 3.80165E-08
 -1     16546-8.60384E-07-1.77776E-07 1.31752E-06-6.01655E-11-1.05048E-12-3.80165E-08
 -1     16547-4.46649E-07-1.77777E-07 9.03780E-07 2.04999E-11-3.58109E-13 2.35722E-08
 -1     16549-4.46649E-07-1.77777E-07 9.03780E-07 2.04999E-11 3.58109E-13-2.35722E-08
 -1     16550-4.63947E-07-1.77776E-07 9.21089E-07-2.42276E-11 4.22660E-13 2.41762E-08
 -1     16552-4.63947E-07-1.77776E-07 9.21089E-07-2.42276E-11-4.22660E-13-2.41762E-08
 -1     16553-4.40343E-07-1.77780E-07 8.97481E-07 3.14093E-12-5.51623E-14 2.33523E-08
 -1     16555-4.40343E-07-1.77780E-07 8.97481E-07 3.14093E-12 5.51623E-14-2.33523E-08
 -1     16556-1.06232E-06-1.77777E-07 1.51945E-06 7.97566E-11-1.39217E-12 4.50663E-08
 -1     16558-1.06232E-06-1.77777E-07 1.51945E-06 7.97566E-11 1.39217E-12-4.50663E-08
 -1     16559-1.10843E-06-1.77776E-07 1.56559E-06-8.85302E-11 1.54555E-12 4.66767E-08
 -1     16561-1.10843E-06-1.77776E-07 1.56559E-06-8.85302E-11-1.54555E-12-4.66767E-08
 -1     16562-5.58250E-07-1.77776E-07 1.01539E-06-3.01236E-11 5.25866E-13 2.74685E-08
 -1     16564-5.58250E-07-1.77776E-07 1.01539E-06-3.01236E-11-5.25866E-13-2.74685E-08
 -1     16565-5.69338E-07-1.77776E-07 1.02648E-06 1.40420E-13-2.45907E-15 2.78559E-08
 -1     16567-5.69338E-07-1.77776E-07 1.02648E-06 1.40420E-13 2.45907E-15-2.78559E-08
 -1     16568-5.37292E-07-1.77776E-07 9.94429E-07 2.83935E-11-4.95765E-13 2.67368E-08
 -1     16570-5.37292E-07-1.77776E-07 9.94429E-07 2.83935E-11 4.95765E-13-2.67368E-08
 -1     16571-3.89251E-07-1.77774E-07 8.46424E-07-7.50765E-14 1.30223E-15 2.15690E-08
 -1     16573-3.89251E-07-1.77774E-07 8.46424E-07-7.50765E-14-1.30223E-15-2.15690E-08
 -1     16574-1.95941E-06-1.77782E-07 2.41630E-06 2.08326E-11-3.58001E-13 7.63835E-08
 -1     16576-1.95941E-06-1.77782E-07 2.41630E-06 2.08326E-11 3.58001E-13-7.63835E-08
 -1     16577-2.13652E-06-1.77782E-07 2.59329E-06-2.99975E-12 5.35379E-14 8.25659E-08
 -1     16579-2.13652E-06-1.77782E-07 2.59329E-06-2.99975E-12-5.35379E-14-8.25659E-08
 -1     16580-7.92910E-07-1.77776E-07 1.25004E-06-5.17203E-11 9.03013E-13 3.56608E-08
 -1     16582-7.92910E-07-1.77776E-07 1.25004E-06-5.17203E-11-9.03013E-13-3.56608E-08
 -1     16583-8.09238E-07-1.77776E-07 1.26638E-06-9.35583E-13 1.64179E-14 3.62315E-08
 -1     16585-8.09238E-07-1.77776E-07 1.26638E-06-9.35583E-13-1.64179E-14-3.62315E-08
 -1     16586-7.61670E-07-1.77776E-07 1.21881E-06 4.89912E-11-8.55284E-13 3.45703E-08
 -1     16588-7.61670E-07-1.77776E-07 1.21881E-06 4.89912E-11 8.55284E-13-3.45703E-08
 -1     16589-1.01765E-06-1.77777E-07 1.47480E-06-8.06964E-11 1.40887E-12 4.35073E-08
 -1     16591-1.01765E-06-1.77777E-07 1.47480E-06-8.06964E-11-1.40887E-12-4.35073E-08
 -1     16592-1.04107E-06-1.77775E-07 1.49821E-06 1.81174E-12-3.15071E-14 4.43254E-08
 -1     16594-1.04107E-06-1.77775E-07 1.49821E-06 1.81174E-12 3.15071E-14-4.43254E-08
 -1     16595-9.75637E-07-1.77777E-07 1.43277E-06 7.32294E-11-1.27830E-12 4.20402E-08
 -1     16597-9.75637E-07-1.77777E-07 1.43277E-06 7.32294E-11 1.27830E-12-4.20402E-08
 -1     16598-4.38602E-07-1.77776E-07 8.95766E-07 1.93996E-11-3.37924E-13 2.32918E-08
 -1     16600-4.38602E-07-1.77776E-07 8.95766E-07 1.93996E-11 3.37924E-13-2.32918E-08
 -1     16601-4.20043E-07-1.77775E-07 8.77159E-07-1.71140E-11 2.99886E-13 2.26432E-08
 -1     16603-4.20043E-07-1.77775E-07 8.77159E-07-1.71140E-11-2.99886E-13-2.26432E-08
 -1     16604-4.46645E-07-1.77777E-07 9.03764E-07-1.22249E-12 1.94437E-14 2.35719E-08
 -1     16606-4.46645E-07-1.77777E-07 9.03764E-07-1.22249E-12-1.94437E-14-2.35719E-08
 -1     16607-1.75244E-06-1.77843E-07 2.20968E-06-1.68992E-10 2.95053E-12 6.91628E-08
 -1     16609-1.75244E-06-1.77843E-07 2.20968E-06-1.68992E-10-2.95053E-12-6.91628E-08
 -1     16610-1.79012E-06-1.77753E-07 2.24711E-06 1.23577E-11-2.10621E-13 7.04758E-08
 -1     16612-1.79012E-06-1.77753E-07 2.24711E-06 1.23577E-11 2.10621E-13-7.04758E-08
 -1     16613-1.66474E-06-1.77795E-07 2.12200E-06 1.86877E-10-3.26134E-12 6.61011E-08
 -1     16615-1.66474E-06-1.77795E-07 2.12200E-06 1.86877E-10 3.26134E-12-6.61011E-08
 -1     16616-2.03174E-06-1.77769E-07 2.48954E-06 1.35081E-11-2.35830E-13 7.89231E-08
 -1     16618-2.03174E-06-1.77769E-07 2.48954E-06 1.35081E-11 2.35830E-13-7.89231E-08
 -1     16619-2.13063E-06-1.77774E-07 2.58740E-06 1.34264E-11-2.34434E-13 8.23606E-08
 -1     16621-2.13063E-06-1.77774E-07 2.58740E-06 1.34264E-11 2.34434E-13-8.23606E-08
 -1     16622-2.02984E-06-1.77783E-07 2.48765E-06-1.06597E-11 1.86087E-13 7.88569E-08
 -1     16624-2.02984E-06-1.77783E-07 2.48765E-06-1.06597E-11-1.86087E-13-7.88569E-08
 -1     16625-2.13202E-06-1.77771E-07 2.58881E-06 1.12217E-11-1.94801E-13 8.24096E-08
 -1     16627-2.13202E-06-1.77771E-07 2.58881E-06 1.12217E-11 1.94801E-13-8.24096E-08
 -1     16628-1.64129E-06-1.77818E-07 2.09853E-06 1.31416E-10-2.29482E-12 6.52813E-08
 -1     16630-1.64129E-06-1.77818E-07 2.09853E-06 1.31416E-10 2.29482E-12-6.52813E-08
 -1     16631-1.56870E-06-1.77783E-07 2.02588E-06-1.79919E-10 3.13800E-12 6.27463E-08
 -1     16633-1.56870E-06-1.77783E-07 2.02588E-06-1.79919E-10-3.13800E-12-6.27463E-08
 -1     16634-1.94900E-06-1.77763E-07 2.40586E-06-6.87643E-12 1.17643E-13 7.60209E-08
 -1     16636-1.94900E-06-1.77763E-07 2.40586E-06-6.87643E-12-1.17643E-13-7.60209E-08
 -1     16637-1.86598E-06-1.77844E-07 2.32369E-06 1.22890E-10-2.14465E-12 7.31348E-08
 -1     16639-1.86598E-06-1.77844E-07 2.32369E-06 1.22890E-10 2.14465E-12-7.31348E-08
 -1     16640-1.94456E-06-1.77761E-07 2.40137E-06-2.57030E-11 4.50214E-13 7.58647E-08
 -1     16642-1.94456E-06-1.77761E-07 2.40137E-06-2.57030E-11-4.50214E-13-7.58647E-08
 -1     16643-6.26105E-07-1.77775E-07 1.08324E-06-3.47485E-11 6.06582E-13 2.98373E-08
 -1     16645-6.26105E-07-1.77775E-07 1.08324E-06-3.47485E-11-6.06582E-13-2.98373E-08
 -1     16646-6.38146E-07-1.77776E-07 1.09528E-06-9.80827E-13 1.71902E-14 3.02581E-08
 -1     16648-6.38146E-07-1.77776E-07 1.09528E-06-9.80827E-13-1.71902E-14-3.02581E-08
 -1     16649-6.02462E-07-1.77776E-07 1.05960E-06 3.28574E-11-5.73676E-13 2.90120E-08
 -1     16651-6.02462E-07-1.77776E-07 1.05960E-06 3.28574E-11 5.73676E-13-2.90120E-08
 -1     16652-4.16649E-07-1.77776E-07 8.73768E-07-2.26782E-12 3.89124E-14 2.25249E-08
 -1     16654-4.16649E-07-1.77776E-07 8.73768E-07-2.26782E-12-3.89124E-14-2.25249E-08
 -1     16655-4.04320E-07-1.77776E-07 8.61508E-07 1.22643E-11-2.13898E-13 2.20955E-08
 -1     16657-4.04320E-07-1.77776E-07 8.61508E-07 1.22643E-11 2.13898E-13-2.20955E-08
 -1     16658-1.52571E-06-1.77804E-07 1.98286E-06 2.45252E-11-4.29002E-13 6.12473E-08
 -1     16660-1.52571E-06-1.77804E-07 1.98286E-06 2.45252E-11 4.29002E-13-6.12473E-08
 -1     16661-4.05810E-07-1.77776E-07 8.62928E-07 1.07034E-11-1.87220E-13 2.21463E-08
 -1     16663-4.05810E-07-1.77776E-07 8.62928E-07 1.07034E-11 1.87220E-13-2.21463E-08
 -1     16664-4.20435E-07-1.77777E-07 8.77604E-07-1.20163E-11 2.09524E-13 2.26576E-08
 -1     16666-4.20435E-07-1.77777E-07 8.77604E-07-1.20163E-11-2.09524E-13-2.26576E-08
 -1     16667-4.02993E-07-1.77777E-07 8.60118E-07 3.12326E-12-5.46306E-14 2.20481E-08
 -1     16669-4.02993E-07-1.77777E-07 8.60118E-07 3.12326E-12 5.46306E-14-2.20481E-08
 -1     16670-1.97968E-06-1.77780E-07 2.43661E-06-1.16649E-10 2.03747E-12 7.70917E-08
 -1     16672-1.97968E-06-1.77780E-07 2.43661E-06-1.16649E-10-2.03747E-12-7.70917E-08
 -1     16673-5.48542E-07-1.77771E-07 1.00565E-06 2.64229E-11-4.58953E-13 2.71294E-08
 -1     16675-5.48542E-07-1.77771E-07 1.00565E-06 2.64229E-11 4.58953E-13-2.71294E-08
 -1     16676-5.67542E-07-1.77783E-07 1.02474E-06-8.55173E-13 1.49309E-14 2.77938E-08
 -1     16678-5.67542E-07-1.77783E-07 1.02474E-06-8.55173E-13-1.49309E-14-2.77938E-08
 -1     16679-5.48830E-07-1.77776E-07 1.00595E-06 1.35904E-12-2.19208E-14 2.71395E-08
 -1     16681-5.48830E-07-1.77776E-07 1.00595E-06 1.35904E-12 2.19208E-14-2.71395E-08
 -1     16682-1.88972E-06-1.77745E-07 2.34726E-06 9.03342E-11-1.57738E-12 7.39594E-08
 -1     16684-1.88972E-06-1.77745E-07 2.34726E-06 9.03342E-11 1.57738E-12-7.39594E-08
 -1     16685-1.67654E-06-1.77718E-07 2.13356E-06 5.44038E-11-9.58813E-13 6.65099E-08
 -1     16687-1.67654E-06-1.77718E-07 2.13356E-06 5.44038E-11 9.58813E-13-6.65099E-08
 -1     16688-4.05064E-07-1.77776E-07 8.62175E-07-8.11210E-12 1.41831E-13 2.21202E-08
 -1     16690-4.05064E-07-1.77776E-07 8.62175E-07-8.11210E-12-1.41831E-13-2.21202E-08
 -1     16691-4.03423E-07-1.77777E-07 8.60544E-07-5.12904E-12 9.02223E-14 2.20631E-08
 -1     16693-4.03423E-07-1.77777E-07 8.60544E-07-5.12904E-12-9.02223E-14-2.20631E-08
 -1     16694-4.15664E-07-1.77772E-07 8.72767E-07-4.71839E-12 8.21990E-14 2.24902E-08
 -1     16696-4.15664E-07-1.77772E-07 8.72767E-07-4.71839E-12-8.21990E-14-2.24902E-08
 -1     16697-4.14258E-07-1.77775E-07 8.71370E-07 1.58798E-13-2.77265E-15 2.24414E-08
 -1     16699-4.14258E-07-1.77775E-07 8.71370E-07 1.58798E-13 2.77265E-15-2.24414E-08
 -1     16700-4.31360E-07-1.77777E-07 8.88558E-07-4.59857E-13 8.01165E-15 2.30396E-08
 -1     16702-4.31360E-07-1.77777E-07 8.88558E-07-4.59857E-13-8.01165E-15-2.30396E-08
 -1     16703-4.98038E-07-1.77776E-07 9.55173E-07 2.52067E-11-4.40135E-13 2.53663E-08
 -1     16705-4.98038E-07-1.77776E-07 9.55173E-07 2.52067E-11 4.40135E-13-2.53663E-08
 -1     16706-5.17437E-07-1.77776E-07 9.74577E-07-2.71354E-11 4.73655E-13 2.60436E-08
 -1     16708-5.17437E-07-1.77776E-07 9.74577E-07-2.71354E-11-4.73655E-13-2.60436E-08
 -1     16709-5.27818E-07-1.77776E-07 9.84956E-07 6.93097E-13-1.20676E-14 2.64063E-08
 -1     16711-5.27818E-07-1.77776E-07 9.84956E-07 6.93097E-13 1.20676E-14-2.64063E-08
 -1     16712-4.89646E-07-1.77775E-07 9.46783E-07 1.11685E-12-1.94541E-14 2.50736E-08
 -1     16714-4.89646E-07-1.77775E-07 9.46783E-07 1.11685E-12 1.94541E-14-2.50736E-08
 -1     16715-4.12879E-07-1.77776E-07 8.69982E-07-8.69974E-12 1.51797E-13 2.23930E-08
 -1     16717-4.12879E-07-1.77776E-07 8.69982E-07-8.69974E-12-1.51797E-13-2.23930E-08
 -1     16718-4.11398E-07-1.77774E-07 8.68512E-07-4.15069E-12 7.27618E-14 2.23415E-08
 -1     16720-4.11398E-07-1.77774E-07 8.68512E-07-4.15069E-12-7.27618E-14-2.23415E-08
 -1     16721-4.28900E-07-1.77785E-07 8.86111E-07 1.04413E-11-1.82393E-13 2.29540E-08
 -1     16723-4.28900E-07-1.77785E-07 8.86111E-07 1.04413E-11 1.82393E-13-2.29540E-08
 -1     16724-1.93969E-06-1.77778E-07 2.39651E-06-9.73467E-12 1.69900E-13 7.56948E-08
 -1     16726-1.93969E-06-1.77778E-07 2.39651E-06-9.73467E-12-1.69900E-13-7.56948E-08
 -1     16727-1.94041E-06-1.77773E-07 2.39725E-06-8.19786E-12 1.42559E-13 7.57203E-08
 -1     16729-1.94041E-06-1.77773E-07 2.39725E-06-8.19786E-12-1.42559E-13-7.57203E-08
 -1     16730-4.61822E-07-1.77778E-07 9.19007E-07-1.12395E-12 1.96055E-14 2.41027E-08
 -1     16732-4.61822E-07-1.77778E-07 9.19007E-07-1.12395E-12-1.96055E-14-2.41027E-08
 -1     16733-4.47554E-07-1.77776E-07 9.04665E-07-1.68252E-12 2.85906E-14 2.36036E-08
 -1     16735-4.47554E-07-1.77776E-07 9.04665E-07-1.68252E-12-2.85906E-14-2.36036E-08
 -1     16736-4.46520E-07-1.77774E-07 9.03624E-07 2.77649E-12-5.00433E-14 2.35675E-08
 -1     16738-4.46520E-07-1.77774E-07 9.03624E-07 2.77649E-12 5.00433E-14-2.35675E-08
 -1     16739-4.76969E-07-1.77772E-07 9.34076E-07 1.32875E-11-2.33349E-13 2.46304E-08
 -1     16741-4.76969E-07-1.77772E-07 9.34076E-07 1.32875E-11 2.33349E-13-2.46304E-08
 -1     16742-8.97002E-07-1.77777E-07 1.35414E-06 6.53541E-11-1.14089E-12 3.92949E-08
 -1     16744-8.97002E-07-1.77777E-07 1.35414E-06 6.53541E-11 1.14089E-12-3.92949E-08
 -1     16745-9.35102E-07-1.77777E-07 1.39224E-06-7.02290E-11 1.22616E-12 4.06251E-08
 -1     16747-9.35102E-07-1.77777E-07 1.39224E-06-7.02290E-11-1.22616E-12-4.06251E-08
 -1     16748-9.55908E-07-1.77777E-07 1.41305E-06 7.67071E-13-1.33797E-14 4.13522E-08
 -1     16750-9.55908E-07-1.77777E-07 1.41305E-06 7.67071E-13 1.33797E-14-4.13522E-08
 -1     16751-8.78792E-07-1.77776E-07 1.33593E-06-3.33634E-13 5.83592E-15 3.86599E-08
 -1     16753-8.78792E-07-1.77776E-07 1.33593E-06-3.33634E-13-5.83592E-15-3.86599E-08
 -1     16754-4.08960E-07-1.77777E-07 8.66068E-07-6.70866E-12 1.17403E-13 2.22562E-08
 -1     16756-4.08960E-07-1.77777E-07 8.66068E-07-6.70866E-12-1.17403E-13-2.22562E-08
 -1     16757-4.07373E-07-1.77776E-07 8.64491E-07-4.02702E-12 7.05426E-14 2.22010E-08
 -1     16759-4.07373E-07-1.77776E-07 8.64491E-07-4.02702E-12-7.05426E-14-2.22010E-08
 -1     16760-4.20260E-07-1.77777E-07 8.77449E-07 1.28503E-11-2.24305E-13 2.26519E-08
 -1     16762-4.20260E-07-1.77777E-07 8.77449E-07 1.28503E-11 2.24305E-13-2.26519E-08
 -1     16763-4.25070E-07-1.77771E-07 8.82263E-07 1.60152E-11-2.79553E-13 2.28199E-08
 -1     16765-4.25070E-07-1.77771E-07 8.82263E-07 1.60152E-11 2.79553E-13-2.28199E-08
 -1     16766-1.40758E-06-1.77775E-07 1.86464E-06 1.45198E-10-2.53519E-12 5.71194E-08
 -1     16768-1.40758E-06-1.77775E-07 1.86464E-06 1.45198E-10 2.53519E-12-5.71194E-08
 -1     16769-1.34238E-06-1.77772E-07 1.79959E-06-1.54073E-10 2.69003E-12 5.48453E-08
 -1     16771-1.34238E-06-1.77772E-07 1.79959E-06-1.54073E-10-2.69003E-12-5.48453E-08
 -1     16772-4.00099E-07-1.77775E-07 8.57216E-07-1.63855E-12 2.99937E-14 2.19468E-08
 -1     16774-4.00099E-07-1.77775E-07 8.57216E-07-1.63855E-12-2.99937E-14-2.19468E-08
 -1     16775-4.00370E-07-1.77776E-07 8.57490E-07 2.37379E-12-4.23557E-14 2.19563E-08
 -1     16777-4.00370E-07-1.77776E-07 8.57490E-07 2.37379E-12 4.23557E-14-2.19563E-08
 -1     16778-4.13853E-07-1.77778E-07 8.71019E-07-1.48782E-11 2.59793E-13 2.24278E-08
 -1     16780-4.13853E-07-1.77778E-07 8.71019E-07-1.48782E-11-2.59793E-13-2.24278E-08
 -1     16781-4.14566E-07-1.77774E-07 8.71732E-07 1.63990E-11-2.86200E-13 2.24527E-08
 -1     16783-4.14566E-07-1.77774E-07 8.71732E-07 1.63990E-11 2.86200E-13-2.24527E-08
 -1     16784-1.82698E-06-1.77790E-07 2.28395E-06 2.16138E-11-3.72666E-13 7.17611E-08
 -1     16786-1.82698E-06-1.77790E-07 2.28395E-06 2.16138E-11 3.72666E-13-7.17611E-08
 -1     16787-1.75033E-06-1.77922E-07 2.20789E-06-8.60287E-11 1.50150E-12 6.90936E-08
 -1     16789-1.75033E-06-1.77922E-07 2.20789E-06-8.60287E-11-1.50150E-12-6.90936E-08
 -1     16790-8.88728E-07-1.77775E-07 1.34583E-06-4.12263E-12 7.45245E-14 3.90055E-08
 -1     16792-8.88728E-07-1.77775E-07 1.34583E-06-4.12263E-12-7.45245E-14-3.90055E-08
 -1     16793-8.97875E-07-1.77772E-07 1.35497E-06 4.61412E-11-8.08419E-13 3.93246E-08
 -1     16795-8.97875E-07-1.77772E-07 1.35497E-06 4.61412E-11 8.08419E-13-3.93246E-08
 -1     16796-8.68718E-07-1.77788E-07 1.32595E-06-3.48599E-11 6.07610E-13 3.83088E-08
 -1     16798-8.68718E-07-1.77788E-07 1.32595E-06-3.48599E-11-6.07610E-13-3.83088E-08
 -1     16799-1.67769E-06-1.77688E-07 2.13467E-06-3.39669E-11 5.99436E-13 6.65494E-08
 -1     16801-1.67769E-06-1.77688E-07 2.13467E-06-3.39669E-11-5.99436E-13-6.65494E-08
 -1     16802-1.28298E-06-1.77774E-07 1.74006E-06 1.20173E-10-2.09765E-12 5.27694E-08
 -1     16804-1.28298E-06-1.77774E-07 1.74006E-06 1.20173E-10 2.09765E-12-5.27694E-08
 -1     16805-1.22543E-06-1.77772E-07 1.68261E-06-1.26881E-10 2.21547E-12 5.07618E-08
 -1     16807-1.22543E-06-1.77772E-07 1.68261E-06-1.26881E-10-2.21547E-12-5.07618E-08
 -1     16808-1.30671E-06-1.77778E-07 1.76384E-06 1.71859E-11-3.00094E-13 5.36000E-08
 -1     16810-1.30671E-06-1.77778E-07 1.76384E-06 1.71859E-11 3.00094E-13-5.36000E-08
 -1     16811-1.17302E-06-1.77777E-07 1.63013E-06 1.04077E-10-1.81675E-12 4.89310E-08
 -1     16813-1.17302E-06-1.77777E-07 1.63013E-06 1.04077E-10 1.81675E-12-4.89310E-08
 -1     16814-1.12226E-06-1.77775E-07 1.57943E-06-1.06767E-10 1.86418E-12 4.71596E-08
 -1     16816-1.12226E-06-1.77775E-07 1.57943E-06-1.06767E-10-1.86418E-12-4.71596E-08
 -1     16817-1.19497E-06-1.77778E-07 1.65210E-06 7.80984E-12-1.36284E-13 4.96985E-08
 -1     16819-1.19497E-06-1.77778E-07 1.65210E-06 7.80984E-12 1.36284E-13-4.96985E-08
 -1     16820-1.07507E-06-1.77776E-07 1.53219E-06 8.70449E-11-1.51965E-12 4.55116E-08
 -1     16822-1.07507E-06-1.77776E-07 1.53219E-06 8.70449E-11 1.51965E-12-4.55116E-08
 -1     16823-1.02975E-06-1.77773E-07 1.48690E-06-9.07859E-11 1.58502E-12 4.39296E-08
 -1     16825-1.02975E-06-1.77773E-07 1.48690E-06-9.07859E-11-1.58502E-12-4.39296E-08
 -1     16826-1.09543E-06-1.77781E-07 1.55256E-06 3.44992E-12-6.02140E-14 4.62232E-08
 -1     16828-1.09543E-06-1.77781E-07 1.55256E-06 3.44992E-12 6.02140E-14-4.62232E-08
 -1     16829-9.86892E-07-1.77780E-07 1.44402E-06 7.41151E-11-1.29420E-12 4.24331E-08
 -1     16831-9.86892E-07-1.77780E-07 1.44402E-06 7.41151E-11 1.29420E-12-4.24331E-08
 -1     16832-9.46305E-07-1.77778E-07 1.40347E-06-7.88890E-11 1.37710E-12 4.10166E-08
 -1     16834-9.46305E-07-1.77778E-07 1.40347E-06-7.88890E-11-1.37710E-12-4.10166E-08
 -1     16835-1.00545E-06-1.77779E-07 1.46259E-06 3.49575E-12-6.12584E-14 4.30818E-08
 -1     16837-1.00545E-06-1.77779E-07 1.46259E-06 3.49575E-12 6.12584E-14-4.30818E-08
 -1     16838-9.07720E-07-1.77775E-07 1.36483E-06 6.71134E-11-1.17174E-12 3.96687E-08
 -1     16840-9.07720E-07-1.77775E-07 1.36483E-06 6.71134E-11 1.17174E-12-3.96687E-08
 -1     16841-8.70946E-07-1.77779E-07 1.32812E-06-6.48704E-11 1.13234E-12 3.83858E-08
 -1     16843-8.70946E-07-1.77779E-07 1.32812E-06-6.48704E-11-1.13234E-12-3.83858E-08
 -1     16844-9.24073E-07-1.77767E-07 1.38120E-06 5.07746E-12-8.92727E-14 4.02406E-08
 -1     16846-9.24073E-07-1.77767E-07 1.38120E-06 5.07746E-12 8.92727E-14-4.02406E-08
 -1     16847-8.35820E-07-1.77775E-07 1.29293E-06 5.64837E-11-9.86039E-13 3.71585E-08
 -1     16849-8.35820E-07-1.77775E-07 1.29293E-06 5.64837E-11 9.86039E-13-3.71585E-08
 -1     16850-8.02244E-07-1.77775E-07 1.25941E-06-6.16281E-11 1.07595E-12 3.59872E-08
 -1     16852-8.02244E-07-1.77775E-07 1.25941E-06-6.16281E-11-1.07595E-12-3.59872E-08
 -1     16853-8.50356E-07-1.77783E-07 1.30749E-06 7.34968E-12-1.28291E-13 3.76671E-08
 -1     16855-8.50356E-07-1.77783E-07 1.30749E-06 7.34968E-12 1.28291E-13-3.76671E-08
 -1     16856-7.70603E-07-1.77776E-07 1.22772E-06 5.00775E-11-8.74205E-13 3.48817E-08
 -1     16858-7.70603E-07-1.77776E-07 1.22772E-06 5.00775E-11 8.74205E-13-3.48817E-08
 -1     16859-7.40055E-07-1.77775E-07 1.19721E-06-5.44567E-11 9.50807E-13 3.38159E-08
 -1     16861-7.40055E-07-1.77775E-07 1.19721E-06-5.44567E-11-9.50807E-13-3.38159E-08
 -1     16862-7.83606E-07-1.77779E-07 1.24074E-06 6.14465E-12-1.07176E-13 3.53365E-08
 -1     16864-7.83606E-07-1.77779E-07 1.24074E-06 6.14465E-12 1.07176E-13-3.53365E-08
 -1     16865-7.11352E-07-1.77776E-07 1.16848E-06 4.49472E-11-7.84650E-13 3.28133E-08
 -1     16867-7.11352E-07-1.77776E-07 1.16848E-06 4.49472E-11 7.84650E-13-3.28133E-08
 -1     16868-6.83452E-07-1.77776E-07 1.14061E-06-4.82455E-11 8.42249E-13 3.18397E-08
 -1     16870-6.83452E-07-1.77776E-07 1.14061E-06-4.82455E-11-8.42249E-13-3.18397E-08
 -1     16871-7.23287E-07-1.77776E-07 1.18042E-06 3.60364E-12-6.29840E-14 3.32306E-08
 -1     16873-7.23287E-07-1.77776E-07 1.18042E-06 3.60364E-12 6.29840E-14-3.32306E-08
 -1     16874-6.56780E-07-1.77777E-07 1.11390E-06 4.08341E-11-7.12918E-13 3.09081E-08
 -1     16876-6.56780E-07-1.77777E-07 1.11390E-06 4.08341E-11 7.12918E-13-3.09081E-08
 -1     16877-6.31076E-07-1.77776E-07 1.08823E-06-4.45310E-11 7.77309E-13 3.00112E-08
 -1     16879-6.31076E-07-1.77776E-07 1.08823E-06-4.45310E-11-7.77309E-13-3.00112E-08
 -1     16880-6.67927E-07-1.77776E-07 1.12506E-06 3.00788E-12-5.26013E-14 3.12979E-08
 -1     16882-6.67927E-07-1.77776E-07 1.12506E-06 3.00788E-12 5.26013E-14-3.12979E-08
 -1     16883-6.06149E-07-1.77776E-07 1.06327E-06 3.71421E-11-6.48554E-13 2.91405E-08
 -1     16885-6.06149E-07-1.77776E-07 1.06327E-06 3.71421E-11 6.48554E-13-2.91405E-08
 -1     16886-5.82408E-07-1.77776E-07 1.03957E-06-4.14254E-11 7.23015E-13 2.83122E-08
 -1     16888-5.82408E-07-1.77776E-07 1.03957E-06-4.14254E-11-7.23015E-13-2.83122E-08
 -1     16889-6.16339E-07-1.77776E-07 1.07348E-06 3.26195E-12-5.70350E-14 2.94969E-08
 -1     16891-6.16339E-07-1.77776E-07 1.07348E-06 3.26195E-12 5.70350E-14-2.94969E-08
 -1     16892-5.59053E-07-1.77776E-07 1.01617E-06 3.34386E-11-5.84061E-13 2.74963E-08
 -1     16894-5.59053E-07-1.77776E-07 1.01617E-06 3.34386E-11 5.84061E-13-2.74963E-08
 -1     16895-5.37268E-07-1.77777E-07 9.94435E-07-3.79969E-11 6.63068E-13 2.67365E-08
 -1     16897-5.37268E-07-1.77777E-07 9.94435E-07-3.79969E-11-6.63068E-13-2.67365E-08
 -1     16898-5.68062E-07-1.77775E-07 1.02520E-06 4.19107E-12-7.32176E-14 2.78114E-08
 -1     16900-5.68062E-07-1.77775E-07 1.02520E-06 4.19107E-12 7.32176E-14-2.78114E-08
 -1     16901-5.15265E-07-1.77776E-07 9.72378E-07 2.78933E-11-4.87775E-13 2.59675E-08
 -1     16903-5.15265E-07-1.77776E-07 9.72378E-07 2.78933E-11 4.87775E-13-2.59675E-08
 -1     16904-4.95986E-07-1.77782E-07 9.53172E-07-2.42222E-11 4.22720E-13 2.52955E-08
 -1     16906-4.95986E-07-1.77782E-07 9.53172E-07-2.42222E-11-4.22720E-13-2.52955E-08
 -1     16907-5.22702E-07-1.77775E-07 9.79834E-07 5.64490E-12-9.84868E-14 2.62278E-08
 -1     16909-5.22702E-07-1.77775E-07 9.79834E-07 5.64490E-12 9.84868E-14-2.62278E-08
 -1     16910-2.03534E-06-1.77787E-07 2.49310E-06-5.23844E-11 9.14430E-13 7.90479E-08
 -1     16912-2.03534E-06-1.77787E-07 2.49310E-06-5.23844E-11-9.14430E-13-7.90479E-08
 -1     16913-1.86727E-06-1.77822E-07 2.32492E-06-1.37170E-10 2.39441E-12 7.31783E-08
 -1     16915-1.86727E-06-1.77822E-07 2.32492E-06-1.37170E-10-2.39441E-12-7.31783E-08
 -1     16916-1.94774E-06-1.77758E-07 2.40459E-06 1.59991E-11-2.76412E-13 7.59763E-08
 -1     16918-1.94774E-06-1.77758E-07 2.40459E-06 1.59991E-11 2.76412E-13-7.59763E-08
 -1     16919-1.94348E-06-1.77771E-07 2.40030E-06 3.79957E-11-6.63445E-13 7.58270E-08
 -1     16921-1.94348E-06-1.77771E-07 2.40030E-06 3.79957E-11 6.63445E-13-7.58270E-08
 -1     16922-1.77903E-06-1.77764E-07 2.23597E-06 8.40775E-11-1.47036E-12 7.00872E-08
 -1     16924-1.77903E-06-1.77764E-07 2.23597E-06 8.40775E-11 1.47036E-12-7.00872E-08
 -1     16925-3.74797E-07-1.77784E-07 8.31996E-07 7.00471E-12-1.22386E-13 2.10650E-08
 -1     16927-3.74797E-07-1.77784E-07 8.31996E-07 7.00471E-12 1.22386E-13-2.10650E-08
 -1     16928-7.03503E-07-1.77776E-07 1.16065E-06 4.28295E-11-7.47715E-13 3.25396E-08
 -1     16930-7.03503E-07-1.77776E-07 1.16065E-06 4.28295E-11 7.47715E-13-3.25396E-08
 -1     16931-7.31879E-07-1.77776E-07 1.18901E-06-4.48213E-11 7.82529E-13 3.35301E-08
 -1     16933-7.31879E-07-1.77776E-07 1.18901E-06-4.48213E-11-7.82529E-13-3.35301E-08
 -1     16934-7.46500E-07-1.77776E-07 1.20364E-06-1.24589E-12 2.18404E-14 3.40411E-08
 -1     16936-7.46500E-07-1.77776E-07 1.20364E-06-1.24589E-12-2.18404E-14-3.40411E-08
 -1     16937-6.89662E-07-1.77776E-07 1.14680E-06-1.21885E-12 2.13497E-14 3.20567E-08
 -1     16939-6.89662E-07-1.77776E-07 1.14680E-06-1.21885E-12-2.13497E-14-3.20567E-08
 -1     16940-1.94255E-06-1.77779E-07 2.39938E-06-7.47383E-12 1.30196E-13 7.57948E-08
 -1     16942-1.94255E-06-1.77779E-07 2.39938E-06-7.47383E-12-1.30196E-13-7.57948E-08
 -1     16943-1.94397E-06-1.77779E-07 2.40082E-06-3.67068E-12 6.43549E-14 7.58447E-08
 -1     16945-1.94397E-06-1.77779E-07 2.40082E-06-3.67068E-12-6.43549E-14-7.58447E-08
 -1     16946-6.24701E-07-1.77776E-07 1.08185E-06 3.33366E-11-5.82078E-13 2.97885E-08
 -1     16948-6.24701E-07-1.77776E-07 1.08185E-06 3.33366E-11 5.82078E-13-2.97885E-08
 -1     16949-6.49178E-07-1.77776E-07 1.10631E-06-3.45578E-11 6.03367E-13 3.06427E-08
 -1     16951-6.49178E-07-1.77776E-07 1.10631E-06-3.45578E-11-6.03367E-13-3.06427E-08
 -1     16952-7.91842E-07-1.77776E-07 1.24899E-06 5.33309E-11-9.31012E-13 3.56237E-08
 -1     16954-7.91842E-07-1.77776E-07 1.24899E-06 5.33309E-11 9.31012E-13-3.56237E-08
 -1     16955-8.24810E-07-1.77776E-07 1.28195E-06-5.58376E-11 9.74994E-13 3.67745E-08
 -1     16957-8.24810E-07-1.77776E-07 1.28195E-06-5.58376E-11-9.74994E-13-3.67745E-08
 -1     16958-1.47769E-06-1.77751E-07 1.93491E-06-1.97672E-10 3.45102E-12 5.95697E-08
 -1     16960-1.47769E-06-1.77751E-07 1.93491E-06-1.97672E-10-3.45102E-12-5.95697E-08
 -1     16961-1.43610E-06-1.77782E-07 1.89322E-06 3.04011E-11-5.31028E-13 5.81178E-08
 -1     16963-1.43610E-06-1.77782E-07 1.89322E-06 3.04011E-11 5.31028E-13-5.81178E-08
 -1     16964-1.55538E-06-1.77765E-07 2.01240E-06 1.72102E-10-3.00472E-12 6.22796E-08
 -1     16966-1.55538E-06-1.77765E-07 2.01240E-06 1.72102E-10 3.00472E-12-6.22796E-08
 -1     16967-1.13410E-06-1.77769E-07 1.59123E-06 2.30822E-12-3.99505E-14 4.75734E-08
 -1     16969-1.13410E-06-1.77769E-07 1.59123E-06 2.30822E-12 3.99505E-14-4.75734E-08
 -1     16970-1.15684E-06-1.77773E-07 1.61395E-06 8.94624E-11-1.56182E-12 4.83659E-08
 -1     16972-1.15684E-06-1.77773E-07 1.61395E-06 8.94624E-11 1.56182E-12-4.83659E-08
 -1     16973-3.90576E-07-1.77771E-07 8.47690E-07-2.89285E-12 5.11267E-14 2.16147E-08
 -1     16975-3.90576E-07-1.77771E-07 8.47690E-07-2.89285E-12-5.11267E-14-2.16147E-08
 -1     16976-1.85272E-06-1.77758E-07 2.31041E-06 2.70840E-11-4.72813E-13 7.26707E-08
 -1     16978-1.85272E-06-1.77758E-07 2.31041E-06 2.70840E-11 4.72813E-13-7.26707E-08
 -1     16979-4.33464E-07-1.77772E-07 8.90584E-07 1.31990E-11-2.31404E-13 2.31116E-08
 -1     16981-4.33464E-07-1.77772E-07 8.90584E-07 1.31990E-11 2.31404E-13-2.31116E-08
 -1     16982-4.49533E-07-1.77774E-07 9.06666E-07-1.45255E-11 2.52916E-13 2.36728E-08
 -1     16984-4.49533E-07-1.77774E-07 9.06666E-07-1.45255E-11-2.52916E-13-2.36728E-08
 -1     16985-4.29519E-07-1.77775E-07 8.86645E-07-1.76871E-12 3.19630E-14 2.29741E-08
 -1     16987-4.29519E-07-1.77775E-07 8.86645E-07-1.76871E-12-3.19630E-14-2.29741E-08
 -1     16988-4.80890E-07-1.77777E-07 9.38029E-07 2.14966E-11-3.75406E-13 2.47677E-08
 -1     16990-4.80890E-07-1.77777E-07 9.38029E-07 2.14966E-11 3.75406E-13-2.47677E-08
 -1     16991-4.99221E-07-1.77776E-07 9.56360E-07-2.43626E-11 4.25255E-13 2.54076E-08
 -1     16993-4.99221E-07-1.77776E-07 9.56360E-07-2.43626E-11-4.25255E-13-2.54076E-08
 -1     16994-4.73361E-07-1.77775E-07 9.30498E-07 6.77568E-13-1.17185E-14 2.45050E-08
 -1     16996-4.73361E-07-1.77775E-07 9.30498E-07 6.77568E-13 1.17185E-14-2.45050E-08
 -1     16997-4.81706E-07-1.77772E-07 9.38825E-07 3.98318E-12-7.02451E-14 2.47962E-08
 -1     16999-4.81706E-07-1.77772E-07 9.38825E-07 3.98318E-12 7.02451E-14-2.47962E-08
 -1     17000-1.93895E-06-1.77770E-07 2.39577E-06 7.86878E-12-1.37992E-13 7.56691E-08
 -1     17002-1.93895E-06-1.77770E-07 2.39577E-06 7.86878E-12 1.37992E-13-7.56691E-08
 -1     17003-1.84977E-06-1.77799E-07 2.30751E-06 1.33539E-11-2.33086E-13 7.25690E-08
 -1     17005-1.84977E-06-1.77799E-07 2.30751E-06 1.33539E-11 2.33086E-13-7.25690E-08
 -1     17006-1.94000E-06-1.77769E-07 2.39684E-06 2.85208E-12-4.89110E-14 7.57062E-08
 -1     17008-1.94000E-06-1.77769E-07 2.39684E-06 2.85208E-12 4.89110E-14-7.57062E-08
 -1     17009-1.58139E-06-1.77757E-07 2.03841E-06-1.49224E-10 2.60551E-12 6.31872E-08
 -1     17011-1.58139E-06-1.77757E-07 2.03841E-06-1.49224E-10-2.60551E-12-6.31872E-08
 -1     17012-1.61825E-06-1.77771E-07 2.07532E-06-5.22242E-11 9.12771E-13 6.44772E-08
 -1     17014-1.61825E-06-1.77771E-07 2.07532E-06-5.22242E-11-9.12771E-13-6.44772E-08
 -1     17015-1.85534E-06-1.77758E-07 2.31305E-06-1.92591E-11 3.36102E-13 7.27626E-08
 -1     17017-1.85534E-06-1.77758E-07 2.31305E-06-1.92591E-11-3.36102E-13-7.27626E-08
 -1     17018-8.59936E-07-1.77776E-07 1.31707E-06 6.33115E-11-1.10526E-12 3.80009E-08
 -1     17020-8.59936E-07-1.77776E-07 1.31707E-06 6.33115E-11 1.10526E-12-3.80009E-08
 -1     17021-8.96544E-07-1.77776E-07 1.35368E-06-6.68948E-11 1.16801E-12 3.92790E-08
 -1     17023-8.96544E-07-1.77776E-07 1.35368E-06-6.68948E-11-1.16801E-12-3.92790E-08
 -1     17024-8.42126E-07-1.77775E-07 1.29926E-06-1.36161E-12 2.38542E-14 3.73797E-08
 -1     17026-8.42126E-07-1.77775E-07 1.29926E-06-1.36161E-12-2.38542E-14-3.73797E-08
 -1     17027-1.76804E-06-1.77735E-07 2.22491E-06-5.44742E-11 9.59215E-13 6.97036E-08
 -1     17029-1.76804E-06-1.77735E-07 2.22491E-06-5.44742E-11-9.59215E-13-6.97036E-08
 -1     17030-1.77799E-06-1.77780E-07 2.23495E-06-6.16348E-11 1.06531E-12 7.00533E-08
 -1     17032-1.77799E-06-1.77780E-07 2.23495E-06-6.16348E-11-1.06531E-12-7.00533E-08
 -1     17033-5.80014E-07-1.77776E-07 1.03715E-06-3.10972E-11 5.42856E-13 2.82282E-08
 -1     17035-5.80014E-07-1.77776E-07 1.03715E-06-3.10972E-11-5.42856E-13-2.82282E-08
 -1     17036-5.91234E-07-1.77777E-07 1.04837E-06-5.62066E-13 9.76164E-15 2.86203E-08
 -1     17038-5.91234E-07-1.77777E-07 1.04837E-06-5.62066E-13-9.76164E-15-2.86203E-08
 -1     17039-5.58335E-07-1.77776E-07 1.01547E-06 2.94170E-11-5.13647E-13 2.74714E-08
 -1     17041-5.58335E-07-1.77776E-07 1.01547E-06 2.94170E-11 5.13647E-13-2.74714E-08
 -1     17042-1.02010E-06-1.77779E-07 1.47723E-06 8.00486E-11-1.39711E-12 4.35925E-08
 -1     17044-1.02010E-06-1.77779E-07 1.47723E-06 8.00486E-11 1.39711E-12-4.35925E-08
 -1     17045-1.06476E-06-1.77778E-07 1.52192E-06-9.19567E-11 1.60561E-12 4.51520E-08
 -1     17047-1.06476E-06-1.77778E-07 1.52192E-06-9.19567E-11-1.60561E-12-4.51520E-08
 -1     17048-1.51478E-06-1.77768E-07 1.97186E-06-1.60131E-10 2.79552E-12 6.08623E-08
 -1     17050-1.51478E-06-1.77768E-07 1.97186E-06-1.60131E-10-2.79552E-12-6.08623E-08
 -1     17051-1.55110E-06-1.77789E-07 2.00824E-06-1.45089E-11 2.53433E-13 6.21331E-08
 -1     17053-1.55110E-06-1.77789E-07 2.00824E-06-1.45089E-11-2.53433E-13-6.21331E-08
 -1     17054-1.50588E-06-1.77755E-07 1.96310E-06 1.60527E-10-2.80335E-12 6.05536E-08
 -1     17056-1.50588E-06-1.77755E-07 1.96310E-06 1.60527E-10 2.80335E-12-6.05536E-08
 -1     17057-1.44424E-06-1.77771E-07 1.90140E-06 1.48827E-10-2.59853E-12 5.84008E-08
 -1     17059-1.44424E-06-1.77771E-07 1.90140E-06 1.48827E-10 2.59853E-12-5.84008E-08
 -1     17060-1.64259E-06-1.77835E-07 2.09994E-06-1.45700E-10 2.54050E-12 6.53291E-08
 -1     17062-1.64259E-06-1.77835E-07 2.09994E-06-1.45700E-10-2.54050E-12-6.53291E-08
 -1     17063-1.59307E-06-1.77776E-07 2.05014E-06 4.86975E-11-8.51028E-13 6.35986E-08
 -1     17065-1.59307E-06-1.77776E-07 2.05014E-06 4.86975E-11 8.51028E-13-6.35986E-08
 -1     17066-1.20755E-06-1.77777E-07 1.66472E-06-9.20301E-11 1.60648E-12 5.01373E-08
 -1     17068-1.20755E-06-1.77777E-07 1.66472E-06-9.20301E-11-1.60648E-12-5.01373E-08
 -1     17069-1.31771E-06-1.77777E-07 1.77486E-06 1.24973E-10-2.18213E-12 5.39831E-08
 -1     17071-1.31771E-06-1.77777E-07 1.77486E-06 1.24973E-10 2.18213E-12-5.39831E-08
 -1     17072-1.37934E-06-1.77778E-07 1.83646E-06-1.34099E-10 2.34094E-12 5.61343E-08
 -1     17074-1.37934E-06-1.77778E-07 1.83646E-06-1.34099E-10-2.34094E-12-5.61343E-08
 -1     17075-1.41080E-06-1.77783E-07 1.86794E-06-9.50295E-12 1.65613E-13 5.72344E-08
 -1     17077-1.41080E-06-1.77783E-07 1.86794E-06-9.50295E-12-1.65613E-13-5.72344E-08
 -1     17078-1.28894E-06-1.77782E-07 1.74608E-06-1.42836E-12 2.47140E-14 5.29795E-08
 -1     17080-1.28894E-06-1.77782E-07 1.74608E-06-1.42836E-12-2.47140E-14-5.29795E-08
 -1     17081-6.74885E-07-1.77776E-07 1.13203E-06 3.97662E-11-6.94237E-13 3.15406E-08
 -1     17083-6.74885E-07-1.77776E-07 1.13203E-06 3.97662E-11 6.94237E-13-3.15406E-08
 -1     17084-7.01954E-07-1.77776E-07 1.15908E-06-4.07494E-11 7.11475E-13 3.24853E-08
 -1     17086-7.01954E-07-1.77776E-07 1.15908E-06-4.07494E-11-7.11475E-13-3.24853E-08
 -1     17087-6.61179E-07-1.77776E-07 1.11832E-06-2.79189E-12 4.88956E-14 3.10622E-08
 -1     17089-6.61179E-07-1.77776E-07 1.11832E-06-2.79189E-12-4.88956E-14-3.10622E-08
 -1     17090-1.11333E-06-1.77778E-07 1.57044E-06 8.39140E-11-1.46426E-12 4.68470E-08
 -1     17092-1.11333E-06-1.77778E-07 1.57044E-06 8.39140E-11 1.46426E-12-4.68470E-08
 -1     17093-1.16170E-06-1.77780E-07 1.61890E-06-9.14409E-11 1.59656E-12 4.85370E-08
 -1     17095-1.16170E-06-1.77780E-07 1.61890E-06-9.14409E-11-1.59656E-12-4.85370E-08
 -1     17096-1.09173E-06-1.77771E-07 1.54887E-06 5.02985E-12-8.75510E-14 4.60945E-08
 -1     17098-1.09173E-06-1.77771E-07 1.54887E-06 5.02985E-12 8.75510E-14-4.60945E-08
 -1     17099-1.61517E-06-1.77758E-07 2.07210E-06 1.46267E-10-2.54730E-12 6.43662E-08
 -1     17101-1.61517E-06-1.77758E-07 2.07210E-06 1.46267E-10 2.54730E-12-6.43662E-08
 -1     17102-1.52803E-06-1.77801E-07 1.98542E-06-2.05349E-10 3.58690E-12 6.13303E-08
 -1     17104-1.52803E-06-1.77801E-07 1.98542E-06-2.05349E-10-3.58690E-12-6.13303E-08
 -1     17105-1.71633E-06-1.77797E-07 2.17366E-06 1.91133E-10-3.34431E-12 6.79033E-08
 -1     17107-1.71633E-06-1.77797E-07 2.17366E-06 1.91133E-10 3.34431E-12-6.79033E-08
 -1     17108-1.81432E-06-1.77720E-07 2.27116E-06-9.81063E-11 1.70136E-12 7.13166E-08
 -1     17110-1.81432E-06-1.77720E-07 2.27116E-06-9.81063E-11-1.70136E-12-7.13166E-08
 -1     17111-1.46129E-06-1.77788E-07 1.91833E-06 1.41779E-10-2.47289E-12 5.89944E-08
 -1     17113-1.46129E-06-1.77788E-07 1.91833E-06 1.41779E-10 2.47289E-12-5.89944E-08
 -1     17114-1.39113E-06-1.77771E-07 1.84836E-06-1.53910E-10 2.68800E-12 5.65477E-08
 -1     17116-1.39113E-06-1.77771E-07 1.84836E-06-1.53910E-10-2.68800E-12-5.65477E-08
 -1     17117-1.48237E-06-1.77746E-07 1.93945E-06 7.97153E-12-1.39449E-13 5.97320E-08
 -1     17119-1.48237E-06-1.77746E-07 1.93945E-06 7.97153E-12 1.39449E-13-5.97320E-08
 -1     17120-4.49487E-07-1.77768E-07 9.06585E-07-5.59583E-12 9.57983E-14 2.36712E-08
 -1     17122-4.49487E-07-1.77768E-07 9.06585E-07-5.59583E-12-9.57983E-14-2.36712E-08
 -1     17123-4.48047E-07-1.77771E-07 9.05157E-07-4.79147E-12 8.51474E-14 2.36212E-08
 -1     17125-4.48047E-07-1.77771E-07 9.05157E-07-4.79147E-12-8.51474E-14-2.36212E-08
 -1     17126-4.65723E-07-1.77783E-07 9.22928E-07-1.48137E-11 2.58468E-13 2.42394E-08
 -1     17128-4.65723E-07-1.77783E-07 9.22928E-07-1.48137E-11-2.58468E-13-2.42394E-08
 -1     17129-1.77501E-06-1.77794E-07 2.23188E-06-2.89576E-11 5.02728E-13 6.99456E-08
 -1     17131-1.77501E-06-1.77794E-07 2.23188E-06-2.89576E-11-5.02728E-13-6.99456E-08
 -1     17132-1.77706E-06-1.77784E-07 2.23396E-06-3.52194E-11 6.15185E-13 7.00175E-08
 -1     17134-1.77706E-06-1.77784E-07 2.23396E-06-3.52194E-11-6.15185E-13-7.00175E-08
 -1     17135-4.84747E-07-1.77776E-07 9.41862E-07 3.28558E-11-5.75724E-13 2.49023E-08
 -1     17137-4.84747E-07-1.77776E-07 9.41862E-07 3.28558E-11 5.75724E-13-2.49023E-08
 -1     17138-1.77772E-06-1.77788E-07 2.23461E-06 2.86932E-11-5.00849E-13 7.00405E-08
 -1     17140-1.77772E-06-1.77788E-07 2.23461E-06 2.86932E-11 5.00849E-13-7.00405E-08
 -1     17141-1.77824E-06-1.77775E-07 2.23509E-06 1.68903E-13 1.05581E-15 7.00582E-08
 -1     17143-1.77824E-06-1.77775E-07 2.23509E-06 1.68903E-13-1.05581E-15-7.00582E-08
 -1     17144-1.69072E-06-1.77804E-07 2.14832E-06-7.55293E-11 1.31890E-12 6.70137E-08
 -1     17146-1.69072E-06-1.77804E-07 2.14832E-06-7.55293E-11-1.31890E-12-6.70137E-08
 -1     17147-1.70016E-06-1.77721E-07 2.15768E-06 2.15501E-11-3.76180E-13 6.73411E-08
 -1     17149-1.70016E-06-1.77721E-07 2.15768E-06 2.15501E-11 3.76180E-13-6.73411E-08
 -1     17150-7.60285E-07-1.77776E-07 1.21742E-06-4.79469E-11 8.37175E-13 3.45218E-08
 -1     17152-7.60285E-07-1.77776E-07 1.21742E-06-4.79469E-11-8.37175E-13-3.45218E-08
 -1     17153-7.75481E-07-1.77774E-07 1.23262E-06-1.77618E-12 3.11667E-14 3.50529E-08
 -1     17155-7.75481E-07-1.77774E-07 1.23262E-06-1.77618E-12-3.11667E-14-3.50529E-08
 -1     17156-7.30490E-07-1.77777E-07 1.18764E-06 4.55031E-11-7.94345E-13 3.34818E-08
 -1     17158-7.30490E-07-1.77777E-07 1.18764E-06 4.55031E-11 7.94345E-13-3.34818E-08
 -1     17159-1.33114E-06-1.77779E-07 1.78823E-06 1.15699E-10-2.01920E-12 5.44511E-08
 -1     17161-1.33114E-06-1.77779E-07 1.78823E-06 1.15699E-10 2.01920E-12-5.44511E-08
 -1     17162-1.27174E-06-1.77772E-07 1.72892E-06-1.22777E-10 2.14426E-12 5.23784E-08
 -1     17164-1.27174E-06-1.77772E-07 1.72892E-06-1.22777E-10-2.14426E-12-5.23784E-08
 -1     17165-1.35537E-06-1.77801E-07 1.81251E-06 1.69026E-11-2.94529E-13 5.52988E-08
 -1     17167-1.35537E-06-1.77801E-07 1.81251E-06 1.69026E-11 2.94529E-13-5.52988E-08
 -1     17168-1.21967E-06-1.77774E-07 1.67679E-06 1.09287E-10-1.90707E-12 5.05597E-08
 -1     17170-1.21967E-06-1.77774E-07 1.67679E-06 1.09287E-10 1.90707E-12-5.05597E-08
 -1     17171-1.16724E-06-1.77778E-07 1.62439E-06-9.69403E-11 1.69284E-12 4.87297E-08
 -1     17173-1.16724E-06-1.77778E-07 1.62439E-06-9.69403E-11-1.69284E-12-4.87297E-08
 -1     17174-1.24336E-06-1.77754E-07 1.70049E-06 8.57269E-12-1.50343E-13 5.13878E-08
 -1     17176-1.24336E-06-1.77754E-07 1.70049E-06 8.57269E-12 1.50343E-13-5.13878E-08
 -1     17177-1.11891E-06-1.77775E-07 1.57605E-06 9.06412E-11-1.58209E-12 4.70421E-08
 -1     17179-1.11891E-06-1.77775E-07 1.57605E-06 9.06412E-11 1.58209E-12-4.70421E-08
 -1     17180-1.07176E-06-1.77772E-07 1.52887E-06-8.47466E-11 1.48006E-12 4.53955E-08
 -1     17182-1.07176E-06-1.77772E-07 1.52887E-06-8.47466E-11-1.48006E-12-4.53955E-08
 -1     17183-1.14291E-06-1.77800E-07 1.60006E-06-8.76407E-12 1.53418E-13 4.78812E-08
 -1     17185-1.14291E-06-1.77800E-07 1.60006E-06-8.76407E-12-1.53418E-13-4.78812E-08
 -1     17186-1.02806E-06-1.77771E-07 1.48523E-06 7.86633E-11-1.37315E-12 4.38711E-08
 -1     17188-1.02806E-06-1.77771E-07 1.48523E-06 7.86633E-11 1.37315E-12-4.38711E-08
 -1     17189-9.85230E-07-1.77770E-07 1.44234E-06-7.30682E-11 1.27515E-12 4.23747E-08
 -1     17191-9.85230E-07-1.77770E-07 1.44234E-06-7.30682E-11-1.27515E-12-4.23747E-08
 -1     17192-1.05098E-06-1.77775E-07 1.50811E-06-7.20317E-12 1.24806E-13 4.46713E-08
 -1     17194-1.05098E-06-1.77775E-07 1.50811E-06-7.20317E-12-1.24806E-13-4.46713E-08
 -1     17195-9.41519E-07-1.77785E-07 1.39868E-06 6.76789E-11-1.18264E-12 4.08496E-08
 -1     17197-9.41519E-07-1.77785E-07 1.39868E-06 6.76789E-11 1.18264E-12-4.08496E-08
 -1     17198-9.02944E-07-1.77786E-07 1.36013E-06-5.98312E-11 1.04392E-12 3.95032E-08
 -1     17200-9.02944E-07-1.77786E-07 1.36013E-06-5.98312E-11-1.04392E-12-3.95032E-08
 -1     17201-9.63563E-07-1.77775E-07 1.42068E-06-1.05592E-11 1.83074E-13 4.16195E-08
 -1     17203-9.63563E-07-1.77775E-07 1.42068E-06-1.05592E-11-1.83074E-13-4.16195E-08
 -1     17204-8.65096E-07-1.77769E-07 1.32219E-06 5.31359E-11-9.27608E-13 3.81803E-08
 -1     17206-8.65096E-07-1.77769E-07 1.32219E-06 5.31359E-11 9.27608E-13-3.81803E-08
 -1     17207-8.29939E-07-1.77769E-07 1.28710E-06-6.07220E-11 1.06026E-12 3.69540E-08
 -1     17209-8.29939E-07-1.77769E-07 1.28710E-06-6.07220E-11-1.06026E-12-3.69540E-08
 -1     17210-8.82099E-07-1.77772E-07 1.33921E-06 9.29359E-12-1.63717E-13 3.87750E-08
 -1     17212-8.82099E-07-1.77772E-07 1.33921E-06 9.29359E-12 1.63717E-13-3.87750E-08
 -1     17213-7.97436E-07-1.77776E-07 1.25455E-06 5.11571E-11-8.92861E-13 3.58185E-08
 -1     17215-7.97436E-07-1.77776E-07 1.25455E-06 5.11571E-11 8.92861E-13-3.58185E-08
 -1     17216-7.65798E-07-1.77773E-07 1.22294E-06-5.37076E-11 9.38045E-13 3.47144E-08
 -1     17218-7.65798E-07-1.77773E-07 1.22294E-06-5.37076E-11-9.38045E-13-3.47144E-08
 -1     17219-8.11758E-07-1.77786E-07 1.26889E-06 9.14725E-12-1.59208E-13 3.63194E-08
 -1     17221-8.11758E-07-1.77786E-07 1.26889E-06 9.14725E-12 1.59208E-13-3.63194E-08
 -1     17222-7.36950E-07-1.77777E-07 1.19409E-06 4.55895E-11-7.95712E-13 3.37072E-08
 -1     17224-7.36950E-07-1.77777E-07 1.19409E-06 4.55895E-11 7.95712E-13-3.37072E-08
 -1     17225-7.08250E-07-1.77776E-07 1.16539E-06-4.57776E-11 7.99211E-13 3.27052E-08
 -1     17227-7.08250E-07-1.77776E-07 1.16539E-06-4.57776E-11-7.99211E-13-3.27052E-08
 -1     17228-7.50448E-07-1.77775E-07 1.20758E-06 2.09299E-13-3.91487E-15 3.41788E-08
 -1     17230-7.50448E-07-1.77775E-07 1.20758E-06 2.09299E-13 3.91487E-15-3.41788E-08
 -1     17231-6.80809E-07-1.77776E-07 1.13795E-06 4.31494E-11-7.53247E-13 3.17472E-08
 -1     17233-6.80809E-07-1.77776E-07 1.13795E-06 4.31494E-11 7.53247E-13-3.17472E-08
 -1     17234-6.54139E-07-1.77776E-07 1.11128E-06-4.36816E-11 7.62451E-13 3.08162E-08
 -1     17236-6.54139E-07-1.77776E-07 1.11128E-06-4.36816E-11-7.62451E-13-3.08162E-08
 -1     17237-6.94162E-07-1.77776E-07 1.15130E-06-1.37157E-12 2.36936E-14 3.22138E-08
 -1     17239-6.94162E-07-1.77776E-07 1.15130E-06-1.37157E-12-2.36936E-14-3.22138E-08
 -1     17240-6.28021E-07-1.77777E-07 1.08516E-06 4.10392E-11-7.16530E-13 2.99043E-08
 -1     17242-6.28021E-07-1.77777E-07 1.08516E-06 4.10392E-11 7.16530E-13-2.99043E-08
 -1     17243-6.03093E-07-1.77776E-07 1.06024E-06-4.29435E-11 7.49475E-13 2.90342E-08
 -1     17245-6.03093E-07-1.77776E-07 1.06024E-06-4.29435E-11-7.49475E-13-2.90342E-08
 -1     17246-6.40610E-07-1.77777E-07 1.09775E-06-9.53221E-13 1.64359E-14 3.03443E-08
 -1     17248-6.40610E-07-1.77777E-07 1.09775E-06-9.53221E-13-1.64359E-14-3.03443E-08
 -1     17249-5.78404E-07-1.77776E-07 1.03553E-06 3.90140E-11-6.81232E-13 2.81720E-08
 -1     17251-5.78404E-07-1.77776E-07 1.03553E-06 3.90140E-11 6.81232E-13-2.81720E-08
 -1     17252-5.55037E-07-1.77775E-07 1.01219E-06-4.20991E-11 7.34620E-13 2.73566E-08
 -1     17254-5.55037E-07-1.77775E-07 1.01219E-06-4.20991E-11-7.34620E-13-2.73566E-08
 -1     17255-5.89811E-07-1.77775E-07 1.04695E-06 5.92423E-13-1.05653E-14 2.85708E-08
 -1     17257-5.89811E-07-1.77775E-07 1.04695E-06 5.92423E-13 1.05653E-14-2.85708E-08
 -1     17258-5.31469E-07-1.77776E-07 9.88591E-07 3.78735E-11-6.61418E-13 2.65334E-08
 -1     17260-5.31469E-07-1.77776E-07 9.88591E-07 3.78735E-11 6.61418E-13-2.65334E-08
 -1     17261-5.09427E-07-1.77776E-07 9.66590E-07-4.69164E-11 8.18274E-13 2.57646E-08
 -1     17263-5.09427E-07-1.77776E-07 9.66590E-07-4.69164E-11-8.18274E-13-2.57646E-08
 -1     17264-5.41548E-07-1.77776E-07 9.98685E-07 1.89513E-12-3.32459E-14 2.68859E-08
 -1     17266-5.41548E-07-1.77776E-07 9.98685E-07 1.89513E-12 3.32459E-14-2.68859E-08
 -1     17267-9.35747E-07-1.77777E-07 1.39288E-06 7.24531E-11-1.26475E-12 4.06476E-08
 -1     17269-9.35747E-07-1.77777E-07 1.39288E-06 7.24531E-11 1.26475E-12-4.06476E-08
 -1     17270-9.76277E-07-1.77776E-07 1.43342E-06-7.90795E-11 1.38076E-12 4.20627E-08
 -1     17272-9.76277E-07-1.77776E-07 1.43342E-06-7.90795E-11-1.38076E-12-4.20627E-08
 -1     17273-9.16405E-07-1.77778E-07 1.37354E-06-1.48640E-13 2.51941E-15 3.99731E-08
 -1     17275-9.16405E-07-1.77778E-07 1.37354E-06-1.48640E-13-2.51941E-15-3.99731E-08
 -1     17276-9.99383E-07-1.77779E-07 1.45652E-06 2.90517E-12-5.07549E-14 4.28702E-08
 -1     17278-9.99383E-07-1.77779E-07 1.45652E-06 2.90517E-12 5.07549E-14-4.28702E-08
 -1     17279-1.55561E-06-1.77805E-07 2.01296E-06 2.15848E-10-3.77006E-12 6.22922E-08
 -1     17281-1.55561E-06-1.77805E-07 2.01296E-06 2.15848E-10 3.77006E-12-6.22922E-08
 -1     17282-1.63904E-06-1.77804E-07 2.09602E-06-5.37180E-11 9.28334E-13 6.51997E-08
 -1     17284-1.63904E-06-1.77804E-07 2.09602E-06-5.37180E-11-9.28334E-13-6.51997E-08
 -1     17285-5.17927E-07-1.77776E-07 9.75064E-07 2.57876E-11-4.50285E-13 2.60607E-08
 -1     17287-5.17927E-07-1.77776E-07 9.75064E-07 2.57876E-11 4.50285E-13-2.60607E-08
 -1     17288-5.37781E-07-1.77776E-07 9.94920E-07-2.66610E-11 4.65450E-13 2.67538E-08
 -1     17290-5.37781E-07-1.77776E-07 9.94920E-07-2.66610E-11-4.65450E-13-2.67538E-08
 -1     17291-5.48244E-07-1.77777E-07 1.00538E-06-1.04747E-13 1.80323E-15 2.71194E-08
 -1     17293-5.48244E-07-1.77777E-07 1.00538E-06-1.04747E-13-1.80323E-15-2.71194E-08
 -1     17294-5.08999E-07-1.77774E-07 9.66136E-07 3.39970E-13-5.81559E-15 2.57493E-08
 -1     17296-5.08999E-07-1.77774E-07 9.66136E-07 3.39970E-13 5.81559E-15-2.57493E-08
 -1     17297-6.01943E-07-1.77775E-07 1.05907E-06-3.10703E-11 5.42225E-13 2.89937E-08
 -1     17299-6.01943E-07-1.77775E-07 1.05907E-06-3.10703E-11-5.42225E-13-2.89937E-08
 -1     17300-6.12731E-07-1.77776E-07 1.06987E-06-1.56396E-12 2.75074E-14 2.93707E-08
 -1     17302-6.12731E-07-1.77776E-07 1.06987E-06-1.56396E-12-2.75074E-14-2.93707E-08
 -1     17303-5.79485E-07-1.77775E-07 1.03662E-06 2.98493E-11-5.21206E-13 2.82098E-08
 -1     17305-5.79485E-07-1.77775E-07 1.03662E-06 2.98493E-11 5.21206E-13-2.82098E-08
 -1     17306-9.77713E-07-1.77775E-07 1.43485E-06 8.18150E-11-1.42820E-12 4.21128E-08
 -1     17308-9.77713E-07-1.77775E-07 1.43485E-06 8.18150E-11 1.42820E-12-4.21128E-08
 -1     17309-1.02154E-06-1.77772E-07 1.47867E-06-9.16055E-11 1.59961E-12 4.36428E-08
 -1     17311-1.02154E-06-1.77772E-07 1.47867E-06-9.16055E-11-1.59961E-12-4.36428E-08
 -1     17312-1.19205E-06-1.77758E-07 1.64916E-06-4.06599E-12 7.23276E-14 4.95961E-08
 -1     17314-1.19205E-06-1.77758E-07 1.64916E-06-4.06599E-12-7.23276E-14-4.95961E-08
 -1     17315-1.21349E-06-1.77760E-07 1.67056E-06 8.39009E-11-1.46421E-12 5.03430E-08
 -1     17317-1.21349E-06-1.77760E-07 1.67056E-06 8.39009E-11 1.46421E-12-5.03430E-08
 -1     17318-4.93234E-07-1.77781E-07 9.50370E-07 2.56606E-12-4.45521E-14 2.51994E-08
 -1     17320-4.93234E-07-1.77781E-07 9.50370E-07 2.56606E-12 4.45521E-14-2.51994E-08
 -1     17321-1.62482E-06-1.77777E-07 2.08182E-06 4.42680E-11-7.69074E-13 6.47045E-08
 -1     17323-1.62482E-06-1.77777E-07 2.08182E-06 4.42680E-11 7.69074E-13-6.47045E-08
 -1     17324-4.29596E-07-1.77776E-07 8.86727E-07 1.27891E-11-2.22102E-13 2.29770E-08
 -1     17326-4.29596E-07-1.77776E-07 8.86727E-07 1.27891E-11 2.22102E-13-2.29770E-08
 -1     17327-4.42627E-07-1.77776E-07 8.99804E-07 7.59600E-12-1.32578E-13 2.34325E-08
 -1     17329-4.42627E-07-1.77776E-07 8.99804E-07 7.59600E-12 1.32578E-13-2.34325E-08
 -1     17330-4.26908E-07-1.77773E-07 8.84026E-07-9.05226E-13 1.56317E-14 2.28830E-08
 -1     17332-4.26908E-07-1.77773E-07 8.84026E-07-9.05226E-13-1.56317E-14-2.28830E-08
 -1     17333-7.15408E-07-1.77776E-07 1.17255E-06-2.54000E-12 4.44447E-14 3.29556E-08
 -1     17335-7.15408E-07-1.77776E-07 1.17255E-06-2.54000E-12-4.44447E-14-3.29556E-08
 -1     17336-4.57169E-07-1.77779E-07 9.14297E-07-2.88267E-12 5.17274E-14 2.39395E-08
 -1     17338-4.57169E-07-1.77779E-07 9.14297E-07-2.88267E-12-5.17274E-14-2.39395E-08
 -1     17339-4.64179E-07-1.77780E-07 9.21332E-07 1.14777E-11-2.00594E-13 2.41845E-08
 -1     17341-4.64179E-07-1.77780E-07 9.21332E-07 1.14777E-11 2.00594E-13-2.41845E-08
 -1     17342-4.81129E-07-1.77773E-07 9.38259E-07-2.25290E-11 3.93436E-13 2.47759E-08
 -1     17344-4.81129E-07-1.77773E-07 9.38259E-07-2.25290E-11-3.93436E-13-2.47759E-08
 -1     17345-4.57248E-07-1.77772E-07 9.14356E-07-1.20622E-11 2.12639E-13 2.39420E-08
 -1     17347-4.57248E-07-1.77772E-07 9.14356E-07-1.20622E-11-2.12639E-13-2.39420E-08
 -1     17348-1.76582E-06-1.77759E-07 2.22269E-06-3.81739E-12 6.34743E-14 6.96255E-08
 -1     17350-1.76582E-06-1.77759E-07 2.22269E-06-3.81739E-12-6.34743E-14-6.96255E-08
 -1     17351-1.69019E-06-1.77781E-07 2.14783E-06 1.23754E-10-2.16009E-12 6.69961E-08
 -1     17353-1.69019E-06-1.77781E-07 2.14783E-06 1.23754E-10 2.16009E-12-6.69961E-08
 -1     17354-1.76513E-06-1.77764E-07 2.22199E-06-2.00939E-11 3.53158E-13 6.96011E-08
 -1     17356-1.76513E-06-1.77764E-07 2.22199E-06-2.00939E-11-3.53158E-13-6.96011E-08
 -1     17357-4.41971E-07-1.77774E-07 8.99068E-07-1.12243E-11 1.97194E-13 2.34085E-08
 -1     17359-4.41971E-07-1.77774E-07 8.99068E-07-1.12243E-11-1.97194E-13-2.34085E-08
 -1     17360-4.39459E-07-1.77779E-07 8.96581E-07-6.95054E-12 1.21462E-13 2.33213E-08
 -1     17362-4.39459E-07-1.77779E-07 8.96581E-07-6.95054E-12-1.21462E-13-2.33213E-08
 -1     17363-6.45771E-07-1.77777E-07 1.10293E-06 3.57492E-11-6.24109E-13 3.05243E-08
 -1     17365-6.45771E-07-1.77777E-07 1.10293E-06 3.57492E-11 6.24109E-13-3.05243E-08
 -1     17366-6.71488E-07-1.77776E-07 1.12861E-06-3.64850E-11 6.37184E-13 3.14215E-08
 -1     17368-6.71488E-07-1.77776E-07 1.12861E-06-3.64850E-11-6.37184E-13-3.14215E-08
 -1     17369-4.62559E-07-1.77781E-07 9.19746E-07 2.64087E-11-4.60661E-13 2.41287E-08
 -1     17371-4.62559E-07-1.77781E-07 9.19746E-07 2.64087E-11 4.60661E-13-2.41287E-08
 -1     17372-7.58278E-07-1.77779E-07 1.21543E-06 4.88623E-11-8.52856E-13 3.44521E-08
 -1     17374-7.58278E-07-1.77779E-07 1.21543E-06 4.88623E-11 8.52856E-13-3.44521E-08
 -1     17375-7.89838E-07-1.77776E-07 1.24697E-06-5.42440E-11 9.47246E-13 3.55536E-08
 -1     17377-7.89838E-07-1.77776E-07 1.24697E-06-5.42440E-11-9.47246E-13-3.55536E-08
 -1     17378-4.30315E-07-1.77783E-07 8.87444E-07-1.65814E-11 2.89193E-13 2.30020E-08
 -1     17380-4.30315E-07-1.77783E-07 8.87444E-07-1.65814E-11-2.89193E-13-2.30020E-08
 -1     17381-8.23633E-07-1.77776E-07 1.28077E-06 6.23762E-11-1.08890E-12 3.67335E-08
 -1     17383-8.23633E-07-1.77776E-07 1.28077E-06 6.23762E-11 1.08890E-12-3.67335E-08
 -1     17384-8.58737E-07-1.77779E-07 1.31588E-06-6.19689E-11 1.08211E-12 3.79592E-08
 -1     17386-8.58737E-07-1.77779E-07 1.31588E-06-6.19689E-11-1.08211E-12-3.79592E-08
 -1     17387-8.06047E-07-1.77769E-07 1.26318E-06-2.13791E-12 3.77550E-14 3.61201E-08
 -1     17389-8.06047E-07-1.77769E-07 1.26318E-06-2.13791E-12-3.77550E-14-3.61201E-08
 -1     17390-1.85251E-06-1.77773E-07 2.31024E-06-3.81902E-11 6.66679E-13 7.26643E-08
 -1     17392-1.85251E-06-1.77773E-07 2.31024E-06-3.81902E-11-6.66679E-13-7.26643E-08
 -1     17393-4.36238E-07-1.77773E-07 8.93343E-07-7.93441E-12 1.38698E-13 2.32084E-08
 -1     17395-4.36238E-07-1.77773E-07 8.93343E-07-7.93441E-12-1.38698E-13-2.32084E-08
 -1     17396-4.33856E-07-1.77774E-07 8.90977E-07 2.03935E-13-3.38389E-15 2.31256E-08
 -1     17398-4.33856E-07-1.77774E-07 8.90977E-07 2.03935E-13 3.38389E-15-2.31256E-08
 -1     17399-4.53134E-07-1.77775E-07 9.10320E-07 3.96011E-12-6.90104E-14 2.37995E-08
 -1     17401-4.53134E-07-1.77775E-07 9.10320E-07 3.96011E-12 6.90104E-14-2.37995E-08
 -1     17402-4.46235E-07-1.77784E-07 9.03427E-07 1.55579E-11-2.71958E-13 2.35588E-08
 -1     17404-4.46235E-07-1.77784E-07 9.03427E-07 1.55579E-11 2.71958E-13-2.35588E-08
 -1     17405-1.49218E-06-1.77771E-07 1.94925E-06-1.45785E-10 2.54394E-12 6.00729E-08
 -1     17407-1.49218E-06-1.77771E-07 1.94925E-06-1.45785E-10-2.54394E-12-6.00729E-08
 -1     17408-1.51210E-06-1.77692E-07 1.96913E-06 9.17945E-12-1.60227E-13 6.07684E-08
 -1     17410-1.51210E-06-1.77692E-07 1.96913E-06 9.17945E-12 1.60227E-13-6.07684E-08
 -1     17411-1.69787E-06-1.77734E-07 2.15538E-06-4.35111E-11 7.59735E-13 6.72611E-08
 -1     17413-1.69787E-06-1.77734E-07 2.15538E-06-4.35111E-11-7.59735E-13-6.72611E-08
 -1     17414-1.77440E-06-1.77767E-07 2.23131E-06 2.97920E-11-5.19698E-13 6.99253E-08
 -1     17416-1.77440E-06-1.77767E-07 2.23131E-06 2.97920E-11 5.19698E-13-6.99253E-08
 -1     17417-1.77114E-06-1.77785E-07 2.22797E-06 3.73959E-11-6.51678E-13 6.98100E-08
 -1     17419-1.77114E-06-1.77785E-07 2.22797E-06 3.73959E-11 6.51678E-13-6.98100E-08
 -1     17420-1.63452E-06-1.77763E-07 2.09142E-06 5.10197E-11-8.79445E-13 6.50405E-08
 -1     17422-1.63452E-06-1.77763E-07 2.09142E-06 5.10197E-11 8.79445E-13-6.50405E-08
 -1     17423-1.44030E-06-1.77776E-07 1.89738E-06-1.35963E-10 2.37265E-12 5.82617E-08
 -1     17425-1.44030E-06-1.77776E-07 1.89738E-06-1.35963E-10-2.37265E-12-5.82617E-08
 -1     17426-1.46955E-06-1.77760E-07 1.92666E-06-1.85858E-11 3.25257E-13 5.92848E-08
 -1     17428-1.46955E-06-1.77760E-07 1.92666E-06-1.85858E-11-3.25257E-13-5.92848E-08
 -1     17429-1.42652E-06-1.77801E-07 1.88380E-06 6.90573E-11-1.20673E-12 5.77835E-08
 -1     17431-1.42652E-06-1.77801E-07 1.88380E-06 6.90573E-11 1.20673E-12-5.77835E-08
 -1     17432-1.37534E-06-1.77776E-07 1.83250E-06 1.27167E-10-2.22073E-12 5.59951E-08
 -1     17434-1.37534E-06-1.77776E-07 1.83250E-06 1.27167E-10 2.22073E-12-5.59951E-08
 -1     17435-1.23428E-06-1.77775E-07 1.69141E-06 5.83192E-12-1.01288E-13 5.10707E-08
 -1     17437-1.23428E-06-1.77775E-07 1.69141E-06 5.83192E-12 1.01288E-13-5.10707E-08
 -1     17438-1.25937E-06-1.77772E-07 1.71648E-06 1.10412E-10-1.92834E-12 5.19455E-08
 -1     17440-1.25937E-06-1.77772E-07 1.71648E-06 1.10412E-10 1.92834E-12-5.19455E-08
 -1     17441-1.31637E-06-1.77780E-07 1.77351E-06-1.10874E-10 1.93529E-12 5.39360E-08
 -1     17443-1.31637E-06-1.77780E-07 1.77351E-06-1.10874E-10-1.93529E-12-5.39360E-08
 -1     17444-1.07018E-06-1.77787E-07 1.52732E-06 9.20594E-11-1.60634E-12 4.53412E-08
 -1     17446-1.07018E-06-1.77787E-07 1.52732E-06 9.20594E-11 1.60634E-12-4.53412E-08
 -1     17447-1.11869E-06-1.77780E-07 1.57588E-06-1.29377E-10 2.25986E-12 4.70358E-08
 -1     17449-1.11869E-06-1.77780E-07 1.57588E-06-1.29377E-10-2.25986E-12-4.70358E-08
 -1     17450-1.04787E-06-1.77790E-07 1.50501E-06 8.89081E-13-1.54214E-14 4.45634E-08
 -1     17452-1.04787E-06-1.77790E-07 1.50501E-06 8.89081E-13 1.54214E-14-4.45634E-08
 -1     17453-1.26527E-06-1.77782E-07 1.72251E-06-5.18791E-11 9.05242E-13 5.21532E-08
 -1     17455-1.26527E-06-1.77782E-07 1.72251E-06-5.18791E-11-9.05242E-13-5.21532E-08
 -1     17456-6.21461E-07-1.77775E-07 1.07858E-06-2.85861E-11 4.99260E-13 2.96749E-08
 -1     17458-6.21461E-07-1.77775E-07 1.07858E-06-2.85861E-11-4.99260E-13-2.96749E-08
 -1     17459-6.31511E-07-1.77774E-07 1.08864E-06-3.63657E-12 6.38560E-14 3.00263E-08
 -1     17461-6.31511E-07-1.77774E-07 1.08864E-06-3.63657E-12-6.38560E-14-3.00263E-08
 -1     17462-5.98693E-07-1.77778E-07 1.05586E-06 2.01718E-11-3.52418E-13 2.88808E-08
 -1     17464-5.98693E-07-1.77778E-07 1.05586E-06 2.01718E-11 3.52418E-13-2.88808E-08
 -1     17465-1.17744E-06-1.77784E-07 1.63452E-06 1.23363E-10-2.15055E-12 4.90853E-08
 -1     17467-1.17744E-06-1.77784E-07 1.63452E-06 1.23363E-10 2.15055E-12-4.90853E-08
 -1     17468-1.22903E-06-1.77818E-07 1.68642E-06-6.59193E-11 1.15215E-12 5.08912E-08
 -1     17470-1.22903E-06-1.77818E-07 1.68642E-06-6.59193E-11-1.15215E-12-5.08912E-08
 -1     17471-1.15513E-06-1.77749E-07 1.61223E-06-1.89300E-12 3.35062E-14 4.83081E-08
 -1     17473-1.15513E-06-1.77749E-07 1.61223E-06-1.89300E-12-3.35062E-14-4.83081E-08
 -1     17474-9.35592E-07-1.77775E-07 1.39273E-06-7.59660E-11 1.32634E-12 4.06422E-08
 -1     17476-9.35592E-07-1.77775E-07 1.39273E-06-7.59660E-11-1.32634E-12-4.06422E-08
 -1     17477-9.57171E-07-1.77782E-07 1.41431E-06-3.81011E-13 6.40440E-15 4.13965E-08
 -1     17479-9.57171E-07-1.77782E-07 1.41431E-06-3.81011E-13-6.40440E-15-4.13965E-08
 -1     17480-8.96401E-07-1.77774E-07 1.35353E-06 7.05517E-11-1.23172E-12 3.92739E-08
 -1     17482-8.96401E-07-1.77774E-07 1.35353E-06 7.05517E-11 1.23172E-12-3.92739E-08
 -1     17483-1.64256E-06-1.77782E-07 2.09948E-06 1.60619E-11-2.73264E-13 6.53209E-08
 -1     17485-1.64256E-06-1.77782E-07 2.09948E-06 1.60619E-11 2.73264E-13-6.53209E-08
 -1     17486-1.56688E-06-1.77782E-07 2.02425E-06-1.31428E-10 2.29575E-12 6.26855E-08
 -1     17488-1.56688E-06-1.77782E-07 2.02425E-06-1.31428E-10-2.29575E-12-6.26855E-08
 -1     17489-1.64188E-06-1.77782E-07 2.09879E-06-2.97359E-11 5.09915E-13 6.52971E-08
 -1     17491-1.64188E-06-1.77782E-07 2.09879E-06-2.97359E-11-5.09915E-13-6.52971E-08
 -1     17492-5.58209E-07-1.77776E-07 1.01535E-06-2.73334E-11 4.77171E-13 2.74670E-08
 -1     17494-5.58209E-07-1.77776E-07 1.01535E-06-2.73334E-11-4.77171E-13-2.74670E-08
 -1     17495-5.68686E-07-1.77783E-07 1.02583E-06-4.08822E-13 6.82763E-15 2.78331E-08
 -1     17497-5.68686E-07-1.77783E-07 1.02583E-06-4.08822E-13-6.82763E-15-2.78331E-08
 -1     17498-5.37660E-07-1.77775E-07 9.94794E-07 2.77625E-11-4.84765E-13 2.67495E-08
 -1     17500-5.37660E-07-1.77775E-07 9.94794E-07 2.77625E-11 4.84765E-13-2.67495E-08
 -1     17501-4.67320E-07-1.77770E-07 9.24422E-07-8.78772E-12 1.51255E-13 2.42937E-08
 -1     17503-4.67320E-07-1.77770E-07 9.24422E-07-8.78772E-12-1.51255E-13-2.42937E-08
 -1     17504-4.63659E-07-1.77772E-07 9.20779E-07-7.49112E-12 1.31478E-13 2.41664E-08
 -1     17506-4.63659E-07-1.77772E-07 9.20779E-07-7.49112E-12-1.31478E-13-2.41664E-08
 -1     17507-1.47928E-06-1.77842E-07 1.93673E-06 1.06731E-10-1.85842E-12 5.96294E-08
 -1     17509-1.47928E-06-1.77842E-07 1.93673E-06 1.06731E-10 1.85842E-12-5.96294E-08
 -1     17510-1.54297E-06-1.77826E-07 2.00036E-06-1.65400E-10 2.89394E-12 6.18520E-08
 -1     17512-1.54297E-06-1.77826E-07 2.00036E-06-1.65400E-10-2.89394E-12-6.18520E-08
 -1     17513-6.99075E-07-1.77776E-07 1.15623E-06 4.38892E-11-7.66113E-13 3.23852E-08
 -1     17515-6.99075E-07-1.77776E-07 1.15623E-06 4.38892E-11 7.66113E-13-3.23852E-08
 -1     17516-7.27620E-07-1.77775E-07 1.18474E-06-4.34106E-11 7.58065E-13 3.33812E-08
 -1     17518-7.27620E-07-1.77775E-07 1.18474E-06-4.34106E-11-7.58065E-13-3.33812E-08
 -1     17519-7.41612E-07-1.77779E-07 1.19875E-06-4.44522E-12 7.77405E-14 3.38705E-08
 -1     17521-7.41612E-07-1.77779E-07 1.19875E-06-4.44522E-12-7.77405E-14-3.38705E-08
 -1     17522-6.83384E-07-1.77776E-07 1.14052E-06-5.33907E-12 9.33350E-14 3.18375E-08
 -1     17524-6.83384E-07-1.77776E-07 1.14052E-06-5.33907E-12-9.33350E-14-3.18375E-08
 -1     17525-1.38058E-06-1.77735E-07 1.83758E-06 6.25421E-11-1.08950E-12 5.61753E-08
 -1     17527-1.38058E-06-1.77735E-07 1.83758E-06 6.25421E-11 1.08950E-12-5.61753E-08
 -1     17528-1.32050E-06-1.77721E-07 1.77759E-06-9.63841E-11 1.68421E-12 5.40792E-08
 -1     17530-1.32050E-06-1.77721E-07 1.77759E-06-9.63841E-11-1.68421E-12-5.40792E-08
 -1     17531-1.26803E-06-1.77814E-07 1.72524E-06 1.00775E-10-1.75928E-12 5.22494E-08
 -1     17533-1.26803E-06-1.77814E-07 1.72524E-06 1.00775E-10 1.75928E-12-5.22494E-08
 -1     17534-1.21595E-06-1.77820E-07 1.67317E-06-8.09543E-11 1.41348E-12 5.04312E-08
 -1     17536-1.21595E-06-1.77820E-07 1.67317E-06-8.09543E-11-1.41348E-12-5.04312E-08
 -1     17537-1.29246E-06-1.77744E-07 1.74952E-06 1.55425E-11-2.76174E-13 5.31007E-08
 -1     17539-1.29246E-06-1.77744E-07 1.74952E-06 1.55425E-11 2.76174E-13-5.31007E-08
 -1     17540-1.16940E-06-1.77750E-07 1.62650E-06 8.02572E-11-1.39956E-12 4.88041E-08
 -1     17542-1.16940E-06-1.77750E-07 1.62650E-06 8.02572E-11 1.39956E-12-4.88041E-08
 -1     17543-1.12106E-06-1.77760E-07 1.57813E-06-4.74626E-11 8.30990E-13 4.71159E-08
 -1     17545-1.12106E-06-1.77760E-07 1.57813E-06-4.74626E-11-8.30990E-13-4.71159E-08
 -1     17546-1.19352E-06-1.77774E-07 1.65060E-06 1.61898E-12-3.16591E-14 4.96466E-08
 -1     17548-1.19352E-06-1.77774E-07 1.65060E-06 1.61898E-12 3.16591E-14-4.96466E-08
 -1     17549-1.08037E-06-1.77780E-07 1.53761E-06 4.51908E-11-7.88446E-13 4.56981E-08
 -1     17551-1.08037E-06-1.77780E-07 1.53761E-06 4.51908E-11 7.88446E-13-4.56981E-08
 -1     17552-1.03671E-06-1.77775E-07 1.49379E-06-5.92622E-11 1.03505E-12 4.41716E-08
 -1     17554-1.03671E-06-1.77775E-07 1.49379E-06-5.92622E-11-1.03505E-12-4.41716E-08
 -1     17555-1.10631E-06-1.77780E-07 1.56339E-06 4.73733E-12-8.79196E-14 4.66018E-08
 -1     17557-1.10631E-06-1.77780E-07 1.56339E-06 4.73733E-12 8.79195E-14-4.66018E-08
 -1     17558-9.95790E-07-1.77791E-07 1.45303E-06 7.05022E-11-1.23012E-12 4.27455E-08
 -1     17560-9.95790E-07-1.77791E-07 1.45303E-06 7.05022E-11 1.23012E-12-4.27455E-08
 -1     17561-9.52102E-07-1.77768E-07 1.40918E-06-4.98661E-11 8.73866E-13 4.12180E-08
 -1     17563-9.52102E-07-1.77768E-07 1.40918E-06-4.98661E-11-8.73866E-13-4.12180E-08
 -1     17564-1.02480E-06-1.77769E-07 1.48191E-06-2.21766E-12 3.86644E-14 4.37568E-08
 -1     17566-1.02480E-06-1.77769E-07 1.48191E-06-2.21766E-12-3.86644E-14-4.37568E-08
 -1     17567-8.89894E-07-1.77763E-07 1.34697E-06 3.27998E-11-5.69335E-13 3.90461E-08
 -1     17569-8.89894E-07-1.77763E-07 1.34697E-06 3.27998E-11 5.69335E-13-3.90461E-08
 -1     17570-8.52038E-07-1.77787E-07 1.30927E-06-3.24944E-11 5.68104E-13 3.77266E-08
 -1     17572-8.52038E-07-1.77787E-07 1.30927E-06-3.24944E-11-5.68104E-13-3.77266E-08
 -1     17573-9.50921E-07-1.77771E-07 1.40802E-06-2.57448E-12 4.76131E-14 4.11769E-08
 -1     17575-9.50921E-07-1.77771E-07 1.40802E-06-2.57448E-12-4.76131E-14-4.11769E-08
 -1     17576-9.19033E-07-1.77789E-07 1.37629E-06 8.66794E-12-1.51311E-13 4.00658E-08
 -1     17578-9.19033E-07-1.77789E-07 1.37629E-06 8.66794E-12 1.51311E-13-4.00658E-08
 -1     17579-8.25497E-07-1.77774E-07 1.28259E-06 3.39001E-11-5.89354E-13 3.67977E-08
 -1     17581-8.25497E-07-1.77774E-07 1.28259E-06 3.39001E-11 5.89354E-13-3.67977E-08
 -1     17582-7.92970E-07-1.77769E-07 1.25010E-06-4.39958E-11 7.69567E-13 3.56626E-08
 -1     17584-7.92970E-07-1.77769E-07 1.25010E-06-4.39958E-11-7.69567E-13-3.56626E-08
 -1     17585-8.33031E-07-1.77777E-07 1.29013E-06-2.30103E-12 3.79014E-14 3.70610E-08
 -1     17587-8.33031E-07-1.77777E-07 1.29013E-06-2.30103E-12-3.79014E-14-3.70610E-08
 -1     17588-7.66554E-07-1.77782E-07 1.22372E-06 3.17638E-11-5.54042E-13 3.47411E-08
 -1     17590-7.66554E-07-1.77782E-07 1.22372E-06 3.17638E-11 5.54042E-13-3.47411E-08
 -1     17591-7.37707E-07-1.77774E-07 1.19483E-06-4.00246E-11 6.98697E-13 3.37333E-08
 -1     17593-7.37707E-07-1.77774E-07 1.19483E-06-4.00246E-11-6.98697E-13-3.37333E-08
 -1     17594-7.79968E-07-1.77774E-07 1.23708E-06-8.78381E-13 1.30739E-14 3.52088E-08
 -1     17596-7.79968E-07-1.77774E-07 1.23708E-06-8.78381E-13-1.30739E-14-3.52088E-08
 -1     17597-7.09634E-07-1.77777E-07 1.16679E-06 4.19079E-11-7.31534E-13 3.27538E-08
 -1     17599-7.09634E-07-1.77777E-07 1.16679E-06 4.19079E-11 7.31534E-13-3.27538E-08
 -1     17600-6.82199E-07-1.77776E-07 1.13932E-06-4.00671E-11 6.99290E-13 3.17955E-08
 -1     17602-6.82199E-07-1.77776E-07 1.13932E-06-4.00671E-11-6.99290E-13-3.17955E-08
 -1     17603-7.25442E-07-1.77774E-07 1.18257E-06-3.40953E-12 5.90379E-14 3.33057E-08
 -1     17605-7.25442E-07-1.77774E-07 1.18257E-06-3.40953E-12-5.90379E-14-3.33057E-08
 -1     17606-6.55020E-07-1.77776E-07 1.11217E-06 4.32346E-11-7.54759E-13 3.08471E-08
 -1     17608-6.55020E-07-1.77776E-07 1.11217E-06 4.32346E-11 7.54759E-13-3.08471E-08
 -1     17609-6.28904E-07-1.77775E-07 1.08603E-06-4.09184E-11 7.14055E-13 2.99350E-08
 -1     17611-6.28904E-07-1.77775E-07 1.08603E-06-4.09184E-11-7.14055E-13-2.99350E-08
 -1     17612-6.70196E-07-1.77776E-07 1.12733E-06-5.04701E-12 8.78502E-14 3.13771E-08
 -1     17614-6.70196E-07-1.77776E-07 1.12733E-06-5.04701E-12-8.78502E-14-3.13771E-08
 -1     17615-6.02595E-07-1.77778E-07 1.05974E-06 4.18176E-11-7.30211E-13 2.90169E-08
 -1     17617-6.02595E-07-1.77778E-07 1.05974E-06 4.18176E-11 7.30211E-13-2.90169E-08
 -1     17618-5.77907E-07-1.77776E-07 1.03505E-06-4.27680E-11 7.46365E-13 2.81549E-08
 -1     17620-5.77907E-07-1.77776E-07 1.03505E-06-4.27680E-11-7.46365E-13-2.81549E-08
 -1     17621-6.16705E-07-1.77779E-07 1.07384E-06-3.86517E-12 6.72502E-14 2.95098E-08
 -1     17623-6.16705E-07-1.77779E-07 1.07384E-06-3.86517E-12-6.72502E-14-2.95098E-08
 -1     17624-5.53384E-07-1.77776E-07 1.01052E-06 4.29368E-11-7.49572E-13 2.72986E-08
 -1     17626-5.53384E-07-1.77776E-07 1.01052E-06 4.29368E-11 7.49572E-13-2.72986E-08
 -1     17627-5.29802E-07-1.77778E-07 9.86951E-07-3.91540E-11 6.83511E-13 2.64756E-08
 -1     17629-5.29802E-07-1.77778E-07 9.86951E-07-3.91540E-11-6.83511E-13-2.64756E-08
 -1     17630-5.65894E-07-1.77772E-07 1.02303E-06-1.27863E-12 2.19231E-14 2.77358E-08
 -1     17632-5.65894E-07-1.77772E-07 1.02303E-06-1.27863E-12-2.19231E-14-2.77358E-08
 -1     17633-1.50335E-06-1.77811E-07 1.96044E-06 1.37504E-10-2.39919E-12 6.04635E-08
 -1     17635-1.50335E-06-1.77811E-07 1.96044E-06 1.37504E-10 2.39919E-12-6.04635E-08
 -1     17636-1.43638E-06-1.77826E-07 1.89373E-06-9.81416E-11 1.71413E-12 5.81290E-08
 -1     17638-1.43638E-06-1.77826E-07 1.89373E-06-9.81416E-11-1.71413E-12-5.81290E-08
 -1     17639-1.40081E-06-1.77762E-07 1.85787E-06-1.53916E-11 2.62905E-13 5.68835E-08
 -1     17641-1.40081E-06-1.77762E-07 1.85787E-06-1.53916E-11-2.62905E-13-5.68835E-08
 -1     17642-1.52036E-06-1.77756E-07 1.97741E-06 1.63302E-11-2.84354E-13 6.10573E-08
 -1     17644-1.52036E-06-1.77756E-07 1.97741E-06 1.63302E-11 2.84354E-13-6.10573E-08
 -1     17645-1.34493E-06-1.77810E-07 1.80208E-06-2.44317E-12 4.15764E-14 5.49343E-08
 -1     17647-1.34493E-06-1.77810E-07 1.80208E-06-2.44317E-12-4.15764E-14-5.49343E-08
 -1     17648-8.77439E-07-1.77782E-07 1.33458E-06 1.11243E-13-2.12531E-15 3.86127E-08
 -1     17650-8.77439E-07-1.77782E-07 1.33458E-06 1.11243E-13 2.12531E-15-3.86127E-08
 -1     17651-5.78986E-07-1.77771E-07 1.03610E-06-1.99162E-11 3.46899E-13 2.81920E-08
 -1     17653-5.78986E-07-1.77771E-07 1.03610E-06-1.99162E-11-3.46899E-13-2.81920E-08
 -1     17654-5.87520E-07-1.77776E-07 1.04464E-06-1.25128E-12 2.38243E-14 2.84902E-08
 -1     17656-5.87520E-07-1.77776E-07 1.04464E-06-1.25128E-12-2.38243E-14-2.84902E-08
 -1     17657-5.57706E-07-1.77769E-07 1.01483E-06 2.09410E-11-3.66275E-13 2.74491E-08
 -1     17659-5.57706E-07-1.77769E-07 1.01483E-06 2.09410E-11 3.66275E-13-2.74491E-08
 -1     17660-1.61759E-06-1.77792E-07 2.07457E-06-8.14397E-11 1.41555E-12 6.44524E-08
 -1     17662-1.61759E-06-1.77792E-07 2.07457E-06-8.14397E-11-1.41555E-12-6.44524E-08
 -1     17663-1.56048E-06-1.77734E-07 2.01782E-06 1.23323E-10-2.15612E-12 6.24619E-08
 -1     17665-1.56048E-06-1.77734E-07 2.01782E-06 1.23323E-10 2.15612E-12-6.24619E-08
 -1     17666-1.60887E-06-1.77774E-07 2.06574E-06-7.70674E-11 1.34359E-12 6.41459E-08
 -1     17668-1.60887E-06-1.77774E-07 2.06574E-06-7.70674E-11-1.34359E-12-6.41459E-08
 -1     17669-5.07359E-07-1.77771E-07 9.64489E-07 4.61088E-11-8.04032E-13 2.56918E-08
 -1     17671-5.07359E-07-1.77771E-07 9.64489E-07 4.61088E-11 8.04032E-13-2.56918E-08
 -1     17672-4.82666E-07-1.77778E-07 9.39797E-07-3.71208E-11 6.49622E-13 2.48299E-08
 -1     17674-4.82666E-07-1.77778E-07 9.39797E-07-3.71208E-11-6.49622E-13-2.48299E-08
 -1     17675-4.76420E-07-1.77777E-07 9.33550E-07-5.82730E-12 1.02519E-13 2.46119E-08
 -1     17677-4.76420E-07-1.77777E-07 9.33550E-07-5.82730E-12-1.02519E-13-2.46119E-08
 -1     17678-4.78350E-07-1.77783E-07 9.35525E-07 2.16913E-11-3.78004E-13 2.46797E-08
 -1     17680-4.78350E-07-1.77783E-07 9.35525E-07 2.16913E-11 3.78004E-13-2.46797E-08
 -1     17681-1.68683E-06-1.77851E-07 2.14455E-06-7.47195E-11 1.30389E-12 6.68806E-08
 -1     17683-1.68683E-06-1.77851E-07 2.14455E-06-7.47195E-11-1.30389E-12-6.68806E-08
 -1     17684-1.60085E-06-1.77750E-07 2.05776E-06 3.39001E-11-5.81920E-13 6.38682E-08
 -1     17686-1.60085E-06-1.77750E-07 2.05776E-06 3.39001E-11 5.81920E-13-6.38682E-08
 -1     17687-7.23095E-07-1.77772E-07 1.18026E-06 4.95032E-11-8.64159E-13 3.32239E-08
 -1     17689-7.23095E-07-1.77772E-07 1.18026E-06 4.95032E-11 8.64159E-13-3.32239E-08
 -1     17690-7.53754E-07-1.77772E-07 1.21086E-06-4.68862E-11 8.19041E-13 3.42935E-08
 -1     17692-7.53754E-07-1.77772E-07 1.21086E-06-4.68862E-11-8.19041E-13-3.42935E-08
 -1     17693-7.88200E-07-1.77782E-07 1.24536E-06 5.42760E-11-9.46854E-13 3.54970E-08
 -1     17695-7.88200E-07-1.77782E-07 1.24536E-06 5.42760E-11 9.46854E-13-3.54970E-08
 -1     17696-8.21982E-07-1.77784E-07 1.27915E-06-5.17169E-11 9.03555E-13 3.66764E-08
 -1     17698-8.21982E-07-1.77784E-07 1.27915E-06-5.17169E-11-9.03555E-13-3.66764E-08
 -1     17699-7.69283E-07-1.77775E-07 1.22641E-06-1.05723E-11 1.85120E-13 3.48366E-08
 -1     17701-7.69283E-07-1.77775E-07 1.22641E-06-1.05723E-11-1.85120E-13-3.48366E-08
 -1     17702-4.89932E-07-1.77770E-07 9.47065E-07 6.89754E-13-1.16583E-14 2.50835E-08
 -1     17704-4.89932E-07-1.77770E-07 9.47065E-07 6.89754E-13 1.16583E-14-2.50835E-08
 -1     17705-4.99266E-07-1.77777E-07 9.56412E-07 2.41505E-11-4.21531E-13 2.54093E-08
 -1     17707-4.99266E-07-1.77777E-07 9.56412E-07 2.41505E-11 4.21531E-13-2.54093E-08
 -1     17708-4.68615E-07-1.77771E-07 9.25720E-07-1.43443E-11 2.52120E-13 2.43387E-08
 -1     17710-4.68615E-07-1.77771E-07 9.25720E-07-1.43443E-11-2.52120E-13-2.43387E-08
 -1     17711-4.65296E-07-1.77779E-07 9.22412E-07-2.60268E-12 4.37874E-14 2.42231E-08
 -1     17713-4.65296E-07-1.77779E-07 9.22412E-07-2.60268E-12-4.37874E-14-2.42231E-08
 -1     17714-5.17973E-07-1.77778E-07 9.75116E-07-2.39297E-11 4.17911E-13 2.60624E-08
 -1     17716-5.17973E-07-1.77778E-07 9.75116E-07-2.39297E-11-4.17911E-13-2.60624E-08
 -1     17717-6.14552E-07-1.77782E-07 1.07174E-06 4.20733E-11-7.33882E-13 2.94349E-08
 -1     17719-6.14552E-07-1.77782E-07 1.07174E-06 4.20733E-11 7.33882E-13-2.94349E-08
 -1     17720-6.38908E-07-1.77778E-07 1.09602E-06-3.51639E-11 6.14546E-13 3.02841E-08
 -1     17722-6.38908E-07-1.77778E-07 1.09602E-06-3.51639E-11-6.14546E-13-3.02841E-08
 -1     17723-5.18946E-07-1.77779E-07 9.76084E-07-5.04919E-13 8.70376E-15 2.60968E-08
 -1     17725-5.18946E-07-1.77779E-07 9.76084E-07-5.04919E-13-8.70376E-15-2.60968E-08
 -1     17726-1.27901E-06-1.77768E-07 1.73601E-06 9.69820E-12-1.64446E-13 5.26318E-08
 -1     17728-1.27901E-06-1.77768E-07 1.73601E-06 9.69820E-12 1.64446E-13-5.26318E-08
 -1     17729-1.29431E-06-1.77734E-07 1.75126E-06 1.64484E-11-2.81115E-13 5.31638E-08
 -1     17731-1.29431E-06-1.77734E-07 1.75126E-06 1.64484E-11 2.81115E-13-5.31638E-08
 -1     17732-1.31426E-06-1.77759E-07 1.77134E-06 8.18845E-11-1.43235E-12 5.38611E-08
 -1     17734-1.31426E-06-1.77759E-07 1.77134E-06 8.18845E-11 1.43235E-12-5.38611E-08
 -1     17735-1.37326E-06-1.77766E-07 1.83032E-06-7.94418E-11 1.38391E-12 5.59204E-08
 -1     17737-1.37326E-06-1.77766E-07 1.83032E-06-7.94418E-11-1.38391E-12-5.59204E-08
 -1     17738-1.39515E-06-1.77821E-07 1.85223E-06-1.37238E-11 2.44030E-13 5.66859E-08
 -1     17740-1.39515E-06-1.77821E-07 1.85223E-06-1.37238E-11-2.44030E-13-5.66859E-08
 -1     17741-1.29286E-06-1.77799E-07 1.74994E-06 9.80415E-12-1.65854E-13 5.31147E-08
 -1     17743-1.29286E-06-1.77799E-07 1.74994E-06 9.80415E-12 1.65854E-13-5.31147E-08
 -1     17744-6.66220E-07-1.77775E-07 1.12339E-06 4.54625E-11-7.93460E-13 3.12384E-08
 -1     17746-6.66220E-07-1.77775E-07 1.12339E-06 4.54625E-11 7.93460E-13-3.12384E-08
 -1     17747-6.93823E-07-1.77777E-07 1.15094E-06-3.93351E-11 6.86867E-13 3.22013E-08
 -1     17749-6.93823E-07-1.77777E-07 1.15094E-06-3.93351E-11-6.86867E-13-3.22013E-08
 -1     17750-6.49043E-07-1.77776E-07 1.10618E-06-7.60968E-12 1.32771E-13 3.06387E-08
 -1     17752-6.49043E-07-1.77776E-07 1.10618E-06-7.60968E-12-1.32771E-13-3.06387E-08
 -1     17753-1.02040E-06-1.77765E-07 1.47757E-06 9.17780E-11-1.60274E-12 4.36036E-08
 -1     17755-1.02040E-06-1.77765E-07 1.47757E-06 9.17780E-11 1.60274E-12-4.36036E-08
 -1     17756-1.06902E-06-1.77762E-07 1.52611E-06-1.02916E-10 1.79789E-12 4.53000E-08
 -1     17758-1.06902E-06-1.77762E-07 1.52611E-06-1.02916E-10-1.79789E-12-4.53000E-08
 -1     17759-1.39659E-06-1.77745E-07 1.85350E-06-4.86675E-11 8.59366E-13 5.67340E-08
 -1     17761-1.39659E-06-1.77745E-07 1.85350E-06-4.86675E-11-8.59366E-13-5.67340E-08
 -1     17762-1.42655E-06-1.77768E-07 1.88351E-06-1.12221E-11 2.07005E-13 5.77839E-08
 -1     17764-1.42655E-06-1.77768E-07 1.88351E-06-1.12221E-11-2.07005E-13-5.77839E-08
 -1     17765-4.88723E-07-1.77775E-07 9.45869E-07 3.07523E-11-5.35997E-13 2.50413E-08
 -1     17767-4.88723E-07-1.77775E-07 9.45869E-07 3.07523E-11 5.35997E-13-2.50413E-08
 -1     17768-4.82824E-07-1.77780E-07 9.40015E-07-8.88890E-12 1.55129E-13 2.48361E-08
 -1     17770-4.82824E-07-1.77780E-07 9.40015E-07-8.88890E-12-1.55129E-13-2.48361E-08
 -1     17771-9.77396E-07-1.77773E-07 1.43451E-06-7.76488E-11 1.35504E-12 4.21013E-08
 -1     17773-9.77396E-07-1.77773E-07 1.43451E-06-7.76488E-11-1.35504E-12-4.21013E-08
 -1     17774-9.97957E-07-1.77776E-07 1.45508E-06-1.05514E-11 1.84707E-13 4.28202E-08
 -1     17776-9.97957E-07-1.77776E-07 1.45508E-06-1.05514E-11-1.84707E-13-4.28202E-08
 -1     17777-9.35254E-07-1.77772E-07 1.39239E-06 7.51403E-11-1.31228E-12 4.06304E-08
 -1     17779-9.35254E-07-1.77772E-07 1.39239E-06 7.51403E-11 1.31228E-12-4.06304E-08
 -1     17780-1.34336E-06-1.77723E-07 1.80071E-06 2.49872E-11-4.36130E-13 5.48816E-08
 -1     17782-1.34336E-06-1.77723E-07 1.80071E-06 2.49872E-11 4.36130E-13-5.48816E-08
 -1     17783-4.99043E-07-1.77771E-07 9.56165E-07 7.40938E-13-1.41370E-14 2.54014E-08
 -1     17785-4.99043E-07-1.77771E-07 9.56165E-07 7.40938E-13 1.41370E-14-2.54014E-08
 -1     17786-5.01115E-07-1.77776E-07 9.58235E-07 2.75720E-11-4.82644E-13 2.54737E-08
 -1     17788-5.01115E-07-1.77776E-07 9.58235E-07 2.75720E-11 4.82644E-13-2.54737E-08
 -1     17789-1.12641E-06-1.77818E-07 1.58361E-06 1.34335E-10-2.34405E-12 4.73058E-08
 -1     17791-1.12641E-06-1.77818E-07 1.58361E-06 1.34335E-10 2.34405E-12-4.73058E-08
 -1     17792-1.18474E-06-1.77793E-07 1.64202E-06-2.57673E-10 4.50425E-12 4.93446E-08
 -1     17794-1.18474E-06-1.77793E-07 1.64202E-06-2.57673E-10-4.50425E-12-4.93446E-08
 -1     17795-1.09817E-06-1.77765E-07 1.55525E-06-7.68652E-12 1.36237E-13 4.63193E-08
 -1     17797-1.09817E-06-1.77765E-07 1.55525E-06-7.68652E-12-1.36237E-13-4.63193E-08
 -1     17798-5.27746E-07-1.77777E-07 9.84883E-07-2.65424E-13 4.77892E-15 2.64037E-08
 -1     17800-5.27746E-07-1.77777E-07 9.84883E-07-2.65424E-13-4.77892E-15-2.64037E-08
 -1     17801-4.96504E-07-1.77781E-07 9.53651E-07-2.70710E-11 4.73669E-13 2.53131E-08
 -1     17803-4.96504E-07-1.77781E-07 9.53651E-07-2.70710E-11-4.73669E-13-2.53131E-08
 -1     17804-7.05631E-07-1.77776E-07 1.16276E-06-8.30276E-12 1.44995E-13 3.26143E-08
 -1     17806-7.05631E-07-1.77776E-07 1.16276E-06-8.30276E-12-1.44995E-13-3.26143E-08
 -1     17807-1.34306E-06-1.77805E-07 1.80051E-06 2.59373E-12-4.53360E-14 5.48730E-08
 -1     17809-1.34306E-06-1.77805E-07 1.80051E-06 2.59373E-12 4.53360E-14-5.48730E-08
 -1     17810-1.29013E-06-1.77789E-07 1.74729E-06-2.41454E-10 4.19902E-12 5.30227E-08
 -1     17812-1.29013E-06-1.77789E-07 1.74729E-06-2.41454E-10-4.19902E-12-5.30227E-08
 -1     17813-5.07263E-07-1.77775E-07 9.64391E-07 1.53463E-12-2.62147E-14 2.56888E-08
 -1     17815-5.07263E-07-1.77775E-07 9.64391E-07 1.53463E-12 2.62147E-14-2.56888E-08
 -1     17816-5.19037E-07-1.77772E-07 9.76162E-07 2.81474E-11-4.90610E-13 2.60993E-08
 -1     17818-5.19037E-07-1.77772E-07 9.76162E-07 2.81474E-11 4.90610E-13-2.60993E-08
 -1     17819-5.38729E-07-1.77777E-07 9.95891E-07-1.75958E-11 3.07096E-13 2.67873E-08
 -1     17821-5.38729E-07-1.77777E-07 9.95891E-07-1.75958E-11-3.07096E-13-2.67873E-08
 -1     17822-5.23600E-07-1.77785E-07 9.80783E-07-3.89553E-11 6.80223E-13 2.62597E-08
 -1     17824-5.23600E-07-1.77785E-07 9.80783E-07-3.89553E-11-6.80223E-13-2.62597E-08
 -1     17825-5.87217E-07-1.77770E-07 1.04432E-06-2.68076E-11 4.70616E-13 2.84796E-08
 -1     17827-5.87217E-07-1.77770E-07 1.04432E-06-2.68076E-11-4.70616E-13-2.84796E-08
 -1     17828-5.94374E-07-1.77775E-07 1.05150E-06-9.04392E-12 1.57320E-13 2.87302E-08
 -1     17830-5.94374E-07-1.77775E-07 1.05150E-06-9.04392E-12-1.57320E-13-2.87302E-08
 -1     17831-1.27700E-06-1.77755E-07 1.73396E-06 2.08711E-10-3.63074E-12 5.25619E-08
 -1     17833-1.27700E-06-1.77755E-07 1.73396E-06 2.08711E-10 3.63074E-12-5.25619E-08
 -1     17834-1.34232E-06-1.77841E-07 1.79995E-06-6.93446E-12 1.21210E-13 5.48518E-08
 -1     17836-1.34232E-06-1.77841E-07 1.79995E-06-6.93446E-12-1.21210E-13-5.48518E-08
 -1     17837-1.19781E-06-1.77754E-07 1.65486E-06 2.13902E-10-3.74830E-12 4.97972E-08
 -1     17839-1.19781E-06-1.77754E-07 1.65486E-06 2.13902E-10 3.74830E-12-4.97972E-08
 -1     17840-1.15161E-06-1.77783E-07 1.60895E-06-3.82947E-11 6.68317E-13 4.81870E-08
 -1     17842-1.15161E-06-1.77783E-07 1.60895E-06-3.82947E-11-6.68317E-13-4.81870E-08
 -1     17843-1.11080E-06-1.77753E-07 1.56784E-06-7.69906E-11 1.33722E-12 4.67585E-08
 -1     17845-1.11080E-06-1.77753E-07 1.56784E-06-7.69906E-11-1.33722E-12-4.67585E-08
 -1     17846-1.05338E-06-1.77803E-07 1.51066E-06 9.03192E-11-1.57821E-12 4.47569E-08
 -1     17848-1.05338E-06-1.77803E-07 1.51066E-06 9.03192E-11 1.57821E-12-4.47569E-08
 -1     17849-1.01271E-06-1.77780E-07 1.46979E-06-6.60424E-11 1.15180E-12 4.33336E-08
 -1     17851-1.01271E-06-1.77780E-07 1.46979E-06-6.60424E-11-1.15180E-12-4.33336E-08
 -1     17852-8.31783E-07-1.77764E-07 1.28886E-06 3.09945E-11-5.44447E-13 3.70173E-08
 -1     17854-8.31783E-07-1.77764E-07 1.28886E-06 3.09945E-11 5.44447E-13-3.70173E-08
 -1     17855-8.05219E-07-1.77784E-07 1.26245E-06 6.63976E-12-1.15915E-13 3.60919E-08
 -1     17857-8.05219E-07-1.77784E-07 1.26245E-06 6.63976E-12 1.15915E-13-3.60919E-08
 -1     17858-7.78751E-07-1.77770E-07 1.23585E-06-3.81261E-11 6.62612E-13 3.51662E-08
 -1     17860-7.78751E-07-1.77770E-07 1.23585E-06-3.81261E-11-6.62612E-13-3.51662E-08
 -1     17861-7.44310E-07-1.77783E-07 1.20150E-06 5.24736E-11-9.16656E-13 3.39651E-08
 -1     17863-7.44310E-07-1.77783E-07 1.20150E-06 5.24736E-11 9.16656E-13-3.39651E-08
 -1     17864-7.16290E-07-1.77779E-07 1.17340E-06-3.96151E-11 6.90961E-13 3.29856E-08
 -1     17866-7.16290E-07-1.77779E-07 1.17340E-06-3.96151E-11-6.90961E-13-3.29856E-08
 -1     17867-6.87008E-07-1.77776E-07 1.14418E-06 4.71375E-11-8.23013E-13 3.19641E-08
 -1     17869-6.87008E-07-1.77776E-07 1.14418E-06 4.71375E-11 8.23013E-13-3.19641E-08
 -1     17870-6.59841E-07-1.77777E-07 1.11696E-06-3.82089E-11 6.66767E-13 3.10149E-08
 -1     17872-6.59841E-07-1.77777E-07 1.11696E-06-3.82089E-11-6.66767E-13-3.10149E-08
 -1     17873-6.32517E-07-1.77773E-07 1.08968E-06 4.55334E-11-7.94851E-13 3.00617E-08
 -1     17875-6.32517E-07-1.77773E-07 1.08968E-06 4.55334E-11 7.94851E-13-3.00617E-08
 -1     17876-6.06208E-07-1.77773E-07 1.06332E-06-3.87536E-11 6.76151E-13 2.91425E-08
 -1     17878-6.06208E-07-1.77773E-07 1.06332E-06-3.87536E-11-6.76151E-13-2.91425E-08
 -1     17879-5.78886E-07-1.77780E-07 1.03604E-06 4.20502E-11-7.34605E-13 2.81894E-08
 -1     17881-5.78886E-07-1.77780E-07 1.03604E-06 4.20502E-11 7.34605E-13-2.81894E-08
 -1     17882-5.54355E-07-1.77781E-07 1.01151E-06-3.75388E-11 6.54810E-13 2.73330E-08
 -1     17884-5.54355E-07-1.77781E-07 1.01151E-06-3.75388E-11-6.54810E-13-2.73330E-08
 -1     17885-1.59524E-06-1.77734E-07 2.05210E-06 6.05575E-11-1.06448E-12 6.36711E-08
 -1     17887-1.59524E-06-1.77734E-07 2.05210E-06 6.05575E-11 1.06448E-12-6.36711E-08
 -1     17888-1.42453E-06-1.77726E-07 1.88145E-06-1.75303E-10 3.06640E-12 5.77136E-08
 -1     17890-1.42453E-06-1.77726E-07 1.88145E-06-1.75303E-10-3.06640E-12-5.77136E-08
 -1     17891-8.58925E-07-1.77768E-07 1.31603E-06 6.01498E-11-1.05029E-12 3.79651E-08
 -1     17893-8.58925E-07-1.77768E-07 1.31603E-06 6.01498E-11 1.05029E-12-3.79651E-08
 -1     17894-8.96559E-07-1.77771E-07 1.35371E-06-6.85488E-11 1.19648E-12 3.92796E-08
 -1     17896-8.96559E-07-1.77771E-07 1.35371E-06-6.85488E-11-1.19648E-12-3.92796E-08
 -1     17897-9.16244E-07-1.77789E-07 1.37338E-06 4.85754E-12-8.55766E-14 3.99675E-08
 -1     17899-9.16244E-07-1.77789E-07 1.37338E-06 4.85754E-12 8.55766E-14-3.99675E-08
 -1     17900-8.40641E-07-1.77774E-07 1.29776E-06 7.71863E-12-1.33728E-13 3.73278E-08
 -1     17902-8.40641E-07-1.77774E-07 1.29776E-06 7.71863E-12 1.33728E-13-3.73278E-08
 -1     17903-1.24671E-06-1.77800E-07 1.70383E-06 4.29269E-11-7.52569E-13 5.15102E-08
 -1     17905-1.24671E-06-1.77800E-07 1.70383E-06 4.29269E-11 7.52569E-13-5.15102E-08
 -1     17906-1.49670E-06-1.77765E-07 1.95379E-06-2.10056E-10 3.65756E-12 6.02321E-08
 -1     17908-1.49670E-06-1.77765E-07 1.95379E-06-2.10056E-10-3.65756E-12-6.02321E-08
 -1     17909-5.29455E-07-1.77771E-07 9.86574E-07 3.64674E-11-6.36883E-13 2.64630E-08
 -1     17911-5.29455E-07-1.77771E-07 9.86574E-07 3.64674E-11 6.36883E-13-2.64630E-08
 -1     17912-5.07019E-07-1.77779E-07 9.64177E-07-2.84237E-11 4.96897E-13 2.56803E-08
 -1     17914-5.07019E-07-1.77779E-07 9.64177E-07-2.84237E-11-4.96897E-13-2.56803E-08
 -1     17915-9.69671E-07-1.77781E-07 1.42688E-06 5.41507E-11-9.46420E-13 4.18330E-08
 -1     17917-9.69671E-07-1.77781E-07 1.42688E-06 5.41507E-11 9.46420E-13-4.18330E-08
 -1     17918-1.52283E-06-1.77850E-07 1.98048E-06 1.83285E-10-3.19840E-12 6.11547E-08
 -1     17920-1.52283E-06-1.77850E-07 1.98048E-06 1.83285E-10 3.19840E-12-6.11547E-08
 -1     17921-5.42154E-07-1.77775E-07 9.99282E-07 4.70826E-12-8.28391E-14 2.69070E-08
 -1     17923-5.42154E-07-1.77775E-07 9.99282E-07 4.70826E-12 8.28391E-14-2.69070E-08
 -1     17924-1.43728E-06-1.77742E-07 1.89425E-06-6.92427E-12 1.11761E-13 5.81608E-08
 -1     17926-1.43728E-06-1.77742E-07 1.89425E-06-6.92427E-12-1.11761E-13-5.81608E-08
 -1     17927-9.36576E-07-1.77771E-07 1.39369E-06-5.47833E-11 9.54094E-13 4.06759E-08
 -1     17929-9.36576E-07-1.77771E-07 1.39369E-06-5.47833E-11-9.54094E-13-4.06759E-08
 -1     17930-1.39845E-06-1.77823E-07 1.85563E-06 2.06359E-10-3.61761E-12 5.68047E-08
 -1     17932-1.39845E-06-1.77823E-07 1.85563E-06 2.06359E-10 3.61761E-12-5.68047E-08
 -3
    1PSTEP                         4           1           1          
  100CL  101 1.000000000       10119                     0    1           1
 -4  FORC        4    1
 -5  F1          1    2    1    0
 -5  F2          1    2    2    0
 -5  F3          1    2    3    0
 -5  ALL         1    2    0    0    1ALL
 -1      4484-1.45542E-01-8.86676E-08-6.70368E-03
 -1      4485 5.81753E-01 1.77335E-07 4.03242E-15
 -1      4486-1.45542E-01-8.86676E-08 6.70368E-03
 -1      4487-1.45679E-01-2.58551E-05-1.43757E-02
 -1      4488 5.81759E-01 1.96422E-05 1.65932E-15
 -1      4489-1.45679E-01-2.58551E-05 1.43757E-02
 -1      4490 1.69025E-06-5.31010E-10 9.62750E-05
 -1      4491-1.95332E-08-1.18762E-06-2.25167E-15
 -1      4492 1.69025E-06-5.31009E-10-9.62750E-05
 -1      4493 2.62224E-06-1.20532E-09 1.50547E-04
 -1      4494 1.11126E-08 2.41064E-09-6.48787E-16
 -1      4495 2.62224E-06-1.20532E-09-1.50547E-04
 -1      4496-2.91269E-01 8.27816E-08-2.37663E-02
 -1      4497 1.16351E+00-1.65563E-07-1.91328E-15
 -1      4498-2.91269E-01 8.27816E-08 2.37663E-02
 -1      4499-2.91181E-01-1.99911E-08-1.89253E-02
 -1      4500 1.16351E+00 3.99822E-08-9.14081E-16
 -1      4501-2.91181E-01-1.99911E-08 1.89253E-02
 -1      4502-2.91201E-01-6.66244E-09-2.00036E-02
 -1      4503 1.16351E+00 1.33249E-08-5.72967E-15
 -1      4504-2.91201E-01-6.66244E-09 2.00036E-02
 -1      4505-2.91206E-01-4.42743E-10-2.02563E-02
 -1      4506 1.16351E+00 8.85482E-10 1.59780E-15
 -1      4507-2.91206E-01-4.42744E-10 2.02563E-02
 -1      4508-2.91203E-01 1.13108E-09-2.01400E-02
 -1      4509 1.16351E+00-2.26216E-09-5.63253E-15
 -1      4510-2.91203E-01 1.13108E-09 2.01400E-02
 -1      4511-2.91199E-01 2.62242E-09-1.99046E-02
 -1      4512 1.16351E+00-5.24484E-09-9.72648E-15
 -1      4513-2.91199E-01 2.62242E-09 1.99046E-02
 -1      4514-2.91194E-01 3.47686E-09-1.95906E-02
 -1      4515 1.16351E+00-6.95372E-09-3.57862E-15
 -1      4516-2.91194E-01 3.47686E-09 1.95906E-02
 -1      4517-2.91188E-01 2.99699E-09-1.92735E-02
 -1      4518 1.16351E+00-5.99397E-09-1.07812E-14
 -1      4519-2.91188E-01 2.99699E-09 1.92735E-02
 -1      4520-2.91183E-01 2.06305E-09-1.90336E-02
 -1      4521 1.16351E+00-4.12611E-09-7.74195E-15
 -1      4522-2.91183E-01 2.06305E-09 1.90336E-02
 -1      4523-2.91181E-01 1.09188E-09-1.88817E-02
 -1      4524 1.16351E+00-2.18375E-09 8.34520E-16
 -1      4525-2.91181E-01 1.09188E-09 1.88817E-02
 -1      4526-2.91179E-01 3.65530E-10-1.88127E-02
 -1      4527 1.16351E+00-7.31062E-10-3.86725E-16
 -1      4528-2.91179E-01 3.65529E-10 1.88127E-02
 -1      4529-2.91179E-01-4.14488E-11-1.87932E-02
 -1      4530 1.16351E+00 8.28853E-11-5.46600E-15
 -1      4531-2.91179E-01-4.14477E-11 1.87932E-02
 -1      4532-2.91179E-01-1.06987E-10-1.88015E-02
 -1      4533 1.16351E+00 2.13989E-10 4.18187E-16
 -1      4534-2.91179E-01-1.06987E-10 1.88015E-02
 -1      4535-2.91179E-01-1.31158E-10-1.88107E-02
 -1      4536 1.16351E+00 2.62321E-10-6.50403E-16
 -1      4537-2.91179E-01-1.31160E-10 1.88107E-02
 -1      4538-2.91179E-01 4.42093E-11-1.88112E-02
 -1      4539 1.16351E+00-8.84141E-11-2.28798E-15
 -1      4540-2.91179E-01 4.42100E-11 1.88112E-02
 -1      4541-2.91179E-01 3.92240E-10-1.87803E-02
 -1      4542 1.16351E+00-7.84485E-10-2.34069E-16
 -1      4543-2.91179E-01 3.92241E-10 1.87803E-02
 -1      4544-2.91178E-01 5.36071E-10-1.87329E-02
 -1      4545 1.16351E+00-1.07215E-09-4.93864E-15
 -1      4546-2.91178E-01 5.36072E-10 1.87329E-02
 -1      4547-2.91177E-01-5.27873E-11-1.86955E-02
 -1      4548 1.16351E+00 1.05576E-10-1.28878E-15
 -1      4549-2.91177E-01-5.27870E-11 1.86955E-02
 -1      4550-2.91179E-01-1.89561E-09-1.87742E-02
 -1      4551 1.16351E+00 3.79123E-09-1.09061E-14
 -1      4552-2.91179E-01-1.89561E-09 1.87742E-02
 -1      4553-2.91182E-01-3.56060E-09-1.89724E-02
 -1      4554 1.16351E+00 7.12121E-09-2.23247E-15
 -1      4555-2.91182E-01-3.56060E-09 1.89724E-02
 -1      4556-2.91188E-01-3.98039E-09-1.92753E-02
 -1      4557 1.16351E+00 7.96079E-09-4.89701E-15
 -1      4558-2.91188E-01-3.98039E-09 1.92753E-02
 -1      4559-2.91195E-01-6.24330E-09-1.96689E-02
 -1      4560 1.16351E+00 1.24866E-08-5.13293E-15
 -1      4561-2.91195E-01-6.24329E-09 1.96689E-02
 -1      4562-2.91202E-01-7.29603E-09-2.00326E-02
 -1      4563 1.16351E+00 1.45921E-08-8.40809E-15
 -1      4564-2.91202E-01-7.29603E-09 2.00326E-02
 -1      4565-2.91215E-01-2.39200E-08-2.07805E-02
 -1      4566 1.16351E+00 4.78401E-08 9.17787E-16
 -1      4567-2.91215E-01-2.39200E-08 2.07805E-02
 -1      4568 1.78363E-05-6.93968E-05 1.24126E-03
 -1      4569 7.65853E-06-8.43899E-05 4.88498E-15
 -1      4570 1.78363E-05-6.93968E-05-1.24126E-03
 -1      4571 1.05479E-04 4.46447E-05 6.43162E-03
 -1      4572 1.35678E-05 8.42398E-05-1.85962E-15
 -1      4573 1.05479E-04 4.46447E-05-6.43162E-03
 -1      4574-1.36474E-05 8.30049E-05-6.24536E-04
 -1      4575 5.49143E-06-1.58336E-05 5.16948E-15
 -1      4576-1.36474E-05 8.30049E-05 6.24536E-04
 -1      4577 1.22276E-05 8.05653E-05 8.43913E-04
 -1      4578 5.00505E-06 4.98152E-07 3.82333E-15
 -1      4579 1.22276E-05 8.05653E-05-8.43913E-04
 -1      4580 5.96434E-06 6.43978E-05 4.52795E-04
 -1      4581 3.87785E-06-1.61059E-06-5.71765E-15
 -1      4582 5.96434E-06 6.43978E-05-4.52795E-04
 -1      4583 2.39521E-06 5.72854E-05 2.31921E-04
 -1      4584 3.30547E-06-1.37816E-06-9.92262E-16
 -1      4585 2.39521E-06 5.72854E-05-2.31921E-04
 -1      4586 9.18283E-06 4.91586E-05 6.03179E-04
 -1      4587 2.69098E-06 1.64047E-07 8.39606E-16
 -1      4588 9.18283E-06 4.91586E-05-6.03179E-04
 -1      4589 4.11688E-06 4.04027E-05 2.94922E-04
 -1      4590 2.06170E-06-1.16244E-07-1.84575E-15
 -1      4591 4.11688E-06 4.04027E-05-2.94922E-04
 -1      4592 5.75683E-07 3.62805E-05 8.29337E-05
 -1      4593 1.74360E-06 1.43412E-07-1.73472E-16
 -1      4594 5.75683E-07 3.62805E-05-8.29337E-05
 -1      4595 4.73006E-06 3.18306E-05 3.12242E-04
 -1      4596 1.44008E-06-3.55390E-08 6.93890E-17
 -1      4597 4.73006E-06 3.18306E-05-3.12242E-04
 -1      4598 1.93650E-06 2.68128E-05 1.43492E-04
 -1      4599 1.13615E-06-5.07995E-07 4.17721E-15
 -1      4600 1.93650E-06 2.68128E-05-1.43492E-04
 -1      4601-1.40145E-08 2.45488E-05 2.76032E-05
 -1      4602 9.91511E-07-1.39201E-07 4.43395E-15
 -1      4603-1.40145E-08 2.45488E-05-2.76032E-05
 -1      4604 3.09572E-06 2.18855E-05 2.01396E-04
 -1      4605 8.39172E-07-3.34067E-08 3.52843E-15
 -1      4606 3.09572E-06 2.18855E-05-2.01396E-04
 -1      4607 1.29433E-06 1.87175E-05 9.34817E-05
 -1      4608 6.74698E-07-2.57860E-07 3.95517E-16
 -1      4609 1.29433E-06 1.87175E-05-9.34817E-05
 -1      4610-5.02381E-08 1.73794E-05 1.42847E-05
 -1      4611 5.99066E-07 6.09479E-09 1.38778E-16
 -1      4612-5.02381E-08 1.73794E-05-1.42847E-05
 -1      4613 2.19655E-06 1.56787E-05 1.40560E-04
 -1      4614 5.13780E-07 4.06119E-08 3.71231E-16
 -1      4615 2.19655E-06 1.56787E-05-1.40560E-04
 -1      4616 9.54756E-07 1.35517E-05 6.66547E-05
 -1      4617 4.17348E-07-1.10106E-07-1.26635E-15
 -1      4618 9.54756E-07 1.35517E-05-6.66547E-05
 -1      4619 6.59419E-07 1.22717E-05 4.80625E-05
 -1      4620 3.58974E-07-8.46060E-08-2.37657E-15
 -1      4621 6.59419E-07 1.22717E-05-4.80625E-05
 -1      4622-1.81987E-07 1.15910E-05-1.11975E-06
 -1      4623 3.24835E-07 1.68960E-08 2.91087E-15
 -1      4624-1.81987E-07 1.15910E-05 1.11975E-06
 -1      4625 1.35456E-06 1.06061E-05 8.57007E-05
 -1      4626 2.82654E-07 3.03582E-08 1.38778E-15
 -1      4627 1.35456E-06 1.06061E-05-8.57007E-05
 -1      4628 5.15573E-07 9.30340E-06 3.61953E-05
 -1      4629 2.32401E-07-1.01189E-07 2.41474E-15
 -1      4630 5.15573E-07 9.30340E-06-3.61953E-05
 -1      4631-1.53146E-07 8.84548E-06-2.69578E-06
 -1      4632 2.12149E-07 2.35579E-08-1.14492E-15
 -1      4633-1.53146E-07 8.84548E-06 2.69578E-06
 -1      4634 1.00911E-06 8.15186E-06 6.31391E-05
 -1      4635 1.85948E-07 3.80464E-08 1.93595E-15
 -1      4636 1.00911E-06 8.15186E-06-6.31391E-05
 -1      4637 3.54683E-07 7.20437E-06 2.47212E-05
 -1      4638 1.53631E-07-6.49671E-08-1.38778E-16
 -1      4639 3.54683E-07 7.20437E-06-2.47212E-05
 -1      4640-1.87949E-07 6.90241E-06-6.70716E-06
 -1      4641 1.41728E-07 3.87156E-08-4.77049E-16
 -1      4642-1.87949E-07 6.90241E-06 6.70716E-06
 -1      4643 7.14608E-07 6.40092E-06 4.45178E-05
 -1      4644 1.24886E-07 3.69697E-08-4.33681E-16
 -1      4645 7.14608E-07 6.40092E-06-4.45178E-05
 -1      4646 1.86674E-07 5.69466E-06 1.36673E-05
 -1      4647 1.03762E-07-3.87085E-08-4.00721E-16
 -1      4648 1.86674E-07 5.69466E-06-1.36673E-05
 -1      4649-2.41323E-07 5.48293E-06-1.10719E-05
 -1      4650 9.61115E-08 1.94298E-08-1.25421E-15
 -1      4651-2.41323E-07 5.48293E-06 1.10719E-05
 -1      4652 4.99999E-07 5.11374E-06 3.10775E-05
 -1      4653 8.49089E-08 2.18168E-08 1.26114E-15
 -1      4654 4.99999E-07 5.11374E-06-3.10775E-05
 -1      4655 1.33950E-07 4.56384E-06 9.66142E-06
 -1      4656 6.93718E-08-7.63356E-08-6.76542E-16
 -1      4657 1.33950E-07 4.56384E-06-9.66142E-06
 -1      4658-9.92333E-08 4.40677E-06-3.88043E-06
 -1      4659 6.29908E-08-6.21598E-08 2.00187E-15
 -1      4660-9.92333E-08 4.40677E-06 3.88043E-06
 -1      4661 6.26978E-07 4.09012E-06 3.74580E-05
 -1      4662 5.36997E-08-6.08828E-08 3.34802E-16
 -1      4663 6.26978E-07 4.09012E-06-3.74580E-05
 -1      4664 3.12213E-07 3.66816E-06 1.91424E-05
 -1      4665 4.38308E-08 5.79688E-08 1.60982E-15
 -1      4666 3.12213E-07 3.66816E-06-1.91424E-05
 -1      4667-1.21224E-07 3.61695E-06-5.72068E-06
 -1      4668 4.27321E-08 1.41889E-07-6.41848E-16
 -1      4669-1.21224E-07 3.61695E-06 5.72068E-06
 -1      4670 1.51235E-07 3.57697E-06 9.86908E-06
 -1      4671 4.20547E-08 3.73726E-08 2.17014E-15
 -1      4672 1.51235E-07 3.57697E-06-9.86908E-06
 -1      4673-1.77323E-07 3.38630E-06-9.06841E-06
 -1      4674 3.80616E-08-6.08958E-07 8.56953E-16
 -1      4675-1.77323E-07 3.38630E-06 9.06841E-06
 -1      4676-2.46376E-06 2.51174E-06-1.38623E-04
 -1      4677 8.81656E-08 1.62477E-06-2.04003E-15
 -1      4678-2.46376E-06 2.51174E-06 1.38623E-04
 -1      4679 1.21403E-05 3.57947E-09 6.99916E-04
 -1      4680 1.53571E-07-7.15893E-09-2.57086E-15
 -1      4681 1.21403E-05 3.57947E-09-6.99916E-04
 -1      4682 5.15931E-06-1.96116E-09 2.96265E-04
 -1      4683 2.40217E-08 3.92230E-09-1.67921E-15
 -1      4684 5.15931E-06-1.96116E-09-2.96265E-04
 -1      4685 5.63890E-06 8.34988E-10 3.24000E-04
 -1      4686 3.30861E-08-1.66998E-09 8.18789E-16
 -1      4687 5.63890E-06 8.34988E-10-3.24000E-04
 -1      4688 5.38333E-06 6.57045E-10 3.09252E-04
 -1      4689 2.93555E-08-1.31409E-09 9.31547E-16
 -1      4690 5.38333E-06 6.57044E-10-3.09252E-04
 -1      4691 5.21497E-06 1.47143E-10 2.99529E-04
 -1      4692 2.66482E-08-2.94292E-10 1.03043E-15
 -1      4693 5.21497E-06 1.47142E-10-2.99529E-04
 -1      4694 5.19896E-06-1.24398E-10 2.98602E-04
 -1      4695 2.63155E-08 2.48795E-10 2.61943E-16
 -1      4696 5.19896E-06-1.24397E-10-2.98602E-04
 -1      4697 5.24935E-06-1.50573E-10 3.01511E-04
 -1      4698 2.70741E-08 3.01144E-10 4.07833E-15
 -1      4699 5.24935E-06-1.50574E-10-3.01511E-04
 -1      4700 5.30569E-06-9.45480E-11 3.04767E-04
 -1      4701 2.80674E-08 1.89109E-10 2.13891E-15
 -1      4702 5.30569E-06-9.45466E-11-3.04767E-04
 -1      4703 5.33660E-06-2.87767E-11 3.06554E-04
 -1      4704 2.86406E-08 5.75642E-11 2.77556E-16
 -1      4705 5.33660E-06-2.87768E-11-3.06554E-04
 -1      4706 5.34810E-06 8.13929E-12 3.07221E-04
 -1      4707 2.89183E-08-1.62681E-11-1.38778E-16
 -1      4708 5.34810E-06 8.13765E-12-3.07221E-04
 -1      4709 5.34503E-06 3.19802E-11 3.07045E-04
 -1      4710 2.89258E-08-6.39565E-11 9.95731E-16
 -1      4711 5.34503E-06 3.19806E-11-3.07045E-04
 -1      4712 5.33700E-06 2.32297E-11 3.06582E-04
 -1      4713 2.88286E-08-4.64555E-11 1.93595E-15
 -1      4714 5.33700E-06 2.32301E-11-3.06582E-04
 -1      4715 5.33010E-06 1.57556E-11 3.06184E-04
 -1      4716 2.87265E-08-3.15090E-11-1.50574E-15
 -1      4717 5.33010E-06 1.57542E-11-3.06184E-04
 -1      4718 5.32542E-06 1.49510E-12 3.05913E-04
 -1      4719 2.86347E-08-2.99584E-12 3.13465E-15
 -1      4720 5.32542E-06 1.49623E-12-3.05913E-04
 -1      4721 5.31851E-06 2.63068E-11 3.05514E-04
 -1      4722 2.85065E-08-5.26166E-11 3.00107E-15
 -1      4723 5.31851E-06 2.63067E-11-3.05514E-04
 -1      4724 5.30126E-06 5.87654E-11 3.04517E-04
 -1      4725 2.82210E-08-1.17540E-10 2.48065E-16
 -1      4726 5.30126E-06 5.87647E-11-3.04517E-04
 -1      4727 5.27561E-06 8.78978E-11 3.03037E-04
 -1      4728 2.78479E-08-1.75789E-10 4.46171E-15
 -1      4729 5.27561E-06 8.78970E-11-3.03037E-04
 -1      4730 5.25090E-06 7.63737E-11 3.01613E-04
 -1      4731 2.75447E-08-1.52737E-10 3.67241E-15
 -1      4732 5.25090E-06 7.63753E-11-3.01613E-04
 -1      4733 5.26064E-06-5.78269E-11 3.02180E-04
 -1      4734 2.78654E-08 1.15653E-10 4.11997E-15
 -1      4735 5.26064E-06-5.78265E-11-3.02180E-04
 -1      4736 5.35698E-06-3.37203E-10 3.07751E-04
 -1      4737 2.96824E-08 6.74403E-10 3.07220E-15
 -1      4738 5.35698E-06-3.37203E-10-3.07751E-04
 -1      4739 5.53719E-06-5.59294E-10 3.18164E-04
 -1      4740 3.27686E-08 1.11859E-09-1.33921E-15
 -1      4741 5.53719E-06-5.59295E-10-3.18164E-04
 -1      4742 5.54042E-06 3.65802E-10 3.18332E-04
 -1      4743 3.21783E-08-7.31600E-10-3.78170E-16
 -1      4744 5.54042E-06 3.65801E-10-3.18332E-04
 -1      4745 4.85372E-06 2.52896E-09 2.78637E-04
 -1      4746 1.97929E-08-5.05790E-09-3.28557E-15
 -1      4747 4.85372E-06 2.52896E-09-2.78637E-04
 -1      4748 3.37854E-06 3.94041E-09 1.93542E-04
 -1      4749-5.08727E-10-7.88082E-09-1.67314E-15
 -1      4750 3.37854E-06 3.94041E-09-1.93542E-04
 -1      4751 2.02774E-04 8.70561E-08 1.22463E-02
 -1      4752 2.19691E-05-1.74112E-07-1.12410E-15
 -1      4753 2.02774E-04 8.70561E-08-1.22463E-02
 -1      4754-5.85822E-06 1.87773E-08-1.18827E-04
 -1      4755 7.56704E-06-3.75546E-08 5.96051E-15
 -1      4756-5.85822E-06 1.87773E-08 1.18827E-04
 -1      4757 1.43544E-05 6.72081E-09 1.03169E-03
 -1      4758 7.30636E-06-1.34416E-08 8.38218E-15
 -1      4759 1.43544E-05 6.72081E-09-1.03169E-03
 -1      4760 3.05591E-05 4.78904E-11 1.92229E-03
 -1      4761 5.98811E-06-9.57676E-11-1.56819E-15
 -1      4762 3.05591E-05 4.78890E-11-1.92229E-03
 -1      4763 1.65782E-05 2.64016E-09 1.07349E-03
 -1      4764 4.31870E-06-5.28031E-09 3.69843E-15
 -1      4765 1.65782E-05 2.64016E-09-1.07349E-03
 -1      4766 8.75489E-06 3.14895E-09 6.02044E-04
 -1      4767 3.50711E-06-6.29788E-09-8.55566E-15
 -1      4768 8.75489E-06 3.14895E-09-6.02044E-04
 -1      4769 1.41319E-05 8.48110E-10 8.90430E-04
 -1      4770 2.82081E-06-1.69621E-09 1.11022E-16
 -1      4771 1.41319E-05 8.48110E-10-8.90430E-04
 -1      4772 8.26788E-06 1.97409E-09 5.35609E-04
 -1      4773 2.16209E-06-3.94819E-09-1.15880E-15
 -1      4774 8.26788E-06 1.97409E-09-5.35609E-04
 -1      4775 4.28713E-06 2.33649E-09 2.98117E-04
 -1      4776 1.83277E-06-4.67299E-09 2.90740E-15
 -1      4777 4.28713E-06 2.33649E-09-2.98117E-04
 -1      4778 8.27932E-06 5.96405E-10 5.17932E-04
 -1      4779 1.52219E-06-1.19281E-09-4.66294E-15
 -1      4780 8.27932E-06 5.96406E-10-5.17932E-04
 -1      4781 4.89912E-06 1.42283E-09 3.15058E-04
 -1      4782 1.20030E-06-2.84567E-09 2.33841E-15
 -1      4783 4.89912E-06 1.42283E-09-3.15058E-04
 -1      4784 2.51028E-06 1.71455E-09 1.73749E-04
 -1      4785 1.04488E-06-3.42911E-09-1.04083E-16
 -1      4786 2.51028E-06 1.71455E-09-1.73749E-04
 -1      4787 5.46388E-06 3.57734E-10 3.38428E-04
 -1      4788 8.86675E-07-7.15459E-10 4.51029E-17
 -1      4789 5.46388E-06 3.57732E-10-3.38428E-04
 -1      4790 3.29917E-06 1.00915E-09 2.09413E-04
 -1      4791 7.12175E-07-2.01831E-09-1.09635E-15
 -1      4792 3.29917E-06 1.00915E-09-2.09413E-04
 -1      4793 1.70885E-06 1.25083E-09 1.15978E-04
 -1      4794 6.31008E-07-2.50166E-09-3.45210E-15
 -1      4795 1.70885E-06 1.25083E-09-1.15978E-04
 -1      4796 3.89550E-06 1.84649E-10 2.38733E-04
 -1      4797 5.43117E-07-3.69296E-10-1.72432E-15
 -1      4798 3.89550E-06 1.84650E-10-2.38733E-04
 -1      4799 2.41681E-06 7.31103E-10 1.51094E-04
 -1      4800 4.41010E-07-1.46222E-09-4.47559E-16
 -1      4801 2.41681E-06 7.31102E-10-1.51094E-04
 -1      4802 1.97056E-06 6.29561E-10 1.23746E-04
 -1      4803 3.78808E-07-1.25913E-09 7.52870E-16
 -1      4804 1.97056E-06 6.29560E-10-1.23746E-04
 -1      4805 9.83901E-07 8.67778E-10 6.61676E-05
 -1      4806 3.42067E-07-1.73556E-09 5.22846E-15
 -1      4807 9.83901E-07 8.67778E-10-6.61676E-05
 -1      4808 2.49292E-06 7.68068E-11 1.51377E-04
 -1      4809 2.98695E-07-1.53612E-10 1.69656E-15
 -1      4810 2.49292E-06 7.68053E-11-1.51377E-04
 -1      4811 1.50693E-06 5.09576E-10 9.33624E-05
 -1      4812 2.45388E-07-1.01915E-09-5.06539E-16
 -1      4813 1.50693E-06 5.09576E-10-9.33624E-05
 -1      4814 7.40318E-07 6.90927E-10 4.88090E-05
 -1      4815 2.23258E-07-1.38184E-09-2.95250E-15
 -1      4816 7.40318E-07 6.90928E-10-4.88090E-05
 -1      4817 1.89959E-06 2.93945E-11 1.14448E-04
 -1      4818 1.96179E-07-5.88087E-11-1.58901E-15
 -1      4819 1.89959E-06 2.93963E-11-1.14448E-04
 -1      4820 1.15651E-06 3.95914E-10 7.08892E-05
 -1      4821 1.61706E-07-7.91829E-10-1.53696E-15
 -1      4822 1.15651E-06 3.95915E-10-7.08892E-05
 -1      4823 5.77041E-07 5.48776E-10 3.73020E-05
 -1      4824 1.48115E-07-1.09755E-09-5.58581E-16
 -1      4825 5.77041E-07 5.48775E-10-3.73020E-05
 -1      4826 1.50374E-06-1.07458E-11 8.98954E-05
 -1      4827 1.30759E-07 2.15019E-11-4.51028E-17
 -1      4828 1.50374E-06-1.07459E-11-8.98954E-05
 -1      4829 9.42876E-07 3.13087E-10 5.71079E-05
 -1      4830 1.07877E-07-6.26172E-10-1.09461E-15
 -1      4831 9.42876E-07 3.13086E-10-5.71079E-05
 -1      4832 5.00950E-07 4.50543E-10 3.15481E-05
 -1      4833 9.94337E-08-9.01091E-10-2.89699E-16
 -1      4834 5.00950E-07 4.50543E-10-3.15481E-05
 -1      4835 1.24912E-06-3.64981E-12 7.40920E-05
 -1      4836 8.83163E-08 7.28848E-12 1.35829E-15
 -1      4837 1.24912E-06-3.65005E-12-7.40920E-05
 -1      4838 7.95853E-07 3.31546E-10 4.76911E-05
 -1      4839 7.31874E-08-6.63092E-10 1.80411E-16
 -1      4840 7.95853E-07 3.31546E-10-4.76911E-05
 -1      4841 4.02337E-07 5.19917E-10 2.50159E-05
 -1      4842 6.86252E-08-1.03984E-09 2.95944E-15
 -1      4843 4.02337E-07 5.19916E-10-2.50159E-05
 -1      4844 9.41484E-07 2.55454E-10 5.57280E-05
 -1      4845 6.24923E-08-5.10900E-10 1.14492E-15
 -1      4846 9.41484E-07 2.55453E-10-5.57280E-05
 -1      4847 3.97163E-07 6.98940E-10 2.43075E-05
 -1      4848 5.42450E-08-1.39790E-09 1.12930E-15
 -1      4849 3.97163E-07 6.98939E-10-2.43075E-05
 -1      4850-2.07935E-07 8.92659E-10-1.03512E-05
 -1      4851 5.44993E-08-1.78531E-09-2.33147E-15
 -1      4852-2.07935E-07 8.92659E-10 1.03512E-05
 -1      4853 4.14814E-07-4.60083E-10 2.50750E-05
 -1      4854 4.57378E-08 9.20180E-10 3.22659E-16
 -1      4855 4.14814E-07-4.60084E-10-2.50750E-05
 -1      4856 4.73535E-07-1.26311E-09 2.79237E-05
 -1      4857 2.77463E-08 2.52623E-09-1.32533E-15
 -1      4858 4.73535E-07-1.26311E-09-2.79237E-05
 -1      4859 9.15083E-07-2.22536E-09 5.28815E-05
 -1      4860 1.59324E-08 4.45071E-09-5.98480E-16
 -1      4861 9.15083E-07-2.22536E-09-5.28815E-05
 -1      4862 2.32305E-05-1.32634E-07 2.05609E-03
 -1      4863 2.53134E-05 2.65269E-07 5.81479E-15
 -1      4864 2.32305E-05-1.32634E-07-2.05609E-03
 -1      4865 3.83367E-05 7.13976E-09 3.01732E-03
 -1      4866 2.86573E-05-1.42795E-08-2.55351E-15
 -1      4867 3.83367E-05 7.13976E-09-3.01732E-03
 -1      4868 4.16303E-05-4.33428E-10 3.19051E-03
 -1      4869 2.81162E-05 8.66851E-10-1.29480E-14
 -1      4870 4.16303E-05-4.33430E-10-3.19051E-03
 -1      4871 4.12967E-05-7.05948E-10 3.13062E-03
 -1      4872 2.66930E-05 1.41190E-09 8.74302E-16
 -1      4873 4.12967E-05-7.05947E-10-3.13062E-03
 -1      4874 4.05309E-05-6.72596E-10 3.05524E-03
 -1      4875 2.55934E-05 1.34520E-09 3.88580E-16
 -1      4876 4.05309E-05-6.72594E-10-3.05524E-03
 -1      4877 4.03820E-05-2.71958E-10 3.03783E-03
 -1      4878 2.52833E-05 5.43915E-10 5.07927E-15
 -1      4879 4.03820E-05-2.71957E-10-3.03783E-03
 -1      4880 4.03360E-05-4.52146E-11 3.03619E-03
 -1      4881 2.53179E-05 9.04276E-11-5.81479E-15
 -1      4882 4.03360E-05-4.52136E-11-3.03619E-03
 -1      4883 4.03812E-05-3.43079E-10 3.03893E-03
 -1      4884 2.53231E-05 6.86167E-10-3.02536E-15
 -1      4885 4.03812E-05-3.43081E-10-3.03893E-03
 -1      4886 4.06051E-05 7.35877E-10 3.04500E-03
 -1      4887 2.50874E-05-1.47174E-09-2.58127E-15
 -1      4888 4.06051E-05 7.35878E-10-3.04500E-03
 -1      4889 4.16870E-05-4.39516E-10 3.11564E-03
 -1      4890 2.53894E-05 8.79033E-10-3.74699E-16
 -1      4891 4.16870E-05-4.39515E-10-3.11564E-03
 -1      4892 4.45032E-05 4.59724E-09 3.31575E-03
 -1      4893 2.67429E-05-9.19450E-09-8.59035E-15
 -1      4894 4.45032E-05 4.59725E-09-3.31575E-03
 -1      4895 5.41525E-05 2.68947E-08 3.90408E-03
 -1      4896 2.79827E-05-5.37895E-08 7.27196E-15
 -1      4897 5.41525E-05 2.68947E-08-3.90408E-03
 -1      4898 5.77955E-05-3.67325E-08 4.19207E-03
 -1      4899 3.07502E-05 7.34650E-08-5.05151E-15
 -1      4900 5.77955E-05-3.67325E-08-4.19207E-03
 -1      4901 1.63222E-05-6.51197E-08 1.19758E-03
 -1      4902 9.16182E-06 1.30239E-07 1.52656E-15
 -1      4903 1.63222E-05-6.51197E-08-1.19758E-03
 -1      4904 1.13091E-05-3.94256E-09 8.96182E-04
 -1      4905 8.66632E-06 7.88509E-09 2.96985E-15
 -1      4906 1.13091E-05-3.94255E-09-8.96182E-04
 -1      4907 1.04197E-05 7.49951E-10 7.70883E-04
 -1      4908 6.07123E-06-1.49989E-09 3.76088E-15
 -1      4909 1.04197E-05 7.49952E-10-7.70883E-04
 -1      4910 6.84452E-06-1.85306E-10 5.01379E-04
 -1      4911 3.81361E-06 3.70612E-10 2.04697E-15
 -1      4912 6.84452E-06-1.85307E-10-5.01379E-04
 -1      4913 4.67227E-06-1.72672E-11 3.40617E-04
 -1      4914 2.54604E-06 3.45598E-11 4.66294E-15
 -1      4915 4.67227E-06-1.72644E-11-3.40617E-04
 -1      4916 3.35052E-06 8.09838E-11 2.44183E-04
 -1      4917 1.82315E-06-1.61979E-10-5.93275E-16
 -1      4918 3.35052E-06 8.09845E-11-2.44183E-04
 -1      4919 2.40173E-06-8.45331E-11 1.73934E-04
 -1      4920 1.26839E-06 1.69069E-10-1.04083E-15
 -1      4921 2.40173E-06-8.45298E-11-1.73934E-04
 -1      4922 1.92262E-06 5.13235E-11 1.36502E-04
 -1      4923 9.19923E-07-1.02636E-10-3.69149E-15
 -1      4924 1.92262E-06 5.13236E-11-1.36502E-04
 -1      4925 1.39665E-06-6.96450E-11 9.94849E-05
 -1      4926 6.79620E-07 1.39315E-10-2.08861E-15
 -1      4927 1.39665E-06-6.96451E-11-9.94849E-05
 -1      4928 1.17076E-06 3.34440E-11 8.16850E-05
 -1      4929 5.10040E-07-6.68936E-11 5.45744E-15
 -1      4930 1.17076E-06 3.34441E-11-8.16850E-05
 -1      4931 9.19878E-07 3.17875E-11 6.41244E-05
 -1      4932 3.98774E-07-6.35807E-11 5.75928E-16
 -1      4933 9.19878E-07 3.17874E-11-6.41244E-05
 -1      4934 6.88807E-07-4.07975E-11 4.79129E-05
 -1      4935 2.94986E-07 8.16021E-11-1.70870E-15
 -1      4936 6.88807E-07-4.07978E-11-4.79129E-05
 -1      4937 5.78325E-07 9.78691E-12 3.96548E-05
 -1      4938 2.27669E-07-1.95798E-11-1.66533E-15
 -1      4939 5.78325E-07 9.78755E-12-3.96548E-05
 -1      4940 4.73915E-07 1.36333E-11 3.23908E-05
 -1      4941 1.82910E-07-2.72470E-11 7.76462E-15
 -1      4942 4.73915E-07 1.36336E-11-3.23908E-05
 -1      4943 4.34031E-07-1.00257E-10 2.86323E-05
 -1      4944 1.31474E-07 2.00530E-10 2.79117E-15
 -1      4945 4.34031E-07-1.00257E-10-2.86323E-05
 -1      4946 4.28621E-07 4.95801E-10 2.71391E-05
 -1      4947 9.01754E-08-9.91591E-10-2.76515E-15
 -1      4948 4.28621E-07 4.95801E-10-2.71391E-05
 -1      4949 1.15054E-09-1.05353E-10 2.51632E-06
 -1      4950 8.55310E-08 2.10734E-10 4.02456E-16
 -1      4951 1.15054E-09-1.05352E-10-2.51632E-06
 -1      4952-8.68574E-07 3.53969E-09-4.59313E-05
 -1      4953 1.33659E-07-7.07939E-09 1.70350E-15
 -1      4954-8.68574E-07 3.53969E-09 4.59313E-05
 -1      4955 3.33046E-07-1.10928E-08 2.06790E-05
 -1      4956 5.58073E-08 2.21856E-08-1.37043E-16
 -1      4957 3.33046E-07-1.10928E-08-2.06790E-05
 -1      4958 2.65602E-07 4.97966E-10 1.71570E-05
 -1      4959 6.77386E-08-9.95921E-10-4.23619E-15
 -1      4960 2.65602E-07 4.97965E-10-1.71570E-05
 -1      4961 2.11509E-07-3.01494E-10 1.37098E-05
 -1      4962 5.55857E-08 6.02969E-10-4.94049E-15
 -1      4963 2.11509E-07-3.01497E-10-1.37098E-05
 -1      4964 2.45900E-07 3.69532E-11 1.58056E-05
 -1      4965 5.99664E-08-7.39029E-11 1.70697E-15
 -1      4966 2.45900E-07 3.69535E-11-1.58056E-05
 -1      4967 2.65081E-07 3.03410E-11 1.69535E-05
 -1      4968 6.16798E-08-6.06869E-11-2.34188E-16
 -1      4969 2.65081E-07 3.03412E-11-1.69535E-05
 -1      4970 2.65813E-07 3.50045E-11 1.69775E-05
 -1      4971 6.10500E-08-7.00159E-11 5.81132E-16
 -1      4972 2.65813E-07 3.50049E-11-1.69775E-05
 -1      4973 2.67395E-07-8.90259E-12 1.70540E-05
 -1      4974 6.05575E-08 1.78144E-11-2.58474E-16
 -1      4975 2.67395E-07-8.90239E-12-1.70540E-05
 -1      4976 2.64263E-07-6.26971E-12 1.68644E-05
 -1      4977 6.02037E-08 1.25387E-11 7.78891E-16
 -1      4978 2.64263E-07-6.26862E-12-1.68644E-05
 -1      4979 2.55925E-07 7.02429E-11 1.63268E-05
 -1      4980 5.81126E-08-1.40493E-10 3.01495E-15
 -1      4981 2.55925E-07 7.02421E-11-1.63268E-05
 -1      4982 2.55288E-07 2.07309E-10 1.62664E-05
 -1      4983 5.72763E-08-4.14655E-10-3.17454E-16
 -1      4984 2.55288E-07 2.07306E-10-1.62664E-05
 -1      4985 4.29342E-07-1.37669E-09 2.67364E-05
 -1      4986 7.46762E-08 2.75336E-09-8.69096E-16
 -1      4987 4.29342E-07-1.37669E-09-2.67364E-05
 -1      4988 4.70118E-07 2.12408E-09 2.81920E-05
 -1      4989 4.39440E-08-4.24816E-09-2.78423E-15
 -1      4990 4.70118E-07 2.12408E-09-2.81920E-05
 -1      4991 6.71213E-09 1.32537E-09 3.08086E-07
 -1      4992-2.66856E-09-2.65073E-09-1.43982E-15
 -1      4993 6.71212E-09 1.32537E-09-3.08086E-07
 -1      4994 2.49576E-05 3.38554E-08 1.78081E-03
 -1      4995 1.22513E-05-6.77108E-08-1.51268E-15
 -1      4996 2.49576E-05 3.38554E-08-1.78081E-03
 -1      4997 1.58660E-05 4.09181E-08 1.34521E-03
 -1      4998 1.52271E-05-8.18363E-08-7.49400E-16
 -1      4999 1.58660E-05 4.09181E-08-1.34521E-03
 -1      5000 3.59543E-05-3.04918E-09 2.48232E-03
 -1      5001 1.47474E-05 6.09835E-09 1.09079E-14
 -1      5002 3.59543E-05-3.04918E-09-2.48232E-03
 -1      5003 1.78730E-05 8.34909E-10 1.31704E-03
 -1      5004 1.02303E-05-1.66983E-09 5.34295E-16
 -1      5005 1.78730E-05 8.34908E-10-1.31704E-03
 -1      5006 1.32719E-05-3.30073E-11 9.85283E-04
 -1      5007 7.85131E-06 6.59927E-11-1.29757E-15
 -1      5008 1.32719E-05-3.30078E-11-9.85283E-04
 -1      5009 1.03663E-05 4.07144E-10 7.75444E-04
 -1      5010 6.33726E-06-8.14283E-10-5.88418E-15
 -1      5011 1.03663E-05 4.07144E-10-7.75444E-04
 -1      5012 8.54530E-06-4.03296E-10 6.31482E-04
 -1      5013 4.95377E-06 8.06591E-10 1.15671E-14
 -1      5014 8.54530E-06-4.03298E-10-6.31482E-04
 -1      5015 6.72432E-06-7.19866E-11 4.99855E-04
 -1      5016 4.00074E-06 1.43957E-10 6.35603E-15
 -1      5017 6.72432E-06-7.19865E-11-4.99855E-04
 -1      5018 5.49855E-06 2.74681E-10 4.11168E-04
 -1      5019 3.35632E-06-5.49353E-10 3.80251E-15
 -1      5020 5.49855E-06 2.74680E-10-4.11168E-04
 -1      5021 4.69727E-06-2.60272E-10 3.46500E-04
 -1      5022 2.70139E-06 5.20554E-10-6.20337E-15
 -1      5023 4.69727E-06-2.60273E-10-3.46500E-04
 -1      5024 3.79189E-06-4.07342E-11 2.81459E-04
 -1      5025 2.24165E-06 8.14544E-11-2.84842E-15
 -1      5026 3.79189E-06-4.07364E-11-2.81459E-04
 -1      5027 3.20929E-06 2.15477E-10 2.39133E-04
 -1      5028 1.92930E-06-4.30970E-10 2.61943E-15
 -1      5029 3.20929E-06 2.15477E-10-2.39133E-04
 -1      5030 2.85643E-06-2.13496E-10 2.09036E-04
 -1      5031 1.58437E-06 4.26969E-10 3.01495E-15
 -1      5032 2.85643E-06-2.13495E-10-2.09036E-04
 -1      5033 2.36747E-06-4.80401E-11 1.73999E-04
 -1      5034 1.33918E-06 9.60767E-11-7.25114E-16
 -1      5035 2.36747E-06-4.80417E-11-1.73999E-04
 -1      5036 2.04504E-06 1.85956E-10 1.50748E-04
 -1      5037 1.17238E-06-3.71931E-10-1.83187E-15
 -1      5038 2.04504E-06 1.85956E-10-1.50748E-04
 -1      5039 1.87118E-06-1.71701E-10 1.35085E-04
 -1      5040 9.73320E-07 3.43384E-10-5.82867E-16
 -1      5041 1.87118E-06-1.71702E-10-1.35085E-04
 -1      5042 1.58020E-06-4.56773E-11 1.14271E-04
 -1      5043 8.28683E-07 9.13553E-11 2.36616E-15
 -1      5044 1.58020E-06-4.56794E-11-1.14271E-04
 -1      5045 1.36164E-06-1.55196E-11 9.85543E-05
 -1      5046 7.17158E-07 3.10314E-11-9.36750E-17
 -1      5047 1.36164E-06-1.55219E-11-9.85543E-05
 -1      5048 1.20423E-06 1.39812E-10 8.73443E-05
 -1      5049 6.40649E-07-2.79629E-10 2.43902E-15
 -1      5050 1.20423E-06 1.39813E-10-8.73443E-05
 -1      5051 1.13095E-06-1.29689E-10 8.02349E-05
 -1      5052 5.39022E-07 2.59389E-10 3.58047E-15
 -1      5053 1.13095E-06-1.29689E-10-8.02349E-05
 -1      5054 9.60372E-07-2.88011E-11 6.83985E-05
 -1      5055 4.66985E-07 5.75797E-11 7.59809E-16
 -1      5056 9.60372E-07-2.88001E-11-6.83985E-05
 -1      5057 8.52533E-07 1.23167E-10 6.08749E-05
 -1      5058 4.20022E-07-2.46322E-10 2.93168E-15
 -1      5059 8.52533E-07 1.23169E-10-6.08749E-05
 -1      5060 8.14797E-07-1.10405E-10 5.68270E-05
 -1      5061 3.54188E-07 2.20816E-10-3.98639E-15
 -1      5062 8.14797E-07-1.10404E-10-5.68270E-05
 -1      5063 6.96210E-07-2.67116E-11 4.87106E-05
 -1      5064 3.08025E-07 5.34257E-11-6.27623E-15
 -1      5065 6.96210E-07-2.67103E-11-4.87106E-05
 -1      5066 6.21342E-07 1.11783E-10 4.35860E-05
 -1      5067 2.78866E-07-2.23544E-10 1.33400E-15
 -1      5068 6.21342E-07 1.11784E-10-4.35860E-05
 -1      5069 6.03761E-07-1.03596E-10 4.13253E-05
 -1      5070 2.35113E-07 2.07175E-10-2.28983E-15
 -1      5071 6.03761E-07-1.03595E-10-4.13253E-05
 -1      5072 5.19236E-07-4.38460E-11 3.56197E-05
 -1      5073 2.04984E-07 8.76568E-11 1.07553E-15
 -1      5074 5.19236E-07-4.38458E-11-3.56197E-05
 -1      5075 4.58592E-07 8.69307E-11 3.16354E-05
 -1      5076 1.87181E-07-1.73856E-10 6.40113E-16
 -1      5077 4.58592E-07 8.69305E-11-3.16354E-05
 -1      5078 4.47848E-07-1.35752E-10 3.01970E-05
 -1      5079 1.58461E-07 2.71491E-10-2.32453E-16
 -1      5080 4.47848E-07-1.35753E-10-3.01970E-05
 -1      5081 3.73716E-07-1.10003E-10 2.54269E-05
 -1      5082 1.40202E-07 2.20025E-10 1.54911E-15
 -1      5083 3.73716E-07-1.10002E-10-2.54269E-05
 -1      5084 3.07205E-07-4.10079E-11 2.13979E-05
 -1      5085 1.32572E-07 8.20312E-11 3.20230E-15
 -1      5086 3.07205E-07-4.10077E-11-2.13979E-05
 -1      5087 2.75556E-07-2.51785E-10 1.91764E-05
 -1      5088 1.18321E-07 5.03592E-10 1.82319E-15
 -1      5089 2.75556E-07-2.51784E-10-1.91764E-05
 -1      5090 1.58720E-07 2.68614E-10 1.24045E-05
 -1      5091 1.15586E-07-5.37235E-10-2.49974E-15
 -1      5092 1.58720E-07 2.68614E-10-1.24045E-05
 -1      5093-1.19759E-07 1.98433E-09-3.10858E-06
 -1      5094 1.30978E-07-3.96867E-09-2.93168E-15
 -1      5095-1.19759E-07 1.98433E-09 3.10858E-06
 -1      5096 8.42990E-07-3.30206E-09 5.06757E-05
 -1      5097 8.31037E-08 6.60414E-09-1.21778E-15
 -1      5098 8.42990E-07-3.30206E-09-5.06757E-05
 -1      5099 5.72397E-07-7.45338E-10 3.38222E-05
 -1      5100 3.59395E-08 1.49066E-09-1.52482E-15
 -1      5101 5.72397E-07-7.45334E-10-3.38222E-05
 -1      5102 3.89620E-05 6.93800E-09 3.02029E-03
 -1      5103 2.75106E-05-1.38760E-08 8.34055E-15
 -1      5104 3.89620E-05 6.93800E-09-3.02029E-03
 -1      5105 4.11182E-05-1.97949E-09 3.17136E-03
 -1      5106 2.84719E-05 3.95899E-09 2.27457E-14
 -1      5107 4.11182E-05-1.97949E-09-3.17136E-03
 -1      5108 4.23172E-05-9.99467E-10 3.21045E-03
 -1      5109 2.74386E-05 1.99895E-09-1.67921E-15
 -1      5110 4.23172E-05-9.99467E-10-3.21045E-03
 -1      5111 4.08385E-05-5.45793E-10 3.08557E-03
 -1      5112 2.60364E-05 1.09159E-09 4.53804E-15
 -1      5113 4.08385E-05-5.45793E-10-3.08557E-03
 -1      5114 4.04479E-05-4.10594E-10 3.04381E-03
 -1      5115 2.53602E-05 8.21196E-10 7.91035E-16
 -1      5116 4.04479E-05-4.10596E-10-3.04381E-03
 -1      5117 4.03703E-05-5.63680E-11 3.03739E-03
 -1      5118 2.52913E-05 1.12749E-10 1.70697E-15
 -1      5119 4.03703E-05-5.63683E-11-3.03739E-03
 -1      5120 4.04127E-05-4.89926E-11 3.04117E-03
 -1      5121 2.53384E-05 9.79759E-11-1.16573E-14
 -1      5122 4.04127E-05-4.89931E-11-3.04117E-03
 -1      5123 4.03961E-05-8.02285E-11 3.03722E-03
 -1      5124 2.52337E-05 1.60448E-10-7.32747E-15
 -1      5125 4.03961E-05-8.02298E-11-3.03722E-03
 -1      5126 4.07685E-05 8.22410E-10 3.05361E-03
 -1      5127 2.50611E-05-1.64484E-09-1.76248E-15
 -1      5128 4.07685E-05 8.22410E-10-3.05361E-03
 -1      5129 4.28131E-05-1.12663E-10 3.19944E-03
 -1      5130 2.60630E-05 2.25336E-10-6.81399E-15
 -1      5131 4.28131E-05-1.12664E-10-3.19944E-03
 -1      5132 4.56655E-05-1.64762E-09 3.41152E-03
 -1      5133 2.77614E-05 3.29523E-09 4.62131E-15
 -1      5134 4.56655E-05-1.64761E-09-3.41152E-03
 -1      5135 8.79628E-06 3.85985E-10 6.40031E-04
 -1      5136 4.75027E-06-7.71967E-10 5.52336E-15
 -1      5137 8.79628E-06 3.85986E-10-6.40031E-04
 -1      5138 1.38067E-05 1.25107E-07 1.37727E-03
 -1      5139 2.04640E-05-2.50214E-07-6.60583E-15
 -1      5140 1.38067E-05 1.25107E-07-1.37727E-03
 -1      5141 1.70248E-05-1.04236E-08 1.28828E-03
 -1      5142 1.09227E-05 2.08473E-08 3.01842E-15
 -1      5143 1.70248E-05-1.04236E-08-1.28828E-03
 -1      5144 1.06526E-05-2.75712E-10 8.17895E-04
 -1      5145 7.24653E-06 5.51428E-10-5.03764E-15
 -1      5146 1.06526E-05-2.75713E-10-8.17895E-04
 -1      5147 5.69624E-06-3.29426E-12 4.17337E-04
 -1      5148 3.17632E-06 6.59861E-12-2.38004E-15
 -1      5149 5.69624E-06-3.29505E-12-4.17337E-04
 -1      5150 3.79063E-06-1.42665E-10 2.77806E-04
 -1      5151 2.11667E-06 2.85342E-10 2.64719E-15
 -1      5152 3.79063E-06-1.42665E-10-2.77806E-04
 -1      5153 2.89744E-06 5.62057E-11 2.08891E-04
 -1      5154 1.49731E-06-1.12416E-10-1.14145E-15
 -1      5155 2.89744E-06 5.62056E-11-2.08891E-04
 -1      5156 2.17956E-06 4.39622E-11 1.56655E-04
 -1      5157 1.10954E-06-8.79184E-11 9.88792E-16
 -1      5158 2.17956E-06 4.39613E-11-1.56655E-04
 -1      5159 1.62572E-06-1.65303E-11 1.15599E-04
 -1      5160 7.84024E-07 3.30624E-11-4.69069E-15
 -1      5161 1.62572E-06-1.65296E-11-1.15599E-04
 -1      5162 1.29912E-06 4.22105E-11 9.18043E-05
 -1      5163 6.06565E-07-8.44243E-11 2.81025E-16
 -1      5164 1.29912E-06 4.22101E-11-9.18043E-05
 -1      5165 9.83434E-07-5.20084E-11 6.90339E-05
 -1      5166 4.43044E-07 1.04011E-10-5.58581E-16
 -1      5167 9.83434E-07-5.20089E-11-6.90339E-05
 -1      5168 8.41642E-07 2.86968E-11 5.78716E-05
 -1      5169 3.36971E-07-5.73901E-11 2.15800E-15
 -1      5170 8.41642E-07 2.86974E-11-5.78716E-05
 -1      5171 6.74260E-07 1.75565E-11 4.63213E-05
 -1      5172 2.68520E-07-3.51071E-11 2.49800E-16
 -1      5173 6.74260E-07 1.75563E-11-4.63213E-05
 -1      5174 5.27904E-07-6.53616E-11 3.59813E-05
 -1      5175 2.00276E-07 1.30728E-10 5.27356E-16
 -1      5176 5.27904E-07-6.53600E-11-3.59813E-05
 -1      5177 4.90494E-07-3.90075E-11 3.25071E-05
 -1      5178 1.53817E-07 7.80205E-11 1.75207E-16
 -1      5179 4.90494E-07-3.90084E-11-3.25071E-05
 -1      5180 4.78870E-07-2.83686E-11 3.07168E-05
 -1      5181 1.14569E-07 5.67299E-11 3.57353E-16
 -1      5182 4.78870E-07-2.83669E-11-3.07168E-05
 -1      5183 2.09364E-07 2.26359E-10 1.43718E-05
 -1      5184 8.29808E-08-4.52719E-10-3.40006E-16
 -1      5185 2.09364E-07 2.26360E-10-1.43718E-05
 -1      5186-1.06009E-07-2.38011E-09-3.24284E-06
 -1      5187 9.87944E-08 4.76021E-09-2.54137E-15
 -1      5188-1.06009E-07-2.38011E-09 3.24284E-06
 -1      5189 8.24921E-07 3.77047E-09 5.01351E-05
 -1      5190 1.00364E-07-7.54091E-09 6.22766E-16
 -1      5191 8.24921E-07 3.77047E-09-5.01351E-05
 -1      5192 2.11627E-07-2.18268E-10 1.37625E-05
 -1      5193 5.71883E-08 4.36517E-10-5.96745E-16
 -1      5194 2.11627E-07-2.18269E-10-1.37625E-05
 -1      5195 2.29838E-07-1.25244E-10 1.48212E-05
 -1      5196 5.77257E-08 2.50481E-10 1.12757E-16
 -1      5197 2.29838E-07-1.25246E-10-1.48212E-05
 -1      5198 2.54018E-07 2.94121E-11 1.63073E-05
 -1      5199 6.12430E-08-5.88350E-11 3.79904E-15
 -1      5200 2.54018E-07 2.94138E-11-1.63073E-05
 -1      5201 2.65832E-07 4.80063E-11 1.69917E-05
 -1      5202 6.15066E-08-9.60164E-11 3.02189E-15
 -1      5203 2.65832E-07 4.80084E-11-1.69917E-05
 -1      5204 2.62588E-07-1.11276E-11 1.67820E-05
 -1      5205 6.06765E-08 2.22315E-11-4.49120E-15
 -1      5206 2.62588E-07-1.11267E-11-1.67820E-05
 -1      5207 2.62207E-07-3.45446E-11 1.67549E-05
 -1      5208 6.04910E-08 6.90975E-11-1.20563E-15
 -1      5209 2.62207E-07-3.45433E-11-1.67549E-05
 -1      5210 2.58438E-07 3.40087E-11 1.65059E-05
 -1      5211 5.93400E-08-6.80456E-11 1.49013E-15
 -1      5212 2.58438E-07 3.40082E-11-1.65059E-05
 -1      5213 2.53865E-07 1.66453E-10 1.61725E-05
 -1      5214 5.68450E-08-3.32903E-10 4.04191E-15
 -1      5215 2.53865E-07 1.66454E-10-1.61725E-05
 -1      5216 3.08626E-07-2.49640E-10 1.94745E-05
 -1      5217 6.25945E-08 4.99287E-10-3.40179E-15
 -1      5218 3.08626E-07-2.49640E-10-1.94745E-05
 -1      5219 4.82098E-07-9.37257E-11 2.97264E-05
 -1      5220 7.35444E-08 1.87435E-10 3.20230E-15
 -1      5221 4.82098E-07-9.37253E-11-2.97264E-05
 -1      5222 2.93558E-05 2.21332E-09 2.28848E-03
 -1      5223 2.11761E-05-4.42662E-09-8.21565E-15
 -1      5224 2.93558E-05 2.21332E-09-2.28848E-03
 -1      5225 2.97283E-05-2.53489E-09 2.32786E-03
 -1      5226 2.18061E-05 5.06979E-09 1.54044E-15
 -1      5227 2.97283E-05-2.53489E-09-2.32786E-03
 -1      5228 2.34894E-05-4.55878E-08 1.96512E-03
 -1      5229 2.16203E-05 9.11756E-08-1.94289E-15
 -1      5230 2.34894E-05-4.55878E-08-1.96512E-03
 -1      5231 3.13743E-05-6.90633E-10 2.36724E-03
 -1      5232 1.98891E-05 1.38126E-09 1.42941E-15
 -1      5233 3.13743E-05-6.90633E-10-2.36724E-03
 -1      5234 3.14357E-05-4.46570E-10 2.36118E-03
 -1      5235 1.95548E-05 8.93140E-10 1.56819E-15
 -1      5236 3.14357E-05-4.46570E-10-2.36118E-03
 -1      5237 3.13879E-05-4.51918E-11 2.35979E-03
 -1      5238 1.96018E-05 9.03788E-11-1.45439E-14
 -1      5239 3.13879E-05-4.51921E-11-2.35979E-03
 -1      5240 3.13716E-05-1.18797E-10 2.36007E-03
 -1      5241 1.96443E-05 2.37590E-10-8.46545E-15
 -1      5242 3.13716E-05-1.18796E-10-2.36007E-03
 -1      5243 3.14767E-05 1.98934E-12 2.36221E-03
 -1      5244 1.95086E-05-3.98682E-12-8.46544E-16
 -1      5245 3.14767E-05 1.98934E-12-2.36221E-03
 -1      5246 3.23992E-05 1.17532E-09 2.40564E-03
 -1      5247 1.91798E-05-2.35064E-09 3.70537E-15
 -1      5248 3.23992E-05 1.17532E-09-2.40564E-03
 -1      5249 3.32455E-05-3.78265E-10 2.49110E-03
 -1      5250 2.04706E-05 7.56536E-10-1.74860E-15
 -1      5251 3.32455E-05-3.78264E-10-2.49110E-03
 -1      5252 2.46106E-05-4.28687E-08 2.05303E-03
 -1      5253 2.24469E-05 8.57374E-08 1.40027E-14
 -1      5254 2.46106E-05-4.28687E-08-2.05303E-03
 -1      5255 1.12072E-05-1.67485E-09 8.83652E-04
 -1      5256 8.43265E-06 3.34971E-09 1.26982E-15
 -1      5257 1.12072E-05-1.67485E-09-8.83652E-04
 -1      5258 3.49920E-06 7.87791E-11 2.56297E-04
 -1      5259 1.94866E-06-1.57550E-10 1.01308E-15
 -1      5260 3.49920E-06 7.87788E-11-2.56297E-04
 -1      5261 1.10136E-05 9.42002E-10 7.90284E-04
 -1      5262 5.56083E-06-1.88403E-09-4.37150E-15
 -1      5263 1.10136E-05 9.42002E-10-7.90284E-04
 -1      5264 6.20409E-06-1.45969E-10 4.54773E-04
 -1      5265 3.46748E-06 2.91945E-10 1.40166E-15
 -1      5266 6.20409E-06-1.45970E-10-4.54773E-04
 -1      5267 1.29537E-05 1.88402E-09 9.45553E-04
 -1      5268 7.10087E-06-3.76804E-09-1.87350E-16
 -1      5269 1.29537E-05 1.88402E-09-9.45553E-04
 -1      5270 4.71823E-05-9.19566E-11 3.26018E-03
 -1      5271 1.94457E-05 1.83915E-10 1.80411E-15
 -1      5272 4.71823E-05-9.19569E-11-3.26018E-03
 -1      5273 8.07277E-06 1.03577E-10 5.86825E-04
 -1      5274 4.33993E-06-2.07145E-10 2.13024E-15
 -1      5275 8.07277E-06 1.03578E-10-5.86825E-04
 -1      5276 2.82066E-07-3.85139E-10 1.81113E-05
 -1      5277 6.81242E-08 7.70272E-10 8.95117E-16
 -1      5278 2.82066E-07-3.85141E-10-1.81113E-05
 -1      5279 2.63699E-06 2.08180E-12 1.90743E-04
 -1      5280 1.38468E-06-4.16186E-12-8.98587E-16
 -1      5281 2.63699E-06 2.08116E-12-1.90743E-04
 -1      5282 2.02619E-06-4.23961E-11 1.44866E-04
 -1      5283 1.00474E-06 8.48025E-11 6.07847E-15
 -1      5284 2.02619E-06-4.23957E-11-1.44866E-04
 -1      5285 1.52974E-06-1.62442E-11 1.08705E-04
 -1      5286 7.35306E-07 3.24893E-11 4.68375E-16
 -1      5287 1.52974E-06-1.62451E-11-1.08705E-04
 -1      5288 1.21525E-06-3.23822E-11 8.54693E-05
 -1      5289 5.53163E-07 6.47786E-11-2.21004E-15
 -1      5290 1.21525E-06-3.23827E-11-8.54693E-05
 -1      5291 9.53324E-07 3.75891E-11 6.66000E-05
 -1      5292 4.18302E-07-7.51828E-11 1.33921E-15
 -1      5293 9.53324E-07 3.75895E-11-6.66000E-05
 -1      5294 7.71772E-07 6.95609E-12 5.33418E-05
 -1      5295 3.18576E-07-1.39367E-11-3.48679E-15
 -1      5296 7.71772E-07 6.95589E-12-5.33418E-05
 -1      5297 6.23465E-07-3.39442E-11 4.28317E-05
 -1      5298 2.48292E-07 6.78912E-11 5.25274E-15
 -1      5299 6.23465E-07-3.39446E-11-4.28317E-05
 -1      5300 4.61256E-07-4.84844E-12 3.19587E-05
 -1      5301 1.93140E-07 9.71647E-12 2.97852E-15
 -1      5302 4.61256E-07-4.84891E-12-3.19587E-05
 -1      5303 4.53933E-07-5.86601E-11 3.02447E-05
 -1      5304 1.47960E-07 1.17318E-10 3.09822E-15
 -1      5305 4.53933E-07-5.86606E-11-3.02447E-05
 -1      5306 4.80636E-07 3.28554E-11 3.02726E-05
 -1      5307 9.55338E-08-6.57254E-11 2.40780E-15
 -1      5308 4.80636E-07 3.28553E-11-3.02726E-05
 -1      5309-9.06017E-08 1.16040E-09-3.34370E-06
 -1      5310 6.44648E-08-2.32080E-09 1.49186E-15
 -1      5311-9.06017E-08 1.16040E-09 3.34370E-06
 -1      5312 1.00767E-06 2.53495E-09 6.23551E-05
 -1      5313 1.61459E-07-5.06991E-09 1.95156E-15
 -1      5314 1.00767E-06 2.53495E-09-6.23551E-05
 -1      5315 1.58651E-07-8.39380E-10 1.07724E-05
 -1      5316 5.87554E-08 1.67875E-09 3.47292E-15
 -1      5317 1.58651E-07-8.39382E-10-1.07724E-05
 -1      5318 1.47621E-07-3.23243E-10 1.01585E-05
 -1      5319 5.93857E-08 6.46482E-10-1.96544E-15
 -1      5320 1.47621E-07-3.23242E-10-1.01585E-05
 -1      5321 2.65478E-07 7.64316E-11 1.71681E-05
 -1      5322 6.83743E-08-1.52847E-10 1.79197E-15
 -1      5323 2.65478E-07 7.64316E-11-1.71681E-05
 -1      5324 3.02772E-07 6.27245E-11 1.93685E-05
 -1      5325 7.06015E-08-1.25449E-10 2.35749E-15
 -1      5326 3.02772E-07 6.27232E-11-1.93685E-05
 -1      5327 3.05640E-07 6.22770E-11 1.95049E-05
 -1      5328 6.96290E-08-1.24583E-10 6.33174E-16
 -1      5329 3.05640E-07 6.22778E-11-1.95049E-05
 -1      5330 2.91812E-07-2.72520E-11 1.86802E-05
 -1      5331 6.84944E-08 5.44900E-11-2.51361E-15
 -1      5332 2.91812E-07-2.72497E-11-1.86802E-05
 -1      5333 2.92455E-07-6.76248E-11 1.87262E-05
 -1      5334 6.88142E-08 1.35228E-10-1.75381E-15
 -1      5335 2.92455E-07-6.76242E-11-1.87262E-05
 -1      5336 2.72062E-07 1.35473E-10 1.74935E-05
 -1      5337 6.65673E-08-2.70932E-10-3.51282E-15
 -1      5338 2.72062E-07 1.35471E-10-1.74935E-05
 -1      5339 2.23239E-07 4.86861E-10 1.45450E-05
 -1      5340 6.12798E-08-9.73735E-10 4.78090E-15
 -1      5341 2.23239E-07 4.86858E-10-1.45450E-05
 -1      5342 3.28374E-07-8.12982E-10 2.08642E-05
 -1      5343 7.16130E-08 1.62595E-09-2.52576E-15
 -1      5344 3.28374E-07-8.12983E-10-2.08642E-05
 -1      5345 1.15020E-06 5.94502E-09 6.86285E-05
 -1      5346 9.54080E-08-1.18900E-08 3.89792E-15
 -1      5347 1.15020E-06 5.94502E-09-6.86285E-05
 -1      5348 2.54032E-05-1.09072E-08 1.76745E-03
 -1      5349 1.08937E-05 2.18144E-08 1.88044E-15
 -1      5350 2.54032E-05-1.09072E-08-1.76745E-03
 -1      5351 2.84757E-05 3.24706E-09 2.27442E-03
 -1      5352 2.24454E-05-6.49412E-09 1.12688E-14
 -1      5353 2.84757E-05 3.24706E-09-2.27442E-03
 -1      5354 3.06008E-05-1.33322E-08 2.39152E-03
 -1      5355 2.22832E-05 2.66643E-08 5.23193E-15
 -1      5356 3.06008E-05-1.33322E-08-2.39152E-03
 -1      5357 4.08226E-05 3.67199E-08 3.01191E-03
 -1      5358 2.34976E-05-7.34398E-08-2.31759E-15
 -1      5359 4.08226E-05 3.67199E-08-3.01191E-03
 -1      5360 2.91196E-05 2.90396E-08 2.03991E-03
 -1      5361 1.29724E-05-5.80792E-08 5.40540E-15
 -1      5362 2.91196E-05 2.90396E-08-2.03991E-03
 -1      5363 1.41405E-05-7.32389E-10 1.06858E-03
 -1      5364 9.02193E-06 1.46477E-09 4.32293E-15
 -1      5365 1.41405E-05-7.32390E-10-1.06858E-03
 -1      5366 1.05316E-05-2.88854E-11 8.05084E-04
 -1      5367 7.04121E-06 5.77609E-11-7.58421E-15
 -1      5368 1.05316E-05-2.88862E-11-8.05084E-04
 -1      5369 8.47310E-06-1.82389E-11 6.46077E-04
 -1      5370 5.60757E-06 3.64771E-11 1.79024E-15
 -1      5371 8.47310E-06-1.82386E-11-6.46077E-04
 -1      5372 6.72795E-06-1.41737E-10 5.14247E-04
 -1      5373 4.49585E-06 2.83469E-10 1.21431E-15
 -1      5374 6.72795E-06-1.41740E-10-5.14247E-04
 -1      5375 5.29378E-06-1.06062E-10 4.08078E-04
 -1      5376 3.65794E-06 2.12128E-10-8.67362E-16
 -1      5377 5.29378E-06-1.06062E-10-4.08078E-04
 -1      5378 4.31189E-06 8.51599E-11 3.32912E-04
 -1      5379 2.99774E-06-1.70301E-10-7.25808E-15
 -1      5380 4.31189E-06 8.51595E-11-3.32912E-04
 -1      5381 3.50196E-06-2.32605E-11 2.71382E-04
 -1      5382 2.46968E-06 4.65236E-11-4.59008E-15
 -1      5383 3.50196E-06-2.32613E-11-2.71382E-04
 -1      5384 2.86508E-06-5.09693E-11 2.23276E-04
 -1      5385 2.06413E-06 1.01950E-10-1.43635E-15
 -1      5386 2.86508E-06-5.09695E-11-2.23276E-04
 -1      5387 2.45142E-06 5.89618E-11 1.90121E-04
 -1      5388 1.73406E-06-1.17935E-10-1.73125E-15
 -1      5389 2.45142E-06 5.89620E-11-1.90121E-04
 -1      5390 2.08057E-06-4.16447E-11 1.61019E-04
 -1      5391 1.45982E-06 8.32816E-11-6.93889E-16
 -1      5392 2.08057E-06-4.16447E-11-1.61019E-04
 -1      5393 1.76298E-06-5.89877E-11 1.36597E-04
 -1      5394 1.24249E-06 1.17987E-10-4.19803E-16
 -1      5395 1.76298E-06-5.89871E-11-1.36597E-04
 -1      5396 1.55106E-06 3.68312E-11 1.19202E-04
 -1      5397 1.05907E-06-7.36499E-11-9.19403E-16
 -1      5398 1.55106E-06 3.68329E-11-1.19202E-04
 -1      5399 1.33825E-06-4.36256E-11 1.02501E-04
 -1      5400 9.01708E-07 8.72402E-11-5.48520E-15
 -1      5401 1.33825E-06-4.36262E-11-1.02501E-04
 -1      5402 1.14640E-06-2.14407E-11 8.78729E-05
 -1      5403 7.74740E-07 4.28771E-11-2.06779E-15
 -1      5404 1.14640E-06-2.14408E-11-8.78729E-05
 -1      5405 9.89017E-07-3.61206E-11 7.59167E-05
 -1      5406 6.72126E-07 7.22470E-11 1.10328E-15
 -1      5407 9.89017E-07-3.61219E-11-7.59167E-05
 -1      5408 8.91367E-07 3.49417E-11 6.77579E-05
 -1      5409 5.82613E-07-6.98712E-11 4.66294E-15
 -1      5410 8.91367E-07 3.49420E-11-6.77579E-05
 -1      5411 7.84467E-07-2.44388E-11 5.93709E-05
 -1      5412 5.03633E-07 4.88794E-11 2.27943E-15
 -1      5413 7.84467E-07-2.44391E-11-5.93709E-05
 -1      5414 6.87622E-07-3.41525E-11 5.19717E-05
 -1      5415 4.39027E-07 6.83168E-11-1.69309E-15
 -1      5416 6.87622E-07-3.41508E-11-5.19717E-05
 -1      5417 6.31933E-07 2.79556E-11 4.71487E-05
 -1      5418 3.82041E-07-5.59068E-11-2.25514E-15
 -1      5419 6.31933E-07 2.79568E-11-4.71487E-05
 -1      5420 5.64662E-07-2.10534E-11 4.18369E-05
 -1      5421 3.31158E-07 4.21226E-11 2.07126E-15
 -1      5422 5.64662E-07-2.10533E-11-4.18369E-05
 -1      5423 5.00369E-07-2.72544E-11 3.69560E-05
 -1      5424 2.89358E-07 5.45084E-11-3.09475E-15
 -1      5425 5.00369E-07-2.72536E-11-3.69560E-05
 -1      5426 4.68466E-07 2.46065E-11 3.40596E-05
 -1      5427 2.52056E-07-4.92074E-11-5.40366E-15
 -1      5428 4.68466E-07 2.46091E-11-3.40596E-05
 -1      5429 4.28370E-07-2.71284E-11 3.07986E-05
 -1      5430 2.18409E-07 5.42557E-11 2.12330E-15
 -1      5431 4.28370E-07-2.71277E-11-3.07986E-05
 -1      5432 3.86025E-07-4.44762E-11 2.75882E-05
 -1      5433 1.91028E-07 8.89629E-11 3.49026E-15
 -1      5434 3.86025E-07-4.44753E-11-2.75882E-05
 -1      5435 3.62078E-07-9.83938E-12 2.55302E-05
 -1      5436 1.67080E-07 1.96905E-11-1.09288E-15
 -1      5437 3.62078E-07-9.84204E-12-2.55302E-05
 -1      5438 3.23494E-07-7.16283E-11 2.27231E-05
 -1      5439 1.46256E-07 1.43269E-10-3.83374E-16
 -1      5440 3.23494E-07-7.16312E-11-2.27231E-05
 -1      5441 2.71101E-07-1.40641E-10 1.92886E-05
 -1      5442 1.31147E-07 2.81291E-10-3.54924E-15
 -1      5443 2.71101E-07-1.40643E-10-1.92886E-05
 -1      5444 2.16736E-07-3.15688E-10 1.58918E-05
 -1      5445 1.21294E-07 6.31379E-10 5.84602E-16
 -1      5446 2.16736E-07-3.15685E-10-1.58918E-05
 -1      5447 7.80455E-08-9.80164E-10 7.92714E-06
 -1      5448 1.20628E-07 1.96033E-09-4.12864E-16
 -1      5449 7.80456E-08-9.80166E-10-7.92714E-06
 -1      5450-5.32899E-07-2.91512E-09-2.62907E-05
 -1      5451 1.47964E-07 5.83025E-09-7.49401E-16
 -1      5452-5.32899E-07-2.91511E-09 2.62907E-05
 -1      5453 6.67474E-07-1.50317E-09 4.44641E-05
 -1      5454 2.17268E-07 3.00632E-09-8.93383E-16
 -1      5455 6.67474E-07-1.50317E-09-4.44641E-05
 -1      5456 4.14799E-06-6.13963E-11 3.04138E-04
 -1      5457 2.32116E-06 1.22793E-10-7.87911E-15
 -1      5458 4.14799E-06-6.13958E-11-3.04138E-04
 -1      5459 3.11002E-05 1.09031E-09 2.36609E-03
 -1      5460 2.03969E-05-2.18063E-09-1.02418E-14
 -1      5461 3.11002E-05 1.09031E-09-2.36609E-03
 -1      5462 1.35603E-05 4.15715E-08 1.47078E-03
 -1      5463 2.42208E-05-8.31431E-08 1.45994E-14
 -1      5464 1.35603E-05 4.15715E-08-1.47078E-03
 -1      5465 3.14133E-05-5.42555E-10 2.36251E-03
 -1      5466 1.96462E-05 1.08511E-09 2.47025E-15
 -1      5467 3.14133E-05-5.42553E-10-2.36251E-03
 -1      5468 3.14951E-05-1.79920E-10 2.36487E-03
 -1      5469 1.95648E-05 3.59845E-10-3.66373E-15
 -1      5470 3.14951E-05-1.79923E-10-2.36487E-03
 -1      5471 3.13778E-05 1.05986E-11 2.36008E-03
 -1      5472 1.96323E-05-2.12106E-11-5.25968E-15
 -1      5473 3.13778E-05 1.06001E-11-2.36008E-03
 -1      5474 3.14314E-05-4.16134E-10 2.36295E-03
 -1      5475 1.96253E-05 8.32273E-10 2.37310E-15
 -1      5476 3.14314E-05-4.16134E-10-2.36295E-03
 -1      5477 3.19851E-05 2.98842E-09 2.38357E-03
 -1      5478 1.92378E-05-5.97683E-09 6.02296E-15
 -1      5479 3.19851E-05 2.98842E-09-2.38357E-03
 -1      5480 3.24196E-05-4.49642E-09 2.42298E-03
 -1      5481 1.97444E-05 8.99285E-09-3.09475E-15
 -1      5482 3.24196E-05-4.49642E-09-2.42298E-03
 -1      5483 3.46006E-05 1.85410E-08 2.56761E-03
 -1      5484 2.04313E-05-3.70820E-08 8.90954E-15
 -1      5485 3.46006E-05 1.85410E-08-2.56761E-03
 -1      5486 5.08349E-06-2.41856E-10 3.71975E-04
 -1      5487 2.81828E-06 4.83711E-10-3.52496E-15
 -1      5488 5.08349E-06-2.41856E-10-3.71975E-04
 -1      5489 3.06344E-06-3.95798E-11 2.22540E-04
 -1      5490 1.64177E-06 7.91627E-11-2.52923E-15
 -1      5491 3.06344E-06-3.95809E-11-2.22540E-04
 -1      5492 2.29072E-06 5.69890E-11 1.65027E-04
 -1      5493 1.17952E-06-1.13981E-10-1.17961E-15
 -1      5494 2.29072E-06 5.69905E-11-1.65027E-04
 -1      5495 1.75890E-06 3.81683E-12 1.25272E-04
 -1      5496 8.55353E-07-7.65327E-12-2.06085E-15
 -1      5497 1.75890E-06 3.81465E-12-1.25272E-04
 -1      5498 1.34745E-06 3.92910E-11 9.54800E-05
 -1      5499 6.38222E-07-7.85925E-11 4.50681E-15
 -1      5500 1.34745E-06 3.92908E-11-9.54800E-05
 -1      5501 1.07834E-06-2.67697E-13 7.54932E-05
 -1      5502 4.78718E-07 5.47517E-13-7.70217E-16
 -1      5503 1.07834E-06-2.68156E-13-7.54932E-05
 -1      5504 8.52764E-07-2.91779E-11 5.93247E-05
 -1      5505 3.65451E-07 5.83422E-11 5.69683E-15
 -1      5506 8.52764E-07-2.91769E-11-5.93247E-05
 -1      5507 6.34816E-07 2.07361E-11 4.44413E-05
 -1      5508 2.81776E-07-4.14822E-11-3.76955E-15
 -1      5509 6.34816E-07 2.07350E-11-4.44413E-05
 -1      5510 5.21977E-07-4.81983E-11 3.61584E-05
 -1      5511 2.18306E-07 9.64229E-11 1.62717E-15
 -1      5512 5.21977E-07-4.81984E-11-3.61584E-05
 -1      5513 3.82120E-07-7.27856E-11 2.67926E-05
 -1      5514 1.71069E-07 1.45564E-10 4.35589E-15
 -1      5515 3.82120E-07-7.27870E-11-2.67926E-05
 -1      5516 4.21777E-07 2.64007E-11 2.77280E-05
 -1      5517 1.24416E-07-5.27891E-11-5.08101E-15
 -1      5518 4.21777E-07 2.63976E-11-2.77280E-05
 -1      5519 3.76922E-07 1.18518E-09 2.35106E-05
 -1      5520 6.69016E-08-2.37032E-09-2.58474E-16
 -1      5521 3.76923E-07 1.18518E-09-2.35106E-05
 -1      5522-5.42525E-07 3.01982E-09-2.80940E-05
 -1      5523 1.04270E-07-6.03964E-09 1.47451E-15
 -1      5524-5.42525E-07 3.01982E-09 2.80940E-05
 -1      5525 2.21650E-07-3.81213E-10 1.45293E-05
 -1      5526 6.39118E-08 7.62428E-10-2.63158E-15
 -1      5527 2.21650E-07-3.81213E-10-1.45293E-05
 -1      5528 2.90580E-07 2.38487E-11 1.86508E-05
 -1      5529 6.99310E-08-4.77183E-11-7.45931E-17
 -1      5530 2.90580E-07 2.38514E-11-1.86508E-05
 -1      5531 2.99770E-07 6.19543E-11 1.91912E-05
 -1      5532 7.04185E-08-1.23882E-10 4.76182E-15
 -1      5533 2.99770E-07 6.19559E-11-1.91912E-05
 -1      5534 3.05857E-07 3.57854E-11 1.94935E-05
 -1      5535 6.87967E-08-7.15733E-11-8.27463E-16
 -1      5536 3.05857E-07 3.57848E-11-1.94935E-05
 -1      5537 3.01882E-07-4.39651E-11 1.92614E-05
 -1      5538 6.86436E-08 8.79256E-11-7.11237E-17
 -1      5539 3.01882E-07-4.39626E-11-1.92614E-05
 -1      5540 2.92740E-07 3.53551E-12 1.87285E-05
 -1      5541 6.83236E-08-7.07384E-12 2.18922E-15
 -1      5542 2.92740E-07 3.53717E-12-1.87285E-05
 -1      5543 2.61818E-07 9.40068E-11 1.68485E-05
 -1      5544 6.45368E-08-1.88017E-10 1.39992E-15
 -1      5545 2.61818E-07 9.40054E-11-1.68485E-05
 -1      5546 2.26353E-07 5.03466E-10 1.47077E-05
 -1      5547 6.07319E-08-1.00692E-09-1.70176E-15
 -1      5548 2.26353E-07 5.03464E-10-1.47077E-05
 -1      5549 1.18199E-06-6.36088E-09 7.11777E-05
 -1      5550 1.20823E-07 1.27218E-08-1.84748E-15
 -1      5551 1.18199E-06-6.36088E-09-7.11777E-05
 -1      5552 3.26193E-06 4.02794E-11 2.37895E-04
 -1      5553 1.78081E-06-8.05705E-11-4.03150E-15
 -1      5554 3.26193E-06 4.02805E-11-2.37895E-04
 -1      5555 1.01185E-06 1.29322E-11 7.07908E-05
 -1      5556 4.47546E-07-2.58540E-11 2.44249E-15
 -1      5557 1.01185E-06 1.29338E-11-7.07908E-05
 -1      5558 2.28202E-05 6.20743E-09 1.78657E-03
 -1      5559 1.67263E-05-1.24149E-08 3.54578E-15
 -1      5560 2.28202E-05 6.20743E-09-1.78657E-03
 -1      5561 2.50599E-05-5.30922E-10 1.87220E-03
 -1      5562 1.52365E-05 1.06185E-09-3.70537E-15
 -1      5563 2.50599E-05-5.30921E-10-1.87220E-03
 -1      5564 2.50977E-05-1.02578E-10 1.87637E-03
 -1      5565 1.53065E-05 2.05152E-10 2.34535E-15
 -1      5566 2.50977E-05-1.02578E-10-1.87637E-03
 -1      5567 2.48528E-05 9.09006E-11 1.86434E-03
 -1      5568 1.53766E-05-1.81793E-10 3.29598E-15
 -1      5569 2.48528E-05 9.08994E-11-1.86434E-03
 -1      5570 3.24775E-07-8.09399E-11 2.08290E-05
 -1      5571 7.75825E-08 1.61896E-10 1.00267E-15
 -1      5572 3.24775E-07-8.09384E-11-2.08290E-05
 -1      5573 4.46857E-06-1.32148E-10 3.28294E-04
 -1      5574 2.52325E-06 2.64301E-10-1.45717E-16
 -1      5575 4.46857E-06-1.32148E-10-3.28294E-04
 -1      5576 2.49976E-05-4.81015E-10 1.86731E-03
 -1      5577 1.51905E-05 9.62020E-10-5.82866E-16
 -1      5578 2.49976E-05-4.81014E-10-1.86731E-03
 -1      5579 2.62439E-05-1.80146E-09 1.92038E-03
 -1      5580 1.45505E-05 3.60292E-09 1.23096E-14
 -1      5581 2.62439E-05-1.80147E-09-1.92038E-03
 -1      5582 2.42414E-05-1.91056E-08 1.84890E-03
 -1      5583 1.60601E-05 3.82113E-08 9.24955E-15
 -1      5584 2.42414E-05-1.91056E-08-1.84890E-03
 -1      5585 2.49814E-05 7.59611E-11 1.87105E-03
 -1      5586 1.53535E-05-1.51915E-10 6.96665E-15
 -1      5587 2.49814E-05 7.59603E-11-1.87105E-03
 -1      5588 2.24243E-05-1.60486E-08 1.79610E-03
 -1      5589 1.78510E-05 3.20972E-08-4.57966E-16
 -1      5590 2.24243E-05-1.60486E-08-1.79610E-03
 -1      5591 2.48415E-05-6.82784E-10 1.86286E-03
 -1      5592 1.53473E-05 1.36555E-09-7.70216E-16
 -1      5593 2.48415E-05-6.82786E-10-1.86286E-03
 -1      5594 3.46287E-07 1.32242E-10 2.21341E-05
 -1      5595 8.01174E-08-2.64498E-10 4.37150E-15
 -1      5596 3.46287E-07 1.32241E-10-2.21341E-05
 -1      5597 2.46552E-06 2.29342E-11 1.77822E-04
 -1      5598 1.27656E-06-4.58808E-11-2.99760E-15
 -1      5599 2.46552E-06 2.29364E-11-1.77822E-04
 -1      5600 5.39286E-06-4.15747E-10 3.96932E-04
 -1      5601 3.07075E-06 8.31477E-10-4.17721E-15
 -1      5602 5.39286E-06-4.15746E-10-3.96932E-04
 -1      5603 1.88053E-06-1.91621E-11 1.34298E-04
 -1      5604 9.27181E-07 3.83335E-11 3.24740E-15
 -1      5605 1.88053E-06-1.91624E-11-1.34298E-04
 -1      5606 1.43677E-06 1.41487E-11 1.01945E-04
 -1      5607 6.85292E-07-2.83177E-11-2.33841E-15
 -1      5608 1.43677E-06 1.41504E-11-1.01945E-04
 -1      5609 1.13829E-06-9.96653E-12 7.99517E-05
 -1      5610 5.14463E-07 1.99408E-11 2.77556E-17
 -1      5611 1.13829E-06-9.96566E-12-7.99517E-05
 -1      5612 8.16248E-07-8.79376E-12 5.65586E-05
 -1      5613 3.41922E-07 1.75737E-11 3.13638E-15
 -1      5614 8.16248E-07-8.79414E-12-5.65586E-05
 -1      5615 6.39938E-07-1.46086E-12 4.42913E-05
 -1      5616 2.66300E-07 2.92366E-12 2.60555E-15
 -1      5617 6.39938E-07-1.46114E-12-4.42913E-05
 -1      5618 4.46216E-07-8.54435E-11 3.16050E-05
 -1      5619 2.10869E-07 1.70871E-10-6.40807E-15
 -1      5620 4.46216E-07-8.54426E-11-3.16050E-05
 -1      5621 3.23873E-07 7.51440E-10 2.08421E-05
 -1      5622 7.98422E-08-1.50289E-09 3.23699E-15
 -1      5623 3.23873E-07 7.51441E-10-2.08421E-05
 -1      5624 3.44051E-07 1.39257E-11 2.39538E-05
 -1      5625 1.48104E-07-2.78568E-11-3.67935E-15
 -1      5626 3.44051E-07 1.39244E-11-2.39538E-05
 -1      5627 3.69696E-07 5.90311E-09 2.38313E-05
 -1      5628 9.25480E-08-1.18062E-08-5.03070E-17
 -1      5629 3.69696E-07 5.90311E-09-2.38313E-05
 -1      5630 1.13802E-05-8.71094E-08 1.16833E-03
 -1      5631 1.80235E-05 1.74219E-07 4.02456E-15
 -1      5632 1.13802E-05-8.71094E-08-1.16833E-03
 -1      5633 6.20788E-08-1.92097E-09 5.18351E-06
 -1      5634 5.67908E-08 3.84196E-09 5.10009E-16
 -1      5635 6.20788E-08-1.92097E-09-5.18351E-06
 -1      5636 3.46819E-07-4.49235E-11 2.46662E-05
 -1      5637 1.67438E-07 8.98330E-11 4.10783E-15
 -1      5638 3.46819E-07-4.49232E-11-2.46662E-05
 -1      5639 3.64647E-07 1.38454E-10 2.32299E-05
 -1      5640 8.16515E-08-2.76876E-10 5.77663E-15
 -1      5641 3.64647E-07 1.38452E-10-2.32299E-05
 -1      5642 3.60927E-07 3.87039E-11 2.30264E-05
 -1      5643 8.19898E-08-7.73985E-11-4.89192E-16
 -1      5644 3.60927E-07 3.87047E-11-2.30264E-05
 -1      5645 2.00822E-07-1.36764E-09 1.34743E-05
 -1      5646 6.87343E-08 2.73530E-09 2.32453E-15
 -1      5647 2.00822E-07-1.36764E-09-1.34743E-05
 -1      5648-4.85918E-07-3.04109E-09-2.49111E-05
 -1      5649 1.02170E-07 6.08215E-09-1.21257E-15
 -1      5650-4.85918E-07-3.04109E-09 2.49111E-05
 -1      5651 3.44719E-07 2.65125E-11 2.19698E-05
 -1      5652 7.75181E-08-5.30136E-11 1.66360E-15
 -1      5653 3.44719E-07 2.65132E-11-2.19698E-05
 -1      5654 2.48937E-05-6.85953E-10 1.86662E-03
 -1      5655 1.53741E-05 1.37190E-09 2.34535E-15
 -1      5656 2.48937E-05-6.85953E-10-1.86662E-03
 -1      5657 3.32741E-07-1.22927E-10 2.13319E-05
 -1      5658 7.92047E-08 2.45839E-10 2.89352E-15
 -1      5659 3.32741E-07-1.22928E-10-2.13319E-05
 -1      5660 2.78769E-07 5.09976E-10 1.80834E-05
 -1      5661 7.37462E-08-1.01996E-09 1.82146E-15
 -1      5662 2.78769E-07 5.09978E-10-1.80834E-05
 -1      5663 1.78163E-07 1.62617E-09 1.19764E-05
 -1      5664 6.17619E-08-3.25237E-09 1.18829E-15
 -1      5665 1.78163E-07 1.62617E-09-1.19764E-05
 -1      5666 2.59789E-05 6.95461E-08 1.91076E-03
 -1      5667 1.47446E-05-1.39092E-07 4.22579E-15
 -1      5668 2.59789E-05 6.95461E-08-1.91076E-03
 -1      5669 2.39586E-05-5.46610E-10 1.82100E-03
 -1      5670 1.56518E-05 1.09323E-09 9.02066E-17
 -1      5671 2.39586E-05-5.46611E-10-1.82100E-03
 -1      5672 1.18879E-05 3.88811E-08 1.24068E-03
 -1      5673 1.95338E-05-7.77623E-08-3.48332E-15
 -1      5674 1.18879E-05 3.88811E-08-1.24068E-03
 -1      5675 1.21268E-05 1.87925E-08 9.71446E-04
 -1      5676 9.65825E-06-3.75851E-08-7.61890E-15
 -1      5677 1.21268E-05 1.87925E-08-9.71446E-04
 -1      5678 1.91199E-05 3.34224E-09 1.38571E-03
 -1      5679 1.01339E-05-6.68449E-09 3.02536E-15
 -1      5680 1.91199E-05 3.34224E-09-1.38571E-03
 -1      5681 1.17133E-05 1.72979E-09 8.96106E-04
 -1      5682 7.85540E-06-3.45956E-09 1.04777E-15
 -1      5683 1.17133E-05 1.72979E-09-8.96106E-04
 -1      5684 8.32485E-06-2.94815E-10 6.55700E-04
 -1      5685 6.23993E-06 5.89626E-10-3.24046E-15
 -1      5686 8.32485E-06-2.94812E-10-6.55700E-04
 -1      5687 6.62973E-06-2.35232E-10 5.23098E-04
 -1      5688 5.00120E-06 4.70462E-10 7.50094E-15
 -1      5689 6.62973E-06-2.35234E-10-5.23098E-04
 -1      5690 5.11129E-06-1.04852E-10 4.08153E-04
 -1      5691 4.02546E-06 2.09703E-10-6.58501E-15
 -1      5692 5.11129E-06-1.04852E-10-4.08153E-04
 -1      5693 3.97118E-06 2.80294E-11 3.21166E-04
 -1      5694 3.26909E-06-5.60391E-11-1.88044E-15
 -1      5695 3.97118E-06 2.80309E-11-3.21166E-04
 -1      5696 3.12303E-06 8.53955E-11 2.55723E-04
 -1      5697 2.68084E-06-1.70805E-10-3.74700E-15
 -1      5698 3.12303E-06 8.53971E-11-2.55723E-04
 -1      5699 2.47829E-06 3.31508E-11 2.05619E-04
 -1      5700 2.22126E-06-6.62967E-11 1.06720E-14
 -1      5701 2.47829E-06 3.31488E-11-2.05619E-04
 -1      5702 2.02812E-06 2.47793E-11 1.69423E-04
 -1      5703 1.85808E-06-4.95682E-11 1.37043E-15
 -1      5704 2.02812E-06 2.47812E-11-1.69423E-04
 -1      5705 1.70235E-06 1.94446E-11 1.42366E-04
 -1      5706 1.56508E-06-3.88837E-11-1.34268E-15
 -1      5707 1.70235E-06 1.94426E-11-1.42366E-04
 -1      5708 1.43417E-06-2.48815E-11 1.20143E-04
 -1      5709 1.32566E-06 4.97727E-11-6.01949E-15
 -1      5710 1.43417E-06-2.48830E-11-1.20143E-04
 -1      5711 1.22474E-06-1.29583E-11 1.02484E-04
 -1      5712 1.12809E-06 2.59059E-11 8.01442E-16
 -1      5713 1.22474E-06-1.29571E-11-1.02484E-04
 -1      5714 1.04840E-06 3.31984E-12 8.76579E-05
 -1      5715 9.63198E-07-6.67136E-12-3.05658E-15
 -1      5716 1.04840E-06 3.32282E-12-8.76579E-05
 -1      5717 8.86001E-07-1.29002E-11 7.44155E-05
 -1      5718 8.25728E-07 2.58013E-11 1.21431E-15
 -1      5719 8.86001E-07-1.29016E-11-7.44155E-05
 -1      5720 7.52326E-07-2.05551E-11 6.34948E-05
 -1      5721 7.11851E-07 4.11083E-11 7.52870E-16
 -1      5722 7.52326E-07-2.05553E-11-6.34948E-05
 -1      5723 6.50566E-07-6.59989E-12 5.49169E-05
 -1      5724 6.15929E-07 1.32082E-11 4.90927E-15
 -1      5725 6.50566E-07-6.60082E-12-5.49169E-05
 -1      5726 5.70041E-07 6.28026E-12 4.79521E-05
 -1      5727 5.33851E-07-1.25694E-11 5.34642E-15
 -1      5728 5.70041E-07 6.28081E-12-4.79521E-05
 -1      5729 5.01590E-07-1.49215E-11 4.20103E-05
 -1      5730 4.63336E-07 2.98334E-11 4.66641E-15
 -1      5731 5.01590E-07-1.49208E-11-4.20103E-05
 -1      5732 4.49273E-07-7.47621E-12 3.72727E-05
 -1      5733 4.02589E-07 1.49657E-11-1.70003E-16
 -1      5734 4.49273E-07-7.47554E-12-3.72727E-05
 -1      5735 4.02511E-07 2.75637E-12 3.30833E-05
 -1      5736 3.49865E-07-5.51640E-12 7.14706E-16
 -1      5737 4.02511E-07 2.75763E-12-3.30833E-05
 -1      5738 3.59992E-07-1.07243E-11 2.93343E-05
 -1      5739 3.04034E-07 2.14358E-11 2.10075E-15
 -1      5740 3.59992E-07-1.07259E-11-2.93343E-05
 -1      5741 3.31909E-07 8.11123E-13 2.65768E-05
 -1      5742 2.63941E-07-1.61532E-12-1.73993E-15
 -1      5743 3.31909E-07 8.11275E-13-2.65768E-05
 -1      5744 3.12953E-07 8.68051E-12 2.44757E-05
 -1      5745 2.28510E-07-1.73743E-11 2.67494E-15
 -1      5746 3.12953E-07 8.67908E-12-2.44757E-05
 -1      5747 2.94387E-07-1.36272E-11 2.25215E-05
 -1      5748 1.97424E-07 2.72529E-11 3.63598E-15
 -1      5749 2.94387E-07-1.36270E-11-2.25215E-05
 -1      5750 2.81363E-07-2.89464E-11 2.10048E-05
 -1      5751 1.70526E-07 5.78840E-11 3.92048E-15
 -1      5752 2.81363E-07-2.89435E-11-2.10048E-05
 -1      5753 2.62822E-07-2.21713E-11 1.92885E-05
 -1      5754 1.47698E-07 4.43454E-11 3.14332E-15
 -1      5755 2.62822E-07-2.21747E-11-1.92885E-05
 -1      5756 2.30505E-07-1.84626E-11 1.68912E-05
 -1      5757 1.28646E-07 3.69353E-11-1.61503E-15
 -1      5758 2.30505E-07-1.84637E-11-1.68912E-05
 -1      5759 1.94131E-07-9.82420E-11 1.43778E-05
 -1      5760 1.13649E-07 1.96489E-10 1.12237E-15
 -1      5761 1.94131E-07-9.82420E-11-1.43778E-05
 -1      5762 1.36122E-07-3.78622E-10 1.07983E-05
 -1      5763 1.04709E-07 7.57259E-10 1.54390E-15
 -1      5764 1.36122E-07-3.78624E-10-1.07983E-05
 -1      5765-8.39047E-08-1.29651E-09-1.70919E-06
 -1      5766 1.08125E-07 2.59304E-09-1.83013E-15
 -1      5767-8.39047E-08-1.29651E-09 1.70919E-06
 -1      5768-4.14102E-07 1.57386E-09-2.00379E-05
 -1      5769 1.28659E-07-3.14762E-09 4.62998E-15
 -1      5770-4.14102E-07 1.57386E-09 2.00379E-05
 -1      5771 3.66183E-06 4.30076E-11 2.70210E-04
 -1      5772 2.10910E-06-8.60172E-11-6.39419E-15
 -1      5773 3.66183E-06 4.30073E-11-2.70210E-04
 -1      5774 2.40834E-05 1.82232E-09 1.85013E-03
 -1      5775 1.64191E-05-3.64465E-09-7.53564E-15
 -1      5776 2.40834E-05 1.82233E-09-1.85013E-03
 -1      5777 4.71624E-07-7.97853E-09 2.98488E-05
 -1      5778 9.87625E-08 1.59570E-08-3.59088E-16
 -1      5779 4.71624E-07-7.97853E-09-2.98488E-05
 -1      5780-3.02733E-08 8.61571E-10 1.69123E-08
 -1      5781 6.11278E-08-1.72313E-09-6.31439E-16
 -1      5782-3.02733E-08 8.61572E-10-1.69123E-08
 -1      5783 3.54588E-07 6.50362E-10 2.24869E-05
 -1      5784 7.58320E-08-1.30071E-09 3.12250E-16
 -1      5785 3.54588E-07 6.50363E-10-2.24869E-05
 -1      5786 5.22908E-07-5.05475E-11 3.67368E-05
 -1      5787 2.36635E-07 1.01082E-10-3.78170E-16
 -1      5788 5.22908E-07-5.05458E-11-3.67368E-05
 -1      5789 2.49803E-05-3.73266E-10 1.86824E-03
 -1      5790 1.52577E-05 7.46537E-10-4.19109E-15
 -1      5791 2.49803E-05-3.73265E-10-1.86824E-03
 -1      5792 2.47626E-05-3.24258E-10 1.85972E-03
 -1      5793 1.53956E-05 6.48519E-10-9.49241E-15
 -1      5794 2.47626E-05-3.24260E-10-1.85972E-03
 -1      5795 2.57767E-05 9.47397E-09 1.89403E-03
 -1      5796 1.45652E-05-1.89479E-08-4.39926E-15
 -1      5797 2.57767E-05 9.47397E-09-1.89403E-03
 -1      5798 2.20179E-05-8.55006E-10 1.54305E-03
 -1      5799 9.83077E-06 1.71001E-09 3.86496E-15
 -1      5800 2.20179E-05-8.55006E-10-1.54305E-03
 -1      5801 7.40385E-06-5.13982E-10 5.34518E-04
 -1      5802 3.85182E-06 1.02798E-09-4.51028E-16
 -1      5803 7.40385E-06-5.13981E-10-5.34518E-04
 -1      5804 1.01948E-05 2.24461E-10 7.27850E-04
 -1      5805 5.01908E-06-4.48938E-10 1.39472E-15
 -1      5806 1.01948E-05 2.24461E-10-7.27850E-04
 -1      5807 2.84327E-06 1.63109E-12 2.06024E-04
 -1      5808 1.50557E-06-3.24767E-12-4.79131E-15
 -1      5809 2.84327E-06 1.63136E-12-2.06024E-04
 -1      5810 1.63492E-06-6.37977E-12 1.16436E-04
 -1      5811 7.94835E-07 1.27765E-11-2.21698E-15
 -1      5812 1.63492E-06-6.38032E-12-1.16436E-04
 -1      5813 2.14415E-06-4.43474E-12 1.53960E-04
 -1      5814 1.08630E-06 8.87860E-12 3.46945E-15
 -1      5815 2.14415E-06-4.43696E-12-1.53960E-04
 -1      5816 1.28180E-06 3.44396E-12 9.04234E-05
 -1      5817 5.93002E-07-6.89185E-12 2.34535E-15
 -1      5818 1.28180E-06 3.44412E-12-9.04234E-05
 -1      5819 6.65022E-07 1.90456E-11 4.67155E-05
 -1      5820 3.00752E-07-3.80826E-11 1.75554E-15
 -1      5821 6.65022E-07 1.90449E-11-4.67155E-05
 -1      5822 8.90475E-07 6.23277E-12 6.22074E-05
 -1      5823 3.90657E-07-1.24759E-11 1.13104E-15
 -1      5824 8.90475E-07 6.23248E-12-6.22074E-05
 -1      5825 2.98195E-07-5.46538E-11 2.24570E-05
 -1      5826 1.87557E-07 1.09302E-10 5.41754E-15
 -1      5827 2.98195E-07-5.46537E-11-2.24570E-05
 -1      5828 4.17068E-07 5.83521E-10 2.75060E-05
 -1      5829 1.26082E-07-1.16705E-09 6.78277E-16
 -1      5830 4.17068E-07 5.83519E-10-2.75060E-05
 -1      5831 1.92875E-07 2.77744E-09 1.12085E-05
 -1      5832 5.53925E-09-5.55488E-09 1.77289E-15
 -1      5833 1.92875E-07 2.77744E-09-1.12085E-05
 -1      5834 2.16313E-05 8.99807E-09 1.74435E-03
 -1      5835 1.76304E-05-1.79962E-08 5.99521E-15
 -1      5836 2.16313E-05 8.99807E-09-1.74435E-03
 -1      5837 3.13275E-07-1.48158E-10 2.02454E-05
 -1      5838 8.02083E-08 2.96279E-10-1.85615E-16
 -1      5839 3.13275E-07-1.48157E-10-2.02454E-05
 -1      5840 3.45784E-07 5.35247E-11 2.20596E-05
 -1      5841 7.85247E-08-1.07050E-10 3.85109E-16
 -1      5842 3.45784E-07 5.35269E-11-2.20596E-05
 -1      5843 3.46736E-07-1.20157E-10 2.21148E-05
 -1      5844 7.85460E-08 2.40316E-10 1.32706E-15
 -1      5845 3.46736E-07-1.20157E-10-2.21148E-05
 -1      5846 3.26765E-07 1.83678E-11 2.09569E-05
 -1      5847 7.80665E-08-3.67385E-11-3.24393E-16
 -1      5848 3.26765E-07 1.83686E-11-2.09569E-05
 -1      5849 2.58985E-07-4.05128E-10 1.68777E-05
 -1      5850 7.12220E-08 8.10254E-10-3.30812E-15
 -1      5851 2.58985E-07-4.05128E-10-1.68777E-05
 -1      5852 1.19350E-07 1.02000E-09 8.49134E-06
 -1      5853 5.77242E-08-2.03999E-09-5.67255E-16
 -1      5854 1.19350E-07 1.02000E-09-8.49134E-06
 -1      5855 3.28290E-06-5.72083E-08 4.74149E-04
 -1      5856 9.98528E-06 1.14417E-07-2.26208E-15
 -1      5857 3.28290E-06-5.72083E-08-4.74149E-04
 -1      5858 1.59614E-05 2.98889E-09 1.11189E-03
 -1      5859 6.89247E-06-5.97779E-09 6.45318E-16
 -1      5860 1.59614E-05 2.98889E-09-1.11189E-03
 -1      5861 1.07154E-06 9.14290E-12 7.51312E-05
 -1      5862 4.79678E-07-1.83086E-11 2.82413E-15
 -1      5863 1.07154E-06 9.14534E-12-7.51312E-05
 -1      5864 4.05169E-07 1.95113E-10 2.58037E-05
 -1      5865 9.04588E-08-3.90226E-10-4.27956E-15
 -1      5866 4.05169E-07 1.95113E-10-2.58037E-05
 -1      5867 2.03428E-05-5.74016E-10 1.50920E-03
 -1      5868 1.19989E-05 1.14803E-09-4.62824E-15
 -1      5869 2.03428E-05-5.74016E-10-1.50920E-03
 -1      5870 2.08311E-05 3.24705E-08 1.49232E-03
 -1      5871 1.04331E-05-6.49410E-08-1.76248E-15
 -1      5872 2.08311E-05 3.24705E-08-1.49232E-03
 -1      5873 1.35330E-06-9.91060E-13 9.57875E-05
 -1      5874 6.37255E-07 1.97853E-12-1.13451E-15
 -1      5875 1.35330E-06-9.91665E-13-9.57875E-05
 -1      5876 1.19874E-06 5.57458E-12 8.44898E-05
 -1      5877 5.51981E-07-1.11599E-11 4.68375E-16
 -1      5878 1.19874E-06 5.57569E-12-8.44898E-05
 -1      5879 3.52335E-07 7.54091E-09 2.18632E-05
 -1      5880 5.85672E-08-1.50818E-08 3.32373E-15
 -1      5881 3.52335E-07 7.54091E-09-2.18632E-05
 -1      5882 3.96660E-07-2.65193E-10 2.54624E-05
 -1      5883 9.55631E-08 5.30394E-10 3.73833E-15
 -1      5884 3.96660E-07-2.65191E-10-2.54624E-05
 -1      5885 1.99179E-05-4.79222E-10 1.49160E-03
 -1      5886 1.22341E-05 9.58440E-10 4.03844E-15
 -1      5887 1.99179E-05-4.79221E-10-1.49160E-03
 -1      5888 1.83864E-05-4.36815E-09 1.39807E-03
 -1      5889 1.20323E-05 8.73630E-09 1.81105E-15
 -1      5890 1.83864E-05-4.36815E-09-1.39807E-03
 -1      5891 2.01781E-05-8.26097E-10 1.49939E-03
 -1      5892 1.19859E-05 1.65220E-09-9.69363E-15
 -1      5893 2.01781E-05-8.26099E-10-1.49939E-03
 -1      5894 4.48552E-06-2.22869E-10 3.34417E-04
 -1      5895 2.70308E-06 4.45728E-10-3.19189E-16
 -1      5896 4.48552E-06-2.22869E-10-3.34417E-04
 -1      5897 3.68556E-07-1.18830E-10 2.36561E-05
 -1      5898 8.87130E-08 2.37673E-10-1.38951E-15
 -1      5899 3.68556E-07-1.18830E-10-2.36561E-05
 -1      5900 1.90087E-05-1.41309E-09 1.44908E-03
 -1      5901 1.25682E-05 2.82618E-09-8.88178E-16
 -1      5902 1.90087E-05-1.41309E-09-1.44908E-03
 -1      5903 2.64725E-06 4.54555E-12 1.91351E-04
 -1      5904 1.38536E-06-9.08493E-12-1.35308E-16
 -1      5905 2.64725E-06 4.54615E-12-1.91351E-04
 -1      5906 2.00425E-06-1.80614E-11 1.43559E-04
 -1      5907 1.00302E-06 3.61018E-11-6.97359E-15
 -1      5908 2.00425E-06-1.80600E-11-1.43559E-04
 -1      5909 4.27587E-07-3.61834E-10 2.71827E-05
 -1      5910 9.37634E-08 7.23661E-10-5.22152E-16
 -1      5911 4.27587E-07-3.61836E-10-2.71827E-05
 -1      5912 1.98870E-05 1.60281E-10 1.48872E-03
 -1      5913 1.21955E-05-3.20574E-10-1.52655E-16
 -1      5914 1.98870E-05 1.60281E-10-1.48872E-03
 -1      5915-4.36030E-08-1.66166E-09-1.11400E-06
 -1      5916 4.83089E-08 3.32329E-09 3.75394E-15
 -1      5917-4.36030E-08-1.66166E-09 1.11400E-06
 -1      5918 2.28160E-06-5.37300E-12 1.64419E-04
 -1      5919 1.17652E-06 1.07456E-11-3.29597E-15
 -1      5920 2.28160E-06-5.37388E-12-1.64419E-04
 -1      5921-2.93424E-07-4.10557E-09-1.18177E-05
 -1      5922 1.74262E-07 8.21114E-09-1.87003E-15
 -1      5923-2.93424E-07-4.10557E-09 1.18177E-05
 -1      5924 1.53841E-06 2.08756E-12 1.09286E-04
 -1      5925 7.38271E-07-4.17018E-12-1.21778E-15
 -1      5926 1.53841E-06 2.08993E-12-1.09286E-04
 -1      5927 8.52807E-07 1.88174E-12 5.93364E-05
 -1      5928 3.65770E-07-3.76546E-12 3.72272E-15
 -1      5929 8.52807E-07 1.88021E-12-5.93364E-05
 -1      5930 6.51869E-07 4.38224E-12 4.54862E-05
 -1      5931 2.84149E-07-8.77408E-12 5.27356E-16
 -1      5932 6.51869E-07 4.38257E-12-4.54862E-05
 -1      5933 3.90245E-07-6.58522E-11 2.89689E-05
 -1      5934 2.30783E-07 1.31712E-10 1.94116E-15
 -1      5935 3.90245E-07-6.58523E-11-2.89689E-05
 -1      5936 7.07425E-06 4.50954E-08 8.83823E-04
 -1      5937 1.67033E-05-9.01907E-08-8.75688E-15
 -1      5938 7.07425E-06 4.50954E-08-8.83823E-04
 -1      5939 1.91372E-05 3.08350E-09 1.49058E-03
 -1      5940 1.37600E-05-6.16701E-09-7.79238E-15
 -1      5941 1.91372E-05 3.08350E-09-1.49058E-03
 -1      5942 4.79205E-07-8.15394E-09 2.95793E-05
 -1      5943 7.41962E-08 1.63079E-08 9.71445E-16
 -1      5944 4.79205E-07-8.15394E-09-2.95793E-05
 -1      5945 4.70798E-07-4.37138E-09 2.95097E-05
 -1      5946 8.85770E-08 8.74278E-09-6.53991E-16
 -1      5947 4.70798E-07-4.37138E-09-2.95097E-05
 -1      5948 3.02014E-07-1.09903E-09 1.98534E-05
 -1      5949 8.90442E-08 2.19805E-09-1.74513E-15
 -1      5950 3.02014E-07-1.09903E-09-1.98534E-05
 -1      5951 1.74146E-06-8.29833E-12 1.24364E-04
 -1      5952 8.58533E-07 1.66148E-11 1.34961E-15
 -1      5953 1.74146E-06-8.29860E-12-1.24364E-04
 -1      5954 1.37032E-06 3.24915E-10 8.35975E-05
 -1      5955 1.77735E-07-6.49827E-10 1.63411E-15
 -1      5956 1.37032E-06 3.24914E-10-8.35975E-05
 -1      5957 1.69886E-07-3.43365E-10 1.43958E-05
 -1      5958 1.62763E-07 6.86712E-10-2.79290E-16
 -1      5959 1.69886E-07-3.43364E-10-1.43958E-05
 -1      5960 4.36643E-07 2.46333E-10 2.77091E-05
 -1      5961 9.40287E-08-4.92663E-10-7.71952E-16
 -1      5962 4.36643E-07 2.46331E-10-2.77091E-05
 -1      5963 4.71089E-07 2.77102E-10 2.97778E-05
 -1      5964 9.73559E-08-5.54192E-10 4.81039E-15
 -1      5965 4.71089E-07 2.77101E-10-2.97778E-05
 -1      5966 1.96043E-05-1.18127E-09 1.47032E-03
 -1      5967 1.21187E-05 2.36255E-09-3.46945E-15
 -1      5968 1.96043E-05-1.18127E-09-1.47032E-03
 -1      5969 3.03223E-06 3.80727E-11 2.20579E-04
 -1      5970 1.63575E-06-7.61456E-11-4.17028E-15
 -1      5971 3.03223E-06 3.80715E-11-2.20579E-04
 -1      5972 8.42431E-07 5.99686E-09 5.15448E-05
 -1      5973 1.14555E-07-1.19937E-08 2.76341E-15
 -1      5974 8.42431E-07 5.99686E-09-5.15448E-05
 -1      5975 3.83744E-07-7.81637E-11 2.44818E-05
 -1      5976 8.71604E-08 1.56368E-10 2.42688E-15
 -1      5977 3.83744E-07-7.81655E-11-2.44818E-05
 -1      5978 1.95952E-05-1.54730E-09 1.47328E-03
 -1      5979 1.22402E-05 3.09459E-09 5.62744E-15
 -1      5980 1.95952E-05-1.54730E-09-1.47328E-03
 -1      5981 4.01833E-07-2.92131E-10 2.56416E-05
 -1      5982 9.14707E-08 5.84249E-10-5.10182E-15
 -1      5983 4.01833E-07-2.92132E-10-2.56416E-05
 -1      5984 2.50591E-07 1.87498E-09 1.65590E-05
 -1      5985 7.68815E-08-3.74995E-09 9.24608E-16
 -1      5986 2.50591E-07 1.87498E-09-1.65590E-05
 -1      5987-5.18185E-08 6.20442E-08 4.13023E-04
 -1      5988 1.45201E-05-1.24088E-07 6.74461E-15
 -1      5989-5.18185E-08 6.20442E-08-4.13023E-04
 -1      5990 1.31695E-05-8.25076E-09 9.78089E-04
 -1      5991 7.80499E-06 1.65015E-08-1.38773E-17
 -1      5992 1.31695E-05-8.25076E-09-9.78089E-04
 -1      5993 4.56827E-07-3.02702E-11 3.34678E-05
 -1      5994 2.54673E-07 6.05305E-11-2.72872E-15
 -1      5995 4.56827E-07-3.02699E-11-3.34678E-05
 -1      5996 1.98894E-05 2.25678E-08 1.42578E-03
 -1      5997 9.99382E-06-4.51356E-08 6.17562E-16
 -1      5998 1.98894E-05 2.25678E-08-1.42578E-03
 -1      5999 1.15806E-05-2.02058E-09 8.69505E-04
 -1      6000 7.19214E-06 4.04115E-09-9.72139E-15
 -1      6001 1.15806E-05-2.02058E-09-8.69505E-04
 -1      6002 6.86690E-06-7.62796E-10 5.53315E-04
 -1      6003 5.58162E-06 1.52558E-09-1.04083E-16
 -1      6004 6.86690E-06-7.62796E-10-5.53315E-04
 -1      6005 5.15050E-06-1.22163E-10 4.22029E-04
 -1      6006 4.43143E-06 2.44325E-10-2.39392E-15
 -1      6007 5.15050E-06-1.22161E-10-4.22029E-04
 -1      6008 3.83629E-06 1.42521E-10 3.21524E-04
 -1      6009 3.55133E-06-2.85046E-10-6.03684E-16
 -1      6010 3.83629E-06 1.42522E-10-3.21524E-04
 -1      6011 2.85856E-06 2.22904E-10 2.46342E-04
 -1      6012 2.88229E-06-4.45816E-10-1.76942E-15
 -1      6013 2.85856E-06 2.22906E-10-2.46342E-04
 -1      6014 2.14791E-06 1.96168E-10 1.90965E-04
 -1      6015 2.37044E-06-3.92343E-10-3.10515E-15
 -1      6016 2.14791E-06 1.96167E-10-1.90965E-04
 -1      6017 1.66681E-06 1.28089E-10 1.52011E-04
 -1      6018 1.97282E-06-2.56183E-10 4.98560E-15
 -1      6019 1.66681E-06 1.28091E-10-1.52011E-04
 -1      6020 1.34986E-06 7.22275E-11 1.24820E-04
 -1      6021 1.65749E-06-1.44459E-10 3.20230E-15
 -1      6022 1.34986E-06 7.22278E-11-1.24820E-04
 -1      6023 1.12075E-06 3.04537E-11 1.04376E-04
 -1      6024 1.40206E-06-6.08941E-11-1.09288E-15
 -1      6025 1.12075E-06 3.04540E-11-1.04376E-04
 -1      6026 9.40061E-07 1.55791E-11 8.79921E-05
 -1      6027 1.19151E-06-3.11523E-11 2.90046E-15
 -1      6028 9.40061E-07 1.55797E-11-8.79921E-05
 -1      6029 7.86202E-07 2.27329E-11 7.41625E-05
 -1      6030 1.01647E-06-4.54632E-11 3.91007E-15
 -1      6031 7.86202E-07 2.27333E-11-7.41625E-05
 -1      6032 6.50311E-07 2.24437E-11 6.21986E-05
 -1      6033 8.70605E-07-4.48898E-11 8.49668E-15
 -1      6034 6.50311E-07 2.24456E-11-6.21986E-05
 -1      6035 5.36602E-07 1.10430E-11 5.21968E-05
 -1      6036 7.48879E-07-2.20751E-11 1.58901E-15
 -1      6037 5.36602E-07 1.10417E-11-5.21968E-05
 -1      6038 4.46967E-07 9.80892E-12 4.41334E-05
 -1      6039 6.46671E-07-1.96203E-11-3.08781E-16
 -1      6040 4.46967E-07 9.80824E-12-4.41334E-05
 -1      6041 3.79948E-07 1.70255E-11 3.78090E-05
 -1      6042 5.59936E-07-3.40375E-11-5.32213E-15
 -1      6043 3.79948E-07 1.70267E-11-3.78090E-05
 -1      6044 3.32777E-07 1.48423E-11 3.29750E-05
 -1      6045 4.85535E-07-2.96776E-11-5.81479E-15
 -1      6046 3.32777E-07 1.48420E-11-3.29750E-05
 -1      6047 2.93190E-07 7.57197E-12 2.88663E-05
 -1      6048 4.21282E-07-1.51570E-11-7.97973E-17
 -1      6049 2.93190E-07 7.57128E-12-2.88663E-05
 -1      6050 2.58197E-07 6.85714E-12 2.52715E-05
 -1      6051 3.65780E-07-1.36906E-11-4.33681E-16
 -1      6052 2.58197E-07 6.85600E-12-2.52715E-05
 -1      6053 2.31212E-07 6.65144E-12 2.23451E-05
 -1      6054 3.17597E-07-1.32932E-11-5.55111E-17
 -1      6055 2.31212E-07 6.65111E-12-2.23451E-05
 -1      6056 2.14956E-07 1.30962E-11 2.01975E-05
 -1      6057 2.75145E-07-2.61890E-11 1.81972E-15
 -1      6058 2.14956E-07 1.30968E-11-2.01975E-05
 -1      6059 2.09340E-07 2.50891E-11 1.87898E-05
 -1      6060 2.37237E-07-5.02033E-11 2.60209E-17
 -1      6061 2.09340E-07 2.50905E-11-1.87898E-05
 -1      6062 2.10559E-07 2.62649E-11 1.78876E-05
 -1      6063 2.03311E-07-5.25306E-11-2.33320E-15
 -1      6064 2.10559E-07 2.62645E-11-1.78876E-05
 -1      6065 2.17037E-07 1.97176E-11 1.73930E-05
 -1      6066 1.73092E-07-3.94349E-11 2.57086E-15
 -1      6067 2.17037E-07 1.97180E-11-1.73930E-05
 -1      6068 2.22010E-07-3.35002E-11 1.69189E-05
 -1      6069 1.46599E-07 6.69921E-11 1.31666E-15
 -1      6070 2.22010E-07-3.35002E-11-1.69189E-05
 -1      6071 2.03165E-07 1.84452E-11 1.52183E-05
 -1      6072 1.24923E-07-3.68984E-11-1.66013E-15
 -1      6073 2.03165E-07 1.84451E-11-1.52183E-05
 -1      6074 1.74247E-07 1.38657E-10 1.30202E-05
 -1      6075 1.06027E-07-2.77302E-10-1.20216E-15
 -1      6076 1.74247E-07 1.38653E-10-1.30202E-05
 -1      6077 1.60409E-07 6.54006E-11 1.17706E-05
 -1      6078 9.00801E-08-1.30818E-10-2.34188E-15
 -1      6079 1.60409E-07 6.54000E-11-1.17706E-05
 -1      6080 6.60000E-08 2.99370E-10 6.04648E-06
 -1      6081 7.90715E-08-5.98727E-10 1.56299E-15
 -1      6082 6.60000E-08 2.99368E-10-6.04648E-06
 -1      6083 3.66450E-08-9.59041E-10 4.17471E-06
 -1      6084 7.24386E-08 1.91807E-09 4.29344E-15
 -1      6085 3.66450E-08-9.59041E-10-4.17471E-06
 -1      6086 4.25740E-07 5.82099E-09 2.67101E-05
 -1      6087 8.09587E-08-1.16420E-08-8.43076E-16
 -1      6088 4.25740E-07 5.82099E-09-2.67101E-05
 -1      6089 1.20740E-07-7.27353E-11 1.18057E-05
 -1      6090 1.70632E-07 1.45471E-10-3.75047E-15
 -1      6091 1.20740E-07-7.27356E-11-1.18057E-05
 -1      6092 3.56378E-05 7.13757E-09 2.55923E-03
 -1      6093 1.80646E-05-1.42752E-08 1.00128E-14
 -1      6094 3.56378E-05 7.13757E-09-2.55923E-03
 -1      6095 2.94098E-07-1.21261E-10 2.21980E-05
 -1      6096 1.86711E-07 2.42542E-10-1.26635E-16
 -1      6097 2.94098E-07-1.21261E-10-2.21980E-05
 -1      6098 2.01422E-05 8.38903E-11 1.50201E-03
 -1      6099 1.21489E-05-1.67784E-10 5.67602E-15
 -1      6100 2.01422E-05 8.38901E-11-1.50201E-03
 -1      6101 3.66068E-07 4.27258E-11 2.34898E-05
 -1      6102 8.78808E-08-8.54662E-11 2.02963E-16
 -1      6103 3.66068E-07 4.27265E-11-2.34898E-05
 -1      6104 3.97357E-06 7.99754E-11 2.92763E-04
 -1      6105 2.27290E-06-1.59956E-10 1.67921E-15
 -1      6106 3.97357E-06 7.99748E-11-2.92763E-04
 -1      6107 1.75483E-06-4.41027E-08 5.63986E-04
 -1      6108 1.61767E-05 8.82053E-08 1.25594E-15
 -1      6109 1.75483E-06-4.41027E-08-5.63986E-04
 -1      6110 2.00406E-05 3.19771E-10 1.49714E-03
 -1      6111 1.21821E-05-6.39535E-10-3.78864E-15
 -1      6112 2.00406E-05 3.19772E-10-1.49714E-03
 -1      6113 8.56222E-06-1.37548E-09 6.12068E-04
 -1      6114 4.24228E-06 2.75098E-09 5.84255E-15
 -1      6115 8.56222E-06-1.37548E-09-6.12068E-04
 -1      6116 7.49995E-07 1.39682E-11 5.21700E-05
 -1      6117 3.21222E-07-2.79322E-11 2.04697E-16
 -1      6118 7.49995E-07 1.39675E-11-5.21700E-05
 -1      6119 9.60708E-07 9.80120E-12 6.70144E-05
 -1      6120 4.18000E-07-1.96013E-11-1.46064E-15
 -1      6121 9.60708E-07 9.80088E-12-6.70144E-05
 -1      6122 2.21827E-05-7.30414E-09 1.80639E-03
 -1      6123 1.86929E-05 1.46083E-08 5.30132E-15
 -1      6124 2.21827E-05-7.30415E-09-1.80639E-03
 -1      6125 2.01928E-05-2.59052E-10 1.50306E-03
 -1      6126 1.20846E-05 5.18110E-10 2.69229E-15
 -1      6127 2.01928E-05-2.59053E-10-1.50306E-03
 -1      6128 3.70077E-07 2.23788E-10 2.37873E-05
 -1      6129 9.02496E-08-4.47575E-10 3.04097E-15
 -1      6130 3.70077E-07 2.23787E-10-2.37873E-05
 -1      6131-1.20233E-06-9.51454E-08 3.73729E-04
 -1      6132 1.54492E-05 1.90291E-07 1.02279E-14
 -1      6133-1.20233E-06-9.51454E-08-3.73729E-04
 -1      6134 3.33410E-06 1.08700E-10 2.46225E-04
 -1      6135 1.92724E-06-2.17421E-10-5.85990E-15
 -1      6136 3.33410E-06 1.08702E-10-2.46225E-04
 -1      6137 1.55408E-05-1.53329E-09 1.06099E-03
 -1      6138 5.95674E-06 3.06658E-09-1.90820E-15
 -1      6139 1.55408E-05-1.53329E-09-1.06099E-03
 -1      6140-2.30586E-07 4.43545E-11-1.22005E-05
 -1      6141 3.52473E-08-8.87095E-11-1.50747E-15
 -1      6142-2.30586E-07 4.43553E-11 1.22005E-05
 -1      6143 5.75206E-06-1.15241E-09 4.23922E-04
 -1      6144 3.29456E-06 2.30484E-09 6.24501E-16
 -1      6145 5.75206E-06-1.15241E-09-4.23922E-04
 -1      6146 4.16866E-07-1.44363E-10 2.98473E-05
 -1      6147 2.08211E-07 2.88728E-10-2.94036E-15
 -1      6148 4.16866E-07-1.44362E-10-2.98473E-05
 -1      6149 3.47273E-05-7.38837E-09 2.28285E-03
 -1      6150 1.02384E-05 1.47768E-08 6.79318E-15
 -1      6151 3.47273E-05-7.38837E-09-2.28285E-03
 -1      6152 1.61692E-05-4.39882E-09 1.21883E-03
 -1      6153 1.02097E-05 8.79764E-09 1.92901E-15
 -1      6154 1.61692E-05-4.39883E-09-1.21883E-03
 -1      6155 4.32595E-07-6.66117E-11 2.75920E-05
 -1      6156 9.80349E-08 1.33229E-10 1.04083E-15
 -1      6157 4.32595E-07-6.66125E-11-2.75920E-05
 -1      6158 1.02363E-07-3.07368E-09 6.02170E-06
 -1      6159 5.49190E-09 6.14735E-09 2.55004E-15
 -1      6160 1.02363E-07-3.07368E-09-6.02170E-06
 -1      6161 1.64699E-05-1.10410E-11 1.22184E-03
 -1      6162 9.71327E-06 2.20910E-11 3.71925E-15
 -1      6163 1.64699E-05-1.10411E-11-1.22184E-03
 -1      6164 3.20653E-07-2.78604E-10 2.44203E-05
 -1      6165 2.11179E-07 5.57214E-10-4.23966E-15
 -1      6166 3.20653E-07-2.78604E-10-2.44203E-05
 -1      6167 4.28183E-07-2.01597E-10 2.74697E-05
 -1      6168 1.02587E-07 4.03196E-10-3.68282E-15
 -1      6169 4.28183E-07-2.01598E-10-2.74697E-05
 -1      6170 1.64607E-05-9.77674E-10 1.21498E-03
 -1      6171 9.49207E-06 1.95535E-09-8.81239E-16
 -1      6172 1.64607E-05-9.77673E-10-1.21498E-03
 -1      6173 1.97729E-05-2.50857E-08 1.45970E-03
 -1      6174 1.14107E-05 5.01713E-08-3.92047E-15
 -1      6175 1.97729E-05-2.50857E-08-1.45970E-03
 -1      6176 1.61731E-05 1.62203E-10 1.20672E-03
 -1      6177 9.77928E-06-3.24410E-10 1.19349E-14
 -1      6178 1.61731E-05 1.62205E-10-1.20672E-03
 -1      6179 2.78438E-07-1.60847E-10 2.25489E-05
 -1      6180 2.30273E-07 3.21709E-10 1.15533E-15
 -1      6181 2.78438E-07-1.60848E-10-2.25489E-05
 -1      6182 7.18062E-07-1.15296E-10 4.59848E-05
 -1      6183 1.69184E-07 2.30566E-10-4.27262E-15
 -1      6184 7.18062E-07-1.15293E-10-4.59848E-05
 -1      6185 1.43679E-06-3.17097E-12 1.01969E-04
 -1      6186 6.86052E-07 6.35443E-12 1.27676E-15
 -1      6187 1.43679E-06-3.17042E-12-1.01969E-04
 -1      6188 1.10628E-05 4.40094E-08 8.61361E-04
 -1      6189 7.94331E-06-8.80187E-08 9.48547E-15
 -1      6190 1.10628E-05 4.40094E-08-8.61361E-04
 -1      6191 1.01145E-06 5.32139E-12 7.07611E-05
 -1      6192 4.47308E-07-1.06412E-11 2.76168E-15
 -1      6193 1.01145E-06 5.31955E-12-7.07611E-05
 -1      6194 7.44486E-07 5.95325E-10 4.79211E-05
 -1      6195 1.83930E-07-1.19066E-09 9.62772E-16
 -1      6196 7.44486E-07 5.95326E-10-4.79211E-05
 -1      6197 4.45893E-07-1.03405E-08 2.67422E-05
 -1      6198 4.17821E-08 2.06811E-08 2.48065E-16
 -1      6199 4.45893E-07-1.03405E-08-2.67422E-05
 -1      6200 8.07317E-07 2.06038E-11 5.60757E-05
 -1      6201 3.42925E-07-4.12034E-11-3.15373E-15
 -1      6202 8.07317E-07 2.06025E-11-5.60757E-05
 -1      6203 4.48162E-07 7.35092E-11 2.85447E-05
 -1      6204 1.00160E-07-1.47038E-10 4.87457E-16
 -1      6205 4.48162E-07 7.35096E-11-2.85447E-05
 -1      6206 8.92409E-07 1.68305E-11 6.23205E-05
 -1      6207 3.90741E-07-3.36579E-11-5.72459E-16
 -1      6208 8.92409E-07 1.68291E-11-6.23205E-05
 -1      6209 5.89783E-07 4.25087E-10 3.72338E-05
 -1      6210 1.20253E-07-8.50147E-10 2.40953E-15
 -1      6211 5.89783E-07 4.25084E-10-3.72338E-05
 -1      6212 4.66303E-07-9.15768E-10 2.98561E-05
 -1      6213 1.09655E-07 1.83155E-09 2.78076E-15
 -1      6214 4.66303E-07-9.15769E-10-2.98561E-05
 -1      6215 1.67388E-05-4.91557E-10 1.23413E-03
 -1      6216 9.60435E-06 9.83116E-10-8.06299E-15
 -1      6217 1.67388E-05-4.91557E-10-1.23413E-03
 -1      6218 1.39727E-07 4.91477E-10 1.30631E-05
 -1      6219 1.76553E-07-9.82958E-10 1.40166E-15
 -1      6220 1.39727E-07 4.91474E-10-1.30631E-05
 -1      6221 5.49200E-06-6.96835E-09 6.05205E-04
 -1      6222 1.01422E-05 1.39367E-08 4.87110E-15
 -1      6223 5.49200E-06-6.96835E-09-6.05205E-04
 -1      6224 4.74539E-07 2.71915E-10 3.02167E-05
 -1      6225 1.05774E-07-5.43794E-10-4.14599E-15
 -1      6226 4.74539E-07 2.71914E-10-3.02167E-05
 -1      6227 6.11595E-07 7.06267E-10 3.83356E-05
 -1      6228 1.15093E-07-1.41252E-09-3.30465E-15
 -1      6229 6.11595E-07 7.06267E-10-3.83356E-05
 -1      6230 1.70116E-05-1.65978E-09 1.24514E-03
 -1      6231 9.44332E-06 3.31957E-09-4.36456E-15
 -1      6232 1.70116E-05-1.65978E-09-1.24514E-03
 -1      6233 2.84770E-06 4.82866E-12 2.06324E-04
 -1      6234 1.50718E-06-9.65461E-12-1.09981E-15
 -1      6235 2.84770E-06 4.82844E-12-2.06324E-04
 -1      6236 5.91805E-08-7.64769E-09 5.56040E-06
 -1      6237 7.57417E-08 1.52954E-08-6.66134E-16
 -1      6238 5.91805E-08-7.64769E-09-5.56040E-06
 -1      6239 4.21745E-07-5.51707E-11 2.69965E-05
 -1      6240 9.89439E-08 1.10339E-10 1.95677E-15
 -1      6241 4.21745E-07-5.51686E-11-2.69965E-05
 -1      6242 1.46180E-05-1.33422E-09 1.12408E-03
 -1      6243 1.00042E-05 2.66841E-09 1.12410E-15
 -1      6244 1.46180E-05-1.33422E-09-1.12408E-03
 -1      6245 2.64765E-07 7.05399E-09 1.69972E-05
 -1      6246 6.38351E-08-1.41080E-08 2.56392E-15
 -1      6247 2.64765E-07 7.05399E-09-1.69972E-05
 -1      6248 5.07803E-07 1.07040E-09 3.21544E-05
 -1      6249 1.06894E-07-2.14078E-09-4.35589E-15
 -1      6250 5.07803E-07 1.07040E-09-3.21544E-05
 -1      6251 1.76899E-05-1.77381E-08 1.36297E-03
 -1      6252 1.21996E-05 3.54763E-08-1.04777E-14
 -1      6253 1.76899E-05-1.77381E-08-1.36297E-03
 -1      6254 7.53893E-06-1.65589E-09 6.75084E-04
 -1      6255 8.48811E-06 3.31178E-09-1.06859E-15
 -1      6256 7.53893E-06-1.65589E-09-6.75084E-04
 -1      6257 1.06835E-05-2.16742E-09 7.98255E-04
 -1      6258 6.49917E-06 4.33484E-09-5.71071E-15
 -1      6259 1.06835E-05-2.16742E-09-7.98255E-04
 -1      6260 5.95836E-06 2.07810E-11 4.82315E-04
 -1      6261 4.92021E-06-4.15798E-11-4.07313E-15
 -1      6262 5.95836E-06 2.07795E-11-4.82315E-04
 -1      6263 4.26085E-06 5.18916E-10 3.54545E-04
 -1      6264 3.85492E-06-1.03784E-09-5.75928E-15
 -1      6265 4.26085E-06 5.18918E-10-3.54545E-04
 -1      6266 3.00608E-06 5.48709E-10 2.60517E-04
 -1      6267 3.08207E-06-1.09740E-09 3.12597E-15
 -1      6268 3.00608E-06 5.48710E-10-2.60517E-04
 -1      6269 2.12100E-06 4.68368E-10 1.93447E-04
 -1      6270 2.51087E-06-9.36758E-10 1.96371E-15
 -1      6271 2.12100E-06 4.68369E-10-1.93447E-04
 -1      6272 1.54970E-06 3.37507E-10 1.48317E-04
 -1      6273 2.07806E-06-6.75006E-10 2.57086E-15
 -1      6274 1.54970E-06 3.37505E-10-1.48317E-04
 -1      6275 1.20577E-06 1.98748E-10 1.18960E-04
 -1      6276 1.74108E-06-3.97486E-10-2.75821E-15
 -1      6277 1.20577E-06 1.98749E-10-1.18960E-04
 -1      6278 9.85187E-07 8.86241E-11 9.86051E-05
 -1      6279 1.47172E-06-1.77255E-10-1.37043E-15
 -1      6280 9.85187E-07 8.86240E-11-9.86051E-05
 -1      6281 8.20617E-07 6.13258E-11 8.28400E-05
 -1      6282 1.25053E-06-1.22639E-10-5.07233E-15
 -1      6283 8.20617E-07 6.13262E-11-8.28400E-05
 -1      6284 6.80116E-07 6.86753E-11 6.95089E-05
 -1      6285 1.06617E-06-1.37362E-10-1.55431E-15
 -1      6286 6.80116E-07 6.86754E-11-6.95089E-05
 -1      6287 5.53767E-07 7.02178E-11 5.78585E-05
 -1      6288 9.12175E-07-1.40423E-10 1.45717E-16
 -1      6289 5.53767E-07 7.02174E-11-5.78585E-05
 -1      6290 4.47655E-07 5.85273E-11 4.80960E-05
 -1      6291 7.83610E-07-1.17062E-10 2.41127E-15
 -1      6292 4.47655E-07 5.85260E-11-4.80960E-05
 -1      6293 3.63522E-07 4.89443E-11 4.01885E-05
 -1      6294 6.75837E-07-9.78735E-11 3.76435E-15
 -1      6295 3.63522E-07 4.89436E-11-4.01885E-05
 -1      6296 3.01732E-07 4.80534E-11 3.40358E-05
 -1      6297 5.84641E-07-9.60898E-11 8.11851E-16
 -1      6298 3.01732E-07 4.80518E-11-3.40358E-05
 -1      6299 2.60045E-07 4.77224E-11 2.94095E-05
 -1      6300 5.06521E-07-9.54334E-11-4.28477E-15
 -1      6301 2.60045E-07 4.77240E-11-2.94095E-05
 -1      6302 2.26660E-07 4.22827E-11 2.55643E-05
 -1      6303 4.39066E-07-8.45685E-11 8.01442E-16
 -1      6304 2.26660E-07 4.22789E-11-2.55643E-05
 -1      6305 1.96842E-07 3.18309E-11 2.21873E-05
 -1      6306 3.80818E-07-6.36606E-11-1.16920E-15
 -1      6307 1.96842E-07 3.18313E-11-2.21873E-05
 -1      6308 1.76080E-07 2.01276E-11 1.95556E-05
 -1      6309 3.30480E-07-4.02666E-11-3.66027E-15
 -1      6310 1.76080E-07 2.01277E-11-1.95556E-05
 -1      6311 1.65361E-07 2.26385E-11 1.76780E-05
 -1      6312 2.86373E-07-4.52817E-11-3.59782E-15
 -1      6313 1.65362E-07 2.26394E-11-1.76780E-05
 -1      6314 1.66653E-07 4.64940E-11 1.66132E-05
 -1      6315 2.46625E-07-9.29978E-11 4.95784E-15
 -1      6316 1.66653E-07 4.64963E-11-1.66132E-05
 -1      6317 1.81906E-07 5.77722E-11 1.64383E-05
 -1      6318 2.10019E-07-1.15543E-10-2.96811E-15
 -1      6319 1.81906E-07 5.77711E-11-1.64383E-05
 -1      6320 2.04592E-07 5.10964E-11 1.67848E-05
 -1      6321 1.76749E-07-1.02199E-10-2.14412E-15
 -1      6322 2.04592E-07 5.10975E-11-1.67848E-05
 -1      6323 2.27712E-07 8.25708E-11 1.72401E-05
 -1      6324 1.46408E-07-1.65177E-10 1.81972E-15
 -1      6325 2.27712E-07 8.25712E-11-1.72401E-05
 -1      6326 2.50371E-07-1.13022E-10 1.77389E-05
 -1      6327 1.18505E-07 2.26045E-10-1.00440E-15
 -1      6328 2.50371E-07-1.13024E-10-1.77389E-05
 -1      6329 1.84328E-07 1.94321E-10 1.34197E-05
 -1      6330 9.98118E-08-3.88649E-10 2.60209E-17
 -1      6331 1.84328E-07 1.94319E-10-1.34197E-05
 -1      6332 1.47854E-07 4.09315E-10 1.07938E-05
 -1      6333 8.10934E-08-8.18643E-10-4.69590E-15
 -1      6334 1.47854E-07 4.09316E-10-1.07938E-05
 -1      6335 1.67723E-07-2.39523E-10 1.16277E-05
 -1      6336 7.04658E-08 4.79036E-10 2.65933E-15
 -1      6337 1.67723E-07-2.39521E-10-1.16277E-05
 -1      6338 4.34922E-08 2.15197E-11 7.57398E-06
 -1      6339 1.77397E-07-4.30484E-11 9.67976E-16
 -1      6340 4.34922E-08 2.15205E-11-7.57398E-06
 -1      6341 1.60486E-05-5.27203E-10 1.20203E-03
 -1      6342 9.86432E-06 1.05440E-09 1.78330E-15
 -1      6343 1.60486E-05-5.27200E-10-1.20203E-03
 -1      6344 6.42035E-07-1.26804E-09 4.01948E-05
 -1      6345 1.19120E-07 2.53607E-09 1.03563E-15
 -1      6346 6.42035E-07-1.26804E-09-4.01948E-05
 -1      6347-2.57646E-08-4.62786E-10 1.83558E-06
 -1      6348 1.15592E-07 9.25564E-10-6.95624E-16
 -1      6349-2.57646E-08-4.62785E-10-1.83558E-06
 -1      6350 5.24779E-06 8.34822E-09 6.49119E-04
 -1      6351 1.21634E-05-1.66964E-08-1.01308E-15
 -1      6352 5.24779E-06 8.34822E-09-6.49119E-04
 -1      6353 1.63390E-05 2.82193E-10 1.21583E-03
 -1      6354 9.76545E-06-5.64383E-10-9.66588E-15
 -1      6355 1.63390E-05 2.82194E-10-1.21583E-03
 -1      6356 1.85497E-06-1.99261E-11 1.32845E-04
 -1      6357 9.27544E-07 3.98461E-11-1.65493E-15
 -1      6358 1.85497E-06-1.99243E-11-1.32845E-04
 -1      6359 1.95771E-07-1.81979E-10 1.66874E-05
 -1      6360 1.90989E-07 3.63971E-10 9.36751E-17
 -1      6361 1.95771E-07-1.81977E-10-1.66874E-05
 -1      6362 1.62641E-05 5.19695E-10 1.21140E-03
 -1      6363 9.76033E-06-1.03939E-09 1.24206E-15
 -1      6364 1.62641E-05 5.19697E-10-1.21140E-03
 -1      6365 5.62040E-06-3.16046E-09 4.18304E-04
 -1      6366 3.36174E-06 6.32093E-09-1.89432E-15
 -1      6367 5.62040E-06-3.16046E-09-4.18304E-04
 -1      6368 1.66700E-05-2.09218E-09 1.23033E-03
 -1      6369 9.60959E-06 4.18435E-09 7.36911E-15
 -1      6370 1.66700E-05-2.09218E-09-1.23033E-03
 -1      6371 6.94642E-07 9.55733E-12 4.84720E-05
 -1      6372 3.02835E-07-1.91099E-11 2.80158E-15
 -1      6373 6.94642E-07 9.55667E-12-4.84720E-05
 -1      6374 2.12024E-06-2.78445E-11 1.52568E-04
 -1      6375 1.08551E-06 5.57099E-11-2.20657E-15
 -1      6376 2.12024E-06-2.78457E-11-1.52568E-04
 -1      6377 4.28339E-06 3.33944E-08 4.39465E-04
 -1      6378 6.77396E-06-6.67887E-08-3.87190E-15
 -1      6379 4.28339E-06 3.33944E-08-4.39465E-04
 -1      6380 3.88133E-06 2.18195E-10 2.91814E-04
 -1      6381 2.42425E-06-4.36378E-10-2.96985E-15
 -1      6382 3.88133E-06 2.18195E-10-2.91814E-04
 -1      6383 1.63142E-06 4.40065E-12 1.16270E-04
 -1      6384 7.96048E-07-8.80507E-12 2.01575E-15
 -1      6385 1.63142E-06 4.40298E-12-1.16270E-04
 -1      6386 1.13806E-06 5.67919E-12 7.99318E-05
 -1      6387 5.14225E-07-1.13555E-11 4.83641E-15
 -1      6388 1.13806E-06 5.67763E-12-7.99318E-05
 -1      6389 2.44305E-06-2.53910E-11 1.76526E-04
 -1      6390 1.27624E-06 5.07641E-11-1.63064E-15
 -1      6391 2.44305E-06-2.53909E-11-1.76526E-04
 -1      6392 5.20368E-07-6.33724E-10 3.29724E-05
 -1      6393 1.10319E-07 1.26744E-09 2.83974E-15
 -1      6394 5.20368E-07-6.33721E-10-3.29724E-05
 -1      6395 3.13100E-06 9.36444E-11 2.30319E-04
 -1      6396 1.77821E-06-1.87298E-10-3.13638E-15
 -1      6397 3.13100E-06 9.36458E-11-2.30319E-04
 -1      6398-1.15172E-07 1.33634E-09-4.71883E-06
 -1      6399 6.55995E-08-2.67267E-09 2.88658E-15
 -1      6400-1.15172E-07 1.33634E-09 4.71883E-06
 -1      6401 1.06115E-05-2.45621E-09 7.34971E-04
 -1      6402 4.43435E-06 4.91241E-09-5.12784E-15
 -1      6403 1.06115E-05-2.45621E-09-7.34971E-04
 -1      6404 4.72817E-07 1.28108E-08 2.80242E-05
 -1      6405 3.26913E-08-2.56215E-08-1.33921E-15
 -1      6406 4.72817E-07 1.28108E-08-2.80242E-05
 -1      6407 3.93465E-07-5.39041E-11 2.96744E-05
 -1      6408 2.48970E-07 1.07805E-10 1.64625E-15
 -1      6409 3.93465E-07-5.39068E-11-2.96744E-05
 -1      6410 3.30422E-05 2.82731E-08 2.20675E-03
 -1      6411 1.09519E-05-5.65463E-08 7.95891E-15
 -1      6412 3.30422E-05 2.82731E-08-2.20675E-03
 -1      6413 4.91362E-07 2.60188E-11 3.59253E-05
 -1      6414 2.71393E-07-5.20338E-11-4.30905E-15
 -1      6415 4.91362E-07 2.60187E-11-3.59253E-05
 -1      6416 1.28283E-06 9.82270E-12 9.04820E-05
 -1      6417 5.92980E-07-1.96625E-11 1.63064E-16
 -1      6418 1.28283E-06 9.82397E-12-9.04820E-05
 -1      6419 5.56467E-07-3.20866E-11 3.53584E-05
 -1      6420 1.21412E-07 6.41790E-11 1.43982E-16
 -1      6421 5.56467E-07-3.20848E-11-3.53584E-05
 -1      6422 3.51031E-06 1.90567E-10 2.60786E-04
 -1      6423 2.08315E-06-3.81139E-10 3.19189E-16
 -1      6424 3.51031E-06 1.90568E-10-2.60786E-04
 -1      6425 1.35370E-05-7.72294E-10 1.00242E-03
 -1      6426 7.91930E-06 1.54460E-09-2.38004E-15
 -1      6427 1.35370E-05-7.72296E-10-1.00242E-03
 -1      6428 2.77945E-05 1.73161E-08 1.86286E-03
 -1      6429 9.44211E-06-3.46322E-08-2.70617E-15
 -1      6430 2.77945E-05 1.73161E-08-1.86286E-03
 -1      6431 4.94767E-07 1.05781E-10 3.16360E-05
 -1      6432 1.14867E-07-2.11563E-10-3.74180E-15
 -1      6433 4.94767E-07 1.05782E-10-3.16360E-05
 -1      6434 1.36864E-05-6.74714E-10 1.00361E-03
 -1      6435 7.66240E-06 1.34943E-09 2.51188E-15
 -1      6436 1.36864E-05-6.74712E-10-1.00361E-03
 -1      6437 1.53274E-07-6.27865E-10 1.52182E-05
 -1      6438 2.24687E-07 1.25573E-09-6.55725E-16
 -1      6439 1.53274E-07-6.27864E-10-1.52182E-05
 -1      6440 1.16222E-05-6.62195E-11 1.01830E-03
 -1      6441 1.23028E-05 1.32427E-10 7.01522E-15
 -1      6442 1.16222E-05-6.62211E-11-1.01830E-03
 -1      6443 1.98065E-07-4.36420E-09 1.24915E-05
 -1      6444 3.99432E-08 8.72842E-09-8.82974E-16
 -1      6445 1.98065E-07-4.36420E-09-1.24915E-05
 -1      6446 4.46463E-06-2.33976E-10 3.36391E-04
 -1      6447 2.81375E-06 4.67953E-10 2.65760E-15
 -1      6448 4.46463E-06-2.33976E-10-3.36391E-04
 -1      6449 8.96166E-07 1.87223E-09 5.57006E-05
 -1      6450 1.52158E-07-3.74445E-09-6.46531E-15
 -1      6451 8.96166E-07 1.87223E-09-5.57006E-05
 -1      6452 2.55030E-05-1.72486E-08 1.96227E-03
 -1      6453 1.74943E-05 3.44972E-08 5.13479E-16
 -1      6454 2.55030E-05-1.72486E-08-1.96227E-03
 -1      6455 1.02458E-06-1.54005E-10 6.33128E-05
 -1      6456 1.61079E-07 3.08006E-10 8.48280E-16
 -1      6457 1.02458E-06-1.54007E-10-6.33128E-05
 -1      6458 1.88101E-05-4.16756E-09 1.26381E-03
 -1      6459 6.49862E-06 8.33514E-09 7.57727E-15
 -1      6460 1.88101E-05-4.16756E-09-1.26381E-03
 -1      6461 4.26671E-07-1.83188E-10 2.75886E-05
 -1      6462 1.09762E-07 3.66373E-10 2.42167E-15
 -1      6463 4.26671E-07-1.83187E-10-2.75886E-05
 -1      6464 3.81101E-06 9.01179E-11 2.92003E-04
 -1      6465 2.57147E-06-1.80230E-10 4.16334E-15
 -1      6466 3.81101E-06 9.01167E-11-2.92003E-04
 -1      6467 1.36206E-06-7.86612E-12 9.63191E-05
 -1      6468 6.38302E-07 1.57308E-11 6.17562E-16
 -1      6469 1.36206E-06-7.86340E-12-9.63191E-05
 -1      6470 2.47062E-07 5.40730E-09 1.85442E-05
 -1      6471 1.53232E-07-1.08146E-08 7.80626E-16
 -1      6472 2.47062E-07 5.40730E-09-1.85442E-05
 -1      6473 6.08559E-07-4.03812E-09 3.84281E-05
 -1      6474 1.24394E-07 8.07623E-09-8.43076E-16
 -1      6475 6.08559E-07-4.03812E-09-3.84281E-05
 -1      6476 6.97905E-07 6.03952E-10 4.36565E-05
 -1      6477 1.28224E-07-1.20792E-09-9.08822E-15
 -1      6478 6.97905E-07 6.03952E-10-4.36565E-05
 -1      6479 1.41217E-05-1.83939E-09 1.02318E-03
 -1      6480 7.47487E-06 3.67878E-09 9.76302E-15
 -1      6481 1.41217E-05-1.83939E-09-1.02318E-03
 -1      6482 7.48471E-07 3.50389E-11 5.21034E-05
 -1      6483 3.21948E-07-7.00669E-11 2.61249E-15
 -1      6484 7.48471E-07 3.50401E-11-5.21034E-05
 -1      6485 5.19082E-07-1.90777E-10 3.29999E-05
 -1      6486 1.13850E-07 3.81546E-10 1.64452E-15
 -1      6487 5.19082E-07-1.90778E-10-3.29999E-05
 -1      6488 1.37821E-05-6.58088E-09 1.04111E-03
 -1      6489 8.77989E-06 1.31618E-08 4.97519E-15
 -1      6490 1.37821E-05-6.58089E-09-1.04111E-03
 -1      6491 1.43550E-06 9.32591E-09 8.61802E-05
 -1      6492 1.37549E-07-1.86518E-08 4.08180E-15
 -1      6493 1.43550E-06 9.32591E-09-8.61802E-05
 -1      6494 1.39892E-05-2.26335E-09 1.01294E-03
 -1      6495 7.38213E-06 4.52670E-09 1.37945E-14
 -1      6496 1.39892E-05-2.26335E-09-1.01294E-03
 -1      6497 1.60257E-05-6.62410E-09 1.15109E-03
 -1      6498 8.13207E-06 1.32482E-08-1.13728E-14
 -1      6499 1.60257E-05-6.62410E-09-1.15109E-03
 -1      6500 1.48253E-05-3.34993E-09 1.06481E-03
 -1      6501 7.52092E-06 6.69985E-09 6.38379E-16
 -1      6502 1.48253E-05-3.34993E-09-1.06481E-03
 -1      6503 1.42717E-07-3.64555E-10 1.49830E-05
 -1      6504 2.37588E-07 7.29114E-10 3.85456E-15
 -1      6505 1.42717E-07-3.64556E-10-1.49830E-05
 -1      6506 9.84782E-06 4.47401E-09 7.27133E-04
 -1      6507 5.68779E-06-8.94803E-09-1.95677E-15
 -1      6508 9.84782E-06 4.47402E-09-7.27133E-04
 -1      6509 5.71653E-06 1.76906E-09 4.47530E-04
 -1      6510 4.18965E-06-3.53812E-09-1.63758E-15
 -1      6511 5.71653E-06 1.76906E-09-4.47530E-04
 -1      6512 3.74681E-06 1.14280E-09 3.08455E-04
 -1      6513 3.27408E-06-2.28561E-09-7.21298E-15
 -1      6514 3.74681E-06 1.14280E-09-3.08455E-04
 -1      6515 2.53032E-06 8.78110E-10 2.20590E-04
 -1      6516 2.63978E-06-1.75623E-09-6.93873E-18
 -1      6517 2.53032E-06 8.78108E-10-2.20590E-04
 -1      6518 1.79397E-06 6.37587E-10 1.65051E-04
 -1      6519 2.17368E-06-1.27518E-09-6.45317E-16
 -1      6520 1.79397E-06 6.37586E-10-1.65051E-04
 -1      6521 1.37565E-06 3.97086E-10 1.30865E-04
 -1      6522 1.81692E-06-7.94156E-10-2.95250E-15
 -1      6523 1.37565E-06 3.97086E-10-1.30865E-04
 -1      6524 1.12611E-06 1.12841E-10 1.08548E-04
 -1      6525 1.53697E-06-2.25702E-10-2.00534E-15
 -1      6526 1.12611E-06 1.12842E-10-1.08548E-04
 -1      6527 9.52169E-07 6.71888E-11 9.20233E-05
 -1      6528 1.30801E-06-1.34372E-10-9.02055E-17
 -1      6529 9.52169E-07 6.71917E-11-9.20233E-05
 -1      6530 8.03771E-07 1.01853E-10 7.80157E-05
 -1      6531 1.11583E-06-2.03708E-10-3.01148E-15
 -1      6532 8.03771E-07 1.01854E-10-7.80157E-05
 -1      6533 6.67346E-07 1.21470E-10 6.55627E-05
 -1      6534 9.53963E-07-2.42946E-10-1.71044E-15
 -1      6535 6.67346E-07 1.21471E-10-6.55627E-05
 -1      6536 5.50436E-07 1.09640E-10 5.49822E-05
 -1      6537 8.18438E-07-2.19283E-10-1.66187E-15
 -1      6538 5.50436E-07 1.09641E-10-5.49822E-05
 -1      6539 4.54769E-07 8.75284E-11 4.62565E-05
 -1      6540 7.05177E-07-1.75060E-10-1.99493E-15
 -1      6541 4.54769E-07 8.75280E-11-4.62565E-05
 -1      6542 3.82091E-07 7.57334E-11 3.93588E-05
 -1      6543 6.09745E-07-1.51475E-10-3.33414E-15
 -1      6544 3.82091E-07 7.57340E-11-3.93588E-05
 -1      6545 3.30577E-07 7.62852E-11 3.40692E-05
 -1      6546 5.28125E-07-1.52561E-10-9.71445E-16
 -1      6547 3.30577E-07 7.62839E-11-3.40692E-05
 -1      6548 2.88662E-07 7.65641E-11 2.96463E-05
 -1      6549 4.57563E-07-1.53128E-10-1.12133E-14
 -1      6550 2.88662E-07 7.65660E-11-2.96463E-05
 -1      6551 2.53394E-07 6.49827E-11 2.58755E-05
 -1      6552 3.96470E-07-1.29952E-10-1.86309E-15
 -1      6553 2.53394E-07 6.49840E-11-2.58755E-05
 -1      6554 2.30018E-07 4.07066E-11 2.30236E-05
 -1      6555 3.43668E-07-8.14150E-11-8.53484E-16
 -1      6556 2.30018E-07 4.07047E-11-2.30236E-05
 -1      6557 2.15667E-07 1.89174E-11 2.08927E-05
 -1      6558 2.97989E-07-3.78391E-11-2.68362E-15
 -1      6559 2.15667E-07 1.89168E-11-2.08927E-05
 -1      6560 2.07828E-07 3.61081E-11 1.92855E-05
 -1      6561 2.57565E-07-7.22223E-11-1.06165E-15
 -1      6562 2.07828E-07 3.61097E-11-1.92855E-05
 -1      6563 2.21890E-07 9.46671E-11 1.89989E-05
 -1      6564 2.19442E-07-1.89315E-10 5.02549E-15
 -1      6565 2.21890E-07 9.46662E-11-1.89989E-05
 -1      6566 2.67077E-07 7.50775E-11 2.05277E-05
 -1      6567 1.82441E-07-1.50150E-10 1.57513E-15
 -1      6568 2.67077E-07 7.50773E-11-2.05277E-05
 -1      6569 2.88655E-07-1.80616E-11 2.08422E-05
 -1      6570 1.50269E-07 3.61236E-11 2.45290E-15
 -1      6571 2.88655E-07-1.80624E-11-2.08422E-05
 -1      6572 3.03384E-07 2.00544E-10 2.07927E-05
 -1      6573 1.19091E-07-4.01095E-10-5.06019E-15
 -1      6574 3.03384E-07 2.00547E-10-2.07927E-05
 -1      6575 3.77497E-07-5.17986E-10 2.39798E-05
 -1      6576 8.21309E-08 1.03596E-09-3.17975E-15
 -1      6577 3.77497E-07-5.17986E-10-2.39798E-05
 -1      6578 1.07808E-07 1.16581E-09 8.12222E-06
 -1      6579 6.79215E-08-2.33161E-09-3.07566E-15
 -1      6580 1.07808E-07 1.16581E-09-8.12222E-06
 -1      6581 2.21675E-07 4.24680E-11 1.48175E-05
 -1      6582 7.39183E-08-8.49131E-11 2.08167E-17
 -1      6583 2.21675E-07 4.24671E-11-1.48175E-05
 -1      6584 3.12071E-07 6.55012E-10 2.26545E-05
 -1      6585 1.66706E-07-1.31001E-09-1.34441E-15
 -1      6586 3.12071E-07 6.55013E-10-2.26545E-05
 -1      6587 3.63426E-06-6.72645E-13 2.87868E-04
 -1      6588 2.78057E-06 1.32230E-12-2.97679E-15
 -1      6589 3.63426E-06-6.73339E-13-2.87868E-04
 -1      6590 1.35178E-05-2.36734E-09 1.00815E-03
 -1      6591 8.15776E-06 4.73469E-09 7.36911E-15
 -1      6592 1.35178E-05-2.36734E-09-1.00815E-03
 -1      6593 1.69490E-06-5.58141E-09 1.02614E-04
 -1      6594 1.92456E-07 1.11628E-08-9.35016E-16
 -1      6595 1.69490E-06-5.58141E-09-1.02614E-04
 -1      6596 2.68594E-05-1.30786E-08 1.82156E-03
 -1      6597 9.87056E-06 2.61573E-08 1.81105E-15
 -1      6598 2.68594E-05-1.30786E-08-1.82156E-03
 -1      6599 1.36235E-05-1.40484E-10 1.00463E-03
 -1      6600 7.82372E-06 2.80947E-10-3.19189E-15
 -1      6601 1.36235E-05-1.40485E-10-1.00463E-03
 -1      6602 1.20881E-06 1.81223E-11 8.50714E-05
 -1      6603 5.52146E-07-3.62574E-11 8.79158E-15
 -1      6604 1.20881E-06 1.81232E-11-8.50714E-05
 -1      6605 1.34892E-05 1.30549E-09 9.98305E-04
 -1      6606 7.87132E-06-2.61098E-09-2.31759E-15
 -1      6607 1.34892E-05 1.30549E-09-9.98305E-04
 -1      6608 2.89770E-07-8.76776E-11 2.37204E-05
 -1      6609 2.48503E-07 1.75345E-10 1.50401E-15
 -1      6610 2.89770E-07-8.76801E-11-2.37204E-05
 -1      6611 3.71784E-06 2.56879E-10 2.77980E-04
 -1      6612 2.26829E-06-5.13760E-10 1.11022E-16
 -1      6613 3.71784E-06 2.56879E-10-2.77980E-04
 -1      6614 1.95674E-06-4.27591E-11 1.40819E-04
 -1      6615 1.00240E-06 8.55129E-11-3.50067E-15
 -1      6616 1.95674E-06-4.27597E-11-1.40819E-04
 -1      6617 1.51649E-06 5.35909E-12 1.08062E-04
 -1      6618 7.39383E-07-1.07295E-11-1.07206E-15
 -1      6619 1.51649E-06 5.35996E-12-1.08062E-04
 -1      6620 2.64795E-06-5.48310E-11 1.91459E-04
 -1      6621 1.38775E-06 1.09659E-10 1.07206E-15
 -1      6622 2.64795E-06-5.48297E-11-1.91459E-04
 -1      6623 5.41496E-06-7.30365E-09 3.96651E-04
 -1      6624 3.01674E-06 1.46073E-08 2.75127E-15
 -1      6625 5.41496E-06-7.30365E-09-3.96651E-04
 -1      6626 4.84358E-07-5.84186E-11 3.08982E-05
 -1      6627 1.09927E-07 1.16823E-10 1.33227E-15
 -1      6628 4.84358E-07-5.84190E-11-3.08982E-05
 -1      6629 8.59839E-07 2.69886E-11 5.97223E-05
 -1      6630 3.65178E-07-5.39938E-11-1.56125E-16
 -1      6631 8.59839E-07 2.69889E-11-5.97223E-05
 -1      6632 9.62235E-07 1.93760E-11 6.70772E-05
 -1      6633 4.17140E-07-3.87634E-11-6.34909E-16
 -1      6634 9.62235E-07 1.93771E-11-6.70772E-05
 -1      6635 1.89507E-07 8.13772E-11 1.66253E-05
 -1      6636 2.01346E-07-1.62768E-10-1.07553E-16
 -1      6637 1.89507E-07 8.13796E-11-1.66253E-05
 -1      6638 1.08196E-06 7.47494E-12 7.57104E-05
 -1      6639 4.79063E-07-1.49307E-11-2.86229E-15
 -1      6640 1.08196E-06 7.47430E-12-7.57104E-05
 -1      6641 1.74300E-06-6.77946E-13 1.24468E-04
 -1      6642 8.59080E-07 1.36571E-12-1.81105E-15
 -1      6643 1.74300E-06-6.77646E-13-1.24468E-04
 -1      6644 6.30002E-07 4.69394E-11 4.43281E-05
 -1      6645 2.87451E-07-9.38946E-11 3.15373E-15
 -1      6646 6.30002E-07 4.69392E-11-4.43281E-05
 -1      6647 3.07641E-06 3.18848E-11 2.23395E-04
 -1      6648 1.64568E-06-6.37737E-11-2.90393E-15
 -1      6649 3.07641E-06 3.18838E-11-2.23395E-04
 -1      6650 7.05478E-07-1.16185E-09 4.44246E-05
 -1      6651 1.39891E-07 2.32369E-09 3.18148E-15
 -1      6652 7.05478E-07-1.16184E-09-4.44246E-05
 -1      6653 6.85447E-08-8.47622E-10 4.70503E-06
 -1      6654 2.71597E-08 1.69526E-09-6.00214E-16
 -1      6655 6.85447E-08-8.47622E-10-4.70503E-06
 -1      6656 1.34398E-05 1.74111E-10 9.96810E-04
 -1      6657 7.91788E-06-3.48244E-10-1.93803E-14
 -1      6658 1.34398E-05 1.74111E-10-9.96810E-04
 -1      6659 1.84715E-06-8.63368E-12 1.32402E-04
 -1      6660 9.27733E-07 1.72976E-11 3.06352E-15
 -1      6661 1.84715E-06-8.63341E-12-1.32402E-04
 -1      6662 1.29679E-05-2.14943E-09 9.05838E-04
 -1      6663 5.68619E-06 4.29886E-09-2.84494E-16
 -1      6664 1.29679E-05-2.14943E-09-9.05838E-04
 -1      6665 1.13050E-05-8.33844E-11 8.28969E-04
 -1      6666 6.32843E-06 1.66754E-10-5.96745E-16
 -1      6667 1.13050E-05-8.33837E-11-8.28969E-04
 -1      6668 5.22107E-07-4.48773E-11 3.35135E-05
 -1      6669 1.25729E-07 8.97400E-11-1.55605E-15
 -1      6670 5.22107E-07-4.48775E-11-3.35135E-05
 -1      6671 4.67530E-07-2.22246E-10 3.02685E-05
 -1      6672 1.21598E-07 4.44499E-10-8.37351E-15
 -1      6673 4.67530E-07-2.22244E-10-3.02685E-05
 -1      6674 8.37543E-07 8.75480E-10 5.30064E-05
 -1      6675 1.75349E-07-1.75094E-09 7.52870E-16
 -1      6676 8.37543E-07 8.75482E-10-5.30064E-05
 -1      6677 7.72740E-07 2.02469E-09 4.77789E-05
 -1      6678 1.22469E-07-4.04937E-09-2.13544E-15
 -1      6679 7.72740E-07 2.02469E-09-4.77789E-05
 -1      6680 7.05596E-07 2.80166E-10 4.45904E-05
 -1      6681 1.45444E-07-5.60361E-10-3.48506E-15
 -1      6682 7.05596E-07 2.80167E-10-4.45904E-05
 -1      6683 3.39857E-06 1.72480E-10 2.50412E-04
 -1      6684 1.94447E-06-3.44965E-10-3.34455E-15
 -1      6685 3.39857E-06 1.72482E-10-2.50412E-04
 -1      6686 9.69852E-07 1.27077E-09 6.02446E-05
 -1      6687 1.63420E-07-2.54154E-09 1.33574E-16
 -1      6688 9.69852E-07 1.27077E-09-6.02446E-05
 -1      6689 2.27039E-06-5.72243E-11 1.63746E-04
 -1      6690 1.17544E-06 1.14457E-10 2.17534E-15
 -1      6691 2.27039E-06-5.72224E-11-1.63746E-04
 -1      6692-4.56540E-08-3.22780E-09-5.24501E-07
 -1      6693 7.29866E-08 6.45561E-09-2.08340E-15
 -1      6694-4.56540E-08-3.22780E-09 5.24501E-07
 -1      6695 2.67260E-06 9.18658E-09 1.60708E-04
 -1      6696 2.65103E-07-1.83732E-08 3.35496E-15
 -1      6697 2.67260E-06 9.18658E-09-1.60708E-04
 -1      6698 5.25284E-07-6.49797E-11 3.39047E-05
 -1      6699 1.33029E-07 1.29967E-10 3.54924E-15
 -1      6700 5.25284E-07-6.49801E-11-3.39047E-05
 -1      6701 1.96443E-06-8.64638E-09 1.18992E-04
 -1      6702 2.25126E-07 1.72927E-08 2.61249E-15
 -1      6703 1.96443E-06-8.64638E-09-1.18992E-04
 -1      6704 3.99515E-07 4.20078E-11 3.04409E-05
 -1      6705 2.63626E-07-8.39978E-11-7.71952E-16
 -1      6706 3.99515E-07 4.20080E-11-3.04409E-05
 -1      6707 2.22322E-05 4.22071E-08 1.49687E-03
 -1      6708 7.79041E-06-8.44142E-08-3.19883E-15
 -1      6709 2.22322E-05 4.22071E-08-1.49687E-03
 -1      6710 1.15061E-05-3.28960E-09 8.25264E-04
 -1      6711 5.79688E-06 6.57917E-09 6.16868E-15
 -1      6712 1.15061E-05-3.28960E-09-8.25264E-04
 -1      6713 6.21392E-07 3.79441E-11 3.93876E-05
 -1      6714 1.32222E-07-7.58417E-11-3.08954E-15
 -1      6715 6.21392E-07 3.79415E-11-3.93876E-05
 -1      6716 1.18262E-05-1.34783E-09 8.51989E-04
 -1      6717 6.08964E-06 2.69568E-09-3.83027E-15
 -1      6718 1.18262E-05-1.34784E-09-8.51989E-04
 -1      6719 8.62967E-07 4.71902E-09 5.55894E-05
 -1      6720 2.14667E-07-9.43805E-09 1.06165E-15
 -1      6721 8.62967E-07 4.71903E-09-5.55894E-05
 -1      6722 1.34108E-05 2.23022E-10 9.95215E-04
 -1      6723 7.92022E-06-4.46044E-10-1.01377E-14
 -1      6724 1.34108E-05 2.23021E-10-9.95215E-04
 -1      6725 1.17598E-05-6.44627E-09 8.60141E-04
 -1      6726 6.50706E-06 1.28925E-08-1.80411E-15
 -1      6727 1.17598E-05-6.44627E-09-8.60141E-04
 -1      6728 5.05604E-07-4.60330E-10 3.24363E-05
 -1      6729 1.21127E-07 9.20679E-10-9.41955E-16
 -1      6730 5.05604E-07-4.60331E-10-3.24363E-05
 -1      6731 1.24266E-05-2.65742E-09 8.72856E-04
 -1      6732 5.61743E-06 5.31482E-09 6.70991E-15
 -1      6733 1.24266E-05-2.65742E-09-8.72856E-04
 -1      6734-7.81265E-09-7.41534E-10 6.98361E-06
 -1      6735 2.59384E-07 1.48305E-09 4.98213E-15
 -1      6736-7.81265E-09-7.41534E-10-6.98361E-06
 -1      6737 1.31283E-05 6.29851E-09 9.31004E-04
 -1      6738 6.24386E-06-1.25970E-08 1.03320E-14
 -1      6739 1.31283E-05 6.29851E-09-9.31004E-04
 -1      6740 7.70188E-06 3.06458E-09 5.68856E-04
 -1      6741 4.45440E-06-6.12917E-09-1.39472E-15
 -1      6742 7.70188E-06 3.06458E-09-5.68856E-04
 -1      6743 4.92881E-06 1.82536E-09 3.80251E-04
 -1      6744 3.41649E-06-3.65072E-09 5.35336E-15
 -1      6745 4.92881E-06 1.82536E-09-3.80251E-04
 -1      6746 3.28895E-06 1.36199E-09 2.66814E-04
 -1      6747 2.73618E-06-2.72399E-09-9.71098E-15
 -1      6748 3.28895E-06 1.36199E-09-2.66814E-04
 -1      6749 2.33417E-06 9.32325E-10 1.98255E-04
 -1      6750 2.25245E-06-1.86465E-09 9.06220E-15
 -1      6751 2.33417E-06 9.32323E-10-1.98255E-04
 -1      6752 1.83699E-06 7.19972E-10 1.59153E-04
 -1      6753 1.88180E-06-1.43996E-09 8.97546E-15
 -1      6754 1.83699E-06 7.19973E-10-1.59153E-04
 -1      6755 1.52715E-06-1.11537E-11 1.33281E-04
 -1      6756 1.59832E-06 2.22964E-11 1.24900E-16
 -1      6757 1.52715E-06-1.11533E-11-1.33281E-04
 -1      6758 1.32705E-06-5.41193E-11 1.15182E-04
 -1      6759 1.36669E-06 1.08243E-10 7.51482E-15
 -1      6760 1.32705E-06-5.41204E-11-1.15182E-04
 -1      6761 1.15072E-06 6.86691E-11 9.94084E-05
 -1      6762 1.16874E-06-1.37342E-10-3.97252E-15
 -1      6763 1.15072E-06 6.86681E-11-9.94084E-05
 -1      6764 9.86688E-07 1.47330E-10 8.51501E-05
 -1      6765 9.99071E-07-2.94646E-10-1.30451E-15
 -1      6766 9.86688E-07 1.47329E-10-8.51501E-05
 -1      6767 8.41742E-07 1.46316E-10 7.27389E-05
 -1      6768 8.55711E-07-2.92621E-10-7.07767E-16
 -1      6769 8.41742E-07 1.46316E-10-7.27389E-05
 -1      6770 7.16538E-07 1.02037E-10 6.21420E-05
 -1      6771 7.36195E-07-2.04078E-10 3.07393E-15
 -1      6772 7.16538E-07 1.02038E-10-6.21420E-05
 -1      6773 6.15090E-07 7.07647E-11 5.34698E-05
 -1      6774 6.36362E-07-1.41547E-10 1.91167E-15
 -1      6775 6.15090E-07 7.07666E-11-5.34698E-05
 -1      6776 5.36852E-07 7.56392E-11 4.65549E-05
 -1      6777 5.51450E-07-1.51288E-10-1.00614E-16
 -1      6778 5.36852E-07 7.56388E-11-4.65549E-05
 -1      6779 4.71214E-07 8.81457E-11 4.06908E-05
 -1      6780 4.78019E-07-1.76307E-10-4.97172E-15
 -1      6781 4.71214E-07 8.81469E-11-4.06908E-05
 -1      6782 4.17504E-07 7.91255E-11 3.57835E-05
 -1      6783 4.14137E-07-1.58261E-10-7.73513E-15
 -1      6784 4.17504E-07 7.91266E-11-3.57835E-05
 -1      6785 3.84253E-07 5.47140E-11 3.22814E-05
 -1      6786 3.58388E-07-1.09405E-10 2.69056E-15
 -1      6787 3.84253E-07 5.47138E-11-3.22814E-05
 -1      6788 3.66696E-07 2.13224E-11 2.98861E-05
 -1      6789 3.09886E-07-4.26350E-11-2.69750E-15
 -1      6790 3.66696E-07 2.13226E-11-2.98861E-05
 -1      6791 3.39478E-07-1.35823E-11 2.71476E-05
 -1      6792 2.68732E-07 2.71355E-11 2.58474E-16
 -1      6793 3.39478E-07-1.35829E-11-2.71476E-05
 -1      6794 3.10590E-07 4.95985E-11 2.44489E-05
 -1      6795 2.32298E-07-9.91911E-11-3.58047E-15
 -1      6796 3.10590E-07 4.95997E-11-2.44489E-05
 -1      6797 3.55107E-07 1.89084E-10 2.58887E-05
 -1      6798 1.93534E-07-3.78165E-10 4.91100E-15
 -1      6799 3.55107E-07 1.89084E-10-2.58887E-05
 -1      6800 4.65406E-07 1.81782E-11 3.10372E-05
 -1      6801 1.52679E-07-3.63566E-11 2.89699E-15
 -1      6802 4.65406E-07 1.81775E-11-3.10372E-05
 -1      6803 3.43389E-07-5.01894E-10 2.34111E-05
 -1      6804 1.30487E-07 1.00380E-09-2.58127E-15
 -1      6805 3.43389E-07-5.01896E-10-2.34111E-05
 -1      6806-4.14439E-07-5.04345E-09-2.00056E-05
 -1      6807 1.30459E-07 1.00869E-08-3.04791E-15
 -1      6808-4.14439E-07-5.04345E-09 2.00056E-05
 -1      6809 1.46523E-07-5.31419E-10 8.68213E-06
 -1      6810 1.00477E-08 1.06285E-09-6.76542E-16
 -1      6811 1.46523E-07-5.31418E-10-8.68213E-06
 -1      6812 2.05370E-07 1.58929E-08 1.53515E-05
 -1      6813 1.25162E-07-3.17857E-08-9.31547E-16
 -1      6814 2.05370E-07 1.58929E-08-1.53515E-05
 -1      6815 4.29344E-06-4.16231E-09 3.28612E-04
 -1      6816 2.88457E-06 8.32461E-09 1.40860E-15
 -1      6817 4.29344E-06-4.16231E-09-3.28612E-04
 -1      6818 1.34714E-05-2.79212E-09 9.72648E-04
 -1      6819 7.01148E-06 5.58426E-09-7.14706E-15
 -1      6820 1.34714E-05-2.79212E-09-9.72648E-04
 -1      6821 2.50664E-05-2.53324E-08 1.64941E-03
 -1      6822 7.44728E-06 5.06648E-08 1.38084E-15
 -1      6823 2.50664E-05-2.53324E-08-1.64941E-03
 -1      6824-1.01054E-06-2.49735E-09-4.94844E-05
 -1      6825 2.93526E-07 4.99469E-09-2.14759E-15
 -1      6826-1.01054E-06-2.49735E-09 4.94844E-05
 -1      6827 2.47939E-06-7.93459E-09 1.52304E-04
 -1      6828 3.58128E-07 1.58692E-08-5.06539E-16
 -1      6829 2.47939E-06-7.93459E-09-1.52304E-04
 -1      6830 1.16266E-05 4.44507E-09 8.47133E-04
 -1      6831 6.31937E-06-8.89014E-09-2.15105E-16
 -1      6832 1.16266E-05 4.44507E-09-8.47133E-04
 -1      6833 1.29586E-06 3.07460E-11 9.12721E-05
 -1      6834 5.94507E-07-6.14851E-11 4.71845E-16
 -1      6835 1.29586E-06 3.07472E-11-9.12721E-05
 -1      6836 1.74826E-07-5.02416E-11 1.73147E-05
 -1      6837 2.54767E-07 1.00489E-10 9.17669E-16
 -1      6838 1.74826E-07-5.02412E-11-1.73147E-05
 -1      6839 8.11451E-07 3.45853E-11 5.62411E-05
 -1      6840 3.40432E-07-6.91663E-11 5.75928E-16
 -1      6841 8.11451E-07 3.45884E-11-5.62411E-05
 -1      6842 2.68853E-06-1.74629E-08 2.32543E-04
 -1      6843 2.74063E-06 3.49259E-08 1.92207E-15
 -1      6844 2.68853E-06-1.74629E-08-2.32543E-04
 -1      6845 2.43086E-06-1.32115E-10 1.75743E-04
 -1      6846 1.27330E-06 2.64225E-10 2.72005E-15
 -1      6847 2.43086E-06-1.32114E-10-1.75743E-04
 -1      6848 1.42529E-06-2.94834E-11 1.01390E-04
 -1      6849 6.88833E-07 5.89757E-11-2.67841E-15
 -1      6850 1.42529E-06-2.94833E-11-1.01390E-04
 -1      6851 1.37424E-05-1.43136E-09 9.62068E-04
 -1      6852 6.10010E-06 2.86272E-09-1.70697E-15
 -1      6853 1.37424E-05-1.43136E-09-9.62068E-04
 -1      6854 1.03624E-06 2.22774E-11 7.21362E-05
 -1      6855 4.45740E-07-4.45711E-11 5.41234E-16
 -1      6856 1.03624E-06 2.22783E-11-7.21362E-05
 -1      6857 1.25002E-05-1.43876E-08 8.31768E-04
 -1      6858 4.03608E-06 2.87753E-08 7.21298E-15
 -1      6859 1.25002E-05-1.43876E-08-8.31768E-04
 -1      6860 9.20718E-07 3.10248E-11 6.38695E-05
 -1      6861 3.88198E-07-6.20435E-11-2.86576E-15
 -1      6862 9.20718E-07 3.10234E-11-6.38695E-05
 -1      6863 1.10424E-05 1.29105E-10 8.18343E-04
 -1      6864 6.48265E-06-2.58218E-10-3.44863E-15
 -1      6865 1.10424E-05 1.29107E-10-8.18343E-04
 -1      6866 7.95913E-07-5.94838E-09 4.81540E-05
 -1      6867 8.92224E-08 1.18968E-08 4.14946E-15
 -1      6868 7.95913E-07-5.94838E-09-4.81540E-05
 -1      6869 2.88363E-06-8.41736E-11 2.08557E-04
 -1      6870 1.51325E-06 1.68336E-10 2.63678E-16
 -1      6871 2.88363E-06-8.41737E-11-2.08557E-04
 -1      6872 1.61610E-06 1.44923E-11 1.15451E-04
 -1      6873 7.98078E-07-2.89797E-11 8.08381E-15
 -1      6874 1.61610E-06 1.44937E-11-1.15451E-04
 -1      6875 2.06690E-06-8.00786E-11 1.49427E-04
 -1      6876 1.08256E-06 1.60159E-10 5.35336E-15
 -1      6877 2.06690E-06-8.00780E-11-1.49427E-04
 -1      6878 4.43342E-06-3.42646E-11 3.27804E-04
 -1      6879 2.57644E-06 6.85294E-11 4.34722E-15
 -1      6880 4.43342E-06-3.42644E-11-3.27804E-04
 -1      6881 6.99331E-07 7.77341E-11 4.87238E-05
 -1      6882 3.02245E-07-1.55456E-10 1.75207E-16
 -1      6883 6.99331E-07 7.77338E-11-4.87238E-05
 -1      6884-2.03950E-07 9.62351E-09-4.92577E-06
 -1      6885 2.35905E-07-1.92470E-08 4.73233E-15
 -1      6886-2.03950E-07 9.62352E-09 4.92577E-06
 -1      6887 9.40703E-06-1.32638E-09 6.75926E-04
 -1      6888 4.78189E-06 2.65278E-09-4.66294E-15
 -1      6889 9.40703E-06-1.32638E-09-6.75926E-04
 -1      6890 1.45861E-06 4.01533E-09 9.72255E-05
 -1      6891 4.76859E-07-8.03064E-09 8.18790E-16
 -1      6892 1.45861E-06 4.01533E-09-9.72255E-05
 -1      6893 4.98817E-07-4.96966E-10 3.23229E-05
 -1      6894 1.30743E-07 9.93953E-10-4.44610E-15
 -1      6895 4.98817E-07-4.96967E-10-3.23229E-05
 -1      6896 1.10586E-05-4.18413E-11 8.19067E-04
 -1      6897 6.47555E-06 8.36767E-11-2.35922E-16
 -1      6898 1.10586E-05-4.18404E-11-8.19067E-04
 -1      6899 5.13482E-07-5.99773E-10 3.31840E-05
 -1      6900 1.31475E-07 1.19954E-09-2.74954E-15
 -1      6901 5.13482E-07-5.99772E-10-3.31840E-05
 -1      6902 6.94508E-07 4.05132E-10 4.43822E-05
 -1      6903 1.60348E-07-8.10277E-10-2.19963E-15
 -1      6904 6.94508E-07 4.05133E-10-4.43822E-05
 -1      6905 3.27015E-07 1.15212E-10 2.61713E-05
 -1      6906 2.59573E-07-2.30428E-10-2.26208E-15
 -1      6907 3.27015E-07 1.15212E-10-2.61713E-05
 -1      6908 1.15356E-06 8.94408E-12 8.08173E-05
 -1      6909 5.14150E-07-1.78930E-11 6.87644E-15
 -1      6910 1.15356E-06 8.94416E-12-8.08173E-05
 -1      6911 6.69354E-07-5.47643E-10 4.26910E-05
 -1      6912 1.51619E-07 1.09530E-09 6.10623E-16
 -1      6913 6.69354E-07-5.47645E-10-4.26910E-05
 -1      6914 5.66782E-07 1.42244E-10 4.03336E-05
 -1      6915 2.74447E-07-2.84498E-10-3.69323E-15
 -1      6916 5.66782E-07 1.42243E-10-4.03336E-05
 -1      6917 1.39385E-06-3.54040E-09 8.59283E-05
 -1      6918 2.12034E-07 7.08079E-09-6.07153E-17
 -1      6919 1.39385E-06-3.54040E-09-8.59283E-05
 -1      6920 8.75021E-07 3.04673E-11 6.04238E-05
 -1      6921 3.59305E-07-6.09488E-11 1.16226E-15
 -1      6922 8.75021E-07 3.04686E-11-6.04238E-05
 -1      6923 1.00711E-05-7.43124E-09 7.00799E-04
 -1      6924 4.32221E-06 1.48625E-08-2.35922E-15
 -1      6925 1.00711E-05-7.43124E-09-7.00799E-04
 -1      6926 1.11247E-05 4.59855E-11 8.23956E-04
 -1      6927 6.51408E-06-9.19573E-11 6.31440E-16
 -1      6928 1.11247E-05 4.59856E-11-8.23956E-04
 -1      6929 9.22577E-06 1.84597E-09 6.56628E-04
 -1      6930 4.47075E-06-3.69194E-09 1.49186E-15
 -1      6931 9.22577E-06 1.84598E-09-6.56628E-04
 -1      6932 6.22646E-06 1.98529E-09 4.54955E-04
 -1      6933 3.42908E-06-3.97058E-09 3.10516E-15
 -1      6934 6.22646E-06 1.98529E-09-4.54955E-04
 -1      6935 4.29748E-06 1.89963E-09 3.24857E-04
 -1      6936 2.74540E-06-3.79925E-09-2.42861E-15
 -1      6937 4.29748E-06 1.89963E-09-3.24857E-04
 -1      6938 3.02276E-06 8.33571E-10 2.38807E-04
 -1      6939 2.29092E-06-1.66715E-09 3.40353E-15
 -1      6940 3.02276E-06 8.33568E-10-2.38807E-04
 -1      6941 2.56548E-06 1.45128E-09 2.02048E-04
 -1      6942 1.92226E-06-2.90258E-09 5.59969E-15
 -1      6943 2.56548E-06 1.45128E-09-2.02048E-04
 -1      6944 2.16230E-06-5.34963E-10 1.71257E-04
 -1      6945 1.65374E-06 1.06994E-09 2.72699E-15
 -1      6946 2.16230E-06-5.34965E-10-1.71257E-04
 -1      6947 1.96112E-06-4.24100E-10 1.53312E-04
 -1      6948 1.42969E-06 8.48197E-10-1.32880E-15
 -1      6949 1.96112E-06-4.24098E-10-1.53312E-04
 -1      6950 1.74299E-06-6.37793E-11 1.35037E-04
 -1      6951 1.22800E-06 1.27575E-10 2.84842E-15
 -1      6952 1.74299E-06-6.37803E-11-1.35037E-04
 -1      6953 1.52425E-06 1.36298E-10 1.17405E-04
 -1      6954 1.04996E-06-2.72584E-10-2.60208E-16
 -1      6955 1.52425E-06 1.36300E-10-1.17405E-04
 -1      6956 1.33143E-06 1.59867E-10 1.01981E-04
 -1      6957 8.97155E-07-3.19741E-10-3.50761E-15
 -1      6958 1.33143E-06 1.59865E-10-1.01981E-04
 -1      6959 1.16051E-06 7.56182E-11 8.85361E-05
 -1      6960 7.69664E-07-1.51249E-10-3.12944E-15
 -1      6961 1.16051E-06 7.56197E-11-8.85361E-05
 -1      6962 1.01153E-06 2.09316E-12 7.69913E-05
 -1      6963 6.64615E-07-4.19378E-12-7.04298E-16
 -1      6964 1.01153E-06 2.09386E-12-7.69913E-05
 -1      6965 8.85489E-07 1.97007E-11 6.72438E-05
 -1      6966 5.76423E-07-3.93943E-11 4.67335E-15
 -1      6967 8.85489E-07 1.97029E-11-6.72438E-05
 -1      6968 7.76139E-07 6.67815E-11 5.88029E-05
 -1      6969 5.00464E-07-1.33577E-10 4.32987E-15
 -1      6970 7.76139E-07 6.67828E-11-5.88029E-05
 -1      6971 6.86576E-07 5.97569E-11 5.17776E-05
 -1      6972 4.34346E-07-1.19524E-10-2.34535E-15
 -1      6973 6.86576E-07 5.97558E-11-5.17776E-05
 -1      6974 6.28952E-07 1.84629E-11 4.68077E-05
 -1      6975 3.76102E-07-3.69171E-11 9.19404E-17
 -1      6976 6.28952E-07 1.84635E-11-4.68077E-05
 -1      6977 6.08387E-07-1.95196E-12 4.41283E-05
 -1      6978 3.23702E-07 3.89150E-12 1.70870E-15
 -1      6979 6.08387E-07-1.94971E-12-4.41283E-05
 -1      6980 5.97352E-07-1.87897E-11 4.21708E-05
 -1      6981 2.77440E-07 3.75931E-11 9.02056E-17
 -1      6982 5.97352E-07-1.87895E-11-4.21708E-05
 -1      6983 5.01928E-07-5.65258E-11 3.57112E-05
 -1      6984 2.42788E-07 1.13064E-10-2.83280E-15
 -1      6985 5.01928E-07-5.65264E-11-3.57112E-05
 -1      6986 3.71605E-07 1.29953E-10 2.74206E-05
 -1      6987 2.14012E-07-2.59886E-10-2.56566E-15
 -1      6988 3.71605E-07 1.29952E-10-2.74206E-05
 -1      6989 5.67613E-07 2.84965E-10 3.73141E-05
 -1      6990 1.67388E-07-5.69927E-10-5.91194E-15
 -1      6991 5.67613E-07 2.84967E-10-3.73141E-05
 -1      6992 7.64108E-07 3.30111E-10 4.70407E-05
 -1      6993 1.13965E-07-6.60213E-10-3.30465E-15
 -1      6994 7.64107E-07 3.30112E-10-4.70407E-05
 -1      6995-6.13095E-07 3.06469E-09-3.11531E-05
 -1      6996 1.38612E-07-6.12939E-09 6.57460E-16
 -1      6997-6.13095E-07 3.06469E-09 3.11531E-05
 -1      6998-2.33630E-06-9.42696E-09-1.24394E-04
 -1      6999 3.29945E-07 1.88539E-08-2.24126E-15
 -1      7000-2.33630E-06-9.42696E-09 1.24394E-04
 -1      7001 4.41726E-07 1.94981E-09 3.02962E-05
 -1      7002 1.74167E-07-3.89964E-09-4.72365E-15
 -1      7003 4.41726E-07 1.94981E-09-3.02962E-05
 -1      7004 9.88764E-07 3.44821E-11 6.84852E-05
 -1      7005 4.13237E-07-6.89518E-11-2.02269E-15
 -1      7006 9.88764E-07 3.44805E-11-6.84852E-05
 -1      7007 1.13939E-05-8.85773E-10 7.67830E-04
 -1      7008 4.01671E-06 1.77153E-09 4.50681E-15
 -1      7009 1.13939E-05-8.85774E-10-7.67830E-04
 -1      7010 6.79137E-07-2.69311E-10 4.31953E-05
 -1      7011 1.49656E-07 5.38637E-10 2.71137E-15
 -1      7012 6.79137E-07-2.69309E-10-4.31953E-05
 -1      7013 2.16887E-06-1.71281E-10 1.57634E-04
 -1      7014 1.16510E-06 3.42555E-10-6.34909E-16
 -1      7015 2.16887E-06-1.71279E-10-1.57634E-04
 -1      7016 1.06019E-05 1.96111E-08 7.46212E-04
 -1      7017 4.84585E-06-3.92221E-08-2.06779E-15
 -1      7018 1.06019E-05 1.96111E-08-7.46212E-04
 -1      7019 1.37439E-06-5.07680E-11 9.71719E-05
 -1      7020 6.43415E-07 1.01541E-10-3.22312E-15
 -1      7021 1.37439E-06-5.07688E-11-9.71719E-05
 -1      7022 4.85219E-09 8.28381E-10 7.90216E-06
 -1      7023 2.66121E-07-1.65675E-09-1.47625E-15
 -1      7024 4.85219E-09 8.28381E-10-7.90216E-06
 -1      7025 9.33770E-06-1.20224E-08 6.61232E-04
 -1      7026 4.40760E-06 2.40449E-08-9.71445E-16
 -1      7027 9.33770E-06-1.20224E-08-6.61232E-04
 -1      7028 3.48606E-06 1.18419E-10 2.51699E-04
 -1      7029 1.81444E-06-2.36838E-10-6.24499E-17
 -1      7030 3.48606E-06 1.18419E-10-2.51699E-04
 -1      7031 1.05209E-05 2.60599E-09 7.22458E-04
 -1      7032 4.17866E-06-5.21198E-09 9.85323E-16
 -1      7033 1.05209E-05 2.60599E-09-7.22458E-04
 -1      7034-1.30890E-06 3.90210E-09-6.53796E-05
 -1      7035 3.35335E-07-7.80415E-09 1.32359E-15
 -1      7036-1.30890E-06 3.90210E-09 6.53796E-05
 -1      7037 1.00505E-05 1.96342E-08 7.04663E-04
 -1      7038 4.49812E-06-3.92684E-08-3.52496E-15
 -1      7039 1.00505E-05 1.96342E-08-7.04663E-04
 -1      7040 3.26500E-06-1.65479E-08 2.43025E-04
 -1      7041 1.95373E-06 3.30958E-08 3.13985E-15
 -1      7042 3.26500E-06-1.65479E-08-2.43025E-04
 -1      7043 9.45269E-06-1.49179E-10 6.88335E-04
 -1      7044 5.12369E-06 2.98348E-10-2.67147E-15
 -1      7045 9.45269E-06-1.49178E-10-6.88335E-04
 -1      7046 1.11056E-06 2.52066E-11 7.73152E-05
 -1      7047 4.77883E-07-5.04145E-11-2.04350E-15
 -1      7048 1.11056E-06 2.52079E-11-7.73152E-05
 -1      7049 7.67420E-07 3.78337E-11 5.29920E-05
 -1      7050 3.15071E-07-7.56716E-11 1.48145E-15
 -1      7051 7.67420E-07 3.78326E-11-5.29920E-05
 -1      7052 2.59418E-06-2.74053E-10 1.88017E-04
 -1      7053 1.37512E-06 5.48113E-10-5.63785E-15
 -1      7054 2.59418E-06-2.74054E-10-1.88017E-04
 -1      7055 1.22624E-06 4.98494E-11 8.61215E-05
 -1      7056 5.53958E-07-9.97122E-11 4.69763E-15
 -1      7057 1.22624E-06 4.98496E-11-8.61215E-05
 -1      7058 4.90413E-07-6.16939E-10 3.20692E-05
 -1      7059 1.38694E-07 1.23386E-09-1.66013E-15
 -1      7060 4.90413E-07-6.16940E-10-3.20692E-05
 -1      7061 4.02033E-06 2.64802E-10 2.92653E-04
 -1      7062 2.17556E-06-5.29617E-10 5.96745E-16
 -1      7063 4.02033E-06 2.64800E-10-2.92653E-04
 -1      7064 7.79537E-07 4.34793E-08 2.40887E-04
 -1      7065 6.84928E-06-8.69585E-08-4.09395E-15
 -1      7066 7.79537E-07 4.34793E-08-2.40887E-04
 -1      7067 4.04652E-06-5.01441E-08 4.08210E-04
 -1      7068 6.15669E-06 1.00288E-07 1.35308E-15
 -1      7069 4.04652E-06-5.01441E-08-4.08210E-04
 -1      7070 1.71641E-06 1.20075E-11 1.23083E-04
 -1      7071 8.63900E-07-2.40103E-11 7.85483E-15
 -1      7072 1.71641E-06 1.20066E-11-1.23083E-04
 -1      7073 7.33614E-06 1.71096E-09 5.16390E-04
 -1      7074 3.35446E-06-3.42191E-09 1.72778E-15
 -1      7075 7.33614E-06 1.71096E-09-5.16390E-04
 -1      7076 9.01522E-06 2.22077E-10 6.69646E-04
 -1      7077 5.34620E-06-4.44156E-10-1.04639E-14
 -1      7078 9.01522E-06 2.22078E-10-6.69646E-04
 -1      7079-3.14990E-07 2.53876E-09-1.35907E-05
 -1      7080 1.55503E-07-5.07752E-09 1.87524E-15
 -1      7081-3.14990E-07 2.53876E-09 1.35907E-05
 -1      7082 4.73701E-07-5.59115E-10 3.11252E-05
 -1      7083 1.39161E-07 1.11824E-09 8.84709E-16
 -1      7084 4.73701E-07-5.59116E-10-3.11252E-05
 -1      7085 1.93983E-06-1.75612E-11 1.39816E-04
 -1      7086 1.00118E-06 3.51254E-11 7.42462E-16
 -1      7087 1.93983E-06-1.75612E-11-1.39816E-04
 -1      7088 8.79905E-06-2.82175E-09 6.57312E-04
 -1      7089 5.34792E-06 5.64351E-09 4.57967E-16
 -1      7090 8.79905E-06-2.82175E-09-6.57312E-04
 -1      7091-1.84620E-08-1.90782E-09 7.39544E-06
 -1      7092 2.95055E-07 3.81563E-09-3.11209E-15
 -1      7093-1.84620E-08-1.90782E-09-7.39544E-06
 -1      7094 7.80597E-06-3.24733E-10 5.65620E-04
 -1      7095 4.13329E-06 6.49463E-10 7.07073E-15
 -1      7096 7.80597E-06-3.24736E-10-5.65620E-04
 -1      7097 2.94522E-07 3.78578E-10 2.42050E-05
 -1      7098 2.55916E-07-7.57176E-10-1.08073E-15
 -1      7099 2.94522E-07 3.78579E-10-2.42050E-05
 -1      7100 8.22149E-07-2.78157E-10 5.27731E-05
 -1      7101 1.97987E-07 5.56298E-10 5.27356E-16
 -1      7102 8.22149E-07-2.78155E-10-5.27731E-05
 -1      7103 7.05738E-06 1.60990E-10 5.11148E-04
 -1      7104 3.72892E-06-3.21997E-10 5.54418E-15
 -1      7105 7.05738E-06 1.60989E-10-5.11148E-04
 -1      7106 1.84429E-06 8.60353E-11 1.32560E-04
 -1      7107 9.38962E-07-1.72084E-10 9.78384E-16
 -1      7108 1.84429E-06 8.60340E-11-1.32560E-04
 -1      7109 6.13339E-07-3.99161E-10 3.99394E-05
 -1      7110 1.67585E-07 7.98328E-10-2.05044E-15
 -1      7111 6.13339E-07-3.99161E-10-3.99394E-05
 -1      7112 5.32064E-07-1.03531E-09 3.47130E-05
 -1      7113 1.47685E-07 2.07065E-09-1.42421E-15
 -1      7114 5.32064E-07-1.03532E-09-3.47130E-05
 -1      7115 9.05645E-06 5.78615E-10 6.73737E-04
 -1      7116 5.40653E-06-1.15724E-09-5.24580E-15
 -1      7117 9.05645E-06 5.78614E-10-6.73737E-04
 -1      7118 7.22293E-06 3.05993E-10 5.07197E-04
 -1      7119 3.25996E-06-6.11985E-10-3.40006E-16
 -1      7120 7.22293E-06 3.05992E-10-5.07197E-04
 -1      7121 1.50652E-06 1.95597E-11 1.07680E-04
 -1      7122 7.45979E-07-3.91282E-11 4.36803E-15
 -1      7123 1.50652E-06 1.95585E-11-1.07680E-04
 -1      7124 5.81230E-06 3.46880E-09 4.06712E-04
 -1      7125 2.57335E-06-6.93760E-09-1.82493E-15
 -1      7126 5.81230E-06 3.46880E-09-4.06712E-04
 -1      7127 3.71385E-06-1.12122E-09 2.76791E-04
 -1      7128 2.23475E-06 2.24245E-09-7.75768E-15
 -1      7129 3.71385E-06-1.12122E-09-2.76791E-04
 -1      7130 3.52725E-06 3.54293E-09 2.56661E-04
 -1      7131 1.90528E-06-7.08587E-09 3.06699E-15
 -1      7132 3.52725E-06 3.54293E-09-2.56661E-04
 -1      7133 3.02300E-06-1.97798E-09 2.22036E-04
 -1      7134 1.70503E-06 3.95597E-09-4.35416E-15
 -1      7135 3.02300E-06-1.97798E-09-2.22036E-04
 -1      7136 2.92658E-06-1.14902E-09 2.10920E-04
 -1      7137 1.50985E-06 2.29803E-09-9.05526E-16
 -1      7138 2.92658E-06-1.14901E-09-2.10920E-04
 -1      7139 2.67553E-06-2.08031E-10 1.90513E-04
 -1      7140 1.29959E-06 4.16066E-10 2.72005E-15
 -1      7141 2.67553E-06-2.08032E-10-1.90513E-04
 -1      7142 2.33959E-06 1.61178E-10 1.65796E-04
 -1      7143 1.10860E-06-3.22355E-10-1.26288E-15
 -1      7144 2.33959E-06 1.61178E-10-1.65796E-04
 -1      7145 2.05188E-06 1.93725E-10 1.44605E-04
 -1      7146 9.44257E-07-3.87449E-10-1.79023E-15
 -1      7147 2.05188E-06 1.93724E-10-1.44605E-04
 -1      7148 1.82313E-06 2.36406E-11 1.27551E-04
 -1      7149 8.06450E-07-4.72759E-11-3.50761E-15
 -1      7150 1.82313E-06 2.36416E-11-1.27551E-04
 -1      7151 1.61331E-06-1.62088E-10 1.12321E-04
 -1      7152 6.94412E-07 3.24162E-10-6.97359E-16
 -1      7153 1.61331E-06-1.62087E-10-1.12321E-04
 -1      7154 1.41454E-06-1.21603E-10 9.82937E-05
 -1      7155 6.02279E-07 2.43187E-10 1.18655E-15
 -1      7156 1.41454E-06-1.21604E-10-9.82937E-05
 -1      7157 1.23342E-06 2.98895E-11 8.56656E-05
 -1      7158 5.23676E-07-5.97647E-11 8.21218E-15
 -1      7159 1.23342E-06 2.98866E-11-8.56656E-05
 -1      7160 1.08123E-06 4.54824E-11 7.50086E-05
 -1      7161 4.56029E-07-9.09710E-11 2.40953E-15
 -1      7162 1.08123E-06 4.54827E-11-7.50086E-05
 -1      7163 9.73127E-07-4.96084E-11 6.71292E-05
 -1      7164 3.97173E-07 9.92462E-11-3.37057E-15
 -1      7165 9.73127E-07-4.96092E-11-6.71292E-05
 -1      7166 9.24467E-07-1.39567E-10 6.27900E-05
 -1      7167 3.43022E-07 2.79140E-10 8.11851E-16
 -1      7168 9.24467E-07-1.39567E-10-6.27900E-05
 -1      7169 9.42151E-07-1.16206E-10 6.22701E-05
 -1      7170 2.89509E-07 2.32403E-10 1.46584E-15
 -1      7171 9.42151E-07-1.16206E-10-6.22701E-05
 -1      7172 9.54844E-07-2.54018E-11 6.15791E-05
 -1      7173 2.40009E-07 5.07974E-11 2.12157E-15
 -1      7174 9.54844E-07-2.54019E-11-6.15791E-05
 -1      7175 5.55122E-07 4.57898E-10 3.81477E-05
 -1      7176 2.21464E-07-9.15790E-10 2.51535E-15
 -1      7177 5.55122E-07 4.57898E-10-3.81477E-05
 -1      7178-5.78270E-08 4.04391E-11 3.30145E-06
 -1      7179 2.30873E-07-8.08822E-11 1.49186E-16
 -1      7180-5.78270E-08 4.04383E-11-3.30145E-06
 -1      7181 6.21501E-07-8.93568E-09 3.98480E-05
 -1      7182 1.48074E-07 1.78714E-08-6.24500E-16
 -1      7183 6.21501E-07-8.93568E-09-3.98480E-05
 -1      7184 5.50433E-07 1.52149E-09 3.71313E-05
 -1      7185 1.95364E-07-3.04298E-09-2.38524E-15
 -1      7186 5.50433E-07 1.52149E-09-3.71313E-05
 -1      7187 5.79193E-07-1.34497E-09 3.82926E-05
 -1      7188 1.78385E-07 2.68992E-09-1.23339E-15
 -1      7189 5.79193E-07-1.34496E-09-3.82926E-05
 -1      7190 9.45560E-07 8.19417E-11 6.50616E-05
 -1      7191 3.80132E-07-1.63877E-10 2.08514E-15
 -1      7192 9.45560E-07 8.19407E-11-6.50616E-05
 -1      7193 8.48469E-06-1.82503E-08 5.68498E-04
 -1      7194 2.87651E-06 3.65005E-08 5.28050E-15
 -1      7195 8.48469E-06-1.82503E-08-5.68498E-04
 -1      7196 7.76469E-07-2.23836E-10 4.97853E-05
 -1      7197 1.85045E-07 4.47658E-10-3.15026E-15
 -1      7198 7.76469E-07-2.23836E-10-4.97853E-05
 -1      7199 1.99648E-06-3.24454E-11 1.45204E-04
 -1      7200 1.07597E-06 6.48811E-11 4.12517E-15
 -1      7201 1.99648E-06-3.24456E-11-1.45204E-04
 -1      7202 9.15836E-06 2.99201E-12 6.80029E-04
 -1      7203 5.42236E-06-5.99072E-12-2.01922E-15
 -1      7204 9.15836E-06 2.99513E-12-6.80029E-04
 -1      7205 6.73537E-07 4.93554E-08 1.40953E-04
 -1      7206 3.57308E-06-9.87107E-08-1.05888E-14
 -1      7207 6.73537E-07 4.93554E-08-1.40953E-04
 -1      7208 1.91491E-06-1.70497E-08 2.45230E-04
 -1      7209 4.73046E-06 3.40995E-08 2.59515E-15
 -1      7210 1.91491E-06-1.70497E-08-2.45230E-04
 -1      7211 4.69148E-06-1.57200E-08 3.94687E-04
 -1      7212 4.39495E-06 3.14400E-08-2.64372E-15
 -1      7213 4.69148E-06-1.57200E-08-3.94687E-04
 -1      7214 9.30289E-06 9.83136E-09 6.11027E-04
 -1      7215 2.72481E-06-1.96627E-08 2.20310E-15
 -1      7216 9.30289E-06 9.83136E-09-6.11027E-04
 -1      7217 3.40631E-07 8.08285E-10 2.63779E-05
 -1      7218 2.39555E-07-1.61660E-09-2.09902E-16
 -1      7219 3.40631E-07 8.08284E-10-2.63779E-05
 -1      7220 3.78958E-07-9.60795E-10 2.55575E-05
 -1      7221 1.34280E-07 1.92160E-09 3.97252E-16
 -1      7222 3.78958E-07-9.60794E-10-2.55575E-05
 -1      7223 7.32153E-06 6.22434E-10 5.46378E-04
 -1      7224 4.43040E-06-1.24489E-09-4.17721E-15
 -1      7225 7.32153E-06 6.22433E-10-5.46378E-04
 -1      7226 3.40757E-06-8.48954E-11 2.42740E-04
 -1      7227 1.65872E-06 1.69798E-10-1.07553E-16
 -1      7228 3.40757E-06-8.48960E-11-2.42740E-04
 -1      7229 1.06196E-06 6.72897E-11 7.35105E-05
 -1      7230 4.42271E-07-1.34607E-10 3.88578E-16
 -1      7231 1.06196E-06 6.72880E-11-7.35105E-05
 -1      7232 6.58792E-07 1.77431E-10 4.58061E-05
 -1      7233 2.81470E-07-3.54864E-10 3.68976E-15
 -1      7234 6.58792E-07 1.77431E-10-4.58061E-05
 -1      7235 4.75470E-07 3.30050E-10 3.47339E-05
 -1      7236 2.61585E-07-6.60094E-10 9.14199E-16
 -1      7237 4.75470E-07 3.30051E-10-3.47339E-05
 -1      7238 1.63364E-06 1.72546E-11 1.16902E-04
 -1      7239 8.13649E-07-3.45177E-11 4.41314E-15
 -1      7240 1.63364E-06 1.72534E-11-1.16902E-04
 -1      7241 2.22145E-06-4.40587E-10 1.62749E-04
 -1      7242 1.23851E-06 8.81171E-10 1.77983E-15
 -1      7243 2.22145E-06-4.40587E-10-1.62749E-04
 -1      7244 1.32097E-06 3.48371E-11 9.29268E-05
 -1      7245 6.02053E-07-6.96475E-11-1.09635E-15
 -1      7246 1.32097E-06 3.48371E-11-9.29268E-05
 -1      7247 1.41674E-06-1.00369E-10 1.01274E-04
 -1      7248 7.01909E-07 2.00737E-10 2.96638E-15
 -1      7249 1.41674E-06-1.00368E-10-1.01274E-04
 -1      7250 3.73705E-07 8.37936E-10 2.25722E-05
 -1      7251 4.05823E-08-1.67586E-09 1.34788E-15
 -1      7252 3.73705E-07 8.37937E-10-2.25722E-05
 -1      7253 8.13343E-07-4.26195E-11 5.60168E-05
 -1      7254 3.28817E-07 8.52411E-11-6.07153E-16
 -1      7255 8.13343E-07-4.26191E-11-5.60168E-05
 -1      7256 5.65022E-06 4.98212E-10 3.97510E-04
 -1      7257 2.57630E-06-9.96421E-10-7.63277E-17
 -1      7258 5.65022E-06 4.98212E-10-3.97510E-04
 -1      7259 2.00799E-05 1.90758E-08 1.30759E-03
 -1      7260 5.48743E-06-3.81516E-08 1.31839E-15
 -1      7261 2.00799E-05 1.90758E-08-1.30759E-03
 -1      7262 3.66063E-06-2.16476E-09 4.50450E-04
 -1      7263 8.40273E-06 4.32952E-09 8.02136E-15
 -1      7264 3.66063E-06-2.16476E-09-4.50450E-04
 -1      7265 4.91376E-06 6.73158E-09 3.48521E-04
 -1      7266 2.33903E-06-1.34631E-08 3.12252E-17
 -1      7267 4.91376E-06 6.73158E-09-3.48521E-04
 -1      7268 7.29188E-06 1.23932E-10 5.49239E-04
 -1      7269 4.58954E-06-2.47890E-10 2.16494E-15
 -1      7270 7.29188E-06 1.23934E-10-5.49239E-04
 -1      7271 7.52002E-06-4.20902E-10 5.61435E-04
 -1      7272 4.55904E-06 8.41818E-10-4.98906E-15
 -1      7273 7.52002E-06-4.20902E-10-5.61435E-04
 -1      7274 4.38405E-06 4.42411E-10 3.09729E-04
 -1      7275 2.04428E-06-8.84838E-10 1.90820E-15
 -1      7276 4.38405E-06 4.42411E-10-3.09729E-04
 -1      7277 2.90805E-07-1.09481E-11 2.07623E-05
 -1      7278 1.43185E-07 2.18804E-11 6.07153E-17
 -1      7279 2.90805E-07-1.09499E-11-2.07623E-05
 -1      7280 5.42289E-06-5.67087E-09 4.07080E-04
 -1      7281 3.36492E-06 1.13417E-08 1.47105E-15
 -1      7282 5.42289E-06-5.67087E-09-4.07080E-04
 -1      7283 7.48253E-08 1.64372E-09 1.15090E-05
 -1      7284 2.52091E-07-3.28741E-09-1.29584E-15
 -1      7285 7.48253E-08 1.64372E-09-1.15090E-05
 -1      7286 8.58007E-07-2.04240E-10 5.52074E-05
 -1      7287 2.11250E-07 4.08473E-10-1.31145E-15
 -1      7288 8.58007E-07-2.04239E-10-5.52074E-05
 -1      7289 5.23586E-07-4.54449E-09 4.17032E-05
 -1      7290 4.08629E-07 9.08898E-09-2.35922E-15
 -1      7291 5.23586E-07-4.54449E-09-4.17032E-05
 -1      7292 1.16505E-06 2.13343E-11 8.15195E-05
 -1      7293 5.15686E-07-4.26875E-11 4.44089E-16
 -1      7294 1.16505E-06 2.13325E-11-8.15195E-05
 -1      7295 4.20839E-07-2.15243E-09 2.83279E-05
 -1      7296 1.47231E-07 4.30487E-09-1.21778E-15
 -1      7297 4.20839E-07-2.15243E-09-2.83279E-05
 -1      7298 2.92541E-07-4.10998E-10 2.24861E-05
 -1      7299 1.99881E-07 8.22002E-10 3.98987E-17
 -1      7300 2.92541E-07-4.10999E-10-2.24861E-05
 -1      7301 7.54762E-06 4.62956E-09 5.60811E-04
 -1      7302 4.48206E-06-9.25913E-09-1.83881E-15
 -1      7303 7.54762E-06 4.62956E-09-5.60811E-04
 -1      7304 2.66504E-07-1.03112E-09 1.88942E-05
 -1      7305 1.26569E-07 2.06222E-09-2.94903E-15
 -1      7306 2.66504E-07-1.03112E-09-1.88942E-05
 -1      7307 7.48314E-07-6.30914E-10 4.81666E-05
 -1      7308 1.84846E-07 1.26185E-09-1.43982E-15
 -1      7309 7.48314E-07-6.30914E-10-4.81666E-05
 -1      7310 2.76157E-07 8.77495E-10 2.14673E-05
 -1      7311 1.97081E-07-1.75501E-09 5.74193E-16
 -1      7312 2.76157E-07 8.77497E-10-2.14673E-05
 -1      7313 6.02743E-06-8.84871E-09 3.99762E-04
 -1      7314 1.90061E-06 1.76974E-08-7.12624E-15
 -1      7315 6.02743E-06-8.84871E-09-3.99762E-04
 -1      7316 4.35069E-06 8.46548E-09 2.99898E-04
 -1      7317 1.76783E-06-1.69310E-08 2.07820E-15
 -1      7318 4.35069E-06 8.46548E-09-2.99898E-04
 -1      7319 3.56097E-06-4.33677E-09 2.57552E-04
 -1      7320 1.86895E-06 8.67355E-09 8.63892E-16
 -1      7321 3.56097E-06-4.33677E-09-2.57552E-04
 -1      7322 3.24270E-06-1.03184E-09 2.32861E-04
 -1      7323 1.64355E-06 2.06370E-09 1.85962E-15
 -1      7324 3.24270E-06-1.03184E-09-2.32861E-04
 -1      7325 4.00116E-06 4.45497E-11 2.69557E-04
 -1      7326 1.40773E-06-8.90859E-11-5.25274E-15
 -1      7327 4.00116E-06 4.45487E-11-2.69557E-04
 -1      7328 3.39233E-06 3.75829E-10 2.28126E-04
 -1      7329 1.17907E-06-7.51656E-10 9.27730E-15
 -1      7330 3.39233E-06 3.75828E-10-2.28126E-04
 -1      7331 2.88306E-06 3.88017E-10 1.93837E-04
 -1      7332 1.00061E-06-7.76040E-10-5.89806E-16
 -1      7333 2.88306E-06 3.88016E-10-1.93837E-04
 -1      7334 2.57914E-06 1.07774E-10 1.72190E-04
 -1      7335 8.52766E-07-2.15547E-10-2.44943E-15
 -1      7336 2.57914E-06 1.07771E-10-1.72190E-04
 -1      7337 2.35892E-06-4.13926E-10 1.56084E-04
 -1      7338 7.30947E-07 8.27837E-10 3.78170E-15
 -1      7339 2.35892E-06-4.13925E-10-1.56084E-04
 -1      7340 2.08222E-06-4.12173E-10 1.37395E-04
 -1      7341 6.31955E-07 8.24347E-10 1.21431E-16
 -1      7342 2.08222E-06-4.12172E-10-1.37395E-04
 -1      7343 1.78818E-06 2.40189E-11 1.18147E-04
 -1      7344 5.48098E-07-4.80014E-11-1.98452E-15
 -1      7345 1.78818E-06 2.40179E-11-1.18147E-04
 -1      7346 1.54187E-06 1.31138E-10 1.02036E-04
 -1      7347 4.78263E-07-2.62281E-10-5.31172E-15
 -1      7348 1.54187E-06 1.31137E-10-1.02036E-04
 -1      7349 1.36000E-06-2.71946E-11 8.99814E-05
 -1      7350 4.21204E-07 5.43928E-11-5.77489E-15
 -1      7351 1.36000E-06-2.71920E-11-8.99814E-05
 -1      7352 1.25190E-06-2.16011E-10 8.23357E-05
 -1      7353 3.70499E-07 4.32017E-10 1.07379E-15
 -1      7354 1.25190E-06-2.16012E-10-8.23357E-05
 -1      7355 1.23199E-06-4.97322E-10 7.96818E-05
 -1      7356 3.17669E-07 9.94639E-10 2.88658E-15
 -1      7357 1.23199E-06-4.97320E-10-7.96818E-05
 -1      7358 1.36833E-06-5.74195E-10 8.55924E-05
 -1      7359 2.51353E-07 1.14838E-09-1.07726E-15
 -1      7360 1.36833E-06-5.74198E-10-8.55924E-05
 -1      7361 1.30434E-06-3.71719E-10 7.99281E-05
 -1      7362 1.81594E-07 7.43434E-10-3.10169E-15
 -1      7363 1.30434E-06-3.71719E-10-7.99281E-05
 -1      7364-4.28314E-07-3.32139E-09-1.84427E-05
 -1      7365 2.12761E-07 6.64279E-09 3.11383E-15
 -1      7366-4.28314E-07-3.32139E-09 1.84427E-05
 -1      7367 4.27516E-06-1.09422E-09 3.26441E-04
 -1      7368 2.84533E-06 2.18842E-09-6.40460E-15
 -1      7369 4.27516E-06-1.09421E-09-3.26441E-04
 -1      7370 8.20031E-06-1.49266E-09 5.63494E-04
 -1      7371 3.27054E-06 2.98534E-09-1.20043E-15
 -1      7372 8.20031E-06-1.49266E-09-5.63494E-04
 -1      7373 1.98764E-06 2.48225E-10 1.43322E-04
 -1      7374 1.02795E-06-4.96439E-10-2.43555E-15
 -1      7375 1.98764E-06 2.48225E-10-1.43322E-04
 -1      7376 1.33877E-05-2.73454E-08 9.45416E-04
 -1      7377 6.22824E-06 5.46908E-08 4.82947E-15
 -1      7378 1.33877E-05-2.73454E-08-9.45416E-04
 -1      7379 1.52670E-06 8.17080E-09 9.37458E-05
 -1      7380 2.19241E-07-1.63416E-08-5.19376E-15
 -1      7381 1.52670E-06 8.17080E-09-9.37458E-05
 -1      7382 5.93536E-06 4.29020E-09 4.45969E-04
 -1      7383 3.69754E-06-8.58043E-09-2.98372E-16
 -1      7384 5.93536E-06 4.29021E-09-4.45969E-04
 -1      7385 1.05893E-05-2.28944E-08 7.22850E-04
 -1      7386 4.05563E-06 4.57889E-08-5.02376E-15
 -1      7387 1.05893E-05-2.28944E-08-7.22850E-04
 -1      7388 4.79543E-07 8.10228E-10 3.34057E-05
 -1      7389 2.07079E-07-1.62046E-09 1.85268E-15
 -1      7390 4.79543E-07 8.10227E-10-3.34057E-05
 -1      7391 2.98233E-06-5.07619E-10 2.13050E-04
 -1      7392 1.47273E-06 1.01524E-09 2.17534E-15
 -1      7393 2.98233E-06-5.07619E-10-2.13050E-04
 -1      7394 1.11838E-06-7.51353E-11 7.07524E-05
 -1      7395 2.33182E-07 1.50239E-10 2.17881E-15
 -1      7396 1.11838E-06-7.51352E-11-7.07524E-05
 -1      7397 1.05080E-06 2.15542E-10 7.17829E-05
 -1      7398 4.04298E-07-4.31083E-10 3.43475E-16
 -1      7399 1.05080E-06 2.15543E-10-7.17829E-05
 -1      7400 7.17632E-07 4.65701E-12 4.93199E-05
 -1      7401 2.86458E-07-9.31638E-12-8.20524E-16
 -1      7402 7.17632E-07 4.65798E-12-4.93199E-05
 -1      7403 2.00568E-06-5.23648E-11 1.47717E-04
 -1      7404 1.14530E-06 1.04706E-10 2.01575E-15
 -1      7405 2.00568E-06-5.23649E-11-1.47717E-04
 -1      7406 1.40631E-06-9.55054E-11 9.95838E-05
 -1      7407 6.63768E-07 1.91005E-10-4.37150E-16
 -1      7408 1.40631E-06-9.55061E-11-9.95838E-05
 -1      7409 4.93107E-07 7.47012E-10 3.52016E-05
 -1      7410 2.42642E-07-1.49403E-09-1.21431E-15
 -1      7411 4.93107E-07 7.47011E-10-3.52016E-05
 -1      7412 1.82683E-06 3.24375E-11 1.30424E-04
 -1      7413 8.99336E-07-6.48562E-11 2.43208E-15
 -1      7414 1.82683E-06 3.24381E-11-1.30424E-04
 -1      7415 8.51477E-07 5.74223E-11 5.86603E-05
 -1      7416 3.44834E-07-1.14837E-10 5.07927E-15
 -1      7417 8.51477E-07 5.74215E-11-5.86603E-05
 -1      7418 1.23296E-06 2.91531E-11 8.67929E-05
 -1      7419 5.63951E-07-5.83050E-11 4.67335E-15
 -1      7420 1.23296E-06 2.91509E-11-8.67929E-05
 -1      7421-2.28492E-08 2.13779E-09 1.65081E-06
 -1      7422 1.03313E-07-4.27559E-09-7.44196E-16
 -1      7423-2.28492E-08 2.13779E-09-1.65081E-06
 -1      7424 5.93192E-06-1.77731E-09 4.53086E-04
 -1      7425 3.95287E-06 3.55464E-09-2.26902E-15
 -1      7426 5.93192E-06-1.77731E-09-4.53086E-04
 -1      7427 8.71085E-06 8.53836E-09 5.81281E-04
 -1      7428 2.87048E-06-1.70767E-08 1.82146E-15
 -1      7429 8.71085E-06 8.53836E-09-5.81281E-04
 -1      7430 2.93787E-06-3.57927E-09 2.12040E-04
 -1      7431 1.52636E-06 7.15856E-09 1.91167E-15
 -1      7432 2.93787E-06-3.57927E-09-2.12040E-04
 -1      7433 7.51644E-07-2.01459E-10 4.87373E-05
 -1      7434 1.98106E-07 4.02926E-10 7.07767E-15
 -1      7435 7.51644E-07-2.01458E-10-4.87373E-05
 -1      7436 1.74635E-07 1.11136E-09 1.40194E-05
 -1      7437 1.40129E-07-2.22272E-09-4.36977E-15
 -1      7438 1.74635E-07 1.11137E-09-1.40194E-05
 -1      7439 2.98502E-06-8.38008E-09 1.79592E-04
 -1      7440 2.99483E-07 1.67602E-08-2.42341E-15
 -1      7441 2.98502E-06-8.38008E-09-1.79592E-04
 -1      7442 1.07743E-06 3.21297E-11 7.54668E-05
 -1      7443 4.79618E-07-6.42797E-11 9.07954E-15
 -1      7444 1.07743E-06 3.21310E-11-7.54668E-05
 -1      7445 1.51327E-06-1.22651E-10 1.08940E-04
 -1      7446 7.76433E-07 2.45285E-10-2.03310E-15
 -1      7447 1.51327E-06-1.22651E-10-1.08940E-04
 -1      7448 6.58889E-07 1.06782E-09 4.40664E-05
 -1      7449 2.20554E-07-2.13565E-09 2.95944E-15
 -1      7450 6.58889E-07 1.06781E-09-4.40664E-05
 -1      7451 1.19148E-06 1.36419E-09 7.59981E-05
 -1      7452 2.70111E-07-2.72835E-09-2.19443E-15
 -1      7453 1.19148E-06 1.36419E-09-7.59981E-05
 -1      7454 2.16340E-07-3.92087E-10 1.67330E-05
 -1      7455 1.51450E-07 7.84172E-10-9.88792E-17
 -1      7456 2.16340E-07-3.92086E-10-1.67330E-05
 -1      7457 6.19290E-07 4.56105E-10 4.28244E-05
 -1      7458 2.56387E-07-9.12198E-10-1.66707E-15
 -1      7459 6.19290E-07 4.56105E-10-4.28244E-05
 -1      7460 1.25627E-06-1.64380E-09 7.90456E-05
 -1      7461 2.46923E-07 3.28761E-09 1.32706E-15
 -1      7462 1.25627E-06-1.64380E-09-7.90456E-05
 -1      7463 2.02781E-06-9.02409E-09 1.52060E-04
 -1      7464 1.25264E-06 1.80482E-08-4.13211E-15
 -1      7465 2.02781E-06-9.02409E-09-1.52060E-04
 -1      7466 8.25220E-06 2.46380E-10 5.31843E-04
 -1      7467 2.06199E-06-4.92745E-10 9.64853E-15
 -1      7468 8.25220E-06 2.46381E-10-5.31843E-04
 -1      7469 4.38875E-06 7.38672E-10 2.95783E-04
 -1      7470 1.54808E-06-1.47733E-09-2.78944E-15
 -1      7471 4.38875E-06 7.38672E-10-2.95783E-04
 -1      7472 4.50264E-06 5.52165E-10 2.94115E-04
 -1      7473 1.26213E-06-1.10432E-09 4.89886E-15
 -1      7474 4.50264E-06 5.52164E-10-2.94115E-04
 -1      7475 3.59473E-06 4.54367E-10 2.36370E-04
 -1      7476 1.06208E-06-9.08750E-10 6.41848E-15
 -1      7477 3.59473E-06 4.54368E-10-2.36370E-04
 -1      7478 3.00762E-06 9.20284E-10 1.98774E-04
 -1      7479 9.23819E-07-1.84057E-09 1.38431E-15
 -1      7480 3.00762E-06 9.20282E-10-1.98774E-04
 -1      7481 3.00486E-06-4.82702E-10 1.94963E-04
 -1      7482 7.96340E-07 9.65399E-10-3.95517E-16
 -1      7483 3.00486E-06-4.82702E-10-1.94963E-04
 -1      7484 2.82354E-06-1.18708E-09 1.81255E-04
 -1      7485 6.80454E-07 2.37415E-09-6.27970E-16
 -1      7486 2.82354E-06-1.18708E-09-1.81255E-04
 -1      7487 2.30081E-06 6.13404E-11 1.48415E-04
 -1      7488 5.79466E-07-1.22673E-10 2.15800E-15
 -1      7489 2.30081E-06 6.13395E-11-1.48415E-04
 -1      7490 1.89690E-06 3.99054E-10 1.23046E-04
 -1      7491 5.01692E-07-7.98116E-10 8.97546E-15
 -1      7492 1.89690E-06 3.99053E-10-1.23046E-04
 -1      7493 1.63678E-06 1.08280E-10 1.06631E-04
 -1      7494 4.48850E-07-2.16582E-10-8.84709E-16
 -1      7495 1.63678E-06 1.08281E-10-1.06631E-04
 -1      7496 1.47508E-06-6.30755E-12 9.61813E-05
 -1      7497 4.07480E-07 1.26132E-11-2.27943E-15
 -1      7498 1.47508E-06-6.30756E-12-9.61813E-05
 -1      7499 1.38773E-06-3.37628E-10 9.00188E-05
 -1      7500 3.67046E-07 6.75261E-10 3.66721E-15
 -1      7501 1.38773E-06-3.37628E-10-9.00188E-05
 -1      7502 1.35001E-06-1.95840E-09 8.64435E-05
 -1      7503 3.17690E-07 3.91682E-09-3.71578E-15
 -1      7504 1.35001E-06-1.95840E-09-8.64435E-05
 -1      7505 2.08484E-06-6.54595E-09 1.25525E-04
 -1      7506 2.12388E-07 1.30919E-08-2.43729E-15
 -1      7507 2.08484E-06-6.54596E-09-1.25525E-04
 -1      7508 7.16814E-07-3.86350E-09 4.30369E-05
 -1      7509 6.87849E-08 7.72702E-09-2.52923E-15
 -1      7510 7.16814E-07-3.86351E-09-4.30369E-05
 -1      7511 3.09560E-07-2.62675E-08 1.02872E-04
 -1      7512 2.97171E-06 5.25350E-08 1.70350E-15
 -1      7513 3.09560E-07-2.62675E-08-1.02872E-04
 -1      7514 4.43587E-06 2.46896E-08 3.29800E-04
 -1      7515 2.64120E-06-4.93792E-08-6.15480E-15
 -1      7516 4.43587E-06 2.46896E-08-3.29800E-04
 -1      7517 6.28101E-06 1.63198E-09 4.27929E-04
 -1      7518 2.37668E-06-3.26394E-09-3.67414E-15
 -1      7519 6.28101E-06 1.63198E-09-4.27929E-04
 -1      7520 6.10870E-06-1.45565E-09 4.59980E-04
 -1      7521 3.83997E-06 2.91131E-09-1.24900E-16
 -1      7522 6.10870E-06-1.45565E-09-4.59980E-04
 -1      7523 2.90170E-07-5.07229E-09 2.02026E-05
 -1      7524 1.24916E-07 1.01446E-08-7.07767E-16
 -1      7525 2.90170E-07-5.07229E-09-2.02026E-05
 -1      7526 1.13864E-06 6.42193E-11 7.79011E-05
 -1      7527 4.42195E-07-1.28453E-10 4.81559E-15
 -1      7528 1.13864E-06 6.42190E-11-7.79011E-05
 -1      7529 4.21267E-06 2.79471E-11 2.93558E-04
 -1      7530 1.82255E-06-5.58933E-11-2.02963E-15
 -1      7531 4.21267E-06 2.79490E-11-2.93558E-04
 -1      7532 2.12224E-06-1.26365E-09 1.58029E-04
 -1      7533 1.27213E-06 2.52731E-09 3.32720E-15
 -1      7534 2.12224E-06-1.26365E-09-1.58029E-04
 -1      7535 1.12380E-06 9.63187E-09 7.20714E-05
 -1      7536 2.68388E-07-1.92637E-08-1.82146E-15
 -1      7537 1.12380E-06 9.63187E-09-7.20714E-05
 -1      7538 6.84443E-06 2.22943E-08 4.95560E-04
 -1      7539 3.61065E-06-4.45885E-08 3.63598E-15
 -1      7540 6.84443E-06 2.22943E-08-4.95560E-04
 -1      7541 1.44567E-06-4.80262E-10 1.04216E-04
 -1      7542 7.46760E-07 9.60522E-10 3.50414E-16
 -1      7543 1.44567E-06-4.80262E-10-1.04216E-04
 -1      7544 6.12850E-07 1.81625E-09 3.97188E-05
 -1      7545 1.60864E-07-3.63249E-09-1.54564E-15
 -1      7546 6.12850E-07 1.81625E-09-3.97188E-05
 -1      7547 2.31319E-06-2.93758E-11 1.65706E-04
 -1      7548 1.15828E-06 5.87436E-11-1.74513E-15
 -1      7549 2.31319E-06-2.93765E-11-1.65706E-04
 -1      7550 7.04978E-07-2.86144E-10 4.88582E-05
 -1      7551 2.95645E-07 5.72295E-10 3.95343E-15
 -1      7552 7.04978E-07-2.86145E-10-4.88582E-05
 -1      7553 1.29667E-06-4.07432E-11 9.23895E-05
 -1      7554 6.31903E-07 8.14904E-11-2.56045E-15
 -1      7555 1.29667E-06-4.07416E-11-9.23895E-05
 -1      7556 2.29283E-06 3.42415E-10 1.60655E-04
 -1      7557 1.02268E-06-6.84844E-10 9.02056E-16
 -1      7558 2.29283E-06 3.42415E-10-1.60655E-04
 -1      7559-6.61096E-07 8.18229E-09-3.14677E-05
 -1      7560 2.23619E-07-1.63646E-08 1.02869E-15
 -1      7561-6.61096E-07 8.18229E-09 3.14677E-05
 -1      7562 8.33878E-06-2.16297E-08 5.84652E-04
 -1      7563 3.73215E-06 4.32593E-08-5.20417E-15
 -1      7564 8.33878E-06-2.16296E-08-5.84652E-04
 -1      7565 5.80550E-06-9.64098E-10 4.46312E-04
 -1      7566 3.96921E-06 1.92820E-09-9.25648E-15
 -1      7567 5.80550E-06-9.64096E-10-4.46312E-04
 -1      7568 4.74385E-06-8.53957E-09 3.50276E-04
 -1      7569 2.74007E-06 1.70791E-08 4.40967E-15
 -1      7570 4.74385E-06-8.53957E-09-3.50276E-04
 -1      7571 5.24953E-07 2.83474E-08 1.31067E-04
 -1      7572 3.52512E-06-5.66947E-08-2.71311E-15
 -1      7573 5.24953E-07 2.83474E-08-1.31067E-04
 -1      7574 9.65146E-07 5.01068E-10 6.55382E-05
 -1      7575 3.57601E-07-1.00214E-09 6.10623E-16
 -1      7576 9.65146E-07 5.01067E-10-6.55382E-05
 -1      7577 8.89492E-07-6.31620E-09 5.52761E-05
 -1      7578 1.50690E-07 1.26324E-08 1.09288E-15
 -1      7579 8.89492E-07-6.31620E-09-5.52761E-05
 -1      7580 1.16677E-05 5.88215E-09 7.37918E-04
 -1      7581 2.42501E-06-1.17643E-08-1.38776E-17
 -1      7582 1.16677E-05 5.88215E-09-7.37918E-04
 -1      7583 1.31363E-06-1.57029E-09 8.14178E-05
 -1      7584 2.15012E-07 3.14060E-09 4.00721E-15
 -1      7585 1.31363E-06-1.57029E-09-8.14178E-05
 -1      7586 2.54718E-06 1.38789E-08 1.56825E-04
 -1      7587 3.80346E-07-2.77577E-08-7.66401E-15
 -1      7588 2.54718E-06 1.38789E-08-1.56825E-04
 -1      7589 6.30766E-07-1.17921E-10 4.33910E-05
 -1      7590 2.53214E-07 2.35846E-10-2.58127E-15
 -1      7591 6.30766E-07-1.17919E-10-4.33910E-05
 -1      7592 3.10214E-06-1.25119E-08 1.89041E-04
 -1      7593 3.95106E-07 2.50239E-08 3.93782E-15
 -1      7594 3.10214E-06-1.25119E-08-1.89041E-04
 -1      7595 4.35491E-06-1.24885E-08 3.47616E-04
 -1      7596 3.42498E-06 2.49769E-08 1.26288E-15
 -1      7597 4.35491E-06-1.24885E-08-3.47616E-04
 -1      7598 1.25301E-06-4.45488E-09 7.96980E-05
 -1      7599 2.76214E-07 8.90976E-09 3.50761E-15
 -1      7600 1.25301E-06-4.45488E-09-7.96980E-05
 -1      7601 1.70651E-06-6.32746E-11 1.22852E-04
 -1      7602 8.75630E-07 1.26554E-10 1.17267E-15
 -1      7603 1.70651E-06-6.32738E-11-1.22852E-04
 -1      7604 1.19894E-06-3.49195E-10 7.62470E-05
 -1      7605 2.63873E-07 6.98394E-10 1.76595E-15
 -1      7606 1.19894E-06-3.49194E-10-7.62470E-05
 -1      7607 7.14485E-06 3.14243E-09 4.58685E-04
 -1      7608 1.72279E-06-6.28486E-09-6.99787E-15
 -1      7609 7.14485E-06 3.14243E-09-4.58685E-04
 -1      7610 6.88510E-07 4.16298E-09 4.12219E-05
 -1      7611 6.20321E-08-8.32595E-09-9.14199E-16
 -1      7612 6.88510E-07 4.16298E-09-4.12219E-05
 -1      7613 4.24284E-06 4.47398E-08 2.89136E-04
 -1      7614 1.60788E-06-8.94795E-08-2.52576E-15
 -1      7615 4.24284E-06 4.47398E-08-2.89136E-04
 -1      7616 5.11235E-06-2.45725E-10 3.30061E-04
 -1      7617 1.29756E-06 4.91450E-10-2.75474E-15
 -1      7618 5.11235E-06-2.45724E-10-3.30061E-04
 -1      7619 3.94900E-06-6.53545E-10 2.57706E-04
 -1      7620 1.09836E-06 1.30710E-09-2.24473E-15
 -1      7621 3.94900E-06-6.53545E-10-2.57706E-04
 -1      7622 3.04383E-06 5.45756E-10 2.02450E-04
 -1      7623 9.79751E-07-1.09150E-09 7.35870E-15
 -1      7624 3.04383E-06 5.45756E-10-2.02450E-04
 -1      7625 2.37189E-06 4.13464E-09 1.63598E-04
 -1      7626 9.67280E-07-8.26929E-09-7.80279E-15
 -1      7627 2.37189E-06 4.13465E-09-1.63598E-04
 -1      7628 4.20643E-06-4.50699E-09 2.63895E-04
 -1      7629 7.99618E-07 9.01400E-09 2.75821E-15
 -1      7630 4.20643E-06-4.50700E-09-2.63895E-04
 -1      7631 2.80763E-06 8.90607E-11 1.78720E-04
 -1      7632 6.23798E-07-1.78113E-10 1.40513E-15
 -1      7633 2.80763E-06 8.90611E-11-1.78720E-04
 -1      7634 1.95146E-06 1.03227E-09 1.26650E-04
 -1      7635 5.18386E-07-2.06453E-09 1.30451E-15
 -1      7636 1.95146E-06 1.03227E-09-1.26650E-04
 -1      7637 1.65462E-06 7.16094E-11 1.08436E-04
 -1      7638 4.76207E-07-1.43193E-10 4.06966E-15
 -1      7639 1.65462E-06 7.16096E-11-1.08436E-04
 -1      7640 1.48981E-06 2.72396E-10 9.83291E-05
 -1      7641 4.52988E-07-5.44795E-10-3.74700E-16
 -1      7642 1.48981E-06 2.72398E-10-9.83291E-05
 -1      7643 1.37804E-06 3.43814E-10 9.13083E-05
 -1      7644 4.31442E-07-6.87624E-10-2.49800E-16
 -1      7645 1.37804E-06 3.43813E-10-9.13083E-05
 -1      7646 1.21000E-06 4.57950E-10 8.12090E-05
 -1      7647 4.14954E-07-9.15914E-10 3.92048E-16
 -1      7648 1.21000E-06 4.57951E-10-8.12090E-05
 -1      7649 9.53184E-07-3.06001E-09 6.68556E-05
 -1      7650 4.27502E-07 6.12002E-09-6.45317E-16
 -1      7651 9.53184E-07-3.06001E-09-6.68556E-05
 -1      7652 1.85338E-06-4.02217E-09 2.08166E-04
 -1      7653 3.55978E-06 8.04434E-09-9.37445E-15
 -1      7654 1.85338E-06-4.02217E-09-2.08166E-04
 -1      7655 1.07641E-06 1.64833E-10 7.69361E-05
 -1      7656 5.32948E-07-3.29649E-10-2.11289E-15
 -1      7657 1.07641E-06 1.64834E-10-7.69361E-05
 -1      7658 5.87458E-06 9.32703E-10 4.26082E-04
 -1      7659 3.12495E-06-1.86538E-09-4.16334E-15
 -1      7660 5.87458E-06 9.32705E-10-4.26082E-04
 -1      7661 1.08175E-06 1.21654E-10 7.34262E-05
 -1      7662 3.99758E-07-2.43309E-10 1.23859E-15
 -1      7663 1.08175E-06 1.21654E-10-7.34262E-05
 -1      7664 1.25455E-06-5.46325E-10 9.27957E-05
 -1      7665 7.30296E-07 1.09266E-09-4.78437E-15
 -1      7666 1.25455E-06-5.46324E-10-9.27957E-05
 -1      7667 1.27820E-05 2.06813E-08 8.09916E-04
 -1      7668 2.70993E-06-4.13626E-08-9.36750E-16
 -1      7669 1.27820E-05 2.06813E-08-8.09916E-04
 -1      7670 1.88801E-06-1.13112E-09 1.42829E-04
 -1      7671 1.20999E-06 2.26223E-09 1.08594E-14
 -1      7672 1.88801E-06-1.13111E-09-1.42829E-04
 -1      7673 2.90219E-07-4.05054E-09 1.79299E-05
 -1      7674 4.54902E-08 8.10107E-09-8.95117E-16
 -1      7675 2.90219E-07-4.05054E-09-1.79299E-05
 -1      7676 6.59507E-07 1.21229E-10 4.41649E-05
 -1      7677 2.22755E-07-2.42462E-10 2.81025E-16
 -1      7678 6.59507E-07 1.21229E-10-4.41649E-05
 -1      7679 4.35196E-06 7.92285E-09 3.52637E-04
 -1      7680 3.60613E-06-1.58457E-08-4.70457E-15
 -1      7681 4.35196E-06 7.92284E-09-3.52637E-04
 -1      7682 8.35867E-06-1.77553E-08 5.43415E-04
 -1      7683 2.25300E-06 3.55107E-08 4.02456E-16
 -1      7684 8.35867E-06-1.77553E-08-5.43415E-04
 -1      7685 1.45136E-06-1.04419E-09 1.07626E-04
 -1      7686 8.54375E-07 2.08839E-09-2.06432E-15
 -1      7687 1.45136E-06-1.04420E-09-1.07626E-04
 -1      7688 3.18857E-06-1.21454E-08 3.01971E-04
 -1      7689 4.16406E-06 2.42907E-08 3.49720E-15
 -1      7690 3.18857E-06-1.21454E-08-3.01971E-04
 -1      7691 6.70691E-07-1.67385E-10 4.72231E-05
 -1      7692 3.07137E-07 3.34768E-10 1.46237E-15
 -1      7693 6.70691E-07-1.67385E-10-4.72231E-05
 -1      7694 3.27968E-06 1.34121E-09 2.23591E-04
 -1      7695 1.24603E-06-2.68242E-09 2.52923E-15
 -1      7696 3.27968E-06 1.34121E-09-2.23591E-04
 -1      7697 5.70081E-06-1.12222E-09 3.83048E-04
 -1      7698 1.97035E-06 2.24444E-09-1.06165E-15
 -1      7699 5.70081E-06-1.12222E-09-3.83048E-04
 -1      7700 3.51997E-06-3.55408E-10 2.45577E-04
 -1      7701 1.53294E-06 7.10827E-10-5.20764E-15
 -1      7702 3.51997E-06-3.55407E-10-2.45577E-04
 -1      7703 8.83338E-07 1.66087E-10 6.52598E-05
 -1      7704 5.11474E-07-3.32172E-10 2.35922E-16
 -1      7705 8.83338E-07 1.66085E-10-6.52598E-05
 -1      7706 4.17203E-06-5.30586E-09 2.82659E-04
 -1      7707 1.52338E-06 1.06117E-08 5.05498E-15
 -1      7708 4.17203E-06-5.30586E-09-2.82659E-04
 -1      7709 8.93327E-06-8.06566E-09 5.77781E-04
 -1      7710 2.30351E-06 1.61313E-08 2.04350E-15
 -1      7711 8.93327E-06-8.06566E-09-5.77781E-04
 -1      7712 6.76669E-06-3.17263E-09 4.33577E-04
 -1      7713 1.60260E-06 6.34525E-09-2.47372E-15
 -1      7714 6.76669E-06-3.17263E-09-4.33577E-04
 -1      7715 2.56255E-06 1.16811E-09 1.67670E-04
 -1      7716 7.28162E-07-2.33621E-09 3.11903E-15
 -1      7717 2.56255E-06 1.16811E-09-1.67670E-04
 -1      7718 2.65922E-06-2.47350E-08 2.28162E-04
 -1      7719 2.64632E-06 4.94699E-08-5.19723E-15
 -1      7720 2.65922E-06-2.47350E-08-2.28162E-04
 -1      7721 6.86929E-06 6.51208E-09 4.63994E-04
 -1      7722 2.45913E-06-1.30242E-08 1.19349E-15
 -1      7723 6.86929E-06 6.51207E-09-4.63994E-04
 -1      7724 1.30406E-06 7.02911E-10 9.24218E-05
 -1      7725 6.18250E-07-1.40581E-09 2.83801E-15
 -1      7726 1.30406E-06 7.02912E-10-9.24218E-05
 -1      7727 3.24092E-06 4.48404E-09 2.22032E-04
 -1      7728 1.26913E-06-8.96808E-09 2.99413E-15
 -1      7729 3.24092E-06 4.48403E-09-2.22032E-04
 -1      7730 4.46220E-06-6.28973E-09 2.85513E-04
 -1      7731 1.04272E-06 1.25795E-08-4.60049E-15
 -1      7732 4.46220E-06-6.28973E-09-2.85513E-04
 -1      7733 2.33965E-06-1.72051E-09 1.60379E-04
 -1      7734 9.19415E-07 3.44099E-09-2.24820E-15
 -1      7735 2.33965E-06-1.72051E-09-1.60379E-04
 -1      7736 1.61653E-06-6.73116E-09 1.23251E-04
 -1      7737 1.06949E-06 1.34623E-08-1.25594E-15
 -1      7738 1.61653E-06-6.73116E-09-1.23251E-04
 -1      7739 5.07012E-06-4.13593E-10 3.26576E-04
 -1      7740 1.26036E-06 8.27188E-10 1.48839E-15
 -1      7741 5.07012E-06-4.13594E-10-3.26576E-04
 -1      7742 4.01110E-06 1.06285E-08 2.48713E-04
 -1      7743 6.60290E-07-2.12571E-08 6.32133E-15
 -1      7744 4.01110E-06 1.06285E-08-2.48713E-04
 -1      7745 1.62883E-06 2.69076E-09 1.07159E-04
 -1      7746 4.83209E-07-5.38150E-09 2.74607E-15
 -1      7747 1.62883E-06 2.69075E-09-1.07159E-04
 -1      7748 1.31508E-06-2.38939E-10 8.93249E-05
 -1      7749 4.88107E-07 4.77878E-10-2.39392E-16
 -1      7750 1.31508E-06-2.38940E-10-8.93249E-05
 -1      7751 1.30459E-06 1.11578E-10 8.89972E-05
 -1      7752 4.97645E-07-2.23134E-10-4.13211E-15
 -1      7753 1.30459E-06 1.11578E-10-8.89972E-05
 -1      7754 1.16617E-06 1.05880E-09 8.12614E-05
 -1      7755 5.04424E-07-2.11760E-09 1.82493E-15
 -1      7756 1.16617E-06 1.05880E-09-8.12614E-05
 -1      7757 1.15927E-06 6.38705E-10 8.06877E-05
 -1      7758 4.98211E-07-1.27738E-09 4.37150E-15
 -1      7759 1.15927E-06 6.38705E-10-8.06877E-05
 -1      7760-2.35760E-07 1.03435E-09 2.44051E-06
 -1      7761 5.56635E-07-2.06868E-09-5.64132E-15
 -1      7762-2.35760E-07 1.03435E-09-2.44051E-06
 -1      7763 2.45436E-06 2.15391E-10 1.69655E-04
 -1      7764 1.01381E-06-4.30792E-10-1.52656E-16
 -1      7765 2.45436E-06 2.15392E-10-1.69655E-04
 -1      7766 3.52961E-06-2.08327E-08 2.54156E-04
 -1      7767 1.81312E-06 4.16655E-08 3.83721E-15
 -1      7768 3.52961E-06-2.08327E-08-2.54156E-04
 -1      7769 3.10566E-07-1.09354E-09 2.54149E-05
 -1      7770 2.66063E-07 2.18711E-09 5.21111E-15
 -1      7771 3.10566E-07-1.09354E-09-2.54149E-05
 -1      7772 9.45404E-07 1.14974E-09 6.23463E-05
 -1      7773 2.85666E-07-2.29948E-09 2.15106E-16
 -1      7774 9.45404E-07 1.14974E-09-6.23463E-05
 -1      7775 3.89852E-06 6.13636E-10 2.57513E-04
 -1      7776 1.19257E-06-1.22727E-09-2.89005E-15
 -1      7777 3.89852E-06 6.13634E-10-2.57513E-04
 -1      7778 3.23336E-06-2.83419E-08 2.27818E-04
 -1      7779 1.48620E-06 5.66837E-08 1.37043E-15
 -1      7780 3.23336E-06-2.83419E-08-2.27818E-04
 -1      7781 4.08762E-06-1.05400E-08 2.45822E-04
 -1      7782 4.06368E-07 2.10799E-08-2.49800E-15
 -1      7783 4.08762E-06-1.05400E-08-2.45822E-04
 -1      7784 4.56068E-07 1.36585E-08 3.31786E-05
 -1      7785 2.46097E-07-2.73171E-08 4.26742E-16
 -1      7786 4.56068E-07 1.36585E-08-3.31786E-05
 -1      7787-3.83652E-06-2.57171E-08-1.02940E-04
 -1      7788 4.07877E-06 5.14342E-08 2.51188E-15
 -1      7789-3.83652E-06-2.57171E-08 1.02940E-04
 -1      7790 1.12173E-06 4.27222E-09 7.32288E-05
 -1      7791 3.12912E-07-8.54443E-09 4.01762E-15
 -1      7792 1.12173E-06 4.27222E-09-7.32288E-05
 -1      7793 9.16691E-07 1.03381E-09 6.72309E-05
 -1      7794 5.13579E-07-2.06761E-09-1.19696E-15
 -1      7795 9.16691E-07 1.03381E-09-6.72309E-05
 -1      7796 1.98830E-06 3.56464E-09 1.36315E-04
 -1      7797 7.82066E-07-7.12929E-09 2.87964E-16
 -1      7798 1.98830E-06 3.56465E-09-1.36315E-04
 -1      7799 1.08767E-07-4.73425E-09 3.10412E-05
 -1      7800 8.65986E-07 9.46850E-09-1.18655E-15
 -1      7801 1.08767E-07-4.73425E-09-3.10412E-05
 -1      7802 1.73078E-06 1.98218E-08 1.07951E-04
 -1      7803 3.06972E-07-3.96436E-08 9.88792E-16
 -1      7804 1.73078E-06 1.98218E-08-1.07951E-04
 -1      7805 4.39118E-06 3.83029E-08 3.04646E-04
 -1      7806 1.85259E-06-7.66059E-08-4.81906E-15
 -1      7807 4.39118E-06 3.83029E-08-3.04646E-04
 -1      7808-2.57858E-06 4.58204E-08-4.55562E-05
 -1      7809 3.56625E-06-9.16409E-08-5.71765E-15
 -1      7810-2.57858E-06 4.58204E-08 4.55562E-05
 -1      7811 4.41006E-06 1.28041E-09 2.93255E-04
 -1      7812 1.41722E-06-2.56082E-09 9.40220E-16
 -1      7813 4.41006E-06 1.28041E-09-2.93255E-04
 -1      7814 2.01009E-06-2.15234E-09 1.48789E-04
 -1      7815 1.17390E-06 4.30469E-09-6.41848E-16
 -1      7816 2.01009E-06-2.15234E-09-1.48789E-04
 -1      7817 8.55809E-06 8.14209E-09 5.45409E-04
 -1      7818 1.92384E-06-1.62842E-08 1.94289E-16
 -1      7819 8.55809E-06 8.14209E-09-5.45409E-04
 -1      7820-6.04782E-07 1.15507E-08-2.19473E-05
 -1      7821 4.43314E-07-2.31015E-08-1.93942E-15
 -1      7822-6.04782E-07 1.15507E-08 2.19473E-05
 -1      7823 1.76865E-05-3.70233E-08 1.12238E-03
 -1      7824 3.80899E-06 7.40466E-08 1.57513E-15
 -1      7825 1.76865E-05-3.70233E-08-1.12238E-03
 -1      7826 1.99635E-06-1.61577E-10 1.41316E-04
 -1      7827 9.40517E-07 3.23139E-10-3.09128E-15
 -1      7828 1.99635E-06-1.61578E-10-1.41316E-04
 -1      7829 2.15892E-06 1.18422E-08 1.60280E-04
 -1      7830 1.27735E-06-2.36844E-08 3.40006E-16
 -1      7831 2.15892E-06 1.18422E-08-1.60280E-04
 -1      7832-1.18875E-07-1.77827E-09 6.37771E-07
 -1      7833 2.59974E-07 3.55654E-09 4.27609E-15
 -1      7834-1.18875E-07-1.77827E-09-6.37771E-07
 -1      7835 6.93527E-07-4.54920E-09 5.76151E-05
 -1      7836 6.24202E-07 9.09842E-09-5.50948E-15
 -1      7837 6.93527E-07-4.54920E-09-5.76151E-05
 -1      7838-1.88263E-05 4.16420E-08-8.88042E-04
 -1      7839 6.64996E-06-8.32840E-08-2.33841E-15
 -1      7840-1.88263E-05 4.16420E-08 8.88042E-04
 -1      7841 9.68211E-07-6.75260E-11 7.31286E-05
 -1      7842 6.16411E-07 1.35060E-10 2.77209E-15
 -1      7843 9.68211E-07-6.75268E-11-7.31286E-05
 -1      7844 2.84037E-06 2.72232E-09 1.91276E-04
 -1      7845 9.96583E-07-5.44463E-09-2.64719E-15
 -1      7846 2.84037E-06 2.72232E-09-1.91276E-04
 -1      7847 8.99993E-06 1.15495E-09 5.81992E-04
 -1      7848 2.31720E-06-2.30991E-09 6.93904E-18
 -1      7849 8.99993E-06 1.15495E-09-5.81992E-04
 -1      7850 2.48650E-06-8.03487E-09 1.61535E-04
 -1      7851 6.66091E-07 1.60697E-08-7.70217E-16
 -1      7852 2.48650E-06-8.03487E-09-1.61535E-04
 -1      7853 6.66343E-06 3.29659E-08 4.17919E-04
 -1      7854 1.26256E-06-6.59317E-08 4.37150E-15
 -1      7855 6.66343E-06 3.29659E-08-4.17919E-04
 -1      7856 1.79412E-06 1.60081E-08 1.29412E-04
 -1      7857 9.29403E-07-3.20161E-08-8.46545E-16
 -1      7858 1.79412E-06 1.60081E-08-1.29412E-04
 -1      7859 1.84603E-06-3.36879E-08 1.25046E-04
 -1      7860 6.73198E-07 6.73758E-08 7.73687E-15
 -1      7861 1.84603E-06-3.36879E-08-1.25046E-04
 -1      7862 8.98486E-07-2.22570E-09 5.89014E-05
 -1      7863 2.59245E-07 4.45140E-09 4.51028E-16
 -1      7864 8.98486E-07-2.22570E-09-5.89014E-05
 -1      7865 2.41362E-06 1.18964E-08 1.54696E-04
 -1      7866 5.73137E-07-2.37929E-08-6.80012E-16
 -1      7867 2.41362E-06 1.18964E-08-1.54696E-04
 -1      7868 1.25268E-06 1.25910E-09 8.75837E-05
 -1      7869 5.52123E-07-2.51820E-09-3.10516E-15
 -1      7870 1.25268E-06 1.25910E-09-8.75837E-05
 -1      7871 4.88610E-07 1.67882E-10 4.42958E-05
 -1      7872 5.69065E-07-3.35788E-10-6.91808E-15
 -1      7873 4.88610E-07 1.67882E-10-4.42958E-05
 -1      7874 6.98291E-07 3.70604E-09 5.74720E-05
 -1      7875 6.09679E-07-7.41208E-09-1.50227E-15
 -1      7876 6.98291E-07 3.70604E-09-5.74720E-05
 -1      7877 2.24601E-06-2.82460E-09 1.44613E-04
 -1      7878 5.56354E-07 5.64920E-09 3.60823E-16
 -1      7879 2.24601E-06-2.82460E-09-1.44613E-04
 -1      7880-4.15037E-06-1.94799E-08-1.67719E-04
 -1      7881 2.44526E-06 3.89599E-08 5.28050E-15
 -1      7882-4.15037E-06-1.94799E-08 1.67719E-04
 -1      7883 8.02257E-08-6.48590E-10 8.72550E-06
 -1      7884 1.44135E-07 1.29718E-09 2.25514E-15
 -1      7885 8.02257E-08-6.48591E-10-8.72550E-06
 -1      7886-1.80171E-05-2.45772E-08-9.00438E-04
 -1      7887 4.59911E-06 4.91544E-08 2.04697E-15
 -1      7888-1.80171E-05-2.45772E-08 9.00438E-04
 -1      7889 8.56890E-07-3.24119E-09 6.19960E-05
 -1      7890 4.50439E-07 6.48240E-09 4.05058E-15
 -1      7891 8.56890E-07-3.24119E-09-6.19960E-05
 -1      7892 2.65526E-06-6.45146E-09 1.73643E-04
 -1      7893 7.51244E-07 1.29029E-08-1.55778E-15
 -1      7894 2.65526E-06-6.45146E-09-1.73643E-04
 -1      7895 1.44706E-06 5.37017E-10 1.14459E-04
 -1      7896 1.10150E-06-1.07405E-09 6.34562E-15
 -1      7897 1.44706E-06 5.37017E-10-1.14459E-04
 -1      7898-2.63047E-07-1.56140E-09-5.96651E-06
 -1      7899 3.17754E-07 3.12280E-09 4.48599E-15
 -1      7900-2.63047E-07-1.56140E-09 5.96651E-06
 -1      7901 6.06443E-07 1.21718E-09 3.92869E-05
 -1      7902 1.58602E-07-2.43436E-09 8.96852E-16
 -1      7903 6.06443E-07 1.21718E-09-3.92869E-05
 -1      7904-7.25389E-07-6.72150E-09-2.30800E-05
 -1      7905 6.44953E-07 1.34430E-08-4.51028E-15
 -1      7906-7.25389E-07-6.72150E-09 2.30800E-05
 -1      7907 1.07921E-05-3.47067E-08 7.18158E-04
 -1      7908 3.48620E-06 6.94135E-08-8.14626E-15
 -1      7909 1.07921E-05-3.47067E-08-7.18158E-04
 -1      7910 2.09407E-06 3.99525E-09 1.42521E-04
 -1      7911 7.87149E-07-7.99050E-09 2.19269E-15
 -1      7912 2.09407E-06 3.99525E-09-1.42521E-04
 -1      7913 4.43213E-07-1.92673E-09 4.29024E-05
 -1      7914 6.11211E-07 3.85345E-09-1.37737E-15
 -1      7915 4.43213E-07-1.92673E-09-4.29024E-05
 -1      7916 9.26598E-06-1.64565E-08 5.76294E-04
 -1      7917 1.58629E-06 3.29129E-08-2.68188E-15
 -1      7918 9.26598E-06-1.64565E-08-5.76294E-04
 -1      7919 3.12433E-06 7.89036E-11 2.03617E-04
 -1      7920 8.59499E-07-1.57814E-10-1.70697E-15
 -1      7921 3.12433E-06 7.89036E-11-2.03617E-04
 -1      7922 1.91759E-06-1.76465E-10 1.24692E-04
 -1      7923 5.17755E-07 3.52931E-10 2.27596E-15
 -1      7924 1.91759E-06-1.76466E-10-1.24692E-04
 -1      7925 3.72688E-05 2.85312E-08 2.27261E-03
 -1      7926 4.79869E-06-5.70623E-08 2.14412E-15
 -1      7927 3.72688E-05 2.85312E-08-2.27261E-03
 -1      7928 9.53557E-06 3.63617E-08 8.09862E-04
 -1      7929 9.19987E-06-7.27234E-08-5.91194E-15
 -1      7930 9.53557E-06 3.63617E-08-8.09862E-04
 -1      7931-4.47428E-07-9.30756E-09-1.27210E-05
 -1      7932 4.50697E-07 1.86151E-08 2.08167E-15
 -1      7933-4.47428E-07-9.30756E-09 1.27210E-05
 -1      7934 4.87663E-07-4.34303E-10 5.14144E-05
 -1      7935 8.19432E-07 8.68583E-10-5.93275E-16
 -1      7936 4.87663E-07-4.34301E-10-5.14144E-05
 -1      7937 1.42516E-06-1.83910E-09 9.22325E-05
 -1      7938 3.69473E-07 3.67819E-09 6.26235E-15
 -1      7939 1.42516E-06-1.83910E-09-9.22325E-05
 -1      7940-3.59460E-07 1.03358E-08 2.22820E-06
 -1      7941 7.96586E-07-2.06716E-08 1.69309E-15
 -1      7942-3.59460E-07 1.03358E-08-2.22820E-06
 -1      7943 5.68831E-01-6.28320E-15-7.43360E-01
 -1      7945 5.68831E-01-6.25324E-15 7.43360E-01
 -1      7946-2.69540E-02 6.93483E-15-1.54419E+00
 -1      7948-2.69540E-02 7.88622E-15 1.54419E+00
 -1      7949-1.26077E-02 2.04808E-15-7.22295E-01
 -1      7951-1.26077E-02 6.75685E-16 7.22295E-01
 -1      7952 5.71069E-01-3.08330E-15-6.15138E-01
 -1      7954 5.71069E-01-2.51545E-15 6.15138E-01
 -1      7955-2.15053E-02 4.19359E-18-1.23204E+00
 -1      7957-2.15053E-02 7.16332E-16 1.23204E+00
 -1      7958-2.48689E-02 2.88285E-15-1.42474E+00
 -1      7960-2.48689E-02 1.97588E-15 1.42474E+00
 -1      7961 5.70274E-01-3.24993E-15-6.60646E-01
 -1      7963 5.70274E-01-3.91768E-15 6.60646E-01
 -1      7964-2.24540E-02-1.58791E-15-1.28639E+00
 -1      7966-2.24540E-02-2.04259E-15 1.28639E+00
 -1      7967-2.24380E-02-8.00784E-15-1.28547E+00
 -1      7969-2.24380E-02-6.44413E-15 1.28547E+00
 -1      7970 5.70295E-01-2.78504E-15-6.59480E-01
 -1      7972 5.70295E-01-4.19019E-15 6.59480E-01
 -1      7973-2.21910E-02 4.09656E-15-1.27132E+00
 -1      7975-2.21910E-02 5.56737E-15 1.27132E+00
 -1      7976-2.23232E-02 1.66718E-16-1.27890E+00
 -1      7978-2.23232E-02 8.39253E-16 1.27890E+00
 -1      7979 5.70470E-01-1.76864E-15-6.49451E-01
 -1      7981 5.70470E-01-3.07195E-15 6.49451E-01
 -1      7982-2.17699E-02-5.50311E-15-1.24720E+00
 -1      7984-2.17699E-02-6.66125E-15 1.24720E+00
 -1      7985-2.18934E-02 7.14901E-15-1.25427E+00
 -1      7987-2.18934E-02 4.26974E-15 1.25427E+00
 -1      7988 5.70617E-01 4.78942E-15-6.41028E-01
 -1      7990 5.70617E-01 3.89987E-15 6.41028E-01
 -1      7991-2.14862E-02 1.60046E-15-1.23094E+00
 -1      7993-2.14862E-02 1.84897E-15 1.23094E+00
 -1      7994-2.15441E-02-2.53538E-15-1.23426E+00
 -1      7996-2.15441E-02-4.71689E-15 1.23426E+00
 -1      7997 5.70659E-01 1.64007E-15-6.38582E-01
 -1      7999 5.70659E-01 5.43570E-16 6.38582E-01
 -1      8000-2.14097E-02-8.01577E-16-1.22656E+00
 -1      8002-2.14097E-02-7.57874E-17 1.22656E+00
 -1      8003-2.14206E-02 2.27033E-15-1.22719E+00
 -1      8005-2.14206E-02 4.41786E-15 1.22719E+00
 -1      8006 5.70655E-01-6.14590E-15-6.38833E-01
 -1      8008 5.70655E-01-5.17803E-15 6.38833E-01
 -1      8009-2.14194E-02-5.33325E-16-1.22712E+00
 -1      8011-2.14194E-02 1.92931E-15 1.22712E+00
 -1      8012-2.14180E-02 5.74368E-15-1.22704E+00
 -1      8014-2.14180E-02 2.94318E-15 1.22704E+00
 -1      8015 5.70653E-01 1.91092E-15-6.38979E-01
 -1      8017 5.70653E-01 3.40504E-16 6.38979E-01
 -1      8018-2.13985E-02-3.59335E-15-1.22592E+00
 -1      8020-2.13985E-02-3.61329E-15 1.22592E+00
 -1      8021-2.14188E-02 2.85782E-16-1.22708E+00
 -1      8023-2.14188E-02 6.66230E-16 1.22708E+00
 -1      8024 5.70680E-01-2.27306E-15-6.37415E-01
 -1      8026 5.70680E-01-2.55912E-15 6.37415E-01
 -1      8027-2.13257E-02 3.48279E-15-1.22175E+00
 -1      8029-2.13257E-02 1.57253E-15 1.22175E+00
 -1      8030-2.13522E-02 7.28719E-15-1.22327E+00
 -1      8032-2.13522E-02 7.48748E-15 1.22327E+00
 -1      8033 5.70623E-01 1.30088E-15-6.40683E-01
 -1      8035 5.70623E-01-9.42550E-17 6.40683E-01
 -1      8036-2.14172E-02 2.07296E-15-1.22699E+00
 -1      8038-2.14172E-02 1.77291E-15 1.22699E+00
 -1      8039-2.13968E-02 8.63662E-15-1.22582E+00
 -1      8041-2.13968E-02 8.91802E-15 1.22582E+00
 -1      8042 5.70404E-01-8.40585E-16-6.53212E-01
 -1      8044 5.70404E-01-1.88909E-15 6.53212E-01
 -1      8045-2.17521E-02 2.32088E-15-1.24618E+00
 -1      8047-2.17521E-02 7.07655E-16 1.24618E+00
 -1      8048-2.16866E-02 2.34337E-15-1.24242E+00
 -1      8050-2.16866E-02 4.43474E-15 1.24242E+00
 -1      8051 5.70021E-01-1.39462E-15-6.75168E-01
 -1      8053 5.70021E-01-7.82328E-16 6.75168E-01
 -1      8054-2.16724E-02 5.35324E-15-1.24161E+00
 -1      8056-2.16724E-02 3.08201E-15 1.24161E+00
 -1      8057-2.20083E-02-1.45035E-15-1.26085E+00
 -1      8059-2.20083E-02-1.98585E-15 1.26085E+00
 -1      8060 5.69355E-01-3.51955E-15-7.13290E-01
 -1      8062 5.69355E-01-3.26866E-15 7.13290E-01
 -1      8063-2.10485E-02-2.27404E-15-1.20587E+00
 -1      8065-2.10485E-02-4.59296E-15 1.20587E+00
 -1      8066-2.22962E-02 3.05714E-15-1.27735E+00
 -1      8068-2.22962E-02 3.68878E-15 1.27735E+00
 -1      8069-1.86549E-02 3.44321E-16-1.06874E+00
 -1      8071-1.86549E-02-5.76377E-16 1.06874E+00
 -1      8072-8.93422E-03 6.17477E-05-5.11841E-01
 -1      8074-8.93422E-03 6.17477E-05 5.11841E-01
 -1      8075-1.66337E-02-1.00175E-14-9.52945E-01
 -1      8077-1.66337E-02-1.19894E-14 9.52945E-01
 -1      8078-7.73046E-03 3.48497E-05-4.42878E-01
 -1      8080-7.73046E-03 3.48497E-05 4.42878E-01
 -1      8081-1.89370E-02 4.66943E-15-1.08490E+00
 -1      8083-1.89370E-02 3.79275E-15 1.08490E+00
 -1      8084-6.80127E-03-8.22700E-05-3.89645E-01
 -1      8086-6.80127E-03-8.22700E-05 3.89645E-01
 -1      8087-1.27754E-02-1.47773E-16-7.31902E-01
 -1      8089-1.27754E-02-2.72564E-15 7.31902E-01
 -1      8090-1.49149E-02 4.37106E-15-8.54475E-01
 -1      8092-1.49149E-02 4.07205E-15 8.54475E-01
 -1      8093-6.18796E-03-6.91819E-05-3.54508E-01
 -1      8095-6.18796E-03-6.91819E-05 3.54508E-01
 -1      8096-1.21977E-02 5.35889E-15-6.98806E-01
 -1      8098-1.21977E-02 5.78562E-15 6.98806E-01
 -1      8099-1.26385E-02-7.96762E-17-7.24060E-01
 -1      8101-1.26385E-02-2.19888E-15 7.24060E-01
 -1      8102-5.51221E-03-5.48374E-05-3.15794E-01
 -1      8104-5.51221E-03-5.48374E-05 3.15794E-01
 -1      8105-1.06681E-02 6.01764E-15-6.11176E-01
 -1      8107-1.06681E-02 7.56269E-15 6.11176E-01
 -1      8108-1.11404E-02 4.30901E-15-6.38232E-01
 -1      8110-1.11404E-02 3.59742E-15 6.38232E-01
 -1      8111-4.42259E-03-3.74678E-05-2.53370E-01
 -1      8113-4.42259E-03-3.74678E-05 2.53370E-01
 -1      8114-8.72997E-03-5.02507E-15-5.00140E-01
 -1      8116-8.72997E-03-7.84080E-15 5.00140E-01
 -1      8117-9.10938E-03 7.07473E-16-5.21876E-01
 -1      8119-9.10938E-03 2.82860E-15 5.21876E-01
 -1      8120-3.77734E-03-2.86527E-05-2.16404E-01
 -1      8122-3.77734E-03-2.86527E-05 2.16404E-01
 -1      8123-7.45967E-03-1.25649E-15-4.27364E-01
 -1      8125-7.45967E-03-2.77098E-15 4.27364E-01
 -1      8126-7.74769E-03 7.04680E-15-4.43865E-01
 -1      8128-7.74769E-03 7.03805E-15 4.43865E-01
 -1      8129-3.42473E-03-2.39417E-05-1.96202E-01
 -1      8131-3.42473E-03-2.39417E-05 1.96202E-01
 -1      8132-6.66446E-03 2.68345E-15-3.81807E-01
 -1      8134-6.66446E-03 1.13335E-15 3.81807E-01
 -1      8135-6.87958E-03-1.36418E-16-3.94131E-01
 -1      8137-6.87958E-03-2.80591E-16 3.94131E-01
 -1      8138-2.93197E-03-1.77192E-05-1.67972E-01
 -1      8140-2.93197E-03-1.77192E-05 1.67972E-01
 -1      8141-5.81692E-03-1.56736E-15-3.33251E-01
 -1      8143-5.81692E-03-4.17629E-15 3.33251E-01
 -1      8144-5.97549E-03 7.20000E-16-3.42336E-01
 -1      8146-5.97549E-03 8.43350E-16 3.42336E-01
 -1      8147-2.62982E-03-1.42973E-05-1.50662E-01
 -1      8149-2.62982E-03-1.42973E-05 1.50662E-01
 -1      8150-5.21367E-03-4.02386E-16-2.98691E-01
 -1      8152-5.21367E-03-1.15035E-15 2.98691E-01
 -1      8153-5.35998E-03 4.21118E-15-3.07073E-01
 -1      8155-5.35998E-03 2.73878E-15 3.07073E-01
 -1      8156-2.38741E-03-1.17243E-05-1.36775E-01
 -1      8158-2.38741E-03-1.17243E-05 1.36775E-01
 -1      8159-4.74764E-03 7.23031E-16-2.71992E-01
 -1      8161-4.74764E-03 9.68450E-16 2.71992E-01
 -1      8162-4.84860E-03 2.86772E-17-2.77776E-01
 -1      8164-4.84860E-03-1.05498E-15 2.77776E-01
 -1      8165-2.18374E-03-9.74530E-06-1.25106E-01
 -1      8167-2.18374E-03-9.74530E-06 1.25106E-01
 -1      8168-4.34330E-03 2.88216E-15-2.48827E-01
 -1      8170-4.34330E-03 2.21093E-15 2.48827E-01
 -1      8171-4.44180E-03-1.78575E-15-2.54471E-01
 -1      8173-4.44180E-03-3.65819E-15 2.54471E-01
 -1      8174-2.08859E-03-8.76795E-06-1.19655E-01
 -1      8176-2.08859E-03-8.76795E-06 1.19655E-01
 -1      8177-4.09304E-03-2.19253E-15-2.34490E-01
 -1      8179-4.09304E-03-2.48353E-15 2.34490E-01
 -1      8180-4.17107E-03-4.51036E-15-2.38961E-01
 -1      8182-4.17107E-03-4.06470E-15 2.38961E-01
 -1      8183-1.87668E-03-6.92532E-06-1.07515E-01
 -1      8185-1.87668E-03-6.92532E-06 1.07515E-01
 -1      8186-3.75074E-03 7.91329E-15-2.14880E-01
 -1      8188-3.75074E-03 7.64769E-15 2.14880E-01
 -1      8189-3.80547E-03-6.54262E-16-2.18015E-01
 -1      8191-3.80547E-03-1.49967E-15 2.18015E-01
 -1      8192-1.76340E-03-5.92156E-06-1.01025E-01
 -1      8194-1.76340E-03-5.92156E-06 1.01025E-01
 -1      8195-3.52467E-03 4.53443E-15-2.01928E-01
 -1      8197-3.52467E-03 3.91806E-15 2.01928E-01
 -1      8198-3.57910E-03 3.91270E-15-2.05047E-01
 -1      8200-3.57910E-03 3.96368E-15 2.05047E-01
 -1      8201-1.73057E-03-5.46968E-06-9.91445E-02
 -1      8203-1.73057E-03-5.46968E-06 9.91445E-02
 -1      8204-3.40189E-03-1.82457E-15-1.94894E-01
 -1      8206-3.40189E-03-2.68378E-16 1.94894E-01
 -1      8207-3.44815E-03 1.17177E-14-1.97545E-01
 -1      8209-3.44815E-03 1.07969E-14 1.97545E-01
 -1      8210-1.57416E-03-4.41928E-06-9.01836E-02
 -1      8212-1.57416E-03-4.41928E-06 9.01836E-02
 -1      8213-3.12175E-03-2.59751E-15-1.78845E-01
 -1      8215-3.12175E-03-1.97353E-15 1.78845E-01
 -1      8216-3.18533E-03 4.29515E-15-1.82487E-01
 -1      8218-3.18533E-03 3.37162E-15 1.82487E-01
 -1      8219-1.42151E-03-3.78357E-06-8.14381E-02
 -1      8221-1.42151E-03-3.78357E-06 8.14381E-02
 -1      8222-2.82510E-03 4.09610E-15-1.61850E-01
 -1      8224-2.82510E-03 4.59376E-15 1.61850E-01
 -1      8225-2.88129E-03-8.60108E-15-1.65069E-01
 -1      8227-2.88129E-03-9.67969E-15 1.65069E-01
 -1      8228-1.45187E-03-3.64149E-06-8.31777E-02
 -1      8230-1.45187E-03-3.64149E-06 8.31777E-02
 -1      8231-2.95767E-03 3.13631E-16-1.69445E-01
 -1      8233-2.95767E-03-1.19839E-16 1.69445E-01
 -1      8234-2.87042E-03-4.26324E-15-1.64446E-01
 -1      8236-2.87042E-03-2.47721E-15 1.64446E-01
 -1      8237-1.38911E-03-3.57957E-06-7.95823E-02
 -1      8239-1.38911E-03-3.57957E-06 7.95823E-02
 -1      8240-3.38073E-03-4.84500E-15-1.93682E-01
 -1      8242-3.38073E-03-6.09173E-15 1.93682E-01
 -1      8243-2.92807E-03 6.15035E-16-1.67749E-01
 -1      8245-2.92807E-03 4.80310E-16 1.67749E-01
 -1      8246-1.52419E-03-6.12892E-07-8.73210E-02
 -1      8248-1.52419E-03-6.12892E-07 8.73210E-02
 -1      8249-1.51916E-03-3.72036E-15-8.70328E-02
 -1      8251-1.51916E-03-4.13609E-15 8.70328E-02
 -1      8252-3.50936E-03 1.49287E-14-2.01051E-01
 -1      8254-3.50936E-03 1.65410E-14 2.01051E-01
 -1      8255-1.32203E-03-3.75603E-15-7.57390E-02
 -1      8257-1.32203E-03 9.43105E-16 7.57390E-02
 -1      8258-2.55352E-03 9.13836E-15-1.46291E-01
 -1      8260-2.55352E-03 6.82292E-15 1.46291E-01
 -1      8261-2.89058E-03 7.51958E-15-1.65601E-01
 -1      8263-2.89058E-03 6.70732E-15 1.65601E-01
 -1      8264-1.37603E-03-1.34286E-15-7.88324E-02
 -1      8266-1.37603E-03-1.49027E-15 7.88324E-02
 -1      8267-2.74875E-03-9.99516E-15-1.57476E-01
 -1      8269-2.74875E-03-7.60518E-15 1.57476E-01
 -1      8270-2.77007E-03-3.77740E-15-1.58697E-01
 -1      8272-2.77007E-03-5.22129E-15 1.58697E-01
 -1      8273-1.33730E-03 2.58652E-15-7.66138E-02
 -1      8275-1.33730E-03 2.15073E-15 7.66138E-02
 -1      8276-2.67565E-03 4.34922E-15-1.53288E-01
 -1      8278-2.67565E-03 6.20874E-15 1.53288E-01
 -1      8279-2.68228E-03 7.36426E-15-1.53668E-01
 -1      8281-2.68228E-03 5.73352E-15 1.53668E-01
 -1      8282-1.35066E-03-8.20506E-15-7.73792E-02
 -1      8284-1.35066E-03-8.08042E-15 7.73792E-02
 -1      8285-2.70586E-03-9.91972E-15-1.55019E-01
 -1      8287-2.70586E-03-9.24411E-15 1.55019E-01
 -1      8288-2.69489E-03 2.16313E-16-1.54390E-01
 -1      8290-2.69489E-03-5.07079E-16 1.54390E-01
 -1      8291-1.35660E-03 3.87463E-15-7.77198E-02
 -1      8293-1.35660E-03 4.05911E-15 7.77198E-02
 -1      8294-2.72308E-03 3.47020E-15-1.56005E-01
 -1      8296-2.72308E-03 3.40074E-15 1.56005E-01
 -1      8297-2.71864E-03-5.11046E-15-1.55751E-01
 -1      8299-2.71864E-03-5.40986E-15 1.55751E-01
 -1      8300-1.35467E-03-7.64660E-15-7.76090E-02
 -1      8302-1.35467E-03-7.34378E-15 7.76090E-02
 -1      8303-2.72242E-03 3.56562E-15-1.55967E-01
 -1      8305-2.72242E-03 3.60787E-15 1.55967E-01
 -1      8306-2.72249E-03-3.60834E-15-1.55971E-01
 -1      8308-2.72249E-03-6.11144E-15 1.55971E-01
 -1      8309-1.35279E-03-1.54495E-15-7.75013E-02
 -1      8311-1.35279E-03-1.73611E-15 7.75013E-02
 -1      8312-2.71872E-03 1.17972E-14-1.55755E-01
 -1      8314-2.71872E-03 1.33306E-14 1.55755E-01
 -1      8315-2.71986E-03-3.22674E-15-1.55821E-01
 -1      8317-2.71986E-03-1.13681E-15 1.55821E-01
 -1      8318-1.35145E-03-9.07044E-16-7.74243E-02
 -1      8320-1.35145E-03-1.27293E-15 7.74243E-02
 -1      8321-2.71326E-03 4.77310E-15-1.55443E-01
 -1      8323-2.71326E-03 6.00454E-15 1.55443E-01
 -1      8324-2.71588E-03 3.92939E-15-1.55593E-01
 -1      8326-2.71588E-03 2.80037E-16 1.55593E-01
 -1      8327-1.34434E-03 1.20754E-15-7.70172E-02
 -1      8329-1.34434E-03 9.47486E-16 7.70172E-02
 -1      8330-2.70315E-03-1.18259E-14-1.54863E-01
 -1      8332-2.70315E-03-1.35237E-14 1.54863E-01
 -1      8333-2.70372E-03-6.51751E-15-1.54896E-01
 -1      8335-2.70372E-03-3.00831E-15 1.54896E-01
 -1      8336-1.34343E-03-4.81931E-16-7.69653E-02
 -1      8338-1.34343E-03-1.43745E-16 7.69653E-02
 -1      8339-2.72914E-03-5.72972E-15-1.56352E-01
 -1      8341-2.72914E-03-1.08180E-14 1.56352E-01
 -1      8342-2.70866E-03 3.83266E-15-1.55179E-01
 -1      8344-2.70866E-03 7.29281E-15 1.55179E-01
 -1      8345-1.38627E-03 3.01366E-15-7.94192E-02
 -1      8347-1.38627E-03 5.95415E-15 7.94192E-02
 -1      8348-2.78610E-03 1.04793E-16-1.59616E-01
 -1      8350-2.78610E-03-6.62622E-16 1.59616E-01
 -1      8351-2.79857E-03 8.50109E-15-1.60330E-01
 -1      8353-2.79857E-03 8.36045E-15 1.60330E-01
 -1      8354-1.24177E-03 6.64825E-15-7.11410E-02
 -1      8356-1.24177E-03 7.35132E-15 7.11410E-02
 -1      8357-2.16941E-03-5.79619E-15-1.24286E-01
 -1      8359-2.16941E-03-4.43964E-15 1.24286E-01
 -1      8360-2.50034E-03 1.60711E-15-1.43244E-01
 -1      8362-2.50034E-03 1.31729E-15 1.43244E-01
 -1      8363-1.01499E-03 2.16767E-15-5.81488E-02
 -1      8365-1.01499E-03 2.02563E-15 5.81488E-02
 -1      8366-2.03804E-03 1.38369E-16-1.16759E-01
 -1      8368-2.03804E-03-1.07417E-15 1.16759E-01
 -1      8369-1.94106E-03 1.85519E-14-1.11203E-01
 -1      8371-1.94106E-03 1.76819E-14 1.11203E-01
 -1      8372-1.95918E-03 9.45420E-15-1.12241E-01
 -1      8374-1.95918E-03 9.14563E-15 1.12241E-01
 -1      8375-1.02195E-03-9.56250E-15-5.85475E-02
 -1      8377-1.02195E-03-9.93817E-15 5.85475E-02
 -1      8378-1.97023E-03-4.80742E-15-1.12875E-01
 -1      8380-1.97023E-03-4.54913E-15 1.12875E-01
 -1      8381-8.43485E-03-4.47485E-15-4.83232E-01
 -1      8383-8.43485E-03-3.43686E-15 4.83232E-01
 -1      8384-1.87097E-02 1.08072E-14-1.07188E+00
 -1      8386-1.87097E-02 1.24892E-14 1.07188E+00
 -1      8387-1.58607E-02 2.67627E-16-9.08657E-01
 -1      8389-1.58607E-02-3.82034E-16 9.08657E-01
 -1      8390-8.68767E-03 1.14721E-15-4.97716E-01
 -1      8392-8.68767E-03-1.30639E-16 4.97716E-01
 -1      8393-1.61781E-02 7.96155E-16-9.26845E-01
 -1      8395-1.61781E-02 5.07682E-17 9.26845E-01
 -1      8396-1.68577E-02-2.14953E-16-9.65777E-01
 -1      8398-1.68577E-02 1.37411E-15 9.65777E-01
 -1      8399-1.53826E-02 4.28230E-15-8.81267E-01
 -1      8401-1.53826E-02 6.28165E-15 8.81267E-01
 -1      8402-8.24177E-03 1.03213E-15-4.72171E-01
 -1      8404-8.24177E-03 1.23845E-15 4.72171E-01
 -1      8405-1.64284E-02 5.38712E-15-9.41183E-01
 -1      8407-1.64284E-02 7.09319E-15 9.41183E-01
 -1      8408-1.58228E-02-9.99541E-15-9.06489E-01
 -1      8410-1.58228E-02-1.01634E-14 9.06489E-01
 -1      8411-1.77028E-02 5.94567E-15-1.01419E+00
 -1      8413-1.77028E-02 4.42902E-15 1.01419E+00
 -1      8414-6.89443E-03 4.29114E-15-3.94982E-01
 -1      8416-6.89443E-03 4.52781E-15 3.94982E-01
 -1      8417-1.44720E-02 2.67983E-15-8.29100E-01
 -1      8419-1.44720E-02 4.41430E-15 8.29100E-01
 -1      8420-1.35137E-02-4.28448E-15-7.74199E-01
 -1      8422-1.35137E-02-5.80752E-15 7.74199E-01
 -1      8423-1.50062E-02-4.56979E-15-8.59707E-01
 -1      8425-1.50062E-02-4.90527E-15 8.59707E-01
 -1      8426-6.14636E-03 3.91121E-15-3.52125E-01
 -1      8428-6.14636E-03 5.44143E-15 3.52125E-01
 -1      8429-1.27596E-02 8.23190E-15-7.30996E-01
 -1      8431-1.27596E-02 9.00286E-15 7.30996E-01
 -1      8432-1.20826E-02-1.90983E-15-6.92214E-01
 -1      8434-1.20826E-02-1.28558E-15 6.92214E-01
 -1      8435-1.32069E-02-4.17019E-15-7.56621E-01
 -1      8437-1.32069E-02-3.38679E-15 7.56621E-01
 -1      8438-5.74009E-03-2.80312E-15-3.28850E-01
 -1      8440-5.74009E-03-1.53334E-15 3.28850E-01
 -1      8441-1.16761E-02 1.26174E-15-6.68924E-01
 -1      8443-1.16761E-02-5.30717E-16 6.68924E-01
 -1      8444-1.11081E-02-7.13451E-15-6.36385E-01
 -1      8446-1.11081E-02-5.84293E-15 6.36385E-01
 -1      8447-1.18655E-02 2.27542E-15-6.79773E-01
 -1      8449-1.18655E-02-7.70511E-17 6.79773E-01
 -1      8450-5.03778E-03 7.15377E-16-2.88614E-01
 -1      8452-5.03778E-03 1.93310E-15 2.88614E-01
 -1      8453-1.04060E-02-2.56712E-15-5.96162E-01
 -1      8455-1.04060E-02-3.34302E-15 5.96162E-01
 -1      8456-9.92677E-03-8.47774E-15-5.68704E-01
 -1      8458-9.92677E-03-6.62465E-15 5.68704E-01
 -1      8459-1.07456E-02-4.11497E-16-6.15617E-01
 -1      8461-1.07456E-02-8.97204E-16 6.15617E-01
 -1      8462-4.62245E-03-2.77435E-15-2.64820E-01
 -1      8464-4.62245E-03-2.24637E-15 2.64820E-01
 -1      8465-9.50864E-03 4.70095E-15-5.44750E-01
 -1      8467-9.50864E-03 3.52072E-15 5.44750E-01
 -1      8468-9.13014E-03 7.30402E-15-5.23065E-01
 -1      8470-9.13014E-03 6.17594E-15 5.23065E-01
 -1      8471-9.76855E-03-4.48788E-16-5.59640E-01
 -1      8473-9.76855E-03-1.34850E-15 5.59640E-01
 -1      8474-4.41876E-03-2.61009E-15-2.53150E-01
 -1      8476-4.41876E-03-3.56211E-15 2.53150E-01
 -1      8477-8.92673E-03-4.71627E-15-5.11412E-01
 -1      8479-8.92673E-03-4.42357E-15 5.11412E-01
 -1      8480-8.58666E-03 1.64652E-16-4.91930E-01
 -1      8482-8.58666E-03-2.74780E-16 4.91930E-01
 -1      8483-9.01063E-03-1.54351E-15-5.16218E-01
 -1      8485-9.01063E-03-8.51902E-16 5.16218E-01
 -1      8486-3.95690E-03-3.63540E-15-2.26691E-01
 -1      8488-3.95690E-03-2.86366E-15 2.26691E-01
 -1      8489-8.12522E-03 3.27981E-15-4.65493E-01
 -1      8491-8.12522E-03 1.74582E-15 4.65493E-01
 -1      8492-7.82373E-03-1.39615E-14-4.48221E-01
 -1      8494-7.82373E-03-1.23247E-14 4.48221E-01
 -1      8495-8.33856E-03-7.18296E-15-4.77716E-01
 -1      8497-8.33856E-03-6.20889E-15 4.77716E-01
 -1      8498-3.69435E-03 1.43376E-15-2.11649E-01
 -1      8500-3.69435E-03 3.58998E-17 2.11649E-01
 -1      8501-7.55959E-03-5.48793E-15-4.33089E-01
 -1      8503-7.55959E-03-5.39101E-15 4.33089E-01
 -1      8504-7.31854E-03-5.43487E-15-4.19279E-01
 -1      8506-7.31854E-03-1.71582E-15 4.19279E-01
 -1      8507-7.72562E-03 3.87774E-15-4.42601E-01
 -1      8509-7.72562E-03 2.51524E-15 4.42601E-01
 -1      8510-3.58562E-03 2.37553E-15-2.05420E-01
 -1      8512-3.58562E-03 2.46999E-15 2.05420E-01
 -1      8513-7.21022E-03 7.67340E-15-4.13073E-01
 -1      8515-7.21022E-03 6.04655E-15 4.13073E-01
 -1      8516-6.98558E-03 3.72553E-15-4.00204E-01
 -1      8518-6.98558E-03 2.82151E-15 4.00204E-01
 -1      8519-7.24662E-03 3.17093E-16-4.15159E-01
 -1      8521-7.24662E-03 5.38641E-16 4.15159E-01
 -1      8522-3.25270E-03 3.00813E-15-1.86347E-01
 -1      8524-3.25270E-03 3.00811E-15 1.86347E-01
 -1      8525-6.65307E-03 3.73987E-15-3.81154E-01
 -1      8527-6.65307E-03 6.54017E-15 3.81154E-01
 -1      8528-6.44569E-03 3.75294E-15-3.69274E-01
 -1      8530-6.44569E-03 2.05862E-15 3.69274E-01
 -1      8531-6.80367E-03-5.48503E-15-3.89782E-01
 -1      8533-6.80367E-03-4.79457E-15 3.89782E-01
 -1      8534-3.07018E-03 5.18247E-17-1.75890E-01
 -1      8536-3.07018E-03 8.57097E-16 1.75890E-01
 -1      8537-6.26215E-03 2.93523E-16-3.58758E-01
 -1      8539-6.26215E-03 8.34142E-16 3.58758E-01
 -1      8540-6.09450E-03 1.12375E-14-3.49154E-01
 -1      8542-6.09450E-03 1.04090E-14 3.49154E-01
 -1      8543-6.38100E-03 8.49830E-15-3.65567E-01
 -1      8545-6.38100E-03 8.46585E-15 3.65567E-01
 -1      8546-3.00900E-03 8.79392E-16-1.72385E-01
 -1      8548-3.00900E-03 1.48367E-15 1.72385E-01
 -1      8549-6.03368E-03 1.81973E-15-3.45669E-01
 -1      8551-6.03368E-03 5.47276E-15 3.45669E-01
 -1      8552-5.87281E-03 6.49873E-15-3.36453E-01
 -1      8554-5.87281E-03 3.65991E-15 3.36453E-01
 -1      8555-6.04788E-03 3.82357E-15-3.46483E-01
 -1      8557-6.04788E-03 3.03702E-15 3.46483E-01
 -1      8558-2.75413E-03 3.15380E-15-1.57784E-01
 -1      8560-2.75413E-03 3.84551E-15 1.57784E-01
 -1      8561-5.61829E-03-9.18469E-15-3.21872E-01
 -1      8563-5.61829E-03-8.43504E-15 3.21872E-01
 -1      8564-5.46429E-03 2.62281E-15-3.13049E-01
 -1      8566-5.46429E-03 1.35200E-15 3.13049E-01
 -1      8567-5.73002E-03-3.81081E-15-3.28272E-01
 -1      8569-5.73002E-03-3.25181E-15 3.28272E-01
 -1      8570-2.62174E-03 6.31084E-15-1.50199E-01
 -1      8572-2.62174E-03 6.99712E-15 1.50199E-01
 -1      8573-5.33126E-03-9.75696E-16-3.05428E-01
 -1      8575-5.33126E-03-4.33061E-16 3.05428E-01
 -1      8576-5.20289E-03-8.25500E-16-2.98073E-01
 -1      8578-5.20289E-03 1.48749E-16 2.98073E-01
 -1      8579-5.41514E-03 1.61590E-15-3.10233E-01
 -1      8581-5.41514E-03 1.46202E-15 3.10233E-01
 -1      8582-2.49982E-03-2.75873E-15-1.43215E-01
 -1      8584-2.49982E-03-2.94665E-15 1.43215E-01
 -1      8585-5.08044E-03 6.26675E-16-2.91058E-01
 -1      8587-5.08044E-03 2.68205E-15 2.91058E-01
 -1      8588-4.97337E-03 6.03947E-15-2.84924E-01
 -1      8590-4.97337E-03 6.41170E-15 2.84924E-01
 -1      8591-5.15696E-03-1.77544E-15-2.95442E-01
 -1      8593-5.15696E-03-2.00331E-15 2.95442E-01
 -1      8594-2.47441E-03 2.73494E-15-1.41759E-01
 -1      8596-2.47441E-03 1.91204E-15 1.41759E-01
 -1      8597-4.94823E-03-3.90490E-15-2.83484E-01
 -1      8599-4.94823E-03-4.76217E-15 2.83484E-01
 -1      8600-4.84179E-03 3.31652E-15-2.77386E-01
 -1      8602-4.84179E-03 3.49789E-15 2.77386E-01
 -1      8603-4.94542E-03-7.83068E-16-2.83323E-01
 -1      8605-4.94542E-03 1.72165E-15 2.83323E-01
 -1      8606-2.28603E-03-1.84974E-15-1.30967E-01
 -1      8608-2.28603E-03-1.19298E-15 1.30967E-01
 -1      8609-4.65362E-03-9.47256E-15-2.66606E-01
 -1      8611-4.65362E-03-6.98597E-15 2.66606E-01
 -1      8612-4.54921E-03-1.22367E-15-2.60624E-01
 -1      8614-4.54921E-03-1.63917E-15 2.60624E-01
 -1      8615-4.73517E-03 2.83430E-15-2.71278E-01
 -1      8617-4.73517E-03 3.30513E-15 2.71278E-01
 -1      8618-2.19438E-03 3.19870E-15-1.25716E-01
 -1      8620-2.19438E-03 3.30400E-15 1.25716E-01
 -1      8621-4.45705E-03-4.65830E-15-2.55344E-01
 -1      8623-4.45705E-03-4.54276E-15 2.55344E-01
 -1      8624-4.37408E-03-1.42501E-15-2.50591E-01
 -1      8626-4.37408E-03-2.16501E-15 2.50591E-01
 -1      8627-4.52128E-03-5.93038E-15-2.59024E-01
 -1      8629-4.52128E-03-5.30191E-15 2.59024E-01
 -1      8630-2.18543E-03-1.13255E-15-1.25203E-01
 -1      8632-2.18543E-03-1.14640E-15 1.25203E-01
 -1      8633-4.36530E-03-2.62399E-15-2.50088E-01
 -1      8635-4.36530E-03-5.63178E-15 2.50088E-01
 -1      8636-4.28263E-03-3.87895E-15-2.45352E-01
 -1      8638-4.28263E-03-6.65966E-15 2.45352E-01
 -1      8639-4.35744E-03 3.62902E-15-2.49637E-01
 -1      8641-4.35744E-03 6.06867E-15 2.49637E-01
 -1      8642-2.03051E-03 5.68601E-15-1.16328E-01
 -1      8644-2.03051E-03 3.89381E-15 1.16328E-01
 -1      8645-4.12786E-03-1.54078E-16-2.36485E-01
 -1      8647-4.12786E-03 3.77900E-16 2.36485E-01
 -1      8648-4.04516E-03-6.64303E-15-2.31747E-01
 -1      8650-4.04516E-03-3.68862E-15 2.31747E-01
 -1      8651-4.19418E-03-4.24449E-15-2.40284E-01
 -1      8653-4.19418E-03-5.32028E-15 2.40284E-01
 -1      8654-1.95924E-03 6.92513E-16-1.12245E-01
 -1      8656-1.95924E-03 1.32125E-15 1.12245E-01
 -1      8657-3.97351E-03-4.36994E-15-2.27642E-01
 -1      8659-3.97351E-03-5.02108E-15 2.27642E-01
 -1      8660-3.90853E-03-1.12265E-15-2.23919E-01
 -1      8662-3.90853E-03-9.06242E-18 2.23919E-01
 -1      8663-4.02470E-03-1.18709E-14-2.30575E-01
 -1      8665-4.02470E-03-1.22722E-14 2.30575E-01
 -1      8666-1.96090E-03 1.43301E-15-1.12340E-01
 -1      8668-1.96090E-03 2.17129E-15 1.12340E-01
 -1      8669-3.91034E-03 2.55466E-15-2.24023E-01
 -1      8671-3.91034E-03 1.91421E-15 2.24023E-01
 -1      8672-3.84489E-03 1.88305E-15-2.20274E-01
 -1      8674-3.84489E-03 1.49552E-15 2.20274E-01
 -1      8675-3.89707E-03-4.18898E-15-2.23263E-01
 -1      8677-3.89707E-03-4.17030E-15 2.23263E-01
 -1      8678-1.83044E-03-4.94439E-15-1.04866E-01
 -1      8680-1.83044E-03-4.44313E-15 1.04866E-01
 -1      8681-3.71459E-03 4.95539E-15-2.12809E-01
 -1      8683-3.71459E-03 4.94191E-15 2.12809E-01
 -1      8684-3.64811E-03 6.13155E-15-2.09000E-01
 -1      8686-3.64811E-03 5.33826E-15 2.09000E-01
 -1      8687-3.76800E-03 4.55515E-16-2.15868E-01
 -1      8689-3.76800E-03-1.78670E-15 2.15868E-01
 -1      8690-1.77423E-03 1.13460E-15-1.01646E-01
 -1      8692-1.77423E-03 1.55596E-16 1.01646E-01
 -1      8693-3.59163E-03 3.07020E-15-2.05764E-01
 -1      8695-3.59163E-03 6.02927E-15 2.05764E-01
 -1      8696-3.54145E-03 5.67893E-15-2.02889E-01
 -1      8698-3.54145E-03 4.76903E-15 2.02889E-01
 -1      8699-3.63138E-03-1.00099E-15-2.08041E-01
 -1      8701-3.63138E-03-2.64534E-15 2.08041E-01
 -1      8702-1.78479E-03 2.31590E-15-1.02250E-01
 -1      8704-1.78479E-03 2.38304E-15 1.02250E-01
 -1      8705-3.55217E-03 2.28211E-15-2.03504E-01
 -1      8707-3.55217E-03 5.26638E-15 2.03504E-01
 -1      8708-3.50424E-03-7.21594E-15-2.00758E-01
 -1      8710-3.50424E-03-7.74848E-15 2.00758E-01
 -1      8711-3.53241E-03 8.27092E-17-2.02372E-01
 -1      8713-3.53241E-03 3.46961E-16 2.02372E-01
 -1      8714-1.67699E-03 1.50308E-15-9.60747E-02
 -1      8716-1.67699E-03 2.53240E-15 9.60747E-02
 -1      8717-3.39657E-03-5.69835E-15-1.94589E-01
 -1      8719-3.39657E-03-4.96570E-15 1.94589E-01
 -1      8720-3.35171E-03 1.55579E-15-1.92019E-01
 -1      8722-3.35171E-03-3.47381E-16 1.92019E-01
 -1      8723-3.43618E-03-1.85098E-15-1.96859E-01
 -1      8725-3.43618E-03-2.12691E-15 1.96859E-01
 -1      8726-1.64057E-03-3.46376E-15-9.39882E-02
 -1      8728-1.64057E-03-3.76866E-15 9.39882E-02
 -1      8729-3.31506E-03 1.61606E-15-1.89919E-01
 -1      8731-3.31506E-03-2.80224E-16 1.89919E-01
 -1      8732-3.29374E-03-4.84045E-15-1.88698E-01
 -1      8734-3.29374E-03-6.23707E-15 1.88698E-01
 -1      8735-3.34067E-03-2.85752E-16-1.91387E-01
 -1      8737-3.34067E-03 1.25099E-15 1.91387E-01
 -1      8738-1.67368E-03 5.52909E-17-9.58848E-02
 -1      8740-1.67368E-03 8.01742E-16 9.58848E-02
 -1      8741-3.32689E-03-8.27078E-15-1.90598E-01
 -1      8743-3.32689E-03-6.88006E-15 1.90598E-01
 -1      8744-3.32404E-03-9.14595E-15-1.90434E-01
 -1      8746-3.32404E-03-9.42085E-15 1.90434E-01
 -1      8747-3.29491E-03 4.83197E-15-1.88765E-01
 -1      8749-3.29491E-03 4.86106E-15 1.88765E-01
 -1      8750-1.60744E-03 2.81182E-15-9.20900E-02
 -1      8752-1.60744E-03 2.96489E-15 9.20900E-02
 -1      8753-3.25767E-03 1.16244E-15-1.86632E-01
 -1      8755-3.25767E-03 1.56767E-15 1.86632E-01
 -1      8756-3.28120E-03-1.63184E-15-1.87980E-01
 -1      8758-3.28120E-03-2.76196E-15 1.87980E-01
 -1      8759-3.27876E-03 1.33057E-15-1.87840E-01
 -1      8761-3.27876E-03 6.51530E-17 1.87840E-01
 -1      8762-1.62812E-03-2.41582E-15-9.32752E-02
 -1      8764-1.62812E-03-1.65096E-15 9.32752E-02
 -1      8765-3.30123E-03 3.27020E-16-1.89128E-01
 -1      8767-3.30123E-03 2.28406E-15 1.89128E-01
 -1      8768-3.36125E-03-2.36662E-15-1.92566E-01
 -1      8770-3.36125E-03-1.26157E-15 1.92566E-01
 -1      8771-3.30600E-03 9.46873E-16-1.89400E-01
 -1      8773-3.30600E-03 1.60790E-15 1.89400E-01
 -1      8774-1.72720E-03 2.30365E-15-9.89510E-02
 -1      8776-1.72720E-03 1.40961E-15 9.89510E-02
 -1      8777-3.45967E-03 3.59684E-15-1.98204E-01
 -1      8779-3.45967E-03 4.43966E-15 1.98204E-01
 -1      8780-3.39238E-03-5.73700E-15-1.94349E-01
 -1      8782-3.39238E-03-5.16040E-15 1.94349E-01
 -1      8783-3.44122E-03 3.13704E-15-1.97147E-01
 -1      8785-3.44122E-03 1.71657E-15 1.97147E-01
 -1      8786-1.56173E-03 1.32961E-15-8.94712E-02
 -1      8788-1.56173E-03 2.10254E-15 8.94712E-02
 -1      8789-3.22670E-03-7.03756E-15-1.84857E-01
 -1      8791-3.22670E-03-6.09690E-15 1.84857E-01
 -1      8792-2.94699E-03-1.47054E-15-1.68833E-01
 -1      8794-2.94699E-03-1.09920E-16 1.68833E-01
 -1      8795-3.59366E-03 4.85465E-17-2.05881E-01
 -1      8797-3.59366E-03-1.21604E-15 2.05881E-01
 -1      8798-1.29794E-03-1.20666E-15-7.43589E-02
 -1      8800-1.29794E-03-1.85394E-15 7.43589E-02
 -1      8801-2.68370E-03 3.24145E-15-1.53749E-01
 -1      8803-2.68370E-03 9.78192E-16 1.53749E-01
 -1      8804-2.24442E-03 5.17821E-15-1.28583E-01
 -1      8806-2.24442E-03 5.49380E-15 1.28583E-01
 -1      8807-1.98291E-03 2.60260E-15-1.13601E-01
 -1      8809-1.98291E-03 4.56073E-15 1.13601E-01
 -1      8810-2.82050E-03 1.71905E-15-1.61586E-01
 -1      8812-2.82050E-03-1.74354E-15 1.61586E-01
 -1      8813 5.70465E-01 4.99591E-16-6.49711E-01
 -1      8815 5.70465E-01 1.13642E-15 6.49711E-01
 -1      8816-2.22590E-02 5.16989E-16-1.27521E+00
 -1      8818-2.22590E-02 1.12816E-15 1.27521E+00
 -1      8819-2.20727E-02-4.64780E-15-1.26455E+00
 -1      8821-2.20727E-02-6.31956E-15 1.26455E+00
 -1      8822 5.70262E-01 2.41390E-15-6.61337E-01
 -1      8824 5.70262E-01 1.88287E-15 6.61337E-01
 -1      8825-2.23536E-02 2.41942E-15-1.28063E+00
 -1      8827-2.23536E-02 4.94186E-15 1.28063E+00
 -1      8828-2.24654E-02-4.14592E-15-1.28704E+00
 -1      8830-2.24654E-02-1.42667E-15 1.28704E+00
 -1      8831 5.70370E-01 2.21266E-16-6.55182E-01
 -1      8833 5.70370E-01 1.81463E-16 6.55182E-01
 -1      8834-2.19872E-02-3.03672E-15-1.25965E+00
 -1      8836-2.19872E-02-3.09080E-15 1.25965E+00
 -1      8837-2.21207E-02 4.52917E-15-1.26729E+00
 -1      8839-2.21207E-02 5.54334E-15 1.26729E+00
 -1      8840 5.70557E-01 2.57358E-16-6.44474E-01
 -1      8842 5.70557E-01 3.42253E-16 6.44474E-01
 -1      8843-2.16006E-02 4.83438E-15-1.23750E+00
 -1      8845-2.16006E-02 6.37354E-15 1.23750E+00
 -1      8846-2.16884E-02 4.63048E-16-1.24253E+00
 -1      8848-2.16884E-02-5.06085E-16 1.24253E+00
 -1      8849 5.70649E-01 6.54028E-16-6.39196E-01
 -1      8851 5.70649E-01 1.32560E-15 6.39196E-01
 -1      8852-2.14307E-02-7.77879E-15-1.22776E+00
 -1      8854-2.14307E-02-7.15613E-15 1.22776E+00
 -1      8855-2.14562E-02 4.02155E-15-1.22922E+00
 -1      8857-2.14562E-02 5.65808E-15 1.22922E+00
 -1      8858 5.70658E-01 2.50971E-15-6.38653E-01
 -1      8860 5.70658E-01 2.15228E-15 6.38653E-01
 -1      8861-2.14151E-02 2.24714E-15-1.22687E+00
 -1      8863-2.14151E-02 3.06830E-15 1.22687E+00
 -1      8864-2.14109E-02 1.43436E-15-1.22663E+00
 -1      8866-2.14109E-02-1.50433E-15 1.22663E+00
 -1      8867 5.70651E-01 1.21567E-16-6.39053E-01
 -1      8869 5.70651E-01 7.03897E-16 6.39053E-01
 -1      8870-2.14200E-02-5.62087E-16-1.22715E+00
 -1      8872-2.14200E-02-3.61171E-16 1.22715E+00
 -1      8873-2.14231E-02-2.05241E-15-1.22733E+00
 -1      8875-2.14231E-02-1.65435E-15 1.22733E+00
 -1      8876 5.70664E-01 1.70420E-16-6.38318E-01
 -1      8878 5.70664E-01 6.82716E-16 6.38318E-01
 -1      8879-2.13670E-02-1.70653E-15-1.22412E+00
 -1      8881-2.13670E-02-2.54815E-15 1.22412E+00
 -1      8882-2.13876E-02 1.54576E-15-1.22530E+00
 -1      8884-2.13876E-02 1.58307E-15 1.22530E+00
 -1      8885 5.70678E-01 2.17429E-15-6.37502E-01
 -1      8887 5.70678E-01 2.25110E-15 6.37502E-01
 -1      8888-2.13446E-02-1.06164E-16-1.22283E+00
 -1      8890-2.13446E-02 1.32382E-15 1.22283E+00
 -1      8891-2.13271E-02 3.00135E-15-1.22183E+00
 -1      8893-2.13271E-02 2.42871E-15 1.22183E+00
 -1      8894 5.70519E-01 1.40009E-15-6.46626E-01
 -1      8896 5.70519E-01 1.76701E-15 6.46626E-01
 -1      8897-2.15786E-02 1.00922E-15-1.23623E+00
 -1      8899-2.15786E-02 6.64564E-16 1.23623E+00
 -1      8900-2.15147E-02 4.20531E-15-1.23257E+00
 -1      8902-2.15147E-02 4.17889E-15 1.23257E+00
 -1      8903 5.70226E-01 5.73157E-16-6.63423E-01
 -1      8905 5.70226E-01-5.86931E-17 6.63423E-01
 -1      8906-2.18158E-02 4.49629E-15-1.24983E+00
 -1      8908-2.18158E-02 6.08370E-15 1.24983E+00
 -1      8909-2.19195E-02 2.01711E-15-1.25577E+00
 -1      8911-2.19195E-02 2.69985E-15 1.25577E+00
 -1      8912-9.99439E-03-8.79721E-16-5.72578E-01
 -1      8914-9.99439E-03-6.94012E-16 5.72578E-01
 -1      8915-1.03440E-02-2.55693E-15-5.92605E-01
 -1      8917-1.03440E-02-2.52279E-15 5.92605E-01
 -1      8918-4.83789E-03-4.34003E-05-2.77163E-01
 -1      8920-4.83789E-03-4.34003E-05 2.77163E-01
 -1      8921-9.52720E-03 3.85316E-15-5.45813E-01
 -1      8923-9.52720E-03 3.35854E-15 5.45813E-01
 -1      8924-1.91834E-02 2.42241E-16-1.09902E+00
 -1      8926-1.91834E-02 8.64806E-16 1.09902E+00
 -1      8927-1.97486E-02-5.34950E-15-1.13140E+00
 -1      8929-1.97486E-02-3.31171E-15 1.13140E+00
 -1      8930-1.79025E-02 2.86760E-16-1.02563E+00
 -1      8932-1.79025E-02 6.00749E-16 1.02563E+00
 -1      8933-1.56763E-02 4.98563E-15-8.98095E-01
 -1      8935-1.56763E-02 4.17094E-15 8.98095E-01
 -1      8936-6.95930E-03-9.17120E-05-3.98698E-01
 -1      8938-6.95930E-03-9.17120E-05 3.98698E-01
 -1      8939-1.34030E-02-3.38476E-15-7.67859E-01
 -1      8941-1.34030E-02-4.17829E-15 7.67859E-01
 -1      8942-1.29808E-02-1.17078E-15-7.43670E-01
 -1      8944-1.29808E-02-2.83049E-16 7.43670E-01
 -1      8945-5.79583E-03-6.04352E-05-3.32043E-01
 -1      8947-5.79583E-03-6.04352E-05 3.32043E-01
 -1      8948-1.14229E-02 1.30568E-15-6.54418E-01
 -1      8950-1.14229E-02 6.53996E-16 6.54418E-01
 -1      8951-1.18046E-02 4.04152E-15-6.76287E-01
 -1      8953-1.18046E-02 4.72774E-15 6.76287E-01
 -1      8954-9.36250E-03 3.11343E-15-5.36377E-01
 -1      8956-9.36250E-03 4.58110E-15 5.36377E-01
 -1      8957-4.21848E-03-3.50282E-05-2.41676E-01
 -1      8959-4.21848E-03-3.50282E-05 2.41676E-01
 -1      8960-8.18782E-03-2.68976E-15-4.69080E-01
 -1      8962-8.18782E-03-3.18076E-15 4.69080E-01
 -1      8963-8.52631E-03-6.55818E-15-4.88472E-01
 -1      8965-8.52631E-03-5.67621E-15 4.88472E-01
 -1      8966-3.52816E-03-2.52307E-05-2.02128E-01
 -1      8968-3.52816E-03-2.52307E-05 2.02128E-01
 -1      8969-6.98231E-03 2.82844E-15-4.00016E-01
 -1      8971-6.98231E-03 2.05553E-15 4.00016E-01
 -1      8972-7.20946E-03 4.39412E-15-4.13029E-01
 -1      8974-7.20946E-03 4.36796E-15 4.13029E-01
 -1      8975-3.10686E-03-1.98473E-05-1.77992E-01
 -1      8977-3.10686E-03-1.98473E-05 1.77992E-01
 -1      8978-6.15111E-03 2.19998E-15-3.52397E-01
 -1      8980-6.15111E-03 1.42301E-15 3.52397E-01
 -1      8981-6.34740E-03 5.05179E-15-3.63642E-01
 -1      8983-6.34740E-03 5.09071E-15 3.63642E-01
 -1      8984-2.87277E-03-1.70405E-05-1.64581E-01
 -1      8986-2.87277E-03-1.70405E-05 1.64581E-01
 -1      8987-5.60236E-03-3.53828E-15-3.20959E-01
 -1      8989-5.60236E-03-3.89520E-15 3.20959E-01
 -1      8990-5.75819E-03-1.02887E-15-3.29887E-01
 -1      8992-5.75819E-03-8.43835E-16 3.29887E-01
 -1      8993-2.50356E-03-1.28631E-05-1.43429E-01
 -1      8995-2.50356E-03-1.28631E-05 1.43429E-01
 -1      8996-4.96512E-03-7.52487E-16-2.84452E-01
 -1      8998-4.96512E-03-8.85335E-17 2.84452E-01
 -1      8999-5.08698E-03 6.68422E-15-2.91433E-01
 -1      9001-5.08698E-03 4.85999E-15 2.91433E-01
 -1      9002-2.36300E-03-1.14520E-05-1.35376E-01
 -1      9004-2.36300E-03-1.14520E-05 1.35376E-01
 -1      9005-4.62071E-03 1.54123E-15-2.64720E-01
 -1      9007-4.62071E-03 1.45158E-15 2.64720E-01
 -1      9008-4.72356E-03-2.13782E-15-2.70613E-01
 -1      9010-4.72356E-03-2.39213E-15 2.70613E-01
 -1      9011-2.09658E-03-8.91338E-06-1.20113E-01
 -1      9013-2.09658E-03-8.91338E-06 1.20113E-01
 -1      9014-4.17887E-03-4.53727E-16-2.39407E-01
 -1      9016-4.17887E-03-4.97952E-16 2.39407E-01
 -1      9017-4.25575E-03 6.19936E-15-2.43812E-01
 -1      9019-4.25575E-03 7.34112E-15 2.43812E-01
 -1      9020-1.94246E-03-7.51695E-06-1.11283E-01
 -1      9022-1.94246E-03-7.51695E-06 1.11283E-01
 -1      9023-3.87159E-03-1.73276E-15-2.21803E-01
 -1      9025-3.87159E-03-1.73677E-15 2.21803E-01
 -1      9026-3.94713E-03 6.26898E-15-2.26131E-01
 -1      9028-3.94713E-03 3.82193E-15 2.26131E-01
 -1      9029-1.88303E-03-6.86200E-06-1.07879E-01
 -1      9031-1.88303E-03-6.86200E-06 1.07879E-01
 -1      9032-3.69860E-03-1.78343E-15-2.11893E-01
 -1      9034-3.69860E-03-6.69586E-16 2.11893E-01
 -1      9035-3.75719E-03 2.74076E-15-2.15249E-01
 -1      9037-3.75719E-03 2.75245E-15 2.15249E-01
 -1      9038-1.71623E-03-5.48804E-06-9.83226E-02
 -1      9040-1.71623E-03-5.48804E-06 9.83226E-02
 -1      9041-3.43372E-03-2.01075E-15-1.96718E-01
 -1      9043-3.43372E-03-2.41036E-15 1.96718E-01
 -1      9044-3.47718E-03-1.05467E-14-1.99207E-01
 -1      9046-3.47718E-03-8.55114E-15 1.99207E-01
 -1      9047-1.62559E-03-4.74699E-06-9.31300E-02
 -1      9049-1.62559E-03-4.74699E-06 9.31300E-02
 -1      9050-3.23690E-03-2.07844E-15-1.85442E-01
 -1      9052-3.23690E-03 3.66941E-16 1.85442E-01
 -1      9053-3.29701E-03 6.97996E-15-1.88886E-01
 -1      9055-3.29701E-03 5.22614E-15 1.88886E-01
 -1      9056-1.56098E-03-4.42595E-06-8.94285E-02
 -1      9058-1.56098E-03-4.42595E-06 8.94285E-02
 -1      9059-3.02037E-03-4.26488E-15-1.73037E-01
 -1      9061-3.02037E-03-5.49572E-15 1.73037E-01
 -1      9062-3.10884E-03 5.45331E-15-1.78105E-01
 -1      9064-3.10884E-03 3.87504E-15 1.78105E-01
 -1      9065-1.37167E-03-3.52391E-06-7.85832E-02
 -1      9067-1.37167E-03-3.52391E-06 7.85832E-02
 -1      9068-2.79030E-03 6.50947E-15-1.59856E-01
 -1      9070-2.79030E-03 6.57904E-15 1.59856E-01
 -1      9071-2.77518E-03-3.83478E-15-1.58990E-01
 -1      9073-2.77518E-03-1.89274E-15 1.58990E-01
 -1      9074-1.47063E-03-3.49598E-06-8.42521E-02
 -1      9076-1.47063E-03-3.49598E-06 8.42521E-02
 -1      9077-3.01072E-03-4.33080E-15-1.72484E-01
 -1      9079-3.01072E-03-5.53391E-15 1.72484E-01
 -1      9080-2.97594E-03 1.14422E-14-1.70491E-01
 -1      9082-2.97594E-03 1.11333E-14 1.70491E-01
 -1      9083-3.55546E-03-5.32569E-15-2.03692E-01
 -1      9085-3.55546E-03-5.57964E-15 2.03692E-01
 -1      9086-1.41509E-03 2.61213E-15-8.10704E-02
 -1      9088-1.41509E-03 4.19332E-15 8.10704E-02
 -1      9089-2.80949E-03-1.30213E-15-1.60956E-01
 -1      9091-2.80949E-03-2.22731E-15 1.60956E-01
 -1      9092-2.64739E-03 1.91891E-15-1.51669E-01
 -1      9094-2.64739E-03 2.48761E-15 1.51669E-01
 -1      9095-1.34446E-03-1.66536E-15-7.70243E-02
 -1      9097-1.34446E-03 5.14221E-16 7.70243E-02
 -1      9098-2.68951E-03 8.46828E-15-1.54082E-01
 -1      9100-2.68951E-03 8.91170E-15 1.54082E-01
 -1      9101-2.71690E-03-4.31150E-15-1.55651E-01
 -1      9103-2.71690E-03-5.30559E-15 1.55651E-01
 -1      9104-1.34336E-03-3.92969E-15-7.69611E-02
 -1      9106-1.34336E-03-1.93545E-15 7.69611E-02
 -1      9107-2.68753E-03 2.69436E-15-1.53968E-01
 -1      9109-2.68753E-03 4.76536E-15 1.53968E-01
 -1      9110-2.68176E-03 8.56813E-15-1.53638E-01
 -1      9112-2.68176E-03 8.71454E-15 1.53638E-01
 -1      9113-1.35522E-03 2.32634E-15-7.76405E-02
 -1      9115-1.35522E-03 9.86573E-16 7.76405E-02
 -1      9116-2.71725E-03-1.44310E-14-1.55671E-01
 -1      9118-2.71725E-03-1.45203E-14 1.55671E-01
 -1      9119-2.71046E-03-4.22133E-15-1.55282E-01
 -1      9121-2.71046E-03-4.82712E-15 1.55282E-01
 -1      9122-1.35621E-03-4.16962E-15-7.76973E-02
 -1      9124-1.35621E-03-4.10272E-15 7.76973E-02
 -1      9125-2.72405E-03-6.87685E-15-1.56061E-01
 -1      9127-2.72405E-03-7.79965E-15 1.56061E-01
 -1      9128-2.72268E-03-6.25034E-15-1.55982E-01
 -1      9130-2.72268E-03-3.45354E-15 1.55982E-01
 -1      9131-1.35355E-03-4.51920E-15-7.75448E-02
 -1      9133-1.35355E-03-5.87264E-15 7.75448E-02
 -1      9134-2.72063E-03 2.57992E-15-1.55865E-01
 -1      9136-2.72063E-03 4.31998E-15 1.55865E-01
 -1      9137-2.72129E-03 5.17221E-15-1.55902E-01
 -1      9139-2.72129E-03 4.25818E-15 1.55902E-01
 -1      9140-1.35272E-03 5.79434E-15-7.74971E-02
 -1      9142-1.35272E-03 3.48788E-15 7.74971E-02
 -1      9143-2.71716E-03-2.78332E-15-1.55666E-01
 -1      9145-2.71716E-03-6.90883E-16 1.55666E-01
 -1      9146-2.71865E-03 5.85776E-15-1.55751E-01
 -1      9148-2.71865E-03 5.14363E-15 1.55751E-01
 -1      9149-1.34860E-03-2.13479E-15-7.72615E-02
 -1      9151-1.34860E-03-1.22244E-15 7.72615E-02
 -1      9152-2.70802E-03 1.16240E-15-1.55142E-01
 -1      9154-2.70802E-03 5.15942E-16 1.55142E-01
 -1      9155-2.71039E-03-2.35726E-15-1.55278E-01
 -1      9157-2.71039E-03-1.13520E-15 1.55278E-01
 -1      9158-1.34062E-03-9.89087E-16-7.68043E-02
 -1      9160-1.34062E-03-3.38228E-15 7.68043E-02
 -1      9161-2.70582E-03-2.89372E-15-1.55016E-01
 -1      9163-2.70582E-03-2.94955E-15 1.55016E-01
 -1      9164-2.69940E-03-5.48688E-15-1.54648E-01
 -1      9166-2.69940E-03-3.55023E-15 1.54648E-01
 -1      9167-1.35971E-03-4.82634E-15-7.78978E-02
 -1      9169-1.35971E-03-5.26316E-15 7.78978E-02
 -1      9170-2.77177E-03-3.01532E-15-1.58795E-01
 -1      9172-2.77177E-03-5.59988E-15 1.58795E-01
 -1      9173-2.74556E-03 5.00694E-15-1.57293E-01
 -1      9175-2.74556E-03 8.00781E-15 1.57293E-01
 -1      9176-1.36893E-03-1.83005E-15-7.84262E-02
 -1      9178-1.36893E-03-1.91289E-15 7.84262E-02
 -1      9179-2.62858E-03-1.48743E-15-1.50591E-01
 -1      9181-2.62858E-03-9.88183E-16 1.50591E-01
 -1      9182-2.76861E-03-2.95247E-16-1.58614E-01
 -1      9184-2.76861E-03-1.16545E-16 1.58614E-01
 -1      9185-2.11656E-02-2.05707E-16-1.21257E+00
 -1      9187-2.11656E-02-9.87239E-16 1.21257E+00
 -1      9188-2.12465E-02 2.41352E-15-1.21721E+00
 -1      9190-2.12465E-02 2.19853E-15 1.21721E+00
 -1      9191-2.44361E-02-3.22349E-15-1.39994E+00
 -1      9193-2.44361E-02-2.46363E-15 1.39994E+00
 -1      9194-2.13208E-02 5.94652E-16-1.22147E+00
 -1      9196-2.13208E-02-3.96936E-16 1.22147E+00
 -1      9197-2.09177E-02-1.01214E-14-1.19837E+00
 -1      9199-2.09177E-02-1.11227E-14 1.19837E+00
 -1      9200-2.04441E-02-1.03189E-15-1.17124E+00
 -1      9202-2.04441E-02-1.92654E-16 1.17124E+00
 -1      9203-2.01798E-02-3.13179E-15-1.15610E+00
 -1      9205-2.01798E-02-4.07567E-15 1.15610E+00
 -1      9206-2.01258E-02-3.35709E-15-1.15300E+00
 -1      9208-2.01258E-02-2.81278E-15 1.15300E+00
 -1      9209-2.01405E-02 3.14349E-15-1.15385E+00
 -1      9211-2.01405E-02 2.08758E-15 1.15385E+00
 -1      9212-2.01066E-02-6.42850E-15-1.15191E+00
 -1      9214-2.01066E-02-2.86872E-15 1.15191E+00
 -1      9215-1.99939E-02 8.66131E-15-1.14545E+00
 -1      9217-1.99939E-02 7.83618E-15 1.14545E+00
 -1      9218-2.00741E-02 3.45683E-15-1.15005E+00
 -1      9220-2.00741E-02 4.07290E-15 1.15005E+00
 -1      9221-2.02376E-02 5.08648E-16-1.15941E+00
 -1      9223-2.02376E-02-2.55330E-15 1.15941E+00
 -1      9224-1.21480E-02-7.14321E-15-6.95956E-01
 -1      9226-1.21480E-02-6.67527E-15 6.95956E-01
 -1      9227-1.29108E-02-1.22782E-15-7.39657E-01
 -1      9229-1.29108E-02-7.53758E-16 7.39657E-01
 -1      9230-8.60297E-03-5.27638E-17-4.92864E-01
 -1      9232-8.60297E-03 1.16790E-15 4.92864E-01
 -1      9233-7.36260E-03-2.25971E-15-4.21803E-01
 -1      9235-7.36260E-03-1.49693E-15 4.21803E-01
 -1      9236-6.48860E-03 4.00657E-15-3.71732E-01
 -1      9238-6.48860E-03 2.68632E-15 3.71732E-01
 -1      9239-5.77271E-03-2.29870E-15-3.30719E-01
 -1      9241-5.77271E-03-1.93911E-16 3.30719E-01
 -1      9242-5.16650E-03 8.31504E-16-2.95989E-01
 -1      9244-5.16650E-03 3.39338E-15 2.95989E-01
 -1      9245-4.72249E-03 2.42383E-15-2.70551E-01
 -1      9247-4.72249E-03 1.28672E-15 2.70551E-01
 -1      9248-4.31752E-03-5.28679E-15-2.47351E-01
 -1      9250-4.31752E-03-3.56977E-15 2.47351E-01
 -1      9251-4.01104E-03 4.86018E-15-2.29792E-01
 -1      9253-4.01104E-03 4.40115E-15 2.29792E-01
 -1      9254-3.74674E-03-2.70429E-15-2.14651E-01
 -1      9256-3.74674E-03-3.39697E-15 2.14651E-01
 -1      9257-3.51976E-03 2.99378E-15-2.01647E-01
 -1      9259-3.51976E-03 1.50457E-16 2.01647E-01
 -1      9260-3.34779E-03 4.95187E-15-1.91795E-01
 -1      9262-3.34779E-03 8.09409E-15 1.91795E-01
 -1      9263-3.11664E-03 2.43141E-15-1.78552E-01
 -1      9265-3.11664E-03 1.11884E-15 1.78552E-01
 -1      9266-2.76131E-03-4.71423E-15-1.58195E-01
 -1      9268-2.76131E-03-6.73358E-15 1.58195E-01
 -1      9269-3.00920E-03-6.06155E-15-1.72397E-01
 -1      9271-3.00920E-03-7.39897E-15 1.72397E-01
 -1      9272-2.67104E-03-5.19605E-15-1.53024E-01
 -1      9274-2.67104E-03-3.14331E-15 1.53024E-01
 -1      9275-2.73370E-03 3.98453E-15-1.56614E-01
 -1      9277-2.73370E-03 4.96979E-15 1.56614E-01
 -1      9278-2.69025E-03-9.55840E-15-1.54124E-01
 -1      9280-2.69025E-03-8.06499E-15 1.54124E-01
 -1      9281-2.72737E-03-2.58477E-15-1.56251E-01
 -1      9283-2.72737E-03-2.85338E-15 1.56251E-01
 -1      9284-2.74692E-03-1.48549E-15-1.57371E-01
 -1      9286-2.74692E-03-1.62545E-15 1.57371E-01
 -1      9287-2.74575E-03-7.90498E-16-1.57304E-01
 -1      9289-2.74575E-03-2.19403E-15 1.57304E-01
 -1      9290-2.74315E-03 5.71709E-15-1.57155E-01
 -1      9292-2.74315E-03 6.62255E-15 1.57155E-01
 -1      9293-2.73698E-03 1.67940E-14-1.56802E-01
 -1      9295-2.73698E-03 1.43521E-14 1.56802E-01
 -1      9296-2.72652E-03 8.91692E-15-1.56202E-01
 -1      9298-2.72652E-03 4.59219E-15 1.56202E-01
 -1      9299-2.76241E-03-6.20124E-15-1.58258E-01
 -1      9301-2.76241E-03-2.27283E-15 1.58258E-01
 -1      9302-2.86506E-03-9.07137E-15-1.64139E-01
 -1      9304-2.86506E-03-9.53182E-15 1.64139E-01
 -1      9305-2.14854E-02-3.20789E-15-1.23090E+00
 -1      9307-2.14854E-02-3.62044E-15 1.23090E+00
 -1      9308-2.06764E-02-2.86870E-15-1.18455E+00
 -1      9310-2.06764E-02-2.26809E-15 1.18455E+00
 -1      9311-2.02790E-02-7.52081E-15-1.16178E+00
 -1      9313-2.02790E-02-7.72937E-15 1.16178E+00
 -1      9314-2.01393E-02 3.92217E-15-1.15378E+00
 -1      9316-2.01393E-02 3.94338E-15 1.15378E+00
 -1      9317-2.01358E-02-4.47281E-15-1.15358E+00
 -1      9319-2.01358E-02-3.59150E-15 1.15358E+00
 -1      9320-2.01364E-02 1.02159E-15-1.15361E+00
 -1      9322-2.01364E-02 2.12396E-16 1.15361E+00
 -1      9323-2.00673E-02-2.16242E-15-1.14965E+00
 -1      9325-2.00673E-02-1.16890E-15 1.14965E+00
 -1      9326-2.00080E-02-2.70822E-15-1.14626E+00
 -1      9328-2.00080E-02-2.59416E-15 1.14626E+00
 -1      9329-2.02181E-02 1.24201E-15-1.15829E+00
 -1      9331-2.02181E-02 1.38838E-15 1.15829E+00
 -1      9332-2.01035E-02 2.49954E-15-1.15173E+00
 -1      9334-2.01035E-02 9.89060E-16 1.15173E+00
 -1      9335-6.91301E-03 6.16026E-15-3.96046E-01
 -1      9337-6.91301E-03 5.50329E-15 3.96046E-01
 -1      9338-6.08766E-03-4.18542E-15-3.48762E-01
 -1      9340-6.08766E-03-4.26409E-15 3.48762E-01
 -1      9341-5.46543E-03-7.03702E-15-3.13114E-01
 -1      9343-5.46543E-03-5.78787E-15 3.13114E-01
 -1      9344-4.92166E-03-1.67524E-15-2.81962E-01
 -1      9346-4.92166E-03-1.89587E-15 2.81962E-01
 -1      9347-4.51954E-03-8.81173E-16-2.58924E-01
 -1      9349-4.51954E-03 1.47924E-16 2.58924E-01
 -1      9350-4.16559E-03-4.50709E-16-2.38646E-01
 -1      9352-4.16559E-03-1.16061E-15 2.38646E-01
 -1      9353-3.85541E-03 5.74072E-15-2.20876E-01
 -1      9355-3.85541E-03 7.22935E-15 2.20876E-01
 -1      9356-3.63186E-03 2.72210E-15-2.08069E-01
 -1      9358-3.63186E-03 3.00978E-15 2.08069E-01
 -1      9359-3.43638E-03 6.13186E-15-1.96870E-01
 -1      9361-3.43638E-03 5.02407E-15 1.96870E-01
 -1      9362-3.23167E-03 1.29721E-14-1.85142E-01
 -1      9364-3.23167E-03 1.23790E-14 1.85142E-01
 -1      9365-2.94637E-03 1.00941E-14-1.68797E-01
 -1      9367-2.94637E-03 1.27744E-14 1.68797E-01
 -1      9368-2.78020E-03-7.48683E-15-1.59277E-01
 -1      9370-2.78020E-03-5.69275E-15 1.59277E-01
 -1      9371-3.30174E-03 2.31354E-15-1.89157E-01
 -1      9373-3.30174E-03 3.42562E-15 1.89157E-01
 -1      9374-2.68935E-03 4.46434E-15-1.54073E-01
 -1      9376-2.68935E-03 5.97902E-15 1.54073E-01
 -1      9377-2.70738E-03 2.28999E-15-1.55105E-01
 -1      9379-2.70738E-03 1.11343E-15 1.55105E-01
 -1      9380-2.73945E-03 1.28188E-15-1.56943E-01
 -1      9382-2.73945E-03-3.51854E-16 1.56943E-01
 -1      9383-2.74747E-03 5.31387E-15-1.57402E-01
 -1      9385-2.74747E-03 6.38073E-15 1.57402E-01
 -1      9386-2.74500E-03 1.79954E-14-1.57261E-01
 -1      9388-2.74500E-03 1.81502E-14 1.57261E-01
 -1      9389-2.74183E-03 2.36911E-15-1.57080E-01
 -1      9391-2.74183E-03 1.01985E-15 1.57080E-01
 -1      9392-2.73080E-03-2.92359E-15-1.56447E-01
 -1      9394-2.73080E-03-3.69867E-15 1.56447E-01
 -1      9395-2.73149E-03-1.42374E-15-1.56487E-01
 -1      9397-2.73149E-03-2.36381E-15 1.56487E-01
 -1      9398-2.82606E-03 1.45253E-15-1.61905E-01
 -1      9400-2.82606E-03 6.97441E-16 1.61905E-01
 -1      9401-2.62477E-03-6.82274E-15-1.50373E-01
 -1      9403-2.62477E-03-9.00264E-15 1.50373E-01
 -1      9404-1.27250E-02 6.81806E-17-7.29015E-01
 -1      9406-1.27250E-02 1.09496E-15 7.29015E-01
 -1      9407-1.13603E-02-6.25452E-15-6.50831E-01
 -1      9409-1.13603E-02-7.39350E-15 6.50831E-01
 -1      9410-7.94262E-03 5.89687E-15-4.55032E-01
 -1      9412-7.94262E-03 6.58502E-15 4.55032E-01
 -1      9413-2.79600E-03-8.89087E-15-1.60183E-01
 -1      9415-2.79600E-03-1.04630E-14 1.60183E-01
 -1      9416-1.88496E-02 3.91708E-15-1.07990E+00
 -1      9418-1.88496E-02 2.98154E-15 1.07990E+00
 -1      9419-1.94276E-02 4.17508E-15-1.11300E+00
 -1      9421-1.94276E-02 2.16922E-15 1.11300E+00
 -1      9422-1.95655E-02 1.30800E-15-1.12091E+00
 -1      9424-1.95655E-02 2.82638E-15 1.12091E+00
 -1      9425-1.96748E-02 2.83193E-15-1.12717E+00
 -1      9427-1.96748E-02 1.60251E-15 1.12717E+00
 -1      9428-1.98763E-02 2.44418E-15-1.13871E+00
 -1      9430-1.98763E-02 4.19290E-15 1.13871E+00
 -1      9431-1.86761E-02-3.31094E-15-1.06995E+00
 -1      9433-1.86761E-02-2.37611E-15 1.06995E+00
 -1      9434-2.03295E-02-4.53636E-15-1.16468E+00
 -1      9436-2.03295E-02-3.52835E-15 1.16468E+00
 -1      9437-1.88185E-02 4.66255E-15-1.07811E+00
 -1      9439-1.88185E-02 7.13414E-15 1.07811E+00
 -1      9440-1.90701E-02 1.84986E-15-1.09253E+00
 -1      9442-1.90701E-02 8.41108E-16 1.09253E+00
 -1      9443-1.91397E-02 6.95509E-16-1.09652E+00
 -1      9445-1.91397E-02 2.78169E-15 1.09652E+00
 -1      9446-1.89526E-02-2.40435E-15-1.08579E+00
 -1      9448-1.89526E-02-2.74887E-15 1.08579E+00
 -1      9449-1.89656E-02-1.78571E-15-1.08654E+00
 -1      9451-1.89656E-02-3.41519E-15 1.08654E+00
 -1      9452-1.89648E-02-5.76217E-16-1.08649E+00
 -1      9454-1.89648E-02-3.84606E-16 1.08649E+00
 -1      9455-1.89623E-02 1.94913E-16-1.08635E+00
 -1      9457-1.89623E-02 2.87744E-15 1.08635E+00
 -1      9458-1.89642E-02 1.87664E-15-1.08646E+00
 -1      9460-1.89642E-02 3.61822E-16 1.08646E+00
 -1      9461-1.89706E-02 1.29383E-15-1.08682E+00
 -1      9463-1.89706E-02 4.82960E-15 1.08682E+00
 -1      9464-1.88537E-02-3.05741E-15-1.08013E+00
 -1      9466-1.88537E-02-3.24170E-15 1.08013E+00
 -1      9467-1.88956E-02 4.87807E-15-1.08253E+00
 -1      9469-1.88956E-02 3.91585E-15 1.08253E+00
 -1      9470-1.87765E-02 7.12013E-15-1.07570E+00
 -1      9472-1.87765E-02 7.90724E-15 1.07570E+00
 -1      9473-1.87873E-02 8.93344E-15-1.07632E+00
 -1      9475-1.87873E-02 7.52589E-15 1.07632E+00
 -1      9476-1.89534E-02-6.18448E-15-1.08584E+00
 -1      9478-1.89534E-02-5.69381E-15 1.08584E+00
 -1      9479-1.89252E-02 3.01715E-15-1.08422E+00
 -1      9481-1.89252E-02 2.43459E-15 1.08422E+00
 -1      9482-1.89711E-02 8.07327E-16-1.08686E+00
 -1      9484-1.89711E-02 1.49309E-15 1.08686E+00
 -1      9485-1.90997E-02-2.09559E-15-1.09422E+00
 -1      9487-1.90997E-02-2.20657E-15 1.09422E+00
 -1      9488-1.87204E-02 8.65437E-16-1.07249E+00
 -1      9490-1.87204E-02 2.45972E-15 1.07249E+00
 -1      9491-1.20858E-02-1.18641E-14-6.92393E-01
 -1      9493-1.20858E-02-1.16163E-14 6.92393E-01
 -1      9494-1.23947E-02 3.60206E-15-7.10095E-01
 -1      9496-1.23947E-02 3.74965E-15 7.10095E-01
 -1      9497-6.80106E-03 6.42182E-15-3.89633E-01
 -1      9499-6.80106E-03 6.40830E-15 3.89633E-01
 -1      9500-7.01605E-03 3.99917E-16-4.01949E-01
 -1      9502-7.01605E-03 1.07885E-15 4.01949E-01
 -1      9503-1.01315E-02-2.04200E-15-5.80431E-01
 -1      9505-1.01315E-02-2.72724E-15 5.80431E-01
 -1      9506-1.06764E-02 4.58598E-15-6.11648E-01
 -1      9508-1.06764E-02 1.15259E-15 6.11648E-01
 -1      9509-8.42116E-03-2.99999E-15-4.82448E-01
 -1      9511-8.42116E-03-2.36946E-15 4.82448E-01
 -1      9512-8.78674E-03-3.67486E-15-5.03392E-01
 -1      9514-8.78674E-03-3.67170E-15 5.03392E-01
 -1      9515-1.12279E-02-1.00238E-15-6.43245E-01
 -1      9517-1.12279E-02-7.87445E-16 6.43245E-01
 -1      9518-1.16800E-02-7.65023E-15-6.69147E-01
 -1      9520-1.16800E-02-5.77736E-15 6.69147E-01
 -1      9521-1.22580E-02-5.17807E-15-7.02260E-01
 -1      9523-1.22580E-02-5.49916E-15 7.02260E-01
 -1      9524-1.10713E-02-6.38623E-16-6.34274E-01
 -1      9526-1.10713E-02-8.02434E-16 6.34274E-01
 -1      9527-1.46940E-02 5.35627E-16-8.41817E-01
 -1      9529-1.46940E-02 2.70622E-15 8.41817E-01
 -1      9530-1.44287E-02-2.15635E-16-8.26619E-01
 -1      9532-1.44287E-02 4.67858E-16 8.26619E-01
 -1      9533-9.16424E-03 6.20548E-15-5.25019E-01
 -1      9535-9.16424E-03 6.69135E-15 5.25019E-01
 -1      9536-9.61994E-03 7.18984E-15-5.51126E-01
 -1      9538-9.61994E-03 6.30521E-15 5.51126E-01
 -1      9539-9.88570E-03 1.24556E-15-5.66351E-01
 -1      9541-9.88570E-03 1.58552E-15 5.66351E-01
 -1      9542-8.95537E-03 2.44200E-15-5.13053E-01
 -1      9544-8.95537E-03 2.63229E-15 5.13053E-01
 -1      9545-2.83762E-03-2.23428E-15-1.62567E-01
 -1      9547-2.83762E-03-4.22299E-15 1.62567E-01
 -1      9548-3.08319E-03-2.26766E-15-1.76636E-01
 -1      9550-3.08319E-03-3.91605E-15 1.76636E-01
 -1      9551-6.00310E-03-4.19946E-15-3.43917E-01
 -1      9553-6.00310E-03-5.93316E-15 3.43917E-01
 -1      9554-6.18084E-03 2.36943E-15-3.54100E-01
 -1      9556-6.18084E-03 2.89888E-15 3.54100E-01
 -1      9557-5.38879E-03 1.28848E-16-3.08724E-01
 -1      9559-5.38879E-03 2.40083E-15 3.08724E-01
 -1      9560-5.53984E-03-7.10161E-16-3.17377E-01
 -1      9562-5.53984E-03-1.70480E-15 3.17377E-01
 -1      9563-4.86827E-03-2.02888E-15-2.78903E-01
 -1      9565-4.86827E-03 3.62992E-17 2.78903E-01
 -1      9566-4.98347E-03 1.44092E-15-2.85503E-01
 -1      9568-4.98347E-03 2.75450E-15 2.85503E-01
 -1      9569-4.46769E-03-3.49381E-15-2.55954E-01
 -1      9571-4.46769E-03-6.08575E-15 2.55954E-01
 -1      9572-4.56887E-03 8.26272E-16-2.61750E-01
 -1      9574-4.56887E-03 9.19104E-16 2.61750E-01
 -1      9575-4.12621E-03-1.98657E-15-2.36390E-01
 -1      9577-4.12621E-03-3.17759E-15 2.36390E-01
 -1      9578-4.20226E-03 5.22696E-16-2.40748E-01
 -1      9580-4.20226E-03 2.74009E-15 2.40748E-01
 -1      9581-3.82659E-03-2.63776E-15-2.19225E-01
 -1      9583-3.82659E-03-2.25855E-15 2.19225E-01
 -1      9584-3.89252E-03 1.64029E-15-2.23003E-01
 -1      9586-3.89252E-03 1.83251E-15 2.23003E-01
 -1      9587-3.60656E-03-3.58054E-16-2.06620E-01
 -1      9589-3.60656E-03 3.19895E-15 2.06620E-01
 -1      9590-3.66366E-03 4.13512E-15-2.09891E-01
 -1      9592-3.66366E-03 2.26613E-15 2.09891E-01
 -1      9593-3.42037E-03-4.42356E-15-1.95953E-01
 -1      9595-3.42037E-03-4.43425E-15 1.95953E-01
 -1      9596-3.46158E-03 5.37600E-15-1.98314E-01
 -1      9598-3.46158E-03 6.31687E-15 1.98314E-01
 -1      9599-3.21251E-03-2.22653E-15-1.84045E-01
 -1      9601-3.21251E-03-1.44365E-15 1.84045E-01
 -1      9602-3.27487E-03-5.59022E-15-1.87617E-01
 -1      9604-3.27487E-03-5.58709E-15 1.87617E-01
 -1      9605-2.86028E-03 1.58410E-15-1.63865E-01
 -1      9607-2.86028E-03 2.17758E-15 1.63865E-01
 -1      9608-2.99453E-03-7.96052E-15-1.71557E-01
 -1      9610-2.99453E-03-1.04235E-14 1.71557E-01
 -1      9611-2.77597E-03-3.69468E-15-1.59035E-01
 -1      9613-2.77597E-03-3.32013E-15 1.59035E-01
 -1      9614-2.70638E-03-1.21141E-16-1.55048E-01
 -1      9616-2.70638E-03-1.65776E-15 1.55048E-01
 -1      9617-3.26224E-03 8.49823E-15-1.86893E-01
 -1      9619-3.26224E-03 7.17437E-15 1.86893E-01
 -1      9620-3.49406E-03 2.38247E-15-2.00175E-01
 -1      9622-3.49406E-03 3.52661E-15 2.00175E-01
 -1      9623-2.68473E-03-1.83390E-15-1.53808E-01
 -1      9625-2.68473E-03-3.83331E-15 1.53808E-01
 -1      9626-2.70597E-03-3.20671E-15-1.55025E-01
 -1      9628-2.70597E-03 1.56254E-16 1.55025E-01
 -1      9629-3.07025E-03-6.43284E-15-1.75895E-01
 -1      9631-3.07025E-03-7.26940E-15 1.75895E-01
 -1      9632-2.72283E-03 6.94475E-15-1.55991E-01
 -1      9634-2.72283E-03 5.16993E-15 1.55991E-01
 -1      9635-2.79643E-03 1.08429E-15-1.60207E-01
 -1      9637-2.79643E-03 3.59009E-15 1.60207E-01
 -1      9638-2.69451E-03 6.51608E-15-1.54369E-01
 -1      9640-2.69451E-03 6.86848E-15 1.54369E-01
 -1      9641-1.64708E-02-1.26079E-15-9.43612E-01
 -1      9643-1.64708E-02-8.60460E-16 9.43612E-01
 -1      9644-2.72956E-03-5.12112E-15-1.56376E-01
 -1      9646-2.72956E-03-7.05062E-15 1.56376E-01
 -1      9647-2.71243E-03 8.55474E-15-1.55395E-01
 -1      9649-2.71243E-03 7.79526E-15 1.55395E-01
 -1      9650-2.76630E-03 6.31908E-15-1.58481E-01
 -1      9652-2.76630E-03 3.99791E-15 1.58481E-01
 -1      9653-2.75797E-03-8.47859E-15-1.58004E-01
 -1      9655-2.75797E-03-8.27371E-15 1.58004E-01
 -1      9656-2.77374E-03 2.12625E-15-1.58907E-01
 -1      9658-2.77374E-03 2.27143E-15 1.58907E-01
 -1      9659-2.77259E-03 8.59391E-15-1.58842E-01
 -1      9661-2.77259E-03 7.21721E-15 1.58842E-01
 -1      9662-2.77056E-03-4.72082E-15-1.58725E-01
 -1      9664-2.77056E-03-3.59423E-15 1.58725E-01
 -1      9665-2.77109E-03 2.19272E-15-1.58755E-01
 -1      9667-2.77109E-03 2.08529E-17 1.58755E-01
 -1      9668-2.76559E-03-1.16842E-14-1.58441E-01
 -1      9670-2.76559E-03-1.17561E-14 1.58441E-01
 -1      9671-2.76806E-03 7.00690E-16-1.58582E-01
 -1      9673-2.76806E-03-7.28648E-16 1.58582E-01
 -1      9674-2.75324E-03 2.43330E-15-1.57733E-01
 -1      9676-2.75324E-03 3.72571E-15 1.57733E-01
 -1      9677-2.75536E-03-4.76191E-15-1.57855E-01
 -1      9679-2.75536E-03-2.44681E-15 1.57855E-01
 -1      9680-2.76434E-03 3.94072E-15-1.58369E-01
 -1      9682-2.76434E-03 1.09041E-15 1.58369E-01
 -1      9683-2.74820E-03 2.57903E-15-1.57444E-01
 -1      9685-2.74820E-03 4.03040E-15 1.57444E-01
 -1      9686-2.93617E-03 8.35089E-15-1.68213E-01
 -1      9688-2.93617E-03 9.79820E-15 1.68213E-01
 -1      9689-2.85728E-03-8.07333E-15-1.63694E-01
 -1      9691-2.85728E-03-7.47907E-15 1.63694E-01
 -1      9692-2.69672E-03-3.24052E-16-1.54495E-01
 -1      9694-2.69672E-03-4.00013E-15 1.54495E-01
 -1      9695-2.87916E-03 7.87873E-15-1.64947E-01
 -1      9697-2.87916E-03 9.54204E-15 1.64947E-01
 -1      9698-1.25309E-02-2.69436E-15-7.17894E-01
 -1      9700-1.25309E-02-3.74900E-15 7.17894E-01
 -1      9701-1.39762E-02-2.27740E-16-8.00697E-01
 -1      9703-1.39762E-02-1.70578E-15 8.00697E-01
 -1      9704-1.43534E-02-2.90678E-15-8.22307E-01
 -1      9706-1.43534E-02-3.17113E-15 8.22307E-01
 -1      9707-1.28453E-02 4.04321E-15-7.35905E-01
 -1      9709-1.28453E-02 4.80342E-15 7.35905E-01
 -1      9710-1.99928E-02-5.07574E-15-1.14538E+00
 -1      9712-1.99928E-02-4.73049E-15 1.14538E+00
 -1      9713-2.01719E-02 2.42599E-15-1.15565E+00
 -1      9715-2.01719E-02 4.23849E-15 1.15565E+00
 -1      9716-1.89984E-02-8.44201E-16-1.08842E+00
 -1      9718-1.89984E-02-2.35510E-15 1.08842E+00
 -1      9719-2.36139E-03 1.54024E-15-1.35284E-01
 -1      9721-2.36139E-03 1.16470E-15 1.35284E-01
 -1      9722-1.79040E-02 4.68790E-15-1.02572E+00
 -1      9724-1.79040E-02 6.03029E-15 1.02572E+00
 -1      9725-2.02190E-02 1.71133E-15-1.15834E+00
 -1      9727-2.02190E-02 3.62245E-16 1.15834E+00
 -1      9728-2.04798E-02-3.80456E-15-1.17329E+00
 -1      9730-2.04798E-02-3.15963E-15 1.17329E+00
 -1      9731-1.94348E-02-4.56495E-16-1.11342E+00
 -1      9733-1.94348E-02-2.29994E-15 1.11342E+00
 -1      9734-1.94464E-02-6.99531E-15-1.11408E+00
 -1      9736-1.94464E-02-6.62691E-15 1.11408E+00
 -1      9737-1.88825E-02-6.35300E-15-1.08178E+00
 -1      9739-1.88825E-02-5.05118E-15 1.08178E+00
 -1      9740-2.02371E-02-1.13637E-14-1.15938E+00
 -1      9742-2.02371E-02-1.10598E-14 1.15938E+00
 -1      9743-1.67080E-02 6.59684E-15-9.57202E-01
 -1      9745-1.67080E-02 7.44789E-15 9.57202E-01
 -1      9746-1.44577E-02-2.72475E-15-8.28281E-01
 -1      9748-1.44577E-02-1.42856E-15 8.28281E-01
 -1      9749-1.71347E-02 1.86036E-15-9.81645E-01
 -1      9751-1.71347E-02 4.59759E-16 9.81645E-01
 -1      9752-1.36259E-02 6.28569E-15-7.80630E-01
 -1      9754-1.36259E-02 5.50388E-15 7.80630E-01
 -1      9755-1.28479E-02 2.07151E-15-7.36057E-01
 -1      9757-1.28479E-02 1.91276E-15 7.36057E-01
 -1      9758-1.40710E-02 1.40020E-15-8.06128E-01
 -1      9760-1.40710E-02 3.93278E-15 8.06128E-01
 -1      9761-1.21896E-02-4.20132E-15-6.98339E-01
 -1      9763-1.21896E-02-1.48439E-15 6.98339E-01
 -1      9764-1.15795E-02-4.58952E-15-6.63389E-01
 -1      9766-1.15795E-02-3.78826E-15 6.63389E-01
 -1      9767-1.24718E-02-8.38352E-15-7.14507E-01
 -1      9769-1.24718E-02-8.27954E-15 7.14507E-01
 -1      9770-1.10235E-02 7.49688E-15-6.31538E-01
 -1      9772-1.10235E-02 8.15323E-15 6.31538E-01
 -1      9773-1.05018E-02 1.08821E-15-6.01649E-01
 -1      9775-1.05018E-02-1.09416E-16 6.01649E-01
 -1      9776-1.12593E-02-6.38958E-15-6.45044E-01
 -1      9778-1.12593E-02-6.30168E-15 6.45044E-01
 -1      9779-1.00078E-02 6.58779E-15-5.73347E-01
 -1      9781-1.00078E-02 8.81372E-15 5.73347E-01
 -1      9782-9.57593E-03 4.72530E-16-5.48605E-01
 -1      9784-9.57593E-03 1.72095E-15 5.48605E-01
 -1      9785-1.02175E-02-1.07708E-15-5.85359E-01
 -1      9787-1.02175E-02-1.19723E-15 5.85359E-01
 -1      9788-9.19924E-03 8.73455E-16-5.27024E-01
 -1      9790-9.19924E-03-2.65963E-15 5.27024E-01
 -1      9791-8.84000E-03 5.01785E-17-5.06443E-01
 -1      9793-8.84000E-03 8.21259E-16 5.06443E-01
 -1      9794-9.34517E-03 3.77713E-15-5.35384E-01
 -1      9796-9.34517E-03 5.56034E-15 5.35384E-01
 -1      9797-8.50484E-03-4.99136E-15-4.87242E-01
 -1      9799-8.50484E-03-3.71074E-15 4.87242E-01
 -1      9800-8.18036E-03 9.86750E-16-4.68653E-01
 -1      9802-8.18036E-03 1.78802E-15 4.68653E-01
 -1      9803-8.61971E-03-5.29625E-15-4.93823E-01
 -1      9805-8.61971E-03-4.05124E-15 4.93823E-01
 -1      9806-7.87114E-03 3.93208E-15-4.50938E-01
 -1      9808-7.87114E-03 4.85947E-15 4.50938E-01
 -1      9809-7.59838E-03-6.27164E-15-4.35311E-01
 -1      9811-7.59838E-03-6.46133E-15 4.35311E-01
 -1      9812-7.98262E-03-1.41641E-15-4.57324E-01
 -1      9814-7.98262E-03-1.18083E-15 4.57324E-01
 -1      9815-7.36215E-03 1.17127E-14-4.21777E-01
 -1      9817-7.36215E-03 1.26928E-14 4.21777E-01
 -1      9818-7.13126E-03 2.31162E-15-4.08549E-01
 -1      9820-7.13126E-03 2.14002E-15 4.08549E-01
 -1      9821-7.44137E-03 2.87290E-15-4.26316E-01
 -1      9823-7.44137E-03 4.16734E-15 4.26316E-01
 -1      9824-6.91070E-03 3.91048E-15-3.95914E-01
 -1      9826-6.91070E-03 5.48317E-15 3.95914E-01
 -1      9827-6.69338E-03 4.32784E-15-3.83463E-01
 -1      9829-6.69338E-03 3.03804E-15 3.83463E-01
 -1      9830-6.97866E-03 4.25792E-15-3.99807E-01
 -1      9832-6.97866E-03 4.87477E-15 3.99807E-01
 -1      9833-6.47954E-03 1.90134E-16-3.71213E-01
 -1      9835-6.47954E-03-3.58060E-17 3.71213E-01
 -1      9836-6.29202E-03-9.97446E-16-3.60470E-01
 -1      9838-6.29202E-03-9.33018E-16 3.60470E-01
 -1      9839-6.55344E-03 2.20557E-15-3.75446E-01
 -1      9841-6.55344E-03 9.69599E-16 3.75446E-01
 -1      9842-6.12769E-03-4.00000E-16-3.51055E-01
 -1      9844-6.12769E-03-1.83988E-16 3.51055E-01
 -1      9845-5.96532E-03-4.42699E-15-3.41753E-01
 -1      9847-5.96532E-03-5.63204E-15 3.41753E-01
 -1      9848-6.17962E-03-2.85650E-15-3.54030E-01
 -1      9850-6.17962E-03 2.49357E-16 3.54030E-01
 -1      9851-5.80664E-03 4.30429E-15-3.32662E-01
 -1      9853-5.80664E-03 5.27051E-15 3.32662E-01
 -1      9854-5.64863E-03-4.38582E-15-3.23610E-01
 -1      9856-5.64863E-03-4.97934E-15 3.23610E-01
 -1      9857-5.85146E-03-6.73608E-15-3.35230E-01
 -1      9859-5.85146E-03-8.77790E-15 3.35230E-01
 -1      9860-5.48867E-03 2.40694E-15-3.14445E-01
 -1      9862-5.48867E-03 3.01910E-15 3.14445E-01
 -1      9863-5.35076E-03-7.23802E-15-3.06545E-01
 -1      9865-5.35076E-03-5.96863E-15 3.06545E-01
 -1      9866-5.54133E-03 1.62524E-15-3.17463E-01
 -1      9868-5.54133E-03 3.75050E-17 3.17463E-01
 -1      9869-5.22141E-03-3.02795E-15-2.99135E-01
 -1      9871-5.22141E-03-1.57026E-15 2.99135E-01
 -1      9872-5.10011E-03-2.11171E-15-2.92185E-01
 -1      9874-5.10011E-03-3.86861E-15 2.92185E-01
 -1      9875-5.26508E-03 3.11712E-15-3.01636E-01
 -1      9877-5.26508E-03 2.57237E-15 3.01636E-01
 -1      9878-4.99625E-03 3.37296E-15-2.86235E-01
 -1      9880-4.99625E-03 4.99447E-15 2.86235E-01
 -1      9881-4.89035E-03-3.04455E-15-2.80168E-01
 -1      9883-4.89035E-03-4.43729E-15 2.80168E-01
 -1      9884-5.02356E-03-2.40211E-15-2.87799E-01
 -1      9886-5.02356E-03-2.16829E-15 2.87799E-01
 -1      9887-4.78537E-03-8.13586E-15-2.74154E-01
 -1      9889-4.78537E-03-8.64192E-15 2.74154E-01
 -1      9890-4.67884E-03 2.65232E-17-2.68050E-01
 -1      9892-4.67884E-03-6.92969E-16 2.68050E-01
 -1      9893-4.80906E-03 6.65147E-15-2.75511E-01
 -1      9895-4.80906E-03 5.74889E-15 2.75511E-01
 -1      9896-4.57000E-03-1.88409E-15-2.61815E-01
 -1      9898-4.57000E-03-2.13510E-15 2.61815E-01
 -1      9899-4.47645E-03 9.11212E-15-2.56456E-01
 -1      9901-4.47645E-03 8.66448E-15 2.56456E-01
 -1      9902-4.60105E-03 5.44984E-15-2.63594E-01
 -1      9904-4.60105E-03 5.99239E-15 2.63594E-01
 -1      9905-4.39611E-03 1.13381E-14-2.51853E-01
 -1      9907-4.39611E-03 9.77479E-15 2.51853E-01
 -1      9908-4.31424E-03-3.07846E-15-2.47163E-01
 -1      9910-4.31424E-03-2.67354E-15 2.47163E-01
 -1      9911-4.41427E-03 5.34938E-15-2.52893E-01
 -1      9913-4.41427E-03 5.05775E-15 2.52893E-01
 -1      9914-4.23277E-03 1.53362E-15-2.42495E-01
 -1      9916-4.23277E-03 8.96760E-16 2.42495E-01
 -1      9917-4.14864E-03 1.67033E-15-2.37675E-01
 -1      9919-4.14864E-03 3.81979E-15 2.37675E-01
 -1      9920-4.24776E-03-3.22032E-15-2.43354E-01
 -1      9922-4.24776E-03-3.14372E-15 2.43354E-01
 -1      9923-4.06236E-03-6.13762E-15-2.32733E-01
 -1      9925-4.06236E-03-7.54684E-15 2.32733E-01
 -1      9926-3.98818E-03-8.23149E-15-2.28483E-01
 -1      9928-3.98818E-03-9.34050E-15 2.28483E-01
 -1      9929-4.08381E-03-3.35341E-16-2.33961E-01
 -1      9931-4.08381E-03-3.45933E-15 2.33961E-01
 -1      9932-3.92595E-03 1.36267E-14-2.24918E-01
 -1      9934-3.92595E-03 1.31268E-14 2.24918E-01
 -1      9935-3.86092E-03 4.63082E-15-2.21192E-01
 -1      9937-3.86092E-03 4.88475E-15 2.21192E-01
 -1      9938-3.93580E-03-2.76259E-15-2.25482E-01
 -1      9940-3.93580E-03-3.85572E-15 2.25482E-01
 -1      9941-3.79660E-03 3.72715E-16-2.17507E-01
 -1      9943-3.79660E-03-4.97915E-16 2.17507E-01
 -1      9944-3.72835E-03-7.40491E-15-2.13597E-01
 -1      9946-3.72835E-03-6.50122E-15 2.13597E-01
 -1      9947-3.80347E-03 8.85094E-15-2.17900E-01
 -1      9949-3.80347E-03 7.70202E-15 2.17900E-01
 -1      9950-3.65861E-03 9.66110E-15-2.09602E-01
 -1      9952-3.65861E-03 9.84380E-15 2.09602E-01
 -1      9953-3.59870E-03 6.74567E-15-2.06170E-01
 -1      9955-3.59870E-03 7.16954E-15 2.06170E-01
 -1      9956-3.67105E-03-8.11015E-15-2.10314E-01
 -1      9958-3.67105E-03-6.23754E-15 2.10314E-01
 -1      9959-3.55027E-03 7.58866E-15-2.03395E-01
 -1      9961-3.55027E-03 7.40494E-15 2.03395E-01
 -1      9962-3.49973E-03 8.91655E-15-2.00499E-01
 -1      9964-3.49973E-03 6.58744E-15 2.00499E-01
 -1      9965-3.55117E-03-1.10329E-15-2.03447E-01
 -1      9967-3.55117E-03-1.51028E-15 2.03447E-01
 -1      9968-3.45092E-03 4.56961E-15-1.97703E-01
 -1      9970-3.45092E-03 6.22270E-15 1.97703E-01
 -1      9971-3.40065E-03-1.07704E-15-1.94823E-01
 -1      9973-3.40065E-03-6.86354E-16 1.94823E-01
 -1      9974-3.44631E-03-3.93694E-15-1.97439E-01
 -1      9976-3.44631E-03-3.60952E-15 1.97439E-01
 -1      9977-3.35038E-03-5.21940E-15-1.91943E-01
 -1      9979-3.35038E-03-3.37040E-15 1.91943E-01
 -1      9980-3.31363E-03 7.36714E-15-1.89838E-01
 -1      9982-3.31363E-03 4.95956E-15 1.89838E-01
 -1      9983-3.34711E-03-1.93582E-15-1.91756E-01
 -1      9985-3.34711E-03-5.60199E-16 1.91756E-01
 -1      9986-3.28959E-03 7.79391E-16-1.88460E-01
 -1      9988-3.28959E-03 3.14016E-15 1.88460E-01
 -1      9989-3.27293E-03-1.11186E-14-1.87506E-01
 -1      9991-3.27293E-03-9.79110E-15 1.87506E-01
 -1      9992-3.27176E-03-1.00710E-15-1.87439E-01
 -1      9994-3.27176E-03 7.05771E-16 1.87439E-01
 -1      9995-3.25939E-03 1.72980E-16-1.86730E-01
 -1      9997-3.25939E-03-1.74547E-15 1.86730E-01
 -1      9998-3.26776E-03-2.77083E-15-1.87210E-01
 -1     10000-3.26776E-03-1.40295E-15 1.87210E-01
 -1     10001-3.23136E-03 9.60144E-15-1.85125E-01
 -1     10003-3.23136E-03 9.43837E-15 1.85125E-01
 -1     10004-3.27203E-03-4.91135E-15-1.87454E-01
 -1     10006-3.27203E-03-2.74878E-15 1.87454E-01
 -1     10007-3.35572E-03 1.13061E-14-1.92249E-01
 -1     10009-3.35572E-03 1.09958E-14 1.92249E-01
 -1     10010-3.23516E-03-2.66093E-15-1.85342E-01
 -1     10012-3.23516E-03-3.83129E-15 1.85342E-01
 -1     10013-3.43121E-03 5.01227E-15-1.96574E-01
 -1     10015-3.43121E-03 4.50483E-15 1.96574E-01
 -1     10016-3.73881E-03 5.06315E-15-2.14196E-01
 -1     10018-3.73881E-03 2.93135E-15 2.14196E-01
 -1     10019-3.36224E-03 9.19770E-15-1.92623E-01
 -1     10021-3.36224E-03 8.84643E-15 1.92623E-01
 -1     10022-3.95550E-03 6.47850E-16-2.26611E-01
 -1     10024-3.95550E-03 2.25651E-15 2.26611E-01
 -1     10025-3.78207E-03 1.12463E-14-2.16675E-01
 -1     10027-3.78207E-03 1.21004E-14 2.16675E-01
 -1     10028-3.92878E-03 2.50252E-15-2.25080E-01
 -1     10030-3.92878E-03 1.36458E-15 2.25080E-01
 -1     10031-7.23680E-03 5.92036E-15-4.14596E-01
 -1     10033-7.23680E-03 5.00504E-15 4.14596E-01
 -1     10034-7.49172E-03 4.50243E-16-4.29200E-01
 -1     10036-7.49172E-03-2.24818E-15 4.29200E-01
 -1     10037-7.12358E-03-1.09373E-15-4.08110E-01
 -1     10039-7.12358E-03-2.06124E-15 4.08110E-01
 -1     10040-2.94532E-03 3.55462E-15-1.68737E-01
 -1     10042-2.94532E-03 3.33760E-15 1.68737E-01
 -1     10043-1.93178E-02 6.06818E-15-1.10672E+00
 -1     10045-1.93178E-02 5.69889E-15 1.10672E+00
 -1     10046-1.83347E-02-1.07230E-14-1.05039E+00
 -1     10048-1.83347E-02-1.02464E-14 1.05039E+00
 -1     10049-1.92177E-02 6.04000E-16-1.10098E+00
 -1     10051-1.92177E-02-1.41613E-16 1.10098E+00
 -1     10052-2.76109E-03-3.77247E-15-1.58183E-01
 -1     10054-2.76109E-03-4.82997E-15 1.58183E-01
 -1     10055-2.03905E-02-4.36688E-15-1.16817E+00
 -1     10057-2.03905E-02-4.15914E-15 1.16817E+00
 -1     10058-2.03877E-02-2.04149E-15-1.16801E+00
 -1     10060-2.03877E-02-2.66397E-15 1.16801E+00
 -1     10061-2.06489E-02 8.95744E-15-1.18297E+00
 -1     10063-2.06489E-02 7.67673E-15 1.18297E+00
 -1     10064-1.80953E-02-3.75766E-15-1.03668E+00
 -1     10066-1.80953E-02-5.33442E-15 1.03668E+00
 -1     10067-1.89813E-02 4.53413E-16-1.08744E+00
 -1     10069-1.89813E-02 9.54628E-16 1.08744E+00
 -1     10070-1.90279E-02-1.93828E-15-1.09011E+00
 -1     10072-1.90279E-02-4.56469E-16 1.09011E+00
 -1     10073-1.89565E-02-4.03011E-15-1.08602E+00
 -1     10075-1.89565E-02-4.23758E-15 1.08602E+00
 -1     10076-1.89495E-02-2.36564E-15-1.08561E+00
 -1     10078-1.89495E-02-2.49911E-15 1.08561E+00
 -1     10079-1.89717E-02-3.66368E-15-1.08689E+00
 -1     10081-1.89717E-02-3.99310E-15 1.08689E+00
 -1     10082-1.89679E-02 2.14225E-15-1.08667E+00
 -1     10084-1.89679E-02-1.37319E-16 1.08667E+00
 -1     10085-1.89145E-02-4.39739E-15-1.08361E+00
 -1     10087-1.89145E-02-4.71466E-15 1.08361E+00
 -1     10088-1.89541E-02 1.08652E-15-1.08588E+00
 -1     10090-1.89541E-02-7.43866E-16 1.08588E+00
 -1     10091-1.87894E-02-2.31274E-15-1.07644E+00
 -1     10093-1.87894E-02-5.72724E-16 1.07644E+00
 -1     10094-1.88080E-02-3.96183E-15-1.07751E+00
 -1     10096-1.88080E-02-2.02867E-15 1.07751E+00
 -1     10097-1.88458E-02-1.56763E-15-1.07967E+00
 -1     10099-1.88458E-02-7.64649E-16 1.07967E+00
 -1     10100-1.88211E-02-1.80477E-15-1.07826E+00
 -1     10102-1.88211E-02-1.86652E-15 1.07826E+00
 -1     10103-1.91340E-02 3.35253E-15-1.09619E+00
 -1     10105-1.91340E-02 2.28537E-15 1.09619E+00
 -1     10106-1.89140E-02 9.66487E-16-1.08358E+00
 -1     10108-1.89140E-02 8.73771E-16 1.08358E+00
 -1     10109-3.12223E-03 3.70661E-15-1.78873E-01
 -1     10111-3.12223E-03 3.80999E-15 1.78873E-01
 -1     10112-1.68845E-02-1.81539E-15-9.67313E-01
 -1     10114-1.68845E-02-2.66247E-15 9.67313E-01
 -1     10115-3.36574E-03-9.71397E-15-1.92823E-01
 -1     10117-3.36574E-03-6.99241E-15 1.92823E-01
 -1     10118-1.79058E-02-2.54999E-15-1.02582E+00
 -1     10120-1.79058E-02-4.02208E-15 1.02582E+00
 -1     10121-1.78798E-02 1.84848E-15-1.02434E+00
 -1     10123-1.78798E-02 2.92877E-15 1.02434E+00
 -1     10124-7.78147E-03-5.05125E-15-4.45800E-01
 -1     10126-7.78147E-03-7.97514E-15 4.45800E-01
 -1     10127-8.09648E-03 5.90101E-15-4.63847E-01
 -1     10129-8.09648E-03 6.05862E-15 4.63847E-01
 -1     10130-1.79715E-02 7.80293E-15-1.02959E+00
 -1     10132-1.79715E-02 7.84685E-15 1.02959E+00
 -1     10133-6.38418E-03-2.45926E-15-3.65749E-01
 -1     10135-6.38418E-03-2.42932E-15 3.65749E-01
 -1     10136-6.58960E-03 2.46651E-15-3.77518E-01
 -1     10138-6.58960E-03 2.95841E-15 3.77518E-01
 -1     10139-5.69292E-03 2.94521E-15-3.26147E-01
 -1     10141-5.69292E-03 2.82383E-15 3.26147E-01
 -1     10142-5.84778E-03-1.28696E-15-3.35019E-01
 -1     10144-5.84778E-03-2.74679E-15 3.35019E-01
 -1     10145-5.10605E-03 2.00455E-15-2.92525E-01
 -1     10147-5.10605E-03 2.90462E-15 2.92525E-01
 -1     10148-5.23700E-03 1.14935E-14-3.00027E-01
 -1     10150-5.23700E-03 1.07142E-14 3.00027E-01
 -1     10151-4.67008E-03-3.27572E-15-2.67549E-01
 -1     10153-4.67008E-03-5.89380E-16 2.67549E-01
 -1     10154-4.77065E-03 5.09765E-15-2.73311E-01
 -1     10156-4.77065E-03 4.39041E-15 2.73311E-01
 -1     10157-4.27680E-03-7.01406E-15-2.45018E-01
 -1     10159-4.27680E-03-5.45841E-15 2.45018E-01
 -1     10160-4.36477E-03-3.66723E-15-2.50058E-01
 -1     10162-4.36477E-03-4.92833E-15 2.50058E-01
 -1     10163-3.97215E-03-1.64176E-15-2.27564E-01
 -1     10165-3.97215E-03-5.68479E-16 2.27564E-01
 -1     10166-4.04885E-03 1.56019E-15-2.31958E-01
 -1     10168-4.04885E-03 2.21235E-15 2.31958E-01
 -1     10169-3.72065E-03 6.55630E-16-2.13156E-01
 -1     10171-3.72065E-03-2.18859E-15 2.13156E-01
 -1     10172-3.77306E-03 2.51863E-15-2.16159E-01
 -1     10174-3.77306E-03 3.43699E-15 2.16159E-01
 -1     10175-3.50121E-03-2.86877E-15-2.00584E-01
 -1     10177-3.50121E-03-1.94510E-15 2.00584E-01
 -1     10178-3.54925E-03 4.98935E-15-2.03337E-01
 -1     10180-3.54925E-03 5.77728E-15 2.03337E-01
 -1     10181-3.33072E-03-4.52428E-16-1.90817E-01
 -1     10183-3.33072E-03-4.09060E-16 1.90817E-01
 -1     10184-3.37746E-03 6.83655E-15-1.93495E-01
 -1     10186-3.37746E-03 5.67016E-15 1.93495E-01
 -1     10187-3.07680E-03-1.40348E-15-1.76270E-01
 -1     10189-3.07680E-03-3.20370E-15 1.76270E-01
 -1     10190-3.16115E-03 3.22644E-15-1.81102E-01
 -1     10192-3.16115E-03 2.72182E-15 1.81102E-01
 -1     10193-2.70198E-03 7.64018E-17-1.54796E-01
 -1     10195-2.70198E-03-5.00926E-16 1.54796E-01
 -1     10196-2.73212E-03-2.42675E-15-1.56523E-01
 -1     10198-2.73212E-03-1.63186E-15 1.56523E-01
 -1     10199-3.23692E-03 2.78122E-15-1.85443E-01
 -1     10201-3.23692E-03 1.64506E-15 1.85443E-01
 -1     10202-2.91812E-03 5.62108E-15-1.67179E-01
 -1     10204-2.91812E-03 6.60276E-15 1.67179E-01
 -1     10205-1.95168E-02 6.53800E-15-1.11811E+00
 -1     10207-1.95168E-02 7.02628E-15 1.11811E+00
 -1     10208-6.68803E-03-3.43497E-15-3.83157E-01
 -1     10210-6.68803E-03-4.09917E-15 3.83157E-01
 -1     10211-2.83534E-03-4.94035E-15-1.62437E-01
 -1     10213-2.83534E-03-4.43267E-15 1.62437E-01
 -1     10214-2.70101E-03-7.91764E-15-1.54741E-01
 -1     10216-2.70101E-03-4.89461E-15 1.54741E-01
 -1     10217-2.69238E-03 8.20286E-16-1.54247E-01
 -1     10219-2.69238E-03 1.64577E-16 1.54247E-01
 -1     10220-2.75269E-03 5.97570E-16-1.57702E-01
 -1     10222-2.75269E-03 1.34459E-15 1.57702E-01
 -1     10223-2.73857E-03 1.08700E-14-1.56893E-01
 -1     10225-2.73857E-03 1.17158E-14 1.56893E-01
 -1     10226-2.77343E-03-4.75490E-15-1.58890E-01
 -1     10228-2.77343E-03-3.99411E-15 1.58890E-01
 -1     10229-2.76933E-03 1.05630E-14-1.58655E-01
 -1     10231-2.76933E-03 1.30105E-14 1.58655E-01
 -1     10232-2.77117E-03 2.75355E-15-1.58760E-01
 -1     10234-2.77117E-03 2.06655E-15 1.58760E-01
 -1     10235-2.77207E-03 1.15887E-14-1.58812E-01
 -1     10237-2.77207E-03 1.30476E-14 1.58812E-01
 -1     10238-2.76787E-03-6.52616E-15-1.58571E-01
 -1     10240-2.76787E-03-1.06057E-14 1.58571E-01
 -1     10241-2.76985E-03 9.54405E-15-1.58685E-01
 -1     10243-2.76985E-03 9.19842E-15 1.58685E-01
 -1     10244-2.75919E-03-7.61550E-15-1.58074E-01
 -1     10246-2.75919E-03-5.78020E-15 1.58074E-01
 -1     10247-2.76336E-03 4.38948E-15-1.58313E-01
 -1     10249-2.76336E-03 5.66012E-15 1.58313E-01
 -1     10250-2.74972E-03 3.77340E-15-1.57531E-01
 -1     10252-2.74972E-03 5.43977E-15 1.57531E-01
 -1     10253-2.74950E-03-3.81816E-15-1.57519E-01
 -1     10255-2.74950E-03-1.15864E-15 1.57519E-01
 -1     10256-2.81973E-03-4.17713E-15-1.61542E-01
 -1     10258-2.81973E-03-6.47007E-15 1.61542E-01
 -1     10259-2.77469E-03-1.39139E-14-1.58962E-01
 -1     10261-2.77469E-03-1.23865E-14 1.58962E-01
 -1     10262-2.97922E-03-5.58878E-15-1.70679E-01
 -1     10264-2.97922E-03-4.65158E-15 1.70679E-01
 -1     10265-2.98825E-03-1.10635E-15-1.71197E-01
 -1     10267-2.98825E-03 1.11030E-16 1.71197E-01
 -1     10268-1.78039E-02 1.85806E-15-1.01998E+00
 -1     10270-1.78039E-02 5.96193E-16 1.01998E+00
 -1     10271-1.77853E-02 4.68232E-15-1.01892E+00
 -1     10273-1.77853E-02 3.17187E-15 1.01892E+00
 -1     10274-1.76333E-02 1.28870E-16-1.01021E+00
 -1     10276-1.76333E-02-6.39572E-16 1.01021E+00
 -1     10277-7.62819E-03-2.13110E-15-4.37019E-01
 -1     10279-7.62819E-03 3.06341E-16 4.37019E-01
 -1     10280-3.28690E-03 9.96998E-16-1.88307E-01
 -1     10282-3.28690E-03 6.02452E-16 1.88307E-01
 -1     10283-3.32635E-03 4.36177E-15-1.90567E-01
 -1     10285-3.32635E-03 5.16031E-15 1.90567E-01
 -1     10286-2.84908E-03-1.00229E-14-1.63224E-01
 -1     10288-2.84908E-03-8.32897E-15 1.63224E-01
 -1     10289-2.77188E-03 7.44172E-16-1.58801E-01
 -1     10291-2.77188E-03-7.12913E-16 1.58801E-01
 -1     10292-2.78583E-03 1.26142E-14-1.59600E-01
 -1     10294-2.78583E-03 1.23374E-14 1.59600E-01
 -1     10295-2.79599E-03 7.73579E-15-1.60182E-01
 -1     10297-2.79599E-03 8.96765E-15 1.60182E-01
 -1     10298-2.79773E-03-1.10920E-14-1.60282E-01
 -1     10300-2.79773E-03-1.20166E-14 1.60282E-01
 -1     10301-3.42171E-03-2.24867E-16-1.96030E-01
 -1     10303-3.42171E-03-1.44576E-15 1.96030E-01
 -1     10304-2.50343E-03-3.01899E-15-1.43422E-01
 -1     10306-2.50343E-03-3.75931E-15 1.43422E-01
 -1     10307-3.05736E-03-1.46995E-15-1.75156E-01
 -1     10309-3.05736E-03 4.28077E-16 1.75156E-01
 -1     10310-2.72445E-03-7.42776E-15-1.56084E-01
 -1     10312-2.72445E-03-6.68377E-15 1.56084E-01
 -1     10313-3.32419E-03 6.24534E-15-1.90443E-01
 -1     10315-3.32419E-03 7.35584E-15 1.90443E-01
 -1     10316-3.49058E-03 1.10630E-15-1.99975E-01
 -1     10318-3.49058E-03 2.12470E-16 1.99975E-01
 -1     10319-3.69311E-03 2.24651E-15-2.11578E-01
 -1     10321-3.69311E-03 2.20653E-15 2.11578E-01
 -1     10322-3.93433E-03 7.67351E-15-2.25398E-01
 -1     10324-3.93433E-03 5.77824E-15 2.25398E-01
 -1     10325-3.04933E-03 4.98209E-15-1.74696E-01
 -1     10327-3.04933E-03 4.39538E-15 1.74696E-01
 -1     10328-2.78129E-03 8.85099E-16-1.59340E-01
 -1     10330-2.78129E-03 3.92141E-15 1.59340E-01
 -1     10331-2.77553E-03 3.45153E-15-1.59010E-01
 -1     10333-2.77553E-03 1.76602E-15 1.59010E-01
 -1     10334-2.79420E-03 2.48169E-15-1.60080E-01
 -1     10336-2.79420E-03 2.29104E-15 1.60080E-01
 -1     10337-1.78405E-02 1.90051E-15-1.02208E+00
 -1     10339-1.78405E-02 3.42446E-15 1.02208E+00
 -1     10340-2.79795E-03 4.59263E-15-1.60294E-01
 -1     10342-2.79795E-03 5.42103E-15 1.60294E-01
 -1     10343-2.80111E-03 1.51930E-14-1.60475E-01
 -1     10345-2.80111E-03 1.59130E-14 1.60475E-01
 -1     10346-2.69002E-03-1.17572E-14-1.54111E-01
 -1     10348-2.69002E-03-1.12257E-14 1.54111E-01
 -1     10349-2.82139E-03-5.76022E-16-1.61637E-01
 -1     10351-2.82139E-03 2.70782E-16 1.61637E-01
 -1     10352-2.80236E-03-2.58418E-15-1.60547E-01
 -1     10354-2.80236E-03-1.22845E-15 1.60547E-01
 -1     10355-3.21014E-03 2.91717E-15-1.83909E-01
 -1     10357-3.21014E-03 3.47138E-15 1.83909E-01
 -1     10358-3.40802E-03-3.64773E-15-1.95246E-01
 -1     10360-3.40802E-03-4.34580E-15 1.95246E-01
 -1     10361-3.58233E-03-4.99347E-15-2.05232E-01
 -1     10363-3.58233E-03-4.87370E-15 2.05232E-01
 -1     10364-3.80076E-03-8.99055E-16-2.17746E-01
 -1     10366-3.80076E-03-1.60671E-15 2.17746E-01
 -1     10367-4.08434E-03-3.49140E-16-2.33992E-01
 -1     10369-4.08434E-03-5.90094E-16 2.33992E-01
 -1     10370-4.41699E-03-1.32040E-15-2.53049E-01
 -1     10372-4.41699E-03-8.77031E-16 2.53049E-01
 -1     10373-4.82015E-03-2.62073E-15-2.76146E-01
 -1     10375-4.82015E-03-4.65298E-15 2.76146E-01
 -1     10376-5.31333E-03 9.04949E-17-3.04400E-01
 -1     10378-5.31333E-03-2.05325E-15 3.04400E-01
 -1     10379-8.23493E-03 2.74666E-15-4.71779E-01
 -1     10381-8.23493E-03 2.91125E-15 4.71779E-01
 -1     10382-1.78682E-02 2.49452E-15-1.02367E+00
 -1     10384-1.78682E-02 2.22925E-15 1.02367E+00
 -1     10385-1.75895E-02 3.15023E-15-1.00770E+00
 -1     10387-1.75895E-02 3.18582E-15 1.00770E+00
 -1     10388-1.77572E-02 1.31910E-15-1.01731E+00
 -1     10390-1.77572E-02 2.35699E-16 1.01731E+00
 -1     10391-1.79048E-02-2.23940E-15-1.02576E+00
 -1     10393-1.79048E-02-2.84034E-15 1.02576E+00
 -1     10394-1.79132E-02 4.62524E-15-1.02625E+00
 -1     10396-1.79132E-02 3.47785E-15 1.02625E+00
 -1     10397-1.78988E-02 4.53230E-15-1.02542E+00
 -1     10399-1.78988E-02 6.46215E-15 1.02542E+00
 -1     10400-1.78932E-02-2.90674E-15-1.02510E+00
 -1     10402-1.78932E-02-3.45318E-15 1.02510E+00
 -1     10403-4.24035E-03 2.56652E-15-2.42929E-01
 -1     10405-4.24035E-03 6.89049E-16 2.42929E-01
 -1     10406-4.61542E-03-2.98466E-15-2.64417E-01
 -1     10408-4.61542E-03-2.72136E-15 2.64417E-01
 -1     10409-5.04999E-03-5.85251E-15-2.89314E-01
 -1     10411-5.04999E-03-5.88351E-15 2.89314E-01
 -1     10412-5.61064E-03-3.15761E-15-3.21433E-01
 -1     10414-5.61064E-03-3.72247E-15 3.21433E-01
 -1     10415-3.67287E-03 5.12929E-15-2.10419E-01
 -1     10417-3.67287E-03 2.75306E-15 2.10419E-01
 -1     10418-6.28205E-03-1.42250E-15-3.59899E-01
 -1     10420-6.28205E-03-2.50267E-15 3.59899E-01
 -1     10421-5.92522E-03-9.40006E-16-3.39456E-01
 -1     10423-5.92522E-03 1.02615E-15 3.39456E-01
 -1     10424-2.80150E-03-7.87818E-15-1.60498E-01
 -1     10426-2.80150E-03-1.04609E-14 1.60498E-01
 -1     10427-2.78211E-03 1.83305E-15-1.59387E-01
 -1     10429-2.78211E-03 7.49311E-17 1.59387E-01
 -1     10430-2.75492E-03-9.13187E-16-1.57829E-01
 -1     10432-2.75492E-03-1.96047E-15 1.57829E-01
 -1     10433-2.79597E-03 7.53885E-15-1.60181E-01
 -1     10435-2.79597E-03 7.33637E-15 1.60181E-01
 -1     10436-6.57903E-03 1.64747E-15-3.76912E-01
 -1     10438-6.57903E-03 2.83759E-15 3.76912E-01
 -1     10439-6.78622E-03-5.23618E-15-3.88782E-01
 -1     10441-6.78622E-03-5.15118E-15 3.88782E-01
 -1     10442-3.69737E-03-2.81699E-15-2.11822E-01
 -1     10444-3.69737E-03 5.48595E-16 2.11822E-01
 -1     10445-4.20071E-03 2.34478E-15-2.40659E-01
 -1     10447-4.20071E-03 2.83259E-15 2.40659E-01
 -1     10448-4.28365E-03 7.89372E-15-2.45410E-01
 -1     10450-4.28365E-03 7.84871E-15 2.45410E-01
 -1     10451-1.67176E-02-3.81606E-15-9.57750E-01
 -1     10453-1.67176E-02-2.47895E-15 9.57750E-01
 -1     10454-1.67738E-02-8.68573E-16-9.60968E-01
 -1     10456-1.67738E-02-2.54299E-15 9.60968E-01
 -1     10457-1.68861E-02 4.70916E-15-9.67404E-01
 -1     10459-1.68861E-02 5.52833E-15 9.67404E-01
 -1     10460-1.69162E-02 6.46510E-15-9.69129E-01
 -1     10462-1.69162E-02 6.30090E-15 9.69129E-01
 -1     10463-1.69205E-02-8.90048E-16-9.69375E-01
 -1     10465-1.69205E-02-1.31853E-15 9.69375E-01
 -1     10466-1.69059E-02 2.68265E-15-9.68540E-01
 -1     10468-1.69059E-02 3.18791E-15 9.68540E-01
 -1     10469-1.69416E-02-1.41085E-15-9.70581E-01
 -1     10471-1.69416E-02 1.63598E-15 9.70581E-01
 -1     10472-1.69429E-02 4.90745E-15-9.70661E-01
 -1     10474-1.69429E-02 2.78222E-15 9.70661E-01
 -1     10475-2.82687E-03 7.24987E-15-1.61951E-01
 -1     10477-2.82687E-03 7.13496E-15 1.61951E-01
 -1     10478-2.82729E-03 1.91050E-15-1.61976E-01
 -1     10480-2.82729E-03-1.81196E-15 1.61976E-01
 -1     10481-7.48181E-03-6.46243E-15-4.28633E-01
 -1     10483-7.48181E-03-5.76268E-15 4.28633E-01
 -1     10484-7.75444E-03-3.66770E-15-4.44251E-01
 -1     10486-7.75444E-03-2.63673E-15 4.44251E-01
 -1     10487-1.66845E-02-3.12802E-15-9.55857E-01
 -1     10489-1.66845E-02-2.41485E-15 9.55857E-01
 -1     10490-1.67973E-02 1.84232E-15-9.62319E-01
 -1     10492-1.67973E-02-2.07877E-15 9.62319E-01
 -1     10493-1.65810E-02-4.82320E-15-9.49926E-01
 -1     10495-1.65810E-02-1.97649E-15 9.49926E-01
 -1     10496-1.65449E-02 6.63451E-15-9.47855E-01
 -1     10498-1.65449E-02 4.18963E-15 9.47855E-01
 -1     10499-1.67201E-02-6.48684E-15-9.57894E-01
 -1     10501-1.67201E-02-7.10020E-15 9.57894E-01
 -1     10502-1.67448E-02 7.78567E-15-9.59310E-01
 -1     10504-1.67448E-02 7.78882E-15 9.59310E-01
 -1     10505-1.55897E-02 2.13657E-15-8.93131E-01
 -1     10507-1.55897E-02 2.79518E-15 8.93131E-01
 -1     10508-1.61013E-02 5.77980E-15-9.22444E-01
 -1     10510-1.61013E-02 6.21987E-15 9.22444E-01
 -1     10511-1.69393E-02 2.03454E-16-9.70451E-01
 -1     10513-1.69393E-02 2.04160E-15 9.70451E-01
 -1     10514-1.69249E-02-1.63322E-15-9.69627E-01
 -1     10516-1.69249E-02-1.44272E-15 9.69627E-01
 -1     10517-1.60332E-02-7.29885E-16-9.18543E-01
 -1     10519-1.60332E-02-1.85335E-15 9.18543E-01
 -1     10520-1.60592E-02 4.77311E-15-9.20030E-01
 -1     10522-1.60592E-02 5.98335E-15 9.20030E-01
 -1     10523-1.79667E-02 9.04885E-15-1.02931E+00
 -1     10525-1.79667E-02 9.44290E-15 1.02931E+00
 -1     10526-1.83224E-02-2.28015E-15-1.04969E+00
 -1     10528-1.83224E-02-4.42238E-16 1.04969E+00
 -1     10529-1.69487E-02-1.59309E-15-9.70989E-01
 -1     10531-1.69487E-02-2.26930E-16 9.70989E-01
 -1     10532-1.70010E-02 1.99836E-15-9.73984E-01
 -1     10534-1.70010E-02 2.52125E-15 9.73984E-01
 -1     10535-1.60170E-02 4.84265E-17-9.17612E-01
 -1     10537-1.60170E-02-2.48133E-15 9.17612E-01
 -1     10538-2.83369E-03 4.79118E-15-1.62342E-01
 -1     10540-2.83369E-03 1.64877E-15 1.62342E-01
 -1     10541-2.83056E-03-9.31207E-15-1.62162E-01
 -1     10543-2.83056E-03-7.86619E-15 1.62162E-01
 -1     10544-5.84354E-03 1.09259E-15-3.34776E-01
 -1     10546-5.84354E-03-1.34582E-15 3.34776E-01
 -1     10547-6.01089E-03 2.33135E-15-3.44363E-01
 -1     10549-6.01089E-03 2.49355E-15 3.44363E-01
 -1     10550-8.04537E-03-1.24810E-14-4.60919E-01
 -1     10552-8.04537E-03-1.24755E-14 4.60919E-01
 -1     10553-8.37758E-03 1.36967E-14-4.79951E-01
 -1     10555-8.37758E-03 1.37336E-14 4.79951E-01
 -1     10556-7.87807E-03 7.27211E-15-4.51334E-01
 -1     10558-7.87807E-03 3.48146E-15 4.51334E-01
 -1     10559-5.24653E-03-3.25746E-16-3.00574E-01
 -1     10561-5.24653E-03 1.35681E-16 3.00574E-01
 -1     10562-5.38549E-03-2.96333E-15-3.08534E-01
 -1     10564-5.38549E-03-3.24126E-15 3.08534E-01
 -1     10565-4.76792E-03-6.81093E-15-2.73154E-01
 -1     10567-4.76792E-03-7.47583E-15 2.73154E-01
 -1     10568-4.87715E-03 1.00836E-15-2.79412E-01
 -1     10570-4.87715E-03 4.06068E-17 2.79412E-01
 -1     10571-4.37215E-03-4.42992E-15-2.50480E-01
 -1     10573-4.37215E-03-3.81477E-15 2.50480E-01
 -1     10574-4.46545E-03-6.89304E-15-2.55826E-01
 -1     10576-4.46545E-03-6.20192E-15 2.55826E-01
 -1     10577-4.32796E-03-2.09094E-16-2.47948E-01
 -1     10579-4.32796E-03-1.29404E-15 2.47948E-01
 -1     10580-3.90091E-03-4.02610E-16-2.23483E-01
 -1     10582-3.90091E-03 1.83475E-15 2.23483E-01
 -1     10583-3.97206E-03 2.83188E-15-2.27559E-01
 -1     10585-3.97206E-03 1.30262E-15 2.27559E-01
 -1     10586-3.66748E-03-3.82709E-15-2.10110E-01
 -1     10588-3.66748E-03-6.11978E-15 2.10110E-01
 -1     10589-3.72169E-03-2.87117E-15-2.13215E-01
 -1     10591-3.72169E-03-4.82022E-16 2.13215E-01
 -1     10592-3.48181E-03 5.07322E-15-1.99473E-01
 -1     10594-3.48181E-03 4.51915E-15 1.99473E-01
 -1     10595-3.52457E-03 3.83566E-15-2.01923E-01
 -1     10597-3.52457E-03 2.16696E-15 2.01923E-01
 -1     10598-2.75390E-03-3.80105E-15-1.57771E-01
 -1     10600-2.75390E-03-2.82706E-15 1.57771E-01
 -1     10601-2.71351E-03 4.78414E-15-1.55457E-01
 -1     10603-2.71351E-03 5.02246E-15 1.55457E-01
 -1     10604-3.22016E-03-1.09720E-15-1.84483E-01
 -1     10606-3.22016E-03 9.62464E-16 1.84483E-01
 -1     10607-3.27460E-03-3.17807E-15-1.87601E-01
 -1     10609-3.27460E-03-4.17770E-15 1.87601E-01
 -1     10610-2.60484E-03-1.43575E-15-1.49231E-01
 -1     10612-2.60484E-03-1.44682E-15 1.49231E-01
 -1     10613-2.90616E-03 1.01955E-15-1.66494E-01
 -1     10615-2.90616E-03 4.26819E-16 1.66494E-01
 -1     10616-1.84576E-02-2.64453E-15-1.05744E+00
 -1     10618-1.84576E-02-1.88154E-15 1.05744E+00
 -1     10619-1.99618E-02 2.00634E-15-1.14361E+00
 -1     10621-1.99618E-02 1.03763E-16 1.14361E+00
 -1     10622-1.84035E-02-7.60046E-15-1.05434E+00
 -1     10624-1.84035E-02-5.77424E-15 1.05434E+00
 -1     10625-2.64690E-03-4.32051E-15-1.51641E-01
 -1     10627-2.64690E-03-4.41439E-15 1.51641E-01
 -1     10628-2.67824E-03-1.21210E-14-1.53436E-01
 -1     10630-2.67824E-03-1.14423E-14 1.53436E-01
 -1     10631-3.32642E-03-5.51313E-15-1.90570E-01
 -1     10633-3.32642E-03-3.59695E-15 1.90570E-01
 -1     10634-3.36910E-03 1.45571E-15-1.93016E-01
 -1     10636-3.36910E-03-7.56057E-16 1.93016E-01
 -1     10637-3.33619E-03-4.98269E-15-1.91130E-01
 -1     10639-3.33619E-03-5.52899E-15 1.91130E-01
 -1     10640-2.82915E-03-3.32696E-15-1.62082E-01
 -1     10642-2.82915E-03-2.42523E-15 1.62082E-01
 -1     10643-2.82163E-03-1.19837E-15-1.61651E-01
 -1     10645-2.82163E-03 1.38684E-15 1.61651E-01
 -1     10646-2.86440E-03-2.59237E-15-1.64101E-01
 -1     10648-2.86440E-03-1.90258E-15 1.64101E-01
 -1     10649-2.81614E-03-7.54024E-16-1.61336E-01
 -1     10651-2.81614E-03-7.82821E-16 1.61336E-01
 -1     10652-2.80045E-03 7.59005E-15-1.60438E-01
 -1     10654-2.80045E-03 6.81547E-15 1.60438E-01
 -1     10655-2.85521E-03-3.97676E-16-1.63575E-01
 -1     10657-2.85521E-03 1.85981E-15 1.63575E-01
 -1     10658-2.68754E-03-2.91993E-15-1.53969E-01
 -1     10660-2.68754E-03-4.57743E-15 1.53969E-01
 -1     10661-2.66401E-03 3.53095E-15-1.52621E-01
 -1     10663-2.66401E-03 2.06637E-15 1.52621E-01
 -1     10664-2.73188E-03-7.69990E-15-1.56509E-01
 -1     10666-2.73188E-03-6.33990E-15 1.56509E-01
 -1     10667-3.37625E-03-9.63627E-15-1.93425E-01
 -1     10669-3.37625E-03-7.49287E-15 1.93425E-01
 -1     10670-3.13112E-03-1.37634E-15-1.79382E-01
 -1     10672-3.13112E-03-2.42665E-15 1.79382E-01
 -1     10673-3.10924E-03 5.90328E-15-1.78129E-01
 -1     10675-3.10924E-03 5.82735E-15 1.78129E-01
 -1     10676-2.82654E-03-4.31570E-16-1.61932E-01
 -1     10678-2.82654E-03 2.83296E-15 1.61932E-01
 -1     10679-2.82873E-03 4.53932E-15-1.62058E-01
 -1     10681-2.82873E-03 4.60028E-15 1.62058E-01
 -1     10682-2.85553E-03 1.10358E-14-1.63593E-01
 -1     10684-2.85553E-03 8.52464E-15 1.63593E-01
 -1     10685-1.68387E-02 5.30329E-15-9.64687E-01
 -1     10687-1.68387E-02 5.76170E-15 9.64687E-01
 -1     10688-1.69032E-02-1.89303E-16-9.68384E-01
 -1     10690-1.69032E-02-1.77711E-16 9.68384E-01
 -1     10691-1.59401E-02-2.47151E-15-9.13207E-01
 -1     10693-1.59401E-02-4.70500E-16 9.13207E-01
 -1     10694-2.82002E-03-6.77234E-15-1.61559E-01
 -1     10696-2.82002E-03-5.68692E-15 1.61559E-01
 -1     10697-2.82499E-03-4.10542E-15-1.61843E-01
 -1     10699-2.82499E-03-3.00123E-15 1.61843E-01
 -1     10700-2.79648E-03 1.19979E-14-1.60210E-01
 -1     10702-2.79648E-03 1.16073E-14 1.60210E-01
 -1     10703-2.79893E-03 1.37224E-14-1.60351E-01
 -1     10705-2.79893E-03 1.39196E-14 1.60351E-01
 -1     10706-2.79891E-03 7.44749E-15-1.60349E-01
 -1     10708-2.79891E-03 7.84128E-15 1.60349E-01
 -1     10709-2.77526E-03 2.01848E-16-1.58995E-01
 -1     10711-2.77526E-03-6.45879E-16 1.58995E-01
 -1     10712-1.74247E-02-1.53825E-16-9.98259E-01
 -1     10714-1.74247E-02-6.08972E-16 9.98259E-01
 -1     10715-1.64602E-02-3.66559E-15-9.43007E-01
 -1     10717-1.64602E-02-3.19860E-15 9.43007E-01
 -1     10718-1.58213E-02-4.36991E-15-9.06401E-01
 -1     10720-1.58213E-02-4.36921E-15 9.06401E-01
 -1     10721-1.58547E-02 7.21031E-15-9.08318E-01
 -1     10723-1.58547E-02 5.83381E-15 9.08318E-01
 -1     10724-1.70560E-02-6.31587E-15-9.77140E-01
 -1     10726-1.70560E-02-5.80231E-15 9.77140E-01
 -1     10727-1.71600E-02 7.42070E-15-9.83096E-01
 -1     10729-1.71600E-02 7.14571E-15 9.83096E-01
 -1     10730-1.61046E-02 7.94360E-15-9.22634E-01
 -1     10732-1.61046E-02 6.47855E-15 9.22634E-01
 -1     10733-1.85750E-02 6.51009E-15-1.06416E+00
 -1     10735-1.85750E-02 6.12663E-15 1.06416E+00
 -1     10736-1.86136E-02 4.82549E-16-1.06637E+00
 -1     10738-1.86136E-02-4.74602E-16 1.06637E+00
 -1     10739-1.87662E-02-4.44082E-15-1.07512E+00
 -1     10741-1.87662E-02-2.66469E-15 1.07512E+00
 -1     10742-1.75314E-02 2.72154E-15-1.00437E+00
 -1     10744-1.75314E-02 2.36461E-15 1.00437E+00
 -1     10745-2.10147E-02-2.42626E-15-1.20393E+00
 -1     10747-2.10147E-02-2.63283E-15 1.20393E+00
 -1     10748-1.60253E-02 1.12158E-14-9.18092E-01
 -1     10750-1.60253E-02 8.95539E-15 9.18092E-01
 -1     10751-1.42272E-02-5.00324E-15-8.15075E-01
 -1     10753-1.42272E-02-3.72886E-15 8.15075E-01
 -1     10754-1.35148E-02-1.21874E-15-7.74262E-01
 -1     10756-1.35148E-02-1.90812E-15 7.74262E-01
 -1     10757-1.35541E-02 3.17938E-15-7.76516E-01
 -1     10759-1.35541E-02 2.31965E-15 7.76516E-01
 -1     10760-1.37726E-02-2.98489E-16-7.89031E-01
 -1     10762-1.37726E-02 8.53596E-16 7.89031E-01
 -1     10763-1.27406E-02 7.52182E-16-7.29911E-01
 -1     10765-1.27406E-02-1.34427E-15 7.29911E-01
 -1     10766-1.20879E-02-2.97131E-15-6.92516E-01
 -1     10768-1.20879E-02-5.73306E-16 6.92516E-01
 -1     10769-1.28800E-02-2.83862E-15-7.37893E-01
 -1     10771-1.28800E-02-2.55969E-15 7.37893E-01
 -1     10772-1.14880E-02-2.89299E-16-6.58147E-01
 -1     10774-1.14880E-02-3.60220E-15 6.58147E-01
 -1     10775-1.09508E-02 1.98788E-15-6.27370E-01
 -1     10777-1.09508E-02 2.72577E-15 6.27370E-01
 -1     10778-1.17074E-02 4.12944E-16-6.70715E-01
 -1     10780-1.17074E-02-3.53798E-15 6.70715E-01
 -1     10781-1.04315E-02-1.46589E-16-5.97619E-01
 -1     10783-1.04315E-02 1.94961E-15 5.97619E-01
 -1     10784-9.95591E-03-3.24612E-15-5.70374E-01
 -1     10786-9.95591E-03-2.00894E-15 5.70374E-01
 -1     10787-1.06088E-02 6.44562E-15-6.07778E-01
 -1     10789-1.06088E-02 7.56382E-15 6.07778E-01
 -1     10790-9.51677E-03-3.79239E-15-5.45215E-01
 -1     10792-9.51677E-03-4.57513E-15 5.45215E-01
 -1     10793-9.11406E-03 4.06502E-15-5.22144E-01
 -1     10795-9.11406E-03 3.89988E-15 5.22144E-01
 -1     10796-9.64193E-03 1.16583E-15-5.52386E-01
 -1     10798-9.64193E-03 1.13457E-15 5.52386E-01
 -1     10799-8.74829E-03 2.51822E-16-5.01189E-01
 -1     10801-8.74829E-03 4.15600E-16 5.01189E-01
 -1     10802-8.40461E-03-2.37499E-15-4.81500E-01
 -1     10804-8.40461E-03-5.23878E-15 4.81500E-01
 -1     10805-8.83291E-03 2.21651E-15-5.06037E-01
 -1     10807-8.83291E-03 1.28420E-15 5.06037E-01
 -1     10808-8.09238E-03-8.45142E-15-4.63612E-01
 -1     10810-8.09238E-03-7.81014E-15 4.63612E-01
 -1     10811-7.79718E-03 3.65982E-15-4.46700E-01
 -1     10813-7.79718E-03 4.43750E-16 4.46700E-01
 -1     10814-8.15410E-03 3.02592E-15-4.67148E-01
 -1     10816-8.15410E-03 2.64603E-15 4.67148E-01
 -1     10817-7.52956E-03 4.02071E-15-4.31368E-01
 -1     10819-7.52956E-03 4.86100E-15 4.31368E-01
 -1     10820-7.27910E-03 3.80878E-15-4.17019E-01
 -1     10822-7.27910E-03 8.51863E-16 4.17019E-01
 -1     10823-7.57774E-03-9.20043E-16-4.34129E-01
 -1     10825-7.57774E-03 5.84690E-16 4.34129E-01
 -1     10826-7.04759E-03 2.65159E-15-4.03756E-01
 -1     10828-7.04759E-03 1.76431E-15 4.03756E-01
 -1     10829-6.82735E-03 1.32504E-15-3.91138E-01
 -1     10831-6.82735E-03 2.23628E-16 3.91138E-01
 -1     10832-7.08589E-03 1.24673E-15-4.05951E-01
 -1     10834-7.08589E-03 9.29061E-16 4.05951E-01
 -1     10835-6.61966E-03-5.66880E-15-3.79240E-01
 -1     10837-6.61966E-03-3.28788E-15 3.79240E-01
 -1     10838-6.42231E-03 6.97311E-15-3.67934E-01
 -1     10840-6.42231E-03 6.46836E-15 3.67934E-01
 -1     10841-6.65328E-03 8.71962E-16-3.81166E-01
 -1     10843-6.65328E-03 1.41363E-15 3.81166E-01
 -1     10844-6.23654E-03-3.65124E-15-3.57291E-01
 -1     10846-6.23654E-03-2.20281E-15 3.57291E-01
 -1     10847-6.06271E-03-4.36497E-15-3.47332E-01
 -1     10849-6.06271E-03-5.19182E-15 3.47332E-01
 -1     10850-6.26549E-03-2.62829E-15-3.58950E-01
 -1     10852-6.26549E-03-9.36875E-17 3.58950E-01
 -1     10853-5.89704E-03-1.99716E-15-3.37841E-01
 -1     10855-5.89704E-03-2.02139E-15 3.37841E-01
 -1     10856-5.73919E-03 3.48367E-15-3.28798E-01
 -1     10858-5.73919E-03 1.09162E-15 3.28798E-01
 -1     10859-5.91975E-03-9.27228E-15-3.39142E-01
 -1     10861-5.91975E-03-9.36795E-15 3.39142E-01
 -1     10862-5.58714E-03 5.08308E-16-3.20087E-01
 -1     10864-5.58714E-03-4.69267E-16 3.20087E-01
 -1     10865-5.44279E-03-8.14825E-15-3.11818E-01
 -1     10867-5.44279E-03-8.01304E-15 3.11818E-01
 -1     10868-5.60657E-03 5.55175E-16-3.21200E-01
 -1     10870-5.60657E-03-2.02748E-16 3.21200E-01
 -1     10871-5.30479E-03 9.86477E-16-3.03911E-01
 -1     10873-5.30479E-03 2.84894E-15 3.03911E-01
 -1     10874-5.17661E-03 4.58527E-15-2.96568E-01
 -1     10876-5.17661E-03 4.81300E-15 2.96568E-01
 -1     10877-5.32180E-03 1.25473E-15-3.04886E-01
 -1     10879-5.32180E-03 2.55888E-15 3.04886E-01
 -1     10880-5.05667E-03-1.72030E-15-2.89696E-01
 -1     10882-5.05667E-03-1.87061E-15 2.89696E-01
 -1     10883-4.94252E-03 2.45884E-15-2.83157E-01
 -1     10885-4.94252E-03 2.18987E-15 2.83157E-01
 -1     10886-5.06745E-03 1.03303E-15-2.90314E-01
 -1     10888-5.06745E-03 8.99882E-17 2.90314E-01
 -1     10889-4.83396E-03-4.25016E-15-2.76937E-01
 -1     10891-4.83396E-03-3.61271E-15 2.76937E-01
 -1     10892-4.72877E-03 1.65432E-15-2.70911E-01
 -1     10894-4.72877E-03 2.41451E-15 2.70911E-01
 -1     10895-4.83979E-03-5.57186E-15-2.77272E-01
 -1     10897-4.83979E-03-3.85951E-15 2.77272E-01
 -1     10898-4.62731E-03 1.11844E-14-2.65098E-01
 -1     10900-4.62731E-03 9.11259E-15 2.65098E-01
 -1     10901-4.52937E-03-9.22935E-15-2.59488E-01
 -1     10903-4.52937E-03-9.27356E-15 2.59488E-01
 -1     10904-4.63119E-03 1.17932E-15-2.65321E-01
 -1     10906-4.63119E-03 2.28123E-15 2.65321E-01
 -1     10907-4.43635E-03-5.44475E-15-2.54158E-01
 -1     10909-4.43635E-03-4.80517E-15 2.54158E-01
 -1     10910-4.34807E-03 2.71287E-16-2.49101E-01
 -1     10912-4.34807E-03-1.57049E-15 2.49101E-01
 -1     10913-4.43840E-03 1.81202E-16-2.54276E-01
 -1     10915-4.43840E-03-1.02420E-15 2.54276E-01
 -1     10916-4.26346E-03-3.44748E-15-2.44253E-01
 -1     10918-4.26346E-03-3.46949E-15 2.44253E-01
 -1     10919-4.18089E-03 4.45331E-15-2.39523E-01
 -1     10921-4.18089E-03 2.94611E-15 2.39523E-01
 -1     10922-4.26238E-03 3.92081E-15-2.44192E-01
 -1     10924-4.26238E-03 2.25239E-15 2.44192E-01
 -1     10925-4.10109E-03 2.31146E-15-2.34951E-01
 -1     10927-4.10109E-03-6.52818E-17 2.34951E-01
 -1     10928-4.02326E-03 3.04925E-15-2.30492E-01
 -1     10930-4.02326E-03 5.26339E-15 2.30492E-01
 -1     10931-4.09840E-03 2.02669E-15-2.34797E-01
 -1     10933-4.09840E-03 1.90376E-15 2.34797E-01
 -1     10934-3.94959E-03 3.91229E-15-2.26272E-01
 -1     10936-3.94959E-03 4.35448E-15 2.26272E-01
 -1     10937-3.87878E-03 1.76915E-15-2.22215E-01
 -1     10939-3.87878E-03 7.64899E-16 2.22215E-01
 -1     10940-3.94499E-03 4.72461E-16-2.26008E-01
 -1     10942-3.94499E-03 2.07961E-16 2.26008E-01
 -1     10943-3.81150E-03-4.05733E-15-2.18361E-01
 -1     10945-3.81150E-03-3.76401E-15 2.18361E-01
 -1     10946-3.74402E-03-1.49915E-15-2.14495E-01
 -1     10948-3.74402E-03-3.07312E-15 2.14495E-01
 -1     10949-3.80389E-03 2.98844E-15-2.17925E-01
 -1     10951-3.80389E-03 3.83491E-15 2.17925E-01
 -1     10952-3.67987E-03 2.66996E-15-2.10820E-01
 -1     10954-3.67987E-03 2.60585E-15 2.10820E-01
 -1     10955-3.61492E-03-9.54265E-16-2.07099E-01
 -1     10957-3.61492E-03-4.35235E-15 2.07099E-01
 -1     10958-3.67059E-03-2.10917E-15-2.10288E-01
 -1     10960-3.67059E-03-1.22632E-15 2.10288E-01
 -1     10961-3.55510E-03 1.12039E-15-2.03671E-01
 -1     10963-3.55510E-03 4.61761E-16 2.03671E-01
 -1     10964-3.49594E-03 1.30154E-14-2.00282E-01
 -1     10966-3.49594E-03 1.45367E-14 2.00282E-01
 -1     10967-3.54328E-03 6.75907E-15-2.02994E-01
 -1     10969-3.54328E-03 9.34002E-15 2.02994E-01
 -1     10970-3.44168E-03 2.83762E-15-1.97174E-01
 -1     10972-3.44168E-03 1.79468E-15 1.97174E-01
 -1     10973-3.38754E-03 6.65274E-15-1.94072E-01
 -1     10975-3.38754E-03 1.60363E-15 1.94072E-01
 -1     10976-3.42471E-03-2.52454E-15-1.96201E-01
 -1     10978-3.42471E-03-1.87015E-15 1.96201E-01
 -1     10979-3.33868E-03-3.81874E-15-1.91273E-01
 -1     10981-3.33868E-03-1.70656E-15 1.91273E-01
 -1     10982-3.29111E-03-9.01986E-15-1.88547E-01
 -1     10984-3.29111E-03-8.53872E-15 1.88547E-01
 -1     10985-3.31429E-03 1.56440E-16-1.89875E-01
 -1     10987-3.31429E-03 1.29949E-15 1.89875E-01
 -1     10988-3.25272E-03-8.98417E-15-1.86348E-01
 -1     10990-3.25272E-03-6.28259E-15 1.86348E-01
 -1     10991-3.21597E-03 1.30370E-15-1.84243E-01
 -1     10993-3.21597E-03 1.38520E-15 1.84243E-01
 -1     10994-3.21868E-03-8.80295E-15-1.84398E-01
 -1     10996-3.21868E-03-7.94382E-15 1.84398E-01
 -1     10997-3.19246E-03-4.07636E-15-1.82896E-01
 -1     10999-3.19246E-03-4.67910E-15 1.82896E-01
 -1     11000-3.16916E-03-2.36357E-16-1.81561E-01
 -1     11002-3.16916E-03-2.29659E-15 1.81561E-01
 -1     11003-3.14790E-03 1.24569E-15-1.80343E-01
 -1     11005-3.14790E-03 1.14342E-15 1.80343E-01
 -1     11006-3.16501E-03-2.14279E-15-1.81323E-01
 -1     11008-3.16501E-03-3.27555E-15 1.81323E-01
 -1     11009-3.16747E-03-1.38715E-14-1.81464E-01
 -1     11011-3.16747E-03-1.20184E-14 1.81464E-01
 -1     11012-3.10143E-03-5.28518E-15-1.77681E-01
 -1     11014-3.10143E-03-7.51032E-15 1.77681E-01
 -1     11015-3.21198E-03-1.00136E-14-1.84014E-01
 -1     11017-3.21198E-03-9.90182E-15 1.84014E-01
 -1     11018-3.30233E-03 3.48876E-15-1.89190E-01
 -1     11020-3.30233E-03 4.13970E-15 1.89190E-01
 -1     11021-3.08727E-03 6.53582E-15-1.76870E-01
 -1     11023-3.08727E-03 4.90300E-15 1.76870E-01
 -1     11024-3.56490E-03-2.30183E-15-2.04233E-01
 -1     11026-3.56490E-03-3.16741E-15 2.04233E-01
 -1     11027-3.79204E-03 5.27294E-15-2.17246E-01
 -1     11029-3.79204E-03 3.41379E-15 2.17246E-01
 -1     11030-3.15281E-03-3.94144E-15-1.80624E-01
 -1     11032-3.15281E-03-3.33625E-15 1.80624E-01
 -1     11033-7.00662E-03 4.37024E-15-4.01409E-01
 -1     11035-7.00662E-03 5.70997E-15 4.01409E-01
 -1     11036-7.23310E-03-1.39682E-15-4.14384E-01
 -1     11038-7.23310E-03-2.62091E-15 4.14384E-01
 -1     11039-7.34848E-03 1.35950E-15-4.20994E-01
 -1     11041-7.34848E-03 3.35538E-15 4.20994E-01
 -1     11042-6.89386E-03-5.74753E-16-3.94949E-01
 -1     11044-6.89386E-03-1.49766E-15 3.94949E-01
 -1     11045-1.72973E-02 5.53416E-15-9.90959E-01
 -1     11047-1.72973E-02 2.95917E-15 9.90959E-01
 -1     11048-1.74921E-02 1.00192E-14-1.00212E+00
 -1     11050-1.74921E-02 9.80744E-15 1.00212E+00
 -1     11051-1.63080E-02-8.15748E-15-9.34287E-01
 -1     11053-1.63080E-02-7.80955E-15 9.34287E-01
 -1     11054-2.84730E-03-1.13535E-14-1.63121E-01
 -1     11056-2.84730E-03-1.20213E-14 1.63121E-01
 -1     11057-2.55866E-03-1.38652E-15-1.46585E-01
 -1     11059-2.55866E-03-3.53507E-15 1.46585E-01
 -1     11060-2.75583E-03 3.71279E-15-1.57882E-01
 -1     11062-2.75583E-03 2.07487E-15 1.57882E-01
 -1     11063-2.74537E-03 3.30083E-15-1.57282E-01
 -1     11065-2.74537E-03 3.68915E-15 1.57282E-01
 -1     11066-2.82430E-03 3.17322E-15-1.61804E-01
 -1     11068-2.82430E-03 3.16545E-15 1.61804E-01
 -1     11069-2.81374E-03-1.84922E-15-1.61199E-01
 -1     11071-2.81374E-03-1.26064E-15 1.61199E-01
 -1     11072-2.59710E-03 1.08876E-15-1.48788E-01
 -1     11074-2.59710E-03 3.34818E-15 1.48788E-01
 -1     11075-3.77134E-03-7.14805E-15-2.16060E-01
 -1     11077-3.77134E-03-6.90780E-15 2.16060E-01
 -1     11078-3.40804E-03-9.03270E-15-1.95246E-01
 -1     11080-3.40804E-03-9.28613E-15 1.95246E-01
 -1     11081-3.04657E-03-1.90138E-15-1.74538E-01
 -1     11083-3.04657E-03-4.06478E-15 1.74538E-01
 -1     11084-3.38862E-03-1.81779E-14-1.94134E-01
 -1     11086-3.38862E-03-1.75126E-14 1.94134E-01
 -1     11087-3.61379E-03 4.61903E-15-2.07034E-01
 -1     11089-3.61379E-03 3.29590E-15 2.07034E-01
 -1     11090-3.64280E-03 3.27571E-15-2.08696E-01
 -1     11092-3.64280E-03 5.42958E-15 2.08696E-01
 -1     11093-3.56826E-03-8.97803E-16-2.04426E-01
 -1     11095-3.56826E-03-2.70173E-15 2.04426E-01
 -1     11096-1.68943E-02-3.62500E-16-9.67872E-01
 -1     11098-1.68943E-02-1.07344E-15 9.67872E-01
 -1     11099-1.68852E-02-2.84858E-15-9.67350E-01
 -1     11101-1.68852E-02-2.56642E-15 9.67350E-01
 -1     11102-1.88488E-02-9.05408E-16-1.07985E+00
 -1     11104-1.88488E-02-5.33650E-16 1.07985E+00
 -1     11105-1.69285E-02-2.65609E-15-9.69833E-01
 -1     11107-1.69285E-02-2.30664E-15 9.69833E-01
 -1     11108-1.69393E-02 5.05382E-15-9.70451E-01
 -1     11110-1.69393E-02 5.64694E-15 9.70451E-01
 -1     11111-1.65766E-02-5.21359E-15-9.49672E-01
 -1     11113-1.65766E-02-4.67289E-15 9.49672E-01
 -1     11114-1.65837E-02-6.41539E-16-9.50082E-01
 -1     11116-1.65837E-02-1.51480E-15 9.50082E-01
 -1     11117-1.57326E-02-4.94533E-15-9.01321E-01
 -1     11119-1.57326E-02-5.64274E-15 9.01321E-01
 -1     11120-1.23881E-02 2.33851E-15-7.09714E-01
 -1     11122-1.23881E-02 1.16722E-15 7.09714E-01
 -1     11123-1.27512E-02-3.35799E-16-7.30516E-01
 -1     11125-1.27512E-02 2.12478E-15 7.30516E-01
 -1     11126-8.73130E-03 3.97569E-15-5.00216E-01
 -1     11128-8.73130E-03 4.40043E-15 5.00216E-01
 -1     11129-9.17501E-03 7.40867E-16-5.25636E-01
 -1     11131-9.17501E-03-5.12654E-16 5.25636E-01
 -1     11132-8.50428E-03 2.22836E-16-4.87210E-01
 -1     11134-8.50428E-03-3.13882E-16 4.87210E-01
 -1     11135-9.64825E-03-9.19812E-15-5.52748E-01
 -1     11137-9.64825E-03-8.43851E-15 5.52748E-01
 -1     11138-1.02393E-02 5.11495E-15-5.86609E-01
 -1     11140-1.02393E-02 3.27112E-15 5.86609E-01
 -1     11141-9.35990E-03-2.35269E-16-5.36228E-01
 -1     11143-9.35990E-03-6.31661E-16 5.36228E-01
 -1     11144-6.18957E-03-2.38661E-15-3.54600E-01
 -1     11146-6.18957E-03-2.26012E-15 3.54600E-01
 -1     11147-6.37856E-03 4.04807E-15-3.65428E-01
 -1     11149-6.37856E-03 2.60288E-15 3.65428E-01
 -1     11150-1.60545E-02-4.77752E-15-9.19761E-01
 -1     11152-1.60545E-02-4.68347E-15 9.19761E-01
 -1     11153-5.11442E-03-2.95301E-15-2.93005E-01
 -1     11155-5.11442E-03 8.41494E-16 2.93005E-01
 -1     11156-5.18145E-03 4.38403E-15-2.96845E-01
 -1     11158-5.18145E-03 4.02205E-15 2.96845E-01
 -1     11159-4.99156E-03 8.83614E-16-2.85967E-01
 -1     11161-4.99156E-03-4.76826E-16 2.85967E-01
 -1     11162-5.53174E-03 5.33832E-16-3.16913E-01
 -1     11164-5.53174E-03 1.60755E-15 3.16913E-01
 -1     11165-5.68385E-03-2.73288E-15-3.25627E-01
 -1     11167-5.68385E-03-2.47330E-15 3.25627E-01
 -1     11168-4.93598E-03 3.79330E-16-2.82782E-01
 -1     11170-4.93598E-03 1.20158E-15 2.82782E-01
 -1     11171-5.76133E-03-2.52405E-15-3.30067E-01
 -1     11173-5.76133E-03-2.82115E-16 3.30067E-01
 -1     11174-4.56271E-03-2.47897E-15-2.61398E-01
 -1     11176-4.56271E-03-2.59223E-15 2.61398E-01
 -1     11177-4.66374E-03-2.23902E-15-2.67185E-01
 -1     11179-4.66374E-03-2.62651E-15 2.67185E-01
 -1     11180-3.83343E-03 1.11549E-15-2.19617E-01
 -1     11182-3.83343E-03 3.92510E-15 2.19617E-01
 -1     11183-3.86745E-03-6.60172E-15-2.21566E-01
 -1     11185-3.86745E-03-6.57932E-15 2.21566E-01
 -1     11186-3.77696E-03-5.61414E-16-2.16382E-01
 -1     11188-3.77696E-03-5.24273E-16 2.16382E-01
 -1     11189-3.55601E-03 6.89401E-16-2.03723E-01
 -1     11191-3.55601E-03 1.95218E-15 2.03723E-01
 -1     11192-4.04539E-03 5.62046E-15-2.31760E-01
 -1     11194-4.04539E-03 3.66328E-15 2.31760E-01
 -1     11195-4.12076E-03 4.41204E-15-2.36078E-01
 -1     11197-4.12076E-03 4.59590E-15 2.36078E-01
 -1     11198-3.75169E-03-4.04812E-15-2.14934E-01
 -1     11200-3.75169E-03-1.87816E-15 2.14934E-01
 -1     11201-4.16055E-03-1.97232E-15-2.38358E-01
 -1     11203-4.16055E-03-1.17801E-15 2.38358E-01
 -1     11204-1.59728E-02 6.32501E-15-9.15079E-01
 -1     11206-1.59728E-02 5.68500E-15 9.15079E-01
 -1     11207-3.40634E-03-8.52844E-15-1.95149E-01
 -1     11209-3.40634E-03-7.40907E-15 1.95149E-01
 -1     11210-3.44041E-03-3.38662E-15-1.97101E-01
 -1     11212-3.44041E-03-2.78945E-15 1.97101E-01
 -1     11213-2.62450E-03 7.91685E-15-1.50357E-01
 -1     11215-2.62450E-03 9.57814E-15 1.50357E-01
 -1     11216-3.02727E-03-4.11058E-15-1.73432E-01
 -1     11218-3.02727E-03-4.86265E-15 1.73432E-01
 -1     11219-3.15127E-03-5.05519E-15-1.80536E-01
 -1     11221-3.15127E-03-1.88386E-15 1.80536E-01
 -1     11222-2.30848E-03-7.16385E-15-1.32253E-01
 -1     11224-2.30848E-03-7.78136E-15 1.32253E-01
 -1     11225-2.33734E-03 3.33537E-15-1.33906E-01
 -1     11227-2.33734E-03 3.51737E-15 1.33906E-01
 -1     11228-2.45208E-03 1.09261E-14-1.40480E-01
 -1     11230-2.45208E-03 1.04262E-14 1.40480E-01
 -1     11231-1.78417E-02-1.28541E-15-1.02215E+00
 -1     11233-1.78417E-02-2.15594E-15 1.02215E+00
 -1     11234-1.73132E-02 2.05092E-15-9.91875E-01
 -1     11236-1.73132E-02 2.39686E-15 9.91875E-01
 -1     11237-1.76920E-02-5.95544E-15-1.01357E+00
 -1     11239-1.76920E-02-4.52825E-15 1.01357E+00
 -1     11240-3.23791E-03 4.20647E-15-1.85500E-01
 -1     11242-3.23791E-03 4.64558E-15 1.85500E-01
 -1     11243-3.47924E-03 1.05291E-15-1.99326E-01
 -1     11245-3.47924E-03 9.65974E-16 1.99326E-01
 -1     11246-3.41646E-03-8.84552E-15-1.95729E-01
 -1     11248-3.41646E-03-7.48072E-15 1.95729E-01
 -1     11249-1.67618E-02-6.50718E-16-9.60284E-01
 -1     11251-1.67618E-02-2.60527E-15 9.60284E-01
 -1     11252-2.78740E-03-1.23280E-14-1.59690E-01
 -1     11254-2.78740E-03-1.40417E-14 1.59690E-01
 -1     11255-2.76720E-03 6.01934E-15-1.58533E-01
 -1     11257-2.76720E-03 5.89982E-15 1.58533E-01
 -1     11258-6.47637E-03-4.75649E-15-3.71031E-01
 -1     11260-6.47637E-03-4.79659E-15 3.71031E-01
 -1     11261-2.83122E-03 3.37213E-15-1.62200E-01
 -1     11263-2.83122E-03 9.79181E-16 1.62200E-01
 -1     11264-2.83213E-03 2.92440E-15-1.62253E-01
 -1     11266-2.83213E-03 4.43567E-15 1.62253E-01
 -1     11267-2.82429E-03 3.26155E-15-1.61803E-01
 -1     11269-2.82429E-03 4.83780E-15 1.61803E-01
 -1     11270-2.82692E-03-6.67337E-15-1.61954E-01
 -1     11272-2.82692E-03-6.37232E-15 1.61954E-01
 -1     11273-2.80717E-03-1.19261E-14-1.60822E-01
 -1     11275-2.80717E-03-1.06603E-14 1.60822E-01
 -1     11276-2.81583E-03-1.62260E-15-1.61319E-01
 -1     11278-2.81583E-03-6.54025E-15 1.61319E-01
 -1     11279-2.78221E-03-6.53659E-16-1.59393E-01
 -1     11281-2.78221E-03 2.83608E-15 1.59393E-01
 -1     11282-2.79257E-03-1.07824E-15-1.59986E-01
 -1     11284-2.79257E-03-1.02123E-15 1.59986E-01
 -1     11285-2.92480E-03 1.31055E-15-1.67562E-01
 -1     11287-2.92480E-03 3.42846E-15 1.67562E-01
 -1     11288-2.82144E-03 2.56739E-15-1.61640E-01
 -1     11290-2.82144E-03 7.98221E-16 1.61640E-01
 -1     11291-1.30309E-02 2.80687E-16-7.46542E-01
 -1     11293-1.30309E-02-4.12743E-17 7.46542E-01
 -1     11294-1.24031E-02 2.66070E-15-7.10575E-01
 -1     11296-1.24031E-02 2.49749E-15 7.10575E-01
 -1     11297-1.41267E-02-2.17916E-15-8.09316E-01
 -1     11299-1.41267E-02-2.54519E-15 8.09316E-01
 -1     11300-2.77719E-03-4.52539E-15-1.59105E-01
 -1     11302-2.77719E-03-4.06297E-15 1.59105E-01
 -1     11303-2.80823E-03 1.10766E-14-1.60884E-01
 -1     11305-2.80823E-03 9.15916E-15 1.60884E-01
 -1     11306-1.08807E-02 2.42333E-15-6.23355E-01
 -1     11308-1.08807E-02 3.77301E-15 6.23355E-01
 -1     11309-1.16454E-02-1.34656E-16-6.67167E-01
 -1     11311-1.16454E-02 7.57137E-16 6.67167E-01
 -1     11312-1.23696E-02 4.34517E-15-7.08654E-01
 -1     11314-1.23696E-02 1.64278E-15 7.08654E-01
 -1     11315-1.05882E-02-3.21989E-15-6.06595E-01
 -1     11317-1.05882E-02-2.28475E-15 6.06595E-01
 -1     11318-2.94841E-03-9.17070E-15-1.68914E-01
 -1     11320-2.94841E-03-1.04930E-14 1.68914E-01
 -1     11321-2.47102E-03 4.65991E-15-1.41565E-01
 -1     11323-2.47102E-03 5.52496E-15 1.41565E-01
 -1     11324-2.77864E-03 2.84003E-15-1.59188E-01
 -1     11326-2.77864E-03 8.23281E-16 1.59188E-01
 -1     11327-1.60013E-02 1.43315E-15-9.16713E-01
 -1     11329-1.60013E-02 1.26433E-15 9.16713E-01
 -1     11330-1.54346E-02-7.33184E-15-8.84248E-01
 -1     11332-1.54346E-02-5.86726E-15 8.84248E-01
 -1     11333-1.60439E-02 5.64007E-16-9.19153E-01
 -1     11335-1.60439E-02-2.54074E-16 9.19153E-01
 -1     11336-4.71588E-03-1.10299E-14-2.70172E-01
 -1     11338-4.71588E-03-9.76611E-15 2.70172E-01
 -1     11339-2.86506E-03-5.17305E-15-1.64139E-01
 -1     11341-2.86506E-03-6.42155E-15 1.64139E-01
 -1     11342-6.09828E-03-8.40751E-15-3.49370E-01
 -1     11344-6.09828E-03-9.39372E-15 3.49370E-01
 -1     11345-5.45757E-03-7.76908E-15-3.12664E-01
 -1     11347-5.45757E-03-6.92132E-15 3.12664E-01
 -1     11348-4.51351E-03-1.87912E-15-2.58579E-01
 -1     11350-4.51351E-03-3.14833E-15 2.58579E-01
 -1     11351-4.00898E-03-3.53609E-15-2.29674E-01
 -1     11353-4.00898E-03-2.13184E-15 2.29674E-01
 -1     11354-3.03766E-03-9.40947E-16-1.74027E-01
 -1     11356-3.03766E-03 7.72168E-16 1.74027E-01
 -1     11357-2.80730E-03 6.46368E-15-1.60830E-01
 -1     11359-2.80730E-03 4.73806E-15 1.60830E-01
 -1     11360-2.83617E-03 3.91464E-15-1.62484E-01
 -1     11362-2.83617E-03 4.12666E-15 1.62484E-01
 -1     11363-2.85834E-03-2.17384E-16-1.63754E-01
 -1     11365-2.85834E-03-4.49335E-16 1.63754E-01
 -1     11366-2.82538E-03-2.29134E-15-1.61866E-01
 -1     11368-2.82538E-03-1.89685E-15 1.61866E-01
 -1     11369-2.86105E-03-7.32992E-15-1.63910E-01
 -1     11371-2.86105E-03-8.61027E-15 1.63910E-01
 -1     11372-2.85828E-03 1.05843E-15-1.63751E-01
 -1     11374-2.85828E-03-1.38453E-15 1.63751E-01
 -1     11375-2.85397E-03-3.10564E-15-1.63504E-01
 -1     11377-2.85397E-03-5.36766E-15 1.63504E-01
 -1     11378-4.28578E-03-5.86190E-15-2.45532E-01
 -1     11380-4.28578E-03-6.14992E-15 2.45532E-01
 -1     11381-4.37357E-03 5.71073E-15-2.50562E-01
 -1     11383-4.37357E-03 6.27344E-15 2.50562E-01
 -1     11384-2.90008E-03 3.91516E-15-1.66146E-01
 -1     11386-2.90008E-03 4.99584E-15 1.66146E-01
 -1     11387-2.90196E-03-9.65918E-15-1.66253E-01
 -1     11389-2.90196E-03-9.04341E-15 1.66253E-01
 -1     11390-1.51396E-02 1.08740E-15-8.67348E-01
 -1     11392-1.51396E-02-2.23041E-16 8.67348E-01
 -1     11393-1.51095E-02 6.03437E-16-8.65624E-01
 -1     11395-1.51095E-02 1.85660E-15 8.65624E-01
 -1     11396-1.44754E-02-1.75603E-15-8.29294E-01
 -1     11398-1.44754E-02-1.31108E-15 8.29294E-01
 -1     11399-1.44339E-02 1.15813E-14-8.26918E-01
 -1     11401-1.44339E-02 8.69964E-15 8.26918E-01
 -1     11402-1.60909E-02-7.71877E-15-9.21846E-01
 -1     11404-1.60909E-02-7.31000E-15 9.21846E-01
 -1     11405-4.66350E-03-8.37610E-15-2.67172E-01
 -1     11407-4.66350E-03-8.36618E-15 2.67172E-01
 -1     11408-4.76935E-03-7.81619E-16-2.73236E-01
 -1     11410-4.76935E-03 4.49097E-16 2.73236E-01
 -1     11411-4.46576E-03 2.66398E-15-2.55843E-01
 -1     11413-4.46576E-03 3.05940E-16 2.55843E-01
 -1     11414-4.56223E-03 7.53817E-15-2.61370E-01
 -1     11416-4.56223E-03 8.40314E-15 2.61370E-01
 -1     11417-4.61399E-03 1.12560E-15-2.64335E-01
 -1     11419-4.61399E-03 5.42992E-16 2.64335E-01
 -1     11420-4.42041E-03-3.18893E-15-2.53245E-01
 -1     11422-4.42041E-03-3.03887E-15 2.53245E-01
 -1     11423-2.74392E-03-3.96031E-15-1.57199E-01
 -1     11425-2.74392E-03 6.73741E-18 1.57199E-01
 -1     11426-2.71899E-03-3.31450E-15-1.55771E-01
 -1     11428-2.71899E-03-3.03832E-15 1.55771E-01
 -1     11429-2.87167E-03-7.49105E-15-1.64518E-01
 -1     11431-2.87167E-03-4.89613E-15 1.64518E-01
 -1     11432-2.84542E-03-7.98824E-15-1.63014E-01
 -1     11434-2.84542E-03-1.03574E-14 1.63014E-01
 -1     11435-1.52250E-02 5.27946E-15-8.72242E-01
 -1     11437-1.52250E-02 5.42042E-15 8.72242E-01
 -1     11438-1.52514E-02-2.96113E-15-8.73750E-01
 -1     11440-1.52514E-02-3.98089E-15 8.73750E-01
 -1     11441-1.47113E-02 2.44806E-15-8.42807E-01
 -1     11443-1.47113E-02 2.88351E-15 8.42807E-01
 -1     11444-1.49866E-02 2.77192E-16-8.58584E-01
 -1     11446-1.49866E-02 1.33881E-15 8.58584E-01
 -1     11447-1.39288E-02-8.16020E-16-7.97978E-01
 -1     11449-1.39288E-02-7.81520E-16 7.97978E-01
 -1     11450-1.51244E-02-6.90477E-15-8.66477E-01
 -1     11452-1.51244E-02-5.24641E-15 8.66477E-01
 -1     11453-1.51771E-02-8.00463E-16-8.69496E-01
 -1     11455-1.51771E-02-2.74908E-16 8.69496E-01
 -1     11456-1.43132E-02 1.56584E-16-8.20002E-01
 -1     11458-1.43132E-02-2.39029E-16 8.20002E-01
 -1     11459-7.71006E-03-4.45326E-16-4.41709E-01
 -1     11461-7.71006E-03 6.58705E-16 4.41709E-01
 -1     11462-7.97833E-03-4.00661E-15-4.57078E-01
 -1     11464-7.97833E-03-2.67733E-15 4.57078E-01
 -1     11465-2.89277E-03 3.55986E-15-1.65727E-01
 -1     11467-2.89277E-03 4.13071E-15 1.65727E-01
 -1     11468-2.89087E-03-1.54940E-14-1.65618E-01
 -1     11470-2.89087E-03-1.50952E-14 1.65618E-01
 -1     11471-1.53740E-02-1.61227E-15-8.80776E-01
 -1     11473-1.53740E-02-2.45587E-15 8.80776E-01
 -1     11474-1.55765E-02-1.05808E-15-8.92375E-01
 -1     11476-1.55765E-02-1.39608E-15 8.92375E-01
 -1     11477-6.01096E-03 1.54106E-15-3.44368E-01
 -1     11479-6.01096E-03 5.26755E-16 3.44368E-01
 -1     11480-6.18959E-03-3.85696E-16-3.54601E-01
 -1     11482-6.18959E-03 7.74408E-16 3.54601E-01
 -1     11483-5.38570E-03 5.62790E-15-3.08547E-01
 -1     11485-5.38570E-03 3.68615E-15 3.08547E-01
 -1     11486-5.53046E-03-7.62025E-15-3.16840E-01
 -1     11488-5.53046E-03-8.55639E-15 3.16840E-01
 -1     11489-2.88162E-03-9.99251E-15-1.65088E-01
 -1     11491-2.88162E-03-1.09130E-14 1.65088E-01
 -1     11492-2.89273E-03-9.49132E-16-1.65725E-01
 -1     11494-2.89273E-03 1.42969E-15 1.65725E-01
 -1     11495-1.52517E-02-3.95810E-15-8.73770E-01
 -1     11497-1.52517E-02-4.19769E-15 8.73770E-01
 -1     11498-1.52421E-02 2.30709E-15-8.73219E-01
 -1     11500-1.52421E-02 3.35168E-15 8.73219E-01
 -1     11501-1.45115E-02 4.23832E-16-8.31362E-01
 -1     11503-1.45115E-02-1.80661E-16 8.31362E-01
 -1     11504-2.92681E-03 3.72118E-15-1.67677E-01
 -1     11506-2.92681E-03 3.71079E-15 1.67677E-01
 -1     11507-2.81138E-03-9.61596E-17-1.61064E-01
 -1     11509-2.81138E-03 3.89991E-16 1.61064E-01
 -1     11510-2.95721E-03-3.74120E-15-1.69418E-01
 -1     11512-2.95721E-03-3.30692E-15 1.69418E-01
 -1     11513-5.68200E-03-1.72741E-15-3.25521E-01
 -1     11515-5.68200E-03-1.70197E-15 3.25521E-01
 -1     11516-5.84151E-03 4.97708E-15-3.34660E-01
 -1     11518-5.84151E-03 3.22439E-15 3.34660E-01
 -1     11519-5.92393E-03 2.19073E-15-3.39382E-01
 -1     11521-5.92393E-03 3.61978E-15 3.39382E-01
 -1     11522-5.60527E-03 5.07409E-16-3.21126E-01
 -1     11524-5.60527E-03-7.59292E-16 3.21126E-01
 -1     11525-3.23663E-03-6.26878E-15-1.85426E-01
 -1     11527-3.23663E-03-6.41661E-15 1.85426E-01
 -1     11528-3.24494E-03-6.11143E-16-1.85902E-01
 -1     11530-3.24494E-03-2.49038E-15 1.85902E-01
 -1     11531-4.88012E-03 3.64684E-15-2.79582E-01
 -1     11533-4.88012E-03 1.30252E-15 2.79582E-01
 -1     11534-4.99676E-03-5.83624E-15-2.86264E-01
 -1     11536-4.99676E-03-6.72646E-15 2.86264E-01
 -1     11537-4.82565E-03 1.87161E-15-2.76461E-01
 -1     11539-4.82565E-03 1.52675E-15 2.76461E-01
 -1     11540-3.97328E-03 1.83779E-15-2.27629E-01
 -1     11542-3.97328E-03 2.00154E-15 2.27629E-01
 -1     11543-4.04565E-03 6.07185E-15-2.31775E-01
 -1     11545-4.04565E-03 5.88648E-15 2.31775E-01
 -1     11546-3.72502E-03 3.13089E-15-2.13406E-01
 -1     11548-3.72502E-03 2.33339E-15 2.13406E-01
 -1     11549-3.78055E-03 3.13675E-15-2.16588E-01
 -1     11551-3.78055E-03 2.73289E-15 2.16588E-01
 -1     11552-3.55851E-03 7.20747E-15-2.03867E-01
 -1     11554-3.55851E-03 6.71084E-15 2.03867E-01
 -1     11555-3.58989E-03 1.00356E-15-2.05665E-01
 -1     11557-3.58989E-03-1.51429E-16 2.05665E-01
 -1     11558-1.65766E-02 6.48416E-15-9.49673E-01
 -1     11560-1.65766E-02 4.21642E-15 9.49673E-01
 -1     11561-1.65688E-02-1.30809E-15-9.49228E-01
 -1     11563-1.65688E-02-1.26214E-15 9.49228E-01
 -1     11564-1.58323E-02 1.60690E-15-9.07031E-01
 -1     11566-1.58323E-02 2.51753E-15 9.07031E-01
 -1     11567-1.61883E-02 5.52686E-15-9.27425E-01
 -1     11569-1.61883E-02 5.48408E-15 9.27425E-01
 -1     11570-1.48810E-02 4.76382E-15-8.52535E-01
 -1     11572-1.48810E-02 4.12284E-15 8.52535E-01
 -1     11573-2.59701E-03-3.39636E-15-1.48783E-01
 -1     11575-2.59701E-03-6.34680E-15 1.48783E-01
 -1     11576-2.55579E-03-2.61726E-15-1.46421E-01
 -1     11578-2.55579E-03-3.05486E-15 1.46421E-01
 -1     11579-2.77347E-03-6.39378E-15-1.58892E-01
 -1     11581-2.77347E-03-4.95472E-15 1.58892E-01
 -1     11582-2.84192E-03 2.18139E-15-1.62813E-01
 -1     11584-2.84192E-03 3.16274E-15 1.62813E-01
 -1     11585-2.87505E-03-6.30038E-16-1.64712E-01
 -1     11587-2.87505E-03-4.23599E-16 1.64712E-01
 -1     11588-2.81881E-03 1.50651E-15-1.61490E-01
 -1     11590-2.81881E-03 3.39717E-15 1.61490E-01
 -1     11591-2.80228E-03-7.27175E-15-1.60542E-01
 -1     11593-2.80228E-03-5.16936E-15 1.60542E-01
 -1     11594-2.86746E-03-3.99446E-15-1.64277E-01
 -1     11596-2.86746E-03-1.32570E-15 1.64277E-01
 -1     11597-5.11923E-03 1.89804E-18-2.93281E-01
 -1     11599-5.11923E-03 1.67354E-15 2.93281E-01
 -1     11600-5.24867E-03-5.86592E-15-3.00696E-01
 -1     11602-5.24867E-03-4.75837E-15 3.00696E-01
 -1     11603-5.31747E-03-9.24704E-16-3.04637E-01
 -1     11605-5.31747E-03-1.46717E-15 3.04637E-01
 -1     11606-5.05928E-03 3.79870E-16-2.89846E-01
 -1     11608-5.05928E-03-1.25511E-15 2.89846E-01
 -1     11609-2.83703E-03 6.44655E-15-1.62533E-01
 -1     11611-2.83703E-03 7.36941E-15 1.62533E-01
 -1     11612-2.59543E-03 5.03582E-15-1.48692E-01
 -1     11614-2.59543E-03 4.22143E-15 1.48692E-01
 -1     11615-2.96747E-03-1.25553E-16-1.70006E-01
 -1     11617-2.96747E-03-6.13043E-16 1.70006E-01
 -1     11618-3.32249E-03 7.59610E-17-1.90345E-01
 -1     11620-3.32249E-03 1.48668E-15 1.90345E-01
 -1     11621-3.32707E-03-5.48595E-15-1.90608E-01
 -1     11623-3.32707E-03-6.47934E-15 1.90608E-01
 -1     11624-3.41282E-03 5.07110E-16-1.95520E-01
 -1     11626-3.41282E-03 1.03491E-15 1.95520E-01
 -1     11627-2.90449E-03 4.13064E-15-1.66398E-01
 -1     11629-2.90449E-03 4.60649E-15 1.66398E-01
 -1     11630-2.90162E-03 1.79902E-15-1.66234E-01
 -1     11632-2.90162E-03 7.19051E-17 1.66234E-01
 -1     11633-2.94335E-03 5.06258E-15-1.68624E-01
 -1     11635-2.94335E-03 7.19831E-15 1.68624E-01
 -1     11636-2.90002E-03-5.18720E-15-1.66142E-01
 -1     11638-2.90002E-03-4.32556E-15 1.66142E-01
 -1     11639-2.88580E-03 9.18465E-15-1.65328E-01
 -1     11641-2.88580E-03 7.69577E-15 1.65328E-01
 -1     11642-2.94761E-03 2.97628E-16-1.68869E-01
 -1     11644-2.94761E-03-1.46904E-15 1.68869E-01
 -1     11645-1.52133E-02 3.62099E-15-8.71572E-01
 -1     11647-1.52133E-02 3.73697E-15 8.71572E-01
 -1     11648-1.52742E-02-1.04473E-15-8.75057E-01
 -1     11650-1.52742E-02 1.51417E-15 8.75057E-01
 -1     11651-1.43939E-02-7.55892E-15-8.24625E-01
 -1     11653-1.43939E-02-6.38095E-15 8.24625E-01
 -1     11654-6.37853E-03-8.63387E-15-3.65426E-01
 -1     11656-6.37853E-03-6.90634E-15 3.65426E-01
 -1     11657-6.57510E-03 3.83415E-16-3.76687E-01
 -1     11659-6.57510E-03 3.32543E-16 3.76687E-01
 -1     11660-6.28183E-03 2.35993E-15-3.59886E-01
 -1     11662-6.28183E-03 1.95012E-15 3.59886E-01
 -1     11663-2.79623E-03 4.80900E-15-1.60196E-01
 -1     11665-2.79623E-03 4.42336E-15 1.60196E-01
 -1     11666-2.68144E-03 6.35926E-15-1.53619E-01
 -1     11668-2.68144E-03 6.95352E-15 1.53619E-01
 -1     11669-2.78634E-03 3.61638E-15-1.59629E-01
 -1     11671-2.78634E-03 7.56016E-16 1.59629E-01
 -1     11672-2.88766E-03 3.58711E-15-1.65434E-01
 -1     11674-2.88766E-03 2.87605E-15 1.65434E-01
 -1     11675-2.89059E-03-7.24703E-15-1.65602E-01
 -1     11677-2.89059E-03-5.80201E-15 1.65602E-01
 -1     11678-2.92129E-03 5.00762E-15-1.67360E-01
 -1     11680-2.92129E-03 3.78865E-15 1.67360E-01
 -1     11681-1.50821E-02-2.89046E-15-8.64051E-01
 -1     11683-1.50821E-02-3.34803E-15 8.64051E-01
 -1     11684-1.51847E-02 1.69135E-15-8.69929E-01
 -1     11686-1.51847E-02 1.18558E-15 8.69929E-01
 -1     11687-1.43264E-02 3.65290E-16-8.20761E-01
 -1     11689-1.43264E-02-8.40131E-16 8.20761E-01
 -1     11690-2.89208E-03-1.79982E-16-1.65687E-01
 -1     11692-2.89208E-03 3.31369E-16 1.65687E-01
 -1     11693-2.89552E-03-3.68756E-15-1.65884E-01
 -1     11695-2.89552E-03-4.11968E-15 1.65884E-01
 -1     11696-2.93579E-03 1.20676E-14-1.68191E-01
 -1     11698-2.93579E-03 1.39511E-14 1.68191E-01
 -1     11699-2.83230E-03 9.67662E-15-1.62262E-01
 -1     11701-2.83230E-03 1.07660E-14 1.62262E-01
 -1     11702-2.82630E-03 6.13694E-15-1.61919E-01
 -1     11704-2.82630E-03 5.61862E-15 1.61919E-01
 -1     11705-2.80530E-03 7.83005E-15-1.60716E-01
 -1     11707-2.80530E-03 6.64395E-15 1.60716E-01
 -1     11708-1.40291E-02 1.22706E-15-8.03727E-01
 -1     11710-1.40291E-02 3.62577E-15 8.03727E-01
 -1     11711-1.52140E-02-2.70845E-16-8.71612E-01
 -1     11713-1.52140E-02-3.14697E-16 8.71612E-01
 -1     11714-1.23760E-02-1.17626E-15-7.09020E-01
 -1     11716-1.23760E-02 6.36427E-16 7.09020E-01
 -1     11717-1.34951E-02-2.20937E-17-7.73131E-01
 -1     11719-1.34951E-02-2.29150E-16 7.73131E-01
 -1     11720-3.63120E-03 1.04822E-15-2.08031E-01
 -1     11722-3.63120E-03 1.08809E-15 2.08031E-01
 -1     11723-3.67037E-03-3.72275E-15-2.10275E-01
 -1     11725-3.67037E-03-5.03649E-15 2.10275E-01
 -1     11726-3.69799E-03-4.77365E-16-2.11858E-01
 -1     11728-3.69799E-03-5.29886E-16 2.11858E-01
 -1     11729-3.62138E-03 2.52737E-15-2.07468E-01
 -1     11731-3.62138E-03 1.26994E-15 2.07468E-01
 -1     11732-1.41950E-02 7.26618E-15-8.13234E-01
 -1     11734-1.41950E-02 6.78734E-15 8.13234E-01
 -1     11735-1.25486E-02-4.60362E-16-7.18907E-01
 -1     11737-1.25486E-02 3.78141E-16 7.18907E-01
 -1     11738-1.20228E-02-3.34585E-15-6.88785E-01
 -1     11740-1.20228E-02-2.67564E-15 6.88785E-01
 -1     11741-1.13826E-02-4.73481E-15-6.52111E-01
 -1     11743-1.13826E-02-3.15825E-15 6.52111E-01
 -1     11744-1.24708E-02-3.95117E-15-7.14454E-01
 -1     11746-1.24708E-02-4.21465E-15 7.14454E-01
 -1     11747-1.08208E-02 4.19260E-15-6.19923E-01
 -1     11749-1.08208E-02 3.47827E-15 6.19923E-01
 -1     11750-1.02897E-02-1.00099E-15-5.89498E-01
 -1     11752-1.02897E-02-2.43639E-15 5.89498E-01
 -1     11753-1.10256E-02 4.11324E-15-6.31657E-01
 -1     11755-1.10256E-02 3.70596E-15 6.31657E-01
 -1     11756-9.79885E-03 5.06806E-15-5.61375E-01
 -1     11758-9.79885E-03 3.47256E-15 5.61375E-01
 -1     11759-9.34256E-03-3.53940E-15-5.35235E-01
 -1     11761-9.34256E-03-2.38409E-15 5.35235E-01
 -1     11762-9.90971E-03-7.72962E-16-5.67727E-01
 -1     11764-9.90971E-03-1.00643E-15 5.67727E-01
 -1     11765-8.93701E-03 2.37650E-15-5.12001E-01
 -1     11767-8.93701E-03 3.87726E-15 5.12001E-01
 -1     11768-8.55767E-03 2.77733E-15-4.90269E-01
 -1     11770-8.55767E-03 2.60283E-15 4.90269E-01
 -1     11771-8.99111E-03 2.58154E-15-5.15100E-01
 -1     11773-8.99111E-03 1.50863E-15 5.15100E-01
 -1     11774-8.22330E-03 1.23823E-14-4.71112E-01
 -1     11776-8.22330E-03 1.21297E-14 4.71112E-01
 -1     11777-7.90755E-03 1.13686E-15-4.53023E-01
 -1     11779-7.90755E-03-2.86543E-16 4.53023E-01
 -1     11780-8.24599E-03-5.22512E-15-4.72412E-01
 -1     11782-8.24599E-03-4.01966E-15 4.72412E-01
 -1     11783-7.62711E-03-3.87232E-15-4.36957E-01
 -1     11785-7.62711E-03-4.82012E-15 4.36957E-01
 -1     11786-7.36180E-03-6.88761E-16-4.21757E-01
 -1     11788-7.36180E-03-1.00137E-15 4.21757E-01
 -1     11789-7.63550E-03-6.87104E-15-4.37438E-01
 -1     11791-7.63550E-03-6.53854E-15 4.37438E-01
 -1     11792-7.12103E-03-3.58944E-15-4.07964E-01
 -1     11794-7.12103E-03-2.75604E-15 4.07964E-01
 -1     11795-6.89341E-03 1.04394E-15-3.94923E-01
 -1     11797-6.89341E-03 1.54923E-15 3.94923E-01
 -1     11798-7.12471E-03 7.00938E-15-4.08174E-01
 -1     11800-7.12471E-03 8.53013E-15 4.08174E-01
 -1     11801-6.68151E-03-3.62313E-16-3.82783E-01
 -1     11803-6.68151E-03-3.41348E-15 3.82783E-01
 -1     11804-6.48064E-03 8.42076E-15-3.71276E-01
 -1     11806-6.48064E-03 7.66884E-15 3.71276E-01
 -1     11807-6.68386E-03-8.47825E-15-3.82918E-01
 -1     11809-6.68386E-03-8.82919E-15 3.82918E-01
 -1     11810-6.29059E-03-1.20403E-15-3.60388E-01
 -1     11812-6.29059E-03-1.79247E-16 3.60388E-01
 -1     11813-6.11105E-03 5.33736E-17-3.50102E-01
 -1     11815-6.11105E-03-5.76175E-16 3.50102E-01
 -1     11816-6.29168E-03-9.75098E-16-3.60450E-01
 -1     11818-6.29168E-03-3.33135E-15 3.60450E-01
 -1     11819-5.93947E-03-2.33239E-15-3.40272E-01
 -1     11821-5.93947E-03-3.99670E-15 3.40272E-01
 -1     11822-5.77768E-03 2.09818E-15-3.31003E-01
 -1     11824-5.77768E-03 2.85354E-15 3.31003E-01
 -1     11825-5.93820E-03 4.13585E-16-3.40199E-01
 -1     11827-5.93820E-03 3.74663E-16 3.40199E-01
 -1     11828-5.62260E-03-3.13304E-15-3.22119E-01
 -1     11830-5.62260E-03-4.38746E-15 3.22119E-01
 -1     11831-5.47571E-03 2.04828E-15-3.13703E-01
 -1     11833-5.47571E-03 4.09380E-16 3.13703E-01
 -1     11834-5.61849E-03-1.28706E-14-3.21883E-01
 -1     11836-5.61849E-03-1.32983E-14 3.21883E-01
 -1     11837-5.33551E-03 1.69138E-15-3.05671E-01
 -1     11839-5.33551E-03-1.12200E-15 3.05671E-01
 -1     11840-5.20296E-03 7.01018E-15-2.98077E-01
 -1     11842-5.20296E-03 5.01316E-15 2.98077E-01
 -1     11843-5.32897E-03 9.84080E-17-3.05297E-01
 -1     11845-5.32897E-03 6.45689E-16 3.05297E-01
 -1     11846-5.07703E-03 2.51764E-15-2.90863E-01
 -1     11848-5.07703E-03 4.27383E-15 2.90863E-01
 -1     11849-4.95812E-03-2.28834E-15-2.84050E-01
 -1     11851-4.95812E-03-2.59778E-15 2.84050E-01
 -1     11852-5.06787E-03 4.32100E-15-2.90338E-01
 -1     11854-5.06787E-03 5.51158E-15 2.90338E-01
 -1     11855-4.84478E-03 9.80314E-16-2.77557E-01
 -1     11857-4.84478E-03 2.50661E-15 2.77557E-01
 -1     11858-4.73689E-03-2.14978E-15-2.71376E-01
 -1     11860-4.73689E-03-2.05021E-15 2.71376E-01
 -1     11861-4.83270E-03 5.45565E-15-2.76865E-01
 -1     11863-4.83270E-03 6.48004E-15 2.76865E-01
 -1     11864-4.63361E-03 1.04431E-15-2.65459E-01
 -1     11866-4.63361E-03 1.36787E-15 2.65459E-01
 -1     11867-4.53433E-03-1.70084E-15-2.59772E-01
 -1     11869-4.53433E-03-1.90870E-15 2.59772E-01
 -1     11870-4.61933E-03-5.22474E-15-2.64641E-01
 -1     11872-4.61933E-03-4.93007E-15 2.64641E-01
 -1     11873-4.43959E-03-2.92875E-15-2.54344E-01
 -1     11875-4.43959E-03-3.02524E-15 2.54344E-01
 -1     11876-4.34801E-03-5.74701E-15-2.49097E-01
 -1     11878-4.34801E-03-4.47239E-15 2.49097E-01
 -1     11879-4.42382E-03-4.14516E-15-2.53441E-01
 -1     11881-4.42382E-03-5.12808E-15 2.53441E-01
 -1     11882-4.26038E-03 2.48046E-15-2.44077E-01
 -1     11884-4.26038E-03 5.81332E-15 2.44077E-01
 -1     11885-4.17580E-03-5.34491E-15-2.39231E-01
 -1     11887-4.17580E-03-7.27085E-15 2.39231E-01
 -1     11888-4.24334E-03 9.49738E-16-2.43101E-01
 -1     11890-4.24334E-03-4.45945E-16 2.43101E-01
 -1     11891-4.09448E-03-6.29593E-15-2.34572E-01
 -1     11893-4.09448E-03-4.42947E-15 2.34572E-01
 -1     11894-4.01572E-03 2.15140E-15-2.30061E-01
 -1     11896-4.01572E-03 1.56606E-15 2.30061E-01
 -1     11897-4.07594E-03 3.92175E-15-2.33510E-01
 -1     11899-4.07594E-03 2.80142E-15 2.33510E-01
 -1     11900-3.94022E-03-3.97456E-16-2.25735E-01
 -1     11902-3.94022E-03 1.31242E-15 2.25735E-01
 -1     11903-3.86671E-03-2.40800E-15-2.21524E-01
 -1     11905-3.86671E-03-1.24865E-15 2.21524E-01
 -1     11906-3.92005E-03 3.59946E-15-2.24579E-01
 -1     11908-3.92005E-03 4.08121E-15 2.24579E-01
 -1     11909-3.79649E-03-6.64256E-15-2.17501E-01
 -1     11911-3.79649E-03-6.15163E-15 2.17501E-01
 -1     11912-3.72694E-03 3.50884E-15-2.13516E-01
 -1     11914-3.72694E-03 3.59693E-15 2.13516E-01
 -1     11915-3.77462E-03 8.16238E-15-2.16248E-01
 -1     11917-3.77462E-03 6.67152E-15 2.16248E-01
 -1     11918-3.66119E-03 5.52111E-15-2.09750E-01
 -1     11920-3.66119E-03 2.66884E-15 2.09750E-01
 -1     11921-3.59399E-03 1.36477E-15-2.05899E-01
 -1     11923-3.59399E-03 4.92604E-16 2.05899E-01
 -1     11924-3.63777E-03 9.13656E-15-2.08408E-01
 -1     11926-3.63777E-03 7.19581E-15 2.08408E-01
 -1     11927-3.53171E-03 2.76970E-15-2.02331E-01
 -1     11929-3.53171E-03 5.83809E-15 2.02331E-01
 -1     11930-3.46686E-03 2.53409E-15-1.98616E-01
 -1     11932-3.46686E-03 3.16869E-15 1.98616E-01
 -1     11933-3.50659E-03-1.12632E-15-2.00892E-01
 -1     11935-3.50659E-03-1.01026E-15 2.00892E-01
 -1     11936-3.40755E-03 5.43467E-15-1.95218E-01
 -1     11938-3.40755E-03 5.11618E-15 1.95218E-01
 -1     11939-3.34537E-03-9.11059E-15-1.91656E-01
 -1     11941-3.34537E-03-1.20805E-14 1.91656E-01
 -1     11942-3.37954E-03 7.81484E-15-1.93614E-01
 -1     11944-3.37954E-03 9.52009E-15 1.93614E-01
 -1     11945-3.28920E-03 9.28342E-16-1.88438E-01
 -1     11947-3.28920E-03 2.01517E-16 1.88438E-01
 -1     11948-3.23380E-03-1.37896E-15-1.85264E-01
 -1     11950-3.23380E-03-1.60645E-15 1.85264E-01
 -1     11951-3.25598E-03-1.02652E-15-1.86535E-01
 -1     11953-3.25598E-03-1.33039E-15 1.86535E-01
 -1     11954-3.18589E-03 1.40096E-15-1.82519E-01
 -1     11956-3.18589E-03 3.50510E-15 1.82519E-01
 -1     11957-3.13896E-03 1.15273E-15-1.79831E-01
 -1     11959-3.13896E-03 1.35059E-15 1.79831E-01
 -1     11960-3.13800E-03 6.32387E-15-1.79776E-01
 -1     11962-3.13800E-03 5.67951E-15 1.79776E-01
 -1     11963-3.10507E-03-1.54066E-14-1.77890E-01
 -1     11965-3.10507E-03-1.45583E-14 1.77890E-01
 -1     11966-3.06284E-03-9.47468E-15-1.75470E-01
 -1     11968-3.06284E-03-7.43540E-15 1.75470E-01
 -1     11969-3.04485E-03 3.74716E-15-1.74439E-01
 -1     11971-3.04485E-03 3.33219E-15 1.74439E-01
 -1     11972-3.03989E-03 5.04817E-15-1.74155E-01
 -1     11974-3.03989E-03 7.97303E-15 1.74155E-01
 -1     11975-3.00053E-03 1.12078E-15-1.71900E-01
 -1     11977-3.00053E-03 1.24390E-15 1.71900E-01
 -1     11978-2.97885E-03 4.87810E-15-1.70658E-01
 -1     11980-2.97885E-03 6.10336E-15 1.70658E-01
 -1     11981-2.98423E-03-9.08181E-15-1.70966E-01
 -1     11983-2.98423E-03-8.85752E-15 1.70966E-01
 -1     11984-2.93851E-03 4.68767E-15-1.68347E-01
 -1     11986-2.93851E-03 4.91049E-15 1.68347E-01
 -1     11987-2.90397E-03-5.62262E-16-1.66368E-01
 -1     11989-2.90397E-03-7.20066E-16 1.66368E-01
 -1     11990-2.91408E-03-3.32079E-15-1.66947E-01
 -1     11992-2.91408E-03-4.83183E-15 1.66947E-01
 -1     11993-2.95064E-03 4.58280E-15-1.69042E-01
 -1     11995-2.95064E-03 5.12434E-15 1.69042E-01
 -1     11996-2.61790E-03-5.40710E-15-1.49979E-01
 -1     11998-2.61790E-03-9.87560E-15 1.49979E-01
 -1     11999-2.80335E-03-9.70382E-15-1.60604E-01
 -1     12001-2.80335E-03-1.10267E-14 1.60604E-01
 -1     12002-2.70775E-03 1.23032E-14-1.55127E-01
 -1     12004-2.70775E-03 1.06132E-14 1.55127E-01
 -1     12005-2.84764E-03-2.44582E-15-1.63141E-01
 -1     12007-2.84764E-03-3.07832E-15 1.63141E-01
 -1     12008-2.65557E-03 5.85282E-15-1.52138E-01
 -1     12010-2.65557E-03 6.60852E-15 1.52138E-01
 -1     12011-1.31906E-02-4.35104E-15-7.55687E-01
 -1     12013-1.31906E-02-5.63249E-15 7.55687E-01
 -1     12014-3.37122E-03 2.23038E-15-1.93137E-01
 -1     12016-3.37122E-03 2.38436E-15 1.93137E-01
 -1     12017-3.38719E-03 1.31867E-15-1.94052E-01
 -1     12019-3.38719E-03-5.26651E-17 1.94052E-01
 -1     12020-3.41879E-03 2.58154E-15-1.95862E-01
 -1     12022-3.41879E-03 3.85867E-15 1.95862E-01
 -1     12023-1.51270E-02 3.75822E-15-8.66626E-01
 -1     12025-1.51270E-02 1.07421E-15 8.66626E-01
 -1     12026-1.52177E-02 8.18656E-15-8.71823E-01
 -1     12028-1.52177E-02 8.11943E-15 8.71823E-01
 -1     12029-1.47563E-02 3.61413E-16-8.45389E-01
 -1     12031-1.47563E-02-5.51362E-16 8.45389E-01
 -1     12032-1.73715E-02-5.53450E-15-9.95213E-01
 -1     12034-1.73715E-02-3.65632E-15 9.95213E-01
 -1     12035-3.42480E-03 3.84080E-16-1.96206E-01
 -1     12037-3.42480E-03-3.99726E-16 1.96206E-01
 -1     12038-3.45944E-03-4.28604E-15-1.98191E-01
 -1     12040-3.45944E-03-3.58908E-15 1.98191E-01
 -1     12041-3.45035E-03-2.36073E-16-1.97670E-01
 -1     12043-3.45035E-03 1.98516E-15 1.97670E-01
 -1     12044-1.22594E-02-8.68362E-16-7.02343E-01
 -1     12046-1.22594E-02-1.35012E-15 7.02343E-01
 -1     12047-1.17633E-02-7.94466E-15-6.73917E-01
 -1     12049-1.17633E-02-9.24357E-15 6.73917E-01
 -1     12050-1.57176E-02-4.77184E-16-9.00463E-01
 -1     12052-1.57176E-02-1.34869E-15 9.00463E-01
 -1     12053-2.93061E-03-1.43560E-16-1.67895E-01
 -1     12055-2.93061E-03-9.32886E-16 1.67895E-01
 -1     12056-1.52156E-02 5.77482E-15-8.71703E-01
 -1     12058-1.52156E-02 7.03224E-15 8.71703E-01
 -1     12059-1.51845E-02 6.88756E-15-8.69922E-01
 -1     12061-1.51845E-02 6.33401E-15 8.69922E-01
 -1     12062-2.89393E-03-1.63663E-15-1.65793E-01
 -1     12064-2.89393E-03-6.40882E-16 1.65793E-01
 -1     12065-2.89697E-03 3.55175E-15-1.65967E-01
 -1     12067-2.89697E-03 1.45085E-15 1.65967E-01
 -1     12068-2.53190E-03 2.14716E-15-1.45053E-01
 -1     12070-2.53190E-03 6.93517E-16 1.45053E-01
 -1     12071-2.93007E-03-2.07255E-15-1.67863E-01
 -1     12073-2.93007E-03-3.67474E-15 1.67863E-01
 -1     12074-7.45396E-03-4.75501E-15-4.27037E-01
 -1     12076-7.45396E-03-5.21513E-15 4.27037E-01
 -1     12077-7.57276E-03 7.02610E-15-4.33843E-01
 -1     12079-7.57276E-03 6.78441E-15 4.33843E-01
 -1     12080-7.22026E-03-5.36309E-15-4.13648E-01
 -1     12082-7.22026E-03-4.82712E-15 4.13648E-01
 -1     12083-1.88497E-02-6.99970E-15-1.07990E+00
 -1     12085-1.88497E-02-7.13477E-15 1.07990E+00
 -1     12086-1.44765E-02-3.70015E-16-8.29356E-01
 -1     12088-1.44765E-02 8.80766E-16 8.29356E-01
 -1     12089-1.54291E-02-2.47174E-15-8.83930E-01
 -1     12091-1.54291E-02-2.74097E-15 8.83930E-01
 -1     12092-1.53295E-02 1.70891E-15-8.78224E-01
 -1     12094-1.53295E-02 2.18131E-15 8.78224E-01
 -1     12095-1.57083E-02 7.82327E-15-8.99927E-01
 -1     12097-1.57083E-02 7.90280E-15 8.99927E-01
 -1     12098-1.52453E-02-1.96646E-15-8.73402E-01
 -1     12100-1.52453E-02-3.18852E-15 8.73402E-01
 -1     12101-1.52273E-02-2.88313E-15-8.72373E-01
 -1     12103-1.52273E-02-1.72530E-15 8.72373E-01
 -1     12104-1.44969E-02 2.55191E-15-8.30526E-01
 -1     12106-1.44969E-02 1.64824E-15 8.30526E-01
 -1     12107-2.81728E-03 1.28529E-15-1.61402E-01
 -1     12109-2.81728E-03 3.50668E-15 1.61402E-01
 -1     12110-9.04716E-03 3.99289E-15-5.18311E-01
 -1     12112-9.04716E-03 3.38622E-15 5.18311E-01
 -1     12113-9.59343E-03 8.30822E-16-5.49607E-01
 -1     12115-9.59343E-03 2.12259E-15 5.49607E-01
 -1     12116-1.44944E-02-3.61729E-15-8.30385E-01
 -1     12118-1.44944E-02-2.53584E-15 8.30385E-01
 -1     12119-2.78738E-03-1.20340E-15-1.59689E-01
 -1     12121-2.78738E-03 4.22176E-16 1.59689E-01
 -1     12122-3.90293E-03-1.79597E-15-2.23599E-01
 -1     12124-3.90293E-03-2.25095E-15 2.23599E-01
 -1     12125-3.93842E-03-2.90361E-15-2.25632E-01
 -1     12127-3.93842E-03-2.97499E-15 2.25632E-01
 -1     12128-3.83978E-03 2.85993E-15-2.19981E-01
 -1     12130-3.83978E-03 2.90558E-15 2.19981E-01
 -1     12131-4.12181E-03-1.44515E-15-2.36138E-01
 -1     12133-4.12181E-03-1.56396E-15 2.36138E-01
 -1     12134-4.20137E-03 5.16970E-16-2.40696E-01
 -1     12136-4.20137E-03-8.91528E-16 2.40696E-01
 -1     12137-3.69488E-03-1.47983E-15-2.11680E-01
 -1     12139-3.69488E-03 1.58399E-16 2.11680E-01
 -1     12140-3.81008E-03-5.69317E-15-2.18279E-01
 -1     12142-3.81008E-03-5.26208E-15 2.18279E-01
 -1     12143-4.24380E-03-9.11636E-15-2.43127E-01
 -1     12145-4.24380E-03-9.48726E-15 2.43127E-01
 -1     12146-1.54760E-02 3.59591E-15-8.86622E-01
 -1     12148-1.54760E-02 4.14952E-15 8.86622E-01
 -1     12149-1.57897E-02 1.45965E-16-9.04590E-01
 -1     12151-1.57897E-02 3.22998E-15 9.04590E-01
 -1     12152-1.51673E-02-2.97281E-15-8.68935E-01
 -1     12154-1.51673E-02-2.64612E-15 8.68935E-01
 -1     12155-1.51585E-02 6.32468E-16-8.68429E-01
 -1     12157-1.51585E-02 5.52612E-16 8.68429E-01
 -1     12158-1.43876E-02 5.17232E-15-8.24264E-01
 -1     12160-1.43876E-02 4.21316E-15 8.24264E-01
 -1     12161-2.93145E-03 9.02387E-15-1.67943E-01
 -1     12163-2.93145E-03 7.89346E-15 1.67943E-01
 -1     12164-2.92367E-03 1.23186E-15-1.67497E-01
 -1     12166-2.92367E-03-6.87195E-16 1.67497E-01
 -1     12167-2.85202E-03 6.46147E-15-1.63392E-01
 -1     12169-2.85202E-03 6.01291E-15 1.63392E-01
 -1     12170-2.87248E-03 5.16705E-15-1.64564E-01
 -1     12172-2.87248E-03 6.02757E-15 1.64564E-01
 -1     12173-1.41295E-02 2.56845E-15-8.09476E-01
 -1     12175-1.41295E-02 2.92455E-15 8.09476E-01
 -1     12176-1.64559E-02 3.14888E-15-9.42759E-01
 -1     12178-1.64559E-02 5.04868E-15 9.42759E-01
 -1     12179-1.77157E-02 4.82493E-15-1.01493E+00
 -1     12181-1.77157E-02 4.15150E-15 1.01493E+00
 -1     12182-1.69004E-02-2.96655E-15-9.68223E-01
 -1     12184-1.69004E-02-3.12781E-15 9.68223E-01
 -1     12185-4.08353E-03 2.76239E-15-2.33945E-01
 -1     12187-4.08353E-03 4.93093E-15 2.33945E-01
 -1     12188-6.78522E-03-4.97814E-16-3.88725E-01
 -1     12190-6.78522E-03-9.40824E-16 3.88725E-01
 -1     12191-6.99259E-03-4.76163E-15-4.00605E-01
 -1     12193-6.99259E-03-5.89671E-15 4.00605E-01
 -1     12194-6.67883E-03-1.12714E-16-3.82630E-01
 -1     12196-6.67883E-03-7.77747E-17 3.82630E-01
 -1     12197-1.02266E-02 8.55610E-16-5.85881E-01
 -1     12199-1.02266E-02-1.74759E-15 5.85881E-01
 -1     12200-1.11349E-02-3.81445E-15-6.37917E-01
 -1     12202-1.11349E-02-4.01851E-15 6.37917E-01
 -1     12203-9.75128E-03 2.06234E-15-5.58650E-01
 -1     12205-9.75128E-03 2.07835E-15 5.58650E-01
 -1     12206-2.49623E-03-1.74442E-15-1.43009E-01
 -1     12208-2.49623E-03-8.11148E-16 1.43009E-01
 -1     12209-2.51741E-03 8.85476E-15-1.44222E-01
 -1     12211-2.51741E-03 4.37226E-15 1.44222E-01
 -1     12212-2.36984E-03 9.03031E-15-1.35768E-01
 -1     12214-2.36984E-03 8.41580E-15 1.35768E-01
 -1     12215-2.34383E-03-1.96578E-15-1.34278E-01
 -1     12217-2.34383E-03-4.41606E-15 1.34278E-01
 -1     12218-8.27069E-03 3.88301E-15-4.73827E-01
 -1     12220-8.27069E-03 5.47816E-15 4.73827E-01
 -1     12221-8.63791E-03-4.38344E-16-4.94866E-01
 -1     12223-8.63791E-03-1.50265E-15 4.94866E-01
 -1     12224-8.71476E-03 4.15632E-15-4.99269E-01
 -1     12226-8.71476E-03 2.43143E-15 4.99269E-01
 -1     12227-8.07876E-03-4.48906E-15-4.62832E-01
 -1     12229-8.07876E-03-5.97420E-15 4.62832E-01
 -1     12230-3.48815E-03-2.77359E-15-1.99836E-01
 -1     12232-3.48815E-03-5.68722E-15 1.99836E-01
 -1     12233-3.52436E-03-1.54436E-15-2.01910E-01
 -1     12235-3.52436E-03-8.49789E-16 2.01910E-01
 -1     12236-2.92967E-03 9.97104E-15-1.67841E-01
 -1     12238-2.92967E-03 1.00109E-14 1.67841E-01
 -1     12239-3.56339E-03-4.59510E-15-2.04146E-01
 -1     12241-3.56339E-03-3.59664E-15 2.04146E-01
 -1     12242-3.50518E-03-2.83110E-17-2.00812E-01
 -1     12244-3.50518E-03-3.56344E-16 2.00812E-01
 -1     12245-1.44137E-02-5.74116E-15-8.25758E-01
 -1     12247-1.44137E-02-5.53351E-15 8.25758E-01
 -1     12248-1.40289E-02-1.34183E-15-8.03714E-01
 -1     12250-1.40289E-02-2.22045E-15 8.03714E-01
 -1     12251-1.59265E-02-2.38698E-15-9.12427E-01
 -1     12253-1.59265E-02-1.75881E-15 9.12427E-01
 -1     12254-1.21495E-02 1.48523E-15-6.96046E-01
 -1     12256-1.21495E-02 3.73253E-15 6.96046E-01
 -1     12257-2.88040E-03-3.92592E-15-1.65018E-01
 -1     12259-2.88040E-03-2.29566E-15 1.65018E-01
 -1     12260-1.39699E-02-7.36101E-15-8.00333E-01
 -1     12262-1.39699E-02-4.50037E-15 8.00333E-01
 -1     12263-1.42949E-02-6.94115E-15-8.18953E-01
 -1     12265-1.42949E-02-7.74712E-15 8.18953E-01
 -1     12266-1.44715E-02-9.75019E-16-8.29073E-01
 -1     12268-1.44715E-02-1.18467E-15 8.29073E-01
 -1     12269-2.95577E-03 2.05369E-15-1.69336E-01
 -1     12271-2.95577E-03 4.14335E-15 1.69336E-01
 -1     12272-2.96130E-03 2.79154E-15-1.69653E-01
 -1     12274-2.96130E-03 4.02752E-15 1.69653E-01
 -1     12275-2.30686E-03 1.09894E-15-1.32160E-01
 -1     12277-2.30686E-03 2.94713E-15 1.32160E-01
 -1     12278-2.39342E-03 4.81687E-15-1.37119E-01
 -1     12280-2.39342E-03 2.21519E-15 1.37119E-01
 -1     12281-2.30490E-03-3.46371E-15-1.32048E-01
 -1     12283-2.30490E-03-4.26904E-16 1.32048E-01
 -1     12284-1.37245E-02 7.22126E-16-7.86275E-01
 -1     12286-1.37245E-02 2.04762E-15 7.86275E-01
 -1     12287-1.36791E-02-7.36471E-15-7.83674E-01
 -1     12289-1.36791E-02-8.84991E-15 7.83674E-01
 -1     12290-3.52900E-03-7.45977E-15-2.02177E-01
 -1     12292-3.52900E-03-7.20839E-15 2.02177E-01
 -1     12293-3.55676E-03 3.11962E-15-2.03767E-01
 -1     12295-3.55676E-03 4.28674E-15 2.03767E-01
 -1     12296-2.97498E-03 6.23119E-15-1.70437E-01
 -1     12298-2.97498E-03 5.42989E-15 1.70437E-01
 -1     12299-2.96680E-03 1.22962E-15-1.69968E-01
 -1     12301-2.96680E-03 3.48988E-15 1.69968E-01
 -1     12302-1.35664E-02 1.61731E-16-7.77216E-01
 -1     12304-1.35664E-02 3.88312E-16 7.77216E-01
 -1     12305-1.35694E-02 1.37935E-16-7.77388E-01
 -1     12307-1.35694E-02-9.17299E-16 7.77388E-01
 -1     12308-1.48211E-02-1.21204E-15-8.49100E-01
 -1     12310-1.48211E-02-2.40980E-15 8.49100E-01
 -1     12311-1.45908E-02 1.59441E-15-8.35909E-01
 -1     12313-1.45908E-02 1.28788E-15 8.35909E-01
 -1     12314-1.38411E-02-7.04933E-15-7.92956E-01
 -1     12316-1.38411E-02-6.38600E-15 7.92956E-01
 -1     12317-1.38125E-02-1.56991E-15-7.91316E-01
 -1     12319-1.38125E-02-1.38946E-15 7.91316E-01
 -1     12320-3.57885E-03 1.46162E-15-2.05032E-01
 -1     12322-3.57885E-03 1.55399E-15 2.05032E-01
 -1     12323-3.59679E-03-5.36270E-15-2.06060E-01
 -1     12325-3.59679E-03-5.27619E-15 2.06060E-01
 -1     12326-3.60132E-03 6.48794E-15-2.06320E-01
 -1     12328-3.60132E-03 6.58966E-15 2.06320E-01
 -1     12329-3.11419E-03 1.01593E-15-1.78412E-01
 -1     12331-3.11419E-03 9.10036E-16 1.78412E-01
 -1     12332-2.73656E-03-3.43596E-15-1.56777E-01
 -1     12334-2.73656E-03-5.01714E-15 1.56777E-01
 -1     12335-4.77239E-03-2.52835E-15-2.73410E-01
 -1     12337-4.77239E-03-3.88408E-15 2.73410E-01
 -1     12338-4.88328E-03-9.19103E-16-2.79763E-01
 -1     12340-4.88328E-03-2.04679E-15 2.79763E-01
 -1     12341-1.41290E-02 8.46800E-15-8.09449E-01
 -1     12343-1.41290E-02 7.75665E-15 8.09449E-01
 -1     12344-1.25447E-02-6.50546E-15-7.18685E-01
 -1     12346-1.25447E-02-4.89675E-15 7.18685E-01
 -1     12347-4.20223E-03 7.16244E-15-2.40746E-01
 -1     12349-4.20223E-03 3.99400E-15 2.40746E-01
 -1     12350-4.28653E-03 9.96694E-16-2.45575E-01
 -1     12352-4.28653E-03 3.37910E-15 2.45575E-01
 -1     12353-3.45615E-03-4.14626E-15-1.98003E-01
 -1     12355-3.45615E-03-3.03263E-15 1.98003E-01
 -1     12356-3.84595E-03 2.36394E-15-2.20334E-01
 -1     12358-3.84595E-03 3.69252E-15 2.20334E-01
 -1     12359-2.35800E-03-3.00868E-15-1.35089E-01
 -1     12361-2.35800E-03-9.20439E-16 1.35089E-01
 -1     12362-2.69477E-03-4.20960E-15-1.54383E-01
 -1     12364-2.69477E-03-5.31261E-15 1.54383E-01
 -1     12365-2.60122E-03 1.56404E-15-1.49024E-01
 -1     12367-2.60122E-03 1.80984E-15 1.49024E-01
 -1     12368-2.07846E-03 1.94973E-15-1.19075E-01
 -1     12370-2.07846E-03 1.65359E-15 1.19075E-01
 -1     12371-3.90620E-03-5.10869E-15-2.23786E-01
 -1     12373-3.90620E-03-2.73537E-15 2.23786E-01
 -1     12374-3.97389E-03 6.53400E-15-2.27664E-01
 -1     12376-3.97389E-03 5.21357E-15 2.27664E-01
 -1     12377-2.96607E-03-1.07883E-14-1.69926E-01
 -1     12379-2.96607E-03-8.34896E-15 1.69926E-01
 -1     12380-2.97773E-03 5.47066E-15-1.70594E-01
 -1     12382-2.97773E-03 6.27414E-15 1.70594E-01
 -1     12383-2.99791E-03-2.00435E-15-1.71750E-01
 -1     12385-2.99791E-03-3.30472E-15 1.71750E-01
 -1     12386-4.04659E-03-4.23855E-15-2.31829E-01
 -1     12388-4.04659E-03-4.22532E-15 2.31829E-01
 -1     12389-4.12160E-03 2.17572E-15-2.36126E-01
 -1     12391-4.12160E-03 1.19113E-15 2.36126E-01
 -1     12392-4.16263E-03-5.05062E-15-2.38477E-01
 -1     12394-4.16263E-03-1.70779E-15 2.38477E-01
 -1     12395-4.01073E-03-4.38113E-15-2.29775E-01
 -1     12397-4.01073E-03-9.40862E-16 2.29775E-01
 -1     12398-2.99846E-03-5.66334E-15-1.71782E-01
 -1     12400-2.99846E-03-2.32327E-15 1.71782E-01
 -1     12401-2.96268E-03-4.13835E-15-1.69732E-01
 -1     12403-2.96268E-03-4.95102E-15 1.69732E-01
 -1     12404-2.92566E-03 4.45316E-15-1.67611E-01
 -1     12406-2.92566E-03 2.25459E-15 1.67611E-01
 -1     12407-2.87734E-03-3.29891E-15-1.64843E-01
 -1     12409-2.87734E-03-2.26694E-15 1.64843E-01
 -1     12410-3.02241E-03 2.25913E-16-1.73154E-01
 -1     12412-3.02241E-03 1.79854E-15 1.73154E-01
 -1     12413-1.36622E-02-2.07692E-15-7.82708E-01
 -1     12415-1.36622E-02-3.56295E-15 7.82708E-01
 -1     12416-1.36100E-02 2.43982E-18-7.79715E-01
 -1     12418-1.36100E-02 1.03926E-15 7.79715E-01
 -1     12419-1.30100E-02 3.23548E-15-7.45340E-01
 -1     12421-1.30100E-02 5.21211E-15 7.45340E-01
 -1     12422-3.55401E-03 8.77578E-15-2.03609E-01
 -1     12424-3.55401E-03 8.53245E-15 2.03609E-01
 -1     12425-3.46211E-03-1.02269E-14-1.98344E-01
 -1     12427-3.46211E-03-7.40243E-15 1.98344E-01
 -1     12428-3.56534E-03-2.10162E-15-2.04258E-01
 -1     12430-3.56534E-03-1.63096E-15 2.04258E-01
 -1     12431-1.25807E-02-5.52450E-15-7.20747E-01
 -1     12433-1.25807E-02-4.22499E-15 7.20747E-01
 -1     12434-1.36000E-02 4.14695E-15-7.79146E-01
 -1     12436-1.36000E-02 3.72699E-15 7.79146E-01
 -1     12437-2.98783E-03-2.19899E-15-1.71173E-01
 -1     12439-2.98783E-03-4.10394E-15 1.71173E-01
 -1     12440-2.99507E-03-6.90670E-15-1.71588E-01
 -1     12442-2.99507E-03-5.94884E-15 1.71588E-01
 -1     12443-3.02402E-03 5.03022E-15-1.73246E-01
 -1     12445-3.02402E-03 4.73857E-15 1.73246E-01
 -1     12446-1.29905E-02-6.43797E-16-7.44227E-01
 -1     12448-1.29905E-02-1.14958E-16 7.44227E-01
 -1     12449-3.00232E-03-6.98413E-16-1.72003E-01
 -1     12451-3.00232E-03-3.36704E-16 1.72003E-01
 -1     12452-3.00112E-03-7.74570E-15-1.71934E-01
 -1     12454-3.00112E-03-9.10541E-15 1.71934E-01
 -1     12455-3.04910E-03-5.74423E-15-1.74683E-01
 -1     12457-3.04910E-03-5.50989E-15 1.74683E-01
 -1     12458-1.35985E-02 8.41100E-15-7.79056E-01
 -1     12460-1.35985E-02 9.14272E-15 7.79056E-01
 -1     12461-1.36234E-02-2.18355E-16-7.80482E-01
 -1     12463-1.36234E-02 1.53098E-15 7.80482E-01
 -1     12464-1.28698E-02 1.01287E-15-7.37310E-01
 -1     12466-1.28698E-02 1.27055E-15 7.37310E-01
 -1     12467-6.18947E-03 6.22454E-15-3.54595E-01
 -1     12469-6.18947E-03 3.75189E-15 3.54595E-01
 -1     12470-6.37969E-03-5.71959E-15-3.65492E-01
 -1     12472-6.37969E-03-4.36602E-15 3.65492E-01
 -1     12473-2.81226E-03-6.65210E-16-1.61114E-01
 -1     12475-2.81226E-03 2.93679E-16 1.61114E-01
 -1     12476-2.96564E-03 2.35499E-15-1.69901E-01
 -1     12478-2.96564E-03 8.96719E-16 1.69901E-01
 -1     12479-2.89074E-03 1.10753E-14-1.65611E-01
 -1     12481-2.89074E-03 1.06671E-14 1.65611E-01
 -1     12482-2.95987E-03 1.26278E-15-1.69571E-01
 -1     12484-2.95987E-03-1.52218E-15 1.69571E-01
 -1     12485-2.95635E-03 3.67475E-15-1.69369E-01
 -1     12487-2.95635E-03 4.62598E-15 1.69369E-01
 -1     12488-2.99899E-03-5.10262E-15-1.71812E-01
 -1     12490-2.99899E-03-7.07615E-15 1.71812E-01
 -1     12491-1.37288E-02-9.74783E-15-7.86523E-01
 -1     12493-1.37288E-02-9.90638E-15 7.86523E-01
 -1     12494-1.37927E-02 4.36870E-15-7.90181E-01
 -1     12496-1.37927E-02 3.92265E-15 7.90181E-01
 -1     12497-1.31835E-02-1.77611E-15-7.55281E-01
 -1     12499-1.31835E-02-4.87623E-16 7.55281E-01
 -1     12500-1.63175E-02 5.45263E-15-9.34832E-01
 -1     12502-1.63175E-02 4.16810E-15 9.34832E-01
 -1     12503-2.92395E-03-2.24517E-15-1.67513E-01
 -1     12505-2.92395E-03-1.15921E-15 1.67513E-01
 -1     12506-2.77954E-03-3.31132E-16-1.59239E-01
 -1     12508-2.77954E-03-7.13009E-16 1.59239E-01
 -1     12509-2.86149E-03 1.85057E-15-1.63935E-01
 -1     12511-2.86149E-03 2.08362E-15 1.63935E-01
 -1     12512-2.93058E-03 9.84346E-16-1.67893E-01
 -1     12514-2.93058E-03-9.49783E-16 1.67893E-01
 -1     12515-2.87142E-03-1.18491E-15-1.64504E-01
 -1     12517-2.87142E-03-2.61649E-15 1.64504E-01
 -1     12518-1.47699E-02 4.76791E-15-8.46168E-01
 -1     12520-1.47699E-02 5.18135E-15 8.46168E-01
 -1     12521-1.59420E-02 4.08618E-15-9.13318E-01
 -1     12523-1.59420E-02 3.78566E-15 9.13318E-01
 -1     12524-1.36943E-02 5.89790E-16-7.84546E-01
 -1     12526-1.36943E-02-3.87524E-16 7.84546E-01
 -1     12527-1.19909E-02-2.64815E-15-6.86957E-01
 -1     12529-1.19909E-02-2.91911E-15 6.86957E-01
 -1     12530-1.21634E-02 5.24389E-15-6.96839E-01
 -1     12532-1.21634E-02 6.03535E-15 6.96839E-01
 -1     12533-1.13596E-02 4.01483E-15-6.50794E-01
 -1     12535-1.13596E-02 2.22976E-15 6.50794E-01
 -1     12536-1.06639E-02-2.22093E-15-6.10937E-01
 -1     12538-1.06639E-02-2.33067E-15 6.10937E-01
 -1     12539-1.17103E-02-4.42918E-15-6.70881E-01
 -1     12541-1.17103E-02-5.19841E-15 6.70881E-01
 -1     12542-1.00795E-02 3.89843E-15-5.77454E-01
 -1     12544-1.00795E-02 4.36582E-15 5.77454E-01
 -1     12545-9.53774E-03-1.91943E-15-5.46417E-01
 -1     12547-9.53774E-03 1.36231E-16 5.46417E-01
 -1     12548-1.02059E-02-5.40554E-15-5.84694E-01
 -1     12550-1.02059E-02-4.93718E-15 5.84694E-01
 -1     12551-9.07644E-03 5.88386E-15-5.19989E-01
 -1     12553-9.07644E-03 3.56893E-15 5.19989E-01
 -1     12554-8.64455E-03-7.94552E-16-4.95246E-01
 -1     12556-8.64455E-03-1.63143E-15 4.95246E-01
 -1     12557-9.11086E-03 1.75225E-15-5.21961E-01
 -1     12559-9.11086E-03 2.10111E-15 5.21961E-01
 -1     12560-8.27989E-03-2.60967E-16-4.74354E-01
 -1     12562-8.27989E-03-2.58600E-16 4.74354E-01
 -1     12563-7.93740E-03-4.69830E-16-4.54734E-01
 -1     12565-7.93740E-03-5.79594E-16 4.54734E-01
 -1     12566-8.26754E-03 7.94461E-15-4.73647E-01
 -1     12568-8.26754E-03 7.94956E-15 4.73647E-01
 -1     12569-7.64364E-03-3.32119E-15-4.37904E-01
 -1     12571-7.64364E-03-4.16468E-15 4.37904E-01
 -1     12572-7.36620E-03 1.12846E-15-4.22009E-01
 -1     12574-7.36620E-03 3.28201E-15 4.22009E-01
 -1     12575-7.61410E-03 2.80929E-15-4.36211E-01
 -1     12577-7.61410E-03 4.98459E-16 4.36211E-01
 -1     12578-7.12150E-03 4.50816E-15-4.07991E-01
 -1     12580-7.12150E-03 3.54963E-15 4.07991E-01
 -1     12581-6.88927E-03 4.68772E-16-3.94686E-01
 -1     12583-6.88927E-03-5.39983E-16 3.94686E-01
 -1     12584-7.09113E-03-6.47177E-17-4.06250E-01
 -1     12586-7.09113E-03-2.66587E-16 4.06250E-01
 -1     12587-6.67669E-03-1.55281E-15-3.82507E-01
 -1     12589-6.67669E-03-2.74741E-15 3.82507E-01
 -1     12590-6.47512E-03-3.30817E-15-3.70959E-01
 -1     12592-6.47512E-03-1.86615E-15 3.70959E-01
 -1     12593-6.65150E-03 2.91759E-15-3.81064E-01
 -1     12595-6.65150E-03 3.33708E-15 3.81064E-01
 -1     12596-6.28430E-03 2.21735E-15-3.60027E-01
 -1     12598-6.28430E-03 3.56143E-15 3.60027E-01
 -1     12599-6.10437E-03-6.19417E-15-3.49719E-01
 -1     12601-6.10437E-03-5.77081E-15 3.49719E-01
 -1     12602-6.26324E-03 6.43621E-15-3.58821E-01
 -1     12604-6.26324E-03 7.50538E-15 3.58821E-01
 -1     12605-5.93080E-03-1.06367E-15-3.39775E-01
 -1     12607-5.93080E-03-5.17139E-16 3.39775E-01
 -1     12608-5.76733E-03-1.00863E-15-3.30410E-01
 -1     12610-5.76733E-03 4.81903E-16 3.30410E-01
 -1     12611-5.91013E-03-2.16341E-15-3.38591E-01
 -1     12613-5.91013E-03-1.91347E-15 3.38591E-01
 -1     12614-5.60971E-03 1.23143E-15-3.21380E-01
 -1     12616-5.60971E-03 1.45297E-15 3.21380E-01
 -1     12617-5.46090E-03-6.07282E-15-3.12855E-01
 -1     12619-5.46090E-03-5.55044E-15 3.12855E-01
 -1     12620-5.58798E-03 2.26757E-15-3.20135E-01
 -1     12622-5.58798E-03 2.75574E-15 3.20135E-01
 -1     12623-5.31854E-03-4.61169E-15-3.04699E-01
 -1     12625-5.31854E-03-4.07820E-15 3.04699E-01
 -1     12626-5.18385E-03-5.43584E-15-2.96982E-01
 -1     12628-5.18385E-03-5.56460E-15 2.96982E-01
 -1     12629-5.29559E-03-6.99164E-15-3.03384E-01
 -1     12631-5.29559E-03-7.73351E-15 3.03384E-01
 -1     12632-5.05553E-03 1.06570E-15-2.89631E-01
 -1     12634-5.05553E-03 2.75274E-15 2.89631E-01
 -1     12635-4.93403E-03-9.23645E-15-2.82670E-01
 -1     12637-4.93403E-03-1.01430E-14 2.82670E-01
 -1     12638-5.03133E-03-1.72578E-15-2.88245E-01
 -1     12640-5.03133E-03-2.66208E-15 2.88245E-01
 -1     12641-4.81798E-03 1.14721E-15-2.76022E-01
 -1     12643-4.81798E-03 1.52489E-15 2.76022E-01
 -1     12644-4.70799E-03 5.41175E-15-2.69721E-01
 -1     12646-4.70799E-03 2.21996E-15 2.69721E-01
 -1     12647-4.79236E-03-3.97657E-15-2.74554E-01
 -1     12649-4.79236E-03-3.86470E-15 2.74554E-01
 -1     12650-4.60268E-03 8.89960E-16-2.63688E-01
 -1     12652-4.60268E-03 3.68278E-16 2.63688E-01
 -1     12653-4.50212E-03 1.40681E-15-2.57926E-01
 -1     12655-4.50212E-03 4.13292E-15 2.57926E-01
 -1     12656-4.57568E-03-3.49761E-15-2.62141E-01
 -1     12658-4.57568E-03-2.65234E-15 2.62141E-01
 -1     12659-4.40603E-03-1.92422E-15-2.52422E-01
 -1     12661-4.40603E-03-1.60912E-15 2.52422E-01
 -1     12662-4.31310E-03 8.47653E-17-2.47097E-01
 -1     12664-4.31310E-03-7.16843E-16 2.47097E-01
 -1     12665-4.37797E-03-5.58109E-16-2.50814E-01
 -1     12667-4.37797E-03-9.35758E-16 2.50814E-01
 -1     12668-4.22433E-03-1.49163E-15-2.42012E-01
 -1     12670-4.22433E-03-1.08819E-15 2.42012E-01
 -1     12671-4.13817E-03-3.51125E-15-2.37076E-01
 -1     12673-4.13817E-03-8.98868E-16 2.37076E-01
 -1     12674-4.19565E-03 9.18787E-17-2.40369E-01
 -1     12676-4.19565E-03-7.95112E-16 2.40369E-01
 -1     12677-4.05547E-03-5.49905E-15-2.32338E-01
 -1     12679-4.05547E-03-5.76349E-15 2.32338E-01
 -1     12680-3.97562E-03-5.28781E-15-2.27763E-01
 -1     12682-3.97562E-03-6.15721E-15 2.27763E-01
 -1     12683-4.02632E-03 2.62866E-15-2.30668E-01
 -1     12685-4.02632E-03 5.57345E-15 2.30668E-01
 -1     12686-3.89858E-03 3.36886E-15-2.23350E-01
 -1     12688-3.89858E-03 4.61139E-15 2.23350E-01
 -1     12689-3.82421E-03 2.87469E-15-2.19089E-01
 -1     12691-3.82421E-03 2.85493E-15 2.19089E-01
 -1     12692-3.86840E-03-1.36264E-15-2.21621E-01
 -1     12694-3.86840E-03-3.64070E-16 2.21621E-01
 -1     12695-3.75238E-03 8.15467E-15-2.14974E-01
 -1     12697-3.75238E-03 8.18202E-15 2.14974E-01
 -1     12698-3.68189E-03 1.31682E-15-2.10935E-01
 -1     12700-3.68189E-03 9.02931E-16 2.10935E-01
 -1     12701-3.72042E-03-1.04616E-14-2.13143E-01
 -1     12703-3.72042E-03-9.99090E-15 2.13143E-01
 -1     12704-3.61465E-03-7.14087E-16-2.07083E-01
 -1     12706-3.61465E-03-4.55828E-17 2.07083E-01
 -1     12707-3.54589E-03 5.34439E-15-2.03144E-01
 -1     12709-3.54589E-03 4.38883E-15 2.03144E-01
 -1     12710-3.58125E-03 4.82104E-15-2.05169E-01
 -1     12712-3.58125E-03 5.20597E-15 2.05169E-01
 -1     12713-3.48200E-03-6.16860E-15-1.99483E-01
 -1     12715-3.48200E-03-5.54152E-15 1.99483E-01
 -1     12716-3.41415E-03 2.46681E-15-1.95597E-01
 -1     12718-3.41415E-03 3.74520E-15 1.95597E-01
 -1     12719-3.44849E-03-1.73063E-15-1.97564E-01
 -1     12721-3.44849E-03-3.07246E-15 1.97564E-01
 -1     12722-3.35203E-03-6.70063E-15-1.92038E-01
 -1     12724-3.35203E-03-5.90980E-15 1.92038E-01
 -1     12725-3.28427E-03-8.11829E-16-1.88156E-01
 -1     12727-3.28427E-03-2.81068E-15 1.88156E-01
 -1     12728-3.31718E-03-6.70158E-15-1.90041E-01
 -1     12730-3.31718E-03-6.56291E-15 1.90041E-01
 -1     12731-3.22299E-03 1.35965E-14-1.84645E-01
 -1     12733-3.22299E-03 1.45640E-14 1.84645E-01
 -1     12734-3.15294E-03 3.77969E-15-1.80632E-01
 -1     12736-3.15294E-03 3.93941E-15 1.80632E-01
 -1     12737-3.18429E-03-2.32765E-15-1.82428E-01
 -1     12739-3.18429E-03-3.89301E-15 1.82428E-01
 -1     12740-3.09053E-03-9.92912E-15-1.77056E-01
 -1     12742-3.09053E-03-9.58025E-15 1.77056E-01
 -1     12743-3.03673E-03-8.74319E-16-1.73974E-01
 -1     12745-3.03673E-03-6.53995E-16 1.73974E-01
 -1     12746-3.04905E-03-1.08923E-14-1.74680E-01
 -1     12748-3.04905E-03-8.83699E-15 1.74680E-01
 -1     12749-2.99060E-03 1.38834E-15-1.71331E-01
 -1     12751-2.99060E-03 3.47291E-15 1.71331E-01
 -1     12752-2.94842E-03 3.17186E-15-1.68915E-01
 -1     12754-2.94842E-03 3.64262E-15 1.68915E-01
 -1     12755-2.90978E-03 2.75312E-15-1.66701E-01
 -1     12757-2.90978E-03 2.65482E-15 1.66701E-01
 -1     12758-2.92470E-03 7.79671E-15-1.67556E-01
 -1     12760-2.92470E-03 8.07125E-15 1.67556E-01
 -1     12761-2.88111E-03-7.39573E-15-1.65058E-01
 -1     12763-2.88111E-03-6.78503E-15 1.65058E-01
 -1     12764-2.84677E-03-2.97060E-15-1.63091E-01
 -1     12766-2.84677E-03-2.59321E-15 1.63091E-01
 -1     12767-2.84557E-03 6.77539E-15-1.63023E-01
 -1     12769-2.84557E-03 6.92478E-15 1.63023E-01
 -1     12770-2.80348E-03 3.83594E-15-1.60611E-01
 -1     12772-2.80348E-03 3.41017E-15 1.60611E-01
 -1     12773-2.82268E-03 5.51353E-15-1.61711E-01
 -1     12775-2.82268E-03 4.08026E-15 1.61711E-01
 -1     12776-3.46293E-03 5.45926E-15-1.98391E-01
 -1     12778-3.46293E-03 4.55861E-15 1.98391E-01
 -1     12779-3.46453E-03-1.94646E-15-1.98483E-01
 -1     12781-3.46453E-03-2.19607E-15 1.98483E-01
 -1     12782-3.51104E-03 5.31704E-15-2.01147E-01
 -1     12784-3.51104E-03 6.24563E-15 2.01147E-01
 -1     12785-1.38424E-02 5.92555E-15-7.93033E-01
 -1     12787-1.38424E-02 6.85989E-15 7.93033E-01
 -1     12788-1.38316E-02-3.00564E-15-7.92414E-01
 -1     12790-1.38316E-02-5.16937E-15 7.92414E-01
 -1     12791-1.32576E-02 1.85880E-16-7.59525E-01
 -1     12793-1.32576E-02-2.25033E-15 7.59525E-01
 -1     12794-1.45685E-02 2.77435E-15-8.34631E-01
 -1     12796-1.45685E-02 2.24164E-15 8.34631E-01
 -1     12797-2.95949E-03-8.61880E-15-1.69549E-01
 -1     12799-2.95949E-03-9.15979E-15 1.69549E-01
 -1     12800-2.99072E-03-1.19307E-14-1.71338E-01
 -1     12802-2.99072E-03-1.07543E-14 1.71338E-01
 -1     12803-3.04638E-03 6.42095E-15-1.74527E-01
 -1     12805-3.04638E-03 4.30566E-15 1.74527E-01
 -1     12806-2.76504E-03-1.99318E-15-1.58409E-01
 -1     12808-2.76504E-03-2.18328E-15 1.58409E-01
 -1     12809-3.06425E-03 6.30217E-16-1.75551E-01
 -1     12811-3.06425E-03 7.67796E-16 1.75551E-01
 -1     12812-2.81782E-03 3.21665E-15-1.61433E-01
 -1     12814-2.81782E-03 3.24594E-15 1.61433E-01
 -1     12815-2.48932E-03 3.15219E-15-1.42613E-01
 -1     12817-2.48932E-03 5.98748E-15 1.42613E-01
 -1     12818-1.66666E-02 3.36535E-15-9.54827E-01
 -1     12820-1.66666E-02 3.68493E-15 9.54827E-01
 -1     12821-1.28931E-02 1.89037E-15-7.38644E-01
 -1     12823-1.28931E-02 1.59362E-15 7.38644E-01
 -1     12824-2.98970E-03-5.13260E-16-1.71280E-01
 -1     12826-2.98970E-03-1.25018E-15 1.71280E-01
 -1     12827-1.17027E-02 3.14782E-15-6.70447E-01
 -1     12829-1.17027E-02 3.10187E-15 6.70447E-01
 -1     12830-1.63316E-02 5.44089E-15-9.35639E-01
 -1     12832-1.63316E-02 5.38640E-15 9.35639E-01
 -1     12833-1.56845E-02 1.81737E-15-8.98567E-01
 -1     12835-1.56845E-02 6.38548E-16 8.98567E-01
 -1     12836-1.37514E-02-7.20594E-15-7.87818E-01
 -1     12838-1.37514E-02-6.55000E-15 7.87818E-01
 -1     12839-1.30988E-02 9.32996E-16-7.50429E-01
 -1     12841-1.30988E-02 7.31147E-16 7.50429E-01
 -1     12842-1.37838E-02 3.22105E-15-7.89672E-01
 -1     12844-1.37838E-02 2.50630E-15 7.89672E-01
 -1     12845-1.31790E-02-2.81169E-15-7.55023E-01
 -1     12847-1.31790E-02-1.97124E-15 7.55023E-01
 -1     12848-5.25136E-03 6.94365E-16-3.00850E-01
 -1     12850-5.25136E-03-5.66738E-16 3.00850E-01
 -1     12851-5.38730E-03-1.13222E-15-3.08638E-01
 -1     12853-5.38730E-03-7.58264E-16 3.08638E-01
 -1     12854-7.10253E-03-3.08476E-15-4.06904E-01
 -1     12856-7.10253E-03-2.70830E-15 4.06904E-01
 -1     12857-3.07462E-03 1.11592E-14-1.76145E-01
 -1     12859-3.07462E-03 1.21966E-14 1.76145E-01
 -1     12860-3.47987E-03-5.66335E-15-1.99362E-01
 -1     12862-3.47987E-03-5.36237E-15 1.99362E-01
 -1     12863-3.50872E-03 1.94403E-15-2.01015E-01
 -1     12865-3.50872E-03-2.68089E-16 2.01015E-01
 -1     12866-1.38073E-02 3.00712E-16-7.91018E-01
 -1     12868-1.38073E-02 9.87497E-16 7.91018E-01
 -1     12869-1.37916E-02-5.35789E-15-7.90122E-01
 -1     12871-1.37916E-02-6.13821E-15 7.90122E-01
 -1     12872-1.31671E-02 1.51110E-15-7.54340E-01
 -1     12874-1.31671E-02-1.05339E-15 7.54340E-01
 -1     12875-8.38398E-03-7.10981E-15-4.80318E-01
 -1     12877-8.38398E-03-5.69480E-15 4.80318E-01
 -1     12878-8.77185E-03-9.26085E-16-5.02539E-01
 -1     12880-8.77185E-03-2.31070E-16 5.02539E-01
 -1     12881-3.57559E-03-8.04315E-15-2.04846E-01
 -1     12883-3.57559E-03-7.71244E-15 2.04846E-01
 -1     12884-1.36643E-02 1.18016E-15-7.82825E-01
 -1     12886-1.36643E-02 1.02991E-15 7.82825E-01
 -1     12887-1.37845E-02 2.82341E-15-7.89712E-01
 -1     12889-1.37845E-02 1.72864E-15 7.89712E-01
 -1     12890-2.87516E-03 7.19657E-15-1.64718E-01
 -1     12892-2.87516E-03 6.97394E-15 1.64718E-01
 -1     12893-3.84109E-03-2.12556E-15-2.20056E-01
 -1     12895-3.84109E-03 2.21478E-16 2.20056E-01
 -1     12896-3.87291E-03-2.06211E-15-2.21879E-01
 -1     12898-3.87291E-03-5.60870E-15 2.21879E-01
 -1     12899-3.78280E-03-4.12300E-15-2.16717E-01
 -1     12901-3.78280E-03-4.45033E-15 2.16717E-01
 -1     12902-3.54040E-03 8.06925E-15-2.02830E-01
 -1     12904-3.54040E-03 6.53390E-15 2.02830E-01
 -1     12905-5.53021E-03-4.90775E-15-3.16825E-01
 -1     12907-5.53021E-03-5.94052E-15 3.16825E-01
 -1     12908-5.68180E-03 3.05826E-15-3.25510E-01
 -1     12910-5.68180E-03 2.01752E-15 3.25510E-01
 -1     12911-5.45939E-03 3.09986E-15-3.12768E-01
 -1     12913-5.45939E-03 3.86101E-15 3.12768E-01
 -1     12914-1.22310E-02 4.79267E-15-7.00714E-01
 -1     12916-1.22310E-02 3.77419E-15 7.00714E-01
 -1     12917-1.30857E-02-2.76940E-16-7.49680E-01
 -1     12919-1.30857E-02-1.31962E-15 7.49680E-01
 -1     12920-1.18752E-02 5.19005E-15-6.80328E-01
 -1     12922-1.18752E-02 4.97851E-15 6.80328E-01
 -1     12923-1.16437E-02 5.32765E-15-6.67067E-01
 -1     12925-1.16437E-02 5.81633E-15 6.67067E-01
 -1     12926-7.44276E-03-3.34418E-15-4.26395E-01
 -1     12928-7.44276E-03-4.09060E-15 4.26395E-01
 -1     12929-7.65069E-03-3.45208E-15-4.38308E-01
 -1     12931-7.65069E-03-3.57928E-15 4.38308E-01
 -1     12932-5.00017E-03 1.70809E-15-2.86459E-01
 -1     12934-5.00017E-03 6.62269E-16 2.86459E-01
 -1     12935-5.12274E-03-4.01893E-16-2.93482E-01
 -1     12937-5.12274E-03 9.88000E-16 2.93482E-01
 -1     12938-4.94376E-03 2.06142E-15-2.83228E-01
 -1     12940-4.94376E-03 3.49754E-15 2.83228E-01
 -1     12941-1.19694E-02-3.52843E-15-6.85727E-01
 -1     12943-1.19694E-02-1.85535E-15 6.85727E-01
 -1     12944-1.28809E-02-2.24931E-15-7.37948E-01
 -1     12946-1.28809E-02-2.33967E-15 7.37948E-01
 -1     12947-4.37527E-03 1.02807E-15-2.50659E-01
 -1     12949-4.37527E-03 5.96072E-16 2.50659E-01
 -1     12950-4.46813E-03 3.94884E-15-2.55979E-01
 -1     12952-4.46813E-03 4.76199E-15 2.55979E-01
 -1     12953-4.33175E-03 3.80845E-15-2.48166E-01
 -1     12955-4.33175E-03 3.33206E-15 2.48166E-01
 -1     12956-5.84080E-03 7.36519E-17-3.34619E-01
 -1     12958-5.84080E-03 6.99085E-16 3.34619E-01
 -1     12959-6.01034E-03 5.03264E-15-3.44332E-01
 -1     12961-6.01034E-03 5.43741E-15 3.44332E-01
 -1     12962-6.09684E-03 3.89015E-15-3.49288E-01
 -1     12964-6.09684E-03 4.72504E-15 3.49288E-01
 -1     12965-5.75988E-03 1.98102E-16-3.29983E-01
 -1     12967-5.75988E-03 2.32827E-15 3.29983E-01
 -1     12968-2.98556E-03-1.32766E-15-1.71043E-01
 -1     12970-2.98556E-03 5.60183E-16 1.71043E-01
 -1     12971-2.98427E-03 8.40758E-15-1.70969E-01
 -1     12973-2.98427E-03 9.91662E-15 1.70969E-01
 -1     12974-6.58004E-03-3.65950E-15-3.76970E-01
 -1     12976-6.58004E-03-3.81926E-15 3.76970E-01
 -1     12977-6.78117E-03-6.02577E-16-3.88493E-01
 -1     12979-6.78117E-03-4.57600E-16 3.88493E-01
 -1     12980-6.47846E-03-2.84391E-15-3.71151E-01
 -1     12982-6.47846E-03-6.31320E-16 3.71151E-01
 -1     12983-1.32185E-02-1.64378E-16-7.57290E-01
 -1     12985-1.32185E-02-9.46282E-16 7.57290E-01
 -1     12986-2.74822E-03 9.48817E-16-1.57445E-01
 -1     12988-2.74822E-03 3.54471E-15 1.57445E-01
 -1     12989-2.52687E-03-5.54007E-15-1.44764E-01
 -1     12991-2.52687E-03-7.66720E-15 1.44764E-01
 -1     12992-2.39434E-03 3.52291E-15-1.37172E-01
 -1     12994-2.39434E-03 3.26184E-15 1.37172E-01
 -1     12995-2.66632E-03 4.18217E-15-1.52753E-01
 -1     12997-2.66632E-03 3.17556E-15 1.52753E-01
 -1     12998-9.25675E-03-3.34692E-15-5.30319E-01
 -1     13000-9.25675E-03-4.54315E-15 5.30319E-01
 -1     13001-9.93468E-03-7.85429E-16-5.69157E-01
 -1     13003-9.93468E-03-1.83094E-15 5.69157E-01
 -1     13004-8.66276E-03 6.48620E-16-4.96289E-01
 -1     13006-8.66276E-03-7.98199E-16 4.96289E-01
 -1     13007-1.65289E-02 1.99282E-15-9.46940E-01
 -1     13009-1.65289E-02 9.36601E-16 9.46940E-01
 -1     13010-2.30053E-03 3.22903E-15-1.31797E-01
 -1     13012-2.30053E-03 3.88550E-15 1.31797E-01
 -1     13013-2.07381E-03-3.27881E-17-1.18808E-01
 -1     13015-2.07381E-03 6.19385E-16 1.18808E-01
 -1     13016-2.13163E-03-1.43742E-14-1.22121E-01
 -1     13018-2.13163E-03-1.23512E-14 1.22121E-01
 -1     13019-2.64633E-03 7.16509E-15-1.51608E-01
 -1     13021-2.64633E-03 6.29420E-15 1.51608E-01
 -1     13022-3.62339E-03-1.19809E-15-2.07584E-01
 -1     13024-3.62339E-03 1.18696E-15 2.07584E-01
 -1     13025-3.65071E-03 3.16977E-15-2.09149E-01
 -1     13027-3.65071E-03 1.94423E-15 2.09149E-01
 -1     13028-3.62296E-03-5.07299E-15-2.07559E-01
 -1     13030-3.62296E-03-6.58419E-15 2.07559E-01
 -1     13031-1.24520E-02-5.97104E-15-7.13373E-01
 -1     13033-1.24520E-02-5.23980E-15 7.13373E-01
 -1     13034-1.60260E-02 1.92031E-16-9.18131E-01
 -1     13036-1.60260E-02 7.87345E-16 9.18131E-01
 -1     13037-1.58642E-02 7.56231E-16-9.08859E-01
 -1     13039-1.58642E-02-1.11062E-15 9.08859E-01
 -1     13040-1.43700E-02-3.90519E-15-8.23256E-01
 -1     13042-1.43700E-02-2.72453E-15 8.23256E-01
 -1     13043-3.02357E-03-7.29794E-15-1.73220E-01
 -1     13045-3.02357E-03-7.15363E-15 1.73220E-01
 -1     13046-3.72626E-03-3.29512E-15-2.13477E-01
 -1     13048-3.72626E-03-4.72215E-15 2.13477E-01
 -1     13049-3.75474E-03 3.46231E-15-2.15109E-01
 -1     13051-3.75474E-03 1.16162E-15 2.15109E-01
 -1     13052-3.68818E-03 3.77102E-15-2.11296E-01
 -1     13054-3.68818E-03 6.60393E-15 2.11296E-01
 -1     13055-3.05219E-03 1.01940E-14-1.74860E-01
 -1     13057-3.05219E-03 7.47206E-15 1.74860E-01
 -1     13058-5.18943E-03-2.92912E-15-2.97302E-01
 -1     13060-5.18943E-03-2.19172E-15 2.97302E-01
 -1     13061-4.56517E-03-4.62134E-15-2.61538E-01
 -1     13063-4.56517E-03-4.64486E-15 2.61538E-01
 -1     13064-4.66665E-03 6.72123E-16-2.67352E-01
 -1     13066-4.66665E-03 1.29026E-15 2.67352E-01
 -1     13067-3.09683E-03 7.42301E-15-1.77418E-01
 -1     13069-3.09683E-03 8.51215E-15 1.77418E-01
 -1     13070-3.06207E-03-4.68801E-15-1.75426E-01
 -1     13072-3.06207E-03-6.36891E-15 1.75426E-01
 -1     13073-6.99746E-03-2.67593E-16-4.00884E-01
 -1     13075-6.99746E-03-2.92777E-15 4.00884E-01
 -1     13076-7.20662E-03-2.07960E-15-4.12867E-01
 -1     13078-7.20662E-03-2.95089E-15 4.12867E-01
 -1     13079-7.32722E-03-6.98189E-16-4.19776E-01
 -1     13081-7.32722E-03-8.18453E-16 4.19776E-01
 -1     13082-6.89053E-03-3.71256E-15-3.94758E-01
 -1     13084-6.89053E-03-3.12027E-15 3.94758E-01
 -1     13085-1.26735E-02-1.25905E-15-7.26062E-01
 -1     13087-1.26735E-02-1.60716E-15 7.26062E-01
 -1     13088-1.26019E-02 5.80150E-16-7.21961E-01
 -1     13090-1.26019E-02 1.28050E-15 7.21961E-01
 -1     13091-1.44730E-02-7.86270E-16-8.29159E-01
 -1     13093-1.44730E-02-2.65829E-15 8.29159E-01
 -1     13094-1.30618E-02-8.52674E-15-7.48312E-01
 -1     13096-1.30618E-02-4.69799E-15 7.48312E-01
 -1     13097-1.13577E-02-1.91551E-15-6.50685E-01
 -1     13099-1.13577E-02-2.42087E-15 6.50685E-01
 -1     13100-3.06194E-03 1.91006E-15-1.75418E-01
 -1     13102-3.06194E-03-1.64433E-16 1.75418E-01
 -1     13103-3.08423E-03 3.46411E-15-1.76695E-01
 -1     13105-3.08423E-03 6.58578E-15 1.76695E-01
 -1     13106-1.22664E-02-3.15990E-17-7.02741E-01
 -1     13108-1.22664E-02 1.03279E-15 7.02741E-01
 -1     13109-1.22319E-02 1.34103E-14-7.00764E-01
 -1     13111-1.22319E-02 1.17560E-14 7.00764E-01
 -1     13112-3.62677E-03 1.06243E-15-2.07778E-01
 -1     13114-3.62677E-03-8.70860E-16 2.07778E-01
 -1     13115-3.64579E-03 2.69844E-15-2.08867E-01
 -1     13117-3.64579E-03 3.41576E-15 2.08867E-01
 -1     13118-1.44598E-02 1.40050E-15-8.28399E-01
 -1     13120-1.44598E-02 4.61678E-16 8.28399E-01
 -1     13121-1.26232E-02-6.12105E-15-7.23184E-01
 -1     13123-1.26232E-02-3.38161E-15 7.23184E-01
 -1     13124-1.52634E-02-2.51816E-16-8.74442E-01
 -1     13126-1.52634E-02 4.80961E-16 8.74442E-01
 -1     13127-2.54924E-03-2.52778E-15-1.46046E-01
 -1     13129-2.54924E-03-2.68811E-15 1.46046E-01
 -1     13130-2.67825E-03 9.77559E-15-1.53437E-01
 -1     13132-2.67825E-03 1.00977E-14 1.53437E-01
 -1     13133-1.36578E-02 2.29421E-15-7.82453E-01
 -1     13135-1.36578E-02 9.35750E-16 7.82453E-01
 -1     13136-7.88714E-03 4.62000E-15-4.51854E-01
 -1     13138-7.88714E-03 3.71579E-15 4.51854E-01
 -1     13139-8.11842E-03-9.75353E-15-4.65104E-01
 -1     13141-8.11842E-03-7.47580E-15 4.65104E-01
 -1     13142-3.16365E-03 6.76127E-15-1.81245E-01
 -1     13144-3.16365E-03 6.75000E-15 1.81245E-01
 -1     13145-3.15382E-03 8.89611E-15-1.80682E-01
 -1     13147-3.15382E-03 8.20344E-15 1.80682E-01
 -1     13148-1.36693E-02-1.08081E-14-7.83115E-01
 -1     13150-1.36693E-02-1.00850E-14 7.83115E-01
 -1     13151-1.38403E-02 3.01184E-15-7.92913E-01
 -1     13153-1.38403E-02 1.59487E-15 7.92913E-01
 -1     13154-7.75633E-03 6.23236E-16-4.44360E-01
 -1     13156-7.75633E-03 1.93089E-15 4.44360E-01
 -1     13157-3.13761E-03-3.21520E-15-1.79753E-01
 -1     13159-3.13761E-03-5.07744E-15 1.79753E-01
 -1     13160-3.04546E-03 9.15786E-15-1.74474E-01
 -1     13162-3.04546E-03 1.03771E-14 1.74474E-01
 -1     13163-3.28401E-03 2.54142E-15-1.88141E-01
 -1     13165-3.28401E-03 2.13654E-15 1.88141E-01
 -1     13166-1.09621E-02-2.70670E-15-6.28017E-01
 -1     13168-1.09621E-02-2.35443E-15 6.28017E-01
 -1     13169-1.21022E-02 7.12607E-16-6.93334E-01
 -1     13171-1.21022E-02 4.21447E-15 6.93334E-01
 -1     13172-1.25492E-02-2.88530E-15-7.18942E-01
 -1     13174-1.25492E-02-4.05781E-15 7.18942E-01
 -1     13175-9.98456E-03-7.51441E-15-5.72015E-01
 -1     13177-9.98456E-03-8.31119E-15 5.72015E-01
 -1     13178-3.02668E-03-3.12626E-15-1.73398E-01
 -1     13180-3.02668E-03-3.71186E-15 1.73398E-01
 -1     13181-3.02796E-03-1.78692E-15-1.73471E-01
 -1     13183-3.02796E-03-1.40291E-15 1.73471E-01
 -1     13184-4.72215E-03 2.21636E-15-2.70532E-01
 -1     13186-4.72215E-03 3.75397E-15 2.70532E-01
 -1     13187-4.51809E-03-2.44025E-15-2.58841E-01
 -1     13189-4.51809E-03-2.84228E-15 2.58841E-01
 -1     13190-1.59670E-02-1.13369E-14-9.14750E-01
 -1     13192-1.59670E-02-8.48845E-15 9.14750E-01
 -1     13193-8.16560E-03-2.45450E-15-4.67807E-01
 -1     13195-8.16560E-03-3.44706E-15 4.67807E-01
 -1     13196-7.65876E-03-9.09276E-15-4.38770E-01
 -1     13198-7.65876E-03-7.84298E-15 4.38770E-01
 -1     13199-7.80025E-03 5.67409E-15-4.46876E-01
 -1     13201-7.80025E-03 4.08379E-15 4.46876E-01
 -1     13202-4.67150E-03-6.91575E-15-2.67630E-01
 -1     13204-4.67150E-03-8.66174E-15 2.67630E-01
 -1     13205-4.77867E-03-8.24546E-17-2.73770E-01
 -1     13207-4.77867E-03-2.44826E-15 2.73770E-01
 -1     13208-3.68516E-03 8.35229E-15-2.11123E-01
 -1     13210-3.68516E-03 5.88208E-15 2.11123E-01
 -1     13211-3.44392E-03-2.51475E-15-1.97302E-01
 -1     13213-3.44392E-03-4.32897E-15 1.97302E-01
 -1     13214-2.96171E-03 5.51889E-16-1.69676E-01
 -1     13216-2.96171E-03 2.42715E-15 1.69676E-01
 -1     13217-2.72152E-03 4.90251E-16-1.55915E-01
 -1     13219-2.72152E-03 6.00713E-16 1.55915E-01
 -1     13220-3.11985E-03-1.44395E-14-1.78736E-01
 -1     13222-3.11985E-03-1.58392E-14 1.78736E-01
 -1     13223-3.10220E-03 2.27390E-15-1.77725E-01
 -1     13225-3.10220E-03 2.41035E-15 1.77725E-01
 -1     13226-3.13660E-03 9.10399E-15-1.79696E-01
 -1     13228-3.13660E-03 8.58858E-15 1.79696E-01
 -1     13229-3.14010E-03 1.53151E-15-1.79896E-01
 -1     13231-3.14010E-03 1.93098E-15 1.79896E-01
 -1     13232-1.22068E-02-5.24884E-15-6.99329E-01
 -1     13234-1.22068E-02-5.89512E-15 6.99329E-01
 -1     13235-1.21088E-02-2.19564E-15-6.93714E-01
 -1     13237-1.21088E-02-3.68445E-15 6.93714E-01
 -1     13238-1.16192E-02-3.57862E-15-6.65666E-01
 -1     13240-1.16192E-02-2.60514E-15 6.65666E-01
 -1     13241-3.84371E-03-5.61026E-15-2.20206E-01
 -1     13243-3.84371E-03-3.27622E-15 2.20206E-01
 -1     13244-3.90463E-03-5.82190E-15-2.23696E-01
 -1     13246-3.90463E-03-6.54841E-15 2.23696E-01
 -1     13247-3.04557E-03 6.15288E-16-1.74481E-01
 -1     13249-3.04557E-03 2.41634E-15 1.74481E-01
 -1     13250-3.03248E-03 2.50088E-15-1.73731E-01
 -1     13252-3.03248E-03 2.11822E-15 1.73731E-01
 -1     13253-3.09954E-03-5.63717E-15-1.77573E-01
 -1     13255-3.09954E-03-3.83208E-15 1.77573E-01
 -1     13256-1.38785E-02 8.48634E-16-7.95099E-01
 -1     13258-1.38785E-02 5.22536E-16 7.95099E-01
 -1     13259-1.29023E-02 2.23251E-15-7.39171E-01
 -1     13261-1.29023E-02 1.85521E-15 7.39171E-01
 -1     13262-2.68549E-03 6.40101E-15-1.53852E-01
 -1     13264-2.68549E-03 7.07681E-15 1.53852E-01
 -1     13265-2.97133E-03 1.72667E-15-1.70227E-01
 -1     13267-2.97133E-03 3.42972E-15 1.70227E-01
 -1     13268-1.20969E-02-1.80236E-15-6.93032E-01
 -1     13270-1.20969E-02-3.63563E-16 6.93032E-01
 -1     13271-1.21527E-02 4.98591E-15-6.96230E-01
 -1     13273-1.21527E-02 4.46093E-15 6.96230E-01
 -1     13274-1.13796E-02-1.14421E-14-6.51934E-01
 -1     13276-1.13796E-02-1.00297E-14 6.51934E-01
 -1     13277-1.26131E-02-8.31352E-15-7.22603E-01
 -1     13279-1.26131E-02-9.10368E-15 7.22603E-01
 -1     13280-1.29076E-02 2.22910E-15-7.39477E-01
 -1     13282-1.29076E-02 1.89240E-15 7.39477E-01
 -1     13283-1.58896E-02 1.98810E-16-9.10312E-01
 -1     13285-1.58896E-02 1.95841E-15 9.10312E-01
 -1     13286-1.70681E-02-2.64783E-15-9.77829E-01
 -1     13288-1.70681E-02-2.28432E-15 9.77829E-01
 -1     13289-1.22393E-02 1.46578E-15-7.01190E-01
 -1     13291-1.22393E-02 1.22166E-15 7.01190E-01
 -1     13292-1.23259E-02-7.54005E-16-7.06153E-01
 -1     13294-1.23259E-02-1.16984E-15 7.06153E-01
 -1     13295-1.14314E-02 3.44522E-15-6.54904E-01
 -1     13297-1.14314E-02 4.38948E-15 6.54904E-01
 -1     13298-3.64395E-03-1.01937E-14-2.08762E-01
 -1     13300-3.64395E-03-7.99917E-15 2.08762E-01
 -1     13301-3.63952E-03 2.57704E-15-2.08508E-01
 -1     13303-3.63952E-03 2.63209E-15 2.08508E-01
 -1     13304-3.69937E-03-7.02473E-15-2.11937E-01
 -1     13306-3.69937E-03-7.22828E-15 2.11937E-01
 -1     13307-1.05469E-02 1.01475E-15-6.04233E-01
 -1     13309-1.05469E-02-1.15472E-15 6.04233E-01
 -1     13310-9.74695E-03-3.25901E-15-5.58403E-01
 -1     13312-9.74695E-03-1.12792E-15 5.58403E-01
 -1     13313-1.08528E-02 2.64064E-15-6.21755E-01
 -1     13315-1.08528E-02 2.44657E-15 6.21755E-01
 -1     13316-9.19553E-03 8.48859E-15-5.26811E-01
 -1     13318-9.19553E-03 9.18223E-15 5.26811E-01
 -1     13319-8.67797E-03-9.88216E-16-4.97161E-01
 -1     13321-8.67797E-03-2.41418E-15 4.97161E-01
 -1     13322-9.23927E-03-9.46500E-16-5.29317E-01
 -1     13324-9.23927E-03-1.05612E-15 5.29317E-01
 -1     13325-8.26846E-03 6.28377E-15-4.73699E-01
 -1     13327-8.26846E-03 6.44131E-15 4.73699E-01
 -1     13328-7.89235E-03-3.38734E-15-4.52152E-01
 -1     13330-7.89235E-03-3.42046E-15 4.52152E-01
 -1     13331-8.22892E-03-7.22618E-15-4.71434E-01
 -1     13333-8.22892E-03-7.77250E-15 4.71434E-01
 -1     13334-7.58275E-03-6.67921E-15-4.34416E-01
 -1     13336-7.58275E-03-2.99889E-15 4.34416E-01
 -1     13337-7.29474E-03 3.92837E-15-4.17915E-01
 -1     13339-7.29474E-03 5.54793E-15 4.17915E-01
 -1     13340-7.51972E-03 1.05998E-15-4.30804E-01
 -1     13342-7.51972E-03 1.66328E-15 4.30804E-01
 -1     13343-7.05020E-03-1.88372E-15-4.03906E-01
 -1     13345-7.05020E-03-3.55731E-16 4.03906E-01
 -1     13346-6.81807E-03-7.48393E-16-3.90607E-01
 -1     13348-6.81807E-03-1.62527E-16 3.90607E-01
 -1     13349-6.99154E-03-4.37689E-16-4.00545E-01
 -1     13351-6.99154E-03-1.51866E-15 4.00545E-01
 -1     13352-6.61142E-03-3.46110E-15-3.78768E-01
 -1     13354-6.61142E-03-3.33486E-15 3.78768E-01
 -1     13355-6.41424E-03 2.63229E-16-3.67472E-01
 -1     13357-6.41424E-03-1.42845E-15 3.67472E-01
 -1     13358-6.56703E-03-8.52785E-15-3.76225E-01
 -1     13360-6.56703E-03-9.53973E-15 3.76225E-01
 -1     13361-6.22813E-03 1.08839E-14-3.56810E-01
 -1     13363-6.22813E-03 9.87736E-15 3.56810E-01
 -1     13364-6.05323E-03 2.20764E-15-3.46789E-01
 -1     13366-6.05323E-03 3.94671E-16 3.46789E-01
 -1     13367-6.19663E-03 2.11243E-15-3.55005E-01
 -1     13369-6.19663E-03 4.45217E-15 3.55005E-01
 -1     13370-5.88047E-03-7.20690E-15-3.36892E-01
 -1     13372-5.88047E-03-8.72283E-15 3.36892E-01
 -1     13373-5.71888E-03 6.89515E-15-3.27634E-01
 -1     13375-5.71888E-03 5.51414E-15 3.27634E-01
 -1     13376-5.85214E-03 3.69508E-15-3.35269E-01
 -1     13378-5.85214E-03 3.61189E-15 3.35269E-01
 -1     13379-5.56051E-03-6.62994E-16-3.18562E-01
 -1     13381-5.56051E-03-1.13251E-15 3.18562E-01
 -1     13382-5.41139E-03 2.33080E-16-3.10018E-01
 -1     13384-5.41139E-03-1.88018E-15 3.10018E-01
 -1     13385-5.53219E-03-4.86181E-15-3.16939E-01
 -1     13387-5.53219E-03-5.03436E-15 3.16939E-01
 -1     13388-5.26809E-03 4.79456E-15-3.01809E-01
 -1     13390-5.26809E-03 6.70684E-15 3.01809E-01
 -1     13391-5.13230E-03 2.30886E-15-2.94029E-01
 -1     13393-5.13230E-03 2.17507E-15 2.94029E-01
 -1     13394-5.23968E-03 7.20590E-16-3.00181E-01
 -1     13396-5.23968E-03 1.09803E-15 3.00181E-01
 -1     13397-5.00299E-03 3.49795E-15-2.86621E-01
 -1     13399-5.00299E-03 4.63897E-15 2.86621E-01
 -1     13400-4.88025E-03-6.78747E-15-2.79589E-01
 -1     13402-4.88025E-03-5.47973E-15 2.79589E-01
 -1     13403-4.97451E-03 3.75172E-15-2.84989E-01
 -1     13405-4.97451E-03 1.53642E-15 2.84989E-01
 -1     13406-4.76300E-03-7.68250E-16-2.72872E-01
 -1     13408-4.76300E-03 7.44694E-16 2.72872E-01
 -1     13409-4.65202E-03-8.21331E-16-2.66514E-01
 -1     13411-4.65202E-03 3.15564E-16 2.66514E-01
 -1     13412-4.73393E-03-7.30474E-15-2.71207E-01
 -1     13414-4.73393E-03-7.60227E-15 2.71207E-01
 -1     13415-4.54551E-03 4.26504E-15-2.60412E-01
 -1     13417-4.54551E-03 5.30066E-15 2.60412E-01
 -1     13418-4.44432E-03-2.67465E-15-2.54615E-01
 -1     13420-4.44432E-03-1.17832E-15 2.54615E-01
 -1     13421-4.51534E-03-9.64210E-15-2.58684E-01
 -1     13423-4.51534E-03-1.06904E-14 2.58684E-01
 -1     13424-4.34733E-03-2.21124E-16-2.49059E-01
 -1     13426-4.34733E-03 5.07352E-16 2.49059E-01
 -1     13427-4.25386E-03 5.91903E-16-2.43703E-01
 -1     13429-4.25386E-03-1.02181E-15 2.43703E-01
 -1     13430-4.31608E-03 2.07492E-15-2.47268E-01
 -1     13432-4.31608E-03 1.48630E-15 2.47268E-01
 -1     13433-4.16460E-03-1.09728E-15-2.38590E-01
 -1     13435-4.16460E-03 7.65355E-16 2.38590E-01
 -1     13436-4.07773E-03 5.08124E-16-2.33613E-01
 -1     13438-4.07773E-03 1.82657E-15 2.33613E-01
 -1     13439-4.13303E-03-5.89100E-15-2.36781E-01
 -1     13441-4.13303E-03-5.46847E-15 2.36781E-01
 -1     13442-3.99469E-03-5.47912E-16-2.28855E-01
 -1     13444-3.99469E-03-1.64132E-15 2.28855E-01
 -1     13445-3.91393E-03-3.58808E-15-2.24229E-01
 -1     13447-3.91393E-03-5.15398E-15 2.24229E-01
 -1     13448-3.96348E-03-1.03502E-15-2.27068E-01
 -1     13450-3.96348E-03-3.49494E-16 2.27068E-01
 -1     13451-3.83599E-03 5.38553E-16-2.19764E-01
 -1     13453-3.83599E-03 2.45920E-15 2.19764E-01
 -1     13454-3.76088E-03 5.38284E-15-2.15461E-01
 -1     13456-3.76088E-03 4.31332E-15 2.15461E-01
 -1     13457-3.80474E-03 3.47642E-16-2.17973E-01
 -1     13459-3.80474E-03 1.64261E-15 2.17973E-01
 -1     13460-3.68736E-03 7.46571E-15-2.11249E-01
 -1     13462-3.68736E-03 8.67305E-15 2.11249E-01
 -1     13463-3.61703E-03 1.28821E-15-2.07220E-01
 -1     13465-3.61703E-03 1.39852E-15 2.07220E-01
 -1     13466-3.65418E-03 3.83933E-17-2.09348E-01
 -1     13468-3.65418E-03 8.49907E-16 2.09348E-01
 -1     13469-3.54841E-03-2.53768E-15-2.03288E-01
 -1     13471-3.54841E-03-3.44095E-15 2.03288E-01
 -1     13472-3.48018E-03 3.15073E-15-1.99380E-01
 -1     13474-3.48018E-03 2.16089E-15 1.99380E-01
 -1     13475-3.51189E-03-4.99630E-15-2.01196E-01
 -1     13477-3.51189E-03-6.34233E-15 2.01196E-01
 -1     13478-3.41624E-03 7.62991E-15-1.95716E-01
 -1     13480-3.41624E-03 6.16725E-15 1.95716E-01
 -1     13481-3.34637E-03-3.30877E-15-1.91714E-01
 -1     13483-3.34637E-03-1.24167E-15 1.91714E-01
 -1     13484-3.37945E-03 8.00629E-15-1.93609E-01
 -1     13486-3.37945E-03 8.38843E-15 1.93609E-01
 -1     13487-3.28298E-03-4.36563E-15-1.88082E-01
 -1     13489-3.28298E-03-4.59563E-15 1.88082E-01
 -1     13490-3.21337E-03 7.92862E-16-1.84094E-01
 -1     13492-3.21337E-03-3.89035E-16 1.84094E-01
 -1     13493-3.25083E-03-1.15635E-14-1.86240E-01
 -1     13495-3.25083E-03-1.10219E-14 1.86240E-01
 -1     13496-3.14831E-03 4.24992E-16-1.80366E-01
 -1     13498-3.14831E-03 2.53572E-15 1.80366E-01
 -1     13499-3.07569E-03 2.24220E-15-1.76206E-01
 -1     13501-3.07569E-03 7.10397E-16 1.76206E-01
 -1     13502-3.11109E-03 6.23923E-15-1.78234E-01
 -1     13504-3.11109E-03 4.47834E-15 1.78234E-01
 -1     13505-3.01055E-03-3.03623E-15-1.72475E-01
 -1     13507-3.01055E-03-4.21830E-15 1.72475E-01
 -1     13508-2.91221E-03 6.16227E-15-1.66841E-01
 -1     13510-2.91221E-03 6.30272E-15 1.66841E-01
 -1     13511-2.96546E-03 1.73477E-15-1.69891E-01
 -1     13513-2.96546E-03 3.26163E-15 1.69891E-01
 -1     13514-2.82711E-03-6.34543E-15-1.61965E-01
 -1     13516-2.82711E-03-5.07623E-15 1.61965E-01
 -1     13517-2.79442E-03-1.02670E-14-1.60092E-01
 -1     13519-2.79442E-03-7.21297E-15 1.60092E-01
 -1     13520-2.80948E-03 1.78875E-15-1.60955E-01
 -1     13522-2.80948E-03 2.30449E-15 1.60955E-01
 -1     13523-2.77364E-03-3.53475E-15-1.58902E-01
 -1     13525-2.77364E-03-4.63124E-15 1.58902E-01
 -1     13526-2.74995E-03 3.45189E-15-1.57545E-01
 -1     13528-2.74995E-03 3.34943E-15 1.57545E-01
 -1     13529-2.58433E-03 1.07242E-15-1.48056E-01
 -1     13531-2.58433E-03-1.09679E-16 1.48056E-01
 -1     13532-2.76956E-03 8.63604E-15-1.58668E-01
 -1     13534-2.76956E-03 5.71966E-15 1.58668E-01
 -1     13535-2.77505E-03 3.48094E-15-1.58982E-01
 -1     13537-2.77505E-03 4.49846E-15 1.58982E-01
 -1     13538-2.80426E-03 1.68904E-15-1.60656E-01
 -1     13540-2.80426E-03 1.19132E-15 1.60656E-01
 -1     13541-3.47995E-03 4.06996E-15-1.99366E-01
 -1     13543-3.47995E-03 6.44980E-15 1.99366E-01
 -1     13544-3.53534E-03 2.27363E-15-2.02539E-01
 -1     13546-3.53534E-03-7.85592E-16 2.02539E-01
 -1     13547-3.39924E-03-4.84631E-15-1.94742E-01
 -1     13549-3.39924E-03-5.32699E-15 1.94742E-01
 -1     13550-7.97722E-03-3.19706E-15-4.57015E-01
 -1     13552-7.97722E-03-4.15755E-15 4.57015E-01
 -1     13553-8.03916E-03-1.92650E-15-4.60563E-01
 -1     13555-8.03916E-03-8.13109E-16 4.60563E-01
 -1     13556-7.89945E-03 7.03861E-15-4.52559E-01
 -1     13558-7.89945E-03 7.39790E-15 4.52559E-01
 -1     13559-1.29147E-02-1.03746E-15-7.39881E-01
 -1     13561-1.29147E-02-1.91100E-15 7.39881E-01
 -1     13562-1.27009E-02 7.48229E-16-7.27635E-01
 -1     13564-1.27009E-02 1.83987E-15 7.27635E-01
 -1     13565-1.26652E-02-2.10924E-15-7.25587E-01
 -1     13567-1.26652E-02 1.39823E-15 7.25587E-01
 -1     13568-3.07767E-03-7.95991E-15-1.76319E-01
 -1     13570-3.07767E-03-8.73717E-15 1.76319E-01
 -1     13571-3.18072E-03-4.24388E-16-1.82223E-01
 -1     13573-3.18072E-03-2.41858E-15 1.82223E-01
 -1     13574-3.33459E-03 1.83821E-15-1.91039E-01
 -1     13576-3.33459E-03 2.62886E-15 1.91039E-01
 -1     13577-1.45230E-02 5.64600E-15-8.32024E-01
 -1     13579-1.45230E-02 4.14662E-15 8.32024E-01
 -1     13580-1.39459E-02-1.21112E-15-7.98960E-01
 -1     13582-1.39459E-02 1.50289E-15 7.98960E-01
 -1     13583-1.48427E-02-1.53000E-15-8.50340E-01
 -1     13585-1.48427E-02-1.09665E-15 8.50340E-01
 -1     13586-1.29250E-02 5.72331E-15-7.40470E-01
 -1     13588-1.29250E-02 6.27141E-15 7.40470E-01
 -1     13589-1.20090E-02 1.35051E-15-6.87997E-01
 -1     13591-1.20090E-02 1.12268E-15 6.87997E-01
 -1     13592-3.06508E-03-6.41575E-16-1.75598E-01
 -1     13594-3.06508E-03-1.96978E-15 1.75598E-01
 -1     13595-1.31525E-02 6.05244E-15-7.53506E-01
 -1     13597-1.31525E-02 4.02288E-15 7.53506E-01
 -1     13598-1.23304E-02-4.27870E-15-7.06411E-01
 -1     13600-1.23304E-02-3.19357E-15 7.06411E-01
 -1     13601-1.17095E-02 1.83800E-16-6.70838E-01
 -1     13603-1.17095E-02-2.99206E-15 6.70838E-01
 -1     13604-1.24165E-02-3.00438E-16-7.11341E-01
 -1     13606-1.24165E-02-4.54968E-16 7.11341E-01
 -1     13607-3.67434E-03 1.55246E-15-2.10503E-01
 -1     13609-3.67434E-03 1.16551E-15 2.10503E-01
 -1     13610-4.56901E-03-3.76177E-16-2.61758E-01
 -1     13612-4.56901E-03 1.11161E-15 2.61758E-01
 -1     13613-4.62471E-03 8.16657E-16-2.64950E-01
 -1     13615-4.62471E-03 6.25038E-16 2.64950E-01
 -1     13616-4.47158E-03 1.69433E-15-2.56176E-01
 -1     13618-4.47158E-03 2.16135E-15 2.56176E-01
 -1     13619-1.25788E-02-1.79504E-15-7.20638E-01
 -1     13621-1.25788E-02-2.70547E-15 7.20638E-01
 -1     13622-1.25444E-02-4.55893E-15-7.18665E-01
 -1     13624-1.25444E-02-3.98786E-15 7.18665E-01
 -1     13625-1.20164E-02-1.08325E-15-6.88421E-01
 -1     13627-1.20164E-02-2.63566E-15 6.88421E-01
 -1     13628-1.21809E-02 2.07129E-15-6.97844E-01
 -1     13630-1.21809E-02 7.23985E-16 6.97844E-01
 -1     13631-3.64330E-03 8.64916E-15-2.08724E-01
 -1     13633-3.64330E-03 1.09485E-14 2.08724E-01
 -1     13634-3.64903E-03-7.37874E-15-2.09053E-01
 -1     13636-3.64903E-03-5.26430E-15 2.09053E-01
 -1     13637-3.65826E-03 3.43038E-15-2.09582E-01
 -1     13639-3.65826E-03 4.28227E-15 2.09582E-01
 -1     13640-7.43710E-03 3.24596E-15-4.26071E-01
 -1     13642-7.43710E-03 3.74204E-15 4.26071E-01
 -1     13643-7.57734E-03-5.72547E-15-4.34105E-01
 -1     13645-7.57734E-03-4.34311E-15 4.34105E-01
 -1     13646-7.23660E-03-1.59370E-15-4.14585E-01
 -1     13648-7.23660E-03-2.33199E-15 4.14585E-01
 -1     13649-1.15453E-02 8.41675E-16-6.61429E-01
 -1     13651-1.15453E-02 1.31369E-15 6.61429E-01
 -1     13652-2.55705E-03-2.19134E-16-1.46493E-01
 -1     13654-2.55705E-03-1.15336E-15 1.46493E-01
 -1     13655-1.46310E-02 5.96241E-15-8.38207E-01
 -1     13657-1.46310E-02 7.08158E-15 8.38207E-01
 -1     13658-5.39036E-03 5.27898E-16-3.08813E-01
 -1     13660-5.39036E-03 1.28717E-15 3.08813E-01
 -1     13661-5.53200E-03-2.82543E-15-3.16928E-01
 -1     13663-5.53200E-03-2.84806E-15 3.16928E-01
 -1     13664-3.23196E-03-7.78238E-15-1.85159E-01
 -1     13666-3.23196E-03-8.85779E-15 1.85159E-01
 -1     13667-4.88929E-03-4.43822E-15-2.80107E-01
 -1     13669-4.88929E-03-6.08992E-15 2.80107E-01
 -1     13670-5.00497E-03 4.13010E-15-2.86735E-01
 -1     13672-5.00497E-03 3.04676E-15 2.86735E-01
 -1     13673-4.83832E-03 7.62111E-15-2.77187E-01
 -1     13675-4.83832E-03 5.72963E-15 2.77187E-01
 -1     13676-6.00808E-03 9.59337E-16-3.44203E-01
 -1     13678-6.00808E-03-5.36903E-16 3.44203E-01
 -1     13679-6.19013E-03 1.53736E-17-3.54632E-01
 -1     13681-6.19013E-03 1.57021E-15 3.54632E-01
 -1     13682-2.73815E-03-6.88477E-16-1.56868E-01
 -1     13684-2.73815E-03-1.39586E-15 1.56868E-01
 -1     13685-3.33147E-03-7.12838E-15-1.90860E-01
 -1     13687-3.33147E-03-8.07581E-15 1.90860E-01
 -1     13688-8.14296E-03 5.07967E-15-4.66510E-01
 -1     13690-8.14296E-03 5.25662E-15 4.66510E-01
 -1     13691-8.56203E-03-6.95831E-15-4.90518E-01
 -1     13693-8.56203E-03-5.89530E-15 4.90518E-01
 -1     13694-7.95883E-03 2.38543E-15-4.55961E-01
 -1     13696-7.95883E-03 1.96960E-15 4.55961E-01
 -1     13697-3.03060E-03-1.18534E-15-1.73623E-01
 -1     13699-3.03060E-03-2.02303E-15 1.73623E-01
 -1     13700-3.04746E-03-1.05250E-14-1.74589E-01
 -1     13702-3.04746E-03-6.77961E-15 1.74589E-01
 -1     13703-3.97470E-03 1.39063E-15-2.27710E-01
 -1     13705-3.97470E-03 6.64268E-16 2.27710E-01
 -1     13706-4.04681E-03 8.80697E-15-2.31841E-01
 -1     13708-4.04681E-03 7.85462E-15 2.31841E-01
 -1     13709-3.93858E-03-2.17900E-15-2.25641E-01
 -1     13711-3.93858E-03-8.42288E-16 2.25641E-01
 -1     13712-3.09131E-03-4.40751E-15-1.77101E-01
 -1     13714-3.09131E-03-5.72045E-15 1.77101E-01
 -1     13715-4.12362E-03 8.75654E-16-2.36242E-01
 -1     13717-4.12362E-03 7.16006E-16 2.36242E-01
 -1     13718-4.20409E-03 1.70459E-15-2.40852E-01
 -1     13720-4.20409E-03 2.38726E-15 2.40852E-01
 -1     13721-4.08552E-03 6.88543E-15-2.34059E-01
 -1     13723-4.08552E-03 4.75582E-15 2.34059E-01
 -1     13724-3.56254E-03-1.02840E-15-2.04098E-01
 -1     13726-3.56254E-03-2.05697E-15 2.04098E-01
 -1     13727-3.62039E-03 1.90421E-15-2.07412E-01
 -1     13729-3.62039E-03 7.83950E-16 2.07412E-01
 -1     13730-4.28885E-03-2.89807E-15-2.45708E-01
 -1     13732-4.28885E-03-2.93145E-15 2.45708E-01
 -1     13733-4.37817E-03 3.21559E-15-2.50825E-01
 -1     13735-4.37817E-03 2.54883E-15 2.50825E-01
 -1     13736-4.42780E-03-3.54571E-15-2.53669E-01
 -1     13738-4.42780E-03-9.74284E-16 2.53669E-01
 -1     13739-4.24840E-03-2.61072E-15-2.43391E-01
 -1     13741-4.24840E-03-3.43889E-15 2.43391E-01
 -1     13742-5.12795E-03-1.14665E-15-2.93780E-01
 -1     13744-5.12795E-03-5.12796E-16 2.93780E-01
 -1     13745-5.25648E-03 2.92885E-15-3.01144E-01
 -1     13747-5.25648E-03 2.99002E-16 3.01144E-01
 -1     13748-5.07047E-03-1.33448E-15-2.90487E-01
 -1     13750-5.07047E-03-1.50616E-15 2.90487E-01
 -1     13751-3.78387E-03 4.61156E-15-2.16778E-01
 -1     13753-3.78387E-03 5.04147E-15 2.16778E-01
 -1     13754-3.81296E-03-4.39546E-15-2.18444E-01
 -1     13756-3.81296E-03-4.50233E-15 2.18444E-01
 -1     13757-3.73733E-03-2.58439E-16-2.14112E-01
 -1     13759-3.73733E-03-5.02832E-16 2.14112E-01
 -1     13760-6.38143E-03-6.87352E-17-3.65592E-01
 -1     13762-6.38143E-03-1.14138E-15 3.65592E-01
 -1     13763-6.58510E-03 2.35020E-15-3.77260E-01
 -1     13765-6.58510E-03 2.14398E-15 3.77260E-01
 -1     13766-6.28050E-03 3.64177E-15-3.59809E-01
 -1     13768-6.28050E-03 9.72207E-16 3.59809E-01
 -1     13769-3.15468E-03 2.41574E-15-1.80731E-01
 -1     13771-3.15468E-03 9.12801E-16 1.80731E-01
 -1     13772-3.12446E-03-5.63862E-15-1.79000E-01
 -1     13774-3.12446E-03-8.11763E-15 1.79000E-01
 -1     13775-2.48426E-03 6.82808E-16-1.42323E-01
 -1     13777-2.48426E-03 3.04331E-15 1.42323E-01
 -1     13778-2.43658E-03 5.20368E-15-1.39591E-01
 -1     13780-2.43658E-03 2.63898E-15 1.39591E-01
 -1     13781-2.54534E-03 2.64462E-15-1.45822E-01
 -1     13783-2.54534E-03 2.56139E-16 1.45822E-01
 -1     13784-3.05978E-03 5.42124E-15-1.75295E-01
 -1     13786-3.05978E-03 3.75068E-15 1.75295E-01
 -1     13787-2.74517E-03-4.46516E-15-1.57270E-01
 -1     13789-2.74517E-03-1.72502E-15 1.57270E-01
 -1     13790-3.73488E-03-3.24771E-15-2.13971E-01
 -1     13792-3.73488E-03-4.51842E-15 2.13971E-01
 -1     13793-1.24600E-02-7.81099E-16-7.13831E-01
 -1     13795-1.24600E-02 1.01436E-16 7.13831E-01
 -1     13796-1.18813E-02-1.03907E-15-6.80680E-01
 -1     13798-1.18813E-02 3.45039E-16 6.80680E-01
 -1     13799-1.25138E-02-3.71336E-15-7.16918E-01
 -1     13801-1.25138E-02-3.37314E-15 7.16918E-01
 -1     13802-5.32746E-03-7.25330E-16-3.05210E-01
 -1     13804-5.32746E-03-1.48539E-15 3.05210E-01
 -1     13805-3.17034E-03 1.94473E-15-1.81629E-01
 -1     13807-3.17034E-03 3.10483E-15 1.81629E-01
 -1     13808-3.64360E-03 1.35017E-14-2.08742E-01
 -1     13810-3.64360E-03 1.30439E-14 2.08742E-01
 -1     13811-3.27567E-03 7.33778E-15-1.87663E-01
 -1     13813-3.27567E-03 6.51364E-15 1.87663E-01
 -1     13814-5.26430E-03-5.45315E-15-3.01592E-01
 -1     13816-5.26430E-03-4.50576E-15 3.01592E-01
 -1     13817-5.39729E-03-2.95983E-16-3.09210E-01
 -1     13819-5.39729E-03-1.25718E-15 3.09210E-01
 -1     13820-3.39048E-03-5.47615E-15-1.94240E-01
 -1     13822-3.39048E-03-4.13855E-15 1.94240E-01
 -1     13823-1.06900E-02-5.85938E-15-6.12430E-01
 -1     13825-1.06900E-02-7.18476E-15 6.12430E-01
 -1     13826-1.06994E-02 2.41631E-15-6.12969E-01
 -1     13828-1.06994E-02 3.33606E-15 6.12969E-01
 -1     13829-1.12215E-02-1.86812E-16-6.42878E-01
 -1     13831-1.12215E-02 1.81089E-15 6.42878E-01
 -1     13832-1.10953E-02 1.67233E-15-6.35647E-01
 -1     13834-1.10953E-02 2.00987E-15 6.35647E-01
 -1     13835-3.10845E-03 8.12373E-15-1.78083E-01
 -1     13837-3.10845E-03 9.04062E-15 1.78083E-01
 -1     13838-3.09274E-03-3.86330E-15-1.77183E-01
 -1     13840-3.09274E-03-1.93888E-15 1.77183E-01
 -1     13841-3.11706E-03 1.45373E-15-1.78576E-01
 -1     13843-3.11706E-03 2.05995E-15 1.78576E-01
 -1     13844-3.14866E-03 2.59363E-15-1.80386E-01
 -1     13846-3.14866E-03 1.01380E-15 1.80386E-01
 -1     13847-3.65581E-03-5.85451E-15-2.09441E-01
 -1     13849-3.65581E-03-4.34103E-15 2.09441E-01
 -1     13850-3.37237E-03-5.34830E-15-1.93203E-01
 -1     13852-3.37237E-03-5.22058E-15 1.93203E-01
 -1     13853-2.65531E-03-6.70415E-15-1.52122E-01
 -1     13855-2.65531E-03-7.49205E-15 1.52122E-01
 -1     13856-3.04402E-03 4.94310E-16-1.74392E-01
 -1     13858-3.04402E-03 5.87239E-16 1.74392E-01
 -1     13859-3.42690E-03 3.28101E-16-1.96327E-01
 -1     13861-3.42690E-03-3.68196E-16 1.96327E-01
 -1     13862-2.94425E-03-3.42115E-15-1.68676E-01
 -1     13864-2.94425E-03-1.50878E-15 1.68676E-01
 -1     13865-3.29669E-03 8.10074E-15-1.88867E-01
 -1     13867-3.29669E-03 7.20829E-15 1.88867E-01
 -1     13868-3.19928E-03-1.18314E-14-1.83287E-01
 -1     13870-3.19928E-03-1.33621E-14 1.83287E-01
 -1     13871-3.42107E-03 4.32160E-15-1.95993E-01
 -1     13873-3.42107E-03 2.32180E-15 1.95993E-01
 -1     13874-6.79618E-03 1.70378E-15-3.89353E-01
 -1     13876-6.79618E-03-5.07255E-16 3.89353E-01
 -1     13877-7.00874E-03 3.13322E-15-4.01530E-01
 -1     13879-7.00874E-03 1.84133E-15 4.01530E-01
 -1     13880-7.13823E-03 2.94354E-15-4.08949E-01
 -1     13882-7.13823E-03 4.10334E-15 4.08949E-01
 -1     13883-6.69251E-03-3.67024E-15-3.83413E-01
 -1     13885-6.69251E-03-3.09110E-15 3.83413E-01
 -1     13886-3.30120E-03 1.23360E-14-1.89125E-01
 -1     13888-3.30120E-03 1.28399E-14 1.89125E-01
 -1     13889-3.39808E-03-1.49198E-15-1.94676E-01
 -1     13891-3.39808E-03-5.89883E-16 1.94676E-01
 -1     13892-5.84083E-03 6.09214E-15-3.34621E-01
 -1     13894-5.84083E-03 4.27610E-15 3.34621E-01
 -1     13895-5.92098E-03-4.28616E-15-3.39213E-01
 -1     13897-5.92098E-03-3.97863E-15 3.39213E-01
 -1     13898-5.68075E-03-8.94985E-15-3.25450E-01
 -1     13900-5.68075E-03-9.09283E-15 3.25450E-01
 -1     13901-2.60636E-03-2.77174E-15-1.49318E-01
 -1     13903-2.60636E-03-3.23012E-15 1.49318E-01
 -1     13904-2.79945E-03 9.93599E-15-1.60380E-01
 -1     13906-2.79945E-03 8.19840E-15 1.60380E-01
 -1     13907-2.77342E-03-3.16444E-15-1.58889E-01
 -1     13909-2.77342E-03-5.44265E-15 1.58889E-01
 -1     13910-2.47561E-03-3.34615E-15-1.41828E-01
 -1     13912-2.47561E-03-3.02687E-15 1.41828E-01
 -1     13913-2.66017E-03 8.19212E-15-1.52401E-01
 -1     13915-2.66017E-03 9.07296E-15 1.52401E-01
 -1     13916-3.46087E-03-1.34554E-14-1.98273E-01
 -1     13918-3.46087E-03-1.35587E-14 1.98273E-01
 -1     13919-3.48567E-03-3.90362E-15-1.99694E-01
 -1     13921-3.48567E-03-1.91513E-15 1.99694E-01
 -1     13922-3.58272E-03 3.25062E-15-2.05254E-01
 -1     13924-3.58272E-03 1.99273E-15 2.05254E-01
 -1     13925-3.16322E-03 1.87364E-15-1.81221E-01
 -1     13927-3.16322E-03 2.07231E-15 1.81221E-01
 -1     13928-3.12992E-03-1.88357E-15-1.79313E-01
 -1     13930-3.12992E-03-4.47058E-15 1.79313E-01
 -1     13931-3.22782E-03 3.16712E-15-1.84922E-01
 -1     13933-3.22782E-03 6.50593E-15 1.84922E-01
 -1     13934-3.41376E-03 1.32212E-14-1.95574E-01
 -1     13936-3.41376E-03 1.33656E-14 1.95574E-01
 -1     13937-3.26847E-03 2.09564E-15-1.87250E-01
 -1     13939-3.26847E-03 2.96110E-15 1.87250E-01
 -1     13940-3.97438E-03 3.66870E-15-2.27692E-01
 -1     13942-3.97438E-03 3.96877E-15 2.27692E-01
 -1     13943-3.67310E-03 1.80943E-15-2.10432E-01
 -1     13945-3.67310E-03 3.64458E-15 2.10432E-01
 -1     13946-3.69511E-03-4.43483E-15-2.11692E-01
 -1     13948-3.69511E-03-4.97715E-15 2.11692E-01
 -1     13949-3.66444E-03-1.84852E-15-2.09936E-01
 -1     13951-3.66444E-03-3.75682E-15 2.09936E-01
 -1     13952-1.40465E-02 1.31122E-14-8.04722E-01
 -1     13954-1.40465E-02 1.30308E-14 8.04722E-01
 -1     13955-1.31298E-02 4.87885E-15-7.52203E-01
 -1     13957-1.31298E-02 5.40942E-15 7.52203E-01
 -1     13958-1.07628E-02 7.38770E-16-6.16600E-01
 -1     13960-1.07628E-02 8.04155E-17 6.16600E-01
 -1     13961-1.07249E-02 4.23582E-16-6.14432E-01
 -1     13963-1.07249E-02-1.71055E-16 6.14432E-01
 -1     13964-2.77539E-03 1.31855E-15-1.59002E-01
 -1     13966-2.77539E-03 4.49591E-15 1.59002E-01
 -1     13967-3.17521E-03-1.58307E-14-1.81908E-01
 -1     13969-3.17521E-03-1.53021E-14 1.81908E-01
 -1     13970-3.24345E-03 4.68500E-15-1.85817E-01
 -1     13972-3.24345E-03 6.59308E-15 1.85817E-01
 -1     13973-3.19190E-03 2.42325E-15-1.82864E-01
 -1     13975-3.19190E-03 2.69383E-15 1.82864E-01
 -1     13976-1.10403E-02-3.38288E-15-6.32501E-01
 -1     13978-1.10403E-02-5.22334E-15 6.32501E-01
 -1     13979-1.09026E-02-5.03006E-15-6.24609E-01
 -1     13981-1.09026E-02-2.48009E-15 6.24609E-01
 -1     13982-1.05351E-02-5.58365E-16-6.03553E-01
 -1     13984-1.05351E-02-4.57168E-16 6.03553E-01
 -1     13985-3.61550E-03-4.54331E-15-2.07132E-01
 -1     13987-3.61550E-03-2.58496E-15 2.07132E-01
 -1     13988-3.81423E-03 6.18782E-16-2.18517E-01
 -1     13990-3.81423E-03 1.07716E-17 2.18517E-01
 -1     13991-1.25447E-02-1.22895E-15-7.18687E-01
 -1     13993-1.25447E-02-1.51632E-15 7.18687E-01
 -1     13994-1.25356E-02 3.30424E-15-7.18165E-01
 -1     13996-1.25356E-02 3.44528E-15 7.18165E-01
 -1     13997-1.19898E-02 3.74716E-15-6.86894E-01
 -1     13999-1.19898E-02 4.57077E-15 6.86894E-01
 -1     14000-5.60642E-03-1.90759E-15-3.21192E-01
 -1     14002-5.60642E-03-1.31508E-15 3.21192E-01
 -1     14003-1.16550E-02-4.29051E-15-6.67713E-01
 -1     14005-1.16550E-02-4.86577E-15 6.67713E-01
 -1     14006-1.15768E-02 3.17456E-15-6.63234E-01
 -1     14008-1.15768E-02 2.29513E-15 6.63234E-01
 -1     14009-3.08608E-03 2.20186E-15-1.76801E-01
 -1     14011-3.08608E-03-3.64479E-17 1.76801E-01
 -1     14012-3.10240E-03 4.93986E-15-1.77737E-01
 -1     14014-3.10240E-03 7.62271E-15 1.77737E-01
 -1     14015-3.12301E-03 4.79728E-15-1.78917E-01
 -1     14017-3.12301E-03 3.26705E-15 1.78917E-01
 -1     14018-1.07235E-02 6.80438E-16-6.14347E-01
 -1     14020-1.07235E-02 1.74104E-16 6.14347E-01
 -1     14021-1.06596E-02 3.77236E-15-6.10685E-01
 -1     14023-1.06596E-02 4.12962E-15 6.10685E-01
 -1     14024-1.00555E-02 4.56470E-15-5.76079E-01
 -1     14026-1.00555E-02 5.77021E-15 5.76079E-01
 -1     14027-3.80527E-03-7.05211E-15-2.18004E-01
 -1     14029-3.80527E-03-8.90722E-15 2.18004E-01
 -1     14030-3.74628E-03 1.37670E-15-2.14624E-01
 -1     14032-3.74628E-03 3.43920E-15 2.14624E-01
 -1     14033-1.10289E-02 2.92485E-15-6.31846E-01
 -1     14035-1.10289E-02 3.37554E-15 6.31846E-01
 -1     14036-1.00785E-02-1.82435E-15-5.77398E-01
 -1     14038-1.00785E-02-6.87845E-16 5.77398E-01
 -1     14039-1.11247E-02 6.21887E-15-6.37334E-01
 -1     14041-1.11247E-02 5.81191E-15 6.37334E-01
 -1     14042-9.27819E-03 2.04106E-15-5.31547E-01
 -1     14044-9.27819E-03-2.12872E-16 5.31547E-01
 -1     14045-8.68053E-03 2.17653E-15-4.97307E-01
 -1     14047-8.68053E-03 1.95799E-15 4.97307E-01
 -1     14048-9.28865E-03-3.18260E-15-5.32146E-01
 -1     14050-9.28865E-03-3.38806E-15 5.32146E-01
 -1     14051-8.19188E-03-1.15944E-15-4.69313E-01
 -1     14053-8.19188E-03-4.71822E-16 4.69313E-01
 -1     14054-7.78212E-03 9.57684E-16-4.45837E-01
 -1     14056-7.78212E-03 7.29190E-16 4.45837E-01
 -1     14057-8.12331E-03-3.89599E-16-4.65384E-01
 -1     14059-8.12331E-03-3.26160E-16 4.65384E-01
 -1     14060-7.45097E-03-5.70419E-15-4.26866E-01
 -1     14062-7.45097E-03-5.76348E-15 4.26866E-01
 -1     14063-7.15668E-03 2.14962E-15-4.10006E-01
 -1     14065-7.15668E-03 1.01703E-15 4.10006E-01
 -1     14066-7.35755E-03-4.77842E-16-4.21514E-01
 -1     14068-7.35755E-03-1.87001E-15 4.21514E-01
 -1     14069-6.91768E-03-8.18139E-15-3.96313E-01
 -1     14071-6.91768E-03-7.40907E-15 3.96313E-01
 -1     14072-6.69314E-03 1.79022E-15-3.83450E-01
 -1     14074-6.69314E-03 2.50035E-15 3.83450E-01
 -1     14075-6.83718E-03 1.98739E-15-3.91702E-01
 -1     14077-6.83718E-03 1.55069E-15 3.91702E-01
 -1     14078-6.50159E-03-2.25768E-15-3.72476E-01
 -1     14080-6.50159E-03-1.91534E-15 3.72476E-01
 -1     14081-6.31550E-03 3.83350E-15-3.61815E-01
 -1     14083-6.31550E-03 2.02470E-15 3.61815E-01
 -1     14084-6.44835E-03 2.08364E-15-3.69426E-01
 -1     14086-6.44835E-03 9.87496E-16 3.69426E-01
 -1     14087-6.14295E-03-4.92254E-17-3.51929E-01
 -1     14089-6.14295E-03-8.85961E-17 3.51929E-01
 -1     14090-5.98162E-03-1.69059E-15-3.42687E-01
 -1     14092-5.98162E-03-1.10348E-15 3.42687E-01
 -1     14093-6.11973E-03 4.91577E-15-3.50599E-01
 -1     14095-6.11973E-03 3.39683E-15 3.50599E-01
 -1     14096-5.81241E-03-7.25514E-16-3.32993E-01
 -1     14098-5.81241E-03-1.68672E-16 3.32993E-01
 -1     14099-5.65666E-03-4.83177E-15-3.24070E-01
 -1     14101-5.65666E-03-5.40838E-15 3.24070E-01
 -1     14102-5.79426E-03-2.65017E-15-3.31953E-01
 -1     14104-5.79426E-03-1.46821E-15 3.31953E-01
 -1     14105-5.49856E-03 4.71001E-15-3.15012E-01
 -1     14107-5.49856E-03 2.74565E-15 3.15012E-01
 -1     14108-5.35052E-03-1.79446E-15-3.06531E-01
 -1     14110-5.35052E-03-1.70648E-15 3.06531E-01
 -1     14111-5.47967E-03-1.09270E-16-3.13930E-01
 -1     14113-5.47967E-03 6.13970E-16 3.13930E-01
 -1     14114-5.20736E-03 3.06603E-15-2.98330E-01
 -1     14116-5.20736E-03 1.63367E-15 2.98330E-01
 -1     14117-5.07090E-03 4.81633E-15-2.90511E-01
 -1     14119-5.07090E-03 4.43783E-15 2.90511E-01
 -1     14120-5.18854E-03-5.97140E-15-2.97251E-01
 -1     14122-5.18854E-03-3.63847E-15 2.97251E-01
 -1     14123-4.94175E-03-2.47798E-16-2.83112E-01
 -1     14125-4.94175E-03 3.54496E-16 2.83112E-01
 -1     14126-4.81817E-03 5.98107E-15-2.76033E-01
 -1     14128-4.81817E-03 4.80922E-15 2.76033E-01
 -1     14129-4.92390E-03-1.55407E-14-2.82090E-01
 -1     14131-4.92390E-03-1.40447E-14 2.82090E-01
 -1     14132-4.70056E-03 7.58973E-17-2.69295E-01
 -1     14134-4.70056E-03-3.09297E-15 2.69295E-01
 -1     14135-4.58918E-03-1.79244E-15-2.62914E-01
 -1     14137-4.58918E-03-1.56159E-15 2.62914E-01
 -1     14138-4.68273E-03 1.83656E-15-2.68273E-01
 -1     14140-4.68273E-03 3.46970E-15 2.68273E-01
 -1     14141-4.48175E-03-3.95398E-16-2.56759E-01
 -1     14143-4.48175E-03-8.93820E-16 2.56759E-01
 -1     14144-4.38040E-03 8.78004E-15-2.50953E-01
 -1     14146-4.38040E-03 6.80976E-15 2.50953E-01
 -1     14147-4.46220E-03-6.22196E-15-2.55639E-01
 -1     14149-4.46220E-03-6.02790E-15 2.55639E-01
 -1     14150-4.28249E-03 1.37206E-14-2.45344E-01
 -1     14152-4.28249E-03 1.38700E-14 2.45344E-01
 -1     14153-4.18891E-03 8.34038E-15-2.39982E-01
 -1     14155-4.18891E-03 1.02820E-14 2.39982E-01
 -1     14156-4.26069E-03 4.65991E-15-2.44095E-01
 -1     14158-4.26069E-03 1.86380E-15 2.44095E-01
 -1     14159-4.09945E-03 2.97003E-15-2.34857E-01
 -1     14161-4.09945E-03 1.42864E-15 2.34857E-01
 -1     14162-4.01254E-03-7.17018E-15-2.29878E-01
 -1     14164-4.01254E-03-6.68143E-15 2.29878E-01
 -1     14165-4.07676E-03-4.75572E-15-2.33557E-01
 -1     14167-4.07676E-03-3.58189E-15 2.33557E-01
 -1     14168-3.92998E-03 3.41118E-15-2.25148E-01
 -1     14170-3.92998E-03 7.57382E-16 2.25148E-01
 -1     14171-3.84885E-03 1.21500E-14-2.20500E-01
 -1     14173-3.84885E-03 1.14689E-14 2.20500E-01
 -1     14174-3.90812E-03 8.28752E-16-2.23896E-01
 -1     14176-3.90812E-03-1.34896E-15 2.23896E-01
 -1     14177-3.77097E-03 6.38131E-15-2.16039E-01
 -1     14179-3.77097E-03 7.34920E-15 2.16039E-01
 -1     14180-3.69439E-03-6.26574E-15-2.11651E-01
 -1     14182-3.69439E-03-7.92920E-15 2.11651E-01
 -1     14183-3.75026E-03-1.05275E-15-2.14852E-01
 -1     14185-3.75026E-03-5.07148E-16 2.14852E-01
 -1     14186-3.61905E-03-2.82514E-15-2.07335E-01
 -1     14188-3.61905E-03-2.99550E-15 2.07335E-01
 -1     14189-3.54759E-03 2.17936E-15-2.03241E-01
 -1     14191-3.54759E-03-5.66661E-16 2.03241E-01
 -1     14192-3.59752E-03 2.02977E-15-2.06102E-01
 -1     14194-3.59752E-03 2.03992E-15 2.06102E-01
 -1     14195-3.47570E-03-4.29522E-15-1.99123E-01
 -1     14197-3.47570E-03-3.51327E-15 1.99123E-01
 -1     14198-3.40989E-03 1.73980E-15-1.95352E-01
 -1     14200-3.40989E-03 2.76985E-15 1.95352E-01
 -1     14201-3.44795E-03-3.19261E-15-1.97533E-01
 -1     14203-3.44795E-03 6.90280E-17 1.97533E-01
 -1     14204-3.34569E-03 1.91175E-15-1.91675E-01
 -1     14206-3.34569E-03 1.79692E-15 1.91675E-01
 -1     14207-3.27860E-03 6.57807E-15-1.87831E-01
 -1     14209-3.27860E-03 6.46026E-15 1.87831E-01
 -1     14210-3.31042E-03 8.00033E-15-1.89654E-01
 -1     14212-3.31042E-03 8.91312E-15 1.89654E-01
 -1     14213-3.21986E-03 3.64133E-15-1.84466E-01
 -1     14215-3.21986E-03 4.30752E-15 1.84466E-01
 -1     14216-3.14286E-03 3.22856E-15-1.80055E-01
 -1     14218-3.14286E-03 1.45285E-15 1.80055E-01
 -1     14219-3.19275E-03-4.02196E-15-1.82912E-01
 -1     14221-3.19275E-03-3.75632E-15 1.82912E-01
 -1     14222-3.07286E-03 3.59200E-15-1.76044E-01
 -1     14224-3.07286E-03 2.10234E-15 1.76044E-01
 -1     14225-3.00867E-03 2.92396E-15-1.72367E-01
 -1     14227-3.00867E-03 2.59341E-15 1.72367E-01
 -1     14228-3.06683E-03-6.41620E-15-1.75698E-01
 -1     14230-3.06683E-03-5.07185E-15 1.75698E-01
 -1     14231-2.93559E-03 1.80454E-15-1.68180E-01
 -1     14233-2.93559E-03 3.47673E-15 1.68180E-01
 -1     14234-2.86558E-03-2.72074E-15-1.64169E-01
 -1     14236-2.86558E-03-3.98736E-15 1.64169E-01
 -1     14237-2.88726E-03 1.54200E-14-1.65411E-01
 -1     14239-2.88726E-03 1.59860E-14 1.65411E-01
 -1     14240-2.80762E-03-2.51920E-15-1.60849E-01
 -1     14242-2.80762E-03-3.03535E-15 1.60849E-01
 -1     14243-2.58496E-03-1.36744E-15-1.48092E-01
 -1     14245-2.58496E-03-2.59235E-15 1.48092E-01
 -1     14246-2.75150E-03 1.07266E-15-1.57633E-01
 -1     14248-2.75150E-03 1.31586E-15 1.57633E-01
 -1     14249-2.39371E-03-8.99012E-15-1.37136E-01
 -1     14251-2.39371E-03-9.65195E-15 1.37136E-01
 -1     14252-2.44675E-03 6.21046E-15-1.40174E-01
 -1     14254-2.44675E-03 3.90433E-15 1.40174E-01
 -1     14255-2.57175E-03 1.05174E-17-1.47335E-01
 -1     14257-2.57175E-03 1.37909E-15 1.47335E-01
 -1     14258-2.69112E-03-3.20603E-15-1.54174E-01
 -1     14260-2.69112E-03-3.97207E-15 1.54174E-01
 -1     14261-2.88641E-03 3.39861E-15-1.65362E-01
 -1     14263-2.88641E-03 3.59231E-15 1.65362E-01
 -1     14264-2.62253E-03-5.32204E-15-1.50244E-01
 -1     14266-2.62253E-03-5.28222E-15 1.50244E-01
 -1     14267-7.92987E-03 6.75426E-15-4.54302E-01
 -1     14269-7.92987E-03 6.69965E-15 4.54302E-01
 -1     14270-7.93274E-03-2.51338E-16-4.54466E-01
 -1     14272-7.93274E-03 1.78274E-15 4.54466E-01
 -1     14273-1.21442E-02-5.89996E-16-6.95740E-01
 -1     14275-1.21442E-02-1.97044E-15 6.95740E-01
 -1     14276-1.19229E-02 1.01636E-14-6.83064E-01
 -1     14278-1.19229E-02 1.01754E-14 6.83064E-01
 -1     14279-1.12667E-02-7.63830E-16-6.45470E-01
 -1     14281-1.12667E-02 3.65852E-16 6.45470E-01
 -1     14282-1.17808E-02 2.87232E-15-6.74920E-01
 -1     14284-1.17808E-02 3.66667E-15 6.74920E-01
 -1     14285-1.35400E-02-1.86785E-15-7.75708E-01
 -1     14287-1.35400E-02-1.49749E-15 7.75708E-01
 -1     14288-1.41623E-02-3.79696E-15-8.11356E-01
 -1     14290-1.41623E-02-3.86072E-15 8.11356E-01
 -1     14291-1.22628E-02 4.48195E-15-7.02538E-01
 -1     14293-1.22628E-02 3.39807E-15 7.02538E-01
 -1     14294-1.14676E-02 2.70740E-15-6.56976E-01
 -1     14296-1.14676E-02 4.69576E-15 6.56976E-01
 -1     14297-3.84833E-03-5.60913E-15-2.20471E-01
 -1     14299-3.84833E-03-2.91906E-15 2.20471E-01
 -1     14300-3.85922E-03-2.37938E-15-2.21095E-01
 -1     14302-3.85922E-03-2.14154E-15 2.21095E-01
 -1     14303-3.92147E-03-3.76664E-15-2.24661E-01
 -1     14305-3.92147E-03-4.48429E-15 2.24661E-01
 -1     14306-4.24728E-03-1.60261E-15-2.43327E-01
 -1     14308-4.24728E-03-2.53030E-15 2.43327E-01
 -1     14309-3.82104E-03 4.84218E-15-2.18907E-01
 -1     14311-3.82104E-03 6.79288E-15 2.18907E-01
 -1     14312-3.99595E-03 3.27813E-15-2.28928E-01
 -1     14314-3.99595E-03 1.05000E-15 2.28928E-01
 -1     14315-3.60041E-03-2.81748E-15-2.06267E-01
 -1     14317-3.60041E-03 1.11155E-16 2.06267E-01
 -1     14318-3.15644E-03 1.58913E-14-1.80832E-01
 -1     14320-3.15644E-03 1.69192E-14 1.80832E-01
 -1     14321-9.86337E-03-4.02792E-15-5.65072E-01
 -1     14323-9.86337E-03-3.83910E-15 5.65072E-01
 -1     14324-3.13660E-03-2.82777E-15-1.79696E-01
 -1     14326-3.13660E-03-3.20719E-15 1.79696E-01
 -1     14327-1.14848E-02-3.85893E-15-6.57964E-01
 -1     14329-1.14848E-02-1.10985E-15 6.57964E-01
 -1     14330-1.14324E-02 4.43600E-15-6.54964E-01
 -1     14332-1.14324E-02 4.16805E-15 6.54964E-01
 -1     14333-1.09088E-02-1.44878E-14-6.24967E-01
 -1     14335-1.09088E-02-1.21486E-14 6.24967E-01
 -1     14336-4.57812E-03-4.88443E-15-2.62280E-01
 -1     14338-4.57812E-03-7.25883E-15 2.62280E-01
 -1     14339-4.68116E-03 4.98342E-15-2.68184E-01
 -1     14341-4.68116E-03 4.67631E-15 2.68184E-01
 -1     14342-1.02257E-02-3.08988E-15-5.85833E-01
 -1     14344-1.02257E-02-2.77181E-15 5.85833E-01
 -1     14345-3.50702E-03 1.47167E-15-2.00917E-01
 -1     14347-3.50702E-03-8.43007E-16 2.00917E-01
 -1     14348-3.70981E-03-4.69413E-16-2.12535E-01
 -1     14350-3.70981E-03 1.16583E-15 2.12535E-01
 -1     14351-3.67542E-03-1.27446E-14-2.10565E-01
 -1     14353-3.67542E-03-1.19132E-14 2.10565E-01
 -1     14354-3.74676E-03 3.45515E-15-2.14652E-01
 -1     14356-3.74676E-03-4.63420E-16 2.14652E-01
 -1     14357-3.33362E-03 1.79474E-15-1.90983E-01
 -1     14359-3.33362E-03 4.02984E-16 1.90983E-01
 -1     14360-3.90330E-03 1.67676E-14-2.23620E-01
 -1     14362-3.90330E-03 1.65573E-14 2.23620E-01
 -1     14363-3.97112E-03-1.87118E-15-2.27505E-01
 -1     14365-3.97112E-03-1.92456E-15 2.27505E-01
 -1     14366-7.93311E-03 2.65241E-15-4.54488E-01
 -1     14368-7.93311E-03 1.68001E-15 4.54488E-01
 -1     14369-7.43814E-03-3.19621E-15-4.26131E-01
 -1     14371-7.43814E-03-1.97847E-15 4.26131E-01
 -1     14372-8.08137E-03-2.24354E-15-4.62981E-01
 -1     14374-8.08137E-03-4.89579E-15 4.62981E-01
 -1     14375-5.83518E-03-9.75490E-15-3.34297E-01
 -1     14377-5.83518E-03-1.16200E-14 3.34297E-01
 -1     14378-6.00583E-03 2.25508E-15-3.44074E-01
 -1     14380-6.00583E-03 2.88769E-15 3.44074E-01
 -1     14381-4.78754E-03 3.50094E-15-2.74278E-01
 -1     14383-4.78754E-03 2.81878E-15 2.74278E-01
 -1     14384-4.89948E-03 1.01543E-15-2.80691E-01
 -1     14386-4.89948E-03 1.55086E-15 2.80691E-01
 -1     14387-4.74394E-03 1.95844E-16-2.71780E-01
 -1     14389-4.74394E-03 7.34485E-16 2.71780E-01
 -1     14390-1.08757E-02-7.09956E-16-6.23070E-01
 -1     14392-1.08757E-02 1.96608E-17 6.23070E-01
 -1     14393-1.10692E-02-4.42779E-16-6.34152E-01
 -1     14395-1.10692E-02-1.06818E-15 6.34152E-01
 -1     14396-1.01296E-02-1.83281E-16-5.80325E-01
 -1     14398-1.01296E-02 3.26816E-16 5.80325E-01
 -1     14399-9.84516E-03 3.38730E-15-5.64029E-01
 -1     14401-9.84516E-03 1.30041E-15 5.64029E-01
 -1     14402-4.20651E-03 5.11854E-15-2.40991E-01
 -1     14404-4.20651E-03 6.36484E-15 2.40991E-01
 -1     14405-4.29363E-03 1.77559E-15-2.45982E-01
 -1     14407-4.29363E-03 1.02811E-16 2.45982E-01
 -1     14408-9.19921E-03-4.54138E-15-5.27022E-01
 -1     14410-9.19921E-03-2.70762E-15 5.27022E-01
 -1     14411-1.00557E-02 2.39479E-15-5.76092E-01
 -1     14413-1.00557E-02 4.71699E-15 5.76092E-01
 -1     14414-1.03334E-02-3.16604E-15-5.92003E-01
 -1     14416-1.03334E-02-5.44453E-15 5.92003E-01
 -1     14417-7.98508E-03 1.63956E-15-4.57465E-01
 -1     14419-7.98508E-03 8.71906E-16 4.57465E-01
 -1     14420-4.04586E-03-3.33129E-15-2.31787E-01
 -1     14422-4.04586E-03-3.69445E-15 2.31787E-01
 -1     14423-4.12419E-03 1.86519E-15-2.36275E-01
 -1     14425-4.12419E-03 1.78655E-15 2.36275E-01
 -1     14426-4.00720E-03 9.22893E-15-2.29572E-01
 -1     14428-4.00720E-03 6.67496E-15 2.29572E-01
 -1     14429-1.13071E-02 3.77583E-16-6.47785E-01
 -1     14431-1.13071E-02 1.16943E-15 6.47785E-01
 -1     14432-1.07850E-02 1.22157E-15-6.17874E-01
 -1     14434-1.07850E-02 8.09403E-16 6.17874E-01
 -1     14435-1.13982E-02 1.22288E-15-6.53004E-01
 -1     14437-1.13982E-02 2.36186E-15 6.53004E-01
 -1     14438-2.85129E-03-5.03097E-15-1.63350E-01
 -1     14440-2.85129E-03-4.68005E-15 1.63350E-01
 -1     14441-2.61385E-03 1.67769E-15-1.49747E-01
 -1     14443-2.61385E-03-2.34857E-16 1.49747E-01
 -1     14444-3.71418E-03 3.45730E-15-2.12785E-01
 -1     14446-3.71418E-03 6.11548E-15 2.12785E-01
 -1     14447-6.18309E-03 3.52416E-15-3.54229E-01
 -1     14449-6.18309E-03 2.43613E-15 3.54229E-01
 -1     14450-6.38305E-03-3.05603E-15-3.65685E-01
 -1     14452-6.38305E-03-1.98271E-15 3.65685E-01
 -1     14453-6.08506E-03 5.55972E-15-3.48613E-01
 -1     14455-6.08506E-03 5.14510E-15 3.48613E-01
 -1     14456-1.19800E-02 2.48764E-15-6.86335E-01
 -1     14458-1.19800E-02 2.39495E-15 6.86335E-01
 -1     14459-5.13597E-03-2.09715E-16-2.94240E-01
 -1     14461-5.13597E-03 3.21710E-16 2.94240E-01
 -1     14462-5.20734E-03-2.71990E-15-2.98328E-01
 -1     14464-5.20734E-03-2.01407E-15 2.98328E-01
 -1     14465-5.01586E-03-4.12280E-16-2.87359E-01
 -1     14467-5.01586E-03 3.41526E-16 2.87359E-01
 -1     14468-5.53443E-03 4.81729E-15-3.17067E-01
 -1     14470-5.53443E-03 4.20572E-15 3.17067E-01
 -1     14471-5.68092E-03 5.89810E-15-3.25459E-01
 -1     14473-5.68092E-03 7.52601E-15 3.25459E-01
 -1     14474-5.75684E-03 1.23197E-14-3.29809E-01
 -1     14476-5.75684E-03 1.17827E-14 3.29809E-01
 -1     14477-5.47229E-03-7.34451E-15-3.13507E-01
 -1     14479-5.47229E-03-4.89192E-15 3.13507E-01
 -1     14480-3.41518E-03-3.79533E-15-1.95655E-01
 -1     14482-3.41518E-03-4.80235E-15 1.95655E-01
 -1     14483-2.42767E-03-1.18857E-15-1.39081E-01
 -1     14485-2.42767E-03-1.20246E-15 1.39081E-01
 -1     14486-2.98297E-03 1.97217E-15-1.70894E-01
 -1     14488-2.98297E-03 2.57284E-15 1.70894E-01
 -1     14489-7.74586E-03-4.02676E-15-4.43760E-01
 -1     14491-7.74586E-03-4.34079E-15 4.43760E-01
 -1     14492-7.96732E-03 4.68575E-15-4.56448E-01
 -1     14494-7.96732E-03 4.88478E-15 4.56448E-01
 -1     14495-7.54173E-03 7.39604E-16-4.32066E-01
 -1     14497-7.54173E-03-8.84670E-21 4.32066E-01
 -1     14498-3.83870E-03-7.04189E-15-2.19919E-01
 -1     14500-3.83870E-03-5.58834E-15 2.19919E-01
 -1     14501-3.86865E-03-2.87168E-15-2.21635E-01
 -1     14503-3.86865E-03-5.54618E-15 2.21635E-01
 -1     14504-3.78544E-03 1.45841E-15-2.16868E-01
 -1     14506-3.78544E-03-8.03274E-16 2.16868E-01
 -1     14507-4.16673E-03 4.49238E-15-2.38712E-01
 -1     14509-4.16673E-03 5.01262E-15 2.38712E-01
 -1     14510-3.44672E-03-2.74129E-16-1.97463E-01
 -1     14512-3.44672E-03-2.41997E-15 1.97463E-01
 -1     14513-3.12441E-03-1.74806E-16-1.78997E-01
 -1     14515-3.12441E-03 9.63864E-16 1.78997E-01
 -1     14516-3.98690E-03 1.54029E-15-2.28410E-01
 -1     14518-3.98690E-03 1.42675E-15 2.28410E-01
 -1     14519-4.26696E-03-1.22776E-16-2.44454E-01
 -1     14521-4.26696E-03-2.12174E-15 2.44454E-01
 -1     14522-3.79459E-03 3.16400E-15-2.17392E-01
 -1     14524-3.79459E-03 3.86764E-15 2.17392E-01
 -1     14525-9.74295E-03 9.92421E-16-5.58173E-01
 -1     14527-9.74295E-03 3.39514E-16 5.58173E-01
 -1     14528-9.60401E-03 4.00693E-16-5.50214E-01
 -1     14530-9.60401E-03 3.46511E-15 5.50214E-01
 -1     14531-4.40566E-03-2.45373E-15-2.52400E-01
 -1     14533-4.40566E-03-2.22457E-15 2.52400E-01
 -1     14534-4.53039E-03-1.14737E-16-2.59546E-01
 -1     14536-4.53039E-03 1.80562E-15 2.59546E-01
 -1     14537-3.14916E-03-1.19766E-14-1.80415E-01
 -1     14539-3.14916E-03-1.03314E-14 1.80415E-01
 -1     14540-3.17248E-03-4.58767E-15-1.81751E-01
 -1     14542-3.17248E-03-3.66534E-15 1.81751E-01
 -1     14543-1.14386E-02-7.26809E-16-6.55315E-01
 -1     14545-1.14386E-02-1.93556E-15 6.55315E-01
 -1     14546-1.14495E-02 5.41096E-15-6.55943E-01
 -1     14548-1.14495E-02 5.70200E-15 6.55943E-01
 -1     14549-1.09431E-02 1.42995E-15-6.26932E-01
 -1     14551-1.09431E-02 9.77598E-17 6.26932E-01
 -1     14552-3.19609E-03 7.82604E-15-1.83104E-01
 -1     14554-3.19609E-03 6.22047E-15 1.83104E-01
 -1     14555-3.26554E-03-3.61157E-15-1.87082E-01
 -1     14557-3.26554E-03-5.21321E-15 1.87082E-01
 -1     14558-3.19589E-03 4.31129E-15-1.83093E-01
 -1     14560-3.19589E-03 3.61605E-15 1.83093E-01
 -1     14561-3.78090E-03 9.74864E-16-2.16608E-01
 -1     14563-3.78090E-03 3.59221E-15 2.16608E-01
 -1     14564-3.28705E-03 1.29812E-14-1.88315E-01
 -1     14566-3.28705E-03 9.96626E-15 1.88315E-01
 -1     14567-3.23135E-03-2.73069E-15-1.85124E-01
 -1     14569-3.23135E-03-1.08423E-15 1.85124E-01
 -1     14570-4.48039E-03 5.82208E-16-2.56681E-01
 -1     14572-4.48039E-03 8.11907E-17 2.56681E-01
 -1     14573-3.67585E-03-1.75059E-15-2.10589E-01
 -1     14575-3.67585E-03-1.25704E-15 2.10589E-01
 -1     14576-3.67458E-03 7.16575E-16-2.10517E-01
 -1     14578-3.67458E-03 1.58411E-15 2.10517E-01
 -1     14579-3.67193E-03 1.54623E-16-2.10365E-01
 -1     14581-3.67193E-03 3.61518E-17 2.10365E-01
 -1     14582-4.38363E-03 2.14375E-15-2.51138E-01
 -1     14584-4.38363E-03 4.34853E-15 2.51138E-01
 -1     14585-4.47872E-03 3.02072E-15-2.56586E-01
 -1     14587-4.47872E-03 3.00369E-15 2.56586E-01
 -1     14588-4.53437E-03 2.50758E-15-2.59774E-01
 -1     14590-4.53437E-03 6.89099E-16 2.59774E-01
 -1     14591-4.34316E-03-9.83585E-15-2.48819E-01
 -1     14593-4.34316E-03-8.19649E-15 2.48819E-01
 -1     14594-3.33907E-03-6.82516E-15-1.91295E-01
 -1     14596-3.33907E-03-2.96160E-15 1.91295E-01
 -1     14597-3.49015E-03 6.65846E-15-1.99951E-01
 -1     14599-3.49015E-03 5.51912E-15 1.99951E-01
 -1     14600-3.31653E-03-4.86478E-15-1.90004E-01
 -1     14602-3.31653E-03-5.20573E-15 1.90004E-01
 -1     14603-3.70222E-03-4.36712E-15-2.12100E-01
 -1     14605-3.70222E-03-5.75802E-15 2.12100E-01
 -1     14606-3.73332E-03 7.52580E-15-2.13882E-01
 -1     14608-3.73332E-03 5.96414E-15 2.13882E-01
 -1     14609-3.75504E-03 6.17898E-15-2.15126E-01
 -1     14611-3.75504E-03 8.29298E-15 2.15126E-01
 -1     14612-3.67927E-03 4.79612E-15-2.10785E-01
 -1     14614-3.67927E-03 2.90992E-15 2.10785E-01
 -1     14615-3.64307E-03 3.64405E-15-2.08712E-01
 -1     14617-3.64307E-03 5.26518E-15 2.08712E-01
 -1     14618-4.10839E-03 5.08857E-15-2.35370E-01
 -1     14620-4.10839E-03 4.43994E-15 2.35370E-01
 -1     14621-3.62568E-03 1.02276E-15-2.07715E-01
 -1     14623-3.62568E-03-1.38808E-15 2.07715E-01
 -1     14624-3.96613E-03 1.66331E-17-2.27220E-01
 -1     14626-3.96613E-03-1.47028E-15 2.27220E-01
 -1     14627-4.04286E-03 5.26187E-15-2.31615E-01
 -1     14629-4.04286E-03 4.42403E-15 2.31615E-01
 -1     14630-9.47516E-03 6.00169E-15-5.42831E-01
 -1     14632-9.47516E-03 4.81302E-15 5.42831E-01
 -1     14633-9.32509E-03-9.13307E-15-5.34234E-01
 -1     14635-9.32509E-03-5.42509E-15 5.34234E-01
 -1     14636-9.02652E-03-7.35142E-15-5.17129E-01
 -1     14638-9.02652E-03-7.74658E-15 5.17129E-01
 -1     14639-1.14486E-02 5.56145E-15-6.55888E-01
 -1     14641-1.14486E-02 5.55684E-15 6.55888E-01
 -1     14642-1.14434E-02-2.56301E-15-6.55590E-01
 -1     14644-1.14434E-02-4.52177E-15 6.55590E-01
 -1     14645-1.09660E-02-1.16444E-15-6.28240E-01
 -1     14647-1.09660E-02-1.73954E-15 6.28240E-01
 -1     14648-9.25154E-03 5.63923E-15-5.30021E-01
 -1     14650-9.25154E-03 6.15859E-15 5.30021E-01
 -1     14651-8.60915E-03-5.55770E-15-4.93218E-01
 -1     14653-8.60915E-03-5.36305E-15 4.93218E-01
 -1     14654-9.17616E-03-4.43958E-16-5.25702E-01
 -1     14656-9.17616E-03 1.16420E-16 5.25702E-01
 -1     14657-8.04591E-03 2.35859E-16-4.60950E-01
 -1     14659-8.04591E-03 2.54219E-15 4.60950E-01
 -1     14660-7.60656E-03 8.25748E-15-4.35779E-01
 -1     14662-7.60656E-03 7.94956E-15 4.35779E-01
 -1     14663-7.93606E-03-1.28548E-14-4.54657E-01
 -1     14665-7.93606E-03-1.29168E-14 4.54657E-01
 -1     14666-7.25283E-03 2.74621E-16-4.15514E-01
 -1     14668-7.25283E-03-4.05292E-17 4.15514E-01
 -1     14669-6.95867E-03-9.64152E-16-3.98662E-01
 -1     14671-6.95867E-03-1.97552E-15 3.98662E-01
 -1     14672-7.12567E-03-6.27709E-16-4.08229E-01
 -1     14674-7.12567E-03-1.25489E-15 4.08229E-01
 -1     14675-6.73388E-03-6.70323E-16-3.85784E-01
 -1     14677-6.73388E-03 1.61245E-15 3.85784E-01
 -1     14678-6.53247E-03-5.02288E-15-3.74245E-01
 -1     14680-6.53247E-03-5.07432E-15 3.74245E-01
 -1     14681-6.62985E-03-7.38132E-16-3.79824E-01
 -1     14683-6.62985E-03 1.33451E-15 3.79824E-01
 -1     14684-6.36891E-03-2.80048E-15-3.64874E-01
 -1     14686-6.36891E-03 1.21754E-15 3.64874E-01
 -1     14687-6.20040E-03 4.24763E-15-3.55221E-01
 -1     14689-6.20040E-03 2.01850E-15 3.55221E-01
 -1     14690-6.30532E-03 2.62299E-15-3.61232E-01
 -1     14692-6.30532E-03 1.80881E-15 3.61232E-01
 -1     14693-6.05867E-03 4.32697E-15-3.47101E-01
 -1     14695-6.05867E-03 3.70096E-15 3.47101E-01
 -1     14696-5.92787E-03-2.26299E-15-3.39608E-01
 -1     14698-5.92787E-03-2.62802E-15 3.39608E-01
 -1     14699-6.06794E-03 3.65670E-15-3.47632E-01
 -1     14701-6.06794E-03 4.24611E-15 3.47632E-01
 -1     14702-5.76396E-03 3.37410E-15-3.30217E-01
 -1     14704-5.76396E-03 3.48082E-15 3.30217E-01
 -1     14705-5.61791E-03-5.14223E-15-3.21850E-01
 -1     14707-5.61791E-03-4.15876E-15 3.21850E-01
 -1     14708-5.77682E-03 1.79055E-15-3.30954E-01
 -1     14710-5.77682E-03 3.09761E-15 3.30954E-01
 -1     14711-5.45915E-03 4.22003E-15-3.12754E-01
 -1     14713-5.45915E-03 5.52507E-15 3.12754E-01
 -1     14714-5.31165E-03-7.07325E-15-3.04305E-01
 -1     14716-5.31165E-03-7.34930E-15 3.04305E-01
 -1     14717-5.46626E-03-1.05012E-15-3.13162E-01
 -1     14719-5.46626E-03-1.38760E-15 3.13162E-01
 -1     14720-5.16869E-03 1.19788E-14-2.96114E-01
 -1     14722-5.16869E-03 1.31465E-14 2.96114E-01
 -1     14723-5.03074E-03-2.96873E-16-2.88211E-01
 -1     14725-5.03074E-03-6.57691E-16 2.88211E-01
 -1     14726-5.17365E-03 2.00358E-15-2.96398E-01
 -1     14728-5.17365E-03-1.92799E-15 2.96398E-01
 -1     14729-4.90275E-03 9.45514E-16-2.80878E-01
 -1     14731-4.90275E-03-1.75076E-16 2.80878E-01
 -1     14732-4.77782E-03-2.82210E-15-2.73721E-01
 -1     14734-4.77782E-03-2.60691E-15 2.73721E-01
 -1     14735-4.90979E-03-1.75479E-15-2.81282E-01
 -1     14737-4.90979E-03-2.54652E-15 2.81282E-01
 -1     14738-4.66045E-03-6.56391E-15-2.66997E-01
 -1     14740-4.66045E-03-7.41296E-15 2.66997E-01
 -1     14741-4.54839E-03 7.40903E-15-2.60577E-01
 -1     14743-4.54839E-03 6.18757E-15 2.60577E-01
 -1     14744-4.66901E-03 4.09835E-16-2.67487E-01
 -1     14746-4.66901E-03 5.53945E-16 2.67487E-01
 -1     14747-4.43942E-03 9.52556E-17-2.54334E-01
 -1     14749-4.43942E-03 4.87790E-16 2.54334E-01
 -1     14750-4.33765E-03-5.89903E-15-2.48504E-01
 -1     14752-4.33765E-03-7.33243E-15 2.48504E-01
 -1     14753-4.44513E-03 4.57721E-15-2.54662E-01
 -1     14755-4.44513E-03 4.62320E-15 2.54662E-01
 -1     14756-4.23762E-03-4.04955E-16-2.42773E-01
 -1     14758-4.23762E-03 1.07797E-15 2.42773E-01
 -1     14759-4.14361E-03 3.02665E-16-2.37387E-01
 -1     14761-4.14361E-03-1.93920E-15 2.37387E-01
 -1     14762-4.23795E-03-3.81891E-15-2.42792E-01
 -1     14764-4.23795E-03-3.94969E-15 2.42792E-01
 -1     14765-4.05335E-03-1.73580E-16-2.32216E-01
 -1     14767-4.05335E-03-7.81578E-16 2.32216E-01
 -1     14768-3.96655E-03 1.69577E-15-2.27243E-01
 -1     14770-3.96655E-03-1.28909E-15 2.27243E-01
 -1     14771-4.05055E-03-1.64317E-15-2.32056E-01
 -1     14773-4.05055E-03-2.38448E-15 2.32056E-01
 -1     14774-3.88491E-03-3.92471E-15-2.22566E-01
 -1     14776-3.88491E-03-4.82706E-15 2.22566E-01
 -1     14777-3.80437E-03 2.48328E-15-2.17952E-01
 -1     14779-3.80437E-03 5.77824E-15 2.17952E-01
 -1     14780-3.88285E-03-4.39588E-15-2.22448E-01
 -1     14782-3.88285E-03-4.09872E-15 2.22448E-01
 -1     14783-3.72772E-03 1.20433E-15-2.13561E-01
 -1     14785-3.72772E-03 5.57669E-16 2.13561E-01
 -1     14786-3.65015E-03-4.74000E-16-2.09117E-01
 -1     14788-3.65015E-03-9.09329E-16 2.09117E-01
 -1     14789-3.72817E-03 1.95833E-15-2.13587E-01
 -1     14791-3.72817E-03-8.10178E-17 2.13587E-01
 -1     14792-3.57408E-03-7.23835E-15-2.04759E-01
 -1     14794-3.57408E-03-7.49065E-15 2.04759E-01
 -1     14795-3.49745E-03 5.58467E-15-2.00368E-01
 -1     14797-3.49745E-03 5.48009E-15 2.00368E-01
 -1     14798-3.57614E-03 1.44289E-15-2.04877E-01
 -1     14800-3.57614E-03 1.82824E-15 2.04877E-01
 -1     14801-3.41946E-03-2.37262E-15-1.95901E-01
 -1     14803-3.41946E-03-5.03166E-15 1.95901E-01
 -1     14804-3.35101E-03 3.03522E-15-1.91979E-01
 -1     14806-3.35101E-03 4.70030E-15 1.91979E-01
 -1     14807-3.41793E-03-1.25050E-15-1.95813E-01
 -1     14809-3.41793E-03-2.05837E-15 1.95813E-01
 -1     14810-3.27934E-03-1.18034E-14-1.87873E-01
 -1     14812-3.27934E-03-1.14406E-14 1.87873E-01
 -1     14813-3.22279E-03 5.46486E-15-1.84633E-01
 -1     14815-3.22279E-03 5.04553E-15 1.84633E-01
 -1     14816-3.25630E-03 3.99609E-15-1.86554E-01
 -1     14818-3.25630E-03 1.94433E-15 1.86554E-01
 -1     14819-3.17208E-03 3.33009E-15-1.81728E-01
 -1     14821-3.17208E-03 3.75128E-15 1.81728E-01
 -1     14822-3.10281E-03-1.90033E-15-1.77760E-01
 -1     14824-3.10281E-03-9.48976E-16 1.77760E-01
 -1     14825-3.13524E-03-4.62700E-15-1.79618E-01
 -1     14827-3.13524E-03-4.20560E-15 1.79618E-01
 -1     14828-3.05385E-03 3.61918E-16-1.74955E-01
 -1     14830-3.05385E-03 4.04178E-16 1.74955E-01
 -1     14831-2.94764E-03 3.54518E-16-1.68870E-01
 -1     14833-2.94764E-03 1.22582E-16 1.68870E-01
 -1     14834-3.07255E-03 3.30602E-15-1.76026E-01
 -1     14836-3.07255E-03 2.75117E-15 1.76026E-01
 -1     14837-2.83274E-03 2.05335E-15-1.62287E-01
 -1     14839-2.83274E-03 1.56664E-15 1.62287E-01
 -1     14840-2.82470E-03 3.58148E-16-1.61827E-01
 -1     14842-2.82470E-03 4.31364E-16 1.61827E-01
 -1     14843-2.91907E-03 1.39059E-15-1.67233E-01
 -1     14845-2.91907E-03 4.19711E-15 1.67233E-01
 -1     14846-2.75824E-03-2.53007E-15-1.58019E-01
 -1     14848-2.75824E-03-1.48077E-15 1.58019E-01
 -1     14849-2.94014E-03 1.29464E-15-1.68440E-01
 -1     14851-2.94014E-03 2.03591E-15 1.68440E-01
 -1     14852-2.61215E-03-4.29099E-15-1.49650E-01
 -1     14854-2.61215E-03-3.54584E-15 1.49650E-01
 -1     14855-2.97806E-03 7.27291E-15-1.70613E-01
 -1     14857-2.97806E-03 7.09128E-15 1.70613E-01
 -1     14858-2.76167E-03-5.54690E-15-1.58216E-01
 -1     14860-2.76167E-03-3.82995E-15 1.58216E-01
 -1     14861-3.29252E-03-7.93154E-15-1.88628E-01
 -1     14863-3.29252E-03-9.47790E-15 1.88628E-01
 -1     14864-3.50328E-03 2.01001E-15-2.00703E-01
 -1     14866-3.50328E-03 9.55928E-16 2.00703E-01
 -1     14867-3.38283E-03 3.02431E-15-1.93802E-01
 -1     14869-3.38283E-03 3.11086E-15 1.93802E-01
 -1     14870-3.52832E-03-6.49782E-15-2.02137E-01
 -1     14872-3.52832E-03-5.36066E-15 2.02137E-01
 -1     14873-4.12396E-03-6.32128E-15-2.36262E-01
 -1     14875-4.12396E-03-5.88213E-15 2.36262E-01
 -1     14876-4.21046E-03-5.01590E-15-2.41217E-01
 -1     14878-4.21046E-03-4.82163E-15 2.41217E-01
 -1     14879-4.08302E-03-2.12100E-15-2.33916E-01
 -1     14881-4.08302E-03 1.98231E-15 2.33916E-01
 -1     14882-9.19951E-03-2.02518E-16-5.27040E-01
 -1     14884-9.19951E-03-1.26126E-15 5.27040E-01
 -1     14885-9.06170E-03 5.39618E-16-5.19145E-01
 -1     14887-9.06170E-03 1.09971E-15 5.19145E-01
 -1     14888-8.51367E-03 2.21701E-15-4.87748E-01
 -1     14890-8.51367E-03 2.78235E-15 4.87748E-01
 -1     14891-3.19323E-03-2.29007E-15-1.82940E-01
 -1     14893-3.19323E-03-3.95280E-15 1.82940E-01
 -1     14894-3.17212E-03 3.71911E-15-1.81730E-01
 -1     14896-3.17212E-03 4.63321E-15 1.81730E-01
 -1     14897-3.25145E-03-6.96551E-15-1.86276E-01
 -1     14899-3.25145E-03-1.11145E-14 1.86276E-01
 -1     14900-5.68049E-03 4.57385E-17-3.25435E-01
 -1     14902-5.68049E-03-2.79333E-15 3.25435E-01
 -1     14903-5.82972E-03-5.30660E-15-3.33984E-01
 -1     14905-5.82972E-03-5.19662E-15 3.33984E-01
 -1     14906-4.35362E-03 1.54945E-15-2.49419E-01
 -1     14908-4.35362E-03-2.13014E-15 2.49419E-01
 -1     14909-4.04339E-03-2.16301E-15-2.31646E-01
 -1     14911-4.04339E-03-3.18892E-15 2.31646E-01
 -1     14912-1.09579E-02-8.64896E-15-6.27778E-01
 -1     14914-1.09579E-02-8.38711E-15 6.27778E-01
 -1     14915-1.04170E-02 2.11722E-15-5.96789E-01
 -1     14917-1.04170E-02-1.17172E-15 5.96789E-01
 -1     14918-1.03027E-02 2.77257E-15-5.90240E-01
 -1     14920-1.03027E-02 2.01748E-15 5.90240E-01
 -1     14921-4.70767E-03-6.73792E-15-2.69702E-01
 -1     14923-4.70767E-03-5.38240E-15 2.69702E-01
 -1     14924-3.48346E-03 1.70050E-15-1.99567E-01
 -1     14926-3.48346E-03 1.53973E-15 1.99567E-01
 -1     14927-3.35022E-03 2.64761E-15-1.91934E-01
 -1     14929-3.35022E-03 4.24815E-15 1.91934E-01
 -1     14930-4.69767E-03 3.19555E-15-2.69130E-01
 -1     14932-4.69767E-03 4.09136E-15 2.69130E-01
 -1     14933-4.80914E-03 4.58898E-16-2.75516E-01
 -1     14935-4.80914E-03 7.59112E-16 2.75516E-01
 -1     14936-3.84183E-03-5.43883E-16-2.20098E-01
 -1     14938-3.84183E-03-5.22924E-16 2.20098E-01
 -1     14939-3.72950E-03-1.54278E-15-2.13663E-01
 -1     14941-3.72950E-03-5.80209E-16 2.13663E-01
 -1     14942-8.53670E-03 1.75815E-15-4.89067E-01
 -1     14944-8.53670E-03 2.17386E-15 4.89067E-01
 -1     14945-8.56543E-03 2.25864E-15-4.90713E-01
 -1     14947-8.56543E-03 2.88760E-15 4.90713E-01
 -1     14948-6.59136E-03 8.71773E-15-3.77619E-01
 -1     14950-6.59136E-03 9.38962E-15 3.77619E-01
 -1     14951-6.82196E-03 2.84986E-15-3.90830E-01
 -1     14953-6.82196E-03 3.02064E-15 3.90830E-01
 -1     14954-6.47831E-03-4.66020E-15-3.71142E-01
 -1     14956-6.47831E-03-2.34465E-15 3.71142E-01
 -1     14957-4.96523E-03 4.55729E-15-2.84458E-01
 -1     14959-4.96523E-03 4.59936E-15 2.84458E-01
 -1     14960-9.03624E-03-5.61324E-15-5.17686E-01
 -1     14962-9.03624E-03-5.37090E-15 5.17686E-01
 -1     14963-9.08116E-03 5.48182E-15-5.20260E-01
 -1     14965-9.08116E-03 3.19076E-15 5.20260E-01
 -1     14966-8.42470E-03-4.18137E-15-4.82651E-01
 -1     14968-8.42470E-03-3.63646E-15 4.82651E-01
 -1     14969-8.21739E-03 4.12675E-15-4.70774E-01
 -1     14971-8.21739E-03 5.05791E-15 4.70774E-01
 -1     14972-4.37526E-03-3.66212E-15-2.50658E-01
 -1     14974-4.37526E-03-2.47119E-15 2.50658E-01
 -1     14975-3.95744E-03 6.64686E-15-2.26722E-01
 -1     14977-3.95744E-03 6.23543E-15 2.26722E-01
 -1     14978-3.90576E-03 5.75211E-15-2.23761E-01
 -1     14980-3.90576E-03 5.48509E-15 2.23761E-01
 -1     14981-4.71892E-03-4.08792E-16-2.70347E-01
 -1     14983-4.71892E-03-8.95497E-16 2.70347E-01
 -1     14984-1.05342E-02-1.71686E-15-6.03506E-01
 -1     14986-1.05342E-02-2.91444E-15 6.03506E-01
 -1     14987-1.06417E-02-2.92850E-16-6.09660E-01
 -1     14989-1.06417E-02 1.50745E-15 6.09660E-01
 -1     14990-8.86224E-03 3.75110E-15-5.07717E-01
 -1     14992-8.86224E-03 2.39597E-15 5.07717E-01
 -1     14993-7.03489E-03 3.97670E-15-4.03029E-01
 -1     14995-7.03489E-03 4.33142E-15 4.03029E-01
 -1     14996-7.39508E-03-1.70756E-15-4.23664E-01
 -1     14998-7.39508E-03-2.65868E-15 4.23664E-01
 -1     14999-7.62141E-03 3.27787E-15-4.36630E-01
 -1     15001-7.62141E-03 4.11583E-15 4.36630E-01
 -1     15002-7.01215E-03 6.32196E-15-4.01726E-01
 -1     15004-7.01215E-03 6.54103E-15 4.01726E-01
 -1     15005-4.57849E-03 4.31754E-15-2.62302E-01
 -1     15007-4.57849E-03 3.75211E-15 2.62302E-01
 -1     15008-9.91316E-03 1.76564E-15-5.67924E-01
 -1     15010-9.91316E-03 1.43086E-15 5.67924E-01
 -1     15011-9.34487E-03 1.85725E-16-5.35367E-01
 -1     15013-9.34487E-03-2.66968E-15 5.35367E-01
 -1     15014-1.01223E-02-2.52560E-15-5.79909E-01
 -1     15016-1.01223E-02 1.50959E-16 5.79909E-01
 -1     15017-4.29967E-03 8.89962E-15-2.46328E-01
 -1     15019-4.29967E-03 6.19126E-15 2.46328E-01
 -1     15020-4.39465E-03 9.98896E-16-2.51769E-01
 -1     15022-4.39465E-03 1.84357E-16 2.51769E-01
 -1     15023-4.25931E-03 3.15671E-15-2.44016E-01
 -1     15025-4.25931E-03 4.01334E-15 2.44016E-01
 -1     15026-3.89554E-03 2.27175E-15-2.23175E-01
 -1     15028-3.89554E-03 3.83043E-15 2.23175E-01
 -1     15029-3.92726E-03 3.79912E-15-2.24993E-01
 -1     15031-3.92726E-03 4.61289E-15 2.24993E-01
 -1     15032-3.83003E-03 1.66290E-15-2.19422E-01
 -1     15034-3.83003E-03 1.45367E-15 2.19422E-01
 -1     15035-5.98694E-03 2.80804E-15-3.42992E-01
 -1     15037-5.98694E-03 2.16462E-15 3.42992E-01
 -1     15038-6.17081E-03 8.20104E-15-3.53526E-01
 -1     15040-6.17081E-03 6.85399E-15 3.53526E-01
 -1     15041-5.90041E-03-8.38876E-15-3.38034E-01
 -1     15043-5.90041E-03-8.89225E-15 3.38034E-01
 -1     15044-4.49071E-03-1.20864E-15-2.57272E-01
 -1     15046-4.49071E-03-8.96086E-16 2.57272E-01
 -1     15047-4.59124E-03 8.38968E-15-2.63032E-01
 -1     15049-4.59124E-03 6.66629E-15 2.63032E-01
 -1     15050-4.65891E-03-3.17800E-15-2.66909E-01
 -1     15052-4.65891E-03-5.73784E-15 2.66909E-01
 -1     15053-4.45196E-03-2.11399E-15-2.55053E-01
 -1     15055-4.45196E-03-2.76739E-15 2.55053E-01
 -1     15056-3.15437E-03-4.01924E-15-1.80714E-01
 -1     15058-3.15437E-03-2.45984E-15 1.80714E-01
 -1     15059-3.15212E-03-6.58828E-15-1.80585E-01
 -1     15061-3.15212E-03-4.75104E-15 1.80585E-01
 -1     15062-3.19795E-03 3.38498E-15-1.83211E-01
 -1     15064-3.19795E-03 3.06309E-15 1.83211E-01
 -1     15065-7.30151E-03-4.53631E-16-4.18303E-01
 -1     15067-7.30151E-03-9.29258E-16 4.18303E-01
 -1     15068-7.48212E-03 1.50299E-15-4.28651E-01
 -1     15070-7.48212E-03 2.86982E-15 4.28651E-01
 -1     15071-7.05554E-03 2.88165E-15-4.04212E-01
 -1     15073-7.05554E-03 3.66738E-15 4.04212E-01
 -1     15074-1.10214E-02-4.32880E-15-6.31415E-01
 -1     15076-1.10214E-02-6.50140E-15 6.31415E-01
 -1     15077-1.10044E-02 2.25613E-15-6.30440E-01
 -1     15079-1.10044E-02 3.75310E-15 6.30440E-01
 -1     15080-1.00784E-02 1.01531E-14-5.77390E-01
 -1     15082-1.00784E-02 6.78319E-15 5.77390E-01
 -1     15083-1.07146E-02-1.74422E-15-6.13840E-01
 -1     15085-1.07146E-02-1.53404E-15 6.13840E-01
 -1     15086-1.06890E-02-1.18124E-15-6.12374E-01
 -1     15088-1.06890E-02 1.17601E-16 6.12374E-01
 -1     15089-9.55338E-03 1.57068E-15-5.47313E-01
 -1     15091-9.55338E-03 2.13154E-15 5.47313E-01
 -1     15092-1.11567E-02 1.68595E-15-6.39165E-01
 -1     15094-1.11567E-02 9.22861E-16 6.39165E-01
 -1     15095-5.15410E-03-3.69802E-15-2.95278E-01
 -1     15097-5.15410E-03-2.68451E-15 2.95278E-01
 -1     15098-5.27746E-03 3.98673E-15-3.02345E-01
 -1     15100-5.27746E-03 2.99130E-15 3.02345E-01
 -1     15101-8.41171E-03 1.21725E-15-4.81906E-01
 -1     15103-8.41171E-03 2.20355E-15 4.81906E-01
 -1     15104-9.01294E-03 4.07854E-15-5.16351E-01
 -1     15106-9.01294E-03 3.42058E-15 5.16351E-01
 -1     15107-8.05538E-03-5.23895E-15-4.61493E-01
 -1     15109-8.05538E-03-4.73105E-15 4.61493E-01
 -1     15110-1.02461E-02-6.18897E-15-5.86998E-01
 -1     15112-1.02461E-02-9.94118E-15 5.86998E-01
 -1     15113-9.75675E-03 4.02775E-16-5.58964E-01
 -1     15115-9.75675E-03-8.37279E-16 5.58964E-01
 -1     15116-1.04069E-02-2.30684E-15-5.96210E-01
 -1     15118-1.04069E-02-2.38760E-15 5.96210E-01
 -1     15119-3.16826E-03-4.23100E-16-1.81509E-01
 -1     15121-3.16826E-03-4.27529E-15 1.81509E-01
 -1     15122-3.47993E-03 4.73356E-15-1.99365E-01
 -1     15124-3.47993E-03 7.04011E-15 1.99365E-01
 -1     15125-3.43282E-03 8.04155E-15-1.96666E-01
 -1     15127-3.43282E-03 7.15764E-15 1.96666E-01
 -1     15128-3.26830E-03 3.53385E-15-1.87241E-01
 -1     15130-3.26830E-03 1.51046E-15 1.87241E-01
 -1     15131-3.36524E-03-2.07398E-15-1.92795E-01
 -1     15133-3.36524E-03-2.00553E-17 1.92795E-01
 -1     15134-5.35662E-03-4.70171E-15-3.06881E-01
 -1     15136-5.35662E-03-5.62366E-15 3.06881E-01
 -1     15137-5.40930E-03 2.57570E-15-3.09899E-01
 -1     15139-5.40930E-03 3.32553E-15 3.09899E-01
 -1     15140-1.03841E-02 2.00778E-15-5.94906E-01
 -1     15142-1.03841E-02 3.12476E-15 5.94906E-01
 -1     15143-1.04928E-02-2.81418E-16-6.01135E-01
 -1     15145-1.04928E-02-2.15298E-15 6.01135E-01
 -1     15146-9.94336E-03 2.27006E-15-5.69655E-01
 -1     15148-9.94336E-03 1.46406E-15 5.69655E-01
 -1     15149-4.21478E-03 8.64073E-15-2.41465E-01
 -1     15151-4.21478E-03 6.97442E-15 2.41465E-01
 -1     15152-4.61059E-03-1.21525E-14-2.64141E-01
 -1     15154-4.61059E-03-1.01608E-14 2.64141E-01
 -1     15155-9.05609E-03-5.65684E-17-5.18823E-01
 -1     15157-9.05609E-03 3.40480E-16 5.18823E-01
 -1     15158-8.77769E-03-1.84578E-15-5.02873E-01
 -1     15160-8.77769E-03-1.37543E-15 5.02873E-01
 -1     15161-3.68878E-03 4.78455E-15-2.11330E-01
 -1     15163-3.68878E-03 1.74487E-15 2.11330E-01
 -1     15164-3.65880E-03-2.72397E-16-2.09613E-01
 -1     15166-3.65880E-03 2.56959E-15 2.09613E-01
 -1     15167-3.68579E-03-2.16466E-15-2.11159E-01
 -1     15169-3.68579E-03-1.33881E-15 2.11159E-01
 -1     15170-3.33183E-03 1.17386E-14-1.90881E-01
 -1     15172-3.33183E-03 1.21620E-14 1.90881E-01
 -1     15173-3.33439E-03 5.30500E-15-1.91027E-01
 -1     15175-3.33439E-03 2.47497E-15 1.91027E-01
 -1     15176-8.59964E-03 1.69748E-15-4.92673E-01
 -1     15178-8.59964E-03 2.90212E-15 4.92673E-01
 -1     15179-8.30972E-03-1.36690E-15-4.76063E-01
 -1     15181-8.30972E-03-2.40370E-15 4.76063E-01
 -1     15182-8.25749E-03 8.75307E-16-4.73071E-01
 -1     15184-8.25749E-03 2.03195E-15 4.73071E-01
 -1     15185-5.31106E-03-2.66022E-15-3.04270E-01
 -1     15187-5.31106E-03-1.52672E-15 3.04270E-01
 -1     15188-5.43105E-03 6.74597E-15-3.11145E-01
 -1     15190-5.43105E-03 6.41368E-15 3.11145E-01
 -1     15191-3.23973E-03-2.82107E-15-1.85604E-01
 -1     15193-3.23973E-03-2.47783E-15 1.85604E-01
 -1     15194-3.21168E-03-3.16341E-15-1.83997E-01
 -1     15196-3.21168E-03-3.67502E-15 1.83997E-01
 -1     15197-3.18393E-03-1.37358E-15-1.82407E-01
 -1     15199-3.18393E-03 5.39407E-16 1.82407E-01
 -1     15200-3.18294E-03 1.96637E-15-1.82350E-01
 -1     15202-3.18294E-03 3.31569E-15 1.82350E-01
 -1     15203-3.22425E-03-2.23761E-15-1.84717E-01
 -1     15205-3.22425E-03-1.01314E-15 1.84717E-01
 -1     15206-5.54267E-03-2.08884E-15-3.17539E-01
 -1     15208-5.54267E-03-3.34623E-15 3.17539E-01
 -1     15209-1.05047E-02-5.18468E-15-6.01814E-01
 -1     15211-1.05047E-02-2.15235E-15 6.01814E-01
 -1     15212-1.05058E-02 1.09111E-14-6.01874E-01
 -1     15214-1.05058E-02 9.41083E-15 6.01874E-01
 -1     15215-1.00697E-02-2.63071E-15-5.76892E-01
 -1     15217-1.00697E-02-2.53153E-15 5.76892E-01
 -1     15218-7.82852E-03-9.72400E-16-4.48495E-01
 -1     15220-7.82852E-03-2.42242E-15 4.48495E-01
 -1     15221-7.35385E-03-1.36672E-15-4.21302E-01
 -1     15223-7.35385E-03-1.75992E-15 4.21302E-01
 -1     15224-7.65977E-03-3.13929E-15-4.38828E-01
 -1     15226-7.65977E-03-1.33213E-15 4.38828E-01
 -1     15227-4.91846E-03 6.47494E-15-2.81778E-01
 -1     15229-4.91846E-03 7.18081E-15 2.81778E-01
 -1     15230-5.03218E-03 1.09883E-15-2.88293E-01
 -1     15232-5.03218E-03-1.29266E-15 2.88293E-01
 -1     15233-5.10771E-03 4.00345E-15-2.92621E-01
 -1     15235-5.10771E-03 3.54714E-15 2.92621E-01
 -1     15236-4.87697E-03-3.05691E-15-2.79401E-01
 -1     15238-4.87697E-03-2.82923E-15 2.79401E-01
 -1     15239-6.98468E-03 9.15901E-16-4.00152E-01
 -1     15241-6.98468E-03 3.30178E-16 4.00152E-01
 -1     15242-6.68225E-03-2.47506E-15-3.82826E-01
 -1     15244-6.68225E-03-3.32857E-15 3.82826E-01
 -1     15245-6.82672E-03-2.20265E-16-3.91103E-01
 -1     15247-6.82672E-03 8.95061E-16 3.91103E-01
 -1     15248-6.48234E-03 2.08213E-15-3.71373E-01
 -1     15250-6.48234E-03 8.42390E-16 3.71373E-01
 -1     15251-6.34548E-03 9.19246E-16-3.63532E-01
 -1     15253-6.34548E-03 2.15927E-15 3.63532E-01
 -1     15254-6.35079E-03-3.22410E-15-3.63836E-01
 -1     15256-6.35079E-03-2.95938E-15 3.63836E-01
 -1     15257-6.22250E-03-3.35880E-15-3.56487E-01
 -1     15259-6.22250E-03-2.14958E-15 3.56487E-01
 -1     15260-6.06893E-03-4.38984E-15-3.47689E-01
 -1     15262-6.06893E-03-3.00951E-15 3.47689E-01
 -1     15263-6.09606E-03-1.59954E-15-3.49243E-01
 -1     15265-6.09606E-03-2.41327E-15 3.49243E-01
 -1     15266-6.00127E-03-1.53700E-15-3.43812E-01
 -1     15268-6.00127E-03-1.96917E-15 3.43812E-01
 -1     15269-5.94387E-03 6.61062E-17-3.40524E-01
 -1     15271-5.94387E-03 2.59973E-15 3.40524E-01
 -1     15272-6.08882E-03-2.97768E-16-3.48828E-01
 -1     15274-6.08882E-03-1.18627E-15 3.48828E-01
 -1     15275-5.78331E-03 1.07264E-14-3.31325E-01
 -1     15277-5.78331E-03 7.74841E-15 3.31325E-01
 -1     15278-5.64776E-03 1.83206E-15-3.23560E-01
 -1     15280-5.64776E-03 1.61176E-15 3.23560E-01
 -1     15281-5.85310E-03-2.47195E-15-3.35324E-01
 -1     15283-5.85310E-03-2.88583E-15 3.35324E-01
 -1     15284-5.48294E-03-3.79405E-15-3.14117E-01
 -1     15286-5.48294E-03-4.66097E-15 3.14117E-01
 -1     15287-5.32928E-03-3.91443E-15-3.05314E-01
 -1     15289-5.32928E-03-2.54906E-15 3.05314E-01
 -1     15290-5.53313E-03-1.98572E-15-3.16993E-01
 -1     15292-5.53313E-03-6.06079E-16 3.16993E-01
 -1     15293-5.18409E-03 3.55160E-15-2.96997E-01
 -1     15295-5.18409E-03 4.36633E-15 2.96997E-01
 -1     15296-5.04154E-03 2.62148E-15-2.88830E-01
 -1     15298-5.04154E-03 4.67133E-15 2.88830E-01
 -1     15299-5.22273E-03 1.43132E-15-2.99210E-01
 -1     15301-5.22273E-03 1.57659E-15 2.99210E-01
 -1     15302-4.91574E-03 5.39133E-15-2.81622E-01
 -1     15304-4.91574E-03 5.53973E-15 2.81622E-01
 -1     15305-4.78853E-03-1.99656E-15-2.74335E-01
 -1     15307-4.78853E-03-2.23050E-15 2.74335E-01
 -1     15308-4.95653E-03-5.63848E-15-2.83959E-01
 -1     15310-4.95653E-03-5.97301E-15 2.83959E-01
 -1     15311-4.67285E-03-1.10284E-15-2.67707E-01
 -1     15313-4.67285E-03-1.46790E-15 2.67707E-01
 -1     15314-4.55939E-03 3.46251E-15-2.61207E-01
 -1     15316-4.55939E-03 3.93931E-15 2.61207E-01
 -1     15317-4.72073E-03-1.59190E-15-2.70451E-01
 -1     15319-4.72073E-03-5.24832E-17 2.70451E-01
 -1     15320-4.44775E-03 4.25918E-15-2.54811E-01
 -1     15322-4.44775E-03 5.30753E-15 2.54811E-01
 -1     15323-4.34450E-03 2.01386E-15-2.48896E-01
 -1     15325-4.34450E-03 5.44076E-16 2.48896E-01
 -1     15326-4.49377E-03 3.23441E-15-2.57448E-01
 -1     15328-4.49377E-03 2.99175E-15 2.57448E-01
 -1     15329-4.23919E-03-2.47645E-17-2.42863E-01
 -1     15331-4.23919E-03-4.40564E-16 2.42863E-01
 -1     15332-4.14297E-03 3.30997E-15-2.37351E-01
 -1     15334-4.14297E-03 3.46344E-15 2.37351E-01
 -1     15335-4.27330E-03-4.08136E-15-2.44817E-01
 -1     15337-4.27330E-03-4.43118E-15 2.44817E-01
 -1     15338-4.04963E-03 7.28980E-15-2.32003E-01
 -1     15340-4.04963E-03 7.34242E-15 2.32003E-01
 -1     15341-3.96166E-03 2.12019E-15-2.26964E-01
 -1     15343-3.96166E-03 2.81595E-15 2.26964E-01
 -1     15344-4.07437E-03 8.77585E-15-2.33421E-01
 -1     15346-4.07437E-03 8.51762E-15 2.33421E-01
 -1     15347-3.88081E-03 6.49288E-15-2.22331E-01
 -1     15349-3.88081E-03 5.21095E-15 2.22331E-01
 -1     15350-3.80190E-03 3.49982E-15-2.17811E-01
 -1     15352-3.80190E-03 4.85366E-15 2.17811E-01
 -1     15353-3.90526E-03 6.44094E-15-2.23732E-01
 -1     15355-3.90526E-03 5.71124E-15 2.23732E-01
 -1     15356-3.72778E-03 3.29224E-16-2.13564E-01
 -1     15358-3.72778E-03 3.41476E-15 2.13564E-01
 -1     15359-3.65252E-03 1.53000E-15-2.09253E-01
 -1     15361-3.65252E-03 1.91355E-15 2.09253E-01
 -1     15362-3.75672E-03-7.27716E-16-2.15222E-01
 -1     15364-3.75672E-03-2.18793E-15 2.15222E-01
 -1     15365-3.57807E-03 6.51412E-15-2.04988E-01
 -1     15367-3.57807E-03 5.41296E-15 2.04988E-01
 -1     15368-3.49762E-03 2.30139E-15-2.00379E-01
 -1     15370-3.49762E-03 6.45896E-16 2.00379E-01
 -1     15371-3.61166E-03-7.91424E-15-2.06912E-01
 -1     15373-3.61166E-03-4.68270E-15 2.06912E-01
 -1     15374-3.41612E-03 3.33337E-15-1.95709E-01
 -1     15376-3.41612E-03 2.12478E-15 1.95709E-01
 -1     15377-3.32786E-03 2.01815E-15-1.90653E-01
 -1     15379-3.32786E-03 9.09425E-16 1.90653E-01
 -1     15380-3.45249E-03-1.93964E-15-1.97793E-01
 -1     15382-3.45249E-03-6.57506E-16 1.97793E-01
 -1     15383-3.23491E-03 1.55148E-15-1.85328E-01
 -1     15385-3.23491E-03-6.33128E-16 1.85328E-01
 -1     15386-3.17411E-03-3.21563E-15-1.81845E-01
 -1     15388-3.17411E-03-1.93278E-15 1.81845E-01
 -1     15389-3.26276E-03-3.76089E-15-1.86923E-01
 -1     15391-3.26276E-03-3.03522E-15 1.86923E-01
 -1     15392-3.10962E-03 3.78603E-15-1.78150E-01
 -1     15394-3.10962E-03 3.81914E-15 1.78150E-01
 -1     15395-3.09174E-03-4.70374E-15-1.77126E-01
 -1     15397-3.09174E-03-4.68773E-15 1.77126E-01
 -1     15398-3.05758E-03-4.14057E-16-1.75168E-01
 -1     15400-3.05758E-03-9.07453E-16 1.75168E-01
 -1     15401-3.09773E-03-4.62353E-15-1.77469E-01
 -1     15403-3.09773E-03-4.89929E-15 1.77469E-01
 -1     15404-3.01348E-03 4.01238E-15-1.72642E-01
 -1     15406-3.01348E-03 3.05402E-15 1.72642E-01
 -1     15407-3.05542E-03 2.99877E-15-1.75045E-01
 -1     15409-3.05542E-03 2.97336E-15 1.75045E-01
 -1     15410-2.96611E-03 6.14970E-15-1.69928E-01
 -1     15412-2.96611E-03 6.11717E-15 1.69928E-01
 -1     15413-2.71559E-03 1.12827E-14-1.55576E-01
 -1     15415-2.71559E-03 1.01817E-14 1.55576E-01
 -1     15416-3.20400E-03-1.33138E-15-1.83557E-01
 -1     15418-3.20400E-03-3.93468E-15 1.83557E-01
 -1     15419-2.91683E-03-7.51089E-15-1.67105E-01
 -1     15421-2.91683E-03-7.26697E-15 1.67105E-01
 -1     15422-3.39661E-03-3.02732E-15-1.94591E-01
 -1     15424-3.39661E-03-2.71915E-15 1.94591E-01
 -1     15425-3.38857E-03-3.42536E-15-1.94131E-01
 -1     15427-3.38857E-03-4.75005E-15 1.94131E-01
 -1     15428-3.33063E-03 4.00132E-15-1.90812E-01
 -1     15430-3.33063E-03 1.61498E-15 1.90812E-01
 -1     15431-3.25110E-03 7.08106E-15-1.86255E-01
 -1     15433-3.25110E-03 9.27409E-15 1.86255E-01
 -1     15434-3.52322E-03 2.80552E-15-2.01845E-01
 -1     15436-3.52322E-03 4.11785E-15 2.01845E-01
 -1     15437-3.72811E-03 3.57569E-15-2.13584E-01
 -1     15439-3.72811E-03 3.03046E-15 2.13584E-01
 -1     15440-3.39024E-03 3.76654E-15-1.94226E-01
 -1     15442-3.39024E-03 5.81136E-15 1.94226E-01
 -1     15443-4.03854E-03-4.26793E-15-2.31368E-01
 -1     15445-4.03854E-03-2.76019E-15 2.31368E-01
 -1     15446-4.12495E-03-1.63808E-15-2.36318E-01
 -1     15448-4.12495E-03-2.94957E-15 2.36318E-01
 -1     15449-7.95415E-03-3.33351E-15-4.55693E-01
 -1     15451-7.95415E-03-3.11158E-15 4.55693E-01
 -1     15452-7.72882E-03-4.07711E-15-4.42784E-01
 -1     15454-7.72882E-03-3.73835E-15 4.42784E-01
 -1     15455-7.69684E-03 9.41412E-15-4.40952E-01
 -1     15457-7.69684E-03 1.05174E-14 4.40952E-01
 -1     15458-3.29149E-03-4.24674E-17-1.88570E-01
 -1     15460-3.29149E-03 2.90307E-15 1.88570E-01
 -1     15461-3.27225E-03-6.44089E-16-1.87467E-01
 -1     15463-3.27225E-03-2.28266E-15 1.87467E-01
 -1     15464-3.33765E-03-3.89750E-15-1.91214E-01
 -1     15466-3.33765E-03-3.67171E-15 1.91214E-01
 -1     15467-5.62112E-03-2.63777E-15-3.22034E-01
 -1     15469-5.62112E-03-2.07163E-15 3.22034E-01
 -1     15470-5.56206E-03-2.85225E-15-3.18650E-01
 -1     15472-5.56206E-03-1.70451E-15 3.18650E-01
 -1     15473-5.68504E-03-4.55279E-15-3.25696E-01
 -1     15475-5.68504E-03-4.57428E-15 3.25696E-01
 -1     15476-5.52264E-03-4.99744E-16-3.16392E-01
 -1     15478-5.52264E-03-1.00023E-15 3.16392E-01
 -1     15479-1.05028E-02 6.43741E-16-6.01707E-01
 -1     15481-1.05028E-02-8.11414E-18 6.01707E-01
 -1     15482-1.04889E-02-1.94128E-16-6.00910E-01
 -1     15484-1.04889E-02-9.59384E-16 6.00910E-01
 -1     15485-9.30558E-03-2.84277E-15-5.33116E-01
 -1     15487-9.30558E-03-3.79572E-15 5.33116E-01
 -1     15488-8.66790E-03 1.26331E-15-4.96583E-01
 -1     15490-8.66790E-03 1.02765E-15 4.96583E-01
 -1     15491-1.00894E-02-1.53212E-15-5.78019E-01
 -1     15493-1.00894E-02-2.33627E-15 5.78019E-01
 -1     15494-1.00623E-02-5.15583E-15-5.76466E-01
 -1     15496-1.00623E-02-6.43293E-15 5.76466E-01
 -1     15497-9.15095E-03 2.10561E-15-5.24257E-01
 -1     15499-9.15095E-03 2.40655E-15 5.24257E-01
 -1     15500-9.69731E-03 3.77797E-15-5.55558E-01
 -1     15502-9.69731E-03 3.94483E-15 5.55558E-01
 -1     15503-8.92978E-03-5.19406E-15-5.11587E-01
 -1     15505-8.92978E-03-4.40538E-15 5.11587E-01
 -1     15506-9.61160E-03 2.09002E-15-5.50648E-01
 -1     15508-9.61160E-03 8.85861E-16 5.50648E-01
 -1     15509-8.02017E-03-1.30845E-15-4.59475E-01
 -1     15511-8.02017E-03 5.39975E-16 4.59475E-01
 -1     15512-6.95417E-03 1.28140E-16-3.98404E-01
 -1     15514-6.95417E-03 1.11230E-15 3.98404E-01
 -1     15515-3.78796E-03 6.35458E-15-2.17012E-01
 -1     15517-3.78796E-03 4.62355E-15 2.17012E-01
 -1     15518-3.29442E-03-4.31447E-15-1.88737E-01
 -1     15520-3.29442E-03-3.35295E-15 1.88737E-01
 -1     15521-7.57131E-03-1.48577E-15-4.33760E-01
 -1     15523-7.57131E-03 5.87042E-16 4.33760E-01
 -1     15524-7.50058E-03 1.53476E-15-4.29708E-01
 -1     15526-7.50058E-03-1.04065E-15 4.29708E-01
 -1     15527-7.03874E-03 1.69706E-16-4.03249E-01
 -1     15529-7.03874E-03 2.55019E-16 4.03249E-01
 -1     15530-6.66763E-03 4.87893E-15-3.81988E-01
 -1     15532-6.66763E-03 4.63646E-15 3.81988E-01
 -1     15533-3.67110E-03 9.50860E-15-2.10317E-01
 -1     15535-3.67110E-03 9.43841E-15 2.10317E-01
 -1     15536-3.62701E-03-1.98006E-15-2.07791E-01
 -1     15538-3.62701E-03-1.86617E-15 2.07791E-01
 -1     15539-3.18702E-03-5.54154E-15-1.82584E-01
 -1     15541-3.18702E-03-6.46410E-15 1.82584E-01
 -1     15542-3.21737E-03-1.01335E-14-1.84323E-01
 -1     15544-3.21737E-03-8.52035E-15 1.84323E-01
 -1     15545-7.41466E-03-8.09701E-15-4.24785E-01
 -1     15547-7.41466E-03-9.55931E-15 4.24785E-01
 -1     15548-9.25883E-03 9.15832E-16-5.30438E-01
 -1     15550-9.25883E-03 2.68234E-15 5.30438E-01
 -1     15551-8.80752E-03 7.18413E-15-5.04582E-01
 -1     15553-8.80752E-03 9.13961E-15 5.04582E-01
 -1     15554-9.49878E-03 3.65473E-15-5.44185E-01
 -1     15556-9.49878E-03 2.87183E-15 5.44185E-01
 -1     15557-6.36374E-03 2.86201E-16-3.64578E-01
 -1     15559-6.36374E-03 1.61628E-15 3.64578E-01
 -1     15560-6.59925E-03-6.09403E-15-3.78071E-01
 -1     15562-6.59925E-03-6.24588E-15 3.78071E-01
 -1     15563-6.24100E-03 6.16137E-15-3.57546E-01
 -1     15565-6.24100E-03 4.85273E-15 3.57546E-01
 -1     15566-3.20377E-03 3.23516E-15-1.83544E-01
 -1     15568-3.20377E-03 3.83894E-15 1.83544E-01
 -1     15569-4.32260E-03 1.64980E-14-2.47642E-01
 -1     15571-4.32260E-03 1.47315E-14 2.47642E-01
 -1     15572-4.21465E-03-3.14323E-15-2.41457E-01
 -1     15574-4.21465E-03-2.32045E-15 2.41457E-01
 -1     15575-4.31114E-03-7.39409E-15-2.46985E-01
 -1     15577-4.31114E-03-7.27039E-15 2.46985E-01
 -1     15578-4.17283E-03-4.28557E-16-2.39061E-01
 -1     15580-4.17283E-03-4.41999E-16 2.39061E-01
 -1     15581-3.76988E-03 3.83796E-15-2.15976E-01
 -1     15583-3.76988E-03 4.28624E-15 2.15976E-01
 -1     15584-3.79464E-03-7.23317E-15-2.17395E-01
 -1     15586-3.79464E-03-6.15710E-15 2.17395E-01
 -1     15587-3.72342E-03-5.08502E-15-2.13314E-01
 -1     15589-3.72342E-03-3.47633E-15 2.13314E-01
 -1     15590-3.66720E-03-2.81948E-15-2.10094E-01
 -1     15592-3.66720E-03-1.29660E-15 2.10094E-01
 -1     15593-3.67900E-03-2.99568E-15-2.10770E-01
 -1     15595-3.67900E-03-2.82739E-15 2.10770E-01
 -1     15596-3.68760E-03 3.10627E-15-2.11263E-01
 -1     15598-3.68760E-03 2.51402E-15 2.11263E-01
 -1     15599-3.63957E-03 4.42551E-15-2.08511E-01
 -1     15601-3.63957E-03 5.08855E-17 2.08511E-01
 -1     15602-5.18550E-03 2.52011E-15-2.97077E-01
 -1     15604-5.18550E-03 4.76416E-15 2.97077E-01
 -1     15605-5.27061E-03-1.95219E-15-3.01953E-01
 -1     15607-5.27061E-03-1.91986E-15 3.01953E-01
 -1     15608-5.06735E-03-3.62960E-15-2.90308E-01
 -1     15610-5.06735E-03-3.16381E-15 2.90308E-01
 -1     15611-5.81465E-03 7.52973E-15-3.33121E-01
 -1     15613-5.81465E-03 6.53962E-15 3.33121E-01
 -1     15614-5.96228E-03-8.25272E-15-3.41579E-01
 -1     15616-5.96228E-03-4.28274E-15 3.41579E-01
 -1     15617-5.76379E-03 6.16696E-15-3.30207E-01
 -1     15619-5.76379E-03 5.76481E-15 3.30207E-01
 -1     15620-3.18025E-03-1.52096E-15-1.82196E-01
 -1     15622-3.18025E-03-1.61355E-15 1.82196E-01
 -1     15623-4.61939E-03 6.21897E-15-2.64644E-01
 -1     15625-4.61939E-03 7.15548E-15 2.64644E-01
 -1     15626-4.72820E-03 2.73486E-15-2.70878E-01
 -1     15628-4.72820E-03 3.31022E-15 2.70878E-01
 -1     15629-4.83478E-03 2.68465E-15-2.76984E-01
 -1     15631-4.83478E-03 2.21886E-15 2.76984E-01
 -1     15632-4.95033E-03 2.05350E-16-2.83604E-01
 -1     15634-4.95033E-03-3.57243E-16 2.83604E-01
 -1     15635-4.80713E-03-6.38573E-15-2.75401E-01
 -1     15637-4.80713E-03-4.37327E-15 2.75401E-01
 -1     15638-2.41914E-03-6.78852E-15-1.38592E-01
 -1     15640-2.41914E-03-6.50499E-15 1.38592E-01
 -1     15641-2.41277E-03-2.04866E-15-1.38228E-01
 -1     15643-2.41277E-03-6.03070E-15 1.38228E-01
 -1     15644-3.95964E-03-1.67366E-15-2.26847E-01
 -1     15646-3.95964E-03-3.78179E-15 2.26847E-01
 -1     15647-3.99135E-03-3.95306E-15-2.28664E-01
 -1     15649-3.99135E-03-4.49225E-15 2.28664E-01
 -1     15650-3.88120E-03-2.12776E-15-2.22354E-01
 -1     15652-3.88120E-03-3.28895E-15 2.22354E-01
 -1     15653-7.77012E-03 2.18452E-15-4.45150E-01
 -1     15655-7.77012E-03 1.44661E-15 4.45150E-01
 -1     15656-8.09137E-03-6.16150E-15-4.63554E-01
 -1     15658-8.09137E-03-6.16869E-15 4.63554E-01
 -1     15659-7.41392E-03-1.47374E-15-4.24743E-01
 -1     15661-7.41392E-03-9.05175E-16 4.24743E-01
 -1     15662-9.17124E-03 1.60828E-15-5.25420E-01
 -1     15664-9.17124E-03 4.20442E-16 5.25420E-01
 -1     15665-1.01583E-02-3.22564E-15-5.81970E-01
 -1     15667-1.01583E-02-8.60957E-16 5.81970E-01
 -1     15668-1.07526E-02 5.17608E-15-6.16014E-01
 -1     15670-1.07526E-02 3.13633E-15 6.16014E-01
 -1     15671-1.07046E-02-2.31437E-15-6.13265E-01
 -1     15673-1.07046E-02-6.24579E-16 6.13265E-01
 -1     15674-1.19893E-02-1.76136E-15-6.86864E-01
 -1     15676-1.19893E-02-1.01469E-15 6.86864E-01
 -1     15677-2.49088E-03 3.69986E-15-1.42702E-01
 -1     15679-2.49088E-03 6.10474E-15 1.42702E-01
 -1     15680-6.68002E-03 1.81361E-15-3.82698E-01
 -1     15682-6.68002E-03 5.89365E-16 3.82698E-01
 -1     15683-6.25855E-03 2.21255E-15-3.58552E-01
 -1     15685-6.25855E-03 3.37615E-15 3.58552E-01
 -1     15686-6.20977E-03-3.59575E-15-3.55758E-01
 -1     15688-6.20977E-03-1.16755E-15 3.55758E-01
 -1     15689-9.73854E-03-9.99218E-15-5.57920E-01
 -1     15691-9.73854E-03-8.46889E-15 5.57920E-01
 -1     15692-9.70362E-03 7.87382E-15-5.55920E-01
 -1     15694-9.70362E-03 5.81699E-15 5.55920E-01
 -1     15695-9.69042E-03 7.40453E-16-5.55164E-01
 -1     15697-9.69042E-03-1.77510E-15 5.55164E-01
 -1     15698-9.64392E-03-7.31665E-15-5.52500E-01
 -1     15700-9.64392E-03-6.03071E-15 5.52500E-01
 -1     15701-9.35686E-03-2.15885E-15-5.36054E-01
 -1     15703-9.35686E-03-3.48133E-15 5.36054E-01
 -1     15704-2.49164E-03 5.44421E-15-1.42746E-01
 -1     15706-2.49164E-03 6.22513E-15 1.42746E-01
 -1     15707-6.84444E-03-4.06748E-15-3.92118E-01
 -1     15709-6.84444E-03-5.98025E-15 3.92118E-01
 -1     15710-7.13132E-03 6.10943E-15-4.08553E-01
 -1     15712-7.13132E-03 6.92303E-15 4.08553E-01
 -1     15713-7.32916E-03-1.19743E-15-4.19887E-01
 -1     15715-7.32916E-03-2.58910E-15 4.19887E-01
 -1     15716-6.70784E-03-5.86453E-15-3.84292E-01
 -1     15718-6.70784E-03-5.49738E-15 3.84292E-01
 -1     15719-3.27374E-03 5.03684E-15-1.87553E-01
 -1     15721-3.27374E-03 2.83543E-15 1.87553E-01
 -1     15722-3.37806E-03-6.15889E-15-1.93529E-01
 -1     15724-3.37806E-03-9.32076E-15 1.93529E-01
 -1     15725-8.07926E-03 1.72219E-16-4.62860E-01
 -1     15727-8.07926E-03-1.18022E-15 4.62860E-01
 -1     15728-7.83668E-03-3.50060E-15-4.48963E-01
 -1     15730-7.83668E-03-8.22730E-16 4.48963E-01
 -1     15731-3.88088E-03-7.25069E-15-2.22335E-01
 -1     15733-3.88088E-03-5.94230E-15 2.22335E-01
 -1     15734-3.92121E-03-1.97982E-15-2.24646E-01
 -1     15736-3.92121E-03-7.30609E-16 2.24646E-01
 -1     15737-3.78006E-03 4.85560E-15-2.16560E-01
 -1     15739-3.78006E-03 3.24406E-15 2.16560E-01
 -1     15740-8.70267E-03-1.27706E-16-4.98576E-01
 -1     15742-8.70267E-03-9.91596E-16 4.98576E-01
 -1     15743-3.35701E-03 6.67280E-15-1.92323E-01
 -1     15745-3.35701E-03 4.74396E-15 1.92323E-01
 -1     15746-3.31276E-03-1.09416E-14-1.89788E-01
 -1     15748-3.31276E-03-1.11155E-14 1.89788E-01
 -1     15749-3.60046E-03 5.71361E-15-2.06270E-01
 -1     15751-3.60046E-03 4.61905E-15 2.06270E-01
 -1     15752-3.02495E-03-5.40208E-15-1.73299E-01
 -1     15754-3.02495E-03-5.89990E-15 1.73299E-01
 -1     15755-3.49081E-03 9.69191E-16-1.99988E-01
 -1     15757-3.49081E-03 2.16543E-15 1.99988E-01
 -1     15758-4.40873E-03-1.14192E-15-2.52576E-01
 -1     15760-4.40873E-03-1.09403E-15 2.52576E-01
 -1     15761-4.51305E-03-6.28488E-15-2.58553E-01
 -1     15763-4.51305E-03-4.19340E-15 2.58553E-01
 -1     15764-4.37338E-03-6.82202E-15-2.50551E-01
 -1     15766-4.37338E-03-6.06261E-15 2.50551E-01
 -1     15767-3.17601E-03 1.23979E-14-1.81954E-01
 -1     15769-3.17601E-03 1.00004E-14 1.81954E-01
 -1     15770-3.15432E-03-3.91265E-15-1.80711E-01
 -1     15772-3.15432E-03-2.05551E-15 1.80711E-01
 -1     15773-4.58501E-03 2.09610E-15-2.62675E-01
 -1     15775-4.58501E-03-2.51344E-15 2.62675E-01
 -1     15776-3.57033E-03 2.28195E-15-2.04544E-01
 -1     15778-3.57033E-03 6.75082E-15 2.04544E-01
 -1     15779-3.74549E-03 3.16390E-15-2.14579E-01
 -1     15781-3.74549E-03 2.97874E-15 2.14579E-01
 -1     15782-3.65258E-03 4.96486E-15-2.09256E-01
 -1     15784-3.65258E-03 3.89522E-15 2.09256E-01
 -1     15785-3.35089E-03-9.25051E-15-1.91972E-01
 -1     15787-3.35089E-03-7.79187E-15 1.91972E-01
 -1     15788-9.71815E-03-6.73809E-15-5.56752E-01
 -1     15790-9.71815E-03-7.97505E-15 5.56752E-01
 -1     15791-9.72056E-03-1.09894E-15-5.56891E-01
 -1     15793-9.72056E-03-7.61241E-16 5.56891E-01
 -1     15794-9.42039E-03-3.13432E-15-5.39694E-01
 -1     15796-9.42039E-03-1.96786E-15 5.39694E-01
 -1     15797-9.27504E-03-3.57376E-15-5.31366E-01
 -1     15799-9.27504E-03-3.96019E-15 5.31366E-01
 -1     15800-3.14703E-03-8.06533E-16-1.80293E-01
 -1     15802-3.14703E-03 5.89808E-16 1.80293E-01
 -1     15803-3.18444E-03-6.36806E-15-1.82436E-01
 -1     15805-3.18444E-03-5.52916E-15 1.82436E-01
 -1     15806-3.08369E-03 2.94512E-15-1.76665E-01
 -1     15808-3.08369E-03 9.99484E-16 1.76665E-01
 -1     15809-3.61429E-03-5.38771E-15-2.07063E-01
 -1     15811-3.61429E-03-3.01278E-15 2.07063E-01
 -1     15812-3.27044E-03-4.30265E-15-1.87364E-01
 -1     15814-3.27044E-03-2.59453E-15 1.87364E-01
 -1     15815-3.21953E-03-1.65757E-14-1.84447E-01
 -1     15817-3.21953E-03-1.56793E-14 1.84447E-01
 -1     15818-3.34221E-03-5.33489E-15-1.91475E-01
 -1     15820-3.34221E-03-7.16808E-15 1.91475E-01
 -1     15821-3.52637E-03 4.19833E-15-2.02026E-01
 -1     15823-3.52637E-03 3.28022E-15 2.02026E-01
 -1     15824-3.47915E-03 5.62517E-15-1.99320E-01
 -1     15826-3.47915E-03 4.20442E-15 1.99320E-01
 -1     15827-1.04085E-02-3.88768E-16-5.96302E-01
 -1     15829-1.04085E-02 1.91963E-15 5.96302E-01
 -1     15830-6.08974E-03 3.45194E-15-3.48881E-01
 -1     15832-6.08974E-03 1.04058E-15 3.48881E-01
 -1     15833-6.13623E-03 2.31324E-15-3.51544E-01
 -1     15835-6.13623E-03 1.69510E-15 3.51544E-01
 -1     15836-6.38240E-03-5.77966E-15-3.65648E-01
 -1     15838-6.38240E-03-6.23865E-15 3.65648E-01
 -1     15839-6.01665E-03-2.82905E-15-3.44694E-01
 -1     15841-6.01665E-03-3.67909E-15 3.44694E-01
 -1     15842-5.84578E-03-4.05859E-15-3.34905E-01
 -1     15844-5.84578E-03-1.69169E-15 3.34905E-01
 -1     15845-5.52767E-03-3.78144E-15-3.16680E-01
 -1     15847-5.52767E-03-4.62807E-15 3.16680E-01
 -1     15848-5.99466E-03-1.26689E-15-3.43434E-01
 -1     15850-5.99466E-03-4.36825E-16 3.43434E-01
 -1     15851-6.13050E-03-4.06195E-15-3.51216E-01
 -1     15853-6.13050E-03-2.00506E-15 3.51216E-01
 -1     15854-6.32102E-03 1.01278E-15-3.62131E-01
 -1     15856-6.32102E-03-4.31990E-17 3.62131E-01
 -1     15857-5.95037E-03-2.98701E-15-3.40897E-01
 -1     15859-5.95037E-03-3.86021E-15 3.40897E-01
 -1     15860-5.81012E-03-4.02084E-15-3.32861E-01
 -1     15862-5.81012E-03-4.67245E-15 3.32861E-01
 -1     15863-6.12132E-03-2.61051E-16-3.50690E-01
 -1     15865-6.12132E-03-3.79859E-16 3.50690E-01
 -1     15866-5.62439E-03-2.32655E-15-3.22221E-01
 -1     15868-5.62439E-03-2.79582E-15 3.22221E-01
 -1     15869-5.43519E-03-5.01255E-15-3.11382E-01
 -1     15871-5.43519E-03-5.62467E-15 3.11382E-01
 -1     15872-5.75412E-03-3.08419E-15-3.29654E-01
 -1     15874-5.75412E-03-6.98576E-16 3.29654E-01
 -1     15875-5.27822E-03-1.44966E-16-3.02389E-01
 -1     15877-5.27822E-03 1.27104E-15 3.02389E-01
 -1     15878-5.12278E-03-8.60217E-16-2.93484E-01
 -1     15880-5.12278E-03-2.25721E-15 2.93484E-01
 -1     15881-5.36213E-03-9.34459E-16-3.07196E-01
 -1     15883-5.36213E-03-9.10795E-16 3.07196E-01
 -1     15884-4.99917E-03-2.89293E-15-2.86402E-01
 -1     15886-4.99917E-03-4.31918E-15 2.86402E-01
 -1     15887-4.87089E-03 3.62787E-15-2.79053E-01
 -1     15889-4.87089E-03 4.86327E-15 2.79053E-01
 -1     15890-5.07435E-03-4.73605E-15-2.90709E-01
 -1     15892-5.07435E-03-5.85408E-15 2.90709E-01
 -1     15893-4.76243E-03 1.84200E-15-2.72839E-01
 -1     15895-4.76243E-03 3.35791E-15 2.72839E-01
 -1     15896-4.64843E-03-1.87439E-16-2.66308E-01
 -1     15898-4.64843E-03-6.28110E-16 2.66308E-01
 -1     15899-4.85837E-03-3.32481E-15-2.78336E-01
 -1     15901-4.85837E-03-4.14121E-15 2.78336E-01
 -1     15902-4.53507E-03-2.81015E-15-2.59814E-01
 -1     15904-4.53507E-03-2.76114E-15 2.59814E-01
 -1     15905-4.42917E-03 1.25275E-15-2.53747E-01
 -1     15907-4.42917E-03 1.48077E-15 2.53747E-01
 -1     15908-4.64525E-03 5.95834E-16-2.66126E-01
 -1     15910-4.64525E-03-3.22655E-17 2.66126E-01
 -1     15911-4.31198E-03 9.02559E-15-2.47033E-01
 -1     15913-4.31198E-03 8.00956E-15 2.47033E-01
 -1     15914-4.20923E-03 1.31842E-15-2.41147E-01
 -1     15916-4.20923E-03 3.53379E-16 2.41147E-01
 -1     15917-4.39923E-03 8.78531E-15-2.52032E-01
 -1     15919-4.39923E-03 8.06189E-15 2.52032E-01
 -1     15920-4.10651E-03-7.46837E-15-2.35262E-01
 -1     15922-4.10651E-03-5.36769E-15 2.35262E-01
 -1     15923-4.01265E-03-4.89900E-15-2.29885E-01
 -1     15925-4.01265E-03-6.08790E-16 2.29885E-01
 -1     15926-4.16588E-03 7.18813E-15-2.38663E-01
 -1     15928-4.16588E-03 6.00342E-15 2.38663E-01
 -1     15929-3.93152E-03 9.72737E-16-2.25236E-01
 -1     15931-3.93152E-03 1.96488E-15 2.25236E-01
 -1     15932-3.85410E-03-4.60653E-15-2.20801E-01
 -1     15934-3.85410E-03-2.55534E-15 2.20801E-01
 -1     15935-3.98651E-03-3.14088E-15-2.28387E-01
 -1     15937-3.98651E-03-1.79571E-15 2.28387E-01
 -1     15938-3.78445E-03 3.59244E-15-2.16811E-01
 -1     15940-3.78445E-03 2.41408E-15 2.16811E-01
 -1     15941-3.71682E-03-1.79460E-15-2.12936E-01
 -1     15943-3.71682E-03 1.76704E-16 2.12936E-01
 -1     15944-3.84803E-03 3.16799E-15-2.20454E-01
 -1     15946-3.84803E-03 1.46460E-15 2.20454E-01
 -1     15947-3.64692E-03-1.07836E-14-2.08932E-01
 -1     15949-3.64692E-03-1.17805E-14 2.08932E-01
 -1     15950-3.57351E-03 3.56857E-15-2.04726E-01
 -1     15952-3.57351E-03 1.53083E-15 2.04726E-01
 -1     15953-3.71985E-03-7.42196E-16-2.13110E-01
 -1     15955-3.71985E-03-8.34694E-16 2.13110E-01
 -1     15956-3.49464E-03-1.07362E-15-2.00208E-01
 -1     15958-3.49464E-03-3.30243E-15 2.00208E-01
 -1     15959-3.39517E-03 6.20972E-16-1.94509E-01
 -1     15961-3.39517E-03-3.03062E-16 1.94509E-01
 -1     15962-3.57553E-03 8.40128E-15-2.04842E-01
 -1     15964-3.57553E-03 9.90536E-15 2.04842E-01
 -1     15965-3.29373E-03-3.23923E-15-1.88697E-01
 -1     15967-3.29373E-03-1.81870E-15 1.88697E-01
 -1     15968-3.15316E-03-4.48141E-15-1.80644E-01
 -1     15970-3.15316E-03-1.58526E-15 1.80644E-01
 -1     15971-3.38282E-03 8.03990E-16-1.93802E-01
 -1     15973-3.38282E-03 1.27573E-15 1.93802E-01
 -1     15974-3.00958E-03 4.92056E-15-1.72418E-01
 -1     15976-3.00958E-03 7.08208E-15 1.72418E-01
 -1     15977-2.98426E-03-3.76162E-15-1.70968E-01
 -1     15979-2.98426E-03-3.47346E-15 1.70968E-01
 -1     15980-3.08501E-03-1.77573E-15-1.76740E-01
 -1     15982-3.08501E-03-4.85266E-15 1.76740E-01
 -1     15983-3.00023E-03-5.23333E-15-1.71883E-01
 -1     15985-3.00023E-03-6.14349E-15 1.71883E-01
 -1     15986-3.25083E-03-4.43491E-15-1.86240E-01
 -1     15988-3.25083E-03-4.02163E-15 1.86240E-01
 -1     15989-2.78020E-03 6.41764E-15-1.59277E-01
 -1     15991-2.78020E-03 6.05697E-15 1.59277E-01
 -1     15992-3.48004E-03-6.90047E-15-1.99371E-01
 -1     15994-3.48004E-03-6.24649E-15 1.99371E-01
 -1     15995-7.56551E-03-1.90143E-15-4.33428E-01
 -1     15997-7.56551E-03-3.89500E-15 4.33428E-01
 -1     15998-6.72979E-03 4.94415E-15-3.85549E-01
 -1     16000-6.72979E-03 6.00893E-15 3.85549E-01
 -1     16001-7.38929E-03 1.37228E-15-4.23332E-01
 -1     16003-7.38929E-03-1.24263E-15 4.23332E-01
 -1     16004-8.60412E-03 6.86523E-16-4.92930E-01
 -1     16006-8.60412E-03-1.31352E-15 4.92930E-01
 -1     16007-9.07664E-03 9.37114E-15-5.20000E-01
 -1     16009-9.07664E-03 1.06579E-14 5.20000E-01
 -1     16010-7.97940E-03 9.89614E-16-4.57139E-01
 -1     16012-7.97940E-03 1.27611E-15 4.57139E-01
 -1     16013-5.49602E-03-1.88592E-15-3.14867E-01
 -1     16015-5.49602E-03 1.06175E-15 3.14867E-01
 -1     16016-5.59988E-03-3.61690E-16-3.20817E-01
 -1     16018-5.59988E-03-8.51243E-17 3.20817E-01
 -1     16019-1.14565E-02-4.99237E-15-6.56342E-01
 -1     16021-1.14565E-02-4.75226E-15 6.56342E-01
 -1     16022-9.25383E-03-1.67502E-15-5.30152E-01
 -1     16024-9.25383E-03-8.06120E-16 5.30152E-01
 -1     16025-9.84454E-03-1.15765E-15-5.63994E-01
 -1     16027-9.84454E-03-1.97424E-15 5.63994E-01
 -1     16028-9.89080E-03 6.49633E-15-5.66643E-01
 -1     16030-9.89080E-03 7.15395E-15 5.66643E-01
 -1     16031-2.53820E-03-1.44954E-15-1.45413E-01
 -1     16033-2.53820E-03-7.41688E-16 1.45413E-01
 -1     16034-2.87628E-03 4.47712E-15-1.64782E-01
 -1     16036-2.87628E-03 5.25735E-15 1.64782E-01
 -1     16037-8.35086E-03-5.77748E-15-4.78421E-01
 -1     16039-8.35086E-03-3.38198E-15 4.78421E-01
 -1     16040-8.00090E-03 5.53887E-15-4.58372E-01
 -1     16042-8.00090E-03 5.62313E-15 4.58372E-01
 -1     16043-8.67686E-03 1.57506E-15-4.97097E-01
 -1     16045-8.67686E-03 1.17781E-15 4.97097E-01
 -1     16046-3.11723E-03 6.29233E-15-1.78586E-01
 -1     16048-3.11723E-03 8.90216E-15 1.78586E-01
 -1     16049-8.66246E-03 1.46180E-15-4.96272E-01
 -1     16051-8.66246E-03 1.66673E-15 4.96272E-01
 -1     16052-9.82958E-03 3.17266E-15-5.63136E-01
 -1     16054-9.82958E-03 2.58926E-15 5.63136E-01
 -1     16055-3.21951E-03-2.50475E-15-1.84446E-01
 -1     16057-3.21951E-03-2.27354E-15 1.84446E-01
 -1     16058-3.30837E-03 8.35907E-15-1.89536E-01
 -1     16060-3.30837E-03 6.63313E-15 1.89536E-01
 -1     16061-3.44781E-03-1.21734E-15-1.97525E-01
 -1     16063-3.44781E-03 1.38487E-15 1.97525E-01
 -1     16064-6.11837E-03 9.39917E-15-3.50521E-01
 -1     16066-6.11837E-03 9.66174E-15 3.50521E-01
 -1     16067-6.32767E-03-4.55230E-15-3.62512E-01
 -1     16069-6.32767E-03-3.50530E-15 3.62512E-01
 -1     16070-6.00624E-03 2.31915E-15-3.44097E-01
 -1     16072-6.00624E-03 1.90653E-15 3.44097E-01
 -1     16073-3.38110E-03-2.92025E-16-1.93703E-01
 -1     16075-3.38110E-03 3.74103E-16 1.93703E-01
 -1     16076-3.43354E-03 1.23114E-15-1.96707E-01
 -1     16078-3.43354E-03 7.67738E-17 1.96707E-01
 -1     16079-3.39279E-03-4.56516E-15-1.94373E-01
 -1     16081-3.39279E-03-4.66000E-15 1.94373E-01
 -1     16082-4.12363E-03 3.19247E-15-2.36243E-01
 -1     16084-4.12363E-03 2.86465E-15 2.36243E-01
 -1     16085-4.22646E-03 3.22933E-15-2.42134E-01
 -1     16087-4.22646E-03 4.65027E-15 2.42134E-01
 -1     16088-5.02965E-03 1.48328E-15-2.88149E-01
 -1     16090-5.02965E-03 1.41029E-16 2.88149E-01
 -1     16091-3.42256E-03-4.42134E-15-1.96078E-01
 -1     16093-3.42256E-03-6.57326E-15 1.96078E-01
 -1     16094-3.81428E-03 3.82855E-15-2.18520E-01
 -1     16096-3.81428E-03 4.05327E-15 2.18520E-01
 -1     16097-3.84129E-03 3.65507E-16-2.20068E-01
 -1     16099-3.84129E-03-2.19082E-16 2.20068E-01
 -1     16100-3.74598E-03-2.28874E-15-2.14607E-01
 -1     16102-3.74598E-03-2.85524E-15 2.14607E-01
 -1     16103-5.71797E-03-4.39620E-16-3.27582E-01
 -1     16105-5.71797E-03-1.37493E-15 3.27582E-01
 -1     16106-5.80398E-03-2.81244E-15-3.32510E-01
 -1     16108-5.80398E-03-2.35388E-15 3.32510E-01
 -1     16109-5.71403E-03 9.55615E-15-3.27357E-01
 -1     16111-5.71403E-03 8.65574E-15 3.27357E-01
 -1     16112-4.77345E-03-1.62962E-15-2.73471E-01
 -1     16114-4.77345E-03-2.55127E-15 2.73471E-01
 -1     16115-4.89449E-03 4.31649E-15-2.80405E-01
 -1     16117-4.89449E-03 5.92350E-15 2.80405E-01
 -1     16118-1.08231E-02 4.62566E-15-6.20054E-01
 -1     16120-1.08231E-02 2.86765E-15 6.20054E-01
 -1     16121-3.19092E-03-6.95610E-15-1.82808E-01
 -1     16123-3.19092E-03-6.30358E-15 1.82808E-01
 -1     16124-9.65675E-03 1.84434E-16-5.53235E-01
 -1     16126-9.65675E-03-1.46991E-15 5.53235E-01
 -1     16127-1.17268E-02 3.15134E-15-6.71827E-01
 -1     16129-1.17268E-02 3.95831E-15 6.71827E-01
 -1     16130-3.53945E-03 1.17375E-14-2.02775E-01
 -1     16132-3.53945E-03 1.02093E-14 2.02775E-01
 -1     16133-3.61025E-03 2.05465E-15-2.06831E-01
 -1     16135-3.61025E-03 3.62384E-15 2.06831E-01
 -1     16136-5.36376E-03 1.56118E-15-3.07290E-01
 -1     16138-5.36376E-03-7.80772E-16 3.07290E-01
 -1     16139-5.46655E-03 4.78873E-15-3.13179E-01
 -1     16141-5.46655E-03 6.20114E-15 3.13179E-01
 -1     16142-5.24142E-03 6.00573E-15-3.00281E-01
 -1     16144-5.24142E-03 7.26271E-15 3.00281E-01
 -1     16145-1.00883E-02 1.11626E-15-5.77957E-01
 -1     16147-1.00883E-02 6.45523E-16 5.77957E-01
 -1     16148-1.16563E-02-7.85173E-15-6.67791E-01
 -1     16150-1.16563E-02-9.28532E-15 6.67791E-01
 -1     16151-4.02868E-03 2.30709E-17-2.30803E-01
 -1     16153-4.02868E-03 3.41415E-19 2.30803E-01
 -1     16154-4.06555E-03 5.88323E-15-2.32915E-01
 -1     16156-4.06555E-03 2.93957E-15 2.32915E-01
 -1     16157-3.94247E-03-5.27899E-15-2.25864E-01
 -1     16159-3.94247E-03-1.31450E-15 2.25864E-01
 -1     16160-4.66017E-03-2.09433E-15-2.66981E-01
 -1     16162-4.66017E-03-2.05889E-16 2.66981E-01
 -1     16163-4.75102E-03-2.49893E-15-2.72186E-01
 -1     16165-4.75102E-03-2.88409E-15 2.72186E-01
 -1     16166-4.54819E-03 4.21537E-15-2.60565E-01
 -1     16168-4.54819E-03 7.15744E-15 2.60565E-01
 -1     16169-3.46032E-03-5.87669E-15-1.98241E-01
 -1     16171-3.46032E-03-5.74740E-15 1.98241E-01
 -1     16172-3.61012E-03 2.67708E-15-2.06824E-01
 -1     16174-3.61012E-03 3.82359E-15 2.06824E-01
 -1     16175-2.99113E-03-6.22196E-16-1.71362E-01
 -1     16177-2.99113E-03-1.67417E-15 1.71362E-01
 -1     16178-3.02399E-03-1.06333E-15-1.73244E-01
 -1     16180-3.02399E-03-2.45983E-15 1.73244E-01
 -1     16181-9.09553E-03 2.80286E-16-5.21083E-01
 -1     16183-9.09553E-03 1.17838E-15 5.21083E-01
 -1     16184-9.02470E-03-8.82366E-16-5.17025E-01
 -1     16186-9.02470E-03-1.15679E-15 5.17025E-01
 -1     16187-8.15572E-03 4.75222E-15-4.67241E-01
 -1     16189-8.15572E-03 6.17618E-15 4.67241E-01
 -1     16190-8.88686E-03 3.09659E-15-5.09128E-01
 -1     16192-8.88686E-03 3.40552E-15 5.09128E-01
 -1     16193-5.94224E-03 1.78072E-15-3.40431E-01
 -1     16195-5.94224E-03 2.19185E-15 3.40431E-01
 -1     16196-5.78076E-03 1.76581E-15-3.31180E-01
 -1     16198-5.78076E-03-1.17529E-15 3.31180E-01
 -1     16199-5.73816E-03 5.32618E-15-3.28739E-01
 -1     16201-5.73816E-03 4.99994E-15 3.28739E-01
 -1     16202-6.03047E-03 9.89828E-17-3.45485E-01
 -1     16204-6.03047E-03 1.49914E-15 3.45485E-01
 -1     16205-3.29512E-03 4.89010E-16-1.88777E-01
 -1     16207-3.29512E-03 5.09740E-16 1.88777E-01
 -1     16208-3.14943E-03-3.53487E-15-1.80431E-01
 -1     16210-3.14943E-03-4.72984E-15 1.80431E-01
 -1     16211-3.15309E-03 3.36765E-15-1.80640E-01
 -1     16213-3.15309E-03 1.18343E-15 1.80640E-01
 -1     16214-3.17583E-03-7.73051E-15-1.81943E-01
 -1     16216-3.17583E-03-9.17353E-15 1.81943E-01
 -1     16217-3.38838E-03 1.66772E-15-1.94120E-01
 -1     16219-3.38838E-03 1.41528E-15 1.94120E-01
 -1     16220-3.44594E-03 7.07610E-15-1.97418E-01
 -1     16222-3.44594E-03 7.64873E-15 1.97418E-01
 -1     16223-4.33042E-03-1.53420E-15-2.48089E-01
 -1     16225-4.33042E-03 1.84299E-16 2.48089E-01
 -1     16226-4.44095E-03 1.55079E-15-2.54422E-01
 -1     16228-4.44095E-03 2.83734E-15 2.54422E-01
 -1     16229-4.29792E-03-7.89246E-16-2.46228E-01
 -1     16231-4.29792E-03-1.55738E-15 2.46228E-01
 -1     16232-3.27955E-03-1.14528E-15-1.87885E-01
 -1     16234-3.27955E-03-3.72343E-15 1.87885E-01
 -1     16235-5.00154E-03-7.36657E-15-2.86538E-01
 -1     16237-5.00154E-03-9.02442E-15 2.86538E-01
 -1     16238-5.11845E-03-3.43669E-15-2.93236E-01
 -1     16240-5.11845E-03-3.30633E-15 2.93236E-01
 -1     16241-5.21045E-03 1.65198E-15-2.98506E-01
 -1     16243-5.21045E-03 1.75771E-15 2.98506E-01
 -1     16244-4.98435E-03 4.42356E-15-2.85553E-01
 -1     16246-4.98435E-03 1.96086E-15 2.85553E-01
 -1     16247-3.38775E-03-3.50981E-15-1.94084E-01
 -1     16249-3.38775E-03-3.42204E-15 1.94084E-01
 -1     16250-3.51185E-03-6.87036E-16-2.01194E-01
 -1     16252-3.51185E-03 2.63549E-15 2.01194E-01
 -1     16253-3.56056E-03-1.80556E-15-2.03984E-01
 -1     16255-3.56056E-03-2.46321E-15 2.03984E-01
 -1     16256-3.48403E-03-2.67394E-15-1.99600E-01
 -1     16258-3.48403E-03-1.97600E-15 1.99600E-01
 -1     16259-3.15337E-03 1.21403E-14-1.80657E-01
 -1     16261-3.15337E-03 1.14056E-14 1.80657E-01
 -1     16262-3.29679E-03-8.71328E-15-1.88873E-01
 -1     16264-3.29679E-03-6.57018E-15 1.88873E-01
 -1     16265-3.22057E-03 1.61153E-15-1.84506E-01
 -1     16267-3.22057E-03 3.73756E-15 1.84506E-01
 -1     16268-2.97372E-03 1.04219E-14-1.70364E-01
 -1     16270-2.97372E-03 9.23564E-15 1.70364E-01
 -1     16271-3.64594E-03-2.06854E-15-2.08876E-01
 -1     16273-3.64594E-03-8.69394E-16 2.08876E-01
 -1     16274-3.68573E-03 5.79189E-15-2.11155E-01
 -1     16276-3.68573E-03 5.29476E-15 2.11155E-01
 -1     16277-3.70938E-03-7.83874E-16-2.12511E-01
 -1     16279-3.70938E-03-7.81650E-16 2.12511E-01
 -1     16280-3.59133E-03-2.35909E-16-2.05747E-01
 -1     16282-3.59133E-03-1.12562E-15 2.05747E-01
 -1     16283-3.43688E-03 5.00566E-15-1.96898E-01
 -1     16285-3.43688E-03 4.60771E-15 1.96898E-01
 -1     16286-3.36722E-03-2.86578E-15-1.92908E-01
 -1     16288-3.36722E-03-2.46643E-15 1.92908E-01
 -1     16289-3.57857E-03-6.46203E-15-2.05016E-01
 -1     16291-3.57857E-03-8.05543E-15 2.05016E-01
 -1     16292-6.32808E-03 6.62918E-15-3.62535E-01
 -1     16294-6.32808E-03 4.15726E-15 3.62535E-01
 -1     16295-6.16567E-03 6.33133E-16-3.53231E-01
 -1     16297-6.16567E-03 1.19567E-15 3.53231E-01
 -1     16298-6.00155E-03 7.22295E-16-3.43828E-01
 -1     16300-6.00155E-03 9.90403E-16 3.43828E-01
 -1     16301-5.27124E-03-2.61173E-15-3.01989E-01
 -1     16303-5.27124E-03-2.20532E-15 3.01989E-01
 -1     16304-5.32636E-03-2.31988E-15-3.05147E-01
 -1     16306-5.32636E-03-1.44402E-15 3.05147E-01
 -1     16307-5.34476E-03-1.17231E-15-3.06201E-01
 -1     16309-5.34476E-03-2.16489E-15 3.06201E-01
 -1     16310-6.60968E-03 4.88154E-15-3.78668E-01
 -1     16312-6.60968E-03 5.95385E-15 3.78668E-01
 -1     16313-6.13663E-03 4.98773E-15-3.51567E-01
 -1     16315-6.13663E-03 3.42563E-15 3.51567E-01
 -1     16316-5.90895E-03-5.02914E-15-3.38523E-01
 -1     16318-5.90895E-03-4.11011E-15 3.38523E-01
 -1     16319-5.67223E-03 3.99745E-15-3.24962E-01
 -1     16321-5.67223E-03 2.68760E-15 3.24962E-01
 -1     16322-6.09625E-03 5.03618E-15-3.49254E-01
 -1     16324-6.09625E-03 4.97821E-15 3.49254E-01
 -1     16325-5.46985E-03-7.91934E-15-3.13367E-01
 -1     16327-5.46985E-03-8.30387E-15 3.13367E-01
 -1     16328-5.28236E-03 1.33263E-15-3.02626E-01
 -1     16330-5.28236E-03 1.71154E-15 3.02626E-01
 -1     16331-5.61020E-03-4.77800E-15-3.21408E-01
 -1     16333-5.61020E-03-3.24007E-15 3.21408E-01
 -1     16334-5.15043E-03 1.49118E-16-2.95068E-01
 -1     16336-5.15043E-03 4.30566E-16 2.95068E-01
 -1     16337-5.03220E-03 3.01485E-15-2.88294E-01
 -1     16339-5.03220E-03 4.57908E-15 2.88294E-01
 -1     16340-5.24913E-03 4.31198E-15-3.00723E-01
 -1     16342-5.24913E-03 4.96052E-15 3.00723E-01
 -1     16343-4.94457E-03-2.92169E-15-2.83274E-01
 -1     16345-4.94457E-03-1.39403E-15 2.83274E-01
 -1     16346-4.84165E-03-3.36086E-15-2.77378E-01
 -1     16348-4.84165E-03-1.80432E-15 2.77378E-01
 -1     16349-5.05865E-03 4.02487E-15-2.89810E-01
 -1     16351-5.05865E-03 2.67516E-15 2.89810E-01
 -1     16352-4.74258E-03-5.88521E-15-2.71702E-01
 -1     16354-4.74258E-03-3.63081E-15 2.71702E-01
 -1     16355-4.63556E-03 8.54102E-15-2.65571E-01
 -1     16357-4.63556E-03 7.76062E-15 2.65571E-01
 -1     16358-4.94775E-03 2.13134E-15-2.83456E-01
 -1     16360-4.94775E-03 1.79039E-15 2.83456E-01
 -1     16361-4.49541E-03 6.40166E-16-2.57542E-01
 -1     16363-4.49541E-03 1.69672E-15 2.57542E-01
 -1     16364-4.37673E-03 3.12009E-15-2.50743E-01
 -1     16366-4.37673E-03 1.25009E-15 2.50743E-01
 -1     16367-4.68630E-03-5.68715E-15-2.68478E-01
 -1     16369-4.68630E-03-4.82147E-15 2.68478E-01
 -1     16370-4.24600E-03-4.15041E-15-2.43253E-01
 -1     16372-4.24600E-03-2.82784E-15 2.43253E-01
 -1     16373-4.13179E-03 1.58446E-14-2.36710E-01
 -1     16375-4.13179E-03 1.62322E-14 2.36710E-01
 -1     16376-4.34499E-03-3.78447E-15-2.48924E-01
 -1     16378-4.34499E-03-4.56886E-15 2.48924E-01
 -1     16379-4.04629E-03-6.23161E-15-2.31812E-01
 -1     16381-4.04629E-03-5.44273E-15 2.31812E-01
 -1     16382-3.96668E-03-2.26248E-15-2.27251E-01
 -1     16384-3.96668E-03-4.73489E-15 2.27251E-01
 -1     16385-4.12497E-03 2.46877E-15-2.36320E-01
 -1     16387-4.12497E-03 2.77797E-15 2.36320E-01
 -1     16388-3.90565E-03-5.40415E-15-2.23755E-01
 -1     16390-3.90565E-03-5.65562E-15 2.23755E-01
 -1     16391-3.85205E-03 1.57475E-15-2.20684E-01
 -1     16393-3.85205E-03-4.50156E-16 2.20684E-01
 -1     16394-4.00372E-03 7.31757E-15-2.29373E-01
 -1     16396-4.00372E-03 7.36444E-15 2.29373E-01
 -1     16397-3.79138E-03 8.84013E-15-2.17208E-01
 -1     16399-3.79138E-03 1.02276E-14 2.17208E-01
 -1     16400-3.73789E-03 3.77726E-15-2.14143E-01
 -1     16402-3.73789E-03 3.31520E-15 2.14143E-01
 -1     16403-3.90800E-03-4.91829E-15-2.23889E-01
 -1     16405-3.90800E-03-5.25404E-15 2.23889E-01
 -1     16406-3.66661E-03 4.66986E-15-2.10060E-01
 -1     16408-3.66661E-03 6.70527E-15 2.10060E-01
 -1     16409-3.59351E-03 4.80858E-15-2.05872E-01
 -1     16411-3.59351E-03 2.98088E-15 2.05872E-01
 -1     16412-3.80175E-03-4.95854E-15-2.17802E-01
 -1     16414-3.80175E-03-3.56848E-15 2.17802E-01
 -1     16415-3.49963E-03 2.48107E-16-2.00494E-01
 -1     16417-3.49963E-03-2.16322E-15 2.00494E-01
 -1     16418-3.34986E-03-8.42970E-16-1.91913E-01
 -1     16420-3.34986E-03 8.68009E-16 1.91913E-01
 -1     16421-3.65030E-03 9.32518E-15-2.09125E-01
 -1     16423-3.65030E-03 8.02319E-15 2.09125E-01
 -1     16424-3.19223E-03 3.06967E-15-1.82883E-01
 -1     16426-3.19223E-03 3.88109E-15 1.82883E-01
 -1     16427-2.82481E-03-2.45416E-16-1.61833E-01
 -1     16429-2.82481E-03 1.51703E-15 1.61833E-01
 -1     16430-3.38278E-03-7.58652E-17-1.93800E-01
 -1     16432-3.38278E-03 3.49756E-16 1.93800E-01
 -1     16433-2.54843E-03-1.11277E-15-1.46000E-01
 -1     16435-2.54843E-03 4.12654E-16 1.46000E-01
 -1     16436-2.55990E-03-4.36732E-15-1.46657E-01
 -1     16438-2.55990E-03-2.80382E-15 1.46657E-01
 -1     16439-2.63117E-03 2.00585E-15-1.50740E-01
 -1     16441-2.63117E-03 1.76941E-15 1.50740E-01
 -1     16442-7.36030E-03 5.78267E-15-4.21671E-01
 -1     16444-7.36030E-03 4.90100E-15 4.21671E-01
 -1     16445-7.39715E-03 6.69279E-15-4.23783E-01
 -1     16447-7.39715E-03 6.45328E-15 4.23783E-01
 -1     16448-8.42430E-03 7.89183E-15-4.82628E-01
 -1     16450-8.42430E-03 7.88978E-15 4.82628E-01
 -1     16451-8.79398E-03-5.83913E-15-5.03807E-01
 -1     16453-8.79398E-03-5.23195E-15 5.03807E-01
 -1     16454-7.57510E-03-3.15597E-15-4.33977E-01
 -1     16456-7.57510E-03-3.74279E-15 4.33977E-01
 -1     16457-7.93302E-03-2.91099E-15-4.54483E-01
 -1     16459-7.93302E-03-3.26564E-15 4.54483E-01
 -1     16460-7.74030E-03 3.72540E-15-4.43442E-01
 -1     16462-7.74030E-03 3.71011E-15 4.43442E-01
 -1     16463-7.18616E-03-1.56680E-17-4.11695E-01
 -1     16465-7.18616E-03-4.28137E-16 4.11695E-01
 -1     16466-8.96857E-03-2.98673E-16-5.13809E-01
 -1     16468-8.96857E-03 5.65492E-16 5.13809E-01
 -1     16469-8.88415E-03 1.48336E-15-5.08972E-01
 -1     16471-8.88415E-03 2.70377E-15 5.08972E-01
 -1     16472-8.71127E-03 6.06731E-15-4.99068E-01
 -1     16474-8.71127E-03 3.92139E-15 4.99068E-01
 -1     16475-3.03421E-03-5.47012E-15-1.73830E-01
 -1     16477-3.03421E-03-4.27144E-15 1.73830E-01
 -1     16478-2.99552E-03 4.90959E-16-1.71613E-01
 -1     16480-2.99552E-03 9.45859E-16 1.71613E-01
 -1     16481-4.24020E-03 4.35667E-15-2.42921E-01
 -1     16483-4.24020E-03 3.94685E-15 2.42921E-01
 -1     16484-4.38054E-03 1.54959E-16-2.50961E-01
 -1     16486-4.38054E-03 7.86113E-17 2.50961E-01
 -1     16487-6.55826E-03 4.78043E-15-3.75723E-01
 -1     16489-6.55826E-03 4.40483E-15 3.75723E-01
 -1     16490-6.85267E-03-2.96579E-15-3.92589E-01
 -1     16492-6.85267E-03-4.26989E-15 3.92589E-01
 -1     16493-6.98521E-03-7.58712E-16-4.00183E-01
 -1     16495-6.98521E-03 1.37690E-15 4.00183E-01
 -1     16496-6.37631E-03 2.38959E-15-3.65299E-01
 -1     16498-6.37631E-03 3.61153E-15 3.65299E-01
 -1     16499-5.89795E-03-7.02136E-15-3.37893E-01
 -1     16501-5.89795E-03-9.04416E-15 3.37893E-01
 -1     16502-6.03905E-03-7.29703E-15-3.45977E-01
 -1     16504-6.03905E-03-6.86277E-15 3.45977E-01
 -1     16505-5.88178E-03-5.87990E-15-3.36967E-01
 -1     16507-5.88178E-03-5.77984E-15 3.36967E-01
 -1     16508-3.03644E-03-6.68319E-15-1.73958E-01
 -1     16510-3.03644E-03-4.84612E-15 1.73958E-01
 -1     16511-3.39325E-03-1.76811E-15-1.94399E-01
 -1     16513-3.39325E-03-1.88597E-15 1.94399E-01
 -1     16514-3.61348E-03-1.00822E-15-2.07016E-01
 -1     16516-3.61348E-03 2.09039E-15 2.07016E-01
 -1     16517-3.83381E-03 5.65820E-15-2.19639E-01
 -1     16519-3.83381E-03 5.49250E-15 2.19639E-01
 -1     16520-3.56123E-03-7.61660E-16-2.04023E-01
 -1     16522-3.56123E-03-7.56071E-16 2.04023E-01
 -1     16523-9.65601E-03 4.15762E-16-5.53193E-01
 -1     16525-9.65601E-03 7.82997E-16 5.53193E-01
 -1     16526-9.71384E-03-3.83269E-16-5.56506E-01
 -1     16528-9.71384E-03-1.78891E-15 5.56506E-01
 -1     16529-3.10749E-03-1.43713E-15-1.78028E-01
 -1     16531-3.10749E-03-2.98703E-15 1.78028E-01
 -1     16532-4.52284E-03-5.80622E-15-2.59113E-01
 -1     16534-4.52284E-03-5.50776E-15 2.59113E-01
 -1     16535-3.68691E-03 1.01216E-14-2.11223E-01
 -1     16537-3.68691E-03 1.20014E-14 2.11223E-01
 -1     16538-3.56310E-03 1.02667E-15-2.04130E-01
 -1     16540-3.56310E-03-9.55939E-16 2.04130E-01
 -1     16541-4.96129E-03 2.98721E-15-2.84232E-01
 -1     16543-4.96129E-03 3.63199E-15 2.84232E-01
 -1     16544-5.09163E-03-3.89520E-15-2.91699E-01
 -1     16546-5.09163E-03-2.10346E-15 2.91699E-01
 -1     16547-3.24238E-03-1.12095E-15-1.85756E-01
 -1     16549-3.24238E-03-1.99769E-15 1.85756E-01
 -1     16550-3.32111E-03-7.75268E-15-1.90266E-01
 -1     16552-3.32111E-03-9.11041E-15 1.90266E-01
 -1     16553-2.94664E-03 1.57035E-15-1.68813E-01
 -1     16555-2.94664E-03 3.52481E-15 1.68813E-01
 -1     16556-5.73352E-03-4.75875E-15-3.28473E-01
 -1     16558-5.73352E-03-5.39400E-15 3.28473E-01
 -1     16559-5.80566E-03 8.77347E-15-3.32606E-01
 -1     16561-5.80566E-03 9.43016E-15 3.32606E-01
 -1     16562-3.87095E-03 2.02558E-15-2.21766E-01
 -1     16564-3.87095E-03 6.21212E-15 2.21766E-01
 -1     16565-3.88662E-03 3.71987E-15-2.22664E-01
 -1     16567-3.88662E-03 1.09657E-15 2.22664E-01
 -1     16568-3.78743E-03 1.56044E-15-2.16982E-01
 -1     16570-3.78743E-03 1.62464E-15 2.16982E-01
 -1     16571-2.77233E-03 3.32782E-15-1.58827E-01
 -1     16573-2.77233E-03 3.46014E-15 1.58827E-01
 -1     16574-8.23101E-03-5.19295E-15-4.71554E-01
 -1     16576-8.23101E-03-4.43700E-15 4.71554E-01
 -1     16577-9.00557E-03-3.79869E-15-5.15929E-01
 -1     16579-9.00557E-03-3.94567E-15 5.15929E-01
 -1     16580-4.84891E-03 3.64185E-15-2.77794E-01
 -1     16582-4.84891E-03 2.80303E-15 2.77794E-01
 -1     16583-4.96530E-03-6.06025E-15-2.84462E-01
 -1     16585-4.96530E-03-5.68613E-15 2.84462E-01
 -1     16586-4.72820E-03-6.95948E-15-2.70878E-01
 -1     16588-4.72820E-03-5.39278E-15 2.70878E-01
 -1     16589-5.58909E-03-1.01175E-15-3.20199E-01
 -1     16591-5.58909E-03-1.75614E-16 3.20199E-01
 -1     16592-5.74937E-03-3.67582E-15-3.29381E-01
 -1     16594-5.74937E-03-4.70164E-15 3.29381E-01
 -1     16595-5.45899E-03-1.46605E-15-3.12745E-01
 -1     16597-5.45899E-03-3.48198E-15 3.12745E-01
 -1     16598-3.14981E-03 7.68729E-16-1.80452E-01
 -1     16600-3.14981E-03 1.07449E-15 1.80452E-01
 -1     16601-3.75104E-03-2.82687E-15-2.14897E-01
 -1     16603-3.75104E-03-2.86079E-15 2.14897E-01
 -1     16604-2.66685E-03 3.09633E-15-1.52784E-01
 -1     16606-2.66685E-03 4.00225E-16 1.52784E-01
 -1     16607-8.84433E-03 1.73943E-15-5.06691E-01
 -1     16609-8.84433E-03 1.03615E-16 5.06691E-01
 -1     16610-8.13459E-03 2.44007E-15-4.66030E-01
 -1     16612-8.13459E-03 2.03582E-15 4.66030E-01
 -1     16613-9.02395E-03 1.03222E-15-5.16982E-01
 -1     16615-9.02395E-03-1.09497E-15 5.16982E-01
 -1     16616-8.50534E-03 2.01796E-15-4.87271E-01
 -1     16618-8.50534E-03 1.08979E-15 4.87271E-01
 -1     16619-9.12434E-03-1.26048E-15-5.22733E-01
 -1     16621-9.12434E-03-4.52371E-15 5.22733E-01
 -1     16622-8.90144E-03-1.48812E-16-5.09963E-01
 -1     16624-8.90144E-03 9.67455E-17 5.09963E-01
 -1     16625-9.14359E-03 5.60891E-15-5.23836E-01
 -1     16627-9.14359E-03 4.10206E-15 5.23836E-01
 -1     16628-6.29359E-03 6.05086E-15-3.60559E-01
 -1     16630-6.29359E-03 7.09566E-15 3.60559E-01
 -1     16631-6.95816E-03 3.05556E-15-3.98633E-01
 -1     16633-6.95816E-03 3.43920E-15 3.98633E-01
 -1     16634-7.72461E-03 1.17258E-15-4.42543E-01
 -1     16636-7.72461E-03 1.64872E-15 4.42543E-01
 -1     16637-8.07427E-03-2.46038E-16-4.62575E-01
 -1     16639-8.07427E-03 7.95916E-16 4.62575E-01
 -1     16640-8.01294E-03 2.19183E-15-4.59061E-01
 -1     16642-8.01294E-03 1.80192E-15 4.59061E-01
 -1     16643-4.11092E-03 6.81836E-15-2.35514E-01
 -1     16645-4.11092E-03 7.26984E-15 2.35514E-01
 -1     16646-4.19253E-03-1.03063E-15-2.40190E-01
 -1     16648-4.19253E-03 1.36057E-15 2.40190E-01
 -1     16649-4.00844E-03 6.95280E-16-2.29643E-01
 -1     16651-4.00844E-03 1.82607E-15 2.29643E-01
 -1     16652-3.69288E-03 7.52996E-15-2.11565E-01
 -1     16654-3.69288E-03 9.48901E-15 2.11565E-01
 -1     16655-3.97699E-03-5.11494E-15-2.27842E-01
 -1     16657-3.97699E-03-6.05181E-15 2.27842E-01
 -1     16658-7.18228E-03 6.15695E-16-4.11473E-01
 -1     16660-7.18228E-03 6.23564E-16 4.11473E-01
 -1     16661-2.93359E-03 3.59914E-16-1.68065E-01
 -1     16663-2.93359E-03 1.28096E-15 1.68065E-01
 -1     16664-2.74609E-03 7.23398E-16-1.57324E-01
 -1     16666-2.74609E-03 2.42365E-15 1.57324E-01
 -1     16667-2.68903E-03 1.15319E-15-1.54054E-01
 -1     16669-2.68903E-03 3.09619E-15 1.54054E-01
 -1     16670-6.86904E-03 2.45080E-15-3.93527E-01
 -1     16672-6.86904E-03 1.94846E-15 3.93527E-01
 -1     16673-4.57594E-03 3.30520E-15-2.62156E-01
 -1     16675-4.57594E-03 3.45912E-15 2.62156E-01
 -1     16676-4.10055E-03-5.86172E-16-2.34921E-01
 -1     16678-4.10055E-03-5.48210E-16 2.34921E-01
 -1     16679-3.80151E-03 9.70649E-15-2.17788E-01
 -1     16681-3.80151E-03 9.06680E-15 2.17788E-01
 -1     16682-7.07321E-03 2.48299E-15-4.05224E-01
 -1     16684-7.07321E-03 3.04669E-15 4.05224E-01
 -1     16685-5.46426E-03-3.74656E-15-3.13047E-01
 -1     16687-5.46426E-03-4.32301E-15 3.13047E-01
 -1     16688-3.26204E-03 4.16356E-15-1.86882E-01
 -1     16690-3.26204E-03 4.31911E-15 1.86882E-01
 -1     16691-2.90038E-03 2.29660E-15-1.66163E-01
 -1     16693-2.90038E-03 4.34969E-15 1.66163E-01
 -1     16694-3.67989E-03 1.00881E-14-2.10821E-01
 -1     16696-3.67989E-03 8.81255E-15 2.10821E-01
 -1     16697-3.73292E-03-1.05015E-15-2.13859E-01
 -1     16699-3.73292E-03-2.98854E-15 2.13859E-01
 -1     16700-3.56709E-03 8.02450E-17-2.04358E-01
 -1     16702-3.56709E-03 3.24312E-15 2.04358E-01
 -1     16703-3.64087E-03-1.30433E-14-2.08585E-01
 -1     16705-3.64087E-03-1.10382E-14 2.08585E-01
 -1     16706-3.72407E-03-1.87250E-16-2.13352E-01
 -1     16708-3.72407E-03-2.08667E-15 2.13352E-01
 -1     16709-3.75579E-03-6.71480E-16-2.15169E-01
 -1     16711-3.75579E-03-1.29304E-15 2.15169E-01
 -1     16712-3.60632E-03 7.97078E-15-2.06606E-01
 -1     16714-3.60632E-03 5.36650E-15 2.06606E-01
 -1     16715-3.70177E-03 5.03796E-15-2.12074E-01
 -1     16717-3.70177E-03 4.56930E-15 2.12074E-01
 -1     16718-3.69071E-03 7.47657E-15-2.11440E-01
 -1     16720-3.69071E-03 1.07770E-14 2.11440E-01
 -1     16721-4.12629E-03-5.83144E-15-2.36395E-01
 -1     16723-4.12629E-03-6.88767E-15 2.36395E-01
 -1     16724-8.50519E-03-2.14340E-16-4.87262E-01
 -1     16726-8.50519E-03 1.16781E-15 4.87262E-01
 -1     16727-8.45091E-03 2.54513E-15-4.84152E-01
 -1     16729-8.45091E-03 2.22629E-15 4.84152E-01
 -1     16730-2.74593E-03-2.19379E-15-1.57314E-01
 -1     16732-2.74593E-03-1.73408E-16 1.57314E-01
 -1     16733-3.14866E-03-4.87046E-17-1.80386E-01
 -1     16735-3.14866E-03-2.34030E-15 1.80386E-01
 -1     16736-3.86466E-03 5.89478E-16-2.21406E-01
 -1     16738-3.86466E-03 2.59899E-15 2.21406E-01
 -1     16739-3.10047E-03-4.33208E-15-1.77626E-01
 -1     16741-3.10047E-03-6.24126E-15 1.77626E-01
 -1     16742-5.20110E-03 4.06591E-16-2.97971E-01
 -1     16744-5.20110E-03 1.64764E-15 2.97971E-01
 -1     16745-5.32475E-03 2.88433E-15-3.05054E-01
 -1     16747-5.32475E-03 1.40007E-15 3.05054E-01
 -1     16748-5.43011E-03-6.92236E-15-3.11091E-01
 -1     16750-5.43011E-03-6.12098E-15 3.11091E-01
 -1     16751-5.17928E-03-3.68917E-15-2.96721E-01
 -1     16753-5.17928E-03-5.15850E-15 2.96721E-01
 -1     16754-3.57421E-03 9.97284E-15-2.04766E-01
 -1     16756-3.57421E-03 8.72607E-15 2.04766E-01
 -1     16757-3.40215E-03-1.10163E-14-1.94909E-01
 -1     16759-3.40215E-03-7.64263E-15 1.94909E-01
 -1     16760-3.39592E-03 7.57421E-16-1.94552E-01
 -1     16762-3.39592E-03-6.25930E-16 1.94552E-01
 -1     16763-3.71508E-03-2.66590E-15-2.12837E-01
 -1     16765-3.71508E-03-3.35099E-15 2.12837E-01
 -1     16766-6.39462E-03 9.47174E-16-3.66347E-01
 -1     16768-6.39462E-03 1.68423E-15 3.66347E-01
 -1     16769-5.95149E-03-3.19182E-15-3.40960E-01
 -1     16771-5.95149E-03-3.27933E-15 3.40960E-01
 -1     16772-2.60119E-03 1.13181E-15-1.49022E-01
 -1     16774-2.60119E-03-1.61968E-15 1.49022E-01
 -1     16775-2.51933E-03-5.81276E-15-1.44332E-01
 -1     16777-2.51933E-03-6.22688E-15 1.44332E-01
 -1     16778-2.70483E-03-9.67233E-16-1.54959E-01
 -1     16780-2.70483E-03 8.03577E-16 1.54959E-01
 -1     16781-2.84993E-03 1.95847E-15-1.63272E-01
 -1     16783-2.84993E-03 3.07844E-15 1.63272E-01
 -1     16784-5.83993E-03 2.79941E-15-3.34569E-01
 -1     16786-5.83993E-03 1.31977E-15 3.34569E-01
 -1     16787-5.18370E-03 1.37813E-15-2.96974E-01
 -1     16789-5.18370E-03 3.49042E-15 2.96974E-01
 -1     16790-4.39707E-03-1.49331E-15-2.51908E-01
 -1     16792-4.39707E-03-1.57185E-15 2.51908E-01
 -1     16793-4.26830E-03 8.44324E-17-2.44531E-01
 -1     16795-4.26830E-03 1.11516E-15 2.44531E-01
 -1     16796-4.85219E-03 1.87773E-15-2.77981E-01
 -1     16798-4.85219E-03 1.58787E-15 2.77981E-01
 -1     16799-6.19250E-03 3.01100E-15-3.54768E-01
 -1     16801-6.19250E-03 2.95275E-15 3.54768E-01
 -1     16802-5.70480E-03-6.16695E-16-3.26828E-01
 -1     16804-5.70480E-03-9.18879E-16 3.26828E-01
 -1     16805-5.49807E-03-1.07254E-15-3.14984E-01
 -1     16807-5.49807E-03-2.24943E-15 3.14984E-01
 -1     16808-5.84976E-03-9.47936E-16-3.35132E-01
 -1     16810-5.84976E-03 6.15146E-16 3.35132E-01
 -1     16811-5.32642E-03-4.16075E-15-3.05150E-01
 -1     16813-5.32642E-03-2.72909E-15 3.05150E-01
 -1     16814-5.22879E-03-1.09705E-15-2.99557E-01
 -1     16816-5.22879E-03-4.62004E-16 2.99557E-01
 -1     16817-5.41699E-03-3.41953E-15-3.10339E-01
 -1     16819-5.41699E-03-2.85157E-15 3.10339E-01
 -1     16820-5.15705E-03-1.21435E-15-2.95447E-01
 -1     16822-5.15705E-03-2.05643E-15 2.95447E-01
 -1     16823-5.12821E-03-3.29138E-15-2.93795E-01
 -1     16825-5.12821E-03-3.62081E-15 2.93795E-01
 -1     16826-5.21919E-03 2.79714E-15-2.99007E-01
 -1     16828-5.21919E-03 2.92998E-15 2.99007E-01
 -1     16829-5.11974E-03 2.17135E-15-2.93310E-01
 -1     16831-5.11974E-03 2.35598E-15 2.93310E-01
 -1     16832-5.03789E-03 2.07958E-15-2.88621E-01
 -1     16834-5.03789E-03 3.70798E-15 2.88621E-01
 -1     16835-5.28241E-03-4.20699E-15-3.02629E-01
 -1     16837-5.28241E-03-4.53865E-15 3.02629E-01
 -1     16838-4.88306E-03-2.17326E-15-2.79751E-01
 -1     16840-4.88306E-03-3.76519E-15 2.79751E-01
 -1     16841-4.72771E-03 7.64077E-18-2.70851E-01
 -1     16843-4.72771E-03-2.33685E-15 2.70851E-01
 -1     16844-5.41236E-03 2.83438E-15-3.10074E-01
 -1     16846-5.41236E-03 4.37701E-15 3.10074E-01
 -1     16847-4.50470E-03-2.62596E-15-2.58074E-01
 -1     16849-4.50470E-03-2.13054E-15 2.58074E-01
 -1     16850-4.32196E-03-1.05333E-14-2.47605E-01
 -1     16852-4.32196E-03-8.57239E-15 2.47605E-01
 -1     16853-4.65024E-03-1.04921E-14-2.66412E-01
 -1     16855-4.65024E-03-9.66590E-15 2.66412E-01
 -1     16856-4.21633E-03-5.41370E-16-2.41553E-01
 -1     16858-4.21633E-03-1.78838E-15 2.41553E-01
 -1     16859-4.12055E-03 4.96132E-15-2.36066E-01
 -1     16861-4.12055E-03 1.97519E-15 2.36066E-01
 -1     16862-4.26523E-03-5.13935E-15-2.44355E-01
 -1     16864-4.26523E-03-5.30554E-15 2.44355E-01
 -1     16865-4.07927E-03 1.47168E-15-2.33701E-01
 -1     16867-4.07927E-03 1.75249E-15 2.33701E-01
 -1     16868-4.05349E-03 9.02105E-15-2.32224E-01
 -1     16870-4.05349E-03 1.14332E-14 2.32224E-01
 -1     16871-4.19040E-03 6.29495E-15-2.40068E-01
 -1     16873-4.19040E-03 8.28579E-15 2.40068E-01
 -1     16874-4.01132E-03 4.71121E-15-2.29809E-01
 -1     16876-4.01132E-03 9.66804E-16 2.29809E-01
 -1     16877-3.98663E-03-3.83629E-16-2.28394E-01
 -1     16879-3.98663E-03-7.22849E-16 2.28394E-01
 -1     16880-4.15170E-03-3.09649E-15-2.37851E-01
 -1     16882-4.15170E-03-3.93696E-15 2.37851E-01
 -1     16883-3.93353E-03-1.80937E-15-2.25352E-01
 -1     16885-3.93353E-03-6.69435E-16 2.25352E-01
 -1     16886-3.90200E-03-4.11701E-15-2.23545E-01
 -1     16888-3.90200E-03-4.29466E-15 2.23545E-01
 -1     16889-4.11152E-03 3.95851E-15-2.35549E-01
 -1     16891-4.11152E-03 5.12223E-15 2.35549E-01
 -1     16892-3.82283E-03 4.11803E-15-2.19010E-01
 -1     16894-3.82283E-03 3.20212E-15 2.19010E-01
 -1     16895-3.79649E-03 4.44688E-15-2.17501E-01
 -1     16897-3.79649E-03 6.66122E-15 2.17501E-01
 -1     16898-4.04537E-03 2.84217E-15-2.31759E-01
 -1     16900-4.04537E-03 2.70125E-15 2.31759E-01
 -1     16901-3.67629E-03-3.29331E-15-2.10614E-01
 -1     16903-3.67629E-03-5.35391E-15 2.10614E-01
 -1     16904-3.48871E-03 2.18599E-15-1.99868E-01
 -1     16906-3.48871E-03 3.40565E-15 1.99868E-01
 -1     16907-3.96551E-03 5.91993E-15-2.27184E-01
 -1     16909-3.96551E-03 6.78635E-15 2.27184E-01
 -1     16910-8.96043E-03-2.86625E-15-5.13343E-01
 -1     16912-8.96043E-03-2.62827E-15 5.13343E-01
 -1     16913-7.85300E-03-1.73880E-15-4.49898E-01
 -1     16915-7.85300E-03-2.92366E-15 4.49898E-01
 -1     16916-8.22079E-03-4.42232E-16-4.70969E-01
 -1     16918-8.22079E-03-8.81300E-16 4.70969E-01
 -1     16919-8.73686E-03 2.56721E-15-5.00534E-01
 -1     16921-8.73686E-03 1.49045E-15 5.00534E-01
 -1     16922-8.79721E-03-8.15091E-15-5.03992E-01
 -1     16924-8.79721E-03-8.40951E-15 5.03992E-01
 -1     16925-3.42452E-03 2.32453E-15-1.96191E-01
 -1     16927-3.42452E-03 1.75167E-15 1.96191E-01
 -1     16928-4.49497E-03 5.28933E-16-2.57517E-01
 -1     16930-4.49497E-03-7.93889E-16 2.57517E-01
 -1     16931-4.61201E-03-8.60695E-16-2.64222E-01
 -1     16933-4.61201E-03-3.67076E-15 2.64222E-01
 -1     16934-4.72772E-03-7.89687E-15-2.70851E-01
 -1     16936-4.72772E-03-7.74835E-15 2.70851E-01
 -1     16937-4.47684E-03 1.16185E-15-2.56478E-01
 -1     16939-4.47684E-03 9.35987E-16 2.56478E-01
 -1     16940-8.33075E-03 5.69160E-15-4.77268E-01
 -1     16942-8.33075E-03 3.53824E-15 4.77268E-01
 -1     16943-8.19596E-03-7.77505E-15-4.69546E-01
 -1     16945-8.19596E-03-8.16344E-15 4.69546E-01
 -1     16946-4.09369E-03 5.62174E-15-2.34527E-01
 -1     16948-4.09369E-03 6.02418E-15 2.34527E-01
 -1     16949-4.29682E-03 2.96258E-15-2.46165E-01
 -1     16951-4.29682E-03 1.32198E-15 2.46165E-01
 -1     16952-4.97133E-03 2.91335E-15-2.84807E-01
 -1     16954-4.97133E-03 1.69803E-15 2.84807E-01
 -1     16955-5.08471E-03 2.88816E-15-2.91303E-01
 -1     16957-5.08471E-03 2.20184E-16 2.91303E-01
 -1     16958-7.00021E-03-6.39077E-15-4.01042E-01
 -1     16960-7.00021E-03-6.83223E-15 4.01042E-01
 -1     16961-6.65721E-03-4.52588E-15-3.81391E-01
 -1     16963-6.65721E-03-4.80496E-15 3.81391E-01
 -1     16964-8.30361E-03-1.31295E-15-4.75713E-01
 -1     16966-8.30361E-03-1.98465E-15 4.75713E-01
 -1     16967-5.97821E-03-2.35495E-15-3.42492E-01
 -1     16969-5.97821E-03-3.51426E-15 3.42492E-01
 -1     16970-5.88774E-03 8.25625E-17-3.37309E-01
 -1     16972-5.88774E-03 4.80113E-16 3.37309E-01
 -1     16973-3.92488E-03-4.41749E-15-2.24856E-01
 -1     16975-3.92488E-03-6.93721E-15 2.24856E-01
 -1     16976-8.05495E-03-4.60378E-15-4.61468E-01
 -1     16978-8.05495E-03-1.75581E-15 4.61468E-01
 -1     16979-2.63181E-03 8.62701E-15-1.50776E-01
 -1     16981-2.63181E-03 5.36518E-15 1.50776E-01
 -1     16982-2.79075E-03 1.60555E-15-1.59882E-01
 -1     16984-2.79075E-03 3.34331E-15 1.59882E-01
 -1     16985-2.77143E-03-2.22069E-15-1.58775E-01
 -1     16987-2.77143E-03-2.26893E-15 1.58775E-01
 -1     16988-3.48774E-03 3.74143E-15-1.99813E-01
 -1     16990-3.48774E-03 4.92360E-15 1.99813E-01
 -1     16991-3.64223E-03 2.44062E-15-2.08663E-01
 -1     16993-3.64223E-03 4.28087E-15 2.08663E-01
 -1     16994-3.44388E-03 3.99911E-15-1.97300E-01
 -1     16996-3.44388E-03 3.61089E-15 1.97300E-01
 -1     16997-3.84535E-03-7.11009E-15-2.20300E-01
 -1     16999-3.84535E-03-6.34059E-15 2.20300E-01
 -1     17000-8.62281E-03-1.20713E-15-4.94001E-01
 -1     17002-8.62281E-03-1.97323E-15 4.94001E-01
 -1     17003-8.53556E-03-5.84920E-15-4.89002E-01
 -1     17005-8.53556E-03-5.40475E-15 4.89002E-01
 -1     17006-8.69790E-03 8.19908E-16-4.98303E-01
 -1     17008-8.69790E-03 1.83143E-15 4.98303E-01
 -1     17009-7.92195E-03-6.95033E-15-4.53848E-01
 -1     17011-7.92195E-03-7.73023E-15 4.53848E-01
 -1     17012-7.96244E-03 4.46080E-15-4.56168E-01
 -1     17014-7.96244E-03 6.21897E-15 4.56168E-01
 -1     17015-7.82530E-03-6.91059E-15-4.48311E-01
 -1     17017-7.82530E-03-5.36779E-15 4.48311E-01
 -1     17018-5.16857E-03 1.48484E-15-2.96107E-01
 -1     17020-5.16857E-03 1.26032E-15 2.96107E-01
 -1     17021-5.29812E-03-6.38356E-15-3.03529E-01
 -1     17023-5.29812E-03-6.38506E-15 3.03529E-01
 -1     17024-5.20450E-03-5.89785E-15-2.98166E-01
 -1     17026-5.20450E-03-7.74069E-15 2.98166E-01
 -1     17027-8.47951E-03-1.10936E-14-4.85791E-01
 -1     17029-8.47951E-03-8.32801E-15 4.85791E-01
 -1     17030-7.61696E-03 3.68069E-15-4.36375E-01
 -1     17032-7.61696E-03 2.44666E-15 4.36375E-01
 -1     17033-3.91581E-03 1.51429E-16-2.24337E-01
 -1     17035-3.91581E-03-1.40020E-15 2.24337E-01
 -1     17036-3.90988E-03-2.76997E-15-2.23997E-01
 -1     17038-3.90988E-03-1.32352E-15 2.23997E-01
 -1     17039-3.83873E-03 1.23820E-16-2.19921E-01
 -1     17041-3.83873E-03 1.02732E-15 2.19921E-01
 -1     17042-5.79385E-03-1.48736E-15-3.31929E-01
 -1     17044-5.79385E-03 2.21664E-16 3.31929E-01
 -1     17045-5.97239E-03 5.35402E-15-3.42158E-01
 -1     17047-5.97239E-03 6.65452E-15 3.42158E-01
 -1     17048-7.18421E-03-5.43871E-15-4.11583E-01
 -1     17050-7.18421E-03-4.35451E-15 4.11583E-01
 -1     17051-7.37377E-03 3.72427E-15-4.22443E-01
 -1     17053-7.37377E-03 3.23565E-15 4.22443E-01
 -1     17054-6.90043E-03-5.85156E-15-3.95325E-01
 -1     17056-6.90043E-03-3.76480E-15 3.95325E-01
 -1     17057-6.75128E-03 5.83325E-15-3.86781E-01
 -1     17059-6.75128E-03 3.74976E-15 3.86781E-01
 -1     17060-8.22596E-03-5.80721E-15-4.71265E-01
 -1     17062-8.22596E-03-5.95716E-15 4.71265E-01
 -1     17063-8.59748E-03 3.16163E-15-4.92549E-01
 -1     17065-8.59748E-03 3.69632E-15 4.92549E-01
 -1     17066-5.84306E-03-2.72644E-15-3.34749E-01
 -1     17068-5.84306E-03-2.89415E-15 3.34749E-01
 -1     17069-6.19863E-03-9.20738E-16-3.55119E-01
 -1     17071-6.19863E-03-1.89271E-15 3.55119E-01
 -1     17072-6.43876E-03-3.29612E-15-3.68876E-01
 -1     17074-6.43876E-03-5.97466E-15 3.68876E-01
 -1     17075-6.44477E-03 3.81227E-15-3.69220E-01
 -1     17077-6.44477E-03 4.39310E-15 3.69220E-01
 -1     17078-5.99186E-03-5.22631E-15-3.43274E-01
 -1     17080-5.99186E-03-5.15606E-15 3.43274E-01
 -1     17081-4.44094E-03 4.58973E-15-2.54421E-01
 -1     17083-4.44094E-03 4.20076E-15 2.54421E-01
 -1     17084-4.59498E-03-2.28440E-15-2.63246E-01
 -1     17086-4.59498E-03-2.28841E-15 2.63246E-01
 -1     17087-4.42379E-03 2.67893E-15-2.53439E-01
 -1     17089-4.42379E-03 3.46642E-15 2.53439E-01
 -1     17090-6.13192E-03-4.21897E-17-3.51297E-01
 -1     17092-6.13192E-03 2.89914E-16 3.51297E-01
 -1     17093-6.15506E-03-4.73514E-15-3.52623E-01
 -1     17095-6.15506E-03-5.58148E-15 3.52623E-01
 -1     17096-6.28186E-03-2.77409E-15-3.59887E-01
 -1     17098-6.28186E-03-3.19743E-15 3.59887E-01
 -1     17099-7.92432E-03 3.87813E-16-4.53984E-01
 -1     17101-7.92432E-03 8.35432E-16 4.53984E-01
 -1     17102-7.21805E-03 6.04709E-15-4.13522E-01
 -1     17104-7.21805E-03 4.12924E-15 4.13522E-01
 -1     17105-6.88309E-03-2.93005E-15-3.94332E-01
 -1     17107-6.88309E-03-3.06913E-15 3.94332E-01
 -1     17108-6.60976E-03-1.29954E-15-3.78673E-01
 -1     17110-6.60976E-03-3.01191E-15 3.78673E-01
 -1     17111-6.60301E-03-9.32489E-17-3.78286E-01
 -1     17113-6.60301E-03-7.49699E-16 3.78286E-01
 -1     17114-6.29337E-03 4.48966E-16-3.60547E-01
 -1     17116-6.29337E-03-2.15651E-16 3.60547E-01
 -1     17117-6.71451E-03-1.08372E-15-3.84674E-01
 -1     17119-6.71451E-03 8.74530E-16 3.84674E-01
 -1     17120-4.37840E-03-1.03105E-14-2.50838E-01
 -1     17122-4.37840E-03-1.04096E-14 2.50838E-01
 -1     17123-4.53715E-03 5.28517E-15-2.59933E-01
 -1     17125-4.53715E-03 4.56594E-15 2.59933E-01
 -1     17126-4.20745E-03-6.10473E-15-2.41045E-01
 -1     17128-4.20745E-03-7.08475E-15 2.41045E-01
 -1     17129-7.86721E-03 3.95724E-15-4.50712E-01
 -1     17131-7.86721E-03 1.87742E-15 4.50712E-01
 -1     17132-7.76757E-03-5.25689E-15-4.45004E-01
 -1     17134-7.76757E-03-5.41692E-15 4.45004E-01
 -1     17135-4.48245E-03 2.82449E-15-2.56799E-01
 -1     17137-4.48245E-03 2.80909E-15 2.56799E-01
 -1     17138-7.67159E-03-3.42924E-15-4.39505E-01
 -1     17140-7.67159E-03-4.01789E-15 4.39505E-01
 -1     17141-7.97011E-03 2.18835E-16-4.56607E-01
 -1     17143-7.97011E-03 4.20458E-16 4.56607E-01
 -1     17144-8.14043E-03-5.95835E-15-4.66365E-01
 -1     17146-8.14043E-03-6.48776E-15 4.66365E-01
 -1     17147-6.98154E-03 9.64591E-15-3.99972E-01
 -1     17149-6.98154E-03 1.00643E-14 3.99972E-01
 -1     17150-4.85429E-03-1.54425E-15-2.78102E-01
 -1     17152-4.85429E-03-1.44557E-15 2.78102E-01
 -1     17153-5.03307E-03-3.69906E-15-2.88344E-01
 -1     17155-5.03307E-03-1.03184E-15 2.88344E-01
 -1     17156-4.72902E-03-5.05036E-15-2.70925E-01
 -1     17158-4.72902E-03-5.17400E-15 2.70925E-01
 -1     17159-5.93563E-03-9.77949E-15-3.40052E-01
 -1     17161-5.93563E-03-1.10655E-14 3.40052E-01
 -1     17162-5.65359E-03 9.83203E-16-3.23894E-01
 -1     17164-5.65359E-03-5.38037E-16 3.23894E-01
 -1     17165-5.77283E-03-3.70887E-15-3.30725E-01
 -1     17167-5.77283E-03-6.02326E-16 3.30725E-01
 -1     17168-5.43092E-03-3.95769E-16-3.11137E-01
 -1     17170-5.43092E-03-3.30032E-15 3.11137E-01
 -1     17171-5.37317E-03 7.69774E-17-3.07829E-01
 -1     17173-5.37317E-03 2.07987E-16 3.07829E-01
 -1     17174-5.77608E-03 1.32599E-15-3.30911E-01
 -1     17176-5.77608E-03 1.94972E-15 3.30911E-01
 -1     17177-5.27389E-03 1.32604E-15-3.02141E-01
 -1     17179-5.27389E-03 1.63521E-15 3.02141E-01
 -1     17180-5.24948E-03-1.46066E-15-3.00742E-01
 -1     17182-5.24948E-03-1.01909E-15 3.00742E-01
 -1     17183-5.07086E-03-3.80839E-15-2.90509E-01
 -1     17185-5.07086E-03-5.45510E-15 2.90509E-01
 -1     17186-5.34335E-03-4.49015E-15-3.06120E-01
 -1     17188-5.34335E-03-3.55264E-15 3.06120E-01
 -1     17189-5.69825E-03-2.72098E-15-3.26453E-01
 -1     17191-5.69825E-03-3.85864E-15 3.26453E-01
 -1     17192-5.45016E-03 6.79116E-15-3.12240E-01
 -1     17194-5.45016E-03 8.52676E-15 3.12240E-01
 -1     17195-5.90507E-03-1.92233E-15-3.38301E-01
 -1     17197-5.90507E-03-2.61234E-15 3.38301E-01
 -1     17198-5.64214E-03 8.79458E-15-3.23238E-01
 -1     17200-5.64214E-03 9.51015E-15 3.23238E-01
 -1     17201-6.01260E-03-2.29287E-15-3.44461E-01
 -1     17203-6.01260E-03-1.88807E-15 3.44461E-01
 -1     17204-5.03382E-03 5.37136E-15-2.88387E-01
 -1     17206-5.03382E-03 7.05728E-15 2.88387E-01
 -1     17207-4.55123E-03 1.77122E-14-2.60740E-01
 -1     17209-4.55123E-03 1.55978E-14 2.60740E-01
 -1     17210-5.44531E-03 3.54774E-15-3.11962E-01
 -1     17212-5.44531E-03 7.71715E-16 3.11962E-01
 -1     17213-4.35007E-03 4.24803E-15-2.49215E-01
 -1     17215-4.35007E-03 5.86337E-15 2.49215E-01
 -1     17216-4.19893E-03 9.49467E-15-2.40556E-01
 -1     17218-4.19893E-03 8.71596E-15 2.40556E-01
 -1     17219-4.18596E-03 2.79949E-15-2.39814E-01
 -1     17221-4.18596E-03 2.17055E-15 2.39814E-01
 -1     17222-4.22137E-03 3.12662E-15-2.41842E-01
 -1     17224-4.22137E-03 4.91466E-15 2.41842E-01
 -1     17225-4.27283E-03-6.48590E-15-2.44790E-01
 -1     17227-4.27283E-03-6.63398E-15 2.44790E-01
 -1     17228-4.30001E-03 1.03091E-15-2.46348E-01
 -1     17230-4.30001E-03 1.32016E-15 2.46348E-01
 -1     17231-4.26008E-03-1.55699E-15-2.44060E-01
 -1     17233-4.26008E-03-1.46202E-15 2.44060E-01
 -1     17234-4.28350E-03-3.99816E-17-2.45402E-01
 -1     17236-4.28350E-03 2.96906E-15 2.45402E-01
 -1     17237-4.39018E-03-3.31976E-15-2.51513E-01
 -1     17239-4.39018E-03-4.33865E-15 2.51513E-01
 -1     17240-4.26774E-03 5.55683E-15-2.44498E-01
 -1     17242-4.26774E-03 4.10868E-15 2.44498E-01
 -1     17243-4.26267E-03 8.83147E-16-2.44208E-01
 -1     17245-4.26267E-03 2.18776E-16 2.44208E-01
 -1     17246-4.42209E-03-6.42834E-15-2.53341E-01
 -1     17248-4.42209E-03-7.35374E-15 2.53341E-01
 -1     17249-4.22786E-03-3.90626E-15-2.42214E-01
 -1     17251-4.22786E-03-4.34472E-15 2.42214E-01
 -1     17252-4.22218E-03 6.09936E-15-2.41888E-01
 -1     17254-4.22218E-03 6.63279E-15 2.41888E-01
 -1     17255-4.46457E-03 2.17084E-15-2.55775E-01
 -1     17257-4.46457E-03 1.82438E-15 2.55775E-01
 -1     17258-4.16866E-03 4.25414E-15-2.38822E-01
 -1     17260-4.16866E-03 5.26553E-15 2.38822E-01
 -1     17261-4.42093E-03-1.50110E-15-2.53275E-01
 -1     17263-4.42093E-03-1.28785E-15 2.53275E-01
 -1     17264-4.44438E-03-8.05442E-15-2.54618E-01
 -1     17266-4.44438E-03-8.99172E-15 2.54618E-01
 -1     17267-5.42570E-03-5.88607E-16-3.10838E-01
 -1     17269-5.42570E-03-1.00515E-15 3.10838E-01
 -1     17270-5.60346E-03-3.79936E-17-3.21022E-01
 -1     17272-5.60346E-03-1.05201E-15 3.21022E-01
 -1     17273-5.36858E-03 3.13729E-15-3.07566E-01
 -1     17275-5.36858E-03 2.76143E-15 3.07566E-01
 -1     17276-5.75484E-03-6.55035E-15-3.29695E-01
 -1     17278-5.75484E-03-7.28271E-15 3.29695E-01
 -1     17279-6.77713E-03 3.10811E-15-3.88262E-01
 -1     17281-6.77713E-03 4.33578E-15 3.88262E-01
 -1     17282-7.55946E-03-6.23631E-15-4.33081E-01
 -1     17284-7.55946E-03-3.98773E-15 4.33081E-01
 -1     17285-3.70842E-03-1.29965E-14-2.12455E-01
 -1     17287-3.70842E-03-1.19394E-14 2.12455E-01
 -1     17288-3.79140E-03 6.18262E-15-2.17209E-01
 -1     17290-3.79140E-03 5.92636E-15 2.17209E-01
 -1     17291-3.77510E-03 1.76836E-15-2.16275E-01
 -1     17293-3.77510E-03 3.67037E-15 2.16275E-01
 -1     17294-3.74851E-03 9.69718E-16-2.14752E-01
 -1     17296-3.74851E-03-7.32119E-16 2.14752E-01
 -1     17297-3.91430E-03 2.91360E-15-2.24250E-01
 -1     17299-3.91430E-03 2.22891E-15 2.24250E-01
 -1     17300-4.03923E-03 1.15751E-15-2.31407E-01
 -1     17302-4.03923E-03 8.41842E-16 2.31407E-01
 -1     17303-3.83572E-03 4.81857E-16-2.19748E-01
 -1     17305-3.83572E-03-3.18722E-16 2.19748E-01
 -1     17306-5.69394E-03-4.12032E-15-3.26205E-01
 -1     17308-5.69394E-03-4.32459E-15 3.26205E-01
 -1     17309-6.03398E-03-3.52178E-15-3.45687E-01
 -1     17311-6.03398E-03-1.60776E-15 3.45687E-01
 -1     17312-6.53065E-03 4.23933E-15-3.74141E-01
 -1     17314-6.53065E-03 3.69983E-15 3.74141E-01
 -1     17315-6.12187E-03 3.72435E-15-3.50722E-01
 -1     17317-6.12187E-03 2.50336E-15 3.50722E-01
 -1     17318-4.79166E-03-9.59868E-16-2.74514E-01
 -1     17320-4.79166E-03 1.34220E-17 2.74514E-01
 -1     17321-7.02012E-03-3.23187E-15-4.02182E-01
 -1     17323-7.02012E-03-1.51610E-15 4.02182E-01
 -1     17324-2.97975E-03-4.42129E-15-1.70710E-01
 -1     17326-2.97975E-03-5.57405E-15 1.70710E-01
 -1     17327-3.11582E-03 5.27826E-15-1.78505E-01
 -1     17329-3.11582E-03 3.60512E-15 1.78505E-01
 -1     17330-3.01970E-03-2.73365E-15-1.72999E-01
 -1     17332-3.01970E-03-2.46986E-15 1.72999E-01
 -1     17333-4.71901E-03 2.74536E-15-2.70352E-01
 -1     17335-4.71901E-03 3.07934E-15 2.70352E-01
 -1     17336-3.04581E-03 6.67346E-15-1.74494E-01
 -1     17338-3.04581E-03 5.27165E-15 1.74494E-01
 -1     17339-3.20786E-03-2.83023E-15-1.83778E-01
 -1     17341-3.20786E-03-4.32257E-15 1.83778E-01
 -1     17342-3.64385E-03 1.19804E-15-2.08756E-01
 -1     17344-3.64385E-03 2.00192E-16 2.08756E-01
 -1     17345-4.01051E-03-5.44729E-15-2.29762E-01
 -1     17347-4.01051E-03-4.50750E-15 2.29762E-01
 -1     17348-8.28143E-03-5.18160E-15-4.74443E-01
 -1     17350-8.28143E-03-5.74992E-15 4.74443E-01
 -1     17351-8.14734E-03-2.54173E-15-4.66761E-01
 -1     17353-8.14734E-03-1.52576E-15 4.66761E-01
 -1     17354-8.47675E-03 3.73870E-15-4.85632E-01
 -1     17356-8.47675E-03 3.37540E-15 4.85632E-01
 -1     17357-4.12971E-03-6.48293E-15-2.36591E-01
 -1     17359-4.12971E-03-6.20622E-15 2.36591E-01
 -1     17360-3.83510E-03 9.95631E-16-2.19713E-01
 -1     17362-3.83510E-03 1.20678E-15 2.19713E-01
 -1     17363-4.39744E-03-5.55373E-15-2.51929E-01
 -1     17365-4.39744E-03-6.06112E-15 2.51929E-01
 -1     17366-4.59726E-03-5.67348E-15-2.63377E-01
 -1     17368-4.59726E-03-6.27061E-15 2.63377E-01
 -1     17369-4.56322E-03 2.66499E-15-2.61426E-01
 -1     17371-4.56322E-03 2.08978E-15 2.61426E-01
 -1     17372-5.09445E-03-9.65984E-15-2.91861E-01
 -1     17374-5.09445E-03-1.10347E-14 2.91861E-01
 -1     17375-5.19279E-03-6.16833E-15-2.97495E-01
 -1     17377-5.19279E-03-5.46668E-15 2.97495E-01
 -1     17378-3.48057E-03 1.60038E-14-1.99402E-01
 -1     17380-3.48057E-03 1.49703E-14 1.99402E-01
 -1     17381-5.25116E-03-4.51611E-15-3.00839E-01
 -1     17383-5.25116E-03-4.97729E-15 3.00839E-01
 -1     17384-5.32606E-03-4.38850E-15-3.05130E-01
 -1     17386-5.32606E-03-1.58982E-15 3.05130E-01
 -1     17387-5.59592E-03 4.84604E-15-3.20590E-01
 -1     17389-5.59592E-03 5.74993E-15 3.20590E-01
 -1     17390-8.45386E-03-2.82030E-15-4.84321E-01
 -1     17392-8.45386E-03-2.96667E-15 4.84321E-01
 -1     17393-3.68799E-03 7.49149E-15-2.11285E-01
 -1     17395-3.68799E-03 4.62403E-15 2.11285E-01
 -1     17396-3.66407E-03-4.41497E-15-2.09914E-01
 -1     17398-3.66407E-03-4.32076E-15 2.09914E-01
 -1     17399-3.68158E-03-6.83839E-15-2.10917E-01
 -1     17401-3.68158E-03-7.48626E-15 2.10917E-01
 -1     17402-4.37256E-03-9.84436E-16-2.50504E-01
 -1     17404-4.37256E-03 1.68970E-15 2.50504E-01
 -1     17405-6.49506E-03-5.01634E-15-3.72102E-01
 -1     17407-6.49506E-03-6.87501E-15 3.72102E-01
 -1     17408-6.72273E-03 4.41346E-15-3.85145E-01
 -1     17410-6.72273E-03 5.78164E-15 3.85145E-01
 -1     17411-8.59802E-03 3.91198E-15-4.92580E-01
 -1     17413-8.59802E-03 1.26529E-15 4.92580E-01
 -1     17414-8.89201E-03 3.97082E-15-5.09423E-01
 -1     17416-8.89201E-03 2.90320E-15 5.09423E-01
 -1     17417-8.32770E-03-2.17348E-15-4.77094E-01
 -1     17419-8.32770E-03 9.11464E-16 4.77094E-01
 -1     17420-7.91845E-03 3.09852E-15-4.53648E-01
 -1     17422-7.91845E-03 2.30804E-15 4.53648E-01
 -1     17423-6.41086E-03 2.11645E-15-3.67278E-01
 -1     17425-6.41086E-03 3.45589E-15 3.67278E-01
 -1     17426-6.64311E-03 3.30366E-15-3.80584E-01
 -1     17428-6.64311E-03 2.33776E-15 3.80584E-01
 -1     17429-6.07172E-03-7.13430E-15-3.47849E-01
 -1     17431-6.07172E-03-9.78329E-15 3.47849E-01
 -1     17432-6.16051E-03-5.68459E-15-3.52935E-01
 -1     17434-6.16051E-03-7.08107E-15 3.52935E-01
 -1     17435-5.89686E-03-2.15191E-15-3.37831E-01
 -1     17437-5.89686E-03-3.94209E-15 3.37831E-01
 -1     17438-5.80978E-03-9.30855E-16-3.32842E-01
 -1     17440-5.80978E-03 7.68359E-16 3.32842E-01
 -1     17441-5.94956E-03-2.77333E-16-3.40850E-01
 -1     17443-5.94956E-03 6.94837E-16 3.40850E-01
 -1     17444-6.38437E-03-2.45889E-15-3.65761E-01
 -1     17446-6.38437E-03-2.90070E-15 3.65761E-01
 -1     17447-6.93561E-03 1.29749E-15-3.97341E-01
 -1     17449-6.93561E-03 1.55653E-15 3.97341E-01
 -1     17450-6.35834E-03 4.97252E-15-3.64269E-01
 -1     17452-6.35834E-03 5.06503E-15 3.64269E-01
 -1     17453-5.61563E-03-2.30206E-15-3.21719E-01
 -1     17455-5.61563E-03-2.93917E-15 3.21719E-01
 -1     17456-4.21538E-03-2.18535E-16-2.41499E-01
 -1     17458-4.21538E-03-2.76740E-16 2.41499E-01
 -1     17459-4.38264E-03-3.59515E-15-2.51081E-01
 -1     17461-4.38264E-03-3.49464E-15 2.51081E-01
 -1     17462-3.79186E-03-6.61639E-15-2.17236E-01
 -1     17464-3.79186E-03-6.76910E-15 2.17236E-01
 -1     17465-7.17421E-03-5.06324E-15-4.11010E-01
 -1     17467-7.17421E-03-5.88152E-15 4.11010E-01
 -1     17468-7.35271E-03-1.13697E-14-4.21236E-01
 -1     17470-7.35271E-03-1.11461E-14 4.21236E-01
 -1     17471-7.97239E-03-2.31280E-15-4.56738E-01
 -1     17473-7.97239E-03-2.42741E-15 4.56738E-01
 -1     17474-5.48592E-03 2.99761E-15-3.14288E-01
 -1     17476-5.48592E-03 1.52299E-15 3.14288E-01
 -1     17477-5.51493E-03-3.68456E-16-3.15950E-01
 -1     17479-5.51493E-03 1.63076E-15 3.15950E-01
 -1     17480-5.36067E-03-5.70518E-15-3.07113E-01
 -1     17482-5.36067E-03-4.76678E-15 3.07113E-01
 -1     17483-6.17087E-03 3.60485E-15-3.53529E-01
 -1     17485-6.17087E-03 2.02898E-15 3.53529E-01
 -1     17486-6.03108E-03-6.29503E-15-3.45520E-01
 -1     17488-6.03108E-03-4.91410E-15 3.45520E-01
 -1     17489-6.42784E-03-5.43660E-15-3.68251E-01
 -1     17491-6.42784E-03-6.23997E-15 3.68251E-01
 -1     17492-3.77803E-03 4.86440E-15-2.16443E-01
 -1     17494-3.77803E-03 5.66185E-15 2.16443E-01
 -1     17495-3.58074E-03 9.35202E-16-2.05141E-01
 -1     17497-3.58074E-03 1.29188E-15 2.05141E-01
 -1     17498-3.77733E-03 2.56645E-15-2.16403E-01
 -1     17500-3.77733E-03-1.76874E-16 2.16403E-01
 -1     17501-4.41250E-03 2.85589E-15-2.52792E-01
 -1     17503-4.41250E-03 1.48606E-15 2.52792E-01
 -1     17504-4.83589E-03-3.89512E-15-2.77048E-01
 -1     17506-4.83589E-03-5.95748E-15 2.77048E-01
 -1     17507-8.11794E-03-6.36361E-15-4.65076E-01
 -1     17509-8.11794E-03-4.16595E-15 4.65076E-01
 -1     17510-7.64199E-03-1.30188E-15-4.37810E-01
 -1     17512-7.64199E-03-1.75805E-15 4.37810E-01
 -1     17513-4.73928E-03 1.59488E-15-2.71513E-01
 -1     17515-4.73928E-03 8.71592E-16 2.71513E-01
 -1     17516-4.90487E-03 1.70218E-15-2.81000E-01
 -1     17518-4.90487E-03 1.26522E-15 2.81000E-01
 -1     17519-5.07459E-03 2.69724E-15-2.90723E-01
 -1     17521-5.07459E-03-1.73770E-16 2.90723E-01
 -1     17522-4.73545E-03-6.55534E-15-2.71294E-01
 -1     17524-4.73545E-03-3.34502E-15 2.71294E-01
 -1     17525-5.68608E-03 1.24029E-15-3.25756E-01
 -1     17527-5.68608E-03 5.50104E-16 3.25756E-01
 -1     17528-5.56622E-03-1.88412E-15-3.18888E-01
 -1     17530-5.56622E-03-1.89334E-15 3.18888E-01
 -1     17531-5.85187E-03 6.84557E-15-3.35254E-01
 -1     17533-5.85187E-03 6.85767E-15 3.35254E-01
 -1     17534-5.66428E-03 4.17770E-15-3.24506E-01
 -1     17536-5.66428E-03 3.86648E-15 3.24506E-01
 -1     17537-6.53547E-03-7.00413E-16-3.74417E-01
 -1     17539-6.53547E-03-1.20929E-15 3.74417E-01
 -1     17540-5.01903E-03-2.88817E-15-2.87540E-01
 -1     17542-5.01903E-03-2.67270E-15 2.87540E-01
 -1     17543-4.84597E-03 9.49826E-15-2.77625E-01
 -1     17545-4.84597E-03 1.01251E-14 2.77625E-01
 -1     17546-5.69833E-03-1.27405E-15-3.26457E-01
 -1     17548-5.69833E-03-3.34375E-15 3.26457E-01
 -1     17549-5.25615E-03 1.93753E-15-3.01125E-01
 -1     17551-5.25615E-03-1.05889E-15 3.01125E-01
 -1     17552-5.55135E-03 8.58898E-15-3.18037E-01
 -1     17554-5.55135E-03 8.43533E-15 3.18037E-01
 -1     17555-5.40217E-03 4.63952E-15-3.09490E-01
 -1     17557-5.40217E-03 4.18557E-15 3.09490E-01
 -1     17558-5.76660E-03 6.04523E-15-3.30368E-01
 -1     17560-5.76660E-03 7.45135E-15 3.30368E-01
 -1     17561-5.53345E-03 2.84359E-15-3.17011E-01
 -1     17563-5.53345E-03 3.15040E-15 3.17011E-01
 -1     17564-5.50189E-03 2.95374E-16-3.15203E-01
 -1     17566-5.50189E-03-5.05950E-16 3.15203E-01
 -1     17567-5.08793E-03 1.17425E-15-2.91488E-01
 -1     17569-5.08793E-03 7.77580E-16 2.91488E-01
 -1     17570-4.66654E-03 4.62111E-15-2.67346E-01
 -1     17572-4.66654E-03 4.44507E-15 2.67346E-01
 -1     17573-4.68033E-03 4.49961E-15-2.68136E-01
 -1     17575-4.68033E-03 2.38568E-15 2.68136E-01
 -1     17576-4.83969E-03 1.56931E-15-2.77266E-01
 -1     17578-4.83969E-03 2.14854E-15 2.77266E-01
 -1     17579-3.90340E-03-6.06223E-15-2.23626E-01
 -1     17581-3.90340E-03-5.15340E-15 2.23626E-01
 -1     17582-3.83131E-03 4.79024E-15-2.19496E-01
 -1     17584-3.83131E-03 4.67817E-15 2.19496E-01
 -1     17585-4.16683E-03-3.63483E-15-2.38718E-01
 -1     17587-4.16683E-03-2.79999E-15 2.38718E-01
 -1     17588-4.10124E-03 2.70323E-15-2.34960E-01
 -1     17590-4.10124E-03 3.47627E-15 2.34960E-01
 -1     17591-4.45201E-03 2.76235E-15-2.55055E-01
 -1     17593-4.45201E-03 5.94204E-15 2.55055E-01
 -1     17594-4.14487E-03 2.28690E-15-2.37459E-01
 -1     17596-4.14487E-03 7.11333E-16 2.37459E-01
 -1     17597-4.49019E-03-1.20358E-15-2.57243E-01
 -1     17599-4.49019E-03-1.15103E-15 2.57243E-01
 -1     17600-4.55167E-03-5.71900E-15-2.60765E-01
 -1     17602-4.55167E-03-7.78357E-15 2.60765E-01
 -1     17603-4.58674E-03 1.20381E-15-2.62774E-01
 -1     17605-4.58674E-03 1.45420E-15 2.62774E-01
 -1     17606-4.55983E-03 4.22137E-15-2.61233E-01
 -1     17608-4.55983E-03 5.29935E-15 2.61233E-01
 -1     17609-4.63068E-03-3.99342E-15-2.65292E-01
 -1     17611-4.63068E-03-3.33381E-15 2.65292E-01
 -1     17612-4.66254E-03-3.93365E-15-2.67116E-01
 -1     17614-4.66254E-03-3.26254E-15 2.67116E-01
 -1     17615-4.67753E-03 1.22976E-15-2.67975E-01
 -1     17617-4.67753E-03 2.12871E-15 2.67975E-01
 -1     17618-4.64740E-03 6.72925E-15-2.66250E-01
 -1     17620-4.64740E-03 7.46620E-15 2.66250E-01
 -1     17621-4.79681E-03 7.44072E-16-2.74809E-01
 -1     17623-4.79681E-03 2.14039E-15 2.74809E-01
 -1     17624-4.63366E-03 4.30289E-15-2.65462E-01
 -1     17626-4.63366E-03 5.51543E-15 2.65462E-01
 -1     17627-4.50666E-03 3.63833E-15-2.58186E-01
 -1     17629-4.50666E-03 1.95615E-15 2.58186E-01
 -1     17630-4.99947E-03-2.38188E-15-2.86420E-01
 -1     17632-4.99947E-03-3.34606E-15 2.86420E-01
 -1     17633-6.41775E-03 6.31113E-15-3.67673E-01
 -1     17635-6.41775E-03 6.44922E-15 3.67673E-01
 -1     17636-6.31685E-03 4.13004E-15-3.61892E-01
 -1     17638-6.31685E-03 1.24590E-15 3.61892E-01
 -1     17639-6.71121E-03-2.96131E-15-3.84485E-01
 -1     17641-6.71121E-03-2.77094E-15 3.84485E-01
 -1     17642-6.10501E-03 7.08125E-15-3.49756E-01
 -1     17644-6.10501E-03 7.42303E-15 3.49756E-01
 -1     17645-5.59873E-03-7.44856E-16-3.20751E-01
 -1     17647-5.59873E-03-1.78163E-15 3.20751E-01
 -1     17648-5.28849E-03-9.85904E-17-3.02978E-01
 -1     17650-5.28849E-03-1.01262E-15 3.02978E-01
 -1     17651-3.41467E-03-9.34173E-16-1.95626E-01
 -1     17653-3.41467E-03-7.24576E-16 1.95626E-01
 -1     17654-3.78419E-03 4.10748E-15-2.16796E-01
 -1     17656-3.78419E-03 6.50201E-15 2.16796E-01
 -1     17657-3.42735E-03-2.11967E-15-1.96353E-01
 -1     17659-3.42735E-03-2.55250E-15 1.96353E-01
 -1     17660-7.46819E-03-6.18718E-15-4.27852E-01
 -1     17662-7.46819E-03-6.11716E-15 4.27852E-01
 -1     17663-6.43958E-03-6.37696E-16-3.68923E-01
 -1     17665-6.43958E-03 5.69316E-16 3.68923E-01
 -1     17666-8.90263E-03-1.94983E-15-5.10031E-01
 -1     17668-8.90263E-03-2.79522E-15 5.10031E-01
 -1     17669-4.60975E-03 1.01303E-15-2.64093E-01
 -1     17671-4.60975E-03-3.06297E-15 2.64093E-01
 -1     17672-4.70688E-03-3.43351E-15-2.69657E-01
 -1     17674-4.70688E-03-2.61954E-15 2.69657E-01
 -1     17675-4.08179E-03-3.39802E-15-2.33845E-01
 -1     17677-4.08179E-03-5.81378E-15 2.33845E-01
 -1     17678-4.56738E-03 8.96678E-15-2.61665E-01
 -1     17680-4.56738E-03 5.95698E-15 2.61665E-01
 -1     17681-9.14204E-03 3.90285E-17-5.23747E-01
 -1     17683-9.14204E-03 4.25000E-16 5.23747E-01
 -1     17684-8.97563E-03-4.33079E-15-5.14214E-01
 -1     17686-8.97563E-03-2.73790E-15 5.14214E-01
 -1     17687-5.04982E-03 3.82755E-15-2.89304E-01
 -1     17689-5.04982E-03 5.57912E-15 2.89304E-01
 -1     17690-5.46524E-03 5.97227E-15-3.13103E-01
 -1     17692-5.46524E-03 6.46269E-15 3.13103E-01
 -1     17693-5.89153E-03 7.99615E-18-3.37526E-01
 -1     17695-5.89153E-03-1.99522E-15 3.37526E-01
 -1     17696-5.84390E-03-9.35123E-15-3.34797E-01
 -1     17698-5.84390E-03-7.74535E-15 3.34797E-01
 -1     17699-5.68375E-03 8.14758E-15-3.25622E-01
 -1     17701-5.68375E-03 7.10906E-15 3.25622E-01
 -1     17702-4.02957E-03 6.99933E-15-2.30854E-01
 -1     17704-4.02957E-03 6.45315E-15 2.30854E-01
 -1     17705-3.79537E-03 4.27671E-15-2.17436E-01
 -1     17707-3.79537E-03 5.66612E-15 2.17436E-01
 -1     17708-3.49363E-03-1.86729E-15-2.00150E-01
 -1     17710-3.49363E-03-1.85637E-16 2.00150E-01
 -1     17711-3.68559E-03-4.23788E-15-2.11147E-01
 -1     17713-3.68559E-03-1.55776E-15 2.11147E-01
 -1     17714-3.83320E-03-3.77277E-15-2.19604E-01
 -1     17716-3.83320E-03-2.78215E-15 2.19604E-01
 -1     17717-4.80432E-03-2.75561E-15-2.75240E-01
 -1     17719-4.80432E-03-3.33792E-15 2.75240E-01
 -1     17720-4.64946E-03 4.39764E-15-2.66367E-01
 -1     17722-4.64946E-03 3.85888E-15 2.66367E-01
 -1     17723-4.47688E-03-2.51478E-15-2.56481E-01
 -1     17725-4.47688E-03-4.22444E-15 2.56481E-01
 -1     17726-9.16186E-03 1.43022E-16-5.24883E-01
 -1     17728-9.16186E-03-7.03555E-16 5.24883E-01
 -1     17729-6.84345E-03 3.21907E-15-3.92061E-01
 -1     17731-6.84345E-03 4.19844E-15 3.92061E-01
 -1     17732-5.17110E-03 5.04743E-15-2.96252E-01
 -1     17734-5.17110E-03 7.32131E-15 2.96252E-01
 -1     17735-5.28650E-03-3.60643E-15-3.02863E-01
 -1     17737-5.28650E-03-1.90486E-15 3.02863E-01
 -1     17738-5.64939E-03 7.03283E-16-3.23653E-01
 -1     17740-5.64939E-03 2.07644E-15 3.23653E-01
 -1     17741-5.48978E-03 1.62311E-15-3.14509E-01
 -1     17743-5.48978E-03-1.89816E-16 3.14509E-01
 -1     17744-4.80464E-03 4.21298E-15-2.75258E-01
 -1     17746-4.80464E-03 5.33517E-15 2.75258E-01
 -1     17747-4.87688E-03-1.32801E-15-2.79397E-01
 -1     17749-4.87688E-03-2.19414E-15 2.79397E-01
 -1     17750-4.86821E-03 2.08979E-15-2.78900E-01
 -1     17752-4.86821E-03-9.23356E-16 2.78900E-01
 -1     17753-6.01881E-03 4.37839E-15-3.44817E-01
 -1     17755-6.01881E-03 7.62177E-15 3.44817E-01
 -1     17756-7.06304E-03 2.25513E-15-4.04641E-01
 -1     17758-7.06304E-03-7.34831E-16 4.04641E-01
 -1     17759-7.41469E-03 5.50643E-16-4.24787E-01
 -1     17761-7.41469E-03-1.43129E-15 4.24787E-01
 -1     17762-1.06794E-02-5.31563E-15-6.11822E-01
 -1     17764-1.06794E-02-4.61257E-15 6.11822E-01
 -1     17765-3.61309E-03-7.28414E-15-2.06994E-01
 -1     17767-3.61309E-03-3.07739E-15 2.06994E-01
 -1     17768-4.07006E-03-1.46438E-16-2.33174E-01
 -1     17770-4.07006E-03 2.90871E-15 2.33174E-01
 -1     17771-5.52229E-03 7.70638E-16-3.16372E-01
 -1     17773-5.52229E-03-2.49093E-15 3.16372E-01
 -1     17774-5.71622E-03 2.65116E-15-3.27482E-01
 -1     17776-5.71622E-03 1.32985E-15 3.27482E-01
 -1     17777-5.30659E-03-1.15693E-15-3.04014E-01
 -1     17779-5.30659E-03 2.93880E-16 3.04014E-01
 -1     17780-5.86549E-03-2.91059E-16-3.36034E-01
 -1     17782-5.86549E-03 6.53102E-16 3.36034E-01
 -1     17783-3.92943E-03-5.03644E-16-2.25117E-01
 -1     17785-3.92943E-03-8.26685E-16 2.25117E-01
 -1     17786-4.52485E-03 5.06533E-15-2.59229E-01
 -1     17788-4.52485E-03 5.18937E-15 2.59229E-01
 -1     17789-8.12378E-03 2.10721E-15-4.65411E-01
 -1     17791-8.12378E-03 2.91806E-15 4.65411E-01
 -1     17792-1.03453E-02-2.48962E-15-5.92684E-01
 -1     17794-1.03453E-02-3.81209E-15 5.92684E-01
 -1     17795-7.61750E-03 2.79900E-16-4.36406E-01
 -1     17797-7.61750E-03 1.21548E-15 4.36406E-01
 -1     17798-3.91733E-03 2.23057E-15-2.24424E-01
 -1     17800-3.91733E-03 3.09413E-15 2.24424E-01
 -1     17801-4.55079E-03-1.36128E-14-2.60715E-01
 -1     17803-4.55079E-03-1.34719E-14 2.60715E-01
 -1     17804-4.96615E-03 5.61253E-15-2.84511E-01
 -1     17806-4.96615E-03 5.79573E-15 2.84511E-01
 -1     17807-7.59142E-03 6.78030E-16-4.34912E-01
 -1     17809-7.59142E-03-4.68575E-16 4.34912E-01
 -1     17810-9.36272E-03-4.50868E-15-5.36390E-01
 -1     17812-9.36272E-03-4.65584E-15 5.36390E-01
 -1     17813-4.81730E-03 4.63366E-15-2.75983E-01
 -1     17815-4.81730E-03 6.13872E-15 2.75983E-01
 -1     17816-4.40717E-03 1.09694E-14-2.52486E-01
 -1     17818-4.40717E-03 1.14678E-14 2.52486E-01
 -1     17819-3.76686E-03 2.14751E-15-2.15803E-01
 -1     17821-3.76686E-03 2.18316E-15 2.15803E-01
 -1     17822-4.94721E-03-3.51904E-15-2.83425E-01
 -1     17824-4.94721E-03-3.60030E-15 2.83425E-01
 -1     17825-4.61852E-03 1.68609E-15-2.64595E-01
 -1     17827-4.61852E-03 3.69265E-16 2.64595E-01
 -1     17828-5.27710E-03-1.79072E-15-3.02325E-01
 -1     17830-5.27710E-03-1.45119E-15 3.02325E-01
 -1     17831-1.14144E-02 4.99895E-15-6.53932E-01
 -1     17833-1.14144E-02 4.13913E-15 6.53932E-01
 -1     17834-1.14122E-02 1.26892E-15-6.53802E-01
 -1     17836-1.14122E-02 1.80852E-15 6.53802E-01
 -1     17837-8.61965E-03 3.95060E-15-4.93819E-01
 -1     17839-8.61965E-03 1.50582E-15 4.93819E-01
 -1     17840-6.09714E-03-4.39827E-15-3.49305E-01
 -1     17842-6.09714E-03-4.59139E-16 3.49305E-01
 -1     17843-6.73035E-03-3.54877E-15-3.85581E-01
 -1     17845-6.73035E-03-3.43044E-15 3.85581E-01
 -1     17846-6.50111E-03 4.58130E-15-3.72448E-01
 -1     17848-6.50111E-03 5.76782E-15 3.72448E-01
 -1     17849-5.66612E-03-3.60773E-15-3.24612E-01
 -1     17851-5.66612E-03-3.84873E-15 3.24612E-01
 -1     17852-5.01339E-03-1.05270E-15-2.87217E-01
 -1     17854-5.01339E-03-1.37319E-16 2.87217E-01
 -1     17855-4.50490E-03-3.76587E-15-2.58085E-01
 -1     17857-4.50490E-03-5.50948E-15 2.58085E-01
 -1     17858-5.04585E-03-2.40033E-15-2.89076E-01
 -1     17860-5.04585E-03-2.80455E-15 2.89076E-01
 -1     17861-5.12304E-03 3.98783E-15-2.93499E-01
 -1     17863-5.12304E-03 4.08549E-15 2.93499E-01
 -1     17864-4.83025E-03-6.19856E-15-2.76725E-01
 -1     17866-4.83025E-03-7.69973E-15 2.76725E-01
 -1     17867-4.84215E-03 5.76179E-16-2.77407E-01
 -1     17869-4.84215E-03 1.96431E-16 2.77407E-01
 -1     17870-4.81979E-03-5.82895E-15-2.76126E-01
 -1     17872-4.81979E-03-5.20068E-15 2.76126E-01
 -1     17873-4.88347E-03-1.31567E-15-2.79774E-01
 -1     17875-4.88347E-03-3.91802E-15 2.79774E-01
 -1     17876-5.14576E-03-5.32984E-16-2.94800E-01
 -1     17878-5.14576E-03 7.80864E-17 2.94800E-01
 -1     17879-5.37605E-03 5.65603E-16-3.07994E-01
 -1     17881-5.37605E-03-1.08529E-15 3.07994E-01
 -1     17882-5.26142E-03-5.32251E-15-3.01426E-01
 -1     17884-5.26142E-03-5.73579E-15 3.01426E-01
 -1     17885-9.67805E-03-1.65484E-15-5.54455E-01
 -1     17887-9.67805E-03-2.04434E-15 5.54455E-01
 -1     17888-1.24594E-02-5.78924E-15-7.13799E-01
 -1     17890-1.24594E-02-7.71221E-15 7.13799E-01
 -1     17891-5.46293E-03-5.69866E-15-3.12971E-01
 -1     17893-5.46293E-03-2.74368E-15 3.12971E-01
 -1     17894-5.20851E-03 1.07325E-15-2.98396E-01
 -1     17896-5.20851E-03 2.51297E-16 2.98396E-01
 -1     17897-4.83849E-03-3.30510E-15-2.77197E-01
 -1     17899-4.83849E-03-1.92583E-15 2.77197E-01
 -1     17900-5.66189E-03 3.45322E-15-3.24370E-01
 -1     17902-5.66189E-03 2.96247E-15 3.24370E-01
 -1     17903-1.17016E-02-2.50947E-15-6.70384E-01
 -1     17905-1.17016E-02-1.23295E-15 6.70384E-01
 -1     17906-8.36736E-03-5.56125E-15-4.79366E-01
 -1     17908-8.36736E-03-8.93461E-15 4.79366E-01
 -1     17909-4.86256E-03-1.41667E-14-2.78576E-01
 -1     17911-4.86256E-03-1.15896E-14 2.78576E-01
 -1     17912-4.10665E-03-9.99822E-16-2.35270E-01
 -1     17914-4.10665E-03-5.94416E-16 2.35270E-01
 -1     17915-5.05648E-03-7.05235E-15-2.89686E-01
 -1     17917-5.05648E-03-6.86912E-15 2.89686E-01
 -1     17918-1.10546E-02-4.63941E-17-6.33320E-01
 -1     17920-1.10546E-02 3.54637E-16 6.33320E-01
 -1     17921-5.10510E-03 6.69765E-15-2.92471E-01
 -1     17923-5.10510E-03 7.74261E-15 2.92471E-01
 -1     17924-1.14701E-02-4.89000E-15-6.57124E-01
 -1     17926-1.14701E-02-5.12645E-15 6.57124E-01
 -1     17927-4.40438E-03 2.83792E-16-2.52327E-01
 -1     17929-4.40438E-03 1.57364E-15 2.52327E-01
 -1     17930-8.99133E-03 9.63133E-15-5.15113E-01
 -1     17932-8.99133E-03 1.00434E-14 5.15113E-01
 -3
    1PSTEP                         5           1           1          
  100CL  101 1.000000000       10119                     0    1           1
 -4  ERROR       1    1
 -5  STR(%)      1    1    0    0
 -1      4484 3.28413E+00
 -1      4485 3.28413E+00
 -1      4486 3.28413E+00
 -1      4487 3.21692E+00
 -1      4488 3.21692E+00
 -1      4489 3.21692E+00
 -1      4490 4.55336E-01
 -1      4491 4.55336E-01
 -1      4492 4.55336E-01
 -1      4493 4.57659E-01
 -1      4494 4.57659E-01
 -1      4495 4.57659E-01
 -1      4496 3.28413E+00
 -1      4497 3.28413E+00
 -1      4498 3.28413E+00
 -1      4499 2.89916E+00
 -1      4500 2.89916E+00
 -1      4501 2.89916E+00
 -1      4502 2.94745E+00
 -1      4503 2.94745E+00
 -1      4504 2.94745E+00
 -1      4505 2.95061E+00
 -1      4506 2.95061E+00
 -1      4507 2.95061E+00
 -1      4508 2.95061E+00
 -1      4509 2.95061E+00
 -1      4510 2.95061E+00
 -1      4511 2.94235E+00
 -1      4512 2.94235E+00
 -1      4513 2.94235E+00
 -1      4514 2.92345E+00
 -1      4515 2.92345E+00
 -1      4516 2.92345E+00
 -1      4517 2.89834E+00
 -1      4518 2.89834E+00
 -1      4519 2.89834E+00
 -1      4520 2.87651E+00
 -1      4521 2.87651E+00
 -1      4522 2.87651E+00
 -1      4523 2.86136E+00
 -1      4524 2.86136E+00
 -1      4525 2.86136E+00
 -1      4526 2.85329E+00
 -1      4527 2.85329E+00
 -1      4528 2.85329E+00
 -1      4529 2.85087E+00
 -1      4530 2.85087E+00
 -1      4531 2.85087E+00
 -1      4532 2.85165E+00
 -1      4533 2.85165E+00
 -1      4534 2.85165E+00
 -1      4535 2.85260E+00
 -1      4536 2.85260E+00
 -1      4537 2.85260E+00
 -1      4538 2.85260E+00
 -1      4539 2.85260E+00
 -1      4540 2.85260E+00
 -1      4541 2.85228E+00
 -1      4542 2.85228E+00
 -1      4543 2.85228E+00
 -1      4544 2.84940E+00
 -1      4545 2.84940E+00
 -1      4546 2.84940E+00
 -1      4547 2.84586E+00
 -1      4548 2.84586E+00
 -1      4549 2.84586E+00
 -1      4550 2.85973E+00
 -1      4551 2.85973E+00
 -1      4552 2.85973E+00
 -1      4553 2.88567E+00
 -1      4554 2.88567E+00
 -1      4555 2.88567E+00
 -1      4556 2.91452E+00
 -1      4557 2.91452E+00
 -1      4558 2.91452E+00
 -1      4559 2.95913E+00
 -1      4560 2.95913E+00
 -1      4561 2.95913E+00
 -1      4562 3.01089E+00
 -1      4563 3.01089E+00
 -1      4564 3.01089E+00
 -1      4565 3.17348E+00
 -1      4566 3.17348E+00
 -1      4567 3.17348E+00
 -1      4568 3.21692E+00
 -1      4569 3.21692E+00
 -1      4570 3.21692E+00
 -1      4571 3.05579E+00
 -1      4572 3.05579E+00
 -1      4573 3.05579E+00
 -1      4574 2.67202E+00
 -1      4575 2.67202E+00
 -1      4576 2.67202E+00
 -1      4577 2.58355E+00
 -1      4578 2.58355E+00
 -1      4579 2.58355E+00
 -1      4580 2.32162E+00
 -1      4581 2.32162E+00
 -1      4582 2.32162E+00
 -1      4583 2.17245E+00
 -1      4584 2.17245E+00
 -1      4585 2.17245E+00
 -1      4586 2.11167E+00
 -1      4587 2.11167E+00
 -1      4588 2.11167E+00
 -1      4589 1.91047E+00
 -1      4590 1.91047E+00
 -1      4591 1.91047E+00
 -1      4592 1.79857E+00
 -1      4593 1.79857E+00
 -1      4594 1.79857E+00
 -1      4595 1.75834E+00
 -1      4596 1.75834E+00
 -1      4597 1.75834E+00
 -1      4598 1.59873E+00
 -1      4599 1.59873E+00
 -1      4600 1.59873E+00
 -1      4601 1.51195E+00
 -1      4602 1.51195E+00
 -1      4603 1.51195E+00
 -1      4604 1.48447E+00
 -1      4605 1.48447E+00
 -1      4606 1.48447E+00
 -1      4607 1.35468E+00
 -1      4608 1.35468E+00
 -1      4609 1.35468E+00
 -1      4610 1.28549E+00
 -1      4611 1.28549E+00
 -1      4612 1.28549E+00
 -1      4613 1.26623E+00
 -1      4614 1.26623E+00
 -1      4615 1.26623E+00
 -1      4616 1.15881E+00
 -1      4617 1.15881E+00
 -1      4618 1.15881E+00
 -1      4619 1.10258E+00
 -1      4620 1.10258E+00
 -1      4621 1.10258E+00
 -1      4622 1.04988E+00
 -1      4623 1.04988E+00
 -1      4624 1.04988E+00
 -1      4625 1.03764E+00
 -1      4626 1.03764E+00
 -1      4627 1.03764E+00
 -1      4628 9.52431E-01
 -1      4629 9.52431E-01
 -1      4630 9.52431E-01
 -1      4631 9.08779E-01
 -1      4632 9.08779E-01
 -1      4633 9.08779E-01
 -1      4634 9.00018E-01
 -1      4635 9.00018E-01
 -1      4636 9.00018E-01
 -1      4637 8.27626E-01
 -1      4638 8.27626E-01
 -1      4639 8.27626E-01
 -1      4640 7.91094E-01
 -1      4641 7.91094E-01
 -1      4642 7.91094E-01
 -1      4643 7.84847E-01
 -1      4644 7.84847E-01
 -1      4645 7.84847E-01
 -1      4646 7.22878E-01
 -1      4647 7.22878E-01
 -1      4648 7.22878E-01
 -1      4649 6.92043E-01
 -1      4650 6.92043E-01
 -1      4651 6.92043E-01
 -1      4652 6.87664E-01
 -1      4653 6.87664E-01
 -1      4654 6.87664E-01
 -1      4655 6.34286E-01
 -1      4656 6.34286E-01
 -1      4657 6.34286E-01
 -1      4658 6.08118E-01
 -1      4659 6.08118E-01
 -1      4660 6.08118E-01
 -1      4661 6.05186E-01
 -1      4662 6.05186E-01
 -1      4663 6.05186E-01
 -1      4664 5.59036E-01
 -1      4665 5.59036E-01
 -1      4666 5.59036E-01
 -1      4667 5.38302E-01
 -1      4668 5.38302E-01
 -1      4669 5.38302E-01
 -1      4670 5.34736E-01
 -1      4671 5.34736E-01
 -1      4672 5.34736E-01
 -1      4673 5.20405E-01
 -1      4674 5.20405E-01
 -1      4675 5.20405E-01
 -1      4676 6.46334E-01
 -1      4677 6.46334E-01
 -1      4678 6.46334E-01
 -1      4679 6.46334E-01
 -1      4680 6.46334E-01
 -1      4681 6.46334E-01
 -1      4682 4.27492E-01
 -1      4683 4.27492E-01
 -1      4684 4.27492E-01
 -1      4685 4.27619E-01
 -1      4686 4.27619E-01
 -1      4687 4.27619E-01
 -1      4688 4.15647E-01
 -1      4689 4.15647E-01
 -1      4690 4.15647E-01
 -1      4691 4.06018E-01
 -1      4692 4.06018E-01
 -1      4693 4.06018E-01
 -1      4694 4.05674E-01
 -1      4695 4.05674E-01
 -1      4696 4.05674E-01
 -1      4697 4.07908E-01
 -1      4698 4.07908E-01
 -1      4699 4.07908E-01
 -1      4700 4.09310E-01
 -1      4701 4.09310E-01
 -1      4702 4.09310E-01
 -1      4703 4.09739E-01
 -1      4704 4.09739E-01
 -1      4705 4.09739E-01
 -1      4706 4.09740E-01
 -1      4707 4.09740E-01
 -1      4708 4.09740E-01
 -1      4709 4.09616E-01
 -1      4710 4.09616E-01
 -1      4711 4.09616E-01
 -1      4712 4.09143E-01
 -1      4713 4.09143E-01
 -1      4714 4.09143E-01
 -1      4715 4.08800E-01
 -1      4716 4.08800E-01
 -1      4717 4.08800E-01
 -1      4718 4.08569E-01
 -1      4719 4.08569E-01
 -1      4720 4.08569E-01
 -1      4721 4.08544E-01
 -1      4722 4.08544E-01
 -1      4723 4.08544E-01
 -1      4724 4.08152E-01
 -1      4725 4.08152E-01
 -1      4726 4.08152E-01
 -1      4727 4.07278E-01
 -1      4728 4.07278E-01
 -1      4729 4.07278E-01
 -1      4730 4.05970E-01
 -1      4731 4.05970E-01
 -1      4732 4.05970E-01
 -1      4733 4.05689E-01
 -1      4734 4.05689E-01
 -1      4735 4.05689E-01
 -1      4736 4.10647E-01
 -1      4737 4.10647E-01
 -1      4738 4.10647E-01
 -1      4739 4.18764E-01
 -1      4740 4.18764E-01
 -1      4741 4.18764E-01
 -1      4742 4.18781E-01
 -1      4743 4.18781E-01
 -1      4744 4.18781E-01
 -1      4745 4.13272E-01
 -1      4746 4.13272E-01
 -1      4747 4.13272E-01
 -1      4748 3.74239E-01
 -1      4749 3.74239E-01
 -1      4750 3.74239E-01
 -1      4751 3.28413E+00
 -1      4752 3.28413E+00
 -1      4753 3.28413E+00
 -1      4754 2.88405E+00
 -1      4755 2.88405E+00
 -1      4756 2.88405E+00
 -1      4757 2.68220E+00
 -1      4758 2.68220E+00
 -1      4759 2.68220E+00
 -1      4760 2.58698E+00
 -1      4761 2.58698E+00
 -1      4762 2.58698E+00
 -1      4763 2.32404E+00
 -1      4764 2.32404E+00
 -1      4765 2.32404E+00
 -1      4766 2.17410E+00
 -1      4767 2.17410E+00
 -1      4768 2.17410E+00
 -1      4769 2.11327E+00
 -1      4770 2.11327E+00
 -1      4771 2.11327E+00
 -1      4772 1.91200E+00
 -1      4773 1.91200E+00
 -1      4774 1.91200E+00
 -1      4775 1.79990E+00
 -1      4776 1.79990E+00
 -1      4777 1.79990E+00
 -1      4778 1.75970E+00
 -1      4779 1.75970E+00
 -1      4780 1.75970E+00
 -1      4781 1.59996E+00
 -1      4782 1.59996E+00
 -1      4783 1.59996E+00
 -1      4784 1.51296E+00
 -1      4785 1.51296E+00
 -1      4786 1.51296E+00
 -1      4787 1.48548E+00
 -1      4788 1.48548E+00
 -1      4789 1.48548E+00
 -1      4790 1.35559E+00
 -1      4791 1.35559E+00
 -1      4792 1.35559E+00
 -1      4793 1.28626E+00
 -1      4794 1.28626E+00
 -1      4795 1.28626E+00
 -1      4796 1.26702E+00
 -1      4797 1.26702E+00
 -1      4798 1.26702E+00
 -1      4799 1.15953E+00
 -1      4800 1.15953E+00
 -1      4801 1.15953E+00
 -1      4802 1.10321E+00
 -1      4803 1.10321E+00
 -1      4804 1.10321E+00
 -1      4805 1.05045E+00
 -1      4806 1.05045E+00
 -1      4807 1.05045E+00
 -1      4808 1.03822E+00
 -1      4809 1.03822E+00
 -1      4810 1.03822E+00
 -1      4811 9.52968E-01
 -1      4812 9.52968E-01
 -1      4813 9.52968E-01
 -1      4814 9.09241E-01
 -1      4815 9.09241E-01
 -1      4816 9.09241E-01
 -1      4817 9.00496E-01
 -1      4818 9.00496E-01
 -1      4819 9.00496E-01
 -1      4820 8.28076E-01
 -1      4821 8.28076E-01
 -1      4822 8.28076E-01
 -1      4823 7.91494E-01
 -1      4824 7.91494E-01
 -1      4825 7.91494E-01
 -1      4826 7.85282E-01
 -1      4827 7.85282E-01
 -1      4828 7.85282E-01
 -1      4829 7.23302E-01
 -1      4830 7.23302E-01
 -1      4831 7.23302E-01
 -1      4832 6.92448E-01
 -1      4833 6.92448E-01
 -1      4834 6.92448E-01
 -1      4835 6.88108E-01
 -1      4836 6.88108E-01
 -1      4837 6.88108E-01
 -1      4838 6.34721E-01
 -1      4839 6.34721E-01
 -1      4840 6.34721E-01
 -1      4841 6.08506E-01
 -1      4842 6.08506E-01
 -1      4843 6.08506E-01
 -1      4844 6.05535E-01
 -1      4845 6.05535E-01
 -1      4846 6.05535E-01
 -1      4847 5.65845E-01
 -1      4848 5.65845E-01
 -1      4849 5.65845E-01
 -1      4850 5.53322E-01
 -1      4851 5.53322E-01
 -1      4852 5.53322E-01
 -1      4853 5.34639E-01
 -1      4854 5.34639E-01
 -1      4855 5.34639E-01
 -1      4856 4.94300E-01
 -1      4857 4.94300E-01
 -1      4858 4.94300E-01
 -1      4859 4.75236E-01
 -1      4860 4.75236E-01
 -1      4861 4.75236E-01
 -1      4862 3.21177E+00
 -1      4863 3.21177E+00
 -1      4864 3.21177E+00
 -1      4865 2.94745E+00
 -1      4866 2.94745E+00
 -1      4867 2.94745E+00
 -1      4868 2.94235E+00
 -1      4869 2.94235E+00
 -1      4870 2.94235E+00
 -1      4871 2.89834E+00
 -1      4872 2.89834E+00
 -1      4873 2.89834E+00
 -1      4874 2.86136E+00
 -1      4875 2.86136E+00
 -1      4876 2.86136E+00
 -1      4877 2.85057E+00
 -1      4878 2.85057E+00
 -1      4879 2.85057E+00
 -1      4880 2.85165E+00
 -1      4881 2.85165E+00
 -1      4882 2.85165E+00
 -1      4883 2.85228E+00
 -1      4884 2.85228E+00
 -1      4885 2.85228E+00
 -1      4886 2.84547E+00
 -1      4887 2.84547E+00
 -1      4888 2.84547E+00
 -1      4889 2.85973E+00
 -1      4890 2.85973E+00
 -1      4891 2.85973E+00
 -1      4892 2.91452E+00
 -1      4893 2.91452E+00
 -1      4894 2.91452E+00
 -1      4895 3.07430E+00
 -1      4896 3.07430E+00
 -1      4897 3.07430E+00
 -1      4898 3.21692E+00
 -1      4899 3.21692E+00
 -1      4900 3.21692E+00
 -1      4901 2.72062E+00
 -1      4902 2.72062E+00
 -1      4903 2.72062E+00
 -1      4904 2.41441E+00
 -1      4905 2.41441E+00
 -1      4906 2.41441E+00
 -1      4907 2.13545E+00
 -1      4908 2.13545E+00
 -1      4909 2.13545E+00
 -1      4910 1.88033E+00
 -1      4911 1.88033E+00
 -1      4912 1.88033E+00
 -1      4913 1.66996E+00
 -1      4914 1.66996E+00
 -1      4915 1.66996E+00
 -1      4916 1.48978E+00
 -1      4917 1.48978E+00
 -1      4918 1.48978E+00
 -1      4919 1.33158E+00
 -1      4920 1.33158E+00
 -1      4921 1.33158E+00
 -1      4922 1.20441E+00
 -1      4923 1.20441E+00
 -1      4924 1.20441E+00
 -1      4925 1.08363E+00
 -1      4926 1.08363E+00
 -1      4927 1.08363E+00
 -1      4928 9.88925E-01
 -1      4929 9.88925E-01
 -1      4930 9.88925E-01
 -1      4931 9.00188E-01
 -1      4932 9.00188E-01
 -1      4933 9.00188E-01
 -1      4934 8.17662E-01
 -1      4935 8.17662E-01
 -1      4936 8.17662E-01
 -1      4937 7.50824E-01
 -1      4938 7.50824E-01
 -1      4939 7.50824E-01
 -1      4940 6.87664E-01
 -1      4941 6.87664E-01
 -1      4942 6.87664E-01
 -1      4943 6.25613E-01
 -1      4944 6.25613E-01
 -1      4945 6.25613E-01
 -1      4946 5.70542E-01
 -1      4947 5.70542E-01
 -1      4948 5.70542E-01
 -1      4949 5.38813E-01
 -1      4950 5.38813E-01
 -1      4951 5.38813E-01
 -1      4952 6.46334E-01
 -1      4953 6.46334E-01
 -1      4954 6.46334E-01
 -1      4955 6.45704E-01
 -1      4956 6.45704E-01
 -1      4957 6.45704E-01
 -1      4958 4.42166E-01
 -1      4959 4.42166E-01
 -1      4960 4.42166E-01
 -1      4961 4.21071E-01
 -1      4962 4.21071E-01
 -1      4963 4.21071E-01
 -1      4964 4.25970E-01
 -1      4965 4.25970E-01
 -1      4966 4.25970E-01
 -1      4967 4.25534E-01
 -1      4968 4.25534E-01
 -1      4969 4.25534E-01
 -1      4970 4.24674E-01
 -1      4971 4.24674E-01
 -1      4972 4.24674E-01
 -1      4973 4.23520E-01
 -1      4974 4.23520E-01
 -1      4975 4.23520E-01
 -1      4976 4.23904E-01
 -1      4977 4.23904E-01
 -1      4978 4.23904E-01
 -1      4979 4.22236E-01
 -1      4980 4.22236E-01
 -1      4981 4.22236E-01
 -1      4982 4.19066E-01
 -1      4983 4.19066E-01
 -1      4984 4.19066E-01
 -1      4985 4.45296E-01
 -1      4986 4.45296E-01
 -1      4987 4.45296E-01
 -1      4988 4.52029E-01
 -1      4989 4.52029E-01
 -1      4990 4.52029E-01
 -1      4991 4.57659E-01
 -1      4992 4.57659E-01
 -1      4993 4.57659E-01
 -1      4994 2.88405E+00
 -1      4995 2.88405E+00
 -1      4996 2.88405E+00
 -1      4997 2.78262E+00
 -1      4998 2.78262E+00
 -1      4999 2.78262E+00
 -1      5000 2.86255E+00
 -1      5001 2.86255E+00
 -1      5002 2.86255E+00
 -1      5003 2.47936E+00
 -1      5004 2.47936E+00
 -1      5005 2.47936E+00
 -1      5006 2.29147E+00
 -1      5007 2.29147E+00
 -1      5008 2.29147E+00
 -1      5009 2.14702E+00
 -1      5010 2.14702E+00
 -1      5011 2.14702E+00
 -1      5012 2.01325E+00
 -1      5013 2.01325E+00
 -1      5014 2.01325E+00
 -1      5015 1.88290E+00
 -1      5016 1.88290E+00
 -1      5017 1.88290E+00
 -1      5018 1.77819E+00
 -1      5019 1.77819E+00
 -1      5020 1.77819E+00
 -1      5021 1.67689E+00
 -1      5022 1.67689E+00
 -1      5023 1.67689E+00
 -1      5024 1.57597E+00
 -1      5025 1.57597E+00
 -1      5026 1.57597E+00
 -1      5027 1.49521E+00
 -1      5028 1.49521E+00
 -1      5029 1.49521E+00
 -1      5030 1.41610E+00
 -1      5031 1.41610E+00
 -1      5032 1.41610E+00
 -1      5033 1.33626E+00
 -1      5034 1.33626E+00
 -1      5035 1.33626E+00
 -1      5036 1.27232E+00
 -1      5037 1.27232E+00
 -1      5038 1.27232E+00
 -1      5039 1.20856E+00
 -1      5040 1.20856E+00
 -1      5041 1.20856E+00
 -1      5042 1.14258E+00
 -1      5043 1.14258E+00
 -1      5044 1.14258E+00
 -1      5045 1.08704E+00
 -1      5046 1.08704E+00
 -1      5047 1.08704E+00
 -1      5048 1.04023E+00
 -1      5049 1.04023E+00
 -1      5050 1.04023E+00
 -1      5051 9.92142E-01
 -1      5052 9.92142E-01
 -1      5053 9.92142E-01
 -1      5054 9.42006E-01
 -1      5055 9.42006E-01
 -1      5056 9.42006E-01
 -1      5057 9.02037E-01
 -1      5058 9.02037E-01
 -1      5059 9.02037E-01
 -1      5060 8.61427E-01
 -1      5061 8.61427E-01
 -1      5062 8.61427E-01
 -1      5063 8.18998E-01
 -1      5064 8.18998E-01
 -1      5065 8.18998E-01
 -1      5066 7.85308E-01
 -1      5067 7.85308E-01
 -1      5068 7.85308E-01
 -1      5069 7.50993E-01
 -1      5070 7.50993E-01
 -1      5071 7.50993E-01
 -1      5072 7.15022E-01
 -1      5073 7.15022E-01
 -1      5074 7.15022E-01
 -1      5075 6.88108E-01
 -1      5076 6.88108E-01
 -1      5077 6.88108E-01
 -1      5078 6.58181E-01
 -1      5079 6.58181E-01
 -1      5080 6.58181E-01
 -1      5081 6.28523E-01
 -1      5082 6.28523E-01
 -1      5083 6.28523E-01
 -1      5084 6.06531E-01
 -1      5085 6.06531E-01
 -1      5086 6.06531E-01
 -1      5087 5.85987E-01
 -1      5088 5.85987E-01
 -1      5089 5.85987E-01
 -1      5090 5.74776E-01
 -1      5091 5.74776E-01
 -1      5092 5.74776E-01
 -1      5093 6.12865E-01
 -1      5094 6.12865E-01
 -1      5095 6.12865E-01
 -1      5096 5.47498E-01
 -1      5097 5.47498E-01
 -1      5098 5.47498E-01
 -1      5099 4.75236E-01
 -1      5100 4.75236E-01
 -1      5101 4.75236E-01
 -1      5102 2.89916E+00
 -1      5103 2.89916E+00
 -1      5104 2.89916E+00
 -1      5105 2.95061E+00
 -1      5106 2.95061E+00
 -1      5107 2.95061E+00
 -1      5108 2.92345E+00
 -1      5109 2.92345E+00
 -1      5110 2.92345E+00
 -1      5111 2.87651E+00
 -1      5112 2.87651E+00
 -1      5113 2.87651E+00
 -1      5114 2.85329E+00
 -1      5115 2.85329E+00
 -1      5116 2.85329E+00
 -1      5117 2.85087E+00
 -1      5118 2.85087E+00
 -1      5119 2.85087E+00
 -1      5120 2.85260E+00
 -1      5121 2.85260E+00
 -1      5122 2.85260E+00
 -1      5123 2.84940E+00
 -1      5124 2.84940E+00
 -1      5125 2.84940E+00
 -1      5126 2.84586E+00
 -1      5127 2.84586E+00
 -1      5128 2.84586E+00
 -1      5129 2.88567E+00
 -1      5130 2.88567E+00
 -1      5131 2.88567E+00
 -1      5132 2.95913E+00
 -1      5133 2.95913E+00
 -1      5134 2.95913E+00
 -1      5135 2.01003E+00
 -1      5136 2.01003E+00
 -1      5137 2.01003E+00
 -1      5138 2.97675E+00
 -1      5139 2.97675E+00
 -1      5140 2.97675E+00
 -1      5141 2.84621E+00
 -1      5142 2.84621E+00
 -1      5143 2.84621E+00
 -1      5144 2.25765E+00
 -1      5145 2.25765E+00
 -1      5146 2.25765E+00
 -1      5147 1.77485E+00
 -1      5148 1.77485E+00
 -1      5149 1.77485E+00
 -1      5150 1.56916E+00
 -1      5151 1.56916E+00
 -1      5152 1.56916E+00
 -1      5153 1.41044E+00
 -1      5154 1.41044E+00
 -1      5155 1.41044E+00
 -1      5156 1.26890E+00
 -1      5157 1.26890E+00
 -1      5158 1.26890E+00
 -1      5159 1.13873E+00
 -1      5160 1.13873E+00
 -1      5161 1.13873E+00
 -1      5162 1.03764E+00
 -1      5163 1.03764E+00
 -1      5164 1.03764E+00
 -1      5165 9.39159E-01
 -1      5166 9.39159E-01
 -1      5167 9.39159E-01
 -1      5168 8.59514E-01
 -1      5169 8.59514E-01
 -1      5170 8.59514E-01
 -1      5171 7.85692E-01
 -1      5172 7.85692E-01
 -1      5173 7.85692E-01
 -1      5174 7.16117E-01
 -1      5175 7.16117E-01
 -1      5176 7.16117E-01
 -1      5177 6.58323E-01
 -1      5178 6.58323E-01
 -1      5179 6.58323E-01
 -1      5180 6.05186E-01
 -1      5181 6.05186E-01
 -1      5182 6.05186E-01
 -1      5183 5.51057E-01
 -1      5184 5.51057E-01
 -1      5185 5.51057E-01
 -1      5186 5.70059E-01
 -1      5187 5.70059E-01
 -1      5188 5.70059E-01
 -1      5189 4.96880E-01
 -1      5190 4.96880E-01
 -1      5191 4.96880E-01
 -1      5192 4.23384E-01
 -1      5193 4.23384E-01
 -1      5194 4.23384E-01
 -1      5195 4.25128E-01
 -1      5196 4.25128E-01
 -1      5197 4.25128E-01
 -1      5198 4.25951E-01
 -1      5199 4.25951E-01
 -1      5200 4.25951E-01
 -1      5201 4.25500E-01
 -1      5202 4.25500E-01
 -1      5203 4.25500E-01
 -1      5204 4.23695E-01
 -1      5205 4.23695E-01
 -1      5206 4.23695E-01
 -1      5207 4.23523E-01
 -1      5208 4.23523E-01
 -1      5209 4.23523E-01
 -1      5210 4.23605E-01
 -1      5211 4.23605E-01
 -1      5212 4.23605E-01
 -1      5213 4.19896E-01
 -1      5214 4.19896E-01
 -1      5215 4.19896E-01
 -1      5216 4.30792E-01
 -1      5217 4.30792E-01
 -1      5218 4.30792E-01
 -1      5219 4.50318E-01
 -1      5220 4.50318E-01
 -1      5221 4.50318E-01
 -1      5222 2.71815E+00
 -1      5223 2.71815E+00
 -1      5224 2.71815E+00
 -1      5225 2.73349E+00
 -1      5226 2.73349E+00
 -1      5227 2.73349E+00
 -1      5228 2.84661E+00
 -1      5229 2.84661E+00
 -1      5230 2.84661E+00
 -1      5231 2.67339E+00
 -1      5232 2.67339E+00
 -1      5233 2.67339E+00
 -1      5234 2.65577E+00
 -1      5235 2.65577E+00
 -1      5236 2.65577E+00
 -1      5237 2.65665E+00
 -1      5238 2.65665E+00
 -1      5239 2.65665E+00
 -1      5240 2.65858E+00
 -1      5241 2.65858E+00
 -1      5242 2.65858E+00
 -1      5243 2.65763E+00
 -1      5244 2.65763E+00
 -1      5245 2.65763E+00
 -1      5246 2.65678E+00
 -1      5247 2.65678E+00
 -1      5248 2.65678E+00
 -1      5249 2.72382E+00
 -1      5250 2.72382E+00
 -1      5251 2.72382E+00
 -1      5252 2.81073E+00
 -1      5253 2.81073E+00
 -1      5254 2.81073E+00
 -1      5255 2.35311E+00
 -1      5256 2.35311E+00
 -1      5257 2.35311E+00
 -1      5258 1.52716E+00
 -1      5259 1.52716E+00
 -1      5260 1.52716E+00
 -1      5261 2.09836E+00
 -1      5262 2.09836E+00
 -1      5263 2.09836E+00
 -1      5264 1.83417E+00
 -1      5265 1.83417E+00
 -1      5266 1.83417E+00
 -1      5267 2.24603E+00
 -1      5268 2.24603E+00
 -1      5269 2.24603E+00
 -1      5270 2.84677E+00
 -1      5271 2.84677E+00
 -1      5272 2.84677E+00
 -1      5273 1.96030E+00
 -1      5274 1.96030E+00
 -1      5275 1.96030E+00
 -1      5276 4.76550E-01
 -1      5277 4.76550E-01
 -1      5278 4.76550E-01
 -1      5279 1.37038E+00
 -1      5280 1.37038E+00
 -1      5281 1.37038E+00
 -1      5282 1.23385E+00
 -1      5283 1.23385E+00
 -1      5284 1.23385E+00
 -1      5285 1.11322E+00
 -1      5286 1.11322E+00
 -1      5287 1.11322E+00
 -1      5288 1.01101E+00
 -1      5289 1.01101E+00
 -1      5290 1.01101E+00
 -1      5291 9.19788E-01
 -1      5292 9.19788E-01
 -1      5293 9.19788E-01
 -1      5294 8.39388E-01
 -1      5295 8.39388E-01
 -1      5296 8.39388E-01
 -1      5297 7.68942E-01
 -1      5298 7.68942E-01
 -1      5299 7.68942E-01
 -1      5300 7.03964E-01
 -1      5301 7.03964E-01
 -1      5302 7.03964E-01
 -1      5303 6.45825E-01
 -1      5304 6.45825E-01
 -1      5305 6.45825E-01
 -1      5306 5.78571E-01
 -1      5307 5.78571E-01
 -1      5308 5.78571E-01
 -1      5309 5.38813E-01
 -1      5310 5.38813E-01
 -1      5311 5.38813E-01
 -1      5312 5.72754E-01
 -1      5313 5.72754E-01
 -1      5314 5.72754E-01
 -1      5315 4.35290E-01
 -1      5316 4.35290E-01
 -1      5317 4.35290E-01
 -1      5318 4.42166E-01
 -1      5319 4.42166E-01
 -1      5320 4.42166E-01
 -1      5321 4.44656E-01
 -1      5322 4.44656E-01
 -1      5323 4.44656E-01
 -1      5324 4.42909E-01
 -1      5325 4.42909E-01
 -1      5326 4.42909E-01
 -1      5327 4.41972E-01
 -1      5328 4.41972E-01
 -1      5329 4.41972E-01
 -1      5330 4.38866E-01
 -1      5331 4.38866E-01
 -1      5332 4.38866E-01
 -1      5333 4.39865E-01
 -1      5334 4.39865E-01
 -1      5335 4.39865E-01
 -1      5336 4.40655E-01
 -1      5337 4.40655E-01
 -1      5338 4.40655E-01
 -1      5339 4.33557E-01
 -1      5340 4.33557E-01
 -1      5341 4.33557E-01
 -1      5342 4.57136E-01
 -1      5343 4.57136E-01
 -1      5344 4.57136E-01
 -1      5345 5.47498E-01
 -1      5346 5.47498E-01
 -1      5347 5.47498E-01
 -1      5348 2.84677E+00
 -1      5349 2.84677E+00
 -1      5350 2.84677E+00
 -1      5351 2.74085E+00
 -1      5352 2.74085E+00
 -1      5353 2.74085E+00
 -1      5354 2.72698E+00
 -1      5355 2.72698E+00
 -1      5356 2.72698E+00
 -1      5357 2.86255E+00
 -1      5358 2.86255E+00
 -1      5359 2.86255E+00
 -1      5360 2.86255E+00
 -1      5361 2.86255E+00
 -1      5362 2.86255E+00
 -1      5363 2.39703E+00
 -1      5364 2.39703E+00
 -1      5365 2.39703E+00
 -1      5366 2.22662E+00
 -1      5367 2.22662E+00
 -1      5368 2.22662E+00
 -1      5369 2.08344E+00
 -1      5370 2.08344E+00
 -1      5371 2.08344E+00
 -1      5372 1.95532E+00
 -1      5373 1.95532E+00
 -1      5374 1.95532E+00
 -1      5375 1.83757E+00
 -1      5376 1.83757E+00
 -1      5377 1.83757E+00
 -1      5378 1.72991E+00
 -1      5379 1.72991E+00
 -1      5380 1.72991E+00
 -1      5381 1.63026E+00
 -1      5382 1.63026E+00
 -1      5383 1.63026E+00
 -1      5384 1.53877E+00
 -1      5385 1.53877E+00
 -1      5386 1.53877E+00
 -1      5387 1.45540E+00
 -1      5388 1.45540E+00
 -1      5389 1.45540E+00
 -1      5390 1.37810E+00
 -1      5391 1.37810E+00
 -1      5392 1.37810E+00
 -1      5393 1.30642E+00
 -1      5394 1.30642E+00
 -1      5395 1.30642E+00
 -1      5396 1.24010E+00
 -1      5397 1.24010E+00
 -1      5398 1.24010E+00
 -1      5399 1.17758E+00
 -1      5400 1.17758E+00
 -1      5401 1.17758E+00
 -1      5402 1.11895E+00
 -1      5403 1.11895E+00
 -1      5404 1.11895E+00
 -1      5405 1.06581E+00
 -1      5406 1.06581E+00
 -1      5407 1.06581E+00
 -1      5408 1.01608E+00
 -1      5409 1.01608E+00
 -1      5410 1.01608E+00
 -1      5411 9.68675E-01
 -1      5412 9.68675E-01
 -1      5413 9.68675E-01
 -1      5414 9.23827E-01
 -1      5415 9.23827E-01
 -1      5416 9.23827E-01
 -1      5417 8.81667E-01
 -1      5418 8.81667E-01
 -1      5419 8.81667E-01
 -1      5420 8.41398E-01
 -1      5421 8.41398E-01
 -1      5422 8.41398E-01
 -1      5423 8.03221E-01
 -1      5424 8.03221E-01
 -1      5425 8.03221E-01
 -1      5426 7.67274E-01
 -1      5427 7.67274E-01
 -1      5428 7.67274E-01
 -1      5429 7.32878E-01
 -1      5430 7.32878E-01
 -1      5431 7.32878E-01
 -1      5432 7.00327E-01
 -1      5433 7.00327E-01
 -1      5434 7.00327E-01
 -1      5435 6.70034E-01
 -1      5436 6.70034E-01
 -1      5437 6.70034E-01
 -1      5438 6.41594E-01
 -1      5439 6.41594E-01
 -1      5440 6.41594E-01
 -1      5441 6.15599E-01
 -1      5442 6.15599E-01
 -1      5443 6.15599E-01
 -1      5444 5.93635E-01
 -1      5445 5.93635E-01
 -1      5446 5.93635E-01
 -1      5447 5.78170E-01
 -1      5448 5.78170E-01
 -1      5449 5.78170E-01
 -1      5450 6.14987E-01
 -1      5451 6.14987E-01
 -1      5452 6.14987E-01
 -1      5453 6.14987E-01
 -1      5454 6.14987E-01
 -1      5455 6.14987E-01
 -1      5456 1.61716E+00
 -1      5457 1.61716E+00
 -1      5458 1.61716E+00
 -1      5459 2.69422E+00
 -1      5460 2.69422E+00
 -1      5461 2.69422E+00
 -1      5462 2.84661E+00
 -1      5463 2.84661E+00
 -1      5464 2.84661E+00
 -1      5465 2.66150E+00
 -1      5466 2.66150E+00
 -1      5467 2.66150E+00
 -1      5468 2.65533E+00
 -1      5469 2.65533E+00
 -1      5470 2.65533E+00
 -1      5471 2.65813E+00
 -1      5472 2.65813E+00
 -1      5473 2.65813E+00
 -1      5474 2.66057E+00
 -1      5475 2.66057E+00
 -1      5476 2.66057E+00
 -1      5477 2.64821E+00
 -1      5478 2.64821E+00
 -1      5479 2.64821E+00
 -1      5480 2.68952E+00
 -1      5481 2.68952E+00
 -1      5482 2.68952E+00
 -1      5483 2.74013E+00
 -1      5484 2.74013E+00
 -1      5485 2.74013E+00
 -1      5486 1.71970E+00
 -1      5487 1.71970E+00
 -1      5488 1.71970E+00
 -1      5489 1.44605E+00
 -1      5490 1.44605E+00
 -1      5491 1.44605E+00
 -1      5492 1.29989E+00
 -1      5493 1.29989E+00
 -1      5494 1.29989E+00
 -1      5495 1.17152E+00
 -1      5496 1.17152E+00
 -1      5497 1.17152E+00
 -1      5498 1.06055E+00
 -1      5499 1.06055E+00
 -1      5500 1.06055E+00
 -1      5501 9.64033E-01
 -1      5502 9.64033E-01
 -1      5503 9.64033E-01
 -1      5504 8.78353E-01
 -1      5505 8.78353E-01
 -1      5506 8.78353E-01
 -1      5507 8.02387E-01
 -1      5508 8.02387E-01
 -1      5509 8.02387E-01
 -1      5510 7.35251E-01
 -1      5511 7.35251E-01
 -1      5512 7.35251E-01
 -1      5513 6.73902E-01
 -1      5514 6.73902E-01
 -1      5515 6.73902E-01
 -1      5516 6.13342E-01
 -1      5517 6.13342E-01
 -1      5518 6.13342E-01
 -1      5519 5.51057E-01
 -1      5520 5.51057E-01
 -1      5521 5.51057E-01
 -1      5522 5.72754E-01
 -1      5523 5.72754E-01
 -1      5524 5.72754E-01
 -1      5525 4.44960E-01
 -1      5526 4.44960E-01
 -1      5527 4.44960E-01
 -1      5528 4.44264E-01
 -1      5529 4.44264E-01
 -1      5530 4.44264E-01
 -1      5531 4.42908E-01
 -1      5532 4.42908E-01
 -1      5533 4.42908E-01
 -1      5534 4.40252E-01
 -1      5535 4.40252E-01
 -1      5536 4.40252E-01
 -1      5537 4.39633E-01
 -1      5538 4.39633E-01
 -1      5539 4.39633E-01
 -1      5540 4.41006E-01
 -1      5541 4.41006E-01
 -1      5542 4.41006E-01
 -1      5543 4.37305E-01
 -1      5544 4.37305E-01
 -1      5545 4.37305E-01
 -1      5546 4.30792E-01
 -1      5547 4.30792E-01
 -1      5548 4.30792E-01
 -1      5549 5.42936E-01
 -1      5550 5.42936E-01
 -1      5551 5.42936E-01
 -1      5552 1.48353E+00
 -1      5553 1.48353E+00
 -1      5554 1.48353E+00
 -1      5555 9.41529E-01
 -1      5556 9.41529E-01
 -1      5557 9.41529E-01
 -1      5558 2.58387E+00
 -1      5559 2.58387E+00
 -1      5560 2.58387E+00
 -1      5561 2.47940E+00
 -1      5562 2.47940E+00
 -1      5563 2.47940E+00
 -1      5564 2.47934E+00
 -1      5565 2.47934E+00
 -1      5566 2.47934E+00
 -1      5567 2.48162E+00
 -1      5568 2.48162E+00
 -1      5569 2.48162E+00
 -1      5570 4.56368E-01
 -1      5571 4.56368E-01
 -1      5572 4.56368E-01
 -1      5573 1.66085E+00
 -1      5574 1.66085E+00
 -1      5575 1.66085E+00
 -1      5576 2.48435E+00
 -1      5577 2.48435E+00
 -1      5578 2.48435E+00
 -1      5579 2.48669E+00
 -1      5580 2.48669E+00
 -1      5581 2.48669E+00
 -1      5582 2.56022E+00
 -1      5583 2.56022E+00
 -1      5584 2.56022E+00
 -1      5585 2.48142E+00
 -1      5586 2.48142E+00
 -1      5587 2.48142E+00
 -1      5588 2.56823E+00
 -1      5589 2.56823E+00
 -1      5590 2.56823E+00
 -1      5591 2.48803E+00
 -1      5592 2.48803E+00
 -1      5593 2.48803E+00
 -1      5594 4.61492E-01
 -1      5595 4.61492E-01
 -1      5596 4.61492E-01
 -1      5597 1.33413E+00
 -1      5598 1.33413E+00
 -1      5599 1.33413E+00
 -1      5600 1.77155E+00
 -1      5601 1.77155E+00
 -1      5602 1.77155E+00
 -1      5603 1.20198E+00
 -1      5604 1.20198E+00
 -1      5605 1.20198E+00
 -1      5606 1.08685E+00
 -1      5607 1.08685E+00
 -1      5608 1.08685E+00
 -1      5609 9.86842E-01
 -1      5610 9.86842E-01
 -1      5611 9.86842E-01
 -1      5612 8.58913E-01
 -1      5613 8.58913E-01
 -1      5614 8.58913E-01
 -1      5615 7.86949E-01
 -1      5616 7.86949E-01
 -1      5617 7.86949E-01
 -1      5618 7.22715E-01
 -1      5619 7.22715E-01
 -1      5620 7.22715E-01
 -1      5621 4.69846E-01
 -1      5622 4.69846E-01
 -1      5623 4.69846E-01
 -1      5624 6.39535E-01
 -1      5625 6.39535E-01
 -1      5626 6.39535E-01
 -1      5627 6.22705E-01
 -1      5628 6.22705E-01
 -1      5629 6.22705E-01
 -1      5630 2.68240E+00
 -1      5631 2.68240E+00
 -1      5632 2.68240E+00
 -1      5633 4.45260E-01
 -1      5634 4.45260E-01
 -1      5635 4.45260E-01
 -1      5636 6.65117E-01
 -1      5637 6.65117E-01
 -1      5638 6.65117E-01
 -1      5639 4.63495E-01
 -1      5640 4.63495E-01
 -1      5641 4.63495E-01
 -1      5642 4.63387E-01
 -1      5643 4.63387E-01
 -1      5644 4.63387E-01
 -1      5645 4.75152E-01
 -1      5646 4.75152E-01
 -1      5647 4.75152E-01
 -1      5648 5.72754E-01
 -1      5649 5.72754E-01
 -1      5650 5.72754E-01
 -1      5651 4.56193E-01
 -1      5652 4.56193E-01
 -1      5653 4.56193E-01
 -1      5654 2.48819E+00
 -1      5655 2.48819E+00
 -1      5656 2.48819E+00
 -1      5657 4.58341E-01
 -1      5658 4.58341E-01
 -1      5659 4.58341E-01
 -1      5660 4.60667E-01
 -1      5661 4.60667E-01
 -1      5662 4.60667E-01
 -1      5663 4.52074E-01
 -1      5664 4.52074E-01
 -1      5665 4.52074E-01
 -1      5666 2.72253E+00
 -1      5667 2.72253E+00
 -1      5668 2.72253E+00
 -1      5669 2.50583E+00
 -1      5670 2.50583E+00
 -1      5671 2.50583E+00
 -1      5672 2.68240E+00
 -1      5673 2.68240E+00
 -1      5674 2.68240E+00
 -1      5675 2.85453E+00
 -1      5676 2.85453E+00
 -1      5677 2.85453E+00
 -1      5678 2.69197E+00
 -1      5679 2.69197E+00
 -1      5680 2.69197E+00
 -1      5681 2.29206E+00
 -1      5682 2.29206E+00
 -1      5683 2.29206E+00
 -1      5684 2.15085E+00
 -1      5685 2.15085E+00
 -1      5686 2.15085E+00
 -1      5687 2.02398E+00
 -1      5688 2.02398E+00
 -1      5689 2.02398E+00
 -1      5690 1.90234E+00
 -1      5691 1.90234E+00
 -1      5692 1.90234E+00
 -1      5693 1.78789E+00
 -1      5694 1.78789E+00
 -1      5695 1.78789E+00
 -1      5696 1.68200E+00
 -1      5697 1.68200E+00
 -1      5698 1.68200E+00
 -1      5699 1.58512E+00
 -1      5700 1.58512E+00
 -1      5701 1.58512E+00
 -1      5702 1.49680E+00
 -1      5703 1.49680E+00
 -1      5704 1.49680E+00
 -1      5705 1.41622E+00
 -1      5706 1.41622E+00
 -1      5707 1.41622E+00
 -1      5708 1.34209E+00
 -1      5709 1.34209E+00
 -1      5710 1.34209E+00
 -1      5711 1.27318E+00
 -1      5712 1.27318E+00
 -1      5713 1.27318E+00
 -1      5714 1.20898E+00
 -1      5715 1.20898E+00
 -1      5716 1.20898E+00
 -1      5717 1.14911E+00
 -1      5718 1.14911E+00
 -1      5719 1.14911E+00
 -1      5720 1.09339E+00
 -1      5721 1.09339E+00
 -1      5722 1.09339E+00
 -1      5723 1.04145E+00
 -1      5724 1.04145E+00
 -1      5725 1.04145E+00
 -1      5726 9.92721E-01
 -1      5727 9.92721E-01
 -1      5728 9.92721E-01
 -1      5729 9.46721E-01
 -1      5730 9.46721E-01
 -1      5731 9.46721E-01
 -1      5732 9.02991E-01
 -1      5733 9.02991E-01
 -1      5734 9.02991E-01
 -1      5735 8.61554E-01
 -1      5736 8.61554E-01
 -1      5737 8.61554E-01
 -1      5738 8.22267E-01
 -1      5739 8.22267E-01
 -1      5740 8.22267E-01
 -1      5741 7.84729E-01
 -1      5742 7.84729E-01
 -1      5743 7.84729E-01
 -1      5744 7.48842E-01
 -1      5745 7.48842E-01
 -1      5746 7.48842E-01
 -1      5747 7.14572E-01
 -1      5748 7.14572E-01
 -1      5749 7.14572E-01
 -1      5750 6.81987E-01
 -1      5751 6.81987E-01
 -1      5752 6.81987E-01
 -1      5753 6.51467E-01
 -1      5754 6.51467E-01
 -1      5755 6.51467E-01
 -1      5756 6.22879E-01
 -1      5757 6.22879E-01
 -1      5758 6.22879E-01
 -1      5759 5.96218E-01
 -1      5760 5.96218E-01
 -1      5761 5.96218E-01
 -1      5762 5.78170E-01
 -1      5763 5.78170E-01
 -1      5764 5.78170E-01
 -1      5765 5.76574E-01
 -1      5766 5.76574E-01
 -1      5767 5.76574E-01
 -1      5768 6.14987E-01
 -1      5769 6.14987E-01
 -1      5770 6.14987E-01
 -1      5771 1.56578E+00
 -1      5772 1.56578E+00
 -1      5773 1.56578E+00
 -1      5774 2.54227E+00
 -1      5775 2.54227E+00
 -1      5776 2.54227E+00
 -1      5777 5.86463E-01
 -1      5778 5.86463E-01
 -1      5779 5.86463E-01
 -1      5780 4.76550E-01
 -1      5781 4.76550E-01
 -1      5782 4.76550E-01
 -1      5783 5.12629E-01
 -1      5784 5.12629E-01
 -1      5785 5.12629E-01
 -1      5786 7.53642E-01
 -1      5787 7.53642E-01
 -1      5788 7.53642E-01
 -1      5789 2.47700E+00
 -1      5790 2.47700E+00
 -1      5791 2.47700E+00
 -1      5792 2.48300E+00
 -1      5793 2.48300E+00
 -1      5794 2.48300E+00
 -1      5795 2.45906E+00
 -1      5796 2.45906E+00
 -1      5797 2.45906E+00
 -1      5798 2.67334E+00
 -1      5799 2.67334E+00
 -1      5800 2.67334E+00
 -1      5801 1.90662E+00
 -1      5802 1.90662E+00
 -1      5803 1.90662E+00
 -1      5804 2.06144E+00
 -1      5805 2.06144E+00
 -1      5806 2.06144E+00
 -1      5807 1.40651E+00
 -1      5808 1.40651E+00
 -1      5809 1.40651E+00
 -1      5810 1.14228E+00
 -1      5811 1.14228E+00
 -1      5812 1.14228E+00
 -1      5813 1.26586E+00
 -1      5814 1.26586E+00
 -1      5815 1.26586E+00
 -1      5816 1.03523E+00
 -1      5817 1.03523E+00
 -1      5818 1.03523E+00
 -1      5819 8.20926E-01
 -1      5820 8.20926E-01
 -1      5821 8.20926E-01
 -1      5822 8.98693E-01
 -1      5823 8.98693E-01
 -1      5824 8.98693E-01
 -1      5825 6.91796E-01
 -1      5826 6.91796E-01
 -1      5827 6.91796E-01
 -1      5828 6.25966E-01
 -1      5829 6.25966E-01
 -1      5830 6.25966E-01
 -1      5831 5.32228E-01
 -1      5832 5.32228E-01
 -1      5833 5.32228E-01
 -1      5834 2.57829E+00
 -1      5835 2.57829E+00
 -1      5836 2.57829E+00
 -1      5837 4.65447E-01
 -1      5838 4.65447E-01
 -1      5839 4.65447E-01
 -1      5840 4.58665E-01
 -1      5841 4.58665E-01
 -1      5842 4.58665E-01
 -1      5843 4.58347E-01
 -1      5844 4.58347E-01
 -1      5845 4.58347E-01
 -1      5846 4.61284E-01
 -1      5847 4.61284E-01
 -1      5848 4.61284E-01
 -1      5849 4.49856E-01
 -1      5850 4.49856E-01
 -1      5851 4.49856E-01
 -1      5852 4.57136E-01
 -1      5853 4.57136E-01
 -1      5854 4.57136E-01
 -1      5855 2.64000E+00
 -1      5856 2.64000E+00
 -1      5857 2.64000E+00
 -1      5858 2.24701E+00
 -1      5859 2.24701E+00
 -1      5860 2.24701E+00
 -1      5861 9.63715E-01
 -1      5862 9.63715E-01
 -1      5863 9.63715E-01
 -1      5864 4.80195E-01
 -1      5865 4.80195E-01
 -1      5866 4.80195E-01
 -1      5867 2.31730E+00
 -1      5868 2.31730E+00
 -1      5869 2.31730E+00
 -1      5870 2.28991E+00
 -1      5871 2.28991E+00
 -1      5872 2.28991E+00
 -1      5873 1.06049E+00
 -1      5874 1.06049E+00
 -1      5875 1.06049E+00
 -1      5876 1.01043E+00
 -1      5877 1.01043E+00
 -1      5878 1.01043E+00
 -1      5879 5.13704E-01
 -1      5880 5.13704E-01
 -1      5881 5.13704E-01
 -1      5882 4.89527E-01
 -1      5883 4.89527E-01
 -1      5884 4.89527E-01
 -1      5885 2.32696E+00
 -1      5886 2.32696E+00
 -1      5887 2.32696E+00
 -1      5888 2.33639E+00
 -1      5889 2.33639E+00
 -1      5890 2.33639E+00
 -1      5891 2.32177E+00
 -1      5892 2.32177E+00
 -1      5893 2.32177E+00
 -1      5894 1.69790E+00
 -1      5895 1.69790E+00
 -1      5896 1.69790E+00
 -1      5897 4.76529E-01
 -1      5898 4.76529E-01
 -1      5899 4.76529E-01
 -1      5900 2.37144E+00
 -1      5901 2.37144E+00
 -1      5902 2.37144E+00
 -1      5903 1.36962E+00
 -1      5904 1.36962E+00
 -1      5905 1.36962E+00
 -1      5906 1.23340E+00
 -1      5907 1.23340E+00
 -1      5908 1.23340E+00
 -1      5909 4.83122E-01
 -1      5910 4.83122E-01
 -1      5911 4.83122E-01
 -1      5912 2.32324E+00
 -1      5913 2.32324E+00
 -1      5914 2.32324E+00
 -1      5915 5.06325E-01
 -1      5916 5.06325E-01
 -1      5917 5.06325E-01
 -1      5918 1.29927E+00
 -1      5919 1.29927E+00
 -1      5920 1.29927E+00
 -1      5921 6.44200E-01
 -1      5922 6.44200E-01
 -1      5923 6.44200E-01
 -1      5924 1.11417E+00
 -1      5925 1.11417E+00
 -1      5926 1.11417E+00
 -1      5927 8.78559E-01
 -1      5928 8.78559E-01
 -1      5929 8.78559E-01
 -1      5930 8.04236E-01
 -1      5931 8.04236E-01
 -1      5932 8.04236E-01
 -1      5933 7.42367E-01
 -1      5934 7.42367E-01
 -1      5935 7.42367E-01
 -1      5936 2.68423E+00
 -1      5937 2.68423E+00
 -1      5938 2.68423E+00
 -1      5939 2.42881E+00
 -1      5940 2.42881E+00
 -1      5941 2.42881E+00
 -1      5942 5.68627E-01
 -1      5943 5.68627E-01
 -1      5944 5.68627E-01
 -1      5945 5.09027E-01
 -1      5946 5.09027E-01
 -1      5947 5.09027E-01
 -1      5948 4.87973E-01
 -1      5949 4.87973E-01
 -1      5950 4.87973E-01
 -1      5951 1.17151E+00
 -1      5952 1.17151E+00
 -1      5953 1.17151E+00
 -1      5954 6.22705E-01
 -1      5955 6.22705E-01
 -1      5956 6.22705E-01
 -1      5957 6.42695E-01
 -1      5958 6.42695E-01
 -1      5959 6.42695E-01
 -1      5960 4.85662E-01
 -1      5961 4.85662E-01
 -1      5962 4.85662E-01
 -1      5963 4.88984E-01
 -1      5964 4.88984E-01
 -1      5965 4.88984E-01
 -1      5966 2.33540E+00
 -1      5967 2.33540E+00
 -1      5968 2.33540E+00
 -1      5969 1.44333E+00
 -1      5970 1.44333E+00
 -1      5971 1.44333E+00
 -1      5972 5.63628E-01
 -1      5973 5.63628E-01
 -1      5974 5.63628E-01
 -1      5975 4.72865E-01
 -1      5976 4.72865E-01
 -1      5977 4.72865E-01
 -1      5978 2.33789E+00
 -1      5979 2.33789E+00
 -1      5980 2.33789E+00
 -1      5981 4.80715E-01
 -1      5982 4.80715E-01
 -1      5983 4.80715E-01
 -1      5984 4.85177E-01
 -1      5985 4.85177E-01
 -1      5986 4.85177E-01
 -1      5987 2.70160E+00
 -1      5988 2.70160E+00
 -1      5989 2.70160E+00
 -1      5990 2.84677E+00
 -1      5991 2.84677E+00
 -1      5992 2.84677E+00
 -1      5993 7.70992E-01
 -1      5994 7.70992E-01
 -1      5995 7.70992E-01
 -1      5996 2.69197E+00
 -1      5997 2.69197E+00
 -1      5998 2.69197E+00
 -1      5999 2.26339E+00
 -1      6000 2.26339E+00
 -1      6001 2.26339E+00
 -1      6002 2.10205E+00
 -1      6003 2.10205E+00
 -1      6004 2.10205E+00
 -1      6005 1.97422E+00
 -1      6006 1.97422E+00
 -1      6007 1.97422E+00
 -1      6008 1.85171E+00
 -1      6009 1.85171E+00
 -1      6010 1.85171E+00
 -1      6011 1.73743E+00
 -1      6012 1.73743E+00
 -1      6013 1.73743E+00
 -1      6014 1.63326E+00
 -1      6015 1.63326E+00
 -1      6016 1.63326E+00
 -1      6017 1.53933E+00
 -1      6018 1.53933E+00
 -1      6019 1.53933E+00
 -1      6020 1.45457E+00
 -1      6021 1.45457E+00
 -1      6022 1.45457E+00
 -1      6023 1.37749E+00
 -1      6024 1.37749E+00
 -1      6025 1.37749E+00
 -1      6026 1.30645E+00
 -1      6027 1.30645E+00
 -1      6028 1.30645E+00
 -1      6029 1.24028E+00
 -1      6030 1.24028E+00
 -1      6031 1.24028E+00
 -1      6032 1.17855E+00
 -1      6033 1.17855E+00
 -1      6034 1.17855E+00
 -1      6035 1.12103E+00
 -1      6036 1.12103E+00
 -1      6037 1.12103E+00
 -1      6038 1.06732E+00
 -1      6039 1.06732E+00
 -1      6040 1.06732E+00
 -1      6041 1.01700E+00
 -1      6042 1.01700E+00
 -1      6043 1.01700E+00
 -1      6044 9.69569E-01
 -1      6045 9.69569E-01
 -1      6046 9.69569E-01
 -1      6047 9.24539E-01
 -1      6048 9.24539E-01
 -1      6049 9.24539E-01
 -1      6050 8.81806E-01
 -1      6051 8.81806E-01
 -1      6052 8.81806E-01
 -1      6053 8.41349E-01
 -1      6054 8.41349E-01
 -1      6055 8.41349E-01
 -1      6056 8.02681E-01
 -1      6057 8.02681E-01
 -1      6058 8.02681E-01
 -1      6059 7.65279E-01
 -1      6060 7.65279E-01
 -1      6061 7.65279E-01
 -1      6062 7.29003E-01
 -1      6063 7.29003E-01
 -1      6064 7.29003E-01
 -1      6065 6.93916E-01
 -1      6066 6.93916E-01
 -1      6067 6.93916E-01
 -1      6068 6.60232E-01
 -1      6069 6.60232E-01
 -1      6070 6.60232E-01
 -1      6071 6.29111E-01
 -1      6072 6.29111E-01
 -1      6073 6.29111E-01
 -1      6074 5.99150E-01
 -1      6075 5.99150E-01
 -1      6076 5.99150E-01
 -1      6077 5.73325E-01
 -1      6078 5.73325E-01
 -1      6079 5.73325E-01
 -1      6080 5.56848E-01
 -1      6081 5.56848E-01
 -1      6082 5.56848E-01
 -1      6083 5.50468E-01
 -1      6084 5.50468E-01
 -1      6085 5.50468E-01
 -1      6086 5.90214E-01
 -1      6087 5.90214E-01
 -1      6088 5.90214E-01
 -1      6089 6.57025E-01
 -1      6090 6.57025E-01
 -1      6091 6.57025E-01
 -1      6092 2.69197E+00
 -1      6093 2.69197E+00
 -1      6094 2.69197E+00
 -1      6095 6.83580E-01
 -1      6096 6.83580E-01
 -1      6097 6.83580E-01
 -1      6098 2.32353E+00
 -1      6099 2.32353E+00
 -1      6100 2.32353E+00
 -1      6101 4.74613E-01
 -1      6102 4.74613E-01
 -1      6103 4.74613E-01
 -1      6104 1.60181E+00
 -1      6105 1.60181E+00
 -1      6106 1.60181E+00
 -1      6107 2.70160E+00
 -1      6108 2.70160E+00
 -1      6109 2.70160E+00
 -1      6110 2.32324E+00
 -1      6111 2.32324E+00
 -1      6112 2.32324E+00
 -1      6113 1.98057E+00
 -1      6114 1.98057E+00
 -1      6115 1.98057E+00
 -1      6116 8.40081E-01
 -1      6117 8.40081E-01
 -1      6118 8.40081E-01
 -1      6119 9.19828E-01
 -1      6120 9.19828E-01
 -1      6121 9.19828E-01
 -1      6122 2.70160E+00
 -1      6123 2.70160E+00
 -1      6124 2.70160E+00
 -1      6125 2.32036E+00
 -1      6126 2.32036E+00
 -1      6127 2.32036E+00
 -1      6128 4.88894E-01
 -1      6129 4.88894E-01
 -1      6130 4.88894E-01
 -1      6131 2.68423E+00
 -1      6132 2.68423E+00
 -1      6133 2.68423E+00
 -1      6134 1.51825E+00
 -1      6135 1.51825E+00
 -1      6136 1.51825E+00
 -1      6137 2.20817E+00
 -1      6138 2.20817E+00
 -1      6139 2.20817E+00
 -1      6140 4.73493E-01
 -1      6141 4.73493E-01
 -1      6142 4.73493E-01
 -1      6143 1.82276E+00
 -1      6144 1.82276E+00
 -1      6145 1.82276E+00
 -1      6146 7.14345E-01
 -1      6147 7.14345E-01
 -1      6148 7.14345E-01
 -1      6149 2.67334E+00
 -1      6150 2.67334E+00
 -1      6151 2.67334E+00
 -1      6152 2.30529E+00
 -1      6153 2.30529E+00
 -1      6154 2.30529E+00
 -1      6155 4.90036E-01
 -1      6156 4.90036E-01
 -1      6157 4.90036E-01
 -1      6158 5.13704E-01
 -1      6159 5.13704E-01
 -1      6160 5.13704E-01
 -1      6161 2.18294E+00
 -1      6162 2.18294E+00
 -1      6163 2.18294E+00
 -1      6164 7.08293E-01
 -1      6165 7.08293E-01
 -1      6166 7.08293E-01
 -1      6167 5.00696E-01
 -1      6168 5.00696E-01
 -1      6169 5.00696E-01
 -1      6170 2.17357E+00
 -1      6171 2.17357E+00
 -1      6172 2.17357E+00
 -1      6173 2.47480E+00
 -1      6174 2.47480E+00
 -1      6175 2.47480E+00
 -1      6176 2.18029E+00
 -1      6177 2.18029E+00
 -1      6178 2.18029E+00
 -1      6179 7.33863E-01
 -1      6180 7.33863E-01
 -1      6181 7.33863E-01
 -1      6182 6.30631E-01
 -1      6183 6.30631E-01
 -1      6184 6.30631E-01
 -1      6185 1.08674E+00
 -1      6186 1.08674E+00
 -1      6187 1.08674E+00
 -1      6188 2.68435E+00
 -1      6189 2.68435E+00
 -1      6190 2.68435E+00
 -1      6191 9.41060E-01
 -1      6192 9.41060E-01
 -1      6193 9.41060E-01
 -1      6194 6.44200E-01
 -1      6195 6.44200E-01
 -1      6196 6.44200E-01
 -1      6197 5.90214E-01
 -1      6198 5.90214E-01
 -1      6199 5.90214E-01
 -1      6200 8.59222E-01
 -1      6201 8.59222E-01
 -1      6202 8.59222E-01
 -1      6203 4.96598E-01
 -1      6204 4.96598E-01
 -1      6205 4.96598E-01
 -1      6206 8.98574E-01
 -1      6207 8.98574E-01
 -1      6208 8.98574E-01
 -1      6209 5.19387E-01
 -1      6210 5.19387E-01
 -1      6211 5.19387E-01
 -1      6212 5.25748E-01
 -1      6213 5.25748E-01
 -1      6214 5.25748E-01
 -1      6215 2.17704E+00
 -1      6216 2.17704E+00
 -1      6217 2.17704E+00
 -1      6218 6.44200E-01
 -1      6219 6.44200E-01
 -1      6220 6.44200E-01
 -1      6221 2.29141E+00
 -1      6222 2.29141E+00
 -1      6223 2.29141E+00
 -1      6224 5.05792E-01
 -1      6225 5.05792E-01
 -1      6226 5.05792E-01
 -1      6227 5.18779E-01
 -1      6228 5.18779E-01
 -1      6229 5.18779E-01
 -1      6230 2.18046E+00
 -1      6231 2.18046E+00
 -1      6232 2.18046E+00
 -1      6233 1.40709E+00
 -1      6234 1.40709E+00
 -1      6235 1.40709E+00
 -1      6236 5.29893E-01
 -1      6237 5.29893E-01
 -1      6238 5.29893E-01
 -1      6239 4.93690E-01
 -1      6240 4.93690E-01
 -1      6241 4.93690E-01
 -1      6242 2.21158E+00
 -1      6243 2.21158E+00
 -1      6244 2.21158E+00
 -1      6245 5.18439E-01
 -1      6246 5.18439E-01
 -1      6247 5.18439E-01
 -1      6248 5.35967E-01
 -1      6249 5.35967E-01
 -1      6250 5.35967E-01
 -1      6251 2.52648E+00
 -1      6252 2.52648E+00
 -1      6253 2.52648E+00
 -1      6254 2.66772E+00
 -1      6255 2.66772E+00
 -1      6256 2.66772E+00
 -1      6257 2.21684E+00
 -1      6258 2.21684E+00
 -1      6259 2.21684E+00
 -1      6260 2.05828E+00
 -1      6261 2.05828E+00
 -1      6262 2.05828E+00
 -1      6263 1.92155E+00
 -1      6264 1.92155E+00
 -1      6265 1.92155E+00
 -1      6266 1.79551E+00
 -1      6267 1.79551E+00
 -1      6268 1.79551E+00
 -1      6269 1.68235E+00
 -1      6270 1.68235E+00
 -1      6271 1.68235E+00
 -1      6272 1.58159E+00
 -1      6273 1.58159E+00
 -1      6274 1.58159E+00
 -1      6275 1.49194E+00
 -1      6276 1.49194E+00
 -1      6277 1.49194E+00
 -1      6278 1.41164E+00
 -1      6279 1.41164E+00
 -1      6280 1.41164E+00
 -1      6281 1.33861E+00
 -1      6282 1.33861E+00
 -1      6283 1.33861E+00
 -1      6284 1.27075E+00
 -1      6285 1.27075E+00
 -1      6286 1.27075E+00
 -1      6287 1.20721E+00
 -1      6288 1.20721E+00
 -1      6289 1.20721E+00
 -1      6290 1.14787E+00
 -1      6291 1.14787E+00
 -1      6292 1.14787E+00
 -1      6293 1.09254E+00
 -1      6294 1.09254E+00
 -1      6295 1.09254E+00
 -1      6296 1.04076E+00
 -1      6297 1.04076E+00
 -1      6298 1.04076E+00
 -1      6299 9.91921E-01
 -1      6300 9.91921E-01
 -1      6301 9.91921E-01
 -1      6302 9.45533E-01
 -1      6303 9.45533E-01
 -1      6304 9.45533E-01
 -1      6305 9.01520E-01
 -1      6306 9.01520E-01
 -1      6307 9.01520E-01
 -1      6308 8.59944E-01
 -1      6309 8.59944E-01
 -1      6310 8.59944E-01
 -1      6311 8.20428E-01
 -1      6312 8.20428E-01
 -1      6313 8.20428E-01
 -1      6314 7.82079E-01
 -1      6315 7.82079E-01
 -1      6316 7.82079E-01
 -1      6317 7.44093E-01
 -1      6318 7.44093E-01
 -1      6319 7.44093E-01
 -1      6320 7.06610E-01
 -1      6321 7.06610E-01
 -1      6322 7.06610E-01
 -1      6323 6.69793E-01
 -1      6324 6.69793E-01
 -1      6325 6.69793E-01
 -1      6326 6.33364E-01
 -1      6327 6.33364E-01
 -1      6328 6.33364E-01
 -1      6329 6.02259E-01
 -1      6330 6.02259E-01
 -1      6331 6.02259E-01
 -1      6332 5.70063E-01
 -1      6333 5.70063E-01
 -1      6334 5.70063E-01
 -1      6335 5.41625E-01
 -1      6336 5.41625E-01
 -1      6337 5.41625E-01
 -1      6338 6.52568E-01
 -1      6339 6.52568E-01
 -1      6340 6.52568E-01
 -1      6341 2.18657E+00
 -1      6342 2.18657E+00
 -1      6343 2.18657E+00
 -1      6344 5.29763E-01
 -1      6345 5.29763E-01
 -1      6346 5.29763E-01
 -1      6347 5.74969E-01
 -1      6348 5.74969E-01
 -1      6349 5.74969E-01
 -1      6350 2.59832E+00
 -1      6351 2.59832E+00
 -1      6352 2.59832E+00
 -1      6353 2.18204E+00
 -1      6354 2.18204E+00
 -1      6355 2.18204E+00
 -1      6356 1.20176E+00
 -1      6357 1.20176E+00
 -1      6358 1.20176E+00
 -1      6359 6.77654E-01
 -1      6360 6.77654E-01
 -1      6361 6.77654E-01
 -1      6362 2.17926E+00
 -1      6363 2.17926E+00
 -1      6364 2.17926E+00
 -1      6365 1.85203E+00
 -1      6366 1.85203E+00
 -1      6367 1.85203E+00
 -1      6368 2.20979E+00
 -1      6369 2.20979E+00
 -1      6370 2.20979E+00
 -1      6371 8.22291E-01
 -1      6372 8.22291E-01
 -1      6373 8.22291E-01
 -1      6374 1.26579E+00
 -1      6375 1.26579E+00
 -1      6376 1.26579E+00
 -1      6377 2.40801E+00
 -1      6378 2.40801E+00
 -1      6379 2.40801E+00
 -1      6380 1.62612E+00
 -1      6381 1.62612E+00
 -1      6382 1.62612E+00
 -1      6383 1.14209E+00
 -1      6384 1.14209E+00
 -1      6385 1.14209E+00
 -1      6386 9.86397E-01
 -1      6387 9.86397E-01
 -1      6388 9.86397E-01
 -1      6389 1.33434E+00
 -1      6390 1.33434E+00
 -1      6391 1.33434E+00
 -1      6392 5.10489E-01
 -1      6393 5.10489E-01
 -1      6394 5.10489E-01
 -1      6395 1.47945E+00
 -1      6396 1.47945E+00
 -1      6397 1.47945E+00
 -1      6398 5.73962E-01
 -1      6399 5.73962E-01
 -1      6400 5.73962E-01
 -1      6401 2.01591E+00
 -1      6402 2.01591E+00
 -1      6403 2.01591E+00
 -1      6404 5.68627E-01
 -1      6405 5.68627E-01
 -1      6406 5.68627E-01
 -1      6407 7.60252E-01
 -1      6408 7.60252E-01
 -1      6409 7.60252E-01
 -1      6410 2.66269E+00
 -1      6411 2.66269E+00
 -1      6412 2.66269E+00
 -1      6413 7.88278E-01
 -1      6414 7.88278E-01
 -1      6415 7.88278E-01
 -1      6416 1.03493E+00
 -1      6417 1.03493E+00
 -1      6418 1.03493E+00
 -1      6419 5.30991E-01
 -1      6420 5.30991E-01
 -1      6421 5.30991E-01
 -1      6422 1.55178E+00
 -1      6423 1.55178E+00
 -1      6424 1.55178E+00
 -1      6425 2.05052E+00
 -1      6426 2.05052E+00
 -1      6427 2.05052E+00
 -1      6428 2.66772E+00
 -1      6429 2.66772E+00
 -1      6430 2.66772E+00
 -1      6431 5.21099E-01
 -1      6432 5.21099E-01
 -1      6433 5.21099E-01
 -1      6434 2.04678E+00
 -1      6435 2.04678E+00
 -1      6436 2.04678E+00
 -1      6437 7.16437E-01
 -1      6438 7.16437E-01
 -1      6439 7.16437E-01
 -1      6440 2.31040E+00
 -1      6441 2.31040E+00
 -1      6442 2.31040E+00
 -1      6443 6.30631E-01
 -1      6444 6.30631E-01
 -1      6445 6.30631E-01
 -1      6446 1.71770E+00
 -1      6447 1.71770E+00
 -1      6448 1.71770E+00
 -1      6449 5.65320E-01
 -1      6450 5.65320E-01
 -1      6451 5.65320E-01
 -1      6452 2.68423E+00
 -1      6453 2.68423E+00
 -1      6454 2.68423E+00
 -1      6455 5.70731E-01
 -1      6456 5.70731E-01
 -1      6457 5.70731E-01
 -1      6458 2.21192E+00
 -1      6459 2.21192E+00
 -1      6460 2.21192E+00
 -1      6461 5.10995E-01
 -1      6462 5.10995E-01
 -1      6463 5.10995E-01
 -1      6464 1.63725E+00
 -1      6465 1.63725E+00
 -1      6466 1.63725E+00
 -1      6467 1.06032E+00
 -1      6468 1.06032E+00
 -1      6469 1.06032E+00
 -1      6470 6.43071E-01
 -1      6471 6.43071E-01
 -1      6472 6.43071E-01
 -1      6473 5.76789E-01
 -1      6474 5.76789E-01
 -1      6475 5.76789E-01
 -1      6476 5.42152E-01
 -1      6477 5.42152E-01
 -1      6478 5.42152E-01
 -1      6479 2.04109E+00
 -1      6480 2.04109E+00
 -1      6481 2.04109E+00
 -1      6482 8.40203E-01
 -1      6483 8.40203E-01
 -1      6484 8.40203E-01
 -1      6485 5.20767E-01
 -1      6486 5.20767E-01
 -1      6487 5.20767E-01
 -1      6488 2.09811E+00
 -1      6489 2.09811E+00
 -1      6490 2.09811E+00
 -1      6491 6.52642E-01
 -1      6492 6.52642E-01
 -1      6493 6.52642E-01
 -1      6494 2.05720E+00
 -1      6495 2.05720E+00
 -1      6496 2.05720E+00
 -1      6497 2.28707E+00
 -1      6498 2.28707E+00
 -1      6499 2.28707E+00
 -1      6500 2.13043E+00
 -1      6501 2.13043E+00
 -1      6502 2.13043E+00
 -1      6503 7.32785E-01
 -1      6504 7.32785E-01
 -1      6505 7.32785E-01
 -1      6506 2.20192E+00
 -1      6507 2.20192E+00
 -1      6508 2.20192E+00
 -1      6509 1.99717E+00
 -1      6510 1.99717E+00
 -1      6511 1.99717E+00
 -1      6512 1.85176E+00
 -1      6513 1.85176E+00
 -1      6514 1.85176E+00
 -1      6515 1.72927E+00
 -1      6516 1.72927E+00
 -1      6517 1.72927E+00
 -1      6518 1.62167E+00
 -1      6519 1.62167E+00
 -1      6520 1.62167E+00
 -1      6521 1.52655E+00
 -1      6522 1.52655E+00
 -1      6523 1.52655E+00
 -1      6524 1.44266E+00
 -1      6525 1.44266E+00
 -1      6526 1.44266E+00
 -1      6527 1.36822E+00
 -1      6528 1.36822E+00
 -1      6529 1.36822E+00
 -1      6530 1.29929E+00
 -1      6531 1.29929E+00
 -1      6532 1.29929E+00
 -1      6533 1.23421E+00
 -1      6534 1.23421E+00
 -1      6535 1.23421E+00
 -1      6536 1.17304E+00
 -1      6537 1.17304E+00
 -1      6538 1.17304E+00
 -1      6539 1.11606E+00
 -1      6540 1.11606E+00
 -1      6541 1.11606E+00
 -1      6542 1.06296E+00
 -1      6543 1.06296E+00
 -1      6544 1.06296E+00
 -1      6545 1.01297E+00
 -1      6546 1.01297E+00
 -1      6547 1.01297E+00
 -1      6548 9.65365E-01
 -1      6549 9.65365E-01
 -1      6550 9.65365E-01
 -1      6551 9.20049E-01
 -1      6552 9.20049E-01
 -1      6553 9.20049E-01
 -1      6554 8.77230E-01
 -1      6555 8.77230E-01
 -1      6556 8.77230E-01
 -1      6557 8.36931E-01
 -1      6558 8.36931E-01
 -1      6559 8.36931E-01
 -1      6560 7.98402E-01
 -1      6561 7.98402E-01
 -1      6562 7.98402E-01
 -1      6563 7.59763E-01
 -1      6564 7.59763E-01
 -1      6565 7.59763E-01
 -1      6566 7.19768E-01
 -1      6567 7.19768E-01
 -1      6568 7.19768E-01
 -1      6569 6.80617E-01
 -1      6570 6.80617E-01
 -1      6571 6.80617E-01
 -1      6572 6.41127E-01
 -1      6573 6.41127E-01
 -1      6574 6.41127E-01
 -1      6575 6.02099E-01
 -1      6576 6.02099E-01
 -1      6577 6.02099E-01
 -1      6578 5.71508E-01
 -1      6579 5.71508E-01
 -1      6580 5.71508E-01
 -1      6581 5.49942E-01
 -1      6582 5.49942E-01
 -1      6583 5.49942E-01
 -1      6584 6.41461E-01
 -1      6585 6.41461E-01
 -1      6586 6.41461E-01
 -1      6587 1.71625E+00
 -1      6588 1.71625E+00
 -1      6589 1.71625E+00
 -1      6590 2.05855E+00
 -1      6591 2.05855E+00
 -1      6592 2.05855E+00
 -1      6593 6.47451E-01
 -1      6594 6.47451E-01
 -1      6595 6.47451E-01
 -1      6596 2.64852E+00
 -1      6597 2.64852E+00
 -1      6598 2.64852E+00
 -1      6599 2.05758E+00
 -1      6600 2.05758E+00
 -1      6601 2.05758E+00
 -1      6602 1.00992E+00
 -1      6603 1.00992E+00
 -1      6604 1.00992E+00
 -1      6605 2.04772E+00
 -1      6606 2.04772E+00
 -1      6607 2.04772E+00
 -1      6608 7.52297E-01
 -1      6609 7.52297E-01
 -1      6610 7.52297E-01
 -1      6611 1.58425E+00
 -1      6612 1.58425E+00
 -1      6613 1.58425E+00
 -1      6614 1.23265E+00
 -1      6615 1.23265E+00
 -1      6616 1.23265E+00
 -1      6617 1.11345E+00
 -1      6618 1.11345E+00
 -1      6619 1.11345E+00
 -1      6620 1.37188E+00
 -1      6621 1.37188E+00
 -1      6622 1.37188E+00
 -1      6623 1.84595E+00
 -1      6624 1.84595E+00
 -1      6625 1.84595E+00
 -1      6626 5.10457E-01
 -1      6627 5.10457E-01
 -1      6628 5.10457E-01
 -1      6629 8.77994E-01
 -1      6630 8.77994E-01
 -1      6631 8.77994E-01
 -1      6632 9.18856E-01
 -1      6633 9.18856E-01
 -1      6634 9.18856E-01
 -1      6635 6.78951E-01
 -1      6636 6.78951E-01
 -1      6637 6.78951E-01
 -1      6638 9.62996E-01
 -1      6639 9.62996E-01
 -1      6640 9.62996E-01
 -1      6641 1.17095E+00
 -1      6642 1.17095E+00
 -1      6643 1.17095E+00
 -1      6644 8.05899E-01
 -1      6645 8.05899E-01
 -1      6646 8.05899E-01
 -1      6647 1.44666E+00
 -1      6648 1.44666E+00
 -1      6649 1.44666E+00
 -1      6650 5.51424E-01
 -1      6651 5.51424E-01
 -1      6652 5.51424E-01
 -1      6653 5.74969E-01
 -1      6654 5.74969E-01
 -1      6655 5.74969E-01
 -1      6656 2.05704E+00
 -1      6657 2.05704E+00
 -1      6658 2.05704E+00
 -1      6659 1.20018E+00
 -1      6660 1.20018E+00
 -1      6661 1.20018E+00
 -1      6662 2.06777E+00
 -1      6663 2.06777E+00
 -1      6664 2.06777E+00
 -1      6665 1.94589E+00
 -1      6666 1.94589E+00
 -1      6667 1.94589E+00
 -1      6668 5.40120E-01
 -1      6669 5.40120E-01
 -1      6670 5.40120E-01
 -1      6671 5.30217E-01
 -1      6672 5.30217E-01
 -1      6673 5.30217E-01
 -1      6674 6.07274E-01
 -1      6675 6.07274E-01
 -1      6676 6.07274E-01
 -1      6677 6.19751E-01
 -1      6678 6.19751E-01
 -1      6679 6.19751E-01
 -1      6680 5.69738E-01
 -1      6681 5.69738E-01
 -1      6682 5.69738E-01
 -1      6683 1.51884E+00
 -1      6684 1.51884E+00
 -1      6685 1.51884E+00
 -1      6686 5.93319E-01
 -1      6687 5.93319E-01
 -1      6688 5.93319E-01
 -1      6689 1.29975E+00
 -1      6690 1.29975E+00
 -1      6691 1.29975E+00
 -1      6692 5.74969E-01
 -1      6693 5.74969E-01
 -1      6694 5.74969E-01
 -1      6695 6.88942E-01
 -1      6696 6.88942E-01
 -1      6697 6.88942E-01
 -1      6698 5.51603E-01
 -1      6699 5.51603E-01
 -1      6700 5.51603E-01
 -1      6701 6.96410E-01
 -1      6702 6.96410E-01
 -1      6703 6.96410E-01
 -1      6704 7.75500E-01
 -1      6705 7.75500E-01
 -1      6706 7.75500E-01
 -1      6707 2.21913E+00
 -1      6708 2.21913E+00
 -1      6709 2.21913E+00
 -1      6710 1.92107E+00
 -1      6711 1.92107E+00
 -1      6712 1.92107E+00
 -1      6713 5.52483E-01
 -1      6714 5.52483E-01
 -1      6715 5.52483E-01
 -1      6716 1.92744E+00
 -1      6717 1.92744E+00
 -1      6718 1.92744E+00
 -1      6719 6.96410E-01
 -1      6720 6.96410E-01
 -1      6721 6.96410E-01
 -1      6722 2.05157E+00
 -1      6723 2.05157E+00
 -1      6724 2.05157E+00
 -1      6725 1.93782E+00
 -1      6726 1.93782E+00
 -1      6727 1.93782E+00
 -1      6728 5.29639E-01
 -1      6729 5.29639E-01
 -1      6730 5.29639E-01
 -1      6731 1.95682E+00
 -1      6732 1.95682E+00
 -1      6733 1.95682E+00
 -1      6734 7.44647E-01
 -1      6735 7.44647E-01
 -1      6736 7.44647E-01
 -1      6737 2.22880E+00
 -1      6738 2.22880E+00
 -1      6739 2.22880E+00
 -1      6740 2.04039E+00
 -1      6741 2.04039E+00
 -1      6742 2.04039E+00
 -1      6743 1.89214E+00
 -1      6744 1.89214E+00
 -1      6745 1.89214E+00
 -1      6746 1.76745E+00
 -1      6747 1.76745E+00
 -1      6748 1.76745E+00
 -1      6749 1.65675E+00
 -1      6750 1.65675E+00
 -1      6751 1.65675E+00
 -1      6752 1.55735E+00
 -1      6753 1.55735E+00
 -1      6754 1.55735E+00
 -1      6755 1.46916E+00
 -1      6756 1.46916E+00
 -1      6757 1.46916E+00
 -1      6758 1.39471E+00
 -1      6759 1.39471E+00
 -1      6760 1.39471E+00
 -1      6761 1.32592E+00
 -1      6762 1.32592E+00
 -1      6763 1.32592E+00
 -1      6764 1.25974E+00
 -1      6765 1.25974E+00
 -1      6766 1.25974E+00
 -1      6767 1.19657E+00
 -1      6768 1.19657E+00
 -1      6769 1.19657E+00
 -1      6770 1.13763E+00
 -1      6771 1.13763E+00
 -1      6772 1.13763E+00
 -1      6773 1.08322E+00
 -1      6774 1.08322E+00
 -1      6775 1.08322E+00
 -1      6776 1.03240E+00
 -1      6777 1.03240E+00
 -1      6778 1.03240E+00
 -1      6779 9.83953E-01
 -1      6780 9.83953E-01
 -1      6781 9.83953E-01
 -1      6782 9.37499E-01
 -1      6783 9.37499E-01
 -1      6784 9.37499E-01
 -1      6785 8.93280E-01
 -1      6786 8.93280E-01
 -1      6787 8.93280E-01
 -1      6788 8.51644E-01
 -1      6789 8.51644E-01
 -1      6790 8.51644E-01
 -1      6791 8.12961E-01
 -1      6792 8.12961E-01
 -1      6793 8.12961E-01
 -1      6794 7.75787E-01
 -1      6795 7.75787E-01
 -1      6796 7.75787E-01
 -1      6797 7.35207E-01
 -1      6798 7.35207E-01
 -1      6799 7.35207E-01
 -1      6800 6.90125E-01
 -1      6801 6.90125E-01
 -1      6802 6.90125E-01
 -1      6803 6.54101E-01
 -1      6804 6.54101E-01
 -1      6805 6.54101E-01
 -1      6806 7.02165E-01
 -1      6807 7.02165E-01
 -1      6808 7.02165E-01
 -1      6809 5.71410E-01
 -1      6810 5.71410E-01
 -1      6811 5.71410E-01
 -1      6812 7.81262E-01
 -1      6813 7.81262E-01
 -1      6814 7.81262E-01
 -1      6815 1.78192E+00
 -1      6816 1.78192E+00
 -1      6817 1.78192E+00
 -1      6818 1.96128E+00
 -1      6819 1.96128E+00
 -1      6820 1.96128E+00
 -1      6821 2.25976E+00
 -1      6822 2.25976E+00
 -1      6823 2.25976E+00
 -1      6824 8.05538E-01
 -1      6825 8.05538E-01
 -1      6826 8.05538E-01
 -1      6827 7.87313E-01
 -1      6828 7.87313E-01
 -1      6829 7.87313E-01
 -1      6830 1.92344E+00
 -1      6831 1.92344E+00
 -1      6832 1.92344E+00
 -1      6833 1.03460E+00
 -1      6834 1.03460E+00
 -1      6835 1.03460E+00
 -1      6836 7.48238E-01
 -1      6837 7.48238E-01
 -1      6838 7.48238E-01
 -1      6839 8.57390E-01
 -1      6840 8.57390E-01
 -1      6841 8.57390E-01
 -1      6842 1.81270E+00
 -1      6843 1.81270E+00
 -1      6844 1.81270E+00
 -1      6845 1.33583E+00
 -1      6846 1.33583E+00
 -1      6847 1.33583E+00
 -1      6848 1.08627E+00
 -1      6849 1.08627E+00
 -1      6850 1.08627E+00
 -1      6851 2.19787E+00
 -1      6852 2.19787E+00
 -1      6853 2.19787E+00
 -1      6854 9.39652E-01
 -1      6855 9.39652E-01
 -1      6856 9.39652E-01
 -1      6857 2.00295E+00
 -1      6858 2.00295E+00
 -1      6859 2.00295E+00
 -1      6860 8.96789E-01
 -1      6861 8.96789E-01
 -1      6862 8.96789E-01
 -1      6863 1.94702E+00
 -1      6864 1.94702E+00
 -1      6865 1.94702E+00
 -1      6866 6.52642E-01
 -1      6867 6.52642E-01
 -1      6868 6.52642E-01
 -1      6869 1.41283E+00
 -1      6870 1.41283E+00
 -1      6871 1.41283E+00
 -1      6872 1.14104E+00
 -1      6873 1.14104E+00
 -1      6874 1.14104E+00
 -1      6875 1.26448E+00
 -1      6876 1.26448E+00
 -1      6877 1.26448E+00
 -1      6878 1.66956E+00
 -1      6879 1.66956E+00
 -1      6880 1.66956E+00
 -1      6881 8.21569E-01
 -1      6882 8.21569E-01
 -1      6883 8.21569E-01
 -1      6884 7.87313E-01
 -1      6885 7.87313E-01
 -1      6886 7.87313E-01
 -1      6887 1.81460E+00
 -1      6888 1.81460E+00
 -1      6889 1.81460E+00
 -1      6890 8.07767E-01
 -1      6891 8.07767E-01
 -1      6892 8.07767E-01
 -1      6893 5.44347E-01
 -1      6894 5.44347E-01
 -1      6895 5.44347E-01
 -1      6896 1.93667E+00
 -1      6897 1.93667E+00
 -1      6898 1.93667E+00
 -1      6899 5.52854E-01
 -1      6900 5.52854E-01
 -1      6901 5.52854E-01
 -1      6902 5.92150E-01
 -1      6903 5.92150E-01
 -1      6904 5.92150E-01
 -1      6905 7.65418E-01
 -1      6906 7.65418E-01
 -1      6907 7.65418E-01
 -1      6908 9.85614E-01
 -1      6909 9.85614E-01
 -1      6910 9.85614E-01
 -1      6911 5.93319E-01
 -1      6912 5.93319E-01
 -1      6913 5.93319E-01
 -1      6914 7.90559E-01
 -1      6915 7.90559E-01
 -1      6916 7.90559E-01
 -1      6917 6.82076E-01
 -1      6918 6.82076E-01
 -1      6919 6.82076E-01
 -1      6920 8.74351E-01
 -1      6921 8.74351E-01
 -1      6922 8.74351E-01
 -1      6923 1.79402E+00
 -1      6924 1.79402E+00
 -1      6925 1.79402E+00
 -1      6926 1.94070E+00
 -1      6927 1.94070E+00
 -1      6928 1.94070E+00
 -1      6929 2.01779E+00
 -1      6930 2.01779E+00
 -1      6931 2.01779E+00
 -1      6932 1.89500E+00
 -1      6933 1.89500E+00
 -1      6934 1.89500E+00
 -1      6935 1.78446E+00
 -1      6936 1.78446E+00
 -1      6937 1.78446E+00
 -1      6938 1.67999E+00
 -1      6939 1.67999E+00
 -1      6940 1.67999E+00
 -1      6941 1.58330E+00
 -1      6942 1.58330E+00
 -1      6943 1.58330E+00
 -1      6944 1.48891E+00
 -1      6945 1.48891E+00
 -1      6946 1.48891E+00
 -1      6947 1.41838E+00
 -1      6948 1.41838E+00
 -1      6949 1.41838E+00
 -1      6950 1.35187E+00
 -1      6951 1.35187E+00
 -1      6952 1.35187E+00
 -1      6953 1.28501E+00
 -1      6954 1.28501E+00
 -1      6955 1.28501E+00
 -1      6956 1.21934E+00
 -1      6957 1.21934E+00
 -1      6958 1.21934E+00
 -1      6959 1.15760E+00
 -1      6960 1.15760E+00
 -1      6961 1.15760E+00
 -1      6962 1.10151E+00
 -1      6963 1.10151E+00
 -1      6964 1.10151E+00
 -1      6965 1.05018E+00
 -1      6966 1.05018E+00
 -1      6967 1.05018E+00
 -1      6968 1.00144E+00
 -1      6969 1.00144E+00
 -1      6970 1.00144E+00
 -1      6971 9.54283E-01
 -1      6972 9.54283E-01
 -1      6973 9.54283E-01
 -1      6974 9.08919E-01
 -1      6975 9.08919E-01
 -1      6976 9.08919E-01
 -1      6977 8.65498E-01
 -1      6978 8.65498E-01
 -1      6979 8.65498E-01
 -1      6980 8.24610E-01
 -1      6981 8.24610E-01
 -1      6982 8.24610E-01
 -1      6983 7.88940E-01
 -1      6984 7.88940E-01
 -1      6985 7.88940E-01
 -1      6986 7.54587E-01
 -1      6987 7.54587E-01
 -1      6988 7.54587E-01
 -1      6989 7.06606E-01
 -1      6990 7.06606E-01
 -1      6991 7.06606E-01
 -1      6992 6.51489E-01
 -1      6993 6.51489E-01
 -1      6994 6.51489E-01
 -1      6995 7.02165E-01
 -1      6996 7.02165E-01
 -1      6997 7.02165E-01
 -1      6998 7.87313E-01
 -1      6999 7.87313E-01
 -1      7000 7.87313E-01
 -1      7001 6.07274E-01
 -1      7002 6.07274E-01
 -1      7003 6.07274E-01
 -1      7004 9.16135E-01
 -1      7005 9.16135E-01
 -1      7006 9.16135E-01
 -1      7007 1.88004E+00
 -1      7008 1.88004E+00
 -1      7009 1.88004E+00
 -1      7010 5.79077E-01
 -1      7011 5.79077E-01
 -1      7012 5.79077E-01
 -1      7013 1.29656E+00
 -1      7014 1.29656E+00
 -1      7015 1.29656E+00
 -1      7016 1.83492E+00
 -1      7017 1.83492E+00
 -1      7018 1.83492E+00
 -1      7019 1.06064E+00
 -1      7020 1.06064E+00
 -1      7021 1.06064E+00
 -1      7022 7.46452E-01
 -1      7023 7.46452E-01
 -1      7024 7.46452E-01
 -1      7025 2.16030E+00
 -1      7026 2.16030E+00
 -1      7027 2.16030E+00
 -1      7028 1.49320E+00
 -1      7029 1.49320E+00
 -1      7030 1.49320E+00
 -1      7031 1.97797E+00
 -1      7032 1.97797E+00
 -1      7033 1.97797E+00
 -1      7034 8.07767E-01
 -1      7035 8.07767E-01
 -1      7036 8.07767E-01
 -1      7037 1.90577E+00
 -1      7038 1.90577E+00
 -1      7039 1.90577E+00
 -1      7040 1.81809E+00
 -1      7041 1.81809E+00
 -1      7042 1.81809E+00
 -1      7043 1.84744E+00
 -1      7044 1.84744E+00
 -1      7045 1.84744E+00
 -1      7046 9.61374E-01
 -1      7047 9.61374E-01
 -1      7048 9.61374E-01
 -1      7049 8.35921E-01
 -1      7050 8.35921E-01
 -1      7051 8.35921E-01
 -1      7052 1.37337E+00
 -1      7053 1.37337E+00
 -1      7054 1.37337E+00
 -1      7055 1.00927E+00
 -1      7056 1.00927E+00
 -1      7057 1.00927E+00
 -1      7058 5.63679E-01
 -1      7059 5.63679E-01
 -1      7060 5.63679E-01
 -1      7061 1.57223E+00
 -1      7062 1.57223E+00
 -1      7063 1.57223E+00
 -1      7064 2.15572E+00
 -1      7065 2.15572E+00
 -1      7066 2.15572E+00
 -1      7067 2.15572E+00
 -1      7068 2.15572E+00
 -1      7069 2.15572E+00
 -1      7070 1.16921E+00
 -1      7071 1.16921E+00
 -1      7072 1.16921E+00
 -1      7073 1.84216E+00
 -1      7074 1.84216E+00
 -1      7075 1.84216E+00
 -1      7076 1.85015E+00
 -1      7077 1.85015E+00
 -1      7078 1.85015E+00
 -1      7079 7.01106E-01
 -1      7080 7.01106E-01
 -1      7081 7.01106E-01
 -1      7082 5.91283E-01
 -1      7083 5.91283E-01
 -1      7084 5.91283E-01
 -1      7085 1.22916E+00
 -1      7086 1.22916E+00
 -1      7087 1.22916E+00
 -1      7088 1.83723E+00
 -1      7089 1.83723E+00
 -1      7090 1.83723E+00
 -1      7091 8.07767E-01
 -1      7092 8.07767E-01
 -1      7093 8.07767E-01
 -1      7094 1.76131E+00
 -1      7095 1.76131E+00
 -1      7096 1.76131E+00
 -1      7097 7.56634E-01
 -1      7098 7.56634E-01
 -1      7099 7.56634E-01
 -1      7100 6.38784E-01
 -1      7101 6.38784E-01
 -1      7102 6.38784E-01
 -1      7103 1.72246E+00
 -1      7104 1.72246E+00
 -1      7105 1.72246E+00
 -1      7106 1.19737E+00
 -1      7107 1.19737E+00
 -1      7108 1.19737E+00
 -1      7109 6.08325E-01
 -1      7110 6.08325E-01
 -1      7111 6.08325E-01
 -1      7112 5.87488E-01
 -1      7113 5.87488E-01
 -1      7114 5.87488E-01
 -1      7115 1.84186E+00
 -1      7116 1.84186E+00
 -1      7117 1.84186E+00
 -1      7118 1.87175E+00
 -1      7119 1.87175E+00
 -1      7120 1.87175E+00
 -1      7121 1.11341E+00
 -1      7122 1.11341E+00
 -1      7123 1.11341E+00
 -1      7124 1.76657E+00
 -1      7125 1.76657E+00
 -1      7126 1.76657E+00
 -1      7127 1.67313E+00
 -1      7128 1.67313E+00
 -1      7129 1.67313E+00
 -1      7130 1.60418E+00
 -1      7131 1.60418E+00
 -1      7132 1.60418E+00
 -1      7133 1.49606E+00
 -1      7134 1.49606E+00
 -1      7135 1.49606E+00
 -1      7136 1.44200E+00
 -1      7137 1.44200E+00
 -1      7138 1.44200E+00
 -1      7139 1.38107E+00
 -1      7140 1.38107E+00
 -1      7141 1.38107E+00
 -1      7142 1.31262E+00
 -1      7143 1.31262E+00
 -1      7144 1.31262E+00
 -1      7145 1.24330E+00
 -1      7146 1.24330E+00
 -1      7147 1.24330E+00
 -1      7148 1.17731E+00
 -1      7149 1.17731E+00
 -1      7150 1.17731E+00
 -1      7151 1.11839E+00
 -1      7152 1.11839E+00
 -1      7153 1.11839E+00
 -1      7154 1.06666E+00
 -1      7155 1.06666E+00
 -1      7156 1.06666E+00
 -1      7157 1.01825E+00
 -1      7158 1.01825E+00
 -1      7159 1.01825E+00
 -1      7160 9.70867E-01
 -1      7161 9.70867E-01
 -1      7162 9.70867E-01
 -1      7163 9.25101E-01
 -1      7164 9.25101E-01
 -1      7165 9.25101E-01
 -1      7166 8.80897E-01
 -1      7167 8.80897E-01
 -1      7168 8.80897E-01
 -1      7169 8.36812E-01
 -1      7170 8.36812E-01
 -1      7171 8.36812E-01
 -1      7172 7.94322E-01
 -1      7173 7.94322E-01
 -1      7174 7.94322E-01
 -1      7175 7.67271E-01
 -1      7176 7.67271E-01
 -1      7177 7.67271E-01
 -1      7178 8.01730E-01
 -1      7179 8.01730E-01
 -1      7180 8.01730E-01
 -1      7181 7.10600E-01
 -1      7182 7.10600E-01
 -1      7183 7.10600E-01
 -1      7184 6.39960E-01
 -1      7185 6.39960E-01
 -1      7186 6.39960E-01
 -1      7187 6.62156E-01
 -1      7188 6.62156E-01
 -1      7189 6.62156E-01
 -1      7190 8.91998E-01
 -1      7191 8.91998E-01
 -1      7192 8.91998E-01
 -1      7193 1.68242E+00
 -1      7194 1.68242E+00
 -1      7195 1.68242E+00
 -1      7196 6.23930E-01
 -1      7197 6.23930E-01
 -1      7198 6.23930E-01
 -1      7199 1.25562E+00
 -1      7200 1.25562E+00
 -1      7201 1.25562E+00
 -1      7202 1.84168E+00
 -1      7203 1.84168E+00
 -1      7204 1.84168E+00
 -1      7205 2.11559E+00
 -1      7206 2.11559E+00
 -1      7207 2.11559E+00
 -1      7208 1.86501E+00
 -1      7209 1.86501E+00
 -1      7210 1.86501E+00
 -1      7211 2.05964E+00
 -1      7212 2.05964E+00
 -1      7213 2.05964E+00
 -1      7214 1.81911E+00
 -1      7215 1.81911E+00
 -1      7216 1.81911E+00
 -1      7217 7.45300E-01
 -1      7218 7.45300E-01
 -1      7219 7.45300E-01
 -1      7220 5.53169E-01
 -1      7221 5.53169E-01
 -1      7222 5.53169E-01
 -1      7223 1.76594E+00
 -1      7224 1.76594E+00
 -1      7225 1.76594E+00
 -1      7226 1.46067E+00
 -1      7227 1.46067E+00
 -1      7228 1.46067E+00
 -1      7229 9.36723E-01
 -1      7230 9.36723E-01
 -1      7231 9.36723E-01
 -1      7232 8.01832E-01
 -1      7233 8.01832E-01
 -1      7234 8.01832E-01
 -1      7235 7.74691E-01
 -1      7236 7.74691E-01
 -1      7237 7.74691E-01
 -1      7238 1.14265E+00
 -1      7239 1.14265E+00
 -1      7240 1.14265E+00
 -1      7241 1.32621E+00
 -1      7242 1.32621E+00
 -1      7243 1.32621E+00
 -1      7244 1.03571E+00
 -1      7245 1.03571E+00
 -1      7246 1.03571E+00
 -1      7247 1.08851E+00
 -1      7248 1.08851E+00
 -1      7249 1.08851E+00
 -1      7250 6.46657E-01
 -1      7251 6.46657E-01
 -1      7252 6.46657E-01
 -1      7253 8.50489E-01
 -1      7254 8.50489E-01
 -1      7255 8.50489E-01
 -1      7256 1.67116E+00
 -1      7257 1.67116E+00
 -1      7258 1.67116E+00
 -1      7259 2.16918E+00
 -1      7260 2.16918E+00
 -1      7261 2.16918E+00
 -1      7262 2.16918E+00
 -1      7263 2.16918E+00
 -1      7264 2.16918E+00
 -1      7265 1.74422E+00
 -1      7266 1.74422E+00
 -1      7267 1.74422E+00
 -1      7268 1.75410E+00
 -1      7269 1.75410E+00
 -1      7270 1.75410E+00
 -1      7271 1.75505E+00
 -1      7272 1.75505E+00
 -1      7273 1.75505E+00
 -1      7274 1.55617E+00
 -1      7275 1.55617E+00
 -1      7276 1.55617E+00
 -1      7277 6.39300E-01
 -1      7278 6.39300E-01
 -1      7279 6.39300E-01
 -1      7280 1.68556E+00
 -1      7281 1.68556E+00
 -1      7282 1.68556E+00
 -1      7283 7.46452E-01
 -1      7284 7.46452E-01
 -1      7285 7.46452E-01
 -1      7286 6.59627E-01
 -1      7287 6.59627E-01
 -1      7288 6.59627E-01
 -1      7289 8.02610E-01
 -1      7290 8.02610E-01
 -1      7291 8.02610E-01
 -1      7292 9.84192E-01
 -1      7293 9.84192E-01
 -1      7294 9.84192E-01
 -1      7295 6.12703E-01
 -1      7296 6.12703E-01
 -1      7297 6.12703E-01
 -1      7298 7.16999E-01
 -1      7299 7.16999E-01
 -1      7300 7.16999E-01
 -1      7301 1.74916E+00
 -1      7302 1.74916E+00
 -1      7303 1.74916E+00
 -1      7304 5.80804E-01
 -1      7305 5.80804E-01
 -1      7306 5.80804E-01
 -1      7307 6.42004E-01
 -1      7308 6.42004E-01
 -1      7309 6.42004E-01
 -1      7310 7.27801E-01
 -1      7311 7.27801E-01
 -1      7312 7.27801E-01
 -1      7313 1.65881E+00
 -1      7314 1.65881E+00
 -1      7315 1.65881E+00
 -1      7316 1.62021E+00
 -1      7317 1.62021E+00
 -1      7318 1.62021E+00
 -1      7319 1.63658E+00
 -1      7320 1.63658E+00
 -1      7321 1.63658E+00
 -1      7322 1.47697E+00
 -1      7323 1.47697E+00
 -1      7324 1.47697E+00
 -1      7325 1.42612E+00
 -1      7326 1.42612E+00
 -1      7327 1.42612E+00
 -1      7328 1.34647E+00
 -1      7329 1.34647E+00
 -1      7330 1.34647E+00
 -1      7331 1.27062E+00
 -1      7332 1.27062E+00
 -1      7333 1.27062E+00
 -1      7334 1.19931E+00
 -1      7335 1.19931E+00
 -1      7336 1.19931E+00
 -1      7337 1.13556E+00
 -1      7338 1.13556E+00
 -1      7339 1.13556E+00
 -1      7340 1.08292E+00
 -1      7341 1.08292E+00
 -1      7342 1.08292E+00
 -1      7343 1.03535E+00
 -1      7344 1.03535E+00
 -1      7345 1.03535E+00
 -1      7346 9.87638E-01
 -1      7347 9.87638E-01
 -1      7348 9.87638E-01
 -1      7349 9.42015E-01
 -1      7350 9.42015E-01
 -1      7351 9.42015E-01
 -1      7352 8.99484E-01
 -1      7353 8.99484E-01
 -1      7354 8.99484E-01
 -1      7355 8.56276E-01
 -1      7356 8.56276E-01
 -1      7357 8.56276E-01
 -1      7358 8.06138E-01
 -1      7359 8.06138E-01
 -1      7360 8.06138E-01
 -1      7361 7.63099E-01
 -1      7362 7.63099E-01
 -1      7363 7.63099E-01
 -1      7364 8.02610E-01
 -1      7365 8.02610E-01
 -1      7366 8.02610E-01
 -1      7367 1.65048E+00
 -1      7368 1.65048E+00
 -1      7369 1.65048E+00
 -1      7370 1.84216E+00
 -1      7371 1.84216E+00
 -1      7372 1.84216E+00
 -1      7373 1.22373E+00
 -1      7374 1.22373E+00
 -1      7375 1.22373E+00
 -1      7376 2.16918E+00
 -1      7377 2.16918E+00
 -1      7378 2.16918E+00
 -1      7379 7.56136E-01
 -1      7380 7.56136E-01
 -1      7381 7.56136E-01
 -1      7382 1.69357E+00
 -1      7383 1.69357E+00
 -1      7384 1.69357E+00
 -1      7385 2.02171E+00
 -1      7386 2.02171E+00
 -1      7387 2.02171E+00
 -1      7388 7.41289E-01
 -1      7389 7.41289E-01
 -1      7390 7.41289E-01
 -1      7391 1.41337E+00
 -1      7392 1.41337E+00
 -1      7393 1.41337E+00
 -1      7394 6.73138E-01
 -1      7395 6.73138E-01
 -1      7396 6.73138E-01
 -1      7397 9.11133E-01
 -1      7398 9.11133E-01
 -1      7399 9.11133E-01
 -1      7400 8.11826E-01
 -1      7401 8.11826E-01
 -1      7402 8.11826E-01
 -1      7403 1.27374E+00
 -1      7404 1.27374E+00
 -1      7405 1.27374E+00
 -1      7406 1.06604E+00
 -1      7407 1.06604E+00
 -1      7408 1.06604E+00
 -1      7409 7.56634E-01
 -1      7410 7.56634E-01
 -1      7411 7.56634E-01
 -1      7412 1.17550E+00
 -1      7413 1.17550E+00
 -1      7414 1.17550E+00
 -1      7415 8.66027E-01
 -1      7416 8.66027E-01
 -1      7417 8.66027E-01
 -1      7418 1.01074E+00
 -1      7419 1.01074E+00
 -1      7420 1.01074E+00
 -1      7421 6.18664E-01
 -1      7422 6.18664E-01
 -1      7423 6.18664E-01
 -1      7424 1.67346E+00
 -1      7425 1.67346E+00
 -1      7426 1.67346E+00
 -1      7427 1.69592E+00
 -1      7428 1.69592E+00
 -1      7429 1.69592E+00
 -1      7430 1.69654E+00
 -1      7431 1.69654E+00
 -1      7432 1.69654E+00
 -1      7433 6.73329E-01
 -1      7434 6.73329E-01
 -1      7435 6.73329E-01
 -1      7436 7.08687E-01
 -1      7437 7.08687E-01
 -1      7438 7.08687E-01
 -1      7439 7.65891E-01
 -1      7440 7.65891E-01
 -1      7441 7.65891E-01
 -1      7442 9.58981E-01
 -1      7443 9.58981E-01
 -1      7444 9.58981E-01
 -1      7445 1.12137E+00
 -1      7446 1.12137E+00
 -1      7447 1.12137E+00
 -1      7448 7.56095E-01
 -1      7449 7.56095E-01
 -1      7450 7.56095E-01
 -1      7451 7.07177E-01
 -1      7452 7.07177E-01
 -1      7453 7.07177E-01
 -1      7454 6.79339E-01
 -1      7455 6.79339E-01
 -1      7456 6.79339E-01
 -1      7457 7.78355E-01
 -1      7458 7.78355E-01
 -1      7459 7.78355E-01
 -1      7460 7.11033E-01
 -1      7461 7.11033E-01
 -1      7462 7.11033E-01
 -1      7463 1.61204E+00
 -1      7464 1.61204E+00
 -1      7465 1.61204E+00
 -1      7466 1.63658E+00
 -1      7467 1.63658E+00
 -1      7468 1.63658E+00
 -1      7469 1.47406E+00
 -1      7470 1.47406E+00
 -1      7471 1.47406E+00
 -1      7472 1.38630E+00
 -1      7473 1.38630E+00
 -1      7474 1.38630E+00
 -1      7475 1.29792E+00
 -1      7476 1.29792E+00
 -1      7477 1.29792E+00
 -1      7478 1.22570E+00
 -1      7479 1.22570E+00
 -1      7480 1.22570E+00
 -1      7481 1.15711E+00
 -1      7482 1.15711E+00
 -1      7483 1.15711E+00
 -1      7484 1.10147E+00
 -1      7485 1.10147E+00
 -1      7486 1.10147E+00
 -1      7487 1.05492E+00
 -1      7488 1.05492E+00
 -1      7489 1.05492E+00
 -1      7490 1.00468E+00
 -1      7491 1.00468E+00
 -1      7492 1.00468E+00
 -1      7493 9.58056E-01
 -1      7494 9.58056E-01
 -1      7495 9.58056E-01
 -1      7496 9.19873E-01
 -1      7497 9.19873E-01
 -1      7498 9.19873E-01
 -1      7499 8.90185E-01
 -1      7500 8.90185E-01
 -1      7501 8.90185E-01
 -1      7502 8.72596E-01
 -1      7503 8.72596E-01
 -1      7504 8.72596E-01
 -1      7505 7.84928E-01
 -1      7506 7.84928E-01
 -1      7507 7.84928E-01
 -1      7508 7.45560E-01
 -1      7509 7.45560E-01
 -1      7510 7.45560E-01
 -1      7511 1.85195E+00
 -1      7512 1.85195E+00
 -1      7513 1.85195E+00
 -1      7514 2.01155E+00
 -1      7515 2.01155E+00
 -1      7516 2.01155E+00
 -1      7517 1.63953E+00
 -1      7518 1.63953E+00
 -1      7519 1.63953E+00
 -1      7520 1.67553E+00
 -1      7521 1.67553E+00
 -1      7522 1.67553E+00
 -1      7523 6.43191E-01
 -1      7524 6.43191E-01
 -1      7525 6.43191E-01
 -1      7526 9.35073E-01
 -1      7527 9.35073E-01
 -1      7528 9.35073E-01
 -1      7529 1.51508E+00
 -1      7530 1.51508E+00
 -1      7531 1.51508E+00
 -1      7532 1.35044E+00
 -1      7533 1.35044E+00
 -1      7534 1.35044E+00
 -1      7535 7.65891E-01
 -1      7536 7.65891E-01
 -1      7537 7.65891E-01
 -1      7538 1.66837E+00
 -1      7539 1.66837E+00
 -1      7540 1.66837E+00
 -1      7541 1.10451E+00
 -1      7542 1.10451E+00
 -1      7543 1.10451E+00
 -1      7544 7.28716E-01
 -1      7545 7.28716E-01
 -1      7546 7.28716E-01
 -1      7547 1.28021E+00
 -1      7548 1.28021E+00
 -1      7549 1.28021E+00
 -1      7550 8.24370E-01
 -1      7551 8.24370E-01
 -1      7552 8.24370E-01
 -1      7553 1.04339E+00
 -1      7554 1.04339E+00
 -1      7555 1.04339E+00
 -1      7556 1.22249E+00
 -1      7557 1.22249E+00
 -1      7558 1.22249E+00
 -1      7559 8.02610E-01
 -1      7560 8.02610E-01
 -1      7561 8.02610E-01
 -1      7562 1.69226E+00
 -1      7563 1.69226E+00
 -1      7564 1.69226E+00
 -1      7565 1.67711E+00
 -1      7566 1.67711E+00
 -1      7567 1.67711E+00
 -1      7568 1.77977E+00
 -1      7569 1.77977E+00
 -1      7570 1.77977E+00
 -1      7571 1.85195E+00
 -1      7572 1.85195E+00
 -1      7573 1.85195E+00
 -1      7574 8.80291E-01
 -1      7575 8.80291E-01
 -1      7576 8.80291E-01
 -1      7577 6.78973E-01
 -1      7578 6.78973E-01
 -1      7579 6.78973E-01
 -1      7580 1.58913E+00
 -1      7581 1.58913E+00
 -1      7582 1.58913E+00
 -1      7583 6.88051E-01
 -1      7584 6.88051E-01
 -1      7585 6.88051E-01
 -1      7586 8.65108E-01
 -1      7587 8.65108E-01
 -1      7588 8.65108E-01
 -1      7589 7.82459E-01
 -1      7590 7.82459E-01
 -1      7591 7.82459E-01
 -1      7592 8.75701E-01
 -1      7593 8.75701E-01
 -1      7594 8.75701E-01
 -1      7595 1.61799E+00
 -1      7596 1.61799E+00
 -1      7597 1.61799E+00
 -1      7598 8.16880E-01
 -1      7599 8.16880E-01
 -1      7600 8.16880E-01
 -1      7601 1.16284E+00
 -1      7602 1.16284E+00
 -1      7603 1.16284E+00
 -1      7604 7.24956E-01
 -1      7605 7.24956E-01
 -1      7606 7.24956E-01
 -1      7607 1.54390E+00
 -1      7608 1.54390E+00
 -1      7609 1.54390E+00
 -1      7610 6.79115E-01
 -1      7611 6.79115E-01
 -1      7612 6.79115E-01
 -1      7613 1.82506E+00
 -1      7614 1.82506E+00
 -1      7615 1.82506E+00
 -1      7616 1.39620E+00
 -1      7617 1.39620E+00
 -1      7618 1.39620E+00
 -1      7619 1.30689E+00
 -1      7620 1.30689E+00
 -1      7621 1.30689E+00
 -1      7622 1.24414E+00
 -1      7623 1.24414E+00
 -1      7624 1.24414E+00
 -1      7625 1.24349E+00
 -1      7626 1.24349E+00
 -1      7627 1.24349E+00
 -1      7628 1.14317E+00
 -1      7629 1.14317E+00
 -1      7630 1.14317E+00
 -1      7631 1.08265E+00
 -1      7632 1.08265E+00
 -1      7633 1.08265E+00
 -1      7634 1.02120E+00
 -1      7635 1.02120E+00
 -1      7636 1.02120E+00
 -1      7637 9.67422E-01
 -1      7638 9.67422E-01
 -1      7639 9.67422E-01
 -1      7640 9.37323E-01
 -1      7641 9.37323E-01
 -1      7642 9.37323E-01
 -1      7643 9.22586E-01
 -1      7644 9.22586E-01
 -1      7645 9.22586E-01
 -1      7646 9.17686E-01
 -1      7647 9.17686E-01
 -1      7648 9.17686E-01
 -1      7649 1.00180E+00
 -1      7650 1.00180E+00
 -1      7651 1.00180E+00
 -1      7652 1.66257E+00
 -1      7653 1.66257E+00
 -1      7654 1.66257E+00
 -1      7655 9.86346E-01
 -1      7656 9.86346E-01
 -1      7657 9.86346E-01
 -1      7658 1.58990E+00
 -1      7659 1.58990E+00
 -1      7660 1.58990E+00
 -1      7661 9.08714E-01
 -1      7662 9.08714E-01
 -1      7663 9.08714E-01
 -1      7664 1.08609E+00
 -1      7665 1.08609E+00
 -1      7666 1.08609E+00
 -1      7667 1.77977E+00
 -1      7668 1.77977E+00
 -1      7669 1.77977E+00
 -1      7670 1.28638E+00
 -1      7671 1.28638E+00
 -1      7672 1.28638E+00
 -1      7673 6.86265E-01
 -1      7674 6.86265E-01
 -1      7675 6.86265E-01
 -1      7676 7.49432E-01
 -1      7677 7.49432E-01
 -1      7678 7.49432E-01
 -1      7679 1.62146E+00
 -1      7680 1.62146E+00
 -1      7681 1.62146E+00
 -1      7682 1.68597E+00
 -1      7683 1.68597E+00
 -1      7684 1.68597E+00
 -1      7685 1.15313E+00
 -1      7686 1.15313E+00
 -1      7687 1.15313E+00
 -1      7688 1.85195E+00
 -1      7689 1.85195E+00
 -1      7690 1.85195E+00
 -1      7691 8.38493E-01
 -1      7692 8.38493E-01
 -1      7693 8.38493E-01
 -1      7694 1.31762E+00
 -1      7695 1.31762E+00
 -1      7696 1.31762E+00
 -1      7697 1.57220E+00
 -1      7698 1.57220E+00
 -1      7699 1.57220E+00
 -1      7700 1.44492E+00
 -1      7701 1.44492E+00
 -1      7702 1.44492E+00
 -1      7703 9.67250E-01
 -1      7704 9.67250E-01
 -1      7705 9.67250E-01
 -1      7706 1.48881E+00
 -1      7707 1.48881E+00
 -1      7708 1.48881E+00
 -1      7709 1.76358E+00
 -1      7710 1.76358E+00
 -1      7711 1.76358E+00
 -1      7712 1.53469E+00
 -1      7713 1.53469E+00
 -1      7714 1.53469E+00
 -1      7715 1.00180E+00
 -1      7716 1.00180E+00
 -1      7717 1.00180E+00
 -1      7718 1.65288E+00
 -1      7719 1.65288E+00
 -1      7720 1.65288E+00
 -1      7721 1.63623E+00
 -1      7722 1.63623E+00
 -1      7723 1.63623E+00
 -1      7724 1.02303E+00
 -1      7725 1.02303E+00
 -1      7726 1.02303E+00
 -1      7727 1.39035E+00
 -1      7728 1.39035E+00
 -1      7729 1.39035E+00
 -1      7730 1.30408E+00
 -1      7731 1.30408E+00
 -1      7732 1.30408E+00
 -1      7733 1.24304E+00
 -1      7734 1.24304E+00
 -1      7735 1.24304E+00
 -1      7736 1.25029E+00
 -1      7737 1.25029E+00
 -1      7738 1.25029E+00
 -1      7739 1.25029E+00
 -1      7740 1.25029E+00
 -1      7741 1.25029E+00
 -1      7742 1.14317E+00
 -1      7743 1.14317E+00
 -1      7744 1.14317E+00
 -1      7745 1.02863E+00
 -1      7746 1.02863E+00
 -1      7747 1.02863E+00
 -1      7748 9.65774E-01
 -1      7749 9.65774E-01
 -1      7750 9.65774E-01
 -1      7751 9.50636E-01
 -1      7752 9.50636E-01
 -1      7753 9.50636E-01
 -1      7754 9.59807E-01
 -1      7755 9.59807E-01
 -1      7756 9.59807E-01
 -1      7757 9.34098E-01
 -1      7758 9.34098E-01
 -1      7759 9.34098E-01
 -1      7760 1.00180E+00
 -1      7761 1.00180E+00
 -1      7762 1.00180E+00
 -1      7763 1.22310E+00
 -1      7764 1.22310E+00
 -1      7765 1.22310E+00
 -1      7766 1.83906E+00
 -1      7767 1.83906E+00
 -1      7768 1.83906E+00
 -1      7769 7.95782E-01
 -1      7770 7.95782E-01
 -1      7771 7.95782E-01
 -1      7772 8.38055E-01
 -1      7773 8.38055E-01
 -1      7774 8.38055E-01
 -1      7775 1.31762E+00
 -1      7776 1.31762E+00
 -1      7777 1.31762E+00
 -1      7778 1.53553E+00
 -1      7779 1.53553E+00
 -1      7780 1.53553E+00
 -1      7781 8.82944E-01
 -1      7782 8.82944E-01
 -1      7783 8.82944E-01
 -1      7784 8.82944E-01
 -1      7785 8.82944E-01
 -1      7786 8.82944E-01
 -1      7787 1.86918E+00
 -1      7788 1.86918E+00
 -1      7789 1.86918E+00
 -1      7790 8.75701E-01
 -1      7791 8.75701E-01
 -1      7792 8.75701E-01
 -1      7793 9.74932E-01
 -1      7794 9.74932E-01
 -1      7795 9.74932E-01
 -1      7796 1.12250E+00
 -1      7797 1.12250E+00
 -1      7798 1.12250E+00
 -1      7799 1.13912E+00
 -1      7800 1.13912E+00
 -1      7801 1.13912E+00
 -1      7802 8.74167E-01
 -1      7803 8.74167E-01
 -1      7804 8.74167E-01
 -1      7805 1.83346E+00
 -1      7806 1.83346E+00
 -1      7807 1.83346E+00
 -1      7808 1.86918E+00
 -1      7809 1.86918E+00
 -1      7810 1.86918E+00
 -1      7811 1.44237E+00
 -1      7812 1.44237E+00
 -1      7813 1.44237E+00
 -1      7814 1.35719E+00
 -1      7815 1.35719E+00
 -1      7816 1.35719E+00
 -1      7817 1.51102E+00
 -1      7818 1.51102E+00
 -1      7819 1.51102E+00
 -1      7820 1.01915E+00
 -1      7821 1.01915E+00
 -1      7822 1.01915E+00
 -1      7823 2.20591E+00
 -1      7824 2.20591E+00
 -1      7825 2.20591E+00
 -1      7826 1.20691E+00
 -1      7827 1.20691E+00
 -1      7828 1.20691E+00
 -1      7829 1.62615E+00
 -1      7830 1.62615E+00
 -1      7831 1.62615E+00
 -1      7832 8.09751E-01
 -1      7833 8.09751E-01
 -1      7834 8.09751E-01
 -1      7835 9.04467E-01
 -1      7836 9.04467E-01
 -1      7837 9.04467E-01
 -1      7838 2.14819E+00
 -1      7839 2.14819E+00
 -1      7840 2.14819E+00
 -1      7841 1.01935E+00
 -1      7842 1.01935E+00
 -1      7843 1.01935E+00
 -1      7844 1.37113E+00
 -1      7845 1.37113E+00
 -1      7846 1.37113E+00
 -1      7847 2.21808E+00
 -1      7848 2.21808E+00
 -1      7849 2.21808E+00
 -1      7850 1.24065E+00
 -1      7851 1.24065E+00
 -1      7852 1.24065E+00
 -1      7853 1.50080E+00
 -1      7854 1.50080E+00
 -1      7855 1.50080E+00
 -1      7856 1.25029E+00
 -1      7857 1.25029E+00
 -1      7858 1.25029E+00
 -1      7859 1.14612E+00
 -1      7860 1.14612E+00
 -1      7861 1.14612E+00
 -1      7862 1.02546E+00
 -1      7863 1.02546E+00
 -1      7864 1.02546E+00
 -1      7865 1.11621E+00
 -1      7866 1.11621E+00
 -1      7867 1.11621E+00
 -1      7868 9.95855E-01
 -1      7869 9.95855E-01
 -1      7870 9.95855E-01
 -1      7871 9.70505E-01
 -1      7872 9.70505E-01
 -1      7873 9.70505E-01
 -1      7874 1.01305E+00
 -1      7875 1.01305E+00
 -1      7876 1.01305E+00
 -1      7877 9.69731E-01
 -1      7878 9.69731E-01
 -1      7879 9.69731E-01
 -1      7880 2.13080E+00
 -1      7881 2.13080E+00
 -1      7882 2.13080E+00
 -1      7883 8.09453E-01
 -1      7884 8.09453E-01
 -1      7885 8.09453E-01
 -1      7886 2.14819E+00
 -1      7887 2.14819E+00
 -1      7888 2.14819E+00
 -1      7889 9.99803E-01
 -1      7890 9.99803E-01
 -1      7891 9.99803E-01
 -1      7892 1.12250E+00
 -1      7893 1.12250E+00
 -1      7894 1.12250E+00
 -1      7895 1.14612E+00
 -1      7896 1.14612E+00
 -1      7897 1.14612E+00
 -1      7898 9.00880E-01
 -1      7899 9.00880E-01
 -1      7900 9.00880E-01
 -1      7901 8.31148E-01
 -1      7902 8.31148E-01
 -1      7903 8.31148E-01
 -1      7904 1.01915E+00
 -1      7905 1.01915E+00
 -1      7906 1.01915E+00
 -1      7907 1.83909E+00
 -1      7908 1.83909E+00
 -1      7909 1.83909E+00
 -1      7910 1.35597E+00
 -1      7911 1.35597E+00
 -1      7912 1.35597E+00
 -1      7913 1.00041E+00
 -1      7914 1.00041E+00
 -1      7915 1.00041E+00
 -1      7916 1.51102E+00
 -1      7917 1.51102E+00
 -1      7918 1.51102E+00
 -1      7919 1.20647E+00
 -1      7920 1.20647E+00
 -1      7921 1.20647E+00
 -1      7922 9.69731E-01
 -1      7923 9.69731E-01
 -1      7924 9.69731E-01
 -1      7925 2.21808E+00
 -1      7926 2.21808E+00
 -1      7927 2.21808E+00
 -1      7928 2.21808E+00
 -1      7929 2.21808E+00
 -1      7930 2.21808E+00
 -1      7931 9.64765E-01
 -1      7932 9.64765E-01
 -1      7933 9.64765E-01
 -1      7934 1.01915E+00
 -1      7935 1.01915E+00
 -1      7936 1.01915E+00
 -1      7937 1.13923E+00
 -1      7938 1.13923E+00
 -1      7939 1.13923E+00
 -1      7940 1.14612E+00
 -1      7941 1.14612E+00
 -1      7942 1.14612E+00
 -1      7943 3.28413E+00
 -1      7945 3.28413E+00
 -1      7946 3.28413E+00
 -1      7948 3.28413E+00
 -1      7949 3.28413E+00
 -1      7951 3.28413E+00
 -1      7952 3.09165E+00
 -1      7954 3.09165E+00
 -1      7955 3.05547E+00
 -1      7957 3.05547E+00
 -1      7958 3.24795E+00
 -1      7960 3.24795E+00
 -1      7961 2.94903E+00
 -1      7963 2.94903E+00
 -1      7964 2.94903E+00
 -1      7966 2.94903E+00
 -1      7967 2.94745E+00
 -1      7969 2.94745E+00
 -1      7970 2.94648E+00
 -1      7972 2.94648E+00
 -1      7973 2.94235E+00
 -1      7975 2.94235E+00
 -1      7976 2.94648E+00
 -1      7978 2.94648E+00
 -1      7979 2.91090E+00
 -1      7981 2.91090E+00
 -1      7982 2.89834E+00
 -1      7984 2.89834E+00
 -1      7985 2.91090E+00
 -1      7987 2.91090E+00
 -1      7988 2.86893E+00
 -1      7990 2.86893E+00
 -1      7991 2.86136E+00
 -1      7993 2.86136E+00
 -1      7994 2.86893E+00
 -1      7996 2.86893E+00
 -1      7997 2.85208E+00
 -1      7999 2.85208E+00
 -1      8000 2.85072E+00
 -1      8002 2.85072E+00
 -1      8003 2.85193E+00
 -1      8005 2.85193E+00
 -1      8006 2.85213E+00
 -1      8008 2.85213E+00
 -1      8009 2.85213E+00
 -1      8011 2.85213E+00
 -1      8012 2.85165E+00
 -1      8014 2.85165E+00
 -1      8015 2.85244E+00
 -1      8017 2.85244E+00
 -1      8018 2.85228E+00
 -1      8020 2.85228E+00
 -1      8021 2.85244E+00
 -1      8023 2.85244E+00
 -1      8024 2.84763E+00
 -1      8026 2.84763E+00
 -1      8027 2.84567E+00
 -1      8029 2.84567E+00
 -1      8030 2.84743E+00
 -1      8032 2.84743E+00
 -1      8033 2.87270E+00
 -1      8035 2.87270E+00
 -1      8036 2.87270E+00
 -1      8038 2.87270E+00
 -1      8039 2.85973E+00
 -1      8041 2.85973E+00
 -1      8042 2.93682E+00
 -1      8044 2.93682E+00
 -1      8045 2.93682E+00
 -1      8047 2.93682E+00
 -1      8048 2.91452E+00
 -1      8050 2.91452E+00
 -1      8051 3.09218E+00
 -1      8053 3.09218E+00
 -1      8054 3.12389E+00
 -1      8056 3.12389E+00
 -1      8057 3.04259E+00
 -1      8059 3.04259E+00
 -1      8060 3.19520E+00
 -1      8062 3.19520E+00
 -1      8063 3.21692E+00
 -1      8065 3.21692E+00
 -1      8066 3.19520E+00
 -1      8068 3.19520E+00
 -1      8069 3.14561E+00
 -1      8071 3.14561E+00
 -1      8072 3.21692E+00
 -1      8074 3.21692E+00
 -1      8075 3.21692E+00
 -1      8077 3.21692E+00
 -1      8078 3.13636E+00
 -1      8080 3.13636E+00
 -1      8081 3.13636E+00
 -1      8083 3.13636E+00
 -1      8084 2.86391E+00
 -1      8086 2.86391E+00
 -1      8087 2.69632E+00
 -1      8089 2.69632E+00
 -1      8090 2.88821E+00
 -1      8092 2.88821E+00
 -1      8093 2.45258E+00
 -1      8095 2.45258E+00
 -1      8096 2.36801E+00
 -1      8098 2.36801E+00
 -1      8099 2.49898E+00
 -1      8101 2.49898E+00
 -1      8102 2.14206E+00
 -1      8104 2.14206E+00
 -1      8105 2.12356E+00
 -1      8107 2.12356E+00
 -1      8108 2.15395E+00
 -1      8110 2.15395E+00
 -1      8111 1.85452E+00
 -1      8113 1.85452E+00
 -1      8114 1.83945E+00
 -1      8116 1.83945E+00
 -1      8117 1.89540E+00
 -1      8119 1.89540E+00
 -1      8120 1.67854E+00
 -1      8122 1.67854E+00
 -1      8123 1.63435E+00
 -1      8125 1.63435E+00
 -1      8126 1.71415E+00
 -1      8128 1.71415E+00
 -1      8129 1.49821E+00
 -1      8131 1.49821E+00
 -1      8132 1.48713E+00
 -1      8134 1.48713E+00
 -1      8135 1.50087E+00
 -1      8137 1.50087E+00
 -1      8138 1.32008E+00
 -1      8140 1.32008E+00
 -1      8141 1.30854E+00
 -1      8143 1.30854E+00
 -1      8144 1.34313E+00
 -1      8146 1.34313E+00
 -1      8147 1.21252E+00
 -1      8149 1.21252E+00
 -1      8150 1.18161E+00
 -1      8152 1.18161E+00
 -1      8153 1.23532E+00
 -1      8155 1.23532E+00
 -1      8156 1.07623E+00
 -1      8158 1.07623E+00
 -1      8159 1.06676E+00
 -1      8161 1.06676E+00
 -1      8162 1.09311E+00
 -1      8164 1.09311E+00
 -1      8165 9.95034E-01
 -1      8167 9.95034E-01
 -1      8168 9.70678E-01
 -1      8170 9.70678E-01
 -1      8171 1.01328E+00
 -1      8173 1.01328E+00
 -1      8174 9.04399E-01
 -1      8176 9.04399E-01
 -1      8177 9.00103E-01
 -1      8179 9.00103E-01
 -1      8180 9.04484E-01
 -1      8182 9.04484E-01
 -1      8183 8.09360E-01
 -1      8185 8.09360E-01
 -1      8186 8.04378E-01
 -1      8188 8.04378E-01
 -1      8189 8.22644E-01
 -1      8191 8.22644E-01
 -1      8192 7.53862E-01
 -1      8194 7.53862E-01
 -1      8195 7.36851E-01
 -1      8197 7.36851E-01
 -1      8198 7.67835E-01
 -1      8200 7.67835E-01
 -1      8201 6.89854E-01
 -1      8203 6.89854E-01
 -1      8204 6.87664E-01
 -1      8206 6.87664E-01
 -1      8207 6.89854E-01
 -1      8209 6.89854E-01
 -1      8210 6.21202E-01
 -1      8212 6.21202E-01
 -1      8213 6.16865E-01
 -1      8215 6.16865E-01
 -1      8216 6.29950E-01
 -1      8218 6.29950E-01
 -1      8219 5.82111E-01
 -1      8221 5.82111E-01
 -1      8222 5.64789E-01
 -1      8224 5.64789E-01
 -1      8225 5.87864E-01
 -1      8227 5.87864E-01
 -1      8228 5.36519E-01
 -1      8230 5.36519E-01
 -1      8231 5.36775E-01
 -1      8233 5.36775E-01
 -1      8234 5.38558E-01
 -1      8236 5.38558E-01
 -1      8237 5.83369E-01
 -1      8239 5.83369E-01
 -1      8240 6.46334E-01
 -1      8242 6.46334E-01
 -1      8243 5.83369E-01
 -1      8245 5.83369E-01
 -1      8246 5.50835E-01
 -1      8248 5.50835E-01
 -1      8249 5.50835E-01
 -1      8251 5.50835E-01
 -1      8252 6.46334E-01
 -1      8254 6.46334E-01
 -1      8255 5.36913E-01
 -1      8257 5.36913E-01
 -1      8258 5.36598E-01
 -1      8260 5.36598E-01
 -1      8261 6.46019E-01
 -1      8263 6.46019E-01
 -1      8264 4.21633E-01
 -1      8266 4.21633E-01
 -1      8267 4.28906E-01
 -1      8269 4.28906E-01
 -1      8270 4.34892E-01
 -1      8272 4.34892E-01
 -1      8273 4.05846E-01
 -1      8275 4.05846E-01
 -1      8276 4.13372E-01
 -1      8278 4.13372E-01
 -1      8279 4.13544E-01
 -1      8281 4.13544E-01
 -1      8282 4.08609E-01
 -1      8284 4.08609E-01
 -1      8285 4.17640E-01
 -1      8287 4.17640E-01
 -1      8288 4.16939E-01
 -1      8290 4.16939E-01
 -1      8291 4.09739E-01
 -1      8293 4.09739E-01
 -1      8294 4.17637E-01
 -1      8296 4.17637E-01
 -1      8297 4.17636E-01
 -1      8299 4.17636E-01
 -1      8300 4.09380E-01
 -1      8302 4.09380E-01
 -1      8303 4.16909E-01
 -1      8305 4.16909E-01
 -1      8306 4.17145E-01
 -1      8308 4.17145E-01
 -1      8309 4.08685E-01
 -1      8311 4.08685E-01
 -1      8312 4.16045E-01
 -1      8314 4.16045E-01
 -1      8315 4.16160E-01
 -1      8317 4.16160E-01
 -1      8318 4.08348E-01
 -1      8320 4.08348E-01
 -1      8321 4.16028E-01
 -1      8323 4.16028E-01
 -1      8324 4.16224E-01
 -1      8326 4.16224E-01
 -1      8327 4.06624E-01
 -1      8329 4.06624E-01
 -1      8330 4.14103E-01
 -1      8332 4.14103E-01
 -1      8333 4.14757E-01
 -1      8335 4.14757E-01
 -1      8336 4.08168E-01
 -1      8338 4.08168E-01
 -1      8339 4.14856E-01
 -1      8341 4.14856E-01
 -1      8342 4.12377E-01
 -1      8344 4.12377E-01
 -1      8345 4.18772E-01
 -1      8347 4.18772E-01
 -1      8348 4.32038E-01
 -1      8350 4.32038E-01
 -1      8351 4.32030E-01
 -1      8353 4.32030E-01
 -1      8354 3.93756E-01
 -1      8356 3.93756E-01
 -1      8357 4.13134E-01
 -1      8359 4.13134E-01
 -1      8360 4.32651E-01
 -1      8362 4.32651E-01
 -1      8363 4.15949E-01
 -1      8365 4.15949E-01
 -1      8366 4.57659E-01
 -1      8368 4.57659E-01
 -1      8369 4.15949E-01
 -1      8371 4.15949E-01
 -1      8372 4.54844E-01
 -1      8374 4.54844E-01
 -1      8375 4.66448E-01
 -1      8377 4.66448E-01
 -1      8378 4.66448E-01
 -1      8380 4.66448E-01
 -1      8381 3.08409E+00
 -1      8383 3.08409E+00
 -1      8384 3.08409E+00
 -1      8386 3.08409E+00
 -1      8387 2.88405E+00
 -1      8389 2.88405E+00
 -1      8390 2.78312E+00
 -1      8392 2.78312E+00
 -1      8393 2.83334E+00
 -1      8395 2.83334E+00
 -1      8396 2.73241E+00
 -1      8398 2.73241E+00
 -1      8399 2.83334E+00
 -1      8401 2.83334E+00
 -1      8402 2.63459E+00
 -1      8404 2.63459E+00
 -1      8405 2.77237E+00
 -1      8407 2.77237E+00
 -1      8408 2.72476E+00
 -1      8410 2.72476E+00
 -1      8411 2.82258E+00
 -1      8413 2.82258E+00
 -1      8414 2.45551E+00
 -1      8416 2.45551E+00
 -1      8417 2.53317E+00
 -1      8419 2.53317E+00
 -1      8420 2.40170E+00
 -1      8422 2.40170E+00
 -1      8423 2.67095E+00
 -1      8425 2.67095E+00
 -1      8426 2.24907E+00
 -1      8428 2.24907E+00
 -1      8429 2.30776E+00
 -1      8431 2.30776E+00
 -1      8432 2.23278E+00
 -1      8434 2.23278E+00
 -1      8435 2.38541E+00
 -1      8437 2.38541E+00
 -1      8438 2.14368E+00
 -1      8440 2.14368E+00
 -1      8441 2.16056E+00
 -1      8443 2.16056E+00
 -1      8444 2.13015E+00
 -1      8446 2.13015E+00
 -1      8447 2.21924E+00
 -1      8449 2.21924E+00
 -1      8450 2.01263E+00
 -1      8452 2.01263E+00
 -1      8453 2.06326E+00
 -1      8455 2.06326E+00
 -1      8456 1.96262E+00
 -1      8458 1.96262E+00
 -1      8459 2.08013E+00
 -1      8461 2.08013E+00
 -1      8462 1.85595E+00
 -1      8464 1.85595E+00
 -1      8465 1.89745E+00
 -1      8467 1.89745E+00
 -1      8468 1.84140E+00
 -1      8470 1.84140E+00
 -1      8471 1.94807E+00
 -1      8473 1.94807E+00
 -1      8474 1.77980E+00
 -1      8476 1.77980E+00
 -1      8477 1.78904E+00
 -1      8479 1.78904E+00
 -1      8480 1.76894E+00
 -1      8482 1.76894E+00
 -1      8483 1.83054E+00
 -1      8485 1.83054E+00
 -1      8486 1.67983E+00
 -1      8488 1.67983E+00
 -1      8489 1.71830E+00
 -1      8491 1.71830E+00
 -1      8492 1.63843E+00
 -1      8494 1.63843E+00
 -1      8495 1.72754E+00
 -1      8497 1.72754E+00
 -1      8498 1.55646E+00
 -1      8500 1.55646E+00
 -1      8501 1.58797E+00
 -1      8503 1.58797E+00
 -1      8504 1.54447E+00
 -1      8506 1.54447E+00
 -1      8507 1.62643E+00
 -1      8509 1.62643E+00
 -1      8510 1.49922E+00
 -1      8512 1.49922E+00
 -1      8513 1.50409E+00
 -1      8515 1.50409E+00
 -1      8516 1.49035E+00
 -1      8518 1.49035E+00
 -1      8519 1.53559E+00
 -1      8521 1.53559E+00
 -1      8522 1.42053E+00
 -1      8524 1.42053E+00
 -1      8525 1.45079E+00
 -1      8527 1.45079E+00
 -1      8528 1.38585E+00
 -1      8530 1.38585E+00
 -1      8531 1.45566E+00
 -1      8533 1.45566E+00
 -1      8534 1.32092E+00
 -1      8536 1.32092E+00
 -1      8537 1.34593E+00
 -1      8539 1.34593E+00
 -1      8540 1.31126E+00
 -1      8542 1.31126E+00
 -1      8543 1.37618E+00
 -1      8545 1.37618E+00
 -1      8546 1.27664E+00
 -1      8548 1.27664E+00
 -1      8549 1.27929E+00
 -1      8551 1.27929E+00
 -1      8552 1.26967E+00
 -1      8554 1.26967E+00
 -1      8555 1.30429E+00
 -1      8557 1.30429E+00
 -1      8558 1.21328E+00
 -1      8560 1.21328E+00
 -1      8561 1.23779E+00
 -1      8563 1.23779E+00
 -1      8564 1.18405E+00
 -1      8566 1.18405E+00
 -1      8567 1.24044E+00
 -1      8569 1.24044E+00
 -1      8570 1.13137E+00
 -1      8572 1.13137E+00
 -1      8573 1.15106E+00
 -1      8575 1.15106E+00
 -1      8576 1.12290E+00
 -1      8578 1.12290E+00
 -1      8579 1.17557E+00
 -1      8581 1.17557E+00
 -1      8582 1.07683E+00
 -1      8584 1.07683E+00
 -1      8585 1.09512E+00
 -1      8587 1.09512E+00
 -1      8588 1.06874E+00
 -1      8590 1.06874E+00
 -1      8591 1.11481E+00
 -1      8593 1.11481E+00
 -1      8594 1.04433E+00
 -1      8596 1.04433E+00
 -1      8597 1.04534E+00
 -1      8599 1.04534E+00
 -1      8600 1.03922E+00
 -1      8602 1.03922E+00
 -1      8603 1.06363E+00
 -1      8605 1.06363E+00
 -1      8606 9.95594E-01
 -1      8608 9.95594E-01
 -1      8609 1.01518E+00
 -1      8611 1.01518E+00
 -1      8612 9.72555E-01
 -1      8614 9.72555E-01
 -1      8615 1.01619E+00
 -1      8617 1.01619E+00
 -1      8618 9.31105E-01
 -1      8620 9.31105E-01
 -1      8621 9.47487E-01
 -1      8623 9.47487E-01
 -1      8624 9.25623E-01
 -1      8626 9.25623E-01
 -1      8627 9.67074E-01
 -1      8629 9.67074E-01
 -1      8630 9.04869E-01
 -1      8632 9.04869E-01
 -1      8633 9.05639E-01
 -1      8635 9.05639E-01
 -1      8636 9.01267E-01
 -1      8638 9.01267E-01
 -1      8639 9.22021E-01
 -1      8641 9.22021E-01
 -1      8642 8.64286E-01
 -1      8644 8.64286E-01
 -1      8645 8.80962E-01
 -1      8647 8.80962E-01
 -1      8648 8.44752E-01
 -1      8650 8.44752E-01
 -1      8651 8.81732E-01
 -1      8653 8.81732E-01
 -1      8654 8.09785E-01
 -1      8656 8.09785E-01
 -1      8657 8.23537E-01
 -1      8659 8.23537E-01
 -1      8660 8.05246E-01
 -1      8662 8.05246E-01
 -1      8663 8.40213E-01
 -1      8665 8.40213E-01
 -1      8666 7.88388E-01
 -1      8668 7.88388E-01
 -1      8669 7.88401E-01
 -1      8671 7.88401E-01
 -1      8672 7.85295E-01
 -1      8674 7.85295E-01
 -1      8675 8.02153E-01
 -1      8677 8.02153E-01
 -1      8678 7.54292E-01
 -1      8680 7.54292E-01
 -1      8681 7.68137E-01
 -1      8683 7.68137E-01
 -1      8684 7.37148E-01
 -1      8686 7.37148E-01
 -1      8687 7.68150E-01
 -1      8689 7.68150E-01
 -1      8690 7.07875E-01
 -1      8692 7.07875E-01
 -1      8693 7.19162E-01
 -1      8695 7.19162E-01
 -1      8696 7.03735E-01
 -1      8698 7.03735E-01
 -1      8699 7.33007E-01
 -1      8701 7.33007E-01
 -1      8702 6.90278E-01
 -1      8704 6.90278E-01
 -1      8705 6.90278E-01
 -1      8707 6.90278E-01
 -1      8708 6.88108E-01
 -1      8710 6.88108E-01
 -1      8711 7.01565E-01
 -1      8713 7.01565E-01
 -1      8714 6.61415E-01
 -1      8716 6.61415E-01
 -1      8717 6.73144E-01
 -1      8719 6.73144E-01
 -1      8720 6.46451E-01
 -1      8722 6.46451E-01
 -1      8723 6.73144E-01
 -1      8725 6.73144E-01
 -1      8726 6.21614E-01
 -1      8728 6.21614E-01
 -1      8729 6.31622E-01
 -1      8731 6.31622E-01
 -1      8732 6.18515E-01
 -1      8734 6.18515E-01
 -1      8735 6.43352E-01
 -1      8737 6.43352E-01
 -1      8738 6.07021E-01
 -1      8740 6.07021E-01
 -1      8741 6.07519E-01
 -1      8743 6.07519E-01
 -1      8744 6.06033E-01
 -1      8746 6.06033E-01
 -1      8747 6.17527E-01
 -1      8749 6.17527E-01
 -1      8750 5.85690E-01
 -1      8752 5.85690E-01
 -1      8753 5.95761E-01
 -1      8755 5.95761E-01
 -1      8756 5.75916E-01
 -1      8758 5.75916E-01
 -1      8759 5.96259E-01
 -1      8761 5.96259E-01
 -1      8762 5.59583E-01
 -1      8764 5.59583E-01
 -1      8765 5.70310E-01
 -1      8767 5.70310E-01
 -1      8768 5.64049E-01
 -1      8770 5.64049E-01
 -1      8771 5.80381E-01
 -1      8773 5.80381E-01
 -1      8774 5.43980E-01
 -1      8776 5.43980E-01
 -1      8777 5.83094E-01
 -1      8779 5.83094E-01
 -1      8780 5.73752E-01
 -1      8782 5.73752E-01
 -1      8783 5.93821E-01
 -1      8785 5.93821E-01
 -1      8786 5.14469E-01
 -1      8788 5.14469E-01
 -1      8789 5.41068E-01
 -1      8791 5.41068E-01
 -1      8792 5.20899E-01
 -1      8794 5.20899E-01
 -1      8795 5.80182E-01
 -1      8797 5.80182E-01
 -1      8798 4.84768E-01
 -1      8800 4.84768E-01
 -1      8801 4.84768E-01
 -1      8803 4.84768E-01
 -1      8804 4.75236E-01
 -1      8806 4.75236E-01
 -1      8807 4.66448E-01
 -1      8809 4.66448E-01
 -1      8810 5.11367E-01
 -1      8812 5.11367E-01
 -1      8813 2.92331E+00
 -1      8815 2.92331E+00
 -1      8816 2.92331E+00
 -1      8818 2.92331E+00
 -1      8819 2.89916E+00
 -1      8821 2.89916E+00
 -1      8822 2.95061E+00
 -1      8824 2.95061E+00
 -1      8825 2.95061E+00
 -1      8827 2.95061E+00
 -1      8828 2.95061E+00
 -1      8830 2.95061E+00
 -1      8831 2.93290E+00
 -1      8833 2.93290E+00
 -1      8834 2.92345E+00
 -1      8836 2.92345E+00
 -1      8837 2.93290E+00
 -1      8839 2.93290E+00
 -1      8840 2.88743E+00
 -1      8842 2.88743E+00
 -1      8843 2.87651E+00
 -1      8845 2.87651E+00
 -1      8846 2.88743E+00
 -1      8848 2.88743E+00
 -1      8849 2.85733E+00
 -1      8851 2.85733E+00
 -1      8852 2.85329E+00
 -1      8854 2.85329E+00
 -1      8855 2.85733E+00
 -1      8857 2.85733E+00
 -1      8858 2.85126E+00
 -1      8860 2.85126E+00
 -1      8861 2.85126E+00
 -1      8863 2.85126E+00
 -1      8864 2.85087E+00
 -1      8866 2.85087E+00
 -1      8867 2.85260E+00
 -1      8869 2.85260E+00
 -1      8870 2.85260E+00
 -1      8872 2.85260E+00
 -1      8873 2.85260E+00
 -1      8875 2.85260E+00
 -1      8876 2.85084E+00
 -1      8878 2.85084E+00
 -1      8879 2.84940E+00
 -1      8881 2.84940E+00
 -1      8882 2.85084E+00
 -1      8884 2.85084E+00
 -1      8885 2.85280E+00
 -1      8887 2.85280E+00
 -1      8888 2.85280E+00
 -1      8890 2.85280E+00
 -1      8891 2.84586E+00
 -1      8893 2.84586E+00
 -1      8894 2.90010E+00
 -1      8896 2.90010E+00
 -1      8897 2.90010E+00
 -1      8899 2.90010E+00
 -1      8900 2.88567E+00
 -1      8902 2.88567E+00
 -1      8903 2.98501E+00
 -1      8905 2.98501E+00
 -1      8906 2.98501E+00
 -1      8908 2.98501E+00
 -1      8909 2.95913E+00
 -1      8911 2.95913E+00
 -1      8912 2.06085E+00
 -1      8914 2.06085E+00
 -1      8915 2.07274E+00
 -1      8917 2.07274E+00
 -1      8918 2.01107E+00
 -1      8920 2.01107E+00
 -1      8921 1.96025E+00
 -1      8923 1.96025E+00
 -1      8924 3.01627E+00
 -1      8926 3.01627E+00
 -1      8927 3.09684E+00
 -1      8929 3.09684E+00
 -1      8930 3.02553E+00
 -1      8932 3.02553E+00
 -1      8933 2.84869E+00
 -1      8935 2.84869E+00
 -1      8936 2.62778E+00
 -1      8938 2.62778E+00
 -1      8939 2.71488E+00
 -1      8941 2.71488E+00
 -1      8942 2.75912E+00
 -1      8944 2.75912E+00
 -1      8945 2.24703E+00
 -1      8947 2.24703E+00
 -1      8948 2.21505E+00
 -1      8950 2.21505E+00
 -1      8951 2.28963E+00
 -1      8953 2.28963E+00
 -1      8954 1.94518E+00
 -1      8956 1.94518E+00
 -1      8957 1.77846E+00
 -1      8959 1.77846E+00
 -1      8960 1.76659E+00
 -1      8962 1.76659E+00
 -1      8963 1.78671E+00
 -1      8965 1.78671E+00
 -1      8966 1.55534E+00
 -1      8968 1.55534E+00
 -1      8969 1.54055E+00
 -1      8971 1.54055E+00
 -1      8972 1.58395E+00
 -1      8974 1.58395E+00
 -1      8975 1.41957E+00
 -1      8977 1.41957E+00
 -1      8978 1.38256E+00
 -1      8980 1.38256E+00
 -1      8981 1.44745E+00
 -1      8983 1.44745E+00
 -1      8984 1.27586E+00
 -1      8986 1.27586E+00
 -1      8987 1.26756E+00
 -1      8989 1.26756E+00
 -1      8990 1.27719E+00
 -1      8992 1.27719E+00
 -1      8993 1.13069E+00
 -1      8995 1.13069E+00
 -1      8996 1.12065E+00
 -1      8998 1.12065E+00
 -1      8999 1.14877E+00
 -1      9001 1.14877E+00
 -1      9002 1.04376E+00
 -1      9004 1.04376E+00
 -1      9005 1.03764E+00
 -1      9007 1.03764E+00
 -1      9008 1.04376E+00
 -1      9010 1.04376E+00
 -1      9011 9.30605E-01
 -1      9013 9.30605E-01
 -1      9014 9.23969E-01
 -1      9016 9.23969E-01
 -1      9017 9.45795E-01
 -1      9019 9.45795E-01
 -1      9020 8.63822E-01
 -1      9022 8.63822E-01
 -1      9023 8.43570E-01
 -1      9025 8.43570E-01
 -1      9026 8.79766E-01
 -1      9028 8.79766E-01
 -1      9029 7.87970E-01
 -1      9031 7.87970E-01
 -1      9032 7.85269E-01
 -1      9034 7.85269E-01
 -1      9035 7.88393E-01
 -1      9037 7.88393E-01
 -1      9038 7.07460E-01
 -1      9040 7.07460E-01
 -1      9041 7.04080E-01
 -1      9043 7.04080E-01
 -1      9044 7.19498E-01
 -1      9046 7.19498E-01
 -1      9047 6.60975E-01
 -1      9049 6.60975E-01
 -1      9050 6.46305E-01
 -1      9052 6.46305E-01
 -1      9053 6.72994E-01
 -1      9055 6.72994E-01
 -1      9056 6.06652E-01
 -1      9058 6.06652E-01
 -1      9059 6.05186E-01
 -1      9061 6.05186E-01
 -1      9062 6.06652E-01
 -1      9064 6.06652E-01
 -1      9065 5.48669E-01
 -1      9067 5.48669E-01
 -1      9068 5.44679E-01
 -1      9070 5.44679E-01
 -1      9071 5.55046E-01
 -1      9073 5.55046E-01
 -1      9074 5.27570E-01
 -1      9076 5.27570E-01
 -1      9077 5.45232E-01
 -1      9079 5.45232E-01
 -1      9080 5.52398E-01
 -1      9082 5.52398E-01
 -1      9083 6.46334E-01
 -1      9085 6.46334E-01
 -1      9086 4.27555E-01
 -1      9088 4.27555E-01
 -1      9089 4.62250E-01
 -1      9091 4.62250E-01
 -1      9092 4.62186E-01
 -1      9094 4.62186E-01
 -1      9095 4.10832E-01
 -1      9097 4.10832E-01
 -1      9098 4.14701E-01
 -1      9100 4.14701E-01
 -1      9101 4.19515E-01
 -1      9103 4.19515E-01
 -1      9104 4.06791E-01
 -1      9106 4.06791E-01
 -1      9107 4.16518E-01
 -1      9109 4.16518E-01
 -1      9110 4.15401E-01
 -1      9112 4.15401E-01
 -1      9113 4.09524E-01
 -1      9115 4.09524E-01
 -1      9116 4.17845E-01
 -1      9118 4.17845E-01
 -1      9119 4.17630E-01
 -1      9121 4.17630E-01
 -1      9122 4.09678E-01
 -1      9124 4.09678E-01
 -1      9125 4.17558E-01
 -1      9127 4.17558E-01
 -1      9128 4.17620E-01
 -1      9130 4.17620E-01
 -1      9131 4.08972E-01
 -1      9133 4.08972E-01
 -1      9134 4.16248E-01
 -1      9136 4.16248E-01
 -1      9137 4.16419E-01
 -1      9139 4.16419E-01
 -1      9140 4.08557E-01
 -1      9142 4.08557E-01
 -1      9143 4.16034E-01
 -1      9145 4.16034E-01
 -1      9146 4.16046E-01
 -1      9148 4.16046E-01
 -1      9149 4.07715E-01
 -1      9151 4.07715E-01
 -1      9152 4.15442E-01
 -1      9154 4.15442E-01
 -1      9155 4.15879E-01
 -1      9157 4.15879E-01
 -1      9158 4.05830E-01
 -1      9160 4.05830E-01
 -1      9161 4.12793E-01
 -1      9163 4.12793E-01
 -1      9164 4.12933E-01
 -1      9166 4.12933E-01
 -1      9167 4.14705E-01
 -1      9169 4.14705E-01
 -1      9170 4.24778E-01
 -1      9172 4.24778E-01
 -1      9173 4.20719E-01
 -1      9175 4.20719E-01
 -1      9176 4.16026E-01
 -1      9178 4.16026E-01
 -1      9179 4.31795E-01
 -1      9181 4.31795E-01
 -1      9182 4.34549E-01
 -1      9184 4.34549E-01
 -1      9185 2.94648E+00
 -1      9187 2.94648E+00
 -1      9188 3.05547E+00
 -1      9190 3.05547E+00
 -1      9191 3.24795E+00
 -1      9193 3.24795E+00
 -1      9194 2.94903E+00
 -1      9196 2.94903E+00
 -1      9197 2.93290E+00
 -1      9199 2.93290E+00
 -1      9200 2.88743E+00
 -1      9202 2.88743E+00
 -1      9203 2.85733E+00
 -1      9205 2.85733E+00
 -1      9206 2.85072E+00
 -1      9208 2.85072E+00
 -1      9209 2.85213E+00
 -1      9211 2.85213E+00
 -1      9212 2.85084E+00
 -1      9214 2.85084E+00
 -1      9215 2.84567E+00
 -1      9217 2.84567E+00
 -1      9218 2.87270E+00
 -1      9220 2.87270E+00
 -1      9221 2.93682E+00
 -1      9223 2.93682E+00
 -1      9224 2.33603E+00
 -1      9226 2.33603E+00
 -1      9227 2.78342E+00
 -1      9229 2.78342E+00
 -1      9230 1.82759E+00
 -1      9232 1.82759E+00
 -1      9233 1.61956E+00
 -1      9235 1.61956E+00
 -1      9236 1.45011E+00
 -1      9238 1.45011E+00
 -1      9239 1.30024E+00
 -1      9241 1.30024E+00
 -1      9242 1.17157E+00
 -1      9244 1.17157E+00
 -1      9245 1.06064E+00
 -1      9247 1.06064E+00
 -1      9248 9.64042E-01
 -1      9250 9.64042E-01
 -1      9251 8.79851E-01
 -1      9253 8.79851E-01
 -1      9254 8.01677E-01
 -1      9256 8.01677E-01
 -1      9257 7.33471E-01
 -1      9259 7.33471E-01
 -1      9260 6.72994E-01
 -1      9262 6.72994E-01
 -1      9263 6.15400E-01
 -1      9265 6.15400E-01
 -1      9266 5.60799E-01
 -1      9268 5.60799E-01
 -1      9269 5.54436E-01
 -1      9271 5.54436E-01
 -1      9272 5.71292E-01
 -1      9274 5.71292E-01
 -1      9275 4.32775E-01
 -1      9277 4.32775E-01
 -1      9278 4.23099E-01
 -1      9280 4.23099E-01
 -1      9281 4.25960E-01
 -1      9283 4.25960E-01
 -1      9284 4.25517E-01
 -1      9286 4.25517E-01
 -1      9287 4.24184E-01
 -1      9289 4.24184E-01
 -1      9290 4.23522E-01
 -1      9292 4.23522E-01
 -1      9293 4.23755E-01
 -1      9295 4.23755E-01
 -1      9296 4.21066E-01
 -1      9298 4.21066E-01
 -1      9299 4.24929E-01
 -1      9301 4.24929E-01
 -1      9302 4.47807E-01
 -1      9304 4.47807E-01
 -1      9305 2.92331E+00
 -1      9307 2.92331E+00
 -1      9308 2.91090E+00
 -1      9310 2.91090E+00
 -1      9311 2.86893E+00
 -1      9313 2.86893E+00
 -1      9314 2.85193E+00
 -1      9316 2.85193E+00
 -1      9317 2.85126E+00
 -1      9319 2.85126E+00
 -1      9320 2.85244E+00
 -1      9322 2.85244E+00
 -1      9323 2.84743E+00
 -1      9325 2.84743E+00
 -1      9326 2.85280E+00
 -1      9328 2.85280E+00
 -1      9329 2.90010E+00
 -1      9331 2.90010E+00
 -1      9332 3.01671E+00
 -1      9334 3.01671E+00
 -1      9335 1.52947E+00
 -1      9337 1.52947E+00
 -1      9338 1.37101E+00
 -1      9340 1.37101E+00
 -1      9341 1.23665E+00
 -1      9343 1.23665E+00
 -1      9344 1.11118E+00
 -1      9346 1.11118E+00
 -1      9347 1.01328E+00
 -1      9349 1.01328E+00
 -1      9350 9.19674E-01
 -1      9352 9.19674E-01
 -1      9353 8.38588E-01
 -1      9355 8.38588E-01
 -1      9356 7.68258E-01
 -1      9358 7.68258E-01
 -1      9359 7.01891E-01
 -1      9361 7.01891E-01
 -1      9362 6.41968E-01
 -1      9364 6.41968E-01
 -1      9365 5.87864E-01
 -1      9367 5.87864E-01
 -1      9368 5.44935E-01
 -1      9370 5.44935E-01
 -1      9371 6.08196E-01
 -1      9373 6.08196E-01
 -1      9374 4.22227E-01
 -1      9376 4.22227E-01
 -1      9377 4.25549E-01
 -1      9379 4.25549E-01
 -1      9380 4.25742E-01
 -1      9382 4.25742E-01
 -1      9383 4.25087E-01
 -1      9385 4.25087E-01
 -1      9386 4.23608E-01
 -1      9388 4.23608E-01
 -1      9389 4.23714E-01
 -1      9391 4.23714E-01
 -1      9392 4.22921E-01
 -1      9394 4.22921E-01
 -1      9395 4.19481E-01
 -1      9397 4.19481E-01
 -1      9398 4.38044E-01
 -1      9400 4.38044E-01
 -1      9401 4.51173E-01
 -1      9403 4.51173E-01
 -1      9404 2.63031E+00
 -1      9406 2.63031E+00
 -1      9407 2.19655E+00
 -1      9409 2.19655E+00
 -1      9410 1.72240E+00
 -1      9412 1.72240E+00
 -1      9413 4.69523E-01
 -1      9415 4.69523E-01
 -1      9416 3.04791E+00
 -1      9418 3.04791E+00
 -1      9419 2.80825E+00
 -1      9421 2.80825E+00
 -1      9422 2.82080E+00
 -1      9424 2.82080E+00
 -1      9425 2.82847E+00
 -1      9427 2.82847E+00
 -1      9428 2.83792E+00
 -1      9430 2.83792E+00
 -1      9431 2.72582E+00
 -1      9433 2.72582E+00
 -1      9434 2.87288E+00
 -1      9436 2.87288E+00
 -1      9437 3.02919E+00
 -1      9439 3.02919E+00
 -1      9440 2.76738E+00
 -1      9442 2.76738E+00
 -1      9443 2.77495E+00
 -1      9445 2.77495E+00
 -1      9446 2.75317E+00
 -1      9448 2.75317E+00
 -1      9449 2.75453E+00
 -1      9451 2.75453E+00
 -1      9452 2.75415E+00
 -1      9454 2.75415E+00
 -1      9455 2.75376E+00
 -1      9457 2.75376E+00
 -1      9458 2.75543E+00
 -1      9460 2.75543E+00
 -1      9461 2.75559E+00
 -1      9463 2.75559E+00
 -1      9464 2.75155E+00
 -1      9466 2.75155E+00
 -1      9467 2.75351E+00
 -1      9469 2.75351E+00
 -1      9470 2.75826E+00
 -1      9472 2.75826E+00
 -1      9473 2.75132E+00
 -1      9475 2.75132E+00
 -1      9476 2.81917E+00
 -1      9478 2.81917E+00
 -1      9479 2.80474E+00
 -1      9481 2.80474E+00
 -1      9482 2.94252E+00
 -1      9484 2.94252E+00
 -1      9485 2.88493E+00
 -1      9487 2.88493E+00
 -1      9488 2.89374E+00
 -1      9490 2.89374E+00
 -1      9491 2.30538E+00
 -1      9493 2.30538E+00
 -1      9494 2.38376E+00
 -1      9496 2.38376E+00
 -1      9497 1.50847E+00
 -1      9499 1.50847E+00
 -1      9500 1.54816E+00
 -1      9502 1.54816E+00
 -1      9503 2.05419E+00
 -1      9505 2.05419E+00
 -1      9506 2.11690E+00
 -1      9508 2.11690E+00
 -1      9509 1.80451E+00
 -1      9511 1.80451E+00
 -1      9512 1.85725E+00
 -1      9514 1.85725E+00
 -1      9515 2.19074E+00
 -1      9517 2.19074E+00
 -1      9518 2.25184E+00
 -1      9520 2.25184E+00
 -1      9521 2.29957E+00
 -1      9523 2.29957E+00
 -1      9524 2.17219E+00
 -1      9526 2.17219E+00
 -1      9527 2.84649E+00
 -1      9529 2.84649E+00
 -1      9530 2.78369E+00
 -1      9532 2.78369E+00
 -1      9533 1.92032E+00
 -1      9535 1.92032E+00
 -1      9536 1.98517E+00
 -1      9538 1.98517E+00
 -1      9539 2.02933E+00
 -1      9541 2.02933E+00
 -1      9542 1.89723E+00
 -1      9544 1.89723E+00
 -1      9545 4.59358E-01
 -1      9547 4.59358E-01
 -1      9548 4.86715E-01
 -1      9550 4.86715E-01
 -1      9551 1.35098E+00
 -1      9553 1.35098E+00
 -1      9554 1.39041E+00
 -1      9556 1.39041E+00
 -1      9557 1.21913E+00
 -1      9559 1.21913E+00
 -1      9560 1.25138E+00
 -1      9562 1.25138E+00
 -1      9563 1.09843E+00
 -1      9565 1.09843E+00
 -1      9566 1.12597E+00
 -1      9568 1.12597E+00
 -1      9569 9.99968E-01
 -1      9571 9.99968E-01
 -1      9572 1.02432E+00
 -1      9574 1.02432E+00
 -1      9575 9.09988E-01
 -1      9577 9.09988E-01
 -1      9578 9.29474E-01
 -1      9580 9.29474E-01
 -1      9581 8.28525E-01
 -1      9583 8.28525E-01
 -1      9584 8.49451E-01
 -1      9586 8.49451E-01
 -1      9587 7.59883E-01
 -1      9589 7.59883E-01
 -1      9590 7.77317E-01
 -1      9592 7.77317E-01
 -1      9593 6.95814E-01
 -1      9595 6.95814E-01
 -1      9596 7.10040E-01
 -1      9598 7.10040E-01
 -1      9599 6.35719E-01
 -1      9601 6.35719E-01
 -1      9602 6.52074E-01
 -1      9604 6.52074E-01
 -1      9605 5.74557E-01
 -1      9607 5.74557E-01
 -1      9608 5.91879E-01
 -1      9610 5.91879E-01
 -1      9611 5.38813E-01
 -1      9613 5.38813E-01
 -1      9614 5.44935E-01
 -1      9616 5.44935E-01
 -1      9617 6.09544E-01
 -1      9619 6.09544E-01
 -1      9620 5.71406E-01
 -1      9622 5.71406E-01
 -1      9623 4.28180E-01
 -1      9625 4.28180E-01
 -1      9626 4.29337E-01
 -1      9628 4.29337E-01
 -1      9629 6.46019E-01
 -1      9631 6.46019E-01
 -1      9632 4.32775E-01
 -1      9634 4.32775E-01
 -1      9635 4.42166E-01
 -1      9637 4.42166E-01
 -1      9638 4.38728E-01
 -1      9640 4.38728E-01
 -1      9641 2.86533E+00
 -1      9643 2.86533E+00
 -1      9644 4.35313E-01
 -1      9646 4.35313E-01
 -1      9647 4.34892E-01
 -1      9649 4.34892E-01
 -1      9650 4.34221E-01
 -1      9652 4.34221E-01
 -1      9653 4.34430E-01
 -1      9655 4.34430E-01
 -1      9656 4.33323E-01
 -1      9658 4.33323E-01
 -1      9659 4.33736E-01
 -1      9661 4.33736E-01
 -1      9662 4.31193E-01
 -1      9664 4.31193E-01
 -1      9665 4.31280E-01
 -1      9667 4.31280E-01
 -1      9668 4.31885E-01
 -1      9670 4.31885E-01
 -1      9671 4.31694E-01
 -1      9673 4.31694E-01
 -1      9674 4.31446E-01
 -1      9676 4.31446E-01
 -1      9677 4.32130E-01
 -1      9679 4.32130E-01
 -1      9680 4.26311E-01
 -1      9682 4.26311E-01
 -1      9683 4.26727E-01
 -1      9685 4.26727E-01
 -1      9686 4.51216E-01
 -1      9688 4.51216E-01
 -1      9689 4.43964E-01
 -1      9691 4.43964E-01
 -1      9692 4.99763E-01
 -1      9694 4.99763E-01
 -1      9695 4.98908E-01
 -1      9697 4.98908E-01
 -1      9698 2.63059E+00
 -1      9700 2.63059E+00
 -1      9701 2.84649E+00
 -1      9703 2.84649E+00
 -1      9704 2.84677E+00
 -1      9706 2.84677E+00
 -1      9707 2.59994E+00
 -1      9709 2.59994E+00
 -1      9710 2.84160E+00
 -1      9712 2.84160E+00
 -1      9713 2.84573E+00
 -1      9715 2.84573E+00
 -1      9716 2.73717E+00
 -1      9718 2.73717E+00
 -1      9719 4.63633E-01
 -1      9721 4.63633E-01
 -1      9722 2.81461E+00
 -1      9724 2.81461E+00
 -1      9725 2.83880E+00
 -1      9727 2.83880E+00
 -1      9728 2.83722E+00
 -1      9730 2.83722E+00
 -1      9731 2.73392E+00
 -1      9733 2.73392E+00
 -1      9734 2.82258E+00
 -1      9736 2.82258E+00
 -1      9737 2.86255E+00
 -1      9739 2.86255E+00
 -1      9740 2.85458E+00
 -1      9742 2.85458E+00
 -1      9743 2.86255E+00
 -1      9745 2.86255E+00
 -1      9746 2.67095E+00
 -1      9748 2.67095E+00
 -1      9749 2.86255E+00
 -1      9751 2.86255E+00
 -1      9752 2.43820E+00
 -1      9754 2.43820E+00
 -1      9755 2.34425E+00
 -1      9757 2.34425E+00
 -1      9758 2.62979E+00
 -1      9760 2.62979E+00
 -1      9761 2.25904E+00
 -1      9763 2.25904E+00
 -1      9764 2.18682E+00
 -1      9766 2.18682E+00
 -1      9767 2.31182E+00
 -1      9769 2.31182E+00
 -1      9770 2.11523E+00
 -1      9772 2.11523E+00
 -1      9773 2.04834E+00
 -1      9775 2.04834E+00
 -1      9776 2.15503E+00
 -1      9778 2.15503E+00
 -1      9779 1.98429E+00
 -1      9781 1.98429E+00
 -1      9782 1.91911E+00
 -1      9784 1.91911E+00
 -1      9785 2.01938E+00
 -1      9787 2.01938E+00
 -1      9788 1.86023E+00
 -1      9790 1.86023E+00
 -1      9791 1.80788E+00
 -1      9793 1.80788E+00
 -1      9794 1.89645E+00
 -1      9796 1.89645E+00
 -1      9797 1.75405E+00
 -1      9799 1.75405E+00
 -1      9800 1.70340E+00
 -1      9802 1.70340E+00
 -1      9803 1.78374E+00
 -1      9805 1.78374E+00
 -1      9806 1.65358E+00
 -1      9808 1.65358E+00
 -1      9809 1.60312E+00
 -1      9811 1.60312E+00
 -1      9812 1.68008E+00
 -1      9814 1.68008E+00
 -1      9815 1.55737E+00
 -1      9817 1.55737E+00
 -1      9818 1.51699E+00
 -1      9820 1.51699E+00
 -1      9821 1.58452E+00
 -1      9823 1.58452E+00
 -1      9824 1.47531E+00
 -1      9826 1.47531E+00
 -1      9827 1.43575E+00
 -1      9829 1.43575E+00
 -1      9830 1.49709E+00
 -1      9832 1.49709E+00
 -1      9833 1.39710E+00
 -1      9835 1.39710E+00
 -1      9836 1.35718E+00
 -1      9838 1.35718E+00
 -1      9839 1.41675E+00
 -1      9841 1.41675E+00
 -1      9842 1.32134E+00
 -1      9844 1.32134E+00
 -1      9845 1.28937E+00
 -1      9847 1.28937E+00
 -1      9848 1.34226E+00
 -1      9850 1.34226E+00
 -1      9851 1.25621E+00
 -1      9853 1.25621E+00
 -1      9854 1.22433E+00
 -1      9856 1.22433E+00
 -1      9857 1.27326E+00
 -1      9859 1.27326E+00
 -1      9860 1.19307E+00
 -1      9862 1.19307E+00
 -1      9863 1.16008E+00
 -1      9865 1.16008E+00
 -1      9866 1.20884E+00
 -1      9868 1.20884E+00
 -1      9869 1.13076E+00
 -1      9871 1.13076E+00
 -1      9872 1.10299E+00
 -1      9874 1.10299E+00
 -1      9875 1.14826E+00
 -1      9877 1.14826E+00
 -1      9878 1.07642E+00
 -1      9880 1.07642E+00
 -1      9881 1.05302E+00
 -1      9883 1.05302E+00
 -1      9884 1.09238E+00
 -1      9886 1.09238E+00
 -1      9887 1.02815E+00
 -1      9889 1.02815E+00
 -1      9890 1.00411E+00
 -1      9892 1.00411E+00
 -1      9893 1.04094E+00
 -1      9895 1.04094E+00
 -1      9896 9.80409E-01
 -1      9898 9.80409E-01
 -1      9899 9.55341E-01
 -1      9901 9.55341E-01
 -1      9902 9.92376E-01
 -1      9904 9.92376E-01
 -1      9905 9.32916E-01
 -1      9907 9.32916E-01
 -1      9908 9.12932E-01
 -1      9910 9.12932E-01
 -1      9911 9.46251E-01
 -1      9913 9.46251E-01
 -1      9914 8.91852E-01
 -1      9916 8.91852E-01
 -1      9917 8.71547E-01
 -1      9919 8.71547E-01
 -1      9920 9.02747E-01
 -1      9922 9.02747E-01
 -1      9923 8.51413E-01
 -1      9925 8.51413E-01
 -1      9926 8.30198E-01
 -1      9928 8.30198E-01
 -1      9929 8.61532E-01
 -1      9931 8.61532E-01
 -1      9932 8.11110E-01
 -1      9934 8.11110E-01
 -1      9935 7.94264E-01
 -1      9937 7.94264E-01
 -1      9938 8.22310E-01
 -1      9940 8.22310E-01
 -1      9941 7.76291E-01
 -1      9943 7.76291E-01
 -1      9944 7.59133E-01
 -1      9946 7.59133E-01
 -1      9947 7.85248E-01
 -1      9949 7.85248E-01
 -1      9950 7.41935E-01
 -1      9952 7.41935E-01
 -1      9953 7.23950E-01
 -1      9955 7.23950E-01
 -1      9956 7.50076E-01
 -1      9958 7.50076E-01
 -1      9959 7.07674E-01
 -1      9961 7.07674E-01
 -1      9962 6.94217E-01
 -1      9964 6.94217E-01
 -1      9965 7.16602E-01
 -1      9967 7.16602E-01
 -1      9968 6.79071E-01
 -1      9970 6.79071E-01
 -1      9971 6.64107E-01
 -1      9973 6.64107E-01
 -1      9974 6.85180E-01
 -1      9976 6.85180E-01
 -1      9977 6.49887E-01
 -1      9979 6.49887E-01
 -1      9980 6.35058E-01
 -1      9982 6.35058E-01
 -1      9983 6.55814E-01
 -1      9985 6.55814E-01
 -1      9986 6.22061E-01
 -1      9988 6.22061E-01
 -1      9989 6.11065E-01
 -1      9991 6.11065E-01
 -1      9992 6.28597E-01
 -1      9994 6.28597E-01
 -1      9995 6.00083E-01
 -1      9997 6.00083E-01
 -1      9998 5.89811E-01
 -1     10000 5.89811E-01
 -1     10001 6.04617E-01
 -1     10003 6.04617E-01
 -1     10004 5.82078E-01
 -1     10006 5.82078E-01
 -1     10007 5.76473E-01
 -1     10009 5.76473E-01
 -1     10010 5.85902E-01
 -1     10012 5.85902E-01
 -1     10013 5.94882E-01
 -1     10015 5.94882E-01
 -1     10016 6.13926E-01
 -1     10018 6.13926E-01
 -1     10019 5.96578E-01
 -1     10021 5.96578E-01
 -1     10022 6.13926E-01
 -1     10024 6.13926E-01
 -1     10025 5.81242E-01
 -1     10027 5.81242E-01
 -1     10028 6.14987E-01
 -1     10030 6.14987E-01
 -1     10031 1.59316E+00
 -1     10033 1.59316E+00
 -1     10034 1.64356E+00
 -1     10036 1.64356E+00
 -1     10037 1.57216E+00
 -1     10039 1.57216E+00
 -1     10040 6.09229E-01
 -1     10042 6.09229E-01
 -1     10043 2.79628E+00
 -1     10045 2.79628E+00
 -1     10046 2.70619E+00
 -1     10048 2.70619E+00
 -1     10049 2.78537E+00
 -1     10051 2.78537E+00
 -1     10052 5.11367E-01
 -1     10054 5.11367E-01
 -1     10055 2.87288E+00
 -1     10057 2.87288E+00
 -1     10058 2.84661E+00
 -1     10060 2.84661E+00
 -1     10061 2.89703E+00
 -1     10063 2.89703E+00
 -1     10064 2.68381E+00
 -1     10066 2.68381E+00
 -1     10067 2.75740E+00
 -1     10069 2.75740E+00
 -1     10070 2.76143E+00
 -1     10072 2.76143E+00
 -1     10073 2.75310E+00
 -1     10075 2.75310E+00
 -1     10076 2.75295E+00
 -1     10078 2.75295E+00
 -1     10079 2.75536E+00
 -1     10081 2.75536E+00
 -1     10082 2.75489E+00
 -1     10084 2.75489E+00
 -1     10085 2.75498E+00
 -1     10087 2.75498E+00
 -1     10088 2.75643E+00
 -1     10090 2.75643E+00
 -1     10091 2.74704E+00
 -1     10093 2.74704E+00
 -1     10094 2.74684E+00
 -1     10096 2.74684E+00
 -1     10097 2.78759E+00
 -1     10099 2.78759E+00
 -1     10100 2.77462E+00
 -1     10102 2.77462E+00
 -1     10103 2.84963E+00
 -1     10105 2.84963E+00
 -1     10106 2.82732E+00
 -1     10108 2.82732E+00
 -1     10109 5.34817E-01
 -1     10111 5.34817E-01
 -1     10112 2.91176E+00
 -1     10114 2.91176E+00
 -1     10115 5.24652E-01
 -1     10117 5.24652E-01
 -1     10118 2.65739E+00
 -1     10120 2.65739E+00
 -1     10121 2.65555E+00
 -1     10123 2.65555E+00
 -1     10124 1.69483E+00
 -1     10126 1.69483E+00
 -1     10127 1.74727E+00
 -1     10129 1.74727E+00
 -1     10130 2.66745E+00
 -1     10132 2.66745E+00
 -1     10133 1.42825E+00
 -1     10135 1.42825E+00
 -1     10136 1.46792E+00
 -1     10138 1.46792E+00
 -1     10139 1.28440E+00
 -1     10141 1.28440E+00
 -1     10142 1.31574E+00
 -1     10144 1.31574E+00
 -1     10145 1.15513E+00
 -1     10147 1.15513E+00
 -1     10148 1.18797E+00
 -1     10150 1.18797E+00
 -1     10151 1.04909E+00
 -1     10153 1.04909E+00
 -1     10154 1.07209E+00
 -1     10156 1.07209E+00
 -1     10157 9.51596E-01
 -1     10159 9.51596E-01
 -1     10160 9.76479E-01
 -1     10162 9.76479E-01
 -1     10163 8.68934E-01
 -1     10165 8.68934E-01
 -1     10166 8.89271E-01
 -1     10168 8.89271E-01
 -1     10169 7.94039E-01
 -1     10171 7.94039E-01
 -1     10172 8.10024E-01
 -1     10174 8.10024E-01
 -1     10175 7.25684E-01
 -1     10177 7.25684E-01
 -1     10178 7.43038E-01
 -1     10180 7.43038E-01
 -1     10181 6.66112E-01
 -1     10183 6.66112E-01
 -1     10184 6.80783E-01
 -1     10186 6.80783E-01
 -1     10187 6.09264E-01
 -1     10189 6.09264E-01
 -1     10190 6.19478E-01
 -1     10192 6.19478E-01
 -1     10193 5.51057E-01
 -1     10195 5.51057E-01
 -1     10196 5.60799E-01
 -1     10198 5.60799E-01
 -1     10199 5.71406E-01
 -1     10201 5.71406E-01
 -1     10202 5.55784E-01
 -1     10204 5.55784E-01
 -1     10205 2.78679E+00
 -1     10207 2.78679E+00
 -1     10208 1.48661E+00
 -1     10210 1.48661E+00
 -1     10211 4.59358E-01
 -1     10213 4.59358E-01
 -1     10214 4.35044E-01
 -1     10216 4.35044E-01
 -1     10217 4.33015E-01
 -1     10219 4.33015E-01
 -1     10220 4.35107E-01
 -1     10222 4.35107E-01
 -1     10223 4.35117E-01
 -1     10225 4.35117E-01
 -1     10226 4.34204E-01
 -1     10228 4.34204E-01
 -1     10229 4.34221E-01
 -1     10231 4.34221E-01
 -1     10232 4.31973E-01
 -1     10234 4.31973E-01
 -1     10235 4.32463E-01
 -1     10237 4.32463E-01
 -1     10238 4.31578E-01
 -1     10240 4.31578E-01
 -1     10241 4.31577E-01
 -1     10243 4.31577E-01
 -1     10244 4.32306E-01
 -1     10246 4.32306E-01
 -1     10247 4.32455E-01
 -1     10249 4.32455E-01
 -1     10250 4.28601E-01
 -1     10252 4.28601E-01
 -1     10253 4.29770E-01
 -1     10255 4.29770E-01
 -1     10256 4.30792E-01
 -1     10258 4.30792E-01
 -1     10259 4.24929E-01
 -1     10261 4.24929E-01
 -1     10262 4.96627E-01
 -1     10264 4.96627E-01
 -1     10265 4.94116E-01
 -1     10267 4.94116E-01
 -1     10268 2.77543E+00
 -1     10270 2.77543E+00
 -1     10271 2.70667E+00
 -1     10273 2.70667E+00
 -1     10274 2.65250E+00
 -1     10276 2.65250E+00
 -1     10277 1.66843E+00
 -1     10279 1.66843E+00
 -1     10280 5.47498E-01
 -1     10282 5.47498E-01
 -1     10283 5.45217E-01
 -1     10285 5.45217E-01
 -1     10286 4.43964E-01
 -1     10288 4.43964E-01
 -1     10289 4.35431E-01
 -1     10291 4.35431E-01
 -1     10292 4.40831E-01
 -1     10294 4.40831E-01
 -1     10295 4.39749E-01
 -1     10297 4.39749E-01
 -1     10298 4.39559E-01
 -1     10300 4.39559E-01
 -1     10301 5.72754E-01
 -1     10303 5.72754E-01
 -1     10304 5.44935E-01
 -1     10306 5.44935E-01
 -1     10307 5.95957E-01
 -1     10309 5.95957E-01
 -1     10310 4.44808E-01
 -1     10312 4.44808E-01
 -1     10313 6.59863E-01
 -1     10315 6.59863E-01
 -1     10316 7.19607E-01
 -1     10318 7.19607E-01
 -1     10319 7.85664E-01
 -1     10321 7.85664E-01
 -1     10322 8.58871E-01
 -1     10324 8.58871E-01
 -1     10325 5.00036E-01
 -1     10327 5.00036E-01
 -1     10328 4.32175E-01
 -1     10330 4.32175E-01
 -1     10331 4.38980E-01
 -1     10333 4.38980E-01
 -1     10334 4.40436E-01
 -1     10336 4.40436E-01
 -1     10337 2.65910E+00
 -1     10339 2.65910E+00
 -1     10340 4.39250E-01
 -1     10342 4.39250E-01
 -1     10343 4.41112E-01
 -1     10345 4.41112E-01
 -1     10346 4.40125E-01
 -1     10348 4.40125E-01
 -1     10349 5.55784E-01
 -1     10351 5.55784E-01
 -1     10352 5.64814E-01
 -1     10354 5.64814E-01
 -1     10355 6.29583E-01
 -1     10357 6.29583E-01
 -1     10358 6.88933E-01
 -1     10360 6.88933E-01
 -1     10361 7.52097E-01
 -1     10363 7.52097E-01
 -1     10364 8.20887E-01
 -1     10366 8.20887E-01
 -1     10367 8.99071E-01
 -1     10369 8.99071E-01
 -1     10370 9.87521E-01
 -1     10372 9.87521E-01
 -1     10373 1.08688E+00
 -1     10375 1.08688E+00
 -1     10376 1.20269E+00
 -1     10378 1.20269E+00
 -1     10379 1.77694E+00
 -1     10381 1.77694E+00
 -1     10382 2.73197E+00
 -1     10384 2.73197E+00
 -1     10385 2.67315E+00
 -1     10387 2.67315E+00
 -1     10388 2.65292E+00
 -1     10390 2.65292E+00
 -1     10391 2.65958E+00
 -1     10393 2.65958E+00
 -1     10394 2.65835E+00
 -1     10396 2.65835E+00
 -1     10397 2.65599E+00
 -1     10399 2.65599E+00
 -1     10400 2.65864E+00
 -1     10402 2.65864E+00
 -1     10403 9.41911E-01
 -1     10405 9.41911E-01
 -1     10406 1.03578E+00
 -1     10408 1.03578E+00
 -1     10409 1.14237E+00
 -1     10411 1.14237E+00
 -1     10412 1.26687E+00
 -1     10414 1.26687E+00
 -1     10415 5.81242E-01
 -1     10417 5.81242E-01
 -1     10418 1.40822E+00
 -1     10420 1.40822E+00
 -1     10421 1.33514E+00
 -1     10423 1.33514E+00
 -1     10424 4.42440E-01
 -1     10426 4.42440E-01
 -1     10427 4.43586E-01
 -1     10429 4.43586E-01
 -1     10430 4.44460E-01
 -1     10432 4.44460E-01
 -1     10433 4.42908E-01
 -1     10435 4.42908E-01
 -1     10436 1.46479E+00
 -1     10438 1.46479E+00
 -1     10439 1.50534E+00
 -1     10441 1.50534E+00
 -1     10442 5.78961E-01
 -1     10444 5.78961E-01
 -1     10445 9.30659E-01
 -1     10447 9.30659E-01
 -1     10448 9.52781E-01
 -1     10450 9.52781E-01
 -1     10451 2.66200E+00
 -1     10453 2.66200E+00
 -1     10454 2.65385E+00
 -1     10456 2.65385E+00
 -1     10457 2.56759E+00
 -1     10459 2.56759E+00
 -1     10460 2.57045E+00
 -1     10462 2.57045E+00
 -1     10463 2.56800E+00
 -1     10465 2.56800E+00
 -1     10466 2.56734E+00
 -1     10468 2.56734E+00
 -1     10469 2.57010E+00
 -1     10471 2.57010E+00
 -1     10472 2.56987E+00
 -1     10474 2.56987E+00
 -1     10475 4.48000E-01
 -1     10477 4.48000E-01
 -1     10478 4.47617E-01
 -1     10480 4.47617E-01
 -1     10481 1.63900E+00
 -1     10483 1.63900E+00
 -1     10484 1.69027E+00
 -1     10486 1.69027E+00
 -1     10487 2.56628E+00
 -1     10489 2.56628E+00
 -1     10490 2.57099E+00
 -1     10492 2.57099E+00
 -1     10493 2.58810E+00
 -1     10495 2.58810E+00
 -1     10496 2.57173E+00
 -1     10498 2.57173E+00
 -1     10499 2.64202E+00
 -1     10501 2.64202E+00
 -1     10502 2.62487E+00
 -1     10504 2.62487E+00
 -1     10505 2.52345E+00
 -1     10507 2.52345E+00
 -1     10508 2.57204E+00
 -1     10510 2.57204E+00
 -1     10511 2.56977E+00
 -1     10513 2.56977E+00
 -1     10514 2.56904E+00
 -1     10516 2.56904E+00
 -1     10517 2.48038E+00
 -1     10519 2.48038E+00
 -1     10520 2.48152E+00
 -1     10522 2.48152E+00
 -1     10523 2.65086E+00
 -1     10525 2.65086E+00
 -1     10526 2.65454E+00
 -1     10528 2.65454E+00
 -1     10529 2.57477E+00
 -1     10531 2.57477E+00
 -1     10532 2.58071E+00
 -1     10534 2.58071E+00
 -1     10535 2.48372E+00
 -1     10537 2.48372E+00
 -1     10538 4.51732E-01
 -1     10540 4.51732E-01
 -1     10541 4.52200E-01
 -1     10543 4.52200E-01
 -1     10544 1.31701E+00
 -1     10546 1.31701E+00
 -1     10547 1.35226E+00
 -1     10549 1.35226E+00
 -1     10550 1.74563E+00
 -1     10552 1.74563E+00
 -1     10553 1.80286E+00
 -1     10555 1.80286E+00
 -1     10556 1.71620E+00
 -1     10558 1.71620E+00
 -1     10559 1.18675E+00
 -1     10561 1.18675E+00
 -1     10562 1.21792E+00
 -1     10564 1.21792E+00
 -1     10565 1.07370E+00
 -1     10567 1.07370E+00
 -1     10568 1.10003E+00
 -1     10570 1.10003E+00
 -1     10571 9.75437E-01
 -1     10573 9.75437E-01
 -1     10574 9.98926E-01
 -1     10576 9.98926E-01
 -1     10577 9.64186E-01
 -1     10579 9.64186E-01
 -1     10580 8.49150E-01
 -1     10582 8.49150E-01
 -1     10583 8.68633E-01
 -1     10585 8.68633E-01
 -1     10586 7.77945E-01
 -1     10588 7.77945E-01
 -1     10589 7.94668E-01
 -1     10591 7.94668E-01
 -1     10592 7.13340E-01
 -1     10594 7.13340E-01
 -1     10595 7.28983E-01
 -1     10597 7.28983E-01
 -1     10598 4.57251E-01
 -1     10600 4.57251E-01
 -1     10601 4.57403E-01
 -1     10603 4.57403E-01
 -1     10604 6.26439E-01
 -1     10606 6.26439E-01
 -1     10607 6.42680E-01
 -1     10609 6.42680E-01
 -1     10610 5.86881E-01
 -1     10612 5.86881E-01
 -1     10613 6.00638E-01
 -1     10615 6.00638E-01
 -1     10616 2.70469E+00
 -1     10618 2.70469E+00
 -1     10619 2.76451E+00
 -1     10621 2.76451E+00
 -1     10622 2.82875E+00
 -1     10624 2.82875E+00
 -1     10625 4.40275E-01
 -1     10627 4.40275E-01
 -1     10628 4.43713E-01
 -1     10630 4.43713E-01
 -1     10631 6.55471E-01
 -1     10633 6.55471E-01
 -1     10634 6.69509E-01
 -1     10636 6.69509E-01
 -1     10637 6.52326E-01
 -1     10639 6.52326E-01
 -1     10640 4.53201E-01
 -1     10642 4.53201E-01
 -1     10643 4.53202E-01
 -1     10645 4.53202E-01
 -1     10646 4.62493E-01
 -1     10648 4.62493E-01
 -1     10649 4.53148E-01
 -1     10651 4.53148E-01
 -1     10652 4.53826E-01
 -1     10654 4.53826E-01
 -1     10655 4.63441E-01
 -1     10657 4.63441E-01
 -1     10658 4.60056E-01
 -1     10660 4.60056E-01
 -1     10661 4.55221E-01
 -1     10663 4.55221E-01
 -1     10664 4.72499E-01
 -1     10666 4.72499E-01
 -1     10667 5.72754E-01
 -1     10669 5.72754E-01
 -1     10670 5.72754E-01
 -1     10672 5.72754E-01
 -1     10673 5.24652E-01
 -1     10675 5.24652E-01
 -1     10676 4.47529E-01
 -1     10678 4.47529E-01
 -1     10679 4.48222E-01
 -1     10681 4.48222E-01
 -1     10682 4.56280E-01
 -1     10684 4.56280E-01
 -1     10685 2.57291E+00
 -1     10687 2.57291E+00
 -1     10688 2.57438E+00
 -1     10690 2.57438E+00
 -1     10691 2.48627E+00
 -1     10693 2.48627E+00
 -1     10694 4.49674E-01
 -1     10696 4.49674E-01
 -1     10697 4.49103E-01
 -1     10699 4.49103E-01
 -1     10700 4.48986E-01
 -1     10702 4.48986E-01
 -1     10703 4.50661E-01
 -1     10705 4.50661E-01
 -1     10706 4.41433E-01
 -1     10708 4.41433E-01
 -1     10709 4.42815E-01
 -1     10711 4.42815E-01
 -1     10712 2.76663E+00
 -1     10714 2.76663E+00
 -1     10715 2.73133E+00
 -1     10717 2.73133E+00
 -1     10718 2.65320E+00
 -1     10720 2.65320E+00
 -1     10721 2.78465E+00
 -1     10723 2.78465E+00
 -1     10724 2.58961E+00
 -1     10726 2.58961E+00
 -1     10727 2.60003E+00
 -1     10729 2.60003E+00
 -1     10730 2.49693E+00
 -1     10732 2.49693E+00
 -1     10733 2.71163E+00
 -1     10735 2.71163E+00
 -1     10736 2.70469E+00
 -1     10738 2.70469E+00
 -1     10739 2.68240E+00
 -1     10741 2.68240E+00
 -1     10742 2.62532E+00
 -1     10744 2.62532E+00
 -1     10745 2.85458E+00
 -1     10747 2.85458E+00
 -1     10748 2.85854E+00
 -1     10750 2.85854E+00
 -1     10751 2.85854E+00
 -1     10753 2.85854E+00
 -1     10754 2.77726E+00
 -1     10756 2.77726E+00
 -1     10757 2.54450E+00
 -1     10759 2.54450E+00
 -1     10760 2.77325E+00
 -1     10762 2.77325E+00
 -1     10763 2.34454E+00
 -1     10765 2.34454E+00
 -1     10766 2.25934E+00
 -1     10768 2.25934E+00
 -1     10769 2.49201E+00
 -1     10771 2.49201E+00
 -1     10772 2.18873E+00
 -1     10774 2.18873E+00
 -1     10775 2.11714E+00
 -1     10777 2.11714E+00
 -1     10778 2.22145E+00
 -1     10780 2.22145E+00
 -1     10781 2.05371E+00
 -1     10783 2.05371E+00
 -1     10784 1.98965E+00
 -1     10786 1.98965E+00
 -1     10787 2.08741E+00
 -1     10789 2.08741E+00
 -1     10790 1.92883E+00
 -1     10792 1.92883E+00
 -1     10793 1.86996E+00
 -1     10795 1.86996E+00
 -1     10796 1.96316E+00
 -1     10798 1.96316E+00
 -1     10799 1.81273E+00
 -1     10801 1.81273E+00
 -1     10802 1.75890E+00
 -1     10804 1.75890E+00
 -1     10805 1.84512E+00
 -1     10807 1.84512E+00
 -1     10808 1.70595E+00
 -1     10810 1.70595E+00
 -1     10811 1.65613E+00
 -1     10813 1.65613E+00
 -1     10814 1.73494E+00
 -1     10816 1.73494E+00
 -1     10817 1.60769E+00
 -1     10819 1.60769E+00
 -1     10820 1.56195E+00
 -1     10822 1.56195E+00
 -1     10823 1.63356E+00
 -1     10825 1.63356E+00
 -1     10826 1.51778E+00
 -1     10828 1.51778E+00
 -1     10829 1.47610E+00
 -1     10831 1.47610E+00
 -1     10832 1.54096E+00
 -1     10834 1.54096E+00
 -1     10835 1.43581E+00
 -1     10837 1.43581E+00
 -1     10838 1.39716E+00
 -1     10840 1.39716E+00
 -1     10841 1.45651E+00
 -1     10843 1.45651E+00
 -1     10844 1.36009E+00
 -1     10846 1.36009E+00
 -1     10847 1.32425E+00
 -1     10849 1.32425E+00
 -1     10850 1.37915E+00
 -1     10852 1.37915E+00
 -1     10853 1.28980E+00
 -1     10855 1.28980E+00
 -1     10856 1.25664E+00
 -1     10858 1.25664E+00
 -1     10859 1.30764E+00
 -1     10861 1.30764E+00
 -1     10862 1.22454E+00
 -1     10864 1.22454E+00
 -1     10865 1.19328E+00
 -1     10867 1.19328E+00
 -1     10868 1.24108E+00
 -1     10870 1.24108E+00
 -1     10871 1.16334E+00
 -1     10873 1.16334E+00
 -1     10874 1.13403E+00
 -1     10876 1.13403E+00
 -1     10877 1.17905E+00
 -1     10879 1.17905E+00
 -1     10880 1.10617E+00
 -1     10882 1.10617E+00
 -1     10883 1.07960E+00
 -1     10885 1.07960E+00
 -1     10886 1.12125E+00
 -1     10888 1.12125E+00
 -1     10889 1.05363E+00
 -1     10891 1.05363E+00
 -1     10892 1.02876E+00
 -1     10894 1.02876E+00
 -1     10895 1.06742E+00
 -1     10897 1.06742E+00
 -1     10898 1.00440E+00
 -1     10900 1.00440E+00
 -1     10901 9.80698E-01
 -1     10903 9.80698E-01
 -1     10904 1.01709E+00
 -1     10906 1.01709E+00
 -1     10907 9.57698E-01
 -1     10909 9.57698E-01
 -1     10910 9.35274E-01
 -1     10912 9.35274E-01
 -1     10913 9.69721E-01
 -1     10915 9.69721E-01
 -1     10916 9.13409E-01
 -1     10918 9.13409E-01
 -1     10919 8.92329E-01
 -1     10921 8.92329E-01
 -1     10922 9.24856E-01
 -1     10924 9.24856E-01
 -1     10925 8.71610E-01
 -1     10927 8.71610E-01
 -1     10928 8.51476E-01
 -1     10930 8.51476E-01
 -1     10931 8.82272E-01
 -1     10933 8.82272E-01
 -1     10934 8.31833E-01
 -1     10936 8.31833E-01
 -1     10937 8.12744E-01
 -1     10939 8.12744E-01
 -1     10940 8.41911E-01
 -1     10942 8.41911E-01
 -1     10943 7.93975E-01
 -1     10945 7.93975E-01
 -1     10946 7.76001E-01
 -1     10948 7.76001E-01
 -1     10949 8.03498E-01
 -1     10951 8.03498E-01
 -1     10952 7.58058E-01
 -1     10954 7.58058E-01
 -1     10955 7.40860E-01
 -1     10957 7.40860E-01
 -1     10958 7.66785E-01
 -1     10960 7.66785E-01
 -1     10961 7.23725E-01
 -1     10963 7.23725E-01
 -1     10964 7.07449E-01
 -1     10966 7.07449E-01
 -1     10967 7.31707E-01
 -1     10969 7.31707E-01
 -1     10970 6.91157E-01
 -1     10972 6.91157E-01
 -1     10973 6.76010E-01
 -1     10975 6.76010E-01
 -1     10976 6.98280E-01
 -1     10978 6.98280E-01
 -1     10979 6.60750E-01
 -1     10981 6.60750E-01
 -1     10982 6.46530E-01
 -1     10984 6.46530E-01
 -1     10985 6.66727E-01
 -1     10987 6.66727E-01
 -1     10988 6.32236E-01
 -1     10990 6.32236E-01
 -1     10991 6.19239E-01
 -1     10993 6.19239E-01
 -1     10994 6.37173E-01
 -1     10996 6.37173E-01
 -1     10997 6.05909E-01
 -1     10999 6.05909E-01
 -1     11000 5.94926E-01
 -1     11002 5.94926E-01
 -1     11003 6.09548E-01
 -1     11005 6.09548E-01
 -1     11006 5.85902E-01
 -1     11008 5.85902E-01
 -1     11009 5.78170E-01
 -1     11011 5.78170E-01
 -1     11012 5.87194E-01
 -1     11014 5.87194E-01
 -1     11015 5.77372E-01
 -1     11017 5.77372E-01
 -1     11018 5.95781E-01
 -1     11020 5.95781E-01
 -1     11021 5.77372E-01
 -1     11023 5.77372E-01
 -1     11024 6.14987E-01
 -1     11026 6.14987E-01
 -1     11027 6.14987E-01
 -1     11029 6.14987E-01
 -1     11030 5.95781E-01
 -1     11032 5.95781E-01
 -1     11033 1.54647E+00
 -1     11035 1.54647E+00
 -1     11036 1.59147E+00
 -1     11038 1.59147E+00
 -1     11039 1.61331E+00
 -1     11041 1.61331E+00
 -1     11042 1.52465E+00
 -1     11044 1.52465E+00
 -1     11045 2.61825E+00
 -1     11047 2.61825E+00
 -1     11048 2.63021E+00
 -1     11050 2.63021E+00
 -1     11051 2.52405E+00
 -1     11053 2.52405E+00
 -1     11054 5.79609E-01
 -1     11056 5.79609E-01
 -1     11057 5.62638E-01
 -1     11059 5.62638E-01
 -1     11060 5.79609E-01
 -1     11062 5.79609E-01
 -1     11063 4.59358E-01
 -1     11065 4.59358E-01
 -1     11066 4.76550E-01
 -1     11068 4.76550E-01
 -1     11069 5.24652E-01
 -1     11071 5.24652E-01
 -1     11072 4.60905E-01
 -1     11074 4.60905E-01
 -1     11075 5.63808E-01
 -1     11077 5.63808E-01
 -1     11078 5.27783E-01
 -1     11080 5.27783E-01
 -1     11081 4.84883E-01
 -1     11083 4.84883E-01
 -1     11084 5.63808E-01
 -1     11086 5.63808E-01
 -1     11087 7.61292E-01
 -1     11089 7.61292E-01
 -1     11090 7.70295E-01
 -1     11092 7.70295E-01
 -1     11093 7.44446E-01
 -1     11095 7.44446E-01
 -1     11096 2.56617E+00
 -1     11098 2.56617E+00
 -1     11099 2.56639E+00
 -1     11101 2.56639E+00
 -1     11102 2.77248E+00
 -1     11104 2.77248E+00
 -1     11105 2.57178E+00
 -1     11107 2.57178E+00
 -1     11108 2.57079E+00
 -1     11110 2.57079E+00
 -1     11111 2.55792E+00
 -1     11113 2.55792E+00
 -1     11114 2.55364E+00
 -1     11116 2.55364E+00
 -1     11117 2.47171E+00
 -1     11119 2.47171E+00
 -1     11120 2.45968E+00
 -1     11122 2.45968E+00
 -1     11123 2.51322E+00
 -1     11125 2.51322E+00
 -1     11126 1.87039E+00
 -1     11128 1.87039E+00
 -1     11129 1.93346E+00
 -1     11131 1.93346E+00
 -1     11132 1.83908E+00
 -1     11134 1.83908E+00
 -1     11135 2.01087E+00
 -1     11137 2.01087E+00
 -1     11138 2.07990E+00
 -1     11140 2.07990E+00
 -1     11141 1.98403E+00
 -1     11143 1.98403E+00
 -1     11144 1.38844E+00
 -1     11146 1.38844E+00
 -1     11147 1.42628E+00
 -1     11149 1.42628E+00
 -1     11150 2.48231E+00
 -1     11152 2.48231E+00
 -1     11153 1.15690E+00
 -1     11155 1.15690E+00
 -1     11156 1.17213E+00
 -1     11158 1.17213E+00
 -1     11159 1.12775E+00
 -1     11161 1.12775E+00
 -1     11162 1.24986E+00
 -1     11164 1.24986E+00
 -1     11165 1.28288E+00
 -1     11167 1.28288E+00
 -1     11168 1.11456E+00
 -1     11170 1.11456E+00
 -1     11171 1.30000E+00
 -1     11173 1.30000E+00
 -1     11174 1.02312E+00
 -1     11176 1.02312E+00
 -1     11177 1.04789E+00
 -1     11179 1.04789E+00
 -1     11180 8.30157E-01
 -1     11182 8.30157E-01
 -1     11183 8.39920E-01
 -1     11185 8.39920E-01
 -1     11186 8.11656E-01
 -1     11188 8.11656E-01
 -1     11189 7.38179E-01
 -1     11191 7.38179E-01
 -1     11192 8.88523E-01
 -1     11194 8.88523E-01
 -1     11195 9.09241E-01
 -1     11197 9.09241E-01
 -1     11198 8.03937E-01
 -1     11200 8.03937E-01
 -1     11201 9.20111E-01
 -1     11203 9.20111E-01
 -1     11204 2.47820E+00
 -1     11206 2.47820E+00
 -1     11207 6.82849E-01
 -1     11209 6.82849E-01
 -1     11210 6.97880E-01
 -1     11212 6.97880E-01
 -1     11213 4.60206E-01
 -1     11215 4.60206E-01
 -1     11216 6.02269E-01
 -1     11218 6.02269E-01
 -1     11219 6.19654E-01
 -1     11221 6.19654E-01
 -1     11222 5.35521E-01
 -1     11224 5.35521E-01
 -1     11225 5.41642E-01
 -1     11227 5.41642E-01
 -1     11228 5.59346E-01
 -1     11230 5.59346E-01
 -1     11231 2.65589E+00
 -1     11233 2.65589E+00
 -1     11234 2.57326E+00
 -1     11236 2.57326E+00
 -1     11237 2.64822E+00
 -1     11239 2.64822E+00
 -1     11240 6.32751E-01
 -1     11242 6.32751E-01
 -1     11243 7.07256E-01
 -1     11245 7.07256E-01
 -1     11246 6.78456E-01
 -1     11248 6.78456E-01
 -1     11249 2.56028E+00
 -1     11251 2.56028E+00
 -1     11252 4.54856E-01
 -1     11254 4.54856E-01
 -1     11255 4.55051E-01
 -1     11257 4.55051E-01
 -1     11258 1.44502E+00
 -1     11260 1.44502E+00
 -1     11261 4.49458E-01
 -1     11263 4.49458E-01
 -1     11264 4.50319E-01
 -1     11266 4.50319E-01
 -1     11267 4.49106E-01
 -1     11269 4.49106E-01
 -1     11270 4.48990E-01
 -1     11272 4.48990E-01
 -1     11273 4.50969E-01
 -1     11275 4.50969E-01
 -1     11276 4.51145E-01
 -1     11278 4.51145E-01
 -1     11279 4.41706E-01
 -1     11281 4.41706E-01
 -1     11282 4.43580E-01
 -1     11284 4.43580E-01
 -1     11285 4.57136E-01
 -1     11287 4.57136E-01
 -1     11288 4.43964E-01
 -1     11290 4.43964E-01
 -1     11291 2.49655E+00
 -1     11293 2.49655E+00
 -1     11294 2.74338E+00
 -1     11296 2.74338E+00
 -1     11297 2.65667E+00
 -1     11299 2.65667E+00
 -1     11300 4.54605E-01
 -1     11302 4.54605E-01
 -1     11303 4.55261E-01
 -1     11305 4.55261E-01
 -1     11306 2.17269E+00
 -1     11308 2.17269E+00
 -1     11309 2.24652E+00
 -1     11311 2.24652E+00
 -1     11312 2.46018E+00
 -1     11314 2.46018E+00
 -1     11315 2.15423E+00
 -1     11317 2.15423E+00
 -1     11318 4.84883E-01
 -1     11320 4.84883E-01
 -1     11321 5.77467E-01
 -1     11323 5.77467E-01
 -1     11324 4.67647E-01
 -1     11326 4.67647E-01
 -1     11327 2.47817E+00
 -1     11329 2.47817E+00
 -1     11330 2.47288E+00
 -1     11332 2.47288E+00
 -1     11333 2.48559E+00
 -1     11335 2.48559E+00
 -1     11336 1.06104E+00
 -1     11338 1.06104E+00
 -1     11339 4.60078E-01
 -1     11341 4.60078E-01
 -1     11342 1.37032E+00
 -1     11344 1.37032E+00
 -1     11345 1.23392E+00
 -1     11347 1.23392E+00
 -1     11348 1.01104E+00
 -1     11350 1.01104E+00
 -1     11351 8.78803E-01
 -1     11353 8.78803E-01
 -1     11354 6.24336E-01
 -1     11356 6.24336E-01
 -1     11357 4.50965E-01
 -1     11359 4.50965E-01
 -1     11360 4.60975E-01
 -1     11362 4.60975E-01
 -1     11363 4.58344E-01
 -1     11365 4.58344E-01
 -1     11366 4.64417E-01
 -1     11368 4.64417E-01
 -1     11369 4.57429E-01
 -1     11371 4.57429E-01
 -1     11372 4.57358E-01
 -1     11374 4.57358E-01
 -1     11375 4.59813E-01
 -1     11377 4.59813E-01
 -1     11378 9.52622E-01
 -1     11380 9.52622E-01
 -1     11381 9.75279E-01
 -1     11383 9.75279E-01
 -1     11384 4.69430E-01
 -1     11386 4.69430E-01
 -1     11387 4.70843E-01
 -1     11389 4.70843E-01
 -1     11390 2.39715E+00
 -1     11392 2.39715E+00
 -1     11393 2.39835E+00
 -1     11395 2.39835E+00
 -1     11396 2.38830E+00
 -1     11398 2.38830E+00
 -1     11399 2.37449E+00
 -1     11401 2.37449E+00
 -1     11402 2.76847E+00
 -1     11404 2.76847E+00
 -1     11405 1.04786E+00
 -1     11407 1.04786E+00
 -1     11408 1.07367E+00
 -1     11410 1.07367E+00
 -1     11411 9.98635E-01
 -1     11413 9.98635E-01
 -1     11414 1.02283E+00
 -1     11416 1.02283E+00
 -1     11417 1.03546E+00
 -1     11419 1.03546E+00
 -1     11420 9.87072E-01
 -1     11422 9.87072E-01
 -1     11423 4.85420E-01
 -1     11425 4.85420E-01
 -1     11426 4.82889E-01
 -1     11428 4.82889E-01
 -1     11429 4.76457E-01
 -1     11431 4.76457E-01
 -1     11432 4.77487E-01
 -1     11434 4.77487E-01
 -1     11435 2.40758E+00
 -1     11437 2.40758E+00
 -1     11438 2.40498E+00
 -1     11440 2.40498E+00
 -1     11441 2.39773E+00
 -1     11443 2.39773E+00
 -1     11444 2.41037E+00
 -1     11446 2.41037E+00
 -1     11447 2.31315E+00
 -1     11449 2.31315E+00
 -1     11450 2.40058E+00
 -1     11452 2.40058E+00
 -1     11453 2.40490E+00
 -1     11455 2.40490E+00
 -1     11456 2.31953E+00
 -1     11458 2.31953E+00
 -1     11459 1.67937E+00
 -1     11461 1.67937E+00
 -1     11462 1.73472E+00
 -1     11464 1.73472E+00
 -1     11465 4.67438E-01
 -1     11467 4.67438E-01
 -1     11468 4.66448E-01
 -1     11470 4.66448E-01
 -1     11471 2.43863E+00
 -1     11473 2.43863E+00
 -1     11474 2.45686E+00
 -1     11476 2.45686E+00
 -1     11477 1.35188E+00
 -1     11479 1.35188E+00
 -1     11480 1.38807E+00
 -1     11482 1.38807E+00
 -1     11483 1.21769E+00
 -1     11485 1.21769E+00
 -1     11486 1.24963E+00
 -1     11488 1.24963E+00
 -1     11489 4.72203E-01
 -1     11491 4.72203E-01
 -1     11492 4.70732E-01
 -1     11494 4.70732E-01
 -1     11495 2.40312E+00
 -1     11497 2.40312E+00
 -1     11498 2.40243E+00
 -1     11500 2.40243E+00
 -1     11501 2.32510E+00
 -1     11503 2.32510E+00
 -1     11504 5.09477E-01
 -1     11506 5.09477E-01
 -1     11507 4.81731E-01
 -1     11509 4.81731E-01
 -1     11510 5.60656E-01
 -1     11512 5.60656E-01
 -1     11513 1.28257E+00
 -1     11515 1.28257E+00
 -1     11516 1.31670E+00
 -1     11518 1.31670E+00
 -1     11519 1.33445E+00
 -1     11521 1.33445E+00
 -1     11522 1.26633E+00
 -1     11524 1.26633E+00
 -1     11525 6.33453E-01
 -1     11527 6.33453E-01
 -1     11528 6.35083E-01
 -1     11530 6.35083E-01
 -1     11531 1.10051E+00
 -1     11533 1.10051E+00
 -1     11534 1.12822E+00
 -1     11536 1.12822E+00
 -1     11537 1.08733E+00
 -1     11539 1.08733E+00
 -1     11540 8.68736E-01
 -1     11542 8.68736E-01
 -1     11543 8.88626E-01
 -1     11545 8.88626E-01
 -1     11546 7.95592E-01
 -1     11548 7.95592E-01
 -1     11549 8.12581E-01
 -1     11551 8.12581E-01
 -1     11552 7.32541E-01
 -1     11554 7.32541E-01
 -1     11555 7.48004E-01
 -1     11557 7.48004E-01
 -1     11558 2.63126E+00
 -1     11560 2.63126E+00
 -1     11561 2.62623E+00
 -1     11563 2.62623E+00
 -1     11564 2.48554E+00
 -1     11566 2.48554E+00
 -1     11567 2.50355E+00
 -1     11569 2.50355E+00
 -1     11570 2.40012E+00
 -1     11572 2.40012E+00
 -1     11573 5.21889E-01
 -1     11575 5.21889E-01
 -1     11576 5.06943E-01
 -1     11578 5.06943E-01
 -1     11579 4.80550E-01
 -1     11581 4.80550E-01
 -1     11582 4.79441E-01
 -1     11584 4.79441E-01
 -1     11585 5.11365E-01
 -1     11587 5.11365E-01
 -1     11588 4.76710E-01
 -1     11590 4.76710E-01
 -1     11591 4.78909E-01
 -1     11593 4.78909E-01
 -1     11594 4.88750E-01
 -1     11596 4.88750E-01
 -1     11597 1.15689E+00
 -1     11599 1.15689E+00
 -1     11600 1.18675E+00
 -1     11602 1.18675E+00
 -1     11603 1.20245E+00
 -1     11605 1.20245E+00
 -1     11606 1.14284E+00
 -1     11608 1.14284E+00
 -1     11609 6.04584E-01
 -1     11611 6.04584E-01
 -1     11612 5.77467E-01
 -1     11614 5.77467E-01
 -1     11615 6.22705E-01
 -1     11617 6.22705E-01
 -1     11618 6.34331E-01
 -1     11620 6.34331E-01
 -1     11621 6.41115E-01
 -1     11623 6.41115E-01
 -1     11624 6.43448E-01
 -1     11626 6.43448E-01
 -1     11627 4.73577E-01
 -1     11629 4.73577E-01
 -1     11630 4.74578E-01
 -1     11632 4.74578E-01
 -1     11633 4.82928E-01
 -1     11635 4.82928E-01
 -1     11636 4.76239E-01
 -1     11638 4.76239E-01
 -1     11639 4.76185E-01
 -1     11641 4.76185E-01
 -1     11642 4.87323E-01
 -1     11644 4.87323E-01
 -1     11645 2.41172E+00
 -1     11647 2.41172E+00
 -1     11648 2.42062E+00
 -1     11650 2.42062E+00
 -1     11651 2.32858E+00
 -1     11653 2.32858E+00
 -1     11654 1.42492E+00
 -1     11656 1.42492E+00
 -1     11657 1.46343E+00
 -1     11659 1.46343E+00
 -1     11660 1.40647E+00
 -1     11662 1.40647E+00
 -1     11663 5.16737E-01
 -1     11665 5.16737E-01
 -1     11666 5.19390E-01
 -1     11668 5.19390E-01
 -1     11669 5.25800E-01
 -1     11671 5.25800E-01
 -1     11672 4.64616E-01
 -1     11674 4.64616E-01
 -1     11675 4.64529E-01
 -1     11677 4.64529E-01
 -1     11678 4.74697E-01
 -1     11680 4.74697E-01
 -1     11681 2.41112E+00
 -1     11683 2.41112E+00
 -1     11684 2.41304E+00
 -1     11686 2.41304E+00
 -1     11687 2.33714E+00
 -1     11689 2.33714E+00
 -1     11690 4.69528E-01
 -1     11692 4.69528E-01
 -1     11693 4.69531E-01
 -1     11695 4.69531E-01
 -1     11696 4.81919E-01
 -1     11698 4.81919E-01
 -1     11699 4.67516E-01
 -1     11701 4.67516E-01
 -1     11702 4.72922E-01
 -1     11704 4.72922E-01
 -1     11705 4.97102E-01
 -1     11707 4.97102E-01
 -1     11708 2.71206E+00
 -1     11710 2.71206E+00
 -1     11711 2.64274E+00
 -1     11713 2.64274E+00
 -1     11714 2.84677E+00
 -1     11716 2.84677E+00
 -1     11717 2.84677E+00
 -1     11719 2.84677E+00
 -1     11720 7.62317E-01
 -1     11722 7.62317E-01
 -1     11723 7.78970E-01
 -1     11725 7.78970E-01
 -1     11726 7.87614E-01
 -1     11728 7.87614E-01
 -1     11729 7.56679E-01
 -1     11731 7.56679E-01
 -1     11732 2.69197E+00
 -1     11734 2.69197E+00
 -1     11735 2.49201E+00
 -1     11737 2.49201E+00
 -1     11738 2.27772E+00
 -1     11740 2.27772E+00
 -1     11741 2.20712E+00
 -1     11743 2.20712E+00
 -1     11744 2.47768E+00
 -1     11746 2.47768E+00
 -1     11747 2.12645E+00
 -1     11749 2.12645E+00
 -1     11750 2.06301E+00
 -1     11752 2.06301E+00
 -1     11753 2.18272E+00
 -1     11755 2.18272E+00
 -1     11756 1.99910E+00
 -1     11758 1.99910E+00
 -1     11759 1.93828E+00
 -1     11761 1.93828E+00
 -1     11762 2.03813E+00
 -1     11764 2.03813E+00
 -1     11765 1.87703E+00
 -1     11767 1.87703E+00
 -1     11768 1.81980E+00
 -1     11770 1.81980E+00
 -1     11771 1.91297E+00
 -1     11773 1.91297E+00
 -1     11774 1.76266E+00
 -1     11776 1.76266E+00
 -1     11777 1.70972E+00
 -1     11779 1.70972E+00
 -1     11780 1.79457E+00
 -1     11782 1.79457E+00
 -1     11783 1.65763E+00
 -1     11785 1.65763E+00
 -1     11786 1.60919E+00
 -1     11788 1.60919E+00
 -1     11789 1.68535E+00
 -1     11791 1.68535E+00
 -1     11792 1.56222E+00
 -1     11794 1.56222E+00
 -1     11795 1.51806E+00
 -1     11797 1.51806E+00
 -1     11798 1.58629E+00
 -1     11800 1.58629E+00
 -1     11801 1.47569E+00
 -1     11803 1.47569E+00
 -1     11804 1.43540E+00
 -1     11806 1.43540E+00
 -1     11807 1.49695E+00
 -1     11809 1.49695E+00
 -1     11810 1.39685E+00
 -1     11812 1.39685E+00
 -1     11813 1.35979E+00
 -1     11815 1.35979E+00
 -1     11816 1.41603E+00
 -1     11818 1.41603E+00
 -1     11819 1.32427E+00
 -1     11821 1.32427E+00
 -1     11822 1.28982E+00
 -1     11824 1.28982E+00
 -1     11825 1.34197E+00
 -1     11827 1.34197E+00
 -1     11828 1.25673E+00
 -1     11830 1.25673E+00
 -1     11831 1.22463E+00
 -1     11833 1.22463E+00
 -1     11834 1.27336E+00
 -1     11836 1.27336E+00
 -1     11837 1.19377E+00
 -1     11839 1.19377E+00
 -1     11840 1.16383E+00
 -1     11842 1.16383E+00
 -1     11843 1.20941E+00
 -1     11845 1.20941E+00
 -1     11846 1.13507E+00
 -1     11848 1.13507E+00
 -1     11849 1.10721E+00
 -1     11851 1.10721E+00
 -1     11852 1.14979E+00
 -1     11854 1.14979E+00
 -1     11855 1.08035E+00
 -1     11857 1.08035E+00
 -1     11858 1.05439E+00
 -1     11860 1.05439E+00
 -1     11861 1.09418E+00
 -1     11863 1.09418E+00
 -1     11864 1.02923E+00
 -1     11866 1.02923E+00
 -1     11867 1.00486E+00
 -1     11869 1.00486E+00
 -1     11870 1.04216E+00
 -1     11872 1.04216E+00
 -1     11873 9.81145E-01
 -1     11875 9.81145E-01
 -1     11876 9.58145E-01
 -1     11878 9.58145E-01
 -1     11879 9.93285E-01
 -1     11881 9.93285E-01
 -1     11882 9.35630E-01
 -1     11884 9.35630E-01
 -1     11885 9.13765E-01
 -1     11887 9.13765E-01
 -1     11888 9.47054E-01
 -1     11890 9.47054E-01
 -1     11891 8.92398E-01
 -1     11893 8.92398E-01
 -1     11894 8.71680E-01
 -1     11896 8.71680E-01
 -1     11897 9.03172E-01
 -1     11899 9.03172E-01
 -1     11900 8.51451E-01
 -1     11902 8.51451E-01
 -1     11903 8.31808E-01
 -1     11905 8.31808E-01
 -1     11906 8.61577E-01
 -1     11908 8.61577E-01
 -1     11909 8.12474E-01
 -1     11911 8.12474E-01
 -1     11912 7.93705E-01
 -1     11914 7.93705E-01
 -1     11915 8.22015E-01
 -1     11917 8.22015E-01
 -1     11918 7.75004E-01
 -1     11920 7.75004E-01
 -1     11921 7.57060E-01
 -1     11923 7.57060E-01
 -1     11924 7.83980E-01
 -1     11926 7.83980E-01
 -1     11927 7.38923E-01
 -1     11929 7.38923E-01
 -1     11930 7.21788E-01
 -1     11932 7.21788E-01
 -1     11933 7.47141E-01
 -1     11935 7.47141E-01
 -1     11936 7.04244E-01
 -1     11938 7.04244E-01
 -1     11939 6.87952E-01
 -1     11941 6.87952E-01
 -1     11942 7.11460E-01
 -1     11944 7.11460E-01
 -1     11945 6.71109E-01
 -1     11947 6.71109E-01
 -1     11948 6.55849E-01
 -1     11950 6.55849E-01
 -1     11951 6.77074E-01
 -1     11953 6.77074E-01
 -1     11954 6.40289E-01
 -1     11956 6.40289E-01
 -1     11957 6.25995E-01
 -1     11959 6.25995E-01
 -1     11960 6.44672E-01
 -1     11962 6.44672E-01
 -1     11963 6.11014E-01
 -1     11965 6.11014E-01
 -1     11966 5.97684E-01
 -1     11968 5.97684E-01
 -1     11969 6.14130E-01
 -1     11971 6.14130E-01
 -1     11972 5.84771E-01
 -1     11974 5.84771E-01
 -1     11975 5.75747E-01
 -1     11977 5.75747E-01
 -1     11978 5.86237E-01
 -1     11980 5.86237E-01
 -1     11981 5.67509E-01
 -1     11983 5.67509E-01
 -1     11984 5.66711E-01
 -1     11986 5.66711E-01
 -1     11987 5.65086E-01
 -1     11989 5.65086E-01
 -1     11990 5.63521E-01
 -1     11992 5.63521E-01
 -1     11993 5.82728E-01
 -1     11995 5.82728E-01
 -1     11996 5.28397E-01
 -1     11998 5.28397E-01
 -1     11999 5.53658E-01
 -1     12001 5.53658E-01
 -1     12002 5.81484E-01
 -1     12004 5.81484E-01
 -1     12005 5.88339E-01
 -1     12007 5.88339E-01
 -1     12008 5.33382E-01
 -1     12010 5.33382E-01
 -1     12011 2.78465E+00
 -1     12013 2.78465E+00
 -1     12014 6.48280E-01
 -1     12016 6.48280E-01
 -1     12017 6.61071E-01
 -1     12019 6.61071E-01
 -1     12020 6.49860E-01
 -1     12022 6.49860E-01
 -1     12023 2.77325E+00
 -1     12025 2.77325E+00
 -1     12026 2.69197E+00
 -1     12028 2.69197E+00
 -1     12029 2.69197E+00
 -1     12031 2.69197E+00
 -1     12032 2.68719E+00
 -1     12034 2.68719E+00
 -1     12035 6.74349E-01
 -1     12037 6.74349E-01
 -1     12038 6.87688E-01
 -1     12040 6.87688E-01
 -1     12041 6.70303E-01
 -1     12043 6.70303E-01
 -1     12044 2.77419E+00
 -1     12046 2.77419E+00
 -1     12047 2.74338E+00
 -1     12049 2.74338E+00
 -1     12050 2.55652E+00
 -1     12052 2.55652E+00
 -1     12053 4.89255E-01
 -1     12055 4.89255E-01
 -1     12056 2.40247E+00
 -1     12058 2.40247E+00
 -1     12059 2.40143E+00
 -1     12061 2.40143E+00
 -1     12062 4.65403E-01
 -1     12064 4.65403E-01
 -1     12065 4.66639E-01
 -1     12067 4.66639E-01
 -1     12068 5.10014E-01
 -1     12070 5.10014E-01
 -1     12071 4.78622E-01
 -1     12073 4.78622E-01
 -1     12074 1.63133E+00
 -1     12076 1.63133E+00
 -1     12077 1.64985E+00
 -1     12079 1.64985E+00
 -1     12080 1.58380E+00
 -1     12082 1.58380E+00
 -1     12083 2.68719E+00
 -1     12085 2.68719E+00
 -1     12086 2.33243E+00
 -1     12088 2.33243E+00
 -1     12089 2.64274E+00
 -1     12091 2.64274E+00
 -1     12092 2.63091E+00
 -1     12094 2.63091E+00
 -1     12095 2.70160E+00
 -1     12097 2.70160E+00
 -1     12098 2.40243E+00
 -1     12100 2.40243E+00
 -1     12101 2.40233E+00
 -1     12103 2.40233E+00
 -1     12104 2.32324E+00
 -1     12106 2.32324E+00
 -1     12107 5.66127E-01
 -1     12109 5.66127E-01
 -1     12110 1.94359E+00
 -1     12112 1.94359E+00
 -1     12113 2.02100E+00
 -1     12115 2.02100E+00
 -1     12116 2.35342E+00
 -1     12118 2.35342E+00
 -1     12119 6.06460E-01
 -1     12121 6.06460E-01
 -1     12122 8.49497E-01
 -1     12124 8.49497E-01
 -1     12125 8.59320E-01
 -1     12127 8.59320E-01
 -1     12128 8.30504E-01
 -1     12130 8.30504E-01
 -1     12131 9.09261E-01
 -1     12133 9.09261E-01
 -1     12134 9.30679E-01
 -1     12136 9.30679E-01
 -1     12137 6.33453E-01
 -1     12139 6.33453E-01
 -1     12140 8.22158E-01
 -1     12142 8.22158E-01
 -1     12143 9.41772E-01
 -1     12145 9.41772E-01
 -1     12146 2.68747E+00
 -1     12148 2.68747E+00
 -1     12149 2.67080E+00
 -1     12151 2.67080E+00
 -1     12152 2.39985E+00
 -1     12154 2.39985E+00
 -1     12155 2.39868E+00
 -1     12157 2.39868E+00
 -1     12158 2.31883E+00
 -1     12160 2.31883E+00
 -1     12161 4.77404E-01
 -1     12163 4.77404E-01
 -1     12164 4.73739E-01
 -1     12166 4.73739E-01
 -1     12167 4.74781E-01
 -1     12169 4.74781E-01
 -1     12170 4.75089E-01
 -1     12172 4.75089E-01
 -1     12173 2.67080E+00
 -1     12175 2.67080E+00
 -1     12176 2.62623E+00
 -1     12178 2.62623E+00
 -1     12179 2.68332E+00
 -1     12181 2.68332E+00
 -1     12182 2.68423E+00
 -1     12184 2.68423E+00
 -1     12185 8.99194E-01
 -1     12187 8.99194E-01
 -1     12188 1.50089E+00
 -1     12190 1.50089E+00
 -1     12191 1.54202E+00
 -1     12193 1.54202E+00
 -1     12194 1.48079E+00
 -1     12196 1.48079E+00
 -1     12197 2.13480E+00
 -1     12199 2.13480E+00
 -1     12200 2.22759E+00
 -1     12202 2.22759E+00
 -1     12203 2.09437E+00
 -1     12205 2.09437E+00
 -1     12206 4.59377E-01
 -1     12208 4.59377E-01
 -1     12209 4.75021E-01
 -1     12211 4.75021E-01
 -1     12212 5.31853E-01
 -1     12214 5.31853E-01
 -1     12215 5.21060E-01
 -1     12217 5.21060E-01
 -1     12218 1.79715E+00
 -1     12220 1.79715E+00
 -1     12221 1.86469E+00
 -1     12223 1.86469E+00
 -1     12224 1.90166E+00
 -1     12226 1.90166E+00
 -1     12227 1.76033E+00
 -1     12229 1.76033E+00
 -1     12230 7.03070E-01
 -1     12232 7.03070E-01
 -1     12233 7.18530E-01
 -1     12235 7.18530E-01
 -1     12236 4.86008E-01
 -1     12238 4.86008E-01
 -1     12239 7.28356E-01
 -1     12241 7.28356E-01
 -1     12242 6.98963E-01
 -1     12244 6.98963E-01
 -1     12245 2.32194E+00
 -1     12247 2.32194E+00
 -1     12248 2.67334E+00
 -1     12250 2.67334E+00
 -1     12251 2.68747E+00
 -1     12253 2.68747E+00
 -1     12254 2.46018E+00
 -1     12256 2.46018E+00
 -1     12257 4.87035E-01
 -1     12259 4.87035E-01
 -1     12260 2.33836E+00
 -1     12262 2.33836E+00
 -1     12263 2.36705E+00
 -1     12265 2.36705E+00
 -1     12266 2.32338E+00
 -1     12268 2.32338E+00
 -1     12269 4.81450E-01
 -1     12271 4.81450E-01
 -1     12272 4.82324E-01
 -1     12274 4.82324E-01
 -1     12275 5.10014E-01
 -1     12277 5.10014E-01
 -1     12278 5.13704E-01
 -1     12280 5.13704E-01
 -1     12281 5.32086E-01
 -1     12283 5.32086E-01
 -1     12284 2.25323E+00
 -1     12286 2.25323E+00
 -1     12287 2.25165E+00
 -1     12289 2.25165E+00
 -1     12290 6.95937E-01
 -1     12292 6.95937E-01
 -1     12293 7.11319E-01
 -1     12295 7.11319E-01
 -1     12296 4.90705E-01
 -1     12298 4.90705E-01
 -1     12299 4.88612E-01
 -1     12301 4.88612E-01
 -1     12302 2.24543E+00
 -1     12304 2.24543E+00
 -1     12305 2.24767E+00
 -1     12307 2.24767E+00
 -1     12308 2.51751E+00
 -1     12310 2.51751E+00
 -1     12311 2.48074E+00
 -1     12313 2.48074E+00
 -1     12314 2.25363E+00
 -1     12316 2.25363E+00
 -1     12317 2.25177E+00
 -1     12319 2.25177E+00
 -1     12320 7.24104E-01
 -1     12322 7.24104E-01
 -1     12323 7.38115E-01
 -1     12325 7.38115E-01
 -1     12326 7.21078E-01
 -1     12328 7.21078E-01
 -1     12329 5.97129E-01
 -1     12331 5.97129E-01
 -1     12332 5.99629E-01
 -1     12334 5.99629E-01
 -1     12335 1.07362E+00
 -1     12337 1.07362E+00
 -1     12338 1.10046E+00
 -1     12340 1.10046E+00
 -1     12341 2.68816E+00
 -1     12343 2.68816E+00
 -1     12344 2.68816E+00
 -1     12346 2.68816E+00
 -1     12347 9.30444E-01
 -1     12349 9.30444E-01
 -1     12350 9.52388E-01
 -1     12352 9.52388E-01
 -1     12353 6.33453E-01
 -1     12355 6.33453E-01
 -1     12356 6.44200E-01
 -1     12358 6.44200E-01
 -1     12359 5.90214E-01
 -1     12361 5.90214E-01
 -1     12362 6.06460E-01
 -1     12364 6.06460E-01
 -1     12365 6.17207E-01
 -1     12367 6.17207E-01
 -1     12368 5.31853E-01
 -1     12370 5.31853E-01
 -1     12371 8.49652E-01
 -1     12373 8.49652E-01
 -1     12374 8.68891E-01
 -1     12376 8.68891E-01
 -1     12377 4.85606E-01
 -1     12379 4.85606E-01
 -1     12380 4.88397E-01
 -1     12382 4.88397E-01
 -1     12383 4.93317E-01
 -1     12385 4.93317E-01
 -1     12386 8.88567E-01
 -1     12388 8.88567E-01
 -1     12389 9.09201E-01
 -1     12391 9.09201E-01
 -1     12392 9.19817E-01
 -1     12394 9.19817E-01
 -1     12395 8.78898E-01
 -1     12397 8.78898E-01
 -1     12398 5.04185E-01
 -1     12400 5.04185E-01
 -1     12401 5.04457E-01
 -1     12403 5.04457E-01
 -1     12404 5.07638E-01
 -1     12406 5.07638E-01
 -1     12407 5.06861E-01
 -1     12409 5.06861E-01
 -1     12410 5.22568E-01
 -1     12412 5.22568E-01
 -1     12413 2.24870E+00
 -1     12415 2.24870E+00
 -1     12416 2.24717E+00
 -1     12418 2.24717E+00
 -1     12419 2.17999E+00
 -1     12421 2.17999E+00
 -1     12422 6.44200E-01
 -1     12424 6.44200E-01
 -1     12425 6.43448E-01
 -1     12427 6.43448E-01
 -1     12428 6.44200E-01
 -1     12430 6.44200E-01
 -1     12431 2.29066E+00
 -1     12433 2.29066E+00
 -1     12434 2.31390E+00
 -1     12436 2.31390E+00
 -1     12437 4.92993E-01
 -1     12439 4.92993E-01
 -1     12440 4.95727E-01
 -1     12442 4.95727E-01
 -1     12443 5.01195E-01
 -1     12445 5.01195E-01
 -1     12446 2.38236E+00
 -1     12448 2.38236E+00
 -1     12449 5.02220E-01
 -1     12451 5.02220E-01
 -1     12452 5.03881E-01
 -1     12454 5.03881E-01
 -1     12455 5.12285E-01
 -1     12457 5.12285E-01
 -1     12458 2.25111E+00
 -1     12460 2.25111E+00
 -1     12461 2.25793E+00
 -1     12463 2.25793E+00
 -1     12464 2.17702E+00
 -1     12466 2.17702E+00
 -1     12467 1.38835E+00
 -1     12469 1.38835E+00
 -1     12470 1.42521E+00
 -1     12472 1.42521E+00
 -1     12473 5.08933E-01
 -1     12475 5.08933E-01
 -1     12476 5.46760E-01
 -1     12478 5.46760E-01
 -1     12479 5.27821E-01
 -1     12481 5.27821E-01
 -1     12482 4.85109E-01
 -1     12484 4.85109E-01
 -1     12485 4.83277E-01
 -1     12487 4.83277E-01
 -1     12488 4.97193E-01
 -1     12490 4.97193E-01
 -1     12491 2.27398E+00
 -1     12493 2.27398E+00
 -1     12494 2.27473E+00
 -1     12496 2.27473E+00
 -1     12497 2.25149E+00
 -1     12499 2.25149E+00
 -1     12500 2.70160E+00
 -1     12502 2.70160E+00
 -1     12503 5.13733E-01
 -1     12505 5.13733E-01
 -1     12506 5.01808E-01
 -1     12508 5.01808E-01
 -1     12509 5.10572E-01
 -1     12511 5.10572E-01
 -1     12512 5.12430E-01
 -1     12514 5.12430E-01
 -1     12515 5.27203E-01
 -1     12517 5.27203E-01
 -1     12518 2.47764E+00
 -1     12520 2.47764E+00
 -1     12521 2.60536E+00
 -1     12523 2.60536E+00
 -1     12524 2.41588E+00
 -1     12526 2.41588E+00
 -1     12527 2.67985E+00
 -1     12529 2.67985E+00
 -1     12530 2.46556E+00
 -1     12532 2.46556E+00
 -1     12533 2.24011E+00
 -1     12535 2.24011E+00
 -1     12536 2.15944E+00
 -1     12538 2.15944E+00
 -1     12539 2.44228E+00
 -1     12541 2.44228E+00
 -1     12542 2.08016E+00
 -1     12544 2.08016E+00
 -1     12545 2.01625E+00
 -1     12547 2.01625E+00
 -1     12548 2.13756E+00
 -1     12550 2.13756E+00
 -1     12551 1.94789E+00
 -1     12553 1.94789E+00
 -1     12554 1.88663E+00
 -1     12556 1.88663E+00
 -1     12557 1.98992E+00
 -1     12559 1.98992E+00
 -1     12560 1.82361E+00
 -1     12562 1.82361E+00
 -1     12563 1.76647E+00
 -1     12565 1.76647E+00
 -1     12566 1.85853E+00
 -1     12568 1.85853E+00
 -1     12569 1.70989E+00
 -1     12571 1.70989E+00
 -1     12572 1.65780E+00
 -1     12574 1.65780E+00
 -1     12575 1.73893E+00
 -1     12577 1.73893E+00
 -1     12578 1.60742E+00
 -1     12580 1.60742E+00
 -1     12581 1.56046E+00
 -1     12583 1.56046E+00
 -1     12584 1.63197E+00
 -1     12586 1.63197E+00
 -1     12587 1.51563E+00
 -1     12589 1.51563E+00
 -1     12590 1.47326E+00
 -1     12592 1.47326E+00
 -1     12593 1.53677E+00
 -1     12595 1.53677E+00
 -1     12596 1.43311E+00
 -1     12598 1.43311E+00
 -1     12599 1.39457E+00
 -1     12601 1.39457E+00
 -1     12602 1.45179E+00
 -1     12604 1.45179E+00
 -1     12605 1.35805E+00
 -1     12607 1.35805E+00
 -1     12608 1.32253E+00
 -1     12610 1.32253E+00
 -1     12611 1.37513E+00
 -1     12613 1.37513E+00
 -1     12614 1.28860E+00
 -1     12616 1.28860E+00
 -1     12617 1.25552E+00
 -1     12619 1.25552E+00
 -1     12620 1.30468E+00
 -1     12622 1.30468E+00
 -1     12623 1.22374E+00
 -1     12625 1.22374E+00
 -1     12626 1.19288E+00
 -1     12628 1.19288E+00
 -1     12629 1.23898E+00
 -1     12631 1.23898E+00
 -1     12632 1.16321E+00
 -1     12634 1.16321E+00
 -1     12635 1.13445E+00
 -1     12637 1.13445E+00
 -1     12638 1.17754E+00
 -1     12640 1.17754E+00
 -1     12641 1.10679E+00
 -1     12643 1.10679E+00
 -1     12644 1.07993E+00
 -1     12646 1.07993E+00
 -1     12647 1.12021E+00
 -1     12649 1.12021E+00
 -1     12650 1.05404E+00
 -1     12652 1.05404E+00
 -1     12653 1.02888E+00
 -1     12655 1.02888E+00
 -1     12656 1.06665E+00
 -1     12658 1.06665E+00
 -1     12659 1.00446E+00
 -1     12661 1.00446E+00
 -1     12662 9.80745E-01
 -1     12664 9.80745E-01
 -1     12665 1.01634E+00
 -1     12667 1.01634E+00
 -1     12668 9.57551E-01
 -1     12670 9.57551E-01
 -1     12671 9.35036E-01
 -1     12673 9.35036E-01
 -1     12674 9.68727E-01
 -1     12676 9.68727E-01
 -1     12677 9.13030E-01
 -1     12679 9.13030E-01
 -1     12680 8.91663E-01
 -1     12682 8.91663E-01
 -1     12683 9.23527E-01
 -1     12685 9.23527E-01
 -1     12686 8.70875E-01
 -1     12688 8.70875E-01
 -1     12689 8.50646E-01
 -1     12691 8.50646E-01
 -1     12692 8.80732E-01
 -1     12694 8.80732E-01
 -1     12695 8.30888E-01
 -1     12697 8.30888E-01
 -1     12698 8.11555E-01
 -1     12700 8.11555E-01
 -1     12701 8.40186E-01
 -1     12703 8.40186E-01
 -1     12704 7.92380E-01
 -1     12706 7.92380E-01
 -1     12707 7.73679E-01
 -1     12709 7.73679E-01
 -1     12710 8.01254E-01
 -1     12712 8.01254E-01
 -1     12713 7.54686E-01
 -1     12715 7.54686E-01
 -1     12716 7.36548E-01
 -1     12718 7.36548E-01
 -1     12719 7.63086E-01
 -1     12721 7.63086E-01
 -1     12722 7.17807E-01
 -1     12724 7.17807E-01
 -1     12725 7.00263E-01
 -1     12727 7.00263E-01
 -1     12728 7.25352E-01
 -1     12730 7.25352E-01
 -1     12731 6.81854E-01
 -1     12733 6.81854E-01
 -1     12734 6.65012E-01
 -1     12736 6.65012E-01
 -1     12737 6.88201E-01
 -1     12739 6.88201E-01
 -1     12740 6.46798E-01
 -1     12742 6.46798E-01
 -1     12743 6.31238E-01
 -1     12745 6.31238E-01
 -1     12746 6.51579E-01
 -1     12748 6.51579E-01
 -1     12749 6.15685E-01
 -1     12751 6.15685E-01
 -1     12752 6.00704E-01
 -1     12754 6.00704E-01
 -1     12755 6.17812E-01
 -1     12757 6.17812E-01
 -1     12758 5.84606E-01
 -1     12760 5.84606E-01
 -1     12761 5.71694E-01
 -1     12763 5.71694E-01
 -1     12764 5.86161E-01
 -1     12766 5.86161E-01
 -1     12767 5.57475E-01
 -1     12769 5.57475E-01
 -1     12770 5.49237E-01
 -1     12772 5.49237E-01
 -1     12773 5.55844E-01
 -1     12775 5.55844E-01
 -1     12776 6.47631E-01
 -1     12778 6.47631E-01
 -1     12779 6.54797E-01
 -1     12781 6.54797E-01
 -1     12782 6.48384E-01
 -1     12784 6.48384E-01
 -1     12785 2.26223E+00
 -1     12787 2.26223E+00
 -1     12788 2.25677E+00
 -1     12790 2.25677E+00
 -1     12791 2.19908E+00
 -1     12793 2.19908E+00
 -1     12794 2.58820E+00
 -1     12796 2.58820E+00
 -1     12797 5.09328E-01
 -1     12799 5.09328E-01
 -1     12800 5.06442E-01
 -1     12802 5.06442E-01
 -1     12803 5.32865E-01
 -1     12805 5.32865E-01
 -1     12806 5.44336E-01
 -1     12808 5.44336E-01
 -1     12809 5.41998E-01
 -1     12811 5.41998E-01
 -1     12812 5.46704E-01
 -1     12814 5.46704E-01
 -1     12815 5.44336E-01
 -1     12817 5.44336E-01
 -1     12818 2.70160E+00
 -1     12820 2.70160E+00
 -1     12821 2.17531E+00
 -1     12823 2.17531E+00
 -1     12824 4.91863E-01
 -1     12826 4.91863E-01
 -1     12827 2.44075E+00
 -1     12829 2.44075E+00
 -1     12830 2.64996E+00
 -1     12832 2.64996E+00
 -1     12833 2.64996E+00
 -1     12835 2.64996E+00
 -1     12836 2.25278E+00
 -1     12838 2.25278E+00
 -1     12839 2.18249E+00
 -1     12841 2.18249E+00
 -1     12842 2.25264E+00
 -1     12844 2.25264E+00
 -1     12845 2.53656E+00
 -1     12847 2.53656E+00
 -1     12848 1.18663E+00
 -1     12850 1.18663E+00
 -1     12851 1.21758E+00
 -1     12853 1.21758E+00
 -1     12854 1.56003E+00
 -1     12856 1.56003E+00
 -1     12857 5.19083E-01
 -1     12859 5.19083E-01
 -1     12860 6.67340E-01
 -1     12862 6.67340E-01
 -1     12863 6.80617E-01
 -1     12865 6.80617E-01
 -1     12866 2.25125E+00
 -1     12868 2.25125E+00
 -1     12869 2.25125E+00
 -1     12871 2.25125E+00
 -1     12872 2.17977E+00
 -1     12874 2.17977E+00
 -1     12875 1.83739E+00
 -1     12877 1.83739E+00
 -1     12878 1.91630E+00
 -1     12880 1.91630E+00
 -1     12881 6.92974E-01
 -1     12883 6.92974E-01
 -1     12884 2.27260E+00
 -1     12886 2.27260E+00
 -1     12887 2.29061E+00
 -1     12889 2.29061E+00
 -1     12890 5.80262E-01
 -1     12892 5.80262E-01
 -1     12893 8.31186E-01
 -1     12895 8.31186E-01
 -1     12896 8.40757E-01
 -1     12898 8.40757E-01
 -1     12899 8.13264E-01
 -1     12901 8.13264E-01
 -1     12902 6.65111E-01
 -1     12904 6.65111E-01
 -1     12905 1.24959E+00
 -1     12907 1.24959E+00
 -1     12908 1.28253E+00
 -1     12910 1.28253E+00
 -1     12911 1.23377E+00
 -1     12913 1.23377E+00
 -1     12914 2.67604E+00
 -1     12916 2.67604E+00
 -1     12917 2.25754E+00
 -1     12919 2.25754E+00
 -1     12920 2.44140E+00
 -1     12922 2.44140E+00
 -1     12923 2.34896E+00
 -1     12925 2.34896E+00
 -1     12926 1.61397E+00
 -1     12928 1.61397E+00
 -1     12929 1.66201E+00
 -1     12931 1.66201E+00
 -1     12932 1.12813E+00
 -1     12934 1.12813E+00
 -1     12935 1.15680E+00
 -1     12937 1.15680E+00
 -1     12938 1.11442E+00
 -1     12940 1.11442E+00
 -1     12941 2.34971E+00
 -1     12943 2.34971E+00
 -1     12944 2.19512E+00
 -1     12946 2.19512E+00
 -1     12947 9.75056E-01
 -1     12949 9.75056E-01
 -1     12950 9.98412E-01
 -1     12952 9.98412E-01
 -1     12953 9.63728E-01
 -1     12955 9.63728E-01
 -1     12956 1.31680E+00
 -1     12958 1.31680E+00
 -1     12959 1.35198E+00
 -1     12961 1.35198E+00
 -1     12962 1.37071E+00
 -1     12964 1.37071E+00
 -1     12965 1.30006E+00
 -1     12967 1.30006E+00
 -1     12968 4.96805E-01
 -1     12970 4.96805E-01
 -1     12971 4.95602E-01
 -1     12973 4.95602E-01
 -1     12974 1.46139E+00
 -1     12976 1.46139E+00
 -1     12977 1.49885E+00
 -1     12979 1.49885E+00
 -1     12980 1.44327E+00
 -1     12982 1.44327E+00
 -1     12983 2.18343E+00
 -1     12985 2.18343E+00
 -1     12986 5.65405E-01
 -1     12988 5.65405E-01
 -1     12989 5.62215E-01
 -1     12991 5.62215E-01
 -1     12992 5.43833E-01
 -1     12994 5.43833E-01
 -1     12995 5.57794E-01
 -1     12997 5.57794E-01
 -1     12998 1.99824E+00
 -1     13000 1.99824E+00
 -1     13001 2.11204E+00
 -1     13003 2.11204E+00
 -1     13004 1.93397E+00
 -1     13006 1.93397E+00
 -1     13007 2.68810E+00
 -1     13009 2.68810E+00
 -1     13010 5.68627E-01
 -1     13012 5.68627E-01
 -1     13013 5.21060E-01
 -1     13015 5.21060E-01
 -1     13016 5.79420E-01
 -1     13018 5.79420E-01
 -1     13019 5.99629E-01
 -1     13021 5.99629E-01
 -1     13022 7.51309E-01
 -1     13024 7.51309E-01
 -1     13025 7.65622E-01
 -1     13027 7.65622E-01
 -1     13028 7.47057E-01
 -1     13030 7.47057E-01
 -1     13031 2.50317E+00
 -1     13033 2.50317E+00
 -1     13034 2.68215E+00
 -1     13036 2.68215E+00
 -1     13037 2.63051E+00
 -1     13039 2.63051E+00
 -1     13040 2.66801E+00
 -1     13042 2.66801E+00
 -1     13043 5.05592E-01
 -1     13045 5.05592E-01
 -1     13046 7.96257E-01
 -1     13048 7.96257E-01
 -1     13049 8.05285E-01
 -1     13051 8.05285E-01
 -1     13052 7.79635E-01
 -1     13054 7.79635E-01
 -1     13055 5.20126E-01
 -1     13057 5.20126E-01
 -1     13058 1.17192E+00
 -1     13060 1.17192E+00
 -1     13061 1.02268E+00
 -1     13063 1.02268E+00
 -1     13064 1.04771E+00
 -1     13066 1.04771E+00
 -1     13067 5.20740E-01
 -1     13069 5.20740E-01
 -1     13070 5.15843E-01
 -1     13072 5.15843E-01
 -1     13073 1.53501E+00
 -1     13075 1.53501E+00
 -1     13076 1.57679E+00
 -1     13078 1.57679E+00
 -1     13079 1.58895E+00
 -1     13081 1.58895E+00
 -1     13082 1.51561E+00
 -1     13084 1.51561E+00
 -1     13085 2.11855E+00
 -1     13087 2.11855E+00
 -1     13088 2.11540E+00
 -1     13090 2.11540E+00
 -1     13091 2.68429E+00
 -1     13093 2.68429E+00
 -1     13094 2.66772E+00
 -1     13096 2.66772E+00
 -1     13097 2.44228E+00
 -1     13099 2.44228E+00
 -1     13100 5.08849E-01
 -1     13102 5.08849E-01
 -1     13103 5.13445E-01
 -1     13105 5.13445E-01
 -1     13106 2.11191E+00
 -1     13108 2.11191E+00
 -1     13109 2.11017E+00
 -1     13111 2.11017E+00
 -1     13112 6.97046E-01
 -1     13114 6.97046E-01
 -1     13115 7.12365E-01
 -1     13117 7.12365E-01
 -1     13118 2.45436E+00
 -1     13120 2.45436E+00
 -1     13121 2.35920E+00
 -1     13123 2.35920E+00
 -1     13124 2.48654E+00
 -1     13126 2.48654E+00
 -1     13127 5.80262E-01
 -1     13129 5.80262E-01
 -1     13130 6.30631E-01
 -1     13132 6.30631E-01
 -1     13133 2.30090E+00
 -1     13135 2.30090E+00
 -1     13136 1.70780E+00
 -1     13138 1.70780E+00
 -1     13139 1.77023E+00
 -1     13141 1.77023E+00
 -1     13142 5.42050E-01
 -1     13144 5.42050E-01
 -1     13145 5.42354E-01
 -1     13147 5.42354E-01
 -1     13148 2.68429E+00
 -1     13150 2.68429E+00
 -1     13151 2.67598E+00
 -1     13153 2.67598E+00
 -1     13154 1.67191E+00
 -1     13156 1.67191E+00
 -1     13157 5.45059E-01
 -1     13159 5.45059E-01
 -1     13160 5.48240E-01
 -1     13162 5.48240E-01
 -1     13163 5.68026E-01
 -1     13165 5.68026E-01
 -1     13166 2.21004E+00
 -1     13168 2.21004E+00
 -1     13169 2.44263E+00
 -1     13171 2.44263E+00
 -1     13172 2.43730E+00
 -1     13174 2.43730E+00
 -1     13175 2.11391E+00
 -1     13177 2.11391E+00
 -1     13178 5.02342E-01
 -1     13180 5.02342E-01
 -1     13181 5.00515E-01
 -1     13183 5.00515E-01
 -1     13184 1.06084E+00
 -1     13186 1.06084E+00
 -1     13187 1.01066E+00
 -1     13189 1.01066E+00
 -1     13190 2.68423E+00
 -1     13192 2.68423E+00
 -1     13193 1.78486E+00
 -1     13195 1.78486E+00
 -1     13196 1.63169E+00
 -1     13198 1.63169E+00
 -1     13199 1.67747E+00
 -1     13201 1.67747E+00
 -1     13202 1.04763E+00
 -1     13204 1.04763E+00
 -1     13205 1.07353E+00
 -1     13207 1.07353E+00
 -1     13208 6.43636E-01
 -1     13210 6.43636E-01
 -1     13211 6.43636E-01
 -1     13213 6.43636E-01
 -1     13214 5.51269E-01
 -1     13216 5.51269E-01
 -1     13217 5.53341E-01
 -1     13219 5.53341E-01
 -1     13220 5.73760E-01
 -1     13222 5.73760E-01
 -1     13223 5.23972E-01
 -1     13225 5.23972E-01
 -1     13226 5.30465E-01
 -1     13228 5.30465E-01
 -1     13229 5.31626E-01
 -1     13231 5.31626E-01
 -1     13232 2.10733E+00
 -1     13234 2.10733E+00
 -1     13235 2.11078E+00
 -1     13237 2.11078E+00
 -1     13238 2.04393E+00
 -1     13240 2.04393E+00
 -1     13241 8.31247E-01
 -1     13243 8.31247E-01
 -1     13244 8.49713E-01
 -1     13246 8.49713E-01
 -1     13247 5.10731E-01
 -1     13249 5.10731E-01
 -1     13250 5.07228E-01
 -1     13252 5.07228E-01
 -1     13253 5.25879E-01
 -1     13255 5.25879E-01
 -1     13256 2.19476E+00
 -1     13258 2.19476E+00
 -1     13259 2.15484E+00
 -1     13261 2.15484E+00
 -1     13262 5.85540E-01
 -1     13264 5.85540E-01
 -1     13265 5.94304E-01
 -1     13267 5.94304E-01
 -1     13268 2.11883E+00
 -1     13270 2.11883E+00
 -1     13271 2.13349E+00
 -1     13273 2.13349E+00
 -1     13274 2.04915E+00
 -1     13276 2.04915E+00
 -1     13277 2.29618E+00
 -1     13279 2.29618E+00
 -1     13280 2.40678E+00
 -1     13282 2.40678E+00
 -1     13283 2.60536E+00
 -1     13285 2.60536E+00
 -1     13286 2.68423E+00
 -1     13288 2.68423E+00
 -1     13289 2.17011E+00
 -1     13291 2.17011E+00
 -1     13292 2.21786E+00
 -1     13294 2.21786E+00
 -1     13295 2.09382E+00
 -1     13297 2.09382E+00
 -1     13298 7.20539E-01
 -1     13300 7.20539E-01
 -1     13301 7.33324E-01
 -1     13303 7.33324E-01
 -1     13304 7.24611E-01
 -1     13306 7.24611E-01
 -1     13307 2.20938E+00
 -1     13309 2.20938E+00
 -1     13310 2.13010E+00
 -1     13312 2.13010E+00
 -1     13313 2.43482E+00
 -1     13315 2.43482E+00
 -1     13316 2.02772E+00
 -1     13318 2.02772E+00
 -1     13319 1.95936E+00
 -1     13321 1.95936E+00
 -1     13322 2.09954E+00
 -1     13324 2.09954E+00
 -1     13325 1.88666E+00
 -1     13327 1.88666E+00
 -1     13328 1.82364E+00
 -1     13330 1.82364E+00
 -1     13331 1.92446E+00
 -1     13333 1.92446E+00
 -1     13334 1.76239E+00
 -1     13336 1.76239E+00
 -1     13337 1.70581E+00
 -1     13339 1.70581E+00
 -1     13340 1.79052E+00
 -1     13342 1.79052E+00
 -1     13343 1.65201E+00
 -1     13345 1.65201E+00
 -1     13346 1.60163E+00
 -1     13348 1.60163E+00
 -1     13349 1.67547E+00
 -1     13351 1.67547E+00
 -1     13352 1.55407E+00
 -1     13354 1.55407E+00
 -1     13355 1.50925E+00
 -1     13357 1.50925E+00
 -1     13358 1.57411E+00
 -1     13360 1.57411E+00
 -1     13361 1.46730E+00
 -1     13363 1.46730E+00
 -1     13364 1.42715E+00
 -1     13366 1.42715E+00
 -1     13367 1.48461E+00
 -1     13369 1.48461E+00
 -1     13370 1.38993E+00
 -1     13372 1.38993E+00
 -1     13373 1.35341E+00
 -1     13375 1.35341E+00
 -1     13376 1.40544E+00
 -1     13378 1.40544E+00
 -1     13379 1.31895E+00
 -1     13381 1.31895E+00
 -1     13382 1.28502E+00
 -1     13384 1.28502E+00
 -1     13385 1.33375E+00
 -1     13387 1.33375E+00
 -1     13388 1.25248E+00
 -1     13390 1.25248E+00
 -1     13391 1.22071E+00
 -1     13393 1.22071E+00
 -1     13394 1.26675E+00
 -1     13396 1.26675E+00
 -1     13397 1.19013E+00
 -1     13399 1.19013E+00
 -1     13400 1.16046E+00
 -1     13402 1.16046E+00
 -1     13403 1.20363E+00
 -1     13405 1.20363E+00
 -1     13406 1.13197E+00
 -1     13408 1.13197E+00
 -1     13409 1.10430E+00
 -1     13411 1.10430E+00
 -1     13412 1.14455E+00
 -1     13414 1.14455E+00
 -1     13415 1.07775E+00
 -1     13417 1.07775E+00
 -1     13418 1.05186E+00
 -1     13420 1.05186E+00
 -1     13421 1.08951E+00
 -1     13423 1.08951E+00
 -1     13424 1.02686E+00
 -1     13426 1.02686E+00
 -1     13427 1.00244E+00
 -1     13429 1.00244E+00
 -1     13430 1.03796E+00
 -1     13432 1.03796E+00
 -1     13433 9.78643E-01
 -1     13435 9.78643E-01
 -1     13436 9.55449E-01
 -1     13438 9.55449E-01
 -1     13439 9.89165E-01
 -1     13441 9.89165E-01
 -1     13442 9.32791E-01
 -1     13444 9.32791E-01
 -1     13445 9.10785E-01
 -1     13447 9.10785E-01
 -1     13448 9.42707E-01
 -1     13450 9.42707E-01
 -1     13451 8.89375E-01
 -1     13453 8.89375E-01
 -1     13454 8.68587E-01
 -1     13456 8.68587E-01
 -1     13457 8.98640E-01
 -1     13459 8.98640E-01
 -1     13460 8.48438E-01
 -1     13462 8.48438E-01
 -1     13463 8.28680E-01
 -1     13465 8.28680E-01
 -1     13466 8.57081E-01
 -1     13468 8.57081E-01
 -1     13469 8.09415E-01
 -1     13471 8.09415E-01
 -1     13472 7.90241E-01
 -1     13474 7.90241E-01
 -1     13475 8.17667E-01
 -1     13477 8.17667E-01
 -1     13478 7.70921E-01
 -1     13480 7.70921E-01
 -1     13481 7.51928E-01
 -1     13483 7.51928E-01
 -1     13484 7.79082E-01
 -1     13486 7.79082E-01
 -1     13487 7.31931E-01
 -1     13489 7.31931E-01
 -1     13490 7.13189E-01
 -1     13492 7.13189E-01
 -1     13493 7.39766E-01
 -1     13495 7.39766E-01
 -1     13496 6.93614E-01
 -1     13498 6.93614E-01
 -1     13499 6.75205E-01
 -1     13501 6.75205E-01
 -1     13502 7.00193E-01
 -1     13504 7.00193E-01
 -1     13505 6.55460E-01
 -1     13507 6.55460E-01
 -1     13508 6.37246E-01
 -1     13510 6.37246E-01
 -1     13511 6.60872E-01
 -1     13513 6.60872E-01
 -1     13514 6.17732E-01
 -1     13516 6.17732E-01
 -1     13517 6.02179E-01
 -1     13519 6.02179E-01
 -1     13520 6.21613E-01
 -1     13522 6.21613E-01
 -1     13523 5.86884E-01
 -1     13525 5.86884E-01
 -1     13526 5.70785E-01
 -1     13528 5.70785E-01
 -1     13529 5.86804E-01
 -1     13531 5.86804E-01
 -1     13532 5.60002E-01
 -1     13534 5.60002E-01
 -1     13535 5.45783E-01
 -1     13537 5.45783E-01
 -1     13538 5.60725E-01
 -1     13540 5.60725E-01
 -1     13541 6.42831E-01
 -1     13543 6.42831E-01
 -1     13544 6.47014E-01
 -1     13546 6.47014E-01
 -1     13547 6.42266E-01
 -1     13549 6.42266E-01
 -1     13550 1.71697E+00
 -1     13552 1.71697E+00
 -1     13553 1.78414E+00
 -1     13555 1.78414E+00
 -1     13556 1.67675E+00
 -1     13558 1.67675E+00
 -1     13559 2.13506E+00
 -1     13561 2.13506E+00
 -1     13562 2.12256E+00
 -1     13564 2.12256E+00
 -1     13565 2.07833E+00
 -1     13567 2.07833E+00
 -1     13568 5.91709E-01
 -1     13570 5.91709E-01
 -1     13571 5.88607E-01
 -1     13573 5.88607E-01
 -1     13574 6.50047E-01
 -1     13576 6.50047E-01
 -1     13577 2.67598E+00
 -1     13579 2.67598E+00
 -1     13580 2.58750E+00
 -1     13582 2.58750E+00
 -1     13583 2.66638E+00
 -1     13585 2.66638E+00
 -1     13586 2.65812E+00
 -1     13588 2.65812E+00
 -1     13589 2.46780E+00
 -1     13591 2.46780E+00
 -1     13592 5.15881E-01
 -1     13594 5.15881E-01
 -1     13595 2.18065E+00
 -1     13597 2.18065E+00
 -1     13598 2.11731E+00
 -1     13600 2.11731E+00
 -1     13601 2.05218E+00
 -1     13603 2.05218E+00
 -1     13604 2.12026E+00
 -1     13606 2.12026E+00
 -1     13607 7.74265E-01
 -1     13609 7.74265E-01
 -1     13610 1.02243E+00
 -1     13612 1.02243E+00
 -1     13613 1.03512E+00
 -1     13615 1.03512E+00
 -1     13616 9.98160E-01
 -1     13618 9.98160E-01
 -1     13619 2.11400E+00
 -1     13621 2.11400E+00
 -1     13622 2.11349E+00
 -1     13624 2.11349E+00
 -1     13625 2.04912E+00
 -1     13627 2.04912E+00
 -1     13628 2.05453E+00
 -1     13630 2.05453E+00
 -1     13631 7.43080E-01
 -1     13633 7.43080E-01
 -1     13634 7.56274E-01
 -1     13636 7.56274E-01
 -1     13637 7.42541E-01
 -1     13639 7.42541E-01
 -1     13640 1.60519E+00
 -1     13642 1.60519E+00
 -1     13643 1.61075E+00
 -1     13645 1.61075E+00
 -1     13646 1.56802E+00
 -1     13648 1.56802E+00
 -1     13649 2.20875E+00
 -1     13651 2.20875E+00
 -1     13652 6.03710E-01
 -1     13654 6.03710E-01
 -1     13655 2.20425E+00
 -1     13657 2.20425E+00
 -1     13658 1.21720E+00
 -1     13660 1.21720E+00
 -1     13661 1.24922E+00
 -1     13663 1.24922E+00
 -1     13664 5.53736E-01
 -1     13666 5.53736E-01
 -1     13667 1.10010E+00
 -1     13669 1.10010E+00
 -1     13670 1.12777E+00
 -1     13672 1.12777E+00
 -1     13673 1.08688E+00
 -1     13675 1.08688E+00
 -1     13676 1.35311E+00
 -1     13678 1.35311E+00
 -1     13679 1.38948E+00
 -1     13681 1.38948E+00
 -1     13682 6.36851E-01
 -1     13684 6.36851E-01
 -1     13685 6.36851E-01
 -1     13687 6.36851E-01
 -1     13688 1.84899E+00
 -1     13690 1.84899E+00
 -1     13691 1.93093E+00
 -1     13693 1.93093E+00
 -1     13694 1.78110E+00
 -1     13696 1.78110E+00
 -1     13697 5.00246E-01
 -1     13699 5.00246E-01
 -1     13700 5.03528E-01
 -1     13702 5.03528E-01
 -1     13703 8.68608E-01
 -1     13705 8.68608E-01
 -1     13706 8.88284E-01
 -1     13708 8.88284E-01
 -1     13709 8.59099E-01
 -1     13711 8.59099E-01
 -1     13712 5.15778E-01
 -1     13714 5.15778E-01
 -1     13715 9.08715E-01
 -1     13717 9.08715E-01
 -1     13718 9.29958E-01
 -1     13720 9.29958E-01
 -1     13721 8.98425E-01
 -1     13723 8.98425E-01
 -1     13724 6.65759E-01
 -1     13726 6.65759E-01
 -1     13727 6.78302E-01
 -1     13729 6.78302E-01
 -1     13730 9.52028E-01
 -1     13732 9.52028E-01
 -1     13733 9.74696E-01
 -1     13735 9.74696E-01
 -1     13736 9.86460E-01
 -1     13738 9.86460E-01
 -1     13739 9.40926E-01
 -1     13741 9.40926E-01
 -1     13742 1.15652E+00
 -1     13744 1.15652E+00
 -1     13745 1.18635E+00
 -1     13747 1.18635E+00
 -1     13748 1.14220E+00
 -1     13750 1.14220E+00
 -1     13751 8.14095E-01
 -1     13753 8.14095E-01
 -1     13754 8.23051E-01
 -1     13756 8.23051E-01
 -1     13757 7.97088E-01
 -1     13759 7.97088E-01
 -1     13760 1.42687E+00
 -1     13762 1.42687E+00
 -1     13763 1.46305E+00
 -1     13765 1.46305E+00
 -1     13766 1.40927E+00
 -1     13768 1.40927E+00
 -1     13769 5.40594E-01
 -1     13771 5.40594E-01
 -1     13772 5.30956E-01
 -1     13774 5.30956E-01
 -1     13775 5.46704E-01
 -1     13777 5.46704E-01
 -1     13778 6.13805E-01
 -1     13780 6.13805E-01
 -1     13781 5.74969E-01
 -1     13783 5.74969E-01
 -1     13784 5.10726E-01
 -1     13786 5.10726E-01
 -1     13787 5.74465E-01
 -1     13789 5.74465E-01
 -1     13790 6.97694E-01
 -1     13792 6.97694E-01
 -1     13793 2.11999E+00
 -1     13795 2.11999E+00
 -1     13796 2.05731E+00
 -1     13798 2.05731E+00
 -1     13799 2.11954E+00
 -1     13801 2.11954E+00
 -1     13802 1.20180E+00
 -1     13804 1.20180E+00
 -1     13805 5.41207E-01
 -1     13807 5.41207E-01
 -1     13808 6.60206E-01
 -1     13810 6.60206E-01
 -1     13811 5.99438E-01
 -1     13813 5.99438E-01
 -1     13814 1.18557E+00
 -1     13816 1.18557E+00
 -1     13817 1.21642E+00
 -1     13819 1.21642E+00
 -1     13820 6.37416E-01
 -1     13822 6.37416E-01
 -1     13823 2.09910E+00
 -1     13825 2.09910E+00
 -1     13826 2.17742E+00
 -1     13828 2.17742E+00
 -1     13829 2.00173E+00
 -1     13831 2.00173E+00
 -1     13832 1.99633E+00
 -1     13834 1.99633E+00
 -1     13835 5.30443E-01
 -1     13837 5.30443E-01
 -1     13838 5.25557E-01
 -1     13840 5.25557E-01
 -1     13841 5.20337E-01
 -1     13843 5.20337E-01
 -1     13844 5.25658E-01
 -1     13846 5.25658E-01
 -1     13847 6.27363E-01
 -1     13849 6.27363E-01
 -1     13850 5.79349E-01
 -1     13852 5.79349E-01
 -1     13853 6.25191E-01
 -1     13855 6.25191E-01
 -1     13856 6.31411E-01
 -1     13858 6.31411E-01
 -1     13859 6.30606E-01
 -1     13861 6.30606E-01
 -1     13862 5.98270E-01
 -1     13864 5.98270E-01
 -1     13865 5.60581E-01
 -1     13867 5.60581E-01
 -1     13868 5.50364E-01
 -1     13870 5.50364E-01
 -1     13871 5.88506E-01
 -1     13873 5.88506E-01
 -1     13874 1.49914E+00
 -1     13876 1.49914E+00
 -1     13877 1.53531E+00
 -1     13879 1.53531E+00
 -1     13880 1.55155E+00
 -1     13882 1.55155E+00
 -1     13883 1.48275E+00
 -1     13885 1.48275E+00
 -1     13886 5.67736E-01
 -1     13888 5.67736E-01
 -1     13889 5.79320E-01
 -1     13891 5.79320E-01
 -1     13892 1.31704E+00
 -1     13894 1.31704E+00
 -1     13895 1.33581E+00
 -1     13897 1.33581E+00
 -1     13898 1.28277E+00
 -1     13900 1.28277E+00
 -1     13901 6.06413E-01
 -1     13903 6.06413E-01
 -1     13904 5.74465E-01
 -1     13906 5.74465E-01
 -1     13907 5.74969E-01
 -1     13909 5.74969E-01
 -1     13910 5.74969E-01
 -1     13912 5.74969E-01
 -1     13913 5.58297E-01
 -1     13915 5.58297E-01
 -1     13916 6.27131E-01
 -1     13918 6.27131E-01
 -1     13919 6.29836E-01
 -1     13921 6.29836E-01
 -1     13922 6.41131E-01
 -1     13924 6.41131E-01
 -1     13925 5.41297E-01
 -1     13927 5.41297E-01
 -1     13928 5.36185E-01
 -1     13930 5.36185E-01
 -1     13931 5.60671E-01
 -1     13933 5.60671E-01
 -1     13934 6.33570E-01
 -1     13936 6.33570E-01
 -1     13937 6.36600E-01
 -1     13939 6.36600E-01
 -1     13940 6.92676E-01
 -1     13942 6.92676E-01
 -1     13943 7.67876E-01
 -1     13945 7.67876E-01
 -1     13946 7.81889E-01
 -1     13948 7.81889E-01
 -1     13949 7.63898E-01
 -1     13951 7.63898E-01
 -1     13952 2.26476E+00
 -1     13954 2.26476E+00
 -1     13955 2.15862E+00
 -1     13957 2.15862E+00
 -1     13958 1.98108E+00
 -1     13960 1.98108E+00
 -1     13961 1.98913E+00
 -1     13963 1.98913E+00
 -1     13964 5.62455E-01
 -1     13966 5.62455E-01
 -1     13967 5.36791E-01
 -1     13969 5.36791E-01
 -1     13970 5.47317E-01
 -1     13972 5.47317E-01
 -1     13973 5.41350E-01
 -1     13975 5.41350E-01
 -1     13976 1.98711E+00
 -1     13978 1.98711E+00
 -1     13979 1.98427E+00
 -1     13981 1.98427E+00
 -1     13982 1.93666E+00
 -1     13984 1.93666E+00
 -1     13985 6.68936E-01
 -1     13987 6.68936E-01
 -1     13988 6.87681E-01
 -1     13990 6.87681E-01
 -1     13991 2.11542E+00
 -1     13993 2.11542E+00
 -1     13994 2.11681E+00
 -1     13996 2.11681E+00
 -1     13997 2.04965E+00
 -1     13999 2.04965E+00
 -1     14000 1.26620E+00
 -1     14002 1.26620E+00
 -1     14003 1.99818E+00
 -1     14005 1.99818E+00
 -1     14006 1.99417E+00
 -1     14008 1.99417E+00
 -1     14009 5.20317E-01
 -1     14011 5.20317E-01
 -1     14012 5.20048E-01
 -1     14014 5.20048E-01
 -1     14015 5.34880E-01
 -1     14017 5.34880E-01
 -1     14018 2.00701E+00
 -1     14020 2.00701E+00
 -1     14021 2.04363E+00
 -1     14023 2.04363E+00
 -1     14024 1.93895E+00
 -1     14026 1.93895E+00
 -1     14027 7.30542E-01
 -1     14029 7.30542E-01
 -1     14030 7.38716E-01
 -1     14032 7.38716E-01
 -1     14033 2.44826E+00
 -1     14035 2.44826E+00
 -1     14036 2.21536E+00
 -1     14038 2.21536E+00
 -1     14039 2.43866E+00
 -1     14041 2.43866E+00
 -1     14042 2.12115E+00
 -1     14044 2.12115E+00
 -1     14045 2.01878E+00
 -1     14047 2.01878E+00
 -1     14048 2.13459E+00
 -1     14050 2.13459E+00
 -1     14051 1.94465E+00
 -1     14053 1.94465E+00
 -1     14054 1.87195E+00
 -1     14056 1.87195E+00
 -1     14057 1.96626E+00
 -1     14059 1.96626E+00
 -1     14060 1.80961E+00
 -1     14062 1.80961E+00
 -1     14063 1.74836E+00
 -1     14065 1.74836E+00
 -1     14066 1.82979E+00
 -1     14068 1.82979E+00
 -1     14069 1.69301E+00
 -1     14071 1.69301E+00
 -1     14072 1.63921E+00
 -1     14074 1.63921E+00
 -1     14075 1.71210E+00
 -1     14077 1.71210E+00
 -1     14078 1.58951E+00
 -1     14080 1.58951E+00
 -1     14081 1.54195E+00
 -1     14083 1.54195E+00
 -1     14084 1.60705E+00
 -1     14086 1.60705E+00
 -1     14087 1.49786E+00
 -1     14089 1.49786E+00
 -1     14090 1.45591E+00
 -1     14092 1.45591E+00
 -1     14093 1.51326E+00
 -1     14095 1.51326E+00
 -1     14096 1.41868E+00
 -1     14098 1.41868E+00
 -1     14099 1.38146E+00
 -1     14101 1.38146E+00
 -1     14102 1.43193E+00
 -1     14104 1.43193E+00
 -1     14105 1.34707E+00
 -1     14107 1.34707E+00
 -1     14108 1.31261E+00
 -1     14110 1.31261E+00
 -1     14111 1.36031E+00
 -1     14113 1.36031E+00
 -1     14114 1.27952E+00
 -1     14116 1.27952E+00
 -1     14117 1.24697E+00
 -1     14119 1.24697E+00
 -1     14120 1.29283E+00
 -1     14122 1.29283E+00
 -1     14123 1.21539E+00
 -1     14125 1.21539E+00
 -1     14126 1.18481E+00
 -1     14128 1.18481E+00
 -1     14129 1.22816E+00
 -1     14131 1.22816E+00
 -1     14132 1.15533E+00
 -1     14134 1.15533E+00
 -1     14135 1.12684E+00
 -1     14137 1.12684E+00
 -1     14138 1.16710E+00
 -1     14140 1.16710E+00
 -1     14141 1.09964E+00
 -1     14143 1.09964E+00
 -1     14144 1.07309E+00
 -1     14146 1.07309E+00
 -1     14147 1.11042E+00
 -1     14149 1.11042E+00
 -1     14150 1.04768E+00
 -1     14152 1.04768E+00
 -1     14153 1.02268E+00
 -1     14155 1.02268E+00
 -1     14156 1.05781E+00
 -1     14158 1.05781E+00
 -1     14159 9.98459E-01
 -1     14161 9.98459E-01
 -1     14162 9.74660E-01
 -1     14164 9.74660E-01
 -1     14165 1.00818E+00
 -1     14167 1.00818E+00
 -1     14168 9.51432E-01
 -1     14170 9.51432E-01
 -1     14171 9.28774E-01
 -1     14173 9.28774E-01
 -1     14174 9.60726E-01
 -1     14176 9.60726E-01
 -1     14177 9.06665E-01
 -1     14179 9.06665E-01
 -1     14180 8.85255E-01
 -1     14182 8.85255E-01
 -1     14183 9.15390E-01
 -1     14185 9.15390E-01
 -1     14186 8.64437E-01
 -1     14188 8.64437E-01
 -1     14189 8.44288E-01
 -1     14191 8.44288E-01
 -1     14192 8.72462E-01
 -1     14194 8.72462E-01
 -1     14195 8.24946E-01
 -1     14197 8.24946E-01
 -1     14198 8.05681E-01
 -1     14200 8.05681E-01
 -1     14201 8.32302E-01
 -1     14203 8.32302E-01
 -1     14204 7.87095E-01
 -1     14206 7.87095E-01
 -1     14207 7.67775E-01
 -1     14209 7.67775E-01
 -1     14210 7.94374E-01
 -1     14212 7.94374E-01
 -1     14213 7.47485E-01
 -1     14215 7.47485E-01
 -1     14216 7.27488E-01
 -1     14218 7.27488E-01
 -1     14219 7.55497E-01
 -1     14221 7.55497E-01
 -1     14222 7.04946E-01
 -1     14224 7.04946E-01
 -1     14225 6.85371E-01
 -1     14227 6.85371E-01
 -1     14228 7.12666E-01
 -1     14230 7.12666E-01
 -1     14231 6.67359E-01
 -1     14233 6.67359E-01
 -1     14234 6.47614E-01
 -1     14236 6.47614E-01
 -1     14237 6.72113E-01
 -1     14239 6.72113E-01
 -1     14240 6.71646E-01
 -1     14242 6.71646E-01
 -1     14243 6.52132E-01
 -1     14245 6.52132E-01
 -1     14246 6.78133E-01
 -1     14248 6.78133E-01
 -1     14249 5.86755E-01
 -1     14251 5.86755E-01
 -1     14252 5.71459E-01
 -1     14254 5.71459E-01
 -1     14255 6.36787E-01
 -1     14257 6.36787E-01
 -1     14258 6.76385E-01
 -1     14260 6.76385E-01
 -1     14261 6.65601E-01
 -1     14263 6.65601E-01
 -1     14264 6.76336E-01
 -1     14266 6.76336E-01
 -1     14267 1.70959E+00
 -1     14269 1.70959E+00
 -1     14270 1.74909E+00
 -1     14272 1.74909E+00
 -1     14273 2.02969E+00
 -1     14275 2.02969E+00
 -1     14276 2.00991E+00
 -1     14278 2.00991E+00
 -1     14279 1.94955E+00
 -1     14281 1.94955E+00
 -1     14282 2.09020E+00
 -1     14284 2.09020E+00
 -1     14285 2.46123E+00
 -1     14287 2.46123E+00
 -1     14288 2.28508E+00
 -1     14290 2.28508E+00
 -1     14291 2.23944E+00
 -1     14293 2.23944E+00
 -1     14294 2.23584E+00
 -1     14296 2.23584E+00
 -1     14297 7.42244E-01
 -1     14299 7.42244E-01
 -1     14300 7.60987E-01
 -1     14302 7.60987E-01
 -1     14303 7.75092E-01
 -1     14305 7.75092E-01
 -1     14306 7.50974E-01
 -1     14308 7.50974E-01
 -1     14309 7.17382E-01
 -1     14311 7.17382E-01
 -1     14312 6.97293E-01
 -1     14314 6.97293E-01
 -1     14315 7.19977E-01
 -1     14317 7.19977E-01
 -1     14318 5.45861E-01
 -1     14320 5.45861E-01
 -1     14321 2.01230E+00
 -1     14323 2.01230E+00
 -1     14324 5.29928E-01
 -1     14326 5.29928E-01
 -1     14327 1.98698E+00
 -1     14329 1.98698E+00
 -1     14330 1.98558E+00
 -1     14332 1.98558E+00
 -1     14333 1.93063E+00
 -1     14335 1.93063E+00
 -1     14336 1.02226E+00
 -1     14338 1.02226E+00
 -1     14339 1.04746E+00
 -1     14341 1.04746E+00
 -1     14342 1.92425E+00
 -1     14344 1.92425E+00
 -1     14345 6.58081E-01
 -1     14347 6.58081E-01
 -1     14348 7.40512E-01
 -1     14350 7.40512E-01
 -1     14351 7.50268E-01
 -1     14353 7.50268E-01
 -1     14354 7.46443E-01
 -1     14356 7.46443E-01
 -1     14357 5.72901E-01
 -1     14359 5.72901E-01
 -1     14360 8.48797E-01
 -1     14362 8.48797E-01
 -1     14363 8.67692E-01
 -1     14365 8.67692E-01
 -1     14366 1.76448E+00
 -1     14368 1.76448E+00
 -1     14369 1.82933E+00
 -1     14371 1.82933E+00
 -1     14372 1.79731E+00
 -1     14374 1.79731E+00
 -1     14375 1.31779E+00
 -1     14377 1.31779E+00
 -1     14378 1.35386E+00
 -1     14380 1.35386E+00
 -1     14381 1.07330E+00
 -1     14383 1.07330E+00
 -1     14384 1.09986E+00
 -1     14386 1.09986E+00
 -1     14387 1.06043E+00
 -1     14389 1.06043E+00
 -1     14390 2.24247E+00
 -1     14392 2.24247E+00
 -1     14393 2.42320E+00
 -1     14395 2.42320E+00
 -1     14396 2.21333E+00
 -1     14398 2.21333E+00
 -1     14399 2.13282E+00
 -1     14401 2.13282E+00
 -1     14402 9.29254E-01
 -1     14404 9.29254E-01
 -1     14405 9.51324E-01
 -1     14407 9.51324E-01
 -1     14408 2.00943E+00
 -1     14410 2.00943E+00
 -1     14411 2.10744E+00
 -1     14413 2.10744E+00
 -1     14414 2.13136E+00
 -1     14416 2.13136E+00
 -1     14417 1.92445E+00
 -1     14419 1.92445E+00
 -1     14420 8.87392E-01
 -1     14422 8.87392E-01
 -1     14423 9.07822E-01
 -1     14425 9.07822E-01
 -1     14426 8.77090E-01
 -1     14428 8.77090E-01
 -1     14429 2.00230E+00
 -1     14431 2.00230E+00
 -1     14432 1.94645E+00
 -1     14434 1.94645E+00
 -1     14435 2.00203E+00
 -1     14437 2.00203E+00
 -1     14438 6.01292E-01
 -1     14440 6.01292E-01
 -1     14441 6.13805E-01
 -1     14443 6.13805E-01
 -1     14444 7.90700E-01
 -1     14446 7.90700E-01
 -1     14447 1.39235E+00
 -1     14449 1.39235E+00
 -1     14450 1.42974E+00
 -1     14452 1.42974E+00
 -1     14453 1.37433E+00
 -1     14455 1.37433E+00
 -1     14456 2.05431E+00
 -1     14458 2.05431E+00
 -1     14459 1.15599E+00
 -1     14461 1.15599E+00
 -1     14462 1.17061E+00
 -1     14464 1.17061E+00
 -1     14465 1.12724E+00
 -1     14467 1.12724E+00
 -1     14468 1.24856E+00
 -1     14470 1.24856E+00
 -1     14471 1.28211E+00
 -1     14473 1.28211E+00
 -1     14474 1.30016E+00
 -1     14476 1.30016E+00
 -1     14477 1.23233E+00
 -1     14479 1.23233E+00
 -1     14480 6.58081E-01
 -1     14482 6.58081E-01
 -1     14483 6.13805E-01
 -1     14485 6.13805E-01
 -1     14486 6.52642E-01
 -1     14488 6.52642E-01
 -1     14489 1.65341E+00
 -1     14491 1.65341E+00
 -1     14492 1.72574E+00
 -1     14494 1.72574E+00
 -1     14495 1.62691E+00
 -1     14497 1.62691E+00
 -1     14498 8.30886E-01
 -1     14500 8.30886E-01
 -1     14501 8.39480E-01
 -1     14503 8.39480E-01
 -1     14504 8.13734E-01
 -1     14506 8.13734E-01
 -1     14507 9.18221E-01
 -1     14509 9.18221E-01
 -1     14510 7.19977E-01
 -1     14512 7.19977E-01
 -1     14513 7.16952E-01
 -1     14515 7.16952E-01
 -1     14516 6.96410E-01
 -1     14518 6.96410E-01
 -1     14519 7.87313E-01
 -1     14521 7.87313E-01
 -1     14522 6.97293E-01
 -1     14524 6.97293E-01
 -1     14525 1.87102E+00
 -1     14527 1.87102E+00
 -1     14528 1.86784E+00
 -1     14530 1.86784E+00
 -1     14531 7.52089E-01
 -1     14533 7.52089E-01
 -1     14534 7.52089E-01
 -1     14536 7.52089E-01
 -1     14537 5.36993E-01
 -1     14539 5.36993E-01
 -1     14540 5.37282E-01
 -1     14542 5.37282E-01
 -1     14543 1.99219E+00
 -1     14545 1.99219E+00
 -1     14546 1.99412E+00
 -1     14548 1.99412E+00
 -1     14549 1.93005E+00
 -1     14551 1.93005E+00
 -1     14552 5.41535E-01
 -1     14554 5.41535E-01
 -1     14555 5.52668E-01
 -1     14557 5.52668E-01
 -1     14558 5.48600E-01
 -1     14560 5.48600E-01
 -1     14561 7.84287E-01
 -1     14563 7.84287E-01
 -1     14564 5.80944E-01
 -1     14566 5.80944E-01
 -1     14567 5.71876E-01
 -1     14569 5.71876E-01
 -1     14570 7.48355E-01
 -1     14572 7.48355E-01
 -1     14573 7.58857E-01
 -1     14575 7.58857E-01
 -1     14576 7.70459E-01
 -1     14578 7.70459E-01
 -1     14579 7.56828E-01
 -1     14581 7.56828E-01
 -1     14582 9.74305E-01
 -1     14584 9.74305E-01
 -1     14585 9.97769E-01
 -1     14587 9.97769E-01
 -1     14588 1.01010E+00
 -1     14590 1.01010E+00
 -1     14591 9.62633E-01
 -1     14593 9.62633E-01
 -1     14594 5.72901E-01
 -1     14596 5.72901E-01
 -1     14597 5.93319E-01
 -1     14599 5.93319E-01
 -1     14600 5.73087E-01
 -1     14602 5.73087E-01
 -1     14603 7.83029E-01
 -1     14605 7.83029E-01
 -1     14606 7.98229E-01
 -1     14608 7.98229E-01
 -1     14609 8.06064E-01
 -1     14611 8.06064E-01
 -1     14612 7.77988E-01
 -1     14614 7.77988E-01
 -1     14615 6.37698E-01
 -1     14617 6.37698E-01
 -1     14618 6.85509E-01
 -1     14620 6.85509E-01
 -1     14621 6.37698E-01
 -1     14623 6.37698E-01
 -1     14624 8.65871E-01
 -1     14626 8.65871E-01
 -1     14627 8.85570E-01
 -1     14629 8.85570E-01
 -1     14630 1.85755E+00
 -1     14632 1.85755E+00
 -1     14633 1.87542E+00
 -1     14635 1.87542E+00
 -1     14636 1.80431E+00
 -1     14638 1.80431E+00
 -1     14639 1.99614E+00
 -1     14641 1.99614E+00
 -1     14642 1.99887E+00
 -1     14644 1.99887E+00
 -1     14645 1.93868E+00
 -1     14647 1.93868E+00
 -1     14648 2.12329E+00
 -1     14650 2.12329E+00
 -1     14651 2.02909E+00
 -1     14653 2.02909E+00
 -1     14654 2.10783E+00
 -1     14656 2.10783E+00
 -1     14657 1.96770E+00
 -1     14659 1.96770E+00
 -1     14660 1.89357E+00
 -1     14662 1.89357E+00
 -1     14663 1.95639E+00
 -1     14665 1.95639E+00
 -1     14666 1.83830E+00
 -1     14668 1.83830E+00
 -1     14669 1.77595E+00
 -1     14671 1.77595E+00
 -1     14672 1.83973E+00
 -1     14674 1.83973E+00
 -1     14675 1.72372E+00
 -1     14677 1.72372E+00
 -1     14678 1.66837E+00
 -1     14680 1.66837E+00
 -1     14681 1.73222E+00
 -1     14683 1.73222E+00
 -1     14684 1.62003E+00
 -1     14686 1.62003E+00
 -1     14687 1.57033E+00
 -1     14689 1.57033E+00
 -1     14690 1.63165E+00
 -1     14692 1.63165E+00
 -1     14693 1.52313E+00
 -1     14695 1.52313E+00
 -1     14696 1.47903E+00
 -1     14698 1.47903E+00
 -1     14699 1.53611E+00
 -1     14701 1.53611E+00
 -1     14702 1.44377E+00
 -1     14704 1.44377E+00
 -1     14705 1.40654E+00
 -1     14707 1.40654E+00
 -1     14708 1.45364E+00
 -1     14710 1.45364E+00
 -1     14711 1.37329E+00
 -1     14713 1.37329E+00
 -1     14714 1.33889E+00
 -1     14716 1.33889E+00
 -1     14717 1.38512E+00
 -1     14719 1.38512E+00
 -1     14720 1.30546E+00
 -1     14722 1.30546E+00
 -1     14723 1.27237E+00
 -1     14725 1.27237E+00
 -1     14726 1.31844E+00
 -1     14728 1.31844E+00
 -1     14729 1.23954E+00
 -1     14731 1.23954E+00
 -1     14732 1.20796E+00
 -1     14734 1.20796E+00
 -1     14735 1.25217E+00
 -1     14737 1.25217E+00
 -1     14738 1.17709E+00
 -1     14740 1.17709E+00
 -1     14741 1.14761E+00
 -1     14743 1.14761E+00
 -1     14744 1.18847E+00
 -1     14746 1.18847E+00
 -1     14747 1.11957E+00
 -1     14749 1.11957E+00
 -1     14750 1.09236E+00
 -1     14752 1.09236E+00
 -1     14753 1.12955E+00
 -1     14755 1.12955E+00
 -1     14756 1.06670E+00
 -1     14758 1.06670E+00
 -1     14759 1.04129E+00
 -1     14761 1.04129E+00
 -1     14762 1.07584E+00
 -1     14764 1.07584E+00
 -1     14765 1.01692E+00
 -1     14767 1.01692E+00
 -1     14768 9.92698E-01
 -1     14770 9.92698E-01
 -1     14771 1.02581E+00
 -1     14773 1.02581E+00
 -1     14774 9.69118E-01
 -1     14776 9.69118E-01
 -1     14777 9.45891E-01
 -1     14779 9.45891E-01
 -1     14780 9.77862E-01
 -1     14782 9.77862E-01
 -1     14783 9.23209E-01
 -1     14785 9.23209E-01
 -1     14786 9.01100E-01
 -1     14788 9.01100E-01
 -1     14789 9.31601E-01
 -1     14791 9.31601E-01
 -1     14792 8.79389E-01
 -1     14794 8.79389E-01
 -1     14795 8.58571E-01
 -1     14797 8.58571E-01
 -1     14798 8.87209E-01
 -1     14800 8.87209E-01
 -1     14801 8.38127E-01
 -1     14803 8.38127E-01
 -1     14804 8.18785E-01
 -1     14806 8.18785E-01
 -1     14807 8.45054E-01
 -1     14809 8.45054E-01
 -1     14810 8.00950E-01
 -1     14812 8.00950E-01
 -1     14813 7.82364E-01
 -1     14815 7.82364E-01
 -1     14816 8.06775E-01
 -1     14818 8.06775E-01
 -1     14819 7.65187E-01
 -1     14821 7.65187E-01
 -1     14822 7.44897E-01
 -1     14824 7.44897E-01
 -1     14825 7.71763E-01
 -1     14827 7.71763E-01
 -1     14828 7.20907E-01
 -1     14830 7.20907E-01
 -1     14831 6.98366E-01
 -1     14833 6.98366E-01
 -1     14834 7.30597E-01
 -1     14836 7.30597E-01
 -1     14837 6.70807E-01
 -1     14839 6.70807E-01
 -1     14840 6.52795E-01
 -1     14842 6.52795E-01
 -1     14843 6.79048E-01
 -1     14845 6.79048E-01
 -1     14846 6.78133E-01
 -1     14848 6.78133E-01
 -1     14849 7.02165E-01
 -1     14851 7.02165E-01
 -1     14852 6.76827E-01
 -1     14854 6.76827E-01
 -1     14855 7.44739E-01
 -1     14857 7.44739E-01
 -1     14858 6.79361E-01
 -1     14860 6.79361E-01
 -1     14861 7.44739E-01
 -1     14863 7.44739E-01
 -1     14864 6.07274E-01
 -1     14866 6.07274E-01
 -1     14867 5.88506E-01
 -1     14869 5.88506E-01
 -1     14870 6.97293E-01
 -1     14872 6.97293E-01
 -1     14873 9.06462E-01
 -1     14875 9.06462E-01
 -1     14876 9.27894E-01
 -1     14878 9.27894E-01
 -1     14879 8.95243E-01
 -1     14881 8.95243E-01
 -1     14882 1.91843E+00
 -1     14884 1.91843E+00
 -1     14885 1.97391E+00
 -1     14887 1.97391E+00
 -1     14888 1.83703E+00
 -1     14890 1.83703E+00
 -1     14891 5.65340E-01
 -1     14893 5.65340E-01
 -1     14894 5.59598E-01
 -1     14896 5.59598E-01
 -1     14897 5.85613E-01
 -1     14899 5.85613E-01
 -1     14900 1.28052E+00
 -1     14902 1.28052E+00
 -1     14903 1.31620E+00
 -1     14905 1.31620E+00
 -1     14906 7.87313E-01
 -1     14908 7.87313E-01
 -1     14909 7.87313E-01
 -1     14911 7.87313E-01
 -1     14912 1.94386E+00
 -1     14914 1.94386E+00
 -1     14915 1.88637E+00
 -1     14917 1.88637E+00
 -1     14918 1.87918E+00
 -1     14920 1.87918E+00
 -1     14921 8.06652E-01
 -1     14923 8.06652E-01
 -1     14924 7.84287E-01
 -1     14926 7.84287E-01
 -1     14927 5.99712E-01
 -1     14929 5.99712E-01
 -1     14930 1.04762E+00
 -1     14932 1.04762E+00
 -1     14933 1.07346E+00
 -1     14935 1.07346E+00
 -1     14936 7.45549E-01
 -1     14938 7.45549E-01
 -1     14939 7.47345E-01
 -1     14941 7.47345E-01
 -1     14942 1.97111E+00
 -1     14944 1.97111E+00
 -1     14945 1.98650E+00
 -1     14947 1.98650E+00
 -1     14948 1.46993E+00
 -1     14950 1.46993E+00
 -1     14951 1.50602E+00
 -1     14953 1.50602E+00
 -1     14954 1.45302E+00
 -1     14956 1.45302E+00
 -1     14957 1.11366E+00
 -1     14959 1.11366E+00
 -1     14960 2.02287E+00
 -1     14962 2.02287E+00
 -1     14963 2.08792E+00
 -1     14965 2.08792E+00
 -1     14966 1.99788E+00
 -1     14968 1.99788E+00
 -1     14969 1.92901E+00
 -1     14971 1.92901E+00
 -1     14972 8.06652E-01
 -1     14974 8.06652E-01
 -1     14975 7.76207E-01
 -1     14977 7.76207E-01
 -1     14978 7.77110E-01
 -1     14980 7.77110E-01
 -1     14981 8.07767E-01
 -1     14983 8.07767E-01
 -1     14984 2.08277E+00
 -1     14986 2.08277E+00
 -1     14987 2.06245E+00
 -1     14989 2.06245E+00
 -1     14990 1.95436E+00
 -1     14992 1.95436E+00
 -1     14993 1.83202E+00
 -1     14995 1.83202E+00
 -1     14996 1.91052E+00
 -1     14998 1.91052E+00
 -1     14999 1.86193E+00
 -1     15001 1.86193E+00
 -1     15002 1.81539E+00
 -1     15004 1.81539E+00
 -1     15005 7.44922E-01
 -1     15007 7.44922E-01
 -1     15008 1.88744E+00
 -1     15010 1.88744E+00
 -1     15011 1.83102E+00
 -1     15013 1.83102E+00
 -1     15014 1.89666E+00
 -1     15016 1.89666E+00
 -1     15017 9.50513E-01
 -1     15019 9.50513E-01
 -1     15020 9.73494E-01
 -1     15022 9.73494E-01
 -1     15023 9.38754E-01
 -1     15025 9.38754E-01
 -1     15026 8.46656E-01
 -1     15028 8.46656E-01
 -1     15029 8.55136E-01
 -1     15031 8.55136E-01
 -1     15032 8.28745E-01
 -1     15034 8.28745E-01
 -1     15035 1.35460E+00
 -1     15037 1.35460E+00
 -1     15038 1.39310E+00
 -1     15040 1.39310E+00
 -1     15041 1.33497E+00
 -1     15043 1.33497E+00
 -1     15044 9.97440E-01
 -1     15046 9.97440E-01
 -1     15047 1.02193E+00
 -1     15049 1.02193E+00
 -1     15050 1.03495E+00
 -1     15052 1.03495E+00
 -1     15053 9.85319E-01
 -1     15055 9.85319E-01
 -1     15056 5.51899E-01
 -1     15058 5.51899E-01
 -1     15059 5.46659E-01
 -1     15061 5.46659E-01
 -1     15062 5.71378E-01
 -1     15064 5.71378E-01
 -1     15065 1.57824E+00
 -1     15067 1.57824E+00
 -1     15068 1.62090E+00
 -1     15070 1.62090E+00
 -1     15071 1.54554E+00
 -1     15073 1.54554E+00
 -1     15074 2.18743E+00
 -1     15076 2.18743E+00
 -1     15077 2.05850E+00
 -1     15079 2.05850E+00
 -1     15080 2.03075E+00
 -1     15082 2.03075E+00
 -1     15083 2.05850E+00
 -1     15085 2.05850E+00
 -1     15086 2.04677E+00
 -1     15088 2.04677E+00
 -1     15089 1.99532E+00
 -1     15091 1.99532E+00
 -1     15092 2.15572E+00
 -1     15094 2.15572E+00
 -1     15095 1.15512E+00
 -1     15097 1.15512E+00
 -1     15098 1.18470E+00
 -1     15100 1.18470E+00
 -1     15101 1.81204E+00
 -1     15103 1.81204E+00
 -1     15104 2.00123E+00
 -1     15106 2.00123E+00
 -1     15107 1.75586E+00
 -1     15109 1.75586E+00
 -1     15110 1.89802E+00
 -1     15112 1.89802E+00
 -1     15113 1.84879E+00
 -1     15115 1.84879E+00
 -1     15116 1.89858E+00
 -1     15118 1.89858E+00
 -1     15119 5.54013E-01
 -1     15121 5.54013E-01
 -1     15122 7.44209E-01
 -1     15124 7.44209E-01
 -1     15125 7.44209E-01
 -1     15127 7.44209E-01
 -1     15128 5.72068E-01
 -1     15130 5.72068E-01
 -1     15131 5.92301E-01
 -1     15133 5.92301E-01
 -1     15134 1.19919E+00
 -1     15136 1.19919E+00
 -1     15137 1.21467E+00
 -1     15139 1.21467E+00
 -1     15140 1.88033E+00
 -1     15142 1.88033E+00
 -1     15143 1.88695E+00
 -1     15145 1.88695E+00
 -1     15146 1.83608E+00
 -1     15148 1.83608E+00
 -1     15149 7.44922E-01
 -1     15151 7.44922E-01
 -1     15152 8.07767E-01
 -1     15154 8.07767E-01
 -1     15155 1.80437E+00
 -1     15157 1.80437E+00
 -1     15158 1.78795E+00
 -1     15160 1.78795E+00
 -1     15161 7.52436E-01
 -1     15163 7.52436E-01
 -1     15164 7.61026E-01
 -1     15166 7.61026E-01
 -1     15167 7.51543E-01
 -1     15169 7.51543E-01
 -1     15170 6.23029E-01
 -1     15172 6.23029E-01
 -1     15173 6.15467E-01
 -1     15175 6.15467E-01
 -1     15176 1.76853E+00
 -1     15178 1.76853E+00
 -1     15179 1.75824E+00
 -1     15181 1.75824E+00
 -1     15182 1.74189E+00
 -1     15184 1.74189E+00
 -1     15185 1.18329E+00
 -1     15187 1.18329E+00
 -1     15188 1.21327E+00
 -1     15190 1.21327E+00
 -1     15191 5.93701E-01
 -1     15193 5.93701E-01
 -1     15194 5.86002E-01
 -1     15196 5.86002E-01
 -1     15197 5.75584E-01
 -1     15199 5.75584E-01
 -1     15200 5.65918E-01
 -1     15202 5.65918E-01
 -1     15203 5.97906E-01
 -1     15205 5.97906E-01
 -1     15206 1.24682E+00
 -1     15208 1.24682E+00
 -1     15209 1.88926E+00
 -1     15211 1.88926E+00
 -1     15212 1.89128E+00
 -1     15214 1.89128E+00
 -1     15215 1.83955E+00
 -1     15217 1.83955E+00
 -1     15218 1.94477E+00
 -1     15220 1.94477E+00
 -1     15221 1.88337E+00
 -1     15223 1.88337E+00
 -1     15224 1.92486E+00
 -1     15226 1.92486E+00
 -1     15227 1.09984E+00
 -1     15229 1.09984E+00
 -1     15230 1.12723E+00
 -1     15232 1.12723E+00
 -1     15233 1.14131E+00
 -1     15235 1.14131E+00
 -1     15236 1.08703E+00
 -1     15238 1.08703E+00
 -1     15239 1.83079E+00
 -1     15241 1.83079E+00
 -1     15242 1.77551E+00
 -1     15244 1.77551E+00
 -1     15245 1.81916E+00
 -1     15247 1.81916E+00
 -1     15248 1.72879E+00
 -1     15250 1.72879E+00
 -1     15251 1.67656E+00
 -1     15253 1.67656E+00
 -1     15254 1.71985E+00
 -1     15256 1.71985E+00
 -1     15257 1.64208E+00
 -1     15259 1.64208E+00
 -1     15260 1.59374E+00
 -1     15262 1.59374E+00
 -1     15263 1.63865E+00
 -1     15265 1.63865E+00
 -1     15266 1.53968E+00
 -1     15268 1.53968E+00
 -1     15269 1.49248E+00
 -1     15271 1.49248E+00
 -1     15272 1.55012E+00
 -1     15274 1.55012E+00
 -1     15275 1.46545E+00
 -1     15277 1.46545E+00
 -1     15278 1.43019E+00
 -1     15280 1.43019E+00
 -1     15281 1.46903E+00
 -1     15283 1.46903E+00
 -1     15284 1.39972E+00
 -1     15286 1.39972E+00
 -1     15287 1.36647E+00
 -1     15289 1.36647E+00
 -1     15290 1.41153E+00
 -1     15292 1.41153E+00
 -1     15293 1.33224E+00
 -1     15295 1.33224E+00
 -1     15296 1.29881E+00
 -1     15298 1.29881E+00
 -1     15299 1.34685E+00
 -1     15301 1.34685E+00
 -1     15302 1.26415E+00
 -1     15304 1.26415E+00
 -1     15305 1.23132E+00
 -1     15307 1.23132E+00
 -1     15308 1.27796E+00
 -1     15310 1.27796E+00
 -1     15311 1.19833E+00
 -1     15313 1.19833E+00
 -1     15314 1.16746E+00
 -1     15316 1.16746E+00
 -1     15317 1.21031E+00
 -1     15319 1.21031E+00
 -1     15320 1.13800E+00
 -1     15322 1.13800E+00
 -1     15323 1.10995E+00
 -1     15325 1.10995E+00
 -1     15326 1.14785E+00
 -1     15328 1.14785E+00
 -1     15329 1.08408E+00
 -1     15331 1.08408E+00
 -1     15332 1.05842E+00
 -1     15334 1.05842E+00
 -1     15335 1.09252E+00
 -1     15337 1.09252E+00
 -1     15338 1.03421E+00
 -1     15340 1.03421E+00
 -1     15341 1.00985E+00
 -1     15343 1.00985E+00
 -1     15344 1.04245E+00
 -1     15346 1.04245E+00
 -1     15347 9.86154E-01
 -1     15349 9.86154E-01
 -1     15350 9.62575E-01
 -1     15352 9.62575E-01
 -1     15353 9.94557E-01
 -1     15355 9.94557E-01
 -1     15356 9.39692E-01
 -1     15358 9.39692E-01
 -1     15359 9.17010E-01
 -1     15361 9.17010E-01
 -1     15362 9.47984E-01
 -1     15364 9.47984E-01
 -1     15365 8.94908E-01
 -1     15367 8.94908E-01
 -1     15368 8.73197E-01
 -1     15370 8.73197E-01
 -1     15371 9.02999E-01
 -1     15373 9.02999E-01
 -1     15374 8.51155E-01
 -1     15376 8.51155E-01
 -1     15377 8.30711E-01
 -1     15379 8.30711E-01
 -1     15380 8.58854E-01
 -1     15382 8.58854E-01
 -1     15383 8.09466E-01
 -1     15385 8.09466E-01
 -1     15386 7.91631E-01
 -1     15388 7.91631E-01
 -1     15389 8.15567E-01
 -1     15391 8.15567E-01
 -1     15392 7.78105E-01
 -1     15394 7.78105E-01
 -1     15395 7.60929E-01
 -1     15397 7.60929E-01
 -1     15398 7.80796E-01
 -1     15400 7.80796E-01
 -1     15401 7.78159E-01
 -1     15403 7.78159E-01
 -1     15404 7.54168E-01
 -1     15406 7.54168E-01
 -1     15407 7.84501E-01
 -1     15409 7.84501E-01
 -1     15410 7.08603E-01
 -1     15412 7.08603E-01
 -1     15413 6.81044E-01
 -1     15415 6.81044E-01
 -1     15416 7.56165E-01
 -1     15418 7.56165E-01
 -1     15419 7.01635E-01
 -1     15421 7.01635E-01
 -1     15422 7.13636E-01
 -1     15424 7.13636E-01
 -1     15425 6.23617E-01
 -1     15427 6.23617E-01
 -1     15428 6.39372E-01
 -1     15430 6.39372E-01
 -1     15431 6.70533E-01
 -1     15433 6.70533E-01
 -1     15434 6.27738E-01
 -1     15436 6.27738E-01
 -1     15437 6.72116E-01
 -1     15439 6.72116E-01
 -1     15440 6.26719E-01
 -1     15442 6.26719E-01
 -1     15443 8.83174E-01
 -1     15445 8.83174E-01
 -1     15446 9.04067E-01
 -1     15448 9.04067E-01
 -1     15449 1.73822E+00
 -1     15451 1.73822E+00
 -1     15452 1.78123E+00
 -1     15454 1.78123E+00
 -1     15455 1.70244E+00
 -1     15457 1.70244E+00
 -1     15458 6.08040E-01
 -1     15460 6.08040E-01
 -1     15461 6.01504E-01
 -1     15463 6.01504E-01
 -1     15464 6.31357E-01
 -1     15466 6.31357E-01
 -1     15467 1.26286E+00
 -1     15469 1.26286E+00
 -1     15470 1.24239E+00
 -1     15472 1.24239E+00
 -1     15473 1.27609E+00
 -1     15475 1.27609E+00
 -1     15476 1.22650E+00
 -1     15478 1.22650E+00
 -1     15479 1.89119E+00
 -1     15481 1.89119E+00
 -1     15482 1.89435E+00
 -1     15484 1.89435E+00
 -1     15485 2.13566E+00
 -1     15487 2.13566E+00
 -1     15488 1.97526E+00
 -1     15490 1.97526E+00
 -1     15491 1.84177E+00
 -1     15493 1.84177E+00
 -1     15494 1.84591E+00
 -1     15496 1.84591E+00
 -1     15497 1.84996E+00
 -1     15499 1.84996E+00
 -1     15500 1.85112E+00
 -1     15502 1.85112E+00
 -1     15503 1.99030E+00
 -1     15505 1.99030E+00
 -1     15506 2.10997E+00
 -1     15508 2.10997E+00
 -1     15509 1.93617E+00
 -1     15511 1.93617E+00
 -1     15512 1.53272E+00
 -1     15514 1.53272E+00
 -1     15515 7.34961E-01
 -1     15517 7.34961E-01
 -1     15518 6.16127E-01
 -1     15520 6.16127E-01
 -1     15521 1.84958E+00
 -1     15523 1.84958E+00
 -1     15524 1.89854E+00
 -1     15526 1.89854E+00
 -1     15527 1.84543E+00
 -1     15529 1.84543E+00
 -1     15530 1.75077E+00
 -1     15532 1.75077E+00
 -1     15533 7.45876E-01
 -1     15535 7.45876E-01
 -1     15536 7.50967E-01
 -1     15538 7.50967E-01
 -1     15539 5.48758E-01
 -1     15541 5.48758E-01
 -1     15542 5.53011E-01
 -1     15544 5.53011E-01
 -1     15545 1.93886E+00
 -1     15547 1.93886E+00
 -1     15548 1.80669E+00
 -1     15550 1.80669E+00
 -1     15551 1.76362E+00
 -1     15553 1.76362E+00
 -1     15554 1.80804E+00
 -1     15556 1.80804E+00
 -1     15557 1.43675E+00
 -1     15559 1.43675E+00
 -1     15560 1.47694E+00
 -1     15562 1.47694E+00
 -1     15563 1.41702E+00
 -1     15565 1.41702E+00
 -1     15566 5.72226E-01
 -1     15568 5.72226E-01
 -1     15569 8.07767E-01
 -1     15571 8.07767E-01
 -1     15572 9.26429E-01
 -1     15574 9.26429E-01
 -1     15575 9.49048E-01
 -1     15577 9.49048E-01
 -1     15578 9.14361E-01
 -1     15580 9.14361E-01
 -1     15581 8.11700E-01
 -1     15583 8.11700E-01
 -1     15584 8.18876E-01
 -1     15586 8.18876E-01
 -1     15587 7.96195E-01
 -1     15589 7.96195E-01
 -1     15590 7.70055E-01
 -1     15592 7.70055E-01
 -1     15593 7.82625E-01
 -1     15595 7.82625E-01
 -1     15596 7.88261E-01
 -1     15598 7.88261E-01
 -1     15599 7.65662E-01
 -1     15601 7.65662E-01
 -1     15602 1.15593E+00
 -1     15604 1.15593E+00
 -1     15605 1.17001E+00
 -1     15607 1.17001E+00
 -1     15608 1.12803E+00
 -1     15610 1.12803E+00
 -1     15611 1.31139E+00
 -1     15613 1.31139E+00
 -1     15614 1.34979E+00
 -1     15616 1.34979E+00
 -1     15617 1.29092E+00
 -1     15619 1.29092E+00
 -1     15620 5.70329E-01
 -1     15622 5.70329E-01
 -1     15623 1.02249E+00
 -1     15625 1.02249E+00
 -1     15626 1.04817E+00
 -1     15628 1.04817E+00
 -1     15629 1.07458E+00
 -1     15631 1.07458E+00
 -1     15632 1.10096E+00
 -1     15634 1.10096E+00
 -1     15635 1.06211E+00
 -1     15637 1.06211E+00
 -1     15638 6.49073E-01
 -1     15640 6.49073E-01
 -1     15641 6.74411E-01
 -1     15643 6.74411E-01
 -1     15644 8.62420E-01
 -1     15646 8.62420E-01
 -1     15647 8.71243E-01
 -1     15649 8.71243E-01
 -1     15650 8.43205E-01
 -1     15652 8.43205E-01
 -1     15653 1.67036E+00
 -1     15655 1.67036E+00
 -1     15656 1.75666E+00
 -1     15658 1.75666E+00
 -1     15659 1.62170E+00
 -1     15661 1.62170E+00
 -1     15662 2.00567E+00
 -1     15664 2.00567E+00
 -1     15665 2.16474E+00
 -1     15667 2.16474E+00
 -1     15668 2.16474E+00
 -1     15670 2.16474E+00
 -1     15671 2.11441E+00
 -1     15673 2.11441E+00
 -1     15674 2.16918E+00
 -1     15676 2.16918E+00
 -1     15677 6.73881E-01
 -1     15679 6.73881E-01
 -1     15680 1.80798E+00
 -1     15682 1.80798E+00
 -1     15683 1.75539E+00
 -1     15685 1.75539E+00
 -1     15686 1.78166E+00
 -1     15688 1.78166E+00
 -1     15689 1.79798E+00
 -1     15691 1.79798E+00
 -1     15692 1.79789E+00
 -1     15694 1.79789E+00
 -1     15695 1.79836E+00
 -1     15697 1.79836E+00
 -1     15698 1.80260E+00
 -1     15700 1.80260E+00
 -1     15701 1.75457E+00
 -1     15703 1.75457E+00
 -1     15704 6.78629E-01
 -1     15706 6.78629E-01
 -1     15707 1.52469E+00
 -1     15709 1.52469E+00
 -1     15710 1.56420E+00
 -1     15712 1.56420E+00
 -1     15713 1.61367E+00
 -1     15715 1.61367E+00
 -1     15716 1.50842E+00
 -1     15718 1.50842E+00
 -1     15719 6.15292E-01
 -1     15721 6.15292E-01
 -1     15722 6.50728E-01
 -1     15724 6.50728E-01
 -1     15725 1.72344E+00
 -1     15727 1.72344E+00
 -1     15728 1.70401E+00
 -1     15730 1.70401E+00
 -1     15731 7.77110E-01
 -1     15733 7.77110E-01
 -1     15734 7.77110E-01
 -1     15736 7.77110E-01
 -1     15737 7.46452E-01
 -1     15739 7.46452E-01
 -1     15740 1.98271E+00
 -1     15742 1.98271E+00
 -1     15743 6.41778E-01
 -1     15745 6.41778E-01
 -1     15746 6.33976E-01
 -1     15748 6.33976E-01
 -1     15749 7.79373E-01
 -1     15751 7.79373E-01
 -1     15752 7.33368E-01
 -1     15754 7.33368E-01
 -1     15755 7.56605E-01
 -1     15757 7.56605E-01
 -1     15758 9.72783E-01
 -1     15760 9.72783E-01
 -1     15761 9.96729E-01
 -1     15763 9.96729E-01
 -1     15764 9.60458E-01
 -1     15766 9.60458E-01
 -1     15767 6.00096E-01
 -1     15769 6.00096E-01
 -1     15770 5.82936E-01
 -1     15772 5.82936E-01
 -1     15773 1.00995E+00
 -1     15775 1.00995E+00
 -1     15776 6.89577E-01
 -1     15778 6.89577E-01
 -1     15779 7.62383E-01
 -1     15781 7.62383E-01
 -1     15782 7.31726E-01
 -1     15784 7.31726E-01
 -1     15785 6.78150E-01
 -1     15787 6.78150E-01
 -1     15788 1.79319E+00
 -1     15790 1.79319E+00
 -1     15791 1.79551E+00
 -1     15793 1.79551E+00
 -1     15794 1.75163E+00
 -1     15796 1.75163E+00
 -1     15797 1.80708E+00
 -1     15799 1.80708E+00
 -1     15800 5.66987E-01
 -1     15802 5.66987E-01
 -1     15803 5.86043E-01
 -1     15805 5.86043E-01
 -1     15806 5.96753E-01
 -1     15808 5.96753E-01
 -1     15809 7.45876E-01
 -1     15811 7.45876E-01
 -1     15812 6.25164E-01
 -1     15814 6.25164E-01
 -1     15815 6.14746E-01
 -1     15817 6.14746E-01
 -1     15818 6.50815E-01
 -1     15820 6.50815E-01
 -1     15821 7.37126E-01
 -1     15823 7.37126E-01
 -1     15824 7.36550E-01
 -1     15826 7.36550E-01
 -1     15827 2.10768E+00
 -1     15829 2.10768E+00
 -1     15830 1.71269E+00
 -1     15832 1.71269E+00
 -1     15833 1.66597E+00
 -1     15835 1.66597E+00
 -1     15836 1.70151E+00
 -1     15838 1.70151E+00
 -1     15839 1.64667E+00
 -1     15841 1.64667E+00
 -1     15842 1.61219E+00
 -1     15844 1.61219E+00
 -1     15845 1.63951E+00
 -1     15847 1.63951E+00
 -1     15848 1.62038E+00
 -1     15850 1.62038E+00
 -1     15851 1.56632E+00
 -1     15853 1.56632E+00
 -1     15854 1.62839E+00
 -1     15856 1.62839E+00
 -1     15857 1.48651E+00
 -1     15859 1.48651E+00
 -1     15860 1.45948E+00
 -1     15862 1.45948E+00
 -1     15863 1.55677E+00
 -1     15865 1.55677E+00
 -1     15866 1.43406E+00
 -1     15868 1.43406E+00
 -1     15869 1.40359E+00
 -1     15871 1.40359E+00
 -1     15872 1.45154E+00
 -1     15874 1.45154E+00
 -1     15875 1.36377E+00
 -1     15877 1.36377E+00
 -1     15878 1.32954E+00
 -1     15880 1.32954E+00
 -1     15881 1.38629E+00
 -1     15883 1.38629E+00
 -1     15884 1.29162E+00
 -1     15886 1.29162E+00
 -1     15887 1.25696E+00
 -1     15889 1.25696E+00
 -1     15890 1.30854E+00
 -1     15892 1.30854E+00
 -1     15893 1.22131E+00
 -1     15895 1.22131E+00
 -1     15896 1.18831E+00
 -1     15898 1.18831E+00
 -1     15899 1.23496E+00
 -1     15901 1.23496E+00
 -1     15902 1.15644E+00
 -1     15904 1.15644E+00
 -1     15905 1.12698E+00
 -1     15907 1.12698E+00
 -1     15908 1.16744E+00
 -1     15910 1.16744E+00
 -1     15911 1.10065E+00
 -1     15913 1.10065E+00
 -1     15914 1.07479E+00
 -1     15916 1.07479E+00
 -1     15917 1.10924E+00
 -1     15919 1.10924E+00
 -1     15920 1.05100E+00
 -1     15922 1.05100E+00
 -1     15923 1.02680E+00
 -1     15925 1.02680E+00
 -1     15926 1.05913E+00
 -1     15928 1.05913E+00
 -1     15929 1.00294E+00
 -1     15931 1.00294E+00
 -1     15932 9.79252E-01
 -1     15934 9.79252E-01
 -1     15935 1.01149E+00
 -1     15937 1.01149E+00
 -1     15938 9.56441E-01
 -1     15940 9.56441E-01
 -1     15941 9.33558E-01
 -1     15943 9.33558E-01
 -1     15944 9.64826E-01
 -1     15946 9.64826E-01
 -1     15947 9.12292E-01
 -1     15949 9.12292E-01
 -1     15950 8.90190E-01
 -1     15952 8.90190E-01
 -1     15953 9.20749E-01
 -1     15955 9.20749E-01
 -1     15956 8.68587E-01
 -1     15958 8.68587E-01
 -1     15959 8.46544E-01
 -1     15961 8.46544E-01
 -1     15962 8.77880E-01
 -1     15964 8.77880E-01
 -1     15965 8.21475E-01
 -1     15967 8.21475E-01
 -1     15968 8.00230E-01
 -1     15970 8.00230E-01
 -1     15971 8.31207E-01
 -1     15973 8.31207E-01
 -1     15974 7.78710E-01
 -1     15976 7.78710E-01
 -1     15977 7.65185E-01
 -1     15979 7.65185E-01
 -1     15980 7.84618E-01
 -1     15982 7.84618E-01
 -1     15983 7.84940E-01
 -1     15985 7.84940E-01
 -1     15986 8.02170E-01
 -1     15988 8.02170E-01
 -1     15989 7.82854E-01
 -1     15991 7.82854E-01
 -1     15992 8.02170E-01
 -1     15994 8.02170E-01
 -1     15995 1.68647E+00
 -1     15997 1.68647E+00
 -1     15998 1.66645E+00
 -1     16000 1.66645E+00
 -1     16001 1.66802E+00
 -1     16003 1.66802E+00
 -1     16004 1.84216E+00
 -1     16006 1.84216E+00
 -1     16007 2.00567E+00
 -1     16009 2.00567E+00
 -1     16010 1.75666E+00
 -1     16012 1.75666E+00
 -1     16013 1.21055E+00
 -1     16015 1.21055E+00
 -1     16016 1.23967E+00
 -1     16018 1.23967E+00
 -1     16019 2.16245E+00
 -1     16021 2.16245E+00
 -1     16022 1.76049E+00
 -1     16024 1.76049E+00
 -1     16025 2.14239E+00
 -1     16027 2.14239E+00
 -1     16028 2.01709E+00
 -1     16030 2.01709E+00
 -1     16031 7.01397E-01
 -1     16033 7.01397E-01
 -1     16034 7.28621E-01
 -1     16036 7.28621E-01
 -1     16037 1.72744E+00
 -1     16039 1.72744E+00
 -1     16040 1.68957E+00
 -1     16042 1.68957E+00
 -1     16043 1.72975E+00
 -1     16045 1.72975E+00
 -1     16046 6.10052E-01
 -1     16048 6.10052E-01
 -1     16049 1.93193E+00
 -1     16051 1.93193E+00
 -1     16052 2.09544E+00
 -1     16054 2.09544E+00
 -1     16055 6.27353E-01
 -1     16057 6.27353E-01
 -1     16058 7.34545E-01
 -1     16060 7.34545E-01
 -1     16061 7.43295E-01
 -1     16063 7.43295E-01
 -1     16064 1.39337E+00
 -1     16066 1.39337E+00
 -1     16067 1.43702E+00
 -1     16069 1.43702E+00
 -1     16070 1.36979E+00
 -1     16072 1.36979E+00
 -1     16073 6.48534E-01
 -1     16075 6.48534E-01
 -1     16076 6.66382E-01
 -1     16078 6.66382E-01
 -1     16079 6.55961E-01
 -1     16081 6.55961E-01
 -1     16082 9.01565E-01
 -1     16084 9.01565E-01
 -1     16085 9.23928E-01
 -1     16087 9.23928E-01
 -1     16088 1.11558E+00
 -1     16090 1.11558E+00
 -1     16091 7.22400E-01
 -1     16093 7.22400E-01
 -1     16094 8.23874E-01
 -1     16096 8.23874E-01
 -1     16097 8.31158E-01
 -1     16099 8.31158E-01
 -1     16100 8.06829E-01
 -1     16102 8.06829E-01
 -1     16103 1.26468E+00
 -1     16105 1.26468E+00
 -1     16106 1.29997E+00
 -1     16108 1.29997E+00
 -1     16109 1.24873E+00
 -1     16111 1.24873E+00
 -1     16112 1.05087E+00
 -1     16114 1.05087E+00
 -1     16115 1.07728E+00
 -1     16117 1.07728E+00
 -1     16118 2.16245E+00
 -1     16120 2.16245E+00
 -1     16121 6.98048E-01
 -1     16123 6.98048E-01
 -1     16124 2.09544E+00
 -1     16126 2.09544E+00
 -1     16127 2.16918E+00
 -1     16129 2.16918E+00
 -1     16130 7.50967E-01
 -1     16132 7.50967E-01
 -1     16133 7.56634E-01
 -1     16135 7.56634E-01
 -1     16136 1.18643E+00
 -1     16138 1.18643E+00
 -1     16139 1.19961E+00
 -1     16141 1.19961E+00
 -1     16142 1.15907E+00
 -1     16144 1.15907E+00
 -1     16145 2.14239E+00
 -1     16147 2.14239E+00
 -1     16148 2.16918E+00
 -1     16150 2.16918E+00
 -1     16151 8.79012E-01
 -1     16153 8.79012E-01
 -1     16154 8.88580E-01
 -1     16156 8.88580E-01
 -1     16157 8.58258E-01
 -1     16159 8.58258E-01
 -1     16160 1.02322E+00
 -1     16162 1.02322E+00
 -1     16163 1.03839E+00
 -1     16165 1.03839E+00
 -1     16166 9.97465E-01
 -1     16168 9.97465E-01
 -1     16169 7.48962E-01
 -1     16171 7.48962E-01
 -1     16172 7.65662E-01
 -1     16174 7.65662E-01
 -1     16175 5.99734E-01
 -1     16177 5.99734E-01
 -1     16178 6.28982E-01
 -1     16180 6.28982E-01
 -1     16181 1.71378E+00
 -1     16183 1.71378E+00
 -1     16184 1.71425E+00
 -1     16186 1.71425E+00
 -1     16187 1.76904E+00
 -1     16189 1.76904E+00
 -1     16190 1.85881E+00
 -1     16192 1.85881E+00
 -1     16193 1.68948E+00
 -1     16195 1.68948E+00
 -1     16196 1.75782E+00
 -1     16198 1.75782E+00
 -1     16199 1.72038E+00
 -1     16201 1.72038E+00
 -1     16202 1.67351E+00
 -1     16204 1.67351E+00
 -1     16205 6.57666E-01
 -1     16207 6.57666E-01
 -1     16208 6.43016E-01
 -1     16210 6.43016E-01
 -1     16211 7.18244E-01
 -1     16213 7.18244E-01
 -1     16214 7.24988E-01
 -1     16216 7.24988E-01
 -1     16217 7.02337E-01
 -1     16219 7.02337E-01
 -1     16220 7.19515E-01
 -1     16222 7.19515E-01
 -1     16223 9.47852E-01
 -1     16225 9.47852E-01
 -1     16226 9.71587E-01
 -1     16228 9.71587E-01
 -1     16229 9.35057E-01
 -1     16231 9.35057E-01
 -1     16232 7.02926E-01
 -1     16234 7.02926E-01
 -1     16235 1.10494E+00
 -1     16237 1.10494E+00
 -1     16238 1.13201E+00
 -1     16240 1.13201E+00
 -1     16241 1.14843E+00
 -1     16243 1.14843E+00
 -1     16244 1.09370E+00
 -1     16246 1.09370E+00
 -1     16247 7.48692E-01
 -1     16249 7.48692E-01
 -1     16250 7.56364E-01
 -1     16252 7.56364E-01
 -1     16253 6.90158E-01
 -1     16255 6.90158E-01
 -1     16256 6.83402E-01
 -1     16258 6.83402E-01
 -1     16259 6.59320E-01
 -1     16261 6.59320E-01
 -1     16262 6.98169E-01
 -1     16264 6.98169E-01
 -1     16265 7.03570E-01
 -1     16267 7.03570E-01
 -1     16268 6.49002E-01
 -1     16270 6.49002E-01
 -1     16271 7.76523E-01
 -1     16273 7.76523E-01
 -1     16274 7.90093E-01
 -1     16276 7.90093E-01
 -1     16277 7.95090E-01
 -1     16279 7.95090E-01
 -1     16280 7.67494E-01
 -1     16282 7.67494E-01
 -1     16283 6.85330E-01
 -1     16285 6.85330E-01
 -1     16286 6.76518E-01
 -1     16288 6.76518E-01
 -1     16289 7.09105E-01
 -1     16291 7.09105E-01
 -1     16292 1.66667E+00
 -1     16294 1.66667E+00
 -1     16295 1.62397E+00
 -1     16297 1.62397E+00
 -1     16298 1.64283E+00
 -1     16300 1.64283E+00
 -1     16301 1.63543E+00
 -1     16303 1.63543E+00
 -1     16304 1.61613E+00
 -1     16306 1.61613E+00
 -1     16307 1.60059E+00
 -1     16309 1.60059E+00
 -1     16310 1.63658E+00
 -1     16312 1.63658E+00
 -1     16313 1.55677E+00
 -1     16315 1.55677E+00
 -1     16316 1.47551E+00
 -1     16318 1.47551E+00
 -1     16319 1.45009E+00
 -1     16321 1.45009E+00
 -1     16322 1.55532E+00
 -1     16324 1.55532E+00
 -1     16325 1.40621E+00
 -1     16327 1.40621E+00
 -1     16328 1.36639E+00
 -1     16330 1.36639E+00
 -1     16331 1.43018E+00
 -1     16333 1.43018E+00
 -1     16334 1.32219E+00
 -1     16336 1.32219E+00
 -1     16337 1.28427E+00
 -1     16339 1.28427E+00
 -1     16340 1.34211E+00
 -1     16342 1.34211E+00
 -1     16343 1.24816E+00
 -1     16345 1.24816E+00
 -1     16346 1.21250E+00
 -1     16348 1.21250E+00
 -1     16349 1.26181E+00
 -1     16351 1.26181E+00
 -1     16352 1.17821E+00
 -1     16354 1.17821E+00
 -1     16355 1.14634E+00
 -1     16357 1.14634E+00
 -1     16358 1.19140E+00
 -1     16360 1.19140E+00
 -1     16361 1.11852E+00
 -1     16363 1.11852E+00
 -1     16364 1.09219E+00
 -1     16366 1.09219E+00
 -1     16367 1.12929E+00
 -1     16369 1.12929E+00
 -1     16370 1.06892E+00
 -1     16372 1.06892E+00
 -1     16373 1.04514E+00
 -1     16375 1.04514E+00
 -1     16376 1.07820E+00
 -1     16378 1.07820E+00
 -1     16379 1.02001E+00
 -1     16381 1.02001E+00
 -1     16382 9.96158E-01
 -1     16384 9.96158E-01
 -1     16385 1.02980E+00
 -1     16387 1.02980E+00
 -1     16388 9.72847E-01
 -1     16390 9.72847E-01
 -1     16391 9.50036E-01
 -1     16393 9.50036E-01
 -1     16394 9.81367E-01
 -1     16396 9.81367E-01
 -1     16397 9.30944E-01
 -1     16399 9.30944E-01
 -1     16400 9.09678E-01
 -1     16402 9.09678E-01
 -1     16403 9.38965E-01
 -1     16405 9.38965E-01
 -1     16406 8.94834E-01
 -1     16408 8.94834E-01
 -1     16409 8.73230E-01
 -1     16411 8.73230E-01
 -1     16412 9.05029E-01
 -1     16414 9.05029E-01
 -1     16415 8.64436E-01
 -1     16417 8.64436E-01
 -1     16418 8.39367E-01
 -1     16420 8.39367E-01
 -1     16421 8.81390E-01
 -1     16423 8.81390E-01
 -1     16424 7.95533E-01
 -1     16426 7.95533E-01
 -1     16427 7.74013E-01
 -1     16429 7.74013E-01
 -1     16430 8.28762E-01
 -1     16432 8.28762E-01
 -1     16433 7.54329E-01
 -1     16435 7.54329E-01
 -1     16436 7.74085E-01
 -1     16438 7.74085E-01
 -1     16439 7.65244E-01
 -1     16441 7.65244E-01
 -1     16442 1.76876E+00
 -1     16444 1.76876E+00
 -1     16445 1.75122E+00
 -1     16447 1.75122E+00
 -1     16448 2.01663E+00
 -1     16450 2.01663E+00
 -1     16451 2.09036E+00
 -1     16453 2.09036E+00
 -1     16454 1.65535E+00
 -1     16456 1.65535E+00
 -1     16457 1.74084E+00
 -1     16459 1.74084E+00
 -1     16460 1.66772E+00
 -1     16462 1.66772E+00
 -1     16463 1.59785E+00
 -1     16465 1.59785E+00
 -1     16466 1.71529E+00
 -1     16468 1.71529E+00
 -1     16469 1.72073E+00
 -1     16471 1.72073E+00
 -1     16472 1.67449E+00
 -1     16474 1.67449E+00
 -1     16475 6.27947E-01
 -1     16477 6.27947E-01
 -1     16478 6.11998E-01
 -1     16480 6.11998E-01
 -1     16481 9.23103E-01
 -1     16483 9.23103E-01
 -1     16484 9.47027E-01
 -1     16486 9.47027E-01
 -1     16487 1.48788E+00
 -1     16489 1.48788E+00
 -1     16490 1.53563E+00
 -1     16492 1.53563E+00
 -1     16493 1.57731E+00
 -1     16495 1.57731E+00
 -1     16496 1.46422E+00
 -1     16498 1.46422E+00
 -1     16499 1.33833E+00
 -1     16501 1.33833E+00
 -1     16502 1.38190E+00
 -1     16504 1.38190E+00
 -1     16505 1.31209E+00
 -1     16507 1.31209E+00
 -1     16508 6.94013E-01
 -1     16510 6.94013E-01
 -1     16511 6.92181E-01
 -1     16513 6.92181E-01
 -1     16514 8.02610E-01
 -1     16516 8.02610E-01
 -1     16517 7.65891E-01
 -1     16519 7.65891E-01
 -1     16520 7.19515E-01
 -1     16522 7.19515E-01
 -1     16523 1.91877E+00
 -1     16525 1.91877E+00
 -1     16526 1.76669E+00
 -1     16528 1.76669E+00
 -1     16529 6.58260E-01
 -1     16531 6.58260E-01
 -1     16532 9.84860E-01
 -1     16534 9.84860E-01
 -1     16535 7.36534E-01
 -1     16537 7.36534E-01
 -1     16538 7.67225E-01
 -1     16540 7.67225E-01
 -1     16541 1.08527E+00
 -1     16543 1.08527E+00
 -1     16544 1.11294E+00
 -1     16546 1.11294E+00
 -1     16547 7.35003E-01
 -1     16549 7.35003E-01
 -1     16550 7.42406E-01
 -1     16552 7.42406E-01
 -1     16553 7.18701E-01
 -1     16555 7.18701E-01
 -1     16556 1.25197E+00
 -1     16558 1.25197E+00
 -1     16559 1.27697E+00
 -1     16561 1.27697E+00
 -1     16562 8.37430E-01
 -1     16564 8.37430E-01
 -1     16565 8.45199E-01
 -1     16567 8.45199E-01
 -1     16568 8.18098E-01
 -1     16570 8.18098E-01
 -1     16571 6.30928E-01
 -1     16573 6.30928E-01
 -1     16574 1.83996E+00
 -1     16576 1.83996E+00
 -1     16577 1.70876E+00
 -1     16579 1.70876E+00
 -1     16580 1.05472E+00
 -1     16582 1.05472E+00
 -1     16583 1.07395E+00
 -1     16585 1.07395E+00
 -1     16586 1.02707E+00
 -1     16588 1.02707E+00
 -1     16589 1.22311E+00
 -1     16591 1.22311E+00
 -1     16592 1.25135E+00
 -1     16594 1.25135E+00
 -1     16595 1.19899E+00
 -1     16597 1.19899E+00
 -1     16598 8.02610E-01
 -1     16600 8.02610E-01
 -1     16601 8.02610E-01
 -1     16603 8.02610E-01
 -1     16604 7.74085E-01
 -1     16606 7.74085E-01
 -1     16607 1.85699E+00
 -1     16609 1.85699E+00
 -1     16610 1.85191E+00
 -1     16612 1.85191E+00
 -1     16613 1.69409E+00
 -1     16615 1.69409E+00
 -1     16616 1.68455E+00
 -1     16618 1.68455E+00
 -1     16619 1.71560E+00
 -1     16621 1.71560E+00
 -1     16622 1.67528E+00
 -1     16624 1.67528E+00
 -1     16625 1.71313E+00
 -1     16627 1.71313E+00
 -1     16628 1.69999E+00
 -1     16630 1.69999E+00
 -1     16631 1.70817E+00
 -1     16633 1.70817E+00
 -1     16634 1.76876E+00
 -1     16636 1.76876E+00
 -1     16637 1.85195E+00
 -1     16639 1.85195E+00
 -1     16640 1.77276E+00
 -1     16642 1.77276E+00
 -1     16643 8.95712E-01
 -1     16645 8.95712E-01
 -1     16646 9.07682E-01
 -1     16648 9.07682E-01
 -1     16649 8.73159E-01
 -1     16651 8.73159E-01
 -1     16652 7.84250E-01
 -1     16654 7.84250E-01
 -1     16655 7.84250E-01
 -1     16657 7.84250E-01
 -1     16658 1.70817E+00
 -1     16660 1.70817E+00
 -1     16661 6.79156E-01
 -1     16663 6.79156E-01
 -1     16664 6.93830E-01
 -1     16666 6.93830E-01
 -1     16667 6.48818E-01
 -1     16669 6.48818E-01
 -1     16670 1.61980E+00
 -1     16672 1.61980E+00
 -1     16673 9.91956E-01
 -1     16675 9.91956E-01
 -1     16676 9.14300E-01
 -1     16678 9.14300E-01
 -1     16679 8.87109E-01
 -1     16681 8.87109E-01
 -1     16682 1.72054E+00
 -1     16684 1.72054E+00
 -1     16685 1.69591E+00
 -1     16687 1.69591E+00
 -1     16688 6.80690E-01
 -1     16690 6.80690E-01
 -1     16691 6.65621E-01
 -1     16693 6.65621E-01
 -1     16694 8.15499E-01
 -1     16696 8.15499E-01
 -1     16697 7.86142E-01
 -1     16699 7.86142E-01
 -1     16700 8.33859E-01
 -1     16702 8.33859E-01
 -1     16703 7.80407E-01
 -1     16705 7.80407E-01
 -1     16706 7.97142E-01
 -1     16708 7.97142E-01
 -1     16709 8.03414E-01
 -1     16711 8.03414E-01
 -1     16712 7.69277E-01
 -1     16714 7.69277E-01
 -1     16715 7.91439E-01
 -1     16717 7.91439E-01
 -1     16718 7.93367E-01
 -1     16720 7.93367E-01
 -1     16721 8.70404E-01
 -1     16723 8.70404E-01
 -1     16724 1.64572E+00
 -1     16726 1.64572E+00
 -1     16727 1.64676E+00
 -1     16729 1.64676E+00
 -1     16730 7.81220E-01
 -1     16732 7.81220E-01
 -1     16733 8.09745E-01
 -1     16735 8.09745E-01
 -1     16736 8.40994E-01
 -1     16738 8.40994E-01
 -1     16739 8.00904E-01
 -1     16741 8.00904E-01
 -1     16742 1.14210E+00
 -1     16744 1.14210E+00
 -1     16745 1.16917E+00
 -1     16747 1.16917E+00
 -1     16748 1.19266E+00
 -1     16750 1.19266E+00
 -1     16751 1.13367E+00
 -1     16753 1.13367E+00
 -1     16754 7.17995E-01
 -1     16756 7.17995E-01
 -1     16757 6.99143E-01
 -1     16759 6.99143E-01
 -1     16760 7.06504E-01
 -1     16762 7.06504E-01
 -1     16763 8.00329E-01
 -1     16765 8.00329E-01
 -1     16766 1.59024E+00
 -1     16768 1.59024E+00
 -1     16769 1.50898E+00
 -1     16771 1.50898E+00
 -1     16772 6.61153E-01
 -1     16774 6.61153E-01
 -1     16775 6.48890E-01
 -1     16777 6.48890E-01
 -1     16778 6.79044E-01
 -1     16780 6.79044E-01
 -1     16781 6.83583E-01
 -1     16783 6.83583E-01
 -1     16784 1.70709E+00
 -1     16786 1.70709E+00
 -1     16787 1.71855E+00
 -1     16789 1.71855E+00
 -1     16790 1.14267E+00
 -1     16792 1.14267E+00
 -1     16793 1.14267E+00
 -1     16795 1.14267E+00
 -1     16796 1.14612E+00
 -1     16798 1.14612E+00
 -1     16799 1.80241E+00
 -1     16801 1.80241E+00
 -1     16802 1.43513E+00
 -1     16804 1.43513E+00
 -1     16805 1.39125E+00
 -1     16807 1.39125E+00
 -1     16808 1.47005E+00
 -1     16810 1.47005E+00
 -1     16811 1.34660E+00
 -1     16813 1.34660E+00
 -1     16814 1.30241E+00
 -1     16816 1.30241E+00
 -1     16817 1.35154E+00
 -1     16819 1.35154E+00
 -1     16820 1.27103E+00
 -1     16822 1.27103E+00
 -1     16823 1.23492E+00
 -1     16825 1.23492E+00
 -1     16826 1.27551E+00
 -1     16828 1.27551E+00
 -1     16829 1.23459E+00
 -1     16831 1.23459E+00
 -1     16832 1.20030E+00
 -1     16834 1.20030E+00
 -1     16835 1.24381E+00
 -1     16837 1.24381E+00
 -1     16838 1.15014E+00
 -1     16840 1.15014E+00
 -1     16841 1.12232E+00
 -1     16843 1.12232E+00
 -1     16844 1.19333E+00
 -1     16846 1.19333E+00
 -1     16847 1.09206E+00
 -1     16849 1.09206E+00
 -1     16850 1.06878E+00
 -1     16852 1.06878E+00
 -1     16853 1.11291E+00
 -1     16855 1.11291E+00
 -1     16856 1.03806E+00
 -1     16858 1.03806E+00
 -1     16859 1.01294E+00
 -1     16861 1.01294E+00
 -1     16862 1.05192E+00
 -1     16864 1.05192E+00
 -1     16865 9.86050E-01
 -1     16867 9.86050E-01
 -1     16868 9.62739E-01
 -1     16870 9.62739E-01
 -1     16871 9.94312E-01
 -1     16873 9.94312E-01
 -1     16874 9.47689E-01
 -1     16876 9.47689E-01
 -1     16877 9.28598E-01
 -1     16879 9.28598E-01
 -1     16880 9.52372E-01
 -1     16882 9.52372E-01
 -1     16883 9.21229E-01
 -1     16885 9.21229E-01
 -1     16886 9.06385E-01
 -1     16888 9.06385E-01
 -1     16889 9.29954E-01
 -1     16891 9.29954E-01
 -1     16892 9.03935E-01
 -1     16894 9.03935E-01
 -1     16895 8.95141E-01
 -1     16897 8.95141E-01
 -1     16898 9.20136E-01
 -1     16900 9.20136E-01
 -1     16901 9.37196E-01
 -1     16903 9.37196E-01
 -1     16904 8.93362E-01
 -1     16906 8.93362E-01
 -1     16907 9.59741E-01
 -1     16909 9.59741E-01
 -1     16910 1.67274E+00
 -1     16912 1.67274E+00
 -1     16913 1.83706E+00
 -1     16915 1.83706E+00
 -1     16916 1.66547E+00
 -1     16918 1.66547E+00
 -1     16919 1.66984E+00
 -1     16921 1.66984E+00
 -1     16922 1.67742E+00
 -1     16924 1.67742E+00
 -1     16925 7.61013E-01
 -1     16927 7.61013E-01
 -1     16928 9.72664E-01
 -1     16930 9.72664E-01
 -1     16931 9.98543E-01
 -1     16933 9.98543E-01
 -1     16934 1.01487E+00
 -1     16936 1.01487E+00
 -1     16937 9.60710E-01
 -1     16939 9.60710E-01
 -1     16940 1.63271E+00
 -1     16942 1.63271E+00
 -1     16943 1.64173E+00
 -1     16945 1.64173E+00
 -1     16946 8.94503E-01
 -1     16948 8.94503E-01
 -1     16949 9.21894E-01
 -1     16951 9.21894E-01
 -1     16952 1.06474E+00
 -1     16954 1.06474E+00
 -1     16955 1.09530E+00
 -1     16957 1.09530E+00
 -1     16958 1.70817E+00
 -1     16960 1.70817E+00
 -1     16961 1.66183E+00
 -1     16963 1.66183E+00
 -1     16964 1.77977E+00
 -1     16966 1.77977E+00
 -1     16967 1.28329E+00
 -1     16969 1.28329E+00
 -1     16970 1.28006E+00
 -1     16972 1.28006E+00
 -1     16973 7.84250E-01
 -1     16975 7.84250E-01
 -1     16976 1.60394E+00
 -1     16978 1.60394E+00
 -1     16979 6.97476E-01
 -1     16981 6.97476E-01
 -1     16982 7.07490E-01
 -1     16984 7.07490E-01
 -1     16985 6.82619E-01
 -1     16987 6.82619E-01
 -1     16988 7.52763E-01
 -1     16990 7.52763E-01
 -1     16991 7.65945E-01
 -1     16993 7.65945E-01
 -1     16994 7.39074E-01
 -1     16996 7.39074E-01
 -1     16997 9.09338E-01
 -1     16999 9.09338E-01
 -1     17000 1.64746E+00
 -1     17002 1.64746E+00
 -1     17003 1.61973E+00
 -1     17005 1.61973E+00
 -1     17006 1.64928E+00
 -1     17008 1.64928E+00
 -1     17009 1.69094E+00
 -1     17011 1.69094E+00
 -1     17012 1.68912E+00
 -1     17014 1.68912E+00
 -1     17015 1.72092E+00
 -1     17017 1.72092E+00
 -1     17018 1.12882E+00
 -1     17020 1.12882E+00
 -1     17021 1.15799E+00
 -1     17023 1.15799E+00
 -1     17024 1.11961E+00
 -1     17026 1.11961E+00
 -1     17027 1.85195E+00
 -1     17029 1.85195E+00
 -1     17030 1.85195E+00
 -1     17032 1.85195E+00
 -1     17033 8.52260E-01
 -1     17035 8.52260E-01
 -1     17036 8.59392E-01
 -1     17038 8.59392E-01
 -1     17039 8.31431E-01
 -1     17041 8.31431E-01
 -1     17042 1.27005E+00
 -1     17044 1.27005E+00
 -1     17045 1.29891E+00
 -1     17047 1.29891E+00
 -1     17048 1.60586E+00
 -1     17050 1.60586E+00
 -1     17051 1.63406E+00
 -1     17053 1.63406E+00
 -1     17054 1.62908E+00
 -1     17056 1.62908E+00
 -1     17057 1.54364E+00
 -1     17059 1.54364E+00
 -1     17060 1.81586E+00
 -1     17062 1.81586E+00
 -1     17063 1.81586E+00
 -1     17065 1.81586E+00
 -1     17066 1.31841E+00
 -1     17068 1.31841E+00
 -1     17069 1.42914E+00
 -1     17071 1.42914E+00
 -1     17072 1.48000E+00
 -1     17074 1.48000E+00
 -1     17075 1.50856E+00
 -1     17077 1.50856E+00
 -1     17078 1.39768E+00
 -1     17080 1.39768E+00
 -1     17081 9.51162E-01
 -1     17083 9.51162E-01
 -1     17084 9.76798E-01
 -1     17086 9.76798E-01
 -1     17087 9.37982E-01
 -1     17089 9.37982E-01
 -1     17090 1.38451E+00
 -1     17092 1.38451E+00
 -1     17093 1.38759E+00
 -1     17095 1.38759E+00
 -1     17096 1.40321E+00
 -1     17098 1.40321E+00
 -1     17099 1.80777E+00
 -1     17101 1.80777E+00
 -1     17102 1.77167E+00
 -1     17104 1.77167E+00
 -1     17105 1.83851E+00
 -1     17107 1.83851E+00
 -1     17108 1.83851E+00
 -1     17110 1.83851E+00
 -1     17111 1.65723E+00
 -1     17113 1.65723E+00
 -1     17114 1.53930E+00
 -1     17116 1.53930E+00
 -1     17117 1.64913E+00
 -1     17119 1.64913E+00
 -1     17120 9.33452E-01
 -1     17122 9.33452E-01
 -1     17123 9.38749E-01
 -1     17125 9.38749E-01
 -1     17126 9.09338E-01
 -1     17128 9.09338E-01
 -1     17129 1.63544E+00
 -1     17131 1.63544E+00
 -1     17132 1.62139E+00
 -1     17134 1.62139E+00
 -1     17135 1.00180E+00
 -1     17137 1.00180E+00
 -1     17138 1.61306E+00
 -1     17140 1.61306E+00
 -1     17141 1.74409E+00
 -1     17143 1.74409E+00
 -1     17144 1.74409E+00
 -1     17146 1.74409E+00
 -1     17147 1.64456E+00
 -1     17149 1.64456E+00
 -1     17150 1.03321E+00
 -1     17152 1.03321E+00
 -1     17153 1.05456E+00
 -1     17155 1.05456E+00
 -1     17156 1.00469E+00
 -1     17158 1.00469E+00
 -1     17159 1.46712E+00
 -1     17161 1.46712E+00
 -1     17162 1.39327E+00
 -1     17164 1.39327E+00
 -1     17165 1.46252E+00
 -1     17167 1.46252E+00
 -1     17168 1.35014E+00
 -1     17170 1.35014E+00
 -1     17171 1.30549E+00
 -1     17173 1.30549E+00
 -1     17174 1.34722E+00
 -1     17176 1.34722E+00
 -1     17177 1.27497E+00
 -1     17179 1.27497E+00
 -1     17180 1.24359E+00
 -1     17182 1.24359E+00
 -1     17183 1.27356E+00
 -1     17185 1.27356E+00
 -1     17186 1.24721E+00
 -1     17188 1.24721E+00
 -1     17189 1.24689E+00
 -1     17191 1.24689E+00
 -1     17192 1.24666E+00
 -1     17194 1.24666E+00
 -1     17195 1.24689E+00
 -1     17197 1.24689E+00
 -1     17198 1.19673E+00
 -1     17200 1.19673E+00
 -1     17201 1.25029E+00
 -1     17203 1.25029E+00
 -1     17204 1.14317E+00
 -1     17206 1.14317E+00
 -1     17207 1.11291E+00
 -1     17209 1.11291E+00
 -1     17210 1.19673E+00
 -1     17212 1.19673E+00
 -1     17213 1.05564E+00
 -1     17215 1.05564E+00
 -1     17216 1.02492E+00
 -1     17218 1.02492E+00
 -1     17219 1.08590E+00
 -1     17221 1.08590E+00
 -1     17222 9.93488E-01
 -1     17224 9.93488E-01
 -1     17225 9.66598E-01
 -1     17227 9.66598E-01
 -1     17228 9.97204E-01
 -1     17230 9.97204E-01
 -1     17231 9.59029E-01
 -1     17233 9.59029E-01
 -1     17234 9.43979E-01
 -1     17236 9.43979E-01
 -1     17237 9.58205E-01
 -1     17239 9.58205E-01
 -1     17240 9.48565E-01
 -1     17242 9.48565E-01
 -1     17243 9.41196E-01
 -1     17245 9.41196E-01
 -1     17246 9.55221E-01
 -1     17248 9.55221E-01
 -1     17249 9.28342E-01
 -1     17251 9.28342E-01
 -1     17252 9.25892E-01
 -1     17254 9.25892E-01
 -1     17255 9.46953E-01
 -1     17257 9.46953E-01
 -1     17258 9.59741E-01
 -1     17260 9.59741E-01
 -1     17261 1.00180E+00
 -1     17263 1.00180E+00
 -1     17264 9.67947E-01
 -1     17266 9.67947E-01
 -1     17267 1.19297E+00
 -1     17269 1.19297E+00
 -1     17270 1.22279E+00
 -1     17272 1.22279E+00
 -1     17273 1.18812E+00
 -1     17275 1.18812E+00
 -1     17276 1.27036E+00
 -1     17278 1.27036E+00
 -1     17279 1.76251E+00
 -1     17281 1.76251E+00
 -1     17282 1.76566E+00
 -1     17284 1.76566E+00
 -1     17285 7.89120E-01
 -1     17287 7.89120E-01
 -1     17288 8.10076E-01
 -1     17290 8.10076E-01
 -1     17291 8.17137E-01
 -1     17293 8.17137E-01
 -1     17294 7.72607E-01
 -1     17296 7.72607E-01
 -1     17297 8.59173E-01
 -1     17299 8.59173E-01
 -1     17300 8.73385E-01
 -1     17302 8.73385E-01
 -1     17303 8.38274E-01
 -1     17305 8.38274E-01
 -1     17306 1.27036E+00
 -1     17308 1.27036E+00
 -1     17309 1.31762E+00
 -1     17311 1.31762E+00
 -1     17312 1.51217E+00
 -1     17314 1.51217E+00
 -1     17315 1.41095E+00
 -1     17317 1.41095E+00
 -1     17318 1.00180E+00
 -1     17320 1.00180E+00
 -1     17321 1.69991E+00
 -1     17323 1.69991E+00
 -1     17324 7.80958E-01
 -1     17326 7.80958E-01
 -1     17327 7.84604E-01
 -1     17329 7.84604E-01
 -1     17330 7.81030E-01
 -1     17332 7.81030E-01
 -1     17333 9.95142E-01
 -1     17335 9.95142E-01
 -1     17336 7.84604E-01
 -1     17338 7.84604E-01
 -1     17339 8.05830E-01
 -1     17341 8.05830E-01
 -1     17342 8.16188E-01
 -1     17344 8.16188E-01
 -1     17345 8.82944E-01
 -1     17347 8.82944E-01
 -1     17348 1.74359E+00
 -1     17350 1.74359E+00
 -1     17351 1.76103E+00
 -1     17353 1.76103E+00
 -1     17354 1.74532E+00
 -1     17356 1.74532E+00
 -1     17357 8.75701E-01
 -1     17359 8.75701E-01
 -1     17360 8.00329E-01
 -1     17362 8.00329E-01
 -1     17363 9.41823E-01
 -1     17365 9.41823E-01
 -1     17366 9.71091E-01
 -1     17368 9.71091E-01
 -1     17369 9.38749E-01
 -1     17371 9.38749E-01
 -1     17372 1.07277E+00
 -1     17374 1.07277E+00
 -1     17375 1.10430E+00
 -1     17377 1.10430E+00
 -1     17378 7.85497E-01
 -1     17380 7.85497E-01
 -1     17381 1.11261E+00
 -1     17383 1.11261E+00
 -1     17384 1.14613E+00
 -1     17386 1.14613E+00
 -1     17387 1.13081E+00
 -1     17389 1.13081E+00
 -1     17390 1.64201E+00
 -1     17392 1.64201E+00
 -1     17393 7.99562E-01
 -1     17395 7.99562E-01
 -1     17396 7.81109E-01
 -1     17398 7.81109E-01
 -1     17399 8.74934E-01
 -1     17401 8.74934E-01
 -1     17402 8.78555E-01
 -1     17404 8.78555E-01
 -1     17405 1.75971E+00
 -1     17407 1.75971E+00
 -1     17408 1.83626E+00
 -1     17410 1.83626E+00
 -1     17411 1.78072E+00
 -1     17413 1.78072E+00
 -1     17414 1.76587E+00
 -1     17416 1.76587E+00
 -1     17417 1.74532E+00
 -1     17419 1.74532E+00
 -1     17420 1.85412E+00
 -1     17422 1.85412E+00
 -1     17423 1.50728E+00
 -1     17425 1.50728E+00
 -1     17426 1.56417E+00
 -1     17428 1.56417E+00
 -1     17429 1.63791E+00
 -1     17431 1.63791E+00
 -1     17432 1.44364E+00
 -1     17434 1.44364E+00
 -1     17435 1.32178E+00
 -1     17437 1.32178E+00
 -1     17438 1.35381E+00
 -1     17440 1.35381E+00
 -1     17441 1.40105E+00
 -1     17443 1.40105E+00
 -1     17444 1.41432E+00
 -1     17446 1.41432E+00
 -1     17447 1.49992E+00
 -1     17449 1.49992E+00
 -1     17450 1.41432E+00
 -1     17452 1.41432E+00
 -1     17453 1.44636E+00
 -1     17455 1.44636E+00
 -1     17456 9.63931E-01
 -1     17458 9.63931E-01
 -1     17459 9.97040E-01
 -1     17461 9.97040E-01
 -1     17462 9.28601E-01
 -1     17464 9.28601E-01
 -1     17465 1.84736E+00
 -1     17467 1.84736E+00
 -1     17468 1.87072E+00
 -1     17470 1.87072E+00
 -1     17471 1.85846E+00
 -1     17473 1.85846E+00
 -1     17474 1.21500E+00
 -1     17476 1.21500E+00
 -1     17477 1.26226E+00
 -1     17479 1.26226E+00
 -1     17480 1.18002E+00
 -1     17482 1.18002E+00
 -1     17483 1.63119E+00
 -1     17485 1.63119E+00
 -1     17486 1.69486E+00
 -1     17488 1.69486E+00
 -1     17489 1.63952E+00
 -1     17491 1.63952E+00
 -1     17492 8.24122E-01
 -1     17494 8.24122E-01
 -1     17495 8.23903E-01
 -1     17497 8.23903E-01
 -1     17498 8.02767E-01
 -1     17500 8.02767E-01
 -1     17501 8.89317E-01
 -1     17503 8.89317E-01
 -1     17504 8.93706E-01
 -1     17506 8.93706E-01
 -1     17507 1.99082E+00
 -1     17509 1.99082E+00
 -1     17510 1.99363E+00
 -1     17512 1.99363E+00
 -1     17513 9.93298E-01
 -1     17515 9.93298E-01
 -1     17516 1.02119E+00
 -1     17518 1.02119E+00
 -1     17519 1.07092E+00
 -1     17521 1.07092E+00
 -1     17522 9.97139E-01
 -1     17524 9.97139E-01
 -1     17525 1.45291E+00
 -1     17527 1.45291E+00
 -1     17528 1.38074E+00
 -1     17530 1.38074E+00
 -1     17531 1.80422E+00
 -1     17533 1.80422E+00
 -1     17534 1.76108E+00
 -1     17536 1.76108E+00
 -1     17537 1.79461E+00
 -1     17539 1.79461E+00
 -1     17540 1.27237E+00
 -1     17542 1.27237E+00
 -1     17543 1.24185E+00
 -1     17545 1.24185E+00
 -1     17546 1.72937E+00
 -1     17548 1.72937E+00
 -1     17549 1.37192E+00
 -1     17551 1.37192E+00
 -1     17552 1.37554E+00
 -1     17554 1.37554E+00
 -1     17555 1.37073E+00
 -1     17557 1.37073E+00
 -1     17558 1.25029E+00
 -1     17560 1.25029E+00
 -1     17561 1.25029E+00
 -1     17563 1.25029E+00
 -1     17564 1.37554E+00
 -1     17566 1.37554E+00
 -1     17567 1.19820E+00
 -1     17569 1.19820E+00
 -1     17570 1.14465E+00
 -1     17572 1.14465E+00
 -1     17573 1.19476E+00
 -1     17575 1.19476E+00
 -1     17576 1.19476E+00
 -1     17578 1.19476E+00
 -1     17579 1.08431E+00
 -1     17581 1.08431E+00
 -1     17582 1.02705E+00
 -1     17584 1.02705E+00
 -1     17585 1.08579E+00
 -1     17587 1.08579E+00
 -1     17588 1.07242E+00
 -1     17590 1.07242E+00
 -1     17591 1.04099E+00
 -1     17593 1.04099E+00
 -1     17594 1.07083E+00
 -1     17596 1.07083E+00
 -1     17597 9.80814E-01
 -1     17599 9.80814E-01
 -1     17600 9.73245E-01
 -1     17602 9.73245E-01
 -1     17603 1.05603E+00
 -1     17605 1.05603E+00
 -1     17606 9.60570E-01
 -1     17608 9.60570E-01
 -1     17609 9.65156E-01
 -1     17611 9.65156E-01
 -1     17612 9.83180E-01
 -1     17614 9.83180E-01
 -1     17615 9.86431E-01
 -1     17617 9.86431E-01
 -1     17618 9.73577E-01
 -1     17620 9.73577E-01
 -1     17621 9.91780E-01
 -1     17623 9.91780E-01
 -1     17624 9.51915E-01
 -1     17626 9.51915E-01
 -1     17627 9.85764E-01
 -1     17629 9.85764E-01
 -1     17630 9.91393E-01
 -1     17632 9.91393E-01
 -1     17633 1.94719E+00
 -1     17635 1.94719E+00
 -1     17636 1.83275E+00
 -1     17638 1.83275E+00
 -1     17639 1.75097E+00
 -1     17641 1.75097E+00
 -1     17642 1.87848E+00
 -1     17644 1.87848E+00
 -1     17645 1.39978E+00
 -1     17647 1.39978E+00
 -1     17648 1.17302E+00
 -1     17650 1.17302E+00
 -1     17651 8.23754E-01
 -1     17653 8.23754E-01
 -1     17654 9.14300E-01
 -1     17656 9.14300E-01
 -1     17657 8.09602E-01
 -1     17659 8.09602E-01
 -1     17660 1.90054E+00
 -1     17662 1.90054E+00
 -1     17663 1.88717E+00
 -1     17665 1.88717E+00
 -1     17666 2.00868E+00
 -1     17668 2.00868E+00
 -1     17669 1.00080E+00
 -1     17671 1.00080E+00
 -1     17672 1.00080E+00
 -1     17674 1.00080E+00
 -1     17675 9.37752E-01
 -1     17677 9.37752E-01
 -1     17678 8.93706E-01
 -1     17680 8.93706E-01
 -1     17681 1.86918E+00
 -1     17683 1.86918E+00
 -1     17684 2.00868E+00
 -1     17686 2.00868E+00
 -1     17687 1.07092E+00
 -1     17689 1.07092E+00
 -1     17690 1.12250E+00
 -1     17692 1.12250E+00
 -1     17693 1.13431E+00
 -1     17695 1.13431E+00
 -1     17696 1.14262E+00
 -1     17698 1.14262E+00
 -1     17699 1.13431E+00
 -1     17701 1.13431E+00
 -1     17702 8.91912E-01
 -1     17704 8.91912E-01
 -1     17705 8.25156E-01
 -1     17707 8.25156E-01
 -1     17708 8.53425E-01
 -1     17710 8.53425E-01
 -1     17711 8.52657E-01
 -1     17713 8.52657E-01
 -1     17714 8.48331E-01
 -1     17716 8.48331E-01
 -1     17717 1.01915E+00
 -1     17719 1.01915E+00
 -1     17720 9.97040E-01
 -1     17722 9.97040E-01
 -1     17723 9.84767E-01
 -1     17725 9.84767E-01
 -1     17726 2.02250E+00
 -1     17728 2.02250E+00
 -1     17729 1.68731E+00
 -1     17731 1.68731E+00
 -1     17732 1.35658E+00
 -1     17734 1.35658E+00
 -1     17735 1.39917E+00
 -1     17737 1.39917E+00
 -1     17738 1.59471E+00
 -1     17740 1.59471E+00
 -1     17741 1.44575E+00
 -1     17743 1.44575E+00
 -1     17744 9.87671E-01
 -1     17746 9.87671E-01
 -1     17747 1.00988E+00
 -1     17749 1.00988E+00
 -1     17750 1.00978E+00
 -1     17752 1.00978E+00
 -1     17753 1.41432E+00
 -1     17755 1.41432E+00
 -1     17756 1.51102E+00
 -1     17758 1.51102E+00
 -1     17759 1.83627E+00
 -1     17761 1.83627E+00
 -1     17762 1.99364E+00
 -1     17764 1.99364E+00
 -1     17765 9.15476E-01
 -1     17767 9.15476E-01
 -1     17768 8.67808E-01
 -1     17770 8.67808E-01
 -1     17771 1.26204E+00
 -1     17773 1.26204E+00
 -1     17774 1.35874E+00
 -1     17776 1.35874E+00
 -1     17777 1.20669E+00
 -1     17779 1.20669E+00
 -1     17780 1.59753E+00
 -1     17782 1.59753E+00
 -1     17783 9.00440E-01
 -1     17785 9.00440E-01
 -1     17786 9.37099E-01
 -1     17788 9.37099E-01
 -1     17789 1.86455E+00
 -1     17791 1.86455E+00
 -1     17792 2.21200E+00
 -1     17794 2.21200E+00
 -1     17795 1.86455E+00
 -1     17797 1.86455E+00
 -1     17798 8.55316E-01
 -1     17800 8.55316E-01
 -1     17801 9.02674E-01
 -1     17803 9.02674E-01
 -1     17804 1.06145E+00
 -1     17806 1.06145E+00
 -1     17807 1.79461E+00
 -1     17809 1.79461E+00
 -1     17810 2.21808E+00
 -1     17812 2.21808E+00
 -1     17813 9.34616E-01
 -1     17815 9.34616E-01
 -1     17816 9.32823E-01
 -1     17818 9.32823E-01
 -1     17819 8.87258E-01
 -1     17821 8.87258E-01
 -1     17822 9.67248E-01
 -1     17824 9.67248E-01
 -1     17825 1.01915E+00
 -1     17827 1.01915E+00
 -1     17828 1.01915E+00
 -1     17830 1.01915E+00
 -1     17831 2.21200E+00
 -1     17833 2.21200E+00
 -1     17834 2.02859E+00
 -1     17836 2.02859E+00
 -1     17837 2.21808E+00
 -1     17839 2.21808E+00
 -1     17840 1.72937E+00
 -1     17842 1.72937E+00
 -1     17843 1.85944E+00
 -1     17845 1.85944E+00
 -1     17846 1.50591E+00
 -1     17848 1.50591E+00
 -1     17849 1.38065E+00
 -1     17851 1.38065E+00
 -1     17852 1.14612E+00
 -1     17854 1.14612E+00
 -1     17855 1.08579E+00
 -1     17857 1.08579E+00
 -1     17858 1.13116E+00
 -1     17860 1.13116E+00
 -1     17861 1.11935E+00
 -1     17863 1.11935E+00
 -1     17864 1.05918E+00
 -1     17866 1.05918E+00
 -1     17867 9.98132E-01
 -1     17869 9.98132E-01
 -1     17870 9.85457E-01
 -1     17872 9.85457E-01
 -1     17873 9.94826E-01
 -1     17875 9.94826E-01
 -1     17876 1.01610E+00
 -1     17878 1.01610E+00
 -1     17879 1.01610E+00
 -1     17881 1.01610E+00
 -1     17882 9.94439E-01
 -1     17884 9.94439E-01
 -1     17885 2.00868E+00
 -1     17887 2.00868E+00
 -1     17888 2.18314E+00
 -1     17890 2.18314E+00
 -1     17891 1.14262E+00
 -1     17893 1.14262E+00
 -1     17894 1.17652E+00
 -1     17896 1.17652E+00
 -1     17897 1.17629E+00
 -1     17899 1.17629E+00
 -1     17900 1.14612E+00
 -1     17902 1.14612E+00
 -1     17903 2.21808E+00
 -1     17905 2.21808E+00
 -1     17906 2.13950E+00
 -1     17908 2.13950E+00
 -1     17909 9.69731E-01
 -1     17911 9.69731E-01
 -1     17912 9.84767E-01
 -1     17914 9.84767E-01
 -1     17915 1.22838E+00
 -1     17917 1.22838E+00
 -1     17918 2.14819E+00
 -1     17920 2.14819E+00
 -1     17921 9.94439E-01
 -1     17923 9.94439E-01
 -1     17924 2.18314E+00
 -1     17926 2.18314E+00
 -1     17927 1.17285E+00
 -1     17929 1.17285E+00
 -1     17930 2.17444E+00
 -1     17932 2.17444E+00
 -3
 9999
