"ERROR","S:0","S:1","S:2","S:3","S:4","S:5","S_Mises","S_Principal:0","S_Principal:1","S_Principal:2","U:0","U:1","U:2","vtkValidPointMask","arc_length","Points:0","Points:1","Points:2"
0.88466,1.0185,123.42,0.81751,-0.0086683,6.0516e-11,4.7807e-12,122.5,0.81748,1.0185,123.42,0.021582,-0.027672,-6.5966e-13,1,0,50.8,0,0
0.88476,1.1598,122.8,0.7672,-0.0089086,4.0715e-11,4.52e-12,121.84,0.76717,1.1599,122.8,0.021564,-0.027611,-6.5996e-13,1,0.1016,50.902,0,0
0.88486,1.3031,122.19,0.71893,-0.0091443,2.1713e-11,4.2593e-12,121.18,0.71892,1.3031,122.19,0.021547,-0.02755,-6.6027e-13,1,0.2032,51.003,0,0
0.88495,1.4483,121.59,0.67272,-0.0093755,3.5111e-12,3.9986e-12,120.53,0.67271,1.4483,121.59,0.02153,-0.027489,-6.6057e-13,1,0.3048,51.105,0,0
0.88505,1.5955,120.99,0.62855,-0.0096022,-1.3891e-11,3.7379e-12,119.88,0.62855,1.5955,120.99,0.021513,-0.027428,-6.6087e-13,1,0.4064,51.206,0,0
0.88515,1.7445,120.4,0.58644,-0.0098244,-3.0493e-11,3.4773e-12,119.23,0.58644,1.7445,120.4,0.021496,-0.027367,-6.6118e-13,1,0.508,51.308,0,0
0.88525,1.8955,119.81,0.54637,-0.010042,-4.6295e-11,3.2166e-12,118.59,0.54638,1.8955,119.81,0.02148,-0.027307,-6.6148e-13,1,0.6096,51.41,0,0
0.88535,2.0484,119.22,0.50835,-0.010255,-6.1298e-11,2.9559e-12,117.95,0.50836,2.0484,119.22,0.021463,-0.027246,-6.6179e-13,1,0.7112,51.511,0,0
0.88544,2.2033,118.64,0.47238,-0.010464,-7.5501e-11,2.6952e-12,117.31,0.4724,2.2033,118.64,0.021447,-0.027185,-6.6209e-13,1,0.8128,51.613,0,0
0.88554,2.36,118.07,0.43846,-0.010668,-8.8904e-11,2.4345e-12,116.68,0.43849,2.36,118.07,0.021431,-0.027124,-6.6239e-13,1,0.9144,51.714,0,0
0.88564,2.5187,117.5,0.40659,-0.010867,-1.0151e-10,2.1739e-12,116.05,0.40662,2.5187,117.5,0.021415,-0.027063,-6.627e-13,1,1.016,51.816,0,0
0.88574,2.6793,116.93,0.37677,-0.011062,-1.1331e-10,1.9132e-12,115.42,0.3768,2.6793,116.93,0.021399,-0.027002,-6.63e-13,1,1.1176,51.918,0,0
0.88584,2.8418,116.37,0.349,-0.011252,-1.2431e-10,1.6525e-12,114.79,0.34903,2.8418,116.37,0.021383,-0.026941,-6.6331e-13,1,1.2192,52.019,0,0
0.88593,3.0063,115.82,0.32328,-0.011438,-1.3452e-10,1.3918e-12,114.17,0.32331,3.0063,115.82,0.021368,-0.02688,-6.6361e-13,1,1.3208,52.121,0,0
0.88603,3.1727,115.26,0.2996,-0.011619,-1.4392e-10,1.1311e-12,113.55,0.29964,3.1726,115.26,0.021352,-0.026819,-6.6391e-13,1,1.4224,52.222,0,0
0.88613,3.341,114.72,0.27798,-0.011796,-1.5253e-10,8.7045e-13,112.94,0.27802,3.3409,114.72,0.021337,-0.026758,-6.6422e-13,1,1.524,52.324,0,0
0.88623,3.5112,114.18,0.2584,-0.011968,-1.6033e-10,6.0978e-13,112.32,0.25845,3.5111,114.18,0.021322,-0.026697,-6.6452e-13,1,1.6256,52.426,0,0
0.88632,3.6833,113.64,0.24088,-0.012136,-1.6734e-10,3.491e-13,111.71,0.24092,3.6833,113.64,0.021307,-0.026636,-6.6483e-13,1,1.7272,52.527,0,0
0.88642,3.8574,113.11,0.2254,-0.012299,-1.7354e-10,8.8414e-14,111.11,0.22545,3.8574,113.11,0.021293,-0.026576,-6.6513e-13,1,1.8288,52.629,0,0
0.88652,4.0334,112.58,0.21197,-0.012458,-1.7895e-10,-1.7227e-13,110.5,0.21202,4.0334,112.58,0.021278,-0.026515,-6.6543e-13,1,1.9304,52.73,0,0
0.88662,4.2113,112.06,0.20059,-0.012611,-1.8355e-10,-4.3295e-13,109.9,0.20064,4.2113,112.06,0.021264,-0.026454,-6.6574e-13,1,2.032,52.832,0,0
0.88672,4.3912,111.54,0.19126,-0.012761,-1.8736e-10,-6.9363e-13,109.31,0.19132,4.3911,111.54,0.02125,-0.026393,-6.6604e-13,1,2.1336,52.934,0,0
0.88681,4.573,111.02,0.18398,-0.012906,-1.9036e-10,-9.5431e-13,108.71,0.18404,4.5729,111.02,0.021236,-0.026332,-6.6634e-13,1,2.2352,53.035,0,0
0.88691,4.7566,110.52,0.17874,-0.013046,-1.9257e-10,-1.215e-12,108.12,0.17881,4.7566,110.52,0.021222,-0.026271,-6.6665e-13,1,2.3368,53.137,0,0
0.88701,4.9423,110.01,0.17556,-0.013182,-1.9398e-10,-1.4757e-12,107.53,0.17562,4.9422,110.01,0.021208,-0.02621,-6.6695e-13,1,2.4384,53.238,0,0
0.88711,5.1298,109.51,0.17443,-0.013313,-1.9458e-10,-1.7364e-12,106.95,0.17449,5.1297,109.51,0.021195,-0.026149,-6.6726e-13,1,2.54,53.34,0,0
0.88721,5.3193,109.02,0.17534,-0.01344,-1.9439e-10,-1.997e-12,106.36,0.1754,5.3192,109.02,0.021181,-0.026088,-6.6756e-13,1,2.6416,53.442,0,0
0.8873,5.5107,108.53,0.17831,-0.013562,-1.934e-10,-2.2577e-12,105.79,0.17837,5.5106,108.53,0.021168,-0.026027,-6.6786e-13,1,2.7432,53.543,0,0
0.8874,5.704,108.04,0.18332,-0.013679,-1.916e-10,-2.5184e-12,105.21,0.18338,5.7039,108.04,0.021155,-0.025966,-6.6817e-13,1,2.8448,53.645,0,0
0.8875,5.8992,107.56,0.19038,-0.013792,-1.8901e-10,-2.7791e-12,104.64,0.19044,5.8991,107.56,0.021142,-0.025906,-6.6847e-13,1,2.9464,53.746,0,0
0.8876,6.0964,107.09,0.19949,-0.013901,-1.8562e-10,-3.0397e-12,104.07,0.19956,6.0963,107.09,0.02113,-0.025845,-6.6878e-13,1,3.048,53.848,0,0
0.8877,6.2955,106.62,0.21065,-0.014005,-1.8142e-10,-3.3004e-12,103.5,0.21071,6.2954,106.62,0.021117,-0.025784,-6.6908e-13,1,3.1496,53.95,0,0
0.88779,6.4965,106.15,0.22386,-0.014104,-1.7643e-10,-3.5611e-12,102.94,0.22392,6.4964,106.15,0.021105,-0.025723,-6.6938e-13,1,3.2512,54.051,0,0
0.88789,6.6994,105.69,0.23912,-0.014199,-1.7064e-10,-3.8218e-12,102.38,0.23918,6.6993,105.69,0.021093,-0.025662,-6.6969e-13,1,3.3528,54.153,0,0
0.88799,6.9043,105.24,0.25643,-0.014289,-1.6405e-10,-4.0825e-12,101.82,0.25649,6.9042,105.24,0.02108,-0.025601,-6.6999e-13,1,3.4544,54.254,0,0
0.88809,7.111,104.78,0.27579,-0.014375,-1.5666e-10,-4.3431e-12,101.27,0.27584,7.111,104.78,0.021069,-0.02554,-6.703e-13,1,3.556,54.356,0,0
0.88819,7.3197,104.34,0.29719,-0.014456,-1.4847e-10,-4.6038e-12,100.72,0.29725,7.3197,104.34,0.021057,-0.025479,-6.706e-13,1,3.6576,54.458,0,0
0.88828,7.5304,103.89,0.32065,-0.014532,-1.3948e-10,-4.8645e-12,100.17,0.3207,7.5303,103.89,0.021045,-0.025418,-6.709e-13,1,3.7592,54.559,0,0
0.88838,7.7429,103.46,0.34615,-0.014604,-1.2969e-10,-5.1252e-12,99.623,0.3462,7.7429,103.46,0.021034,-0.025357,-6.7121e-13,1,3.8608,54.661,0,0
0.88848,7.9574,103.02,0.3737,-0.014671,-1.1909e-10,-5.3859e-12,99.082,0.37375,7.9574,103.02,0.021023,-0.025296,-6.7151e-13,1,3.9624,54.762,0,0
0.88858,8.1738,102.6,0.40331,-0.014734,-1.077e-10,-5.6465e-12,98.543,0.40335,8.1738,102.6,0.021012,-0.025235,-6.7182e-13,1,4.064,54.864,0,0
0.88868,8.3921,102.17,0.43496,-0.014792,-9.5515e-11,-5.9072e-12,98.007,0.435,8.3921,102.17,0.021001,-0.025175,-6.7212e-13,1,4.1656,54.966,0,0
0.88877,8.6124,101.76,0.46866,-0.014846,-8.2525e-11,-6.1679e-12,97.475,0.46869,8.6123,101.76,0.02099,-0.025114,-6.7242e-13,1,4.2672,55.067,0,0
0.88887,8.8346,101.34,0.50441,-0.014895,-6.8735e-11,-6.4286e-12,96.946,0.50444,8.8345,101.34,0.02098,-0.025053,-6.7273e-13,1,4.3688,55.169,0,0
0.88897,9.0587,100.93,0.54221,-0.01494,-5.4145e-11,-6.6893e-12,96.419,0.54223,9.0586,100.93,0.020969,-0.024992,-6.7303e-13,1,4.4704,55.27,0,0
0.88907,9.2847,100.53,0.58205,-0.01498,-3.8756e-11,-6.95e-12,95.896,0.58208,9.2846,100.53,0.020959,-0.024931,-6.7334e-13,1,4.572,55.372,0,0
0.88917,9.5126,100.13,0.62395,-0.015015,-2.2567e-11,-7.2106e-12,95.376,0.62397,9.5126,100.13,0.020949,-0.02487,-6.7364e-13,1,4.6736,55.474,0,0
0.88926,9.7425,99.736,0.66789,-0.015046,-5.5783e-12,-7.4713e-12,94.859,0.66791,9.7425,99.736,0.020939,-0.024809,-6.7394e-13,1,4.7752,55.575,0,0
0.88936,9.9743,99.346,0.71389,-0.015072,1.221e-11,-7.732e-12,94.345,0.7139,9.9743,99.346,0.020929,-0.024748,-6.7425e-13,1,4.8768,55.677,0,0
0.88946,10.208,98.961,0.76193,-0.015094,3.0799e-11,-7.9927e-12,93.834,0.76194,10.208,98.961,0.02092,-0.024687,-6.7455e-13,1,4.9784,55.778,0,0
0.88956,10.445,98.578,0.81204,-0.015246,5.0172e-11,-8.2548e-12,93.323,0.81204,10.445,98.578,0.02091,-0.024626,-6.7486e-13,1,5.08,55.88,0,0
0.88956,10.516,98.087,0.77836,-0.014736,3.025e-11,-8.4234e-12,92.823,0.77836,10.516,98.088,0.020901,-0.024565,-6.7515e-13,1,5.1816,55.982,0,0
0.88956,10.589,97.6,0.74583,-0.014231,1.1128e-11,-8.5919e-12,92.326,0.74584,10.589,97.6,0.020891,-0.024504,-6.7545e-13,1,5.2832,56.083,0,0
0.88956,10.663,97.116,0.71447,-0.013732,-7.1954e-12,-8.7605e-12,91.83,0.71447,10.663,97.116,0.020882,-0.024443,-6.7574e-13,1,5.3848,56.185,0,0
0.88956,10.738,96.635,0.68425,-0.013237,-2.4719e-11,-8.929e-12,91.337,0.68426,10.738,96.635,0.020873,-0.024382,-6.7604e-13,1,5.4864,56.286,0,0
0.88956,10.815,96.157,0.6552,-0.012748,-4.1442e-11,-9.0976e-12,90.846,0.65521,10.815,96.157,0.020864,-0.024321,-6.7633e-13,1,5.588,56.388,0,0
0.88956,10.893,95.682,0.6273,-0.012264,-5.7366e-11,-9.2661e-12,90.358,0.62731,10.893,95.682,0.020856,-0.02426,-6.7663e-13,1,5.6896,56.49,0,0
0.88956,10.972,95.211,0.60056,-0.011785,-7.249e-11,-9.4347e-12,89.872,0.60057,10.972,95.211,0.020847,-0.0242,-6.7692e-13,1,5.7912,56.591,0,0
0.88956,11.052,94.743,0.57498,-0.011312,-8.6814e-11,-9.6032e-12,89.388,0.57499,11.052,94.743,0.020838,-0.024139,-6.7722e-13,1,5.8928,56.693,0,0
0.88956,11.133,94.278,0.55055,-0.010843,-1.0034e-10,-9.7718e-12,88.906,0.55056,11.133,94.278,0.02083,-0.024078,-6.7751e-13,1,5.9944,56.794,0,0
0.88956,11.216,93.816,0.52728,-0.01038,-1.1306e-10,-9.9404e-12,88.427,0.52729,11.216,93.816,0.020822,-0.024017,-6.7781e-13,1,6.096,56.896,0,0
0.88956,11.3,93.357,0.50517,-0.0099218,-1.2499e-10,-1.0109e-11,87.949,0.50518,11.3,93.357,0.020813,-0.023956,-6.781e-13,1,6.1976,56.998,0,0
0.88956,11.385,92.902,0.48421,-0.0094689,-1.3611e-10,-1.0277e-11,87.475,0.48422,11.385,92.902,0.020805,-0.023895,-6.784e-13,1,6.2992,57.099,0,0
0.88956,11.471,92.449,0.46441,-0.0090211,-1.4644e-10,-1.0446e-11,87.002,0.46442,11.471,92.449,0.020797,-0.023834,-6.7869e-13,1,6.4008,57.201,0,0
0.88956,11.559,92,0.44576,-0.0085786,-1.5596e-10,-1.0615e-11,86.532,0.44578,11.559,92,0.020789,-0.023773,-6.7899e-13,1,6.5024,57.302,0,0
0.88956,11.648,91.554,0.42828,-0.0081412,-1.6469e-10,-1.0783e-11,86.064,0.42829,11.648,91.554,0.020782,-0.023712,-6.7928e-13,1,6.604,57.404,0,0
0.88956,11.738,91.112,0.41194,-0.007709,-1.7262e-10,-1.0952e-11,85.598,0.41196,11.738,91.112,0.020774,-0.023651,-6.7958e-13,1,6.7056,57.506,0,0
0.88956,11.829,90.672,0.39677,-0.007282,-1.7974e-10,-1.112e-11,85.135,0.39679,11.829,90.672,0.020766,-0.02359,-6.7988e-13,1,6.8072,57.607,0,0
0.88956,11.921,90.236,0.38275,-0.0068601,-1.8607e-10,-1.1289e-11,84.673,0.38277,11.921,90.236,0.020759,-0.023529,-6.8017e-13,1,6.9088,57.709,0,0
0.88956,12.015,89.803,0.36989,-0.0064435,-1.916e-10,-1.1457e-11,84.215,0.36991,12.015,89.803,0.020752,-0.023469,-6.8047e-13,1,7.0104,57.81,0,0
0.88956,12.11,89.373,0.35819,-0.006032,-1.9632e-10,-1.1626e-11,83.758,0.3582,12.11,89.373,0.020744,-0.023408,-6.8076e-13,1,7.112,57.912,0,0
0.88956,12.206,88.947,0.34764,-0.0056256,-2.0025e-10,-1.1794e-11,83.304,0.34766,12.206,88.947,0.020737,-0.023347,-6.8106e-13,1,7.2136,58.014,0,0
0.88956,12.303,88.523,0.33825,-0.0052245,-2.0338e-10,-1.1963e-11,82.852,0.33827,12.303,88.523,0.02073,-0.023286,-6.8135e-13,1,7.3152,58.115,0,0
0.88956,12.402,88.103,0.33001,-0.0048285,-2.0571e-10,-1.2132e-11,82.402,0.33003,12.402,88.103,0.020723,-0.023225,-6.8165e-13,1,7.4168,58.217,0,0
0.88956,12.502,87.686,0.32294,-0.0044377,-2.0724e-10,-1.23e-11,81.954,0.32296,12.502,87.686,0.020717,-0.023164,-6.8194e-13,1,7.5184,58.318,0,0
0.88956,12.603,87.272,0.31702,-0.0040521,-2.0796e-10,-1.2469e-11,81.509,0.31703,12.603,87.272,0.02071,-0.023103,-6.8224e-13,1,7.62,58.42,0,0
0.88956,12.705,86.861,0.31225,-0.0036716,-2.0789e-10,-1.2637e-11,81.066,0.31227,12.705,86.861,0.020703,-0.023042,-6.8253e-13,1,7.7216,58.522,0,0
0.88956,12.809,86.454,0.30864,-0.0032964,-2.0702e-10,-1.2806e-11,80.626,0.30866,12.809,86.454,0.020697,-0.022981,-6.8283e-13,1,7.8232,58.623,0,0
0.88956,12.914,86.049,0.30619,-0.0029262,-2.0535e-10,-1.2974e-11,80.187,0.30621,12.914,86.049,0.020691,-0.02292,-6.8312e-13,1,7.9248,58.725,0,0
0.88956,13.02,85.648,0.3049,-0.0025613,-2.0288e-10,-1.3143e-11,79.751,0.30492,13.02,85.648,0.020684,-0.022859,-6.8342e-13,1,8.0264,58.826,0,0
0.88956,13.127,85.251,0.30476,-0.0022015,-1.9961e-10,-1.3311e-11,79.318,0.30478,13.127,85.251,0.020678,-0.022798,-6.8371e-13,1,8.128,58.928,0,0
0.88956,13.235,84.856,0.30578,-0.0018469,-1.9554e-10,-1.348e-11,78.886,0.3058,13.235,84.856,0.020672,-0.022737,-6.8401e-13,1,8.2296,59.03,0,0
0.88956,13.345,84.464,0.30796,-0.0014975,-1.9067e-10,-1.3649e-11,78.457,0.30797,13.345,84.464,0.020666,-0.022677,-6.843e-13,1,8.3312,59.131,0,0
0.88956,13.456,84.076,0.31129,-0.0011532,-1.85e-10,-1.3817e-11,78.03,0.31131,13.456,84.076,0.020661,-0.022616,-6.846e-13,1,8.4328,59.233,0,0
0.88956,13.568,83.691,0.31578,-0.00081416,-1.7853e-10,-1.3986e-11,77.605,0.31579,13.568,83.691,0.020655,-0.022555,-6.8489e-13,1,8.5344,59.334,0,0
0.88956,13.681,83.309,0.32143,-0.00048023,-1.7126e-10,-1.4154e-11,77.183,0.32144,13.681,83.309,0.020649,-0.022494,-6.8519e-13,1,8.636,59.436,0,0
0.88956,13.796,82.93,0.32823,-0.00015148,-1.6319e-10,-1.4323e-11,76.763,0.32824,13.796,82.93,0.020644,-0.022433,-6.8548e-13,1,8.7376,59.538,0,0
0.88956,13.912,82.555,0.33619,0.0001721,-1.5433e-10,-1.4491e-11,76.345,0.3362,13.912,82.555,0.020639,-0.022372,-6.8578e-13,1,8.8392,59.639,0,0
0.88956,14.029,82.183,0.3453,0.00049052,-1.4466e-10,-1.466e-11,75.93,0.34532,14.029,82.183,0.020633,-0.022311,-6.8607e-13,1,8.9408,59.741,0,0
0.88956,14.147,81.814,0.35557,0.00080377,-1.3419e-10,-1.4828e-11,75.517,0.35559,14.147,81.814,0.020628,-0.02225,-6.8637e-13,1,9.0424,59.842,0,0
0.88956,14.266,81.448,0.367,0.0011119,-1.2292e-10,-1.4997e-11,75.106,0.36702,14.266,81.448,0.020623,-0.022189,-6.8666e-13,1,9.144,59.944,0,0
0.88956,14.387,81.085,0.37959,0.0014148,-1.1085e-10,-1.5166e-11,74.697,0.3796,14.387,81.085,0.020618,-0.022128,-6.8696e-13,1,9.2456,60.046,0,0
0.88956,14.509,80.726,0.39333,0.0017125,-9.7987e-11,-1.5334e-11,74.291,0.39334,14.509,80.726,0.020614,-0.022067,-6.8725e-13,1,9.3472,60.147,0,0
0.88956,14.632,80.369,0.40823,0.0020051,-8.4321e-11,-1.5503e-11,73.887,0.40824,14.632,80.369,0.020609,-0.022006,-6.8755e-13,1,9.4488,60.249,0,0
0.88956,14.757,80.016,0.42429,0.0022925,-6.9854e-11,-1.5671e-11,73.485,0.42429,14.757,80.016,0.020604,-0.021945,-6.8784e-13,1,9.5504,60.35,0,0
0.88956,14.882,79.666,0.4415,0.0025748,-5.4587e-11,-1.584e-11,73.085,0.44151,14.882,79.666,0.0206,-0.021884,-6.8814e-13,1,9.652,60.452,0,0
0.88956,15.009,79.32,0.45987,0.0028519,-3.8521e-11,-1.6008e-11,72.688,0.45987,15.009,79.32,0.020596,-0.021823,-6.8844e-13,1,9.7536,60.554,0,0
0.88956,15.137,78.976,0.4794,0.0031238,-2.1655e-11,-1.6177e-11,72.293,0.4794,15.137,78.976,0.020591,-0.021763,-6.8873e-13,1,9.8552,60.655,0,0
0.88956,15.266,78.636,0.50008,0.0033906,-3.9891e-12,-1.6345e-11,71.9,0.50008,15.266,78.636,0.020587,-0.021702,-6.8903e-13,1,9.9568,60.757,0,0
0.88956,15.397,78.299,0.52192,0.0036522,1.4476e-11,-1.6514e-11,71.51,0.52192,15.397,78.299,0.020583,-0.021641,-6.8932e-13,1,10.058,60.858,0,0
0.88956,15.529,77.963,0.5449,0.003833,3.38e-11,-1.6683e-11,71.12,0.5449,15.529,77.963,0.020579,-0.021579,-6.8962e-13,1,10.16,60.96,0,0
0.88941,15.561,77.588,0.52474,0.0042735,3.3523e-11,-1.6693e-11,70.753,0.52474,15.561,77.588,0.020575,-0.021518,-6.899e-13,1,10.262,61.062,0,0
0.88927,15.594,77.215,0.50529,0.0047091,3.3245e-11,-1.6703e-11,70.388,0.50529,15.594,77.215,0.020572,-0.021457,-6.9019e-13,1,10.363,61.163,0,0
0.88912,15.627,76.844,0.48654,0.0051398,3.2967e-11,-1.6713e-11,70.024,0.48655,15.627,76.844,0.020568,-0.021397,-6.9047e-13,1,10.465,61.265,0,0
0.88897,15.661,76.476,0.4685,0.0055657,3.269e-11,-1.6723e-11,69.663,0.4685,15.661,76.476,0.020564,-0.021336,-6.9075e-13,1,10.566,61.366,0,0
0.88883,15.697,76.109,0.45115,0.0059866,3.2412e-11,-1.6733e-11,69.302,0.45115,15.697,76.109,0.020561,-0.021275,-6.9104e-13,1,10.668,61.468,0,0
0.88868,15.733,75.745,0.43451,0.0064027,3.2135e-11,-1.6742e-11,68.943,0.43451,15.733,75.745,0.020557,-0.021214,-6.9132e-13,1,10.77,61.57,0,0
0.88853,15.77,75.382,0.41856,0.006814,3.1857e-11,-1.6752e-11,68.586,0.41856,15.77,75.382,0.020554,-0.021153,-6.9161e-13,1,10.871,61.671,0,0
0.88839,15.807,75.022,0.40332,0.0072203,3.1579e-11,-1.6762e-11,68.231,0.40332,15.807,75.022,0.02055,-0.021092,-6.9189e-13,1,10.973,61.773,0,0
0.88824,15.846,74.664,0.38878,0.0076218,3.1302e-11,-1.6772e-11,67.877,0.38878,15.846,74.664,0.020547,-0.021031,-6.9217e-13,1,11.074,61.874,0,0
0.88809,15.885,74.308,0.37494,0.0080184,3.1024e-11,-1.6782e-11,67.524,0.37494,15.885,74.308,0.020544,-0.02097,-6.9246e-13,1,11.176,61.976,0,0
0.88795,15.926,73.954,0.3618,0.0084101,3.0747e-11,-1.6792e-11,67.173,0.3618,15.926,73.954,0.020541,-0.020909,-6.9274e-13,1,11.278,62.078,0,0
0.8878,15.967,73.602,0.34937,0.008797,3.0469e-11,-1.6802e-11,66.824,0.34937,15.967,73.602,0.020538,-0.020848,-6.9303e-13,1,11.379,62.179,0,0
0.88765,16.009,73.252,0.33763,0.009179,3.0191e-11,-1.6811e-11,66.476,0.33763,16.009,73.252,0.020535,-0.020787,-6.9331e-13,1,11.481,62.281,0,0
0.88751,16.052,72.905,0.3266,0.0095561,2.9914e-11,-1.6821e-11,66.13,0.3266,16.052,72.905,0.020532,-0.020726,-6.936e-13,1,11.582,62.382,0,0
0.88736,16.095,72.559,0.31626,0.0099284,2.9636e-11,-1.6831e-11,65.786,0.31627,16.095,72.559,0.020529,-0.020665,-6.9388e-13,1,11.684,62.484,0,0
0.88722,16.14,72.216,0.30663,0.010296,2.9359e-11,-1.6841e-11,65.443,0.30664,16.14,72.216,0.020526,-0.020604,-6.9416e-13,1,11.786,62.586,0,0
0.88707,16.185,71.874,0.2977,0.010658,2.9081e-11,-1.6851e-11,65.101,0.29771,16.185,71.874,0.020523,-0.020543,-6.9445e-13,1,11.887,62.687,0,0
0.88692,16.232,71.535,0.28947,0.011016,2.8803e-11,-1.6861e-11,64.761,0.28948,16.232,71.535,0.020521,-0.020482,-6.9473e-13,1,11.989,62.789,0,0
0.88678,16.279,71.198,0.28195,0.011369,2.8526e-11,-1.6871e-11,64.423,0.28195,16.279,71.198,0.020518,-0.020421,-6.9502e-13,1,12.09,62.89,0,0
0.88663,16.327,70.863,0.27512,0.011717,2.8248e-11,-1.6881e-11,64.086,0.27512,16.327,70.863,0.020516,-0.02036,-6.953e-13,1,12.192,62.992,0,0
0.88648,16.376,70.53,0.269,0.01206,2.7971e-11,-1.689e-11,63.751,0.269,16.376,70.53,0.020513,-0.020299,-6.9559e-13,1,12.294,63.094,0,0
0.88634,16.425,70.199,0.26357,0.012398,2.7693e-11,-1.69e-11,63.418,0.26358,16.425,70.199,0.020511,-0.020239,-6.9587e-13,1,12.395,63.195,0,0
0.88619,16.476,69.871,0.25885,0.012731,2.7416e-11,-1.691e-11,63.086,0.25886,16.476,69.871,0.020509,-0.020178,-6.9615e-13,1,12.497,63.297,0,0
0.88604,16.527,69.544,0.25483,0.01306,2.7138e-11,-1.692e-11,62.755,0.25483,16.527,69.544,0.020507,-0.020117,-6.9644e-13,1,12.598,63.398,0,0
0.8859,16.579,69.22,0.25151,0.013383,2.686e-11,-1.693e-11,62.427,0.25152,16.579,69.22,0.020504,-0.020056,-6.9672e-13,1,12.7,63.5,0,0
0.88575,16.633,68.897,0.24889,0.013702,2.6583e-11,-1.694e-11,62.099,0.2489,16.633,68.897,0.020502,-0.019995,-6.9701e-13,1,12.802,63.602,0,0
0.8856,16.686,68.577,0.24698,0.014016,2.6305e-11,-1.695e-11,61.774,0.24698,16.686,68.577,0.020501,-0.019934,-6.9729e-13,1,12.903,63.703,0,0
0.88546,16.741,68.259,0.24576,0.014325,2.6028e-11,-1.696e-11,61.45,0.24577,16.741,68.259,0.020499,-0.019873,-6.9757e-13,1,13.005,63.805,0,0
0.88531,16.797,67.943,0.24525,0.014629,2.575e-11,-1.6969e-11,61.127,0.24525,16.797,67.943,0.020497,-0.019812,-6.9786e-13,1,13.106,63.906,0,0
0.88517,16.853,67.629,0.24544,0.014928,2.5472e-11,-1.6979e-11,60.806,0.24544,16.853,67.629,0.020495,-0.019751,-6.9814e-13,1,13.208,64.008,0,0
0.88502,16.911,67.317,0.24633,0.015222,2.5195e-11,-1.6989e-11,60.487,0.24633,16.911,67.317,0.020493,-0.01969,-6.9843e-13,1,13.31,64.11,0,0
0.88487,16.969,67.007,0.24792,0.015512,2.4917e-11,-1.6999e-11,60.169,0.24792,16.969,67.007,0.020492,-0.019629,-6.9871e-13,1,13.411,64.211,0,0
0.88473,17.028,66.699,0.25021,0.015796,2.464e-11,-1.7009e-11,59.853,0.25021,17.028,66.699,0.02049,-0.019568,-6.99e-13,1,13.513,64.313,0,0
0.88458,17.088,66.394,0.2532,0.016076,2.4362e-11,-1.7019e-11,59.538,0.25321,17.088,66.394,0.020489,-0.019507,-6.9928e-13,1,13.614,64.414,0,0
0.88443,17.149,66.09,0.2569,0.016351,2.4084e-11,-1.7029e-11,59.225,0.2569,17.149,66.09,0.020488,-0.019446,-6.9956e-13,1,13.716,64.516,0,0
0.88429,17.21,65.789,0.26129,0.016621,2.3807e-11,-1.7039e-11,58.914,0.2613,17.21,65.789,0.020486,-0.019385,-6.9985e-13,1,13.818,64.618,0,0
0.88414,17.273,65.489,0.26639,0.016886,2.3529e-11,-1.7048e-11,58.604,0.26639,17.273,65.489,0.020485,-0.019324,-7.0013e-13,1,13.919,64.719,0,0
0.88399,17.336,65.192,0.27219,0.017147,2.3252e-11,-1.7058e-11,58.295,0.27219,17.336,65.192,0.020484,-0.019263,-7.0042e-13,1,14.021,64.821,0,0
0.88385,17.4,64.897,0.27869,0.017402,2.2974e-11,-1.7068e-11,57.989,0.27869,17.4,64.897,0.020483,-0.019202,-7.007e-13,1,14.122,64.922,0,0
0.8837,17.465,64.604,0.28589,0.017653,2.2696e-11,-1.7078e-11,57.683,0.28589,17.465,64.604,0.020482,-0.019141,-7.0099e-13,1,14.224,65.024,0,0
0.88355,17.531,64.313,0.29379,0.017898,2.2419e-11,-1.7088e-11,57.38,0.2938,17.531,64.313,0.020481,-0.01908,-7.0127e-13,1,14.326,65.126,0,0
0.88341,17.598,64.024,0.3024,0.018139,2.2141e-11,-1.7098e-11,57.078,0.3024,17.598,64.024,0.02048,-0.019019,-7.0155e-13,1,14.427,65.227,0,0
0.88326,17.665,63.738,0.3117,0.018375,2.1864e-11,-1.7108e-11,56.777,0.3117,17.665,63.738,0.020479,-0.018958,-7.0184e-13,1,14.529,65.329,0,0
0.88312,17.734,63.453,0.32171,0.018606,2.1586e-11,-1.7118e-11,56.478,0.32171,17.734,63.453,0.020479,-0.018897,-7.0212e-13,1,14.63,65.43,0,0
0.88297,17.803,63.171,0.33242,0.018833,2.1308e-11,-1.7127e-11,56.181,0.33242,17.803,63.171,0.020478,-0.018836,-7.0241e-13,1,14.732,65.532,0,0
0.88282,17.873,62.89,0.34383,0.019054,2.1031e-11,-1.7137e-11,55.885,0.34383,17.873,62.89,0.020478,-0.018775,-7.0269e-13,1,14.834,65.634,0,0
0.88268,17.944,62.612,0.35594,0.019271,2.0753e-11,-1.7147e-11,55.591,0.35594,17.944,62.612,0.020477,-0.018714,-7.0297e-13,1,14.935,65.735,0,0
0.88253,18.016,62.336,0.36875,0.019482,2.0476e-11,-1.7157e-11,55.299,0.36875,18.016,62.336,0.020477,-0.018654,-7.0326e-13,1,15.037,65.837,0,0
0.88238,18.089,62.062,0.38226,0.019689,2.0198e-11,-1.7167e-11,55.008,0.38226,18.089,62.062,0.020476,-0.018593,-7.0354e-13,1,15.138,65.938,0,0
0.88224,18.162,61.788,0.39646,0.019852,1.9931e-11,-1.7177e-11,54.716,0.39646,18.162,61.788,0.020476,-0.018531,-7.0383e-13,1,15.24,66.04,0,0
0.88295,18.17,61.49,0.38253,0.020053,2.3763e-11,-1.72e-11,54.438,0.38253,18.17,61.49,0.020476,-0.01847,-7.041e-13,1,15.342,66.142,0,0
0.88366,18.178,61.193,0.36906,0.020251,2.7435e-11,-1.7223e-11,54.161,0.36906,18.178,61.193,0.020476,-0.018409,-7.0438e-13,1,15.443,66.243,0,0
0.88437,18.187,60.898,0.35608,0.020446,3.0948e-11,-1.7247e-11,53.885,0.35608,18.187,60.898,0.020476,-0.018348,-7.0465e-13,1,15.545,66.345,0,0
0.88508,18.197,60.604,0.34357,0.020638,3.43e-11,-1.727e-11,53.61,0.34357,18.197,60.604,0.020475,-0.018287,-7.0493e-13,1,15.646,66.446,0,0
0.88579,18.207,60.312,0.33154,0.020827,3.7492e-11,-1.7293e-11,53.337,0.33154,18.207,60.312,0.020475,-0.018226,-7.052e-13,1,15.748,66.548,0,0
0.8865,18.218,60.021,0.31998,0.021013,4.0524e-11,-1.7317e-11,53.064,0.31998,18.218,60.021,0.020475,-0.018165,-7.0548e-13,1,15.85,66.65,0,0
0.88721,18.229,59.732,0.3089,0.021196,4.3396e-11,-1.734e-11,52.793,0.3089,18.229,59.732,0.020475,-0.018104,-7.0575e-13,1,15.951,66.751,0,0
0.88792,18.241,59.444,0.2983,0.021377,4.6109e-11,-1.7363e-11,52.523,0.2983,18.241,59.444,0.020476,-0.018043,-7.0603e-13,1,16.053,66.853,0,0
0.88863,18.254,59.157,0.28817,0.021554,4.8661e-11,-1.7387e-11,52.254,0.28817,18.254,59.157,0.020476,-0.017982,-7.063e-13,1,16.154,66.954,0,0
0.88934,18.267,58.872,0.27852,0.021729,5.1054e-11,-1.741e-11,51.986,0.27852,18.267,58.872,0.020476,-0.017921,-7.0658e-13,1,16.256,67.056,0,0
0.89005,18.281,58.589,0.26934,0.0219,5.3286e-11,-1.7433e-11,51.719,0.26934,18.281,58.589,0.020476,-0.01786,-7.0685e-13,1,16.358,67.158,0,0
0.89076,18.296,58.307,0.26064,0.022069,5.5359e-11,-1.7456e-11,51.454,0.26064,18.296,58.307,0.020477,-0.017799,-7.0713e-13,1,16.459,67.259,0,0
0.89147,18.311,58.026,0.25242,0.022235,5.7271e-11,-1.748e-11,51.189,0.25242,18.311,58.026,0.020477,-0.017738,-7.074e-13,1,16.561,67.361,0,0
0.89218,18.327,57.747,0.24467,0.022398,5.9024e-11,-1.7503e-11,50.926,0.24467,18.327,57.747,0.020477,-0.017678,-7.0767e-13,1,16.662,67.462,0,0
0.89289,18.343,57.469,0.2374,0.022558,6.0617e-11,-1.7526e-11,50.664,0.2374,18.343,57.469,0.020478,-0.017617,-7.0795e-13,1,16.764,67.564,0,0
0.8936,18.36,57.193,0.23061,0.022715,6.2049e-11,-1.755e-11,50.403,0.23061,18.36,57.193,0.020478,-0.017556,-7.0822e-13,1,16.866,67.666,0,0
0.89431,18.378,56.919,0.22429,0.022869,6.3322e-11,-1.7573e-11,50.144,0.22429,18.378,56.919,0.020479,-0.017495,-7.085e-13,1,16.967,67.767,0,0
0.89502,18.396,56.645,0.21845,0.02302,6.4435e-11,-1.7596e-11,49.885,0.21845,18.396,56.645,0.020479,-0.017434,-7.0877e-13,1,17.069,67.869,0,0
0.89573,18.415,56.374,0.21308,0.023168,6.5388e-11,-1.762e-11,49.628,0.21308,18.415,56.374,0.02048,-0.017373,-7.0905e-13,1,17.17,67.97,0,0
0.89644,18.434,56.103,0.20819,0.023314,6.6181e-11,-1.7643e-11,49.372,0.20819,18.434,56.103,0.020481,-0.017312,-7.0932e-13,1,17.272,68.072,0,0
0.89715,18.454,55.835,0.20378,0.023456,6.6814e-11,-1.7666e-11,49.117,0.20378,18.454,55.835,0.020482,-0.017251,-7.096e-13,1,17.374,68.174,0,0
0.89786,18.475,55.567,0.19984,0.023596,6.7287e-11,-1.769e-11,48.863,0.19984,18.475,55.567,0.020482,-0.01719,-7.0987e-13,1,17.475,68.275,0,0
0.89857,18.497,55.301,0.19638,0.023732,6.76e-11,-1.7713e-11,48.61,0.19638,18.497,55.301,0.020483,-0.017129,-7.1015e-13,1,17.577,68.377,0,0
0.89928,18.519,55.037,0.1934,0.023866,6.7753e-11,-1.7736e-11,48.359,0.1934,18.519,55.037,0.020484,-0.017068,-7.1042e-13,1,17.678,68.478,0,0
0.89999,18.541,54.774,0.19089,0.023997,6.7746e-11,-1.7759e-11,48.109,0.19089,18.541,54.774,0.020485,-0.017007,-7.107e-13,1,17.78,68.58,0,0
0.9007,18.564,54.513,0.18886,0.024125,6.7579e-11,-1.7783e-11,47.86,0.18886,18.564,54.513,0.020486,-0.016946,-7.1097e-13,1,17.882,68.682,0,0
0.90141,18.588,54.253,0.1873,0.02425,6.7253e-11,-1.7806e-11,47.612,0.1873,18.588,54.253,0.020487,-0.016885,-7.1125e-13,1,17.983,68.783,0,0
0.90212,18.613,53.994,0.18623,0.024372,6.6766e-11,-1.7829e-11,47.365,0.18623,18.613,53.994,0.020488,-0.016824,-7.1152e-13,1,18.085,68.885,0,0
0.90283,18.638,53.737,0.18562,0.024491,6.6119e-11,-1.7853e-11,47.119,0.18562,18.638,53.737,0.020489,-0.016763,-7.118e-13,1,18.186,68.986,0,0
0.90354,18.663,53.482,0.1855,0.024607,6.5313e-11,-1.7876e-11,46.875,0.1855,18.663,53.482,0.020491,-0.016702,-7.1207e-13,1,18.288,69.088,0,0
0.90425,18.69,53.228,0.18584,0.024721,6.4346e-11,-1.7899e-11,46.631,0.18584,18.69,53.228,0.020492,-0.016641,-7.1235e-13,1,18.39,69.19,0,0
0.90496,18.717,52.975,0.18667,0.024831,6.322e-11,-1.7923e-11,46.389,0.18667,18.717,52.975,0.020493,-0.01658,-7.1262e-13,1,18.491,69.291,0,0
0.90567,18.744,52.724,0.18797,0.024939,6.1933e-11,-1.7946e-11,46.148,0.18797,18.744,52.724,0.020495,-0.016519,-7.1289e-13,1,18.593,69.393,0,0
0.90638,18.773,52.474,0.18975,0.025043,6.0487e-11,-1.7969e-11,45.908,0.18975,18.773,52.474,0.020496,-0.016458,-7.1317e-13,1,18.694,69.494,0,0
0.90709,18.801,52.226,0.192,0.025145,5.888e-11,-1.7993e-11,45.67,0.192,18.801,52.226,0.020498,-0.016397,-7.1344e-13,1,18.796,69.596,0,0
0.9078,18.831,51.979,0.19474,0.025244,5.7114e-11,-1.8016e-11,45.432,0.19474,18.831,51.979,0.020499,-0.016336,-7.1372e-13,1,18.898,69.698,0,0
0.90851,18.861,51.734,0.19794,0.02534,5.5188e-11,-1.8039e-11,45.196,0.19794,18.861,51.734,0.020501,-0.016275,-7.1399e-13,1,18.999,69.799,0,0
0.90922,18.892,51.49,0.20163,0.025433,5.3102e-11,-1.8062e-11,44.961,0.20163,18.892,51.49,0.020502,-0.016214,-7.1427e-13,1,19.101,69.901,0,0
0.90993,18.923,51.248,0.20578,0.025523,5.0855e-11,-1.8086e-11,44.727,0.20578,18.923,51.248,0.020504,-0.016153,-7.1454e-13,1,19.202,70.002,0,0
0.91064,18.955,51.007,0.21042,0.02561,4.8449e-11,-1.8109e-11,44.494,0.21042,18.955,51.007,0.020506,-0.016092,-7.1482e-13,1,19.304,70.104,0,0
0.91135,18.987,50.768,0.21553,0.025694,4.5883e-11,-1.8132e-11,44.263,0.21553,18.987,50.768,0.020507,-0.016031,-7.1509e-13,1,19.406,70.206,0,0
0.91206,19.02,50.53,0.22112,0.025775,4.3157e-11,-1.8156e-11,44.032,0.22112,19.02,50.53,0.020509,-0.01597,-7.1537e-13,1,19.507,70.307,0,0
0.91277,19.054,50.293,0.22718,0.025854,4.0271e-11,-1.8179e-11,43.803,0.22718,19.054,50.293,0.020511,-0.015909,-7.1564e-13,1,19.609,70.409,0,0
0.91348,19.089,50.058,0.23372,0.025929,3.7225e-11,-1.8202e-11,43.575,0.23372,19.089,50.058,0.020513,-0.015848,-7.1592e-13,1,19.71,70.51,0,0
0.91419,19.124,49.825,0.24074,0.026002,3.4019e-11,-1.8226e-11,43.348,0.24074,19.124,49.825,0.020515,-0.015787,-7.1619e-13,1,19.812,70.612,0,0
0.9149,19.159,49.593,0.24823,0.026072,3.0654e-11,-1.8249e-11,43.122,0.24823,19.159,49.593,0.020517,-0.015726,-7.1647e-13,1,19.914,70.714,0,0
0.91561,19.196,49.362,0.2562,0.026138,2.7128e-11,-1.8272e-11,42.897,0.2562,19.196,49.362,0.020519,-0.015665,-7.1674e-13,1,20.015,70.815,0,0
0.91632,19.233,49.133,0.26465,0.026202,2.3442e-11,-1.8296e-11,42.674,0.26465,19.233,49.133,0.020521,-0.015604,-7.1702e-13,1,20.117,70.917,0,0
0.91703,19.27,48.905,0.27357,0.026263,1.9596e-11,-1.8319e-11,42.452,0.27357,19.27,48.905,0.020524,-0.015543,-7.1729e-13,1,20.218,71.018,0,0
0.91775,19.308,48.678,0.28296,0.026306,1.5591e-11,-1.8342e-11,42.229,0.28296,19.308,48.678,0.020526,-0.015481,-7.1757e-13,1,20.32,71.12,0,0
0.91946,19.302,48.434,0.27328,0.026294,1.9293e-11,-1.8166e-11,42.013,0.27328,19.302,48.434,0.020528,-0.01542,-7.1783e-13,1,20.422,71.222,0,0
0.92117,19.296,48.191,0.26392,0.026281,2.2834e-11,-1.7991e-11,41.797,0.26392,19.295,48.191,0.02053,-0.015359,-7.1809e-13,1,20.523,71.323,0,0
0.92287,19.29,47.95,0.25489,0.026267,2.6215e-11,-1.7816e-11,41.583,0.25489,19.29,47.95,0.020533,-0.015298,-7.1835e-13,1,20.625,71.425,0,0
0.92458,19.284,47.709,0.24618,0.026251,2.9437e-11,-1.7641e-11,41.369,0.24618,19.284,47.709,0.020535,-0.015237,-7.1861e-13,1,20.726,71.526,0,0
0.92629,19.28,47.469,0.2378,0.026235,3.2498e-11,-1.7465e-11,41.157,0.2378,19.28,47.469,0.020537,-0.015176,-7.1887e-13,1,20.828,71.628,0,0
0.928,19.275,47.231,0.22974,0.026217,3.54e-11,-1.729e-11,40.945,0.22974,19.275,47.231,0.02054,-0.015115,-7.1913e-13,1,20.93,71.73,0,0
0.92971,19.271,46.993,0.22201,0.026198,3.8142e-11,-1.7115e-11,40.734,0.22201,19.271,46.993,0.020542,-0.015054,-7.1939e-13,1,21.031,71.831,0,0
0.93141,19.268,46.757,0.21461,0.026178,4.0723e-11,-1.694e-11,40.524,0.21461,19.268,46.757,0.020545,-0.014993,-7.1966e-13,1,21.133,71.933,0,0
0.93312,19.265,46.521,0.20752,0.026157,4.3145e-11,-1.6765e-11,40.316,0.20752,19.264,46.521,0.020547,-0.014932,-7.1992e-13,1,21.234,72.034,0,0
0.93483,19.262,46.287,0.20077,0.026135,4.5407e-11,-1.6589e-11,40.108,0.20077,19.262,46.287,0.02055,-0.014871,-7.2018e-13,1,21.336,72.136,0,0
0.93654,19.26,46.054,0.19434,0.026111,4.7509e-11,-1.6414e-11,39.9,0.19434,19.26,46.054,0.020552,-0.01481,-7.2044e-13,1,21.438,72.238,0,0
0.93824,19.258,45.821,0.18823,0.026087,4.9451e-11,-1.6239e-11,39.694,0.18823,19.258,45.822,0.020555,-0.014749,-7.207e-13,1,21.539,72.339,0,0
0.93995,19.256,45.59,0.18245,0.026061,5.1233e-11,-1.6064e-11,39.489,0.18245,19.256,45.59,0.020557,-0.014688,-7.2096e-13,1,21.641,72.441,0,0
0.94166,19.255,45.36,0.17699,0.026034,5.2855e-11,-1.5888e-11,39.285,0.17699,19.255,45.36,0.02056,-0.014627,-7.2122e-13,1,21.742,72.542,0,0
0.94337,19.255,45.131,0.17186,0.026006,5.4317e-11,-1.5713e-11,39.081,0.17186,19.255,45.131,0.020563,-0.014566,-7.2148e-13,1,21.844,72.644,0,0
0.94508,19.255,44.903,0.16705,0.025976,5.5619e-11,-1.5538e-11,38.879,0.16705,19.255,44.903,0.020566,-0.014505,-7.2175e-13,1,21.946,72.746,0,0
0.94678,19.255,44.676,0.16257,0.025946,5.6761e-11,-1.5363e-11,38.677,0.16257,19.255,44.676,0.020568,-0.014444,-7.2201e-13,1,22.047,72.847,0,0
0.94849,19.256,44.45,0.15842,0.025914,5.7744e-11,-1.5188e-11,38.477,0.15842,19.256,44.45,0.020571,-0.014383,-7.2227e-13,1,22.149,72.949,0,0
0.9502,19.257,44.225,0.15458,0.025882,5.8566e-11,-1.5012e-11,38.277,0.15458,19.257,44.225,0.020574,-0.014322,-7.2253e-13,1,22.25,73.05,0,0
0.95191,19.259,44.001,0.15108,0.025848,5.9228e-11,-1.4837e-11,38.078,0.15108,19.259,44.001,0.020577,-0.014261,-7.2279e-13,1,22.352,73.152,0,0
0.95361,19.261,43.778,0.14789,0.025813,5.9731e-11,-1.4662e-11,37.88,0.14789,19.261,43.778,0.02058,-0.0142,-7.2305e-13,1,22.454,73.254,0,0
0.95532,19.263,43.556,0.14504,0.025777,6.0073e-11,-1.4487e-11,37.683,0.14504,19.263,43.556,0.020583,-0.014139,-7.2331e-13,1,22.555,73.355,0,0
0.95703,19.266,43.336,0.14251,0.025739,6.0256e-11,-1.4312e-11,37.487,0.14251,19.266,43.336,0.020586,-0.014078,-7.2357e-13,1,22.657,73.457,0,0
0.95874,19.27,43.116,0.1403,0.025701,6.0278e-11,-1.4136e-11,37.292,0.1403,19.27,43.116,0.020589,-0.014017,-7.2383e-13,1,22.758,73.558,0,0
0.96044,19.273,42.897,0.13842,0.025661,6.0141e-11,-1.3961e-11,37.098,0.13842,19.273,42.897,0.020592,-0.013956,-7.241e-13,1,22.86,73.66,0,0
0.96215,19.278,42.68,0.13686,0.02562,5.9843e-11,-1.3786e-11,36.905,0.13686,19.278,42.68,0.020595,-0.013895,-7.2436e-13,1,22.962,73.762,0,0
0.96386,19.282,42.463,0.13563,0.025578,5.9386e-11,-1.3611e-11,36.713,0.13563,19.282,42.463,0.020598,-0.013834,-7.2462e-13,1,23.063,73.863,0,0
0.96557,19.287,42.248,0.13472,0.025535,5.8769e-11,-1.3436e-11,36.521,0.13472,19.287,42.248,0.020601,-0.013773,-7.2488e-13,1,23.165,73.965,0,0
0.96728,19.293,42.033,0.13414,0.025491,5.7992e-11,-1.326e-11,36.331,0.13414,19.293,42.033,0.020604,-0.013712,-7.2514e-13,1,23.266,74.066,0,0
0.96898,19.299,41.82,0.13388,0.025445,5.7054e-11,-1.3085e-11,36.141,0.13388,19.299,41.82,0.020608,-0.013651,-7.254e-13,1,23.368,74.168,0,0
0.97069,19.305,41.607,0.13395,0.025398,5.5957e-11,-1.291e-11,35.953,0.13395,19.305,41.607,0.020611,-0.01359,-7.2566e-13,1,23.47,74.27,0,0
0.9724,19.312,41.396,0.13434,0.025351,5.47e-11,-1.2735e-11,35.765,0.13434,19.312,41.396,0.020614,-0.013529,-7.2592e-13,1,23.571,74.371,0,0
0.97411,19.319,41.186,0.13506,0.025302,5.3283e-11,-1.256e-11,35.578,0.13506,19.319,41.186,0.020618,-0.013468,-7.2619e-13,1,23.673,74.473,0,0
0.97581,19.327,40.976,0.1361,0.025252,5.1706e-11,-1.2384e-11,35.392,0.1361,19.327,40.976,0.020621,-0.013407,-7.2645e-13,1,23.774,74.574,0,0
0.97752,19.335,40.768,0.13747,0.0252,4.9969e-11,-1.2209e-11,35.207,0.13747,19.335,40.768,0.020624,-0.013346,-7.2671e-13,1,23.876,74.676,0,0
0.97923,19.344,40.561,0.13917,0.025148,4.8072e-11,-1.2034e-11,35.023,0.13917,19.344,40.561,0.020628,-0.013285,-7.2697e-13,1,23.978,74.778,0,0
0.98094,19.353,40.355,0.14118,0.025094,4.6016e-11,-1.1859e-11,34.84,0.14118,19.353,40.355,0.020631,-0.013224,-7.2723e-13,1,24.079,74.879,0,0
0.98264,19.362,40.15,0.14353,0.02504,4.3799e-11,-1.1684e-11,34.658,0.14353,19.362,40.15,0.020635,-0.013163,-7.2749e-13,1,24.181,74.981,0,0
0.98435,19.372,39.946,0.14619,0.024984,4.1422e-11,-1.1508e-11,34.477,0.14619,19.372,39.946,0.020638,-0.013102,-7.2775e-13,1,24.282,75.082,0,0
0.98606,19.382,39.743,0.14919,0.024927,3.8885e-11,-1.1333e-11,34.297,0.14919,19.382,39.743,0.020642,-0.013041,-7.2801e-13,1,24.384,75.184,0,0
0.98777,19.393,39.541,0.1525,0.024868,3.6189e-11,-1.1158e-11,34.117,0.1525,19.393,39.541,0.020646,-0.01298,-7.2828e-13,1,24.486,75.286,0,0
0.98947,19.404,39.34,0.15615,0.024809,3.3332e-11,-1.0983e-11,33.939,0.15615,19.404,39.34,0.020649,-0.012919,-7.2854e-13,1,24.587,75.387,0,0
0.99118,19.416,39.14,0.16011,0.024749,3.0316e-11,-1.0808e-11,33.761,0.16011,19.416,39.14,0.020653,-0.012858,-7.288e-13,1,24.689,75.489,0,0
0.99289,19.428,38.942,0.16441,0.024687,2.7139e-11,-1.0633e-11,33.585,0.16441,19.428,38.942,0.020657,-0.012797,-7.2906e-13,1,24.79,75.59,0,0
0.9946,19.44,38.744,0.16903,0.024624,2.3803e-11,-1.0457e-11,33.409,0.16903,19.44,38.744,0.02066,-0.012736,-7.2932e-13,1,24.892,75.692,0,0
0.9963,19.453,38.547,0.17397,0.02456,2.0306e-11,-1.0282e-11,33.234,0.17397,19.453,38.547,0.020664,-0.012675,-7.2958e-13,1,24.994,75.794,0,0
0.99801,19.467,38.351,0.17924,0.024495,1.665e-11,-1.0107e-11,33.06,0.17924,19.467,38.352,0.020668,-0.012614,-7.2984e-13,1,25.095,75.895,0,0
0.99972,19.48,38.157,0.18483,0.024429,1.2834e-11,-9.9318e-12,32.887,0.18483,19.48,38.157,0.020672,-0.012553,-7.301e-13,1,25.197,75.997,0,0
1.0014,19.495,37.963,0.19075,0.024361,8.8576e-12,-9.7566e-12,32.715,0.19075,19.495,37.963,0.020676,-0.012492,-7.3036e-13,1,25.298,76.098,0,0
1.0032,19.509,37.77,0.19698,0.024292,4.7083e-12,-9.58e-12,32.543,0.19698,19.509,37.77,0.02068,-0.01243,-7.3063e-13,1,25.4,76.2,0,0
1.0074,19.493,37.565,0.1901,0.024145,4.646e-12,-9.3447e-12,32.373,0.1901,19.493,37.565,0.020684,-0.012369,-7.3088e-13,1,25.502,76.302,0,0
1.0116,19.477,37.361,0.18345,0.023998,4.5837e-12,-9.1094e-12,32.204,0.18345,19.477,37.361,0.020688,-0.012308,-7.3113e-13,1,25.603,76.403,0,0
1.0159,19.462,37.158,0.17703,0.02385,4.5214e-12,-8.8741e-12,32.035,0.17703,19.462,37.158,0.020691,-0.012247,-7.3137e-13,1,25.705,76.505,0,0
1.0201,19.447,36.956,0.17084,0.023704,4.4591e-12,-8.6387e-12,31.867,0.17084,19.447,36.956,0.020695,-0.012186,-7.3162e-13,1,25.806,76.606,0,0
1.0243,19.432,36.755,0.16487,0.023557,4.3968e-12,-8.4034e-12,31.7,0.16487,19.432,36.755,0.020699,-0.012125,-7.3187e-13,1,25.908,76.708,0,0
1.0286,19.417,36.554,0.15913,0.02341,4.3344e-12,-8.1681e-12,31.534,0.15913,19.417,36.554,0.020704,-0.012064,-7.3212e-13,1,26.01,76.81,0,0
1.0328,19.403,36.354,0.15362,0.023263,4.2721e-12,-7.9328e-12,31.369,0.15362,19.403,36.354,0.020708,-0.012003,-7.3237e-13,1,26.111,76.911,0,0
1.0371,19.389,36.155,0.14834,0.023117,4.2098e-12,-7.6974e-12,31.204,0.14834,19.389,36.155,0.020712,-0.011942,-7.3262e-13,1,26.213,77.013,0,0
1.0413,19.376,35.957,0.14328,0.022971,4.1475e-12,-7.4621e-12,31.041,0.14328,19.376,35.957,0.020716,-0.011881,-7.3287e-13,1,26.314,77.114,0,0
1.0455,19.362,35.759,0.13845,0.022825,4.0852e-12,-7.2268e-12,30.878,0.13845,19.362,35.759,0.02072,-0.01182,-7.3312e-13,1,26.416,77.216,0,0
1.0498,19.349,35.562,0.13385,0.022679,4.0228e-12,-6.9915e-12,30.715,0.13385,19.349,35.562,0.020724,-0.011759,-7.3337e-13,1,26.518,77.318,0,0
1.054,19.337,35.366,0.12947,0.022533,3.9605e-12,-6.7562e-12,30.554,0.12947,19.337,35.366,0.020728,-0.011698,-7.3362e-13,1,26.619,77.419,0,0
1.0583,19.324,35.171,0.12532,0.022387,3.8982e-12,-6.5209e-12,30.393,0.12532,19.324,35.171,0.020732,-0.011637,-7.3387e-13,1,26.721,77.521,0,0
1.0625,19.312,34.976,0.1214,0.022241,3.8359e-12,-6.2856e-12,30.234,0.1214,19.312,34.976,0.020737,-0.011576,-7.3412e-13,1,26.822,77.622,0,0
1.0667,19.3,34.782,0.11771,0.022096,3.7735e-12,-6.0502e-12,30.075,0.11771,19.3,34.782,0.020741,-0.011515,-7.3437e-13,1,26.924,77.724,0,0
1.071,19.289,34.589,0.11424,0.02195,3.7112e-12,-5.8149e-12,29.916,0.11424,19.289,34.589,0.020745,-0.011454,-7.3462e-13,1,27.026,77.826,0,0
1.0752,19.278,34.397,0.111,0.021805,3.6489e-12,-5.5796e-12,29.759,0.111,19.278,34.397,0.020749,-0.011393,-7.3487e-13,1,27.127,77.927,0,0
1.0795,19.267,34.205,0.10799,0.02166,3.5865e-12,-5.3443e-12,29.602,0.10799,19.267,34.205,0.020754,-0.011332,-7.3512e-13,1,27.229,78.029,0,0
1.0837,19.257,34.015,0.1052,0.021515,3.5242e-12,-5.109e-12,29.447,0.1052,19.257,34.015,0.020758,-0.011271,-7.3537e-13,1,27.33,78.13,0,0
1.0879,19.246,33.825,0.10264,0.02137,3.4619e-12,-4.8737e-12,29.292,0.10264,19.246,33.825,0.020763,-0.01121,-7.3562e-13,1,27.432,78.232,0,0
1.0922,19.237,33.635,0.10031,0.021225,3.3995e-12,-4.6384e-12,29.137,0.10031,19.237,33.635,0.020767,-0.011149,-7.3587e-13,1,27.534,78.334,0,0
1.0964,19.227,33.447,0.09821,0.021081,3.3372e-12,-4.4031e-12,28.984,0.09821,19.227,33.447,0.020771,-0.011088,-7.3611e-13,1,27.635,78.435,0,0
1.1006,19.218,33.259,0.096334,0.020936,3.2748e-12,-4.1678e-12,28.831,0.096334,19.218,33.259,0.020776,-0.011027,-7.3636e-13,1,27.737,78.537,0,0
1.1049,19.209,33.072,0.094686,0.020792,3.2125e-12,-3.9325e-12,28.679,0.094686,19.209,33.072,0.02078,-0.010966,-7.3661e-13,1,27.838,78.638,0,0
1.1091,19.2,32.886,0.093264,0.020647,3.1502e-12,-3.6972e-12,28.528,0.093264,19.2,32.886,0.020785,-0.010905,-7.3686e-13,1,27.94,78.74,0,0
1.1134,19.192,32.701,0.09207,0.020503,3.0878e-12,-3.4619e-12,28.378,0.09207,19.192,32.701,0.020789,-0.010844,-7.3711e-13,1,28.042,78.842,0,0
1.1176,19.184,32.516,0.091103,0.020359,3.0255e-12,-3.2266e-12,28.229,0.091103,19.184,32.516,0.020794,-0.010783,-7.3736e-13,1,28.143,78.943,0,0
1.1218,19.176,32.332,0.090364,0.020215,2.9631e-12,-2.9912e-12,28.08,0.090364,19.176,32.332,0.020798,-0.010721,-7.3761e-13,1,28.245,79.045,0,0
1.1261,19.169,32.149,0.089851,0.020072,2.9008e-12,-2.7559e-12,27.932,0.089851,19.169,32.149,0.020803,-0.01066,-7.3786e-13,1,28.346,79.146,0,0
1.1303,19.162,31.967,0.089566,0.019928,2.8384e-12,-2.5206e-12,27.785,0.089566,19.162,31.967,0.020808,-0.010599,-7.3811e-13,1,28.448,79.248,0,0
1.1346,19.155,31.785,0.089509,0.019785,2.7761e-12,-2.2853e-12,27.639,0.089509,19.155,31.785,0.020812,-0.010538,-7.3836e-13,1,28.55,79.35,0,0
1.1388,19.149,31.604,0.089678,0.019641,2.7137e-12,-2.05e-12,27.494,0.089678,19.149,31.604,0.020817,-0.010477,-7.3861e-13,1,28.651,79.451,0,0
1.143,19.142,31.424,0.090075,0.019498,2.6514e-12,-1.8147e-12,27.349,0.090075,19.142,31.424,0.020822,-0.010416,-7.3886e-13,1,28.753,79.553,0,0
1.1473,19.137,31.245,0.090699,0.019355,2.589e-12,-1.5794e-12,27.205,0.090699,19.137,31.245,0.020826,-0.010355,-7.3911e-13,1,28.854,79.654,0,0
1.1515,19.131,31.066,0.09155,0.019212,2.5267e-12,-1.3442e-12,27.062,0.09155,19.131,31.066,0.020831,-0.010294,-7.3936e-13,1,28.956,79.756,0,0
1.1557,19.126,30.889,0.092629,0.019069,2.4643e-12,-1.1089e-12,26.92,0.092629,19.126,30.889,0.020836,-0.010233,-7.3961e-13,1,29.058,79.858,0,0
1.16,19.121,30.712,0.093934,0.018927,2.402e-12,-8.7357e-13,26.778,0.093934,19.121,30.712,0.02084,-0.010172,-7.3986e-13,1,29.159,79.959,0,0
1.1642,19.116,30.535,0.095468,0.018784,2.3396e-12,-6.3827e-13,26.638,0.095468,19.116,30.535,0.020845,-0.010111,-7.4011e-13,1,29.261,80.061,0,0
1.1685,19.112,30.36,0.097228,0.018642,2.2772e-12,-4.0297e-13,26.498,0.097228,19.112,30.36,0.02085,-0.01005,-7.4036e-13,1,29.362,80.162,0,0
1.1727,19.108,30.185,0.099215,0.018499,2.2149e-12,-1.6768e-13,26.359,0.099215,19.108,30.185,0.020855,-0.0099891,-7.406e-13,1,29.464,80.264,0,0
1.1769,19.105,30.011,0.10143,0.018357,2.1525e-12,6.7616e-14,26.22,0.10143,19.105,30.011,0.02086,-0.009928,-7.4085e-13,1,29.566,80.366,0,0
1.1812,19.101,29.838,0.10387,0.018215,2.0902e-12,3.0291e-13,26.083,0.10387,19.101,29.838,0.020865,-0.009867,-7.411e-13,1,29.667,80.467,0,0
1.1854,19.098,29.666,0.10654,0.018073,2.0278e-12,5.382e-13,25.946,0.10654,19.098,29.666,0.02087,-0.009806,-7.4135e-13,1,29.769,80.569,0,0
1.1896,19.095,29.494,0.10944,0.017931,1.9654e-12,7.7349e-13,25.81,0.10944,19.095,29.494,0.020875,-0.0097449,-7.416e-13,1,29.87,80.67,0,0
1.1939,19.093,29.323,0.11256,0.01779,1.9031e-12,1.0088e-12,25.675,0.11256,19.093,29.323,0.02088,-0.0096839,-7.4185e-13,1,29.972,80.772,0,0
1.1981,19.091,29.153,0.11591,0.017648,1.8407e-12,1.2441e-12,25.541,0.11591,19.091,29.153,0.020885,-0.0096229,-7.421e-13,1,30.074,80.874,0,0
1.2024,19.089,28.984,0.11949,0.017507,1.7783e-12,1.4793e-12,25.407,0.11949,19.089,28.984,0.02089,-0.0095618,-7.4235e-13,1,30.175,80.975,0,0
1.2066,19.088,28.815,0.1233,0.017366,1.716e-12,1.7146e-12,25.275,0.1233,19.088,28.815,0.020895,-0.0095008,-7.426e-13,1,30.277,81.077,0,0
1.2108,19.087,28.647,0.12733,0.017225,1.6536e-12,1.9499e-12,25.143,0.12733,19.087,28.647,0.0209,-0.0094397,-7.4285e-13,1,30.378,81.178,0,0
1.2151,19.086,28.479,0.13159,0.017093,1.5921e-12,2.1858e-12,25.011,0.13159,19.086,28.479,0.020905,-0.0093783,-7.431e-13,1,30.48,81.28,0,0
1.2151,19.063,28.304,0.12667,0.016887,1.4561e-12,2.1831e-12,24.878,0.12667,19.063,28.304,0.02091,-0.0093173,-7.4334e-13,1,30.582,81.382,0,0
1.2151,19.041,28.129,0.12192,0.016681,1.328e-12,2.1803e-12,24.746,0.12192,19.041,28.129,0.020915,-0.0092562,-7.4358e-13,1,30.683,81.483,0,0
1.2151,19.02,27.955,0.11733,0.016477,1.2079e-12,2.1775e-12,24.615,0.11733,19.02,27.955,0.02092,-0.0091952,-7.4382e-13,1,30.785,81.585,0,0
1.2151,18.998,27.781,0.1129,0.016273,1.0959e-12,2.1748e-12,24.485,0.1129,18.998,27.781,0.020925,-0.0091342,-7.4406e-13,1,30.886,81.686,0,0
1.2151,18.977,27.608,0.10863,0.016071,9.9178e-13,2.172e-12,24.356,0.10863,18.977,27.608,0.02093,-0.0090731,-7.443e-13,1,30.988,81.788,0,0
1.2151,18.955,27.435,0.10452,0.015869,8.957e-13,2.1692e-12,24.227,0.10452,18.955,27.435,0.020935,-0.0090121,-7.4454e-13,1,31.09,81.89,0,0
1.2151,18.935,27.263,0.10057,0.015668,8.0762e-13,2.1665e-12,24.099,0.10057,18.935,27.263,0.020941,-0.008951,-7.4479e-13,1,31.191,81.991,0,0
1.2151,18.914,27.092,0.096786,0.015469,7.2755e-13,2.1637e-12,23.972,0.096786,18.914,27.092,0.020946,-0.00889,-7.4503e-13,1,31.293,82.093,0,0
1.2151,18.893,26.921,0.093159,0.01527,6.5547e-13,2.1609e-12,23.846,0.093159,18.893,26.921,0.020951,-0.0088289,-7.4527e-13,1,31.394,82.194,0,0
1.2151,18.873,26.751,0.089693,0.015072,5.9139e-13,2.1582e-12,23.72,0.089693,18.873,26.751,0.020956,-0.0087679,-7.4551e-13,1,31.496,82.296,0,0
1.2151,18.853,26.581,0.086388,0.014875,5.3531e-13,2.1554e-12,23.596,0.086388,18.853,26.581,0.020961,-0.0087069,-7.4575e-13,1,31.598,82.398,0,0
1.2151,18.833,26.412,0.083243,0.014679,4.8723e-13,2.1526e-12,23.472,0.083243,18.833,26.412,0.020967,-0.0086458,-7.4599e-13,1,31.699,82.499,0,0
1.2151,18.814,26.243,0.080259,0.014484,4.4714e-13,2.1499e-12,23.348,0.080259,18.814,26.243,0.020972,-0.0085848,-7.4623e-13,1,31.801,82.601,0,0
1.2151,18.795,26.075,0.077436,0.014289,4.1506e-13,2.1471e-12,23.226,0.077436,18.795,26.075,0.020977,-0.0085237,-7.4647e-13,1,31.902,82.702,0,0
1.2151,18.775,25.908,0.074773,0.014096,3.9097e-13,2.1443e-12,23.104,0.074773,18.775,25.908,0.020983,-0.0084627,-7.4671e-13,1,32.004,82.804,0,0
1.2151,18.757,25.741,0.072272,0.013904,3.7489e-13,2.1415e-12,22.983,0.072272,18.757,25.741,0.020988,-0.0084016,-7.4695e-13,1,32.106,82.906,0,0
1.2151,18.738,25.575,0.06993,0.013712,3.668e-13,2.1388e-12,22.863,0.06993,18.738,25.575,0.020993,-0.0083406,-7.4719e-13,1,32.207,83.007,0,0
1.2151,18.72,25.409,0.06775,0.013522,3.6671e-13,2.136e-12,22.744,0.06775,18.72,25.409,0.020999,-0.0082795,-7.4743e-13,1,32.309,83.109,0,0
1.2151,18.701,25.244,0.06573,0.013332,3.7462e-13,2.1332e-12,22.625,0.06573,18.701,25.244,0.021004,-0.0082185,-7.4767e-13,1,32.41,83.21,0,0
1.2151,18.683,25.079,0.063872,0.013144,3.9053e-13,2.1305e-12,22.508,0.063872,18.683,25.079,0.021009,-0.0081574,-7.4791e-13,1,32.512,83.312,0,0
1.2151,18.666,24.915,0.062173,0.012956,4.1444e-13,2.1277e-12,22.391,0.062173,18.666,24.915,0.021015,-0.0080964,-7.4816e-13,1,32.614,83.414,0,0
1.2151,18.648,24.752,0.060636,0.012769,4.4634e-13,2.1249e-12,22.274,0.060636,18.648,24.752,0.02102,-0.0080353,-7.484e-13,1,32.715,83.515,0,0
1.2151,18.631,24.589,0.059259,0.012583,4.8625e-13,2.1222e-12,22.159,0.059259,18.631,24.589,0.021026,-0.0079743,-7.4864e-13,1,32.817,83.617,0,0
1.2151,18.614,24.427,0.058043,0.012399,5.3415e-13,2.1194e-12,22.044,0.058043,18.614,24.427,0.021031,-0.0079133,-7.4888e-13,1,32.918,83.718,0,0
1.2151,18.597,24.265,0.056987,0.012215,5.9006e-13,2.1166e-12,21.93,0.056987,18.597,24.265,0.021036,-0.0078522,-7.4912e-13,1,33.02,83.82,0,0
1.2151,18.581,24.104,0.056093,0.012031,6.5396e-13,2.1139e-12,21.817,0.056093,18.581,24.104,0.021042,-0.0077912,-7.4936e-13,1,33.122,83.922,0,0
1.2151,18.564,23.943,0.055359,0.011849,7.2586e-13,2.1111e-12,21.705,0.055359,18.564,23.943,0.021047,-0.0077301,-7.496e-13,1,33.223,84.023,0,0
1.2151,18.548,23.783,0.054786,0.011668,8.0576e-13,2.1083e-12,21.594,0.054786,18.548,23.783,0.021053,-0.0076691,-7.4984e-13,1,33.325,84.125,0,0
1.2151,18.532,23.624,0.054373,0.011488,8.9366e-13,2.1055e-12,21.483,0.054373,18.532,23.624,0.021058,-0.007608,-7.5008e-13,1,33.426,84.226,0,0
1.2151,18.517,23.465,0.054121,0.011309,9.8956e-13,2.1028e-12,21.373,0.054121,18.517,23.465,0.021064,-0.007547,-7.5032e-13,1,33.528,84.328,0,0
1.2151,18.501,23.307,0.05403,0.01113,1.0935e-12,2.1e-12,21.264,0.05403,18.501,23.307,0.02107,-0.0074859,-7.5056e-13,1,33.63,84.43,0,0
1.2151,18.486,23.149,0.0541,0.010953,1.2053e-12,2.0972e-12,21.155,0.0541,18.486,23.149,0.021075,-0.0074249,-7.508e-13,1,33.731,84.531,0,0
1.2151,18.471,22.992,0.05433,0.010776,1.3252e-12,2.0945e-12,21.047,0.05433,18.471,22.992,0.021081,-0.0073638,-7.5104e-13,1,33.833,84.633,0,0
1.2151,18.456,22.835,0.054721,0.010601,1.4531e-12,2.0917e-12,20.941,0.054721,18.456,22.835,0.021086,-0.0073028,-7.5129e-13,1,33.934,84.734,0,0
1.2151,18.442,22.679,0.055272,0.010426,1.589e-12,2.0889e-12,20.835,0.055272,18.442,22.679,0.021092,-0.0072417,-7.5153e-13,1,34.036,84.836,0,0
1.2151,18.427,22.524,0.055985,0.010252,1.7329e-12,2.0862e-12,20.729,0.055985,18.427,22.524,0.021098,-0.0071806,-7.5177e-13,1,34.138,84.938,0,0
1.2151,18.413,22.369,0.056858,0.01008,1.8848e-12,2.0834e-12,20.625,0.056858,18.413,22.369,0.021103,-0.0071196,-7.5201e-13,1,34.239,85.039,0,0
1.2151,18.399,22.214,0.057892,0.0099077,2.0447e-12,2.0806e-12,20.521,0.057892,18.399,22.214,0.021109,-0.0070585,-7.5225e-13,1,34.341,85.141,0,0
1.2151,18.386,22.061,0.059086,0.0097368,2.2126e-12,2.0779e-12,20.418,0.059086,18.386,22.061,0.021115,-0.0069975,-7.5249e-13,1,34.442,85.242,0,0
1.2151,18.372,21.907,0.060442,0.0095668,2.3885e-12,2.0751e-12,20.316,0.060442,18.372,21.908,0.02112,-0.0069364,-7.5273e-13,1,34.544,85.344,0,0
1.2151,18.359,21.755,0.061958,0.0093977,2.5724e-12,2.0723e-12,20.214,0.061958,18.359,21.755,0.021126,-0.0068754,-7.5297e-13,1,34.646,85.446,0,0
1.2151,18.346,21.603,0.063634,0.0092295,2.7642e-12,2.0695e-12,20.114,0.063634,18.346,21.603,0.021132,-0.0068143,-7.5321e-13,1,34.747,85.547,0,0
1.2151,18.334,21.451,0.065472,0.0090623,2.9641e-12,2.0668e-12,20.014,0.065472,18.334,21.451,0.021137,-0.0067533,-7.5345e-13,1,34.849,85.649,0,0
1.2151,18.321,21.3,0.06747,0.0088961,3.172e-12,2.064e-12,19.915,0.06747,18.321,21.3,0.021143,-0.0066922,-7.5369e-13,1,34.95,85.75,0,0
1.2151,18.309,21.15,0.069628,0.0087307,3.3879e-12,2.0612e-12,19.816,0.069628,18.309,21.15,0.021149,-0.0066312,-7.5393e-13,1,35.052,85.852,0,0
1.2151,18.297,21,0.071948,0.0085663,3.6118e-12,2.0585e-12,19.719,0.071948,18.297,21,0.021155,-0.0065701,-7.5417e-13,1,35.154,85.954,0,0
1.2151,18.285,20.851,0.074428,0.0084029,3.8436e-12,2.0557e-12,19.622,0.074428,18.285,20.851,0.021161,-0.0065091,-7.5441e-13,1,35.255,86.055,0,0
1.2151,18.273,20.703,0.077069,0.0082403,4.0835e-12,2.0529e-12,19.526,0.077069,18.273,20.703,0.021166,-0.006448,-7.5466e-13,1,35.357,86.157,0,0
1.2151,18.262,20.554,0.079871,0.0080787,4.3314e-12,2.0502e-12,19.431,0.079871,18.262,20.555,0.021172,-0.0063869,-7.549e-13,1,35.458,86.258,0,0
1.2151,18.251,20.406,0.082829,0.0079342,4.5879e-12,2.0467e-12,19.336,0.082829,18.251,20.406,0.021178,-0.0063255,-7.5514e-13,1,35.56,86.36,0,0
1.2099,18.225,20.253,0.079298,0.0077267,4.5592e-12,1.8292e-12,19.239,0.079298,18.225,20.253,0.021184,-0.0062645,-7.5537e-13,1,35.662,86.462,0,0
1.2048,18.199,20.1,0.075882,0.0075205,4.5304e-12,1.6117e-12,19.143,0.075882,18.196,20.102,0.02119,-0.0062034,-7.5559e-13,1,35.763,86.563,0,0
1.1996,18.173,19.947,0.07258,0.0073156,4.5017e-12,1.3942e-12,19.047,0.07258,18.164,19.956,0.021196,-0.0061423,-7.5582e-13,1,35.865,86.665,0,0
1.1945,18.147,19.795,0.069394,0.0071121,4.473e-12,1.1768e-12,18.953,0.069394,18.129,19.813,0.021201,-0.0060813,-7.5605e-13,1,35.966,86.766,0,0
1.1893,18.121,19.644,0.066322,0.00691,4.4443e-12,9.5931e-13,18.859,0.066322,18.091,19.674,0.021207,-0.0060202,-7.5628e-13,1,36.068,86.868,0,0
1.1841,18.096,19.493,0.063364,0.0067091,4.4156e-12,7.4183e-13,18.766,0.063364,18.05,19.539,0.021213,-0.0059592,-7.5651e-13,1,36.17,86.97,0,0
1.179,18.071,19.342,0.060522,0.0065096,4.3869e-12,5.2436e-13,18.674,0.060522,18.006,19.407,0.021219,-0.0058981,-7.5673e-13,1,36.271,87.071,0,0
1.1738,18.046,19.191,0.057794,0.0063115,4.3582e-12,3.0688e-13,18.583,0.057794,17.959,19.278,0.021225,-0.0058371,-7.5696e-13,1,36.373,87.173,0,0
1.1687,18.021,19.042,0.05518,0.0061146,4.3295e-12,8.9402e-14,18.493,0.05518,17.909,19.153,0.021231,-0.005776,-7.5719e-13,1,36.474,87.274,0,0
1.1635,17.996,18.892,0.052682,0.0059192,4.3007e-12,-1.2807e-13,18.403,0.052682,17.856,19.032,0.021237,-0.0057149,-7.5742e-13,1,36.576,87.376,0,0
1.1584,17.972,18.743,0.050298,0.005725,4.272e-12,-3.4555e-13,18.315,0.050298,17.8,18.915,0.021243,-0.0056539,-7.5765e-13,1,36.678,87.478,0,0
1.1532,17.947,18.594,0.048028,0.0055322,4.2433e-12,-5.6303e-13,18.227,0.048028,17.741,18.801,0.021249,-0.0055928,-7.5787e-13,1,36.779,87.579,0,0
1.1481,17.923,18.446,0.045874,0.0053408,4.2146e-12,-7.8051e-13,18.14,0.045874,17.679,18.691,0.021255,-0.0055318,-7.581e-13,1,36.881,87.681,0,0
1.1429,17.899,18.299,0.043834,0.0051507,4.1859e-12,-9.9798e-13,18.054,0.043834,17.614,18.584,0.021261,-0.0054707,-7.5833e-13,1,36.982,87.782,0,0
1.1378,17.875,18.151,0.041909,0.0049619,4.1572e-12,-1.2155e-12,17.969,0.041909,17.546,18.481,0.021267,-0.0054097,-7.5856e-13,1,37.084,87.884,0,0
1.1326,17.852,18.004,0.040098,0.0047745,4.1285e-12,-1.4329e-12,17.885,0.040098,17.475,18.381,0.021273,-0.0053486,-7.5878e-13,1,37.186,87.986,0,0
1.1274,17.828,17.858,0.038403,0.0045884,4.0998e-12,-1.6504e-12,17.801,0.038403,17.401,18.285,0.021279,-0.0052875,-7.5901e-13,1,37.287,88.087,0,0
1.1223,17.805,17.712,0.036822,0.0044036,4.0711e-12,-1.8679e-12,17.719,0.036822,17.324,18.193,0.021285,-0.0052265,-7.5924e-13,1,37.389,88.189,0,0
1.1171,17.782,17.566,0.035355,0.0042202,4.0423e-12,-2.0854e-12,17.637,0.035355,17.244,18.105,0.021291,-0.0051654,-7.5947e-13,1,37.49,88.29,0,0
1.112,17.759,17.421,0.034004,0.0040381,4.0136e-12,-2.3028e-12,17.556,0.034004,17.16,18.019,0.021297,-0.0051044,-7.597e-13,1,37.592,88.392,0,0
1.1068,17.736,17.277,0.032767,0.0038574,3.9849e-12,-2.5203e-12,17.476,0.032767,17.074,17.938,0.021303,-0.0050433,-7.5992e-13,1,37.694,88.494,0,0
1.1017,17.713,17.132,0.031644,0.003678,3.9562e-12,-2.7378e-12,17.397,0.031644,16.985,17.86,0.021309,-0.0049822,-7.6015e-13,1,37.795,88.595,0,0
1.0965,17.691,16.989,0.030637,0.0035,3.9275e-12,-2.9553e-12,17.319,0.030637,16.893,17.786,0.021315,-0.0049212,-7.6038e-13,1,37.897,88.697,0,0
1.0914,17.668,16.845,0.029744,0.0033232,3.8988e-12,-3.1727e-12,17.241,0.029744,16.798,17.715,0.021321,-0.0048601,-7.6061e-13,1,37.998,88.798,0,0
1.0862,17.646,16.702,0.028966,0.0031479,3.8701e-12,-3.3902e-12,17.165,0.028966,16.7,17.648,0.021327,-0.0047991,-7.6084e-13,1,38.1,88.9,0,0
1.0811,17.624,16.56,0.028302,0.0029738,3.8414e-12,-3.6077e-12,17.089,0.028302,16.599,17.585,0.021334,-0.004738,-7.6106e-13,1,38.202,89.002,0,0
1.0759,17.602,16.418,0.027753,0.0028012,3.8126e-12,-3.8252e-12,17.014,0.027753,16.495,17.525,0.02134,-0.0046769,-7.6129e-13,1,38.303,89.103,0,0
1.0707,17.581,16.276,0.027319,0.0026298,3.7839e-12,-4.0426e-12,16.94,0.027319,16.387,17.469,0.021346,-0.0046159,-7.6152e-13,1,38.405,89.205,0,0
1.0656,17.559,16.135,0.027,0.0024598,3.7552e-12,-4.2601e-12,16.867,0.027,16.277,17.417,0.021352,-0.0045548,-7.6175e-13,1,38.506,89.306,0,0
1.0604,17.538,15.994,0.026795,0.0022911,3.7265e-12,-4.4776e-12,16.795,0.026795,16.164,17.368,0.021358,-0.0044937,-7.6198e-13,1,38.608,89.408,0,0
1.0553,17.517,15.854,0.026705,0.0021238,3.6978e-12,-4.6951e-12,16.723,0.026705,16.048,17.322,0.021364,-0.0044327,-7.622e-13,1,38.71,89.51,0,0
1.0501,17.496,15.714,0.026729,0.0019578,3.6691e-12,-4.9125e-12,16.653,0.026729,15.929,17.281,0.02137,-0.0043716,-7.6243e-13,1,38.811,89.611,0,0
1.045,17.475,15.574,0.026869,0.0017932,3.6404e-12,-5.13e-12,16.583,0.026869,15.806,17.242,0.021377,-0.0043106,-7.6266e-13,1,38.913,89.713,0,0
1.0398,17.454,15.435,0.027123,0.0016299,3.6117e-12,-5.3475e-12,16.514,0.027123,15.681,17.208,0.021383,-0.0042495,-7.6289e-13,1,39.014,89.814,0,0
1.0347,17.434,15.296,0.027491,0.0014679,3.5829e-12,-5.565e-12,16.446,0.027491,15.553,17.177,0.021389,-0.0041884,-7.6312e-13,1,39.116,89.916,0,0
1.0295,17.413,15.158,0.027975,0.0013073,3.5542e-12,-5.7825e-12,16.379,0.027975,15.422,17.15,0.021395,-0.0041274,-7.6334e-13,1,39.218,90.018,0,0
1.0244,17.393,15.02,0.028573,0.001148,3.5255e-12,-5.9999e-12,16.313,0.028573,15.288,17.126,0.021401,-0.0040663,-7.6357e-13,1,39.319,90.119,0,0
1.0192,17.373,14.883,0.029286,0.00099003,3.4968e-12,-6.2174e-12,16.247,0.029286,15.15,17.106,0.021408,-0.0040052,-7.638e-13,1,39.421,90.221,0,0
1.014,17.354,14.746,0.030113,0.00083343,3.4681e-12,-6.4349e-12,16.183,0.030113,15.01,17.09,0.021414,-0.0039442,-7.6403e-13,1,39.522,90.322,0,0
1.0089,17.334,14.61,0.031055,0.00067817,3.4394e-12,-6.6524e-12,16.119,0.031055,14.867,17.077,0.02142,-0.0038831,-7.6426e-13,1,39.624,90.424,0,0
1.0037,17.315,14.474,0.032112,0.00052426,3.4107e-12,-6.8698e-12,16.056,0.032112,14.721,17.068,0.021426,-0.003822,-7.6448e-13,1,39.726,90.526,0,0
0.99858,17.295,14.338,0.033284,0.00037167,3.382e-12,-7.0873e-12,15.994,0.033284,14.571,17.062,0.021433,-0.003761,-7.6471e-13,1,39.827,90.627,0,0
0.99342,17.276,14.203,0.03457,0.00022043,3.3532e-12,-7.3048e-12,15.933,0.03457,14.419,17.06,0.021439,-0.0036999,-7.6494e-13,1,39.929,90.729,0,0
0.98827,17.257,14.068,0.035971,7.0534e-05,3.3245e-12,-7.5223e-12,15.873,0.035971,14.264,17.062,0.021445,-0.0036388,-7.6517e-13,1,40.03,90.83,0,0
0.98311,17.238,13.934,0.037486,-7.8025e-05,3.2958e-12,-7.7397e-12,15.813,0.037486,14.105,17.067,0.021452,-0.0035778,-7.654e-13,1,40.132,90.932,0,0
0.97796,17.22,13.8,0.039117,-0.00022524,3.2671e-12,-7.9572e-12,15.754,0.039117,13.944,17.076,0.021458,-0.0035167,-7.6562e-13,1,40.234,91.034,0,0
0.9728,17.201,13.666,0.040862,-0.00037112,3.2384e-12,-8.1747e-12,15.697,0.040862,13.78,17.088,0.021464,-0.0034556,-7.6585e-13,1,40.335,91.135,0,0
0.96765,17.183,13.533,0.042721,-0.00051566,3.2097e-12,-8.3922e-12,15.64,0.042721,13.612,17.104,0.021471,-0.0033946,-7.6608e-13,1,40.437,91.237,0,0
0.96249,17.165,13.401,0.044696,-0.00065885,3.181e-12,-8.6096e-12,15.584,0.044696,13.442,17.124,0.021477,-0.0033335,-7.6631e-13,1,40.538,91.338,0,0
0.9573,17.147,13.268,0.046782,-0.00077988,3.1521e-12,-8.8274e-12,15.528,0.046782,13.268,17.147,0.021483,-0.0032721,-7.6654e-13,1,40.64,91.44,0,0
0.94918,17.118,13.132,0.04423,-0.00095261,3.1547e-12,-8.7054e-12,15.47,0.04423,13.132,17.118,0.02149,-0.003211,-7.6675e-13,1,40.742,91.542,0,0
0.94106,17.09,12.996,0.04176,-0.0011239,3.1573e-12,-8.5834e-12,15.413,0.04176,12.996,17.09,0.021496,-0.0031499,-7.6697e-13,1,40.843,91.643,0,0
0.93294,17.061,12.86,0.039372,-0.0012936,3.1599e-12,-8.4615e-12,15.357,0.039372,12.86,17.061,0.021502,-0.0030889,-7.6719e-13,1,40.945,91.745,0,0
0.92481,17.033,12.725,0.037067,-0.0014619,3.1625e-12,-8.3395e-12,15.302,0.037067,12.725,17.033,0.021509,-0.0030278,-7.674e-13,1,41.046,91.846,0,0
0.91669,17.005,12.59,0.034845,-0.0016288,3.1651e-12,-8.2175e-12,15.248,0.034845,12.59,17.005,0.021515,-0.0029667,-7.6762e-13,1,41.148,91.948,0,0
0.90857,16.977,12.455,0.032705,-0.0017941,3.1677e-12,-8.0956e-12,15.195,0.032705,12.455,16.977,0.021522,-0.0029057,-7.6784e-13,1,41.25,92.05,0,0
0.90045,16.949,12.321,0.030647,-0.001958,3.1703e-12,-7.9736e-12,15.143,0.030647,12.321,16.949,0.021528,-0.0028446,-7.6805e-13,1,41.351,92.151,0,0
0.89233,16.921,12.187,0.028672,-0.0021205,3.1729e-12,-7.8517e-12,15.091,0.028672,12.187,16.921,0.021534,-0.0027835,-7.6827e-13,1,41.453,92.253,0,0
0.88421,16.893,12.053,0.026779,-0.0022814,3.1755e-12,-7.7297e-12,15.041,0.026779,12.053,16.893,0.021541,-0.0027224,-7.6849e-13,1,41.554,92.354,0,0
0.87609,16.866,11.92,0.024969,-0.0024409,3.1781e-12,-7.6078e-12,14.991,0.024969,11.92,16.866,0.021547,-0.0026614,-7.687e-13,1,41.656,92.456,0,0
0.86797,16.839,11.787,0.023241,-0.0025989,3.1807e-12,-7.4859e-12,14.942,0.023241,11.787,16.839,0.021554,-0.0026003,-7.6892e-13,1,41.758,92.558,0,0
0.85985,16.811,11.654,0.021596,-0.0027554,3.1833e-12,-7.3639e-12,14.895,0.021596,11.654,16.811,0.02156,-0.0025392,-7.6914e-13,1,41.859,92.659,0,0
0.85173,16.784,11.522,0.020033,-0.0029105,3.1859e-12,-7.242e-12,14.848,0.020033,11.522,16.784,0.021567,-0.0024782,-7.6936e-13,1,41.961,92.761,0,0
0.84361,16.757,11.39,0.018553,-0.003064,3.1885e-12,-7.1201e-12,14.802,0.018553,11.39,16.757,0.021573,-0.0024171,-7.6957e-13,1,42.062,92.862,0,0
0.83549,16.73,11.258,0.017155,-0.0032161,3.1912e-12,-6.9982e-12,14.757,0.017155,11.258,16.73,0.021579,-0.002356,-7.6979e-13,1,42.164,92.964,0,0
0.82737,16.703,11.127,0.01584,-0.0033668,3.1938e-12,-6.8763e-12,14.713,0.01584,11.127,16.703,0.021586,-0.002295,-7.7001e-13,1,42.266,93.066,0,0
0.81925,16.677,10.996,0.014607,-0.0035159,3.1964e-12,-6.7544e-12,14.67,0.014607,10.996,16.677,0.021592,-0.0022339,-7.7022e-13,1,42.367,93.167,0,0
0.81112,16.65,10.865,0.013457,-0.0036636,3.199e-12,-6.6325e-12,14.628,0.013457,10.865,16.65,0.021599,-0.0021728,-7.7044e-13,1,42.469,93.269,0,0
0.803,16.624,10.735,0.012389,-0.0038099,3.2016e-12,-6.5106e-12,14.587,0.012389,10.735,16.624,0.021605,-0.0021117,-7.7066e-13,1,42.57,93.37,0,0
0.79488,16.598,10.605,0.011404,-0.0039546,3.2042e-12,-6.3888e-12,14.547,0.011404,10.605,16.598,0.021612,-0.0020507,-7.7087e-13,1,42.672,93.472,0,0
0.78676,16.572,10.475,0.010501,-0.0040979,3.2068e-12,-6.2669e-12,14.507,0.010501,10.475,16.572,0.021618,-0.0019896,-7.7109e-13,1,42.774,93.574,0,0
0.77864,16.546,10.346,0.0096804,-0.0042397,3.2094e-12,-6.145e-12,14.469,0.0096804,10.346,16.546,0.021625,-0.0019285,-7.7131e-13,1,42.875,93.675,0,0
0.77052,16.52,10.217,0.0089425,-0.00438,3.212e-12,-6.0232e-12,14.431,0.0089425,10.217,16.52,0.021631,-0.0018675,-7.7152e-13,1,42.977,93.777,0,0
0.7624,16.494,10.088,0.0082871,-0.0045189,3.2146e-12,-5.9013e-12,14.395,0.0082871,10.088,16.494,0.021638,-0.0018064,-7.7174e-13,1,43.078,93.878,0,0
0.75428,16.468,9.9598,0.0077142,-0.0046562,3.2172e-12,-5.7794e-12,14.359,0.0077142,9.9598,16.468,0.021644,-0.0017453,-7.7196e-13,1,43.18,93.98,0,0
0.74616,16.443,9.8319,0.0072238,-0.0047921,3.2198e-12,-5.6576e-12,14.324,0.0072238,9.8319,16.443,0.021651,-0.0016842,-7.7217e-13,1,43.282,94.082,0,0
0.73804,16.418,9.7042,0.0068158,-0.0049266,3.2224e-12,-5.5358e-12,14.29,0.0068158,9.7042,16.418,0.021657,-0.0016232,-7.7239e-13,1,43.383,94.183,0,0
0.72992,16.392,9.5769,0.0064904,-0.0050595,3.225e-12,-5.4139e-12,14.258,0.0064904,9.5769,16.392,0.021664,-0.0015621,-7.7261e-13,1,43.485,94.285,0,0
0.7218,16.367,9.4499,0.0062474,-0.005191,3.2276e-12,-5.2921e-12,14.226,0.0062474,9.4499,16.367,0.02167,-0.001501,-7.7283e-13,1,43.586,94.386,0,0
0.71368,16.342,9.3233,0.0060869,-0.005321,3.2302e-12,-5.1703e-12,14.195,0.0060869,9.3233,16.342,0.021677,-0.0014399,-7.7304e-13,1,43.688,94.488,0,0
0.70556,16.317,9.197,0.0060088,-0.0054496,3.2328e-12,-5.0485e-12,14.165,0.0060088,9.197,16.317,0.021684,-0.0013789,-7.7326e-13,1,43.79,94.59,0,0
0.69743,16.293,9.071,0.0060133,-0.0055766,3.2354e-12,-4.9266e-12,14.135,0.0060133,9.071,16.293,0.02169,-0.0013178,-7.7348e-13,1,43.891,94.691,0,0
0.68931,16.268,8.9454,0.0061003,-0.0057022,3.238e-12,-4.8048e-12,14.107,0.0061003,8.9454,16.268,0.021697,-0.0012567,-7.7369e-13,1,43.993,94.793,0,0
0.68119,16.244,8.8201,0.0062697,-0.0058263,3.2406e-12,-4.683e-12,14.08,0.0062697,8.8201,16.244,0.021703,-0.0011956,-7.7391e-13,1,44.094,94.894,0,0
0.67307,16.219,8.6951,0.0065216,-0.005949,3.2432e-12,-4.5612e-12,14.053,0.0065216,8.6951,16.219,0.02171,-0.0011346,-7.7413e-13,1,44.196,94.996,0,0
0.66495,16.195,8.5705,0.006856,-0.0060702,3.2458e-12,-4.4394e-12,14.028,0.006856,8.5705,16.195,0.021716,-0.0010735,-7.7434e-13,1,44.298,95.098,0,0
0.65683,16.171,8.4462,0.0072729,-0.0061899,3.2484e-12,-4.3176e-12,14.003,0.0072729,8.4462,16.171,0.021723,-0.0010124,-7.7456e-13,1,44.399,95.199,0,0
0.64871,16.147,8.3222,0.0077723,-0.0063081,3.251e-12,-4.1959e-12,13.98,0.0077723,8.3222,16.147,0.02173,-0.00095135,-7.7478e-13,1,44.501,95.301,0,0
0.64059,16.123,8.1986,0.0083541,-0.0064248,3.2536e-12,-4.0741e-12,13.957,0.0083541,8.1986,16.123,0.021736,-0.00089027,-7.7499e-13,1,44.602,95.402,0,0
0.63247,16.1,8.0753,0.0090185,-0.0065401,3.2562e-12,-3.9523e-12,13.935,0.0090185,8.0753,16.1,0.021743,-0.0008292,-7.7521e-13,1,44.704,95.504,0,0
0.62435,16.076,7.9523,0.0097653,-0.0066539,3.2588e-12,-3.8305e-12,13.915,0.0097653,7.9523,16.076,0.021749,-0.00076812,-7.7543e-13,1,44.806,95.606,0,0
0.61623,16.053,7.8297,0.010595,-0.0067663,3.2614e-12,-3.7088e-12,13.895,0.010595,7.8297,16.053,0.021756,-0.00070704,-7.7565e-13,1,44.907,95.707,0,0
0.60811,16.029,7.7074,0.011506,-0.0068771,3.264e-12,-3.587e-12,13.876,0.011506,7.7074,16.029,0.021763,-0.00064597,-7.7586e-13,1,45.009,95.809,0,0
0.59999,16.006,7.5854,0.012501,-0.0069865,3.2667e-12,-3.4653e-12,13.858,0.012501,7.5854,16.006,0.021769,-0.00058489,-7.7608e-13,1,45.11,95.91,0,0
0.59186,15.983,7.4638,0.013577,-0.0070944,3.2693e-12,-3.3435e-12,13.84,0.013577,7.4638,15.983,0.021776,-0.00052381,-7.763e-13,1,45.212,96.012,0,0
0.58374,15.96,7.3425,0.014737,-0.0072009,3.2719e-12,-3.2218e-12,13.824,0.014737,7.3425,15.96,0.021783,-0.00046273,-7.7651e-13,1,45.314,96.114,0,0
0.57562,15.937,7.2215,0.015978,-0.0073058,3.2745e-12,-3.1e-12,13.809,0.015978,7.2215,15.937,0.021789,-0.00040165,-7.7673e-13,1,45.415,96.215,0,0
0.5675,15.915,7.1009,0.017303,-0.0074093,3.2771e-12,-2.9783e-12,13.795,0.017303,7.1009,15.915,0.021796,-0.00034058,-7.7695e-13,1,45.517,96.317,0,0
0.55938,15.892,6.9806,0.018709,-0.0075114,3.2797e-12,-2.8566e-12,13.781,0.018709,6.9806,15.892,0.021803,-0.0002795,-7.7716e-13,1,45.618,96.418,0,0
0.55123,15.869,6.8599,0.020197,-0.0075879,3.2821e-12,-2.7341e-12,13.769,0.020197,6.8599,15.869,0.021809,-0.00021805,-7.7738e-13,1,45.72,96.52,0,0
0.54979,15.839,6.7369,0.018343,-0.0077082,3.246e-12,-2.8075e-12,13.754,0.018343,6.7369,15.839,0.021816,-0.00015698,-7.7759e-13,1,45.822,96.622,0,0
0.54835,15.809,6.6142,0.016549,-0.0078271,3.2099e-12,-2.881e-12,13.74,0.016549,6.6142,15.809,0.021823,-9.5898e-05,-7.7779e-13,1,45.923,96.723,0,0
0.5469,15.779,6.4918,0.014814,-0.0079446,3.1738e-12,-2.9545e-12,13.727,0.014814,6.4917,15.779,0.021829,-3.482e-05,-7.78e-13,1,46.025,96.825,0,0
0.54546,15.75,6.3696,0.013139,-0.0080606,3.1377e-12,-3.028e-12,13.715,0.013139,6.3695,15.75,0.021836,2.6259e-05,-7.782e-13,1,46.126,96.926,0,0
0.54402,15.72,6.2476,0.011523,-0.0081753,3.1016e-12,-3.1015e-12,13.703,0.011523,6.2476,15.72,0.021843,8.7338e-05,-7.7841e-13,1,46.228,97.028,0,0
0.54258,15.69,6.1259,0.0099676,-0.0082885,3.0655e-12,-3.175e-12,13.692,0.0099676,6.1259,15.69,0.021849,0.00014842,-7.7861e-13,1,46.33,97.13,0,0
0.54113,15.661,6.0045,0.0084715,-0.0084002,3.0294e-12,-3.2486e-12,13.682,0.0084715,6.0045,15.661,0.021856,0.0002095,-7.7882e-13,1,46.431,97.231,0,0
0.53969,15.631,5.8834,0.0070352,-0.0085106,2.9932e-12,-3.3221e-12,13.673,0.0070352,5.8834,15.631,0.021863,0.00027058,-7.7902e-13,1,46.533,97.333,0,0
0.53825,15.602,5.7625,0.0056586,-0.0086195,2.9571e-12,-3.3957e-12,13.665,0.0056586,5.7625,15.602,0.02187,0.00033166,-7.7923e-13,1,46.634,97.434,0,0
0.53681,15.573,5.6419,0.0043417,-0.008727,2.921e-12,-3.4693e-12,13.657,0.0043417,5.6419,15.573,0.021876,0.00039274,-7.7943e-13,1,46.736,97.536,0,0
0.53536,15.544,5.5215,0.0030845,-0.008833,2.8849e-12,-3.5428e-12,13.65,0.0030845,5.5215,15.544,0.021883,0.00045382,-7.7963e-13,1,46.838,97.638,0,0
0.53392,15.515,5.4014,0.0018871,-0.0089377,2.8488e-12,-3.6164e-12,13.644,0.0018871,5.4014,15.515,0.02189,0.00051489,-7.7984e-13,1,46.939,97.739,0,0
0.53248,15.486,5.2816,0.00074923,-0.0090409,2.8127e-12,-3.69e-12,13.639,0.00074923,5.2816,15.486,0.021896,0.00057597,-7.8004e-13,1,47.041,97.841,0,0
0.53103,15.457,5.162,-0.0003289,-0.0091426,2.7766e-12,-3.7636e-12,13.634,-0.0003289,5.162,15.457,0.021903,0.00063705,-7.8025e-13,1,47.142,97.942,0,0
0.52959,15.428,5.0427,-0.0013473,-0.009243,2.7405e-12,-3.8372e-12,13.631,-0.0013473,5.0427,15.428,0.02191,0.00069814,-7.8045e-13,1,47.244,98.044,0,0
0.52815,15.399,4.9236,-0.0023061,-0.0093419,2.7044e-12,-3.9109e-12,13.628,-0.0023061,4.9236,15.399,0.021917,0.00075922,-7.8066e-13,1,47.346,98.146,0,0
0.52671,15.371,4.8048,-0.0032051,-0.0094394,2.6683e-12,-3.9845e-12,13.626,-0.0032051,4.8048,15.371,0.021923,0.0008203,-7.8086e-13,1,47.447,98.247,0,0
0.52526,15.342,4.6863,-0.0040445,-0.0095355,2.6322e-12,-4.0582e-12,13.624,-0.0040445,4.6863,15.342,0.02193,0.00088138,-7.8107e-13,1,47.549,98.349,0,0
0.52382,15.314,4.568,-0.0048241,-0.0096301,2.5961e-12,-4.1318e-12,13.624,-0.0048241,4.568,15.314,0.021937,0.00094246,-7.8127e-13,1,47.65,98.45,0,0
0.52238,15.286,4.45,-0.0055441,-0.0097234,2.56e-12,-4.2055e-12,13.624,-0.0055441,4.45,15.286,0.021944,0.0010035,-7.8148e-13,1,47.752,98.552,0,0
0.52094,15.258,4.3323,-0.0062043,-0.0098151,2.5239e-12,-4.2792e-12,13.625,-0.0062043,4.3323,15.258,0.02195,0.0010646,-7.8168e-13,1,47.854,98.654,0,0
0.51949,15.23,4.2148,-0.0068049,-0.0099055,2.4878e-12,-4.3529e-12,13.627,-0.0068049,4.2148,15.23,0.021957,0.0011257,-7.8189e-13,1,47.955,98.755,0,0
0.51805,15.202,4.0976,-0.0073457,-0.0099944,2.4516e-12,-4.4266e-12,13.629,-0.0073457,4.0976,15.202,0.021964,0.0011868,-7.8209e-13,1,48.057,98.857,0,0
0.51661,15.174,3.9806,-0.0078269,-0.010082,2.4155e-12,-4.5003e-12,13.633,-0.0078269,3.9806,15.174,0.021971,0.0012479,-7.823e-13,1,48.158,98.958,0,0
0.51517,15.146,3.8639,-0.0082484,-0.010168,2.3794e-12,-4.574e-12,13.637,-0.0082484,3.8639,15.146,0.021977,0.001309,-7.825e-13,1,48.26,99.06,0,0
0.51372,15.118,3.7475,-0.0086102,-0.010253,2.3433e-12,-4.6477e-12,13.642,-0.0086102,3.7475,15.118,0.021984,0.00137,-7.8271e-13,1,48.362,99.162,0,0
0.51228,15.091,3.6313,-0.0089122,-0.010336,2.3072e-12,-4.7215e-12,13.648,-0.0089123,3.6313,15.091,0.021991,0.0014311,-7.8291e-13,1,48.463,99.263,0,0
0.51084,15.063,3.5154,-0.0091546,-0.010418,2.2711e-12,-4.7952e-12,13.654,-0.0091546,3.5154,15.063,0.021998,0.0014922,-7.8312e-13,1,48.565,99.365,0,0
0.50939,15.036,3.3998,-0.0093373,-0.010498,2.235e-12,-4.869e-12,13.661,-0.0093373,3.3998,15.036,0.022004,0.0015533,-7.8332e-13,1,48.666,99.466,0,0
0.50795,15.009,3.2844,-0.0094603,-0.010577,2.1989e-12,-4.9427e-12,13.669,-0.0094603,3.2844,15.009,0.022011,0.0016144,-7.8353e-13,1,48.768,99.568,0,0
0.50651,14.981,3.1693,-0.0095236,-0.010655,2.1628e-12,-5.0165e-12,13.678,-0.0095236,3.1693,14.981,0.022018,0.0016755,-7.8373e-13,1,48.87,99.67,0,0
0.50507,14.954,3.0544,-0.0095272,-0.010731,2.1267e-12,-5.0903e-12,13.688,-0.0095272,3.0544,14.954,0.022025,0.0017365,-7.8394e-13,1,48.971,99.771,0,0
0.50362,14.927,2.9398,-0.0094711,-0.010805,2.0906e-12,-5.1641e-12,13.698,-0.0094711,2.9398,14.927,0.022032,0.0017976,-7.8414e-13,1,49.073,99.873,0,0
0.50218,14.9,2.8255,-0.0093553,-0.010879,2.0545e-12,-5.2379e-12,13.71,-0.0093554,2.8255,14.9,0.022038,0.0018587,-7.8435e-13,1,49.174,99.974,0,0
0.50074,14.874,2.7114,-0.0091799,-0.01095,2.0184e-12,-5.3117e-12,13.722,-0.0091799,2.7114,14.874,0.022045,0.0019198,-7.8455e-13,1,49.276,100.08,0,0
0.4993,14.847,2.5976,-0.0089447,-0.011021,1.9823e-12,-5.3855e-12,13.734,-0.0089447,2.5976,14.847,0.022052,0.0019809,-7.8476e-13,1,49.378,100.18,0,0
0.49785,14.82,2.4841,-0.0086498,-0.01109,1.9462e-12,-5.4594e-12,13.748,-0.0086498,2.4841,14.82,0.022059,0.002042,-7.8496e-13,1,49.479,100.28,0,0
0.49641,14.794,2.3708,-0.0082953,-0.011157,1.91e-12,-5.5332e-12,13.762,-0.0082953,2.3708,14.794,0.022066,0.0021031,-7.8517e-13,1,49.581,100.38,0,0
0.49497,14.767,2.2578,-0.007881,-0.011223,1.8739e-12,-5.6071e-12,13.777,-0.007881,2.2577,14.767,0.022072,0.0021641,-7.8537e-13,1,49.682,100.48,0,0
0.49352,14.741,2.145,-0.007407,-0.011288,1.8378e-12,-5.6809e-12,13.793,-0.007407,2.145,14.741,0.022079,0.0022252,-7.8558e-13,1,49.784,100.58,0,0
0.49208,14.715,2.0325,-0.0068734,-0.011351,1.8017e-12,-5.7548e-12,13.81,-0.0068734,2.0325,14.715,0.022086,0.0022863,-7.8578e-13,1,49.886,100.69,0,0
0.49064,14.689,1.9203,-0.00628,-0.011413,1.7656e-12,-5.8287e-12,13.827,-0.00628,1.9202,14.689,0.022093,0.0023474,-7.8599e-13,1,49.987,100.79,0,0
0.4892,14.663,1.8083,-0.005627,-0.011474,1.7295e-12,-5.9026e-12,13.846,-0.005627,1.8083,14.663,0.0221,0.0024085,-7.8619e-13,1,50.089,100.89,0,0
0.48775,14.637,1.6966,-0.0049142,-0.011533,1.6934e-12,-5.9765e-12,13.865,-0.0049142,1.6965,14.637,0.022107,0.0024696,-7.864e-13,1,50.19,100.99,0,0
0.48631,14.611,1.5851,-0.0041418,-0.01159,1.6573e-12,-6.0504e-12,13.885,-0.0041418,1.5851,14.611,0.022113,0.0025307,-7.866e-13,1,50.292,101.09,0,0
0.48487,14.585,1.4739,-0.0033096,-0.011646,1.6212e-12,-6.1243e-12,13.905,-0.0033096,1.4739,14.585,0.02212,0.0025917,-7.8681e-13,1,50.394,101.19,0,0
0.48343,14.56,1.363,-0.0024178,-0.011701,1.5851e-12,-6.1982e-12,13.927,-0.0024179,1.363,14.56,0.022127,0.0026528,-7.8701e-13,1,50.495,101.3,0,0
0.48198,14.534,1.2523,-0.0014663,-0.011754,1.549e-12,-6.2721e-12,13.949,-0.0014663,1.2523,14.534,0.022134,0.0027139,-7.8722e-13,1,50.597,101.4,0,0
0.48054,14.509,1.1419,-0.00045509,-0.011806,1.5129e-12,-6.3461e-12,13.972,-0.00045509,1.1419,14.509,0.022141,0.002775,-7.8742e-13,1,50.698,101.5,0,0
0.4791,14.483,1.0311,0.00061535,-0.01183,1.4761e-12,-6.4205e-12,13.996,0.00046491,1.0313,14.483,0.022148,0.0028365,-7.8153e-13,1,50.8,101.6,0,0
0.47964,14.452,0.91875,-0.00073496,-0.011894,1.325e-12,-6.6863e-12,14.017,-0.050951,0.96895,14.452,0.022155,0.0028976,1.1778e-12,1,50.902,101.7,0,0
0.48018,14.422,0.80659,-0.0020419,-0.011957,1.1818e-12,-6.9521e-12,14.039,-0.1038,0.90834,14.422,0.022161,0.0029586,3.0572e-12,1,51.003,101.8,0,0
0.48072,14.391,0.69464,-0.0033054,-0.012019,1.0467e-12,-7.218e-12,14.061,-0.1581,0.84942,14.391,0.022168,0.0030197,4.8566e-12,1,51.105,101.9,0,0
0.48126,14.36,0.5829,-0.0045255,-0.012079,9.1953e-13,-7.4838e-12,14.084,-0.21382,0.79219,14.36,0.022175,0.0030808,6.576e-12,1,51.206,102.01,0,0
0.4818,14.33,0.47137,-0.0057023,-0.012138,8.0038e-13,-7.7496e-12,14.108,-0.27099,0.73665,14.33,0.022182,0.0031419,8.2154e-12,1,51.308,102.11,0,0
0.48234,14.299,0.36005,-0.0068356,-0.012195,6.8923e-13,-8.0155e-12,14.131,-0.32959,0.6828,14.299,0.022189,0.003203,9.7749e-12,1,51.41,102.21,0,0
0.48288,14.269,0.24894,-0.0079256,-0.012252,5.8607e-13,-8.2814e-12,14.156,-0.38964,0.63064,14.269,0.022196,0.0032641,1.1254e-11,1,51.511,102.31,0,0
0.48342,14.238,0.13804,-0.0089722,-0.012307,4.9091e-13,-8.5472e-12,14.181,-0.45111,0.58017,14.238,0.022203,0.0033252,1.2654e-11,1,51.613,102.41,0,0
0.48396,14.208,0.027349,-0.0099753,-0.012361,4.0375e-13,-8.8131e-12,14.206,-0.51403,0.53139,14.208,0.022209,0.0033863,1.3973e-11,1,51.714,102.51,0,0
0.4845,14.178,-0.083138,-0.010935,-0.012413,3.2459e-13,-9.0789e-12,14.232,-0.57838,0.4843,14.178,0.022216,0.0034474,1.5213e-11,1,51.816,102.62,0,0
0.48504,14.148,-0.19342,-0.011852,-0.012464,2.5342e-13,-9.3448e-12,14.258,-0.64417,0.43889,14.148,0.022223,0.0035084,1.6372e-11,1,51.918,102.72,0,0
0.48558,14.118,-0.30348,-0.012725,-0.012514,1.9025e-13,-9.6107e-12,14.284,-0.7114,0.39518,14.118,0.02223,0.0035695,1.7452e-11,1,52.019,102.82,0,0
0.48612,14.088,-0.41334,-0.013554,-0.012563,1.3508e-13,-9.8766e-12,14.312,-0.78007,0.35316,14.088,0.022237,0.0036306,1.8452e-11,1,52.121,102.92,0,0
0.48666,14.058,-0.523,-0.01434,-0.012611,8.7901e-14,-1.0142e-11,14.339,-0.85017,0.31283,14.058,0.022244,0.0036917,1.9371e-11,1,52.222,103.02,0,0
0.4872,14.028,-0.63244,-0.015083,-0.012657,4.8723e-14,-1.0408e-11,14.368,-0.92171,0.27418,14.028,0.022251,0.0037528,2.0211e-11,1,52.324,103.12,0,0
0.48774,13.999,-0.74167,-0.015783,-0.012702,1.7544e-14,-1.0674e-11,14.396,-0.99469,0.23723,13.999,0.022258,0.0038139,2.0971e-11,1,52.426,103.23,0,0
0.48828,13.969,-0.8507,-0.016439,-0.012745,-5.6388e-15,-1.094e-11,14.425,-1.0691,0.20196,13.969,0.022264,0.003875,2.165e-11,1,52.527,103.33,0,0
0.48882,13.939,-0.95952,-0.017052,-0.012788,-2.0823e-14,-1.1206e-11,14.455,-1.145,0.16839,13.939,0.022271,0.0039361,2.225e-11,1,52.629,103.43,0,0
0.48936,13.91,-1.0681,-0.017621,-0.012829,-2.8011e-14,-1.1472e-11,14.485,-1.2223,0.1365,13.91,0.022278,0.0039972,2.277e-11,1,52.73,103.53,0,0
0.4899,13.88,-1.1765,-0.018147,-0.012868,-2.72e-14,-1.1738e-11,14.516,-1.301,0.10631,13.88,0.022285,0.0040583,2.321e-11,1,52.832,103.63,0,0
0.49044,13.851,-1.2847,-0.018629,-0.012907,-1.8393e-14,-1.2004e-11,14.547,-1.3812,0.077807,13.851,0.022292,0.0041194,2.357e-11,1,52.934,103.73,0,0
0.49098,13.822,-1.3927,-0.019068,-0.012944,-1.5877e-15,-1.227e-11,14.578,-1.4628,0.050991,13.822,0.022299,0.0041804,2.3849e-11,1,53.035,103.84,0,0
0.49152,13.793,-1.5005,-0.019464,-0.01298,2.3215e-14,-1.2536e-11,14.61,-1.5458,0.025865,13.793,0.022306,0.0042415,2.4049e-11,1,53.137,103.94,0,0
0.49206,13.763,-1.608,-0.019817,-0.013015,5.6015e-14,-1.2802e-11,14.643,-1.6303,0.0024292,13.763,0.022313,0.0043026,2.4169e-11,1,53.238,104.04,0,0
0.4926,13.734,-1.7154,-0.020125,-0.013048,9.6813e-14,-1.3068e-11,14.676,-1.7162,-0.019317,13.734,0.02232,0.0043637,2.4209e-11,1,53.34,104.14,0,0
0.49314,13.705,-1.8225,-0.020391,-0.01308,1.4561e-13,-1.3334e-11,14.709,-1.8036,-0.039374,13.705,0.022326,0.0044248,2.4169e-11,1,53.442,104.24,0,0
0.49368,13.677,-1.9295,-0.020613,-0.013111,2.024e-13,-1.36e-11,14.743,-1.8923,-0.057741,13.677,0.022333,0.0044859,2.4049e-11,1,53.543,104.34,0,0
0.49422,13.648,-2.0362,-0.020792,-0.013141,2.6719e-13,-1.3865e-11,14.778,-1.9826,-0.074418,13.648,0.02234,0.004547,2.3849e-11,1,53.645,104.44,0,0
0.49476,13.619,-2.1427,-0.020927,-0.013169,3.3998e-13,-1.4131e-11,14.813,-2.0742,-0.089405,13.619,0.022347,0.0046081,2.3569e-11,1,53.746,104.55,0,0
0.4953,13.59,-2.249,-0.02102,-0.013196,4.2077e-13,-1.4397e-11,14.848,-2.1674,-0.1027,13.59,0.022354,0.0046692,2.3209e-11,1,53.848,104.65,0,0
0.49584,13.562,-2.3551,-0.021068,-0.013222,5.0955e-13,-1.4663e-11,14.884,-2.2619,-0.11431,13.562,0.022361,0.0047303,2.2769e-11,1,53.95,104.75,0,0
0.49638,13.533,-2.461,-0.021073,-0.013246,6.0632e-13,-1.4929e-11,14.92,-2.3579,-0.12423,13.533,0.022368,0.0047914,2.2249e-11,1,54.051,104.85,0,0
0.49692,13.505,-2.5667,-0.021035,-0.013269,7.111e-13,-1.5195e-11,14.957,-2.4553,-0.13246,13.505,0.022375,0.0048525,2.1649e-11,1,54.153,104.95,0,0
0.49746,13.476,-2.6722,-0.020954,-0.013291,8.2388e-13,-1.5461e-11,14.995,-2.5541,-0.139,13.476,0.022382,0.0049136,2.0969e-11,1,54.254,105.05,0,0
0.498,13.448,-2.7774,-0.020829,-0.013312,9.4465e-13,-1.5727e-11,15.033,-2.6544,-0.14384,13.448,0.022389,0.0049747,2.0209e-11,1,54.356,105.16,0,0
0.49854,13.42,-2.8825,-0.020661,-0.013331,1.0734e-12,-1.5993e-11,15.071,-2.7562,-0.147,13.42,0.022396,0.0050358,1.937e-11,1,54.458,105.26,0,0
0.49908,13.392,-2.9874,-0.020449,-0.013349,1.2102e-12,-1.6259e-11,15.11,-2.8593,-0.14847,13.392,0.022402,0.0050969,1.845e-11,1,54.559,105.36,0,0
0.49962,13.364,-3.092,-0.020194,-0.013366,1.355e-12,-1.6525e-11,15.149,-2.9639,-0.14825,13.364,0.022409,0.005158,1.745e-11,1,54.661,105.46,0,0
0.50016,13.336,-3.1964,-0.019895,-0.013382,1.5077e-12,-1.6791e-11,15.189,-3.07,-0.14634,13.336,0.022416,0.005219,1.637e-11,1,54.762,105.56,0,0
0.5007,13.308,-3.3007,-0.019553,-0.013396,1.6685e-12,-1.7057e-11,15.229,-3.1775,-0.14274,13.308,0.022423,0.0052801,1.5211e-11,1,54.864,105.66,0,0
0.50124,13.28,-3.4047,-0.019168,-0.013409,1.8372e-12,-1.7323e-11,15.27,-3.2864,-0.13745,13.28,0.02243,0.0053412,1.3971e-11,1,54.966,105.77,0,0
0.50178,13.252,-3.5085,-0.01874,-0.01342,2.014e-12,-1.7589e-11,15.311,-3.3967,-0.13047,13.252,0.022437,0.0054023,1.2651e-11,1,55.067,105.87,0,0
0.50232,13.224,-3.6121,-0.018268,-0.013431,2.1988e-12,-1.7855e-11,15.353,-3.5085,-0.12181,13.224,0.022444,0.0054634,1.1251e-11,1,55.169,105.97,0,0
0.50286,13.197,-3.7155,-0.017752,-0.01344,2.3915e-12,-1.8121e-11,15.395,-3.6218,-0.11145,13.197,0.022451,0.0055245,9.7719e-12,1,55.27,106.07,0,0
0.5034,13.169,-3.8186,-0.017193,-0.013448,2.5922e-12,-1.8387e-11,15.438,-3.7364,-0.099399,13.169,0.022458,0.0055856,8.2123e-12,1,55.372,106.17,0,0
0.50394,13.142,-3.9216,-0.016591,-0.013454,2.801e-12,-1.8653e-11,15.481,-3.8525,-0.085661,13.142,0.022465,0.0056467,6.5727e-12,1,55.474,106.27,0,0
0.50448,13.114,-4.0244,-0.015946,-0.01346,3.0177e-12,-1.8919e-11,15.524,-3.9701,-0.070233,13.114,0.022472,0.0057078,4.8531e-12,1,55.575,106.38,0,0
0.50502,13.087,-4.1269,-0.015257,-0.013464,3.2425e-12,-1.9185e-11,15.569,-4.0891,-0.053116,13.087,0.022479,0.0057689,3.0536e-12,1,55.677,106.48,0,0
0.50556,13.06,-4.2293,-0.014524,-0.013466,3.4752e-12,-1.9451e-11,15.613,-4.2095,-0.034308,13.06,0.022486,0.00583,1.1741e-12,1,55.778,106.58,0,0
0.50621,13.033,-4.332,-0.013748,-0.01344,3.7168e-12,-1.9717e-11,15.659,-4.332,-0.013748,13.033,0.022492,0.0058915,-7.8486e-13,1,55.88,106.68,0,0
0.54012,13.001,-4.4358,-0.014731,-0.013453,3.7476e-12,-1.9386e-11,15.702,-4.4358,-0.014731,13.001,0.022499,0.0059526,1.1742e-12,1,55.982,106.78,0,0
0.57404,12.97,-4.5395,-0.015683,-0.013465,3.7785e-12,-1.9055e-11,15.745,-4.5395,-0.015683,12.97,0.022506,0.0060137,3.0533e-12,1,56.083,106.88,0,0
0.60795,12.939,-4.6429,-0.016602,-0.013476,3.8094e-12,-1.8724e-11,15.788,-4.6429,-0.016602,12.939,0.022513,0.0060748,4.8524e-12,1,56.185,106.98,0,0
0.64186,12.908,-4.7462,-0.01749,-0.013486,3.8402e-12,-1.8392e-11,15.832,-4.7462,-0.01749,12.908,0.02252,0.0061359,6.5715e-12,1,56.286,107.09,0,0
0.67577,12.877,-4.8494,-0.018347,-0.013495,3.8711e-12,-1.8061e-11,15.876,-4.8494,-0.018347,12.877,0.022527,0.006197,8.2107e-12,1,56.388,107.19,0,0
0.70968,12.847,-4.9523,-0.019172,-0.013502,3.9019e-12,-1.773e-11,15.92,-4.9523,-0.019172,12.847,0.022534,0.0062581,9.7697e-12,1,56.49,107.29,0,0
0.7436,12.816,-5.0551,-0.019965,-0.013509,3.9328e-12,-1.7399e-11,15.964,-5.0551,-0.019965,12.816,0.022541,0.0063192,1.1249e-11,1,56.591,107.39,0,0
0.77751,12.785,-5.1577,-0.020727,-0.013514,3.9636e-12,-1.7067e-11,16.009,-5.1577,-0.020727,12.785,0.022548,0.0063803,1.2648e-11,1,56.693,107.49,0,0
0.81142,12.754,-5.2602,-0.021457,-0.013519,3.9945e-12,-1.6736e-11,16.054,-5.2602,-0.021457,12.754,0.022555,0.0064414,1.3967e-11,1,56.794,107.59,0,0
0.84533,12.724,-5.3625,-0.022155,-0.013522,4.0253e-12,-1.6405e-11,16.099,-5.3625,-0.022155,12.724,0.022562,0.0065025,1.5207e-11,1,56.896,107.7,0,0
0.87925,12.693,-5.4646,-0.022822,-0.013524,4.0562e-12,-1.6074e-11,16.145,-5.4646,-0.022822,12.693,0.022569,0.0065636,1.6366e-11,1,56.998,107.8,0,0
0.91316,12.663,-5.5665,-0.023458,-0.013526,4.087e-12,-1.5743e-11,16.19,-5.5665,-0.023458,12.663,0.022576,0.0066247,1.7445e-11,1,57.099,107.9,0,0
0.94707,12.632,-5.6683,-0.024062,-0.013526,4.1179e-12,-1.5411e-11,16.236,-5.6683,-0.024062,12.632,0.022583,0.0066858,1.8445e-11,1,57.201,108,0,0
0.98099,12.602,-5.7699,-0.024634,-0.013525,4.1487e-12,-1.508e-11,16.282,-5.7699,-0.024634,12.602,0.02259,0.0067469,1.9364e-11,1,57.302,108.1,0,0
1.0149,12.572,-5.8714,-0.025174,-0.013523,4.1796e-12,-1.4749e-11,16.329,-5.8714,-0.025174,12.572,0.022596,0.006808,2.0204e-11,1,57.404,108.2,0,0
1.0488,12.541,-5.9726,-0.025683,-0.01352,4.2104e-12,-1.4418e-11,16.375,-5.9726,-0.025683,12.541,0.022603,0.0068691,2.0963e-11,1,57.506,108.31,0,0
1.0827,12.511,-6.0737,-0.026161,-0.013515,4.2413e-12,-1.4086e-11,16.422,-6.0737,-0.026161,12.511,0.02261,0.0069302,2.1642e-11,1,57.607,108.41,0,0
1.1166,12.481,-6.1747,-0.026607,-0.01351,4.2722e-12,-1.3755e-11,16.469,-6.1747,-0.026607,12.481,0.022617,0.0069913,2.2242e-11,1,57.709,108.51,0,0
1.1505,12.451,-6.2754,-0.027021,-0.013504,4.303e-12,-1.3424e-11,16.517,-6.2754,-0.027021,12.451,0.022624,0.0070524,2.2761e-11,1,57.81,108.61,0,0
1.1845,12.421,-6.376,-0.027403,-0.013496,4.3339e-12,-1.3093e-11,16.564,-6.376,-0.027403,12.421,0.022631,0.0071135,2.3201e-11,1,57.912,108.71,0,0
1.2184,12.391,-6.4765,-0.027754,-0.013488,4.3647e-12,-1.2761e-11,16.612,-6.4765,-0.027754,12.391,0.022638,0.0071746,2.356e-11,1,58.014,108.81,0,0
1.2523,12.361,-6.5767,-0.028074,-0.013478,4.3956e-12,-1.243e-11,16.66,-6.5767,-0.028074,12.361,0.022645,0.0072357,2.384e-11,1,58.115,108.92,0,0
1.2862,12.331,-6.6768,-0.028362,-0.013468,4.4264e-12,-1.2099e-11,16.708,-6.6768,-0.028362,12.331,0.022652,0.0072968,2.404e-11,1,58.217,109.02,0,0
1.3201,12.302,-6.7767,-0.028618,-0.013456,4.4573e-12,-1.1768e-11,16.757,-6.7767,-0.028618,12.302,0.022659,0.0073579,2.4159e-11,1,58.318,109.12,0,0
1.354,12.272,-6.8765,-0.028843,-0.013443,4.4881e-12,-1.1437e-11,16.806,-6.8765,-0.028843,12.272,0.022666,0.007419,2.4199e-11,1,58.42,109.22,0,0
1.3879,12.242,-6.9761,-0.029036,-0.013429,4.519e-12,-1.1105e-11,16.855,-6.9761,-0.029036,12.242,0.022673,0.0074801,2.4159e-11,1,58.522,109.32,0,0
1.4218,12.213,-7.0755,-0.029197,-0.013414,4.5498e-12,-1.0774e-11,16.904,-7.0755,-0.029197,12.213,0.02268,0.0075412,2.4038e-11,1,58.623,109.42,0,0
1.4558,12.183,-7.1747,-0.029327,-0.013398,4.5807e-12,-1.0443e-11,16.953,-7.1747,-0.029327,12.183,0.022687,0.0076023,2.3838e-11,1,58.725,109.52,0,0
1.4897,12.154,-7.2738,-0.029426,-0.013381,4.6115e-12,-1.0112e-11,17.003,-7.2738,-0.029426,12.154,0.022694,0.0076634,2.3558e-11,1,58.826,109.63,0,0
1.5236,12.124,-7.3727,-0.029492,-0.013363,4.6424e-12,-9.7804e-12,17.053,-7.3727,-0.029492,12.124,0.022701,0.0077245,2.3198e-11,1,58.928,109.73,0,0
1.5575,12.095,-7.4715,-0.029528,-0.013344,4.6733e-12,-9.4491e-12,17.103,-7.4715,-0.029528,12.095,0.022707,0.0077856,2.2757e-11,1,59.03,109.83,0,0
1.5914,12.065,-7.57,-0.029531,-0.013323,4.7041e-12,-9.1179e-12,17.154,-7.57,-0.029531,12.065,0.022714,0.0078467,2.2237e-11,1,59.131,109.93,0,0
1.6253,12.036,-7.6684,-0.029503,-0.013302,4.735e-12,-8.7867e-12,17.205,-7.6684,-0.029503,12.036,0.022721,0.0079078,2.1637e-11,1,59.233,110.03,0,0
1.6592,12.007,-7.7667,-0.029443,-0.01328,4.7658e-12,-8.4554e-12,17.256,-7.7667,-0.029443,12.007,0.022728,0.0079689,2.0957e-11,1,59.334,110.13,0,0
1.6931,11.978,-7.8647,-0.029352,-0.013256,4.7967e-12,-8.1242e-12,17.307,-7.8648,-0.029352,11.978,0.022735,0.00803,2.0197e-11,1,59.436,110.24,0,0
1.7271,11.949,-7.9626,-0.029229,-0.013231,4.8275e-12,-7.793e-12,17.358,-7.9627,-0.029229,11.949,0.022742,0.0080911,1.9357e-11,1,59.538,110.34,0,0
1.761,11.92,-8.0604,-0.029075,-0.013206,4.8584e-12,-7.4617e-12,17.41,-8.0604,-0.029075,11.92,0.022749,0.0081522,1.8437e-11,1,59.639,110.44,0,0
1.7949,11.891,-8.1579,-0.028889,-0.013179,4.8892e-12,-7.1305e-12,17.462,-8.1579,-0.028889,11.891,0.022756,0.0082133,1.7437e-11,1,59.741,110.54,0,0
1.8288,11.862,-8.2553,-0.028671,-0.013151,4.9201e-12,-6.7993e-12,17.514,-8.2553,-0.028671,11.862,0.022763,0.0082744,1.6357e-11,1,59.842,110.64,0,0
1.8627,11.833,-8.3526,-0.028422,-0.013122,4.9509e-12,-6.468e-12,17.567,-8.3526,-0.028422,11.833,0.02277,0.0083356,1.5197e-11,1,59.944,110.74,0,0
1.8966,11.804,-8.4496,-0.028142,-0.013092,4.9818e-12,-6.1368e-12,17.619,-8.4496,-0.028142,11.804,0.022777,0.0083967,1.3957e-11,1,60.046,110.85,0,0
1.9305,11.776,-8.5465,-0.027829,-0.013061,5.0126e-12,-5.8056e-12,17.672,-8.5465,-0.027829,11.776,0.022784,0.0084578,1.2637e-11,1,60.147,110.95,0,0
1.9644,11.747,-8.6432,-0.027485,-0.013029,5.0435e-12,-5.4744e-12,17.725,-8.6432,-0.027485,11.747,0.022791,0.0085189,1.1237e-11,1,60.249,111.05,0,0
1.9984,11.718,-8.7398,-0.02711,-0.012995,5.0744e-12,-5.1431e-12,17.779,-8.7398,-0.02711,11.718,0.022798,0.00858,9.7571e-12,1,60.35,111.15,0,0
2.0323,11.69,-8.8361,-0.026703,-0.012961,5.1052e-12,-4.8119e-12,17.832,-8.8361,-0.026703,11.69,0.022805,0.0086411,8.1972e-12,1,60.452,111.25,0,0
2.0662,11.661,-8.9323,-0.026264,-0.012926,5.1361e-12,-4.4807e-12,17.886,-8.9324,-0.026264,11.661,0.022812,0.0087022,6.5574e-12,1,60.554,111.35,0,0
2.1001,11.633,-9.0284,-0.025794,-0.012889,5.1669e-12,-4.1494e-12,17.94,-9.0284,-0.025794,11.633,0.022819,0.0087633,4.8376e-12,1,60.655,111.46,0,0
2.134,11.604,-9.1243,-0.025292,-0.012852,5.1978e-12,-3.8182e-12,17.995,-9.1243,-0.025292,11.604,0.022825,0.0088244,3.0378e-12,1,60.757,111.56,0,0
2.1679,11.576,-9.22,-0.024758,-0.012813,5.2286e-12,-3.4869e-12,18.049,-9.22,-0.024758,11.576,0.022832,0.0088855,1.158e-12,1,60.858,111.66,0,0
2.2019,11.548,-9.3161,-0.024193,-0.012745,5.2591e-12,-3.1546e-12,18.105,-9.3161,-0.024193,11.548,0.022839,0.008947,-8.0805e-13,1,60.96,111.76,0,0
2.2019,11.517,-9.4129,-0.024905,-0.012718,5.0939e-12,-3.1315e-12,18.158,-9.4129,-0.024905,11.517,0.022846,0.0090081,-8.4742e-13,1,61.062,111.86,0,0
2.2019,11.486,-9.5096,-0.025594,-0.01269,4.9287e-12,-3.1083e-12,18.211,-9.5096,-0.025594,11.486,0.022853,0.0090692,-8.8518e-13,1,61.163,111.96,0,0
2.2019,11.455,-9.6061,-0.026261,-0.012661,4.7636e-12,-3.0852e-12,18.265,-9.6061,-0.026261,11.455,0.02286,0.0091303,-9.2134e-13,1,61.265,112.06,0,0
2.2019,11.424,-9.7025,-0.026904,-0.012631,4.5984e-12,-3.062e-12,18.319,-9.7025,-0.026904,11.424,0.022867,0.0091914,-9.559e-13,1,61.366,112.17,0,0
2.2019,11.393,-9.7988,-0.027525,-0.0126,4.4333e-12,-3.0389e-12,18.373,-9.7988,-0.027525,11.393,0.022874,0.0092525,-9.8887e-13,1,61.468,112.27,0,0
2.2019,11.362,-9.8949,-0.028123,-0.012569,4.2681e-12,-3.0157e-12,18.427,-9.8949,-0.028123,11.362,0.022881,0.0093136,-1.0202e-12,1,61.57,112.37,0,0
2.2019,11.331,-9.9909,-0.028697,-0.012536,4.1029e-12,-2.9925e-12,18.481,-9.9909,-0.028697,11.331,0.022888,0.0093748,-1.05e-12,1,61.671,112.47,0,0
2.2019,11.3,-10.087,-0.029249,-0.012503,3.9378e-12,-2.9694e-12,18.535,-10.087,-0.029249,11.3,0.022895,0.0094359,-1.0782e-12,1,61.773,112.57,0,0
2.2019,11.27,-10.182,-0.029778,-0.012469,3.7726e-12,-2.9462e-12,18.589,-10.182,-0.029778,11.27,0.022902,0.009497,-1.1047e-12,1,61.874,112.67,0,0
2.2019,11.239,-10.278,-0.030284,-0.012434,3.6074e-12,-2.9231e-12,18.644,-10.278,-0.030284,11.239,0.022909,0.0095581,-1.1297e-12,1,61.976,112.78,0,0
2.2019,11.208,-10.373,-0.030766,-0.012398,3.4423e-12,-2.8999e-12,18.698,-10.373,-0.030766,11.208,0.022916,0.0096192,-1.153e-12,1,62.078,112.88,0,0
2.2019,11.178,-10.469,-0.031226,-0.012361,3.2771e-12,-2.8768e-12,18.753,-10.469,-0.031226,11.178,0.022923,0.0096803,-1.1748e-12,1,62.179,112.98,0,0
2.2019,11.147,-10.564,-0.031663,-0.012324,3.1119e-12,-2.8536e-12,18.807,-10.564,-0.031663,11.147,0.02293,0.0097414,-1.1949e-12,1,62.281,113.08,0,0
2.2019,11.117,-10.659,-0.032077,-0.012285,2.9468e-12,-2.8304e-12,18.862,-10.659,-0.032077,11.117,0.022936,0.0098025,-1.2135e-12,1,62.382,113.18,0,0
2.2019,11.086,-10.754,-0.032468,-0.012246,2.7816e-12,-2.8073e-12,18.917,-10.754,-0.032468,11.086,0.022943,0.0098637,-1.2305e-12,1,62.484,113.28,0,0
2.2019,11.056,-10.849,-0.032836,-0.012206,2.6165e-12,-2.7841e-12,18.972,-10.849,-0.032836,11.056,0.02295,0.0099248,-1.2458e-12,1,62.586,113.39,0,0
2.2019,11.025,-10.943,-0.033181,-0.012165,2.4513e-12,-2.761e-12,19.027,-10.943,-0.033181,11.025,0.022957,0.0099859,-1.2596e-12,1,62.687,113.49,0,0
2.2019,10.995,-11.038,-0.033504,-0.012123,2.2861e-12,-2.7378e-12,19.082,-11.038,-0.033504,10.995,0.022964,0.010047,-1.2717e-12,1,62.789,113.59,0,0
2.2019,10.965,-11.132,-0.033803,-0.012081,2.121e-12,-2.7147e-12,19.138,-11.132,-0.033803,10.965,0.022971,0.010108,-1.2823e-12,1,62.89,113.69,0,0
2.2019,10.935,-11.226,-0.034079,-0.012037,1.9558e-12,-2.6915e-12,19.193,-11.226,-0.034079,10.935,0.022978,0.010169,-1.2912e-12,1,62.992,113.79,0,0
2.2019,10.904,-11.32,-0.034332,-0.011993,1.7907e-12,-2.6683e-12,19.249,-11.32,-0.034332,10.904,0.022985,0.01023,-1.2986e-12,1,63.094,113.89,0,0
2.2019,10.874,-11.414,-0.034563,-0.011947,1.6255e-12,-2.6452e-12,19.304,-11.414,-0.034563,10.874,0.022992,0.010291,-1.3044e-12,1,63.195,114,0,0
2.2019,10.844,-11.508,-0.03477,-0.011901,1.4603e-12,-2.622e-12,19.36,-11.508,-0.03477,10.844,0.022999,0.010353,-1.3085e-12,1,63.297,114.1,0,0
2.2019,10.814,-11.602,-0.034954,-0.011854,1.2952e-12,-2.5989e-12,19.416,-11.602,-0.034954,10.814,0.023006,0.010414,-1.3111e-12,1,63.398,114.2,0,0
2.2019,10.784,-11.695,-0.035116,-0.011806,1.13e-12,-2.5757e-12,19.472,-11.695,-0.035116,10.784,0.023013,0.010475,-1.312e-12,1,63.5,114.3,0,0
2.2019,10.754,-11.788,-0.035254,-0.011758,9.6483e-13,-2.5526e-12,19.528,-11.788,-0.035254,10.754,0.02302,0.010536,-1.3114e-12,1,63.602,114.4,0,0
2.2019,10.724,-11.882,-0.03537,-0.011708,7.9968e-13,-2.5294e-12,19.584,-11.882,-0.03537,10.724,0.023026,0.010597,-1.3091e-12,1,63.703,114.5,0,0
2.2019,10.695,-11.975,-0.035463,-0.011657,6.3452e-13,-2.5062e-12,19.641,-11.975,-0.035463,10.695,0.023033,0.010658,-1.3053e-12,1,63.805,114.6,0,0
2.2019,10.665,-12.068,-0.035532,-0.011606,4.6935e-13,-2.4831e-12,19.697,-12.068,-0.035532,10.665,0.02304,0.010719,-1.2998e-12,1,63.906,114.71,0,0
2.2019,10.635,-12.16,-0.035579,-0.011554,3.0419e-13,-2.4599e-12,19.754,-12.16,-0.035579,10.635,0.023047,0.01078,-1.2928e-12,1,64.008,114.81,0,0
2.2019,10.605,-12.253,-0.035603,-0.011501,1.3902e-13,-2.4368e-12,19.81,-12.253,-0.035603,10.605,0.023054,0.010841,-1.2841e-12,1,64.11,114.91,0,0
2.2019,10.576,-12.346,-0.035603,-0.011447,-2.6142e-14,-2.4136e-12,19.867,-12.346,-0.035603,10.576,0.023061,0.010903,-1.2739e-12,1,64.211,115.01,0,0
2.2019,10.546,-12.438,-0.035581,-0.011392,-1.9131e-13,-2.3905e-12,19.924,-12.438,-0.035581,10.546,0.023068,0.010964,-1.262e-12,1,64.313,115.11,0,0
2.2019,10.516,-12.53,-0.035536,-0.011337,-3.5647e-13,-2.3673e-12,19.981,-12.53,-0.035536,10.516,0.023075,0.011025,-1.2486e-12,1,64.414,115.21,0,0
2.2019,10.487,-12.622,-0.035468,-0.01128,-5.2164e-13,-2.3441e-12,20.038,-12.622,-0.035468,10.487,0.023082,0.011086,-1.2335e-12,1,64.516,115.32,0,0
2.2019,10.457,-12.714,-0.035377,-0.011223,-6.868e-13,-2.321e-12,20.095,-12.714,-0.035377,10.457,0.023089,0.011147,-1.2169e-12,1,64.618,115.42,0,0
2.2019,10.428,-12.806,-0.035263,-0.011165,-8.5197e-13,-2.2978e-12,20.152,-12.806,-0.035263,10.428,0.023096,0.011208,-1.1986e-12,1,64.719,115.52,0,0
2.2019,10.399,-12.898,-0.035126,-0.011106,-1.0171e-12,-2.2747e-12,20.21,-12.898,-0.035126,10.399,0.023103,0.011269,-1.1788e-12,1,64.821,115.62,0,0
2.2019,10.369,-12.989,-0.034966,-0.011046,-1.1823e-12,-2.2515e-12,20.267,-12.989,-0.034966,10.369,0.023109,0.01133,-1.1573e-12,1,64.922,115.72,0,0
2.2019,10.34,-13.081,-0.034783,-0.010985,-1.3474e-12,-2.2284e-12,20.325,-13.081,-0.034783,10.34,0.023116,0.011391,-1.1343e-12,1,65.024,115.82,0,0
2.2019,10.311,-13.172,-0.034578,-0.010924,-1.5126e-12,-2.2052e-12,20.383,-13.172,-0.034578,10.311,0.023123,0.011453,-1.1096e-12,1,65.126,115.93,0,0
2.2019,10.282,-13.263,-0.034349,-0.010861,-1.6778e-12,-2.182e-12,20.44,-13.263,-0.034349,10.282,0.02313,0.011514,-1.0834e-12,1,65.227,116.03,0,0
2.2019,10.252,-13.354,-0.034097,-0.010798,-1.8429e-12,-2.1589e-12,20.498,-13.354,-0.034097,10.252,0.023137,0.011575,-1.0555e-12,1,65.329,116.13,0,0
2.2019,10.223,-13.445,-0.033823,-0.010733,-2.0081e-12,-2.1357e-12,20.556,-13.445,-0.033823,10.223,0.023144,0.011636,-1.026e-12,1,65.43,116.23,0,0
2.2019,10.194,-13.536,-0.033525,-0.010668,-2.1733e-12,-2.1126e-12,20.614,-13.536,-0.033525,10.194,0.023151,0.011697,-9.9499e-13,1,65.532,116.33,0,0
2.2019,10.165,-13.627,-0.033204,-0.010603,-2.3384e-12,-2.0894e-12,20.673,-13.627,-0.033204,10.165,0.023158,0.011758,-9.6234e-13,1,65.634,116.43,0,0
2.2019,10.136,-13.717,-0.032861,-0.010536,-2.5036e-12,-2.0663e-12,20.731,-13.717,-0.032861,10.136,0.023165,0.011819,-9.2808e-13,1,65.735,116.54,0,0
2.2019,10.107,-13.807,-0.032494,-0.010468,-2.6688e-12,-2.0431e-12,20.789,-13.807,-0.032494,10.107,0.023172,0.01188,-8.9223e-13,1,65.837,116.64,0,0
2.2019,10.078,-13.897,-0.032105,-0.0104,-2.8339e-12,-2.0199e-12,20.848,-13.897,-0.032105,10.078,0.023178,0.011941,-8.5477e-13,1,65.938,116.74,0,0
2.2019,10.049,-13.988,-0.031692,-0.010302,-2.999e-12,-1.9961e-12,20.907,-13.988,-0.031692,10.049,0.023185,0.012003,-8.156e-13,1,66.04,116.84,0,0
2.1793,10.019,-14.079,-0.032203,-0.010248,-2.8273e-12,-1.7969e-12,20.965,-14.079,-0.032203,10.019,0.023192,0.012064,-8.1577e-13,1,66.142,116.94,0,0
2.1567,9.9878,-14.17,-0.032698,-0.010193,-2.6556e-12,-1.5976e-12,21.023,-14.17,-0.032698,9.9878,0.023199,0.012125,-8.1594e-13,1,66.243,117.04,0,0
2.1341,9.957,-14.261,-0.033176,-0.010138,-2.4839e-12,-1.3983e-12,21.081,-14.261,-0.033176,9.957,0.023206,0.012186,-8.1612e-13,1,66.345,117.14,0,0
2.1116,9.9262,-14.352,-0.033638,-0.010082,-2.3121e-12,-1.1991e-12,21.139,-14.352,-0.033638,9.9262,0.023213,0.012247,-8.1629e-13,1,66.446,117.25,0,0
2.089,9.8955,-14.442,-0.034084,-0.010025,-2.1404e-12,-9.9978e-13,21.197,-14.442,-0.034084,9.8955,0.02322,0.012309,-8.1647e-13,1,66.548,117.35,0,0
2.0664,9.8648,-14.533,-0.034513,-0.0099677,-1.9687e-12,-8.0051e-13,21.255,-14.533,-0.034513,9.8648,0.023227,0.01237,-8.1664e-13,1,66.65,117.45,0,0
2.0438,9.8342,-14.623,-0.034925,-0.0099098,-1.797e-12,-6.0124e-13,21.313,-14.623,-0.034925,9.8342,0.023234,0.012431,-8.1681e-13,1,66.751,117.55,0,0
2.0212,9.8036,-14.713,-0.035321,-0.0098512,-1.6252e-12,-4.0197e-13,21.371,-14.713,-0.035321,9.8036,0.02324,0.012492,-8.1699e-13,1,66.853,117.65,0,0
1.9987,9.773,-14.803,-0.0357,-0.009792,-1.4535e-12,-2.027e-13,21.429,-14.803,-0.0357,9.773,0.023247,0.012553,-8.1716e-13,1,66.954,117.75,0,0
1.9761,9.7425,-14.893,-0.036063,-0.0097321,-1.2818e-12,-3.4305e-15,21.487,-14.893,-0.036063,9.7425,0.023254,0.012614,-8.1733e-13,1,67.056,117.86,0,0
1.9535,9.712,-14.983,-0.03641,-0.0096716,-1.1101e-12,1.9584e-13,21.545,-14.983,-0.03641,9.712,0.023261,0.012675,-8.1751e-13,1,67.158,117.96,0,0
1.9309,9.6815,-15.073,-0.03674,-0.0096104,-9.3836e-13,3.951e-13,21.604,-15.073,-0.03674,9.6816,0.023268,0.012736,-8.1768e-13,1,67.259,118.06,0,0
1.9084,9.6511,-15.163,-0.037053,-0.0095486,-7.6664e-13,5.9437e-13,21.662,-15.163,-0.037053,9.6511,0.023275,0.012797,-8.1785e-13,1,67.361,118.16,0,0
1.8858,9.6207,-15.252,-0.03735,-0.0094861,-5.9492e-13,7.9364e-13,21.72,-15.252,-0.03735,9.6208,0.023282,0.012859,-8.1803e-13,1,67.462,118.26,0,0
1.8632,9.5904,-15.342,-0.03763,-0.009423,-4.2319e-13,9.9291e-13,21.779,-15.342,-0.03763,9.5904,0.023289,0.01292,-8.182e-13,1,67.564,118.36,0,0
1.8406,9.5601,-15.431,-0.037894,-0.0093593,-2.5147e-13,1.1922e-12,21.837,-15.431,-0.037894,9.5601,0.023295,0.012981,-8.1837e-13,1,67.666,118.47,0,0
1.8181,9.5298,-15.52,-0.038141,-0.0092948,-7.9747e-14,1.3914e-12,21.896,-15.52,-0.038141,9.5298,0.023302,0.013042,-8.1855e-13,1,67.767,118.57,0,0
1.7955,9.4996,-15.609,-0.038372,-0.0092298,9.1977e-14,1.5907e-12,21.954,-15.609,-0.038372,9.4996,0.023309,0.013103,-8.1872e-13,1,67.869,118.67,0,0
1.7729,9.4694,-15.698,-0.038587,-0.0091641,2.637e-13,1.79e-12,22.013,-15.698,-0.038587,9.4694,0.023316,0.013164,-8.189e-13,1,67.97,118.77,0,0
1.7503,9.4392,-15.787,-0.038784,-0.0090977,4.3542e-13,1.9893e-12,22.071,-15.787,-0.038784,9.4392,0.023323,0.013225,-8.1907e-13,1,68.072,118.87,0,0
1.7278,9.4091,-15.876,-0.038966,-0.0090307,6.0715e-13,2.1885e-12,22.13,-15.876,-0.038966,9.4091,0.02333,0.013286,-8.1924e-13,1,68.174,118.97,0,0
1.7052,9.379,-15.965,-0.039131,-0.008963,7.7887e-13,2.3878e-12,22.189,-15.965,-0.039131,9.379,0.023337,0.013348,-8.1942e-13,1,68.275,119.08,0,0
1.6826,9.349,-16.053,-0.039279,-0.0088947,9.5059e-13,2.5871e-12,22.247,-16.053,-0.039279,9.349,0.023343,0.013409,-8.1959e-13,1,68.377,119.18,0,0
1.66,9.319,-16.142,-0.039411,-0.0088258,1.1223e-12,2.7863e-12,22.306,-16.142,-0.039411,9.319,0.02335,0.01347,-8.1976e-13,1,68.478,119.28,0,0
1.6374,9.289,-16.23,-0.039526,-0.0087562,1.294e-12,2.9856e-12,22.365,-16.23,-0.039526,9.289,0.023357,0.013531,-8.1994e-13,1,68.58,119.38,0,0
1.6149,9.2591,-16.318,-0.039625,-0.0086859,1.4658e-12,3.1849e-12,22.424,-16.318,-0.039625,9.2591,0.023364,0.013592,-8.2011e-13,1,68.682,119.48,0,0
1.5923,9.2292,-16.406,-0.039707,-0.008615,1.6375e-12,3.3841e-12,22.482,-16.406,-0.039707,9.2292,0.023371,0.013653,-8.2028e-13,1,68.783,119.58,0,0
1.5697,9.1993,-16.494,-0.039773,-0.0085435,1.8092e-12,3.5834e-12,22.541,-16.494,-0.039773,9.1993,0.023378,0.013714,-8.2046e-13,1,68.885,119.68,0,0
1.5471,9.1695,-16.582,-0.039822,-0.0084713,1.9809e-12,3.7827e-12,22.6,-16.582,-0.039822,9.1695,0.023385,0.013775,-8.2063e-13,1,68.986,119.79,0,0
1.5246,9.1397,-16.67,-0.039855,-0.0083984,2.1526e-12,3.982e-12,22.659,-16.67,-0.039855,9.1397,0.023391,0.013837,-8.208e-13,1,69.088,119.89,0,0
1.502,9.1099,-16.757,-0.039872,-0.0083249,2.3244e-12,4.1812e-12,22.718,-16.757,-0.039872,9.1099,0.023398,0.013898,-8.2098e-13,1,69.19,119.99,0,0
1.4794,9.0802,-16.845,-0.039871,-0.0082508,2.4961e-12,4.3805e-12,22.777,-16.845,-0.039871,9.0802,0.023405,0.013959,-8.2115e-13,1,69.291,120.09,0,0
1.4568,9.0505,-16.932,-0.039855,-0.008176,2.6678e-12,4.5798e-12,22.836,-16.932,-0.039855,9.0505,0.023412,0.01402,-8.2133e-13,1,69.393,120.19,0,0
1.4343,9.0209,-17.019,-0.039821,-0.0081006,2.8395e-12,4.779e-12,22.896,-17.019,-0.039821,9.0209,0.023419,0.014081,-8.215e-13,1,69.494,120.29,0,0
1.4117,8.9913,-17.107,-0.039772,-0.0080245,3.0113e-12,4.9783e-12,22.955,-17.107,-0.039772,8.9913,0.023426,0.014142,-8.2167e-13,1,69.596,120.4,0,0
1.3891,8.9617,-17.194,-0.039706,-0.0079477,3.183e-12,5.1776e-12,23.014,-17.194,-0.039706,8.9617,0.023432,0.014203,-8.2185e-13,1,69.698,120.5,0,0
1.3665,8.9322,-17.28,-0.039623,-0.0078703,3.3547e-12,5.3768e-12,23.073,-17.281,-0.039623,8.9322,0.023439,0.014264,-8.2202e-13,1,69.799,120.6,0,0
1.344,8.9027,-17.367,-0.039524,-0.0077923,3.5264e-12,5.5761e-12,23.132,-17.367,-0.039524,8.9027,0.023446,0.014326,-8.2219e-13,1,69.901,120.7,0,0
1.3214,8.8733,-17.454,-0.039408,-0.0077136,3.6982e-12,5.7754e-12,23.192,-17.454,-0.039408,8.8733,0.023453,0.014387,-8.2237e-13,1,70.002,120.8,0,0
1.2988,8.8438,-17.541,-0.039276,-0.0076343,3.8699e-12,5.9747e-12,23.251,-17.541,-0.039276,8.8438,0.02346,0.014448,-8.2254e-13,1,70.104,120.9,0,0
1.2762,8.8145,-17.627,-0.039127,-0.0075543,4.0416e-12,6.1739e-12,23.311,-17.627,-0.039127,8.8145,0.023467,0.014509,-8.2271e-13,1,70.206,121.01,0,0
1.2536,8.7851,-17.713,-0.038962,-0.0074736,4.2133e-12,6.3732e-12,23.37,-17.713,-0.038962,8.7851,0.023473,0.01457,-8.2289e-13,1,70.307,121.11,0,0
1.2311,8.7558,-17.8,-0.03878,-0.0073924,4.385e-12,6.5725e-12,23.43,-17.8,-0.03878,8.7558,0.02348,0.014631,-8.2306e-13,1,70.409,121.21,0,0
1.2085,8.7265,-17.886,-0.038582,-0.0073104,4.5568e-12,6.7717e-12,23.489,-17.886,-0.038582,8.7265,0.023487,0.014692,-8.2323e-13,1,70.51,121.31,0,0
1.1859,8.6973,-17.972,-0.038367,-0.0072278,4.7285e-12,6.971e-12,23.549,-17.972,-0.038367,8.6973,0.023494,0.014753,-8.2341e-13,1,70.612,121.41,0,0
1.1633,8.6681,-18.058,-0.038136,-0.0071446,4.9002e-12,7.1703e-12,23.608,-18.058,-0.038136,8.6681,0.023501,0.014815,-8.2358e-13,1,70.714,121.51,0,0
1.1408,8.6389,-18.143,-0.037888,-0.0070607,5.0719e-12,7.3695e-12,23.668,-18.143,-0.037888,8.6389,0.023508,0.014876,-8.2376e-13,1,70.815,121.62,0,0
1.1182,8.6098,-18.229,-0.037624,-0.0069762,5.2437e-12,7.5688e-12,23.728,-18.229,-0.037624,8.6098,0.023514,0.014937,-8.2393e-13,1,70.917,121.72,0,0
1.0956,8.5807,-18.315,-0.037343,-0.006891,5.4154e-12,7.7681e-12,23.787,-18.315,-0.037343,8.5807,0.023521,0.014998,-8.241e-13,1,71.018,121.82,0,0
1.0729,8.5515,-18.401,-0.037045,-0.0067764,5.5878e-12,7.9669e-12,23.847,-18.401,-0.037045,8.5515,0.023528,0.015059,-8.2428e-13,1,71.12,121.92,0,0
1.0682,8.521,-18.487,-0.037405,-0.0067099,5.6325e-12,7.6289e-12,23.907,-18.487,-0.037405,8.521,0.023535,0.015121,-8.2444e-13,1,71.222,122.02,0,0
1.0635,8.4906,-18.573,-0.037753,-0.0066428,5.6772e-12,7.291e-12,23.966,-18.573,-0.037753,8.4906,0.023542,0.015182,-8.246e-13,1,71.323,122.12,0,0
1.0588,8.4601,-18.659,-0.038091,-0.0065754,5.722e-12,6.9531e-12,24.025,-18.659,-0.038091,8.4601,0.023548,0.015243,-8.2476e-13,1,71.425,122.22,0,0
1.054,8.4298,-18.745,-0.038417,-0.0065074,5.7667e-12,6.6151e-12,24.085,-18.745,-0.038417,8.4298,0.023555,0.015304,-8.2492e-13,1,71.526,122.33,0,0
1.0493,8.3994,-18.831,-0.038731,-0.006439,5.8114e-12,6.2772e-12,24.144,-18.831,-0.038731,8.3994,0.023562,0.015365,-8.2508e-13,1,71.628,122.43,0,0
1.0446,8.369,-18.917,-0.039034,-0.0063702,5.8562e-12,5.9392e-12,24.204,-18.917,-0.039034,8.369,0.023569,0.015426,-8.2524e-13,1,71.73,122.53,0,0
1.0398,8.3387,-19.002,-0.039325,-0.0063009,5.9009e-12,5.6013e-12,24.263,-19.002,-0.039325,8.3387,0.023576,0.015487,-8.254e-13,1,71.831,122.63,0,0
1.0351,8.3085,-19.088,-0.039606,-0.0062311,5.9456e-12,5.2634e-12,24.322,-19.088,-0.039606,8.3085,0.023582,0.015548,-8.2556e-13,1,71.933,122.73,0,0
1.0304,8.2782,-19.173,-0.039874,-0.0061609,5.9904e-12,4.9254e-12,24.382,-19.173,-0.039874,8.2782,0.023589,0.01561,-8.2572e-13,1,72.034,122.83,0,0
1.0256,8.248,-19.259,-0.040131,-0.0060902,6.0351e-12,4.5875e-12,24.441,-19.259,-0.040131,8.248,0.023596,0.015671,-8.2588e-13,1,72.136,122.94,0,0
1.0209,8.2178,-19.344,-0.040377,-0.0060191,6.0798e-12,4.2496e-12,24.5,-19.344,-0.040377,8.2178,0.023603,0.015732,-8.2605e-13,1,72.238,123.04,0,0
1.0162,8.1876,-19.429,-0.040612,-0.0059475,6.1246e-12,3.9116e-12,24.56,-19.429,-0.040612,8.1876,0.02361,0.015793,-8.2621e-13,1,72.339,123.14,0,0
1.0115,8.1575,-19.514,-0.040835,-0.0058754,6.1693e-12,3.5737e-12,24.619,-19.514,-0.040835,8.1575,0.023616,0.015854,-8.2637e-13,1,72.441,123.24,0,0
1.0067,8.1274,-19.599,-0.041046,-0.0058029,6.214e-12,3.2358e-12,24.679,-19.599,-0.041046,8.1274,0.023623,0.015915,-8.2653e-13,1,72.542,123.34,0,0
1.002,8.0973,-19.684,-0.041246,-0.0057299,6.2588e-12,2.8978e-12,24.738,-19.684,-0.041246,8.0973,0.02363,0.015976,-8.2669e-13,1,72.644,123.44,0,0
0.99727,8.0673,-19.769,-0.041435,-0.0056565,6.3035e-12,2.5599e-12,24.797,-19.769,-0.041435,8.0673,0.023637,0.016037,-8.2685e-13,1,72.746,123.55,0,0
0.99254,8.0372,-19.854,-0.041612,-0.0055826,6.3482e-12,2.2219e-12,24.857,-19.854,-0.041612,8.0372,0.023643,0.016099,-8.2701e-13,1,72.847,123.65,0,0
0.98781,8.0072,-19.938,-0.041778,-0.0055083,6.393e-12,1.884e-12,24.916,-19.938,-0.041778,8.0072,0.02365,0.01616,-8.2717e-13,1,72.949,123.75,0,0
0.98308,7.9773,-20.023,-0.041932,-0.0054335,6.4377e-12,1.5461e-12,24.976,-20.023,-0.041932,7.9773,0.023657,0.016221,-8.2733e-13,1,73.05,123.85,0,0
0.97835,7.9474,-20.107,-0.042075,-0.0053582,6.4824e-12,1.2081e-12,25.035,-20.107,-0.042075,7.9474,0.023664,0.016282,-8.2749e-13,1,73.152,123.95,0,0
0.97362,7.9175,-20.191,-0.042207,-0.0052825,6.5272e-12,8.702e-13,25.095,-20.191,-0.042207,7.9175,0.023671,0.016343,-8.2765e-13,1,73.254,124.05,0,0
0.96889,7.8876,-20.276,-0.042327,-0.0052064,6.5719e-12,5.3226e-13,25.154,-20.276,-0.042327,7.8876,0.023677,0.016404,-8.2781e-13,1,73.355,124.16,0,0
0.96416,7.8577,-20.36,-0.042435,-0.0051297,6.6166e-12,1.9432e-13,25.214,-20.36,-0.042435,7.8577,0.023684,0.016465,-8.2798e-13,1,73.457,124.26,0,0
0.95943,7.8279,-20.444,-0.042533,-0.0050526,6.6614e-12,-1.4362e-13,25.273,-20.444,-0.042533,7.8279,0.023691,0.016526,-8.2814e-13,1,73.558,124.36,0,0
0.9547,7.7981,-20.528,-0.042618,-0.0049751,6.7061e-12,-4.8156e-13,25.332,-20.528,-0.042618,7.7981,0.023698,0.016588,-8.283e-13,1,73.66,124.46,0,0
0.94997,7.7684,-20.612,-0.042693,-0.0048971,6.7508e-12,-8.195e-13,25.392,-20.612,-0.042693,7.7684,0.023704,0.016649,-8.2846e-13,1,73.762,124.56,0,0
0.94524,7.7386,-20.695,-0.042756,-0.0048187,6.7956e-12,-1.1574e-12,25.451,-20.695,-0.042756,7.7386,0.023711,0.01671,-8.2862e-13,1,73.863,124.66,0,0
0.94051,7.7089,-20.779,-0.042807,-0.0047397,6.8403e-12,-1.4954e-12,25.511,-20.779,-0.042807,7.7089,0.023718,0.016771,-8.2878e-13,1,73.965,124.76,0,0
0.93578,7.6793,-20.862,-0.042847,-0.0046604,6.885e-12,-1.8333e-12,25.57,-20.862,-0.042847,7.6793,0.023725,0.016832,-8.2894e-13,1,74.066,124.87,0,0
0.93105,7.6496,-20.946,-0.042876,-0.0045806,6.9298e-12,-2.1713e-12,25.63,-20.946,-0.042876,7.6496,0.023731,0.016893,-8.291e-13,1,74.168,124.97,0,0
0.92632,7.62,-21.029,-0.042893,-0.0045003,6.9745e-12,-2.5092e-12,25.689,-21.029,-0.042893,7.62,0.023738,0.016954,-8.2926e-13,1,74.27,125.07,0,0
0.92158,7.5904,-21.112,-0.042899,-0.0044195,7.0192e-12,-2.8471e-12,25.749,-21.112,-0.042899,7.5904,0.023745,0.017016,-8.2942e-13,1,74.371,125.17,0,0
0.91686,7.5609,-21.196,-0.042893,-0.0043383,7.064e-12,-3.1851e-12,25.808,-21.196,-0.042893,7.5609,0.023752,0.017077,-8.2958e-13,1,74.473,125.27,0,0
0.91213,7.5314,-21.279,-0.042876,-0.0042567,7.1087e-12,-3.523e-12,25.868,-21.279,-0.042876,7.5314,0.023758,0.017138,-8.2974e-13,1,74.574,125.37,0,0
0.9074,7.5019,-21.362,-0.042847,-0.0041746,7.1534e-12,-3.8609e-12,25.927,-21.362,-0.042847,7.5019,0.023765,0.017199,-8.2991e-13,1,74.676,125.48,0,0
0.90266,7.4724,-21.445,-0.042807,-0.004092,7.1982e-12,-4.1989e-12,25.987,-21.445,-0.042808,7.4724,0.023772,0.01726,-8.3007e-13,1,74.778,125.58,0,0
0.89793,7.443,-21.527,-0.042756,-0.004009,7.2429e-12,-4.5368e-12,26.046,-21.527,-0.042756,7.443,0.023779,0.017321,-8.3023e-13,1,74.879,125.68,0,0
0.8932,7.4135,-21.61,-0.042693,-0.0039255,7.2876e-12,-4.8748e-12,26.106,-21.61,-0.042693,7.4135,0.023785,0.017382,-8.3039e-13,1,74.981,125.78,0,0
0.88847,7.3842,-21.693,-0.042619,-0.0038416,7.3324e-12,-5.2127e-12,26.165,-21.693,-0.042619,7.3842,0.023792,0.017443,-8.3055e-13,1,75.082,125.88,0,0
0.88374,7.3548,-21.775,-0.042533,-0.0037572,7.3771e-12,-5.5506e-12,26.225,-21.775,-0.042533,7.3548,0.023799,0.017505,-8.3071e-13,1,75.184,125.98,0,0
0.87901,7.3255,-21.857,-0.042436,-0.0036723,7.4218e-12,-5.8886e-12,26.285,-21.857,-0.042436,7.3255,0.023805,0.017566,-8.3087e-13,1,75.286,126.09,0,0
0.87428,7.2962,-21.94,-0.042328,-0.003587,7.4666e-12,-6.2265e-12,26.344,-21.94,-0.042328,7.2962,0.023812,0.017627,-8.3103e-13,1,75.387,126.19,0,0
0.86955,7.2669,-22.022,-0.042208,-0.0035012,7.5113e-12,-6.5645e-12,26.404,-22.022,-0.042208,7.2669,0.023819,0.017688,-8.3119e-13,1,75.489,126.29,0,0
0.86482,7.2377,-22.104,-0.042076,-0.003415,7.556e-12,-6.9024e-12,26.463,-22.104,-0.042076,7.2377,0.023826,0.017749,-8.3135e-13,1,75.59,126.39,0,0
0.86009,7.2085,-22.186,-0.041933,-0.0033283,7.6008e-12,-7.2403e-12,26.523,-22.186,-0.041933,7.2085,0.023832,0.01781,-8.3151e-13,1,75.692,126.49,0,0
0.85536,7.1793,-22.268,-0.041779,-0.0032412,7.6455e-12,-7.5783e-12,26.582,-22.268,-0.041779,7.1793,0.023839,0.017871,-8.3167e-13,1,75.794,126.59,0,0
0.85063,7.1502,-22.35,-0.041613,-0.0031536,7.6902e-12,-7.9162e-12,26.642,-22.35,-0.041613,7.1502,0.023846,0.017933,-8.3184e-13,1,75.895,126.7,0,0
0.8459,7.1211,-22.431,-0.041436,-0.0030655,7.735e-12,-8.2541e-12,26.701,-22.431,-0.041436,7.1211,0.023852,0.017994,-8.32e-13,1,75.997,126.8,0,0
0.84117,7.092,-22.513,-0.041248,-0.002977,7.7797e-12,-8.5921e-12,26.761,-22.513,-0.041248,7.092,0.023859,0.018055,-8.3216e-13,1,76.098,126.9,0,0
0.83642,7.0627,-22.595,-0.041047,-0.0028595,7.8247e-12,-8.9297e-12,26.821,-22.595,-0.041047,7.0627,0.023866,0.018116,-8.3232e-13,1,76.2,127,0,0
0.83338,7.0327,-22.677,-0.041293,-0.0027941,7.8929e-12,-8.5061e-12,26.88,-22.677,-0.041293,7.0327,0.023873,0.018177,-8.3247e-13,1,76.302,127.1,0,0
0.83035,7.0027,-22.759,-0.041533,-0.0027285,7.9611e-12,-8.0824e-12,26.94,-22.759,-0.041533,7.0027,0.023879,0.018239,-8.3262e-13,1,76.403,127.2,0,0
0.82731,6.9727,-22.841,-0.041766,-0.0026626,8.0292e-12,-7.6587e-12,26.999,-22.841,-0.041766,6.9727,0.023886,0.0183,-8.3277e-13,1,76.505,127.3,0,0
0.82428,6.9428,-22.923,-0.041992,-0.0025963,8.0974e-12,-7.235e-12,27.059,-22.923,-0.041992,6.9428,0.023893,0.018361,-8.3291e-13,1,76.606,127.41,0,0
0.82124,6.9128,-23.005,-0.042211,-0.0025298,8.1656e-12,-6.8113e-12,27.118,-23.005,-0.042211,6.9128,0.023899,0.018422,-8.3306e-13,1,76.708,127.51,0,0
0.8182,6.8829,-23.087,-0.042423,-0.002463,8.2337e-12,-6.3877e-12,27.178,-23.087,-0.042423,6.8829,0.023906,0.018483,-8.3321e-13,1,76.81,127.61,0,0
0.81517,6.853,-23.169,-0.042628,-0.0023959,8.3019e-12,-5.964e-12,27.237,-23.169,-0.042628,6.853,0.023913,0.018544,-8.3336e-13,1,76.911,127.71,0,0
0.81213,6.8231,-23.25,-0.042826,-0.0023285,8.3701e-12,-5.5403e-12,27.296,-23.25,-0.042826,6.8231,0.023919,0.018605,-8.3351e-13,1,77.013,127.81,0,0
0.8091,6.7933,-23.332,-0.043017,-0.0022608,8.4382e-12,-5.1166e-12,27.356,-23.332,-0.043017,6.7933,0.023926,0.018667,-8.3366e-13,1,77.114,127.91,0,0
0.80606,6.7635,-23.413,-0.043201,-0.0021928,8.5064e-12,-4.6929e-12,27.415,-23.413,-0.043201,6.7635,0.023933,0.018728,-8.3381e-13,1,77.216,128.02,0,0
0.80302,6.7337,-23.495,-0.043378,-0.0021246,8.5746e-12,-4.2692e-12,27.475,-23.495,-0.043378,6.7337,0.023939,0.018789,-8.3396e-13,1,77.318,128.12,0,0
0.79999,6.7039,-23.576,-0.043548,-0.002056,8.6427e-12,-3.8456e-12,27.534,-23.576,-0.043548,6.7039,0.023946,0.01885,-8.3411e-13,1,77.419,128.22,0,0
0.79695,6.6741,-23.657,-0.043711,-0.0019872,8.7109e-12,-3.4219e-12,27.593,-23.657,-0.043711,6.6741,0.023953,0.018911,-8.3426e-13,1,77.521,128.32,0,0
0.79392,6.6444,-23.738,-0.043867,-0.001918,8.779e-12,-2.9982e-12,27.652,-23.738,-0.043867,6.6444,0.023959,0.018972,-8.3441e-13,1,77.622,128.42,0,0
0.79088,6.6146,-23.819,-0.044016,-0.0018486,8.8472e-12,-2.5745e-12,27.712,-23.819,-0.044016,6.6146,0.023966,0.019033,-8.3456e-13,1,77.724,128.52,0,0
0.78784,6.5849,-23.9,-0.044158,-0.0017789,8.9154e-12,-2.1509e-12,27.771,-23.9,-0.044158,6.5849,0.023973,0.019094,-8.3471e-13,1,77.826,128.63,0,0
0.78481,6.5553,-23.981,-0.044294,-0.0017088,8.9835e-12,-1.7271e-12,27.83,-23.981,-0.044294,6.5553,0.023979,0.019156,-8.3485e-13,1,77.927,128.73,0,0
0.78177,6.5256,-24.062,-0.044422,-0.0016385,9.0517e-12,-1.3035e-12,27.89,-24.062,-0.044422,6.5256,0.023986,0.019217,-8.35e-13,1,78.029,128.83,0,0
0.77873,6.496,-24.143,-0.044543,-0.0015679,9.1199e-12,-8.7977e-13,27.949,-24.143,-0.044543,6.496,0.023993,0.019278,-8.3515e-13,1,78.13,128.93,0,0
0.7757,6.4664,-24.224,-0.044657,-0.001497,9.188e-12,-4.5611e-13,28.008,-24.224,-0.044657,6.4664,0.023999,0.019339,-8.353e-13,1,78.232,129.03,0,0
0.77266,6.4368,-24.304,-0.044765,-0.0014259,9.2562e-12,-3.2399e-14,28.067,-24.304,-0.044765,6.4368,0.024006,0.0194,-8.3545e-13,1,78.334,129.13,0,0
0.76963,6.4072,-24.385,-0.044865,-0.0013544,9.3244e-12,3.9125e-13,28.126,-24.385,-0.044865,6.4072,0.024013,0.019461,-8.356e-13,1,78.435,129.24,0,0
0.76659,6.3776,-24.465,-0.044959,-0.0012826,9.3925e-12,8.1497e-13,28.186,-24.465,-0.044959,6.3776,0.024019,0.019522,-8.3575e-13,1,78.537,129.34,0,0
0.76355,6.3481,-24.545,-0.045045,-0.0012105,9.4607e-12,1.2386e-12,28.245,-24.545,-0.045045,6.3481,0.024026,0.019584,-8.359e-13,1,78.638,129.44,0,0
0.76052,6.3186,-24.626,-0.045124,-0.0011382,9.5289e-12,1.6623e-12,28.304,-24.626,-0.045124,6.3186,0.024033,0.019645,-8.3605e-13,1,78.74,129.54,0,0
0.75748,6.2891,-24.706,-0.045197,-0.0010656,9.597e-12,2.086e-12,28.363,-24.706,-0.045197,6.2891,0.024039,0.019706,-8.362e-13,1,78.842,129.64,0,0
0.75445,6.2597,-24.786,-0.045262,-0.00099262,9.6652e-12,2.5096e-12,28.422,-24.786,-0.045262,6.2597,0.024046,0.019767,-8.3635e-13,1,78.943,129.74,0,0
0.75141,6.2302,-24.866,-0.045321,-0.00091939,9.7334e-12,2.9334e-12,28.481,-24.866,-0.045321,6.2302,0.024052,0.019828,-8.365e-13,1,79.045,129.84,0,0
0.74837,6.2008,-24.946,-0.045373,-0.00084587,9.8015e-12,3.357e-12,28.541,-24.946,-0.045373,6.2008,0.024059,0.019889,-8.3665e-13,1,79.146,129.95,0,0
0.74534,6.1714,-25.026,-0.045417,-0.00077206,9.8697e-12,3.7807e-12,28.6,-25.026,-0.045417,6.1714,0.024066,0.01995,-8.3679e-13,1,79.248,130.05,0,0
0.7423,6.142,-25.105,-0.045455,-0.00069796,9.9379e-12,4.2044e-12,28.659,-25.105,-0.045455,6.142,0.024072,0.020012,-8.3694e-13,1,79.35,130.15,0,0
0.73927,6.1127,-25.185,-0.045485,-0.00062356,1.0006e-11,4.6281e-12,28.718,-25.185,-0.045485,6.1127,0.024079,0.020073,-8.3709e-13,1,79.451,130.25,0,0
0.73623,6.0833,-25.265,-0.045509,-0.00054888,1.0074e-11,5.0517e-12,28.777,-25.265,-0.045509,6.0833,0.024086,0.020134,-8.3724e-13,1,79.553,130.35,0,0
0.73319,6.054,-25.344,-0.045526,-0.00047389,1.0142e-11,5.4755e-12,28.836,-25.344,-0.045526,6.054,0.024092,0.020195,-8.3739e-13,1,79.654,130.45,0,0
0.73016,6.0247,-25.423,-0.045536,-0.00039863,1.0211e-11,5.8991e-12,28.895,-25.423,-0.045536,6.0247,0.024099,0.020256,-8.3754e-13,1,79.756,130.56,0,0
0.72712,5.9955,-25.503,-0.045538,-0.00032307,1.0279e-11,6.3228e-12,28.954,-25.503,-0.045538,5.9955,0.024105,0.020317,-8.3769e-13,1,79.858,130.66,0,0
0.72409,5.9662,-25.582,-0.045534,-0.00024721,1.0347e-11,6.7465e-12,29.013,-25.582,-0.045534,5.9662,0.024112,0.020378,-8.3784e-13,1,79.959,130.76,0,0
0.72105,5.937,-25.661,-0.045523,-0.00017107,1.0415e-11,7.1701e-12,29.072,-25.661,-0.045523,5.937,0.024119,0.020439,-8.3799e-13,1,80.061,130.86,0,0
0.71801,5.9078,-25.74,-0.045505,-9.4628e-05,1.0483e-11,7.5938e-12,29.131,-25.74,-0.045505,5.9078,0.024125,0.020501,-8.3814e-13,1,80.162,130.96,0,0
0.71498,5.8786,-25.819,-0.04548,-1.7905e-05,1.0551e-11,8.0175e-12,29.19,-25.819,-0.04548,5.8786,0.024132,0.020562,-8.3829e-13,1,80.264,131.06,0,0
0.71194,5.8495,-25.898,-0.045448,5.9122e-05,1.062e-11,8.4412e-12,29.249,-25.898,-0.045448,5.8495,0.024138,0.020623,-8.3844e-13,1,80.366,131.17,0,0
0.70891,5.8203,-25.977,-0.045409,0.00013643,1.0688e-11,8.8649e-12,29.308,-25.977,-0.045409,5.8203,0.024145,0.020684,-8.3859e-13,1,80.467,131.27,0,0
0.70587,5.7912,-26.056,-0.045363,0.00021404,1.0756e-11,9.2886e-12,29.367,-26.056,-0.045363,5.7912,0.024152,0.020745,-8.3873e-13,1,80.569,131.37,0,0
0.70283,5.7621,-26.135,-0.04531,0.00029193,1.0824e-11,9.7122e-12,29.426,-26.135,-0.04531,5.7621,0.024158,0.020806,-8.3888e-13,1,80.67,131.47,0,0
0.6998,5.733,-26.213,-0.04525,0.00037012,1.0892e-11,1.0136e-11,29.485,-26.213,-0.04525,5.733,0.024165,0.020867,-8.3903e-13,1,80.772,131.57,0,0
0.69676,5.704,-26.292,-0.045183,0.0004486,1.096e-11,1.056e-11,29.543,-26.292,-0.045183,5.704,0.024171,0.020929,-8.3918e-13,1,80.874,131.67,0,0
0.69372,5.675,-26.37,-0.045109,0.00052737,1.1028e-11,1.0983e-11,29.602,-26.37,-0.045109,5.675,0.024178,0.02099,-8.3933e-13,1,80.975,131.78,0,0
0.69069,5.646,-26.449,-0.045028,0.00060643,1.1097e-11,1.1407e-11,29.661,-26.449,-0.045028,5.646,0.024184,0.021051,-8.3948e-13,1,81.077,131.88,0,0
0.68765,5.617,-26.527,-0.04494,0.00068578,1.1165e-11,1.1831e-11,29.72,-26.527,-0.04494,5.617,0.024191,0.021112,-8.3963e-13,1,81.178,131.98,0,0
0.6846,5.5878,-26.606,-0.044844,0.00079362,1.1245e-11,1.2256e-11,29.779,-26.606,-0.044844,5.5878,0.024198,0.021173,-8.3978e-13,1,81.28,132.08,0,0
0.68249,5.5583,-26.684,-0.045012,0.00084552,1.5056e-11,1.2375e-11,29.838,-26.684,-0.045012,5.5583,0.024204,0.021235,-8.3992e-13,1,81.382,132.18,0,0
0.68039,5.5288,-26.763,-0.045178,0.00089756,1.8707e-11,1.2494e-11,29.897,-26.763,-0.045178,5.5288,0.024211,0.021296,-8.4007e-13,1,81.483,132.28,0,0
0.67828,5.4993,-26.842,-0.045342,0.00094974,2.2197e-11,1.2613e-11,29.956,-26.842,-0.045342,5.4993,0.024217,0.021357,-8.4021e-13,1,81.585,132.38,0,0
0.67618,5.4698,-26.92,-0.045504,0.0010021,2.5529e-11,1.2732e-11,30.015,-26.92,-0.045504,5.4698,0.024224,0.021418,-8.4036e-13,1,81.686,132.49,0,0
0.67407,5.4404,-26.999,-0.045664,0.0010545,2.87e-11,1.2851e-11,30.074,-26.999,-0.045664,5.4404,0.02423,0.021479,-8.405e-13,1,81.788,132.59,0,0
0.67196,5.4109,-27.077,-0.045822,0.0011071,3.1711e-11,1.297e-11,30.133,-27.077,-0.045822,5.4109,0.024237,0.02154,-8.4065e-13,1,81.89,132.69,0,0
0.66986,5.3815,-27.155,-0.045977,0.0011599,3.4562e-11,1.3089e-11,30.192,-27.155,-0.045977,5.3815,0.024244,0.021601,-8.4079e-13,1,81.991,132.79,0,0
0.66775,5.352,-27.234,-0.046131,0.0012128,3.7253e-11,1.3208e-11,30.25,-27.234,-0.046131,5.352,0.02425,0.021663,-8.4094e-13,1,82.093,132.89,0,0
0.66565,5.3226,-27.312,-0.046282,0.0012658,3.9784e-11,1.3327e-11,30.309,-27.312,-0.046282,5.3226,0.024257,0.021724,-8.4108e-13,1,82.194,132.99,0,0
0.66354,5.2932,-27.39,-0.046432,0.001319,4.2155e-11,1.3446e-11,30.368,-27.39,-0.046432,5.2932,0.024263,0.021785,-8.4122e-13,1,82.296,133.1,0,0
0.66143,5.2638,-27.468,-0.046579,0.0013724,4.4367e-11,1.3565e-11,30.427,-27.468,-0.046579,5.2638,0.02427,0.021846,-8.4137e-13,1,82.398,133.2,0,0
0.65933,5.2345,-27.546,-0.046725,0.0014258,4.6418e-11,1.3684e-11,30.485,-27.546,-0.046725,5.2345,0.024276,0.021907,-8.4151e-13,1,82.499,133.3,0,0
0.65722,5.2051,-27.624,-0.046868,0.0014794,4.8309e-11,1.3803e-11,30.544,-27.624,-0.046868,5.2051,0.024283,0.021968,-8.4166e-13,1,82.601,133.4,0,0
0.65511,5.1757,-27.702,-0.047009,0.0015332,5.0041e-11,1.3922e-11,30.603,-27.702,-0.047009,5.1757,0.024289,0.022029,-8.418e-13,1,82.702,133.5,0,0
0.65301,5.1464,-27.78,-0.047148,0.0015871,5.1612e-11,1.4041e-11,30.661,-27.78,-0.047148,5.1464,0.024296,0.022091,-8.4195e-13,1,82.804,133.6,0,0
0.6509,5.1171,-27.857,-0.047285,0.0016411,5.3024e-11,1.416e-11,30.72,-27.857,-0.047285,5.1171,0.024302,0.022152,-8.4209e-13,1,82.906,133.71,0,0
0.6488,5.0877,-27.935,-0.04742,0.0016953,5.4276e-11,1.4279e-11,30.778,-27.935,-0.04742,5.0877,0.024309,0.022213,-8.4224e-13,1,83.007,133.81,0,0
0.64669,5.0584,-28.013,-0.047553,0.0017497,5.5367e-11,1.4398e-11,30.837,-28.013,-0.047553,5.0584,0.024315,0.022274,-8.4238e-13,1,83.109,133.91,0,0
0.64458,5.0291,-28.09,-0.047684,0.0018041,5.6299e-11,1.4517e-11,30.896,-28.09,-0.047684,5.0291,0.024322,0.022335,-8.4253e-13,1,83.21,134.01,0,0
0.64248,4.9999,-28.168,-0.047813,0.0018588,5.707e-11,1.4636e-11,30.954,-28.168,-0.047813,4.9999,0.024328,0.022396,-8.4267e-13,1,83.312,134.11,0,0
0.64037,4.9706,-28.245,-0.04794,0.0019135,5.7682e-11,1.4755e-11,31.013,-28.245,-0.04794,4.9706,0.024335,0.022457,-8.4281e-13,1,83.414,134.21,0,0
0.63826,4.9413,-28.322,-0.048065,0.0019684,5.8134e-11,1.4874e-11,31.071,-28.322,-0.048065,4.9413,0.024341,0.022519,-8.4296e-13,1,83.515,134.32,0,0
0.63616,4.9121,-28.4,-0.048187,0.0020235,5.8426e-11,1.4993e-11,31.13,-28.4,-0.048187,4.9121,0.024348,0.02258,-8.431e-13,1,83.617,134.42,0,0
0.63405,4.8829,-28.477,-0.048308,0.0020787,5.8558e-11,1.5112e-11,31.188,-28.477,-0.048308,4.8829,0.024354,0.022641,-8.4325e-13,1,83.718,134.52,0,0
0.63195,4.8537,-28.554,-0.048426,0.002134,5.853e-11,1.5231e-11,31.246,-28.554,-0.048426,4.8537,0.024361,0.022702,-8.4339e-13,1,83.82,134.62,0,0
0.62984,4.8245,-28.631,-0.048543,0.0021895,5.8342e-11,1.535e-11,31.305,-28.631,-0.048543,4.8245,0.024367,0.022763,-8.4354e-13,1,83.922,134.72,0,0
0.62773,4.7953,-28.708,-0.048657,0.0022451,5.7994e-11,1.5469e-11,31.363,-28.708,-0.048657,4.7953,0.024374,0.022824,-8.4368e-13,1,84.023,134.82,0,0
0.62563,4.7661,-28.785,-0.04877,0.0023009,5.7486e-11,1.5588e-11,31.421,-28.785,-0.04877,4.7661,0.02438,0.022885,-8.4383e-13,1,84.125,134.92,0,0
0.62352,4.7369,-28.862,-0.04888,0.0023568,5.6818e-11,1.5707e-11,31.48,-28.862,-0.04888,4.7369,0.024387,0.022947,-8.4397e-13,1,84.226,135.03,0,0
0.62142,4.7078,-28.939,-0.048988,0.0024128,5.599e-11,1.5826e-11,31.538,-28.939,-0.048988,4.7078,0.024393,0.023008,-8.4411e-13,1,84.328,135.13,0,0
0.61931,4.6786,-29.015,-0.049094,0.002469,5.5003e-11,1.5945e-11,31.596,-29.015,-0.049094,4.6786,0.0244,0.023069,-8.4426e-13,1,84.43,135.23,0,0
0.6172,4.6495,-29.092,-0.049198,0.0025254,5.3855e-11,1.6064e-11,31.654,-29.092,-0.049198,4.6495,0.024406,0.02313,-8.444e-13,1,84.531,135.33,0,0
0.6151,4.6204,-29.168,-0.0493,0.0025819,5.2547e-11,1.6183e-11,31.713,-29.168,-0.0493,4.6204,0.024413,0.023191,-8.4455e-13,1,84.633,135.43,0,0
0.61299,4.5913,-29.245,-0.0494,0.0026385,5.108e-11,1.6302e-11,31.771,-29.245,-0.0494,4.5913,0.024419,0.023252,-8.4469e-13,1,84.734,135.53,0,0
0.61088,4.5622,-29.321,-0.049498,0.0026952,4.9452e-11,1.6421e-11,31.829,-29.321,-0.049498,4.5622,0.024426,0.023314,-8.4484e-13,1,84.836,135.64,0,0
0.60878,4.5331,-29.398,-0.049594,0.0027522,4.7665e-11,1.654e-11,31.887,-29.398,-0.049594,4.5331,0.024432,0.023375,-8.4498e-13,1,84.938,135.74,0,0
0.60667,4.504,-29.474,-0.049688,0.0028092,4.5717e-11,1.6659e-11,31.945,-29.474,-0.049688,4.504,0.024439,0.023436,-8.4513e-13,1,85.039,135.84,0,0
0.60457,4.475,-29.55,-0.04978,0.0028664,4.361e-11,1.6778e-11,32.003,-29.55,-0.04978,4.475,0.024445,0.023497,-8.4527e-13,1,85.141,135.94,0,0
0.60246,4.4459,-29.626,-0.049869,0.0029238,4.1342e-11,1.6897e-11,32.061,-29.626,-0.049869,4.4459,0.024452,0.023558,-8.4542e-13,1,85.242,136.04,0,0
0.60035,4.4169,-29.702,-0.049957,0.0029812,3.8915e-11,1.7015e-11,32.119,-29.702,-0.049957,4.4169,0.024458,0.023619,-8.4556e-13,1,85.344,136.14,0,0
0.59825,4.3879,-29.778,-0.050043,0.0030389,3.6328e-11,1.7134e-11,32.178,-29.778,-0.050043,4.3879,0.024465,0.02368,-8.457e-13,1,85.446,136.25,0,0
0.59614,4.3589,-29.854,-0.050126,0.0030966,3.3581e-11,1.7253e-11,32.236,-29.854,-0.050126,4.3589,0.024471,0.023742,-8.4585e-13,1,85.547,136.35,0,0
0.59404,4.3299,-29.93,-0.050207,0.0031546,3.0673e-11,1.7372e-11,32.293,-29.93,-0.050207,4.3299,0.024477,0.023803,-8.4599e-13,1,85.649,136.45,0,0
0.59193,4.3009,-30.006,-0.050287,0.0032126,2.7606e-11,1.7491e-11,32.351,-30.006,-0.050287,4.3009,0.024484,0.023864,-8.4614e-13,1,85.75,136.55,0,0
0.58982,4.272,-30.082,-0.050364,0.0032708,2.438e-11,1.761e-11,32.409,-30.082,-0.050364,4.272,0.02449,0.023925,-8.4628e-13,1,85.852,136.65,0,0
0.58772,4.243,-30.158,-0.050439,0.0033292,2.0992e-11,1.7729e-11,32.467,-30.158,-0.050439,4.243,0.024497,0.023986,-8.4643e-13,1,85.954,136.75,0,0
0.58561,4.2141,-30.233,-0.050512,0.0033877,1.7446e-11,1.7848e-11,32.525,-30.233,-0.050512,4.2141,0.024503,0.024047,-8.4657e-13,1,86.055,136.86,0,0
0.5835,4.1851,-30.309,-0.050584,0.0034463,1.3738e-11,1.7967e-11,32.583,-30.309,-0.050584,4.1851,0.02451,0.024108,-8.4672e-13,1,86.157,136.96,0,0
0.5814,4.1562,-30.384,-0.050653,0.0035051,9.8718e-12,1.8086e-11,32.641,-30.384,-0.050653,4.1562,0.024516,0.02417,-8.4686e-13,1,86.258,137.06,0,0
0.57928,4.1271,-30.46,-0.050719,0.0035917,5.8457e-12,1.8205e-11,32.699,-30.46,-0.050719,4.1271,0.024522,0.024231,-8.47e-13,1,86.36,137.16,0,0
0.57774,4.0982,-30.536,-0.0508,0.0036179,9.911e-12,1.7905e-11,32.757,-30.536,-0.0508,4.0982,0.024529,0.024292,-8.4714e-13,1,86.462,137.26,0,0
0.5762,4.0692,-30.612,-0.050888,0.0036442,1.3817e-11,1.7605e-11,32.815,-30.612,-0.050888,4.0692,0.024535,0.024353,-8.4728e-13,1,86.563,137.36,0,0
0.57467,4.0403,-30.687,-0.050983,0.0036707,1.7562e-11,1.7305e-11,32.873,-30.687,-0.050983,4.0403,0.024542,0.024414,-8.4742e-13,1,86.665,137.46,0,0
0.57313,4.0113,-30.763,-0.051084,0.0036973,2.1148e-11,1.7006e-11,32.932,-30.763,-0.051084,4.0113,0.024548,0.024476,-8.4756e-13,1,86.766,137.57,0,0
0.57159,3.9824,-30.838,-0.051192,0.0037241,2.4574e-11,1.6706e-11,32.99,-30.838,-0.051192,3.9824,0.024555,0.024537,-8.477e-13,1,86.868,137.67,0,0
0.57005,3.9534,-30.914,-0.051307,0.003751,2.784e-11,1.6406e-11,33.048,-30.914,-0.051307,3.9534,0.024561,0.024598,-8.4784e-13,1,86.97,137.77,0,0
0.56851,3.9244,-30.989,-0.051428,0.0037781,3.0946e-11,1.6106e-11,33.106,-30.989,-0.051428,3.9244,0.024567,0.024659,-8.4798e-13,1,87.071,137.87,0,0
0.56697,3.8954,-31.065,-0.051556,0.0038053,3.3891e-11,1.5806e-11,33.163,-31.065,-0.051556,3.8954,0.024574,0.02472,-8.4812e-13,1,87.173,137.97,0,0
0.56543,3.8664,-31.14,-0.051691,0.0038326,3.6678e-11,1.5507e-11,33.221,-31.14,-0.051691,3.8664,0.02458,0.024781,-8.4826e-13,1,87.274,138.07,0,0
0.5639,3.8374,-31.215,-0.051833,0.0038601,3.9304e-11,1.5207e-11,33.279,-31.215,-0.051833,3.8374,0.024587,0.024842,-8.484e-13,1,87.376,138.18,0,0
0.56236,3.8084,-31.291,-0.051981,0.0038878,4.177e-11,1.4907e-11,33.337,-31.291,-0.051981,3.8084,0.024593,0.024904,-8.4854e-13,1,87.478,138.28,0,0
0.56082,3.7794,-31.366,-0.052136,0.0039156,4.4076e-11,1.4607e-11,33.395,-31.366,-0.052136,3.7794,0.024599,0.024965,-8.4868e-13,1,87.579,138.38,0,0
0.55928,3.7504,-31.441,-0.052298,0.0039435,4.6222e-11,1.4307e-11,33.453,-31.441,-0.052298,3.7504,0.024606,0.025026,-8.4882e-13,1,87.681,138.48,0,0
0.55774,3.7214,-31.516,-0.052466,0.0039716,4.8208e-11,1.4008e-11,33.51,-31.516,-0.052466,3.7214,0.024612,0.025087,-8.4896e-13,1,87.782,138.58,0,0
0.5562,3.6923,-31.591,-0.052641,0.0039998,5.0035e-11,1.3708e-11,33.568,-31.591,-0.052641,3.6923,0.024619,0.025148,-8.491e-13,1,87.884,138.68,0,0
0.55467,3.6633,-31.666,-0.052823,0.0040282,5.1701e-11,1.3408e-11,33.626,-31.666,-0.052823,3.6633,0.024625,0.025209,-8.4924e-13,1,87.986,138.79,0,0
0.55313,3.6342,-31.741,-0.053011,0.0040567,5.3207e-11,1.3108e-11,33.684,-31.741,-0.053011,3.6342,0.024631,0.02527,-8.4938e-13,1,88.087,138.89,0,0
0.55159,3.6052,-31.816,-0.053206,0.0040853,5.4554e-11,1.2808e-11,33.741,-31.816,-0.053206,3.6052,0.024638,0.025332,-8.4952e-13,1,88.189,138.99,0,0
0.55005,3.5761,-31.891,-0.053408,0.0041141,5.574e-11,1.2509e-11,33.799,-31.891,-0.053408,3.5761,0.024644,0.025393,-8.4966e-13,1,88.29,139.09,0,0
0.54851,3.5471,-31.966,-0.053616,0.0041431,5.6767e-11,1.2209e-11,33.856,-31.966,-0.053616,3.5471,0.02465,0.025454,-8.498e-13,1,88.392,139.19,0,0
0.54697,3.518,-32.04,-0.053831,0.0041721,5.7633e-11,1.1909e-11,33.914,-32.04,-0.053831,3.518,0.024657,0.025515,-8.4993e-13,1,88.494,139.29,0,0
0.54543,3.4889,-32.115,-0.054053,0.0042014,5.834e-11,1.1609e-11,33.971,-32.115,-0.054053,3.4889,0.024663,0.025576,-8.5007e-13,1,88.595,139.4,0,0
0.5439,3.4598,-32.19,-0.054282,0.0042308,5.8886e-11,1.1309e-11,34.029,-32.19,-0.054282,3.4598,0.024669,0.025637,-8.5021e-13,1,88.697,139.5,0,0
0.54236,3.4307,-32.264,-0.054517,0.0042603,5.9273e-11,1.1009e-11,34.086,-32.264,-0.054517,3.4307,0.024676,0.025698,-8.5035e-13,1,88.798,139.6,0,0
0.54082,3.4016,-32.339,-0.054759,0.0042899,5.95e-11,1.071e-11,34.144,-32.339,-0.054759,3.4016,0.024682,0.02576,-8.5049e-13,1,88.9,139.7,0,0
0.53928,3.3725,-32.413,-0.055008,0.0043198,5.9567e-11,1.041e-11,34.201,-32.413,-0.055008,3.3725,0.024688,0.025821,-8.5063e-13,1,89.002,139.8,0,0
0.53774,3.3434,-32.487,-0.055263,0.0043497,5.9474e-11,1.011e-11,34.258,-32.487,-0.055263,3.3434,0.024695,0.025882,-8.5077e-13,1,89.103,139.9,0,0
0.5362,3.3143,-32.562,-0.055525,0.0043798,5.922e-11,9.8102e-12,34.315,-32.562,-0.055525,3.3143,0.024701,0.025943,-8.5091e-13,1,89.205,140,0,0
0.53466,3.2851,-32.636,-0.055794,0.0044101,5.8807e-11,9.5105e-12,34.373,-32.636,-0.055794,3.2851,0.024708,0.026004,-8.5105e-13,1,89.306,140.11,0,0
0.53313,3.256,-32.71,-0.056069,0.0044404,5.8235e-11,9.2107e-12,34.43,-32.71,-0.056069,3.256,0.024714,0.026065,-8.5119e-13,1,89.408,140.21,0,0
0.53159,3.2268,-32.785,-0.056351,0.004471,5.7502e-11,8.9108e-12,34.487,-32.785,-0.056351,3.2268,0.02472,0.026126,-8.5133e-13,1,89.51,140.31,0,0
0.53005,3.1977,-32.859,-0.05664,0.0045017,5.6609e-11,8.6111e-12,34.544,-32.859,-0.05664,3.1977,0.024727,0.026188,-8.5147e-13,1,89.611,140.41,0,0
0.52851,3.1685,-32.933,-0.056935,0.0045325,5.5556e-11,8.3112e-12,34.601,-32.933,-0.056935,3.1685,0.024733,0.026249,-8.5161e-13,1,89.713,140.51,0,0
0.52697,3.1394,-33.007,-0.057237,0.0045635,5.4343e-11,8.0115e-12,34.658,-33.007,-0.057237,3.1394,0.024739,0.02631,-8.5175e-13,1,89.814,140.61,0,0
0.52543,3.1102,-33.081,-0.057546,0.0045946,5.297e-11,7.7116e-12,34.716,-33.081,-0.057546,3.1102,0.024745,0.026371,-8.5189e-13,1,89.916,140.72,0,0
0.5239,3.081,-33.155,-0.057862,0.0046258,5.1438e-11,7.4118e-12,34.773,-33.155,-0.057862,3.081,0.024752,0.026432,-8.5203e-13,1,90.018,140.82,0,0
0.52236,3.0518,-33.229,-0.058184,0.0046572,4.9745e-11,7.112e-12,34.83,-33.229,-0.058184,3.0518,0.024758,0.026493,-8.5217e-13,1,90.119,140.92,0,0
0.52082,3.0226,-33.302,-0.058513,0.0046888,4.7892e-11,6.8122e-12,34.886,-33.302,-0.058513,3.0226,0.024764,0.026555,-8.5231e-13,1,90.221,141.02,0,0
0.51928,2.9934,-33.376,-0.058849,0.0047205,4.588e-11,6.5124e-12,34.943,-33.376,-0.058849,2.9934,0.024771,0.026616,-8.5245e-13,1,90.322,141.12,0,0
0.51774,2.9642,-33.45,-0.059191,0.0047523,4.3707e-11,6.2126e-12,35,-33.45,-0.059191,2.9642,0.024777,0.026677,-8.5259e-13,1,90.424,141.22,0,0
0.5162,2.935,-33.523,-0.05954,0.0047843,4.1375e-11,5.9128e-12,35.057,-33.523,-0.05954,2.935,0.024783,0.026738,-8.5272e-13,1,90.526,141.33,0,0
0.51466,2.9058,-33.597,-0.059896,0.0048164,3.8883e-11,5.613e-12,35.114,-33.597,-0.059896,2.9058,0.02479,0.026799,-8.5286e-13,1,90.627,141.43,0,0
0.51313,2.8766,-33.671,-0.060258,0.0048487,3.623e-11,5.3132e-12,35.171,-33.671,-0.060258,2.8766,0.024796,0.02686,-8.53e-13,1,90.729,141.53,0,0
0.51159,2.8473,-33.744,-0.060627,0.0048811,3.3418e-11,5.0134e-12,35.227,-33.744,-0.060627,2.8473,0.024802,0.026921,-8.5314e-13,1,90.83,141.63,0,0
0.51005,2.8181,-33.818,-0.061003,0.0049137,3.0446e-11,4.7136e-12,35.284,-33.818,-0.061003,2.8181,0.024808,0.026983,-8.5328e-13,1,90.932,141.73,0,0
0.50851,2.7888,-33.891,-0.061385,0.0049464,2.7313e-11,4.4138e-12,35.341,-33.891,-0.061385,2.7888,0.024815,0.027044,-8.5342e-13,1,91.034,141.83,0,0
0.50697,2.7596,-33.964,-0.061774,0.0049792,2.4022e-11,4.114e-12,35.398,-33.964,-0.061774,2.7596,0.024821,0.027105,-8.5356e-13,1,91.135,141.94,0,0
0.50543,2.7303,-34.038,-0.06217,0.0050122,2.0569e-11,3.8142e-12,35.454,-34.038,-0.06217,2.7303,0.024827,0.027166,-8.537e-13,1,91.237,142.04,0,0
0.5039,2.701,-34.111,-0.062573,0.0050453,1.6957e-11,3.5144e-12,35.511,-34.111,-0.062573,2.701,0.024834,0.027227,-8.5384e-13,1,91.338,142.14,0,0
0.50235,2.6716,-34.184,-0.062985,0.0051058,1.3174e-11,3.2145e-12,35.568,-34.184,-0.062985,2.6716,0.02484,0.027289,-8.5398e-13,1,91.44,142.24,0,0
0.50119,2.64,-34.259,-0.064121,0.0051116,1.3341e-11,3.4895e-12,35.624,-34.259,-0.064121,2.64,0.024846,0.02735,-8.5411e-13,1,91.542,142.34,0,0
0.50003,2.6086,-34.333,-0.065169,0.0051167,1.3492e-11,3.7646e-12,35.68,-34.333,-0.065169,2.6086,0.024852,0.027411,-8.5425e-13,1,91.643,142.44,0,0
0.49886,2.5775,-34.407,-0.06613,0.0051211,1.3627e-11,4.0397e-12,35.736,-34.407,-0.06613,2.5775,0.024859,0.027472,-8.5438e-13,1,91.745,142.54,0,0
0.4977,2.5466,-34.481,-0.067004,0.0051249,1.3746e-11,4.3147e-12,35.792,-34.481,-0.067004,2.5466,0.024865,0.027533,-8.5451e-13,1,91.846,142.65,0,0
0.49654,2.5159,-34.554,-0.06779,0.005128,1.3849e-11,4.5898e-12,35.849,-34.554,-0.06779,2.5159,0.024871,0.027594,-8.5465e-13,1,91.948,142.75,0,0
0.49538,2.4854,-34.628,-0.06849,0.0051304,1.3935e-11,4.8649e-12,35.905,-34.628,-0.06849,2.4854,0.024877,0.027655,-8.5478e-13,1,92.05,142.85,0,0
0.49422,2.4551,-34.701,-0.069102,0.0051322,1.4006e-11,5.14e-12,35.961,-34.701,-0.069102,2.4551,0.024884,0.027717,-8.5491e-13,1,92.151,142.95,0,0
0.49305,2.4251,-34.775,-0.069627,0.0051333,1.4061e-11,5.4151e-12,36.018,-34.775,-0.069627,2.4251,0.02489,0.027778,-8.5505e-13,1,92.253,143.05,0,0
0.49189,2.3952,-34.848,-0.070065,0.0051337,1.41e-11,5.6902e-12,36.074,-34.848,-0.070065,2.3952,0.024896,0.027839,-8.5518e-13,1,92.354,143.15,0,0
0.49073,2.3656,-34.921,-0.070416,0.0051335,1.4123e-11,5.9653e-12,36.131,-34.921,-0.070416,2.3656,0.024902,0.0279,-8.5531e-13,1,92.456,143.26,0,0
0.48957,2.3363,-34.994,-0.07068,0.0051326,1.413e-11,6.2405e-12,36.187,-34.994,-0.07068,2.3363,0.024909,0.027961,-8.5545e-13,1,92.558,143.36,0,0
0.48841,2.3071,-35.067,-0.070856,0.005131,1.4121e-11,6.5156e-12,36.244,-35.067,-0.070856,2.3071,0.024915,0.028022,-8.5558e-13,1,92.659,143.46,0,0
0.48725,2.2781,-35.14,-0.070945,0.0051288,1.4096e-11,6.7907e-12,36.301,-35.14,-0.070945,2.2781,0.024921,0.028084,-8.5571e-13,1,92.761,143.56,0,0
0.48608,2.2494,-35.212,-0.070947,0.0051259,1.4055e-11,7.0658e-12,36.357,-35.212,-0.070947,2.2494,0.024927,0.028145,-8.5585e-13,1,92.862,143.66,0,0
0.48492,2.2209,-35.285,-0.070862,0.0051223,1.3998e-11,7.341e-12,36.414,-35.285,-0.070862,2.2209,0.024933,0.028206,-8.5598e-13,1,92.964,143.76,0,0
0.48376,2.1926,-35.357,-0.07069,0.0051181,1.3925e-11,7.6161e-12,36.471,-35.357,-0.07069,2.1926,0.02494,0.028267,-8.5611e-13,1,93.066,143.87,0,0
0.4826,2.1646,-35.429,-0.070431,0.0051132,1.3836e-11,7.8913e-12,36.528,-35.429,-0.070431,2.1646,0.024946,0.028328,-8.5625e-13,1,93.167,143.97,0,0
0.48144,2.1367,-35.501,-0.070084,0.0051076,1.3731e-11,8.1664e-12,36.585,-35.501,-0.070084,2.1367,0.024952,0.028389,-8.5638e-13,1,93.269,144.07,0,0
0.48027,2.1091,-35.573,-0.06965,0.0051014,1.361e-11,8.4416e-12,36.642,-35.573,-0.06965,2.1091,0.024958,0.02845,-8.5651e-13,1,93.37,144.17,0,0
0.47911,2.0817,-35.645,-0.069129,0.0050945,1.3473e-11,8.7168e-12,36.699,-35.645,-0.069129,2.0817,0.024964,0.028512,-8.5665e-13,1,93.472,144.27,0,0
0.47795,2.0545,-35.717,-0.068521,0.0050869,1.332e-11,8.9919e-12,36.756,-35.717,-0.068521,2.0545,0.024971,0.028573,-8.5678e-13,1,93.574,144.37,0,0
0.47679,2.0275,-35.789,-0.067826,0.0050787,1.3151e-11,9.2671e-12,36.813,-35.789,-0.067826,2.0275,0.024977,0.028634,-8.5691e-13,1,93.675,144.48,0,0
0.47563,2.0008,-35.86,-0.067043,0.0050698,1.2966e-11,9.5423e-12,36.87,-35.86,-0.067043,2.0008,0.024983,0.028695,-8.5705e-13,1,93.777,144.58,0,0
0.47447,1.9743,-35.931,-0.066173,0.0050602,1.2765e-11,9.8175e-12,36.928,-35.931,-0.066173,1.9743,0.024989,0.028756,-8.5718e-13,1,93.878,144.68,0,0
0.4733,1.948,-36.003,-0.065217,0.00505,1.2548e-11,1.0093e-11,36.985,-36.003,-0.065217,1.948,0.024995,0.028817,-8.5731e-13,1,93.98,144.78,0,0
0.47214,1.9219,-36.074,-0.064173,0.0050391,1.2316e-11,1.0368e-11,37.042,-36.074,-0.064173,1.9219,0.025001,0.028878,-8.5745e-13,1,94.082,144.88,0,0
0.47098,1.896,-36.145,-0.063041,0.0050275,1.2067e-11,1.0643e-11,37.1,-36.145,-0.063041,1.896,0.025008,0.02894,-8.5758e-13,1,94.183,144.98,0,0
0.46982,1.8704,-36.215,-0.061823,0.0050153,1.1802e-11,1.0918e-11,37.157,-36.215,-0.061823,1.8704,0.025014,0.029001,-8.5771e-13,1,94.285,145.08,0,0
0.46866,1.8449,-36.286,-0.060517,0.0050024,1.1521e-11,1.1194e-11,37.215,-36.286,-0.060517,1.8449,0.02502,0.029062,-8.5784e-13,1,94.386,145.19,0,0
0.4675,1.8197,-36.357,-0.059125,0.0049888,1.1224e-11,1.1469e-11,37.272,-36.357,-0.059125,1.8197,0.025026,0.029123,-8.5798e-13,1,94.488,145.29,0,0
0.46633,1.7947,-36.427,-0.057645,0.0049746,1.0911e-11,1.1744e-11,37.33,-36.427,-0.057645,1.7947,0.025032,0.029184,-8.5811e-13,1,94.59,145.39,0,0
0.46517,1.77,-36.497,-0.056078,0.0049597,1.0582e-11,1.2019e-11,37.388,-36.497,-0.056078,1.77,0.025038,0.029245,-8.5824e-13,1,94.691,145.49,0,0
0.46401,1.7454,-36.568,-0.054423,0.0049441,1.0237e-11,1.2294e-11,37.445,-36.568,-0.054423,1.7454,0.025045,0.029306,-8.5838e-13,1,94.793,145.59,0,0
0.46285,1.7211,-36.638,-0.052682,0.0049279,9.8761e-12,1.257e-11,37.503,-36.638,-0.052682,1.7211,0.025051,0.029368,-8.5851e-13,1,94.894,145.69,0,0
0.46169,1.697,-36.708,-0.050853,0.004911,9.4992e-12,1.2845e-11,37.561,-36.708,-0.050853,1.697,0.025057,0.029429,-8.5864e-13,1,94.996,145.8,0,0
0.46052,1.6731,-36.777,-0.048938,0.0048934,9.1063e-12,1.312e-11,37.619,-36.777,-0.048938,1.6731,0.025063,0.02949,-8.5878e-13,1,95.098,145.9,0,0
0.45936,1.6494,-36.847,-0.046934,0.0048752,8.6974e-12,1.3395e-11,37.677,-36.847,-0.046934,1.6494,0.025069,0.029551,-8.5891e-13,1,95.199,146,0,0
0.4582,1.626,-36.917,-0.044844,0.0048563,8.2725e-12,1.3671e-11,37.735,-36.917,-0.044844,1.626,0.025075,0.029612,-8.5904e-13,1,95.301,146.1,0,0
0.45704,1.6028,-36.986,-0.042667,0.0048367,7.8316e-12,1.3946e-11,37.793,-36.986,-0.042667,1.6028,0.025081,0.029673,-8.5918e-13,1,95.402,146.2,0,0
0.45588,1.5797,-37.055,-0.040403,0.0048165,7.3747e-12,1.4221e-11,37.851,-37.055,-0.040403,1.5797,0.025088,0.029735,-8.5931e-13,1,95.504,146.3,0,0
0.45472,1.557,-37.125,-0.038051,0.0047956,6.9019e-12,1.4496e-11,37.909,-37.125,-0.038051,1.557,0.025094,0.029796,-8.5944e-13,1,95.606,146.41,0,0
0.45355,1.5344,-37.194,-0.035612,0.004774,6.413e-12,1.4772e-11,37.967,-37.194,-0.035612,1.5344,0.0251,0.029857,-8.5958e-13,1,95.707,146.51,0,0
0.45239,1.512,-37.263,-0.033086,0.0047517,5.9081e-12,1.5047e-11,38.025,-37.263,-0.033086,1.512,0.025106,0.029918,-8.5971e-13,1,95.809,146.61,0,0
0.45123,1.4899,-37.331,-0.030473,0.0047288,5.3872e-12,1.5322e-11,38.084,-37.331,-0.030473,1.4899,0.025112,0.029979,-8.5984e-13,1,95.91,146.71,0,0
0.45007,1.468,-37.4,-0.027773,0.0047053,4.8504e-12,1.5598e-11,38.142,-37.4,-0.027773,1.468,0.025118,0.03004,-8.5998e-13,1,96.012,146.81,0,0
0.44891,1.4463,-37.469,-0.024985,0.004681,4.2975e-12,1.5873e-11,38.2,-37.469,-0.024985,1.4463,0.025124,0.030101,-8.6011e-13,1,96.114,146.91,0,0
0.44775,1.4248,-37.537,-0.02211,0.0046561,3.7287e-12,1.6148e-11,38.259,-37.537,-0.02211,1.4248,0.02513,0.030163,-8.6024e-13,1,96.215,147.02,0,0
0.44658,1.4036,-37.605,-0.019148,0.0046306,3.1438e-12,1.6424e-11,38.317,-37.605,-0.019148,1.4036,0.025136,0.030224,-8.6038e-13,1,96.317,147.12,0,0
0.44542,1.3826,-37.674,-0.016099,0.0046043,2.543e-12,1.6699e-11,38.376,-37.674,-0.016099,1.3826,0.025143,0.030285,-8.6051e-13,1,96.418,147.22,0,0
0.44426,1.3616,-37.742,-0.012965,0.0046045,1.9238e-12,1.6973e-11,38.435,-37.742,-0.012963,1.3616,0.025149,0.030346,-8.6064e-13,1,96.52,147.32,0,0
0.44399,1.3327,-37.826,-0.01644,0.0045422,1.8145e-12,1.6498e-11,38.502,-37.826,-0.015831,1.3321,0.025155,0.030408,-8.6077e-13,1,96.622,147.42,0,0
0.44373,1.3037,-37.91,-0.019958,0.0044801,1.7052e-12,1.6023e-11,38.569,-37.91,-0.01879,1.3026,0.025161,0.030469,-8.6089e-13,1,96.723,147.52,0,0
0.44347,1.2746,-37.994,-0.023519,0.0044181,1.5959e-12,1.5549e-11,38.636,-37.994,-0.021839,1.2729,0.025167,0.03053,-8.6101e-13,1,96.825,147.62,0,0
0.4432,1.2453,-38.078,-0.027121,0.0043563,1.4866e-12,1.5074e-11,38.703,-38.078,-0.024978,1.2431,0.025173,0.030591,-8.6114e-13,1,96.926,147.73,0,0
0.44294,1.2158,-38.162,-0.030766,0.0042946,1.3773e-12,1.4599e-11,38.77,-38.162,-0.028207,1.2132,0.025179,0.030652,-8.6126e-13,1,97.028,147.83,0,0
0.44268,1.1862,-38.246,-0.034453,0.0042332,1.268e-12,1.4124e-11,38.836,-38.246,-0.031525,1.1833,0.025186,0.030713,-8.6138e-13,1,97.13,147.93,0,0
0.44242,1.1564,-38.33,-0.038182,0.0041719,1.1587e-12,1.365e-11,38.903,-38.33,-0.034933,1.1532,0.025192,0.030774,-8.6151e-13,1,97.231,148.03,0,0
0.44215,1.1265,-38.414,-0.041954,0.0041108,1.0494e-12,1.3175e-11,38.969,-38.414,-0.038431,1.123,0.025198,0.030836,-8.6163e-13,1,97.333,148.13,0,0
0.44189,1.0964,-38.498,-0.045768,0.0040499,9.4009e-13,1.27e-11,39.035,-38.498,-0.04202,1.0927,0.025204,0.030897,-8.6175e-13,1,97.434,148.23,0,0
0.44163,1.0662,-38.582,-0.049624,0.0039891,8.3079e-13,1.2225e-11,39.102,-38.582,-0.045698,1.0623,0.02521,0.030958,-8.6188e-13,1,97.536,148.34,0,0
0.44136,1.0358,-38.665,-0.053522,0.0039285,7.2148e-13,1.1751e-11,39.168,-38.665,-0.049466,1.0318,0.025216,0.031019,-8.62e-13,1,97.638,148.44,0,0
0.4411,1.0053,-38.749,-0.057463,0.0038681,6.1218e-13,1.1276e-11,39.234,-38.749,-0.053323,1.0012,0.025222,0.03108,-8.6212e-13,1,97.739,148.54,0,0
0.44084,0.97466,-38.833,-0.061445,0.0038078,5.0288e-13,1.0801e-11,39.3,-38.833,-0.057271,0.97049,0.025228,0.031141,-8.6225e-13,1,97.841,148.64,0,0
0.44058,0.94384,-38.917,-0.065471,0.0037478,3.9356e-13,1.0327e-11,39.365,-38.917,-0.061309,0.93967,0.025235,0.031202,-8.6237e-13,1,97.942,148.74,0,0
0.44031,0.91287,-39,-0.069538,0.0036879,2.8427e-13,9.8519e-12,39.431,-39,-0.065436,0.90876,0.025241,0.031264,-8.625e-13,1,98.044,148.84,0,0
0.44005,0.88174,-39.084,-0.073648,0.0036281,1.7495e-13,9.3772e-12,39.497,-39.084,-0.069654,0.87774,0.025247,0.031325,-8.6262e-13,1,98.146,148.95,0,0
0.43979,0.85046,-39.168,-0.0778,0.0035686,6.5651e-14,8.9025e-12,39.562,-39.168,-0.073961,0.84663,0.025253,0.031386,-8.6274e-13,1,98.247,149.05,0,0
0.43953,0.81904,-39.251,-0.081994,0.0035092,-4.3665e-14,8.4278e-12,39.628,-39.251,-0.078358,0.8154,0.025259,0.031447,-8.6287e-13,1,98.349,149.15,0,0
0.43926,0.78746,-39.335,-0.08623,0.00345,-1.5296e-13,7.9532e-12,39.693,-39.335,-0.082845,0.78407,0.025265,0.031508,-8.6299e-13,1,98.45,149.25,0,0
0.439,0.75573,-39.419,-0.09051,0.0033909,-2.6228e-13,7.4784e-12,39.758,-39.419,-0.087422,0.75264,0.025271,0.031569,-8.6311e-13,1,98.552,149.35,0,0
0.43874,0.72385,-39.502,-0.09483,0.0033321,-3.7158e-13,7.0038e-12,39.823,-39.502,-0.092089,0.72111,0.025277,0.03163,-8.6324e-13,1,98.654,149.45,0,0
0.43847,0.69182,-39.586,-0.099194,0.0032734,-4.8089e-13,6.5291e-12,39.888,-39.586,-0.096846,0.68947,0.025283,0.031692,-8.6336e-13,1,98.755,149.56,0,0
0.43821,0.65964,-39.669,-0.1036,0.0032148,-5.9019e-13,6.0545e-12,39.953,-39.669,-0.10169,0.65773,0.025289,0.031753,-8.6348e-13,1,98.857,149.66,0,0
0.43795,0.6273,-39.753,-0.10805,0.0031565,-6.9951e-13,5.5798e-12,40.018,-39.753,-0.10663,0.62588,0.025296,0.031814,-8.6361e-13,1,98.958,149.76,0,0
0.43769,0.59482,-39.836,-0.11254,0.0030983,-8.0881e-13,5.1051e-12,40.082,-39.836,-0.11166,0.59394,0.025302,0.031875,-8.6373e-13,1,99.06,149.86,0,0
0.43742,0.56219,-39.92,-0.11707,0.0030403,-9.1811e-13,4.6305e-12,40.147,-39.92,-0.11677,0.56189,0.025308,0.031936,-8.6385e-13,1,99.162,149.96,0,0
0.43716,0.5294,-40.003,-0.12164,0.0029825,-1.0274e-12,4.1558e-12,40.211,-40.003,-0.12198,0.52973,0.025314,0.031997,-8.6398e-13,1,99.263,150.06,0,0
0.4369,0.49646,-40.087,-0.12626,0.0029248,-1.1367e-12,3.6812e-12,40.275,-40.087,-0.12727,0.49747,0.02532,0.032058,-8.641e-13,1,99.365,150.16,0,0
0.43663,0.46337,-40.17,-0.13092,0.0028673,-1.246e-12,3.2065e-12,40.34,-40.17,-0.13266,0.46511,0.025326,0.03212,-8.6422e-13,1,99.466,150.27,0,0
0.43637,0.43013,-40.253,-0.13562,0.00281,-1.3553e-12,2.7319e-12,40.404,-40.253,-0.13814,0.43265,0.025332,0.032181,-8.6435e-13,1,99.568,150.37,0,0
0.43611,0.39674,-40.337,-0.14037,0.0027529,-1.4647e-12,2.2573e-12,40.468,-40.337,-0.1437,0.40007,0.025338,0.032242,-8.6447e-13,1,99.67,150.47,0,0
0.43585,0.3632,-40.42,-0.14515,0.0026959,-1.574e-12,1.7827e-12,40.532,-40.42,-0.14936,0.3674,0.025344,0.032303,-8.6459e-13,1,99.771,150.57,0,0
0.43558,0.3295,-40.503,-0.14998,0.0026391,-1.6833e-12,1.308e-12,40.595,-40.503,-0.1551,0.33462,0.02535,0.032364,-8.6472e-13,1,99.873,150.67,0,0
0.43532,0.29566,-40.587,-0.15485,0.0025825,-1.7926e-12,8.3342e-13,40.659,-40.587,-0.16094,0.30175,0.025356,0.032425,-8.6484e-13,1,99.974,150.77,0,0
0.43506,0.26166,-40.67,-0.15976,0.0025261,-1.9019e-12,3.5877e-13,40.723,-40.67,-0.16686,0.26876,0.025362,0.032486,-8.6497e-13,1,100.08,150.88,0,0
0.43479,0.22752,-40.753,-0.16472,0.0024698,-2.0112e-12,-1.1581e-13,40.786,-40.753,-0.17288,0.23568,0.025368,0.032548,-8.6509e-13,1,100.18,150.98,0,0
0.43453,0.19322,-40.836,-0.16971,0.0024137,-2.1205e-12,-5.9038e-13,40.849,-40.836,-0.17898,0.20249,0.025374,0.032609,-8.6521e-13,1,100.28,151.08,0,0
0.43427,0.15877,-40.919,-0.17475,0.0023578,-2.2298e-12,-1.065e-12,40.913,-40.919,-0.18518,0.16919,0.02538,0.03267,-8.6534e-13,1,100.38,151.18,0,0
0.43401,0.12417,-41.003,-0.17984,0.002302,-2.3391e-12,-1.5396e-12,40.976,-41.003,-0.19146,0.1358,0.025386,0.032731,-8.6546e-13,1,100.48,151.28,0,0
0.43374,0.089419,-41.086,-0.18496,0.0022464,-2.4484e-12,-2.0142e-12,41.039,-41.086,-0.19784,0.1023,0.025392,0.032792,-8.6558e-13,1,100.58,151.38,0,0
0.43348,0.05452,-41.169,-0.19013,0.002191,-2.5577e-12,-2.4888e-12,41.102,-41.169,-0.2043,0.068696,0.025398,0.032853,-8.6571e-13,1,100.69,151.49,0,0
0.43322,0.019464,-41.252,-0.19533,0.0021358,-2.667e-12,-2.9634e-12,41.164,-41.252,-0.21086,0.034986,0.025404,0.032914,-8.6583e-13,1,100.79,151.59,0,0
0.43296,-0.015738,-41.335,-0.20059,0.0020807,-2.7763e-12,-3.4379e-12,41.227,-41.335,-0.2175,0.0011779,0.02541,0.032976,-8.6595e-13,1,100.89,151.69,0,0
0.43269,-0.051096,-41.418,-0.20588,0.0020258,-2.8857e-12,-3.9126e-12,41.29,-41.418,-0.22424,-0.032739,0.025416,0.033037,-8.6608e-13,1,100.99,151.79,0,0
0.43243,-0.0866,-41.501,-0.21121,0.0019711,-2.995e-12,-4.3871e-12,41.352,-41.501,-0.23106,-0.066754,0.025422,0.033098,-8.662e-13,1,101.09,151.89,0,0
0.43217,-0.12226,-41.584,-0.21659,0.0019165,-3.1043e-12,-4.8617e-12,41.415,-41.584,-0.23797,-0.10088,0.025428,0.033159,-8.6632e-13,1,101.19,151.99,0,0
0.4319,-0.15807,-41.667,-0.22201,0.0018622,-3.2136e-12,-5.3362e-12,41.477,-41.667,-0.24498,-0.1351,0.025434,0.03322,-8.6645e-13,1,101.3,152.1,0,0
0.43164,-0.19402,-41.75,-0.22747,0.001808,-3.3229e-12,-5.8108e-12,41.539,-41.75,-0.25207,-0.16943,0.02544,0.033281,-8.6657e-13,1,101.4,152.2,0,0
0.43138,-0.23014,-41.833,-0.23298,0.0017539,-3.4322e-12,-6.2854e-12,41.601,-41.833,-0.25926,-0.20386,0.025446,0.033342,-8.6669e-13,1,101.5,152.3,0,0
0.43112,-0.2664,-41.916,-0.23852,0.0017001,-3.5415e-12,-6.7599e-12,41.663,-41.916,-0.26653,-0.23839,0.025452,0.033404,-8.6682e-13,1,101.6,152.4,0,0
