"ERROR","S:0","S:1","S:2","S:3","S:4","S:5","S_Mises","S_Principal:0","S_Principal:1","S_Principal:2","U:0","U:1","U:2","vtkValidPointMask","arc_length","Points:0","Points:1","Points:2"
6.4124,11.017,126.08,3.8812,-0.0044033,6.3537e-20,-2.2384e-18,118.8,3.8809,11.017,126.08,0.021337,-0.027115,3.4637e-21,1,0,50.8,0,0
6.4124,10.936,125.46,3.7812,-0.0044266,-3.1774e-20,-3.0725e-18,118.26,3.7809,10.936,125.46,0.021324,-0.027055,-4.2201e-21,1,0.1016,50.902,0,0
6.4124,10.855,124.83,3.6812,-0.00445,3.0753e-20,-2.2368e-18,117.73,3.681,10.856,124.83,0.02131,-0.026995,5.1999e-22,1,0.2032,51.003,0,0
6.4124,10.775,124.21,3.5812,-0.0044733,-5.8844e-20,-2.9901e-18,117.2,3.581,10.775,124.21,0.021297,-0.026935,-6.0297e-21,1,0.3048,51.105,0,0
6.4124,10.694,123.59,3.4813,-0.0044966,7.1873e-20,2.0943e-18,116.67,3.481,10.695,123.59,0.021283,-0.026875,-4.3999e-21,1,0.4064,51.206,0,0
6.4124,10.614,122.96,3.3813,-0.0045199,-4.9039e-20,-2.5214e-19,116.13,3.381,10.614,122.96,0.02127,-0.026815,-9.6487e-21,1,0.508,51.308,0,0
6.4124,10.533,122.34,3.2813,-0.0045433,-5.8992e-20,1.3285e-18,115.6,3.2811,10.533,122.34,0.021256,-0.026755,-4.296e-21,1,0.6096,51.41,0,0
6.4124,10.452,121.71,3.1813,-0.0045666,1.1608e-20,1.5448e-18,115.07,3.1811,10.453,121.71,0.021243,-0.026695,4.4962e-21,1,0.7112,51.511,0,0
6.4124,10.372,121.09,3.0814,-0.0045899,-1.5098e-20,2.2279e-18,114.54,3.0811,10.372,121.09,0.021229,-0.026635,1.2241e-21,1,0.8128,51.613,0,0
6.4124,10.291,120.46,2.9814,-0.0046132,1.0636e-20,-1.5292e-18,114.01,2.9812,10.292,120.46,0.021216,-0.026575,-1.4274e-20,1,0.9144,51.714,0,0
6.4124,10.211,119.84,2.8814,-0.0046366,1.4197e-20,-2.5064e-18,113.47,2.8812,10.211,119.84,0.021202,-0.026515,-1.3267e-20,1,1.016,51.816,0,0
6.4124,10.13,119.21,2.7815,-0.0046599,1.3295e-20,-4.2341e-18,112.94,2.7812,10.13,119.21,0.021189,-0.026455,1.1327e-20,1,1.1176,51.918,0,0
6.4124,10.05,118.59,2.6815,-0.0046832,5.6572e-20,-2.3275e-18,112.41,2.6812,10.05,118.59,0.021175,-0.026395,-3.013e-22,1,1.2192,52.019,0,0
6.4124,9.969,117.96,2.5815,-0.0047065,3.5284e-20,-2.0955e-18,111.88,2.5813,9.9692,117.96,0.021161,-0.026335,-6.9287e-21,1,1.3208,52.121,0,0
6.4124,9.8884,117.34,2.4815,-0.0047299,-5.7338e-20,-7.1704e-19,111.35,2.4813,9.8886,117.34,0.021148,-0.026275,-6.5613e-21,1,1.4224,52.222,0,0
6.4124,9.8078,116.71,2.3816,-0.0047532,7.4236e-20,-5.9033e-19,110.81,2.3813,9.808,116.71,0.021134,-0.026215,6.2733e-21,1,1.524,52.324,0,0
6.4124,9.7272,116.09,2.2816,-0.0047765,-1.4055e-20,-1.357e-18,110.28,2.2814,9.7275,116.09,0.021121,-0.026155,1.4723e-21,1,1.6256,52.426,0,0
6.4124,9.6466,115.47,2.1816,-0.0047998,1.0537e-19,-2.3026e-18,109.75,2.1814,9.6469,115.47,0.021107,-0.026095,5.1182e-21,1,1.7272,52.527,0,0
6.4124,9.566,114.84,2.0816,-0.0048232,-1.241e-20,3.5892e-19,109.22,2.0814,9.5663,114.84,0.021094,-0.026035,-1.6032e-20,1,1.8288,52.629,0,0
6.4124,9.4855,114.22,1.9817,-0.0048465,6.2758e-20,-1.0342e-18,108.68,1.9814,9.4857,114.22,0.02108,-0.025975,-1.9448e-21,1,1.9304,52.73,0,0
6.4124,9.4049,113.59,1.8817,-0.0048698,2.7967e-20,-1.1477e-18,108.15,1.8815,9.4051,113.59,0.021067,-0.025915,-7.6989e-21,1,2.032,52.832,0,0
6.4124,9.3243,112.97,1.7817,-0.0048931,5.3693e-20,2.7365e-18,107.62,1.7815,9.3245,112.97,0.021053,-0.025856,-1.9598e-22,1,2.1336,52.934,0,0
6.4124,9.2437,112.34,1.6818,-0.0049165,-2.1358e-20,-3.1382e-19,107.09,1.6815,9.2439,112.34,0.02104,-0.025796,-1.2839e-20,1,2.2352,53.035,0,0
6.4124,9.1631,111.72,1.5818,-0.0049398,-6.5283e-21,-2.8767e-18,106.56,1.5815,9.1633,111.72,0.021026,-0.025736,-8.0128e-21,1,2.3368,53.137,0,0
6.4124,9.0825,111.09,1.4818,-0.0049631,-1.9229e-20,1.423e-18,106.02,1.4816,9.0827,111.09,0.021013,-0.025676,1.4452e-21,1,2.4384,53.238,0,0
6.4124,9.0019,110.47,1.3818,-0.0049864,4.2103e-20,2.2369e-18,105.49,1.3816,9.0022,110.47,0.020999,-0.025616,-1.8586e-21,1,2.54,53.34,0,0
6.4124,8.9213,109.84,1.2819,-0.0050098,8.343e-21,-3.886e-19,104.96,1.2816,8.9216,109.84,0.020986,-0.025556,2.0328e-21,1,2.6416,53.442,0,0
6.4124,8.8408,109.22,1.1819,-0.0050331,-4.4154e-21,2.2528e-18,104.43,1.1817,8.841,109.22,0.020972,-0.025496,-1.0889e-20,1,2.7432,53.543,0,0
6.4124,8.7602,108.59,1.0819,-0.0050564,8.0807e-21,-2.5182e-18,103.89,1.0817,8.7604,108.59,0.020958,-0.025436,7.36e-21,1,2.8448,53.645,0,0
6.4124,8.6796,107.97,0.98194,-0.0050797,-2.1972e-20,3.0487e-19,103.36,0.98172,8.6798,107.97,0.020945,-0.025376,-9.3228e-21,1,2.9464,53.746,0,0
6.4124,8.599,107.35,0.88196,-0.0051031,2.5155e-20,1.4744e-18,102.83,0.88175,8.5992,107.35,0.020931,-0.025316,-5.9524e-21,1,3.048,53.848,0,0
6.4124,8.5184,106.72,0.78199,-0.0051264,2.6551e-20,9.7018e-19,102.3,0.78177,8.5186,106.72,0.020918,-0.025256,7.3275e-21,1,3.1496,53.95,0,0
6.4124,8.4378,106.1,0.68202,-0.0051497,-1.6881e-20,2.2289e-18,101.77,0.6818,8.438,106.1,0.020904,-0.025196,1.2045e-22,1,3.2512,54.051,0,0
6.4124,8.3572,105.47,0.58204,-0.005173,3.3362e-20,3.47e-18,101.23,0.58183,8.3575,105.47,0.020891,-0.025136,3.0922e-21,1,3.3528,54.153,0,0
6.4124,8.2767,104.85,0.48207,-0.0051964,-5.5152e-20,-1.057e-18,100.7,0.48186,8.2769,104.85,0.020877,-0.025076,-3.4752e-21,1,3.4544,54.254,0,0
6.4124,8.1961,104.22,0.3821,-0.0052197,5.6702e-21,-2.7552e-20,100.17,0.38189,8.1963,104.22,0.020864,-0.025016,-9.8885e-21,1,3.556,54.356,0,0
6.4124,8.1155,103.6,0.28213,-0.005243,2.1154e-20,-2.6978e-18,99.637,0.28192,8.1157,103.6,0.02085,-0.024956,-1.7711e-21,1,3.6576,54.458,0,0
6.4124,8.0349,102.97,0.18215,-0.0052663,-2.2195e-20,2.9798e-18,99.105,0.18194,8.0351,102.97,0.020837,-0.024896,4.4041e-21,1,3.7592,54.559,0,0
6.4124,7.9543,102.35,0.082178,-0.0052897,8.7605e-22,1.2849e-18,98.572,0.081972,7.9545,102.35,0.020823,-0.024836,5.7887e-21,1,3.8608,54.661,0,0
6.4124,7.8737,101.72,-0.017796,-0.005313,5.6436e-20,-9.6354e-19,98.04,-0.018,7.8739,101.72,0.02081,-0.024776,-3.9425e-22,1,3.9624,54.762,0,0
6.4124,7.7931,101.1,-0.11777,-0.0053363,4.5789e-21,-2.5851e-18,97.508,-0.11797,7.7933,101.1,0.020796,-0.024716,6.6678e-23,1,4.064,54.864,0,0
6.4124,7.7126,100.47,-0.21774,-0.0053596,4.9216e-21,-6.3371e-18,96.976,-0.21794,7.7128,100.47,0.020783,-0.024656,4.5182e-21,1,4.1656,54.966,0,0
6.4124,7.632,99.85,-0.31771,-0.0053829,1.2904e-20,-2.4e-18,96.444,-0.31791,7.6322,99.85,0.020769,-0.024596,7.0461e-21,1,4.2672,55.067,0,0
6.4124,7.5514,99.226,-0.41769,-0.0054063,-1.6561e-20,3.8565e-19,95.911,-0.41789,7.5516,99.226,0.020755,-0.024536,-8.4e-21,1,4.3688,55.169,0,0
6.4124,7.4708,98.601,-0.51766,-0.0054296,1.1481e-20,1.0641e-19,95.379,-0.51786,7.471,98.601,0.020742,-0.024477,-1.0368e-20,1,4.4704,55.27,0,0
6.4124,7.3902,97.976,-0.61763,-0.0054529,6.1181e-20,-1.693e-18,94.847,-0.61783,7.3904,97.976,0.020728,-0.024417,-1.2208e-21,1,4.572,55.372,0,0
6.4124,7.3096,97.352,-0.7176,-0.0054762,-1.9657e-20,-3.6897e-19,94.315,-0.7178,7.3098,97.352,0.020715,-0.024357,6.1859e-21,1,4.6736,55.474,0,0
6.4124,7.229,96.727,-0.81758,-0.0054996,-2.1115e-20,-6.0928e-19,93.783,-0.81777,7.2292,96.727,0.020701,-0.024297,3.5796e-21,1,4.7752,55.575,0,0
6.4124,7.1484,96.103,-0.91755,-0.0055229,3.1312e-21,2.1969e-18,93.25,-0.91774,7.1486,96.103,0.020688,-0.024237,-1.3738e-21,1,4.8768,55.677,0,0
6.4124,7.0679,95.478,-1.0175,-0.0055462,1.1052e-20,-8.5876e-19,92.718,-1.0177,7.068,95.478,0.020674,-0.024177,-3.9959e-21,1,4.9784,55.778,0,0
6.4124,6.9873,94.853,-1.1175,-0.0055695,-1.8827e-20,1.1848e-18,92.186,-1.1177,6.9875,94.853,0.020661,-0.024117,-1.6847e-20,1,5.08,55.88,0,0
6.3947,7.1056,94.47,-1.1035,-0.0054466,-1.2267e-20,-2.9148e-18,91.75,-1.1037,7.1058,94.47,0.020654,-0.024057,-5.4865e-21,1,5.1816,55.982,0,0
6.377,7.224,94.087,-1.0895,-0.0053236,5.3746e-22,-6.8487e-19,91.314,-1.0897,7.2242,94.087,0.020647,-0.023997,5.2841e-21,1,5.2832,56.083,0,0
6.3594,7.3423,93.703,-1.0755,-0.0052006,-7.057e-21,5.1488e-19,90.878,-1.0756,7.3425,93.703,0.02064,-0.023937,-8.7877e-21,1,5.3848,56.185,0,0
6.3417,7.4607,93.32,-1.0614,-0.0050776,-1.7228e-20,-4.6617e-19,90.442,-1.0616,7.4609,93.32,0.020633,-0.023877,2.156e-21,1,5.4864,56.286,0,0
6.324,7.579,92.936,-1.0474,-0.0049546,-2.7455e-21,1.7488e-18,90.007,-1.0476,7.5792,92.936,0.020626,-0.023817,8.0663e-22,1,5.588,56.388,0,0
6.3064,7.6974,92.553,-1.0334,-0.0048317,2.0618e-20,7.2822e-19,89.571,-1.0336,7.6976,92.553,0.020619,-0.023757,-1.1438e-22,1,5.6896,56.49,0,0
6.2887,7.8158,92.17,-1.0194,-0.0047087,-1.4563e-20,2.4134e-18,89.135,-1.0196,7.8159,92.17,0.020612,-0.023697,7.0869e-21,1,5.7912,56.591,0,0
6.271,7.9341,91.786,-1.0054,-0.0045857,2.9817e-20,-2.9168e-18,88.699,-1.0055,7.9343,91.786,0.020605,-0.023637,9.6495e-21,1,5.8928,56.693,0,0
6.2534,8.0525,91.403,-0.99136,-0.0044627,-1.3647e-20,1.3588e-18,88.263,-0.99152,8.0526,91.403,0.020598,-0.023577,4.3731e-22,1,5.9944,56.794,0,0
6.2357,8.1708,91.019,-0.97735,-0.0043397,7.3626e-21,-2.8578e-19,87.827,-0.9775,8.171,91.019,0.020592,-0.023517,3.2705e-21,1,6.096,56.896,0,0
6.2181,8.2892,90.636,-0.96333,-0.0042168,-8.8136e-21,-8.266e-19,87.391,-0.96348,8.2893,90.636,0.020585,-0.023457,-9.5187e-21,1,6.1976,56.998,0,0
6.2004,8.4075,90.253,-0.94932,-0.0040938,2.777e-21,-4.7726e-19,86.955,-0.94946,8.4077,90.253,0.020578,-0.023397,-1.1713e-21,1,6.2992,57.099,0,0
6.1827,8.5259,89.869,-0.9353,-0.0039708,3.6267e-21,6.1644e-19,86.519,-0.93544,8.526,89.869,0.020571,-0.023337,-6.0274e-21,1,6.4008,57.201,0,0
6.1651,8.6442,89.486,-0.92129,-0.0038478,4.5611e-21,5.1428e-19,86.084,-0.92142,8.6444,89.486,0.020564,-0.023277,-2.1105e-21,1,6.5024,57.302,0,0
6.1474,8.7626,89.102,-0.90727,-0.0037248,5.4577e-22,-1.121e-18,85.648,-0.9074,8.7627,89.102,0.020557,-0.023217,-1.2572e-20,1,6.604,57.404,0,0
6.1297,8.8809,88.719,-0.89326,-0.0036018,-2.1033e-20,-1.5354e-18,85.212,-0.89338,8.8811,88.719,0.02055,-0.023158,-1.7318e-21,1,6.7056,57.506,0,0
6.1121,8.9993,88.336,-0.87924,-0.0034789,-7.6693e-21,8.7965e-19,84.776,-0.87937,8.9994,88.336,0.020543,-0.023098,-7.1151e-21,1,6.8072,57.607,0,0
6.0944,9.1177,87.952,-0.86523,-0.0033559,-6.2897e-21,-2.4664e-19,84.34,-0.86535,9.1178,87.952,0.020536,-0.023038,-8.5998e-21,1,6.9088,57.709,0,0
6.0767,9.236,87.569,-0.85121,-0.0032329,3.4417e-21,-2.5742e-19,83.904,-0.85133,9.2361,87.569,0.020529,-0.022978,-2.8421e-21,1,7.0104,57.81,0,0
6.0591,9.3544,87.185,-0.8372,-0.0031099,-1.3774e-20,-1.2356e-18,83.468,-0.83731,9.3545,87.185,0.020522,-0.022918,2.9973e-21,1,7.112,57.912,0,0
6.0414,9.4727,86.802,-0.82318,-0.0029869,-9.2352e-21,-1.6696e-18,83.032,-0.82329,9.4728,86.802,0.020515,-0.022858,9.0201e-21,1,7.2136,58.014,0,0
6.0237,9.5911,86.419,-0.80916,-0.002864,7.7318e-21,2.4588e-19,82.596,-0.80927,9.5912,86.419,0.020509,-0.022798,8.4372e-21,1,7.3152,58.115,0,0
6.0061,9.7094,86.035,-0.79515,-0.002741,2.2785e-20,-2.609e-18,82.16,-0.79525,9.7095,86.035,0.020502,-0.022738,8.0594e-21,1,7.4168,58.217,0,0
5.9884,9.8278,85.652,-0.78113,-0.002618,1.0751e-20,2.5669e-19,81.725,-0.78123,9.8279,85.652,0.020495,-0.022678,-2.1962e-21,1,7.5184,58.318,0,0
5.9707,9.9461,85.268,-0.76712,-0.002495,1.1438e-20,1.3878e-18,81.289,-0.76721,9.9462,85.268,0.020488,-0.022618,1.3401e-21,1,7.62,58.42,0,0
5.9531,10.064,84.885,-0.7531,-0.002372,5.1617e-21,1.8567e-18,80.853,-0.75319,10.065,84.885,0.020481,-0.022558,2.2052e-21,1,7.7216,58.522,0,0
5.9354,10.183,84.502,-0.73909,-0.002249,1.8324e-20,-1.4658e-19,80.417,-0.73918,10.183,84.502,0.020474,-0.022498,-6.285e-21,1,7.8232,58.623,0,0
5.9177,10.301,84.118,-0.72507,-0.0021261,2.2183e-21,3.7014e-19,79.981,-0.72516,10.301,84.118,0.020467,-0.022438,-1.482e-22,1,7.9248,58.725,0,0
5.9001,10.42,83.735,-0.71106,-0.0020031,1.5197e-20,-4.9605e-19,79.545,-0.71114,10.42,83.735,0.02046,-0.022378,3.9853e-21,1,8.0264,58.826,0,0
5.8824,10.538,83.351,-0.69704,-0.0018801,5.513e-21,1.2083e-18,79.109,-0.69712,10.538,83.351,0.020453,-0.022318,3.0824e-21,1,8.128,58.928,0,0
5.8647,10.656,82.968,-0.68303,-0.0017571,-9.998e-21,-3.8872e-19,78.673,-0.6831,10.656,82.968,0.020446,-0.022258,4.7554e-22,1,8.2296,59.03,0,0
5.8471,10.775,82.585,-0.66901,-0.0016341,2.6015e-21,-1.7684e-19,78.237,-0.66908,10.775,82.585,0.020439,-0.022198,-2.5285e-21,1,8.3312,59.131,0,0
5.8294,10.893,82.201,-0.655,-0.0015112,9.9325e-21,4.0553e-19,77.801,-0.65506,10.893,82.201,0.020432,-0.022138,-2.4639e-21,1,8.4328,59.233,0,0
5.8117,11.011,81.818,-0.64098,-0.0013882,2.8305e-20,-2.018e-18,77.366,-0.64104,11.011,81.818,0.020426,-0.022078,7.9752e-21,1,8.5344,59.334,0,0
5.7941,11.13,81.434,-0.62697,-0.0012652,1.317e-20,2.3334e-19,76.93,-0.62702,11.13,81.434,0.020419,-0.022018,2.2559e-21,1,8.636,59.436,0,0
5.7764,11.248,81.051,-0.61295,-0.0011422,5.3359e-21,-1.2277e-19,76.494,-0.613,11.248,81.051,0.020412,-0.021958,-5.4548e-21,1,8.7376,59.538,0,0
5.7588,11.366,80.668,-0.59894,-0.0010192,5.5864e-22,-7.0039e-19,76.058,-0.59899,11.366,80.668,0.020405,-0.021898,1.7146e-21,1,8.8392,59.639,0,0
5.7411,11.485,80.284,-0.58492,-0.00089625,-3.5703e-21,-2.5305e-19,75.622,-0.58497,11.485,80.284,0.020398,-0.021838,-8.0116e-21,1,8.9408,59.741,0,0
5.7234,11.603,79.901,-0.57091,-0.00077327,-1.8446e-21,-1.9365e-19,75.186,-0.57095,11.603,79.901,0.020391,-0.021779,-4.082e-21,1,9.0424,59.842,0,0
5.7058,11.721,79.517,-0.55689,-0.00065029,-2.3411e-21,-6.4888e-19,74.75,-0.55693,11.721,79.517,0.020384,-0.021719,7.3111e-22,1,9.144,59.944,0,0
5.6881,11.84,79.134,-0.54287,-0.0005273,-5.203e-21,-6.3748e-20,74.314,-0.54291,11.84,79.134,0.020377,-0.021659,4.726e-22,1,9.2456,60.046,0,0
5.6704,11.958,78.751,-0.52886,-0.00040432,-3.3911e-21,-2.4274e-19,73.878,-0.52889,11.958,78.751,0.02037,-0.021599,-3.9964e-21,1,9.3472,60.147,0,0
5.6528,12.077,78.367,-0.51484,-0.00028134,-1.8395e-21,8.5752e-20,73.443,-0.51487,12.077,78.367,0.020363,-0.021539,-2.5991e-21,1,9.4488,60.249,0,0
5.6351,12.195,77.984,-0.50083,-0.00015836,4.9925e-21,2.3033e-20,73.007,-0.50085,12.195,77.984,0.020356,-0.021479,-6.0127e-21,1,9.5504,60.35,0,0
5.6174,12.313,77.6,-0.48681,-3.5379e-05,3.0341e-22,-1.3209e-19,72.571,-0.48683,12.313,77.6,0.020349,-0.021419,-4.0386e-21,1,9.652,60.452,0,0
5.5998,12.432,77.217,-0.4728,8.7604e-05,-1.2002e-21,-3.8444e-19,72.135,-0.47281,12.432,77.217,0.020343,-0.021359,4.3421e-21,1,9.7536,60.554,0,0
5.5821,12.55,76.834,-0.45878,0.00021059,-2.503e-23,-3.0362e-20,71.699,-0.45879,12.55,76.834,0.020336,-0.021299,-1.4189e-22,1,9.8552,60.655,0,0
5.5644,12.668,76.45,-0.44477,0.00033357,-7.8609e-22,6.5895e-20,71.263,-0.44478,12.668,76.45,0.020329,-0.021239,-2.8425e-21,1,9.9568,60.757,0,0
5.5468,12.787,76.067,-0.43075,0.00045655,5.6367e-22,-4.1286e-20,70.827,-0.43076,12.787,76.067,0.020322,-0.021179,-4.8202e-22,1,10.058,60.858,0,0
5.5291,12.905,75.684,-0.41674,0.00057953,1.3726e-21,-1.2822e-19,70.391,-0.41674,12.905,75.684,0.020315,-0.021119,1.4032e-20,1,10.16,60.96,0,0
5.529,12.97,75.378,-0.41279,0.00076775,2.8607e-22,-8.8314e-21,70.07,-0.41279,12.97,75.378,0.020312,-0.021059,1.8437e-21,1,10.262,61.062,0,0
5.529,13.036,75.073,-0.40883,0.00095598,-7.0216e-23,5.62e-20,69.749,-0.40884,13.036,75.073,0.02031,-0.020999,-5.6432e-22,1,10.363,61.163,0,0
5.5289,13.101,74.767,-0.40488,0.0011442,6.7362e-22,8.762e-21,69.427,-0.40488,13.101,74.767,0.020308,-0.020939,5.7261e-21,1,10.465,61.265,0,0
5.5289,13.166,74.462,-0.40093,0.0013324,-3.0121e-22,-1.511e-20,69.106,-0.40093,13.166,74.462,0.020305,-0.020879,5.09e-22,1,10.566,61.366,0,0
5.5288,13.232,74.157,-0.39698,0.0015206,-1.2903e-23,2.3356e-20,68.785,-0.39698,13.232,74.157,0.020303,-0.020819,-5.8964e-21,1,10.668,61.468,0,0
5.5287,13.297,73.851,-0.39303,0.0017089,3.3212e-23,-2.6191e-20,68.463,-0.39303,13.297,73.851,0.0203,-0.020759,-3.3886e-21,1,10.77,61.57,0,0
5.5287,13.362,73.546,-0.38908,0.0018971,-1.7815e-22,2.8308e-20,68.142,-0.38908,13.362,73.546,0.020298,-0.020699,-3.9972e-21,1,10.871,61.671,0,0
5.5286,13.428,73.24,-0.38513,0.0020853,1.7023e-22,-3.521e-20,67.821,-0.38513,13.428,73.24,0.020295,-0.020639,4.5946e-21,1,10.973,61.773,0,0
5.5285,13.493,72.935,-0.38117,0.0022735,3.7869e-23,9.1938e-20,67.499,-0.38117,13.493,72.935,0.020293,-0.020579,-5.0761e-21,1,11.074,61.874,0,0
5.5285,13.559,72.63,-0.37722,0.0024618,-7.0389e-23,5.6646e-20,67.178,-0.37722,13.559,72.63,0.02029,-0.020519,-2.8443e-21,1,11.176,61.976,0,0
5.5284,13.624,72.324,-0.37327,0.00265,1.8663e-22,4.296e-20,66.857,-0.37327,13.624,72.324,0.020288,-0.020459,1.6781e-21,1,11.278,62.078,0,0
5.5284,13.689,72.019,-0.36932,0.0028382,6.7593e-22,1.1397e-21,66.535,-0.36932,13.689,72.019,0.020286,-0.020399,-2.8299e-21,1,11.379,62.179,0,0
5.5283,13.755,71.714,-0.36537,0.0030264,-5.8898e-22,-2.8136e-20,66.214,-0.36537,13.755,71.714,0.020283,-0.020339,1.2183e-21,1,11.481,62.281,0,0
5.5282,13.82,71.408,-0.36142,0.0032146,6.8659e-22,-8.4442e-21,65.893,-0.36142,13.82,71.408,0.020281,-0.020279,4.2952e-21,1,11.582,62.382,0,0
5.5282,13.885,71.103,-0.35746,0.0034029,-5.943e-22,-2.2594e-20,65.572,-0.35747,13.885,71.103,0.020278,-0.020219,1.9847e-21,1,11.684,62.484,0,0
5.5281,13.951,70.797,-0.35351,0.0035911,-2.718e-22,5.2719e-20,65.25,-0.35351,13.951,70.797,0.020276,-0.020159,-1.6304e-21,1,11.786,62.586,0,0
5.5281,14.016,70.492,-0.34956,0.0037793,3.6799e-22,8.7045e-20,64.929,-0.34956,14.016,70.492,0.020273,-0.020099,-2.6385e-21,1,11.887,62.687,0,0
5.528,14.081,70.187,-0.34561,0.0039675,-3.9358e-22,2.4748e-19,64.608,-0.34561,14.081,70.187,0.020271,-0.020039,5.16e-21,1,11.989,62.789,0,0
5.5279,14.147,69.881,-0.34166,0.0041558,-8.5496e-22,-6.362e-20,64.286,-0.34166,14.147,69.881,0.020268,-0.019979,-1.3387e-21,1,12.09,62.89,0,0
5.5279,14.212,69.576,-0.33771,0.004344,-3.4488e-22,-1.1448e-19,63.965,-0.33771,14.212,69.576,0.020266,-0.019919,-2.6928e-21,1,12.192,62.992,0,0
5.5278,14.277,69.271,-0.33376,0.0045322,1.2335e-22,1.6586e-19,63.644,-0.33376,14.277,69.271,0.020264,-0.019859,-3.1499e-21,1,12.294,63.094,0,0
5.5277,14.343,68.965,-0.3298,0.0047204,-4.4091e-22,-2.9216e-20,63.322,-0.32981,14.343,68.965,0.020261,-0.019799,-1.5391e-22,1,12.395,63.195,0,0
5.5277,14.408,68.66,-0.32585,0.0049086,-1.4131e-21,4.8884e-20,63.001,-0.32585,14.408,68.66,0.020259,-0.019739,6.7873e-21,1,12.497,63.297,0,0
5.5276,14.473,68.354,-0.3219,0.0050969,2.0367e-22,1.4103e-19,62.68,-0.3219,14.473,68.354,0.020256,-0.019679,7.1622e-22,1,12.598,63.398,0,0
5.5276,14.539,68.049,-0.31795,0.0052851,-2.2774e-22,3.1312e-19,62.358,-0.31795,14.539,68.049,0.020254,-0.019619,-8.4821e-22,1,12.7,63.5,0,0
5.5275,14.604,67.744,-0.314,0.0054733,-8.526e-23,-2.8152e-19,62.037,-0.314,14.604,67.744,0.020251,-0.019559,-5.4073e-21,1,12.802,63.602,0,0
5.5274,14.67,67.438,-0.31005,0.0056615,1.6482e-21,-1.1413e-19,61.716,-0.31005,14.67,67.438,0.020249,-0.019499,-3.4955e-21,1,12.903,63.703,0,0
5.5274,14.735,67.133,-0.30609,0.0058498,2.2107e-21,-1.6047e-19,61.394,-0.3061,14.735,67.133,0.020246,-0.01944,1.9636e-21,1,13.005,63.805,0,0
5.5273,14.8,66.828,-0.30214,0.006038,6.6639e-22,1.8628e-20,61.073,-0.30215,14.8,66.828,0.020244,-0.01938,-2.1474e-21,1,13.106,63.906,0,0
5.5273,14.866,66.522,-0.29819,0.0062262,-6.3808e-22,-2.8085e-19,60.752,-0.29819,14.866,66.522,0.020242,-0.01932,-2.8029e-21,1,13.208,64.008,0,0
5.5272,14.931,66.217,-0.29424,0.0064144,-3.4962e-21,9.9074e-20,60.43,-0.29424,14.931,66.217,0.020239,-0.01926,1.3832e-20,1,13.31,64.11,0,0
5.5271,14.996,65.911,-0.29029,0.0066027,4.4303e-22,2.3854e-19,60.109,-0.29029,14.996,65.911,0.020237,-0.0192,-2.1994e-21,1,13.411,64.211,0,0
5.5271,15.062,65.606,-0.28634,0.0067909,1.0742e-21,1.36e-19,59.788,-0.28634,15.062,65.606,0.020234,-0.01914,-1.8606e-21,1,13.513,64.313,0,0
5.527,15.127,65.301,-0.28239,0.0069791,3.8618e-22,-4.7398e-20,59.467,-0.28239,15.127,65.301,0.020232,-0.01908,7.7526e-22,1,13.614,64.414,0,0
5.5269,15.192,64.995,-0.27843,0.0071673,5.6379e-21,2.7397e-19,59.145,-0.27844,15.192,64.995,0.020229,-0.01902,1.8237e-21,1,13.716,64.516,0,0
5.5269,15.258,64.69,-0.27448,0.0073555,-1.1232e-21,-5.8121e-20,58.824,-0.27449,15.258,64.69,0.020227,-0.01896,-9.3514e-21,1,13.818,64.618,0,0
5.5268,15.323,64.385,-0.27053,0.0075438,-2.0631e-21,-4.2582e-20,58.503,-0.27053,15.323,64.385,0.020224,-0.0189,-2.7045e-21,1,13.919,64.719,0,0
5.5268,15.388,64.079,-0.26658,0.007732,2.24e-21,1.1654e-20,58.181,-0.26658,15.388,64.079,0.020222,-0.01884,4.4001e-21,1,14.021,64.821,0,0
5.5267,15.454,63.774,-0.26263,0.0079202,-4.1588e-22,-2.1327e-19,57.86,-0.26263,15.454,63.774,0.02022,-0.01878,1.3986e-21,1,14.122,64.922,0,0
5.5266,15.519,63.468,-0.25868,0.0081084,3.5705e-23,2.5696e-19,57.539,-0.25868,15.519,63.468,0.020217,-0.01872,-1.9208e-21,1,14.224,65.024,0,0
5.5266,15.584,63.163,-0.25472,0.0082967,-1.3283e-21,2.1949e-19,57.217,-0.25473,15.584,63.163,0.020215,-0.01866,-2.5224e-21,1,14.326,65.126,0,0
5.5265,15.65,62.858,-0.25077,0.0084849,-4.0808e-21,1.9747e-19,56.896,-0.25078,15.65,62.858,0.020212,-0.0186,2.6526e-21,1,14.427,65.227,0,0
5.5265,15.715,62.552,-0.24682,0.0086731,-1.6156e-21,-3.8608e-20,56.575,-0.24683,15.715,62.552,0.02021,-0.01854,-2.2833e-21,1,14.529,65.329,0,0
5.5264,15.78,62.247,-0.24287,0.0088613,-1.139e-21,-2.076e-19,56.253,-0.24287,15.78,62.247,0.020207,-0.01848,3.3267e-21,1,14.63,65.43,0,0
5.5263,15.846,61.942,-0.23892,0.0090495,-2.4542e-21,2.8918e-19,55.932,-0.23892,15.846,61.942,0.020205,-0.01842,3.6997e-21,1,14.732,65.532,0,0
5.5263,15.911,61.636,-0.23497,0.0092378,-5.6259e-22,-2.2773e-19,55.611,-0.23497,15.911,61.636,0.020202,-0.01836,1.9859e-21,1,14.834,65.634,0,0
5.5262,15.977,61.331,-0.23102,0.009426,-2.002e-21,2.3268e-20,55.289,-0.23102,15.977,61.331,0.0202,-0.0183,-5.4179e-21,1,14.935,65.735,0,0
5.5261,16.042,61.025,-0.22706,0.0096142,-1.1184e-21,6.4706e-19,54.968,-0.22707,16.042,61.025,0.020197,-0.01824,5.0118e-21,1,15.037,65.837,0,0
5.5261,16.107,60.72,-0.22311,0.0098024,-3.8434e-22,-6.0783e-20,54.647,-0.22312,16.107,60.72,0.020195,-0.01818,2.611e-21,1,15.138,65.938,0,0
5.526,16.173,60.415,-0.21916,0.0099907,-1.2945e-21,-8.0271e-19,54.325,-0.21917,16.173,60.415,0.020193,-0.01812,1.9197e-21,1,15.24,66.04,0,0
5.543,16.205,60.166,-0.21744,0.010077,-6.6653e-22,9.969e-20,54.081,-0.21744,16.205,60.166,0.020193,-0.01806,-3.1972e-22,1,15.342,66.142,0,0
5.5599,16.237,59.916,-0.21571,0.010164,-2.2121e-21,6.923e-19,53.836,-0.21572,16.237,59.916,0.020194,-0.018,1.7623e-21,1,15.443,66.243,0,0
5.5769,16.27,59.667,-0.21399,0.010251,-1.0226e-21,1.5528e-19,53.592,-0.21399,16.27,59.667,0.020194,-0.01794,5.8577e-21,1,15.545,66.345,0,0
5.5938,16.302,59.418,-0.21227,0.010338,-1.7549e-21,-1.2e-19,53.347,-0.21227,16.302,59.418,0.020195,-0.01788,-4.8414e-22,1,15.646,66.446,0,0
5.6108,16.334,59.169,-0.21054,0.010425,1.3533e-21,-2.8847e-20,53.102,-0.21055,16.334,59.169,0.020196,-0.01782,1.7211e-21,1,15.748,66.548,0,0
5.6278,16.366,58.92,-0.20882,0.010511,1.2683e-21,-1.8326e-20,52.858,-0.20882,16.366,58.92,0.020196,-0.01776,-1.4112e-21,1,15.85,66.65,0,0
5.6447,16.399,58.671,-0.2071,0.010598,-1.1884e-22,9.2038e-20,52.613,-0.2071,16.399,58.671,0.020197,-0.0177,-3.0903e-21,1,15.951,66.751,0,0
5.6617,16.431,58.421,-0.20537,0.010685,1.4587e-21,7.2203e-20,52.369,-0.20538,16.431,58.421,0.020198,-0.01764,6.3319e-21,1,16.053,66.853,0,0
5.6786,16.463,58.172,-0.20365,0.010772,1.737e-21,-3.8467e-19,52.124,-0.20365,16.463,58.172,0.020198,-0.01758,6.0286e-21,1,16.154,66.954,0,0
5.6956,16.496,57.923,-0.20193,0.010859,3.5851e-21,1.538e-19,51.879,-0.20193,16.496,57.923,0.020199,-0.01752,1.4496e-21,1,16.256,67.056,0,0
5.7125,16.528,57.674,-0.2002,0.010946,-2.482e-21,8.868e-20,51.635,-0.20021,16.528,57.674,0.020199,-0.01746,1.451e-21,1,16.358,67.158,0,0
5.7295,16.56,57.425,-0.19848,0.011032,1.9239e-21,4.8061e-20,51.39,-0.19848,16.56,57.425,0.0202,-0.0174,-3.3939e-22,1,16.459,67.259,0,0
5.7465,16.593,57.176,-0.19676,0.011119,-2.1619e-21,7.1864e-19,51.146,-0.19676,16.593,57.176,0.020201,-0.01734,6.6647e-21,1,16.561,67.361,0,0
5.7634,16.625,56.926,-0.19503,0.011206,8.6948e-23,2.6758e-20,50.901,-0.19504,16.625,56.926,0.020201,-0.01728,8.803e-22,1,16.662,67.462,0,0
5.7804,16.657,56.677,-0.19331,0.011293,1.3786e-21,-3.1176e-20,50.656,-0.19331,16.657,56.677,0.020202,-0.01722,1.3997e-21,1,16.764,67.564,0,0
5.7973,16.689,56.428,-0.19159,0.01138,-5.9792e-22,1.0609e-19,50.412,-0.19159,16.689,56.428,0.020203,-0.01716,3.6158e-21,1,16.866,67.666,0,0
5.8143,16.722,56.179,-0.18986,0.011466,1.5142e-21,2.3572e-19,50.167,-0.18987,16.722,56.179,0.020203,-0.0171,-9.6405e-22,1,16.967,67.767,0,0
5.8312,16.754,55.93,-0.18814,0.011553,-1.9896e-21,-5.9635e-20,49.922,-0.18814,16.754,55.93,0.020204,-0.01704,-4.0713e-21,1,17.069,67.869,0,0
5.8482,16.786,55.681,-0.18642,0.01164,5.9289e-22,1.3092e-20,49.678,-0.18642,16.786,55.681,0.020204,-0.01698,6.2126e-21,1,17.17,67.97,0,0
5.8652,16.819,55.432,-0.18469,0.011727,-2.8268e-21,-1.3064e-19,49.433,-0.1847,16.819,55.432,0.020205,-0.01692,3.327e-21,1,17.272,68.072,0,0
5.8821,16.851,55.182,-0.18297,0.011814,-1.5956e-21,-9.5475e-20,49.189,-0.18297,16.851,55.182,0.020206,-0.01686,-3.6967e-21,1,17.374,68.174,0,0
5.8991,16.883,54.933,-0.18125,0.0119,3.7938e-21,-2.4035e-20,48.944,-0.18125,16.883,54.933,0.020206,-0.0168,2.6603e-21,1,17.475,68.275,0,0
5.916,16.916,54.684,-0.17952,0.011987,-5.0782e-21,5.9564e-19,48.699,-0.17952,16.916,54.684,0.020207,-0.01674,2.6639e-21,1,17.577,68.377,0,0
5.933,16.948,54.435,-0.1778,0.012074,-1.8828e-21,-3.2255e-19,48.455,-0.1778,16.948,54.435,0.020207,-0.01668,7.0899e-21,1,17.678,68.478,0,0
5.9499,16.98,54.186,-0.17608,0.012161,-2.5163e-22,-3.0702e-19,48.21,-0.17608,16.98,54.186,0.020208,-0.01662,6.4017e-21,1,17.78,68.58,0,0
5.9669,17.012,53.937,-0.17435,0.012248,2.1225e-21,-2.6411e-20,47.966,-0.17435,17.012,53.937,0.020209,-0.01656,-2.1448e-21,1,17.882,68.682,0,0
5.9839,17.045,53.687,-0.17263,0.012334,-2.3661e-22,-3.6225e-19,47.721,-0.17263,17.045,53.687,0.020209,-0.0165,-4.3367e-21,1,17.983,68.783,0,0
6.0008,17.077,53.438,-0.17091,0.012421,-1.9585e-21,1.9312e-19,47.476,-0.17091,17.077,53.438,0.02021,-0.01644,-6.2738e-21,1,18.085,68.885,0,0
6.0178,17.109,53.189,-0.16918,0.012508,7.0887e-23,-6.033e-20,47.232,-0.16918,17.109,53.189,0.020211,-0.016379,1.3179e-22,1,18.186,68.986,0,0
6.0347,17.142,52.94,-0.16746,0.012595,-4.2435e-22,-1.3404e-19,46.987,-0.16746,17.142,52.94,0.020211,-0.016319,-2.6361e-21,1,18.288,69.088,0,0
6.0517,17.174,52.691,-0.16574,0.012682,-4.5045e-22,-2.9977e-19,46.743,-0.16574,17.174,52.691,0.020212,-0.016259,-3.0244e-21,1,18.39,69.19,0,0
6.0686,17.206,52.442,-0.16401,0.012768,-3.8176e-21,-1.1867e-19,46.498,-0.16401,17.206,52.442,0.020212,-0.016199,6.4828e-21,1,18.491,69.291,0,0
6.0856,17.239,52.192,-0.16229,0.012855,-1.2612e-22,-1.5502e-20,46.253,-0.16229,17.239,52.192,0.020213,-0.016139,6.3119e-21,1,18.593,69.393,0,0
6.1026,17.271,51.943,-0.16056,0.012942,-2.041e-21,2.2439e-20,46.009,-0.16057,17.271,51.943,0.020214,-0.016079,6.2157e-22,1,18.694,69.494,0,0
6.1195,17.303,51.694,-0.15884,0.013029,-1.2504e-21,1.1564e-20,45.764,-0.15884,17.303,51.694,0.020214,-0.016019,-3.0261e-21,1,18.796,69.596,0,0
6.1365,17.335,51.445,-0.15712,0.013116,1.0359e-21,-2.8016e-20,45.519,-0.15712,17.335,51.445,0.020215,-0.015959,-4.4208e-22,1,18.898,69.698,0,0
6.1534,17.368,51.196,-0.15539,0.013202,-2.5296e-21,-7.2515e-20,45.275,-0.1554,17.368,51.196,0.020216,-0.015899,2.4135e-21,1,18.999,69.799,0,0
6.1704,17.4,50.947,-0.15367,0.013289,-1.7202e-21,-9.4509e-20,45.03,-0.15367,17.4,50.947,0.020216,-0.015839,-4.0455e-22,1,19.101,69.901,0,0
6.1874,17.432,50.698,-0.15195,0.013376,-6.009e-21,5.8757e-19,44.786,-0.15195,17.432,50.698,0.020217,-0.015779,5.5021e-21,1,19.202,70.002,0,0
6.2043,17.465,50.448,-0.15022,0.013463,-4.0694e-22,-3.4623e-19,44.541,-0.15023,17.465,50.448,0.020217,-0.015719,-2.5914e-21,1,19.304,70.104,0,0
6.2213,17.497,50.199,-0.1485,0.01355,1.3986e-21,-3.2746e-19,44.296,-0.1485,17.497,50.199,0.020218,-0.015659,6.3772e-21,1,19.406,70.206,0,0
6.2382,17.529,49.95,-0.14678,0.013637,5.2929e-22,-1.4053e-19,44.052,-0.14678,17.529,49.95,0.020219,-0.015599,6.3675e-21,1,19.507,70.307,0,0
6.2552,17.562,49.701,-0.14505,0.013723,1.4747e-22,2.5984e-19,43.807,-0.14506,17.562,49.701,0.020219,-0.015539,1.6717e-21,1,19.609,70.409,0,0
6.2721,17.594,49.452,-0.14333,0.01381,6.3434e-22,5.501e-20,43.563,-0.14333,17.594,49.452,0.02022,-0.015479,-3.4035e-21,1,19.71,70.51,0,0
6.2891,17.626,49.203,-0.14161,0.013897,2.9733e-21,-2.6912e-19,43.318,-0.14161,17.626,49.203,0.020221,-0.015419,2.2391e-21,1,19.812,70.612,0,0
6.3061,17.658,48.953,-0.13988,0.013984,-1.4187e-21,-6.3977e-21,43.073,-0.13988,17.658,48.953,0.020221,-0.015359,-4.1708e-21,1,19.914,70.714,0,0
6.323,17.691,48.704,-0.13816,0.014071,-2.0214e-22,3.4886e-20,42.829,-0.13816,17.691,48.704,0.020222,-0.015299,8.8209e-21,1,20.015,70.815,0,0
6.34,17.723,48.455,-0.13644,0.014157,-4.165e-21,3.5086e-19,42.584,-0.13644,17.723,48.455,0.020222,-0.015239,-1.8567e-21,1,20.117,70.917,0,0
6.3569,17.755,48.206,-0.13471,0.014244,2.0704e-22,-7.6873e-20,42.339,-0.13471,17.755,48.206,0.020223,-0.015179,2.0544e-21,1,20.218,71.018,0,0
6.3739,17.788,47.957,-0.13299,0.014331,-6.2069e-22,-2.312e-20,42.095,-0.13299,17.788,47.957,0.020224,-0.015119,6.8798e-21,1,20.32,71.12,0,0
6.4107,17.798,47.748,-0.13175,0.014301,9.8989e-23,2.2656e-19,41.904,-0.13175,17.798,47.748,0.020226,-0.015059,2.9393e-20,1,20.422,71.222,0,0
6.4475,17.808,47.54,-0.1305,0.014271,4.1872e-22,4.3552e-20,41.714,-0.1305,17.808,47.54,0.020229,-0.014999,5.3213e-20,1,20.523,71.323,0,0
6.4843,17.818,47.331,-0.12926,0.014242,1.6811e-21,7.4527e-20,41.523,-0.12926,17.818,47.331,0.020232,-0.014939,9.1118e-20,1,20.625,71.425,0,0
6.5211,17.828,47.122,-0.12801,0.014212,-3.1402e-22,8.5047e-20,41.332,-0.12802,17.828,47.122,0.020234,-0.014879,1.1881e-19,1,20.726,71.526,0,0
6.558,17.838,46.914,-0.12677,0.014182,1.532e-21,-3.2852e-20,41.142,-0.12677,17.838,46.914,0.020237,-0.014819,1.4809e-19,1,20.828,71.628,0,0
6.5948,17.849,46.705,-0.12553,0.014152,8.841e-22,9.9302e-20,40.951,-0.12553,17.849,46.705,0.02024,-0.014759,1.8103e-19,1,20.93,71.73,0,0
6.6316,17.859,46.496,-0.12428,0.014122,-4.2969e-22,-1.7487e-19,40.76,-0.12428,17.859,46.496,0.020243,-0.014699,2.0698e-19,1,21.031,71.831,0,0
6.6684,17.869,46.288,-0.12304,0.014093,1.4387e-21,4.872e-20,40.57,-0.12304,17.869,46.288,0.020245,-0.014639,2.3397e-19,1,21.133,71.933,0,0
6.7052,17.879,46.079,-0.12179,0.014063,2.8258e-21,-1.1968e-19,40.379,-0.1218,17.879,46.079,0.020248,-0.014579,2.6242e-19,1,21.234,72.034,0,0
6.742,17.889,45.871,-0.12055,0.014033,-4.576e-22,-3.6475e-20,40.188,-0.12055,17.889,45.871,0.020251,-0.014519,2.9358e-19,1,21.336,72.136,0,0
6.7788,17.899,45.662,-0.11931,0.014003,1.6944e-21,8.9961e-20,39.998,-0.11931,17.899,45.662,0.020253,-0.014459,3.2704e-19,1,21.438,72.238,0,0
6.8157,17.91,45.453,-0.11806,0.013973,6.462e-22,3.9576e-20,39.807,-0.11806,17.91,45.453,0.020256,-0.014399,3.5731e-19,1,21.539,72.339,0,0
6.8525,17.92,45.245,-0.11682,0.013944,-6.478e-23,1.4981e-19,39.616,-0.11682,17.92,45.245,0.020259,-0.014339,3.857e-19,1,21.641,72.441,0,0
6.8893,17.93,45.036,-0.11558,0.013914,2.1319e-21,-3.9439e-21,39.426,-0.11558,17.93,45.036,0.020262,-0.014279,4.1148e-19,1,21.742,72.542,0,0
6.9261,17.94,44.827,-0.11433,0.013884,1.963e-21,1.8391e-20,39.235,-0.11433,17.94,44.827,0.020264,-0.014219,4.451e-19,1,21.844,72.644,0,0
6.9629,17.95,44.619,-0.11309,0.013854,-2.751e-21,-1.1709e-19,39.044,-0.11309,17.95,44.619,0.020267,-0.014159,4.7658e-19,1,21.946,72.746,0,0
6.9997,17.96,44.41,-0.11184,0.013824,2.928e-21,-1.0635e-19,38.854,-0.11184,17.96,44.41,0.02027,-0.014099,5.0388e-19,1,22.047,72.847,0,0
7.0366,17.971,44.202,-0.1106,0.013795,1.2077e-21,-7.7279e-20,38.663,-0.1106,17.971,44.202,0.020272,-0.014038,5.3006e-19,1,22.149,72.949,0,0
7.0734,17.981,43.993,-0.10936,0.013765,-1.6855e-21,6.0861e-20,38.473,-0.10936,17.981,43.993,0.020275,-0.013978,5.6495e-19,1,22.25,73.05,0,0
7.1102,17.991,43.784,-0.10811,0.013735,2.4679e-21,4.8187e-20,38.282,-0.10811,17.991,43.784,0.020278,-0.013918,5.9638e-19,1,22.352,73.152,0,0
7.147,18.001,43.576,-0.10687,0.013705,1.0095e-21,-4.8176e-20,38.091,-0.10687,18.001,43.576,0.02028,-0.013858,6.2575e-19,1,22.454,73.254,0,0
7.1838,18.011,43.367,-0.10562,0.013675,1.9048e-21,5.7464e-20,37.901,-0.10562,18.011,43.367,0.020283,-0.013798,6.5277e-19,1,22.555,73.355,0,0
7.2206,18.021,43.158,-0.10438,0.013646,-1.8338e-21,2.7305e-19,37.71,-0.10438,18.021,43.158,0.020286,-0.013738,6.8055e-19,1,22.657,73.457,0,0
7.2575,18.031,42.95,-0.10314,0.013616,3.8046e-23,-2.236e-19,37.519,-0.10314,18.031,42.95,0.020289,-0.013678,7.1221e-19,1,22.758,73.558,0,0
7.2943,18.042,42.741,-0.10189,0.013586,-8.2027e-21,1.5936e-19,37.329,-0.10189,18.042,42.741,0.020291,-0.013618,7.5257e-19,1,22.86,73.66,0,0
7.3311,18.052,42.533,-0.10065,0.013556,-3.5308e-21,-2.4835e-20,37.138,-0.10065,18.052,42.533,0.020294,-0.013558,7.6418e-19,1,22.962,73.762,0,0
7.3679,18.062,42.324,-0.099404,0.013526,-1.8554e-22,-9.8923e-20,36.947,-0.099404,18.062,42.324,0.020297,-0.013498,7.9578e-19,1,23.063,73.863,0,0
7.4047,18.072,42.115,-0.09816,0.013497,-2.4326e-21,-9.1391e-20,36.757,-0.09816,18.072,42.115,0.020299,-0.013438,8.269e-19,1,23.165,73.965,0,0
7.4415,18.082,41.907,-0.096916,0.013467,-1.9891e-21,2.9524e-19,36.566,-0.096916,18.082,41.907,0.020302,-0.013378,8.6242e-19,1,23.266,74.066,0,0
7.4783,18.092,41.698,-0.095672,0.013437,-4.5689e-22,1.6746e-19,36.375,-0.095672,18.092,41.698,0.020305,-0.013318,8.9028e-19,1,23.368,74.168,0,0
7.5152,18.103,41.49,-0.094428,0.013407,8.3965e-22,9.7057e-20,36.185,-0.094428,18.103,41.49,0.020308,-0.013258,9.1874e-19,1,23.47,74.27,0,0
7.552,18.113,41.281,-0.093184,0.013378,8.5181e-22,-1.557e-19,35.994,-0.093184,18.113,41.281,0.02031,-0.013198,9.5271e-19,1,23.571,74.371,0,0
7.5888,18.123,41.072,-0.09194,0.013348,2.1931e-21,-1.2424e-19,35.803,-0.091941,18.123,41.072,0.020313,-0.013138,9.7678e-19,1,23.673,74.473,0,0
7.6256,18.133,40.864,-0.090696,0.013318,-7.2174e-22,6.3334e-20,35.613,-0.090697,18.133,40.864,0.020316,-0.013078,1.0094e-18,1,23.774,74.574,0,0
7.6624,18.143,40.655,-0.089452,0.013288,-3.0431e-21,-4.4799e-20,35.422,-0.089453,18.143,40.655,0.020318,-0.013018,1.0318e-18,1,23.876,74.676,0,0
7.6992,18.153,40.446,-0.088208,0.013258,-1.3474e-21,-8.5717e-20,35.231,-0.088209,18.153,40.446,0.020321,-0.012958,1.0726e-18,1,23.978,74.778,0,0
7.7361,18.164,40.238,-0.086964,0.013229,-4.1489e-22,3.401e-20,35.041,-0.086965,18.164,40.238,0.020324,-0.012898,1.0996e-18,1,24.079,74.879,0,0
7.7729,18.174,40.029,-0.085721,0.013199,-1.076e-22,-9.297e-20,34.85,-0.085721,18.174,40.029,0.020327,-0.012838,1.1291e-18,1,24.181,74.981,0,0
7.8097,18.184,39.821,-0.084477,0.013169,-3.0147e-21,-7.5411e-20,34.66,-0.084477,18.184,39.821,0.020329,-0.012778,1.1533e-18,1,24.282,75.082,0,0
7.8465,18.194,39.612,-0.083233,0.013139,2.5815e-21,1.2889e-20,34.469,-0.083233,18.194,39.612,0.020332,-0.012718,1.1853e-18,1,24.384,75.184,0,0
7.8833,18.204,39.403,-0.081989,0.013109,1.0903e-21,-5.3763e-20,34.278,-0.081989,18.204,39.403,0.020335,-0.012658,1.2165e-18,1,24.486,75.286,0,0
7.9201,18.214,39.195,-0.080745,0.01308,-4.1868e-21,-1.2008e-19,34.088,-0.080745,18.214,39.195,0.020337,-0.012598,1.2452e-18,1,24.587,75.387,0,0
7.9569,18.224,38.986,-0.079501,0.01305,-1.2222e-21,-2.9278e-20,33.897,-0.079501,18.224,38.986,0.02034,-0.012537,1.2729e-18,1,24.689,75.489,0,0
7.9938,18.235,38.777,-0.078257,0.01302,-1.4511e-21,-1.1097e-19,33.706,-0.078257,18.235,38.777,0.020343,-0.012477,1.3014e-18,1,24.79,75.59,0,0
8.0306,18.245,38.569,-0.077013,0.01299,-8.0961e-22,1.1431e-20,33.516,-0.077013,18.245,38.569,0.020345,-0.012417,1.3288e-18,1,24.892,75.692,0,0
8.0674,18.255,38.36,-0.075769,0.01296,-6.5311e-23,6.5471e-20,33.325,-0.075769,18.255,38.36,0.020348,-0.012357,1.367e-18,1,24.994,75.794,0,0
8.1042,18.265,38.152,-0.074525,0.012931,2.6316e-22,-5.7222e-20,33.134,-0.074525,18.265,38.152,0.020351,-0.012297,1.3938e-18,1,25.095,75.895,0,0
8.141,18.275,37.943,-0.073281,0.012901,1.5987e-21,2.4323e-20,32.944,-0.073281,18.275,37.943,0.020354,-0.012237,1.428e-18,1,25.197,75.997,0,0
8.1778,18.285,37.734,-0.072037,0.012871,6.9062e-22,7.9896e-20,32.753,-0.072037,18.285,37.734,0.020356,-0.012177,1.4485e-18,1,25.298,76.098,0,0
8.2146,18.296,37.526,-0.070793,0.012841,-5.5717e-22,-1.9459e-20,32.562,-0.070793,18.296,37.526,0.020359,-0.012117,1.4885e-18,1,25.4,76.2,0,0
8.2898,18.291,37.347,-0.069848,0.012735,-1.6679e-21,-2.0271e-20,32.413,-0.069848,18.291,37.347,0.020363,-0.012057,1.4522e-18,1,25.502,76.302,0,0
8.365,18.287,37.168,-0.068903,0.012628,1.9167e-21,-1.2927e-19,32.263,-0.068903,18.287,37.168,0.020367,-0.011997,1.4194e-18,1,25.603,76.403,0,0
8.4402,18.283,36.99,-0.067958,0.012521,1.5289e-21,8.4396e-21,32.113,-0.067958,18.283,36.99,0.020371,-0.011937,1.3948e-18,1,25.705,76.505,0,0
8.5154,18.278,36.811,-0.067013,0.012415,3.4472e-22,1.5283e-21,31.963,-0.067013,18.278,36.811,0.020375,-0.011877,1.3643e-18,1,25.806,76.606,0,0
8.5906,18.274,36.632,-0.066068,0.012308,-1.6751e-21,2.1029e-20,31.813,-0.066068,18.274,36.632,0.02038,-0.011817,1.3347e-18,1,25.908,76.708,0,0
8.6658,18.269,36.454,-0.065123,0.012202,-1.8031e-21,6.2591e-21,31.663,-0.065123,18.269,36.454,0.020384,-0.011757,1.3054e-18,1,26.01,76.81,0,0
8.741,18.265,36.275,-0.064178,0.012095,-5.2826e-22,7.0152e-21,31.514,-0.064178,18.265,36.275,0.020388,-0.011697,1.2715e-18,1,26.111,76.911,0,0
8.8162,18.261,36.096,-0.063233,0.011988,-3.3558e-21,8.3622e-20,31.364,-0.063233,18.261,36.096,0.020392,-0.011637,1.2433e-18,1,26.213,77.013,0,0
8.8914,18.256,35.918,-0.062288,0.011882,-1.2201e-21,1.9967e-21,31.214,-0.062288,18.256,35.918,0.020396,-0.011577,1.2116e-18,1,26.314,77.114,0,0
8.9666,18.252,35.739,-0.061343,0.011775,3.9758e-22,-5.8233e-20,31.064,-0.061343,18.252,35.739,0.0204,-0.011517,1.1817e-18,1,26.416,77.216,0,0
9.0418,18.248,35.56,-0.060398,0.011669,-1.045e-21,2.0907e-20,30.914,-0.060398,18.248,35.56,0.020404,-0.011456,1.1532e-18,1,26.518,77.318,0,0
9.117,18.243,35.382,-0.059452,0.011562,-9.9695e-22,3.0896e-20,30.764,-0.059452,18.243,35.382,0.020408,-0.011396,1.1299e-18,1,26.619,77.419,0,0
9.1922,18.239,35.203,-0.058507,0.011455,-1.4304e-21,1.0373e-20,30.615,-0.058507,18.239,35.203,0.020413,-0.011336,1.0928e-18,1,26.721,77.521,0,0
9.2674,18.235,35.024,-0.057562,0.011349,-3.7141e-22,-5.3159e-21,30.465,-0.057562,18.235,35.024,0.020417,-0.011276,1.0701e-18,1,26.822,77.622,0,0
9.3426,18.23,34.846,-0.056617,0.011242,-1.289e-21,-8.037e-22,30.315,-0.056617,18.23,34.846,0.020421,-0.011216,1.034e-18,1,26.924,77.724,0,0
9.4178,18.226,34.667,-0.055672,0.011136,-1.6605e-21,4.6395e-20,30.165,-0.055672,18.226,34.667,0.020425,-0.011156,1.0077e-18,1,27.026,77.826,0,0
9.493,18.222,34.488,-0.054727,0.011029,-1.7209e-22,-3.0625e-20,30.015,-0.054727,18.222,34.488,0.020429,-0.011096,9.709e-19,1,27.127,77.927,0,0
9.5682,18.217,34.31,-0.053782,0.010923,1.1637e-21,-1.8963e-20,29.865,-0.053782,18.217,34.31,0.020433,-0.011036,9.4427e-19,1,27.229,78.029,0,0
9.6434,18.213,34.131,-0.052837,0.010816,-8.7518e-22,4.3904e-20,29.716,-0.052837,18.213,34.131,0.020437,-0.010976,9.2125e-19,1,27.33,78.13,0,0
9.7186,18.209,33.952,-0.051892,0.010709,-1.3266e-22,3.9513e-20,29.566,-0.051892,18.209,33.952,0.020441,-0.010916,8.8852e-19,1,27.432,78.232,0,0
9.7938,18.204,33.774,-0.050947,0.010603,7.1382e-22,1.237e-20,29.416,-0.050947,18.204,33.774,0.020446,-0.010856,8.5988e-19,1,27.534,78.334,0,0
9.869,18.2,33.595,-0.050002,0.010496,2.0114e-21,7.3086e-21,29.266,-0.050002,18.2,33.595,0.02045,-0.010796,8.2882e-19,1,27.635,78.435,0,0
9.9442,18.195,33.417,-0.049057,0.01039,-2.0128e-21,6.3714e-20,29.116,-0.049057,18.195,33.417,0.020454,-0.010736,8.0567e-19,1,27.737,78.537,0,0
10.019,18.191,33.238,-0.048111,0.010283,3.9988e-22,-3.3628e-20,28.967,-0.048111,18.191,33.238,0.020458,-0.010676,7.6884e-19,1,27.838,78.638,0,0
10.095,18.187,33.059,-0.047166,0.010176,-4.204e-22,-2.6622e-20,28.817,-0.047166,18.187,33.059,0.020462,-0.010616,7.3886e-19,1,27.94,78.74,0,0
10.17,18.182,32.881,-0.046221,0.01007,-1.3494e-21,8.8956e-21,28.667,-0.046221,18.182,32.881,0.020466,-0.010555,7.1094e-19,1,28.042,78.842,0,0
10.245,18.178,32.702,-0.045276,0.0099632,-8.9902e-22,3.807e-20,28.517,-0.045276,18.178,32.702,0.02047,-0.010495,6.786e-19,1,28.143,78.943,0,0
10.32,18.174,32.523,-0.044331,0.0098566,-9.1139e-22,-1.4295e-20,28.367,-0.044331,18.174,32.523,0.020474,-0.010435,6.5231e-19,1,28.245,79.045,0,0
10.395,18.169,32.345,-0.043386,0.00975,2.1659e-22,-6.237e-21,28.217,-0.043386,18.169,32.345,0.020479,-0.010375,6.2897e-19,1,28.346,79.146,0,0
10.471,18.165,32.166,-0.042441,0.0096434,-9.0108e-23,-2.5873e-20,28.068,-0.042441,18.165,32.166,0.020483,-0.010315,5.9705e-19,1,28.448,79.248,0,0
10.546,18.161,31.987,-0.041496,0.0095368,-1.1483e-22,-2.5482e-20,27.918,-0.041496,18.161,31.987,0.020487,-0.010255,5.6873e-19,1,28.55,79.35,0,0
10.621,18.156,31.809,-0.040551,0.0094302,2.2126e-22,-2.4795e-20,27.768,-0.040551,18.156,31.809,0.020491,-0.010195,5.257e-19,1,28.651,79.451,0,0
10.696,18.152,31.63,-0.039606,0.0093236,2.0579e-22,1.0976e-20,27.618,-0.039606,18.152,31.63,0.020495,-0.010135,5.0048e-19,1,28.753,79.553,0,0
10.771,18.148,31.451,-0.038661,0.009217,2.8936e-23,8.5039e-21,27.468,-0.038661,18.148,31.451,0.020499,-0.010075,4.714e-19,1,28.854,79.654,0,0
10.847,18.143,31.273,-0.037716,0.0091104,-3.513e-22,-1.6832e-20,27.318,-0.037716,18.143,31.273,0.020503,-0.010015,4.4177e-19,1,28.956,79.756,0,0
10.922,18.139,31.094,-0.03677,0.0090038,-1.1168e-21,9.5517e-21,27.169,-0.03677,18.139,31.094,0.020507,-0.0099548,4.2123e-19,1,29.058,79.858,0,0
10.997,18.135,30.915,-0.035825,0.0088972,-3.6839e-21,7.7694e-20,27.019,-0.035825,18.134,30.915,0.020512,-0.0098948,3.9281e-19,1,29.159,79.959,0,0
11.072,18.13,30.737,-0.03488,0.0087906,-8.6796e-22,4.7713e-20,26.869,-0.03488,18.13,30.737,0.020516,-0.0098347,3.5518e-19,1,29.261,80.061,0,0
11.147,18.126,30.558,-0.033935,0.008684,1.7029e-22,5.1074e-20,26.719,-0.033935,18.126,30.558,0.02052,-0.0097746,3.2397e-19,1,29.362,80.162,0,0
11.223,18.121,30.379,-0.03299,0.0085774,-5.3393e-23,-5.1513e-20,26.569,-0.03299,18.121,30.379,0.020524,-0.0097146,2.9786e-19,1,29.464,80.264,0,0
11.298,18.117,30.201,-0.032045,0.0084708,-9.7013e-22,3.4635e-20,26.419,-0.032045,18.117,30.201,0.020528,-0.0096545,2.654e-19,1,29.566,80.366,0,0
11.373,18.113,30.022,-0.0311,0.0083642,-2.6422e-22,8.1839e-21,26.27,-0.0311,18.113,30.022,0.020532,-0.0095944,2.3543e-19,1,29.667,80.467,0,0
11.448,18.108,29.843,-0.030155,0.0082576,-1.4968e-21,1.7669e-21,26.12,-0.030155,18.108,29.843,0.020536,-0.0095344,2.0668e-19,1,29.769,80.569,0,0
11.523,18.104,29.665,-0.02921,0.008151,-5.5366e-22,3.9886e-20,25.97,-0.02921,18.104,29.665,0.02054,-0.0094743,1.7786e-19,1,29.87,80.67,0,0
11.599,18.1,29.486,-0.028265,0.0080444,-4.503e-23,-1.5301e-20,25.82,-0.028265,18.1,29.486,0.020545,-0.0094142,1.4769e-19,1,29.972,80.772,0,0
11.674,18.095,29.307,-0.02732,0.0079379,3.5795e-24,-2.2156e-20,25.67,-0.02732,18.095,29.307,0.020549,-0.0093542,1.1929e-19,1,30.074,80.874,0,0
11.749,18.091,29.129,-0.026375,0.0078313,-1.407e-21,1.673e-22,25.521,-0.026375,18.091,29.129,0.020553,-0.0092941,8.9359e-20,1,30.175,80.975,0,0
11.824,18.087,28.95,-0.025429,0.0077247,-1.4575e-21,5.2495e-21,25.371,-0.025429,18.087,28.95,0.020557,-0.009234,5.7673e-20,1,30.277,81.077,0,0
11.899,18.082,28.771,-0.024484,0.0076181,-1.3329e-23,-8.1016e-21,25.221,-0.024484,18.082,28.771,0.020561,-0.009174,2.9751e-20,1,30.378,81.178,0,0
11.975,18.078,28.593,-0.023539,0.0075115,5.1179e-22,2.3106e-20,25.071,-0.023539,18.078,28.593,0.020565,-0.0091139,2.4764e-21,1,30.48,81.28,0,0
11.99,18.064,28.437,-0.022837,0.0073762,-1.1959e-22,2.5943e-20,24.956,-0.022837,18.064,28.437,0.02057,-0.0090538,-9.1047e-22,1,30.582,81.382,0,0
12.006,18.05,28.281,-0.022135,0.0072408,-9.2271e-22,-1.1006e-20,24.84,-0.022135,18.05,28.281,0.020575,-0.0089937,-3.2985e-22,1,30.683,81.483,0,0
12.022,18.037,28.125,-0.021433,0.0071055,-1.0672e-21,5.6835e-21,24.725,-0.021433,18.037,28.125,0.02058,-0.0089336,8.9384e-22,1,30.785,81.585,0,0
12.038,18.023,27.969,-0.020731,0.0069702,7.8696e-22,-8.6212e-21,24.61,-0.020731,18.023,27.969,0.020586,-0.0088735,-2.3562e-21,1,30.886,81.686,0,0
12.054,18.009,27.813,-0.020028,0.0068349,3.9885e-22,1.183e-20,24.495,-0.020028,18.009,27.813,0.020591,-0.0088135,-3.4915e-21,1,30.988,81.788,0,0
12.069,17.995,27.657,-0.019326,0.0066995,1.373e-21,-7.7847e-21,24.379,-0.019326,17.995,27.657,0.020596,-0.0087534,2.7057e-21,1,31.09,81.89,0,0
12.085,17.981,27.501,-0.018624,0.0065642,-4.0467e-22,1.5296e-20,24.264,-0.018624,17.981,27.501,0.020601,-0.0086933,-2.6816e-21,1,31.191,81.991,0,0
12.101,17.968,27.345,-0.017922,0.0064289,-6.7217e-23,1.0268e-20,24.149,-0.017922,17.968,27.345,0.020606,-0.0086332,2.2571e-21,1,31.293,82.093,0,0
12.117,17.954,27.189,-0.01722,0.0062936,3.7278e-22,-7.3662e-21,24.033,-0.01722,17.954,27.189,0.020611,-0.0085731,-2.5825e-21,1,31.394,82.194,0,0
12.133,17.94,27.033,-0.016518,0.0061582,8.1574e-22,2.7323e-20,23.918,-0.016518,17.94,27.033,0.020616,-0.008513,5.0858e-22,1,31.496,82.296,0,0
12.148,17.926,26.877,-0.015815,0.0060229,-4.2893e-22,-7.7459e-21,23.803,-0.015815,17.926,26.877,0.020621,-0.0084529,1.1058e-21,1,31.598,82.398,0,0
12.164,17.912,26.721,-0.015113,0.0058876,3.0523e-22,2.5465e-21,23.688,-0.015113,17.912,26.721,0.020626,-0.0083929,1.4956e-21,1,31.699,82.499,0,0
12.18,17.899,26.565,-0.014411,0.0057523,9.7728e-22,-9.6048e-21,23.572,-0.014411,17.899,26.565,0.020631,-0.0083328,-3.6536e-21,1,31.801,82.601,0,0
12.196,17.885,26.409,-0.013709,0.0056169,-1.2604e-22,3.2252e-21,23.457,-0.013709,17.885,26.409,0.020636,-0.0082727,-1.8613e-22,1,31.902,82.702,0,0
12.212,17.871,26.253,-0.013007,0.0054816,5.6552e-23,-6.3731e-21,23.342,-0.013007,17.871,26.253,0.020641,-0.0082126,-3.5871e-21,1,32.004,82.804,0,0
12.227,17.857,26.097,-0.012305,0.0053463,-3.801e-22,9.0915e-21,23.226,-0.012305,17.857,26.097,0.020646,-0.0081525,3.0967e-22,1,32.106,82.906,0,0
12.243,17.844,25.941,-0.011602,0.005211,5.8624e-22,2.2755e-21,23.111,-0.011602,17.844,25.941,0.020651,-0.0080924,-3.9702e-21,1,32.207,83.007,0,0
12.259,17.83,25.785,-0.0109,0.0050756,5.4065e-22,7.1833e-21,22.996,-0.0109,17.83,25.785,0.020657,-0.0080323,-4.791e-21,1,32.309,83.109,0,0
12.275,17.816,25.629,-0.010198,0.0049403,-3.8094e-22,-3.024e-20,22.88,-0.010198,17.816,25.629,0.020662,-0.0079722,1.0178e-21,1,32.41,83.21,0,0
12.291,17.802,25.473,-0.009496,0.004805,-4.9028e-22,-9.2488e-21,22.765,-0.009496,17.802,25.473,0.020667,-0.0079122,4.3836e-22,1,32.512,83.312,0,0
12.307,17.788,25.317,-0.0087938,0.0046697,2.07e-22,-1.5676e-20,22.65,-0.0087938,17.788,25.317,0.020672,-0.0078521,1.0658e-21,1,32.614,83.414,0,0
12.322,17.775,25.161,-0.0080916,0.0045343,-2.4721e-22,3.9889e-21,22.535,-0.0080916,17.775,25.161,0.020677,-0.007792,7.8325e-23,1,32.715,83.515,0,0
12.338,17.761,25.005,-0.0073894,0.004399,-8.3166e-22,-1.0958e-20,22.419,-0.0073895,17.761,25.005,0.020682,-0.0077319,-1.798e-22,1,32.817,83.617,0,0
12.354,17.747,24.849,-0.0066873,0.0042637,-9.2113e-23,-5.9903e-21,22.304,-0.0066873,17.747,24.849,0.020687,-0.0076718,2.6407e-21,1,32.918,83.718,0,0
12.37,17.733,24.693,-0.0059851,0.0041284,-3.7664e-22,1.2461e-20,22.189,-0.0059851,17.733,24.693,0.020692,-0.0076117,2.4238e-21,1,33.02,83.82,0,0
12.386,17.719,24.537,-0.0052829,0.003993,2.112e-22,-2.6597e-21,22.073,-0.0052829,17.719,24.537,0.020697,-0.0075516,-1.6529e-22,1,33.122,83.922,0,0
12.401,17.706,24.382,-0.0045808,0.0038577,-2.2792e-23,1.0042e-20,21.958,-0.0045808,17.706,24.382,0.020702,-0.0074916,-1.0681e-21,1,33.223,84.023,0,0
12.417,17.692,24.226,-0.0038786,0.0037224,4.1276e-22,3.0676e-20,21.843,-0.0038786,17.692,24.226,0.020707,-0.0074315,2.0845e-21,1,33.325,84.125,0,0
12.433,17.678,24.07,-0.0031764,0.0035871,5.3778e-23,-1.4825e-20,21.728,-0.0031764,17.678,24.07,0.020712,-0.0073714,-1.9174e-22,1,33.426,84.226,0,0
12.449,17.664,23.914,-0.0024742,0.0034517,1.9814e-22,2.7857e-21,21.612,-0.0024742,17.664,23.914,0.020717,-0.0073113,-2.1296e-21,1,33.528,84.328,0,0
12.465,17.651,23.758,-0.0017721,0.0033164,3.5187e-23,9.5012e-21,21.497,-0.0017721,17.651,23.758,0.020723,-0.0072512,-3.0393e-21,1,33.63,84.43,0,0
12.48,17.637,23.602,-0.0010699,0.0031811,3.6353e-22,-1.711e-20,21.382,-0.00107,17.637,23.602,0.020728,-0.0071911,8.0821e-22,1,33.731,84.531,0,0
12.496,17.623,23.446,-0.00036778,0.0030458,9.6308e-22,-1.0274e-20,21.266,-0.00036778,17.623,23.446,0.020733,-0.007131,-1.0592e-21,1,33.833,84.633,0,0
12.512,17.609,23.29,0.0003344,0.0029104,-4.8756e-22,2.1319e-20,21.151,0.00033439,17.609,23.29,0.020738,-0.0070709,2.001e-22,1,33.934,84.734,0,0
12.528,17.595,23.134,0.0010366,0.0027751,-7.4002e-22,3.0884e-20,21.036,0.0010366,17.595,23.134,0.020743,-0.0070109,3.6009e-21,1,34.036,84.836,0,0
12.544,17.582,22.978,0.0017387,0.0026398,2.8647e-22,-1.2284e-21,20.921,0.0017387,17.582,22.978,0.020748,-0.0069508,1.3866e-21,1,34.138,84.938,0,0
12.559,17.568,22.822,0.0024409,0.0025045,5.6382e-22,-2.6877e-20,20.805,0.0024409,17.568,22.822,0.020753,-0.0068907,2.7459e-21,1,34.239,85.039,0,0
12.575,17.554,22.666,0.0031431,0.0023691,-2.1571e-23,-1.1443e-20,20.69,0.0031431,17.554,22.666,0.020758,-0.0068306,-6.854e-23,1,34.341,85.141,0,0
12.591,17.54,22.51,0.0038453,0.0022338,5.4291e-22,1.1957e-20,20.575,0.0038453,17.54,22.51,0.020763,-0.0067705,-1.2468e-21,1,34.442,85.242,0,0
12.607,17.526,22.354,0.0045474,0.0020985,-3.8024e-22,1.0237e-20,20.459,0.0045474,17.526,22.354,0.020768,-0.0067104,1.6375e-21,1,34.544,85.344,0,0
12.623,17.513,22.198,0.0052496,0.0019632,8.5689e-23,-9.0053e-21,20.344,0.0052496,17.513,22.198,0.020773,-0.0066503,8.5076e-22,1,34.646,85.446,0,0
12.638,17.499,22.042,0.0059518,0.0018278,5.9073e-22,2.516e-21,20.229,0.0059518,17.499,22.042,0.020778,-0.0065903,-1.1715e-21,1,34.747,85.547,0,0
12.654,17.485,21.886,0.0066539,0.0016925,-2.0669e-22,1.1798e-20,20.113,0.0066539,17.485,21.886,0.020783,-0.0065302,-5.3775e-21,1,34.849,85.649,0,0
12.67,17.471,21.73,0.0073561,0.0015572,2.616e-22,2.2353e-20,19.998,0.0073561,17.471,21.73,0.020789,-0.0064701,-1.4487e-21,1,34.95,85.75,0,0
12.686,17.458,21.574,0.0080582,0.0014219,3.0998e-23,9.4547e-21,19.883,0.0080582,17.458,21.574,0.020794,-0.00641,-6.0921e-21,1,35.052,85.852,0,0
12.702,17.444,21.418,0.0087604,0.0012865,2.9093e-23,3.8985e-21,19.768,0.0087604,17.444,21.418,0.020799,-0.0063499,-2.1842e-21,1,35.154,85.954,0,0
12.717,17.43,21.262,0.0094626,0.0011512,-6.29e-22,-1.019e-22,19.652,0.0094626,17.43,21.262,0.020804,-0.0062898,-8.1971e-22,1,35.255,86.055,0,0
12.733,17.416,21.106,0.010165,0.0010159,-2.7888e-22,-8.3056e-21,19.537,0.010165,17.416,21.106,0.020809,-0.0062297,4.6348e-22,1,35.357,86.157,0,0
12.749,17.402,20.95,0.010867,0.00088057,-2.1266e-22,6.6055e-22,19.422,0.010867,17.402,20.95,0.020814,-0.0061696,7.4382e-22,1,35.458,86.258,0,0
12.765,17.389,20.794,0.011569,0.00074525,-3.0084e-21,1.2879e-20,19.306,0.011569,17.389,20.794,0.020819,-0.0061096,-1.8113e-21,1,35.56,86.36,0,0
12.765,17.369,20.656,0.012084,0.00061959,1e-14,-1.084e-20,19.225,0.012084,17.318,20.706,0.020825,-0.0060495,-2.5967e-21,1,35.662,86.462,0,0
12.765,17.349,20.517,0.012598,0.00049394,2e-14,1.9967e-20,19.144,0.012598,17.248,20.618,0.02083,-0.0059894,-1.8355e-21,1,35.763,86.563,0,0
12.765,17.329,20.379,0.013113,0.00036828,3e-14,-1.895e-20,19.063,0.013113,17.178,20.53,0.020836,-0.0059292,9.4932e-22,1,35.865,86.665,0,0
12.765,17.309,20.24,0.013628,0.00024263,4e-14,3.1929e-21,18.982,0.013628,17.107,20.442,0.020842,-0.0058691,1.1552e-21,1,35.966,86.766,0,0
12.765,17.289,20.102,0.014142,0.00011699,5e-14,1.6807e-20,18.901,0.014142,17.037,20.354,0.020848,-0.005809,-5.6192e-25,1,36.068,86.868,0,0
12.765,17.269,19.963,0.014657,-8.6682e-06,6e-14,-9.4321e-21,18.82,0.014657,16.967,20.266,0.020853,-0.0057489,7.7248e-22,1,36.17,86.97,0,0
12.765,17.249,19.825,0.015172,-0.00013432,7e-14,-3.7613e-20,18.739,0.015172,16.896,20.178,0.020859,-0.0056888,-8.9423e-22,1,36.271,87.071,0,0
12.765,17.229,19.687,0.015686,-0.00025998,8e-14,5.8273e-21,18.658,0.015686,16.826,20.09,0.020865,-0.0056287,2.6415e-21,1,36.373,87.173,0,0
12.765,17.209,19.548,0.016201,-0.00038563,9e-14,-8.8486e-21,18.577,0.016201,16.755,20.002,0.02087,-0.0055686,1.6615e-21,1,36.474,87.274,0,0
12.765,17.189,19.41,0.016716,-0.00051128,1e-13,2.0639e-21,18.495,0.016716,16.685,19.914,0.020876,-0.0055085,-8.4297e-22,1,36.576,87.376,0,0
12.765,17.169,19.271,0.01723,-0.00063694,1.1e-13,-6.4907e-21,18.414,0.01723,16.615,19.826,0.020882,-0.0054484,1.0876e-21,1,36.678,87.478,0,0
12.765,17.149,19.133,0.017745,-0.00076259,1.2e-13,1.19e-20,18.333,0.017745,16.544,19.738,0.020888,-0.0053883,2.4053e-21,1,36.779,87.579,0,0
12.765,17.129,18.994,0.018259,-0.00088825,1.3e-13,-1.4946e-20,18.252,0.018259,16.474,19.65,0.020893,-0.0053282,1.8329e-22,1,36.881,87.681,0,0
12.765,17.109,18.856,0.018774,-0.0010139,1.4e-13,1.6961e-20,18.171,0.018774,16.404,19.562,0.020899,-0.0052681,-4.5442e-22,1,36.982,87.782,0,0
12.765,17.09,18.717,0.019289,-0.0011396,1.5e-13,-1.8795e-20,18.09,0.019289,16.333,19.473,0.020905,-0.005208,-1.1565e-21,1,37.084,87.884,0,0
12.765,17.07,18.579,0.019803,-0.0012652,1.6e-13,-1.1469e-20,18.009,0.019803,16.263,19.385,0.02091,-0.0051479,-1.8739e-21,1,37.186,87.986,0,0
12.765,17.05,18.44,0.020318,-0.0013909,1.7e-13,-1.5772e-20,17.928,0.020318,16.193,19.297,0.020916,-0.0050878,2.1525e-21,1,37.287,88.087,0,0
12.765,17.03,18.302,0.020833,-0.0015165,1.8e-13,-3.0502e-20,17.847,0.020833,16.122,19.209,0.020922,-0.0050277,2.3965e-21,1,37.389,88.189,0,0
12.765,17.01,18.163,0.021347,-0.0016422,1.9e-13,2.5085e-20,17.765,0.021347,16.052,19.121,0.020927,-0.0049676,1.1006e-21,1,37.49,88.29,0,0
12.765,16.99,18.025,0.021862,-0.0017678,2e-13,4.1933e-21,17.684,0.021862,15.982,19.033,0.020933,-0.0049075,-8.2456e-22,1,37.592,88.392,0,0
12.765,16.97,17.887,0.022377,-0.0018935,2.1e-13,1.7512e-20,17.603,0.022377,15.911,18.945,0.020939,-0.0048474,-1.6175e-21,1,37.694,88.494,0,0
12.765,16.95,17.748,0.022891,-0.0020191,2.2e-13,-4.5934e-22,17.522,0.022891,15.841,18.857,0.020945,-0.0047873,2.1807e-21,1,37.795,88.595,0,0
12.765,16.93,17.61,0.023406,-0.0021448,2.3e-13,-2.0367e-20,17.441,0.023406,15.771,18.769,0.02095,-0.0047272,-3.6692e-22,1,37.897,88.697,0,0
12.765,16.91,17.471,0.023921,-0.0022704,2.4e-13,-1.2867e-20,17.36,0.02392,15.7,18.681,0.020956,-0.0046671,-1.5591e-21,1,37.998,88.798,0,0
12.765,16.89,17.333,0.024435,-0.0023961,2.5e-13,-2.8329e-21,17.279,0.024435,15.63,18.593,0.020962,-0.004607,2.9209e-21,1,38.1,88.9,0,0
12.765,16.87,17.194,0.02495,-0.0025217,2.6e-13,1.1953e-20,17.198,0.02495,15.56,18.505,0.020967,-0.0045469,4.5252e-22,1,38.202,89.002,0,0
12.765,16.85,17.056,0.025464,-0.0026474,2.7e-13,6.5945e-21,17.117,0.025464,15.489,18.417,0.020973,-0.0044868,4.4156e-22,1,38.303,89.103,0,0
12.765,16.83,16.917,0.025979,-0.002773,2.8e-13,1.0396e-20,17.036,0.025979,15.419,18.329,0.020979,-0.0044266,4.3885e-22,1,38.405,89.205,0,0
12.765,16.81,16.779,0.026494,-0.0028987,2.9e-13,1.6544e-20,16.954,0.026494,15.349,18.241,0.020985,-0.0043665,2.5037e-21,1,38.506,89.306,0,0
12.765,16.791,16.64,0.027008,-0.0030243,3e-13,4.5271e-20,16.873,0.027008,15.278,18.153,0.02099,-0.0043064,3.6376e-21,1,38.608,89.408,0,0
12.765,16.771,16.502,0.027523,-0.00315,3.1e-13,8.3805e-21,16.792,0.027523,15.208,18.065,0.020996,-0.0042463,8.4098e-22,1,38.71,89.51,0,0
12.765,16.751,16.363,0.028038,-0.0032757,3.2e-13,-1.0654e-20,16.711,0.028038,15.137,17.977,0.021002,-0.0041862,-3.2396e-21,1,38.811,89.611,0,0
12.765,16.731,16.225,0.028552,-0.0034013,3.3e-13,-3.6788e-20,16.63,0.028552,15.067,17.889,0.021007,-0.0041261,-8.7178e-22,1,38.913,89.713,0,0
12.765,16.711,16.087,0.029067,-0.003527,3.4e-13,1.3435e-20,16.549,0.029067,14.997,17.801,0.021013,-0.004066,-1.2608e-21,1,39.014,89.814,0,0
12.765,16.691,15.948,0.029582,-0.0036526,3.5e-13,-6.9346e-21,16.468,0.029582,14.926,17.713,0.021019,-0.0040059,-1.75e-21,1,39.116,89.916,0,0
12.765,16.671,15.81,0.030096,-0.0037783,3.6e-13,-9.0753e-22,16.387,0.030096,14.856,17.624,0.021025,-0.0039458,2.0146e-21,1,39.218,90.018,0,0
12.765,16.651,15.671,0.030611,-0.0039039,3.7e-13,6.5219e-21,16.306,0.030611,14.786,17.536,0.02103,-0.0038857,8.3799e-22,1,39.319,90.119,0,0
12.765,16.631,15.533,0.031125,-0.0040296,3.8e-13,3.9026e-21,16.224,0.031125,14.715,17.448,0.021036,-0.0038256,-9.1939e-22,1,39.421,90.221,0,0
12.765,16.611,15.394,0.03164,-0.0041552,3.9e-13,6.8791e-21,16.143,0.03164,14.645,17.36,0.021042,-0.0037655,-2.2818e-21,1,39.522,90.322,0,0
12.765,16.591,15.256,0.032155,-0.0042809,4e-13,1.7534e-20,16.062,0.032155,14.575,17.272,0.021047,-0.0037054,-5.763e-22,1,39.624,90.424,0,0
12.765,16.571,15.117,0.032669,-0.0044065,4.1e-13,1.5947e-20,15.981,0.032669,14.504,17.184,0.021053,-0.0036453,1.0209e-21,1,39.726,90.526,0,0
12.765,16.551,14.979,0.033184,-0.0045322,4.2e-13,-5.995e-21,15.9,0.033184,14.434,17.096,0.021059,-0.0035852,1.6318e-21,1,39.827,90.627,0,0
12.765,16.531,14.84,0.033699,-0.0046578,4.3e-13,1.3038e-20,15.819,0.033699,14.364,17.008,0.021065,-0.0035251,4.8785e-21,1,39.929,90.729,0,0
12.765,16.511,14.702,0.034213,-0.0047835,4.4e-13,-6.2238e-21,15.738,0.034213,14.293,16.92,0.02107,-0.003465,-1.0572e-22,1,40.03,90.83,0,0
12.765,16.491,14.564,0.034728,-0.0049091,4.5e-13,-7.5335e-21,15.657,0.034728,14.223,16.832,0.021076,-0.0034049,-4.6762e-22,1,40.132,90.932,0,0
12.765,16.472,14.425,0.035243,-0.0050348,4.6e-13,-1.5969e-20,15.576,0.035243,14.153,16.744,0.021082,-0.0033448,-2.9148e-22,1,40.234,91.034,0,0
12.765,16.452,14.287,0.035757,-0.0051605,4.7e-13,-2.4073e-21,15.495,0.035757,14.082,16.656,0.021087,-0.0032847,-2.7034e-22,1,40.335,91.135,0,0
12.765,16.432,14.148,0.036272,-0.0052861,4.8e-13,8.0562e-21,15.413,0.036272,14.012,16.568,0.021093,-0.0032246,2.294e-21,1,40.437,91.237,0,0
12.765,16.412,14.01,0.036787,-0.0054118,4.9e-13,-9.6835e-21,15.332,0.036787,13.942,16.48,0.021099,-0.0031645,-6.1673e-23,1,40.538,91.338,0,0
12.765,16.392,13.871,0.037301,-0.0055374,5e-13,1.5524e-20,15.251,0.037301,13.871,16.392,0.021105,-0.0031044,2.1772e-21,1,40.64,91.44,0,0
12.64,16.368,13.746,0.037676,-0.0056296,4.9e-13,-2.2059e-20,15.208,0.037676,13.746,16.368,0.021111,-0.0030442,-9.3486e-22,1,40.742,91.542,0,0
12.516,16.344,13.622,0.03805,-0.0057219,4.8e-13,-1.5088e-20,15.166,0.03805,13.622,16.344,0.021117,-0.0029841,-2.7284e-21,1,40.843,91.643,0,0
12.391,16.32,13.497,0.038424,-0.0058141,4.7e-13,1.9001e-20,15.123,0.038424,13.497,16.32,0.021123,-0.002924,7.6555e-22,1,40.945,91.745,0,0
12.266,16.296,13.372,0.038799,-0.0059063,4.6e-13,1.437e-20,15.08,0.038799,13.372,16.296,0.021129,-0.0028639,-9.4395e-22,1,41.046,91.846,0,0
12.142,16.272,13.248,0.039173,-0.0059985,4.5e-13,3.4225e-21,15.037,0.039173,13.248,16.272,0.021135,-0.0028038,-1.0208e-21,1,41.148,91.948,0,0
12.017,16.248,13.123,0.039547,-0.0060908,4.4e-13,7.5574e-21,14.994,0.039547,13.123,16.248,0.021141,-0.0027436,1.912e-21,1,41.25,92.05,0,0
11.893,16.224,12.998,0.039922,-0.006183,4.3e-13,2.4287e-21,14.952,0.039922,12.998,16.224,0.021147,-0.0026835,-2.5184e-21,1,41.351,92.151,0,0
11.768,16.2,12.873,0.040296,-0.0062752,4.2e-13,-2.1067e-20,14.909,0.040296,12.873,16.2,0.021153,-0.0026234,9.3726e-23,1,41.453,92.253,0,0
11.643,16.176,12.749,0.04067,-0.0063675,4.1e-13,-4.2769e-21,14.866,0.04067,12.749,16.176,0.02116,-0.0025633,1.7104e-21,1,41.554,92.354,0,0
11.519,16.152,12.624,0.041045,-0.0064597,4e-13,1.997e-20,14.823,0.041045,12.624,16.152,0.021166,-0.0025032,-3.3741e-21,1,41.656,92.456,0,0
11.394,16.128,12.499,0.041419,-0.0065519,3.9e-13,-8.2661e-21,14.78,0.041419,12.499,16.128,0.021172,-0.002443,2.0069e-21,1,41.758,92.558,0,0
11.269,16.104,12.375,0.041793,-0.0066441,3.8e-13,-6.6285e-21,14.737,0.041793,12.375,16.105,0.021178,-0.0023829,1.1416e-21,1,41.859,92.659,0,0
11.145,16.081,12.25,0.042168,-0.0067364,3.7e-13,-1.4737e-20,14.695,0.042168,12.25,16.081,0.021184,-0.0023228,-1.5031e-21,1,41.961,92.761,0,0
11.02,16.057,12.125,0.042542,-0.0068286,3.6e-13,6.8326e-21,14.652,0.042542,12.125,16.057,0.02119,-0.0022627,3.516e-21,1,42.062,92.862,0,0
10.895,16.033,12,0.042916,-0.0069208,3.5e-13,1.623e-20,14.609,0.042916,12,16.033,0.021196,-0.0022026,1.3919e-21,1,42.164,92.964,0,0
10.771,16.009,11.876,0.043291,-0.0070131,3.4e-13,-1.3623e-21,14.566,0.043291,11.876,16.009,0.021202,-0.0021424,-2.2242e-21,1,42.266,93.066,0,0
10.646,15.985,11.751,0.043665,-0.0071053,3.3e-13,-4.2678e-21,14.523,0.043665,11.751,15.985,0.021208,-0.0020823,-3.1403e-22,1,42.367,93.167,0,0
10.522,15.961,11.626,0.04404,-0.0071975,3.2e-13,2.2081e-20,14.481,0.04404,11.626,15.961,0.021215,-0.0020222,3.1323e-21,1,42.469,93.269,0,0
10.397,15.937,11.501,0.044414,-0.0072897,3.1e-13,2.4485e-20,14.438,0.044414,11.501,15.937,0.021221,-0.0019621,1.586e-21,1,42.57,93.37,0,0
10.272,15.913,11.377,0.044788,-0.007382,3e-13,-9.6027e-21,14.395,0.044788,11.377,15.913,0.021227,-0.001902,-1.3148e-21,1,42.672,93.472,0,0
10.148,15.889,11.252,0.045163,-0.0074742,2.9e-13,-1.1417e-20,14.352,0.045163,11.252,15.889,0.021233,-0.0018418,6.1208e-22,1,42.774,93.574,0,0
10.023,15.865,11.127,0.045537,-0.0075664,2.8e-13,-7.0669e-21,14.309,0.045537,11.127,15.865,0.021239,-0.0017817,8.4551e-22,1,42.875,93.675,0,0
9.8984,15.841,11.003,0.045911,-0.0076587,2.7e-13,-9.1104e-21,14.266,0.045911,11.003,15.841,0.021245,-0.0017216,1.3375e-21,1,42.977,93.777,0,0
9.7738,15.817,10.878,0.046286,-0.0077509,2.6e-13,-3.0067e-21,14.224,0.046286,10.878,15.817,0.021251,-0.0016615,1.5013e-21,1,43.078,93.878,0,0
9.6492,15.793,10.753,0.04666,-0.0078431,2.5e-13,-1.4877e-20,14.181,0.04666,10.753,15.793,0.021257,-0.0016014,7.5287e-22,1,43.18,93.98,0,0
9.5246,15.769,10.628,0.047034,-0.0079353,2.4e-13,8.4821e-21,14.138,0.047034,10.628,15.769,0.021263,-0.0015413,3.5622e-22,1,43.282,94.082,0,0
9.3999,15.745,10.504,0.047409,-0.0080276,2.3e-13,5.8493e-20,14.095,0.047409,10.504,15.745,0.02127,-0.0014811,2.6308e-22,1,43.383,94.183,0,0
9.2753,15.721,10.379,0.047783,-0.0081198,2.2e-13,-1.4962e-20,14.052,0.047783,10.379,15.721,0.021276,-0.001421,-1.6324e-21,1,43.485,94.285,0,0
9.1507,15.697,10.254,0.048157,-0.008212,2.1e-13,5.9267e-21,14.01,0.048157,10.254,15.697,0.021282,-0.0013609,-8.2198e-22,1,43.586,94.386,0,0
9.026,15.674,10.129,0.048532,-0.0083042,2e-13,-1.3404e-20,13.967,0.048532,10.129,15.674,0.021288,-0.0013008,4.2855e-22,1,43.688,94.488,0,0
8.9014,15.65,10.005,0.048906,-0.0083965,1.9e-13,-4.2318e-21,13.924,0.048906,10.005,15.65,0.021294,-0.0012407,-1.4399e-22,1,43.79,94.59,0,0
8.7768,15.626,9.88,0.049281,-0.0084887,1.8e-13,3.4399e-20,13.881,0.049281,9.88,15.626,0.0213,-0.0011805,2.8182e-22,1,43.891,94.691,0,0
8.6522,15.602,9.7553,0.049655,-0.0085809,1.7e-13,-4.9817e-21,13.838,0.049655,9.7553,15.602,0.021306,-0.0011204,1.1417e-21,1,43.993,94.793,0,0
8.5275,15.578,9.6306,0.050029,-0.0086732,1.6e-13,5.4699e-22,13.796,0.050029,9.6306,15.578,0.021312,-0.0010603,1.8738e-21,1,44.094,94.894,0,0
8.4029,15.554,9.5059,0.050404,-0.0087654,1.5e-13,1.127e-20,13.753,0.050404,9.5059,15.554,0.021318,-0.0010002,2.2462e-22,1,44.196,94.996,0,0
8.2783,15.53,9.3812,0.050778,-0.0088576,1.4e-13,1.0216e-21,13.71,0.050778,9.3811,15.53,0.021325,-0.00094005,7.1923e-22,1,44.298,95.098,0,0
8.1536,15.506,9.2564,0.051152,-0.0089498,1.3e-13,-2.9264e-20,13.667,0.051152,9.2564,15.506,0.021331,-0.00087993,-5.8516e-22,1,44.399,95.199,0,0
8.029,15.482,9.1317,0.051527,-0.0090421,1.2e-13,9.3722e-22,13.624,0.051527,9.1317,15.482,0.021337,-0.00081982,2.5291e-21,1,44.501,95.301,0,0
7.9044,15.458,9.007,0.051901,-0.0091343,1.1e-13,1.4705e-20,13.581,0.051901,9.007,15.458,0.021343,-0.0007597,2.7355e-21,1,44.602,95.402,0,0
7.7798,15.434,8.8823,0.052275,-0.0092265,1e-13,-1.5888e-20,13.539,0.052275,8.8823,15.434,0.021349,-0.00069958,1.187e-21,1,44.704,95.504,0,0
7.6551,15.41,8.7575,0.05265,-0.0093188,9e-14,1.8497e-20,13.496,0.05265,8.7575,15.41,0.021355,-0.00063946,7.2662e-22,1,44.806,95.606,0,0
7.5305,15.386,8.6328,0.053024,-0.009411,8e-14,-1.6748e-20,13.453,0.053024,8.6328,15.386,0.021361,-0.00057934,-8.8285e-22,1,44.907,95.707,0,0
7.4059,15.362,8.5081,0.053398,-0.0095032,7e-14,-1.2294e-20,13.41,0.053398,8.5081,15.362,0.021367,-0.00051922,9.0015e-22,1,45.009,95.809,0,0
7.2812,15.338,8.3834,0.053773,-0.0095954,6e-14,-2.1441e-20,13.367,0.053773,8.3834,15.338,0.021374,-0.0004591,-1.239e-21,1,45.11,95.91,0,0
7.1566,15.314,8.2586,0.054147,-0.0096877,5e-14,-1.6182e-20,13.325,0.054147,8.2586,15.314,0.02138,-0.00039898,6.3379e-22,1,45.212,96.012,0,0
7.032,15.29,8.1339,0.054522,-0.0097799,4e-14,4.3833e-21,13.282,0.054521,8.1339,15.29,0.021386,-0.00033886,9.026e-22,1,45.314,96.114,0,0
6.9073,15.267,8.0092,0.054896,-0.0098721,2.9999e-14,-1.3059e-20,13.239,0.054896,8.0092,15.267,0.021392,-0.00027874,7.2987e-22,1,45.415,96.215,0,0
6.7827,15.243,7.8845,0.05527,-0.0099644,1.9999e-14,-1.3407e-20,13.196,0.05527,7.8845,15.243,0.021398,-0.00021862,-4.1375e-22,1,45.517,96.317,0,0
6.6581,15.219,7.7597,0.055645,-0.010057,9.9993e-15,4.229e-21,13.153,0.055645,7.7597,15.219,0.021404,-0.0001585,-1.3613e-21,1,45.618,96.418,0,0
6.5335,15.195,7.635,0.056019,-0.010149,1.7245e-22,-2.1558e-20,13.11,0.056019,7.635,15.195,0.02141,-9.8382e-05,-1.4604e-24,1,45.72,96.52,0,0
6.4952,15.168,7.5212,0.056291,-0.010197,-7.9236e-24,-1.1433e-20,13.108,0.056291,7.5212,15.168,0.021417,-3.8248e-05,1.1406e-21,1,45.822,96.622,0,0
6.4569,15.142,7.4075,0.056564,-0.010246,-2.2339e-22,-4.1234e-21,13.105,0.056564,7.4074,15.142,0.021423,2.1886e-05,-1.7126e-21,1,45.923,96.723,0,0
6.4186,15.115,7.2937,0.056837,-0.010294,-9.1132e-23,-1.8631e-20,13.102,0.056837,7.2936,15.115,0.021429,8.202e-05,3.5552e-22,1,46.025,96.825,0,0
6.3803,15.089,7.1799,0.057109,-0.010343,1.0789e-22,2.8416e-20,13.099,0.057109,7.1799,15.089,0.021436,0.00014215,2.6559e-22,1,46.126,96.926,0,0
6.342,15.062,7.0661,0.057382,-0.010391,-3.0159e-23,2.7071e-21,13.096,0.057382,7.0661,15.062,0.021442,0.00020229,-6.689e-22,1,46.228,97.028,0,0
6.3037,15.036,6.9523,0.057654,-0.01044,-4.6e-23,7.1012e-21,13.093,0.057654,6.9523,15.036,0.021448,0.00026242,5.6168e-22,1,46.33,97.13,0,0
6.2654,15.009,6.8385,0.057927,-0.010488,-3.3374e-23,-2.3253e-20,13.09,0.057927,6.8385,15.009,0.021455,0.00032256,-1.0778e-21,1,46.431,97.231,0,0
6.2271,14.983,6.7247,0.0582,-0.010537,2.2674e-23,1.959e-20,13.087,0.0582,6.7247,14.983,0.021461,0.00038269,1.5555e-21,1,46.533,97.333,0,0
6.1888,14.956,6.6109,0.058472,-0.010585,2.7226e-22,1.6573e-20,13.084,0.058472,6.6109,14.956,0.021467,0.00044282,-9.1052e-22,1,46.634,97.434,0,0
6.1506,14.93,6.4971,0.058745,-0.010634,2.1261e-23,1.1271e-20,13.081,0.058745,6.4971,14.93,0.021474,0.00050296,3.6515e-22,1,46.736,97.536,0,0
6.1123,14.903,6.3833,0.059017,-0.010682,8.7106e-23,6.6033e-21,13.078,0.059017,6.3833,14.903,0.02148,0.00056309,8.8471e-22,1,46.838,97.638,0,0
6.074,14.877,6.2696,0.05929,-0.010731,5.771e-23,4.6416e-20,13.075,0.05929,6.2695,14.877,0.021486,0.00062322,1.8466e-21,1,46.939,97.739,0,0
6.0357,14.85,6.1558,0.059562,-0.010779,2.8385e-23,9.4961e-22,13.072,0.059562,6.1558,14.85,0.021493,0.00068336,-1.4196e-21,1,47.041,97.841,0,0
5.9974,14.824,6.042,0.059835,-0.010828,3.1919e-23,2.1567e-21,13.07,0.059835,6.042,14.824,0.021499,0.00074349,-1.5592e-21,1,47.142,97.942,0,0
5.9591,14.797,5.9282,0.060108,-0.010877,1.0262e-22,-1.141e-20,13.067,0.060108,5.9282,14.797,0.021506,0.00080362,1.1415e-22,1,47.244,98.044,0,0
5.9208,14.771,5.8144,0.06038,-0.010925,-9.3072e-23,7.2239e-21,13.064,0.06038,5.8144,14.771,0.021512,0.00086376,-1.0993e-21,1,47.346,98.146,0,0
5.8825,14.744,5.7006,0.060653,-0.010974,1.7277e-22,1.6944e-20,13.061,0.060653,5.7006,14.744,0.021518,0.00092389,-5.7995e-22,1,47.447,98.247,0,0
5.8442,14.718,5.5868,0.060925,-0.011022,4.2552e-23,-9.8105e-21,13.058,0.060925,5.5868,14.718,0.021525,0.00098403,-5.9228e-23,1,47.549,98.349,0,0
5.8059,14.691,5.473,0.061198,-0.011071,3.7797e-23,1.4599e-20,13.055,0.061198,5.473,14.691,0.021531,0.0010442,4.2754e-22,1,47.65,98.45,0,0
5.7676,14.665,5.3592,0.061471,-0.011119,1.5327e-22,-5.148e-21,13.052,0.061471,5.3592,14.665,0.021537,0.0011043,-4.2367e-22,1,47.752,98.552,0,0
5.7294,14.638,5.2455,0.061743,-0.011168,-3.715e-23,-1.529e-20,13.049,0.061743,5.2454,14.638,0.021544,0.0011644,-1.7974e-21,1,47.854,98.654,0,0
5.6911,14.612,5.1317,0.062016,-0.011216,-4.025e-24,2.4382e-20,13.046,0.062016,5.1317,14.612,0.02155,0.0012246,8.8299e-23,1,47.955,98.755,0,0
5.6528,14.585,5.0179,0.062288,-0.011265,1.2219e-22,2.209e-20,13.043,0.062288,5.0179,14.585,0.021556,0.0012847,1.8837e-21,1,48.057,98.857,0,0
5.6145,14.559,4.9041,0.062561,-0.011313,6.8232e-23,-2.5866e-21,13.04,0.062561,4.9041,14.559,0.021563,0.0013448,-3.9229e-22,1,48.158,98.958,0,0
5.5762,14.532,4.7903,0.062833,-0.011362,4.1806e-23,-5.8863e-21,13.037,0.062833,4.7903,14.532,0.021569,0.001405,-1.6044e-21,1,48.26,99.06,0,0
5.5379,14.506,4.6765,0.063106,-0.01141,1.5919e-22,-1.5355e-20,13.034,0.063106,4.6765,14.506,0.021575,0.0014651,1.1896e-21,1,48.362,99.162,0,0
5.4996,14.479,4.5627,0.063379,-0.011459,-2.0195e-22,9.2261e-21,13.031,0.063379,4.5627,14.479,0.021582,0.0015252,-7.7451e-23,1,48.463,99.263,0,0
5.4613,14.453,4.4489,0.063651,-0.011507,-1.7906e-22,-1.3895e-20,13.029,0.063651,4.4489,14.453,0.021588,0.0015854,-7.6566e-22,1,48.565,99.365,0,0
5.423,14.426,4.3351,0.063924,-0.011556,1.3999e-22,-3.8386e-21,13.026,0.063924,4.3351,14.426,0.021595,0.0016455,3.7868e-22,1,48.666,99.466,0,0
5.3847,14.4,4.2214,0.064196,-0.011604,-7.1277e-23,-1.6954e-21,13.023,0.064196,4.2213,14.4,0.021601,0.0017056,2.0699e-21,1,48.768,99.568,0,0
5.3464,14.373,4.1076,0.064469,-0.011653,-4.865e-23,-7.8973e-21,13.02,0.064469,4.1076,14.373,0.021607,0.0017658,-1.2109e-21,1,48.87,99.67,0,0
5.3082,14.347,3.9938,0.064742,-0.011701,2.1659e-23,-2.2874e-20,13.017,0.064742,3.9938,14.347,0.021614,0.0018259,1.1127e-21,1,48.971,99.771,0,0
5.2699,14.32,3.88,0.065014,-0.01175,6.1802e-23,-1.9949e-20,13.014,0.065014,3.88,14.32,0.02162,0.001886,1.3699e-22,1,49.073,99.873,0,0
5.2316,14.294,3.7662,0.065287,-0.011798,-1.0948e-22,4.5235e-22,13.011,0.065287,3.7662,14.294,0.021626,0.0019462,-3.3427e-22,1,49.174,99.974,0,0
5.1933,14.267,3.6524,0.065559,-0.011847,1.8016e-22,1.4207e-20,13.008,0.065559,3.6524,14.267,0.021633,0.0020063,-3.6978e-22,1,49.276,100.08,0,0
5.155,14.241,3.5386,0.065832,-0.011895,-1.1565e-22,-4.0144e-20,13.005,0.065832,3.5386,14.241,0.021639,0.0020664,1.4109e-21,1,49.378,100.18,0,0
5.1167,14.214,3.4248,0.066105,-0.011944,1.186e-22,-1.0525e-20,13.002,0.066104,3.4248,14.214,0.021645,0.0021266,-9.76e-22,1,49.479,100.28,0,0
5.0784,14.188,3.311,0.066377,-0.011992,-1.3561e-22,2.1328e-20,12.999,0.066377,3.311,14.188,0.021652,0.0021867,5.1519e-22,1,49.581,100.38,0,0
5.0401,14.161,3.1973,0.06665,-0.012041,2.2314e-22,7.8848e-22,12.996,0.06665,3.1972,14.161,0.021658,0.0022468,-4.6753e-22,1,49.682,100.48,0,0
5.0018,14.135,3.0835,0.066922,-0.012089,-3.0639e-23,8.7546e-21,12.993,0.066922,3.0835,14.135,0.021664,0.002307,1.584e-21,1,49.784,100.58,0,0
4.9635,14.108,2.9697,0.067195,-0.012138,4.2103e-22,4.4812e-20,12.991,0.067195,2.9697,14.108,0.021671,0.0023671,1.168e-21,1,49.886,100.69,0,0
4.9252,14.082,2.8559,0.067467,-0.012186,-6.613e-23,1.2797e-22,12.988,0.067467,2.8559,14.082,0.021677,0.0024272,-4.3894e-22,1,49.987,100.79,0,0
4.887,14.055,2.7421,0.06774,-0.012235,4.2356e-23,3.6921e-20,12.985,0.06774,2.7421,14.055,0.021684,0.0024874,1.4292e-21,1,50.089,100.89,0,0
4.8487,14.029,2.6283,0.068013,-0.012283,-4.6045e-23,-7.8475e-21,12.982,0.068013,2.6283,14.029,0.02169,0.0025475,1.2759e-21,1,50.19,100.99,0,0
4.8104,14.002,2.5145,0.068285,-0.012332,-6.2737e-23,9.3876e-22,12.979,0.068285,2.5145,14.002,0.021696,0.0026076,3.8247e-22,1,50.292,101.09,0,0
4.7721,13.976,2.4007,0.068558,-0.01238,-1.6032e-22,8.6639e-21,12.976,0.068558,2.4007,13.976,0.021703,0.0026678,3.1996e-23,1,50.394,101.19,0,0
4.7338,13.949,2.2869,0.06883,-0.012429,-2.3633e-23,-2.245e-20,12.973,0.06883,2.2869,13.949,0.021709,0.0027279,8.9906e-22,1,50.495,101.3,0,0
4.6955,13.923,2.1732,0.069103,-0.012477,1.0127e-22,9.0364e-21,12.97,0.069103,2.1731,13.923,0.021715,0.002788,-1.2963e-21,1,50.597,101.4,0,0
4.6572,13.896,2.0594,0.069376,-0.012526,-8.6888e-23,-1.5958e-20,12.967,0.069376,2.0594,13.896,0.021722,0.0028482,9.103e-22,1,50.698,101.5,0,0
4.6189,13.87,1.9456,0.069648,-0.012575,-3.6253e-20,-2.8337e-20,12.964,0.069648,1.9456,13.87,0.021728,0.0029083,1.0307e-21,1,50.8,101.6,0,0
4.6109,13.842,1.8406,0.069847,-0.012579,1e-13,4.4781e-21,12.992,0.0021967,1.9082,13.842,0.021734,0.0029684,5.376e-22,1,50.902,101.7,0,0
4.6028,13.813,1.7356,0.070045,-0.012584,2e-13,2.904e-22,13.021,-0.065255,1.8709,13.813,0.021741,0.0030286,-1.3978e-22,1,51.003,101.8,0,0
4.5948,13.785,1.6307,0.070244,-0.012589,3e-13,-9.1022e-21,13.049,-0.13271,1.8336,13.785,0.021747,0.0030887,-1.9456e-21,1,51.105,101.9,0,0
4.5868,13.757,1.5257,0.070443,-0.012594,4e-13,2.5218e-20,13.077,-0.20016,1.7963,13.757,0.021754,0.0031489,5.3086e-22,1,51.206,102.01,0,0
4.5787,13.729,1.4207,0.070641,-0.012599,5e-13,1.1564e-20,13.106,-0.26761,1.759,13.729,0.02176,0.003209,-1.6317e-21,1,51.308,102.11,0,0
4.5707,13.701,1.3158,0.07084,-0.012604,6e-13,3.1897e-20,13.134,-0.33506,1.7216,13.701,0.021767,0.0032692,3.2901e-22,1,51.41,102.21,0,0
4.5626,13.673,1.2108,0.071038,-0.012609,7e-13,5.5499e-21,13.162,-0.40251,1.6843,13.673,0.021773,0.0033293,-5.9923e-22,1,51.511,102.31,0,0
4.5546,13.645,1.1058,0.071237,-0.012614,8e-13,2.9738e-20,13.191,-0.46996,1.647,13.645,0.02178,0.0033895,-4.5047e-23,1,51.613,102.41,0,0
4.5466,13.617,1.0009,0.071436,-0.012619,9e-13,-3.116e-21,13.219,-0.53741,1.6097,13.617,0.021786,0.0034496,-1.2748e-21,1,51.714,102.51,0,0
4.5385,13.589,0.89589,0.071634,-0.012624,1e-12,4.2649e-22,13.247,-0.60486,1.5724,13.589,0.021793,0.0035098,5.3171e-22,1,51.816,102.62,0,0
4.5305,13.561,0.79092,0.071833,-0.012629,1.1e-12,3.9725e-21,13.275,-0.67231,1.535,13.561,0.021799,0.0035699,3.2109e-22,1,51.918,102.72,0,0
4.5224,13.533,0.68595,0.072031,-0.012634,1.2e-12,6.4976e-21,13.304,-0.73976,1.4977,13.533,0.021806,0.0036301,2.4746e-22,1,52.019,102.82,0,0
4.5144,13.505,0.58098,0.07223,-0.012639,1.3e-12,-1.3347e-20,13.332,-0.80721,1.4604,13.505,0.021812,0.0036902,2.2547e-21,1,52.121,102.92,0,0
4.5064,13.476,0.47601,0.072429,-0.012644,1.4e-12,1.1183e-20,13.36,-0.87467,1.4231,13.476,0.021819,0.0037504,2.9584e-23,1,52.222,103.02,0,0
4.4983,13.448,0.37104,0.072627,-0.012649,1.5e-12,-2.2372e-21,13.389,-0.94212,1.3858,13.448,0.021825,0.0038105,-1.3046e-21,1,52.324,103.12,0,0
4.4903,13.42,0.26607,0.072826,-0.012654,1.6e-12,-1.396e-20,13.417,-1.0096,1.3484,13.42,0.021832,0.0038706,8.3596e-22,1,52.426,103.23,0,0
4.4822,13.392,0.1611,0.073025,-0.012659,1.7e-12,3.5996e-20,13.445,-1.077,1.3111,13.392,0.021838,0.0039308,1.4245e-22,1,52.527,103.33,0,0
4.4742,13.364,0.056127,0.073223,-0.012664,1.8e-12,-2.2775e-20,13.473,-1.1445,1.2738,13.364,0.021845,0.0039909,-1.6454e-21,1,52.629,103.43,0,0
4.4662,13.336,-0.048843,0.073422,-0.012669,1.9e-12,-1.5354e-21,13.502,-1.2119,1.2365,13.336,0.021851,0.0040511,-2.4546e-22,1,52.73,103.53,0,0
4.4581,13.308,-0.15381,0.07362,-0.012674,2e-12,3.096e-20,13.53,-1.2794,1.1992,13.308,0.021858,0.0041112,-9.0305e-22,1,52.832,103.63,0,0
4.4501,13.28,-0.25877,0.073819,-0.012679,2.1e-12,-6.0207e-21,13.558,-1.3468,1.1619,13.28,0.021864,0.0041714,-5.2374e-22,1,52.934,103.73,0,0
4.4421,13.252,-0.36374,0.074018,-0.012683,2.2e-12,5.3412e-21,13.587,-1.4143,1.1245,13.252,0.021871,0.0042315,3.5125e-22,1,53.035,103.84,0,0
4.434,13.224,-0.46871,0.074216,-0.012688,2.3e-12,1.1452e-20,13.615,-1.4817,1.0872,13.224,0.021877,0.0042917,1.7013e-22,1,53.137,103.94,0,0
4.426,13.196,-0.57368,0.074415,-0.012693,2.4e-12,1.1333e-20,13.643,-1.5492,1.0499,13.196,0.021884,0.0043518,-5.8922e-22,1,53.238,104.04,0,0
4.4179,13.168,-0.67865,0.074613,-0.012698,2.5e-12,-2.3092e-20,13.671,-1.6166,1.0126,13.168,0.02189,0.004412,2.466e-22,1,53.34,104.14,0,0
4.4099,13.139,-0.78363,0.074812,-0.012703,2.6e-12,-1.148e-20,13.7,-1.6841,0.97525,13.139,0.021896,0.0044721,1.9374e-22,1,53.442,104.24,0,0
4.4019,13.111,-0.8886,0.075011,-0.012708,2.7e-12,4.5475e-21,13.728,-1.7515,0.93793,13.111,0.021903,0.0045323,5.8141e-22,1,53.543,104.34,0,0
4.3938,13.083,-0.99357,0.075209,-0.012713,2.8e-12,-1.663e-20,13.756,-1.819,0.90061,13.083,0.021909,0.0045924,1.9916e-22,1,53.645,104.44,0,0
4.3858,13.055,-1.0985,0.075408,-0.012718,2.9e-12,-3.5313e-20,13.785,-1.8864,0.86329,13.055,0.021916,0.0046525,-4.68e-22,1,53.746,104.55,0,0
4.3777,13.027,-1.2035,0.075606,-0.012723,3e-12,-1.1799e-20,13.813,-1.9539,0.82597,13.027,0.021922,0.0047127,3.3692e-22,1,53.848,104.65,0,0
4.3697,12.999,-1.3085,0.075805,-0.012728,3.1e-12,2.5856e-20,13.841,-2.0213,0.78865,12.999,0.021929,0.0047728,9.8414e-22,1,53.95,104.75,0,0
4.3617,12.971,-1.4134,0.076004,-0.012733,3.2e-12,2.3795e-20,13.869,-2.0888,0.75134,12.971,0.021935,0.004833,-6.0107e-22,1,54.051,104.85,0,0
4.3536,12.943,-1.5184,0.076202,-0.012738,3.3e-12,5.5553e-21,13.898,-2.1562,0.71402,12.943,0.021942,0.0048931,3.4361e-22,1,54.153,104.95,0,0
4.3456,12.915,-1.6234,0.076401,-0.012743,3.4e-12,-2.8479e-20,13.926,-2.2237,0.6767,12.915,0.021948,0.0049533,6.1329e-23,1,54.254,105.05,0,0
4.3375,12.887,-1.7283,0.0766,-0.012748,3.5e-12,-1.1482e-20,13.954,-2.2911,0.63938,12.887,0.021955,0.0050134,3.1599e-22,1,54.356,105.16,0,0
4.3295,12.859,-1.8333,0.076798,-0.012753,3.6e-12,1.4048e-21,13.983,-2.3586,0.60206,12.859,0.021961,0.0050736,-9.175e-23,1,54.458,105.26,0,0
4.3215,12.831,-1.9383,0.076997,-0.012758,3.7e-12,-1.7854e-20,14.011,-2.426,0.56474,12.831,0.021968,0.0051337,-6.6582e-22,1,54.559,105.36,0,0
4.3134,12.802,-2.0433,0.077195,-0.012763,3.8e-12,1.1132e-20,14.039,-2.4935,0.52742,12.802,0.021974,0.0051939,7.8529e-22,1,54.661,105.46,0,0
4.3054,12.774,-2.1482,0.077394,-0.012768,3.9e-12,6.1248e-21,14.068,-2.5609,0.4901,12.774,0.021981,0.005254,-3.2185e-22,1,54.762,105.56,0,0
4.2973,12.746,-2.2532,0.077593,-0.012773,4e-12,2.0417e-20,14.096,-2.6284,0.45278,12.746,0.021987,0.0053142,7.4803e-22,1,54.864,105.66,0,0
4.2893,12.718,-2.3582,0.077791,-0.012778,4.1e-12,-1.117e-21,14.124,-2.6958,0.41546,12.718,0.021994,0.0053743,2.6123e-22,1,54.966,105.77,0,0
4.2813,12.69,-2.4631,0.07799,-0.012783,4.2e-12,2.1927e-20,14.152,-2.7633,0.37814,12.69,0.022,0.0054345,4.1459e-22,1,55.067,105.87,0,0
4.2732,12.662,-2.5681,0.078188,-0.012787,4.3e-12,7.3258e-21,14.181,-2.8307,0.34082,12.662,0.022007,0.0054946,1.8138e-23,1,55.169,105.97,0,0
4.2652,12.634,-2.6731,0.078387,-0.012792,4.4e-12,-4.1544e-21,14.209,-2.8982,0.3035,12.634,0.022013,0.0055547,2.9308e-22,1,55.27,106.07,0,0
4.2571,12.606,-2.778,0.078586,-0.012797,4.5e-12,1.1641e-20,14.237,-2.9656,0.26618,12.606,0.02202,0.0056149,3.0567e-22,1,55.372,106.17,0,0
4.2491,12.578,-2.883,0.078784,-0.012802,4.6e-12,1.4194e-20,14.266,-3.0331,0.22886,12.578,0.022026,0.005675,4.4159e-22,1,55.474,106.27,0,0
4.2411,12.55,-2.988,0.078983,-0.012807,4.7e-12,2.6092e-21,14.294,-3.1005,0.19154,12.55,0.022033,0.0057352,-4.8392e-22,1,55.575,106.38,0,0
4.233,12.522,-3.0929,0.079181,-0.012812,4.8e-12,3.1023e-21,14.322,-3.168,0.15422,12.522,0.022039,0.0057953,-2.6618e-22,1,55.677,106.48,0,0
4.225,12.494,-3.1979,0.07938,-0.012817,4.9e-12,1.4786e-20,14.35,-3.2354,0.1169,12.494,0.022046,0.0058555,-8.738e-23,1,55.778,106.58,0,0
4.2169,12.466,-3.3029,0.079579,-0.012822,5e-12,-2.8028e-20,14.379,-3.3029,0.079579,12.466,0.022052,0.0059156,-2.4077e-22,1,55.88,106.68,0,0
4.3228,12.437,-3.4007,0.079722,-0.012791,4.9e-12,-3.9765e-21,14.425,-3.4007,0.079722,12.437,0.022059,0.0059758,-2.6707e-22,1,55.982,106.78,0,0
4.4286,12.408,-3.4984,0.079866,-0.012759,4.8e-12,-1.6867e-20,14.471,-3.4984,0.079866,12.408,0.022065,0.0060359,8.4434e-23,1,56.083,106.88,0,0
4.5345,12.379,-3.5962,0.08001,-0.012728,4.7e-12,-1.8845e-20,14.517,-3.5962,0.08001,12.379,0.022072,0.0060961,5.3327e-22,1,56.185,106.98,0,0
4.6403,12.35,-3.694,0.080153,-0.012697,4.6e-12,1.8216e-20,14.563,-3.694,0.080153,12.35,0.022078,0.0061563,-1.5188e-23,1,56.286,107.09,0,0
4.7461,12.321,-3.7917,0.080297,-0.012665,4.5e-12,-7.5705e-21,14.61,-3.7918,0.080297,12.321,0.022085,0.0062164,-6.0358e-23,1,56.388,107.19,0,0
4.852,12.292,-3.8895,0.080441,-0.012634,4.4e-12,1.4008e-20,14.656,-3.8895,0.080441,12.292,0.022091,0.0062766,5.6155e-23,1,56.49,107.29,0,0
4.9578,12.263,-3.9873,0.080584,-0.012603,4.3e-12,3.0338e-20,14.702,-3.9873,0.080584,12.263,0.022098,0.0063367,1.1087e-21,1,56.591,107.39,0,0
5.0637,12.234,-4.085,0.080728,-0.012571,4.2e-12,1.2758e-20,14.748,-4.0851,0.080728,12.234,0.022104,0.0063969,-3.5727e-22,1,56.693,107.49,0,0
5.1695,12.205,-4.1828,0.080872,-0.01254,4.1e-12,-9.3136e-21,14.794,-4.1828,0.080872,12.205,0.022111,0.006457,4.5907e-22,1,56.794,107.59,0,0
5.2753,12.176,-4.2806,0.081015,-0.012508,4e-12,-9.8437e-21,14.84,-4.2806,0.081015,12.176,0.022117,0.0065172,1.8049e-22,1,56.896,107.7,0,0
5.3812,12.147,-4.3784,0.081159,-0.012477,3.9e-12,-6.8395e-21,14.887,-4.3784,0.081159,12.147,0.022124,0.0065774,-1.7508e-22,1,56.998,107.8,0,0
5.487,12.118,-4.4761,0.081303,-0.012446,3.8e-12,-1.3636e-21,14.933,-4.4761,0.081303,12.118,0.02213,0.0066375,2.526e-22,1,57.099,107.9,0,0
5.5929,12.089,-4.5739,0.081446,-0.012414,3.7e-12,-8.0275e-21,14.979,-4.5739,0.081446,12.089,0.022137,0.0066977,5.2499e-22,1,57.201,108,0,0
5.6987,12.06,-4.6717,0.08159,-0.012383,3.6e-12,3.31e-20,15.025,-4.6717,0.08159,12.06,0.022143,0.0067578,-2.4237e-22,1,57.302,108.1,0,0
5.8045,12.031,-4.7694,0.081734,-0.012352,3.5e-12,5.7726e-21,15.071,-4.7694,0.081734,12.031,0.02215,0.006818,8.4728e-23,1,57.404,108.2,0,0
5.9104,12.002,-4.8672,0.081877,-0.01232,3.4e-12,3.0915e-20,15.117,-4.8672,0.081877,12.002,0.022156,0.0068782,4.1234e-22,1,57.506,108.31,0,0
6.0162,11.973,-4.965,0.082021,-0.012289,3.3e-12,-2.1264e-20,15.164,-4.965,0.082021,11.973,0.022163,0.0069383,8.1228e-22,1,57.607,108.41,0,0
6.122,11.944,-5.0627,0.082165,-0.012258,3.2e-12,1.3369e-20,15.21,-5.0627,0.082165,11.944,0.022169,0.0069985,1.7197e-22,1,57.709,108.51,0,0
6.2279,11.915,-5.1605,0.082308,-0.012226,3.1e-12,-8.3182e-23,15.256,-5.1605,0.082308,11.915,0.022176,0.0070586,5.5809e-22,1,57.81,108.61,0,0
6.3337,11.886,-5.2583,0.082452,-0.012195,3e-12,9.0484e-22,15.302,-5.2583,0.082452,11.886,0.022182,0.0071188,-1.906e-22,1,57.912,108.71,0,0
6.4396,11.857,-5.356,0.082596,-0.012163,2.9e-12,-1.1799e-20,15.348,-5.3561,0.082596,11.857,0.022189,0.0071789,6.6828e-23,1,58.014,108.81,0,0
6.5454,11.828,-5.4538,0.082739,-0.012132,2.8e-12,1.4381e-21,15.394,-5.4538,0.082739,11.828,0.022195,0.0072391,8.4251e-23,1,58.115,108.92,0,0
6.6512,11.799,-5.5516,0.082883,-0.012101,2.7e-12,-1.4613e-20,15.44,-5.5516,0.082883,11.799,0.022202,0.0072993,-6.9173e-24,1,58.217,109.02,0,0
6.7571,11.77,-5.6494,0.083027,-0.012069,2.6e-12,-2.031e-20,15.487,-5.6494,0.083027,11.77,0.022208,0.0073594,1.3758e-22,1,58.318,109.12,0,0
6.8629,11.741,-5.7471,0.08317,-0.012038,2.5e-12,-3.1144e-21,15.533,-5.7471,0.08317,11.741,0.022215,0.0074196,1.2192e-22,1,58.42,109.22,0,0
6.9688,11.712,-5.8449,0.083314,-0.012007,2.4e-12,-4.691e-21,15.579,-5.8449,0.083314,11.712,0.022221,0.0074797,-1.3099e-22,1,58.522,109.32,0,0
7.0746,11.683,-5.9427,0.083458,-0.011975,2.3e-12,1.4613e-20,15.625,-5.9427,0.083458,11.683,0.022228,0.0075399,-6.19e-23,1,58.623,109.42,0,0
7.1804,11.654,-6.0404,0.083601,-0.011944,2.2e-12,-4.1449e-22,15.671,-6.0404,0.083601,11.654,0.022235,0.0076001,1.4834e-22,1,58.725,109.52,0,0
7.2863,11.625,-6.1382,0.083745,-0.011912,2.1e-12,4.4098e-20,15.717,-6.1382,0.083745,11.625,0.022241,0.0076602,1.0611e-21,1,58.826,109.63,0,0
7.3921,11.596,-6.236,0.083888,-0.011881,2e-12,-3.3586e-20,15.764,-6.236,0.083888,11.596,0.022248,0.0077204,1.0707e-22,1,58.928,109.73,0,0
7.498,11.567,-6.3337,0.084032,-0.01185,1.9e-12,5.0289e-21,15.81,-6.3338,0.084032,11.567,0.022254,0.0077805,-1.2953e-22,1,59.03,109.83,0,0
7.6038,11.538,-6.4315,0.084176,-0.011818,1.8e-12,5.3457e-21,15.856,-6.4315,0.084176,11.538,0.022261,0.0078407,1.5194e-23,1,59.131,109.93,0,0
7.7096,11.509,-6.5293,0.084319,-0.011787,1.7e-12,-2.0066e-20,15.902,-6.5293,0.084319,11.509,0.022267,0.0079008,4.8021e-23,1,59.233,110.03,0,0
7.8155,11.48,-6.6271,0.084463,-0.011756,1.6e-12,-3.1526e-20,15.948,-6.6271,0.084463,11.48,0.022274,0.007961,1.1206e-22,1,59.334,110.13,0,0
7.9213,11.451,-6.7248,0.084607,-0.011724,1.5e-12,1.0645e-20,15.994,-6.7248,0.084607,11.451,0.02228,0.0080212,7.7495e-22,1,59.436,110.24,0,0
8.0272,11.422,-6.8226,0.08475,-0.011693,1.4e-12,-1.6495e-20,16.041,-6.8226,0.08475,11.422,0.022287,0.0080813,-1.4747e-22,1,59.538,110.34,0,0
8.133,11.393,-6.9204,0.084894,-0.011662,1.3e-12,8.058e-21,16.087,-6.9204,0.084894,11.393,0.022293,0.0081415,3.2094e-23,1,59.639,110.44,0,0
8.2388,11.364,-7.0181,0.085038,-0.01163,1.2e-12,2.0234e-21,16.133,-7.0181,0.085038,11.364,0.0223,0.0082016,-2.3323e-22,1,59.741,110.54,0,0
8.3447,11.335,-7.1159,0.085181,-0.011599,1.1e-12,-8.4545e-21,16.179,-7.1159,0.085181,11.335,0.022306,0.0082618,-1.5993e-22,1,59.842,110.64,0,0
8.4505,11.306,-7.2137,0.085325,-0.011567,1e-12,2.7717e-21,16.225,-7.2137,0.085325,11.306,0.022313,0.008322,-2.2296e-23,1,59.944,110.74,0,0
8.5563,11.277,-7.3114,0.085469,-0.011536,9.0001e-13,-1.0758e-20,16.271,-7.3114,0.085469,11.277,0.022319,0.0083821,-2.6038e-23,1,60.046,110.85,0,0
8.6622,11.248,-7.4092,0.085612,-0.011505,8e-13,1.3887e-20,16.318,-7.4092,0.085612,11.248,0.022326,0.0084423,2.6107e-22,1,60.147,110.95,0,0
8.768,11.219,-7.507,0.085756,-0.011473,7e-13,3.174e-21,16.364,-7.507,0.085756,11.219,0.022332,0.0085024,7.4593e-24,1,60.249,111.05,0,0
8.8739,11.19,-7.6047,0.0859,-0.011442,6e-13,1.037e-20,16.41,-7.6048,0.0859,11.19,0.022339,0.0085626,-2.1012e-22,1,60.35,111.15,0,0
8.9797,11.161,-7.7025,0.086043,-0.011411,5e-13,7.4292e-21,16.456,-7.7025,0.086043,11.161,0.022345,0.0086227,6.0959e-22,1,60.452,111.25,0,0
9.0855,11.132,-7.8003,0.086187,-0.011379,4e-13,-6.5847e-21,16.502,-7.8003,0.086187,11.132,0.022352,0.0086829,-1.3107e-22,1,60.554,111.35,0,0
9.1914,11.103,-7.8981,0.086331,-0.011348,3e-13,-5.5003e-21,16.548,-7.8981,0.086331,11.103,0.022358,0.0087431,5.3409e-23,1,60.655,111.46,0,0
9.2972,11.074,-7.9958,0.086474,-0.011316,2e-13,9.7526e-21,16.595,-7.9958,0.086474,11.074,0.022365,0.0088032,2.614e-22,1,60.757,111.56,0,0
9.4031,11.045,-8.0936,0.086618,-0.011285,1e-13,1.1142e-20,16.641,-8.0936,0.086618,11.045,0.022371,0.0088634,1.5737e-23,1,60.858,111.66,0,0
9.5089,11.016,-8.1914,0.086762,-0.011254,-8.8663e-24,-4.2729e-21,16.687,-8.1914,0.086762,11.016,0.022378,0.0089235,9.0493e-24,1,60.96,111.76,0,0
9.5089,10.987,-8.2832,0.086864,-0.011197,-6.0766e-24,-1.3521e-20,16.741,-8.2832,0.086864,10.987,0.022384,0.0089837,-8.5648e-23,1,61.062,111.86,0,0
9.5089,10.957,-8.375,0.086966,-0.011141,-5.2987e-23,1.2341e-22,16.796,-8.375,0.086966,10.957,0.022391,0.0090439,1.7863e-22,1,61.163,111.96,0,0
9.5089,10.928,-8.4668,0.087068,-0.011085,1.7482e-23,7.6354e-21,16.85,-8.4669,0.087068,10.928,0.022397,0.009104,2.613e-22,1,61.265,112.06,0,0
9.5089,10.898,-8.5587,0.08717,-0.011029,-7.0263e-23,-3.2661e-21,16.905,-8.5587,0.08717,10.898,0.022404,0.0091642,1.6399e-22,1,61.366,112.17,0,0
9.5089,10.869,-8.6505,0.087271,-0.010972,-1.0364e-22,-1.3124e-20,16.959,-8.6505,0.087271,10.869,0.02241,0.0092244,1.4456e-24,1,61.468,112.27,0,0
9.5089,10.84,-8.7423,0.087373,-0.010916,-1.7321e-23,4.1568e-21,17.014,-8.7423,0.087373,10.84,0.022417,0.0092846,5.4732e-23,1,61.57,112.37,0,0
9.5089,10.81,-8.8342,0.087475,-0.01086,1.7556e-23,-1.8497e-20,17.068,-8.8342,0.087475,10.81,0.022423,0.0093447,1.823e-22,1,61.671,112.47,0,0
9.5089,10.781,-8.926,0.087577,-0.010804,-8.8963e-23,-1.4325e-20,17.123,-8.926,0.087577,10.781,0.02243,0.0094049,5.2741e-24,1,61.773,112.57,0,0
9.5089,10.751,-9.0178,0.087679,-0.010747,-8.0976e-23,-8.0424e-21,17.177,-9.0178,0.087679,10.751,0.022436,0.0094651,7.2098e-23,1,61.874,112.67,0,0
9.5089,10.722,-9.1096,0.087781,-0.010691,-1.2434e-22,6.1325e-21,17.232,-9.1096,0.087781,10.722,0.022443,0.0095252,3.2134e-23,1,61.976,112.78,0,0
9.5089,10.692,-9.2015,0.087883,-0.010635,-2.7731e-22,1.0334e-22,17.286,-9.2015,0.087883,10.692,0.022449,0.0095854,2.2384e-22,1,62.078,112.88,0,0
9.5089,10.663,-9.2933,0.087985,-0.010578,1.4477e-22,6.764e-21,17.341,-9.2933,0.087985,10.663,0.022456,0.0096456,-7.2237e-23,1,62.179,112.98,0,0
9.5089,10.633,-9.3851,0.088087,-0.010522,8.1257e-23,1.8354e-20,17.395,-9.3851,0.088087,10.633,0.022462,0.0097057,6.6442e-23,1,62.281,113.08,0,0
9.5089,10.604,-9.4769,0.088189,-0.010466,2.2024e-22,-1.354e-20,17.45,-9.477,0.088189,10.604,0.022469,0.0097659,-2.4895e-23,1,62.382,113.18,0,0
9.5089,10.575,-9.5688,0.088291,-0.01041,1.2766e-22,-3.3363e-20,17.504,-9.5688,0.088291,10.575,0.022475,0.0098261,-3.3041e-23,1,62.484,113.28,0,0
9.5089,10.545,-9.6606,0.088393,-0.010353,-2.33e-23,1.4225e-20,17.559,-9.6606,0.088393,10.545,0.022482,0.0098862,-4.0841e-23,1,62.586,113.39,0,0
9.5089,10.516,-9.7524,0.088495,-0.010297,-1.482e-23,1.8554e-21,17.613,-9.7524,0.088495,10.516,0.022488,0.0099464,6.1557e-23,1,62.687,113.49,0,0
9.5089,10.486,-9.8442,0.088597,-0.010241,9.4088e-25,9.8771e-21,17.668,-9.8443,0.088597,10.486,0.022495,0.010007,-6.9547e-23,1,62.789,113.59,0,0
9.5089,10.457,-9.9361,0.088699,-0.010185,8.5268e-23,-2.366e-20,17.722,-9.9361,0.088699,10.457,0.022501,0.010067,-3.5845e-23,1,62.89,113.69,0,0
9.5089,10.427,-10.028,0.088801,-0.010128,-2.2828e-22,4.2587e-20,17.777,-10.028,0.088801,10.427,0.022508,0.010127,1.383e-22,1,62.992,113.79,0,0
9.5089,10.398,-10.12,0.088903,-0.010072,7.7828e-23,4.374e-21,17.831,-10.12,0.088903,10.398,0.022514,0.010187,5.8435e-24,1,63.094,113.89,0,0
9.5089,10.369,-10.212,0.089005,-0.010016,-9.48e-23,2.3378e-20,17.886,-10.212,0.089005,10.369,0.022521,0.010247,-3.2374e-23,1,63.195,114,0,0
9.5089,10.339,-10.303,0.089107,-0.0099595,6.2916e-23,-9.771e-21,17.94,-10.303,0.089107,10.339,0.022527,0.010307,1.7975e-24,1,63.297,114.1,0,0
9.5089,10.31,-10.395,0.089209,-0.0099032,-1.2061e-22,-1.1506e-21,17.995,-10.395,0.089209,10.31,0.022534,0.010368,-1.8537e-23,1,63.398,114.2,0,0
9.5089,10.28,-10.487,0.089311,-0.0098469,-4.6528e-23,7.6342e-21,18.049,-10.487,0.089311,10.28,0.02254,0.010428,9.8201e-23,1,63.5,114.3,0,0
9.5089,10.251,-10.579,0.089413,-0.0097907,4.5608e-23,1.5658e-20,18.104,-10.579,0.089413,10.251,0.022547,0.010488,1.2086e-22,1,63.602,114.4,0,0
9.5089,10.221,-10.671,0.089515,-0.0097344,4.258e-24,-2.346e-20,18.158,-10.671,0.089515,10.221,0.022553,0.010548,8.2207e-23,1,63.703,114.5,0,0
9.5089,10.192,-10.763,0.089617,-0.0096781,1.8326e-23,-6.2592e-21,18.213,-10.763,0.089617,10.192,0.02256,0.010608,-1.4451e-22,1,63.805,114.6,0,0
9.5089,10.163,-10.854,0.089718,-0.0096219,-4.247e-23,2.0926e-20,18.267,-10.854,0.089718,10.163,0.022566,0.010668,-9.4949e-23,1,63.906,114.71,0,0
9.5089,10.133,-10.946,0.08982,-0.0095656,7.016e-24,-1.0593e-20,18.322,-10.946,0.08982,10.133,0.022573,0.010729,-2.0872e-22,1,64.008,114.81,0,0
9.5089,10.104,-11.038,0.089922,-0.0095093,1.4177e-22,-6.8719e-21,18.376,-11.038,0.089922,10.104,0.022579,0.010789,-7.7603e-23,1,64.11,114.91,0,0
9.5089,10.074,-11.13,0.090024,-0.009453,-8.516e-23,1.7618e-20,18.431,-11.13,0.090024,10.074,0.022586,0.010849,7.2138e-23,1,64.211,115.01,0,0
9.5089,10.045,-11.222,0.090126,-0.0093968,-6.0352e-23,2.1303e-20,18.485,-11.222,0.090126,10.045,0.022592,0.010909,1.505e-23,1,64.313,115.11,0,0
9.5089,10.015,-11.313,0.090228,-0.0093405,-1.5847e-23,1.6823e-20,18.54,-11.313,0.090228,10.015,0.022599,0.010969,-5.001e-23,1,64.414,115.21,0,0
9.5089,9.986,-11.405,0.09033,-0.0092842,2.9632e-23,3.2666e-21,18.594,-11.405,0.09033,9.986,0.022605,0.011029,7.6603e-23,1,64.516,115.32,0,0
9.5089,9.9565,-11.497,0.090432,-0.009228,-1.5283e-22,6.8336e-21,18.649,-11.497,0.090432,9.9565,0.022612,0.01109,-3.9949e-23,1,64.618,115.42,0,0
9.5089,9.9271,-11.589,0.090534,-0.0091717,5.6419e-23,1.3068e-20,18.703,-11.589,0.090534,9.9271,0.022618,0.01115,-1.9845e-22,1,64.719,115.52,0,0
9.5089,9.8977,-11.681,0.090636,-0.0091154,-3.3439e-23,2.4581e-21,18.758,-11.681,0.090636,9.8977,0.022625,0.01121,-3.9018e-24,1,64.821,115.62,0,0
9.5089,9.8682,-11.773,0.090738,-0.0090591,-3.6435e-22,1.1303e-20,18.812,-11.773,0.090738,9.8682,0.022631,0.01127,1.4247e-22,1,64.922,115.72,0,0
9.5089,9.8388,-11.864,0.09084,-0.0090029,-1.2936e-22,6.5719e-21,18.867,-11.864,0.09084,9.8388,0.022638,0.01133,8.2078e-24,1,65.024,115.82,0,0
9.5089,9.8094,-11.956,0.090942,-0.0089466,4.503e-22,1.4478e-20,18.921,-11.956,0.090942,9.8094,0.022644,0.01139,9.4071e-24,1,65.126,115.93,0,0
9.5089,9.7799,-12.048,0.091044,-0.0088903,-3.274e-22,3.4134e-20,18.976,-12.048,0.091044,9.7799,0.022651,0.011451,1.394e-22,1,65.227,116.03,0,0
9.5089,9.7505,-12.14,0.091146,-0.0088341,-1.3957e-22,1.0446e-20,19.03,-12.14,0.091146,9.7505,0.022657,0.011511,-3.1236e-23,1,65.329,116.13,0,0
9.5089,9.7211,-12.232,0.091248,-0.0087778,-4.9949e-23,-3.2584e-21,19.085,-12.232,0.091248,9.7211,0.022664,0.011571,3.394e-22,1,65.43,116.23,0,0
9.5089,9.6916,-12.324,0.09135,-0.0087215,-6.1993e-23,-7.8574e-21,19.139,-12.324,0.09135,9.6916,0.02267,0.011631,1.8813e-22,1,65.532,116.33,0,0
9.5089,9.6622,-12.415,0.091452,-0.0086652,-1.7766e-22,-4.226e-21,19.193,-12.415,0.091452,9.6622,0.022677,0.011691,-6.5161e-23,1,65.634,116.43,0,0
9.5089,9.6328,-12.507,0.091554,-0.008609,2.6081e-23,6.7632e-21,19.248,-12.507,0.091554,9.6328,0.022683,0.011751,2.1193e-22,1,65.735,116.54,0,0
9.5089,9.6033,-12.599,0.091656,-0.0085527,1.2672e-22,-2.8638e-21,19.302,-12.599,0.091656,9.6033,0.02269,0.011812,-4.151e-23,1,65.837,116.64,0,0
9.5089,9.5739,-12.691,0.091758,-0.0084964,1.2673e-22,-6.8684e-21,19.357,-12.691,0.091758,9.5739,0.022696,0.011872,-1.916e-22,1,65.938,116.74,0,0
9.5089,9.5445,-12.783,0.09186,-0.0084402,-1.0879e-22,-7.744e-21,19.411,-12.783,0.09186,9.5445,0.022703,0.011932,1.66e-22,1,66.04,116.84,0,0
9.4104,9.5149,-12.87,0.09193,-0.0083723,-1.6332e-22,-4.5858e-21,19.469,-12.87,0.09193,9.5149,0.022709,0.011992,6.8203e-23,1,66.142,116.94,0,0
9.3119,9.4854,-12.956,0.092,-0.0083044,3.0217e-22,1.1762e-21,19.527,-12.956,0.092,9.4854,0.022715,0.012052,2.3282e-23,1,66.243,117.04,0,0
9.2134,9.4558,-13.043,0.09207,-0.0082366,1.3125e-22,-9.6969e-21,19.585,-13.043,0.09207,9.4558,0.022722,0.012113,2.6281e-22,1,66.345,117.14,0,0
9.1149,9.4263,-13.13,0.09214,-0.0081687,2.4037e-22,-1.2819e-20,19.643,-13.13,0.09214,9.4263,0.022728,0.012173,4.9497e-22,1,66.446,117.25,0,0
9.0164,9.3967,-13.217,0.09221,-0.0081008,1.0482e-22,2.2129e-20,19.701,-13.217,0.09221,9.3967,0.022735,0.012233,-3.522e-22,1,66.548,117.35,0,0
8.9179,9.3671,-13.304,0.09228,-0.008033,1.278e-22,-2.1067e-20,19.758,-13.304,0.09228,9.3671,0.022741,0.012293,6.4597e-23,1,66.65,117.45,0,0
8.8194,9.3376,-13.391,0.09235,-0.0079651,-2.125e-22,2.4292e-20,19.816,-13.391,0.09235,9.3376,0.022748,0.012353,-5.6932e-22,1,66.751,117.55,0,0
8.7209,9.308,-13.478,0.09242,-0.0078973,9.8782e-23,8.1162e-21,19.874,-13.478,0.09242,9.308,0.022754,0.012413,1.9661e-22,1,66.853,117.65,0,0
8.6224,9.2785,-13.565,0.09249,-0.0078294,1.3319e-23,1.0715e-20,19.932,-13.565,0.09249,9.2785,0.02276,0.012474,4.9045e-23,1,66.954,117.75,0,0
8.5239,9.2489,-13.651,0.09256,-0.0077615,-3.3498e-23,-1.2962e-20,19.99,-13.651,0.09256,9.2489,0.022767,0.012534,1.6936e-22,1,67.056,117.86,0,0
8.4254,9.2194,-13.738,0.09263,-0.0076937,-3.4601e-22,-2.9288e-21,20.047,-13.738,0.09263,9.2194,0.022773,0.012594,3.6314e-22,1,67.158,117.96,0,0
8.3269,9.1898,-13.825,0.0927,-0.0076258,9.851e-23,-1.1161e-20,20.105,-13.825,0.0927,9.1898,0.02278,0.012654,-2.3918e-22,1,67.259,118.06,0,0
8.2284,9.1602,-13.912,0.09277,-0.0075579,-6.058e-22,3.6174e-20,20.163,-13.912,0.09277,9.1602,0.022786,0.012714,-6.9632e-22,1,67.361,118.16,0,0
8.1299,9.1307,-13.999,0.09284,-0.0074901,6.0757e-23,5.8185e-21,20.221,-13.999,0.09284,9.1307,0.022793,0.012775,-1.7686e-22,1,67.462,118.26,0,0
8.0314,9.1011,-14.086,0.09291,-0.0074222,3.1713e-22,5.2074e-21,20.279,-14.086,0.09291,9.1011,0.022799,0.012835,-3.5483e-22,1,67.564,118.36,0,0
7.9329,9.0716,-14.173,0.09298,-0.0073544,-2.8131e-23,-2.0853e-20,20.337,-14.173,0.09298,9.0716,0.022805,0.012895,-1.5078e-22,1,67.666,118.47,0,0
7.8344,9.042,-14.259,0.093051,-0.0072865,-1.0632e-22,1.1971e-21,20.394,-14.259,0.093051,9.042,0.022812,0.012955,-1.7864e-22,1,67.767,118.57,0,0
7.7359,9.0125,-14.346,0.093121,-0.0072186,-1.0615e-22,9.3942e-21,20.452,-14.346,0.093121,9.0125,0.022818,0.013015,2.1884e-22,1,67.869,118.67,0,0
7.6374,8.9829,-14.433,0.093191,-0.0071508,-4.267e-22,3.6647e-20,20.51,-14.433,0.093191,8.9829,0.022825,0.013075,-8.4152e-22,1,67.97,118.77,0,0
7.5389,8.9533,-14.52,0.093261,-0.0070829,4.4013e-22,7.446e-21,20.568,-14.52,0.093261,8.9533,0.022831,0.013136,2.6345e-22,1,68.072,118.87,0,0
7.4404,8.9238,-14.607,0.093331,-0.007015,1.9214e-22,8.9171e-21,20.626,-14.607,0.093331,8.9238,0.022838,0.013196,3.8129e-22,1,68.174,118.97,0,0
7.3419,8.8942,-14.694,0.093401,-0.0069472,-8.3374e-23,-3.4442e-20,20.683,-14.694,0.093401,8.8942,0.022844,0.013256,1.7186e-22,1,68.275,119.08,0,0
7.2434,8.8647,-14.781,0.093471,-0.0068793,6.6949e-23,1.1934e-20,20.741,-14.781,0.093471,8.8647,0.02285,0.013316,7.1913e-22,1,68.377,119.18,0,0
7.1449,8.8351,-14.868,0.093541,-0.0068115,3.7787e-22,7.6769e-21,20.799,-14.868,0.093541,8.8351,0.022857,0.013376,6.716e-22,1,68.478,119.28,0,0
7.0464,8.8056,-14.954,0.093611,-0.0067436,-2.3075e-22,-2.6869e-20,20.857,-14.954,0.093611,8.8056,0.022863,0.013437,4.7568e-22,1,68.58,119.38,0,0
6.9479,8.776,-15.041,0.093681,-0.0066757,1.0759e-22,-2.8751e-20,20.915,-15.041,0.093681,8.776,0.02287,0.013497,-3.664e-22,1,68.682,119.48,0,0
6.8494,8.7464,-15.128,0.093751,-0.0066079,-5.4239e-23,1.0864e-21,20.973,-15.128,0.093751,8.7464,0.022876,0.013557,-3.4461e-22,1,68.783,119.58,0,0
6.7509,8.7169,-15.215,0.093821,-0.00654,-2.5623e-22,4.8146e-20,21.03,-15.215,0.093821,8.7169,0.022883,0.013617,-9.1289e-22,1,68.885,119.68,0,0
6.6524,8.6873,-15.302,0.093891,-0.0064721,-3.7056e-23,3.0659e-21,21.088,-15.302,0.093891,8.6873,0.022889,0.013677,2.8705e-22,1,68.986,119.79,0,0
6.5539,8.6578,-15.389,0.093961,-0.0064043,-2.0462e-22,1.3988e-20,21.146,-15.389,0.093961,8.6578,0.022895,0.013737,1.0846e-22,1,69.088,119.89,0,0
6.4554,8.6282,-15.476,0.094031,-0.0063364,-2.95e-22,2.5768e-20,21.204,-15.476,0.094031,8.6282,0.022902,0.013798,6.3854e-23,1,69.19,119.99,0,0
6.3569,8.5987,-15.562,0.094101,-0.0062685,1.5705e-22,-3.1825e-21,21.262,-15.562,0.094101,8.5987,0.022908,0.013858,-4.5122e-22,1,69.291,120.09,0,0
6.2584,8.5691,-15.649,0.094171,-0.0062007,-7.6017e-23,7.5234e-21,21.319,-15.649,0.094171,8.5691,0.022915,0.013918,-3.4652e-22,1,69.393,120.19,0,0
6.1599,8.5395,-15.736,0.094241,-0.0061328,-5.2639e-22,2.751e-21,21.377,-15.736,0.094241,8.5395,0.022921,0.013978,1.9823e-22,1,69.494,120.29,0,0
6.0614,8.51,-15.823,0.094311,-0.006065,1.2206e-22,-1.8421e-20,21.435,-15.823,0.094311,8.51,0.022928,0.014038,1.5691e-22,1,69.596,120.4,0,0
5.963,8.4804,-15.91,0.094382,-0.0059971,-2.0988e-22,-6.9178e-21,21.493,-15.91,0.094382,8.4804,0.022934,0.014098,-1.8477e-22,1,69.698,120.5,0,0
5.8645,8.4509,-15.997,0.094452,-0.0059292,2.2581e-22,1.7647e-20,21.551,-15.997,0.094452,8.4509,0.02294,0.014159,6.027e-22,1,69.799,120.6,0,0
5.766,8.4213,-16.084,0.094522,-0.0058614,-2.1288e-22,-1.7592e-20,21.609,-16.084,0.094522,8.4213,0.022947,0.014219,-5.7663e-22,1,69.901,120.7,0,0
5.6675,8.3918,-16.171,0.094592,-0.0057935,2.1874e-22,-5.1225e-21,21.666,-16.171,0.094592,8.3918,0.022953,0.014279,3.3572e-22,1,70.002,120.8,0,0
5.569,8.3622,-16.257,0.094662,-0.0057256,-1.2149e-22,-2.7167e-20,21.724,-16.257,0.094662,8.3622,0.02296,0.014339,-2.245e-22,1,70.104,120.9,0,0
5.4705,8.3326,-16.344,0.094732,-0.0056578,9.0116e-23,3.7346e-20,21.782,-16.344,0.094732,8.3326,0.022966,0.014399,-7.3873e-22,1,70.206,121.01,0,0
5.372,8.3031,-16.431,0.094802,-0.0055899,-3.626e-22,-2.2213e-21,21.84,-16.431,0.094802,8.3031,0.022972,0.01446,-5.3487e-22,1,70.307,121.11,0,0
5.2735,8.2735,-16.518,0.094872,-0.0055221,-1.5347e-22,-1.1239e-20,21.898,-16.518,0.094872,8.2735,0.022979,0.01452,-6.3429e-22,1,70.409,121.21,0,0
5.175,8.244,-16.605,0.094942,-0.0054542,-7.2663e-23,9.3983e-21,21.955,-16.605,0.094942,8.244,0.022985,0.01458,-3.6371e-22,1,70.51,121.31,0,0
5.0765,8.2144,-16.692,0.095012,-0.0053863,-6.2107e-23,4.5897e-21,22.013,-16.692,0.095012,8.2144,0.022992,0.01464,1.0368e-22,1,70.612,121.41,0,0
4.978,8.1849,-16.779,0.095082,-0.0053185,3.6102e-22,5.5201e-22,22.071,-16.779,0.095082,8.1849,0.022998,0.0147,5.953e-22,1,70.714,121.51,0,0
4.8795,8.1553,-16.865,0.095152,-0.0052506,7.0457e-22,-8.1108e-21,22.129,-16.865,0.095152,8.1553,0.023005,0.01476,-3.4792e-22,1,70.815,121.62,0,0
4.781,8.1257,-16.952,0.095222,-0.0051827,7.2395e-24,1.382e-20,22.187,-16.952,0.095222,8.1257,0.023011,0.014821,5.1858e-22,1,70.917,121.72,0,0
4.6825,8.0962,-17.039,0.095292,-0.0051149,3.3122e-22,6.7705e-21,22.245,-17.039,0.095292,8.0962,0.023017,0.014881,4.7945e-23,1,71.018,121.82,0,0
4.584,8.0666,-17.126,0.095362,-0.005047,-9.2774e-22,-6.0438e-21,22.302,-17.126,0.095362,8.0666,0.023024,0.014941,-3.227e-22,1,71.12,121.92,0,0
4.5616,8.0372,-17.209,0.095408,-0.0049811,-8.3715e-22,5.6058e-21,22.361,-17.209,0.095408,8.0372,0.02303,0.015001,-4.9936e-22,1,71.222,122.02,0,0
4.5393,8.0077,-17.291,0.095454,-0.0049152,-2.7459e-22,1.4598e-20,22.42,-17.291,0.095454,8.0077,0.023037,0.015061,3.6929e-22,1,71.323,122.12,0,0
4.5169,7.9782,-17.374,0.0955,-0.0048493,9.6263e-22,1.7791e-20,22.479,-17.374,0.0955,7.9782,0.023043,0.015122,-1.0203e-22,1,71.425,122.22,0,0
4.4946,7.9488,-17.457,0.095546,-0.0047834,5.8902e-22,1.0561e-20,22.537,-17.457,0.095546,7.9488,0.023049,0.015182,-4.3351e-22,1,71.526,122.33,0,0
4.4722,7.9193,-17.54,0.095591,-0.0047175,-3.3117e-22,-4.0901e-21,22.596,-17.54,0.095591,7.9193,0.023056,0.015242,3.2585e-22,1,71.628,122.43,0,0
4.4499,7.8898,-17.622,0.095637,-0.0046516,7.2342e-22,-8.7571e-21,22.655,-17.622,0.095637,7.8898,0.023062,0.015302,-1.0176e-22,1,71.73,122.53,0,0
4.4275,7.8604,-17.705,0.095683,-0.0045857,-8.1843e-22,-1.2765e-21,22.714,-17.705,0.095683,7.8604,0.023068,0.015362,4.5332e-22,1,71.831,122.63,0,0
4.4052,7.8309,-17.788,0.095729,-0.0045198,-3.6811e-22,-1.5038e-21,22.773,-17.788,0.095729,7.8309,0.023074,0.015422,-7.3898e-23,1,71.933,122.73,0,0
4.3828,7.8014,-17.87,0.095775,-0.0044539,1.8785e-22,1.6626e-20,22.831,-17.87,0.095775,7.8014,0.023081,0.015483,6.3443e-23,1,72.034,122.83,0,0
4.3605,7.772,-17.953,0.095821,-0.004388,-1.0999e-21,4.0761e-21,22.89,-17.953,0.095821,7.772,0.023087,0.015543,-1.439e-22,1,72.136,122.94,0,0
4.3381,7.7425,-18.036,0.095866,-0.0043221,-7.0399e-22,1.4062e-20,22.949,-18.036,0.095866,7.7425,0.023093,0.015603,-2.0342e-24,1,72.238,123.04,0,0
4.3158,7.713,-18.118,0.095912,-0.0042562,-6.5676e-23,-1.8997e-20,23.008,-18.118,0.095912,7.713,0.0231,0.015663,-5.1505e-22,1,72.339,123.14,0,0
4.2934,7.6835,-18.201,0.095958,-0.0041903,-4.1341e-22,1.5508e-20,23.066,-18.201,0.095958,7.6835,0.023106,0.015723,-1.8395e-21,1,72.441,123.24,0,0
4.2711,7.6541,-18.284,0.096004,-0.0041244,-2.2145e-22,4.5715e-21,23.125,-18.284,0.096004,7.6541,0.023112,0.015784,1.0373e-22,1,72.542,123.34,0,0
4.2487,7.6246,-18.367,0.09605,-0.0040585,-2.9216e-22,-1.2342e-20,23.184,-18.367,0.09605,7.6246,0.023119,0.015844,7.696e-23,1,72.644,123.44,0,0
4.2264,7.5951,-18.449,0.096096,-0.0039926,5.564e-23,2.4565e-20,23.243,-18.449,0.096096,7.5951,0.023125,0.015904,-3.8077e-22,1,72.746,123.55,0,0
4.2041,7.5657,-18.532,0.096141,-0.0039267,4.456e-22,5.6871e-21,23.302,-18.532,0.096141,7.5657,0.023131,0.015964,-1.5341e-22,1,72.847,123.65,0,0
4.1817,7.5362,-18.615,0.096187,-0.0038608,5.026e-22,4.3823e-21,23.36,-18.615,0.096187,7.5362,0.023138,0.016024,-2.4198e-22,1,72.949,123.75,0,0
4.1594,7.5067,-18.697,0.096233,-0.0037949,2.7625e-22,-2.7961e-20,23.419,-18.697,0.096233,7.5067,0.023144,0.016085,4.7058e-22,1,73.05,123.85,0,0
4.137,7.4773,-18.78,0.096279,-0.003729,4.527e-22,-1.12e-20,23.478,-18.78,0.096279,7.4773,0.02315,0.016145,5.6075e-22,1,73.152,123.95,0,0
4.1147,7.4478,-18.863,0.096325,-0.0036631,-3.4192e-22,1.258e-20,23.537,-18.863,0.096325,7.4478,0.023157,0.016205,-1.0278e-21,1,73.254,124.05,0,0
4.0923,7.4183,-18.945,0.096371,-0.0035972,7.8624e-22,2.0344e-21,23.595,-18.945,0.096371,7.4183,0.023163,0.016265,-1.0289e-22,1,73.355,124.16,0,0
4.07,7.3889,-19.028,0.096416,-0.0035313,3.595e-22,9.9903e-21,23.654,-19.028,0.096416,7.3889,0.023169,0.016325,-2.5632e-22,1,73.457,124.26,0,0
4.0476,7.3594,-19.111,0.096462,-0.0034654,1.2761e-22,2.1737e-20,23.713,-19.111,0.096462,7.3594,0.023176,0.016385,5.5008e-23,1,73.558,124.36,0,0
4.0253,7.3299,-19.193,0.096508,-0.0033995,-2.7603e-22,2.2382e-21,23.772,-19.193,0.096508,7.3299,0.023182,0.016446,-1.6645e-22,1,73.66,124.46,0,0
4.0029,7.3005,-19.276,0.096554,-0.0033336,5.3708e-23,4.5541e-21,23.831,-19.276,0.096554,7.3005,0.023188,0.016506,6.2337e-22,1,73.762,124.56,0,0
3.9806,7.271,-19.359,0.0966,-0.0032677,7.5261e-22,1.3985e-20,23.889,-19.359,0.0966,7.271,0.023195,0.016566,-2.6614e-22,1,73.863,124.66,0,0
3.9582,7.2415,-19.442,0.096646,-0.0032018,1.0341e-21,2.2833e-21,23.948,-19.442,0.096646,7.2415,0.023201,0.016626,4.0412e-22,1,73.965,124.76,0,0
3.9359,7.2121,-19.524,0.096691,-0.0031359,-3.1067e-22,-3.1691e-20,24.007,-19.524,0.096691,7.2121,0.023207,0.016686,7.9154e-22,1,74.066,124.87,0,0
3.9135,7.1826,-19.607,0.096737,-0.00307,1.6924e-22,-7.7584e-21,24.066,-19.607,0.096737,7.1826,0.023214,0.016747,7.4805e-22,1,74.168,124.97,0,0
3.8912,7.1531,-19.69,0.096783,-0.0030041,4.2027e-22,5.1868e-21,24.124,-19.69,0.096783,7.1531,0.02322,0.016807,9.7312e-22,1,74.27,125.07,0,0
3.8688,7.1237,-19.772,0.096829,-0.0029382,5.0758e-22,-7.5365e-21,24.183,-19.772,0.096829,7.1237,0.023226,0.016867,-1.2215e-21,1,74.371,125.17,0,0
3.8465,7.0942,-19.855,0.096875,-0.0028723,-2.1494e-22,-2.9626e-22,24.242,-19.855,0.096875,7.0942,0.023233,0.016927,2.5878e-22,1,74.473,125.27,0,0
3.8241,7.0647,-19.938,0.096921,-0.0028064,5.8121e-22,1.3554e-20,24.301,-19.938,0.096921,7.0647,0.023239,0.016987,-4.4272e-22,1,74.574,125.37,0,0
3.8018,7.0353,-20.02,0.096966,-0.0027405,5.6913e-22,2.5478e-20,24.359,-20.02,0.096966,7.0353,0.023245,0.017048,-2.3082e-21,1,74.676,125.48,0,0
3.7794,7.0058,-20.103,0.097012,-0.0026746,2.4214e-22,-6.2956e-21,24.418,-20.103,0.097012,7.0058,0.023252,0.017108,4.4624e-22,1,74.778,125.58,0,0
3.7571,6.9763,-20.186,0.097058,-0.0026087,9.4703e-23,-1.5618e-21,24.477,-20.186,0.097058,6.9763,0.023258,0.017168,5.2712e-23,1,74.879,125.68,0,0
3.7347,6.9469,-20.268,0.097104,-0.0025428,-2.2463e-22,-2.0849e-21,24.536,-20.268,0.097104,6.9469,0.023264,0.017228,-2.4497e-22,1,74.981,125.78,0,0
3.7124,6.9174,-20.351,0.09715,-0.0024769,-1.0661e-21,-3.6073e-20,24.595,-20.351,0.09715,6.9174,0.023271,0.017288,1.1035e-21,1,75.082,125.88,0,0
3.69,6.8879,-20.434,0.097196,-0.002411,-2.3792e-22,-9.7573e-21,24.653,-20.434,0.097196,6.8879,0.023277,0.017348,-1.9746e-21,1,75.184,125.98,0,0
3.6677,6.8584,-20.517,0.097241,-0.0023451,-6.291e-22,-5.5495e-21,24.712,-20.517,0.097241,6.8584,0.023283,0.017409,-1.1516e-21,1,75.286,126.09,0,0
3.6453,6.829,-20.599,0.097287,-0.0022792,-4.55e-23,1.6116e-20,24.771,-20.599,0.097287,6.829,0.02329,0.017469,4.1834e-23,1,75.387,126.19,0,0
3.623,6.7995,-20.682,0.097333,-0.0022133,3.2003e-22,-1.3613e-20,24.83,-20.682,0.097333,6.7995,0.023296,0.017529,6.1673e-22,1,75.489,126.29,0,0
3.6006,6.77,-20.765,0.097379,-0.0021474,-7.2423e-22,-9.5273e-22,24.888,-20.765,0.097379,6.77,0.023302,0.017589,-1.2625e-21,1,75.59,126.39,0,0
3.5783,6.7406,-20.847,0.097425,-0.0020815,2.9461e-22,-2.2611e-20,24.947,-20.847,0.097425,6.7406,0.023308,0.017649,4.5102e-22,1,75.692,126.49,0,0
3.556,6.7111,-20.93,0.097471,-0.0020156,-3.7437e-22,3.7874e-21,25.006,-20.93,0.097471,6.7111,0.023315,0.01771,1.2828e-23,1,75.794,126.59,0,0
3.5336,6.6816,-21.013,0.097516,-0.0019497,-9.245e-23,1.5129e-20,25.065,-21.013,0.097516,6.6816,0.023321,0.01777,8.6903e-23,1,75.895,126.7,0,0
3.5113,6.6522,-21.095,0.097562,-0.0018838,-4.6945e-23,-1.6763e-20,25.124,-21.095,0.097562,6.6522,0.023327,0.01783,5.3355e-22,1,75.997,126.8,0,0
3.4889,6.6227,-21.178,0.097608,-0.0018179,2.6997e-22,-1.1641e-20,25.182,-21.178,0.097608,6.6227,0.023334,0.01789,-4.8054e-22,1,76.098,126.9,0,0
3.4666,6.5932,-21.261,0.097654,-0.001752,-1.4671e-22,4.5246e-21,25.241,-21.261,0.097654,6.5932,0.02334,0.01795,-5.5466e-22,1,76.2,127,0,0
3.4534,6.564,-21.34,0.097682,-0.0017008,3.7258e-22,5.2682e-21,25.3,-21.34,0.097682,6.564,0.023346,0.01801,-1.3987e-21,1,76.302,127.1,0,0
3.4402,6.5348,-21.419,0.097709,-0.0016495,-5.6078e-22,1.5101e-20,25.358,-21.419,0.097709,6.5348,0.023353,0.018071,-1.2401e-21,1,76.403,127.2,0,0
3.4271,6.5055,-21.498,0.097737,-0.0015983,-1.1348e-22,8.5382e-21,25.417,-21.498,0.097737,6.5055,0.023359,0.018131,-1.2457e-21,1,76.505,127.3,0,0
3.4139,6.4763,-21.577,0.097765,-0.001547,-4.5389e-22,-1.3776e-21,25.476,-21.577,0.097765,6.4763,0.023365,0.018191,6.2397e-22,1,76.606,127.41,0,0
3.4007,6.4471,-21.657,0.097793,-0.0014957,-1.4917e-22,2.1694e-20,25.534,-21.657,0.097793,6.4471,0.023371,0.018251,4.2638e-22,1,76.708,127.51,0,0
3.3876,6.4178,-21.736,0.09782,-0.0014445,-5.944e-22,-2.023e-20,25.593,-21.736,0.09782,6.4178,0.023377,0.018311,1.4378e-21,1,76.81,127.61,0,0
3.3744,6.3886,-21.815,0.097848,-0.0013932,-2.6727e-22,7.5522e-21,25.651,-21.815,0.097848,6.3886,0.023384,0.018372,1.3697e-21,1,76.911,127.71,0,0
3.3612,6.3594,-21.894,0.097876,-0.001342,-2.8239e-22,-1.6593e-20,25.71,-21.894,0.097876,6.3594,0.02339,0.018432,6.4441e-22,1,77.013,127.81,0,0
3.3481,6.3301,-21.973,0.097904,-0.0012907,-3.1332e-22,2.142e-21,25.769,-21.973,0.097904,6.3301,0.023396,0.018492,-8.6711e-22,1,77.114,127.91,0,0
3.3349,6.3009,-22.052,0.097931,-0.0012395,-1.1552e-22,-2.493e-21,25.827,-22.052,0.097931,6.3009,0.023402,0.018552,-6.4885e-22,1,77.216,128.02,0,0
3.3217,6.2716,-22.131,0.097959,-0.0011882,-3.8087e-22,-2.5077e-20,25.886,-22.131,0.097959,6.2716,0.023408,0.018612,1.4952e-21,1,77.318,128.12,0,0
3.3086,6.2424,-22.211,0.097987,-0.0011369,1.9338e-22,2.0377e-20,25.945,-22.211,0.097987,6.2424,0.023414,0.018673,-1.9868e-21,1,77.419,128.22,0,0
3.2954,6.2132,-22.29,0.098015,-0.0010857,-1.6154e-22,3.4589e-21,26.003,-22.29,0.098015,6.2132,0.023421,0.018733,-1.2502e-21,1,77.521,128.32,0,0
3.2823,6.1839,-22.369,0.098042,-0.0010344,-1.6802e-22,7.1159e-21,26.062,-22.369,0.098042,6.1839,0.023427,0.018793,1.5853e-22,1,77.622,128.42,0,0
3.2691,6.1547,-22.448,0.09807,-0.00098316,-1.6555e-21,1.9712e-20,26.12,-22.448,0.09807,6.1547,0.023433,0.018853,-8.045e-22,1,77.724,128.52,0,0
3.2559,6.1255,-22.527,0.098098,-0.00093191,1.5324e-22,-1.1757e-20,26.179,-22.527,0.098098,6.1255,0.023439,0.018913,-9.3807e-23,1,77.826,128.63,0,0
3.2428,6.0962,-22.606,0.098126,-0.00088065,1.4586e-22,-7.0002e-21,26.238,-22.606,0.098126,6.0962,0.023446,0.018974,-1.1441e-21,1,77.927,128.73,0,0
3.2296,6.067,-22.685,0.098153,-0.00082939,3.4976e-23,-2.5037e-21,26.296,-22.685,0.098153,6.067,0.023452,0.019034,9.0611e-22,1,78.029,128.83,0,0
3.2164,6.0378,-22.765,0.098181,-0.00077813,-1.047e-22,1.4702e-20,26.355,-22.765,0.098181,6.0378,0.023458,0.019094,-3.0992e-22,1,78.13,128.93,0,0
3.2033,6.0085,-22.844,0.098209,-0.00072687,6.9448e-23,-1.2618e-20,26.414,-22.844,0.098209,6.0085,0.023464,0.019154,4.6184e-22,1,78.232,129.03,0,0
3.1901,5.9793,-22.923,0.098237,-0.00067561,-9.5769e-22,2.3815e-20,26.472,-22.923,0.098237,5.9793,0.02347,0.019214,-1.4188e-21,1,78.334,129.13,0,0
3.1769,5.95,-23.002,0.098264,-0.00062435,-8.2489e-22,1.2138e-20,26.531,-23.002,0.098264,5.95,0.023477,0.019275,1.8125e-21,1,78.435,129.24,0,0
3.1638,5.9208,-23.081,0.098292,-0.00057309,3.2705e-22,8.118e-23,26.589,-23.081,0.098292,5.9208,0.023483,0.019335,4.6562e-22,1,78.537,129.34,0,0
3.1506,5.8916,-23.16,0.09832,-0.00052184,-3.2136e-22,-2.6621e-21,26.648,-23.16,0.09832,5.8916,0.023489,0.019395,-2.6691e-22,1,78.638,129.44,0,0
3.1374,5.8623,-23.239,0.098347,-0.00047058,5.7201e-22,3.2712e-21,26.707,-23.239,0.098347,5.8623,0.023495,0.019455,-6.2743e-22,1,78.74,129.54,0,0
3.1243,5.8331,-23.319,0.098375,-0.00041932,1.1499e-22,1.7716e-20,26.765,-23.319,0.098375,5.8331,0.023501,0.019515,1.63e-23,1,78.842,129.64,0,0
3.1111,5.8039,-23.398,0.098403,-0.00036806,-4.3627e-22,2.2803e-21,26.824,-23.398,0.098403,5.8039,0.023507,0.019576,3.7841e-23,1,78.943,129.74,0,0
3.0979,5.7746,-23.477,0.098431,-0.0003168,3.0944e-22,-7.7618e-21,26.883,-23.477,0.098431,5.7746,0.023514,0.019636,-8.5643e-22,1,79.045,129.84,0,0
3.0848,5.7454,-23.556,0.098458,-0.00026555,1.3532e-22,9.8039e-21,26.941,-23.556,0.098458,5.7454,0.02352,0.019696,1.6029e-21,1,79.146,129.95,0,0
3.0716,5.7162,-23.635,0.098486,-0.00021428,1.069e-22,2.5818e-21,27,-23.635,0.098486,5.7162,0.023526,0.019756,-4.6829e-22,1,79.248,130.05,0,0
3.0585,5.6869,-23.714,0.098514,-0.00016303,4.5155e-22,5.9283e-21,27.058,-23.714,0.098514,5.6869,0.023532,0.019816,5.5735e-22,1,79.35,130.15,0,0
3.0453,5.6577,-23.793,0.098542,-0.00011176,2.1876e-22,1.7584e-21,27.117,-23.793,0.098542,5.6577,0.023539,0.019877,2.1544e-22,1,79.451,130.25,0,0
3.0321,5.6284,-23.873,0.098569,-6.051e-05,-4.6057e-22,1.8244e-20,27.176,-23.873,0.098569,5.6284,0.023545,0.019937,1.7407e-22,1,79.553,130.35,0,0
3.019,5.5992,-23.952,0.098597,-9.247e-06,-7.4183e-22,3.8475e-21,27.234,-23.952,0.098597,5.5992,0.023551,0.019997,2.355e-22,1,79.654,130.45,0,0
3.0058,5.57,-24.031,0.098625,4.2008e-05,2.5687e-22,-6.8901e-21,27.293,-24.031,0.098625,5.57,0.023557,0.020057,2.0379e-21,1,79.756,130.56,0,0
2.9926,5.5407,-24.11,0.098653,9.3263e-05,-1.8366e-22,-6.6041e-21,27.352,-24.11,0.098653,5.5407,0.023563,0.020117,3.4515e-22,1,79.858,130.66,0,0
2.9795,5.5115,-24.189,0.09868,0.00014453,-4.4838e-22,-1.4617e-20,27.41,-24.189,0.09868,5.5115,0.02357,0.020177,1.1632e-22,1,79.959,130.76,0,0
2.9663,5.4823,-24.268,0.098708,0.00019578,1.0484e-21,3.0081e-21,27.469,-24.268,0.098708,5.4823,0.023576,0.020238,-4.4312e-22,1,80.061,130.86,0,0
2.9531,5.453,-24.347,0.098736,0.00024704,3.1964e-22,-4.2082e-21,27.527,-24.347,0.098736,5.453,0.023582,0.020298,-1.4529e-21,1,80.162,130.96,0,0
2.94,5.4238,-24.427,0.098764,0.0002983,5.5015e-22,-2.7305e-21,27.586,-24.427,0.098764,5.4238,0.023588,0.020358,3.4506e-22,1,80.264,131.06,0,0
2.9268,5.3946,-24.506,0.098791,0.00034956,3.9344e-22,1.1592e-20,27.645,-24.506,0.098791,5.3946,0.023594,0.020418,-2.202e-22,1,80.366,131.17,0,0
2.9136,5.3653,-24.585,0.098819,0.00040082,3.9867e-22,-2.2973e-20,27.703,-24.585,0.098819,5.3653,0.023601,0.020478,-1.6141e-21,1,80.467,131.27,0,0
2.9005,5.3361,-24.664,0.098847,0.00045208,-6.8171e-22,6.5645e-21,27.762,-24.664,0.098847,5.3361,0.023607,0.020539,1.1876e-21,1,80.569,131.37,0,0
2.8873,5.3068,-24.743,0.098875,0.00050333,1.4847e-22,1.0969e-20,27.821,-24.743,0.098875,5.3068,0.023613,0.020599,1.2198e-21,1,80.67,131.47,0,0
2.8741,5.2776,-24.822,0.098902,0.0005546,4.6076e-23,8.7798e-21,27.879,-24.822,0.098902,5.2776,0.023619,0.020659,1.4937e-22,1,80.772,131.57,0,0
2.861,5.2484,-24.901,0.09893,0.00060585,2.1955e-22,5.2326e-21,27.938,-24.901,0.09893,5.2484,0.023625,0.020719,1.1464e-21,1,80.874,131.67,0,0
2.8478,5.2191,-24.981,0.098958,0.00065712,-3.8218e-22,5.7277e-21,27.997,-24.981,0.098958,5.2191,0.023632,0.020779,8.2609e-22,1,80.975,131.78,0,0
2.8346,5.1899,-25.06,0.098986,0.00070837,2.0315e-22,-1.1997e-20,28.055,-25.06,0.098986,5.1899,0.023638,0.02084,-1.0586e-21,1,81.077,131.88,0,0
2.8215,5.1607,-25.139,0.099013,0.00075963,4.3318e-22,1.4739e-21,28.114,-25.139,0.099013,5.1607,0.023644,0.0209,-1.1709e-21,1,81.178,131.98,0,0
2.8083,5.1314,-25.218,0.099041,0.00081089,8.5668e-22,4.9242e-21,28.172,-25.218,0.099041,5.1314,0.02365,0.02096,-1.3353e-21,1,81.28,132.08,0,0
2.7993,5.1025,-25.294,0.099052,0.00083647,9.6084e-22,9.2503e-21,28.23,-25.294,0.099052,5.1025,0.023656,0.02102,1.8491e-21,1,81.382,132.18,0,0
2.7903,5.0736,-25.37,0.099062,0.00086206,3.2103e-22,-1.0662e-21,28.288,-25.37,0.099062,5.0736,0.023662,0.02108,7.0931e-22,1,81.483,132.28,0,0
2.7812,5.0447,-25.446,0.099073,0.00088764,-5.385e-22,2.5934e-21,28.346,-25.446,0.099073,5.0447,0.023668,0.021141,1.7696e-21,1,81.585,132.38,0,0
2.7722,5.0158,-25.522,0.099084,0.00091323,9.9538e-24,2.6659e-21,28.404,-25.522,0.099084,5.0158,0.023674,0.021201,-1.3617e-22,1,81.686,132.49,0,0
2.7632,4.9869,-25.598,0.099094,0.00093882,6.5643e-22,9.487e-21,28.462,-25.598,0.099094,4.9869,0.02368,0.021261,8.787e-22,1,81.788,132.59,0,0
2.7541,4.958,-25.675,0.099105,0.0009644,-6.1086e-22,-3.3169e-21,28.52,-25.675,0.099105,4.958,0.023686,0.021321,-8.5227e-22,1,81.89,132.69,0,0
2.7451,4.9291,-25.751,0.099116,0.00098999,1.8192e-22,-1.1715e-20,28.578,-25.751,0.099116,4.9291,0.023693,0.021381,-3.1702e-22,1,81.991,132.79,0,0
2.7361,4.9002,-25.827,0.099126,0.0010156,-1.2865e-22,-1.6377e-20,28.636,-25.827,0.099126,4.9002,0.023699,0.021442,-1.8848e-22,1,82.093,132.89,0,0
2.7271,4.8713,-25.903,0.099137,0.0010412,3.9133e-23,-1.5574e-20,28.694,-25.903,0.099137,4.8713,0.023705,0.021502,-7.7612e-22,1,82.194,132.99,0,0
2.718,4.8424,-25.979,0.099148,0.0010667,5.255e-22,5.1023e-21,28.752,-25.979,0.099148,4.8424,0.023711,0.021562,1.2984e-21,1,82.296,133.1,0,0
2.709,4.8135,-26.055,0.099158,0.0010923,3.8835e-22,-6.3995e-22,28.81,-26.055,0.099158,4.8135,0.023717,0.021622,-7.2248e-22,1,82.398,133.2,0,0
2.7,4.7846,-26.131,0.099169,0.0011179,-2.6072e-22,-4.3843e-21,28.868,-26.131,0.099169,4.7846,0.023723,0.021682,1.0361e-23,1,82.499,133.3,0,0
2.6909,4.7557,-26.207,0.09918,0.0011435,3.4298e-22,-6.0712e-21,28.926,-26.207,0.09918,4.7557,0.023729,0.021743,2.6054e-22,1,82.601,133.4,0,0
2.6819,4.7268,-26.283,0.09919,0.0011691,-7.1563e-22,-1.278e-21,28.984,-26.283,0.09919,4.7268,0.023735,0.021803,1.3443e-21,1,82.702,133.5,0,0
2.6729,4.6979,-26.359,0.099201,0.0011947,-3.3642e-22,6.9558e-21,29.042,-26.359,0.099201,4.6979,0.023741,0.021863,4.772e-22,1,82.804,133.6,0,0
2.6639,4.669,-26.436,0.099212,0.0012203,4.0951e-22,-4.3276e-21,29.1,-26.436,0.099212,4.669,0.023747,0.021923,6.4243e-22,1,82.906,133.71,0,0
2.6548,4.6401,-26.512,0.099222,0.0012458,8.7525e-22,1.2942e-20,29.158,-26.512,0.099222,4.6401,0.023753,0.021983,-4.9255e-22,1,83.007,133.81,0,0
2.6458,4.6112,-26.588,0.099233,0.0012714,-4.9533e-22,-1.1901e-20,29.216,-26.588,0.099233,4.6112,0.023759,0.022044,8.7544e-22,1,83.109,133.91,0,0
2.6368,4.5823,-26.664,0.099244,0.001297,-4.9695e-23,-1.356e-20,29.274,-26.664,0.099244,4.5823,0.023765,0.022104,-9.9016e-23,1,83.21,134.01,0,0
2.6277,4.5534,-26.74,0.099254,0.0013226,-2.5228e-22,-1.9864e-21,29.332,-26.74,0.099254,4.5534,0.023771,0.022164,-4.8665e-22,1,83.312,134.11,0,0
2.6187,4.5245,-26.816,0.099265,0.0013482,-2.1587e-23,4.1583e-21,29.39,-26.816,0.099265,4.5245,0.023777,0.022224,1.4769e-21,1,83.414,134.21,0,0
2.6097,4.4956,-26.892,0.099276,0.0013738,5.1639e-22,4.6662e-23,29.448,-26.892,0.099276,4.4956,0.023783,0.022284,8.0752e-22,1,83.515,134.32,0,0
2.6007,4.4667,-26.968,0.099286,0.0013994,4.999e-22,-9.6361e-22,29.506,-26.968,0.099286,4.4667,0.023789,0.022345,-4.5275e-22,1,83.617,134.42,0,0
2.5916,4.4378,-27.044,0.099297,0.0014249,3.5281e-22,-6.2788e-22,29.564,-27.044,0.099297,4.4378,0.023795,0.022405,-1.1501e-21,1,83.718,134.52,0,0
2.5826,4.4089,-27.12,0.099308,0.0014505,8.4966e-22,5.9552e-22,29.622,-27.12,0.099308,4.4089,0.023802,0.022465,-1.1698e-22,1,83.82,134.62,0,0
2.5736,4.38,-27.197,0.099318,0.0014761,-4.9544e-22,7.9908e-21,29.68,-27.197,0.099318,4.38,0.023808,0.022525,-2.9451e-21,1,83.922,134.72,0,0
2.5645,4.3511,-27.273,0.099329,0.0015017,1.947e-24,5.1449e-22,29.738,-27.273,0.099329,4.3511,0.023814,0.022585,-2.5662e-21,1,84.023,134.82,0,0
2.5555,4.3222,-27.349,0.09934,0.0015273,-7.5492e-23,-2.7039e-21,29.796,-27.349,0.09934,4.3222,0.02382,0.022645,1.3828e-21,1,84.125,134.92,0,0
2.5465,4.2933,-27.425,0.09935,0.0015529,3.4716e-22,-2.6648e-21,29.854,-27.425,0.09935,4.2933,0.023826,0.022706,-1.4668e-22,1,84.226,135.03,0,0
2.5375,4.2644,-27.501,0.099361,0.0015785,1.4592e-21,6.4939e-21,29.912,-27.501,0.099361,4.2644,0.023832,0.022766,1.1243e-23,1,84.328,135.13,0,0
2.5284,4.2355,-27.577,0.099372,0.001604,4.0469e-23,3.177e-21,29.97,-27.577,0.099372,4.2355,0.023838,0.022826,-4.4211e-22,1,84.43,135.23,0,0
2.5194,4.2066,-27.653,0.099382,0.0016296,-1.1161e-21,-6.4756e-21,30.028,-27.653,0.099382,4.2066,0.023844,0.022886,6.0441e-22,1,84.531,135.33,0,0
2.5104,4.1777,-27.729,0.099393,0.0016552,-2.0798e-22,9.8859e-21,30.086,-27.729,0.099393,4.1777,0.02385,0.022946,-8.6807e-22,1,84.633,135.43,0,0
2.5013,4.1488,-27.805,0.099404,0.0016808,-1.7908e-22,6.5283e-22,30.144,-27.805,0.099404,4.1488,0.023856,0.023007,-2.1561e-21,1,84.734,135.53,0,0
2.4923,4.1198,-27.881,0.099414,0.0017064,3.2292e-22,-4.1957e-21,30.202,-27.881,0.099414,4.1198,0.023862,0.023067,-5.2939e-22,1,84.836,135.64,0,0
2.4833,4.0909,-27.958,0.099425,0.001732,-1.2232e-21,-1.3363e-20,30.26,-27.958,0.099425,4.0909,0.023868,0.023127,1.6483e-21,1,84.938,135.74,0,0
2.4743,4.062,-28.034,0.099436,0.0017576,6.711e-22,-6.4668e-21,30.318,-28.034,0.099436,4.062,0.023874,0.023187,1.4739e-21,1,85.039,135.84,0,0
2.4652,4.0331,-28.11,0.099446,0.0017831,-2.5035e-21,2.7856e-20,30.376,-28.11,0.099446,4.0331,0.02388,0.023247,-1.7482e-21,1,85.141,135.94,0,0
2.4562,4.0042,-28.186,0.099457,0.0018087,7.3233e-22,-1.1712e-20,30.434,-28.186,0.099457,4.0042,0.023886,0.023308,9.6434e-22,1,85.242,136.04,0,0
2.4472,3.9753,-28.262,0.099468,0.0018343,9.6351e-22,-5.6485e-21,30.492,-28.262,0.099468,3.9753,0.023892,0.023368,-2.9682e-21,1,85.344,136.14,0,0
2.4381,3.9464,-28.338,0.099478,0.0018599,-4.3393e-22,-7.8777e-22,30.55,-28.338,0.099478,3.9464,0.023898,0.023428,5.454e-22,1,85.446,136.25,0,0
2.4291,3.9175,-28.414,0.099489,0.0018855,-1.0748e-21,1.6003e-22,30.608,-28.414,0.099489,3.9175,0.023905,0.023488,2.2881e-21,1,85.547,136.35,0,0
2.4201,3.8886,-28.49,0.0995,0.0019111,-3.6941e-22,4.841e-21,30.666,-28.49,0.0995,3.8886,0.023911,0.023548,-5.629e-22,1,85.649,136.45,0,0
2.4111,3.8597,-28.566,0.09951,0.0019367,-1.9198e-21,3.0615e-20,30.724,-28.566,0.09951,3.8597,0.023917,0.023609,-5.3917e-21,1,85.75,136.55,0,0
2.402,3.8308,-28.642,0.099521,0.0019622,8.1985e-22,-7.2383e-21,30.782,-28.642,0.099521,3.8308,0.023923,0.023669,-4.3369e-21,1,85.852,136.65,0,0
2.393,3.8019,-28.719,0.099532,0.0019878,5.5634e-23,1.0112e-20,30.84,-28.719,0.099532,3.8019,0.023929,0.023729,3.2459e-22,1,85.954,136.75,0,0
2.384,3.773,-28.795,0.099542,0.0020134,-2.7798e-22,-8.779e-21,30.898,-28.795,0.099542,3.773,0.023935,0.023789,2.7003e-21,1,86.055,136.86,0,0
2.3749,3.7441,-28.871,0.099553,0.002039,-2.8728e-22,-1.3834e-21,30.956,-28.871,0.099553,3.7441,0.023941,0.023849,1.7278e-21,1,86.157,136.96,0,0
2.3659,3.7152,-28.947,0.099564,0.0020646,-1.1774e-21,8.3601e-21,31.014,-28.947,0.099564,3.7152,0.023947,0.02391,-4.0334e-23,1,86.258,137.06,0,0
2.3569,3.6863,-29.023,0.099574,0.0020902,-1.4779e-21,2.7841e-21,31.071,-29.023,0.099574,3.6863,0.023953,0.02397,-2.9197e-21,1,86.36,137.16,0,0
2.3504,3.6578,-29.096,0.099532,0.0020813,-8.4825e-22,6.8777e-21,31.129,-29.096,0.099532,3.6578,0.023959,0.02403,2.2875e-22,1,86.462,137.26,0,0
2.3438,3.6294,-29.17,0.099489,0.0020724,-1.2717e-21,6.4463e-21,31.186,-29.17,0.099489,3.6294,0.023965,0.02409,-3.6553e-21,1,86.563,137.36,0,0
2.3373,3.6009,-29.243,0.099447,0.0020635,-6.84e-22,4.1322e-21,31.243,-29.243,0.099446,3.6009,0.023971,0.02415,2.5389e-22,1,86.665,137.46,0,0
2.3307,3.5724,-29.317,0.099404,0.0020546,1.7194e-21,-1.5713e-20,31.3,-29.317,0.099404,3.5724,0.023977,0.024211,5.5358e-22,1,86.766,137.57,0,0
2.3242,3.544,-29.39,0.099361,0.0020457,-9.8288e-22,-1.0599e-21,31.357,-29.39,0.099361,3.544,0.023983,0.024271,3.5643e-23,1,86.868,137.67,0,0
2.3177,3.5155,-29.464,0.099319,0.0020368,1.1993e-21,-6.9055e-21,31.414,-29.464,0.099319,3.5155,0.023988,0.024331,-1.1898e-21,1,86.97,137.77,0,0
2.3111,3.487,-29.537,0.099276,0.002028,1.2213e-21,1.3989e-20,31.471,-29.537,0.099276,3.487,0.023994,0.024391,2.0805e-21,1,87.071,137.87,0,0
2.3046,3.4586,-29.611,0.099234,0.0020191,4.0275e-22,-1.156e-20,31.529,-29.611,0.099234,3.4586,0.024,0.024451,1.3897e-21,1,87.173,137.97,0,0
2.298,3.4301,-29.684,0.099191,0.0020102,2.2936e-22,-9.7013e-21,31.586,-29.684,0.099191,3.4301,0.024006,0.024512,1.2229e-21,1,87.274,138.07,0,0
2.2915,3.4016,-29.758,0.099148,0.0020013,1.5952e-21,2.0054e-21,31.643,-29.758,0.099148,3.4016,0.024012,0.024572,1.6654e-21,1,87.376,138.18,0,0
2.285,3.3732,-29.831,0.099106,0.0019924,9.7344e-22,-6.1006e-21,31.7,-29.831,0.099106,3.3732,0.024018,0.024632,-4.9866e-22,1,87.478,138.28,0,0
2.2784,3.3447,-29.904,0.099063,0.0019835,4.5463e-22,-1.5735e-20,31.757,-29.904,0.099063,3.3447,0.024024,0.024692,2.9807e-22,1,87.579,138.38,0,0
2.2719,3.3162,-29.978,0.099021,0.0019746,3.8291e-22,2.382e-21,31.814,-29.978,0.099021,3.3162,0.02403,0.024752,-1.2532e-21,1,87.681,138.48,0,0
2.2654,3.2878,-30.051,0.098978,0.0019657,2.0562e-23,7.5041e-21,31.871,-30.051,0.098978,3.2878,0.024036,0.024813,-8.7925e-22,1,87.782,138.58,0,0
2.2588,3.2593,-30.125,0.098935,0.0019569,1.9619e-22,1.3321e-20,31.928,-30.125,0.098935,3.2593,0.024042,0.024873,3.7086e-22,1,87.884,138.68,0,0
2.2523,3.2308,-30.198,0.098893,0.001948,5.1859e-22,-1.8966e-20,31.986,-30.198,0.098893,3.2308,0.024047,0.024933,1.6647e-21,1,87.986,138.79,0,0
2.2457,3.2023,-30.272,0.09885,0.0019391,-8.7391e-22,3.6201e-21,32.043,-30.272,0.09885,3.2024,0.024053,0.024993,2.8349e-22,1,88.087,138.89,0,0
2.2392,3.1739,-30.345,0.098808,0.0019302,2.0766e-22,3.5611e-21,32.1,-30.345,0.098808,3.1739,0.024059,0.025053,1.3007e-21,1,88.189,138.99,0,0
2.2327,3.1454,-30.419,0.098765,0.0019213,-3.8647e-22,1.7124e-20,32.157,-30.419,0.098765,3.1454,0.024065,0.025114,-4.9473e-22,1,88.29,139.09,0,0
2.2261,3.1169,-30.492,0.098722,0.0019124,4.6284e-22,-1.6284e-20,32.214,-30.492,0.098722,3.1169,0.024071,0.025174,1.5684e-21,1,88.392,139.19,0,0
2.2196,3.0885,-30.566,0.09868,0.0019035,-1.6404e-22,1.8447e-20,32.271,-30.566,0.09868,3.0885,0.024077,0.025234,-4.412e-21,1,88.494,139.29,0,0
2.213,3.06,-30.639,0.098637,0.0018946,1.3287e-21,-7.5768e-21,32.328,-30.639,0.098637,3.06,0.024083,0.025294,3.4701e-21,1,88.595,139.4,0,0
2.2065,3.0315,-30.713,0.098595,0.0018857,6.6868e-22,-4.4329e-21,32.386,-30.713,0.098595,3.0315,0.024089,0.025354,1.4309e-21,1,88.697,139.5,0,0
2.2,3.0031,-30.786,0.098552,0.0018769,2.4933e-22,5.407e-21,32.443,-30.786,0.098552,3.0031,0.024095,0.025415,-2.1522e-21,1,88.798,139.6,0,0
2.1934,2.9746,-30.859,0.098509,0.001868,7.9234e-22,-2.1764e-20,32.5,-30.859,0.098509,2.9746,0.024101,0.025475,-2.2853e-21,1,88.9,139.7,0,0
2.1869,2.9461,-30.933,0.098467,0.0018591,-3.0797e-22,-1.9412e-21,32.557,-30.933,0.098467,2.9461,0.024107,0.025535,9.5852e-22,1,89.002,139.8,0,0
2.1804,2.9177,-31.006,0.098424,0.0018502,-2.0005e-21,-4.0646e-21,32.614,-31.006,0.098424,2.9177,0.024112,0.025595,-9.9966e-22,1,89.103,139.9,0,0
2.1738,2.8892,-31.08,0.098382,0.0018413,7.9491e-22,-3.4867e-22,32.671,-31.08,0.098382,2.8892,0.024118,0.025655,-1.4299e-21,1,89.205,140,0,0
2.1673,2.8607,-31.153,0.098339,0.0018324,-6.8483e-22,2.352e-20,32.728,-31.153,0.098339,2.8607,0.024124,0.025716,1.2261e-21,1,89.306,140.11,0,0
2.1607,2.8323,-31.227,0.098296,0.0018235,-1.5182e-22,-1.0218e-20,32.785,-31.227,0.098296,2.8323,0.02413,0.025776,-3.2572e-21,1,89.408,140.21,0,0
2.1542,2.8038,-31.3,0.098254,0.0018146,-1.3446e-22,-1.8633e-20,32.843,-31.3,0.098254,2.8038,0.024136,0.025836,-1.3653e-21,1,89.51,140.31,0,0
2.1477,2.7753,-31.374,0.098211,0.0018058,1.2714e-21,1.5412e-20,32.9,-31.374,0.098211,2.7753,0.024142,0.025896,1.6499e-21,1,89.611,140.41,0,0
2.1411,2.7469,-31.447,0.098169,0.0017969,2.2071e-22,6.3578e-21,32.957,-31.447,0.098169,2.7469,0.024148,0.025956,7.2046e-22,1,89.713,140.51,0,0
2.1346,2.7184,-31.521,0.098126,0.001788,-2.0203e-22,3.2016e-22,33.014,-31.521,0.098126,2.7184,0.024154,0.026017,-9.577e-22,1,89.814,140.61,0,0
2.1281,2.6899,-31.594,0.098083,0.0017791,4.6547e-23,1.8211e-20,33.071,-31.594,0.098083,2.6899,0.02416,0.026077,3.4294e-21,1,89.916,140.72,0,0
2.1215,2.6615,-31.668,0.098041,0.0017702,-6.9938e-22,-2.7514e-20,33.128,-31.668,0.098041,2.6615,0.024166,0.026137,1.1444e-22,1,90.018,140.82,0,0
2.115,2.633,-31.741,0.097998,0.0017613,-2.0067e-22,1.7642e-20,33.185,-31.741,0.097998,2.633,0.024172,0.026197,1.017e-21,1,90.119,140.92,0,0
2.1084,2.6045,-31.815,0.097956,0.0017524,-6.3967e-22,1.3782e-20,33.243,-31.815,0.097956,2.6045,0.024177,0.026257,8.1789e-22,1,90.221,141.02,0,0
2.1019,2.576,-31.888,0.097913,0.0017435,-1.21e-22,3.2155e-20,33.3,-31.888,0.097913,2.5761,0.024183,0.026318,-2.0927e-21,1,90.322,141.12,0,0
2.0954,2.5476,-31.961,0.09787,0.0017346,-4.9796e-22,-1.1075e-20,33.357,-31.961,0.09787,2.5476,0.024189,0.026378,-2.892e-21,1,90.424,141.22,0,0
2.0888,2.5191,-32.035,0.097828,0.0017258,6.2961e-22,3.4731e-20,33.414,-32.035,0.097828,2.5191,0.024195,0.026438,1.9159e-21,1,90.526,141.33,0,0
2.0823,2.4906,-32.108,0.097785,0.0017169,4.2049e-23,-2.0842e-20,33.471,-32.108,0.097785,2.4906,0.024201,0.026498,1.8848e-21,1,90.627,141.43,0,0
2.0757,2.4622,-32.182,0.097743,0.001708,-5.0839e-22,-1.8054e-20,33.528,-32.182,0.097743,2.4622,0.024207,0.026558,-1.2749e-21,1,90.729,141.53,0,0
2.0692,2.4337,-32.255,0.0977,0.0016991,-4.527e-22,-1.5898e-20,33.585,-32.255,0.0977,2.4337,0.024213,0.026619,-7.4753e-22,1,90.83,141.63,0,0
2.0627,2.4052,-32.329,0.097657,0.0016902,1.9454e-23,-3.9412e-20,33.642,-32.329,0.097657,2.4052,0.024219,0.026679,-2.3615e-22,1,90.932,141.73,0,0
2.0561,2.3768,-32.402,0.097615,0.0016813,-8.2041e-23,3.0641e-21,33.7,-32.402,0.097615,2.3768,0.024225,0.026739,4.2442e-22,1,91.034,141.83,0,0
2.0496,2.3483,-32.476,0.097572,0.0016724,2.244e-22,-2.0107e-20,33.757,-32.476,0.097572,2.3483,0.024231,0.026799,8.9746e-22,1,91.135,141.94,0,0
2.0431,2.3198,-32.549,0.09753,0.0016635,-3.8841e-22,-1.9161e-20,33.814,-32.549,0.09753,2.3198,0.024236,0.026859,-2.0172e-21,1,91.237,142.04,0,0
2.0365,2.2914,-32.623,0.097487,0.0016547,2.3102e-22,-1.5498e-20,33.871,-32.623,0.097487,2.2914,0.024242,0.026919,1.4863e-21,1,91.338,142.14,0,0
2.03,2.2629,-32.696,0.097445,0.0016458,-5.2909e-22,9.3867e-21,33.928,-32.696,0.097444,2.2629,0.024248,0.02698,-1.6348e-21,1,91.44,142.24,0,0
2.025,2.2349,-32.767,0.097204,0.001597,2.5029e-22,4.0195e-21,33.984,-32.767,0.097204,2.2349,0.024254,0.02704,-6.7077e-22,1,91.542,142.34,0,0
2.0201,2.2069,-32.839,0.096964,0.0015481,-9.9112e-22,7.2631e-20,34.04,-32.839,0.096963,2.2069,0.02426,0.0271,8.6139e-22,1,91.643,142.44,0,0
2.0151,2.1789,-32.91,0.096723,0.0014993,1.155e-22,3.8034e-20,34.097,-32.91,0.096723,2.1789,0.024266,0.02716,3.4858e-21,1,91.745,142.54,0,0
2.0102,2.1509,-32.981,0.096483,0.0014505,-3.2381e-22,1.6121e-20,34.153,-32.981,0.096482,2.1509,0.024271,0.02722,8.6439e-22,1,91.846,142.65,0,0
2.0052,2.1229,-33.052,0.096242,0.0014017,1.0938e-22,1.6466e-20,34.209,-33.052,0.096242,2.1229,0.024277,0.027281,-1.0905e-21,1,91.948,142.75,0,0
2.0003,2.0948,-33.123,0.096002,0.0013529,8.3501e-22,-3.3609e-20,34.265,-33.123,0.096001,2.0948,0.024283,0.027341,4.0302e-22,1,92.05,142.85,0,0
1.9954,2.0668,-33.195,0.095761,0.0013041,-6.1438e-22,1.6448e-20,34.321,-33.195,0.09576,2.0668,0.024289,0.027401,-1.8092e-21,1,92.151,142.95,0,0
1.9904,2.0388,-33.266,0.095521,0.0012553,6.4782e-23,-3.1773e-21,34.377,-33.266,0.09552,2.0388,0.024294,0.027461,-1.3656e-21,1,92.253,143.05,0,0
1.9855,2.0108,-33.337,0.09528,0.0012065,-5.5464e-22,5.3384e-20,34.434,-33.337,0.095279,2.0108,0.0243,0.027521,-1.7995e-21,1,92.354,143.15,0,0
1.9805,1.9828,-33.408,0.09504,0.0011577,-2.6963e-23,7.2514e-21,34.49,-33.408,0.095039,1.9828,0.024306,0.027582,-1.0046e-21,1,92.456,143.26,0,0
1.9756,1.9548,-33.479,0.094799,0.0011089,-9.4708e-22,2.6737e-20,34.546,-33.479,0.094798,1.9548,0.024312,0.027642,-4.1874e-21,1,92.558,143.36,0,0
1.9706,1.9268,-33.551,0.094559,0.0010601,3.12e-22,3.2299e-20,34.602,-33.551,0.094558,1.9268,0.024317,0.027702,-3.677e-22,1,92.659,143.46,0,0
1.9657,1.8988,-33.622,0.094318,0.0010113,-4.9515e-22,-2.1315e-21,34.658,-33.622,0.094317,1.8988,0.024323,0.027762,-6.6037e-22,1,92.761,143.56,0,0
1.9607,1.8708,-33.693,0.094078,0.00096246,-2.0652e-22,6.5197e-20,34.714,-33.693,0.094077,1.8708,0.024329,0.027822,-8.8169e-22,1,92.862,143.66,0,0
1.9558,1.8428,-33.764,0.093837,0.00091365,-5.3055e-22,1.3856e-20,34.771,-33.764,0.093836,1.8428,0.024334,0.027883,-1.1141e-21,1,92.964,143.76,0,0
1.9508,1.8147,-33.835,0.093597,0.00086485,-8.3972e-22,4.424e-20,34.827,-33.835,0.093595,1.8147,0.02434,0.027943,1.959e-21,1,93.066,143.87,0,0
1.9459,1.7867,-33.907,0.093356,0.00081605,-3.4228e-22,6.7018e-20,34.883,-33.907,0.093355,1.7867,0.024346,0.028003,2.3342e-21,1,93.167,143.97,0,0
1.9409,1.7587,-33.978,0.093116,0.00076723,6.057e-22,-3.8789e-20,34.939,-33.978,0.093114,1.7587,0.024352,0.028063,-1.7363e-21,1,93.269,144.07,0,0
1.936,1.7307,-34.049,0.092875,0.00071843,-5.4395e-22,1.2356e-19,34.995,-34.049,0.092874,1.7307,0.024357,0.028123,-3.5776e-21,1,93.37,144.17,0,0
1.9311,1.7027,-34.12,0.092635,0.00066962,-3.2537e-22,-3.0196e-20,35.051,-34.12,0.092633,1.7027,0.024363,0.028184,3.5559e-21,1,93.472,144.27,0,0
1.9261,1.6747,-34.191,0.092394,0.00062082,-1.8042e-22,9.4892e-21,35.108,-34.191,0.092393,1.6747,0.024369,0.028244,2.6025e-21,1,93.574,144.37,0,0
1.9212,1.6467,-34.263,0.092154,0.000572,-7.0555e-22,8.7478e-20,35.164,-34.263,0.092152,1.6467,0.024375,0.028304,3.2816e-22,1,93.675,144.48,0,0
1.9162,1.6187,-34.334,0.091913,0.0005232,3.5046e-23,-4.1254e-20,35.22,-34.334,0.091912,1.6187,0.02438,0.028364,-1.7137e-21,1,93.777,144.58,0,0
1.9113,1.5907,-34.405,0.091673,0.00047439,-7.102e-23,5.7214e-21,35.276,-34.405,0.091671,1.5907,0.024386,0.028424,-1.2486e-22,1,93.878,144.68,0,0
1.9063,1.5627,-34.476,0.091432,0.00042558,1.6493e-22,1.504e-19,35.332,-34.476,0.091431,1.5627,0.024392,0.028485,1.5451e-21,1,93.98,144.78,0,0
1.9014,1.5347,-34.547,0.091192,0.00037677,-4.9198e-23,1.1634e-20,35.388,-34.547,0.09119,1.5347,0.024398,0.028545,1.6363e-21,1,94.082,144.88,0,0
1.8964,1.5066,-34.619,0.090951,0.00032797,-3.733e-22,-5.0488e-20,35.445,-34.619,0.090949,1.5066,0.024403,0.028605,-1.7287e-21,1,94.183,144.98,0,0
1.8915,1.4786,-34.69,0.090711,0.00027917,-2.7484e-22,-2.5774e-21,35.501,-34.69,0.090709,1.4786,0.024409,0.028665,-9.4234e-22,1,94.285,145.08,0,0
1.8865,1.4506,-34.761,0.09047,0.00023035,1.4441e-22,-1.4091e-19,35.557,-34.761,0.090468,1.4506,0.024415,0.028725,-1.9305e-21,1,94.386,145.19,0,0
1.8816,1.4226,-34.832,0.09023,0.00018155,2.5824e-22,-4.4827e-20,35.613,-34.832,0.090228,1.4226,0.024421,0.028786,-3.2079e-21,1,94.488,145.29,0,0
1.8766,1.3946,-34.903,0.08999,0.00013274,-1.6501e-22,-5.2368e-20,35.669,-34.903,0.089987,1.3946,0.024426,0.028846,-1.3056e-21,1,94.59,145.39,0,0
1.8717,1.3666,-34.975,0.089749,8.3935e-05,1.6722e-23,-9.6459e-21,35.725,-34.975,0.089747,1.3666,0.024432,0.028906,-1.5339e-21,1,94.691,145.49,0,0
1.8667,1.3386,-35.046,0.089509,3.5124e-05,-7.431e-23,1.1914e-20,35.782,-35.046,0.089506,1.3386,0.024438,0.028966,-4.0379e-22,1,94.793,145.59,0,0
1.8618,1.3106,-35.117,0.089268,-1.368e-05,-4.9728e-22,1.1625e-19,35.838,-35.117,0.089266,1.3106,0.024444,0.029026,-3.2448e-21,1,94.894,145.69,0,0
1.8569,1.2826,-35.188,0.089028,-6.2491e-05,-1.8238e-23,1.0678e-20,35.894,-35.188,0.089025,1.2826,0.024449,0.029087,5.3106e-21,1,94.996,145.8,0,0
1.8519,1.2546,-35.26,0.088787,-0.0001113,9.7828e-23,-8.8198e-20,35.95,-35.26,0.088784,1.2546,0.024455,0.029147,-4.1522e-22,1,95.098,145.9,0,0
1.847,1.2265,-35.331,0.088547,-0.00016011,2.504e-23,-4.3802e-20,36.006,-35.331,0.088544,1.2265,0.024461,0.029207,1.7414e-21,1,95.199,146,0,0
1.842,1.1985,-35.402,0.088306,-0.00020891,4.1056e-23,-6.8964e-20,36.062,-35.402,0.088303,1.1985,0.024467,0.029267,-3.635e-22,1,95.301,146.1,0,0
1.8371,1.1705,-35.473,0.088066,-0.00025771,-1.7144e-22,-8.8514e-20,36.119,-35.473,0.088063,1.1705,0.024472,0.029327,-7.6145e-22,1,95.402,146.2,0,0
1.8321,1.1425,-35.544,0.087825,-0.00030653,4.1779e-23,-3.1616e-20,36.175,-35.544,0.087822,1.1425,0.024478,0.029388,-2.4051e-22,1,95.504,146.3,0,0
1.8272,1.1145,-35.616,0.087585,-0.00035533,8.7103e-23,3.6361e-21,36.231,-35.616,0.087582,1.1145,0.024484,0.029448,-8.0883e-22,1,95.606,146.41,0,0
1.8222,1.0865,-35.687,0.087344,-0.00040414,-1.4071e-24,3.4449e-20,36.287,-35.687,0.087341,1.0865,0.02449,0.029508,-5.8226e-22,1,95.707,146.51,0,0
1.8173,1.0585,-35.758,0.087104,-0.00045294,7.8533e-23,-3.3077e-20,36.343,-35.758,0.087101,1.0585,0.024495,0.029568,1.8003e-21,1,95.809,146.61,0,0
1.8123,1.0305,-35.829,0.086863,-0.00050176,5.9429e-23,3.0757e-20,36.399,-35.829,0.08686,1.0305,0.024501,0.029628,1.4663e-21,1,95.91,146.71,0,0
1.8074,1.0025,-35.9,0.086623,-0.00055056,7.5871e-23,2.7805e-20,36.456,-35.9,0.086619,1.0025,0.024507,0.029689,-2.4191e-22,1,96.012,146.81,0,0
1.8024,0.97446,-35.972,0.086382,-0.00059937,-1.2712e-23,-3.3402e-20,36.512,-35.972,0.086379,0.97446,0.024513,0.029749,-1.4011e-21,1,96.114,146.91,0,0
1.7975,0.94645,-36.043,0.086142,-0.00064817,-3.207e-23,-2.1594e-20,36.568,-36.043,0.086138,0.94645,0.024518,0.029809,-6.8781e-22,1,96.215,147.02,0,0
1.7926,0.91844,-36.114,0.085901,-0.00069699,8.8065e-24,-4.097e-20,36.624,-36.114,0.085898,0.91844,0.024524,0.029869,4.5259e-22,1,96.317,147.12,0,0
1.7876,0.89043,-36.185,0.085661,-0.00074579,-1.0424e-22,4.3882e-20,36.68,-36.185,0.085657,0.89044,0.02453,0.029929,-6.3129e-23,1,96.418,147.22,0,0
1.7827,0.86242,-36.256,0.08542,-0.0007946,1.933e-22,-4.945e-20,36.736,-36.256,0.085417,0.86242,0.024536,0.02999,-1.3324e-21,1,96.52,147.32,0,0
1.7787,0.83949,-36.324,0.087196,-0.00083476,1.421e-23,2.1555e-20,36.793,-36.324,0.078024,0.84866,0.024541,0.03005,-1.5243e-21,1,96.622,147.42,0,0
1.7748,0.81656,-36.391,0.088971,-0.00087493,1.7893e-24,-8.3486e-20,36.85,-36.391,0.070632,0.8349,0.024547,0.03011,3.0323e-22,1,96.723,147.52,0,0
1.7708,0.79362,-36.458,0.090746,-0.00091509,-1.286e-23,-1.2848e-19,36.906,-36.458,0.063239,0.82113,0.024552,0.03017,1.0958e-21,1,96.825,147.62,0,0
1.7669,0.77069,-36.525,0.092522,-0.00095526,6.7088e-23,9.7863e-20,36.963,-36.525,0.055847,0.80737,0.024558,0.03023,1.8658e-21,1,96.926,147.73,0,0
1.7629,0.74776,-36.592,0.094297,-0.00099543,-9.2635e-23,1.5755e-20,37.019,-36.592,0.048453,0.7936,0.024564,0.030291,6.3721e-22,1,97.028,147.83,0,0
1.759,0.72483,-36.659,0.096073,-0.0010356,-1.1536e-22,4.3673e-20,37.076,-36.659,0.041061,0.77984,0.024569,0.030351,2.2161e-21,1,97.13,147.93,0,0
1.755,0.70189,-36.727,0.097848,-0.0010758,2.6963e-22,3.3351e-20,37.132,-36.727,0.033668,0.76607,0.024575,0.030411,1.0451e-21,1,97.231,148.03,0,0
1.751,0.67896,-36.794,0.099623,-0.0011159,3.3511e-22,6.3275e-20,37.189,-36.794,0.026275,0.75231,0.02458,0.030471,-2.1109e-21,1,97.333,148.13,0,0
1.7471,0.65603,-36.861,0.1014,-0.0011561,1.1753e-22,4.7383e-20,37.245,-36.861,0.018882,0.73854,0.024586,0.030531,-1.3559e-21,1,97.434,148.23,0,0
1.7431,0.63309,-36.928,0.10317,-0.0011962,7.4301e-22,-1.8323e-20,37.302,-36.928,0.01149,0.72478,0.024591,0.030592,1.9395e-21,1,97.536,148.34,0,0
1.7392,0.61016,-36.995,0.10495,-0.0012364,3.2773e-22,1.1698e-20,37.358,-36.995,0.0040962,0.71101,0.024597,0.030652,-7.0957e-22,1,97.638,148.44,0,0
1.7352,0.58723,-37.063,0.10673,-0.0012766,-6.9781e-22,-4.3898e-20,37.415,-37.063,-0.003296,0.69725,0.024603,0.030712,-9.5061e-22,1,97.739,148.54,0,0
1.7313,0.5643,-37.13,0.1085,-0.0013167,9.4107e-22,4.8432e-20,37.471,-37.13,-0.010688,0.68349,0.024608,0.030772,-9.3682e-22,1,97.841,148.64,0,0
1.7273,0.54136,-37.197,0.11028,-0.0013569,-1.4592e-22,8.9741e-20,37.528,-37.197,-0.018082,0.66972,0.024614,0.030832,5.8483e-22,1,97.942,148.74,0,0
1.7234,0.51843,-37.264,0.11205,-0.0013971,7.2919e-23,-7.5946e-20,37.584,-37.264,-0.025474,0.65596,0.024619,0.030893,-1.612e-21,1,98.044,148.84,0,0
1.7194,0.4955,-37.331,0.11383,-0.0014372,-8.1626e-22,-2.9034e-20,37.641,-37.331,-0.032867,0.64219,0.024625,0.030953,-3.2611e-21,1,98.146,148.95,0,0
1.7155,0.47257,-37.398,0.1156,-0.0014774,-3.4284e-22,1.5466e-19,37.697,-37.398,-0.04026,0.62843,0.024631,0.031013,-1.1361e-21,1,98.247,149.05,0,0
1.7115,0.44963,-37.466,0.11738,-0.0015176,5.7491e-22,-5.2736e-20,37.754,-37.466,-0.047653,0.61466,0.024636,0.031073,5.7716e-22,1,98.349,149.15,0,0
1.7076,0.4267,-37.533,0.11915,-0.0015577,2.8391e-21,3.0744e-20,37.81,-37.533,-0.055045,0.6009,0.024642,0.031133,-2.5357e-21,1,98.45,149.25,0,0
1.7036,0.40376,-37.6,0.12093,-0.0015979,2.5883e-22,1.3932e-20,37.867,-37.6,-0.062439,0.58713,0.024647,0.031193,-2.7842e-21,1,98.552,149.35,0,0
1.6997,0.38083,-37.667,0.1227,-0.0016381,-1.0635e-21,6.267e-20,37.923,-37.667,-0.069831,0.57337,0.024653,0.031254,4.8231e-22,1,98.654,149.45,0,0
1.6957,0.3579,-37.734,0.12448,-0.0016782,9.6896e-22,5.8019e-20,37.98,-37.734,-0.077224,0.5596,0.024659,0.031314,-2.7426e-22,1,98.755,149.56,0,0
1.6918,0.33497,-37.801,0.12625,-0.0017184,-9.8311e-22,-5.2157e-20,38.036,-37.801,-0.084616,0.54584,0.024664,0.031374,-2.7267e-21,1,98.857,149.66,0,0
1.6878,0.31203,-37.869,0.12803,-0.0017586,-1.6099e-21,-6.0359e-20,38.093,-37.869,-0.09201,0.53207,0.02467,0.031434,-8.4245e-22,1,98.958,149.76,0,0
1.6839,0.2891,-37.936,0.12981,-0.0017987,3.2357e-22,-1.9855e-20,38.149,-37.936,-0.099402,0.51831,0.024675,0.031494,-7.8195e-22,1,99.06,149.86,0,0
1.6799,0.26617,-38.003,0.13158,-0.0018389,-1.5448e-21,3.5786e-20,38.206,-38.003,-0.10679,0.50455,0.024681,0.031555,1.2908e-21,1,99.162,149.96,0,0
1.676,0.24324,-38.07,0.13336,-0.0018791,-1.8634e-21,1.9946e-20,38.262,-38.07,-0.11419,0.49078,0.024686,0.031615,7.5912e-22,1,99.263,150.06,0,0
1.672,0.2203,-38.137,0.13513,-0.0019192,-1.0245e-22,4.0296e-20,38.319,-38.137,-0.12158,0.47702,0.024692,0.031675,-9.2777e-23,1,99.365,150.16,0,0
1.6681,0.19737,-38.205,0.13691,-0.0019594,1.0206e-21,-1.8002e-20,38.375,-38.205,-0.12897,0.46325,0.024698,0.031735,3.118e-21,1,99.466,150.27,0,0
1.6641,0.17444,-38.272,0.13868,-0.0019996,4.2727e-22,5.8105e-21,38.432,-38.272,-0.13637,0.44949,0.024703,0.031795,8.0025e-22,1,99.568,150.37,0,0
1.6602,0.1515,-38.339,0.14046,-0.0020397,3.722e-21,1.0648e-19,38.488,-38.339,-0.14376,0.43572,0.024709,0.031856,-2.6455e-21,1,99.67,150.47,0,0
1.6562,0.12857,-38.406,0.14223,-0.0020799,1.4346e-21,1.7259e-19,38.545,-38.406,-0.15115,0.42196,0.024714,0.031916,-4.9692e-21,1,99.771,150.57,0,0
1.6523,0.10564,-38.473,0.14401,-0.0021201,7.2294e-22,-1.6789e-20,38.601,-38.473,-0.15854,0.40819,0.02472,0.031976,-3.4466e-21,1,99.873,150.67,0,0
1.6483,0.082707,-38.54,0.14578,-0.0021602,6.5856e-22,-3.2085e-20,38.658,-38.54,-0.16594,0.39443,0.024726,0.032036,7.6737e-22,1,99.974,150.77,0,0
1.6444,0.059773,-38.608,0.14756,-0.0022004,-2.0414e-22,-3.8873e-20,38.714,-38.608,-0.17333,0.38066,0.024731,0.032096,-4.8322e-21,1,100.08,150.88,0,0
1.6404,0.036842,-38.675,0.14934,-0.0022405,9.1292e-21,1.2026e-19,38.771,-38.675,-0.18072,0.3669,0.024737,0.032157,-4.4766e-21,1,100.18,150.98,0,0
1.6365,0.01391,-38.742,0.15111,-0.0022807,1.9942e-22,-1.867e-20,38.827,-38.742,-0.18811,0.35314,0.024742,0.032217,6.3756e-22,1,100.28,151.08,0,0
1.6325,-0.0090243,-38.809,0.15289,-0.0023209,3.4746e-22,5.7244e-20,38.884,-38.809,-0.19551,0.33937,0.024748,0.032277,-8.3357e-22,1,100.38,151.18,0,0
1.6285,-0.031955,-38.876,0.15466,-0.002361,6.2516e-21,-3.8334e-20,38.941,-38.876,-0.2029,0.32561,0.024754,0.032337,7.7343e-23,1,100.48,151.28,0,0
1.6246,-0.05489,-38.943,0.15644,-0.0024012,1.7664e-21,-3.4436e-20,38.997,-38.943,-0.21029,0.31184,0.024759,0.032397,-2.3148e-21,1,100.58,151.38,0,0
1.6206,-0.077821,-39.011,0.15821,-0.0024414,5.6399e-21,6.759e-21,39.054,-39.011,-0.21769,0.29808,0.024765,0.032458,9.407e-22,1,100.69,151.49,0,0
1.6167,-0.10076,-39.078,0.15999,-0.0024815,3.3134e-21,3.2094e-20,39.11,-39.078,-0.22508,0.28431,0.02477,0.032518,-2.6003e-21,1,100.79,151.59,0,0
1.6127,-0.12369,-39.145,0.16176,-0.0025217,1.7167e-21,-2.1702e-20,39.167,-39.145,-0.23247,0.27055,0.024776,0.032578,2.7726e-21,1,100.89,151.69,0,0
1.6088,-0.14662,-39.212,0.16354,-0.0025619,4.8258e-21,1.0184e-20,39.223,-39.212,-0.23987,0.25678,0.024781,0.032638,1.2443e-21,1,100.99,151.79,0,0
1.6048,-0.16955,-39.279,0.16531,-0.002602,-5.8071e-21,-4.5027e-20,39.28,-39.279,-0.24726,0.24302,0.024787,0.032698,1.7322e-21,1,101.09,151.89,0,0
1.6009,-0.19249,-39.347,0.16709,-0.0026422,-8.8803e-22,8.7025e-20,39.336,-39.347,-0.25465,0.22925,0.024793,0.032759,-1.397e-21,1,101.19,151.99,0,0
1.5969,-0.21542,-39.414,0.16886,-0.0026824,9.6321e-21,2.3248e-19,39.393,-39.414,-0.26204,0.21549,0.024798,0.032819,-2.6306e-21,1,101.3,152.1,0,0
1.593,-0.23835,-39.481,0.17064,-0.0027225,-9.7044e-22,3.8926e-20,39.449,-39.481,-0.26944,0.20173,0.024804,0.032879,2.7122e-22,1,101.4,152.2,0,0
1.589,-0.26128,-39.548,0.17242,-0.0027627,-1.9099e-22,2.245e-20,39.506,-39.548,-0.27683,0.18796,0.024809,0.032939,-5.9925e-22,1,101.5,152.3,0,0
1.5851,-0.28422,-39.615,0.17419,-0.0028029,-2.1893e-21,7.563e-21,39.562,-39.615,-0.28422,0.1742,0.024815,0.032999,2.4609e-22,1,101.6,152.4,0,0
