"ERROR","S:0","S:1","S:2","S:3","S:4","S:5","S_Mises","S_Principal:0","S_Principal:1","S_Principal:2","U:0","U:1","U:2","vtkValidPointMask","arc_length","Points:0","Points:1","Points:2"
2.7284,-0.051163,123.58,0.47189,-0.0033653,2.627e-11,-1.8144e-12,123.37,-0.051653,0.47239,123.58,0.021575,-0.027676,-1.7991e-13,1,0,50.8,0,0
2.7284,0.13858,123.05,0.46034,-0.0036604,-1.6979e-10,-1.8879e-12,122.75,-0.032254,0.63118,123.05,0.021558,-0.027615,-1.7999e-13,1,0.1016,50.902,0,0
2.7284,0.32822,122.52,0.44883,-0.0039533,-3.5785e-10,-1.9615e-12,122.13,-0.013648,0.7907,122.52,0.021541,-0.027554,-1.8007e-13,1,0.2032,51.003,0,0
2.7284,0.51776,121.99,0.43737,-0.0042438,-5.3792e-10,-2.035e-12,121.51,0.0041658,0.95097,121.99,0.021524,-0.027493,-1.8015e-13,1,0.3048,51.105,0,0
2.7284,0.70721,121.46,0.42595,-0.004532,-7.0999e-10,-2.1086e-12,120.89,0.021188,1.112,121.46,0.021507,-0.027432,-1.8023e-13,1,0.4064,51.206,0,0
2.7284,0.89655,120.94,0.41457,-0.0048179,-8.7405e-10,-2.1821e-12,120.28,0.037417,1.2737,120.94,0.02149,-0.027371,-1.8031e-13,1,0.508,51.308,0,0
2.7284,1.0858,120.41,0.40324,-0.0051015,-1.0301e-09,-2.2556e-12,119.66,0.052854,1.4362,120.41,0.021474,-0.027311,-1.804e-13,1,0.6096,51.41,0,0
2.7284,1.2749,119.88,0.39195,-0.0053828,-1.1782e-09,-2.3292e-12,119.05,0.0675,1.5994,119.88,0.021457,-0.02725,-1.8048e-13,1,0.7112,51.511,0,0
2.7284,1.464,119.35,0.3807,-0.0056618,-1.3183e-09,-2.4027e-12,118.43,0.081353,1.7634,119.35,0.021441,-0.027189,-1.8056e-13,1,0.8128,51.613,0,0
2.7284,1.653,118.83,0.3695,-0.0059385,-1.4504e-09,-2.4763e-12,117.82,0.094414,1.928,118.83,0.021425,-0.027128,-1.8064e-13,1,0.9144,51.714,0,0
2.7284,1.8418,118.3,0.35834,-0.0062129,-1.5744e-09,-2.5498e-12,117.2,0.10668,2.0935,118.3,0.021409,-0.027067,-1.8072e-13,1,1.016,51.816,0,0
2.7284,2.0306,117.77,0.34723,-0.0064849,-1.6905e-09,-2.6234e-12,116.59,0.11816,2.2596,117.77,0.021393,-0.027006,-1.808e-13,1,1.1176,51.918,0,0
2.7284,2.2192,117.25,0.33616,-0.0067547,-1.7986e-09,-2.6969e-12,115.97,0.12884,2.4265,117.25,0.021378,-0.026945,-1.8088e-13,1,1.2192,52.019,0,0
2.7284,2.4078,116.72,0.32513,-0.0070221,-1.8987e-09,-2.7704e-12,115.36,0.13874,2.5942,116.72,0.021362,-0.026884,-1.8096e-13,1,1.3208,52.121,0,0
2.7284,2.5962,116.19,0.31415,-0.0072872,-1.9908e-09,-2.844e-12,114.75,0.14784,2.7626,116.19,0.021347,-0.026823,-1.8105e-13,1,1.4224,52.222,0,0
2.7284,2.7846,115.67,0.30321,-0.00755,-2.0749e-09,-2.9175e-12,114.14,0.15614,2.9317,115.67,0.021332,-0.026762,-1.8113e-13,1,1.524,52.324,0,0
2.7284,2.9729,115.14,0.29231,-0.0078105,-2.151e-09,-2.9911e-12,113.53,0.16366,3.1015,115.14,0.021317,-0.026701,-1.8121e-13,1,1.6256,52.426,0,0
2.7284,3.161,114.61,0.28146,-0.0080687,-2.2191e-09,-3.0646e-12,112.92,0.17038,3.2721,114.61,0.021302,-0.026641,-1.8129e-13,1,1.7272,52.527,0,0
2.7284,3.3491,114.09,0.27065,-0.0083246,-2.2792e-09,-3.1382e-12,112.31,0.17632,3.4434,114.09,0.021287,-0.02658,-1.8137e-13,1,1.8288,52.629,0,0
2.7284,3.5371,113.56,0.25988,-0.0085781,-2.3313e-09,-3.2117e-12,111.7,0.18146,3.6155,113.56,0.021273,-0.026519,-1.8145e-13,1,1.9304,52.73,0,0
2.7284,3.7249,113.04,0.24916,-0.0088294,-2.3754e-09,-3.2852e-12,111.09,0.1858,3.7883,113.04,0.021259,-0.026458,-1.8153e-13,1,2.032,52.832,0,0
2.7284,3.9127,112.51,0.23848,-0.0090783,-2.4115e-09,-3.3588e-12,110.48,0.18936,3.9618,112.51,0.021245,-0.026397,-1.8162e-13,1,2.1336,52.934,0,0
2.7284,4.1004,111.98,0.22785,-0.0093249,-2.4396e-09,-3.4323e-12,109.87,0.19212,4.1361,111.98,0.021231,-0.026336,-1.817e-13,1,2.2352,53.035,0,0
2.7284,4.288,111.46,0.21726,-0.0095692,-2.4597e-09,-3.5059e-12,109.26,0.19409,4.3111,111.46,0.021217,-0.026275,-1.8178e-13,1,2.3368,53.137,0,0
2.7284,4.4754,110.93,0.20671,-0.0098112,-2.4718e-09,-3.5794e-12,108.65,0.19527,4.4869,110.93,0.021203,-0.026214,-1.8186e-13,1,2.4384,53.238,0,0
2.7284,4.6628,110.41,0.19621,-0.010051,-2.4759e-09,-3.653e-12,108.05,0.19566,4.6634,110.41,0.02119,-0.026153,-1.8194e-13,1,2.54,53.34,0,0
2.7284,4.8501,109.88,0.18575,-0.010288,-2.472e-09,-3.7265e-12,107.44,0.19525,4.8406,109.88,0.021176,-0.026092,-1.8202e-13,1,2.6416,53.442,0,0
2.7284,5.0373,109.36,0.17533,-0.010523,-2.4602e-09,-3.8e-12,106.83,0.19405,5.0186,109.36,0.021163,-0.026031,-1.821e-13,1,2.7432,53.543,0,0
2.7284,5.2244,108.83,0.16496,-0.010756,-2.4403e-09,-3.8736e-12,106.23,0.19206,5.1973,108.83,0.02115,-0.025971,-1.8218e-13,1,2.8448,53.645,0,0
2.7284,5.4113,108.31,0.15463,-0.010986,-2.4124e-09,-3.9471e-12,105.62,0.18928,5.3767,108.31,0.021137,-0.02591,-1.8227e-13,1,2.9464,53.746,0,0
2.7284,5.5982,107.78,0.14435,-0.011214,-2.3765e-09,-4.0207e-12,105.02,0.18571,5.5569,107.78,0.021125,-0.025849,-1.8235e-13,1,3.048,53.848,0,0
2.7284,5.785,107.26,0.13411,-0.01144,-2.3327e-09,-4.0942e-12,104.42,0.18134,5.7378,107.26,0.021112,-0.025788,-1.8243e-13,1,3.1496,53.95,0,0
2.7284,5.9717,106.73,0.12391,-0.011664,-2.2808e-09,-4.1677e-12,103.81,0.17618,5.9194,106.73,0.0211,-0.025727,-1.8251e-13,1,3.2512,54.051,0,0
2.7284,6.1583,106.21,0.11376,-0.011885,-2.2209e-09,-4.2413e-12,103.21,0.17023,6.1018,106.21,0.021088,-0.025666,-1.8259e-13,1,3.3528,54.153,0,0
2.7284,6.3448,105.69,0.10365,-0.012103,-2.1531e-09,-4.3148e-12,102.61,0.16349,6.2849,105.69,0.021076,-0.025605,-1.8267e-13,1,3.4544,54.254,0,0
2.7284,6.5312,105.16,0.093584,-0.01232,-2.0772e-09,-4.3884e-12,102.01,0.15595,6.4688,105.16,0.021064,-0.025544,-1.8275e-13,1,3.556,54.356,0,0
2.7284,6.7175,104.64,0.083562,-0.012534,-1.9934e-09,-4.4619e-12,101.4,0.14763,6.6534,104.64,0.021052,-0.025483,-1.8284e-13,1,3.6576,54.458,0,0
2.7284,6.9037,104.11,0.073583,-0.012746,-1.9015e-09,-4.5355e-12,100.8,0.13851,6.8388,104.11,0.021041,-0.025422,-1.8292e-13,1,3.7592,54.559,0,0
2.7284,7.0898,103.59,0.063648,-0.012955,-1.8016e-09,-4.609e-12,100.2,0.1286,7.0248,103.59,0.02103,-0.025362,-1.83e-13,1,3.8608,54.661,0,0
2.7284,7.2758,103.07,0.053757,-0.013163,-1.6938e-09,-4.6825e-12,99.603,0.11789,7.2116,103.07,0.021018,-0.025301,-1.8308e-13,1,3.9624,54.762,0,0
2.7284,7.4617,102.54,0.04391,-0.013367,-1.5779e-09,-4.7561e-12,99.004,0.1064,7.3992,102.54,0.021007,-0.02524,-1.8316e-13,1,4.064,54.864,0,0
2.7284,7.6475,102.02,0.034106,-0.01357,-1.4541e-09,-4.8296e-12,98.405,0.094109,7.5875,102.02,0.020997,-0.025179,-1.8324e-13,1,4.1656,54.966,0,0
2.7284,7.8332,101.5,0.024346,-0.01377,-1.3223e-09,-4.9032e-12,97.806,0.081028,7.7765,101.5,0.020986,-0.025118,-1.8332e-13,1,4.2672,55.067,0,0
2.7284,8.0188,100.97,0.01463,-0.013968,-1.1824e-09,-4.9767e-12,97.208,0.067156,7.9663,100.97,0.020975,-0.025057,-1.834e-13,1,4.3688,55.169,0,0
2.7284,8.2043,100.45,0.0049574,-0.014164,-1.0346e-09,-5.0502e-12,96.611,0.052492,8.1568,100.45,0.020965,-0.024996,-1.8349e-13,1,4.4704,55.27,0,0
2.7284,8.3897,99.927,-0.0046716,-0.014357,-8.7873e-10,-5.1238e-12,96.014,0.037035,8.348,99.927,0.020955,-0.024935,-1.8357e-13,1,4.572,55.372,0,0
2.7284,8.575,99.404,-0.014256,-0.014548,-7.149e-10,-5.1973e-12,95.418,0.020787,8.54,99.404,0.020945,-0.024874,-1.8365e-13,1,4.6736,55.474,0,0
2.7284,8.7602,98.881,-0.023798,-0.014736,-5.4306e-10,-5.2709e-12,94.822,0.003746,8.7327,98.881,0.020935,-0.024813,-1.8373e-13,1,4.7752,55.575,0,0
2.7284,8.9454,98.359,-0.033296,-0.014923,-3.6323e-10,-5.3444e-12,94.226,-0.014087,8.9261,98.359,0.020925,-0.024752,-1.8381e-13,1,4.8768,55.677,0,0
2.7284,9.1304,97.836,-0.04275,-0.015107,-1.754e-10,-5.418e-12,93.631,-0.032712,9.1203,97.836,0.020916,-0.024692,-1.8389e-13,1,4.9784,55.778,0,0
2.7284,9.3162,97.311,-0.052187,-0.01542,2.1012e-11,-5.4915e-12,93.034,-0.052187,9.3162,97.311,0.020906,-0.02463,-1.8397e-13,1,5.08,55.88,0,0
2.7273,9.4231,96.907,-0.051758,-0.014985,2.0871e-11,-5.4418e-12,92.585,-0.051757,9.4231,96.907,0.020897,-0.024569,-1.8405e-13,1,5.1816,55.982,0,0
2.7262,9.5301,96.504,-0.051365,-0.014551,2.073e-11,-5.392e-12,92.137,-0.051362,9.5301,96.504,0.020888,-0.024508,-1.8413e-13,1,5.2832,56.083,0,0
2.7251,9.6372,96.1,-0.051005,-0.014119,2.0589e-11,-5.3423e-12,91.689,-0.051,9.6372,96.1,0.020879,-0.024448,-1.842e-13,1,5.3848,56.185,0,0
2.724,9.7442,95.696,-0.050679,-0.013689,2.0448e-11,-5.2926e-12,91.241,-0.050673,9.7442,95.696,0.02087,-0.024387,-1.8428e-13,1,5.4864,56.286,0,0
2.7229,9.8513,95.292,-0.050387,-0.01326,2.0306e-11,-5.2428e-12,90.794,-0.05038,9.8513,95.292,0.020861,-0.024326,-1.8436e-13,1,5.588,56.388,0,0
2.7218,9.9585,94.888,-0.05013,-0.012833,2.0165e-11,-5.1931e-12,90.347,-0.050121,9.9585,94.888,0.020852,-0.024265,-1.8443e-13,1,5.6896,56.49,0,0
2.7207,10.066,94.484,-0.049906,-0.012408,2.0024e-11,-5.1433e-12,89.9,-0.049897,10.066,94.484,0.020843,-0.024204,-1.8451e-13,1,5.7912,56.591,0,0
2.7196,10.173,94.08,-0.049716,-0.011985,1.9883e-11,-5.0936e-12,89.454,-0.049706,10.173,94.08,0.020835,-0.024143,-1.8459e-13,1,5.8928,56.693,0,0
2.7185,10.28,93.676,-0.049561,-0.011563,1.9742e-11,-5.0439e-12,89.007,-0.04955,10.28,93.676,0.020826,-0.024082,-1.8466e-13,1,5.9944,56.794,0,0
2.7174,10.387,93.272,-0.04944,-0.011143,1.9601e-11,-4.9941e-12,88.561,-0.049428,10.387,93.272,0.020818,-0.024021,-1.8474e-13,1,6.096,56.896,0,0
2.7163,10.495,92.868,-0.049352,-0.010724,1.946e-11,-4.9444e-12,88.115,-0.049339,10.495,92.868,0.02081,-0.02396,-1.8482e-13,1,6.1976,56.998,0,0
2.7152,10.602,92.464,-0.049299,-0.010307,1.9319e-11,-4.8946e-12,87.67,-0.049285,10.602,92.464,0.020802,-0.023899,-1.8489e-13,1,6.2992,57.099,0,0
2.7141,10.709,92.06,-0.04928,-0.0098919,1.9178e-11,-4.8449e-12,87.225,-0.049266,10.709,92.06,0.020794,-0.023838,-1.8497e-13,1,6.4008,57.201,0,0
2.713,10.817,91.656,-0.049295,-0.0094784,1.9037e-11,-4.7951e-12,86.78,-0.04928,10.817,91.656,0.020786,-0.023777,-1.8505e-13,1,6.5024,57.302,0,0
2.7119,10.924,91.252,-0.049344,-0.0090666,1.8896e-11,-4.7454e-12,86.335,-0.049328,10.924,91.252,0.020778,-0.023717,-1.8512e-13,1,6.604,57.404,0,0
2.7108,11.031,90.847,-0.049427,-0.0086564,1.8755e-11,-4.6956e-12,85.89,-0.049411,11.031,90.847,0.020771,-0.023656,-1.852e-13,1,6.7056,57.506,0,0
2.7097,11.139,90.443,-0.049545,-0.0082479,1.8614e-11,-4.6459e-12,85.446,-0.049527,11.139,90.443,0.020763,-0.023595,-1.8528e-13,1,6.8072,57.607,0,0
2.7086,11.246,90.039,-0.049696,-0.0078411,1.8473e-11,-4.5962e-12,85.002,-0.049678,11.246,90.039,0.020756,-0.023534,-1.8535e-13,1,6.9088,57.709,0,0
2.7075,11.354,89.635,-0.049881,-0.007436,1.8332e-11,-4.5464e-12,84.558,-0.049863,11.354,89.635,0.020748,-0.023473,-1.8543e-13,1,7.0104,57.81,0,0
2.7064,11.462,89.23,-0.050101,-0.0070326,1.8191e-11,-4.4967e-12,84.115,-0.050082,11.462,89.23,0.020741,-0.023412,-1.8551e-13,1,7.112,57.912,0,0
2.7053,11.569,88.826,-0.050354,-0.0066308,1.8049e-11,-4.4469e-12,83.672,-0.050336,11.569,88.826,0.020734,-0.023351,-1.8558e-13,1,7.2136,58.014,0,0
2.7042,11.677,88.422,-0.050642,-0.0062307,1.7908e-11,-4.3972e-12,83.229,-0.050623,11.677,88.422,0.020727,-0.02329,-1.8566e-13,1,7.3152,58.115,0,0
2.7031,11.784,88.017,-0.050963,-0.0058322,1.7767e-11,-4.3474e-12,82.786,-0.050944,11.784,88.017,0.02072,-0.023229,-1.8574e-13,1,7.4168,58.217,0,0
2.702,11.892,87.613,-0.051319,-0.0054355,1.7626e-11,-4.2977e-12,82.344,-0.0513,11.892,87.613,0.020714,-0.023168,-1.8581e-13,1,7.5184,58.318,0,0
2.7009,12,87.208,-0.051709,-0.0050404,1.7485e-11,-4.2479e-12,81.902,-0.05169,12,87.208,0.020707,-0.023107,-1.8589e-13,1,7.62,58.42,0,0
2.6998,12.108,86.804,-0.052133,-0.004647,1.7344e-11,-4.1982e-12,81.46,-0.052114,12.108,86.804,0.0207,-0.023046,-1.8597e-13,1,7.7216,58.522,0,0
2.6987,12.215,86.399,-0.052591,-0.0042553,1.7203e-11,-4.1484e-12,81.018,-0.052572,12.215,86.399,0.020694,-0.022986,-1.8604e-13,1,7.8232,58.623,0,0
2.6976,12.323,85.994,-0.053083,-0.0038652,1.7062e-11,-4.0987e-12,80.577,-0.053064,12.323,85.994,0.020688,-0.022925,-1.8612e-13,1,7.9248,58.725,0,0
2.6965,12.431,85.59,-0.053609,-0.0034769,1.6921e-11,-4.049e-12,80.136,-0.05359,12.431,85.59,0.020682,-0.022864,-1.8619e-13,1,8.0264,58.826,0,0
2.6954,12.539,85.185,-0.054169,-0.0030901,1.678e-11,-3.9992e-12,79.695,-0.054151,12.539,85.185,0.020676,-0.022803,-1.8627e-13,1,8.128,58.928,0,0
2.6943,12.647,84.78,-0.054763,-0.0027051,1.6639e-11,-3.9495e-12,79.254,-0.054746,12.647,84.78,0.02067,-0.022742,-1.8635e-13,1,8.2296,59.03,0,0
2.6932,12.755,84.376,-0.055392,-0.0023218,1.6498e-11,-3.8997e-12,78.814,-0.055374,12.755,84.376,0.020664,-0.022681,-1.8642e-13,1,8.3312,59.131,0,0
2.6921,12.863,83.971,-0.056054,-0.0019401,1.6357e-11,-3.85e-12,78.374,-0.056037,12.863,83.971,0.020658,-0.02262,-1.865e-13,1,8.4328,59.233,0,0
2.691,12.971,83.566,-0.056751,-0.0015601,1.6216e-11,-3.8002e-12,77.934,-0.056734,12.971,83.566,0.020652,-0.022559,-1.8658e-13,1,8.5344,59.334,0,0
2.6899,13.079,83.161,-0.057481,-0.0011817,1.6075e-11,-3.7505e-12,77.495,-0.057465,13.079,83.161,0.020647,-0.022498,-1.8665e-13,1,8.636,59.436,0,0
2.6888,13.187,82.756,-0.058246,-0.00080504,1.5934e-11,-3.7007e-12,77.056,-0.058231,13.187,82.756,0.020641,-0.022437,-1.8673e-13,1,8.7376,59.538,0,0
2.6877,13.295,82.352,-0.059045,-0.00043005,1.5793e-11,-3.651e-12,76.617,-0.05903,13.295,82.352,0.020636,-0.022376,-1.8681e-13,1,8.8392,59.639,0,0
2.6866,13.403,81.947,-0.059878,-5.6721e-05,1.5651e-11,-3.6012e-12,76.178,-0.059864,13.403,81.947,0.020631,-0.022315,-1.8688e-13,1,8.9408,59.741,0,0
2.6855,13.511,81.542,-0.060745,0.00031494,1.551e-11,-3.5515e-12,75.739,-0.060731,13.511,81.542,0.020626,-0.022254,-1.8696e-13,1,9.0424,59.842,0,0
2.6844,13.62,81.137,-0.061645,0.00068492,1.5369e-11,-3.5017e-12,75.301,-0.061633,13.62,81.137,0.020621,-0.022194,-1.8704e-13,1,9.144,59.944,0,0
2.6833,13.728,80.732,-0.062581,0.0010532,1.5228e-11,-3.452e-12,74.863,-0.062569,13.728,80.732,0.020616,-0.022133,-1.8711e-13,1,9.2456,60.046,0,0
2.6822,13.836,80.327,-0.06355,0.0014199,1.5087e-11,-3.4022e-12,74.426,-0.063539,13.836,80.327,0.020611,-0.022072,-1.8719e-13,1,9.3472,60.147,0,0
2.6811,13.944,79.922,-0.064553,0.0017848,1.4946e-11,-3.3525e-12,73.988,-0.064544,13.944,79.922,0.020607,-0.022011,-1.8727e-13,1,9.4488,60.249,0,0
2.68,14.053,79.516,-0.06559,0.0021481,1.4805e-11,-3.3027e-12,73.551,-0.065582,14.053,79.516,0.020602,-0.02195,-1.8734e-13,1,9.5504,60.35,0,0
2.6789,14.161,79.111,-0.066662,0.0025098,1.4664e-11,-3.253e-12,73.114,-0.066655,14.161,79.111,0.020598,-0.021889,-1.8742e-13,1,9.652,60.452,0,0
2.6777,14.27,78.706,-0.067767,0.0028697,1.4523e-11,-3.2032e-12,72.677,-0.067761,14.27,78.706,0.020593,-0.021828,-1.875e-13,1,9.7536,60.554,0,0
2.6766,14.378,78.301,-0.068906,0.003228,1.4382e-11,-3.1535e-12,72.241,-0.068902,14.378,78.301,0.020589,-0.021767,-1.8757e-13,1,9.8552,60.655,0,0
2.6755,14.486,77.896,-0.07008,0.0035847,1.4241e-11,-3.1037e-12,71.805,-0.070077,14.486,77.896,0.020585,-0.021706,-1.8765e-13,1,9.9568,60.757,0,0
2.6744,14.595,77.49,-0.071288,0.0039396,1.41e-11,-3.054e-12,71.369,-0.071286,14.595,77.49,0.020581,-0.021645,-1.8773e-13,1,10.058,60.858,0,0
2.6733,14.704,77.083,-0.07253,0.0042195,1.3957e-11,-2.3944e-12,70.931,-0.07253,14.704,77.083,0.020577,-0.021584,-1.878e-13,1,10.16,60.96,0,0
2.6731,14.762,76.766,-0.071406,0.0044871,1.3768e-11,1.9343e-10,70.599,-0.071406,14.762,76.766,0.020573,-0.021523,-1.8788e-13,1,10.262,61.062,0,0
2.6728,14.82,76.449,-0.070294,0.0047544,1.3579e-11,3.8125e-10,70.266,-0.070293,14.82,76.449,0.02057,-0.021462,-1.8795e-13,1,10.363,61.163,0,0
2.6726,14.878,76.132,-0.069193,0.0050215,1.3389e-11,5.6108e-10,69.934,-0.069192,14.878,76.132,0.020566,-0.021401,-1.8802e-13,1,10.465,61.265,0,0
2.6724,14.937,75.816,-0.068104,0.0052883,1.32e-11,7.3291e-10,69.602,-0.068103,14.937,75.816,0.020562,-0.02134,-1.881e-13,1,10.566,61.366,0,0
2.6721,14.995,75.499,-0.067027,0.0055548,1.301e-11,8.9673e-10,69.271,-0.067026,14.995,75.499,0.020559,-0.021279,-1.8817e-13,1,10.668,61.468,0,0
2.6719,15.053,75.182,-0.065962,0.0058212,1.2821e-11,1.0526e-09,68.94,-0.06596,15.053,75.182,0.020555,-0.021218,-1.8825e-13,1,10.77,61.57,0,0
2.6716,15.111,74.865,-0.064908,0.0060872,1.2631e-11,1.2004e-09,68.608,-0.064906,15.111,74.865,0.020552,-0.021157,-1.8832e-13,1,10.871,61.671,0,0
2.6714,15.17,74.548,-0.063866,0.006353,1.2442e-11,1.3402e-09,68.277,-0.063864,15.17,74.548,0.020548,-0.021096,-1.8839e-13,1,10.973,61.773,0,0
2.6711,15.228,74.23,-0.062836,0.0066186,1.2252e-11,1.4721e-09,67.947,-0.062834,15.228,74.23,0.020545,-0.021035,-1.8847e-13,1,11.074,61.874,0,0
2.6709,15.286,73.913,-0.061817,0.0068839,1.2063e-11,1.5959e-09,67.616,-0.061815,15.286,73.913,0.020542,-0.020974,-1.8854e-13,1,11.176,61.976,0,0
2.6706,15.345,73.596,-0.06081,0.007149,1.1873e-11,1.7118e-09,67.286,-0.060808,15.345,73.596,0.020539,-0.020914,-1.8861e-13,1,11.278,62.078,0,0
2.6704,15.403,73.279,-0.059815,0.0074138,1.1684e-11,1.8196e-09,66.956,-0.059813,15.403,73.279,0.020535,-0.020853,-1.8869e-13,1,11.379,62.179,0,0
2.6701,15.462,72.962,-0.058832,0.0076783,1.1494e-11,1.9195e-09,66.626,-0.058829,15.462,72.962,0.020532,-0.020792,-1.8876e-13,1,11.481,62.281,0,0
2.6699,15.52,72.644,-0.05786,0.0079426,1.1305e-11,2.0113e-09,66.297,-0.057858,15.52,72.644,0.02053,-0.020731,-1.8883e-13,1,11.582,62.382,0,0
2.6696,15.579,72.327,-0.0569,0.0082067,1.1115e-11,2.0952e-09,65.967,-0.056898,15.579,72.327,0.020527,-0.02067,-1.8891e-13,1,11.684,62.484,0,0
2.6694,15.637,72.01,-0.055952,0.0084705,1.0926e-11,2.171e-09,65.638,-0.055949,15.637,72.01,0.020524,-0.020609,-1.8898e-13,1,11.786,62.586,0,0
2.6691,15.696,71.692,-0.055015,0.0087341,1.0737e-11,2.2389e-09,65.309,-0.055013,15.696,71.692,0.020521,-0.020548,-1.8906e-13,1,11.887,62.687,0,0
2.6689,15.754,71.375,-0.054091,0.0089974,1.0547e-11,2.2987e-09,64.981,-0.054088,15.754,71.375,0.020519,-0.020487,-1.8913e-13,1,11.989,62.789,0,0
2.6686,15.813,71.058,-0.053178,0.0092604,1.0358e-11,2.3506e-09,64.652,-0.053175,15.813,71.058,0.020516,-0.020426,-1.892e-13,1,12.09,62.89,0,0
2.6684,15.871,70.74,-0.052276,0.0095232,1.0168e-11,2.3945e-09,64.324,-0.052273,15.871,70.74,0.020514,-0.020365,-1.8928e-13,1,12.192,62.992,0,0
2.6682,15.93,70.423,-0.051387,0.0097858,9.9787e-12,2.4303e-09,63.996,-0.051383,15.93,70.423,0.020511,-0.020304,-1.8935e-13,1,12.294,63.094,0,0
2.6679,15.989,70.105,-0.050509,0.010048,9.7892e-12,2.4582e-09,63.668,-0.050506,15.989,70.105,0.020509,-0.020243,-1.8942e-13,1,12.395,63.195,0,0
2.6677,16.047,69.788,-0.049642,0.01031,9.5997e-12,2.4781e-09,63.341,-0.049639,16.047,69.788,0.020507,-0.020182,-1.895e-13,1,12.497,63.297,0,0
2.6674,16.106,69.47,-0.048788,0.010572,9.4103e-12,2.49e-09,63.014,-0.048785,16.106,69.47,0.020504,-0.020121,-1.8957e-13,1,12.598,63.398,0,0
2.6672,16.165,69.152,-0.047945,0.010834,9.2208e-12,2.4938e-09,62.686,-0.047942,16.165,69.152,0.020502,-0.02006,-1.8965e-13,1,12.7,63.5,0,0
2.6669,16.224,68.835,-0.047114,0.011095,9.0313e-12,2.4897e-09,62.36,-0.047111,16.224,68.835,0.0205,-0.019999,-1.8972e-13,1,12.802,63.602,0,0
2.6667,16.282,68.517,-0.046295,0.011356,8.8418e-12,2.4776e-09,62.033,-0.046292,16.282,68.517,0.020498,-0.019938,-1.8979e-13,1,12.903,63.703,0,0
2.6664,16.341,68.199,-0.045487,0.011617,8.6524e-12,2.4575e-09,61.707,-0.045484,16.341,68.199,0.020497,-0.019877,-1.8987e-13,1,13.005,63.805,0,0
2.6662,16.4,67.881,-0.044691,0.011877,8.4629e-12,2.4294e-09,61.38,-0.044688,16.4,67.881,0.020495,-0.019816,-1.8994e-13,1,13.106,63.906,0,0
2.6659,16.459,67.563,-0.043907,0.012138,8.2734e-12,2.3933e-09,61.054,-0.043904,16.459,67.563,0.020493,-0.019755,-1.9001e-13,1,13.208,64.008,0,0
2.6657,16.518,67.246,-0.043134,0.012398,8.084e-12,2.3492e-09,60.729,-0.043131,16.518,67.246,0.020491,-0.019695,-1.9009e-13,1,13.31,64.11,0,0
2.6654,16.577,66.928,-0.042374,0.012657,7.8945e-12,2.2971e-09,60.403,-0.042371,16.577,66.928,0.02049,-0.019634,-1.9016e-13,1,13.411,64.211,0,0
2.6652,16.636,66.61,-0.041625,0.012917,7.705e-12,2.237e-09,60.078,-0.041622,16.636,66.61,0.020488,-0.019573,-1.9023e-13,1,13.513,64.313,0,0
2.6649,16.695,66.292,-0.040887,0.013176,7.5156e-12,2.1689e-09,59.753,-0.040885,16.695,66.292,0.020487,-0.019512,-1.9031e-13,1,13.614,64.414,0,0
2.6647,16.754,65.974,-0.040162,0.013435,7.3261e-12,2.0928e-09,59.428,-0.040159,16.754,65.974,0.020486,-0.019451,-1.9038e-13,1,13.716,64.516,0,0
2.6644,16.813,65.656,-0.039448,0.013694,7.1366e-12,2.0087e-09,59.104,-0.039445,16.813,65.656,0.020484,-0.01939,-1.9046e-13,1,13.818,64.618,0,0
2.6642,16.872,65.338,-0.038746,0.013953,6.9472e-12,1.9166e-09,58.779,-0.038743,16.872,65.338,0.020483,-0.019329,-1.9053e-13,1,13.919,64.719,0,0
2.6639,16.931,65.019,-0.038055,0.014211,6.7577e-12,1.8165e-09,58.455,-0.038053,16.931,65.019,0.020482,-0.019268,-1.906e-13,1,14.021,64.821,0,0
2.6637,16.99,64.701,-0.037376,0.014469,6.5682e-12,1.7084e-09,58.131,-0.037374,16.99,64.701,0.020481,-0.019207,-1.9068e-13,1,14.122,64.922,0,0
2.6635,17.049,64.383,-0.036709,0.014727,6.3787e-12,1.5923e-09,57.808,-0.036707,17.049,64.383,0.02048,-0.019146,-1.9075e-13,1,14.224,65.024,0,0
2.6632,17.108,64.065,-0.036054,0.014985,6.1893e-12,1.4682e-09,57.484,-0.036052,17.108,64.065,0.020479,-0.019085,-1.9082e-13,1,14.326,65.126,0,0
2.663,17.167,63.747,-0.03541,0.015242,5.9998e-12,1.3361e-09,57.161,-0.035409,17.167,63.747,0.020478,-0.019024,-1.909e-13,1,14.427,65.227,0,0
2.6627,17.227,63.428,-0.034778,0.015499,5.8103e-12,1.1961e-09,56.838,-0.034777,17.227,63.428,0.020477,-0.018963,-1.9097e-13,1,14.529,65.329,0,0
2.6625,17.286,63.11,-0.034158,0.015756,5.6209e-12,1.048e-09,56.515,-0.034157,17.286,63.11,0.020477,-0.018902,-1.9104e-13,1,14.63,65.43,0,0
2.6622,17.345,62.792,-0.03355,0.016013,5.4314e-12,8.9191e-10,56.193,-0.033549,17.345,62.792,0.020476,-0.018841,-1.9112e-13,1,14.732,65.532,0,0
2.662,17.404,62.473,-0.032953,0.016269,5.2419e-12,7.2783e-10,55.87,-0.032952,17.404,62.473,0.020476,-0.01878,-1.9119e-13,1,14.834,65.634,0,0
2.6617,17.464,62.155,-0.032368,0.016525,5.0524e-12,5.5576e-10,55.548,-0.032367,17.464,62.155,0.020475,-0.018719,-1.9127e-13,1,14.935,65.735,0,0
2.6615,17.523,61.836,-0.031795,0.016781,4.863e-12,3.7569e-10,55.226,-0.031794,17.523,61.836,0.020475,-0.018658,-1.9134e-13,1,15.037,65.837,0,0
2.6612,17.583,61.518,-0.031233,0.017037,4.6735e-12,1.8763e-10,54.905,-0.031233,17.583,61.518,0.020474,-0.018597,-1.9141e-13,1,15.138,65.938,0,0
2.661,17.642,61.197,-0.03068,0.017255,4.4834e-12,-8.3445e-12,54.581,-0.03068,17.642,61.197,0.020474,-0.018536,-1.9149e-13,1,15.24,66.04,0,0
2.6631,17.669,60.94,-0.030249,0.017453,4.5043e-12,1.8773e-10,54.327,-0.030249,17.669,60.94,0.020474,-0.018475,-1.9156e-13,1,15.342,66.142,0,0
2.6651,17.697,60.682,-0.029818,0.01765,4.5253e-12,3.758e-10,54.072,-0.029818,17.697,60.682,0.020474,-0.018414,-1.9163e-13,1,15.443,66.243,0,0
2.6672,17.724,60.424,-0.029386,0.017846,4.5462e-12,5.5588e-10,53.818,-0.029386,17.724,60.424,0.020474,-0.018353,-1.917e-13,1,15.545,66.345,0,0
2.6692,17.751,60.166,-0.028954,0.018041,4.5671e-12,7.2796e-10,53.563,-0.028954,17.751,60.166,0.020473,-0.018292,-1.9177e-13,1,15.646,66.446,0,0
2.6713,17.779,59.908,-0.028522,0.018235,4.5881e-12,8.9203e-10,53.31,-0.028522,17.779,59.908,0.020473,-0.018231,-1.9184e-13,1,15.748,66.548,0,0
2.6734,17.806,59.651,-0.028089,0.018429,4.609e-12,1.0481e-09,53.056,-0.028089,17.806,59.651,0.020473,-0.01817,-1.9191e-13,1,15.85,66.65,0,0
2.6754,17.834,59.393,-0.027657,0.018621,4.6299e-12,1.1962e-09,52.803,-0.027657,17.834,59.393,0.020473,-0.018109,-1.9198e-13,1,15.951,66.751,0,0
2.6775,17.861,59.135,-0.027224,0.018813,4.6508e-12,1.3363e-09,52.55,-0.027223,17.861,59.135,0.020474,-0.018048,-1.9205e-13,1,16.053,66.853,0,0
2.6796,17.889,58.877,-0.02679,0.019004,4.6718e-12,1.4684e-09,52.297,-0.02679,17.889,58.877,0.020474,-0.017987,-1.9212e-13,1,16.154,66.954,0,0
2.6816,17.916,58.619,-0.026357,0.019195,4.6927e-12,1.5925e-09,52.044,-0.026357,17.916,58.619,0.020474,-0.017926,-1.9219e-13,1,16.256,67.056,0,0
2.6837,17.943,58.361,-0.025923,0.019384,4.7136e-12,1.7086e-09,51.792,-0.025923,17.943,58.361,0.020474,-0.017865,-1.9226e-13,1,16.358,67.158,0,0
2.6858,17.971,58.103,-0.025489,0.019573,4.7346e-12,1.8167e-09,51.539,-0.025488,17.971,58.103,0.020474,-0.017804,-1.9233e-13,1,16.459,67.259,0,0
2.6878,17.999,57.845,-0.025054,0.01976,4.7555e-12,1.9168e-09,51.288,-0.025054,17.998,57.845,0.020475,-0.017743,-1.924e-13,1,16.561,67.361,0,0
2.6899,18.026,57.587,-0.02462,0.019947,4.7764e-12,2.0089e-09,51.036,-0.024619,18.026,57.587,0.020475,-0.017682,-1.9247e-13,1,16.662,67.462,0,0
2.692,18.054,57.329,-0.024185,0.020134,4.7973e-12,2.093e-09,50.784,-0.024184,18.054,57.329,0.020476,-0.017621,-1.9254e-13,1,16.764,67.564,0,0
2.694,18.081,57.071,-0.023749,0.020319,4.8183e-12,2.1691e-09,50.533,-0.023749,18.081,57.071,0.020476,-0.01756,-1.9261e-13,1,16.866,67.666,0,0
2.6961,18.109,56.813,-0.023314,0.020503,4.8392e-12,2.2372e-09,50.282,-0.023314,18.109,56.813,0.020477,-0.017499,-1.9268e-13,1,16.967,67.767,0,0
2.6982,18.136,56.555,-0.022878,0.020687,4.8601e-12,2.2973e-09,50.032,-0.022878,18.136,56.555,0.020477,-0.017438,-1.9275e-13,1,17.069,67.869,0,0
2.7002,18.164,56.297,-0.022442,0.02087,4.8811e-12,2.3495e-09,49.781,-0.022442,18.164,56.297,0.020478,-0.017377,-1.9282e-13,1,17.17,67.97,0,0
2.7023,18.192,56.039,-0.022006,0.021052,4.902e-12,2.3936e-09,49.531,-0.022005,18.192,56.039,0.020479,-0.017316,-1.9289e-13,1,17.272,68.072,0,0
2.7044,18.219,55.781,-0.021569,0.021233,4.9229e-12,2.4297e-09,49.281,-0.021569,18.219,55.781,0.02048,-0.017255,-1.9296e-13,1,17.374,68.174,0,0
2.7064,18.247,55.523,-0.021132,0.021414,4.9438e-12,2.4578e-09,49.031,-0.021132,18.247,55.523,0.02048,-0.017194,-1.9303e-13,1,17.475,68.275,0,0
2.7085,18.275,55.265,-0.020695,0.021593,4.9648e-12,2.478e-09,48.782,-0.020695,18.275,55.265,0.020481,-0.017133,-1.931e-13,1,17.577,68.377,0,0
2.7106,18.302,55.007,-0.020258,0.021772,4.9857e-12,2.4901e-09,48.533,-0.020257,18.302,55.007,0.020482,-0.017072,-1.9317e-13,1,17.678,68.478,0,0
2.7126,18.33,54.749,-0.01982,0.02195,5.0066e-12,2.4942e-09,48.284,-0.01982,18.33,54.749,0.020483,-0.017011,-1.9324e-13,1,17.78,68.58,0,0
2.7147,18.358,54.491,-0.019382,0.022127,5.0276e-12,2.4904e-09,48.035,-0.019382,18.358,54.491,0.020484,-0.01695,-1.9331e-13,1,17.882,68.682,0,0
2.7168,18.386,54.232,-0.018944,0.022303,5.0485e-12,2.4785e-09,47.786,-0.018943,18.386,54.232,0.020485,-0.016889,-1.9338e-13,1,17.983,68.783,0,0
2.7188,18.413,53.974,-0.018505,0.022479,5.0694e-12,2.4586e-09,47.538,-0.018505,18.413,53.974,0.020486,-0.016828,-1.9345e-13,1,18.085,68.885,0,0
2.7209,18.441,53.716,-0.018066,0.022653,5.0903e-12,2.4308e-09,47.29,-0.018066,18.441,53.716,0.020487,-0.016767,-1.9352e-13,1,18.186,68.986,0,0
2.723,18.469,53.458,-0.017627,0.022827,5.1113e-12,2.3949e-09,47.042,-0.017627,18.469,53.458,0.020489,-0.016706,-1.9359e-13,1,18.288,69.088,0,0
2.725,18.497,53.199,-0.017188,0.023,5.1322e-12,2.3511e-09,46.795,-0.017187,18.497,53.199,0.02049,-0.016645,-1.9366e-13,1,18.39,69.19,0,0
2.7271,18.525,52.941,-0.016748,0.023173,5.1531e-12,2.2992e-09,46.548,-0.016748,18.525,52.941,0.020491,-0.016584,-1.9373e-13,1,18.491,69.291,0,0
2.7291,18.553,52.683,-0.016308,0.023344,5.1741e-12,2.2394e-09,46.301,-0.016308,18.553,52.683,0.020493,-0.016523,-1.938e-13,1,18.593,69.393,0,0
2.7312,18.58,52.425,-0.015868,0.023514,5.195e-12,2.1715e-09,46.054,-0.015868,18.58,52.425,0.020494,-0.016463,-1.9387e-13,1,18.694,69.494,0,0
2.7333,18.608,52.166,-0.015428,0.023684,5.2159e-12,2.0957e-09,45.807,-0.015427,18.608,52.166,0.020496,-0.016402,-1.9394e-13,1,18.796,69.596,0,0
2.7353,18.636,51.908,-0.014987,0.023853,5.2368e-12,2.0119e-09,45.561,-0.014987,18.636,51.908,0.020497,-0.016341,-1.9401e-13,1,18.898,69.698,0,0
2.7374,18.664,51.65,-0.014546,0.024021,5.2578e-12,1.92e-09,45.315,-0.014546,18.664,51.65,0.020499,-0.01628,-1.9408e-13,1,18.999,69.799,0,0
2.7395,18.692,51.391,-0.014104,0.024189,5.2787e-12,1.8202e-09,45.069,-0.014104,18.692,51.391,0.0205,-0.016219,-1.9415e-13,1,19.101,69.901,0,0
2.7415,18.72,51.133,-0.013663,0.024355,5.2996e-12,1.7124e-09,44.824,-0.013663,18.72,51.133,0.020502,-0.016158,-1.9422e-13,1,19.202,70.002,0,0
2.7436,18.748,50.874,-0.013221,0.024521,5.3206e-12,1.5965e-09,44.578,-0.013221,18.748,50.874,0.020504,-0.016097,-1.9429e-13,1,19.304,70.104,0,0
2.7457,18.776,50.616,-0.012779,0.024685,5.3415e-12,1.4727e-09,44.333,-0.012779,18.776,50.616,0.020506,-0.016036,-1.9436e-13,1,19.406,70.206,0,0
2.7477,18.804,50.358,-0.012337,0.02485,5.3624e-12,1.3409e-09,44.088,-0.012336,18.804,50.358,0.020507,-0.015975,-1.9443e-13,1,19.507,70.307,0,0
2.7498,18.832,50.099,-0.011894,0.025013,5.3833e-12,1.2011e-09,43.844,-0.011894,18.832,50.099,0.020509,-0.015914,-1.945e-13,1,19.609,70.409,0,0
2.7519,18.86,49.841,-0.011451,0.025175,5.4043e-12,1.0532e-09,43.6,-0.011451,18.86,49.841,0.020511,-0.015853,-1.9457e-13,1,19.71,70.51,0,0
2.7539,18.888,49.582,-0.011008,0.025337,5.4252e-12,8.9742e-10,43.355,-0.011008,18.888,49.582,0.020513,-0.015792,-1.9464e-13,1,19.812,70.612,0,0
2.756,18.916,49.324,-0.010564,0.025497,5.4461e-12,7.336e-10,43.112,-0.010564,18.916,49.324,0.020515,-0.015731,-1.9471e-13,1,19.914,70.714,0,0
2.7581,18.945,49.065,-0.01012,0.025657,5.4671e-12,5.6179e-10,42.868,-0.01012,18.945,49.065,0.020517,-0.01567,-1.9478e-13,1,20.015,70.815,0,0
2.7601,18.973,48.807,-0.0096764,0.025816,5.488e-12,3.8198e-10,42.625,-0.0096763,18.973,48.807,0.020519,-0.015609,-1.9485e-13,1,20.117,70.917,0,0
2.7622,19.001,48.548,-0.0092321,0.025975,5.5089e-12,1.9417e-10,42.381,-0.009232,19.001,48.548,0.020522,-0.015548,-1.9492e-13,1,20.218,71.018,0,0
2.7643,19.029,48.288,-0.0087856,0.026118,5.5296e-12,-2.2475e-12,42.137,-0.0087856,19.029,48.288,0.020524,-0.015486,-1.9499e-13,1,20.32,71.12,0,0
2.7699,19.036,48.073,-0.0086175,0.02605,5.4536e-12,-2.3152e-12,41.938,-0.0086175,19.036,48.073,0.020526,-0.015425,-1.9506e-13,1,20.422,71.222,0,0
2.7754,19.044,47.858,-0.0084501,0.025982,5.3775e-12,-2.3829e-12,41.738,-0.0084501,19.044,47.858,0.020528,-0.015364,-1.9512e-13,1,20.523,71.323,0,0
2.781,19.051,47.643,-0.0082833,0.025915,5.3015e-12,-2.4506e-12,41.539,-0.0082833,19.051,47.643,0.020531,-0.015303,-1.9519e-13,1,20.625,71.425,0,0
2.7866,19.058,47.428,-0.0081171,0.025848,5.2255e-12,-2.5183e-12,41.34,-0.0081171,19.058,47.428,0.020533,-0.015242,-1.9525e-13,1,20.726,71.526,0,0
2.7921,19.066,47.213,-0.0079515,0.025781,5.1494e-12,-2.586e-12,41.142,-0.0079515,19.066,47.213,0.020535,-0.015181,-1.9532e-13,1,20.828,71.628,0,0
2.7977,19.073,46.997,-0.0077866,0.025714,5.0734e-12,-2.6538e-12,40.944,-0.0077866,19.073,46.997,0.020538,-0.01512,-1.9538e-13,1,20.93,71.73,0,0
2.8033,19.08,46.782,-0.0076223,0.025648,4.9973e-12,-2.7215e-12,40.746,-0.0076223,19.08,46.782,0.02054,-0.015059,-1.9545e-13,1,21.031,71.831,0,0
2.8089,19.087,46.567,-0.0074586,0.025582,4.9213e-12,-2.7892e-12,40.548,-0.0074586,19.087,46.567,0.020543,-0.014998,-1.9551e-13,1,21.133,71.933,0,0
2.8144,19.095,46.352,-0.0072956,0.025517,4.8453e-12,-2.8569e-12,40.351,-0.0072955,19.095,46.352,0.020545,-0.014937,-1.9558e-13,1,21.234,72.034,0,0
2.82,19.102,46.137,-0.0071331,0.025451,4.7692e-12,-2.9246e-12,40.154,-0.0071331,19.102,46.137,0.020548,-0.014876,-1.9564e-13,1,21.336,72.136,0,0
2.8256,19.109,45.922,-0.0069714,0.025386,4.6932e-12,-2.9923e-12,39.957,-0.0069714,19.109,45.922,0.02055,-0.014815,-1.957e-13,1,21.438,72.238,0,0
2.8311,19.117,45.706,-0.0068102,0.025321,4.6171e-12,-3.06e-12,39.76,-0.0068102,19.117,45.706,0.020553,-0.014754,-1.9577e-13,1,21.539,72.339,0,0
2.8367,19.124,45.491,-0.0066497,0.025257,4.5411e-12,-3.1277e-12,39.564,-0.0066497,19.124,45.491,0.020555,-0.014693,-1.9583e-13,1,21.641,72.441,0,0
2.8423,19.131,45.276,-0.0064899,0.025192,4.4651e-12,-3.1954e-12,39.368,-0.0064898,19.131,45.276,0.020558,-0.014632,-1.959e-13,1,21.742,72.542,0,0
2.8479,19.139,45.061,-0.0063306,0.025128,4.389e-12,-3.2631e-12,39.172,-0.0063306,19.139,45.061,0.020561,-0.014571,-1.9596e-13,1,21.844,72.644,0,0
2.8534,19.146,44.846,-0.006172,0.025065,4.313e-12,-3.3308e-12,38.977,-0.006172,19.146,44.846,0.020564,-0.01451,-1.9603e-13,1,21.946,72.746,0,0
2.859,19.153,44.63,-0.006014,0.025001,4.2369e-12,-3.3985e-12,38.782,-0.006014,19.153,44.63,0.020566,-0.014449,-1.9609e-13,1,22.047,72.847,0,0
2.8646,19.161,44.415,-0.0058567,0.024938,4.1609e-12,-3.4662e-12,38.587,-0.0058566,19.161,44.415,0.020569,-0.014388,-1.9616e-13,1,22.149,72.949,0,0
2.8701,19.168,44.2,-0.0056999,0.024875,4.0849e-12,-3.5339e-12,38.392,-0.0056999,19.168,44.2,0.020572,-0.014327,-1.9622e-13,1,22.25,73.05,0,0
2.8757,19.176,43.984,-0.0055439,0.024812,4.0088e-12,-3.6016e-12,38.198,-0.0055438,19.176,43.984,0.020575,-0.014266,-1.9629e-13,1,22.352,73.152,0,0
2.8813,19.183,43.769,-0.0053884,0.02475,3.9328e-12,-3.6693e-12,38.004,-0.0053884,19.183,43.769,0.020578,-0.014205,-1.9635e-13,1,22.454,73.254,0,0
2.8869,19.19,43.554,-0.0052336,0.024688,3.8567e-12,-3.737e-12,37.81,-0.0052336,19.19,43.554,0.020581,-0.014144,-1.9641e-13,1,22.555,73.355,0,0
2.8924,19.198,43.338,-0.0050794,0.024626,3.7807e-12,-3.8047e-12,37.617,-0.0050794,19.198,43.339,0.020584,-0.014083,-1.9648e-13,1,22.657,73.457,0,0
2.898,19.205,43.123,-0.0049258,0.024564,3.7047e-12,-3.8725e-12,37.424,-0.0049258,19.205,43.123,0.020587,-0.014022,-1.9654e-13,1,22.758,73.558,0,0
2.9036,19.213,42.908,-0.0047729,0.024503,3.6286e-12,-3.9402e-12,37.231,-0.0047729,19.213,42.908,0.02059,-0.013961,-1.9661e-13,1,22.86,73.66,0,0
2.9091,19.22,42.692,-0.0046206,0.024442,3.5526e-12,-4.0079e-12,37.038,-0.0046206,19.22,42.692,0.020593,-0.0139,-1.9667e-13,1,22.962,73.762,0,0
2.9147,19.227,42.477,-0.004469,0.024381,3.4766e-12,-4.0756e-12,36.846,-0.0044689,19.227,42.477,0.020596,-0.013839,-1.9674e-13,1,23.063,73.863,0,0
2.9203,19.235,42.262,-0.0043179,0.024321,3.4005e-12,-4.1433e-12,36.654,-0.0043179,19.235,42.262,0.020599,-0.013778,-1.968e-13,1,23.165,73.965,0,0
2.9259,19.242,42.046,-0.0041675,0.024261,3.3245e-12,-4.211e-12,36.462,-0.0041675,19.242,42.046,0.020602,-0.013717,-1.9687e-13,1,23.266,74.066,0,0
2.9314,19.25,41.831,-0.0040178,0.024201,3.2484e-12,-4.2787e-12,36.271,-0.0040178,19.25,41.831,0.020606,-0.013656,-1.9693e-13,1,23.368,74.168,0,0
2.937,19.257,41.615,-0.0038686,0.024141,3.1724e-12,-4.3464e-12,36.079,-0.0038686,19.257,41.615,0.020609,-0.013595,-1.9699e-13,1,23.47,74.27,0,0
2.9426,19.265,41.4,-0.0037201,0.024082,3.0964e-12,-4.4141e-12,35.889,-0.0037201,19.265,41.4,0.020612,-0.013534,-1.9706e-13,1,23.571,74.371,0,0
2.9481,19.272,41.184,-0.0035723,0.024023,3.0203e-12,-4.4818e-12,35.698,-0.0035722,19.272,41.185,0.020616,-0.013473,-1.9712e-13,1,23.673,74.473,0,0
2.9537,19.279,40.969,-0.003425,0.023964,2.9443e-12,-4.5495e-12,35.508,-0.003425,19.279,40.969,0.020619,-0.013412,-1.9719e-13,1,23.774,74.574,0,0
2.9593,19.287,40.754,-0.0032784,0.023906,2.8682e-12,-4.6172e-12,35.317,-0.0032784,19.287,40.754,0.020622,-0.013351,-1.9725e-13,1,23.876,74.676,0,0
2.9649,19.294,40.538,-0.0031324,0.023847,2.7922e-12,-4.6849e-12,35.128,-0.0031324,19.294,40.538,0.020626,-0.01329,-1.9732e-13,1,23.978,74.778,0,0
2.9704,19.302,40.323,-0.0029871,0.023789,2.7162e-12,-4.7526e-12,34.938,-0.0029871,19.302,40.323,0.020629,-0.013229,-1.9738e-13,1,24.079,74.879,0,0
2.976,19.309,40.107,-0.0028424,0.023732,2.6401e-12,-4.8203e-12,34.749,-0.0028424,19.309,40.107,0.020633,-0.013168,-1.9745e-13,1,24.181,74.981,0,0
2.9816,19.317,39.891,-0.0026983,0.023674,2.5641e-12,-4.888e-12,34.56,-0.0026983,19.317,39.891,0.020636,-0.013107,-1.9751e-13,1,24.282,75.082,0,0
2.9871,19.324,39.676,-0.0025549,0.023617,2.488e-12,-4.9557e-12,34.371,-0.0025549,19.324,39.676,0.02064,-0.013046,-1.9758e-13,1,24.384,75.184,0,0
2.9927,19.332,39.46,-0.0024121,0.02356,2.412e-12,-5.0235e-12,34.183,-0.002412,19.332,39.46,0.020643,-0.012985,-1.9764e-13,1,24.486,75.286,0,0
2.9983,19.339,39.245,-0.0022699,0.023504,2.336e-12,-5.0912e-12,33.995,-0.0022699,19.339,39.245,0.020647,-0.012924,-1.977e-13,1,24.587,75.387,0,0
3.0039,19.347,39.029,-0.0021283,0.023447,2.2599e-12,-5.1589e-12,33.807,-0.0021283,19.347,39.029,0.020651,-0.012863,-1.9777e-13,1,24.689,75.489,0,0
3.0094,19.354,38.814,-0.0019874,0.023391,2.1839e-12,-5.2266e-12,33.62,-0.0019874,19.354,38.814,0.020655,-0.012802,-1.9783e-13,1,24.79,75.59,0,0
3.015,19.362,38.598,-0.0018471,0.023336,2.1078e-12,-5.2943e-12,33.432,-0.0018471,19.362,38.598,0.020658,-0.012741,-1.979e-13,1,24.892,75.692,0,0
3.0206,19.369,38.382,-0.0017075,0.02328,2.0318e-12,-5.362e-12,33.245,-0.0017075,19.369,38.382,0.020662,-0.01268,-1.9796e-13,1,24.994,75.794,0,0
3.0261,19.377,38.167,-0.0015684,0.023225,1.9557e-12,-5.4297e-12,33.059,-0.0015684,19.377,38.167,0.020666,-0.012619,-1.9803e-13,1,25.095,75.895,0,0
3.0317,19.384,37.951,-0.00143,0.02317,1.8797e-12,-5.4974e-12,32.872,-0.00143,19.384,37.951,0.02067,-0.012558,-1.9809e-13,1,25.197,75.997,0,0
3.0373,19.392,37.735,-0.0012923,0.023115,1.8037e-12,-5.5651e-12,32.686,-0.0012923,19.392,37.735,0.020674,-0.012497,-1.9816e-13,1,25.298,76.098,0,0
3.0429,19.4,37.519,-0.0011548,0.023061,1.7273e-12,-5.6327e-12,32.499,-0.0011548,19.399,37.519,0.020678,-0.012435,-1.9822e-13,1,25.4,76.2,0,0
3.0595,19.393,37.335,-0.0011557,0.022963,1.7123e-12,-5.5532e-12,32.341,-0.0011557,19.393,37.335,0.020681,-0.012374,-1.9828e-13,1,25.502,76.302,0,0
3.0761,19.387,37.151,-0.0011551,0.022864,1.6972e-12,-5.4736e-12,32.183,-0.0011551,19.387,37.151,0.020685,-0.012313,-1.9835e-13,1,25.603,76.403,0,0
3.0927,19.381,36.967,-0.0011531,0.022765,1.6821e-12,-5.3941e-12,32.026,-0.0011531,19.381,36.967,0.020689,-0.012252,-1.9841e-13,1,25.705,76.505,0,0
3.1093,19.375,36.784,-0.0011495,0.022666,1.667e-12,-5.3146e-12,31.868,-0.0011495,19.375,36.784,0.020693,-0.012191,-1.9847e-13,1,25.806,76.606,0,0
3.1259,19.369,36.6,-0.0011445,0.022566,1.6519e-12,-5.235e-12,31.712,-0.0011445,19.369,36.6,0.020697,-0.01213,-1.9853e-13,1,25.908,76.708,0,0
3.1425,19.362,36.416,-0.0011379,0.022467,1.6369e-12,-5.1555e-12,31.555,-0.0011379,19.362,36.416,0.020701,-0.012069,-1.986e-13,1,26.01,76.81,0,0
3.1591,19.356,36.233,-0.0011299,0.022367,1.6218e-12,-5.0759e-12,31.399,-0.0011299,19.356,36.233,0.020706,-0.012008,-1.9866e-13,1,26.111,76.911,0,0
3.1757,19.35,36.049,-0.0011204,0.022266,1.6067e-12,-4.9964e-12,31.243,-0.0011204,19.35,36.049,0.02071,-0.011947,-1.9872e-13,1,26.213,77.013,0,0
3.1923,19.344,35.865,-0.0011093,0.022166,1.5916e-12,-4.9168e-12,31.088,-0.0011093,19.344,35.865,0.020714,-0.011886,-1.9879e-13,1,26.314,77.114,0,0
3.2089,19.338,35.681,-0.0010968,0.022065,1.5766e-12,-4.8373e-12,30.933,-0.0010968,19.338,35.681,0.020718,-0.011825,-1.9885e-13,1,26.416,77.216,0,0
3.2255,19.332,35.498,-0.0010828,0.021964,1.5615e-12,-4.7577e-12,30.778,-0.0010828,19.332,35.498,0.020722,-0.011764,-1.9891e-13,1,26.518,77.318,0,0
3.2421,19.326,35.314,-0.0010673,0.021863,1.5464e-12,-4.6782e-12,30.624,-0.0010673,19.326,35.314,0.020726,-0.011703,-1.9897e-13,1,26.619,77.419,0,0
3.2587,19.32,35.13,-0.0010504,0.021761,1.5313e-12,-4.5987e-12,30.47,-0.0010504,19.32,35.13,0.02073,-0.011642,-1.9904e-13,1,26.721,77.521,0,0
3.2753,19.313,34.946,-0.0010319,0.021659,1.5162e-12,-4.5191e-12,30.316,-0.0010319,19.313,34.946,0.020735,-0.011581,-1.991e-13,1,26.822,77.622,0,0
3.2919,19.307,34.763,-0.0010119,0.021557,1.5012e-12,-4.4396e-12,30.163,-0.0010119,19.307,34.763,0.020739,-0.01152,-1.9916e-13,1,26.924,77.724,0,0
3.3085,19.301,34.579,-0.00099045,0.021455,1.4861e-12,-4.36e-12,30.01,-0.00099045,19.301,34.579,0.020743,-0.011459,-1.9922e-13,1,27.026,77.826,0,0
3.3251,19.295,34.395,-0.0009675,0.021352,1.471e-12,-4.2805e-12,29.857,-0.0009675,19.295,34.395,0.020748,-0.011398,-1.9929e-13,1,27.127,77.927,0,0
3.3417,19.289,34.211,-0.00094305,0.021249,1.4559e-12,-4.2009e-12,29.705,-0.00094305,19.289,34.211,0.020752,-0.011337,-1.9935e-13,1,27.229,78.029,0,0
3.3583,19.283,34.027,-0.00091712,0.021146,1.4409e-12,-4.1214e-12,29.553,-0.00091712,19.283,34.027,0.020756,-0.011276,-1.9941e-13,1,27.33,78.13,0,0
3.3749,19.277,33.844,-0.00088969,0.021042,1.4258e-12,-4.0418e-12,29.402,-0.00088969,19.277,33.844,0.020761,-0.011215,-1.9948e-13,1,27.432,78.232,0,0
3.3915,19.271,33.66,-0.00086077,0.020939,1.4107e-12,-3.9623e-12,29.251,-0.00086077,19.271,33.66,0.020765,-0.011154,-1.9954e-13,1,27.534,78.334,0,0
3.4081,19.265,33.476,-0.00083035,0.020835,1.3956e-12,-3.8827e-12,29.1,-0.00083035,19.265,33.476,0.020769,-0.011093,-1.996e-13,1,27.635,78.435,0,0
3.4247,19.259,33.292,-0.00079845,0.02073,1.3805e-12,-3.8032e-12,28.95,-0.00079845,19.259,33.292,0.020774,-0.011032,-1.9966e-13,1,27.737,78.537,0,0
3.4413,19.253,33.108,-0.00076505,0.020626,1.3655e-12,-3.7237e-12,28.799,-0.00076505,19.253,33.108,0.020778,-0.010971,-1.9973e-13,1,27.838,78.638,0,0
3.4579,19.247,32.924,-0.00073016,0.020521,1.3504e-12,-3.6441e-12,28.65,-0.00073016,19.247,32.924,0.020783,-0.01091,-1.9979e-13,1,27.94,78.74,0,0
3.4745,19.241,32.741,-0.00069378,0.020416,1.3353e-12,-3.5646e-12,28.5,-0.00069378,19.241,32.741,0.020787,-0.010849,-1.9985e-13,1,28.042,78.842,0,0
3.4911,19.235,32.557,-0.00065591,0.020311,1.3202e-12,-3.485e-12,28.351,-0.00065591,19.235,32.557,0.020792,-0.010788,-1.9991e-13,1,28.143,78.943,0,0
3.5077,19.229,32.373,-0.00061654,0.020205,1.3052e-12,-3.4055e-12,28.203,-0.00061654,19.229,32.373,0.020796,-0.010727,-1.9998e-13,1,28.245,79.045,0,0
3.5243,19.223,32.189,-0.00057568,0.0201,1.2901e-12,-3.3259e-12,28.054,-0.00057568,19.223,32.189,0.020801,-0.010666,-2.0004e-13,1,28.346,79.146,0,0
3.5409,19.217,32.005,-0.00053334,0.019994,1.275e-12,-3.2464e-12,27.906,-0.00053333,19.217,32.005,0.020806,-0.010605,-2.001e-13,1,28.448,79.248,0,0
3.5575,19.211,31.821,-0.00048949,0.019887,1.2599e-12,-3.1668e-12,27.759,-0.00048949,19.211,31.821,0.02081,-0.010544,-2.0017e-13,1,28.55,79.35,0,0
3.5741,19.205,31.637,-0.00044416,0.019781,1.2448e-12,-3.0873e-12,27.612,-0.00044416,19.205,31.637,0.020815,-0.010483,-2.0023e-13,1,28.651,79.451,0,0
3.5907,19.199,31.453,-0.00039733,0.019674,1.2298e-12,-3.0077e-12,27.465,-0.00039733,19.199,31.453,0.02082,-0.010421,-2.0029e-13,1,28.753,79.553,0,0
3.6073,19.193,31.27,-0.00034902,0.019567,1.2147e-12,-2.9282e-12,27.318,-0.00034902,19.193,31.27,0.020824,-0.01036,-2.0035e-13,1,28.854,79.654,0,0
3.6239,19.187,31.086,-0.00029921,0.019459,1.1996e-12,-2.8487e-12,27.172,-0.00029921,19.187,31.086,0.020829,-0.010299,-2.0042e-13,1,28.956,79.756,0,0
3.6405,19.181,30.902,-0.00024791,0.019352,1.1845e-12,-2.7691e-12,27.026,-0.00024791,19.181,30.902,0.020834,-0.010238,-2.0048e-13,1,29.058,79.858,0,0
3.6571,19.175,30.718,-0.00019511,0.019244,1.1695e-12,-2.6896e-12,26.881,-0.00019511,19.175,30.718,0.020839,-0.010177,-2.0054e-13,1,29.159,79.959,0,0
3.6737,19.169,30.534,-0.00014083,0.019135,1.1544e-12,-2.61e-12,26.736,-0.00014083,19.169,30.534,0.020843,-0.010116,-2.006e-13,1,29.261,80.061,0,0
3.6903,19.163,30.35,-8.505e-05,0.019027,1.1393e-12,-2.5305e-12,26.591,-8.505e-05,19.163,30.35,0.020848,-0.010055,-2.0067e-13,1,29.362,80.162,0,0
3.7069,19.157,30.166,-2.778e-05,0.018918,1.1242e-12,-2.4509e-12,26.447,-2.778e-05,19.157,30.166,0.020853,-0.0099942,-2.0073e-13,1,29.464,80.264,0,0
3.7235,19.152,29.982,3.0982e-05,0.018809,1.1091e-12,-2.3714e-12,26.303,3.0982e-05,19.152,29.982,0.020858,-0.0099332,-2.0079e-13,1,29.566,80.366,0,0
3.7401,19.146,29.798,9.1236e-05,0.0187,1.0941e-12,-2.2918e-12,26.159,9.1236e-05,19.146,29.798,0.020863,-0.0098722,-2.0086e-13,1,29.667,80.467,0,0
3.7567,19.14,29.614,0.00015298,0.018591,1.079e-12,-2.2123e-12,26.016,0.00015298,19.14,29.614,0.020868,-0.0098111,-2.0092e-13,1,29.769,80.569,0,0
3.7733,19.134,29.43,0.00021622,0.018481,1.0639e-12,-2.1327e-12,25.873,0.00021622,19.134,29.43,0.020873,-0.0097501,-2.0098e-13,1,29.87,80.67,0,0
3.7899,19.128,29.246,0.00028095,0.018371,1.0488e-12,-2.0532e-12,25.73,0.00028095,19.128,29.246,0.020878,-0.0096891,-2.0104e-13,1,29.972,80.772,0,0
3.8065,19.122,29.062,0.00034717,0.018261,1.0338e-12,-1.9737e-12,25.588,0.00034717,19.122,29.062,0.020883,-0.009628,-2.0111e-13,1,30.074,80.874,0,0
3.8231,19.116,28.878,0.00041488,0.01815,1.0187e-12,-1.8941e-12,25.446,0.00041488,19.116,28.878,0.020888,-0.009567,-2.0117e-13,1,30.175,80.975,0,0
3.8397,19.11,28.694,0.00048409,0.018039,1.0036e-12,-1.8146e-12,25.304,0.00048409,19.11,28.694,0.020893,-0.0095059,-2.0123e-13,1,30.277,81.077,0,0
3.8563,19.105,28.51,0.00055479,0.017928,9.8852e-13,-1.735e-12,25.163,0.00055479,19.105,28.51,0.020898,-0.0094449,-2.0129e-13,1,30.378,81.178,0,0
3.8729,19.099,28.325,0.00062718,0.017826,9.7329e-13,-1.6552e-12,25.022,0.00062718,19.099,28.325,0.020903,-0.0093835,-2.0136e-13,1,30.48,81.28,0,0
3.8729,19.084,28.165,0.00063016,0.017637,9.4239e-13,-1.6488e-12,24.897,0.00063016,19.084,28.165,0.020908,-0.0093224,-2.0142e-13,1,30.582,81.382,0,0
3.8729,19.069,28.006,0.00063306,0.017447,9.1148e-13,-1.6425e-12,24.774,0.00063306,19.069,28.006,0.020913,-0.0092614,-2.0147e-13,1,30.683,81.483,0,0
3.8729,19.054,27.846,0.00063588,0.017258,8.8058e-13,-1.6361e-12,24.651,0.00063588,19.054,27.846,0.020918,-0.0092004,-2.0153e-13,1,30.785,81.585,0,0
3.8729,19.039,27.686,0.00063861,0.017069,8.4968e-13,-1.6297e-12,24.528,0.00063861,19.039,27.686,0.020923,-0.0091393,-2.0159e-13,1,30.886,81.686,0,0
3.8729,19.024,27.526,0.00064126,0.016879,8.1877e-13,-1.6234e-12,24.406,0.00064126,19.024,27.526,0.020928,-0.0090783,-2.0165e-13,1,30.988,81.788,0,0
3.8729,19.009,27.366,0.00064383,0.016691,7.8787e-13,-1.617e-12,24.284,0.00064383,19.009,27.366,0.020933,-0.0090172,-2.0171e-13,1,31.09,81.89,0,0
3.8729,18.994,27.206,0.00064631,0.016502,7.5696e-13,-1.6106e-12,24.163,0.00064631,18.994,27.206,0.020939,-0.0089562,-2.0177e-13,1,31.191,81.991,0,0
3.8729,18.979,27.046,0.00064871,0.016313,7.2606e-13,-1.6042e-12,24.042,0.00064871,18.979,27.046,0.020944,-0.0088952,-2.0183e-13,1,31.293,82.093,0,0
3.8729,18.964,26.886,0.00065103,0.016125,6.9516e-13,-1.5979e-12,23.922,0.00065103,18.964,26.886,0.020949,-0.0088341,-2.0188e-13,1,31.394,82.194,0,0
3.8729,18.949,26.726,0.00065327,0.015937,6.6426e-13,-1.5915e-12,23.802,0.00065327,18.949,26.726,0.020954,-0.0087731,-2.0194e-13,1,31.496,82.296,0,0
3.8729,18.934,26.566,0.00065542,0.015749,6.3335e-13,-1.5851e-12,23.683,0.00065542,18.934,26.566,0.020959,-0.008712,-2.02e-13,1,31.598,82.398,0,0
3.8729,18.919,26.406,0.00065749,0.015561,6.0245e-13,-1.5788e-12,23.564,0.00065749,18.919,26.406,0.020965,-0.008651,-2.0206e-13,1,31.699,82.499,0,0
3.8729,18.904,26.246,0.00065948,0.015373,5.7154e-13,-1.5724e-12,23.446,0.00065948,18.904,26.246,0.02097,-0.00859,-2.0212e-13,1,31.801,82.601,0,0
3.8729,18.889,26.086,0.00066138,0.015186,5.4064e-13,-1.566e-12,23.328,0.00066138,18.889,26.086,0.020975,-0.0085289,-2.0218e-13,1,31.902,82.702,0,0
3.8729,18.874,25.926,0.00066321,0.014998,5.0974e-13,-1.5596e-12,23.211,0.00066321,18.874,25.926,0.020981,-0.0084679,-2.0223e-13,1,32.004,82.804,0,0
3.8729,18.859,25.766,0.00066495,0.014811,4.7883e-13,-1.5533e-12,23.094,0.00066495,18.859,25.766,0.020986,-0.0084068,-2.0229e-13,1,32.106,82.906,0,0
3.8729,18.844,25.606,0.0006666,0.014624,4.4793e-13,-1.5469e-12,22.978,0.0006666,18.844,25.606,0.020991,-0.0083458,-2.0235e-13,1,32.207,83.007,0,0
3.8729,18.829,25.446,0.00066818,0.014438,4.1703e-13,-1.5405e-12,22.862,0.00066818,18.829,25.446,0.020996,-0.0082847,-2.0241e-13,1,32.309,83.109,0,0
3.8729,18.814,25.286,0.00066967,0.014251,3.8612e-13,-1.5341e-12,22.746,0.00066967,18.814,25.286,0.021002,-0.0082237,-2.0247e-13,1,32.41,83.21,0,0
3.8729,18.8,25.126,0.00067108,0.014064,3.5522e-13,-1.5278e-12,22.632,0.00067108,18.8,25.126,0.021007,-0.0081627,-2.0253e-13,1,32.512,83.312,0,0
3.8729,18.785,24.966,0.0006724,0.013878,3.2432e-13,-1.5214e-12,22.517,0.0006724,18.785,24.966,0.021013,-0.0081016,-2.0259e-13,1,32.614,83.414,0,0
3.8729,18.77,24.806,0.00067365,0.013692,2.9342e-13,-1.515e-12,22.403,0.00067365,18.77,24.806,0.021018,-0.0080406,-2.0264e-13,1,32.715,83.515,0,0
3.8729,18.755,24.646,0.00067481,0.013506,2.6251e-13,-1.5087e-12,22.29,0.00067481,18.755,24.646,0.021023,-0.0079795,-2.027e-13,1,32.817,83.617,0,0
3.8729,18.74,24.486,0.00067589,0.01332,2.3161e-13,-1.5023e-12,22.177,0.00067589,18.74,24.486,0.021029,-0.0079185,-2.0276e-13,1,32.918,83.718,0,0
3.8729,18.725,24.326,0.00067688,0.013135,2.0071e-13,-1.4959e-12,22.065,0.00067688,18.725,24.326,0.021034,-0.0078574,-2.0282e-13,1,33.02,83.82,0,0
3.8729,18.71,24.166,0.00067779,0.012949,1.698e-13,-1.4895e-12,21.953,0.00067779,18.71,24.166,0.02104,-0.0077964,-2.0288e-13,1,33.122,83.922,0,0
3.8729,18.695,24.006,0.00067862,0.012764,1.389e-13,-1.4832e-12,21.841,0.00067862,18.695,24.006,0.021045,-0.0077353,-2.0294e-13,1,33.223,84.023,0,0
3.8729,18.68,23.846,0.00067937,0.012579,1.08e-13,-1.4768e-12,21.73,0.00067937,18.68,23.846,0.021051,-0.0076743,-2.0299e-13,1,33.325,84.125,0,0
3.8729,18.665,23.686,0.00068004,0.012394,7.7093e-14,-1.4704e-12,21.62,0.00068004,18.665,23.686,0.021056,-0.0076133,-2.0305e-13,1,33.426,84.226,0,0
3.8729,18.65,23.526,0.00068062,0.012209,4.619e-14,-1.4641e-12,21.51,0.00068062,18.65,23.526,0.021062,-0.0075522,-2.0311e-13,1,33.528,84.328,0,0
3.8729,18.635,23.366,0.00068112,0.012025,1.5287e-14,-1.4577e-12,21.4,0.00068112,18.635,23.366,0.021067,-0.0074912,-2.0317e-13,1,33.63,84.43,0,0
3.8729,18.621,23.206,0.00068153,0.01184,-1.5614e-14,-1.4513e-12,21.291,0.00068153,18.621,23.206,0.021073,-0.0074301,-2.0323e-13,1,33.731,84.531,0,0
3.8729,18.606,23.046,0.00068187,0.011656,-4.6517e-14,-1.4449e-12,21.183,0.00068187,18.606,23.046,0.021079,-0.0073691,-2.0329e-13,1,33.833,84.633,0,0
3.8729,18.591,22.885,0.00068212,0.011472,-7.742e-14,-1.4386e-12,21.075,0.00068212,18.591,22.886,0.021084,-0.007308,-2.0335e-13,1,33.934,84.734,0,0
3.8729,18.576,22.725,0.00068229,0.011288,-1.0832e-13,-1.4322e-12,20.967,0.00068229,18.576,22.725,0.02109,-0.007247,-2.034e-13,1,34.036,84.836,0,0
3.8729,18.561,22.565,0.00068237,0.011105,-1.3923e-13,-1.4258e-12,20.86,0.00068237,18.561,22.565,0.021095,-0.0071859,-2.0346e-13,1,34.138,84.938,0,0
3.8729,18.546,22.405,0.00068238,0.010921,-1.7013e-13,-1.4194e-12,20.754,0.00068238,18.546,22.405,0.021101,-0.0071249,-2.0352e-13,1,34.239,85.039,0,0
3.8729,18.531,22.245,0.0006823,0.010738,-2.0103e-13,-1.4131e-12,20.648,0.0006823,18.531,22.245,0.021107,-0.0070638,-2.0358e-13,1,34.341,85.141,0,0
3.8729,18.516,22.085,0.00068213,0.010555,-2.3194e-13,-1.4067e-12,20.542,0.00068213,18.516,22.085,0.021112,-0.0070028,-2.0364e-13,1,34.442,85.242,0,0
3.8729,18.501,21.925,0.00068189,0.010372,-2.6284e-13,-1.4003e-12,20.437,0.00068189,18.501,21.925,0.021118,-0.0069417,-2.037e-13,1,34.544,85.344,0,0
3.8729,18.487,21.765,0.00068156,0.010189,-2.9374e-13,-1.394e-12,20.332,0.00068156,18.486,21.765,0.021124,-0.0068807,-2.0376e-13,1,34.646,85.446,0,0
3.8729,18.472,21.605,0.00068115,0.010006,-3.2464e-13,-1.3876e-12,20.228,0.00068115,18.472,21.605,0.02113,-0.0068196,-2.0381e-13,1,34.747,85.547,0,0
3.8729,18.457,21.445,0.00068066,0.0098237,-3.5555e-13,-1.3812e-12,20.124,0.00068066,18.457,21.445,0.021135,-0.0067586,-2.0387e-13,1,34.849,85.649,0,0
3.8729,18.442,21.284,0.00068008,0.0096414,-3.8645e-13,-1.3748e-12,20.021,0.00068008,18.442,21.284,0.021141,-0.0066975,-2.0393e-13,1,34.95,85.75,0,0
3.8729,18.427,21.124,0.00067942,0.0094593,-4.1735e-13,-1.3685e-12,19.919,0.00067942,18.427,21.124,0.021147,-0.0066365,-2.0399e-13,1,35.052,85.852,0,0
3.8729,18.412,20.964,0.00067868,0.0092773,-4.4825e-13,-1.3621e-12,19.816,0.00067868,18.412,20.964,0.021153,-0.0065754,-2.0405e-13,1,35.154,85.954,0,0
3.8729,18.397,20.804,0.00067786,0.0090955,-4.7916e-13,-1.3557e-12,19.715,0.00067786,18.397,20.804,0.021158,-0.0065144,-2.0411e-13,1,35.255,86.055,0,0
3.8729,18.382,20.644,0.00067695,0.0089139,-5.1006e-13,-1.3494e-12,19.614,0.00067695,18.382,20.644,0.021164,-0.0064533,-2.0416e-13,1,35.357,86.157,0,0
3.8729,18.368,20.484,0.00067596,0.0087325,-5.4096e-13,-1.343e-12,19.513,0.00067596,18.367,20.484,0.02117,-0.0063923,-2.0422e-13,1,35.458,86.258,0,0
3.8729,18.353,20.323,0.00067483,0.0085673,-5.7249e-13,-1.3367e-12,19.412,0.00067483,18.352,20.323,0.021176,-0.0063308,-2.0428e-13,1,35.56,86.36,0,0
3.8567,18.332,20.181,0.00066302,0.0084097,-7.471e-13,-1.3739e-12,19.32,0.00066302,18.327,20.185,0.021182,-0.0062698,-2.0433e-13,1,35.662,86.462,0,0
3.8405,18.311,20.039,0.00065164,0.008252,-9.1371e-13,-1.4111e-12,19.23,0.00065164,18.299,20.051,0.021188,-0.0062087,-2.0439e-13,1,35.763,86.563,0,0
3.8243,18.29,19.898,0.0006407,0.0080943,-1.0723e-12,-1.4482e-12,19.139,0.0006407,18.268,19.92,0.021194,-0.0061477,-2.0444e-13,1,35.865,86.665,0,0
3.8081,18.269,19.756,0.00063019,0.0079365,-1.2229e-12,-1.4854e-12,19.05,0.00063019,18.233,19.792,0.021199,-0.0060866,-2.0449e-13,1,35.966,86.766,0,0
3.7919,18.248,19.614,0.00062012,0.0077788,-1.3655e-12,-1.5226e-12,18.961,0.00062012,18.196,19.667,0.021205,-0.0060256,-2.0454e-13,1,36.068,86.868,0,0
3.7757,18.228,19.473,0.00061048,0.0076209,-1.5002e-12,-1.5597e-12,18.873,0.00061048,18.155,19.545,0.021211,-0.0059645,-2.0459e-13,1,36.17,86.97,0,0
3.7596,18.207,19.331,0.00060127,0.0074631,-1.6268e-12,-1.5969e-12,18.786,0.00060127,18.111,19.427,0.021217,-0.0059035,-2.0464e-13,1,36.271,87.071,0,0
3.7434,18.186,19.189,0.00059251,0.0073052,-1.7454e-12,-1.6341e-12,18.699,0.00059251,18.064,19.311,0.021223,-0.0058424,-2.047e-13,1,36.373,87.173,0,0
3.7272,18.165,19.048,0.00058417,0.0071473,-1.856e-12,-1.6713e-12,18.613,0.00058417,18.014,19.199,0.021229,-0.0057814,-2.0475e-13,1,36.474,87.274,0,0
3.711,18.144,18.906,0.00057627,0.0069893,-1.9587e-12,-1.7084e-12,18.528,0.00057627,17.96,19.09,0.021235,-0.0057203,-2.048e-13,1,36.576,87.376,0,0
3.6948,18.123,18.764,0.00056881,0.0068314,-2.0533e-12,-1.7456e-12,18.443,0.00056881,17.904,18.984,0.021241,-0.0056593,-2.0485e-13,1,36.678,87.478,0,0
3.6786,18.103,18.623,0.00056178,0.0066734,-2.1399e-12,-1.7828e-12,18.359,0.00056178,17.844,18.881,0.021247,-0.0055982,-2.049e-13,1,36.779,87.579,0,0
3.6624,18.082,18.481,0.00055518,0.0065153,-2.2186e-12,-1.8199e-12,18.276,0.00055518,17.781,18.782,0.021253,-0.0055372,-2.0496e-13,1,36.881,87.681,0,0
3.6463,18.061,18.339,0.00054902,0.0063572,-2.2892e-12,-1.8571e-12,18.193,0.00054902,17.715,18.685,0.021259,-0.0054761,-2.0501e-13,1,36.982,87.782,0,0
3.6301,18.04,18.198,0.00054329,0.0061991,-2.3518e-12,-1.8943e-12,18.111,0.00054329,17.646,18.592,0.021265,-0.005415,-2.0506e-13,1,37.084,87.884,0,0
3.6139,18.019,18.056,0.000538,0.006041,-2.4065e-12,-1.9315e-12,18.03,0.000538,17.573,18.502,0.021271,-0.005354,-2.0511e-13,1,37.186,87.986,0,0
3.5977,17.999,17.914,0.00053315,0.0058828,-2.4531e-12,-1.9686e-12,17.949,0.00053315,17.498,18.415,0.021277,-0.0052929,-2.0516e-13,1,37.287,88.087,0,0
3.5815,17.978,17.772,0.00052873,0.0057246,-2.4918e-12,-2.0058e-12,17.87,0.00052873,17.419,18.331,0.021283,-0.0052319,-2.0522e-13,1,37.389,88.189,0,0
3.5653,17.957,17.631,0.00052474,0.0055664,-2.5224e-12,-2.043e-12,17.79,0.00052474,17.337,18.25,0.021289,-0.0051708,-2.0527e-13,1,37.49,88.29,0,0
3.5492,17.936,17.489,0.00052119,0.0054081,-2.5451e-12,-2.0801e-12,17.712,0.00052119,17.252,18.173,0.021295,-0.0051098,-2.0532e-13,1,37.592,88.392,0,0
3.533,17.916,17.347,0.00051807,0.0052498,-2.5597e-12,-2.1173e-12,17.634,0.00051807,17.164,18.099,0.021301,-0.0050487,-2.0537e-13,1,37.694,88.494,0,0
3.5168,17.895,17.206,0.00051539,0.0050915,-2.5664e-12,-2.1545e-12,17.557,0.00051539,17.073,18.027,0.021307,-0.0049876,-2.0542e-13,1,37.795,88.595,0,0
3.5006,17.874,17.064,0.00051314,0.0049332,-2.5651e-12,-2.1917e-12,17.481,0.00051314,16.979,17.959,0.021313,-0.0049266,-2.0548e-13,1,37.897,88.697,0,0
3.4844,17.853,16.922,0.00051133,0.0047748,-2.5557e-12,-2.2288e-12,17.405,0.00051133,16.881,17.894,0.021319,-0.0048655,-2.0553e-13,1,37.998,88.798,0,0
3.4682,17.832,16.78,0.00050995,0.0046163,-2.5384e-12,-2.266e-12,17.33,0.00050995,16.78,17.833,0.021325,-0.0048045,-2.0558e-13,1,38.1,88.9,0,0
3.452,17.812,16.639,0.000509,0.0044579,-2.513e-12,-2.3032e-12,17.256,0.000509,16.676,17.774,0.021332,-0.0047434,-2.0563e-13,1,38.202,89.002,0,0
3.4359,17.791,16.497,0.00050849,0.0042994,-2.4797e-12,-2.3403e-12,17.182,0.00050849,16.569,17.719,0.021338,-0.0046824,-2.0568e-13,1,38.303,89.103,0,0
3.4197,17.77,16.355,0.00050842,0.0041409,-2.4384e-12,-2.3775e-12,17.109,0.00050842,16.459,17.666,0.021344,-0.0046213,-2.0574e-13,1,38.405,89.205,0,0
3.4035,17.749,16.214,0.00050878,0.0039823,-2.3891e-12,-2.4147e-12,17.037,0.00050878,16.346,17.617,0.02135,-0.0045602,-2.0579e-13,1,38.506,89.306,0,0
3.3873,17.729,16.072,0.00050958,0.0038237,-2.3317e-12,-2.4519e-12,16.965,0.00050958,16.229,17.571,0.021356,-0.0044992,-2.0584e-13,1,38.608,89.408,0,0
3.3711,17.708,15.93,0.00051081,0.0036651,-2.2664e-12,-2.489e-12,16.894,0.00051081,16.11,17.528,0.021362,-0.0044381,-2.0589e-13,1,38.71,89.51,0,0
3.3549,17.687,15.788,0.00051247,0.0035065,-2.1931e-12,-2.5262e-12,16.824,0.00051247,15.987,17.489,0.021368,-0.0043771,-2.0594e-13,1,38.811,89.611,0,0
3.3388,17.666,15.647,0.00051457,0.0033478,-2.1118e-12,-2.5634e-12,16.754,0.00051457,15.861,17.452,0.021375,-0.004316,-2.0599e-13,1,38.913,89.713,0,0
3.3226,17.646,15.505,0.0005171,0.0031891,-2.0225e-12,-2.6005e-12,16.686,0.00051711,15.732,17.419,0.021381,-0.0042549,-2.0605e-13,1,39.014,89.814,0,0
3.3064,17.625,15.363,0.00052007,0.0030303,-1.9252e-12,-2.6377e-12,16.617,0.00052007,15.599,17.389,0.021387,-0.0041939,-2.061e-13,1,39.116,89.916,0,0
3.2902,17.604,15.221,0.00052348,0.0028716,-1.8199e-12,-2.6749e-12,16.55,0.00052348,15.464,17.361,0.021393,-0.0041328,-2.0615e-13,1,39.218,90.018,0,0
3.274,17.583,15.08,0.00052732,0.0027128,-1.7065e-12,-2.7121e-12,16.483,0.00052732,15.325,17.338,0.021399,-0.0040718,-2.062e-13,1,39.319,90.119,0,0
3.2578,17.563,14.938,0.00053159,0.0025539,-1.5852e-12,-2.7492e-12,16.417,0.00053159,15.184,17.317,0.021406,-0.0040107,-2.0625e-13,1,39.421,90.221,0,0
3.2416,17.542,14.796,0.0005363,0.0023951,-1.4559e-12,-2.7864e-12,16.352,0.0005363,15.039,17.299,0.021412,-0.0039496,-2.0631e-13,1,39.522,90.322,0,0
3.2255,17.521,14.654,0.00054144,0.0022362,-1.3186e-12,-2.8236e-12,16.287,0.00054144,14.891,17.285,0.021418,-0.0038886,-2.0636e-13,1,39.624,90.424,0,0
3.2093,17.5,14.512,0.00054702,0.0020772,-1.1734e-12,-2.8607e-12,16.223,0.00054702,14.739,17.274,0.021424,-0.0038275,-2.0641e-13,1,39.726,90.526,0,0
3.1931,17.48,14.371,0.00055303,0.0019183,-1.0201e-12,-2.8979e-12,16.159,0.00055303,14.585,17.265,0.021431,-0.0037664,-2.0646e-13,1,39.827,90.627,0,0
3.1769,17.459,14.229,0.00055948,0.0017593,-8.5877e-13,-2.9351e-12,16.097,0.00055948,14.427,17.26,0.021437,-0.0037054,-2.0651e-13,1,39.929,90.729,0,0
3.1607,17.438,14.087,0.00056636,0.0016002,-6.8948e-13,-2.9723e-12,16.035,0.00056636,14.267,17.259,0.021443,-0.0036443,-2.0657e-13,1,40.03,90.83,0,0
3.1445,17.418,13.945,0.00057367,0.0014412,-5.1219e-13,-3.0094e-12,15.974,0.00057367,14.103,17.26,0.02145,-0.0035833,-2.0662e-13,1,40.132,90.932,0,0
3.1283,17.397,13.804,0.00058143,0.0012821,-3.269e-13,-3.0466e-12,15.913,0.00058143,13.936,17.264,0.021456,-0.0035222,-2.0667e-13,1,40.234,91.034,0,0
3.1122,17.376,13.662,0.00058961,0.001123,-1.3362e-13,-3.0838e-12,15.853,0.00058961,13.766,17.272,0.021462,-0.0034611,-2.0672e-13,1,40.335,91.135,0,0
3.096,17.355,13.52,0.00059823,0.00096381,6.7662e-14,-3.121e-12,15.794,0.00059823,13.593,17.283,0.021469,-0.0034001,-2.0677e-13,1,40.437,91.237,0,0
3.0798,17.335,13.378,0.00060729,0.00080462,2.7694e-13,-3.1581e-12,15.735,0.00060729,13.416,17.297,0.021475,-0.003339,-2.0683e-13,1,40.538,91.338,0,0
3.0635,17.314,13.236,0.00061677,0.000666,4.9412e-13,-3.1961e-12,15.677,0.00061677,13.236,17.314,0.021481,-0.0032776,-2.0688e-13,1,40.64,91.44,0,0
3.0351,17.289,13.108,0.00061209,0.00052993,2.6936e-13,-3.4221e-12,15.622,0.00061209,13.108,17.289,0.021488,-0.0032165,-2.0693e-13,1,40.742,91.542,0,0
3.0067,17.265,12.981,0.00060748,0.00039391,5.453e-14,-3.6402e-12,15.568,0.00060748,12.981,17.265,0.021494,-0.0031554,-2.0698e-13,1,40.843,91.643,0,0
2.9783,17.24,12.854,0.00060296,0.00025796,-1.5037e-13,-3.8502e-12,15.515,0.00060296,12.854,17.24,0.0215,-0.0030944,-2.0703e-13,1,40.945,91.745,0,0
2.9498,17.215,12.726,0.00059851,0.00012206,-3.4537e-13,-4.0523e-12,15.463,0.00059851,12.726,17.215,0.021507,-0.0030333,-2.0708e-13,1,41.046,91.846,0,0
2.9214,17.191,12.599,0.00059415,-1.3794e-05,-5.3045e-13,-4.2463e-12,15.411,0.00059415,12.599,17.191,0.021513,-0.0029722,-2.0713e-13,1,41.148,91.948,0,0
2.893,17.166,12.472,0.00058987,-0.00014959,-7.0561e-13,-4.4324e-12,15.36,0.00058987,12.472,17.166,0.02152,-0.0029112,-2.0718e-13,1,41.25,92.05,0,0
2.8646,17.141,12.344,0.00058568,-0.00028533,-8.7085e-13,-4.6104e-12,15.311,0.00058568,12.344,17.141,0.021526,-0.0028501,-2.0723e-13,1,41.351,92.151,0,0
2.8362,17.117,12.217,0.00058156,-0.00042101,-1.0262e-12,-4.7805e-12,15.262,0.00058156,12.217,17.117,0.021532,-0.0027891,-2.0728e-13,1,41.453,92.253,0,0
2.8078,17.092,12.089,0.00057753,-0.00055664,-1.1716e-12,-4.9426e-12,15.214,0.00057753,12.089,17.092,0.021539,-0.002728,-2.0733e-13,1,41.554,92.354,0,0
2.7794,17.068,11.962,0.00057358,-0.00069221,-1.3071e-12,-5.0966e-12,15.166,0.00057358,11.962,17.068,0.021545,-0.0026669,-2.0738e-13,1,41.656,92.456,0,0
2.751,17.043,11.835,0.00056971,-0.00082772,-1.4326e-12,-5.2427e-12,15.12,0.00056971,11.835,17.043,0.021552,-0.0026059,-2.0743e-13,1,41.758,92.558,0,0
2.7226,17.018,11.707,0.00056592,-0.00096318,-1.5483e-12,-5.3808e-12,15.075,0.00056592,11.707,17.018,0.021558,-0.0025448,-2.0748e-13,1,41.859,92.659,0,0
2.6942,16.994,11.58,0.00056221,-0.0010986,-1.654e-12,-5.5108e-12,15.03,0.00056221,11.58,16.994,0.021565,-0.0024837,-2.0753e-13,1,41.961,92.761,0,0
2.6658,16.969,11.453,0.00055859,-0.0012339,-1.7498e-12,-5.6329e-12,14.986,0.00055859,11.453,16.969,0.021571,-0.0024227,-2.0758e-13,1,42.062,92.862,0,0
2.6374,16.945,11.325,0.00055504,-0.0013692,-1.8357e-12,-5.747e-12,14.943,0.00055504,11.325,16.945,0.021577,-0.0023616,-2.0763e-13,1,42.164,92.964,0,0
2.609,16.92,11.198,0.00055158,-0.0015045,-1.9117e-12,-5.8531e-12,14.901,0.00055158,11.198,16.92,0.021584,-0.0023005,-2.0768e-13,1,42.266,93.066,0,0
2.5806,16.895,11.071,0.0005482,-0.0016396,-1.9778e-12,-5.9512e-12,14.86,0.0005482,11.071,16.895,0.02159,-0.0022395,-2.0773e-13,1,42.367,93.167,0,0
2.5522,16.871,10.943,0.0005449,-0.0017748,-2.0339e-12,-6.0412e-12,14.819,0.0005449,10.943,16.871,0.021597,-0.0021784,-2.0778e-13,1,42.469,93.269,0,0
2.5238,16.846,10.816,0.00054169,-0.0019098,-2.0802e-12,-6.1233e-12,14.78,0.00054169,10.816,16.846,0.021603,-0.0021173,-2.0783e-13,1,42.57,93.37,0,0
2.4953,16.822,10.688,0.00053855,-0.0020448,-2.1165e-12,-6.1974e-12,14.741,0.00053855,10.688,16.822,0.02161,-0.0020563,-2.0788e-13,1,42.672,93.472,0,0
2.4669,16.797,10.561,0.0005355,-0.0021798,-2.1429e-12,-6.2635e-12,14.703,0.0005355,10.561,16.797,0.021616,-0.0019952,-2.0793e-13,1,42.774,93.574,0,0
2.4385,16.772,10.434,0.00053253,-0.0023147,-2.1593e-12,-6.3216e-12,14.666,0.00053253,10.434,16.772,0.021623,-0.0019341,-2.0798e-13,1,42.875,93.675,0,0
2.4101,16.748,10.306,0.00052964,-0.0024496,-2.1659e-12,-6.3717e-12,14.63,0.00052964,10.306,16.748,0.021629,-0.001873,-2.0803e-13,1,42.977,93.777,0,0
2.3817,16.723,10.179,0.00052684,-0.0025843,-2.1625e-12,-6.4138e-12,14.595,0.00052684,10.179,16.723,0.021636,-0.001812,-2.0808e-13,1,43.078,93.878,0,0
2.3533,16.699,10.052,0.00052411,-0.0027191,-2.1493e-12,-6.4479e-12,14.561,0.00052411,10.052,16.699,0.021642,-0.0017509,-2.0813e-13,1,43.18,93.98,0,0
2.3249,16.674,9.9242,0.00052147,-0.0028537,-2.1261e-12,-6.474e-12,14.527,0.00052147,9.9242,16.674,0.021649,-0.0016898,-2.0818e-13,1,43.282,94.082,0,0
2.2965,16.649,9.7968,0.00051891,-0.0029884,-2.0929e-12,-6.4921e-12,14.494,0.00051891,9.7968,16.649,0.021655,-0.0016288,-2.0823e-13,1,43.383,94.183,0,0
2.2681,16.625,9.6694,0.00051643,-0.0031229,-2.0499e-12,-6.5022e-12,14.463,0.00051643,9.6694,16.625,0.021662,-0.0015677,-2.0828e-13,1,43.485,94.285,0,0
2.2397,16.6,9.542,0.00051403,-0.0032574,-1.997e-12,-6.5043e-12,14.432,0.00051403,9.542,16.6,0.021668,-0.0015066,-2.0833e-13,1,43.586,94.386,0,0
2.2113,16.576,9.4146,0.00051171,-0.0033919,-1.9341e-12,-6.4984e-12,14.402,0.00051171,9.4146,16.576,0.021675,-0.0014456,-2.0838e-13,1,43.688,94.488,0,0
2.1829,16.551,9.2872,0.00050948,-0.0035263,-1.8613e-12,-6.4846e-12,14.372,0.00050948,9.2872,16.551,0.021682,-0.0013845,-2.0843e-13,1,43.79,94.59,0,0
2.1545,16.526,9.1598,0.00050733,-0.0036606,-1.7786e-12,-6.4627e-12,14.344,0.00050733,9.1597,16.526,0.021688,-0.0013234,-2.0848e-13,1,43.891,94.691,0,0
2.1261,16.502,9.0323,0.00050525,-0.0037949,-1.686e-12,-6.4328e-12,14.316,0.00050525,9.0323,16.502,0.021695,-0.0012623,-2.0853e-13,1,43.993,94.793,0,0
2.0977,16.477,8.9049,0.00050327,-0.0039292,-1.5834e-12,-6.3949e-12,14.29,0.00050327,8.9049,16.477,0.021701,-0.0012013,-2.0858e-13,1,44.094,94.894,0,0
2.0692,16.453,8.7775,0.00050136,-0.0040633,-1.471e-12,-6.349e-12,14.264,0.00050136,8.7775,16.453,0.021708,-0.0011402,-2.0863e-13,1,44.196,94.996,0,0
2.0408,16.428,8.6501,0.00049953,-0.0041975,-1.3486e-12,-6.2952e-12,14.239,0.00049953,8.6501,16.428,0.021714,-0.0010791,-2.0868e-13,1,44.298,95.098,0,0
2.0124,16.403,8.5227,0.00049779,-0.0043315,-1.2163e-12,-6.2333e-12,14.215,0.00049779,8.5227,16.403,0.021721,-0.0010181,-2.0873e-13,1,44.399,95.199,0,0
1.984,16.379,8.3953,0.00049613,-0.0044655,-1.0741e-12,-6.1634e-12,14.191,0.00049613,8.3953,16.379,0.021728,-0.00095699,-2.0878e-13,1,44.501,95.301,0,0
1.9556,16.354,8.2678,0.00049455,-0.0045995,-9.2196e-13,-6.0856e-12,14.169,0.00049455,8.2678,16.354,0.021734,-0.00089592,-2.0883e-13,1,44.602,95.402,0,0
1.9272,16.33,8.1404,0.00049305,-0.0047334,-7.5991e-13,-5.9997e-12,14.147,0.00049305,8.1404,16.33,0.021741,-0.00083485,-2.0888e-13,1,44.704,95.504,0,0
1.8988,16.305,8.013,0.00049163,-0.0048672,-5.8794e-13,-5.9058e-12,14.126,0.00049163,8.013,16.305,0.021747,-0.00077377,-2.0893e-13,1,44.806,95.606,0,0
1.8704,16.281,7.8855,0.0004903,-0.005001,-4.0606e-13,-5.804e-12,14.107,0.0004903,7.8855,16.281,0.021754,-0.0007127,-2.0898e-13,1,44.907,95.707,0,0
1.842,16.256,7.7581,0.00048904,-0.0051347,-2.1425e-13,-5.6941e-12,14.088,0.00048904,7.7581,16.256,0.021761,-0.00065163,-2.0903e-13,1,45.009,95.809,0,0
1.8136,16.231,7.6307,0.00048787,-0.0052684,-1.2532e-14,-5.5763e-12,14.069,0.00048787,7.6307,16.231,0.021767,-0.00059055,-2.0908e-13,1,45.11,95.91,0,0
1.7852,16.207,7.5032,0.00048678,-0.005402,1.9911e-13,-5.4504e-12,14.052,0.00048678,7.5032,16.207,0.021774,-0.00052948,-2.0913e-13,1,45.212,96.012,0,0
1.7568,16.182,7.3758,0.00048578,-0.0055356,4.2067e-13,-5.3166e-12,14.036,0.00048578,7.3758,16.182,0.021781,-0.0004684,-2.0918e-13,1,45.314,96.114,0,0
1.7284,16.158,7.2483,0.00048485,-0.0056691,6.5214e-13,-5.1747e-12,14.02,0.00048485,7.2483,16.158,0.021787,-0.00040733,-2.0923e-13,1,45.415,96.215,0,0
1.7,16.133,7.1209,0.00048401,-0.0058025,8.9354e-13,-5.0249e-12,14.005,0.00048401,7.1209,16.133,0.021794,-0.00034625,-2.0928e-13,1,45.517,96.317,0,0
1.6716,16.109,6.9934,0.00048324,-0.0059359,1.1448e-12,-4.867e-12,13.991,0.00048324,6.9934,16.109,0.021801,-0.00028518,-2.0933e-13,1,45.618,96.418,0,0
1.643,16.084,6.8653,0.00048253,-0.0060456,1.4066e-12,-4.701e-12,13.978,0.00048253,6.8652,16.084,0.021807,-0.00022374,-2.0938e-13,1,45.72,96.52,0,0
1.6387,16.057,6.7493,0.00047921,-0.0061294,1.3132e-12,-4.8057e-12,13.964,0.00047921,6.7493,16.057,0.021814,-0.00016266,-2.0943e-13,1,45.822,96.622,0,0
1.6343,16.03,6.6333,0.000476,-0.0062133,1.2218e-12,-4.9057e-12,13.95,0.000476,6.6333,16.03,0.021821,-0.00010159,-2.0948e-13,1,45.923,96.723,0,0
1.6299,16.003,6.5174,0.00047289,-0.0062971,1.1323e-12,-5.0008e-12,13.938,0.00047289,6.5173,16.003,0.021827,-4.0514e-05,-2.0953e-13,1,46.025,96.825,0,0
1.6255,15.976,6.4014,0.00046989,-0.0063809,1.0447e-12,-5.0911e-12,13.926,0.00046989,6.4014,15.976,0.021834,2.0562e-05,-2.0958e-13,1,46.126,96.926,0,0
1.6211,15.949,6.2854,0.00046699,-0.0064646,9.5908e-13,-5.1766e-12,13.914,0.00046699,6.2854,15.949,0.021841,8.1637e-05,-2.0963e-13,1,46.228,97.028,0,0
1.6168,15.922,6.1694,0.0004642,-0.0065484,8.7535e-13,-5.2573e-12,13.904,0.0004642,6.1694,15.922,0.021847,0.00014271,-2.0968e-13,1,46.33,97.13,0,0
1.6124,15.894,6.0535,0.00046152,-0.0066322,7.9353e-13,-5.3332e-12,13.895,0.00046152,6.0535,15.894,0.021854,0.00020379,-2.0973e-13,1,46.431,97.231,0,0
1.608,15.867,5.9375,0.00045895,-0.0067159,7.1363e-13,-5.4043e-12,13.886,0.00045895,5.9375,15.867,0.021861,0.00026487,-2.0978e-13,1,46.533,97.333,0,0
1.6036,15.84,5.8215,0.00045648,-0.0067996,6.3565e-13,-5.4706e-12,13.878,0.00045648,5.8215,15.84,0.021868,0.00032594,-2.0983e-13,1,46.634,97.434,0,0
1.5992,15.813,5.7055,0.00045412,-0.0068833,5.596e-13,-5.5321e-12,13.87,0.00045412,5.7055,15.813,0.021874,0.00038702,-2.0989e-13,1,46.736,97.536,0,0
1.5949,15.786,5.5895,0.00045187,-0.006967,4.8546e-13,-5.5888e-12,13.864,0.00045187,5.5895,15.786,0.021881,0.0004481,-2.0994e-13,1,46.838,97.638,0,0
1.5905,15.759,5.4736,0.00044972,-0.0070507,4.1324e-13,-5.6408e-12,13.858,0.00044972,5.4736,15.759,0.021888,0.00050917,-2.0999e-13,1,46.939,97.739,0,0
1.5861,15.732,5.3576,0.00044768,-0.0071343,3.4294e-13,-5.6879e-12,13.854,0.00044768,5.3576,15.732,0.021894,0.00057024,-2.1004e-13,1,47.041,97.841,0,0
1.5817,15.705,5.2416,0.00044575,-0.007218,2.7456e-13,-5.7302e-12,13.85,0.00044575,5.2416,15.705,0.021901,0.00063132,-2.1009e-13,1,47.142,97.942,0,0
1.5773,15.678,5.1256,0.00044393,-0.0073016,2.081e-13,-5.7677e-12,13.846,0.00044393,5.1256,15.678,0.021908,0.0006924,-2.1014e-13,1,47.244,98.044,0,0
1.573,15.651,5.0096,0.00044221,-0.0073852,1.4355e-13,-5.8004e-12,13.844,0.00044221,5.0096,15.651,0.021915,0.00075348,-2.1019e-13,1,47.346,98.146,0,0
1.5686,15.624,4.8936,0.0004406,-0.0074688,8.0932e-14,-5.8284e-12,13.842,0.0004406,4.8936,15.624,0.021921,0.00081456,-2.1024e-13,1,47.447,98.247,0,0
1.5642,15.597,4.7776,0.00043909,-0.0075524,2.0228e-14,-5.8515e-12,13.841,0.00043909,4.7776,15.597,0.021928,0.00087563,-2.1029e-13,1,47.549,98.349,0,0
1.5598,15.57,4.6616,0.00043769,-0.007636,-3.8556e-14,-5.8698e-12,13.841,0.00043769,4.6616,15.57,0.021935,0.00093671,-2.1034e-13,1,47.65,98.45,0,0
1.5554,15.543,4.5456,0.0004364,-0.0077195,-9.542e-14,-5.8833e-12,13.842,0.0004364,4.5456,15.543,0.021942,0.00099779,-2.1039e-13,1,47.752,98.552,0,0
1.5511,15.516,4.4296,0.00043522,-0.0078031,-1.5037e-13,-5.8921e-12,13.843,0.00043522,4.4296,15.516,0.021948,0.0010589,-2.1044e-13,1,47.854,98.654,0,0
1.5467,15.489,4.3136,0.00043414,-0.0078866,-2.0339e-13,-5.896e-12,13.845,0.00043414,4.3136,15.489,0.021955,0.0011199,-2.1049e-13,1,47.955,98.755,0,0
1.5423,15.462,4.1977,0.00043317,-0.0079701,-2.5449e-13,-5.8951e-12,13.849,0.00043317,4.1977,15.462,0.021962,0.001181,-2.1054e-13,1,48.057,98.857,0,0
1.5379,15.435,4.0817,0.00043231,-0.0080536,-3.0368e-13,-5.8895e-12,13.852,0.00043231,4.0816,15.435,0.021969,0.0012421,-2.1059e-13,1,48.158,98.958,0,0
1.5335,15.408,3.9656,0.00043155,-0.0081371,-3.5095e-13,-5.879e-12,13.857,0.00043155,3.9656,15.408,0.021975,0.0013032,-2.1064e-13,1,48.26,99.06,0,0
1.5292,15.381,3.8496,0.0004309,-0.0082205,-3.963e-13,-5.8637e-12,13.862,0.0004309,3.8496,15.381,0.021982,0.0013643,-2.1069e-13,1,48.362,99.162,0,0
1.5248,15.354,3.7336,0.00043036,-0.008304,-4.3972e-13,-5.8437e-12,13.869,0.00043036,3.7336,15.354,0.021989,0.0014253,-2.1074e-13,1,48.463,99.263,0,0
1.5204,15.327,3.6176,0.00042993,-0.0083874,-4.8123e-13,-5.8188e-12,13.876,0.00042993,3.6176,15.327,0.021996,0.0014864,-2.1079e-13,1,48.565,99.365,0,0
1.516,15.3,3.5016,0.0004296,-0.0084708,-5.2082e-13,-5.7892e-12,13.883,0.0004296,3.5016,15.3,0.022003,0.0015475,-2.1084e-13,1,48.666,99.466,0,0
1.5116,15.273,3.3856,0.00042938,-0.0085542,-5.5849e-13,-5.7547e-12,13.892,0.00042938,3.3856,15.273,0.022009,0.0016086,-2.109e-13,1,48.768,99.568,0,0
1.5072,15.246,3.2696,0.00042926,-0.0086376,-5.9424e-13,-5.7154e-12,13.901,0.00042926,3.2696,15.246,0.022016,0.0016697,-2.1095e-13,1,48.87,99.67,0,0
1.5029,15.219,3.1536,0.00042925,-0.008721,-6.2808e-13,-5.6714e-12,13.912,0.00042925,3.1536,15.219,0.022023,0.0017307,-2.11e-13,1,48.971,99.771,0,0
1.4985,15.192,3.0376,0.00042935,-0.0088043,-6.5999e-13,-5.6225e-12,13.923,0.00042935,3.0376,15.192,0.02203,0.0017918,-2.1105e-13,1,49.073,99.873,0,0
1.4941,15.165,2.9215,0.00042956,-0.0088877,-6.8998e-13,-5.5689e-12,13.934,0.00042956,2.9215,15.165,0.022036,0.0018529,-2.111e-13,1,49.174,99.974,0,0
1.4897,15.138,2.8055,0.00042987,-0.008971,-7.1805e-13,-5.5104e-12,13.947,0.00042987,2.8055,15.138,0.022043,0.001914,-2.1115e-13,1,49.276,100.08,0,0
1.4853,15.111,2.6895,0.00043029,-0.0090543,-7.4421e-13,-5.4472e-12,13.96,0.00043029,2.6895,15.111,0.02205,0.0019751,-2.112e-13,1,49.378,100.18,0,0
1.481,15.084,2.5735,0.00043082,-0.0091376,-7.6844e-13,-5.3791e-12,13.974,0.00043082,2.5735,15.084,0.022057,0.0020362,-2.1125e-13,1,49.479,100.28,0,0
1.4766,15.057,2.4575,0.00043145,-0.0092209,-7.9075e-13,-5.3063e-12,13.989,0.00043145,2.4575,15.057,0.022064,0.0020972,-2.113e-13,1,49.581,100.38,0,0
1.4722,15.03,2.3414,0.00043219,-0.0093042,-8.1115e-13,-5.2287e-12,14.005,0.00043219,2.3414,15.03,0.022071,0.0021583,-2.1135e-13,1,49.682,100.48,0,0
1.4678,15.003,2.2254,0.00043304,-0.0093874,-8.2963e-13,-5.1462e-12,14.021,0.00043304,2.2254,15.003,0.022077,0.0022194,-2.114e-13,1,49.784,100.58,0,0
1.4634,14.976,2.1094,0.000434,-0.0094707,-8.4618e-13,-5.059e-12,14.039,0.000434,2.1094,14.976,0.022084,0.0022805,-2.1145e-13,1,49.886,100.69,0,0
1.4591,14.949,1.9933,0.00043506,-0.0095539,-8.6082e-13,-4.9669e-12,14.057,0.00043506,1.9933,14.949,0.022091,0.0023416,-2.115e-13,1,49.987,100.79,0,0
1.4547,14.922,1.8773,0.00043623,-0.0096371,-8.7354e-13,-4.8701e-12,14.076,0.00043623,1.8773,14.922,0.022098,0.0024026,-2.1155e-13,1,50.089,100.89,0,0
1.4503,14.895,1.7613,0.0004375,-0.0097203,-8.8433e-13,-4.7684e-12,14.095,0.0004375,1.7613,14.895,0.022105,0.0024637,-2.116e-13,1,50.19,100.99,0,0
1.4459,14.868,1.6452,0.00043888,-0.0098035,-8.9321e-13,-4.662e-12,14.116,0.00043888,1.6452,14.868,0.022111,0.0025248,-2.1165e-13,1,50.292,101.09,0,0
1.4415,14.841,1.5292,0.00044037,-0.0098867,-9.0017e-13,-4.5508e-12,14.137,0.00044037,1.5292,14.841,0.022118,0.0025859,-2.117e-13,1,50.394,101.19,0,0
1.4372,14.814,1.4132,0.00044197,-0.0099698,-9.0521e-13,-4.4348e-12,14.159,0.00044197,1.4132,14.814,0.022125,0.002647,-2.1175e-13,1,50.495,101.3,0,0
1.4328,14.787,1.2971,0.00044367,-0.010053,-9.0833e-13,-4.3139e-12,14.182,0.00044367,1.2971,14.787,0.022132,0.0027081,-2.118e-13,1,50.597,101.4,0,0
1.4284,14.76,1.1811,0.00044548,-0.010136,-9.0953e-13,-4.1883e-12,14.205,0.00044548,1.1811,14.76,0.022139,0.0027692,-2.1185e-13,1,50.698,101.5,0,0
1.424,14.732,1.0644,0.00044738,-0.010193,-9.0928e-13,-4.0581e-12,14.23,0.00031634,1.0645,14.732,0.022146,0.0028306,-2.119e-13,1,50.8,101.6,0,0
1.4256,14.704,0.95757,0.00044485,-0.010229,-1.0672e-12,-4.2554e-12,14.25,-0.043505,1.0015,14.704,0.022153,0.0028917,-2.1195e-13,1,50.902,101.7,0,0
1.4272,14.675,0.85076,0.00044239,-0.010265,-1.2172e-12,-4.4446e-12,14.27,-0.089029,0.94023,14.675,0.022159,0.0029528,-2.1199e-13,1,51.003,101.8,0,0
1.4288,14.647,0.74395,0.00044,-0.0103,-1.3591e-12,-4.6258e-12,14.291,-0.13626,0.88064,14.647,0.022166,0.0030139,-2.1204e-13,1,51.105,101.9,0,0
1.4304,14.618,0.63714,0.00043769,-0.010336,-1.4931e-12,-4.7991e-12,14.312,-0.18519,0.82276,14.618,0.022173,0.0030749,-2.1208e-13,1,51.206,102.01,0,0
1.432,14.59,0.53032,0.00043545,-0.010371,-1.619e-12,-4.9643e-12,14.334,-0.23582,0.76658,14.59,0.02218,0.003136,-2.1213e-13,1,51.308,102.11,0,0
1.4336,14.561,0.42351,0.00043329,-0.010407,-1.737e-12,-5.1215e-12,14.357,-0.28816,0.7121,14.561,0.022187,0.0031971,-2.1217e-13,1,51.41,102.21,0,0
1.4352,14.533,0.31669,0.0004312,-0.010442,-1.8469e-12,-5.2708e-12,14.38,-0.3422,0.65932,14.533,0.022194,0.0032582,-2.1222e-13,1,51.511,102.31,0,0
1.4368,14.504,0.20988,0.00042919,-0.010478,-1.9489e-12,-5.412e-12,14.403,-0.39795,0.60825,14.504,0.022201,0.0033193,-2.1226e-13,1,51.613,102.41,0,0
1.4385,14.476,0.10307,0.00042725,-0.010513,-2.0429e-12,-5.5453e-12,14.428,-0.45539,0.55888,14.476,0.022207,0.0033804,-2.1231e-13,1,51.714,102.51,0,0
1.4401,14.447,-0.0037507,0.00042538,-0.010549,-2.1288e-12,-5.6705e-12,14.452,-0.51454,0.51121,14.447,0.022214,0.0034415,-2.1235e-13,1,51.816,102.62,0,0
1.4417,14.419,-0.11057,0.00042359,-0.010584,-2.2068e-12,-5.7878e-12,14.477,-0.5754,0.46524,14.419,0.022221,0.0035025,-2.124e-13,1,51.918,102.72,0,0
1.4433,14.39,-0.21739,0.00042187,-0.01062,-2.2768e-12,-5.8971e-12,14.503,-0.63795,0.42098,14.39,0.022228,0.0035636,-2.1244e-13,1,52.019,102.82,0,0
1.4449,14.362,-0.32421,0.00042023,-0.010655,-2.3388e-12,-5.9983e-12,14.53,-0.70222,0.37842,14.362,0.022235,0.0036247,-2.1249e-13,1,52.121,102.92,0,0
1.4465,14.333,-0.43104,0.00041866,-0.010691,-2.3927e-12,-6.0916e-12,14.556,-0.76818,0.33756,14.333,0.022242,0.0036858,-2.1253e-13,1,52.222,103.02,0,0
1.4481,14.304,-0.53786,0.00041717,-0.010726,-2.4387e-12,-6.1769e-12,14.584,-0.83585,0.2984,14.304,0.022249,0.0037469,-2.1258e-13,1,52.324,103.12,0,0
1.4497,14.276,-0.64469,0.00041575,-0.010761,-2.4767e-12,-6.2542e-12,14.612,-0.90522,0.26094,14.276,0.022256,0.003808,-2.1262e-13,1,52.426,103.23,0,0
1.4513,14.247,-0.75152,0.00041441,-0.010797,-2.5067e-12,-6.3234e-12,14.64,-0.9763,0.22519,14.247,0.022262,0.0038691,-2.1267e-13,1,52.527,103.33,0,0
1.4529,14.219,-0.85834,0.00041314,-0.010832,-2.5287e-12,-6.3847e-12,14.669,-1.0491,0.19114,14.219,0.022269,0.0039302,-2.1271e-13,1,52.629,103.43,0,0
1.4545,14.19,-0.96517,0.00041194,-0.010867,-2.5426e-12,-6.438e-12,14.699,-1.1236,0.15879,14.19,0.022276,0.0039912,-2.1276e-13,1,52.73,103.53,0,0
1.4561,14.162,-1.072,0.00041082,-0.010903,-2.5486e-12,-6.4833e-12,14.729,-1.1997,0.12814,14.162,0.022283,0.0040523,-2.128e-13,1,52.832,103.63,0,0
1.4577,14.133,-1.1788,0.00040978,-0.010938,-2.5466e-12,-6.5206e-12,14.759,-1.2776,0.099203,14.133,0.02229,0.0041134,-2.1285e-13,1,52.934,103.73,0,0
1.4593,14.105,-1.2857,0.0004088,-0.010973,-2.5366e-12,-6.5499e-12,14.791,-1.3572,0.071962,14.105,0.022297,0.0041745,-2.1289e-13,1,53.035,103.84,0,0
1.4609,14.076,-1.3925,0.00040791,-0.011009,-2.5186e-12,-6.5712e-12,14.822,-1.4385,0.046422,14.076,0.022304,0.0042356,-2.1294e-13,1,53.137,103.94,0,0
1.4625,14.048,-1.4993,0.00040708,-0.011044,-2.4926e-12,-6.5845e-12,14.855,-1.5215,0.022586,14.048,0.022311,0.0042967,-2.1298e-13,1,53.238,104.04,0,0
1.4641,14.019,-1.6062,0.00040634,-0.011079,-2.4586e-12,-6.5898e-12,14.887,-1.6062,0.00045124,14.019,0.022318,0.0043578,-2.1303e-13,1,53.34,104.14,0,0
1.4657,13.991,-1.713,0.00040566,-0.011114,-2.4166e-12,-6.5872e-12,14.921,-1.6926,-0.019981,13.991,0.022324,0.0044189,-2.1307e-13,1,53.442,104.24,0,0
1.4673,13.962,-1.8198,0.00040506,-0.011149,-2.3666e-12,-6.5765e-12,14.955,-1.7807,-0.038711,13.962,0.022331,0.00448,-2.1312e-13,1,53.543,104.34,0,0
1.4689,13.934,-1.9267,0.00040454,-0.011184,-2.3086e-12,-6.5578e-12,14.989,-1.8705,-0.055738,13.934,0.022338,0.0045411,-2.1316e-13,1,53.645,104.44,0,0
1.4705,13.905,-2.0335,0.00040408,-0.01122,-2.2427e-12,-6.5311e-12,15.024,-1.9621,-0.071063,13.905,0.022345,0.0046021,-2.1321e-13,1,53.746,104.55,0,0
1.4721,13.877,-2.1404,0.00040371,-0.011255,-2.1687e-12,-6.4964e-12,15.059,-2.0553,-0.084686,13.877,0.022352,0.0046632,-2.1325e-13,1,53.848,104.65,0,0
1.4737,13.848,-2.2472,0.00040341,-0.01129,-2.0867e-12,-6.4538e-12,15.096,-2.1502,-0.096606,13.848,0.022359,0.0047243,-2.133e-13,1,53.95,104.75,0,0
1.4753,13.82,-2.354,0.00040318,-0.011325,-1.9967e-12,-6.4031e-12,15.132,-2.2468,-0.10682,13.82,0.022366,0.0047854,-2.1334e-13,1,54.051,104.85,0,0
1.4769,13.791,-2.4609,0.00040302,-0.01136,-1.8987e-12,-6.3445e-12,15.169,-2.3452,-0.11534,13.791,0.022373,0.0048465,-2.1339e-13,1,54.153,104.95,0,0
1.4786,13.763,-2.5677,0.00040295,-0.011395,-1.7928e-12,-6.2778e-12,15.207,-2.4452,-0.12215,13.763,0.02238,0.0049076,-2.1343e-13,1,54.254,105.05,0,0
1.4802,13.734,-2.6746,0.00040294,-0.01143,-1.6788e-12,-6.2032e-12,15.245,-2.5469,-0.12726,13.734,0.022387,0.0049687,-2.1348e-13,1,54.356,105.16,0,0
1.4818,13.706,-2.7814,0.00040301,-0.011465,-1.5568e-12,-6.1205e-12,15.284,-2.6504,-0.13067,13.706,0.022394,0.0050298,-2.1352e-13,1,54.458,105.26,0,0
1.4834,13.677,-2.8883,0.00040316,-0.0115,-1.4269e-12,-6.0299e-12,15.323,-2.7555,-0.13238,13.677,0.0224,0.0050909,-2.1357e-13,1,54.559,105.36,0,0
1.485,13.649,-2.9951,0.00040337,-0.011535,-1.2889e-12,-5.9312e-12,15.363,-2.8624,-0.13238,13.649,0.022407,0.005152,-2.1361e-13,1,54.661,105.46,0,0
1.4866,13.62,-3.102,0.00040367,-0.01157,-1.1429e-12,-5.8246e-12,15.403,-2.9709,-0.13069,13.62,0.022414,0.0052131,-2.1366e-13,1,54.762,105.56,0,0
1.4882,13.592,-3.2088,0.00040404,-0.011605,-9.8896e-13,-5.7099e-12,15.444,-3.0812,-0.12729,13.592,0.022421,0.0052741,-2.137e-13,1,54.864,105.66,0,0
1.4898,13.563,-3.3157,0.00040448,-0.01164,-8.27e-13,-5.5873e-12,15.486,-3.1931,-0.12218,13.563,0.022428,0.0053352,-2.1375e-13,1,54.966,105.77,0,0
1.4914,13.535,-3.4225,0.00040499,-0.011675,-6.5704e-13,-5.4567e-12,15.528,-3.3068,-0.11538,13.535,0.022435,0.0053963,-2.1379e-13,1,55.067,105.87,0,0
1.493,13.506,-3.5294,0.00040559,-0.01171,-4.7909e-13,-5.3181e-12,15.57,-3.4221,-0.10687,13.506,0.022442,0.0054574,-2.1384e-13,1,55.169,105.97,0,0
1.4946,13.478,-3.6363,0.00040625,-0.011745,-2.9315e-13,-5.1714e-12,15.613,-3.5392,-0.096661,13.478,0.022449,0.0055185,-2.1388e-13,1,55.27,106.07,0,0
1.4962,13.449,-3.7431,0.00040699,-0.011779,-9.9197e-14,-5.0168e-12,15.657,-3.658,-0.084749,13.449,0.022456,0.0055796,-2.1393e-13,1,55.372,106.17,0,0
1.4978,13.421,-3.85,0.0004078,-0.011814,1.0275e-13,-4.8542e-12,15.701,-3.7784,-0.071134,13.421,0.022463,0.0056407,-2.1397e-13,1,55.474,106.27,0,0
1.4994,13.392,-3.9568,0.00040869,-0.011849,3.127e-13,-4.6836e-12,15.746,-3.9006,-0.055817,13.392,0.02247,0.0057018,-2.1402e-13,1,55.575,106.38,0,0
1.501,13.364,-4.0637,0.00040966,-0.011884,5.3064e-13,-4.505e-12,15.791,-4.0245,-0.038798,13.364,0.022477,0.0057629,-2.1406e-13,1,55.677,106.48,0,0
1.5026,13.335,-4.1706,0.00041069,-0.011919,7.5658e-13,-4.3184e-12,15.837,-4.1501,-0.020077,13.335,0.022484,0.005824,-2.1411e-13,1,55.778,106.58,0,0
1.5045,13.307,-4.2781,0.00041179,-0.011926,9.905e-13,-4.1233e-12,15.884,-4.2781,0.00041179,13.307,0.02249,0.0058854,-2.1415e-13,1,55.88,106.68,0,0
1.594,13.277,-4.3774,0.00041021,-0.011918,7.7326e-13,-4.2026e-12,15.924,-4.3774,0.00041021,13.277,0.022497,0.0059465,-2.142e-13,1,55.982,106.78,0,0
1.6834,13.248,-4.4767,0.00040868,-0.011909,5.6401e-13,-4.2739e-12,15.965,-4.4767,0.00040868,13.248,0.022504,0.0060076,-2.1424e-13,1,56.083,106.88,0,0
1.7729,13.218,-4.5761,0.00040721,-0.011901,3.6277e-13,-4.3372e-12,16.006,-4.5761,0.00040721,13.218,0.022511,0.0060687,-2.1429e-13,1,56.185,106.98,0,0
1.8624,13.189,-4.6754,0.00040578,-0.011893,1.6952e-13,-4.3925e-12,16.048,-4.6754,0.00040578,13.189,0.022518,0.0061298,-2.1434e-13,1,56.286,107.09,0,0
1.9518,13.16,-4.7748,0.00040441,-0.011884,-1.5735e-14,-4.4399e-12,16.09,-4.7748,0.00040441,13.16,0.022525,0.0061909,-2.1438e-13,1,56.388,107.19,0,0
2.0413,13.13,-4.8741,0.0004031,-0.011876,-1.9298e-13,-4.4792e-12,16.132,-4.8741,0.0004031,13.13,0.022532,0.006252,-2.1443e-13,1,56.49,107.29,0,0
2.1308,13.101,-4.9735,0.00040184,-0.011867,-3.6223e-13,-4.5105e-12,16.174,-4.9735,0.00040184,13.101,0.022539,0.0063131,-2.1447e-13,1,56.591,107.39,0,0
2.2202,13.072,-5.0728,0.00040063,-0.011859,-5.2349e-13,-4.5338e-12,16.217,-5.0728,0.00040063,13.072,0.022546,0.0063742,-2.1452e-13,1,56.693,107.49,0,0
2.3097,13.042,-5.1722,0.00039947,-0.01185,-6.7675e-13,-4.5492e-12,16.26,-5.1722,0.00039947,13.042,0.022553,0.0064353,-2.1457e-13,1,56.794,107.59,0,0
2.3992,13.013,-5.2715,0.00039837,-0.011842,-8.2202e-13,-4.5565e-12,16.304,-5.2715,0.00039837,13.013,0.02256,0.0064964,-2.1461e-13,1,56.896,107.7,0,0
2.4886,12.984,-5.3709,0.00039732,-0.011833,-9.5929e-13,-4.5558e-12,16.348,-5.3709,0.00039732,12.984,0.022567,0.0065575,-2.1466e-13,1,56.998,107.8,0,0
2.5781,12.954,-5.4702,0.00039632,-0.011825,-1.0886e-12,-4.5472e-12,16.392,-5.4702,0.00039632,12.954,0.022574,0.0066186,-2.147e-13,1,57.099,107.9,0,0
2.6676,12.925,-5.5696,0.00039538,-0.011816,-1.2098e-12,-4.5305e-12,16.436,-5.5696,0.00039538,12.925,0.022581,0.0066797,-2.1475e-13,1,57.201,108,0,0
2.757,12.896,-5.6689,0.00039449,-0.011808,-1.3231e-12,-4.5059e-12,16.481,-5.6689,0.00039449,12.896,0.022588,0.0067408,-2.148e-13,1,57.302,108.1,0,0
2.8465,12.866,-5.7683,0.00039365,-0.011799,-1.4284e-12,-4.4732e-12,16.526,-5.7683,0.00039365,12.866,0.022594,0.0068019,-2.1484e-13,1,57.404,108.2,0,0
2.936,12.837,-5.8676,0.00039286,-0.011791,-1.5257e-12,-4.4326e-12,16.571,-5.8676,0.00039286,12.837,0.022601,0.006863,-2.1489e-13,1,57.506,108.31,0,0
3.0254,12.808,-5.967,0.00039213,-0.011782,-1.6149e-12,-4.3839e-12,16.617,-5.967,0.00039213,12.808,0.022608,0.0069241,-2.1493e-13,1,57.607,108.41,0,0
3.1149,12.778,-6.0663,0.00039145,-0.011774,-1.6962e-12,-4.3273e-12,16.663,-6.0663,0.00039145,12.778,0.022615,0.0069852,-2.1498e-13,1,57.709,108.51,0,0
3.2043,12.749,-6.1657,0.00039083,-0.011765,-1.7695e-12,-4.2626e-12,16.709,-6.1657,0.00039083,12.749,0.022622,0.0070463,-2.1503e-13,1,57.81,108.61,0,0
3.2938,12.719,-6.265,0.00039026,-0.011757,-1.8348e-12,-4.19e-12,16.756,-6.2651,0.00039026,12.719,0.022629,0.0071074,-2.1507e-13,1,57.912,108.71,0,0
3.3833,12.69,-6.3644,0.00038974,-0.011748,-1.8921e-12,-4.1093e-12,16.803,-6.3644,0.00038974,12.69,0.022636,0.0071685,-2.1512e-13,1,58.014,108.81,0,0
3.4727,12.661,-6.4638,0.00038927,-0.01174,-1.9414e-12,-4.0207e-12,16.85,-6.4638,0.00038927,12.661,0.022643,0.0072296,-2.1516e-13,1,58.115,108.92,0,0
3.5622,12.631,-6.5631,0.00038886,-0.011731,-1.9827e-12,-3.9241e-12,16.898,-6.5631,0.00038886,12.631,0.02265,0.0072907,-2.1521e-13,1,58.217,109.02,0,0
3.6517,12.602,-6.6625,0.0003885,-0.011722,-2.016e-12,-3.8194e-12,16.946,-6.6625,0.0003885,12.602,0.022657,0.0073518,-2.1526e-13,1,58.318,109.12,0,0
3.7411,12.573,-6.7619,0.0003882,-0.011714,-2.0413e-12,-3.7068e-12,16.994,-6.7619,0.0003882,12.573,0.022664,0.0074129,-2.153e-13,1,58.42,109.22,0,0
3.8306,12.543,-6.8612,0.00038794,-0.011705,-2.0586e-12,-3.5862e-12,17.043,-6.8612,0.00038794,12.543,0.022671,0.007474,-2.1535e-13,1,58.522,109.32,0,0
3.9201,12.514,-6.9606,0.00038774,-0.011697,-2.0679e-12,-3.4575e-12,17.092,-6.9606,0.00038774,12.514,0.022678,0.0075351,-2.1539e-13,1,58.623,109.42,0,0
4.0095,12.485,-7.0599,0.0003876,-0.011688,-2.0692e-12,-3.3209e-12,17.141,-7.06,0.0003876,12.485,0.022685,0.0075962,-2.1544e-13,1,58.725,109.52,0,0
4.099,12.455,-7.1593,0.0003875,-0.011679,-2.0625e-12,-3.1763e-12,17.191,-7.1593,0.0003875,12.455,0.022692,0.0076573,-2.1549e-13,1,58.826,109.63,0,0
4.1885,12.426,-7.2587,0.00038746,-0.011671,-2.0478e-12,-3.0237e-12,17.241,-7.2587,0.00038746,12.426,0.022699,0.0077184,-2.1553e-13,1,58.928,109.73,0,0
4.2779,12.397,-7.358,0.00038748,-0.011662,-2.0251e-12,-2.8631e-12,17.291,-7.358,0.00038748,12.397,0.022705,0.0077795,-2.1558e-13,1,59.03,109.83,0,0
4.3674,12.367,-7.4574,0.00038754,-0.011653,-1.9945e-12,-2.6945e-12,17.342,-7.4574,0.00038754,12.367,0.022712,0.0078406,-2.1562e-13,1,59.131,109.93,0,0
4.4569,12.338,-7.5568,0.00038766,-0.011645,-1.9558e-12,-2.5178e-12,17.392,-7.5568,0.00038766,12.338,0.022719,0.0079017,-2.1567e-13,1,59.233,110.03,0,0
4.5463,12.309,-7.6562,0.00038783,-0.011636,-1.9091e-12,-2.3332e-12,17.444,-7.6562,0.00038783,12.309,0.022726,0.0079628,-2.1572e-13,1,59.334,110.13,0,0
4.6358,12.279,-7.7555,0.00038806,-0.011627,-1.8544e-12,-2.1406e-12,17.495,-7.7555,0.00038806,12.279,0.022733,0.0080239,-2.1576e-13,1,59.436,110.24,0,0
4.7253,12.25,-7.8549,0.00038834,-0.011619,-1.7918e-12,-1.94e-12,17.547,-7.8549,0.00038834,12.25,0.02274,0.008085,-2.1581e-13,1,59.538,110.34,0,0
4.8147,12.221,-7.9543,0.00038867,-0.01161,-1.7211e-12,-1.7314e-12,17.599,-7.9543,0.00038867,12.221,0.022747,0.0081461,-2.1585e-13,1,59.639,110.44,0,0
4.9042,12.191,-8.0536,0.00038905,-0.011601,-1.6424e-12,-1.5148e-12,17.652,-8.0536,0.00038905,12.191,0.022754,0.0082072,-2.159e-13,1,59.741,110.54,0,0
4.9937,12.162,-8.153,0.00038949,-0.011593,-1.5558e-12,-1.2902e-12,17.704,-8.153,0.00038949,12.162,0.022761,0.0082683,-2.1595e-13,1,59.842,110.64,0,0
5.0831,12.133,-8.2524,0.00038998,-0.011584,-1.4611e-12,-1.0576e-12,17.758,-8.2524,0.00038998,12.133,0.022768,0.0083294,-2.1599e-13,1,59.944,110.74,0,0
5.1726,12.103,-8.3518,0.00039053,-0.011575,-1.3584e-12,-8.1704e-13,17.811,-8.3518,0.00039053,12.103,0.022775,0.0083905,-2.1604e-13,1,60.046,110.85,0,0
5.2621,12.074,-8.4511,0.00039112,-0.011566,-1.2478e-12,-5.6845e-13,17.865,-8.4511,0.00039112,12.074,0.022782,0.0084516,-2.1608e-13,1,60.147,110.95,0,0
5.3515,12.045,-8.5505,0.00039178,-0.011558,-1.1291e-12,-3.1186e-13,17.919,-8.5505,0.00039178,12.045,0.022789,0.0085127,-2.1613e-13,1,60.249,111.05,0,0
5.441,12.015,-8.6499,0.00039248,-0.011549,-1.0025e-12,-4.7273e-14,17.973,-8.6499,0.00039248,12.015,0.022796,0.0085738,-2.1618e-13,1,60.35,111.15,0,0
5.5305,11.986,-8.7493,0.00039324,-0.01154,-8.6783e-13,2.2531e-13,18.028,-8.7493,0.00039324,11.986,0.022803,0.0086349,-2.1622e-13,1,60.452,111.25,0,0
5.6199,11.957,-8.8487,0.00039405,-0.011531,-7.2519e-13,5.059e-13,18.083,-8.8487,0.00039405,11.957,0.02281,0.008696,-2.1627e-13,1,60.554,111.35,0,0
5.7094,11.927,-8.948,0.00039491,-0.011523,-5.7454e-13,7.9448e-13,18.139,-8.948,0.00039491,11.927,0.022817,0.0087571,-2.1631e-13,1,60.655,111.46,0,0
5.7989,11.898,-9.0474,0.00039583,-0.011514,-4.159e-13,1.0911e-12,18.194,-9.0474,0.00039583,11.898,0.022823,0.0088182,-2.1636e-13,1,60.757,111.56,0,0
5.8883,11.869,-9.1468,0.00039679,-0.011505,-2.4926e-13,1.3956e-12,18.25,-9.1468,0.00039679,11.869,0.02283,0.0088793,-2.1641e-13,1,60.858,111.66,0,0
5.9781,11.839,-9.2468,0.0003978,-0.011468,-7.411e-14,1.709e-12,18.307,-9.2468,0.0003978,11.839,0.022837,0.0089408,-2.1645e-13,1,60.96,111.76,0,0
5.9781,11.809,-9.34,0.00039645,-0.011427,-8.8925e-14,1.6576e-12,18.358,-9.34,0.00039645,11.81,0.022844,0.0090019,-2.1649e-13,1,61.062,111.86,0,0
5.9781,11.78,-9.4331,0.00039514,-0.011386,-1.0374e-13,1.6061e-12,18.409,-9.4332,0.00039514,11.78,0.022851,0.009063,-2.1653e-13,1,61.163,111.96,0,0
5.9781,11.75,-9.5263,0.00039387,-0.011344,-1.1855e-13,1.5547e-12,18.46,-9.5263,0.00039387,11.75,0.022858,0.0091241,-2.1657e-13,1,61.265,112.06,0,0
5.9781,11.72,-9.6195,0.00039265,-0.011303,-1.3337e-13,1.5032e-12,18.512,-9.6195,0.00039265,11.72,0.022865,0.0091852,-2.1661e-13,1,61.366,112.17,0,0
5.9781,11.691,-9.7127,0.00039148,-0.011261,-1.4819e-13,1.4518e-12,18.563,-9.7127,0.00039148,11.691,0.022872,0.0092463,-2.1665e-13,1,61.468,112.27,0,0
5.9781,11.661,-9.8059,0.00039035,-0.01122,-1.63e-13,1.4003e-12,18.615,-9.8059,0.00039035,11.661,0.022879,0.0093074,-2.1669e-13,1,61.57,112.37,0,0
5.9781,11.631,-9.8991,0.00038927,-0.011178,-1.7782e-13,1.3489e-12,18.667,-9.8991,0.00038927,11.631,0.022886,0.0093685,-2.1674e-13,1,61.671,112.47,0,0
5.9781,11.601,-9.9923,0.00038823,-0.011137,-1.9263e-13,1.2974e-12,18.72,-9.9923,0.00038823,11.601,0.022893,0.0094296,-2.1678e-13,1,61.773,112.57,0,0
5.9781,11.572,-10.085,0.00038724,-0.011095,-2.0745e-13,1.246e-12,18.772,-10.085,0.00038724,11.572,0.0229,0.0094907,-2.1682e-13,1,61.874,112.67,0,0
5.9781,11.542,-10.179,0.00038629,-0.011054,-2.2226e-13,1.1945e-12,18.825,-10.179,0.00038629,11.542,0.022907,0.0095518,-2.1686e-13,1,61.976,112.78,0,0
5.9781,11.512,-10.272,0.00038539,-0.011012,-2.3708e-13,1.143e-12,18.877,-10.272,0.00038539,11.512,0.022914,0.009613,-2.169e-13,1,62.078,112.88,0,0
5.9781,11.482,-10.365,0.00038453,-0.010971,-2.5189e-13,1.0916e-12,18.93,-10.365,0.00038453,11.482,0.022921,0.0096741,-2.1694e-13,1,62.179,112.98,0,0
5.9781,11.453,-10.458,0.00038372,-0.010929,-2.6671e-13,1.0401e-12,18.984,-10.458,0.00038372,11.453,0.022928,0.0097352,-2.1698e-13,1,62.281,113.08,0,0
5.9781,11.423,-10.551,0.00038295,-0.010888,-2.8153e-13,9.8865e-13,19.037,-10.551,0.00038295,11.423,0.022934,0.0097963,-2.1702e-13,1,62.382,113.18,0,0
5.9781,11.393,-10.645,0.00038223,-0.010846,-2.9634e-13,9.3719e-13,19.091,-10.645,0.00038223,11.393,0.022941,0.0098574,-2.1706e-13,1,62.484,113.28,0,0
5.9781,11.364,-10.738,0.00038155,-0.010805,-3.1116e-13,8.8573e-13,19.144,-10.738,0.00038155,11.364,0.022948,0.0099185,-2.171e-13,1,62.586,113.39,0,0
5.9781,11.334,-10.831,0.00038092,-0.010763,-3.2597e-13,8.3426e-13,19.198,-10.831,0.00038092,11.334,0.022955,0.0099796,-2.1714e-13,1,62.687,113.49,0,0
5.9781,11.304,-10.924,0.00038034,-0.010722,-3.4079e-13,7.8279e-13,19.252,-10.924,0.00038034,11.304,0.022962,0.010041,-2.1718e-13,1,62.789,113.59,0,0
5.9781,11.274,-11.017,0.0003798,-0.01068,-3.5561e-13,7.3132e-13,19.307,-11.017,0.0003798,11.274,0.022969,0.010102,-2.1722e-13,1,62.89,113.69,0,0
5.9781,11.245,-11.111,0.0003793,-0.010639,-3.7042e-13,6.7986e-13,19.361,-11.111,0.0003793,11.245,0.022976,0.010163,-2.1726e-13,1,62.992,113.79,0,0
5.9781,11.215,-11.204,0.00037885,-0.010597,-3.8524e-13,6.2838e-13,19.416,-11.204,0.00037885,11.215,0.022983,0.010224,-2.173e-13,1,63.094,113.89,0,0
5.9781,11.185,-11.297,0.00037845,-0.010555,-4.0005e-13,5.7691e-13,19.471,-11.297,0.00037845,11.185,0.02299,0.010285,-2.1734e-13,1,63.195,114,0,0
5.9781,11.156,-11.39,0.00037809,-0.010514,-4.1487e-13,5.2544e-13,19.526,-11.39,0.00037809,11.156,0.022997,0.010346,-2.1738e-13,1,63.297,114.1,0,0
5.9781,11.126,-11.483,0.00037778,-0.010472,-4.2969e-13,4.7397e-13,19.581,-11.483,0.00037778,11.126,0.023004,0.010407,-2.1742e-13,1,63.398,114.2,0,0
5.9781,11.096,-11.577,0.00037751,-0.010431,-4.445e-13,4.2249e-13,19.637,-11.577,0.00037751,11.096,0.023011,0.010468,-2.1746e-13,1,63.5,114.3,0,0
5.9781,11.066,-11.67,0.00037728,-0.010389,-4.5932e-13,3.7102e-13,19.692,-11.67,0.00037728,11.066,0.023018,0.01053,-2.175e-13,1,63.602,114.4,0,0
5.9781,11.037,-11.763,0.00037711,-0.010348,-4.7414e-13,3.1954e-13,19.748,-11.763,0.00037711,11.037,0.023024,0.010591,-2.1754e-13,1,63.703,114.5,0,0
5.9781,11.007,-11.856,0.00037697,-0.010306,-4.8895e-13,2.6807e-13,19.804,-11.856,0.00037697,11.007,0.023031,0.010652,-2.1758e-13,1,63.805,114.6,0,0
5.9781,10.977,-11.949,0.00037688,-0.010264,-5.0377e-13,2.1659e-13,19.86,-11.949,0.00037688,10.977,0.023038,0.010713,-2.1762e-13,1,63.906,114.71,0,0
5.9781,10.947,-12.043,0.00037684,-0.010223,-5.1859e-13,1.6511e-13,19.917,-12.043,0.00037684,10.947,0.023045,0.010774,-2.1766e-13,1,64.008,114.81,0,0
5.9781,10.918,-12.136,0.00037685,-0.010181,-5.334e-13,1.1363e-13,19.973,-12.136,0.00037685,10.918,0.023052,0.010835,-2.177e-13,1,64.11,114.91,0,0
5.9781,10.888,-12.229,0.00037689,-0.01014,-5.4822e-13,6.2149e-14,20.03,-12.229,0.00037689,10.888,0.023059,0.010896,-2.1774e-13,1,64.211,115.01,0,0
5.9781,10.858,-12.322,0.00037699,-0.010098,-5.6304e-13,1.0667e-14,20.087,-12.322,0.00037699,10.858,0.023066,0.010957,-2.1778e-13,1,64.313,115.11,0,0
5.9781,10.829,-12.415,0.00037713,-0.010056,-5.7785e-13,-4.0816e-14,20.144,-12.415,0.00037713,10.829,0.023073,0.011018,-2.1782e-13,1,64.414,115.21,0,0
5.9781,10.799,-12.509,0.00037731,-0.010015,-5.9267e-13,-9.23e-14,20.202,-12.509,0.00037731,10.799,0.02308,0.01108,-2.1787e-13,1,64.516,115.32,0,0
5.9781,10.769,-12.602,0.00037754,-0.0099732,-6.0749e-13,-1.4379e-13,20.259,-12.602,0.00037754,10.769,0.023087,0.011141,-2.1791e-13,1,64.618,115.42,0,0
5.9781,10.739,-12.695,0.00037781,-0.0099315,-6.223e-13,-1.9527e-13,20.317,-12.695,0.00037781,10.739,0.023094,0.011202,-2.1795e-13,1,64.719,115.52,0,0
5.9781,10.71,-12.788,0.00037813,-0.0098899,-6.3712e-13,-2.4675e-13,20.375,-12.788,0.00037813,10.71,0.0231,0.011263,-2.1799e-13,1,64.821,115.62,0,0
5.9781,10.68,-12.882,0.0003785,-0.0098483,-6.5194e-13,-2.9824e-13,20.433,-12.882,0.0003785,10.68,0.023107,0.011324,-2.1803e-13,1,64.922,115.72,0,0
5.9781,10.65,-12.975,0.00037891,-0.0098066,-6.6675e-13,-3.4973e-13,20.491,-12.975,0.00037891,10.65,0.023114,0.011385,-2.1807e-13,1,65.024,115.82,0,0
5.9781,10.621,-13.068,0.00037937,-0.009765,-6.8157e-13,-4.0122e-13,20.55,-13.068,0.00037937,10.621,0.023121,0.011446,-2.1811e-13,1,65.126,115.93,0,0
5.9781,10.591,-13.161,0.00037987,-0.0097233,-6.9639e-13,-4.5271e-13,20.608,-13.161,0.00037987,10.591,0.023128,0.011507,-2.1815e-13,1,65.227,116.03,0,0
5.9781,10.561,-13.254,0.00038041,-0.0096816,-7.112e-13,-5.042e-13,20.667,-13.254,0.00038041,10.561,0.023135,0.011568,-2.1819e-13,1,65.329,116.13,0,0
5.9781,10.531,-13.348,0.00038101,-0.00964,-7.2602e-13,-5.5569e-13,20.726,-13.348,0.00038101,10.531,0.023142,0.01163,-2.1823e-13,1,65.43,116.23,0,0
5.9781,10.502,-13.441,0.00038164,-0.0095983,-7.4084e-13,-6.0718e-13,20.786,-13.441,0.00038164,10.502,0.023149,0.011691,-2.1827e-13,1,65.532,116.33,0,0
5.9781,10.472,-13.534,0.00038232,-0.0095566,-7.5566e-13,-6.5868e-13,20.845,-13.534,0.00038232,10.472,0.023156,0.011752,-2.1831e-13,1,65.634,116.43,0,0
5.9781,10.442,-13.627,0.00038305,-0.0095149,-7.7047e-13,-7.1017e-13,20.905,-13.627,0.00038305,10.442,0.023163,0.011813,-2.1835e-13,1,65.735,116.54,0,0
5.9781,10.413,-13.72,0.00038382,-0.0094732,-7.8529e-13,-7.6167e-13,20.965,-13.72,0.00038382,10.413,0.023169,0.011874,-2.1839e-13,1,65.837,116.64,0,0
5.9781,10.383,-13.814,0.00038464,-0.0094315,-8.0011e-13,-8.1316e-13,21.025,-13.814,0.00038464,10.383,0.023176,0.011935,-2.1843e-13,1,65.938,116.74,0,0
5.9779,10.353,-13.907,0.00038549,-0.0093616,-8.1537e-13,-8.648e-13,21.085,-13.907,0.00038549,10.353,0.023183,0.011997,-2.1847e-13,1,66.04,116.84,0,0
5.9195,10.323,-13.995,0.00038434,-0.0092993,-9.4554e-13,-8.598e-13,21.141,-13.995,0.00038434,10.323,0.02319,0.012058,-2.1851e-13,1,66.142,116.94,0,0
5.861,10.293,-14.084,0.00038323,-0.0092369,-1.0677e-12,-8.548e-13,21.196,-14.084,0.00038323,10.293,0.023197,0.012119,-2.1855e-13,1,66.243,117.04,0,0
5.8026,10.264,-14.172,0.00038215,-0.0091746,-1.1819e-12,-8.498e-13,21.252,-14.172,0.00038215,10.264,0.023204,0.01218,-2.186e-13,1,66.345,117.14,0,0
5.7442,10.234,-14.26,0.0003811,-0.0091122,-1.2881e-12,-8.448e-13,21.308,-14.26,0.0003811,10.234,0.023211,0.012241,-2.1864e-13,1,66.446,117.25,0,0
5.6857,10.204,-14.348,0.00038009,-0.0090499,-1.3863e-12,-8.3981e-13,21.364,-14.348,0.00038009,10.204,0.023218,0.012302,-2.1868e-13,1,66.548,117.35,0,0
5.6273,10.174,-14.436,0.00037911,-0.0089875,-1.4764e-12,-8.3482e-13,21.42,-14.436,0.00037911,10.174,0.023225,0.012363,-2.1872e-13,1,66.65,117.45,0,0
5.5689,10.144,-14.524,0.00037816,-0.0089252,-1.5586e-12,-8.2982e-13,21.476,-14.524,0.00037816,10.144,0.023231,0.012424,-2.1876e-13,1,66.751,117.55,0,0
5.5104,10.115,-14.612,0.00037725,-0.0088629,-1.6328e-12,-8.2483e-13,21.532,-14.612,0.00037725,10.115,0.023238,0.012485,-2.1881e-13,1,66.853,117.65,0,0
5.452,10.085,-14.7,0.00037638,-0.0088005,-1.699e-12,-8.1984e-13,21.589,-14.7,0.00037638,10.085,0.023245,0.012547,-2.1885e-13,1,66.954,117.75,0,0
5.3936,10.055,-14.788,0.00037554,-0.0087382,-1.7572e-12,-8.1485e-13,21.645,-14.788,0.00037554,10.055,0.023252,0.012608,-2.1889e-13,1,67.056,117.86,0,0
5.3352,10.025,-14.876,0.00037473,-0.0086758,-1.8074e-12,-8.0986e-13,21.702,-14.876,0.00037473,10.025,0.023259,0.012669,-2.1893e-13,1,67.158,117.96,0,0
5.2767,9.9953,-14.964,0.00037396,-0.0086135,-1.8496e-12,-8.0488e-13,21.759,-14.964,0.00037396,9.9953,0.023266,0.01273,-2.1898e-13,1,67.259,118.06,0,0
5.2183,9.9655,-15.052,0.00037322,-0.0085511,-1.8838e-12,-7.9989e-13,21.816,-15.052,0.00037322,9.9655,0.023273,0.012791,-2.1902e-13,1,67.361,118.16,0,0
5.1599,9.9357,-15.14,0.00037251,-0.0084888,-1.91e-12,-7.9491e-13,21.873,-15.14,0.00037251,9.9357,0.02328,0.012852,-2.1906e-13,1,67.462,118.26,0,0
5.1014,9.9059,-15.228,0.00037184,-0.0084265,-1.9282e-12,-7.8992e-13,21.93,-15.228,0.00037184,9.9059,0.023286,0.012913,-2.191e-13,1,67.564,118.36,0,0
5.043,9.8761,-15.316,0.00037121,-0.0083641,-1.9384e-12,-7.8494e-13,21.987,-15.316,0.00037121,9.8761,0.023293,0.012974,-2.1914e-13,1,67.666,118.47,0,0
4.9846,9.8463,-15.404,0.00037061,-0.0083018,-1.9406e-12,-7.7996e-13,22.044,-15.404,0.00037061,9.8463,0.0233,0.013036,-2.1919e-13,1,67.767,118.57,0,0
4.9261,9.8165,-15.493,0.00037004,-0.0082394,-1.9349e-12,-7.7498e-13,22.102,-15.493,0.00037004,9.8165,0.023307,0.013097,-2.1923e-13,1,67.869,118.67,0,0
4.8677,9.7867,-15.581,0.00036951,-0.0081771,-1.9211e-12,-7.7e-13,22.16,-15.581,0.00036951,9.7867,0.023314,0.013158,-2.1927e-13,1,67.97,118.77,0,0
4.8093,9.7569,-15.669,0.00036901,-0.0081148,-1.8993e-12,-7.6502e-13,22.217,-15.669,0.00036901,9.7569,0.023321,0.013219,-2.1931e-13,1,68.072,118.87,0,0
4.7509,9.7271,-15.757,0.00036854,-0.0080524,-1.8695e-12,-7.6004e-13,22.275,-15.757,0.00036854,9.7271,0.023328,0.01328,-2.1935e-13,1,68.174,118.97,0,0
4.6924,9.6973,-15.845,0.00036811,-0.0079901,-1.8318e-12,-7.5506e-13,22.333,-15.845,0.00036811,9.6973,0.023335,0.013341,-2.194e-13,1,68.275,119.08,0,0
4.634,9.6675,-15.933,0.00036772,-0.0079277,-1.786e-12,-7.5009e-13,22.391,-15.933,0.00036772,9.6675,0.023341,0.013402,-2.1944e-13,1,68.377,119.18,0,0
4.5756,9.6377,-16.021,0.00036735,-0.0078654,-1.7322e-12,-7.4511e-13,22.449,-16.021,0.00036735,9.6377,0.023348,0.013463,-2.1948e-13,1,68.478,119.28,0,0
4.5171,9.6079,-16.109,0.00036703,-0.0078031,-1.6705e-12,-7.4014e-13,22.508,-16.109,0.00036703,9.6079,0.023355,0.013524,-2.1952e-13,1,68.58,119.38,0,0
4.4587,9.5781,-16.197,0.00036673,-0.0077407,-1.6007e-12,-7.3516e-13,22.566,-16.197,0.00036673,9.5781,0.023362,0.013586,-2.1956e-13,1,68.682,119.48,0,0
4.4003,9.5483,-16.285,0.00036647,-0.0076784,-1.5229e-12,-7.3019e-13,22.625,-16.285,0.00036647,9.5483,0.023369,0.013647,-2.1961e-13,1,68.783,119.58,0,0
4.3419,9.5185,-16.373,0.00036625,-0.007616,-1.4372e-12,-7.2522e-13,22.683,-16.373,0.00036625,9.5185,0.023376,0.013708,-2.1965e-13,1,68.885,119.68,0,0
4.2834,9.4887,-16.461,0.00036606,-0.0075537,-1.3434e-12,-7.2025e-13,22.742,-16.461,0.00036606,9.4888,0.023383,0.013769,-2.1969e-13,1,68.986,119.79,0,0
4.225,9.459,-16.549,0.0003659,-0.0074914,-1.2417e-12,-7.1528e-13,22.801,-16.549,0.0003659,9.459,0.023389,0.01383,-2.1973e-13,1,69.088,119.89,0,0
4.1666,9.4292,-16.637,0.00036578,-0.007429,-1.1319e-12,-7.1031e-13,22.86,-16.637,0.00036578,9.4292,0.023396,0.013891,-2.1977e-13,1,69.19,119.99,0,0
4.1081,9.3994,-16.726,0.00036569,-0.0073667,-1.0142e-12,-7.0535e-13,22.919,-16.726,0.00036569,9.3994,0.023403,0.013952,-2.1982e-13,1,69.291,120.09,0,0
4.0497,9.3696,-16.814,0.00036564,-0.0073043,-8.8846e-13,-7.0038e-13,22.978,-16.814,0.00036564,9.3696,0.02341,0.014013,-2.1986e-13,1,69.393,120.19,0,0
3.9913,9.3398,-16.902,0.00036562,-0.007242,-7.5472e-13,-6.9541e-13,23.037,-16.902,0.00036562,9.3398,0.023417,0.014075,-2.199e-13,1,69.494,120.29,0,0
3.9328,9.31,-16.99,0.00036564,-0.0071797,-6.1298e-13,-6.9045e-13,23.097,-16.99,0.00036564,9.31,0.023424,0.014136,-2.1994e-13,1,69.596,120.4,0,0
3.8744,9.2802,-17.078,0.00036568,-0.0071173,-4.6326e-13,-6.8549e-13,23.157,-17.078,0.00036568,9.2802,0.02343,0.014197,-2.1998e-13,1,69.698,120.5,0,0
3.816,9.2504,-17.166,0.00036577,-0.007055,-3.0553e-13,-6.8052e-13,23.216,-17.166,0.00036577,9.2504,0.023437,0.014258,-2.2003e-13,1,69.799,120.6,0,0
3.7576,9.2206,-17.254,0.00036589,-0.0069927,-1.398e-13,-6.7556e-13,23.276,-17.254,0.00036589,9.2206,0.023444,0.014319,-2.2007e-13,1,69.901,120.7,0,0
3.6991,9.1908,-17.342,0.00036604,-0.0069303,3.3924e-14,-6.706e-13,23.336,-17.342,0.00036604,9.1908,0.023451,0.01438,-2.2011e-13,1,70.002,120.8,0,0
3.6407,9.161,-17.43,0.00036622,-0.006868,2.1565e-13,-6.6564e-13,23.396,-17.43,0.00036622,9.161,0.023458,0.014441,-2.2015e-13,1,70.104,120.9,0,0
3.5823,9.1312,-17.518,0.00036644,-0.0068057,4.0537e-13,-6.6068e-13,23.456,-17.518,0.00036644,9.1312,0.023465,0.014502,-2.2019e-13,1,70.206,121.01,0,0
3.5238,9.1014,-17.606,0.0003667,-0.0067433,6.0308e-13,-6.5573e-13,23.516,-17.606,0.0003667,9.1014,0.023471,0.014563,-2.2024e-13,1,70.307,121.11,0,0
3.4654,9.0716,-17.694,0.00036699,-0.006681,8.088e-13,-6.5077e-13,23.577,-17.694,0.00036699,9.0716,0.023478,0.014625,-2.2028e-13,1,70.409,121.21,0,0
3.407,9.0418,-17.782,0.00036731,-0.0066187,1.0225e-12,-6.4581e-13,23.637,-17.782,0.00036731,9.0418,0.023485,0.014686,-2.2032e-13,1,70.51,121.31,0,0
3.3485,9.012,-17.871,0.00036767,-0.0065563,1.2442e-12,-6.4086e-13,23.698,-17.871,0.00036767,9.012,0.023492,0.014747,-2.2036e-13,1,70.612,121.41,0,0
3.2901,8.9823,-17.959,0.00036806,-0.006494,1.4739e-12,-6.359e-13,23.759,-17.959,0.00036806,8.9823,0.023499,0.014808,-2.2041e-13,1,70.714,121.51,0,0
3.2317,8.9525,-18.047,0.00036849,-0.0064317,1.7116e-12,-6.3095e-13,23.82,-18.047,0.00036849,8.9525,0.023506,0.014869,-2.2045e-13,1,70.815,121.62,0,0
3.1733,8.9227,-18.135,0.00036895,-0.0063693,1.9573e-12,-6.26e-13,23.881,-18.135,0.00036895,8.9227,0.023512,0.01493,-2.2049e-13,1,70.917,121.72,0,0
3.1148,8.8929,-18.223,0.00036944,-0.006307,2.211e-12,-6.2105e-13,23.942,-18.223,0.00036944,8.8929,0.023519,0.014991,-2.2053e-13,1,71.018,121.82,0,0
3.0562,8.8629,-18.311,0.00036995,-0.0062164,2.4733e-12,-6.165e-13,24.003,-18.311,0.00036995,8.8629,0.023526,0.015053,-2.2057e-13,1,71.12,121.92,0,0
3.0429,8.8332,-18.395,0.00036613,-0.006147,2.4039e-12,-7.5491e-13,24.061,-18.395,0.00036613,8.8332,0.023533,0.015114,-2.2061e-13,1,71.222,122.02,0,0
3.0296,8.8036,-18.479,0.00036236,-0.0060777,2.3345e-12,-8.8534e-13,24.118,-18.479,0.00036236,8.8036,0.02354,0.015175,-2.2065e-13,1,71.323,122.12,0,0
3.0163,8.7739,-18.563,0.00035864,-0.0060084,2.265e-12,-1.0078e-12,24.175,-18.563,0.00035864,8.7739,0.023546,0.015236,-2.2069e-13,1,71.425,122.22,0,0
3.003,8.7442,-18.646,0.00035496,-0.0059392,2.1956e-12,-1.1222e-12,24.233,-18.646,0.00035496,8.7442,0.023553,0.015297,-2.2073e-13,1,71.526,122.33,0,0
2.9897,8.7146,-18.73,0.00035132,-0.0058699,2.1262e-12,-1.2286e-12,24.29,-18.73,0.00035132,8.7146,0.02356,0.015358,-2.2077e-13,1,71.628,122.43,0,0
2.9764,8.6849,-18.814,0.00034773,-0.0058007,2.0568e-12,-1.3271e-12,24.348,-18.814,0.00034773,8.6849,0.023567,0.01542,-2.2081e-13,1,71.73,122.53,0,0
2.9631,8.6552,-18.898,0.00034418,-0.0057314,1.9874e-12,-1.4175e-12,24.405,-18.898,0.00034418,8.6552,0.023574,0.015481,-2.2085e-13,1,71.831,122.63,0,0
2.9498,8.6256,-18.981,0.00034068,-0.0056622,1.9179e-12,-1.4999e-12,24.463,-18.981,0.00034068,8.6256,0.02358,0.015542,-2.2089e-13,1,71.933,122.73,0,0
2.9365,8.5959,-19.065,0.00033723,-0.005593,1.8485e-12,-1.5744e-12,24.521,-19.065,0.00033723,8.5959,0.023587,0.015603,-2.2093e-13,1,72.034,122.83,0,0
2.9232,8.5662,-19.149,0.00033382,-0.0055239,1.7791e-12,-1.6408e-12,24.579,-19.149,0.00033382,8.5662,0.023594,0.015664,-2.2096e-13,1,72.136,122.94,0,0
2.9099,8.5366,-19.233,0.00033045,-0.0054547,1.7097e-12,-1.6993e-12,24.637,-19.233,0.00033045,8.5366,0.023601,0.015725,-2.21e-13,1,72.238,123.04,0,0
2.8966,8.5069,-19.316,0.00032713,-0.0053856,1.6402e-12,-1.7497e-12,24.695,-19.316,0.00032713,8.5069,0.023608,0.015786,-2.2104e-13,1,72.339,123.14,0,0
2.8833,8.4772,-19.4,0.00032385,-0.0053165,1.5708e-12,-1.7922e-12,24.753,-19.4,0.00032385,8.4772,0.023614,0.015847,-2.2108e-13,1,72.441,123.24,0,0
2.87,8.4476,-19.484,0.00032062,-0.0052473,1.5014e-12,-1.8266e-12,24.811,-19.484,0.00032062,8.4476,0.023621,0.015909,-2.2112e-13,1,72.542,123.34,0,0
2.8567,8.4179,-19.568,0.00031744,-0.0051783,1.432e-12,-1.8531e-12,24.87,-19.568,0.00031744,8.4179,0.023628,0.01597,-2.2116e-13,1,72.644,123.44,0,0
2.8434,8.3882,-19.651,0.0003143,-0.0051092,1.3625e-12,-1.8715e-12,24.928,-19.651,0.0003143,8.3882,0.023635,0.016031,-2.212e-13,1,72.746,123.55,0,0
2.8301,8.3586,-19.735,0.0003112,-0.0050401,1.2931e-12,-1.882e-12,24.986,-19.735,0.0003112,8.3586,0.023641,0.016092,-2.2124e-13,1,72.847,123.65,0,0
2.8168,8.3289,-19.819,0.00030815,-0.0049711,1.2237e-12,-1.8845e-12,25.045,-19.819,0.00030815,8.3289,0.023648,0.016153,-2.2128e-13,1,72.949,123.75,0,0
2.8035,8.2992,-19.903,0.00030515,-0.0049021,1.1543e-12,-1.8789e-12,25.104,-19.903,0.00030515,8.2992,0.023655,0.016214,-2.2132e-13,1,73.05,123.85,0,0
2.7902,8.2696,-19.986,0.00030219,-0.0048331,1.0848e-12,-1.8654e-12,25.162,-19.986,0.00030219,8.2696,0.023662,0.016275,-2.2136e-13,1,73.152,123.95,0,0
2.7769,8.2399,-20.07,0.00029927,-0.0047641,1.0154e-12,-1.8439e-12,25.221,-20.07,0.00029927,8.2399,0.023668,0.016336,-2.2139e-13,1,73.254,124.05,0,0
2.7636,8.2102,-20.154,0.0002964,-0.0046952,9.4597e-13,-1.8144e-12,25.28,-20.154,0.0002964,8.2102,0.023675,0.016398,-2.2143e-13,1,73.355,124.16,0,0
2.7503,8.1806,-20.238,0.00029358,-0.0046262,8.7654e-13,-1.7769e-12,25.339,-20.238,0.00029358,8.1806,0.023682,0.016459,-2.2147e-13,1,73.457,124.26,0,0
2.737,8.1509,-20.321,0.0002908,-0.0045573,8.0711e-13,-1.7313e-12,25.398,-20.321,0.0002908,8.1509,0.023689,0.01652,-2.2151e-13,1,73.558,124.36,0,0
2.7237,8.1212,-20.405,0.00028806,-0.0044884,7.3768e-13,-1.6778e-12,25.457,-20.405,0.00028806,8.1212,0.023696,0.016581,-2.2155e-13,1,73.66,124.46,0,0
2.7104,8.0916,-20.489,0.00028537,-0.0044195,6.6825e-13,-1.6163e-12,25.516,-20.489,0.00028537,8.0916,0.023702,0.016642,-2.2159e-13,1,73.762,124.56,0,0
2.6971,8.0619,-20.573,0.00028273,-0.0043506,5.9882e-13,-1.5468e-12,25.575,-20.573,0.00028273,8.0619,0.023709,0.016703,-2.2163e-13,1,73.863,124.66,0,0
2.6838,8.0323,-20.656,0.00028013,-0.0042817,5.2938e-13,-1.4693e-12,25.634,-20.656,0.00028013,8.0323,0.023716,0.016764,-2.2167e-13,1,73.965,124.76,0,0
2.6705,8.0026,-20.74,0.00027758,-0.0042129,4.5995e-13,-1.3838e-12,25.694,-20.74,0.00027758,8.0026,0.023723,0.016825,-2.2171e-13,1,74.066,124.87,0,0
2.6572,7.9729,-20.824,0.00027507,-0.0041441,3.9051e-13,-1.2903e-12,25.753,-20.824,0.00027507,7.9729,0.023729,0.016887,-2.2175e-13,1,74.168,124.97,0,0
2.6439,7.9433,-20.908,0.0002726,-0.0040753,3.2108e-13,-1.1888e-12,25.813,-20.908,0.0002726,7.9433,0.023736,0.016948,-2.2179e-13,1,74.27,125.07,0,0
2.6307,7.9136,-20.991,0.00027018,-0.0040065,2.5164e-13,-1.0793e-12,25.872,-20.991,0.00027018,7.9136,0.023743,0.017009,-2.2182e-13,1,74.371,125.17,0,0
2.6174,7.8839,-21.075,0.00026781,-0.0039377,1.8221e-13,-9.6184e-13,25.932,-21.075,0.00026781,7.8839,0.02375,0.01707,-2.2186e-13,1,74.473,125.27,0,0
2.6041,7.8543,-21.159,0.00026548,-0.0038689,1.1278e-13,-8.3635e-13,25.992,-21.159,0.00026548,7.8543,0.023756,0.017131,-2.219e-13,1,74.574,125.37,0,0
2.5908,7.8246,-21.243,0.0002632,-0.0038002,4.3339e-14,-7.0287e-13,26.051,-21.243,0.0002632,7.8246,0.023763,0.017192,-2.2194e-13,1,74.676,125.48,0,0
2.5775,7.795,-21.326,0.00026096,-0.0037315,-2.6099e-14,-5.6138e-13,26.111,-21.326,0.00026096,7.795,0.02377,0.017253,-2.2198e-13,1,74.778,125.58,0,0
2.5642,7.7653,-21.41,0.00025876,-0.0036628,-9.5537e-14,-4.1191e-13,26.171,-21.41,0.00025876,7.7653,0.023776,0.017314,-2.2202e-13,1,74.879,125.68,0,0
2.5509,7.7356,-21.494,0.00025661,-0.0035941,-1.6498e-13,-2.5443e-13,26.231,-21.494,0.00025661,7.7356,0.023783,0.017376,-2.2206e-13,1,74.981,125.78,0,0
2.5376,7.706,-21.578,0.00025451,-0.0035254,-2.3441e-13,-8.8956e-14,26.291,-21.578,0.00025451,7.706,0.02379,0.017437,-2.221e-13,1,75.082,125.88,0,0
2.5243,7.6763,-21.662,0.00025245,-0.0034568,-3.0385e-13,8.4514e-14,26.352,-21.662,0.00025245,7.6763,0.023797,0.017498,-2.2214e-13,1,75.184,125.98,0,0
2.511,7.6466,-21.745,0.00025044,-0.0033881,-3.7329e-13,2.6598e-13,26.412,-21.745,0.00025044,7.6466,0.023803,0.017559,-2.2218e-13,1,75.286,126.09,0,0
2.4977,7.617,-21.829,0.00024847,-0.0033195,-4.4274e-13,4.5545e-13,26.472,-21.829,0.00024847,7.617,0.02381,0.01762,-2.2222e-13,1,75.387,126.19,0,0
2.4844,7.5873,-21.913,0.00024655,-0.0032509,-5.1218e-13,6.5291e-13,26.533,-21.913,0.00024655,7.5873,0.023817,0.017681,-2.2225e-13,1,75.489,126.29,0,0
2.4711,7.5577,-21.997,0.00024467,-0.0031823,-5.8162e-13,8.5837e-13,26.593,-21.997,0.00024467,7.5577,0.023824,0.017742,-2.2229e-13,1,75.59,126.39,0,0
2.4578,7.528,-22.08,0.00024283,-0.0031138,-6.5106e-13,1.0718e-12,26.654,-22.08,0.00024283,7.528,0.02383,0.017803,-2.2233e-13,1,75.692,126.49,0,0
2.4445,7.4983,-22.164,0.00024104,-0.0030452,-7.205e-13,1.2933e-12,26.714,-22.164,0.00024104,7.4983,0.023837,0.017865,-2.2237e-13,1,75.794,126.59,0,0
2.4312,7.4687,-22.248,0.0002393,-0.0029767,-7.8994e-13,1.5227e-12,26.775,-22.248,0.0002393,7.4687,0.023844,0.017926,-2.2241e-13,1,75.895,126.7,0,0
2.4179,7.439,-22.332,0.0002376,-0.0029082,-8.5938e-13,1.7602e-12,26.836,-22.332,0.0002376,7.439,0.02385,0.017987,-2.2245e-13,1,75.997,126.8,0,0
2.4046,7.4094,-22.415,0.00023595,-0.0028397,-9.2883e-13,2.0056e-12,26.897,-22.415,0.00023595,7.4094,0.023857,0.018048,-2.2249e-13,1,76.098,126.9,0,0
2.3912,7.3795,-22.5,0.0002343,-0.0027431,-9.9784e-13,2.2588e-12,26.958,-22.5,0.0002343,7.3795,0.023864,0.018109,-2.2253e-13,1,76.2,127,0,0
2.3827,7.3502,-22.58,0.00022709,-0.0026806,-8.0742e-13,1.9569e-12,27.016,-22.58,0.00022709,7.3502,0.02387,0.018171,-2.2256e-13,1,76.302,127.1,0,0
2.3742,7.3208,-22.66,0.00021986,-0.0026181,-6.2341e-13,1.663e-12,27.073,-22.66,0.00021986,7.3208,0.023877,0.018232,-2.226e-13,1,76.403,127.2,0,0
2.3657,7.2914,-22.74,0.00021262,-0.0025554,-4.4579e-13,1.3771e-12,27.131,-22.74,0.00021262,7.2914,0.023884,0.018293,-2.2263e-13,1,76.505,127.3,0,0
2.3572,7.262,-22.82,0.00020535,-0.0024928,-2.7457e-13,1.0992e-12,27.189,-22.82,0.00020535,7.262,0.023891,0.018354,-2.2266e-13,1,76.606,127.41,0,0
2.3487,7.2327,-22.9,0.00019806,-0.00243,-1.0975e-13,8.2924e-13,27.246,-22.9,0.00019806,7.2327,0.023897,0.018415,-2.227e-13,1,76.708,127.51,0,0
2.3402,7.2033,-22.98,0.00019076,-0.0023673,4.8666e-14,5.6733e-13,27.304,-22.98,0.00019076,7.2033,0.023904,0.018476,-2.2273e-13,1,76.81,127.61,0,0
2.3318,7.1739,-23.06,0.00018344,-0.0023044,2.0069e-13,3.134e-13,27.362,-23.06,0.00018344,7.1739,0.023911,0.018537,-2.2276e-13,1,76.911,127.71,0,0
2.3233,7.1445,-23.14,0.0001761,-0.0022415,3.4632e-13,6.7465e-14,27.42,-23.14,0.0001761,7.1445,0.023917,0.018599,-2.228e-13,1,77.013,127.81,0,0
2.3148,7.1152,-23.22,0.00016874,-0.0021786,4.8555e-13,-1.7047e-13,27.478,-23.22,0.00016874,7.1152,0.023924,0.01866,-2.2283e-13,1,77.114,127.91,0,0
2.3063,7.0858,-23.301,0.00016137,-0.0021156,6.1839e-13,-4.0043e-13,27.536,-23.301,0.00016137,7.0858,0.023931,0.018721,-2.2286e-13,1,77.216,128.02,0,0
2.2978,7.0564,-23.381,0.00015397,-0.0020525,7.4482e-13,-6.2235e-13,27.594,-23.381,0.00015397,7.0564,0.023937,0.018782,-2.229e-13,1,77.318,128.12,0,0
2.2893,7.027,-23.461,0.00014656,-0.0019894,8.6485e-13,-8.3628e-13,27.653,-23.461,0.00014656,7.027,0.023944,0.018843,-2.2293e-13,1,77.419,128.22,0,0
2.2808,6.9977,-23.541,0.00013913,-0.0019262,9.7849e-13,-1.0422e-12,27.711,-23.541,0.00013913,6.9977,0.023951,0.018904,-2.2296e-13,1,77.521,128.32,0,0
2.2723,6.9683,-23.621,0.00013168,-0.001863,1.0857e-12,-1.2402e-12,27.769,-23.621,0.00013168,6.9683,0.023957,0.018965,-2.23e-13,1,77.622,128.42,0,0
2.2638,6.9389,-23.701,0.00012421,-0.0017997,1.1866e-12,-1.4301e-12,27.827,-23.701,0.00012421,6.9389,0.023964,0.019027,-2.2303e-13,1,77.724,128.52,0,0
2.2553,6.9095,-23.781,0.00011672,-0.0017364,1.281e-12,-1.6121e-12,27.886,-23.781,0.00011672,6.9095,0.023971,0.019088,-2.2306e-13,1,77.826,128.63,0,0
2.2468,6.8802,-23.861,0.00010922,-0.001673,1.3691e-12,-1.786e-12,27.944,-23.861,0.00010922,6.8802,0.023977,0.019149,-2.231e-13,1,77.927,128.73,0,0
2.2383,6.8508,-23.941,0.00010169,-0.0016096,1.4507e-12,-1.952e-12,28.003,-23.941,0.00010169,6.8508,0.023984,0.01921,-2.2313e-13,1,78.029,128.83,0,0
2.2298,6.8214,-24.021,9.4152e-05,-0.0015461,1.526e-12,-2.11e-12,28.061,-24.021,9.4152e-05,6.8214,0.023991,0.019271,-2.2317e-13,1,78.13,128.93,0,0
2.2213,6.792,-24.101,8.6593e-05,-0.0014825,1.5948e-12,-2.2599e-12,28.12,-24.101,8.6593e-05,6.792,0.023997,0.019332,-2.232e-13,1,78.232,129.03,0,0
2.2128,6.7627,-24.182,7.9014e-05,-0.0014189,1.6573e-12,-2.4019e-12,28.178,-24.182,7.9014e-05,6.7627,0.024004,0.019393,-2.2323e-13,1,78.334,129.13,0,0
2.2043,6.7333,-24.262,7.1417e-05,-0.0013553,1.7133e-12,-2.5358e-12,28.237,-24.262,7.1418e-05,6.7333,0.024011,0.019454,-2.2327e-13,1,78.435,129.24,0,0
2.1958,6.7039,-24.342,6.3802e-05,-0.0012916,1.763e-12,-2.6618e-12,28.296,-24.342,6.3802e-05,6.7039,0.024017,0.019516,-2.233e-13,1,78.537,129.34,0,0
2.1873,6.6745,-24.422,5.6169e-05,-0.0012278,1.8062e-12,-2.7798e-12,28.355,-24.422,5.6169e-05,6.6745,0.024024,0.019577,-2.2333e-13,1,78.638,129.44,0,0
2.1788,6.6452,-24.502,4.8517e-05,-0.001164,1.8431e-12,-2.8897e-12,28.413,-24.502,4.8517e-05,6.6452,0.024031,0.019638,-2.2337e-13,1,78.74,129.54,0,0
2.1703,6.6158,-24.582,4.0846e-05,-0.0011001,1.8736e-12,-2.9917e-12,28.472,-24.582,4.0847e-05,6.6158,0.024037,0.019699,-2.234e-13,1,78.842,129.64,0,0
2.1618,6.5864,-24.662,3.3158e-05,-0.0010361,1.8976e-12,-3.0857e-12,28.531,-24.662,3.3159e-05,6.5864,0.024044,0.01976,-2.2343e-13,1,78.943,129.74,0,0
2.1533,6.557,-24.742,2.5451e-05,-0.00097215,1.9153e-12,-3.1717e-12,28.59,-24.742,2.5451e-05,6.557,0.024051,0.019821,-2.2347e-13,1,79.045,129.84,0,0
2.1448,6.5277,-24.822,1.7726e-05,-0.00090811,1.9266e-12,-3.2497e-12,28.649,-24.822,1.7726e-05,6.5277,0.024057,0.019882,-2.235e-13,1,79.146,129.95,0,0
2.1363,6.4983,-24.902,9.9816e-06,-0.000844,1.9314e-12,-3.3197e-12,28.708,-24.902,9.9818e-06,6.4983,0.024064,0.019944,-2.2353e-13,1,79.248,130.05,0,0
2.1278,6.4689,-24.982,2.2201e-06,-0.00077985,1.9299e-12,-3.3816e-12,28.768,-24.982,2.2203e-06,6.4689,0.02407,0.020005,-2.2357e-13,1,79.35,130.15,0,0
2.1193,6.4395,-25.063,-5.561e-06,-0.00071564,1.922e-12,-3.4356e-12,28.827,-25.063,-5.5608e-06,6.4395,0.024077,0.020066,-2.236e-13,1,79.451,130.25,0,0
2.1108,6.4102,-25.143,-1.3359e-05,-0.00065138,1.9077e-12,-3.4816e-12,28.886,-25.143,-1.3359e-05,6.4102,0.024084,0.020127,-2.2363e-13,1,79.553,130.35,0,0
2.1024,6.3808,-25.223,-2.1177e-05,-0.00058705,1.8869e-12,-3.5196e-12,28.945,-25.223,-2.1177e-05,6.3808,0.02409,0.020188,-2.2367e-13,1,79.654,130.45,0,0
2.0939,6.3514,-25.303,-2.9012e-05,-0.00052268,1.8598e-12,-3.5496e-12,29.005,-25.303,-2.9012e-05,6.3514,0.024097,0.020249,-2.237e-13,1,79.756,130.56,0,0
2.0854,6.322,-25.383,-3.6865e-05,-0.00045826,1.8263e-12,-3.5716e-12,29.064,-25.383,-3.6865e-05,6.322,0.024104,0.02031,-2.2374e-13,1,79.858,130.66,0,0
2.0769,6.2926,-25.463,-4.4738e-05,-0.00039377,1.7864e-12,-3.5856e-12,29.123,-25.463,-4.4738e-05,6.2926,0.02411,0.020371,-2.2377e-13,1,79.959,130.76,0,0
2.0684,6.2633,-25.543,-5.2628e-05,-0.00032923,1.7401e-12,-3.5916e-12,29.183,-25.543,-5.2628e-05,6.2633,0.024117,0.020433,-2.238e-13,1,80.061,130.86,0,0
2.0599,6.2339,-25.623,-6.0538e-05,-0.00026464,1.6874e-12,-3.5896e-12,29.243,-25.623,-6.0538e-05,6.2339,0.024123,0.020494,-2.2384e-13,1,80.162,130.96,0,0
2.0514,6.2045,-25.703,-6.8465e-05,-0.00019999,1.6283e-12,-3.5796e-12,29.302,-25.703,-6.8465e-05,6.2045,0.02413,0.020555,-2.2387e-13,1,80.264,131.06,0,0
2.0429,6.1751,-25.783,-7.6411e-05,-0.00013528,1.5628e-12,-3.5617e-12,29.362,-25.783,-7.6411e-05,6.1751,0.024137,0.020616,-2.239e-13,1,80.366,131.17,0,0
2.0344,6.1458,-25.864,-8.4375e-05,-7.0527e-05,1.4909e-12,-3.5357e-12,29.422,-25.864,-8.4375e-05,6.1457,0.024143,0.020677,-2.2394e-13,1,80.467,131.27,0,0
2.0259,6.1164,-25.944,-9.2358e-05,-5.7084e-06,1.4125e-12,-3.5017e-12,29.481,-25.944,-9.2358e-05,6.1164,0.02415,0.020738,-2.2397e-13,1,80.569,131.37,0,0
2.0174,6.087,-26.024,-0.00010036,5.9156e-05,1.3278e-12,-3.4597e-12,29.541,-26.024,-0.00010036,6.087,0.024156,0.020799,-2.24e-13,1,80.67,131.47,0,0
2.0089,6.0576,-26.104,-0.00010838,0.00012408,1.2367e-12,-3.4097e-12,29.601,-26.104,-0.00010838,6.0576,0.024163,0.020861,-2.2404e-13,1,80.772,131.57,0,0
2.0004,6.0282,-26.184,-0.00011641,0.00018906,1.1393e-12,-3.3518e-12,29.661,-26.184,-0.00011641,6.0282,0.02417,0.020922,-2.2407e-13,1,80.874,131.67,0,0
1.9919,5.9989,-26.264,-0.00012447,0.0002541,1.0354e-12,-3.2858e-12,29.721,-26.264,-0.00012447,5.9988,0.024176,0.020983,-2.241e-13,1,80.975,131.78,0,0
1.9834,5.9695,-26.344,-0.00013255,0.00031918,9.2507e-13,-3.2118e-12,29.781,-26.344,-0.00013255,5.9695,0.024183,0.021044,-2.2414e-13,1,81.077,131.88,0,0
1.9749,5.9401,-26.424,-0.00014064,0.00038432,8.0839e-13,-3.1299e-12,29.841,-26.424,-0.00014064,5.9401,0.024189,0.021105,-2.2417e-13,1,81.178,131.98,0,0
1.9664,5.9105,-26.505,-0.00014886,0.00047731,6.8483e-13,-3.0396e-12,29.901,-26.505,-0.00014886,5.9105,0.024196,0.021167,-2.2421e-13,1,81.28,132.08,0,0
1.9605,5.8815,-26.582,-0.00017459,0.00053024,6.7004e-13,-3.0424e-12,29.959,-26.582,-0.00017459,5.8815,0.024202,0.021228,-2.2424e-13,1,81.382,132.18,0,0
1.9546,5.8524,-26.659,-0.00020025,0.00058303,6.5684e-13,-3.0452e-12,30.016,-26.659,-0.00020025,5.8524,0.024209,0.021289,-2.2428e-13,1,81.483,132.28,0,0
1.9488,5.8233,-26.736,-0.00022583,0.00063567,6.4525e-13,-3.048e-12,30.073,-26.736,-0.00022583,5.8233,0.024216,0.02135,-2.2431e-13,1,81.585,132.38,0,0
1.9429,5.7943,-26.812,-0.00025133,0.00068817,6.3525e-13,-3.0508e-12,30.13,-26.812,-0.00025133,5.7943,0.024222,0.021411,-2.2435e-13,1,81.686,132.49,0,0
1.937,5.7652,-26.889,-0.00027676,0.00074051,6.2686e-13,-3.0536e-12,30.188,-26.889,-0.00027676,5.7652,0.024229,0.021472,-2.2438e-13,1,81.788,132.59,0,0
1.9311,5.7362,-26.966,-0.00030211,0.00079272,6.2006e-13,-3.0563e-12,30.245,-26.966,-0.00030211,5.7362,0.024235,0.021533,-2.2442e-13,1,81.89,132.69,0,0
1.9253,5.7071,-27.043,-0.00032739,0.00084477,6.1486e-13,-3.0591e-12,30.303,-27.043,-0.00032738,5.7071,0.024242,0.021595,-2.2445e-13,1,81.991,132.79,0,0
1.9194,5.6781,-27.12,-0.00035259,0.00089669,6.1127e-13,-3.0619e-12,30.36,-27.12,-0.00035259,5.6781,0.024248,0.021656,-2.2449e-13,1,82.093,132.89,0,0
1.9135,5.649,-27.197,-0.00037771,0.00094845,6.0927e-13,-3.0647e-12,30.418,-27.197,-0.00037771,5.649,0.024255,0.021717,-2.2452e-13,1,82.194,132.99,0,0
1.9077,5.62,-27.274,-0.00040275,0.0010001,6.0887e-13,-3.0675e-12,30.475,-27.274,-0.00040275,5.62,0.024261,0.021778,-2.2456e-13,1,82.296,133.1,0,0
1.9018,5.5909,-27.351,-0.00042773,0.0010515,6.1007e-13,-3.0703e-12,30.533,-27.351,-0.00042773,5.5909,0.024268,0.021839,-2.2459e-13,1,82.398,133.2,0,0
1.8959,5.5619,-27.428,-0.00045262,0.0011029,6.1287e-13,-3.0731e-12,30.59,-27.428,-0.00045262,5.5619,0.024274,0.0219,-2.2463e-13,1,82.499,133.3,0,0
1.89,5.5328,-27.505,-0.00047744,0.001154,6.1727e-13,-3.0759e-12,30.648,-27.505,-0.00047744,5.5328,0.024281,0.021961,-2.2466e-13,1,82.601,133.4,0,0
1.8842,5.5038,-27.582,-0.00050218,0.0012051,6.2327e-13,-3.0787e-12,30.706,-27.582,-0.00050218,5.5038,0.024287,0.022023,-2.247e-13,1,82.702,133.5,0,0
1.8783,5.4747,-27.659,-0.00052685,0.001256,6.3087e-13,-3.0815e-12,30.763,-27.659,-0.00052685,5.4747,0.024294,0.022084,-2.2473e-13,1,82.804,133.6,0,0
1.8724,5.4457,-27.735,-0.00055144,0.0013067,6.4007e-13,-3.0843e-12,30.821,-27.735,-0.00055144,5.4457,0.0243,0.022145,-2.2477e-13,1,82.906,133.71,0,0
1.8666,5.4166,-27.812,-0.00057596,0.0013573,6.5087e-13,-3.087e-12,30.879,-27.812,-0.00057595,5.4166,0.024307,0.022206,-2.248e-13,1,83.007,133.81,0,0
1.8607,5.3876,-27.889,-0.00060039,0.0014077,6.6327e-13,-3.0898e-12,30.937,-27.889,-0.00060039,5.3876,0.024314,0.022267,-2.2484e-13,1,83.109,133.91,0,0
1.8548,5.3585,-27.966,-0.00062476,0.0014581,6.7727e-13,-3.0926e-12,30.995,-27.966,-0.00062476,5.3585,0.02432,0.022328,-2.2487e-13,1,83.21,134.01,0,0
1.8489,5.3295,-28.043,-0.00064904,0.0015082,6.9286e-13,-3.0954e-12,31.053,-28.043,-0.00064904,5.3295,0.024327,0.022389,-2.2491e-13,1,83.312,134.11,0,0
1.8431,5.3005,-28.12,-0.00067325,0.0015582,7.1006e-13,-3.0982e-12,31.111,-28.12,-0.00067325,5.3005,0.024333,0.02245,-2.2494e-13,1,83.414,134.21,0,0
1.8372,5.2714,-28.197,-0.00069739,0.0016081,7.2885e-13,-3.101e-12,31.169,-28.197,-0.00069739,5.2714,0.02434,0.022512,-2.2498e-13,1,83.515,134.32,0,0
1.8313,5.2424,-28.274,-0.00072145,0.0016578,7.4925e-13,-3.1038e-12,31.227,-28.274,-0.00072144,5.2424,0.024346,0.022573,-2.2501e-13,1,83.617,134.42,0,0
1.8255,5.2134,-28.351,-0.00074543,0.0017074,7.7124e-13,-3.1066e-12,31.285,-28.351,-0.00074543,5.2134,0.024353,0.022634,-2.2505e-13,1,83.718,134.52,0,0
1.8196,5.1843,-28.428,-0.00076933,0.0017568,7.9484e-13,-3.1094e-12,31.343,-28.428,-0.00076933,5.1843,0.024359,0.022695,-2.2508e-13,1,83.82,134.62,0,0
1.8137,5.1553,-28.505,-0.00079317,0.0018061,8.2003e-13,-3.1122e-12,31.401,-28.505,-0.00079316,5.1553,0.024366,0.022756,-2.2512e-13,1,83.922,134.72,0,0
1.8078,5.1263,-28.582,-0.00081692,0.0018552,8.4682e-13,-3.115e-12,31.459,-28.582,-0.00081691,5.1263,0.024372,0.022817,-2.2515e-13,1,84.023,134.82,0,0
1.802,5.0972,-28.659,-0.0008406,0.0019042,8.7522e-13,-3.1177e-12,31.518,-28.659,-0.00084059,5.0972,0.024378,0.022878,-2.2519e-13,1,84.125,134.92,0,0
1.7961,5.0682,-28.736,-0.0008642,0.001953,9.0521e-13,-3.1205e-12,31.576,-28.736,-0.00086419,5.0682,0.024385,0.02294,-2.2522e-13,1,84.226,135.03,0,0
1.7902,5.0392,-28.812,-0.00088773,0.0020017,9.368e-13,-3.1233e-12,31.634,-28.812,-0.00088772,5.0392,0.024391,0.023001,-2.2526e-13,1,84.328,135.13,0,0
1.7844,5.0102,-28.889,-0.00091117,0.0020503,9.6999e-13,-3.1261e-12,31.692,-28.889,-0.00091117,5.0102,0.024398,0.023062,-2.2529e-13,1,84.43,135.23,0,0
1.7785,4.9811,-28.966,-0.00093455,0.0020987,1.0048e-12,-3.1289e-12,31.751,-28.966,-0.00093455,4.9811,0.024404,0.023123,-2.2533e-13,1,84.531,135.33,0,0
1.7726,4.9521,-29.043,-0.00095784,0.0021469,1.0412e-12,-3.1317e-12,31.809,-29.043,-0.00095784,4.9521,0.024411,0.023184,-2.2536e-13,1,84.633,135.43,0,0
1.7667,4.9231,-29.12,-0.00098106,0.002195,1.0792e-12,-3.1345e-12,31.868,-29.12,-0.00098106,4.9231,0.024417,0.023245,-2.254e-13,1,84.734,135.53,0,0
1.7609,4.8941,-29.197,-0.0010042,0.002243,1.1188e-12,-3.1373e-12,31.926,-29.197,-0.0010042,4.8941,0.024424,0.023306,-2.2543e-13,1,84.836,135.64,0,0
1.755,4.865,-29.274,-0.0010273,0.0022908,1.1599e-12,-3.1401e-12,31.985,-29.274,-0.0010273,4.865,0.02443,0.023368,-2.2547e-13,1,84.938,135.74,0,0
1.7491,4.836,-29.351,-0.0010503,0.0023385,1.2027e-12,-3.1429e-12,32.043,-29.351,-0.0010503,4.836,0.024437,0.023429,-2.255e-13,1,85.039,135.84,0,0
1.7433,4.807,-29.428,-0.0010732,0.002386,1.2471e-12,-3.1457e-12,32.102,-29.428,-0.0010732,4.807,0.024443,0.02349,-2.2554e-13,1,85.141,135.94,0,0
1.7374,4.778,-29.505,-0.001096,0.0024334,1.2931e-12,-3.1484e-12,32.161,-29.505,-0.001096,4.778,0.02445,0.023551,-2.2557e-13,1,85.242,136.04,0,0
1.7315,4.749,-29.582,-0.0011188,0.0024806,1.3407e-12,-3.1512e-12,32.219,-29.582,-0.0011188,4.749,0.024456,0.023612,-2.2561e-13,1,85.344,136.14,0,0
1.7256,4.72,-29.659,-0.0011415,0.0025277,1.3899e-12,-3.154e-12,32.278,-29.659,-0.0011415,4.72,0.024462,0.023673,-2.2564e-13,1,85.446,136.25,0,0
1.7198,4.6909,-29.736,-0.0011641,0.0025747,1.4407e-12,-3.1568e-12,32.337,-29.736,-0.0011641,4.6909,0.024469,0.023734,-2.2568e-13,1,85.547,136.35,0,0
1.7139,4.6619,-29.813,-0.0011866,0.0026215,1.493e-12,-3.1596e-12,32.396,-29.813,-0.0011866,4.6619,0.024475,0.023796,-2.2571e-13,1,85.649,136.45,0,0
1.708,4.6329,-29.89,-0.0012091,0.0026681,1.547e-12,-3.1624e-12,32.454,-29.89,-0.0012091,4.6329,0.024482,0.023857,-2.2575e-13,1,85.75,136.55,0,0
1.7022,4.6039,-29.967,-0.0012315,0.0027146,1.6026e-12,-3.1652e-12,32.513,-29.967,-0.0012315,4.6039,0.024488,0.023918,-2.2578e-13,1,85.852,136.65,0,0
1.6963,4.5749,-30.043,-0.0012538,0.002761,1.6598e-12,-3.168e-12,32.572,-30.043,-0.0012538,4.5749,0.024495,0.023979,-2.2582e-13,1,85.954,136.75,0,0
1.6904,4.5459,-30.12,-0.001276,0.0028072,1.7186e-12,-3.1708e-12,32.631,-30.12,-0.001276,4.5459,0.024501,0.02404,-2.2585e-13,1,86.055,136.86,0,0
1.6845,4.5169,-30.197,-0.0012982,0.0028532,1.779e-12,-3.1736e-12,32.69,-30.197,-0.0012982,4.5169,0.024507,0.024101,-2.2589e-13,1,86.157,136.96,0,0
1.6787,4.4879,-30.274,-0.0013203,0.0028991,1.8409e-12,-3.1764e-12,32.749,-30.274,-0.0013203,4.4879,0.024514,0.024162,-2.2592e-13,1,86.258,137.06,0,0
1.6728,4.4587,-30.352,-0.0013424,0.0029722,1.905e-12,-3.179e-12,32.809,-30.352,-0.0013424,4.4587,0.02452,0.024224,-2.2596e-13,1,86.36,137.16,0,0
1.6684,4.4304,-30.426,-0.0013517,0.0029828,1.9825e-12,-3.1439e-12,32.866,-30.426,-0.0013517,4.4304,0.024527,0.024285,-2.2598e-13,1,86.462,137.26,0,0
1.6641,4.402,-30.501,-0.0013624,0.0029937,2.0601e-12,-3.1088e-12,32.923,-30.501,-0.0013624,4.402,0.024533,0.024346,-2.2601e-13,1,86.563,137.36,0,0
1.6597,4.3737,-30.575,-0.0013744,0.0030047,2.1377e-12,-3.0736e-12,32.98,-30.575,-0.0013744,4.3737,0.02454,0.024407,-2.2604e-13,1,86.665,137.46,0,0
1.6554,4.3454,-30.649,-0.0013877,0.0030159,2.2153e-12,-3.0385e-12,33.037,-30.649,-0.0013877,4.3453,0.024546,0.024468,-2.2606e-13,1,86.766,137.57,0,0
1.6511,4.317,-30.724,-0.0014023,0.0030272,2.2929e-12,-3.0034e-12,33.094,-30.724,-0.0014023,4.317,0.024553,0.02453,-2.2609e-13,1,86.868,137.67,0,0
1.6467,4.2886,-30.798,-0.0014183,0.0030387,2.3705e-12,-2.9682e-12,33.151,-30.798,-0.0014182,4.2886,0.024559,0.024591,-2.2611e-13,1,86.97,137.77,0,0
1.6424,4.2603,-30.872,-0.0014355,0.0030504,2.4481e-12,-2.9331e-12,33.208,-30.872,-0.0014355,4.2603,0.024566,0.024652,-2.2614e-13,1,87.071,137.87,0,0
1.638,4.2319,-30.947,-0.001454,0.0030622,2.5256e-12,-2.898e-12,33.265,-30.947,-0.001454,4.2319,0.024572,0.024713,-2.2617e-13,1,87.173,137.97,0,0
1.6337,4.2035,-31.021,-0.0014739,0.0030742,2.6032e-12,-2.8628e-12,33.322,-31.021,-0.0014739,4.2035,0.024579,0.024774,-2.2619e-13,1,87.274,138.07,0,0
1.6293,4.1751,-31.096,-0.0014951,0.0030864,2.6808e-12,-2.8277e-12,33.379,-31.096,-0.0014951,4.1751,0.024585,0.024835,-2.2622e-13,1,87.376,138.18,0,0
1.625,4.1468,-31.17,-0.0015176,0.0030987,2.7584e-12,-2.7926e-12,33.436,-31.17,-0.0015176,4.1468,0.024591,0.024896,-2.2625e-13,1,87.478,138.28,0,0
1.6207,4.1184,-31.244,-0.0015414,0.0031112,2.836e-12,-2.7575e-12,33.493,-31.244,-0.0015414,4.1184,0.024598,0.024958,-2.2627e-13,1,87.579,138.38,0,0
1.6163,4.09,-31.319,-0.0015665,0.0031238,2.9136e-12,-2.7223e-12,33.551,-31.319,-0.0015665,4.09,0.024604,0.025019,-2.263e-13,1,87.681,138.48,0,0
1.612,4.0616,-31.393,-0.001593,0.0031366,2.9912e-12,-2.6872e-12,33.608,-31.393,-0.0015929,4.0616,0.024611,0.02508,-2.2632e-13,1,87.782,138.58,0,0
1.6076,4.0332,-31.467,-0.0016207,0.0031496,3.0688e-12,-2.6521e-12,33.665,-31.467,-0.0016207,4.0332,0.024617,0.025141,-2.2635e-13,1,87.884,138.68,0,0
1.6033,4.0047,-31.542,-0.0016498,0.0031627,3.1463e-12,-2.6169e-12,33.722,-31.542,-0.0016497,4.0047,0.024624,0.025202,-2.2638e-13,1,87.986,138.79,0,0
1.5989,3.9763,-31.616,-0.0016801,0.0031761,3.2239e-12,-2.5818e-12,33.78,-31.616,-0.0016801,3.9763,0.02463,0.025263,-2.264e-13,1,88.087,138.89,0,0
1.5946,3.9479,-31.691,-0.0017118,0.0031895,3.3015e-12,-2.5467e-12,33.837,-31.691,-0.0017118,3.9479,0.024637,0.025324,-2.2643e-13,1,88.189,138.99,0,0
1.5903,3.9195,-31.765,-0.0017448,0.0032032,3.3791e-12,-2.5115e-12,33.894,-31.765,-0.0017448,3.9195,0.024643,0.025386,-2.2646e-13,1,88.29,139.09,0,0
1.5859,3.891,-31.839,-0.0017791,0.0032169,3.4567e-12,-2.4764e-12,33.952,-31.839,-0.0017791,3.891,0.024649,0.025447,-2.2648e-13,1,88.392,139.19,0,0
1.5816,3.8626,-31.914,-0.0018147,0.0032309,3.5343e-12,-2.4413e-12,34.009,-31.914,-0.0018147,3.8626,0.024656,0.025508,-2.2651e-13,1,88.494,139.29,0,0
1.5772,3.8341,-31.988,-0.0018517,0.003245,3.6119e-12,-2.4061e-12,34.067,-31.988,-0.0018517,3.8341,0.024662,0.025569,-2.2653e-13,1,88.595,139.4,0,0
1.5729,3.8057,-32.062,-0.0018899,0.0032593,3.6894e-12,-2.371e-12,34.124,-32.062,-0.0018899,3.8057,0.024669,0.02563,-2.2656e-13,1,88.697,139.5,0,0
1.5685,3.7772,-32.137,-0.0019295,0.0032738,3.767e-12,-2.3359e-12,34.181,-32.137,-0.0019295,3.7772,0.024675,0.025691,-2.2659e-13,1,88.798,139.6,0,0
1.5642,3.7488,-32.211,-0.0019704,0.0032884,3.8446e-12,-2.3007e-12,34.239,-32.211,-0.0019703,3.7488,0.024681,0.025752,-2.2661e-13,1,88.9,139.7,0,0
1.5599,3.7203,-32.285,-0.0020126,0.0033032,3.9222e-12,-2.2656e-12,34.296,-32.285,-0.0020125,3.7203,0.024688,0.025814,-2.2664e-13,1,89.002,139.8,0,0
1.5555,3.6918,-32.36,-0.0020561,0.0033181,3.9998e-12,-2.2305e-12,34.354,-32.36,-0.002056,3.6918,0.024694,0.025875,-2.2667e-13,1,89.103,139.9,0,0
1.5512,3.6634,-32.434,-0.0021009,0.0033332,4.0774e-12,-2.1953e-12,34.411,-32.434,-0.0021009,3.6633,0.024701,0.025936,-2.2669e-13,1,89.205,140,0,0
1.5468,3.6349,-32.508,-0.002147,0.0033485,4.155e-12,-2.1602e-12,34.469,-32.508,-0.002147,3.6349,0.024707,0.025997,-2.2672e-13,1,89.306,140.11,0,0
1.5425,3.6064,-32.583,-0.0021944,0.0033639,4.2326e-12,-2.1251e-12,34.526,-32.583,-0.0021944,3.6064,0.024713,0.026058,-2.2674e-13,1,89.408,140.21,0,0
1.5381,3.5779,-32.657,-0.0022432,0.0033795,4.3102e-12,-2.0899e-12,34.584,-32.657,-0.0022432,3.5779,0.02472,0.026119,-2.2677e-13,1,89.51,140.31,0,0
1.5338,3.5494,-32.731,-0.0022933,0.0033953,4.3877e-12,-2.0548e-12,34.642,-32.731,-0.0022932,3.5494,0.024726,0.02618,-2.268e-13,1,89.611,140.41,0,0
1.5295,3.5209,-32.806,-0.0023447,0.0034112,4.4653e-12,-2.0197e-12,34.699,-32.806,-0.0023446,3.5209,0.024733,0.026242,-2.2682e-13,1,89.713,140.51,0,0
1.5251,3.4924,-32.88,-0.0023973,0.0034273,4.5429e-12,-1.9846e-12,34.757,-32.88,-0.0023973,3.4924,0.024739,0.026303,-2.2685e-13,1,89.814,140.61,0,0
1.5208,3.4638,-32.954,-0.0024514,0.0034436,4.6205e-12,-1.9494e-12,34.815,-32.954,-0.0024513,3.4638,0.024745,0.026364,-2.2688e-13,1,89.916,140.72,0,0
1.5164,3.4353,-33.029,-0.0025067,0.00346,4.6981e-12,-1.9143e-12,34.872,-33.029,-0.0025066,3.4353,0.024752,0.026425,-2.269e-13,1,90.018,140.82,0,0
1.5121,3.4068,-33.103,-0.0025633,0.0034766,4.7757e-12,-1.8792e-12,34.93,-33.103,-0.0025633,3.4068,0.024758,0.026486,-2.2693e-13,1,90.119,140.92,0,0
1.5077,3.3783,-33.177,-0.0026212,0.0034933,4.8533e-12,-1.844e-12,34.988,-33.177,-0.0026212,3.3783,0.024764,0.026547,-2.2695e-13,1,90.221,141.02,0,0
1.5034,3.3497,-33.252,-0.0026805,0.0035102,4.9309e-12,-1.8089e-12,35.046,-33.252,-0.0026805,3.3497,0.024771,0.026608,-2.2698e-13,1,90.322,141.12,0,0
1.4991,3.3212,-33.326,-0.0027411,0.0035273,5.0084e-12,-1.7738e-12,35.103,-33.326,-0.0027411,3.3212,0.024777,0.02667,-2.2701e-13,1,90.424,141.22,0,0
1.4947,3.2926,-33.4,-0.002803,0.0035445,5.086e-12,-1.7386e-12,35.161,-33.4,-0.002803,3.2926,0.024784,0.026731,-2.2703e-13,1,90.526,141.33,0,0
1.4904,3.2641,-33.475,-0.0028662,0.0035619,5.1636e-12,-1.7035e-12,35.219,-33.475,-0.0028661,3.2641,0.02479,0.026792,-2.2706e-13,1,90.627,141.43,0,0
1.486,3.2355,-33.549,-0.0029307,0.0035795,5.2412e-12,-1.6684e-12,35.277,-33.549,-0.0029307,3.2355,0.024796,0.026853,-2.2709e-13,1,90.729,141.53,0,0
1.4817,3.207,-33.623,-0.0029965,0.0035972,5.3188e-12,-1.6332e-12,35.335,-33.623,-0.0029965,3.207,0.024803,0.026914,-2.2711e-13,1,90.83,141.63,0,0
1.4773,3.1784,-33.698,-0.0030636,0.0036151,5.3964e-12,-1.5981e-12,35.393,-33.698,-0.0030636,3.1784,0.024809,0.026975,-2.2714e-13,1,90.932,141.73,0,0
1.473,3.1498,-33.772,-0.0031321,0.0036332,5.474e-12,-1.563e-12,35.45,-33.772,-0.0031321,3.1498,0.024815,0.027036,-2.2716e-13,1,91.034,141.83,0,0
1.4687,3.1212,-33.846,-0.0032018,0.0036514,5.5516e-12,-1.5278e-12,35.508,-33.846,-0.0032018,3.1212,0.024822,0.027098,-2.2719e-13,1,91.135,141.94,0,0
1.4643,3.0926,-33.92,-0.0032729,0.0036698,5.6291e-12,-1.4927e-12,35.566,-33.92,-0.0032729,3.0926,0.024828,0.027159,-2.2722e-13,1,91.237,142.04,0,0
1.46,3.064,-33.995,-0.0033453,0.0036884,5.7067e-12,-1.4576e-12,35.624,-33.995,-0.0033453,3.064,0.024834,0.02722,-2.2724e-13,1,91.338,142.14,0,0
1.4556,3.0353,-34.07,-0.0034188,0.0037338,5.7834e-12,-1.4219e-12,35.683,-34.07,-0.0034188,3.0353,0.024841,0.027281,-2.2727e-13,1,91.44,142.24,0,0
1.4523,3.0065,-34.14,-0.0032948,0.0037293,5.4308e-12,-1.2951e-12,35.737,-34.14,-0.0032948,3.0065,0.024847,0.027343,-2.273e-13,1,91.542,142.34,0,0
1.449,2.9777,-34.211,-0.0031764,0.0037248,5.0862e-12,-1.1683e-12,35.792,-34.211,-0.0031764,2.9777,0.024853,0.027404,-2.2733e-13,1,91.643,142.44,0,0
1.4457,2.9489,-34.282,-0.0030638,0.0037203,4.7497e-12,-1.0415e-12,35.846,-34.282,-0.0030637,2.9489,0.024859,0.027465,-2.2736e-13,1,91.745,142.54,0,0
1.4424,2.9201,-34.353,-0.0029568,0.0037158,4.4211e-12,-9.147e-13,35.901,-34.353,-0.0029567,2.9201,0.024865,0.027526,-2.2738e-13,1,91.846,142.65,0,0
1.439,2.8914,-34.424,-0.0028554,0.0037112,4.1005e-12,-7.8787e-13,35.956,-34.424,-0.0028553,2.8914,0.024871,0.027587,-2.2741e-13,1,91.948,142.75,0,0
1.4357,2.8626,-34.495,-0.0027598,0.0037067,3.7879e-12,-6.6107e-13,36.011,-34.495,-0.0027596,2.8626,0.024877,0.027648,-2.2744e-13,1,92.05,142.85,0,0
1.4324,2.8339,-34.566,-0.0026698,0.0037021,3.4833e-12,-5.3424e-13,36.065,-34.566,-0.0026696,2.8339,0.024883,0.027709,-2.2747e-13,1,92.151,142.95,0,0
1.4291,2.8052,-34.637,-0.0025855,0.0036975,3.1867e-12,-4.0743e-13,36.12,-34.637,-0.0025853,2.8052,0.024889,0.02777,-2.275e-13,1,92.253,143.05,0,0
1.4258,2.7765,-34.708,-0.0025069,0.0036929,2.8981e-12,-2.8061e-13,36.175,-34.708,-0.0025067,2.7765,0.024895,0.027832,-2.2753e-13,1,92.354,143.15,0,0
1.4225,2.7479,-34.779,-0.0024339,0.0036882,2.6175e-12,-1.538e-13,36.23,-34.779,-0.0024337,2.7479,0.024901,0.027893,-2.2756e-13,1,92.456,143.26,0,0
1.4192,2.7192,-34.85,-0.0023666,0.0036836,2.3449e-12,-2.6977e-14,36.285,-34.85,-0.0023664,2.7192,0.024907,0.027954,-2.2759e-13,1,92.558,143.36,0,0
1.4158,2.6906,-34.921,-0.002305,0.0036789,2.0803e-12,9.9829e-14,36.341,-34.921,-0.0023048,2.6906,0.024913,0.028015,-2.2762e-13,1,92.659,143.46,0,0
1.4125,2.662,-34.993,-0.0022491,0.0036742,1.8236e-12,2.2666e-13,36.396,-34.993,-0.0022489,2.662,0.024919,0.028076,-2.2765e-13,1,92.761,143.56,0,0
1.4092,2.6334,-35.064,-0.0021989,0.0036695,1.575e-12,3.5346e-13,36.451,-35.064,-0.0021986,2.6334,0.024925,0.028137,-2.2768e-13,1,92.862,143.66,0,0
1.4059,2.6048,-35.135,-0.0021543,0.0036648,1.3344e-12,4.8029e-13,36.506,-35.135,-0.0021541,2.6048,0.024931,0.028198,-2.277e-13,1,92.964,143.76,0,0
1.4026,2.5762,-35.206,-0.0021154,0.0036601,1.1018e-12,6.0709e-13,36.562,-35.206,-0.0021152,2.5762,0.024937,0.02826,-2.2773e-13,1,93.066,143.87,0,0
1.3993,2.5477,-35.278,-0.0020822,0.0036553,8.772e-13,7.339e-13,36.617,-35.278,-0.002082,2.5477,0.024944,0.028321,-2.2776e-13,1,93.167,143.97,0,0
1.396,2.5192,-35.349,-0.0020547,0.0036505,6.6055e-13,8.6073e-13,36.673,-35.349,-0.0020544,2.5192,0.02495,0.028382,-2.2779e-13,1,93.269,144.07,0,0
1.3927,2.4906,-35.42,-0.0020328,0.0036458,4.5194e-13,9.8753e-13,36.728,-35.42,-0.0020326,2.4906,0.024956,0.028443,-2.2782e-13,1,93.37,144.17,0,0
1.3893,2.4621,-35.492,-0.0020167,0.0036409,2.513e-13,1.1144e-12,36.784,-35.492,-0.0020164,2.4621,0.024962,0.028504,-2.2785e-13,1,93.472,144.27,0,0
1.386,2.4337,-35.563,-0.0020062,0.0036361,5.868e-14,1.2412e-12,36.839,-35.563,-0.0020059,2.4337,0.024968,0.028565,-2.2788e-13,1,93.574,144.37,0,0
1.3827,2.4052,-35.635,-0.0020013,0.0036313,-1.2597e-13,1.368e-12,36.895,-35.635,-0.002001,2.4052,0.024974,0.028626,-2.2791e-13,1,93.675,144.48,0,0
1.3794,2.3767,-35.706,-0.0020022,0.0036264,-3.0259e-13,1.4948e-12,36.951,-35.706,-0.0020019,2.3767,0.02498,0.028688,-2.2794e-13,1,93.777,144.58,0,0
1.3761,2.3483,-35.778,-0.0020087,0.0036215,-4.7124e-13,1.6216e-12,37.007,-35.778,-0.0020084,2.3483,0.024986,0.028749,-2.2797e-13,1,93.878,144.68,0,0
1.3728,2.3199,-35.849,-0.0020209,0.0036166,-6.3187e-13,1.7484e-12,37.063,-35.849,-0.0020206,2.3199,0.024992,0.02881,-2.2799e-13,1,93.98,144.78,0,0
1.3695,2.2915,-35.921,-0.0020388,0.0036117,-7.8453e-13,1.8753e-12,37.119,-35.921,-0.0020385,2.2915,0.024998,0.028871,-2.2802e-13,1,94.082,144.88,0,0
1.3661,2.2631,-35.992,-0.0020624,0.0036068,-9.2917e-13,2.0021e-12,37.175,-35.992,-0.002062,2.2631,0.025004,0.028932,-2.2805e-13,1,94.183,144.98,0,0
1.3628,2.2347,-36.064,-0.0020916,0.0036018,-1.0658e-12,2.1289e-12,37.231,-36.064,-0.0020913,2.2347,0.02501,0.028993,-2.2808e-13,1,94.285,145.08,0,0
1.3595,2.2064,-36.136,-0.0021265,0.0035969,-1.1945e-12,2.2557e-12,37.287,-36.136,-0.0021262,2.2064,0.025016,0.029054,-2.2811e-13,1,94.386,145.19,0,0
1.3562,2.1781,-36.207,-0.0021671,0.0035919,-1.3151e-12,2.3825e-12,37.343,-36.207,-0.0021668,2.1781,0.025022,0.029116,-2.2814e-13,1,94.488,145.29,0,0
1.3529,2.1497,-36.279,-0.0022134,0.0035869,-1.4278e-12,2.5093e-12,37.399,-36.279,-0.0022131,2.1497,0.025028,0.029177,-2.2817e-13,1,94.59,145.39,0,0
1.3496,2.1214,-36.351,-0.0022653,0.0035819,-1.5324e-12,2.6361e-12,37.455,-36.351,-0.002265,2.1214,0.025034,0.029238,-2.282e-13,1,94.691,145.49,0,0
1.3463,2.0932,-36.423,-0.0023229,0.0035768,-1.6291e-12,2.763e-12,37.512,-36.423,-0.0023226,2.0932,0.02504,0.029299,-2.2823e-13,1,94.793,145.59,0,0
1.343,2.0649,-36.494,-0.0023862,0.0035718,-1.7178e-12,2.8898e-12,37.568,-36.494,-0.0023859,2.0649,0.025046,0.02936,-2.2826e-13,1,94.894,145.69,0,0
1.3396,2.0366,-36.566,-0.0024552,0.0035667,-1.7984e-12,3.0166e-12,37.625,-36.566,-0.0024549,2.0366,0.025052,0.029421,-2.2829e-13,1,94.996,145.8,0,0
1.3363,2.0084,-36.638,-0.0025298,0.0035616,-1.8711e-12,3.1434e-12,37.681,-36.638,-0.0025296,2.0084,0.025058,0.029482,-2.2831e-13,1,95.098,145.9,0,0
1.333,1.9802,-36.71,-0.0026102,0.0035565,-1.9358e-12,3.2702e-12,37.738,-36.71,-0.0026099,1.9802,0.025063,0.029544,-2.2834e-13,1,95.199,146,0,0
1.3297,1.952,-36.782,-0.0026962,0.0035514,-1.9924e-12,3.397e-12,37.794,-36.782,-0.0026959,1.952,0.025069,0.029605,-2.2837e-13,1,95.301,146.1,0,0
1.3264,1.9238,-36.854,-0.0027878,0.0035462,-2.0411e-12,3.5238e-12,37.851,-36.854,-0.0027876,1.9238,0.025075,0.029666,-2.284e-13,1,95.402,146.2,0,0
1.3231,1.8956,-36.926,-0.0028852,0.0035411,-2.0818e-12,3.6507e-12,37.908,-36.926,-0.002885,1.8956,0.025081,0.029727,-2.2843e-13,1,95.504,146.3,0,0
1.3198,1.8675,-36.998,-0.0029882,0.0035359,-2.1145e-12,3.7775e-12,37.965,-36.998,-0.002988,1.8675,0.025087,0.029788,-2.2846e-13,1,95.606,146.41,0,0
1.3165,1.8393,-37.07,-0.0030969,0.0035307,-2.1392e-12,3.9043e-12,38.021,-37.07,-0.0030968,1.8393,0.025093,0.029849,-2.2849e-13,1,95.707,146.51,0,0
1.3131,1.8112,-37.142,-0.0032113,0.0035255,-2.1558e-12,4.0311e-12,38.078,-37.142,-0.0032112,1.8112,0.025099,0.02991,-2.2852e-13,1,95.809,146.61,0,0
1.3098,1.7831,-37.214,-0.0033314,0.0035203,-2.1645e-12,4.1579e-12,38.135,-37.214,-0.0033312,1.7831,0.025105,0.029972,-2.2855e-13,1,95.91,146.71,0,0
1.3065,1.755,-37.286,-0.0034571,0.003515,-2.1652e-12,4.2847e-12,38.192,-37.286,-0.003457,1.755,0.025111,0.030033,-2.2858e-13,1,96.012,146.81,0,0
1.3032,1.727,-37.358,-0.0035885,0.0035098,-2.1579e-12,4.4115e-12,38.249,-37.358,-0.0035884,1.727,0.025117,0.030094,-2.286e-13,1,96.114,146.91,0,0
1.2999,1.6989,-37.431,-0.0037256,0.0035045,-2.1426e-12,4.5384e-12,38.307,-37.431,-0.0037255,1.6989,0.025123,0.030155,-2.2863e-13,1,96.215,147.02,0,0
1.2966,1.6709,-37.503,-0.0038684,0.0034992,-2.1193e-12,4.6652e-12,38.364,-37.503,-0.0038683,1.6709,0.025129,0.030216,-2.2866e-13,1,96.317,147.12,0,0
1.2933,1.6429,-37.575,-0.0040168,0.0034939,-2.088e-12,4.792e-12,38.421,-37.575,-0.0040168,1.6429,0.025135,0.030277,-2.2869e-13,1,96.418,147.22,0,0
1.2899,1.6147,-37.648,-0.0041703,0.0035154,-2.048e-12,4.919e-12,38.479,-37.648,-0.0041703,1.6147,0.025141,0.030339,-2.2872e-13,1,96.52,147.32,0,0
1.2883,1.5854,-37.722,-0.0038174,0.0034545,-1.8772e-12,4.8547e-12,38.537,-37.722,-0.0038179,1.5854,0.025147,0.0304,-2.2875e-13,1,96.622,147.42,0,0
1.2866,1.5561,-37.796,-0.0034575,0.0033935,-1.7064e-12,4.7904e-12,38.596,-37.796,-0.0034584,1.5561,0.025153,0.030461,-2.2878e-13,1,96.723,147.52,0,0
1.2849,1.5269,-37.87,-0.0030904,0.0033324,-1.5356e-12,4.726e-12,38.655,-37.87,-0.0030918,1.5269,0.025158,0.030522,-2.2881e-13,1,96.825,147.62,0,0
1.2832,1.4976,-37.944,-0.0027163,0.0032712,-1.3648e-12,4.6617e-12,38.713,-37.944,-0.0027181,1.4976,0.025164,0.030583,-2.2883e-13,1,96.926,147.73,0,0
1.2815,1.4683,-38.018,-0.0023351,0.00321,-1.194e-12,4.5974e-12,38.772,-38.018,-0.0023373,1.4683,0.02517,0.030645,-2.2886e-13,1,97.028,147.83,0,0
1.2798,1.439,-38.092,-0.0019468,0.0031487,-1.0232e-12,4.5331e-12,38.83,-38.092,-0.0019495,1.439,0.025176,0.030706,-2.2889e-13,1,97.13,147.93,0,0
1.2781,1.4097,-38.166,-0.0015513,0.0030874,-8.5242e-13,4.4688e-12,38.889,-38.166,-0.0015544,1.4097,0.025182,0.030767,-2.2892e-13,1,97.231,148.03,0,0
1.2764,1.3803,-38.239,-0.0011488,0.0030259,-6.8164e-13,4.4045e-12,38.947,-38.239,-0.0011524,1.3803,0.025188,0.030828,-2.2895e-13,1,97.333,148.13,0,0
1.2747,1.351,-38.313,-0.00073915,0.0029645,-5.1083e-13,4.3402e-12,39.006,-38.313,-0.0007432,1.351,0.025194,0.030889,-2.2898e-13,1,97.434,148.23,0,0
1.2731,1.3216,-38.387,-0.00032247,0.0029029,-3.4005e-13,4.2759e-12,39.064,-38.387,-0.00032696,1.3216,0.0252,0.03095,-2.29e-13,1,97.536,148.34,0,0
1.2714,1.2923,-38.461,0.00010136,0.0028413,-1.6924e-13,4.2116e-12,39.123,-38.461,9.6435e-05,1.2923,0.025205,0.031011,-2.2903e-13,1,97.638,148.44,0,0
1.2697,1.2629,-38.534,0.00053223,0.0027796,1.5485e-15,4.1473e-12,39.181,-38.534,0.00052686,1.2629,0.025211,0.031073,-2.2906e-13,1,97.739,148.54,0,0
1.268,1.2335,-38.608,0.00097019,0.0027179,1.7233e-13,4.083e-12,39.24,-38.608,0.00096439,1.2335,0.025217,0.031134,-2.2909e-13,1,97.841,148.64,0,0
1.2663,1.2041,-38.682,0.0014153,0.0026561,3.4314e-13,4.0187e-12,39.298,-38.682,0.0014091,1.2041,0.025223,0.031195,-2.2912e-13,1,97.942,148.74,0,0
1.2646,1.1747,-38.755,0.0018675,0.0025942,5.1393e-13,3.9544e-12,39.357,-38.755,0.0018608,1.1747,0.025229,0.031256,-2.2915e-13,1,98.044,148.84,0,0
1.2629,1.1452,-38.829,0.0023268,0.0025323,6.8474e-13,3.8901e-12,39.415,-38.829,0.0023197,1.1452,0.025235,0.031317,-2.2918e-13,1,98.146,148.95,0,0
1.2612,1.1158,-38.903,0.0027931,0.0024703,8.5552e-13,3.8258e-12,39.474,-38.903,0.0027856,1.1158,0.025241,0.031378,-2.292e-13,1,98.247,149.05,0,0
1.2595,1.0863,-38.976,0.0032666,0.0024082,1.0263e-12,3.7615e-12,39.532,-38.976,0.0032586,1.0863,0.025246,0.031439,-2.2923e-13,1,98.349,149.15,0,0
1.2579,1.0569,-39.05,0.0037472,0.0023461,1.1971e-12,3.6972e-12,39.591,-39.05,0.0037387,1.0569,0.025252,0.031501,-2.2926e-13,1,98.45,149.25,0,0
1.2562,1.0274,-39.123,0.0042348,0.0022839,1.3679e-12,3.6329e-12,39.649,-39.123,0.004226,1.0274,0.025258,0.031562,-2.2929e-13,1,98.552,149.35,0,0
1.2545,0.99792,-39.197,0.0047296,0.0022216,1.5387e-12,3.5686e-12,39.707,-39.197,0.0047203,0.99793,0.025264,0.031623,-2.2932e-13,1,98.654,149.45,0,0
1.2528,0.96842,-39.27,0.0052314,0.0021593,1.7095e-12,3.5043e-12,39.766,-39.27,0.0052217,0.96843,0.02527,0.031684,-2.2935e-13,1,98.755,149.56,0,0
1.2511,0.93891,-39.344,0.0057404,0.0020969,1.8803e-12,3.44e-12,39.824,-39.344,0.0057302,0.93892,0.025276,0.031745,-2.2937e-13,1,98.857,149.66,0,0
1.2494,0.90939,-39.417,0.0062564,0.0020344,2.0511e-12,3.3757e-12,39.882,-39.417,0.0062459,0.9094,0.025281,0.031806,-2.294e-13,1,98.958,149.76,0,0
1.2477,0.87986,-39.49,0.0067795,0.0019719,2.2219e-12,3.3114e-12,39.941,-39.49,0.0067685,0.87987,0.025287,0.031867,-2.2943e-13,1,99.06,149.86,0,0
1.246,0.85031,-39.564,0.0073097,0.0019093,2.3927e-12,3.2471e-12,39.999,-39.564,0.0072983,0.85032,0.025293,0.031929,-2.2946e-13,1,99.162,149.96,0,0
1.2444,0.82075,-39.637,0.0078471,0.0018467,2.5635e-12,3.1828e-12,40.057,-39.637,0.0078352,0.82077,0.025299,0.03199,-2.2949e-13,1,99.263,150.06,0,0
1.2427,0.79119,-39.71,0.0083914,0.001784,2.7343e-12,3.1185e-12,40.116,-39.71,0.0083792,0.7912,0.025305,0.032051,-2.2952e-13,1,99.365,150.16,0,0
1.241,0.76161,-39.783,0.008943,0.0017212,2.9051e-12,3.0541e-12,40.174,-39.783,0.0089303,0.76162,0.02531,0.032112,-2.2954e-13,1,99.466,150.27,0,0
1.2393,0.73202,-39.857,0.0095016,0.0016583,3.0759e-12,2.9898e-12,40.232,-39.857,0.0094885,0.73203,0.025316,0.032173,-2.2957e-13,1,99.568,150.37,0,0
1.2376,0.70241,-39.93,0.010067,0.0015954,3.2467e-12,2.9255e-12,40.291,-39.93,0.010054,0.70242,0.025322,0.032234,-2.296e-13,1,99.67,150.47,0,0
1.2359,0.6728,-40.003,0.01064,0.0015324,3.4175e-12,2.8612e-12,40.349,-40.003,0.010626,0.67281,0.025328,0.032295,-2.2963e-13,1,99.771,150.57,0,0
1.2342,0.64317,-40.076,0.01122,0.0014694,3.5883e-12,2.7969e-12,40.407,-40.076,0.011206,0.64318,0.025334,0.032357,-2.2966e-13,1,99.873,150.67,0,0
1.2325,0.61353,-40.149,0.011807,0.0014063,3.7591e-12,2.7326e-12,40.465,-40.149,0.011792,0.61354,0.025339,0.032418,-2.2969e-13,1,99.974,150.77,0,0
1.2308,0.58388,-40.222,0.012401,0.0013431,3.9299e-12,2.6683e-12,40.524,-40.222,0.012386,0.58389,0.025345,0.032479,-2.2972e-13,1,100.08,150.88,0,0
1.2292,0.55422,-40.295,0.013002,0.0012799,4.1007e-12,2.604e-12,40.582,-40.295,0.012987,0.55423,0.025351,0.03254,-2.2974e-13,1,100.18,150.98,0,0
1.2275,0.52454,-40.368,0.01361,0.0012166,4.2714e-12,2.5397e-12,40.64,-40.368,0.013594,0.52456,0.025357,0.032601,-2.2977e-13,1,100.28,151.08,0,0
1.2258,0.49485,-40.441,0.014226,0.0011532,4.4423e-12,2.4754e-12,40.698,-40.441,0.014209,0.49487,0.025362,0.032662,-2.298e-13,1,100.38,151.18,0,0
1.2241,0.46516,-40.514,0.014848,0.0010898,4.613e-12,2.4111e-12,40.756,-40.514,0.014831,0.46518,0.025368,0.032723,-2.2983e-13,1,100.48,151.28,0,0
1.2224,0.43545,-40.587,0.015478,0.0010263,4.7839e-12,2.3468e-12,40.814,-40.587,0.015461,0.43546,0.025374,0.032785,-2.2986e-13,1,100.58,151.38,0,0
1.2207,0.40573,-40.66,0.016114,0.00096271,4.9546e-12,2.2825e-12,40.873,-40.66,0.016097,0.40574,0.02538,0.032846,-2.2989e-13,1,100.69,151.49,0,0
1.219,0.37599,-40.733,0.016758,0.00089907,5.1255e-12,2.2182e-12,40.931,-40.733,0.01674,0.37601,0.025385,0.032907,-2.2991e-13,1,100.79,151.59,0,0
1.2173,0.34625,-40.806,0.017409,0.00083538,5.2962e-12,2.1539e-12,40.989,-40.806,0.017391,0.34627,0.025391,0.032968,-2.2994e-13,1,100.89,151.69,0,0
1.2157,0.31649,-40.879,0.018067,0.00077162,5.467e-12,2.0896e-12,41.047,-40.879,0.018048,0.31651,0.025397,0.033029,-2.2997e-13,1,100.99,151.79,0,0
1.214,0.28672,-40.952,0.018732,0.0007078,5.6378e-12,2.0253e-12,41.105,-40.952,0.018713,0.28674,0.025403,0.03309,-2.3e-13,1,101.09,151.89,0,0
1.2123,0.25694,-41.025,0.019404,0.0006439,5.8086e-12,1.961e-12,41.163,-41.025,0.019384,0.25696,0.025408,0.033151,-2.3003e-13,1,101.19,151.99,0,0
1.2106,0.22715,-41.097,0.020083,0.00057995,5.9794e-12,1.8967e-12,41.221,-41.097,0.020063,0.22717,0.025414,0.033213,-2.3006e-13,1,101.3,152.1,0,0
1.2089,0.19735,-41.17,0.02077,0.00051594,6.1502e-12,1.8324e-12,41.279,-41.17,0.020749,0.19737,0.02542,0.033274,-2.3008e-13,1,101.4,152.2,0,0
1.2072,0.16753,-41.243,0.021463,0.00045185,6.321e-12,1.7681e-12,41.337,-41.243,0.021442,0.16755,0.025426,0.033335,-2.3011e-13,1,101.5,152.3,0,0
1.2055,0.13771,-41.315,0.022163,0.0003877,6.4918e-12,1.7038e-12,41.395,-41.315,0.022142,0.13773,0.025431,0.033396,-2.3014e-13,1,101.6,152.4,0,0
