    1C
    1U curvedbeam.inp                                                   
    1UUSER                                                              
    1UDATE              26.january.2021                                 
    1UTIME              14:04:08                                        
    1UHOST                                                              
    1UPGM               CalculiX                                        
    1UVERSION           Version 2.17                             
    1UCOMPILETIME       Thu Jul 23 21:29:36 CEST 2020                    
    1UDIR                                                               
    1UDBN                                                               
    1UMAT    1STEEL                                                     
    2C                         11532                                     1
 -1         1 5.08000E+01 0.00000E+00 0.00000E+00
 -1         2 1.52400E+02 0.00000E+00 0.00000E+00
 -1         3 9.33181E-15-1.52400E+02 0.00000E+00
 -1         4 3.11060E-15-5.08000E+01 0.00000E+00
 -1         5 5.08000E+01 0.00000E+00 1.90500E+01
 -1         6 1.52400E+02 0.00000E+00 1.90500E+01
 -1         7 9.33181E-15-1.52400E+02 1.90500E+01
 -1         8 3.11060E-15-5.08000E+01 1.90500E+01
 -1         9 5.41867E+01 0.00000E+00 0.00000E+00
 -1        10 5.75733E+01 0.00000E+00 0.00000E+00
 -1        11 6.09600E+01 0.00000E+00 0.00000E+00
 -1        12 6.43467E+01 0.00000E+00 0.00000E+00
 -1        13 6.77333E+01 0.00000E+00 0.00000E+00
 -1        14 7.11200E+01 0.00000E+00 0.00000E+00
 -1        15 7.45067E+01 0.00000E+00 0.00000E+00
 -1        16 7.78933E+01 0.00000E+00 0.00000E+00
 -1        17 8.12800E+01 0.00000E+00 0.00000E+00
 -1        18 8.46667E+01 0.00000E+00 0.00000E+00
 -1        19 8.80533E+01 0.00000E+00 0.00000E+00
 -1        20 9.14400E+01 0.00000E+00 0.00000E+00
 -1        21 9.48267E+01 0.00000E+00 0.00000E+00
 -1        22 9.82133E+01 0.00000E+00 0.00000E+00
 -1        23 1.01600E+02 0.00000E+00 0.00000E+00
 -1        24 1.04987E+02 0.00000E+00 0.00000E+00
 -1        25 1.08373E+02 0.00000E+00 0.00000E+00
 -1        26 1.11760E+02 0.00000E+00 0.00000E+00
 -1        27 1.15147E+02 0.00000E+00 0.00000E+00
 -1        28 1.18533E+02 0.00000E+00 0.00000E+00
 -1        29 1.21920E+02 0.00000E+00 0.00000E+00
 -1        30 1.25307E+02 0.00000E+00 0.00000E+00
 -1        31 1.28693E+02 0.00000E+00 0.00000E+00
 -1        32 1.32080E+02 0.00000E+00 0.00000E+00
 -1        33 1.35467E+02 0.00000E+00 0.00000E+00
 -1        34 1.38853E+02 0.00000E+00 0.00000E+00
 -1        35 1.42240E+02 0.00000E+00 0.00000E+00
 -1        36 1.45627E+02 0.00000E+00 0.00000E+00
 -1        37 1.49013E+02 0.00000E+00 0.00000E+00
 -1        38 1.52191E+02-7.97600E+00 0.00000E+00
 -1        39 1.51565E+02-1.59301E+01 0.00000E+00
 -1        40 1.50524E+02-2.38406E+01 0.00000E+00
 -1        41 1.49070E+02-3.16857E+01 0.00000E+00
 -1        42 1.47207E+02-3.94440E+01 0.00000E+00
 -1        43 1.44941E+02-4.70942E+01 0.00000E+00
 -1        44 1.42278E+02-5.46153E+01 0.00000E+00
 -1        45 1.39224E+02-6.19867E+01 0.00000E+00
 -1        46 1.35789E+02-6.91882E+01 0.00000E+00
 -1        47 1.31982E+02-7.62000E+01 0.00000E+00
 -1        48 1.27813E+02-8.30030E+01 0.00000E+00
 -1        49 1.23294E+02-8.95785E+01 0.00000E+00
 -1        50 1.18437E+02-9.59084E+01 0.00000E+00
 -1        51 1.13255E+02-1.01976E+02 0.00000E+00
 -1        52 1.07763E+02-1.07763E+02 0.00000E+00
 -1        53 1.01976E+02-1.13255E+02 0.00000E+00
 -1        54 9.59084E+01-1.18437E+02 0.00000E+00
 -1        55 8.95785E+01-1.23294E+02 0.00000E+00
 -1        56 8.30030E+01-1.27813E+02 0.00000E+00
 -1        57 7.62000E+01-1.31982E+02 0.00000E+00
 -1        58 6.91881E+01-1.35789E+02 0.00000E+00
 -1        59 6.19867E+01-1.39224E+02 0.00000E+00
 -1        60 5.46153E+01-1.42278E+02 0.00000E+00
 -1        61 4.70942E+01-1.44941E+02 0.00000E+00
 -1        62 3.94440E+01-1.47207E+02 0.00000E+00
 -1        63 3.16857E+01-1.49070E+02 0.00000E+00
 -1        64 2.38406E+01-1.50524E+02 0.00000E+00
 -1        65 1.59301E+01-1.51565E+02 0.00000E+00
 -1        66 7.97600E+00-1.52191E+02 0.00000E+00
 -1        67 9.12444E-15-1.49013E+02 0.00000E+00
 -1        68 8.91706E-15-1.45627E+02 0.00000E+00
 -1        69 8.70969E-15-1.42240E+02 0.00000E+00
 -1        70 8.50231E-15-1.38853E+02 0.00000E+00
 -1        71 8.29494E-15-1.35467E+02 0.00000E+00
 -1        72 8.08757E-15-1.32080E+02 0.00000E+00
 -1        73 7.88019E-15-1.28693E+02 0.00000E+00
 -1        74 7.67282E-15-1.25307E+02 0.00000E+00
 -1        75 7.46545E-15-1.21920E+02 0.00000E+00
 -1        76 7.25807E-15-1.18533E+02 0.00000E+00
 -1        77 7.05070E-15-1.15147E+02 0.00000E+00
 -1        78 6.84333E-15-1.11760E+02 0.00000E+00
 -1        79 6.63595E-15-1.08373E+02 0.00000E+00
 -1        80 6.42858E-15-1.04987E+02 0.00000E+00
 -1        81 6.22121E-15-1.01600E+02 0.00000E+00
 -1        82 6.01383E-15-9.82133E+01 0.00000E+00
 -1        83 5.80646E-15-9.48267E+01 0.00000E+00
 -1        84 5.59909E-15-9.14400E+01 0.00000E+00
 -1        85 5.39171E-15-8.80533E+01 0.00000E+00
 -1        86 5.18434E-15-8.46667E+01 0.00000E+00
 -1        87 4.97696E-15-8.12800E+01 0.00000E+00
 -1        88 4.76959E-15-7.78933E+01 0.00000E+00
 -1        89 4.56222E-15-7.45067E+01 0.00000E+00
 -1        90 4.35484E-15-7.11200E+01 0.00000E+00
 -1        91 4.14747E-15-6.77333E+01 0.00000E+00
 -1        92 3.94010E-15-6.43467E+01 0.00000E+00
 -1        93 3.73272E-15-6.09600E+01 0.00000E+00
 -1        94 3.52535E-15-5.75733E+01 0.00000E+00
 -1        95 3.31798E-15-5.41867E+01 0.00000E+00
 -1        96 2.65867E+00-5.07304E+01 0.00000E+00
 -1        97 5.31005E+00-5.05217E+01 0.00000E+00
 -1        98 7.94687E+00-5.01746E+01 0.00000E+00
 -1        99 1.05619E+01-4.96899E+01 0.00000E+00
 -1       100 1.31480E+01-4.90690E+01 0.00000E+00
 -1       101 1.56981E+01-4.83137E+01 0.00000E+00
 -1       102 1.82051E+01-4.74259E+01 0.00000E+00
 -1       103 2.06622E+01-4.64081E+01 0.00000E+00
 -1       104 2.30627E+01-4.52631E+01 0.00000E+00
 -1       105 2.54000E+01-4.39941E+01 0.00000E+00
 -1       106 2.76677E+01-4.26045E+01 0.00000E+00
 -1       107 2.98595E+01-4.10981E+01 0.00000E+00
 -1       108 3.19695E+01-3.94790E+01 0.00000E+00
 -1       109 3.39918E+01-3.77518E+01 0.00000E+00
 -1       110 3.59210E+01-3.59210E+01 0.00000E+00
 -1       111 3.77518E+01-3.39918E+01 0.00000E+00
 -1       112 3.94790E+01-3.19695E+01 0.00000E+00
 -1       113 4.10981E+01-2.98595E+01 0.00000E+00
 -1       114 4.26045E+01-2.76677E+01 0.00000E+00
 -1       115 4.39941E+01-2.54000E+01 0.00000E+00
 -1       116 4.52631E+01-2.30627E+01 0.00000E+00
 -1       117 4.64081E+01-2.06622E+01 0.00000E+00
 -1       118 4.74259E+01-1.82051E+01 0.00000E+00
 -1       119 4.83137E+01-1.56981E+01 0.00000E+00
 -1       120 4.90690E+01-1.31480E+01 0.00000E+00
 -1       121 4.96899E+01-1.05619E+01 0.00000E+00
 -1       122 5.01746E+01-7.94687E+00 0.00000E+00
 -1       123 5.05217E+01-5.31005E+00 0.00000E+00
 -1       124 5.07304E+01-2.65867E+00 0.00000E+00
 -1       125 5.41867E+01 0.00000E+00 1.90500E+01
 -1       126 5.75733E+01 0.00000E+00 1.90500E+01
 -1       127 6.09600E+01 0.00000E+00 1.90500E+01
 -1       128 6.43467E+01 0.00000E+00 1.90500E+01
 -1       129 6.77333E+01 0.00000E+00 1.90500E+01
 -1       130 7.11200E+01 0.00000E+00 1.90500E+01
 -1       131 7.45067E+01 0.00000E+00 1.90500E+01
 -1       132 7.78933E+01 0.00000E+00 1.90500E+01
 -1       133 8.12800E+01 0.00000E+00 1.90500E+01
 -1       134 8.46667E+01 0.00000E+00 1.90500E+01
 -1       135 8.80533E+01 0.00000E+00 1.90500E+01
 -1       136 9.14400E+01 0.00000E+00 1.90500E+01
 -1       137 9.48267E+01 0.00000E+00 1.90500E+01
 -1       138 9.82133E+01 0.00000E+00 1.90500E+01
 -1       139 1.01600E+02 0.00000E+00 1.90500E+01
 -1       140 1.04987E+02 0.00000E+00 1.90500E+01
 -1       141 1.08373E+02 0.00000E+00 1.90500E+01
 -1       142 1.11760E+02 0.00000E+00 1.90500E+01
 -1       143 1.15147E+02 0.00000E+00 1.90500E+01
 -1       144 1.18533E+02 0.00000E+00 1.90500E+01
 -1       145 1.21920E+02 0.00000E+00 1.90500E+01
 -1       146 1.25307E+02 0.00000E+00 1.90500E+01
 -1       147 1.28693E+02 0.00000E+00 1.90500E+01
 -1       148 1.32080E+02 0.00000E+00 1.90500E+01
 -1       149 1.35467E+02 0.00000E+00 1.90500E+01
 -1       150 1.38853E+02 0.00000E+00 1.90500E+01
 -1       151 1.42240E+02 0.00000E+00 1.90500E+01
 -1       152 1.45627E+02 0.00000E+00 1.90500E+01
 -1       153 1.49013E+02 0.00000E+00 1.90500E+01
 -1       154 1.52191E+02-7.97600E+00 1.90500E+01
 -1       155 1.51565E+02-1.59301E+01 1.90500E+01
 -1       156 1.50524E+02-2.38406E+01 1.90500E+01
 -1       157 1.49070E+02-3.16857E+01 1.90500E+01
 -1       158 1.47207E+02-3.94440E+01 1.90500E+01
 -1       159 1.44941E+02-4.70942E+01 1.90500E+01
 -1       160 1.42278E+02-5.46153E+01 1.90500E+01
 -1       161 1.39224E+02-6.19867E+01 1.90500E+01
 -1       162 1.35789E+02-6.91882E+01 1.90500E+01
 -1       163 1.31982E+02-7.62000E+01 1.90500E+01
 -1       164 1.27813E+02-8.30030E+01 1.90500E+01
 -1       165 1.23294E+02-8.95785E+01 1.90500E+01
 -1       166 1.18437E+02-9.59084E+01 1.90500E+01
 -1       167 1.13255E+02-1.01976E+02 1.90500E+01
 -1       168 1.07763E+02-1.07763E+02 1.90500E+01
 -1       169 1.01976E+02-1.13255E+02 1.90500E+01
 -1       170 9.59084E+01-1.18437E+02 1.90500E+01
 -1       171 8.95785E+01-1.23294E+02 1.90500E+01
 -1       172 8.30030E+01-1.27813E+02 1.90500E+01
 -1       173 7.62000E+01-1.31982E+02 1.90500E+01
 -1       174 6.91881E+01-1.35789E+02 1.90500E+01
 -1       175 6.19867E+01-1.39224E+02 1.90500E+01
 -1       176 5.46153E+01-1.42278E+02 1.90500E+01
 -1       177 4.70942E+01-1.44941E+02 1.90500E+01
 -1       178 3.94440E+01-1.47207E+02 1.90500E+01
 -1       179 3.16857E+01-1.49070E+02 1.90500E+01
 -1       180 2.38406E+01-1.50524E+02 1.90500E+01
 -1       181 1.59301E+01-1.51565E+02 1.90500E+01
 -1       182 7.97600E+00-1.52191E+02 1.90500E+01
 -1       183 9.12444E-15-1.49013E+02 1.90500E+01
 -1       184 8.91706E-15-1.45627E+02 1.90500E+01
 -1       185 8.70969E-15-1.42240E+02 1.90500E+01
 -1       186 8.50231E-15-1.38853E+02 1.90500E+01
 -1       187 8.29494E-15-1.35467E+02 1.90500E+01
 -1       188 8.08757E-15-1.32080E+02 1.90500E+01
 -1       189 7.88019E-15-1.28693E+02 1.90500E+01
 -1       190 7.67282E-15-1.25307E+02 1.90500E+01
 -1       191 7.46545E-15-1.21920E+02 1.90500E+01
 -1       192 7.25807E-15-1.18533E+02 1.90500E+01
 -1       193 7.05070E-15-1.15147E+02 1.90500E+01
 -1       194 6.84333E-15-1.11760E+02 1.90500E+01
 -1       195 6.63595E-15-1.08373E+02 1.90500E+01
 -1       196 6.42858E-15-1.04987E+02 1.90500E+01
 -1       197 6.22121E-15-1.01600E+02 1.90500E+01
 -1       198 6.01383E-15-9.82133E+01 1.90500E+01
 -1       199 5.80646E-15-9.48267E+01 1.90500E+01
 -1       200 5.59909E-15-9.14400E+01 1.90500E+01
 -1       201 5.39171E-15-8.80533E+01 1.90500E+01
 -1       202 5.18434E-15-8.46667E+01 1.90500E+01
 -1       203 4.97696E-15-8.12800E+01 1.90500E+01
 -1       204 4.76959E-15-7.78933E+01 1.90500E+01
 -1       205 4.56222E-15-7.45067E+01 1.90500E+01
 -1       206 4.35484E-15-7.11200E+01 1.90500E+01
 -1       207 4.14747E-15-6.77333E+01 1.90500E+01
 -1       208 3.94010E-15-6.43467E+01 1.90500E+01
 -1       209 3.73272E-15-6.09600E+01 1.90500E+01
 -1       210 3.52535E-15-5.75733E+01 1.90500E+01
 -1       211 3.31798E-15-5.41867E+01 1.90500E+01
 -1       212 2.65867E+00-5.07304E+01 1.90500E+01
 -1       213 5.31005E+00-5.05217E+01 1.90500E+01
 -1       214 7.94687E+00-5.01746E+01 1.90500E+01
 -1       215 1.05619E+01-4.96899E+01 1.90500E+01
 -1       216 1.31480E+01-4.90690E+01 1.90500E+01
 -1       217 1.56981E+01-4.83137E+01 1.90500E+01
 -1       218 1.82051E+01-4.74259E+01 1.90500E+01
 -1       219 2.06622E+01-4.64081E+01 1.90500E+01
 -1       220 2.30627E+01-4.52631E+01 1.90500E+01
 -1       221 2.54000E+01-4.39941E+01 1.90500E+01
 -1       222 2.76677E+01-4.26045E+01 1.90500E+01
 -1       223 2.98595E+01-4.10981E+01 1.90500E+01
 -1       224 3.19695E+01-3.94790E+01 1.90500E+01
 -1       225 3.39918E+01-3.77518E+01 1.90500E+01
 -1       226 3.59210E+01-3.59210E+01 1.90500E+01
 -1       227 3.77518E+01-3.39918E+01 1.90500E+01
 -1       228 3.94790E+01-3.19695E+01 1.90500E+01
 -1       229 4.10981E+01-2.98595E+01 1.90500E+01
 -1       230 4.26045E+01-2.76677E+01 1.90500E+01
 -1       231 4.39941E+01-2.54000E+01 1.90500E+01
 -1       232 4.52631E+01-2.30627E+01 1.90500E+01
 -1       233 4.64081E+01-2.06622E+01 1.90500E+01
 -1       234 4.74259E+01-1.82051E+01 1.90500E+01
 -1       235 4.83137E+01-1.56981E+01 1.90500E+01
 -1       236 4.90690E+01-1.31480E+01 1.90500E+01
 -1       237 4.96899E+01-1.05619E+01 1.90500E+01
 -1       238 5.01746E+01-7.94687E+00 1.90500E+01
 -1       239 5.05217E+01-5.31005E+00 1.90500E+01
 -1       240 5.07304E+01-2.65867E+00 1.90500E+01
 -1       241 5.08000E+01 0.00000E+00 1.73182E+00
 -1       242 5.08000E+01 0.00000E+00 3.46364E+00
 -1       243 5.08000E+01 0.00000E+00 5.19545E+00
 -1       244 5.08000E+01 0.00000E+00 6.92727E+00
 -1       245 5.08000E+01 0.00000E+00 8.65909E+00
 -1       246 5.08000E+01 0.00000E+00 1.03909E+01
 -1       247 5.08000E+01 0.00000E+00 1.21227E+01
 -1       248 5.08000E+01 0.00000E+00 1.38545E+01
 -1       249 5.08000E+01 0.00000E+00 1.55864E+01
 -1       250 5.08000E+01 0.00000E+00 1.73182E+01
 -1       251 1.52400E+02 0.00000E+00 1.73182E+00
 -1       252 1.52400E+02 0.00000E+00 3.46364E+00
 -1       253 1.52400E+02 0.00000E+00 5.19545E+00
 -1       254 1.52400E+02 0.00000E+00 6.92727E+00
 -1       255 1.52400E+02 0.00000E+00 8.65909E+00
 -1       256 1.52400E+02 0.00000E+00 1.03909E+01
 -1       257 1.52400E+02 0.00000E+00 1.21227E+01
 -1       258 1.52400E+02 0.00000E+00 1.38545E+01
 -1       259 1.52400E+02 0.00000E+00 1.55864E+01
 -1       260 1.52400E+02 0.00000E+00 1.73182E+01
 -1       261 9.33181E-15-1.52400E+02 1.73182E+00
 -1       262 9.33181E-15-1.52400E+02 3.46364E+00
 -1       263 9.33181E-15-1.52400E+02 5.19545E+00
 -1       264 9.33181E-15-1.52400E+02 6.92727E+00
 -1       265 9.33181E-15-1.52400E+02 8.65909E+00
 -1       266 9.33181E-15-1.52400E+02 1.03909E+01
 -1       267 9.33181E-15-1.52400E+02 1.21227E+01
 -1       268 9.33181E-15-1.52400E+02 1.38545E+01
 -1       269 9.33181E-15-1.52400E+02 1.55864E+01
 -1       270 9.33181E-15-1.52400E+02 1.73182E+01
 -1       271 3.11060E-15-5.08000E+01 1.73182E+00
 -1       272 3.11060E-15-5.08000E+01 3.46364E+00
 -1       273 3.11060E-15-5.08000E+01 5.19545E+00
 -1       274 3.11060E-15-5.08000E+01 6.92727E+00
 -1       275 3.11060E-15-5.08000E+01 8.65909E+00
 -1       276 3.11060E-15-5.08000E+01 1.03909E+01
 -1       277 3.11060E-15-5.08000E+01 1.21227E+01
 -1       278 3.11060E-15-5.08000E+01 1.38545E+01
 -1       279 3.11060E-15-5.08000E+01 1.55864E+01
 -1       280 3.11060E-15-5.08000E+01 1.73182E+01
 -1       281 5.41124E+01-2.83591E+00 0.00000E+00
 -1       282 5.38898E+01-5.66405E+00 0.00000E+00
 -1       283 5.35195E+01-8.47666E+00 0.00000E+00
 -1       284 5.30026E+01-1.12660E+01 0.00000E+00
 -1       285 5.23403E+01-1.40245E+01 0.00000E+00
 -1       286 5.15346E+01-1.67446E+01 0.00000E+00
 -1       287 5.05876E+01-1.94188E+01 0.00000E+00
 -1       288 4.95020E+01-2.20397E+01 0.00000E+00
 -1       289 4.82807E+01-2.46002E+01 0.00000E+00
 -1       290 4.69270E+01-2.70933E+01 0.00000E+00
 -1       291 4.54448E+01-2.95122E+01 0.00000E+00
 -1       292 4.38379E+01-3.18501E+01 0.00000E+00
 -1       293 4.21110E+01-3.41008E+01 0.00000E+00
 -1       294 4.02685E+01-3.62580E+01 0.00000E+00
 -1       295 3.83158E+01-3.83158E+01 0.00000E+00
 -1       296 3.62580E+01-4.02685E+01 0.00000E+00
 -1       297 3.41008E+01-4.21110E+01 0.00000E+00
 -1       298 3.18501E+01-4.38379E+01 0.00000E+00
 -1       299 2.95122E+01-4.54448E+01 0.00000E+00
 -1       300 2.70933E+01-4.69270E+01 0.00000E+00
 -1       301 2.46002E+01-4.82807E+01 0.00000E+00
 -1       302 2.20397E+01-4.95020E+01 0.00000E+00
 -1       303 1.94188E+01-5.05876E+01 0.00000E+00
 -1       304 1.67446E+01-5.15346E+01 0.00000E+00
 -1       305 1.40245E+01-5.23403E+01 0.00000E+00
 -1       306 1.12660E+01-5.30026E+01 0.00000E+00
 -1       307 8.47666E+00-5.35195E+01 0.00000E+00
 -1       308 5.66405E+00-5.38898E+01 0.00000E+00
 -1       309 2.83591E+00-5.41124E+01 0.00000E+00
 -1       310 5.74944E+01-3.01316E+00 0.00000E+00
 -1       311 5.72579E+01-6.01805E+00 0.00000E+00
 -1       312 5.68645E+01-9.00645E+00 0.00000E+00
 -1       313 5.63152E+01-1.19702E+01 0.00000E+00
 -1       314 5.56116E+01-1.49011E+01 0.00000E+00
 -1       315 5.47555E+01-1.77911E+01 0.00000E+00
 -1       316 5.37493E+01-2.06324E+01 0.00000E+00
 -1       317 5.25959E+01-2.34172E+01 0.00000E+00
 -1       318 5.12982E+01-2.61377E+01 0.00000E+00
 -1       319 4.98600E+01-2.87867E+01 0.00000E+00
 -1       320 4.82851E+01-3.13567E+01 0.00000E+00
 -1       321 4.65778E+01-3.38408E+01 0.00000E+00
 -1       322 4.47429E+01-3.62321E+01 0.00000E+00
 -1       323 4.27853E+01-3.85241E+01 0.00000E+00
 -1       324 4.07105E+01-4.07105E+01 0.00000E+00
 -1       325 3.85241E+01-4.27853E+01 0.00000E+00
 -1       326 3.62321E+01-4.47429E+01 0.00000E+00
 -1       327 3.38408E+01-4.65778E+01 0.00000E+00
 -1       328 3.13567E+01-4.82851E+01 0.00000E+00
 -1       329 2.87867E+01-4.98600E+01 0.00000E+00
 -1       330 2.61377E+01-5.12982E+01 0.00000E+00
 -1       331 2.34172E+01-5.25959E+01 0.00000E+00
 -1       332 2.06324E+01-5.37493E+01 0.00000E+00
 -1       333 1.77911E+01-5.47555E+01 0.00000E+00
 -1       334 1.49011E+01-5.56116E+01 0.00000E+00
 -1       335 1.19702E+01-5.63152E+01 0.00000E+00
 -1       336 9.00645E+00-5.68645E+01 0.00000E+00
 -1       337 6.01805E+00-5.72579E+01 0.00000E+00
 -1       338 3.01316E+00-5.74944E+01 0.00000E+00
 -1       339 6.08765E+01-3.19040E+00 0.00000E+00
 -1       340 6.06261E+01-6.37206E+00 0.00000E+00
 -1       341 6.02095E+01-9.53625E+00 0.00000E+00
 -1       342 5.96279E+01-1.26743E+01 0.00000E+00
 -1       343 5.88828E+01-1.57776E+01 0.00000E+00
 -1       344 5.79764E+01-1.88377E+01 0.00000E+00
 -1       345 5.69111E+01-2.18461E+01 0.00000E+00
 -1       346 5.56897E+01-2.47947E+01 0.00000E+00
 -1       347 5.43158E+01-2.76753E+01 0.00000E+00
 -1       348 5.27929E+01-3.04800E+01 0.00000E+00
 -1       349 5.11254E+01-3.32012E+01 0.00000E+00
 -1       350 4.93177E+01-3.58314E+01 0.00000E+00
 -1       351 4.73748E+01-3.83634E+01 0.00000E+00
 -1       352 4.53021E+01-4.07902E+01 0.00000E+00
 -1       353 4.31052E+01-4.31052E+01 0.00000E+00
 -1       354 4.07902E+01-4.53021E+01 0.00000E+00
 -1       355 3.83634E+01-4.73748E+01 0.00000E+00
 -1       356 3.58314E+01-4.93177E+01 0.00000E+00
 -1       357 3.32012E+01-5.11254E+01 0.00000E+00
 -1       358 3.04800E+01-5.27929E+01 0.00000E+00
 -1       359 2.76753E+01-5.43158E+01 0.00000E+00
 -1       360 2.47947E+01-5.56897E+01 0.00000E+00
 -1       361 2.18461E+01-5.69111E+01 0.00000E+00
 -1       362 1.88377E+01-5.79764E+01 0.00000E+00
 -1       363 1.57776E+01-5.88828E+01 0.00000E+00
 -1       364 1.26743E+01-5.96279E+01 0.00000E+00
 -1       365 9.53625E+00-6.02095E+01 0.00000E+00
 -1       366 6.37206E+00-6.06261E+01 0.00000E+00
 -1       367 3.19040E+00-6.08765E+01 0.00000E+00
 -1       368 6.42585E+01-3.36764E+00 0.00000E+00
 -1       369 6.39942E+01-6.72606E+00 0.00000E+00
 -1       370 6.35545E+01-1.00660E+01 0.00000E+00
 -1       371 6.29405E+01-1.33784E+01 0.00000E+00
 -1       372 6.21541E+01-1.66541E+01 0.00000E+00
 -1       373 6.11973E+01-1.98842E+01 0.00000E+00
 -1       374 6.00728E+01-2.30598E+01 0.00000E+00
 -1       375 5.87836E+01-2.61721E+01 0.00000E+00
 -1       376 5.73333E+01-2.92128E+01 0.00000E+00
 -1       377 5.57258E+01-3.21733E+01 0.00000E+00
 -1       378 5.39657E+01-3.50457E+01 0.00000E+00
 -1       379 5.20575E+01-3.78220E+01 0.00000E+00
 -1       380 5.00068E+01-4.04947E+01 0.00000E+00
 -1       381 4.78189E+01-4.30563E+01 0.00000E+00
 -1       382 4.55000E+01-4.55000E+01 0.00000E+00
 -1       383 4.30563E+01-4.78189E+01 0.00000E+00
 -1       384 4.04947E+01-5.00068E+01 0.00000E+00
 -1       385 3.78220E+01-5.20575E+01 0.00000E+00
 -1       386 3.50457E+01-5.39657E+01 0.00000E+00
 -1       387 3.21733E+01-5.57258E+01 0.00000E+00
 -1       388 2.92128E+01-5.73333E+01 0.00000E+00
 -1       389 2.61721E+01-5.87836E+01 0.00000E+00
 -1       390 2.30598E+01-6.00728E+01 0.00000E+00
 -1       391 1.98842E+01-6.11973E+01 0.00000E+00
 -1       392 1.66541E+01-6.21541E+01 0.00000E+00
 -1       393 1.33784E+01-6.29405E+01 0.00000E+00
 -1       394 1.00660E+01-6.35545E+01 0.00000E+00
 -1       395 6.72606E+00-6.39942E+01 0.00000E+00
 -1       396 3.36764E+00-6.42585E+01 0.00000E+00
 -1       397 6.76405E+01-3.54489E+00 0.00000E+00
 -1       398 6.73623E+01-7.08006E+00 0.00000E+00
 -1       399 6.68994E+01-1.05958E+01 0.00000E+00
 -1       400 6.62532E+01-1.40826E+01 0.00000E+00
 -1       401 6.54254E+01-1.75307E+01 0.00000E+00
 -1       402 6.44182E+01-2.09308E+01 0.00000E+00
 -1       403 6.32345E+01-2.42735E+01 0.00000E+00
 -1       404 6.18775E+01-2.75496E+01 0.00000E+00
 -1       405 6.03508E+01-3.07503E+01 0.00000E+00
 -1       406 5.86588E+01-3.38667E+01 0.00000E+00
 -1       407 5.68060E+01-3.68902E+01 0.00000E+00
 -1       408 5.47974E+01-3.98127E+01 0.00000E+00
 -1       409 5.26387E+01-4.26260E+01 0.00000E+00
 -1       410 5.03357E+01-4.53224E+01 0.00000E+00
 -1       411 4.78947E+01-4.78947E+01 0.00000E+00
 -1       412 4.53224E+01-5.03357E+01 0.00000E+00
 -1       413 4.26260E+01-5.26387E+01 0.00000E+00
 -1       414 3.98127E+01-5.47974E+01 0.00000E+00
 -1       415 3.68902E+01-5.68060E+01 0.00000E+00
 -1       416 3.38667E+01-5.86588E+01 0.00000E+00
 -1       417 3.07503E+01-6.03508E+01 0.00000E+00
 -1       418 2.75496E+01-6.18775E+01 0.00000E+00
 -1       419 2.42735E+01-6.32345E+01 0.00000E+00
 -1       420 2.09308E+01-6.44182E+01 0.00000E+00
 -1       421 1.75307E+01-6.54254E+01 0.00000E+00
 -1       422 1.40826E+01-6.62532E+01 0.00000E+00
 -1       423 1.05958E+01-6.68994E+01 0.00000E+00
 -1       424 7.08006E+00-6.73623E+01 0.00000E+00
 -1       425 3.54489E+00-6.76405E+01 0.00000E+00
 -1       426 7.10225E+01-3.72213E+00 0.00000E+00
 -1       427 7.07304E+01-7.43406E+00 0.00000E+00
 -1       428 7.02444E+01-1.11256E+01 0.00000E+00
 -1       429 6.95659E+01-1.47867E+01 0.00000E+00
 -1       430 6.86966E+01-1.84072E+01 0.00000E+00
 -1       431 6.76391E+01-2.19773E+01 0.00000E+00
 -1       432 6.63962E+01-2.54871E+01 0.00000E+00
 -1       433 6.49714E+01-2.89271E+01 0.00000E+00
 -1       434 6.33684E+01-3.22878E+01 0.00000E+00
 -1       435 6.15917E+01-3.55600E+01 0.00000E+00
 -1       436 5.96463E+01-3.87347E+01 0.00000E+00
 -1       437 5.75373E+01-4.18033E+01 0.00000E+00
 -1       438 5.52706E+01-4.47573E+01 0.00000E+00
 -1       439 5.28525E+01-4.75886E+01 0.00000E+00
 -1       440 5.02894E+01-5.02894E+01 0.00000E+00
 -1       441 4.75886E+01-5.28525E+01 0.00000E+00
 -1       442 4.47573E+01-5.52706E+01 0.00000E+00
 -1       443 4.18033E+01-5.75373E+01 0.00000E+00
 -1       444 3.87347E+01-5.96463E+01 0.00000E+00
 -1       445 3.55600E+01-6.15917E+01 0.00000E+00
 -1       446 3.22878E+01-6.33684E+01 0.00000E+00
 -1       447 2.89271E+01-6.49714E+01 0.00000E+00
 -1       448 2.54871E+01-6.63962E+01 0.00000E+00
 -1       449 2.19773E+01-6.76391E+01 0.00000E+00
 -1       450 1.84072E+01-6.86966E+01 0.00000E+00
 -1       451 1.47867E+01-6.95659E+01 0.00000E+00
 -1       452 1.11256E+01-7.02444E+01 0.00000E+00
 -1       453 7.43406E+00-7.07304E+01 0.00000E+00
 -1       454 3.72213E+00-7.10225E+01 0.00000E+00
 -1       455 7.44046E+01-3.89938E+00 0.00000E+00
 -1       456 7.40985E+01-7.78807E+00 0.00000E+00
 -1       457 7.35894E+01-1.16554E+01 0.00000E+00
 -1       458 7.28785E+01-1.54908E+01 0.00000E+00
 -1       459 7.19679E+01-1.92837E+01 0.00000E+00
 -1       460 7.08601E+01-2.30238E+01 0.00000E+00
 -1       461 6.95580E+01-2.67008E+01 0.00000E+00
 -1       462 6.80652E+01-3.03046E+01 0.00000E+00
 -1       463 6.63859E+01-3.38253E+01 0.00000E+00
 -1       464 6.45247E+01-3.72533E+01 0.00000E+00
 -1       465 6.24865E+01-4.05792E+01 0.00000E+00
 -1       466 6.02772E+01-4.37939E+01 0.00000E+00
 -1       467 5.79026E+01-4.68886E+01 0.00000E+00
 -1       468 5.53692E+01-4.98547E+01 0.00000E+00
 -1       469 5.26842E+01-5.26842E+01 0.00000E+00
 -1       470 4.98547E+01-5.53692E+01 0.00000E+00
 -1       471 4.68886E+01-5.79026E+01 0.00000E+00
 -1       472 4.37939E+01-6.02772E+01 0.00000E+00
 -1       473 4.05792E+01-6.24865E+01 0.00000E+00
 -1       474 3.72533E+01-6.45247E+01 0.00000E+00
 -1       475 3.38253E+01-6.63859E+01 0.00000E+00
 -1       476 3.03046E+01-6.80652E+01 0.00000E+00
 -1       477 2.67008E+01-6.95580E+01 0.00000E+00
 -1       478 2.30238E+01-7.08601E+01 0.00000E+00
 -1       479 1.92837E+01-7.19679E+01 0.00000E+00
 -1       480 1.54908E+01-7.28785E+01 0.00000E+00
 -1       481 1.16554E+01-7.35894E+01 0.00000E+00
 -1       482 7.78807E+00-7.40985E+01 0.00000E+00
 -1       483 3.89938E+00-7.44046E+01 0.00000E+00
 -1       484 7.77866E+01-4.07662E+00 0.00000E+00
 -1       485 7.74666E+01-8.14207E+00 0.00000E+00
 -1       486 7.69343E+01-1.21852E+01 0.00000E+00
 -1       487 7.61912E+01-1.61949E+01 0.00000E+00
 -1       488 7.52392E+01-2.01603E+01 0.00000E+00
 -1       489 7.40810E+01-2.40704E+01 0.00000E+00
 -1       490 7.27197E+01-2.79145E+01 0.00000E+00
 -1       491 7.11591E+01-3.16821E+01 0.00000E+00
 -1       492 6.94035E+01-3.53628E+01 0.00000E+00
 -1       493 6.74576E+01-3.89467E+01 0.00000E+00
 -1       494 6.53268E+01-4.24237E+01 0.00000E+00
 -1       495 6.30170E+01-4.57846E+01 0.00000E+00
 -1       496 6.05345E+01-4.90199E+01 0.00000E+00
 -1       497 5.78860E+01-5.21208E+01 0.00000E+00
 -1       498 5.50789E+01-5.50789E+01 0.00000E+00
 -1       499 5.21208E+01-5.78860E+01 0.00000E+00
 -1       500 4.90199E+01-6.05345E+01 0.00000E+00
 -1       501 4.57846E+01-6.30170E+01 0.00000E+00
 -1       502 4.24237E+01-6.53268E+01 0.00000E+00
 -1       503 3.89467E+01-6.74576E+01 0.00000E+00
 -1       504 3.53628E+01-6.94035E+01 0.00000E+00
 -1       505 3.16821E+01-7.11591E+01 0.00000E+00
 -1       506 2.79145E+01-7.27197E+01 0.00000E+00
 -1       507 2.40704E+01-7.40810E+01 0.00000E+00
 -1       508 2.01603E+01-7.52392E+01 0.00000E+00
 -1       509 1.61949E+01-7.61912E+01 0.00000E+00
 -1       510 1.21852E+01-7.69343E+01 0.00000E+00
 -1       511 8.14207E+00-7.74666E+01 0.00000E+00
 -1       512 4.07662E+00-7.77866E+01 0.00000E+00
 -1       513 8.11686E+01-4.25387E+00 0.00000E+00
 -1       514 8.08347E+01-8.49607E+00 0.00000E+00
 -1       515 8.02793E+01-1.27150E+01 0.00000E+00
 -1       516 7.95038E+01-1.68991E+01 0.00000E+00
 -1       517 7.85105E+01-2.10368E+01 0.00000E+00
 -1       518 7.73019E+01-2.51169E+01 0.00000E+00
 -1       519 7.58814E+01-2.91281E+01 0.00000E+00
 -1       520 7.42530E+01-3.30596E+01 0.00000E+00
 -1       521 7.24210E+01-3.69003E+01 0.00000E+00
 -1       522 7.03905E+01-4.06400E+01 0.00000E+00
 -1       523 6.81671E+01-4.42683E+01 0.00000E+00
 -1       524 6.57569E+01-4.77752E+01 0.00000E+00
 -1       525 6.31664E+01-5.11512E+01 0.00000E+00
 -1       526 6.04028E+01-5.43869E+01 0.00000E+00
 -1       527 5.74736E+01-5.74736E+01 0.00000E+00
 -1       528 5.43869E+01-6.04028E+01 0.00000E+00
 -1       529 5.11512E+01-6.31664E+01 0.00000E+00
 -1       530 4.77752E+01-6.57569E+01 0.00000E+00
 -1       531 4.42683E+01-6.81671E+01 0.00000E+00
 -1       532 4.06400E+01-7.03905E+01 0.00000E+00
 -1       533 3.69003E+01-7.24210E+01 0.00000E+00
 -1       534 3.30596E+01-7.42530E+01 0.00000E+00
 -1       535 2.91281E+01-7.58814E+01 0.00000E+00
 -1       536 2.51169E+01-7.73019E+01 0.00000E+00
 -1       537 2.10368E+01-7.85105E+01 0.00000E+00
 -1       538 1.68991E+01-7.95038E+01 0.00000E+00
 -1       539 1.27150E+01-8.02793E+01 0.00000E+00
 -1       540 8.49607E+00-8.08347E+01 0.00000E+00
 -1       541 4.25387E+00-8.11686E+01 0.00000E+00
 -1       542 8.45506E+01-4.43111E+00 0.00000E+00
 -1       543 8.42029E+01-8.85008E+00 0.00000E+00
 -1       544 8.36243E+01-1.32448E+01 0.00000E+00
 -1       545 8.28165E+01-1.76032E+01 0.00000E+00
 -1       546 8.17817E+01-2.19133E+01 0.00000E+00
 -1       547 8.05228E+01-2.61634E+01 0.00000E+00
 -1       548 7.90431E+01-3.03418E+01 0.00000E+00
 -1       549 7.73468E+01-3.44370E+01 0.00000E+00
 -1       550 7.54386E+01-3.84379E+01 0.00000E+00
 -1       551 7.33235E+01-4.23333E+01 0.00000E+00
 -1       552 7.10074E+01-4.61128E+01 0.00000E+00
 -1       553 6.84968E+01-4.97658E+01 0.00000E+00
 -1       554 6.57984E+01-5.32825E+01 0.00000E+00
 -1       555 6.29196E+01-5.66531E+01 0.00000E+00
 -1       556 5.98684E+01-5.98684E+01 0.00000E+00
 -1       557 5.66531E+01-6.29196E+01 0.00000E+00
 -1       558 5.32825E+01-6.57984E+01 0.00000E+00
 -1       559 4.97658E+01-6.84968E+01 0.00000E+00
 -1       560 4.61128E+01-7.10074E+01 0.00000E+00
 -1       561 4.23333E+01-7.33235E+01 0.00000E+00
 -1       562 3.84379E+01-7.54386E+01 0.00000E+00
 -1       563 3.44370E+01-7.73468E+01 0.00000E+00
 -1       564 3.03418E+01-7.90431E+01 0.00000E+00
 -1       565 2.61634E+01-8.05228E+01 0.00000E+00
 -1       566 2.19133E+01-8.17817E+01 0.00000E+00
 -1       567 1.76032E+01-8.28165E+01 0.00000E+00
 -1       568 1.32448E+01-8.36243E+01 0.00000E+00
 -1       569 8.85008E+00-8.42029E+01 0.00000E+00
 -1       570 4.43111E+00-8.45506E+01 0.00000E+00
 -1       571 8.79327E+01-4.60836E+00 0.00000E+00
 -1       572 8.75710E+01-9.20408E+00 0.00000E+00
 -1       573 8.69693E+01-1.37746E+01 0.00000E+00
 -1       574 8.61292E+01-1.83073E+01 0.00000E+00
 -1       575 8.50530E+01-2.27899E+01 0.00000E+00
 -1       576 8.37437E+01-2.72100E+01 0.00000E+00
 -1       577 8.22049E+01-3.15555E+01 0.00000E+00
 -1       578 8.04407E+01-3.58145E+01 0.00000E+00
 -1       579 7.84561E+01-3.99754E+01 0.00000E+00
 -1       580 7.62564E+01-4.40267E+01 0.00000E+00
 -1       581 7.38477E+01-4.79573E+01 0.00000E+00
 -1       582 7.12366E+01-5.17565E+01 0.00000E+00
 -1       583 6.84303E+01-5.54138E+01 0.00000E+00
 -1       584 6.54364E+01-5.89192E+01 0.00000E+00
 -1       585 6.22631E+01-6.22631E+01 0.00000E+00
 -1       586 5.89192E+01-6.54364E+01 0.00000E+00
 -1       587 5.54138E+01-6.84303E+01 0.00000E+00
 -1       588 5.17565E+01-7.12366E+01 0.00000E+00
 -1       589 4.79573E+01-7.38477E+01 0.00000E+00
 -1       590 4.40267E+01-7.62564E+01 0.00000E+00
 -1       591 3.99754E+01-7.84561E+01 0.00000E+00
 -1       592 3.58145E+01-8.04407E+01 0.00000E+00
 -1       593 3.15555E+01-8.22049E+01 0.00000E+00
 -1       594 2.72100E+01-8.37437E+01 0.00000E+00
 -1       595 2.27899E+01-8.50530E+01 0.00000E+00
 -1       596 1.83073E+01-8.61292E+01 0.00000E+00
 -1       597 1.37746E+01-8.69693E+01 0.00000E+00
 -1       598 9.20408E+00-8.75710E+01 0.00000E+00
 -1       599 4.60836E+00-8.79327E+01 0.00000E+00
 -1       600 9.13147E+01-4.78560E+00 0.00000E+00
 -1       601 9.09391E+01-9.55808E+00 0.00000E+00
 -1       602 9.03142E+01-1.43044E+01 0.00000E+00
 -1       603 8.94418E+01-1.90114E+01 0.00000E+00
 -1       604 8.83243E+01-2.36664E+01 0.00000E+00
 -1       605 8.69646E+01-2.82565E+01 0.00000E+00
 -1       606 8.53666E+01-3.27692E+01 0.00000E+00
 -1       607 8.35346E+01-3.71920E+01 0.00000E+00
 -1       608 8.14736E+01-4.15129E+01 0.00000E+00
 -1       609 7.91894E+01-4.57200E+01 0.00000E+00
 -1       610 7.66880E+01-4.98018E+01 0.00000E+00
 -1       611 7.39765E+01-5.37471E+01 0.00000E+00
 -1       612 7.10622E+01-5.75451E+01 0.00000E+00
 -1       613 6.79532E+01-6.11853E+01 0.00000E+00
 -1       614 6.46578E+01-6.46578E+01 0.00000E+00
 -1       615 6.11853E+01-6.79532E+01 0.00000E+00
 -1       616 5.75451E+01-7.10622E+01 0.00000E+00
 -1       617 5.37471E+01-7.39765E+01 0.00000E+00
 -1       618 4.98018E+01-7.66880E+01 0.00000E+00
 -1       619 4.57200E+01-7.91894E+01 0.00000E+00
 -1       620 4.15129E+01-8.14736E+01 0.00000E+00
 -1       621 3.71920E+01-8.35346E+01 0.00000E+00
 -1       622 3.27692E+01-8.53666E+01 0.00000E+00
 -1       623 2.82565E+01-8.69646E+01 0.00000E+00
 -1       624 2.36664E+01-8.83243E+01 0.00000E+00
 -1       625 1.90114E+01-8.94418E+01 0.00000E+00
 -1       626 1.43044E+01-9.03142E+01 0.00000E+00
 -1       627 9.55808E+00-9.09391E+01 0.00000E+00
 -1       628 4.78560E+00-9.13147E+01 0.00000E+00
 -1       629 9.46967E+01-4.96284E+00 0.00000E+00
 -1       630 9.43072E+01-9.91209E+00 0.00000E+00
 -1       631 9.36592E+01-1.48342E+01 0.00000E+00
 -1       632 9.27545E+01-1.97156E+01 0.00000E+00
 -1       633 9.15955E+01-2.45429E+01 0.00000E+00
 -1       634 9.01855E+01-2.93031E+01 0.00000E+00
 -1       635 8.85283E+01-3.39828E+01 0.00000E+00
 -1       636 8.66285E+01-3.85695E+01 0.00000E+00
 -1       637 8.44912E+01-4.30504E+01 0.00000E+00
 -1       638 8.21223E+01-4.74133E+01 0.00000E+00
 -1       639 7.95283E+01-5.16463E+01 0.00000E+00
 -1       640 7.67164E+01-5.57377E+01 0.00000E+00
 -1       641 7.36942E+01-5.96764E+01 0.00000E+00
 -1       642 7.04699E+01-6.34514E+01 0.00000E+00
 -1       643 6.70526E+01-6.70526E+01 0.00000E+00
 -1       644 6.34514E+01-7.04699E+01 0.00000E+00
 -1       645 5.96764E+01-7.36942E+01 0.00000E+00
 -1       646 5.57377E+01-7.67164E+01 0.00000E+00
 -1       647 5.16463E+01-7.95283E+01 0.00000E+00
 -1       648 4.74133E+01-8.21223E+01 0.00000E+00
 -1       649 4.30504E+01-8.44912E+01 0.00000E+00
 -1       650 3.85695E+01-8.66285E+01 0.00000E+00
 -1       651 3.39828E+01-8.85283E+01 0.00000E+00
 -1       652 2.93031E+01-9.01855E+01 0.00000E+00
 -1       653 2.45429E+01-9.15955E+01 0.00000E+00
 -1       654 1.97156E+01-9.27545E+01 0.00000E+00
 -1       655 1.48342E+01-9.36592E+01 0.00000E+00
 -1       656 9.91209E+00-9.43072E+01 0.00000E+00
 -1       657 4.96284E+00-9.46967E+01 0.00000E+00
 -1       658 9.80787E+01-5.14009E+00 0.00000E+00
 -1       659 9.76753E+01-1.02661E+01 0.00000E+00
 -1       660 9.70042E+01-1.53640E+01 0.00000E+00
 -1       661 9.60671E+01-2.04197E+01 0.00000E+00
 -1       662 9.48668E+01-2.54195E+01 0.00000E+00
 -1       663 9.34064E+01-3.03496E+01 0.00000E+00
 -1       664 9.16900E+01-3.51965E+01 0.00000E+00
 -1       665 8.97223E+01-3.99470E+01 0.00000E+00
 -1       666 8.75087E+01-4.45879E+01 0.00000E+00
 -1       667 8.50552E+01-4.91067E+01 0.00000E+00
 -1       668 8.23686E+01-5.34908E+01 0.00000E+00
 -1       669 7.94563E+01-5.77283E+01 0.00000E+00
 -1       670 7.63261E+01-6.18077E+01 0.00000E+00
 -1       671 7.29867E+01-6.57175E+01 0.00000E+00
 -1       672 6.94473E+01-6.94473E+01 0.00000E+00
 -1       673 6.57175E+01-7.29867E+01 0.00000E+00
 -1       674 6.18077E+01-7.63261E+01 0.00000E+00
 -1       675 5.77283E+01-7.94563E+01 0.00000E+00
 -1       676 5.34908E+01-8.23686E+01 0.00000E+00
 -1       677 4.91067E+01-8.50552E+01 0.00000E+00
 -1       678 4.45879E+01-8.75087E+01 0.00000E+00
 -1       679 3.99470E+01-8.97223E+01 0.00000E+00
 -1       680 3.51965E+01-9.16900E+01 0.00000E+00
 -1       681 3.03496E+01-9.34064E+01 0.00000E+00
 -1       682 2.54195E+01-9.48668E+01 0.00000E+00
 -1       683 2.04197E+01-9.60671E+01 0.00000E+00
 -1       684 1.53639E+01-9.70042E+01 0.00000E+00
 -1       685 1.02661E+01-9.76753E+01 0.00000E+00
 -1       686 5.14009E+00-9.80787E+01 0.00000E+00
 -1       687 1.01461E+02-5.31733E+00 0.00000E+00
 -1       688 1.01043E+02-1.06201E+01 0.00000E+00
 -1       689 1.00349E+02-1.58937E+01 0.00000E+00
 -1       690 9.93798E+01-2.11238E+01 0.00000E+00
 -1       691 9.81381E+01-2.62960E+01 0.00000E+00
 -1       692 9.66273E+01-3.13961E+01 0.00000E+00
 -1       693 9.48518E+01-3.64102E+01 0.00000E+00
 -1       694 9.28162E+01-4.13244E+01 0.00000E+00
 -1       695 9.05263E+01-4.61254E+01 0.00000E+00
 -1       696 8.79882E+01-5.08000E+01 0.00000E+00
 -1       697 8.52089E+01-5.53353E+01 0.00000E+00
 -1       698 8.21961E+01-5.97190E+01 0.00000E+00
 -1       699 7.89580E+01-6.39390E+01 0.00000E+00
 -1       700 7.55035E+01-6.79837E+01 0.00000E+00
 -1       701 7.18420E+01-7.18420E+01 0.00000E+00
 -1       702 6.79837E+01-7.55035E+01 0.00000E+00
 -1       703 6.39390E+01-7.89580E+01 0.00000E+00
 -1       704 5.97190E+01-8.21961E+01 0.00000E+00
 -1       705 5.53353E+01-8.52089E+01 0.00000E+00
 -1       706 5.08000E+01-8.79882E+01 0.00000E+00
 -1       707 4.61254E+01-9.05263E+01 0.00000E+00
 -1       708 4.13244E+01-9.28162E+01 0.00000E+00
 -1       709 3.64102E+01-9.48518E+01 0.00000E+00
 -1       710 3.13961E+01-9.66273E+01 0.00000E+00
 -1       711 2.62960E+01-9.81381E+01 0.00000E+00
 -1       712 2.11238E+01-9.93798E+01 0.00000E+00
 -1       713 1.58937E+01-1.00349E+02 0.00000E+00
 -1       714 1.06201E+01-1.01043E+02 0.00000E+00
 -1       715 5.31733E+00-1.01461E+02 0.00000E+00
 -1       716 1.04843E+02-5.49458E+00 0.00000E+00
 -1       717 1.04412E+02-1.09741E+01 0.00000E+00
 -1       718 1.03694E+02-1.64235E+01 0.00000E+00
 -1       719 1.02692E+02-2.18280E+01 0.00000E+00
 -1       720 1.01409E+02-2.71725E+01 0.00000E+00
 -1       721 9.98483E+01-3.24427E+01 0.00000E+00
 -1       722 9.80135E+01-3.76239E+01 0.00000E+00
 -1       723 9.59101E+01-4.27019E+01 0.00000E+00
 -1       724 9.35438E+01-4.76629E+01 0.00000E+00
 -1       725 9.09211E+01-5.24933E+01 0.00000E+00
 -1       726 8.80492E+01-5.71798E+01 0.00000E+00
 -1       727 8.49360E+01-6.17096E+01 0.00000E+00
 -1       728 8.15900E+01-6.60703E+01 0.00000E+00
 -1       729 7.80203E+01-7.02498E+01 0.00000E+00
 -1       730 7.42368E+01-7.42368E+01 0.00000E+00
 -1       731 7.02498E+01-7.80203E+01 0.00000E+00
 -1       732 6.60703E+01-8.15900E+01 0.00000E+00
 -1       733 6.17096E+01-8.49360E+01 0.00000E+00
 -1       734 5.71798E+01-8.80492E+01 0.00000E+00
 -1       735 5.24933E+01-9.09211E+01 0.00000E+00
 -1       736 4.76629E+01-9.35438E+01 0.00000E+00
 -1       737 4.27019E+01-9.59101E+01 0.00000E+00
 -1       738 3.76239E+01-9.80135E+01 0.00000E+00
 -1       739 3.24427E+01-9.98483E+01 0.00000E+00
 -1       740 2.71725E+01-1.01409E+02 0.00000E+00
 -1       741 2.18280E+01-1.02692E+02 0.00000E+00
 -1       742 1.64235E+01-1.03694E+02 0.00000E+00
 -1       743 1.09741E+01-1.04412E+02 0.00000E+00
 -1       744 5.49458E+00-1.04843E+02 0.00000E+00
 -1       745 1.08225E+02-5.67182E+00 0.00000E+00
 -1       746 1.07780E+02-1.13281E+01 0.00000E+00
 -1       747 1.07039E+02-1.69533E+01 0.00000E+00
 -1       748 1.06005E+02-2.25321E+01 0.00000E+00
 -1       749 1.04681E+02-2.80491E+01 0.00000E+00
 -1       750 1.03069E+02-3.34892E+01 0.00000E+00
 -1       751 1.01175E+02-3.88375E+01 0.00000E+00
 -1       752 9.90040E+01-4.40794E+01 0.00000E+00
 -1       753 9.65613E+01-4.92005E+01 0.00000E+00
 -1       754 9.38541E+01-5.41867E+01 0.00000E+00
 -1       755 9.08895E+01-5.90243E+01 0.00000E+00
 -1       756 8.76759E+01-6.37002E+01 0.00000E+00
 -1       757 8.42219E+01-6.82015E+01 0.00000E+00
 -1       758 8.05371E+01-7.25159E+01 0.00000E+00
 -1       759 7.66315E+01-7.66315E+01 0.00000E+00
 -1       760 7.25159E+01-8.05371E+01 0.00000E+00
 -1       761 6.82015E+01-8.42219E+01 0.00000E+00
 -1       762 6.37002E+01-8.76759E+01 0.00000E+00
 -1       763 5.90243E+01-9.08895E+01 0.00000E+00
 -1       764 5.41867E+01-9.38541E+01 0.00000E+00
 -1       765 4.92005E+01-9.65613E+01 0.00000E+00
 -1       766 4.40794E+01-9.90040E+01 0.00000E+00
 -1       767 3.88375E+01-1.01175E+02 0.00000E+00
 -1       768 3.34892E+01-1.03069E+02 0.00000E+00
 -1       769 2.80491E+01-1.04681E+02 0.00000E+00
 -1       770 2.25321E+01-1.06005E+02 0.00000E+00
 -1       771 1.69533E+01-1.07039E+02 0.00000E+00
 -1       772 1.13281E+01-1.07780E+02 0.00000E+00
 -1       773 5.67182E+00-1.08225E+02 0.00000E+00
 -1       774 1.11607E+02-5.84907E+00 0.00000E+00
 -1       775 1.11148E+02-1.16821E+01 0.00000E+00
 -1       776 1.10384E+02-1.74831E+01 0.00000E+00
 -1       777 1.09318E+02-2.32362E+01 0.00000E+00
 -1       778 1.07952E+02-2.89256E+01 0.00000E+00
 -1       779 1.06290E+02-3.45357E+01 0.00000E+00
 -1       780 1.04337E+02-4.00512E+01 0.00000E+00
 -1       781 1.02098E+02-4.54569E+01 0.00000E+00
 -1       782 9.95789E+01-5.07380E+01 0.00000E+00
 -1       783 9.67870E+01-5.58800E+01 0.00000E+00
 -1       784 9.37298E+01-6.08689E+01 0.00000E+00
 -1       785 9.04157E+01-6.56909E+01 0.00000E+00
 -1       786 8.68538E+01-7.03328E+01 0.00000E+00
 -1       787 8.30539E+01-7.47820E+01 0.00000E+00
 -1       788 7.90263E+01-7.90263E+01 0.00000E+00
 -1       789 7.47820E+01-8.30539E+01 0.00000E+00
 -1       790 7.03328E+01-8.68538E+01 0.00000E+00
 -1       791 6.56909E+01-9.04157E+01 0.00000E+00
 -1       792 6.08689E+01-9.37298E+01 0.00000E+00
 -1       793 5.58800E+01-9.67870E+01 0.00000E+00
 -1       794 5.07380E+01-9.95789E+01 0.00000E+00
 -1       795 4.54569E+01-1.02098E+02 0.00000E+00
 -1       796 4.00512E+01-1.04337E+02 0.00000E+00
 -1       797 3.45357E+01-1.06290E+02 0.00000E+00
 -1       798 2.89256E+01-1.07952E+02 0.00000E+00
 -1       799 2.32362E+01-1.09318E+02 0.00000E+00
 -1       800 1.74831E+01-1.10384E+02 0.00000E+00
 -1       801 1.16821E+01-1.11148E+02 0.00000E+00
 -1       802 5.84907E+00-1.11607E+02 0.00000E+00
 -1       803 1.14989E+02-6.02631E+00 0.00000E+00
 -1       804 1.14516E+02-1.20361E+01 0.00000E+00
 -1       805 1.13729E+02-1.80129E+01 0.00000E+00
 -1       806 1.12630E+02-2.39403E+01 0.00000E+00
 -1       807 1.11223E+02-2.98022E+01 0.00000E+00
 -1       808 1.09511E+02-3.55823E+01 0.00000E+00
 -1       809 1.07499E+02-4.12649E+01 0.00000E+00
 -1       810 1.05192E+02-4.68344E+01 0.00000E+00
 -1       811 1.02596E+02-5.22755E+01 0.00000E+00
 -1       812 9.97199E+01-5.75733E+01 0.00000E+00
 -1       813 9.65701E+01-6.27134E+01 0.00000E+00
 -1       814 9.31556E+01-6.76815E+01 0.00000E+00
 -1       815 8.94858E+01-7.24641E+01 0.00000E+00
 -1       816 8.55706E+01-7.70482E+01 0.00000E+00
 -1       817 8.14210E+01-8.14210E+01 0.00000E+00
 -1       818 7.70482E+01-8.55706E+01 0.00000E+00
 -1       819 7.24641E+01-8.94858E+01 0.00000E+00
 -1       820 6.76815E+01-9.31556E+01 0.00000E+00
 -1       821 6.27134E+01-9.65701E+01 0.00000E+00
 -1       822 5.75733E+01-9.97199E+01 0.00000E+00
 -1       823 5.22755E+01-1.02596E+02 0.00000E+00
 -1       824 4.68344E+01-1.05192E+02 0.00000E+00
 -1       825 4.12649E+01-1.07499E+02 0.00000E+00
 -1       826 3.55823E+01-1.09511E+02 0.00000E+00
 -1       827 2.98022E+01-1.11223E+02 0.00000E+00
 -1       828 2.39403E+01-1.12630E+02 0.00000E+00
 -1       829 1.80129E+01-1.13729E+02 0.00000E+00
 -1       830 1.20361E+01-1.14516E+02 0.00000E+00
 -1       831 6.02631E+00-1.14989E+02 0.00000E+00
 -1       832 1.18371E+02-6.20356E+00 0.00000E+00
 -1       833 1.17884E+02-1.23901E+01 0.00000E+00
 -1       834 1.17074E+02-1.85427E+01 0.00000E+00
 -1       835 1.15943E+02-2.46445E+01 0.00000E+00
 -1       836 1.14494E+02-3.06787E+01 0.00000E+00
 -1       837 1.12732E+02-3.66288E+01 0.00000E+00
 -1       838 1.10660E+02-4.24785E+01 0.00000E+00
 -1       839 1.08286E+02-4.82118E+01 0.00000E+00
 -1       840 1.05614E+02-5.38130E+01 0.00000E+00
 -1       841 1.02653E+02-5.92667E+01 0.00000E+00
 -1       842 9.94104E+01-6.45579E+01 0.00000E+00
 -1       843 9.58955E+01-6.96721E+01 0.00000E+00
 -1       844 9.21177E+01-7.45954E+01 0.00000E+00
 -1       845 8.80874E+01-7.93143E+01 0.00000E+00
 -1       846 8.38157E+01-8.38157E+01 0.00000E+00
 -1       847 7.93143E+01-8.80874E+01 0.00000E+00
 -1       848 7.45954E+01-9.21177E+01 0.00000E+00
 -1       849 6.96721E+01-9.58955E+01 0.00000E+00
 -1       850 6.45579E+01-9.94104E+01 0.00000E+00
 -1       851 5.92667E+01-1.02653E+02 0.00000E+00
 -1       852 5.38130E+01-1.05614E+02 0.00000E+00
 -1       853 4.82118E+01-1.08286E+02 0.00000E+00
 -1       854 4.24785E+01-1.10660E+02 0.00000E+00
 -1       855 3.66288E+01-1.12732E+02 0.00000E+00
 -1       856 3.06787E+01-1.14494E+02 0.00000E+00
 -1       857 2.46445E+01-1.15943E+02 0.00000E+00
 -1       858 1.85427E+01-1.17074E+02 0.00000E+00
 -1       859 1.23901E+01-1.17884E+02 0.00000E+00
 -1       860 6.20356E+00-1.18371E+02 0.00000E+00
 -1       861 1.21753E+02-6.38080E+00 0.00000E+00
 -1       862 1.21252E+02-1.27441E+01 0.00000E+00
 -1       863 1.20419E+02-1.90725E+01 0.00000E+00
 -1       864 1.19256E+02-2.53486E+01 0.00000E+00
 -1       865 1.17766E+02-3.15552E+01 0.00000E+00
 -1       866 1.15953E+02-3.76754E+01 0.00000E+00
 -1       867 1.13822E+02-4.36922E+01 0.00000E+00
 -1       868 1.11379E+02-4.95893E+01 0.00000E+00
 -1       869 1.08632E+02-5.53505E+01 0.00000E+00
 -1       870 1.05586E+02-6.09600E+01 0.00000E+00
 -1       871 1.02251E+02-6.64024E+01 0.00000E+00
 -1       872 9.86354E+01-7.16628E+01 0.00000E+00
 -1       873 9.47496E+01-7.67267E+01 0.00000E+00
 -1       874 9.06042E+01-8.15804E+01 0.00000E+00
 -1       875 8.62105E+01-8.62105E+01 0.00000E+00
 -1       876 8.15804E+01-9.06042E+01 0.00000E+00
 -1       877 7.67267E+01-9.47496E+01 0.00000E+00
 -1       878 7.16628E+01-9.86354E+01 0.00000E+00
 -1       879 6.64024E+01-1.02251E+02 0.00000E+00
 -1       880 6.09600E+01-1.05586E+02 0.00000E+00
 -1       881 5.53505E+01-1.08632E+02 0.00000E+00
 -1       882 4.95893E+01-1.11379E+02 0.00000E+00
 -1       883 4.36922E+01-1.13822E+02 0.00000E+00
 -1       884 3.76754E+01-1.15953E+02 0.00000E+00
 -1       885 3.15552E+01-1.17766E+02 0.00000E+00
 -1       886 2.53486E+01-1.19256E+02 0.00000E+00
 -1       887 1.90725E+01-1.20419E+02 0.00000E+00
 -1       888 1.27441E+01-1.21252E+02 0.00000E+00
 -1       889 6.38080E+00-1.21753E+02 0.00000E+00
 -1       890 1.25135E+02-6.55804E+00 0.00000E+00
 -1       891 1.24620E+02-1.30981E+01 0.00000E+00
 -1       892 1.23764E+02-1.96023E+01 0.00000E+00
 -1       893 1.22568E+02-2.60527E+01 0.00000E+00
 -1       894 1.21037E+02-3.24318E+01 0.00000E+00
 -1       895 1.19174E+02-3.87219E+01 0.00000E+00
 -1       896 1.16984E+02-4.49059E+01 0.00000E+00
 -1       897 1.14473E+02-5.09668E+01 0.00000E+00
 -1       898 1.11649E+02-5.68880E+01 0.00000E+00
 -1       899 1.08519E+02-6.26533E+01 0.00000E+00
 -1       900 1.05091E+02-6.82469E+01 0.00000E+00
 -1       901 1.01375E+02-7.36534E+01 0.00000E+00
 -1       902 9.73816E+01-7.88580E+01 0.00000E+00
 -1       903 9.31210E+01-8.38465E+01 0.00000E+00
 -1       904 8.86052E+01-8.86052E+01 0.00000E+00
 -1       905 8.38465E+01-9.31210E+01 0.00000E+00
 -1       906 7.88580E+01-9.73816E+01 0.00000E+00
 -1       907 7.36534E+01-1.01375E+02 0.00000E+00
 -1       908 6.82469E+01-1.05091E+02 0.00000E+00
 -1       909 6.26533E+01-1.08519E+02 0.00000E+00
 -1       910 5.68880E+01-1.11649E+02 0.00000E+00
 -1       911 5.09668E+01-1.14473E+02 0.00000E+00
 -1       912 4.49059E+01-1.16984E+02 0.00000E+00
 -1       913 3.87219E+01-1.19174E+02 0.00000E+00
 -1       914 3.24318E+01-1.21037E+02 0.00000E+00
 -1       915 2.60527E+01-1.22568E+02 0.00000E+00
 -1       916 1.96023E+01-1.23764E+02 0.00000E+00
 -1       917 1.30981E+01-1.24620E+02 0.00000E+00
 -1       918 6.55804E+00-1.25135E+02 0.00000E+00
 -1       919 1.28517E+02-6.73529E+00 0.00000E+00
 -1       920 1.27988E+02-1.34521E+01 0.00000E+00
 -1       921 1.27109E+02-2.01321E+01 0.00000E+00
 -1       922 1.25881E+02-2.67568E+01 0.00000E+00
 -1       923 1.24308E+02-3.33083E+01 0.00000E+00
 -1       924 1.22395E+02-3.97684E+01 0.00000E+00
 -1       925 1.20146E+02-4.61196E+01 0.00000E+00
 -1       926 1.17567E+02-5.23443E+01 0.00000E+00
 -1       927 1.14667E+02-5.84256E+01 0.00000E+00
 -1       928 1.11452E+02-6.43467E+01 0.00000E+00
 -1       929 1.07931E+02-7.00914E+01 0.00000E+00
 -1       930 1.04115E+02-7.56440E+01 0.00000E+00
 -1       931 1.00014E+02-8.09893E+01 0.00000E+00
 -1       932 9.56378E+01-8.61126E+01 0.00000E+00
 -1       933 9.09999E+01-9.09999E+01 0.00000E+00
 -1       934 8.61126E+01-9.56378E+01 0.00000E+00
 -1       935 8.09893E+01-1.00014E+02 0.00000E+00
 -1       936 7.56440E+01-1.04115E+02 0.00000E+00
 -1       937 7.00914E+01-1.07931E+02 0.00000E+00
 -1       938 6.43467E+01-1.11452E+02 0.00000E+00
 -1       939 5.84256E+01-1.14667E+02 0.00000E+00
 -1       940 5.23443E+01-1.17567E+02 0.00000E+00
 -1       941 4.61196E+01-1.20146E+02 0.00000E+00
 -1       942 3.97684E+01-1.22395E+02 0.00000E+00
 -1       943 3.33083E+01-1.24308E+02 0.00000E+00
 -1       944 2.67568E+01-1.25881E+02 0.00000E+00
 -1       945 2.01321E+01-1.27109E+02 0.00000E+00
 -1       946 1.34521E+01-1.27988E+02 0.00000E+00
 -1       947 6.73529E+00-1.28517E+02 0.00000E+00
 -1       948 1.31899E+02-6.91253E+00 0.00000E+00
 -1       949 1.31356E+02-1.38061E+01 0.00000E+00
 -1       950 1.30454E+02-2.06619E+01 0.00000E+00
 -1       951 1.29194E+02-2.74610E+01 0.00000E+00
 -1       952 1.27579E+02-3.41848E+01 0.00000E+00
 -1       953 1.25616E+02-4.08150E+01 0.00000E+00
 -1       954 1.23307E+02-4.73332E+01 0.00000E+00
 -1       955 1.20661E+02-5.37218E+01 0.00000E+00
 -1       956 1.17684E+02-5.99631E+01 0.00000E+00
 -1       957 1.14385E+02-6.60400E+01 0.00000E+00
 -1       958 1.10772E+02-7.19359E+01 0.00000E+00
 -1       959 1.06855E+02-7.76347E+01 0.00000E+00
 -1       960 1.02645E+02-8.31206E+01 0.00000E+00
 -1       961 9.81546E+01-8.83788E+01 0.00000E+00
 -1       962 9.33947E+01-9.33947E+01 0.00000E+00
 -1       963 8.83788E+01-9.81546E+01 0.00000E+00
 -1       964 8.31206E+01-1.02645E+02 0.00000E+00
 -1       965 7.76347E+01-1.06855E+02 0.00000E+00
 -1       966 7.19359E+01-1.10772E+02 0.00000E+00
 -1       967 6.60400E+01-1.14385E+02 0.00000E+00
 -1       968 5.99631E+01-1.17684E+02 0.00000E+00
 -1       969 5.37218E+01-1.20661E+02 0.00000E+00
 -1       970 4.73332E+01-1.23307E+02 0.00000E+00
 -1       971 4.08150E+01-1.25616E+02 0.00000E+00
 -1       972 3.41848E+01-1.27579E+02 0.00000E+00
 -1       973 2.74610E+01-1.29194E+02 0.00000E+00
 -1       974 2.06619E+01-1.30454E+02 0.00000E+00
 -1       975 1.38061E+01-1.31356E+02 0.00000E+00
 -1       976 6.91253E+00-1.31899E+02 0.00000E+00
 -1       977 1.35281E+02-7.08978E+00 0.00000E+00
 -1       978 1.34725E+02-1.41601E+01 0.00000E+00
 -1       979 1.33799E+02-2.11917E+01 0.00000E+00
 -1       980 1.32506E+02-2.81651E+01 0.00000E+00
 -1       981 1.30851E+02-3.50614E+01 0.00000E+00
 -1       982 1.28836E+02-4.18615E+01 0.00000E+00
 -1       983 1.26469E+02-4.85469E+01 0.00000E+00
 -1       984 1.23755E+02-5.50993E+01 0.00000E+00
 -1       985 1.20702E+02-6.15006E+01 0.00000E+00
 -1       986 1.17318E+02-6.77333E+01 0.00000E+00
 -1       987 1.13612E+02-7.37804E+01 0.00000E+00
 -1       988 1.09595E+02-7.96253E+01 0.00000E+00
 -1       989 1.05277E+02-8.52519E+01 0.00000E+00
 -1       990 1.00671E+02-9.06449E+01 0.00000E+00
 -1       991 9.57894E+01-9.57894E+01 0.00000E+00
 -1       992 9.06449E+01-1.00671E+02 0.00000E+00
 -1       993 8.52519E+01-1.05277E+02 0.00000E+00
 -1       994 7.96253E+01-1.09595E+02 0.00000E+00
 -1       995 7.37804E+01-1.13612E+02 0.00000E+00
 -1       996 6.77333E+01-1.17318E+02 0.00000E+00
 -1       997 6.15006E+01-1.20702E+02 0.00000E+00
 -1       998 5.50993E+01-1.23755E+02 0.00000E+00
 -1       999 4.85469E+01-1.26469E+02 0.00000E+00
 -1      1000 4.18615E+01-1.28836E+02 0.00000E+00
 -1      1001 3.50614E+01-1.30851E+02 0.00000E+00
 -1      1002 2.81651E+01-1.32506E+02 0.00000E+00
 -1      1003 2.11917E+01-1.33799E+02 0.00000E+00
 -1      1004 1.41601E+01-1.34725E+02 0.00000E+00
 -1      1005 7.08978E+00-1.35281E+02 0.00000E+00
 -1      1006 1.38663E+02-7.26702E+00 0.00000E+00
 -1      1007 1.38093E+02-1.45141E+01 0.00000E+00
 -1      1008 1.37144E+02-2.17214E+01 0.00000E+00
 -1      1009 1.35819E+02-2.88692E+01 0.00000E+00
 -1      1010 1.34122E+02-3.59379E+01 0.00000E+00
 -1      1011 1.32057E+02-4.29080E+01 0.00000E+00
 -1      1012 1.29631E+02-4.97606E+01 0.00000E+00
 -1      1013 1.26849E+02-5.64767E+01 0.00000E+00
 -1      1014 1.23719E+02-6.30381E+01 0.00000E+00
 -1      1015 1.20251E+02-6.94267E+01 0.00000E+00
 -1      1016 1.16452E+02-7.56249E+01 0.00000E+00
 -1      1017 1.12335E+02-8.16159E+01 0.00000E+00
 -1      1018 1.07909E+02-8.73832E+01 0.00000E+00
 -1      1019 1.03188E+02-9.29110E+01 0.00000E+00
 -1      1020 9.81841E+01-9.81841E+01 0.00000E+00
 -1      1021 9.29110E+01-1.03188E+02 0.00000E+00
 -1      1022 8.73832E+01-1.07909E+02 0.00000E+00
 -1      1023 8.16159E+01-1.12335E+02 0.00000E+00
 -1      1024 7.56249E+01-1.16452E+02 0.00000E+00
 -1      1025 6.94267E+01-1.20251E+02 0.00000E+00
 -1      1026 6.30381E+01-1.23719E+02 0.00000E+00
 -1      1027 5.64767E+01-1.26849E+02 0.00000E+00
 -1      1028 4.97606E+01-1.29631E+02 0.00000E+00
 -1      1029 4.29080E+01-1.32057E+02 0.00000E+00
 -1      1030 3.59379E+01-1.34122E+02 0.00000E+00
 -1      1031 2.88692E+01-1.35819E+02 0.00000E+00
 -1      1032 2.17214E+01-1.37144E+02 0.00000E+00
 -1      1033 1.45141E+01-1.38093E+02 0.00000E+00
 -1      1034 7.26702E+00-1.38663E+02 0.00000E+00
 -1      1035 1.42045E+02-7.44427E+00 0.00000E+00
 -1      1036 1.41461E+02-1.48681E+01 0.00000E+00
 -1      1037 1.40489E+02-2.22512E+01 0.00000E+00
 -1      1038 1.39132E+02-2.95734E+01 0.00000E+00
 -1      1039 1.37393E+02-3.68144E+01 0.00000E+00
 -1      1040 1.35278E+02-4.39546E+01 0.00000E+00
 -1      1041 1.32792E+02-5.09743E+01 0.00000E+00
 -1      1042 1.29943E+02-5.78542E+01 0.00000E+00
 -1      1043 1.26737E+02-6.45756E+01 0.00000E+00
 -1      1044 1.23183E+02-7.11200E+01 0.00000E+00
 -1      1045 1.19293E+02-7.74695E+01 0.00000E+00
 -1      1046 1.15075E+02-8.36066E+01 0.00000E+00
 -1      1047 1.10541E+02-8.95145E+01 0.00000E+00
 -1      1048 1.05705E+02-9.51771E+01 0.00000E+00
 -1      1049 1.00579E+02-1.00579E+02 0.00000E+00
 -1      1050 9.51771E+01-1.05705E+02 0.00000E+00
 -1      1051 8.95145E+01-1.10541E+02 0.00000E+00
 -1      1052 8.36066E+01-1.15075E+02 0.00000E+00
 -1      1053 7.74695E+01-1.19293E+02 0.00000E+00
 -1      1054 7.11200E+01-1.23183E+02 0.00000E+00
 -1      1055 6.45756E+01-1.26737E+02 0.00000E+00
 -1      1056 5.78542E+01-1.29943E+02 0.00000E+00
 -1      1057 5.09743E+01-1.32792E+02 0.00000E+00
 -1      1058 4.39546E+01-1.35278E+02 0.00000E+00
 -1      1059 3.68144E+01-1.37393E+02 0.00000E+00
 -1      1060 2.95734E+01-1.39132E+02 0.00000E+00
 -1      1061 2.22512E+01-1.40489E+02 0.00000E+00
 -1      1062 1.48681E+01-1.41461E+02 0.00000E+00
 -1      1063 7.44427E+00-1.42045E+02 0.00000E+00
 -1      1064 1.45427E+02-7.62151E+00 0.00000E+00
 -1      1065 1.44829E+02-1.52221E+01 0.00000E+00
 -1      1066 1.43834E+02-2.27810E+01 0.00000E+00
 -1      1067 1.42444E+02-3.02775E+01 0.00000E+00
 -1      1068 1.40665E+02-3.76910E+01 0.00000E+00
 -1      1069 1.38499E+02-4.50011E+01 0.00000E+00
 -1      1070 1.35954E+02-5.21879E+01 0.00000E+00
 -1      1071 1.33037E+02-5.92317E+01 0.00000E+00
 -1      1072 1.29754E+02-6.61131E+01 0.00000E+00
 -1      1073 1.26116E+02-7.28133E+01 0.00000E+00
 -1      1074 1.22133E+02-7.93140E+01 0.00000E+00
 -1      1075 1.17814E+02-8.55972E+01 0.00000E+00
 -1      1076 1.13173E+02-9.16458E+01 0.00000E+00
 -1      1077 1.08222E+02-9.74433E+01 0.00000E+00
 -1      1078 1.02974E+02-1.02974E+02 0.00000E+00
 -1      1079 9.74433E+01-1.08222E+02 0.00000E+00
 -1      1080 9.16458E+01-1.13173E+02 0.00000E+00
 -1      1081 8.55972E+01-1.17814E+02 0.00000E+00
 -1      1082 7.93140E+01-1.22133E+02 0.00000E+00
 -1      1083 7.28133E+01-1.26116E+02 0.00000E+00
 -1      1084 6.61131E+01-1.29754E+02 0.00000E+00
 -1      1085 5.92317E+01-1.33037E+02 0.00000E+00
 -1      1086 5.21879E+01-1.35954E+02 0.00000E+00
 -1      1087 4.50011E+01-1.38499E+02 0.00000E+00
 -1      1088 3.76910E+01-1.40665E+02 0.00000E+00
 -1      1089 3.02775E+01-1.42444E+02 0.00000E+00
 -1      1090 2.27810E+01-1.43834E+02 0.00000E+00
 -1      1091 1.52221E+01-1.44829E+02 0.00000E+00
 -1      1092 7.62151E+00-1.45427E+02 0.00000E+00
 -1      1093 1.48809E+02-7.79876E+00 0.00000E+00
 -1      1094 1.48197E+02-1.55761E+01 0.00000E+00
 -1      1095 1.47179E+02-2.33108E+01 0.00000E+00
 -1      1096 1.45757E+02-3.09816E+01 0.00000E+00
 -1      1097 1.43936E+02-3.85675E+01 0.00000E+00
 -1      1098 1.41720E+02-4.60477E+01 0.00000E+00
 -1      1099 1.39116E+02-5.34016E+01 0.00000E+00
 -1      1100 1.36130E+02-6.06092E+01 0.00000E+00
 -1      1101 1.32772E+02-6.76506E+01 0.00000E+00
 -1      1102 1.29049E+02-7.45067E+01 0.00000E+00
 -1      1103 1.24973E+02-8.11585E+01 0.00000E+00
 -1      1104 1.20554E+02-8.75878E+01 0.00000E+00
 -1      1105 1.15805E+02-9.37771E+01 0.00000E+00
 -1      1106 1.10738E+02-9.97094E+01 0.00000E+00
 -1      1107 1.05368E+02-1.05368E+02 0.00000E+00
 -1      1108 9.97094E+01-1.10738E+02 0.00000E+00
 -1      1109 9.37771E+01-1.15805E+02 0.00000E+00
 -1      1110 8.75878E+01-1.20554E+02 0.00000E+00
 -1      1111 8.11585E+01-1.24973E+02 0.00000E+00
 -1      1112 7.45067E+01-1.29049E+02 0.00000E+00
 -1      1113 6.76506E+01-1.32772E+02 0.00000E+00
 -1      1114 6.06092E+01-1.36130E+02 0.00000E+00
 -1      1115 5.34016E+01-1.39116E+02 0.00000E+00
 -1      1116 4.60477E+01-1.41720E+02 0.00000E+00
 -1      1117 3.85675E+01-1.43936E+02 0.00000E+00
 -1      1118 3.09816E+01-1.45757E+02 0.00000E+00
 -1      1119 2.33108E+01-1.47179E+02 0.00000E+00
 -1      1120 1.55761E+01-1.48197E+02 0.00000E+00
 -1      1121 7.79876E+00-1.48809E+02 0.00000E+00
 -1      1122 5.41867E+01 0.00000E+00 1.73182E+00
 -1      1123 5.41867E+01 0.00000E+00 3.46364E+00
 -1      1124 5.41867E+01 0.00000E+00 5.19545E+00
 -1      1125 5.41867E+01 0.00000E+00 6.92727E+00
 -1      1126 5.41867E+01 0.00000E+00 8.65909E+00
 -1      1127 5.41867E+01 0.00000E+00 1.03909E+01
 -1      1128 5.41867E+01 0.00000E+00 1.21227E+01
 -1      1129 5.41867E+01 0.00000E+00 1.38545E+01
 -1      1130 5.41867E+01 0.00000E+00 1.55864E+01
 -1      1131 5.41867E+01 0.00000E+00 1.73182E+01
 -1      1132 5.75733E+01 0.00000E+00 1.73182E+00
 -1      1133 5.75733E+01 0.00000E+00 3.46364E+00
 -1      1134 5.75733E+01 0.00000E+00 5.19545E+00
 -1      1135 5.75733E+01 0.00000E+00 6.92727E+00
 -1      1136 5.75733E+01 0.00000E+00 8.65909E+00
 -1      1137 5.75733E+01 0.00000E+00 1.03909E+01
 -1      1138 5.75733E+01 0.00000E+00 1.21227E+01
 -1      1139 5.75733E+01 0.00000E+00 1.38545E+01
 -1      1140 5.75733E+01 0.00000E+00 1.55864E+01
 -1      1141 5.75733E+01 0.00000E+00 1.73182E+01
 -1      1142 6.09600E+01 0.00000E+00 1.73182E+00
 -1      1143 6.09600E+01 0.00000E+00 3.46364E+00
 -1      1144 6.09600E+01 0.00000E+00 5.19545E+00
 -1      1145 6.09600E+01 0.00000E+00 6.92727E+00
 -1      1146 6.09600E+01 0.00000E+00 8.65909E+00
 -1      1147 6.09600E+01 0.00000E+00 1.03909E+01
 -1      1148 6.09600E+01 0.00000E+00 1.21227E+01
 -1      1149 6.09600E+01 0.00000E+00 1.38545E+01
 -1      1150 6.09600E+01 0.00000E+00 1.55864E+01
 -1      1151 6.09600E+01 0.00000E+00 1.73182E+01
 -1      1152 6.43467E+01 0.00000E+00 1.73182E+00
 -1      1153 6.43467E+01 0.00000E+00 3.46364E+00
 -1      1154 6.43467E+01 0.00000E+00 5.19545E+00
 -1      1155 6.43467E+01 0.00000E+00 6.92727E+00
 -1      1156 6.43467E+01 0.00000E+00 8.65909E+00
 -1      1157 6.43467E+01 0.00000E+00 1.03909E+01
 -1      1158 6.43467E+01 0.00000E+00 1.21227E+01
 -1      1159 6.43467E+01 0.00000E+00 1.38545E+01
 -1      1160 6.43467E+01 0.00000E+00 1.55864E+01
 -1      1161 6.43467E+01 0.00000E+00 1.73182E+01
 -1      1162 6.77333E+01 0.00000E+00 1.73182E+00
 -1      1163 6.77333E+01 0.00000E+00 3.46364E+00
 -1      1164 6.77333E+01 0.00000E+00 5.19545E+00
 -1      1165 6.77333E+01 0.00000E+00 6.92727E+00
 -1      1166 6.77333E+01 0.00000E+00 8.65909E+00
 -1      1167 6.77333E+01 0.00000E+00 1.03909E+01
 -1      1168 6.77333E+01 0.00000E+00 1.21227E+01
 -1      1169 6.77333E+01 0.00000E+00 1.38545E+01
 -1      1170 6.77333E+01 0.00000E+00 1.55864E+01
 -1      1171 6.77333E+01 0.00000E+00 1.73182E+01
 -1      1172 7.11200E+01 0.00000E+00 1.73182E+00
 -1      1173 7.11200E+01 0.00000E+00 3.46364E+00
 -1      1174 7.11200E+01 0.00000E+00 5.19545E+00
 -1      1175 7.11200E+01 0.00000E+00 6.92727E+00
 -1      1176 7.11200E+01 0.00000E+00 8.65909E+00
 -1      1177 7.11200E+01 0.00000E+00 1.03909E+01
 -1      1178 7.11200E+01 0.00000E+00 1.21227E+01
 -1      1179 7.11200E+01 0.00000E+00 1.38545E+01
 -1      1180 7.11200E+01 0.00000E+00 1.55864E+01
 -1      1181 7.11200E+01 0.00000E+00 1.73182E+01
 -1      1182 7.45067E+01 0.00000E+00 1.73182E+00
 -1      1183 7.45067E+01 0.00000E+00 3.46364E+00
 -1      1184 7.45067E+01 0.00000E+00 5.19545E+00
 -1      1185 7.45067E+01 0.00000E+00 6.92727E+00
 -1      1186 7.45067E+01 0.00000E+00 8.65909E+00
 -1      1187 7.45067E+01 0.00000E+00 1.03909E+01
 -1      1188 7.45067E+01 0.00000E+00 1.21227E+01
 -1      1189 7.45067E+01 0.00000E+00 1.38545E+01
 -1      1190 7.45067E+01 0.00000E+00 1.55864E+01
 -1      1191 7.45067E+01 0.00000E+00 1.73182E+01
 -1      1192 7.78933E+01 0.00000E+00 1.73182E+00
 -1      1193 7.78933E+01 0.00000E+00 3.46364E+00
 -1      1194 7.78933E+01 0.00000E+00 5.19545E+00
 -1      1195 7.78933E+01 0.00000E+00 6.92727E+00
 -1      1196 7.78933E+01 0.00000E+00 8.65909E+00
 -1      1197 7.78933E+01 0.00000E+00 1.03909E+01
 -1      1198 7.78933E+01 0.00000E+00 1.21227E+01
 -1      1199 7.78933E+01 0.00000E+00 1.38545E+01
 -1      1200 7.78933E+01 0.00000E+00 1.55864E+01
 -1      1201 7.78933E+01 0.00000E+00 1.73182E+01
 -1      1202 8.12800E+01 0.00000E+00 1.73182E+00
 -1      1203 8.12800E+01 0.00000E+00 3.46364E+00
 -1      1204 8.12800E+01 0.00000E+00 5.19545E+00
 -1      1205 8.12800E+01 0.00000E+00 6.92727E+00
 -1      1206 8.12800E+01 0.00000E+00 8.65909E+00
 -1      1207 8.12800E+01 0.00000E+00 1.03909E+01
 -1      1208 8.12800E+01 0.00000E+00 1.21227E+01
 -1      1209 8.12800E+01 0.00000E+00 1.38545E+01
 -1      1210 8.12800E+01 0.00000E+00 1.55864E+01
 -1      1211 8.12800E+01 0.00000E+00 1.73182E+01
 -1      1212 8.46667E+01 0.00000E+00 1.73182E+00
 -1      1213 8.46667E+01 0.00000E+00 3.46364E+00
 -1      1214 8.46667E+01 0.00000E+00 5.19545E+00
 -1      1215 8.46667E+01 0.00000E+00 6.92727E+00
 -1      1216 8.46667E+01 0.00000E+00 8.65909E+00
 -1      1217 8.46667E+01 0.00000E+00 1.03909E+01
 -1      1218 8.46667E+01 0.00000E+00 1.21227E+01
 -1      1219 8.46667E+01 0.00000E+00 1.38545E+01
 -1      1220 8.46667E+01 0.00000E+00 1.55864E+01
 -1      1221 8.46667E+01 0.00000E+00 1.73182E+01
 -1      1222 8.80533E+01 0.00000E+00 1.73182E+00
 -1      1223 8.80533E+01 0.00000E+00 3.46364E+00
 -1      1224 8.80533E+01 0.00000E+00 5.19545E+00
 -1      1225 8.80533E+01 0.00000E+00 6.92727E+00
 -1      1226 8.80533E+01 0.00000E+00 8.65909E+00
 -1      1227 8.80533E+01 0.00000E+00 1.03909E+01
 -1      1228 8.80533E+01 0.00000E+00 1.21227E+01
 -1      1229 8.80533E+01 0.00000E+00 1.38545E+01
 -1      1230 8.80533E+01 0.00000E+00 1.55864E+01
 -1      1231 8.80533E+01 0.00000E+00 1.73182E+01
 -1      1232 9.14400E+01 0.00000E+00 1.73182E+00
 -1      1233 9.14400E+01 0.00000E+00 3.46364E+00
 -1      1234 9.14400E+01 0.00000E+00 5.19545E+00
 -1      1235 9.14400E+01 0.00000E+00 6.92727E+00
 -1      1236 9.14400E+01 0.00000E+00 8.65909E+00
 -1      1237 9.14400E+01 0.00000E+00 1.03909E+01
 -1      1238 9.14400E+01 0.00000E+00 1.21227E+01
 -1      1239 9.14400E+01 0.00000E+00 1.38545E+01
 -1      1240 9.14400E+01 0.00000E+00 1.55864E+01
 -1      1241 9.14400E+01 0.00000E+00 1.73182E+01
 -1      1242 9.48267E+01 0.00000E+00 1.73182E+00
 -1      1243 9.48267E+01 0.00000E+00 3.46364E+00
 -1      1244 9.48267E+01 0.00000E+00 5.19545E+00
 -1      1245 9.48267E+01 0.00000E+00 6.92727E+00
 -1      1246 9.48267E+01 0.00000E+00 8.65909E+00
 -1      1247 9.48267E+01 0.00000E+00 1.03909E+01
 -1      1248 9.48267E+01 0.00000E+00 1.21227E+01
 -1      1249 9.48267E+01 0.00000E+00 1.38545E+01
 -1      1250 9.48267E+01 0.00000E+00 1.55864E+01
 -1      1251 9.48267E+01 0.00000E+00 1.73182E+01
 -1      1252 9.82133E+01 0.00000E+00 1.73182E+00
 -1      1253 9.82133E+01 0.00000E+00 3.46364E+00
 -1      1254 9.82133E+01 0.00000E+00 5.19545E+00
 -1      1255 9.82133E+01 0.00000E+00 6.92727E+00
 -1      1256 9.82133E+01 0.00000E+00 8.65909E+00
 -1      1257 9.82133E+01 0.00000E+00 1.03909E+01
 -1      1258 9.82133E+01 0.00000E+00 1.21227E+01
 -1      1259 9.82133E+01 0.00000E+00 1.38545E+01
 -1      1260 9.82133E+01 0.00000E+00 1.55864E+01
 -1      1261 9.82133E+01 0.00000E+00 1.73182E+01
 -1      1262 1.01600E+02 0.00000E+00 1.73182E+00
 -1      1263 1.01600E+02 0.00000E+00 3.46364E+00
 -1      1264 1.01600E+02 0.00000E+00 5.19545E+00
 -1      1265 1.01600E+02 0.00000E+00 6.92727E+00
 -1      1266 1.01600E+02 0.00000E+00 8.65909E+00
 -1      1267 1.01600E+02 0.00000E+00 1.03909E+01
 -1      1268 1.01600E+02 0.00000E+00 1.21227E+01
 -1      1269 1.01600E+02 0.00000E+00 1.38545E+01
 -1      1270 1.01600E+02 0.00000E+00 1.55864E+01
 -1      1271 1.01600E+02 0.00000E+00 1.73182E+01
 -1      1272 1.04987E+02 0.00000E+00 1.73182E+00
 -1      1273 1.04987E+02 0.00000E+00 3.46364E+00
 -1      1274 1.04987E+02 0.00000E+00 5.19545E+00
 -1      1275 1.04987E+02 0.00000E+00 6.92727E+00
 -1      1276 1.04987E+02 0.00000E+00 8.65909E+00
 -1      1277 1.04987E+02 0.00000E+00 1.03909E+01
 -1      1278 1.04987E+02 0.00000E+00 1.21227E+01
 -1      1279 1.04987E+02 0.00000E+00 1.38545E+01
 -1      1280 1.04987E+02 0.00000E+00 1.55864E+01
 -1      1281 1.04987E+02 0.00000E+00 1.73182E+01
 -1      1282 1.08373E+02 0.00000E+00 1.73182E+00
 -1      1283 1.08373E+02 0.00000E+00 3.46364E+00
 -1      1284 1.08373E+02 0.00000E+00 5.19545E+00
 -1      1285 1.08373E+02 0.00000E+00 6.92727E+00
 -1      1286 1.08373E+02 0.00000E+00 8.65909E+00
 -1      1287 1.08373E+02 0.00000E+00 1.03909E+01
 -1      1288 1.08373E+02 0.00000E+00 1.21227E+01
 -1      1289 1.08373E+02 0.00000E+00 1.38545E+01
 -1      1290 1.08373E+02 0.00000E+00 1.55864E+01
 -1      1291 1.08373E+02 0.00000E+00 1.73182E+01
 -1      1292 1.11760E+02 0.00000E+00 1.73182E+00
 -1      1293 1.11760E+02 0.00000E+00 3.46364E+00
 -1      1294 1.11760E+02 0.00000E+00 5.19545E+00
 -1      1295 1.11760E+02 0.00000E+00 6.92727E+00
 -1      1296 1.11760E+02 0.00000E+00 8.65909E+00
 -1      1297 1.11760E+02 0.00000E+00 1.03909E+01
 -1      1298 1.11760E+02 0.00000E+00 1.21227E+01
 -1      1299 1.11760E+02 0.00000E+00 1.38545E+01
 -1      1300 1.11760E+02 0.00000E+00 1.55864E+01
 -1      1301 1.11760E+02 0.00000E+00 1.73182E+01
 -1      1302 1.15147E+02 0.00000E+00 1.73182E+00
 -1      1303 1.15147E+02 0.00000E+00 3.46364E+00
 -1      1304 1.15147E+02 0.00000E+00 5.19545E+00
 -1      1305 1.15147E+02 0.00000E+00 6.92727E+00
 -1      1306 1.15147E+02 0.00000E+00 8.65909E+00
 -1      1307 1.15147E+02 0.00000E+00 1.03909E+01
 -1      1308 1.15147E+02 0.00000E+00 1.21227E+01
 -1      1309 1.15147E+02 0.00000E+00 1.38545E+01
 -1      1310 1.15147E+02 0.00000E+00 1.55864E+01
 -1      1311 1.15147E+02 0.00000E+00 1.73182E+01
 -1      1312 1.18533E+02 0.00000E+00 1.73182E+00
 -1      1313 1.18533E+02 0.00000E+00 3.46364E+00
 -1      1314 1.18533E+02 0.00000E+00 5.19545E+00
 -1      1315 1.18533E+02 0.00000E+00 6.92727E+00
 -1      1316 1.18533E+02 0.00000E+00 8.65909E+00
 -1      1317 1.18533E+02 0.00000E+00 1.03909E+01
 -1      1318 1.18533E+02 0.00000E+00 1.21227E+01
 -1      1319 1.18533E+02 0.00000E+00 1.38545E+01
 -1      1320 1.18533E+02 0.00000E+00 1.55864E+01
 -1      1321 1.18533E+02 0.00000E+00 1.73182E+01
 -1      1322 1.21920E+02 0.00000E+00 1.73182E+00
 -1      1323 1.21920E+02 0.00000E+00 3.46364E+00
 -1      1324 1.21920E+02 0.00000E+00 5.19545E+00
 -1      1325 1.21920E+02 0.00000E+00 6.92727E+00
 -1      1326 1.21920E+02 0.00000E+00 8.65909E+00
 -1      1327 1.21920E+02 0.00000E+00 1.03909E+01
 -1      1328 1.21920E+02 0.00000E+00 1.21227E+01
 -1      1329 1.21920E+02 0.00000E+00 1.38545E+01
 -1      1330 1.21920E+02 0.00000E+00 1.55864E+01
 -1      1331 1.21920E+02 0.00000E+00 1.73182E+01
 -1      1332 1.25307E+02 0.00000E+00 1.73182E+00
 -1      1333 1.25307E+02 0.00000E+00 3.46364E+00
 -1      1334 1.25307E+02 0.00000E+00 5.19545E+00
 -1      1335 1.25307E+02 0.00000E+00 6.92727E+00
 -1      1336 1.25307E+02 0.00000E+00 8.65909E+00
 -1      1337 1.25307E+02 0.00000E+00 1.03909E+01
 -1      1338 1.25307E+02 0.00000E+00 1.21227E+01
 -1      1339 1.25307E+02 0.00000E+00 1.38545E+01
 -1      1340 1.25307E+02 0.00000E+00 1.55864E+01
 -1      1341 1.25307E+02 0.00000E+00 1.73182E+01
 -1      1342 1.28693E+02 0.00000E+00 1.73182E+00
 -1      1343 1.28693E+02 0.00000E+00 3.46364E+00
 -1      1344 1.28693E+02 0.00000E+00 5.19545E+00
 -1      1345 1.28693E+02 0.00000E+00 6.92727E+00
 -1      1346 1.28693E+02 0.00000E+00 8.65909E+00
 -1      1347 1.28693E+02 0.00000E+00 1.03909E+01
 -1      1348 1.28693E+02 0.00000E+00 1.21227E+01
 -1      1349 1.28693E+02 0.00000E+00 1.38545E+01
 -1      1350 1.28693E+02 0.00000E+00 1.55864E+01
 -1      1351 1.28693E+02 0.00000E+00 1.73182E+01
 -1      1352 1.32080E+02 0.00000E+00 1.73182E+00
 -1      1353 1.32080E+02 0.00000E+00 3.46364E+00
 -1      1354 1.32080E+02 0.00000E+00 5.19545E+00
 -1      1355 1.32080E+02 0.00000E+00 6.92727E+00
 -1      1356 1.32080E+02 0.00000E+00 8.65909E+00
 -1      1357 1.32080E+02 0.00000E+00 1.03909E+01
 -1      1358 1.32080E+02 0.00000E+00 1.21227E+01
 -1      1359 1.32080E+02 0.00000E+00 1.38545E+01
 -1      1360 1.32080E+02 0.00000E+00 1.55864E+01
 -1      1361 1.32080E+02 0.00000E+00 1.73182E+01
 -1      1362 1.35467E+02 0.00000E+00 1.73182E+00
 -1      1363 1.35467E+02 0.00000E+00 3.46364E+00
 -1      1364 1.35467E+02 0.00000E+00 5.19545E+00
 -1      1365 1.35467E+02 0.00000E+00 6.92727E+00
 -1      1366 1.35467E+02 0.00000E+00 8.65909E+00
 -1      1367 1.35467E+02 0.00000E+00 1.03909E+01
 -1      1368 1.35467E+02 0.00000E+00 1.21227E+01
 -1      1369 1.35467E+02 0.00000E+00 1.38545E+01
 -1      1370 1.35467E+02 0.00000E+00 1.55864E+01
 -1      1371 1.35467E+02 0.00000E+00 1.73182E+01
 -1      1372 1.38853E+02 0.00000E+00 1.73182E+00
 -1      1373 1.38853E+02 0.00000E+00 3.46364E+00
 -1      1374 1.38853E+02 0.00000E+00 5.19545E+00
 -1      1375 1.38853E+02 0.00000E+00 6.92727E+00
 -1      1376 1.38853E+02 0.00000E+00 8.65909E+00
 -1      1377 1.38853E+02 0.00000E+00 1.03909E+01
 -1      1378 1.38853E+02 0.00000E+00 1.21227E+01
 -1      1379 1.38853E+02 0.00000E+00 1.38545E+01
 -1      1380 1.38853E+02 0.00000E+00 1.55864E+01
 -1      1381 1.38853E+02 0.00000E+00 1.73182E+01
 -1      1382 1.42240E+02 0.00000E+00 1.73182E+00
 -1      1383 1.42240E+02 0.00000E+00 3.46364E+00
 -1      1384 1.42240E+02 0.00000E+00 5.19545E+00
 -1      1385 1.42240E+02 0.00000E+00 6.92727E+00
 -1      1386 1.42240E+02 0.00000E+00 8.65909E+00
 -1      1387 1.42240E+02 0.00000E+00 1.03909E+01
 -1      1388 1.42240E+02 0.00000E+00 1.21227E+01
 -1      1389 1.42240E+02 0.00000E+00 1.38545E+01
 -1      1390 1.42240E+02 0.00000E+00 1.55864E+01
 -1      1391 1.42240E+02 0.00000E+00 1.73182E+01
 -1      1392 1.45627E+02 0.00000E+00 1.73182E+00
 -1      1393 1.45627E+02 0.00000E+00 3.46364E+00
 -1      1394 1.45627E+02 0.00000E+00 5.19545E+00
 -1      1395 1.45627E+02 0.00000E+00 6.92727E+00
 -1      1396 1.45627E+02 0.00000E+00 8.65909E+00
 -1      1397 1.45627E+02 0.00000E+00 1.03909E+01
 -1      1398 1.45627E+02 0.00000E+00 1.21227E+01
 -1      1399 1.45627E+02 0.00000E+00 1.38545E+01
 -1      1400 1.45627E+02 0.00000E+00 1.55864E+01
 -1      1401 1.45627E+02 0.00000E+00 1.73182E+01
 -1      1402 1.49013E+02 0.00000E+00 1.73182E+00
 -1      1403 1.49013E+02 0.00000E+00 3.46364E+00
 -1      1404 1.49013E+02 0.00000E+00 5.19545E+00
 -1      1405 1.49013E+02 0.00000E+00 6.92727E+00
 -1      1406 1.49013E+02 0.00000E+00 8.65909E+00
 -1      1407 1.49013E+02 0.00000E+00 1.03909E+01
 -1      1408 1.49013E+02 0.00000E+00 1.21227E+01
 -1      1409 1.49013E+02 0.00000E+00 1.38545E+01
 -1      1410 1.49013E+02 0.00000E+00 1.55864E+01
 -1      1411 1.49013E+02 0.00000E+00 1.73182E+01
 -1      1412 1.52191E+02-7.97600E+00 1.73182E+00
 -1      1413 1.52191E+02-7.97600E+00 3.46364E+00
 -1      1414 1.52191E+02-7.97600E+00 5.19545E+00
 -1      1415 1.52191E+02-7.97600E+00 6.92727E+00
 -1      1416 1.52191E+02-7.97600E+00 8.65909E+00
 -1      1417 1.52191E+02-7.97600E+00 1.03909E+01
 -1      1418 1.52191E+02-7.97600E+00 1.21227E+01
 -1      1419 1.52191E+02-7.97600E+00 1.38545E+01
 -1      1420 1.52191E+02-7.97600E+00 1.55864E+01
 -1      1421 1.52191E+02-7.97600E+00 1.73182E+01
 -1      1422 1.51565E+02-1.59301E+01 1.73182E+00
 -1      1423 1.51565E+02-1.59301E+01 3.46364E+00
 -1      1424 1.51565E+02-1.59301E+01 5.19545E+00
 -1      1425 1.51565E+02-1.59301E+01 6.92727E+00
 -1      1426 1.51565E+02-1.59301E+01 8.65909E+00
 -1      1427 1.51565E+02-1.59301E+01 1.03909E+01
 -1      1428 1.51565E+02-1.59301E+01 1.21227E+01
 -1      1429 1.51565E+02-1.59301E+01 1.38545E+01
 -1      1430 1.51565E+02-1.59301E+01 1.55864E+01
 -1      1431 1.51565E+02-1.59301E+01 1.73182E+01
 -1      1432 1.50524E+02-2.38406E+01 1.73182E+00
 -1      1433 1.50524E+02-2.38406E+01 3.46364E+00
 -1      1434 1.50524E+02-2.38406E+01 5.19545E+00
 -1      1435 1.50524E+02-2.38406E+01 6.92727E+00
 -1      1436 1.50524E+02-2.38406E+01 8.65909E+00
 -1      1437 1.50524E+02-2.38406E+01 1.03909E+01
 -1      1438 1.50524E+02-2.38406E+01 1.21227E+01
 -1      1439 1.50524E+02-2.38406E+01 1.38545E+01
 -1      1440 1.50524E+02-2.38406E+01 1.55864E+01
 -1      1441 1.50524E+02-2.38406E+01 1.73182E+01
 -1      1442 1.49070E+02-3.16857E+01 1.73182E+00
 -1      1443 1.49070E+02-3.16857E+01 3.46364E+00
 -1      1444 1.49070E+02-3.16857E+01 5.19545E+00
 -1      1445 1.49070E+02-3.16857E+01 6.92727E+00
 -1      1446 1.49070E+02-3.16857E+01 8.65909E+00
 -1      1447 1.49070E+02-3.16857E+01 1.03909E+01
 -1      1448 1.49070E+02-3.16857E+01 1.21227E+01
 -1      1449 1.49070E+02-3.16857E+01 1.38545E+01
 -1      1450 1.49070E+02-3.16857E+01 1.55864E+01
 -1      1451 1.49070E+02-3.16857E+01 1.73182E+01
 -1      1452 1.47207E+02-3.94440E+01 1.73182E+00
 -1      1453 1.47207E+02-3.94440E+01 3.46364E+00
 -1      1454 1.47207E+02-3.94440E+01 5.19545E+00
 -1      1455 1.47207E+02-3.94440E+01 6.92727E+00
 -1      1456 1.47207E+02-3.94440E+01 8.65909E+00
 -1      1457 1.47207E+02-3.94440E+01 1.03909E+01
 -1      1458 1.47207E+02-3.94440E+01 1.21227E+01
 -1      1459 1.47207E+02-3.94440E+01 1.38545E+01
 -1      1460 1.47207E+02-3.94440E+01 1.55864E+01
 -1      1461 1.47207E+02-3.94440E+01 1.73182E+01
 -1      1462 1.44941E+02-4.70942E+01 1.73182E+00
 -1      1463 1.44941E+02-4.70942E+01 3.46364E+00
 -1      1464 1.44941E+02-4.70942E+01 5.19545E+00
 -1      1465 1.44941E+02-4.70942E+01 6.92727E+00
 -1      1466 1.44941E+02-4.70942E+01 8.65909E+00
 -1      1467 1.44941E+02-4.70942E+01 1.03909E+01
 -1      1468 1.44941E+02-4.70942E+01 1.21227E+01
 -1      1469 1.44941E+02-4.70942E+01 1.38545E+01
 -1      1470 1.44941E+02-4.70942E+01 1.55864E+01
 -1      1471 1.44941E+02-4.70942E+01 1.73182E+01
 -1      1472 1.42278E+02-5.46153E+01 1.73182E+00
 -1      1473 1.42278E+02-5.46153E+01 3.46364E+00
 -1      1474 1.42278E+02-5.46153E+01 5.19545E+00
 -1      1475 1.42278E+02-5.46153E+01 6.92727E+00
 -1      1476 1.42278E+02-5.46153E+01 8.65909E+00
 -1      1477 1.42278E+02-5.46153E+01 1.03909E+01
 -1      1478 1.42278E+02-5.46153E+01 1.21227E+01
 -1      1479 1.42278E+02-5.46153E+01 1.38545E+01
 -1      1480 1.42278E+02-5.46153E+01 1.55864E+01
 -1      1481 1.42278E+02-5.46153E+01 1.73182E+01
 -1      1482 1.39224E+02-6.19867E+01 1.73182E+00
 -1      1483 1.39224E+02-6.19867E+01 3.46364E+00
 -1      1484 1.39224E+02-6.19867E+01 5.19545E+00
 -1      1485 1.39224E+02-6.19867E+01 6.92727E+00
 -1      1486 1.39224E+02-6.19867E+01 8.65909E+00
 -1      1487 1.39224E+02-6.19867E+01 1.03909E+01
 -1      1488 1.39224E+02-6.19867E+01 1.21227E+01
 -1      1489 1.39224E+02-6.19867E+01 1.38545E+01
 -1      1490 1.39224E+02-6.19867E+01 1.55864E+01
 -1      1491 1.39224E+02-6.19867E+01 1.73182E+01
 -1      1492 1.35789E+02-6.91882E+01 1.73182E+00
 -1      1493 1.35789E+02-6.91882E+01 3.46364E+00
 -1      1494 1.35789E+02-6.91882E+01 5.19545E+00
 -1      1495 1.35789E+02-6.91882E+01 6.92727E+00
 -1      1496 1.35789E+02-6.91882E+01 8.65909E+00
 -1      1497 1.35789E+02-6.91882E+01 1.03909E+01
 -1      1498 1.35789E+02-6.91882E+01 1.21227E+01
 -1      1499 1.35789E+02-6.91882E+01 1.38545E+01
 -1      1500 1.35789E+02-6.91882E+01 1.55864E+01
 -1      1501 1.35789E+02-6.91882E+01 1.73182E+01
 -1      1502 1.31982E+02-7.62000E+01 1.73182E+00
 -1      1503 1.31982E+02-7.62000E+01 3.46364E+00
 -1      1504 1.31982E+02-7.62000E+01 5.19545E+00
 -1      1505 1.31982E+02-7.62000E+01 6.92727E+00
 -1      1506 1.31982E+02-7.62000E+01 8.65909E+00
 -1      1507 1.31982E+02-7.62000E+01 1.03909E+01
 -1      1508 1.31982E+02-7.62000E+01 1.21227E+01
 -1      1509 1.31982E+02-7.62000E+01 1.38545E+01
 -1      1510 1.31982E+02-7.62000E+01 1.55864E+01
 -1      1511 1.31982E+02-7.62000E+01 1.73182E+01
 -1      1512 1.27813E+02-8.30030E+01 1.73182E+00
 -1      1513 1.27813E+02-8.30030E+01 3.46364E+00
 -1      1514 1.27813E+02-8.30030E+01 5.19545E+00
 -1      1515 1.27813E+02-8.30030E+01 6.92727E+00
 -1      1516 1.27813E+02-8.30030E+01 8.65909E+00
 -1      1517 1.27813E+02-8.30030E+01 1.03909E+01
 -1      1518 1.27813E+02-8.30030E+01 1.21227E+01
 -1      1519 1.27813E+02-8.30030E+01 1.38545E+01
 -1      1520 1.27813E+02-8.30030E+01 1.55864E+01
 -1      1521 1.27813E+02-8.30030E+01 1.73182E+01
 -1      1522 1.23294E+02-8.95785E+01 1.73182E+00
 -1      1523 1.23294E+02-8.95785E+01 3.46364E+00
 -1      1524 1.23294E+02-8.95785E+01 5.19545E+00
 -1      1525 1.23294E+02-8.95785E+01 6.92727E+00
 -1      1526 1.23294E+02-8.95785E+01 8.65909E+00
 -1      1527 1.23294E+02-8.95785E+01 1.03909E+01
 -1      1528 1.23294E+02-8.95785E+01 1.21227E+01
 -1      1529 1.23294E+02-8.95785E+01 1.38545E+01
 -1      1530 1.23294E+02-8.95785E+01 1.55864E+01
 -1      1531 1.23294E+02-8.95785E+01 1.73182E+01
 -1      1532 1.18437E+02-9.59084E+01 1.73182E+00
 -1      1533 1.18437E+02-9.59084E+01 3.46364E+00
 -1      1534 1.18437E+02-9.59084E+01 5.19545E+00
 -1      1535 1.18437E+02-9.59084E+01 6.92727E+00
 -1      1536 1.18437E+02-9.59084E+01 8.65909E+00
 -1      1537 1.18437E+02-9.59084E+01 1.03909E+01
 -1      1538 1.18437E+02-9.59084E+01 1.21227E+01
 -1      1539 1.18437E+02-9.59084E+01 1.38545E+01
 -1      1540 1.18437E+02-9.59084E+01 1.55864E+01
 -1      1541 1.18437E+02-9.59084E+01 1.73182E+01
 -1      1542 1.13255E+02-1.01976E+02 1.73182E+00
 -1      1543 1.13255E+02-1.01976E+02 3.46364E+00
 -1      1544 1.13255E+02-1.01976E+02 5.19545E+00
 -1      1545 1.13255E+02-1.01976E+02 6.92727E+00
 -1      1546 1.13255E+02-1.01976E+02 8.65909E+00
 -1      1547 1.13255E+02-1.01976E+02 1.03909E+01
 -1      1548 1.13255E+02-1.01976E+02 1.21227E+01
 -1      1549 1.13255E+02-1.01976E+02 1.38545E+01
 -1      1550 1.13255E+02-1.01976E+02 1.55864E+01
 -1      1551 1.13255E+02-1.01976E+02 1.73182E+01
 -1      1552 1.07763E+02-1.07763E+02 1.73182E+00
 -1      1553 1.07763E+02-1.07763E+02 3.46364E+00
 -1      1554 1.07763E+02-1.07763E+02 5.19545E+00
 -1      1555 1.07763E+02-1.07763E+02 6.92727E+00
 -1      1556 1.07763E+02-1.07763E+02 8.65909E+00
 -1      1557 1.07763E+02-1.07763E+02 1.03909E+01
 -1      1558 1.07763E+02-1.07763E+02 1.21227E+01
 -1      1559 1.07763E+02-1.07763E+02 1.38545E+01
 -1      1560 1.07763E+02-1.07763E+02 1.55864E+01
 -1      1561 1.07763E+02-1.07763E+02 1.73182E+01
 -1      1562 1.01976E+02-1.13255E+02 1.73182E+00
 -1      1563 1.01976E+02-1.13255E+02 3.46364E+00
 -1      1564 1.01976E+02-1.13255E+02 5.19545E+00
 -1      1565 1.01976E+02-1.13255E+02 6.92727E+00
 -1      1566 1.01976E+02-1.13255E+02 8.65909E+00
 -1      1567 1.01976E+02-1.13255E+02 1.03909E+01
 -1      1568 1.01976E+02-1.13255E+02 1.21227E+01
 -1      1569 1.01976E+02-1.13255E+02 1.38545E+01
 -1      1570 1.01976E+02-1.13255E+02 1.55864E+01
 -1      1571 1.01976E+02-1.13255E+02 1.73182E+01
 -1      1572 9.59084E+01-1.18437E+02 1.73182E+00
 -1      1573 9.59084E+01-1.18437E+02 3.46364E+00
 -1      1574 9.59084E+01-1.18437E+02 5.19545E+00
 -1      1575 9.59084E+01-1.18437E+02 6.92727E+00
 -1      1576 9.59084E+01-1.18437E+02 8.65909E+00
 -1      1577 9.59084E+01-1.18437E+02 1.03909E+01
 -1      1578 9.59084E+01-1.18437E+02 1.21227E+01
 -1      1579 9.59084E+01-1.18437E+02 1.38545E+01
 -1      1580 9.59084E+01-1.18437E+02 1.55864E+01
 -1      1581 9.59084E+01-1.18437E+02 1.73182E+01
 -1      1582 8.95785E+01-1.23294E+02 1.73182E+00
 -1      1583 8.95785E+01-1.23294E+02 3.46364E+00
 -1      1584 8.95785E+01-1.23294E+02 5.19545E+00
 -1      1585 8.95785E+01-1.23294E+02 6.92727E+00
 -1      1586 8.95785E+01-1.23294E+02 8.65909E+00
 -1      1587 8.95785E+01-1.23294E+02 1.03909E+01
 -1      1588 8.95785E+01-1.23294E+02 1.21227E+01
 -1      1589 8.95785E+01-1.23294E+02 1.38545E+01
 -1      1590 8.95785E+01-1.23294E+02 1.55864E+01
 -1      1591 8.95785E+01-1.23294E+02 1.73182E+01
 -1      1592 8.30030E+01-1.27813E+02 1.73182E+00
 -1      1593 8.30030E+01-1.27813E+02 3.46364E+00
 -1      1594 8.30030E+01-1.27813E+02 5.19545E+00
 -1      1595 8.30030E+01-1.27813E+02 6.92727E+00
 -1      1596 8.30030E+01-1.27813E+02 8.65909E+00
 -1      1597 8.30030E+01-1.27813E+02 1.03909E+01
 -1      1598 8.30030E+01-1.27813E+02 1.21227E+01
 -1      1599 8.30030E+01-1.27813E+02 1.38545E+01
 -1      1600 8.30030E+01-1.27813E+02 1.55864E+01
 -1      1601 8.30030E+01-1.27813E+02 1.73182E+01
 -1      1602 7.62000E+01-1.31982E+02 1.73182E+00
 -1      1603 7.62000E+01-1.31982E+02 3.46364E+00
 -1      1604 7.62000E+01-1.31982E+02 5.19545E+00
 -1      1605 7.62000E+01-1.31982E+02 6.92727E+00
 -1      1606 7.62000E+01-1.31982E+02 8.65909E+00
 -1      1607 7.62000E+01-1.31982E+02 1.03909E+01
 -1      1608 7.62000E+01-1.31982E+02 1.21227E+01
 -1      1609 7.62000E+01-1.31982E+02 1.38545E+01
 -1      1610 7.62000E+01-1.31982E+02 1.55864E+01
 -1      1611 7.62000E+01-1.31982E+02 1.73182E+01
 -1      1612 6.91881E+01-1.35789E+02 1.73182E+00
 -1      1613 6.91881E+01-1.35789E+02 3.46364E+00
 -1      1614 6.91881E+01-1.35789E+02 5.19545E+00
 -1      1615 6.91881E+01-1.35789E+02 6.92727E+00
 -1      1616 6.91881E+01-1.35789E+02 8.65909E+00
 -1      1617 6.91881E+01-1.35789E+02 1.03909E+01
 -1      1618 6.91881E+01-1.35789E+02 1.21227E+01
 -1      1619 6.91881E+01-1.35789E+02 1.38545E+01
 -1      1620 6.91881E+01-1.35789E+02 1.55864E+01
 -1      1621 6.91881E+01-1.35789E+02 1.73182E+01
 -1      1622 6.19867E+01-1.39224E+02 1.73182E+00
 -1      1623 6.19867E+01-1.39224E+02 3.46364E+00
 -1      1624 6.19867E+01-1.39224E+02 5.19545E+00
 -1      1625 6.19867E+01-1.39224E+02 6.92727E+00
 -1      1626 6.19867E+01-1.39224E+02 8.65909E+00
 -1      1627 6.19867E+01-1.39224E+02 1.03909E+01
 -1      1628 6.19867E+01-1.39224E+02 1.21227E+01
 -1      1629 6.19867E+01-1.39224E+02 1.38545E+01
 -1      1630 6.19867E+01-1.39224E+02 1.55864E+01
 -1      1631 6.19867E+01-1.39224E+02 1.73182E+01
 -1      1632 5.46153E+01-1.42278E+02 1.73182E+00
 -1      1633 5.46153E+01-1.42278E+02 3.46364E+00
 -1      1634 5.46153E+01-1.42278E+02 5.19545E+00
 -1      1635 5.46153E+01-1.42278E+02 6.92727E+00
 -1      1636 5.46153E+01-1.42278E+02 8.65909E+00
 -1      1637 5.46153E+01-1.42278E+02 1.03909E+01
 -1      1638 5.46153E+01-1.42278E+02 1.21227E+01
 -1      1639 5.46153E+01-1.42278E+02 1.38545E+01
 -1      1640 5.46153E+01-1.42278E+02 1.55864E+01
 -1      1641 5.46153E+01-1.42278E+02 1.73182E+01
 -1      1642 4.70942E+01-1.44941E+02 1.73182E+00
 -1      1643 4.70942E+01-1.44941E+02 3.46364E+00
 -1      1644 4.70942E+01-1.44941E+02 5.19545E+00
 -1      1645 4.70942E+01-1.44941E+02 6.92727E+00
 -1      1646 4.70942E+01-1.44941E+02 8.65909E+00
 -1      1647 4.70942E+01-1.44941E+02 1.03909E+01
 -1      1648 4.70942E+01-1.44941E+02 1.21227E+01
 -1      1649 4.70942E+01-1.44941E+02 1.38545E+01
 -1      1650 4.70942E+01-1.44941E+02 1.55864E+01
 -1      1651 4.70942E+01-1.44941E+02 1.73182E+01
 -1      1652 3.94440E+01-1.47207E+02 1.73182E+00
 -1      1653 3.94440E+01-1.47207E+02 3.46364E+00
 -1      1654 3.94440E+01-1.47207E+02 5.19545E+00
 -1      1655 3.94440E+01-1.47207E+02 6.92727E+00
 -1      1656 3.94440E+01-1.47207E+02 8.65909E+00
 -1      1657 3.94440E+01-1.47207E+02 1.03909E+01
 -1      1658 3.94440E+01-1.47207E+02 1.21227E+01
 -1      1659 3.94440E+01-1.47207E+02 1.38545E+01
 -1      1660 3.94440E+01-1.47207E+02 1.55864E+01
 -1      1661 3.94440E+01-1.47207E+02 1.73182E+01
 -1      1662 3.16857E+01-1.49070E+02 1.73182E+00
 -1      1663 3.16857E+01-1.49070E+02 3.46364E+00
 -1      1664 3.16857E+01-1.49070E+02 5.19545E+00
 -1      1665 3.16857E+01-1.49070E+02 6.92727E+00
 -1      1666 3.16857E+01-1.49070E+02 8.65909E+00
 -1      1667 3.16857E+01-1.49070E+02 1.03909E+01
 -1      1668 3.16857E+01-1.49070E+02 1.21227E+01
 -1      1669 3.16857E+01-1.49070E+02 1.38545E+01
 -1      1670 3.16857E+01-1.49070E+02 1.55864E+01
 -1      1671 3.16857E+01-1.49070E+02 1.73182E+01
 -1      1672 2.38406E+01-1.50524E+02 1.73182E+00
 -1      1673 2.38406E+01-1.50524E+02 3.46364E+00
 -1      1674 2.38406E+01-1.50524E+02 5.19545E+00
 -1      1675 2.38406E+01-1.50524E+02 6.92727E+00
 -1      1676 2.38406E+01-1.50524E+02 8.65909E+00
 -1      1677 2.38406E+01-1.50524E+02 1.03909E+01
 -1      1678 2.38406E+01-1.50524E+02 1.21227E+01
 -1      1679 2.38406E+01-1.50524E+02 1.38545E+01
 -1      1680 2.38406E+01-1.50524E+02 1.55864E+01
 -1      1681 2.38406E+01-1.50524E+02 1.73182E+01
 -1      1682 1.59301E+01-1.51565E+02 1.73182E+00
 -1      1683 1.59301E+01-1.51565E+02 3.46364E+00
 -1      1684 1.59301E+01-1.51565E+02 5.19545E+00
 -1      1685 1.59301E+01-1.51565E+02 6.92727E+00
 -1      1686 1.59301E+01-1.51565E+02 8.65909E+00
 -1      1687 1.59301E+01-1.51565E+02 1.03909E+01
 -1      1688 1.59301E+01-1.51565E+02 1.21227E+01
 -1      1689 1.59301E+01-1.51565E+02 1.38545E+01
 -1      1690 1.59301E+01-1.51565E+02 1.55864E+01
 -1      1691 1.59301E+01-1.51565E+02 1.73182E+01
 -1      1692 7.97600E+00-1.52191E+02 1.73182E+00
 -1      1693 7.97600E+00-1.52191E+02 3.46364E+00
 -1      1694 7.97600E+00-1.52191E+02 5.19545E+00
 -1      1695 7.97600E+00-1.52191E+02 6.92727E+00
 -1      1696 7.97600E+00-1.52191E+02 8.65909E+00
 -1      1697 7.97600E+00-1.52191E+02 1.03909E+01
 -1      1698 7.97600E+00-1.52191E+02 1.21227E+01
 -1      1699 7.97600E+00-1.52191E+02 1.38545E+01
 -1      1700 7.97600E+00-1.52191E+02 1.55864E+01
 -1      1701 7.97600E+00-1.52191E+02 1.73182E+01
 -1      1702 9.12444E-15-1.49013E+02 1.73182E+00
 -1      1703 9.12444E-15-1.49013E+02 3.46364E+00
 -1      1704 9.12444E-15-1.49013E+02 5.19545E+00
 -1      1705 9.12444E-15-1.49013E+02 6.92727E+00
 -1      1706 9.12444E-15-1.49013E+02 8.65909E+00
 -1      1707 9.12444E-15-1.49013E+02 1.03909E+01
 -1      1708 9.12444E-15-1.49013E+02 1.21227E+01
 -1      1709 9.12444E-15-1.49013E+02 1.38545E+01
 -1      1710 9.12444E-15-1.49013E+02 1.55864E+01
 -1      1711 9.12444E-15-1.49013E+02 1.73182E+01
 -1      1712 8.91706E-15-1.45627E+02 1.73182E+00
 -1      1713 8.91706E-15-1.45627E+02 3.46364E+00
 -1      1714 8.91706E-15-1.45627E+02 5.19545E+00
 -1      1715 8.91706E-15-1.45627E+02 6.92727E+00
 -1      1716 8.91706E-15-1.45627E+02 8.65909E+00
 -1      1717 8.91706E-15-1.45627E+02 1.03909E+01
 -1      1718 8.91706E-15-1.45627E+02 1.21227E+01
 -1      1719 8.91706E-15-1.45627E+02 1.38545E+01
 -1      1720 8.91706E-15-1.45627E+02 1.55864E+01
 -1      1721 8.91706E-15-1.45627E+02 1.73182E+01
 -1      1722 8.70969E-15-1.42240E+02 1.73182E+00
 -1      1723 8.70969E-15-1.42240E+02 3.46364E+00
 -1      1724 8.70969E-15-1.42240E+02 5.19545E+00
 -1      1725 8.70969E-15-1.42240E+02 6.92727E+00
 -1      1726 8.70969E-15-1.42240E+02 8.65909E+00
 -1      1727 8.70969E-15-1.42240E+02 1.03909E+01
 -1      1728 8.70969E-15-1.42240E+02 1.21227E+01
 -1      1729 8.70969E-15-1.42240E+02 1.38545E+01
 -1      1730 8.70969E-15-1.42240E+02 1.55864E+01
 -1      1731 8.70969E-15-1.42240E+02 1.73182E+01
 -1      1732 8.50231E-15-1.38853E+02 1.73182E+00
 -1      1733 8.50231E-15-1.38853E+02 3.46364E+00
 -1      1734 8.50231E-15-1.38853E+02 5.19545E+00
 -1      1735 8.50231E-15-1.38853E+02 6.92727E+00
 -1      1736 8.50231E-15-1.38853E+02 8.65909E+00
 -1      1737 8.50231E-15-1.38853E+02 1.03909E+01
 -1      1738 8.50231E-15-1.38853E+02 1.21227E+01
 -1      1739 8.50231E-15-1.38853E+02 1.38545E+01
 -1      1740 8.50231E-15-1.38853E+02 1.55864E+01
 -1      1741 8.50231E-15-1.38853E+02 1.73182E+01
 -1      1742 8.29494E-15-1.35467E+02 1.73182E+00
 -1      1743 8.29494E-15-1.35467E+02 3.46364E+00
 -1      1744 8.29494E-15-1.35467E+02 5.19545E+00
 -1      1745 8.29494E-15-1.35467E+02 6.92727E+00
 -1      1746 8.29494E-15-1.35467E+02 8.65909E+00
 -1      1747 8.29494E-15-1.35467E+02 1.03909E+01
 -1      1748 8.29494E-15-1.35467E+02 1.21227E+01
 -1      1749 8.29494E-15-1.35467E+02 1.38545E+01
 -1      1750 8.29494E-15-1.35467E+02 1.55864E+01
 -1      1751 8.29494E-15-1.35467E+02 1.73182E+01
 -1      1752 8.08757E-15-1.32080E+02 1.73182E+00
 -1      1753 8.08757E-15-1.32080E+02 3.46364E+00
 -1      1754 8.08757E-15-1.32080E+02 5.19545E+00
 -1      1755 8.08757E-15-1.32080E+02 6.92727E+00
 -1      1756 8.08757E-15-1.32080E+02 8.65909E+00
 -1      1757 8.08757E-15-1.32080E+02 1.03909E+01
 -1      1758 8.08757E-15-1.32080E+02 1.21227E+01
 -1      1759 8.08757E-15-1.32080E+02 1.38545E+01
 -1      1760 8.08757E-15-1.32080E+02 1.55864E+01
 -1      1761 8.08757E-15-1.32080E+02 1.73182E+01
 -1      1762 7.88019E-15-1.28693E+02 1.73182E+00
 -1      1763 7.88019E-15-1.28693E+02 3.46364E+00
 -1      1764 7.88019E-15-1.28693E+02 5.19545E+00
 -1      1765 7.88019E-15-1.28693E+02 6.92727E+00
 -1      1766 7.88019E-15-1.28693E+02 8.65909E+00
 -1      1767 7.88019E-15-1.28693E+02 1.03909E+01
 -1      1768 7.88019E-15-1.28693E+02 1.21227E+01
 -1      1769 7.88019E-15-1.28693E+02 1.38545E+01
 -1      1770 7.88019E-15-1.28693E+02 1.55864E+01
 -1      1771 7.88019E-15-1.28693E+02 1.73182E+01
 -1      1772 7.67282E-15-1.25307E+02 1.73182E+00
 -1      1773 7.67282E-15-1.25307E+02 3.46364E+00
 -1      1774 7.67282E-15-1.25307E+02 5.19545E+00
 -1      1775 7.67282E-15-1.25307E+02 6.92727E+00
 -1      1776 7.67282E-15-1.25307E+02 8.65909E+00
 -1      1777 7.67282E-15-1.25307E+02 1.03909E+01
 -1      1778 7.67282E-15-1.25307E+02 1.21227E+01
 -1      1779 7.67282E-15-1.25307E+02 1.38545E+01
 -1      1780 7.67282E-15-1.25307E+02 1.55864E+01
 -1      1781 7.67282E-15-1.25307E+02 1.73182E+01
 -1      1782 7.46545E-15-1.21920E+02 1.73182E+00
 -1      1783 7.46545E-15-1.21920E+02 3.46364E+00
 -1      1784 7.46545E-15-1.21920E+02 5.19545E+00
 -1      1785 7.46545E-15-1.21920E+02 6.92727E+00
 -1      1786 7.46545E-15-1.21920E+02 8.65909E+00
 -1      1787 7.46545E-15-1.21920E+02 1.03909E+01
 -1      1788 7.46545E-15-1.21920E+02 1.21227E+01
 -1      1789 7.46545E-15-1.21920E+02 1.38545E+01
 -1      1790 7.46545E-15-1.21920E+02 1.55864E+01
 -1      1791 7.46545E-15-1.21920E+02 1.73182E+01
 -1      1792 7.25807E-15-1.18533E+02 1.73182E+00
 -1      1793 7.25807E-15-1.18533E+02 3.46364E+00
 -1      1794 7.25807E-15-1.18533E+02 5.19545E+00
 -1      1795 7.25807E-15-1.18533E+02 6.92727E+00
 -1      1796 7.25807E-15-1.18533E+02 8.65909E+00
 -1      1797 7.25807E-15-1.18533E+02 1.03909E+01
 -1      1798 7.25807E-15-1.18533E+02 1.21227E+01
 -1      1799 7.25807E-15-1.18533E+02 1.38545E+01
 -1      1800 7.25807E-15-1.18533E+02 1.55864E+01
 -1      1801 7.25807E-15-1.18533E+02 1.73182E+01
 -1      1802 7.05070E-15-1.15147E+02 1.73182E+00
 -1      1803 7.05070E-15-1.15147E+02 3.46364E+00
 -1      1804 7.05070E-15-1.15147E+02 5.19545E+00
 -1      1805 7.05070E-15-1.15147E+02 6.92727E+00
 -1      1806 7.05070E-15-1.15147E+02 8.65909E+00
 -1      1807 7.05070E-15-1.15147E+02 1.03909E+01
 -1      1808 7.05070E-15-1.15147E+02 1.21227E+01
 -1      1809 7.05070E-15-1.15147E+02 1.38545E+01
 -1      1810 7.05070E-15-1.15147E+02 1.55864E+01
 -1      1811 7.05070E-15-1.15147E+02 1.73182E+01
 -1      1812 6.84333E-15-1.11760E+02 1.73182E+00
 -1      1813 6.84333E-15-1.11760E+02 3.46364E+00
 -1      1814 6.84333E-15-1.11760E+02 5.19545E+00
 -1      1815 6.84333E-15-1.11760E+02 6.92727E+00
 -1      1816 6.84333E-15-1.11760E+02 8.65909E+00
 -1      1817 6.84333E-15-1.11760E+02 1.03909E+01
 -1      1818 6.84333E-15-1.11760E+02 1.21227E+01
 -1      1819 6.84333E-15-1.11760E+02 1.38545E+01
 -1      1820 6.84333E-15-1.11760E+02 1.55864E+01
 -1      1821 6.84333E-15-1.11760E+02 1.73182E+01
 -1      1822 6.63595E-15-1.08373E+02 1.73182E+00
 -1      1823 6.63595E-15-1.08373E+02 3.46364E+00
 -1      1824 6.63595E-15-1.08373E+02 5.19545E+00
 -1      1825 6.63595E-15-1.08373E+02 6.92727E+00
 -1      1826 6.63595E-15-1.08373E+02 8.65909E+00
 -1      1827 6.63595E-15-1.08373E+02 1.03909E+01
 -1      1828 6.63595E-15-1.08373E+02 1.21227E+01
 -1      1829 6.63595E-15-1.08373E+02 1.38545E+01
 -1      1830 6.63595E-15-1.08373E+02 1.55864E+01
 -1      1831 6.63595E-15-1.08373E+02 1.73182E+01
 -1      1832 6.42858E-15-1.04987E+02 1.73182E+00
 -1      1833 6.42858E-15-1.04987E+02 3.46364E+00
 -1      1834 6.42858E-15-1.04987E+02 5.19545E+00
 -1      1835 6.42858E-15-1.04987E+02 6.92727E+00
 -1      1836 6.42858E-15-1.04987E+02 8.65909E+00
 -1      1837 6.42858E-15-1.04987E+02 1.03909E+01
 -1      1838 6.42858E-15-1.04987E+02 1.21227E+01
 -1      1839 6.42858E-15-1.04987E+02 1.38545E+01
 -1      1840 6.42858E-15-1.04987E+02 1.55864E+01
 -1      1841 6.42858E-15-1.04987E+02 1.73182E+01
 -1      1842 6.22121E-15-1.01600E+02 1.73182E+00
 -1      1843 6.22121E-15-1.01600E+02 3.46364E+00
 -1      1844 6.22121E-15-1.01600E+02 5.19545E+00
 -1      1845 6.22121E-15-1.01600E+02 6.92727E+00
 -1      1846 6.22121E-15-1.01600E+02 8.65909E+00
 -1      1847 6.22121E-15-1.01600E+02 1.03909E+01
 -1      1848 6.22121E-15-1.01600E+02 1.21227E+01
 -1      1849 6.22121E-15-1.01600E+02 1.38545E+01
 -1      1850 6.22121E-15-1.01600E+02 1.55864E+01
 -1      1851 6.22121E-15-1.01600E+02 1.73182E+01
 -1      1852 6.01383E-15-9.82133E+01 1.73182E+00
 -1      1853 6.01383E-15-9.82133E+01 3.46364E+00
 -1      1854 6.01383E-15-9.82133E+01 5.19545E+00
 -1      1855 6.01383E-15-9.82133E+01 6.92727E+00
 -1      1856 6.01383E-15-9.82133E+01 8.65909E+00
 -1      1857 6.01383E-15-9.82133E+01 1.03909E+01
 -1      1858 6.01383E-15-9.82133E+01 1.21227E+01
 -1      1859 6.01383E-15-9.82133E+01 1.38545E+01
 -1      1860 6.01383E-15-9.82133E+01 1.55864E+01
 -1      1861 6.01383E-15-9.82133E+01 1.73182E+01
 -1      1862 5.80646E-15-9.48267E+01 1.73182E+00
 -1      1863 5.80646E-15-9.48267E+01 3.46364E+00
 -1      1864 5.80646E-15-9.48267E+01 5.19545E+00
 -1      1865 5.80646E-15-9.48267E+01 6.92727E+00
 -1      1866 5.80646E-15-9.48267E+01 8.65909E+00
 -1      1867 5.80646E-15-9.48267E+01 1.03909E+01
 -1      1868 5.80646E-15-9.48267E+01 1.21227E+01
 -1      1869 5.80646E-15-9.48267E+01 1.38545E+01
 -1      1870 5.80646E-15-9.48267E+01 1.55864E+01
 -1      1871 5.80646E-15-9.48267E+01 1.73182E+01
 -1      1872 5.59909E-15-9.14400E+01 1.73182E+00
 -1      1873 5.59909E-15-9.14400E+01 3.46364E+00
 -1      1874 5.59909E-15-9.14400E+01 5.19545E+00
 -1      1875 5.59909E-15-9.14400E+01 6.92727E+00
 -1      1876 5.59909E-15-9.14400E+01 8.65909E+00
 -1      1877 5.59909E-15-9.14400E+01 1.03909E+01
 -1      1878 5.59909E-15-9.14400E+01 1.21227E+01
 -1      1879 5.59909E-15-9.14400E+01 1.38545E+01
 -1      1880 5.59909E-15-9.14400E+01 1.55864E+01
 -1      1881 5.59909E-15-9.14400E+01 1.73182E+01
 -1      1882 5.39171E-15-8.80533E+01 1.73182E+00
 -1      1883 5.39171E-15-8.80533E+01 3.46364E+00
 -1      1884 5.39171E-15-8.80533E+01 5.19545E+00
 -1      1885 5.39171E-15-8.80533E+01 6.92727E+00
 -1      1886 5.39171E-15-8.80533E+01 8.65909E+00
 -1      1887 5.39171E-15-8.80533E+01 1.03909E+01
 -1      1888 5.39171E-15-8.80533E+01 1.21227E+01
 -1      1889 5.39171E-15-8.80533E+01 1.38545E+01
 -1      1890 5.39171E-15-8.80533E+01 1.55864E+01
 -1      1891 5.39171E-15-8.80533E+01 1.73182E+01
 -1      1892 5.18434E-15-8.46667E+01 1.73182E+00
 -1      1893 5.18434E-15-8.46667E+01 3.46364E+00
 -1      1894 5.18434E-15-8.46667E+01 5.19545E+00
 -1      1895 5.18434E-15-8.46667E+01 6.92727E+00
 -1      1896 5.18434E-15-8.46667E+01 8.65909E+00
 -1      1897 5.18434E-15-8.46667E+01 1.03909E+01
 -1      1898 5.18434E-15-8.46667E+01 1.21227E+01
 -1      1899 5.18434E-15-8.46667E+01 1.38545E+01
 -1      1900 5.18434E-15-8.46667E+01 1.55864E+01
 -1      1901 5.18434E-15-8.46667E+01 1.73182E+01
 -1      1902 4.97696E-15-8.12800E+01 1.73182E+00
 -1      1903 4.97696E-15-8.12800E+01 3.46364E+00
 -1      1904 4.97696E-15-8.12800E+01 5.19545E+00
 -1      1905 4.97696E-15-8.12800E+01 6.92727E+00
 -1      1906 4.97696E-15-8.12800E+01 8.65909E+00
 -1      1907 4.97696E-15-8.12800E+01 1.03909E+01
 -1      1908 4.97696E-15-8.12800E+01 1.21227E+01
 -1      1909 4.97696E-15-8.12800E+01 1.38545E+01
 -1      1910 4.97696E-15-8.12800E+01 1.55864E+01
 -1      1911 4.97696E-15-8.12800E+01 1.73182E+01
 -1      1912 4.76959E-15-7.78933E+01 1.73182E+00
 -1      1913 4.76959E-15-7.78933E+01 3.46364E+00
 -1      1914 4.76959E-15-7.78933E+01 5.19545E+00
 -1      1915 4.76959E-15-7.78933E+01 6.92727E+00
 -1      1916 4.76959E-15-7.78933E+01 8.65909E+00
 -1      1917 4.76959E-15-7.78933E+01 1.03909E+01
 -1      1918 4.76959E-15-7.78933E+01 1.21227E+01
 -1      1919 4.76959E-15-7.78933E+01 1.38545E+01
 -1      1920 4.76959E-15-7.78933E+01 1.55864E+01
 -1      1921 4.76959E-15-7.78933E+01 1.73182E+01
 -1      1922 4.56222E-15-7.45067E+01 1.73182E+00
 -1      1923 4.56222E-15-7.45067E+01 3.46364E+00
 -1      1924 4.56222E-15-7.45067E+01 5.19545E+00
 -1      1925 4.56222E-15-7.45067E+01 6.92727E+00
 -1      1926 4.56222E-15-7.45067E+01 8.65909E+00
 -1      1927 4.56222E-15-7.45067E+01 1.03909E+01
 -1      1928 4.56222E-15-7.45067E+01 1.21227E+01
 -1      1929 4.56222E-15-7.45067E+01 1.38545E+01
 -1      1930 4.56222E-15-7.45067E+01 1.55864E+01
 -1      1931 4.56222E-15-7.45067E+01 1.73182E+01
 -1      1932 4.35484E-15-7.11200E+01 1.73182E+00
 -1      1933 4.35484E-15-7.11200E+01 3.46364E+00
 -1      1934 4.35484E-15-7.11200E+01 5.19545E+00
 -1      1935 4.35484E-15-7.11200E+01 6.92727E+00
 -1      1936 4.35484E-15-7.11200E+01 8.65909E+00
 -1      1937 4.35484E-15-7.11200E+01 1.03909E+01
 -1      1938 4.35484E-15-7.11200E+01 1.21227E+01
 -1      1939 4.35484E-15-7.11200E+01 1.38545E+01
 -1      1940 4.35484E-15-7.11200E+01 1.55864E+01
 -1      1941 4.35484E-15-7.11200E+01 1.73182E+01
 -1      1942 4.14747E-15-6.77333E+01 1.73182E+00
 -1      1943 4.14747E-15-6.77333E+01 3.46364E+00
 -1      1944 4.14747E-15-6.77333E+01 5.19545E+00
 -1      1945 4.14747E-15-6.77333E+01 6.92727E+00
 -1      1946 4.14747E-15-6.77333E+01 8.65909E+00
 -1      1947 4.14747E-15-6.77333E+01 1.03909E+01
 -1      1948 4.14747E-15-6.77333E+01 1.21227E+01
 -1      1949 4.14747E-15-6.77333E+01 1.38545E+01
 -1      1950 4.14747E-15-6.77333E+01 1.55864E+01
 -1      1951 4.14747E-15-6.77333E+01 1.73182E+01
 -1      1952 3.94010E-15-6.43467E+01 1.73182E+00
 -1      1953 3.94010E-15-6.43467E+01 3.46364E+00
 -1      1954 3.94010E-15-6.43467E+01 5.19545E+00
 -1      1955 3.94010E-15-6.43467E+01 6.92727E+00
 -1      1956 3.94010E-15-6.43467E+01 8.65909E+00
 -1      1957 3.94010E-15-6.43467E+01 1.03909E+01
 -1      1958 3.94010E-15-6.43467E+01 1.21227E+01
 -1      1959 3.94010E-15-6.43467E+01 1.38545E+01
 -1      1960 3.94010E-15-6.43467E+01 1.55864E+01
 -1      1961 3.94010E-15-6.43467E+01 1.73182E+01
 -1      1962 3.73272E-15-6.09600E+01 1.73182E+00
 -1      1963 3.73272E-15-6.09600E+01 3.46364E+00
 -1      1964 3.73272E-15-6.09600E+01 5.19545E+00
 -1      1965 3.73272E-15-6.09600E+01 6.92727E+00
 -1      1966 3.73272E-15-6.09600E+01 8.65909E+00
 -1      1967 3.73272E-15-6.09600E+01 1.03909E+01
 -1      1968 3.73272E-15-6.09600E+01 1.21227E+01
 -1      1969 3.73272E-15-6.09600E+01 1.38545E+01
 -1      1970 3.73272E-15-6.09600E+01 1.55864E+01
 -1      1971 3.73272E-15-6.09600E+01 1.73182E+01
 -1      1972 3.52535E-15-5.75733E+01 1.73182E+00
 -1      1973 3.52535E-15-5.75733E+01 3.46364E+00
 -1      1974 3.52535E-15-5.75733E+01 5.19545E+00
 -1      1975 3.52535E-15-5.75733E+01 6.92727E+00
 -1      1976 3.52535E-15-5.75733E+01 8.65909E+00
 -1      1977 3.52535E-15-5.75733E+01 1.03909E+01
 -1      1978 3.52535E-15-5.75733E+01 1.21227E+01
 -1      1979 3.52535E-15-5.75733E+01 1.38545E+01
 -1      1980 3.52535E-15-5.75733E+01 1.55864E+01
 -1      1981 3.52535E-15-5.75733E+01 1.73182E+01
 -1      1982 3.31798E-15-5.41867E+01 1.73182E+00
 -1      1983 3.31798E-15-5.41867E+01 3.46364E+00
 -1      1984 3.31798E-15-5.41867E+01 5.19545E+00
 -1      1985 3.31798E-15-5.41867E+01 6.92727E+00
 -1      1986 3.31798E-15-5.41867E+01 8.65909E+00
 -1      1987 3.31798E-15-5.41867E+01 1.03909E+01
 -1      1988 3.31798E-15-5.41867E+01 1.21227E+01
 -1      1989 3.31798E-15-5.41867E+01 1.38545E+01
 -1      1990 3.31798E-15-5.41867E+01 1.55864E+01
 -1      1991 3.31798E-15-5.41867E+01 1.73182E+01
 -1      1992 2.65867E+00-5.07304E+01 1.73182E+00
 -1      1993 2.65867E+00-5.07304E+01 3.46364E+00
 -1      1994 2.65867E+00-5.07304E+01 5.19545E+00
 -1      1995 2.65867E+00-5.07304E+01 6.92727E+00
 -1      1996 2.65867E+00-5.07304E+01 8.65909E+00
 -1      1997 2.65867E+00-5.07304E+01 1.03909E+01
 -1      1998 2.65867E+00-5.07304E+01 1.21227E+01
 -1      1999 2.65867E+00-5.07304E+01 1.38545E+01
 -1      2000 2.65867E+00-5.07304E+01 1.55864E+01
 -1      2001 2.65867E+00-5.07304E+01 1.73182E+01
 -1      2002 5.31005E+00-5.05217E+01 1.73182E+00
 -1      2003 5.31005E+00-5.05217E+01 3.46364E+00
 -1      2004 5.31005E+00-5.05217E+01 5.19545E+00
 -1      2005 5.31005E+00-5.05217E+01 6.92727E+00
 -1      2006 5.31005E+00-5.05217E+01 8.65909E+00
 -1      2007 5.31005E+00-5.05217E+01 1.03909E+01
 -1      2008 5.31005E+00-5.05217E+01 1.21227E+01
 -1      2009 5.31005E+00-5.05217E+01 1.38545E+01
 -1      2010 5.31005E+00-5.05217E+01 1.55864E+01
 -1      2011 5.31005E+00-5.05217E+01 1.73182E+01
 -1      2012 7.94687E+00-5.01746E+01 1.73182E+00
 -1      2013 7.94687E+00-5.01746E+01 3.46364E+00
 -1      2014 7.94687E+00-5.01746E+01 5.19545E+00
 -1      2015 7.94687E+00-5.01746E+01 6.92727E+00
 -1      2016 7.94687E+00-5.01746E+01 8.65909E+00
 -1      2017 7.94687E+00-5.01746E+01 1.03909E+01
 -1      2018 7.94687E+00-5.01746E+01 1.21227E+01
 -1      2019 7.94687E+00-5.01746E+01 1.38545E+01
 -1      2020 7.94687E+00-5.01746E+01 1.55864E+01
 -1      2021 7.94687E+00-5.01746E+01 1.73182E+01
 -1      2022 1.05619E+01-4.96899E+01 1.73182E+00
 -1      2023 1.05619E+01-4.96899E+01 3.46364E+00
 -1      2024 1.05619E+01-4.96899E+01 5.19545E+00
 -1      2025 1.05619E+01-4.96899E+01 6.92727E+00
 -1      2026 1.05619E+01-4.96899E+01 8.65909E+00
 -1      2027 1.05619E+01-4.96899E+01 1.03909E+01
 -1      2028 1.05619E+01-4.96899E+01 1.21227E+01
 -1      2029 1.05619E+01-4.96899E+01 1.38545E+01
 -1      2030 1.05619E+01-4.96899E+01 1.55864E+01
 -1      2031 1.05619E+01-4.96899E+01 1.73182E+01
 -1      2032 1.31480E+01-4.90690E+01 1.73182E+00
 -1      2033 1.31480E+01-4.90690E+01 3.46364E+00
 -1      2034 1.31480E+01-4.90690E+01 5.19545E+00
 -1      2035 1.31480E+01-4.90690E+01 6.92727E+00
 -1      2036 1.31480E+01-4.90690E+01 8.65909E+00
 -1      2037 1.31480E+01-4.90690E+01 1.03909E+01
 -1      2038 1.31480E+01-4.90690E+01 1.21227E+01
 -1      2039 1.31480E+01-4.90690E+01 1.38545E+01
 -1      2040 1.31480E+01-4.90690E+01 1.55864E+01
 -1      2041 1.31480E+01-4.90690E+01 1.73182E+01
 -1      2042 1.56981E+01-4.83137E+01 1.73182E+00
 -1      2043 1.56981E+01-4.83137E+01 3.46364E+00
 -1      2044 1.56981E+01-4.83137E+01 5.19545E+00
 -1      2045 1.56981E+01-4.83137E+01 6.92727E+00
 -1      2046 1.56981E+01-4.83137E+01 8.65909E+00
 -1      2047 1.56981E+01-4.83137E+01 1.03909E+01
 -1      2048 1.56981E+01-4.83137E+01 1.21227E+01
 -1      2049 1.56981E+01-4.83137E+01 1.38545E+01
 -1      2050 1.56981E+01-4.83137E+01 1.55864E+01
 -1      2051 1.56981E+01-4.83137E+01 1.73182E+01
 -1      2052 1.82051E+01-4.74259E+01 1.73182E+00
 -1      2053 1.82051E+01-4.74259E+01 3.46364E+00
 -1      2054 1.82051E+01-4.74259E+01 5.19545E+00
 -1      2055 1.82051E+01-4.74259E+01 6.92727E+00
 -1      2056 1.82051E+01-4.74259E+01 8.65909E+00
 -1      2057 1.82051E+01-4.74259E+01 1.03909E+01
 -1      2058 1.82051E+01-4.74259E+01 1.21227E+01
 -1      2059 1.82051E+01-4.74259E+01 1.38545E+01
 -1      2060 1.82051E+01-4.74259E+01 1.55864E+01
 -1      2061 1.82051E+01-4.74259E+01 1.73182E+01
 -1      2062 2.06622E+01-4.64081E+01 1.73182E+00
 -1      2063 2.06622E+01-4.64081E+01 3.46364E+00
 -1      2064 2.06622E+01-4.64081E+01 5.19545E+00
 -1      2065 2.06622E+01-4.64081E+01 6.92727E+00
 -1      2066 2.06622E+01-4.64081E+01 8.65909E+00
 -1      2067 2.06622E+01-4.64081E+01 1.03909E+01
 -1      2068 2.06622E+01-4.64081E+01 1.21227E+01
 -1      2069 2.06622E+01-4.64081E+01 1.38545E+01
 -1      2070 2.06622E+01-4.64081E+01 1.55864E+01
 -1      2071 2.06622E+01-4.64081E+01 1.73182E+01
 -1      2072 2.30627E+01-4.52631E+01 1.73182E+00
 -1      2073 2.30627E+01-4.52631E+01 3.46364E+00
 -1      2074 2.30627E+01-4.52631E+01 5.19545E+00
 -1      2075 2.30627E+01-4.52631E+01 6.92727E+00
 -1      2076 2.30627E+01-4.52631E+01 8.65909E+00
 -1      2077 2.30627E+01-4.52631E+01 1.03909E+01
 -1      2078 2.30627E+01-4.52631E+01 1.21227E+01
 -1      2079 2.30627E+01-4.52631E+01 1.38545E+01
 -1      2080 2.30627E+01-4.52631E+01 1.55864E+01
 -1      2081 2.30627E+01-4.52631E+01 1.73182E+01
 -1      2082 2.54000E+01-4.39941E+01 1.73182E+00
 -1      2083 2.54000E+01-4.39941E+01 3.46364E+00
 -1      2084 2.54000E+01-4.39941E+01 5.19545E+00
 -1      2085 2.54000E+01-4.39941E+01 6.92727E+00
 -1      2086 2.54000E+01-4.39941E+01 8.65909E+00
 -1      2087 2.54000E+01-4.39941E+01 1.03909E+01
 -1      2088 2.54000E+01-4.39941E+01 1.21227E+01
 -1      2089 2.54000E+01-4.39941E+01 1.38545E+01
 -1      2090 2.54000E+01-4.39941E+01 1.55864E+01
 -1      2091 2.54000E+01-4.39941E+01 1.73182E+01
 -1      2092 2.76677E+01-4.26045E+01 1.73182E+00
 -1      2093 2.76677E+01-4.26045E+01 3.46364E+00
 -1      2094 2.76677E+01-4.26045E+01 5.19545E+00
 -1      2095 2.76677E+01-4.26045E+01 6.92727E+00
 -1      2096 2.76677E+01-4.26045E+01 8.65909E+00
 -1      2097 2.76677E+01-4.26045E+01 1.03909E+01
 -1      2098 2.76677E+01-4.26045E+01 1.21227E+01
 -1      2099 2.76677E+01-4.26045E+01 1.38545E+01
 -1      2100 2.76677E+01-4.26045E+01 1.55864E+01
 -1      2101 2.76677E+01-4.26045E+01 1.73182E+01
 -1      2102 2.98595E+01-4.10981E+01 1.73182E+00
 -1      2103 2.98595E+01-4.10981E+01 3.46364E+00
 -1      2104 2.98595E+01-4.10981E+01 5.19545E+00
 -1      2105 2.98595E+01-4.10981E+01 6.92727E+00
 -1      2106 2.98595E+01-4.10981E+01 8.65909E+00
 -1      2107 2.98595E+01-4.10981E+01 1.03909E+01
 -1      2108 2.98595E+01-4.10981E+01 1.21227E+01
 -1      2109 2.98595E+01-4.10981E+01 1.38545E+01
 -1      2110 2.98595E+01-4.10981E+01 1.55864E+01
 -1      2111 2.98595E+01-4.10981E+01 1.73182E+01
 -1      2112 3.19695E+01-3.94790E+01 1.73182E+00
 -1      2113 3.19695E+01-3.94790E+01 3.46364E+00
 -1      2114 3.19695E+01-3.94790E+01 5.19545E+00
 -1      2115 3.19695E+01-3.94790E+01 6.92727E+00
 -1      2116 3.19695E+01-3.94790E+01 8.65909E+00
 -1      2117 3.19695E+01-3.94790E+01 1.03909E+01
 -1      2118 3.19695E+01-3.94790E+01 1.21227E+01
 -1      2119 3.19695E+01-3.94790E+01 1.38545E+01
 -1      2120 3.19695E+01-3.94790E+01 1.55864E+01
 -1      2121 3.19695E+01-3.94790E+01 1.73182E+01
 -1      2122 3.39918E+01-3.77518E+01 1.73182E+00
 -1      2123 3.39918E+01-3.77518E+01 3.46364E+00
 -1      2124 3.39918E+01-3.77518E+01 5.19545E+00
 -1      2125 3.39918E+01-3.77518E+01 6.92727E+00
 -1      2126 3.39918E+01-3.77518E+01 8.65909E+00
 -1      2127 3.39918E+01-3.77518E+01 1.03909E+01
 -1      2128 3.39918E+01-3.77518E+01 1.21227E+01
 -1      2129 3.39918E+01-3.77518E+01 1.38545E+01
 -1      2130 3.39918E+01-3.77518E+01 1.55864E+01
 -1      2131 3.39918E+01-3.77518E+01 1.73182E+01
 -1      2132 3.59210E+01-3.59210E+01 1.73182E+00
 -1      2133 3.59210E+01-3.59210E+01 3.46364E+00
 -1      2134 3.59210E+01-3.59210E+01 5.19545E+00
 -1      2135 3.59210E+01-3.59210E+01 6.92727E+00
 -1      2136 3.59210E+01-3.59210E+01 8.65909E+00
 -1      2137 3.59210E+01-3.59210E+01 1.03909E+01
 -1      2138 3.59210E+01-3.59210E+01 1.21227E+01
 -1      2139 3.59210E+01-3.59210E+01 1.38545E+01
 -1      2140 3.59210E+01-3.59210E+01 1.55864E+01
 -1      2141 3.59210E+01-3.59210E+01 1.73182E+01
 -1      2142 3.77518E+01-3.39918E+01 1.73182E+00
 -1      2143 3.77518E+01-3.39918E+01 3.46364E+00
 -1      2144 3.77518E+01-3.39918E+01 5.19545E+00
 -1      2145 3.77518E+01-3.39918E+01 6.92727E+00
 -1      2146 3.77518E+01-3.39918E+01 8.65909E+00
 -1      2147 3.77518E+01-3.39918E+01 1.03909E+01
 -1      2148 3.77518E+01-3.39918E+01 1.21227E+01
 -1      2149 3.77518E+01-3.39918E+01 1.38545E+01
 -1      2150 3.77518E+01-3.39918E+01 1.55864E+01
 -1      2151 3.77518E+01-3.39918E+01 1.73182E+01
 -1      2152 3.94790E+01-3.19695E+01 1.73182E+00
 -1      2153 3.94790E+01-3.19695E+01 3.46364E+00
 -1      2154 3.94790E+01-3.19695E+01 5.19545E+00
 -1      2155 3.94790E+01-3.19695E+01 6.92727E+00
 -1      2156 3.94790E+01-3.19695E+01 8.65909E+00
 -1      2157 3.94790E+01-3.19695E+01 1.03909E+01
 -1      2158 3.94790E+01-3.19695E+01 1.21227E+01
 -1      2159 3.94790E+01-3.19695E+01 1.38545E+01
 -1      2160 3.94790E+01-3.19695E+01 1.55864E+01
 -1      2161 3.94790E+01-3.19695E+01 1.73182E+01
 -1      2162 4.10981E+01-2.98595E+01 1.73182E+00
 -1      2163 4.10981E+01-2.98595E+01 3.46364E+00
 -1      2164 4.10981E+01-2.98595E+01 5.19545E+00
 -1      2165 4.10981E+01-2.98595E+01 6.92727E+00
 -1      2166 4.10981E+01-2.98595E+01 8.65909E+00
 -1      2167 4.10981E+01-2.98595E+01 1.03909E+01
 -1      2168 4.10981E+01-2.98595E+01 1.21227E+01
 -1      2169 4.10981E+01-2.98595E+01 1.38545E+01
 -1      2170 4.10981E+01-2.98595E+01 1.55864E+01
 -1      2171 4.10981E+01-2.98595E+01 1.73182E+01
 -1      2172 4.26045E+01-2.76677E+01 1.73182E+00
 -1      2173 4.26045E+01-2.76677E+01 3.46364E+00
 -1      2174 4.26045E+01-2.76677E+01 5.19545E+00
 -1      2175 4.26045E+01-2.76677E+01 6.92727E+00
 -1      2176 4.26045E+01-2.76677E+01 8.65909E+00
 -1      2177 4.26045E+01-2.76677E+01 1.03909E+01
 -1      2178 4.26045E+01-2.76677E+01 1.21227E+01
 -1      2179 4.26045E+01-2.76677E+01 1.38545E+01
 -1      2180 4.26045E+01-2.76677E+01 1.55864E+01
 -1      2181 4.26045E+01-2.76677E+01 1.73182E+01
 -1      2182 4.39941E+01-2.54000E+01 1.73182E+00
 -1      2183 4.39941E+01-2.54000E+01 3.46364E+00
 -1      2184 4.39941E+01-2.54000E+01 5.19545E+00
 -1      2185 4.39941E+01-2.54000E+01 6.92727E+00
 -1      2186 4.39941E+01-2.54000E+01 8.65909E+00
 -1      2187 4.39941E+01-2.54000E+01 1.03909E+01
 -1      2188 4.39941E+01-2.54000E+01 1.21227E+01
 -1      2189 4.39941E+01-2.54000E+01 1.38545E+01
 -1      2190 4.39941E+01-2.54000E+01 1.55864E+01
 -1      2191 4.39941E+01-2.54000E+01 1.73182E+01
 -1      2192 4.52631E+01-2.30627E+01 1.73182E+00
 -1      2193 4.52631E+01-2.30627E+01 3.46364E+00
 -1      2194 4.52631E+01-2.30627E+01 5.19545E+00
 -1      2195 4.52631E+01-2.30627E+01 6.92727E+00
 -1      2196 4.52631E+01-2.30627E+01 8.65909E+00
 -1      2197 4.52631E+01-2.30627E+01 1.03909E+01
 -1      2198 4.52631E+01-2.30627E+01 1.21227E+01
 -1      2199 4.52631E+01-2.30627E+01 1.38545E+01
 -1      2200 4.52631E+01-2.30627E+01 1.55864E+01
 -1      2201 4.52631E+01-2.30627E+01 1.73182E+01
 -1      2202 4.64081E+01-2.06622E+01 1.73182E+00
 -1      2203 4.64081E+01-2.06622E+01 3.46364E+00
 -1      2204 4.64081E+01-2.06622E+01 5.19545E+00
 -1      2205 4.64081E+01-2.06622E+01 6.92727E+00
 -1      2206 4.64081E+01-2.06622E+01 8.65909E+00
 -1      2207 4.64081E+01-2.06622E+01 1.03909E+01
 -1      2208 4.64081E+01-2.06622E+01 1.21227E+01
 -1      2209 4.64081E+01-2.06622E+01 1.38545E+01
 -1      2210 4.64081E+01-2.06622E+01 1.55864E+01
 -1      2211 4.64081E+01-2.06622E+01 1.73182E+01
 -1      2212 4.74259E+01-1.82051E+01 1.73182E+00
 -1      2213 4.74259E+01-1.82051E+01 3.46364E+00
 -1      2214 4.74259E+01-1.82051E+01 5.19545E+00
 -1      2215 4.74259E+01-1.82051E+01 6.92727E+00
 -1      2216 4.74259E+01-1.82051E+01 8.65909E+00
 -1      2217 4.74259E+01-1.82051E+01 1.03909E+01
 -1      2218 4.74259E+01-1.82051E+01 1.21227E+01
 -1      2219 4.74259E+01-1.82051E+01 1.38545E+01
 -1      2220 4.74259E+01-1.82051E+01 1.55864E+01
 -1      2221 4.74259E+01-1.82051E+01 1.73182E+01
 -1      2222 4.83137E+01-1.56981E+01 1.73182E+00
 -1      2223 4.83137E+01-1.56981E+01 3.46364E+00
 -1      2224 4.83137E+01-1.56981E+01 5.19545E+00
 -1      2225 4.83137E+01-1.56981E+01 6.92727E+00
 -1      2226 4.83137E+01-1.56981E+01 8.65909E+00
 -1      2227 4.83137E+01-1.56981E+01 1.03909E+01
 -1      2228 4.83137E+01-1.56981E+01 1.21227E+01
 -1      2229 4.83137E+01-1.56981E+01 1.38545E+01
 -1      2230 4.83137E+01-1.56981E+01 1.55864E+01
 -1      2231 4.83137E+01-1.56981E+01 1.73182E+01
 -1      2232 4.90690E+01-1.31480E+01 1.73182E+00
 -1      2233 4.90690E+01-1.31480E+01 3.46364E+00
 -1      2234 4.90690E+01-1.31480E+01 5.19545E+00
 -1      2235 4.90690E+01-1.31480E+01 6.92727E+00
 -1      2236 4.90690E+01-1.31480E+01 8.65909E+00
 -1      2237 4.90690E+01-1.31480E+01 1.03909E+01
 -1      2238 4.90690E+01-1.31480E+01 1.21227E+01
 -1      2239 4.90690E+01-1.31480E+01 1.38545E+01
 -1      2240 4.90690E+01-1.31480E+01 1.55864E+01
 -1      2241 4.90690E+01-1.31480E+01 1.73182E+01
 -1      2242 4.96899E+01-1.05619E+01 1.73182E+00
 -1      2243 4.96899E+01-1.05619E+01 3.46364E+00
 -1      2244 4.96899E+01-1.05619E+01 5.19545E+00
 -1      2245 4.96899E+01-1.05619E+01 6.92727E+00
 -1      2246 4.96899E+01-1.05619E+01 8.65909E+00
 -1      2247 4.96899E+01-1.05619E+01 1.03909E+01
 -1      2248 4.96899E+01-1.05619E+01 1.21227E+01
 -1      2249 4.96899E+01-1.05619E+01 1.38545E+01
 -1      2250 4.96899E+01-1.05619E+01 1.55864E+01
 -1      2251 4.96899E+01-1.05619E+01 1.73182E+01
 -1      2252 5.01746E+01-7.94687E+00 1.73182E+00
 -1      2253 5.01746E+01-7.94687E+00 3.46364E+00
 -1      2254 5.01746E+01-7.94687E+00 5.19545E+00
 -1      2255 5.01746E+01-7.94687E+00 6.92727E+00
 -1      2256 5.01746E+01-7.94687E+00 8.65909E+00
 -1      2257 5.01746E+01-7.94687E+00 1.03909E+01
 -1      2258 5.01746E+01-7.94687E+00 1.21227E+01
 -1      2259 5.01746E+01-7.94687E+00 1.38545E+01
 -1      2260 5.01746E+01-7.94687E+00 1.55864E+01
 -1      2261 5.01746E+01-7.94687E+00 1.73182E+01
 -1      2262 5.05217E+01-5.31005E+00 1.73182E+00
 -1      2263 5.05217E+01-5.31005E+00 3.46364E+00
 -1      2264 5.05217E+01-5.31005E+00 5.19545E+00
 -1      2265 5.05217E+01-5.31005E+00 6.92727E+00
 -1      2266 5.05217E+01-5.31005E+00 8.65909E+00
 -1      2267 5.05217E+01-5.31005E+00 1.03909E+01
 -1      2268 5.05217E+01-5.31005E+00 1.21227E+01
 -1      2269 5.05217E+01-5.31005E+00 1.38545E+01
 -1      2270 5.05217E+01-5.31005E+00 1.55864E+01
 -1      2271 5.05217E+01-5.31005E+00 1.73182E+01
 -1      2272 5.07304E+01-2.65867E+00 1.73182E+00
 -1      2273 5.07304E+01-2.65867E+00 3.46364E+00
 -1      2274 5.07304E+01-2.65867E+00 5.19545E+00
 -1      2275 5.07304E+01-2.65867E+00 6.92727E+00
 -1      2276 5.07304E+01-2.65867E+00 8.65909E+00
 -1      2277 5.07304E+01-2.65867E+00 1.03909E+01
 -1      2278 5.07304E+01-2.65867E+00 1.21227E+01
 -1      2279 5.07304E+01-2.65867E+00 1.38545E+01
 -1      2280 5.07304E+01-2.65867E+00 1.55864E+01
 -1      2281 5.07304E+01-2.65867E+00 1.73182E+01
 -1      2282 5.41124E+01-2.83591E+00 1.90500E+01
 -1      2283 5.38898E+01-5.66405E+00 1.90500E+01
 -1      2284 5.35195E+01-8.47666E+00 1.90500E+01
 -1      2285 5.30026E+01-1.12660E+01 1.90500E+01
 -1      2286 5.23403E+01-1.40245E+01 1.90500E+01
 -1      2287 5.15346E+01-1.67446E+01 1.90500E+01
 -1      2288 5.05876E+01-1.94188E+01 1.90500E+01
 -1      2289 4.95020E+01-2.20397E+01 1.90500E+01
 -1      2290 4.82807E+01-2.46002E+01 1.90500E+01
 -1      2291 4.69270E+01-2.70933E+01 1.90500E+01
 -1      2292 4.54448E+01-2.95122E+01 1.90500E+01
 -1      2293 4.38379E+01-3.18501E+01 1.90500E+01
 -1      2294 4.21110E+01-3.41008E+01 1.90500E+01
 -1      2295 4.02685E+01-3.62580E+01 1.90500E+01
 -1      2296 3.83158E+01-3.83158E+01 1.90500E+01
 -1      2297 3.62580E+01-4.02685E+01 1.90500E+01
 -1      2298 3.41008E+01-4.21110E+01 1.90500E+01
 -1      2299 3.18501E+01-4.38379E+01 1.90500E+01
 -1      2300 2.95122E+01-4.54448E+01 1.90500E+01
 -1      2301 2.70933E+01-4.69270E+01 1.90500E+01
 -1      2302 2.46002E+01-4.82807E+01 1.90500E+01
 -1      2303 2.20397E+01-4.95020E+01 1.90500E+01
 -1      2304 1.94188E+01-5.05876E+01 1.90500E+01
 -1      2305 1.67446E+01-5.15346E+01 1.90500E+01
 -1      2306 1.40245E+01-5.23403E+01 1.90500E+01
 -1      2307 1.12660E+01-5.30026E+01 1.90500E+01
 -1      2308 8.47666E+00-5.35195E+01 1.90500E+01
 -1      2309 5.66405E+00-5.38898E+01 1.90500E+01
 -1      2310 2.83591E+00-5.41124E+01 1.90500E+01
 -1      2311 5.74944E+01-3.01316E+00 1.90500E+01
 -1      2312 5.72579E+01-6.01805E+00 1.90500E+01
 -1      2313 5.68645E+01-9.00645E+00 1.90500E+01
 -1      2314 5.63152E+01-1.19702E+01 1.90500E+01
 -1      2315 5.56116E+01-1.49011E+01 1.90500E+01
 -1      2316 5.47555E+01-1.77911E+01 1.90500E+01
 -1      2317 5.37493E+01-2.06324E+01 1.90500E+01
 -1      2318 5.25959E+01-2.34172E+01 1.90500E+01
 -1      2319 5.12982E+01-2.61377E+01 1.90500E+01
 -1      2320 4.98600E+01-2.87867E+01 1.90500E+01
 -1      2321 4.82851E+01-3.13567E+01 1.90500E+01
 -1      2322 4.65778E+01-3.38408E+01 1.90500E+01
 -1      2323 4.47429E+01-3.62321E+01 1.90500E+01
 -1      2324 4.27853E+01-3.85241E+01 1.90500E+01
 -1      2325 4.07105E+01-4.07105E+01 1.90500E+01
 -1      2326 3.85241E+01-4.27853E+01 1.90500E+01
 -1      2327 3.62321E+01-4.47429E+01 1.90500E+01
 -1      2328 3.38408E+01-4.65778E+01 1.90500E+01
 -1      2329 3.13567E+01-4.82851E+01 1.90500E+01
 -1      2330 2.87867E+01-4.98600E+01 1.90500E+01
 -1      2331 2.61377E+01-5.12982E+01 1.90500E+01
 -1      2332 2.34172E+01-5.25959E+01 1.90500E+01
 -1      2333 2.06324E+01-5.37493E+01 1.90500E+01
 -1      2334 1.77911E+01-5.47555E+01 1.90500E+01
 -1      2335 1.49011E+01-5.56116E+01 1.90500E+01
 -1      2336 1.19702E+01-5.63152E+01 1.90500E+01
 -1      2337 9.00645E+00-5.68645E+01 1.90500E+01
 -1      2338 6.01805E+00-5.72579E+01 1.90500E+01
 -1      2339 3.01316E+00-5.74944E+01 1.90500E+01
 -1      2340 6.08765E+01-3.19040E+00 1.90500E+01
 -1      2341 6.06261E+01-6.37206E+00 1.90500E+01
 -1      2342 6.02095E+01-9.53625E+00 1.90500E+01
 -1      2343 5.96279E+01-1.26743E+01 1.90500E+01
 -1      2344 5.88828E+01-1.57776E+01 1.90500E+01
 -1      2345 5.79764E+01-1.88377E+01 1.90500E+01
 -1      2346 5.69111E+01-2.18461E+01 1.90500E+01
 -1      2347 5.56897E+01-2.47947E+01 1.90500E+01
 -1      2348 5.43158E+01-2.76753E+01 1.90500E+01
 -1      2349 5.27929E+01-3.04800E+01 1.90500E+01
 -1      2350 5.11254E+01-3.32012E+01 1.90500E+01
 -1      2351 4.93177E+01-3.58314E+01 1.90500E+01
 -1      2352 4.73748E+01-3.83634E+01 1.90500E+01
 -1      2353 4.53021E+01-4.07902E+01 1.90500E+01
 -1      2354 4.31052E+01-4.31052E+01 1.90500E+01
 -1      2355 4.07902E+01-4.53021E+01 1.90500E+01
 -1      2356 3.83634E+01-4.73748E+01 1.90500E+01
 -1      2357 3.58314E+01-4.93177E+01 1.90500E+01
 -1      2358 3.32012E+01-5.11254E+01 1.90500E+01
 -1      2359 3.04800E+01-5.27929E+01 1.90500E+01
 -1      2360 2.76753E+01-5.43158E+01 1.90500E+01
 -1      2361 2.47947E+01-5.56897E+01 1.90500E+01
 -1      2362 2.18461E+01-5.69111E+01 1.90500E+01
 -1      2363 1.88377E+01-5.79764E+01 1.90500E+01
 -1      2364 1.57776E+01-5.88828E+01 1.90500E+01
 -1      2365 1.26743E+01-5.96279E+01 1.90500E+01
 -1      2366 9.53625E+00-6.02095E+01 1.90500E+01
 -1      2367 6.37206E+00-6.06261E+01 1.90500E+01
 -1      2368 3.19040E+00-6.08765E+01 1.90500E+01
 -1      2369 6.42585E+01-3.36764E+00 1.90500E+01
 -1      2370 6.39942E+01-6.72606E+00 1.90500E+01
 -1      2371 6.35545E+01-1.00660E+01 1.90500E+01
 -1      2372 6.29405E+01-1.33784E+01 1.90500E+01
 -1      2373 6.21541E+01-1.66541E+01 1.90500E+01
 -1      2374 6.11973E+01-1.98842E+01 1.90500E+01
 -1      2375 6.00728E+01-2.30598E+01 1.90500E+01
 -1      2376 5.87836E+01-2.61721E+01 1.90500E+01
 -1      2377 5.73333E+01-2.92128E+01 1.90500E+01
 -1      2378 5.57258E+01-3.21733E+01 1.90500E+01
 -1      2379 5.39657E+01-3.50457E+01 1.90500E+01
 -1      2380 5.20575E+01-3.78220E+01 1.90500E+01
 -1      2381 5.00068E+01-4.04947E+01 1.90500E+01
 -1      2382 4.78189E+01-4.30563E+01 1.90500E+01
 -1      2383 4.55000E+01-4.55000E+01 1.90500E+01
 -1      2384 4.30563E+01-4.78189E+01 1.90500E+01
 -1      2385 4.04947E+01-5.00068E+01 1.90500E+01
 -1      2386 3.78220E+01-5.20575E+01 1.90500E+01
 -1      2387 3.50457E+01-5.39657E+01 1.90500E+01
 -1      2388 3.21733E+01-5.57258E+01 1.90500E+01
 -1      2389 2.92128E+01-5.73333E+01 1.90500E+01
 -1      2390 2.61721E+01-5.87836E+01 1.90500E+01
 -1      2391 2.30598E+01-6.00728E+01 1.90500E+01
 -1      2392 1.98842E+01-6.11973E+01 1.90500E+01
 -1      2393 1.66541E+01-6.21541E+01 1.90500E+01
 -1      2394 1.33784E+01-6.29405E+01 1.90500E+01
 -1      2395 1.00660E+01-6.35545E+01 1.90500E+01
 -1      2396 6.72606E+00-6.39942E+01 1.90500E+01
 -1      2397 3.36764E+00-6.42585E+01 1.90500E+01
 -1      2398 6.76405E+01-3.54489E+00 1.90500E+01
 -1      2399 6.73623E+01-7.08006E+00 1.90500E+01
 -1      2400 6.68994E+01-1.05958E+01 1.90500E+01
 -1      2401 6.62532E+01-1.40826E+01 1.90500E+01
 -1      2402 6.54254E+01-1.75307E+01 1.90500E+01
 -1      2403 6.44182E+01-2.09308E+01 1.90500E+01
 -1      2404 6.32345E+01-2.42735E+01 1.90500E+01
 -1      2405 6.18775E+01-2.75496E+01 1.90500E+01
 -1      2406 6.03508E+01-3.07503E+01 1.90500E+01
 -1      2407 5.86588E+01-3.38667E+01 1.90500E+01
 -1      2408 5.68060E+01-3.68902E+01 1.90500E+01
 -1      2409 5.47974E+01-3.98127E+01 1.90500E+01
 -1      2410 5.26387E+01-4.26260E+01 1.90500E+01
 -1      2411 5.03357E+01-4.53224E+01 1.90500E+01
 -1      2412 4.78947E+01-4.78947E+01 1.90500E+01
 -1      2413 4.53224E+01-5.03357E+01 1.90500E+01
 -1      2414 4.26260E+01-5.26387E+01 1.90500E+01
 -1      2415 3.98127E+01-5.47974E+01 1.90500E+01
 -1      2416 3.68902E+01-5.68060E+01 1.90500E+01
 -1      2417 3.38667E+01-5.86588E+01 1.90500E+01
 -1      2418 3.07503E+01-6.03508E+01 1.90500E+01
 -1      2419 2.75496E+01-6.18775E+01 1.90500E+01
 -1      2420 2.42735E+01-6.32345E+01 1.90500E+01
 -1      2421 2.09308E+01-6.44182E+01 1.90500E+01
 -1      2422 1.75307E+01-6.54254E+01 1.90500E+01
 -1      2423 1.40826E+01-6.62532E+01 1.90500E+01
 -1      2424 1.05958E+01-6.68994E+01 1.90500E+01
 -1      2425 7.08006E+00-6.73623E+01 1.90500E+01
 -1      2426 3.54489E+00-6.76405E+01 1.90500E+01
 -1      2427 7.10225E+01-3.72213E+00 1.90500E+01
 -1      2428 7.07304E+01-7.43406E+00 1.90500E+01
 -1      2429 7.02444E+01-1.11256E+01 1.90500E+01
 -1      2430 6.95659E+01-1.47867E+01 1.90500E+01
 -1      2431 6.86966E+01-1.84072E+01 1.90500E+01
 -1      2432 6.76391E+01-2.19773E+01 1.90500E+01
 -1      2433 6.63962E+01-2.54871E+01 1.90500E+01
 -1      2434 6.49714E+01-2.89271E+01 1.90500E+01
 -1      2435 6.33684E+01-3.22878E+01 1.90500E+01
 -1      2436 6.15917E+01-3.55600E+01 1.90500E+01
 -1      2437 5.96463E+01-3.87347E+01 1.90500E+01
 -1      2438 5.75373E+01-4.18033E+01 1.90500E+01
 -1      2439 5.52706E+01-4.47573E+01 1.90500E+01
 -1      2440 5.28525E+01-4.75886E+01 1.90500E+01
 -1      2441 5.02894E+01-5.02894E+01 1.90500E+01
 -1      2442 4.75886E+01-5.28525E+01 1.90500E+01
 -1      2443 4.47573E+01-5.52706E+01 1.90500E+01
 -1      2444 4.18033E+01-5.75373E+01 1.90500E+01
 -1      2445 3.87347E+01-5.96463E+01 1.90500E+01
 -1      2446 3.55600E+01-6.15917E+01 1.90500E+01
 -1      2447 3.22878E+01-6.33684E+01 1.90500E+01
 -1      2448 2.89271E+01-6.49714E+01 1.90500E+01
 -1      2449 2.54871E+01-6.63962E+01 1.90500E+01
 -1      2450 2.19773E+01-6.76391E+01 1.90500E+01
 -1      2451 1.84072E+01-6.86966E+01 1.90500E+01
 -1      2452 1.47867E+01-6.95659E+01 1.90500E+01
 -1      2453 1.11256E+01-7.02444E+01 1.90500E+01
 -1      2454 7.43406E+00-7.07304E+01 1.90500E+01
 -1      2455 3.72213E+00-7.10225E+01 1.90500E+01
 -1      2456 7.44046E+01-3.89938E+00 1.90500E+01
 -1      2457 7.40985E+01-7.78807E+00 1.90500E+01
 -1      2458 7.35894E+01-1.16554E+01 1.90500E+01
 -1      2459 7.28785E+01-1.54908E+01 1.90500E+01
 -1      2460 7.19679E+01-1.92837E+01 1.90500E+01
 -1      2461 7.08601E+01-2.30238E+01 1.90500E+01
 -1      2462 6.95580E+01-2.67008E+01 1.90500E+01
 -1      2463 6.80652E+01-3.03046E+01 1.90500E+01
 -1      2464 6.63859E+01-3.38253E+01 1.90500E+01
 -1      2465 6.45247E+01-3.72533E+01 1.90500E+01
 -1      2466 6.24865E+01-4.05792E+01 1.90500E+01
 -1      2467 6.02772E+01-4.37939E+01 1.90500E+01
 -1      2468 5.79026E+01-4.68886E+01 1.90500E+01
 -1      2469 5.53692E+01-4.98547E+01 1.90500E+01
 -1      2470 5.26842E+01-5.26842E+01 1.90500E+01
 -1      2471 4.98547E+01-5.53692E+01 1.90500E+01
 -1      2472 4.68886E+01-5.79026E+01 1.90500E+01
 -1      2473 4.37939E+01-6.02772E+01 1.90500E+01
 -1      2474 4.05792E+01-6.24865E+01 1.90500E+01
 -1      2475 3.72533E+01-6.45247E+01 1.90500E+01
 -1      2476 3.38253E+01-6.63859E+01 1.90500E+01
 -1      2477 3.03046E+01-6.80652E+01 1.90500E+01
 -1      2478 2.67008E+01-6.95580E+01 1.90500E+01
 -1      2479 2.30238E+01-7.08601E+01 1.90500E+01
 -1      2480 1.92837E+01-7.19679E+01 1.90500E+01
 -1      2481 1.54908E+01-7.28785E+01 1.90500E+01
 -1      2482 1.16554E+01-7.35894E+01 1.90500E+01
 -1      2483 7.78807E+00-7.40985E+01 1.90500E+01
 -1      2484 3.89938E+00-7.44046E+01 1.90500E+01
 -1      2485 7.77866E+01-4.07662E+00 1.90500E+01
 -1      2486 7.74666E+01-8.14207E+00 1.90500E+01
 -1      2487 7.69343E+01-1.21852E+01 1.90500E+01
 -1      2488 7.61912E+01-1.61949E+01 1.90500E+01
 -1      2489 7.52392E+01-2.01603E+01 1.90500E+01
 -1      2490 7.40810E+01-2.40704E+01 1.90500E+01
 -1      2491 7.27197E+01-2.79145E+01 1.90500E+01
 -1      2492 7.11591E+01-3.16821E+01 1.90500E+01
 -1      2493 6.94035E+01-3.53628E+01 1.90500E+01
 -1      2494 6.74576E+01-3.89467E+01 1.90500E+01
 -1      2495 6.53268E+01-4.24237E+01 1.90500E+01
 -1      2496 6.30170E+01-4.57846E+01 1.90500E+01
 -1      2497 6.05345E+01-4.90199E+01 1.90500E+01
 -1      2498 5.78860E+01-5.21208E+01 1.90500E+01
 -1      2499 5.50789E+01-5.50789E+01 1.90500E+01
 -1      2500 5.21208E+01-5.78860E+01 1.90500E+01
 -1      2501 4.90199E+01-6.05345E+01 1.90500E+01
 -1      2502 4.57846E+01-6.30170E+01 1.90500E+01
 -1      2503 4.24237E+01-6.53268E+01 1.90500E+01
 -1      2504 3.89467E+01-6.74576E+01 1.90500E+01
 -1      2505 3.53628E+01-6.94035E+01 1.90500E+01
 -1      2506 3.16821E+01-7.11591E+01 1.90500E+01
 -1      2507 2.79145E+01-7.27197E+01 1.90500E+01
 -1      2508 2.40704E+01-7.40810E+01 1.90500E+01
 -1      2509 2.01603E+01-7.52392E+01 1.90500E+01
 -1      2510 1.61949E+01-7.61912E+01 1.90500E+01
 -1      2511 1.21852E+01-7.69343E+01 1.90500E+01
 -1      2512 8.14207E+00-7.74666E+01 1.90500E+01
 -1      2513 4.07662E+00-7.77866E+01 1.90500E+01
 -1      2514 8.11686E+01-4.25387E+00 1.90500E+01
 -1      2515 8.08347E+01-8.49607E+00 1.90500E+01
 -1      2516 8.02793E+01-1.27150E+01 1.90500E+01
 -1      2517 7.95038E+01-1.68991E+01 1.90500E+01
 -1      2518 7.85105E+01-2.10368E+01 1.90500E+01
 -1      2519 7.73019E+01-2.51169E+01 1.90500E+01
 -1      2520 7.58814E+01-2.91281E+01 1.90500E+01
 -1      2521 7.42530E+01-3.30596E+01 1.90500E+01
 -1      2522 7.24210E+01-3.69003E+01 1.90500E+01
 -1      2523 7.03905E+01-4.06400E+01 1.90500E+01
 -1      2524 6.81671E+01-4.42683E+01 1.90500E+01
 -1      2525 6.57569E+01-4.77752E+01 1.90500E+01
 -1      2526 6.31664E+01-5.11512E+01 1.90500E+01
 -1      2527 6.04028E+01-5.43869E+01 1.90500E+01
 -1      2528 5.74736E+01-5.74736E+01 1.90500E+01
 -1      2529 5.43869E+01-6.04028E+01 1.90500E+01
 -1      2530 5.11512E+01-6.31664E+01 1.90500E+01
 -1      2531 4.77752E+01-6.57569E+01 1.90500E+01
 -1      2532 4.42683E+01-6.81671E+01 1.90500E+01
 -1      2533 4.06400E+01-7.03905E+01 1.90500E+01
 -1      2534 3.69003E+01-7.24210E+01 1.90500E+01
 -1      2535 3.30596E+01-7.42530E+01 1.90500E+01
 -1      2536 2.91281E+01-7.58814E+01 1.90500E+01
 -1      2537 2.51169E+01-7.73019E+01 1.90500E+01
 -1      2538 2.10368E+01-7.85105E+01 1.90500E+01
 -1      2539 1.68991E+01-7.95038E+01 1.90500E+01
 -1      2540 1.27150E+01-8.02793E+01 1.90500E+01
 -1      2541 8.49607E+00-8.08347E+01 1.90500E+01
 -1      2542 4.25387E+00-8.11686E+01 1.90500E+01
 -1      2543 8.45506E+01-4.43111E+00 1.90500E+01
 -1      2544 8.42029E+01-8.85008E+00 1.90500E+01
 -1      2545 8.36243E+01-1.32448E+01 1.90500E+01
 -1      2546 8.28165E+01-1.76032E+01 1.90500E+01
 -1      2547 8.17817E+01-2.19133E+01 1.90500E+01
 -1      2548 8.05228E+01-2.61634E+01 1.90500E+01
 -1      2549 7.90431E+01-3.03418E+01 1.90500E+01
 -1      2550 7.73468E+01-3.44370E+01 1.90500E+01
 -1      2551 7.54386E+01-3.84379E+01 1.90500E+01
 -1      2552 7.33235E+01-4.23333E+01 1.90500E+01
 -1      2553 7.10074E+01-4.61128E+01 1.90500E+01
 -1      2554 6.84968E+01-4.97658E+01 1.90500E+01
 -1      2555 6.57984E+01-5.32825E+01 1.90500E+01
 -1      2556 6.29196E+01-5.66531E+01 1.90500E+01
 -1      2557 5.98684E+01-5.98684E+01 1.90500E+01
 -1      2558 5.66531E+01-6.29196E+01 1.90500E+01
 -1      2559 5.32825E+01-6.57984E+01 1.90500E+01
 -1      2560 4.97658E+01-6.84968E+01 1.90500E+01
 -1      2561 4.61128E+01-7.10074E+01 1.90500E+01
 -1      2562 4.23333E+01-7.33235E+01 1.90500E+01
 -1      2563 3.84379E+01-7.54386E+01 1.90500E+01
 -1      2564 3.44370E+01-7.73468E+01 1.90500E+01
 -1      2565 3.03418E+01-7.90431E+01 1.90500E+01
 -1      2566 2.61634E+01-8.05228E+01 1.90500E+01
 -1      2567 2.19133E+01-8.17817E+01 1.90500E+01
 -1      2568 1.76032E+01-8.28165E+01 1.90500E+01
 -1      2569 1.32448E+01-8.36243E+01 1.90500E+01
 -1      2570 8.85008E+00-8.42029E+01 1.90500E+01
 -1      2571 4.43111E+00-8.45506E+01 1.90500E+01
 -1      2572 8.79327E+01-4.60836E+00 1.90500E+01
 -1      2573 8.75710E+01-9.20408E+00 1.90500E+01
 -1      2574 8.69693E+01-1.37746E+01 1.90500E+01
 -1      2575 8.61292E+01-1.83073E+01 1.90500E+01
 -1      2576 8.50530E+01-2.27899E+01 1.90500E+01
 -1      2577 8.37437E+01-2.72100E+01 1.90500E+01
 -1      2578 8.22049E+01-3.15555E+01 1.90500E+01
 -1      2579 8.04407E+01-3.58145E+01 1.90500E+01
 -1      2580 7.84561E+01-3.99754E+01 1.90500E+01
 -1      2581 7.62564E+01-4.40267E+01 1.90500E+01
 -1      2582 7.38477E+01-4.79573E+01 1.90500E+01
 -1      2583 7.12366E+01-5.17565E+01 1.90500E+01
 -1      2584 6.84303E+01-5.54138E+01 1.90500E+01
 -1      2585 6.54364E+01-5.89192E+01 1.90500E+01
 -1      2586 6.22631E+01-6.22631E+01 1.90500E+01
 -1      2587 5.89192E+01-6.54364E+01 1.90500E+01
 -1      2588 5.54138E+01-6.84303E+01 1.90500E+01
 -1      2589 5.17565E+01-7.12366E+01 1.90500E+01
 -1      2590 4.79573E+01-7.38477E+01 1.90500E+01
 -1      2591 4.40267E+01-7.62564E+01 1.90500E+01
 -1      2592 3.99754E+01-7.84561E+01 1.90500E+01
 -1      2593 3.58145E+01-8.04407E+01 1.90500E+01
 -1      2594 3.15555E+01-8.22049E+01 1.90500E+01
 -1      2595 2.72100E+01-8.37437E+01 1.90500E+01
 -1      2596 2.27899E+01-8.50530E+01 1.90500E+01
 -1      2597 1.83073E+01-8.61292E+01 1.90500E+01
 -1      2598 1.37746E+01-8.69693E+01 1.90500E+01
 -1      2599 9.20408E+00-8.75710E+01 1.90500E+01
 -1      2600 4.60836E+00-8.79327E+01 1.90500E+01
 -1      2601 9.13147E+01-4.78560E+00 1.90500E+01
 -1      2602 9.09391E+01-9.55808E+00 1.90500E+01
 -1      2603 9.03142E+01-1.43044E+01 1.90500E+01
 -1      2604 8.94418E+01-1.90114E+01 1.90500E+01
 -1      2605 8.83243E+01-2.36664E+01 1.90500E+01
 -1      2606 8.69646E+01-2.82565E+01 1.90500E+01
 -1      2607 8.53666E+01-3.27692E+01 1.90500E+01
 -1      2608 8.35346E+01-3.71920E+01 1.90500E+01
 -1      2609 8.14736E+01-4.15129E+01 1.90500E+01
 -1      2610 7.91894E+01-4.57200E+01 1.90500E+01
 -1      2611 7.66880E+01-4.98018E+01 1.90500E+01
 -1      2612 7.39765E+01-5.37471E+01 1.90500E+01
 -1      2613 7.10622E+01-5.75451E+01 1.90500E+01
 -1      2614 6.79532E+01-6.11853E+01 1.90500E+01
 -1      2615 6.46578E+01-6.46578E+01 1.90500E+01
 -1      2616 6.11853E+01-6.79532E+01 1.90500E+01
 -1      2617 5.75451E+01-7.10622E+01 1.90500E+01
 -1      2618 5.37471E+01-7.39765E+01 1.90500E+01
 -1      2619 4.98018E+01-7.66880E+01 1.90500E+01
 -1      2620 4.57200E+01-7.91894E+01 1.90500E+01
 -1      2621 4.15129E+01-8.14736E+01 1.90500E+01
 -1      2622 3.71920E+01-8.35346E+01 1.90500E+01
 -1      2623 3.27692E+01-8.53666E+01 1.90500E+01
 -1      2624 2.82565E+01-8.69646E+01 1.90500E+01
 -1      2625 2.36664E+01-8.83243E+01 1.90500E+01
 -1      2626 1.90114E+01-8.94418E+01 1.90500E+01
 -1      2627 1.43044E+01-9.03142E+01 1.90500E+01
 -1      2628 9.55808E+00-9.09391E+01 1.90500E+01
 -1      2629 4.78560E+00-9.13147E+01 1.90500E+01
 -1      2630 9.46967E+01-4.96284E+00 1.90500E+01
 -1      2631 9.43072E+01-9.91209E+00 1.90500E+01
 -1      2632 9.36592E+01-1.48342E+01 1.90500E+01
 -1      2633 9.27545E+01-1.97156E+01 1.90500E+01
 -1      2634 9.15955E+01-2.45429E+01 1.90500E+01
 -1      2635 9.01855E+01-2.93031E+01 1.90500E+01
 -1      2636 8.85283E+01-3.39828E+01 1.90500E+01
 -1      2637 8.66285E+01-3.85695E+01 1.90500E+01
 -1      2638 8.44912E+01-4.30504E+01 1.90500E+01
 -1      2639 8.21223E+01-4.74133E+01 1.90500E+01
 -1      2640 7.95283E+01-5.16463E+01 1.90500E+01
 -1      2641 7.67164E+01-5.57377E+01 1.90500E+01
 -1      2642 7.36942E+01-5.96764E+01 1.90500E+01
 -1      2643 7.04699E+01-6.34514E+01 1.90500E+01
 -1      2644 6.70526E+01-6.70526E+01 1.90500E+01
 -1      2645 6.34514E+01-7.04699E+01 1.90500E+01
 -1      2646 5.96764E+01-7.36942E+01 1.90500E+01
 -1      2647 5.57377E+01-7.67164E+01 1.90500E+01
 -1      2648 5.16463E+01-7.95283E+01 1.90500E+01
 -1      2649 4.74133E+01-8.21223E+01 1.90500E+01
 -1      2650 4.30504E+01-8.44912E+01 1.90500E+01
 -1      2651 3.85695E+01-8.66285E+01 1.90500E+01
 -1      2652 3.39828E+01-8.85283E+01 1.90500E+01
 -1      2653 2.93031E+01-9.01855E+01 1.90500E+01
 -1      2654 2.45429E+01-9.15955E+01 1.90500E+01
 -1      2655 1.97156E+01-9.27545E+01 1.90500E+01
 -1      2656 1.48342E+01-9.36592E+01 1.90500E+01
 -1      2657 9.91209E+00-9.43072E+01 1.90500E+01
 -1      2658 4.96284E+00-9.46967E+01 1.90500E+01
 -1      2659 9.80787E+01-5.14009E+00 1.90500E+01
 -1      2660 9.76753E+01-1.02661E+01 1.90500E+01
 -1      2661 9.70042E+01-1.53640E+01 1.90500E+01
 -1      2662 9.60671E+01-2.04197E+01 1.90500E+01
 -1      2663 9.48668E+01-2.54195E+01 1.90500E+01
 -1      2664 9.34064E+01-3.03496E+01 1.90500E+01
 -1      2665 9.16900E+01-3.51965E+01 1.90500E+01
 -1      2666 8.97223E+01-3.99470E+01 1.90500E+01
 -1      2667 8.75087E+01-4.45879E+01 1.90500E+01
 -1      2668 8.50552E+01-4.91067E+01 1.90500E+01
 -1      2669 8.23686E+01-5.34908E+01 1.90500E+01
 -1      2670 7.94563E+01-5.77283E+01 1.90500E+01
 -1      2671 7.63261E+01-6.18077E+01 1.90500E+01
 -1      2672 7.29867E+01-6.57175E+01 1.90500E+01
 -1      2673 6.94473E+01-6.94473E+01 1.90500E+01
 -1      2674 6.57175E+01-7.29867E+01 1.90500E+01
 -1      2675 6.18077E+01-7.63261E+01 1.90500E+01
 -1      2676 5.77283E+01-7.94563E+01 1.90500E+01
 -1      2677 5.34908E+01-8.23686E+01 1.90500E+01
 -1      2678 4.91067E+01-8.50552E+01 1.90500E+01
 -1      2679 4.45879E+01-8.75087E+01 1.90500E+01
 -1      2680 3.99470E+01-8.97223E+01 1.90500E+01
 -1      2681 3.51965E+01-9.16900E+01 1.90500E+01
 -1      2682 3.03496E+01-9.34064E+01 1.90500E+01
 -1      2683 2.54195E+01-9.48668E+01 1.90500E+01
 -1      2684 2.04197E+01-9.60671E+01 1.90500E+01
 -1      2685 1.53639E+01-9.70042E+01 1.90500E+01
 -1      2686 1.02661E+01-9.76753E+01 1.90500E+01
 -1      2687 5.14009E+00-9.80787E+01 1.90500E+01
 -1      2688 1.01461E+02-5.31733E+00 1.90500E+01
 -1      2689 1.01043E+02-1.06201E+01 1.90500E+01
 -1      2690 1.00349E+02-1.58937E+01 1.90500E+01
 -1      2691 9.93798E+01-2.11238E+01 1.90500E+01
 -1      2692 9.81381E+01-2.62960E+01 1.90500E+01
 -1      2693 9.66273E+01-3.13961E+01 1.90500E+01
 -1      2694 9.48518E+01-3.64102E+01 1.90500E+01
 -1      2695 9.28162E+01-4.13244E+01 1.90500E+01
 -1      2696 9.05263E+01-4.61254E+01 1.90500E+01
 -1      2697 8.79882E+01-5.08000E+01 1.90500E+01
 -1      2698 8.52089E+01-5.53353E+01 1.90500E+01
 -1      2699 8.21961E+01-5.97190E+01 1.90500E+01
 -1      2700 7.89580E+01-6.39390E+01 1.90500E+01
 -1      2701 7.55035E+01-6.79837E+01 1.90500E+01
 -1      2702 7.18420E+01-7.18420E+01 1.90500E+01
 -1      2703 6.79837E+01-7.55035E+01 1.90500E+01
 -1      2704 6.39390E+01-7.89580E+01 1.90500E+01
 -1      2705 5.97190E+01-8.21961E+01 1.90500E+01
 -1      2706 5.53353E+01-8.52089E+01 1.90500E+01
 -1      2707 5.08000E+01-8.79882E+01 1.90500E+01
 -1      2708 4.61254E+01-9.05263E+01 1.90500E+01
 -1      2709 4.13244E+01-9.28162E+01 1.90500E+01
 -1      2710 3.64102E+01-9.48518E+01 1.90500E+01
 -1      2711 3.13961E+01-9.66273E+01 1.90500E+01
 -1      2712 2.62960E+01-9.81381E+01 1.90500E+01
 -1      2713 2.11238E+01-9.93798E+01 1.90500E+01
 -1      2714 1.58937E+01-1.00349E+02 1.90500E+01
 -1      2715 1.06201E+01-1.01043E+02 1.90500E+01
 -1      2716 5.31733E+00-1.01461E+02 1.90500E+01
 -1      2717 1.04843E+02-5.49458E+00 1.90500E+01
 -1      2718 1.04412E+02-1.09741E+01 1.90500E+01
 -1      2719 1.03694E+02-1.64235E+01 1.90500E+01
 -1      2720 1.02692E+02-2.18280E+01 1.90500E+01
 -1      2721 1.01409E+02-2.71725E+01 1.90500E+01
 -1      2722 9.98483E+01-3.24427E+01 1.90500E+01
 -1      2723 9.80135E+01-3.76239E+01 1.90500E+01
 -1      2724 9.59101E+01-4.27019E+01 1.90500E+01
 -1      2725 9.35438E+01-4.76629E+01 1.90500E+01
 -1      2726 9.09211E+01-5.24933E+01 1.90500E+01
 -1      2727 8.80492E+01-5.71798E+01 1.90500E+01
 -1      2728 8.49360E+01-6.17096E+01 1.90500E+01
 -1      2729 8.15900E+01-6.60703E+01 1.90500E+01
 -1      2730 7.80203E+01-7.02498E+01 1.90500E+01
 -1      2731 7.42368E+01-7.42368E+01 1.90500E+01
 -1      2732 7.02498E+01-7.80203E+01 1.90500E+01
 -1      2733 6.60703E+01-8.15900E+01 1.90500E+01
 -1      2734 6.17096E+01-8.49360E+01 1.90500E+01
 -1      2735 5.71798E+01-8.80492E+01 1.90500E+01
 -1      2736 5.24933E+01-9.09211E+01 1.90500E+01
 -1      2737 4.76629E+01-9.35438E+01 1.90500E+01
 -1      2738 4.27019E+01-9.59101E+01 1.90500E+01
 -1      2739 3.76239E+01-9.80135E+01 1.90500E+01
 -1      2740 3.24427E+01-9.98483E+01 1.90500E+01
 -1      2741 2.71725E+01-1.01409E+02 1.90500E+01
 -1      2742 2.18280E+01-1.02692E+02 1.90500E+01
 -1      2743 1.64235E+01-1.03694E+02 1.90500E+01
 -1      2744 1.09741E+01-1.04412E+02 1.90500E+01
 -1      2745 5.49458E+00-1.04843E+02 1.90500E+01
 -1      2746 1.08225E+02-5.67182E+00 1.90500E+01
 -1      2747 1.07780E+02-1.13281E+01 1.90500E+01
 -1      2748 1.07039E+02-1.69533E+01 1.90500E+01
 -1      2749 1.06005E+02-2.25321E+01 1.90500E+01
 -1      2750 1.04681E+02-2.80491E+01 1.90500E+01
 -1      2751 1.03069E+02-3.34892E+01 1.90500E+01
 -1      2752 1.01175E+02-3.88375E+01 1.90500E+01
 -1      2753 9.90040E+01-4.40794E+01 1.90500E+01
 -1      2754 9.65613E+01-4.92005E+01 1.90500E+01
 -1      2755 9.38541E+01-5.41867E+01 1.90500E+01
 -1      2756 9.08895E+01-5.90243E+01 1.90500E+01
 -1      2757 8.76759E+01-6.37002E+01 1.90500E+01
 -1      2758 8.42219E+01-6.82015E+01 1.90500E+01
 -1      2759 8.05371E+01-7.25159E+01 1.90500E+01
 -1      2760 7.66315E+01-7.66315E+01 1.90500E+01
 -1      2761 7.25159E+01-8.05371E+01 1.90500E+01
 -1      2762 6.82015E+01-8.42219E+01 1.90500E+01
 -1      2763 6.37002E+01-8.76759E+01 1.90500E+01
 -1      2764 5.90243E+01-9.08895E+01 1.90500E+01
 -1      2765 5.41867E+01-9.38541E+01 1.90500E+01
 -1      2766 4.92005E+01-9.65613E+01 1.90500E+01
 -1      2767 4.40794E+01-9.90040E+01 1.90500E+01
 -1      2768 3.88375E+01-1.01175E+02 1.90500E+01
 -1      2769 3.34892E+01-1.03069E+02 1.90500E+01
 -1      2770 2.80491E+01-1.04681E+02 1.90500E+01
 -1      2771 2.25321E+01-1.06005E+02 1.90500E+01
 -1      2772 1.69533E+01-1.07039E+02 1.90500E+01
 -1      2773 1.13281E+01-1.07780E+02 1.90500E+01
 -1      2774 5.67182E+00-1.08225E+02 1.90500E+01
 -1      2775 1.11607E+02-5.84907E+00 1.90500E+01
 -1      2776 1.11148E+02-1.16821E+01 1.90500E+01
 -1      2777 1.10384E+02-1.74831E+01 1.90500E+01
 -1      2778 1.09318E+02-2.32362E+01 1.90500E+01
 -1      2779 1.07952E+02-2.89256E+01 1.90500E+01
 -1      2780 1.06290E+02-3.45357E+01 1.90500E+01
 -1      2781 1.04337E+02-4.00512E+01 1.90500E+01
 -1      2782 1.02098E+02-4.54569E+01 1.90500E+01
 -1      2783 9.95789E+01-5.07380E+01 1.90500E+01
 -1      2784 9.67870E+01-5.58800E+01 1.90500E+01
 -1      2785 9.37298E+01-6.08689E+01 1.90500E+01
 -1      2786 9.04157E+01-6.56909E+01 1.90500E+01
 -1      2787 8.68538E+01-7.03328E+01 1.90500E+01
 -1      2788 8.30539E+01-7.47820E+01 1.90500E+01
 -1      2789 7.90263E+01-7.90263E+01 1.90500E+01
 -1      2790 7.47820E+01-8.30539E+01 1.90500E+01
 -1      2791 7.03328E+01-8.68538E+01 1.90500E+01
 -1      2792 6.56909E+01-9.04157E+01 1.90500E+01
 -1      2793 6.08689E+01-9.37298E+01 1.90500E+01
 -1      2794 5.58800E+01-9.67870E+01 1.90500E+01
 -1      2795 5.07380E+01-9.95789E+01 1.90500E+01
 -1      2796 4.54569E+01-1.02098E+02 1.90500E+01
 -1      2797 4.00512E+01-1.04337E+02 1.90500E+01
 -1      2798 3.45357E+01-1.06290E+02 1.90500E+01
 -1      2799 2.89256E+01-1.07952E+02 1.90500E+01
 -1      2800 2.32362E+01-1.09318E+02 1.90500E+01
 -1      2801 1.74831E+01-1.10384E+02 1.90500E+01
 -1      2802 1.16821E+01-1.11148E+02 1.90500E+01
 -1      2803 5.84907E+00-1.11607E+02 1.90500E+01
 -1      2804 1.14989E+02-6.02631E+00 1.90500E+01
 -1      2805 1.14516E+02-1.20361E+01 1.90500E+01
 -1      2806 1.13729E+02-1.80129E+01 1.90500E+01
 -1      2807 1.12630E+02-2.39403E+01 1.90500E+01
 -1      2808 1.11223E+02-2.98022E+01 1.90500E+01
 -1      2809 1.09511E+02-3.55823E+01 1.90500E+01
 -1      2810 1.07499E+02-4.12649E+01 1.90500E+01
 -1      2811 1.05192E+02-4.68344E+01 1.90500E+01
 -1      2812 1.02596E+02-5.22755E+01 1.90500E+01
 -1      2813 9.97199E+01-5.75733E+01 1.90500E+01
 -1      2814 9.65701E+01-6.27134E+01 1.90500E+01
 -1      2815 9.31556E+01-6.76815E+01 1.90500E+01
 -1      2816 8.94858E+01-7.24641E+01 1.90500E+01
 -1      2817 8.55706E+01-7.70482E+01 1.90500E+01
 -1      2818 8.14210E+01-8.14210E+01 1.90500E+01
 -1      2819 7.70482E+01-8.55706E+01 1.90500E+01
 -1      2820 7.24641E+01-8.94858E+01 1.90500E+01
 -1      2821 6.76815E+01-9.31556E+01 1.90500E+01
 -1      2822 6.27134E+01-9.65701E+01 1.90500E+01
 -1      2823 5.75733E+01-9.97199E+01 1.90500E+01
 -1      2824 5.22755E+01-1.02596E+02 1.90500E+01
 -1      2825 4.68344E+01-1.05192E+02 1.90500E+01
 -1      2826 4.12649E+01-1.07499E+02 1.90500E+01
 -1      2827 3.55823E+01-1.09511E+02 1.90500E+01
 -1      2828 2.98022E+01-1.11223E+02 1.90500E+01
 -1      2829 2.39403E+01-1.12630E+02 1.90500E+01
 -1      2830 1.80129E+01-1.13729E+02 1.90500E+01
 -1      2831 1.20361E+01-1.14516E+02 1.90500E+01
 -1      2832 6.02631E+00-1.14989E+02 1.90500E+01
 -1      2833 1.18371E+02-6.20356E+00 1.90500E+01
 -1      2834 1.17884E+02-1.23901E+01 1.90500E+01
 -1      2835 1.17074E+02-1.85427E+01 1.90500E+01
 -1      2836 1.15943E+02-2.46445E+01 1.90500E+01
 -1      2837 1.14494E+02-3.06787E+01 1.90500E+01
 -1      2838 1.12732E+02-3.66288E+01 1.90500E+01
 -1      2839 1.10660E+02-4.24785E+01 1.90500E+01
 -1      2840 1.08286E+02-4.82118E+01 1.90500E+01
 -1      2841 1.05614E+02-5.38130E+01 1.90500E+01
 -1      2842 1.02653E+02-5.92667E+01 1.90500E+01
 -1      2843 9.94104E+01-6.45579E+01 1.90500E+01
 -1      2844 9.58955E+01-6.96721E+01 1.90500E+01
 -1      2845 9.21177E+01-7.45954E+01 1.90500E+01
 -1      2846 8.80874E+01-7.93143E+01 1.90500E+01
 -1      2847 8.38157E+01-8.38157E+01 1.90500E+01
 -1      2848 7.93143E+01-8.80874E+01 1.90500E+01
 -1      2849 7.45954E+01-9.21177E+01 1.90500E+01
 -1      2850 6.96721E+01-9.58955E+01 1.90500E+01
 -1      2851 6.45579E+01-9.94104E+01 1.90500E+01
 -1      2852 5.92667E+01-1.02653E+02 1.90500E+01
 -1      2853 5.38130E+01-1.05614E+02 1.90500E+01
 -1      2854 4.82118E+01-1.08286E+02 1.90500E+01
 -1      2855 4.24785E+01-1.10660E+02 1.90500E+01
 -1      2856 3.66288E+01-1.12732E+02 1.90500E+01
 -1      2857 3.06787E+01-1.14494E+02 1.90500E+01
 -1      2858 2.46445E+01-1.15943E+02 1.90500E+01
 -1      2859 1.85427E+01-1.17074E+02 1.90500E+01
 -1      2860 1.23901E+01-1.17884E+02 1.90500E+01
 -1      2861 6.20356E+00-1.18371E+02 1.90500E+01
 -1      2862 1.21753E+02-6.38080E+00 1.90500E+01
 -1      2863 1.21252E+02-1.27441E+01 1.90500E+01
 -1      2864 1.20419E+02-1.90725E+01 1.90500E+01
 -1      2865 1.19256E+02-2.53486E+01 1.90500E+01
 -1      2866 1.17766E+02-3.15552E+01 1.90500E+01
 -1      2867 1.15953E+02-3.76754E+01 1.90500E+01
 -1      2868 1.13822E+02-4.36922E+01 1.90500E+01
 -1      2869 1.11379E+02-4.95893E+01 1.90500E+01
 -1      2870 1.08632E+02-5.53505E+01 1.90500E+01
 -1      2871 1.05586E+02-6.09600E+01 1.90500E+01
 -1      2872 1.02251E+02-6.64024E+01 1.90500E+01
 -1      2873 9.86354E+01-7.16628E+01 1.90500E+01
 -1      2874 9.47496E+01-7.67267E+01 1.90500E+01
 -1      2875 9.06042E+01-8.15804E+01 1.90500E+01
 -1      2876 8.62105E+01-8.62105E+01 1.90500E+01
 -1      2877 8.15804E+01-9.06042E+01 1.90500E+01
 -1      2878 7.67267E+01-9.47496E+01 1.90500E+01
 -1      2879 7.16628E+01-9.86354E+01 1.90500E+01
 -1      2880 6.64024E+01-1.02251E+02 1.90500E+01
 -1      2881 6.09600E+01-1.05586E+02 1.90500E+01
 -1      2882 5.53505E+01-1.08632E+02 1.90500E+01
 -1      2883 4.95893E+01-1.11379E+02 1.90500E+01
 -1      2884 4.36922E+01-1.13822E+02 1.90500E+01
 -1      2885 3.76754E+01-1.15953E+02 1.90500E+01
 -1      2886 3.15552E+01-1.17766E+02 1.90500E+01
 -1      2887 2.53486E+01-1.19256E+02 1.90500E+01
 -1      2888 1.90725E+01-1.20419E+02 1.90500E+01
 -1      2889 1.27441E+01-1.21252E+02 1.90500E+01
 -1      2890 6.38080E+00-1.21753E+02 1.90500E+01
 -1      2891 1.25135E+02-6.55804E+00 1.90500E+01
 -1      2892 1.24620E+02-1.30981E+01 1.90500E+01
 -1      2893 1.23764E+02-1.96023E+01 1.90500E+01
 -1      2894 1.22568E+02-2.60527E+01 1.90500E+01
 -1      2895 1.21037E+02-3.24318E+01 1.90500E+01
 -1      2896 1.19174E+02-3.87219E+01 1.90500E+01
 -1      2897 1.16984E+02-4.49059E+01 1.90500E+01
 -1      2898 1.14473E+02-5.09668E+01 1.90500E+01
 -1      2899 1.11649E+02-5.68880E+01 1.90500E+01
 -1      2900 1.08519E+02-6.26533E+01 1.90500E+01
 -1      2901 1.05091E+02-6.82469E+01 1.90500E+01
 -1      2902 1.01375E+02-7.36534E+01 1.90500E+01
 -1      2903 9.73816E+01-7.88580E+01 1.90500E+01
 -1      2904 9.31210E+01-8.38465E+01 1.90500E+01
 -1      2905 8.86052E+01-8.86052E+01 1.90500E+01
 -1      2906 8.38465E+01-9.31210E+01 1.90500E+01
 -1      2907 7.88580E+01-9.73816E+01 1.90500E+01
 -1      2908 7.36534E+01-1.01375E+02 1.90500E+01
 -1      2909 6.82469E+01-1.05091E+02 1.90500E+01
 -1      2910 6.26533E+01-1.08519E+02 1.90500E+01
 -1      2911 5.68880E+01-1.11649E+02 1.90500E+01
 -1      2912 5.09668E+01-1.14473E+02 1.90500E+01
 -1      2913 4.49059E+01-1.16984E+02 1.90500E+01
 -1      2914 3.87219E+01-1.19174E+02 1.90500E+01
 -1      2915 3.24318E+01-1.21037E+02 1.90500E+01
 -1      2916 2.60527E+01-1.22568E+02 1.90500E+01
 -1      2917 1.96023E+01-1.23764E+02 1.90500E+01
 -1      2918 1.30981E+01-1.24620E+02 1.90500E+01
 -1      2919 6.55804E+00-1.25135E+02 1.90500E+01
 -1      2920 1.28517E+02-6.73529E+00 1.90500E+01
 -1      2921 1.27988E+02-1.34521E+01 1.90500E+01
 -1      2922 1.27109E+02-2.01321E+01 1.90500E+01
 -1      2923 1.25881E+02-2.67568E+01 1.90500E+01
 -1      2924 1.24308E+02-3.33083E+01 1.90500E+01
 -1      2925 1.22395E+02-3.97684E+01 1.90500E+01
 -1      2926 1.20146E+02-4.61196E+01 1.90500E+01
 -1      2927 1.17567E+02-5.23443E+01 1.90500E+01
 -1      2928 1.14667E+02-5.84256E+01 1.90500E+01
 -1      2929 1.11452E+02-6.43467E+01 1.90500E+01
 -1      2930 1.07931E+02-7.00914E+01 1.90500E+01
 -1      2931 1.04115E+02-7.56440E+01 1.90500E+01
 -1      2932 1.00014E+02-8.09893E+01 1.90500E+01
 -1      2933 9.56378E+01-8.61126E+01 1.90500E+01
 -1      2934 9.09999E+01-9.09999E+01 1.90500E+01
 -1      2935 8.61126E+01-9.56378E+01 1.90500E+01
 -1      2936 8.09893E+01-1.00014E+02 1.90500E+01
 -1      2937 7.56440E+01-1.04115E+02 1.90500E+01
 -1      2938 7.00914E+01-1.07931E+02 1.90500E+01
 -1      2939 6.43467E+01-1.11452E+02 1.90500E+01
 -1      2940 5.84256E+01-1.14667E+02 1.90500E+01
 -1      2941 5.23443E+01-1.17567E+02 1.90500E+01
 -1      2942 4.61196E+01-1.20146E+02 1.90500E+01
 -1      2943 3.97684E+01-1.22395E+02 1.90500E+01
 -1      2944 3.33083E+01-1.24308E+02 1.90500E+01
 -1      2945 2.67568E+01-1.25881E+02 1.90500E+01
 -1      2946 2.01321E+01-1.27109E+02 1.90500E+01
 -1      2947 1.34521E+01-1.27988E+02 1.90500E+01
 -1      2948 6.73529E+00-1.28517E+02 1.90500E+01
 -1      2949 1.31899E+02-6.91253E+00 1.90500E+01
 -1      2950 1.31356E+02-1.38061E+01 1.90500E+01
 -1      2951 1.30454E+02-2.06619E+01 1.90500E+01
 -1      2952 1.29194E+02-2.74610E+01 1.90500E+01
 -1      2953 1.27579E+02-3.41848E+01 1.90500E+01
 -1      2954 1.25616E+02-4.08150E+01 1.90500E+01
 -1      2955 1.23307E+02-4.73332E+01 1.90500E+01
 -1      2956 1.20661E+02-5.37218E+01 1.90500E+01
 -1      2957 1.17684E+02-5.99631E+01 1.90500E+01
 -1      2958 1.14385E+02-6.60400E+01 1.90500E+01
 -1      2959 1.10772E+02-7.19359E+01 1.90500E+01
 -1      2960 1.06855E+02-7.76347E+01 1.90500E+01
 -1      2961 1.02645E+02-8.31206E+01 1.90500E+01
 -1      2962 9.81546E+01-8.83788E+01 1.90500E+01
 -1      2963 9.33947E+01-9.33947E+01 1.90500E+01
 -1      2964 8.83788E+01-9.81546E+01 1.90500E+01
 -1      2965 8.31206E+01-1.02645E+02 1.90500E+01
 -1      2966 7.76347E+01-1.06855E+02 1.90500E+01
 -1      2967 7.19359E+01-1.10772E+02 1.90500E+01
 -1      2968 6.60400E+01-1.14385E+02 1.90500E+01
 -1      2969 5.99631E+01-1.17684E+02 1.90500E+01
 -1      2970 5.37218E+01-1.20661E+02 1.90500E+01
 -1      2971 4.73332E+01-1.23307E+02 1.90500E+01
 -1      2972 4.08150E+01-1.25616E+02 1.90500E+01
 -1      2973 3.41848E+01-1.27579E+02 1.90500E+01
 -1      2974 2.74610E+01-1.29194E+02 1.90500E+01
 -1      2975 2.06619E+01-1.30454E+02 1.90500E+01
 -1      2976 1.38061E+01-1.31356E+02 1.90500E+01
 -1      2977 6.91253E+00-1.31899E+02 1.90500E+01
 -1      2978 1.35281E+02-7.08978E+00 1.90500E+01
 -1      2979 1.34725E+02-1.41601E+01 1.90500E+01
 -1      2980 1.33799E+02-2.11917E+01 1.90500E+01
 -1      2981 1.32506E+02-2.81651E+01 1.90500E+01
 -1      2982 1.30851E+02-3.50614E+01 1.90500E+01
 -1      2983 1.28836E+02-4.18615E+01 1.90500E+01
 -1      2984 1.26469E+02-4.85469E+01 1.90500E+01
 -1      2985 1.23755E+02-5.50993E+01 1.90500E+01
 -1      2986 1.20702E+02-6.15006E+01 1.90500E+01
 -1      2987 1.17318E+02-6.77333E+01 1.90500E+01
 -1      2988 1.13612E+02-7.37804E+01 1.90500E+01
 -1      2989 1.09595E+02-7.96253E+01 1.90500E+01
 -1      2990 1.05277E+02-8.52519E+01 1.90500E+01
 -1      2991 1.00671E+02-9.06449E+01 1.90500E+01
 -1      2992 9.57894E+01-9.57894E+01 1.90500E+01
 -1      2993 9.06449E+01-1.00671E+02 1.90500E+01
 -1      2994 8.52519E+01-1.05277E+02 1.90500E+01
 -1      2995 7.96253E+01-1.09595E+02 1.90500E+01
 -1      2996 7.37804E+01-1.13612E+02 1.90500E+01
 -1      2997 6.77333E+01-1.17318E+02 1.90500E+01
 -1      2998 6.15006E+01-1.20702E+02 1.90500E+01
 -1      2999 5.50993E+01-1.23755E+02 1.90500E+01
 -1      3000 4.85469E+01-1.26469E+02 1.90500E+01
 -1      3001 4.18615E+01-1.28836E+02 1.90500E+01
 -1      3002 3.50614E+01-1.30851E+02 1.90500E+01
 -1      3003 2.81651E+01-1.32506E+02 1.90500E+01
 -1      3004 2.11917E+01-1.33799E+02 1.90500E+01
 -1      3005 1.41601E+01-1.34725E+02 1.90500E+01
 -1      3006 7.08978E+00-1.35281E+02 1.90500E+01
 -1      3007 1.38663E+02-7.26702E+00 1.90500E+01
 -1      3008 1.38093E+02-1.45141E+01 1.90500E+01
 -1      3009 1.37144E+02-2.17214E+01 1.90500E+01
 -1      3010 1.35819E+02-2.88692E+01 1.90500E+01
 -1      3011 1.34122E+02-3.59379E+01 1.90500E+01
 -1      3012 1.32057E+02-4.29080E+01 1.90500E+01
 -1      3013 1.29631E+02-4.97606E+01 1.90500E+01
 -1      3014 1.26849E+02-5.64767E+01 1.90500E+01
 -1      3015 1.23719E+02-6.30381E+01 1.90500E+01
 -1      3016 1.20251E+02-6.94267E+01 1.90500E+01
 -1      3017 1.16452E+02-7.56249E+01 1.90500E+01
 -1      3018 1.12335E+02-8.16159E+01 1.90500E+01
 -1      3019 1.07909E+02-8.73832E+01 1.90500E+01
 -1      3020 1.03188E+02-9.29110E+01 1.90500E+01
 -1      3021 9.81841E+01-9.81841E+01 1.90500E+01
 -1      3022 9.29110E+01-1.03188E+02 1.90500E+01
 -1      3023 8.73832E+01-1.07909E+02 1.90500E+01
 -1      3024 8.16159E+01-1.12335E+02 1.90500E+01
 -1      3025 7.56249E+01-1.16452E+02 1.90500E+01
 -1      3026 6.94267E+01-1.20251E+02 1.90500E+01
 -1      3027 6.30381E+01-1.23719E+02 1.90500E+01
 -1      3028 5.64767E+01-1.26849E+02 1.90500E+01
 -1      3029 4.97606E+01-1.29631E+02 1.90500E+01
 -1      3030 4.29080E+01-1.32057E+02 1.90500E+01
 -1      3031 3.59379E+01-1.34122E+02 1.90500E+01
 -1      3032 2.88692E+01-1.35819E+02 1.90500E+01
 -1      3033 2.17214E+01-1.37144E+02 1.90500E+01
 -1      3034 1.45141E+01-1.38093E+02 1.90500E+01
 -1      3035 7.26702E+00-1.38663E+02 1.90500E+01
 -1      3036 1.42045E+02-7.44427E+00 1.90500E+01
 -1      3037 1.41461E+02-1.48681E+01 1.90500E+01
 -1      3038 1.40489E+02-2.22512E+01 1.90500E+01
 -1      3039 1.39132E+02-2.95734E+01 1.90500E+01
 -1      3040 1.37393E+02-3.68144E+01 1.90500E+01
 -1      3041 1.35278E+02-4.39546E+01 1.90500E+01
 -1      3042 1.32792E+02-5.09743E+01 1.90500E+01
 -1      3043 1.29943E+02-5.78542E+01 1.90500E+01
 -1      3044 1.26737E+02-6.45756E+01 1.90500E+01
 -1      3045 1.23183E+02-7.11200E+01 1.90500E+01
 -1      3046 1.19293E+02-7.74695E+01 1.90500E+01
 -1      3047 1.15075E+02-8.36066E+01 1.90500E+01
 -1      3048 1.10541E+02-8.95145E+01 1.90500E+01
 -1      3049 1.05705E+02-9.51771E+01 1.90500E+01
 -1      3050 1.00579E+02-1.00579E+02 1.90500E+01
 -1      3051 9.51771E+01-1.05705E+02 1.90500E+01
 -1      3052 8.95145E+01-1.10541E+02 1.90500E+01
 -1      3053 8.36066E+01-1.15075E+02 1.90500E+01
 -1      3054 7.74695E+01-1.19293E+02 1.90500E+01
 -1      3055 7.11200E+01-1.23183E+02 1.90500E+01
 -1      3056 6.45756E+01-1.26737E+02 1.90500E+01
 -1      3057 5.78542E+01-1.29943E+02 1.90500E+01
 -1      3058 5.09743E+01-1.32792E+02 1.90500E+01
 -1      3059 4.39546E+01-1.35278E+02 1.90500E+01
 -1      3060 3.68144E+01-1.37393E+02 1.90500E+01
 -1      3061 2.95734E+01-1.39132E+02 1.90500E+01
 -1      3062 2.22512E+01-1.40489E+02 1.90500E+01
 -1      3063 1.48681E+01-1.41461E+02 1.90500E+01
 -1      3064 7.44427E+00-1.42045E+02 1.90500E+01
 -1      3065 1.45427E+02-7.62151E+00 1.90500E+01
 -1      3066 1.44829E+02-1.52221E+01 1.90500E+01
 -1      3067 1.43834E+02-2.27810E+01 1.90500E+01
 -1      3068 1.42444E+02-3.02775E+01 1.90500E+01
 -1      3069 1.40665E+02-3.76910E+01 1.90500E+01
 -1      3070 1.38499E+02-4.50011E+01 1.90500E+01
 -1      3071 1.35954E+02-5.21879E+01 1.90500E+01
 -1      3072 1.33037E+02-5.92317E+01 1.90500E+01
 -1      3073 1.29754E+02-6.61131E+01 1.90500E+01
 -1      3074 1.26116E+02-7.28133E+01 1.90500E+01
 -1      3075 1.22133E+02-7.93140E+01 1.90500E+01
 -1      3076 1.17814E+02-8.55972E+01 1.90500E+01
 -1      3077 1.13173E+02-9.16458E+01 1.90500E+01
 -1      3078 1.08222E+02-9.74433E+01 1.90500E+01
 -1      3079 1.02974E+02-1.02974E+02 1.90500E+01
 -1      3080 9.74433E+01-1.08222E+02 1.90500E+01
 -1      3081 9.16458E+01-1.13173E+02 1.90500E+01
 -1      3082 8.55972E+01-1.17814E+02 1.90500E+01
 -1      3083 7.93140E+01-1.22133E+02 1.90500E+01
 -1      3084 7.28133E+01-1.26116E+02 1.90500E+01
 -1      3085 6.61131E+01-1.29754E+02 1.90500E+01
 -1      3086 5.92317E+01-1.33037E+02 1.90500E+01
 -1      3087 5.21879E+01-1.35954E+02 1.90500E+01
 -1      3088 4.50011E+01-1.38499E+02 1.90500E+01
 -1      3089 3.76910E+01-1.40665E+02 1.90500E+01
 -1      3090 3.02775E+01-1.42444E+02 1.90500E+01
 -1      3091 2.27810E+01-1.43834E+02 1.90500E+01
 -1      3092 1.52221E+01-1.44829E+02 1.90500E+01
 -1      3093 7.62151E+00-1.45427E+02 1.90500E+01
 -1      3094 1.48809E+02-7.79876E+00 1.90500E+01
 -1      3095 1.48197E+02-1.55761E+01 1.90500E+01
 -1      3096 1.47179E+02-2.33108E+01 1.90500E+01
 -1      3097 1.45757E+02-3.09816E+01 1.90500E+01
 -1      3098 1.43936E+02-3.85675E+01 1.90500E+01
 -1      3099 1.41720E+02-4.60477E+01 1.90500E+01
 -1      3100 1.39116E+02-5.34016E+01 1.90500E+01
 -1      3101 1.36130E+02-6.06092E+01 1.90500E+01
 -1      3102 1.32772E+02-6.76506E+01 1.90500E+01
 -1      3103 1.29049E+02-7.45067E+01 1.90500E+01
 -1      3104 1.24973E+02-8.11585E+01 1.90500E+01
 -1      3105 1.20554E+02-8.75878E+01 1.90500E+01
 -1      3106 1.15805E+02-9.37771E+01 1.90500E+01
 -1      3107 1.10738E+02-9.97094E+01 1.90500E+01
 -1      3108 1.05368E+02-1.05368E+02 1.90500E+01
 -1      3109 9.97094E+01-1.10738E+02 1.90500E+01
 -1      3110 9.37771E+01-1.15805E+02 1.90500E+01
 -1      3111 8.75878E+01-1.20554E+02 1.90500E+01
 -1      3112 8.11585E+01-1.24973E+02 1.90500E+01
 -1      3113 7.45067E+01-1.29049E+02 1.90500E+01
 -1      3114 6.76506E+01-1.32772E+02 1.90500E+01
 -1      3115 6.06092E+01-1.36130E+02 1.90500E+01
 -1      3116 5.34016E+01-1.39116E+02 1.90500E+01
 -1      3117 4.60477E+01-1.41720E+02 1.90500E+01
 -1      3118 3.85675E+01-1.43936E+02 1.90500E+01
 -1      3119 3.09816E+01-1.45757E+02 1.90500E+01
 -1      3120 2.33108E+01-1.47179E+02 1.90500E+01
 -1      3121 1.55761E+01-1.48197E+02 1.90500E+01
 -1      3122 7.79876E+00-1.48809E+02 1.90500E+01
 -1      3123 5.41124E+01-2.83591E+00 1.73182E+00
 -1      3124 5.41124E+01-2.83591E+00 3.46364E+00
 -1      3125 5.41124E+01-2.83591E+00 5.19545E+00
 -1      3126 5.41124E+01-2.83591E+00 6.92727E+00
 -1      3127 5.41124E+01-2.83591E+00 8.65909E+00
 -1      3128 5.41124E+01-2.83591E+00 1.03909E+01
 -1      3129 5.41124E+01-2.83591E+00 1.21227E+01
 -1      3130 5.41124E+01-2.83591E+00 1.38545E+01
 -1      3131 5.41124E+01-2.83591E+00 1.55864E+01
 -1      3132 5.41124E+01-2.83591E+00 1.73182E+01
 -1      3133 5.38898E+01-5.66405E+00 1.73182E+00
 -1      3134 5.38898E+01-5.66405E+00 3.46364E+00
 -1      3135 5.38898E+01-5.66405E+00 5.19545E+00
 -1      3136 5.38898E+01-5.66405E+00 6.92727E+00
 -1      3137 5.38898E+01-5.66405E+00 8.65909E+00
 -1      3138 5.38898E+01-5.66405E+00 1.03909E+01
 -1      3139 5.38898E+01-5.66405E+00 1.21227E+01
 -1      3140 5.38898E+01-5.66405E+00 1.38545E+01
 -1      3141 5.38898E+01-5.66405E+00 1.55864E+01
 -1      3142 5.38898E+01-5.66405E+00 1.73182E+01
 -1      3143 5.35195E+01-8.47666E+00 1.73182E+00
 -1      3144 5.35195E+01-8.47666E+00 3.46364E+00
 -1      3145 5.35195E+01-8.47666E+00 5.19545E+00
 -1      3146 5.35195E+01-8.47666E+00 6.92727E+00
 -1      3147 5.35195E+01-8.47666E+00 8.65909E+00
 -1      3148 5.35195E+01-8.47666E+00 1.03909E+01
 -1      3149 5.35195E+01-8.47666E+00 1.21227E+01
 -1      3150 5.35195E+01-8.47666E+00 1.38545E+01
 -1      3151 5.35195E+01-8.47666E+00 1.55864E+01
 -1      3152 5.35195E+01-8.47666E+00 1.73182E+01
 -1      3153 5.30026E+01-1.12660E+01 1.73182E+00
 -1      3154 5.30026E+01-1.12660E+01 3.46364E+00
 -1      3155 5.30026E+01-1.12660E+01 5.19545E+00
 -1      3156 5.30026E+01-1.12660E+01 6.92727E+00
 -1      3157 5.30026E+01-1.12660E+01 8.65909E+00
 -1      3158 5.30026E+01-1.12660E+01 1.03909E+01
 -1      3159 5.30026E+01-1.12660E+01 1.21227E+01
 -1      3160 5.30026E+01-1.12660E+01 1.38545E+01
 -1      3161 5.30026E+01-1.12660E+01 1.55864E+01
 -1      3162 5.30026E+01-1.12660E+01 1.73182E+01
 -1      3163 5.23403E+01-1.40245E+01 1.73182E+00
 -1      3164 5.23403E+01-1.40245E+01 3.46364E+00
 -1      3165 5.23403E+01-1.40245E+01 5.19545E+00
 -1      3166 5.23403E+01-1.40245E+01 6.92727E+00
 -1      3167 5.23403E+01-1.40245E+01 8.65909E+00
 -1      3168 5.23403E+01-1.40245E+01 1.03909E+01
 -1      3169 5.23403E+01-1.40245E+01 1.21227E+01
 -1      3170 5.23403E+01-1.40245E+01 1.38545E+01
 -1      3171 5.23403E+01-1.40245E+01 1.55864E+01
 -1      3172 5.23403E+01-1.40245E+01 1.73182E+01
 -1      3173 5.15346E+01-1.67446E+01 1.73182E+00
 -1      3174 5.15346E+01-1.67446E+01 3.46364E+00
 -1      3175 5.15346E+01-1.67446E+01 5.19545E+00
 -1      3176 5.15346E+01-1.67446E+01 6.92727E+00
 -1      3177 5.15346E+01-1.67446E+01 8.65909E+00
 -1      3178 5.15346E+01-1.67446E+01 1.03909E+01
 -1      3179 5.15346E+01-1.67446E+01 1.21227E+01
 -1      3180 5.15346E+01-1.67446E+01 1.38545E+01
 -1      3181 5.15346E+01-1.67446E+01 1.55864E+01
 -1      3182 5.15346E+01-1.67446E+01 1.73182E+01
 -1      3183 5.05876E+01-1.94188E+01 1.73182E+00
 -1      3184 5.05876E+01-1.94188E+01 3.46364E+00
 -1      3185 5.05876E+01-1.94188E+01 5.19545E+00
 -1      3186 5.05876E+01-1.94188E+01 6.92727E+00
 -1      3187 5.05876E+01-1.94188E+01 8.65909E+00
 -1      3188 5.05876E+01-1.94188E+01 1.03909E+01
 -1      3189 5.05876E+01-1.94188E+01 1.21227E+01
 -1      3190 5.05876E+01-1.94188E+01 1.38545E+01
 -1      3191 5.05876E+01-1.94188E+01 1.55864E+01
 -1      3192 5.05876E+01-1.94188E+01 1.73182E+01
 -1      3193 4.95020E+01-2.20397E+01 1.73182E+00
 -1      3194 4.95020E+01-2.20397E+01 3.46364E+00
 -1      3195 4.95020E+01-2.20397E+01 5.19545E+00
 -1      3196 4.95020E+01-2.20397E+01 6.92727E+00
 -1      3197 4.95020E+01-2.20397E+01 8.65909E+00
 -1      3198 4.95020E+01-2.20397E+01 1.03909E+01
 -1      3199 4.95020E+01-2.20397E+01 1.21227E+01
 -1      3200 4.95020E+01-2.20397E+01 1.38545E+01
 -1      3201 4.95020E+01-2.20397E+01 1.55864E+01
 -1      3202 4.95020E+01-2.20397E+01 1.73182E+01
 -1      3203 4.82807E+01-2.46002E+01 1.73182E+00
 -1      3204 4.82807E+01-2.46002E+01 3.46364E+00
 -1      3205 4.82807E+01-2.46002E+01 5.19545E+00
 -1      3206 4.82807E+01-2.46002E+01 6.92727E+00
 -1      3207 4.82807E+01-2.46002E+01 8.65909E+00
 -1      3208 4.82807E+01-2.46002E+01 1.03909E+01
 -1      3209 4.82807E+01-2.46002E+01 1.21227E+01
 -1      3210 4.82807E+01-2.46002E+01 1.38545E+01
 -1      3211 4.82807E+01-2.46002E+01 1.55864E+01
 -1      3212 4.82807E+01-2.46002E+01 1.73182E+01
 -1      3213 4.69270E+01-2.70933E+01 1.73182E+00
 -1      3214 4.69270E+01-2.70933E+01 3.46364E+00
 -1      3215 4.69270E+01-2.70933E+01 5.19545E+00
 -1      3216 4.69270E+01-2.70933E+01 6.92727E+00
 -1      3217 4.69270E+01-2.70933E+01 8.65909E+00
 -1      3218 4.69270E+01-2.70933E+01 1.03909E+01
 -1      3219 4.69270E+01-2.70933E+01 1.21227E+01
 -1      3220 4.69270E+01-2.70933E+01 1.38545E+01
 -1      3221 4.69270E+01-2.70933E+01 1.55864E+01
 -1      3222 4.69270E+01-2.70933E+01 1.73182E+01
 -1      3223 4.54448E+01-2.95122E+01 1.73182E+00
 -1      3224 4.54448E+01-2.95122E+01 3.46364E+00
 -1      3225 4.54448E+01-2.95122E+01 5.19545E+00
 -1      3226 4.54448E+01-2.95122E+01 6.92727E+00
 -1      3227 4.54448E+01-2.95122E+01 8.65909E+00
 -1      3228 4.54448E+01-2.95122E+01 1.03909E+01
 -1      3229 4.54448E+01-2.95122E+01 1.21227E+01
 -1      3230 4.54448E+01-2.95122E+01 1.38545E+01
 -1      3231 4.54448E+01-2.95122E+01 1.55864E+01
 -1      3232 4.54448E+01-2.95122E+01 1.73182E+01
 -1      3233 4.38379E+01-3.18501E+01 1.73182E+00
 -1      3234 4.38379E+01-3.18501E+01 3.46364E+00
 -1      3235 4.38379E+01-3.18501E+01 5.19545E+00
 -1      3236 4.38379E+01-3.18501E+01 6.92727E+00
 -1      3237 4.38379E+01-3.18501E+01 8.65909E+00
 -1      3238 4.38379E+01-3.18501E+01 1.03909E+01
 -1      3239 4.38379E+01-3.18501E+01 1.21227E+01
 -1      3240 4.38379E+01-3.18501E+01 1.38545E+01
 -1      3241 4.38379E+01-3.18501E+01 1.55864E+01
 -1      3242 4.38379E+01-3.18501E+01 1.73182E+01
 -1      3243 4.21110E+01-3.41008E+01 1.73182E+00
 -1      3244 4.21110E+01-3.41008E+01 3.46364E+00
 -1      3245 4.21110E+01-3.41008E+01 5.19545E+00
 -1      3246 4.21110E+01-3.41008E+01 6.92727E+00
 -1      3247 4.21110E+01-3.41008E+01 8.65909E+00
 -1      3248 4.21110E+01-3.41008E+01 1.03909E+01
 -1      3249 4.21110E+01-3.41008E+01 1.21227E+01
 -1      3250 4.21110E+01-3.41008E+01 1.38545E+01
 -1      3251 4.21110E+01-3.41008E+01 1.55864E+01
 -1      3252 4.21110E+01-3.41008E+01 1.73182E+01
 -1      3253 4.02685E+01-3.62580E+01 1.73182E+00
 -1      3254 4.02685E+01-3.62580E+01 3.46364E+00
 -1      3255 4.02685E+01-3.62580E+01 5.19545E+00
 -1      3256 4.02685E+01-3.62580E+01 6.92727E+00
 -1      3257 4.02685E+01-3.62580E+01 8.65909E+00
 -1      3258 4.02685E+01-3.62580E+01 1.03909E+01
 -1      3259 4.02685E+01-3.62580E+01 1.21227E+01
 -1      3260 4.02685E+01-3.62580E+01 1.38545E+01
 -1      3261 4.02685E+01-3.62580E+01 1.55864E+01
 -1      3262 4.02685E+01-3.62580E+01 1.73182E+01
 -1      3263 3.83158E+01-3.83158E+01 1.73182E+00
 -1      3264 3.83158E+01-3.83158E+01 3.46364E+00
 -1      3265 3.83158E+01-3.83158E+01 5.19545E+00
 -1      3266 3.83158E+01-3.83158E+01 6.92727E+00
 -1      3267 3.83158E+01-3.83158E+01 8.65909E+00
 -1      3268 3.83158E+01-3.83158E+01 1.03909E+01
 -1      3269 3.83158E+01-3.83158E+01 1.21227E+01
 -1      3270 3.83158E+01-3.83158E+01 1.38545E+01
 -1      3271 3.83158E+01-3.83158E+01 1.55864E+01
 -1      3272 3.83158E+01-3.83158E+01 1.73182E+01
 -1      3273 3.62580E+01-4.02685E+01 1.73182E+00
 -1      3274 3.62580E+01-4.02685E+01 3.46364E+00
 -1      3275 3.62580E+01-4.02685E+01 5.19545E+00
 -1      3276 3.62580E+01-4.02685E+01 6.92727E+00
 -1      3277 3.62580E+01-4.02685E+01 8.65909E+00
 -1      3278 3.62580E+01-4.02685E+01 1.03909E+01
 -1      3279 3.62580E+01-4.02685E+01 1.21227E+01
 -1      3280 3.62580E+01-4.02685E+01 1.38545E+01
 -1      3281 3.62580E+01-4.02685E+01 1.55864E+01
 -1      3282 3.62580E+01-4.02685E+01 1.73182E+01
 -1      3283 3.41008E+01-4.21110E+01 1.73182E+00
 -1      3284 3.41008E+01-4.21110E+01 3.46364E+00
 -1      3285 3.41008E+01-4.21110E+01 5.19545E+00
 -1      3286 3.41008E+01-4.21110E+01 6.92727E+00
 -1      3287 3.41008E+01-4.21110E+01 8.65909E+00
 -1      3288 3.41008E+01-4.21110E+01 1.03909E+01
 -1      3289 3.41008E+01-4.21110E+01 1.21227E+01
 -1      3290 3.41008E+01-4.21110E+01 1.38545E+01
 -1      3291 3.41008E+01-4.21110E+01 1.55864E+01
 -1      3292 3.41008E+01-4.21110E+01 1.73182E+01
 -1      3293 3.18501E+01-4.38379E+01 1.73182E+00
 -1      3294 3.18501E+01-4.38379E+01 3.46364E+00
 -1      3295 3.18501E+01-4.38379E+01 5.19545E+00
 -1      3296 3.18501E+01-4.38379E+01 6.92727E+00
 -1      3297 3.18501E+01-4.38379E+01 8.65909E+00
 -1      3298 3.18501E+01-4.38379E+01 1.03909E+01
 -1      3299 3.18501E+01-4.38379E+01 1.21227E+01
 -1      3300 3.18501E+01-4.38379E+01 1.38545E+01
 -1      3301 3.18501E+01-4.38379E+01 1.55864E+01
 -1      3302 3.18501E+01-4.38379E+01 1.73182E+01
 -1      3303 2.95122E+01-4.54448E+01 1.73182E+00
 -1      3304 2.95122E+01-4.54448E+01 3.46364E+00
 -1      3305 2.95122E+01-4.54448E+01 5.19545E+00
 -1      3306 2.95122E+01-4.54448E+01 6.92727E+00
 -1      3307 2.95122E+01-4.54448E+01 8.65909E+00
 -1      3308 2.95122E+01-4.54448E+01 1.03909E+01
 -1      3309 2.95122E+01-4.54448E+01 1.21227E+01
 -1      3310 2.95122E+01-4.54448E+01 1.38545E+01
 -1      3311 2.95122E+01-4.54448E+01 1.55864E+01
 -1      3312 2.95122E+01-4.54448E+01 1.73182E+01
 -1      3313 2.70933E+01-4.69270E+01 1.73182E+00
 -1      3314 2.70933E+01-4.69270E+01 3.46364E+00
 -1      3315 2.70933E+01-4.69270E+01 5.19545E+00
 -1      3316 2.70933E+01-4.69270E+01 6.92727E+00
 -1      3317 2.70933E+01-4.69270E+01 8.65909E+00
 -1      3318 2.70933E+01-4.69270E+01 1.03909E+01
 -1      3319 2.70933E+01-4.69270E+01 1.21227E+01
 -1      3320 2.70933E+01-4.69270E+01 1.38545E+01
 -1      3321 2.70933E+01-4.69270E+01 1.55864E+01
 -1      3322 2.70933E+01-4.69270E+01 1.73182E+01
 -1      3323 2.46002E+01-4.82807E+01 1.73182E+00
 -1      3324 2.46002E+01-4.82807E+01 3.46364E+00
 -1      3325 2.46002E+01-4.82807E+01 5.19545E+00
 -1      3326 2.46002E+01-4.82807E+01 6.92727E+00
 -1      3327 2.46002E+01-4.82807E+01 8.65909E+00
 -1      3328 2.46002E+01-4.82807E+01 1.03909E+01
 -1      3329 2.46002E+01-4.82807E+01 1.21227E+01
 -1      3330 2.46002E+01-4.82807E+01 1.38545E+01
 -1      3331 2.46002E+01-4.82807E+01 1.55864E+01
 -1      3332 2.46002E+01-4.82807E+01 1.73182E+01
 -1      3333 2.20397E+01-4.95020E+01 1.73182E+00
 -1      3334 2.20397E+01-4.95020E+01 3.46364E+00
 -1      3335 2.20397E+01-4.95020E+01 5.19545E+00
 -1      3336 2.20397E+01-4.95020E+01 6.92727E+00
 -1      3337 2.20397E+01-4.95020E+01 8.65909E+00
 -1      3338 2.20397E+01-4.95020E+01 1.03909E+01
 -1      3339 2.20397E+01-4.95020E+01 1.21227E+01
 -1      3340 2.20397E+01-4.95020E+01 1.38545E+01
 -1      3341 2.20397E+01-4.95020E+01 1.55864E+01
 -1      3342 2.20397E+01-4.95020E+01 1.73182E+01
 -1      3343 1.94188E+01-5.05876E+01 1.73182E+00
 -1      3344 1.94188E+01-5.05876E+01 3.46364E+00
 -1      3345 1.94188E+01-5.05876E+01 5.19545E+00
 -1      3346 1.94188E+01-5.05876E+01 6.92727E+00
 -1      3347 1.94188E+01-5.05876E+01 8.65909E+00
 -1      3348 1.94188E+01-5.05876E+01 1.03909E+01
 -1      3349 1.94188E+01-5.05876E+01 1.21227E+01
 -1      3350 1.94188E+01-5.05876E+01 1.38545E+01
 -1      3351 1.94188E+01-5.05876E+01 1.55864E+01
 -1      3352 1.94188E+01-5.05876E+01 1.73182E+01
 -1      3353 1.67446E+01-5.15346E+01 1.73182E+00
 -1      3354 1.67446E+01-5.15346E+01 3.46364E+00
 -1      3355 1.67446E+01-5.15346E+01 5.19545E+00
 -1      3356 1.67446E+01-5.15346E+01 6.92727E+00
 -1      3357 1.67446E+01-5.15346E+01 8.65909E+00
 -1      3358 1.67446E+01-5.15346E+01 1.03909E+01
 -1      3359 1.67446E+01-5.15346E+01 1.21227E+01
 -1      3360 1.67446E+01-5.15346E+01 1.38545E+01
 -1      3361 1.67446E+01-5.15346E+01 1.55864E+01
 -1      3362 1.67446E+01-5.15346E+01 1.73182E+01
 -1      3363 1.40245E+01-5.23403E+01 1.73182E+00
 -1      3364 1.40245E+01-5.23403E+01 3.46364E+00
 -1      3365 1.40245E+01-5.23403E+01 5.19545E+00
 -1      3366 1.40245E+01-5.23403E+01 6.92727E+00
 -1      3367 1.40245E+01-5.23403E+01 8.65909E+00
 -1      3368 1.40245E+01-5.23403E+01 1.03909E+01
 -1      3369 1.40245E+01-5.23403E+01 1.21227E+01
 -1      3370 1.40245E+01-5.23403E+01 1.38545E+01
 -1      3371 1.40245E+01-5.23403E+01 1.55864E+01
 -1      3372 1.40245E+01-5.23403E+01 1.73182E+01
 -1      3373 1.12660E+01-5.30026E+01 1.73182E+00
 -1      3374 1.12660E+01-5.30026E+01 3.46364E+00
 -1      3375 1.12660E+01-5.30026E+01 5.19545E+00
 -1      3376 1.12660E+01-5.30026E+01 6.92727E+00
 -1      3377 1.12660E+01-5.30026E+01 8.65909E+00
 -1      3378 1.12660E+01-5.30026E+01 1.03909E+01
 -1      3379 1.12660E+01-5.30026E+01 1.21227E+01
 -1      3380 1.12660E+01-5.30026E+01 1.38545E+01
 -1      3381 1.12660E+01-5.30026E+01 1.55864E+01
 -1      3382 1.12660E+01-5.30026E+01 1.73182E+01
 -1      3383 8.47666E+00-5.35195E+01 1.73182E+00
 -1      3384 8.47666E+00-5.35195E+01 3.46364E+00
 -1      3385 8.47666E+00-5.35195E+01 5.19545E+00
 -1      3386 8.47666E+00-5.35195E+01 6.92727E+00
 -1      3387 8.47666E+00-5.35195E+01 8.65909E+00
 -1      3388 8.47666E+00-5.35195E+01 1.03909E+01
 -1      3389 8.47666E+00-5.35195E+01 1.21227E+01
 -1      3390 8.47666E+00-5.35195E+01 1.38545E+01
 -1      3391 8.47666E+00-5.35195E+01 1.55864E+01
 -1      3392 8.47666E+00-5.35195E+01 1.73182E+01
 -1      3393 5.66405E+00-5.38898E+01 1.73182E+00
 -1      3394 5.66405E+00-5.38898E+01 3.46364E+00
 -1      3395 5.66405E+00-5.38898E+01 5.19545E+00
 -1      3396 5.66405E+00-5.38898E+01 6.92727E+00
 -1      3397 5.66405E+00-5.38898E+01 8.65909E+00
 -1      3398 5.66405E+00-5.38898E+01 1.03909E+01
 -1      3399 5.66405E+00-5.38898E+01 1.21227E+01
 -1      3400 5.66405E+00-5.38898E+01 1.38545E+01
 -1      3401 5.66405E+00-5.38898E+01 1.55864E+01
 -1      3402 5.66405E+00-5.38898E+01 1.73182E+01
 -1      3403 2.83591E+00-5.41124E+01 1.73182E+00
 -1      3404 2.83591E+00-5.41124E+01 3.46364E+00
 -1      3405 2.83591E+00-5.41124E+01 5.19545E+00
 -1      3406 2.83591E+00-5.41124E+01 6.92727E+00
 -1      3407 2.83591E+00-5.41124E+01 8.65909E+00
 -1      3408 2.83591E+00-5.41124E+01 1.03909E+01
 -1      3409 2.83591E+00-5.41124E+01 1.21227E+01
 -1      3410 2.83591E+00-5.41124E+01 1.38545E+01
 -1      3411 2.83591E+00-5.41124E+01 1.55864E+01
 -1      3412 2.83591E+00-5.41124E+01 1.73182E+01
 -1      3413 5.74944E+01-3.01316E+00 1.73182E+00
 -1      3414 5.74944E+01-3.01316E+00 3.46364E+00
 -1      3415 5.74944E+01-3.01316E+00 5.19545E+00
 -1      3416 5.74944E+01-3.01316E+00 6.92727E+00
 -1      3417 5.74944E+01-3.01316E+00 8.65909E+00
 -1      3418 5.74944E+01-3.01316E+00 1.03909E+01
 -1      3419 5.74944E+01-3.01316E+00 1.21227E+01
 -1      3420 5.74944E+01-3.01316E+00 1.38545E+01
 -1      3421 5.74944E+01-3.01316E+00 1.55864E+01
 -1      3422 5.74944E+01-3.01316E+00 1.73182E+01
 -1      3423 5.72579E+01-6.01805E+00 1.73182E+00
 -1      3424 5.72579E+01-6.01805E+00 3.46364E+00
 -1      3425 5.72579E+01-6.01805E+00 5.19545E+00
 -1      3426 5.72579E+01-6.01805E+00 6.92727E+00
 -1      3427 5.72579E+01-6.01805E+00 8.65909E+00
 -1      3428 5.72579E+01-6.01805E+00 1.03909E+01
 -1      3429 5.72579E+01-6.01805E+00 1.21227E+01
 -1      3430 5.72579E+01-6.01805E+00 1.38545E+01
 -1      3431 5.72579E+01-6.01805E+00 1.55864E+01
 -1      3432 5.72579E+01-6.01805E+00 1.73182E+01
 -1      3433 5.68645E+01-9.00645E+00 1.73182E+00
 -1      3434 5.68645E+01-9.00645E+00 3.46364E+00
 -1      3435 5.68645E+01-9.00645E+00 5.19545E+00
 -1      3436 5.68645E+01-9.00645E+00 6.92727E+00
 -1      3437 5.68645E+01-9.00645E+00 8.65909E+00
 -1      3438 5.68645E+01-9.00645E+00 1.03909E+01
 -1      3439 5.68645E+01-9.00645E+00 1.21227E+01
 -1      3440 5.68645E+01-9.00645E+00 1.38545E+01
 -1      3441 5.68645E+01-9.00645E+00 1.55864E+01
 -1      3442 5.68645E+01-9.00645E+00 1.73182E+01
 -1      3443 5.63152E+01-1.19702E+01 1.73182E+00
 -1      3444 5.63152E+01-1.19702E+01 3.46364E+00
 -1      3445 5.63152E+01-1.19702E+01 5.19545E+00
 -1      3446 5.63152E+01-1.19702E+01 6.92727E+00
 -1      3447 5.63152E+01-1.19702E+01 8.65909E+00
 -1      3448 5.63152E+01-1.19702E+01 1.03909E+01
 -1      3449 5.63152E+01-1.19702E+01 1.21227E+01
 -1      3450 5.63152E+01-1.19702E+01 1.38545E+01
 -1      3451 5.63152E+01-1.19702E+01 1.55864E+01
 -1      3452 5.63152E+01-1.19702E+01 1.73182E+01
 -1      3453 5.56116E+01-1.49011E+01 1.73182E+00
 -1      3454 5.56116E+01-1.49011E+01 3.46364E+00
 -1      3455 5.56116E+01-1.49011E+01 5.19545E+00
 -1      3456 5.56116E+01-1.49011E+01 6.92727E+00
 -1      3457 5.56116E+01-1.49011E+01 8.65909E+00
 -1      3458 5.56116E+01-1.49011E+01 1.03909E+01
 -1      3459 5.56116E+01-1.49011E+01 1.21227E+01
 -1      3460 5.56116E+01-1.49011E+01 1.38545E+01
 -1      3461 5.56116E+01-1.49011E+01 1.55864E+01
 -1      3462 5.56116E+01-1.49011E+01 1.73182E+01
 -1      3463 5.47555E+01-1.77911E+01 1.73182E+00
 -1      3464 5.47555E+01-1.77911E+01 3.46364E+00
 -1      3465 5.47555E+01-1.77911E+01 5.19545E+00
 -1      3466 5.47555E+01-1.77911E+01 6.92727E+00
 -1      3467 5.47555E+01-1.77911E+01 8.65909E+00
 -1      3468 5.47555E+01-1.77911E+01 1.03909E+01
 -1      3469 5.47555E+01-1.77911E+01 1.21227E+01
 -1      3470 5.47555E+01-1.77911E+01 1.38545E+01
 -1      3471 5.47555E+01-1.77911E+01 1.55864E+01
 -1      3472 5.47555E+01-1.77911E+01 1.73182E+01
 -1      3473 5.37493E+01-2.06324E+01 1.73182E+00
 -1      3474 5.37493E+01-2.06324E+01 3.46364E+00
 -1      3475 5.37493E+01-2.06324E+01 5.19545E+00
 -1      3476 5.37493E+01-2.06324E+01 6.92727E+00
 -1      3477 5.37493E+01-2.06324E+01 8.65909E+00
 -1      3478 5.37493E+01-2.06324E+01 1.03909E+01
 -1      3479 5.37493E+01-2.06324E+01 1.21227E+01
 -1      3480 5.37493E+01-2.06324E+01 1.38545E+01
 -1      3481 5.37493E+01-2.06324E+01 1.55864E+01
 -1      3482 5.37493E+01-2.06324E+01 1.73182E+01
 -1      3483 5.25959E+01-2.34172E+01 1.73182E+00
 -1      3484 5.25959E+01-2.34172E+01 3.46364E+00
 -1      3485 5.25959E+01-2.34172E+01 5.19545E+00
 -1      3486 5.25959E+01-2.34172E+01 6.92727E+00
 -1      3487 5.25959E+01-2.34172E+01 8.65909E+00
 -1      3488 5.25959E+01-2.34172E+01 1.03909E+01
 -1      3489 5.25959E+01-2.34172E+01 1.21227E+01
 -1      3490 5.25959E+01-2.34172E+01 1.38545E+01
 -1      3491 5.25959E+01-2.34172E+01 1.55864E+01
 -1      3492 5.25959E+01-2.34172E+01 1.73182E+01
 -1      3493 5.12982E+01-2.61377E+01 1.73182E+00
 -1      3494 5.12982E+01-2.61377E+01 3.46364E+00
 -1      3495 5.12982E+01-2.61377E+01 5.19545E+00
 -1      3496 5.12982E+01-2.61377E+01 6.92727E+00
 -1      3497 5.12982E+01-2.61377E+01 8.65909E+00
 -1      3498 5.12982E+01-2.61377E+01 1.03909E+01
 -1      3499 5.12982E+01-2.61377E+01 1.21227E+01
 -1      3500 5.12982E+01-2.61377E+01 1.38545E+01
 -1      3501 5.12982E+01-2.61377E+01 1.55864E+01
 -1      3502 5.12982E+01-2.61377E+01 1.73182E+01
 -1      3503 4.98600E+01-2.87867E+01 1.73182E+00
 -1      3504 4.98600E+01-2.87867E+01 3.46364E+00
 -1      3505 4.98600E+01-2.87867E+01 5.19545E+00
 -1      3506 4.98600E+01-2.87867E+01 6.92727E+00
 -1      3507 4.98600E+01-2.87867E+01 8.65909E+00
 -1      3508 4.98600E+01-2.87867E+01 1.03909E+01
 -1      3509 4.98600E+01-2.87867E+01 1.21227E+01
 -1      3510 4.98600E+01-2.87867E+01 1.38545E+01
 -1      3511 4.98600E+01-2.87867E+01 1.55864E+01
 -1      3512 4.98600E+01-2.87867E+01 1.73182E+01
 -1      3513 4.82851E+01-3.13567E+01 1.73182E+00
 -1      3514 4.82851E+01-3.13567E+01 3.46364E+00
 -1      3515 4.82851E+01-3.13567E+01 5.19545E+00
 -1      3516 4.82851E+01-3.13567E+01 6.92727E+00
 -1      3517 4.82851E+01-3.13567E+01 8.65909E+00
 -1      3518 4.82851E+01-3.13567E+01 1.03909E+01
 -1      3519 4.82851E+01-3.13567E+01 1.21227E+01
 -1      3520 4.82851E+01-3.13567E+01 1.38545E+01
 -1      3521 4.82851E+01-3.13567E+01 1.55864E+01
 -1      3522 4.82851E+01-3.13567E+01 1.73182E+01
 -1      3523 4.65778E+01-3.38408E+01 1.73182E+00
 -1      3524 4.65778E+01-3.38408E+01 3.46364E+00
 -1      3525 4.65778E+01-3.38408E+01 5.19545E+00
 -1      3526 4.65778E+01-3.38408E+01 6.92727E+00
 -1      3527 4.65778E+01-3.38408E+01 8.65909E+00
 -1      3528 4.65778E+01-3.38408E+01 1.03909E+01
 -1      3529 4.65778E+01-3.38408E+01 1.21227E+01
 -1      3530 4.65778E+01-3.38408E+01 1.38545E+01
 -1      3531 4.65778E+01-3.38408E+01 1.55864E+01
 -1      3532 4.65778E+01-3.38408E+01 1.73182E+01
 -1      3533 4.47429E+01-3.62321E+01 1.73182E+00
 -1      3534 4.47429E+01-3.62321E+01 3.46364E+00
 -1      3535 4.47429E+01-3.62321E+01 5.19545E+00
 -1      3536 4.47429E+01-3.62321E+01 6.92727E+00
 -1      3537 4.47429E+01-3.62321E+01 8.65909E+00
 -1      3538 4.47429E+01-3.62321E+01 1.03909E+01
 -1      3539 4.47429E+01-3.62321E+01 1.21227E+01
 -1      3540 4.47429E+01-3.62321E+01 1.38545E+01
 -1      3541 4.47429E+01-3.62321E+01 1.55864E+01
 -1      3542 4.47429E+01-3.62321E+01 1.73182E+01
 -1      3543 4.27853E+01-3.85241E+01 1.73182E+00
 -1      3544 4.27853E+01-3.85241E+01 3.46364E+00
 -1      3545 4.27853E+01-3.85241E+01 5.19545E+00
 -1      3546 4.27853E+01-3.85241E+01 6.92727E+00
 -1      3547 4.27853E+01-3.85241E+01 8.65909E+00
 -1      3548 4.27853E+01-3.85241E+01 1.03909E+01
 -1      3549 4.27853E+01-3.85241E+01 1.21227E+01
 -1      3550 4.27853E+01-3.85241E+01 1.38545E+01
 -1      3551 4.27853E+01-3.85241E+01 1.55864E+01
 -1      3552 4.27853E+01-3.85241E+01 1.73182E+01
 -1      3553 4.07105E+01-4.07105E+01 1.73182E+00
 -1      3554 4.07105E+01-4.07105E+01 3.46364E+00
 -1      3555 4.07105E+01-4.07105E+01 5.19545E+00
 -1      3556 4.07105E+01-4.07105E+01 6.92727E+00
 -1      3557 4.07105E+01-4.07105E+01 8.65909E+00
 -1      3558 4.07105E+01-4.07105E+01 1.03909E+01
 -1      3559 4.07105E+01-4.07105E+01 1.21227E+01
 -1      3560 4.07105E+01-4.07105E+01 1.38545E+01
 -1      3561 4.07105E+01-4.07105E+01 1.55864E+01
 -1      3562 4.07105E+01-4.07105E+01 1.73182E+01
 -1      3563 3.85241E+01-4.27853E+01 1.73182E+00
 -1      3564 3.85241E+01-4.27853E+01 3.46364E+00
 -1      3565 3.85241E+01-4.27853E+01 5.19545E+00
 -1      3566 3.85241E+01-4.27853E+01 6.92727E+00
 -1      3567 3.85241E+01-4.27853E+01 8.65909E+00
 -1      3568 3.85241E+01-4.27853E+01 1.03909E+01
 -1      3569 3.85241E+01-4.27853E+01 1.21227E+01
 -1      3570 3.85241E+01-4.27853E+01 1.38545E+01
 -1      3571 3.85241E+01-4.27853E+01 1.55864E+01
 -1      3572 3.85241E+01-4.27853E+01 1.73182E+01
 -1      3573 3.62321E+01-4.47429E+01 1.73182E+00
 -1      3574 3.62321E+01-4.47429E+01 3.46364E+00
 -1      3575 3.62321E+01-4.47429E+01 5.19545E+00
 -1      3576 3.62321E+01-4.47429E+01 6.92727E+00
 -1      3577 3.62321E+01-4.47429E+01 8.65909E+00
 -1      3578 3.62321E+01-4.47429E+01 1.03909E+01
 -1      3579 3.62321E+01-4.47429E+01 1.21227E+01
 -1      3580 3.62321E+01-4.47429E+01 1.38545E+01
 -1      3581 3.62321E+01-4.47429E+01 1.55864E+01
 -1      3582 3.62321E+01-4.47429E+01 1.73182E+01
 -1      3583 3.38408E+01-4.65778E+01 1.73182E+00
 -1      3584 3.38408E+01-4.65778E+01 3.46364E+00
 -1      3585 3.38408E+01-4.65778E+01 5.19545E+00
 -1      3586 3.38408E+01-4.65778E+01 6.92727E+00
 -1      3587 3.38408E+01-4.65778E+01 8.65909E+00
 -1      3588 3.38408E+01-4.65778E+01 1.03909E+01
 -1      3589 3.38408E+01-4.65778E+01 1.21227E+01
 -1      3590 3.38408E+01-4.65778E+01 1.38545E+01
 -1      3591 3.38408E+01-4.65778E+01 1.55864E+01
 -1      3592 3.38408E+01-4.65778E+01 1.73182E+01
 -1      3593 3.13567E+01-4.82851E+01 1.73182E+00
 -1      3594 3.13567E+01-4.82851E+01 3.46364E+00
 -1      3595 3.13567E+01-4.82851E+01 5.19545E+00
 -1      3596 3.13567E+01-4.82851E+01 6.92727E+00
 -1      3597 3.13567E+01-4.82851E+01 8.65909E+00
 -1      3598 3.13567E+01-4.82851E+01 1.03909E+01
 -1      3599 3.13567E+01-4.82851E+01 1.21227E+01
 -1      3600 3.13567E+01-4.82851E+01 1.38545E+01
 -1      3601 3.13567E+01-4.82851E+01 1.55864E+01
 -1      3602 3.13567E+01-4.82851E+01 1.73182E+01
 -1      3603 2.87867E+01-4.98600E+01 1.73182E+00
 -1      3604 2.87867E+01-4.98600E+01 3.46364E+00
 -1      3605 2.87867E+01-4.98600E+01 5.19545E+00
 -1      3606 2.87867E+01-4.98600E+01 6.92727E+00
 -1      3607 2.87867E+01-4.98600E+01 8.65909E+00
 -1      3608 2.87867E+01-4.98600E+01 1.03909E+01
 -1      3609 2.87867E+01-4.98600E+01 1.21227E+01
 -1      3610 2.87867E+01-4.98600E+01 1.38545E+01
 -1      3611 2.87867E+01-4.98600E+01 1.55864E+01
 -1      3612 2.87867E+01-4.98600E+01 1.73182E+01
 -1      3613 2.61377E+01-5.12982E+01 1.73182E+00
 -1      3614 2.61377E+01-5.12982E+01 3.46364E+00
 -1      3615 2.61377E+01-5.12982E+01 5.19545E+00
 -1      3616 2.61377E+01-5.12982E+01 6.92727E+00
 -1      3617 2.61377E+01-5.12982E+01 8.65909E+00
 -1      3618 2.61377E+01-5.12982E+01 1.03909E+01
 -1      3619 2.61377E+01-5.12982E+01 1.21227E+01
 -1      3620 2.61377E+01-5.12982E+01 1.38545E+01
 -1      3621 2.61377E+01-5.12982E+01 1.55864E+01
 -1      3622 2.61377E+01-5.12982E+01 1.73182E+01
 -1      3623 2.34172E+01-5.25959E+01 1.73182E+00
 -1      3624 2.34172E+01-5.25959E+01 3.46364E+00
 -1      3625 2.34172E+01-5.25959E+01 5.19545E+00
 -1      3626 2.34172E+01-5.25959E+01 6.92727E+00
 -1      3627 2.34172E+01-5.25959E+01 8.65909E+00
 -1      3628 2.34172E+01-5.25959E+01 1.03909E+01
 -1      3629 2.34172E+01-5.25959E+01 1.21227E+01
 -1      3630 2.34172E+01-5.25959E+01 1.38545E+01
 -1      3631 2.34172E+01-5.25959E+01 1.55864E+01
 -1      3632 2.34172E+01-5.25959E+01 1.73182E+01
 -1      3633 2.06324E+01-5.37493E+01 1.73182E+00
 -1      3634 2.06324E+01-5.37493E+01 3.46364E+00
 -1      3635 2.06324E+01-5.37493E+01 5.19545E+00
 -1      3636 2.06324E+01-5.37493E+01 6.92727E+00
 -1      3637 2.06324E+01-5.37493E+01 8.65909E+00
 -1      3638 2.06324E+01-5.37493E+01 1.03909E+01
 -1      3639 2.06324E+01-5.37493E+01 1.21227E+01
 -1      3640 2.06324E+01-5.37493E+01 1.38545E+01
 -1      3641 2.06324E+01-5.37493E+01 1.55864E+01
 -1      3642 2.06324E+01-5.37493E+01 1.73182E+01
 -1      3643 1.77911E+01-5.47555E+01 1.73182E+00
 -1      3644 1.77911E+01-5.47555E+01 3.46364E+00
 -1      3645 1.77911E+01-5.47555E+01 5.19545E+00
 -1      3646 1.77911E+01-5.47555E+01 6.92727E+00
 -1      3647 1.77911E+01-5.47555E+01 8.65909E+00
 -1      3648 1.77911E+01-5.47555E+01 1.03909E+01
 -1      3649 1.77911E+01-5.47555E+01 1.21227E+01
 -1      3650 1.77911E+01-5.47555E+01 1.38545E+01
 -1      3651 1.77911E+01-5.47555E+01 1.55864E+01
 -1      3652 1.77911E+01-5.47555E+01 1.73182E+01
 -1      3653 1.49011E+01-5.56116E+01 1.73182E+00
 -1      3654 1.49011E+01-5.56116E+01 3.46364E+00
 -1      3655 1.49011E+01-5.56116E+01 5.19545E+00
 -1      3656 1.49011E+01-5.56116E+01 6.92727E+00
 -1      3657 1.49011E+01-5.56116E+01 8.65909E+00
 -1      3658 1.49011E+01-5.56116E+01 1.03909E+01
 -1      3659 1.49011E+01-5.56116E+01 1.21227E+01
 -1      3660 1.49011E+01-5.56116E+01 1.38545E+01
 -1      3661 1.49011E+01-5.56116E+01 1.55864E+01
 -1      3662 1.49011E+01-5.56116E+01 1.73182E+01
 -1      3663 1.19702E+01-5.63152E+01 1.73182E+00
 -1      3664 1.19702E+01-5.63152E+01 3.46364E+00
 -1      3665 1.19702E+01-5.63152E+01 5.19545E+00
 -1      3666 1.19702E+01-5.63152E+01 6.92727E+00
 -1      3667 1.19702E+01-5.63152E+01 8.65909E+00
 -1      3668 1.19702E+01-5.63152E+01 1.03909E+01
 -1      3669 1.19702E+01-5.63152E+01 1.21227E+01
 -1      3670 1.19702E+01-5.63152E+01 1.38545E+01
 -1      3671 1.19702E+01-5.63152E+01 1.55864E+01
 -1      3672 1.19702E+01-5.63152E+01 1.73182E+01
 -1      3673 9.00645E+00-5.68645E+01 1.73182E+00
 -1      3674 9.00645E+00-5.68645E+01 3.46364E+00
 -1      3675 9.00645E+00-5.68645E+01 5.19545E+00
 -1      3676 9.00645E+00-5.68645E+01 6.92727E+00
 -1      3677 9.00645E+00-5.68645E+01 8.65909E+00
 -1      3678 9.00645E+00-5.68645E+01 1.03909E+01
 -1      3679 9.00645E+00-5.68645E+01 1.21227E+01
 -1      3680 9.00645E+00-5.68645E+01 1.38545E+01
 -1      3681 9.00645E+00-5.68645E+01 1.55864E+01
 -1      3682 9.00645E+00-5.68645E+01 1.73182E+01
 -1      3683 6.01805E+00-5.72579E+01 1.73182E+00
 -1      3684 6.01805E+00-5.72579E+01 3.46364E+00
 -1      3685 6.01805E+00-5.72579E+01 5.19545E+00
 -1      3686 6.01805E+00-5.72579E+01 6.92727E+00
 -1      3687 6.01805E+00-5.72579E+01 8.65909E+00
 -1      3688 6.01805E+00-5.72579E+01 1.03909E+01
 -1      3689 6.01805E+00-5.72579E+01 1.21227E+01
 -1      3690 6.01805E+00-5.72579E+01 1.38545E+01
 -1      3691 6.01805E+00-5.72579E+01 1.55864E+01
 -1      3692 6.01805E+00-5.72579E+01 1.73182E+01
 -1      3693 3.01316E+00-5.74944E+01 1.73182E+00
 -1      3694 3.01316E+00-5.74944E+01 3.46364E+00
 -1      3695 3.01316E+00-5.74944E+01 5.19545E+00
 -1      3696 3.01316E+00-5.74944E+01 6.92727E+00
 -1      3697 3.01316E+00-5.74944E+01 8.65909E+00
 -1      3698 3.01316E+00-5.74944E+01 1.03909E+01
 -1      3699 3.01316E+00-5.74944E+01 1.21227E+01
 -1      3700 3.01316E+00-5.74944E+01 1.38545E+01
 -1      3701 3.01316E+00-5.74944E+01 1.55864E+01
 -1      3702 3.01316E+00-5.74944E+01 1.73182E+01
 -1      3703 6.08765E+01-3.19040E+00 1.73182E+00
 -1      3704 6.08765E+01-3.19040E+00 3.46364E+00
 -1      3705 6.08765E+01-3.19040E+00 5.19545E+00
 -1      3706 6.08765E+01-3.19040E+00 6.92727E+00
 -1      3707 6.08765E+01-3.19040E+00 8.65909E+00
 -1      3708 6.08765E+01-3.19040E+00 1.03909E+01
 -1      3709 6.08765E+01-3.19040E+00 1.21227E+01
 -1      3710 6.08765E+01-3.19040E+00 1.38545E+01
 -1      3711 6.08765E+01-3.19040E+00 1.55864E+01
 -1      3712 6.08765E+01-3.19040E+00 1.73182E+01
 -1      3713 6.06261E+01-6.37206E+00 1.73182E+00
 -1      3714 6.06261E+01-6.37206E+00 3.46364E+00
 -1      3715 6.06261E+01-6.37206E+00 5.19545E+00
 -1      3716 6.06261E+01-6.37206E+00 6.92727E+00
 -1      3717 6.06261E+01-6.37206E+00 8.65909E+00
 -1      3718 6.06261E+01-6.37206E+00 1.03909E+01
 -1      3719 6.06261E+01-6.37206E+00 1.21227E+01
 -1      3720 6.06261E+01-6.37206E+00 1.38545E+01
 -1      3721 6.06261E+01-6.37206E+00 1.55864E+01
 -1      3722 6.06261E+01-6.37206E+00 1.73182E+01
 -1      3723 6.02095E+01-9.53625E+00 1.73182E+00
 -1      3724 6.02095E+01-9.53625E+00 3.46364E+00
 -1      3725 6.02095E+01-9.53625E+00 5.19545E+00
 -1      3726 6.02095E+01-9.53625E+00 6.92727E+00
 -1      3727 6.02095E+01-9.53625E+00 8.65909E+00
 -1      3728 6.02095E+01-9.53625E+00 1.03909E+01
 -1      3729 6.02095E+01-9.53625E+00 1.21227E+01
 -1      3730 6.02095E+01-9.53625E+00 1.38545E+01
 -1      3731 6.02095E+01-9.53625E+00 1.55864E+01
 -1      3732 6.02095E+01-9.53625E+00 1.73182E+01
 -1      3733 5.96279E+01-1.26743E+01 1.73182E+00
 -1      3734 5.96279E+01-1.26743E+01 3.46364E+00
 -1      3735 5.96279E+01-1.26743E+01 5.19545E+00
 -1      3736 5.96279E+01-1.26743E+01 6.92727E+00
 -1      3737 5.96279E+01-1.26743E+01 8.65909E+00
 -1      3738 5.96279E+01-1.26743E+01 1.03909E+01
 -1      3739 5.96279E+01-1.26743E+01 1.21227E+01
 -1      3740 5.96279E+01-1.26743E+01 1.38545E+01
 -1      3741 5.96279E+01-1.26743E+01 1.55864E+01
 -1      3742 5.96279E+01-1.26743E+01 1.73182E+01
 -1      3743 5.88828E+01-1.57776E+01 1.73182E+00
 -1      3744 5.88828E+01-1.57776E+01 3.46364E+00
 -1      3745 5.88828E+01-1.57776E+01 5.19545E+00
 -1      3746 5.88828E+01-1.57776E+01 6.92727E+00
 -1      3747 5.88828E+01-1.57776E+01 8.65909E+00
 -1      3748 5.88828E+01-1.57776E+01 1.03909E+01
 -1      3749 5.88828E+01-1.57776E+01 1.21227E+01
 -1      3750 5.88828E+01-1.57776E+01 1.38545E+01
 -1      3751 5.88828E+01-1.57776E+01 1.55864E+01
 -1      3752 5.88828E+01-1.57776E+01 1.73182E+01
 -1      3753 5.79764E+01-1.88377E+01 1.73182E+00
 -1      3754 5.79764E+01-1.88377E+01 3.46364E+00
 -1      3755 5.79764E+01-1.88377E+01 5.19545E+00
 -1      3756 5.79764E+01-1.88377E+01 6.92727E+00
 -1      3757 5.79764E+01-1.88377E+01 8.65909E+00
 -1      3758 5.79764E+01-1.88377E+01 1.03909E+01
 -1      3759 5.79764E+01-1.88377E+01 1.21227E+01
 -1      3760 5.79764E+01-1.88377E+01 1.38545E+01
 -1      3761 5.79764E+01-1.88377E+01 1.55864E+01
 -1      3762 5.79764E+01-1.88377E+01 1.73182E+01
 -1      3763 5.69111E+01-2.18461E+01 1.73182E+00
 -1      3764 5.69111E+01-2.18461E+01 3.46364E+00
 -1      3765 5.69111E+01-2.18461E+01 5.19545E+00
 -1      3766 5.69111E+01-2.18461E+01 6.92727E+00
 -1      3767 5.69111E+01-2.18461E+01 8.65909E+00
 -1      3768 5.69111E+01-2.18461E+01 1.03909E+01
 -1      3769 5.69111E+01-2.18461E+01 1.21227E+01
 -1      3770 5.69111E+01-2.18461E+01 1.38545E+01
 -1      3771 5.69111E+01-2.18461E+01 1.55864E+01
 -1      3772 5.69111E+01-2.18461E+01 1.73182E+01
 -1      3773 5.56897E+01-2.47947E+01 1.73182E+00
 -1      3774 5.56897E+01-2.47947E+01 3.46364E+00
 -1      3775 5.56897E+01-2.47947E+01 5.19545E+00
 -1      3776 5.56897E+01-2.47947E+01 6.92727E+00
 -1      3777 5.56897E+01-2.47947E+01 8.65909E+00
 -1      3778 5.56897E+01-2.47947E+01 1.03909E+01
 -1      3779 5.56897E+01-2.47947E+01 1.21227E+01
 -1      3780 5.56897E+01-2.47947E+01 1.38545E+01
 -1      3781 5.56897E+01-2.47947E+01 1.55864E+01
 -1      3782 5.56897E+01-2.47947E+01 1.73182E+01
 -1      3783 5.43158E+01-2.76753E+01 1.73182E+00
 -1      3784 5.43158E+01-2.76753E+01 3.46364E+00
 -1      3785 5.43158E+01-2.76753E+01 5.19545E+00
 -1      3786 5.43158E+01-2.76753E+01 6.92727E+00
 -1      3787 5.43158E+01-2.76753E+01 8.65909E+00
 -1      3788 5.43158E+01-2.76753E+01 1.03909E+01
 -1      3789 5.43158E+01-2.76753E+01 1.21227E+01
 -1      3790 5.43158E+01-2.76753E+01 1.38545E+01
 -1      3791 5.43158E+01-2.76753E+01 1.55864E+01
 -1      3792 5.43158E+01-2.76753E+01 1.73182E+01
 -1      3793 5.27929E+01-3.04800E+01 1.73182E+00
 -1      3794 5.27929E+01-3.04800E+01 3.46364E+00
 -1      3795 5.27929E+01-3.04800E+01 5.19545E+00
 -1      3796 5.27929E+01-3.04800E+01 6.92727E+00
 -1      3797 5.27929E+01-3.04800E+01 8.65909E+00
 -1      3798 5.27929E+01-3.04800E+01 1.03909E+01
 -1      3799 5.27929E+01-3.04800E+01 1.21227E+01
 -1      3800 5.27929E+01-3.04800E+01 1.38545E+01
 -1      3801 5.27929E+01-3.04800E+01 1.55864E+01
 -1      3802 5.27929E+01-3.04800E+01 1.73182E+01
 -1      3803 5.11254E+01-3.32012E+01 1.73182E+00
 -1      3804 5.11254E+01-3.32012E+01 3.46364E+00
 -1      3805 5.11254E+01-3.32012E+01 5.19545E+00
 -1      3806 5.11254E+01-3.32012E+01 6.92727E+00
 -1      3807 5.11254E+01-3.32012E+01 8.65909E+00
 -1      3808 5.11254E+01-3.32012E+01 1.03909E+01
 -1      3809 5.11254E+01-3.32012E+01 1.21227E+01
 -1      3810 5.11254E+01-3.32012E+01 1.38545E+01
 -1      3811 5.11254E+01-3.32012E+01 1.55864E+01
 -1      3812 5.11254E+01-3.32012E+01 1.73182E+01
 -1      3813 4.93177E+01-3.58314E+01 1.73182E+00
 -1      3814 4.93177E+01-3.58314E+01 3.46364E+00
 -1      3815 4.93177E+01-3.58314E+01 5.19545E+00
 -1      3816 4.93177E+01-3.58314E+01 6.92727E+00
 -1      3817 4.93177E+01-3.58314E+01 8.65909E+00
 -1      3818 4.93177E+01-3.58314E+01 1.03909E+01
 -1      3819 4.93177E+01-3.58314E+01 1.21227E+01
 -1      3820 4.93177E+01-3.58314E+01 1.38545E+01
 -1      3821 4.93177E+01-3.58314E+01 1.55864E+01
 -1      3822 4.93177E+01-3.58314E+01 1.73182E+01
 -1      3823 4.73748E+01-3.83634E+01 1.73182E+00
 -1      3824 4.73748E+01-3.83634E+01 3.46364E+00
 -1      3825 4.73748E+01-3.83634E+01 5.19545E+00
 -1      3826 4.73748E+01-3.83634E+01 6.92727E+00
 -1      3827 4.73748E+01-3.83634E+01 8.65909E+00
 -1      3828 4.73748E+01-3.83634E+01 1.03909E+01
 -1      3829 4.73748E+01-3.83634E+01 1.21227E+01
 -1      3830 4.73748E+01-3.83634E+01 1.38545E+01
 -1      3831 4.73748E+01-3.83634E+01 1.55864E+01
 -1      3832 4.73748E+01-3.83634E+01 1.73182E+01
 -1      3833 4.53021E+01-4.07902E+01 1.73182E+00
 -1      3834 4.53021E+01-4.07902E+01 3.46364E+00
 -1      3835 4.53021E+01-4.07902E+01 5.19545E+00
 -1      3836 4.53021E+01-4.07902E+01 6.92727E+00
 -1      3837 4.53021E+01-4.07902E+01 8.65909E+00
 -1      3838 4.53021E+01-4.07902E+01 1.03909E+01
 -1      3839 4.53021E+01-4.07902E+01 1.21227E+01
 -1      3840 4.53021E+01-4.07902E+01 1.38545E+01
 -1      3841 4.53021E+01-4.07902E+01 1.55864E+01
 -1      3842 4.53021E+01-4.07902E+01 1.73182E+01
 -1      3843 4.31052E+01-4.31052E+01 1.73182E+00
 -1      3844 4.31052E+01-4.31052E+01 3.46364E+00
 -1      3845 4.31052E+01-4.31052E+01 5.19545E+00
 -1      3846 4.31052E+01-4.31052E+01 6.92727E+00
 -1      3847 4.31052E+01-4.31052E+01 8.65909E+00
 -1      3848 4.31052E+01-4.31052E+01 1.03909E+01
 -1      3849 4.31052E+01-4.31052E+01 1.21227E+01
 -1      3850 4.31052E+01-4.31052E+01 1.38545E+01
 -1      3851 4.31052E+01-4.31052E+01 1.55864E+01
 -1      3852 4.31052E+01-4.31052E+01 1.73182E+01
 -1      3853 4.07902E+01-4.53021E+01 1.73182E+00
 -1      3854 4.07902E+01-4.53021E+01 3.46364E+00
 -1      3855 4.07902E+01-4.53021E+01 5.19545E+00
 -1      3856 4.07902E+01-4.53021E+01 6.92727E+00
 -1      3857 4.07902E+01-4.53021E+01 8.65909E+00
 -1      3858 4.07902E+01-4.53021E+01 1.03909E+01
 -1      3859 4.07902E+01-4.53021E+01 1.21227E+01
 -1      3860 4.07902E+01-4.53021E+01 1.38545E+01
 -1      3861 4.07902E+01-4.53021E+01 1.55864E+01
 -1      3862 4.07902E+01-4.53021E+01 1.73182E+01
 -1      3863 3.83634E+01-4.73748E+01 1.73182E+00
 -1      3864 3.83634E+01-4.73748E+01 3.46364E+00
 -1      3865 3.83634E+01-4.73748E+01 5.19545E+00
 -1      3866 3.83634E+01-4.73748E+01 6.92727E+00
 -1      3867 3.83634E+01-4.73748E+01 8.65909E+00
 -1      3868 3.83634E+01-4.73748E+01 1.03909E+01
 -1      3869 3.83634E+01-4.73748E+01 1.21227E+01
 -1      3870 3.83634E+01-4.73748E+01 1.38545E+01
 -1      3871 3.83634E+01-4.73748E+01 1.55864E+01
 -1      3872 3.83634E+01-4.73748E+01 1.73182E+01
 -1      3873 3.58314E+01-4.93177E+01 1.73182E+00
 -1      3874 3.58314E+01-4.93177E+01 3.46364E+00
 -1      3875 3.58314E+01-4.93177E+01 5.19545E+00
 -1      3876 3.58314E+01-4.93177E+01 6.92727E+00
 -1      3877 3.58314E+01-4.93177E+01 8.65909E+00
 -1      3878 3.58314E+01-4.93177E+01 1.03909E+01
 -1      3879 3.58314E+01-4.93177E+01 1.21227E+01
 -1      3880 3.58314E+01-4.93177E+01 1.38545E+01
 -1      3881 3.58314E+01-4.93177E+01 1.55864E+01
 -1      3882 3.58314E+01-4.93177E+01 1.73182E+01
 -1      3883 3.32012E+01-5.11254E+01 1.73182E+00
 -1      3884 3.32012E+01-5.11254E+01 3.46364E+00
 -1      3885 3.32012E+01-5.11254E+01 5.19545E+00
 -1      3886 3.32012E+01-5.11254E+01 6.92727E+00
 -1      3887 3.32012E+01-5.11254E+01 8.65909E+00
 -1      3888 3.32012E+01-5.11254E+01 1.03909E+01
 -1      3889 3.32012E+01-5.11254E+01 1.21227E+01
 -1      3890 3.32012E+01-5.11254E+01 1.38545E+01
 -1      3891 3.32012E+01-5.11254E+01 1.55864E+01
 -1      3892 3.32012E+01-5.11254E+01 1.73182E+01
 -1      3893 3.04800E+01-5.27929E+01 1.73182E+00
 -1      3894 3.04800E+01-5.27929E+01 3.46364E+00
 -1      3895 3.04800E+01-5.27929E+01 5.19545E+00
 -1      3896 3.04800E+01-5.27929E+01 6.92727E+00
 -1      3897 3.04800E+01-5.27929E+01 8.65909E+00
 -1      3898 3.04800E+01-5.27929E+01 1.03909E+01
 -1      3899 3.04800E+01-5.27929E+01 1.21227E+01
 -1      3900 3.04800E+01-5.27929E+01 1.38545E+01
 -1      3901 3.04800E+01-5.27929E+01 1.55864E+01
 -1      3902 3.04800E+01-5.27929E+01 1.73182E+01
 -1      3903 2.76753E+01-5.43158E+01 1.73182E+00
 -1      3904 2.76753E+01-5.43158E+01 3.46364E+00
 -1      3905 2.76753E+01-5.43158E+01 5.19545E+00
 -1      3906 2.76753E+01-5.43158E+01 6.92727E+00
 -1      3907 2.76753E+01-5.43158E+01 8.65909E+00
 -1      3908 2.76753E+01-5.43158E+01 1.03909E+01
 -1      3909 2.76753E+01-5.43158E+01 1.21227E+01
 -1      3910 2.76753E+01-5.43158E+01 1.38545E+01
 -1      3911 2.76753E+01-5.43158E+01 1.55864E+01
 -1      3912 2.76753E+01-5.43158E+01 1.73182E+01
 -1      3913 2.47947E+01-5.56897E+01 1.73182E+00
 -1      3914 2.47947E+01-5.56897E+01 3.46364E+00
 -1      3915 2.47947E+01-5.56897E+01 5.19545E+00
 -1      3916 2.47947E+01-5.56897E+01 6.92727E+00
 -1      3917 2.47947E+01-5.56897E+01 8.65909E+00
 -1      3918 2.47947E+01-5.56897E+01 1.03909E+01
 -1      3919 2.47947E+01-5.56897E+01 1.21227E+01
 -1      3920 2.47947E+01-5.56897E+01 1.38545E+01
 -1      3921 2.47947E+01-5.56897E+01 1.55864E+01
 -1      3922 2.47947E+01-5.56897E+01 1.73182E+01
 -1      3923 2.18461E+01-5.69111E+01 1.73182E+00
 -1      3924 2.18461E+01-5.69111E+01 3.46364E+00
 -1      3925 2.18461E+01-5.69111E+01 5.19545E+00
 -1      3926 2.18461E+01-5.69111E+01 6.92727E+00
 -1      3927 2.18461E+01-5.69111E+01 8.65909E+00
 -1      3928 2.18461E+01-5.69111E+01 1.03909E+01
 -1      3929 2.18461E+01-5.69111E+01 1.21227E+01
 -1      3930 2.18461E+01-5.69111E+01 1.38545E+01
 -1      3931 2.18461E+01-5.69111E+01 1.55864E+01
 -1      3932 2.18461E+01-5.69111E+01 1.73182E+01
 -1      3933 1.88377E+01-5.79764E+01 1.73182E+00
 -1      3934 1.88377E+01-5.79764E+01 3.46364E+00
 -1      3935 1.88377E+01-5.79764E+01 5.19545E+00
 -1      3936 1.88377E+01-5.79764E+01 6.92727E+00
 -1      3937 1.88377E+01-5.79764E+01 8.65909E+00
 -1      3938 1.88377E+01-5.79764E+01 1.03909E+01
 -1      3939 1.88377E+01-5.79764E+01 1.21227E+01
 -1      3940 1.88377E+01-5.79764E+01 1.38545E+01
 -1      3941 1.88377E+01-5.79764E+01 1.55864E+01
 -1      3942 1.88377E+01-5.79764E+01 1.73182E+01
 -1      3943 1.57776E+01-5.88828E+01 1.73182E+00
 -1      3944 1.57776E+01-5.88828E+01 3.46364E+00
 -1      3945 1.57776E+01-5.88828E+01 5.19545E+00
 -1      3946 1.57776E+01-5.88828E+01 6.92727E+00
 -1      3947 1.57776E+01-5.88828E+01 8.65909E+00
 -1      3948 1.57776E+01-5.88828E+01 1.03909E+01
 -1      3949 1.57776E+01-5.88828E+01 1.21227E+01
 -1      3950 1.57776E+01-5.88828E+01 1.38545E+01
 -1      3951 1.57776E+01-5.88828E+01 1.55864E+01
 -1      3952 1.57776E+01-5.88828E+01 1.73182E+01
 -1      3953 1.26743E+01-5.96279E+01 1.73182E+00
 -1      3954 1.26743E+01-5.96279E+01 3.46364E+00
 -1      3955 1.26743E+01-5.96279E+01 5.19545E+00
 -1      3956 1.26743E+01-5.96279E+01 6.92727E+00
 -1      3957 1.26743E+01-5.96279E+01 8.65909E+00
 -1      3958 1.26743E+01-5.96279E+01 1.03909E+01
 -1      3959 1.26743E+01-5.96279E+01 1.21227E+01
 -1      3960 1.26743E+01-5.96279E+01 1.38545E+01
 -1      3961 1.26743E+01-5.96279E+01 1.55864E+01
 -1      3962 1.26743E+01-5.96279E+01 1.73182E+01
 -1      3963 9.53625E+00-6.02095E+01 1.73182E+00
 -1      3964 9.53625E+00-6.02095E+01 3.46364E+00
 -1      3965 9.53625E+00-6.02095E+01 5.19545E+00
 -1      3966 9.53625E+00-6.02095E+01 6.92727E+00
 -1      3967 9.53625E+00-6.02095E+01 8.65909E+00
 -1      3968 9.53625E+00-6.02095E+01 1.03909E+01
 -1      3969 9.53625E+00-6.02095E+01 1.21227E+01
 -1      3970 9.53625E+00-6.02095E+01 1.38545E+01
 -1      3971 9.53625E+00-6.02095E+01 1.55864E+01
 -1      3972 9.53625E+00-6.02095E+01 1.73182E+01
 -1      3973 6.37206E+00-6.06261E+01 1.73182E+00
 -1      3974 6.37206E+00-6.06261E+01 3.46364E+00
 -1      3975 6.37206E+00-6.06261E+01 5.19545E+00
 -1      3976 6.37206E+00-6.06261E+01 6.92727E+00
 -1      3977 6.37206E+00-6.06261E+01 8.65909E+00
 -1      3978 6.37206E+00-6.06261E+01 1.03909E+01
 -1      3979 6.37206E+00-6.06261E+01 1.21227E+01
 -1      3980 6.37206E+00-6.06261E+01 1.38545E+01
 -1      3981 6.37206E+00-6.06261E+01 1.55864E+01
 -1      3982 6.37206E+00-6.06261E+01 1.73182E+01
 -1      3983 3.19040E+00-6.08765E+01 1.73182E+00
 -1      3984 3.19040E+00-6.08765E+01 3.46364E+00
 -1      3985 3.19040E+00-6.08765E+01 5.19545E+00
 -1      3986 3.19040E+00-6.08765E+01 6.92727E+00
 -1      3987 3.19040E+00-6.08765E+01 8.65909E+00
 -1      3988 3.19040E+00-6.08765E+01 1.03909E+01
 -1      3989 3.19040E+00-6.08765E+01 1.21227E+01
 -1      3990 3.19040E+00-6.08765E+01 1.38545E+01
 -1      3991 3.19040E+00-6.08765E+01 1.55864E+01
 -1      3992 3.19040E+00-6.08765E+01 1.73182E+01
 -1      3993 6.42585E+01-3.36764E+00 1.73182E+00
 -1      3994 6.42585E+01-3.36764E+00 3.46364E+00
 -1      3995 6.42585E+01-3.36764E+00 5.19545E+00
 -1      3996 6.42585E+01-3.36764E+00 6.92727E+00
 -1      3997 6.42585E+01-3.36764E+00 8.65909E+00
 -1      3998 6.42585E+01-3.36764E+00 1.03909E+01
 -1      3999 6.42585E+01-3.36764E+00 1.21227E+01
 -1      4000 6.42585E+01-3.36764E+00 1.38545E+01
 -1      4001 6.42585E+01-3.36764E+00 1.55864E+01
 -1      4002 6.42585E+01-3.36764E+00 1.73182E+01
 -1      4003 6.39942E+01-6.72606E+00 1.73182E+00
 -1      4004 6.39942E+01-6.72606E+00 3.46364E+00
 -1      4005 6.39942E+01-6.72606E+00 5.19545E+00
 -1      4006 6.39942E+01-6.72606E+00 6.92727E+00
 -1      4007 6.39942E+01-6.72606E+00 8.65909E+00
 -1      4008 6.39942E+01-6.72606E+00 1.03909E+01
 -1      4009 6.39942E+01-6.72606E+00 1.21227E+01
 -1      4010 6.39942E+01-6.72606E+00 1.38545E+01
 -1      4011 6.39942E+01-6.72606E+00 1.55864E+01
 -1      4012 6.39942E+01-6.72606E+00 1.73182E+01
 -1      4013 6.35545E+01-1.00660E+01 1.73182E+00
 -1      4014 6.35545E+01-1.00660E+01 3.46364E+00
 -1      4015 6.35545E+01-1.00660E+01 5.19545E+00
 -1      4016 6.35545E+01-1.00660E+01 6.92727E+00
 -1      4017 6.35545E+01-1.00660E+01 8.65909E+00
 -1      4018 6.35545E+01-1.00660E+01 1.03909E+01
 -1      4019 6.35545E+01-1.00660E+01 1.21227E+01
 -1      4020 6.35545E+01-1.00660E+01 1.38545E+01
 -1      4021 6.35545E+01-1.00660E+01 1.55864E+01
 -1      4022 6.35545E+01-1.00660E+01 1.73182E+01
 -1      4023 6.29405E+01-1.33784E+01 1.73182E+00
 -1      4024 6.29405E+01-1.33784E+01 3.46364E+00
 -1      4025 6.29405E+01-1.33784E+01 5.19545E+00
 -1      4026 6.29405E+01-1.33784E+01 6.92727E+00
 -1      4027 6.29405E+01-1.33784E+01 8.65909E+00
 -1      4028 6.29405E+01-1.33784E+01 1.03909E+01
 -1      4029 6.29405E+01-1.33784E+01 1.21227E+01
 -1      4030 6.29405E+01-1.33784E+01 1.38545E+01
 -1      4031 6.29405E+01-1.33784E+01 1.55864E+01
 -1      4032 6.29405E+01-1.33784E+01 1.73182E+01
 -1      4033 6.21541E+01-1.66541E+01 1.73182E+00
 -1      4034 6.21541E+01-1.66541E+01 3.46364E+00
 -1      4035 6.21541E+01-1.66541E+01 5.19545E+00
 -1      4036 6.21541E+01-1.66541E+01 6.92727E+00
 -1      4037 6.21541E+01-1.66541E+01 8.65909E+00
 -1      4038 6.21541E+01-1.66541E+01 1.03909E+01
 -1      4039 6.21541E+01-1.66541E+01 1.21227E+01
 -1      4040 6.21541E+01-1.66541E+01 1.38545E+01
 -1      4041 6.21541E+01-1.66541E+01 1.55864E+01
 -1      4042 6.21541E+01-1.66541E+01 1.73182E+01
 -1      4043 6.11973E+01-1.98842E+01 1.73182E+00
 -1      4044 6.11973E+01-1.98842E+01 3.46364E+00
 -1      4045 6.11973E+01-1.98842E+01 5.19545E+00
 -1      4046 6.11973E+01-1.98842E+01 6.92727E+00
 -1      4047 6.11973E+01-1.98842E+01 8.65909E+00
 -1      4048 6.11973E+01-1.98842E+01 1.03909E+01
 -1      4049 6.11973E+01-1.98842E+01 1.21227E+01
 -1      4050 6.11973E+01-1.98842E+01 1.38545E+01
 -1      4051 6.11973E+01-1.98842E+01 1.55864E+01
 -1      4052 6.11973E+01-1.98842E+01 1.73182E+01
 -1      4053 6.00728E+01-2.30598E+01 1.73182E+00
 -1      4054 6.00728E+01-2.30598E+01 3.46364E+00
 -1      4055 6.00728E+01-2.30598E+01 5.19545E+00
 -1      4056 6.00728E+01-2.30598E+01 6.92727E+00
 -1      4057 6.00728E+01-2.30598E+01 8.65909E+00
 -1      4058 6.00728E+01-2.30598E+01 1.03909E+01
 -1      4059 6.00728E+01-2.30598E+01 1.21227E+01
 -1      4060 6.00728E+01-2.30598E+01 1.38545E+01
 -1      4061 6.00728E+01-2.30598E+01 1.55864E+01
 -1      4062 6.00728E+01-2.30598E+01 1.73182E+01
 -1      4063 5.87836E+01-2.61721E+01 1.73182E+00
 -1      4064 5.87836E+01-2.61721E+01 3.46364E+00
 -1      4065 5.87836E+01-2.61721E+01 5.19545E+00
 -1      4066 5.87836E+01-2.61721E+01 6.92727E+00
 -1      4067 5.87836E+01-2.61721E+01 8.65909E+00
 -1      4068 5.87836E+01-2.61721E+01 1.03909E+01
 -1      4069 5.87836E+01-2.61721E+01 1.21227E+01
 -1      4070 5.87836E+01-2.61721E+01 1.38545E+01
 -1      4071 5.87836E+01-2.61721E+01 1.55864E+01
 -1      4072 5.87836E+01-2.61721E+01 1.73182E+01
 -1      4073 5.73333E+01-2.92128E+01 1.73182E+00
 -1      4074 5.73333E+01-2.92128E+01 3.46364E+00
 -1      4075 5.73333E+01-2.92128E+01 5.19545E+00
 -1      4076 5.73333E+01-2.92128E+01 6.92727E+00
 -1      4077 5.73333E+01-2.92128E+01 8.65909E+00
 -1      4078 5.73333E+01-2.92128E+01 1.03909E+01
 -1      4079 5.73333E+01-2.92128E+01 1.21227E+01
 -1      4080 5.73333E+01-2.92128E+01 1.38545E+01
 -1      4081 5.73333E+01-2.92128E+01 1.55864E+01
 -1      4082 5.73333E+01-2.92128E+01 1.73182E+01
 -1      4083 5.57258E+01-3.21733E+01 1.73182E+00
 -1      4084 5.57258E+01-3.21733E+01 3.46364E+00
 -1      4085 5.57258E+01-3.21733E+01 5.19545E+00
 -1      4086 5.57258E+01-3.21733E+01 6.92727E+00
 -1      4087 5.57258E+01-3.21733E+01 8.65909E+00
 -1      4088 5.57258E+01-3.21733E+01 1.03909E+01
 -1      4089 5.57258E+01-3.21733E+01 1.21227E+01
 -1      4090 5.57258E+01-3.21733E+01 1.38545E+01
 -1      4091 5.57258E+01-3.21733E+01 1.55864E+01
 -1      4092 5.57258E+01-3.21733E+01 1.73182E+01
 -1      4093 5.39657E+01-3.50457E+01 1.73182E+00
 -1      4094 5.39657E+01-3.50457E+01 3.46364E+00
 -1      4095 5.39657E+01-3.50457E+01 5.19545E+00
 -1      4096 5.39657E+01-3.50457E+01 6.92727E+00
 -1      4097 5.39657E+01-3.50457E+01 8.65909E+00
 -1      4098 5.39657E+01-3.50457E+01 1.03909E+01
 -1      4099 5.39657E+01-3.50457E+01 1.21227E+01
 -1      4100 5.39657E+01-3.50457E+01 1.38545E+01
 -1      4101 5.39657E+01-3.50457E+01 1.55864E+01
 -1      4102 5.39657E+01-3.50457E+01 1.73182E+01
 -1      4103 5.20575E+01-3.78220E+01 1.73182E+00
 -1      4104 5.20575E+01-3.78220E+01 3.46364E+00
 -1      4105 5.20575E+01-3.78220E+01 5.19545E+00
 -1      4106 5.20575E+01-3.78220E+01 6.92727E+00
 -1      4107 5.20575E+01-3.78220E+01 8.65909E+00
 -1      4108 5.20575E+01-3.78220E+01 1.03909E+01
 -1      4109 5.20575E+01-3.78220E+01 1.21227E+01
 -1      4110 5.20575E+01-3.78220E+01 1.38545E+01
 -1      4111 5.20575E+01-3.78220E+01 1.55864E+01
 -1      4112 5.20575E+01-3.78220E+01 1.73182E+01
 -1      4113 5.00068E+01-4.04947E+01 1.73182E+00
 -1      4114 5.00068E+01-4.04947E+01 3.46364E+00
 -1      4115 5.00068E+01-4.04947E+01 5.19545E+00
 -1      4116 5.00068E+01-4.04947E+01 6.92727E+00
 -1      4117 5.00068E+01-4.04947E+01 8.65909E+00
 -1      4118 5.00068E+01-4.04947E+01 1.03909E+01
 -1      4119 5.00068E+01-4.04947E+01 1.21227E+01
 -1      4120 5.00068E+01-4.04947E+01 1.38545E+01
 -1      4121 5.00068E+01-4.04947E+01 1.55864E+01
 -1      4122 5.00068E+01-4.04947E+01 1.73182E+01
 -1      4123 4.78189E+01-4.30563E+01 1.73182E+00
 -1      4124 4.78189E+01-4.30563E+01 3.46364E+00
 -1      4125 4.78189E+01-4.30563E+01 5.19545E+00
 -1      4126 4.78189E+01-4.30563E+01 6.92727E+00
 -1      4127 4.78189E+01-4.30563E+01 8.65909E+00
 -1      4128 4.78189E+01-4.30563E+01 1.03909E+01
 -1      4129 4.78189E+01-4.30563E+01 1.21227E+01
 -1      4130 4.78189E+01-4.30563E+01 1.38545E+01
 -1      4131 4.78189E+01-4.30563E+01 1.55864E+01
 -1      4132 4.78189E+01-4.30563E+01 1.73182E+01
 -1      4133 4.55000E+01-4.55000E+01 1.73182E+00
 -1      4134 4.55000E+01-4.55000E+01 3.46364E+00
 -1      4135 4.55000E+01-4.55000E+01 5.19545E+00
 -1      4136 4.55000E+01-4.55000E+01 6.92727E+00
 -1      4137 4.55000E+01-4.55000E+01 8.65909E+00
 -1      4138 4.55000E+01-4.55000E+01 1.03909E+01
 -1      4139 4.55000E+01-4.55000E+01 1.21227E+01
 -1      4140 4.55000E+01-4.55000E+01 1.38545E+01
 -1      4141 4.55000E+01-4.55000E+01 1.55864E+01
 -1      4142 4.55000E+01-4.55000E+01 1.73182E+01
 -1      4143 4.30563E+01-4.78189E+01 1.73182E+00
 -1      4144 4.30563E+01-4.78189E+01 3.46364E+00
 -1      4145 4.30563E+01-4.78189E+01 5.19545E+00
 -1      4146 4.30563E+01-4.78189E+01 6.92727E+00
 -1      4147 4.30563E+01-4.78189E+01 8.65909E+00
 -1      4148 4.30563E+01-4.78189E+01 1.03909E+01
 -1      4149 4.30563E+01-4.78189E+01 1.21227E+01
 -1      4150 4.30563E+01-4.78189E+01 1.38545E+01
 -1      4151 4.30563E+01-4.78189E+01 1.55864E+01
 -1      4152 4.30563E+01-4.78189E+01 1.73182E+01
 -1      4153 4.04947E+01-5.00068E+01 1.73182E+00
 -1      4154 4.04947E+01-5.00068E+01 3.46364E+00
 -1      4155 4.04947E+01-5.00068E+01 5.19545E+00
 -1      4156 4.04947E+01-5.00068E+01 6.92727E+00
 -1      4157 4.04947E+01-5.00068E+01 8.65909E+00
 -1      4158 4.04947E+01-5.00068E+01 1.03909E+01
 -1      4159 4.04947E+01-5.00068E+01 1.21227E+01
 -1      4160 4.04947E+01-5.00068E+01 1.38545E+01
 -1      4161 4.04947E+01-5.00068E+01 1.55864E+01
 -1      4162 4.04947E+01-5.00068E+01 1.73182E+01
 -1      4163 3.78220E+01-5.20575E+01 1.73182E+00
 -1      4164 3.78220E+01-5.20575E+01 3.46364E+00
 -1      4165 3.78220E+01-5.20575E+01 5.19545E+00
 -1      4166 3.78220E+01-5.20575E+01 6.92727E+00
 -1      4167 3.78220E+01-5.20575E+01 8.65909E+00
 -1      4168 3.78220E+01-5.20575E+01 1.03909E+01
 -1      4169 3.78220E+01-5.20575E+01 1.21227E+01
 -1      4170 3.78220E+01-5.20575E+01 1.38545E+01
 -1      4171 3.78220E+01-5.20575E+01 1.55864E+01
 -1      4172 3.78220E+01-5.20575E+01 1.73182E+01
 -1      4173 3.50457E+01-5.39657E+01 1.73182E+00
 -1      4174 3.50457E+01-5.39657E+01 3.46364E+00
 -1      4175 3.50457E+01-5.39657E+01 5.19545E+00
 -1      4176 3.50457E+01-5.39657E+01 6.92727E+00
 -1      4177 3.50457E+01-5.39657E+01 8.65909E+00
 -1      4178 3.50457E+01-5.39657E+01 1.03909E+01
 -1      4179 3.50457E+01-5.39657E+01 1.21227E+01
 -1      4180 3.50457E+01-5.39657E+01 1.38545E+01
 -1      4181 3.50457E+01-5.39657E+01 1.55864E+01
 -1      4182 3.50457E+01-5.39657E+01 1.73182E+01
 -1      4183 3.21733E+01-5.57258E+01 1.73182E+00
 -1      4184 3.21733E+01-5.57258E+01 3.46364E+00
 -1      4185 3.21733E+01-5.57258E+01 5.19545E+00
 -1      4186 3.21733E+01-5.57258E+01 6.92727E+00
 -1      4187 3.21733E+01-5.57258E+01 8.65909E+00
 -1      4188 3.21733E+01-5.57258E+01 1.03909E+01
 -1      4189 3.21733E+01-5.57258E+01 1.21227E+01
 -1      4190 3.21733E+01-5.57258E+01 1.38545E+01
 -1      4191 3.21733E+01-5.57258E+01 1.55864E+01
 -1      4192 3.21733E+01-5.57258E+01 1.73182E+01
 -1      4193 2.92128E+01-5.73333E+01 1.73182E+00
 -1      4194 2.92128E+01-5.73333E+01 3.46364E+00
 -1      4195 2.92128E+01-5.73333E+01 5.19545E+00
 -1      4196 2.92128E+01-5.73333E+01 6.92727E+00
 -1      4197 2.92128E+01-5.73333E+01 8.65909E+00
 -1      4198 2.92128E+01-5.73333E+01 1.03909E+01
 -1      4199 2.92128E+01-5.73333E+01 1.21227E+01
 -1      4200 2.92128E+01-5.73333E+01 1.38545E+01
 -1      4201 2.92128E+01-5.73333E+01 1.55864E+01
 -1      4202 2.92128E+01-5.73333E+01 1.73182E+01
 -1      4203 2.61721E+01-5.87836E+01 1.73182E+00
 -1      4204 2.61721E+01-5.87836E+01 3.46364E+00
 -1      4205 2.61721E+01-5.87836E+01 5.19545E+00
 -1      4206 2.61721E+01-5.87836E+01 6.92727E+00
 -1      4207 2.61721E+01-5.87836E+01 8.65909E+00
 -1      4208 2.61721E+01-5.87836E+01 1.03909E+01
 -1      4209 2.61721E+01-5.87836E+01 1.21227E+01
 -1      4210 2.61721E+01-5.87836E+01 1.38545E+01
 -1      4211 2.61721E+01-5.87836E+01 1.55864E+01
 -1      4212 2.61721E+01-5.87836E+01 1.73182E+01
 -1      4213 2.30598E+01-6.00728E+01 1.73182E+00
 -1      4214 2.30598E+01-6.00728E+01 3.46364E+00
 -1      4215 2.30598E+01-6.00728E+01 5.19545E+00
 -1      4216 2.30598E+01-6.00728E+01 6.92727E+00
 -1      4217 2.30598E+01-6.00728E+01 8.65909E+00
 -1      4218 2.30598E+01-6.00728E+01 1.03909E+01
 -1      4219 2.30598E+01-6.00728E+01 1.21227E+01
 -1      4220 2.30598E+01-6.00728E+01 1.38545E+01
 -1      4221 2.30598E+01-6.00728E+01 1.55864E+01
 -1      4222 2.30598E+01-6.00728E+01 1.73182E+01
 -1      4223 1.98842E+01-6.11973E+01 1.73182E+00
 -1      4224 1.98842E+01-6.11973E+01 3.46364E+00
 -1      4225 1.98842E+01-6.11973E+01 5.19545E+00
 -1      4226 1.98842E+01-6.11973E+01 6.92727E+00
 -1      4227 1.98842E+01-6.11973E+01 8.65909E+00
 -1      4228 1.98842E+01-6.11973E+01 1.03909E+01
 -1      4229 1.98842E+01-6.11973E+01 1.21227E+01
 -1      4230 1.98842E+01-6.11973E+01 1.38545E+01
 -1      4231 1.98842E+01-6.11973E+01 1.55864E+01
 -1      4232 1.98842E+01-6.11973E+01 1.73182E+01
 -1      4233 1.66541E+01-6.21541E+01 1.73182E+00
 -1      4234 1.66541E+01-6.21541E+01 3.46364E+00
 -1      4235 1.66541E+01-6.21541E+01 5.19545E+00
 -1      4236 1.66541E+01-6.21541E+01 6.92727E+00
 -1      4237 1.66541E+01-6.21541E+01 8.65909E+00
 -1      4238 1.66541E+01-6.21541E+01 1.03909E+01
 -1      4239 1.66541E+01-6.21541E+01 1.21227E+01
 -1      4240 1.66541E+01-6.21541E+01 1.38545E+01
 -1      4241 1.66541E+01-6.21541E+01 1.55864E+01
 -1      4242 1.66541E+01-6.21541E+01 1.73182E+01
 -1      4243 1.33784E+01-6.29405E+01 1.73182E+00
 -1      4244 1.33784E+01-6.29405E+01 3.46364E+00
 -1      4245 1.33784E+01-6.29405E+01 5.19545E+00
 -1      4246 1.33784E+01-6.29405E+01 6.92727E+00
 -1      4247 1.33784E+01-6.29405E+01 8.65909E+00
 -1      4248 1.33784E+01-6.29405E+01 1.03909E+01
 -1      4249 1.33784E+01-6.29405E+01 1.21227E+01
 -1      4250 1.33784E+01-6.29405E+01 1.38545E+01
 -1      4251 1.33784E+01-6.29405E+01 1.55864E+01
 -1      4252 1.33784E+01-6.29405E+01 1.73182E+01
 -1      4253 1.00660E+01-6.35545E+01 1.73182E+00
 -1      4254 1.00660E+01-6.35545E+01 3.46364E+00
 -1      4255 1.00660E+01-6.35545E+01 5.19545E+00
 -1      4256 1.00660E+01-6.35545E+01 6.92727E+00
 -1      4257 1.00660E+01-6.35545E+01 8.65909E+00
 -1      4258 1.00660E+01-6.35545E+01 1.03909E+01
 -1      4259 1.00660E+01-6.35545E+01 1.21227E+01
 -1      4260 1.00660E+01-6.35545E+01 1.38545E+01
 -1      4261 1.00660E+01-6.35545E+01 1.55864E+01
 -1      4262 1.00660E+01-6.35545E+01 1.73182E+01
 -1      4263 6.72606E+00-6.39942E+01 1.73182E+00
 -1      4264 6.72606E+00-6.39942E+01 3.46364E+00
 -1      4265 6.72606E+00-6.39942E+01 5.19545E+00
 -1      4266 6.72606E+00-6.39942E+01 6.92727E+00
 -1      4267 6.72606E+00-6.39942E+01 8.65909E+00
 -1      4268 6.72606E+00-6.39942E+01 1.03909E+01
 -1      4269 6.72606E+00-6.39942E+01 1.21227E+01
 -1      4270 6.72606E+00-6.39942E+01 1.38545E+01
 -1      4271 6.72606E+00-6.39942E+01 1.55864E+01
 -1      4272 6.72606E+00-6.39942E+01 1.73182E+01
 -1      4273 3.36764E+00-6.42585E+01 1.73182E+00
 -1      4274 3.36764E+00-6.42585E+01 3.46364E+00
 -1      4275 3.36764E+00-6.42585E+01 5.19545E+00
 -1      4276 3.36764E+00-6.42585E+01 6.92727E+00
 -1      4277 3.36764E+00-6.42585E+01 8.65909E+00
 -1      4278 3.36764E+00-6.42585E+01 1.03909E+01
 -1      4279 3.36764E+00-6.42585E+01 1.21227E+01
 -1      4280 3.36764E+00-6.42585E+01 1.38545E+01
 -1      4281 3.36764E+00-6.42585E+01 1.55864E+01
 -1      4282 3.36764E+00-6.42585E+01 1.73182E+01
 -1      4283 6.76405E+01-3.54489E+00 1.73182E+00
 -1      4284 6.76405E+01-3.54489E+00 3.46364E+00
 -1      4285 6.76405E+01-3.54489E+00 5.19545E+00
 -1      4286 6.76405E+01-3.54489E+00 6.92727E+00
 -1      4287 6.76405E+01-3.54489E+00 8.65909E+00
 -1      4288 6.76405E+01-3.54489E+00 1.03909E+01
 -1      4289 6.76405E+01-3.54489E+00 1.21227E+01
 -1      4290 6.76405E+01-3.54489E+00 1.38545E+01
 -1      4291 6.76405E+01-3.54489E+00 1.55864E+01
 -1      4292 6.76405E+01-3.54489E+00 1.73182E+01
 -1      4293 6.73623E+01-7.08006E+00 1.73182E+00
 -1      4294 6.73623E+01-7.08006E+00 3.46364E+00
 -1      4295 6.73623E+01-7.08006E+00 5.19545E+00
 -1      4296 6.73623E+01-7.08006E+00 6.92727E+00
 -1      4297 6.73623E+01-7.08006E+00 8.65909E+00
 -1      4298 6.73623E+01-7.08006E+00 1.03909E+01
 -1      4299 6.73623E+01-7.08006E+00 1.21227E+01
 -1      4300 6.73623E+01-7.08006E+00 1.38545E+01
 -1      4301 6.73623E+01-7.08006E+00 1.55864E+01
 -1      4302 6.73623E+01-7.08006E+00 1.73182E+01
 -1      4303 6.68994E+01-1.05958E+01 1.73182E+00
 -1      4304 6.68994E+01-1.05958E+01 3.46364E+00
 -1      4305 6.68994E+01-1.05958E+01 5.19545E+00
 -1      4306 6.68994E+01-1.05958E+01 6.92727E+00
 -1      4307 6.68994E+01-1.05958E+01 8.65909E+00
 -1      4308 6.68994E+01-1.05958E+01 1.03909E+01
 -1      4309 6.68994E+01-1.05958E+01 1.21227E+01
 -1      4310 6.68994E+01-1.05958E+01 1.38545E+01
 -1      4311 6.68994E+01-1.05958E+01 1.55864E+01
 -1      4312 6.68994E+01-1.05958E+01 1.73182E+01
 -1      4313 6.62532E+01-1.40826E+01 1.73182E+00
 -1      4314 6.62532E+01-1.40826E+01 3.46364E+00
 -1      4315 6.62532E+01-1.40826E+01 5.19545E+00
 -1      4316 6.62532E+01-1.40826E+01 6.92727E+00
 -1      4317 6.62532E+01-1.40826E+01 8.65909E+00
 -1      4318 6.62532E+01-1.40826E+01 1.03909E+01
 -1      4319 6.62532E+01-1.40826E+01 1.21227E+01
 -1      4320 6.62532E+01-1.40826E+01 1.38545E+01
 -1      4321 6.62532E+01-1.40826E+01 1.55864E+01
 -1      4322 6.62532E+01-1.40826E+01 1.73182E+01
 -1      4323 6.54254E+01-1.75307E+01 1.73182E+00
 -1      4324 6.54254E+01-1.75307E+01 3.46364E+00
 -1      4325 6.54254E+01-1.75307E+01 5.19545E+00
 -1      4326 6.54254E+01-1.75307E+01 6.92727E+00
 -1      4327 6.54254E+01-1.75307E+01 8.65909E+00
 -1      4328 6.54254E+01-1.75307E+01 1.03909E+01
 -1      4329 6.54254E+01-1.75307E+01 1.21227E+01
 -1      4330 6.54254E+01-1.75307E+01 1.38545E+01
 -1      4331 6.54254E+01-1.75307E+01 1.55864E+01
 -1      4332 6.54254E+01-1.75307E+01 1.73182E+01
 -1      4333 6.44182E+01-2.09308E+01 1.73182E+00
 -1      4334 6.44182E+01-2.09308E+01 3.46364E+00
 -1      4335 6.44182E+01-2.09308E+01 5.19545E+00
 -1      4336 6.44182E+01-2.09308E+01 6.92727E+00
 -1      4337 6.44182E+01-2.09308E+01 8.65909E+00
 -1      4338 6.44182E+01-2.09308E+01 1.03909E+01
 -1      4339 6.44182E+01-2.09308E+01 1.21227E+01
 -1      4340 6.44182E+01-2.09308E+01 1.38545E+01
 -1      4341 6.44182E+01-2.09308E+01 1.55864E+01
 -1      4342 6.44182E+01-2.09308E+01 1.73182E+01
 -1      4343 6.32345E+01-2.42735E+01 1.73182E+00
 -1      4344 6.32345E+01-2.42735E+01 3.46364E+00
 -1      4345 6.32345E+01-2.42735E+01 5.19545E+00
 -1      4346 6.32345E+01-2.42735E+01 6.92727E+00
 -1      4347 6.32345E+01-2.42735E+01 8.65909E+00
 -1      4348 6.32345E+01-2.42735E+01 1.03909E+01
 -1      4349 6.32345E+01-2.42735E+01 1.21227E+01
 -1      4350 6.32345E+01-2.42735E+01 1.38545E+01
 -1      4351 6.32345E+01-2.42735E+01 1.55864E+01
 -1      4352 6.32345E+01-2.42735E+01 1.73182E+01
 -1      4353 6.18775E+01-2.75496E+01 1.73182E+00
 -1      4354 6.18775E+01-2.75496E+01 3.46364E+00
 -1      4355 6.18775E+01-2.75496E+01 5.19545E+00
 -1      4356 6.18775E+01-2.75496E+01 6.92727E+00
 -1      4357 6.18775E+01-2.75496E+01 8.65909E+00
 -1      4358 6.18775E+01-2.75496E+01 1.03909E+01
 -1      4359 6.18775E+01-2.75496E+01 1.21227E+01
 -1      4360 6.18775E+01-2.75496E+01 1.38545E+01
 -1      4361 6.18775E+01-2.75496E+01 1.55864E+01
 -1      4362 6.18775E+01-2.75496E+01 1.73182E+01
 -1      4363 6.03508E+01-3.07503E+01 1.73182E+00
 -1      4364 6.03508E+01-3.07503E+01 3.46364E+00
 -1      4365 6.03508E+01-3.07503E+01 5.19545E+00
 -1      4366 6.03508E+01-3.07503E+01 6.92727E+00
 -1      4367 6.03508E+01-3.07503E+01 8.65909E+00
 -1      4368 6.03508E+01-3.07503E+01 1.03909E+01
 -1      4369 6.03508E+01-3.07503E+01 1.21227E+01
 -1      4370 6.03508E+01-3.07503E+01 1.38545E+01
 -1      4371 6.03508E+01-3.07503E+01 1.55864E+01
 -1      4372 6.03508E+01-3.07503E+01 1.73182E+01
 -1      4373 5.86588E+01-3.38667E+01 1.73182E+00
 -1      4374 5.86588E+01-3.38667E+01 3.46364E+00
 -1      4375 5.86588E+01-3.38667E+01 5.19545E+00
 -1      4376 5.86588E+01-3.38667E+01 6.92727E+00
 -1      4377 5.86588E+01-3.38667E+01 8.65909E+00
 -1      4378 5.86588E+01-3.38667E+01 1.03909E+01
 -1      4379 5.86588E+01-3.38667E+01 1.21227E+01
 -1      4380 5.86588E+01-3.38667E+01 1.38545E+01
 -1      4381 5.86588E+01-3.38667E+01 1.55864E+01
 -1      4382 5.86588E+01-3.38667E+01 1.73182E+01
 -1      4383 5.68060E+01-3.68902E+01 1.73182E+00
 -1      4384 5.68060E+01-3.68902E+01 3.46364E+00
 -1      4385 5.68060E+01-3.68902E+01 5.19545E+00
 -1      4386 5.68060E+01-3.68902E+01 6.92727E+00
 -1      4387 5.68060E+01-3.68902E+01 8.65909E+00
 -1      4388 5.68060E+01-3.68902E+01 1.03909E+01
 -1      4389 5.68060E+01-3.68902E+01 1.21227E+01
 -1      4390 5.68060E+01-3.68902E+01 1.38545E+01
 -1      4391 5.68060E+01-3.68902E+01 1.55864E+01
 -1      4392 5.68060E+01-3.68902E+01 1.73182E+01
 -1      4393 5.47974E+01-3.98127E+01 1.73182E+00
 -1      4394 5.47974E+01-3.98127E+01 3.46364E+00
 -1      4395 5.47974E+01-3.98127E+01 5.19545E+00
 -1      4396 5.47974E+01-3.98127E+01 6.92727E+00
 -1      4397 5.47974E+01-3.98127E+01 8.65909E+00
 -1      4398 5.47974E+01-3.98127E+01 1.03909E+01
 -1      4399 5.47974E+01-3.98127E+01 1.21227E+01
 -1      4400 5.47974E+01-3.98127E+01 1.38545E+01
 -1      4401 5.47974E+01-3.98127E+01 1.55864E+01
 -1      4402 5.47974E+01-3.98127E+01 1.73182E+01
 -1      4403 5.26387E+01-4.26260E+01 1.73182E+00
 -1      4404 5.26387E+01-4.26260E+01 3.46364E+00
 -1      4405 5.26387E+01-4.26260E+01 5.19545E+00
 -1      4406 5.26387E+01-4.26260E+01 6.92727E+00
 -1      4407 5.26387E+01-4.26260E+01 8.65909E+00
 -1      4408 5.26387E+01-4.26260E+01 1.03909E+01
 -1      4409 5.26387E+01-4.26260E+01 1.21227E+01
 -1      4410 5.26387E+01-4.26260E+01 1.38545E+01
 -1      4411 5.26387E+01-4.26260E+01 1.55864E+01
 -1      4412 5.26387E+01-4.26260E+01 1.73182E+01
 -1      4413 5.03357E+01-4.53224E+01 1.73182E+00
 -1      4414 5.03357E+01-4.53224E+01 3.46364E+00
 -1      4415 5.03357E+01-4.53224E+01 5.19545E+00
 -1      4416 5.03357E+01-4.53224E+01 6.92727E+00
 -1      4417 5.03357E+01-4.53224E+01 8.65909E+00
 -1      4418 5.03357E+01-4.53224E+01 1.03909E+01
 -1      4419 5.03357E+01-4.53224E+01 1.21227E+01
 -1      4420 5.03357E+01-4.53224E+01 1.38545E+01
 -1      4421 5.03357E+01-4.53224E+01 1.55864E+01
 -1      4422 5.03357E+01-4.53224E+01 1.73182E+01
 -1      4423 4.78947E+01-4.78947E+01 1.73182E+00
 -1      4424 4.78947E+01-4.78947E+01 3.46364E+00
 -1      4425 4.78947E+01-4.78947E+01 5.19545E+00
 -1      4426 4.78947E+01-4.78947E+01 6.92727E+00
 -1      4427 4.78947E+01-4.78947E+01 8.65909E+00
 -1      4428 4.78947E+01-4.78947E+01 1.03909E+01
 -1      4429 4.78947E+01-4.78947E+01 1.21227E+01
 -1      4430 4.78947E+01-4.78947E+01 1.38545E+01
 -1      4431 4.78947E+01-4.78947E+01 1.55864E+01
 -1      4432 4.78947E+01-4.78947E+01 1.73182E+01
 -1      4433 4.53224E+01-5.03357E+01 1.73182E+00
 -1      4434 4.53224E+01-5.03357E+01 3.46364E+00
 -1      4435 4.53224E+01-5.03357E+01 5.19545E+00
 -1      4436 4.53224E+01-5.03357E+01 6.92727E+00
 -1      4437 4.53224E+01-5.03357E+01 8.65909E+00
 -1      4438 4.53224E+01-5.03357E+01 1.03909E+01
 -1      4439 4.53224E+01-5.03357E+01 1.21227E+01
 -1      4440 4.53224E+01-5.03357E+01 1.38545E+01
 -1      4441 4.53224E+01-5.03357E+01 1.55864E+01
 -1      4442 4.53224E+01-5.03357E+01 1.73182E+01
 -1      4443 4.26260E+01-5.26387E+01 1.73182E+00
 -1      4444 4.26260E+01-5.26387E+01 3.46364E+00
 -1      4445 4.26260E+01-5.26387E+01 5.19545E+00
 -1      4446 4.26260E+01-5.26387E+01 6.92727E+00
 -1      4447 4.26260E+01-5.26387E+01 8.65909E+00
 -1      4448 4.26260E+01-5.26387E+01 1.03909E+01
 -1      4449 4.26260E+01-5.26387E+01 1.21227E+01
 -1      4450 4.26260E+01-5.26387E+01 1.38545E+01
 -1      4451 4.26260E+01-5.26387E+01 1.55864E+01
 -1      4452 4.26260E+01-5.26387E+01 1.73182E+01
 -1      4453 3.98127E+01-5.47974E+01 1.73182E+00
 -1      4454 3.98127E+01-5.47974E+01 3.46364E+00
 -1      4455 3.98127E+01-5.47974E+01 5.19545E+00
 -1      4456 3.98127E+01-5.47974E+01 6.92727E+00
 -1      4457 3.98127E+01-5.47974E+01 8.65909E+00
 -1      4458 3.98127E+01-5.47974E+01 1.03909E+01
 -1      4459 3.98127E+01-5.47974E+01 1.21227E+01
 -1      4460 3.98127E+01-5.47974E+01 1.38545E+01
 -1      4461 3.98127E+01-5.47974E+01 1.55864E+01
 -1      4462 3.98127E+01-5.47974E+01 1.73182E+01
 -1      4463 3.68902E+01-5.68060E+01 1.73182E+00
 -1      4464 3.68902E+01-5.68060E+01 3.46364E+00
 -1      4465 3.68902E+01-5.68060E+01 5.19545E+00
 -1      4466 3.68902E+01-5.68060E+01 6.92727E+00
 -1      4467 3.68902E+01-5.68060E+01 8.65909E+00
 -1      4468 3.68902E+01-5.68060E+01 1.03909E+01
 -1      4469 3.68902E+01-5.68060E+01 1.21227E+01
 -1      4470 3.68902E+01-5.68060E+01 1.38545E+01
 -1      4471 3.68902E+01-5.68060E+01 1.55864E+01
 -1      4472 3.68902E+01-5.68060E+01 1.73182E+01
 -1      4473 3.38667E+01-5.86588E+01 1.73182E+00
 -1      4474 3.38667E+01-5.86588E+01 3.46364E+00
 -1      4475 3.38667E+01-5.86588E+01 5.19545E+00
 -1      4476 3.38667E+01-5.86588E+01 6.92727E+00
 -1      4477 3.38667E+01-5.86588E+01 8.65909E+00
 -1      4478 3.38667E+01-5.86588E+01 1.03909E+01
 -1      4479 3.38667E+01-5.86588E+01 1.21227E+01
 -1      4480 3.38667E+01-5.86588E+01 1.38545E+01
 -1      4481 3.38667E+01-5.86588E+01 1.55864E+01
 -1      4482 3.38667E+01-5.86588E+01 1.73182E+01
 -1      4483 3.07503E+01-6.03508E+01 1.73182E+00
 -1      4484 3.07503E+01-6.03508E+01 3.46364E+00
 -1      4485 3.07503E+01-6.03508E+01 5.19545E+00
 -1      4486 3.07503E+01-6.03508E+01 6.92727E+00
 -1      4487 3.07503E+01-6.03508E+01 8.65909E+00
 -1      4488 3.07503E+01-6.03508E+01 1.03909E+01
 -1      4489 3.07503E+01-6.03508E+01 1.21227E+01
 -1      4490 3.07503E+01-6.03508E+01 1.38545E+01
 -1      4491 3.07503E+01-6.03508E+01 1.55864E+01
 -1      4492 3.07503E+01-6.03508E+01 1.73182E+01
 -1      4493 2.75496E+01-6.18775E+01 1.73182E+00
 -1      4494 2.75496E+01-6.18775E+01 3.46364E+00
 -1      4495 2.75496E+01-6.18775E+01 5.19545E+00
 -1      4496 2.75496E+01-6.18775E+01 6.92727E+00
 -1      4497 2.75496E+01-6.18775E+01 8.65909E+00
 -1      4498 2.75496E+01-6.18775E+01 1.03909E+01
 -1      4499 2.75496E+01-6.18775E+01 1.21227E+01
 -1      4500 2.75496E+01-6.18775E+01 1.38545E+01
 -1      4501 2.75496E+01-6.18775E+01 1.55864E+01
 -1      4502 2.75496E+01-6.18775E+01 1.73182E+01
 -1      4503 2.42735E+01-6.32345E+01 1.73182E+00
 -1      4504 2.42735E+01-6.32345E+01 3.46364E+00
 -1      4505 2.42735E+01-6.32345E+01 5.19545E+00
 -1      4506 2.42735E+01-6.32345E+01 6.92727E+00
 -1      4507 2.42735E+01-6.32345E+01 8.65909E+00
 -1      4508 2.42735E+01-6.32345E+01 1.03909E+01
 -1      4509 2.42735E+01-6.32345E+01 1.21227E+01
 -1      4510 2.42735E+01-6.32345E+01 1.38545E+01
 -1      4511 2.42735E+01-6.32345E+01 1.55864E+01
 -1      4512 2.42735E+01-6.32345E+01 1.73182E+01
 -1      4513 2.09308E+01-6.44182E+01 1.73182E+00
 -1      4514 2.09308E+01-6.44182E+01 3.46364E+00
 -1      4515 2.09308E+01-6.44182E+01 5.19545E+00
 -1      4516 2.09308E+01-6.44182E+01 6.92727E+00
 -1      4517 2.09308E+01-6.44182E+01 8.65909E+00
 -1      4518 2.09308E+01-6.44182E+01 1.03909E+01
 -1      4519 2.09308E+01-6.44182E+01 1.21227E+01
 -1      4520 2.09308E+01-6.44182E+01 1.38545E+01
 -1      4521 2.09308E+01-6.44182E+01 1.55864E+01
 -1      4522 2.09308E+01-6.44182E+01 1.73182E+01
 -1      4523 1.75307E+01-6.54254E+01 1.73182E+00
 -1      4524 1.75307E+01-6.54254E+01 3.46364E+00
 -1      4525 1.75307E+01-6.54254E+01 5.19545E+00
 -1      4526 1.75307E+01-6.54254E+01 6.92727E+00
 -1      4527 1.75307E+01-6.54254E+01 8.65909E+00
 -1      4528 1.75307E+01-6.54254E+01 1.03909E+01
 -1      4529 1.75307E+01-6.54254E+01 1.21227E+01
 -1      4530 1.75307E+01-6.54254E+01 1.38545E+01
 -1      4531 1.75307E+01-6.54254E+01 1.55864E+01
 -1      4532 1.75307E+01-6.54254E+01 1.73182E+01
 -1      4533 1.40826E+01-6.62532E+01 1.73182E+00
 -1      4534 1.40826E+01-6.62532E+01 3.46364E+00
 -1      4535 1.40826E+01-6.62532E+01 5.19545E+00
 -1      4536 1.40826E+01-6.62532E+01 6.92727E+00
 -1      4537 1.40826E+01-6.62532E+01 8.65909E+00
 -1      4538 1.40826E+01-6.62532E+01 1.03909E+01
 -1      4539 1.40826E+01-6.62532E+01 1.21227E+01
 -1      4540 1.40826E+01-6.62532E+01 1.38545E+01
 -1      4541 1.40826E+01-6.62532E+01 1.55864E+01
 -1      4542 1.40826E+01-6.62532E+01 1.73182E+01
 -1      4543 1.05958E+01-6.68994E+01 1.73182E+00
 -1      4544 1.05958E+01-6.68994E+01 3.46364E+00
 -1      4545 1.05958E+01-6.68994E+01 5.19545E+00
 -1      4546 1.05958E+01-6.68994E+01 6.92727E+00
 -1      4547 1.05958E+01-6.68994E+01 8.65909E+00
 -1      4548 1.05958E+01-6.68994E+01 1.03909E+01
 -1      4549 1.05958E+01-6.68994E+01 1.21227E+01
 -1      4550 1.05958E+01-6.68994E+01 1.38545E+01
 -1      4551 1.05958E+01-6.68994E+01 1.55864E+01
 -1      4552 1.05958E+01-6.68994E+01 1.73182E+01
 -1      4553 7.08006E+00-6.73623E+01 1.73182E+00
 -1      4554 7.08006E+00-6.73623E+01 3.46364E+00
 -1      4555 7.08006E+00-6.73623E+01 5.19545E+00
 -1      4556 7.08006E+00-6.73623E+01 6.92727E+00
 -1      4557 7.08006E+00-6.73623E+01 8.65909E+00
 -1      4558 7.08006E+00-6.73623E+01 1.03909E+01
 -1      4559 7.08006E+00-6.73623E+01 1.21227E+01
 -1      4560 7.08006E+00-6.73623E+01 1.38545E+01
 -1      4561 7.08006E+00-6.73623E+01 1.55864E+01
 -1      4562 7.08006E+00-6.73623E+01 1.73182E+01
 -1      4563 3.54489E+00-6.76405E+01 1.73182E+00
 -1      4564 3.54489E+00-6.76405E+01 3.46364E+00
 -1      4565 3.54489E+00-6.76405E+01 5.19545E+00
 -1      4566 3.54489E+00-6.76405E+01 6.92727E+00
 -1      4567 3.54489E+00-6.76405E+01 8.65909E+00
 -1      4568 3.54489E+00-6.76405E+01 1.03909E+01
 -1      4569 3.54489E+00-6.76405E+01 1.21227E+01
 -1      4570 3.54489E+00-6.76405E+01 1.38545E+01
 -1      4571 3.54489E+00-6.76405E+01 1.55864E+01
 -1      4572 3.54489E+00-6.76405E+01 1.73182E+01
 -1      4573 7.10225E+01-3.72213E+00 1.73182E+00
 -1      4574 7.10225E+01-3.72213E+00 3.46364E+00
 -1      4575 7.10225E+01-3.72213E+00 5.19545E+00
 -1      4576 7.10225E+01-3.72213E+00 6.92727E+00
 -1      4577 7.10225E+01-3.72213E+00 8.65909E+00
 -1      4578 7.10225E+01-3.72213E+00 1.03909E+01
 -1      4579 7.10225E+01-3.72213E+00 1.21227E+01
 -1      4580 7.10225E+01-3.72213E+00 1.38545E+01
 -1      4581 7.10225E+01-3.72213E+00 1.55864E+01
 -1      4582 7.10225E+01-3.72213E+00 1.73182E+01
 -1      4583 7.07304E+01-7.43406E+00 1.73182E+00
 -1      4584 7.07304E+01-7.43406E+00 3.46364E+00
 -1      4585 7.07304E+01-7.43406E+00 5.19545E+00
 -1      4586 7.07304E+01-7.43406E+00 6.92727E+00
 -1      4587 7.07304E+01-7.43406E+00 8.65909E+00
 -1      4588 7.07304E+01-7.43406E+00 1.03909E+01
 -1      4589 7.07304E+01-7.43406E+00 1.21227E+01
 -1      4590 7.07304E+01-7.43406E+00 1.38545E+01
 -1      4591 7.07304E+01-7.43406E+00 1.55864E+01
 -1      4592 7.07304E+01-7.43406E+00 1.73182E+01
 -1      4593 7.02444E+01-1.11256E+01 1.73182E+00
 -1      4594 7.02444E+01-1.11256E+01 3.46364E+00
 -1      4595 7.02444E+01-1.11256E+01 5.19545E+00
 -1      4596 7.02444E+01-1.11256E+01 6.92727E+00
 -1      4597 7.02444E+01-1.11256E+01 8.65909E+00
 -1      4598 7.02444E+01-1.11256E+01 1.03909E+01
 -1      4599 7.02444E+01-1.11256E+01 1.21227E+01
 -1      4600 7.02444E+01-1.11256E+01 1.38545E+01
 -1      4601 7.02444E+01-1.11256E+01 1.55864E+01
 -1      4602 7.02444E+01-1.11256E+01 1.73182E+01
 -1      4603 6.95659E+01-1.47867E+01 1.73182E+00
 -1      4604 6.95659E+01-1.47867E+01 3.46364E+00
 -1      4605 6.95659E+01-1.47867E+01 5.19545E+00
 -1      4606 6.95659E+01-1.47867E+01 6.92727E+00
 -1      4607 6.95659E+01-1.47867E+01 8.65909E+00
 -1      4608 6.95659E+01-1.47867E+01 1.03909E+01
 -1      4609 6.95659E+01-1.47867E+01 1.21227E+01
 -1      4610 6.95659E+01-1.47867E+01 1.38545E+01
 -1      4611 6.95659E+01-1.47867E+01 1.55864E+01
 -1      4612 6.95659E+01-1.47867E+01 1.73182E+01
 -1      4613 6.86966E+01-1.84072E+01 1.73182E+00
 -1      4614 6.86966E+01-1.84072E+01 3.46364E+00
 -1      4615 6.86966E+01-1.84072E+01 5.19545E+00
 -1      4616 6.86966E+01-1.84072E+01 6.92727E+00
 -1      4617 6.86966E+01-1.84072E+01 8.65909E+00
 -1      4618 6.86966E+01-1.84072E+01 1.03909E+01
 -1      4619 6.86966E+01-1.84072E+01 1.21227E+01
 -1      4620 6.86966E+01-1.84072E+01 1.38545E+01
 -1      4621 6.86966E+01-1.84072E+01 1.55864E+01
 -1      4622 6.86966E+01-1.84072E+01 1.73182E+01
 -1      4623 6.76391E+01-2.19773E+01 1.73182E+00
 -1      4624 6.76391E+01-2.19773E+01 3.46364E+00
 -1      4625 6.76391E+01-2.19773E+01 5.19545E+00
 -1      4626 6.76391E+01-2.19773E+01 6.92727E+00
 -1      4627 6.76391E+01-2.19773E+01 8.65909E+00
 -1      4628 6.76391E+01-2.19773E+01 1.03909E+01
 -1      4629 6.76391E+01-2.19773E+01 1.21227E+01
 -1      4630 6.76391E+01-2.19773E+01 1.38545E+01
 -1      4631 6.76391E+01-2.19773E+01 1.55864E+01
 -1      4632 6.76391E+01-2.19773E+01 1.73182E+01
 -1      4633 6.63962E+01-2.54871E+01 1.73182E+00
 -1      4634 6.63962E+01-2.54871E+01 3.46364E+00
 -1      4635 6.63962E+01-2.54871E+01 5.19545E+00
 -1      4636 6.63962E+01-2.54871E+01 6.92727E+00
 -1      4637 6.63962E+01-2.54871E+01 8.65909E+00
 -1      4638 6.63962E+01-2.54871E+01 1.03909E+01
 -1      4639 6.63962E+01-2.54871E+01 1.21227E+01
 -1      4640 6.63962E+01-2.54871E+01 1.38545E+01
 -1      4641 6.63962E+01-2.54871E+01 1.55864E+01
 -1      4642 6.63962E+01-2.54871E+01 1.73182E+01
 -1      4643 6.49714E+01-2.89271E+01 1.73182E+00
 -1      4644 6.49714E+01-2.89271E+01 3.46364E+00
 -1      4645 6.49714E+01-2.89271E+01 5.19545E+00
 -1      4646 6.49714E+01-2.89271E+01 6.92727E+00
 -1      4647 6.49714E+01-2.89271E+01 8.65909E+00
 -1      4648 6.49714E+01-2.89271E+01 1.03909E+01
 -1      4649 6.49714E+01-2.89271E+01 1.21227E+01
 -1      4650 6.49714E+01-2.89271E+01 1.38545E+01
 -1      4651 6.49714E+01-2.89271E+01 1.55864E+01
 -1      4652 6.49714E+01-2.89271E+01 1.73182E+01
 -1      4653 6.33684E+01-3.22878E+01 1.73182E+00
 -1      4654 6.33684E+01-3.22878E+01 3.46364E+00
 -1      4655 6.33684E+01-3.22878E+01 5.19545E+00
 -1      4656 6.33684E+01-3.22878E+01 6.92727E+00
 -1      4657 6.33684E+01-3.22878E+01 8.65909E+00
 -1      4658 6.33684E+01-3.22878E+01 1.03909E+01
 -1      4659 6.33684E+01-3.22878E+01 1.21227E+01
 -1      4660 6.33684E+01-3.22878E+01 1.38545E+01
 -1      4661 6.33684E+01-3.22878E+01 1.55864E+01
 -1      4662 6.33684E+01-3.22878E+01 1.73182E+01
 -1      4663 6.15917E+01-3.55600E+01 1.73182E+00
 -1      4664 6.15917E+01-3.55600E+01 3.46364E+00
 -1      4665 6.15917E+01-3.55600E+01 5.19545E+00
 -1      4666 6.15917E+01-3.55600E+01 6.92727E+00
 -1      4667 6.15917E+01-3.55600E+01 8.65909E+00
 -1      4668 6.15917E+01-3.55600E+01 1.03909E+01
 -1      4669 6.15917E+01-3.55600E+01 1.21227E+01
 -1      4670 6.15917E+01-3.55600E+01 1.38545E+01
 -1      4671 6.15917E+01-3.55600E+01 1.55864E+01
 -1      4672 6.15917E+01-3.55600E+01 1.73182E+01
 -1      4673 5.96463E+01-3.87347E+01 1.73182E+00
 -1      4674 5.96463E+01-3.87347E+01 3.46364E+00
 -1      4675 5.96463E+01-3.87347E+01 5.19545E+00
 -1      4676 5.96463E+01-3.87347E+01 6.92727E+00
 -1      4677 5.96463E+01-3.87347E+01 8.65909E+00
 -1      4678 5.96463E+01-3.87347E+01 1.03909E+01
 -1      4679 5.96463E+01-3.87347E+01 1.21227E+01
 -1      4680 5.96463E+01-3.87347E+01 1.38545E+01
 -1      4681 5.96463E+01-3.87347E+01 1.55864E+01
 -1      4682 5.96463E+01-3.87347E+01 1.73182E+01
 -1      4683 5.75373E+01-4.18033E+01 1.73182E+00
 -1      4684 5.75373E+01-4.18033E+01 3.46364E+00
 -1      4685 5.75373E+01-4.18033E+01 5.19545E+00
 -1      4686 5.75373E+01-4.18033E+01 6.92727E+00
 -1      4687 5.75373E+01-4.18033E+01 8.65909E+00
 -1      4688 5.75373E+01-4.18033E+01 1.03909E+01
 -1      4689 5.75373E+01-4.18033E+01 1.21227E+01
 -1      4690 5.75373E+01-4.18033E+01 1.38545E+01
 -1      4691 5.75373E+01-4.18033E+01 1.55864E+01
 -1      4692 5.75373E+01-4.18033E+01 1.73182E+01
 -1      4693 5.52706E+01-4.47573E+01 1.73182E+00
 -1      4694 5.52706E+01-4.47573E+01 3.46364E+00
 -1      4695 5.52706E+01-4.47573E+01 5.19545E+00
 -1      4696 5.52706E+01-4.47573E+01 6.92727E+00
 -1      4697 5.52706E+01-4.47573E+01 8.65909E+00
 -1      4698 5.52706E+01-4.47573E+01 1.03909E+01
 -1      4699 5.52706E+01-4.47573E+01 1.21227E+01
 -1      4700 5.52706E+01-4.47573E+01 1.38545E+01
 -1      4701 5.52706E+01-4.47573E+01 1.55864E+01
 -1      4702 5.52706E+01-4.47573E+01 1.73182E+01
 -1      4703 5.28525E+01-4.75886E+01 1.73182E+00
 -1      4704 5.28525E+01-4.75886E+01 3.46364E+00
 -1      4705 5.28525E+01-4.75886E+01 5.19545E+00
 -1      4706 5.28525E+01-4.75886E+01 6.92727E+00
 -1      4707 5.28525E+01-4.75886E+01 8.65909E+00
 -1      4708 5.28525E+01-4.75886E+01 1.03909E+01
 -1      4709 5.28525E+01-4.75886E+01 1.21227E+01
 -1      4710 5.28525E+01-4.75886E+01 1.38545E+01
 -1      4711 5.28525E+01-4.75886E+01 1.55864E+01
 -1      4712 5.28525E+01-4.75886E+01 1.73182E+01
 -1      4713 5.02894E+01-5.02894E+01 1.73182E+00
 -1      4714 5.02894E+01-5.02894E+01 3.46364E+00
 -1      4715 5.02894E+01-5.02894E+01 5.19545E+00
 -1      4716 5.02894E+01-5.02894E+01 6.92727E+00
 -1      4717 5.02894E+01-5.02894E+01 8.65909E+00
 -1      4718 5.02894E+01-5.02894E+01 1.03909E+01
 -1      4719 5.02894E+01-5.02894E+01 1.21227E+01
 -1      4720 5.02894E+01-5.02894E+01 1.38545E+01
 -1      4721 5.02894E+01-5.02894E+01 1.55864E+01
 -1      4722 5.02894E+01-5.02894E+01 1.73182E+01
 -1      4723 4.75886E+01-5.28525E+01 1.73182E+00
 -1      4724 4.75886E+01-5.28525E+01 3.46364E+00
 -1      4725 4.75886E+01-5.28525E+01 5.19545E+00
 -1      4726 4.75886E+01-5.28525E+01 6.92727E+00
 -1      4727 4.75886E+01-5.28525E+01 8.65909E+00
 -1      4728 4.75886E+01-5.28525E+01 1.03909E+01
 -1      4729 4.75886E+01-5.28525E+01 1.21227E+01
 -1      4730 4.75886E+01-5.28525E+01 1.38545E+01
 -1      4731 4.75886E+01-5.28525E+01 1.55864E+01
 -1      4732 4.75886E+01-5.28525E+01 1.73182E+01
 -1      4733 4.47573E+01-5.52706E+01 1.73182E+00
 -1      4734 4.47573E+01-5.52706E+01 3.46364E+00
 -1      4735 4.47573E+01-5.52706E+01 5.19545E+00
 -1      4736 4.47573E+01-5.52706E+01 6.92727E+00
 -1      4737 4.47573E+01-5.52706E+01 8.65909E+00
 -1      4738 4.47573E+01-5.52706E+01 1.03909E+01
 -1      4739 4.47573E+01-5.52706E+01 1.21227E+01
 -1      4740 4.47573E+01-5.52706E+01 1.38545E+01
 -1      4741 4.47573E+01-5.52706E+01 1.55864E+01
 -1      4742 4.47573E+01-5.52706E+01 1.73182E+01
 -1      4743 4.18033E+01-5.75373E+01 1.73182E+00
 -1      4744 4.18033E+01-5.75373E+01 3.46364E+00
 -1      4745 4.18033E+01-5.75373E+01 5.19545E+00
 -1      4746 4.18033E+01-5.75373E+01 6.92727E+00
 -1      4747 4.18033E+01-5.75373E+01 8.65909E+00
 -1      4748 4.18033E+01-5.75373E+01 1.03909E+01
 -1      4749 4.18033E+01-5.75373E+01 1.21227E+01
 -1      4750 4.18033E+01-5.75373E+01 1.38545E+01
 -1      4751 4.18033E+01-5.75373E+01 1.55864E+01
 -1      4752 4.18033E+01-5.75373E+01 1.73182E+01
 -1      4753 3.87347E+01-5.96463E+01 1.73182E+00
 -1      4754 3.87347E+01-5.96463E+01 3.46364E+00
 -1      4755 3.87347E+01-5.96463E+01 5.19545E+00
 -1      4756 3.87347E+01-5.96463E+01 6.92727E+00
 -1      4757 3.87347E+01-5.96463E+01 8.65909E+00
 -1      4758 3.87347E+01-5.96463E+01 1.03909E+01
 -1      4759 3.87347E+01-5.96463E+01 1.21227E+01
 -1      4760 3.87347E+01-5.96463E+01 1.38545E+01
 -1      4761 3.87347E+01-5.96463E+01 1.55864E+01
 -1      4762 3.87347E+01-5.96463E+01 1.73182E+01
 -1      4763 3.55600E+01-6.15917E+01 1.73182E+00
 -1      4764 3.55600E+01-6.15917E+01 3.46364E+00
 -1      4765 3.55600E+01-6.15917E+01 5.19545E+00
 -1      4766 3.55600E+01-6.15917E+01 6.92727E+00
 -1      4767 3.55600E+01-6.15917E+01 8.65909E+00
 -1      4768 3.55600E+01-6.15917E+01 1.03909E+01
 -1      4769 3.55600E+01-6.15917E+01 1.21227E+01
 -1      4770 3.55600E+01-6.15917E+01 1.38545E+01
 -1      4771 3.55600E+01-6.15917E+01 1.55864E+01
 -1      4772 3.55600E+01-6.15917E+01 1.73182E+01
 -1      4773 3.22878E+01-6.33684E+01 1.73182E+00
 -1      4774 3.22878E+01-6.33684E+01 3.46364E+00
 -1      4775 3.22878E+01-6.33684E+01 5.19545E+00
 -1      4776 3.22878E+01-6.33684E+01 6.92727E+00
 -1      4777 3.22878E+01-6.33684E+01 8.65909E+00
 -1      4778 3.22878E+01-6.33684E+01 1.03909E+01
 -1      4779 3.22878E+01-6.33684E+01 1.21227E+01
 -1      4780 3.22878E+01-6.33684E+01 1.38545E+01
 -1      4781 3.22878E+01-6.33684E+01 1.55864E+01
 -1      4782 3.22878E+01-6.33684E+01 1.73182E+01
 -1      4783 2.89271E+01-6.49714E+01 1.73182E+00
 -1      4784 2.89271E+01-6.49714E+01 3.46364E+00
 -1      4785 2.89271E+01-6.49714E+01 5.19545E+00
 -1      4786 2.89271E+01-6.49714E+01 6.92727E+00
 -1      4787 2.89271E+01-6.49714E+01 8.65909E+00
 -1      4788 2.89271E+01-6.49714E+01 1.03909E+01
 -1      4789 2.89271E+01-6.49714E+01 1.21227E+01
 -1      4790 2.89271E+01-6.49714E+01 1.38545E+01
 -1      4791 2.89271E+01-6.49714E+01 1.55864E+01
 -1      4792 2.89271E+01-6.49714E+01 1.73182E+01
 -1      4793 2.54871E+01-6.63962E+01 1.73182E+00
 -1      4794 2.54871E+01-6.63962E+01 3.46364E+00
 -1      4795 2.54871E+01-6.63962E+01 5.19545E+00
 -1      4796 2.54871E+01-6.63962E+01 6.92727E+00
 -1      4797 2.54871E+01-6.63962E+01 8.65909E+00
 -1      4798 2.54871E+01-6.63962E+01 1.03909E+01
 -1      4799 2.54871E+01-6.63962E+01 1.21227E+01
 -1      4800 2.54871E+01-6.63962E+01 1.38545E+01
 -1      4801 2.54871E+01-6.63962E+01 1.55864E+01
 -1      4802 2.54871E+01-6.63962E+01 1.73182E+01
 -1      4803 2.19773E+01-6.76391E+01 1.73182E+00
 -1      4804 2.19773E+01-6.76391E+01 3.46364E+00
 -1      4805 2.19773E+01-6.76391E+01 5.19545E+00
 -1      4806 2.19773E+01-6.76391E+01 6.92727E+00
 -1      4807 2.19773E+01-6.76391E+01 8.65909E+00
 -1      4808 2.19773E+01-6.76391E+01 1.03909E+01
 -1      4809 2.19773E+01-6.76391E+01 1.21227E+01
 -1      4810 2.19773E+01-6.76391E+01 1.38545E+01
 -1      4811 2.19773E+01-6.76391E+01 1.55864E+01
 -1      4812 2.19773E+01-6.76391E+01 1.73182E+01
 -1      4813 1.84072E+01-6.86966E+01 1.73182E+00
 -1      4814 1.84072E+01-6.86966E+01 3.46364E+00
 -1      4815 1.84072E+01-6.86966E+01 5.19545E+00
 -1      4816 1.84072E+01-6.86966E+01 6.92727E+00
 -1      4817 1.84072E+01-6.86966E+01 8.65909E+00
 -1      4818 1.84072E+01-6.86966E+01 1.03909E+01
 -1      4819 1.84072E+01-6.86966E+01 1.21227E+01
 -1      4820 1.84072E+01-6.86966E+01 1.38545E+01
 -1      4821 1.84072E+01-6.86966E+01 1.55864E+01
 -1      4822 1.84072E+01-6.86966E+01 1.73182E+01
 -1      4823 1.47867E+01-6.95659E+01 1.73182E+00
 -1      4824 1.47867E+01-6.95659E+01 3.46364E+00
 -1      4825 1.47867E+01-6.95659E+01 5.19545E+00
 -1      4826 1.47867E+01-6.95659E+01 6.92727E+00
 -1      4827 1.47867E+01-6.95659E+01 8.65909E+00
 -1      4828 1.47867E+01-6.95659E+01 1.03909E+01
 -1      4829 1.47867E+01-6.95659E+01 1.21227E+01
 -1      4830 1.47867E+01-6.95659E+01 1.38545E+01
 -1      4831 1.47867E+01-6.95659E+01 1.55864E+01
 -1      4832 1.47867E+01-6.95659E+01 1.73182E+01
 -1      4833 1.11256E+01-7.02444E+01 1.73182E+00
 -1      4834 1.11256E+01-7.02444E+01 3.46364E+00
 -1      4835 1.11256E+01-7.02444E+01 5.19545E+00
 -1      4836 1.11256E+01-7.02444E+01 6.92727E+00
 -1      4837 1.11256E+01-7.02444E+01 8.65909E+00
 -1      4838 1.11256E+01-7.02444E+01 1.03909E+01
 -1      4839 1.11256E+01-7.02444E+01 1.21227E+01
 -1      4840 1.11256E+01-7.02444E+01 1.38545E+01
 -1      4841 1.11256E+01-7.02444E+01 1.55864E+01
 -1      4842 1.11256E+01-7.02444E+01 1.73182E+01
 -1      4843 7.43406E+00-7.07304E+01 1.73182E+00
 -1      4844 7.43406E+00-7.07304E+01 3.46364E+00
 -1      4845 7.43406E+00-7.07304E+01 5.19545E+00
 -1      4846 7.43406E+00-7.07304E+01 6.92727E+00
 -1      4847 7.43406E+00-7.07304E+01 8.65909E+00
 -1      4848 7.43406E+00-7.07304E+01 1.03909E+01
 -1      4849 7.43406E+00-7.07304E+01 1.21227E+01
 -1      4850 7.43406E+00-7.07304E+01 1.38545E+01
 -1      4851 7.43406E+00-7.07304E+01 1.55864E+01
 -1      4852 7.43406E+00-7.07304E+01 1.73182E+01
 -1      4853 3.72213E+00-7.10225E+01 1.73182E+00
 -1      4854 3.72213E+00-7.10225E+01 3.46364E+00
 -1      4855 3.72213E+00-7.10225E+01 5.19545E+00
 -1      4856 3.72213E+00-7.10225E+01 6.92727E+00
 -1      4857 3.72213E+00-7.10225E+01 8.65909E+00
 -1      4858 3.72213E+00-7.10225E+01 1.03909E+01
 -1      4859 3.72213E+00-7.10225E+01 1.21227E+01
 -1      4860 3.72213E+00-7.10225E+01 1.38545E+01
 -1      4861 3.72213E+00-7.10225E+01 1.55864E+01
 -1      4862 3.72213E+00-7.10225E+01 1.73182E+01
 -1      4863 7.44046E+01-3.89938E+00 1.73182E+00
 -1      4864 7.44046E+01-3.89938E+00 3.46364E+00
 -1      4865 7.44046E+01-3.89938E+00 5.19545E+00
 -1      4866 7.44046E+01-3.89938E+00 6.92727E+00
 -1      4867 7.44046E+01-3.89938E+00 8.65909E+00
 -1      4868 7.44046E+01-3.89938E+00 1.03909E+01
 -1      4869 7.44046E+01-3.89938E+00 1.21227E+01
 -1      4870 7.44046E+01-3.89938E+00 1.38545E+01
 -1      4871 7.44046E+01-3.89938E+00 1.55864E+01
 -1      4872 7.44046E+01-3.89938E+00 1.73182E+01
 -1      4873 7.40985E+01-7.78807E+00 1.73182E+00
 -1      4874 7.40985E+01-7.78807E+00 3.46364E+00
 -1      4875 7.40985E+01-7.78807E+00 5.19545E+00
 -1      4876 7.40985E+01-7.78807E+00 6.92727E+00
 -1      4877 7.40985E+01-7.78807E+00 8.65909E+00
 -1      4878 7.40985E+01-7.78807E+00 1.03909E+01
 -1      4879 7.40985E+01-7.78807E+00 1.21227E+01
 -1      4880 7.40985E+01-7.78807E+00 1.38545E+01
 -1      4881 7.40985E+01-7.78807E+00 1.55864E+01
 -1      4882 7.40985E+01-7.78807E+00 1.73182E+01
 -1      4883 7.35894E+01-1.16554E+01 1.73182E+00
 -1      4884 7.35894E+01-1.16554E+01 3.46364E+00
 -1      4885 7.35894E+01-1.16554E+01 5.19545E+00
 -1      4886 7.35894E+01-1.16554E+01 6.92727E+00
 -1      4887 7.35894E+01-1.16554E+01 8.65909E+00
 -1      4888 7.35894E+01-1.16554E+01 1.03909E+01
 -1      4889 7.35894E+01-1.16554E+01 1.21227E+01
 -1      4890 7.35894E+01-1.16554E+01 1.38545E+01
 -1      4891 7.35894E+01-1.16554E+01 1.55864E+01
 -1      4892 7.35894E+01-1.16554E+01 1.73182E+01
 -1      4893 7.28785E+01-1.54908E+01 1.73182E+00
 -1      4894 7.28785E+01-1.54908E+01 3.46364E+00
 -1      4895 7.28785E+01-1.54908E+01 5.19545E+00
 -1      4896 7.28785E+01-1.54908E+01 6.92727E+00
 -1      4897 7.28785E+01-1.54908E+01 8.65909E+00
 -1      4898 7.28785E+01-1.54908E+01 1.03909E+01
 -1      4899 7.28785E+01-1.54908E+01 1.21227E+01
 -1      4900 7.28785E+01-1.54908E+01 1.38545E+01
 -1      4901 7.28785E+01-1.54908E+01 1.55864E+01
 -1      4902 7.28785E+01-1.54908E+01 1.73182E+01
 -1      4903 7.19679E+01-1.92837E+01 1.73182E+00
 -1      4904 7.19679E+01-1.92837E+01 3.46364E+00
 -1      4905 7.19679E+01-1.92837E+01 5.19545E+00
 -1      4906 7.19679E+01-1.92837E+01 6.92727E+00
 -1      4907 7.19679E+01-1.92837E+01 8.65909E+00
 -1      4908 7.19679E+01-1.92837E+01 1.03909E+01
 -1      4909 7.19679E+01-1.92837E+01 1.21227E+01
 -1      4910 7.19679E+01-1.92837E+01 1.38545E+01
 -1      4911 7.19679E+01-1.92837E+01 1.55864E+01
 -1      4912 7.19679E+01-1.92837E+01 1.73182E+01
 -1      4913 7.08601E+01-2.30238E+01 1.73182E+00
 -1      4914 7.08601E+01-2.30238E+01 3.46364E+00
 -1      4915 7.08601E+01-2.30238E+01 5.19545E+00
 -1      4916 7.08601E+01-2.30238E+01 6.92727E+00
 -1      4917 7.08601E+01-2.30238E+01 8.65909E+00
 -1      4918 7.08601E+01-2.30238E+01 1.03909E+01
 -1      4919 7.08601E+01-2.30238E+01 1.21227E+01
 -1      4920 7.08601E+01-2.30238E+01 1.38545E+01
 -1      4921 7.08601E+01-2.30238E+01 1.55864E+01
 -1      4922 7.08601E+01-2.30238E+01 1.73182E+01
 -1      4923 6.95580E+01-2.67008E+01 1.73182E+00
 -1      4924 6.95580E+01-2.67008E+01 3.46364E+00
 -1      4925 6.95580E+01-2.67008E+01 5.19545E+00
 -1      4926 6.95580E+01-2.67008E+01 6.92727E+00
 -1      4927 6.95580E+01-2.67008E+01 8.65909E+00
 -1      4928 6.95580E+01-2.67008E+01 1.03909E+01
 -1      4929 6.95580E+01-2.67008E+01 1.21227E+01
 -1      4930 6.95580E+01-2.67008E+01 1.38545E+01
 -1      4931 6.95580E+01-2.67008E+01 1.55864E+01
 -1      4932 6.95580E+01-2.67008E+01 1.73182E+01
 -1      4933 6.80652E+01-3.03046E+01 1.73182E+00
 -1      4934 6.80652E+01-3.03046E+01 3.46364E+00
 -1      4935 6.80652E+01-3.03046E+01 5.19545E+00
 -1      4936 6.80652E+01-3.03046E+01 6.92727E+00
 -1      4937 6.80652E+01-3.03046E+01 8.65909E+00
 -1      4938 6.80652E+01-3.03046E+01 1.03909E+01
 -1      4939 6.80652E+01-3.03046E+01 1.21227E+01
 -1      4940 6.80652E+01-3.03046E+01 1.38545E+01
 -1      4941 6.80652E+01-3.03046E+01 1.55864E+01
 -1      4942 6.80652E+01-3.03046E+01 1.73182E+01
 -1      4943 6.63859E+01-3.38253E+01 1.73182E+00
 -1      4944 6.63859E+01-3.38253E+01 3.46364E+00
 -1      4945 6.63859E+01-3.38253E+01 5.19545E+00
 -1      4946 6.63859E+01-3.38253E+01 6.92727E+00
 -1      4947 6.63859E+01-3.38253E+01 8.65909E+00
 -1      4948 6.63859E+01-3.38253E+01 1.03909E+01
 -1      4949 6.63859E+01-3.38253E+01 1.21227E+01
 -1      4950 6.63859E+01-3.38253E+01 1.38545E+01
 -1      4951 6.63859E+01-3.38253E+01 1.55864E+01
 -1      4952 6.63859E+01-3.38253E+01 1.73182E+01
 -1      4953 6.45247E+01-3.72533E+01 1.73182E+00
 -1      4954 6.45247E+01-3.72533E+01 3.46364E+00
 -1      4955 6.45247E+01-3.72533E+01 5.19545E+00
 -1      4956 6.45247E+01-3.72533E+01 6.92727E+00
 -1      4957 6.45247E+01-3.72533E+01 8.65909E+00
 -1      4958 6.45247E+01-3.72533E+01 1.03909E+01
 -1      4959 6.45247E+01-3.72533E+01 1.21227E+01
 -1      4960 6.45247E+01-3.72533E+01 1.38545E+01
 -1      4961 6.45247E+01-3.72533E+01 1.55864E+01
 -1      4962 6.45247E+01-3.72533E+01 1.73182E+01
 -1      4963 6.24865E+01-4.05792E+01 1.73182E+00
 -1      4964 6.24865E+01-4.05792E+01 3.46364E+00
 -1      4965 6.24865E+01-4.05792E+01 5.19545E+00
 -1      4966 6.24865E+01-4.05792E+01 6.92727E+00
 -1      4967 6.24865E+01-4.05792E+01 8.65909E+00
 -1      4968 6.24865E+01-4.05792E+01 1.03909E+01
 -1      4969 6.24865E+01-4.05792E+01 1.21227E+01
 -1      4970 6.24865E+01-4.05792E+01 1.38545E+01
 -1      4971 6.24865E+01-4.05792E+01 1.55864E+01
 -1      4972 6.24865E+01-4.05792E+01 1.73182E+01
 -1      4973 6.02772E+01-4.37939E+01 1.73182E+00
 -1      4974 6.02772E+01-4.37939E+01 3.46364E+00
 -1      4975 6.02772E+01-4.37939E+01 5.19545E+00
 -1      4976 6.02772E+01-4.37939E+01 6.92727E+00
 -1      4977 6.02772E+01-4.37939E+01 8.65909E+00
 -1      4978 6.02772E+01-4.37939E+01 1.03909E+01
 -1      4979 6.02772E+01-4.37939E+01 1.21227E+01
 -1      4980 6.02772E+01-4.37939E+01 1.38545E+01
 -1      4981 6.02772E+01-4.37939E+01 1.55864E+01
 -1      4982 6.02772E+01-4.37939E+01 1.73182E+01
 -1      4983 5.79026E+01-4.68886E+01 1.73182E+00
 -1      4984 5.79026E+01-4.68886E+01 3.46364E+00
 -1      4985 5.79026E+01-4.68886E+01 5.19545E+00
 -1      4986 5.79026E+01-4.68886E+01 6.92727E+00
 -1      4987 5.79026E+01-4.68886E+01 8.65909E+00
 -1      4988 5.79026E+01-4.68886E+01 1.03909E+01
 -1      4989 5.79026E+01-4.68886E+01 1.21227E+01
 -1      4990 5.79026E+01-4.68886E+01 1.38545E+01
 -1      4991 5.79026E+01-4.68886E+01 1.55864E+01
 -1      4992 5.79026E+01-4.68886E+01 1.73182E+01
 -1      4993 5.53692E+01-4.98547E+01 1.73182E+00
 -1      4994 5.53692E+01-4.98547E+01 3.46364E+00
 -1      4995 5.53692E+01-4.98547E+01 5.19545E+00
 -1      4996 5.53692E+01-4.98547E+01 6.92727E+00
 -1      4997 5.53692E+01-4.98547E+01 8.65909E+00
 -1      4998 5.53692E+01-4.98547E+01 1.03909E+01
 -1      4999 5.53692E+01-4.98547E+01 1.21227E+01
 -1      5000 5.53692E+01-4.98547E+01 1.38545E+01
 -1      5001 5.53692E+01-4.98547E+01 1.55864E+01
 -1      5002 5.53692E+01-4.98547E+01 1.73182E+01
 -1      5003 5.26842E+01-5.26842E+01 1.73182E+00
 -1      5004 5.26842E+01-5.26842E+01 3.46364E+00
 -1      5005 5.26842E+01-5.26842E+01 5.19545E+00
 -1      5006 5.26842E+01-5.26842E+01 6.92727E+00
 -1      5007 5.26842E+01-5.26842E+01 8.65909E+00
 -1      5008 5.26842E+01-5.26842E+01 1.03909E+01
 -1      5009 5.26842E+01-5.26842E+01 1.21227E+01
 -1      5010 5.26842E+01-5.26842E+01 1.38545E+01
 -1      5011 5.26842E+01-5.26842E+01 1.55864E+01
 -1      5012 5.26842E+01-5.26842E+01 1.73182E+01
 -1      5013 4.98547E+01-5.53692E+01 1.73182E+00
 -1      5014 4.98547E+01-5.53692E+01 3.46364E+00
 -1      5015 4.98547E+01-5.53692E+01 5.19545E+00
 -1      5016 4.98547E+01-5.53692E+01 6.92727E+00
 -1      5017 4.98547E+01-5.53692E+01 8.65909E+00
 -1      5018 4.98547E+01-5.53692E+01 1.03909E+01
 -1      5019 4.98547E+01-5.53692E+01 1.21227E+01
 -1      5020 4.98547E+01-5.53692E+01 1.38545E+01
 -1      5021 4.98547E+01-5.53692E+01 1.55864E+01
 -1      5022 4.98547E+01-5.53692E+01 1.73182E+01
 -1      5023 4.68886E+01-5.79026E+01 1.73182E+00
 -1      5024 4.68886E+01-5.79026E+01 3.46364E+00
 -1      5025 4.68886E+01-5.79026E+01 5.19545E+00
 -1      5026 4.68886E+01-5.79026E+01 6.92727E+00
 -1      5027 4.68886E+01-5.79026E+01 8.65909E+00
 -1      5028 4.68886E+01-5.79026E+01 1.03909E+01
 -1      5029 4.68886E+01-5.79026E+01 1.21227E+01
 -1      5030 4.68886E+01-5.79026E+01 1.38545E+01
 -1      5031 4.68886E+01-5.79026E+01 1.55864E+01
 -1      5032 4.68886E+01-5.79026E+01 1.73182E+01
 -1      5033 4.37939E+01-6.02772E+01 1.73182E+00
 -1      5034 4.37939E+01-6.02772E+01 3.46364E+00
 -1      5035 4.37939E+01-6.02772E+01 5.19545E+00
 -1      5036 4.37939E+01-6.02772E+01 6.92727E+00
 -1      5037 4.37939E+01-6.02772E+01 8.65909E+00
 -1      5038 4.37939E+01-6.02772E+01 1.03909E+01
 -1      5039 4.37939E+01-6.02772E+01 1.21227E+01
 -1      5040 4.37939E+01-6.02772E+01 1.38545E+01
 -1      5041 4.37939E+01-6.02772E+01 1.55864E+01
 -1      5042 4.37939E+01-6.02772E+01 1.73182E+01
 -1      5043 4.05792E+01-6.24865E+01 1.73182E+00
 -1      5044 4.05792E+01-6.24865E+01 3.46364E+00
 -1      5045 4.05792E+01-6.24865E+01 5.19545E+00
 -1      5046 4.05792E+01-6.24865E+01 6.92727E+00
 -1      5047 4.05792E+01-6.24865E+01 8.65909E+00
 -1      5048 4.05792E+01-6.24865E+01 1.03909E+01
 -1      5049 4.05792E+01-6.24865E+01 1.21227E+01
 -1      5050 4.05792E+01-6.24865E+01 1.38545E+01
 -1      5051 4.05792E+01-6.24865E+01 1.55864E+01
 -1      5052 4.05792E+01-6.24865E+01 1.73182E+01
 -1      5053 3.72533E+01-6.45247E+01 1.73182E+00
 -1      5054 3.72533E+01-6.45247E+01 3.46364E+00
 -1      5055 3.72533E+01-6.45247E+01 5.19545E+00
 -1      5056 3.72533E+01-6.45247E+01 6.92727E+00
 -1      5057 3.72533E+01-6.45247E+01 8.65909E+00
 -1      5058 3.72533E+01-6.45247E+01 1.03909E+01
 -1      5059 3.72533E+01-6.45247E+01 1.21227E+01
 -1      5060 3.72533E+01-6.45247E+01 1.38545E+01
 -1      5061 3.72533E+01-6.45247E+01 1.55864E+01
 -1      5062 3.72533E+01-6.45247E+01 1.73182E+01
 -1      5063 3.38253E+01-6.63859E+01 1.73182E+00
 -1      5064 3.38253E+01-6.63859E+01 3.46364E+00
 -1      5065 3.38253E+01-6.63859E+01 5.19545E+00
 -1      5066 3.38253E+01-6.63859E+01 6.92727E+00
 -1      5067 3.38253E+01-6.63859E+01 8.65909E+00
 -1      5068 3.38253E+01-6.63859E+01 1.03909E+01
 -1      5069 3.38253E+01-6.63859E+01 1.21227E+01
 -1      5070 3.38253E+01-6.63859E+01 1.38545E+01
 -1      5071 3.38253E+01-6.63859E+01 1.55864E+01
 -1      5072 3.38253E+01-6.63859E+01 1.73182E+01
 -1      5073 3.03046E+01-6.80652E+01 1.73182E+00
 -1      5074 3.03046E+01-6.80652E+01 3.46364E+00
 -1      5075 3.03046E+01-6.80652E+01 5.19545E+00
 -1      5076 3.03046E+01-6.80652E+01 6.92727E+00
 -1      5077 3.03046E+01-6.80652E+01 8.65909E+00
 -1      5078 3.03046E+01-6.80652E+01 1.03909E+01
 -1      5079 3.03046E+01-6.80652E+01 1.21227E+01
 -1      5080 3.03046E+01-6.80652E+01 1.38545E+01
 -1      5081 3.03046E+01-6.80652E+01 1.55864E+01
 -1      5082 3.03046E+01-6.80652E+01 1.73182E+01
 -1      5083 2.67008E+01-6.95580E+01 1.73182E+00
 -1      5084 2.67008E+01-6.95580E+01 3.46364E+00
 -1      5085 2.67008E+01-6.95580E+01 5.19545E+00
 -1      5086 2.67008E+01-6.95580E+01 6.92727E+00
 -1      5087 2.67008E+01-6.95580E+01 8.65909E+00
 -1      5088 2.67008E+01-6.95580E+01 1.03909E+01
 -1      5089 2.67008E+01-6.95580E+01 1.21227E+01
 -1      5090 2.67008E+01-6.95580E+01 1.38545E+01
 -1      5091 2.67008E+01-6.95580E+01 1.55864E+01
 -1      5092 2.67008E+01-6.95580E+01 1.73182E+01
 -1      5093 2.30238E+01-7.08601E+01 1.73182E+00
 -1      5094 2.30238E+01-7.08601E+01 3.46364E+00
 -1      5095 2.30238E+01-7.08601E+01 5.19545E+00
 -1      5096 2.30238E+01-7.08601E+01 6.92727E+00
 -1      5097 2.30238E+01-7.08601E+01 8.65909E+00
 -1      5098 2.30238E+01-7.08601E+01 1.03909E+01
 -1      5099 2.30238E+01-7.08601E+01 1.21227E+01
 -1      5100 2.30238E+01-7.08601E+01 1.38545E+01
 -1      5101 2.30238E+01-7.08601E+01 1.55864E+01
 -1      5102 2.30238E+01-7.08601E+01 1.73182E+01
 -1      5103 1.92837E+01-7.19679E+01 1.73182E+00
 -1      5104 1.92837E+01-7.19679E+01 3.46364E+00
 -1      5105 1.92837E+01-7.19679E+01 5.19545E+00
 -1      5106 1.92837E+01-7.19679E+01 6.92727E+00
 -1      5107 1.92837E+01-7.19679E+01 8.65909E+00
 -1      5108 1.92837E+01-7.19679E+01 1.03909E+01
 -1      5109 1.92837E+01-7.19679E+01 1.21227E+01
 -1      5110 1.92837E+01-7.19679E+01 1.38545E+01
 -1      5111 1.92837E+01-7.19679E+01 1.55864E+01
 -1      5112 1.92837E+01-7.19679E+01 1.73182E+01
 -1      5113 1.54908E+01-7.28785E+01 1.73182E+00
 -1      5114 1.54908E+01-7.28785E+01 3.46364E+00
 -1      5115 1.54908E+01-7.28785E+01 5.19545E+00
 -1      5116 1.54908E+01-7.28785E+01 6.92727E+00
 -1      5117 1.54908E+01-7.28785E+01 8.65909E+00
 -1      5118 1.54908E+01-7.28785E+01 1.03909E+01
 -1      5119 1.54908E+01-7.28785E+01 1.21227E+01
 -1      5120 1.54908E+01-7.28785E+01 1.38545E+01
 -1      5121 1.54908E+01-7.28785E+01 1.55864E+01
 -1      5122 1.54908E+01-7.28785E+01 1.73182E+01
 -1      5123 1.16554E+01-7.35894E+01 1.73182E+00
 -1      5124 1.16554E+01-7.35894E+01 3.46364E+00
 -1      5125 1.16554E+01-7.35894E+01 5.19545E+00
 -1      5126 1.16554E+01-7.35894E+01 6.92727E+00
 -1      5127 1.16554E+01-7.35894E+01 8.65909E+00
 -1      5128 1.16554E+01-7.35894E+01 1.03909E+01
 -1      5129 1.16554E+01-7.35894E+01 1.21227E+01
 -1      5130 1.16554E+01-7.35894E+01 1.38545E+01
 -1      5131 1.16554E+01-7.35894E+01 1.55864E+01
 -1      5132 1.16554E+01-7.35894E+01 1.73182E+01
 -1      5133 7.78807E+00-7.40985E+01 1.73182E+00
 -1      5134 7.78807E+00-7.40985E+01 3.46364E+00
 -1      5135 7.78807E+00-7.40985E+01 5.19545E+00
 -1      5136 7.78807E+00-7.40985E+01 6.92727E+00
 -1      5137 7.78807E+00-7.40985E+01 8.65909E+00
 -1      5138 7.78807E+00-7.40985E+01 1.03909E+01
 -1      5139 7.78807E+00-7.40985E+01 1.21227E+01
 -1      5140 7.78807E+00-7.40985E+01 1.38545E+01
 -1      5141 7.78807E+00-7.40985E+01 1.55864E+01
 -1      5142 7.78807E+00-7.40985E+01 1.73182E+01
 -1      5143 3.89938E+00-7.44046E+01 1.73182E+00
 -1      5144 3.89938E+00-7.44046E+01 3.46364E+00
 -1      5145 3.89938E+00-7.44046E+01 5.19545E+00
 -1      5146 3.89938E+00-7.44046E+01 6.92727E+00
 -1      5147 3.89938E+00-7.44046E+01 8.65909E+00
 -1      5148 3.89938E+00-7.44046E+01 1.03909E+01
 -1      5149 3.89938E+00-7.44046E+01 1.21227E+01
 -1      5150 3.89938E+00-7.44046E+01 1.38545E+01
 -1      5151 3.89938E+00-7.44046E+01 1.55864E+01
 -1      5152 3.89938E+00-7.44046E+01 1.73182E+01
 -1      5153 7.77866E+01-4.07662E+00 1.73182E+00
 -1      5154 7.77866E+01-4.07662E+00 3.46364E+00
 -1      5155 7.77866E+01-4.07662E+00 5.19545E+00
 -1      5156 7.77866E+01-4.07662E+00 6.92727E+00
 -1      5157 7.77866E+01-4.07662E+00 8.65909E+00
 -1      5158 7.77866E+01-4.07662E+00 1.03909E+01
 -1      5159 7.77866E+01-4.07662E+00 1.21227E+01
 -1      5160 7.77866E+01-4.07662E+00 1.38545E+01
 -1      5161 7.77866E+01-4.07662E+00 1.55864E+01
 -1      5162 7.77866E+01-4.07662E+00 1.73182E+01
 -1      5163 7.74666E+01-8.14207E+00 1.73182E+00
 -1      5164 7.74666E+01-8.14207E+00 3.46364E+00
 -1      5165 7.74666E+01-8.14207E+00 5.19545E+00
 -1      5166 7.74666E+01-8.14207E+00 6.92727E+00
 -1      5167 7.74666E+01-8.14207E+00 8.65909E+00
 -1      5168 7.74666E+01-8.14207E+00 1.03909E+01
 -1      5169 7.74666E+01-8.14207E+00 1.21227E+01
 -1      5170 7.74666E+01-8.14207E+00 1.38545E+01
 -1      5171 7.74666E+01-8.14207E+00 1.55864E+01
 -1      5172 7.74666E+01-8.14207E+00 1.73182E+01
 -1      5173 7.69343E+01-1.21852E+01 1.73182E+00
 -1      5174 7.69343E+01-1.21852E+01 3.46364E+00
 -1      5175 7.69343E+01-1.21852E+01 5.19545E+00
 -1      5176 7.69343E+01-1.21852E+01 6.92727E+00
 -1      5177 7.69343E+01-1.21852E+01 8.65909E+00
 -1      5178 7.69343E+01-1.21852E+01 1.03909E+01
 -1      5179 7.69343E+01-1.21852E+01 1.21227E+01
 -1      5180 7.69343E+01-1.21852E+01 1.38545E+01
 -1      5181 7.69343E+01-1.21852E+01 1.55864E+01
 -1      5182 7.69343E+01-1.21852E+01 1.73182E+01
 -1      5183 7.61912E+01-1.61949E+01 1.73182E+00
 -1      5184 7.61912E+01-1.61949E+01 3.46364E+00
 -1      5185 7.61912E+01-1.61949E+01 5.19545E+00
 -1      5186 7.61912E+01-1.61949E+01 6.92727E+00
 -1      5187 7.61912E+01-1.61949E+01 8.65909E+00
 -1      5188 7.61912E+01-1.61949E+01 1.03909E+01
 -1      5189 7.61912E+01-1.61949E+01 1.21227E+01
 -1      5190 7.61912E+01-1.61949E+01 1.38545E+01
 -1      5191 7.61912E+01-1.61949E+01 1.55864E+01
 -1      5192 7.61912E+01-1.61949E+01 1.73182E+01
 -1      5193 7.52392E+01-2.01603E+01 1.73182E+00
 -1      5194 7.52392E+01-2.01603E+01 3.46364E+00
 -1      5195 7.52392E+01-2.01603E+01 5.19545E+00
 -1      5196 7.52392E+01-2.01603E+01 6.92727E+00
 -1      5197 7.52392E+01-2.01603E+01 8.65909E+00
 -1      5198 7.52392E+01-2.01603E+01 1.03909E+01
 -1      5199 7.52392E+01-2.01603E+01 1.21227E+01
 -1      5200 7.52392E+01-2.01603E+01 1.38545E+01
 -1      5201 7.52392E+01-2.01603E+01 1.55864E+01
 -1      5202 7.52392E+01-2.01603E+01 1.73182E+01
 -1      5203 7.40810E+01-2.40704E+01 1.73182E+00
 -1      5204 7.40810E+01-2.40704E+01 3.46364E+00
 -1      5205 7.40810E+01-2.40704E+01 5.19545E+00
 -1      5206 7.40810E+01-2.40704E+01 6.92727E+00
 -1      5207 7.40810E+01-2.40704E+01 8.65909E+00
 -1      5208 7.40810E+01-2.40704E+01 1.03909E+01
 -1      5209 7.40810E+01-2.40704E+01 1.21227E+01
 -1      5210 7.40810E+01-2.40704E+01 1.38545E+01
 -1      5211 7.40810E+01-2.40704E+01 1.55864E+01
 -1      5212 7.40810E+01-2.40704E+01 1.73182E+01
 -1      5213 7.27197E+01-2.79145E+01 1.73182E+00
 -1      5214 7.27197E+01-2.79145E+01 3.46364E+00
 -1      5215 7.27197E+01-2.79145E+01 5.19545E+00
 -1      5216 7.27197E+01-2.79145E+01 6.92727E+00
 -1      5217 7.27197E+01-2.79145E+01 8.65909E+00
 -1      5218 7.27197E+01-2.79145E+01 1.03909E+01
 -1      5219 7.27197E+01-2.79145E+01 1.21227E+01
 -1      5220 7.27197E+01-2.79145E+01 1.38545E+01
 -1      5221 7.27197E+01-2.79145E+01 1.55864E+01
 -1      5222 7.27197E+01-2.79145E+01 1.73182E+01
 -1      5223 7.11591E+01-3.16821E+01 1.73182E+00
 -1      5224 7.11591E+01-3.16821E+01 3.46364E+00
 -1      5225 7.11591E+01-3.16821E+01 5.19545E+00
 -1      5226 7.11591E+01-3.16821E+01 6.92727E+00
 -1      5227 7.11591E+01-3.16821E+01 8.65909E+00
 -1      5228 7.11591E+01-3.16821E+01 1.03909E+01
 -1      5229 7.11591E+01-3.16821E+01 1.21227E+01
 -1      5230 7.11591E+01-3.16821E+01 1.38545E+01
 -1      5231 7.11591E+01-3.16821E+01 1.55864E+01
 -1      5232 7.11591E+01-3.16821E+01 1.73182E+01
 -1      5233 6.94035E+01-3.53628E+01 1.73182E+00
 -1      5234 6.94035E+01-3.53628E+01 3.46364E+00
 -1      5235 6.94035E+01-3.53628E+01 5.19545E+00
 -1      5236 6.94035E+01-3.53628E+01 6.92727E+00
 -1      5237 6.94035E+01-3.53628E+01 8.65909E+00
 -1      5238 6.94035E+01-3.53628E+01 1.03909E+01
 -1      5239 6.94035E+01-3.53628E+01 1.21227E+01
 -1      5240 6.94035E+01-3.53628E+01 1.38545E+01
 -1      5241 6.94035E+01-3.53628E+01 1.55864E+01
 -1      5242 6.94035E+01-3.53628E+01 1.73182E+01
 -1      5243 6.74576E+01-3.89467E+01 1.73182E+00
 -1      5244 6.74576E+01-3.89467E+01 3.46364E+00
 -1      5245 6.74576E+01-3.89467E+01 5.19545E+00
 -1      5246 6.74576E+01-3.89467E+01 6.92727E+00
 -1      5247 6.74576E+01-3.89467E+01 8.65909E+00
 -1      5248 6.74576E+01-3.89467E+01 1.03909E+01
 -1      5249 6.74576E+01-3.89467E+01 1.21227E+01
 -1      5250 6.74576E+01-3.89467E+01 1.38545E+01
 -1      5251 6.74576E+01-3.89467E+01 1.55864E+01
 -1      5252 6.74576E+01-3.89467E+01 1.73182E+01
 -1      5253 6.53268E+01-4.24237E+01 1.73182E+00
 -1      5254 6.53268E+01-4.24237E+01 3.46364E+00
 -1      5255 6.53268E+01-4.24237E+01 5.19545E+00
 -1      5256 6.53268E+01-4.24237E+01 6.92727E+00
 -1      5257 6.53268E+01-4.24237E+01 8.65909E+00
 -1      5258 6.53268E+01-4.24237E+01 1.03909E+01
 -1      5259 6.53268E+01-4.24237E+01 1.21227E+01
 -1      5260 6.53268E+01-4.24237E+01 1.38545E+01
 -1      5261 6.53268E+01-4.24237E+01 1.55864E+01
 -1      5262 6.53268E+01-4.24237E+01 1.73182E+01
 -1      5263 6.30170E+01-4.57846E+01 1.73182E+00
 -1      5264 6.30170E+01-4.57846E+01 3.46364E+00
 -1      5265 6.30170E+01-4.57846E+01 5.19545E+00
 -1      5266 6.30170E+01-4.57846E+01 6.92727E+00
 -1      5267 6.30170E+01-4.57846E+01 8.65909E+00
 -1      5268 6.30170E+01-4.57846E+01 1.03909E+01
 -1      5269 6.30170E+01-4.57846E+01 1.21227E+01
 -1      5270 6.30170E+01-4.57846E+01 1.38545E+01
 -1      5271 6.30170E+01-4.57846E+01 1.55864E+01
 -1      5272 6.30170E+01-4.57846E+01 1.73182E+01
 -1      5273 6.05345E+01-4.90199E+01 1.73182E+00
 -1      5274 6.05345E+01-4.90199E+01 3.46364E+00
 -1      5275 6.05345E+01-4.90199E+01 5.19545E+00
 -1      5276 6.05345E+01-4.90199E+01 6.92727E+00
 -1      5277 6.05345E+01-4.90199E+01 8.65909E+00
 -1      5278 6.05345E+01-4.90199E+01 1.03909E+01
 -1      5279 6.05345E+01-4.90199E+01 1.21227E+01
 -1      5280 6.05345E+01-4.90199E+01 1.38545E+01
 -1      5281 6.05345E+01-4.90199E+01 1.55864E+01
 -1      5282 6.05345E+01-4.90199E+01 1.73182E+01
 -1      5283 5.78860E+01-5.21208E+01 1.73182E+00
 -1      5284 5.78860E+01-5.21208E+01 3.46364E+00
 -1      5285 5.78860E+01-5.21208E+01 5.19545E+00
 -1      5286 5.78860E+01-5.21208E+01 6.92727E+00
 -1      5287 5.78860E+01-5.21208E+01 8.65909E+00
 -1      5288 5.78860E+01-5.21208E+01 1.03909E+01
 -1      5289 5.78860E+01-5.21208E+01 1.21227E+01
 -1      5290 5.78860E+01-5.21208E+01 1.38545E+01
 -1      5291 5.78860E+01-5.21208E+01 1.55864E+01
 -1      5292 5.78860E+01-5.21208E+01 1.73182E+01
 -1      5293 5.50789E+01-5.50789E+01 1.73182E+00
 -1      5294 5.50789E+01-5.50789E+01 3.46364E+00
 -1      5295 5.50789E+01-5.50789E+01 5.19545E+00
 -1      5296 5.50789E+01-5.50789E+01 6.92727E+00
 -1      5297 5.50789E+01-5.50789E+01 8.65909E+00
 -1      5298 5.50789E+01-5.50789E+01 1.03909E+01
 -1      5299 5.50789E+01-5.50789E+01 1.21227E+01
 -1      5300 5.50789E+01-5.50789E+01 1.38545E+01
 -1      5301 5.50789E+01-5.50789E+01 1.55864E+01
 -1      5302 5.50789E+01-5.50789E+01 1.73182E+01
 -1      5303 5.21208E+01-5.78860E+01 1.73182E+00
 -1      5304 5.21208E+01-5.78860E+01 3.46364E+00
 -1      5305 5.21208E+01-5.78860E+01 5.19545E+00
 -1      5306 5.21208E+01-5.78860E+01 6.92727E+00
 -1      5307 5.21208E+01-5.78860E+01 8.65909E+00
 -1      5308 5.21208E+01-5.78860E+01 1.03909E+01
 -1      5309 5.21208E+01-5.78860E+01 1.21227E+01
 -1      5310 5.21208E+01-5.78860E+01 1.38545E+01
 -1      5311 5.21208E+01-5.78860E+01 1.55864E+01
 -1      5312 5.21208E+01-5.78860E+01 1.73182E+01
 -1      5313 4.90199E+01-6.05345E+01 1.73182E+00
 -1      5314 4.90199E+01-6.05345E+01 3.46364E+00
 -1      5315 4.90199E+01-6.05345E+01 5.19545E+00
 -1      5316 4.90199E+01-6.05345E+01 6.92727E+00
 -1      5317 4.90199E+01-6.05345E+01 8.65909E+00
 -1      5318 4.90199E+01-6.05345E+01 1.03909E+01
 -1      5319 4.90199E+01-6.05345E+01 1.21227E+01
 -1      5320 4.90199E+01-6.05345E+01 1.38545E+01
 -1      5321 4.90199E+01-6.05345E+01 1.55864E+01
 -1      5322 4.90199E+01-6.05345E+01 1.73182E+01
 -1      5323 4.57846E+01-6.30170E+01 1.73182E+00
 -1      5324 4.57846E+01-6.30170E+01 3.46364E+00
 -1      5325 4.57846E+01-6.30170E+01 5.19545E+00
 -1      5326 4.57846E+01-6.30170E+01 6.92727E+00
 -1      5327 4.57846E+01-6.30170E+01 8.65909E+00
 -1      5328 4.57846E+01-6.30170E+01 1.03909E+01
 -1      5329 4.57846E+01-6.30170E+01 1.21227E+01
 -1      5330 4.57846E+01-6.30170E+01 1.38545E+01
 -1      5331 4.57846E+01-6.30170E+01 1.55864E+01
 -1      5332 4.57846E+01-6.30170E+01 1.73182E+01
 -1      5333 4.24237E+01-6.53268E+01 1.73182E+00
 -1      5334 4.24237E+01-6.53268E+01 3.46364E+00
 -1      5335 4.24237E+01-6.53268E+01 5.19545E+00
 -1      5336 4.24237E+01-6.53268E+01 6.92727E+00
 -1      5337 4.24237E+01-6.53268E+01 8.65909E+00
 -1      5338 4.24237E+01-6.53268E+01 1.03909E+01
 -1      5339 4.24237E+01-6.53268E+01 1.21227E+01
 -1      5340 4.24237E+01-6.53268E+01 1.38545E+01
 -1      5341 4.24237E+01-6.53268E+01 1.55864E+01
 -1      5342 4.24237E+01-6.53268E+01 1.73182E+01
 -1      5343 3.89467E+01-6.74576E+01 1.73182E+00
 -1      5344 3.89467E+01-6.74576E+01 3.46364E+00
 -1      5345 3.89467E+01-6.74576E+01 5.19545E+00
 -1      5346 3.89467E+01-6.74576E+01 6.92727E+00
 -1      5347 3.89467E+01-6.74576E+01 8.65909E+00
 -1      5348 3.89467E+01-6.74576E+01 1.03909E+01
 -1      5349 3.89467E+01-6.74576E+01 1.21227E+01
 -1      5350 3.89467E+01-6.74576E+01 1.38545E+01
 -1      5351 3.89467E+01-6.74576E+01 1.55864E+01
 -1      5352 3.89467E+01-6.74576E+01 1.73182E+01
 -1      5353 3.53628E+01-6.94035E+01 1.73182E+00
 -1      5354 3.53628E+01-6.94035E+01 3.46364E+00
 -1      5355 3.53628E+01-6.94035E+01 5.19545E+00
 -1      5356 3.53628E+01-6.94035E+01 6.92727E+00
 -1      5357 3.53628E+01-6.94035E+01 8.65909E+00
 -1      5358 3.53628E+01-6.94035E+01 1.03909E+01
 -1      5359 3.53628E+01-6.94035E+01 1.21227E+01
 -1      5360 3.53628E+01-6.94035E+01 1.38545E+01
 -1      5361 3.53628E+01-6.94035E+01 1.55864E+01
 -1      5362 3.53628E+01-6.94035E+01 1.73182E+01
 -1      5363 3.16821E+01-7.11591E+01 1.73182E+00
 -1      5364 3.16821E+01-7.11591E+01 3.46364E+00
 -1      5365 3.16821E+01-7.11591E+01 5.19545E+00
 -1      5366 3.16821E+01-7.11591E+01 6.92727E+00
 -1      5367 3.16821E+01-7.11591E+01 8.65909E+00
 -1      5368 3.16821E+01-7.11591E+01 1.03909E+01
 -1      5369 3.16821E+01-7.11591E+01 1.21227E+01
 -1      5370 3.16821E+01-7.11591E+01 1.38545E+01
 -1      5371 3.16821E+01-7.11591E+01 1.55864E+01
 -1      5372 3.16821E+01-7.11591E+01 1.73182E+01
 -1      5373 2.79145E+01-7.27197E+01 1.73182E+00
 -1      5374 2.79145E+01-7.27197E+01 3.46364E+00
 -1      5375 2.79145E+01-7.27197E+01 5.19545E+00
 -1      5376 2.79145E+01-7.27197E+01 6.92727E+00
 -1      5377 2.79145E+01-7.27197E+01 8.65909E+00
 -1      5378 2.79145E+01-7.27197E+01 1.03909E+01
 -1      5379 2.79145E+01-7.27197E+01 1.21227E+01
 -1      5380 2.79145E+01-7.27197E+01 1.38545E+01
 -1      5381 2.79145E+01-7.27197E+01 1.55864E+01
 -1      5382 2.79145E+01-7.27197E+01 1.73182E+01
 -1      5383 2.40704E+01-7.40810E+01 1.73182E+00
 -1      5384 2.40704E+01-7.40810E+01 3.46364E+00
 -1      5385 2.40704E+01-7.40810E+01 5.19545E+00
 -1      5386 2.40704E+01-7.40810E+01 6.92727E+00
 -1      5387 2.40704E+01-7.40810E+01 8.65909E+00
 -1      5388 2.40704E+01-7.40810E+01 1.03909E+01
 -1      5389 2.40704E+01-7.40810E+01 1.21227E+01
 -1      5390 2.40704E+01-7.40810E+01 1.38545E+01
 -1      5391 2.40704E+01-7.40810E+01 1.55864E+01
 -1      5392 2.40704E+01-7.40810E+01 1.73182E+01
 -1      5393 2.01603E+01-7.52392E+01 1.73182E+00
 -1      5394 2.01603E+01-7.52392E+01 3.46364E+00
 -1      5395 2.01603E+01-7.52392E+01 5.19545E+00
 -1      5396 2.01603E+01-7.52392E+01 6.92727E+00
 -1      5397 2.01603E+01-7.52392E+01 8.65909E+00
 -1      5398 2.01603E+01-7.52392E+01 1.03909E+01
 -1      5399 2.01603E+01-7.52392E+01 1.21227E+01
 -1      5400 2.01603E+01-7.52392E+01 1.38545E+01
 -1      5401 2.01603E+01-7.52392E+01 1.55864E+01
 -1      5402 2.01603E+01-7.52392E+01 1.73182E+01
 -1      5403 1.61949E+01-7.61912E+01 1.73182E+00
 -1      5404 1.61949E+01-7.61912E+01 3.46364E+00
 -1      5405 1.61949E+01-7.61912E+01 5.19545E+00
 -1      5406 1.61949E+01-7.61912E+01 6.92727E+00
 -1      5407 1.61949E+01-7.61912E+01 8.65909E+00
 -1      5408 1.61949E+01-7.61912E+01 1.03909E+01
 -1      5409 1.61949E+01-7.61912E+01 1.21227E+01
 -1      5410 1.61949E+01-7.61912E+01 1.38545E+01
 -1      5411 1.61949E+01-7.61912E+01 1.55864E+01
 -1      5412 1.61949E+01-7.61912E+01 1.73182E+01
 -1      5413 1.21852E+01-7.69343E+01 1.73182E+00
 -1      5414 1.21852E+01-7.69343E+01 3.46364E+00
 -1      5415 1.21852E+01-7.69343E+01 5.19545E+00
 -1      5416 1.21852E+01-7.69343E+01 6.92727E+00
 -1      5417 1.21852E+01-7.69343E+01 8.65909E+00
 -1      5418 1.21852E+01-7.69343E+01 1.03909E+01
 -1      5419 1.21852E+01-7.69343E+01 1.21227E+01
 -1      5420 1.21852E+01-7.69343E+01 1.38545E+01
 -1      5421 1.21852E+01-7.69343E+01 1.55864E+01
 -1      5422 1.21852E+01-7.69343E+01 1.73182E+01
 -1      5423 8.14207E+00-7.74666E+01 1.73182E+00
 -1      5424 8.14207E+00-7.74666E+01 3.46364E+00
 -1      5425 8.14207E+00-7.74666E+01 5.19545E+00
 -1      5426 8.14207E+00-7.74666E+01 6.92727E+00
 -1      5427 8.14207E+00-7.74666E+01 8.65909E+00
 -1      5428 8.14207E+00-7.74666E+01 1.03909E+01
 -1      5429 8.14207E+00-7.74666E+01 1.21227E+01
 -1      5430 8.14207E+00-7.74666E+01 1.38545E+01
 -1      5431 8.14207E+00-7.74666E+01 1.55864E+01
 -1      5432 8.14207E+00-7.74666E+01 1.73182E+01
 -1      5433 4.07662E+00-7.77866E+01 1.73182E+00
 -1      5434 4.07662E+00-7.77866E+01 3.46364E+00
 -1      5435 4.07662E+00-7.77866E+01 5.19545E+00
 -1      5436 4.07662E+00-7.77866E+01 6.92727E+00
 -1      5437 4.07662E+00-7.77866E+01 8.65909E+00
 -1      5438 4.07662E+00-7.77866E+01 1.03909E+01
 -1      5439 4.07662E+00-7.77866E+01 1.21227E+01
 -1      5440 4.07662E+00-7.77866E+01 1.38545E+01
 -1      5441 4.07662E+00-7.77866E+01 1.55864E+01
 -1      5442 4.07662E+00-7.77866E+01 1.73182E+01
 -1      5443 8.11686E+01-4.25387E+00 1.73182E+00
 -1      5444 8.11686E+01-4.25387E+00 3.46364E+00
 -1      5445 8.11686E+01-4.25387E+00 5.19545E+00
 -1      5446 8.11686E+01-4.25387E+00 6.92727E+00
 -1      5447 8.11686E+01-4.25387E+00 8.65909E+00
 -1      5448 8.11686E+01-4.25387E+00 1.03909E+01
 -1      5449 8.11686E+01-4.25387E+00 1.21227E+01
 -1      5450 8.11686E+01-4.25387E+00 1.38545E+01
 -1      5451 8.11686E+01-4.25387E+00 1.55864E+01
 -1      5452 8.11686E+01-4.25387E+00 1.73182E+01
 -1      5453 8.08347E+01-8.49607E+00 1.73182E+00
 -1      5454 8.08347E+01-8.49607E+00 3.46364E+00
 -1      5455 8.08347E+01-8.49607E+00 5.19545E+00
 -1      5456 8.08347E+01-8.49607E+00 6.92727E+00
 -1      5457 8.08347E+01-8.49607E+00 8.65909E+00
 -1      5458 8.08347E+01-8.49607E+00 1.03909E+01
 -1      5459 8.08347E+01-8.49607E+00 1.21227E+01
 -1      5460 8.08347E+01-8.49607E+00 1.38545E+01
 -1      5461 8.08347E+01-8.49607E+00 1.55864E+01
 -1      5462 8.08347E+01-8.49607E+00 1.73182E+01
 -1      5463 8.02793E+01-1.27150E+01 1.73182E+00
 -1      5464 8.02793E+01-1.27150E+01 3.46364E+00
 -1      5465 8.02793E+01-1.27150E+01 5.19545E+00
 -1      5466 8.02793E+01-1.27150E+01 6.92727E+00
 -1      5467 8.02793E+01-1.27150E+01 8.65909E+00
 -1      5468 8.02793E+01-1.27150E+01 1.03909E+01
 -1      5469 8.02793E+01-1.27150E+01 1.21227E+01
 -1      5470 8.02793E+01-1.27150E+01 1.38545E+01
 -1      5471 8.02793E+01-1.27150E+01 1.55864E+01
 -1      5472 8.02793E+01-1.27150E+01 1.73182E+01
 -1      5473 7.95038E+01-1.68991E+01 1.73182E+00
 -1      5474 7.95038E+01-1.68991E+01 3.46364E+00
 -1      5475 7.95038E+01-1.68991E+01 5.19545E+00
 -1      5476 7.95038E+01-1.68991E+01 6.92727E+00
 -1      5477 7.95038E+01-1.68991E+01 8.65909E+00
 -1      5478 7.95038E+01-1.68991E+01 1.03909E+01
 -1      5479 7.95038E+01-1.68991E+01 1.21227E+01
 -1      5480 7.95038E+01-1.68991E+01 1.38545E+01
 -1      5481 7.95038E+01-1.68991E+01 1.55864E+01
 -1      5482 7.95038E+01-1.68991E+01 1.73182E+01
 -1      5483 7.85105E+01-2.10368E+01 1.73182E+00
 -1      5484 7.85105E+01-2.10368E+01 3.46364E+00
 -1      5485 7.85105E+01-2.10368E+01 5.19545E+00
 -1      5486 7.85105E+01-2.10368E+01 6.92727E+00
 -1      5487 7.85105E+01-2.10368E+01 8.65909E+00
 -1      5488 7.85105E+01-2.10368E+01 1.03909E+01
 -1      5489 7.85105E+01-2.10368E+01 1.21227E+01
 -1      5490 7.85105E+01-2.10368E+01 1.38545E+01
 -1      5491 7.85105E+01-2.10368E+01 1.55864E+01
 -1      5492 7.85105E+01-2.10368E+01 1.73182E+01
 -1      5493 7.73019E+01-2.51169E+01 1.73182E+00
 -1      5494 7.73019E+01-2.51169E+01 3.46364E+00
 -1      5495 7.73019E+01-2.51169E+01 5.19545E+00
 -1      5496 7.73019E+01-2.51169E+01 6.92727E+00
 -1      5497 7.73019E+01-2.51169E+01 8.65909E+00
 -1      5498 7.73019E+01-2.51169E+01 1.03909E+01
 -1      5499 7.73019E+01-2.51169E+01 1.21227E+01
 -1      5500 7.73019E+01-2.51169E+01 1.38545E+01
 -1      5501 7.73019E+01-2.51169E+01 1.55864E+01
 -1      5502 7.73019E+01-2.51169E+01 1.73182E+01
 -1      5503 7.58814E+01-2.91281E+01 1.73182E+00
 -1      5504 7.58814E+01-2.91281E+01 3.46364E+00
 -1      5505 7.58814E+01-2.91281E+01 5.19545E+00
 -1      5506 7.58814E+01-2.91281E+01 6.92727E+00
 -1      5507 7.58814E+01-2.91281E+01 8.65909E+00
 -1      5508 7.58814E+01-2.91281E+01 1.03909E+01
 -1      5509 7.58814E+01-2.91281E+01 1.21227E+01
 -1      5510 7.58814E+01-2.91281E+01 1.38545E+01
 -1      5511 7.58814E+01-2.91281E+01 1.55864E+01
 -1      5512 7.58814E+01-2.91281E+01 1.73182E+01
 -1      5513 7.42530E+01-3.30596E+01 1.73182E+00
 -1      5514 7.42530E+01-3.30596E+01 3.46364E+00
 -1      5515 7.42530E+01-3.30596E+01 5.19545E+00
 -1      5516 7.42530E+01-3.30596E+01 6.92727E+00
 -1      5517 7.42530E+01-3.30596E+01 8.65909E+00
 -1      5518 7.42530E+01-3.30596E+01 1.03909E+01
 -1      5519 7.42530E+01-3.30596E+01 1.21227E+01
 -1      5520 7.42530E+01-3.30596E+01 1.38545E+01
 -1      5521 7.42530E+01-3.30596E+01 1.55864E+01
 -1      5522 7.42530E+01-3.30596E+01 1.73182E+01
 -1      5523 7.24210E+01-3.69003E+01 1.73182E+00
 -1      5524 7.24210E+01-3.69003E+01 3.46364E+00
 -1      5525 7.24210E+01-3.69003E+01 5.19545E+00
 -1      5526 7.24210E+01-3.69003E+01 6.92727E+00
 -1      5527 7.24210E+01-3.69003E+01 8.65909E+00
 -1      5528 7.24210E+01-3.69003E+01 1.03909E+01
 -1      5529 7.24210E+01-3.69003E+01 1.21227E+01
 -1      5530 7.24210E+01-3.69003E+01 1.38545E+01
 -1      5531 7.24210E+01-3.69003E+01 1.55864E+01
 -1      5532 7.24210E+01-3.69003E+01 1.73182E+01
 -1      5533 7.03905E+01-4.06400E+01 1.73182E+00
 -1      5534 7.03905E+01-4.06400E+01 3.46364E+00
 -1      5535 7.03905E+01-4.06400E+01 5.19545E+00
 -1      5536 7.03905E+01-4.06400E+01 6.92727E+00
 -1      5537 7.03905E+01-4.06400E+01 8.65909E+00
 -1      5538 7.03905E+01-4.06400E+01 1.03909E+01
 -1      5539 7.03905E+01-4.06400E+01 1.21227E+01
 -1      5540 7.03905E+01-4.06400E+01 1.38545E+01
 -1      5541 7.03905E+01-4.06400E+01 1.55864E+01
 -1      5542 7.03905E+01-4.06400E+01 1.73182E+01
 -1      5543 6.81671E+01-4.42683E+01 1.73182E+00
 -1      5544 6.81671E+01-4.42683E+01 3.46364E+00
 -1      5545 6.81671E+01-4.42683E+01 5.19545E+00
 -1      5546 6.81671E+01-4.42683E+01 6.92727E+00
 -1      5547 6.81671E+01-4.42683E+01 8.65909E+00
 -1      5548 6.81671E+01-4.42683E+01 1.03909E+01
 -1      5549 6.81671E+01-4.42683E+01 1.21227E+01
 -1      5550 6.81671E+01-4.42683E+01 1.38545E+01
 -1      5551 6.81671E+01-4.42683E+01 1.55864E+01
 -1      5552 6.81671E+01-4.42683E+01 1.73182E+01
 -1      5553 6.57569E+01-4.77752E+01 1.73182E+00
 -1      5554 6.57569E+01-4.77752E+01 3.46364E+00
 -1      5555 6.57569E+01-4.77752E+01 5.19545E+00
 -1      5556 6.57569E+01-4.77752E+01 6.92727E+00
 -1      5557 6.57569E+01-4.77752E+01 8.65909E+00
 -1      5558 6.57569E+01-4.77752E+01 1.03909E+01
 -1      5559 6.57569E+01-4.77752E+01 1.21227E+01
 -1      5560 6.57569E+01-4.77752E+01 1.38545E+01
 -1      5561 6.57569E+01-4.77752E+01 1.55864E+01
 -1      5562 6.57569E+01-4.77752E+01 1.73182E+01
 -1      5563 6.31664E+01-5.11512E+01 1.73182E+00
 -1      5564 6.31664E+01-5.11512E+01 3.46364E+00
 -1      5565 6.31664E+01-5.11512E+01 5.19545E+00
 -1      5566 6.31664E+01-5.11512E+01 6.92727E+00
 -1      5567 6.31664E+01-5.11512E+01 8.65909E+00
 -1      5568 6.31664E+01-5.11512E+01 1.03909E+01
 -1      5569 6.31664E+01-5.11512E+01 1.21227E+01
 -1      5570 6.31664E+01-5.11512E+01 1.38545E+01
 -1      5571 6.31664E+01-5.11512E+01 1.55864E+01
 -1      5572 6.31664E+01-5.11512E+01 1.73182E+01
 -1      5573 6.04028E+01-5.43869E+01 1.73182E+00
 -1      5574 6.04028E+01-5.43869E+01 3.46364E+00
 -1      5575 6.04028E+01-5.43869E+01 5.19545E+00
 -1      5576 6.04028E+01-5.43869E+01 6.92727E+00
 -1      5577 6.04028E+01-5.43869E+01 8.65909E+00
 -1      5578 6.04028E+01-5.43869E+01 1.03909E+01
 -1      5579 6.04028E+01-5.43869E+01 1.21227E+01
 -1      5580 6.04028E+01-5.43869E+01 1.38545E+01
 -1      5581 6.04028E+01-5.43869E+01 1.55864E+01
 -1      5582 6.04028E+01-5.43869E+01 1.73182E+01
 -1      5583 5.74736E+01-5.74736E+01 1.73182E+00
 -1      5584 5.74736E+01-5.74736E+01 3.46364E+00
 -1      5585 5.74736E+01-5.74736E+01 5.19545E+00
 -1      5586 5.74736E+01-5.74736E+01 6.92727E+00
 -1      5587 5.74736E+01-5.74736E+01 8.65909E+00
 -1      5588 5.74736E+01-5.74736E+01 1.03909E+01
 -1      5589 5.74736E+01-5.74736E+01 1.21227E+01
 -1      5590 5.74736E+01-5.74736E+01 1.38545E+01
 -1      5591 5.74736E+01-5.74736E+01 1.55864E+01
 -1      5592 5.74736E+01-5.74736E+01 1.73182E+01
 -1      5593 5.43869E+01-6.04028E+01 1.73182E+00
 -1      5594 5.43869E+01-6.04028E+01 3.46364E+00
 -1      5595 5.43869E+01-6.04028E+01 5.19545E+00
 -1      5596 5.43869E+01-6.04028E+01 6.92727E+00
 -1      5597 5.43869E+01-6.04028E+01 8.65909E+00
 -1      5598 5.43869E+01-6.04028E+01 1.03909E+01
 -1      5599 5.43869E+01-6.04028E+01 1.21227E+01
 -1      5600 5.43869E+01-6.04028E+01 1.38545E+01
 -1      5601 5.43869E+01-6.04028E+01 1.55864E+01
 -1      5602 5.43869E+01-6.04028E+01 1.73182E+01
 -1      5603 5.11512E+01-6.31664E+01 1.73182E+00
 -1      5604 5.11512E+01-6.31664E+01 3.46364E+00
 -1      5605 5.11512E+01-6.31664E+01 5.19545E+00
 -1      5606 5.11512E+01-6.31664E+01 6.92727E+00
 -1      5607 5.11512E+01-6.31664E+01 8.65909E+00
 -1      5608 5.11512E+01-6.31664E+01 1.03909E+01
 -1      5609 5.11512E+01-6.31664E+01 1.21227E+01
 -1      5610 5.11512E+01-6.31664E+01 1.38545E+01
 -1      5611 5.11512E+01-6.31664E+01 1.55864E+01
 -1      5612 5.11512E+01-6.31664E+01 1.73182E+01
 -1      5613 4.77752E+01-6.57569E+01 1.73182E+00
 -1      5614 4.77752E+01-6.57569E+01 3.46364E+00
 -1      5615 4.77752E+01-6.57569E+01 5.19545E+00
 -1      5616 4.77752E+01-6.57569E+01 6.92727E+00
 -1      5617 4.77752E+01-6.57569E+01 8.65909E+00
 -1      5618 4.77752E+01-6.57569E+01 1.03909E+01
 -1      5619 4.77752E+01-6.57569E+01 1.21227E+01
 -1      5620 4.77752E+01-6.57569E+01 1.38545E+01
 -1      5621 4.77752E+01-6.57569E+01 1.55864E+01
 -1      5622 4.77752E+01-6.57569E+01 1.73182E+01
 -1      5623 4.42683E+01-6.81671E+01 1.73182E+00
 -1      5624 4.42683E+01-6.81671E+01 3.46364E+00
 -1      5625 4.42683E+01-6.81671E+01 5.19545E+00
 -1      5626 4.42683E+01-6.81671E+01 6.92727E+00
 -1      5627 4.42683E+01-6.81671E+01 8.65909E+00
 -1      5628 4.42683E+01-6.81671E+01 1.03909E+01
 -1      5629 4.42683E+01-6.81671E+01 1.21227E+01
 -1      5630 4.42683E+01-6.81671E+01 1.38545E+01
 -1      5631 4.42683E+01-6.81671E+01 1.55864E+01
 -1      5632 4.42683E+01-6.81671E+01 1.73182E+01
 -1      5633 4.06400E+01-7.03905E+01 1.73182E+00
 -1      5634 4.06400E+01-7.03905E+01 3.46364E+00
 -1      5635 4.06400E+01-7.03905E+01 5.19545E+00
 -1      5636 4.06400E+01-7.03905E+01 6.92727E+00
 -1      5637 4.06400E+01-7.03905E+01 8.65909E+00
 -1      5638 4.06400E+01-7.03905E+01 1.03909E+01
 -1      5639 4.06400E+01-7.03905E+01 1.21227E+01
 -1      5640 4.06400E+01-7.03905E+01 1.38545E+01
 -1      5641 4.06400E+01-7.03905E+01 1.55864E+01
 -1      5642 4.06400E+01-7.03905E+01 1.73182E+01
 -1      5643 3.69003E+01-7.24210E+01 1.73182E+00
 -1      5644 3.69003E+01-7.24210E+01 3.46364E+00
 -1      5645 3.69003E+01-7.24210E+01 5.19545E+00
 -1      5646 3.69003E+01-7.24210E+01 6.92727E+00
 -1      5647 3.69003E+01-7.24210E+01 8.65909E+00
 -1      5648 3.69003E+01-7.24210E+01 1.03909E+01
 -1      5649 3.69003E+01-7.24210E+01 1.21227E+01
 -1      5650 3.69003E+01-7.24210E+01 1.38545E+01
 -1      5651 3.69003E+01-7.24210E+01 1.55864E+01
 -1      5652 3.69003E+01-7.24210E+01 1.73182E+01
 -1      5653 3.30596E+01-7.42530E+01 1.73182E+00
 -1      5654 3.30596E+01-7.42530E+01 3.46364E+00
 -1      5655 3.30596E+01-7.42530E+01 5.19545E+00
 -1      5656 3.30596E+01-7.42530E+01 6.92727E+00
 -1      5657 3.30596E+01-7.42530E+01 8.65909E+00
 -1      5658 3.30596E+01-7.42530E+01 1.03909E+01
 -1      5659 3.30596E+01-7.42530E+01 1.21227E+01
 -1      5660 3.30596E+01-7.42530E+01 1.38545E+01
 -1      5661 3.30596E+01-7.42530E+01 1.55864E+01
 -1      5662 3.30596E+01-7.42530E+01 1.73182E+01
 -1      5663 2.91281E+01-7.58814E+01 1.73182E+00
 -1      5664 2.91281E+01-7.58814E+01 3.46364E+00
 -1      5665 2.91281E+01-7.58814E+01 5.19545E+00
 -1      5666 2.91281E+01-7.58814E+01 6.92727E+00
 -1      5667 2.91281E+01-7.58814E+01 8.65909E+00
 -1      5668 2.91281E+01-7.58814E+01 1.03909E+01
 -1      5669 2.91281E+01-7.58814E+01 1.21227E+01
 -1      5670 2.91281E+01-7.58814E+01 1.38545E+01
 -1      5671 2.91281E+01-7.58814E+01 1.55864E+01
 -1      5672 2.91281E+01-7.58814E+01 1.73182E+01
 -1      5673 2.51169E+01-7.73019E+01 1.73182E+00
 -1      5674 2.51169E+01-7.73019E+01 3.46364E+00
 -1      5675 2.51169E+01-7.73019E+01 5.19545E+00
 -1      5676 2.51169E+01-7.73019E+01 6.92727E+00
 -1      5677 2.51169E+01-7.73019E+01 8.65909E+00
 -1      5678 2.51169E+01-7.73019E+01 1.03909E+01
 -1      5679 2.51169E+01-7.73019E+01 1.21227E+01
 -1      5680 2.51169E+01-7.73019E+01 1.38545E+01
 -1      5681 2.51169E+01-7.73019E+01 1.55864E+01
 -1      5682 2.51169E+01-7.73019E+01 1.73182E+01
 -1      5683 2.10368E+01-7.85105E+01 1.73182E+00
 -1      5684 2.10368E+01-7.85105E+01 3.46364E+00
 -1      5685 2.10368E+01-7.85105E+01 5.19545E+00
 -1      5686 2.10368E+01-7.85105E+01 6.92727E+00
 -1      5687 2.10368E+01-7.85105E+01 8.65909E+00
 -1      5688 2.10368E+01-7.85105E+01 1.03909E+01
 -1      5689 2.10368E+01-7.85105E+01 1.21227E+01
 -1      5690 2.10368E+01-7.85105E+01 1.38545E+01
 -1      5691 2.10368E+01-7.85105E+01 1.55864E+01
 -1      5692 2.10368E+01-7.85105E+01 1.73182E+01
 -1      5693 1.68991E+01-7.95038E+01 1.73182E+00
 -1      5694 1.68991E+01-7.95038E+01 3.46364E+00
 -1      5695 1.68991E+01-7.95038E+01 5.19545E+00
 -1      5696 1.68991E+01-7.95038E+01 6.92727E+00
 -1      5697 1.68991E+01-7.95038E+01 8.65909E+00
 -1      5698 1.68991E+01-7.95038E+01 1.03909E+01
 -1      5699 1.68991E+01-7.95038E+01 1.21227E+01
 -1      5700 1.68991E+01-7.95038E+01 1.38545E+01
 -1      5701 1.68991E+01-7.95038E+01 1.55864E+01
 -1      5702 1.68991E+01-7.95038E+01 1.73182E+01
 -1      5703 1.27150E+01-8.02793E+01 1.73182E+00
 -1      5704 1.27150E+01-8.02793E+01 3.46364E+00
 -1      5705 1.27150E+01-8.02793E+01 5.19545E+00
 -1      5706 1.27150E+01-8.02793E+01 6.92727E+00
 -1      5707 1.27150E+01-8.02793E+01 8.65909E+00
 -1      5708 1.27150E+01-8.02793E+01 1.03909E+01
 -1      5709 1.27150E+01-8.02793E+01 1.21227E+01
 -1      5710 1.27150E+01-8.02793E+01 1.38545E+01
 -1      5711 1.27150E+01-8.02793E+01 1.55864E+01
 -1      5712 1.27150E+01-8.02793E+01 1.73182E+01
 -1      5713 8.49607E+00-8.08347E+01 1.73182E+00
 -1      5714 8.49607E+00-8.08347E+01 3.46364E+00
 -1      5715 8.49607E+00-8.08347E+01 5.19545E+00
 -1      5716 8.49607E+00-8.08347E+01 6.92727E+00
 -1      5717 8.49607E+00-8.08347E+01 8.65909E+00
 -1      5718 8.49607E+00-8.08347E+01 1.03909E+01
 -1      5719 8.49607E+00-8.08347E+01 1.21227E+01
 -1      5720 8.49607E+00-8.08347E+01 1.38545E+01
 -1      5721 8.49607E+00-8.08347E+01 1.55864E+01
 -1      5722 8.49607E+00-8.08347E+01 1.73182E+01
 -1      5723 4.25387E+00-8.11686E+01 1.73182E+00
 -1      5724 4.25387E+00-8.11686E+01 3.46364E+00
 -1      5725 4.25387E+00-8.11686E+01 5.19545E+00
 -1      5726 4.25387E+00-8.11686E+01 6.92727E+00
 -1      5727 4.25387E+00-8.11686E+01 8.65909E+00
 -1      5728 4.25387E+00-8.11686E+01 1.03909E+01
 -1      5729 4.25387E+00-8.11686E+01 1.21227E+01
 -1      5730 4.25387E+00-8.11686E+01 1.38545E+01
 -1      5731 4.25387E+00-8.11686E+01 1.55864E+01
 -1      5732 4.25387E+00-8.11686E+01 1.73182E+01
 -1      5733 8.45506E+01-4.43111E+00 1.73182E+00
 -1      5734 8.45506E+01-4.43111E+00 3.46364E+00
 -1      5735 8.45506E+01-4.43111E+00 5.19545E+00
 -1      5736 8.45506E+01-4.43111E+00 6.92727E+00
 -1      5737 8.45506E+01-4.43111E+00 8.65909E+00
 -1      5738 8.45506E+01-4.43111E+00 1.03909E+01
 -1      5739 8.45506E+01-4.43111E+00 1.21227E+01
 -1      5740 8.45506E+01-4.43111E+00 1.38545E+01
 -1      5741 8.45506E+01-4.43111E+00 1.55864E+01
 -1      5742 8.45506E+01-4.43111E+00 1.73182E+01
 -1      5743 8.42029E+01-8.85008E+00 1.73182E+00
 -1      5744 8.42029E+01-8.85008E+00 3.46364E+00
 -1      5745 8.42029E+01-8.85008E+00 5.19545E+00
 -1      5746 8.42029E+01-8.85008E+00 6.92727E+00
 -1      5747 8.42029E+01-8.85008E+00 8.65909E+00
 -1      5748 8.42029E+01-8.85008E+00 1.03909E+01
 -1      5749 8.42029E+01-8.85008E+00 1.21227E+01
 -1      5750 8.42029E+01-8.85008E+00 1.38545E+01
 -1      5751 8.42029E+01-8.85008E+00 1.55864E+01
 -1      5752 8.42029E+01-8.85008E+00 1.73182E+01
 -1      5753 8.36243E+01-1.32448E+01 1.73182E+00
 -1      5754 8.36243E+01-1.32448E+01 3.46364E+00
 -1      5755 8.36243E+01-1.32448E+01 5.19545E+00
 -1      5756 8.36243E+01-1.32448E+01 6.92727E+00
 -1      5757 8.36243E+01-1.32448E+01 8.65909E+00
 -1      5758 8.36243E+01-1.32448E+01 1.03909E+01
 -1      5759 8.36243E+01-1.32448E+01 1.21227E+01
 -1      5760 8.36243E+01-1.32448E+01 1.38545E+01
 -1      5761 8.36243E+01-1.32448E+01 1.55864E+01
 -1      5762 8.36243E+01-1.32448E+01 1.73182E+01
 -1      5763 8.28165E+01-1.76032E+01 1.73182E+00
 -1      5764 8.28165E+01-1.76032E+01 3.46364E+00
 -1      5765 8.28165E+01-1.76032E+01 5.19545E+00
 -1      5766 8.28165E+01-1.76032E+01 6.92727E+00
 -1      5767 8.28165E+01-1.76032E+01 8.65909E+00
 -1      5768 8.28165E+01-1.76032E+01 1.03909E+01
 -1      5769 8.28165E+01-1.76032E+01 1.21227E+01
 -1      5770 8.28165E+01-1.76032E+01 1.38545E+01
 -1      5771 8.28165E+01-1.76032E+01 1.55864E+01
 -1      5772 8.28165E+01-1.76032E+01 1.73182E+01
 -1      5773 8.17817E+01-2.19133E+01 1.73182E+00
 -1      5774 8.17817E+01-2.19133E+01 3.46364E+00
 -1      5775 8.17817E+01-2.19133E+01 5.19545E+00
 -1      5776 8.17817E+01-2.19133E+01 6.92727E+00
 -1      5777 8.17817E+01-2.19133E+01 8.65909E+00
 -1      5778 8.17817E+01-2.19133E+01 1.03909E+01
 -1      5779 8.17817E+01-2.19133E+01 1.21227E+01
 -1      5780 8.17817E+01-2.19133E+01 1.38545E+01
 -1      5781 8.17817E+01-2.19133E+01 1.55864E+01
 -1      5782 8.17817E+01-2.19133E+01 1.73182E+01
 -1      5783 8.05228E+01-2.61634E+01 1.73182E+00
 -1      5784 8.05228E+01-2.61634E+01 3.46364E+00
 -1      5785 8.05228E+01-2.61634E+01 5.19545E+00
 -1      5786 8.05228E+01-2.61634E+01 6.92727E+00
 -1      5787 8.05228E+01-2.61634E+01 8.65909E+00
 -1      5788 8.05228E+01-2.61634E+01 1.03909E+01
 -1      5789 8.05228E+01-2.61634E+01 1.21227E+01
 -1      5790 8.05228E+01-2.61634E+01 1.38545E+01
 -1      5791 8.05228E+01-2.61634E+01 1.55864E+01
 -1      5792 8.05228E+01-2.61634E+01 1.73182E+01
 -1      5793 7.90431E+01-3.03418E+01 1.73182E+00
 -1      5794 7.90431E+01-3.03418E+01 3.46364E+00
 -1      5795 7.90431E+01-3.03418E+01 5.19545E+00
 -1      5796 7.90431E+01-3.03418E+01 6.92727E+00
 -1      5797 7.90431E+01-3.03418E+01 8.65909E+00
 -1      5798 7.90431E+01-3.03418E+01 1.03909E+01
 -1      5799 7.90431E+01-3.03418E+01 1.21227E+01
 -1      5800 7.90431E+01-3.03418E+01 1.38545E+01
 -1      5801 7.90431E+01-3.03418E+01 1.55864E+01
 -1      5802 7.90431E+01-3.03418E+01 1.73182E+01
 -1      5803 7.73468E+01-3.44370E+01 1.73182E+00
 -1      5804 7.73468E+01-3.44370E+01 3.46364E+00
 -1      5805 7.73468E+01-3.44370E+01 5.19545E+00
 -1      5806 7.73468E+01-3.44370E+01 6.92727E+00
 -1      5807 7.73468E+01-3.44370E+01 8.65909E+00
 -1      5808 7.73468E+01-3.44370E+01 1.03909E+01
 -1      5809 7.73468E+01-3.44370E+01 1.21227E+01
 -1      5810 7.73468E+01-3.44370E+01 1.38545E+01
 -1      5811 7.73468E+01-3.44370E+01 1.55864E+01
 -1      5812 7.73468E+01-3.44370E+01 1.73182E+01
 -1      5813 7.54386E+01-3.84379E+01 1.73182E+00
 -1      5814 7.54386E+01-3.84379E+01 3.46364E+00
 -1      5815 7.54386E+01-3.84379E+01 5.19545E+00
 -1      5816 7.54386E+01-3.84379E+01 6.92727E+00
 -1      5817 7.54386E+01-3.84379E+01 8.65909E+00
 -1      5818 7.54386E+01-3.84379E+01 1.03909E+01
 -1      5819 7.54386E+01-3.84379E+01 1.21227E+01
 -1      5820 7.54386E+01-3.84379E+01 1.38545E+01
 -1      5821 7.54386E+01-3.84379E+01 1.55864E+01
 -1      5822 7.54386E+01-3.84379E+01 1.73182E+01
 -1      5823 7.33235E+01-4.23333E+01 1.73182E+00
 -1      5824 7.33235E+01-4.23333E+01 3.46364E+00
 -1      5825 7.33235E+01-4.23333E+01 5.19545E+00
 -1      5826 7.33235E+01-4.23333E+01 6.92727E+00
 -1      5827 7.33235E+01-4.23333E+01 8.65909E+00
 -1      5828 7.33235E+01-4.23333E+01 1.03909E+01
 -1      5829 7.33235E+01-4.23333E+01 1.21227E+01
 -1      5830 7.33235E+01-4.23333E+01 1.38545E+01
 -1      5831 7.33235E+01-4.23333E+01 1.55864E+01
 -1      5832 7.33235E+01-4.23333E+01 1.73182E+01
 -1      5833 7.10074E+01-4.61128E+01 1.73182E+00
 -1      5834 7.10074E+01-4.61128E+01 3.46364E+00
 -1      5835 7.10074E+01-4.61128E+01 5.19545E+00
 -1      5836 7.10074E+01-4.61128E+01 6.92727E+00
 -1      5837 7.10074E+01-4.61128E+01 8.65909E+00
 -1      5838 7.10074E+01-4.61128E+01 1.03909E+01
 -1      5839 7.10074E+01-4.61128E+01 1.21227E+01
 -1      5840 7.10074E+01-4.61128E+01 1.38545E+01
 -1      5841 7.10074E+01-4.61128E+01 1.55864E+01
 -1      5842 7.10074E+01-4.61128E+01 1.73182E+01
 -1      5843 6.84968E+01-4.97658E+01 1.73182E+00
 -1      5844 6.84968E+01-4.97658E+01 3.46364E+00
 -1      5845 6.84968E+01-4.97658E+01 5.19545E+00
 -1      5846 6.84968E+01-4.97658E+01 6.92727E+00
 -1      5847 6.84968E+01-4.97658E+01 8.65909E+00
 -1      5848 6.84968E+01-4.97658E+01 1.03909E+01
 -1      5849 6.84968E+01-4.97658E+01 1.21227E+01
 -1      5850 6.84968E+01-4.97658E+01 1.38545E+01
 -1      5851 6.84968E+01-4.97658E+01 1.55864E+01
 -1      5852 6.84968E+01-4.97658E+01 1.73182E+01
 -1      5853 6.57984E+01-5.32825E+01 1.73182E+00
 -1      5854 6.57984E+01-5.32825E+01 3.46364E+00
 -1      5855 6.57984E+01-5.32825E+01 5.19545E+00
 -1      5856 6.57984E+01-5.32825E+01 6.92727E+00
 -1      5857 6.57984E+01-5.32825E+01 8.65909E+00
 -1      5858 6.57984E+01-5.32825E+01 1.03909E+01
 -1      5859 6.57984E+01-5.32825E+01 1.21227E+01
 -1      5860 6.57984E+01-5.32825E+01 1.38545E+01
 -1      5861 6.57984E+01-5.32825E+01 1.55864E+01
 -1      5862 6.57984E+01-5.32825E+01 1.73182E+01
 -1      5863 6.29196E+01-5.66531E+01 1.73182E+00
 -1      5864 6.29196E+01-5.66531E+01 3.46364E+00
 -1      5865 6.29196E+01-5.66531E+01 5.19545E+00
 -1      5866 6.29196E+01-5.66531E+01 6.92727E+00
 -1      5867 6.29196E+01-5.66531E+01 8.65909E+00
 -1      5868 6.29196E+01-5.66531E+01 1.03909E+01
 -1      5869 6.29196E+01-5.66531E+01 1.21227E+01
 -1      5870 6.29196E+01-5.66531E+01 1.38545E+01
 -1      5871 6.29196E+01-5.66531E+01 1.55864E+01
 -1      5872 6.29196E+01-5.66531E+01 1.73182E+01
 -1      5873 5.98684E+01-5.98684E+01 1.73182E+00
 -1      5874 5.98684E+01-5.98684E+01 3.46364E+00
 -1      5875 5.98684E+01-5.98684E+01 5.19545E+00
 -1      5876 5.98684E+01-5.98684E+01 6.92727E+00
 -1      5877 5.98684E+01-5.98684E+01 8.65909E+00
 -1      5878 5.98684E+01-5.98684E+01 1.03909E+01
 -1      5879 5.98684E+01-5.98684E+01 1.21227E+01
 -1      5880 5.98684E+01-5.98684E+01 1.38545E+01
 -1      5881 5.98684E+01-5.98684E+01 1.55864E+01
 -1      5882 5.98684E+01-5.98684E+01 1.73182E+01
 -1      5883 5.66531E+01-6.29196E+01 1.73182E+00
 -1      5884 5.66531E+01-6.29196E+01 3.46364E+00
 -1      5885 5.66531E+01-6.29196E+01 5.19545E+00
 -1      5886 5.66531E+01-6.29196E+01 6.92727E+00
 -1      5887 5.66531E+01-6.29196E+01 8.65909E+00
 -1      5888 5.66531E+01-6.29196E+01 1.03909E+01
 -1      5889 5.66531E+01-6.29196E+01 1.21227E+01
 -1      5890 5.66531E+01-6.29196E+01 1.38545E+01
 -1      5891 5.66531E+01-6.29196E+01 1.55864E+01
 -1      5892 5.66531E+01-6.29196E+01 1.73182E+01
 -1      5893 5.32825E+01-6.57984E+01 1.73182E+00
 -1      5894 5.32825E+01-6.57984E+01 3.46364E+00
 -1      5895 5.32825E+01-6.57984E+01 5.19545E+00
 -1      5896 5.32825E+01-6.57984E+01 6.92727E+00
 -1      5897 5.32825E+01-6.57984E+01 8.65909E+00
 -1      5898 5.32825E+01-6.57984E+01 1.03909E+01
 -1      5899 5.32825E+01-6.57984E+01 1.21227E+01
 -1      5900 5.32825E+01-6.57984E+01 1.38545E+01
 -1      5901 5.32825E+01-6.57984E+01 1.55864E+01
 -1      5902 5.32825E+01-6.57984E+01 1.73182E+01
 -1      5903 4.97658E+01-6.84968E+01 1.73182E+00
 -1      5904 4.97658E+01-6.84968E+01 3.46364E+00
 -1      5905 4.97658E+01-6.84968E+01 5.19545E+00
 -1      5906 4.97658E+01-6.84968E+01 6.92727E+00
 -1      5907 4.97658E+01-6.84968E+01 8.65909E+00
 -1      5908 4.97658E+01-6.84968E+01 1.03909E+01
 -1      5909 4.97658E+01-6.84968E+01 1.21227E+01
 -1      5910 4.97658E+01-6.84968E+01 1.38545E+01
 -1      5911 4.97658E+01-6.84968E+01 1.55864E+01
 -1      5912 4.97658E+01-6.84968E+01 1.73182E+01
 -1      5913 4.61128E+01-7.10074E+01 1.73182E+00
 -1      5914 4.61128E+01-7.10074E+01 3.46364E+00
 -1      5915 4.61128E+01-7.10074E+01 5.19545E+00
 -1      5916 4.61128E+01-7.10074E+01 6.92727E+00
 -1      5917 4.61128E+01-7.10074E+01 8.65909E+00
 -1      5918 4.61128E+01-7.10074E+01 1.03909E+01
 -1      5919 4.61128E+01-7.10074E+01 1.21227E+01
 -1      5920 4.61128E+01-7.10074E+01 1.38545E+01
 -1      5921 4.61128E+01-7.10074E+01 1.55864E+01
 -1      5922 4.61128E+01-7.10074E+01 1.73182E+01
 -1      5923 4.23333E+01-7.33235E+01 1.73182E+00
 -1      5924 4.23333E+01-7.33235E+01 3.46364E+00
 -1      5925 4.23333E+01-7.33235E+01 5.19545E+00
 -1      5926 4.23333E+01-7.33235E+01 6.92727E+00
 -1      5927 4.23333E+01-7.33235E+01 8.65909E+00
 -1      5928 4.23333E+01-7.33235E+01 1.03909E+01
 -1      5929 4.23333E+01-7.33235E+01 1.21227E+01
 -1      5930 4.23333E+01-7.33235E+01 1.38545E+01
 -1      5931 4.23333E+01-7.33235E+01 1.55864E+01
 -1      5932 4.23333E+01-7.33235E+01 1.73182E+01
 -1      5933 3.84379E+01-7.54386E+01 1.73182E+00
 -1      5934 3.84379E+01-7.54386E+01 3.46364E+00
 -1      5935 3.84379E+01-7.54386E+01 5.19545E+00
 -1      5936 3.84379E+01-7.54386E+01 6.92727E+00
 -1      5937 3.84379E+01-7.54386E+01 8.65909E+00
 -1      5938 3.84379E+01-7.54386E+01 1.03909E+01
 -1      5939 3.84379E+01-7.54386E+01 1.21227E+01
 -1      5940 3.84379E+01-7.54386E+01 1.38545E+01
 -1      5941 3.84379E+01-7.54386E+01 1.55864E+01
 -1      5942 3.84379E+01-7.54386E+01 1.73182E+01
 -1      5943 3.44370E+01-7.73468E+01 1.73182E+00
 -1      5944 3.44370E+01-7.73468E+01 3.46364E+00
 -1      5945 3.44370E+01-7.73468E+01 5.19545E+00
 -1      5946 3.44370E+01-7.73468E+01 6.92727E+00
 -1      5947 3.44370E+01-7.73468E+01 8.65909E+00
 -1      5948 3.44370E+01-7.73468E+01 1.03909E+01
 -1      5949 3.44370E+01-7.73468E+01 1.21227E+01
 -1      5950 3.44370E+01-7.73468E+01 1.38545E+01
 -1      5951 3.44370E+01-7.73468E+01 1.55864E+01
 -1      5952 3.44370E+01-7.73468E+01 1.73182E+01
 -1      5953 3.03418E+01-7.90431E+01 1.73182E+00
 -1      5954 3.03418E+01-7.90431E+01 3.46364E+00
 -1      5955 3.03418E+01-7.90431E+01 5.19545E+00
 -1      5956 3.03418E+01-7.90431E+01 6.92727E+00
 -1      5957 3.03418E+01-7.90431E+01 8.65909E+00
 -1      5958 3.03418E+01-7.90431E+01 1.03909E+01
 -1      5959 3.03418E+01-7.90431E+01 1.21227E+01
 -1      5960 3.03418E+01-7.90431E+01 1.38545E+01
 -1      5961 3.03418E+01-7.90431E+01 1.55864E+01
 -1      5962 3.03418E+01-7.90431E+01 1.73182E+01
 -1      5963 2.61634E+01-8.05228E+01 1.73182E+00
 -1      5964 2.61634E+01-8.05228E+01 3.46364E+00
 -1      5965 2.61634E+01-8.05228E+01 5.19545E+00
 -1      5966 2.61634E+01-8.05228E+01 6.92727E+00
 -1      5967 2.61634E+01-8.05228E+01 8.65909E+00
 -1      5968 2.61634E+01-8.05228E+01 1.03909E+01
 -1      5969 2.61634E+01-8.05228E+01 1.21227E+01
 -1      5970 2.61634E+01-8.05228E+01 1.38545E+01
 -1      5971 2.61634E+01-8.05228E+01 1.55864E+01
 -1      5972 2.61634E+01-8.05228E+01 1.73182E+01
 -1      5973 2.19133E+01-8.17817E+01 1.73182E+00
 -1      5974 2.19133E+01-8.17817E+01 3.46364E+00
 -1      5975 2.19133E+01-8.17817E+01 5.19545E+00
 -1      5976 2.19133E+01-8.17817E+01 6.92727E+00
 -1      5977 2.19133E+01-8.17817E+01 8.65909E+00
 -1      5978 2.19133E+01-8.17817E+01 1.03909E+01
 -1      5979 2.19133E+01-8.17817E+01 1.21227E+01
 -1      5980 2.19133E+01-8.17817E+01 1.38545E+01
 -1      5981 2.19133E+01-8.17817E+01 1.55864E+01
 -1      5982 2.19133E+01-8.17817E+01 1.73182E+01
 -1      5983 1.76032E+01-8.28165E+01 1.73182E+00
 -1      5984 1.76032E+01-8.28165E+01 3.46364E+00
 -1      5985 1.76032E+01-8.28165E+01 5.19545E+00
 -1      5986 1.76032E+01-8.28165E+01 6.92727E+00
 -1      5987 1.76032E+01-8.28165E+01 8.65909E+00
 -1      5988 1.76032E+01-8.28165E+01 1.03909E+01
 -1      5989 1.76032E+01-8.28165E+01 1.21227E+01
 -1      5990 1.76032E+01-8.28165E+01 1.38545E+01
 -1      5991 1.76032E+01-8.28165E+01 1.55864E+01
 -1      5992 1.76032E+01-8.28165E+01 1.73182E+01
 -1      5993 1.32448E+01-8.36243E+01 1.73182E+00
 -1      5994 1.32448E+01-8.36243E+01 3.46364E+00
 -1      5995 1.32448E+01-8.36243E+01 5.19545E+00
 -1      5996 1.32448E+01-8.36243E+01 6.92727E+00
 -1      5997 1.32448E+01-8.36243E+01 8.65909E+00
 -1      5998 1.32448E+01-8.36243E+01 1.03909E+01
 -1      5999 1.32448E+01-8.36243E+01 1.21227E+01
 -1      6000 1.32448E+01-8.36243E+01 1.38545E+01
 -1      6001 1.32448E+01-8.36243E+01 1.55864E+01
 -1      6002 1.32448E+01-8.36243E+01 1.73182E+01
 -1      6003 8.85008E+00-8.42029E+01 1.73182E+00
 -1      6004 8.85008E+00-8.42029E+01 3.46364E+00
 -1      6005 8.85008E+00-8.42029E+01 5.19545E+00
 -1      6006 8.85008E+00-8.42029E+01 6.92727E+00
 -1      6007 8.85008E+00-8.42029E+01 8.65909E+00
 -1      6008 8.85008E+00-8.42029E+01 1.03909E+01
 -1      6009 8.85008E+00-8.42029E+01 1.21227E+01
 -1      6010 8.85008E+00-8.42029E+01 1.38545E+01
 -1      6011 8.85008E+00-8.42029E+01 1.55864E+01
 -1      6012 8.85008E+00-8.42029E+01 1.73182E+01
 -1      6013 4.43111E+00-8.45506E+01 1.73182E+00
 -1      6014 4.43111E+00-8.45506E+01 3.46364E+00
 -1      6015 4.43111E+00-8.45506E+01 5.19545E+00
 -1      6016 4.43111E+00-8.45506E+01 6.92727E+00
 -1      6017 4.43111E+00-8.45506E+01 8.65909E+00
 -1      6018 4.43111E+00-8.45506E+01 1.03909E+01
 -1      6019 4.43111E+00-8.45506E+01 1.21227E+01
 -1      6020 4.43111E+00-8.45506E+01 1.38545E+01
 -1      6021 4.43111E+00-8.45506E+01 1.55864E+01
 -1      6022 4.43111E+00-8.45506E+01 1.73182E+01
 -1      6023 8.79327E+01-4.60836E+00 1.73182E+00
 -1      6024 8.79327E+01-4.60836E+00 3.46364E+00
 -1      6025 8.79327E+01-4.60836E+00 5.19545E+00
 -1      6026 8.79327E+01-4.60836E+00 6.92727E+00
 -1      6027 8.79327E+01-4.60836E+00 8.65909E+00
 -1      6028 8.79327E+01-4.60836E+00 1.03909E+01
 -1      6029 8.79327E+01-4.60836E+00 1.21227E+01
 -1      6030 8.79327E+01-4.60836E+00 1.38545E+01
 -1      6031 8.79327E+01-4.60836E+00 1.55864E+01
 -1      6032 8.79327E+01-4.60836E+00 1.73182E+01
 -1      6033 8.75710E+01-9.20408E+00 1.73182E+00
 -1      6034 8.75710E+01-9.20408E+00 3.46364E+00
 -1      6035 8.75710E+01-9.20408E+00 5.19545E+00
 -1      6036 8.75710E+01-9.20408E+00 6.92727E+00
 -1      6037 8.75710E+01-9.20408E+00 8.65909E+00
 -1      6038 8.75710E+01-9.20408E+00 1.03909E+01
 -1      6039 8.75710E+01-9.20408E+00 1.21227E+01
 -1      6040 8.75710E+01-9.20408E+00 1.38545E+01
 -1      6041 8.75710E+01-9.20408E+00 1.55864E+01
 -1      6042 8.75710E+01-9.20408E+00 1.73182E+01
 -1      6043 8.69693E+01-1.37746E+01 1.73182E+00
 -1      6044 8.69693E+01-1.37746E+01 3.46364E+00
 -1      6045 8.69693E+01-1.37746E+01 5.19545E+00
 -1      6046 8.69693E+01-1.37746E+01 6.92727E+00
 -1      6047 8.69693E+01-1.37746E+01 8.65909E+00
 -1      6048 8.69693E+01-1.37746E+01 1.03909E+01
 -1      6049 8.69693E+01-1.37746E+01 1.21227E+01
 -1      6050 8.69693E+01-1.37746E+01 1.38545E+01
 -1      6051 8.69693E+01-1.37746E+01 1.55864E+01
 -1      6052 8.69693E+01-1.37746E+01 1.73182E+01
 -1      6053 8.61292E+01-1.83073E+01 1.73182E+00
 -1      6054 8.61292E+01-1.83073E+01 3.46364E+00
 -1      6055 8.61292E+01-1.83073E+01 5.19545E+00
 -1      6056 8.61292E+01-1.83073E+01 6.92727E+00
 -1      6057 8.61292E+01-1.83073E+01 8.65909E+00
 -1      6058 8.61292E+01-1.83073E+01 1.03909E+01
 -1      6059 8.61292E+01-1.83073E+01 1.21227E+01
 -1      6060 8.61292E+01-1.83073E+01 1.38545E+01
 -1      6061 8.61292E+01-1.83073E+01 1.55864E+01
 -1      6062 8.61292E+01-1.83073E+01 1.73182E+01
 -1      6063 8.50530E+01-2.27899E+01 1.73182E+00
 -1      6064 8.50530E+01-2.27899E+01 3.46364E+00
 -1      6065 8.50530E+01-2.27899E+01 5.19545E+00
 -1      6066 8.50530E+01-2.27899E+01 6.92727E+00
 -1      6067 8.50530E+01-2.27899E+01 8.65909E+00
 -1      6068 8.50530E+01-2.27899E+01 1.03909E+01
 -1      6069 8.50530E+01-2.27899E+01 1.21227E+01
 -1      6070 8.50530E+01-2.27899E+01 1.38545E+01
 -1      6071 8.50530E+01-2.27899E+01 1.55864E+01
 -1      6072 8.50530E+01-2.27899E+01 1.73182E+01
 -1      6073 8.37437E+01-2.72100E+01 1.73182E+00
 -1      6074 8.37437E+01-2.72100E+01 3.46364E+00
 -1      6075 8.37437E+01-2.72100E+01 5.19545E+00
 -1      6076 8.37437E+01-2.72100E+01 6.92727E+00
 -1      6077 8.37437E+01-2.72100E+01 8.65909E+00
 -1      6078 8.37437E+01-2.72100E+01 1.03909E+01
 -1      6079 8.37437E+01-2.72100E+01 1.21227E+01
 -1      6080 8.37437E+01-2.72100E+01 1.38545E+01
 -1      6081 8.37437E+01-2.72100E+01 1.55864E+01
 -1      6082 8.37437E+01-2.72100E+01 1.73182E+01
 -1      6083 8.22049E+01-3.15555E+01 1.73182E+00
 -1      6084 8.22049E+01-3.15555E+01 3.46364E+00
 -1      6085 8.22049E+01-3.15555E+01 5.19545E+00
 -1      6086 8.22049E+01-3.15555E+01 6.92727E+00
 -1      6087 8.22049E+01-3.15555E+01 8.65909E+00
 -1      6088 8.22049E+01-3.15555E+01 1.03909E+01
 -1      6089 8.22049E+01-3.15555E+01 1.21227E+01
 -1      6090 8.22049E+01-3.15555E+01 1.38545E+01
 -1      6091 8.22049E+01-3.15555E+01 1.55864E+01
 -1      6092 8.22049E+01-3.15555E+01 1.73182E+01
 -1      6093 8.04407E+01-3.58145E+01 1.73182E+00
 -1      6094 8.04407E+01-3.58145E+01 3.46364E+00
 -1      6095 8.04407E+01-3.58145E+01 5.19545E+00
 -1      6096 8.04407E+01-3.58145E+01 6.92727E+00
 -1      6097 8.04407E+01-3.58145E+01 8.65909E+00
 -1      6098 8.04407E+01-3.58145E+01 1.03909E+01
 -1      6099 8.04407E+01-3.58145E+01 1.21227E+01
 -1      6100 8.04407E+01-3.58145E+01 1.38545E+01
 -1      6101 8.04407E+01-3.58145E+01 1.55864E+01
 -1      6102 8.04407E+01-3.58145E+01 1.73182E+01
 -1      6103 7.84561E+01-3.99754E+01 1.73182E+00
 -1      6104 7.84561E+01-3.99754E+01 3.46364E+00
 -1      6105 7.84561E+01-3.99754E+01 5.19545E+00
 -1      6106 7.84561E+01-3.99754E+01 6.92727E+00
 -1      6107 7.84561E+01-3.99754E+01 8.65909E+00
 -1      6108 7.84561E+01-3.99754E+01 1.03909E+01
 -1      6109 7.84561E+01-3.99754E+01 1.21227E+01
 -1      6110 7.84561E+01-3.99754E+01 1.38545E+01
 -1      6111 7.84561E+01-3.99754E+01 1.55864E+01
 -1      6112 7.84561E+01-3.99754E+01 1.73182E+01
 -1      6113 7.62564E+01-4.40267E+01 1.73182E+00
 -1      6114 7.62564E+01-4.40267E+01 3.46364E+00
 -1      6115 7.62564E+01-4.40267E+01 5.19545E+00
 -1      6116 7.62564E+01-4.40267E+01 6.92727E+00
 -1      6117 7.62564E+01-4.40267E+01 8.65909E+00
 -1      6118 7.62564E+01-4.40267E+01 1.03909E+01
 -1      6119 7.62564E+01-4.40267E+01 1.21227E+01
 -1      6120 7.62564E+01-4.40267E+01 1.38545E+01
 -1      6121 7.62564E+01-4.40267E+01 1.55864E+01
 -1      6122 7.62564E+01-4.40267E+01 1.73182E+01
 -1      6123 7.38477E+01-4.79573E+01 1.73182E+00
 -1      6124 7.38477E+01-4.79573E+01 3.46364E+00
 -1      6125 7.38477E+01-4.79573E+01 5.19545E+00
 -1      6126 7.38477E+01-4.79573E+01 6.92727E+00
 -1      6127 7.38477E+01-4.79573E+01 8.65909E+00
 -1      6128 7.38477E+01-4.79573E+01 1.03909E+01
 -1      6129 7.38477E+01-4.79573E+01 1.21227E+01
 -1      6130 7.38477E+01-4.79573E+01 1.38545E+01
 -1      6131 7.38477E+01-4.79573E+01 1.55864E+01
 -1      6132 7.38477E+01-4.79573E+01 1.73182E+01
 -1      6133 7.12366E+01-5.17565E+01 1.73182E+00
 -1      6134 7.12366E+01-5.17565E+01 3.46364E+00
 -1      6135 7.12366E+01-5.17565E+01 5.19545E+00
 -1      6136 7.12366E+01-5.17565E+01 6.92727E+00
 -1      6137 7.12366E+01-5.17565E+01 8.65909E+00
 -1      6138 7.12366E+01-5.17565E+01 1.03909E+01
 -1      6139 7.12366E+01-5.17565E+01 1.21227E+01
 -1      6140 7.12366E+01-5.17565E+01 1.38545E+01
 -1      6141 7.12366E+01-5.17565E+01 1.55864E+01
 -1      6142 7.12366E+01-5.17565E+01 1.73182E+01
 -1      6143 6.84303E+01-5.54138E+01 1.73182E+00
 -1      6144 6.84303E+01-5.54138E+01 3.46364E+00
 -1      6145 6.84303E+01-5.54138E+01 5.19545E+00
 -1      6146 6.84303E+01-5.54138E+01 6.92727E+00
 -1      6147 6.84303E+01-5.54138E+01 8.65909E+00
 -1      6148 6.84303E+01-5.54138E+01 1.03909E+01
 -1      6149 6.84303E+01-5.54138E+01 1.21227E+01
 -1      6150 6.84303E+01-5.54138E+01 1.38545E+01
 -1      6151 6.84303E+01-5.54138E+01 1.55864E+01
 -1      6152 6.84303E+01-5.54138E+01 1.73182E+01
 -1      6153 6.54364E+01-5.89192E+01 1.73182E+00
 -1      6154 6.54364E+01-5.89192E+01 3.46364E+00
 -1      6155 6.54364E+01-5.89192E+01 5.19545E+00
 -1      6156 6.54364E+01-5.89192E+01 6.92727E+00
 -1      6157 6.54364E+01-5.89192E+01 8.65909E+00
 -1      6158 6.54364E+01-5.89192E+01 1.03909E+01
 -1      6159 6.54364E+01-5.89192E+01 1.21227E+01
 -1      6160 6.54364E+01-5.89192E+01 1.38545E+01
 -1      6161 6.54364E+01-5.89192E+01 1.55864E+01
 -1      6162 6.54364E+01-5.89192E+01 1.73182E+01
 -1      6163 6.22631E+01-6.22631E+01 1.73182E+00
 -1      6164 6.22631E+01-6.22631E+01 3.46364E+00
 -1      6165 6.22631E+01-6.22631E+01 5.19545E+00
 -1      6166 6.22631E+01-6.22631E+01 6.92727E+00
 -1      6167 6.22631E+01-6.22631E+01 8.65909E+00
 -1      6168 6.22631E+01-6.22631E+01 1.03909E+01
 -1      6169 6.22631E+01-6.22631E+01 1.21227E+01
 -1      6170 6.22631E+01-6.22631E+01 1.38545E+01
 -1      6171 6.22631E+01-6.22631E+01 1.55864E+01
 -1      6172 6.22631E+01-6.22631E+01 1.73182E+01
 -1      6173 5.89192E+01-6.54364E+01 1.73182E+00
 -1      6174 5.89192E+01-6.54364E+01 3.46364E+00
 -1      6175 5.89192E+01-6.54364E+01 5.19545E+00
 -1      6176 5.89192E+01-6.54364E+01 6.92727E+00
 -1      6177 5.89192E+01-6.54364E+01 8.65909E+00
 -1      6178 5.89192E+01-6.54364E+01 1.03909E+01
 -1      6179 5.89192E+01-6.54364E+01 1.21227E+01
 -1      6180 5.89192E+01-6.54364E+01 1.38545E+01
 -1      6181 5.89192E+01-6.54364E+01 1.55864E+01
 -1      6182 5.89192E+01-6.54364E+01 1.73182E+01
 -1      6183 5.54138E+01-6.84303E+01 1.73182E+00
 -1      6184 5.54138E+01-6.84303E+01 3.46364E+00
 -1      6185 5.54138E+01-6.84303E+01 5.19545E+00
 -1      6186 5.54138E+01-6.84303E+01 6.92727E+00
 -1      6187 5.54138E+01-6.84303E+01 8.65909E+00
 -1      6188 5.54138E+01-6.84303E+01 1.03909E+01
 -1      6189 5.54138E+01-6.84303E+01 1.21227E+01
 -1      6190 5.54138E+01-6.84303E+01 1.38545E+01
 -1      6191 5.54138E+01-6.84303E+01 1.55864E+01
 -1      6192 5.54138E+01-6.84303E+01 1.73182E+01
 -1      6193 5.17565E+01-7.12366E+01 1.73182E+00
 -1      6194 5.17565E+01-7.12366E+01 3.46364E+00
 -1      6195 5.17565E+01-7.12366E+01 5.19545E+00
 -1      6196 5.17565E+01-7.12366E+01 6.92727E+00
 -1      6197 5.17565E+01-7.12366E+01 8.65909E+00
 -1      6198 5.17565E+01-7.12366E+01 1.03909E+01
 -1      6199 5.17565E+01-7.12366E+01 1.21227E+01
 -1      6200 5.17565E+01-7.12366E+01 1.38545E+01
 -1      6201 5.17565E+01-7.12366E+01 1.55864E+01
 -1      6202 5.17565E+01-7.12366E+01 1.73182E+01
 -1      6203 4.79573E+01-7.38477E+01 1.73182E+00
 -1      6204 4.79573E+01-7.38477E+01 3.46364E+00
 -1      6205 4.79573E+01-7.38477E+01 5.19545E+00
 -1      6206 4.79573E+01-7.38477E+01 6.92727E+00
 -1      6207 4.79573E+01-7.38477E+01 8.65909E+00
 -1      6208 4.79573E+01-7.38477E+01 1.03909E+01
 -1      6209 4.79573E+01-7.38477E+01 1.21227E+01
 -1      6210 4.79573E+01-7.38477E+01 1.38545E+01
 -1      6211 4.79573E+01-7.38477E+01 1.55864E+01
 -1      6212 4.79573E+01-7.38477E+01 1.73182E+01
 -1      6213 4.40267E+01-7.62564E+01 1.73182E+00
 -1      6214 4.40267E+01-7.62564E+01 3.46364E+00
 -1      6215 4.40267E+01-7.62564E+01 5.19545E+00
 -1      6216 4.40267E+01-7.62564E+01 6.92727E+00
 -1      6217 4.40267E+01-7.62564E+01 8.65909E+00
 -1      6218 4.40267E+01-7.62564E+01 1.03909E+01
 -1      6219 4.40267E+01-7.62564E+01 1.21227E+01
 -1      6220 4.40267E+01-7.62564E+01 1.38545E+01
 -1      6221 4.40267E+01-7.62564E+01 1.55864E+01
 -1      6222 4.40267E+01-7.62564E+01 1.73182E+01
 -1      6223 3.99754E+01-7.84561E+01 1.73182E+00
 -1      6224 3.99754E+01-7.84561E+01 3.46364E+00
 -1      6225 3.99754E+01-7.84561E+01 5.19545E+00
 -1      6226 3.99754E+01-7.84561E+01 6.92727E+00
 -1      6227 3.99754E+01-7.84561E+01 8.65909E+00
 -1      6228 3.99754E+01-7.84561E+01 1.03909E+01
 -1      6229 3.99754E+01-7.84561E+01 1.21227E+01
 -1      6230 3.99754E+01-7.84561E+01 1.38545E+01
 -1      6231 3.99754E+01-7.84561E+01 1.55864E+01
 -1      6232 3.99754E+01-7.84561E+01 1.73182E+01
 -1      6233 3.58145E+01-8.04407E+01 1.73182E+00
 -1      6234 3.58145E+01-8.04407E+01 3.46364E+00
 -1      6235 3.58145E+01-8.04407E+01 5.19545E+00
 -1      6236 3.58145E+01-8.04407E+01 6.92727E+00
 -1      6237 3.58145E+01-8.04407E+01 8.65909E+00
 -1      6238 3.58145E+01-8.04407E+01 1.03909E+01
 -1      6239 3.58145E+01-8.04407E+01 1.21227E+01
 -1      6240 3.58145E+01-8.04407E+01 1.38545E+01
 -1      6241 3.58145E+01-8.04407E+01 1.55864E+01
 -1      6242 3.58145E+01-8.04407E+01 1.73182E+01
 -1      6243 3.15555E+01-8.22049E+01 1.73182E+00
 -1      6244 3.15555E+01-8.22049E+01 3.46364E+00
 -1      6245 3.15555E+01-8.22049E+01 5.19545E+00
 -1      6246 3.15555E+01-8.22049E+01 6.92727E+00
 -1      6247 3.15555E+01-8.22049E+01 8.65909E+00
 -1      6248 3.15555E+01-8.22049E+01 1.03909E+01
 -1      6249 3.15555E+01-8.22049E+01 1.21227E+01
 -1      6250 3.15555E+01-8.22049E+01 1.38545E+01
 -1      6251 3.15555E+01-8.22049E+01 1.55864E+01
 -1      6252 3.15555E+01-8.22049E+01 1.73182E+01
 -1      6253 2.72100E+01-8.37437E+01 1.73182E+00
 -1      6254 2.72100E+01-8.37437E+01 3.46364E+00
 -1      6255 2.72100E+01-8.37437E+01 5.19545E+00
 -1      6256 2.72100E+01-8.37437E+01 6.92727E+00
 -1      6257 2.72100E+01-8.37437E+01 8.65909E+00
 -1      6258 2.72100E+01-8.37437E+01 1.03909E+01
 -1      6259 2.72100E+01-8.37437E+01 1.21227E+01
 -1      6260 2.72100E+01-8.37437E+01 1.38545E+01
 -1      6261 2.72100E+01-8.37437E+01 1.55864E+01
 -1      6262 2.72100E+01-8.37437E+01 1.73182E+01
 -1      6263 2.27899E+01-8.50530E+01 1.73182E+00
 -1      6264 2.27899E+01-8.50530E+01 3.46364E+00
 -1      6265 2.27899E+01-8.50530E+01 5.19545E+00
 -1      6266 2.27899E+01-8.50530E+01 6.92727E+00
 -1      6267 2.27899E+01-8.50530E+01 8.65909E+00
 -1      6268 2.27899E+01-8.50530E+01 1.03909E+01
 -1      6269 2.27899E+01-8.50530E+01 1.21227E+01
 -1      6270 2.27899E+01-8.50530E+01 1.38545E+01
 -1      6271 2.27899E+01-8.50530E+01 1.55864E+01
 -1      6272 2.27899E+01-8.50530E+01 1.73182E+01
 -1      6273 1.83073E+01-8.61292E+01 1.73182E+00
 -1      6274 1.83073E+01-8.61292E+01 3.46364E+00
 -1      6275 1.83073E+01-8.61292E+01 5.19545E+00
 -1      6276 1.83073E+01-8.61292E+01 6.92727E+00
 -1      6277 1.83073E+01-8.61292E+01 8.65909E+00
 -1      6278 1.83073E+01-8.61292E+01 1.03909E+01
 -1      6279 1.83073E+01-8.61292E+01 1.21227E+01
 -1      6280 1.83073E+01-8.61292E+01 1.38545E+01
 -1      6281 1.83073E+01-8.61292E+01 1.55864E+01
 -1      6282 1.83073E+01-8.61292E+01 1.73182E+01
 -1      6283 1.37746E+01-8.69693E+01 1.73182E+00
 -1      6284 1.37746E+01-8.69693E+01 3.46364E+00
 -1      6285 1.37746E+01-8.69693E+01 5.19545E+00
 -1      6286 1.37746E+01-8.69693E+01 6.92727E+00
 -1      6287 1.37746E+01-8.69693E+01 8.65909E+00
 -1      6288 1.37746E+01-8.69693E+01 1.03909E+01
 -1      6289 1.37746E+01-8.69693E+01 1.21227E+01
 -1      6290 1.37746E+01-8.69693E+01 1.38545E+01
 -1      6291 1.37746E+01-8.69693E+01 1.55864E+01
 -1      6292 1.37746E+01-8.69693E+01 1.73182E+01
 -1      6293 9.20408E+00-8.75710E+01 1.73182E+00
 -1      6294 9.20408E+00-8.75710E+01 3.46364E+00
 -1      6295 9.20408E+00-8.75710E+01 5.19545E+00
 -1      6296 9.20408E+00-8.75710E+01 6.92727E+00
 -1      6297 9.20408E+00-8.75710E+01 8.65909E+00
 -1      6298 9.20408E+00-8.75710E+01 1.03909E+01
 -1      6299 9.20408E+00-8.75710E+01 1.21227E+01
 -1      6300 9.20408E+00-8.75710E+01 1.38545E+01
 -1      6301 9.20408E+00-8.75710E+01 1.55864E+01
 -1      6302 9.20408E+00-8.75710E+01 1.73182E+01
 -1      6303 4.60836E+00-8.79327E+01 1.73182E+00
 -1      6304 4.60836E+00-8.79327E+01 3.46364E+00
 -1      6305 4.60836E+00-8.79327E+01 5.19545E+00
 -1      6306 4.60836E+00-8.79327E+01 6.92727E+00
 -1      6307 4.60836E+00-8.79327E+01 8.65909E+00
 -1      6308 4.60836E+00-8.79327E+01 1.03909E+01
 -1      6309 4.60836E+00-8.79327E+01 1.21227E+01
 -1      6310 4.60836E+00-8.79327E+01 1.38545E+01
 -1      6311 4.60836E+00-8.79327E+01 1.55864E+01
 -1      6312 4.60836E+00-8.79327E+01 1.73182E+01
 -1      6313 9.13147E+01-4.78560E+00 1.73182E+00
 -1      6314 9.13147E+01-4.78560E+00 3.46364E+00
 -1      6315 9.13147E+01-4.78560E+00 5.19545E+00
 -1      6316 9.13147E+01-4.78560E+00 6.92727E+00
 -1      6317 9.13147E+01-4.78560E+00 8.65909E+00
 -1      6318 9.13147E+01-4.78560E+00 1.03909E+01
 -1      6319 9.13147E+01-4.78560E+00 1.21227E+01
 -1      6320 9.13147E+01-4.78560E+00 1.38545E+01
 -1      6321 9.13147E+01-4.78560E+00 1.55864E+01
 -1      6322 9.13147E+01-4.78560E+00 1.73182E+01
 -1      6323 9.09391E+01-9.55808E+00 1.73182E+00
 -1      6324 9.09391E+01-9.55808E+00 3.46364E+00
 -1      6325 9.09391E+01-9.55808E+00 5.19545E+00
 -1      6326 9.09391E+01-9.55808E+00 6.92727E+00
 -1      6327 9.09391E+01-9.55808E+00 8.65909E+00
 -1      6328 9.09391E+01-9.55808E+00 1.03909E+01
 -1      6329 9.09391E+01-9.55808E+00 1.21227E+01
 -1      6330 9.09391E+01-9.55808E+00 1.38545E+01
 -1      6331 9.09391E+01-9.55808E+00 1.55864E+01
 -1      6332 9.09391E+01-9.55808E+00 1.73182E+01
 -1      6333 9.03142E+01-1.43044E+01 1.73182E+00
 -1      6334 9.03142E+01-1.43044E+01 3.46364E+00
 -1      6335 9.03142E+01-1.43044E+01 5.19545E+00
 -1      6336 9.03142E+01-1.43044E+01 6.92727E+00
 -1      6337 9.03142E+01-1.43044E+01 8.65909E+00
 -1      6338 9.03142E+01-1.43044E+01 1.03909E+01
 -1      6339 9.03142E+01-1.43044E+01 1.21227E+01
 -1      6340 9.03142E+01-1.43044E+01 1.38545E+01
 -1      6341 9.03142E+01-1.43044E+01 1.55864E+01
 -1      6342 9.03142E+01-1.43044E+01 1.73182E+01
 -1      6343 8.94418E+01-1.90114E+01 1.73182E+00
 -1      6344 8.94418E+01-1.90114E+01 3.46364E+00
 -1      6345 8.94418E+01-1.90114E+01 5.19545E+00
 -1      6346 8.94418E+01-1.90114E+01 6.92727E+00
 -1      6347 8.94418E+01-1.90114E+01 8.65909E+00
 -1      6348 8.94418E+01-1.90114E+01 1.03909E+01
 -1      6349 8.94418E+01-1.90114E+01 1.21227E+01
 -1      6350 8.94418E+01-1.90114E+01 1.38545E+01
 -1      6351 8.94418E+01-1.90114E+01 1.55864E+01
 -1      6352 8.94418E+01-1.90114E+01 1.73182E+01
 -1      6353 8.83243E+01-2.36664E+01 1.73182E+00
 -1      6354 8.83243E+01-2.36664E+01 3.46364E+00
 -1      6355 8.83243E+01-2.36664E+01 5.19545E+00
 -1      6356 8.83243E+01-2.36664E+01 6.92727E+00
 -1      6357 8.83243E+01-2.36664E+01 8.65909E+00
 -1      6358 8.83243E+01-2.36664E+01 1.03909E+01
 -1      6359 8.83243E+01-2.36664E+01 1.21227E+01
 -1      6360 8.83243E+01-2.36664E+01 1.38545E+01
 -1      6361 8.83243E+01-2.36664E+01 1.55864E+01
 -1      6362 8.83243E+01-2.36664E+01 1.73182E+01
 -1      6363 8.69646E+01-2.82565E+01 1.73182E+00
 -1      6364 8.69646E+01-2.82565E+01 3.46364E+00
 -1      6365 8.69646E+01-2.82565E+01 5.19545E+00
 -1      6366 8.69646E+01-2.82565E+01 6.92727E+00
 -1      6367 8.69646E+01-2.82565E+01 8.65909E+00
 -1      6368 8.69646E+01-2.82565E+01 1.03909E+01
 -1      6369 8.69646E+01-2.82565E+01 1.21227E+01
 -1      6370 8.69646E+01-2.82565E+01 1.38545E+01
 -1      6371 8.69646E+01-2.82565E+01 1.55864E+01
 -1      6372 8.69646E+01-2.82565E+01 1.73182E+01
 -1      6373 8.53666E+01-3.27692E+01 1.73182E+00
 -1      6374 8.53666E+01-3.27692E+01 3.46364E+00
 -1      6375 8.53666E+01-3.27692E+01 5.19545E+00
 -1      6376 8.53666E+01-3.27692E+01 6.92727E+00
 -1      6377 8.53666E+01-3.27692E+01 8.65909E+00
 -1      6378 8.53666E+01-3.27692E+01 1.03909E+01
 -1      6379 8.53666E+01-3.27692E+01 1.21227E+01
 -1      6380 8.53666E+01-3.27692E+01 1.38545E+01
 -1      6381 8.53666E+01-3.27692E+01 1.55864E+01
 -1      6382 8.53666E+01-3.27692E+01 1.73182E+01
 -1      6383 8.35346E+01-3.71920E+01 1.73182E+00
 -1      6384 8.35346E+01-3.71920E+01 3.46364E+00
 -1      6385 8.35346E+01-3.71920E+01 5.19545E+00
 -1      6386 8.35346E+01-3.71920E+01 6.92727E+00
 -1      6387 8.35346E+01-3.71920E+01 8.65909E+00
 -1      6388 8.35346E+01-3.71920E+01 1.03909E+01
 -1      6389 8.35346E+01-3.71920E+01 1.21227E+01
 -1      6390 8.35346E+01-3.71920E+01 1.38545E+01
 -1      6391 8.35346E+01-3.71920E+01 1.55864E+01
 -1      6392 8.35346E+01-3.71920E+01 1.73182E+01
 -1      6393 8.14736E+01-4.15129E+01 1.73182E+00
 -1      6394 8.14736E+01-4.15129E+01 3.46364E+00
 -1      6395 8.14736E+01-4.15129E+01 5.19545E+00
 -1      6396 8.14736E+01-4.15129E+01 6.92727E+00
 -1      6397 8.14736E+01-4.15129E+01 8.65909E+00
 -1      6398 8.14736E+01-4.15129E+01 1.03909E+01
 -1      6399 8.14736E+01-4.15129E+01 1.21227E+01
 -1      6400 8.14736E+01-4.15129E+01 1.38545E+01
 -1      6401 8.14736E+01-4.15129E+01 1.55864E+01
 -1      6402 8.14736E+01-4.15129E+01 1.73182E+01
 -1      6403 7.91894E+01-4.57200E+01 1.73182E+00
 -1      6404 7.91894E+01-4.57200E+01 3.46364E+00
 -1      6405 7.91894E+01-4.57200E+01 5.19545E+00
 -1      6406 7.91894E+01-4.57200E+01 6.92727E+00
 -1      6407 7.91894E+01-4.57200E+01 8.65909E+00
 -1      6408 7.91894E+01-4.57200E+01 1.03909E+01
 -1      6409 7.91894E+01-4.57200E+01 1.21227E+01
 -1      6410 7.91894E+01-4.57200E+01 1.38545E+01
 -1      6411 7.91894E+01-4.57200E+01 1.55864E+01
 -1      6412 7.91894E+01-4.57200E+01 1.73182E+01
 -1      6413 7.66880E+01-4.98018E+01 1.73182E+00
 -1      6414 7.66880E+01-4.98018E+01 3.46364E+00
 -1      6415 7.66880E+01-4.98018E+01 5.19545E+00
 -1      6416 7.66880E+01-4.98018E+01 6.92727E+00
 -1      6417 7.66880E+01-4.98018E+01 8.65909E+00
 -1      6418 7.66880E+01-4.98018E+01 1.03909E+01
 -1      6419 7.66880E+01-4.98018E+01 1.21227E+01
 -1      6420 7.66880E+01-4.98018E+01 1.38545E+01
 -1      6421 7.66880E+01-4.98018E+01 1.55864E+01
 -1      6422 7.66880E+01-4.98018E+01 1.73182E+01
 -1      6423 7.39765E+01-5.37471E+01 1.73182E+00
 -1      6424 7.39765E+01-5.37471E+01 3.46364E+00
 -1      6425 7.39765E+01-5.37471E+01 5.19545E+00
 -1      6426 7.39765E+01-5.37471E+01 6.92727E+00
 -1      6427 7.39765E+01-5.37471E+01 8.65909E+00
 -1      6428 7.39765E+01-5.37471E+01 1.03909E+01
 -1      6429 7.39765E+01-5.37471E+01 1.21227E+01
 -1      6430 7.39765E+01-5.37471E+01 1.38545E+01
 -1      6431 7.39765E+01-5.37471E+01 1.55864E+01
 -1      6432 7.39765E+01-5.37471E+01 1.73182E+01
 -1      6433 7.10622E+01-5.75451E+01 1.73182E+00
 -1      6434 7.10622E+01-5.75451E+01 3.46364E+00
 -1      6435 7.10622E+01-5.75451E+01 5.19545E+00
 -1      6436 7.10622E+01-5.75451E+01 6.92727E+00
 -1      6437 7.10622E+01-5.75451E+01 8.65909E+00
 -1      6438 7.10622E+01-5.75451E+01 1.03909E+01
 -1      6439 7.10622E+01-5.75451E+01 1.21227E+01
 -1      6440 7.10622E+01-5.75451E+01 1.38545E+01
 -1      6441 7.10622E+01-5.75451E+01 1.55864E+01
 -1      6442 7.10622E+01-5.75451E+01 1.73182E+01
 -1      6443 6.79532E+01-6.11853E+01 1.73182E+00
 -1      6444 6.79532E+01-6.11853E+01 3.46364E+00
 -1      6445 6.79532E+01-6.11853E+01 5.19545E+00
 -1      6446 6.79532E+01-6.11853E+01 6.92727E+00
 -1      6447 6.79532E+01-6.11853E+01 8.65909E+00
 -1      6448 6.79532E+01-6.11853E+01 1.03909E+01
 -1      6449 6.79532E+01-6.11853E+01 1.21227E+01
 -1      6450 6.79532E+01-6.11853E+01 1.38545E+01
 -1      6451 6.79532E+01-6.11853E+01 1.55864E+01
 -1      6452 6.79532E+01-6.11853E+01 1.73182E+01
 -1      6453 6.46578E+01-6.46578E+01 1.73182E+00
 -1      6454 6.46578E+01-6.46578E+01 3.46364E+00
 -1      6455 6.46578E+01-6.46578E+01 5.19545E+00
 -1      6456 6.46578E+01-6.46578E+01 6.92727E+00
 -1      6457 6.46578E+01-6.46578E+01 8.65909E+00
 -1      6458 6.46578E+01-6.46578E+01 1.03909E+01
 -1      6459 6.46578E+01-6.46578E+01 1.21227E+01
 -1      6460 6.46578E+01-6.46578E+01 1.38545E+01
 -1      6461 6.46578E+01-6.46578E+01 1.55864E+01
 -1      6462 6.46578E+01-6.46578E+01 1.73182E+01
 -1      6463 6.11853E+01-6.79532E+01 1.73182E+00
 -1      6464 6.11853E+01-6.79532E+01 3.46364E+00
 -1      6465 6.11853E+01-6.79532E+01 5.19545E+00
 -1      6466 6.11853E+01-6.79532E+01 6.92727E+00
 -1      6467 6.11853E+01-6.79532E+01 8.65909E+00
 -1      6468 6.11853E+01-6.79532E+01 1.03909E+01
 -1      6469 6.11853E+01-6.79532E+01 1.21227E+01
 -1      6470 6.11853E+01-6.79532E+01 1.38545E+01
 -1      6471 6.11853E+01-6.79532E+01 1.55864E+01
 -1      6472 6.11853E+01-6.79532E+01 1.73182E+01
 -1      6473 5.75451E+01-7.10622E+01 1.73182E+00
 -1      6474 5.75451E+01-7.10622E+01 3.46364E+00
 -1      6475 5.75451E+01-7.10622E+01 5.19545E+00
 -1      6476 5.75451E+01-7.10622E+01 6.92727E+00
 -1      6477 5.75451E+01-7.10622E+01 8.65909E+00
 -1      6478 5.75451E+01-7.10622E+01 1.03909E+01
 -1      6479 5.75451E+01-7.10622E+01 1.21227E+01
 -1      6480 5.75451E+01-7.10622E+01 1.38545E+01
 -1      6481 5.75451E+01-7.10622E+01 1.55864E+01
 -1      6482 5.75451E+01-7.10622E+01 1.73182E+01
 -1      6483 5.37471E+01-7.39765E+01 1.73182E+00
 -1      6484 5.37471E+01-7.39765E+01 3.46364E+00
 -1      6485 5.37471E+01-7.39765E+01 5.19545E+00
 -1      6486 5.37471E+01-7.39765E+01 6.92727E+00
 -1      6487 5.37471E+01-7.39765E+01 8.65909E+00
 -1      6488 5.37471E+01-7.39765E+01 1.03909E+01
 -1      6489 5.37471E+01-7.39765E+01 1.21227E+01
 -1      6490 5.37471E+01-7.39765E+01 1.38545E+01
 -1      6491 5.37471E+01-7.39765E+01 1.55864E+01
 -1      6492 5.37471E+01-7.39765E+01 1.73182E+01
 -1      6493 4.98018E+01-7.66880E+01 1.73182E+00
 -1      6494 4.98018E+01-7.66880E+01 3.46364E+00
 -1      6495 4.98018E+01-7.66880E+01 5.19545E+00
 -1      6496 4.98018E+01-7.66880E+01 6.92727E+00
 -1      6497 4.98018E+01-7.66880E+01 8.65909E+00
 -1      6498 4.98018E+01-7.66880E+01 1.03909E+01
 -1      6499 4.98018E+01-7.66880E+01 1.21227E+01
 -1      6500 4.98018E+01-7.66880E+01 1.38545E+01
 -1      6501 4.98018E+01-7.66880E+01 1.55864E+01
 -1      6502 4.98018E+01-7.66880E+01 1.73182E+01
 -1      6503 4.57200E+01-7.91894E+01 1.73182E+00
 -1      6504 4.57200E+01-7.91894E+01 3.46364E+00
 -1      6505 4.57200E+01-7.91894E+01 5.19545E+00
 -1      6506 4.57200E+01-7.91894E+01 6.92727E+00
 -1      6507 4.57200E+01-7.91894E+01 8.65909E+00
 -1      6508 4.57200E+01-7.91894E+01 1.03909E+01
 -1      6509 4.57200E+01-7.91894E+01 1.21227E+01
 -1      6510 4.57200E+01-7.91894E+01 1.38545E+01
 -1      6511 4.57200E+01-7.91894E+01 1.55864E+01
 -1      6512 4.57200E+01-7.91894E+01 1.73182E+01
 -1      6513 4.15129E+01-8.14736E+01 1.73182E+00
 -1      6514 4.15129E+01-8.14736E+01 3.46364E+00
 -1      6515 4.15129E+01-8.14736E+01 5.19545E+00
 -1      6516 4.15129E+01-8.14736E+01 6.92727E+00
 -1      6517 4.15129E+01-8.14736E+01 8.65909E+00
 -1      6518 4.15129E+01-8.14736E+01 1.03909E+01
 -1      6519 4.15129E+01-8.14736E+01 1.21227E+01
 -1      6520 4.15129E+01-8.14736E+01 1.38545E+01
 -1      6521 4.15129E+01-8.14736E+01 1.55864E+01
 -1      6522 4.15129E+01-8.14736E+01 1.73182E+01
 -1      6523 3.71920E+01-8.35346E+01 1.73182E+00
 -1      6524 3.71920E+01-8.35346E+01 3.46364E+00
 -1      6525 3.71920E+01-8.35346E+01 5.19545E+00
 -1      6526 3.71920E+01-8.35346E+01 6.92727E+00
 -1      6527 3.71920E+01-8.35346E+01 8.65909E+00
 -1      6528 3.71920E+01-8.35346E+01 1.03909E+01
 -1      6529 3.71920E+01-8.35346E+01 1.21227E+01
 -1      6530 3.71920E+01-8.35346E+01 1.38545E+01
 -1      6531 3.71920E+01-8.35346E+01 1.55864E+01
 -1      6532 3.71920E+01-8.35346E+01 1.73182E+01
 -1      6533 3.27692E+01-8.53666E+01 1.73182E+00
 -1      6534 3.27692E+01-8.53666E+01 3.46364E+00
 -1      6535 3.27692E+01-8.53666E+01 5.19545E+00
 -1      6536 3.27692E+01-8.53666E+01 6.92727E+00
 -1      6537 3.27692E+01-8.53666E+01 8.65909E+00
 -1      6538 3.27692E+01-8.53666E+01 1.03909E+01
 -1      6539 3.27692E+01-8.53666E+01 1.21227E+01
 -1      6540 3.27692E+01-8.53666E+01 1.38545E+01
 -1      6541 3.27692E+01-8.53666E+01 1.55864E+01
 -1      6542 3.27692E+01-8.53666E+01 1.73182E+01
 -1      6543 2.82565E+01-8.69646E+01 1.73182E+00
 -1      6544 2.82565E+01-8.69646E+01 3.46364E+00
 -1      6545 2.82565E+01-8.69646E+01 5.19545E+00
 -1      6546 2.82565E+01-8.69646E+01 6.92727E+00
 -1      6547 2.82565E+01-8.69646E+01 8.65909E+00
 -1      6548 2.82565E+01-8.69646E+01 1.03909E+01
 -1      6549 2.82565E+01-8.69646E+01 1.21227E+01
 -1      6550 2.82565E+01-8.69646E+01 1.38545E+01
 -1      6551 2.82565E+01-8.69646E+01 1.55864E+01
 -1      6552 2.82565E+01-8.69646E+01 1.73182E+01
 -1      6553 2.36664E+01-8.83243E+01 1.73182E+00
 -1      6554 2.36664E+01-8.83243E+01 3.46364E+00
 -1      6555 2.36664E+01-8.83243E+01 5.19545E+00
 -1      6556 2.36664E+01-8.83243E+01 6.92727E+00
 -1      6557 2.36664E+01-8.83243E+01 8.65909E+00
 -1      6558 2.36664E+01-8.83243E+01 1.03909E+01
 -1      6559 2.36664E+01-8.83243E+01 1.21227E+01
 -1      6560 2.36664E+01-8.83243E+01 1.38545E+01
 -1      6561 2.36664E+01-8.83243E+01 1.55864E+01
 -1      6562 2.36664E+01-8.83243E+01 1.73182E+01
 -1      6563 1.90114E+01-8.94418E+01 1.73182E+00
 -1      6564 1.90114E+01-8.94418E+01 3.46364E+00
 -1      6565 1.90114E+01-8.94418E+01 5.19545E+00
 -1      6566 1.90114E+01-8.94418E+01 6.92727E+00
 -1      6567 1.90114E+01-8.94418E+01 8.65909E+00
 -1      6568 1.90114E+01-8.94418E+01 1.03909E+01
 -1      6569 1.90114E+01-8.94418E+01 1.21227E+01
 -1      6570 1.90114E+01-8.94418E+01 1.38545E+01
 -1      6571 1.90114E+01-8.94418E+01 1.55864E+01
 -1      6572 1.90114E+01-8.94418E+01 1.73182E+01
 -1      6573 1.43044E+01-9.03142E+01 1.73182E+00
 -1      6574 1.43044E+01-9.03142E+01 3.46364E+00
 -1      6575 1.43044E+01-9.03142E+01 5.19545E+00
 -1      6576 1.43044E+01-9.03142E+01 6.92727E+00
 -1      6577 1.43044E+01-9.03142E+01 8.65909E+00
 -1      6578 1.43044E+01-9.03142E+01 1.03909E+01
 -1      6579 1.43044E+01-9.03142E+01 1.21227E+01
 -1      6580 1.43044E+01-9.03142E+01 1.38545E+01
 -1      6581 1.43044E+01-9.03142E+01 1.55864E+01
 -1      6582 1.43044E+01-9.03142E+01 1.73182E+01
 -1      6583 9.55808E+00-9.09391E+01 1.73182E+00
 -1      6584 9.55808E+00-9.09391E+01 3.46364E+00
 -1      6585 9.55808E+00-9.09391E+01 5.19545E+00
 -1      6586 9.55808E+00-9.09391E+01 6.92727E+00
 -1      6587 9.55808E+00-9.09391E+01 8.65909E+00
 -1      6588 9.55808E+00-9.09391E+01 1.03909E+01
 -1      6589 9.55808E+00-9.09391E+01 1.21227E+01
 -1      6590 9.55808E+00-9.09391E+01 1.38545E+01
 -1      6591 9.55808E+00-9.09391E+01 1.55864E+01
 -1      6592 9.55808E+00-9.09391E+01 1.73182E+01
 -1      6593 4.78560E+00-9.13147E+01 1.73182E+00
 -1      6594 4.78560E+00-9.13147E+01 3.46364E+00
 -1      6595 4.78560E+00-9.13147E+01 5.19545E+00
 -1      6596 4.78560E+00-9.13147E+01 6.92727E+00
 -1      6597 4.78560E+00-9.13147E+01 8.65909E+00
 -1      6598 4.78560E+00-9.13147E+01 1.03909E+01
 -1      6599 4.78560E+00-9.13147E+01 1.21227E+01
 -1      6600 4.78560E+00-9.13147E+01 1.38545E+01
 -1      6601 4.78560E+00-9.13147E+01 1.55864E+01
 -1      6602 4.78560E+00-9.13147E+01 1.73182E+01
 -1      6603 9.46967E+01-4.96284E+00 1.73182E+00
 -1      6604 9.46967E+01-4.96284E+00 3.46364E+00
 -1      6605 9.46967E+01-4.96284E+00 5.19545E+00
 -1      6606 9.46967E+01-4.96284E+00 6.92727E+00
 -1      6607 9.46967E+01-4.96284E+00 8.65909E+00
 -1      6608 9.46967E+01-4.96284E+00 1.03909E+01
 -1      6609 9.46967E+01-4.96284E+00 1.21227E+01
 -1      6610 9.46967E+01-4.96284E+00 1.38545E+01
 -1      6611 9.46967E+01-4.96284E+00 1.55864E+01
 -1      6612 9.46967E+01-4.96284E+00 1.73182E+01
 -1      6613 9.43072E+01-9.91209E+00 1.73182E+00
 -1      6614 9.43072E+01-9.91209E+00 3.46364E+00
 -1      6615 9.43072E+01-9.91209E+00 5.19545E+00
 -1      6616 9.43072E+01-9.91209E+00 6.92727E+00
 -1      6617 9.43072E+01-9.91209E+00 8.65909E+00
 -1      6618 9.43072E+01-9.91209E+00 1.03909E+01
 -1      6619 9.43072E+01-9.91209E+00 1.21227E+01
 -1      6620 9.43072E+01-9.91209E+00 1.38545E+01
 -1      6621 9.43072E+01-9.91209E+00 1.55864E+01
 -1      6622 9.43072E+01-9.91209E+00 1.73182E+01
 -1      6623 9.36592E+01-1.48342E+01 1.73182E+00
 -1      6624 9.36592E+01-1.48342E+01 3.46364E+00
 -1      6625 9.36592E+01-1.48342E+01 5.19545E+00
 -1      6626 9.36592E+01-1.48342E+01 6.92727E+00
 -1      6627 9.36592E+01-1.48342E+01 8.65909E+00
 -1      6628 9.36592E+01-1.48342E+01 1.03909E+01
 -1      6629 9.36592E+01-1.48342E+01 1.21227E+01
 -1      6630 9.36592E+01-1.48342E+01 1.38545E+01
 -1      6631 9.36592E+01-1.48342E+01 1.55864E+01
 -1      6632 9.36592E+01-1.48342E+01 1.73182E+01
 -1      6633 9.27545E+01-1.97156E+01 1.73182E+00
 -1      6634 9.27545E+01-1.97156E+01 3.46364E+00
 -1      6635 9.27545E+01-1.97156E+01 5.19545E+00
 -1      6636 9.27545E+01-1.97156E+01 6.92727E+00
 -1      6637 9.27545E+01-1.97156E+01 8.65909E+00
 -1      6638 9.27545E+01-1.97156E+01 1.03909E+01
 -1      6639 9.27545E+01-1.97156E+01 1.21227E+01
 -1      6640 9.27545E+01-1.97156E+01 1.38545E+01
 -1      6641 9.27545E+01-1.97156E+01 1.55864E+01
 -1      6642 9.27545E+01-1.97156E+01 1.73182E+01
 -1      6643 9.15955E+01-2.45429E+01 1.73182E+00
 -1      6644 9.15955E+01-2.45429E+01 3.46364E+00
 -1      6645 9.15955E+01-2.45429E+01 5.19545E+00
 -1      6646 9.15955E+01-2.45429E+01 6.92727E+00
 -1      6647 9.15955E+01-2.45429E+01 8.65909E+00
 -1      6648 9.15955E+01-2.45429E+01 1.03909E+01
 -1      6649 9.15955E+01-2.45429E+01 1.21227E+01
 -1      6650 9.15955E+01-2.45429E+01 1.38545E+01
 -1      6651 9.15955E+01-2.45429E+01 1.55864E+01
 -1      6652 9.15955E+01-2.45429E+01 1.73182E+01
 -1      6653 9.01855E+01-2.93031E+01 1.73182E+00
 -1      6654 9.01855E+01-2.93031E+01 3.46364E+00
 -1      6655 9.01855E+01-2.93031E+01 5.19545E+00
 -1      6656 9.01855E+01-2.93031E+01 6.92727E+00
 -1      6657 9.01855E+01-2.93031E+01 8.65909E+00
 -1      6658 9.01855E+01-2.93031E+01 1.03909E+01
 -1      6659 9.01855E+01-2.93031E+01 1.21227E+01
 -1      6660 9.01855E+01-2.93031E+01 1.38545E+01
 -1      6661 9.01855E+01-2.93031E+01 1.55864E+01
 -1      6662 9.01855E+01-2.93031E+01 1.73182E+01
 -1      6663 8.85283E+01-3.39828E+01 1.73182E+00
 -1      6664 8.85283E+01-3.39828E+01 3.46364E+00
 -1      6665 8.85283E+01-3.39828E+01 5.19545E+00
 -1      6666 8.85283E+01-3.39828E+01 6.92727E+00
 -1      6667 8.85283E+01-3.39828E+01 8.65909E+00
 -1      6668 8.85283E+01-3.39828E+01 1.03909E+01
 -1      6669 8.85283E+01-3.39828E+01 1.21227E+01
 -1      6670 8.85283E+01-3.39828E+01 1.38545E+01
 -1      6671 8.85283E+01-3.39828E+01 1.55864E+01
 -1      6672 8.85283E+01-3.39828E+01 1.73182E+01
 -1      6673 8.66285E+01-3.85695E+01 1.73182E+00
 -1      6674 8.66285E+01-3.85695E+01 3.46364E+00
 -1      6675 8.66285E+01-3.85695E+01 5.19545E+00
 -1      6676 8.66285E+01-3.85695E+01 6.92727E+00
 -1      6677 8.66285E+01-3.85695E+01 8.65909E+00
 -1      6678 8.66285E+01-3.85695E+01 1.03909E+01
 -1      6679 8.66285E+01-3.85695E+01 1.21227E+01
 -1      6680 8.66285E+01-3.85695E+01 1.38545E+01
 -1      6681 8.66285E+01-3.85695E+01 1.55864E+01
 -1      6682 8.66285E+01-3.85695E+01 1.73182E+01
 -1      6683 8.44912E+01-4.30504E+01 1.73182E+00
 -1      6684 8.44912E+01-4.30504E+01 3.46364E+00
 -1      6685 8.44912E+01-4.30504E+01 5.19545E+00
 -1      6686 8.44912E+01-4.30504E+01 6.92727E+00
 -1      6687 8.44912E+01-4.30504E+01 8.65909E+00
 -1      6688 8.44912E+01-4.30504E+01 1.03909E+01
 -1      6689 8.44912E+01-4.30504E+01 1.21227E+01
 -1      6690 8.44912E+01-4.30504E+01 1.38545E+01
 -1      6691 8.44912E+01-4.30504E+01 1.55864E+01
 -1      6692 8.44912E+01-4.30504E+01 1.73182E+01
 -1      6693 8.21223E+01-4.74133E+01 1.73182E+00
 -1      6694 8.21223E+01-4.74133E+01 3.46364E+00
 -1      6695 8.21223E+01-4.74133E+01 5.19545E+00
 -1      6696 8.21223E+01-4.74133E+01 6.92727E+00
 -1      6697 8.21223E+01-4.74133E+01 8.65909E+00
 -1      6698 8.21223E+01-4.74133E+01 1.03909E+01
 -1      6699 8.21223E+01-4.74133E+01 1.21227E+01
 -1      6700 8.21223E+01-4.74133E+01 1.38545E+01
 -1      6701 8.21223E+01-4.74133E+01 1.55864E+01
 -1      6702 8.21223E+01-4.74133E+01 1.73182E+01
 -1      6703 7.95283E+01-5.16463E+01 1.73182E+00
 -1      6704 7.95283E+01-5.16463E+01 3.46364E+00
 -1      6705 7.95283E+01-5.16463E+01 5.19545E+00
 -1      6706 7.95283E+01-5.16463E+01 6.92727E+00
 -1      6707 7.95283E+01-5.16463E+01 8.65909E+00
 -1      6708 7.95283E+01-5.16463E+01 1.03909E+01
 -1      6709 7.95283E+01-5.16463E+01 1.21227E+01
 -1      6710 7.95283E+01-5.16463E+01 1.38545E+01
 -1      6711 7.95283E+01-5.16463E+01 1.55864E+01
 -1      6712 7.95283E+01-5.16463E+01 1.73182E+01
 -1      6713 7.67164E+01-5.57377E+01 1.73182E+00
 -1      6714 7.67164E+01-5.57377E+01 3.46364E+00
 -1      6715 7.67164E+01-5.57377E+01 5.19545E+00
 -1      6716 7.67164E+01-5.57377E+01 6.92727E+00
 -1      6717 7.67164E+01-5.57377E+01 8.65909E+00
 -1      6718 7.67164E+01-5.57377E+01 1.03909E+01
 -1      6719 7.67164E+01-5.57377E+01 1.21227E+01
 -1      6720 7.67164E+01-5.57377E+01 1.38545E+01
 -1      6721 7.67164E+01-5.57377E+01 1.55864E+01
 -1      6722 7.67164E+01-5.57377E+01 1.73182E+01
 -1      6723 7.36942E+01-5.96764E+01 1.73182E+00
 -1      6724 7.36942E+01-5.96764E+01 3.46364E+00
 -1      6725 7.36942E+01-5.96764E+01 5.19545E+00
 -1      6726 7.36942E+01-5.96764E+01 6.92727E+00
 -1      6727 7.36942E+01-5.96764E+01 8.65909E+00
 -1      6728 7.36942E+01-5.96764E+01 1.03909E+01
 -1      6729 7.36942E+01-5.96764E+01 1.21227E+01
 -1      6730 7.36942E+01-5.96764E+01 1.38545E+01
 -1      6731 7.36942E+01-5.96764E+01 1.55864E+01
 -1      6732 7.36942E+01-5.96764E+01 1.73182E+01
 -1      6733 7.04699E+01-6.34514E+01 1.73182E+00
 -1      6734 7.04699E+01-6.34514E+01 3.46364E+00
 -1      6735 7.04699E+01-6.34514E+01 5.19545E+00
 -1      6736 7.04699E+01-6.34514E+01 6.92727E+00
 -1      6737 7.04699E+01-6.34514E+01 8.65909E+00
 -1      6738 7.04699E+01-6.34514E+01 1.03909E+01
 -1      6739 7.04699E+01-6.34514E+01 1.21227E+01
 -1      6740 7.04699E+01-6.34514E+01 1.38545E+01
 -1      6741 7.04699E+01-6.34514E+01 1.55864E+01
 -1      6742 7.04699E+01-6.34514E+01 1.73182E+01
 -1      6743 6.70526E+01-6.70526E+01 1.73182E+00
 -1      6744 6.70526E+01-6.70526E+01 3.46364E+00
 -1      6745 6.70526E+01-6.70526E+01 5.19545E+00
 -1      6746 6.70526E+01-6.70526E+01 6.92727E+00
 -1      6747 6.70526E+01-6.70526E+01 8.65909E+00
 -1      6748 6.70526E+01-6.70526E+01 1.03909E+01
 -1      6749 6.70526E+01-6.70526E+01 1.21227E+01
 -1      6750 6.70526E+01-6.70526E+01 1.38545E+01
 -1      6751 6.70526E+01-6.70526E+01 1.55864E+01
 -1      6752 6.70526E+01-6.70526E+01 1.73182E+01
 -1      6753 6.34514E+01-7.04699E+01 1.73182E+00
 -1      6754 6.34514E+01-7.04699E+01 3.46364E+00
 -1      6755 6.34514E+01-7.04699E+01 5.19545E+00
 -1      6756 6.34514E+01-7.04699E+01 6.92727E+00
 -1      6757 6.34514E+01-7.04699E+01 8.65909E+00
 -1      6758 6.34514E+01-7.04699E+01 1.03909E+01
 -1      6759 6.34514E+01-7.04699E+01 1.21227E+01
 -1      6760 6.34514E+01-7.04699E+01 1.38545E+01
 -1      6761 6.34514E+01-7.04699E+01 1.55864E+01
 -1      6762 6.34514E+01-7.04699E+01 1.73182E+01
 -1      6763 5.96764E+01-7.36942E+01 1.73182E+00
 -1      6764 5.96764E+01-7.36942E+01 3.46364E+00
 -1      6765 5.96764E+01-7.36942E+01 5.19545E+00
 -1      6766 5.96764E+01-7.36942E+01 6.92727E+00
 -1      6767 5.96764E+01-7.36942E+01 8.65909E+00
 -1      6768 5.96764E+01-7.36942E+01 1.03909E+01
 -1      6769 5.96764E+01-7.36942E+01 1.21227E+01
 -1      6770 5.96764E+01-7.36942E+01 1.38545E+01
 -1      6771 5.96764E+01-7.36942E+01 1.55864E+01
 -1      6772 5.96764E+01-7.36942E+01 1.73182E+01
 -1      6773 5.57377E+01-7.67164E+01 1.73182E+00
 -1      6774 5.57377E+01-7.67164E+01 3.46364E+00
 -1      6775 5.57377E+01-7.67164E+01 5.19545E+00
 -1      6776 5.57377E+01-7.67164E+01 6.92727E+00
 -1      6777 5.57377E+01-7.67164E+01 8.65909E+00
 -1      6778 5.57377E+01-7.67164E+01 1.03909E+01
 -1      6779 5.57377E+01-7.67164E+01 1.21227E+01
 -1      6780 5.57377E+01-7.67164E+01 1.38545E+01
 -1      6781 5.57377E+01-7.67164E+01 1.55864E+01
 -1      6782 5.57377E+01-7.67164E+01 1.73182E+01
 -1      6783 5.16463E+01-7.95283E+01 1.73182E+00
 -1      6784 5.16463E+01-7.95283E+01 3.46364E+00
 -1      6785 5.16463E+01-7.95283E+01 5.19545E+00
 -1      6786 5.16463E+01-7.95283E+01 6.92727E+00
 -1      6787 5.16463E+01-7.95283E+01 8.65909E+00
 -1      6788 5.16463E+01-7.95283E+01 1.03909E+01
 -1      6789 5.16463E+01-7.95283E+01 1.21227E+01
 -1      6790 5.16463E+01-7.95283E+01 1.38545E+01
 -1      6791 5.16463E+01-7.95283E+01 1.55864E+01
 -1      6792 5.16463E+01-7.95283E+01 1.73182E+01
 -1      6793 4.74133E+01-8.21223E+01 1.73182E+00
 -1      6794 4.74133E+01-8.21223E+01 3.46364E+00
 -1      6795 4.74133E+01-8.21223E+01 5.19545E+00
 -1      6796 4.74133E+01-8.21223E+01 6.92727E+00
 -1      6797 4.74133E+01-8.21223E+01 8.65909E+00
 -1      6798 4.74133E+01-8.21223E+01 1.03909E+01
 -1      6799 4.74133E+01-8.21223E+01 1.21227E+01
 -1      6800 4.74133E+01-8.21223E+01 1.38545E+01
 -1      6801 4.74133E+01-8.21223E+01 1.55864E+01
 -1      6802 4.74133E+01-8.21223E+01 1.73182E+01
 -1      6803 4.30504E+01-8.44912E+01 1.73182E+00
 -1      6804 4.30504E+01-8.44912E+01 3.46364E+00
 -1      6805 4.30504E+01-8.44912E+01 5.19545E+00
 -1      6806 4.30504E+01-8.44912E+01 6.92727E+00
 -1      6807 4.30504E+01-8.44912E+01 8.65909E+00
 -1      6808 4.30504E+01-8.44912E+01 1.03909E+01
 -1      6809 4.30504E+01-8.44912E+01 1.21227E+01
 -1      6810 4.30504E+01-8.44912E+01 1.38545E+01
 -1      6811 4.30504E+01-8.44912E+01 1.55864E+01
 -1      6812 4.30504E+01-8.44912E+01 1.73182E+01
 -1      6813 3.85695E+01-8.66285E+01 1.73182E+00
 -1      6814 3.85695E+01-8.66285E+01 3.46364E+00
 -1      6815 3.85695E+01-8.66285E+01 5.19545E+00
 -1      6816 3.85695E+01-8.66285E+01 6.92727E+00
 -1      6817 3.85695E+01-8.66285E+01 8.65909E+00
 -1      6818 3.85695E+01-8.66285E+01 1.03909E+01
 -1      6819 3.85695E+01-8.66285E+01 1.21227E+01
 -1      6820 3.85695E+01-8.66285E+01 1.38545E+01
 -1      6821 3.85695E+01-8.66285E+01 1.55864E+01
 -1      6822 3.85695E+01-8.66285E+01 1.73182E+01
 -1      6823 3.39828E+01-8.85283E+01 1.73182E+00
 -1      6824 3.39828E+01-8.85283E+01 3.46364E+00
 -1      6825 3.39828E+01-8.85283E+01 5.19545E+00
 -1      6826 3.39828E+01-8.85283E+01 6.92727E+00
 -1      6827 3.39828E+01-8.85283E+01 8.65909E+00
 -1      6828 3.39828E+01-8.85283E+01 1.03909E+01
 -1      6829 3.39828E+01-8.85283E+01 1.21227E+01
 -1      6830 3.39828E+01-8.85283E+01 1.38545E+01
 -1      6831 3.39828E+01-8.85283E+01 1.55864E+01
 -1      6832 3.39828E+01-8.85283E+01 1.73182E+01
 -1      6833 2.93031E+01-9.01855E+01 1.73182E+00
 -1      6834 2.93031E+01-9.01855E+01 3.46364E+00
 -1      6835 2.93031E+01-9.01855E+01 5.19545E+00
 -1      6836 2.93031E+01-9.01855E+01 6.92727E+00
 -1      6837 2.93031E+01-9.01855E+01 8.65909E+00
 -1      6838 2.93031E+01-9.01855E+01 1.03909E+01
 -1      6839 2.93031E+01-9.01855E+01 1.21227E+01
 -1      6840 2.93031E+01-9.01855E+01 1.38545E+01
 -1      6841 2.93031E+01-9.01855E+01 1.55864E+01
 -1      6842 2.93031E+01-9.01855E+01 1.73182E+01
 -1      6843 2.45429E+01-9.15955E+01 1.73182E+00
 -1      6844 2.45429E+01-9.15955E+01 3.46364E+00
 -1      6845 2.45429E+01-9.15955E+01 5.19545E+00
 -1      6846 2.45429E+01-9.15955E+01 6.92727E+00
 -1      6847 2.45429E+01-9.15955E+01 8.65909E+00
 -1      6848 2.45429E+01-9.15955E+01 1.03909E+01
 -1      6849 2.45429E+01-9.15955E+01 1.21227E+01
 -1      6850 2.45429E+01-9.15955E+01 1.38545E+01
 -1      6851 2.45429E+01-9.15955E+01 1.55864E+01
 -1      6852 2.45429E+01-9.15955E+01 1.73182E+01
 -1      6853 1.97156E+01-9.27545E+01 1.73182E+00
 -1      6854 1.97156E+01-9.27545E+01 3.46364E+00
 -1      6855 1.97156E+01-9.27545E+01 5.19545E+00
 -1      6856 1.97156E+01-9.27545E+01 6.92727E+00
 -1      6857 1.97156E+01-9.27545E+01 8.65909E+00
 -1      6858 1.97156E+01-9.27545E+01 1.03909E+01
 -1      6859 1.97156E+01-9.27545E+01 1.21227E+01
 -1      6860 1.97156E+01-9.27545E+01 1.38545E+01
 -1      6861 1.97156E+01-9.27545E+01 1.55864E+01
 -1      6862 1.97156E+01-9.27545E+01 1.73182E+01
 -1      6863 1.48342E+01-9.36592E+01 1.73182E+00
 -1      6864 1.48342E+01-9.36592E+01 3.46364E+00
 -1      6865 1.48342E+01-9.36592E+01 5.19545E+00
 -1      6866 1.48342E+01-9.36592E+01 6.92727E+00
 -1      6867 1.48342E+01-9.36592E+01 8.65909E+00
 -1      6868 1.48342E+01-9.36592E+01 1.03909E+01
 -1      6869 1.48342E+01-9.36592E+01 1.21227E+01
 -1      6870 1.48342E+01-9.36592E+01 1.38545E+01
 -1      6871 1.48342E+01-9.36592E+01 1.55864E+01
 -1      6872 1.48342E+01-9.36592E+01 1.73182E+01
 -1      6873 9.91209E+00-9.43072E+01 1.73182E+00
 -1      6874 9.91209E+00-9.43072E+01 3.46364E+00
 -1      6875 9.91209E+00-9.43072E+01 5.19545E+00
 -1      6876 9.91209E+00-9.43072E+01 6.92727E+00
 -1      6877 9.91209E+00-9.43072E+01 8.65909E+00
 -1      6878 9.91209E+00-9.43072E+01 1.03909E+01
 -1      6879 9.91209E+00-9.43072E+01 1.21227E+01
 -1      6880 9.91209E+00-9.43072E+01 1.38545E+01
 -1      6881 9.91209E+00-9.43072E+01 1.55864E+01
 -1      6882 9.91209E+00-9.43072E+01 1.73182E+01
 -1      6883 4.96284E+00-9.46967E+01 1.73182E+00
 -1      6884 4.96284E+00-9.46967E+01 3.46364E+00
 -1      6885 4.96284E+00-9.46967E+01 5.19545E+00
 -1      6886 4.96284E+00-9.46967E+01 6.92727E+00
 -1      6887 4.96284E+00-9.46967E+01 8.65909E+00
 -1      6888 4.96284E+00-9.46967E+01 1.03909E+01
 -1      6889 4.96284E+00-9.46967E+01 1.21227E+01
 -1      6890 4.96284E+00-9.46967E+01 1.38545E+01
 -1      6891 4.96284E+00-9.46967E+01 1.55864E+01
 -1      6892 4.96284E+00-9.46967E+01 1.73182E+01
 -1      6893 9.80787E+01-5.14009E+00 1.73182E+00
 -1      6894 9.80787E+01-5.14009E+00 3.46364E+00
 -1      6895 9.80787E+01-5.14009E+00 5.19545E+00
 -1      6896 9.80787E+01-5.14009E+00 6.92727E+00
 -1      6897 9.80787E+01-5.14009E+00 8.65909E+00
 -1      6898 9.80787E+01-5.14009E+00 1.03909E+01
 -1      6899 9.80787E+01-5.14009E+00 1.21227E+01
 -1      6900 9.80787E+01-5.14009E+00 1.38545E+01
 -1      6901 9.80787E+01-5.14009E+00 1.55864E+01
 -1      6902 9.80787E+01-5.14009E+00 1.73182E+01
 -1      6903 9.76753E+01-1.02661E+01 1.73182E+00
 -1      6904 9.76753E+01-1.02661E+01 3.46364E+00
 -1      6905 9.76753E+01-1.02661E+01 5.19545E+00
 -1      6906 9.76753E+01-1.02661E+01 6.92727E+00
 -1      6907 9.76753E+01-1.02661E+01 8.65909E+00
 -1      6908 9.76753E+01-1.02661E+01 1.03909E+01
 -1      6909 9.76753E+01-1.02661E+01 1.21227E+01
 -1      6910 9.76753E+01-1.02661E+01 1.38545E+01
 -1      6911 9.76753E+01-1.02661E+01 1.55864E+01
 -1      6912 9.76753E+01-1.02661E+01 1.73182E+01
 -1      6913 9.70042E+01-1.53640E+01 1.73182E+00
 -1      6914 9.70042E+01-1.53640E+01 3.46364E+00
 -1      6915 9.70042E+01-1.53640E+01 5.19545E+00
 -1      6916 9.70042E+01-1.53640E+01 6.92727E+00
 -1      6917 9.70042E+01-1.53640E+01 8.65909E+00
 -1      6918 9.70042E+01-1.53640E+01 1.03909E+01
 -1      6919 9.70042E+01-1.53640E+01 1.21227E+01
 -1      6920 9.70042E+01-1.53640E+01 1.38545E+01
 -1      6921 9.70042E+01-1.53640E+01 1.55864E+01
 -1      6922 9.70042E+01-1.53640E+01 1.73182E+01
 -1      6923 9.60671E+01-2.04197E+01 1.73182E+00
 -1      6924 9.60671E+01-2.04197E+01 3.46364E+00
 -1      6925 9.60671E+01-2.04197E+01 5.19545E+00
 -1      6926 9.60671E+01-2.04197E+01 6.92727E+00
 -1      6927 9.60671E+01-2.04197E+01 8.65909E+00
 -1      6928 9.60671E+01-2.04197E+01 1.03909E+01
 -1      6929 9.60671E+01-2.04197E+01 1.21227E+01
 -1      6930 9.60671E+01-2.04197E+01 1.38545E+01
 -1      6931 9.60671E+01-2.04197E+01 1.55864E+01
 -1      6932 9.60671E+01-2.04197E+01 1.73182E+01
 -1      6933 9.48668E+01-2.54195E+01 1.73182E+00
 -1      6934 9.48668E+01-2.54195E+01 3.46364E+00
 -1      6935 9.48668E+01-2.54195E+01 5.19545E+00
 -1      6936 9.48668E+01-2.54195E+01 6.92727E+00
 -1      6937 9.48668E+01-2.54195E+01 8.65909E+00
 -1      6938 9.48668E+01-2.54195E+01 1.03909E+01
 -1      6939 9.48668E+01-2.54195E+01 1.21227E+01
 -1      6940 9.48668E+01-2.54195E+01 1.38545E+01
 -1      6941 9.48668E+01-2.54195E+01 1.55864E+01
 -1      6942 9.48668E+01-2.54195E+01 1.73182E+01
 -1      6943 9.34064E+01-3.03496E+01 1.73182E+00
 -1      6944 9.34064E+01-3.03496E+01 3.46364E+00
 -1      6945 9.34064E+01-3.03496E+01 5.19545E+00
 -1      6946 9.34064E+01-3.03496E+01 6.92727E+00
 -1      6947 9.34064E+01-3.03496E+01 8.65909E+00
 -1      6948 9.34064E+01-3.03496E+01 1.03909E+01
 -1      6949 9.34064E+01-3.03496E+01 1.21227E+01
 -1      6950 9.34064E+01-3.03496E+01 1.38545E+01
 -1      6951 9.34064E+01-3.03496E+01 1.55864E+01
 -1      6952 9.34064E+01-3.03496E+01 1.73182E+01
 -1      6953 9.16900E+01-3.51965E+01 1.73182E+00
 -1      6954 9.16900E+01-3.51965E+01 3.46364E+00
 -1      6955 9.16900E+01-3.51965E+01 5.19545E+00
 -1      6956 9.16900E+01-3.51965E+01 6.92727E+00
 -1      6957 9.16900E+01-3.51965E+01 8.65909E+00
 -1      6958 9.16900E+01-3.51965E+01 1.03909E+01
 -1      6959 9.16900E+01-3.51965E+01 1.21227E+01
 -1      6960 9.16900E+01-3.51965E+01 1.38545E+01
 -1      6961 9.16900E+01-3.51965E+01 1.55864E+01
 -1      6962 9.16900E+01-3.51965E+01 1.73182E+01
 -1      6963 8.97223E+01-3.99470E+01 1.73182E+00
 -1      6964 8.97223E+01-3.99470E+01 3.46364E+00
 -1      6965 8.97223E+01-3.99470E+01 5.19545E+00
 -1      6966 8.97223E+01-3.99470E+01 6.92727E+00
 -1      6967 8.97223E+01-3.99470E+01 8.65909E+00
 -1      6968 8.97223E+01-3.99470E+01 1.03909E+01
 -1      6969 8.97223E+01-3.99470E+01 1.21227E+01
 -1      6970 8.97223E+01-3.99470E+01 1.38545E+01
 -1      6971 8.97223E+01-3.99470E+01 1.55864E+01
 -1      6972 8.97223E+01-3.99470E+01 1.73182E+01
 -1      6973 8.75087E+01-4.45879E+01 1.73182E+00
 -1      6974 8.75087E+01-4.45879E+01 3.46364E+00
 -1      6975 8.75087E+01-4.45879E+01 5.19545E+00
 -1      6976 8.75087E+01-4.45879E+01 6.92727E+00
 -1      6977 8.75087E+01-4.45879E+01 8.65909E+00
 -1      6978 8.75087E+01-4.45879E+01 1.03909E+01
 -1      6979 8.75087E+01-4.45879E+01 1.21227E+01
 -1      6980 8.75087E+01-4.45879E+01 1.38545E+01
 -1      6981 8.75087E+01-4.45879E+01 1.55864E+01
 -1      6982 8.75087E+01-4.45879E+01 1.73182E+01
 -1      6983 8.50552E+01-4.91067E+01 1.73182E+00
 -1      6984 8.50552E+01-4.91067E+01 3.46364E+00
 -1      6985 8.50552E+01-4.91067E+01 5.19545E+00
 -1      6986 8.50552E+01-4.91067E+01 6.92727E+00
 -1      6987 8.50552E+01-4.91067E+01 8.65909E+00
 -1      6988 8.50552E+01-4.91067E+01 1.03909E+01
 -1      6989 8.50552E+01-4.91067E+01 1.21227E+01
 -1      6990 8.50552E+01-4.91067E+01 1.38545E+01
 -1      6991 8.50552E+01-4.91067E+01 1.55864E+01
 -1      6992 8.50552E+01-4.91067E+01 1.73182E+01
 -1      6993 8.23686E+01-5.34908E+01 1.73182E+00
 -1      6994 8.23686E+01-5.34908E+01 3.46364E+00
 -1      6995 8.23686E+01-5.34908E+01 5.19545E+00
 -1      6996 8.23686E+01-5.34908E+01 6.92727E+00
 -1      6997 8.23686E+01-5.34908E+01 8.65909E+00
 -1      6998 8.23686E+01-5.34908E+01 1.03909E+01
 -1      6999 8.23686E+01-5.34908E+01 1.21227E+01
 -1      7000 8.23686E+01-5.34908E+01 1.38545E+01
 -1      7001 8.23686E+01-5.34908E+01 1.55864E+01
 -1      7002 8.23686E+01-5.34908E+01 1.73182E+01
 -1      7003 7.94563E+01-5.77283E+01 1.73182E+00
 -1      7004 7.94563E+01-5.77283E+01 3.46364E+00
 -1      7005 7.94563E+01-5.77283E+01 5.19545E+00
 -1      7006 7.94563E+01-5.77283E+01 6.92727E+00
 -1      7007 7.94563E+01-5.77283E+01 8.65909E+00
 -1      7008 7.94563E+01-5.77283E+01 1.03909E+01
 -1      7009 7.94563E+01-5.77283E+01 1.21227E+01
 -1      7010 7.94563E+01-5.77283E+01 1.38545E+01
 -1      7011 7.94563E+01-5.77283E+01 1.55864E+01
 -1      7012 7.94563E+01-5.77283E+01 1.73182E+01
 -1      7013 7.63261E+01-6.18077E+01 1.73182E+00
 -1      7014 7.63261E+01-6.18077E+01 3.46364E+00
 -1      7015 7.63261E+01-6.18077E+01 5.19545E+00
 -1      7016 7.63261E+01-6.18077E+01 6.92727E+00
 -1      7017 7.63261E+01-6.18077E+01 8.65909E+00
 -1      7018 7.63261E+01-6.18077E+01 1.03909E+01
 -1      7019 7.63261E+01-6.18077E+01 1.21227E+01
 -1      7020 7.63261E+01-6.18077E+01 1.38545E+01
 -1      7021 7.63261E+01-6.18077E+01 1.55864E+01
 -1      7022 7.63261E+01-6.18077E+01 1.73182E+01
 -1      7023 7.29867E+01-6.57175E+01 1.73182E+00
 -1      7024 7.29867E+01-6.57175E+01 3.46364E+00
 -1      7025 7.29867E+01-6.57175E+01 5.19545E+00
 -1      7026 7.29867E+01-6.57175E+01 6.92727E+00
 -1      7027 7.29867E+01-6.57175E+01 8.65909E+00
 -1      7028 7.29867E+01-6.57175E+01 1.03909E+01
 -1      7029 7.29867E+01-6.57175E+01 1.21227E+01
 -1      7030 7.29867E+01-6.57175E+01 1.38545E+01
 -1      7031 7.29867E+01-6.57175E+01 1.55864E+01
 -1      7032 7.29867E+01-6.57175E+01 1.73182E+01
 -1      7033 6.94473E+01-6.94473E+01 1.73182E+00
 -1      7034 6.94473E+01-6.94473E+01 3.46364E+00
 -1      7035 6.94473E+01-6.94473E+01 5.19545E+00
 -1      7036 6.94473E+01-6.94473E+01 6.92727E+00
 -1      7037 6.94473E+01-6.94473E+01 8.65909E+00
 -1      7038 6.94473E+01-6.94473E+01 1.03909E+01
 -1      7039 6.94473E+01-6.94473E+01 1.21227E+01
 -1      7040 6.94473E+01-6.94473E+01 1.38545E+01
 -1      7041 6.94473E+01-6.94473E+01 1.55864E+01
 -1      7042 6.94473E+01-6.94473E+01 1.73182E+01
 -1      7043 6.57175E+01-7.29867E+01 1.73182E+00
 -1      7044 6.57175E+01-7.29867E+01 3.46364E+00
 -1      7045 6.57175E+01-7.29867E+01 5.19545E+00
 -1      7046 6.57175E+01-7.29867E+01 6.92727E+00
 -1      7047 6.57175E+01-7.29867E+01 8.65909E+00
 -1      7048 6.57175E+01-7.29867E+01 1.03909E+01
 -1      7049 6.57175E+01-7.29867E+01 1.21227E+01
 -1      7050 6.57175E+01-7.29867E+01 1.38545E+01
 -1      7051 6.57175E+01-7.29867E+01 1.55864E+01
 -1      7052 6.57175E+01-7.29867E+01 1.73182E+01
 -1      7053 6.18077E+01-7.63261E+01 1.73182E+00
 -1      7054 6.18077E+01-7.63261E+01 3.46364E+00
 -1      7055 6.18077E+01-7.63261E+01 5.19545E+00
 -1      7056 6.18077E+01-7.63261E+01 6.92727E+00
 -1      7057 6.18077E+01-7.63261E+01 8.65909E+00
 -1      7058 6.18077E+01-7.63261E+01 1.03909E+01
 -1      7059 6.18077E+01-7.63261E+01 1.21227E+01
 -1      7060 6.18077E+01-7.63261E+01 1.38545E+01
 -1      7061 6.18077E+01-7.63261E+01 1.55864E+01
 -1      7062 6.18077E+01-7.63261E+01 1.73182E+01
 -1      7063 5.77283E+01-7.94563E+01 1.73182E+00
 -1      7064 5.77283E+01-7.94563E+01 3.46364E+00
 -1      7065 5.77283E+01-7.94563E+01 5.19545E+00
 -1      7066 5.77283E+01-7.94563E+01 6.92727E+00
 -1      7067 5.77283E+01-7.94563E+01 8.65909E+00
 -1      7068 5.77283E+01-7.94563E+01 1.03909E+01
 -1      7069 5.77283E+01-7.94563E+01 1.21227E+01
 -1      7070 5.77283E+01-7.94563E+01 1.38545E+01
 -1      7071 5.77283E+01-7.94563E+01 1.55864E+01
 -1      7072 5.77283E+01-7.94563E+01 1.73182E+01
 -1      7073 5.34908E+01-8.23686E+01 1.73182E+00
 -1      7074 5.34908E+01-8.23686E+01 3.46364E+00
 -1      7075 5.34908E+01-8.23686E+01 5.19545E+00
 -1      7076 5.34908E+01-8.23686E+01 6.92727E+00
 -1      7077 5.34908E+01-8.23686E+01 8.65909E+00
 -1      7078 5.34908E+01-8.23686E+01 1.03909E+01
 -1      7079 5.34908E+01-8.23686E+01 1.21227E+01
 -1      7080 5.34908E+01-8.23686E+01 1.38545E+01
 -1      7081 5.34908E+01-8.23686E+01 1.55864E+01
 -1      7082 5.34908E+01-8.23686E+01 1.73182E+01
 -1      7083 4.91067E+01-8.50552E+01 1.73182E+00
 -1      7084 4.91067E+01-8.50552E+01 3.46364E+00
 -1      7085 4.91067E+01-8.50552E+01 5.19545E+00
 -1      7086 4.91067E+01-8.50552E+01 6.92727E+00
 -1      7087 4.91067E+01-8.50552E+01 8.65909E+00
 -1      7088 4.91067E+01-8.50552E+01 1.03909E+01
 -1      7089 4.91067E+01-8.50552E+01 1.21227E+01
 -1      7090 4.91067E+01-8.50552E+01 1.38545E+01
 -1      7091 4.91067E+01-8.50552E+01 1.55864E+01
 -1      7092 4.91067E+01-8.50552E+01 1.73182E+01
 -1      7093 4.45879E+01-8.75087E+01 1.73182E+00
 -1      7094 4.45879E+01-8.75087E+01 3.46364E+00
 -1      7095 4.45879E+01-8.75087E+01 5.19545E+00
 -1      7096 4.45879E+01-8.75087E+01 6.92727E+00
 -1      7097 4.45879E+01-8.75087E+01 8.65909E+00
 -1      7098 4.45879E+01-8.75087E+01 1.03909E+01
 -1      7099 4.45879E+01-8.75087E+01 1.21227E+01
 -1      7100 4.45879E+01-8.75087E+01 1.38545E+01
 -1      7101 4.45879E+01-8.75087E+01 1.55864E+01
 -1      7102 4.45879E+01-8.75087E+01 1.73182E+01
 -1      7103 3.99470E+01-8.97223E+01 1.73182E+00
 -1      7104 3.99470E+01-8.97223E+01 3.46364E+00
 -1      7105 3.99470E+01-8.97223E+01 5.19545E+00
 -1      7106 3.99470E+01-8.97223E+01 6.92727E+00
 -1      7107 3.99470E+01-8.97223E+01 8.65909E+00
 -1      7108 3.99470E+01-8.97223E+01 1.03909E+01
 -1      7109 3.99470E+01-8.97223E+01 1.21227E+01
 -1      7110 3.99470E+01-8.97223E+01 1.38545E+01
 -1      7111 3.99470E+01-8.97223E+01 1.55864E+01
 -1      7112 3.99470E+01-8.97223E+01 1.73182E+01
 -1      7113 3.51965E+01-9.16900E+01 1.73182E+00
 -1      7114 3.51965E+01-9.16900E+01 3.46364E+00
 -1      7115 3.51965E+01-9.16900E+01 5.19545E+00
 -1      7116 3.51965E+01-9.16900E+01 6.92727E+00
 -1      7117 3.51965E+01-9.16900E+01 8.65909E+00
 -1      7118 3.51965E+01-9.16900E+01 1.03909E+01
 -1      7119 3.51965E+01-9.16900E+01 1.21227E+01
 -1      7120 3.51965E+01-9.16900E+01 1.38545E+01
 -1      7121 3.51965E+01-9.16900E+01 1.55864E+01
 -1      7122 3.51965E+01-9.16900E+01 1.73182E+01
 -1      7123 3.03496E+01-9.34064E+01 1.73182E+00
 -1      7124 3.03496E+01-9.34064E+01 3.46364E+00
 -1      7125 3.03496E+01-9.34064E+01 5.19545E+00
 -1      7126 3.03496E+01-9.34064E+01 6.92727E+00
 -1      7127 3.03496E+01-9.34064E+01 8.65909E+00
 -1      7128 3.03496E+01-9.34064E+01 1.03909E+01
 -1      7129 3.03496E+01-9.34064E+01 1.21227E+01
 -1      7130 3.03496E+01-9.34064E+01 1.38545E+01
 -1      7131 3.03496E+01-9.34064E+01 1.55864E+01
 -1      7132 3.03496E+01-9.34064E+01 1.73182E+01
 -1      7133 2.54195E+01-9.48668E+01 1.73182E+00
 -1      7134 2.54195E+01-9.48668E+01 3.46364E+00
 -1      7135 2.54195E+01-9.48668E+01 5.19545E+00
 -1      7136 2.54195E+01-9.48668E+01 6.92727E+00
 -1      7137 2.54195E+01-9.48668E+01 8.65909E+00
 -1      7138 2.54195E+01-9.48668E+01 1.03909E+01
 -1      7139 2.54195E+01-9.48668E+01 1.21227E+01
 -1      7140 2.54195E+01-9.48668E+01 1.38545E+01
 -1      7141 2.54195E+01-9.48668E+01 1.55864E+01
 -1      7142 2.54195E+01-9.48668E+01 1.73182E+01
 -1      7143 2.04197E+01-9.60671E+01 1.73182E+00
 -1      7144 2.04197E+01-9.60671E+01 3.46364E+00
 -1      7145 2.04197E+01-9.60671E+01 5.19545E+00
 -1      7146 2.04197E+01-9.60671E+01 6.92727E+00
 -1      7147 2.04197E+01-9.60671E+01 8.65909E+00
 -1      7148 2.04197E+01-9.60671E+01 1.03909E+01
 -1      7149 2.04197E+01-9.60671E+01 1.21227E+01
 -1      7150 2.04197E+01-9.60671E+01 1.38545E+01
 -1      7151 2.04197E+01-9.60671E+01 1.55864E+01
 -1      7152 2.04197E+01-9.60671E+01 1.73182E+01
 -1      7153 1.53639E+01-9.70042E+01 1.73182E+00
 -1      7154 1.53639E+01-9.70042E+01 3.46364E+00
 -1      7155 1.53639E+01-9.70042E+01 5.19545E+00
 -1      7156 1.53639E+01-9.70042E+01 6.92727E+00
 -1      7157 1.53639E+01-9.70042E+01 8.65909E+00
 -1      7158 1.53639E+01-9.70042E+01 1.03909E+01
 -1      7159 1.53639E+01-9.70042E+01 1.21227E+01
 -1      7160 1.53639E+01-9.70042E+01 1.38545E+01
 -1      7161 1.53639E+01-9.70042E+01 1.55864E+01
 -1      7162 1.53639E+01-9.70042E+01 1.73182E+01
 -1      7163 1.02661E+01-9.76753E+01 1.73182E+00
 -1      7164 1.02661E+01-9.76753E+01 3.46364E+00
 -1      7165 1.02661E+01-9.76753E+01 5.19545E+00
 -1      7166 1.02661E+01-9.76753E+01 6.92727E+00
 -1      7167 1.02661E+01-9.76753E+01 8.65909E+00
 -1      7168 1.02661E+01-9.76753E+01 1.03909E+01
 -1      7169 1.02661E+01-9.76753E+01 1.21227E+01
 -1      7170 1.02661E+01-9.76753E+01 1.38545E+01
 -1      7171 1.02661E+01-9.76753E+01 1.55864E+01
 -1      7172 1.02661E+01-9.76753E+01 1.73182E+01
 -1      7173 5.14009E+00-9.80787E+01 1.73182E+00
 -1      7174 5.14009E+00-9.80787E+01 3.46364E+00
 -1      7175 5.14009E+00-9.80787E+01 5.19545E+00
 -1      7176 5.14009E+00-9.80787E+01 6.92727E+00
 -1      7177 5.14009E+00-9.80787E+01 8.65909E+00
 -1      7178 5.14009E+00-9.80787E+01 1.03909E+01
 -1      7179 5.14009E+00-9.80787E+01 1.21227E+01
 -1      7180 5.14009E+00-9.80787E+01 1.38545E+01
 -1      7181 5.14009E+00-9.80787E+01 1.55864E+01
 -1      7182 5.14009E+00-9.80787E+01 1.73182E+01
 -1      7183 1.01461E+02-5.31733E+00 1.73182E+00
 -1      7184 1.01461E+02-5.31733E+00 3.46364E+00
 -1      7185 1.01461E+02-5.31733E+00 5.19545E+00
 -1      7186 1.01461E+02-5.31733E+00 6.92727E+00
 -1      7187 1.01461E+02-5.31733E+00 8.65909E+00
 -1      7188 1.01461E+02-5.31733E+00 1.03909E+01
 -1      7189 1.01461E+02-5.31733E+00 1.21227E+01
 -1      7190 1.01461E+02-5.31733E+00 1.38545E+01
 -1      7191 1.01461E+02-5.31733E+00 1.55864E+01
 -1      7192 1.01461E+02-5.31733E+00 1.73182E+01
 -1      7193 1.01043E+02-1.06201E+01 1.73182E+00
 -1      7194 1.01043E+02-1.06201E+01 3.46364E+00
 -1      7195 1.01043E+02-1.06201E+01 5.19545E+00
 -1      7196 1.01043E+02-1.06201E+01 6.92727E+00
 -1      7197 1.01043E+02-1.06201E+01 8.65909E+00
 -1      7198 1.01043E+02-1.06201E+01 1.03909E+01
 -1      7199 1.01043E+02-1.06201E+01 1.21227E+01
 -1      7200 1.01043E+02-1.06201E+01 1.38545E+01
 -1      7201 1.01043E+02-1.06201E+01 1.55864E+01
 -1      7202 1.01043E+02-1.06201E+01 1.73182E+01
 -1      7203 1.00349E+02-1.58937E+01 1.73182E+00
 -1      7204 1.00349E+02-1.58937E+01 3.46364E+00
 -1      7205 1.00349E+02-1.58937E+01 5.19545E+00
 -1      7206 1.00349E+02-1.58937E+01 6.92727E+00
 -1      7207 1.00349E+02-1.58937E+01 8.65909E+00
 -1      7208 1.00349E+02-1.58937E+01 1.03909E+01
 -1      7209 1.00349E+02-1.58937E+01 1.21227E+01
 -1      7210 1.00349E+02-1.58937E+01 1.38545E+01
 -1      7211 1.00349E+02-1.58937E+01 1.55864E+01
 -1      7212 1.00349E+02-1.58937E+01 1.73182E+01
 -1      7213 9.93798E+01-2.11238E+01 1.73182E+00
 -1      7214 9.93798E+01-2.11238E+01 3.46364E+00
 -1      7215 9.93798E+01-2.11238E+01 5.19545E+00
 -1      7216 9.93798E+01-2.11238E+01 6.92727E+00
 -1      7217 9.93798E+01-2.11238E+01 8.65909E+00
 -1      7218 9.93798E+01-2.11238E+01 1.03909E+01
 -1      7219 9.93798E+01-2.11238E+01 1.21227E+01
 -1      7220 9.93798E+01-2.11238E+01 1.38545E+01
 -1      7221 9.93798E+01-2.11238E+01 1.55864E+01
 -1      7222 9.93798E+01-2.11238E+01 1.73182E+01
 -1      7223 9.81381E+01-2.62960E+01 1.73182E+00
 -1      7224 9.81381E+01-2.62960E+01 3.46364E+00
 -1      7225 9.81381E+01-2.62960E+01 5.19545E+00
 -1      7226 9.81381E+01-2.62960E+01 6.92727E+00
 -1      7227 9.81381E+01-2.62960E+01 8.65909E+00
 -1      7228 9.81381E+01-2.62960E+01 1.03909E+01
 -1      7229 9.81381E+01-2.62960E+01 1.21227E+01
 -1      7230 9.81381E+01-2.62960E+01 1.38545E+01
 -1      7231 9.81381E+01-2.62960E+01 1.55864E+01
 -1      7232 9.81381E+01-2.62960E+01 1.73182E+01
 -1      7233 9.66273E+01-3.13961E+01 1.73182E+00
 -1      7234 9.66273E+01-3.13961E+01 3.46364E+00
 -1      7235 9.66273E+01-3.13961E+01 5.19545E+00
 -1      7236 9.66273E+01-3.13961E+01 6.92727E+00
 -1      7237 9.66273E+01-3.13961E+01 8.65909E+00
 -1      7238 9.66273E+01-3.13961E+01 1.03909E+01
 -1      7239 9.66273E+01-3.13961E+01 1.21227E+01
 -1      7240 9.66273E+01-3.13961E+01 1.38545E+01
 -1      7241 9.66273E+01-3.13961E+01 1.55864E+01
 -1      7242 9.66273E+01-3.13961E+01 1.73182E+01
 -1      7243 9.48518E+01-3.64102E+01 1.73182E+00
 -1      7244 9.48518E+01-3.64102E+01 3.46364E+00
 -1      7245 9.48518E+01-3.64102E+01 5.19545E+00
 -1      7246 9.48518E+01-3.64102E+01 6.92727E+00
 -1      7247 9.48518E+01-3.64102E+01 8.65909E+00
 -1      7248 9.48518E+01-3.64102E+01 1.03909E+01
 -1      7249 9.48518E+01-3.64102E+01 1.21227E+01
 -1      7250 9.48518E+01-3.64102E+01 1.38545E+01
 -1      7251 9.48518E+01-3.64102E+01 1.55864E+01
 -1      7252 9.48518E+01-3.64102E+01 1.73182E+01
 -1      7253 9.28162E+01-4.13244E+01 1.73182E+00
 -1      7254 9.28162E+01-4.13244E+01 3.46364E+00
 -1      7255 9.28162E+01-4.13244E+01 5.19545E+00
 -1      7256 9.28162E+01-4.13244E+01 6.92727E+00
 -1      7257 9.28162E+01-4.13244E+01 8.65909E+00
 -1      7258 9.28162E+01-4.13244E+01 1.03909E+01
 -1      7259 9.28162E+01-4.13244E+01 1.21227E+01
 -1      7260 9.28162E+01-4.13244E+01 1.38545E+01
 -1      7261 9.28162E+01-4.13244E+01 1.55864E+01
 -1      7262 9.28162E+01-4.13244E+01 1.73182E+01
 -1      7263 9.05263E+01-4.61254E+01 1.73182E+00
 -1      7264 9.05263E+01-4.61254E+01 3.46364E+00
 -1      7265 9.05263E+01-4.61254E+01 5.19545E+00
 -1      7266 9.05263E+01-4.61254E+01 6.92727E+00
 -1      7267 9.05263E+01-4.61254E+01 8.65909E+00
 -1      7268 9.05263E+01-4.61254E+01 1.03909E+01
 -1      7269 9.05263E+01-4.61254E+01 1.21227E+01
 -1      7270 9.05263E+01-4.61254E+01 1.38545E+01
 -1      7271 9.05263E+01-4.61254E+01 1.55864E+01
 -1      7272 9.05263E+01-4.61254E+01 1.73182E+01
 -1      7273 8.79882E+01-5.08000E+01 1.73182E+00
 -1      7274 8.79882E+01-5.08000E+01 3.46364E+00
 -1      7275 8.79882E+01-5.08000E+01 5.19545E+00
 -1      7276 8.79882E+01-5.08000E+01 6.92727E+00
 -1      7277 8.79882E+01-5.08000E+01 8.65909E+00
 -1      7278 8.79882E+01-5.08000E+01 1.03909E+01
 -1      7279 8.79882E+01-5.08000E+01 1.21227E+01
 -1      7280 8.79882E+01-5.08000E+01 1.38545E+01
 -1      7281 8.79882E+01-5.08000E+01 1.55864E+01
 -1      7282 8.79882E+01-5.08000E+01 1.73182E+01
 -1      7283 8.52089E+01-5.53353E+01 1.73182E+00
 -1      7284 8.52089E+01-5.53353E+01 3.46364E+00
 -1      7285 8.52089E+01-5.53353E+01 5.19545E+00
 -1      7286 8.52089E+01-5.53353E+01 6.92727E+00
 -1      7287 8.52089E+01-5.53353E+01 8.65909E+00
 -1      7288 8.52089E+01-5.53353E+01 1.03909E+01
 -1      7289 8.52089E+01-5.53353E+01 1.21227E+01
 -1      7290 8.52089E+01-5.53353E+01 1.38545E+01
 -1      7291 8.52089E+01-5.53353E+01 1.55864E+01
 -1      7292 8.52089E+01-5.53353E+01 1.73182E+01
 -1      7293 8.21961E+01-5.97190E+01 1.73182E+00
 -1      7294 8.21961E+01-5.97190E+01 3.46364E+00
 -1      7295 8.21961E+01-5.97190E+01 5.19545E+00
 -1      7296 8.21961E+01-5.97190E+01 6.92727E+00
 -1      7297 8.21961E+01-5.97190E+01 8.65909E+00
 -1      7298 8.21961E+01-5.97190E+01 1.03909E+01
 -1      7299 8.21961E+01-5.97190E+01 1.21227E+01
 -1      7300 8.21961E+01-5.97190E+01 1.38545E+01
 -1      7301 8.21961E+01-5.97190E+01 1.55864E+01
 -1      7302 8.21961E+01-5.97190E+01 1.73182E+01
 -1      7303 7.89580E+01-6.39390E+01 1.73182E+00
 -1      7304 7.89580E+01-6.39390E+01 3.46364E+00
 -1      7305 7.89580E+01-6.39390E+01 5.19545E+00
 -1      7306 7.89580E+01-6.39390E+01 6.92727E+00
 -1      7307 7.89580E+01-6.39390E+01 8.65909E+00
 -1      7308 7.89580E+01-6.39390E+01 1.03909E+01
 -1      7309 7.89580E+01-6.39390E+01 1.21227E+01
 -1      7310 7.89580E+01-6.39390E+01 1.38545E+01
 -1      7311 7.89580E+01-6.39390E+01 1.55864E+01
 -1      7312 7.89580E+01-6.39390E+01 1.73182E+01
 -1      7313 7.55035E+01-6.79837E+01 1.73182E+00
 -1      7314 7.55035E+01-6.79837E+01 3.46364E+00
 -1      7315 7.55035E+01-6.79837E+01 5.19545E+00
 -1      7316 7.55035E+01-6.79837E+01 6.92727E+00
 -1      7317 7.55035E+01-6.79837E+01 8.65909E+00
 -1      7318 7.55035E+01-6.79837E+01 1.03909E+01
 -1      7319 7.55035E+01-6.79837E+01 1.21227E+01
 -1      7320 7.55035E+01-6.79837E+01 1.38545E+01
 -1      7321 7.55035E+01-6.79837E+01 1.55864E+01
 -1      7322 7.55035E+01-6.79837E+01 1.73182E+01
 -1      7323 7.18420E+01-7.18420E+01 1.73182E+00
 -1      7324 7.18420E+01-7.18420E+01 3.46364E+00
 -1      7325 7.18420E+01-7.18420E+01 5.19545E+00
 -1      7326 7.18420E+01-7.18420E+01 6.92727E+00
 -1      7327 7.18420E+01-7.18420E+01 8.65909E+00
 -1      7328 7.18420E+01-7.18420E+01 1.03909E+01
 -1      7329 7.18420E+01-7.18420E+01 1.21227E+01
 -1      7330 7.18420E+01-7.18420E+01 1.38545E+01
 -1      7331 7.18420E+01-7.18420E+01 1.55864E+01
 -1      7332 7.18420E+01-7.18420E+01 1.73182E+01
 -1      7333 6.79837E+01-7.55035E+01 1.73182E+00
 -1      7334 6.79837E+01-7.55035E+01 3.46364E+00
 -1      7335 6.79837E+01-7.55035E+01 5.19545E+00
 -1      7336 6.79837E+01-7.55035E+01 6.92727E+00
 -1      7337 6.79837E+01-7.55035E+01 8.65909E+00
 -1      7338 6.79837E+01-7.55035E+01 1.03909E+01
 -1      7339 6.79837E+01-7.55035E+01 1.21227E+01
 -1      7340 6.79837E+01-7.55035E+01 1.38545E+01
 -1      7341 6.79837E+01-7.55035E+01 1.55864E+01
 -1      7342 6.79837E+01-7.55035E+01 1.73182E+01
 -1      7343 6.39390E+01-7.89580E+01 1.73182E+00
 -1      7344 6.39390E+01-7.89580E+01 3.46364E+00
 -1      7345 6.39390E+01-7.89580E+01 5.19545E+00
 -1      7346 6.39390E+01-7.89580E+01 6.92727E+00
 -1      7347 6.39390E+01-7.89580E+01 8.65909E+00
 -1      7348 6.39390E+01-7.89580E+01 1.03909E+01
 -1      7349 6.39390E+01-7.89580E+01 1.21227E+01
 -1      7350 6.39390E+01-7.89580E+01 1.38545E+01
 -1      7351 6.39390E+01-7.89580E+01 1.55864E+01
 -1      7352 6.39390E+01-7.89580E+01 1.73182E+01
 -1      7353 5.97190E+01-8.21961E+01 1.73182E+00
 -1      7354 5.97190E+01-8.21961E+01 3.46364E+00
 -1      7355 5.97190E+01-8.21961E+01 5.19545E+00
 -1      7356 5.97190E+01-8.21961E+01 6.92727E+00
 -1      7357 5.97190E+01-8.21961E+01 8.65909E+00
 -1      7358 5.97190E+01-8.21961E+01 1.03909E+01
 -1      7359 5.97190E+01-8.21961E+01 1.21227E+01
 -1      7360 5.97190E+01-8.21961E+01 1.38545E+01
 -1      7361 5.97190E+01-8.21961E+01 1.55864E+01
 -1      7362 5.97190E+01-8.21961E+01 1.73182E+01
 -1      7363 5.53353E+01-8.52089E+01 1.73182E+00
 -1      7364 5.53353E+01-8.52089E+01 3.46364E+00
 -1      7365 5.53353E+01-8.52089E+01 5.19545E+00
 -1      7366 5.53353E+01-8.52089E+01 6.92727E+00
 -1      7367 5.53353E+01-8.52089E+01 8.65909E+00
 -1      7368 5.53353E+01-8.52089E+01 1.03909E+01
 -1      7369 5.53353E+01-8.52089E+01 1.21227E+01
 -1      7370 5.53353E+01-8.52089E+01 1.38545E+01
 -1      7371 5.53353E+01-8.52089E+01 1.55864E+01
 -1      7372 5.53353E+01-8.52089E+01 1.73182E+01
 -1      7373 5.08000E+01-8.79882E+01 1.73182E+00
 -1      7374 5.08000E+01-8.79882E+01 3.46364E+00
 -1      7375 5.08000E+01-8.79882E+01 5.19545E+00
 -1      7376 5.08000E+01-8.79882E+01 6.92727E+00
 -1      7377 5.08000E+01-8.79882E+01 8.65909E+00
 -1      7378 5.08000E+01-8.79882E+01 1.03909E+01
 -1      7379 5.08000E+01-8.79882E+01 1.21227E+01
 -1      7380 5.08000E+01-8.79882E+01 1.38545E+01
 -1      7381 5.08000E+01-8.79882E+01 1.55864E+01
 -1      7382 5.08000E+01-8.79882E+01 1.73182E+01
 -1      7383 4.61254E+01-9.05263E+01 1.73182E+00
 -1      7384 4.61254E+01-9.05263E+01 3.46364E+00
 -1      7385 4.61254E+01-9.05263E+01 5.19545E+00
 -1      7386 4.61254E+01-9.05263E+01 6.92727E+00
 -1      7387 4.61254E+01-9.05263E+01 8.65909E+00
 -1      7388 4.61254E+01-9.05263E+01 1.03909E+01
 -1      7389 4.61254E+01-9.05263E+01 1.21227E+01
 -1      7390 4.61254E+01-9.05263E+01 1.38545E+01
 -1      7391 4.61254E+01-9.05263E+01 1.55864E+01
 -1      7392 4.61254E+01-9.05263E+01 1.73182E+01
 -1      7393 4.13244E+01-9.28162E+01 1.73182E+00
 -1      7394 4.13244E+01-9.28162E+01 3.46364E+00
 -1      7395 4.13244E+01-9.28162E+01 5.19545E+00
 -1      7396 4.13244E+01-9.28162E+01 6.92727E+00
 -1      7397 4.13244E+01-9.28162E+01 8.65909E+00
 -1      7398 4.13244E+01-9.28162E+01 1.03909E+01
 -1      7399 4.13244E+01-9.28162E+01 1.21227E+01
 -1      7400 4.13244E+01-9.28162E+01 1.38545E+01
 -1      7401 4.13244E+01-9.28162E+01 1.55864E+01
 -1      7402 4.13244E+01-9.28162E+01 1.73182E+01
 -1      7403 3.64102E+01-9.48518E+01 1.73182E+00
 -1      7404 3.64102E+01-9.48518E+01 3.46364E+00
 -1      7405 3.64102E+01-9.48518E+01 5.19545E+00
 -1      7406 3.64102E+01-9.48518E+01 6.92727E+00
 -1      7407 3.64102E+01-9.48518E+01 8.65909E+00
 -1      7408 3.64102E+01-9.48518E+01 1.03909E+01
 -1      7409 3.64102E+01-9.48518E+01 1.21227E+01
 -1      7410 3.64102E+01-9.48518E+01 1.38545E+01
 -1      7411 3.64102E+01-9.48518E+01 1.55864E+01
 -1      7412 3.64102E+01-9.48518E+01 1.73182E+01
 -1      7413 3.13961E+01-9.66273E+01 1.73182E+00
 -1      7414 3.13961E+01-9.66273E+01 3.46364E+00
 -1      7415 3.13961E+01-9.66273E+01 5.19545E+00
 -1      7416 3.13961E+01-9.66273E+01 6.92727E+00
 -1      7417 3.13961E+01-9.66273E+01 8.65909E+00
 -1      7418 3.13961E+01-9.66273E+01 1.03909E+01
 -1      7419 3.13961E+01-9.66273E+01 1.21227E+01
 -1      7420 3.13961E+01-9.66273E+01 1.38545E+01
 -1      7421 3.13961E+01-9.66273E+01 1.55864E+01
 -1      7422 3.13961E+01-9.66273E+01 1.73182E+01
 -1      7423 2.62960E+01-9.81381E+01 1.73182E+00
 -1      7424 2.62960E+01-9.81381E+01 3.46364E+00
 -1      7425 2.62960E+01-9.81381E+01 5.19545E+00
 -1      7426 2.62960E+01-9.81381E+01 6.92727E+00
 -1      7427 2.62960E+01-9.81381E+01 8.65909E+00
 -1      7428 2.62960E+01-9.81381E+01 1.03909E+01
 -1      7429 2.62960E+01-9.81381E+01 1.21227E+01
 -1      7430 2.62960E+01-9.81381E+01 1.38545E+01
 -1      7431 2.62960E+01-9.81381E+01 1.55864E+01
 -1      7432 2.62960E+01-9.81381E+01 1.73182E+01
 -1      7433 2.11238E+01-9.93798E+01 1.73182E+00
 -1      7434 2.11238E+01-9.93798E+01 3.46364E+00
 -1      7435 2.11238E+01-9.93798E+01 5.19545E+00
 -1      7436 2.11238E+01-9.93798E+01 6.92727E+00
 -1      7437 2.11238E+01-9.93798E+01 8.65909E+00
 -1      7438 2.11238E+01-9.93798E+01 1.03909E+01
 -1      7439 2.11238E+01-9.93798E+01 1.21227E+01
 -1      7440 2.11238E+01-9.93798E+01 1.38545E+01
 -1      7441 2.11238E+01-9.93798E+01 1.55864E+01
 -1      7442 2.11238E+01-9.93798E+01 1.73182E+01
 -1      7443 1.58937E+01-1.00349E+02 1.73182E+00
 -1      7444 1.58937E+01-1.00349E+02 3.46364E+00
 -1      7445 1.58937E+01-1.00349E+02 5.19545E+00
 -1      7446 1.58937E+01-1.00349E+02 6.92727E+00
 -1      7447 1.58937E+01-1.00349E+02 8.65909E+00
 -1      7448 1.58937E+01-1.00349E+02 1.03909E+01
 -1      7449 1.58937E+01-1.00349E+02 1.21227E+01
 -1      7450 1.58937E+01-1.00349E+02 1.38545E+01
 -1      7451 1.58937E+01-1.00349E+02 1.55864E+01
 -1      7452 1.58937E+01-1.00349E+02 1.73182E+01
 -1      7453 1.06201E+01-1.01043E+02 1.73182E+00
 -1      7454 1.06201E+01-1.01043E+02 3.46364E+00
 -1      7455 1.06201E+01-1.01043E+02 5.19545E+00
 -1      7456 1.06201E+01-1.01043E+02 6.92727E+00
 -1      7457 1.06201E+01-1.01043E+02 8.65909E+00
 -1      7458 1.06201E+01-1.01043E+02 1.03909E+01
 -1      7459 1.06201E+01-1.01043E+02 1.21227E+01
 -1      7460 1.06201E+01-1.01043E+02 1.38545E+01
 -1      7461 1.06201E+01-1.01043E+02 1.55864E+01
 -1      7462 1.06201E+01-1.01043E+02 1.73182E+01
 -1      7463 5.31733E+00-1.01461E+02 1.73182E+00
 -1      7464 5.31733E+00-1.01461E+02 3.46364E+00
 -1      7465 5.31733E+00-1.01461E+02 5.19545E+00
 -1      7466 5.31733E+00-1.01461E+02 6.92727E+00
 -1      7467 5.31733E+00-1.01461E+02 8.65909E+00
 -1      7468 5.31733E+00-1.01461E+02 1.03909E+01
 -1      7469 5.31733E+00-1.01461E+02 1.21227E+01
 -1      7470 5.31733E+00-1.01461E+02 1.38545E+01
 -1      7471 5.31733E+00-1.01461E+02 1.55864E+01
 -1      7472 5.31733E+00-1.01461E+02 1.73182E+01
 -1      7473 1.04843E+02-5.49458E+00 1.73182E+00
 -1      7474 1.04843E+02-5.49458E+00 3.46364E+00
 -1      7475 1.04843E+02-5.49458E+00 5.19545E+00
 -1      7476 1.04843E+02-5.49458E+00 6.92727E+00
 -1      7477 1.04843E+02-5.49458E+00 8.65909E+00
 -1      7478 1.04843E+02-5.49458E+00 1.03909E+01
 -1      7479 1.04843E+02-5.49458E+00 1.21227E+01
 -1      7480 1.04843E+02-5.49458E+00 1.38545E+01
 -1      7481 1.04843E+02-5.49458E+00 1.55864E+01
 -1      7482 1.04843E+02-5.49458E+00 1.73182E+01
 -1      7483 1.04412E+02-1.09741E+01 1.73182E+00
 -1      7484 1.04412E+02-1.09741E+01 3.46364E+00
 -1      7485 1.04412E+02-1.09741E+01 5.19545E+00
 -1      7486 1.04412E+02-1.09741E+01 6.92727E+00
 -1      7487 1.04412E+02-1.09741E+01 8.65909E+00
 -1      7488 1.04412E+02-1.09741E+01 1.03909E+01
 -1      7489 1.04412E+02-1.09741E+01 1.21227E+01
 -1      7490 1.04412E+02-1.09741E+01 1.38545E+01
 -1      7491 1.04412E+02-1.09741E+01 1.55864E+01
 -1      7492 1.04412E+02-1.09741E+01 1.73182E+01
 -1      7493 1.03694E+02-1.64235E+01 1.73182E+00
 -1      7494 1.03694E+02-1.64235E+01 3.46364E+00
 -1      7495 1.03694E+02-1.64235E+01 5.19545E+00
 -1      7496 1.03694E+02-1.64235E+01 6.92727E+00
 -1      7497 1.03694E+02-1.64235E+01 8.65909E+00
 -1      7498 1.03694E+02-1.64235E+01 1.03909E+01
 -1      7499 1.03694E+02-1.64235E+01 1.21227E+01
 -1      7500 1.03694E+02-1.64235E+01 1.38545E+01
 -1      7501 1.03694E+02-1.64235E+01 1.55864E+01
 -1      7502 1.03694E+02-1.64235E+01 1.73182E+01
 -1      7503 1.02692E+02-2.18280E+01 1.73182E+00
 -1      7504 1.02692E+02-2.18280E+01 3.46364E+00
 -1      7505 1.02692E+02-2.18280E+01 5.19545E+00
 -1      7506 1.02692E+02-2.18280E+01 6.92727E+00
 -1      7507 1.02692E+02-2.18280E+01 8.65909E+00
 -1      7508 1.02692E+02-2.18280E+01 1.03909E+01
 -1      7509 1.02692E+02-2.18280E+01 1.21227E+01
 -1      7510 1.02692E+02-2.18280E+01 1.38545E+01
 -1      7511 1.02692E+02-2.18280E+01 1.55864E+01
 -1      7512 1.02692E+02-2.18280E+01 1.73182E+01
 -1      7513 1.01409E+02-2.71725E+01 1.73182E+00
 -1      7514 1.01409E+02-2.71725E+01 3.46364E+00
 -1      7515 1.01409E+02-2.71725E+01 5.19545E+00
 -1      7516 1.01409E+02-2.71725E+01 6.92727E+00
 -1      7517 1.01409E+02-2.71725E+01 8.65909E+00
 -1      7518 1.01409E+02-2.71725E+01 1.03909E+01
 -1      7519 1.01409E+02-2.71725E+01 1.21227E+01
 -1      7520 1.01409E+02-2.71725E+01 1.38545E+01
 -1      7521 1.01409E+02-2.71725E+01 1.55864E+01
 -1      7522 1.01409E+02-2.71725E+01 1.73182E+01
 -1      7523 9.98483E+01-3.24427E+01 1.73182E+00
 -1      7524 9.98483E+01-3.24427E+01 3.46364E+00
 -1      7525 9.98483E+01-3.24427E+01 5.19545E+00
 -1      7526 9.98483E+01-3.24427E+01 6.92727E+00
 -1      7527 9.98483E+01-3.24427E+01 8.65909E+00
 -1      7528 9.98483E+01-3.24427E+01 1.03909E+01
 -1      7529 9.98483E+01-3.24427E+01 1.21227E+01
 -1      7530 9.98483E+01-3.24427E+01 1.38545E+01
 -1      7531 9.98483E+01-3.24427E+01 1.55864E+01
 -1      7532 9.98483E+01-3.24427E+01 1.73182E+01
 -1      7533 9.80135E+01-3.76239E+01 1.73182E+00
 -1      7534 9.80135E+01-3.76239E+01 3.46364E+00
 -1      7535 9.80135E+01-3.76239E+01 5.19545E+00
 -1      7536 9.80135E+01-3.76239E+01 6.92727E+00
 -1      7537 9.80135E+01-3.76239E+01 8.65909E+00
 -1      7538 9.80135E+01-3.76239E+01 1.03909E+01
 -1      7539 9.80135E+01-3.76239E+01 1.21227E+01
 -1      7540 9.80135E+01-3.76239E+01 1.38545E+01
 -1      7541 9.80135E+01-3.76239E+01 1.55864E+01
 -1      7542 9.80135E+01-3.76239E+01 1.73182E+01
 -1      7543 9.59101E+01-4.27019E+01 1.73182E+00
 -1      7544 9.59101E+01-4.27019E+01 3.46364E+00
 -1      7545 9.59101E+01-4.27019E+01 5.19545E+00
 -1      7546 9.59101E+01-4.27019E+01 6.92727E+00
 -1      7547 9.59101E+01-4.27019E+01 8.65909E+00
 -1      7548 9.59101E+01-4.27019E+01 1.03909E+01
 -1      7549 9.59101E+01-4.27019E+01 1.21227E+01
 -1      7550 9.59101E+01-4.27019E+01 1.38545E+01
 -1      7551 9.59101E+01-4.27019E+01 1.55864E+01
 -1      7552 9.59101E+01-4.27019E+01 1.73182E+01
 -1      7553 9.35438E+01-4.76629E+01 1.73182E+00
 -1      7554 9.35438E+01-4.76629E+01 3.46364E+00
 -1      7555 9.35438E+01-4.76629E+01 5.19545E+00
 -1      7556 9.35438E+01-4.76629E+01 6.92727E+00
 -1      7557 9.35438E+01-4.76629E+01 8.65909E+00
 -1      7558 9.35438E+01-4.76629E+01 1.03909E+01
 -1      7559 9.35438E+01-4.76629E+01 1.21227E+01
 -1      7560 9.35438E+01-4.76629E+01 1.38545E+01
 -1      7561 9.35438E+01-4.76629E+01 1.55864E+01
 -1      7562 9.35438E+01-4.76629E+01 1.73182E+01
 -1      7563 9.09211E+01-5.24933E+01 1.73182E+00
 -1      7564 9.09211E+01-5.24933E+01 3.46364E+00
 -1      7565 9.09211E+01-5.24933E+01 5.19545E+00
 -1      7566 9.09211E+01-5.24933E+01 6.92727E+00
 -1      7567 9.09211E+01-5.24933E+01 8.65909E+00
 -1      7568 9.09211E+01-5.24933E+01 1.03909E+01
 -1      7569 9.09211E+01-5.24933E+01 1.21227E+01
 -1      7570 9.09211E+01-5.24933E+01 1.38545E+01
 -1      7571 9.09211E+01-5.24933E+01 1.55864E+01
 -1      7572 9.09211E+01-5.24933E+01 1.73182E+01
 -1      7573 8.80492E+01-5.71798E+01 1.73182E+00
 -1      7574 8.80492E+01-5.71798E+01 3.46364E+00
 -1      7575 8.80492E+01-5.71798E+01 5.19545E+00
 -1      7576 8.80492E+01-5.71798E+01 6.92727E+00
 -1      7577 8.80492E+01-5.71798E+01 8.65909E+00
 -1      7578 8.80492E+01-5.71798E+01 1.03909E+01
 -1      7579 8.80492E+01-5.71798E+01 1.21227E+01
 -1      7580 8.80492E+01-5.71798E+01 1.38545E+01
 -1      7581 8.80492E+01-5.71798E+01 1.55864E+01
 -1      7582 8.80492E+01-5.71798E+01 1.73182E+01
 -1      7583 8.49360E+01-6.17096E+01 1.73182E+00
 -1      7584 8.49360E+01-6.17096E+01 3.46364E+00
 -1      7585 8.49360E+01-6.17096E+01 5.19545E+00
 -1      7586 8.49360E+01-6.17096E+01 6.92727E+00
 -1      7587 8.49360E+01-6.17096E+01 8.65909E+00
 -1      7588 8.49360E+01-6.17096E+01 1.03909E+01
 -1      7589 8.49360E+01-6.17096E+01 1.21227E+01
 -1      7590 8.49360E+01-6.17096E+01 1.38545E+01
 -1      7591 8.49360E+01-6.17096E+01 1.55864E+01
 -1      7592 8.49360E+01-6.17096E+01 1.73182E+01
 -1      7593 8.15900E+01-6.60703E+01 1.73182E+00
 -1      7594 8.15900E+01-6.60703E+01 3.46364E+00
 -1      7595 8.15900E+01-6.60703E+01 5.19545E+00
 -1      7596 8.15900E+01-6.60703E+01 6.92727E+00
 -1      7597 8.15900E+01-6.60703E+01 8.65909E+00
 -1      7598 8.15900E+01-6.60703E+01 1.03909E+01
 -1      7599 8.15900E+01-6.60703E+01 1.21227E+01
 -1      7600 8.15900E+01-6.60703E+01 1.38545E+01
 -1      7601 8.15900E+01-6.60703E+01 1.55864E+01
 -1      7602 8.15900E+01-6.60703E+01 1.73182E+01
 -1      7603 7.80203E+01-7.02498E+01 1.73182E+00
 -1      7604 7.80203E+01-7.02498E+01 3.46364E+00
 -1      7605 7.80203E+01-7.02498E+01 5.19545E+00
 -1      7606 7.80203E+01-7.02498E+01 6.92727E+00
 -1      7607 7.80203E+01-7.02498E+01 8.65909E+00
 -1      7608 7.80203E+01-7.02498E+01 1.03909E+01
 -1      7609 7.80203E+01-7.02498E+01 1.21227E+01
 -1      7610 7.80203E+01-7.02498E+01 1.38545E+01
 -1      7611 7.80203E+01-7.02498E+01 1.55864E+01
 -1      7612 7.80203E+01-7.02498E+01 1.73182E+01
 -1      7613 7.42368E+01-7.42368E+01 1.73182E+00
 -1      7614 7.42368E+01-7.42368E+01 3.46364E+00
 -1      7615 7.42368E+01-7.42368E+01 5.19545E+00
 -1      7616 7.42368E+01-7.42368E+01 6.92727E+00
 -1      7617 7.42368E+01-7.42368E+01 8.65909E+00
 -1      7618 7.42368E+01-7.42368E+01 1.03909E+01
 -1      7619 7.42368E+01-7.42368E+01 1.21227E+01
 -1      7620 7.42368E+01-7.42368E+01 1.38545E+01
 -1      7621 7.42368E+01-7.42368E+01 1.55864E+01
 -1      7622 7.42368E+01-7.42368E+01 1.73182E+01
 -1      7623 7.02498E+01-7.80203E+01 1.73182E+00
 -1      7624 7.02498E+01-7.80203E+01 3.46364E+00
 -1      7625 7.02498E+01-7.80203E+01 5.19545E+00
 -1      7626 7.02498E+01-7.80203E+01 6.92727E+00
 -1      7627 7.02498E+01-7.80203E+01 8.65909E+00
 -1      7628 7.02498E+01-7.80203E+01 1.03909E+01
 -1      7629 7.02498E+01-7.80203E+01 1.21227E+01
 -1      7630 7.02498E+01-7.80203E+01 1.38545E+01
 -1      7631 7.02498E+01-7.80203E+01 1.55864E+01
 -1      7632 7.02498E+01-7.80203E+01 1.73182E+01
 -1      7633 6.60703E+01-8.15900E+01 1.73182E+00
 -1      7634 6.60703E+01-8.15900E+01 3.46364E+00
 -1      7635 6.60703E+01-8.15900E+01 5.19545E+00
 -1      7636 6.60703E+01-8.15900E+01 6.92727E+00
 -1      7637 6.60703E+01-8.15900E+01 8.65909E+00
 -1      7638 6.60703E+01-8.15900E+01 1.03909E+01
 -1      7639 6.60703E+01-8.15900E+01 1.21227E+01
 -1      7640 6.60703E+01-8.15900E+01 1.38545E+01
 -1      7641 6.60703E+01-8.15900E+01 1.55864E+01
 -1      7642 6.60703E+01-8.15900E+01 1.73182E+01
 -1      7643 6.17096E+01-8.49360E+01 1.73182E+00
 -1      7644 6.17096E+01-8.49360E+01 3.46364E+00
 -1      7645 6.17096E+01-8.49360E+01 5.19545E+00
 -1      7646 6.17096E+01-8.49360E+01 6.92727E+00
 -1      7647 6.17096E+01-8.49360E+01 8.65909E+00
 -1      7648 6.17096E+01-8.49360E+01 1.03909E+01
 -1      7649 6.17096E+01-8.49360E+01 1.21227E+01
 -1      7650 6.17096E+01-8.49360E+01 1.38545E+01
 -1      7651 6.17096E+01-8.49360E+01 1.55864E+01
 -1      7652 6.17096E+01-8.49360E+01 1.73182E+01
 -1      7653 5.71798E+01-8.80492E+01 1.73182E+00
 -1      7654 5.71798E+01-8.80492E+01 3.46364E+00
 -1      7655 5.71798E+01-8.80492E+01 5.19545E+00
 -1      7656 5.71798E+01-8.80492E+01 6.92727E+00
 -1      7657 5.71798E+01-8.80492E+01 8.65909E+00
 -1      7658 5.71798E+01-8.80492E+01 1.03909E+01
 -1      7659 5.71798E+01-8.80492E+01 1.21227E+01
 -1      7660 5.71798E+01-8.80492E+01 1.38545E+01
 -1      7661 5.71798E+01-8.80492E+01 1.55864E+01
 -1      7662 5.71798E+01-8.80492E+01 1.73182E+01
 -1      7663 5.24933E+01-9.09211E+01 1.73182E+00
 -1      7664 5.24933E+01-9.09211E+01 3.46364E+00
 -1      7665 5.24933E+01-9.09211E+01 5.19545E+00
 -1      7666 5.24933E+01-9.09211E+01 6.92727E+00
 -1      7667 5.24933E+01-9.09211E+01 8.65909E+00
 -1      7668 5.24933E+01-9.09211E+01 1.03909E+01
 -1      7669 5.24933E+01-9.09211E+01 1.21227E+01
 -1      7670 5.24933E+01-9.09211E+01 1.38545E+01
 -1      7671 5.24933E+01-9.09211E+01 1.55864E+01
 -1      7672 5.24933E+01-9.09211E+01 1.73182E+01
 -1      7673 4.76629E+01-9.35438E+01 1.73182E+00
 -1      7674 4.76629E+01-9.35438E+01 3.46364E+00
 -1      7675 4.76629E+01-9.35438E+01 5.19545E+00
 -1      7676 4.76629E+01-9.35438E+01 6.92727E+00
 -1      7677 4.76629E+01-9.35438E+01 8.65909E+00
 -1      7678 4.76629E+01-9.35438E+01 1.03909E+01
 -1      7679 4.76629E+01-9.35438E+01 1.21227E+01
 -1      7680 4.76629E+01-9.35438E+01 1.38545E+01
 -1      7681 4.76629E+01-9.35438E+01 1.55864E+01
 -1      7682 4.76629E+01-9.35438E+01 1.73182E+01
 -1      7683 4.27019E+01-9.59101E+01 1.73182E+00
 -1      7684 4.27019E+01-9.59101E+01 3.46364E+00
 -1      7685 4.27019E+01-9.59101E+01 5.19545E+00
 -1      7686 4.27019E+01-9.59101E+01 6.92727E+00
 -1      7687 4.27019E+01-9.59101E+01 8.65909E+00
 -1      7688 4.27019E+01-9.59101E+01 1.03909E+01
 -1      7689 4.27019E+01-9.59101E+01 1.21227E+01
 -1      7690 4.27019E+01-9.59101E+01 1.38545E+01
 -1      7691 4.27019E+01-9.59101E+01 1.55864E+01
 -1      7692 4.27019E+01-9.59101E+01 1.73182E+01
 -1      7693 3.76239E+01-9.80135E+01 1.73182E+00
 -1      7694 3.76239E+01-9.80135E+01 3.46364E+00
 -1      7695 3.76239E+01-9.80135E+01 5.19545E+00
 -1      7696 3.76239E+01-9.80135E+01 6.92727E+00
 -1      7697 3.76239E+01-9.80135E+01 8.65909E+00
 -1      7698 3.76239E+01-9.80135E+01 1.03909E+01
 -1      7699 3.76239E+01-9.80135E+01 1.21227E+01
 -1      7700 3.76239E+01-9.80135E+01 1.38545E+01
 -1      7701 3.76239E+01-9.80135E+01 1.55864E+01
 -1      7702 3.76239E+01-9.80135E+01 1.73182E+01
 -1      7703 3.24427E+01-9.98483E+01 1.73182E+00
 -1      7704 3.24427E+01-9.98483E+01 3.46364E+00
 -1      7705 3.24427E+01-9.98483E+01 5.19545E+00
 -1      7706 3.24427E+01-9.98483E+01 6.92727E+00
 -1      7707 3.24427E+01-9.98483E+01 8.65909E+00
 -1      7708 3.24427E+01-9.98483E+01 1.03909E+01
 -1      7709 3.24427E+01-9.98483E+01 1.21227E+01
 -1      7710 3.24427E+01-9.98483E+01 1.38545E+01
 -1      7711 3.24427E+01-9.98483E+01 1.55864E+01
 -1      7712 3.24427E+01-9.98483E+01 1.73182E+01
 -1      7713 2.71725E+01-1.01409E+02 1.73182E+00
 -1      7714 2.71725E+01-1.01409E+02 3.46364E+00
 -1      7715 2.71725E+01-1.01409E+02 5.19545E+00
 -1      7716 2.71725E+01-1.01409E+02 6.92727E+00
 -1      7717 2.71725E+01-1.01409E+02 8.65909E+00
 -1      7718 2.71725E+01-1.01409E+02 1.03909E+01
 -1      7719 2.71725E+01-1.01409E+02 1.21227E+01
 -1      7720 2.71725E+01-1.01409E+02 1.38545E+01
 -1      7721 2.71725E+01-1.01409E+02 1.55864E+01
 -1      7722 2.71725E+01-1.01409E+02 1.73182E+01
 -1      7723 2.18280E+01-1.02692E+02 1.73182E+00
 -1      7724 2.18280E+01-1.02692E+02 3.46364E+00
 -1      7725 2.18280E+01-1.02692E+02 5.19545E+00
 -1      7726 2.18280E+01-1.02692E+02 6.92727E+00
 -1      7727 2.18280E+01-1.02692E+02 8.65909E+00
 -1      7728 2.18280E+01-1.02692E+02 1.03909E+01
 -1      7729 2.18280E+01-1.02692E+02 1.21227E+01
 -1      7730 2.18280E+01-1.02692E+02 1.38545E+01
 -1      7731 2.18280E+01-1.02692E+02 1.55864E+01
 -1      7732 2.18280E+01-1.02692E+02 1.73182E+01
 -1      7733 1.64235E+01-1.03694E+02 1.73182E+00
 -1      7734 1.64235E+01-1.03694E+02 3.46364E+00
 -1      7735 1.64235E+01-1.03694E+02 5.19545E+00
 -1      7736 1.64235E+01-1.03694E+02 6.92727E+00
 -1      7737 1.64235E+01-1.03694E+02 8.65909E+00
 -1      7738 1.64235E+01-1.03694E+02 1.03909E+01
 -1      7739 1.64235E+01-1.03694E+02 1.21227E+01
 -1      7740 1.64235E+01-1.03694E+02 1.38545E+01
 -1      7741 1.64235E+01-1.03694E+02 1.55864E+01
 -1      7742 1.64235E+01-1.03694E+02 1.73182E+01
 -1      7743 1.09741E+01-1.04412E+02 1.73182E+00
 -1      7744 1.09741E+01-1.04412E+02 3.46364E+00
 -1      7745 1.09741E+01-1.04412E+02 5.19545E+00
 -1      7746 1.09741E+01-1.04412E+02 6.92727E+00
 -1      7747 1.09741E+01-1.04412E+02 8.65909E+00
 -1      7748 1.09741E+01-1.04412E+02 1.03909E+01
 -1      7749 1.09741E+01-1.04412E+02 1.21227E+01
 -1      7750 1.09741E+01-1.04412E+02 1.38545E+01
 -1      7751 1.09741E+01-1.04412E+02 1.55864E+01
 -1      7752 1.09741E+01-1.04412E+02 1.73182E+01
 -1      7753 5.49458E+00-1.04843E+02 1.73182E+00
 -1      7754 5.49458E+00-1.04843E+02 3.46364E+00
 -1      7755 5.49458E+00-1.04843E+02 5.19545E+00
 -1      7756 5.49458E+00-1.04843E+02 6.92727E+00
 -1      7757 5.49458E+00-1.04843E+02 8.65909E+00
 -1      7758 5.49458E+00-1.04843E+02 1.03909E+01
 -1      7759 5.49458E+00-1.04843E+02 1.21227E+01
 -1      7760 5.49458E+00-1.04843E+02 1.38545E+01
 -1      7761 5.49458E+00-1.04843E+02 1.55864E+01
 -1      7762 5.49458E+00-1.04843E+02 1.73182E+01
 -1      7763 1.08225E+02-5.67182E+00 1.73182E+00
 -1      7764 1.08225E+02-5.67182E+00 3.46364E+00
 -1      7765 1.08225E+02-5.67182E+00 5.19545E+00
 -1      7766 1.08225E+02-5.67182E+00 6.92727E+00
 -1      7767 1.08225E+02-5.67182E+00 8.65909E+00
 -1      7768 1.08225E+02-5.67182E+00 1.03909E+01
 -1      7769 1.08225E+02-5.67182E+00 1.21227E+01
 -1      7770 1.08225E+02-5.67182E+00 1.38545E+01
 -1      7771 1.08225E+02-5.67182E+00 1.55864E+01
 -1      7772 1.08225E+02-5.67182E+00 1.73182E+01
 -1      7773 1.07780E+02-1.13281E+01 1.73182E+00
 -1      7774 1.07780E+02-1.13281E+01 3.46364E+00
 -1      7775 1.07780E+02-1.13281E+01 5.19545E+00
 -1      7776 1.07780E+02-1.13281E+01 6.92727E+00
 -1      7777 1.07780E+02-1.13281E+01 8.65909E+00
 -1      7778 1.07780E+02-1.13281E+01 1.03909E+01
 -1      7779 1.07780E+02-1.13281E+01 1.21227E+01
 -1      7780 1.07780E+02-1.13281E+01 1.38545E+01
 -1      7781 1.07780E+02-1.13281E+01 1.55864E+01
 -1      7782 1.07780E+02-1.13281E+01 1.73182E+01
 -1      7783 1.07039E+02-1.69533E+01 1.73182E+00
 -1      7784 1.07039E+02-1.69533E+01 3.46364E+00
 -1      7785 1.07039E+02-1.69533E+01 5.19545E+00
 -1      7786 1.07039E+02-1.69533E+01 6.92727E+00
 -1      7787 1.07039E+02-1.69533E+01 8.65909E+00
 -1      7788 1.07039E+02-1.69533E+01 1.03909E+01
 -1      7789 1.07039E+02-1.69533E+01 1.21227E+01
 -1      7790 1.07039E+02-1.69533E+01 1.38545E+01
 -1      7791 1.07039E+02-1.69533E+01 1.55864E+01
 -1      7792 1.07039E+02-1.69533E+01 1.73182E+01
 -1      7793 1.06005E+02-2.25321E+01 1.73182E+00
 -1      7794 1.06005E+02-2.25321E+01 3.46364E+00
 -1      7795 1.06005E+02-2.25321E+01 5.19545E+00
 -1      7796 1.06005E+02-2.25321E+01 6.92727E+00
 -1      7797 1.06005E+02-2.25321E+01 8.65909E+00
 -1      7798 1.06005E+02-2.25321E+01 1.03909E+01
 -1      7799 1.06005E+02-2.25321E+01 1.21227E+01
 -1      7800 1.06005E+02-2.25321E+01 1.38545E+01
 -1      7801 1.06005E+02-2.25321E+01 1.55864E+01
 -1      7802 1.06005E+02-2.25321E+01 1.73182E+01
 -1      7803 1.04681E+02-2.80491E+01 1.73182E+00
 -1      7804 1.04681E+02-2.80491E+01 3.46364E+00
 -1      7805 1.04681E+02-2.80491E+01 5.19545E+00
 -1      7806 1.04681E+02-2.80491E+01 6.92727E+00
 -1      7807 1.04681E+02-2.80491E+01 8.65909E+00
 -1      7808 1.04681E+02-2.80491E+01 1.03909E+01
 -1      7809 1.04681E+02-2.80491E+01 1.21227E+01
 -1      7810 1.04681E+02-2.80491E+01 1.38545E+01
 -1      7811 1.04681E+02-2.80491E+01 1.55864E+01
 -1      7812 1.04681E+02-2.80491E+01 1.73182E+01
 -1      7813 1.03069E+02-3.34892E+01 1.73182E+00
 -1      7814 1.03069E+02-3.34892E+01 3.46364E+00
 -1      7815 1.03069E+02-3.34892E+01 5.19545E+00
 -1      7816 1.03069E+02-3.34892E+01 6.92727E+00
 -1      7817 1.03069E+02-3.34892E+01 8.65909E+00
 -1      7818 1.03069E+02-3.34892E+01 1.03909E+01
 -1      7819 1.03069E+02-3.34892E+01 1.21227E+01
 -1      7820 1.03069E+02-3.34892E+01 1.38545E+01
 -1      7821 1.03069E+02-3.34892E+01 1.55864E+01
 -1      7822 1.03069E+02-3.34892E+01 1.73182E+01
 -1      7823 1.01175E+02-3.88375E+01 1.73182E+00
 -1      7824 1.01175E+02-3.88375E+01 3.46364E+00
 -1      7825 1.01175E+02-3.88375E+01 5.19545E+00
 -1      7826 1.01175E+02-3.88375E+01 6.92727E+00
 -1      7827 1.01175E+02-3.88375E+01 8.65909E+00
 -1      7828 1.01175E+02-3.88375E+01 1.03909E+01
 -1      7829 1.01175E+02-3.88375E+01 1.21227E+01
 -1      7830 1.01175E+02-3.88375E+01 1.38545E+01
 -1      7831 1.01175E+02-3.88375E+01 1.55864E+01
 -1      7832 1.01175E+02-3.88375E+01 1.73182E+01
 -1      7833 9.90040E+01-4.40794E+01 1.73182E+00
 -1      7834 9.90040E+01-4.40794E+01 3.46364E+00
 -1      7835 9.90040E+01-4.40794E+01 5.19545E+00
 -1      7836 9.90040E+01-4.40794E+01 6.92727E+00
 -1      7837 9.90040E+01-4.40794E+01 8.65909E+00
 -1      7838 9.90040E+01-4.40794E+01 1.03909E+01
 -1      7839 9.90040E+01-4.40794E+01 1.21227E+01
 -1      7840 9.90040E+01-4.40794E+01 1.38545E+01
 -1      7841 9.90040E+01-4.40794E+01 1.55864E+01
 -1      7842 9.90040E+01-4.40794E+01 1.73182E+01
 -1      7843 9.65613E+01-4.92005E+01 1.73182E+00
 -1      7844 9.65613E+01-4.92005E+01 3.46364E+00
 -1      7845 9.65613E+01-4.92005E+01 5.19545E+00
 -1      7846 9.65613E+01-4.92005E+01 6.92727E+00
 -1      7847 9.65613E+01-4.92005E+01 8.65909E+00
 -1      7848 9.65613E+01-4.92005E+01 1.03909E+01
 -1      7849 9.65613E+01-4.92005E+01 1.21227E+01
 -1      7850 9.65613E+01-4.92005E+01 1.38545E+01
 -1      7851 9.65613E+01-4.92005E+01 1.55864E+01
 -1      7852 9.65613E+01-4.92005E+01 1.73182E+01
 -1      7853 9.38541E+01-5.41867E+01 1.73182E+00
 -1      7854 9.38541E+01-5.41867E+01 3.46364E+00
 -1      7855 9.38541E+01-5.41867E+01 5.19545E+00
 -1      7856 9.38541E+01-5.41867E+01 6.92727E+00
 -1      7857 9.38541E+01-5.41867E+01 8.65909E+00
 -1      7858 9.38541E+01-5.41867E+01 1.03909E+01
 -1      7859 9.38541E+01-5.41867E+01 1.21227E+01
 -1      7860 9.38541E+01-5.41867E+01 1.38545E+01
 -1      7861 9.38541E+01-5.41867E+01 1.55864E+01
 -1      7862 9.38541E+01-5.41867E+01 1.73182E+01
 -1      7863 9.08895E+01-5.90243E+01 1.73182E+00
 -1      7864 9.08895E+01-5.90243E+01 3.46364E+00
 -1      7865 9.08895E+01-5.90243E+01 5.19545E+00
 -1      7866 9.08895E+01-5.90243E+01 6.92727E+00
 -1      7867 9.08895E+01-5.90243E+01 8.65909E+00
 -1      7868 9.08895E+01-5.90243E+01 1.03909E+01
 -1      7869 9.08895E+01-5.90243E+01 1.21227E+01
 -1      7870 9.08895E+01-5.90243E+01 1.38545E+01
 -1      7871 9.08895E+01-5.90243E+01 1.55864E+01
 -1      7872 9.08895E+01-5.90243E+01 1.73182E+01
 -1      7873 8.76759E+01-6.37002E+01 1.73182E+00
 -1      7874 8.76759E+01-6.37002E+01 3.46364E+00
 -1      7875 8.76759E+01-6.37002E+01 5.19545E+00
 -1      7876 8.76759E+01-6.37002E+01 6.92727E+00
 -1      7877 8.76759E+01-6.37002E+01 8.65909E+00
 -1      7878 8.76759E+01-6.37002E+01 1.03909E+01
 -1      7879 8.76759E+01-6.37002E+01 1.21227E+01
 -1      7880 8.76759E+01-6.37002E+01 1.38545E+01
 -1      7881 8.76759E+01-6.37002E+01 1.55864E+01
 -1      7882 8.76759E+01-6.37002E+01 1.73182E+01
 -1      7883 8.42219E+01-6.82015E+01 1.73182E+00
 -1      7884 8.42219E+01-6.82015E+01 3.46364E+00
 -1      7885 8.42219E+01-6.82015E+01 5.19545E+00
 -1      7886 8.42219E+01-6.82015E+01 6.92727E+00
 -1      7887 8.42219E+01-6.82015E+01 8.65909E+00
 -1      7888 8.42219E+01-6.82015E+01 1.03909E+01
 -1      7889 8.42219E+01-6.82015E+01 1.21227E+01
 -1      7890 8.42219E+01-6.82015E+01 1.38545E+01
 -1      7891 8.42219E+01-6.82015E+01 1.55864E+01
 -1      7892 8.42219E+01-6.82015E+01 1.73182E+01
 -1      7893 8.05371E+01-7.25159E+01 1.73182E+00
 -1      7894 8.05371E+01-7.25159E+01 3.46364E+00
 -1      7895 8.05371E+01-7.25159E+01 5.19545E+00
 -1      7896 8.05371E+01-7.25159E+01 6.92727E+00
 -1      7897 8.05371E+01-7.25159E+01 8.65909E+00
 -1      7898 8.05371E+01-7.25159E+01 1.03909E+01
 -1      7899 8.05371E+01-7.25159E+01 1.21227E+01
 -1      7900 8.05371E+01-7.25159E+01 1.38545E+01
 -1      7901 8.05371E+01-7.25159E+01 1.55864E+01
 -1      7902 8.05371E+01-7.25159E+01 1.73182E+01
 -1      7903 7.66315E+01-7.66315E+01 1.73182E+00
 -1      7904 7.66315E+01-7.66315E+01 3.46364E+00
 -1      7905 7.66315E+01-7.66315E+01 5.19545E+00
 -1      7906 7.66315E+01-7.66315E+01 6.92727E+00
 -1      7907 7.66315E+01-7.66315E+01 8.65909E+00
 -1      7908 7.66315E+01-7.66315E+01 1.03909E+01
 -1      7909 7.66315E+01-7.66315E+01 1.21227E+01
 -1      7910 7.66315E+01-7.66315E+01 1.38545E+01
 -1      7911 7.66315E+01-7.66315E+01 1.55864E+01
 -1      7912 7.66315E+01-7.66315E+01 1.73182E+01
 -1      7913 7.25159E+01-8.05371E+01 1.73182E+00
 -1      7914 7.25159E+01-8.05371E+01 3.46364E+00
 -1      7915 7.25159E+01-8.05371E+01 5.19545E+00
 -1      7916 7.25159E+01-8.05371E+01 6.92727E+00
 -1      7917 7.25159E+01-8.05371E+01 8.65909E+00
 -1      7918 7.25159E+01-8.05371E+01 1.03909E+01
 -1      7919 7.25159E+01-8.05371E+01 1.21227E+01
 -1      7920 7.25159E+01-8.05371E+01 1.38545E+01
 -1      7921 7.25159E+01-8.05371E+01 1.55864E+01
 -1      7922 7.25159E+01-8.05371E+01 1.73182E+01
 -1      7923 6.82015E+01-8.42219E+01 1.73182E+00
 -1      7924 6.82015E+01-8.42219E+01 3.46364E+00
 -1      7925 6.82015E+01-8.42219E+01 5.19545E+00
 -1      7926 6.82015E+01-8.42219E+01 6.92727E+00
 -1      7927 6.82015E+01-8.42219E+01 8.65909E+00
 -1      7928 6.82015E+01-8.42219E+01 1.03909E+01
 -1      7929 6.82015E+01-8.42219E+01 1.21227E+01
 -1      7930 6.82015E+01-8.42219E+01 1.38545E+01
 -1      7931 6.82015E+01-8.42219E+01 1.55864E+01
 -1      7932 6.82015E+01-8.42219E+01 1.73182E+01
 -1      7933 6.37002E+01-8.76759E+01 1.73182E+00
 -1      7934 6.37002E+01-8.76759E+01 3.46364E+00
 -1      7935 6.37002E+01-8.76759E+01 5.19545E+00
 -1      7936 6.37002E+01-8.76759E+01 6.92727E+00
 -1      7937 6.37002E+01-8.76759E+01 8.65909E+00
 -1      7938 6.37002E+01-8.76759E+01 1.03909E+01
 -1      7939 6.37002E+01-8.76759E+01 1.21227E+01
 -1      7940 6.37002E+01-8.76759E+01 1.38545E+01
 -1      7941 6.37002E+01-8.76759E+01 1.55864E+01
 -1      7942 6.37002E+01-8.76759E+01 1.73182E+01
 -1      7943 5.90243E+01-9.08895E+01 1.73182E+00
 -1      7944 5.90243E+01-9.08895E+01 3.46364E+00
 -1      7945 5.90243E+01-9.08895E+01 5.19545E+00
 -1      7946 5.90243E+01-9.08895E+01 6.92727E+00
 -1      7947 5.90243E+01-9.08895E+01 8.65909E+00
 -1      7948 5.90243E+01-9.08895E+01 1.03909E+01
 -1      7949 5.90243E+01-9.08895E+01 1.21227E+01
 -1      7950 5.90243E+01-9.08895E+01 1.38545E+01
 -1      7951 5.90243E+01-9.08895E+01 1.55864E+01
 -1      7952 5.90243E+01-9.08895E+01 1.73182E+01
 -1      7953 5.41867E+01-9.38541E+01 1.73182E+00
 -1      7954 5.41867E+01-9.38541E+01 3.46364E+00
 -1      7955 5.41867E+01-9.38541E+01 5.19545E+00
 -1      7956 5.41867E+01-9.38541E+01 6.92727E+00
 -1      7957 5.41867E+01-9.38541E+01 8.65909E+00
 -1      7958 5.41867E+01-9.38541E+01 1.03909E+01
 -1      7959 5.41867E+01-9.38541E+01 1.21227E+01
 -1      7960 5.41867E+01-9.38541E+01 1.38545E+01
 -1      7961 5.41867E+01-9.38541E+01 1.55864E+01
 -1      7962 5.41867E+01-9.38541E+01 1.73182E+01
 -1      7963 4.92005E+01-9.65613E+01 1.73182E+00
 -1      7964 4.92005E+01-9.65613E+01 3.46364E+00
 -1      7965 4.92005E+01-9.65613E+01 5.19545E+00
 -1      7966 4.92005E+01-9.65613E+01 6.92727E+00
 -1      7967 4.92005E+01-9.65613E+01 8.65909E+00
 -1      7968 4.92005E+01-9.65613E+01 1.03909E+01
 -1      7969 4.92005E+01-9.65613E+01 1.21227E+01
 -1      7970 4.92005E+01-9.65613E+01 1.38545E+01
 -1      7971 4.92005E+01-9.65613E+01 1.55864E+01
 -1      7972 4.92005E+01-9.65613E+01 1.73182E+01
 -1      7973 4.40794E+01-9.90040E+01 1.73182E+00
 -1      7974 4.40794E+01-9.90040E+01 3.46364E+00
 -1      7975 4.40794E+01-9.90040E+01 5.19545E+00
 -1      7976 4.40794E+01-9.90040E+01 6.92727E+00
 -1      7977 4.40794E+01-9.90040E+01 8.65909E+00
 -1      7978 4.40794E+01-9.90040E+01 1.03909E+01
 -1      7979 4.40794E+01-9.90040E+01 1.21227E+01
 -1      7980 4.40794E+01-9.90040E+01 1.38545E+01
 -1      7981 4.40794E+01-9.90040E+01 1.55864E+01
 -1      7982 4.40794E+01-9.90040E+01 1.73182E+01
 -1      7983 3.88375E+01-1.01175E+02 1.73182E+00
 -1      7984 3.88375E+01-1.01175E+02 3.46364E+00
 -1      7985 3.88375E+01-1.01175E+02 5.19545E+00
 -1      7986 3.88375E+01-1.01175E+02 6.92727E+00
 -1      7987 3.88375E+01-1.01175E+02 8.65909E+00
 -1      7988 3.88375E+01-1.01175E+02 1.03909E+01
 -1      7989 3.88375E+01-1.01175E+02 1.21227E+01
 -1      7990 3.88375E+01-1.01175E+02 1.38545E+01
 -1      7991 3.88375E+01-1.01175E+02 1.55864E+01
 -1      7992 3.88375E+01-1.01175E+02 1.73182E+01
 -1      7993 3.34892E+01-1.03069E+02 1.73182E+00
 -1      7994 3.34892E+01-1.03069E+02 3.46364E+00
 -1      7995 3.34892E+01-1.03069E+02 5.19545E+00
 -1      7996 3.34892E+01-1.03069E+02 6.92727E+00
 -1      7997 3.34892E+01-1.03069E+02 8.65909E+00
 -1      7998 3.34892E+01-1.03069E+02 1.03909E+01
 -1      7999 3.34892E+01-1.03069E+02 1.21227E+01
 -1      8000 3.34892E+01-1.03069E+02 1.38545E+01
 -1      8001 3.34892E+01-1.03069E+02 1.55864E+01
 -1      8002 3.34892E+01-1.03069E+02 1.73182E+01
 -1      8003 2.80491E+01-1.04681E+02 1.73182E+00
 -1      8004 2.80491E+01-1.04681E+02 3.46364E+00
 -1      8005 2.80491E+01-1.04681E+02 5.19545E+00
 -1      8006 2.80491E+01-1.04681E+02 6.92727E+00
 -1      8007 2.80491E+01-1.04681E+02 8.65909E+00
 -1      8008 2.80491E+01-1.04681E+02 1.03909E+01
 -1      8009 2.80491E+01-1.04681E+02 1.21227E+01
 -1      8010 2.80491E+01-1.04681E+02 1.38545E+01
 -1      8011 2.80491E+01-1.04681E+02 1.55864E+01
 -1      8012 2.80491E+01-1.04681E+02 1.73182E+01
 -1      8013 2.25321E+01-1.06005E+02 1.73182E+00
 -1      8014 2.25321E+01-1.06005E+02 3.46364E+00
 -1      8015 2.25321E+01-1.06005E+02 5.19545E+00
 -1      8016 2.25321E+01-1.06005E+02 6.92727E+00
 -1      8017 2.25321E+01-1.06005E+02 8.65909E+00
 -1      8018 2.25321E+01-1.06005E+02 1.03909E+01
 -1      8019 2.25321E+01-1.06005E+02 1.21227E+01
 -1      8020 2.25321E+01-1.06005E+02 1.38545E+01
 -1      8021 2.25321E+01-1.06005E+02 1.55864E+01
 -1      8022 2.25321E+01-1.06005E+02 1.73182E+01
 -1      8023 1.69533E+01-1.07039E+02 1.73182E+00
 -1      8024 1.69533E+01-1.07039E+02 3.46364E+00
 -1      8025 1.69533E+01-1.07039E+02 5.19545E+00
 -1      8026 1.69533E+01-1.07039E+02 6.92727E+00
 -1      8027 1.69533E+01-1.07039E+02 8.65909E+00
 -1      8028 1.69533E+01-1.07039E+02 1.03909E+01
 -1      8029 1.69533E+01-1.07039E+02 1.21227E+01
 -1      8030 1.69533E+01-1.07039E+02 1.38545E+01
 -1      8031 1.69533E+01-1.07039E+02 1.55864E+01
 -1      8032 1.69533E+01-1.07039E+02 1.73182E+01
 -1      8033 1.13281E+01-1.07780E+02 1.73182E+00
 -1      8034 1.13281E+01-1.07780E+02 3.46364E+00
 -1      8035 1.13281E+01-1.07780E+02 5.19545E+00
 -1      8036 1.13281E+01-1.07780E+02 6.92727E+00
 -1      8037 1.13281E+01-1.07780E+02 8.65909E+00
 -1      8038 1.13281E+01-1.07780E+02 1.03909E+01
 -1      8039 1.13281E+01-1.07780E+02 1.21227E+01
 -1      8040 1.13281E+01-1.07780E+02 1.38545E+01
 -1      8041 1.13281E+01-1.07780E+02 1.55864E+01
 -1      8042 1.13281E+01-1.07780E+02 1.73182E+01
 -1      8043 5.67182E+00-1.08225E+02 1.73182E+00
 -1      8044 5.67182E+00-1.08225E+02 3.46364E+00
 -1      8045 5.67182E+00-1.08225E+02 5.19545E+00
 -1      8046 5.67182E+00-1.08225E+02 6.92727E+00
 -1      8047 5.67182E+00-1.08225E+02 8.65909E+00
 -1      8048 5.67182E+00-1.08225E+02 1.03909E+01
 -1      8049 5.67182E+00-1.08225E+02 1.21227E+01
 -1      8050 5.67182E+00-1.08225E+02 1.38545E+01
 -1      8051 5.67182E+00-1.08225E+02 1.55864E+01
 -1      8052 5.67182E+00-1.08225E+02 1.73182E+01
 -1      8053 1.11607E+02-5.84907E+00 1.73182E+00
 -1      8054 1.11607E+02-5.84907E+00 3.46364E+00
 -1      8055 1.11607E+02-5.84907E+00 5.19545E+00
 -1      8056 1.11607E+02-5.84907E+00 6.92727E+00
 -1      8057 1.11607E+02-5.84907E+00 8.65909E+00
 -1      8058 1.11607E+02-5.84907E+00 1.03909E+01
 -1      8059 1.11607E+02-5.84907E+00 1.21227E+01
 -1      8060 1.11607E+02-5.84907E+00 1.38545E+01
 -1      8061 1.11607E+02-5.84907E+00 1.55864E+01
 -1      8062 1.11607E+02-5.84907E+00 1.73182E+01
 -1      8063 1.11148E+02-1.16821E+01 1.73182E+00
 -1      8064 1.11148E+02-1.16821E+01 3.46364E+00
 -1      8065 1.11148E+02-1.16821E+01 5.19545E+00
 -1      8066 1.11148E+02-1.16821E+01 6.92727E+00
 -1      8067 1.11148E+02-1.16821E+01 8.65909E+00
 -1      8068 1.11148E+02-1.16821E+01 1.03909E+01
 -1      8069 1.11148E+02-1.16821E+01 1.21227E+01
 -1      8070 1.11148E+02-1.16821E+01 1.38545E+01
 -1      8071 1.11148E+02-1.16821E+01 1.55864E+01
 -1      8072 1.11148E+02-1.16821E+01 1.73182E+01
 -1      8073 1.10384E+02-1.74831E+01 1.73182E+00
 -1      8074 1.10384E+02-1.74831E+01 3.46364E+00
 -1      8075 1.10384E+02-1.74831E+01 5.19545E+00
 -1      8076 1.10384E+02-1.74831E+01 6.92727E+00
 -1      8077 1.10384E+02-1.74831E+01 8.65909E+00
 -1      8078 1.10384E+02-1.74831E+01 1.03909E+01
 -1      8079 1.10384E+02-1.74831E+01 1.21227E+01
 -1      8080 1.10384E+02-1.74831E+01 1.38545E+01
 -1      8081 1.10384E+02-1.74831E+01 1.55864E+01
 -1      8082 1.10384E+02-1.74831E+01 1.73182E+01
 -1      8083 1.09318E+02-2.32362E+01 1.73182E+00
 -1      8084 1.09318E+02-2.32362E+01 3.46364E+00
 -1      8085 1.09318E+02-2.32362E+01 5.19545E+00
 -1      8086 1.09318E+02-2.32362E+01 6.92727E+00
 -1      8087 1.09318E+02-2.32362E+01 8.65909E+00
 -1      8088 1.09318E+02-2.32362E+01 1.03909E+01
 -1      8089 1.09318E+02-2.32362E+01 1.21227E+01
 -1      8090 1.09318E+02-2.32362E+01 1.38545E+01
 -1      8091 1.09318E+02-2.32362E+01 1.55864E+01
 -1      8092 1.09318E+02-2.32362E+01 1.73182E+01
 -1      8093 1.07952E+02-2.89256E+01 1.73182E+00
 -1      8094 1.07952E+02-2.89256E+01 3.46364E+00
 -1      8095 1.07952E+02-2.89256E+01 5.19545E+00
 -1      8096 1.07952E+02-2.89256E+01 6.92727E+00
 -1      8097 1.07952E+02-2.89256E+01 8.65909E+00
 -1      8098 1.07952E+02-2.89256E+01 1.03909E+01
 -1      8099 1.07952E+02-2.89256E+01 1.21227E+01
 -1      8100 1.07952E+02-2.89256E+01 1.38545E+01
 -1      8101 1.07952E+02-2.89256E+01 1.55864E+01
 -1      8102 1.07952E+02-2.89256E+01 1.73182E+01
 -1      8103 1.06290E+02-3.45357E+01 1.73182E+00
 -1      8104 1.06290E+02-3.45357E+01 3.46364E+00
 -1      8105 1.06290E+02-3.45357E+01 5.19545E+00
 -1      8106 1.06290E+02-3.45357E+01 6.92727E+00
 -1      8107 1.06290E+02-3.45357E+01 8.65909E+00
 -1      8108 1.06290E+02-3.45357E+01 1.03909E+01
 -1      8109 1.06290E+02-3.45357E+01 1.21227E+01
 -1      8110 1.06290E+02-3.45357E+01 1.38545E+01
 -1      8111 1.06290E+02-3.45357E+01 1.55864E+01
 -1      8112 1.06290E+02-3.45357E+01 1.73182E+01
 -1      8113 1.04337E+02-4.00512E+01 1.73182E+00
 -1      8114 1.04337E+02-4.00512E+01 3.46364E+00
 -1      8115 1.04337E+02-4.00512E+01 5.19545E+00
 -1      8116 1.04337E+02-4.00512E+01 6.92727E+00
 -1      8117 1.04337E+02-4.00512E+01 8.65909E+00
 -1      8118 1.04337E+02-4.00512E+01 1.03909E+01
 -1      8119 1.04337E+02-4.00512E+01 1.21227E+01
 -1      8120 1.04337E+02-4.00512E+01 1.38545E+01
 -1      8121 1.04337E+02-4.00512E+01 1.55864E+01
 -1      8122 1.04337E+02-4.00512E+01 1.73182E+01
 -1      8123 1.02098E+02-4.54569E+01 1.73182E+00
 -1      8124 1.02098E+02-4.54569E+01 3.46364E+00
 -1      8125 1.02098E+02-4.54569E+01 5.19545E+00
 -1      8126 1.02098E+02-4.54569E+01 6.92727E+00
 -1      8127 1.02098E+02-4.54569E+01 8.65909E+00
 -1      8128 1.02098E+02-4.54569E+01 1.03909E+01
 -1      8129 1.02098E+02-4.54569E+01 1.21227E+01
 -1      8130 1.02098E+02-4.54569E+01 1.38545E+01
 -1      8131 1.02098E+02-4.54569E+01 1.55864E+01
 -1      8132 1.02098E+02-4.54569E+01 1.73182E+01
 -1      8133 9.95789E+01-5.07380E+01 1.73182E+00
 -1      8134 9.95789E+01-5.07380E+01 3.46364E+00
 -1      8135 9.95789E+01-5.07380E+01 5.19545E+00
 -1      8136 9.95789E+01-5.07380E+01 6.92727E+00
 -1      8137 9.95789E+01-5.07380E+01 8.65909E+00
 -1      8138 9.95789E+01-5.07380E+01 1.03909E+01
 -1      8139 9.95789E+01-5.07380E+01 1.21227E+01
 -1      8140 9.95789E+01-5.07380E+01 1.38545E+01
 -1      8141 9.95789E+01-5.07380E+01 1.55864E+01
 -1      8142 9.95789E+01-5.07380E+01 1.73182E+01
 -1      8143 9.67870E+01-5.58800E+01 1.73182E+00
 -1      8144 9.67870E+01-5.58800E+01 3.46364E+00
 -1      8145 9.67870E+01-5.58800E+01 5.19545E+00
 -1      8146 9.67870E+01-5.58800E+01 6.92727E+00
 -1      8147 9.67870E+01-5.58800E+01 8.65909E+00
 -1      8148 9.67870E+01-5.58800E+01 1.03909E+01
 -1      8149 9.67870E+01-5.58800E+01 1.21227E+01
 -1      8150 9.67870E+01-5.58800E+01 1.38545E+01
 -1      8151 9.67870E+01-5.58800E+01 1.55864E+01
 -1      8152 9.67870E+01-5.58800E+01 1.73182E+01
 -1      8153 9.37298E+01-6.08689E+01 1.73182E+00
 -1      8154 9.37298E+01-6.08689E+01 3.46364E+00
 -1      8155 9.37298E+01-6.08689E+01 5.19545E+00
 -1      8156 9.37298E+01-6.08689E+01 6.92727E+00
 -1      8157 9.37298E+01-6.08689E+01 8.65909E+00
 -1      8158 9.37298E+01-6.08689E+01 1.03909E+01
 -1      8159 9.37298E+01-6.08689E+01 1.21227E+01
 -1      8160 9.37298E+01-6.08689E+01 1.38545E+01
 -1      8161 9.37298E+01-6.08689E+01 1.55864E+01
 -1      8162 9.37298E+01-6.08689E+01 1.73182E+01
 -1      8163 9.04157E+01-6.56909E+01 1.73182E+00
 -1      8164 9.04157E+01-6.56909E+01 3.46364E+00
 -1      8165 9.04157E+01-6.56909E+01 5.19545E+00
 -1      8166 9.04157E+01-6.56909E+01 6.92727E+00
 -1      8167 9.04157E+01-6.56909E+01 8.65909E+00
 -1      8168 9.04157E+01-6.56909E+01 1.03909E+01
 -1      8169 9.04157E+01-6.56909E+01 1.21227E+01
 -1      8170 9.04157E+01-6.56909E+01 1.38545E+01
 -1      8171 9.04157E+01-6.56909E+01 1.55864E+01
 -1      8172 9.04157E+01-6.56909E+01 1.73182E+01
 -1      8173 8.68538E+01-7.03328E+01 1.73182E+00
 -1      8174 8.68538E+01-7.03328E+01 3.46364E+00
 -1      8175 8.68538E+01-7.03328E+01 5.19545E+00
 -1      8176 8.68538E+01-7.03328E+01 6.92727E+00
 -1      8177 8.68538E+01-7.03328E+01 8.65909E+00
 -1      8178 8.68538E+01-7.03328E+01 1.03909E+01
 -1      8179 8.68538E+01-7.03328E+01 1.21227E+01
 -1      8180 8.68538E+01-7.03328E+01 1.38545E+01
 -1      8181 8.68538E+01-7.03328E+01 1.55864E+01
 -1      8182 8.68538E+01-7.03328E+01 1.73182E+01
 -1      8183 8.30539E+01-7.47820E+01 1.73182E+00
 -1      8184 8.30539E+01-7.47820E+01 3.46364E+00
 -1      8185 8.30539E+01-7.47820E+01 5.19545E+00
 -1      8186 8.30539E+01-7.47820E+01 6.92727E+00
 -1      8187 8.30539E+01-7.47820E+01 8.65909E+00
 -1      8188 8.30539E+01-7.47820E+01 1.03909E+01
 -1      8189 8.30539E+01-7.47820E+01 1.21227E+01
 -1      8190 8.30539E+01-7.47820E+01 1.38545E+01
 -1      8191 8.30539E+01-7.47820E+01 1.55864E+01
 -1      8192 8.30539E+01-7.47820E+01 1.73182E+01
 -1      8193 7.90263E+01-7.90263E+01 1.73182E+00
 -1      8194 7.90263E+01-7.90263E+01 3.46364E+00
 -1      8195 7.90263E+01-7.90263E+01 5.19545E+00
 -1      8196 7.90263E+01-7.90263E+01 6.92727E+00
 -1      8197 7.90263E+01-7.90263E+01 8.65909E+00
 -1      8198 7.90263E+01-7.90263E+01 1.03909E+01
 -1      8199 7.90263E+01-7.90263E+01 1.21227E+01
 -1      8200 7.90263E+01-7.90263E+01 1.38545E+01
 -1      8201 7.90263E+01-7.90263E+01 1.55864E+01
 -1      8202 7.90263E+01-7.90263E+01 1.73182E+01
 -1      8203 7.47820E+01-8.30539E+01 1.73182E+00
 -1      8204 7.47820E+01-8.30539E+01 3.46364E+00
 -1      8205 7.47820E+01-8.30539E+01 5.19545E+00
 -1      8206 7.47820E+01-8.30539E+01 6.92727E+00
 -1      8207 7.47820E+01-8.30539E+01 8.65909E+00
 -1      8208 7.47820E+01-8.30539E+01 1.03909E+01
 -1      8209 7.47820E+01-8.30539E+01 1.21227E+01
 -1      8210 7.47820E+01-8.30539E+01 1.38545E+01
 -1      8211 7.47820E+01-8.30539E+01 1.55864E+01
 -1      8212 7.47820E+01-8.30539E+01 1.73182E+01
 -1      8213 7.03328E+01-8.68538E+01 1.73182E+00
 -1      8214 7.03328E+01-8.68538E+01 3.46364E+00
 -1      8215 7.03328E+01-8.68538E+01 5.19545E+00
 -1      8216 7.03328E+01-8.68538E+01 6.92727E+00
 -1      8217 7.03328E+01-8.68538E+01 8.65909E+00
 -1      8218 7.03328E+01-8.68538E+01 1.03909E+01
 -1      8219 7.03328E+01-8.68538E+01 1.21227E+01
 -1      8220 7.03328E+01-8.68538E+01 1.38545E+01
 -1      8221 7.03328E+01-8.68538E+01 1.55864E+01
 -1      8222 7.03328E+01-8.68538E+01 1.73182E+01
 -1      8223 6.56909E+01-9.04157E+01 1.73182E+00
 -1      8224 6.56909E+01-9.04157E+01 3.46364E+00
 -1      8225 6.56909E+01-9.04157E+01 5.19545E+00
 -1      8226 6.56909E+01-9.04157E+01 6.92727E+00
 -1      8227 6.56909E+01-9.04157E+01 8.65909E+00
 -1      8228 6.56909E+01-9.04157E+01 1.03909E+01
 -1      8229 6.56909E+01-9.04157E+01 1.21227E+01
 -1      8230 6.56909E+01-9.04157E+01 1.38545E+01
 -1      8231 6.56909E+01-9.04157E+01 1.55864E+01
 -1      8232 6.56909E+01-9.04157E+01 1.73182E+01
 -1      8233 6.08689E+01-9.37298E+01 1.73182E+00
 -1      8234 6.08689E+01-9.37298E+01 3.46364E+00
 -1      8235 6.08689E+01-9.37298E+01 5.19545E+00
 -1      8236 6.08689E+01-9.37298E+01 6.92727E+00
 -1      8237 6.08689E+01-9.37298E+01 8.65909E+00
 -1      8238 6.08689E+01-9.37298E+01 1.03909E+01
 -1      8239 6.08689E+01-9.37298E+01 1.21227E+01
 -1      8240 6.08689E+01-9.37298E+01 1.38545E+01
 -1      8241 6.08689E+01-9.37298E+01 1.55864E+01
 -1      8242 6.08689E+01-9.37298E+01 1.73182E+01
 -1      8243 5.58800E+01-9.67870E+01 1.73182E+00
 -1      8244 5.58800E+01-9.67870E+01 3.46364E+00
 -1      8245 5.58800E+01-9.67870E+01 5.19545E+00
 -1      8246 5.58800E+01-9.67870E+01 6.92727E+00
 -1      8247 5.58800E+01-9.67870E+01 8.65909E+00
 -1      8248 5.58800E+01-9.67870E+01 1.03909E+01
 -1      8249 5.58800E+01-9.67870E+01 1.21227E+01
 -1      8250 5.58800E+01-9.67870E+01 1.38545E+01
 -1      8251 5.58800E+01-9.67870E+01 1.55864E+01
 -1      8252 5.58800E+01-9.67870E+01 1.73182E+01
 -1      8253 5.07380E+01-9.95789E+01 1.73182E+00
 -1      8254 5.07380E+01-9.95789E+01 3.46364E+00
 -1      8255 5.07380E+01-9.95789E+01 5.19545E+00
 -1      8256 5.07380E+01-9.95789E+01 6.92727E+00
 -1      8257 5.07380E+01-9.95789E+01 8.65909E+00
 -1      8258 5.07380E+01-9.95789E+01 1.03909E+01
 -1      8259 5.07380E+01-9.95789E+01 1.21227E+01
 -1      8260 5.07380E+01-9.95789E+01 1.38545E+01
 -1      8261 5.07380E+01-9.95789E+01 1.55864E+01
 -1      8262 5.07380E+01-9.95789E+01 1.73182E+01
 -1      8263 4.54569E+01-1.02098E+02 1.73182E+00
 -1      8264 4.54569E+01-1.02098E+02 3.46364E+00
 -1      8265 4.54569E+01-1.02098E+02 5.19545E+00
 -1      8266 4.54569E+01-1.02098E+02 6.92727E+00
 -1      8267 4.54569E+01-1.02098E+02 8.65909E+00
 -1      8268 4.54569E+01-1.02098E+02 1.03909E+01
 -1      8269 4.54569E+01-1.02098E+02 1.21227E+01
 -1      8270 4.54569E+01-1.02098E+02 1.38545E+01
 -1      8271 4.54569E+01-1.02098E+02 1.55864E+01
 -1      8272 4.54569E+01-1.02098E+02 1.73182E+01
 -1      8273 4.00512E+01-1.04337E+02 1.73182E+00
 -1      8274 4.00512E+01-1.04337E+02 3.46364E+00
 -1      8275 4.00512E+01-1.04337E+02 5.19545E+00
 -1      8276 4.00512E+01-1.04337E+02 6.92727E+00
 -1      8277 4.00512E+01-1.04337E+02 8.65909E+00
 -1      8278 4.00512E+01-1.04337E+02 1.03909E+01
 -1      8279 4.00512E+01-1.04337E+02 1.21227E+01
 -1      8280 4.00512E+01-1.04337E+02 1.38545E+01
 -1      8281 4.00512E+01-1.04337E+02 1.55864E+01
 -1      8282 4.00512E+01-1.04337E+02 1.73182E+01
 -1      8283 3.45357E+01-1.06290E+02 1.73182E+00
 -1      8284 3.45357E+01-1.06290E+02 3.46364E+00
 -1      8285 3.45357E+01-1.06290E+02 5.19545E+00
 -1      8286 3.45357E+01-1.06290E+02 6.92727E+00
 -1      8287 3.45357E+01-1.06290E+02 8.65909E+00
 -1      8288 3.45357E+01-1.06290E+02 1.03909E+01
 -1      8289 3.45357E+01-1.06290E+02 1.21227E+01
 -1      8290 3.45357E+01-1.06290E+02 1.38545E+01
 -1      8291 3.45357E+01-1.06290E+02 1.55864E+01
 -1      8292 3.45357E+01-1.06290E+02 1.73182E+01
 -1      8293 2.89256E+01-1.07952E+02 1.73182E+00
 -1      8294 2.89256E+01-1.07952E+02 3.46364E+00
 -1      8295 2.89256E+01-1.07952E+02 5.19545E+00
 -1      8296 2.89256E+01-1.07952E+02 6.92727E+00
 -1      8297 2.89256E+01-1.07952E+02 8.65909E+00
 -1      8298 2.89256E+01-1.07952E+02 1.03909E+01
 -1      8299 2.89256E+01-1.07952E+02 1.21227E+01
 -1      8300 2.89256E+01-1.07952E+02 1.38545E+01
 -1      8301 2.89256E+01-1.07952E+02 1.55864E+01
 -1      8302 2.89256E+01-1.07952E+02 1.73182E+01
 -1      8303 2.32362E+01-1.09318E+02 1.73182E+00
 -1      8304 2.32362E+01-1.09318E+02 3.46364E+00
 -1      8305 2.32362E+01-1.09318E+02 5.19545E+00
 -1      8306 2.32362E+01-1.09318E+02 6.92727E+00
 -1      8307 2.32362E+01-1.09318E+02 8.65909E+00
 -1      8308 2.32362E+01-1.09318E+02 1.03909E+01
 -1      8309 2.32362E+01-1.09318E+02 1.21227E+01
 -1      8310 2.32362E+01-1.09318E+02 1.38545E+01
 -1      8311 2.32362E+01-1.09318E+02 1.55864E+01
 -1      8312 2.32362E+01-1.09318E+02 1.73182E+01
 -1      8313 1.74831E+01-1.10384E+02 1.73182E+00
 -1      8314 1.74831E+01-1.10384E+02 3.46364E+00
 -1      8315 1.74831E+01-1.10384E+02 5.19545E+00
 -1      8316 1.74831E+01-1.10384E+02 6.92727E+00
 -1      8317 1.74831E+01-1.10384E+02 8.65909E+00
 -1      8318 1.74831E+01-1.10384E+02 1.03909E+01
 -1      8319 1.74831E+01-1.10384E+02 1.21227E+01
 -1      8320 1.74831E+01-1.10384E+02 1.38545E+01
 -1      8321 1.74831E+01-1.10384E+02 1.55864E+01
 -1      8322 1.74831E+01-1.10384E+02 1.73182E+01
 -1      8323 1.16821E+01-1.11148E+02 1.73182E+00
 -1      8324 1.16821E+01-1.11148E+02 3.46364E+00
 -1      8325 1.16821E+01-1.11148E+02 5.19545E+00
 -1      8326 1.16821E+01-1.11148E+02 6.92727E+00
 -1      8327 1.16821E+01-1.11148E+02 8.65909E+00
 -1      8328 1.16821E+01-1.11148E+02 1.03909E+01
 -1      8329 1.16821E+01-1.11148E+02 1.21227E+01
 -1      8330 1.16821E+01-1.11148E+02 1.38545E+01
 -1      8331 1.16821E+01-1.11148E+02 1.55864E+01
 -1      8332 1.16821E+01-1.11148E+02 1.73182E+01
 -1      8333 5.84907E+00-1.11607E+02 1.73182E+00
 -1      8334 5.84907E+00-1.11607E+02 3.46364E+00
 -1      8335 5.84907E+00-1.11607E+02 5.19545E+00
 -1      8336 5.84907E+00-1.11607E+02 6.92727E+00
 -1      8337 5.84907E+00-1.11607E+02 8.65909E+00
 -1      8338 5.84907E+00-1.11607E+02 1.03909E+01
 -1      8339 5.84907E+00-1.11607E+02 1.21227E+01
 -1      8340 5.84907E+00-1.11607E+02 1.38545E+01
 -1      8341 5.84907E+00-1.11607E+02 1.55864E+01
 -1      8342 5.84907E+00-1.11607E+02 1.73182E+01
 -1      8343 1.14989E+02-6.02631E+00 1.73182E+00
 -1      8344 1.14989E+02-6.02631E+00 3.46364E+00
 -1      8345 1.14989E+02-6.02631E+00 5.19545E+00
 -1      8346 1.14989E+02-6.02631E+00 6.92727E+00
 -1      8347 1.14989E+02-6.02631E+00 8.65909E+00
 -1      8348 1.14989E+02-6.02631E+00 1.03909E+01
 -1      8349 1.14989E+02-6.02631E+00 1.21227E+01
 -1      8350 1.14989E+02-6.02631E+00 1.38545E+01
 -1      8351 1.14989E+02-6.02631E+00 1.55864E+01
 -1      8352 1.14989E+02-6.02631E+00 1.73182E+01
 -1      8353 1.14516E+02-1.20361E+01 1.73182E+00
 -1      8354 1.14516E+02-1.20361E+01 3.46364E+00
 -1      8355 1.14516E+02-1.20361E+01 5.19545E+00
 -1      8356 1.14516E+02-1.20361E+01 6.92727E+00
 -1      8357 1.14516E+02-1.20361E+01 8.65909E+00
 -1      8358 1.14516E+02-1.20361E+01 1.03909E+01
 -1      8359 1.14516E+02-1.20361E+01 1.21227E+01
 -1      8360 1.14516E+02-1.20361E+01 1.38545E+01
 -1      8361 1.14516E+02-1.20361E+01 1.55864E+01
 -1      8362 1.14516E+02-1.20361E+01 1.73182E+01
 -1      8363 1.13729E+02-1.80129E+01 1.73182E+00
 -1      8364 1.13729E+02-1.80129E+01 3.46364E+00
 -1      8365 1.13729E+02-1.80129E+01 5.19545E+00
 -1      8366 1.13729E+02-1.80129E+01 6.92727E+00
 -1      8367 1.13729E+02-1.80129E+01 8.65909E+00
 -1      8368 1.13729E+02-1.80129E+01 1.03909E+01
 -1      8369 1.13729E+02-1.80129E+01 1.21227E+01
 -1      8370 1.13729E+02-1.80129E+01 1.38545E+01
 -1      8371 1.13729E+02-1.80129E+01 1.55864E+01
 -1      8372 1.13729E+02-1.80129E+01 1.73182E+01
 -1      8373 1.12630E+02-2.39403E+01 1.73182E+00
 -1      8374 1.12630E+02-2.39403E+01 3.46364E+00
 -1      8375 1.12630E+02-2.39403E+01 5.19545E+00
 -1      8376 1.12630E+02-2.39403E+01 6.92727E+00
 -1      8377 1.12630E+02-2.39403E+01 8.65909E+00
 -1      8378 1.12630E+02-2.39403E+01 1.03909E+01
 -1      8379 1.12630E+02-2.39403E+01 1.21227E+01
 -1      8380 1.12630E+02-2.39403E+01 1.38545E+01
 -1      8381 1.12630E+02-2.39403E+01 1.55864E+01
 -1      8382 1.12630E+02-2.39403E+01 1.73182E+01
 -1      8383 1.11223E+02-2.98022E+01 1.73182E+00
 -1      8384 1.11223E+02-2.98022E+01 3.46364E+00
 -1      8385 1.11223E+02-2.98022E+01 5.19545E+00
 -1      8386 1.11223E+02-2.98022E+01 6.92727E+00
 -1      8387 1.11223E+02-2.98022E+01 8.65909E+00
 -1      8388 1.11223E+02-2.98022E+01 1.03909E+01
 -1      8389 1.11223E+02-2.98022E+01 1.21227E+01
 -1      8390 1.11223E+02-2.98022E+01 1.38545E+01
 -1      8391 1.11223E+02-2.98022E+01 1.55864E+01
 -1      8392 1.11223E+02-2.98022E+01 1.73182E+01
 -1      8393 1.09511E+02-3.55823E+01 1.73182E+00
 -1      8394 1.09511E+02-3.55823E+01 3.46364E+00
 -1      8395 1.09511E+02-3.55823E+01 5.19545E+00
 -1      8396 1.09511E+02-3.55823E+01 6.92727E+00
 -1      8397 1.09511E+02-3.55823E+01 8.65909E+00
 -1      8398 1.09511E+02-3.55823E+01 1.03909E+01
 -1      8399 1.09511E+02-3.55823E+01 1.21227E+01
 -1      8400 1.09511E+02-3.55823E+01 1.38545E+01
 -1      8401 1.09511E+02-3.55823E+01 1.55864E+01
 -1      8402 1.09511E+02-3.55823E+01 1.73182E+01
 -1      8403 1.07499E+02-4.12649E+01 1.73182E+00
 -1      8404 1.07499E+02-4.12649E+01 3.46364E+00
 -1      8405 1.07499E+02-4.12649E+01 5.19545E+00
 -1      8406 1.07499E+02-4.12649E+01 6.92727E+00
 -1      8407 1.07499E+02-4.12649E+01 8.65909E+00
 -1      8408 1.07499E+02-4.12649E+01 1.03909E+01
 -1      8409 1.07499E+02-4.12649E+01 1.21227E+01
 -1      8410 1.07499E+02-4.12649E+01 1.38545E+01
 -1      8411 1.07499E+02-4.12649E+01 1.55864E+01
 -1      8412 1.07499E+02-4.12649E+01 1.73182E+01
 -1      8413 1.05192E+02-4.68344E+01 1.73182E+00
 -1      8414 1.05192E+02-4.68344E+01 3.46364E+00
 -1      8415 1.05192E+02-4.68344E+01 5.19545E+00
 -1      8416 1.05192E+02-4.68344E+01 6.92727E+00
 -1      8417 1.05192E+02-4.68344E+01 8.65909E+00
 -1      8418 1.05192E+02-4.68344E+01 1.03909E+01
 -1      8419 1.05192E+02-4.68344E+01 1.21227E+01
 -1      8420 1.05192E+02-4.68344E+01 1.38545E+01
 -1      8421 1.05192E+02-4.68344E+01 1.55864E+01
 -1      8422 1.05192E+02-4.68344E+01 1.73182E+01
 -1      8423 1.02596E+02-5.22755E+01 1.73182E+00
 -1      8424 1.02596E+02-5.22755E+01 3.46364E+00
 -1      8425 1.02596E+02-5.22755E+01 5.19545E+00
 -1      8426 1.02596E+02-5.22755E+01 6.92727E+00
 -1      8427 1.02596E+02-5.22755E+01 8.65909E+00
 -1      8428 1.02596E+02-5.22755E+01 1.03909E+01
 -1      8429 1.02596E+02-5.22755E+01 1.21227E+01
 -1      8430 1.02596E+02-5.22755E+01 1.38545E+01
 -1      8431 1.02596E+02-5.22755E+01 1.55864E+01
 -1      8432 1.02596E+02-5.22755E+01 1.73182E+01
 -1      8433 9.97199E+01-5.75733E+01 1.73182E+00
 -1      8434 9.97199E+01-5.75733E+01 3.46364E+00
 -1      8435 9.97199E+01-5.75733E+01 5.19545E+00
 -1      8436 9.97199E+01-5.75733E+01 6.92727E+00
 -1      8437 9.97199E+01-5.75733E+01 8.65909E+00
 -1      8438 9.97199E+01-5.75733E+01 1.03909E+01
 -1      8439 9.97199E+01-5.75733E+01 1.21227E+01
 -1      8440 9.97199E+01-5.75733E+01 1.38545E+01
 -1      8441 9.97199E+01-5.75733E+01 1.55864E+01
 -1      8442 9.97199E+01-5.75733E+01 1.73182E+01
 -1      8443 9.65701E+01-6.27134E+01 1.73182E+00
 -1      8444 9.65701E+01-6.27134E+01 3.46364E+00
 -1      8445 9.65701E+01-6.27134E+01 5.19545E+00
 -1      8446 9.65701E+01-6.27134E+01 6.92727E+00
 -1      8447 9.65701E+01-6.27134E+01 8.65909E+00
 -1      8448 9.65701E+01-6.27134E+01 1.03909E+01
 -1      8449 9.65701E+01-6.27134E+01 1.21227E+01
 -1      8450 9.65701E+01-6.27134E+01 1.38545E+01
 -1      8451 9.65701E+01-6.27134E+01 1.55864E+01
 -1      8452 9.65701E+01-6.27134E+01 1.73182E+01
 -1      8453 9.31556E+01-6.76815E+01 1.73182E+00
 -1      8454 9.31556E+01-6.76815E+01 3.46364E+00
 -1      8455 9.31556E+01-6.76815E+01 5.19545E+00
 -1      8456 9.31556E+01-6.76815E+01 6.92727E+00
 -1      8457 9.31556E+01-6.76815E+01 8.65909E+00
 -1      8458 9.31556E+01-6.76815E+01 1.03909E+01
 -1      8459 9.31556E+01-6.76815E+01 1.21227E+01
 -1      8460 9.31556E+01-6.76815E+01 1.38545E+01
 -1      8461 9.31556E+01-6.76815E+01 1.55864E+01
 -1      8462 9.31556E+01-6.76815E+01 1.73182E+01
 -1      8463 8.94858E+01-7.24641E+01 1.73182E+00
 -1      8464 8.94858E+01-7.24641E+01 3.46364E+00
 -1      8465 8.94858E+01-7.24641E+01 5.19545E+00
 -1      8466 8.94858E+01-7.24641E+01 6.92727E+00
 -1      8467 8.94858E+01-7.24641E+01 8.65909E+00
 -1      8468 8.94858E+01-7.24641E+01 1.03909E+01
 -1      8469 8.94858E+01-7.24641E+01 1.21227E+01
 -1      8470 8.94858E+01-7.24641E+01 1.38545E+01
 -1      8471 8.94858E+01-7.24641E+01 1.55864E+01
 -1      8472 8.94858E+01-7.24641E+01 1.73182E+01
 -1      8473 8.55706E+01-7.70482E+01 1.73182E+00
 -1      8474 8.55706E+01-7.70482E+01 3.46364E+00
 -1      8475 8.55706E+01-7.70482E+01 5.19545E+00
 -1      8476 8.55706E+01-7.70482E+01 6.92727E+00
 -1      8477 8.55706E+01-7.70482E+01 8.65909E+00
 -1      8478 8.55706E+01-7.70482E+01 1.03909E+01
 -1      8479 8.55706E+01-7.70482E+01 1.21227E+01
 -1      8480 8.55706E+01-7.70482E+01 1.38545E+01
 -1      8481 8.55706E+01-7.70482E+01 1.55864E+01
 -1      8482 8.55706E+01-7.70482E+01 1.73182E+01
 -1      8483 8.14210E+01-8.14210E+01 1.73182E+00
 -1      8484 8.14210E+01-8.14210E+01 3.46364E+00
 -1      8485 8.14210E+01-8.14210E+01 5.19545E+00
 -1      8486 8.14210E+01-8.14210E+01 6.92727E+00
 -1      8487 8.14210E+01-8.14210E+01 8.65909E+00
 -1      8488 8.14210E+01-8.14210E+01 1.03909E+01
 -1      8489 8.14210E+01-8.14210E+01 1.21227E+01
 -1      8490 8.14210E+01-8.14210E+01 1.38545E+01
 -1      8491 8.14210E+01-8.14210E+01 1.55864E+01
 -1      8492 8.14210E+01-8.14210E+01 1.73182E+01
 -1      8493 7.70482E+01-8.55706E+01 1.73182E+00
 -1      8494 7.70482E+01-8.55706E+01 3.46364E+00
 -1      8495 7.70482E+01-8.55706E+01 5.19545E+00
 -1      8496 7.70482E+01-8.55706E+01 6.92727E+00
 -1      8497 7.70482E+01-8.55706E+01 8.65909E+00
 -1      8498 7.70482E+01-8.55706E+01 1.03909E+01
 -1      8499 7.70482E+01-8.55706E+01 1.21227E+01
 -1      8500 7.70482E+01-8.55706E+01 1.38545E+01
 -1      8501 7.70482E+01-8.55706E+01 1.55864E+01
 -1      8502 7.70482E+01-8.55706E+01 1.73182E+01
 -1      8503 7.24641E+01-8.94858E+01 1.73182E+00
 -1      8504 7.24641E+01-8.94858E+01 3.46364E+00
 -1      8505 7.24641E+01-8.94858E+01 5.19545E+00
 -1      8506 7.24641E+01-8.94858E+01 6.92727E+00
 -1      8507 7.24641E+01-8.94858E+01 8.65909E+00
 -1      8508 7.24641E+01-8.94858E+01 1.03909E+01
 -1      8509 7.24641E+01-8.94858E+01 1.21227E+01
 -1      8510 7.24641E+01-8.94858E+01 1.38545E+01
 -1      8511 7.24641E+01-8.94858E+01 1.55864E+01
 -1      8512 7.24641E+01-8.94858E+01 1.73182E+01
 -1      8513 6.76815E+01-9.31556E+01 1.73182E+00
 -1      8514 6.76815E+01-9.31556E+01 3.46364E+00
 -1      8515 6.76815E+01-9.31556E+01 5.19545E+00
 -1      8516 6.76815E+01-9.31556E+01 6.92727E+00
 -1      8517 6.76815E+01-9.31556E+01 8.65909E+00
 -1      8518 6.76815E+01-9.31556E+01 1.03909E+01
 -1      8519 6.76815E+01-9.31556E+01 1.21227E+01
 -1      8520 6.76815E+01-9.31556E+01 1.38545E+01
 -1      8521 6.76815E+01-9.31556E+01 1.55864E+01
 -1      8522 6.76815E+01-9.31556E+01 1.73182E+01
 -1      8523 6.27134E+01-9.65701E+01 1.73182E+00
 -1      8524 6.27134E+01-9.65701E+01 3.46364E+00
 -1      8525 6.27134E+01-9.65701E+01 5.19545E+00
 -1      8526 6.27134E+01-9.65701E+01 6.92727E+00
 -1      8527 6.27134E+01-9.65701E+01 8.65909E+00
 -1      8528 6.27134E+01-9.65701E+01 1.03909E+01
 -1      8529 6.27134E+01-9.65701E+01 1.21227E+01
 -1      8530 6.27134E+01-9.65701E+01 1.38545E+01
 -1      8531 6.27134E+01-9.65701E+01 1.55864E+01
 -1      8532 6.27134E+01-9.65701E+01 1.73182E+01
 -1      8533 5.75733E+01-9.97199E+01 1.73182E+00
 -1      8534 5.75733E+01-9.97199E+01 3.46364E+00
 -1      8535 5.75733E+01-9.97199E+01 5.19545E+00
 -1      8536 5.75733E+01-9.97199E+01 6.92727E+00
 -1      8537 5.75733E+01-9.97199E+01 8.65909E+00
 -1      8538 5.75733E+01-9.97199E+01 1.03909E+01
 -1      8539 5.75733E+01-9.97199E+01 1.21227E+01
 -1      8540 5.75733E+01-9.97199E+01 1.38545E+01
 -1      8541 5.75733E+01-9.97199E+01 1.55864E+01
 -1      8542 5.75733E+01-9.97199E+01 1.73182E+01
 -1      8543 5.22755E+01-1.02596E+02 1.73182E+00
 -1      8544 5.22755E+01-1.02596E+02 3.46364E+00
 -1      8545 5.22755E+01-1.02596E+02 5.19545E+00
 -1      8546 5.22755E+01-1.02596E+02 6.92727E+00
 -1      8547 5.22755E+01-1.02596E+02 8.65909E+00
 -1      8548 5.22755E+01-1.02596E+02 1.03909E+01
 -1      8549 5.22755E+01-1.02596E+02 1.21227E+01
 -1      8550 5.22755E+01-1.02596E+02 1.38545E+01
 -1      8551 5.22755E+01-1.02596E+02 1.55864E+01
 -1      8552 5.22755E+01-1.02596E+02 1.73182E+01
 -1      8553 4.68344E+01-1.05192E+02 1.73182E+00
 -1      8554 4.68344E+01-1.05192E+02 3.46364E+00
 -1      8555 4.68344E+01-1.05192E+02 5.19545E+00
 -1      8556 4.68344E+01-1.05192E+02 6.92727E+00
 -1      8557 4.68344E+01-1.05192E+02 8.65909E+00
 -1      8558 4.68344E+01-1.05192E+02 1.03909E+01
 -1      8559 4.68344E+01-1.05192E+02 1.21227E+01
 -1      8560 4.68344E+01-1.05192E+02 1.38545E+01
 -1      8561 4.68344E+01-1.05192E+02 1.55864E+01
 -1      8562 4.68344E+01-1.05192E+02 1.73182E+01
 -1      8563 4.12649E+01-1.07499E+02 1.73182E+00
 -1      8564 4.12649E+01-1.07499E+02 3.46364E+00
 -1      8565 4.12649E+01-1.07499E+02 5.19545E+00
 -1      8566 4.12649E+01-1.07499E+02 6.92727E+00
 -1      8567 4.12649E+01-1.07499E+02 8.65909E+00
 -1      8568 4.12649E+01-1.07499E+02 1.03909E+01
 -1      8569 4.12649E+01-1.07499E+02 1.21227E+01
 -1      8570 4.12649E+01-1.07499E+02 1.38545E+01
 -1      8571 4.12649E+01-1.07499E+02 1.55864E+01
 -1      8572 4.12649E+01-1.07499E+02 1.73182E+01
 -1      8573 3.55823E+01-1.09511E+02 1.73182E+00
 -1      8574 3.55823E+01-1.09511E+02 3.46364E+00
 -1      8575 3.55823E+01-1.09511E+02 5.19545E+00
 -1      8576 3.55823E+01-1.09511E+02 6.92727E+00
 -1      8577 3.55823E+01-1.09511E+02 8.65909E+00
 -1      8578 3.55823E+01-1.09511E+02 1.03909E+01
 -1      8579 3.55823E+01-1.09511E+02 1.21227E+01
 -1      8580 3.55823E+01-1.09511E+02 1.38545E+01
 -1      8581 3.55823E+01-1.09511E+02 1.55864E+01
 -1      8582 3.55823E+01-1.09511E+02 1.73182E+01
 -1      8583 2.98022E+01-1.11223E+02 1.73182E+00
 -1      8584 2.98022E+01-1.11223E+02 3.46364E+00
 -1      8585 2.98022E+01-1.11223E+02 5.19545E+00
 -1      8586 2.98022E+01-1.11223E+02 6.92727E+00
 -1      8587 2.98022E+01-1.11223E+02 8.65909E+00
 -1      8588 2.98022E+01-1.11223E+02 1.03909E+01
 -1      8589 2.98022E+01-1.11223E+02 1.21227E+01
 -1      8590 2.98022E+01-1.11223E+02 1.38545E+01
 -1      8591 2.98022E+01-1.11223E+02 1.55864E+01
 -1      8592 2.98022E+01-1.11223E+02 1.73182E+01
 -1      8593 2.39403E+01-1.12630E+02 1.73182E+00
 -1      8594 2.39403E+01-1.12630E+02 3.46364E+00
 -1      8595 2.39403E+01-1.12630E+02 5.19545E+00
 -1      8596 2.39403E+01-1.12630E+02 6.92727E+00
 -1      8597 2.39403E+01-1.12630E+02 8.65909E+00
 -1      8598 2.39403E+01-1.12630E+02 1.03909E+01
 -1      8599 2.39403E+01-1.12630E+02 1.21227E+01
 -1      8600 2.39403E+01-1.12630E+02 1.38545E+01
 -1      8601 2.39403E+01-1.12630E+02 1.55864E+01
 -1      8602 2.39403E+01-1.12630E+02 1.73182E+01
 -1      8603 1.80129E+01-1.13729E+02 1.73182E+00
 -1      8604 1.80129E+01-1.13729E+02 3.46364E+00
 -1      8605 1.80129E+01-1.13729E+02 5.19545E+00
 -1      8606 1.80129E+01-1.13729E+02 6.92727E+00
 -1      8607 1.80129E+01-1.13729E+02 8.65909E+00
 -1      8608 1.80129E+01-1.13729E+02 1.03909E+01
 -1      8609 1.80129E+01-1.13729E+02 1.21227E+01
 -1      8610 1.80129E+01-1.13729E+02 1.38545E+01
 -1      8611 1.80129E+01-1.13729E+02 1.55864E+01
 -1      8612 1.80129E+01-1.13729E+02 1.73182E+01
 -1      8613 1.20361E+01-1.14516E+02 1.73182E+00
 -1      8614 1.20361E+01-1.14516E+02 3.46364E+00
 -1      8615 1.20361E+01-1.14516E+02 5.19545E+00
 -1      8616 1.20361E+01-1.14516E+02 6.92727E+00
 -1      8617 1.20361E+01-1.14516E+02 8.65909E+00
 -1      8618 1.20361E+01-1.14516E+02 1.03909E+01
 -1      8619 1.20361E+01-1.14516E+02 1.21227E+01
 -1      8620 1.20361E+01-1.14516E+02 1.38545E+01
 -1      8621 1.20361E+01-1.14516E+02 1.55864E+01
 -1      8622 1.20361E+01-1.14516E+02 1.73182E+01
 -1      8623 6.02631E+00-1.14989E+02 1.73182E+00
 -1      8624 6.02631E+00-1.14989E+02 3.46364E+00
 -1      8625 6.02631E+00-1.14989E+02 5.19545E+00
 -1      8626 6.02631E+00-1.14989E+02 6.92727E+00
 -1      8627 6.02631E+00-1.14989E+02 8.65909E+00
 -1      8628 6.02631E+00-1.14989E+02 1.03909E+01
 -1      8629 6.02631E+00-1.14989E+02 1.21227E+01
 -1      8630 6.02631E+00-1.14989E+02 1.38545E+01
 -1      8631 6.02631E+00-1.14989E+02 1.55864E+01
 -1      8632 6.02631E+00-1.14989E+02 1.73182E+01
 -1      8633 1.18371E+02-6.20356E+00 1.73182E+00
 -1      8634 1.18371E+02-6.20356E+00 3.46364E+00
 -1      8635 1.18371E+02-6.20356E+00 5.19545E+00
 -1      8636 1.18371E+02-6.20356E+00 6.92727E+00
 -1      8637 1.18371E+02-6.20356E+00 8.65909E+00
 -1      8638 1.18371E+02-6.20356E+00 1.03909E+01
 -1      8639 1.18371E+02-6.20356E+00 1.21227E+01
 -1      8640 1.18371E+02-6.20356E+00 1.38545E+01
 -1      8641 1.18371E+02-6.20356E+00 1.55864E+01
 -1      8642 1.18371E+02-6.20356E+00 1.73182E+01
 -1      8643 1.17884E+02-1.23901E+01 1.73182E+00
 -1      8644 1.17884E+02-1.23901E+01 3.46364E+00
 -1      8645 1.17884E+02-1.23901E+01 5.19545E+00
 -1      8646 1.17884E+02-1.23901E+01 6.92727E+00
 -1      8647 1.17884E+02-1.23901E+01 8.65909E+00
 -1      8648 1.17884E+02-1.23901E+01 1.03909E+01
 -1      8649 1.17884E+02-1.23901E+01 1.21227E+01
 -1      8650 1.17884E+02-1.23901E+01 1.38545E+01
 -1      8651 1.17884E+02-1.23901E+01 1.55864E+01
 -1      8652 1.17884E+02-1.23901E+01 1.73182E+01
 -1      8653 1.17074E+02-1.85427E+01 1.73182E+00
 -1      8654 1.17074E+02-1.85427E+01 3.46364E+00
 -1      8655 1.17074E+02-1.85427E+01 5.19545E+00
 -1      8656 1.17074E+02-1.85427E+01 6.92727E+00
 -1      8657 1.17074E+02-1.85427E+01 8.65909E+00
 -1      8658 1.17074E+02-1.85427E+01 1.03909E+01
 -1      8659 1.17074E+02-1.85427E+01 1.21227E+01
 -1      8660 1.17074E+02-1.85427E+01 1.38545E+01
 -1      8661 1.17074E+02-1.85427E+01 1.55864E+01
 -1      8662 1.17074E+02-1.85427E+01 1.73182E+01
 -1      8663 1.15943E+02-2.46445E+01 1.73182E+00
 -1      8664 1.15943E+02-2.46445E+01 3.46364E+00
 -1      8665 1.15943E+02-2.46445E+01 5.19545E+00
 -1      8666 1.15943E+02-2.46445E+01 6.92727E+00
 -1      8667 1.15943E+02-2.46445E+01 8.65909E+00
 -1      8668 1.15943E+02-2.46445E+01 1.03909E+01
 -1      8669 1.15943E+02-2.46445E+01 1.21227E+01
 -1      8670 1.15943E+02-2.46445E+01 1.38545E+01
 -1      8671 1.15943E+02-2.46445E+01 1.55864E+01
 -1      8672 1.15943E+02-2.46445E+01 1.73182E+01
 -1      8673 1.14494E+02-3.06787E+01 1.73182E+00
 -1      8674 1.14494E+02-3.06787E+01 3.46364E+00
 -1      8675 1.14494E+02-3.06787E+01 5.19545E+00
 -1      8676 1.14494E+02-3.06787E+01 6.92727E+00
 -1      8677 1.14494E+02-3.06787E+01 8.65909E+00
 -1      8678 1.14494E+02-3.06787E+01 1.03909E+01
 -1      8679 1.14494E+02-3.06787E+01 1.21227E+01
 -1      8680 1.14494E+02-3.06787E+01 1.38545E+01
 -1      8681 1.14494E+02-3.06787E+01 1.55864E+01
 -1      8682 1.14494E+02-3.06787E+01 1.73182E+01
 -1      8683 1.12732E+02-3.66288E+01 1.73182E+00
 -1      8684 1.12732E+02-3.66288E+01 3.46364E+00
 -1      8685 1.12732E+02-3.66288E+01 5.19545E+00
 -1      8686 1.12732E+02-3.66288E+01 6.92727E+00
 -1      8687 1.12732E+02-3.66288E+01 8.65909E+00
 -1      8688 1.12732E+02-3.66288E+01 1.03909E+01
 -1      8689 1.12732E+02-3.66288E+01 1.21227E+01
 -1      8690 1.12732E+02-3.66288E+01 1.38545E+01
 -1      8691 1.12732E+02-3.66288E+01 1.55864E+01
 -1      8692 1.12732E+02-3.66288E+01 1.73182E+01
 -1      8693 1.10660E+02-4.24785E+01 1.73182E+00
 -1      8694 1.10660E+02-4.24785E+01 3.46364E+00
 -1      8695 1.10660E+02-4.24785E+01 5.19545E+00
 -1      8696 1.10660E+02-4.24785E+01 6.92727E+00
 -1      8697 1.10660E+02-4.24785E+01 8.65909E+00
 -1      8698 1.10660E+02-4.24785E+01 1.03909E+01
 -1      8699 1.10660E+02-4.24785E+01 1.21227E+01
 -1      8700 1.10660E+02-4.24785E+01 1.38545E+01
 -1      8701 1.10660E+02-4.24785E+01 1.55864E+01
 -1      8702 1.10660E+02-4.24785E+01 1.73182E+01
 -1      8703 1.08286E+02-4.82118E+01 1.73182E+00
 -1      8704 1.08286E+02-4.82118E+01 3.46364E+00
 -1      8705 1.08286E+02-4.82118E+01 5.19545E+00
 -1      8706 1.08286E+02-4.82118E+01 6.92727E+00
 -1      8707 1.08286E+02-4.82118E+01 8.65909E+00
 -1      8708 1.08286E+02-4.82118E+01 1.03909E+01
 -1      8709 1.08286E+02-4.82118E+01 1.21227E+01
 -1      8710 1.08286E+02-4.82118E+01 1.38545E+01
 -1      8711 1.08286E+02-4.82118E+01 1.55864E+01
 -1      8712 1.08286E+02-4.82118E+01 1.73182E+01
 -1      8713 1.05614E+02-5.38130E+01 1.73182E+00
 -1      8714 1.05614E+02-5.38130E+01 3.46364E+00
 -1      8715 1.05614E+02-5.38130E+01 5.19545E+00
 -1      8716 1.05614E+02-5.38130E+01 6.92727E+00
 -1      8717 1.05614E+02-5.38130E+01 8.65909E+00
 -1      8718 1.05614E+02-5.38130E+01 1.03909E+01
 -1      8719 1.05614E+02-5.38130E+01 1.21227E+01
 -1      8720 1.05614E+02-5.38130E+01 1.38545E+01
 -1      8721 1.05614E+02-5.38130E+01 1.55864E+01
 -1      8722 1.05614E+02-5.38130E+01 1.73182E+01
 -1      8723 1.02653E+02-5.92667E+01 1.73182E+00
 -1      8724 1.02653E+02-5.92667E+01 3.46364E+00
 -1      8725 1.02653E+02-5.92667E+01 5.19545E+00
 -1      8726 1.02653E+02-5.92667E+01 6.92727E+00
 -1      8727 1.02653E+02-5.92667E+01 8.65909E+00
 -1      8728 1.02653E+02-5.92667E+01 1.03909E+01
 -1      8729 1.02653E+02-5.92667E+01 1.21227E+01
 -1      8730 1.02653E+02-5.92667E+01 1.38545E+01
 -1      8731 1.02653E+02-5.92667E+01 1.55864E+01
 -1      8732 1.02653E+02-5.92667E+01 1.73182E+01
 -1      8733 9.94104E+01-6.45579E+01 1.73182E+00
 -1      8734 9.94104E+01-6.45579E+01 3.46364E+00
 -1      8735 9.94104E+01-6.45579E+01 5.19545E+00
 -1      8736 9.94104E+01-6.45579E+01 6.92727E+00
 -1      8737 9.94104E+01-6.45579E+01 8.65909E+00
 -1      8738 9.94104E+01-6.45579E+01 1.03909E+01
 -1      8739 9.94104E+01-6.45579E+01 1.21227E+01
 -1      8740 9.94104E+01-6.45579E+01 1.38545E+01
 -1      8741 9.94104E+01-6.45579E+01 1.55864E+01
 -1      8742 9.94104E+01-6.45579E+01 1.73182E+01
 -1      8743 9.58955E+01-6.96721E+01 1.73182E+00
 -1      8744 9.58955E+01-6.96721E+01 3.46364E+00
 -1      8745 9.58955E+01-6.96721E+01 5.19545E+00
 -1      8746 9.58955E+01-6.96721E+01 6.92727E+00
 -1      8747 9.58955E+01-6.96721E+01 8.65909E+00
 -1      8748 9.58955E+01-6.96721E+01 1.03909E+01
 -1      8749 9.58955E+01-6.96721E+01 1.21227E+01
 -1      8750 9.58955E+01-6.96721E+01 1.38545E+01
 -1      8751 9.58955E+01-6.96721E+01 1.55864E+01
 -1      8752 9.58955E+01-6.96721E+01 1.73182E+01
 -1      8753 9.21177E+01-7.45954E+01 1.73182E+00
 -1      8754 9.21177E+01-7.45954E+01 3.46364E+00
 -1      8755 9.21177E+01-7.45954E+01 5.19545E+00
 -1      8756 9.21177E+01-7.45954E+01 6.92727E+00
 -1      8757 9.21177E+01-7.45954E+01 8.65909E+00
 -1      8758 9.21177E+01-7.45954E+01 1.03909E+01
 -1      8759 9.21177E+01-7.45954E+01 1.21227E+01
 -1      8760 9.21177E+01-7.45954E+01 1.38545E+01
 -1      8761 9.21177E+01-7.45954E+01 1.55864E+01
 -1      8762 9.21177E+01-7.45954E+01 1.73182E+01
 -1      8763 8.80874E+01-7.93143E+01 1.73182E+00
 -1      8764 8.80874E+01-7.93143E+01 3.46364E+00
 -1      8765 8.80874E+01-7.93143E+01 5.19545E+00
 -1      8766 8.80874E+01-7.93143E+01 6.92727E+00
 -1      8767 8.80874E+01-7.93143E+01 8.65909E+00
 -1      8768 8.80874E+01-7.93143E+01 1.03909E+01
 -1      8769 8.80874E+01-7.93143E+01 1.21227E+01
 -1      8770 8.80874E+01-7.93143E+01 1.38545E+01
 -1      8771 8.80874E+01-7.93143E+01 1.55864E+01
 -1      8772 8.80874E+01-7.93143E+01 1.73182E+01
 -1      8773 8.38157E+01-8.38157E+01 1.73182E+00
 -1      8774 8.38157E+01-8.38157E+01 3.46364E+00
 -1      8775 8.38157E+01-8.38157E+01 5.19545E+00
 -1      8776 8.38157E+01-8.38157E+01 6.92727E+00
 -1      8777 8.38157E+01-8.38157E+01 8.65909E+00
 -1      8778 8.38157E+01-8.38157E+01 1.03909E+01
 -1      8779 8.38157E+01-8.38157E+01 1.21227E+01
 -1      8780 8.38157E+01-8.38157E+01 1.38545E+01
 -1      8781 8.38157E+01-8.38157E+01 1.55864E+01
 -1      8782 8.38157E+01-8.38157E+01 1.73182E+01
 -1      8783 7.93143E+01-8.80874E+01 1.73182E+00
 -1      8784 7.93143E+01-8.80874E+01 3.46364E+00
 -1      8785 7.93143E+01-8.80874E+01 5.19545E+00
 -1      8786 7.93143E+01-8.80874E+01 6.92727E+00
 -1      8787 7.93143E+01-8.80874E+01 8.65909E+00
 -1      8788 7.93143E+01-8.80874E+01 1.03909E+01
 -1      8789 7.93143E+01-8.80874E+01 1.21227E+01
 -1      8790 7.93143E+01-8.80874E+01 1.38545E+01
 -1      8791 7.93143E+01-8.80874E+01 1.55864E+01
 -1      8792 7.93143E+01-8.80874E+01 1.73182E+01
 -1      8793 7.45954E+01-9.21177E+01 1.73182E+00
 -1      8794 7.45954E+01-9.21177E+01 3.46364E+00
 -1      8795 7.45954E+01-9.21177E+01 5.19545E+00
 -1      8796 7.45954E+01-9.21177E+01 6.92727E+00
 -1      8797 7.45954E+01-9.21177E+01 8.65909E+00
 -1      8798 7.45954E+01-9.21177E+01 1.03909E+01
 -1      8799 7.45954E+01-9.21177E+01 1.21227E+01
 -1      8800 7.45954E+01-9.21177E+01 1.38545E+01
 -1      8801 7.45954E+01-9.21177E+01 1.55864E+01
 -1      8802 7.45954E+01-9.21177E+01 1.73182E+01
 -1      8803 6.96721E+01-9.58955E+01 1.73182E+00
 -1      8804 6.96721E+01-9.58955E+01 3.46364E+00
 -1      8805 6.96721E+01-9.58955E+01 5.19545E+00
 -1      8806 6.96721E+01-9.58955E+01 6.92727E+00
 -1      8807 6.96721E+01-9.58955E+01 8.65909E+00
 -1      8808 6.96721E+01-9.58955E+01 1.03909E+01
 -1      8809 6.96721E+01-9.58955E+01 1.21227E+01
 -1      8810 6.96721E+01-9.58955E+01 1.38545E+01
 -1      8811 6.96721E+01-9.58955E+01 1.55864E+01
 -1      8812 6.96721E+01-9.58955E+01 1.73182E+01
 -1      8813 6.45579E+01-9.94104E+01 1.73182E+00
 -1      8814 6.45579E+01-9.94104E+01 3.46364E+00
 -1      8815 6.45579E+01-9.94104E+01 5.19545E+00
 -1      8816 6.45579E+01-9.94104E+01 6.92727E+00
 -1      8817 6.45579E+01-9.94104E+01 8.65909E+00
 -1      8818 6.45579E+01-9.94104E+01 1.03909E+01
 -1      8819 6.45579E+01-9.94104E+01 1.21227E+01
 -1      8820 6.45579E+01-9.94104E+01 1.38545E+01
 -1      8821 6.45579E+01-9.94104E+01 1.55864E+01
 -1      8822 6.45579E+01-9.94104E+01 1.73182E+01
 -1      8823 5.92667E+01-1.02653E+02 1.73182E+00
 -1      8824 5.92667E+01-1.02653E+02 3.46364E+00
 -1      8825 5.92667E+01-1.02653E+02 5.19545E+00
 -1      8826 5.92667E+01-1.02653E+02 6.92727E+00
 -1      8827 5.92667E+01-1.02653E+02 8.65909E+00
 -1      8828 5.92667E+01-1.02653E+02 1.03909E+01
 -1      8829 5.92667E+01-1.02653E+02 1.21227E+01
 -1      8830 5.92667E+01-1.02653E+02 1.38545E+01
 -1      8831 5.92667E+01-1.02653E+02 1.55864E+01
 -1      8832 5.92667E+01-1.02653E+02 1.73182E+01
 -1      8833 5.38130E+01-1.05614E+02 1.73182E+00
 -1      8834 5.38130E+01-1.05614E+02 3.46364E+00
 -1      8835 5.38130E+01-1.05614E+02 5.19545E+00
 -1      8836 5.38130E+01-1.05614E+02 6.92727E+00
 -1      8837 5.38130E+01-1.05614E+02 8.65909E+00
 -1      8838 5.38130E+01-1.05614E+02 1.03909E+01
 -1      8839 5.38130E+01-1.05614E+02 1.21227E+01
 -1      8840 5.38130E+01-1.05614E+02 1.38545E+01
 -1      8841 5.38130E+01-1.05614E+02 1.55864E+01
 -1      8842 5.38130E+01-1.05614E+02 1.73182E+01
 -1      8843 4.82118E+01-1.08286E+02 1.73182E+00
 -1      8844 4.82118E+01-1.08286E+02 3.46364E+00
 -1      8845 4.82118E+01-1.08286E+02 5.19545E+00
 -1      8846 4.82118E+01-1.08286E+02 6.92727E+00
 -1      8847 4.82118E+01-1.08286E+02 8.65909E+00
 -1      8848 4.82118E+01-1.08286E+02 1.03909E+01
 -1      8849 4.82118E+01-1.08286E+02 1.21227E+01
 -1      8850 4.82118E+01-1.08286E+02 1.38545E+01
 -1      8851 4.82118E+01-1.08286E+02 1.55864E+01
 -1      8852 4.82118E+01-1.08286E+02 1.73182E+01
 -1      8853 4.24785E+01-1.10660E+02 1.73182E+00
 -1      8854 4.24785E+01-1.10660E+02 3.46364E+00
 -1      8855 4.24785E+01-1.10660E+02 5.19545E+00
 -1      8856 4.24785E+01-1.10660E+02 6.92727E+00
 -1      8857 4.24785E+01-1.10660E+02 8.65909E+00
 -1      8858 4.24785E+01-1.10660E+02 1.03909E+01
 -1      8859 4.24785E+01-1.10660E+02 1.21227E+01
 -1      8860 4.24785E+01-1.10660E+02 1.38545E+01
 -1      8861 4.24785E+01-1.10660E+02 1.55864E+01
 -1      8862 4.24785E+01-1.10660E+02 1.73182E+01
 -1      8863 3.66288E+01-1.12732E+02 1.73182E+00
 -1      8864 3.66288E+01-1.12732E+02 3.46364E+00
 -1      8865 3.66288E+01-1.12732E+02 5.19545E+00
 -1      8866 3.66288E+01-1.12732E+02 6.92727E+00
 -1      8867 3.66288E+01-1.12732E+02 8.65909E+00
 -1      8868 3.66288E+01-1.12732E+02 1.03909E+01
 -1      8869 3.66288E+01-1.12732E+02 1.21227E+01
 -1      8870 3.66288E+01-1.12732E+02 1.38545E+01
 -1      8871 3.66288E+01-1.12732E+02 1.55864E+01
 -1      8872 3.66288E+01-1.12732E+02 1.73182E+01
 -1      8873 3.06787E+01-1.14494E+02 1.73182E+00
 -1      8874 3.06787E+01-1.14494E+02 3.46364E+00
 -1      8875 3.06787E+01-1.14494E+02 5.19545E+00
 -1      8876 3.06787E+01-1.14494E+02 6.92727E+00
 -1      8877 3.06787E+01-1.14494E+02 8.65909E+00
 -1      8878 3.06787E+01-1.14494E+02 1.03909E+01
 -1      8879 3.06787E+01-1.14494E+02 1.21227E+01
 -1      8880 3.06787E+01-1.14494E+02 1.38545E+01
 -1      8881 3.06787E+01-1.14494E+02 1.55864E+01
 -1      8882 3.06787E+01-1.14494E+02 1.73182E+01
 -1      8883 2.46445E+01-1.15943E+02 1.73182E+00
 -1      8884 2.46445E+01-1.15943E+02 3.46364E+00
 -1      8885 2.46445E+01-1.15943E+02 5.19545E+00
 -1      8886 2.46445E+01-1.15943E+02 6.92727E+00
 -1      8887 2.46445E+01-1.15943E+02 8.65909E+00
 -1      8888 2.46445E+01-1.15943E+02 1.03909E+01
 -1      8889 2.46445E+01-1.15943E+02 1.21227E+01
 -1      8890 2.46445E+01-1.15943E+02 1.38545E+01
 -1      8891 2.46445E+01-1.15943E+02 1.55864E+01
 -1      8892 2.46445E+01-1.15943E+02 1.73182E+01
 -1      8893 1.85427E+01-1.17074E+02 1.73182E+00
 -1      8894 1.85427E+01-1.17074E+02 3.46364E+00
 -1      8895 1.85427E+01-1.17074E+02 5.19545E+00
 -1      8896 1.85427E+01-1.17074E+02 6.92727E+00
 -1      8897 1.85427E+01-1.17074E+02 8.65909E+00
 -1      8898 1.85427E+01-1.17074E+02 1.03909E+01
 -1      8899 1.85427E+01-1.17074E+02 1.21227E+01
 -1      8900 1.85427E+01-1.17074E+02 1.38545E+01
 -1      8901 1.85427E+01-1.17074E+02 1.55864E+01
 -1      8902 1.85427E+01-1.17074E+02 1.73182E+01
 -1      8903 1.23901E+01-1.17884E+02 1.73182E+00
 -1      8904 1.23901E+01-1.17884E+02 3.46364E+00
 -1      8905 1.23901E+01-1.17884E+02 5.19545E+00
 -1      8906 1.23901E+01-1.17884E+02 6.92727E+00
 -1      8907 1.23901E+01-1.17884E+02 8.65909E+00
 -1      8908 1.23901E+01-1.17884E+02 1.03909E+01
 -1      8909 1.23901E+01-1.17884E+02 1.21227E+01
 -1      8910 1.23901E+01-1.17884E+02 1.38545E+01
 -1      8911 1.23901E+01-1.17884E+02 1.55864E+01
 -1      8912 1.23901E+01-1.17884E+02 1.73182E+01
 -1      8913 6.20356E+00-1.18371E+02 1.73182E+00
 -1      8914 6.20356E+00-1.18371E+02 3.46364E+00
 -1      8915 6.20356E+00-1.18371E+02 5.19545E+00
 -1      8916 6.20356E+00-1.18371E+02 6.92727E+00
 -1      8917 6.20356E+00-1.18371E+02 8.65909E+00
 -1      8918 6.20356E+00-1.18371E+02 1.03909E+01
 -1      8919 6.20356E+00-1.18371E+02 1.21227E+01
 -1      8920 6.20356E+00-1.18371E+02 1.38545E+01
 -1      8921 6.20356E+00-1.18371E+02 1.55864E+01
 -1      8922 6.20356E+00-1.18371E+02 1.73182E+01
 -1      8923 1.21753E+02-6.38080E+00 1.73182E+00
 -1      8924 1.21753E+02-6.38080E+00 3.46364E+00
 -1      8925 1.21753E+02-6.38080E+00 5.19545E+00
 -1      8926 1.21753E+02-6.38080E+00 6.92727E+00
 -1      8927 1.21753E+02-6.38080E+00 8.65909E+00
 -1      8928 1.21753E+02-6.38080E+00 1.03909E+01
 -1      8929 1.21753E+02-6.38080E+00 1.21227E+01
 -1      8930 1.21753E+02-6.38080E+00 1.38545E+01
 -1      8931 1.21753E+02-6.38080E+00 1.55864E+01
 -1      8932 1.21753E+02-6.38080E+00 1.73182E+01
 -1      8933 1.21252E+02-1.27441E+01 1.73182E+00
 -1      8934 1.21252E+02-1.27441E+01 3.46364E+00
 -1      8935 1.21252E+02-1.27441E+01 5.19545E+00
 -1      8936 1.21252E+02-1.27441E+01 6.92727E+00
 -1      8937 1.21252E+02-1.27441E+01 8.65909E+00
 -1      8938 1.21252E+02-1.27441E+01 1.03909E+01
 -1      8939 1.21252E+02-1.27441E+01 1.21227E+01
 -1      8940 1.21252E+02-1.27441E+01 1.38545E+01
 -1      8941 1.21252E+02-1.27441E+01 1.55864E+01
 -1      8942 1.21252E+02-1.27441E+01 1.73182E+01
 -1      8943 1.20419E+02-1.90725E+01 1.73182E+00
 -1      8944 1.20419E+02-1.90725E+01 3.46364E+00
 -1      8945 1.20419E+02-1.90725E+01 5.19545E+00
 -1      8946 1.20419E+02-1.90725E+01 6.92727E+00
 -1      8947 1.20419E+02-1.90725E+01 8.65909E+00
 -1      8948 1.20419E+02-1.90725E+01 1.03909E+01
 -1      8949 1.20419E+02-1.90725E+01 1.21227E+01
 -1      8950 1.20419E+02-1.90725E+01 1.38545E+01
 -1      8951 1.20419E+02-1.90725E+01 1.55864E+01
 -1      8952 1.20419E+02-1.90725E+01 1.73182E+01
 -1      8953 1.19256E+02-2.53486E+01 1.73182E+00
 -1      8954 1.19256E+02-2.53486E+01 3.46364E+00
 -1      8955 1.19256E+02-2.53486E+01 5.19545E+00
 -1      8956 1.19256E+02-2.53486E+01 6.92727E+00
 -1      8957 1.19256E+02-2.53486E+01 8.65909E+00
 -1      8958 1.19256E+02-2.53486E+01 1.03909E+01
 -1      8959 1.19256E+02-2.53486E+01 1.21227E+01
 -1      8960 1.19256E+02-2.53486E+01 1.38545E+01
 -1      8961 1.19256E+02-2.53486E+01 1.55864E+01
 -1      8962 1.19256E+02-2.53486E+01 1.73182E+01
 -1      8963 1.17766E+02-3.15552E+01 1.73182E+00
 -1      8964 1.17766E+02-3.15552E+01 3.46364E+00
 -1      8965 1.17766E+02-3.15552E+01 5.19545E+00
 -1      8966 1.17766E+02-3.15552E+01 6.92727E+00
 -1      8967 1.17766E+02-3.15552E+01 8.65909E+00
 -1      8968 1.17766E+02-3.15552E+01 1.03909E+01
 -1      8969 1.17766E+02-3.15552E+01 1.21227E+01
 -1      8970 1.17766E+02-3.15552E+01 1.38545E+01
 -1      8971 1.17766E+02-3.15552E+01 1.55864E+01
 -1      8972 1.17766E+02-3.15552E+01 1.73182E+01
 -1      8973 1.15953E+02-3.76754E+01 1.73182E+00
 -1      8974 1.15953E+02-3.76754E+01 3.46364E+00
 -1      8975 1.15953E+02-3.76754E+01 5.19545E+00
 -1      8976 1.15953E+02-3.76754E+01 6.92727E+00
 -1      8977 1.15953E+02-3.76754E+01 8.65909E+00
 -1      8978 1.15953E+02-3.76754E+01 1.03909E+01
 -1      8979 1.15953E+02-3.76754E+01 1.21227E+01
 -1      8980 1.15953E+02-3.76754E+01 1.38545E+01
 -1      8981 1.15953E+02-3.76754E+01 1.55864E+01
 -1      8982 1.15953E+02-3.76754E+01 1.73182E+01
 -1      8983 1.13822E+02-4.36922E+01 1.73182E+00
 -1      8984 1.13822E+02-4.36922E+01 3.46364E+00
 -1      8985 1.13822E+02-4.36922E+01 5.19545E+00
 -1      8986 1.13822E+02-4.36922E+01 6.92727E+00
 -1      8987 1.13822E+02-4.36922E+01 8.65909E+00
 -1      8988 1.13822E+02-4.36922E+01 1.03909E+01
 -1      8989 1.13822E+02-4.36922E+01 1.21227E+01
 -1      8990 1.13822E+02-4.36922E+01 1.38545E+01
 -1      8991 1.13822E+02-4.36922E+01 1.55864E+01
 -1      8992 1.13822E+02-4.36922E+01 1.73182E+01
 -1      8993 1.11379E+02-4.95893E+01 1.73182E+00
 -1      8994 1.11379E+02-4.95893E+01 3.46364E+00
 -1      8995 1.11379E+02-4.95893E+01 5.19545E+00
 -1      8996 1.11379E+02-4.95893E+01 6.92727E+00
 -1      8997 1.11379E+02-4.95893E+01 8.65909E+00
 -1      8998 1.11379E+02-4.95893E+01 1.03909E+01
 -1      8999 1.11379E+02-4.95893E+01 1.21227E+01
 -1      9000 1.11379E+02-4.95893E+01 1.38545E+01
 -1      9001 1.11379E+02-4.95893E+01 1.55864E+01
 -1      9002 1.11379E+02-4.95893E+01 1.73182E+01
 -1      9003 1.08632E+02-5.53505E+01 1.73182E+00
 -1      9004 1.08632E+02-5.53505E+01 3.46364E+00
 -1      9005 1.08632E+02-5.53505E+01 5.19545E+00
 -1      9006 1.08632E+02-5.53505E+01 6.92727E+00
 -1      9007 1.08632E+02-5.53505E+01 8.65909E+00
 -1      9008 1.08632E+02-5.53505E+01 1.03909E+01
 -1      9009 1.08632E+02-5.53505E+01 1.21227E+01
 -1      9010 1.08632E+02-5.53505E+01 1.38545E+01
 -1      9011 1.08632E+02-5.53505E+01 1.55864E+01
 -1      9012 1.08632E+02-5.53505E+01 1.73182E+01
 -1      9013 1.05586E+02-6.09600E+01 1.73182E+00
 -1      9014 1.05586E+02-6.09600E+01 3.46364E+00
 -1      9015 1.05586E+02-6.09600E+01 5.19545E+00
 -1      9016 1.05586E+02-6.09600E+01 6.92727E+00
 -1      9017 1.05586E+02-6.09600E+01 8.65909E+00
 -1      9018 1.05586E+02-6.09600E+01 1.03909E+01
 -1      9019 1.05586E+02-6.09600E+01 1.21227E+01
 -1      9020 1.05586E+02-6.09600E+01 1.38545E+01
 -1      9021 1.05586E+02-6.09600E+01 1.55864E+01
 -1      9022 1.05586E+02-6.09600E+01 1.73182E+01
 -1      9023 1.02251E+02-6.64024E+01 1.73182E+00
 -1      9024 1.02251E+02-6.64024E+01 3.46364E+00
 -1      9025 1.02251E+02-6.64024E+01 5.19545E+00
 -1      9026 1.02251E+02-6.64024E+01 6.92727E+00
 -1      9027 1.02251E+02-6.64024E+01 8.65909E+00
 -1      9028 1.02251E+02-6.64024E+01 1.03909E+01
 -1      9029 1.02251E+02-6.64024E+01 1.21227E+01
 -1      9030 1.02251E+02-6.64024E+01 1.38545E+01
 -1      9031 1.02251E+02-6.64024E+01 1.55864E+01
 -1      9032 1.02251E+02-6.64024E+01 1.73182E+01
 -1      9033 9.86354E+01-7.16628E+01 1.73182E+00
 -1      9034 9.86354E+01-7.16628E+01 3.46364E+00
 -1      9035 9.86354E+01-7.16628E+01 5.19545E+00
 -1      9036 9.86354E+01-7.16628E+01 6.92727E+00
 -1      9037 9.86354E+01-7.16628E+01 8.65909E+00
 -1      9038 9.86354E+01-7.16628E+01 1.03909E+01
 -1      9039 9.86354E+01-7.16628E+01 1.21227E+01
 -1      9040 9.86354E+01-7.16628E+01 1.38545E+01
 -1      9041 9.86354E+01-7.16628E+01 1.55864E+01
 -1      9042 9.86354E+01-7.16628E+01 1.73182E+01
 -1      9043 9.47496E+01-7.67267E+01 1.73182E+00
 -1      9044 9.47496E+01-7.67267E+01 3.46364E+00
 -1      9045 9.47496E+01-7.67267E+01 5.19545E+00
 -1      9046 9.47496E+01-7.67267E+01 6.92727E+00
 -1      9047 9.47496E+01-7.67267E+01 8.65909E+00
 -1      9048 9.47496E+01-7.67267E+01 1.03909E+01
 -1      9049 9.47496E+01-7.67267E+01 1.21227E+01
 -1      9050 9.47496E+01-7.67267E+01 1.38545E+01
 -1      9051 9.47496E+01-7.67267E+01 1.55864E+01
 -1      9052 9.47496E+01-7.67267E+01 1.73182E+01
 -1      9053 9.06042E+01-8.15804E+01 1.73182E+00
 -1      9054 9.06042E+01-8.15804E+01 3.46364E+00
 -1      9055 9.06042E+01-8.15804E+01 5.19545E+00
 -1      9056 9.06042E+01-8.15804E+01 6.92727E+00
 -1      9057 9.06042E+01-8.15804E+01 8.65909E+00
 -1      9058 9.06042E+01-8.15804E+01 1.03909E+01
 -1      9059 9.06042E+01-8.15804E+01 1.21227E+01
 -1      9060 9.06042E+01-8.15804E+01 1.38545E+01
 -1      9061 9.06042E+01-8.15804E+01 1.55864E+01
 -1      9062 9.06042E+01-8.15804E+01 1.73182E+01
 -1      9063 8.62105E+01-8.62105E+01 1.73182E+00
 -1      9064 8.62105E+01-8.62105E+01 3.46364E+00
 -1      9065 8.62105E+01-8.62105E+01 5.19545E+00
 -1      9066 8.62105E+01-8.62105E+01 6.92727E+00
 -1      9067 8.62105E+01-8.62105E+01 8.65909E+00
 -1      9068 8.62105E+01-8.62105E+01 1.03909E+01
 -1      9069 8.62105E+01-8.62105E+01 1.21227E+01
 -1      9070 8.62105E+01-8.62105E+01 1.38545E+01
 -1      9071 8.62105E+01-8.62105E+01 1.55864E+01
 -1      9072 8.62105E+01-8.62105E+01 1.73182E+01
 -1      9073 8.15804E+01-9.06042E+01 1.73182E+00
 -1      9074 8.15804E+01-9.06042E+01 3.46364E+00
 -1      9075 8.15804E+01-9.06042E+01 5.19545E+00
 -1      9076 8.15804E+01-9.06042E+01 6.92727E+00
 -1      9077 8.15804E+01-9.06042E+01 8.65909E+00
 -1      9078 8.15804E+01-9.06042E+01 1.03909E+01
 -1      9079 8.15804E+01-9.06042E+01 1.21227E+01
 -1      9080 8.15804E+01-9.06042E+01 1.38545E+01
 -1      9081 8.15804E+01-9.06042E+01 1.55864E+01
 -1      9082 8.15804E+01-9.06042E+01 1.73182E+01
 -1      9083 7.67267E+01-9.47496E+01 1.73182E+00
 -1      9084 7.67267E+01-9.47496E+01 3.46364E+00
 -1      9085 7.67267E+01-9.47496E+01 5.19545E+00
 -1      9086 7.67267E+01-9.47496E+01 6.92727E+00
 -1      9087 7.67267E+01-9.47496E+01 8.65909E+00
 -1      9088 7.67267E+01-9.47496E+01 1.03909E+01
 -1      9089 7.67267E+01-9.47496E+01 1.21227E+01
 -1      9090 7.67267E+01-9.47496E+01 1.38545E+01
 -1      9091 7.67267E+01-9.47496E+01 1.55864E+01
 -1      9092 7.67267E+01-9.47496E+01 1.73182E+01
 -1      9093 7.16628E+01-9.86354E+01 1.73182E+00
 -1      9094 7.16628E+01-9.86354E+01 3.46364E+00
 -1      9095 7.16628E+01-9.86354E+01 5.19545E+00
 -1      9096 7.16628E+01-9.86354E+01 6.92727E+00
 -1      9097 7.16628E+01-9.86354E+01 8.65909E+00
 -1      9098 7.16628E+01-9.86354E+01 1.03909E+01
 -1      9099 7.16628E+01-9.86354E+01 1.21227E+01
 -1      9100 7.16628E+01-9.86354E+01 1.38545E+01
 -1      9101 7.16628E+01-9.86354E+01 1.55864E+01
 -1      9102 7.16628E+01-9.86354E+01 1.73182E+01
 -1      9103 6.64024E+01-1.02251E+02 1.73182E+00
 -1      9104 6.64024E+01-1.02251E+02 3.46364E+00
 -1      9105 6.64024E+01-1.02251E+02 5.19545E+00
 -1      9106 6.64024E+01-1.02251E+02 6.92727E+00
 -1      9107 6.64024E+01-1.02251E+02 8.65909E+00
 -1      9108 6.64024E+01-1.02251E+02 1.03909E+01
 -1      9109 6.64024E+01-1.02251E+02 1.21227E+01
 -1      9110 6.64024E+01-1.02251E+02 1.38545E+01
 -1      9111 6.64024E+01-1.02251E+02 1.55864E+01
 -1      9112 6.64024E+01-1.02251E+02 1.73182E+01
 -1      9113 6.09600E+01-1.05586E+02 1.73182E+00
 -1      9114 6.09600E+01-1.05586E+02 3.46364E+00
 -1      9115 6.09600E+01-1.05586E+02 5.19545E+00
 -1      9116 6.09600E+01-1.05586E+02 6.92727E+00
 -1      9117 6.09600E+01-1.05586E+02 8.65909E+00
 -1      9118 6.09600E+01-1.05586E+02 1.03909E+01
 -1      9119 6.09600E+01-1.05586E+02 1.21227E+01
 -1      9120 6.09600E+01-1.05586E+02 1.38545E+01
 -1      9121 6.09600E+01-1.05586E+02 1.55864E+01
 -1      9122 6.09600E+01-1.05586E+02 1.73182E+01
 -1      9123 5.53505E+01-1.08632E+02 1.73182E+00
 -1      9124 5.53505E+01-1.08632E+02 3.46364E+00
 -1      9125 5.53505E+01-1.08632E+02 5.19545E+00
 -1      9126 5.53505E+01-1.08632E+02 6.92727E+00
 -1      9127 5.53505E+01-1.08632E+02 8.65909E+00
 -1      9128 5.53505E+01-1.08632E+02 1.03909E+01
 -1      9129 5.53505E+01-1.08632E+02 1.21227E+01
 -1      9130 5.53505E+01-1.08632E+02 1.38545E+01
 -1      9131 5.53505E+01-1.08632E+02 1.55864E+01
 -1      9132 5.53505E+01-1.08632E+02 1.73182E+01
 -1      9133 4.95893E+01-1.11379E+02 1.73182E+00
 -1      9134 4.95893E+01-1.11379E+02 3.46364E+00
 -1      9135 4.95893E+01-1.11379E+02 5.19545E+00
 -1      9136 4.95893E+01-1.11379E+02 6.92727E+00
 -1      9137 4.95893E+01-1.11379E+02 8.65909E+00
 -1      9138 4.95893E+01-1.11379E+02 1.03909E+01
 -1      9139 4.95893E+01-1.11379E+02 1.21227E+01
 -1      9140 4.95893E+01-1.11379E+02 1.38545E+01
 -1      9141 4.95893E+01-1.11379E+02 1.55864E+01
 -1      9142 4.95893E+01-1.11379E+02 1.73182E+01
 -1      9143 4.36922E+01-1.13822E+02 1.73182E+00
 -1      9144 4.36922E+01-1.13822E+02 3.46364E+00
 -1      9145 4.36922E+01-1.13822E+02 5.19545E+00
 -1      9146 4.36922E+01-1.13822E+02 6.92727E+00
 -1      9147 4.36922E+01-1.13822E+02 8.65909E+00
 -1      9148 4.36922E+01-1.13822E+02 1.03909E+01
 -1      9149 4.36922E+01-1.13822E+02 1.21227E+01
 -1      9150 4.36922E+01-1.13822E+02 1.38545E+01
 -1      9151 4.36922E+01-1.13822E+02 1.55864E+01
 -1      9152 4.36922E+01-1.13822E+02 1.73182E+01
 -1      9153 3.76754E+01-1.15953E+02 1.73182E+00
 -1      9154 3.76754E+01-1.15953E+02 3.46364E+00
 -1      9155 3.76754E+01-1.15953E+02 5.19545E+00
 -1      9156 3.76754E+01-1.15953E+02 6.92727E+00
 -1      9157 3.76754E+01-1.15953E+02 8.65909E+00
 -1      9158 3.76754E+01-1.15953E+02 1.03909E+01
 -1      9159 3.76754E+01-1.15953E+02 1.21227E+01
 -1      9160 3.76754E+01-1.15953E+02 1.38545E+01
 -1      9161 3.76754E+01-1.15953E+02 1.55864E+01
 -1      9162 3.76754E+01-1.15953E+02 1.73182E+01
 -1      9163 3.15552E+01-1.17766E+02 1.73182E+00
 -1      9164 3.15552E+01-1.17766E+02 3.46364E+00
 -1      9165 3.15552E+01-1.17766E+02 5.19545E+00
 -1      9166 3.15552E+01-1.17766E+02 6.92727E+00
 -1      9167 3.15552E+01-1.17766E+02 8.65909E+00
 -1      9168 3.15552E+01-1.17766E+02 1.03909E+01
 -1      9169 3.15552E+01-1.17766E+02 1.21227E+01
 -1      9170 3.15552E+01-1.17766E+02 1.38545E+01
 -1      9171 3.15552E+01-1.17766E+02 1.55864E+01
 -1      9172 3.15552E+01-1.17766E+02 1.73182E+01
 -1      9173 2.53486E+01-1.19256E+02 1.73182E+00
 -1      9174 2.53486E+01-1.19256E+02 3.46364E+00
 -1      9175 2.53486E+01-1.19256E+02 5.19545E+00
 -1      9176 2.53486E+01-1.19256E+02 6.92727E+00
 -1      9177 2.53486E+01-1.19256E+02 8.65909E+00
 -1      9178 2.53486E+01-1.19256E+02 1.03909E+01
 -1      9179 2.53486E+01-1.19256E+02 1.21227E+01
 -1      9180 2.53486E+01-1.19256E+02 1.38545E+01
 -1      9181 2.53486E+01-1.19256E+02 1.55864E+01
 -1      9182 2.53486E+01-1.19256E+02 1.73182E+01
 -1      9183 1.90725E+01-1.20419E+02 1.73182E+00
 -1      9184 1.90725E+01-1.20419E+02 3.46364E+00
 -1      9185 1.90725E+01-1.20419E+02 5.19545E+00
 -1      9186 1.90725E+01-1.20419E+02 6.92727E+00
 -1      9187 1.90725E+01-1.20419E+02 8.65909E+00
 -1      9188 1.90725E+01-1.20419E+02 1.03909E+01
 -1      9189 1.90725E+01-1.20419E+02 1.21227E+01
 -1      9190 1.90725E+01-1.20419E+02 1.38545E+01
 -1      9191 1.90725E+01-1.20419E+02 1.55864E+01
 -1      9192 1.90725E+01-1.20419E+02 1.73182E+01
 -1      9193 1.27441E+01-1.21252E+02 1.73182E+00
 -1      9194 1.27441E+01-1.21252E+02 3.46364E+00
 -1      9195 1.27441E+01-1.21252E+02 5.19545E+00
 -1      9196 1.27441E+01-1.21252E+02 6.92727E+00
 -1      9197 1.27441E+01-1.21252E+02 8.65909E+00
 -1      9198 1.27441E+01-1.21252E+02 1.03909E+01
 -1      9199 1.27441E+01-1.21252E+02 1.21227E+01
 -1      9200 1.27441E+01-1.21252E+02 1.38545E+01
 -1      9201 1.27441E+01-1.21252E+02 1.55864E+01
 -1      9202 1.27441E+01-1.21252E+02 1.73182E+01
 -1      9203 6.38080E+00-1.21753E+02 1.73182E+00
 -1      9204 6.38080E+00-1.21753E+02 3.46364E+00
 -1      9205 6.38080E+00-1.21753E+02 5.19545E+00
 -1      9206 6.38080E+00-1.21753E+02 6.92727E+00
 -1      9207 6.38080E+00-1.21753E+02 8.65909E+00
 -1      9208 6.38080E+00-1.21753E+02 1.03909E+01
 -1      9209 6.38080E+00-1.21753E+02 1.21227E+01
 -1      9210 6.38080E+00-1.21753E+02 1.38545E+01
 -1      9211 6.38080E+00-1.21753E+02 1.55864E+01
 -1      9212 6.38080E+00-1.21753E+02 1.73182E+01
 -1      9213 1.25135E+02-6.55804E+00 1.73182E+00
 -1      9214 1.25135E+02-6.55804E+00 3.46364E+00
 -1      9215 1.25135E+02-6.55804E+00 5.19545E+00
 -1      9216 1.25135E+02-6.55804E+00 6.92727E+00
 -1      9217 1.25135E+02-6.55804E+00 8.65909E+00
 -1      9218 1.25135E+02-6.55804E+00 1.03909E+01
 -1      9219 1.25135E+02-6.55804E+00 1.21227E+01
 -1      9220 1.25135E+02-6.55804E+00 1.38545E+01
 -1      9221 1.25135E+02-6.55804E+00 1.55864E+01
 -1      9222 1.25135E+02-6.55804E+00 1.73182E+01
 -1      9223 1.24620E+02-1.30981E+01 1.73182E+00
 -1      9224 1.24620E+02-1.30981E+01 3.46364E+00
 -1      9225 1.24620E+02-1.30981E+01 5.19545E+00
 -1      9226 1.24620E+02-1.30981E+01 6.92727E+00
 -1      9227 1.24620E+02-1.30981E+01 8.65909E+00
 -1      9228 1.24620E+02-1.30981E+01 1.03909E+01
 -1      9229 1.24620E+02-1.30981E+01 1.21227E+01
 -1      9230 1.24620E+02-1.30981E+01 1.38545E+01
 -1      9231 1.24620E+02-1.30981E+01 1.55864E+01
 -1      9232 1.24620E+02-1.30981E+01 1.73182E+01
 -1      9233 1.23764E+02-1.96023E+01 1.73182E+00
 -1      9234 1.23764E+02-1.96023E+01 3.46364E+00
 -1      9235 1.23764E+02-1.96023E+01 5.19545E+00
 -1      9236 1.23764E+02-1.96023E+01 6.92727E+00
 -1      9237 1.23764E+02-1.96023E+01 8.65909E+00
 -1      9238 1.23764E+02-1.96023E+01 1.03909E+01
 -1      9239 1.23764E+02-1.96023E+01 1.21227E+01
 -1      9240 1.23764E+02-1.96023E+01 1.38545E+01
 -1      9241 1.23764E+02-1.96023E+01 1.55864E+01
 -1      9242 1.23764E+02-1.96023E+01 1.73182E+01
 -1      9243 1.22568E+02-2.60527E+01 1.73182E+00
 -1      9244 1.22568E+02-2.60527E+01 3.46364E+00
 -1      9245 1.22568E+02-2.60527E+01 5.19545E+00
 -1      9246 1.22568E+02-2.60527E+01 6.92727E+00
 -1      9247 1.22568E+02-2.60527E+01 8.65909E+00
 -1      9248 1.22568E+02-2.60527E+01 1.03909E+01
 -1      9249 1.22568E+02-2.60527E+01 1.21227E+01
 -1      9250 1.22568E+02-2.60527E+01 1.38545E+01
 -1      9251 1.22568E+02-2.60527E+01 1.55864E+01
 -1      9252 1.22568E+02-2.60527E+01 1.73182E+01
 -1      9253 1.21037E+02-3.24318E+01 1.73182E+00
 -1      9254 1.21037E+02-3.24318E+01 3.46364E+00
 -1      9255 1.21037E+02-3.24318E+01 5.19545E+00
 -1      9256 1.21037E+02-3.24318E+01 6.92727E+00
 -1      9257 1.21037E+02-3.24318E+01 8.65909E+00
 -1      9258 1.21037E+02-3.24318E+01 1.03909E+01
 -1      9259 1.21037E+02-3.24318E+01 1.21227E+01
 -1      9260 1.21037E+02-3.24318E+01 1.38545E+01
 -1      9261 1.21037E+02-3.24318E+01 1.55864E+01
 -1      9262 1.21037E+02-3.24318E+01 1.73182E+01
 -1      9263 1.19174E+02-3.87219E+01 1.73182E+00
 -1      9264 1.19174E+02-3.87219E+01 3.46364E+00
 -1      9265 1.19174E+02-3.87219E+01 5.19545E+00
 -1      9266 1.19174E+02-3.87219E+01 6.92727E+00
 -1      9267 1.19174E+02-3.87219E+01 8.65909E+00
 -1      9268 1.19174E+02-3.87219E+01 1.03909E+01
 -1      9269 1.19174E+02-3.87219E+01 1.21227E+01
 -1      9270 1.19174E+02-3.87219E+01 1.38545E+01
 -1      9271 1.19174E+02-3.87219E+01 1.55864E+01
 -1      9272 1.19174E+02-3.87219E+01 1.73182E+01
 -1      9273 1.16984E+02-4.49059E+01 1.73182E+00
 -1      9274 1.16984E+02-4.49059E+01 3.46364E+00
 -1      9275 1.16984E+02-4.49059E+01 5.19545E+00
 -1      9276 1.16984E+02-4.49059E+01 6.92727E+00
 -1      9277 1.16984E+02-4.49059E+01 8.65909E+00
 -1      9278 1.16984E+02-4.49059E+01 1.03909E+01
 -1      9279 1.16984E+02-4.49059E+01 1.21227E+01
 -1      9280 1.16984E+02-4.49059E+01 1.38545E+01
 -1      9281 1.16984E+02-4.49059E+01 1.55864E+01
 -1      9282 1.16984E+02-4.49059E+01 1.73182E+01
 -1      9283 1.14473E+02-5.09668E+01 1.73182E+00
 -1      9284 1.14473E+02-5.09668E+01 3.46364E+00
 -1      9285 1.14473E+02-5.09668E+01 5.19545E+00
 -1      9286 1.14473E+02-5.09668E+01 6.92727E+00
 -1      9287 1.14473E+02-5.09668E+01 8.65909E+00
 -1      9288 1.14473E+02-5.09668E+01 1.03909E+01
 -1      9289 1.14473E+02-5.09668E+01 1.21227E+01
 -1      9290 1.14473E+02-5.09668E+01 1.38545E+01
 -1      9291 1.14473E+02-5.09668E+01 1.55864E+01
 -1      9292 1.14473E+02-5.09668E+01 1.73182E+01
 -1      9293 1.11649E+02-5.68880E+01 1.73182E+00
 -1      9294 1.11649E+02-5.68880E+01 3.46364E+00
 -1      9295 1.11649E+02-5.68880E+01 5.19545E+00
 -1      9296 1.11649E+02-5.68880E+01 6.92727E+00
 -1      9297 1.11649E+02-5.68880E+01 8.65909E+00
 -1      9298 1.11649E+02-5.68880E+01 1.03909E+01
 -1      9299 1.11649E+02-5.68880E+01 1.21227E+01
 -1      9300 1.11649E+02-5.68880E+01 1.38545E+01
 -1      9301 1.11649E+02-5.68880E+01 1.55864E+01
 -1      9302 1.11649E+02-5.68880E+01 1.73182E+01
 -1      9303 1.08519E+02-6.26533E+01 1.73182E+00
 -1      9304 1.08519E+02-6.26533E+01 3.46364E+00
 -1      9305 1.08519E+02-6.26533E+01 5.19545E+00
 -1      9306 1.08519E+02-6.26533E+01 6.92727E+00
 -1      9307 1.08519E+02-6.26533E+01 8.65909E+00
 -1      9308 1.08519E+02-6.26533E+01 1.03909E+01
 -1      9309 1.08519E+02-6.26533E+01 1.21227E+01
 -1      9310 1.08519E+02-6.26533E+01 1.38545E+01
 -1      9311 1.08519E+02-6.26533E+01 1.55864E+01
 -1      9312 1.08519E+02-6.26533E+01 1.73182E+01
 -1      9313 1.05091E+02-6.82469E+01 1.73182E+00
 -1      9314 1.05091E+02-6.82469E+01 3.46364E+00
 -1      9315 1.05091E+02-6.82469E+01 5.19545E+00
 -1      9316 1.05091E+02-6.82469E+01 6.92727E+00
 -1      9317 1.05091E+02-6.82469E+01 8.65909E+00
 -1      9318 1.05091E+02-6.82469E+01 1.03909E+01
 -1      9319 1.05091E+02-6.82469E+01 1.21227E+01
 -1      9320 1.05091E+02-6.82469E+01 1.38545E+01
 -1      9321 1.05091E+02-6.82469E+01 1.55864E+01
 -1      9322 1.05091E+02-6.82469E+01 1.73182E+01
 -1      9323 1.01375E+02-7.36534E+01 1.73182E+00
 -1      9324 1.01375E+02-7.36534E+01 3.46364E+00
 -1      9325 1.01375E+02-7.36534E+01 5.19545E+00
 -1      9326 1.01375E+02-7.36534E+01 6.92727E+00
 -1      9327 1.01375E+02-7.36534E+01 8.65909E+00
 -1      9328 1.01375E+02-7.36534E+01 1.03909E+01
 -1      9329 1.01375E+02-7.36534E+01 1.21227E+01
 -1      9330 1.01375E+02-7.36534E+01 1.38545E+01
 -1      9331 1.01375E+02-7.36534E+01 1.55864E+01
 -1      9332 1.01375E+02-7.36534E+01 1.73182E+01
 -1      9333 9.73816E+01-7.88580E+01 1.73182E+00
 -1      9334 9.73816E+01-7.88580E+01 3.46364E+00
 -1      9335 9.73816E+01-7.88580E+01 5.19545E+00
 -1      9336 9.73816E+01-7.88580E+01 6.92727E+00
 -1      9337 9.73816E+01-7.88580E+01 8.65909E+00
 -1      9338 9.73816E+01-7.88580E+01 1.03909E+01
 -1      9339 9.73816E+01-7.88580E+01 1.21227E+01
 -1      9340 9.73816E+01-7.88580E+01 1.38545E+01
 -1      9341 9.73816E+01-7.88580E+01 1.55864E+01
 -1      9342 9.73816E+01-7.88580E+01 1.73182E+01
 -1      9343 9.31210E+01-8.38465E+01 1.73182E+00
 -1      9344 9.31210E+01-8.38465E+01 3.46364E+00
 -1      9345 9.31210E+01-8.38465E+01 5.19545E+00
 -1      9346 9.31210E+01-8.38465E+01 6.92727E+00
 -1      9347 9.31210E+01-8.38465E+01 8.65909E+00
 -1      9348 9.31210E+01-8.38465E+01 1.03909E+01
 -1      9349 9.31210E+01-8.38465E+01 1.21227E+01
 -1      9350 9.31210E+01-8.38465E+01 1.38545E+01
 -1      9351 9.31210E+01-8.38465E+01 1.55864E+01
 -1      9352 9.31210E+01-8.38465E+01 1.73182E+01
 -1      9353 8.86052E+01-8.86052E+01 1.73182E+00
 -1      9354 8.86052E+01-8.86052E+01 3.46364E+00
 -1      9355 8.86052E+01-8.86052E+01 5.19545E+00
 -1      9356 8.86052E+01-8.86052E+01 6.92727E+00
 -1      9357 8.86052E+01-8.86052E+01 8.65909E+00
 -1      9358 8.86052E+01-8.86052E+01 1.03909E+01
 -1      9359 8.86052E+01-8.86052E+01 1.21227E+01
 -1      9360 8.86052E+01-8.86052E+01 1.38545E+01
 -1      9361 8.86052E+01-8.86052E+01 1.55864E+01
 -1      9362 8.86052E+01-8.86052E+01 1.73182E+01
 -1      9363 8.38465E+01-9.31210E+01 1.73182E+00
 -1      9364 8.38465E+01-9.31210E+01 3.46364E+00
 -1      9365 8.38465E+01-9.31210E+01 5.19545E+00
 -1      9366 8.38465E+01-9.31210E+01 6.92727E+00
 -1      9367 8.38465E+01-9.31210E+01 8.65909E+00
 -1      9368 8.38465E+01-9.31210E+01 1.03909E+01
 -1      9369 8.38465E+01-9.31210E+01 1.21227E+01
 -1      9370 8.38465E+01-9.31210E+01 1.38545E+01
 -1      9371 8.38465E+01-9.31210E+01 1.55864E+01
 -1      9372 8.38465E+01-9.31210E+01 1.73182E+01
 -1      9373 7.88580E+01-9.73816E+01 1.73182E+00
 -1      9374 7.88580E+01-9.73816E+01 3.46364E+00
 -1      9375 7.88580E+01-9.73816E+01 5.19545E+00
 -1      9376 7.88580E+01-9.73816E+01 6.92727E+00
 -1      9377 7.88580E+01-9.73816E+01 8.65909E+00
 -1      9378 7.88580E+01-9.73816E+01 1.03909E+01
 -1      9379 7.88580E+01-9.73816E+01 1.21227E+01
 -1      9380 7.88580E+01-9.73816E+01 1.38545E+01
 -1      9381 7.88580E+01-9.73816E+01 1.55864E+01
 -1      9382 7.88580E+01-9.73816E+01 1.73182E+01
 -1      9383 7.36534E+01-1.01375E+02 1.73182E+00
 -1      9384 7.36534E+01-1.01375E+02 3.46364E+00
 -1      9385 7.36534E+01-1.01375E+02 5.19545E+00
 -1      9386 7.36534E+01-1.01375E+02 6.92727E+00
 -1      9387 7.36534E+01-1.01375E+02 8.65909E+00
 -1      9388 7.36534E+01-1.01375E+02 1.03909E+01
 -1      9389 7.36534E+01-1.01375E+02 1.21227E+01
 -1      9390 7.36534E+01-1.01375E+02 1.38545E+01
 -1      9391 7.36534E+01-1.01375E+02 1.55864E+01
 -1      9392 7.36534E+01-1.01375E+02 1.73182E+01
 -1      9393 6.82469E+01-1.05091E+02 1.73182E+00
 -1      9394 6.82469E+01-1.05091E+02 3.46364E+00
 -1      9395 6.82469E+01-1.05091E+02 5.19545E+00
 -1      9396 6.82469E+01-1.05091E+02 6.92727E+00
 -1      9397 6.82469E+01-1.05091E+02 8.65909E+00
 -1      9398 6.82469E+01-1.05091E+02 1.03909E+01
 -1      9399 6.82469E+01-1.05091E+02 1.21227E+01
 -1      9400 6.82469E+01-1.05091E+02 1.38545E+01
 -1      9401 6.82469E+01-1.05091E+02 1.55864E+01
 -1      9402 6.82469E+01-1.05091E+02 1.73182E+01
 -1      9403 6.26533E+01-1.08519E+02 1.73182E+00
 -1      9404 6.26533E+01-1.08519E+02 3.46364E+00
 -1      9405 6.26533E+01-1.08519E+02 5.19545E+00
 -1      9406 6.26533E+01-1.08519E+02 6.92727E+00
 -1      9407 6.26533E+01-1.08519E+02 8.65909E+00
 -1      9408 6.26533E+01-1.08519E+02 1.03909E+01
 -1      9409 6.26533E+01-1.08519E+02 1.21227E+01
 -1      9410 6.26533E+01-1.08519E+02 1.38545E+01
 -1      9411 6.26533E+01-1.08519E+02 1.55864E+01
 -1      9412 6.26533E+01-1.08519E+02 1.73182E+01
 -1      9413 5.68880E+01-1.11649E+02 1.73182E+00
 -1      9414 5.68880E+01-1.11649E+02 3.46364E+00
 -1      9415 5.68880E+01-1.11649E+02 5.19545E+00
 -1      9416 5.68880E+01-1.11649E+02 6.92727E+00
 -1      9417 5.68880E+01-1.11649E+02 8.65909E+00
 -1      9418 5.68880E+01-1.11649E+02 1.03909E+01
 -1      9419 5.68880E+01-1.11649E+02 1.21227E+01
 -1      9420 5.68880E+01-1.11649E+02 1.38545E+01
 -1      9421 5.68880E+01-1.11649E+02 1.55864E+01
 -1      9422 5.68880E+01-1.11649E+02 1.73182E+01
 -1      9423 5.09668E+01-1.14473E+02 1.73182E+00
 -1      9424 5.09668E+01-1.14473E+02 3.46364E+00
 -1      9425 5.09668E+01-1.14473E+02 5.19545E+00
 -1      9426 5.09668E+01-1.14473E+02 6.92727E+00
 -1      9427 5.09668E+01-1.14473E+02 8.65909E+00
 -1      9428 5.09668E+01-1.14473E+02 1.03909E+01
 -1      9429 5.09668E+01-1.14473E+02 1.21227E+01
 -1      9430 5.09668E+01-1.14473E+02 1.38545E+01
 -1      9431 5.09668E+01-1.14473E+02 1.55864E+01
 -1      9432 5.09668E+01-1.14473E+02 1.73182E+01
 -1      9433 4.49059E+01-1.16984E+02 1.73182E+00
 -1      9434 4.49059E+01-1.16984E+02 3.46364E+00
 -1      9435 4.49059E+01-1.16984E+02 5.19545E+00
 -1      9436 4.49059E+01-1.16984E+02 6.92727E+00
 -1      9437 4.49059E+01-1.16984E+02 8.65909E+00
 -1      9438 4.49059E+01-1.16984E+02 1.03909E+01
 -1      9439 4.49059E+01-1.16984E+02 1.21227E+01
 -1      9440 4.49059E+01-1.16984E+02 1.38545E+01
 -1      9441 4.49059E+01-1.16984E+02 1.55864E+01
 -1      9442 4.49059E+01-1.16984E+02 1.73182E+01
 -1      9443 3.87219E+01-1.19174E+02 1.73182E+00
 -1      9444 3.87219E+01-1.19174E+02 3.46364E+00
 -1      9445 3.87219E+01-1.19174E+02 5.19545E+00
 -1      9446 3.87219E+01-1.19174E+02 6.92727E+00
 -1      9447 3.87219E+01-1.19174E+02 8.65909E+00
 -1      9448 3.87219E+01-1.19174E+02 1.03909E+01
 -1      9449 3.87219E+01-1.19174E+02 1.21227E+01
 -1      9450 3.87219E+01-1.19174E+02 1.38545E+01
 -1      9451 3.87219E+01-1.19174E+02 1.55864E+01
 -1      9452 3.87219E+01-1.19174E+02 1.73182E+01
 -1      9453 3.24318E+01-1.21037E+02 1.73182E+00
 -1      9454 3.24318E+01-1.21037E+02 3.46364E+00
 -1      9455 3.24318E+01-1.21037E+02 5.19545E+00
 -1      9456 3.24318E+01-1.21037E+02 6.92727E+00
 -1      9457 3.24318E+01-1.21037E+02 8.65909E+00
 -1      9458 3.24318E+01-1.21037E+02 1.03909E+01
 -1      9459 3.24318E+01-1.21037E+02 1.21227E+01
 -1      9460 3.24318E+01-1.21037E+02 1.38545E+01
 -1      9461 3.24318E+01-1.21037E+02 1.55864E+01
 -1      9462 3.24318E+01-1.21037E+02 1.73182E+01
 -1      9463 2.60527E+01-1.22568E+02 1.73182E+00
 -1      9464 2.60527E+01-1.22568E+02 3.46364E+00
 -1      9465 2.60527E+01-1.22568E+02 5.19545E+00
 -1      9466 2.60527E+01-1.22568E+02 6.92727E+00
 -1      9467 2.60527E+01-1.22568E+02 8.65909E+00
 -1      9468 2.60527E+01-1.22568E+02 1.03909E+01
 -1      9469 2.60527E+01-1.22568E+02 1.21227E+01
 -1      9470 2.60527E+01-1.22568E+02 1.38545E+01
 -1      9471 2.60527E+01-1.22568E+02 1.55864E+01
 -1      9472 2.60527E+01-1.22568E+02 1.73182E+01
 -1      9473 1.96023E+01-1.23764E+02 1.73182E+00
 -1      9474 1.96023E+01-1.23764E+02 3.46364E+00
 -1      9475 1.96023E+01-1.23764E+02 5.19545E+00
 -1      9476 1.96023E+01-1.23764E+02 6.92727E+00
 -1      9477 1.96023E+01-1.23764E+02 8.65909E+00
 -1      9478 1.96023E+01-1.23764E+02 1.03909E+01
 -1      9479 1.96023E+01-1.23764E+02 1.21227E+01
 -1      9480 1.96023E+01-1.23764E+02 1.38545E+01
 -1      9481 1.96023E+01-1.23764E+02 1.55864E+01
 -1      9482 1.96023E+01-1.23764E+02 1.73182E+01
 -1      9483 1.30981E+01-1.24620E+02 1.73182E+00
 -1      9484 1.30981E+01-1.24620E+02 3.46364E+00
 -1      9485 1.30981E+01-1.24620E+02 5.19545E+00
 -1      9486 1.30981E+01-1.24620E+02 6.92727E+00
 -1      9487 1.30981E+01-1.24620E+02 8.65909E+00
 -1      9488 1.30981E+01-1.24620E+02 1.03909E+01
 -1      9489 1.30981E+01-1.24620E+02 1.21227E+01
 -1      9490 1.30981E+01-1.24620E+02 1.38545E+01
 -1      9491 1.30981E+01-1.24620E+02 1.55864E+01
 -1      9492 1.30981E+01-1.24620E+02 1.73182E+01
 -1      9493 6.55804E+00-1.25135E+02 1.73182E+00
 -1      9494 6.55804E+00-1.25135E+02 3.46364E+00
 -1      9495 6.55804E+00-1.25135E+02 5.19545E+00
 -1      9496 6.55804E+00-1.25135E+02 6.92727E+00
 -1      9497 6.55804E+00-1.25135E+02 8.65909E+00
 -1      9498 6.55804E+00-1.25135E+02 1.03909E+01
 -1      9499 6.55804E+00-1.25135E+02 1.21227E+01
 -1      9500 6.55804E+00-1.25135E+02 1.38545E+01
 -1      9501 6.55804E+00-1.25135E+02 1.55864E+01
 -1      9502 6.55804E+00-1.25135E+02 1.73182E+01
 -1      9503 1.28517E+02-6.73529E+00 1.73182E+00
 -1      9504 1.28517E+02-6.73529E+00 3.46364E+00
 -1      9505 1.28517E+02-6.73529E+00 5.19545E+00
 -1      9506 1.28517E+02-6.73529E+00 6.92727E+00
 -1      9507 1.28517E+02-6.73529E+00 8.65909E+00
 -1      9508 1.28517E+02-6.73529E+00 1.03909E+01
 -1      9509 1.28517E+02-6.73529E+00 1.21227E+01
 -1      9510 1.28517E+02-6.73529E+00 1.38545E+01
 -1      9511 1.28517E+02-6.73529E+00 1.55864E+01
 -1      9512 1.28517E+02-6.73529E+00 1.73182E+01
 -1      9513 1.27988E+02-1.34521E+01 1.73182E+00
 -1      9514 1.27988E+02-1.34521E+01 3.46364E+00
 -1      9515 1.27988E+02-1.34521E+01 5.19545E+00
 -1      9516 1.27988E+02-1.34521E+01 6.92727E+00
 -1      9517 1.27988E+02-1.34521E+01 8.65909E+00
 -1      9518 1.27988E+02-1.34521E+01 1.03909E+01
 -1      9519 1.27988E+02-1.34521E+01 1.21227E+01
 -1      9520 1.27988E+02-1.34521E+01 1.38545E+01
 -1      9521 1.27988E+02-1.34521E+01 1.55864E+01
 -1      9522 1.27988E+02-1.34521E+01 1.73182E+01
 -1      9523 1.27109E+02-2.01321E+01 1.73182E+00
 -1      9524 1.27109E+02-2.01321E+01 3.46364E+00
 -1      9525 1.27109E+02-2.01321E+01 5.19545E+00
 -1      9526 1.27109E+02-2.01321E+01 6.92727E+00
 -1      9527 1.27109E+02-2.01321E+01 8.65909E+00
 -1      9528 1.27109E+02-2.01321E+01 1.03909E+01
 -1      9529 1.27109E+02-2.01321E+01 1.21227E+01
 -1      9530 1.27109E+02-2.01321E+01 1.38545E+01
 -1      9531 1.27109E+02-2.01321E+01 1.55864E+01
 -1      9532 1.27109E+02-2.01321E+01 1.73182E+01
 -1      9533 1.25881E+02-2.67568E+01 1.73182E+00
 -1      9534 1.25881E+02-2.67568E+01 3.46364E+00
 -1      9535 1.25881E+02-2.67568E+01 5.19545E+00
 -1      9536 1.25881E+02-2.67568E+01 6.92727E+00
 -1      9537 1.25881E+02-2.67568E+01 8.65909E+00
 -1      9538 1.25881E+02-2.67568E+01 1.03909E+01
 -1      9539 1.25881E+02-2.67568E+01 1.21227E+01
 -1      9540 1.25881E+02-2.67568E+01 1.38545E+01
 -1      9541 1.25881E+02-2.67568E+01 1.55864E+01
 -1      9542 1.25881E+02-2.67568E+01 1.73182E+01
 -1      9543 1.24308E+02-3.33083E+01 1.73182E+00
 -1      9544 1.24308E+02-3.33083E+01 3.46364E+00
 -1      9545 1.24308E+02-3.33083E+01 5.19545E+00
 -1      9546 1.24308E+02-3.33083E+01 6.92727E+00
 -1      9547 1.24308E+02-3.33083E+01 8.65909E+00
 -1      9548 1.24308E+02-3.33083E+01 1.03909E+01
 -1      9549 1.24308E+02-3.33083E+01 1.21227E+01
 -1      9550 1.24308E+02-3.33083E+01 1.38545E+01
 -1      9551 1.24308E+02-3.33083E+01 1.55864E+01
 -1      9552 1.24308E+02-3.33083E+01 1.73182E+01
 -1      9553 1.22395E+02-3.97684E+01 1.73182E+00
 -1      9554 1.22395E+02-3.97684E+01 3.46364E+00
 -1      9555 1.22395E+02-3.97684E+01 5.19545E+00
 -1      9556 1.22395E+02-3.97684E+01 6.92727E+00
 -1      9557 1.22395E+02-3.97684E+01 8.65909E+00
 -1      9558 1.22395E+02-3.97684E+01 1.03909E+01
 -1      9559 1.22395E+02-3.97684E+01 1.21227E+01
 -1      9560 1.22395E+02-3.97684E+01 1.38545E+01
 -1      9561 1.22395E+02-3.97684E+01 1.55864E+01
 -1      9562 1.22395E+02-3.97684E+01 1.73182E+01
 -1      9563 1.20146E+02-4.61196E+01 1.73182E+00
 -1      9564 1.20146E+02-4.61196E+01 3.46364E+00
 -1      9565 1.20146E+02-4.61196E+01 5.19545E+00
 -1      9566 1.20146E+02-4.61196E+01 6.92727E+00
 -1      9567 1.20146E+02-4.61196E+01 8.65909E+00
 -1      9568 1.20146E+02-4.61196E+01 1.03909E+01
 -1      9569 1.20146E+02-4.61196E+01 1.21227E+01
 -1      9570 1.20146E+02-4.61196E+01 1.38545E+01
 -1      9571 1.20146E+02-4.61196E+01 1.55864E+01
 -1      9572 1.20146E+02-4.61196E+01 1.73182E+01
 -1      9573 1.17567E+02-5.23443E+01 1.73182E+00
 -1      9574 1.17567E+02-5.23443E+01 3.46364E+00
 -1      9575 1.17567E+02-5.23443E+01 5.19545E+00
 -1      9576 1.17567E+02-5.23443E+01 6.92727E+00
 -1      9577 1.17567E+02-5.23443E+01 8.65909E+00
 -1      9578 1.17567E+02-5.23443E+01 1.03909E+01
 -1      9579 1.17567E+02-5.23443E+01 1.21227E+01
 -1      9580 1.17567E+02-5.23443E+01 1.38545E+01
 -1      9581 1.17567E+02-5.23443E+01 1.55864E+01
 -1      9582 1.17567E+02-5.23443E+01 1.73182E+01
 -1      9583 1.14667E+02-5.84256E+01 1.73182E+00
 -1      9584 1.14667E+02-5.84256E+01 3.46364E+00
 -1      9585 1.14667E+02-5.84256E+01 5.19545E+00
 -1      9586 1.14667E+02-5.84256E+01 6.92727E+00
 -1      9587 1.14667E+02-5.84256E+01 8.65909E+00
 -1      9588 1.14667E+02-5.84256E+01 1.03909E+01
 -1      9589 1.14667E+02-5.84256E+01 1.21227E+01
 -1      9590 1.14667E+02-5.84256E+01 1.38545E+01
 -1      9591 1.14667E+02-5.84256E+01 1.55864E+01
 -1      9592 1.14667E+02-5.84256E+01 1.73182E+01
 -1      9593 1.11452E+02-6.43467E+01 1.73182E+00
 -1      9594 1.11452E+02-6.43467E+01 3.46364E+00
 -1      9595 1.11452E+02-6.43467E+01 5.19545E+00
 -1      9596 1.11452E+02-6.43467E+01 6.92727E+00
 -1      9597 1.11452E+02-6.43467E+01 8.65909E+00
 -1      9598 1.11452E+02-6.43467E+01 1.03909E+01
 -1      9599 1.11452E+02-6.43467E+01 1.21227E+01
 -1      9600 1.11452E+02-6.43467E+01 1.38545E+01
 -1      9601 1.11452E+02-6.43467E+01 1.55864E+01
 -1      9602 1.11452E+02-6.43467E+01 1.73182E+01
 -1      9603 1.07931E+02-7.00914E+01 1.73182E+00
 -1      9604 1.07931E+02-7.00914E+01 3.46364E+00
 -1      9605 1.07931E+02-7.00914E+01 5.19545E+00
 -1      9606 1.07931E+02-7.00914E+01 6.92727E+00
 -1      9607 1.07931E+02-7.00914E+01 8.65909E+00
 -1      9608 1.07931E+02-7.00914E+01 1.03909E+01
 -1      9609 1.07931E+02-7.00914E+01 1.21227E+01
 -1      9610 1.07931E+02-7.00914E+01 1.38545E+01
 -1      9611 1.07931E+02-7.00914E+01 1.55864E+01
 -1      9612 1.07931E+02-7.00914E+01 1.73182E+01
 -1      9613 1.04115E+02-7.56440E+01 1.73182E+00
 -1      9614 1.04115E+02-7.56440E+01 3.46364E+00
 -1      9615 1.04115E+02-7.56440E+01 5.19545E+00
 -1      9616 1.04115E+02-7.56440E+01 6.92727E+00
 -1      9617 1.04115E+02-7.56440E+01 8.65909E+00
 -1      9618 1.04115E+02-7.56440E+01 1.03909E+01
 -1      9619 1.04115E+02-7.56440E+01 1.21227E+01
 -1      9620 1.04115E+02-7.56440E+01 1.38545E+01
 -1      9621 1.04115E+02-7.56440E+01 1.55864E+01
 -1      9622 1.04115E+02-7.56440E+01 1.73182E+01
 -1      9623 1.00014E+02-8.09893E+01 1.73182E+00
 -1      9624 1.00014E+02-8.09893E+01 3.46364E+00
 -1      9625 1.00014E+02-8.09893E+01 5.19545E+00
 -1      9626 1.00014E+02-8.09893E+01 6.92727E+00
 -1      9627 1.00014E+02-8.09893E+01 8.65909E+00
 -1      9628 1.00014E+02-8.09893E+01 1.03909E+01
 -1      9629 1.00014E+02-8.09893E+01 1.21227E+01
 -1      9630 1.00014E+02-8.09893E+01 1.38545E+01
 -1      9631 1.00014E+02-8.09893E+01 1.55864E+01
 -1      9632 1.00014E+02-8.09893E+01 1.73182E+01
 -1      9633 9.56378E+01-8.61126E+01 1.73182E+00
 -1      9634 9.56378E+01-8.61126E+01 3.46364E+00
 -1      9635 9.56378E+01-8.61126E+01 5.19545E+00
 -1      9636 9.56378E+01-8.61126E+01 6.92727E+00
 -1      9637 9.56378E+01-8.61126E+01 8.65909E+00
 -1      9638 9.56378E+01-8.61126E+01 1.03909E+01
 -1      9639 9.56378E+01-8.61126E+01 1.21227E+01
 -1      9640 9.56378E+01-8.61126E+01 1.38545E+01
 -1      9641 9.56378E+01-8.61126E+01 1.55864E+01
 -1      9642 9.56378E+01-8.61126E+01 1.73182E+01
 -1      9643 9.09999E+01-9.09999E+01 1.73182E+00
 -1      9644 9.09999E+01-9.09999E+01 3.46364E+00
 -1      9645 9.09999E+01-9.09999E+01 5.19545E+00
 -1      9646 9.09999E+01-9.09999E+01 6.92727E+00
 -1      9647 9.09999E+01-9.09999E+01 8.65909E+00
 -1      9648 9.09999E+01-9.09999E+01 1.03909E+01
 -1      9649 9.09999E+01-9.09999E+01 1.21227E+01
 -1      9650 9.09999E+01-9.09999E+01 1.38545E+01
 -1      9651 9.09999E+01-9.09999E+01 1.55864E+01
 -1      9652 9.09999E+01-9.09999E+01 1.73182E+01
 -1      9653 8.61126E+01-9.56378E+01 1.73182E+00
 -1      9654 8.61126E+01-9.56378E+01 3.46364E+00
 -1      9655 8.61126E+01-9.56378E+01 5.19545E+00
 -1      9656 8.61126E+01-9.56378E+01 6.92727E+00
 -1      9657 8.61126E+01-9.56378E+01 8.65909E+00
 -1      9658 8.61126E+01-9.56378E+01 1.03909E+01
 -1      9659 8.61126E+01-9.56378E+01 1.21227E+01
 -1      9660 8.61126E+01-9.56378E+01 1.38545E+01
 -1      9661 8.61126E+01-9.56378E+01 1.55864E+01
 -1      9662 8.61126E+01-9.56378E+01 1.73182E+01
 -1      9663 8.09893E+01-1.00014E+02 1.73182E+00
 -1      9664 8.09893E+01-1.00014E+02 3.46364E+00
 -1      9665 8.09893E+01-1.00014E+02 5.19545E+00
 -1      9666 8.09893E+01-1.00014E+02 6.92727E+00
 -1      9667 8.09893E+01-1.00014E+02 8.65909E+00
 -1      9668 8.09893E+01-1.00014E+02 1.03909E+01
 -1      9669 8.09893E+01-1.00014E+02 1.21227E+01
 -1      9670 8.09893E+01-1.00014E+02 1.38545E+01
 -1      9671 8.09893E+01-1.00014E+02 1.55864E+01
 -1      9672 8.09893E+01-1.00014E+02 1.73182E+01
 -1      9673 7.56440E+01-1.04115E+02 1.73182E+00
 -1      9674 7.56440E+01-1.04115E+02 3.46364E+00
 -1      9675 7.56440E+01-1.04115E+02 5.19545E+00
 -1      9676 7.56440E+01-1.04115E+02 6.92727E+00
 -1      9677 7.56440E+01-1.04115E+02 8.65909E+00
 -1      9678 7.56440E+01-1.04115E+02 1.03909E+01
 -1      9679 7.56440E+01-1.04115E+02 1.21227E+01
 -1      9680 7.56440E+01-1.04115E+02 1.38545E+01
 -1      9681 7.56440E+01-1.04115E+02 1.55864E+01
 -1      9682 7.56440E+01-1.04115E+02 1.73182E+01
 -1      9683 7.00914E+01-1.07931E+02 1.73182E+00
 -1      9684 7.00914E+01-1.07931E+02 3.46364E+00
 -1      9685 7.00914E+01-1.07931E+02 5.19545E+00
 -1      9686 7.00914E+01-1.07931E+02 6.92727E+00
 -1      9687 7.00914E+01-1.07931E+02 8.65909E+00
 -1      9688 7.00914E+01-1.07931E+02 1.03909E+01
 -1      9689 7.00914E+01-1.07931E+02 1.21227E+01
 -1      9690 7.00914E+01-1.07931E+02 1.38545E+01
 -1      9691 7.00914E+01-1.07931E+02 1.55864E+01
 -1      9692 7.00914E+01-1.07931E+02 1.73182E+01
 -1      9693 6.43467E+01-1.11452E+02 1.73182E+00
 -1      9694 6.43467E+01-1.11452E+02 3.46364E+00
 -1      9695 6.43467E+01-1.11452E+02 5.19545E+00
 -1      9696 6.43467E+01-1.11452E+02 6.92727E+00
 -1      9697 6.43467E+01-1.11452E+02 8.65909E+00
 -1      9698 6.43467E+01-1.11452E+02 1.03909E+01
 -1      9699 6.43467E+01-1.11452E+02 1.21227E+01
 -1      9700 6.43467E+01-1.11452E+02 1.38545E+01
 -1      9701 6.43467E+01-1.11452E+02 1.55864E+01
 -1      9702 6.43467E+01-1.11452E+02 1.73182E+01
 -1      9703 5.84256E+01-1.14667E+02 1.73182E+00
 -1      9704 5.84256E+01-1.14667E+02 3.46364E+00
 -1      9705 5.84256E+01-1.14667E+02 5.19545E+00
 -1      9706 5.84256E+01-1.14667E+02 6.92727E+00
 -1      9707 5.84256E+01-1.14667E+02 8.65909E+00
 -1      9708 5.84256E+01-1.14667E+02 1.03909E+01
 -1      9709 5.84256E+01-1.14667E+02 1.21227E+01
 -1      9710 5.84256E+01-1.14667E+02 1.38545E+01
 -1      9711 5.84256E+01-1.14667E+02 1.55864E+01
 -1      9712 5.84256E+01-1.14667E+02 1.73182E+01
 -1      9713 5.23443E+01-1.17567E+02 1.73182E+00
 -1      9714 5.23443E+01-1.17567E+02 3.46364E+00
 -1      9715 5.23443E+01-1.17567E+02 5.19545E+00
 -1      9716 5.23443E+01-1.17567E+02 6.92727E+00
 -1      9717 5.23443E+01-1.17567E+02 8.65909E+00
 -1      9718 5.23443E+01-1.17567E+02 1.03909E+01
 -1      9719 5.23443E+01-1.17567E+02 1.21227E+01
 -1      9720 5.23443E+01-1.17567E+02 1.38545E+01
 -1      9721 5.23443E+01-1.17567E+02 1.55864E+01
 -1      9722 5.23443E+01-1.17567E+02 1.73182E+01
 -1      9723 4.61196E+01-1.20146E+02 1.73182E+00
 -1      9724 4.61196E+01-1.20146E+02 3.46364E+00
 -1      9725 4.61196E+01-1.20146E+02 5.19545E+00
 -1      9726 4.61196E+01-1.20146E+02 6.92727E+00
 -1      9727 4.61196E+01-1.20146E+02 8.65909E+00
 -1      9728 4.61196E+01-1.20146E+02 1.03909E+01
 -1      9729 4.61196E+01-1.20146E+02 1.21227E+01
 -1      9730 4.61196E+01-1.20146E+02 1.38545E+01
 -1      9731 4.61196E+01-1.20146E+02 1.55864E+01
 -1      9732 4.61196E+01-1.20146E+02 1.73182E+01
 -1      9733 3.97684E+01-1.22395E+02 1.73182E+00
 -1      9734 3.97684E+01-1.22395E+02 3.46364E+00
 -1      9735 3.97684E+01-1.22395E+02 5.19545E+00
 -1      9736 3.97684E+01-1.22395E+02 6.92727E+00
 -1      9737 3.97684E+01-1.22395E+02 8.65909E+00
 -1      9738 3.97684E+01-1.22395E+02 1.03909E+01
 -1      9739 3.97684E+01-1.22395E+02 1.21227E+01
 -1      9740 3.97684E+01-1.22395E+02 1.38545E+01
 -1      9741 3.97684E+01-1.22395E+02 1.55864E+01
 -1      9742 3.97684E+01-1.22395E+02 1.73182E+01
 -1      9743 3.33083E+01-1.24308E+02 1.73182E+00
 -1      9744 3.33083E+01-1.24308E+02 3.46364E+00
 -1      9745 3.33083E+01-1.24308E+02 5.19545E+00
 -1      9746 3.33083E+01-1.24308E+02 6.92727E+00
 -1      9747 3.33083E+01-1.24308E+02 8.65909E+00
 -1      9748 3.33083E+01-1.24308E+02 1.03909E+01
 -1      9749 3.33083E+01-1.24308E+02 1.21227E+01
 -1      9750 3.33083E+01-1.24308E+02 1.38545E+01
 -1      9751 3.33083E+01-1.24308E+02 1.55864E+01
 -1      9752 3.33083E+01-1.24308E+02 1.73182E+01
 -1      9753 2.67568E+01-1.25881E+02 1.73182E+00
 -1      9754 2.67568E+01-1.25881E+02 3.46364E+00
 -1      9755 2.67568E+01-1.25881E+02 5.19545E+00
 -1      9756 2.67568E+01-1.25881E+02 6.92727E+00
 -1      9757 2.67568E+01-1.25881E+02 8.65909E+00
 -1      9758 2.67568E+01-1.25881E+02 1.03909E+01
 -1      9759 2.67568E+01-1.25881E+02 1.21227E+01
 -1      9760 2.67568E+01-1.25881E+02 1.38545E+01
 -1      9761 2.67568E+01-1.25881E+02 1.55864E+01
 -1      9762 2.67568E+01-1.25881E+02 1.73182E+01
 -1      9763 2.01321E+01-1.27109E+02 1.73182E+00
 -1      9764 2.01321E+01-1.27109E+02 3.46364E+00
 -1      9765 2.01321E+01-1.27109E+02 5.19545E+00
 -1      9766 2.01321E+01-1.27109E+02 6.92727E+00
 -1      9767 2.01321E+01-1.27109E+02 8.65909E+00
 -1      9768 2.01321E+01-1.27109E+02 1.03909E+01
 -1      9769 2.01321E+01-1.27109E+02 1.21227E+01
 -1      9770 2.01321E+01-1.27109E+02 1.38545E+01
 -1      9771 2.01321E+01-1.27109E+02 1.55864E+01
 -1      9772 2.01321E+01-1.27109E+02 1.73182E+01
 -1      9773 1.34521E+01-1.27988E+02 1.73182E+00
 -1      9774 1.34521E+01-1.27988E+02 3.46364E+00
 -1      9775 1.34521E+01-1.27988E+02 5.19545E+00
 -1      9776 1.34521E+01-1.27988E+02 6.92727E+00
 -1      9777 1.34521E+01-1.27988E+02 8.65909E+00
 -1      9778 1.34521E+01-1.27988E+02 1.03909E+01
 -1      9779 1.34521E+01-1.27988E+02 1.21227E+01
 -1      9780 1.34521E+01-1.27988E+02 1.38545E+01
 -1      9781 1.34521E+01-1.27988E+02 1.55864E+01
 -1      9782 1.34521E+01-1.27988E+02 1.73182E+01
 -1      9783 6.73529E+00-1.28517E+02 1.73182E+00
 -1      9784 6.73529E+00-1.28517E+02 3.46364E+00
 -1      9785 6.73529E+00-1.28517E+02 5.19545E+00
 -1      9786 6.73529E+00-1.28517E+02 6.92727E+00
 -1      9787 6.73529E+00-1.28517E+02 8.65909E+00
 -1      9788 6.73529E+00-1.28517E+02 1.03909E+01
 -1      9789 6.73529E+00-1.28517E+02 1.21227E+01
 -1      9790 6.73529E+00-1.28517E+02 1.38545E+01
 -1      9791 6.73529E+00-1.28517E+02 1.55864E+01
 -1      9792 6.73529E+00-1.28517E+02 1.73182E+01
 -1      9793 1.31899E+02-6.91253E+00 1.73182E+00
 -1      9794 1.31899E+02-6.91253E+00 3.46364E+00
 -1      9795 1.31899E+02-6.91253E+00 5.19545E+00
 -1      9796 1.31899E+02-6.91253E+00 6.92727E+00
 -1      9797 1.31899E+02-6.91253E+00 8.65909E+00
 -1      9798 1.31899E+02-6.91253E+00 1.03909E+01
 -1      9799 1.31899E+02-6.91253E+00 1.21227E+01
 -1      9800 1.31899E+02-6.91253E+00 1.38545E+01
 -1      9801 1.31899E+02-6.91253E+00 1.55864E+01
 -1      9802 1.31899E+02-6.91253E+00 1.73182E+01
 -1      9803 1.31356E+02-1.38061E+01 1.73182E+00
 -1      9804 1.31356E+02-1.38061E+01 3.46364E+00
 -1      9805 1.31356E+02-1.38061E+01 5.19545E+00
 -1      9806 1.31356E+02-1.38061E+01 6.92727E+00
 -1      9807 1.31356E+02-1.38061E+01 8.65909E+00
 -1      9808 1.31356E+02-1.38061E+01 1.03909E+01
 -1      9809 1.31356E+02-1.38061E+01 1.21227E+01
 -1      9810 1.31356E+02-1.38061E+01 1.38545E+01
 -1      9811 1.31356E+02-1.38061E+01 1.55864E+01
 -1      9812 1.31356E+02-1.38061E+01 1.73182E+01
 -1      9813 1.30454E+02-2.06619E+01 1.73182E+00
 -1      9814 1.30454E+02-2.06619E+01 3.46364E+00
 -1      9815 1.30454E+02-2.06619E+01 5.19545E+00
 -1      9816 1.30454E+02-2.06619E+01 6.92727E+00
 -1      9817 1.30454E+02-2.06619E+01 8.65909E+00
 -1      9818 1.30454E+02-2.06619E+01 1.03909E+01
 -1      9819 1.30454E+02-2.06619E+01 1.21227E+01
 -1      9820 1.30454E+02-2.06619E+01 1.38545E+01
 -1      9821 1.30454E+02-2.06619E+01 1.55864E+01
 -1      9822 1.30454E+02-2.06619E+01 1.73182E+01
 -1      9823 1.29194E+02-2.74610E+01 1.73182E+00
 -1      9824 1.29194E+02-2.74610E+01 3.46364E+00
 -1      9825 1.29194E+02-2.74610E+01 5.19545E+00
 -1      9826 1.29194E+02-2.74610E+01 6.92727E+00
 -1      9827 1.29194E+02-2.74610E+01 8.65909E+00
 -1      9828 1.29194E+02-2.74610E+01 1.03909E+01
 -1      9829 1.29194E+02-2.74610E+01 1.21227E+01
 -1      9830 1.29194E+02-2.74610E+01 1.38545E+01
 -1      9831 1.29194E+02-2.74610E+01 1.55864E+01
 -1      9832 1.29194E+02-2.74610E+01 1.73182E+01
 -1      9833 1.27579E+02-3.41848E+01 1.73182E+00
 -1      9834 1.27579E+02-3.41848E+01 3.46364E+00
 -1      9835 1.27579E+02-3.41848E+01 5.19545E+00
 -1      9836 1.27579E+02-3.41848E+01 6.92727E+00
 -1      9837 1.27579E+02-3.41848E+01 8.65909E+00
 -1      9838 1.27579E+02-3.41848E+01 1.03909E+01
 -1      9839 1.27579E+02-3.41848E+01 1.21227E+01
 -1      9840 1.27579E+02-3.41848E+01 1.38545E+01
 -1      9841 1.27579E+02-3.41848E+01 1.55864E+01
 -1      9842 1.27579E+02-3.41848E+01 1.73182E+01
 -1      9843 1.25616E+02-4.08150E+01 1.73182E+00
 -1      9844 1.25616E+02-4.08150E+01 3.46364E+00
 -1      9845 1.25616E+02-4.08150E+01 5.19545E+00
 -1      9846 1.25616E+02-4.08150E+01 6.92727E+00
 -1      9847 1.25616E+02-4.08150E+01 8.65909E+00
 -1      9848 1.25616E+02-4.08150E+01 1.03909E+01
 -1      9849 1.25616E+02-4.08150E+01 1.21227E+01
 -1      9850 1.25616E+02-4.08150E+01 1.38545E+01
 -1      9851 1.25616E+02-4.08150E+01 1.55864E+01
 -1      9852 1.25616E+02-4.08150E+01 1.73182E+01
 -1      9853 1.23307E+02-4.73332E+01 1.73182E+00
 -1      9854 1.23307E+02-4.73332E+01 3.46364E+00
 -1      9855 1.23307E+02-4.73332E+01 5.19545E+00
 -1      9856 1.23307E+02-4.73332E+01 6.92727E+00
 -1      9857 1.23307E+02-4.73332E+01 8.65909E+00
 -1      9858 1.23307E+02-4.73332E+01 1.03909E+01
 -1      9859 1.23307E+02-4.73332E+01 1.21227E+01
 -1      9860 1.23307E+02-4.73332E+01 1.38545E+01
 -1      9861 1.23307E+02-4.73332E+01 1.55864E+01
 -1      9862 1.23307E+02-4.73332E+01 1.73182E+01
 -1      9863 1.20661E+02-5.37218E+01 1.73182E+00
 -1      9864 1.20661E+02-5.37218E+01 3.46364E+00
 -1      9865 1.20661E+02-5.37218E+01 5.19545E+00
 -1      9866 1.20661E+02-5.37218E+01 6.92727E+00
 -1      9867 1.20661E+02-5.37218E+01 8.65909E+00
 -1      9868 1.20661E+02-5.37218E+01 1.03909E+01
 -1      9869 1.20661E+02-5.37218E+01 1.21227E+01
 -1      9870 1.20661E+02-5.37218E+01 1.38545E+01
 -1      9871 1.20661E+02-5.37218E+01 1.55864E+01
 -1      9872 1.20661E+02-5.37218E+01 1.73182E+01
 -1      9873 1.17684E+02-5.99631E+01 1.73182E+00
 -1      9874 1.17684E+02-5.99631E+01 3.46364E+00
 -1      9875 1.17684E+02-5.99631E+01 5.19545E+00
 -1      9876 1.17684E+02-5.99631E+01 6.92727E+00
 -1      9877 1.17684E+02-5.99631E+01 8.65909E+00
 -1      9878 1.17684E+02-5.99631E+01 1.03909E+01
 -1      9879 1.17684E+02-5.99631E+01 1.21227E+01
 -1      9880 1.17684E+02-5.99631E+01 1.38545E+01
 -1      9881 1.17684E+02-5.99631E+01 1.55864E+01
 -1      9882 1.17684E+02-5.99631E+01 1.73182E+01
 -1      9883 1.14385E+02-6.60400E+01 1.73182E+00
 -1      9884 1.14385E+02-6.60400E+01 3.46364E+00
 -1      9885 1.14385E+02-6.60400E+01 5.19545E+00
 -1      9886 1.14385E+02-6.60400E+01 6.92727E+00
 -1      9887 1.14385E+02-6.60400E+01 8.65909E+00
 -1      9888 1.14385E+02-6.60400E+01 1.03909E+01
 -1      9889 1.14385E+02-6.60400E+01 1.21227E+01
 -1      9890 1.14385E+02-6.60400E+01 1.38545E+01
 -1      9891 1.14385E+02-6.60400E+01 1.55864E+01
 -1      9892 1.14385E+02-6.60400E+01 1.73182E+01
 -1      9893 1.10772E+02-7.19359E+01 1.73182E+00
 -1      9894 1.10772E+02-7.19359E+01 3.46364E+00
 -1      9895 1.10772E+02-7.19359E+01 5.19545E+00
 -1      9896 1.10772E+02-7.19359E+01 6.92727E+00
 -1      9897 1.10772E+02-7.19359E+01 8.65909E+00
 -1      9898 1.10772E+02-7.19359E+01 1.03909E+01
 -1      9899 1.10772E+02-7.19359E+01 1.21227E+01
 -1      9900 1.10772E+02-7.19359E+01 1.38545E+01
 -1      9901 1.10772E+02-7.19359E+01 1.55864E+01
 -1      9902 1.10772E+02-7.19359E+01 1.73182E+01
 -1      9903 1.06855E+02-7.76347E+01 1.73182E+00
 -1      9904 1.06855E+02-7.76347E+01 3.46364E+00
 -1      9905 1.06855E+02-7.76347E+01 5.19545E+00
 -1      9906 1.06855E+02-7.76347E+01 6.92727E+00
 -1      9907 1.06855E+02-7.76347E+01 8.65909E+00
 -1      9908 1.06855E+02-7.76347E+01 1.03909E+01
 -1      9909 1.06855E+02-7.76347E+01 1.21227E+01
 -1      9910 1.06855E+02-7.76347E+01 1.38545E+01
 -1      9911 1.06855E+02-7.76347E+01 1.55864E+01
 -1      9912 1.06855E+02-7.76347E+01 1.73182E+01
 -1      9913 1.02645E+02-8.31206E+01 1.73182E+00
 -1      9914 1.02645E+02-8.31206E+01 3.46364E+00
 -1      9915 1.02645E+02-8.31206E+01 5.19545E+00
 -1      9916 1.02645E+02-8.31206E+01 6.92727E+00
 -1      9917 1.02645E+02-8.31206E+01 8.65909E+00
 -1      9918 1.02645E+02-8.31206E+01 1.03909E+01
 -1      9919 1.02645E+02-8.31206E+01 1.21227E+01
 -1      9920 1.02645E+02-8.31206E+01 1.38545E+01
 -1      9921 1.02645E+02-8.31206E+01 1.55864E+01
 -1      9922 1.02645E+02-8.31206E+01 1.73182E+01
 -1      9923 9.81546E+01-8.83788E+01 1.73182E+00
 -1      9924 9.81546E+01-8.83788E+01 3.46364E+00
 -1      9925 9.81546E+01-8.83788E+01 5.19545E+00
 -1      9926 9.81546E+01-8.83788E+01 6.92727E+00
 -1      9927 9.81546E+01-8.83788E+01 8.65909E+00
 -1      9928 9.81546E+01-8.83788E+01 1.03909E+01
 -1      9929 9.81546E+01-8.83788E+01 1.21227E+01
 -1      9930 9.81546E+01-8.83788E+01 1.38545E+01
 -1      9931 9.81546E+01-8.83788E+01 1.55864E+01
 -1      9932 9.81546E+01-8.83788E+01 1.73182E+01
 -1      9933 9.33947E+01-9.33947E+01 1.73182E+00
 -1      9934 9.33947E+01-9.33947E+01 3.46364E+00
 -1      9935 9.33947E+01-9.33947E+01 5.19545E+00
 -1      9936 9.33947E+01-9.33947E+01 6.92727E+00
 -1      9937 9.33947E+01-9.33947E+01 8.65909E+00
 -1      9938 9.33947E+01-9.33947E+01 1.03909E+01
 -1      9939 9.33947E+01-9.33947E+01 1.21227E+01
 -1      9940 9.33947E+01-9.33947E+01 1.38545E+01
 -1      9941 9.33947E+01-9.33947E+01 1.55864E+01
 -1      9942 9.33947E+01-9.33947E+01 1.73182E+01
 -1      9943 8.83788E+01-9.81546E+01 1.73182E+00
 -1      9944 8.83788E+01-9.81546E+01 3.46364E+00
 -1      9945 8.83788E+01-9.81546E+01 5.19545E+00
 -1      9946 8.83788E+01-9.81546E+01 6.92727E+00
 -1      9947 8.83788E+01-9.81546E+01 8.65909E+00
 -1      9948 8.83788E+01-9.81546E+01 1.03909E+01
 -1      9949 8.83788E+01-9.81546E+01 1.21227E+01
 -1      9950 8.83788E+01-9.81546E+01 1.38545E+01
 -1      9951 8.83788E+01-9.81546E+01 1.55864E+01
 -1      9952 8.83788E+01-9.81546E+01 1.73182E+01
 -1      9953 8.31206E+01-1.02645E+02 1.73182E+00
 -1      9954 8.31206E+01-1.02645E+02 3.46364E+00
 -1      9955 8.31206E+01-1.02645E+02 5.19545E+00
 -1      9956 8.31206E+01-1.02645E+02 6.92727E+00
 -1      9957 8.31206E+01-1.02645E+02 8.65909E+00
 -1      9958 8.31206E+01-1.02645E+02 1.03909E+01
 -1      9959 8.31206E+01-1.02645E+02 1.21227E+01
 -1      9960 8.31206E+01-1.02645E+02 1.38545E+01
 -1      9961 8.31206E+01-1.02645E+02 1.55864E+01
 -1      9962 8.31206E+01-1.02645E+02 1.73182E+01
 -1      9963 7.76347E+01-1.06855E+02 1.73182E+00
 -1      9964 7.76347E+01-1.06855E+02 3.46364E+00
 -1      9965 7.76347E+01-1.06855E+02 5.19545E+00
 -1      9966 7.76347E+01-1.06855E+02 6.92727E+00
 -1      9967 7.76347E+01-1.06855E+02 8.65909E+00
 -1      9968 7.76347E+01-1.06855E+02 1.03909E+01
 -1      9969 7.76347E+01-1.06855E+02 1.21227E+01
 -1      9970 7.76347E+01-1.06855E+02 1.38545E+01
 -1      9971 7.76347E+01-1.06855E+02 1.55864E+01
 -1      9972 7.76347E+01-1.06855E+02 1.73182E+01
 -1      9973 7.19359E+01-1.10772E+02 1.73182E+00
 -1      9974 7.19359E+01-1.10772E+02 3.46364E+00
 -1      9975 7.19359E+01-1.10772E+02 5.19545E+00
 -1      9976 7.19359E+01-1.10772E+02 6.92727E+00
 -1      9977 7.19359E+01-1.10772E+02 8.65909E+00
 -1      9978 7.19359E+01-1.10772E+02 1.03909E+01
 -1      9979 7.19359E+01-1.10772E+02 1.21227E+01
 -1      9980 7.19359E+01-1.10772E+02 1.38545E+01
 -1      9981 7.19359E+01-1.10772E+02 1.55864E+01
 -1      9982 7.19359E+01-1.10772E+02 1.73182E+01
 -1      9983 6.60400E+01-1.14385E+02 1.73182E+00
 -1      9984 6.60400E+01-1.14385E+02 3.46364E+00
 -1      9985 6.60400E+01-1.14385E+02 5.19545E+00
 -1      9986 6.60400E+01-1.14385E+02 6.92727E+00
 -1      9987 6.60400E+01-1.14385E+02 8.65909E+00
 -1      9988 6.60400E+01-1.14385E+02 1.03909E+01
 -1      9989 6.60400E+01-1.14385E+02 1.21227E+01
 -1      9990 6.60400E+01-1.14385E+02 1.38545E+01
 -1      9991 6.60400E+01-1.14385E+02 1.55864E+01
 -1      9992 6.60400E+01-1.14385E+02 1.73182E+01
 -1      9993 5.99631E+01-1.17684E+02 1.73182E+00
 -1      9994 5.99631E+01-1.17684E+02 3.46364E+00
 -1      9995 5.99631E+01-1.17684E+02 5.19545E+00
 -1      9996 5.99631E+01-1.17684E+02 6.92727E+00
 -1      9997 5.99631E+01-1.17684E+02 8.65909E+00
 -1      9998 5.99631E+01-1.17684E+02 1.03909E+01
 -1      9999 5.99631E+01-1.17684E+02 1.21227E+01
 -1     10000 5.99631E+01-1.17684E+02 1.38545E+01
 -1     10001 5.99631E+01-1.17684E+02 1.55864E+01
 -1     10002 5.99631E+01-1.17684E+02 1.73182E+01
 -1     10003 5.37218E+01-1.20661E+02 1.73182E+00
 -1     10004 5.37218E+01-1.20661E+02 3.46364E+00
 -1     10005 5.37218E+01-1.20661E+02 5.19545E+00
 -1     10006 5.37218E+01-1.20661E+02 6.92727E+00
 -1     10007 5.37218E+01-1.20661E+02 8.65909E+00
 -1     10008 5.37218E+01-1.20661E+02 1.03909E+01
 -1     10009 5.37218E+01-1.20661E+02 1.21227E+01
 -1     10010 5.37218E+01-1.20661E+02 1.38545E+01
 -1     10011 5.37218E+01-1.20661E+02 1.55864E+01
 -1     10012 5.37218E+01-1.20661E+02 1.73182E+01
 -1     10013 4.73332E+01-1.23307E+02 1.73182E+00
 -1     10014 4.73332E+01-1.23307E+02 3.46364E+00
 -1     10015 4.73332E+01-1.23307E+02 5.19545E+00
 -1     10016 4.73332E+01-1.23307E+02 6.92727E+00
 -1     10017 4.73332E+01-1.23307E+02 8.65909E+00
 -1     10018 4.73332E+01-1.23307E+02 1.03909E+01
 -1     10019 4.73332E+01-1.23307E+02 1.21227E+01
 -1     10020 4.73332E+01-1.23307E+02 1.38545E+01
 -1     10021 4.73332E+01-1.23307E+02 1.55864E+01
 -1     10022 4.73332E+01-1.23307E+02 1.73182E+01
 -1     10023 4.08150E+01-1.25616E+02 1.73182E+00
 -1     10024 4.08150E+01-1.25616E+02 3.46364E+00
 -1     10025 4.08150E+01-1.25616E+02 5.19545E+00
 -1     10026 4.08150E+01-1.25616E+02 6.92727E+00
 -1     10027 4.08150E+01-1.25616E+02 8.65909E+00
 -1     10028 4.08150E+01-1.25616E+02 1.03909E+01
 -1     10029 4.08150E+01-1.25616E+02 1.21227E+01
 -1     10030 4.08150E+01-1.25616E+02 1.38545E+01
 -1     10031 4.08150E+01-1.25616E+02 1.55864E+01
 -1     10032 4.08150E+01-1.25616E+02 1.73182E+01
 -1     10033 3.41848E+01-1.27579E+02 1.73182E+00
 -1     10034 3.41848E+01-1.27579E+02 3.46364E+00
 -1     10035 3.41848E+01-1.27579E+02 5.19545E+00
 -1     10036 3.41848E+01-1.27579E+02 6.92727E+00
 -1     10037 3.41848E+01-1.27579E+02 8.65909E+00
 -1     10038 3.41848E+01-1.27579E+02 1.03909E+01
 -1     10039 3.41848E+01-1.27579E+02 1.21227E+01
 -1     10040 3.41848E+01-1.27579E+02 1.38545E+01
 -1     10041 3.41848E+01-1.27579E+02 1.55864E+01
 -1     10042 3.41848E+01-1.27579E+02 1.73182E+01
 -1     10043 2.74610E+01-1.29194E+02 1.73182E+00
 -1     10044 2.74610E+01-1.29194E+02 3.46364E+00
 -1     10045 2.74610E+01-1.29194E+02 5.19545E+00
 -1     10046 2.74610E+01-1.29194E+02 6.92727E+00
 -1     10047 2.74610E+01-1.29194E+02 8.65909E+00
 -1     10048 2.74610E+01-1.29194E+02 1.03909E+01
 -1     10049 2.74610E+01-1.29194E+02 1.21227E+01
 -1     10050 2.74610E+01-1.29194E+02 1.38545E+01
 -1     10051 2.74610E+01-1.29194E+02 1.55864E+01
 -1     10052 2.74610E+01-1.29194E+02 1.73182E+01
 -1     10053 2.06619E+01-1.30454E+02 1.73182E+00
 -1     10054 2.06619E+01-1.30454E+02 3.46364E+00
 -1     10055 2.06619E+01-1.30454E+02 5.19545E+00
 -1     10056 2.06619E+01-1.30454E+02 6.92727E+00
 -1     10057 2.06619E+01-1.30454E+02 8.65909E+00
 -1     10058 2.06619E+01-1.30454E+02 1.03909E+01
 -1     10059 2.06619E+01-1.30454E+02 1.21227E+01
 -1     10060 2.06619E+01-1.30454E+02 1.38545E+01
 -1     10061 2.06619E+01-1.30454E+02 1.55864E+01
 -1     10062 2.06619E+01-1.30454E+02 1.73182E+01
 -1     10063 1.38061E+01-1.31356E+02 1.73182E+00
 -1     10064 1.38061E+01-1.31356E+02 3.46364E+00
 -1     10065 1.38061E+01-1.31356E+02 5.19545E+00
 -1     10066 1.38061E+01-1.31356E+02 6.92727E+00
 -1     10067 1.38061E+01-1.31356E+02 8.65909E+00
 -1     10068 1.38061E+01-1.31356E+02 1.03909E+01
 -1     10069 1.38061E+01-1.31356E+02 1.21227E+01
 -1     10070 1.38061E+01-1.31356E+02 1.38545E+01
 -1     10071 1.38061E+01-1.31356E+02 1.55864E+01
 -1     10072 1.38061E+01-1.31356E+02 1.73182E+01
 -1     10073 6.91253E+00-1.31899E+02 1.73182E+00
 -1     10074 6.91253E+00-1.31899E+02 3.46364E+00
 -1     10075 6.91253E+00-1.31899E+02 5.19545E+00
 -1     10076 6.91253E+00-1.31899E+02 6.92727E+00
 -1     10077 6.91253E+00-1.31899E+02 8.65909E+00
 -1     10078 6.91253E+00-1.31899E+02 1.03909E+01
 -1     10079 6.91253E+00-1.31899E+02 1.21227E+01
 -1     10080 6.91253E+00-1.31899E+02 1.38545E+01
 -1     10081 6.91253E+00-1.31899E+02 1.55864E+01
 -1     10082 6.91253E+00-1.31899E+02 1.73182E+01
 -1     10083 1.35281E+02-7.08978E+00 1.73182E+00
 -1     10084 1.35281E+02-7.08978E+00 3.46364E+00
 -1     10085 1.35281E+02-7.08978E+00 5.19545E+00
 -1     10086 1.35281E+02-7.08978E+00 6.92727E+00
 -1     10087 1.35281E+02-7.08978E+00 8.65909E+00
 -1     10088 1.35281E+02-7.08978E+00 1.03909E+01
 -1     10089 1.35281E+02-7.08978E+00 1.21227E+01
 -1     10090 1.35281E+02-7.08978E+00 1.38545E+01
 -1     10091 1.35281E+02-7.08978E+00 1.55864E+01
 -1     10092 1.35281E+02-7.08978E+00 1.73182E+01
 -1     10093 1.34725E+02-1.41601E+01 1.73182E+00
 -1     10094 1.34725E+02-1.41601E+01 3.46364E+00
 -1     10095 1.34725E+02-1.41601E+01 5.19545E+00
 -1     10096 1.34725E+02-1.41601E+01 6.92727E+00
 -1     10097 1.34725E+02-1.41601E+01 8.65909E+00
 -1     10098 1.34725E+02-1.41601E+01 1.03909E+01
 -1     10099 1.34725E+02-1.41601E+01 1.21227E+01
 -1     10100 1.34725E+02-1.41601E+01 1.38545E+01
 -1     10101 1.34725E+02-1.41601E+01 1.55864E+01
 -1     10102 1.34725E+02-1.41601E+01 1.73182E+01
 -1     10103 1.33799E+02-2.11917E+01 1.73182E+00
 -1     10104 1.33799E+02-2.11917E+01 3.46364E+00
 -1     10105 1.33799E+02-2.11917E+01 5.19545E+00
 -1     10106 1.33799E+02-2.11917E+01 6.92727E+00
 -1     10107 1.33799E+02-2.11917E+01 8.65909E+00
 -1     10108 1.33799E+02-2.11917E+01 1.03909E+01
 -1     10109 1.33799E+02-2.11917E+01 1.21227E+01
 -1     10110 1.33799E+02-2.11917E+01 1.38545E+01
 -1     10111 1.33799E+02-2.11917E+01 1.55864E+01
 -1     10112 1.33799E+02-2.11917E+01 1.73182E+01
 -1     10113 1.32506E+02-2.81651E+01 1.73182E+00
 -1     10114 1.32506E+02-2.81651E+01 3.46364E+00
 -1     10115 1.32506E+02-2.81651E+01 5.19545E+00
 -1     10116 1.32506E+02-2.81651E+01 6.92727E+00
 -1     10117 1.32506E+02-2.81651E+01 8.65909E+00
 -1     10118 1.32506E+02-2.81651E+01 1.03909E+01
 -1     10119 1.32506E+02-2.81651E+01 1.21227E+01
 -1     10120 1.32506E+02-2.81651E+01 1.38545E+01
 -1     10121 1.32506E+02-2.81651E+01 1.55864E+01
 -1     10122 1.32506E+02-2.81651E+01 1.73182E+01
 -1     10123 1.30851E+02-3.50614E+01 1.73182E+00
 -1     10124 1.30851E+02-3.50614E+01 3.46364E+00
 -1     10125 1.30851E+02-3.50614E+01 5.19545E+00
 -1     10126 1.30851E+02-3.50614E+01 6.92727E+00
 -1     10127 1.30851E+02-3.50614E+01 8.65909E+00
 -1     10128 1.30851E+02-3.50614E+01 1.03909E+01
 -1     10129 1.30851E+02-3.50614E+01 1.21227E+01
 -1     10130 1.30851E+02-3.50614E+01 1.38545E+01
 -1     10131 1.30851E+02-3.50614E+01 1.55864E+01
 -1     10132 1.30851E+02-3.50614E+01 1.73182E+01
 -1     10133 1.28836E+02-4.18615E+01 1.73182E+00
 -1     10134 1.28836E+02-4.18615E+01 3.46364E+00
 -1     10135 1.28836E+02-4.18615E+01 5.19545E+00
 -1     10136 1.28836E+02-4.18615E+01 6.92727E+00
 -1     10137 1.28836E+02-4.18615E+01 8.65909E+00
 -1     10138 1.28836E+02-4.18615E+01 1.03909E+01
 -1     10139 1.28836E+02-4.18615E+01 1.21227E+01
 -1     10140 1.28836E+02-4.18615E+01 1.38545E+01
 -1     10141 1.28836E+02-4.18615E+01 1.55864E+01
 -1     10142 1.28836E+02-4.18615E+01 1.73182E+01
 -1     10143 1.26469E+02-4.85469E+01 1.73182E+00
 -1     10144 1.26469E+02-4.85469E+01 3.46364E+00
 -1     10145 1.26469E+02-4.85469E+01 5.19545E+00
 -1     10146 1.26469E+02-4.85469E+01 6.92727E+00
 -1     10147 1.26469E+02-4.85469E+01 8.65909E+00
 -1     10148 1.26469E+02-4.85469E+01 1.03909E+01
 -1     10149 1.26469E+02-4.85469E+01 1.21227E+01
 -1     10150 1.26469E+02-4.85469E+01 1.38545E+01
 -1     10151 1.26469E+02-4.85469E+01 1.55864E+01
 -1     10152 1.26469E+02-4.85469E+01 1.73182E+01
 -1     10153 1.23755E+02-5.50993E+01 1.73182E+00
 -1     10154 1.23755E+02-5.50993E+01 3.46364E+00
 -1     10155 1.23755E+02-5.50993E+01 5.19545E+00
 -1     10156 1.23755E+02-5.50993E+01 6.92727E+00
 -1     10157 1.23755E+02-5.50993E+01 8.65909E+00
 -1     10158 1.23755E+02-5.50993E+01 1.03909E+01
 -1     10159 1.23755E+02-5.50993E+01 1.21227E+01
 -1     10160 1.23755E+02-5.50993E+01 1.38545E+01
 -1     10161 1.23755E+02-5.50993E+01 1.55864E+01
 -1     10162 1.23755E+02-5.50993E+01 1.73182E+01
 -1     10163 1.20702E+02-6.15006E+01 1.73182E+00
 -1     10164 1.20702E+02-6.15006E+01 3.46364E+00
 -1     10165 1.20702E+02-6.15006E+01 5.19545E+00
 -1     10166 1.20702E+02-6.15006E+01 6.92727E+00
 -1     10167 1.20702E+02-6.15006E+01 8.65909E+00
 -1     10168 1.20702E+02-6.15006E+01 1.03909E+01
 -1     10169 1.20702E+02-6.15006E+01 1.21227E+01
 -1     10170 1.20702E+02-6.15006E+01 1.38545E+01
 -1     10171 1.20702E+02-6.15006E+01 1.55864E+01
 -1     10172 1.20702E+02-6.15006E+01 1.73182E+01
 -1     10173 1.17318E+02-6.77333E+01 1.73182E+00
 -1     10174 1.17318E+02-6.77333E+01 3.46364E+00
 -1     10175 1.17318E+02-6.77333E+01 5.19545E+00
 -1     10176 1.17318E+02-6.77333E+01 6.92727E+00
 -1     10177 1.17318E+02-6.77333E+01 8.65909E+00
 -1     10178 1.17318E+02-6.77333E+01 1.03909E+01
 -1     10179 1.17318E+02-6.77333E+01 1.21227E+01
 -1     10180 1.17318E+02-6.77333E+01 1.38545E+01
 -1     10181 1.17318E+02-6.77333E+01 1.55864E+01
 -1     10182 1.17318E+02-6.77333E+01 1.73182E+01
 -1     10183 1.13612E+02-7.37804E+01 1.73182E+00
 -1     10184 1.13612E+02-7.37804E+01 3.46364E+00
 -1     10185 1.13612E+02-7.37804E+01 5.19545E+00
 -1     10186 1.13612E+02-7.37804E+01 6.92727E+00
 -1     10187 1.13612E+02-7.37804E+01 8.65909E+00
 -1     10188 1.13612E+02-7.37804E+01 1.03909E+01
 -1     10189 1.13612E+02-7.37804E+01 1.21227E+01
 -1     10190 1.13612E+02-7.37804E+01 1.38545E+01
 -1     10191 1.13612E+02-7.37804E+01 1.55864E+01
 -1     10192 1.13612E+02-7.37804E+01 1.73182E+01
 -1     10193 1.09595E+02-7.96253E+01 1.73182E+00
 -1     10194 1.09595E+02-7.96253E+01 3.46364E+00
 -1     10195 1.09595E+02-7.96253E+01 5.19545E+00
 -1     10196 1.09595E+02-7.96253E+01 6.92727E+00
 -1     10197 1.09595E+02-7.96253E+01 8.65909E+00
 -1     10198 1.09595E+02-7.96253E+01 1.03909E+01
 -1     10199 1.09595E+02-7.96253E+01 1.21227E+01
 -1     10200 1.09595E+02-7.96253E+01 1.38545E+01
 -1     10201 1.09595E+02-7.96253E+01 1.55864E+01
 -1     10202 1.09595E+02-7.96253E+01 1.73182E+01
 -1     10203 1.05277E+02-8.52519E+01 1.73182E+00
 -1     10204 1.05277E+02-8.52519E+01 3.46364E+00
 -1     10205 1.05277E+02-8.52519E+01 5.19545E+00
 -1     10206 1.05277E+02-8.52519E+01 6.92727E+00
 -1     10207 1.05277E+02-8.52519E+01 8.65909E+00
 -1     10208 1.05277E+02-8.52519E+01 1.03909E+01
 -1     10209 1.05277E+02-8.52519E+01 1.21227E+01
 -1     10210 1.05277E+02-8.52519E+01 1.38545E+01
 -1     10211 1.05277E+02-8.52519E+01 1.55864E+01
 -1     10212 1.05277E+02-8.52519E+01 1.73182E+01
 -1     10213 1.00671E+02-9.06449E+01 1.73182E+00
 -1     10214 1.00671E+02-9.06449E+01 3.46364E+00
 -1     10215 1.00671E+02-9.06449E+01 5.19545E+00
 -1     10216 1.00671E+02-9.06449E+01 6.92727E+00
 -1     10217 1.00671E+02-9.06449E+01 8.65909E+00
 -1     10218 1.00671E+02-9.06449E+01 1.03909E+01
 -1     10219 1.00671E+02-9.06449E+01 1.21227E+01
 -1     10220 1.00671E+02-9.06449E+01 1.38545E+01
 -1     10221 1.00671E+02-9.06449E+01 1.55864E+01
 -1     10222 1.00671E+02-9.06449E+01 1.73182E+01
 -1     10223 9.57894E+01-9.57894E+01 1.73182E+00
 -1     10224 9.57894E+01-9.57894E+01 3.46364E+00
 -1     10225 9.57894E+01-9.57894E+01 5.19545E+00
 -1     10226 9.57894E+01-9.57894E+01 6.92727E+00
 -1     10227 9.57894E+01-9.57894E+01 8.65909E+00
 -1     10228 9.57894E+01-9.57894E+01 1.03909E+01
 -1     10229 9.57894E+01-9.57894E+01 1.21227E+01
 -1     10230 9.57894E+01-9.57894E+01 1.38545E+01
 -1     10231 9.57894E+01-9.57894E+01 1.55864E+01
 -1     10232 9.57894E+01-9.57894E+01 1.73182E+01
 -1     10233 9.06449E+01-1.00671E+02 1.73182E+00
 -1     10234 9.06449E+01-1.00671E+02 3.46364E+00
 -1     10235 9.06449E+01-1.00671E+02 5.19545E+00
 -1     10236 9.06449E+01-1.00671E+02 6.92727E+00
 -1     10237 9.06449E+01-1.00671E+02 8.65909E+00
 -1     10238 9.06449E+01-1.00671E+02 1.03909E+01
 -1     10239 9.06449E+01-1.00671E+02 1.21227E+01
 -1     10240 9.06449E+01-1.00671E+02 1.38545E+01
 -1     10241 9.06449E+01-1.00671E+02 1.55864E+01
 -1     10242 9.06449E+01-1.00671E+02 1.73182E+01
 -1     10243 8.52519E+01-1.05277E+02 1.73182E+00
 -1     10244 8.52519E+01-1.05277E+02 3.46364E+00
 -1     10245 8.52519E+01-1.05277E+02 5.19545E+00
 -1     10246 8.52519E+01-1.05277E+02 6.92727E+00
 -1     10247 8.52519E+01-1.05277E+02 8.65909E+00
 -1     10248 8.52519E+01-1.05277E+02 1.03909E+01
 -1     10249 8.52519E+01-1.05277E+02 1.21227E+01
 -1     10250 8.52519E+01-1.05277E+02 1.38545E+01
 -1     10251 8.52519E+01-1.05277E+02 1.55864E+01
 -1     10252 8.52519E+01-1.05277E+02 1.73182E+01
 -1     10253 7.96253E+01-1.09595E+02 1.73182E+00
 -1     10254 7.96253E+01-1.09595E+02 3.46364E+00
 -1     10255 7.96253E+01-1.09595E+02 5.19545E+00
 -1     10256 7.96253E+01-1.09595E+02 6.92727E+00
 -1     10257 7.96253E+01-1.09595E+02 8.65909E+00
 -1     10258 7.96253E+01-1.09595E+02 1.03909E+01
 -1     10259 7.96253E+01-1.09595E+02 1.21227E+01
 -1     10260 7.96253E+01-1.09595E+02 1.38545E+01
 -1     10261 7.96253E+01-1.09595E+02 1.55864E+01
 -1     10262 7.96253E+01-1.09595E+02 1.73182E+01
 -1     10263 7.37804E+01-1.13612E+02 1.73182E+00
 -1     10264 7.37804E+01-1.13612E+02 3.46364E+00
 -1     10265 7.37804E+01-1.13612E+02 5.19545E+00
 -1     10266 7.37804E+01-1.13612E+02 6.92727E+00
 -1     10267 7.37804E+01-1.13612E+02 8.65909E+00
 -1     10268 7.37804E+01-1.13612E+02 1.03909E+01
 -1     10269 7.37804E+01-1.13612E+02 1.21227E+01
 -1     10270 7.37804E+01-1.13612E+02 1.38545E+01
 -1     10271 7.37804E+01-1.13612E+02 1.55864E+01
 -1     10272 7.37804E+01-1.13612E+02 1.73182E+01
 -1     10273 6.77333E+01-1.17318E+02 1.73182E+00
 -1     10274 6.77333E+01-1.17318E+02 3.46364E+00
 -1     10275 6.77333E+01-1.17318E+02 5.19545E+00
 -1     10276 6.77333E+01-1.17318E+02 6.92727E+00
 -1     10277 6.77333E+01-1.17318E+02 8.65909E+00
 -1     10278 6.77333E+01-1.17318E+02 1.03909E+01
 -1     10279 6.77333E+01-1.17318E+02 1.21227E+01
 -1     10280 6.77333E+01-1.17318E+02 1.38545E+01
 -1     10281 6.77333E+01-1.17318E+02 1.55864E+01
 -1     10282 6.77333E+01-1.17318E+02 1.73182E+01
 -1     10283 6.15006E+01-1.20702E+02 1.73182E+00
 -1     10284 6.15006E+01-1.20702E+02 3.46364E+00
 -1     10285 6.15006E+01-1.20702E+02 5.19545E+00
 -1     10286 6.15006E+01-1.20702E+02 6.92727E+00
 -1     10287 6.15006E+01-1.20702E+02 8.65909E+00
 -1     10288 6.15006E+01-1.20702E+02 1.03909E+01
 -1     10289 6.15006E+01-1.20702E+02 1.21227E+01
 -1     10290 6.15006E+01-1.20702E+02 1.38545E+01
 -1     10291 6.15006E+01-1.20702E+02 1.55864E+01
 -1     10292 6.15006E+01-1.20702E+02 1.73182E+01
 -1     10293 5.50993E+01-1.23755E+02 1.73182E+00
 -1     10294 5.50993E+01-1.23755E+02 3.46364E+00
 -1     10295 5.50993E+01-1.23755E+02 5.19545E+00
 -1     10296 5.50993E+01-1.23755E+02 6.92727E+00
 -1     10297 5.50993E+01-1.23755E+02 8.65909E+00
 -1     10298 5.50993E+01-1.23755E+02 1.03909E+01
 -1     10299 5.50993E+01-1.23755E+02 1.21227E+01
 -1     10300 5.50993E+01-1.23755E+02 1.38545E+01
 -1     10301 5.50993E+01-1.23755E+02 1.55864E+01
 -1     10302 5.50993E+01-1.23755E+02 1.73182E+01
 -1     10303 4.85469E+01-1.26469E+02 1.73182E+00
 -1     10304 4.85469E+01-1.26469E+02 3.46364E+00
 -1     10305 4.85469E+01-1.26469E+02 5.19545E+00
 -1     10306 4.85469E+01-1.26469E+02 6.92727E+00
 -1     10307 4.85469E+01-1.26469E+02 8.65909E+00
 -1     10308 4.85469E+01-1.26469E+02 1.03909E+01
 -1     10309 4.85469E+01-1.26469E+02 1.21227E+01
 -1     10310 4.85469E+01-1.26469E+02 1.38545E+01
 -1     10311 4.85469E+01-1.26469E+02 1.55864E+01
 -1     10312 4.85469E+01-1.26469E+02 1.73182E+01
 -1     10313 4.18615E+01-1.28836E+02 1.73182E+00
 -1     10314 4.18615E+01-1.28836E+02 3.46364E+00
 -1     10315 4.18615E+01-1.28836E+02 5.19545E+00
 -1     10316 4.18615E+01-1.28836E+02 6.92727E+00
 -1     10317 4.18615E+01-1.28836E+02 8.65909E+00
 -1     10318 4.18615E+01-1.28836E+02 1.03909E+01
 -1     10319 4.18615E+01-1.28836E+02 1.21227E+01
 -1     10320 4.18615E+01-1.28836E+02 1.38545E+01
 -1     10321 4.18615E+01-1.28836E+02 1.55864E+01
 -1     10322 4.18615E+01-1.28836E+02 1.73182E+01
 -1     10323 3.50614E+01-1.30851E+02 1.73182E+00
 -1     10324 3.50614E+01-1.30851E+02 3.46364E+00
 -1     10325 3.50614E+01-1.30851E+02 5.19545E+00
 -1     10326 3.50614E+01-1.30851E+02 6.92727E+00
 -1     10327 3.50614E+01-1.30851E+02 8.65909E+00
 -1     10328 3.50614E+01-1.30851E+02 1.03909E+01
 -1     10329 3.50614E+01-1.30851E+02 1.21227E+01
 -1     10330 3.50614E+01-1.30851E+02 1.38545E+01
 -1     10331 3.50614E+01-1.30851E+02 1.55864E+01
 -1     10332 3.50614E+01-1.30851E+02 1.73182E+01
 -1     10333 2.81651E+01-1.32506E+02 1.73182E+00
 -1     10334 2.81651E+01-1.32506E+02 3.46364E+00
 -1     10335 2.81651E+01-1.32506E+02 5.19545E+00
 -1     10336 2.81651E+01-1.32506E+02 6.92727E+00
 -1     10337 2.81651E+01-1.32506E+02 8.65909E+00
 -1     10338 2.81651E+01-1.32506E+02 1.03909E+01
 -1     10339 2.81651E+01-1.32506E+02 1.21227E+01
 -1     10340 2.81651E+01-1.32506E+02 1.38545E+01
 -1     10341 2.81651E+01-1.32506E+02 1.55864E+01
 -1     10342 2.81651E+01-1.32506E+02 1.73182E+01
 -1     10343 2.11917E+01-1.33799E+02 1.73182E+00
 -1     10344 2.11917E+01-1.33799E+02 3.46364E+00
 -1     10345 2.11917E+01-1.33799E+02 5.19545E+00
 -1     10346 2.11917E+01-1.33799E+02 6.92727E+00
 -1     10347 2.11917E+01-1.33799E+02 8.65909E+00
 -1     10348 2.11917E+01-1.33799E+02 1.03909E+01
 -1     10349 2.11917E+01-1.33799E+02 1.21227E+01
 -1     10350 2.11917E+01-1.33799E+02 1.38545E+01
 -1     10351 2.11917E+01-1.33799E+02 1.55864E+01
 -1     10352 2.11917E+01-1.33799E+02 1.73182E+01
 -1     10353 1.41601E+01-1.34725E+02 1.73182E+00
 -1     10354 1.41601E+01-1.34725E+02 3.46364E+00
 -1     10355 1.41601E+01-1.34725E+02 5.19545E+00
 -1     10356 1.41601E+01-1.34725E+02 6.92727E+00
 -1     10357 1.41601E+01-1.34725E+02 8.65909E+00
 -1     10358 1.41601E+01-1.34725E+02 1.03909E+01
 -1     10359 1.41601E+01-1.34725E+02 1.21227E+01
 -1     10360 1.41601E+01-1.34725E+02 1.38545E+01
 -1     10361 1.41601E+01-1.34725E+02 1.55864E+01
 -1     10362 1.41601E+01-1.34725E+02 1.73182E+01
 -1     10363 7.08978E+00-1.35281E+02 1.73182E+00
 -1     10364 7.08978E+00-1.35281E+02 3.46364E+00
 -1     10365 7.08978E+00-1.35281E+02 5.19545E+00
 -1     10366 7.08978E+00-1.35281E+02 6.92727E+00
 -1     10367 7.08978E+00-1.35281E+02 8.65909E+00
 -1     10368 7.08978E+00-1.35281E+02 1.03909E+01
 -1     10369 7.08978E+00-1.35281E+02 1.21227E+01
 -1     10370 7.08978E+00-1.35281E+02 1.38545E+01
 -1     10371 7.08978E+00-1.35281E+02 1.55864E+01
 -1     10372 7.08978E+00-1.35281E+02 1.73182E+01
 -1     10373 1.38663E+02-7.26702E+00 1.73182E+00
 -1     10374 1.38663E+02-7.26702E+00 3.46364E+00
 -1     10375 1.38663E+02-7.26702E+00 5.19545E+00
 -1     10376 1.38663E+02-7.26702E+00 6.92727E+00
 -1     10377 1.38663E+02-7.26702E+00 8.65909E+00
 -1     10378 1.38663E+02-7.26702E+00 1.03909E+01
 -1     10379 1.38663E+02-7.26702E+00 1.21227E+01
 -1     10380 1.38663E+02-7.26702E+00 1.38545E+01
 -1     10381 1.38663E+02-7.26702E+00 1.55864E+01
 -1     10382 1.38663E+02-7.26702E+00 1.73182E+01
 -1     10383 1.38093E+02-1.45141E+01 1.73182E+00
 -1     10384 1.38093E+02-1.45141E+01 3.46364E+00
 -1     10385 1.38093E+02-1.45141E+01 5.19545E+00
 -1     10386 1.38093E+02-1.45141E+01 6.92727E+00
 -1     10387 1.38093E+02-1.45141E+01 8.65909E+00
 -1     10388 1.38093E+02-1.45141E+01 1.03909E+01
 -1     10389 1.38093E+02-1.45141E+01 1.21227E+01
 -1     10390 1.38093E+02-1.45141E+01 1.38545E+01
 -1     10391 1.38093E+02-1.45141E+01 1.55864E+01
 -1     10392 1.38093E+02-1.45141E+01 1.73182E+01
 -1     10393 1.37144E+02-2.17214E+01 1.73182E+00
 -1     10394 1.37144E+02-2.17214E+01 3.46364E+00
 -1     10395 1.37144E+02-2.17214E+01 5.19545E+00
 -1     10396 1.37144E+02-2.17214E+01 6.92727E+00
 -1     10397 1.37144E+02-2.17214E+01 8.65909E+00
 -1     10398 1.37144E+02-2.17214E+01 1.03909E+01
 -1     10399 1.37144E+02-2.17214E+01 1.21227E+01
 -1     10400 1.37144E+02-2.17214E+01 1.38545E+01
 -1     10401 1.37144E+02-2.17214E+01 1.55864E+01
 -1     10402 1.37144E+02-2.17214E+01 1.73182E+01
 -1     10403 1.35819E+02-2.88692E+01 1.73182E+00
 -1     10404 1.35819E+02-2.88692E+01 3.46364E+00
 -1     10405 1.35819E+02-2.88692E+01 5.19545E+00
 -1     10406 1.35819E+02-2.88692E+01 6.92727E+00
 -1     10407 1.35819E+02-2.88692E+01 8.65909E+00
 -1     10408 1.35819E+02-2.88692E+01 1.03909E+01
 -1     10409 1.35819E+02-2.88692E+01 1.21227E+01
 -1     10410 1.35819E+02-2.88692E+01 1.38545E+01
 -1     10411 1.35819E+02-2.88692E+01 1.55864E+01
 -1     10412 1.35819E+02-2.88692E+01 1.73182E+01
 -1     10413 1.34122E+02-3.59379E+01 1.73182E+00
 -1     10414 1.34122E+02-3.59379E+01 3.46364E+00
 -1     10415 1.34122E+02-3.59379E+01 5.19545E+00
 -1     10416 1.34122E+02-3.59379E+01 6.92727E+00
 -1     10417 1.34122E+02-3.59379E+01 8.65909E+00
 -1     10418 1.34122E+02-3.59379E+01 1.03909E+01
 -1     10419 1.34122E+02-3.59379E+01 1.21227E+01
 -1     10420 1.34122E+02-3.59379E+01 1.38545E+01
 -1     10421 1.34122E+02-3.59379E+01 1.55864E+01
 -1     10422 1.34122E+02-3.59379E+01 1.73182E+01
 -1     10423 1.32057E+02-4.29080E+01 1.73182E+00
 -1     10424 1.32057E+02-4.29080E+01 3.46364E+00
 -1     10425 1.32057E+02-4.29080E+01 5.19545E+00
 -1     10426 1.32057E+02-4.29080E+01 6.92727E+00
 -1     10427 1.32057E+02-4.29080E+01 8.65909E+00
 -1     10428 1.32057E+02-4.29080E+01 1.03909E+01
 -1     10429 1.32057E+02-4.29080E+01 1.21227E+01
 -1     10430 1.32057E+02-4.29080E+01 1.38545E+01
 -1     10431 1.32057E+02-4.29080E+01 1.55864E+01
 -1     10432 1.32057E+02-4.29080E+01 1.73182E+01
 -1     10433 1.29631E+02-4.97606E+01 1.73182E+00
 -1     10434 1.29631E+02-4.97606E+01 3.46364E+00
 -1     10435 1.29631E+02-4.97606E+01 5.19545E+00
 -1     10436 1.29631E+02-4.97606E+01 6.92727E+00
 -1     10437 1.29631E+02-4.97606E+01 8.65909E+00
 -1     10438 1.29631E+02-4.97606E+01 1.03909E+01
 -1     10439 1.29631E+02-4.97606E+01 1.21227E+01
 -1     10440 1.29631E+02-4.97606E+01 1.38545E+01
 -1     10441 1.29631E+02-4.97606E+01 1.55864E+01
 -1     10442 1.29631E+02-4.97606E+01 1.73182E+01
 -1     10443 1.26849E+02-5.64767E+01 1.73182E+00
 -1     10444 1.26849E+02-5.64767E+01 3.46364E+00
 -1     10445 1.26849E+02-5.64767E+01 5.19545E+00
 -1     10446 1.26849E+02-5.64767E+01 6.92727E+00
 -1     10447 1.26849E+02-5.64767E+01 8.65909E+00
 -1     10448 1.26849E+02-5.64767E+01 1.03909E+01
 -1     10449 1.26849E+02-5.64767E+01 1.21227E+01
 -1     10450 1.26849E+02-5.64767E+01 1.38545E+01
 -1     10451 1.26849E+02-5.64767E+01 1.55864E+01
 -1     10452 1.26849E+02-5.64767E+01 1.73182E+01
 -1     10453 1.23719E+02-6.30381E+01 1.73182E+00
 -1     10454 1.23719E+02-6.30381E+01 3.46364E+00
 -1     10455 1.23719E+02-6.30381E+01 5.19545E+00
 -1     10456 1.23719E+02-6.30381E+01 6.92727E+00
 -1     10457 1.23719E+02-6.30381E+01 8.65909E+00
 -1     10458 1.23719E+02-6.30381E+01 1.03909E+01
 -1     10459 1.23719E+02-6.30381E+01 1.21227E+01
 -1     10460 1.23719E+02-6.30381E+01 1.38545E+01
 -1     10461 1.23719E+02-6.30381E+01 1.55864E+01
 -1     10462 1.23719E+02-6.30381E+01 1.73182E+01
 -1     10463 1.20251E+02-6.94267E+01 1.73182E+00
 -1     10464 1.20251E+02-6.94267E+01 3.46364E+00
 -1     10465 1.20251E+02-6.94267E+01 5.19545E+00
 -1     10466 1.20251E+02-6.94267E+01 6.92727E+00
 -1     10467 1.20251E+02-6.94267E+01 8.65909E+00
 -1     10468 1.20251E+02-6.94267E+01 1.03909E+01
 -1     10469 1.20251E+02-6.94267E+01 1.21227E+01
 -1     10470 1.20251E+02-6.94267E+01 1.38545E+01
 -1     10471 1.20251E+02-6.94267E+01 1.55864E+01
 -1     10472 1.20251E+02-6.94267E+01 1.73182E+01
 -1     10473 1.16452E+02-7.56249E+01 1.73182E+00
 -1     10474 1.16452E+02-7.56249E+01 3.46364E+00
 -1     10475 1.16452E+02-7.56249E+01 5.19545E+00
 -1     10476 1.16452E+02-7.56249E+01 6.92727E+00
 -1     10477 1.16452E+02-7.56249E+01 8.65909E+00
 -1     10478 1.16452E+02-7.56249E+01 1.03909E+01
 -1     10479 1.16452E+02-7.56249E+01 1.21227E+01
 -1     10480 1.16452E+02-7.56249E+01 1.38545E+01
 -1     10481 1.16452E+02-7.56249E+01 1.55864E+01
 -1     10482 1.16452E+02-7.56249E+01 1.73182E+01
 -1     10483 1.12335E+02-8.16159E+01 1.73182E+00
 -1     10484 1.12335E+02-8.16159E+01 3.46364E+00
 -1     10485 1.12335E+02-8.16159E+01 5.19545E+00
 -1     10486 1.12335E+02-8.16159E+01 6.92727E+00
 -1     10487 1.12335E+02-8.16159E+01 8.65909E+00
 -1     10488 1.12335E+02-8.16159E+01 1.03909E+01
 -1     10489 1.12335E+02-8.16159E+01 1.21227E+01
 -1     10490 1.12335E+02-8.16159E+01 1.38545E+01
 -1     10491 1.12335E+02-8.16159E+01 1.55864E+01
 -1     10492 1.12335E+02-8.16159E+01 1.73182E+01
 -1     10493 1.07909E+02-8.73832E+01 1.73182E+00
 -1     10494 1.07909E+02-8.73832E+01 3.46364E+00
 -1     10495 1.07909E+02-8.73832E+01 5.19545E+00
 -1     10496 1.07909E+02-8.73832E+01 6.92727E+00
 -1     10497 1.07909E+02-8.73832E+01 8.65909E+00
 -1     10498 1.07909E+02-8.73832E+01 1.03909E+01
 -1     10499 1.07909E+02-8.73832E+01 1.21227E+01
 -1     10500 1.07909E+02-8.73832E+01 1.38545E+01
 -1     10501 1.07909E+02-8.73832E+01 1.55864E+01
 -1     10502 1.07909E+02-8.73832E+01 1.73182E+01
 -1     10503 1.03188E+02-9.29110E+01 1.73182E+00
 -1     10504 1.03188E+02-9.29110E+01 3.46364E+00
 -1     10505 1.03188E+02-9.29110E+01 5.19545E+00
 -1     10506 1.03188E+02-9.29110E+01 6.92727E+00
 -1     10507 1.03188E+02-9.29110E+01 8.65909E+00
 -1     10508 1.03188E+02-9.29110E+01 1.03909E+01
 -1     10509 1.03188E+02-9.29110E+01 1.21227E+01
 -1     10510 1.03188E+02-9.29110E+01 1.38545E+01
 -1     10511 1.03188E+02-9.29110E+01 1.55864E+01
 -1     10512 1.03188E+02-9.29110E+01 1.73182E+01
 -1     10513 9.81841E+01-9.81841E+01 1.73182E+00
 -1     10514 9.81841E+01-9.81841E+01 3.46364E+00
 -1     10515 9.81841E+01-9.81841E+01 5.19545E+00
 -1     10516 9.81841E+01-9.81841E+01 6.92727E+00
 -1     10517 9.81841E+01-9.81841E+01 8.65909E+00
 -1     10518 9.81841E+01-9.81841E+01 1.03909E+01
 -1     10519 9.81841E+01-9.81841E+01 1.21227E+01
 -1     10520 9.81841E+01-9.81841E+01 1.38545E+01
 -1     10521 9.81841E+01-9.81841E+01 1.55864E+01
 -1     10522 9.81841E+01-9.81841E+01 1.73182E+01
 -1     10523 9.29110E+01-1.03188E+02 1.73182E+00
 -1     10524 9.29110E+01-1.03188E+02 3.46364E+00
 -1     10525 9.29110E+01-1.03188E+02 5.19545E+00
 -1     10526 9.29110E+01-1.03188E+02 6.92727E+00
 -1     10527 9.29110E+01-1.03188E+02 8.65909E+00
 -1     10528 9.29110E+01-1.03188E+02 1.03909E+01
 -1     10529 9.29110E+01-1.03188E+02 1.21227E+01
 -1     10530 9.29110E+01-1.03188E+02 1.38545E+01
 -1     10531 9.29110E+01-1.03188E+02 1.55864E+01
 -1     10532 9.29110E+01-1.03188E+02 1.73182E+01
 -1     10533 8.73832E+01-1.07909E+02 1.73182E+00
 -1     10534 8.73832E+01-1.07909E+02 3.46364E+00
 -1     10535 8.73832E+01-1.07909E+02 5.19545E+00
 -1     10536 8.73832E+01-1.07909E+02 6.92727E+00
 -1     10537 8.73832E+01-1.07909E+02 8.65909E+00
 -1     10538 8.73832E+01-1.07909E+02 1.03909E+01
 -1     10539 8.73832E+01-1.07909E+02 1.21227E+01
 -1     10540 8.73832E+01-1.07909E+02 1.38545E+01
 -1     10541 8.73832E+01-1.07909E+02 1.55864E+01
 -1     10542 8.73832E+01-1.07909E+02 1.73182E+01
 -1     10543 8.16159E+01-1.12335E+02 1.73182E+00
 -1     10544 8.16159E+01-1.12335E+02 3.46364E+00
 -1     10545 8.16159E+01-1.12335E+02 5.19545E+00
 -1     10546 8.16159E+01-1.12335E+02 6.92727E+00
 -1     10547 8.16159E+01-1.12335E+02 8.65909E+00
 -1     10548 8.16159E+01-1.12335E+02 1.03909E+01
 -1     10549 8.16159E+01-1.12335E+02 1.21227E+01
 -1     10550 8.16159E+01-1.12335E+02 1.38545E+01
 -1     10551 8.16159E+01-1.12335E+02 1.55864E+01
 -1     10552 8.16159E+01-1.12335E+02 1.73182E+01
 -1     10553 7.56249E+01-1.16452E+02 1.73182E+00
 -1     10554 7.56249E+01-1.16452E+02 3.46364E+00
 -1     10555 7.56249E+01-1.16452E+02 5.19545E+00
 -1     10556 7.56249E+01-1.16452E+02 6.92727E+00
 -1     10557 7.56249E+01-1.16452E+02 8.65909E+00
 -1     10558 7.56249E+01-1.16452E+02 1.03909E+01
 -1     10559 7.56249E+01-1.16452E+02 1.21227E+01
 -1     10560 7.56249E+01-1.16452E+02 1.38545E+01
 -1     10561 7.56249E+01-1.16452E+02 1.55864E+01
 -1     10562 7.56249E+01-1.16452E+02 1.73182E+01
 -1     10563 6.94267E+01-1.20251E+02 1.73182E+00
 -1     10564 6.94267E+01-1.20251E+02 3.46364E+00
 -1     10565 6.94267E+01-1.20251E+02 5.19545E+00
 -1     10566 6.94267E+01-1.20251E+02 6.92727E+00
 -1     10567 6.94267E+01-1.20251E+02 8.65909E+00
 -1     10568 6.94267E+01-1.20251E+02 1.03909E+01
 -1     10569 6.94267E+01-1.20251E+02 1.21227E+01
 -1     10570 6.94267E+01-1.20251E+02 1.38545E+01
 -1     10571 6.94267E+01-1.20251E+02 1.55864E+01
 -1     10572 6.94267E+01-1.20251E+02 1.73182E+01
 -1     10573 6.30381E+01-1.23719E+02 1.73182E+00
 -1     10574 6.30381E+01-1.23719E+02 3.46364E+00
 -1     10575 6.30381E+01-1.23719E+02 5.19545E+00
 -1     10576 6.30381E+01-1.23719E+02 6.92727E+00
 -1     10577 6.30381E+01-1.23719E+02 8.65909E+00
 -1     10578 6.30381E+01-1.23719E+02 1.03909E+01
 -1     10579 6.30381E+01-1.23719E+02 1.21227E+01
 -1     10580 6.30381E+01-1.23719E+02 1.38545E+01
 -1     10581 6.30381E+01-1.23719E+02 1.55864E+01
 -1     10582 6.30381E+01-1.23719E+02 1.73182E+01
 -1     10583 5.64767E+01-1.26849E+02 1.73182E+00
 -1     10584 5.64767E+01-1.26849E+02 3.46364E+00
 -1     10585 5.64767E+01-1.26849E+02 5.19545E+00
 -1     10586 5.64767E+01-1.26849E+02 6.92727E+00
 -1     10587 5.64767E+01-1.26849E+02 8.65909E+00
 -1     10588 5.64767E+01-1.26849E+02 1.03909E+01
 -1     10589 5.64767E+01-1.26849E+02 1.21227E+01
 -1     10590 5.64767E+01-1.26849E+02 1.38545E+01
 -1     10591 5.64767E+01-1.26849E+02 1.55864E+01
 -1     10592 5.64767E+01-1.26849E+02 1.73182E+01
 -1     10593 4.97606E+01-1.29631E+02 1.73182E+00
 -1     10594 4.97606E+01-1.29631E+02 3.46364E+00
 -1     10595 4.97606E+01-1.29631E+02 5.19545E+00
 -1     10596 4.97606E+01-1.29631E+02 6.92727E+00
 -1     10597 4.97606E+01-1.29631E+02 8.65909E+00
 -1     10598 4.97606E+01-1.29631E+02 1.03909E+01
 -1     10599 4.97606E+01-1.29631E+02 1.21227E+01
 -1     10600 4.97606E+01-1.29631E+02 1.38545E+01
 -1     10601 4.97606E+01-1.29631E+02 1.55864E+01
 -1     10602 4.97606E+01-1.29631E+02 1.73182E+01
 -1     10603 4.29080E+01-1.32057E+02 1.73182E+00
 -1     10604 4.29080E+01-1.32057E+02 3.46364E+00
 -1     10605 4.29080E+01-1.32057E+02 5.19545E+00
 -1     10606 4.29080E+01-1.32057E+02 6.92727E+00
 -1     10607 4.29080E+01-1.32057E+02 8.65909E+00
 -1     10608 4.29080E+01-1.32057E+02 1.03909E+01
 -1     10609 4.29080E+01-1.32057E+02 1.21227E+01
 -1     10610 4.29080E+01-1.32057E+02 1.38545E+01
 -1     10611 4.29080E+01-1.32057E+02 1.55864E+01
 -1     10612 4.29080E+01-1.32057E+02 1.73182E+01
 -1     10613 3.59379E+01-1.34122E+02 1.73182E+00
 -1     10614 3.59379E+01-1.34122E+02 3.46364E+00
 -1     10615 3.59379E+01-1.34122E+02 5.19545E+00
 -1     10616 3.59379E+01-1.34122E+02 6.92727E+00
 -1     10617 3.59379E+01-1.34122E+02 8.65909E+00
 -1     10618 3.59379E+01-1.34122E+02 1.03909E+01
 -1     10619 3.59379E+01-1.34122E+02 1.21227E+01
 -1     10620 3.59379E+01-1.34122E+02 1.38545E+01
 -1     10621 3.59379E+01-1.34122E+02 1.55864E+01
 -1     10622 3.59379E+01-1.34122E+02 1.73182E+01
 -1     10623 2.88692E+01-1.35819E+02 1.73182E+00
 -1     10624 2.88692E+01-1.35819E+02 3.46364E+00
 -1     10625 2.88692E+01-1.35819E+02 5.19545E+00
 -1     10626 2.88692E+01-1.35819E+02 6.92727E+00
 -1     10627 2.88692E+01-1.35819E+02 8.65909E+00
 -1     10628 2.88692E+01-1.35819E+02 1.03909E+01
 -1     10629 2.88692E+01-1.35819E+02 1.21227E+01
 -1     10630 2.88692E+01-1.35819E+02 1.38545E+01
 -1     10631 2.88692E+01-1.35819E+02 1.55864E+01
 -1     10632 2.88692E+01-1.35819E+02 1.73182E+01
 -1     10633 2.17214E+01-1.37144E+02 1.73182E+00
 -1     10634 2.17214E+01-1.37144E+02 3.46364E+00
 -1     10635 2.17214E+01-1.37144E+02 5.19545E+00
 -1     10636 2.17214E+01-1.37144E+02 6.92727E+00
 -1     10637 2.17214E+01-1.37144E+02 8.65909E+00
 -1     10638 2.17214E+01-1.37144E+02 1.03909E+01
 -1     10639 2.17214E+01-1.37144E+02 1.21227E+01
 -1     10640 2.17214E+01-1.37144E+02 1.38545E+01
 -1     10641 2.17214E+01-1.37144E+02 1.55864E+01
 -1     10642 2.17214E+01-1.37144E+02 1.73182E+01
 -1     10643 1.45141E+01-1.38093E+02 1.73182E+00
 -1     10644 1.45141E+01-1.38093E+02 3.46364E+00
 -1     10645 1.45141E+01-1.38093E+02 5.19545E+00
 -1     10646 1.45141E+01-1.38093E+02 6.92727E+00
 -1     10647 1.45141E+01-1.38093E+02 8.65909E+00
 -1     10648 1.45141E+01-1.38093E+02 1.03909E+01
 -1     10649 1.45141E+01-1.38093E+02 1.21227E+01
 -1     10650 1.45141E+01-1.38093E+02 1.38545E+01
 -1     10651 1.45141E+01-1.38093E+02 1.55864E+01
 -1     10652 1.45141E+01-1.38093E+02 1.73182E+01
 -1     10653 7.26702E+00-1.38663E+02 1.73182E+00
 -1     10654 7.26702E+00-1.38663E+02 3.46364E+00
 -1     10655 7.26702E+00-1.38663E+02 5.19545E+00
 -1     10656 7.26702E+00-1.38663E+02 6.92727E+00
 -1     10657 7.26702E+00-1.38663E+02 8.65909E+00
 -1     10658 7.26702E+00-1.38663E+02 1.03909E+01
 -1     10659 7.26702E+00-1.38663E+02 1.21227E+01
 -1     10660 7.26702E+00-1.38663E+02 1.38545E+01
 -1     10661 7.26702E+00-1.38663E+02 1.55864E+01
 -1     10662 7.26702E+00-1.38663E+02 1.73182E+01
 -1     10663 1.42045E+02-7.44427E+00 1.73182E+00
 -1     10664 1.42045E+02-7.44427E+00 3.46364E+00
 -1     10665 1.42045E+02-7.44427E+00 5.19545E+00
 -1     10666 1.42045E+02-7.44427E+00 6.92727E+00
 -1     10667 1.42045E+02-7.44427E+00 8.65909E+00
 -1     10668 1.42045E+02-7.44427E+00 1.03909E+01
 -1     10669 1.42045E+02-7.44427E+00 1.21227E+01
 -1     10670 1.42045E+02-7.44427E+00 1.38545E+01
 -1     10671 1.42045E+02-7.44427E+00 1.55864E+01
 -1     10672 1.42045E+02-7.44427E+00 1.73182E+01
 -1     10673 1.41461E+02-1.48681E+01 1.73182E+00
 -1     10674 1.41461E+02-1.48681E+01 3.46364E+00
 -1     10675 1.41461E+02-1.48681E+01 5.19545E+00
 -1     10676 1.41461E+02-1.48681E+01 6.92727E+00
 -1     10677 1.41461E+02-1.48681E+01 8.65909E+00
 -1     10678 1.41461E+02-1.48681E+01 1.03909E+01
 -1     10679 1.41461E+02-1.48681E+01 1.21227E+01
 -1     10680 1.41461E+02-1.48681E+01 1.38545E+01
 -1     10681 1.41461E+02-1.48681E+01 1.55864E+01
 -1     10682 1.41461E+02-1.48681E+01 1.73182E+01
 -1     10683 1.40489E+02-2.22512E+01 1.73182E+00
 -1     10684 1.40489E+02-2.22512E+01 3.46364E+00
 -1     10685 1.40489E+02-2.22512E+01 5.19545E+00
 -1     10686 1.40489E+02-2.22512E+01 6.92727E+00
 -1     10687 1.40489E+02-2.22512E+01 8.65909E+00
 -1     10688 1.40489E+02-2.22512E+01 1.03909E+01
 -1     10689 1.40489E+02-2.22512E+01 1.21227E+01
 -1     10690 1.40489E+02-2.22512E+01 1.38545E+01
 -1     10691 1.40489E+02-2.22512E+01 1.55864E+01
 -1     10692 1.40489E+02-2.22512E+01 1.73182E+01
 -1     10693 1.39132E+02-2.95734E+01 1.73182E+00
 -1     10694 1.39132E+02-2.95734E+01 3.46364E+00
 -1     10695 1.39132E+02-2.95734E+01 5.19545E+00
 -1     10696 1.39132E+02-2.95734E+01 6.92727E+00
 -1     10697 1.39132E+02-2.95734E+01 8.65909E+00
 -1     10698 1.39132E+02-2.95734E+01 1.03909E+01
 -1     10699 1.39132E+02-2.95734E+01 1.21227E+01
 -1     10700 1.39132E+02-2.95734E+01 1.38545E+01
 -1     10701 1.39132E+02-2.95734E+01 1.55864E+01
 -1     10702 1.39132E+02-2.95734E+01 1.73182E+01
 -1     10703 1.37393E+02-3.68144E+01 1.73182E+00
 -1     10704 1.37393E+02-3.68144E+01 3.46364E+00
 -1     10705 1.37393E+02-3.68144E+01 5.19545E+00
 -1     10706 1.37393E+02-3.68144E+01 6.92727E+00
 -1     10707 1.37393E+02-3.68144E+01 8.65909E+00
 -1     10708 1.37393E+02-3.68144E+01 1.03909E+01
 -1     10709 1.37393E+02-3.68144E+01 1.21227E+01
 -1     10710 1.37393E+02-3.68144E+01 1.38545E+01
 -1     10711 1.37393E+02-3.68144E+01 1.55864E+01
 -1     10712 1.37393E+02-3.68144E+01 1.73182E+01
 -1     10713 1.35278E+02-4.39546E+01 1.73182E+00
 -1     10714 1.35278E+02-4.39546E+01 3.46364E+00
 -1     10715 1.35278E+02-4.39546E+01 5.19545E+00
 -1     10716 1.35278E+02-4.39546E+01 6.92727E+00
 -1     10717 1.35278E+02-4.39546E+01 8.65909E+00
 -1     10718 1.35278E+02-4.39546E+01 1.03909E+01
 -1     10719 1.35278E+02-4.39546E+01 1.21227E+01
 -1     10720 1.35278E+02-4.39546E+01 1.38545E+01
 -1     10721 1.35278E+02-4.39546E+01 1.55864E+01
 -1     10722 1.35278E+02-4.39546E+01 1.73182E+01
 -1     10723 1.32792E+02-5.09743E+01 1.73182E+00
 -1     10724 1.32792E+02-5.09743E+01 3.46364E+00
 -1     10725 1.32792E+02-5.09743E+01 5.19545E+00
 -1     10726 1.32792E+02-5.09743E+01 6.92727E+00
 -1     10727 1.32792E+02-5.09743E+01 8.65909E+00
 -1     10728 1.32792E+02-5.09743E+01 1.03909E+01
 -1     10729 1.32792E+02-5.09743E+01 1.21227E+01
 -1     10730 1.32792E+02-5.09743E+01 1.38545E+01
 -1     10731 1.32792E+02-5.09743E+01 1.55864E+01
 -1     10732 1.32792E+02-5.09743E+01 1.73182E+01
 -1     10733 1.29943E+02-5.78542E+01 1.73182E+00
 -1     10734 1.29943E+02-5.78542E+01 3.46364E+00
 -1     10735 1.29943E+02-5.78542E+01 5.19545E+00
 -1     10736 1.29943E+02-5.78542E+01 6.92727E+00
 -1     10737 1.29943E+02-5.78542E+01 8.65909E+00
 -1     10738 1.29943E+02-5.78542E+01 1.03909E+01
 -1     10739 1.29943E+02-5.78542E+01 1.21227E+01
 -1     10740 1.29943E+02-5.78542E+01 1.38545E+01
 -1     10741 1.29943E+02-5.78542E+01 1.55864E+01
 -1     10742 1.29943E+02-5.78542E+01 1.73182E+01
 -1     10743 1.26737E+02-6.45756E+01 1.73182E+00
 -1     10744 1.26737E+02-6.45756E+01 3.46364E+00
 -1     10745 1.26737E+02-6.45756E+01 5.19545E+00
 -1     10746 1.26737E+02-6.45756E+01 6.92727E+00
 -1     10747 1.26737E+02-6.45756E+01 8.65909E+00
 -1     10748 1.26737E+02-6.45756E+01 1.03909E+01
 -1     10749 1.26737E+02-6.45756E+01 1.21227E+01
 -1     10750 1.26737E+02-6.45756E+01 1.38545E+01
 -1     10751 1.26737E+02-6.45756E+01 1.55864E+01
 -1     10752 1.26737E+02-6.45756E+01 1.73182E+01
 -1     10753 1.23183E+02-7.11200E+01 1.73182E+00
 -1     10754 1.23183E+02-7.11200E+01 3.46364E+00
 -1     10755 1.23183E+02-7.11200E+01 5.19545E+00
 -1     10756 1.23183E+02-7.11200E+01 6.92727E+00
 -1     10757 1.23183E+02-7.11200E+01 8.65909E+00
 -1     10758 1.23183E+02-7.11200E+01 1.03909E+01
 -1     10759 1.23183E+02-7.11200E+01 1.21227E+01
 -1     10760 1.23183E+02-7.11200E+01 1.38545E+01
 -1     10761 1.23183E+02-7.11200E+01 1.55864E+01
 -1     10762 1.23183E+02-7.11200E+01 1.73182E+01
 -1     10763 1.19293E+02-7.74695E+01 1.73182E+00
 -1     10764 1.19293E+02-7.74695E+01 3.46364E+00
 -1     10765 1.19293E+02-7.74695E+01 5.19545E+00
 -1     10766 1.19293E+02-7.74695E+01 6.92727E+00
 -1     10767 1.19293E+02-7.74695E+01 8.65909E+00
 -1     10768 1.19293E+02-7.74695E+01 1.03909E+01
 -1     10769 1.19293E+02-7.74695E+01 1.21227E+01
 -1     10770 1.19293E+02-7.74695E+01 1.38545E+01
 -1     10771 1.19293E+02-7.74695E+01 1.55864E+01
 -1     10772 1.19293E+02-7.74695E+01 1.73182E+01
 -1     10773 1.15075E+02-8.36066E+01 1.73182E+00
 -1     10774 1.15075E+02-8.36066E+01 3.46364E+00
 -1     10775 1.15075E+02-8.36066E+01 5.19545E+00
 -1     10776 1.15075E+02-8.36066E+01 6.92727E+00
 -1     10777 1.15075E+02-8.36066E+01 8.65909E+00
 -1     10778 1.15075E+02-8.36066E+01 1.03909E+01
 -1     10779 1.15075E+02-8.36066E+01 1.21227E+01
 -1     10780 1.15075E+02-8.36066E+01 1.38545E+01
 -1     10781 1.15075E+02-8.36066E+01 1.55864E+01
 -1     10782 1.15075E+02-8.36066E+01 1.73182E+01
 -1     10783 1.10541E+02-8.95145E+01 1.73182E+00
 -1     10784 1.10541E+02-8.95145E+01 3.46364E+00
 -1     10785 1.10541E+02-8.95145E+01 5.19545E+00
 -1     10786 1.10541E+02-8.95145E+01 6.92727E+00
 -1     10787 1.10541E+02-8.95145E+01 8.65909E+00
 -1     10788 1.10541E+02-8.95145E+01 1.03909E+01
 -1     10789 1.10541E+02-8.95145E+01 1.21227E+01
 -1     10790 1.10541E+02-8.95145E+01 1.38545E+01
 -1     10791 1.10541E+02-8.95145E+01 1.55864E+01
 -1     10792 1.10541E+02-8.95145E+01 1.73182E+01
 -1     10793 1.05705E+02-9.51771E+01 1.73182E+00
 -1     10794 1.05705E+02-9.51771E+01 3.46364E+00
 -1     10795 1.05705E+02-9.51771E+01 5.19545E+00
 -1     10796 1.05705E+02-9.51771E+01 6.92727E+00
 -1     10797 1.05705E+02-9.51771E+01 8.65909E+00
 -1     10798 1.05705E+02-9.51771E+01 1.03909E+01
 -1     10799 1.05705E+02-9.51771E+01 1.21227E+01
 -1     10800 1.05705E+02-9.51771E+01 1.38545E+01
 -1     10801 1.05705E+02-9.51771E+01 1.55864E+01
 -1     10802 1.05705E+02-9.51771E+01 1.73182E+01
 -1     10803 1.00579E+02-1.00579E+02 1.73182E+00
 -1     10804 1.00579E+02-1.00579E+02 3.46364E+00
 -1     10805 1.00579E+02-1.00579E+02 5.19545E+00
 -1     10806 1.00579E+02-1.00579E+02 6.92727E+00
 -1     10807 1.00579E+02-1.00579E+02 8.65909E+00
 -1     10808 1.00579E+02-1.00579E+02 1.03909E+01
 -1     10809 1.00579E+02-1.00579E+02 1.21227E+01
 -1     10810 1.00579E+02-1.00579E+02 1.38545E+01
 -1     10811 1.00579E+02-1.00579E+02 1.55864E+01
 -1     10812 1.00579E+02-1.00579E+02 1.73182E+01
 -1     10813 9.51771E+01-1.05705E+02 1.73182E+00
 -1     10814 9.51771E+01-1.05705E+02 3.46364E+00
 -1     10815 9.51771E+01-1.05705E+02 5.19545E+00
 -1     10816 9.51771E+01-1.05705E+02 6.92727E+00
 -1     10817 9.51771E+01-1.05705E+02 8.65909E+00
 -1     10818 9.51771E+01-1.05705E+02 1.03909E+01
 -1     10819 9.51771E+01-1.05705E+02 1.21227E+01
 -1     10820 9.51771E+01-1.05705E+02 1.38545E+01
 -1     10821 9.51771E+01-1.05705E+02 1.55864E+01
 -1     10822 9.51771E+01-1.05705E+02 1.73182E+01
 -1     10823 8.95145E+01-1.10541E+02 1.73182E+00
 -1     10824 8.95145E+01-1.10541E+02 3.46364E+00
 -1     10825 8.95145E+01-1.10541E+02 5.19545E+00
 -1     10826 8.95145E+01-1.10541E+02 6.92727E+00
 -1     10827 8.95145E+01-1.10541E+02 8.65909E+00
 -1     10828 8.95145E+01-1.10541E+02 1.03909E+01
 -1     10829 8.95145E+01-1.10541E+02 1.21227E+01
 -1     10830 8.95145E+01-1.10541E+02 1.38545E+01
 -1     10831 8.95145E+01-1.10541E+02 1.55864E+01
 -1     10832 8.95145E+01-1.10541E+02 1.73182E+01
 -1     10833 8.36066E+01-1.15075E+02 1.73182E+00
 -1     10834 8.36066E+01-1.15075E+02 3.46364E+00
 -1     10835 8.36066E+01-1.15075E+02 5.19545E+00
 -1     10836 8.36066E+01-1.15075E+02 6.92727E+00
 -1     10837 8.36066E+01-1.15075E+02 8.65909E+00
 -1     10838 8.36066E+01-1.15075E+02 1.03909E+01
 -1     10839 8.36066E+01-1.15075E+02 1.21227E+01
 -1     10840 8.36066E+01-1.15075E+02 1.38545E+01
 -1     10841 8.36066E+01-1.15075E+02 1.55864E+01
 -1     10842 8.36066E+01-1.15075E+02 1.73182E+01
 -1     10843 7.74695E+01-1.19293E+02 1.73182E+00
 -1     10844 7.74695E+01-1.19293E+02 3.46364E+00
 -1     10845 7.74695E+01-1.19293E+02 5.19545E+00
 -1     10846 7.74695E+01-1.19293E+02 6.92727E+00
 -1     10847 7.74695E+01-1.19293E+02 8.65909E+00
 -1     10848 7.74695E+01-1.19293E+02 1.03909E+01
 -1     10849 7.74695E+01-1.19293E+02 1.21227E+01
 -1     10850 7.74695E+01-1.19293E+02 1.38545E+01
 -1     10851 7.74695E+01-1.19293E+02 1.55864E+01
 -1     10852 7.74695E+01-1.19293E+02 1.73182E+01
 -1     10853 7.11200E+01-1.23183E+02 1.73182E+00
 -1     10854 7.11200E+01-1.23183E+02 3.46364E+00
 -1     10855 7.11200E+01-1.23183E+02 5.19545E+00
 -1     10856 7.11200E+01-1.23183E+02 6.92727E+00
 -1     10857 7.11200E+01-1.23183E+02 8.65909E+00
 -1     10858 7.11200E+01-1.23183E+02 1.03909E+01
 -1     10859 7.11200E+01-1.23183E+02 1.21227E+01
 -1     10860 7.11200E+01-1.23183E+02 1.38545E+01
 -1     10861 7.11200E+01-1.23183E+02 1.55864E+01
 -1     10862 7.11200E+01-1.23183E+02 1.73182E+01
 -1     10863 6.45756E+01-1.26737E+02 1.73182E+00
 -1     10864 6.45756E+01-1.26737E+02 3.46364E+00
 -1     10865 6.45756E+01-1.26737E+02 5.19545E+00
 -1     10866 6.45756E+01-1.26737E+02 6.92727E+00
 -1     10867 6.45756E+01-1.26737E+02 8.65909E+00
 -1     10868 6.45756E+01-1.26737E+02 1.03909E+01
 -1     10869 6.45756E+01-1.26737E+02 1.21227E+01
 -1     10870 6.45756E+01-1.26737E+02 1.38545E+01
 -1     10871 6.45756E+01-1.26737E+02 1.55864E+01
 -1     10872 6.45756E+01-1.26737E+02 1.73182E+01
 -1     10873 5.78542E+01-1.29943E+02 1.73182E+00
 -1     10874 5.78542E+01-1.29943E+02 3.46364E+00
 -1     10875 5.78542E+01-1.29943E+02 5.19545E+00
 -1     10876 5.78542E+01-1.29943E+02 6.92727E+00
 -1     10877 5.78542E+01-1.29943E+02 8.65909E+00
 -1     10878 5.78542E+01-1.29943E+02 1.03909E+01
 -1     10879 5.78542E+01-1.29943E+02 1.21227E+01
 -1     10880 5.78542E+01-1.29943E+02 1.38545E+01
 -1     10881 5.78542E+01-1.29943E+02 1.55864E+01
 -1     10882 5.78542E+01-1.29943E+02 1.73182E+01
 -1     10883 5.09743E+01-1.32792E+02 1.73182E+00
 -1     10884 5.09743E+01-1.32792E+02 3.46364E+00
 -1     10885 5.09743E+01-1.32792E+02 5.19545E+00
 -1     10886 5.09743E+01-1.32792E+02 6.92727E+00
 -1     10887 5.09743E+01-1.32792E+02 8.65909E+00
 -1     10888 5.09743E+01-1.32792E+02 1.03909E+01
 -1     10889 5.09743E+01-1.32792E+02 1.21227E+01
 -1     10890 5.09743E+01-1.32792E+02 1.38545E+01
 -1     10891 5.09743E+01-1.32792E+02 1.55864E+01
 -1     10892 5.09743E+01-1.32792E+02 1.73182E+01
 -1     10893 4.39546E+01-1.35278E+02 1.73182E+00
 -1     10894 4.39546E+01-1.35278E+02 3.46364E+00
 -1     10895 4.39546E+01-1.35278E+02 5.19545E+00
 -1     10896 4.39546E+01-1.35278E+02 6.92727E+00
 -1     10897 4.39546E+01-1.35278E+02 8.65909E+00
 -1     10898 4.39546E+01-1.35278E+02 1.03909E+01
 -1     10899 4.39546E+01-1.35278E+02 1.21227E+01
 -1     10900 4.39546E+01-1.35278E+02 1.38545E+01
 -1     10901 4.39546E+01-1.35278E+02 1.55864E+01
 -1     10902 4.39546E+01-1.35278E+02 1.73182E+01
 -1     10903 3.68144E+01-1.37393E+02 1.73182E+00
 -1     10904 3.68144E+01-1.37393E+02 3.46364E+00
 -1     10905 3.68144E+01-1.37393E+02 5.19545E+00
 -1     10906 3.68144E+01-1.37393E+02 6.92727E+00
 -1     10907 3.68144E+01-1.37393E+02 8.65909E+00
 -1     10908 3.68144E+01-1.37393E+02 1.03909E+01
 -1     10909 3.68144E+01-1.37393E+02 1.21227E+01
 -1     10910 3.68144E+01-1.37393E+02 1.38545E+01
 -1     10911 3.68144E+01-1.37393E+02 1.55864E+01
 -1     10912 3.68144E+01-1.37393E+02 1.73182E+01
 -1     10913 2.95734E+01-1.39132E+02 1.73182E+00
 -1     10914 2.95734E+01-1.39132E+02 3.46364E+00
 -1     10915 2.95734E+01-1.39132E+02 5.19545E+00
 -1     10916 2.95734E+01-1.39132E+02 6.92727E+00
 -1     10917 2.95734E+01-1.39132E+02 8.65909E+00
 -1     10918 2.95734E+01-1.39132E+02 1.03909E+01
 -1     10919 2.95734E+01-1.39132E+02 1.21227E+01
 -1     10920 2.95734E+01-1.39132E+02 1.38545E+01
 -1     10921 2.95734E+01-1.39132E+02 1.55864E+01
 -1     10922 2.95734E+01-1.39132E+02 1.73182E+01
 -1     10923 2.22512E+01-1.40489E+02 1.73182E+00
 -1     10924 2.22512E+01-1.40489E+02 3.46364E+00
 -1     10925 2.22512E+01-1.40489E+02 5.19545E+00
 -1     10926 2.22512E+01-1.40489E+02 6.92727E+00
 -1     10927 2.22512E+01-1.40489E+02 8.65909E+00
 -1     10928 2.22512E+01-1.40489E+02 1.03909E+01
 -1     10929 2.22512E+01-1.40489E+02 1.21227E+01
 -1     10930 2.22512E+01-1.40489E+02 1.38545E+01
 -1     10931 2.22512E+01-1.40489E+02 1.55864E+01
 -1     10932 2.22512E+01-1.40489E+02 1.73182E+01
 -1     10933 1.48681E+01-1.41461E+02 1.73182E+00
 -1     10934 1.48681E+01-1.41461E+02 3.46364E+00
 -1     10935 1.48681E+01-1.41461E+02 5.19545E+00
 -1     10936 1.48681E+01-1.41461E+02 6.92727E+00
 -1     10937 1.48681E+01-1.41461E+02 8.65909E+00
 -1     10938 1.48681E+01-1.41461E+02 1.03909E+01
 -1     10939 1.48681E+01-1.41461E+02 1.21227E+01
 -1     10940 1.48681E+01-1.41461E+02 1.38545E+01
 -1     10941 1.48681E+01-1.41461E+02 1.55864E+01
 -1     10942 1.48681E+01-1.41461E+02 1.73182E+01
 -1     10943 7.44427E+00-1.42045E+02 1.73182E+00
 -1     10944 7.44427E+00-1.42045E+02 3.46364E+00
 -1     10945 7.44427E+00-1.42045E+02 5.19545E+00
 -1     10946 7.44427E+00-1.42045E+02 6.92727E+00
 -1     10947 7.44427E+00-1.42045E+02 8.65909E+00
 -1     10948 7.44427E+00-1.42045E+02 1.03909E+01
 -1     10949 7.44427E+00-1.42045E+02 1.21227E+01
 -1     10950 7.44427E+00-1.42045E+02 1.38545E+01
 -1     10951 7.44427E+00-1.42045E+02 1.55864E+01
 -1     10952 7.44427E+00-1.42045E+02 1.73182E+01
 -1     10953 1.45427E+02-7.62151E+00 1.73182E+00
 -1     10954 1.45427E+02-7.62151E+00 3.46364E+00
 -1     10955 1.45427E+02-7.62151E+00 5.19545E+00
 -1     10956 1.45427E+02-7.62151E+00 6.92727E+00
 -1     10957 1.45427E+02-7.62151E+00 8.65909E+00
 -1     10958 1.45427E+02-7.62151E+00 1.03909E+01
 -1     10959 1.45427E+02-7.62151E+00 1.21227E+01
 -1     10960 1.45427E+02-7.62151E+00 1.38545E+01
 -1     10961 1.45427E+02-7.62151E+00 1.55864E+01
 -1     10962 1.45427E+02-7.62151E+00 1.73182E+01
 -1     10963 1.44829E+02-1.52221E+01 1.73182E+00
 -1     10964 1.44829E+02-1.52221E+01 3.46364E+00
 -1     10965 1.44829E+02-1.52221E+01 5.19545E+00
 -1     10966 1.44829E+02-1.52221E+01 6.92727E+00
 -1     10967 1.44829E+02-1.52221E+01 8.65909E+00
 -1     10968 1.44829E+02-1.52221E+01 1.03909E+01
 -1     10969 1.44829E+02-1.52221E+01 1.21227E+01
 -1     10970 1.44829E+02-1.52221E+01 1.38545E+01
 -1     10971 1.44829E+02-1.52221E+01 1.55864E+01
 -1     10972 1.44829E+02-1.52221E+01 1.73182E+01
 -1     10973 1.43834E+02-2.27810E+01 1.73182E+00
 -1     10974 1.43834E+02-2.27810E+01 3.46364E+00
 -1     10975 1.43834E+02-2.27810E+01 5.19545E+00
 -1     10976 1.43834E+02-2.27810E+01 6.92727E+00
 -1     10977 1.43834E+02-2.27810E+01 8.65909E+00
 -1     10978 1.43834E+02-2.27810E+01 1.03909E+01
 -1     10979 1.43834E+02-2.27810E+01 1.21227E+01
 -1     10980 1.43834E+02-2.27810E+01 1.38545E+01
 -1     10981 1.43834E+02-2.27810E+01 1.55864E+01
 -1     10982 1.43834E+02-2.27810E+01 1.73182E+01
 -1     10983 1.42444E+02-3.02775E+01 1.73182E+00
 -1     10984 1.42444E+02-3.02775E+01 3.46364E+00
 -1     10985 1.42444E+02-3.02775E+01 5.19545E+00
 -1     10986 1.42444E+02-3.02775E+01 6.92727E+00
 -1     10987 1.42444E+02-3.02775E+01 8.65909E+00
 -1     10988 1.42444E+02-3.02775E+01 1.03909E+01
 -1     10989 1.42444E+02-3.02775E+01 1.21227E+01
 -1     10990 1.42444E+02-3.02775E+01 1.38545E+01
 -1     10991 1.42444E+02-3.02775E+01 1.55864E+01
 -1     10992 1.42444E+02-3.02775E+01 1.73182E+01
 -1     10993 1.40665E+02-3.76910E+01 1.73182E+00
 -1     10994 1.40665E+02-3.76910E+01 3.46364E+00
 -1     10995 1.40665E+02-3.76910E+01 5.19545E+00
 -1     10996 1.40665E+02-3.76910E+01 6.92727E+00
 -1     10997 1.40665E+02-3.76910E+01 8.65909E+00
 -1     10998 1.40665E+02-3.76910E+01 1.03909E+01
 -1     10999 1.40665E+02-3.76910E+01 1.21227E+01
 -1     11000 1.40665E+02-3.76910E+01 1.38545E+01
 -1     11001 1.40665E+02-3.76910E+01 1.55864E+01
 -1     11002 1.40665E+02-3.76910E+01 1.73182E+01
 -1     11003 1.38499E+02-4.50011E+01 1.73182E+00
 -1     11004 1.38499E+02-4.50011E+01 3.46364E+00
 -1     11005 1.38499E+02-4.50011E+01 5.19545E+00
 -1     11006 1.38499E+02-4.50011E+01 6.92727E+00
 -1     11007 1.38499E+02-4.50011E+01 8.65909E+00
 -1     11008 1.38499E+02-4.50011E+01 1.03909E+01
 -1     11009 1.38499E+02-4.50011E+01 1.21227E+01
 -1     11010 1.38499E+02-4.50011E+01 1.38545E+01
 -1     11011 1.38499E+02-4.50011E+01 1.55864E+01
 -1     11012 1.38499E+02-4.50011E+01 1.73182E+01
 -1     11013 1.35954E+02-5.21879E+01 1.73182E+00
 -1     11014 1.35954E+02-5.21879E+01 3.46364E+00
 -1     11015 1.35954E+02-5.21879E+01 5.19545E+00
 -1     11016 1.35954E+02-5.21879E+01 6.92727E+00
 -1     11017 1.35954E+02-5.21879E+01 8.65909E+00
 -1     11018 1.35954E+02-5.21879E+01 1.03909E+01
 -1     11019 1.35954E+02-5.21879E+01 1.21227E+01
 -1     11020 1.35954E+02-5.21879E+01 1.38545E+01
 -1     11021 1.35954E+02-5.21879E+01 1.55864E+01
 -1     11022 1.35954E+02-5.21879E+01 1.73182E+01
 -1     11023 1.33037E+02-5.92317E+01 1.73182E+00
 -1     11024 1.33037E+02-5.92317E+01 3.46364E+00
 -1     11025 1.33037E+02-5.92317E+01 5.19545E+00
 -1     11026 1.33037E+02-5.92317E+01 6.92727E+00
 -1     11027 1.33037E+02-5.92317E+01 8.65909E+00
 -1     11028 1.33037E+02-5.92317E+01 1.03909E+01
 -1     11029 1.33037E+02-5.92317E+01 1.21227E+01
 -1     11030 1.33037E+02-5.92317E+01 1.38545E+01
 -1     11031 1.33037E+02-5.92317E+01 1.55864E+01
 -1     11032 1.33037E+02-5.92317E+01 1.73182E+01
 -1     11033 1.29754E+02-6.61131E+01 1.73182E+00
 -1     11034 1.29754E+02-6.61131E+01 3.46364E+00
 -1     11035 1.29754E+02-6.61131E+01 5.19545E+00
 -1     11036 1.29754E+02-6.61131E+01 6.92727E+00
 -1     11037 1.29754E+02-6.61131E+01 8.65909E+00
 -1     11038 1.29754E+02-6.61131E+01 1.03909E+01
 -1     11039 1.29754E+02-6.61131E+01 1.21227E+01
 -1     11040 1.29754E+02-6.61131E+01 1.38545E+01
 -1     11041 1.29754E+02-6.61131E+01 1.55864E+01
 -1     11042 1.29754E+02-6.61131E+01 1.73182E+01
 -1     11043 1.26116E+02-7.28133E+01 1.73182E+00
 -1     11044 1.26116E+02-7.28133E+01 3.46364E+00
 -1     11045 1.26116E+02-7.28133E+01 5.19545E+00
 -1     11046 1.26116E+02-7.28133E+01 6.92727E+00
 -1     11047 1.26116E+02-7.28133E+01 8.65909E+00
 -1     11048 1.26116E+02-7.28133E+01 1.03909E+01
 -1     11049 1.26116E+02-7.28133E+01 1.21227E+01
 -1     11050 1.26116E+02-7.28133E+01 1.38545E+01
 -1     11051 1.26116E+02-7.28133E+01 1.55864E+01
 -1     11052 1.26116E+02-7.28133E+01 1.73182E+01
 -1     11053 1.22133E+02-7.93140E+01 1.73182E+00
 -1     11054 1.22133E+02-7.93140E+01 3.46364E+00
 -1     11055 1.22133E+02-7.93140E+01 5.19545E+00
 -1     11056 1.22133E+02-7.93140E+01 6.92727E+00
 -1     11057 1.22133E+02-7.93140E+01 8.65909E+00
 -1     11058 1.22133E+02-7.93140E+01 1.03909E+01
 -1     11059 1.22133E+02-7.93140E+01 1.21227E+01
 -1     11060 1.22133E+02-7.93140E+01 1.38545E+01
 -1     11061 1.22133E+02-7.93140E+01 1.55864E+01
 -1     11062 1.22133E+02-7.93140E+01 1.73182E+01
 -1     11063 1.17814E+02-8.55972E+01 1.73182E+00
 -1     11064 1.17814E+02-8.55972E+01 3.46364E+00
 -1     11065 1.17814E+02-8.55972E+01 5.19545E+00
 -1     11066 1.17814E+02-8.55972E+01 6.92727E+00
 -1     11067 1.17814E+02-8.55972E+01 8.65909E+00
 -1     11068 1.17814E+02-8.55972E+01 1.03909E+01
 -1     11069 1.17814E+02-8.55972E+01 1.21227E+01
 -1     11070 1.17814E+02-8.55972E+01 1.38545E+01
 -1     11071 1.17814E+02-8.55972E+01 1.55864E+01
 -1     11072 1.17814E+02-8.55972E+01 1.73182E+01
 -1     11073 1.13173E+02-9.16458E+01 1.73182E+00
 -1     11074 1.13173E+02-9.16458E+01 3.46364E+00
 -1     11075 1.13173E+02-9.16458E+01 5.19545E+00
 -1     11076 1.13173E+02-9.16458E+01 6.92727E+00
 -1     11077 1.13173E+02-9.16458E+01 8.65909E+00
 -1     11078 1.13173E+02-9.16458E+01 1.03909E+01
 -1     11079 1.13173E+02-9.16458E+01 1.21227E+01
 -1     11080 1.13173E+02-9.16458E+01 1.38545E+01
 -1     11081 1.13173E+02-9.16458E+01 1.55864E+01
 -1     11082 1.13173E+02-9.16458E+01 1.73182E+01
 -1     11083 1.08222E+02-9.74433E+01 1.73182E+00
 -1     11084 1.08222E+02-9.74433E+01 3.46364E+00
 -1     11085 1.08222E+02-9.74433E+01 5.19545E+00
 -1     11086 1.08222E+02-9.74433E+01 6.92727E+00
 -1     11087 1.08222E+02-9.74433E+01 8.65909E+00
 -1     11088 1.08222E+02-9.74433E+01 1.03909E+01
 -1     11089 1.08222E+02-9.74433E+01 1.21227E+01
 -1     11090 1.08222E+02-9.74433E+01 1.38545E+01
 -1     11091 1.08222E+02-9.74433E+01 1.55864E+01
 -1     11092 1.08222E+02-9.74433E+01 1.73182E+01
 -1     11093 1.02974E+02-1.02974E+02 1.73182E+00
 -1     11094 1.02974E+02-1.02974E+02 3.46364E+00
 -1     11095 1.02974E+02-1.02974E+02 5.19545E+00
 -1     11096 1.02974E+02-1.02974E+02 6.92727E+00
 -1     11097 1.02974E+02-1.02974E+02 8.65909E+00
 -1     11098 1.02974E+02-1.02974E+02 1.03909E+01
 -1     11099 1.02974E+02-1.02974E+02 1.21227E+01
 -1     11100 1.02974E+02-1.02974E+02 1.38545E+01
 -1     11101 1.02974E+02-1.02974E+02 1.55864E+01
 -1     11102 1.02974E+02-1.02974E+02 1.73182E+01
 -1     11103 9.74433E+01-1.08222E+02 1.73182E+00
 -1     11104 9.74433E+01-1.08222E+02 3.46364E+00
 -1     11105 9.74433E+01-1.08222E+02 5.19545E+00
 -1     11106 9.74433E+01-1.08222E+02 6.92727E+00
 -1     11107 9.74433E+01-1.08222E+02 8.65909E+00
 -1     11108 9.74433E+01-1.08222E+02 1.03909E+01
 -1     11109 9.74433E+01-1.08222E+02 1.21227E+01
 -1     11110 9.74433E+01-1.08222E+02 1.38545E+01
 -1     11111 9.74433E+01-1.08222E+02 1.55864E+01
 -1     11112 9.74433E+01-1.08222E+02 1.73182E+01
 -1     11113 9.16458E+01-1.13173E+02 1.73182E+00
 -1     11114 9.16458E+01-1.13173E+02 3.46364E+00
 -1     11115 9.16458E+01-1.13173E+02 5.19545E+00
 -1     11116 9.16458E+01-1.13173E+02 6.92727E+00
 -1     11117 9.16458E+01-1.13173E+02 8.65909E+00
 -1     11118 9.16458E+01-1.13173E+02 1.03909E+01
 -1     11119 9.16458E+01-1.13173E+02 1.21227E+01
 -1     11120 9.16458E+01-1.13173E+02 1.38545E+01
 -1     11121 9.16458E+01-1.13173E+02 1.55864E+01
 -1     11122 9.16458E+01-1.13173E+02 1.73182E+01
 -1     11123 8.55972E+01-1.17814E+02 1.73182E+00
 -1     11124 8.55972E+01-1.17814E+02 3.46364E+00
 -1     11125 8.55972E+01-1.17814E+02 5.19545E+00
 -1     11126 8.55972E+01-1.17814E+02 6.92727E+00
 -1     11127 8.55972E+01-1.17814E+02 8.65909E+00
 -1     11128 8.55972E+01-1.17814E+02 1.03909E+01
 -1     11129 8.55972E+01-1.17814E+02 1.21227E+01
 -1     11130 8.55972E+01-1.17814E+02 1.38545E+01
 -1     11131 8.55972E+01-1.17814E+02 1.55864E+01
 -1     11132 8.55972E+01-1.17814E+02 1.73182E+01
 -1     11133 7.93140E+01-1.22133E+02 1.73182E+00
 -1     11134 7.93140E+01-1.22133E+02 3.46364E+00
 -1     11135 7.93140E+01-1.22133E+02 5.19545E+00
 -1     11136 7.93140E+01-1.22133E+02 6.92727E+00
 -1     11137 7.93140E+01-1.22133E+02 8.65909E+00
 -1     11138 7.93140E+01-1.22133E+02 1.03909E+01
 -1     11139 7.93140E+01-1.22133E+02 1.21227E+01
 -1     11140 7.93140E+01-1.22133E+02 1.38545E+01
 -1     11141 7.93140E+01-1.22133E+02 1.55864E+01
 -1     11142 7.93140E+01-1.22133E+02 1.73182E+01
 -1     11143 7.28133E+01-1.26116E+02 1.73182E+00
 -1     11144 7.28133E+01-1.26116E+02 3.46364E+00
 -1     11145 7.28133E+01-1.26116E+02 5.19545E+00
 -1     11146 7.28133E+01-1.26116E+02 6.92727E+00
 -1     11147 7.28133E+01-1.26116E+02 8.65909E+00
 -1     11148 7.28133E+01-1.26116E+02 1.03909E+01
 -1     11149 7.28133E+01-1.26116E+02 1.21227E+01
 -1     11150 7.28133E+01-1.26116E+02 1.38545E+01
 -1     11151 7.28133E+01-1.26116E+02 1.55864E+01
 -1     11152 7.28133E+01-1.26116E+02 1.73182E+01
 -1     11153 6.61131E+01-1.29754E+02 1.73182E+00
 -1     11154 6.61131E+01-1.29754E+02 3.46364E+00
 -1     11155 6.61131E+01-1.29754E+02 5.19545E+00
 -1     11156 6.61131E+01-1.29754E+02 6.92727E+00
 -1     11157 6.61131E+01-1.29754E+02 8.65909E+00
 -1     11158 6.61131E+01-1.29754E+02 1.03909E+01
 -1     11159 6.61131E+01-1.29754E+02 1.21227E+01
 -1     11160 6.61131E+01-1.29754E+02 1.38545E+01
 -1     11161 6.61131E+01-1.29754E+02 1.55864E+01
 -1     11162 6.61131E+01-1.29754E+02 1.73182E+01
 -1     11163 5.92317E+01-1.33037E+02 1.73182E+00
 -1     11164 5.92317E+01-1.33037E+02 3.46364E+00
 -1     11165 5.92317E+01-1.33037E+02 5.19545E+00
 -1     11166 5.92317E+01-1.33037E+02 6.92727E+00
 -1     11167 5.92317E+01-1.33037E+02 8.65909E+00
 -1     11168 5.92317E+01-1.33037E+02 1.03909E+01
 -1     11169 5.92317E+01-1.33037E+02 1.21227E+01
 -1     11170 5.92317E+01-1.33037E+02 1.38545E+01
 -1     11171 5.92317E+01-1.33037E+02 1.55864E+01
 -1     11172 5.92317E+01-1.33037E+02 1.73182E+01
 -1     11173 5.21879E+01-1.35954E+02 1.73182E+00
 -1     11174 5.21879E+01-1.35954E+02 3.46364E+00
 -1     11175 5.21879E+01-1.35954E+02 5.19545E+00
 -1     11176 5.21879E+01-1.35954E+02 6.92727E+00
 -1     11177 5.21879E+01-1.35954E+02 8.65909E+00
 -1     11178 5.21879E+01-1.35954E+02 1.03909E+01
 -1     11179 5.21879E+01-1.35954E+02 1.21227E+01
 -1     11180 5.21879E+01-1.35954E+02 1.38545E+01
 -1     11181 5.21879E+01-1.35954E+02 1.55864E+01
 -1     11182 5.21879E+01-1.35954E+02 1.73182E+01
 -1     11183 4.50011E+01-1.38499E+02 1.73182E+00
 -1     11184 4.50011E+01-1.38499E+02 3.46364E+00
 -1     11185 4.50011E+01-1.38499E+02 5.19545E+00
 -1     11186 4.50011E+01-1.38499E+02 6.92727E+00
 -1     11187 4.50011E+01-1.38499E+02 8.65909E+00
 -1     11188 4.50011E+01-1.38499E+02 1.03909E+01
 -1     11189 4.50011E+01-1.38499E+02 1.21227E+01
 -1     11190 4.50011E+01-1.38499E+02 1.38545E+01
 -1     11191 4.50011E+01-1.38499E+02 1.55864E+01
 -1     11192 4.50011E+01-1.38499E+02 1.73182E+01
 -1     11193 3.76910E+01-1.40665E+02 1.73182E+00
 -1     11194 3.76910E+01-1.40665E+02 3.46364E+00
 -1     11195 3.76910E+01-1.40665E+02 5.19545E+00
 -1     11196 3.76910E+01-1.40665E+02 6.92727E+00
 -1     11197 3.76910E+01-1.40665E+02 8.65909E+00
 -1     11198 3.76910E+01-1.40665E+02 1.03909E+01
 -1     11199 3.76910E+01-1.40665E+02 1.21227E+01
 -1     11200 3.76910E+01-1.40665E+02 1.38545E+01
 -1     11201 3.76910E+01-1.40665E+02 1.55864E+01
 -1     11202 3.76910E+01-1.40665E+02 1.73182E+01
 -1     11203 3.02775E+01-1.42444E+02 1.73182E+00
 -1     11204 3.02775E+01-1.42444E+02 3.46364E+00
 -1     11205 3.02775E+01-1.42444E+02 5.19545E+00
 -1     11206 3.02775E+01-1.42444E+02 6.92727E+00
 -1     11207 3.02775E+01-1.42444E+02 8.65909E+00
 -1     11208 3.02775E+01-1.42444E+02 1.03909E+01
 -1     11209 3.02775E+01-1.42444E+02 1.21227E+01
 -1     11210 3.02775E+01-1.42444E+02 1.38545E+01
 -1     11211 3.02775E+01-1.42444E+02 1.55864E+01
 -1     11212 3.02775E+01-1.42444E+02 1.73182E+01
 -1     11213 2.27810E+01-1.43834E+02 1.73182E+00
 -1     11214 2.27810E+01-1.43834E+02 3.46364E+00
 -1     11215 2.27810E+01-1.43834E+02 5.19545E+00
 -1     11216 2.27810E+01-1.43834E+02 6.92727E+00
 -1     11217 2.27810E+01-1.43834E+02 8.65909E+00
 -1     11218 2.27810E+01-1.43834E+02 1.03909E+01
 -1     11219 2.27810E+01-1.43834E+02 1.21227E+01
 -1     11220 2.27810E+01-1.43834E+02 1.38545E+01
 -1     11221 2.27810E+01-1.43834E+02 1.55864E+01
 -1     11222 2.27810E+01-1.43834E+02 1.73182E+01
 -1     11223 1.52221E+01-1.44829E+02 1.73182E+00
 -1     11224 1.52221E+01-1.44829E+02 3.46364E+00
 -1     11225 1.52221E+01-1.44829E+02 5.19545E+00
 -1     11226 1.52221E+01-1.44829E+02 6.92727E+00
 -1     11227 1.52221E+01-1.44829E+02 8.65909E+00
 -1     11228 1.52221E+01-1.44829E+02 1.03909E+01
 -1     11229 1.52221E+01-1.44829E+02 1.21227E+01
 -1     11230 1.52221E+01-1.44829E+02 1.38545E+01
 -1     11231 1.52221E+01-1.44829E+02 1.55864E+01
 -1     11232 1.52221E+01-1.44829E+02 1.73182E+01
 -1     11233 7.62151E+00-1.45427E+02 1.73182E+00
 -1     11234 7.62151E+00-1.45427E+02 3.46364E+00
 -1     11235 7.62151E+00-1.45427E+02 5.19545E+00
 -1     11236 7.62151E+00-1.45427E+02 6.92727E+00
 -1     11237 7.62151E+00-1.45427E+02 8.65909E+00
 -1     11238 7.62151E+00-1.45427E+02 1.03909E+01
 -1     11239 7.62151E+00-1.45427E+02 1.21227E+01
 -1     11240 7.62151E+00-1.45427E+02 1.38545E+01
 -1     11241 7.62151E+00-1.45427E+02 1.55864E+01
 -1     11242 7.62151E+00-1.45427E+02 1.73182E+01
 -1     11243 1.48809E+02-7.79876E+00 1.73182E+00
 -1     11244 1.48809E+02-7.79876E+00 3.46364E+00
 -1     11245 1.48809E+02-7.79876E+00 5.19545E+00
 -1     11246 1.48809E+02-7.79876E+00 6.92727E+00
 -1     11247 1.48809E+02-7.79876E+00 8.65909E+00
 -1     11248 1.48809E+02-7.79876E+00 1.03909E+01
 -1     11249 1.48809E+02-7.79876E+00 1.21227E+01
 -1     11250 1.48809E+02-7.79876E+00 1.38545E+01
 -1     11251 1.48809E+02-7.79876E+00 1.55864E+01
 -1     11252 1.48809E+02-7.79876E+00 1.73182E+01
 -1     11253 1.48197E+02-1.55761E+01 1.73182E+00
 -1     11254 1.48197E+02-1.55761E+01 3.46364E+00
 -1     11255 1.48197E+02-1.55761E+01 5.19545E+00
 -1     11256 1.48197E+02-1.55761E+01 6.92727E+00
 -1     11257 1.48197E+02-1.55761E+01 8.65909E+00
 -1     11258 1.48197E+02-1.55761E+01 1.03909E+01
 -1     11259 1.48197E+02-1.55761E+01 1.21227E+01
 -1     11260 1.48197E+02-1.55761E+01 1.38545E+01
 -1     11261 1.48197E+02-1.55761E+01 1.55864E+01
 -1     11262 1.48197E+02-1.55761E+01 1.73182E+01
 -1     11263 1.47179E+02-2.33108E+01 1.73182E+00
 -1     11264 1.47179E+02-2.33108E+01 3.46364E+00
 -1     11265 1.47179E+02-2.33108E+01 5.19545E+00
 -1     11266 1.47179E+02-2.33108E+01 6.92727E+00
 -1     11267 1.47179E+02-2.33108E+01 8.65909E+00
 -1     11268 1.47179E+02-2.33108E+01 1.03909E+01
 -1     11269 1.47179E+02-2.33108E+01 1.21227E+01
 -1     11270 1.47179E+02-2.33108E+01 1.38545E+01
 -1     11271 1.47179E+02-2.33108E+01 1.55864E+01
 -1     11272 1.47179E+02-2.33108E+01 1.73182E+01
 -1     11273 1.45757E+02-3.09816E+01 1.73182E+00
 -1     11274 1.45757E+02-3.09816E+01 3.46364E+00
 -1     11275 1.45757E+02-3.09816E+01 5.19545E+00
 -1     11276 1.45757E+02-3.09816E+01 6.92727E+00
 -1     11277 1.45757E+02-3.09816E+01 8.65909E+00
 -1     11278 1.45757E+02-3.09816E+01 1.03909E+01
 -1     11279 1.45757E+02-3.09816E+01 1.21227E+01
 -1     11280 1.45757E+02-3.09816E+01 1.38545E+01
 -1     11281 1.45757E+02-3.09816E+01 1.55864E+01
 -1     11282 1.45757E+02-3.09816E+01 1.73182E+01
 -1     11283 1.43936E+02-3.85675E+01 1.73182E+00
 -1     11284 1.43936E+02-3.85675E+01 3.46364E+00
 -1     11285 1.43936E+02-3.85675E+01 5.19545E+00
 -1     11286 1.43936E+02-3.85675E+01 6.92727E+00
 -1     11287 1.43936E+02-3.85675E+01 8.65909E+00
 -1     11288 1.43936E+02-3.85675E+01 1.03909E+01
 -1     11289 1.43936E+02-3.85675E+01 1.21227E+01
 -1     11290 1.43936E+02-3.85675E+01 1.38545E+01
 -1     11291 1.43936E+02-3.85675E+01 1.55864E+01
 -1     11292 1.43936E+02-3.85675E+01 1.73182E+01
 -1     11293 1.41720E+02-4.60477E+01 1.73182E+00
 -1     11294 1.41720E+02-4.60477E+01 3.46364E+00
 -1     11295 1.41720E+02-4.60477E+01 5.19545E+00
 -1     11296 1.41720E+02-4.60477E+01 6.92727E+00
 -1     11297 1.41720E+02-4.60477E+01 8.65909E+00
 -1     11298 1.41720E+02-4.60477E+01 1.03909E+01
 -1     11299 1.41720E+02-4.60477E+01 1.21227E+01
 -1     11300 1.41720E+02-4.60477E+01 1.38545E+01
 -1     11301 1.41720E+02-4.60477E+01 1.55864E+01
 -1     11302 1.41720E+02-4.60477E+01 1.73182E+01
 -1     11303 1.39116E+02-5.34016E+01 1.73182E+00
 -1     11304 1.39116E+02-5.34016E+01 3.46364E+00
 -1     11305 1.39116E+02-5.34016E+01 5.19545E+00
 -1     11306 1.39116E+02-5.34016E+01 6.92727E+00
 -1     11307 1.39116E+02-5.34016E+01 8.65909E+00
 -1     11308 1.39116E+02-5.34016E+01 1.03909E+01
 -1     11309 1.39116E+02-5.34016E+01 1.21227E+01
 -1     11310 1.39116E+02-5.34016E+01 1.38545E+01
 -1     11311 1.39116E+02-5.34016E+01 1.55864E+01
 -1     11312 1.39116E+02-5.34016E+01 1.73182E+01
 -1     11313 1.36130E+02-6.06092E+01 1.73182E+00
 -1     11314 1.36130E+02-6.06092E+01 3.46364E+00
 -1     11315 1.36130E+02-6.06092E+01 5.19545E+00
 -1     11316 1.36130E+02-6.06092E+01 6.92727E+00
 -1     11317 1.36130E+02-6.06092E+01 8.65909E+00
 -1     11318 1.36130E+02-6.06092E+01 1.03909E+01
 -1     11319 1.36130E+02-6.06092E+01 1.21227E+01
 -1     11320 1.36130E+02-6.06092E+01 1.38545E+01
 -1     11321 1.36130E+02-6.06092E+01 1.55864E+01
 -1     11322 1.36130E+02-6.06092E+01 1.73182E+01
 -1     11323 1.32772E+02-6.76506E+01 1.73182E+00
 -1     11324 1.32772E+02-6.76506E+01 3.46364E+00
 -1     11325 1.32772E+02-6.76506E+01 5.19545E+00
 -1     11326 1.32772E+02-6.76506E+01 6.92727E+00
 -1     11327 1.32772E+02-6.76506E+01 8.65909E+00
 -1     11328 1.32772E+02-6.76506E+01 1.03909E+01
 -1     11329 1.32772E+02-6.76506E+01 1.21227E+01
 -1     11330 1.32772E+02-6.76506E+01 1.38545E+01
 -1     11331 1.32772E+02-6.76506E+01 1.55864E+01
 -1     11332 1.32772E+02-6.76506E+01 1.73182E+01
 -1     11333 1.29049E+02-7.45067E+01 1.73182E+00
 -1     11334 1.29049E+02-7.45067E+01 3.46364E+00
 -1     11335 1.29049E+02-7.45067E+01 5.19545E+00
 -1     11336 1.29049E+02-7.45067E+01 6.92727E+00
 -1     11337 1.29049E+02-7.45067E+01 8.65909E+00
 -1     11338 1.29049E+02-7.45067E+01 1.03909E+01
 -1     11339 1.29049E+02-7.45067E+01 1.21227E+01
 -1     11340 1.29049E+02-7.45067E+01 1.38545E+01
 -1     11341 1.29049E+02-7.45067E+01 1.55864E+01
 -1     11342 1.29049E+02-7.45067E+01 1.73182E+01
 -1     11343 1.24973E+02-8.11585E+01 1.73182E+00
 -1     11344 1.24973E+02-8.11585E+01 3.46364E+00
 -1     11345 1.24973E+02-8.11585E+01 5.19545E+00
 -1     11346 1.24973E+02-8.11585E+01 6.92727E+00
 -1     11347 1.24973E+02-8.11585E+01 8.65909E+00
 -1     11348 1.24973E+02-8.11585E+01 1.03909E+01
 -1     11349 1.24973E+02-8.11585E+01 1.21227E+01
 -1     11350 1.24973E+02-8.11585E+01 1.38545E+01
 -1     11351 1.24973E+02-8.11585E+01 1.55864E+01
 -1     11352 1.24973E+02-8.11585E+01 1.73182E+01
 -1     11353 1.20554E+02-8.75878E+01 1.73182E+00
 -1     11354 1.20554E+02-8.75878E+01 3.46364E+00
 -1     11355 1.20554E+02-8.75878E+01 5.19545E+00
 -1     11356 1.20554E+02-8.75878E+01 6.92727E+00
 -1     11357 1.20554E+02-8.75878E+01 8.65909E+00
 -1     11358 1.20554E+02-8.75878E+01 1.03909E+01
 -1     11359 1.20554E+02-8.75878E+01 1.21227E+01
 -1     11360 1.20554E+02-8.75878E+01 1.38545E+01
 -1     11361 1.20554E+02-8.75878E+01 1.55864E+01
 -1     11362 1.20554E+02-8.75878E+01 1.73182E+01
 -1     11363 1.15805E+02-9.37771E+01 1.73182E+00
 -1     11364 1.15805E+02-9.37771E+01 3.46364E+00
 -1     11365 1.15805E+02-9.37771E+01 5.19545E+00
 -1     11366 1.15805E+02-9.37771E+01 6.92727E+00
 -1     11367 1.15805E+02-9.37771E+01 8.65909E+00
 -1     11368 1.15805E+02-9.37771E+01 1.03909E+01
 -1     11369 1.15805E+02-9.37771E+01 1.21227E+01
 -1     11370 1.15805E+02-9.37771E+01 1.38545E+01
 -1     11371 1.15805E+02-9.37771E+01 1.55864E+01
 -1     11372 1.15805E+02-9.37771E+01 1.73182E+01
 -1     11373 1.10738E+02-9.97094E+01 1.73182E+00
 -1     11374 1.10738E+02-9.97094E+01 3.46364E+00
 -1     11375 1.10738E+02-9.97094E+01 5.19545E+00
 -1     11376 1.10738E+02-9.97094E+01 6.92727E+00
 -1     11377 1.10738E+02-9.97094E+01 8.65909E+00
 -1     11378 1.10738E+02-9.97094E+01 1.03909E+01
 -1     11379 1.10738E+02-9.97094E+01 1.21227E+01
 -1     11380 1.10738E+02-9.97094E+01 1.38545E+01
 -1     11381 1.10738E+02-9.97094E+01 1.55864E+01
 -1     11382 1.10738E+02-9.97094E+01 1.73182E+01
 -1     11383 1.05368E+02-1.05368E+02 1.73182E+00
 -1     11384 1.05368E+02-1.05368E+02 3.46364E+00
 -1     11385 1.05368E+02-1.05368E+02 5.19545E+00
 -1     11386 1.05368E+02-1.05368E+02 6.92727E+00
 -1     11387 1.05368E+02-1.05368E+02 8.65909E+00
 -1     11388 1.05368E+02-1.05368E+02 1.03909E+01
 -1     11389 1.05368E+02-1.05368E+02 1.21227E+01
 -1     11390 1.05368E+02-1.05368E+02 1.38545E+01
 -1     11391 1.05368E+02-1.05368E+02 1.55864E+01
 -1     11392 1.05368E+02-1.05368E+02 1.73182E+01
 -1     11393 9.97094E+01-1.10738E+02 1.73182E+00
 -1     11394 9.97094E+01-1.10738E+02 3.46364E+00
 -1     11395 9.97094E+01-1.10738E+02 5.19545E+00
 -1     11396 9.97094E+01-1.10738E+02 6.92727E+00
 -1     11397 9.97094E+01-1.10738E+02 8.65909E+00
 -1     11398 9.97094E+01-1.10738E+02 1.03909E+01
 -1     11399 9.97094E+01-1.10738E+02 1.21227E+01
 -1     11400 9.97094E+01-1.10738E+02 1.38545E+01
 -1     11401 9.97094E+01-1.10738E+02 1.55864E+01
 -1     11402 9.97094E+01-1.10738E+02 1.73182E+01
 -1     11403 9.37771E+01-1.15805E+02 1.73182E+00
 -1     11404 9.37771E+01-1.15805E+02 3.46364E+00
 -1     11405 9.37771E+01-1.15805E+02 5.19545E+00
 -1     11406 9.37771E+01-1.15805E+02 6.92727E+00
 -1     11407 9.37771E+01-1.15805E+02 8.65909E+00
 -1     11408 9.37771E+01-1.15805E+02 1.03909E+01
 -1     11409 9.37771E+01-1.15805E+02 1.21227E+01
 -1     11410 9.37771E+01-1.15805E+02 1.38545E+01
 -1     11411 9.37771E+01-1.15805E+02 1.55864E+01
 -1     11412 9.37771E+01-1.15805E+02 1.73182E+01
 -1     11413 8.75878E+01-1.20554E+02 1.73182E+00
 -1     11414 8.75878E+01-1.20554E+02 3.46364E+00
 -1     11415 8.75878E+01-1.20554E+02 5.19545E+00
 -1     11416 8.75878E+01-1.20554E+02 6.92727E+00
 -1     11417 8.75878E+01-1.20554E+02 8.65909E+00
 -1     11418 8.75878E+01-1.20554E+02 1.03909E+01
 -1     11419 8.75878E+01-1.20554E+02 1.21227E+01
 -1     11420 8.75878E+01-1.20554E+02 1.38545E+01
 -1     11421 8.75878E+01-1.20554E+02 1.55864E+01
 -1     11422 8.75878E+01-1.20554E+02 1.73182E+01
 -1     11423 8.11585E+01-1.24973E+02 1.73182E+00
 -1     11424 8.11585E+01-1.24973E+02 3.46364E+00
 -1     11425 8.11585E+01-1.24973E+02 5.19545E+00
 -1     11426 8.11585E+01-1.24973E+02 6.92727E+00
 -1     11427 8.11585E+01-1.24973E+02 8.65909E+00
 -1     11428 8.11585E+01-1.24973E+02 1.03909E+01
 -1     11429 8.11585E+01-1.24973E+02 1.21227E+01
 -1     11430 8.11585E+01-1.24973E+02 1.38545E+01
 -1     11431 8.11585E+01-1.24973E+02 1.55864E+01
 -1     11432 8.11585E+01-1.24973E+02 1.73182E+01
 -1     11433 7.45067E+01-1.29049E+02 1.73182E+00
 -1     11434 7.45067E+01-1.29049E+02 3.46364E+00
 -1     11435 7.45067E+01-1.29049E+02 5.19545E+00
 -1     11436 7.45067E+01-1.29049E+02 6.92727E+00
 -1     11437 7.45067E+01-1.29049E+02 8.65909E+00
 -1     11438 7.45067E+01-1.29049E+02 1.03909E+01
 -1     11439 7.45067E+01-1.29049E+02 1.21227E+01
 -1     11440 7.45067E+01-1.29049E+02 1.38545E+01
 -1     11441 7.45067E+01-1.29049E+02 1.55864E+01
 -1     11442 7.45067E+01-1.29049E+02 1.73182E+01
 -1     11443 6.76506E+01-1.32772E+02 1.73182E+00
 -1     11444 6.76506E+01-1.32772E+02 3.46364E+00
 -1     11445 6.76506E+01-1.32772E+02 5.19545E+00
 -1     11446 6.76506E+01-1.32772E+02 6.92727E+00
 -1     11447 6.76506E+01-1.32772E+02 8.65909E+00
 -1     11448 6.76506E+01-1.32772E+02 1.03909E+01
 -1     11449 6.76506E+01-1.32772E+02 1.21227E+01
 -1     11450 6.76506E+01-1.32772E+02 1.38545E+01
 -1     11451 6.76506E+01-1.32772E+02 1.55864E+01
 -1     11452 6.76506E+01-1.32772E+02 1.73182E+01
 -1     11453 6.06092E+01-1.36130E+02 1.73182E+00
 -1     11454 6.06092E+01-1.36130E+02 3.46364E+00
 -1     11455 6.06092E+01-1.36130E+02 5.19545E+00
 -1     11456 6.06092E+01-1.36130E+02 6.92727E+00
 -1     11457 6.06092E+01-1.36130E+02 8.65909E+00
 -1     11458 6.06092E+01-1.36130E+02 1.03909E+01
 -1     11459 6.06092E+01-1.36130E+02 1.21227E+01
 -1     11460 6.06092E+01-1.36130E+02 1.38545E+01
 -1     11461 6.06092E+01-1.36130E+02 1.55864E+01
 -1     11462 6.06092E+01-1.36130E+02 1.73182E+01
 -1     11463 5.34016E+01-1.39116E+02 1.73182E+00
 -1     11464 5.34016E+01-1.39116E+02 3.46364E+00
 -1     11465 5.34016E+01-1.39116E+02 5.19545E+00
 -1     11466 5.34016E+01-1.39116E+02 6.92727E+00
 -1     11467 5.34016E+01-1.39116E+02 8.65909E+00
 -1     11468 5.34016E+01-1.39116E+02 1.03909E+01
 -1     11469 5.34016E+01-1.39116E+02 1.21227E+01
 -1     11470 5.34016E+01-1.39116E+02 1.38545E+01
 -1     11471 5.34016E+01-1.39116E+02 1.55864E+01
 -1     11472 5.34016E+01-1.39116E+02 1.73182E+01
 -1     11473 4.60477E+01-1.41720E+02 1.73182E+00
 -1     11474 4.60477E+01-1.41720E+02 3.46364E+00
 -1     11475 4.60477E+01-1.41720E+02 5.19545E+00
 -1     11476 4.60477E+01-1.41720E+02 6.92727E+00
 -1     11477 4.60477E+01-1.41720E+02 8.65909E+00
 -1     11478 4.60477E+01-1.41720E+02 1.03909E+01
 -1     11479 4.60477E+01-1.41720E+02 1.21227E+01
 -1     11480 4.60477E+01-1.41720E+02 1.38545E+01
 -1     11481 4.60477E+01-1.41720E+02 1.55864E+01
 -1     11482 4.60477E+01-1.41720E+02 1.73182E+01
 -1     11483 3.85675E+01-1.43936E+02 1.73182E+00
 -1     11484 3.85675E+01-1.43936E+02 3.46364E+00
 -1     11485 3.85675E+01-1.43936E+02 5.19545E+00
 -1     11486 3.85675E+01-1.43936E+02 6.92727E+00
 -1     11487 3.85675E+01-1.43936E+02 8.65909E+00
 -1     11488 3.85675E+01-1.43936E+02 1.03909E+01
 -1     11489 3.85675E+01-1.43936E+02 1.21227E+01
 -1     11490 3.85675E+01-1.43936E+02 1.38545E+01
 -1     11491 3.85675E+01-1.43936E+02 1.55864E+01
 -1     11492 3.85675E+01-1.43936E+02 1.73182E+01
 -1     11493 3.09816E+01-1.45757E+02 1.73182E+00
 -1     11494 3.09816E+01-1.45757E+02 3.46364E+00
 -1     11495 3.09816E+01-1.45757E+02 5.19545E+00
 -1     11496 3.09816E+01-1.45757E+02 6.92727E+00
 -1     11497 3.09816E+01-1.45757E+02 8.65909E+00
 -1     11498 3.09816E+01-1.45757E+02 1.03909E+01
 -1     11499 3.09816E+01-1.45757E+02 1.21227E+01
 -1     11500 3.09816E+01-1.45757E+02 1.38545E+01
 -1     11501 3.09816E+01-1.45757E+02 1.55864E+01
 -1     11502 3.09816E+01-1.45757E+02 1.73182E+01
 -1     11503 2.33108E+01-1.47179E+02 1.73182E+00
 -1     11504 2.33108E+01-1.47179E+02 3.46364E+00
 -1     11505 2.33108E+01-1.47179E+02 5.19545E+00
 -1     11506 2.33108E+01-1.47179E+02 6.92727E+00
 -1     11507 2.33108E+01-1.47179E+02 8.65909E+00
 -1     11508 2.33108E+01-1.47179E+02 1.03909E+01
 -1     11509 2.33108E+01-1.47179E+02 1.21227E+01
 -1     11510 2.33108E+01-1.47179E+02 1.38545E+01
 -1     11511 2.33108E+01-1.47179E+02 1.55864E+01
 -1     11512 2.33108E+01-1.47179E+02 1.73182E+01
 -1     11513 1.55761E+01-1.48197E+02 1.73182E+00
 -1     11514 1.55761E+01-1.48197E+02 3.46364E+00
 -1     11515 1.55761E+01-1.48197E+02 5.19545E+00
 -1     11516 1.55761E+01-1.48197E+02 6.92727E+00
 -1     11517 1.55761E+01-1.48197E+02 8.65909E+00
 -1     11518 1.55761E+01-1.48197E+02 1.03909E+01
 -1     11519 1.55761E+01-1.48197E+02 1.21227E+01
 -1     11520 1.55761E+01-1.48197E+02 1.38545E+01
 -1     11521 1.55761E+01-1.48197E+02 1.55864E+01
 -1     11522 1.55761E+01-1.48197E+02 1.73182E+01
 -1     11523 7.79876E+00-1.48809E+02 1.73182E+00
 -1     11524 7.79876E+00-1.48809E+02 3.46364E+00
 -1     11525 7.79876E+00-1.48809E+02 5.19545E+00
 -1     11526 7.79876E+00-1.48809E+02 6.92727E+00
 -1     11527 7.79876E+00-1.48809E+02 8.65909E+00
 -1     11528 7.79876E+00-1.48809E+02 1.03909E+01
 -1     11529 7.79876E+00-1.48809E+02 1.21227E+01
 -1     11530 7.79876E+00-1.48809E+02 1.38545E+01
 -1     11531 7.79876E+00-1.48809E+02 1.55864E+01
 -1     11532 7.79876E+00-1.48809E+02 1.73182E+01
 -3
    3C                          9900                                     1
 -1      1002    1    0    1
 -2       281         9         1       124      3123      1122       241      2272
 -1      1003    1    0    1
 -2      3123      1122       241      2272      3124      1123       242      2273
 -1      1004    1    0    1
 -2      3124      1123       242      2273      3125      1124       243      2274
 -1      1005    1    0    1
 -2      3125      1124       243      2274      3126      1125       244      2275
 -1      1006    1    0    1
 -2      3126      1125       244      2275      3127      1126       245      2276
 -1      1007    1    0    1
 -2      3127      1126       245      2276      3128      1127       246      2277
 -1      1008    1    0    1
 -2      3128      1127       246      2277      3129      1128       247      2278
 -1      1009    1    0    1
 -2      3129      1128       247      2278      3130      1129       248      2279
 -1      1010    1    0    1
 -2      3130      1129       248      2279      3131      1130       249      2280
 -1      1011    1    0    1
 -2      3131      1130       249      2280      3132      1131       250      2281
 -1      1012    1    0    1
 -2      3132      1131       250      2281      2282       125         5       240
 -1      1013    1    0    1
 -2       282       281       124       123      3133      3123      2272      2262
 -1      1014    1    0    1
 -2      3133      3123      2272      2262      3134      3124      2273      2263
 -1      1015    1    0    1
 -2      3134      3124      2273      2263      3135      3125      2274      2264
 -1      1016    1    0    1
 -2      3135      3125      2274      2264      3136      3126      2275      2265
 -1      1017    1    0    1
 -2      3136      3126      2275      2265      3137      3127      2276      2266
 -1      1018    1    0    1
 -2      3137      3127      2276      2266      3138      3128      2277      2267
 -1      1019    1    0    1
 -2      3138      3128      2277      2267      3139      3129      2278      2268
 -1      1020    1    0    1
 -2      3139      3129      2278      2268      3140      3130      2279      2269
 -1      1021    1    0    1
 -2      3140      3130      2279      2269      3141      3131      2280      2270
 -1      1022    1    0    1
 -2      3141      3131      2280      2270      3142      3132      2281      2271
 -1      1023    1    0    1
 -2      3142      3132      2281      2271      2283      2282       240       239
 -1      1024    1    0    1
 -2       283       282       123       122      3143      3133      2262      2252
 -1      1025    1    0    1
 -2      3143      3133      2262      2252      3144      3134      2263      2253
 -1      1026    1    0    1
 -2      3144      3134      2263      2253      3145      3135      2264      2254
 -1      1027    1    0    1
 -2      3145      3135      2264      2254      3146      3136      2265      2255
 -1      1028    1    0    1
 -2      3146      3136      2265      2255      3147      3137      2266      2256
 -1      1029    1    0    1
 -2      3147      3137      2266      2256      3148      3138      2267      2257
 -1      1030    1    0    1
 -2      3148      3138      2267      2257      3149      3139      2268      2258
 -1      1031    1    0    1
 -2      3149      3139      2268      2258      3150      3140      2269      2259
 -1      1032    1    0    1
 -2      3150      3140      2269      2259      3151      3141      2270      2260
 -1      1033    1    0    1
 -2      3151      3141      2270      2260      3152      3142      2271      2261
 -1      1034    1    0    1
 -2      3152      3142      2271      2261      2284      2283       239       238
 -1      1035    1    0    1
 -2       284       283       122       121      3153      3143      2252      2242
 -1      1036    1    0    1
 -2      3153      3143      2252      2242      3154      3144      2253      2243
 -1      1037    1    0    1
 -2      3154      3144      2253      2243      3155      3145      2254      2244
 -1      1038    1    0    1
 -2      3155      3145      2254      2244      3156      3146      2255      2245
 -1      1039    1    0    1
 -2      3156      3146      2255      2245      3157      3147      2256      2246
 -1      1040    1    0    1
 -2      3157      3147      2256      2246      3158      3148      2257      2247
 -1      1041    1    0    1
 -2      3158      3148      2257      2247      3159      3149      2258      2248
 -1      1042    1    0    1
 -2      3159      3149      2258      2248      3160      3150      2259      2249
 -1      1043    1    0    1
 -2      3160      3150      2259      2249      3161      3151      2260      2250
 -1      1044    1    0    1
 -2      3161      3151      2260      2250      3162      3152      2261      2251
 -1      1045    1    0    1
 -2      3162      3152      2261      2251      2285      2284       238       237
 -1      1046    1    0    1
 -2       285       284       121       120      3163      3153      2242      2232
 -1      1047    1    0    1
 -2      3163      3153      2242      2232      3164      3154      2243      2233
 -1      1048    1    0    1
 -2      3164      3154      2243      2233      3165      3155      2244      2234
 -1      1049    1    0    1
 -2      3165      3155      2244      2234      3166      3156      2245      2235
 -1      1050    1    0    1
 -2      3166      3156      2245      2235      3167      3157      2246      2236
 -1      1051    1    0    1
 -2      3167      3157      2246      2236      3168      3158      2247      2237
 -1      1052    1    0    1
 -2      3168      3158      2247      2237      3169      3159      2248      2238
 -1      1053    1    0    1
 -2      3169      3159      2248      2238      3170      3160      2249      2239
 -1      1054    1    0    1
 -2      3170      3160      2249      2239      3171      3161      2250      2240
 -1      1055    1    0    1
 -2      3171      3161      2250      2240      3172      3162      2251      2241
 -1      1056    1    0    1
 -2      3172      3162      2251      2241      2286      2285       237       236
 -1      1057    1    0    1
 -2       286       285       120       119      3173      3163      2232      2222
 -1      1058    1    0    1
 -2      3173      3163      2232      2222      3174      3164      2233      2223
 -1      1059    1    0    1
 -2      3174      3164      2233      2223      3175      3165      2234      2224
 -1      1060    1    0    1
 -2      3175      3165      2234      2224      3176      3166      2235      2225
 -1      1061    1    0    1
 -2      3176      3166      2235      2225      3177      3167      2236      2226
 -1      1062    1    0    1
 -2      3177      3167      2236      2226      3178      3168      2237      2227
 -1      1063    1    0    1
 -2      3178      3168      2237      2227      3179      3169      2238      2228
 -1      1064    1    0    1
 -2      3179      3169      2238      2228      3180      3170      2239      2229
 -1      1065    1    0    1
 -2      3180      3170      2239      2229      3181      3171      2240      2230
 -1      1066    1    0    1
 -2      3181      3171      2240      2230      3182      3172      2241      2231
 -1      1067    1    0    1
 -2      3182      3172      2241      2231      2287      2286       236       235
 -1      1068    1    0    1
 -2       287       286       119       118      3183      3173      2222      2212
 -1      1069    1    0    1
 -2      3183      3173      2222      2212      3184      3174      2223      2213
 -1      1070    1    0    1
 -2      3184      3174      2223      2213      3185      3175      2224      2214
 -1      1071    1    0    1
 -2      3185      3175      2224      2214      3186      3176      2225      2215
 -1      1072    1    0    1
 -2      3186      3176      2225      2215      3187      3177      2226      2216
 -1      1073    1    0    1
 -2      3187      3177      2226      2216      3188      3178      2227      2217
 -1      1074    1    0    1
 -2      3188      3178      2227      2217      3189      3179      2228      2218
 -1      1075    1    0    1
 -2      3189      3179      2228      2218      3190      3180      2229      2219
 -1      1076    1    0    1
 -2      3190      3180      2229      2219      3191      3181      2230      2220
 -1      1077    1    0    1
 -2      3191      3181      2230      2220      3192      3182      2231      2221
 -1      1078    1    0    1
 -2      3192      3182      2231      2221      2288      2287       235       234
 -1      1079    1    0    1
 -2       288       287       118       117      3193      3183      2212      2202
 -1      1080    1    0    1
 -2      3193      3183      2212      2202      3194      3184      2213      2203
 -1      1081    1    0    1
 -2      3194      3184      2213      2203      3195      3185      2214      2204
 -1      1082    1    0    1
 -2      3195      3185      2214      2204      3196      3186      2215      2205
 -1      1083    1    0    1
 -2      3196      3186      2215      2205      3197      3187      2216      2206
 -1      1084    1    0    1
 -2      3197      3187      2216      2206      3198      3188      2217      2207
 -1      1085    1    0    1
 -2      3198      3188      2217      2207      3199      3189      2218      2208
 -1      1086    1    0    1
 -2      3199      3189      2218      2208      3200      3190      2219      2209
 -1      1087    1    0    1
 -2      3200      3190      2219      2209      3201      3191      2220      2210
 -1      1088    1    0    1
 -2      3201      3191      2220      2210      3202      3192      2221      2211
 -1      1089    1    0    1
 -2      3202      3192      2221      2211      2289      2288       234       233
 -1      1090    1    0    1
 -2       289       288       117       116      3203      3193      2202      2192
 -1      1091    1    0    1
 -2      3203      3193      2202      2192      3204      3194      2203      2193
 -1      1092    1    0    1
 -2      3204      3194      2203      2193      3205      3195      2204      2194
 -1      1093    1    0    1
 -2      3205      3195      2204      2194      3206      3196      2205      2195
 -1      1094    1    0    1
 -2      3206      3196      2205      2195      3207      3197      2206      2196
 -1      1095    1    0    1
 -2      3207      3197      2206      2196      3208      3198      2207      2197
 -1      1096    1    0    1
 -2      3208      3198      2207      2197      3209      3199      2208      2198
 -1      1097    1    0    1
 -2      3209      3199      2208      2198      3210      3200      2209      2199
 -1      1098    1    0    1
 -2      3210      3200      2209      2199      3211      3201      2210      2200
 -1      1099    1    0    1
 -2      3211      3201      2210      2200      3212      3202      2211      2201
 -1      1100    1    0    1
 -2      3212      3202      2211      2201      2290      2289       233       232
 -1      1101    1    0    1
 -2       290       289       116       115      3213      3203      2192      2182
 -1      1102    1    0    1
 -2      3213      3203      2192      2182      3214      3204      2193      2183
 -1      1103    1    0    1
 -2      3214      3204      2193      2183      3215      3205      2194      2184
 -1      1104    1    0    1
 -2      3215      3205      2194      2184      3216      3206      2195      2185
 -1      1105    1    0    1
 -2      3216      3206      2195      2185      3217      3207      2196      2186
 -1      1106    1    0    1
 -2      3217      3207      2196      2186      3218      3208      2197      2187
 -1      1107    1    0    1
 -2      3218      3208      2197      2187      3219      3209      2198      2188
 -1      1108    1    0    1
 -2      3219      3209      2198      2188      3220      3210      2199      2189
 -1      1109    1    0    1
 -2      3220      3210      2199      2189      3221      3211      2200      2190
 -1      1110    1    0    1
 -2      3221      3211      2200      2190      3222      3212      2201      2191
 -1      1111    1    0    1
 -2      3222      3212      2201      2191      2291      2290       232       231
 -1      1112    1    0    1
 -2       291       290       115       114      3223      3213      2182      2172
 -1      1113    1    0    1
 -2      3223      3213      2182      2172      3224      3214      2183      2173
 -1      1114    1    0    1
 -2      3224      3214      2183      2173      3225      3215      2184      2174
 -1      1115    1    0    1
 -2      3225      3215      2184      2174      3226      3216      2185      2175
 -1      1116    1    0    1
 -2      3226      3216      2185      2175      3227      3217      2186      2176
 -1      1117    1    0    1
 -2      3227      3217      2186      2176      3228      3218      2187      2177
 -1      1118    1    0    1
 -2      3228      3218      2187      2177      3229      3219      2188      2178
 -1      1119    1    0    1
 -2      3229      3219      2188      2178      3230      3220      2189      2179
 -1      1120    1    0    1
 -2      3230      3220      2189      2179      3231      3221      2190      2180
 -1      1121    1    0    1
 -2      3231      3221      2190      2180      3232      3222      2191      2181
 -1      1122    1    0    1
 -2      3232      3222      2191      2181      2292      2291       231       230
 -1      1123    1    0    1
 -2       292       291       114       113      3233      3223      2172      2162
 -1      1124    1    0    1
 -2      3233      3223      2172      2162      3234      3224      2173      2163
 -1      1125    1    0    1
 -2      3234      3224      2173      2163      3235      3225      2174      2164
 -1      1126    1    0    1
 -2      3235      3225      2174      2164      3236      3226      2175      2165
 -1      1127    1    0    1
 -2      3236      3226      2175      2165      3237      3227      2176      2166
 -1      1128    1    0    1
 -2      3237      3227      2176      2166      3238      3228      2177      2167
 -1      1129    1    0    1
 -2      3238      3228      2177      2167      3239      3229      2178      2168
 -1      1130    1    0    1
 -2      3239      3229      2178      2168      3240      3230      2179      2169
 -1      1131    1    0    1
 -2      3240      3230      2179      2169      3241      3231      2180      2170
 -1      1132    1    0    1
 -2      3241      3231      2180      2170      3242      3232      2181      2171
 -1      1133    1    0    1
 -2      3242      3232      2181      2171      2293      2292       230       229
 -1      1134    1    0    1
 -2       293       292       113       112      3243      3233      2162      2152
 -1      1135    1    0    1
 -2      3243      3233      2162      2152      3244      3234      2163      2153
 -1      1136    1    0    1
 -2      3244      3234      2163      2153      3245      3235      2164      2154
 -1      1137    1    0    1
 -2      3245      3235      2164      2154      3246      3236      2165      2155
 -1      1138    1    0    1
 -2      3246      3236      2165      2155      3247      3237      2166      2156
 -1      1139    1    0    1
 -2      3247      3237      2166      2156      3248      3238      2167      2157
 -1      1140    1    0    1
 -2      3248      3238      2167      2157      3249      3239      2168      2158
 -1      1141    1    0    1
 -2      3249      3239      2168      2158      3250      3240      2169      2159
 -1      1142    1    0    1
 -2      3250      3240      2169      2159      3251      3241      2170      2160
 -1      1143    1    0    1
 -2      3251      3241      2170      2160      3252      3242      2171      2161
 -1      1144    1    0    1
 -2      3252      3242      2171      2161      2294      2293       229       228
 -1      1145    1    0    1
 -2       294       293       112       111      3253      3243      2152      2142
 -1      1146    1    0    1
 -2      3253      3243      2152      2142      3254      3244      2153      2143
 -1      1147    1    0    1
 -2      3254      3244      2153      2143      3255      3245      2154      2144
 -1      1148    1    0    1
 -2      3255      3245      2154      2144      3256      3246      2155      2145
 -1      1149    1    0    1
 -2      3256      3246      2155      2145      3257      3247      2156      2146
 -1      1150    1    0    1
 -2      3257      3247      2156      2146      3258      3248      2157      2147
 -1      1151    1    0    1
 -2      3258      3248      2157      2147      3259      3249      2158      2148
 -1      1152    1    0    1
 -2      3259      3249      2158      2148      3260      3250      2159      2149
 -1      1153    1    0    1
 -2      3260      3250      2159      2149      3261      3251      2160      2150
 -1      1154    1    0    1
 -2      3261      3251      2160      2150      3262      3252      2161      2151
 -1      1155    1    0    1
 -2      3262      3252      2161      2151      2295      2294       228       227
 -1      1156    1    0    1
 -2       295       294       111       110      3263      3253      2142      2132
 -1      1157    1    0    1
 -2      3263      3253      2142      2132      3264      3254      2143      2133
 -1      1158    1    0    1
 -2      3264      3254      2143      2133      3265      3255      2144      2134
 -1      1159    1    0    1
 -2      3265      3255      2144      2134      3266      3256      2145      2135
 -1      1160    1    0    1
 -2      3266      3256      2145      2135      3267      3257      2146      2136
 -1      1161    1    0    1
 -2      3267      3257      2146      2136      3268      3258      2147      2137
 -1      1162    1    0    1
 -2      3268      3258      2147      2137      3269      3259      2148      2138
 -1      1163    1    0    1
 -2      3269      3259      2148      2138      3270      3260      2149      2139
 -1      1164    1    0    1
 -2      3270      3260      2149      2139      3271      3261      2150      2140
 -1      1165    1    0    1
 -2      3271      3261      2150      2140      3272      3262      2151      2141
 -1      1166    1    0    1
 -2      3272      3262      2151      2141      2296      2295       227       226
 -1      1167    1    0    1
 -2       296       295       110       109      3273      3263      2132      2122
 -1      1168    1    0    1
 -2      3273      3263      2132      2122      3274      3264      2133      2123
 -1      1169    1    0    1
 -2      3274      3264      2133      2123      3275      3265      2134      2124
 -1      1170    1    0    1
 -2      3275      3265      2134      2124      3276      3266      2135      2125
 -1      1171    1    0    1
 -2      3276      3266      2135      2125      3277      3267      2136      2126
 -1      1172    1    0    1
 -2      3277      3267      2136      2126      3278      3268      2137      2127
 -1      1173    1    0    1
 -2      3278      3268      2137      2127      3279      3269      2138      2128
 -1      1174    1    0    1
 -2      3279      3269      2138      2128      3280      3270      2139      2129
 -1      1175    1    0    1
 -2      3280      3270      2139      2129      3281      3271      2140      2130
 -1      1176    1    0    1
 -2      3281      3271      2140      2130      3282      3272      2141      2131
 -1      1177    1    0    1
 -2      3282      3272      2141      2131      2297      2296       226       225
 -1      1178    1    0    1
 -2       297       296       109       108      3283      3273      2122      2112
 -1      1179    1    0    1
 -2      3283      3273      2122      2112      3284      3274      2123      2113
 -1      1180    1    0    1
 -2      3284      3274      2123      2113      3285      3275      2124      2114
 -1      1181    1    0    1
 -2      3285      3275      2124      2114      3286      3276      2125      2115
 -1      1182    1    0    1
 -2      3286      3276      2125      2115      3287      3277      2126      2116
 -1      1183    1    0    1
 -2      3287      3277      2126      2116      3288      3278      2127      2117
 -1      1184    1    0    1
 -2      3288      3278      2127      2117      3289      3279      2128      2118
 -1      1185    1    0    1
 -2      3289      3279      2128      2118      3290      3280      2129      2119
 -1      1186    1    0    1
 -2      3290      3280      2129      2119      3291      3281      2130      2120
 -1      1187    1    0    1
 -2      3291      3281      2130      2120      3292      3282      2131      2121
 -1      1188    1    0    1
 -2      3292      3282      2131      2121      2298      2297       225       224
 -1      1189    1    0    1
 -2       298       297       108       107      3293      3283      2112      2102
 -1      1190    1    0    1
 -2      3293      3283      2112      2102      3294      3284      2113      2103
 -1      1191    1    0    1
 -2      3294      3284      2113      2103      3295      3285      2114      2104
 -1      1192    1    0    1
 -2      3295      3285      2114      2104      3296      3286      2115      2105
 -1      1193    1    0    1
 -2      3296      3286      2115      2105      3297      3287      2116      2106
 -1      1194    1    0    1
 -2      3297      3287      2116      2106      3298      3288      2117      2107
 -1      1195    1    0    1
 -2      3298      3288      2117      2107      3299      3289      2118      2108
 -1      1196    1    0    1
 -2      3299      3289      2118      2108      3300      3290      2119      2109
 -1      1197    1    0    1
 -2      3300      3290      2119      2109      3301      3291      2120      2110
 -1      1198    1    0    1
 -2      3301      3291      2120      2110      3302      3292      2121      2111
 -1      1199    1    0    1
 -2      3302      3292      2121      2111      2299      2298       224       223
 -1      1200    1    0    1
 -2       299       298       107       106      3303      3293      2102      2092
 -1      1201    1    0    1
 -2      3303      3293      2102      2092      3304      3294      2103      2093
 -1      1202    1    0    1
 -2      3304      3294      2103      2093      3305      3295      2104      2094
 -1      1203    1    0    1
 -2      3305      3295      2104      2094      3306      3296      2105      2095
 -1      1204    1    0    1
 -2      3306      3296      2105      2095      3307      3297      2106      2096
 -1      1205    1    0    1
 -2      3307      3297      2106      2096      3308      3298      2107      2097
 -1      1206    1    0    1
 -2      3308      3298      2107      2097      3309      3299      2108      2098
 -1      1207    1    0    1
 -2      3309      3299      2108      2098      3310      3300      2109      2099
 -1      1208    1    0    1
 -2      3310      3300      2109      2099      3311      3301      2110      2100
 -1      1209    1    0    1
 -2      3311      3301      2110      2100      3312      3302      2111      2101
 -1      1210    1    0    1
 -2      3312      3302      2111      2101      2300      2299       223       222
 -1      1211    1    0    1
 -2       300       299       106       105      3313      3303      2092      2082
 -1      1212    1    0    1
 -2      3313      3303      2092      2082      3314      3304      2093      2083
 -1      1213    1    0    1
 -2      3314      3304      2093      2083      3315      3305      2094      2084
 -1      1214    1    0    1
 -2      3315      3305      2094      2084      3316      3306      2095      2085
 -1      1215    1    0    1
 -2      3316      3306      2095      2085      3317      3307      2096      2086
 -1      1216    1    0    1
 -2      3317      3307      2096      2086      3318      3308      2097      2087
 -1      1217    1    0    1
 -2      3318      3308      2097      2087      3319      3309      2098      2088
 -1      1218    1    0    1
 -2      3319      3309      2098      2088      3320      3310      2099      2089
 -1      1219    1    0    1
 -2      3320      3310      2099      2089      3321      3311      2100      2090
 -1      1220    1    0    1
 -2      3321      3311      2100      2090      3322      3312      2101      2091
 -1      1221    1    0    1
 -2      3322      3312      2101      2091      2301      2300       222       221
 -1      1222    1    0    1
 -2       301       300       105       104      3323      3313      2082      2072
 -1      1223    1    0    1
 -2      3323      3313      2082      2072      3324      3314      2083      2073
 -1      1224    1    0    1
 -2      3324      3314      2083      2073      3325      3315      2084      2074
 -1      1225    1    0    1
 -2      3325      3315      2084      2074      3326      3316      2085      2075
 -1      1226    1    0    1
 -2      3326      3316      2085      2075      3327      3317      2086      2076
 -1      1227    1    0    1
 -2      3327      3317      2086      2076      3328      3318      2087      2077
 -1      1228    1    0    1
 -2      3328      3318      2087      2077      3329      3319      2088      2078
 -1      1229    1    0    1
 -2      3329      3319      2088      2078      3330      3320      2089      2079
 -1      1230    1    0    1
 -2      3330      3320      2089      2079      3331      3321      2090      2080
 -1      1231    1    0    1
 -2      3331      3321      2090      2080      3332      3322      2091      2081
 -1      1232    1    0    1
 -2      3332      3322      2091      2081      2302      2301       221       220
 -1      1233    1    0    1
 -2       302       301       104       103      3333      3323      2072      2062
 -1      1234    1    0    1
 -2      3333      3323      2072      2062      3334      3324      2073      2063
 -1      1235    1    0    1
 -2      3334      3324      2073      2063      3335      3325      2074      2064
 -1      1236    1    0    1
 -2      3335      3325      2074      2064      3336      3326      2075      2065
 -1      1237    1    0    1
 -2      3336      3326      2075      2065      3337      3327      2076      2066
 -1      1238    1    0    1
 -2      3337      3327      2076      2066      3338      3328      2077      2067
 -1      1239    1    0    1
 -2      3338      3328      2077      2067      3339      3329      2078      2068
 -1      1240    1    0    1
 -2      3339      3329      2078      2068      3340      3330      2079      2069
 -1      1241    1    0    1
 -2      3340      3330      2079      2069      3341      3331      2080      2070
 -1      1242    1    0    1
 -2      3341      3331      2080      2070      3342      3332      2081      2071
 -1      1243    1    0    1
 -2      3342      3332      2081      2071      2303      2302       220       219
 -1      1244    1    0    1
 -2       303       302       103       102      3343      3333      2062      2052
 -1      1245    1    0    1
 -2      3343      3333      2062      2052      3344      3334      2063      2053
 -1      1246    1    0    1
 -2      3344      3334      2063      2053      3345      3335      2064      2054
 -1      1247    1    0    1
 -2      3345      3335      2064      2054      3346      3336      2065      2055
 -1      1248    1    0    1
 -2      3346      3336      2065      2055      3347      3337      2066      2056
 -1      1249    1    0    1
 -2      3347      3337      2066      2056      3348      3338      2067      2057
 -1      1250    1    0    1
 -2      3348      3338      2067      2057      3349      3339      2068      2058
 -1      1251    1    0    1
 -2      3349      3339      2068      2058      3350      3340      2069      2059
 -1      1252    1    0    1
 -2      3350      3340      2069      2059      3351      3341      2070      2060
 -1      1253    1    0    1
 -2      3351      3341      2070      2060      3352      3342      2071      2061
 -1      1254    1    0    1
 -2      3352      3342      2071      2061      2304      2303       219       218
 -1      1255    1    0    1
 -2       304       303       102       101      3353      3343      2052      2042
 -1      1256    1    0    1
 -2      3353      3343      2052      2042      3354      3344      2053      2043
 -1      1257    1    0    1
 -2      3354      3344      2053      2043      3355      3345      2054      2044
 -1      1258    1    0    1
 -2      3355      3345      2054      2044      3356      3346      2055      2045
 -1      1259    1    0    1
 -2      3356      3346      2055      2045      3357      3347      2056      2046
 -1      1260    1    0    1
 -2      3357      3347      2056      2046      3358      3348      2057      2047
 -1      1261    1    0    1
 -2      3358      3348      2057      2047      3359      3349      2058      2048
 -1      1262    1    0    1
 -2      3359      3349      2058      2048      3360      3350      2059      2049
 -1      1263    1    0    1
 -2      3360      3350      2059      2049      3361      3351      2060      2050
 -1      1264    1    0    1
 -2      3361      3351      2060      2050      3362      3352      2061      2051
 -1      1265    1    0    1
 -2      3362      3352      2061      2051      2305      2304       218       217
 -1      1266    1    0    1
 -2       305       304       101       100      3363      3353      2042      2032
 -1      1267    1    0    1
 -2      3363      3353      2042      2032      3364      3354      2043      2033
 -1      1268    1    0    1
 -2      3364      3354      2043      2033      3365      3355      2044      2034
 -1      1269    1    0    1
 -2      3365      3355      2044      2034      3366      3356      2045      2035
 -1      1270    1    0    1
 -2      3366      3356      2045      2035      3367      3357      2046      2036
 -1      1271    1    0    1
 -2      3367      3357      2046      2036      3368      3358      2047      2037
 -1      1272    1    0    1
 -2      3368      3358      2047      2037      3369      3359      2048      2038
 -1      1273    1    0    1
 -2      3369      3359      2048      2038      3370      3360      2049      2039
 -1      1274    1    0    1
 -2      3370      3360      2049      2039      3371      3361      2050      2040
 -1      1275    1    0    1
 -2      3371      3361      2050      2040      3372      3362      2051      2041
 -1      1276    1    0    1
 -2      3372      3362      2051      2041      2306      2305       217       216
 -1      1277    1    0    1
 -2       306       305       100        99      3373      3363      2032      2022
 -1      1278    1    0    1
 -2      3373      3363      2032      2022      3374      3364      2033      2023
 -1      1279    1    0    1
 -2      3374      3364      2033      2023      3375      3365      2034      2024
 -1      1280    1    0    1
 -2      3375      3365      2034      2024      3376      3366      2035      2025
 -1      1281    1    0    1
 -2      3376      3366      2035      2025      3377      3367      2036      2026
 -1      1282    1    0    1
 -2      3377      3367      2036      2026      3378      3368      2037      2027
 -1      1283    1    0    1
 -2      3378      3368      2037      2027      3379      3369      2038      2028
 -1      1284    1    0    1
 -2      3379      3369      2038      2028      3380      3370      2039      2029
 -1      1285    1    0    1
 -2      3380      3370      2039      2029      3381      3371      2040      2030
 -1      1286    1    0    1
 -2      3381      3371      2040      2030      3382      3372      2041      2031
 -1      1287    1    0    1
 -2      3382      3372      2041      2031      2307      2306       216       215
 -1      1288    1    0    1
 -2       307       306        99        98      3383      3373      2022      2012
 -1      1289    1    0    1
 -2      3383      3373      2022      2012      3384      3374      2023      2013
 -1      1290    1    0    1
 -2      3384      3374      2023      2013      3385      3375      2024      2014
 -1      1291    1    0    1
 -2      3385      3375      2024      2014      3386      3376      2025      2015
 -1      1292    1    0    1
 -2      3386      3376      2025      2015      3387      3377      2026      2016
 -1      1293    1    0    1
 -2      3387      3377      2026      2016      3388      3378      2027      2017
 -1      1294    1    0    1
 -2      3388      3378      2027      2017      3389      3379      2028      2018
 -1      1295    1    0    1
 -2      3389      3379      2028      2018      3390      3380      2029      2019
 -1      1296    1    0    1
 -2      3390      3380      2029      2019      3391      3381      2030      2020
 -1      1297    1    0    1
 -2      3391      3381      2030      2020      3392      3382      2031      2021
 -1      1298    1    0    1
 -2      3392      3382      2031      2021      2308      2307       215       214
 -1      1299    1    0    1
 -2       308       307        98        97      3393      3383      2012      2002
 -1      1300    1    0    1
 -2      3393      3383      2012      2002      3394      3384      2013      2003
 -1      1301    1    0    1
 -2      3394      3384      2013      2003      3395      3385      2014      2004
 -1      1302    1    0    1
 -2      3395      3385      2014      2004      3396      3386      2015      2005
 -1      1303    1    0    1
 -2      3396      3386      2015      2005      3397      3387      2016      2006
 -1      1304    1    0    1
 -2      3397      3387      2016      2006      3398      3388      2017      2007
 -1      1305    1    0    1
 -2      3398      3388      2017      2007      3399      3389      2018      2008
 -1      1306    1    0    1
 -2      3399      3389      2018      2008      3400      3390      2019      2009
 -1      1307    1    0    1
 -2      3400      3390      2019      2009      3401      3391      2020      2010
 -1      1308    1    0    1
 -2      3401      3391      2020      2010      3402      3392      2021      2011
 -1      1309    1    0    1
 -2      3402      3392      2021      2011      2309      2308       214       213
 -1      1310    1    0    1
 -2       309       308        97        96      3403      3393      2002      1992
 -1      1311    1    0    1
 -2      3403      3393      2002      1992      3404      3394      2003      1993
 -1      1312    1    0    1
 -2      3404      3394      2003      1993      3405      3395      2004      1994
 -1      1313    1    0    1
 -2      3405      3395      2004      1994      3406      3396      2005      1995
 -1      1314    1    0    1
 -2      3406      3396      2005      1995      3407      3397      2006      1996
 -1      1315    1    0    1
 -2      3407      3397      2006      1996      3408      3398      2007      1997
 -1      1316    1    0    1
 -2      3408      3398      2007      1997      3409      3399      2008      1998
 -1      1317    1    0    1
 -2      3409      3399      2008      1998      3410      3400      2009      1999
 -1      1318    1    0    1
 -2      3410      3400      2009      1999      3411      3401      2010      2000
 -1      1319    1    0    1
 -2      3411      3401      2010      2000      3412      3402      2011      2001
 -1      1320    1    0    1
 -2      3412      3402      2011      2001      2310      2309       213       212
 -1      1321    1    0    1
 -2        95       309        96         4      1982      3403      1992       271
 -1      1322    1    0    1
 -2      1982      3403      1992       271      1983      3404      1993       272
 -1      1323    1    0    1
 -2      1983      3404      1993       272      1984      3405      1994       273
 -1      1324    1    0    1
 -2      1984      3405      1994       273      1985      3406      1995       274
 -1      1325    1    0    1
 -2      1985      3406      1995       274      1986      3407      1996       275
 -1      1326    1    0    1
 -2      1986      3407      1996       275      1987      3408      1997       276
 -1      1327    1    0    1
 -2      1987      3408      1997       276      1988      3409      1998       277
 -1      1328    1    0    1
 -2      1988      3409      1998       277      1989      3410      1999       278
 -1      1329    1    0    1
 -2      1989      3410      1999       278      1990      3411      2000       279
 -1      1330    1    0    1
 -2      1990      3411      2000       279      1991      3412      2001       280
 -1      1331    1    0    1
 -2      1991      3412      2001       280       211      2310       212         8
 -1      1332    1    0    1
 -2       310        10         9       281      3413      1132      1122      3123
 -1      1333    1    0    1
 -2      3413      1132      1122      3123      3414      1133      1123      3124
 -1      1334    1    0    1
 -2      3414      1133      1123      3124      3415      1134      1124      3125
 -1      1335    1    0    1
 -2      3415      1134      1124      3125      3416      1135      1125      3126
 -1      1336    1    0    1
 -2      3416      1135      1125      3126      3417      1136      1126      3127
 -1      1337    1    0    1
 -2      3417      1136      1126      3127      3418      1137      1127      3128
 -1      1338    1    0    1
 -2      3418      1137      1127      3128      3419      1138      1128      3129
 -1      1339    1    0    1
 -2      3419      1138      1128      3129      3420      1139      1129      3130
 -1      1340    1    0    1
 -2      3420      1139      1129      3130      3421      1140      1130      3131
 -1      1341    1    0    1
 -2      3421      1140      1130      3131      3422      1141      1131      3132
 -1      1342    1    0    1
 -2      3422      1141      1131      3132      2311       126       125      2282
 -1      1343    1    0    1
 -2       311       310       281       282      3423      3413      3123      3133
 -1      1344    1    0    1
 -2      3423      3413      3123      3133      3424      3414      3124      3134
 -1      1345    1    0    1
 -2      3424      3414      3124      3134      3425      3415      3125      3135
 -1      1346    1    0    1
 -2      3425      3415      3125      3135      3426      3416      3126      3136
 -1      1347    1    0    1
 -2      3426      3416      3126      3136      3427      3417      3127      3137
 -1      1348    1    0    1
 -2      3427      3417      3127      3137      3428      3418      3128      3138
 -1      1349    1    0    1
 -2      3428      3418      3128      3138      3429      3419      3129      3139
 -1      1350    1    0    1
 -2      3429      3419      3129      3139      3430      3420      3130      3140
 -1      1351    1    0    1
 -2      3430      3420      3130      3140      3431      3421      3131      3141
 -1      1352    1    0    1
 -2      3431      3421      3131      3141      3432      3422      3132      3142
 -1      1353    1    0    1
 -2      3432      3422      3132      3142      2312      2311      2282      2283
 -1      1354    1    0    1
 -2       312       311       282       283      3433      3423      3133      3143
 -1      1355    1    0    1
 -2      3433      3423      3133      3143      3434      3424      3134      3144
 -1      1356    1    0    1
 -2      3434      3424      3134      3144      3435      3425      3135      3145
 -1      1357    1    0    1
 -2      3435      3425      3135      3145      3436      3426      3136      3146
 -1      1358    1    0    1
 -2      3436      3426      3136      3146      3437      3427      3137      3147
 -1      1359    1    0    1
 -2      3437      3427      3137      3147      3438      3428      3138      3148
 -1      1360    1    0    1
 -2      3438      3428      3138      3148      3439      3429      3139      3149
 -1      1361    1    0    1
 -2      3439      3429      3139      3149      3440      3430      3140      3150
 -1      1362    1    0    1
 -2      3440      3430      3140      3150      3441      3431      3141      3151
 -1      1363    1    0    1
 -2      3441      3431      3141      3151      3442      3432      3142      3152
 -1      1364    1    0    1
 -2      3442      3432      3142      3152      2313      2312      2283      2284
 -1      1365    1    0    1
 -2       313       312       283       284      3443      3433      3143      3153
 -1      1366    1    0    1
 -2      3443      3433      3143      3153      3444      3434      3144      3154
 -1      1367    1    0    1
 -2      3444      3434      3144      3154      3445      3435      3145      3155
 -1      1368    1    0    1
 -2      3445      3435      3145      3155      3446      3436      3146      3156
 -1      1369    1    0    1
 -2      3446      3436      3146      3156      3447      3437      3147      3157
 -1      1370    1    0    1
 -2      3447      3437      3147      3157      3448      3438      3148      3158
 -1      1371    1    0    1
 -2      3448      3438      3148      3158      3449      3439      3149      3159
 -1      1372    1    0    1
 -2      3449      3439      3149      3159      3450      3440      3150      3160
 -1      1373    1    0    1
 -2      3450      3440      3150      3160      3451      3441      3151      3161
 -1      1374    1    0    1
 -2      3451      3441      3151      3161      3452      3442      3152      3162
 -1      1375    1    0    1
 -2      3452      3442      3152      3162      2314      2313      2284      2285
 -1      1376    1    0    1
 -2       314       313       284       285      3453      3443      3153      3163
 -1      1377    1    0    1
 -2      3453      3443      3153      3163      3454      3444      3154      3164
 -1      1378    1    0    1
 -2      3454      3444      3154      3164      3455      3445      3155      3165
 -1      1379    1    0    1
 -2      3455      3445      3155      3165      3456      3446      3156      3166
 -1      1380    1    0    1
 -2      3456      3446      3156      3166      3457      3447      3157      3167
 -1      1381    1    0    1
 -2      3457      3447      3157      3167      3458      3448      3158      3168
 -1      1382    1    0    1
 -2      3458      3448      3158      3168      3459      3449      3159      3169
 -1      1383    1    0    1
 -2      3459      3449      3159      3169      3460      3450      3160      3170
 -1      1384    1    0    1
 -2      3460      3450      3160      3170      3461      3451      3161      3171
 -1      1385    1    0    1
 -2      3461      3451      3161      3171      3462      3452      3162      3172
 -1      1386    1    0    1
 -2      3462      3452      3162      3172      2315      2314      2285      2286
 -1      1387    1    0    1
 -2       315       314       285       286      3463      3453      3163      3173
 -1      1388    1    0    1
 -2      3463      3453      3163      3173      3464      3454      3164      3174
 -1      1389    1    0    1
 -2      3464      3454      3164      3174      3465      3455      3165      3175
 -1      1390    1    0    1
 -2      3465      3455      3165      3175      3466      3456      3166      3176
 -1      1391    1    0    1
 -2      3466      3456      3166      3176      3467      3457      3167      3177
 -1      1392    1    0    1
 -2      3467      3457      3167      3177      3468      3458      3168      3178
 -1      1393    1    0    1
 -2      3468      3458      3168      3178      3469      3459      3169      3179
 -1      1394    1    0    1
 -2      3469      3459      3169      3179      3470      3460      3170      3180
 -1      1395    1    0    1
 -2      3470      3460      3170      3180      3471      3461      3171      3181
 -1      1396    1    0    1
 -2      3471      3461      3171      3181      3472      3462      3172      3182
 -1      1397    1    0    1
 -2      3472      3462      3172      3182      2316      2315      2286      2287
 -1      1398    1    0    1
 -2       316       315       286       287      3473      3463      3173      3183
 -1      1399    1    0    1
 -2      3473      3463      3173      3183      3474      3464      3174      3184
 -1      1400    1    0    1
 -2      3474      3464      3174      3184      3475      3465      3175      3185
 -1      1401    1    0    1
 -2      3475      3465      3175      3185      3476      3466      3176      3186
 -1      1402    1    0    1
 -2      3476      3466      3176      3186      3477      3467      3177      3187
 -1      1403    1    0    1
 -2      3477      3467      3177      3187      3478      3468      3178      3188
 -1      1404    1    0    1
 -2      3478      3468      3178      3188      3479      3469      3179      3189
 -1      1405    1    0    1
 -2      3479      3469      3179      3189      3480      3470      3180      3190
 -1      1406    1    0    1
 -2      3480      3470      3180      3190      3481      3471      3181      3191
 -1      1407    1    0    1
 -2      3481      3471      3181      3191      3482      3472      3182      3192
 -1      1408    1    0    1
 -2      3482      3472      3182      3192      2317      2316      2287      2288
 -1      1409    1    0    1
 -2       317       316       287       288      3483      3473      3183      3193
 -1      1410    1    0    1
 -2      3483      3473      3183      3193      3484      3474      3184      3194
 -1      1411    1    0    1
 -2      3484      3474      3184      3194      3485      3475      3185      3195
 -1      1412    1    0    1
 -2      3485      3475      3185      3195      3486      3476      3186      3196
 -1      1413    1    0    1
 -2      3486      3476      3186      3196      3487      3477      3187      3197
 -1      1414    1    0    1
 -2      3487      3477      3187      3197      3488      3478      3188      3198
 -1      1415    1    0    1
 -2      3488      3478      3188      3198      3489      3479      3189      3199
 -1      1416    1    0    1
 -2      3489      3479      3189      3199      3490      3480      3190      3200
 -1      1417    1    0    1
 -2      3490      3480      3190      3200      3491      3481      3191      3201
 -1      1418    1    0    1
 -2      3491      3481      3191      3201      3492      3482      3192      3202
 -1      1419    1    0    1
 -2      3492      3482      3192      3202      2318      2317      2288      2289
 -1      1420    1    0    1
 -2       318       317       288       289      3493      3483      3193      3203
 -1      1421    1    0    1
 -2      3493      3483      3193      3203      3494      3484      3194      3204
 -1      1422    1    0    1
 -2      3494      3484      3194      3204      3495      3485      3195      3205
 -1      1423    1    0    1
 -2      3495      3485      3195      3205      3496      3486      3196      3206
 -1      1424    1    0    1
 -2      3496      3486      3196      3206      3497      3487      3197      3207
 -1      1425    1    0    1
 -2      3497      3487      3197      3207      3498      3488      3198      3208
 -1      1426    1    0    1
 -2      3498      3488      3198      3208      3499      3489      3199      3209
 -1      1427    1    0    1
 -2      3499      3489      3199      3209      3500      3490      3200      3210
 -1      1428    1    0    1
 -2      3500      3490      3200      3210      3501      3491      3201      3211
 -1      1429    1    0    1
 -2      3501      3491      3201      3211      3502      3492      3202      3212
 -1      1430    1    0    1
 -2      3502      3492      3202      3212      2319      2318      2289      2290
 -1      1431    1    0    1
 -2       319       318       289       290      3503      3493      3203      3213
 -1      1432    1    0    1
 -2      3503      3493      3203      3213      3504      3494      3204      3214
 -1      1433    1    0    1
 -2      3504      3494      3204      3214      3505      3495      3205      3215
 -1      1434    1    0    1
 -2      3505      3495      3205      3215      3506      3496      3206      3216
 -1      1435    1    0    1
 -2      3506      3496      3206      3216      3507      3497      3207      3217
 -1      1436    1    0    1
 -2      3507      3497      3207      3217      3508      3498      3208      3218
 -1      1437    1    0    1
 -2      3508      3498      3208      3218      3509      3499      3209      3219
 -1      1438    1    0    1
 -2      3509      3499      3209      3219      3510      3500      3210      3220
 -1      1439    1    0    1
 -2      3510      3500      3210      3220      3511      3501      3211      3221
 -1      1440    1    0    1
 -2      3511      3501      3211      3221      3512      3502      3212      3222
 -1      1441    1    0    1
 -2      3512      3502      3212      3222      2320      2319      2290      2291
 -1      1442    1    0    1
 -2       320       319       290       291      3513      3503      3213      3223
 -1      1443    1    0    1
 -2      3513      3503      3213      3223      3514      3504      3214      3224
 -1      1444    1    0    1
 -2      3514      3504      3214      3224      3515      3505      3215      3225
 -1      1445    1    0    1
 -2      3515      3505      3215      3225      3516      3506      3216      3226
 -1      1446    1    0    1
 -2      3516      3506      3216      3226      3517      3507      3217      3227
 -1      1447    1    0    1
 -2      3517      3507      3217      3227      3518      3508      3218      3228
 -1      1448    1    0    1
 -2      3518      3508      3218      3228      3519      3509      3219      3229
 -1      1449    1    0    1
 -2      3519      3509      3219      3229      3520      3510      3220      3230
 -1      1450    1    0    1
 -2      3520      3510      3220      3230      3521      3511      3221      3231
 -1      1451    1    0    1
 -2      3521      3511      3221      3231      3522      3512      3222      3232
 -1      1452    1    0    1
 -2      3522      3512      3222      3232      2321      2320      2291      2292
 -1      1453    1    0    1
 -2       321       320       291       292      3523      3513      3223      3233
 -1      1454    1    0    1
 -2      3523      3513      3223      3233      3524      3514      3224      3234
 -1      1455    1    0    1
 -2      3524      3514      3224      3234      3525      3515      3225      3235
 -1      1456    1    0    1
 -2      3525      3515      3225      3235      3526      3516      3226      3236
 -1      1457    1    0    1
 -2      3526      3516      3226      3236      3527      3517      3227      3237
 -1      1458    1    0    1
 -2      3527      3517      3227      3237      3528      3518      3228      3238
 -1      1459    1    0    1
 -2      3528      3518      3228      3238      3529      3519      3229      3239
 -1      1460    1    0    1
 -2      3529      3519      3229      3239      3530      3520      3230      3240
 -1      1461    1    0    1
 -2      3530      3520      3230      3240      3531      3521      3231      3241
 -1      1462    1    0    1
 -2      3531      3521      3231      3241      3532      3522      3232      3242
 -1      1463    1    0    1
 -2      3532      3522      3232      3242      2322      2321      2292      2293
 -1      1464    1    0    1
 -2       322       321       292       293      3533      3523      3233      3243
 -1      1465    1    0    1
 -2      3533      3523      3233      3243      3534      3524      3234      3244
 -1      1466    1    0    1
 -2      3534      3524      3234      3244      3535      3525      3235      3245
 -1      1467    1    0    1
 -2      3535      3525      3235      3245      3536      3526      3236      3246
 -1      1468    1    0    1
 -2      3536      3526      3236      3246      3537      3527      3237      3247
 -1      1469    1    0    1
 -2      3537      3527      3237      3247      3538      3528      3238      3248
 -1      1470    1    0    1
 -2      3538      3528      3238      3248      3539      3529      3239      3249
 -1      1471    1    0    1
 -2      3539      3529      3239      3249      3540      3530      3240      3250
 -1      1472    1    0    1
 -2      3540      3530      3240      3250      3541      3531      3241      3251
 -1      1473    1    0    1
 -2      3541      3531      3241      3251      3542      3532      3242      3252
 -1      1474    1    0    1
 -2      3542      3532      3242      3252      2323      2322      2293      2294
 -1      1475    1    0    1
 -2       323       322       293       294      3543      3533      3243      3253
 -1      1476    1    0    1
 -2      3543      3533      3243      3253      3544      3534      3244      3254
 -1      1477    1    0    1
 -2      3544      3534      3244      3254      3545      3535      3245      3255
 -1      1478    1    0    1
 -2      3545      3535      3245      3255      3546      3536      3246      3256
 -1      1479    1    0    1
 -2      3546      3536      3246      3256      3547      3537      3247      3257
 -1      1480    1    0    1
 -2      3547      3537      3247      3257      3548      3538      3248      3258
 -1      1481    1    0    1
 -2      3548      3538      3248      3258      3549      3539      3249      3259
 -1      1482    1    0    1
 -2      3549      3539      3249      3259      3550      3540      3250      3260
 -1      1483    1    0    1
 -2      3550      3540      3250      3260      3551      3541      3251      3261
 -1      1484    1    0    1
 -2      3551      3541      3251      3261      3552      3542      3252      3262
 -1      1485    1    0    1
 -2      3552      3542      3252      3262      2324      2323      2294      2295
 -1      1486    1    0    1
 -2       324       323       294       295      3553      3543      3253      3263
 -1      1487    1    0    1
 -2      3553      3543      3253      3263      3554      3544      3254      3264
 -1      1488    1    0    1
 -2      3554      3544      3254      3264      3555      3545      3255      3265
 -1      1489    1    0    1
 -2      3555      3545      3255      3265      3556      3546      3256      3266
 -1      1490    1    0    1
 -2      3556      3546      3256      3266      3557      3547      3257      3267
 -1      1491    1    0    1
 -2      3557      3547      3257      3267      3558      3548      3258      3268
 -1      1492    1    0    1
 -2      3558      3548      3258      3268      3559      3549      3259      3269
 -1      1493    1    0    1
 -2      3559      3549      3259      3269      3560      3550      3260      3270
 -1      1494    1    0    1
 -2      3560      3550      3260      3270      3561      3551      3261      3271
 -1      1495    1    0    1
 -2      3561      3551      3261      3271      3562      3552      3262      3272
 -1      1496    1    0    1
 -2      3562      3552      3262      3272      2325      2324      2295      2296
 -1      1497    1    0    1
 -2       325       324       295       296      3563      3553      3263      3273
 -1      1498    1    0    1
 -2      3563      3553      3263      3273      3564      3554      3264      3274
 -1      1499    1    0    1
 -2      3564      3554      3264      3274      3565      3555      3265      3275
 -1      1500    1    0    1
 -2      3565      3555      3265      3275      3566      3556      3266      3276
 -1      1501    1    0    1
 -2      3566      3556      3266      3276      3567      3557      3267      3277
 -1      1502    1    0    1
 -2      3567      3557      3267      3277      3568      3558      3268      3278
 -1      1503    1    0    1
 -2      3568      3558      3268      3278      3569      3559      3269      3279
 -1      1504    1    0    1
 -2      3569      3559      3269      3279      3570      3560      3270      3280
 -1      1505    1    0    1
 -2      3570      3560      3270      3280      3571      3561      3271      3281
 -1      1506    1    0    1
 -2      3571      3561      3271      3281      3572      3562      3272      3282
 -1      1507    1    0    1
 -2      3572      3562      3272      3282      2326      2325      2296      2297
 -1      1508    1    0    1
 -2       326       325       296       297      3573      3563      3273      3283
 -1      1509    1    0    1
 -2      3573      3563      3273      3283      3574      3564      3274      3284
 -1      1510    1    0    1
 -2      3574      3564      3274      3284      3575      3565      3275      3285
 -1      1511    1    0    1
 -2      3575      3565      3275      3285      3576      3566      3276      3286
 -1      1512    1    0    1
 -2      3576      3566      3276      3286      3577      3567      3277      3287
 -1      1513    1    0    1
 -2      3577      3567      3277      3287      3578      3568      3278      3288
 -1      1514    1    0    1
 -2      3578      3568      3278      3288      3579      3569      3279      3289
 -1      1515    1    0    1
 -2      3579      3569      3279      3289      3580      3570      3280      3290
 -1      1516    1    0    1
 -2      3580      3570      3280      3290      3581      3571      3281      3291
 -1      1517    1    0    1
 -2      3581      3571      3281      3291      3582      3572      3282      3292
 -1      1518    1    0    1
 -2      3582      3572      3282      3292      2327      2326      2297      2298
 -1      1519    1    0    1
 -2       327       326       297       298      3583      3573      3283      3293
 -1      1520    1    0    1
 -2      3583      3573      3283      3293      3584      3574      3284      3294
 -1      1521    1    0    1
 -2      3584      3574      3284      3294      3585      3575      3285      3295
 -1      1522    1    0    1
 -2      3585      3575      3285      3295      3586      3576      3286      3296
 -1      1523    1    0    1
 -2      3586      3576      3286      3296      3587      3577      3287      3297
 -1      1524    1    0    1
 -2      3587      3577      3287      3297      3588      3578      3288      3298
 -1      1525    1    0    1
 -2      3588      3578      3288      3298      3589      3579      3289      3299
 -1      1526    1    0    1
 -2      3589      3579      3289      3299      3590      3580      3290      3300
 -1      1527    1    0    1
 -2      3590      3580      3290      3300      3591      3581      3291      3301
 -1      1528    1    0    1
 -2      3591      3581      3291      3301      3592      3582      3292      3302
 -1      1529    1    0    1
 -2      3592      3582      3292      3302      2328      2327      2298      2299
 -1      1530    1    0    1
 -2       328       327       298       299      3593      3583      3293      3303
 -1      1531    1    0    1
 -2      3593      3583      3293      3303      3594      3584      3294      3304
 -1      1532    1    0    1
 -2      3594      3584      3294      3304      3595      3585      3295      3305
 -1      1533    1    0    1
 -2      3595      3585      3295      3305      3596      3586      3296      3306
 -1      1534    1    0    1
 -2      3596      3586      3296      3306      3597      3587      3297      3307
 -1      1535    1    0    1
 -2      3597      3587      3297      3307      3598      3588      3298      3308
 -1      1536    1    0    1
 -2      3598      3588      3298      3308      3599      3589      3299      3309
 -1      1537    1    0    1
 -2      3599      3589      3299      3309      3600      3590      3300      3310
 -1      1538    1    0    1
 -2      3600      3590      3300      3310      3601      3591      3301      3311
 -1      1539    1    0    1
 -2      3601      3591      3301      3311      3602      3592      3302      3312
 -1      1540    1    0    1
 -2      3602      3592      3302      3312      2329      2328      2299      2300
 -1      1541    1    0    1
 -2       329       328       299       300      3603      3593      3303      3313
 -1      1542    1    0    1
 -2      3603      3593      3303      3313      3604      3594      3304      3314
 -1      1543    1    0    1
 -2      3604      3594      3304      3314      3605      3595      3305      3315
 -1      1544    1    0    1
 -2      3605      3595      3305      3315      3606      3596      3306      3316
 -1      1545    1    0    1
 -2      3606      3596      3306      3316      3607      3597      3307      3317
 -1      1546    1    0    1
 -2      3607      3597      3307      3317      3608      3598      3308      3318
 -1      1547    1    0    1
 -2      3608      3598      3308      3318      3609      3599      3309      3319
 -1      1548    1    0    1
 -2      3609      3599      3309      3319      3610      3600      3310      3320
 -1      1549    1    0    1
 -2      3610      3600      3310      3320      3611      3601      3311      3321
 -1      1550    1    0    1
 -2      3611      3601      3311      3321      3612      3602      3312      3322
 -1      1551    1    0    1
 -2      3612      3602      3312      3322      2330      2329      2300      2301
 -1      1552    1    0    1
 -2       330       329       300       301      3613      3603      3313      3323
 -1      1553    1    0    1
 -2      3613      3603      3313      3323      3614      3604      3314      3324
 -1      1554    1    0    1
 -2      3614      3604      3314      3324      3615      3605      3315      3325
 -1      1555    1    0    1
 -2      3615      3605      3315      3325      3616      3606      3316      3326
 -1      1556    1    0    1
 -2      3616      3606      3316      3326      3617      3607      3317      3327
 -1      1557    1    0    1
 -2      3617      3607      3317      3327      3618      3608      3318      3328
 -1      1558    1    0    1
 -2      3618      3608      3318      3328      3619      3609      3319      3329
 -1      1559    1    0    1
 -2      3619      3609      3319      3329      3620      3610      3320      3330
 -1      1560    1    0    1
 -2      3620      3610      3320      3330      3621      3611      3321      3331
 -1      1561    1    0    1
 -2      3621      3611      3321      3331      3622      3612      3322      3332
 -1      1562    1    0    1
 -2      3622      3612      3322      3332      2331      2330      2301      2302
 -1      1563    1    0    1
 -2       331       330       301       302      3623      3613      3323      3333
 -1      1564    1    0    1
 -2      3623      3613      3323      3333      3624      3614      3324      3334
 -1      1565    1    0    1
 -2      3624      3614      3324      3334      3625      3615      3325      3335
 -1      1566    1    0    1
 -2      3625      3615      3325      3335      3626      3616      3326      3336
 -1      1567    1    0    1
 -2      3626      3616      3326      3336      3627      3617      3327      3337
 -1      1568    1    0    1
 -2      3627      3617      3327      3337      3628      3618      3328      3338
 -1      1569    1    0    1
 -2      3628      3618      3328      3338      3629      3619      3329      3339
 -1      1570    1    0    1
 -2      3629      3619      3329      3339      3630      3620      3330      3340
 -1      1571    1    0    1
 -2      3630      3620      3330      3340      3631      3621      3331      3341
 -1      1572    1    0    1
 -2      3631      3621      3331      3341      3632      3622      3332      3342
 -1      1573    1    0    1
 -2      3632      3622      3332      3342      2332      2331      2302      2303
 -1      1574    1    0    1
 -2       332       331       302       303      3633      3623      3333      3343
 -1      1575    1    0    1
 -2      3633      3623      3333      3343      3634      3624      3334      3344
 -1      1576    1    0    1
 -2      3634      3624      3334      3344      3635      3625      3335      3345
 -1      1577    1    0    1
 -2      3635      3625      3335      3345      3636      3626      3336      3346
 -1      1578    1    0    1
 -2      3636      3626      3336      3346      3637      3627      3337      3347
 -1      1579    1    0    1
 -2      3637      3627      3337      3347      3638      3628      3338      3348
 -1      1580    1    0    1
 -2      3638      3628      3338      3348      3639      3629      3339      3349
 -1      1581    1    0    1
 -2      3639      3629      3339      3349      3640      3630      3340      3350
 -1      1582    1    0    1
 -2      3640      3630      3340      3350      3641      3631      3341      3351
 -1      1583    1    0    1
 -2      3641      3631      3341      3351      3642      3632      3342      3352
 -1      1584    1    0    1
 -2      3642      3632      3342      3352      2333      2332      2303      2304
 -1      1585    1    0    1
 -2       333       332       303       304      3643      3633      3343      3353
 -1      1586    1    0    1
 -2      3643      3633      3343      3353      3644      3634      3344      3354
 -1      1587    1    0    1
 -2      3644      3634      3344      3354      3645      3635      3345      3355
 -1      1588    1    0    1
 -2      3645      3635      3345      3355      3646      3636      3346      3356
 -1      1589    1    0    1
 -2      3646      3636      3346      3356      3647      3637      3347      3357
 -1      1590    1    0    1
 -2      3647      3637      3347      3357      3648      3638      3348      3358
 -1      1591    1    0    1
 -2      3648      3638      3348      3358      3649      3639      3349      3359
 -1      1592    1    0    1
 -2      3649      3639      3349      3359      3650      3640      3350      3360
 -1      1593    1    0    1
 -2      3650      3640      3350      3360      3651      3641      3351      3361
 -1      1594    1    0    1
 -2      3651      3641      3351      3361      3652      3642      3352      3362
 -1      1595    1    0    1
 -2      3652      3642      3352      3362      2334      2333      2304      2305
 -1      1596    1    0    1
 -2       334       333       304       305      3653      3643      3353      3363
 -1      1597    1    0    1
 -2      3653      3643      3353      3363      3654      3644      3354      3364
 -1      1598    1    0    1
 -2      3654      3644      3354      3364      3655      3645      3355      3365
 -1      1599    1    0    1
 -2      3655      3645      3355      3365      3656      3646      3356      3366
 -1      1600    1    0    1
 -2      3656      3646      3356      3366      3657      3647      3357      3367
 -1      1601    1    0    1
 -2      3657      3647      3357      3367      3658      3648      3358      3368
 -1      1602    1    0    1
 -2      3658      3648      3358      3368      3659      3649      3359      3369
 -1      1603    1    0    1
 -2      3659      3649      3359      3369      3660      3650      3360      3370
 -1      1604    1    0    1
 -2      3660      3650      3360      3370      3661      3651      3361      3371
 -1      1605    1    0    1
 -2      3661      3651      3361      3371      3662      3652      3362      3372
 -1      1606    1    0    1
 -2      3662      3652      3362      3372      2335      2334      2305      2306
 -1      1607    1    0    1
 -2       335       334       305       306      3663      3653      3363      3373
 -1      1608    1    0    1
 -2      3663      3653      3363      3373      3664      3654      3364      3374
 -1      1609    1    0    1
 -2      3664      3654      3364      3374      3665      3655      3365      3375
 -1      1610    1    0    1
 -2      3665      3655      3365      3375      3666      3656      3366      3376
 -1      1611    1    0    1
 -2      3666      3656      3366      3376      3667      3657      3367      3377
 -1      1612    1    0    1
 -2      3667      3657      3367      3377      3668      3658      3368      3378
 -1      1613    1    0    1
 -2      3668      3658      3368      3378      3669      3659      3369      3379
 -1      1614    1    0    1
 -2      3669      3659      3369      3379      3670      3660      3370      3380
 -1      1615    1    0    1
 -2      3670      3660      3370      3380      3671      3661      3371      3381
 -1      1616    1    0    1
 -2      3671      3661      3371      3381      3672      3662      3372      3382
 -1      1617    1    0    1
 -2      3672      3662      3372      3382      2336      2335      2306      2307
 -1      1618    1    0    1
 -2       336       335       306       307      3673      3663      3373      3383
 -1      1619    1    0    1
 -2      3673      3663      3373      3383      3674      3664      3374      3384
 -1      1620    1    0    1
 -2      3674      3664      3374      3384      3675      3665      3375      3385
 -1      1621    1    0    1
 -2      3675      3665      3375      3385      3676      3666      3376      3386
 -1      1622    1    0    1
 -2      3676      3666      3376      3386      3677      3667      3377      3387
 -1      1623    1    0    1
 -2      3677      3667      3377      3387      3678      3668      3378      3388
 -1      1624    1    0    1
 -2      3678      3668      3378      3388      3679      3669      3379      3389
 -1      1625    1    0    1
 -2      3679      3669      3379      3389      3680      3670      3380      3390
 -1      1626    1    0    1
 -2      3680      3670      3380      3390      3681      3671      3381      3391
 -1      1627    1    0    1
 -2      3681      3671      3381      3391      3682      3672      3382      3392
 -1      1628    1    0    1
 -2      3682      3672      3382      3392      2337      2336      2307      2308
 -1      1629    1    0    1
 -2       337       336       307       308      3683      3673      3383      3393
 -1      1630    1    0    1
 -2      3683      3673      3383      3393      3684      3674      3384      3394
 -1      1631    1    0    1
 -2      3684      3674      3384      3394      3685      3675      3385      3395
 -1      1632    1    0    1
 -2      3685      3675      3385      3395      3686      3676      3386      3396
 -1      1633    1    0    1
 -2      3686      3676      3386      3396      3687      3677      3387      3397
 -1      1634    1    0    1
 -2      3687      3677      3387      3397      3688      3678      3388      3398
 -1      1635    1    0    1
 -2      3688      3678      3388      3398      3689      3679      3389      3399
 -1      1636    1    0    1
 -2      3689      3679      3389      3399      3690      3680      3390      3400
 -1      1637    1    0    1
 -2      3690      3680      3390      3400      3691      3681      3391      3401
 -1      1638    1    0    1
 -2      3691      3681      3391      3401      3692      3682      3392      3402
 -1      1639    1    0    1
 -2      3692      3682      3392      3402      2338      2337      2308      2309
 -1      1640    1    0    1
 -2       338       337       308       309      3693      3683      3393      3403
 -1      1641    1    0    1
 -2      3693      3683      3393      3403      3694      3684      3394      3404
 -1      1642    1    0    1
 -2      3694      3684      3394      3404      3695      3685      3395      3405
 -1      1643    1    0    1
 -2      3695      3685      3395      3405      3696      3686      3396      3406
 -1      1644    1    0    1
 -2      3696      3686      3396      3406      3697      3687      3397      3407
 -1      1645    1    0    1
 -2      3697      3687      3397      3407      3698      3688      3398      3408
 -1      1646    1    0    1
 -2      3698      3688      3398      3408      3699      3689      3399      3409
 -1      1647    1    0    1
 -2      3699      3689      3399      3409      3700      3690      3400      3410
 -1      1648    1    0    1
 -2      3700      3690      3400      3410      3701      3691      3401      3411
 -1      1649    1    0    1
 -2      3701      3691      3401      3411      3702      3692      3402      3412
 -1      1650    1    0    1
 -2      3702      3692      3402      3412      2339      2338      2309      2310
 -1      1651    1    0    1
 -2        94       338       309        95      1972      3693      3403      1982
 -1      1652    1    0    1
 -2      1972      3693      3403      1982      1973      3694      3404      1983
 -1      1653    1    0    1
 -2      1973      3694      3404      1983      1974      3695      3405      1984
 -1      1654    1    0    1
 -2      1974      3695      3405      1984      1975      3696      3406      1985
 -1      1655    1    0    1
 -2      1975      3696      3406      1985      1976      3697      3407      1986
 -1      1656    1    0    1
 -2      1976      3697      3407      1986      1977      3698      3408      1987
 -1      1657    1    0    1
 -2      1977      3698      3408      1987      1978      3699      3409      1988
 -1      1658    1    0    1
 -2      1978      3699      3409      1988      1979      3700      3410      1989
 -1      1659    1    0    1
 -2      1979      3700      3410      1989      1980      3701      3411      1990
 -1      1660    1    0    1
 -2      1980      3701      3411      1990      1981      3702      3412      1991
 -1      1661    1    0    1
 -2      1981      3702      3412      1991       210      2339      2310       211
 -1      1662    1    0    1
 -2       339        11        10       310      3703      1142      1132      3413
 -1      1663    1    0    1
 -2      3703      1142      1132      3413      3704      1143      1133      3414
 -1      1664    1    0    1
 -2      3704      1143      1133      3414      3705      1144      1134      3415
 -1      1665    1    0    1
 -2      3705      1144      1134      3415      3706      1145      1135      3416
 -1      1666    1    0    1
 -2      3706      1145      1135      3416      3707      1146      1136      3417
 -1      1667    1    0    1
 -2      3707      1146      1136      3417      3708      1147      1137      3418
 -1      1668    1    0    1
 -2      3708      1147      1137      3418      3709      1148      1138      3419
 -1      1669    1    0    1
 -2      3709      1148      1138      3419      3710      1149      1139      3420
 -1      1670    1    0    1
 -2      3710      1149      1139      3420      3711      1150      1140      3421
 -1      1671    1    0    1
 -2      3711      1150      1140      3421      3712      1151      1141      3422
 -1      1672    1    0    1
 -2      3712      1151      1141      3422      2340       127       126      2311
 -1      1673    1    0    1
 -2       340       339       310       311      3713      3703      3413      3423
 -1      1674    1    0    1
 -2      3713      3703      3413      3423      3714      3704      3414      3424
 -1      1675    1    0    1
 -2      3714      3704      3414      3424      3715      3705      3415      3425
 -1      1676    1    0    1
 -2      3715      3705      3415      3425      3716      3706      3416      3426
 -1      1677    1    0    1
 -2      3716      3706      3416      3426      3717      3707      3417      3427
 -1      1678    1    0    1
 -2      3717      3707      3417      3427      3718      3708      3418      3428
 -1      1679    1    0    1
 -2      3718      3708      3418      3428      3719      3709      3419      3429
 -1      1680    1    0    1
 -2      3719      3709      3419      3429      3720      3710      3420      3430
 -1      1681    1    0    1
 -2      3720      3710      3420      3430      3721      3711      3421      3431
 -1      1682    1    0    1
 -2      3721      3711      3421      3431      3722      3712      3422      3432
 -1      1683    1    0    1
 -2      3722      3712      3422      3432      2341      2340      2311      2312
 -1      1684    1    0    1
 -2       341       340       311       312      3723      3713      3423      3433
 -1      1685    1    0    1
 -2      3723      3713      3423      3433      3724      3714      3424      3434
 -1      1686    1    0    1
 -2      3724      3714      3424      3434      3725      3715      3425      3435
 -1      1687    1    0    1
 -2      3725      3715      3425      3435      3726      3716      3426      3436
 -1      1688    1    0    1
 -2      3726      3716      3426      3436      3727      3717      3427      3437
 -1      1689    1    0    1
 -2      3727      3717      3427      3437      3728      3718      3428      3438
 -1      1690    1    0    1
 -2      3728      3718      3428      3438      3729      3719      3429      3439
 -1      1691    1    0    1
 -2      3729      3719      3429      3439      3730      3720      3430      3440
 -1      1692    1    0    1
 -2      3730      3720      3430      3440      3731      3721      3431      3441
 -1      1693    1    0    1
 -2      3731      3721      3431      3441      3732      3722      3432      3442
 -1      1694    1    0    1
 -2      3732      3722      3432      3442      2342      2341      2312      2313
 -1      1695    1    0    1
 -2       342       341       312       313      3733      3723      3433      3443
 -1      1696    1    0    1
 -2      3733      3723      3433      3443      3734      3724      3434      3444
 -1      1697    1    0    1
 -2      3734      3724      3434      3444      3735      3725      3435      3445
 -1      1698    1    0    1
 -2      3735      3725      3435      3445      3736      3726      3436      3446
 -1      1699    1    0    1
 -2      3736      3726      3436      3446      3737      3727      3437      3447
 -1      1700    1    0    1
 -2      3737      3727      3437      3447      3738      3728      3438      3448
 -1      1701    1    0    1
 -2      3738      3728      3438      3448      3739      3729      3439      3449
 -1      1702    1    0    1
 -2      3739      3729      3439      3449      3740      3730      3440      3450
 -1      1703    1    0    1
 -2      3740      3730      3440      3450      3741      3731      3441      3451
 -1      1704    1    0    1
 -2      3741      3731      3441      3451      3742      3732      3442      3452
 -1      1705    1    0    1
 -2      3742      3732      3442      3452      2343      2342      2313      2314
 -1      1706    1    0    1
 -2       343       342       313       314      3743      3733      3443      3453
 -1      1707    1    0    1
 -2      3743      3733      3443      3453      3744      3734      3444      3454
 -1      1708    1    0    1
 -2      3744      3734      3444      3454      3745      3735      3445      3455
 -1      1709    1    0    1
 -2      3745      3735      3445      3455      3746      3736      3446      3456
 -1      1710    1    0    1
 -2      3746      3736      3446      3456      3747      3737      3447      3457
 -1      1711    1    0    1
 -2      3747      3737      3447      3457      3748      3738      3448      3458
 -1      1712    1    0    1
 -2      3748      3738      3448      3458      3749      3739      3449      3459
 -1      1713    1    0    1
 -2      3749      3739      3449      3459      3750      3740      3450      3460
 -1      1714    1    0    1
 -2      3750      3740      3450      3460      3751      3741      3451      3461
 -1      1715    1    0    1
 -2      3751      3741      3451      3461      3752      3742      3452      3462
 -1      1716    1    0    1
 -2      3752      3742      3452      3462      2344      2343      2314      2315
 -1      1717    1    0    1
 -2       344       343       314       315      3753      3743      3453      3463
 -1      1718    1    0    1
 -2      3753      3743      3453      3463      3754      3744      3454      3464
 -1      1719    1    0    1
 -2      3754      3744      3454      3464      3755      3745      3455      3465
 -1      1720    1    0    1
 -2      3755      3745      3455      3465      3756      3746      3456      3466
 -1      1721    1    0    1
 -2      3756      3746      3456      3466      3757      3747      3457      3467
 -1      1722    1    0    1
 -2      3757      3747      3457      3467      3758      3748      3458      3468
 -1      1723    1    0    1
 -2      3758      3748      3458      3468      3759      3749      3459      3469
 -1      1724    1    0    1
 -2      3759      3749      3459      3469      3760      3750      3460      3470
 -1      1725    1    0    1
 -2      3760      3750      3460      3470      3761      3751      3461      3471
 -1      1726    1    0    1
 -2      3761      3751      3461      3471      3762      3752      3462      3472
 -1      1727    1    0    1
 -2      3762      3752      3462      3472      2345      2344      2315      2316
 -1      1728    1    0    1
 -2       345       344       315       316      3763      3753      3463      3473
 -1      1729    1    0    1
 -2      3763      3753      3463      3473      3764      3754      3464      3474
 -1      1730    1    0    1
 -2      3764      3754      3464      3474      3765      3755      3465      3475
 -1      1731    1    0    1
 -2      3765      3755      3465      3475      3766      3756      3466      3476
 -1      1732    1    0    1
 -2      3766      3756      3466      3476      3767      3757      3467      3477
 -1      1733    1    0    1
 -2      3767      3757      3467      3477      3768      3758      3468      3478
 -1      1734    1    0    1
 -2      3768      3758      3468      3478      3769      3759      3469      3479
 -1      1735    1    0    1
 -2      3769      3759      3469      3479      3770      3760      3470      3480
 -1      1736    1    0    1
 -2      3770      3760      3470      3480      3771      3761      3471      3481
 -1      1737    1    0    1
 -2      3771      3761      3471      3481      3772      3762      3472      3482
 -1      1738    1    0    1
 -2      3772      3762      3472      3482      2346      2345      2316      2317
 -1      1739    1    0    1
 -2       346       345       316       317      3773      3763      3473      3483
 -1      1740    1    0    1
 -2      3773      3763      3473      3483      3774      3764      3474      3484
 -1      1741    1    0    1
 -2      3774      3764      3474      3484      3775      3765      3475      3485
 -1      1742    1    0    1
 -2      3775      3765      3475      3485      3776      3766      3476      3486
 -1      1743    1    0    1
 -2      3776      3766      3476      3486      3777      3767      3477      3487
 -1      1744    1    0    1
 -2      3777      3767      3477      3487      3778      3768      3478      3488
 -1      1745    1    0    1
 -2      3778      3768      3478      3488      3779      3769      3479      3489
 -1      1746    1    0    1
 -2      3779      3769      3479      3489      3780      3770      3480      3490
 -1      1747    1    0    1
 -2      3780      3770      3480      3490      3781      3771      3481      3491
 -1      1748    1    0    1
 -2      3781      3771      3481      3491      3782      3772      3482      3492
 -1      1749    1    0    1
 -2      3782      3772      3482      3492      2347      2346      2317      2318
 -1      1750    1    0    1
 -2       347       346       317       318      3783      3773      3483      3493
 -1      1751    1    0    1
 -2      3783      3773      3483      3493      3784      3774      3484      3494
 -1      1752    1    0    1
 -2      3784      3774      3484      3494      3785      3775      3485      3495
 -1      1753    1    0    1
 -2      3785      3775      3485      3495      3786      3776      3486      3496
 -1      1754    1    0    1
 -2      3786      3776      3486      3496      3787      3777      3487      3497
 -1      1755    1    0    1
 -2      3787      3777      3487      3497      3788      3778      3488      3498
 -1      1756    1    0    1
 -2      3788      3778      3488      3498      3789      3779      3489      3499
 -1      1757    1    0    1
 -2      3789      3779      3489      3499      3790      3780      3490      3500
 -1      1758    1    0    1
 -2      3790      3780      3490      3500      3791      3781      3491      3501
 -1      1759    1    0    1
 -2      3791      3781      3491      3501      3792      3782      3492      3502
 -1      1760    1    0    1
 -2      3792      3782      3492      3502      2348      2347      2318      2319
 -1      1761    1    0    1
 -2       348       347       318       319      3793      3783      3493      3503
 -1      1762    1    0    1
 -2      3793      3783      3493      3503      3794      3784      3494      3504
 -1      1763    1    0    1
 -2      3794      3784      3494      3504      3795      3785      3495      3505
 -1      1764    1    0    1
 -2      3795      3785      3495      3505      3796      3786      3496      3506
 -1      1765    1    0    1
 -2      3796      3786      3496      3506      3797      3787      3497      3507
 -1      1766    1    0    1
 -2      3797      3787      3497      3507      3798      3788      3498      3508
 -1      1767    1    0    1
 -2      3798      3788      3498      3508      3799      3789      3499      3509
 -1      1768    1    0    1
 -2      3799      3789      3499      3509      3800      3790      3500      3510
 -1      1769    1    0    1
 -2      3800      3790      3500      3510      3801      3791      3501      3511
 -1      1770    1    0    1
 -2      3801      3791      3501      3511      3802      3792      3502      3512
 -1      1771    1    0    1
 -2      3802      3792      3502      3512      2349      2348      2319      2320
 -1      1772    1    0    1
 -2       349       348       319       320      3803      3793      3503      3513
 -1      1773    1    0    1
 -2      3803      3793      3503      3513      3804      3794      3504      3514
 -1      1774    1    0    1
 -2      3804      3794      3504      3514      3805      3795      3505      3515
 -1      1775    1    0    1
 -2      3805      3795      3505      3515      3806      3796      3506      3516
 -1      1776    1    0    1
 -2      3806      3796      3506      3516      3807      3797      3507      3517
 -1      1777    1    0    1
 -2      3807      3797      3507      3517      3808      3798      3508      3518
 -1      1778    1    0    1
 -2      3808      3798      3508      3518      3809      3799      3509      3519
 -1      1779    1    0    1
 -2      3809      3799      3509      3519      3810      3800      3510      3520
 -1      1780    1    0    1
 -2      3810      3800      3510      3520      3811      3801      3511      3521
 -1      1781    1    0    1
 -2      3811      3801      3511      3521      3812      3802      3512      3522
 -1      1782    1    0    1
 -2      3812      3802      3512      3522      2350      2349      2320      2321
 -1      1783    1    0    1
 -2       350       349       320       321      3813      3803      3513      3523
 -1      1784    1    0    1
 -2      3813      3803      3513      3523      3814      3804      3514      3524
 -1      1785    1    0    1
 -2      3814      3804      3514      3524      3815      3805      3515      3525
 -1      1786    1    0    1
 -2      3815      3805      3515      3525      3816      3806      3516      3526
 -1      1787    1    0    1
 -2      3816      3806      3516      3526      3817      3807      3517      3527
 -1      1788    1    0    1
 -2      3817      3807      3517      3527      3818      3808      3518      3528
 -1      1789    1    0    1
 -2      3818      3808      3518      3528      3819      3809      3519      3529
 -1      1790    1    0    1
 -2      3819      3809      3519      3529      3820      3810      3520      3530
 -1      1791    1    0    1
 -2      3820      3810      3520      3530      3821      3811      3521      3531
 -1      1792    1    0    1
 -2      3821      3811      3521      3531      3822      3812      3522      3532
 -1      1793    1    0    1
 -2      3822      3812      3522      3532      2351      2350      2321      2322
 -1      1794    1    0    1
 -2       351       350       321       322      3823      3813      3523      3533
 -1      1795    1    0    1
 -2      3823      3813      3523      3533      3824      3814      3524      3534
 -1      1796    1    0    1
 -2      3824      3814      3524      3534      3825      3815      3525      3535
 -1      1797    1    0    1
 -2      3825      3815      3525      3535      3826      3816      3526      3536
 -1      1798    1    0    1
 -2      3826      3816      3526      3536      3827      3817      3527      3537
 -1      1799    1    0    1
 -2      3827      3817      3527      3537      3828      3818      3528      3538
 -1      1800    1    0    1
 -2      3828      3818      3528      3538      3829      3819      3529      3539
 -1      1801    1    0    1
 -2      3829      3819      3529      3539      3830      3820      3530      3540
 -1      1802    1    0    1
 -2      3830      3820      3530      3540      3831      3821      3531      3541
 -1      1803    1    0    1
 -2      3831      3821      3531      3541      3832      3822      3532      3542
 -1      1804    1    0    1
 -2      3832      3822      3532      3542      2352      2351      2322      2323
 -1      1805    1    0    1
 -2       352       351       322       323      3833      3823      3533      3543
 -1      1806    1    0    1
 -2      3833      3823      3533      3543      3834      3824      3534      3544
 -1      1807    1    0    1
 -2      3834      3824      3534      3544      3835      3825      3535      3545
 -1      1808    1    0    1
 -2      3835      3825      3535      3545      3836      3826      3536      3546
 -1      1809    1    0    1
 -2      3836      3826      3536      3546      3837      3827      3537      3547
 -1      1810    1    0    1
 -2      3837      3827      3537      3547      3838      3828      3538      3548
 -1      1811    1    0    1
 -2      3838      3828      3538      3548      3839      3829      3539      3549
 -1      1812    1    0    1
 -2      3839      3829      3539      3549      3840      3830      3540      3550
 -1      1813    1    0    1
 -2      3840      3830      3540      3550      3841      3831      3541      3551
 -1      1814    1    0    1
 -2      3841      3831      3541      3551      3842      3832      3542      3552
 -1      1815    1    0    1
 -2      3842      3832      3542      3552      2353      2352      2323      2324
 -1      1816    1    0    1
 -2       353       352       323       324      3843      3833      3543      3553
 -1      1817    1    0    1
 -2      3843      3833      3543      3553      3844      3834      3544      3554
 -1      1818    1    0    1
 -2      3844      3834      3544      3554      3845      3835      3545      3555
 -1      1819    1    0    1
 -2      3845      3835      3545      3555      3846      3836      3546      3556
 -1      1820    1    0    1
 -2      3846      3836      3546      3556      3847      3837      3547      3557
 -1      1821    1    0    1
 -2      3847      3837      3547      3557      3848      3838      3548      3558
 -1      1822    1    0    1
 -2      3848      3838      3548      3558      3849      3839      3549      3559
 -1      1823    1    0    1
 -2      3849      3839      3549      3559      3850      3840      3550      3560
 -1      1824    1    0    1
 -2      3850      3840      3550      3560      3851      3841      3551      3561
 -1      1825    1    0    1
 -2      3851      3841      3551      3561      3852      3842      3552      3562
 -1      1826    1    0    1
 -2      3852      3842      3552      3562      2354      2353      2324      2325
 -1      1827    1    0    1
 -2       354       353       324       325      3853      3843      3553      3563
 -1      1828    1    0    1
 -2      3853      3843      3553      3563      3854      3844      3554      3564
 -1      1829    1    0    1
 -2      3854      3844      3554      3564      3855      3845      3555      3565
 -1      1830    1    0    1
 -2      3855      3845      3555      3565      3856      3846      3556      3566
 -1      1831    1    0    1
 -2      3856      3846      3556      3566      3857      3847      3557      3567
 -1      1832    1    0    1
 -2      3857      3847      3557      3567      3858      3848      3558      3568
 -1      1833    1    0    1
 -2      3858      3848      3558      3568      3859      3849      3559      3569
 -1      1834    1    0    1
 -2      3859      3849      3559      3569      3860      3850      3560      3570
 -1      1835    1    0    1
 -2      3860      3850      3560      3570      3861      3851      3561      3571
 -1      1836    1    0    1
 -2      3861      3851      3561      3571      3862      3852      3562      3572
 -1      1837    1    0    1
 -2      3862      3852      3562      3572      2355      2354      2325      2326
 -1      1838    1    0    1
 -2       355       354       325       326      3863      3853      3563      3573
 -1      1839    1    0    1
 -2      3863      3853      3563      3573      3864      3854      3564      3574
 -1      1840    1    0    1
 -2      3864      3854      3564      3574      3865      3855      3565      3575
 -1      1841    1    0    1
 -2      3865      3855      3565      3575      3866      3856      3566      3576
 -1      1842    1    0    1
 -2      3866      3856      3566      3576      3867      3857      3567      3577
 -1      1843    1    0    1
 -2      3867      3857      3567      3577      3868      3858      3568      3578
 -1      1844    1    0    1
 -2      3868      3858      3568      3578      3869      3859      3569      3579
 -1      1845    1    0    1
 -2      3869      3859      3569      3579      3870      3860      3570      3580
 -1      1846    1    0    1
 -2      3870      3860      3570      3580      3871      3861      3571      3581
 -1      1847    1    0    1
 -2      3871      3861      3571      3581      3872      3862      3572      3582
 -1      1848    1    0    1
 -2      3872      3862      3572      3582      2356      2355      2326      2327
 -1      1849    1    0    1
 -2       356       355       326       327      3873      3863      3573      3583
 -1      1850    1    0    1
 -2      3873      3863      3573      3583      3874      3864      3574      3584
 -1      1851    1    0    1
 -2      3874      3864      3574      3584      3875      3865      3575      3585
 -1      1852    1    0    1
 -2      3875      3865      3575      3585      3876      3866      3576      3586
 -1      1853    1    0    1
 -2      3876      3866      3576      3586      3877      3867      3577      3587
 -1      1854    1    0    1
 -2      3877      3867      3577      3587      3878      3868      3578      3588
 -1      1855    1    0    1
 -2      3878      3868      3578      3588      3879      3869      3579      3589
 -1      1856    1    0    1
 -2      3879      3869      3579      3589      3880      3870      3580      3590
 -1      1857    1    0    1
 -2      3880      3870      3580      3590      3881      3871      3581      3591
 -1      1858    1    0    1
 -2      3881      3871      3581      3591      3882      3872      3582      3592
 -1      1859    1    0    1
 -2      3882      3872      3582      3592      2357      2356      2327      2328
 -1      1860    1    0    1
 -2       357       356       327       328      3883      3873      3583      3593
 -1      1861    1    0    1
 -2      3883      3873      3583      3593      3884      3874      3584      3594
 -1      1862    1    0    1
 -2      3884      3874      3584      3594      3885      3875      3585      3595
 -1      1863    1    0    1
 -2      3885      3875      3585      3595      3886      3876      3586      3596
 -1      1864    1    0    1
 -2      3886      3876      3586      3596      3887      3877      3587      3597
 -1      1865    1    0    1
 -2      3887      3877      3587      3597      3888      3878      3588      3598
 -1      1866    1    0    1
 -2      3888      3878      3588      3598      3889      3879      3589      3599
 -1      1867    1    0    1
 -2      3889      3879      3589      3599      3890      3880      3590      3600
 -1      1868    1    0    1
 -2      3890      3880      3590      3600      3891      3881      3591      3601
 -1      1869    1    0    1
 -2      3891      3881      3591      3601      3892      3882      3592      3602
 -1      1870    1    0    1
 -2      3892      3882      3592      3602      2358      2357      2328      2329
 -1      1871    1    0    1
 -2       358       357       328       329      3893      3883      3593      3603
 -1      1872    1    0    1
 -2      3893      3883      3593      3603      3894      3884      3594      3604
 -1      1873    1    0    1
 -2      3894      3884      3594      3604      3895      3885      3595      3605
 -1      1874    1    0    1
 -2      3895      3885      3595      3605      3896      3886      3596      3606
 -1      1875    1    0    1
 -2      3896      3886      3596      3606      3897      3887      3597      3607
 -1      1876    1    0    1
 -2      3897      3887      3597      3607      3898      3888      3598      3608
 -1      1877    1    0    1
 -2      3898      3888      3598      3608      3899      3889      3599      3609
 -1      1878    1    0    1
 -2      3899      3889      3599      3609      3900      3890      3600      3610
 -1      1879    1    0    1
 -2      3900      3890      3600      3610      3901      3891      3601      3611
 -1      1880    1    0    1
 -2      3901      3891      3601      3611      3902      3892      3602      3612
 -1      1881    1    0    1
 -2      3902      3892      3602      3612      2359      2358      2329      2330
 -1      1882    1    0    1
 -2       359       358       329       330      3903      3893      3603      3613
 -1      1883    1    0    1
 -2      3903      3893      3603      3613      3904      3894      3604      3614
 -1      1884    1    0    1
 -2      3904      3894      3604      3614      3905      3895      3605      3615
 -1      1885    1    0    1
 -2      3905      3895      3605      3615      3906      3896      3606      3616
 -1      1886    1    0    1
 -2      3906      3896      3606      3616      3907      3897      3607      3617
 -1      1887    1    0    1
 -2      3907      3897      3607      3617      3908      3898      3608      3618
 -1      1888    1    0    1
 -2      3908      3898      3608      3618      3909      3899      3609      3619
 -1      1889    1    0    1
 -2      3909      3899      3609      3619      3910      3900      3610      3620
 -1      1890    1    0    1
 -2      3910      3900      3610      3620      3911      3901      3611      3621
 -1      1891    1    0    1
 -2      3911      3901      3611      3621      3912      3902      3612      3622
 -1      1892    1    0    1
 -2      3912      3902      3612      3622      2360      2359      2330      2331
 -1      1893    1    0    1
 -2       360       359       330       331      3913      3903      3613      3623
 -1      1894    1    0    1
 -2      3913      3903      3613      3623      3914      3904      3614      3624
 -1      1895    1    0    1
 -2      3914      3904      3614      3624      3915      3905      3615      3625
 -1      1896    1    0    1
 -2      3915      3905      3615      3625      3916      3906      3616      3626
 -1      1897    1    0    1
 -2      3916      3906      3616      3626      3917      3907      3617      3627
 -1      1898    1    0    1
 -2      3917      3907      3617      3627      3918      3908      3618      3628
 -1      1899    1    0    1
 -2      3918      3908      3618      3628      3919      3909      3619      3629
 -1      1900    1    0    1
 -2      3919      3909      3619      3629      3920      3910      3620      3630
 -1      1901    1    0    1
 -2      3920      3910      3620      3630      3921      3911      3621      3631
 -1      1902    1    0    1
 -2      3921      3911      3621      3631      3922      3912      3622      3632
 -1      1903    1    0    1
 -2      3922      3912      3622      3632      2361      2360      2331      2332
 -1      1904    1    0    1
 -2       361       360       331       332      3923      3913      3623      3633
 -1      1905    1    0    1
 -2      3923      3913      3623      3633      3924      3914      3624      3634
 -1      1906    1    0    1
 -2      3924      3914      3624      3634      3925      3915      3625      3635
 -1      1907    1    0    1
 -2      3925      3915      3625      3635      3926      3916      3626      3636
 -1      1908    1    0    1
 -2      3926      3916      3626      3636      3927      3917      3627      3637
 -1      1909    1    0    1
 -2      3927      3917      3627      3637      3928      3918      3628      3638
 -1      1910    1    0    1
 -2      3928      3918      3628      3638      3929      3919      3629      3639
 -1      1911    1    0    1
 -2      3929      3919      3629      3639      3930      3920      3630      3640
 -1      1912    1    0    1
 -2      3930      3920      3630      3640      3931      3921      3631      3641
 -1      1913    1    0    1
 -2      3931      3921      3631      3641      3932      3922      3632      3642
 -1      1914    1    0    1
 -2      3932      3922      3632      3642      2362      2361      2332      2333
 -1      1915    1    0    1
 -2       362       361       332       333      3933      3923      3633      3643
 -1      1916    1    0    1
 -2      3933      3923      3633      3643      3934      3924      3634      3644
 -1      1917    1    0    1
 -2      3934      3924      3634      3644      3935      3925      3635      3645
 -1      1918    1    0    1
 -2      3935      3925      3635      3645      3936      3926      3636      3646
 -1      1919    1    0    1
 -2      3936      3926      3636      3646      3937      3927      3637      3647
 -1      1920    1    0    1
 -2      3937      3927      3637      3647      3938      3928      3638      3648
 -1      1921    1    0    1
 -2      3938      3928      3638      3648      3939      3929      3639      3649
 -1      1922    1    0    1
 -2      3939      3929      3639      3649      3940      3930      3640      3650
 -1      1923    1    0    1
 -2      3940      3930      3640      3650      3941      3931      3641      3651
 -1      1924    1    0    1
 -2      3941      3931      3641      3651      3942      3932      3642      3652
 -1      1925    1    0    1
 -2      3942      3932      3642      3652      2363      2362      2333      2334
 -1      1926    1    0    1
 -2       363       362       333       334      3943      3933      3643      3653
 -1      1927    1    0    1
 -2      3943      3933      3643      3653      3944      3934      3644      3654
 -1      1928    1    0    1
 -2      3944      3934      3644      3654      3945      3935      3645      3655
 -1      1929    1    0    1
 -2      3945      3935      3645      3655      3946      3936      3646      3656
 -1      1930    1    0    1
 -2      3946      3936      3646      3656      3947      3937      3647      3657
 -1      1931    1    0    1
 -2      3947      3937      3647      3657      3948      3938      3648      3658
 -1      1932    1    0    1
 -2      3948      3938      3648      3658      3949      3939      3649      3659
 -1      1933    1    0    1
 -2      3949      3939      3649      3659      3950      3940      3650      3660
 -1      1934    1    0    1
 -2      3950      3940      3650      3660      3951      3941      3651      3661
 -1      1935    1    0    1
 -2      3951      3941      3651      3661      3952      3942      3652      3662
 -1      1936    1    0    1
 -2      3952      3942      3652      3662      2364      2363      2334      2335
 -1      1937    1    0    1
 -2       364       363       334       335      3953      3943      3653      3663
 -1      1938    1    0    1
 -2      3953      3943      3653      3663      3954      3944      3654      3664
 -1      1939    1    0    1
 -2      3954      3944      3654      3664      3955      3945      3655      3665
 -1      1940    1    0    1
 -2      3955      3945      3655      3665      3956      3946      3656      3666
 -1      1941    1    0    1
 -2      3956      3946      3656      3666      3957      3947      3657      3667
 -1      1942    1    0    1
 -2      3957      3947      3657      3667      3958      3948      3658      3668
 -1      1943    1    0    1
 -2      3958      3948      3658      3668      3959      3949      3659      3669
 -1      1944    1    0    1
 -2      3959      3949      3659      3669      3960      3950      3660      3670
 -1      1945    1    0    1
 -2      3960      3950      3660      3670      3961      3951      3661      3671
 -1      1946    1    0    1
 -2      3961      3951      3661      3671      3962      3952      3662      3672
 -1      1947    1    0    1
 -2      3962      3952      3662      3672      2365      2364      2335      2336
 -1      1948    1    0    1
 -2       365       364       335       336      3963      3953      3663      3673
 -1      1949    1    0    1
 -2      3963      3953      3663      3673      3964      3954      3664      3674
 -1      1950    1    0    1
 -2      3964      3954      3664      3674      3965      3955      3665      3675
 -1      1951    1    0    1
 -2      3965      3955      3665      3675      3966      3956      3666      3676
 -1      1952    1    0    1
 -2      3966      3956      3666      3676      3967      3957      3667      3677
 -1      1953    1    0    1
 -2      3967      3957      3667      3677      3968      3958      3668      3678
 -1      1954    1    0    1
 -2      3968      3958      3668      3678      3969      3959      3669      3679
 -1      1955    1    0    1
 -2      3969      3959      3669      3679      3970      3960      3670      3680
 -1      1956    1    0    1
 -2      3970      3960      3670      3680      3971      3961      3671      3681
 -1      1957    1    0    1
 -2      3971      3961      3671      3681      3972      3962      3672      3682
 -1      1958    1    0    1
 -2      3972      3962      3672      3682      2366      2365      2336      2337
 -1      1959    1    0    1
 -2       366       365       336       337      3973      3963      3673      3683
 -1      1960    1    0    1
 -2      3973      3963      3673      3683      3974      3964      3674      3684
 -1      1961    1    0    1
 -2      3974      3964      3674      3684      3975      3965      3675      3685
 -1      1962    1    0    1
 -2      3975      3965      3675      3685      3976      3966      3676      3686
 -1      1963    1    0    1
 -2      3976      3966      3676      3686      3977      3967      3677      3687
 -1      1964    1    0    1
 -2      3977      3967      3677      3687      3978      3968      3678      3688
 -1      1965    1    0    1
 -2      3978      3968      3678      3688      3979      3969      3679      3689
 -1      1966    1    0    1
 -2      3979      3969      3679      3689      3980      3970      3680      3690
 -1      1967    1    0    1
 -2      3980      3970      3680      3690      3981      3971      3681      3691
 -1      1968    1    0    1
 -2      3981      3971      3681      3691      3982      3972      3682      3692
 -1      1969    1    0    1
 -2      3982      3972      3682      3692      2367      2366      2337      2338
 -1      1970    1    0    1
 -2       367       366       337       338      3983      3973      3683      3693
 -1      1971    1    0    1
 -2      3983      3973      3683      3693      3984      3974      3684      3694
 -1      1972    1    0    1
 -2      3984      3974      3684      3694      3985      3975      3685      3695
 -1      1973    1    0    1
 -2      3985      3975      3685      3695      3986      3976      3686      3696
 -1      1974    1    0    1
 -2      3986      3976      3686      3696      3987      3977      3687      3697
 -1      1975    1    0    1
 -2      3987      3977      3687      3697      3988      3978      3688      3698
 -1      1976    1    0    1
 -2      3988      3978      3688      3698      3989      3979      3689      3699
 -1      1977    1    0    1
 -2      3989      3979      3689      3699      3990      3980      3690      3700
 -1      1978    1    0    1
 -2      3990      3980      3690      3700      3991      3981      3691      3701
 -1      1979    1    0    1
 -2      3991      3981      3691      3701      3992      3982      3692      3702
 -1      1980    1    0    1
 -2      3992      3982      3692      3702      2368      2367      2338      2339
 -1      1981    1    0    1
 -2        93       367       338        94      1962      3983      3693      1972
 -1      1982    1    0    1
 -2      1962      3983      3693      1972      1963      3984      3694      1973
 -1      1983    1    0    1
 -2      1963      3984      3694      1973      1964      3985      3695      1974
 -1      1984    1    0    1
 -2      1964      3985      3695      1974      1965      3986      3696      1975
 -1      1985    1    0    1
 -2      1965      3986      3696      1975      1966      3987      3697      1976
 -1      1986    1    0    1
 -2      1966      3987      3697      1976      1967      3988      3698      1977
 -1      1987    1    0    1
 -2      1967      3988      3698      1977      1968      3989      3699      1978
 -1      1988    1    0    1
 -2      1968      3989      3699      1978      1969      3990      3700      1979
 -1      1989    1    0    1
 -2      1969      3990      3700      1979      1970      3991      3701      1980
 -1      1990    1    0    1
 -2      1970      3991      3701      1980      1971      3992      3702      1981
 -1      1991    1    0    1
 -2      1971      3992      3702      1981       209      2368      2339       210
 -1      1992    1    0    1
 -2       368        12        11       339      3993      1152      1142      3703
 -1      1993    1    0    1
 -2      3993      1152      1142      3703      3994      1153      1143      3704
 -1      1994    1    0    1
 -2      3994      1153      1143      3704      3995      1154      1144      3705
 -1      1995    1    0    1
 -2      3995      1154      1144      3705      3996      1155      1145      3706
 -1      1996    1    0    1
 -2      3996      1155      1145      3706      3997      1156      1146      3707
 -1      1997    1    0    1
 -2      3997      1156      1146      3707      3998      1157      1147      3708
 -1      1998    1    0    1
 -2      3998      1157      1147      3708      3999      1158      1148      3709
 -1      1999    1    0    1
 -2      3999      1158      1148      3709      4000      1159      1149      3710
 -1      2000    1    0    1
 -2      4000      1159      1149      3710      4001      1160      1150      3711
 -1      2001    1    0    1
 -2      4001      1160      1150      3711      4002      1161      1151      3712
 -1      2002    1    0    1
 -2      4002      1161      1151      3712      2369       128       127      2340
 -1      2003    1    0    1
 -2       369       368       339       340      4003      3993      3703      3713
 -1      2004    1    0    1
 -2      4003      3993      3703      3713      4004      3994      3704      3714
 -1      2005    1    0    1
 -2      4004      3994      3704      3714      4005      3995      3705      3715
 -1      2006    1    0    1
 -2      4005      3995      3705      3715      4006      3996      3706      3716
 -1      2007    1    0    1
 -2      4006      3996      3706      3716      4007      3997      3707      3717
 -1      2008    1    0    1
 -2      4007      3997      3707      3717      4008      3998      3708      3718
 -1      2009    1    0    1
 -2      4008      3998      3708      3718      4009      3999      3709      3719
 -1      2010    1    0    1
 -2      4009      3999      3709      3719      4010      4000      3710      3720
 -1      2011    1    0    1
 -2      4010      4000      3710      3720      4011      4001      3711      3721
 -1      2012    1    0    1
 -2      4011      4001      3711      3721      4012      4002      3712      3722
 -1      2013    1    0    1
 -2      4012      4002      3712      3722      2370      2369      2340      2341
 -1      2014    1    0    1
 -2       370       369       340       341      4013      4003      3713      3723
 -1      2015    1    0    1
 -2      4013      4003      3713      3723      4014      4004      3714      3724
 -1      2016    1    0    1
 -2      4014      4004      3714      3724      4015      4005      3715      3725
 -1      2017    1    0    1
 -2      4015      4005      3715      3725      4016      4006      3716      3726
 -1      2018    1    0    1
 -2      4016      4006      3716      3726      4017      4007      3717      3727
 -1      2019    1    0    1
 -2      4017      4007      3717      3727      4018      4008      3718      3728
 -1      2020    1    0    1
 -2      4018      4008      3718      3728      4019      4009      3719      3729
 -1      2021    1    0    1
 -2      4019      4009      3719      3729      4020      4010      3720      3730
 -1      2022    1    0    1
 -2      4020      4010      3720      3730      4021      4011      3721      3731
 -1      2023    1    0    1
 -2      4021      4011      3721      3731      4022      4012      3722      3732
 -1      2024    1    0    1
 -2      4022      4012      3722      3732      2371      2370      2341      2342
 -1      2025    1    0    1
 -2       371       370       341       342      4023      4013      3723      3733
 -1      2026    1    0    1
 -2      4023      4013      3723      3733      4024      4014      3724      3734
 -1      2027    1    0    1
 -2      4024      4014      3724      3734      4025      4015      3725      3735
 -1      2028    1    0    1
 -2      4025      4015      3725      3735      4026      4016      3726      3736
 -1      2029    1    0    1
 -2      4026      4016      3726      3736      4027      4017      3727      3737
 -1      2030    1    0    1
 -2      4027      4017      3727      3737      4028      4018      3728      3738
 -1      2031    1    0    1
 -2      4028      4018      3728      3738      4029      4019      3729      3739
 -1      2032    1    0    1
 -2      4029      4019      3729      3739      4030      4020      3730      3740
 -1      2033    1    0    1
 -2      4030      4020      3730      3740      4031      4021      3731      3741
 -1      2034    1    0    1
 -2      4031      4021      3731      3741      4032      4022      3732      3742
 -1      2035    1    0    1
 -2      4032      4022      3732      3742      2372      2371      2342      2343
 -1      2036    1    0    1
 -2       372       371       342       343      4033      4023      3733      3743
 -1      2037    1    0    1
 -2      4033      4023      3733      3743      4034      4024      3734      3744
 -1      2038    1    0    1
 -2      4034      4024      3734      3744      4035      4025      3735      3745
 -1      2039    1    0    1
 -2      4035      4025      3735      3745      4036      4026      3736      3746
 -1      2040    1    0    1
 -2      4036      4026      3736      3746      4037      4027      3737      3747
 -1      2041    1    0    1
 -2      4037      4027      3737      3747      4038      4028      3738      3748
 -1      2042    1    0    1
 -2      4038      4028      3738      3748      4039      4029      3739      3749
 -1      2043    1    0    1
 -2      4039      4029      3739      3749      4040      4030      3740      3750
 -1      2044    1    0    1
 -2      4040      4030      3740      3750      4041      4031      3741      3751
 -1      2045    1    0    1
 -2      4041      4031      3741      3751      4042      4032      3742      3752
 -1      2046    1    0    1
 -2      4042      4032      3742      3752      2373      2372      2343      2344
 -1      2047    1    0    1
 -2       373       372       343       344      4043      4033      3743      3753
 -1      2048    1    0    1
 -2      4043      4033      3743      3753      4044      4034      3744      3754
 -1      2049    1    0    1
 -2      4044      4034      3744      3754      4045      4035      3745      3755
 -1      2050    1    0    1
 -2      4045      4035      3745      3755      4046      4036      3746      3756
 -1      2051    1    0    1
 -2      4046      4036      3746      3756      4047      4037      3747      3757
 -1      2052    1    0    1
 -2      4047      4037      3747      3757      4048      4038      3748      3758
 -1      2053    1    0    1
 -2      4048      4038      3748      3758      4049      4039      3749      3759
 -1      2054    1    0    1
 -2      4049      4039      3749      3759      4050      4040      3750      3760
 -1      2055    1    0    1
 -2      4050      4040      3750      3760      4051      4041      3751      3761
 -1      2056    1    0    1
 -2      4051      4041      3751      3761      4052      4042      3752      3762
 -1      2057    1    0    1
 -2      4052      4042      3752      3762      2374      2373      2344      2345
 -1      2058    1    0    1
 -2       374       373       344       345      4053      4043      3753      3763
 -1      2059    1    0    1
 -2      4053      4043      3753      3763      4054      4044      3754      3764
 -1      2060    1    0    1
 -2      4054      4044      3754      3764      4055      4045      3755      3765
 -1      2061    1    0    1
 -2      4055      4045      3755      3765      4056      4046      3756      3766
 -1      2062    1    0    1
 -2      4056      4046      3756      3766      4057      4047      3757      3767
 -1      2063    1    0    1
 -2      4057      4047      3757      3767      4058      4048      3758      3768
 -1      2064    1    0    1
 -2      4058      4048      3758      3768      4059      4049      3759      3769
 -1      2065    1    0    1
 -2      4059      4049      3759      3769      4060      4050      3760      3770
 -1      2066    1    0    1
 -2      4060      4050      3760      3770      4061      4051      3761      3771
 -1      2067    1    0    1
 -2      4061      4051      3761      3771      4062      4052      3762      3772
 -1      2068    1    0    1
 -2      4062      4052      3762      3772      2375      2374      2345      2346
 -1      2069    1    0    1
 -2       375       374       345       346      4063      4053      3763      3773
 -1      2070    1    0    1
 -2      4063      4053      3763      3773      4064      4054      3764      3774
 -1      2071    1    0    1
 -2      4064      4054      3764      3774      4065      4055      3765      3775
 -1      2072    1    0    1
 -2      4065      4055      3765      3775      4066      4056      3766      3776
 -1      2073    1    0    1
 -2      4066      4056      3766      3776      4067      4057      3767      3777
 -1      2074    1    0    1
 -2      4067      4057      3767      3777      4068      4058      3768      3778
 -1      2075    1    0    1
 -2      4068      4058      3768      3778      4069      4059      3769      3779
 -1      2076    1    0    1
 -2      4069      4059      3769      3779      4070      4060      3770      3780
 -1      2077    1    0    1
 -2      4070      4060      3770      3780      4071      4061      3771      3781
 -1      2078    1    0    1
 -2      4071      4061      3771      3781      4072      4062      3772      3782
 -1      2079    1    0    1
 -2      4072      4062      3772      3782      2376      2375      2346      2347
 -1      2080    1    0    1
 -2       376       375       346       347      4073      4063      3773      3783
 -1      2081    1    0    1
 -2      4073      4063      3773      3783      4074      4064      3774      3784
 -1      2082    1    0    1
 -2      4074      4064      3774      3784      4075      4065      3775      3785
 -1      2083    1    0    1
 -2      4075      4065      3775      3785      4076      4066      3776      3786
 -1      2084    1    0    1
 -2      4076      4066      3776      3786      4077      4067      3777      3787
 -1      2085    1    0    1
 -2      4077      4067      3777      3787      4078      4068      3778      3788
 -1      2086    1    0    1
 -2      4078      4068      3778      3788      4079      4069      3779      3789
 -1      2087    1    0    1
 -2      4079      4069      3779      3789      4080      4070      3780      3790
 -1      2088    1    0    1
 -2      4080      4070      3780      3790      4081      4071      3781      3791
 -1      2089    1    0    1
 -2      4081      4071      3781      3791      4082      4072      3782      3792
 -1      2090    1    0    1
 -2      4082      4072      3782      3792      2377      2376      2347      2348
 -1      2091    1    0    1
 -2       377       376       347       348      4083      4073      3783      3793
 -1      2092    1    0    1
 -2      4083      4073      3783      3793      4084      4074      3784      3794
 -1      2093    1    0    1
 -2      4084      4074      3784      3794      4085      4075      3785      3795
 -1      2094    1    0    1
 -2      4085      4075      3785      3795      4086      4076      3786      3796
 -1      2095    1    0    1
 -2      4086      4076      3786      3796      4087      4077      3787      3797
 -1      2096    1    0    1
 -2      4087      4077      3787      3797      4088      4078      3788      3798
 -1      2097    1    0    1
 -2      4088      4078      3788      3798      4089      4079      3789      3799
 -1      2098    1    0    1
 -2      4089      4079      3789      3799      4090      4080      3790      3800
 -1      2099    1    0    1
 -2      4090      4080      3790      3800      4091      4081      3791      3801
 -1      2100    1    0    1
 -2      4091      4081      3791      3801      4092      4082      3792      3802
 -1      2101    1    0    1
 -2      4092      4082      3792      3802      2378      2377      2348      2349
 -1      2102    1    0    1
 -2       378       377       348       349      4093      4083      3793      3803
 -1      2103    1    0    1
 -2      4093      4083      3793      3803      4094      4084      3794      3804
 -1      2104    1    0    1
 -2      4094      4084      3794      3804      4095      4085      3795      3805
 -1      2105    1    0    1
 -2      4095      4085      3795      3805      4096      4086      3796      3806
 -1      2106    1    0    1
 -2      4096      4086      3796      3806      4097      4087      3797      3807
 -1      2107    1    0    1
 -2      4097      4087      3797      3807      4098      4088      3798      3808
 -1      2108    1    0    1
 -2      4098      4088      3798      3808      4099      4089      3799      3809
 -1      2109    1    0    1
 -2      4099      4089      3799      3809      4100      4090      3800      3810
 -1      2110    1    0    1
 -2      4100      4090      3800      3810      4101      4091      3801      3811
 -1      2111    1    0    1
 -2      4101      4091      3801      3811      4102      4092      3802      3812
 -1      2112    1    0    1
 -2      4102      4092      3802      3812      2379      2378      2349      2350
 -1      2113    1    0    1
 -2       379       378       349       350      4103      4093      3803      3813
 -1      2114    1    0    1
 -2      4103      4093      3803      3813      4104      4094      3804      3814
 -1      2115    1    0    1
 -2      4104      4094      3804      3814      4105      4095      3805      3815
 -1      2116    1    0    1
 -2      4105      4095      3805      3815      4106      4096      3806      3816
 -1      2117    1    0    1
 -2      4106      4096      3806      3816      4107      4097      3807      3817
 -1      2118    1    0    1
 -2      4107      4097      3807      3817      4108      4098      3808      3818
 -1      2119    1    0    1
 -2      4108      4098      3808      3818      4109      4099      3809      3819
 -1      2120    1    0    1
 -2      4109      4099      3809      3819      4110      4100      3810      3820
 -1      2121    1    0    1
 -2      4110      4100      3810      3820      4111      4101      3811      3821
 -1      2122    1    0    1
 -2      4111      4101      3811      3821      4112      4102      3812      3822
 -1      2123    1    0    1
 -2      4112      4102      3812      3822      2380      2379      2350      2351
 -1      2124    1    0    1
 -2       380       379       350       351      4113      4103      3813      3823
 -1      2125    1    0    1
 -2      4113      4103      3813      3823      4114      4104      3814      3824
 -1      2126    1    0    1
 -2      4114      4104      3814      3824      4115      4105      3815      3825
 -1      2127    1    0    1
 -2      4115      4105      3815      3825      4116      4106      3816      3826
 -1      2128    1    0    1
 -2      4116      4106      3816      3826      4117      4107      3817      3827
 -1      2129    1    0    1
 -2      4117      4107      3817      3827      4118      4108      3818      3828
 -1      2130    1    0    1
 -2      4118      4108      3818      3828      4119      4109      3819      3829
 -1      2131    1    0    1
 -2      4119      4109      3819      3829      4120      4110      3820      3830
 -1      2132    1    0    1
 -2      4120      4110      3820      3830      4121      4111      3821      3831
 -1      2133    1    0    1
 -2      4121      4111      3821      3831      4122      4112      3822      3832
 -1      2134    1    0    1
 -2      4122      4112      3822      3832      2381      2380      2351      2352
 -1      2135    1    0    1
 -2       381       380       351       352      4123      4113      3823      3833
 -1      2136    1    0    1
 -2      4123      4113      3823      3833      4124      4114      3824      3834
 -1      2137    1    0    1
 -2      4124      4114      3824      3834      4125      4115      3825      3835
 -1      2138    1    0    1
 -2      4125      4115      3825      3835      4126      4116      3826      3836
 -1      2139    1    0    1
 -2      4126      4116      3826      3836      4127      4117      3827      3837
 -1      2140    1    0    1
 -2      4127      4117      3827      3837      4128      4118      3828      3838
 -1      2141    1    0    1
 -2      4128      4118      3828      3838      4129      4119      3829      3839
 -1      2142    1    0    1
 -2      4129      4119      3829      3839      4130      4120      3830      3840
 -1      2143    1    0    1
 -2      4130      4120      3830      3840      4131      4121      3831      3841
 -1      2144    1    0    1
 -2      4131      4121      3831      3841      4132      4122      3832      3842
 -1      2145    1    0    1
 -2      4132      4122      3832      3842      2382      2381      2352      2353
 -1      2146    1    0    1
 -2       382       381       352       353      4133      4123      3833      3843
 -1      2147    1    0    1
 -2      4133      4123      3833      3843      4134      4124      3834      3844
 -1      2148    1    0    1
 -2      4134      4124      3834      3844      4135      4125      3835      3845
 -1      2149    1    0    1
 -2      4135      4125      3835      3845      4136      4126      3836      3846
 -1      2150    1    0    1
 -2      4136      4126      3836      3846      4137      4127      3837      3847
 -1      2151    1    0    1
 -2      4137      4127      3837      3847      4138      4128      3838      3848
 -1      2152    1    0    1
 -2      4138      4128      3838      3848      4139      4129      3839      3849
 -1      2153    1    0    1
 -2      4139      4129      3839      3849      4140      4130      3840      3850
 -1      2154    1    0    1
 -2      4140      4130      3840      3850      4141      4131      3841      3851
 -1      2155    1    0    1
 -2      4141      4131      3841      3851      4142      4132      3842      3852
 -1      2156    1    0    1
 -2      4142      4132      3842      3852      2383      2382      2353      2354
 -1      2157    1    0    1
 -2       383       382       353       354      4143      4133      3843      3853
 -1      2158    1    0    1
 -2      4143      4133      3843      3853      4144      4134      3844      3854
 -1      2159    1    0    1
 -2      4144      4134      3844      3854      4145      4135      3845      3855
 -1      2160    1    0    1
 -2      4145      4135      3845      3855      4146      4136      3846      3856
 -1      2161    1    0    1
 -2      4146      4136      3846      3856      4147      4137      3847      3857
 -1      2162    1    0    1
 -2      4147      4137      3847      3857      4148      4138      3848      3858
 -1      2163    1    0    1
 -2      4148      4138      3848      3858      4149      4139      3849      3859
 -1      2164    1    0    1
 -2      4149      4139      3849      3859      4150      4140      3850      3860
 -1      2165    1    0    1
 -2      4150      4140      3850      3860      4151      4141      3851      3861
 -1      2166    1    0    1
 -2      4151      4141      3851      3861      4152      4142      3852      3862
 -1      2167    1    0    1
 -2      4152      4142      3852      3862      2384      2383      2354      2355
 -1      2168    1    0    1
 -2       384       383       354       355      4153      4143      3853      3863
 -1      2169    1    0    1
 -2      4153      4143      3853      3863      4154      4144      3854      3864
 -1      2170    1    0    1
 -2      4154      4144      3854      3864      4155      4145      3855      3865
 -1      2171    1    0    1
 -2      4155      4145      3855      3865      4156      4146      3856      3866
 -1      2172    1    0    1
 -2      4156      4146      3856      3866      4157      4147      3857      3867
 -1      2173    1    0    1
 -2      4157      4147      3857      3867      4158      4148      3858      3868
 -1      2174    1    0    1
 -2      4158      4148      3858      3868      4159      4149      3859      3869
 -1      2175    1    0    1
 -2      4159      4149      3859      3869      4160      4150      3860      3870
 -1      2176    1    0    1
 -2      4160      4150      3860      3870      4161      4151      3861      3871
 -1      2177    1    0    1
 -2      4161      4151      3861      3871      4162      4152      3862      3872
 -1      2178    1    0    1
 -2      4162      4152      3862      3872      2385      2384      2355      2356
 -1      2179    1    0    1
 -2       385       384       355       356      4163      4153      3863      3873
 -1      2180    1    0    1
 -2      4163      4153      3863      3873      4164      4154      3864      3874
 -1      2181    1    0    1
 -2      4164      4154      3864      3874      4165      4155      3865      3875
 -1      2182    1    0    1
 -2      4165      4155      3865      3875      4166      4156      3866      3876
 -1      2183    1    0    1
 -2      4166      4156      3866      3876      4167      4157      3867      3877
 -1      2184    1    0    1
 -2      4167      4157      3867      3877      4168      4158      3868      3878
 -1      2185    1    0    1
 -2      4168      4158      3868      3878      4169      4159      3869      3879
 -1      2186    1    0    1
 -2      4169      4159      3869      3879      4170      4160      3870      3880
 -1      2187    1    0    1
 -2      4170      4160      3870      3880      4171      4161      3871      3881
 -1      2188    1    0    1
 -2      4171      4161      3871      3881      4172      4162      3872      3882
 -1      2189    1    0    1
 -2      4172      4162      3872      3882      2386      2385      2356      2357
 -1      2190    1    0    1
 -2       386       385       356       357      4173      4163      3873      3883
 -1      2191    1    0    1
 -2      4173      4163      3873      3883      4174      4164      3874      3884
 -1      2192    1    0    1
 -2      4174      4164      3874      3884      4175      4165      3875      3885
 -1      2193    1    0    1
 -2      4175      4165      3875      3885      4176      4166      3876      3886
 -1      2194    1    0    1
 -2      4176      4166      3876      3886      4177      4167      3877      3887
 -1      2195    1    0    1
 -2      4177      4167      3877      3887      4178      4168      3878      3888
 -1      2196    1    0    1
 -2      4178      4168      3878      3888      4179      4169      3879      3889
 -1      2197    1    0    1
 -2      4179      4169      3879      3889      4180      4170      3880      3890
 -1      2198    1    0    1
 -2      4180      4170      3880      3890      4181      4171      3881      3891
 -1      2199    1    0    1
 -2      4181      4171      3881      3891      4182      4172      3882      3892
 -1      2200    1    0    1
 -2      4182      4172      3882      3892      2387      2386      2357      2358
 -1      2201    1    0    1
 -2       387       386       357       358      4183      4173      3883      3893
 -1      2202    1    0    1
 -2      4183      4173      3883      3893      4184      4174      3884      3894
 -1      2203    1    0    1
 -2      4184      4174      3884      3894      4185      4175      3885      3895
 -1      2204    1    0    1
 -2      4185      4175      3885      3895      4186      4176      3886      3896
 -1      2205    1    0    1
 -2      4186      4176      3886      3896      4187      4177      3887      3897
 -1      2206    1    0    1
 -2      4187      4177      3887      3897      4188      4178      3888      3898
 -1      2207    1    0    1
 -2      4188      4178      3888      3898      4189      4179      3889      3899
 -1      2208    1    0    1
 -2      4189      4179      3889      3899      4190      4180      3890      3900
 -1      2209    1    0    1
 -2      4190      4180      3890      3900      4191      4181      3891      3901
 -1      2210    1    0    1
 -2      4191      4181      3891      3901      4192      4182      3892      3902
 -1      2211    1    0    1
 -2      4192      4182      3892      3902      2388      2387      2358      2359
 -1      2212    1    0    1
 -2       388       387       358       359      4193      4183      3893      3903
 -1      2213    1    0    1
 -2      4193      4183      3893      3903      4194      4184      3894      3904
 -1      2214    1    0    1
 -2      4194      4184      3894      3904      4195      4185      3895      3905
 -1      2215    1    0    1
 -2      4195      4185      3895      3905      4196      4186      3896      3906
 -1      2216    1    0    1
 -2      4196      4186      3896      3906      4197      4187      3897      3907
 -1      2217    1    0    1
 -2      4197      4187      3897      3907      4198      4188      3898      3908
 -1      2218    1    0    1
 -2      4198      4188      3898      3908      4199      4189      3899      3909
 -1      2219    1    0    1
 -2      4199      4189      3899      3909      4200      4190      3900      3910
 -1      2220    1    0    1
 -2      4200      4190      3900      3910      4201      4191      3901      3911
 -1      2221    1    0    1
 -2      4201      4191      3901      3911      4202      4192      3902      3912
 -1      2222    1    0    1
 -2      4202      4192      3902      3912      2389      2388      2359      2360
 -1      2223    1    0    1
 -2       389       388       359       360      4203      4193      3903      3913
 -1      2224    1    0    1
 -2      4203      4193      3903      3913      4204      4194      3904      3914
 -1      2225    1    0    1
 -2      4204      4194      3904      3914      4205      4195      3905      3915
 -1      2226    1    0    1
 -2      4205      4195      3905      3915      4206      4196      3906      3916
 -1      2227    1    0    1
 -2      4206      4196      3906      3916      4207      4197      3907      3917
 -1      2228    1    0    1
 -2      4207      4197      3907      3917      4208      4198      3908      3918
 -1      2229    1    0    1
 -2      4208      4198      3908      3918      4209      4199      3909      3919
 -1      2230    1    0    1
 -2      4209      4199      3909      3919      4210      4200      3910      3920
 -1      2231    1    0    1
 -2      4210      4200      3910      3920      4211      4201      3911      3921
 -1      2232    1    0    1
 -2      4211      4201      3911      3921      4212      4202      3912      3922
 -1      2233    1    0    1
 -2      4212      4202      3912      3922      2390      2389      2360      2361
 -1      2234    1    0    1
 -2       390       389       360       361      4213      4203      3913      3923
 -1      2235    1    0    1
 -2      4213      4203      3913      3923      4214      4204      3914      3924
 -1      2236    1    0    1
 -2      4214      4204      3914      3924      4215      4205      3915      3925
 -1      2237    1    0    1
 -2      4215      4205      3915      3925      4216      4206      3916      3926
 -1      2238    1    0    1
 -2      4216      4206      3916      3926      4217      4207      3917      3927
 -1      2239    1    0    1
 -2      4217      4207      3917      3927      4218      4208      3918      3928
 -1      2240    1    0    1
 -2      4218      4208      3918      3928      4219      4209      3919      3929
 -1      2241    1    0    1
 -2      4219      4209      3919      3929      4220      4210      3920      3930
 -1      2242    1    0    1
 -2      4220      4210      3920      3930      4221      4211      3921      3931
 -1      2243    1    0    1
 -2      4221      4211      3921      3931      4222      4212      3922      3932
 -1      2244    1    0    1
 -2      4222      4212      3922      3932      2391      2390      2361      2362
 -1      2245    1    0    1
 -2       391       390       361       362      4223      4213      3923      3933
 -1      2246    1    0    1
 -2      4223      4213      3923      3933      4224      4214      3924      3934
 -1      2247    1    0    1
 -2      4224      4214      3924      3934      4225      4215      3925      3935
 -1      2248    1    0    1
 -2      4225      4215      3925      3935      4226      4216      3926      3936
 -1      2249    1    0    1
 -2      4226      4216      3926      3936      4227      4217      3927      3937
 -1      2250    1    0    1
 -2      4227      4217      3927      3937      4228      4218      3928      3938
 -1      2251    1    0    1
 -2      4228      4218      3928      3938      4229      4219      3929      3939
 -1      2252    1    0    1
 -2      4229      4219      3929      3939      4230      4220      3930      3940
 -1      2253    1    0    1
 -2      4230      4220      3930      3940      4231      4221      3931      3941
 -1      2254    1    0    1
 -2      4231      4221      3931      3941      4232      4222      3932      3942
 -1      2255    1    0    1
 -2      4232      4222      3932      3942      2392      2391      2362      2363
 -1      2256    1    0    1
 -2       392       391       362       363      4233      4223      3933      3943
 -1      2257    1    0    1
 -2      4233      4223      3933      3943      4234      4224      3934      3944
 -1      2258    1    0    1
 -2      4234      4224      3934      3944      4235      4225      3935      3945
 -1      2259    1    0    1
 -2      4235      4225      3935      3945      4236      4226      3936      3946
 -1      2260    1    0    1
 -2      4236      4226      3936      3946      4237      4227      3937      3947
 -1      2261    1    0    1
 -2      4237      4227      3937      3947      4238      4228      3938      3948
 -1      2262    1    0    1
 -2      4238      4228      3938      3948      4239      4229      3939      3949
 -1      2263    1    0    1
 -2      4239      4229      3939      3949      4240      4230      3940      3950
 -1      2264    1    0    1
 -2      4240      4230      3940      3950      4241      4231      3941      3951
 -1      2265    1    0    1
 -2      4241      4231      3941      3951      4242      4232      3942      3952
 -1      2266    1    0    1
 -2      4242      4232      3942      3952      2393      2392      2363      2364
 -1      2267    1    0    1
 -2       393       392       363       364      4243      4233      3943      3953
 -1      2268    1    0    1
 -2      4243      4233      3943      3953      4244      4234      3944      3954
 -1      2269    1    0    1
 -2      4244      4234      3944      3954      4245      4235      3945      3955
 -1      2270    1    0    1
 -2      4245      4235      3945      3955      4246      4236      3946      3956
 -1      2271    1    0    1
 -2      4246      4236      3946      3956      4247      4237      3947      3957
 -1      2272    1    0    1
 -2      4247      4237      3947      3957      4248      4238      3948      3958
 -1      2273    1    0    1
 -2      4248      4238      3948      3958      4249      4239      3949      3959
 -1      2274    1    0    1
 -2      4249      4239      3949      3959      4250      4240      3950      3960
 -1      2275    1    0    1
 -2      4250      4240      3950      3960      4251      4241      3951      3961
 -1      2276    1    0    1
 -2      4251      4241      3951      3961      4252      4242      3952      3962
 -1      2277    1    0    1
 -2      4252      4242      3952      3962      2394      2393      2364      2365
 -1      2278    1    0    1
 -2       394       393       364       365      4253      4243      3953      3963
 -1      2279    1    0    1
 -2      4253      4243      3953      3963      4254      4244      3954      3964
 -1      2280    1    0    1
 -2      4254      4244      3954      3964      4255      4245      3955      3965
 -1      2281    1    0    1
 -2      4255      4245      3955      3965      4256      4246      3956      3966
 -1      2282    1    0    1
 -2      4256      4246      3956      3966      4257      4247      3957      3967
 -1      2283    1    0    1
 -2      4257      4247      3957      3967      4258      4248      3958      3968
 -1      2284    1    0    1
 -2      4258      4248      3958      3968      4259      4249      3959      3969
 -1      2285    1    0    1
 -2      4259      4249      3959      3969      4260      4250      3960      3970
 -1      2286    1    0    1
 -2      4260      4250      3960      3970      4261      4251      3961      3971
 -1      2287    1    0    1
 -2      4261      4251      3961      3971      4262      4252      3962      3972
 -1      2288    1    0    1
 -2      4262      4252      3962      3972      2395      2394      2365      2366
 -1      2289    1    0    1
 -2       395       394       365       366      4263      4253      3963      3973
 -1      2290    1    0    1
 -2      4263      4253      3963      3973      4264      4254      3964      3974
 -1      2291    1    0    1
 -2      4264      4254      3964      3974      4265      4255      3965      3975
 -1      2292    1    0    1
 -2      4265      4255      3965      3975      4266      4256      3966      3976
 -1      2293    1    0    1
 -2      4266      4256      3966      3976      4267      4257      3967      3977
 -1      2294    1    0    1
 -2      4267      4257      3967      3977      4268      4258      3968      3978
 -1      2295    1    0    1
 -2      4268      4258      3968      3978      4269      4259      3969      3979
 -1      2296    1    0    1
 -2      4269      4259      3969      3979      4270      4260      3970      3980
 -1      2297    1    0    1
 -2      4270      4260      3970      3980      4271      4261      3971      3981
 -1      2298    1    0    1
 -2      4271      4261      3971      3981      4272      4262      3972      3982
 -1      2299    1    0    1
 -2      4272      4262      3972      3982      2396      2395      2366      2367
 -1      2300    1    0    1
 -2       396       395       366       367      4273      4263      3973      3983
 -1      2301    1    0    1
 -2      4273      4263      3973      3983      4274      4264      3974      3984
 -1      2302    1    0    1
 -2      4274      4264      3974      3984      4275      4265      3975      3985
 -1      2303    1    0    1
 -2      4275      4265      3975      3985      4276      4266      3976      3986
 -1      2304    1    0    1
 -2      4276      4266      3976      3986      4277      4267      3977      3987
 -1      2305    1    0    1
 -2      4277      4267      3977      3987      4278      4268      3978      3988
 -1      2306    1    0    1
 -2      4278      4268      3978      3988      4279      4269      3979      3989
 -1      2307    1    0    1
 -2      4279      4269      3979      3989      4280      4270      3980      3990
 -1      2308    1    0    1
 -2      4280      4270      3980      3990      4281      4271      3981      3991
 -1      2309    1    0    1
 -2      4281      4271      3981      3991      4282      4272      3982      3992
 -1      2310    1    0    1
 -2      4282      4272      3982      3992      2397      2396      2367      2368
 -1      2311    1    0    1
 -2        92       396       367        93      1952      4273      3983      1962
 -1      2312    1    0    1
 -2      1952      4273      3983      1962      1953      4274      3984      1963
 -1      2313    1    0    1
 -2      1953      4274      3984      1963      1954      4275      3985      1964
 -1      2314    1    0    1
 -2      1954      4275      3985      1964      1955      4276      3986      1965
 -1      2315    1    0    1
 -2      1955      4276      3986      1965      1956      4277      3987      1966
 -1      2316    1    0    1
 -2      1956      4277      3987      1966      1957      4278      3988      1967
 -1      2317    1    0    1
 -2      1957      4278      3988      1967      1958      4279      3989      1968
 -1      2318    1    0    1
 -2      1958      4279      3989      1968      1959      4280      3990      1969
 -1      2319    1    0    1
 -2      1959      4280      3990      1969      1960      4281      3991      1970
 -1      2320    1    0    1
 -2      1960      4281      3991      1970      1961      4282      3992      1971
 -1      2321    1    0    1
 -2      1961      4282      3992      1971       208      2397      2368       209
 -1      2322    1    0    1
 -2       397        13        12       368      4283      1162      1152      3993
 -1      2323    1    0    1
 -2      4283      1162      1152      3993      4284      1163      1153      3994
 -1      2324    1    0    1
 -2      4284      1163      1153      3994      4285      1164      1154      3995
 -1      2325    1    0    1
 -2      4285      1164      1154      3995      4286      1165      1155      3996
 -1      2326    1    0    1
 -2      4286      1165      1155      3996      4287      1166      1156      3997
 -1      2327    1    0    1
 -2      4287      1166      1156      3997      4288      1167      1157      3998
 -1      2328    1    0    1
 -2      4288      1167      1157      3998      4289      1168      1158      3999
 -1      2329    1    0    1
 -2      4289      1168      1158      3999      4290      1169      1159      4000
 -1      2330    1    0    1
 -2      4290      1169      1159      4000      4291      1170      1160      4001
 -1      2331    1    0    1
 -2      4291      1170      1160      4001      4292      1171      1161      4002
 -1      2332    1    0    1
 -2      4292      1171      1161      4002      2398       129       128      2369
 -1      2333    1    0    1
 -2       398       397       368       369      4293      4283      3993      4003
 -1      2334    1    0    1
 -2      4293      4283      3993      4003      4294      4284      3994      4004
 -1      2335    1    0    1
 -2      4294      4284      3994      4004      4295      4285      3995      4005
 -1      2336    1    0    1
 -2      4295      4285      3995      4005      4296      4286      3996      4006
 -1      2337    1    0    1
 -2      4296      4286      3996      4006      4297      4287      3997      4007
 -1      2338    1    0    1
 -2      4297      4287      3997      4007      4298      4288      3998      4008
 -1      2339    1    0    1
 -2      4298      4288      3998      4008      4299      4289      3999      4009
 -1      2340    1    0    1
 -2      4299      4289      3999      4009      4300      4290      4000      4010
 -1      2341    1    0    1
 -2      4300      4290      4000      4010      4301      4291      4001      4011
 -1      2342    1    0    1
 -2      4301      4291      4001      4011      4302      4292      4002      4012
 -1      2343    1    0    1
 -2      4302      4292      4002      4012      2399      2398      2369      2370
 -1      2344    1    0    1
 -2       399       398       369       370      4303      4293      4003      4013
 -1      2345    1    0    1
 -2      4303      4293      4003      4013      4304      4294      4004      4014
 -1      2346    1    0    1
 -2      4304      4294      4004      4014      4305      4295      4005      4015
 -1      2347    1    0    1
 -2      4305      4295      4005      4015      4306      4296      4006      4016
 -1      2348    1    0    1
 -2      4306      4296      4006      4016      4307      4297      4007      4017
 -1      2349    1    0    1
 -2      4307      4297      4007      4017      4308      4298      4008      4018
 -1      2350    1    0    1
 -2      4308      4298      4008      4018      4309      4299      4009      4019
 -1      2351    1    0    1
 -2      4309      4299      4009      4019      4310      4300      4010      4020
 -1      2352    1    0    1
 -2      4310      4300      4010      4020      4311      4301      4011      4021
 -1      2353    1    0    1
 -2      4311      4301      4011      4021      4312      4302      4012      4022
 -1      2354    1    0    1
 -2      4312      4302      4012      4022      2400      2399      2370      2371
 -1      2355    1    0    1
 -2       400       399       370       371      4313      4303      4013      4023
 -1      2356    1    0    1
 -2      4313      4303      4013      4023      4314      4304      4014      4024
 -1      2357    1    0    1
 -2      4314      4304      4014      4024      4315      4305      4015      4025
 -1      2358    1    0    1
 -2      4315      4305      4015      4025      4316      4306      4016      4026
 -1      2359    1    0    1
 -2      4316      4306      4016      4026      4317      4307      4017      4027
 -1      2360    1    0    1
 -2      4317      4307      4017      4027      4318      4308      4018      4028
 -1      2361    1    0    1
 -2      4318      4308      4018      4028      4319      4309      4019      4029
 -1      2362    1    0    1
 -2      4319      4309      4019      4029      4320      4310      4020      4030
 -1      2363    1    0    1
 -2      4320      4310      4020      4030      4321      4311      4021      4031
 -1      2364    1    0    1
 -2      4321      4311      4021      4031      4322      4312      4022      4032
 -1      2365    1    0    1
 -2      4322      4312      4022      4032      2401      2400      2371      2372
 -1      2366    1    0    1
 -2       401       400       371       372      4323      4313      4023      4033
 -1      2367    1    0    1
 -2      4323      4313      4023      4033      4324      4314      4024      4034
 -1      2368    1    0    1
 -2      4324      4314      4024      4034      4325      4315      4025      4035
 -1      2369    1    0    1
 -2      4325      4315      4025      4035      4326      4316      4026      4036
 -1      2370    1    0    1
 -2      4326      4316      4026      4036      4327      4317      4027      4037
 -1      2371    1    0    1
 -2      4327      4317      4027      4037      4328      4318      4028      4038
 -1      2372    1    0    1
 -2      4328      4318      4028      4038      4329      4319      4029      4039
 -1      2373    1    0    1
 -2      4329      4319      4029      4039      4330      4320      4030      4040
 -1      2374    1    0    1
 -2      4330      4320      4030      4040      4331      4321      4031      4041
 -1      2375    1    0    1
 -2      4331      4321      4031      4041      4332      4322      4032      4042
 -1      2376    1    0    1
 -2      4332      4322      4032      4042      2402      2401      2372      2373
 -1      2377    1    0    1
 -2       402       401       372       373      4333      4323      4033      4043
 -1      2378    1    0    1
 -2      4333      4323      4033      4043      4334      4324      4034      4044
 -1      2379    1    0    1
 -2      4334      4324      4034      4044      4335      4325      4035      4045
 -1      2380    1    0    1
 -2      4335      4325      4035      4045      4336      4326      4036      4046
 -1      2381    1    0    1
 -2      4336      4326      4036      4046      4337      4327      4037      4047
 -1      2382    1    0    1
 -2      4337      4327      4037      4047      4338      4328      4038      4048
 -1      2383    1    0    1
 -2      4338      4328      4038      4048      4339      4329      4039      4049
 -1      2384    1    0    1
 -2      4339      4329      4039      4049      4340      4330      4040      4050
 -1      2385    1    0    1
 -2      4340      4330      4040      4050      4341      4331      4041      4051
 -1      2386    1    0    1
 -2      4341      4331      4041      4051      4342      4332      4042      4052
 -1      2387    1    0    1
 -2      4342      4332      4042      4052      2403      2402      2373      2374
 -1      2388    1    0    1
 -2       403       402       373       374      4343      4333      4043      4053
 -1      2389    1    0    1
 -2      4343      4333      4043      4053      4344      4334      4044      4054
 -1      2390    1    0    1
 -2      4344      4334      4044      4054      4345      4335      4045      4055
 -1      2391    1    0    1
 -2      4345      4335      4045      4055      4346      4336      4046      4056
 -1      2392    1    0    1
 -2      4346      4336      4046      4056      4347      4337      4047      4057
 -1      2393    1    0    1
 -2      4347      4337      4047      4057      4348      4338      4048      4058
 -1      2394    1    0    1
 -2      4348      4338      4048      4058      4349      4339      4049      4059
 -1      2395    1    0    1
 -2      4349      4339      4049      4059      4350      4340      4050      4060
 -1      2396    1    0    1
 -2      4350      4340      4050      4060      4351      4341      4051      4061
 -1      2397    1    0    1
 -2      4351      4341      4051      4061      4352      4342      4052      4062
 -1      2398    1    0    1
 -2      4352      4342      4052      4062      2404      2403      2374      2375
 -1      2399    1    0    1
 -2       404       403       374       375      4353      4343      4053      4063
 -1      2400    1    0    1
 -2      4353      4343      4053      4063      4354      4344      4054      4064
 -1      2401    1    0    1
 -2      4354      4344      4054      4064      4355      4345      4055      4065
 -1      2402    1    0    1
 -2      4355      4345      4055      4065      4356      4346      4056      4066
 -1      2403    1    0    1
 -2      4356      4346      4056      4066      4357      4347      4057      4067
 -1      2404    1    0    1
 -2      4357      4347      4057      4067      4358      4348      4058      4068
 -1      2405    1    0    1
 -2      4358      4348      4058      4068      4359      4349      4059      4069
 -1      2406    1    0    1
 -2      4359      4349      4059      4069      4360      4350      4060      4070
 -1      2407    1    0    1
 -2      4360      4350      4060      4070      4361      4351      4061      4071
 -1      2408    1    0    1
 -2      4361      4351      4061      4071      4362      4352      4062      4072
 -1      2409    1    0    1
 -2      4362      4352      4062      4072      2405      2404      2375      2376
 -1      2410    1    0    1
 -2       405       404       375       376      4363      4353      4063      4073
 -1      2411    1    0    1
 -2      4363      4353      4063      4073      4364      4354      4064      4074
 -1      2412    1    0    1
 -2      4364      4354      4064      4074      4365      4355      4065      4075
 -1      2413    1    0    1
 -2      4365      4355      4065      4075      4366      4356      4066      4076
 -1      2414    1    0    1
 -2      4366      4356      4066      4076      4367      4357      4067      4077
 -1      2415    1    0    1
 -2      4367      4357      4067      4077      4368      4358      4068      4078
 -1      2416    1    0    1
 -2      4368      4358      4068      4078      4369      4359      4069      4079
 -1      2417    1    0    1
 -2      4369      4359      4069      4079      4370      4360      4070      4080
 -1      2418    1    0    1
 -2      4370      4360      4070      4080      4371      4361      4071      4081
 -1      2419    1    0    1
 -2      4371      4361      4071      4081      4372      4362      4072      4082
 -1      2420    1    0    1
 -2      4372      4362      4072      4082      2406      2405      2376      2377
 -1      2421    1    0    1
 -2       406       405       376       377      4373      4363      4073      4083
 -1      2422    1    0    1
 -2      4373      4363      4073      4083      4374      4364      4074      4084
 -1      2423    1    0    1
 -2      4374      4364      4074      4084      4375      4365      4075      4085
 -1      2424    1    0    1
 -2      4375      4365      4075      4085      4376      4366      4076      4086
 -1      2425    1    0    1
 -2      4376      4366      4076      4086      4377      4367      4077      4087
 -1      2426    1    0    1
 -2      4377      4367      4077      4087      4378      4368      4078      4088
 -1      2427    1    0    1
 -2      4378      4368      4078      4088      4379      4369      4079      4089
 -1      2428    1    0    1
 -2      4379      4369      4079      4089      4380      4370      4080      4090
 -1      2429    1    0    1
 -2      4380      4370      4080      4090      4381      4371      4081      4091
 -1      2430    1    0    1
 -2      4381      4371      4081      4091      4382      4372      4082      4092
 -1      2431    1    0    1
 -2      4382      4372      4082      4092      2407      2406      2377      2378
 -1      2432    1    0    1
 -2       407       406       377       378      4383      4373      4083      4093
 -1      2433    1    0    1
 -2      4383      4373      4083      4093      4384      4374      4084      4094
 -1      2434    1    0    1
 -2      4384      4374      4084      4094      4385      4375      4085      4095
 -1      2435    1    0    1
 -2      4385      4375      4085      4095      4386      4376      4086      4096
 -1      2436    1    0    1
 -2      4386      4376      4086      4096      4387      4377      4087      4097
 -1      2437    1    0    1
 -2      4387      4377      4087      4097      4388      4378      4088      4098
 -1      2438    1    0    1
 -2      4388      4378      4088      4098      4389      4379      4089      4099
 -1      2439    1    0    1
 -2      4389      4379      4089      4099      4390      4380      4090      4100
 -1      2440    1    0    1
 -2      4390      4380      4090      4100      4391      4381      4091      4101
 -1      2441    1    0    1
 -2      4391      4381      4091      4101      4392      4382      4092      4102
 -1      2442    1    0    1
 -2      4392      4382      4092      4102      2408      2407      2378      2379
 -1      2443    1    0    1
 -2       408       407       378       379      4393      4383      4093      4103
 -1      2444    1    0    1
 -2      4393      4383      4093      4103      4394      4384      4094      4104
 -1      2445    1    0    1
 -2      4394      4384      4094      4104      4395      4385      4095      4105
 -1      2446    1    0    1
 -2      4395      4385      4095      4105      4396      4386      4096      4106
 -1      2447    1    0    1
 -2      4396      4386      4096      4106      4397      4387      4097      4107
 -1      2448    1    0    1
 -2      4397      4387      4097      4107      4398      4388      4098      4108
 -1      2449    1    0    1
 -2      4398      4388      4098      4108      4399      4389      4099      4109
 -1      2450    1    0    1
 -2      4399      4389      4099      4109      4400      4390      4100      4110
 -1      2451    1    0    1
 -2      4400      4390      4100      4110      4401      4391      4101      4111
 -1      2452    1    0    1
 -2      4401      4391      4101      4111      4402      4392      4102      4112
 -1      2453    1    0    1
 -2      4402      4392      4102      4112      2409      2408      2379      2380
 -1      2454    1    0    1
 -2       409       408       379       380      4403      4393      4103      4113
 -1      2455    1    0    1
 -2      4403      4393      4103      4113      4404      4394      4104      4114
 -1      2456    1    0    1
 -2      4404      4394      4104      4114      4405      4395      4105      4115
 -1      2457    1    0    1
 -2      4405      4395      4105      4115      4406      4396      4106      4116
 -1      2458    1    0    1
 -2      4406      4396      4106      4116      4407      4397      4107      4117
 -1      2459    1    0    1
 -2      4407      4397      4107      4117      4408      4398      4108      4118
 -1      2460    1    0    1
 -2      4408      4398      4108      4118      4409      4399      4109      4119
 -1      2461    1    0    1
 -2      4409      4399      4109      4119      4410      4400      4110      4120
 -1      2462    1    0    1
 -2      4410      4400      4110      4120      4411      4401      4111      4121
 -1      2463    1    0    1
 -2      4411      4401      4111      4121      4412      4402      4112      4122
 -1      2464    1    0    1
 -2      4412      4402      4112      4122      2410      2409      2380      2381
 -1      2465    1    0    1
 -2       410       409       380       381      4413      4403      4113      4123
 -1      2466    1    0    1
 -2      4413      4403      4113      4123      4414      4404      4114      4124
 -1      2467    1    0    1
 -2      4414      4404      4114      4124      4415      4405      4115      4125
 -1      2468    1    0    1
 -2      4415      4405      4115      4125      4416      4406      4116      4126
 -1      2469    1    0    1
 -2      4416      4406      4116      4126      4417      4407      4117      4127
 -1      2470    1    0    1
 -2      4417      4407      4117      4127      4418      4408      4118      4128
 -1      2471    1    0    1
 -2      4418      4408      4118      4128      4419      4409      4119      4129
 -1      2472    1    0    1
 -2      4419      4409      4119      4129      4420      4410      4120      4130
 -1      2473    1    0    1
 -2      4420      4410      4120      4130      4421      4411      4121      4131
 -1      2474    1    0    1
 -2      4421      4411      4121      4131      4422      4412      4122      4132
 -1      2475    1    0    1
 -2      4422      4412      4122      4132      2411      2410      2381      2382
 -1      2476    1    0    1
 -2       411       410       381       382      4423      4413      4123      4133
 -1      2477    1    0    1
 -2      4423      4413      4123      4133      4424      4414      4124      4134
 -1      2478    1    0    1
 -2      4424      4414      4124      4134      4425      4415      4125      4135
 -1      2479    1    0    1
 -2      4425      4415      4125      4135      4426      4416      4126      4136
 -1      2480    1    0    1
 -2      4426      4416      4126      4136      4427      4417      4127      4137
 -1      2481    1    0    1
 -2      4427      4417      4127      4137      4428      4418      4128      4138
 -1      2482    1    0    1
 -2      4428      4418      4128      4138      4429      4419      4129      4139
 -1      2483    1    0    1
 -2      4429      4419      4129      4139      4430      4420      4130      4140
 -1      2484    1    0    1
 -2      4430      4420      4130      4140      4431      4421      4131      4141
 -1      2485    1    0    1
 -2      4431      4421      4131      4141      4432      4422      4132      4142
 -1      2486    1    0    1
 -2      4432      4422      4132      4142      2412      2411      2382      2383
 -1      2487    1    0    1
 -2       412       411       382       383      4433      4423      4133      4143
 -1      2488    1    0    1
 -2      4433      4423      4133      4143      4434      4424      4134      4144
 -1      2489    1    0    1
 -2      4434      4424      4134      4144      4435      4425      4135      4145
 -1      2490    1    0    1
 -2      4435      4425      4135      4145      4436      4426      4136      4146
 -1      2491    1    0    1
 -2      4436      4426      4136      4146      4437      4427      4137      4147
 -1      2492    1    0    1
 -2      4437      4427      4137      4147      4438      4428      4138      4148
 -1      2493    1    0    1
 -2      4438      4428      4138      4148      4439      4429      4139      4149
 -1      2494    1    0    1
 -2      4439      4429      4139      4149      4440      4430      4140      4150
 -1      2495    1    0    1
 -2      4440      4430      4140      4150      4441      4431      4141      4151
 -1      2496    1    0    1
 -2      4441      4431      4141      4151      4442      4432      4142      4152
 -1      2497    1    0    1
 -2      4442      4432      4142      4152      2413      2412      2383      2384
 -1      2498    1    0    1
 -2       413       412       383       384      4443      4433      4143      4153
 -1      2499    1    0    1
 -2      4443      4433      4143      4153      4444      4434      4144      4154
 -1      2500    1    0    1
 -2      4444      4434      4144      4154      4445      4435      4145      4155
 -1      2501    1    0    1
 -2      4445      4435      4145      4155      4446      4436      4146      4156
 -1      2502    1    0    1
 -2      4446      4436      4146      4156      4447      4437      4147      4157
 -1      2503    1    0    1
 -2      4447      4437      4147      4157      4448      4438      4148      4158
 -1      2504    1    0    1
 -2      4448      4438      4148      4158      4449      4439      4149      4159
 -1      2505    1    0    1
 -2      4449      4439      4149      4159      4450      4440      4150      4160
 -1      2506    1    0    1
 -2      4450      4440      4150      4160      4451      4441      4151      4161
 -1      2507    1    0    1
 -2      4451      4441      4151      4161      4452      4442      4152      4162
 -1      2508    1    0    1
 -2      4452      4442      4152      4162      2414      2413      2384      2385
 -1      2509    1    0    1
 -2       414       413       384       385      4453      4443      4153      4163
 -1      2510    1    0    1
 -2      4453      4443      4153      4163      4454      4444      4154      4164
 -1      2511    1    0    1
 -2      4454      4444      4154      4164      4455      4445      4155      4165
 -1      2512    1    0    1
 -2      4455      4445      4155      4165      4456      4446      4156      4166
 -1      2513    1    0    1
 -2      4456      4446      4156      4166      4457      4447      4157      4167
 -1      2514    1    0    1
 -2      4457      4447      4157      4167      4458      4448      4158      4168
 -1      2515    1    0    1
 -2      4458      4448      4158      4168      4459      4449      4159      4169
 -1      2516    1    0    1
 -2      4459      4449      4159      4169      4460      4450      4160      4170
 -1      2517    1    0    1
 -2      4460      4450      4160      4170      4461      4451      4161      4171
 -1      2518    1    0    1
 -2      4461      4451      4161      4171      4462      4452      4162      4172
 -1      2519    1    0    1
 -2      4462      4452      4162      4172      2415      2414      2385      2386
 -1      2520    1    0    1
 -2       415       414       385       386      4463      4453      4163      4173
 -1      2521    1    0    1
 -2      4463      4453      4163      4173      4464      4454      4164      4174
 -1      2522    1    0    1
 -2      4464      4454      4164      4174      4465      4455      4165      4175
 -1      2523    1    0    1
 -2      4465      4455      4165      4175      4466      4456      4166      4176
 -1      2524    1    0    1
 -2      4466      4456      4166      4176      4467      4457      4167      4177
 -1      2525    1    0    1
 -2      4467      4457      4167      4177      4468      4458      4168      4178
 -1      2526    1    0    1
 -2      4468      4458      4168      4178      4469      4459      4169      4179
 -1      2527    1    0    1
 -2      4469      4459      4169      4179      4470      4460      4170      4180
 -1      2528    1    0    1
 -2      4470      4460      4170      4180      4471      4461      4171      4181
 -1      2529    1    0    1
 -2      4471      4461      4171      4181      4472      4462      4172      4182
 -1      2530    1    0    1
 -2      4472      4462      4172      4182      2416      2415      2386      2387
 -1      2531    1    0    1
 -2       416       415       386       387      4473      4463      4173      4183
 -1      2532    1    0    1
 -2      4473      4463      4173      4183      4474      4464      4174      4184
 -1      2533    1    0    1
 -2      4474      4464      4174      4184      4475      4465      4175      4185
 -1      2534    1    0    1
 -2      4475      4465      4175      4185      4476      4466      4176      4186
 -1      2535    1    0    1
 -2      4476      4466      4176      4186      4477      4467      4177      4187
 -1      2536    1    0    1
 -2      4477      4467      4177      4187      4478      4468      4178      4188
 -1      2537    1    0    1
 -2      4478      4468      4178      4188      4479      4469      4179      4189
 -1      2538    1    0    1
 -2      4479      4469      4179      4189      4480      4470      4180      4190
 -1      2539    1    0    1
 -2      4480      4470      4180      4190      4481      4471      4181      4191
 -1      2540    1    0    1
 -2      4481      4471      4181      4191      4482      4472      4182      4192
 -1      2541    1    0    1
 -2      4482      4472      4182      4192      2417      2416      2387      2388
 -1      2542    1    0    1
 -2       417       416       387       388      4483      4473      4183      4193
 -1      2543    1    0    1
 -2      4483      4473      4183      4193      4484      4474      4184      4194
 -1      2544    1    0    1
 -2      4484      4474      4184      4194      4485      4475      4185      4195
 -1      2545    1    0    1
 -2      4485      4475      4185      4195      4486      4476      4186      4196
 -1      2546    1    0    1
 -2      4486      4476      4186      4196      4487      4477      4187      4197
 -1      2547    1    0    1
 -2      4487      4477      4187      4197      4488      4478      4188      4198
 -1      2548    1    0    1
 -2      4488      4478      4188      4198      4489      4479      4189      4199
 -1      2549    1    0    1
 -2      4489      4479      4189      4199      4490      4480      4190      4200
 -1      2550    1    0    1
 -2      4490      4480      4190      4200      4491      4481      4191      4201
 -1      2551    1    0    1
 -2      4491      4481      4191      4201      4492      4482      4192      4202
 -1      2552    1    0    1
 -2      4492      4482      4192      4202      2418      2417      2388      2389
 -1      2553    1    0    1
 -2       418       417       388       389      4493      4483      4193      4203
 -1      2554    1    0    1
 -2      4493      4483      4193      4203      4494      4484      4194      4204
 -1      2555    1    0    1
 -2      4494      4484      4194      4204      4495      4485      4195      4205
 -1      2556    1    0    1
 -2      4495      4485      4195      4205      4496      4486      4196      4206
 -1      2557    1    0    1
 -2      4496      4486      4196      4206      4497      4487      4197      4207
 -1      2558    1    0    1
 -2      4497      4487      4197      4207      4498      4488      4198      4208
 -1      2559    1    0    1
 -2      4498      4488      4198      4208      4499      4489      4199      4209
 -1      2560    1    0    1
 -2      4499      4489      4199      4209      4500      4490      4200      4210
 -1      2561    1    0    1
 -2      4500      4490      4200      4210      4501      4491      4201      4211
 -1      2562    1    0    1
 -2      4501      4491      4201      4211      4502      4492      4202      4212
 -1      2563    1    0    1
 -2      4502      4492      4202      4212      2419      2418      2389      2390
 -1      2564    1    0    1
 -2       419       418       389       390      4503      4493      4203      4213
 -1      2565    1    0    1
 -2      4503      4493      4203      4213      4504      4494      4204      4214
 -1      2566    1    0    1
 -2      4504      4494      4204      4214      4505      4495      4205      4215
 -1      2567    1    0    1
 -2      4505      4495      4205      4215      4506      4496      4206      4216
 -1      2568    1    0    1
 -2      4506      4496      4206      4216      4507      4497      4207      4217
 -1      2569    1    0    1
 -2      4507      4497      4207      4217      4508      4498      4208      4218
 -1      2570    1    0    1
 -2      4508      4498      4208      4218      4509      4499      4209      4219
 -1      2571    1    0    1
 -2      4509      4499      4209      4219      4510      4500      4210      4220
 -1      2572    1    0    1
 -2      4510      4500      4210      4220      4511      4501      4211      4221
 -1      2573    1    0    1
 -2      4511      4501      4211      4221      4512      4502      4212      4222
 -1      2574    1    0    1
 -2      4512      4502      4212      4222      2420      2419      2390      2391
 -1      2575    1    0    1
 -2       420       419       390       391      4513      4503      4213      4223
 -1      2576    1    0    1
 -2      4513      4503      4213      4223      4514      4504      4214      4224
 -1      2577    1    0    1
 -2      4514      4504      4214      4224      4515      4505      4215      4225
 -1      2578    1    0    1
 -2      4515      4505      4215      4225      4516      4506      4216      4226
 -1      2579    1    0    1
 -2      4516      4506      4216      4226      4517      4507      4217      4227
 -1      2580    1    0    1
 -2      4517      4507      4217      4227      4518      4508      4218      4228
 -1      2581    1    0    1
 -2      4518      4508      4218      4228      4519      4509      4219      4229
 -1      2582    1    0    1
 -2      4519      4509      4219      4229      4520      4510      4220      4230
 -1      2583    1    0    1
 -2      4520      4510      4220      4230      4521      4511      4221      4231
 -1      2584    1    0    1
 -2      4521      4511      4221      4231      4522      4512      4222      4232
 -1      2585    1    0    1
 -2      4522      4512      4222      4232      2421      2420      2391      2392
 -1      2586    1    0    1
 -2       421       420       391       392      4523      4513      4223      4233
 -1      2587    1    0    1
 -2      4523      4513      4223      4233      4524      4514      4224      4234
 -1      2588    1    0    1
 -2      4524      4514      4224      4234      4525      4515      4225      4235
 -1      2589    1    0    1
 -2      4525      4515      4225      4235      4526      4516      4226      4236
 -1      2590    1    0    1
 -2      4526      4516      4226      4236      4527      4517      4227      4237
 -1      2591    1    0    1
 -2      4527      4517      4227      4237      4528      4518      4228      4238
 -1      2592    1    0    1
 -2      4528      4518      4228      4238      4529      4519      4229      4239
 -1      2593    1    0    1
 -2      4529      4519      4229      4239      4530      4520      4230      4240
 -1      2594    1    0    1
 -2      4530      4520      4230      4240      4531      4521      4231      4241
 -1      2595    1    0    1
 -2      4531      4521      4231      4241      4532      4522      4232      4242
 -1      2596    1    0    1
 -2      4532      4522      4232      4242      2422      2421      2392      2393
 -1      2597    1    0    1
 -2       422       421       392       393      4533      4523      4233      4243
 -1      2598    1    0    1
 -2      4533      4523      4233      4243      4534      4524      4234      4244
 -1      2599    1    0    1
 -2      4534      4524      4234      4244      4535      4525      4235      4245
 -1      2600    1    0    1
 -2      4535      4525      4235      4245      4536      4526      4236      4246
 -1      2601    1    0    1
 -2      4536      4526      4236      4246      4537      4527      4237      4247
 -1      2602    1    0    1
 -2      4537      4527      4237      4247      4538      4528      4238      4248
 -1      2603    1    0    1
 -2      4538      4528      4238      4248      4539      4529      4239      4249
 -1      2604    1    0    1
 -2      4539      4529      4239      4249      4540      4530      4240      4250
 -1      2605    1    0    1
 -2      4540      4530      4240      4250      4541      4531      4241      4251
 -1      2606    1    0    1
 -2      4541      4531      4241      4251      4542      4532      4242      4252
 -1      2607    1    0    1
 -2      4542      4532      4242      4252      2423      2422      2393      2394
 -1      2608    1    0    1
 -2       423       422       393       394      4543      4533      4243      4253
 -1      2609    1    0    1
 -2      4543      4533      4243      4253      4544      4534      4244      4254
 -1      2610    1    0    1
 -2      4544      4534      4244      4254      4545      4535      4245      4255
 -1      2611    1    0    1
 -2      4545      4535      4245      4255      4546      4536      4246      4256
 -1      2612    1    0    1
 -2      4546      4536      4246      4256      4547      4537      4247      4257
 -1      2613    1    0    1
 -2      4547      4537      4247      4257      4548      4538      4248      4258
 -1      2614    1    0    1
 -2      4548      4538      4248      4258      4549      4539      4249      4259
 -1      2615    1    0    1
 -2      4549      4539      4249      4259      4550      4540      4250      4260
 -1      2616    1    0    1
 -2      4550      4540      4250      4260      4551      4541      4251      4261
 -1      2617    1    0    1
 -2      4551      4541      4251      4261      4552      4542      4252      4262
 -1      2618    1    0    1
 -2      4552      4542      4252      4262      2424      2423      2394      2395
 -1      2619    1    0    1
 -2       424       423       394       395      4553      4543      4253      4263
 -1      2620    1    0    1
 -2      4553      4543      4253      4263      4554      4544      4254      4264
 -1      2621    1    0    1
 -2      4554      4544      4254      4264      4555      4545      4255      4265
 -1      2622    1    0    1
 -2      4555      4545      4255      4265      4556      4546      4256      4266
 -1      2623    1    0    1
 -2      4556      4546      4256      4266      4557      4547      4257      4267
 -1      2624    1    0    1
 -2      4557      4547      4257      4267      4558      4548      4258      4268
 -1      2625    1    0    1
 -2      4558      4548      4258      4268      4559      4549      4259      4269
 -1      2626    1    0    1
 -2      4559      4549      4259      4269      4560      4550      4260      4270
 -1      2627    1    0    1
 -2      4560      4550      4260      4270      4561      4551      4261      4271
 -1      2628    1    0    1
 -2      4561      4551      4261      4271      4562      4552      4262      4272
 -1      2629    1    0    1
 -2      4562      4552      4262      4272      2425      2424      2395      2396
 -1      2630    1    0    1
 -2       425       424       395       396      4563      4553      4263      4273
 -1      2631    1    0    1
 -2      4563      4553      4263      4273      4564      4554      4264      4274
 -1      2632    1    0    1
 -2      4564      4554      4264      4274      4565      4555      4265      4275
 -1      2633    1    0    1
 -2      4565      4555      4265      4275      4566      4556      4266      4276
 -1      2634    1    0    1
 -2      4566      4556      4266      4276      4567      4557      4267      4277
 -1      2635    1    0    1
 -2      4567      4557      4267      4277      4568      4558      4268      4278
 -1      2636    1    0    1
 -2      4568      4558      4268      4278      4569      4559      4269      4279
 -1      2637    1    0    1
 -2      4569      4559      4269      4279      4570      4560      4270      4280
 -1      2638    1    0    1
 -2      4570      4560      4270      4280      4571      4561      4271      4281
 -1      2639    1    0    1
 -2      4571      4561      4271      4281      4572      4562      4272      4282
 -1      2640    1    0    1
 -2      4572      4562      4272      4282      2426      2425      2396      2397
 -1      2641    1    0    1
 -2        91       425       396        92      1942      4563      4273      1952
 -1      2642    1    0    1
 -2      1942      4563      4273      1952      1943      4564      4274      1953
 -1      2643    1    0    1
 -2      1943      4564      4274      1953      1944      4565      4275      1954
 -1      2644    1    0    1
 -2      1944      4565      4275      1954      1945      4566      4276      1955
 -1      2645    1    0    1
 -2      1945      4566      4276      1955      1946      4567      4277      1956
 -1      2646    1    0    1
 -2      1946      4567      4277      1956      1947      4568      4278      1957
 -1      2647    1    0    1
 -2      1947      4568      4278      1957      1948      4569      4279      1958
 -1      2648    1    0    1
 -2      1948      4569      4279      1958      1949      4570      4280      1959
 -1      2649    1    0    1
 -2      1949      4570      4280      1959      1950      4571      4281      1960
 -1      2650    1    0    1
 -2      1950      4571      4281      1960      1951      4572      4282      1961
 -1      2651    1    0    1
 -2      1951      4572      4282      1961       207      2426      2397       208
 -1      2652    1    0    1
 -2       426        14        13       397      4573      1172      1162      4283
 -1      2653    1    0    1
 -2      4573      1172      1162      4283      4574      1173      1163      4284
 -1      2654    1    0    1
 -2      4574      1173      1163      4284      4575      1174      1164      4285
 -1      2655    1    0    1
 -2      4575      1174      1164      4285      4576      1175      1165      4286
 -1      2656    1    0    1
 -2      4576      1175      1165      4286      4577      1176      1166      4287
 -1      2657    1    0    1
 -2      4577      1176      1166      4287      4578      1177      1167      4288
 -1      2658    1    0    1
 -2      4578      1177      1167      4288      4579      1178      1168      4289
 -1      2659    1    0    1
 -2      4579      1178      1168      4289      4580      1179      1169      4290
 -1      2660    1    0    1
 -2      4580      1179      1169      4290      4581      1180      1170      4291
 -1      2661    1    0    1
 -2      4581      1180      1170      4291      4582      1181      1171      4292
 -1      2662    1    0    1
 -2      4582      1181      1171      4292      2427       130       129      2398
 -1      2663    1    0    1
 -2       427       426       397       398      4583      4573      4283      4293
 -1      2664    1    0    1
 -2      4583      4573      4283      4293      4584      4574      4284      4294
 -1      2665    1    0    1
 -2      4584      4574      4284      4294      4585      4575      4285      4295
 -1      2666    1    0    1
 -2      4585      4575      4285      4295      4586      4576      4286      4296
 -1      2667    1    0    1
 -2      4586      4576      4286      4296      4587      4577      4287      4297
 -1      2668    1    0    1
 -2      4587      4577      4287      4297      4588      4578      4288      4298
 -1      2669    1    0    1
 -2      4588      4578      4288      4298      4589      4579      4289      4299
 -1      2670    1    0    1
 -2      4589      4579      4289      4299      4590      4580      4290      4300
 -1      2671    1    0    1
 -2      4590      4580      4290      4300      4591      4581      4291      4301
 -1      2672    1    0    1
 -2      4591      4581      4291      4301      4592      4582      4292      4302
 -1      2673    1    0    1
 -2      4592      4582      4292      4302      2428      2427      2398      2399
 -1      2674    1    0    1
 -2       428       427       398       399      4593      4583      4293      4303
 -1      2675    1    0    1
 -2      4593      4583      4293      4303      4594      4584      4294      4304
 -1      2676    1    0    1
 -2      4594      4584      4294      4304      4595      4585      4295      4305
 -1      2677    1    0    1
 -2      4595      4585      4295      4305      4596      4586      4296      4306
 -1      2678    1    0    1
 -2      4596      4586      4296      4306      4597      4587      4297      4307
 -1      2679    1    0    1
 -2      4597      4587      4297      4307      4598      4588      4298      4308
 -1      2680    1    0    1
 -2      4598      4588      4298      4308      4599      4589      4299      4309
 -1      2681    1    0    1
 -2      4599      4589      4299      4309      4600      4590      4300      4310
 -1      2682    1    0    1
 -2      4600      4590      4300      4310      4601      4591      4301      4311
 -1      2683    1    0    1
 -2      4601      4591      4301      4311      4602      4592      4302      4312
 -1      2684    1    0    1
 -2      4602      4592      4302      4312      2429      2428      2399      2400
 -1      2685    1    0    1
 -2       429       428       399       400      4603      4593      4303      4313
 -1      2686    1    0    1
 -2      4603      4593      4303      4313      4604      4594      4304      4314
 -1      2687    1    0    1
 -2      4604      4594      4304      4314      4605      4595      4305      4315
 -1      2688    1    0    1
 -2      4605      4595      4305      4315      4606      4596      4306      4316
 -1      2689    1    0    1
 -2      4606      4596      4306      4316      4607      4597      4307      4317
 -1      2690    1    0    1
 -2      4607      4597      4307      4317      4608      4598      4308      4318
 -1      2691    1    0    1
 -2      4608      4598      4308      4318      4609      4599      4309      4319
 -1      2692    1    0    1
 -2      4609      4599      4309      4319      4610      4600      4310      4320
 -1      2693    1    0    1
 -2      4610      4600      4310      4320      4611      4601      4311      4321
 -1      2694    1    0    1
 -2      4611      4601      4311      4321      4612      4602      4312      4322
 -1      2695    1    0    1
 -2      4612      4602      4312      4322      2430      2429      2400      2401
 -1      2696    1    0    1
 -2       430       429       400       401      4613      4603      4313      4323
 -1      2697    1    0    1
 -2      4613      4603      4313      4323      4614      4604      4314      4324
 -1      2698    1    0    1
 -2      4614      4604      4314      4324      4615      4605      4315      4325
 -1      2699    1    0    1
 -2      4615      4605      4315      4325      4616      4606      4316      4326
 -1      2700    1    0    1
 -2      4616      4606      4316      4326      4617      4607      4317      4327
 -1      2701    1    0    1
 -2      4617      4607      4317      4327      4618      4608      4318      4328
 -1      2702    1    0    1
 -2      4618      4608      4318      4328      4619      4609      4319      4329
 -1      2703    1    0    1
 -2      4619      4609      4319      4329      4620      4610      4320      4330
 -1      2704    1    0    1
 -2      4620      4610      4320      4330      4621      4611      4321      4331
 -1      2705    1    0    1
 -2      4621      4611      4321      4331      4622      4612      4322      4332
 -1      2706    1    0    1
 -2      4622      4612      4322      4332      2431      2430      2401      2402
 -1      2707    1    0    1
 -2       431       430       401       402      4623      4613      4323      4333
 -1      2708    1    0    1
 -2      4623      4613      4323      4333      4624      4614      4324      4334
 -1      2709    1    0    1
 -2      4624      4614      4324      4334      4625      4615      4325      4335
 -1      2710    1    0    1
 -2      4625      4615      4325      4335      4626      4616      4326      4336
 -1      2711    1    0    1
 -2      4626      4616      4326      4336      4627      4617      4327      4337
 -1      2712    1    0    1
 -2      4627      4617      4327      4337      4628      4618      4328      4338
 -1      2713    1    0    1
 -2      4628      4618      4328      4338      4629      4619      4329      4339
 -1      2714    1    0    1
 -2      4629      4619      4329      4339      4630      4620      4330      4340
 -1      2715    1    0    1
 -2      4630      4620      4330      4340      4631      4621      4331      4341
 -1      2716    1    0    1
 -2      4631      4621      4331      4341      4632      4622      4332      4342
 -1      2717    1    0    1
 -2      4632      4622      4332      4342      2432      2431      2402      2403
 -1      2718    1    0    1
 -2       432       431       402       403      4633      4623      4333      4343
 -1      2719    1    0    1
 -2      4633      4623      4333      4343      4634      4624      4334      4344
 -1      2720    1    0    1
 -2      4634      4624      4334      4344      4635      4625      4335      4345
 -1      2721    1    0    1
 -2      4635      4625      4335      4345      4636      4626      4336      4346
 -1      2722    1    0    1
 -2      4636      4626      4336      4346      4637      4627      4337      4347
 -1      2723    1    0    1
 -2      4637      4627      4337      4347      4638      4628      4338      4348
 -1      2724    1    0    1
 -2      4638      4628      4338      4348      4639      4629      4339      4349
 -1      2725    1    0    1
 -2      4639      4629      4339      4349      4640      4630      4340      4350
 -1      2726    1    0    1
 -2      4640      4630      4340      4350      4641      4631      4341      4351
 -1      2727    1    0    1
 -2      4641      4631      4341      4351      4642      4632      4342      4352
 -1      2728    1    0    1
 -2      4642      4632      4342      4352      2433      2432      2403      2404
 -1      2729    1    0    1
 -2       433       432       403       404      4643      4633      4343      4353
 -1      2730    1    0    1
 -2      4643      4633      4343      4353      4644      4634      4344      4354
 -1      2731    1    0    1
 -2      4644      4634      4344      4354      4645      4635      4345      4355
 -1      2732    1    0    1
 -2      4645      4635      4345      4355      4646      4636      4346      4356
 -1      2733    1    0    1
 -2      4646      4636      4346      4356      4647      4637      4347      4357
 -1      2734    1    0    1
 -2      4647      4637      4347      4357      4648      4638      4348      4358
 -1      2735    1    0    1
 -2      4648      4638      4348      4358      4649      4639      4349      4359
 -1      2736    1    0    1
 -2      4649      4639      4349      4359      4650      4640      4350      4360
 -1      2737    1    0    1
 -2      4650      4640      4350      4360      4651      4641      4351      4361
 -1      2738    1    0    1
 -2      4651      4641      4351      4361      4652      4642      4352      4362
 -1      2739    1    0    1
 -2      4652      4642      4352      4362      2434      2433      2404      2405
 -1      2740    1    0    1
 -2       434       433       404       405      4653      4643      4353      4363
 -1      2741    1    0    1
 -2      4653      4643      4353      4363      4654      4644      4354      4364
 -1      2742    1    0    1
 -2      4654      4644      4354      4364      4655      4645      4355      4365
 -1      2743    1    0    1
 -2      4655      4645      4355      4365      4656      4646      4356      4366
 -1      2744    1    0    1
 -2      4656      4646      4356      4366      4657      4647      4357      4367
 -1      2745    1    0    1
 -2      4657      4647      4357      4367      4658      4648      4358      4368
 -1      2746    1    0    1
 -2      4658      4648      4358      4368      4659      4649      4359      4369
 -1      2747    1    0    1
 -2      4659      4649      4359      4369      4660      4650      4360      4370
 -1      2748    1    0    1
 -2      4660      4650      4360      4370      4661      4651      4361      4371
 -1      2749    1    0    1
 -2      4661      4651      4361      4371      4662      4652      4362      4372
 -1      2750    1    0    1
 -2      4662      4652      4362      4372      2435      2434      2405      2406
 -1      2751    1    0    1
 -2       435       434       405       406      4663      4653      4363      4373
 -1      2752    1    0    1
 -2      4663      4653      4363      4373      4664      4654      4364      4374
 -1      2753    1    0    1
 -2      4664      4654      4364      4374      4665      4655      4365      4375
 -1      2754    1    0    1
 -2      4665      4655      4365      4375      4666      4656      4366      4376
 -1      2755    1    0    1
 -2      4666      4656      4366      4376      4667      4657      4367      4377
 -1      2756    1    0    1
 -2      4667      4657      4367      4377      4668      4658      4368      4378
 -1      2757    1    0    1
 -2      4668      4658      4368      4378      4669      4659      4369      4379
 -1      2758    1    0    1
 -2      4669      4659      4369      4379      4670      4660      4370      4380
 -1      2759    1    0    1
 -2      4670      4660      4370      4380      4671      4661      4371      4381
 -1      2760    1    0    1
 -2      4671      4661      4371      4381      4672      4662      4372      4382
 -1      2761    1    0    1
 -2      4672      4662      4372      4382      2436      2435      2406      2407
 -1      2762    1    0    1
 -2       436       435       406       407      4673      4663      4373      4383
 -1      2763    1    0    1
 -2      4673      4663      4373      4383      4674      4664      4374      4384
 -1      2764    1    0    1
 -2      4674      4664      4374      4384      4675      4665      4375      4385
 -1      2765    1    0    1
 -2      4675      4665      4375      4385      4676      4666      4376      4386
 -1      2766    1    0    1
 -2      4676      4666      4376      4386      4677      4667      4377      4387
 -1      2767    1    0    1
 -2      4677      4667      4377      4387      4678      4668      4378      4388
 -1      2768    1    0    1
 -2      4678      4668      4378      4388      4679      4669      4379      4389
 -1      2769    1    0    1
 -2      4679      4669      4379      4389      4680      4670      4380      4390
 -1      2770    1    0    1
 -2      4680      4670      4380      4390      4681      4671      4381      4391
 -1      2771    1    0    1
 -2      4681      4671      4381      4391      4682      4672      4382      4392
 -1      2772    1    0    1
 -2      4682      4672      4382      4392      2437      2436      2407      2408
 -1      2773    1    0    1
 -2       437       436       407       408      4683      4673      4383      4393
 -1      2774    1    0    1
 -2      4683      4673      4383      4393      4684      4674      4384      4394
 -1      2775    1    0    1
 -2      4684      4674      4384      4394      4685      4675      4385      4395
 -1      2776    1    0    1
 -2      4685      4675      4385      4395      4686      4676      4386      4396
 -1      2777    1    0    1
 -2      4686      4676      4386      4396      4687      4677      4387      4397
 -1      2778    1    0    1
 -2      4687      4677      4387      4397      4688      4678      4388      4398
 -1      2779    1    0    1
 -2      4688      4678      4388      4398      4689      4679      4389      4399
 -1      2780    1    0    1
 -2      4689      4679      4389      4399      4690      4680      4390      4400
 -1      2781    1    0    1
 -2      4690      4680      4390      4400      4691      4681      4391      4401
 -1      2782    1    0    1
 -2      4691      4681      4391      4401      4692      4682      4392      4402
 -1      2783    1    0    1
 -2      4692      4682      4392      4402      2438      2437      2408      2409
 -1      2784    1    0    1
 -2       438       437       408       409      4693      4683      4393      4403
 -1      2785    1    0    1
 -2      4693      4683      4393      4403      4694      4684      4394      4404
 -1      2786    1    0    1
 -2      4694      4684      4394      4404      4695      4685      4395      4405
 -1      2787    1    0    1
 -2      4695      4685      4395      4405      4696      4686      4396      4406
 -1      2788    1    0    1
 -2      4696      4686      4396      4406      4697      4687      4397      4407
 -1      2789    1    0    1
 -2      4697      4687      4397      4407      4698      4688      4398      4408
 -1      2790    1    0    1
 -2      4698      4688      4398      4408      4699      4689      4399      4409
 -1      2791    1    0    1
 -2      4699      4689      4399      4409      4700      4690      4400      4410
 -1      2792    1    0    1
 -2      4700      4690      4400      4410      4701      4691      4401      4411
 -1      2793    1    0    1
 -2      4701      4691      4401      4411      4702      4692      4402      4412
 -1      2794    1    0    1
 -2      4702      4692      4402      4412      2439      2438      2409      2410
 -1      2795    1    0    1
 -2       439       438       409       410      4703      4693      4403      4413
 -1      2796    1    0    1
 -2      4703      4693      4403      4413      4704      4694      4404      4414
 -1      2797    1    0    1
 -2      4704      4694      4404      4414      4705      4695      4405      4415
 -1      2798    1    0    1
 -2      4705      4695      4405      4415      4706      4696      4406      4416
 -1      2799    1    0    1
 -2      4706      4696      4406      4416      4707      4697      4407      4417
 -1      2800    1    0    1
 -2      4707      4697      4407      4417      4708      4698      4408      4418
 -1      2801    1    0    1
 -2      4708      4698      4408      4418      4709      4699      4409      4419
 -1      2802    1    0    1
 -2      4709      4699      4409      4419      4710      4700      4410      4420
 -1      2803    1    0    1
 -2      4710      4700      4410      4420      4711      4701      4411      4421
 -1      2804    1    0    1
 -2      4711      4701      4411      4421      4712      4702      4412      4422
 -1      2805    1    0    1
 -2      4712      4702      4412      4422      2440      2439      2410      2411
 -1      2806    1    0    1
 -2       440       439       410       411      4713      4703      4413      4423
 -1      2807    1    0    1
 -2      4713      4703      4413      4423      4714      4704      4414      4424
 -1      2808    1    0    1
 -2      4714      4704      4414      4424      4715      4705      4415      4425
 -1      2809    1    0    1
 -2      4715      4705      4415      4425      4716      4706      4416      4426
 -1      2810    1    0    1
 -2      4716      4706      4416      4426      4717      4707      4417      4427
 -1      2811    1    0    1
 -2      4717      4707      4417      4427      4718      4708      4418      4428
 -1      2812    1    0    1
 -2      4718      4708      4418      4428      4719      4709      4419      4429
 -1      2813    1    0    1
 -2      4719      4709      4419      4429      4720      4710      4420      4430
 -1      2814    1    0    1
 -2      4720      4710      4420      4430      4721      4711      4421      4431
 -1      2815    1    0    1
 -2      4721      4711      4421      4431      4722      4712      4422      4432
 -1      2816    1    0    1
 -2      4722      4712      4422      4432      2441      2440      2411      2412
 -1      2817    1    0    1
 -2       441       440       411       412      4723      4713      4423      4433
 -1      2818    1    0    1
 -2      4723      4713      4423      4433      4724      4714      4424      4434
 -1      2819    1    0    1
 -2      4724      4714      4424      4434      4725      4715      4425      4435
 -1      2820    1    0    1
 -2      4725      4715      4425      4435      4726      4716      4426      4436
 -1      2821    1    0    1
 -2      4726      4716      4426      4436      4727      4717      4427      4437
 -1      2822    1    0    1
 -2      4727      4717      4427      4437      4728      4718      4428      4438
 -1      2823    1    0    1
 -2      4728      4718      4428      4438      4729      4719      4429      4439
 -1      2824    1    0    1
 -2      4729      4719      4429      4439      4730      4720      4430      4440
 -1      2825    1    0    1
 -2      4730      4720      4430      4440      4731      4721      4431      4441
 -1      2826    1    0    1
 -2      4731      4721      4431      4441      4732      4722      4432      4442
 -1      2827    1    0    1
 -2      4732      4722      4432      4442      2442      2441      2412      2413
 -1      2828    1    0    1
 -2       442       441       412       413      4733      4723      4433      4443
 -1      2829    1    0    1
 -2      4733      4723      4433      4443      4734      4724      4434      4444
 -1      2830    1    0    1
 -2      4734      4724      4434      4444      4735      4725      4435      4445
 -1      2831    1    0    1
 -2      4735      4725      4435      4445      4736      4726      4436      4446
 -1      2832    1    0    1
 -2      4736      4726      4436      4446      4737      4727      4437      4447
 -1      2833    1    0    1
 -2      4737      4727      4437      4447      4738      4728      4438      4448
 -1      2834    1    0    1
 -2      4738      4728      4438      4448      4739      4729      4439      4449
 -1      2835    1    0    1
 -2      4739      4729      4439      4449      4740      4730      4440      4450
 -1      2836    1    0    1
 -2      4740      4730      4440      4450      4741      4731      4441      4451
 -1      2837    1    0    1
 -2      4741      4731      4441      4451      4742      4732      4442      4452
 -1      2838    1    0    1
 -2      4742      4732      4442      4452      2443      2442      2413      2414
 -1      2839    1    0    1
 -2       443       442       413       414      4743      4733      4443      4453
 -1      2840    1    0    1
 -2      4743      4733      4443      4453      4744      4734      4444      4454
 -1      2841    1    0    1
 -2      4744      4734      4444      4454      4745      4735      4445      4455
 -1      2842    1    0    1
 -2      4745      4735      4445      4455      4746      4736      4446      4456
 -1      2843    1    0    1
 -2      4746      4736      4446      4456      4747      4737      4447      4457
 -1      2844    1    0    1
 -2      4747      4737      4447      4457      4748      4738      4448      4458
 -1      2845    1    0    1
 -2      4748      4738      4448      4458      4749      4739      4449      4459
 -1      2846    1    0    1
 -2      4749      4739      4449      4459      4750      4740      4450      4460
 -1      2847    1    0    1
 -2      4750      4740      4450      4460      4751      4741      4451      4461
 -1      2848    1    0    1
 -2      4751      4741      4451      4461      4752      4742      4452      4462
 -1      2849    1    0    1
 -2      4752      4742      4452      4462      2444      2443      2414      2415
 -1      2850    1    0    1
 -2       444       443       414       415      4753      4743      4453      4463
 -1      2851    1    0    1
 -2      4753      4743      4453      4463      4754      4744      4454      4464
 -1      2852    1    0    1
 -2      4754      4744      4454      4464      4755      4745      4455      4465
 -1      2853    1    0    1
 -2      4755      4745      4455      4465      4756      4746      4456      4466
 -1      2854    1    0    1
 -2      4756      4746      4456      4466      4757      4747      4457      4467
 -1      2855    1    0    1
 -2      4757      4747      4457      4467      4758      4748      4458      4468
 -1      2856    1    0    1
 -2      4758      4748      4458      4468      4759      4749      4459      4469
 -1      2857    1    0    1
 -2      4759      4749      4459      4469      4760      4750      4460      4470
 -1      2858    1    0    1
 -2      4760      4750      4460      4470      4761      4751      4461      4471
 -1      2859    1    0    1
 -2      4761      4751      4461      4471      4762      4752      4462      4472
 -1      2860    1    0    1
 -2      4762      4752      4462      4472      2445      2444      2415      2416
 -1      2861    1    0    1
 -2       445       444       415       416      4763      4753      4463      4473
 -1      2862    1    0    1
 -2      4763      4753      4463      4473      4764      4754      4464      4474
 -1      2863    1    0    1
 -2      4764      4754      4464      4474      4765      4755      4465      4475
 -1      2864    1    0    1
 -2      4765      4755      4465      4475      4766      4756      4466      4476
 -1      2865    1    0    1
 -2      4766      4756      4466      4476      4767      4757      4467      4477
 -1      2866    1    0    1
 -2      4767      4757      4467      4477      4768      4758      4468      4478
 -1      2867    1    0    1
 -2      4768      4758      4468      4478      4769      4759      4469      4479
 -1      2868    1    0    1
 -2      4769      4759      4469      4479      4770      4760      4470      4480
 -1      2869    1    0    1
 -2      4770      4760      4470      4480      4771      4761      4471      4481
 -1      2870    1    0    1
 -2      4771      4761      4471      4481      4772      4762      4472      4482
 -1      2871    1    0    1
 -2      4772      4762      4472      4482      2446      2445      2416      2417
 -1      2872    1    0    1
 -2       446       445       416       417      4773      4763      4473      4483
 -1      2873    1    0    1
 -2      4773      4763      4473      4483      4774      4764      4474      4484
 -1      2874    1    0    1
 -2      4774      4764      4474      4484      4775      4765      4475      4485
 -1      2875    1    0    1
 -2      4775      4765      4475      4485      4776      4766      4476      4486
 -1      2876    1    0    1
 -2      4776      4766      4476      4486      4777      4767      4477      4487
 -1      2877    1    0    1
 -2      4777      4767      4477      4487      4778      4768      4478      4488
 -1      2878    1    0    1
 -2      4778      4768      4478      4488      4779      4769      4479      4489
 -1      2879    1    0    1
 -2      4779      4769      4479      4489      4780      4770      4480      4490
 -1      2880    1    0    1
 -2      4780      4770      4480      4490      4781      4771      4481      4491
 -1      2881    1    0    1
 -2      4781      4771      4481      4491      4782      4772      4482      4492
 -1      2882    1    0    1
 -2      4782      4772      4482      4492      2447      2446      2417      2418
 -1      2883    1    0    1
 -2       447       446       417       418      4783      4773      4483      4493
 -1      2884    1    0    1
 -2      4783      4773      4483      4493      4784      4774      4484      4494
 -1      2885    1    0    1
 -2      4784      4774      4484      4494      4785      4775      4485      4495
 -1      2886    1    0    1
 -2      4785      4775      4485      4495      4786      4776      4486      4496
 -1      2887    1    0    1
 -2      4786      4776      4486      4496      4787      4777      4487      4497
 -1      2888    1    0    1
 -2      4787      4777      4487      4497      4788      4778      4488      4498
 -1      2889    1    0    1
 -2      4788      4778      4488      4498      4789      4779      4489      4499
 -1      2890    1    0    1
 -2      4789      4779      4489      4499      4790      4780      4490      4500
 -1      2891    1    0    1
 -2      4790      4780      4490      4500      4791      4781      4491      4501
 -1      2892    1    0    1
 -2      4791      4781      4491      4501      4792      4782      4492      4502
 -1      2893    1    0    1
 -2      4792      4782      4492      4502      2448      2447      2418      2419
 -1      2894    1    0    1
 -2       448       447       418       419      4793      4783      4493      4503
 -1      2895    1    0    1
 -2      4793      4783      4493      4503      4794      4784      4494      4504
 -1      2896    1    0    1
 -2      4794      4784      4494      4504      4795      4785      4495      4505
 -1      2897    1    0    1
 -2      4795      4785      4495      4505      4796      4786      4496      4506
 -1      2898    1    0    1
 -2      4796      4786      4496      4506      4797      4787      4497      4507
 -1      2899    1    0    1
 -2      4797      4787      4497      4507      4798      4788      4498      4508
 -1      2900    1    0    1
 -2      4798      4788      4498      4508      4799      4789      4499      4509
 -1      2901    1    0    1
 -2      4799      4789      4499      4509      4800      4790      4500      4510
 -1      2902    1    0    1
 -2      4800      4790      4500      4510      4801      4791      4501      4511
 -1      2903    1    0    1
 -2      4801      4791      4501      4511      4802      4792      4502      4512
 -1      2904    1    0    1
 -2      4802      4792      4502      4512      2449      2448      2419      2420
 -1      2905    1    0    1
 -2       449       448       419       420      4803      4793      4503      4513
 -1      2906    1    0    1
 -2      4803      4793      4503      4513      4804      4794      4504      4514
 -1      2907    1    0    1
 -2      4804      4794      4504      4514      4805      4795      4505      4515
 -1      2908    1    0    1
 -2      4805      4795      4505      4515      4806      4796      4506      4516
 -1      2909    1    0    1
 -2      4806      4796      4506      4516      4807      4797      4507      4517
 -1      2910    1    0    1
 -2      4807      4797      4507      4517      4808      4798      4508      4518
 -1      2911    1    0    1
 -2      4808      4798      4508      4518      4809      4799      4509      4519
 -1      2912    1    0    1
 -2      4809      4799      4509      4519      4810      4800      4510      4520
 -1      2913    1    0    1
 -2      4810      4800      4510      4520      4811      4801      4511      4521
 -1      2914    1    0    1
 -2      4811      4801      4511      4521      4812      4802      4512      4522
 -1      2915    1    0    1
 -2      4812      4802      4512      4522      2450      2449      2420      2421
 -1      2916    1    0    1
 -2       450       449       420       421      4813      4803      4513      4523
 -1      2917    1    0    1
 -2      4813      4803      4513      4523      4814      4804      4514      4524
 -1      2918    1    0    1
 -2      4814      4804      4514      4524      4815      4805      4515      4525
 -1      2919    1    0    1
 -2      4815      4805      4515      4525      4816      4806      4516      4526
 -1      2920    1    0    1
 -2      4816      4806      4516      4526      4817      4807      4517      4527
 -1      2921    1    0    1
 -2      4817      4807      4517      4527      4818      4808      4518      4528
 -1      2922    1    0    1
 -2      4818      4808      4518      4528      4819      4809      4519      4529
 -1      2923    1    0    1
 -2      4819      4809      4519      4529      4820      4810      4520      4530
 -1      2924    1    0    1
 -2      4820      4810      4520      4530      4821      4811      4521      4531
 -1      2925    1    0    1
 -2      4821      4811      4521      4531      4822      4812      4522      4532
 -1      2926    1    0    1
 -2      4822      4812      4522      4532      2451      2450      2421      2422
 -1      2927    1    0    1
 -2       451       450       421       422      4823      4813      4523      4533
 -1      2928    1    0    1
 -2      4823      4813      4523      4533      4824      4814      4524      4534
 -1      2929    1    0    1
 -2      4824      4814      4524      4534      4825      4815      4525      4535
 -1      2930    1    0    1
 -2      4825      4815      4525      4535      4826      4816      4526      4536
 -1      2931    1    0    1
 -2      4826      4816      4526      4536      4827      4817      4527      4537
 -1      2932    1    0    1
 -2      4827      4817      4527      4537      4828      4818      4528      4538
 -1      2933    1    0    1
 -2      4828      4818      4528      4538      4829      4819      4529      4539
 -1      2934    1    0    1
 -2      4829      4819      4529      4539      4830      4820      4530      4540
 -1      2935    1    0    1
 -2      4830      4820      4530      4540      4831      4821      4531      4541
 -1      2936    1    0    1
 -2      4831      4821      4531      4541      4832      4822      4532      4542
 -1      2937    1    0    1
 -2      4832      4822      4532      4542      2452      2451      2422      2423
 -1      2938    1    0    1
 -2       452       451       422       423      4833      4823      4533      4543
 -1      2939    1    0    1
 -2      4833      4823      4533      4543      4834      4824      4534      4544
 -1      2940    1    0    1
 -2      4834      4824      4534      4544      4835      4825      4535      4545
 -1      2941    1    0    1
 -2      4835      4825      4535      4545      4836      4826      4536      4546
 -1      2942    1    0    1
 -2      4836      4826      4536      4546      4837      4827      4537      4547
 -1      2943    1    0    1
 -2      4837      4827      4537      4547      4838      4828      4538      4548
 -1      2944    1    0    1
 -2      4838      4828      4538      4548      4839      4829      4539      4549
 -1      2945    1    0    1
 -2      4839      4829      4539      4549      4840      4830      4540      4550
 -1      2946    1    0    1
 -2      4840      4830      4540      4550      4841      4831      4541      4551
 -1      2947    1    0    1
 -2      4841      4831      4541      4551      4842      4832      4542      4552
 -1      2948    1    0    1
 -2      4842      4832      4542      4552      2453      2452      2423      2424
 -1      2949    1    0    1
 -2       453       452       423       424      4843      4833      4543      4553
 -1      2950    1    0    1
 -2      4843      4833      4543      4553      4844      4834      4544      4554
 -1      2951    1    0    1
 -2      4844      4834      4544      4554      4845      4835      4545      4555
 -1      2952    1    0    1
 -2      4845      4835      4545      4555      4846      4836      4546      4556
 -1      2953    1    0    1
 -2      4846      4836      4546      4556      4847      4837      4547      4557
 -1      2954    1    0    1
 -2      4847      4837      4547      4557      4848      4838      4548      4558
 -1      2955    1    0    1
 -2      4848      4838      4548      4558      4849      4839      4549      4559
 -1      2956    1    0    1
 -2      4849      4839      4549      4559      4850      4840      4550      4560
 -1      2957    1    0    1
 -2      4850      4840      4550      4560      4851      4841      4551      4561
 -1      2958    1    0    1
 -2      4851      4841      4551      4561      4852      4842      4552      4562
 -1      2959    1    0    1
 -2      4852      4842      4552      4562      2454      2453      2424      2425
 -1      2960    1    0    1
 -2       454       453       424       425      4853      4843      4553      4563
 -1      2961    1    0    1
 -2      4853      4843      4553      4563      4854      4844      4554      4564
 -1      2962    1    0    1
 -2      4854      4844      4554      4564      4855      4845      4555      4565
 -1      2963    1    0    1
 -2      4855      4845      4555      4565      4856      4846      4556      4566
 -1      2964    1    0    1
 -2      4856      4846      4556      4566      4857      4847      4557      4567
 -1      2965    1    0    1
 -2      4857      4847      4557      4567      4858      4848      4558      4568
 -1      2966    1    0    1
 -2      4858      4848      4558      4568      4859      4849      4559      4569
 -1      2967    1    0    1
 -2      4859      4849      4559      4569      4860      4850      4560      4570
 -1      2968    1    0    1
 -2      4860      4850      4560      4570      4861      4851      4561      4571
 -1      2969    1    0    1
 -2      4861      4851      4561      4571      4862      4852      4562      4572
 -1      2970    1    0    1
 -2      4862      4852      4562      4572      2455      2454      2425      2426
 -1      2971    1    0    1
 -2        90       454       425        91      1932      4853      4563      1942
 -1      2972    1    0    1
 -2      1932      4853      4563      1942      1933      4854      4564      1943
 -1      2973    1    0    1
 -2      1933      4854      4564      1943      1934      4855      4565      1944
 -1      2974    1    0    1
 -2      1934      4855      4565      1944      1935      4856      4566      1945
 -1      2975    1    0    1
 -2      1935      4856      4566      1945      1936      4857      4567      1946
 -1      2976    1    0    1
 -2      1936      4857      4567      1946      1937      4858      4568      1947
 -1      2977    1    0    1
 -2      1937      4858      4568      1947      1938      4859      4569      1948
 -1      2978    1    0    1
 -2      1938      4859      4569      1948      1939      4860      4570      1949
 -1      2979    1    0    1
 -2      1939      4860      4570      1949      1940      4861      4571      1950
 -1      2980    1    0    1
 -2      1940      4861      4571      1950      1941      4862      4572      1951
 -1      2981    1    0    1
 -2      1941      4862      4572      1951       206      2455      2426       207
 -1      2982    1    0    1
 -2       455        15        14       426      4863      1182      1172      4573
 -1      2983    1    0    1
 -2      4863      1182      1172      4573      4864      1183      1173      4574
 -1      2984    1    0    1
 -2      4864      1183      1173      4574      4865      1184      1174      4575
 -1      2985    1    0    1
 -2      4865      1184      1174      4575      4866      1185      1175      4576
 -1      2986    1    0    1
 -2      4866      1185      1175      4576      4867      1186      1176      4577
 -1      2987    1    0    1
 -2      4867      1186      1176      4577      4868      1187      1177      4578
 -1      2988    1    0    1
 -2      4868      1187      1177      4578      4869      1188      1178      4579
 -1      2989    1    0    1
 -2      4869      1188      1178      4579      4870      1189      1179      4580
 -1      2990    1    0    1
 -2      4870      1189      1179      4580      4871      1190      1180      4581
 -1      2991    1    0    1
 -2      4871      1190      1180      4581      4872      1191      1181      4582
 -1      2992    1    0    1
 -2      4872      1191      1181      4582      2456       131       130      2427
 -1      2993    1    0    1
 -2       456       455       426       427      4873      4863      4573      4583
 -1      2994    1    0    1
 -2      4873      4863      4573      4583      4874      4864      4574      4584
 -1      2995    1    0    1
 -2      4874      4864      4574      4584      4875      4865      4575      4585
 -1      2996    1    0    1
 -2      4875      4865      4575      4585      4876      4866      4576      4586
 -1      2997    1    0    1
 -2      4876      4866      4576      4586      4877      4867      4577      4587
 -1      2998    1    0    1
 -2      4877      4867      4577      4587      4878      4868      4578      4588
 -1      2999    1    0    1
 -2      4878      4868      4578      4588      4879      4869      4579      4589
 -1      3000    1    0    1
 -2      4879      4869      4579      4589      4880      4870      4580      4590
 -1      3001    1    0    1
 -2      4880      4870      4580      4590      4881      4871      4581      4591
 -1      3002    1    0    1
 -2      4881      4871      4581      4591      4882      4872      4582      4592
 -1      3003    1    0    1
 -2      4882      4872      4582      4592      2457      2456      2427      2428
 -1      3004    1    0    1
 -2       457       456       427       428      4883      4873      4583      4593
 -1      3005    1    0    1
 -2      4883      4873      4583      4593      4884      4874      4584      4594
 -1      3006    1    0    1
 -2      4884      4874      4584      4594      4885      4875      4585      4595
 -1      3007    1    0    1
 -2      4885      4875      4585      4595      4886      4876      4586      4596
 -1      3008    1    0    1
 -2      4886      4876      4586      4596      4887      4877      4587      4597
 -1      3009    1    0    1
 -2      4887      4877      4587      4597      4888      4878      4588      4598
 -1      3010    1    0    1
 -2      4888      4878      4588      4598      4889      4879      4589      4599
 -1      3011    1    0    1
 -2      4889      4879      4589      4599      4890      4880      4590      4600
 -1      3012    1    0    1
 -2      4890      4880      4590      4600      4891      4881      4591      4601
 -1      3013    1    0    1
 -2      4891      4881      4591      4601      4892      4882      4592      4602
 -1      3014    1    0    1
 -2      4892      4882      4592      4602      2458      2457      2428      2429
 -1      3015    1    0    1
 -2       458       457       428       429      4893      4883      4593      4603
 -1      3016    1    0    1
 -2      4893      4883      4593      4603      4894      4884      4594      4604
 -1      3017    1    0    1
 -2      4894      4884      4594      4604      4895      4885      4595      4605
 -1      3018    1    0    1
 -2      4895      4885      4595      4605      4896      4886      4596      4606
 -1      3019    1    0    1
 -2      4896      4886      4596      4606      4897      4887      4597      4607
 -1      3020    1    0    1
 -2      4897      4887      4597      4607      4898      4888      4598      4608
 -1      3021    1    0    1
 -2      4898      4888      4598      4608      4899      4889      4599      4609
 -1      3022    1    0    1
 -2      4899      4889      4599      4609      4900      4890      4600      4610
 -1      3023    1    0    1
 -2      4900      4890      4600      4610      4901      4891      4601      4611
 -1      3024    1    0    1
 -2      4901      4891      4601      4611      4902      4892      4602      4612
 -1      3025    1    0    1
 -2      4902      4892      4602      4612      2459      2458      2429      2430
 -1      3026    1    0    1
 -2       459       458       429       430      4903      4893      4603      4613
 -1      3027    1    0    1
 -2      4903      4893      4603      4613      4904      4894      4604      4614
 -1      3028    1    0    1
 -2      4904      4894      4604      4614      4905      4895      4605      4615
 -1      3029    1    0    1
 -2      4905      4895      4605      4615      4906      4896      4606      4616
 -1      3030    1    0    1
 -2      4906      4896      4606      4616      4907      4897      4607      4617
 -1      3031    1    0    1
 -2      4907      4897      4607      4617      4908      4898      4608      4618
 -1      3032    1    0    1
 -2      4908      4898      4608      4618      4909      4899      4609      4619
 -1      3033    1    0    1
 -2      4909      4899      4609      4619      4910      4900      4610      4620
 -1      3034    1    0    1
 -2      4910      4900      4610      4620      4911      4901      4611      4621
 -1      3035    1    0    1
 -2      4911      4901      4611      4621      4912      4902      4612      4622
 -1      3036    1    0    1
 -2      4912      4902      4612      4622      2460      2459      2430      2431
 -1      3037    1    0    1
 -2       460       459       430       431      4913      4903      4613      4623
 -1      3038    1    0    1
 -2      4913      4903      4613      4623      4914      4904      4614      4624
 -1      3039    1    0    1
 -2      4914      4904      4614      4624      4915      4905      4615      4625
 -1      3040    1    0    1
 -2      4915      4905      4615      4625      4916      4906      4616      4626
 -1      3041    1    0    1
 -2      4916      4906      4616      4626      4917      4907      4617      4627
 -1      3042    1    0    1
 -2      4917      4907      4617      4627      4918      4908      4618      4628
 -1      3043    1    0    1
 -2      4918      4908      4618      4628      4919      4909      4619      4629
 -1      3044    1    0    1
 -2      4919      4909      4619      4629      4920      4910      4620      4630
 -1      3045    1    0    1
 -2      4920      4910      4620      4630      4921      4911      4621      4631
 -1      3046    1    0    1
 -2      4921      4911      4621      4631      4922      4912      4622      4632
 -1      3047    1    0    1
 -2      4922      4912      4622      4632      2461      2460      2431      2432
 -1      3048    1    0    1
 -2       461       460       431       432      4923      4913      4623      4633
 -1      3049    1    0    1
 -2      4923      4913      4623      4633      4924      4914      4624      4634
 -1      3050    1    0    1
 -2      4924      4914      4624      4634      4925      4915      4625      4635
 -1      3051    1    0    1
 -2      4925      4915      4625      4635      4926      4916      4626      4636
 -1      3052    1    0    1
 -2      4926      4916      4626      4636      4927      4917      4627      4637
 -1      3053    1    0    1
 -2      4927      4917      4627      4637      4928      4918      4628      4638
 -1      3054    1    0    1
 -2      4928      4918      4628      4638      4929      4919      4629      4639
 -1      3055    1    0    1
 -2      4929      4919      4629      4639      4930      4920      4630      4640
 -1      3056    1    0    1
 -2      4930      4920      4630      4640      4931      4921      4631      4641
 -1      3057    1    0    1
 -2      4931      4921      4631      4641      4932      4922      4632      4642
 -1      3058    1    0    1
 -2      4932      4922      4632      4642      2462      2461      2432      2433
 -1      3059    1    0    1
 -2       462       461       432       433      4933      4923      4633      4643
 -1      3060    1    0    1
 -2      4933      4923      4633      4643      4934      4924      4634      4644
 -1      3061    1    0    1
 -2      4934      4924      4634      4644      4935      4925      4635      4645
 -1      3062    1    0    1
 -2      4935      4925      4635      4645      4936      4926      4636      4646
 -1      3063    1    0    1
 -2      4936      4926      4636      4646      4937      4927      4637      4647
 -1      3064    1    0    1
 -2      4937      4927      4637      4647      4938      4928      4638      4648
 -1      3065    1    0    1
 -2      4938      4928      4638      4648      4939      4929      4639      4649
 -1      3066    1    0    1
 -2      4939      4929      4639      4649      4940      4930      4640      4650
 -1      3067    1    0    1
 -2      4940      4930      4640      4650      4941      4931      4641      4651
 -1      3068    1    0    1
 -2      4941      4931      4641      4651      4942      4932      4642      4652
 -1      3069    1    0    1
 -2      4942      4932      4642      4652      2463      2462      2433      2434
 -1      3070    1    0    1
 -2       463       462       433       434      4943      4933      4643      4653
 -1      3071    1    0    1
 -2      4943      4933      4643      4653      4944      4934      4644      4654
 -1      3072    1    0    1
 -2      4944      4934      4644      4654      4945      4935      4645      4655
 -1      3073    1    0    1
 -2      4945      4935      4645      4655      4946      4936      4646      4656
 -1      3074    1    0    1
 -2      4946      4936      4646      4656      4947      4937      4647      4657
 -1      3075    1    0    1
 -2      4947      4937      4647      4657      4948      4938      4648      4658
 -1      3076    1    0    1
 -2      4948      4938      4648      4658      4949      4939      4649      4659
 -1      3077    1    0    1
 -2      4949      4939      4649      4659      4950      4940      4650      4660
 -1      3078    1    0    1
 -2      4950      4940      4650      4660      4951      4941      4651      4661
 -1      3079    1    0    1
 -2      4951      4941      4651      4661      4952      4942      4652      4662
 -1      3080    1    0    1
 -2      4952      4942      4652      4662      2464      2463      2434      2435
 -1      3081    1    0    1
 -2       464       463       434       435      4953      4943      4653      4663
 -1      3082    1    0    1
 -2      4953      4943      4653      4663      4954      4944      4654      4664
 -1      3083    1    0    1
 -2      4954      4944      4654      4664      4955      4945      4655      4665
 -1      3084    1    0    1
 -2      4955      4945      4655      4665      4956      4946      4656      4666
 -1      3085    1    0    1
 -2      4956      4946      4656      4666      4957      4947      4657      4667
 -1      3086    1    0    1
 -2      4957      4947      4657      4667      4958      4948      4658      4668
 -1      3087    1    0    1
 -2      4958      4948      4658      4668      4959      4949      4659      4669
 -1      3088    1    0    1
 -2      4959      4949      4659      4669      4960      4950      4660      4670
 -1      3089    1    0    1
 -2      4960      4950      4660      4670      4961      4951      4661      4671
 -1      3090    1    0    1
 -2      4961      4951      4661      4671      4962      4952      4662      4672
 -1      3091    1    0    1
 -2      4962      4952      4662      4672      2465      2464      2435      2436
 -1      3092    1    0    1
 -2       465       464       435       436      4963      4953      4663      4673
 -1      3093    1    0    1
 -2      4963      4953      4663      4673      4964      4954      4664      4674
 -1      3094    1    0    1
 -2      4964      4954      4664      4674      4965      4955      4665      4675
 -1      3095    1    0    1
 -2      4965      4955      4665      4675      4966      4956      4666      4676
 -1      3096    1    0    1
 -2      4966      4956      4666      4676      4967      4957      4667      4677
 -1      3097    1    0    1
 -2      4967      4957      4667      4677      4968      4958      4668      4678
 -1      3098    1    0    1
 -2      4968      4958      4668      4678      4969      4959      4669      4679
 -1      3099    1    0    1
 -2      4969      4959      4669      4679      4970      4960      4670      4680
 -1      3100    1    0    1
 -2      4970      4960      4670      4680      4971      4961      4671      4681
 -1      3101    1    0    1
 -2      4971      4961      4671      4681      4972      4962      4672      4682
 -1      3102    1    0    1
 -2      4972      4962      4672      4682      2466      2465      2436      2437
 -1      3103    1    0    1
 -2       466       465       436       437      4973      4963      4673      4683
 -1      3104    1    0    1
 -2      4973      4963      4673      4683      4974      4964      4674      4684
 -1      3105    1    0    1
 -2      4974      4964      4674      4684      4975      4965      4675      4685
 -1      3106    1    0    1
 -2      4975      4965      4675      4685      4976      4966      4676      4686
 -1      3107    1    0    1
 -2      4976      4966      4676      4686      4977      4967      4677      4687
 -1      3108    1    0    1
 -2      4977      4967      4677      4687      4978      4968      4678      4688
 -1      3109    1    0    1
 -2      4978      4968      4678      4688      4979      4969      4679      4689
 -1      3110    1    0    1
 -2      4979      4969      4679      4689      4980      4970      4680      4690
 -1      3111    1    0    1
 -2      4980      4970      4680      4690      4981      4971      4681      4691
 -1      3112    1    0    1
 -2      4981      4971      4681      4691      4982      4972      4682      4692
 -1      3113    1    0    1
 -2      4982      4972      4682      4692      2467      2466      2437      2438
 -1      3114    1    0    1
 -2       467       466       437       438      4983      4973      4683      4693
 -1      3115    1    0    1
 -2      4983      4973      4683      4693      4984      4974      4684      4694
 -1      3116    1    0    1
 -2      4984      4974      4684      4694      4985      4975      4685      4695
 -1      3117    1    0    1
 -2      4985      4975      4685      4695      4986      4976      4686      4696
 -1      3118    1    0    1
 -2      4986      4976      4686      4696      4987      4977      4687      4697
 -1      3119    1    0    1
 -2      4987      4977      4687      4697      4988      4978      4688      4698
 -1      3120    1    0    1
 -2      4988      4978      4688      4698      4989      4979      4689      4699
 -1      3121    1    0    1
 -2      4989      4979      4689      4699      4990      4980      4690      4700
 -1      3122    1    0    1
 -2      4990      4980      4690      4700      4991      4981      4691      4701
 -1      3123    1    0    1
 -2      4991      4981      4691      4701      4992      4982      4692      4702
 -1      3124    1    0    1
 -2      4992      4982      4692      4702      2468      2467      2438      2439
 -1      3125    1    0    1
 -2       468       467       438       439      4993      4983      4693      4703
 -1      3126    1    0    1
 -2      4993      4983      4693      4703      4994      4984      4694      4704
 -1      3127    1    0    1
 -2      4994      4984      4694      4704      4995      4985      4695      4705
 -1      3128    1    0    1
 -2      4995      4985      4695      4705      4996      4986      4696      4706
 -1      3129    1    0    1
 -2      4996      4986      4696      4706      4997      4987      4697      4707
 -1      3130    1    0    1
 -2      4997      4987      4697      4707      4998      4988      4698      4708
 -1      3131    1    0    1
 -2      4998      4988      4698      4708      4999      4989      4699      4709
 -1      3132    1    0    1
 -2      4999      4989      4699      4709      5000      4990      4700      4710
 -1      3133    1    0    1
 -2      5000      4990      4700      4710      5001      4991      4701      4711
 -1      3134    1    0    1
 -2      5001      4991      4701      4711      5002      4992      4702      4712
 -1      3135    1    0    1
 -2      5002      4992      4702      4712      2469      2468      2439      2440
 -1      3136    1    0    1
 -2       469       468       439       440      5003      4993      4703      4713
 -1      3137    1    0    1
 -2      5003      4993      4703      4713      5004      4994      4704      4714
 -1      3138    1    0    1
 -2      5004      4994      4704      4714      5005      4995      4705      4715
 -1      3139    1    0    1
 -2      5005      4995      4705      4715      5006      4996      4706      4716
 -1      3140    1    0    1
 -2      5006      4996      4706      4716      5007      4997      4707      4717
 -1      3141    1    0    1
 -2      5007      4997      4707      4717      5008      4998      4708      4718
 -1      3142    1    0    1
 -2      5008      4998      4708      4718      5009      4999      4709      4719
 -1      3143    1    0    1
 -2      5009      4999      4709      4719      5010      5000      4710      4720
 -1      3144    1    0    1
 -2      5010      5000      4710      4720      5011      5001      4711      4721
 -1      3145    1    0    1
 -2      5011      5001      4711      4721      5012      5002      4712      4722
 -1      3146    1    0    1
 -2      5012      5002      4712      4722      2470      2469      2440      2441
 -1      3147    1    0    1
 -2       470       469       440       441      5013      5003      4713      4723
 -1      3148    1    0    1
 -2      5013      5003      4713      4723      5014      5004      4714      4724
 -1      3149    1    0    1
 -2      5014      5004      4714      4724      5015      5005      4715      4725
 -1      3150    1    0    1
 -2      5015      5005      4715      4725      5016      5006      4716      4726
 -1      3151    1    0    1
 -2      5016      5006      4716      4726      5017      5007      4717      4727
 -1      3152    1    0    1
 -2      5017      5007      4717      4727      5018      5008      4718      4728
 -1      3153    1    0    1
 -2      5018      5008      4718      4728      5019      5009      4719      4729
 -1      3154    1    0    1
 -2      5019      5009      4719      4729      5020      5010      4720      4730
 -1      3155    1    0    1
 -2      5020      5010      4720      4730      5021      5011      4721      4731
 -1      3156    1    0    1
 -2      5021      5011      4721      4731      5022      5012      4722      4732
 -1      3157    1    0    1
 -2      5022      5012      4722      4732      2471      2470      2441      2442
 -1      3158    1    0    1
 -2       471       470       441       442      5023      5013      4723      4733
 -1      3159    1    0    1
 -2      5023      5013      4723      4733      5024      5014      4724      4734
 -1      3160    1    0    1
 -2      5024      5014      4724      4734      5025      5015      4725      4735
 -1      3161    1    0    1
 -2      5025      5015      4725      4735      5026      5016      4726      4736
 -1      3162    1    0    1
 -2      5026      5016      4726      4736      5027      5017      4727      4737
 -1      3163    1    0    1
 -2      5027      5017      4727      4737      5028      5018      4728      4738
 -1      3164    1    0    1
 -2      5028      5018      4728      4738      5029      5019      4729      4739
 -1      3165    1    0    1
 -2      5029      5019      4729      4739      5030      5020      4730      4740
 -1      3166    1    0    1
 -2      5030      5020      4730      4740      5031      5021      4731      4741
 -1      3167    1    0    1
 -2      5031      5021      4731      4741      5032      5022      4732      4742
 -1      3168    1    0    1
 -2      5032      5022      4732      4742      2472      2471      2442      2443
 -1      3169    1    0    1
 -2       472       471       442       443      5033      5023      4733      4743
 -1      3170    1    0    1
 -2      5033      5023      4733      4743      5034      5024      4734      4744
 -1      3171    1    0    1
 -2      5034      5024      4734      4744      5035      5025      4735      4745
 -1      3172    1    0    1
 -2      5035      5025      4735      4745      5036      5026      4736      4746
 -1      3173    1    0    1
 -2      5036      5026      4736      4746      5037      5027      4737      4747
 -1      3174    1    0    1
 -2      5037      5027      4737      4747      5038      5028      4738      4748
 -1      3175    1    0    1
 -2      5038      5028      4738      4748      5039      5029      4739      4749
 -1      3176    1    0    1
 -2      5039      5029      4739      4749      5040      5030      4740      4750
 -1      3177    1    0    1
 -2      5040      5030      4740      4750      5041      5031      4741      4751
 -1      3178    1    0    1
 -2      5041      5031      4741      4751      5042      5032      4742      4752
 -1      3179    1    0    1
 -2      5042      5032      4742      4752      2473      2472      2443      2444
 -1      3180    1    0    1
 -2       473       472       443       444      5043      5033      4743      4753
 -1      3181    1    0    1
 -2      5043      5033      4743      4753      5044      5034      4744      4754
 -1      3182    1    0    1
 -2      5044      5034      4744      4754      5045      5035      4745      4755
 -1      3183    1    0    1
 -2      5045      5035      4745      4755      5046      5036      4746      4756
 -1      3184    1    0    1
 -2      5046      5036      4746      4756      5047      5037      4747      4757
 -1      3185    1    0    1
 -2      5047      5037      4747      4757      5048      5038      4748      4758
 -1      3186    1    0    1
 -2      5048      5038      4748      4758      5049      5039      4749      4759
 -1      3187    1    0    1
 -2      5049      5039      4749      4759      5050      5040      4750      4760
 -1      3188    1    0    1
 -2      5050      5040      4750      4760      5051      5041      4751      4761
 -1      3189    1    0    1
 -2      5051      5041      4751      4761      5052      5042      4752      4762
 -1      3190    1    0    1
 -2      5052      5042      4752      4762      2474      2473      2444      2445
 -1      3191    1    0    1
 -2       474       473       444       445      5053      5043      4753      4763
 -1      3192    1    0    1
 -2      5053      5043      4753      4763      5054      5044      4754      4764
 -1      3193    1    0    1
 -2      5054      5044      4754      4764      5055      5045      4755      4765
 -1      3194    1    0    1
 -2      5055      5045      4755      4765      5056      5046      4756      4766
 -1      3195    1    0    1
 -2      5056      5046      4756      4766      5057      5047      4757      4767
 -1      3196    1    0    1
 -2      5057      5047      4757      4767      5058      5048      4758      4768
 -1      3197    1    0    1
 -2      5058      5048      4758      4768      5059      5049      4759      4769
 -1      3198    1    0    1
 -2      5059      5049      4759      4769      5060      5050      4760      4770
 -1      3199    1    0    1
 -2      5060      5050      4760      4770      5061      5051      4761      4771
 -1      3200    1    0    1
 -2      5061      5051      4761      4771      5062      5052      4762      4772
 -1      3201    1    0    1
 -2      5062      5052      4762      4772      2475      2474      2445      2446
 -1      3202    1    0    1
 -2       475       474       445       446      5063      5053      4763      4773
 -1      3203    1    0    1
 -2      5063      5053      4763      4773      5064      5054      4764      4774
 -1      3204    1    0    1
 -2      5064      5054      4764      4774      5065      5055      4765      4775
 -1      3205    1    0    1
 -2      5065      5055      4765      4775      5066      5056      4766      4776
 -1      3206    1    0    1
 -2      5066      5056      4766      4776      5067      5057      4767      4777
 -1      3207    1    0    1
 -2      5067      5057      4767      4777      5068      5058      4768      4778
 -1      3208    1    0    1
 -2      5068      5058      4768      4778      5069      5059      4769      4779
 -1      3209    1    0    1
 -2      5069      5059      4769      4779      5070      5060      4770      4780
 -1      3210    1    0    1
 -2      5070      5060      4770      4780      5071      5061      4771      4781
 -1      3211    1    0    1
 -2      5071      5061      4771      4781      5072      5062      4772      4782
 -1      3212    1    0    1
 -2      5072      5062      4772      4782      2476      2475      2446      2447
 -1      3213    1    0    1
 -2       476       475       446       447      5073      5063      4773      4783
 -1      3214    1    0    1
 -2      5073      5063      4773      4783      5074      5064      4774      4784
 -1      3215    1    0    1
 -2      5074      5064      4774      4784      5075      5065      4775      4785
 -1      3216    1    0    1
 -2      5075      5065      4775      4785      5076      5066      4776      4786
 -1      3217    1    0    1
 -2      5076      5066      4776      4786      5077      5067      4777      4787
 -1      3218    1    0    1
 -2      5077      5067      4777      4787      5078      5068      4778      4788
 -1      3219    1    0    1
 -2      5078      5068      4778      4788      5079      5069      4779      4789
 -1      3220    1    0    1
 -2      5079      5069      4779      4789      5080      5070      4780      4790
 -1      3221    1    0    1
 -2      5080      5070      4780      4790      5081      5071      4781      4791
 -1      3222    1    0    1
 -2      5081      5071      4781      4791      5082      5072      4782      4792
 -1      3223    1    0    1
 -2      5082      5072      4782      4792      2477      2476      2447      2448
 -1      3224    1    0    1
 -2       477       476       447       448      5083      5073      4783      4793
 -1      3225    1    0    1
 -2      5083      5073      4783      4793      5084      5074      4784      4794
 -1      3226    1    0    1
 -2      5084      5074      4784      4794      5085      5075      4785      4795
 -1      3227    1    0    1
 -2      5085      5075      4785      4795      5086      5076      4786      4796
 -1      3228    1    0    1
 -2      5086      5076      4786      4796      5087      5077      4787      4797
 -1      3229    1    0    1
 -2      5087      5077      4787      4797      5088      5078      4788      4798
 -1      3230    1    0    1
 -2      5088      5078      4788      4798      5089      5079      4789      4799
 -1      3231    1    0    1
 -2      5089      5079      4789      4799      5090      5080      4790      4800
 -1      3232    1    0    1
 -2      5090      5080      4790      4800      5091      5081      4791      4801
 -1      3233    1    0    1
 -2      5091      5081      4791      4801      5092      5082      4792      4802
 -1      3234    1    0    1
 -2      5092      5082      4792      4802      2478      2477      2448      2449
 -1      3235    1    0    1
 -2       478       477       448       449      5093      5083      4793      4803
 -1      3236    1    0    1
 -2      5093      5083      4793      4803      5094      5084      4794      4804
 -1      3237    1    0    1
 -2      5094      5084      4794      4804      5095      5085      4795      4805
 -1      3238    1    0    1
 -2      5095      5085      4795      4805      5096      5086      4796      4806
 -1      3239    1    0    1
 -2      5096      5086      4796      4806      5097      5087      4797      4807
 -1      3240    1    0    1
 -2      5097      5087      4797      4807      5098      5088      4798      4808
 -1      3241    1    0    1
 -2      5098      5088      4798      4808      5099      5089      4799      4809
 -1      3242    1    0    1
 -2      5099      5089      4799      4809      5100      5090      4800      4810
 -1      3243    1    0    1
 -2      5100      5090      4800      4810      5101      5091      4801      4811
 -1      3244    1    0    1
 -2      5101      5091      4801      4811      5102      5092      4802      4812
 -1      3245    1    0    1
 -2      5102      5092      4802      4812      2479      2478      2449      2450
 -1      3246    1    0    1
 -2       479       478       449       450      5103      5093      4803      4813
 -1      3247    1    0    1
 -2      5103      5093      4803      4813      5104      5094      4804      4814
 -1      3248    1    0    1
 -2      5104      5094      4804      4814      5105      5095      4805      4815
 -1      3249    1    0    1
 -2      5105      5095      4805      4815      5106      5096      4806      4816
 -1      3250    1    0    1
 -2      5106      5096      4806      4816      5107      5097      4807      4817
 -1      3251    1    0    1
 -2      5107      5097      4807      4817      5108      5098      4808      4818
 -1      3252    1    0    1
 -2      5108      5098      4808      4818      5109      5099      4809      4819
 -1      3253    1    0    1
 -2      5109      5099      4809      4819      5110      5100      4810      4820
 -1      3254    1    0    1
 -2      5110      5100      4810      4820      5111      5101      4811      4821
 -1      3255    1    0    1
 -2      5111      5101      4811      4821      5112      5102      4812      4822
 -1      3256    1    0    1
 -2      5112      5102      4812      4822      2480      2479      2450      2451
 -1      3257    1    0    1
 -2       480       479       450       451      5113      5103      4813      4823
 -1      3258    1    0    1
 -2      5113      5103      4813      4823      5114      5104      4814      4824
 -1      3259    1    0    1
 -2      5114      5104      4814      4824      5115      5105      4815      4825
 -1      3260    1    0    1
 -2      5115      5105      4815      4825      5116      5106      4816      4826
 -1      3261    1    0    1
 -2      5116      5106      4816      4826      5117      5107      4817      4827
 -1      3262    1    0    1
 -2      5117      5107      4817      4827      5118      5108      4818      4828
 -1      3263    1    0    1
 -2      5118      5108      4818      4828      5119      5109      4819      4829
 -1      3264    1    0    1
 -2      5119      5109      4819      4829      5120      5110      4820      4830
 -1      3265    1    0    1
 -2      5120      5110      4820      4830      5121      5111      4821      4831
 -1      3266    1    0    1
 -2      5121      5111      4821      4831      5122      5112      4822      4832
 -1      3267    1    0    1
 -2      5122      5112      4822      4832      2481      2480      2451      2452
 -1      3268    1    0    1
 -2       481       480       451       452      5123      5113      4823      4833
 -1      3269    1    0    1
 -2      5123      5113      4823      4833      5124      5114      4824      4834
 -1      3270    1    0    1
 -2      5124      5114      4824      4834      5125      5115      4825      4835
 -1      3271    1    0    1
 -2      5125      5115      4825      4835      5126      5116      4826      4836
 -1      3272    1    0    1
 -2      5126      5116      4826      4836      5127      5117      4827      4837
 -1      3273    1    0    1
 -2      5127      5117      4827      4837      5128      5118      4828      4838
 -1      3274    1    0    1
 -2      5128      5118      4828      4838      5129      5119      4829      4839
 -1      3275    1    0    1
 -2      5129      5119      4829      4839      5130      5120      4830      4840
 -1      3276    1    0    1
 -2      5130      5120      4830      4840      5131      5121      4831      4841
 -1      3277    1    0    1
 -2      5131      5121      4831      4841      5132      5122      4832      4842
 -1      3278    1    0    1
 -2      5132      5122      4832      4842      2482      2481      2452      2453
 -1      3279    1    0    1
 -2       482       481       452       453      5133      5123      4833      4843
 -1      3280    1    0    1
 -2      5133      5123      4833      4843      5134      5124      4834      4844
 -1      3281    1    0    1
 -2      5134      5124      4834      4844      5135      5125      4835      4845
 -1      3282    1    0    1
 -2      5135      5125      4835      4845      5136      5126      4836      4846
 -1      3283    1    0    1
 -2      5136      5126      4836      4846      5137      5127      4837      4847
 -1      3284    1    0    1
 -2      5137      5127      4837      4847      5138      5128      4838      4848
 -1      3285    1    0    1
 -2      5138      5128      4838      4848      5139      5129      4839      4849
 -1      3286    1    0    1
 -2      5139      5129      4839      4849      5140      5130      4840      4850
 -1      3287    1    0    1
 -2      5140      5130      4840      4850      5141      5131      4841      4851
 -1      3288    1    0    1
 -2      5141      5131      4841      4851      5142      5132      4842      4852
 -1      3289    1    0    1
 -2      5142      5132      4842      4852      2483      2482      2453      2454
 -1      3290    1    0    1
 -2       483       482       453       454      5143      5133      4843      4853
 -1      3291    1    0    1
 -2      5143      5133      4843      4853      5144      5134      4844      4854
 -1      3292    1    0    1
 -2      5144      5134      4844      4854      5145      5135      4845      4855
 -1      3293    1    0    1
 -2      5145      5135      4845      4855      5146      5136      4846      4856
 -1      3294    1    0    1
 -2      5146      5136      4846      4856      5147      5137      4847      4857
 -1      3295    1    0    1
 -2      5147      5137      4847      4857      5148      5138      4848      4858
 -1      3296    1    0    1
 -2      5148      5138      4848      4858      5149      5139      4849      4859
 -1      3297    1    0    1
 -2      5149      5139      4849      4859      5150      5140      4850      4860
 -1      3298    1    0    1
 -2      5150      5140      4850      4860      5151      5141      4851      4861
 -1      3299    1    0    1
 -2      5151      5141      4851      4861      5152      5142      4852      4862
 -1      3300    1    0    1
 -2      5152      5142      4852      4862      2484      2483      2454      2455
 -1      3301    1    0    1
 -2        89       483       454        90      1922      5143      4853      1932
 -1      3302    1    0    1
 -2      1922      5143      4853      1932      1923      5144      4854      1933
 -1      3303    1    0    1
 -2      1923      5144      4854      1933      1924      5145      4855      1934
 -1      3304    1    0    1
 -2      1924      5145      4855      1934      1925      5146      4856      1935
 -1      3305    1    0    1
 -2      1925      5146      4856      1935      1926      5147      4857      1936
 -1      3306    1    0    1
 -2      1926      5147      4857      1936      1927      5148      4858      1937
 -1      3307    1    0    1
 -2      1927      5148      4858      1937      1928      5149      4859      1938
 -1      3308    1    0    1
 -2      1928      5149      4859      1938      1929      5150      4860      1939
 -1      3309    1    0    1
 -2      1929      5150      4860      1939      1930      5151      4861      1940
 -1      3310    1    0    1
 -2      1930      5151      4861      1940      1931      5152      4862      1941
 -1      3311    1    0    1
 -2      1931      5152      4862      1941       205      2484      2455       206
 -1      3312    1    0    1
 -2       484        16        15       455      5153      1192      1182      4863
 -1      3313    1    0    1
 -2      5153      1192      1182      4863      5154      1193      1183      4864
 -1      3314    1    0    1
 -2      5154      1193      1183      4864      5155      1194      1184      4865
 -1      3315    1    0    1
 -2      5155      1194      1184      4865      5156      1195      1185      4866
 -1      3316    1    0    1
 -2      5156      1195      1185      4866      5157      1196      1186      4867
 -1      3317    1    0    1
 -2      5157      1196      1186      4867      5158      1197      1187      4868
 -1      3318    1    0    1
 -2      5158      1197      1187      4868      5159      1198      1188      4869
 -1      3319    1    0    1
 -2      5159      1198      1188      4869      5160      1199      1189      4870
 -1      3320    1    0    1
 -2      5160      1199      1189      4870      5161      1200      1190      4871
 -1      3321    1    0    1
 -2      5161      1200      1190      4871      5162      1201      1191      4872
 -1      3322    1    0    1
 -2      5162      1201      1191      4872      2485       132       131      2456
 -1      3323    1    0    1
 -2       485       484       455       456      5163      5153      4863      4873
 -1      3324    1    0    1
 -2      5163      5153      4863      4873      5164      5154      4864      4874
 -1      3325    1    0    1
 -2      5164      5154      4864      4874      5165      5155      4865      4875
 -1      3326    1    0    1
 -2      5165      5155      4865      4875      5166      5156      4866      4876
 -1      3327    1    0    1
 -2      5166      5156      4866      4876      5167      5157      4867      4877
 -1      3328    1    0    1
 -2      5167      5157      4867      4877      5168      5158      4868      4878
 -1      3329    1    0    1
 -2      5168      5158      4868      4878      5169      5159      4869      4879
 -1      3330    1    0    1
 -2      5169      5159      4869      4879      5170      5160      4870      4880
 -1      3331    1    0    1
 -2      5170      5160      4870      4880      5171      5161      4871      4881
 -1      3332    1    0    1
 -2      5171      5161      4871      4881      5172      5162      4872      4882
 -1      3333    1    0    1
 -2      5172      5162      4872      4882      2486      2485      2456      2457
 -1      3334    1    0    1
 -2       486       485       456       457      5173      5163      4873      4883
 -1      3335    1    0    1
 -2      5173      5163      4873      4883      5174      5164      4874      4884
 -1      3336    1    0    1
 -2      5174      5164      4874      4884      5175      5165      4875      4885
 -1      3337    1    0    1
 -2      5175      5165      4875      4885      5176      5166      4876      4886
 -1      3338    1    0    1
 -2      5176      5166      4876      4886      5177      5167      4877      4887
 -1      3339    1    0    1
 -2      5177      5167      4877      4887      5178      5168      4878      4888
 -1      3340    1    0    1
 -2      5178      5168      4878      4888      5179      5169      4879      4889
 -1      3341    1    0    1
 -2      5179      5169      4879      4889      5180      5170      4880      4890
 -1      3342    1    0    1
 -2      5180      5170      4880      4890      5181      5171      4881      4891
 -1      3343    1    0    1
 -2      5181      5171      4881      4891      5182      5172      4882      4892
 -1      3344    1    0    1
 -2      5182      5172      4882      4892      2487      2486      2457      2458
 -1      3345    1    0    1
 -2       487       486       457       458      5183      5173      4883      4893
 -1      3346    1    0    1
 -2      5183      5173      4883      4893      5184      5174      4884      4894
 -1      3347    1    0    1
 -2      5184      5174      4884      4894      5185      5175      4885      4895
 -1      3348    1    0    1
 -2      5185      5175      4885      4895      5186      5176      4886      4896
 -1      3349    1    0    1
 -2      5186      5176      4886      4896      5187      5177      4887      4897
 -1      3350    1    0    1
 -2      5187      5177      4887      4897      5188      5178      4888      4898
 -1      3351    1    0    1
 -2      5188      5178      4888      4898      5189      5179      4889      4899
 -1      3352    1    0    1
 -2      5189      5179      4889      4899      5190      5180      4890      4900
 -1      3353    1    0    1
 -2      5190      5180      4890      4900      5191      5181      4891      4901
 -1      3354    1    0    1
 -2      5191      5181      4891      4901      5192      5182      4892      4902
 -1      3355    1    0    1
 -2      5192      5182      4892      4902      2488      2487      2458      2459
 -1      3356    1    0    1
 -2       488       487       458       459      5193      5183      4893      4903
 -1      3357    1    0    1
 -2      5193      5183      4893      4903      5194      5184      4894      4904
 -1      3358    1    0    1
 -2      5194      5184      4894      4904      5195      5185      4895      4905
 -1      3359    1    0    1
 -2      5195      5185      4895      4905      5196      5186      4896      4906
 -1      3360    1    0    1
 -2      5196      5186      4896      4906      5197      5187      4897      4907
 -1      3361    1    0    1
 -2      5197      5187      4897      4907      5198      5188      4898      4908
 -1      3362    1    0    1
 -2      5198      5188      4898      4908      5199      5189      4899      4909
 -1      3363    1    0    1
 -2      5199      5189      4899      4909      5200      5190      4900      4910
 -1      3364    1    0    1
 -2      5200      5190      4900      4910      5201      5191      4901      4911
 -1      3365    1    0    1
 -2      5201      5191      4901      4911      5202      5192      4902      4912
 -1      3366    1    0    1
 -2      5202      5192      4902      4912      2489      2488      2459      2460
 -1      3367    1    0    1
 -2       489       488       459       460      5203      5193      4903      4913
 -1      3368    1    0    1
 -2      5203      5193      4903      4913      5204      5194      4904      4914
 -1      3369    1    0    1
 -2      5204      5194      4904      4914      5205      5195      4905      4915
 -1      3370    1    0    1
 -2      5205      5195      4905      4915      5206      5196      4906      4916
 -1      3371    1    0    1
 -2      5206      5196      4906      4916      5207      5197      4907      4917
 -1      3372    1    0    1
 -2      5207      5197      4907      4917      5208      5198      4908      4918
 -1      3373    1    0    1
 -2      5208      5198      4908      4918      5209      5199      4909      4919
 -1      3374    1    0    1
 -2      5209      5199      4909      4919      5210      5200      4910      4920
 -1      3375    1    0    1
 -2      5210      5200      4910      4920      5211      5201      4911      4921
 -1      3376    1    0    1
 -2      5211      5201      4911      4921      5212      5202      4912      4922
 -1      3377    1    0    1
 -2      5212      5202      4912      4922      2490      2489      2460      2461
 -1      3378    1    0    1
 -2       490       489       460       461      5213      5203      4913      4923
 -1      3379    1    0    1
 -2      5213      5203      4913      4923      5214      5204      4914      4924
 -1      3380    1    0    1
 -2      5214      5204      4914      4924      5215      5205      4915      4925
 -1      3381    1    0    1
 -2      5215      5205      4915      4925      5216      5206      4916      4926
 -1      3382    1    0    1
 -2      5216      5206      4916      4926      5217      5207      4917      4927
 -1      3383    1    0    1
 -2      5217      5207      4917      4927      5218      5208      4918      4928
 -1      3384    1    0    1
 -2      5218      5208      4918      4928      5219      5209      4919      4929
 -1      3385    1    0    1
 -2      5219      5209      4919      4929      5220      5210      4920      4930
 -1      3386    1    0    1
 -2      5220      5210      4920      4930      5221      5211      4921      4931
 -1      3387    1    0    1
 -2      5221      5211      4921      4931      5222      5212      4922      4932
 -1      3388    1    0    1
 -2      5222      5212      4922      4932      2491      2490      2461      2462
 -1      3389    1    0    1
 -2       491       490       461       462      5223      5213      4923      4933
 -1      3390    1    0    1
 -2      5223      5213      4923      4933      5224      5214      4924      4934
 -1      3391    1    0    1
 -2      5224      5214      4924      4934      5225      5215      4925      4935
 -1      3392    1    0    1
 -2      5225      5215      4925      4935      5226      5216      4926      4936
 -1      3393    1    0    1
 -2      5226      5216      4926      4936      5227      5217      4927      4937
 -1      3394    1    0    1
 -2      5227      5217      4927      4937      5228      5218      4928      4938
 -1      3395    1    0    1
 -2      5228      5218      4928      4938      5229      5219      4929      4939
 -1      3396    1    0    1
 -2      5229      5219      4929      4939      5230      5220      4930      4940
 -1      3397    1    0    1
 -2      5230      5220      4930      4940      5231      5221      4931      4941
 -1      3398    1    0    1
 -2      5231      5221      4931      4941      5232      5222      4932      4942
 -1      3399    1    0    1
 -2      5232      5222      4932      4942      2492      2491      2462      2463
 -1      3400    1    0    1
 -2       492       491       462       463      5233      5223      4933      4943
 -1      3401    1    0    1
 -2      5233      5223      4933      4943      5234      5224      4934      4944
 -1      3402    1    0    1
 -2      5234      5224      4934      4944      5235      5225      4935      4945
 -1      3403    1    0    1
 -2      5235      5225      4935      4945      5236      5226      4936      4946
 -1      3404    1    0    1
 -2      5236      5226      4936      4946      5237      5227      4937      4947
 -1      3405    1    0    1
 -2      5237      5227      4937      4947      5238      5228      4938      4948
 -1      3406    1    0    1
 -2      5238      5228      4938      4948      5239      5229      4939      4949
 -1      3407    1    0    1
 -2      5239      5229      4939      4949      5240      5230      4940      4950
 -1      3408    1    0    1
 -2      5240      5230      4940      4950      5241      5231      4941      4951
 -1      3409    1    0    1
 -2      5241      5231      4941      4951      5242      5232      4942      4952
 -1      3410    1    0    1
 -2      5242      5232      4942      4952      2493      2492      2463      2464
 -1      3411    1    0    1
 -2       493       492       463       464      5243      5233      4943      4953
 -1      3412    1    0    1
 -2      5243      5233      4943      4953      5244      5234      4944      4954
 -1      3413    1    0    1
 -2      5244      5234      4944      4954      5245      5235      4945      4955
 -1      3414    1    0    1
 -2      5245      5235      4945      4955      5246      5236      4946      4956
 -1      3415    1    0    1
 -2      5246      5236      4946      4956      5247      5237      4947      4957
 -1      3416    1    0    1
 -2      5247      5237      4947      4957      5248      5238      4948      4958
 -1      3417    1    0    1
 -2      5248      5238      4948      4958      5249      5239      4949      4959
 -1      3418    1    0    1
 -2      5249      5239      4949      4959      5250      5240      4950      4960
 -1      3419    1    0    1
 -2      5250      5240      4950      4960      5251      5241      4951      4961
 -1      3420    1    0    1
 -2      5251      5241      4951      4961      5252      5242      4952      4962
 -1      3421    1    0    1
 -2      5252      5242      4952      4962      2494      2493      2464      2465
 -1      3422    1    0    1
 -2       494       493       464       465      5253      5243      4953      4963
 -1      3423    1    0    1
 -2      5253      5243      4953      4963      5254      5244      4954      4964
 -1      3424    1    0    1
 -2      5254      5244      4954      4964      5255      5245      4955      4965
 -1      3425    1    0    1
 -2      5255      5245      4955      4965      5256      5246      4956      4966
 -1      3426    1    0    1
 -2      5256      5246      4956      4966      5257      5247      4957      4967
 -1      3427    1    0    1
 -2      5257      5247      4957      4967      5258      5248      4958      4968
 -1      3428    1    0    1
 -2      5258      5248      4958      4968      5259      5249      4959      4969
 -1      3429    1    0    1
 -2      5259      5249      4959      4969      5260      5250      4960      4970
 -1      3430    1    0    1
 -2      5260      5250      4960      4970      5261      5251      4961      4971
 -1      3431    1    0    1
 -2      5261      5251      4961      4971      5262      5252      4962      4972
 -1      3432    1    0    1
 -2      5262      5252      4962      4972      2495      2494      2465      2466
 -1      3433    1    0    1
 -2       495       494       465       466      5263      5253      4963      4973
 -1      3434    1    0    1
 -2      5263      5253      4963      4973      5264      5254      4964      4974
 -1      3435    1    0    1
 -2      5264      5254      4964      4974      5265      5255      4965      4975
 -1      3436    1    0    1
 -2      5265      5255      4965      4975      5266      5256      4966      4976
 -1      3437    1    0    1
 -2      5266      5256      4966      4976      5267      5257      4967      4977
 -1      3438    1    0    1
 -2      5267      5257      4967      4977      5268      5258      4968      4978
 -1      3439    1    0    1
 -2      5268      5258      4968      4978      5269      5259      4969      4979
 -1      3440    1    0    1
 -2      5269      5259      4969      4979      5270      5260      4970      4980
 -1      3441    1    0    1
 -2      5270      5260      4970      4980      5271      5261      4971      4981
 -1      3442    1    0    1
 -2      5271      5261      4971      4981      5272      5262      4972      4982
 -1      3443    1    0    1
 -2      5272      5262      4972      4982      2496      2495      2466      2467
 -1      3444    1    0    1
 -2       496       495       466       467      5273      5263      4973      4983
 -1      3445    1    0    1
 -2      5273      5263      4973      4983      5274      5264      4974      4984
 -1      3446    1    0    1
 -2      5274      5264      4974      4984      5275      5265      4975      4985
 -1      3447    1    0    1
 -2      5275      5265      4975      4985      5276      5266      4976      4986
 -1      3448    1    0    1
 -2      5276      5266      4976      4986      5277      5267      4977      4987
 -1      3449    1    0    1
 -2      5277      5267      4977      4987      5278      5268      4978      4988
 -1      3450    1    0    1
 -2      5278      5268      4978      4988      5279      5269      4979      4989
 -1      3451    1    0    1
 -2      5279      5269      4979      4989      5280      5270      4980      4990
 -1      3452    1    0    1
 -2      5280      5270      4980      4990      5281      5271      4981      4991
 -1      3453    1    0    1
 -2      5281      5271      4981      4991      5282      5272      4982      4992
 -1      3454    1    0    1
 -2      5282      5272      4982      4992      2497      2496      2467      2468
 -1      3455    1    0    1
 -2       497       496       467       468      5283      5273      4983      4993
 -1      3456    1    0    1
 -2      5283      5273      4983      4993      5284      5274      4984      4994
 -1      3457    1    0    1
 -2      5284      5274      4984      4994      5285      5275      4985      4995
 -1      3458    1    0    1
 -2      5285      5275      4985      4995      5286      5276      4986      4996
 -1      3459    1    0    1
 -2      5286      5276      4986      4996      5287      5277      4987      4997
 -1      3460    1    0    1
 -2      5287      5277      4987      4997      5288      5278      4988      4998
 -1      3461    1    0    1
 -2      5288      5278      4988      4998      5289      5279      4989      4999
 -1      3462    1    0    1
 -2      5289      5279      4989      4999      5290      5280      4990      5000
 -1      3463    1    0    1
 -2      5290      5280      4990      5000      5291      5281      4991      5001
 -1      3464    1    0    1
 -2      5291      5281      4991      5001      5292      5282      4992      5002
 -1      3465    1    0    1
 -2      5292      5282      4992      5002      2498      2497      2468      2469
 -1      3466    1    0    1
 -2       498       497       468       469      5293      5283      4993      5003
 -1      3467    1    0    1
 -2      5293      5283      4993      5003      5294      5284      4994      5004
 -1      3468    1    0    1
 -2      5294      5284      4994      5004      5295      5285      4995      5005
 -1      3469    1    0    1
 -2      5295      5285      4995      5005      5296      5286      4996      5006
 -1      3470    1    0    1
 -2      5296      5286      4996      5006      5297      5287      4997      5007
 -1      3471    1    0    1
 -2      5297      5287      4997      5007      5298      5288      4998      5008
 -1      3472    1    0    1
 -2      5298      5288      4998      5008      5299      5289      4999      5009
 -1      3473    1    0    1
 -2      5299      5289      4999      5009      5300      5290      5000      5010
 -1      3474    1    0    1
 -2      5300      5290      5000      5010      5301      5291      5001      5011
 -1      3475    1    0    1
 -2      5301      5291      5001      5011      5302      5292      5002      5012
 -1      3476    1    0    1
 -2      5302      5292      5002      5012      2499      2498      2469      2470
 -1      3477    1    0    1
 -2       499       498       469       470      5303      5293      5003      5013
 -1      3478    1    0    1
 -2      5303      5293      5003      5013      5304      5294      5004      5014
 -1      3479    1    0    1
 -2      5304      5294      5004      5014      5305      5295      5005      5015
 -1      3480    1    0    1
 -2      5305      5295      5005      5015      5306      5296      5006      5016
 -1      3481    1    0    1
 -2      5306      5296      5006      5016      5307      5297      5007      5017
 -1      3482    1    0    1
 -2      5307      5297      5007      5017      5308      5298      5008      5018
 -1      3483    1    0    1
 -2      5308      5298      5008      5018      5309      5299      5009      5019
 -1      3484    1    0    1
 -2      5309      5299      5009      5019      5310      5300      5010      5020
 -1      3485    1    0    1
 -2      5310      5300      5010      5020      5311      5301      5011      5021
 -1      3486    1    0    1
 -2      5311      5301      5011      5021      5312      5302      5012      5022
 -1      3487    1    0    1
 -2      5312      5302      5012      5022      2500      2499      2470      2471
 -1      3488    1    0    1
 -2       500       499       470       471      5313      5303      5013      5023
 -1      3489    1    0    1
 -2      5313      5303      5013      5023      5314      5304      5014      5024
 -1      3490    1    0    1
 -2      5314      5304      5014      5024      5315      5305      5015      5025
 -1      3491    1    0    1
 -2      5315      5305      5015      5025      5316      5306      5016      5026
 -1      3492    1    0    1
 -2      5316      5306      5016      5026      5317      5307      5017      5027
 -1      3493    1    0    1
 -2      5317      5307      5017      5027      5318      5308      5018      5028
 -1      3494    1    0    1
 -2      5318      5308      5018      5028      5319      5309      5019      5029
 -1      3495    1    0    1
 -2      5319      5309      5019      5029      5320      5310      5020      5030
 -1      3496    1    0    1
 -2      5320      5310      5020      5030      5321      5311      5021      5031
 -1      3497    1    0    1
 -2      5321      5311      5021      5031      5322      5312      5022      5032
 -1      3498    1    0    1
 -2      5322      5312      5022      5032      2501      2500      2471      2472
 -1      3499    1    0    1
 -2       501       500       471       472      5323      5313      5023      5033
 -1      3500    1    0    1
 -2      5323      5313      5023      5033      5324      5314      5024      5034
 -1      3501    1    0    1
 -2      5324      5314      5024      5034      5325      5315      5025      5035
 -1      3502    1    0    1
 -2      5325      5315      5025      5035      5326      5316      5026      5036
 -1      3503    1    0    1
 -2      5326      5316      5026      5036      5327      5317      5027      5037
 -1      3504    1    0    1
 -2      5327      5317      5027      5037      5328      5318      5028      5038
 -1      3505    1    0    1
 -2      5328      5318      5028      5038      5329      5319      5029      5039
 -1      3506    1    0    1
 -2      5329      5319      5029      5039      5330      5320      5030      5040
 -1      3507    1    0    1
 -2      5330      5320      5030      5040      5331      5321      5031      5041
 -1      3508    1    0    1
 -2      5331      5321      5031      5041      5332      5322      5032      5042
 -1      3509    1    0    1
 -2      5332      5322      5032      5042      2502      2501      2472      2473
 -1      3510    1    0    1
 -2       502       501       472       473      5333      5323      5033      5043
 -1      3511    1    0    1
 -2      5333      5323      5033      5043      5334      5324      5034      5044
 -1      3512    1    0    1
 -2      5334      5324      5034      5044      5335      5325      5035      5045
 -1      3513    1    0    1
 -2      5335      5325      5035      5045      5336      5326      5036      5046
 -1      3514    1    0    1
 -2      5336      5326      5036      5046      5337      5327      5037      5047
 -1      3515    1    0    1
 -2      5337      5327      5037      5047      5338      5328      5038      5048
 -1      3516    1    0    1
 -2      5338      5328      5038      5048      5339      5329      5039      5049
 -1      3517    1    0    1
 -2      5339      5329      5039      5049      5340      5330      5040      5050
 -1      3518    1    0    1
 -2      5340      5330      5040      5050      5341      5331      5041      5051
 -1      3519    1    0    1
 -2      5341      5331      5041      5051      5342      5332      5042      5052
 -1      3520    1    0    1
 -2      5342      5332      5042      5052      2503      2502      2473      2474
 -1      3521    1    0    1
 -2       503       502       473       474      5343      5333      5043      5053
 -1      3522    1    0    1
 -2      5343      5333      5043      5053      5344      5334      5044      5054
 -1      3523    1    0    1
 -2      5344      5334      5044      5054      5345      5335      5045      5055
 -1      3524    1    0    1
 -2      5345      5335      5045      5055      5346      5336      5046      5056
 -1      3525    1    0    1
 -2      5346      5336      5046      5056      5347      5337      5047      5057
 -1      3526    1    0    1
 -2      5347      5337      5047      5057      5348      5338      5048      5058
 -1      3527    1    0    1
 -2      5348      5338      5048      5058      5349      5339      5049      5059
 -1      3528    1    0    1
 -2      5349      5339      5049      5059      5350      5340      5050      5060
 -1      3529    1    0    1
 -2      5350      5340      5050      5060      5351      5341      5051      5061
 -1      3530    1    0    1
 -2      5351      5341      5051      5061      5352      5342      5052      5062
 -1      3531    1    0    1
 -2      5352      5342      5052      5062      2504      2503      2474      2475
 -1      3532    1    0    1
 -2       504       503       474       475      5353      5343      5053      5063
 -1      3533    1    0    1
 -2      5353      5343      5053      5063      5354      5344      5054      5064
 -1      3534    1    0    1
 -2      5354      5344      5054      5064      5355      5345      5055      5065
 -1      3535    1    0    1
 -2      5355      5345      5055      5065      5356      5346      5056      5066
 -1      3536    1    0    1
 -2      5356      5346      5056      5066      5357      5347      5057      5067
 -1      3537    1    0    1
 -2      5357      5347      5057      5067      5358      5348      5058      5068
 -1      3538    1    0    1
 -2      5358      5348      5058      5068      5359      5349      5059      5069
 -1      3539    1    0    1
 -2      5359      5349      5059      5069      5360      5350      5060      5070
 -1      3540    1    0    1
 -2      5360      5350      5060      5070      5361      5351      5061      5071
 -1      3541    1    0    1
 -2      5361      5351      5061      5071      5362      5352      5062      5072
 -1      3542    1    0    1
 -2      5362      5352      5062      5072      2505      2504      2475      2476
 -1      3543    1    0    1
 -2       505       504       475       476      5363      5353      5063      5073
 -1      3544    1    0    1
 -2      5363      5353      5063      5073      5364      5354      5064      5074
 -1      3545    1    0    1
 -2      5364      5354      5064      5074      5365      5355      5065      5075
 -1      3546    1    0    1
 -2      5365      5355      5065      5075      5366      5356      5066      5076
 -1      3547    1    0    1
 -2      5366      5356      5066      5076      5367      5357      5067      5077
 -1      3548    1    0    1
 -2      5367      5357      5067      5077      5368      5358      5068      5078
 -1      3549    1    0    1
 -2      5368      5358      5068      5078      5369      5359      5069      5079
 -1      3550    1    0    1
 -2      5369      5359      5069      5079      5370      5360      5070      5080
 -1      3551    1    0    1
 -2      5370      5360      5070      5080      5371      5361      5071      5081
 -1      3552    1    0    1
 -2      5371      5361      5071      5081      5372      5362      5072      5082
 -1      3553    1    0    1
 -2      5372      5362      5072      5082      2506      2505      2476      2477
 -1      3554    1    0    1
 -2       506       505       476       477      5373      5363      5073      5083
 -1      3555    1    0    1
 -2      5373      5363      5073      5083      5374      5364      5074      5084
 -1      3556    1    0    1
 -2      5374      5364      5074      5084      5375      5365      5075      5085
 -1      3557    1    0    1
 -2      5375      5365      5075      5085      5376      5366      5076      5086
 -1      3558    1    0    1
 -2      5376      5366      5076      5086      5377      5367      5077      5087
 -1      3559    1    0    1
 -2      5377      5367      5077      5087      5378      5368      5078      5088
 -1      3560    1    0    1
 -2      5378      5368      5078      5088      5379      5369      5079      5089
 -1      3561    1    0    1
 -2      5379      5369      5079      5089      5380      5370      5080      5090
 -1      3562    1    0    1
 -2      5380      5370      5080      5090      5381      5371      5081      5091
 -1      3563    1    0    1
 -2      5381      5371      5081      5091      5382      5372      5082      5092
 -1      3564    1    0    1
 -2      5382      5372      5082      5092      2507      2506      2477      2478
 -1      3565    1    0    1
 -2       507       506       477       478      5383      5373      5083      5093
 -1      3566    1    0    1
 -2      5383      5373      5083      5093      5384      5374      5084      5094
 -1      3567    1    0    1
 -2      5384      5374      5084      5094      5385      5375      5085      5095
 -1      3568    1    0    1
 -2      5385      5375      5085      5095      5386      5376      5086      5096
 -1      3569    1    0    1
 -2      5386      5376      5086      5096      5387      5377      5087      5097
 -1      3570    1    0    1
 -2      5387      5377      5087      5097      5388      5378      5088      5098
 -1      3571    1    0    1
 -2      5388      5378      5088      5098      5389      5379      5089      5099
 -1      3572    1    0    1
 -2      5389      5379      5089      5099      5390      5380      5090      5100
 -1      3573    1    0    1
 -2      5390      5380      5090      5100      5391      5381      5091      5101
 -1      3574    1    0    1
 -2      5391      5381      5091      5101      5392      5382      5092      5102
 -1      3575    1    0    1
 -2      5392      5382      5092      5102      2508      2507      2478      2479
 -1      3576    1    0    1
 -2       508       507       478       479      5393      5383      5093      5103
 -1      3577    1    0    1
 -2      5393      5383      5093      5103      5394      5384      5094      5104
 -1      3578    1    0    1
 -2      5394      5384      5094      5104      5395      5385      5095      5105
 -1      3579    1    0    1
 -2      5395      5385      5095      5105      5396      5386      5096      5106
 -1      3580    1    0    1
 -2      5396      5386      5096      5106      5397      5387      5097      5107
 -1      3581    1    0    1
 -2      5397      5387      5097      5107      5398      5388      5098      5108
 -1      3582    1    0    1
 -2      5398      5388      5098      5108      5399      5389      5099      5109
 -1      3583    1    0    1
 -2      5399      5389      5099      5109      5400      5390      5100      5110
 -1      3584    1    0    1
 -2      5400      5390      5100      5110      5401      5391      5101      5111
 -1      3585    1    0    1
 -2      5401      5391      5101      5111      5402      5392      5102      5112
 -1      3586    1    0    1
 -2      5402      5392      5102      5112      2509      2508      2479      2480
 -1      3587    1    0    1
 -2       509       508       479       480      5403      5393      5103      5113
 -1      3588    1    0    1
 -2      5403      5393      5103      5113      5404      5394      5104      5114
 -1      3589    1    0    1
 -2      5404      5394      5104      5114      5405      5395      5105      5115
 -1      3590    1    0    1
 -2      5405      5395      5105      5115      5406      5396      5106      5116
 -1      3591    1    0    1
 -2      5406      5396      5106      5116      5407      5397      5107      5117
 -1      3592    1    0    1
 -2      5407      5397      5107      5117      5408      5398      5108      5118
 -1      3593    1    0    1
 -2      5408      5398      5108      5118      5409      5399      5109      5119
 -1      3594    1    0    1
 -2      5409      5399      5109      5119      5410      5400      5110      5120
 -1      3595    1    0    1
 -2      5410      5400      5110      5120      5411      5401      5111      5121
 -1      3596    1    0    1
 -2      5411      5401      5111      5121      5412      5402      5112      5122
 -1      3597    1    0    1
 -2      5412      5402      5112      5122      2510      2509      2480      2481
 -1      3598    1    0    1
 -2       510       509       480       481      5413      5403      5113      5123
 -1      3599    1    0    1
 -2      5413      5403      5113      5123      5414      5404      5114      5124
 -1      3600    1    0    1
 -2      5414      5404      5114      5124      5415      5405      5115      5125
 -1      3601    1    0    1
 -2      5415      5405      5115      5125      5416      5406      5116      5126
 -1      3602    1    0    1
 -2      5416      5406      5116      5126      5417      5407      5117      5127
 -1      3603    1    0    1
 -2      5417      5407      5117      5127      5418      5408      5118      5128
 -1      3604    1    0    1
 -2      5418      5408      5118      5128      5419      5409      5119      5129
 -1      3605    1    0    1
 -2      5419      5409      5119      5129      5420      5410      5120      5130
 -1      3606    1    0    1
 -2      5420      5410      5120      5130      5421      5411      5121      5131
 -1      3607    1    0    1
 -2      5421      5411      5121      5131      5422      5412      5122      5132
 -1      3608    1    0    1
 -2      5422      5412      5122      5132      2511      2510      2481      2482
 -1      3609    1    0    1
 -2       511       510       481       482      5423      5413      5123      5133
 -1      3610    1    0    1
 -2      5423      5413      5123      5133      5424      5414      5124      5134
 -1      3611    1    0    1
 -2      5424      5414      5124      5134      5425      5415      5125      5135
 -1      3612    1    0    1
 -2      5425      5415      5125      5135      5426      5416      5126      5136
 -1      3613    1    0    1
 -2      5426      5416      5126      5136      5427      5417      5127      5137
 -1      3614    1    0    1
 -2      5427      5417      5127      5137      5428      5418      5128      5138
 -1      3615    1    0    1
 -2      5428      5418      5128      5138      5429      5419      5129      5139
 -1      3616    1    0    1
 -2      5429      5419      5129      5139      5430      5420      5130      5140
 -1      3617    1    0    1
 -2      5430      5420      5130      5140      5431      5421      5131      5141
 -1      3618    1    0    1
 -2      5431      5421      5131      5141      5432      5422      5132      5142
 -1      3619    1    0    1
 -2      5432      5422      5132      5142      2512      2511      2482      2483
 -1      3620    1    0    1
 -2       512       511       482       483      5433      5423      5133      5143
 -1      3621    1    0    1
 -2      5433      5423      5133      5143      5434      5424      5134      5144
 -1      3622    1    0    1
 -2      5434      5424      5134      5144      5435      5425      5135      5145
 -1      3623    1    0    1
 -2      5435      5425      5135      5145      5436      5426      5136      5146
 -1      3624    1    0    1
 -2      5436      5426      5136      5146      5437      5427      5137      5147
 -1      3625    1    0    1
 -2      5437      5427      5137      5147      5438      5428      5138      5148
 -1      3626    1    0    1
 -2      5438      5428      5138      5148      5439      5429      5139      5149
 -1      3627    1    0    1
 -2      5439      5429      5139      5149      5440      5430      5140      5150
 -1      3628    1    0    1
 -2      5440      5430      5140      5150      5441      5431      5141      5151
 -1      3629    1    0    1
 -2      5441      5431      5141      5151      5442      5432      5142      5152
 -1      3630    1    0    1
 -2      5442      5432      5142      5152      2513      2512      2483      2484
 -1      3631    1    0    1
 -2        88       512       483        89      1912      5433      5143      1922
 -1      3632    1    0    1
 -2      1912      5433      5143      1922      1913      5434      5144      1923
 -1      3633    1    0    1
 -2      1913      5434      5144      1923      1914      5435      5145      1924
 -1      3634    1    0    1
 -2      1914      5435      5145      1924      1915      5436      5146      1925
 -1      3635    1    0    1
 -2      1915      5436      5146      1925      1916      5437      5147      1926
 -1      3636    1    0    1
 -2      1916      5437      5147      1926      1917      5438      5148      1927
 -1      3637    1    0    1
 -2      1917      5438      5148      1927      1918      5439      5149      1928
 -1      3638    1    0    1
 -2      1918      5439      5149      1928      1919      5440      5150      1929
 -1      3639    1    0    1
 -2      1919      5440      5150      1929      1920      5441      5151      1930
 -1      3640    1    0    1
 -2      1920      5441      5151      1930      1921      5442      5152      1931
 -1      3641    1    0    1
 -2      1921      5442      5152      1931       204      2513      2484       205
 -1      3642    1    0    1
 -2       513        17        16       484      5443      1202      1192      5153
 -1      3643    1    0    1
 -2      5443      1202      1192      5153      5444      1203      1193      5154
 -1      3644    1    0    1
 -2      5444      1203      1193      5154      5445      1204      1194      5155
 -1      3645    1    0    1
 -2      5445      1204      1194      5155      5446      1205      1195      5156
 -1      3646    1    0    1
 -2      5446      1205      1195      5156      5447      1206      1196      5157
 -1      3647    1    0    1
 -2      5447      1206      1196      5157      5448      1207      1197      5158
 -1      3648    1    0    1
 -2      5448      1207      1197      5158      5449      1208      1198      5159
 -1      3649    1    0    1
 -2      5449      1208      1198      5159      5450      1209      1199      5160
 -1      3650    1    0    1
 -2      5450      1209      1199      5160      5451      1210      1200      5161
 -1      3651    1    0    1
 -2      5451      1210      1200      5161      5452      1211      1201      5162
 -1      3652    1    0    1
 -2      5452      1211      1201      5162      2514       133       132      2485
 -1      3653    1    0    1
 -2       514       513       484       485      5453      5443      5153      5163
 -1      3654    1    0    1
 -2      5453      5443      5153      5163      5454      5444      5154      5164
 -1      3655    1    0    1
 -2      5454      5444      5154      5164      5455      5445      5155      5165
 -1      3656    1    0    1
 -2      5455      5445      5155      5165      5456      5446      5156      5166
 -1      3657    1    0    1
 -2      5456      5446      5156      5166      5457      5447      5157      5167
 -1      3658    1    0    1
 -2      5457      5447      5157      5167      5458      5448      5158      5168
 -1      3659    1    0    1
 -2      5458      5448      5158      5168      5459      5449      5159      5169
 -1      3660    1    0    1
 -2      5459      5449      5159      5169      5460      5450      5160      5170
 -1      3661    1    0    1
 -2      5460      5450      5160      5170      5461      5451      5161      5171
 -1      3662    1    0    1
 -2      5461      5451      5161      5171      5462      5452      5162      5172
 -1      3663    1    0    1
 -2      5462      5452      5162      5172      2515      2514      2485      2486
 -1      3664    1    0    1
 -2       515       514       485       486      5463      5453      5163      5173
 -1      3665    1    0    1
 -2      5463      5453      5163      5173      5464      5454      5164      5174
 -1      3666    1    0    1
 -2      5464      5454      5164      5174      5465      5455      5165      5175
 -1      3667    1    0    1
 -2      5465      5455      5165      5175      5466      5456      5166      5176
 -1      3668    1    0    1
 -2      5466      5456      5166      5176      5467      5457      5167      5177
 -1      3669    1    0    1
 -2      5467      5457      5167      5177      5468      5458      5168      5178
 -1      3670    1    0    1
 -2      5468      5458      5168      5178      5469      5459      5169      5179
 -1      3671    1    0    1
 -2      5469      5459      5169      5179      5470      5460      5170      5180
 -1      3672    1    0    1
 -2      5470      5460      5170      5180      5471      5461      5171      5181
 -1      3673    1    0    1
 -2      5471      5461      5171      5181      5472      5462      5172      5182
 -1      3674    1    0    1
 -2      5472      5462      5172      5182      2516      2515      2486      2487
 -1      3675    1    0    1
 -2       516       515       486       487      5473      5463      5173      5183
 -1      3676    1    0    1
 -2      5473      5463      5173      5183      5474      5464      5174      5184
 -1      3677    1    0    1
 -2      5474      5464      5174      5184      5475      5465      5175      5185
 -1      3678    1    0    1
 -2      5475      5465      5175      5185      5476      5466      5176      5186
 -1      3679    1    0    1
 -2      5476      5466      5176      5186      5477      5467      5177      5187
 -1      3680    1    0    1
 -2      5477      5467      5177      5187      5478      5468      5178      5188
 -1      3681    1    0    1
 -2      5478      5468      5178      5188      5479      5469      5179      5189
 -1      3682    1    0    1
 -2      5479      5469      5179      5189      5480      5470      5180      5190
 -1      3683    1    0    1
 -2      5480      5470      5180      5190      5481      5471      5181      5191
 -1      3684    1    0    1
 -2      5481      5471      5181      5191      5482      5472      5182      5192
 -1      3685    1    0    1
 -2      5482      5472      5182      5192      2517      2516      2487      2488
 -1      3686    1    0    1
 -2       517       516       487       488      5483      5473      5183      5193
 -1      3687    1    0    1
 -2      5483      5473      5183      5193      5484      5474      5184      5194
 -1      3688    1    0    1
 -2      5484      5474      5184      5194      5485      5475      5185      5195
 -1      3689    1    0    1
 -2      5485      5475      5185      5195      5486      5476      5186      5196
 -1      3690    1    0    1
 -2      5486      5476      5186      5196      5487      5477      5187      5197
 -1      3691    1    0    1
 -2      5487      5477      5187      5197      5488      5478      5188      5198
 -1      3692    1    0    1
 -2      5488      5478      5188      5198      5489      5479      5189      5199
 -1      3693    1    0    1
 -2      5489      5479      5189      5199      5490      5480      5190      5200
 -1      3694    1    0    1
 -2      5490      5480      5190      5200      5491      5481      5191      5201
 -1      3695    1    0    1
 -2      5491      5481      5191      5201      5492      5482      5192      5202
 -1      3696    1    0    1
 -2      5492      5482      5192      5202      2518      2517      2488      2489
 -1      3697    1    0    1
 -2       518       517       488       489      5493      5483      5193      5203
 -1      3698    1    0    1
 -2      5493      5483      5193      5203      5494      5484      5194      5204
 -1      3699    1    0    1
 -2      5494      5484      5194      5204      5495      5485      5195      5205
 -1      3700    1    0    1
 -2      5495      5485      5195      5205      5496      5486      5196      5206
 -1      3701    1    0    1
 -2      5496      5486      5196      5206      5497      5487      5197      5207
 -1      3702    1    0    1
 -2      5497      5487      5197      5207      5498      5488      5198      5208
 -1      3703    1    0    1
 -2      5498      5488      5198      5208      5499      5489      5199      5209
 -1      3704    1    0    1
 -2      5499      5489      5199      5209      5500      5490      5200      5210
 -1      3705    1    0    1
 -2      5500      5490      5200      5210      5501      5491      5201      5211
 -1      3706    1    0    1
 -2      5501      5491      5201      5211      5502      5492      5202      5212
 -1      3707    1    0    1
 -2      5502      5492      5202      5212      2519      2518      2489      2490
 -1      3708    1    0    1
 -2       519       518       489       490      5503      5493      5203      5213
 -1      3709    1    0    1
 -2      5503      5493      5203      5213      5504      5494      5204      5214
 -1      3710    1    0    1
 -2      5504      5494      5204      5214      5505      5495      5205      5215
 -1      3711    1    0    1
 -2      5505      5495      5205      5215      5506      5496      5206      5216
 -1      3712    1    0    1
 -2      5506      5496      5206      5216      5507      5497      5207      5217
 -1      3713    1    0    1
 -2      5507      5497      5207      5217      5508      5498      5208      5218
 -1      3714    1    0    1
 -2      5508      5498      5208      5218      5509      5499      5209      5219
 -1      3715    1    0    1
 -2      5509      5499      5209      5219      5510      5500      5210      5220
 -1      3716    1    0    1
 -2      5510      5500      5210      5220      5511      5501      5211      5221
 -1      3717    1    0    1
 -2      5511      5501      5211      5221      5512      5502      5212      5222
 -1      3718    1    0    1
 -2      5512      5502      5212      5222      2520      2519      2490      2491
 -1      3719    1    0    1
 -2       520       519       490       491      5513      5503      5213      5223
 -1      3720    1    0    1
 -2      5513      5503      5213      5223      5514      5504      5214      5224
 -1      3721    1    0    1
 -2      5514      5504      5214      5224      5515      5505      5215      5225
 -1      3722    1    0    1
 -2      5515      5505      5215      5225      5516      5506      5216      5226
 -1      3723    1    0    1
 -2      5516      5506      5216      5226      5517      5507      5217      5227
 -1      3724    1    0    1
 -2      5517      5507      5217      5227      5518      5508      5218      5228
 -1      3725    1    0    1
 -2      5518      5508      5218      5228      5519      5509      5219      5229
 -1      3726    1    0    1
 -2      5519      5509      5219      5229      5520      5510      5220      5230
 -1      3727    1    0    1
 -2      5520      5510      5220      5230      5521      5511      5221      5231
 -1      3728    1    0    1
 -2      5521      5511      5221      5231      5522      5512      5222      5232
 -1      3729    1    0    1
 -2      5522      5512      5222      5232      2521      2520      2491      2492
 -1      3730    1    0    1
 -2       521       520       491       492      5523      5513      5223      5233
 -1      3731    1    0    1
 -2      5523      5513      5223      5233      5524      5514      5224      5234
 -1      3732    1    0    1
 -2      5524      5514      5224      5234      5525      5515      5225      5235
 -1      3733    1    0    1
 -2      5525      5515      5225      5235      5526      5516      5226      5236
 -1      3734    1    0    1
 -2      5526      5516      5226      5236      5527      5517      5227      5237
 -1      3735    1    0    1
 -2      5527      5517      5227      5237      5528      5518      5228      5238
 -1      3736    1    0    1
 -2      5528      5518      5228      5238      5529      5519      5229      5239
 -1      3737    1    0    1
 -2      5529      5519      5229      5239      5530      5520      5230      5240
 -1      3738    1    0    1
 -2      5530      5520      5230      5240      5531      5521      5231      5241
 -1      3739    1    0    1
 -2      5531      5521      5231      5241      5532      5522      5232      5242
 -1      3740    1    0    1
 -2      5532      5522      5232      5242      2522      2521      2492      2493
 -1      3741    1    0    1
 -2       522       521       492       493      5533      5523      5233      5243
 -1      3742    1    0    1
 -2      5533      5523      5233      5243      5534      5524      5234      5244
 -1      3743    1    0    1
 -2      5534      5524      5234      5244      5535      5525      5235      5245
 -1      3744    1    0    1
 -2      5535      5525      5235      5245      5536      5526      5236      5246
 -1      3745    1    0    1
 -2      5536      5526      5236      5246      5537      5527      5237      5247
 -1      3746    1    0    1
 -2      5537      5527      5237      5247      5538      5528      5238      5248
 -1      3747    1    0    1
 -2      5538      5528      5238      5248      5539      5529      5239      5249
 -1      3748    1    0    1
 -2      5539      5529      5239      5249      5540      5530      5240      5250
 -1      3749    1    0    1
 -2      5540      5530      5240      5250      5541      5531      5241      5251
 -1      3750    1    0    1
 -2      5541      5531      5241      5251      5542      5532      5242      5252
 -1      3751    1    0    1
 -2      5542      5532      5242      5252      2523      2522      2493      2494
 -1      3752    1    0    1
 -2       523       522       493       494      5543      5533      5243      5253
 -1      3753    1    0    1
 -2      5543      5533      5243      5253      5544      5534      5244      5254
 -1      3754    1    0    1
 -2      5544      5534      5244      5254      5545      5535      5245      5255
 -1      3755    1    0    1
 -2      5545      5535      5245      5255      5546      5536      5246      5256
 -1      3756    1    0    1
 -2      5546      5536      5246      5256      5547      5537      5247      5257
 -1      3757    1    0    1
 -2      5547      5537      5247      5257      5548      5538      5248      5258
 -1      3758    1    0    1
 -2      5548      5538      5248      5258      5549      5539      5249      5259
 -1      3759    1    0    1
 -2      5549      5539      5249      5259      5550      5540      5250      5260
 -1      3760    1    0    1
 -2      5550      5540      5250      5260      5551      5541      5251      5261
 -1      3761    1    0    1
 -2      5551      5541      5251      5261      5552      5542      5252      5262
 -1      3762    1    0    1
 -2      5552      5542      5252      5262      2524      2523      2494      2495
 -1      3763    1    0    1
 -2       524       523       494       495      5553      5543      5253      5263
 -1      3764    1    0    1
 -2      5553      5543      5253      5263      5554      5544      5254      5264
 -1      3765    1    0    1
 -2      5554      5544      5254      5264      5555      5545      5255      5265
 -1      3766    1    0    1
 -2      5555      5545      5255      5265      5556      5546      5256      5266
 -1      3767    1    0    1
 -2      5556      5546      5256      5266      5557      5547      5257      5267
 -1      3768    1    0    1
 -2      5557      5547      5257      5267      5558      5548      5258      5268
 -1      3769    1    0    1
 -2      5558      5548      5258      5268      5559      5549      5259      5269
 -1      3770    1    0    1
 -2      5559      5549      5259      5269      5560      5550      5260      5270
 -1      3771    1    0    1
 -2      5560      5550      5260      5270      5561      5551      5261      5271
 -1      3772    1    0    1
 -2      5561      5551      5261      5271      5562      5552      5262      5272
 -1      3773    1    0    1
 -2      5562      5552      5262      5272      2525      2524      2495      2496
 -1      3774    1    0    1
 -2       525       524       495       496      5563      5553      5263      5273
 -1      3775    1    0    1
 -2      5563      5553      5263      5273      5564      5554      5264      5274
 -1      3776    1    0    1
 -2      5564      5554      5264      5274      5565      5555      5265      5275
 -1      3777    1    0    1
 -2      5565      5555      5265      5275      5566      5556      5266      5276
 -1      3778    1    0    1
 -2      5566      5556      5266      5276      5567      5557      5267      5277
 -1      3779    1    0    1
 -2      5567      5557      5267      5277      5568      5558      5268      5278
 -1      3780    1    0    1
 -2      5568      5558      5268      5278      5569      5559      5269      5279
 -1      3781    1    0    1
 -2      5569      5559      5269      5279      5570      5560      5270      5280
 -1      3782    1    0    1
 -2      5570      5560      5270      5280      5571      5561      5271      5281
 -1      3783    1    0    1
 -2      5571      5561      5271      5281      5572      5562      5272      5282
 -1      3784    1    0    1
 -2      5572      5562      5272      5282      2526      2525      2496      2497
 -1      3785    1    0    1
 -2       526       525       496       497      5573      5563      5273      5283
 -1      3786    1    0    1
 -2      5573      5563      5273      5283      5574      5564      5274      5284
 -1      3787    1    0    1
 -2      5574      5564      5274      5284      5575      5565      5275      5285
 -1      3788    1    0    1
 -2      5575      5565      5275      5285      5576      5566      5276      5286
 -1      3789    1    0    1
 -2      5576      5566      5276      5286      5577      5567      5277      5287
 -1      3790    1    0    1
 -2      5577      5567      5277      5287      5578      5568      5278      5288
 -1      3791    1    0    1
 -2      5578      5568      5278      5288      5579      5569      5279      5289
 -1      3792    1    0    1
 -2      5579      5569      5279      5289      5580      5570      5280      5290
 -1      3793    1    0    1
 -2      5580      5570      5280      5290      5581      5571      5281      5291
 -1      3794    1    0    1
 -2      5581      5571      5281      5291      5582      5572      5282      5292
 -1      3795    1    0    1
 -2      5582      5572      5282      5292      2527      2526      2497      2498
 -1      3796    1    0    1
 -2       527       526       497       498      5583      5573      5283      5293
 -1      3797    1    0    1
 -2      5583      5573      5283      5293      5584      5574      5284      5294
 -1      3798    1    0    1
 -2      5584      5574      5284      5294      5585      5575      5285      5295
 -1      3799    1    0    1
 -2      5585      5575      5285      5295      5586      5576      5286      5296
 -1      3800    1    0    1
 -2      5586      5576      5286      5296      5587      5577      5287      5297
 -1      3801    1    0    1
 -2      5587      5577      5287      5297      5588      5578      5288      5298
 -1      3802    1    0    1
 -2      5588      5578      5288      5298      5589      5579      5289      5299
 -1      3803    1    0    1
 -2      5589      5579      5289      5299      5590      5580      5290      5300
 -1      3804    1    0    1
 -2      5590      5580      5290      5300      5591      5581      5291      5301
 -1      3805    1    0    1
 -2      5591      5581      5291      5301      5592      5582      5292      5302
 -1      3806    1    0    1
 -2      5592      5582      5292      5302      2528      2527      2498      2499
 -1      3807    1    0    1
 -2       528       527       498       499      5593      5583      5293      5303
 -1      3808    1    0    1
 -2      5593      5583      5293      5303      5594      5584      5294      5304
 -1      3809    1    0    1
 -2      5594      5584      5294      5304      5595      5585      5295      5305
 -1      3810    1    0    1
 -2      5595      5585      5295      5305      5596      5586      5296      5306
 -1      3811    1    0    1
 -2      5596      5586      5296      5306      5597      5587      5297      5307
 -1      3812    1    0    1
 -2      5597      5587      5297      5307      5598      5588      5298      5308
 -1      3813    1    0    1
 -2      5598      5588      5298      5308      5599      5589      5299      5309
 -1      3814    1    0    1
 -2      5599      5589      5299      5309      5600      5590      5300      5310
 -1      3815    1    0    1
 -2      5600      5590      5300      5310      5601      5591      5301      5311
 -1      3816    1    0    1
 -2      5601      5591      5301      5311      5602      5592      5302      5312
 -1      3817    1    0    1
 -2      5602      5592      5302      5312      2529      2528      2499      2500
 -1      3818    1    0    1
 -2       529       528       499       500      5603      5593      5303      5313
 -1      3819    1    0    1
 -2      5603      5593      5303      5313      5604      5594      5304      5314
 -1      3820    1    0    1
 -2      5604      5594      5304      5314      5605      5595      5305      5315
 -1      3821    1    0    1
 -2      5605      5595      5305      5315      5606      5596      5306      5316
 -1      3822    1    0    1
 -2      5606      5596      5306      5316      5607      5597      5307      5317
 -1      3823    1    0    1
 -2      5607      5597      5307      5317      5608      5598      5308      5318
 -1      3824    1    0    1
 -2      5608      5598      5308      5318      5609      5599      5309      5319
 -1      3825    1    0    1
 -2      5609      5599      5309      5319      5610      5600      5310      5320
 -1      3826    1    0    1
 -2      5610      5600      5310      5320      5611      5601      5311      5321
 -1      3827    1    0    1
 -2      5611      5601      5311      5321      5612      5602      5312      5322
 -1      3828    1    0    1
 -2      5612      5602      5312      5322      2530      2529      2500      2501
 -1      3829    1    0    1
 -2       530       529       500       501      5613      5603      5313      5323
 -1      3830    1    0    1
 -2      5613      5603      5313      5323      5614      5604      5314      5324
 -1      3831    1    0    1
 -2      5614      5604      5314      5324      5615      5605      5315      5325
 -1      3832    1    0    1
 -2      5615      5605      5315      5325      5616      5606      5316      5326
 -1      3833    1    0    1
 -2      5616      5606      5316      5326      5617      5607      5317      5327
 -1      3834    1    0    1
 -2      5617      5607      5317      5327      5618      5608      5318      5328
 -1      3835    1    0    1
 -2      5618      5608      5318      5328      5619      5609      5319      5329
 -1      3836    1    0    1
 -2      5619      5609      5319      5329      5620      5610      5320      5330
 -1      3837    1    0    1
 -2      5620      5610      5320      5330      5621      5611      5321      5331
 -1      3838    1    0    1
 -2      5621      5611      5321      5331      5622      5612      5322      5332
 -1      3839    1    0    1
 -2      5622      5612      5322      5332      2531      2530      2501      2502
 -1      3840    1    0    1
 -2       531       530       501       502      5623      5613      5323      5333
 -1      3841    1    0    1
 -2      5623      5613      5323      5333      5624      5614      5324      5334
 -1      3842    1    0    1
 -2      5624      5614      5324      5334      5625      5615      5325      5335
 -1      3843    1    0    1
 -2      5625      5615      5325      5335      5626      5616      5326      5336
 -1      3844    1    0    1
 -2      5626      5616      5326      5336      5627      5617      5327      5337
 -1      3845    1    0    1
 -2      5627      5617      5327      5337      5628      5618      5328      5338
 -1      3846    1    0    1
 -2      5628      5618      5328      5338      5629      5619      5329      5339
 -1      3847    1    0    1
 -2      5629      5619      5329      5339      5630      5620      5330      5340
 -1      3848    1    0    1
 -2      5630      5620      5330      5340      5631      5621      5331      5341
 -1      3849    1    0    1
 -2      5631      5621      5331      5341      5632      5622      5332      5342
 -1      3850    1    0    1
 -2      5632      5622      5332      5342      2532      2531      2502      2503
 -1      3851    1    0    1
 -2       532       531       502       503      5633      5623      5333      5343
 -1      3852    1    0    1
 -2      5633      5623      5333      5343      5634      5624      5334      5344
 -1      3853    1    0    1
 -2      5634      5624      5334      5344      5635      5625      5335      5345
 -1      3854    1    0    1
 -2      5635      5625      5335      5345      5636      5626      5336      5346
 -1      3855    1    0    1
 -2      5636      5626      5336      5346      5637      5627      5337      5347
 -1      3856    1    0    1
 -2      5637      5627      5337      5347      5638      5628      5338      5348
 -1      3857    1    0    1
 -2      5638      5628      5338      5348      5639      5629      5339      5349
 -1      3858    1    0    1
 -2      5639      5629      5339      5349      5640      5630      5340      5350
 -1      3859    1    0    1
 -2      5640      5630      5340      5350      5641      5631      5341      5351
 -1      3860    1    0    1
 -2      5641      5631      5341      5351      5642      5632      5342      5352
 -1      3861    1    0    1
 -2      5642      5632      5342      5352      2533      2532      2503      2504
 -1      3862    1    0    1
 -2       533       532       503       504      5643      5633      5343      5353
 -1      3863    1    0    1
 -2      5643      5633      5343      5353      5644      5634      5344      5354
 -1      3864    1    0    1
 -2      5644      5634      5344      5354      5645      5635      5345      5355
 -1      3865    1    0    1
 -2      5645      5635      5345      5355      5646      5636      5346      5356
 -1      3866    1    0    1
 -2      5646      5636      5346      5356      5647      5637      5347      5357
 -1      3867    1    0    1
 -2      5647      5637      5347      5357      5648      5638      5348      5358
 -1      3868    1    0    1
 -2      5648      5638      5348      5358      5649      5639      5349      5359
 -1      3869    1    0    1
 -2      5649      5639      5349      5359      5650      5640      5350      5360
 -1      3870    1    0    1
 -2      5650      5640      5350      5360      5651      5641      5351      5361
 -1      3871    1    0    1
 -2      5651      5641      5351      5361      5652      5642      5352      5362
 -1      3872    1    0    1
 -2      5652      5642      5352      5362      2534      2533      2504      2505
 -1      3873    1    0    1
 -2       534       533       504       505      5653      5643      5353      5363
 -1      3874    1    0    1
 -2      5653      5643      5353      5363      5654      5644      5354      5364
 -1      3875    1    0    1
 -2      5654      5644      5354      5364      5655      5645      5355      5365
 -1      3876    1    0    1
 -2      5655      5645      5355      5365      5656      5646      5356      5366
 -1      3877    1    0    1
 -2      5656      5646      5356      5366      5657      5647      5357      5367
 -1      3878    1    0    1
 -2      5657      5647      5357      5367      5658      5648      5358      5368
 -1      3879    1    0    1
 -2      5658      5648      5358      5368      5659      5649      5359      5369
 -1      3880    1    0    1
 -2      5659      5649      5359      5369      5660      5650      5360      5370
 -1      3881    1    0    1
 -2      5660      5650      5360      5370      5661      5651      5361      5371
 -1      3882    1    0    1
 -2      5661      5651      5361      5371      5662      5652      5362      5372
 -1      3883    1    0    1
 -2      5662      5652      5362      5372      2535      2534      2505      2506
 -1      3884    1    0    1
 -2       535       534       505       506      5663      5653      5363      5373
 -1      3885    1    0    1
 -2      5663      5653      5363      5373      5664      5654      5364      5374
 -1      3886    1    0    1
 -2      5664      5654      5364      5374      5665      5655      5365      5375
 -1      3887    1    0    1
 -2      5665      5655      5365      5375      5666      5656      5366      5376
 -1      3888    1    0    1
 -2      5666      5656      5366      5376      5667      5657      5367      5377
 -1      3889    1    0    1
 -2      5667      5657      5367      5377      5668      5658      5368      5378
 -1      3890    1    0    1
 -2      5668      5658      5368      5378      5669      5659      5369      5379
 -1      3891    1    0    1
 -2      5669      5659      5369      5379      5670      5660      5370      5380
 -1      3892    1    0    1
 -2      5670      5660      5370      5380      5671      5661      5371      5381
 -1      3893    1    0    1
 -2      5671      5661      5371      5381      5672      5662      5372      5382
 -1      3894    1    0    1
 -2      5672      5662      5372      5382      2536      2535      2506      2507
 -1      3895    1    0    1
 -2       536       535       506       507      5673      5663      5373      5383
 -1      3896    1    0    1
 -2      5673      5663      5373      5383      5674      5664      5374      5384
 -1      3897    1    0    1
 -2      5674      5664      5374      5384      5675      5665      5375      5385
 -1      3898    1    0    1
 -2      5675      5665      5375      5385      5676      5666      5376      5386
 -1      3899    1    0    1
 -2      5676      5666      5376      5386      5677      5667      5377      5387
 -1      3900    1    0    1
 -2      5677      5667      5377      5387      5678      5668      5378      5388
 -1      3901    1    0    1
 -2      5678      5668      5378      5388      5679      5669      5379      5389
 -1      3902    1    0    1
 -2      5679      5669      5379      5389      5680      5670      5380      5390
 -1      3903    1    0    1
 -2      5680      5670      5380      5390      5681      5671      5381      5391
 -1      3904    1    0    1
 -2      5681      5671      5381      5391      5682      5672      5382      5392
 -1      3905    1    0    1
 -2      5682      5672      5382      5392      2537      2536      2507      2508
 -1      3906    1    0    1
 -2       537       536       507       508      5683      5673      5383      5393
 -1      3907    1    0    1
 -2      5683      5673      5383      5393      5684      5674      5384      5394
 -1      3908    1    0    1
 -2      5684      5674      5384      5394      5685      5675      5385      5395
 -1      3909    1    0    1
 -2      5685      5675      5385      5395      5686      5676      5386      5396
 -1      3910    1    0    1
 -2      5686      5676      5386      5396      5687      5677      5387      5397
 -1      3911    1    0    1
 -2      5687      5677      5387      5397      5688      5678      5388      5398
 -1      3912    1    0    1
 -2      5688      5678      5388      5398      5689      5679      5389      5399
 -1      3913    1    0    1
 -2      5689      5679      5389      5399      5690      5680      5390      5400
 -1      3914    1    0    1
 -2      5690      5680      5390      5400      5691      5681      5391      5401
 -1      3915    1    0    1
 -2      5691      5681      5391      5401      5692      5682      5392      5402
 -1      3916    1    0    1
 -2      5692      5682      5392      5402      2538      2537      2508      2509
 -1      3917    1    0    1
 -2       538       537       508       509      5693      5683      5393      5403
 -1      3918    1    0    1
 -2      5693      5683      5393      5403      5694      5684      5394      5404
 -1      3919    1    0    1
 -2      5694      5684      5394      5404      5695      5685      5395      5405
 -1      3920    1    0    1
 -2      5695      5685      5395      5405      5696      5686      5396      5406
 -1      3921    1    0    1
 -2      5696      5686      5396      5406      5697      5687      5397      5407
 -1      3922    1    0    1
 -2      5697      5687      5397      5407      5698      5688      5398      5408
 -1      3923    1    0    1
 -2      5698      5688      5398      5408      5699      5689      5399      5409
 -1      3924    1    0    1
 -2      5699      5689      5399      5409      5700      5690      5400      5410
 -1      3925    1    0    1
 -2      5700      5690      5400      5410      5701      5691      5401      5411
 -1      3926    1    0    1
 -2      5701      5691      5401      5411      5702      5692      5402      5412
 -1      3927    1    0    1
 -2      5702      5692      5402      5412      2539      2538      2509      2510
 -1      3928    1    0    1
 -2       539       538       509       510      5703      5693      5403      5413
 -1      3929    1    0    1
 -2      5703      5693      5403      5413      5704      5694      5404      5414
 -1      3930    1    0    1
 -2      5704      5694      5404      5414      5705      5695      5405      5415
 -1      3931    1    0    1
 -2      5705      5695      5405      5415      5706      5696      5406      5416
 -1      3932    1    0    1
 -2      5706      5696      5406      5416      5707      5697      5407      5417
 -1      3933    1    0    1
 -2      5707      5697      5407      5417      5708      5698      5408      5418
 -1      3934    1    0    1
 -2      5708      5698      5408      5418      5709      5699      5409      5419
 -1      3935    1    0    1
 -2      5709      5699      5409      5419      5710      5700      5410      5420
 -1      3936    1    0    1
 -2      5710      5700      5410      5420      5711      5701      5411      5421
 -1      3937    1    0    1
 -2      5711      5701      5411      5421      5712      5702      5412      5422
 -1      3938    1    0    1
 -2      5712      5702      5412      5422      2540      2539      2510      2511
 -1      3939    1    0    1
 -2       540       539       510       511      5713      5703      5413      5423
 -1      3940    1    0    1
 -2      5713      5703      5413      5423      5714      5704      5414      5424
 -1      3941    1    0    1
 -2      5714      5704      5414      5424      5715      5705      5415      5425
 -1      3942    1    0    1
 -2      5715      5705      5415      5425      5716      5706      5416      5426
 -1      3943    1    0    1
 -2      5716      5706      5416      5426      5717      5707      5417      5427
 -1      3944    1    0    1
 -2      5717      5707      5417      5427      5718      5708      5418      5428
 -1      3945    1    0    1
 -2      5718      5708      5418      5428      5719      5709      5419      5429
 -1      3946    1    0    1
 -2      5719      5709      5419      5429      5720      5710      5420      5430
 -1      3947    1    0    1
 -2      5720      5710      5420      5430      5721      5711      5421      5431
 -1      3948    1    0    1
 -2      5721      5711      5421      5431      5722      5712      5422      5432
 -1      3949    1    0    1
 -2      5722      5712      5422      5432      2541      2540      2511      2512
 -1      3950    1    0    1
 -2       541       540       511       512      5723      5713      5423      5433
 -1      3951    1    0    1
 -2      5723      5713      5423      5433      5724      5714      5424      5434
 -1      3952    1    0    1
 -2      5724      5714      5424      5434      5725      5715      5425      5435
 -1      3953    1    0    1
 -2      5725      5715      5425      5435      5726      5716      5426      5436
 -1      3954    1    0    1
 -2      5726      5716      5426      5436      5727      5717      5427      5437
 -1      3955    1    0    1
 -2      5727      5717      5427      5437      5728      5718      5428      5438
 -1      3956    1    0    1
 -2      5728      5718      5428      5438      5729      5719      5429      5439
 -1      3957    1    0    1
 -2      5729      5719      5429      5439      5730      5720      5430      5440
 -1      3958    1    0    1
 -2      5730      5720      5430      5440      5731      5721      5431      5441
 -1      3959    1    0    1
 -2      5731      5721      5431      5441      5732      5722      5432      5442
 -1      3960    1    0    1
 -2      5732      5722      5432      5442      2542      2541      2512      2513
 -1      3961    1    0    1
 -2        87       541       512        88      1902      5723      5433      1912
 -1      3962    1    0    1
 -2      1902      5723      5433      1912      1903      5724      5434      1913
 -1      3963    1    0    1
 -2      1903      5724      5434      1913      1904      5725      5435      1914
 -1      3964    1    0    1
 -2      1904      5725      5435      1914      1905      5726      5436      1915
 -1      3965    1    0    1
 -2      1905      5726      5436      1915      1906      5727      5437      1916
 -1      3966    1    0    1
 -2      1906      5727      5437      1916      1907      5728      5438      1917
 -1      3967    1    0    1
 -2      1907      5728      5438      1917      1908      5729      5439      1918
 -1      3968    1    0    1
 -2      1908      5729      5439      1918      1909      5730      5440      1919
 -1      3969    1    0    1
 -2      1909      5730      5440      1919      1910      5731      5441      1920
 -1      3970    1    0    1
 -2      1910      5731      5441      1920      1911      5732      5442      1921
 -1      3971    1    0    1
 -2      1911      5732      5442      1921       203      2542      2513       204
 -1      3972    1    0    1
 -2       542        18        17       513      5733      1212      1202      5443
 -1      3973    1    0    1
 -2      5733      1212      1202      5443      5734      1213      1203      5444
 -1      3974    1    0    1
 -2      5734      1213      1203      5444      5735      1214      1204      5445
 -1      3975    1    0    1
 -2      5735      1214      1204      5445      5736      1215      1205      5446
 -1      3976    1    0    1
 -2      5736      1215      1205      5446      5737      1216      1206      5447
 -1      3977    1    0    1
 -2      5737      1216      1206      5447      5738      1217      1207      5448
 -1      3978    1    0    1
 -2      5738      1217      1207      5448      5739      1218      1208      5449
 -1      3979    1    0    1
 -2      5739      1218      1208      5449      5740      1219      1209      5450
 -1      3980    1    0    1
 -2      5740      1219      1209      5450      5741      1220      1210      5451
 -1      3981    1    0    1
 -2      5741      1220      1210      5451      5742      1221      1211      5452
 -1      3982    1    0    1
 -2      5742      1221      1211      5452      2543       134       133      2514
 -1      3983    1    0    1
 -2       543       542       513       514      5743      5733      5443      5453
 -1      3984    1    0    1
 -2      5743      5733      5443      5453      5744      5734      5444      5454
 -1      3985    1    0    1
 -2      5744      5734      5444      5454      5745      5735      5445      5455
 -1      3986    1    0    1
 -2      5745      5735      5445      5455      5746      5736      5446      5456
 -1      3987    1    0    1
 -2      5746      5736      5446      5456      5747      5737      5447      5457
 -1      3988    1    0    1
 -2      5747      5737      5447      5457      5748      5738      5448      5458
 -1      3989    1    0    1
 -2      5748      5738      5448      5458      5749      5739      5449      5459
 -1      3990    1    0    1
 -2      5749      5739      5449      5459      5750      5740      5450      5460
 -1      3991    1    0    1
 -2      5750      5740      5450      5460      5751      5741      5451      5461
 -1      3992    1    0    1
 -2      5751      5741      5451      5461      5752      5742      5452      5462
 -1      3993    1    0    1
 -2      5752      5742      5452      5462      2544      2543      2514      2515
 -1      3994    1    0    1
 -2       544       543       514       515      5753      5743      5453      5463
 -1      3995    1    0    1
 -2      5753      5743      5453      5463      5754      5744      5454      5464
 -1      3996    1    0    1
 -2      5754      5744      5454      5464      5755      5745      5455      5465
 -1      3997    1    0    1
 -2      5755      5745      5455      5465      5756      5746      5456      5466
 -1      3998    1    0    1
 -2      5756      5746      5456      5466      5757      5747      5457      5467
 -1      3999    1    0    1
 -2      5757      5747      5457      5467      5758      5748      5458      5468
 -1      4000    1    0    1
 -2      5758      5748      5458      5468      5759      5749      5459      5469
 -1      4001    1    0    1
 -2      5759      5749      5459      5469      5760      5750      5460      5470
 -1      4002    1    0    1
 -2      5760      5750      5460      5470      5761      5751      5461      5471
 -1      4003    1    0    1
 -2      5761      5751      5461      5471      5762      5752      5462      5472
 -1      4004    1    0    1
 -2      5762      5752      5462      5472      2545      2544      2515      2516
 -1      4005    1    0    1
 -2       545       544       515       516      5763      5753      5463      5473
 -1      4006    1    0    1
 -2      5763      5753      5463      5473      5764      5754      5464      5474
 -1      4007    1    0    1
 -2      5764      5754      5464      5474      5765      5755      5465      5475
 -1      4008    1    0    1
 -2      5765      5755      5465      5475      5766      5756      5466      5476
 -1      4009    1    0    1
 -2      5766      5756      5466      5476      5767      5757      5467      5477
 -1      4010    1    0    1
 -2      5767      5757      5467      5477      5768      5758      5468      5478
 -1      4011    1    0    1
 -2      5768      5758      5468      5478      5769      5759      5469      5479
 -1      4012    1    0    1
 -2      5769      5759      5469      5479      5770      5760      5470      5480
 -1      4013    1    0    1
 -2      5770      5760      5470      5480      5771      5761      5471      5481
 -1      4014    1    0    1
 -2      5771      5761      5471      5481      5772      5762      5472      5482
 -1      4015    1    0    1
 -2      5772      5762      5472      5482      2546      2545      2516      2517
 -1      4016    1    0    1
 -2       546       545       516       517      5773      5763      5473      5483
 -1      4017    1    0    1
 -2      5773      5763      5473      5483      5774      5764      5474      5484
 -1      4018    1    0    1
 -2      5774      5764      5474      5484      5775      5765      5475      5485
 -1      4019    1    0    1
 -2      5775      5765      5475      5485      5776      5766      5476      5486
 -1      4020    1    0    1
 -2      5776      5766      5476      5486      5777      5767      5477      5487
 -1      4021    1    0    1
 -2      5777      5767      5477      5487      5778      5768      5478      5488
 -1      4022    1    0    1
 -2      5778      5768      5478      5488      5779      5769      5479      5489
 -1      4023    1    0    1
 -2      5779      5769      5479      5489      5780      5770      5480      5490
 -1      4024    1    0    1
 -2      5780      5770      5480      5490      5781      5771      5481      5491
 -1      4025    1    0    1
 -2      5781      5771      5481      5491      5782      5772      5482      5492
 -1      4026    1    0    1
 -2      5782      5772      5482      5492      2547      2546      2517      2518
 -1      4027    1    0    1
 -2       547       546       517       518      5783      5773      5483      5493
 -1      4028    1    0    1
 -2      5783      5773      5483      5493      5784      5774      5484      5494
 -1      4029    1    0    1
 -2      5784      5774      5484      5494      5785      5775      5485      5495
 -1      4030    1    0    1
 -2      5785      5775      5485      5495      5786      5776      5486      5496
 -1      4031    1    0    1
 -2      5786      5776      5486      5496      5787      5777      5487      5497
 -1      4032    1    0    1
 -2      5787      5777      5487      5497      5788      5778      5488      5498
 -1      4033    1    0    1
 -2      5788      5778      5488      5498      5789      5779      5489      5499
 -1      4034    1    0    1
 -2      5789      5779      5489      5499      5790      5780      5490      5500
 -1      4035    1    0    1
 -2      5790      5780      5490      5500      5791      5781      5491      5501
 -1      4036    1    0    1
 -2      5791      5781      5491      5501      5792      5782      5492      5502
 -1      4037    1    0    1
 -2      5792      5782      5492      5502      2548      2547      2518      2519
 -1      4038    1    0    1
 -2       548       547       518       519      5793      5783      5493      5503
 -1      4039    1    0    1
 -2      5793      5783      5493      5503      5794      5784      5494      5504
 -1      4040    1    0    1
 -2      5794      5784      5494      5504      5795      5785      5495      5505
 -1      4041    1    0    1
 -2      5795      5785      5495      5505      5796      5786      5496      5506
 -1      4042    1    0    1
 -2      5796      5786      5496      5506      5797      5787      5497      5507
 -1      4043    1    0    1
 -2      5797      5787      5497      5507      5798      5788      5498      5508
 -1      4044    1    0    1
 -2      5798      5788      5498      5508      5799      5789      5499      5509
 -1      4045    1    0    1
 -2      5799      5789      5499      5509      5800      5790      5500      5510
 -1      4046    1    0    1
 -2      5800      5790      5500      5510      5801      5791      5501      5511
 -1      4047    1    0    1
 -2      5801      5791      5501      5511      5802      5792      5502      5512
 -1      4048    1    0    1
 -2      5802      5792      5502      5512      2549      2548      2519      2520
 -1      4049    1    0    1
 -2       549       548       519       520      5803      5793      5503      5513
 -1      4050    1    0    1
 -2      5803      5793      5503      5513      5804      5794      5504      5514
 -1      4051    1    0    1
 -2      5804      5794      5504      5514      5805      5795      5505      5515
 -1      4052    1    0    1
 -2      5805      5795      5505      5515      5806      5796      5506      5516
 -1      4053    1    0    1
 -2      5806      5796      5506      5516      5807      5797      5507      5517
 -1      4054    1    0    1
 -2      5807      5797      5507      5517      5808      5798      5508      5518
 -1      4055    1    0    1
 -2      5808      5798      5508      5518      5809      5799      5509      5519
 -1      4056    1    0    1
 -2      5809      5799      5509      5519      5810      5800      5510      5520
 -1      4057    1    0    1
 -2      5810      5800      5510      5520      5811      5801      5511      5521
 -1      4058    1    0    1
 -2      5811      5801      5511      5521      5812      5802      5512      5522
 -1      4059    1    0    1
 -2      5812      5802      5512      5522      2550      2549      2520      2521
 -1      4060    1    0    1
 -2       550       549       520       521      5813      5803      5513      5523
 -1      4061    1    0    1
 -2      5813      5803      5513      5523      5814      5804      5514      5524
 -1      4062    1    0    1
 -2      5814      5804      5514      5524      5815      5805      5515      5525
 -1      4063    1    0    1
 -2      5815      5805      5515      5525      5816      5806      5516      5526
 -1      4064    1    0    1
 -2      5816      5806      5516      5526      5817      5807      5517      5527
 -1      4065    1    0    1
 -2      5817      5807      5517      5527      5818      5808      5518      5528
 -1      4066    1    0    1
 -2      5818      5808      5518      5528      5819      5809      5519      5529
 -1      4067    1    0    1
 -2      5819      5809      5519      5529      5820      5810      5520      5530
 -1      4068    1    0    1
 -2      5820      5810      5520      5530      5821      5811      5521      5531
 -1      4069    1    0    1
 -2      5821      5811      5521      5531      5822      5812      5522      5532
 -1      4070    1    0    1
 -2      5822      5812      5522      5532      2551      2550      2521      2522
 -1      4071    1    0    1
 -2       551       550       521       522      5823      5813      5523      5533
 -1      4072    1    0    1
 -2      5823      5813      5523      5533      5824      5814      5524      5534
 -1      4073    1    0    1
 -2      5824      5814      5524      5534      5825      5815      5525      5535
 -1      4074    1    0    1
 -2      5825      5815      5525      5535      5826      5816      5526      5536
 -1      4075    1    0    1
 -2      5826      5816      5526      5536      5827      5817      5527      5537
 -1      4076    1    0    1
 -2      5827      5817      5527      5537      5828      5818      5528      5538
 -1      4077    1    0    1
 -2      5828      5818      5528      5538      5829      5819      5529      5539
 -1      4078    1    0    1
 -2      5829      5819      5529      5539      5830      5820      5530      5540
 -1      4079    1    0    1
 -2      5830      5820      5530      5540      5831      5821      5531      5541
 -1      4080    1    0    1
 -2      5831      5821      5531      5541      5832      5822      5532      5542
 -1      4081    1    0    1
 -2      5832      5822      5532      5542      2552      2551      2522      2523
 -1      4082    1    0    1
 -2       552       551       522       523      5833      5823      5533      5543
 -1      4083    1    0    1
 -2      5833      5823      5533      5543      5834      5824      5534      5544
 -1      4084    1    0    1
 -2      5834      5824      5534      5544      5835      5825      5535      5545
 -1      4085    1    0    1
 -2      5835      5825      5535      5545      5836      5826      5536      5546
 -1      4086    1    0    1
 -2      5836      5826      5536      5546      5837      5827      5537      5547
 -1      4087    1    0    1
 -2      5837      5827      5537      5547      5838      5828      5538      5548
 -1      4088    1    0    1
 -2      5838      5828      5538      5548      5839      5829      5539      5549
 -1      4089    1    0    1
 -2      5839      5829      5539      5549      5840      5830      5540      5550
 -1      4090    1    0    1
 -2      5840      5830      5540      5550      5841      5831      5541      5551
 -1      4091    1    0    1
 -2      5841      5831      5541      5551      5842      5832      5542      5552
 -1      4092    1    0    1
 -2      5842      5832      5542      5552      2553      2552      2523      2524
 -1      4093    1    0    1
 -2       553       552       523       524      5843      5833      5543      5553
 -1      4094    1    0    1
 -2      5843      5833      5543      5553      5844      5834      5544      5554
 -1      4095    1    0    1
 -2      5844      5834      5544      5554      5845      5835      5545      5555
 -1      4096    1    0    1
 -2      5845      5835      5545      5555      5846      5836      5546      5556
 -1      4097    1    0    1
 -2      5846      5836      5546      5556      5847      5837      5547      5557
 -1      4098    1    0    1
 -2      5847      5837      5547      5557      5848      5838      5548      5558
 -1      4099    1    0    1
 -2      5848      5838      5548      5558      5849      5839      5549      5559
 -1      4100    1    0    1
 -2      5849      5839      5549      5559      5850      5840      5550      5560
 -1      4101    1    0    1
 -2      5850      5840      5550      5560      5851      5841      5551      5561
 -1      4102    1    0    1
 -2      5851      5841      5551      5561      5852      5842      5552      5562
 -1      4103    1    0    1
 -2      5852      5842      5552      5562      2554      2553      2524      2525
 -1      4104    1    0    1
 -2       554       553       524       525      5853      5843      5553      5563
 -1      4105    1    0    1
 -2      5853      5843      5553      5563      5854      5844      5554      5564
 -1      4106    1    0    1
 -2      5854      5844      5554      5564      5855      5845      5555      5565
 -1      4107    1    0    1
 -2      5855      5845      5555      5565      5856      5846      5556      5566
 -1      4108    1    0    1
 -2      5856      5846      5556      5566      5857      5847      5557      5567
 -1      4109    1    0    1
 -2      5857      5847      5557      5567      5858      5848      5558      5568
 -1      4110    1    0    1
 -2      5858      5848      5558      5568      5859      5849      5559      5569
 -1      4111    1    0    1
 -2      5859      5849      5559      5569      5860      5850      5560      5570
 -1      4112    1    0    1
 -2      5860      5850      5560      5570      5861      5851      5561      5571
 -1      4113    1    0    1
 -2      5861      5851      5561      5571      5862      5852      5562      5572
 -1      4114    1    0    1
 -2      5862      5852      5562      5572      2555      2554      2525      2526
 -1      4115    1    0    1
 -2       555       554       525       526      5863      5853      5563      5573
 -1      4116    1    0    1
 -2      5863      5853      5563      5573      5864      5854      5564      5574
 -1      4117    1    0    1
 -2      5864      5854      5564      5574      5865      5855      5565      5575
 -1      4118    1    0    1
 -2      5865      5855      5565      5575      5866      5856      5566      5576
 -1      4119    1    0    1
 -2      5866      5856      5566      5576      5867      5857      5567      5577
 -1      4120    1    0    1
 -2      5867      5857      5567      5577      5868      5858      5568      5578
 -1      4121    1    0    1
 -2      5868      5858      5568      5578      5869      5859      5569      5579
 -1      4122    1    0    1
 -2      5869      5859      5569      5579      5870      5860      5570      5580
 -1      4123    1    0    1
 -2      5870      5860      5570      5580      5871      5861      5571      5581
 -1      4124    1    0    1
 -2      5871      5861      5571      5581      5872      5862      5572      5582
 -1      4125    1    0    1
 -2      5872      5862      5572      5582      2556      2555      2526      2527
 -1      4126    1    0    1
 -2       556       555       526       527      5873      5863      5573      5583
 -1      4127    1    0    1
 -2      5873      5863      5573      5583      5874      5864      5574      5584
 -1      4128    1    0    1
 -2      5874      5864      5574      5584      5875      5865      5575      5585
 -1      4129    1    0    1
 -2      5875      5865      5575      5585      5876      5866      5576      5586
 -1      4130    1    0    1
 -2      5876      5866      5576      5586      5877      5867      5577      5587
 -1      4131    1    0    1
 -2      5877      5867      5577      5587      5878      5868      5578      5588
 -1      4132    1    0    1
 -2      5878      5868      5578      5588      5879      5869      5579      5589
 -1      4133    1    0    1
 -2      5879      5869      5579      5589      5880      5870      5580      5590
 -1      4134    1    0    1
 -2      5880      5870      5580      5590      5881      5871      5581      5591
 -1      4135    1    0    1
 -2      5881      5871      5581      5591      5882      5872      5582      5592
 -1      4136    1    0    1
 -2      5882      5872      5582      5592      2557      2556      2527      2528
 -1      4137    1    0    1
 -2       557       556       527       528      5883      5873      5583      5593
 -1      4138    1    0    1
 -2      5883      5873      5583      5593      5884      5874      5584      5594
 -1      4139    1    0    1
 -2      5884      5874      5584      5594      5885      5875      5585      5595
 -1      4140    1    0    1
 -2      5885      5875      5585      5595      5886      5876      5586      5596
 -1      4141    1    0    1
 -2      5886      5876      5586      5596      5887      5877      5587      5597
 -1      4142    1    0    1
 -2      5887      5877      5587      5597      5888      5878      5588      5598
 -1      4143    1    0    1
 -2      5888      5878      5588      5598      5889      5879      5589      5599
 -1      4144    1    0    1
 -2      5889      5879      5589      5599      5890      5880      5590      5600
 -1      4145    1    0    1
 -2      5890      5880      5590      5600      5891      5881      5591      5601
 -1      4146    1    0    1
 -2      5891      5881      5591      5601      5892      5882      5592      5602
 -1      4147    1    0    1
 -2      5892      5882      5592      5602      2558      2557      2528      2529
 -1      4148    1    0    1
 -2       558       557       528       529      5893      5883      5593      5603
 -1      4149    1    0    1
 -2      5893      5883      5593      5603      5894      5884      5594      5604
 -1      4150    1    0    1
 -2      5894      5884      5594      5604      5895      5885      5595      5605
 -1      4151    1    0    1
 -2      5895      5885      5595      5605      5896      5886      5596      5606
 -1      4152    1    0    1
 -2      5896      5886      5596      5606      5897      5887      5597      5607
 -1      4153    1    0    1
 -2      5897      5887      5597      5607      5898      5888      5598      5608
 -1      4154    1    0    1
 -2      5898      5888      5598      5608      5899      5889      5599      5609
 -1      4155    1    0    1
 -2      5899      5889      5599      5609      5900      5890      5600      5610
 -1      4156    1    0    1
 -2      5900      5890      5600      5610      5901      5891      5601      5611
 -1      4157    1    0    1
 -2      5901      5891      5601      5611      5902      5892      5602      5612
 -1      4158    1    0    1
 -2      5902      5892      5602      5612      2559      2558      2529      2530
 -1      4159    1    0    1
 -2       559       558       529       530      5903      5893      5603      5613
 -1      4160    1    0    1
 -2      5903      5893      5603      5613      5904      5894      5604      5614
 -1      4161    1    0    1
 -2      5904      5894      5604      5614      5905      5895      5605      5615
 -1      4162    1    0    1
 -2      5905      5895      5605      5615      5906      5896      5606      5616
 -1      4163    1    0    1
 -2      5906      5896      5606      5616      5907      5897      5607      5617
 -1      4164    1    0    1
 -2      5907      5897      5607      5617      5908      5898      5608      5618
 -1      4165    1    0    1
 -2      5908      5898      5608      5618      5909      5899      5609      5619
 -1      4166    1    0    1
 -2      5909      5899      5609      5619      5910      5900      5610      5620
 -1      4167    1    0    1
 -2      5910      5900      5610      5620      5911      5901      5611      5621
 -1      4168    1    0    1
 -2      5911      5901      5611      5621      5912      5902      5612      5622
 -1      4169    1    0    1
 -2      5912      5902      5612      5622      2560      2559      2530      2531
 -1      4170    1    0    1
 -2       560       559       530       531      5913      5903      5613      5623
 -1      4171    1    0    1
 -2      5913      5903      5613      5623      5914      5904      5614      5624
 -1      4172    1    0    1
 -2      5914      5904      5614      5624      5915      5905      5615      5625
 -1      4173    1    0    1
 -2      5915      5905      5615      5625      5916      5906      5616      5626
 -1      4174    1    0    1
 -2      5916      5906      5616      5626      5917      5907      5617      5627
 -1      4175    1    0    1
 -2      5917      5907      5617      5627      5918      5908      5618      5628
 -1      4176    1    0    1
 -2      5918      5908      5618      5628      5919      5909      5619      5629
 -1      4177    1    0    1
 -2      5919      5909      5619      5629      5920      5910      5620      5630
 -1      4178    1    0    1
 -2      5920      5910      5620      5630      5921      5911      5621      5631
 -1      4179    1    0    1
 -2      5921      5911      5621      5631      5922      5912      5622      5632
 -1      4180    1    0    1
 -2      5922      5912      5622      5632      2561      2560      2531      2532
 -1      4181    1    0    1
 -2       561       560       531       532      5923      5913      5623      5633
 -1      4182    1    0    1
 -2      5923      5913      5623      5633      5924      5914      5624      5634
 -1      4183    1    0    1
 -2      5924      5914      5624      5634      5925      5915      5625      5635
 -1      4184    1    0    1
 -2      5925      5915      5625      5635      5926      5916      5626      5636
 -1      4185    1    0    1
 -2      5926      5916      5626      5636      5927      5917      5627      5637
 -1      4186    1    0    1
 -2      5927      5917      5627      5637      5928      5918      5628      5638
 -1      4187    1    0    1
 -2      5928      5918      5628      5638      5929      5919      5629      5639
 -1      4188    1    0    1
 -2      5929      5919      5629      5639      5930      5920      5630      5640
 -1      4189    1    0    1
 -2      5930      5920      5630      5640      5931      5921      5631      5641
 -1      4190    1    0    1
 -2      5931      5921      5631      5641      5932      5922      5632      5642
 -1      4191    1    0    1
 -2      5932      5922      5632      5642      2562      2561      2532      2533
 -1      4192    1    0    1
 -2       562       561       532       533      5933      5923      5633      5643
 -1      4193    1    0    1
 -2      5933      5923      5633      5643      5934      5924      5634      5644
 -1      4194    1    0    1
 -2      5934      5924      5634      5644      5935      5925      5635      5645
 -1      4195    1    0    1
 -2      5935      5925      5635      5645      5936      5926      5636      5646
 -1      4196    1    0    1
 -2      5936      5926      5636      5646      5937      5927      5637      5647
 -1      4197    1    0    1
 -2      5937      5927      5637      5647      5938      5928      5638      5648
 -1      4198    1    0    1
 -2      5938      5928      5638      5648      5939      5929      5639      5649
 -1      4199    1    0    1
 -2      5939      5929      5639      5649      5940      5930      5640      5650
 -1      4200    1    0    1
 -2      5940      5930      5640      5650      5941      5931      5641      5651
 -1      4201    1    0    1
 -2      5941      5931      5641      5651      5942      5932      5642      5652
 -1      4202    1    0    1
 -2      5942      5932      5642      5652      2563      2562      2533      2534
 -1      4203    1    0    1
 -2       563       562       533       534      5943      5933      5643      5653
 -1      4204    1    0    1
 -2      5943      5933      5643      5653      5944      5934      5644      5654
 -1      4205    1    0    1
 -2      5944      5934      5644      5654      5945      5935      5645      5655
 -1      4206    1    0    1
 -2      5945      5935      5645      5655      5946      5936      5646      5656
 -1      4207    1    0    1
 -2      5946      5936      5646      5656      5947      5937      5647      5657
 -1      4208    1    0    1
 -2      5947      5937      5647      5657      5948      5938      5648      5658
 -1      4209    1    0    1
 -2      5948      5938      5648      5658      5949      5939      5649      5659
 -1      4210    1    0    1
 -2      5949      5939      5649      5659      5950      5940      5650      5660
 -1      4211    1    0    1
 -2      5950      5940      5650      5660      5951      5941      5651      5661
 -1      4212    1    0    1
 -2      5951      5941      5651      5661      5952      5942      5652      5662
 -1      4213    1    0    1
 -2      5952      5942      5652      5662      2564      2563      2534      2535
 -1      4214    1    0    1
 -2       564       563       534       535      5953      5943      5653      5663
 -1      4215    1    0    1
 -2      5953      5943      5653      5663      5954      5944      5654      5664
 -1      4216    1    0    1
 -2      5954      5944      5654      5664      5955      5945      5655      5665
 -1      4217    1    0    1
 -2      5955      5945      5655      5665      5956      5946      5656      5666
 -1      4218    1    0    1
 -2      5956      5946      5656      5666      5957      5947      5657      5667
 -1      4219    1    0    1
 -2      5957      5947      5657      5667      5958      5948      5658      5668
 -1      4220    1    0    1
 -2      5958      5948      5658      5668      5959      5949      5659      5669
 -1      4221    1    0    1
 -2      5959      5949      5659      5669      5960      5950      5660      5670
 -1      4222    1    0    1
 -2      5960      5950      5660      5670      5961      5951      5661      5671
 -1      4223    1    0    1
 -2      5961      5951      5661      5671      5962      5952      5662      5672
 -1      4224    1    0    1
 -2      5962      5952      5662      5672      2565      2564      2535      2536
 -1      4225    1    0    1
 -2       565       564       535       536      5963      5953      5663      5673
 -1      4226    1    0    1
 -2      5963      5953      5663      5673      5964      5954      5664      5674
 -1      4227    1    0    1
 -2      5964      5954      5664      5674      5965      5955      5665      5675
 -1      4228    1    0    1
 -2      5965      5955      5665      5675      5966      5956      5666      5676
 -1      4229    1    0    1
 -2      5966      5956      5666      5676      5967      5957      5667      5677
 -1      4230    1    0    1
 -2      5967      5957      5667      5677      5968      5958      5668      5678
 -1      4231    1    0    1
 -2      5968      5958      5668      5678      5969      5959      5669      5679
 -1      4232    1    0    1
 -2      5969      5959      5669      5679      5970      5960      5670      5680
 -1      4233    1    0    1
 -2      5970      5960      5670      5680      5971      5961      5671      5681
 -1      4234    1    0    1
 -2      5971      5961      5671      5681      5972      5962      5672      5682
 -1      4235    1    0    1
 -2      5972      5962      5672      5682      2566      2565      2536      2537
 -1      4236    1    0    1
 -2       566       565       536       537      5973      5963      5673      5683
 -1      4237    1    0    1
 -2      5973      5963      5673      5683      5974      5964      5674      5684
 -1      4238    1    0    1
 -2      5974      5964      5674      5684      5975      5965      5675      5685
 -1      4239    1    0    1
 -2      5975      5965      5675      5685      5976      5966      5676      5686
 -1      4240    1    0    1
 -2      5976      5966      5676      5686      5977      5967      5677      5687
 -1      4241    1    0    1
 -2      5977      5967      5677      5687      5978      5968      5678      5688
 -1      4242    1    0    1
 -2      5978      5968      5678      5688      5979      5969      5679      5689
 -1      4243    1    0    1
 -2      5979      5969      5679      5689      5980      5970      5680      5690
 -1      4244    1    0    1
 -2      5980      5970      5680      5690      5981      5971      5681      5691
 -1      4245    1    0    1
 -2      5981      5971      5681      5691      5982      5972      5682      5692
 -1      4246    1    0    1
 -2      5982      5972      5682      5692      2567      2566      2537      2538
 -1      4247    1    0    1
 -2       567       566       537       538      5983      5973      5683      5693
 -1      4248    1    0    1
 -2      5983      5973      5683      5693      5984      5974      5684      5694
 -1      4249    1    0    1
 -2      5984      5974      5684      5694      5985      5975      5685      5695
 -1      4250    1    0    1
 -2      5985      5975      5685      5695      5986      5976      5686      5696
 -1      4251    1    0    1
 -2      5986      5976      5686      5696      5987      5977      5687      5697
 -1      4252    1    0    1
 -2      5987      5977      5687      5697      5988      5978      5688      5698
 -1      4253    1    0    1
 -2      5988      5978      5688      5698      5989      5979      5689      5699
 -1      4254    1    0    1
 -2      5989      5979      5689      5699      5990      5980      5690      5700
 -1      4255    1    0    1
 -2      5990      5980      5690      5700      5991      5981      5691      5701
 -1      4256    1    0    1
 -2      5991      5981      5691      5701      5992      5982      5692      5702
 -1      4257    1    0    1
 -2      5992      5982      5692      5702      2568      2567      2538      2539
 -1      4258    1    0    1
 -2       568       567       538       539      5993      5983      5693      5703
 -1      4259    1    0    1
 -2      5993      5983      5693      5703      5994      5984      5694      5704
 -1      4260    1    0    1
 -2      5994      5984      5694      5704      5995      5985      5695      5705
 -1      4261    1    0    1
 -2      5995      5985      5695      5705      5996      5986      5696      5706
 -1      4262    1    0    1
 -2      5996      5986      5696      5706      5997      5987      5697      5707
 -1      4263    1    0    1
 -2      5997      5987      5697      5707      5998      5988      5698      5708
 -1      4264    1    0    1
 -2      5998      5988      5698      5708      5999      5989      5699      5709
 -1      4265    1    0    1
 -2      5999      5989      5699      5709      6000      5990      5700      5710
 -1      4266    1    0    1
 -2      6000      5990      5700      5710      6001      5991      5701      5711
 -1      4267    1    0    1
 -2      6001      5991      5701      5711      6002      5992      5702      5712
 -1      4268    1    0    1
 -2      6002      5992      5702      5712      2569      2568      2539      2540
 -1      4269    1    0    1
 -2       569       568       539       540      6003      5993      5703      5713
 -1      4270    1    0    1
 -2      6003      5993      5703      5713      6004      5994      5704      5714
 -1      4271    1    0    1
 -2      6004      5994      5704      5714      6005      5995      5705      5715
 -1      4272    1    0    1
 -2      6005      5995      5705      5715      6006      5996      5706      5716
 -1      4273    1    0    1
 -2      6006      5996      5706      5716      6007      5997      5707      5717
 -1      4274    1    0    1
 -2      6007      5997      5707      5717      6008      5998      5708      5718
 -1      4275    1    0    1
 -2      6008      5998      5708      5718      6009      5999      5709      5719
 -1      4276    1    0    1
 -2      6009      5999      5709      5719      6010      6000      5710      5720
 -1      4277    1    0    1
 -2      6010      6000      5710      5720      6011      6001      5711      5721
 -1      4278    1    0    1
 -2      6011      6001      5711      5721      6012      6002      5712      5722
 -1      4279    1    0    1
 -2      6012      6002      5712      5722      2570      2569      2540      2541
 -1      4280    1    0    1
 -2       570       569       540       541      6013      6003      5713      5723
 -1      4281    1    0    1
 -2      6013      6003      5713      5723      6014      6004      5714      5724
 -1      4282    1    0    1
 -2      6014      6004      5714      5724      6015      6005      5715      5725
 -1      4283    1    0    1
 -2      6015      6005      5715      5725      6016      6006      5716      5726
 -1      4284    1    0    1
 -2      6016      6006      5716      5726      6017      6007      5717      5727
 -1      4285    1    0    1
 -2      6017      6007      5717      5727      6018      6008      5718      5728
 -1      4286    1    0    1
 -2      6018      6008      5718      5728      6019      6009      5719      5729
 -1      4287    1    0    1
 -2      6019      6009      5719      5729      6020      6010      5720      5730
 -1      4288    1    0    1
 -2      6020      6010      5720      5730      6021      6011      5721      5731
 -1      4289    1    0    1
 -2      6021      6011      5721      5731      6022      6012      5722      5732
 -1      4290    1    0    1
 -2      6022      6012      5722      5732      2571      2570      2541      2542
 -1      4291    1    0    1
 -2        86       570       541        87      1892      6013      5723      1902
 -1      4292    1    0    1
 -2      1892      6013      5723      1902      1893      6014      5724      1903
 -1      4293    1    0    1
 -2      1893      6014      5724      1903      1894      6015      5725      1904
 -1      4294    1    0    1
 -2      1894      6015      5725      1904      1895      6016      5726      1905
 -1      4295    1    0    1
 -2      1895      6016      5726      1905      1896      6017      5727      1906
 -1      4296    1    0    1
 -2      1896      6017      5727      1906      1897      6018      5728      1907
 -1      4297    1    0    1
 -2      1897      6018      5728      1907      1898      6019      5729      1908
 -1      4298    1    0    1
 -2      1898      6019      5729      1908      1899      6020      5730      1909
 -1      4299    1    0    1
 -2      1899      6020      5730      1909      1900      6021      5731      1910
 -1      4300    1    0    1
 -2      1900      6021      5731      1910      1901      6022      5732      1911
 -1      4301    1    0    1
 -2      1901      6022      5732      1911       202      2571      2542       203
 -1      4302    1    0    1
 -2       571        19        18       542      6023      1222      1212      5733
 -1      4303    1    0    1
 -2      6023      1222      1212      5733      6024      1223      1213      5734
 -1      4304    1    0    1
 -2      6024      1223      1213      5734      6025      1224      1214      5735
 -1      4305    1    0    1
 -2      6025      1224      1214      5735      6026      1225      1215      5736
 -1      4306    1    0    1
 -2      6026      1225      1215      5736      6027      1226      1216      5737
 -1      4307    1    0    1
 -2      6027      1226      1216      5737      6028      1227      1217      5738
 -1      4308    1    0    1
 -2      6028      1227      1217      5738      6029      1228      1218      5739
 -1      4309    1    0    1
 -2      6029      1228      1218      5739      6030      1229      1219      5740
 -1      4310    1    0    1
 -2      6030      1229      1219      5740      6031      1230      1220      5741
 -1      4311    1    0    1
 -2      6031      1230      1220      5741      6032      1231      1221      5742
 -1      4312    1    0    1
 -2      6032      1231      1221      5742      2572       135       134      2543
 -1      4313    1    0    1
 -2       572       571       542       543      6033      6023      5733      5743
 -1      4314    1    0    1
 -2      6033      6023      5733      5743      6034      6024      5734      5744
 -1      4315    1    0    1
 -2      6034      6024      5734      5744      6035      6025      5735      5745
 -1      4316    1    0    1
 -2      6035      6025      5735      5745      6036      6026      5736      5746
 -1      4317    1    0    1
 -2      6036      6026      5736      5746      6037      6027      5737      5747
 -1      4318    1    0    1
 -2      6037      6027      5737      5747      6038      6028      5738      5748
 -1      4319    1    0    1
 -2      6038      6028      5738      5748      6039      6029      5739      5749
 -1      4320    1    0    1
 -2      6039      6029      5739      5749      6040      6030      5740      5750
 -1      4321    1    0    1
 -2      6040      6030      5740      5750      6041      6031      5741      5751
 -1      4322    1    0    1
 -2      6041      6031      5741      5751      6042      6032      5742      5752
 -1      4323    1    0    1
 -2      6042      6032      5742      5752      2573      2572      2543      2544
 -1      4324    1    0    1
 -2       573       572       543       544      6043      6033      5743      5753
 -1      4325    1    0    1
 -2      6043      6033      5743      5753      6044      6034      5744      5754
 -1      4326    1    0    1
 -2      6044      6034      5744      5754      6045      6035      5745      5755
 -1      4327    1    0    1
 -2      6045      6035      5745      5755      6046      6036      5746      5756
 -1      4328    1    0    1
 -2      6046      6036      5746      5756      6047      6037      5747      5757
 -1      4329    1    0    1
 -2      6047      6037      5747      5757      6048      6038      5748      5758
 -1      4330    1    0    1
 -2      6048      6038      5748      5758      6049      6039      5749      5759
 -1      4331    1    0    1
 -2      6049      6039      5749      5759      6050      6040      5750      5760
 -1      4332    1    0    1
 -2      6050      6040      5750      5760      6051      6041      5751      5761
 -1      4333    1    0    1
 -2      6051      6041      5751      5761      6052      6042      5752      5762
 -1      4334    1    0    1
 -2      6052      6042      5752      5762      2574      2573      2544      2545
 -1      4335    1    0    1
 -2       574       573       544       545      6053      6043      5753      5763
 -1      4336    1    0    1
 -2      6053      6043      5753      5763      6054      6044      5754      5764
 -1      4337    1    0    1
 -2      6054      6044      5754      5764      6055      6045      5755      5765
 -1      4338    1    0    1
 -2      6055      6045      5755      5765      6056      6046      5756      5766
 -1      4339    1    0    1
 -2      6056      6046      5756      5766      6057      6047      5757      5767
 -1      4340    1    0    1
 -2      6057      6047      5757      5767      6058      6048      5758      5768
 -1      4341    1    0    1
 -2      6058      6048      5758      5768      6059      6049      5759      5769
 -1      4342    1    0    1
 -2      6059      6049      5759      5769      6060      6050      5760      5770
 -1      4343    1    0    1
 -2      6060      6050      5760      5770      6061      6051      5761      5771
 -1      4344    1    0    1
 -2      6061      6051      5761      5771      6062      6052      5762      5772
 -1      4345    1    0    1
 -2      6062      6052      5762      5772      2575      2574      2545      2546
 -1      4346    1    0    1
 -2       575       574       545       546      6063      6053      5763      5773
 -1      4347    1    0    1
 -2      6063      6053      5763      5773      6064      6054      5764      5774
 -1      4348    1    0    1
 -2      6064      6054      5764      5774      6065      6055      5765      5775
 -1      4349    1    0    1
 -2      6065      6055      5765      5775      6066      6056      5766      5776
 -1      4350    1    0    1
 -2      6066      6056      5766      5776      6067      6057      5767      5777
 -1      4351    1    0    1
 -2      6067      6057      5767      5777      6068      6058      5768      5778
 -1      4352    1    0    1
 -2      6068      6058      5768      5778      6069      6059      5769      5779
 -1      4353    1    0    1
 -2      6069      6059      5769      5779      6070      6060      5770      5780
 -1      4354    1    0    1
 -2      6070      6060      5770      5780      6071      6061      5771      5781
 -1      4355    1    0    1
 -2      6071      6061      5771      5781      6072      6062      5772      5782
 -1      4356    1    0    1
 -2      6072      6062      5772      5782      2576      2575      2546      2547
 -1      4357    1    0    1
 -2       576       575       546       547      6073      6063      5773      5783
 -1      4358    1    0    1
 -2      6073      6063      5773      5783      6074      6064      5774      5784
 -1      4359    1    0    1
 -2      6074      6064      5774      5784      6075      6065      5775      5785
 -1      4360    1    0    1
 -2      6075      6065      5775      5785      6076      6066      5776      5786
 -1      4361    1    0    1
 -2      6076      6066      5776      5786      6077      6067      5777      5787
 -1      4362    1    0    1
 -2      6077      6067      5777      5787      6078      6068      5778      5788
 -1      4363    1    0    1
 -2      6078      6068      5778      5788      6079      6069      5779      5789
 -1      4364    1    0    1
 -2      6079      6069      5779      5789      6080      6070      5780      5790
 -1      4365    1    0    1
 -2      6080      6070      5780      5790      6081      6071      5781      5791
 -1      4366    1    0    1
 -2      6081      6071      5781      5791      6082      6072      5782      5792
 -1      4367    1    0    1
 -2      6082      6072      5782      5792      2577      2576      2547      2548
 -1      4368    1    0    1
 -2       577       576       547       548      6083      6073      5783      5793
 -1      4369    1    0    1
 -2      6083      6073      5783      5793      6084      6074      5784      5794
 -1      4370    1    0    1
 -2      6084      6074      5784      5794      6085      6075      5785      5795
 -1      4371    1    0    1
 -2      6085      6075      5785      5795      6086      6076      5786      5796
 -1      4372    1    0    1
 -2      6086      6076      5786      5796      6087      6077      5787      5797
 -1      4373    1    0    1
 -2      6087      6077      5787      5797      6088      6078      5788      5798
 -1      4374    1    0    1
 -2      6088      6078      5788      5798      6089      6079      5789      5799
 -1      4375    1    0    1
 -2      6089      6079      5789      5799      6090      6080      5790      5800
 -1      4376    1    0    1
 -2      6090      6080      5790      5800      6091      6081      5791      5801
 -1      4377    1    0    1
 -2      6091      6081      5791      5801      6092      6082      5792      5802
 -1      4378    1    0    1
 -2      6092      6082      5792      5802      2578      2577      2548      2549
 -1      4379    1    0    1
 -2       578       577       548       549      6093      6083      5793      5803
 -1      4380    1    0    1
 -2      6093      6083      5793      5803      6094      6084      5794      5804
 -1      4381    1    0    1
 -2      6094      6084      5794      5804      6095      6085      5795      5805
 -1      4382    1    0    1
 -2      6095      6085      5795      5805      6096      6086      5796      5806
 -1      4383    1    0    1
 -2      6096      6086      5796      5806      6097      6087      5797      5807
 -1      4384    1    0    1
 -2      6097      6087      5797      5807      6098      6088      5798      5808
 -1      4385    1    0    1
 -2      6098      6088      5798      5808      6099      6089      5799      5809
 -1      4386    1    0    1
 -2      6099      6089      5799      5809      6100      6090      5800      5810
 -1      4387    1    0    1
 -2      6100      6090      5800      5810      6101      6091      5801      5811
 -1      4388    1    0    1
 -2      6101      6091      5801      5811      6102      6092      5802      5812
 -1      4389    1    0    1
 -2      6102      6092      5802      5812      2579      2578      2549      2550
 -1      4390    1    0    1
 -2       579       578       549       550      6103      6093      5803      5813
 -1      4391    1    0    1
 -2      6103      6093      5803      5813      6104      6094      5804      5814
 -1      4392    1    0    1
 -2      6104      6094      5804      5814      6105      6095      5805      5815
 -1      4393    1    0    1
 -2      6105      6095      5805      5815      6106      6096      5806      5816
 -1      4394    1    0    1
 -2      6106      6096      5806      5816      6107      6097      5807      5817
 -1      4395    1    0    1
 -2      6107      6097      5807      5817      6108      6098      5808      5818
 -1      4396    1    0    1
 -2      6108      6098      5808      5818      6109      6099      5809      5819
 -1      4397    1    0    1
 -2      6109      6099      5809      5819      6110      6100      5810      5820
 -1      4398    1    0    1
 -2      6110      6100      5810      5820      6111      6101      5811      5821
 -1      4399    1    0    1
 -2      6111      6101      5811      5821      6112      6102      5812      5822
 -1      4400    1    0    1
 -2      6112      6102      5812      5822      2580      2579      2550      2551
 -1      4401    1    0    1
 -2       580       579       550       551      6113      6103      5813      5823
 -1      4402    1    0    1
 -2      6113      6103      5813      5823      6114      6104      5814      5824
 -1      4403    1    0    1
 -2      6114      6104      5814      5824      6115      6105      5815      5825
 -1      4404    1    0    1
 -2      6115      6105      5815      5825      6116      6106      5816      5826
 -1      4405    1    0    1
 -2      6116      6106      5816      5826      6117      6107      5817      5827
 -1      4406    1    0    1
 -2      6117      6107      5817      5827      6118      6108      5818      5828
 -1      4407    1    0    1
 -2      6118      6108      5818      5828      6119      6109      5819      5829
 -1      4408    1    0    1
 -2      6119      6109      5819      5829      6120      6110      5820      5830
 -1      4409    1    0    1
 -2      6120      6110      5820      5830      6121      6111      5821      5831
 -1      4410    1    0    1
 -2      6121      6111      5821      5831      6122      6112      5822      5832
 -1      4411    1    0    1
 -2      6122      6112      5822      5832      2581      2580      2551      2552
 -1      4412    1    0    1
 -2       581       580       551       552      6123      6113      5823      5833
 -1      4413    1    0    1
 -2      6123      6113      5823      5833      6124      6114      5824      5834
 -1      4414    1    0    1
 -2      6124      6114      5824      5834      6125      6115      5825      5835
 -1      4415    1    0    1
 -2      6125      6115      5825      5835      6126      6116      5826      5836
 -1      4416    1    0    1
 -2      6126      6116      5826      5836      6127      6117      5827      5837
 -1      4417    1    0    1
 -2      6127      6117      5827      5837      6128      6118      5828      5838
 -1      4418    1    0    1
 -2      6128      6118      5828      5838      6129      6119      5829      5839
 -1      4419    1    0    1
 -2      6129      6119      5829      5839      6130      6120      5830      5840
 -1      4420    1    0    1
 -2      6130      6120      5830      5840      6131      6121      5831      5841
 -1      4421    1    0    1
 -2      6131      6121      5831      5841      6132      6122      5832      5842
 -1      4422    1    0    1
 -2      6132      6122      5832      5842      2582      2581      2552      2553
 -1      4423    1    0    1
 -2       582       581       552       553      6133      6123      5833      5843
 -1      4424    1    0    1
 -2      6133      6123      5833      5843      6134      6124      5834      5844
 -1      4425    1    0    1
 -2      6134      6124      5834      5844      6135      6125      5835      5845
 -1      4426    1    0    1
 -2      6135      6125      5835      5845      6136      6126      5836      5846
 -1      4427    1    0    1
 -2      6136      6126      5836      5846      6137      6127      5837      5847
 -1      4428    1    0    1
 -2      6137      6127      5837      5847      6138      6128      5838      5848
 -1      4429    1    0    1
 -2      6138      6128      5838      5848      6139      6129      5839      5849
 -1      4430    1    0    1
 -2      6139      6129      5839      5849      6140      6130      5840      5850
 -1      4431    1    0    1
 -2      6140      6130      5840      5850      6141      6131      5841      5851
 -1      4432    1    0    1
 -2      6141      6131      5841      5851      6142      6132      5842      5852
 -1      4433    1    0    1
 -2      6142      6132      5842      5852      2583      2582      2553      2554
 -1      4434    1    0    1
 -2       583       582       553       554      6143      6133      5843      5853
 -1      4435    1    0    1
 -2      6143      6133      5843      5853      6144      6134      5844      5854
 -1      4436    1    0    1
 -2      6144      6134      5844      5854      6145      6135      5845      5855
 -1      4437    1    0    1
 -2      6145      6135      5845      5855      6146      6136      5846      5856
 -1      4438    1    0    1
 -2      6146      6136      5846      5856      6147      6137      5847      5857
 -1      4439    1    0    1
 -2      6147      6137      5847      5857      6148      6138      5848      5858
 -1      4440    1    0    1
 -2      6148      6138      5848      5858      6149      6139      5849      5859
 -1      4441    1    0    1
 -2      6149      6139      5849      5859      6150      6140      5850      5860
 -1      4442    1    0    1
 -2      6150      6140      5850      5860      6151      6141      5851      5861
 -1      4443    1    0    1
 -2      6151      6141      5851      5861      6152      6142      5852      5862
 -1      4444    1    0    1
 -2      6152      6142      5852      5862      2584      2583      2554      2555
 -1      4445    1    0    1
 -2       584       583       554       555      6153      6143      5853      5863
 -1      4446    1    0    1
 -2      6153      6143      5853      5863      6154      6144      5854      5864
 -1      4447    1    0    1
 -2      6154      6144      5854      5864      6155      6145      5855      5865
 -1      4448    1    0    1
 -2      6155      6145      5855      5865      6156      6146      5856      5866
 -1      4449    1    0    1
 -2      6156      6146      5856      5866      6157      6147      5857      5867
 -1      4450    1    0    1
 -2      6157      6147      5857      5867      6158      6148      5858      5868
 -1      4451    1    0    1
 -2      6158      6148      5858      5868      6159      6149      5859      5869
 -1      4452    1    0    1
 -2      6159      6149      5859      5869      6160      6150      5860      5870
 -1      4453    1    0    1
 -2      6160      6150      5860      5870      6161      6151      5861      5871
 -1      4454    1    0    1
 -2      6161      6151      5861      5871      6162      6152      5862      5872
 -1      4455    1    0    1
 -2      6162      6152      5862      5872      2585      2584      2555      2556
 -1      4456    1    0    1
 -2       585       584       555       556      6163      6153      5863      5873
 -1      4457    1    0    1
 -2      6163      6153      5863      5873      6164      6154      5864      5874
 -1      4458    1    0    1
 -2      6164      6154      5864      5874      6165      6155      5865      5875
 -1      4459    1    0    1
 -2      6165      6155      5865      5875      6166      6156      5866      5876
 -1      4460    1    0    1
 -2      6166      6156      5866      5876      6167      6157      5867      5877
 -1      4461    1    0    1
 -2      6167      6157      5867      5877      6168      6158      5868      5878
 -1      4462    1    0    1
 -2      6168      6158      5868      5878      6169      6159      5869      5879
 -1      4463    1    0    1
 -2      6169      6159      5869      5879      6170      6160      5870      5880
 -1      4464    1    0    1
 -2      6170      6160      5870      5880      6171      6161      5871      5881
 -1      4465    1    0    1
 -2      6171      6161      5871      5881      6172      6162      5872      5882
 -1      4466    1    0    1
 -2      6172      6162      5872      5882      2586      2585      2556      2557
 -1      4467    1    0    1
 -2       586       585       556       557      6173      6163      5873      5883
 -1      4468    1    0    1
 -2      6173      6163      5873      5883      6174      6164      5874      5884
 -1      4469    1    0    1
 -2      6174      6164      5874      5884      6175      6165      5875      5885
 -1      4470    1    0    1
 -2      6175      6165      5875      5885      6176      6166      5876      5886
 -1      4471    1    0    1
 -2      6176      6166      5876      5886      6177      6167      5877      5887
 -1      4472    1    0    1
 -2      6177      6167      5877      5887      6178      6168      5878      5888
 -1      4473    1    0    1
 -2      6178      6168      5878      5888      6179      6169      5879      5889
 -1      4474    1    0    1
 -2      6179      6169      5879      5889      6180      6170      5880      5890
 -1      4475    1    0    1
 -2      6180      6170      5880      5890      6181      6171      5881      5891
 -1      4476    1    0    1
 -2      6181      6171      5881      5891      6182      6172      5882      5892
 -1      4477    1    0    1
 -2      6182      6172      5882      5892      2587      2586      2557      2558
 -1      4478    1    0    1
 -2       587       586       557       558      6183      6173      5883      5893
 -1      4479    1    0    1
 -2      6183      6173      5883      5893      6184      6174      5884      5894
 -1      4480    1    0    1
 -2      6184      6174      5884      5894      6185      6175      5885      5895
 -1      4481    1    0    1
 -2      6185      6175      5885      5895      6186      6176      5886      5896
 -1      4482    1    0    1
 -2      6186      6176      5886      5896      6187      6177      5887      5897
 -1      4483    1    0    1
 -2      6187      6177      5887      5897      6188      6178      5888      5898
 -1      4484    1    0    1
 -2      6188      6178      5888      5898      6189      6179      5889      5899
 -1      4485    1    0    1
 -2      6189      6179      5889      5899      6190      6180      5890      5900
 -1      4486    1    0    1
 -2      6190      6180      5890      5900      6191      6181      5891      5901
 -1      4487    1    0    1
 -2      6191      6181      5891      5901      6192      6182      5892      5902
 -1      4488    1    0    1
 -2      6192      6182      5892      5902      2588      2587      2558      2559
 -1      4489    1    0    1
 -2       588       587       558       559      6193      6183      5893      5903
 -1      4490    1    0    1
 -2      6193      6183      5893      5903      6194      6184      5894      5904
 -1      4491    1    0    1
 -2      6194      6184      5894      5904      6195      6185      5895      5905
 -1      4492    1    0    1
 -2      6195      6185      5895      5905      6196      6186      5896      5906
 -1      4493    1    0    1
 -2      6196      6186      5896      5906      6197      6187      5897      5907
 -1      4494    1    0    1
 -2      6197      6187      5897      5907      6198      6188      5898      5908
 -1      4495    1    0    1
 -2      6198      6188      5898      5908      6199      6189      5899      5909
 -1      4496    1    0    1
 -2      6199      6189      5899      5909      6200      6190      5900      5910
 -1      4497    1    0    1
 -2      6200      6190      5900      5910      6201      6191      5901      5911
 -1      4498    1    0    1
 -2      6201      6191      5901      5911      6202      6192      5902      5912
 -1      4499    1    0    1
 -2      6202      6192      5902      5912      2589      2588      2559      2560
 -1      4500    1    0    1
 -2       589       588       559       560      6203      6193      5903      5913
 -1      4501    1    0    1
 -2      6203      6193      5903      5913      6204      6194      5904      5914
 -1      4502    1    0    1
 -2      6204      6194      5904      5914      6205      6195      5905      5915
 -1      4503    1    0    1
 -2      6205      6195      5905      5915      6206      6196      5906      5916
 -1      4504    1    0    1
 -2      6206      6196      5906      5916      6207      6197      5907      5917
 -1      4505    1    0    1
 -2      6207      6197      5907      5917      6208      6198      5908      5918
 -1      4506    1    0    1
 -2      6208      6198      5908      5918      6209      6199      5909      5919
 -1      4507    1    0    1
 -2      6209      6199      5909      5919      6210      6200      5910      5920
 -1      4508    1    0    1
 -2      6210      6200      5910      5920      6211      6201      5911      5921
 -1      4509    1    0    1
 -2      6211      6201      5911      5921      6212      6202      5912      5922
 -1      4510    1    0    1
 -2      6212      6202      5912      5922      2590      2589      2560      2561
 -1      4511    1    0    1
 -2       590       589       560       561      6213      6203      5913      5923
 -1      4512    1    0    1
 -2      6213      6203      5913      5923      6214      6204      5914      5924
 -1      4513    1    0    1
 -2      6214      6204      5914      5924      6215      6205      5915      5925
 -1      4514    1    0    1
 -2      6215      6205      5915      5925      6216      6206      5916      5926
 -1      4515    1    0    1
 -2      6216      6206      5916      5926      6217      6207      5917      5927
 -1      4516    1    0    1
 -2      6217      6207      5917      5927      6218      6208      5918      5928
 -1      4517    1    0    1
 -2      6218      6208      5918      5928      6219      6209      5919      5929
 -1      4518    1    0    1
 -2      6219      6209      5919      5929      6220      6210      5920      5930
 -1      4519    1    0    1
 -2      6220      6210      5920      5930      6221      6211      5921      5931
 -1      4520    1    0    1
 -2      6221      6211      5921      5931      6222      6212      5922      5932
 -1      4521    1    0    1
 -2      6222      6212      5922      5932      2591      2590      2561      2562
 -1      4522    1    0    1
 -2       591       590       561       562      6223      6213      5923      5933
 -1      4523    1    0    1
 -2      6223      6213      5923      5933      6224      6214      5924      5934
 -1      4524    1    0    1
 -2      6224      6214      5924      5934      6225      6215      5925      5935
 -1      4525    1    0    1
 -2      6225      6215      5925      5935      6226      6216      5926      5936
 -1      4526    1    0    1
 -2      6226      6216      5926      5936      6227      6217      5927      5937
 -1      4527    1    0    1
 -2      6227      6217      5927      5937      6228      6218      5928      5938
 -1      4528    1    0    1
 -2      6228      6218      5928      5938      6229      6219      5929      5939
 -1      4529    1    0    1
 -2      6229      6219      5929      5939      6230      6220      5930      5940
 -1      4530    1    0    1
 -2      6230      6220      5930      5940      6231      6221      5931      5941
 -1      4531    1    0    1
 -2      6231      6221      5931      5941      6232      6222      5932      5942
 -1      4532    1    0    1
 -2      6232      6222      5932      5942      2592      2591      2562      2563
 -1      4533    1    0    1
 -2       592       591       562       563      6233      6223      5933      5943
 -1      4534    1    0    1
 -2      6233      6223      5933      5943      6234      6224      5934      5944
 -1      4535    1    0    1
 -2      6234      6224      5934      5944      6235      6225      5935      5945
 -1      4536    1    0    1
 -2      6235      6225      5935      5945      6236      6226      5936      5946
 -1      4537    1    0    1
 -2      6236      6226      5936      5946      6237      6227      5937      5947
 -1      4538    1    0    1
 -2      6237      6227      5937      5947      6238      6228      5938      5948
 -1      4539    1    0    1
 -2      6238      6228      5938      5948      6239      6229      5939      5949
 -1      4540    1    0    1
 -2      6239      6229      5939      5949      6240      6230      5940      5950
 -1      4541    1    0    1
 -2      6240      6230      5940      5950      6241      6231      5941      5951
 -1      4542    1    0    1
 -2      6241      6231      5941      5951      6242      6232      5942      5952
 -1      4543    1    0    1
 -2      6242      6232      5942      5952      2593      2592      2563      2564
 -1      4544    1    0    1
 -2       593       592       563       564      6243      6233      5943      5953
 -1      4545    1    0    1
 -2      6243      6233      5943      5953      6244      6234      5944      5954
 -1      4546    1    0    1
 -2      6244      6234      5944      5954      6245      6235      5945      5955
 -1      4547    1    0    1
 -2      6245      6235      5945      5955      6246      6236      5946      5956
 -1      4548    1    0    1
 -2      6246      6236      5946      5956      6247      6237      5947      5957
 -1      4549    1    0    1
 -2      6247      6237      5947      5957      6248      6238      5948      5958
 -1      4550    1    0    1
 -2      6248      6238      5948      5958      6249      6239      5949      5959
 -1      4551    1    0    1
 -2      6249      6239      5949      5959      6250      6240      5950      5960
 -1      4552    1    0    1
 -2      6250      6240      5950      5960      6251      6241      5951      5961
 -1      4553    1    0    1
 -2      6251      6241      5951      5961      6252      6242      5952      5962
 -1      4554    1    0    1
 -2      6252      6242      5952      5962      2594      2593      2564      2565
 -1      4555    1    0    1
 -2       594       593       564       565      6253      6243      5953      5963
 -1      4556    1    0    1
 -2      6253      6243      5953      5963      6254      6244      5954      5964
 -1      4557    1    0    1
 -2      6254      6244      5954      5964      6255      6245      5955      5965
 -1      4558    1    0    1
 -2      6255      6245      5955      5965      6256      6246      5956      5966
 -1      4559    1    0    1
 -2      6256      6246      5956      5966      6257      6247      5957      5967
 -1      4560    1    0    1
 -2      6257      6247      5957      5967      6258      6248      5958      5968
 -1      4561    1    0    1
 -2      6258      6248      5958      5968      6259      6249      5959      5969
 -1      4562    1    0    1
 -2      6259      6249      5959      5969      6260      6250      5960      5970
 -1      4563    1    0    1
 -2      6260      6250      5960      5970      6261      6251      5961      5971
 -1      4564    1    0    1
 -2      6261      6251      5961      5971      6262      6252      5962      5972
 -1      4565    1    0    1
 -2      6262      6252      5962      5972      2595      2594      2565      2566
 -1      4566    1    0    1
 -2       595       594       565       566      6263      6253      5963      5973
 -1      4567    1    0    1
 -2      6263      6253      5963      5973      6264      6254      5964      5974
 -1      4568    1    0    1
 -2      6264      6254      5964      5974      6265      6255      5965      5975
 -1      4569    1    0    1
 -2      6265      6255      5965      5975      6266      6256      5966      5976
 -1      4570    1    0    1
 -2      6266      6256      5966      5976      6267      6257      5967      5977
 -1      4571    1    0    1
 -2      6267      6257      5967      5977      6268      6258      5968      5978
 -1      4572    1    0    1
 -2      6268      6258      5968      5978      6269      6259      5969      5979
 -1      4573    1    0    1
 -2      6269      6259      5969      5979      6270      6260      5970      5980
 -1      4574    1    0    1
 -2      6270      6260      5970      5980      6271      6261      5971      5981
 -1      4575    1    0    1
 -2      6271      6261      5971      5981      6272      6262      5972      5982
 -1      4576    1    0    1
 -2      6272      6262      5972      5982      2596      2595      2566      2567
 -1      4577    1    0    1
 -2       596       595       566       567      6273      6263      5973      5983
 -1      4578    1    0    1
 -2      6273      6263      5973      5983      6274      6264      5974      5984
 -1      4579    1    0    1
 -2      6274      6264      5974      5984      6275      6265      5975      5985
 -1      4580    1    0    1
 -2      6275      6265      5975      5985      6276      6266      5976      5986
 -1      4581    1    0    1
 -2      6276      6266      5976      5986      6277      6267      5977      5987
 -1      4582    1    0    1
 -2      6277      6267      5977      5987      6278      6268      5978      5988
 -1      4583    1    0    1
 -2      6278      6268      5978      5988      6279      6269      5979      5989
 -1      4584    1    0    1
 -2      6279      6269      5979      5989      6280      6270      5980      5990
 -1      4585    1    0    1
 -2      6280      6270      5980      5990      6281      6271      5981      5991
 -1      4586    1    0    1
 -2      6281      6271      5981      5991      6282      6272      5982      5992
 -1      4587    1    0    1
 -2      6282      6272      5982      5992      2597      2596      2567      2568
 -1      4588    1    0    1
 -2       597       596       567       568      6283      6273      5983      5993
 -1      4589    1    0    1
 -2      6283      6273      5983      5993      6284      6274      5984      5994
 -1      4590    1    0    1
 -2      6284      6274      5984      5994      6285      6275      5985      5995
 -1      4591    1    0    1
 -2      6285      6275      5985      5995      6286      6276      5986      5996
 -1      4592    1    0    1
 -2      6286      6276      5986      5996      6287      6277      5987      5997
 -1      4593    1    0    1
 -2      6287      6277      5987      5997      6288      6278      5988      5998
 -1      4594    1    0    1
 -2      6288      6278      5988      5998      6289      6279      5989      5999
 -1      4595    1    0    1
 -2      6289      6279      5989      5999      6290      6280      5990      6000
 -1      4596    1    0    1
 -2      6290      6280      5990      6000      6291      6281      5991      6001
 -1      4597    1    0    1
 -2      6291      6281      5991      6001      6292      6282      5992      6002
 -1      4598    1    0    1
 -2      6292      6282      5992      6002      2598      2597      2568      2569
 -1      4599    1    0    1
 -2       598       597       568       569      6293      6283      5993      6003
 -1      4600    1    0    1
 -2      6293      6283      5993      6003      6294      6284      5994      6004
 -1      4601    1    0    1
 -2      6294      6284      5994      6004      6295      6285      5995      6005
 -1      4602    1    0    1
 -2      6295      6285      5995      6005      6296      6286      5996      6006
 -1      4603    1    0    1
 -2      6296      6286      5996      6006      6297      6287      5997      6007
 -1      4604    1    0    1
 -2      6297      6287      5997      6007      6298      6288      5998      6008
 -1      4605    1    0    1
 -2      6298      6288      5998      6008      6299      6289      5999      6009
 -1      4606    1    0    1
 -2      6299      6289      5999      6009      6300      6290      6000      6010
 -1      4607    1    0    1
 -2      6300      6290      6000      6010      6301      6291      6001      6011
 -1      4608    1    0    1
 -2      6301      6291      6001      6011      6302      6292      6002      6012
 -1      4609    1    0    1
 -2      6302      6292      6002      6012      2599      2598      2569      2570
 -1      4610    1    0    1
 -2       599       598       569       570      6303      6293      6003      6013
 -1      4611    1    0    1
 -2      6303      6293      6003      6013      6304      6294      6004      6014
 -1      4612    1    0    1
 -2      6304      6294      6004      6014      6305      6295      6005      6015
 -1      4613    1    0    1
 -2      6305      6295      6005      6015      6306      6296      6006      6016
 -1      4614    1    0    1
 -2      6306      6296      6006      6016      6307      6297      6007      6017
 -1      4615    1    0    1
 -2      6307      6297      6007      6017      6308      6298      6008      6018
 -1      4616    1    0    1
 -2      6308      6298      6008      6018      6309      6299      6009      6019
 -1      4617    1    0    1
 -2      6309      6299      6009      6019      6310      6300      6010      6020
 -1      4618    1    0    1
 -2      6310      6300      6010      6020      6311      6301      6011      6021
 -1      4619    1    0    1
 -2      6311      6301      6011      6021      6312      6302      6012      6022
 -1      4620    1    0    1
 -2      6312      6302      6012      6022      2600      2599      2570      2571
 -1      4621    1    0    1
 -2        85       599       570        86      1882      6303      6013      1892
 -1      4622    1    0    1
 -2      1882      6303      6013      1892      1883      6304      6014      1893
 -1      4623    1    0    1
 -2      1883      6304      6014      1893      1884      6305      6015      1894
 -1      4624    1    0    1
 -2      1884      6305      6015      1894      1885      6306      6016      1895
 -1      4625    1    0    1
 -2      1885      6306      6016      1895      1886      6307      6017      1896
 -1      4626    1    0    1
 -2      1886      6307      6017      1896      1887      6308      6018      1897
 -1      4627    1    0    1
 -2      1887      6308      6018      1897      1888      6309      6019      1898
 -1      4628    1    0    1
 -2      1888      6309      6019      1898      1889      6310      6020      1899
 -1      4629    1    0    1
 -2      1889      6310      6020      1899      1890      6311      6021      1900
 -1      4630    1    0    1
 -2      1890      6311      6021      1900      1891      6312      6022      1901
 -1      4631    1    0    1
 -2      1891      6312      6022      1901       201      2600      2571       202
 -1      4632    1    0    1
 -2       600        20        19       571      6313      1232      1222      6023
 -1      4633    1    0    1
 -2      6313      1232      1222      6023      6314      1233      1223      6024
 -1      4634    1    0    1
 -2      6314      1233      1223      6024      6315      1234      1224      6025
 -1      4635    1    0    1
 -2      6315      1234      1224      6025      6316      1235      1225      6026
 -1      4636    1    0    1
 -2      6316      1235      1225      6026      6317      1236      1226      6027
 -1      4637    1    0    1
 -2      6317      1236      1226      6027      6318      1237      1227      6028
 -1      4638    1    0    1
 -2      6318      1237      1227      6028      6319      1238      1228      6029
 -1      4639    1    0    1
 -2      6319      1238      1228      6029      6320      1239      1229      6030
 -1      4640    1    0    1
 -2      6320      1239      1229      6030      6321      1240      1230      6031
 -1      4641    1    0    1
 -2      6321      1240      1230      6031      6322      1241      1231      6032
 -1      4642    1    0    1
 -2      6322      1241      1231      6032      2601       136       135      2572
 -1      4643    1    0    1
 -2       601       600       571       572      6323      6313      6023      6033
 -1      4644    1    0    1
 -2      6323      6313      6023      6033      6324      6314      6024      6034
 -1      4645    1    0    1
 -2      6324      6314      6024      6034      6325      6315      6025      6035
 -1      4646    1    0    1
 -2      6325      6315      6025      6035      6326      6316      6026      6036
 -1      4647    1    0    1
 -2      6326      6316      6026      6036      6327      6317      6027      6037
 -1      4648    1    0    1
 -2      6327      6317      6027      6037      6328      6318      6028      6038
 -1      4649    1    0    1
 -2      6328      6318      6028      6038      6329      6319      6029      6039
 -1      4650    1    0    1
 -2      6329      6319      6029      6039      6330      6320      6030      6040
 -1      4651    1    0    1
 -2      6330      6320      6030      6040      6331      6321      6031      6041
 -1      4652    1    0    1
 -2      6331      6321      6031      6041      6332      6322      6032      6042
 -1      4653    1    0    1
 -2      6332      6322      6032      6042      2602      2601      2572      2573
 -1      4654    1    0    1
 -2       602       601       572       573      6333      6323      6033      6043
 -1      4655    1    0    1
 -2      6333      6323      6033      6043      6334      6324      6034      6044
 -1      4656    1    0    1
 -2      6334      6324      6034      6044      6335      6325      6035      6045
 -1      4657    1    0    1
 -2      6335      6325      6035      6045      6336      6326      6036      6046
 -1      4658    1    0    1
 -2      6336      6326      6036      6046      6337      6327      6037      6047
 -1      4659    1    0    1
 -2      6337      6327      6037      6047      6338      6328      6038      6048
 -1      4660    1    0    1
 -2      6338      6328      6038      6048      6339      6329      6039      6049
 -1      4661    1    0    1
 -2      6339      6329      6039      6049      6340      6330      6040      6050
 -1      4662    1    0    1
 -2      6340      6330      6040      6050      6341      6331      6041      6051
 -1      4663    1    0    1
 -2      6341      6331      6041      6051      6342      6332      6042      6052
 -1      4664    1    0    1
 -2      6342      6332      6042      6052      2603      2602      2573      2574
 -1      4665    1    0    1
 -2       603       602       573       574      6343      6333      6043      6053
 -1      4666    1    0    1
 -2      6343      6333      6043      6053      6344      6334      6044      6054
 -1      4667    1    0    1
 -2      6344      6334      6044      6054      6345      6335      6045      6055
 -1      4668    1    0    1
 -2      6345      6335      6045      6055      6346      6336      6046      6056
 -1      4669    1    0    1
 -2      6346      6336      6046      6056      6347      6337      6047      6057
 -1      4670    1    0    1
 -2      6347      6337      6047      6057      6348      6338      6048      6058
 -1      4671    1    0    1
 -2      6348      6338      6048      6058      6349      6339      6049      6059
 -1      4672    1    0    1
 -2      6349      6339      6049      6059      6350      6340      6050      6060
 -1      4673    1    0    1
 -2      6350      6340      6050      6060      6351      6341      6051      6061
 -1      4674    1    0    1
 -2      6351      6341      6051      6061      6352      6342      6052      6062
 -1      4675    1    0    1
 -2      6352      6342      6052      6062      2604      2603      2574      2575
 -1      4676    1    0    1
 -2       604       603       574       575      6353      6343      6053      6063
 -1      4677    1    0    1
 -2      6353      6343      6053      6063      6354      6344      6054      6064
 -1      4678    1    0    1
 -2      6354      6344      6054      6064      6355      6345      6055      6065
 -1      4679    1    0    1
 -2      6355      6345      6055      6065      6356      6346      6056      6066
 -1      4680    1    0    1
 -2      6356      6346      6056      6066      6357      6347      6057      6067
 -1      4681    1    0    1
 -2      6357      6347      6057      6067      6358      6348      6058      6068
 -1      4682    1    0    1
 -2      6358      6348      6058      6068      6359      6349      6059      6069
 -1      4683    1    0    1
 -2      6359      6349      6059      6069      6360      6350      6060      6070
 -1      4684    1    0    1
 -2      6360      6350      6060      6070      6361      6351      6061      6071
 -1      4685    1    0    1
 -2      6361      6351      6061      6071      6362      6352      6062      6072
 -1      4686    1    0    1
 -2      6362      6352      6062      6072      2605      2604      2575      2576
 -1      4687    1    0    1
 -2       605       604       575       576      6363      6353      6063      6073
 -1      4688    1    0    1
 -2      6363      6353      6063      6073      6364      6354      6064      6074
 -1      4689    1    0    1
 -2      6364      6354      6064      6074      6365      6355      6065      6075
 -1      4690    1    0    1
 -2      6365      6355      6065      6075      6366      6356      6066      6076
 -1      4691    1    0    1
 -2      6366      6356      6066      6076      6367      6357      6067      6077
 -1      4692    1    0    1
 -2      6367      6357      6067      6077      6368      6358      6068      6078
 -1      4693    1    0    1
 -2      6368      6358      6068      6078      6369      6359      6069      6079
 -1      4694    1    0    1
 -2      6369      6359      6069      6079      6370      6360      6070      6080
 -1      4695    1    0    1
 -2      6370      6360      6070      6080      6371      6361      6071      6081
 -1      4696    1    0    1
 -2      6371      6361      6071      6081      6372      6362      6072      6082
 -1      4697    1    0    1
 -2      6372      6362      6072      6082      2606      2605      2576      2577
 -1      4698    1    0    1
 -2       606       605       576       577      6373      6363      6073      6083
 -1      4699    1    0    1
 -2      6373      6363      6073      6083      6374      6364      6074      6084
 -1      4700    1    0    1
 -2      6374      6364      6074      6084      6375      6365      6075      6085
 -1      4701    1    0    1
 -2      6375      6365      6075      6085      6376      6366      6076      6086
 -1      4702    1    0    1
 -2      6376      6366      6076      6086      6377      6367      6077      6087
 -1      4703    1    0    1
 -2      6377      6367      6077      6087      6378      6368      6078      6088
 -1      4704    1    0    1
 -2      6378      6368      6078      6088      6379      6369      6079      6089
 -1      4705    1    0    1
 -2      6379      6369      6079      6089      6380      6370      6080      6090
 -1      4706    1    0    1
 -2      6380      6370      6080      6090      6381      6371      6081      6091
 -1      4707    1    0    1
 -2      6381      6371      6081      6091      6382      6372      6082      6092
 -1      4708    1    0    1
 -2      6382      6372      6082      6092      2607      2606      2577      2578
 -1      4709    1    0    1
 -2       607       606       577       578      6383      6373      6083      6093
 -1      4710    1    0    1
 -2      6383      6373      6083      6093      6384      6374      6084      6094
 -1      4711    1    0    1
 -2      6384      6374      6084      6094      6385      6375      6085      6095
 -1      4712    1    0    1
 -2      6385      6375      6085      6095      6386      6376      6086      6096
 -1      4713    1    0    1
 -2      6386      6376      6086      6096      6387      6377      6087      6097
 -1      4714    1    0    1
 -2      6387      6377      6087      6097      6388      6378      6088      6098
 -1      4715    1    0    1
 -2      6388      6378      6088      6098      6389      6379      6089      6099
 -1      4716    1    0    1
 -2      6389      6379      6089      6099      6390      6380      6090      6100
 -1      4717    1    0    1
 -2      6390      6380      6090      6100      6391      6381      6091      6101
 -1      4718    1    0    1
 -2      6391      6381      6091      6101      6392      6382      6092      6102
 -1      4719    1    0    1
 -2      6392      6382      6092      6102      2608      2607      2578      2579
 -1      4720    1    0    1
 -2       608       607       578       579      6393      6383      6093      6103
 -1      4721    1    0    1
 -2      6393      6383      6093      6103      6394      6384      6094      6104
 -1      4722    1    0    1
 -2      6394      6384      6094      6104      6395      6385      6095      6105
 -1      4723    1    0    1
 -2      6395      6385      6095      6105      6396      6386      6096      6106
 -1      4724    1    0    1
 -2      6396      6386      6096      6106      6397      6387      6097      6107
 -1      4725    1    0    1
 -2      6397      6387      6097      6107      6398      6388      6098      6108
 -1      4726    1    0    1
 -2      6398      6388      6098      6108      6399      6389      6099      6109
 -1      4727    1    0    1
 -2      6399      6389      6099      6109      6400      6390      6100      6110
 -1      4728    1    0    1
 -2      6400      6390      6100      6110      6401      6391      6101      6111
 -1      4729    1    0    1
 -2      6401      6391      6101      6111      6402      6392      6102      6112
 -1      4730    1    0    1
 -2      6402      6392      6102      6112      2609      2608      2579      2580
 -1      4731    1    0    1
 -2       609       608       579       580      6403      6393      6103      6113
 -1      4732    1    0    1
 -2      6403      6393      6103      6113      6404      6394      6104      6114
 -1      4733    1    0    1
 -2      6404      6394      6104      6114      6405      6395      6105      6115
 -1      4734    1    0    1
 -2      6405      6395      6105      6115      6406      6396      6106      6116
 -1      4735    1    0    1
 -2      6406      6396      6106      6116      6407      6397      6107      6117
 -1      4736    1    0    1
 -2      6407      6397      6107      6117      6408      6398      6108      6118
 -1      4737    1    0    1
 -2      6408      6398      6108      6118      6409      6399      6109      6119
 -1      4738    1    0    1
 -2      6409      6399      6109      6119      6410      6400      6110      6120
 -1      4739    1    0    1
 -2      6410      6400      6110      6120      6411      6401      6111      6121
 -1      4740    1    0    1
 -2      6411      6401      6111      6121      6412      6402      6112      6122
 -1      4741    1    0    1
 -2      6412      6402      6112      6122      2610      2609      2580      2581
 -1      4742    1    0    1
 -2       610       609       580       581      6413      6403      6113      6123
 -1      4743    1    0    1
 -2      6413      6403      6113      6123      6414      6404      6114      6124
 -1      4744    1    0    1
 -2      6414      6404      6114      6124      6415      6405      6115      6125
 -1      4745    1    0    1
 -2      6415      6405      6115      6125      6416      6406      6116      6126
 -1      4746    1    0    1
 -2      6416      6406      6116      6126      6417      6407      6117      6127
 -1      4747    1    0    1
 -2      6417      6407      6117      6127      6418      6408      6118      6128
 -1      4748    1    0    1
 -2      6418      6408      6118      6128      6419      6409      6119      6129
 -1      4749    1    0    1
 -2      6419      6409      6119      6129      6420      6410      6120      6130
 -1      4750    1    0    1
 -2      6420      6410      6120      6130      6421      6411      6121      6131
 -1      4751    1    0    1
 -2      6421      6411      6121      6131      6422      6412      6122      6132
 -1      4752    1    0    1
 -2      6422      6412      6122      6132      2611      2610      2581      2582
 -1      4753    1    0    1
 -2       611       610       581       582      6423      6413      6123      6133
 -1      4754    1    0    1
 -2      6423      6413      6123      6133      6424      6414      6124      6134
 -1      4755    1    0    1
 -2      6424      6414      6124      6134      6425      6415      6125      6135
 -1      4756    1    0    1
 -2      6425      6415      6125      6135      6426      6416      6126      6136
 -1      4757    1    0    1
 -2      6426      6416      6126      6136      6427      6417      6127      6137
 -1      4758    1    0    1
 -2      6427      6417      6127      6137      6428      6418      6128      6138
 -1      4759    1    0    1
 -2      6428      6418      6128      6138      6429      6419      6129      6139
 -1      4760    1    0    1
 -2      6429      6419      6129      6139      6430      6420      6130      6140
 -1      4761    1    0    1
 -2      6430      6420      6130      6140      6431      6421      6131      6141
 -1      4762    1    0    1
 -2      6431      6421      6131      6141      6432      6422      6132      6142
 -1      4763    1    0    1
 -2      6432      6422      6132      6142      2612      2611      2582      2583
 -1      4764    1    0    1
 -2       612       611       582       583      6433      6423      6133      6143
 -1      4765    1    0    1
 -2      6433      6423      6133      6143      6434      6424      6134      6144
 -1      4766    1    0    1
 -2      6434      6424      6134      6144      6435      6425      6135      6145
 -1      4767    1    0    1
 -2      6435      6425      6135      6145      6436      6426      6136      6146
 -1      4768    1    0    1
 -2      6436      6426      6136      6146      6437      6427      6137      6147
 -1      4769    1    0    1
 -2      6437      6427      6137      6147      6438      6428      6138      6148
 -1      4770    1    0    1
 -2      6438      6428      6138      6148      6439      6429      6139      6149
 -1      4771    1    0    1
 -2      6439      6429      6139      6149      6440      6430      6140      6150
 -1      4772    1    0    1
 -2      6440      6430      6140      6150      6441      6431      6141      6151
 -1      4773    1    0    1
 -2      6441      6431      6141      6151      6442      6432      6142      6152
 -1      4774    1    0    1
 -2      6442      6432      6142      6152      2613      2612      2583      2584
 -1      4775    1    0    1
 -2       613       612       583       584      6443      6433      6143      6153
 -1      4776    1    0    1
 -2      6443      6433      6143      6153      6444      6434      6144      6154
 -1      4777    1    0    1
 -2      6444      6434      6144      6154      6445      6435      6145      6155
 -1      4778    1    0    1
 -2      6445      6435      6145      6155      6446      6436      6146      6156
 -1      4779    1    0    1
 -2      6446      6436      6146      6156      6447      6437      6147      6157
 -1      4780    1    0    1
 -2      6447      6437      6147      6157      6448      6438      6148      6158
 -1      4781    1    0    1
 -2      6448      6438      6148      6158      6449      6439      6149      6159
 -1      4782    1    0    1
 -2      6449      6439      6149      6159      6450      6440      6150      6160
 -1      4783    1    0    1
 -2      6450      6440      6150      6160      6451      6441      6151      6161
 -1      4784    1    0    1
 -2      6451      6441      6151      6161      6452      6442      6152      6162
 -1      4785    1    0    1
 -2      6452      6442      6152      6162      2614      2613      2584      2585
 -1      4786    1    0    1
 -2       614       613       584       585      6453      6443      6153      6163
 -1      4787    1    0    1
 -2      6453      6443      6153      6163      6454      6444      6154      6164
 -1      4788    1    0    1
 -2      6454      6444      6154      6164      6455      6445      6155      6165
 -1      4789    1    0    1
 -2      6455      6445      6155      6165      6456      6446      6156      6166
 -1      4790    1    0    1
 -2      6456      6446      6156      6166      6457      6447      6157      6167
 -1      4791    1    0    1
 -2      6457      6447      6157      6167      6458      6448      6158      6168
 -1      4792    1    0    1
 -2      6458      6448      6158      6168      6459      6449      6159      6169
 -1      4793    1    0    1
 -2      6459      6449      6159      6169      6460      6450      6160      6170
 -1      4794    1    0    1
 -2      6460      6450      6160      6170      6461      6451      6161      6171
 -1      4795    1    0    1
 -2      6461      6451      6161      6171      6462      6452      6162      6172
 -1      4796    1    0    1
 -2      6462      6452      6162      6172      2615      2614      2585      2586
 -1      4797    1    0    1
 -2       615       614       585       586      6463      6453      6163      6173
 -1      4798    1    0    1
 -2      6463      6453      6163      6173      6464      6454      6164      6174
 -1      4799    1    0    1
 -2      6464      6454      6164      6174      6465      6455      6165      6175
 -1      4800    1    0    1
 -2      6465      6455      6165      6175      6466      6456      6166      6176
 -1      4801    1    0    1
 -2      6466      6456      6166      6176      6467      6457      6167      6177
 -1      4802    1    0    1
 -2      6467      6457      6167      6177      6468      6458      6168      6178
 -1      4803    1    0    1
 -2      6468      6458      6168      6178      6469      6459      6169      6179
 -1      4804    1    0    1
 -2      6469      6459      6169      6179      6470      6460      6170      6180
 -1      4805    1    0    1
 -2      6470      6460      6170      6180      6471      6461      6171      6181
 -1      4806    1    0    1
 -2      6471      6461      6171      6181      6472      6462      6172      6182
 -1      4807    1    0    1
 -2      6472      6462      6172      6182      2616      2615      2586      2587
 -1      4808    1    0    1
 -2       616       615       586       587      6473      6463      6173      6183
 -1      4809    1    0    1
 -2      6473      6463      6173      6183      6474      6464      6174      6184
 -1      4810    1    0    1
 -2      6474      6464      6174      6184      6475      6465      6175      6185
 -1      4811    1    0    1
 -2      6475      6465      6175      6185      6476      6466      6176      6186
 -1      4812    1    0    1
 -2      6476      6466      6176      6186      6477      6467      6177      6187
 -1      4813    1    0    1
 -2      6477      6467      6177      6187      6478      6468      6178      6188
 -1      4814    1    0    1
 -2      6478      6468      6178      6188      6479      6469      6179      6189
 -1      4815    1    0    1
 -2      6479      6469      6179      6189      6480      6470      6180      6190
 -1      4816    1    0    1
 -2      6480      6470      6180      6190      6481      6471      6181      6191
 -1      4817    1    0    1
 -2      6481      6471      6181      6191      6482      6472      6182      6192
 -1      4818    1    0    1
 -2      6482      6472      6182      6192      2617      2616      2587      2588
 -1      4819    1    0    1
 -2       617       616       587       588      6483      6473      6183      6193
 -1      4820    1    0    1
 -2      6483      6473      6183      6193      6484      6474      6184      6194
 -1      4821    1    0    1
 -2      6484      6474      6184      6194      6485      6475      6185      6195
 -1      4822    1    0    1
 -2      6485      6475      6185      6195      6486      6476      6186      6196
 -1      4823    1    0    1
 -2      6486      6476      6186      6196      6487      6477      6187      6197
 -1      4824    1    0    1
 -2      6487      6477      6187      6197      6488      6478      6188      6198
 -1      4825    1    0    1
 -2      6488      6478      6188      6198      6489      6479      6189      6199
 -1      4826    1    0    1
 -2      6489      6479      6189      6199      6490      6480      6190      6200
 -1      4827    1    0    1
 -2      6490      6480      6190      6200      6491      6481      6191      6201
 -1      4828    1    0    1
 -2      6491      6481      6191      6201      6492      6482      6192      6202
 -1      4829    1    0    1
 -2      6492      6482      6192      6202      2618      2617      2588      2589
 -1      4830    1    0    1
 -2       618       617       588       589      6493      6483      6193      6203
 -1      4831    1    0    1
 -2      6493      6483      6193      6203      6494      6484      6194      6204
 -1      4832    1    0    1
 -2      6494      6484      6194      6204      6495      6485      6195      6205
 -1      4833    1    0    1
 -2      6495      6485      6195      6205      6496      6486      6196      6206
 -1      4834    1    0    1
 -2      6496      6486      6196      6206      6497      6487      6197      6207
 -1      4835    1    0    1
 -2      6497      6487      6197      6207      6498      6488      6198      6208
 -1      4836    1    0    1
 -2      6498      6488      6198      6208      6499      6489      6199      6209
 -1      4837    1    0    1
 -2      6499      6489      6199      6209      6500      6490      6200      6210
 -1      4838    1    0    1
 -2      6500      6490      6200      6210      6501      6491      6201      6211
 -1      4839    1    0    1
 -2      6501      6491      6201      6211      6502      6492      6202      6212
 -1      4840    1    0    1
 -2      6502      6492      6202      6212      2619      2618      2589      2590
 -1      4841    1    0    1
 -2       619       618       589       590      6503      6493      6203      6213
 -1      4842    1    0    1
 -2      6503      6493      6203      6213      6504      6494      6204      6214
 -1      4843    1    0    1
 -2      6504      6494      6204      6214      6505      6495      6205      6215
 -1      4844    1    0    1
 -2      6505      6495      6205      6215      6506      6496      6206      6216
 -1      4845    1    0    1
 -2      6506      6496      6206      6216      6507      6497      6207      6217
 -1      4846    1    0    1
 -2      6507      6497      6207      6217      6508      6498      6208      6218
 -1      4847    1    0    1
 -2      6508      6498      6208      6218      6509      6499      6209      6219
 -1      4848    1    0    1
 -2      6509      6499      6209      6219      6510      6500      6210      6220
 -1      4849    1    0    1
 -2      6510      6500      6210      6220      6511      6501      6211      6221
 -1      4850    1    0    1
 -2      6511      6501      6211      6221      6512      6502      6212      6222
 -1      4851    1    0    1
 -2      6512      6502      6212      6222      2620      2619      2590      2591
 -1      4852    1    0    1
 -2       620       619       590       591      6513      6503      6213      6223
 -1      4853    1    0    1
 -2      6513      6503      6213      6223      6514      6504      6214      6224
 -1      4854    1    0    1
 -2      6514      6504      6214      6224      6515      6505      6215      6225
 -1      4855    1    0    1
 -2      6515      6505      6215      6225      6516      6506      6216      6226
 -1      4856    1    0    1
 -2      6516      6506      6216      6226      6517      6507      6217      6227
 -1      4857    1    0    1
 -2      6517      6507      6217      6227      6518      6508      6218      6228
 -1      4858    1    0    1
 -2      6518      6508      6218      6228      6519      6509      6219      6229
 -1      4859    1    0    1
 -2      6519      6509      6219      6229      6520      6510      6220      6230
 -1      4860    1    0    1
 -2      6520      6510      6220      6230      6521      6511      6221      6231
 -1      4861    1    0    1
 -2      6521      6511      6221      6231      6522      6512      6222      6232
 -1      4862    1    0    1
 -2      6522      6512      6222      6232      2621      2620      2591      2592
 -1      4863    1    0    1
 -2       621       620       591       592      6523      6513      6223      6233
 -1      4864    1    0    1
 -2      6523      6513      6223      6233      6524      6514      6224      6234
 -1      4865    1    0    1
 -2      6524      6514      6224      6234      6525      6515      6225      6235
 -1      4866    1    0    1
 -2      6525      6515      6225      6235      6526      6516      6226      6236
 -1      4867    1    0    1
 -2      6526      6516      6226      6236      6527      6517      6227      6237
 -1      4868    1    0    1
 -2      6527      6517      6227      6237      6528      6518      6228      6238
 -1      4869    1    0    1
 -2      6528      6518      6228      6238      6529      6519      6229      6239
 -1      4870    1    0    1
 -2      6529      6519      6229      6239      6530      6520      6230      6240
 -1      4871    1    0    1
 -2      6530      6520      6230      6240      6531      6521      6231      6241
 -1      4872    1    0    1
 -2      6531      6521      6231      6241      6532      6522      6232      6242
 -1      4873    1    0    1
 -2      6532      6522      6232      6242      2622      2621      2592      2593
 -1      4874    1    0    1
 -2       622       621       592       593      6533      6523      6233      6243
 -1      4875    1    0    1
 -2      6533      6523      6233      6243      6534      6524      6234      6244
 -1      4876    1    0    1
 -2      6534      6524      6234      6244      6535      6525      6235      6245
 -1      4877    1    0    1
 -2      6535      6525      6235      6245      6536      6526      6236      6246
 -1      4878    1    0    1
 -2      6536      6526      6236      6246      6537      6527      6237      6247
 -1      4879    1    0    1
 -2      6537      6527      6237      6247      6538      6528      6238      6248
 -1      4880    1    0    1
 -2      6538      6528      6238      6248      6539      6529      6239      6249
 -1      4881    1    0    1
 -2      6539      6529      6239      6249      6540      6530      6240      6250
 -1      4882    1    0    1
 -2      6540      6530      6240      6250      6541      6531      6241      6251
 -1      4883    1    0    1
 -2      6541      6531      6241      6251      6542      6532      6242      6252
 -1      4884    1    0    1
 -2      6542      6532      6242      6252      2623      2622      2593      2594
 -1      4885    1    0    1
 -2       623       622       593       594      6543      6533      6243      6253
 -1      4886    1    0    1
 -2      6543      6533      6243      6253      6544      6534      6244      6254
 -1      4887    1    0    1
 -2      6544      6534      6244      6254      6545      6535      6245      6255
 -1      4888    1    0    1
 -2      6545      6535      6245      6255      6546      6536      6246      6256
 -1      4889    1    0    1
 -2      6546      6536      6246      6256      6547      6537      6247      6257
 -1      4890    1    0    1
 -2      6547      6537      6247      6257      6548      6538      6248      6258
 -1      4891    1    0    1
 -2      6548      6538      6248      6258      6549      6539      6249      6259
 -1      4892    1    0    1
 -2      6549      6539      6249      6259      6550      6540      6250      6260
 -1      4893    1    0    1
 -2      6550      6540      6250      6260      6551      6541      6251      6261
 -1      4894    1    0    1
 -2      6551      6541      6251      6261      6552      6542      6252      6262
 -1      4895    1    0    1
 -2      6552      6542      6252      6262      2624      2623      2594      2595
 -1      4896    1    0    1
 -2       624       623       594       595      6553      6543      6253      6263
 -1      4897    1    0    1
 -2      6553      6543      6253      6263      6554      6544      6254      6264
 -1      4898    1    0    1
 -2      6554      6544      6254      6264      6555      6545      6255      6265
 -1      4899    1    0    1
 -2      6555      6545      6255      6265      6556      6546      6256      6266
 -1      4900    1    0    1
 -2      6556      6546      6256      6266      6557      6547      6257      6267
 -1      4901    1    0    1
 -2      6557      6547      6257      6267      6558      6548      6258      6268
 -1      4902    1    0    1
 -2      6558      6548      6258      6268      6559      6549      6259      6269
 -1      4903    1    0    1
 -2      6559      6549      6259      6269      6560      6550      6260      6270
 -1      4904    1    0    1
 -2      6560      6550      6260      6270      6561      6551      6261      6271
 -1      4905    1    0    1
 -2      6561      6551      6261      6271      6562      6552      6262      6272
 -1      4906    1    0    1
 -2      6562      6552      6262      6272      2625      2624      2595      2596
 -1      4907    1    0    1
 -2       625       624       595       596      6563      6553      6263      6273
 -1      4908    1    0    1
 -2      6563      6553      6263      6273      6564      6554      6264      6274
 -1      4909    1    0    1
 -2      6564      6554      6264      6274      6565      6555      6265      6275
 -1      4910    1    0    1
 -2      6565      6555      6265      6275      6566      6556      6266      6276
 -1      4911    1    0    1
 -2      6566      6556      6266      6276      6567      6557      6267      6277
 -1      4912    1    0    1
 -2      6567      6557      6267      6277      6568      6558      6268      6278
 -1      4913    1    0    1
 -2      6568      6558      6268      6278      6569      6559      6269      6279
 -1      4914    1    0    1
 -2      6569      6559      6269      6279      6570      6560      6270      6280
 -1      4915    1    0    1
 -2      6570      6560      6270      6280      6571      6561      6271      6281
 -1      4916    1    0    1
 -2      6571      6561      6271      6281      6572      6562      6272      6282
 -1      4917    1    0    1
 -2      6572      6562      6272      6282      2626      2625      2596      2597
 -1      4918    1    0    1
 -2       626       625       596       597      6573      6563      6273      6283
 -1      4919    1    0    1
 -2      6573      6563      6273      6283      6574      6564      6274      6284
 -1      4920    1    0    1
 -2      6574      6564      6274      6284      6575      6565      6275      6285
 -1      4921    1    0    1
 -2      6575      6565      6275      6285      6576      6566      6276      6286
 -1      4922    1    0    1
 -2      6576      6566      6276      6286      6577      6567      6277      6287
 -1      4923    1    0    1
 -2      6577      6567      6277      6287      6578      6568      6278      6288
 -1      4924    1    0    1
 -2      6578      6568      6278      6288      6579      6569      6279      6289
 -1      4925    1    0    1
 -2      6579      6569      6279      6289      6580      6570      6280      6290
 -1      4926    1    0    1
 -2      6580      6570      6280      6290      6581      6571      6281      6291
 -1      4927    1    0    1
 -2      6581      6571      6281      6291      6582      6572      6282      6292
 -1      4928    1    0    1
 -2      6582      6572      6282      6292      2627      2626      2597      2598
 -1      4929    1    0    1
 -2       627       626       597       598      6583      6573      6283      6293
 -1      4930    1    0    1
 -2      6583      6573      6283      6293      6584      6574      6284      6294
 -1      4931    1    0    1
 -2      6584      6574      6284      6294      6585      6575      6285      6295
 -1      4932    1    0    1
 -2      6585      6575      6285      6295      6586      6576      6286      6296
 -1      4933    1    0    1
 -2      6586      6576      6286      6296      6587      6577      6287      6297
 -1      4934    1    0    1
 -2      6587      6577      6287      6297      6588      6578      6288      6298
 -1      4935    1    0    1
 -2      6588      6578      6288      6298      6589      6579      6289      6299
 -1      4936    1    0    1
 -2      6589      6579      6289      6299      6590      6580      6290      6300
 -1      4937    1    0    1
 -2      6590      6580      6290      6300      6591      6581      6291      6301
 -1      4938    1    0    1
 -2      6591      6581      6291      6301      6592      6582      6292      6302
 -1      4939    1    0    1
 -2      6592      6582      6292      6302      2628      2627      2598      2599
 -1      4940    1    0    1
 -2       628       627       598       599      6593      6583      6293      6303
 -1      4941    1    0    1
 -2      6593      6583      6293      6303      6594      6584      6294      6304
 -1      4942    1    0    1
 -2      6594      6584      6294      6304      6595      6585      6295      6305
 -1      4943    1    0    1
 -2      6595      6585      6295      6305      6596      6586      6296      6306
 -1      4944    1    0    1
 -2      6596      6586      6296      6306      6597      6587      6297      6307
 -1      4945    1    0    1
 -2      6597      6587      6297      6307      6598      6588      6298      6308
 -1      4946    1    0    1
 -2      6598      6588      6298      6308      6599      6589      6299      6309
 -1      4947    1    0    1
 -2      6599      6589      6299      6309      6600      6590      6300      6310
 -1      4948    1    0    1
 -2      6600      6590      6300      6310      6601      6591      6301      6311
 -1      4949    1    0    1
 -2      6601      6591      6301      6311      6602      6592      6302      6312
 -1      4950    1    0    1
 -2      6602      6592      6302      6312      2629      2628      2599      2600
 -1      4951    1    0    1
 -2        84       628       599        85      1872      6593      6303      1882
 -1      4952    1    0    1
 -2      1872      6593      6303      1882      1873      6594      6304      1883
 -1      4953    1    0    1
 -2      1873      6594      6304      1883      1874      6595      6305      1884
 -1      4954    1    0    1
 -2      1874      6595      6305      1884      1875      6596      6306      1885
 -1      4955    1    0    1
 -2      1875      6596      6306      1885      1876      6597      6307      1886
 -1      4956    1    0    1
 -2      1876      6597      6307      1886      1877      6598      6308      1887
 -1      4957    1    0    1
 -2      1877      6598      6308      1887      1878      6599      6309      1888
 -1      4958    1    0    1
 -2      1878      6599      6309      1888      1879      6600      6310      1889
 -1      4959    1    0    1
 -2      1879      6600      6310      1889      1880      6601      6311      1890
 -1      4960    1    0    1
 -2      1880      6601      6311      1890      1881      6602      6312      1891
 -1      4961    1    0    1
 -2      1881      6602      6312      1891       200      2629      2600       201
 -1      4962    1    0    1
 -2       629        21        20       600      6603      1242      1232      6313
 -1      4963    1    0    1
 -2      6603      1242      1232      6313      6604      1243      1233      6314
 -1      4964    1    0    1
 -2      6604      1243      1233      6314      6605      1244      1234      6315
 -1      4965    1    0    1
 -2      6605      1244      1234      6315      6606      1245      1235      6316
 -1      4966    1    0    1
 -2      6606      1245      1235      6316      6607      1246      1236      6317
 -1      4967    1    0    1
 -2      6607      1246      1236      6317      6608      1247      1237      6318
 -1      4968    1    0    1
 -2      6608      1247      1237      6318      6609      1248      1238      6319
 -1      4969    1    0    1
 -2      6609      1248      1238      6319      6610      1249      1239      6320
 -1      4970    1    0    1
 -2      6610      1249      1239      6320      6611      1250      1240      6321
 -1      4971    1    0    1
 -2      6611      1250      1240      6321      6612      1251      1241      6322
 -1      4972    1    0    1
 -2      6612      1251      1241      6322      2630       137       136      2601
 -1      4973    1    0    1
 -2       630       629       600       601      6613      6603      6313      6323
 -1      4974    1    0    1
 -2      6613      6603      6313      6323      6614      6604      6314      6324
 -1      4975    1    0    1
 -2      6614      6604      6314      6324      6615      6605      6315      6325
 -1      4976    1    0    1
 -2      6615      6605      6315      6325      6616      6606      6316      6326
 -1      4977    1    0    1
 -2      6616      6606      6316      6326      6617      6607      6317      6327
 -1      4978    1    0    1
 -2      6617      6607      6317      6327      6618      6608      6318      6328
 -1      4979    1    0    1
 -2      6618      6608      6318      6328      6619      6609      6319      6329
 -1      4980    1    0    1
 -2      6619      6609      6319      6329      6620      6610      6320      6330
 -1      4981    1    0    1
 -2      6620      6610      6320      6330      6621      6611      6321      6331
 -1      4982    1    0    1
 -2      6621      6611      6321      6331      6622      6612      6322      6332
 -1      4983    1    0    1
 -2      6622      6612      6322      6332      2631      2630      2601      2602
 -1      4984    1    0    1
 -2       631       630       601       602      6623      6613      6323      6333
 -1      4985    1    0    1
 -2      6623      6613      6323      6333      6624      6614      6324      6334
 -1      4986    1    0    1
 -2      6624      6614      6324      6334      6625      6615      6325      6335
 -1      4987    1    0    1
 -2      6625      6615      6325      6335      6626      6616      6326      6336
 -1      4988    1    0    1
 -2      6626      6616      6326      6336      6627      6617      6327      6337
 -1      4989    1    0    1
 -2      6627      6617      6327      6337      6628      6618      6328      6338
 -1      4990    1    0    1
 -2      6628      6618      6328      6338      6629      6619      6329      6339
 -1      4991    1    0    1
 -2      6629      6619      6329      6339      6630      6620      6330      6340
 -1      4992    1    0    1
 -2      6630      6620      6330      6340      6631      6621      6331      6341
 -1      4993    1    0    1
 -2      6631      6621      6331      6341      6632      6622      6332      6342
 -1      4994    1    0    1
 -2      6632      6622      6332      6342      2632      2631      2602      2603
 -1      4995    1    0    1
 -2       632       631       602       603      6633      6623      6333      6343
 -1      4996    1    0    1
 -2      6633      6623      6333      6343      6634      6624      6334      6344
 -1      4997    1    0    1
 -2      6634      6624      6334      6344      6635      6625      6335      6345
 -1      4998    1    0    1
 -2      6635      6625      6335      6345      6636      6626      6336      6346
 -1      4999    1    0    1
 -2      6636      6626      6336      6346      6637      6627      6337      6347
 -1      5000    1    0    1
 -2      6637      6627      6337      6347      6638      6628      6338      6348
 -1      5001    1    0    1
 -2      6638      6628      6338      6348      6639      6629      6339      6349
 -1      5002    1    0    1
 -2      6639      6629      6339      6349      6640      6630      6340      6350
 -1      5003    1    0    1
 -2      6640      6630      6340      6350      6641      6631      6341      6351
 -1      5004    1    0    1
 -2      6641      6631      6341      6351      6642      6632      6342      6352
 -1      5005    1    0    1
 -2      6642      6632      6342      6352      2633      2632      2603      2604
 -1      5006    1    0    1
 -2       633       632       603       604      6643      6633      6343      6353
 -1      5007    1    0    1
 -2      6643      6633      6343      6353      6644      6634      6344      6354
 -1      5008    1    0    1
 -2      6644      6634      6344      6354      6645      6635      6345      6355
 -1      5009    1    0    1
 -2      6645      6635      6345      6355      6646      6636      6346      6356
 -1      5010    1    0    1
 -2      6646      6636      6346      6356      6647      6637      6347      6357
 -1      5011    1    0    1
 -2      6647      6637      6347      6357      6648      6638      6348      6358
 -1      5012    1    0    1
 -2      6648      6638      6348      6358      6649      6639      6349      6359
 -1      5013    1    0    1
 -2      6649      6639      6349      6359      6650      6640      6350      6360
 -1      5014    1    0    1
 -2      6650      6640      6350      6360      6651      6641      6351      6361
 -1      5015    1    0    1
 -2      6651      6641      6351      6361      6652      6642      6352      6362
 -1      5016    1    0    1
 -2      6652      6642      6352      6362      2634      2633      2604      2605
 -1      5017    1    0    1
 -2       634       633       604       605      6653      6643      6353      6363
 -1      5018    1    0    1
 -2      6653      6643      6353      6363      6654      6644      6354      6364
 -1      5019    1    0    1
 -2      6654      6644      6354      6364      6655      6645      6355      6365
 -1      5020    1    0    1
 -2      6655      6645      6355      6365      6656      6646      6356      6366
 -1      5021    1    0    1
 -2      6656      6646      6356      6366      6657      6647      6357      6367
 -1      5022    1    0    1
 -2      6657      6647      6357      6367      6658      6648      6358      6368
 -1      5023    1    0    1
 -2      6658      6648      6358      6368      6659      6649      6359      6369
 -1      5024    1    0    1
 -2      6659      6649      6359      6369      6660      6650      6360      6370
 -1      5025    1    0    1
 -2      6660      6650      6360      6370      6661      6651      6361      6371
 -1      5026    1    0    1
 -2      6661      6651      6361      6371      6662      6652      6362      6372
 -1      5027    1    0    1
 -2      6662      6652      6362      6372      2635      2634      2605      2606
 -1      5028    1    0    1
 -2       635       634       605       606      6663      6653      6363      6373
 -1      5029    1    0    1
 -2      6663      6653      6363      6373      6664      6654      6364      6374
 -1      5030    1    0    1
 -2      6664      6654      6364      6374      6665      6655      6365      6375
 -1      5031    1    0    1
 -2      6665      6655      6365      6375      6666      6656      6366      6376
 -1      5032    1    0    1
 -2      6666      6656      6366      6376      6667      6657      6367      6377
 -1      5033    1    0    1
 -2      6667      6657      6367      6377      6668      6658      6368      6378
 -1      5034    1    0    1
 -2      6668      6658      6368      6378      6669      6659      6369      6379
 -1      5035    1    0    1
 -2      6669      6659      6369      6379      6670      6660      6370      6380
 -1      5036    1    0    1
 -2      6670      6660      6370      6380      6671      6661      6371      6381
 -1      5037    1    0    1
 -2      6671      6661      6371      6381      6672      6662      6372      6382
 -1      5038    1    0    1
 -2      6672      6662      6372      6382      2636      2635      2606      2607
 -1      5039    1    0    1
 -2       636       635       606       607      6673      6663      6373      6383
 -1      5040    1    0    1
 -2      6673      6663      6373      6383      6674      6664      6374      6384
 -1      5041    1    0    1
 -2      6674      6664      6374      6384      6675      6665      6375      6385
 -1      5042    1    0    1
 -2      6675      6665      6375      6385      6676      6666      6376      6386
 -1      5043    1    0    1
 -2      6676      6666      6376      6386      6677      6667      6377      6387
 -1      5044    1    0    1
 -2      6677      6667      6377      6387      6678      6668      6378      6388
 -1      5045    1    0    1
 -2      6678      6668      6378      6388      6679      6669      6379      6389
 -1      5046    1    0    1
 -2      6679      6669      6379      6389      6680      6670      6380      6390
 -1      5047    1    0    1
 -2      6680      6670      6380      6390      6681      6671      6381      6391
 -1      5048    1    0    1
 -2      6681      6671      6381      6391      6682      6672      6382      6392
 -1      5049    1    0    1
 -2      6682      6672      6382      6392      2637      2636      2607      2608
 -1      5050    1    0    1
 -2       637       636       607       608      6683      6673      6383      6393
 -1      5051    1    0    1
 -2      6683      6673      6383      6393      6684      6674      6384      6394
 -1      5052    1    0    1
 -2      6684      6674      6384      6394      6685      6675      6385      6395
 -1      5053    1    0    1
 -2      6685      6675      6385      6395      6686      6676      6386      6396
 -1      5054    1    0    1
 -2      6686      6676      6386      6396      6687      6677      6387      6397
 -1      5055    1    0    1
 -2      6687      6677      6387      6397      6688      6678      6388      6398
 -1      5056    1    0    1
 -2      6688      6678      6388      6398      6689      6679      6389      6399
 -1      5057    1    0    1
 -2      6689      6679      6389      6399      6690      6680      6390      6400
 -1      5058    1    0    1
 -2      6690      6680      6390      6400      6691      6681      6391      6401
 -1      5059    1    0    1
 -2      6691      6681      6391      6401      6692      6682      6392      6402
 -1      5060    1    0    1
 -2      6692      6682      6392      6402      2638      2637      2608      2609
 -1      5061    1    0    1
 -2       638       637       608       609      6693      6683      6393      6403
 -1      5062    1    0    1
 -2      6693      6683      6393      6403      6694      6684      6394      6404
 -1      5063    1    0    1
 -2      6694      6684      6394      6404      6695      6685      6395      6405
 -1      5064    1    0    1
 -2      6695      6685      6395      6405      6696      6686      6396      6406
 -1      5065    1    0    1
 -2      6696      6686      6396      6406      6697      6687      6397      6407
 -1      5066    1    0    1
 -2      6697      6687      6397      6407      6698      6688      6398      6408
 -1      5067    1    0    1
 -2      6698      6688      6398      6408      6699      6689      6399      6409
 -1      5068    1    0    1
 -2      6699      6689      6399      6409      6700      6690      6400      6410
 -1      5069    1    0    1
 -2      6700      6690      6400      6410      6701      6691      6401      6411
 -1      5070    1    0    1
 -2      6701      6691      6401      6411      6702      6692      6402      6412
 -1      5071    1    0    1
 -2      6702      6692      6402      6412      2639      2638      2609      2610
 -1      5072    1    0    1
 -2       639       638       609       610      6703      6693      6403      6413
 -1      5073    1    0    1
 -2      6703      6693      6403      6413      6704      6694      6404      6414
 -1      5074    1    0    1
 -2      6704      6694      6404      6414      6705      6695      6405      6415
 -1      5075    1    0    1
 -2      6705      6695      6405      6415      6706      6696      6406      6416
 -1      5076    1    0    1
 -2      6706      6696      6406      6416      6707      6697      6407      6417
 -1      5077    1    0    1
 -2      6707      6697      6407      6417      6708      6698      6408      6418
 -1      5078    1    0    1
 -2      6708      6698      6408      6418      6709      6699      6409      6419
 -1      5079    1    0    1
 -2      6709      6699      6409      6419      6710      6700      6410      6420
 -1      5080    1    0    1
 -2      6710      6700      6410      6420      6711      6701      6411      6421
 -1      5081    1    0    1
 -2      6711      6701      6411      6421      6712      6702      6412      6422
 -1      5082    1    0    1
 -2      6712      6702      6412      6422      2640      2639      2610      2611
 -1      5083    1    0    1
 -2       640       639       610       611      6713      6703      6413      6423
 -1      5084    1    0    1
 -2      6713      6703      6413      6423      6714      6704      6414      6424
 -1      5085    1    0    1
 -2      6714      6704      6414      6424      6715      6705      6415      6425
 -1      5086    1    0    1
 -2      6715      6705      6415      6425      6716      6706      6416      6426
 -1      5087    1    0    1
 -2      6716      6706      6416      6426      6717      6707      6417      6427
 -1      5088    1    0    1
 -2      6717      6707      6417      6427      6718      6708      6418      6428
 -1      5089    1    0    1
 -2      6718      6708      6418      6428      6719      6709      6419      6429
 -1      5090    1    0    1
 -2      6719      6709      6419      6429      6720      6710      6420      6430
 -1      5091    1    0    1
 -2      6720      6710      6420      6430      6721      6711      6421      6431
 -1      5092    1    0    1
 -2      6721      6711      6421      6431      6722      6712      6422      6432
 -1      5093    1    0    1
 -2      6722      6712      6422      6432      2641      2640      2611      2612
 -1      5094    1    0    1
 -2       641       640       611       612      6723      6713      6423      6433
 -1      5095    1    0    1
 -2      6723      6713      6423      6433      6724      6714      6424      6434
 -1      5096    1    0    1
 -2      6724      6714      6424      6434      6725      6715      6425      6435
 -1      5097    1    0    1
 -2      6725      6715      6425      6435      6726      6716      6426      6436
 -1      5098    1    0    1
 -2      6726      6716      6426      6436      6727      6717      6427      6437
 -1      5099    1    0    1
 -2      6727      6717      6427      6437      6728      6718      6428      6438
 -1      5100    1    0    1
 -2      6728      6718      6428      6438      6729      6719      6429      6439
 -1      5101    1    0    1
 -2      6729      6719      6429      6439      6730      6720      6430      6440
 -1      5102    1    0    1
 -2      6730      6720      6430      6440      6731      6721      6431      6441
 -1      5103    1    0    1
 -2      6731      6721      6431      6441      6732      6722      6432      6442
 -1      5104    1    0    1
 -2      6732      6722      6432      6442      2642      2641      2612      2613
 -1      5105    1    0    1
 -2       642       641       612       613      6733      6723      6433      6443
 -1      5106    1    0    1
 -2      6733      6723      6433      6443      6734      6724      6434      6444
 -1      5107    1    0    1
 -2      6734      6724      6434      6444      6735      6725      6435      6445
 -1      5108    1    0    1
 -2      6735      6725      6435      6445      6736      6726      6436      6446
 -1      5109    1    0    1
 -2      6736      6726      6436      6446      6737      6727      6437      6447
 -1      5110    1    0    1
 -2      6737      6727      6437      6447      6738      6728      6438      6448
 -1      5111    1    0    1
 -2      6738      6728      6438      6448      6739      6729      6439      6449
 -1      5112    1    0    1
 -2      6739      6729      6439      6449      6740      6730      6440      6450
 -1      5113    1    0    1
 -2      6740      6730      6440      6450      6741      6731      6441      6451
 -1      5114    1    0    1
 -2      6741      6731      6441      6451      6742      6732      6442      6452
 -1      5115    1    0    1
 -2      6742      6732      6442      6452      2643      2642      2613      2614
 -1      5116    1    0    1
 -2       643       642       613       614      6743      6733      6443      6453
 -1      5117    1    0    1
 -2      6743      6733      6443      6453      6744      6734      6444      6454
 -1      5118    1    0    1
 -2      6744      6734      6444      6454      6745      6735      6445      6455
 -1      5119    1    0    1
 -2      6745      6735      6445      6455      6746      6736      6446      6456
 -1      5120    1    0    1
 -2      6746      6736      6446      6456      6747      6737      6447      6457
 -1      5121    1    0    1
 -2      6747      6737      6447      6457      6748      6738      6448      6458
 -1      5122    1    0    1
 -2      6748      6738      6448      6458      6749      6739      6449      6459
 -1      5123    1    0    1
 -2      6749      6739      6449      6459      6750      6740      6450      6460
 -1      5124    1    0    1
 -2      6750      6740      6450      6460      6751      6741      6451      6461
 -1      5125    1    0    1
 -2      6751      6741      6451      6461      6752      6742      6452      6462
 -1      5126    1    0    1
 -2      6752      6742      6452      6462      2644      2643      2614      2615
 -1      5127    1    0    1
 -2       644       643       614       615      6753      6743      6453      6463
 -1      5128    1    0    1
 -2      6753      6743      6453      6463      6754      6744      6454      6464
 -1      5129    1    0    1
 -2      6754      6744      6454      6464      6755      6745      6455      6465
 -1      5130    1    0    1
 -2      6755      6745      6455      6465      6756      6746      6456      6466
 -1      5131    1    0    1
 -2      6756      6746      6456      6466      6757      6747      6457      6467
 -1      5132    1    0    1
 -2      6757      6747      6457      6467      6758      6748      6458      6468
 -1      5133    1    0    1
 -2      6758      6748      6458      6468      6759      6749      6459      6469
 -1      5134    1    0    1
 -2      6759      6749      6459      6469      6760      6750      6460      6470
 -1      5135    1    0    1
 -2      6760      6750      6460      6470      6761      6751      6461      6471
 -1      5136    1    0    1
 -2      6761      6751      6461      6471      6762      6752      6462      6472
 -1      5137    1    0    1
 -2      6762      6752      6462      6472      2645      2644      2615      2616
 -1      5138    1    0    1
 -2       645       644       615       616      6763      6753      6463      6473
 -1      5139    1    0    1
 -2      6763      6753      6463      6473      6764      6754      6464      6474
 -1      5140    1    0    1
 -2      6764      6754      6464      6474      6765      6755      6465      6475
 -1      5141    1    0    1
 -2      6765      6755      6465      6475      6766      6756      6466      6476
 -1      5142    1    0    1
 -2      6766      6756      6466      6476      6767      6757      6467      6477
 -1      5143    1    0    1
 -2      6767      6757      6467      6477      6768      6758      6468      6478
 -1      5144    1    0    1
 -2      6768      6758      6468      6478      6769      6759      6469      6479
 -1      5145    1    0    1
 -2      6769      6759      6469      6479      6770      6760      6470      6480
 -1      5146    1    0    1
 -2      6770      6760      6470      6480      6771      6761      6471      6481
 -1      5147    1    0    1
 -2      6771      6761      6471      6481      6772      6762      6472      6482
 -1      5148    1    0    1
 -2      6772      6762      6472      6482      2646      2645      2616      2617
 -1      5149    1    0    1
 -2       646       645       616       617      6773      6763      6473      6483
 -1      5150    1    0    1
 -2      6773      6763      6473      6483      6774      6764      6474      6484
 -1      5151    1    0    1
 -2      6774      6764      6474      6484      6775      6765      6475      6485
 -1      5152    1    0    1
 -2      6775      6765      6475      6485      6776      6766      6476      6486
 -1      5153    1    0    1
 -2      6776      6766      6476      6486      6777      6767      6477      6487
 -1      5154    1    0    1
 -2      6777      6767      6477      6487      6778      6768      6478      6488
 -1      5155    1    0    1
 -2      6778      6768      6478      6488      6779      6769      6479      6489
 -1      5156    1    0    1
 -2      6779      6769      6479      6489      6780      6770      6480      6490
 -1      5157    1    0    1
 -2      6780      6770      6480      6490      6781      6771      6481      6491
 -1      5158    1    0    1
 -2      6781      6771      6481      6491      6782      6772      6482      6492
 -1      5159    1    0    1
 -2      6782      6772      6482      6492      2647      2646      2617      2618
 -1      5160    1    0    1
 -2       647       646       617       618      6783      6773      6483      6493
 -1      5161    1    0    1
 -2      6783      6773      6483      6493      6784      6774      6484      6494
 -1      5162    1    0    1
 -2      6784      6774      6484      6494      6785      6775      6485      6495
 -1      5163    1    0    1
 -2      6785      6775      6485      6495      6786      6776      6486      6496
 -1      5164    1    0    1
 -2      6786      6776      6486      6496      6787      6777      6487      6497
 -1      5165    1    0    1
 -2      6787      6777      6487      6497      6788      6778      6488      6498
 -1      5166    1    0    1
 -2      6788      6778      6488      6498      6789      6779      6489      6499
 -1      5167    1    0    1
 -2      6789      6779      6489      6499      6790      6780      6490      6500
 -1      5168    1    0    1
 -2      6790      6780      6490      6500      6791      6781      6491      6501
 -1      5169    1    0    1
 -2      6791      6781      6491      6501      6792      6782      6492      6502
 -1      5170    1    0    1
 -2      6792      6782      6492      6502      2648      2647      2618      2619
 -1      5171    1    0    1
 -2       648       647       618       619      6793      6783      6493      6503
 -1      5172    1    0    1
 -2      6793      6783      6493      6503      6794      6784      6494      6504
 -1      5173    1    0    1
 -2      6794      6784      6494      6504      6795      6785      6495      6505
 -1      5174    1    0    1
 -2      6795      6785      6495      6505      6796      6786      6496      6506
 -1      5175    1    0    1
 -2      6796      6786      6496      6506      6797      6787      6497      6507
 -1      5176    1    0    1
 -2      6797      6787      6497      6507      6798      6788      6498      6508
 -1      5177    1    0    1
 -2      6798      6788      6498      6508      6799      6789      6499      6509
 -1      5178    1    0    1
 -2      6799      6789      6499      6509      6800      6790      6500      6510
 -1      5179    1    0    1
 -2      6800      6790      6500      6510      6801      6791      6501      6511
 -1      5180    1    0    1
 -2      6801      6791      6501      6511      6802      6792      6502      6512
 -1      5181    1    0    1
 -2      6802      6792      6502      6512      2649      2648      2619      2620
 -1      5182    1    0    1
 -2       649       648       619       620      6803      6793      6503      6513
 -1      5183    1    0    1
 -2      6803      6793      6503      6513      6804      6794      6504      6514
 -1      5184    1    0    1
 -2      6804      6794      6504      6514      6805      6795      6505      6515
 -1      5185    1    0    1
 -2      6805      6795      6505      6515      6806      6796      6506      6516
 -1      5186    1    0    1
 -2      6806      6796      6506      6516      6807      6797      6507      6517
 -1      5187    1    0    1
 -2      6807      6797      6507      6517      6808      6798      6508      6518
 -1      5188    1    0    1
 -2      6808      6798      6508      6518      6809      6799      6509      6519
 -1      5189    1    0    1
 -2      6809      6799      6509      6519      6810      6800      6510      6520
 -1      5190    1    0    1
 -2      6810      6800      6510      6520      6811      6801      6511      6521
 -1      5191    1    0    1
 -2      6811      6801      6511      6521      6812      6802      6512      6522
 -1      5192    1    0    1
 -2      6812      6802      6512      6522      2650      2649      2620      2621
 -1      5193    1    0    1
 -2       650       649       620       621      6813      6803      6513      6523
 -1      5194    1    0    1
 -2      6813      6803      6513      6523      6814      6804      6514      6524
 -1      5195    1    0    1
 -2      6814      6804      6514      6524      6815      6805      6515      6525
 -1      5196    1    0    1
 -2      6815      6805      6515      6525      6816      6806      6516      6526
 -1      5197    1    0    1
 -2      6816      6806      6516      6526      6817      6807      6517      6527
 -1      5198    1    0    1
 -2      6817      6807      6517      6527      6818      6808      6518      6528
 -1      5199    1    0    1
 -2      6818      6808      6518      6528      6819      6809      6519      6529
 -1      5200    1    0    1
 -2      6819      6809      6519      6529      6820      6810      6520      6530
 -1      5201    1    0    1
 -2      6820      6810      6520      6530      6821      6811      6521      6531
 -1      5202    1    0    1
 -2      6821      6811      6521      6531      6822      6812      6522      6532
 -1      5203    1    0    1
 -2      6822      6812      6522      6532      2651      2650      2621      2622
 -1      5204    1    0    1
 -2       651       650       621       622      6823      6813      6523      6533
 -1      5205    1    0    1
 -2      6823      6813      6523      6533      6824      6814      6524      6534
 -1      5206    1    0    1
 -2      6824      6814      6524      6534      6825      6815      6525      6535
 -1      5207    1    0    1
 -2      6825      6815      6525      6535      6826      6816      6526      6536
 -1      5208    1    0    1
 -2      6826      6816      6526      6536      6827      6817      6527      6537
 -1      5209    1    0    1
 -2      6827      6817      6527      6537      6828      6818      6528      6538
 -1      5210    1    0    1
 -2      6828      6818      6528      6538      6829      6819      6529      6539
 -1      5211    1    0    1
 -2      6829      6819      6529      6539      6830      6820      6530      6540
 -1      5212    1    0    1
 -2      6830      6820      6530      6540      6831      6821      6531      6541
 -1      5213    1    0    1
 -2      6831      6821      6531      6541      6832      6822      6532      6542
 -1      5214    1    0    1
 -2      6832      6822      6532      6542      2652      2651      2622      2623
 -1      5215    1    0    1
 -2       652       651       622       623      6833      6823      6533      6543
 -1      5216    1    0    1
 -2      6833      6823      6533      6543      6834      6824      6534      6544
 -1      5217    1    0    1
 -2      6834      6824      6534      6544      6835      6825      6535      6545
 -1      5218    1    0    1
 -2      6835      6825      6535      6545      6836      6826      6536      6546
 -1      5219    1    0    1
 -2      6836      6826      6536      6546      6837      6827      6537      6547
 -1      5220    1    0    1
 -2      6837      6827      6537      6547      6838      6828      6538      6548
 -1      5221    1    0    1
 -2      6838      6828      6538      6548      6839      6829      6539      6549
 -1      5222    1    0    1
 -2      6839      6829      6539      6549      6840      6830      6540      6550
 -1      5223    1    0    1
 -2      6840      6830      6540      6550      6841      6831      6541      6551
 -1      5224    1    0    1
 -2      6841      6831      6541      6551      6842      6832      6542      6552
 -1      5225    1    0    1
 -2      6842      6832      6542      6552      2653      2652      2623      2624
 -1      5226    1    0    1
 -2       653       652       623       624      6843      6833      6543      6553
 -1      5227    1    0    1
 -2      6843      6833      6543      6553      6844      6834      6544      6554
 -1      5228    1    0    1
 -2      6844      6834      6544      6554      6845      6835      6545      6555
 -1      5229    1    0    1
 -2      6845      6835      6545      6555      6846      6836      6546      6556
 -1      5230    1    0    1
 -2      6846      6836      6546      6556      6847      6837      6547      6557
 -1      5231    1    0    1
 -2      6847      6837      6547      6557      6848      6838      6548      6558
 -1      5232    1    0    1
 -2      6848      6838      6548      6558      6849      6839      6549      6559
 -1      5233    1    0    1
 -2      6849      6839      6549      6559      6850      6840      6550      6560
 -1      5234    1    0    1
 -2      6850      6840      6550      6560      6851      6841      6551      6561
 -1      5235    1    0    1
 -2      6851      6841      6551      6561      6852      6842      6552      6562
 -1      5236    1    0    1
 -2      6852      6842      6552      6562      2654      2653      2624      2625
 -1      5237    1    0    1
 -2       654       653       624       625      6853      6843      6553      6563
 -1      5238    1    0    1
 -2      6853      6843      6553      6563      6854      6844      6554      6564
 -1      5239    1    0    1
 -2      6854      6844      6554      6564      6855      6845      6555      6565
 -1      5240    1    0    1
 -2      6855      6845      6555      6565      6856      6846      6556      6566
 -1      5241    1    0    1
 -2      6856      6846      6556      6566      6857      6847      6557      6567
 -1      5242    1    0    1
 -2      6857      6847      6557      6567      6858      6848      6558      6568
 -1      5243    1    0    1
 -2      6858      6848      6558      6568      6859      6849      6559      6569
 -1      5244    1    0    1
 -2      6859      6849      6559      6569      6860      6850      6560      6570
 -1      5245    1    0    1
 -2      6860      6850      6560      6570      6861      6851      6561      6571
 -1      5246    1    0    1
 -2      6861      6851      6561      6571      6862      6852      6562      6572
 -1      5247    1    0    1
 -2      6862      6852      6562      6572      2655      2654      2625      2626
 -1      5248    1    0    1
 -2       655       654       625       626      6863      6853      6563      6573
 -1      5249    1    0    1
 -2      6863      6853      6563      6573      6864      6854      6564      6574
 -1      5250    1    0    1
 -2      6864      6854      6564      6574      6865      6855      6565      6575
 -1      5251    1    0    1
 -2      6865      6855      6565      6575      6866      6856      6566      6576
 -1      5252    1    0    1
 -2      6866      6856      6566      6576      6867      6857      6567      6577
 -1      5253    1    0    1
 -2      6867      6857      6567      6577      6868      6858      6568      6578
 -1      5254    1    0    1
 -2      6868      6858      6568      6578      6869      6859      6569      6579
 -1      5255    1    0    1
 -2      6869      6859      6569      6579      6870      6860      6570      6580
 -1      5256    1    0    1
 -2      6870      6860      6570      6580      6871      6861      6571      6581
 -1      5257    1    0    1
 -2      6871      6861      6571      6581      6872      6862      6572      6582
 -1      5258    1    0    1
 -2      6872      6862      6572      6582      2656      2655      2626      2627
 -1      5259    1    0    1
 -2       656       655       626       627      6873      6863      6573      6583
 -1      5260    1    0    1
 -2      6873      6863      6573      6583      6874      6864      6574      6584
 -1      5261    1    0    1
 -2      6874      6864      6574      6584      6875      6865      6575      6585
 -1      5262    1    0    1
 -2      6875      6865      6575      6585      6876      6866      6576      6586
 -1      5263    1    0    1
 -2      6876      6866      6576      6586      6877      6867      6577      6587
 -1      5264    1    0    1
 -2      6877      6867      6577      6587      6878      6868      6578      6588
 -1      5265    1    0    1
 -2      6878      6868      6578      6588      6879      6869      6579      6589
 -1      5266    1    0    1
 -2      6879      6869      6579      6589      6880      6870      6580      6590
 -1      5267    1    0    1
 -2      6880      6870      6580      6590      6881      6871      6581      6591
 -1      5268    1    0    1
 -2      6881      6871      6581      6591      6882      6872      6582      6592
 -1      5269    1    0    1
 -2      6882      6872      6582      6592      2657      2656      2627      2628
 -1      5270    1    0    1
 -2       657       656       627       628      6883      6873      6583      6593
 -1      5271    1    0    1
 -2      6883      6873      6583      6593      6884      6874      6584      6594
 -1      5272    1    0    1
 -2      6884      6874      6584      6594      6885      6875      6585      6595
 -1      5273    1    0    1
 -2      6885      6875      6585      6595      6886      6876      6586      6596
 -1      5274    1    0    1
 -2      6886      6876      6586      6596      6887      6877      6587      6597
 -1      5275    1    0    1
 -2      6887      6877      6587      6597      6888      6878      6588      6598
 -1      5276    1    0    1
 -2      6888      6878      6588      6598      6889      6879      6589      6599
 -1      5277    1    0    1
 -2      6889      6879      6589      6599      6890      6880      6590      6600
 -1      5278    1    0    1
 -2      6890      6880      6590      6600      6891      6881      6591      6601
 -1      5279    1    0    1
 -2      6891      6881      6591      6601      6892      6882      6592      6602
 -1      5280    1    0    1
 -2      6892      6882      6592      6602      2658      2657      2628      2629
 -1      5281    1    0    1
 -2        83       657       628        84      1862      6883      6593      1872
 -1      5282    1    0    1
 -2      1862      6883      6593      1872      1863      6884      6594      1873
 -1      5283    1    0    1
 -2      1863      6884      6594      1873      1864      6885      6595      1874
 -1      5284    1    0    1
 -2      1864      6885      6595      1874      1865      6886      6596      1875
 -1      5285    1    0    1
 -2      1865      6886      6596      1875      1866      6887      6597      1876
 -1      5286    1    0    1
 -2      1866      6887      6597      1876      1867      6888      6598      1877
 -1      5287    1    0    1
 -2      1867      6888      6598      1877      1868      6889      6599      1878
 -1      5288    1    0    1
 -2      1868      6889      6599      1878      1869      6890      6600      1879
 -1      5289    1    0    1
 -2      1869      6890      6600      1879      1870      6891      6601      1880
 -1      5290    1    0    1
 -2      1870      6891      6601      1880      1871      6892      6602      1881
 -1      5291    1    0    1
 -2      1871      6892      6602      1881       199      2658      2629       200
 -1      5292    1    0    1
 -2       658        22        21       629      6893      1252      1242      6603
 -1      5293    1    0    1
 -2      6893      1252      1242      6603      6894      1253      1243      6604
 -1      5294    1    0    1
 -2      6894      1253      1243      6604      6895      1254      1244      6605
 -1      5295    1    0    1
 -2      6895      1254      1244      6605      6896      1255      1245      6606
 -1      5296    1    0    1
 -2      6896      1255      1245      6606      6897      1256      1246      6607
 -1      5297    1    0    1
 -2      6897      1256      1246      6607      6898      1257      1247      6608
 -1      5298    1    0    1
 -2      6898      1257      1247      6608      6899      1258      1248      6609
 -1      5299    1    0    1
 -2      6899      1258      1248      6609      6900      1259      1249      6610
 -1      5300    1    0    1
 -2      6900      1259      1249      6610      6901      1260      1250      6611
 -1      5301    1    0    1
 -2      6901      1260      1250      6611      6902      1261      1251      6612
 -1      5302    1    0    1
 -2      6902      1261      1251      6612      2659       138       137      2630
 -1      5303    1    0    1
 -2       659       658       629       630      6903      6893      6603      6613
 -1      5304    1    0    1
 -2      6903      6893      6603      6613      6904      6894      6604      6614
 -1      5305    1    0    1
 -2      6904      6894      6604      6614      6905      6895      6605      6615
 -1      5306    1    0    1
 -2      6905      6895      6605      6615      6906      6896      6606      6616
 -1      5307    1    0    1
 -2      6906      6896      6606      6616      6907      6897      6607      6617
 -1      5308    1    0    1
 -2      6907      6897      6607      6617      6908      6898      6608      6618
 -1      5309    1    0    1
 -2      6908      6898      6608      6618      6909      6899      6609      6619
 -1      5310    1    0    1
 -2      6909      6899      6609      6619      6910      6900      6610      6620
 -1      5311    1    0    1
 -2      6910      6900      6610      6620      6911      6901      6611      6621
 -1      5312    1    0    1
 -2      6911      6901      6611      6621      6912      6902      6612      6622
 -1      5313    1    0    1
 -2      6912      6902      6612      6622      2660      2659      2630      2631
 -1      5314    1    0    1
 -2       660       659       630       631      6913      6903      6613      6623
 -1      5315    1    0    1
 -2      6913      6903      6613      6623      6914      6904      6614      6624
 -1      5316    1    0    1
 -2      6914      6904      6614      6624      6915      6905      6615      6625
 -1      5317    1    0    1
 -2      6915      6905      6615      6625      6916      6906      6616      6626
 -1      5318    1    0    1
 -2      6916      6906      6616      6626      6917      6907      6617      6627
 -1      5319    1    0    1
 -2      6917      6907      6617      6627      6918      6908      6618      6628
 -1      5320    1    0    1
 -2      6918      6908      6618      6628      6919      6909      6619      6629
 -1      5321    1    0    1
 -2      6919      6909      6619      6629      6920      6910      6620      6630
 -1      5322    1    0    1
 -2      6920      6910      6620      6630      6921      6911      6621      6631
 -1      5323    1    0    1
 -2      6921      6911      6621      6631      6922      6912      6622      6632
 -1      5324    1    0    1
 -2      6922      6912      6622      6632      2661      2660      2631      2632
 -1      5325    1    0    1
 -2       661       660       631       632      6923      6913      6623      6633
 -1      5326    1    0    1
 -2      6923      6913      6623      6633      6924      6914      6624      6634
 -1      5327    1    0    1
 -2      6924      6914      6624      6634      6925      6915      6625      6635
 -1      5328    1    0    1
 -2      6925      6915      6625      6635      6926      6916      6626      6636
 -1      5329    1    0    1
 -2      6926      6916      6626      6636      6927      6917      6627      6637
 -1      5330    1    0    1
 -2      6927      6917      6627      6637      6928      6918      6628      6638
 -1      5331    1    0    1
 -2      6928      6918      6628      6638      6929      6919      6629      6639
 -1      5332    1    0    1
 -2      6929      6919      6629      6639      6930      6920      6630      6640
 -1      5333    1    0    1
 -2      6930      6920      6630      6640      6931      6921      6631      6641
 -1      5334    1    0    1
 -2      6931      6921      6631      6641      6932      6922      6632      6642
 -1      5335    1    0    1
 -2      6932      6922      6632      6642      2662      2661      2632      2633
 -1      5336    1    0    1
 -2       662       661       632       633      6933      6923      6633      6643
 -1      5337    1    0    1
 -2      6933      6923      6633      6643      6934      6924      6634      6644
 -1      5338    1    0    1
 -2      6934      6924      6634      6644      6935      6925      6635      6645
 -1      5339    1    0    1
 -2      6935      6925      6635      6645      6936      6926      6636      6646
 -1      5340    1    0    1
 -2      6936      6926      6636      6646      6937      6927      6637      6647
 -1      5341    1    0    1
 -2      6937      6927      6637      6647      6938      6928      6638      6648
 -1      5342    1    0    1
 -2      6938      6928      6638      6648      6939      6929      6639      6649
 -1      5343    1    0    1
 -2      6939      6929      6639      6649      6940      6930      6640      6650
 -1      5344    1    0    1
 -2      6940      6930      6640      6650      6941      6931      6641      6651
 -1      5345    1    0    1
 -2      6941      6931      6641      6651      6942      6932      6642      6652
 -1      5346    1    0    1
 -2      6942      6932      6642      6652      2663      2662      2633      2634
 -1      5347    1    0    1
 -2       663       662       633       634      6943      6933      6643      6653
 -1      5348    1    0    1
 -2      6943      6933      6643      6653      6944      6934      6644      6654
 -1      5349    1    0    1
 -2      6944      6934      6644      6654      6945      6935      6645      6655
 -1      5350    1    0    1
 -2      6945      6935      6645      6655      6946      6936      6646      6656
 -1      5351    1    0    1
 -2      6946      6936      6646      6656      6947      6937      6647      6657
 -1      5352    1    0    1
 -2      6947      6937      6647      6657      6948      6938      6648      6658
 -1      5353    1    0    1
 -2      6948      6938      6648      6658      6949      6939      6649      6659
 -1      5354    1    0    1
 -2      6949      6939      6649      6659      6950      6940      6650      6660
 -1      5355    1    0    1
 -2      6950      6940      6650      6660      6951      6941      6651      6661
 -1      5356    1    0    1
 -2      6951      6941      6651      6661      6952      6942      6652      6662
 -1      5357    1    0    1
 -2      6952      6942      6652      6662      2664      2663      2634      2635
 -1      5358    1    0    1
 -2       664       663       634       635      6953      6943      6653      6663
 -1      5359    1    0    1
 -2      6953      6943      6653      6663      6954      6944      6654      6664
 -1      5360    1    0    1
 -2      6954      6944      6654      6664      6955      6945      6655      6665
 -1      5361    1    0    1
 -2      6955      6945      6655      6665      6956      6946      6656      6666
 -1      5362    1    0    1
 -2      6956      6946      6656      6666      6957      6947      6657      6667
 -1      5363    1    0    1
 -2      6957      6947      6657      6667      6958      6948      6658      6668
 -1      5364    1    0    1
 -2      6958      6948      6658      6668      6959      6949      6659      6669
 -1      5365    1    0    1
 -2      6959      6949      6659      6669      6960      6950      6660      6670
 -1      5366    1    0    1
 -2      6960      6950      6660      6670      6961      6951      6661      6671
 -1      5367    1    0    1
 -2      6961      6951      6661      6671      6962      6952      6662      6672
 -1      5368    1    0    1
 -2      6962      6952      6662      6672      2665      2664      2635      2636
 -1      5369    1    0    1
 -2       665       664       635       636      6963      6953      6663      6673
 -1      5370    1    0    1
 -2      6963      6953      6663      6673      6964      6954      6664      6674
 -1      5371    1    0    1
 -2      6964      6954      6664      6674      6965      6955      6665      6675
 -1      5372    1    0    1
 -2      6965      6955      6665      6675      6966      6956      6666      6676
 -1      5373    1    0    1
 -2      6966      6956      6666      6676      6967      6957      6667      6677
 -1      5374    1    0    1
 -2      6967      6957      6667      6677      6968      6958      6668      6678
 -1      5375    1    0    1
 -2      6968      6958      6668      6678      6969      6959      6669      6679
 -1      5376    1    0    1
 -2      6969      6959      6669      6679      6970      6960      6670      6680
 -1      5377    1    0    1
 -2      6970      6960      6670      6680      6971      6961      6671      6681
 -1      5378    1    0    1
 -2      6971      6961      6671      6681      6972      6962      6672      6682
 -1      5379    1    0    1
 -2      6972      6962      6672      6682      2666      2665      2636      2637
 -1      5380    1    0    1
 -2       666       665       636       637      6973      6963      6673      6683
 -1      5381    1    0    1
 -2      6973      6963      6673      6683      6974      6964      6674      6684
 -1      5382    1    0    1
 -2      6974      6964      6674      6684      6975      6965      6675      6685
 -1      5383    1    0    1
 -2      6975      6965      6675      6685      6976      6966      6676      6686
 -1      5384    1    0    1
 -2      6976      6966      6676      6686      6977      6967      6677      6687
 -1      5385    1    0    1
 -2      6977      6967      6677      6687      6978      6968      6678      6688
 -1      5386    1    0    1
 -2      6978      6968      6678      6688      6979      6969      6679      6689
 -1      5387    1    0    1
 -2      6979      6969      6679      6689      6980      6970      6680      6690
 -1      5388    1    0    1
 -2      6980      6970      6680      6690      6981      6971      6681      6691
 -1      5389    1    0    1
 -2      6981      6971      6681      6691      6982      6972      6682      6692
 -1      5390    1    0    1
 -2      6982      6972      6682      6692      2667      2666      2637      2638
 -1      5391    1    0    1
 -2       667       666       637       638      6983      6973      6683      6693
 -1      5392    1    0    1
 -2      6983      6973      6683      6693      6984      6974      6684      6694
 -1      5393    1    0    1
 -2      6984      6974      6684      6694      6985      6975      6685      6695
 -1      5394    1    0    1
 -2      6985      6975      6685      6695      6986      6976      6686      6696
 -1      5395    1    0    1
 -2      6986      6976      6686      6696      6987      6977      6687      6697
 -1      5396    1    0    1
 -2      6987      6977      6687      6697      6988      6978      6688      6698
 -1      5397    1    0    1
 -2      6988      6978      6688      6698      6989      6979      6689      6699
 -1      5398    1    0    1
 -2      6989      6979      6689      6699      6990      6980      6690      6700
 -1      5399    1    0    1
 -2      6990      6980      6690      6700      6991      6981      6691      6701
 -1      5400    1    0    1
 -2      6991      6981      6691      6701      6992      6982      6692      6702
 -1      5401    1    0    1
 -2      6992      6982      6692      6702      2668      2667      2638      2639
 -1      5402    1    0    1
 -2       668       667       638       639      6993      6983      6693      6703
 -1      5403    1    0    1
 -2      6993      6983      6693      6703      6994      6984      6694      6704
 -1      5404    1    0    1
 -2      6994      6984      6694      6704      6995      6985      6695      6705
 -1      5405    1    0    1
 -2      6995      6985      6695      6705      6996      6986      6696      6706
 -1      5406    1    0    1
 -2      6996      6986      6696      6706      6997      6987      6697      6707
 -1      5407    1    0    1
 -2      6997      6987      6697      6707      6998      6988      6698      6708
 -1      5408    1    0    1
 -2      6998      6988      6698      6708      6999      6989      6699      6709
 -1      5409    1    0    1
 -2      6999      6989      6699      6709      7000      6990      6700      6710
 -1      5410    1    0    1
 -2      7000      6990      6700      6710      7001      6991      6701      6711
 -1      5411    1    0    1
 -2      7001      6991      6701      6711      7002      6992      6702      6712
 -1      5412    1    0    1
 -2      7002      6992      6702      6712      2669      2668      2639      2640
 -1      5413    1    0    1
 -2       669       668       639       640      7003      6993      6703      6713
 -1      5414    1    0    1
 -2      7003      6993      6703      6713      7004      6994      6704      6714
 -1      5415    1    0    1
 -2      7004      6994      6704      6714      7005      6995      6705      6715
 -1      5416    1    0    1
 -2      7005      6995      6705      6715      7006      6996      6706      6716
 -1      5417    1    0    1
 -2      7006      6996      6706      6716      7007      6997      6707      6717
 -1      5418    1    0    1
 -2      7007      6997      6707      6717      7008      6998      6708      6718
 -1      5419    1    0    1
 -2      7008      6998      6708      6718      7009      6999      6709      6719
 -1      5420    1    0    1
 -2      7009      6999      6709      6719      7010      7000      6710      6720
 -1      5421    1    0    1
 -2      7010      7000      6710      6720      7011      7001      6711      6721
 -1      5422    1    0    1
 -2      7011      7001      6711      6721      7012      7002      6712      6722
 -1      5423    1    0    1
 -2      7012      7002      6712      6722      2670      2669      2640      2641
 -1      5424    1    0    1
 -2       670       669       640       641      7013      7003      6713      6723
 -1      5425    1    0    1
 -2      7013      7003      6713      6723      7014      7004      6714      6724
 -1      5426    1    0    1
 -2      7014      7004      6714      6724      7015      7005      6715      6725
 -1      5427    1    0    1
 -2      7015      7005      6715      6725      7016      7006      6716      6726
 -1      5428    1    0    1
 -2      7016      7006      6716      6726      7017      7007      6717      6727
 -1      5429    1    0    1
 -2      7017      7007      6717      6727      7018      7008      6718      6728
 -1      5430    1    0    1
 -2      7018      7008      6718      6728      7019      7009      6719      6729
 -1      5431    1    0    1
 -2      7019      7009      6719      6729      7020      7010      6720      6730
 -1      5432    1    0    1
 -2      7020      7010      6720      6730      7021      7011      6721      6731
 -1      5433    1    0    1
 -2      7021      7011      6721      6731      7022      7012      6722      6732
 -1      5434    1    0    1
 -2      7022      7012      6722      6732      2671      2670      2641      2642
 -1      5435    1    0    1
 -2       671       670       641       642      7023      7013      6723      6733
 -1      5436    1    0    1
 -2      7023      7013      6723      6733      7024      7014      6724      6734
 -1      5437    1    0    1
 -2      7024      7014      6724      6734      7025      7015      6725      6735
 -1      5438    1    0    1
 -2      7025      7015      6725      6735      7026      7016      6726      6736
 -1      5439    1    0    1
 -2      7026      7016      6726      6736      7027      7017      6727      6737
 -1      5440    1    0    1
 -2      7027      7017      6727      6737      7028      7018      6728      6738
 -1      5441    1    0    1
 -2      7028      7018      6728      6738      7029      7019      6729      6739
 -1      5442    1    0    1
 -2      7029      7019      6729      6739      7030      7020      6730      6740
 -1      5443    1    0    1
 -2      7030      7020      6730      6740      7031      7021      6731      6741
 -1      5444    1    0    1
 -2      7031      7021      6731      6741      7032      7022      6732      6742
 -1      5445    1    0    1
 -2      7032      7022      6732      6742      2672      2671      2642      2643
 -1      5446    1    0    1
 -2       672       671       642       643      7033      7023      6733      6743
 -1      5447    1    0    1
 -2      7033      7023      6733      6743      7034      7024      6734      6744
 -1      5448    1    0    1
 -2      7034      7024      6734      6744      7035      7025      6735      6745
 -1      5449    1    0    1
 -2      7035      7025      6735      6745      7036      7026      6736      6746
 -1      5450    1    0    1
 -2      7036      7026      6736      6746      7037      7027      6737      6747
 -1      5451    1    0    1
 -2      7037      7027      6737      6747      7038      7028      6738      6748
 -1      5452    1    0    1
 -2      7038      7028      6738      6748      7039      7029      6739      6749
 -1      5453    1    0    1
 -2      7039      7029      6739      6749      7040      7030      6740      6750
 -1      5454    1    0    1
 -2      7040      7030      6740      6750      7041      7031      6741      6751
 -1      5455    1    0    1
 -2      7041      7031      6741      6751      7042      7032      6742      6752
 -1      5456    1    0    1
 -2      7042      7032      6742      6752      2673      2672      2643      2644
 -1      5457    1    0    1
 -2       673       672       643       644      7043      7033      6743      6753
 -1      5458    1    0    1
 -2      7043      7033      6743      6753      7044      7034      6744      6754
 -1      5459    1    0    1
 -2      7044      7034      6744      6754      7045      7035      6745      6755
 -1      5460    1    0    1
 -2      7045      7035      6745      6755      7046      7036      6746      6756
 -1      5461    1    0    1
 -2      7046      7036      6746      6756      7047      7037      6747      6757
 -1      5462    1    0    1
 -2      7047      7037      6747      6757      7048      7038      6748      6758
 -1      5463    1    0    1
 -2      7048      7038      6748      6758      7049      7039      6749      6759
 -1      5464    1    0    1
 -2      7049      7039      6749      6759      7050      7040      6750      6760
 -1      5465    1    0    1
 -2      7050      7040      6750      6760      7051      7041      6751      6761
 -1      5466    1    0    1
 -2      7051      7041      6751      6761      7052      7042      6752      6762
 -1      5467    1    0    1
 -2      7052      7042      6752      6762      2674      2673      2644      2645
 -1      5468    1    0    1
 -2       674       673       644       645      7053      7043      6753      6763
 -1      5469    1    0    1
 -2      7053      7043      6753      6763      7054      7044      6754      6764
 -1      5470    1    0    1
 -2      7054      7044      6754      6764      7055      7045      6755      6765
 -1      5471    1    0    1
 -2      7055      7045      6755      6765      7056      7046      6756      6766
 -1      5472    1    0    1
 -2      7056      7046      6756      6766      7057      7047      6757      6767
 -1      5473    1    0    1
 -2      7057      7047      6757      6767      7058      7048      6758      6768
 -1      5474    1    0    1
 -2      7058      7048      6758      6768      7059      7049      6759      6769
 -1      5475    1    0    1
 -2      7059      7049      6759      6769      7060      7050      6760      6770
 -1      5476    1    0    1
 -2      7060      7050      6760      6770      7061      7051      6761      6771
 -1      5477    1    0    1
 -2      7061      7051      6761      6771      7062      7052      6762      6772
 -1      5478    1    0    1
 -2      7062      7052      6762      6772      2675      2674      2645      2646
 -1      5479    1    0    1
 -2       675       674       645       646      7063      7053      6763      6773
 -1      5480    1    0    1
 -2      7063      7053      6763      6773      7064      7054      6764      6774
 -1      5481    1    0    1
 -2      7064      7054      6764      6774      7065      7055      6765      6775
 -1      5482    1    0    1
 -2      7065      7055      6765      6775      7066      7056      6766      6776
 -1      5483    1    0    1
 -2      7066      7056      6766      6776      7067      7057      6767      6777
 -1      5484    1    0    1
 -2      7067      7057      6767      6777      7068      7058      6768      6778
 -1      5485    1    0    1
 -2      7068      7058      6768      6778      7069      7059      6769      6779
 -1      5486    1    0    1
 -2      7069      7059      6769      6779      7070      7060      6770      6780
 -1      5487    1    0    1
 -2      7070      7060      6770      6780      7071      7061      6771      6781
 -1      5488    1    0    1
 -2      7071      7061      6771      6781      7072      7062      6772      6782
 -1      5489    1    0    1
 -2      7072      7062      6772      6782      2676      2675      2646      2647
 -1      5490    1    0    1
 -2       676       675       646       647      7073      7063      6773      6783
 -1      5491    1    0    1
 -2      7073      7063      6773      6783      7074      7064      6774      6784
 -1      5492    1    0    1
 -2      7074      7064      6774      6784      7075      7065      6775      6785
 -1      5493    1    0    1
 -2      7075      7065      6775      6785      7076      7066      6776      6786
 -1      5494    1    0    1
 -2      7076      7066      6776      6786      7077      7067      6777      6787
 -1      5495    1    0    1
 -2      7077      7067      6777      6787      7078      7068      6778      6788
 -1      5496    1    0    1
 -2      7078      7068      6778      6788      7079      7069      6779      6789
 -1      5497    1    0    1
 -2      7079      7069      6779      6789      7080      7070      6780      6790
 -1      5498    1    0    1
 -2      7080      7070      6780      6790      7081      7071      6781      6791
 -1      5499    1    0    1
 -2      7081      7071      6781      6791      7082      7072      6782      6792
 -1      5500    1    0    1
 -2      7082      7072      6782      6792      2677      2676      2647      2648
 -1      5501    1    0    1
 -2       677       676       647       648      7083      7073      6783      6793
 -1      5502    1    0    1
 -2      7083      7073      6783      6793      7084      7074      6784      6794
 -1      5503    1    0    1
 -2      7084      7074      6784      6794      7085      7075      6785      6795
 -1      5504    1    0    1
 -2      7085      7075      6785      6795      7086      7076      6786      6796
 -1      5505    1    0    1
 -2      7086      7076      6786      6796      7087      7077      6787      6797
 -1      5506    1    0    1
 -2      7087      7077      6787      6797      7088      7078      6788      6798
 -1      5507    1    0    1
 -2      7088      7078      6788      6798      7089      7079      6789      6799
 -1      5508    1    0    1
 -2      7089      7079      6789      6799      7090      7080      6790      6800
 -1      5509    1    0    1
 -2      7090      7080      6790      6800      7091      7081      6791      6801
 -1      5510    1    0    1
 -2      7091      7081      6791      6801      7092      7082      6792      6802
 -1      5511    1    0    1
 -2      7092      7082      6792      6802      2678      2677      2648      2649
 -1      5512    1    0    1
 -2       678       677       648       649      7093      7083      6793      6803
 -1      5513    1    0    1
 -2      7093      7083      6793      6803      7094      7084      6794      6804
 -1      5514    1    0    1
 -2      7094      7084      6794      6804      7095      7085      6795      6805
 -1      5515    1    0    1
 -2      7095      7085      6795      6805      7096      7086      6796      6806
 -1      5516    1    0    1
 -2      7096      7086      6796      6806      7097      7087      6797      6807
 -1      5517    1    0    1
 -2      7097      7087      6797      6807      7098      7088      6798      6808
 -1      5518    1    0    1
 -2      7098      7088      6798      6808      7099      7089      6799      6809
 -1      5519    1    0    1
 -2      7099      7089      6799      6809      7100      7090      6800      6810
 -1      5520    1    0    1
 -2      7100      7090      6800      6810      7101      7091      6801      6811
 -1      5521    1    0    1
 -2      7101      7091      6801      6811      7102      7092      6802      6812
 -1      5522    1    0    1
 -2      7102      7092      6802      6812      2679      2678      2649      2650
 -1      5523    1    0    1
 -2       679       678       649       650      7103      7093      6803      6813
 -1      5524    1    0    1
 -2      7103      7093      6803      6813      7104      7094      6804      6814
 -1      5525    1    0    1
 -2      7104      7094      6804      6814      7105      7095      6805      6815
 -1      5526    1    0    1
 -2      7105      7095      6805      6815      7106      7096      6806      6816
 -1      5527    1    0    1
 -2      7106      7096      6806      6816      7107      7097      6807      6817
 -1      5528    1    0    1
 -2      7107      7097      6807      6817      7108      7098      6808      6818
 -1      5529    1    0    1
 -2      7108      7098      6808      6818      7109      7099      6809      6819
 -1      5530    1    0    1
 -2      7109      7099      6809      6819      7110      7100      6810      6820
 -1      5531    1    0    1
 -2      7110      7100      6810      6820      7111      7101      6811      6821
 -1      5532    1    0    1
 -2      7111      7101      6811      6821      7112      7102      6812      6822
 -1      5533    1    0    1
 -2      7112      7102      6812      6822      2680      2679      2650      2651
 -1      5534    1    0    1
 -2       680       679       650       651      7113      7103      6813      6823
 -1      5535    1    0    1
 -2      7113      7103      6813      6823      7114      7104      6814      6824
 -1      5536    1    0    1
 -2      7114      7104      6814      6824      7115      7105      6815      6825
 -1      5537    1    0    1
 -2      7115      7105      6815      6825      7116      7106      6816      6826
 -1      5538    1    0    1
 -2      7116      7106      6816      6826      7117      7107      6817      6827
 -1      5539    1    0    1
 -2      7117      7107      6817      6827      7118      7108      6818      6828
 -1      5540    1    0    1
 -2      7118      7108      6818      6828      7119      7109      6819      6829
 -1      5541    1    0    1
 -2      7119      7109      6819      6829      7120      7110      6820      6830
 -1      5542    1    0    1
 -2      7120      7110      6820      6830      7121      7111      6821      6831
 -1      5543    1    0    1
 -2      7121      7111      6821      6831      7122      7112      6822      6832
 -1      5544    1    0    1
 -2      7122      7112      6822      6832      2681      2680      2651      2652
 -1      5545    1    0    1
 -2       681       680       651       652      7123      7113      6823      6833
 -1      5546    1    0    1
 -2      7123      7113      6823      6833      7124      7114      6824      6834
 -1      5547    1    0    1
 -2      7124      7114      6824      6834      7125      7115      6825      6835
 -1      5548    1    0    1
 -2      7125      7115      6825      6835      7126      7116      6826      6836
 -1      5549    1    0    1
 -2      7126      7116      6826      6836      7127      7117      6827      6837
 -1      5550    1    0    1
 -2      7127      7117      6827      6837      7128      7118      6828      6838
 -1      5551    1    0    1
 -2      7128      7118      6828      6838      7129      7119      6829      6839
 -1      5552    1    0    1
 -2      7129      7119      6829      6839      7130      7120      6830      6840
 -1      5553    1    0    1
 -2      7130      7120      6830      6840      7131      7121      6831      6841
 -1      5554    1    0    1
 -2      7131      7121      6831      6841      7132      7122      6832      6842
 -1      5555    1    0    1
 -2      7132      7122      6832      6842      2682      2681      2652      2653
 -1      5556    1    0    1
 -2       682       681       652       653      7133      7123      6833      6843
 -1      5557    1    0    1
 -2      7133      7123      6833      6843      7134      7124      6834      6844
 -1      5558    1    0    1
 -2      7134      7124      6834      6844      7135      7125      6835      6845
 -1      5559    1    0    1
 -2      7135      7125      6835      6845      7136      7126      6836      6846
 -1      5560    1    0    1
 -2      7136      7126      6836      6846      7137      7127      6837      6847
 -1      5561    1    0    1
 -2      7137      7127      6837      6847      7138      7128      6838      6848
 -1      5562    1    0    1
 -2      7138      7128      6838      6848      7139      7129      6839      6849
 -1      5563    1    0    1
 -2      7139      7129      6839      6849      7140      7130      6840      6850
 -1      5564    1    0    1
 -2      7140      7130      6840      6850      7141      7131      6841      6851
 -1      5565    1    0    1
 -2      7141      7131      6841      6851      7142      7132      6842      6852
 -1      5566    1    0    1
 -2      7142      7132      6842      6852      2683      2682      2653      2654
 -1      5567    1    0    1
 -2       683       682       653       654      7143      7133      6843      6853
 -1      5568    1    0    1
 -2      7143      7133      6843      6853      7144      7134      6844      6854
 -1      5569    1    0    1
 -2      7144      7134      6844      6854      7145      7135      6845      6855
 -1      5570    1    0    1
 -2      7145      7135      6845      6855      7146      7136      6846      6856
 -1      5571    1    0    1
 -2      7146      7136      6846      6856      7147      7137      6847      6857
 -1      5572    1    0    1
 -2      7147      7137      6847      6857      7148      7138      6848      6858
 -1      5573    1    0    1
 -2      7148      7138      6848      6858      7149      7139      6849      6859
 -1      5574    1    0    1
 -2      7149      7139      6849      6859      7150      7140      6850      6860
 -1      5575    1    0    1
 -2      7150      7140      6850      6860      7151      7141      6851      6861
 -1      5576    1    0    1
 -2      7151      7141      6851      6861      7152      7142      6852      6862
 -1      5577    1    0    1
 -2      7152      7142      6852      6862      2684      2683      2654      2655
 -1      5578    1    0    1
 -2       684       683       654       655      7153      7143      6853      6863
 -1      5579    1    0    1
 -2      7153      7143      6853      6863      7154      7144      6854      6864
 -1      5580    1    0    1
 -2      7154      7144      6854      6864      7155      7145      6855      6865
 -1      5581    1    0    1
 -2      7155      7145      6855      6865      7156      7146      6856      6866
 -1      5582    1    0    1
 -2      7156      7146      6856      6866      7157      7147      6857      6867
 -1      5583    1    0    1
 -2      7157      7147      6857      6867      7158      7148      6858      6868
 -1      5584    1    0    1
 -2      7158      7148      6858      6868      7159      7149      6859      6869
 -1      5585    1    0    1
 -2      7159      7149      6859      6869      7160      7150      6860      6870
 -1      5586    1    0    1
 -2      7160      7150      6860      6870      7161      7151      6861      6871
 -1      5587    1    0    1
 -2      7161      7151      6861      6871      7162      7152      6862      6872
 -1      5588    1    0    1
 -2      7162      7152      6862      6872      2685      2684      2655      2656
 -1      5589    1    0    1
 -2       685       684       655       656      7163      7153      6863      6873
 -1      5590    1    0    1
 -2      7163      7153      6863      6873      7164      7154      6864      6874
 -1      5591    1    0    1
 -2      7164      7154      6864      6874      7165      7155      6865      6875
 -1      5592    1    0    1
 -2      7165      7155      6865      6875      7166      7156      6866      6876
 -1      5593    1    0    1
 -2      7166      7156      6866      6876      7167      7157      6867      6877
 -1      5594    1    0    1
 -2      7167      7157      6867      6877      7168      7158      6868      6878
 -1      5595    1    0    1
 -2      7168      7158      6868      6878      7169      7159      6869      6879
 -1      5596    1    0    1
 -2      7169      7159      6869      6879      7170      7160      6870      6880
 -1      5597    1    0    1
 -2      7170      7160      6870      6880      7171      7161      6871      6881
 -1      5598    1    0    1
 -2      7171      7161      6871      6881      7172      7162      6872      6882
 -1      5599    1    0    1
 -2      7172      7162      6872      6882      2686      2685      2656      2657
 -1      5600    1    0    1
 -2       686       685       656       657      7173      7163      6873      6883
 -1      5601    1    0    1
 -2      7173      7163      6873      6883      7174      7164      6874      6884
 -1      5602    1    0    1
 -2      7174      7164      6874      6884      7175      7165      6875      6885
 -1      5603    1    0    1
 -2      7175      7165      6875      6885      7176      7166      6876      6886
 -1      5604    1    0    1
 -2      7176      7166      6876      6886      7177      7167      6877      6887
 -1      5605    1    0    1
 -2      7177      7167      6877      6887      7178      7168      6878      6888
 -1      5606    1    0    1
 -2      7178      7168      6878      6888      7179      7169      6879      6889
 -1      5607    1    0    1
 -2      7179      7169      6879      6889      7180      7170      6880      6890
 -1      5608    1    0    1
 -2      7180      7170      6880      6890      7181      7171      6881      6891
 -1      5609    1    0    1
 -2      7181      7171      6881      6891      7182      7172      6882      6892
 -1      5610    1    0    1
 -2      7182      7172      6882      6892      2687      2686      2657      2658
 -1      5611    1    0    1
 -2        82       686       657        83      1852      7173      6883      1862
 -1      5612    1    0    1
 -2      1852      7173      6883      1862      1853      7174      6884      1863
 -1      5613    1    0    1
 -2      1853      7174      6884      1863      1854      7175      6885      1864
 -1      5614    1    0    1
 -2      1854      7175      6885      1864      1855      7176      6886      1865
 -1      5615    1    0    1
 -2      1855      7176      6886      1865      1856      7177      6887      1866
 -1      5616    1    0    1
 -2      1856      7177      6887      1866      1857      7178      6888      1867
 -1      5617    1    0    1
 -2      1857      7178      6888      1867      1858      7179      6889      1868
 -1      5618    1    0    1
 -2      1858      7179      6889      1868      1859      7180      6890      1869
 -1      5619    1    0    1
 -2      1859      7180      6890      1869      1860      7181      6891      1870
 -1      5620    1    0    1
 -2      1860      7181      6891      1870      1861      7182      6892      1871
 -1      5621    1    0    1
 -2      1861      7182      6892      1871       198      2687      2658       199
 -1      5622    1    0    1
 -2       687        23        22       658      7183      1262      1252      6893
 -1      5623    1    0    1
 -2      7183      1262      1252      6893      7184      1263      1253      6894
 -1      5624    1    0    1
 -2      7184      1263      1253      6894      7185      1264      1254      6895
 -1      5625    1    0    1
 -2      7185      1264      1254      6895      7186      1265      1255      6896
 -1      5626    1    0    1
 -2      7186      1265      1255      6896      7187      1266      1256      6897
 -1      5627    1    0    1
 -2      7187      1266      1256      6897      7188      1267      1257      6898
 -1      5628    1    0    1
 -2      7188      1267      1257      6898      7189      1268      1258      6899
 -1      5629    1    0    1
 -2      7189      1268      1258      6899      7190      1269      1259      6900
 -1      5630    1    0    1
 -2      7190      1269      1259      6900      7191      1270      1260      6901
 -1      5631    1    0    1
 -2      7191      1270      1260      6901      7192      1271      1261      6902
 -1      5632    1    0    1
 -2      7192      1271      1261      6902      2688       139       138      2659
 -1      5633    1    0    1
 -2       688       687       658       659      7193      7183      6893      6903
 -1      5634    1    0    1
 -2      7193      7183      6893      6903      7194      7184      6894      6904
 -1      5635    1    0    1
 -2      7194      7184      6894      6904      7195      7185      6895      6905
 -1      5636    1    0    1
 -2      7195      7185      6895      6905      7196      7186      6896      6906
 -1      5637    1    0    1
 -2      7196      7186      6896      6906      7197      7187      6897      6907
 -1      5638    1    0    1
 -2      7197      7187      6897      6907      7198      7188      6898      6908
 -1      5639    1    0    1
 -2      7198      7188      6898      6908      7199      7189      6899      6909
 -1      5640    1    0    1
 -2      7199      7189      6899      6909      7200      7190      6900      6910
 -1      5641    1    0    1
 -2      7200      7190      6900      6910      7201      7191      6901      6911
 -1      5642    1    0    1
 -2      7201      7191      6901      6911      7202      7192      6902      6912
 -1      5643    1    0    1
 -2      7202      7192      6902      6912      2689      2688      2659      2660
 -1      5644    1    0    1
 -2       689       688       659       660      7203      7193      6903      6913
 -1      5645    1    0    1
 -2      7203      7193      6903      6913      7204      7194      6904      6914
 -1      5646    1    0    1
 -2      7204      7194      6904      6914      7205      7195      6905      6915
 -1      5647    1    0    1
 -2      7205      7195      6905      6915      7206      7196      6906      6916
 -1      5648    1    0    1
 -2      7206      7196      6906      6916      7207      7197      6907      6917
 -1      5649    1    0    1
 -2      7207      7197      6907      6917      7208      7198      6908      6918
 -1      5650    1    0    1
 -2      7208      7198      6908      6918      7209      7199      6909      6919
 -1      5651    1    0    1
 -2      7209      7199      6909      6919      7210      7200      6910      6920
 -1      5652    1    0    1
 -2      7210      7200      6910      6920      7211      7201      6911      6921
 -1      5653    1    0    1
 -2      7211      7201      6911      6921      7212      7202      6912      6922
 -1      5654    1    0    1
 -2      7212      7202      6912      6922      2690      2689      2660      2661
 -1      5655    1    0    1
 -2       690       689       660       661      7213      7203      6913      6923
 -1      5656    1    0    1
 -2      7213      7203      6913      6923      7214      7204      6914      6924
 -1      5657    1    0    1
 -2      7214      7204      6914      6924      7215      7205      6915      6925
 -1      5658    1    0    1
 -2      7215      7205      6915      6925      7216      7206      6916      6926
 -1      5659    1    0    1
 -2      7216      7206      6916      6926      7217      7207      6917      6927
 -1      5660    1    0    1
 -2      7217      7207      6917      6927      7218      7208      6918      6928
 -1      5661    1    0    1
 -2      7218      7208      6918      6928      7219      7209      6919      6929
 -1      5662    1    0    1
 -2      7219      7209      6919      6929      7220      7210      6920      6930
 -1      5663    1    0    1
 -2      7220      7210      6920      6930      7221      7211      6921      6931
 -1      5664    1    0    1
 -2      7221      7211      6921      6931      7222      7212      6922      6932
 -1      5665    1    0    1
 -2      7222      7212      6922      6932      2691      2690      2661      2662
 -1      5666    1    0    1
 -2       691       690       661       662      7223      7213      6923      6933
 -1      5667    1    0    1
 -2      7223      7213      6923      6933      7224      7214      6924      6934
 -1      5668    1    0    1
 -2      7224      7214      6924      6934      7225      7215      6925      6935
 -1      5669    1    0    1
 -2      7225      7215      6925      6935      7226      7216      6926      6936
 -1      5670    1    0    1
 -2      7226      7216      6926      6936      7227      7217      6927      6937
 -1      5671    1    0    1
 -2      7227      7217      6927      6937      7228      7218      6928      6938
 -1      5672    1    0    1
 -2      7228      7218      6928      6938      7229      7219      6929      6939
 -1      5673    1    0    1
 -2      7229      7219      6929      6939      7230      7220      6930      6940
 -1      5674    1    0    1
 -2      7230      7220      6930      6940      7231      7221      6931      6941
 -1      5675    1    0    1
 -2      7231      7221      6931      6941      7232      7222      6932      6942
 -1      5676    1    0    1
 -2      7232      7222      6932      6942      2692      2691      2662      2663
 -1      5677    1    0    1
 -2       692       691       662       663      7233      7223      6933      6943
 -1      5678    1    0    1
 -2      7233      7223      6933      6943      7234      7224      6934      6944
 -1      5679    1    0    1
 -2      7234      7224      6934      6944      7235      7225      6935      6945
 -1      5680    1    0    1
 -2      7235      7225      6935      6945      7236      7226      6936      6946
 -1      5681    1    0    1
 -2      7236      7226      6936      6946      7237      7227      6937      6947
 -1      5682    1    0    1
 -2      7237      7227      6937      6947      7238      7228      6938      6948
 -1      5683    1    0    1
 -2      7238      7228      6938      6948      7239      7229      6939      6949
 -1      5684    1    0    1
 -2      7239      7229      6939      6949      7240      7230      6940      6950
 -1      5685    1    0    1
 -2      7240      7230      6940      6950      7241      7231      6941      6951
 -1      5686    1    0    1
 -2      7241      7231      6941      6951      7242      7232      6942      6952
 -1      5687    1    0    1
 -2      7242      7232      6942      6952      2693      2692      2663      2664
 -1      5688    1    0    1
 -2       693       692       663       664      7243      7233      6943      6953
 -1      5689    1    0    1
 -2      7243      7233      6943      6953      7244      7234      6944      6954
 -1      5690    1    0    1
 -2      7244      7234      6944      6954      7245      7235      6945      6955
 -1      5691    1    0    1
 -2      7245      7235      6945      6955      7246      7236      6946      6956
 -1      5692    1    0    1
 -2      7246      7236      6946      6956      7247      7237      6947      6957
 -1      5693    1    0    1
 -2      7247      7237      6947      6957      7248      7238      6948      6958
 -1      5694    1    0    1
 -2      7248      7238      6948      6958      7249      7239      6949      6959
 -1      5695    1    0    1
 -2      7249      7239      6949      6959      7250      7240      6950      6960
 -1      5696    1    0    1
 -2      7250      7240      6950      6960      7251      7241      6951      6961
 -1      5697    1    0    1
 -2      7251      7241      6951      6961      7252      7242      6952      6962
 -1      5698    1    0    1
 -2      7252      7242      6952      6962      2694      2693      2664      2665
 -1      5699    1    0    1
 -2       694       693       664       665      7253      7243      6953      6963
 -1      5700    1    0    1
 -2      7253      7243      6953      6963      7254      7244      6954      6964
 -1      5701    1    0    1
 -2      7254      7244      6954      6964      7255      7245      6955      6965
 -1      5702    1    0    1
 -2      7255      7245      6955      6965      7256      7246      6956      6966
 -1      5703    1    0    1
 -2      7256      7246      6956      6966      7257      7247      6957      6967
 -1      5704    1    0    1
 -2      7257      7247      6957      6967      7258      7248      6958      6968
 -1      5705    1    0    1
 -2      7258      7248      6958      6968      7259      7249      6959      6969
 -1      5706    1    0    1
 -2      7259      7249      6959      6969      7260      7250      6960      6970
 -1      5707    1    0    1
 -2      7260      7250      6960      6970      7261      7251      6961      6971
 -1      5708    1    0    1
 -2      7261      7251      6961      6971      7262      7252      6962      6972
 -1      5709    1    0    1
 -2      7262      7252      6962      6972      2695      2694      2665      2666
 -1      5710    1    0    1
 -2       695       694       665       666      7263      7253      6963      6973
 -1      5711    1    0    1
 -2      7263      7253      6963      6973      7264      7254      6964      6974
 -1      5712    1    0    1
 -2      7264      7254      6964      6974      7265      7255      6965      6975
 -1      5713    1    0    1
 -2      7265      7255      6965      6975      7266      7256      6966      6976
 -1      5714    1    0    1
 -2      7266      7256      6966      6976      7267      7257      6967      6977
 -1      5715    1    0    1
 -2      7267      7257      6967      6977      7268      7258      6968      6978
 -1      5716    1    0    1
 -2      7268      7258      6968      6978      7269      7259      6969      6979
 -1      5717    1    0    1
 -2      7269      7259      6969      6979      7270      7260      6970      6980
 -1      5718    1    0    1
 -2      7270      7260      6970      6980      7271      7261      6971      6981
 -1      5719    1    0    1
 -2      7271      7261      6971      6981      7272      7262      6972      6982
 -1      5720    1    0    1
 -2      7272      7262      6972      6982      2696      2695      2666      2667
 -1      5721    1    0    1
 -2       696       695       666       667      7273      7263      6973      6983
 -1      5722    1    0    1
 -2      7273      7263      6973      6983      7274      7264      6974      6984
 -1      5723    1    0    1
 -2      7274      7264      6974      6984      7275      7265      6975      6985
 -1      5724    1    0    1
 -2      7275      7265      6975      6985      7276      7266      6976      6986
 -1      5725    1    0    1
 -2      7276      7266      6976      6986      7277      7267      6977      6987
 -1      5726    1    0    1
 -2      7277      7267      6977      6987      7278      7268      6978      6988
 -1      5727    1    0    1
 -2      7278      7268      6978      6988      7279      7269      6979      6989
 -1      5728    1    0    1
 -2      7279      7269      6979      6989      7280      7270      6980      6990
 -1      5729    1    0    1
 -2      7280      7270      6980      6990      7281      7271      6981      6991
 -1      5730    1    0    1
 -2      7281      7271      6981      6991      7282      7272      6982      6992
 -1      5731    1    0    1
 -2      7282      7272      6982      6992      2697      2696      2667      2668
 -1      5732    1    0    1
 -2       697       696       667       668      7283      7273      6983      6993
 -1      5733    1    0    1
 -2      7283      7273      6983      6993      7284      7274      6984      6994
 -1      5734    1    0    1
 -2      7284      7274      6984      6994      7285      7275      6985      6995
 -1      5735    1    0    1
 -2      7285      7275      6985      6995      7286      7276      6986      6996
 -1      5736    1    0    1
 -2      7286      7276      6986      6996      7287      7277      6987      6997
 -1      5737    1    0    1
 -2      7287      7277      6987      6997      7288      7278      6988      6998
 -1      5738    1    0    1
 -2      7288      7278      6988      6998      7289      7279      6989      6999
 -1      5739    1    0    1
 -2      7289      7279      6989      6999      7290      7280      6990      7000
 -1      5740    1    0    1
 -2      7290      7280      6990      7000      7291      7281      6991      7001
 -1      5741    1    0    1
 -2      7291      7281      6991      7001      7292      7282      6992      7002
 -1      5742    1    0    1
 -2      7292      7282      6992      7002      2698      2697      2668      2669
 -1      5743    1    0    1
 -2       698       697       668       669      7293      7283      6993      7003
 -1      5744    1    0    1
 -2      7293      7283      6993      7003      7294      7284      6994      7004
 -1      5745    1    0    1
 -2      7294      7284      6994      7004      7295      7285      6995      7005
 -1      5746    1    0    1
 -2      7295      7285      6995      7005      7296      7286      6996      7006
 -1      5747    1    0    1
 -2      7296      7286      6996      7006      7297      7287      6997      7007
 -1      5748    1    0    1
 -2      7297      7287      6997      7007      7298      7288      6998      7008
 -1      5749    1    0    1
 -2      7298      7288      6998      7008      7299      7289      6999      7009
 -1      5750    1    0    1
 -2      7299      7289      6999      7009      7300      7290      7000      7010
 -1      5751    1    0    1
 -2      7300      7290      7000      7010      7301      7291      7001      7011
 -1      5752    1    0    1
 -2      7301      7291      7001      7011      7302      7292      7002      7012
 -1      5753    1    0    1
 -2      7302      7292      7002      7012      2699      2698      2669      2670
 -1      5754    1    0    1
 -2       699       698       669       670      7303      7293      7003      7013
 -1      5755    1    0    1
 -2      7303      7293      7003      7013      7304      7294      7004      7014
 -1      5756    1    0    1
 -2      7304      7294      7004      7014      7305      7295      7005      7015
 -1      5757    1    0    1
 -2      7305      7295      7005      7015      7306      7296      7006      7016
 -1      5758    1    0    1
 -2      7306      7296      7006      7016      7307      7297      7007      7017
 -1      5759    1    0    1
 -2      7307      7297      7007      7017      7308      7298      7008      7018
 -1      5760    1    0    1
 -2      7308      7298      7008      7018      7309      7299      7009      7019
 -1      5761    1    0    1
 -2      7309      7299      7009      7019      7310      7300      7010      7020
 -1      5762    1    0    1
 -2      7310      7300      7010      7020      7311      7301      7011      7021
 -1      5763    1    0    1
 -2      7311      7301      7011      7021      7312      7302      7012      7022
 -1      5764    1    0    1
 -2      7312      7302      7012      7022      2700      2699      2670      2671
 -1      5765    1    0    1
 -2       700       699       670       671      7313      7303      7013      7023
 -1      5766    1    0    1
 -2      7313      7303      7013      7023      7314      7304      7014      7024
 -1      5767    1    0    1
 -2      7314      7304      7014      7024      7315      7305      7015      7025
 -1      5768    1    0    1
 -2      7315      7305      7015      7025      7316      7306      7016      7026
 -1      5769    1    0    1
 -2      7316      7306      7016      7026      7317      7307      7017      7027
 -1      5770    1    0    1
 -2      7317      7307      7017      7027      7318      7308      7018      7028
 -1      5771    1    0    1
 -2      7318      7308      7018      7028      7319      7309      7019      7029
 -1      5772    1    0    1
 -2      7319      7309      7019      7029      7320      7310      7020      7030
 -1      5773    1    0    1
 -2      7320      7310      7020      7030      7321      7311      7021      7031
 -1      5774    1    0    1
 -2      7321      7311      7021      7031      7322      7312      7022      7032
 -1      5775    1    0    1
 -2      7322      7312      7022      7032      2701      2700      2671      2672
 -1      5776    1    0    1
 -2       701       700       671       672      7323      7313      7023      7033
 -1      5777    1    0    1
 -2      7323      7313      7023      7033      7324      7314      7024      7034
 -1      5778    1    0    1
 -2      7324      7314      7024      7034      7325      7315      7025      7035
 -1      5779    1    0    1
 -2      7325      7315      7025      7035      7326      7316      7026      7036
 -1      5780    1    0    1
 -2      7326      7316      7026      7036      7327      7317      7027      7037
 -1      5781    1    0    1
 -2      7327      7317      7027      7037      7328      7318      7028      7038
 -1      5782    1    0    1
 -2      7328      7318      7028      7038      7329      7319      7029      7039
 -1      5783    1    0    1
 -2      7329      7319      7029      7039      7330      7320      7030      7040
 -1      5784    1    0    1
 -2      7330      7320      7030      7040      7331      7321      7031      7041
 -1      5785    1    0    1
 -2      7331      7321      7031      7041      7332      7322      7032      7042
 -1      5786    1    0    1
 -2      7332      7322      7032      7042      2702      2701      2672      2673
 -1      5787    1    0    1
 -2       702       701       672       673      7333      7323      7033      7043
 -1      5788    1    0    1
 -2      7333      7323      7033      7043      7334      7324      7034      7044
 -1      5789    1    0    1
 -2      7334      7324      7034      7044      7335      7325      7035      7045
 -1      5790    1    0    1
 -2      7335      7325      7035      7045      7336      7326      7036      7046
 -1      5791    1    0    1
 -2      7336      7326      7036      7046      7337      7327      7037      7047
 -1      5792    1    0    1
 -2      7337      7327      7037      7047      7338      7328      7038      7048
 -1      5793    1    0    1
 -2      7338      7328      7038      7048      7339      7329      7039      7049
 -1      5794    1    0    1
 -2      7339      7329      7039      7049      7340      7330      7040      7050
 -1      5795    1    0    1
 -2      7340      7330      7040      7050      7341      7331      7041      7051
 -1      5796    1    0    1
 -2      7341      7331      7041      7051      7342      7332      7042      7052
 -1      5797    1    0    1
 -2      7342      7332      7042      7052      2703      2702      2673      2674
 -1      5798    1    0    1
 -2       703       702       673       674      7343      7333      7043      7053
 -1      5799    1    0    1
 -2      7343      7333      7043      7053      7344      7334      7044      7054
 -1      5800    1    0    1
 -2      7344      7334      7044      7054      7345      7335      7045      7055
 -1      5801    1    0    1
 -2      7345      7335      7045      7055      7346      7336      7046      7056
 -1      5802    1    0    1
 -2      7346      7336      7046      7056      7347      7337      7047      7057
 -1      5803    1    0    1
 -2      7347      7337      7047      7057      7348      7338      7048      7058
 -1      5804    1    0    1
 -2      7348      7338      7048      7058      7349      7339      7049      7059
 -1      5805    1    0    1
 -2      7349      7339      7049      7059      7350      7340      7050      7060
 -1      5806    1    0    1
 -2      7350      7340      7050      7060      7351      7341      7051      7061
 -1      5807    1    0    1
 -2      7351      7341      7051      7061      7352      7342      7052      7062
 -1      5808    1    0    1
 -2      7352      7342      7052      7062      2704      2703      2674      2675
 -1      5809    1    0    1
 -2       704       703       674       675      7353      7343      7053      7063
 -1      5810    1    0    1
 -2      7353      7343      7053      7063      7354      7344      7054      7064
 -1      5811    1    0    1
 -2      7354      7344      7054      7064      7355      7345      7055      7065
 -1      5812    1    0    1
 -2      7355      7345      7055      7065      7356      7346      7056      7066
 -1      5813    1    0    1
 -2      7356      7346      7056      7066      7357      7347      7057      7067
 -1      5814    1    0    1
 -2      7357      7347      7057      7067      7358      7348      7058      7068
 -1      5815    1    0    1
 -2      7358      7348      7058      7068      7359      7349      7059      7069
 -1      5816    1    0    1
 -2      7359      7349      7059      7069      7360      7350      7060      7070
 -1      5817    1    0    1
 -2      7360      7350      7060      7070      7361      7351      7061      7071
 -1      5818    1    0    1
 -2      7361      7351      7061      7071      7362      7352      7062      7072
 -1      5819    1    0    1
 -2      7362      7352      7062      7072      2705      2704      2675      2676
 -1      5820    1    0    1
 -2       705       704       675       676      7363      7353      7063      7073
 -1      5821    1    0    1
 -2      7363      7353      7063      7073      7364      7354      7064      7074
 -1      5822    1    0    1
 -2      7364      7354      7064      7074      7365      7355      7065      7075
 -1      5823    1    0    1
 -2      7365      7355      7065      7075      7366      7356      7066      7076
 -1      5824    1    0    1
 -2      7366      7356      7066      7076      7367      7357      7067      7077
 -1      5825    1    0    1
 -2      7367      7357      7067      7077      7368      7358      7068      7078
 -1      5826    1    0    1
 -2      7368      7358      7068      7078      7369      7359      7069      7079
 -1      5827    1    0    1
 -2      7369      7359      7069      7079      7370      7360      7070      7080
 -1      5828    1    0    1
 -2      7370      7360      7070      7080      7371      7361      7071      7081
 -1      5829    1    0    1
 -2      7371      7361      7071      7081      7372      7362      7072      7082
 -1      5830    1    0    1
 -2      7372      7362      7072      7082      2706      2705      2676      2677
 -1      5831    1    0    1
 -2       706       705       676       677      7373      7363      7073      7083
 -1      5832    1    0    1
 -2      7373      7363      7073      7083      7374      7364      7074      7084
 -1      5833    1    0    1
 -2      7374      7364      7074      7084      7375      7365      7075      7085
 -1      5834    1    0    1
 -2      7375      7365      7075      7085      7376      7366      7076      7086
 -1      5835    1    0    1
 -2      7376      7366      7076      7086      7377      7367      7077      7087
 -1      5836    1    0    1
 -2      7377      7367      7077      7087      7378      7368      7078      7088
 -1      5837    1    0    1
 -2      7378      7368      7078      7088      7379      7369      7079      7089
 -1      5838    1    0    1
 -2      7379      7369      7079      7089      7380      7370      7080      7090
 -1      5839    1    0    1
 -2      7380      7370      7080      7090      7381      7371      7081      7091
 -1      5840    1    0    1
 -2      7381      7371      7081      7091      7382      7372      7082      7092
 -1      5841    1    0    1
 -2      7382      7372      7082      7092      2707      2706      2677      2678
 -1      5842    1    0    1
 -2       707       706       677       678      7383      7373      7083      7093
 -1      5843    1    0    1
 -2      7383      7373      7083      7093      7384      7374      7084      7094
 -1      5844    1    0    1
 -2      7384      7374      7084      7094      7385      7375      7085      7095
 -1      5845    1    0    1
 -2      7385      7375      7085      7095      7386      7376      7086      7096
 -1      5846    1    0    1
 -2      7386      7376      7086      7096      7387      7377      7087      7097
 -1      5847    1    0    1
 -2      7387      7377      7087      7097      7388      7378      7088      7098
 -1      5848    1    0    1
 -2      7388      7378      7088      7098      7389      7379      7089      7099
 -1      5849    1    0    1
 -2      7389      7379      7089      7099      7390      7380      7090      7100
 -1      5850    1    0    1
 -2      7390      7380      7090      7100      7391      7381      7091      7101
 -1      5851    1    0    1
 -2      7391      7381      7091      7101      7392      7382      7092      7102
 -1      5852    1    0    1
 -2      7392      7382      7092      7102      2708      2707      2678      2679
 -1      5853    1    0    1
 -2       708       707       678       679      7393      7383      7093      7103
 -1      5854    1    0    1
 -2      7393      7383      7093      7103      7394      7384      7094      7104
 -1      5855    1    0    1
 -2      7394      7384      7094      7104      7395      7385      7095      7105
 -1      5856    1    0    1
 -2      7395      7385      7095      7105      7396      7386      7096      7106
 -1      5857    1    0    1
 -2      7396      7386      7096      7106      7397      7387      7097      7107
 -1      5858    1    0    1
 -2      7397      7387      7097      7107      7398      7388      7098      7108
 -1      5859    1    0    1
 -2      7398      7388      7098      7108      7399      7389      7099      7109
 -1      5860    1    0    1
 -2      7399      7389      7099      7109      7400      7390      7100      7110
 -1      5861    1    0    1
 -2      7400      7390      7100      7110      7401      7391      7101      7111
 -1      5862    1    0    1
 -2      7401      7391      7101      7111      7402      7392      7102      7112
 -1      5863    1    0    1
 -2      7402      7392      7102      7112      2709      2708      2679      2680
 -1      5864    1    0    1
 -2       709       708       679       680      7403      7393      7103      7113
 -1      5865    1    0    1
 -2      7403      7393      7103      7113      7404      7394      7104      7114
 -1      5866    1    0    1
 -2      7404      7394      7104      7114      7405      7395      7105      7115
 -1      5867    1    0    1
 -2      7405      7395      7105      7115      7406      7396      7106      7116
 -1      5868    1    0    1
 -2      7406      7396      7106      7116      7407      7397      7107      7117
 -1      5869    1    0    1
 -2      7407      7397      7107      7117      7408      7398      7108      7118
 -1      5870    1    0    1
 -2      7408      7398      7108      7118      7409      7399      7109      7119
 -1      5871    1    0    1
 -2      7409      7399      7109      7119      7410      7400      7110      7120
 -1      5872    1    0    1
 -2      7410      7400      7110      7120      7411      7401      7111      7121
 -1      5873    1    0    1
 -2      7411      7401      7111      7121      7412      7402      7112      7122
 -1      5874    1    0    1
 -2      7412      7402      7112      7122      2710      2709      2680      2681
 -1      5875    1    0    1
 -2       710       709       680       681      7413      7403      7113      7123
 -1      5876    1    0    1
 -2      7413      7403      7113      7123      7414      7404      7114      7124
 -1      5877    1    0    1
 -2      7414      7404      7114      7124      7415      7405      7115      7125
 -1      5878    1    0    1
 -2      7415      7405      7115      7125      7416      7406      7116      7126
 -1      5879    1    0    1
 -2      7416      7406      7116      7126      7417      7407      7117      7127
 -1      5880    1    0    1
 -2      7417      7407      7117      7127      7418      7408      7118      7128
 -1      5881    1    0    1
 -2      7418      7408      7118      7128      7419      7409      7119      7129
 -1      5882    1    0    1
 -2      7419      7409      7119      7129      7420      7410      7120      7130
 -1      5883    1    0    1
 -2      7420      7410      7120      7130      7421      7411      7121      7131
 -1      5884    1    0    1
 -2      7421      7411      7121      7131      7422      7412      7122      7132
 -1      5885    1    0    1
 -2      7422      7412      7122      7132      2711      2710      2681      2682
 -1      5886    1    0    1
 -2       711       710       681       682      7423      7413      7123      7133
 -1      5887    1    0    1
 -2      7423      7413      7123      7133      7424      7414      7124      7134
 -1      5888    1    0    1
 -2      7424      7414      7124      7134      7425      7415      7125      7135
 -1      5889    1    0    1
 -2      7425      7415      7125      7135      7426      7416      7126      7136
 -1      5890    1    0    1
 -2      7426      7416      7126      7136      7427      7417      7127      7137
 -1      5891    1    0    1
 -2      7427      7417      7127      7137      7428      7418      7128      7138
 -1      5892    1    0    1
 -2      7428      7418      7128      7138      7429      7419      7129      7139
 -1      5893    1    0    1
 -2      7429      7419      7129      7139      7430      7420      7130      7140
 -1      5894    1    0    1
 -2      7430      7420      7130      7140      7431      7421      7131      7141
 -1      5895    1    0    1
 -2      7431      7421      7131      7141      7432      7422      7132      7142
 -1      5896    1    0    1
 -2      7432      7422      7132      7142      2712      2711      2682      2683
 -1      5897    1    0    1
 -2       712       711       682       683      7433      7423      7133      7143
 -1      5898    1    0    1
 -2      7433      7423      7133      7143      7434      7424      7134      7144
 -1      5899    1    0    1
 -2      7434      7424      7134      7144      7435      7425      7135      7145
 -1      5900    1    0    1
 -2      7435      7425      7135      7145      7436      7426      7136      7146
 -1      5901    1    0    1
 -2      7436      7426      7136      7146      7437      7427      7137      7147
 -1      5902    1    0    1
 -2      7437      7427      7137      7147      7438      7428      7138      7148
 -1      5903    1    0    1
 -2      7438      7428      7138      7148      7439      7429      7139      7149
 -1      5904    1    0    1
 -2      7439      7429      7139      7149      7440      7430      7140      7150
 -1      5905    1    0    1
 -2      7440      7430      7140      7150      7441      7431      7141      7151
 -1      5906    1    0    1
 -2      7441      7431      7141      7151      7442      7432      7142      7152
 -1      5907    1    0    1
 -2      7442      7432      7142      7152      2713      2712      2683      2684
 -1      5908    1    0    1
 -2       713       712       683       684      7443      7433      7143      7153
 -1      5909    1    0    1
 -2      7443      7433      7143      7153      7444      7434      7144      7154
 -1      5910    1    0    1
 -2      7444      7434      7144      7154      7445      7435      7145      7155
 -1      5911    1    0    1
 -2      7445      7435      7145      7155      7446      7436      7146      7156
 -1      5912    1    0    1
 -2      7446      7436      7146      7156      7447      7437      7147      7157
 -1      5913    1    0    1
 -2      7447      7437      7147      7157      7448      7438      7148      7158
 -1      5914    1    0    1
 -2      7448      7438      7148      7158      7449      7439      7149      7159
 -1      5915    1    0    1
 -2      7449      7439      7149      7159      7450      7440      7150      7160
 -1      5916    1    0    1
 -2      7450      7440      7150      7160      7451      7441      7151      7161
 -1      5917    1    0    1
 -2      7451      7441      7151      7161      7452      7442      7152      7162
 -1      5918    1    0    1
 -2      7452      7442      7152      7162      2714      2713      2684      2685
 -1      5919    1    0    1
 -2       714       713       684       685      7453      7443      7153      7163
 -1      5920    1    0    1
 -2      7453      7443      7153      7163      7454      7444      7154      7164
 -1      5921    1    0    1
 -2      7454      7444      7154      7164      7455      7445      7155      7165
 -1      5922    1    0    1
 -2      7455      7445      7155      7165      7456      7446      7156      7166
 -1      5923    1    0    1
 -2      7456      7446      7156      7166      7457      7447      7157      7167
 -1      5924    1    0    1
 -2      7457      7447      7157      7167      7458      7448      7158      7168
 -1      5925    1    0    1
 -2      7458      7448      7158      7168      7459      7449      7159      7169
 -1      5926    1    0    1
 -2      7459      7449      7159      7169      7460      7450      7160      7170
 -1      5927    1    0    1
 -2      7460      7450      7160      7170      7461      7451      7161      7171
 -1      5928    1    0    1
 -2      7461      7451      7161      7171      7462      7452      7162      7172
 -1      5929    1    0    1
 -2      7462      7452      7162      7172      2715      2714      2685      2686
 -1      5930    1    0    1
 -2       715       714       685       686      7463      7453      7163      7173
 -1      5931    1    0    1
 -2      7463      7453      7163      7173      7464      7454      7164      7174
 -1      5932    1    0    1
 -2      7464      7454      7164      7174      7465      7455      7165      7175
 -1      5933    1    0    1
 -2      7465      7455      7165      7175      7466      7456      7166      7176
 -1      5934    1    0    1
 -2      7466      7456      7166      7176      7467      7457      7167      7177
 -1      5935    1    0    1
 -2      7467      7457      7167      7177      7468      7458      7168      7178
 -1      5936    1    0    1
 -2      7468      7458      7168      7178      7469      7459      7169      7179
 -1      5937    1    0    1
 -2      7469      7459      7169      7179      7470      7460      7170      7180
 -1      5938    1    0    1
 -2      7470      7460      7170      7180      7471      7461      7171      7181
 -1      5939    1    0    1
 -2      7471      7461      7171      7181      7472      7462      7172      7182
 -1      5940    1    0    1
 -2      7472      7462      7172      7182      2716      2715      2686      2687
 -1      5941    1    0    1
 -2        81       715       686        82      1842      7463      7173      1852
 -1      5942    1    0    1
 -2      1842      7463      7173      1852      1843      7464      7174      1853
 -1      5943    1    0    1
 -2      1843      7464      7174      1853      1844      7465      7175      1854
 -1      5944    1    0    1
 -2      1844      7465      7175      1854      1845      7466      7176      1855
 -1      5945    1    0    1
 -2      1845      7466      7176      1855      1846      7467      7177      1856
 -1      5946    1    0    1
 -2      1846      7467      7177      1856      1847      7468      7178      1857
 -1      5947    1    0    1
 -2      1847      7468      7178      1857      1848      7469      7179      1858
 -1      5948    1    0    1
 -2      1848      7469      7179      1858      1849      7470      7180      1859
 -1      5949    1    0    1
 -2      1849      7470      7180      1859      1850      7471      7181      1860
 -1      5950    1    0    1
 -2      1850      7471      7181      1860      1851      7472      7182      1861
 -1      5951    1    0    1
 -2      1851      7472      7182      1861       197      2716      2687       198
 -1      5952    1    0    1
 -2       716        24        23       687      7473      1272      1262      7183
 -1      5953    1    0    1
 -2      7473      1272      1262      7183      7474      1273      1263      7184
 -1      5954    1    0    1
 -2      7474      1273      1263      7184      7475      1274      1264      7185
 -1      5955    1    0    1
 -2      7475      1274      1264      7185      7476      1275      1265      7186
 -1      5956    1    0    1
 -2      7476      1275      1265      7186      7477      1276      1266      7187
 -1      5957    1    0    1
 -2      7477      1276      1266      7187      7478      1277      1267      7188
 -1      5958    1    0    1
 -2      7478      1277      1267      7188      7479      1278      1268      7189
 -1      5959    1    0    1
 -2      7479      1278      1268      7189      7480      1279      1269      7190
 -1      5960    1    0    1
 -2      7480      1279      1269      7190      7481      1280      1270      7191
 -1      5961    1    0    1
 -2      7481      1280      1270      7191      7482      1281      1271      7192
 -1      5962    1    0    1
 -2      7482      1281      1271      7192      2717       140       139      2688
 -1      5963    1    0    1
 -2       717       716       687       688      7483      7473      7183      7193
 -1      5964    1    0    1
 -2      7483      7473      7183      7193      7484      7474      7184      7194
 -1      5965    1    0    1
 -2      7484      7474      7184      7194      7485      7475      7185      7195
 -1      5966    1    0    1
 -2      7485      7475      7185      7195      7486      7476      7186      7196
 -1      5967    1    0    1
 -2      7486      7476      7186      7196      7487      7477      7187      7197
 -1      5968    1    0    1
 -2      7487      7477      7187      7197      7488      7478      7188      7198
 -1      5969    1    0    1
 -2      7488      7478      7188      7198      7489      7479      7189      7199
 -1      5970    1    0    1
 -2      7489      7479      7189      7199      7490      7480      7190      7200
 -1      5971    1    0    1
 -2      7490      7480      7190      7200      7491      7481      7191      7201
 -1      5972    1    0    1
 -2      7491      7481      7191      7201      7492      7482      7192      7202
 -1      5973    1    0    1
 -2      7492      7482      7192      7202      2718      2717      2688      2689
 -1      5974    1    0    1
 -2       718       717       688       689      7493      7483      7193      7203
 -1      5975    1    0    1
 -2      7493      7483      7193      7203      7494      7484      7194      7204
 -1      5976    1    0    1
 -2      7494      7484      7194      7204      7495      7485      7195      7205
 -1      5977    1    0    1
 -2      7495      7485      7195      7205      7496      7486      7196      7206
 -1      5978    1    0    1
 -2      7496      7486      7196      7206      7497      7487      7197      7207
 -1      5979    1    0    1
 -2      7497      7487      7197      7207      7498      7488      7198      7208
 -1      5980    1    0    1
 -2      7498      7488      7198      7208      7499      7489      7199      7209
 -1      5981    1    0    1
 -2      7499      7489      7199      7209      7500      7490      7200      7210
 -1      5982    1    0    1
 -2      7500      7490      7200      7210      7501      7491      7201      7211
 -1      5983    1    0    1
 -2      7501      7491      7201      7211      7502      7492      7202      7212
 -1      5984    1    0    1
 -2      7502      7492      7202      7212      2719      2718      2689      2690
 -1      5985    1    0    1
 -2       719       718       689       690      7503      7493      7203      7213
 -1      5986    1    0    1
 -2      7503      7493      7203      7213      7504      7494      7204      7214
 -1      5987    1    0    1
 -2      7504      7494      7204      7214      7505      7495      7205      7215
 -1      5988    1    0    1
 -2      7505      7495      7205      7215      7506      7496      7206      7216
 -1      5989    1    0    1
 -2      7506      7496      7206      7216      7507      7497      7207      7217
 -1      5990    1    0    1
 -2      7507      7497      7207      7217      7508      7498      7208      7218
 -1      5991    1    0    1
 -2      7508      7498      7208      7218      7509      7499      7209      7219
 -1      5992    1    0    1
 -2      7509      7499      7209      7219      7510      7500      7210      7220
 -1      5993    1    0    1
 -2      7510      7500      7210      7220      7511      7501      7211      7221
 -1      5994    1    0    1
 -2      7511      7501      7211      7221      7512      7502      7212      7222
 -1      5995    1    0    1
 -2      7512      7502      7212      7222      2720      2719      2690      2691
 -1      5996    1    0    1
 -2       720       719       690       691      7513      7503      7213      7223
 -1      5997    1    0    1
 -2      7513      7503      7213      7223      7514      7504      7214      7224
 -1      5998    1    0    1
 -2      7514      7504      7214      7224      7515      7505      7215      7225
 -1      5999    1    0    1
 -2      7515      7505      7215      7225      7516      7506      7216      7226
 -1      6000    1    0    1
 -2      7516      7506      7216      7226      7517      7507      7217      7227
 -1      6001    1    0    1
 -2      7517      7507      7217      7227      7518      7508      7218      7228
 -1      6002    1    0    1
 -2      7518      7508      7218      7228      7519      7509      7219      7229
 -1      6003    1    0    1
 -2      7519      7509      7219      7229      7520      7510      7220      7230
 -1      6004    1    0    1
 -2      7520      7510      7220      7230      7521      7511      7221      7231
 -1      6005    1    0    1
 -2      7521      7511      7221      7231      7522      7512      7222      7232
 -1      6006    1    0    1
 -2      7522      7512      7222      7232      2721      2720      2691      2692
 -1      6007    1    0    1
 -2       721       720       691       692      7523      7513      7223      7233
 -1      6008    1    0    1
 -2      7523      7513      7223      7233      7524      7514      7224      7234
 -1      6009    1    0    1
 -2      7524      7514      7224      7234      7525      7515      7225      7235
 -1      6010    1    0    1
 -2      7525      7515      7225      7235      7526      7516      7226      7236
 -1      6011    1    0    1
 -2      7526      7516      7226      7236      7527      7517      7227      7237
 -1      6012    1    0    1
 -2      7527      7517      7227      7237      7528      7518      7228      7238
 -1      6013    1    0    1
 -2      7528      7518      7228      7238      7529      7519      7229      7239
 -1      6014    1    0    1
 -2      7529      7519      7229      7239      7530      7520      7230      7240
 -1      6015    1    0    1
 -2      7530      7520      7230      7240      7531      7521      7231      7241
 -1      6016    1    0    1
 -2      7531      7521      7231      7241      7532      7522      7232      7242
 -1      6017    1    0    1
 -2      7532      7522      7232      7242      2722      2721      2692      2693
 -1      6018    1    0    1
 -2       722       721       692       693      7533      7523      7233      7243
 -1      6019    1    0    1
 -2      7533      7523      7233      7243      7534      7524      7234      7244
 -1      6020    1    0    1
 -2      7534      7524      7234      7244      7535      7525      7235      7245
 -1      6021    1    0    1
 -2      7535      7525      7235      7245      7536      7526      7236      7246
 -1      6022    1    0    1
 -2      7536      7526      7236      7246      7537      7527      7237      7247
 -1      6023    1    0    1
 -2      7537      7527      7237      7247      7538      7528      7238      7248
 -1      6024    1    0    1
 -2      7538      7528      7238      7248      7539      7529      7239      7249
 -1      6025    1    0    1
 -2      7539      7529      7239      7249      7540      7530      7240      7250
 -1      6026    1    0    1
 -2      7540      7530      7240      7250      7541      7531      7241      7251
 -1      6027    1    0    1
 -2      7541      7531      7241      7251      7542      7532      7242      7252
 -1      6028    1    0    1
 -2      7542      7532      7242      7252      2723      2722      2693      2694
 -1      6029    1    0    1
 -2       723       722       693       694      7543      7533      7243      7253
 -1      6030    1    0    1
 -2      7543      7533      7243      7253      7544      7534      7244      7254
 -1      6031    1    0    1
 -2      7544      7534      7244      7254      7545      7535      7245      7255
 -1      6032    1    0    1
 -2      7545      7535      7245      7255      7546      7536      7246      7256
 -1      6033    1    0    1
 -2      7546      7536      7246      7256      7547      7537      7247      7257
 -1      6034    1    0    1
 -2      7547      7537      7247      7257      7548      7538      7248      7258
 -1      6035    1    0    1
 -2      7548      7538      7248      7258      7549      7539      7249      7259
 -1      6036    1    0    1
 -2      7549      7539      7249      7259      7550      7540      7250      7260
 -1      6037    1    0    1
 -2      7550      7540      7250      7260      7551      7541      7251      7261
 -1      6038    1    0    1
 -2      7551      7541      7251      7261      7552      7542      7252      7262
 -1      6039    1    0    1
 -2      7552      7542      7252      7262      2724      2723      2694      2695
 -1      6040    1    0    1
 -2       724       723       694       695      7553      7543      7253      7263
 -1      6041    1    0    1
 -2      7553      7543      7253      7263      7554      7544      7254      7264
 -1      6042    1    0    1
 -2      7554      7544      7254      7264      7555      7545      7255      7265
 -1      6043    1    0    1
 -2      7555      7545      7255      7265      7556      7546      7256      7266
 -1      6044    1    0    1
 -2      7556      7546      7256      7266      7557      7547      7257      7267
 -1      6045    1    0    1
 -2      7557      7547      7257      7267      7558      7548      7258      7268
 -1      6046    1    0    1
 -2      7558      7548      7258      7268      7559      7549      7259      7269
 -1      6047    1    0    1
 -2      7559      7549      7259      7269      7560      7550      7260      7270
 -1      6048    1    0    1
 -2      7560      7550      7260      7270      7561      7551      7261      7271
 -1      6049    1    0    1
 -2      7561      7551      7261      7271      7562      7552      7262      7272
 -1      6050    1    0    1
 -2      7562      7552      7262      7272      2725      2724      2695      2696
 -1      6051    1    0    1
 -2       725       724       695       696      7563      7553      7263      7273
 -1      6052    1    0    1
 -2      7563      7553      7263      7273      7564      7554      7264      7274
 -1      6053    1    0    1
 -2      7564      7554      7264      7274      7565      7555      7265      7275
 -1      6054    1    0    1
 -2      7565      7555      7265      7275      7566      7556      7266      7276
 -1      6055    1    0    1
 -2      7566      7556      7266      7276      7567      7557      7267      7277
 -1      6056    1    0    1
 -2      7567      7557      7267      7277      7568      7558      7268      7278
 -1      6057    1    0    1
 -2      7568      7558      7268      7278      7569      7559      7269      7279
 -1      6058    1    0    1
 -2      7569      7559      7269      7279      7570      7560      7270      7280
 -1      6059    1    0    1
 -2      7570      7560      7270      7280      7571      7561      7271      7281
 -1      6060    1    0    1
 -2      7571      7561      7271      7281      7572      7562      7272      7282
 -1      6061    1    0    1
 -2      7572      7562      7272      7282      2726      2725      2696      2697
 -1      6062    1    0    1
 -2       726       725       696       697      7573      7563      7273      7283
 -1      6063    1    0    1
 -2      7573      7563      7273      7283      7574      7564      7274      7284
 -1      6064    1    0    1
 -2      7574      7564      7274      7284      7575      7565      7275      7285
 -1      6065    1    0    1
 -2      7575      7565      7275      7285      7576      7566      7276      7286
 -1      6066    1    0    1
 -2      7576      7566      7276      7286      7577      7567      7277      7287
 -1      6067    1    0    1
 -2      7577      7567      7277      7287      7578      7568      7278      7288
 -1      6068    1    0    1
 -2      7578      7568      7278      7288      7579      7569      7279      7289
 -1      6069    1    0    1
 -2      7579      7569      7279      7289      7580      7570      7280      7290
 -1      6070    1    0    1
 -2      7580      7570      7280      7290      7581      7571      7281      7291
 -1      6071    1    0    1
 -2      7581      7571      7281      7291      7582      7572      7282      7292
 -1      6072    1    0    1
 -2      7582      7572      7282      7292      2727      2726      2697      2698
 -1      6073    1    0    1
 -2       727       726       697       698      7583      7573      7283      7293
 -1      6074    1    0    1
 -2      7583      7573      7283      7293      7584      7574      7284      7294
 -1      6075    1    0    1
 -2      7584      7574      7284      7294      7585      7575      7285      7295
 -1      6076    1    0    1
 -2      7585      7575      7285      7295      7586      7576      7286      7296
 -1      6077    1    0    1
 -2      7586      7576      7286      7296      7587      7577      7287      7297
 -1      6078    1    0    1
 -2      7587      7577      7287      7297      7588      7578      7288      7298
 -1      6079    1    0    1
 -2      7588      7578      7288      7298      7589      7579      7289      7299
 -1      6080    1    0    1
 -2      7589      7579      7289      7299      7590      7580      7290      7300
 -1      6081    1    0    1
 -2      7590      7580      7290      7300      7591      7581      7291      7301
 -1      6082    1    0    1
 -2      7591      7581      7291      7301      7592      7582      7292      7302
 -1      6083    1    0    1
 -2      7592      7582      7292      7302      2728      2727      2698      2699
 -1      6084    1    0    1
 -2       728       727       698       699      7593      7583      7293      7303
 -1      6085    1    0    1
 -2      7593      7583      7293      7303      7594      7584      7294      7304
 -1      6086    1    0    1
 -2      7594      7584      7294      7304      7595      7585      7295      7305
 -1      6087    1    0    1
 -2      7595      7585      7295      7305      7596      7586      7296      7306
 -1      6088    1    0    1
 -2      7596      7586      7296      7306      7597      7587      7297      7307
 -1      6089    1    0    1
 -2      7597      7587      7297      7307      7598      7588      7298      7308
 -1      6090    1    0    1
 -2      7598      7588      7298      7308      7599      7589      7299      7309
 -1      6091    1    0    1
 -2      7599      7589      7299      7309      7600      7590      7300      7310
 -1      6092    1    0    1
 -2      7600      7590      7300      7310      7601      7591      7301      7311
 -1      6093    1    0    1
 -2      7601      7591      7301      7311      7602      7592      7302      7312
 -1      6094    1    0    1
 -2      7602      7592      7302      7312      2729      2728      2699      2700
 -1      6095    1    0    1
 -2       729       728       699       700      7603      7593      7303      7313
 -1      6096    1    0    1
 -2      7603      7593      7303      7313      7604      7594      7304      7314
 -1      6097    1    0    1
 -2      7604      7594      7304      7314      7605      7595      7305      7315
 -1      6098    1    0    1
 -2      7605      7595      7305      7315      7606      7596      7306      7316
 -1      6099    1    0    1
 -2      7606      7596      7306      7316      7607      7597      7307      7317
 -1      6100    1    0    1
 -2      7607      7597      7307      7317      7608      7598      7308      7318
 -1      6101    1    0    1
 -2      7608      7598      7308      7318      7609      7599      7309      7319
 -1      6102    1    0    1
 -2      7609      7599      7309      7319      7610      7600      7310      7320
 -1      6103    1    0    1
 -2      7610      7600      7310      7320      7611      7601      7311      7321
 -1      6104    1    0    1
 -2      7611      7601      7311      7321      7612      7602      7312      7322
 -1      6105    1    0    1
 -2      7612      7602      7312      7322      2730      2729      2700      2701
 -1      6106    1    0    1
 -2       730       729       700       701      7613      7603      7313      7323
 -1      6107    1    0    1
 -2      7613      7603      7313      7323      7614      7604      7314      7324
 -1      6108    1    0    1
 -2      7614      7604      7314      7324      7615      7605      7315      7325
 -1      6109    1    0    1
 -2      7615      7605      7315      7325      7616      7606      7316      7326
 -1      6110    1    0    1
 -2      7616      7606      7316      7326      7617      7607      7317      7327
 -1      6111    1    0    1
 -2      7617      7607      7317      7327      7618      7608      7318      7328
 -1      6112    1    0    1
 -2      7618      7608      7318      7328      7619      7609      7319      7329
 -1      6113    1    0    1
 -2      7619      7609      7319      7329      7620      7610      7320      7330
 -1      6114    1    0    1
 -2      7620      7610      7320      7330      7621      7611      7321      7331
 -1      6115    1    0    1
 -2      7621      7611      7321      7331      7622      7612      7322      7332
 -1      6116    1    0    1
 -2      7622      7612      7322      7332      2731      2730      2701      2702
 -1      6117    1    0    1
 -2       731       730       701       702      7623      7613      7323      7333
 -1      6118    1    0    1
 -2      7623      7613      7323      7333      7624      7614      7324      7334
 -1      6119    1    0    1
 -2      7624      7614      7324      7334      7625      7615      7325      7335
 -1      6120    1    0    1
 -2      7625      7615      7325      7335      7626      7616      7326      7336
 -1      6121    1    0    1
 -2      7626      7616      7326      7336      7627      7617      7327      7337
 -1      6122    1    0    1
 -2      7627      7617      7327      7337      7628      7618      7328      7338
 -1      6123    1    0    1
 -2      7628      7618      7328      7338      7629      7619      7329      7339
 -1      6124    1    0    1
 -2      7629      7619      7329      7339      7630      7620      7330      7340
 -1      6125    1    0    1
 -2      7630      7620      7330      7340      7631      7621      7331      7341
 -1      6126    1    0    1
 -2      7631      7621      7331      7341      7632      7622      7332      7342
 -1      6127    1    0    1
 -2      7632      7622      7332      7342      2732      2731      2702      2703
 -1      6128    1    0    1
 -2       732       731       702       703      7633      7623      7333      7343
 -1      6129    1    0    1
 -2      7633      7623      7333      7343      7634      7624      7334      7344
 -1      6130    1    0    1
 -2      7634      7624      7334      7344      7635      7625      7335      7345
 -1      6131    1    0    1
 -2      7635      7625      7335      7345      7636      7626      7336      7346
 -1      6132    1    0    1
 -2      7636      7626      7336      7346      7637      7627      7337      7347
 -1      6133    1    0    1
 -2      7637      7627      7337      7347      7638      7628      7338      7348
 -1      6134    1    0    1
 -2      7638      7628      7338      7348      7639      7629      7339      7349
 -1      6135    1    0    1
 -2      7639      7629      7339      7349      7640      7630      7340      7350
 -1      6136    1    0    1
 -2      7640      7630      7340      7350      7641      7631      7341      7351
 -1      6137    1    0    1
 -2      7641      7631      7341      7351      7642      7632      7342      7352
 -1      6138    1    0    1
 -2      7642      7632      7342      7352      2733      2732      2703      2704
 -1      6139    1    0    1
 -2       733       732       703       704      7643      7633      7343      7353
 -1      6140    1    0    1
 -2      7643      7633      7343      7353      7644      7634      7344      7354
 -1      6141    1    0    1
 -2      7644      7634      7344      7354      7645      7635      7345      7355
 -1      6142    1    0    1
 -2      7645      7635      7345      7355      7646      7636      7346      7356
 -1      6143    1    0    1
 -2      7646      7636      7346      7356      7647      7637      7347      7357
 -1      6144    1    0    1
 -2      7647      7637      7347      7357      7648      7638      7348      7358
 -1      6145    1    0    1
 -2      7648      7638      7348      7358      7649      7639      7349      7359
 -1      6146    1    0    1
 -2      7649      7639      7349      7359      7650      7640      7350      7360
 -1      6147    1    0    1
 -2      7650      7640      7350      7360      7651      7641      7351      7361
 -1      6148    1    0    1
 -2      7651      7641      7351      7361      7652      7642      7352      7362
 -1      6149    1    0    1
 -2      7652      7642      7352      7362      2734      2733      2704      2705
 -1      6150    1    0    1
 -2       734       733       704       705      7653      7643      7353      7363
 -1      6151    1    0    1
 -2      7653      7643      7353      7363      7654      7644      7354      7364
 -1      6152    1    0    1
 -2      7654      7644      7354      7364      7655      7645      7355      7365
 -1      6153    1    0    1
 -2      7655      7645      7355      7365      7656      7646      7356      7366
 -1      6154    1    0    1
 -2      7656      7646      7356      7366      7657      7647      7357      7367
 -1      6155    1    0    1
 -2      7657      7647      7357      7367      7658      7648      7358      7368
 -1      6156    1    0    1
 -2      7658      7648      7358      7368      7659      7649      7359      7369
 -1      6157    1    0    1
 -2      7659      7649      7359      7369      7660      7650      7360      7370
 -1      6158    1    0    1
 -2      7660      7650      7360      7370      7661      7651      7361      7371
 -1      6159    1    0    1
 -2      7661      7651      7361      7371      7662      7652      7362      7372
 -1      6160    1    0    1
 -2      7662      7652      7362      7372      2735      2734      2705      2706
 -1      6161    1    0    1
 -2       735       734       705       706      7663      7653      7363      7373
 -1      6162    1    0    1
 -2      7663      7653      7363      7373      7664      7654      7364      7374
 -1      6163    1    0    1
 -2      7664      7654      7364      7374      7665      7655      7365      7375
 -1      6164    1    0    1
 -2      7665      7655      7365      7375      7666      7656      7366      7376
 -1      6165    1    0    1
 -2      7666      7656      7366      7376      7667      7657      7367      7377
 -1      6166    1    0    1
 -2      7667      7657      7367      7377      7668      7658      7368      7378
 -1      6167    1    0    1
 -2      7668      7658      7368      7378      7669      7659      7369      7379
 -1      6168    1    0    1
 -2      7669      7659      7369      7379      7670      7660      7370      7380
 -1      6169    1    0    1
 -2      7670      7660      7370      7380      7671      7661      7371      7381
 -1      6170    1    0    1
 -2      7671      7661      7371      7381      7672      7662      7372      7382
 -1      6171    1    0    1
 -2      7672      7662      7372      7382      2736      2735      2706      2707
 -1      6172    1    0    1
 -2       736       735       706       707      7673      7663      7373      7383
 -1      6173    1    0    1
 -2      7673      7663      7373      7383      7674      7664      7374      7384
 -1      6174    1    0    1
 -2      7674      7664      7374      7384      7675      7665      7375      7385
 -1      6175    1    0    1
 -2      7675      7665      7375      7385      7676      7666      7376      7386
 -1      6176    1    0    1
 -2      7676      7666      7376      7386      7677      7667      7377      7387
 -1      6177    1    0    1
 -2      7677      7667      7377      7387      7678      7668      7378      7388
 -1      6178    1    0    1
 -2      7678      7668      7378      7388      7679      7669      7379      7389
 -1      6179    1    0    1
 -2      7679      7669      7379      7389      7680      7670      7380      7390
 -1      6180    1    0    1
 -2      7680      7670      7380      7390      7681      7671      7381      7391
 -1      6181    1    0    1
 -2      7681      7671      7381      7391      7682      7672      7382      7392
 -1      6182    1    0    1
 -2      7682      7672      7382      7392      2737      2736      2707      2708
 -1      6183    1    0    1
 -2       737       736       707       708      7683      7673      7383      7393
 -1      6184    1    0    1
 -2      7683      7673      7383      7393      7684      7674      7384      7394
 -1      6185    1    0    1
 -2      7684      7674      7384      7394      7685      7675      7385      7395
 -1      6186    1    0    1
 -2      7685      7675      7385      7395      7686      7676      7386      7396
 -1      6187    1    0    1
 -2      7686      7676      7386      7396      7687      7677      7387      7397
 -1      6188    1    0    1
 -2      7687      7677      7387      7397      7688      7678      7388      7398
 -1      6189    1    0    1
 -2      7688      7678      7388      7398      7689      7679      7389      7399
 -1      6190    1    0    1
 -2      7689      7679      7389      7399      7690      7680      7390      7400
 -1      6191    1    0    1
 -2      7690      7680      7390      7400      7691      7681      7391      7401
 -1      6192    1    0    1
 -2      7691      7681      7391      7401      7692      7682      7392      7402
 -1      6193    1    0    1
 -2      7692      7682      7392      7402      2738      2737      2708      2709
 -1      6194    1    0    1
 -2       738       737       708       709      7693      7683      7393      7403
 -1      6195    1    0    1
 -2      7693      7683      7393      7403      7694      7684      7394      7404
 -1      6196    1    0    1
 -2      7694      7684      7394      7404      7695      7685      7395      7405
 -1      6197    1    0    1
 -2      7695      7685      7395      7405      7696      7686      7396      7406
 -1      6198    1    0    1
 -2      7696      7686      7396      7406      7697      7687      7397      7407
 -1      6199    1    0    1
 -2      7697      7687      7397      7407      7698      7688      7398      7408
 -1      6200    1    0    1
 -2      7698      7688      7398      7408      7699      7689      7399      7409
 -1      6201    1    0    1
 -2      7699      7689      7399      7409      7700      7690      7400      7410
 -1      6202    1    0    1
 -2      7700      7690      7400      7410      7701      7691      7401      7411
 -1      6203    1    0    1
 -2      7701      7691      7401      7411      7702      7692      7402      7412
 -1      6204    1    0    1
 -2      7702      7692      7402      7412      2739      2738      2709      2710
 -1      6205    1    0    1
 -2       739       738       709       710      7703      7693      7403      7413
 -1      6206    1    0    1
 -2      7703      7693      7403      7413      7704      7694      7404      7414
 -1      6207    1    0    1
 -2      7704      7694      7404      7414      7705      7695      7405      7415
 -1      6208    1    0    1
 -2      7705      7695      7405      7415      7706      7696      7406      7416
 -1      6209    1    0    1
 -2      7706      7696      7406      7416      7707      7697      7407      7417
 -1      6210    1    0    1
 -2      7707      7697      7407      7417      7708      7698      7408      7418
 -1      6211    1    0    1
 -2      7708      7698      7408      7418      7709      7699      7409      7419
 -1      6212    1    0    1
 -2      7709      7699      7409      7419      7710      7700      7410      7420
 -1      6213    1    0    1
 -2      7710      7700      7410      7420      7711      7701      7411      7421
 -1      6214    1    0    1
 -2      7711      7701      7411      7421      7712      7702      7412      7422
 -1      6215    1    0    1
 -2      7712      7702      7412      7422      2740      2739      2710      2711
 -1      6216    1    0    1
 -2       740       739       710       711      7713      7703      7413      7423
 -1      6217    1    0    1
 -2      7713      7703      7413      7423      7714      7704      7414      7424
 -1      6218    1    0    1
 -2      7714      7704      7414      7424      7715      7705      7415      7425
 -1      6219    1    0    1
 -2      7715      7705      7415      7425      7716      7706      7416      7426
 -1      6220    1    0    1
 -2      7716      7706      7416      7426      7717      7707      7417      7427
 -1      6221    1    0    1
 -2      7717      7707      7417      7427      7718      7708      7418      7428
 -1      6222    1    0    1
 -2      7718      7708      7418      7428      7719      7709      7419      7429
 -1      6223    1    0    1
 -2      7719      7709      7419      7429      7720      7710      7420      7430
 -1      6224    1    0    1
 -2      7720      7710      7420      7430      7721      7711      7421      7431
 -1      6225    1    0    1
 -2      7721      7711      7421      7431      7722      7712      7422      7432
 -1      6226    1    0    1
 -2      7722      7712      7422      7432      2741      2740      2711      2712
 -1      6227    1    0    1
 -2       741       740       711       712      7723      7713      7423      7433
 -1      6228    1    0    1
 -2      7723      7713      7423      7433      7724      7714      7424      7434
 -1      6229    1    0    1
 -2      7724      7714      7424      7434      7725      7715      7425      7435
 -1      6230    1    0    1
 -2      7725      7715      7425      7435      7726      7716      7426      7436
 -1      6231    1    0    1
 -2      7726      7716      7426      7436      7727      7717      7427      7437
 -1      6232    1    0    1
 -2      7727      7717      7427      7437      7728      7718      7428      7438
 -1      6233    1    0    1
 -2      7728      7718      7428      7438      7729      7719      7429      7439
 -1      6234    1    0    1
 -2      7729      7719      7429      7439      7730      7720      7430      7440
 -1      6235    1    0    1
 -2      7730      7720      7430      7440      7731      7721      7431      7441
 -1      6236    1    0    1
 -2      7731      7721      7431      7441      7732      7722      7432      7442
 -1      6237    1    0    1
 -2      7732      7722      7432      7442      2742      2741      2712      2713
 -1      6238    1    0    1
 -2       742       741       712       713      7733      7723      7433      7443
 -1      6239    1    0    1
 -2      7733      7723      7433      7443      7734      7724      7434      7444
 -1      6240    1    0    1
 -2      7734      7724      7434      7444      7735      7725      7435      7445
 -1      6241    1    0    1
 -2      7735      7725      7435      7445      7736      7726      7436      7446
 -1      6242    1    0    1
 -2      7736      7726      7436      7446      7737      7727      7437      7447
 -1      6243    1    0    1
 -2      7737      7727      7437      7447      7738      7728      7438      7448
 -1      6244    1    0    1
 -2      7738      7728      7438      7448      7739      7729      7439      7449
 -1      6245    1    0    1
 -2      7739      7729      7439      7449      7740      7730      7440      7450
 -1      6246    1    0    1
 -2      7740      7730      7440      7450      7741      7731      7441      7451
 -1      6247    1    0    1
 -2      7741      7731      7441      7451      7742      7732      7442      7452
 -1      6248    1    0    1
 -2      7742      7732      7442      7452      2743      2742      2713      2714
 -1      6249    1    0    1
 -2       743       742       713       714      7743      7733      7443      7453
 -1      6250    1    0    1
 -2      7743      7733      7443      7453      7744      7734      7444      7454
 -1      6251    1    0    1
 -2      7744      7734      7444      7454      7745      7735      7445      7455
 -1      6252    1    0    1
 -2      7745      7735      7445      7455      7746      7736      7446      7456
 -1      6253    1    0    1
 -2      7746      7736      7446      7456      7747      7737      7447      7457
 -1      6254    1    0    1
 -2      7747      7737      7447      7457      7748      7738      7448      7458
 -1      6255    1    0    1
 -2      7748      7738      7448      7458      7749      7739      7449      7459
 -1      6256    1    0    1
 -2      7749      7739      7449      7459      7750      7740      7450      7460
 -1      6257    1    0    1
 -2      7750      7740      7450      7460      7751      7741      7451      7461
 -1      6258    1    0    1
 -2      7751      7741      7451      7461      7752      7742      7452      7462
 -1      6259    1    0    1
 -2      7752      7742      7452      7462      2744      2743      2714      2715
 -1      6260    1    0    1
 -2       744       743       714       715      7753      7743      7453      7463
 -1      6261    1    0    1
 -2      7753      7743      7453      7463      7754      7744      7454      7464
 -1      6262    1    0    1
 -2      7754      7744      7454      7464      7755      7745      7455      7465
 -1      6263    1    0    1
 -2      7755      7745      7455      7465      7756      7746      7456      7466
 -1      6264    1    0    1
 -2      7756      7746      7456      7466      7757      7747      7457      7467
 -1      6265    1    0    1
 -2      7757      7747      7457      7467      7758      7748      7458      7468
 -1      6266    1    0    1
 -2      7758      7748      7458      7468      7759      7749      7459      7469
 -1      6267    1    0    1
 -2      7759      7749      7459      7469      7760      7750      7460      7470
 -1      6268    1    0    1
 -2      7760      7750      7460      7470      7761      7751      7461      7471
 -1      6269    1    0    1
 -2      7761      7751      7461      7471      7762      7752      7462      7472
 -1      6270    1    0    1
 -2      7762      7752      7462      7472      2745      2744      2715      2716
 -1      6271    1    0    1
 -2        80       744       715        81      1832      7753      7463      1842
 -1      6272    1    0    1
 -2      1832      7753      7463      1842      1833      7754      7464      1843
 -1      6273    1    0    1
 -2      1833      7754      7464      1843      1834      7755      7465      1844
 -1      6274    1    0    1
 -2      1834      7755      7465      1844      1835      7756      7466      1845
 -1      6275    1    0    1
 -2      1835      7756      7466      1845      1836      7757      7467      1846
 -1      6276    1    0    1
 -2      1836      7757      7467      1846      1837      7758      7468      1847
 -1      6277    1    0    1
 -2      1837      7758      7468      1847      1838      7759      7469      1848
 -1      6278    1    0    1
 -2      1838      7759      7469      1848      1839      7760      7470      1849
 -1      6279    1    0    1
 -2      1839      7760      7470      1849      1840      7761      7471      1850
 -1      6280    1    0    1
 -2      1840      7761      7471      1850      1841      7762      7472      1851
 -1      6281    1    0    1
 -2      1841      7762      7472      1851       196      2745      2716       197
 -1      6282    1    0    1
 -2       745        25        24       716      7763      1282      1272      7473
 -1      6283    1    0    1
 -2      7763      1282      1272      7473      7764      1283      1273      7474
 -1      6284    1    0    1
 -2      7764      1283      1273      7474      7765      1284      1274      7475
 -1      6285    1    0    1
 -2      7765      1284      1274      7475      7766      1285      1275      7476
 -1      6286    1    0    1
 -2      7766      1285      1275      7476      7767      1286      1276      7477
 -1      6287    1    0    1
 -2      7767      1286      1276      7477      7768      1287      1277      7478
 -1      6288    1    0    1
 -2      7768      1287      1277      7478      7769      1288      1278      7479
 -1      6289    1    0    1
 -2      7769      1288      1278      7479      7770      1289      1279      7480
 -1      6290    1    0    1
 -2      7770      1289      1279      7480      7771      1290      1280      7481
 -1      6291    1    0    1
 -2      7771      1290      1280      7481      7772      1291      1281      7482
 -1      6292    1    0    1
 -2      7772      1291      1281      7482      2746       141       140      2717
 -1      6293    1    0    1
 -2       746       745       716       717      7773      7763      7473      7483
 -1      6294    1    0    1
 -2      7773      7763      7473      7483      7774      7764      7474      7484
 -1      6295    1    0    1
 -2      7774      7764      7474      7484      7775      7765      7475      7485
 -1      6296    1    0    1
 -2      7775      7765      7475      7485      7776      7766      7476      7486
 -1      6297    1    0    1
 -2      7776      7766      7476      7486      7777      7767      7477      7487
 -1      6298    1    0    1
 -2      7777      7767      7477      7487      7778      7768      7478      7488
 -1      6299    1    0    1
 -2      7778      7768      7478      7488      7779      7769      7479      7489
 -1      6300    1    0    1
 -2      7779      7769      7479      7489      7780      7770      7480      7490
 -1      6301    1    0    1
 -2      7780      7770      7480      7490      7781      7771      7481      7491
 -1      6302    1    0    1
 -2      7781      7771      7481      7491      7782      7772      7482      7492
 -1      6303    1    0    1
 -2      7782      7772      7482      7492      2747      2746      2717      2718
 -1      6304    1    0    1
 -2       747       746       717       718      7783      7773      7483      7493
 -1      6305    1    0    1
 -2      7783      7773      7483      7493      7784      7774      7484      7494
 -1      6306    1    0    1
 -2      7784      7774      7484      7494      7785      7775      7485      7495
 -1      6307    1    0    1
 -2      7785      7775      7485      7495      7786      7776      7486      7496
 -1      6308    1    0    1
 -2      7786      7776      7486      7496      7787      7777      7487      7497
 -1      6309    1    0    1
 -2      7787      7777      7487      7497      7788      7778      7488      7498
 -1      6310    1    0    1
 -2      7788      7778      7488      7498      7789      7779      7489      7499
 -1      6311    1    0    1
 -2      7789      7779      7489      7499      7790      7780      7490      7500
 -1      6312    1    0    1
 -2      7790      7780      7490      7500      7791      7781      7491      7501
 -1      6313    1    0    1
 -2      7791      7781      7491      7501      7792      7782      7492      7502
 -1      6314    1    0    1
 -2      7792      7782      7492      7502      2748      2747      2718      2719
 -1      6315    1    0    1
 -2       748       747       718       719      7793      7783      7493      7503
 -1      6316    1    0    1
 -2      7793      7783      7493      7503      7794      7784      7494      7504
 -1      6317    1    0    1
 -2      7794      7784      7494      7504      7795      7785      7495      7505
 -1      6318    1    0    1
 -2      7795      7785      7495      7505      7796      7786      7496      7506
 -1      6319    1    0    1
 -2      7796      7786      7496      7506      7797      7787      7497      7507
 -1      6320    1    0    1
 -2      7797      7787      7497      7507      7798      7788      7498      7508
 -1      6321    1    0    1
 -2      7798      7788      7498      7508      7799      7789      7499      7509
 -1      6322    1    0    1
 -2      7799      7789      7499      7509      7800      7790      7500      7510
 -1      6323    1    0    1
 -2      7800      7790      7500      7510      7801      7791      7501      7511
 -1      6324    1    0    1
 -2      7801      7791      7501      7511      7802      7792      7502      7512
 -1      6325    1    0    1
 -2      7802      7792      7502      7512      2749      2748      2719      2720
 -1      6326    1    0    1
 -2       749       748       719       720      7803      7793      7503      7513
 -1      6327    1    0    1
 -2      7803      7793      7503      7513      7804      7794      7504      7514
 -1      6328    1    0    1
 -2      7804      7794      7504      7514      7805      7795      7505      7515
 -1      6329    1    0    1
 -2      7805      7795      7505      7515      7806      7796      7506      7516
 -1      6330    1    0    1
 -2      7806      7796      7506      7516      7807      7797      7507      7517
 -1      6331    1    0    1
 -2      7807      7797      7507      7517      7808      7798      7508      7518
 -1      6332    1    0    1
 -2      7808      7798      7508      7518      7809      7799      7509      7519
 -1      6333    1    0    1
 -2      7809      7799      7509      7519      7810      7800      7510      7520
 -1      6334    1    0    1
 -2      7810      7800      7510      7520      7811      7801      7511      7521
 -1      6335    1    0    1
 -2      7811      7801      7511      7521      7812      7802      7512      7522
 -1      6336    1    0    1
 -2      7812      7802      7512      7522      2750      2749      2720      2721
 -1      6337    1    0    1
 -2       750       749       720       721      7813      7803      7513      7523
 -1      6338    1    0    1
 -2      7813      7803      7513      7523      7814      7804      7514      7524
 -1      6339    1    0    1
 -2      7814      7804      7514      7524      7815      7805      7515      7525
 -1      6340    1    0    1
 -2      7815      7805      7515      7525      7816      7806      7516      7526
 -1      6341    1    0    1
 -2      7816      7806      7516      7526      7817      7807      7517      7527
 -1      6342    1    0    1
 -2      7817      7807      7517      7527      7818      7808      7518      7528
 -1      6343    1    0    1
 -2      7818      7808      7518      7528      7819      7809      7519      7529
 -1      6344    1    0    1
 -2      7819      7809      7519      7529      7820      7810      7520      7530
 -1      6345    1    0    1
 -2      7820      7810      7520      7530      7821      7811      7521      7531
 -1      6346    1    0    1
 -2      7821      7811      7521      7531      7822      7812      7522      7532
 -1      6347    1    0    1
 -2      7822      7812      7522      7532      2751      2750      2721      2722
 -1      6348    1    0    1
 -2       751       750       721       722      7823      7813      7523      7533
 -1      6349    1    0    1
 -2      7823      7813      7523      7533      7824      7814      7524      7534
 -1      6350    1    0    1
 -2      7824      7814      7524      7534      7825      7815      7525      7535
 -1      6351    1    0    1
 -2      7825      7815      7525      7535      7826      7816      7526      7536
 -1      6352    1    0    1
 -2      7826      7816      7526      7536      7827      7817      7527      7537
 -1      6353    1    0    1
 -2      7827      7817      7527      7537      7828      7818      7528      7538
 -1      6354    1    0    1
 -2      7828      7818      7528      7538      7829      7819      7529      7539
 -1      6355    1    0    1
 -2      7829      7819      7529      7539      7830      7820      7530      7540
 -1      6356    1    0    1
 -2      7830      7820      7530      7540      7831      7821      7531      7541
 -1      6357    1    0    1
 -2      7831      7821      7531      7541      7832      7822      7532      7542
 -1      6358    1    0    1
 -2      7832      7822      7532      7542      2752      2751      2722      2723
 -1      6359    1    0    1
 -2       752       751       722       723      7833      7823      7533      7543
 -1      6360    1    0    1
 -2      7833      7823      7533      7543      7834      7824      7534      7544
 -1      6361    1    0    1
 -2      7834      7824      7534      7544      7835      7825      7535      7545
 -1      6362    1    0    1
 -2      7835      7825      7535      7545      7836      7826      7536      7546
 -1      6363    1    0    1
 -2      7836      7826      7536      7546      7837      7827      7537      7547
 -1      6364    1    0    1
 -2      7837      7827      7537      7547      7838      7828      7538      7548
 -1      6365    1    0    1
 -2      7838      7828      7538      7548      7839      7829      7539      7549
 -1      6366    1    0    1
 -2      7839      7829      7539      7549      7840      7830      7540      7550
 -1      6367    1    0    1
 -2      7840      7830      7540      7550      7841      7831      7541      7551
 -1      6368    1    0    1
 -2      7841      7831      7541      7551      7842      7832      7542      7552
 -1      6369    1    0    1
 -2      7842      7832      7542      7552      2753      2752      2723      2724
 -1      6370    1    0    1
 -2       753       752       723       724      7843      7833      7543      7553
 -1      6371    1    0    1
 -2      7843      7833      7543      7553      7844      7834      7544      7554
 -1      6372    1    0    1
 -2      7844      7834      7544      7554      7845      7835      7545      7555
 -1      6373    1    0    1
 -2      7845      7835      7545      7555      7846      7836      7546      7556
 -1      6374    1    0    1
 -2      7846      7836      7546      7556      7847      7837      7547      7557
 -1      6375    1    0    1
 -2      7847      7837      7547      7557      7848      7838      7548      7558
 -1      6376    1    0    1
 -2      7848      7838      7548      7558      7849      7839      7549      7559
 -1      6377    1    0    1
 -2      7849      7839      7549      7559      7850      7840      7550      7560
 -1      6378    1    0    1
 -2      7850      7840      7550      7560      7851      7841      7551      7561
 -1      6379    1    0    1
 -2      7851      7841      7551      7561      7852      7842      7552      7562
 -1      6380    1    0    1
 -2      7852      7842      7552      7562      2754      2753      2724      2725
 -1      6381    1    0    1
 -2       754       753       724       725      7853      7843      7553      7563
 -1      6382    1    0    1
 -2      7853      7843      7553      7563      7854      7844      7554      7564
 -1      6383    1    0    1
 -2      7854      7844      7554      7564      7855      7845      7555      7565
 -1      6384    1    0    1
 -2      7855      7845      7555      7565      7856      7846      7556      7566
 -1      6385    1    0    1
 -2      7856      7846      7556      7566      7857      7847      7557      7567
 -1      6386    1    0    1
 -2      7857      7847      7557      7567      7858      7848      7558      7568
 -1      6387    1    0    1
 -2      7858      7848      7558      7568      7859      7849      7559      7569
 -1      6388    1    0    1
 -2      7859      7849      7559      7569      7860      7850      7560      7570
 -1      6389    1    0    1
 -2      7860      7850      7560      7570      7861      7851      7561      7571
 -1      6390    1    0    1
 -2      7861      7851      7561      7571      7862      7852      7562      7572
 -1      6391    1    0    1
 -2      7862      7852      7562      7572      2755      2754      2725      2726
 -1      6392    1    0    1
 -2       755       754       725       726      7863      7853      7563      7573
 -1      6393    1    0    1
 -2      7863      7853      7563      7573      7864      7854      7564      7574
 -1      6394    1    0    1
 -2      7864      7854      7564      7574      7865      7855      7565      7575
 -1      6395    1    0    1
 -2      7865      7855      7565      7575      7866      7856      7566      7576
 -1      6396    1    0    1
 -2      7866      7856      7566      7576      7867      7857      7567      7577
 -1      6397    1    0    1
 -2      7867      7857      7567      7577      7868      7858      7568      7578
 -1      6398    1    0    1
 -2      7868      7858      7568      7578      7869      7859      7569      7579
 -1      6399    1    0    1
 -2      7869      7859      7569      7579      7870      7860      7570      7580
 -1      6400    1    0    1
 -2      7870      7860      7570      7580      7871      7861      7571      7581
 -1      6401    1    0    1
 -2      7871      7861      7571      7581      7872      7862      7572      7582
 -1      6402    1    0    1
 -2      7872      7862      7572      7582      2756      2755      2726      2727
 -1      6403    1    0    1
 -2       756       755       726       727      7873      7863      7573      7583
 -1      6404    1    0    1
 -2      7873      7863      7573      7583      7874      7864      7574      7584
 -1      6405    1    0    1
 -2      7874      7864      7574      7584      7875      7865      7575      7585
 -1      6406    1    0    1
 -2      7875      7865      7575      7585      7876      7866      7576      7586
 -1      6407    1    0    1
 -2      7876      7866      7576      7586      7877      7867      7577      7587
 -1      6408    1    0    1
 -2      7877      7867      7577      7587      7878      7868      7578      7588
 -1      6409    1    0    1
 -2      7878      7868      7578      7588      7879      7869      7579      7589
 -1      6410    1    0    1
 -2      7879      7869      7579      7589      7880      7870      7580      7590
 -1      6411    1    0    1
 -2      7880      7870      7580      7590      7881      7871      7581      7591
 -1      6412    1    0    1
 -2      7881      7871      7581      7591      7882      7872      7582      7592
 -1      6413    1    0    1
 -2      7882      7872      7582      7592      2757      2756      2727      2728
 -1      6414    1    0    1
 -2       757       756       727       728      7883      7873      7583      7593
 -1      6415    1    0    1
 -2      7883      7873      7583      7593      7884      7874      7584      7594
 -1      6416    1    0    1
 -2      7884      7874      7584      7594      7885      7875      7585      7595
 -1      6417    1    0    1
 -2      7885      7875      7585      7595      7886      7876      7586      7596
 -1      6418    1    0    1
 -2      7886      7876      7586      7596      7887      7877      7587      7597
 -1      6419    1    0    1
 -2      7887      7877      7587      7597      7888      7878      7588      7598
 -1      6420    1    0    1
 -2      7888      7878      7588      7598      7889      7879      7589      7599
 -1      6421    1    0    1
 -2      7889      7879      7589      7599      7890      7880      7590      7600
 -1      6422    1    0    1
 -2      7890      7880      7590      7600      7891      7881      7591      7601
 -1      6423    1    0    1
 -2      7891      7881      7591      7601      7892      7882      7592      7602
 -1      6424    1    0    1
 -2      7892      7882      7592      7602      2758      2757      2728      2729
 -1      6425    1    0    1
 -2       758       757       728       729      7893      7883      7593      7603
 -1      6426    1    0    1
 -2      7893      7883      7593      7603      7894      7884      7594      7604
 -1      6427    1    0    1
 -2      7894      7884      7594      7604      7895      7885      7595      7605
 -1      6428    1    0    1
 -2      7895      7885      7595      7605      7896      7886      7596      7606
 -1      6429    1    0    1
 -2      7896      7886      7596      7606      7897      7887      7597      7607
 -1      6430    1    0    1
 -2      7897      7887      7597      7607      7898      7888      7598      7608
 -1      6431    1    0    1
 -2      7898      7888      7598      7608      7899      7889      7599      7609
 -1      6432    1    0    1
 -2      7899      7889      7599      7609      7900      7890      7600      7610
 -1      6433    1    0    1
 -2      7900      7890      7600      7610      7901      7891      7601      7611
 -1      6434    1    0    1
 -2      7901      7891      7601      7611      7902      7892      7602      7612
 -1      6435    1    0    1
 -2      7902      7892      7602      7612      2759      2758      2729      2730
 -1      6436    1    0    1
 -2       759       758       729       730      7903      7893      7603      7613
 -1      6437    1    0    1
 -2      7903      7893      7603      7613      7904      7894      7604      7614
 -1      6438    1    0    1
 -2      7904      7894      7604      7614      7905      7895      7605      7615
 -1      6439    1    0    1
 -2      7905      7895      7605      7615      7906      7896      7606      7616
 -1      6440    1    0    1
 -2      7906      7896      7606      7616      7907      7897      7607      7617
 -1      6441    1    0    1
 -2      7907      7897      7607      7617      7908      7898      7608      7618
 -1      6442    1    0    1
 -2      7908      7898      7608      7618      7909      7899      7609      7619
 -1      6443    1    0    1
 -2      7909      7899      7609      7619      7910      7900      7610      7620
 -1      6444    1    0    1
 -2      7910      7900      7610      7620      7911      7901      7611      7621
 -1      6445    1    0    1
 -2      7911      7901      7611      7621      7912      7902      7612      7622
 -1      6446    1    0    1
 -2      7912      7902      7612      7622      2760      2759      2730      2731
 -1      6447    1    0    1
 -2       760       759       730       731      7913      7903      7613      7623
 -1      6448    1    0    1
 -2      7913      7903      7613      7623      7914      7904      7614      7624
 -1      6449    1    0    1
 -2      7914      7904      7614      7624      7915      7905      7615      7625
 -1      6450    1    0    1
 -2      7915      7905      7615      7625      7916      7906      7616      7626
 -1      6451    1    0    1
 -2      7916      7906      7616      7626      7917      7907      7617      7627
 -1      6452    1    0    1
 -2      7917      7907      7617      7627      7918      7908      7618      7628
 -1      6453    1    0    1
 -2      7918      7908      7618      7628      7919      7909      7619      7629
 -1      6454    1    0    1
 -2      7919      7909      7619      7629      7920      7910      7620      7630
 -1      6455    1    0    1
 -2      7920      7910      7620      7630      7921      7911      7621      7631
 -1      6456    1    0    1
 -2      7921      7911      7621      7631      7922      7912      7622      7632
 -1      6457    1    0    1
 -2      7922      7912      7622      7632      2761      2760      2731      2732
 -1      6458    1    0    1
 -2       761       760       731       732      7923      7913      7623      7633
 -1      6459    1    0    1
 -2      7923      7913      7623      7633      7924      7914      7624      7634
 -1      6460    1    0    1
 -2      7924      7914      7624      7634      7925      7915      7625      7635
 -1      6461    1    0    1
 -2      7925      7915      7625      7635      7926      7916      7626      7636
 -1      6462    1    0    1
 -2      7926      7916      7626      7636      7927      7917      7627      7637
 -1      6463    1    0    1
 -2      7927      7917      7627      7637      7928      7918      7628      7638
 -1      6464    1    0    1
 -2      7928      7918      7628      7638      7929      7919      7629      7639
 -1      6465    1    0    1
 -2      7929      7919      7629      7639      7930      7920      7630      7640
 -1      6466    1    0    1
 -2      7930      7920      7630      7640      7931      7921      7631      7641
 -1      6467    1    0    1
 -2      7931      7921      7631      7641      7932      7922      7632      7642
 -1      6468    1    0    1
 -2      7932      7922      7632      7642      2762      2761      2732      2733
 -1      6469    1    0    1
 -2       762       761       732       733      7933      7923      7633      7643
 -1      6470    1    0    1
 -2      7933      7923      7633      7643      7934      7924      7634      7644
 -1      6471    1    0    1
 -2      7934      7924      7634      7644      7935      7925      7635      7645
 -1      6472    1    0    1
 -2      7935      7925      7635      7645      7936      7926      7636      7646
 -1      6473    1    0    1
 -2      7936      7926      7636      7646      7937      7927      7637      7647
 -1      6474    1    0    1
 -2      7937      7927      7637      7647      7938      7928      7638      7648
 -1      6475    1    0    1
 -2      7938      7928      7638      7648      7939      7929      7639      7649
 -1      6476    1    0    1
 -2      7939      7929      7639      7649      7940      7930      7640      7650
 -1      6477    1    0    1
 -2      7940      7930      7640      7650      7941      7931      7641      7651
 -1      6478    1    0    1
 -2      7941      7931      7641      7651      7942      7932      7642      7652
 -1      6479    1    0    1
 -2      7942      7932      7642      7652      2763      2762      2733      2734
 -1      6480    1    0    1
 -2       763       762       733       734      7943      7933      7643      7653
 -1      6481    1    0    1
 -2      7943      7933      7643      7653      7944      7934      7644      7654
 -1      6482    1    0    1
 -2      7944      7934      7644      7654      7945      7935      7645      7655
 -1      6483    1    0    1
 -2      7945      7935      7645      7655      7946      7936      7646      7656
 -1      6484    1    0    1
 -2      7946      7936      7646      7656      7947      7937      7647      7657
 -1      6485    1    0    1
 -2      7947      7937      7647      7657      7948      7938      7648      7658
 -1      6486    1    0    1
 -2      7948      7938      7648      7658      7949      7939      7649      7659
 -1      6487    1    0    1
 -2      7949      7939      7649      7659      7950      7940      7650      7660
 -1      6488    1    0    1
 -2      7950      7940      7650      7660      7951      7941      7651      7661
 -1      6489    1    0    1
 -2      7951      7941      7651      7661      7952      7942      7652      7662
 -1      6490    1    0    1
 -2      7952      7942      7652      7662      2764      2763      2734      2735
 -1      6491    1    0    1
 -2       764       763       734       735      7953      7943      7653      7663
 -1      6492    1    0    1
 -2      7953      7943      7653      7663      7954      7944      7654      7664
 -1      6493    1    0    1
 -2      7954      7944      7654      7664      7955      7945      7655      7665
 -1      6494    1    0    1
 -2      7955      7945      7655      7665      7956      7946      7656      7666
 -1      6495    1    0    1
 -2      7956      7946      7656      7666      7957      7947      7657      7667
 -1      6496    1    0    1
 -2      7957      7947      7657      7667      7958      7948      7658      7668
 -1      6497    1    0    1
 -2      7958      7948      7658      7668      7959      7949      7659      7669
 -1      6498    1    0    1
 -2      7959      7949      7659      7669      7960      7950      7660      7670
 -1      6499    1    0    1
 -2      7960      7950      7660      7670      7961      7951      7661      7671
 -1      6500    1    0    1
 -2      7961      7951      7661      7671      7962      7952      7662      7672
 -1      6501    1    0    1
 -2      7962      7952      7662      7672      2765      2764      2735      2736
 -1      6502    1    0    1
 -2       765       764       735       736      7963      7953      7663      7673
 -1      6503    1    0    1
 -2      7963      7953      7663      7673      7964      7954      7664      7674
 -1      6504    1    0    1
 -2      7964      7954      7664      7674      7965      7955      7665      7675
 -1      6505    1    0    1
 -2      7965      7955      7665      7675      7966      7956      7666      7676
 -1      6506    1    0    1
 -2      7966      7956      7666      7676      7967      7957      7667      7677
 -1      6507    1    0    1
 -2      7967      7957      7667      7677      7968      7958      7668      7678
 -1      6508    1    0    1
 -2      7968      7958      7668      7678      7969      7959      7669      7679
 -1      6509    1    0    1
 -2      7969      7959      7669      7679      7970      7960      7670      7680
 -1      6510    1    0    1
 -2      7970      7960      7670      7680      7971      7961      7671      7681
 -1      6511    1    0    1
 -2      7971      7961      7671      7681      7972      7962      7672      7682
 -1      6512    1    0    1
 -2      7972      7962      7672      7682      2766      2765      2736      2737
 -1      6513    1    0    1
 -2       766       765       736       737      7973      7963      7673      7683
 -1      6514    1    0    1
 -2      7973      7963      7673      7683      7974      7964      7674      7684
 -1      6515    1    0    1
 -2      7974      7964      7674      7684      7975      7965      7675      7685
 -1      6516    1    0    1
 -2      7975      7965      7675      7685      7976      7966      7676      7686
 -1      6517    1    0    1
 -2      7976      7966      7676      7686      7977      7967      7677      7687
 -1      6518    1    0    1
 -2      7977      7967      7677      7687      7978      7968      7678      7688
 -1      6519    1    0    1
 -2      7978      7968      7678      7688      7979      7969      7679      7689
 -1      6520    1    0    1
 -2      7979      7969      7679      7689      7980      7970      7680      7690
 -1      6521    1    0    1
 -2      7980      7970      7680      7690      7981      7971      7681      7691
 -1      6522    1    0    1
 -2      7981      7971      7681      7691      7982      7972      7682      7692
 -1      6523    1    0    1
 -2      7982      7972      7682      7692      2767      2766      2737      2738
 -1      6524    1    0    1
 -2       767       766       737       738      7983      7973      7683      7693
 -1      6525    1    0    1
 -2      7983      7973      7683      7693      7984      7974      7684      7694
 -1      6526    1    0    1
 -2      7984      7974      7684      7694      7985      7975      7685      7695
 -1      6527    1    0    1
 -2      7985      7975      7685      7695      7986      7976      7686      7696
 -1      6528    1    0    1
 -2      7986      7976      7686      7696      7987      7977      7687      7697
 -1      6529    1    0    1
 -2      7987      7977      7687      7697      7988      7978      7688      7698
 -1      6530    1    0    1
 -2      7988      7978      7688      7698      7989      7979      7689      7699
 -1      6531    1    0    1
 -2      7989      7979      7689      7699      7990      7980      7690      7700
 -1      6532    1    0    1
 -2      7990      7980      7690      7700      7991      7981      7691      7701
 -1      6533    1    0    1
 -2      7991      7981      7691      7701      7992      7982      7692      7702
 -1      6534    1    0    1
 -2      7992      7982      7692      7702      2768      2767      2738      2739
 -1      6535    1    0    1
 -2       768       767       738       739      7993      7983      7693      7703
 -1      6536    1    0    1
 -2      7993      7983      7693      7703      7994      7984      7694      7704
 -1      6537    1    0    1
 -2      7994      7984      7694      7704      7995      7985      7695      7705
 -1      6538    1    0    1
 -2      7995      7985      7695      7705      7996      7986      7696      7706
 -1      6539    1    0    1
 -2      7996      7986      7696      7706      7997      7987      7697      7707
 -1      6540    1    0    1
 -2      7997      7987      7697      7707      7998      7988      7698      7708
 -1      6541    1    0    1
 -2      7998      7988      7698      7708      7999      7989      7699      7709
 -1      6542    1    0    1
 -2      7999      7989      7699      7709      8000      7990      7700      7710
 -1      6543    1    0    1
 -2      8000      7990      7700      7710      8001      7991      7701      7711
 -1      6544    1    0    1
 -2      8001      7991      7701      7711      8002      7992      7702      7712
 -1      6545    1    0    1
 -2      8002      7992      7702      7712      2769      2768      2739      2740
 -1      6546    1    0    1
 -2       769       768       739       740      8003      7993      7703      7713
 -1      6547    1    0    1
 -2      8003      7993      7703      7713      8004      7994      7704      7714
 -1      6548    1    0    1
 -2      8004      7994      7704      7714      8005      7995      7705      7715
 -1      6549    1    0    1
 -2      8005      7995      7705      7715      8006      7996      7706      7716
 -1      6550    1    0    1
 -2      8006      7996      7706      7716      8007      7997      7707      7717
 -1      6551    1    0    1
 -2      8007      7997      7707      7717      8008      7998      7708      7718
 -1      6552    1    0    1
 -2      8008      7998      7708      7718      8009      7999      7709      7719
 -1      6553    1    0    1
 -2      8009      7999      7709      7719      8010      8000      7710      7720
 -1      6554    1    0    1
 -2      8010      8000      7710      7720      8011      8001      7711      7721
 -1      6555    1    0    1
 -2      8011      8001      7711      7721      8012      8002      7712      7722
 -1      6556    1    0    1
 -2      8012      8002      7712      7722      2770      2769      2740      2741
 -1      6557    1    0    1
 -2       770       769       740       741      8013      8003      7713      7723
 -1      6558    1    0    1
 -2      8013      8003      7713      7723      8014      8004      7714      7724
 -1      6559    1    0    1
 -2      8014      8004      7714      7724      8015      8005      7715      7725
 -1      6560    1    0    1
 -2      8015      8005      7715      7725      8016      8006      7716      7726
 -1      6561    1    0    1
 -2      8016      8006      7716      7726      8017      8007      7717      7727
 -1      6562    1    0    1
 -2      8017      8007      7717      7727      8018      8008      7718      7728
 -1      6563    1    0    1
 -2      8018      8008      7718      7728      8019      8009      7719      7729
 -1      6564    1    0    1
 -2      8019      8009      7719      7729      8020      8010      7720      7730
 -1      6565    1    0    1
 -2      8020      8010      7720      7730      8021      8011      7721      7731
 -1      6566    1    0    1
 -2      8021      8011      7721      7731      8022      8012      7722      7732
 -1      6567    1    0    1
 -2      8022      8012      7722      7732      2771      2770      2741      2742
 -1      6568    1    0    1
 -2       771       770       741       742      8023      8013      7723      7733
 -1      6569    1    0    1
 -2      8023      8013      7723      7733      8024      8014      7724      7734
 -1      6570    1    0    1
 -2      8024      8014      7724      7734      8025      8015      7725      7735
 -1      6571    1    0    1
 -2      8025      8015      7725      7735      8026      8016      7726      7736
 -1      6572    1    0    1
 -2      8026      8016      7726      7736      8027      8017      7727      7737
 -1      6573    1    0    1
 -2      8027      8017      7727      7737      8028      8018      7728      7738
 -1      6574    1    0    1
 -2      8028      8018      7728      7738      8029      8019      7729      7739
 -1      6575    1    0    1
 -2      8029      8019      7729      7739      8030      8020      7730      7740
 -1      6576    1    0    1
 -2      8030      8020      7730      7740      8031      8021      7731      7741
 -1      6577    1    0    1
 -2      8031      8021      7731      7741      8032      8022      7732      7742
 -1      6578    1    0    1
 -2      8032      8022      7732      7742      2772      2771      2742      2743
 -1      6579    1    0    1
 -2       772       771       742       743      8033      8023      7733      7743
 -1      6580    1    0    1
 -2      8033      8023      7733      7743      8034      8024      7734      7744
 -1      6581    1    0    1
 -2      8034      8024      7734      7744      8035      8025      7735      7745
 -1      6582    1    0    1
 -2      8035      8025      7735      7745      8036      8026      7736      7746
 -1      6583    1    0    1
 -2      8036      8026      7736      7746      8037      8027      7737      7747
 -1      6584    1    0    1
 -2      8037      8027      7737      7747      8038      8028      7738      7748
 -1      6585    1    0    1
 -2      8038      8028      7738      7748      8039      8029      7739      7749
 -1      6586    1    0    1
 -2      8039      8029      7739      7749      8040      8030      7740      7750
 -1      6587    1    0    1
 -2      8040      8030      7740      7750      8041      8031      7741      7751
 -1      6588    1    0    1
 -2      8041      8031      7741      7751      8042      8032      7742      7752
 -1      6589    1    0    1
 -2      8042      8032      7742      7752      2773      2772      2743      2744
 -1      6590    1    0    1
 -2       773       772       743       744      8043      8033      7743      7753
 -1      6591    1    0    1
 -2      8043      8033      7743      7753      8044      8034      7744      7754
 -1      6592    1    0    1
 -2      8044      8034      7744      7754      8045      8035      7745      7755
 -1      6593    1    0    1
 -2      8045      8035      7745      7755      8046      8036      7746      7756
 -1      6594    1    0    1
 -2      8046      8036      7746      7756      8047      8037      7747      7757
 -1      6595    1    0    1
 -2      8047      8037      7747      7757      8048      8038      7748      7758
 -1      6596    1    0    1
 -2      8048      8038      7748      7758      8049      8039      7749      7759
 -1      6597    1    0    1
 -2      8049      8039      7749      7759      8050      8040      7750      7760
 -1      6598    1    0    1
 -2      8050      8040      7750      7760      8051      8041      7751      7761
 -1      6599    1    0    1
 -2      8051      8041      7751      7761      8052      8042      7752      7762
 -1      6600    1    0    1
 -2      8052      8042      7752      7762      2774      2773      2744      2745
 -1      6601    1    0    1
 -2        79       773       744        80      1822      8043      7753      1832
 -1      6602    1    0    1
 -2      1822      8043      7753      1832      1823      8044      7754      1833
 -1      6603    1    0    1
 -2      1823      8044      7754      1833      1824      8045      7755      1834
 -1      6604    1    0    1
 -2      1824      8045      7755      1834      1825      8046      7756      1835
 -1      6605    1    0    1
 -2      1825      8046      7756      1835      1826      8047      7757      1836
 -1      6606    1    0    1
 -2      1826      8047      7757      1836      1827      8048      7758      1837
 -1      6607    1    0    1
 -2      1827      8048      7758      1837      1828      8049      7759      1838
 -1      6608    1    0    1
 -2      1828      8049      7759      1838      1829      8050      7760      1839
 -1      6609    1    0    1
 -2      1829      8050      7760      1839      1830      8051      7761      1840
 -1      6610    1    0    1
 -2      1830      8051      7761      1840      1831      8052      7762      1841
 -1      6611    1    0    1
 -2      1831      8052      7762      1841       195      2774      2745       196
 -1      6612    1    0    1
 -2       774        26        25       745      8053      1292      1282      7763
 -1      6613    1    0    1
 -2      8053      1292      1282      7763      8054      1293      1283      7764
 -1      6614    1    0    1
 -2      8054      1293      1283      7764      8055      1294      1284      7765
 -1      6615    1    0    1
 -2      8055      1294      1284      7765      8056      1295      1285      7766
 -1      6616    1    0    1
 -2      8056      1295      1285      7766      8057      1296      1286      7767
 -1      6617    1    0    1
 -2      8057      1296      1286      7767      8058      1297      1287      7768
 -1      6618    1    0    1
 -2      8058      1297      1287      7768      8059      1298      1288      7769
 -1      6619    1    0    1
 -2      8059      1298      1288      7769      8060      1299      1289      7770
 -1      6620    1    0    1
 -2      8060      1299      1289      7770      8061      1300      1290      7771
 -1      6621    1    0    1
 -2      8061      1300      1290      7771      8062      1301      1291      7772
 -1      6622    1    0    1
 -2      8062      1301      1291      7772      2775       142       141      2746
 -1      6623    1    0    1
 -2       775       774       745       746      8063      8053      7763      7773
 -1      6624    1    0    1
 -2      8063      8053      7763      7773      8064      8054      7764      7774
 -1      6625    1    0    1
 -2      8064      8054      7764      7774      8065      8055      7765      7775
 -1      6626    1    0    1
 -2      8065      8055      7765      7775      8066      8056      7766      7776
 -1      6627    1    0    1
 -2      8066      8056      7766      7776      8067      8057      7767      7777
 -1      6628    1    0    1
 -2      8067      8057      7767      7777      8068      8058      7768      7778
 -1      6629    1    0    1
 -2      8068      8058      7768      7778      8069      8059      7769      7779
 -1      6630    1    0    1
 -2      8069      8059      7769      7779      8070      8060      7770      7780
 -1      6631    1    0    1
 -2      8070      8060      7770      7780      8071      8061      7771      7781
 -1      6632    1    0    1
 -2      8071      8061      7771      7781      8072      8062      7772      7782
 -1      6633    1    0    1
 -2      8072      8062      7772      7782      2776      2775      2746      2747
 -1      6634    1    0    1
 -2       776       775       746       747      8073      8063      7773      7783
 -1      6635    1    0    1
 -2      8073      8063      7773      7783      8074      8064      7774      7784
 -1      6636    1    0    1
 -2      8074      8064      7774      7784      8075      8065      7775      7785
 -1      6637    1    0    1
 -2      8075      8065      7775      7785      8076      8066      7776      7786
 -1      6638    1    0    1
 -2      8076      8066      7776      7786      8077      8067      7777      7787
 -1      6639    1    0    1
 -2      8077      8067      7777      7787      8078      8068      7778      7788
 -1      6640    1    0    1
 -2      8078      8068      7778      7788      8079      8069      7779      7789
 -1      6641    1    0    1
 -2      8079      8069      7779      7789      8080      8070      7780      7790
 -1      6642    1    0    1
 -2      8080      8070      7780      7790      8081      8071      7781      7791
 -1      6643    1    0    1
 -2      8081      8071      7781      7791      8082      8072      7782      7792
 -1      6644    1    0    1
 -2      8082      8072      7782      7792      2777      2776      2747      2748
 -1      6645    1    0    1
 -2       777       776       747       748      8083      8073      7783      7793
 -1      6646    1    0    1
 -2      8083      8073      7783      7793      8084      8074      7784      7794
 -1      6647    1    0    1
 -2      8084      8074      7784      7794      8085      8075      7785      7795
 -1      6648    1    0    1
 -2      8085      8075      7785      7795      8086      8076      7786      7796
 -1      6649    1    0    1
 -2      8086      8076      7786      7796      8087      8077      7787      7797
 -1      6650    1    0    1
 -2      8087      8077      7787      7797      8088      8078      7788      7798
 -1      6651    1    0    1
 -2      8088      8078      7788      7798      8089      8079      7789      7799
 -1      6652    1    0    1
 -2      8089      8079      7789      7799      8090      8080      7790      7800
 -1      6653    1    0    1
 -2      8090      8080      7790      7800      8091      8081      7791      7801
 -1      6654    1    0    1
 -2      8091      8081      7791      7801      8092      8082      7792      7802
 -1      6655    1    0    1
 -2      8092      8082      7792      7802      2778      2777      2748      2749
 -1      6656    1    0    1
 -2       778       777       748       749      8093      8083      7793      7803
 -1      6657    1    0    1
 -2      8093      8083      7793      7803      8094      8084      7794      7804
 -1      6658    1    0    1
 -2      8094      8084      7794      7804      8095      8085      7795      7805
 -1      6659    1    0    1
 -2      8095      8085      7795      7805      8096      8086      7796      7806
 -1      6660    1    0    1
 -2      8096      8086      7796      7806      8097      8087      7797      7807
 -1      6661    1    0    1
 -2      8097      8087      7797      7807      8098      8088      7798      7808
 -1      6662    1    0    1
 -2      8098      8088      7798      7808      8099      8089      7799      7809
 -1      6663    1    0    1
 -2      8099      8089      7799      7809      8100      8090      7800      7810
 -1      6664    1    0    1
 -2      8100      8090      7800      7810      8101      8091      7801      7811
 -1      6665    1    0    1
 -2      8101      8091      7801      7811      8102      8092      7802      7812
 -1      6666    1    0    1
 -2      8102      8092      7802      7812      2779      2778      2749      2750
 -1      6667    1    0    1
 -2       779       778       749       750      8103      8093      7803      7813
 -1      6668    1    0    1
 -2      8103      8093      7803      7813      8104      8094      7804      7814
 -1      6669    1    0    1
 -2      8104      8094      7804      7814      8105      8095      7805      7815
 -1      6670    1    0    1
 -2      8105      8095      7805      7815      8106      8096      7806      7816
 -1      6671    1    0    1
 -2      8106      8096      7806      7816      8107      8097      7807      7817
 -1      6672    1    0    1
 -2      8107      8097      7807      7817      8108      8098      7808      7818
 -1      6673    1    0    1
 -2      8108      8098      7808      7818      8109      8099      7809      7819
 -1      6674    1    0    1
 -2      8109      8099      7809      7819      8110      8100      7810      7820
 -1      6675    1    0    1
 -2      8110      8100      7810      7820      8111      8101      7811      7821
 -1      6676    1    0    1
 -2      8111      8101      7811      7821      8112      8102      7812      7822
 -1      6677    1    0    1
 -2      8112      8102      7812      7822      2780      2779      2750      2751
 -1      6678    1    0    1
 -2       780       779       750       751      8113      8103      7813      7823
 -1      6679    1    0    1
 -2      8113      8103      7813      7823      8114      8104      7814      7824
 -1      6680    1    0    1
 -2      8114      8104      7814      7824      8115      8105      7815      7825
 -1      6681    1    0    1
 -2      8115      8105      7815      7825      8116      8106      7816      7826
 -1      6682    1    0    1
 -2      8116      8106      7816      7826      8117      8107      7817      7827
 -1      6683    1    0    1
 -2      8117      8107      7817      7827      8118      8108      7818      7828
 -1      6684    1    0    1
 -2      8118      8108      7818      7828      8119      8109      7819      7829
 -1      6685    1    0    1
 -2      8119      8109      7819      7829      8120      8110      7820      7830
 -1      6686    1    0    1
 -2      8120      8110      7820      7830      8121      8111      7821      7831
 -1      6687    1    0    1
 -2      8121      8111      7821      7831      8122      8112      7822      7832
 -1      6688    1    0    1
 -2      8122      8112      7822      7832      2781      2780      2751      2752
 -1      6689    1    0    1
 -2       781       780       751       752      8123      8113      7823      7833
 -1      6690    1    0    1
 -2      8123      8113      7823      7833      8124      8114      7824      7834
 -1      6691    1    0    1
 -2      8124      8114      7824      7834      8125      8115      7825      7835
 -1      6692    1    0    1
 -2      8125      8115      7825      7835      8126      8116      7826      7836
 -1      6693    1    0    1
 -2      8126      8116      7826      7836      8127      8117      7827      7837
 -1      6694    1    0    1
 -2      8127      8117      7827      7837      8128      8118      7828      7838
 -1      6695    1    0    1
 -2      8128      8118      7828      7838      8129      8119      7829      7839
 -1      6696    1    0    1
 -2      8129      8119      7829      7839      8130      8120      7830      7840
 -1      6697    1    0    1
 -2      8130      8120      7830      7840      8131      8121      7831      7841
 -1      6698    1    0    1
 -2      8131      8121      7831      7841      8132      8122      7832      7842
 -1      6699    1    0    1
 -2      8132      8122      7832      7842      2782      2781      2752      2753
 -1      6700    1    0    1
 -2       782       781       752       753      8133      8123      7833      7843
 -1      6701    1    0    1
 -2      8133      8123      7833      7843      8134      8124      7834      7844
 -1      6702    1    0    1
 -2      8134      8124      7834      7844      8135      8125      7835      7845
 -1      6703    1    0    1
 -2      8135      8125      7835      7845      8136      8126      7836      7846
 -1      6704    1    0    1
 -2      8136      8126      7836      7846      8137      8127      7837      7847
 -1      6705    1    0    1
 -2      8137      8127      7837      7847      8138      8128      7838      7848
 -1      6706    1    0    1
 -2      8138      8128      7838      7848      8139      8129      7839      7849
 -1      6707    1    0    1
 -2      8139      8129      7839      7849      8140      8130      7840      7850
 -1      6708    1    0    1
 -2      8140      8130      7840      7850      8141      8131      7841      7851
 -1      6709    1    0    1
 -2      8141      8131      7841      7851      8142      8132      7842      7852
 -1      6710    1    0    1
 -2      8142      8132      7842      7852      2783      2782      2753      2754
 -1      6711    1    0    1
 -2       783       782       753       754      8143      8133      7843      7853
 -1      6712    1    0    1
 -2      8143      8133      7843      7853      8144      8134      7844      7854
 -1      6713    1    0    1
 -2      8144      8134      7844      7854      8145      8135      7845      7855
 -1      6714    1    0    1
 -2      8145      8135      7845      7855      8146      8136      7846      7856
 -1      6715    1    0    1
 -2      8146      8136      7846      7856      8147      8137      7847      7857
 -1      6716    1    0    1
 -2      8147      8137      7847      7857      8148      8138      7848      7858
 -1      6717    1    0    1
 -2      8148      8138      7848      7858      8149      8139      7849      7859
 -1      6718    1    0    1
 -2      8149      8139      7849      7859      8150      8140      7850      7860
 -1      6719    1    0    1
 -2      8150      8140      7850      7860      8151      8141      7851      7861
 -1      6720    1    0    1
 -2      8151      8141      7851      7861      8152      8142      7852      7862
 -1      6721    1    0    1
 -2      8152      8142      7852      7862      2784      2783      2754      2755
 -1      6722    1    0    1
 -2       784       783       754       755      8153      8143      7853      7863
 -1      6723    1    0    1
 -2      8153      8143      7853      7863      8154      8144      7854      7864
 -1      6724    1    0    1
 -2      8154      8144      7854      7864      8155      8145      7855      7865
 -1      6725    1    0    1
 -2      8155      8145      7855      7865      8156      8146      7856      7866
 -1      6726    1    0    1
 -2      8156      8146      7856      7866      8157      8147      7857      7867
 -1      6727    1    0    1
 -2      8157      8147      7857      7867      8158      8148      7858      7868
 -1      6728    1    0    1
 -2      8158      8148      7858      7868      8159      8149      7859      7869
 -1      6729    1    0    1
 -2      8159      8149      7859      7869      8160      8150      7860      7870
 -1      6730    1    0    1
 -2      8160      8150      7860      7870      8161      8151      7861      7871
 -1      6731    1    0    1
 -2      8161      8151      7861      7871      8162      8152      7862      7872
 -1      6732    1    0    1
 -2      8162      8152      7862      7872      2785      2784      2755      2756
 -1      6733    1    0    1
 -2       785       784       755       756      8163      8153      7863      7873
 -1      6734    1    0    1
 -2      8163      8153      7863      7873      8164      8154      7864      7874
 -1      6735    1    0    1
 -2      8164      8154      7864      7874      8165      8155      7865      7875
 -1      6736    1    0    1
 -2      8165      8155      7865      7875      8166      8156      7866      7876
 -1      6737    1    0    1
 -2      8166      8156      7866      7876      8167      8157      7867      7877
 -1      6738    1    0    1
 -2      8167      8157      7867      7877      8168      8158      7868      7878
 -1      6739    1    0    1
 -2      8168      8158      7868      7878      8169      8159      7869      7879
 -1      6740    1    0    1
 -2      8169      8159      7869      7879      8170      8160      7870      7880
 -1      6741    1    0    1
 -2      8170      8160      7870      7880      8171      8161      7871      7881
 -1      6742    1    0    1
 -2      8171      8161      7871      7881      8172      8162      7872      7882
 -1      6743    1    0    1
 -2      8172      8162      7872      7882      2786      2785      2756      2757
 -1      6744    1    0    1
 -2       786       785       756       757      8173      8163      7873      7883
 -1      6745    1    0    1
 -2      8173      8163      7873      7883      8174      8164      7874      7884
 -1      6746    1    0    1
 -2      8174      8164      7874      7884      8175      8165      7875      7885
 -1      6747    1    0    1
 -2      8175      8165      7875      7885      8176      8166      7876      7886
 -1      6748    1    0    1
 -2      8176      8166      7876      7886      8177      8167      7877      7887
 -1      6749    1    0    1
 -2      8177      8167      7877      7887      8178      8168      7878      7888
 -1      6750    1    0    1
 -2      8178      8168      7878      7888      8179      8169      7879      7889
 -1      6751    1    0    1
 -2      8179      8169      7879      7889      8180      8170      7880      7890
 -1      6752    1    0    1
 -2      8180      8170      7880      7890      8181      8171      7881      7891
 -1      6753    1    0    1
 -2      8181      8171      7881      7891      8182      8172      7882      7892
 -1      6754    1    0    1
 -2      8182      8172      7882      7892      2787      2786      2757      2758
 -1      6755    1    0    1
 -2       787       786       757       758      8183      8173      7883      7893
 -1      6756    1    0    1
 -2      8183      8173      7883      7893      8184      8174      7884      7894
 -1      6757    1    0    1
 -2      8184      8174      7884      7894      8185      8175      7885      7895
 -1      6758    1    0    1
 -2      8185      8175      7885      7895      8186      8176      7886      7896
 -1      6759    1    0    1
 -2      8186      8176      7886      7896      8187      8177      7887      7897
 -1      6760    1    0    1
 -2      8187      8177      7887      7897      8188      8178      7888      7898
 -1      6761    1    0    1
 -2      8188      8178      7888      7898      8189      8179      7889      7899
 -1      6762    1    0    1
 -2      8189      8179      7889      7899      8190      8180      7890      7900
 -1      6763    1    0    1
 -2      8190      8180      7890      7900      8191      8181      7891      7901
 -1      6764    1    0    1
 -2      8191      8181      7891      7901      8192      8182      7892      7902
 -1      6765    1    0    1
 -2      8192      8182      7892      7902      2788      2787      2758      2759
 -1      6766    1    0    1
 -2       788       787       758       759      8193      8183      7893      7903
 -1      6767    1    0    1
 -2      8193      8183      7893      7903      8194      8184      7894      7904
 -1      6768    1    0    1
 -2      8194      8184      7894      7904      8195      8185      7895      7905
 -1      6769    1    0    1
 -2      8195      8185      7895      7905      8196      8186      7896      7906
 -1      6770    1    0    1
 -2      8196      8186      7896      7906      8197      8187      7897      7907
 -1      6771    1    0    1
 -2      8197      8187      7897      7907      8198      8188      7898      7908
 -1      6772    1    0    1
 -2      8198      8188      7898      7908      8199      8189      7899      7909
 -1      6773    1    0    1
 -2      8199      8189      7899      7909      8200      8190      7900      7910
 -1      6774    1    0    1
 -2      8200      8190      7900      7910      8201      8191      7901      7911
 -1      6775    1    0    1
 -2      8201      8191      7901      7911      8202      8192      7902      7912
 -1      6776    1    0    1
 -2      8202      8192      7902      7912      2789      2788      2759      2760
 -1      6777    1    0    1
 -2       789       788       759       760      8203      8193      7903      7913
 -1      6778    1    0    1
 -2      8203      8193      7903      7913      8204      8194      7904      7914
 -1      6779    1    0    1
 -2      8204      8194      7904      7914      8205      8195      7905      7915
 -1      6780    1    0    1
 -2      8205      8195      7905      7915      8206      8196      7906      7916
 -1      6781    1    0    1
 -2      8206      8196      7906      7916      8207      8197      7907      7917
 -1      6782    1    0    1
 -2      8207      8197      7907      7917      8208      8198      7908      7918
 -1      6783    1    0    1
 -2      8208      8198      7908      7918      8209      8199      7909      7919
 -1      6784    1    0    1
 -2      8209      8199      7909      7919      8210      8200      7910      7920
 -1      6785    1    0    1
 -2      8210      8200      7910      7920      8211      8201      7911      7921
 -1      6786    1    0    1
 -2      8211      8201      7911      7921      8212      8202      7912      7922
 -1      6787    1    0    1
 -2      8212      8202      7912      7922      2790      2789      2760      2761
 -1      6788    1    0    1
 -2       790       789       760       761      8213      8203      7913      7923
 -1      6789    1    0    1
 -2      8213      8203      7913      7923      8214      8204      7914      7924
 -1      6790    1    0    1
 -2      8214      8204      7914      7924      8215      8205      7915      7925
 -1      6791    1    0    1
 -2      8215      8205      7915      7925      8216      8206      7916      7926
 -1      6792    1    0    1
 -2      8216      8206      7916      7926      8217      8207      7917      7927
 -1      6793    1    0    1
 -2      8217      8207      7917      7927      8218      8208      7918      7928
 -1      6794    1    0    1
 -2      8218      8208      7918      7928      8219      8209      7919      7929
 -1      6795    1    0    1
 -2      8219      8209      7919      7929      8220      8210      7920      7930
 -1      6796    1    0    1
 -2      8220      8210      7920      7930      8221      8211      7921      7931
 -1      6797    1    0    1
 -2      8221      8211      7921      7931      8222      8212      7922      7932
 -1      6798    1    0    1
 -2      8222      8212      7922      7932      2791      2790      2761      2762
 -1      6799    1    0    1
 -2       791       790       761       762      8223      8213      7923      7933
 -1      6800    1    0    1
 -2      8223      8213      7923      7933      8224      8214      7924      7934
 -1      6801    1    0    1
 -2      8224      8214      7924      7934      8225      8215      7925      7935
 -1      6802    1    0    1
 -2      8225      8215      7925      7935      8226      8216      7926      7936
 -1      6803    1    0    1
 -2      8226      8216      7926      7936      8227      8217      7927      7937
 -1      6804    1    0    1
 -2      8227      8217      7927      7937      8228      8218      7928      7938
 -1      6805    1    0    1
 -2      8228      8218      7928      7938      8229      8219      7929      7939
 -1      6806    1    0    1
 -2      8229      8219      7929      7939      8230      8220      7930      7940
 -1      6807    1    0    1
 -2      8230      8220      7930      7940      8231      8221      7931      7941
 -1      6808    1    0    1
 -2      8231      8221      7931      7941      8232      8222      7932      7942
 -1      6809    1    0    1
 -2      8232      8222      7932      7942      2792      2791      2762      2763
 -1      6810    1    0    1
 -2       792       791       762       763      8233      8223      7933      7943
 -1      6811    1    0    1
 -2      8233      8223      7933      7943      8234      8224      7934      7944
 -1      6812    1    0    1
 -2      8234      8224      7934      7944      8235      8225      7935      7945
 -1      6813    1    0    1
 -2      8235      8225      7935      7945      8236      8226      7936      7946
 -1      6814    1    0    1
 -2      8236      8226      7936      7946      8237      8227      7937      7947
 -1      6815    1    0    1
 -2      8237      8227      7937      7947      8238      8228      7938      7948
 -1      6816    1    0    1
 -2      8238      8228      7938      7948      8239      8229      7939      7949
 -1      6817    1    0    1
 -2      8239      8229      7939      7949      8240      8230      7940      7950
 -1      6818    1    0    1
 -2      8240      8230      7940      7950      8241      8231      7941      7951
 -1      6819    1    0    1
 -2      8241      8231      7941      7951      8242      8232      7942      7952
 -1      6820    1    0    1
 -2      8242      8232      7942      7952      2793      2792      2763      2764
 -1      6821    1    0    1
 -2       793       792       763       764      8243      8233      7943      7953
 -1      6822    1    0    1
 -2      8243      8233      7943      7953      8244      8234      7944      7954
 -1      6823    1    0    1
 -2      8244      8234      7944      7954      8245      8235      7945      7955
 -1      6824    1    0    1
 -2      8245      8235      7945      7955      8246      8236      7946      7956
 -1      6825    1    0    1
 -2      8246      8236      7946      7956      8247      8237      7947      7957
 -1      6826    1    0    1
 -2      8247      8237      7947      7957      8248      8238      7948      7958
 -1      6827    1    0    1
 -2      8248      8238      7948      7958      8249      8239      7949      7959
 -1      6828    1    0    1
 -2      8249      8239      7949      7959      8250      8240      7950      7960
 -1      6829    1    0    1
 -2      8250      8240      7950      7960      8251      8241      7951      7961
 -1      6830    1    0    1
 -2      8251      8241      7951      7961      8252      8242      7952      7962
 -1      6831    1    0    1
 -2      8252      8242      7952      7962      2794      2793      2764      2765
 -1      6832    1    0    1
 -2       794       793       764       765      8253      8243      7953      7963
 -1      6833    1    0    1
 -2      8253      8243      7953      7963      8254      8244      7954      7964
 -1      6834    1    0    1
 -2      8254      8244      7954      7964      8255      8245      7955      7965
 -1      6835    1    0    1
 -2      8255      8245      7955      7965      8256      8246      7956      7966
 -1      6836    1    0    1
 -2      8256      8246      7956      7966      8257      8247      7957      7967
 -1      6837    1    0    1
 -2      8257      8247      7957      7967      8258      8248      7958      7968
 -1      6838    1    0    1
 -2      8258      8248      7958      7968      8259      8249      7959      7969
 -1      6839    1    0    1
 -2      8259      8249      7959      7969      8260      8250      7960      7970
 -1      6840    1    0    1
 -2      8260      8250      7960      7970      8261      8251      7961      7971
 -1      6841    1    0    1
 -2      8261      8251      7961      7971      8262      8252      7962      7972
 -1      6842    1    0    1
 -2      8262      8252      7962      7972      2795      2794      2765      2766
 -1      6843    1    0    1
 -2       795       794       765       766      8263      8253      7963      7973
 -1      6844    1    0    1
 -2      8263      8253      7963      7973      8264      8254      7964      7974
 -1      6845    1    0    1
 -2      8264      8254      7964      7974      8265      8255      7965      7975
 -1      6846    1    0    1
 -2      8265      8255      7965      7975      8266      8256      7966      7976
 -1      6847    1    0    1
 -2      8266      8256      7966      7976      8267      8257      7967      7977
 -1      6848    1    0    1
 -2      8267      8257      7967      7977      8268      8258      7968      7978
 -1      6849    1    0    1
 -2      8268      8258      7968      7978      8269      8259      7969      7979
 -1      6850    1    0    1
 -2      8269      8259      7969      7979      8270      8260      7970      7980
 -1      6851    1    0    1
 -2      8270      8260      7970      7980      8271      8261      7971      7981
 -1      6852    1    0    1
 -2      8271      8261      7971      7981      8272      8262      7972      7982
 -1      6853    1    0    1
 -2      8272      8262      7972      7982      2796      2795      2766      2767
 -1      6854    1    0    1
 -2       796       795       766       767      8273      8263      7973      7983
 -1      6855    1    0    1
 -2      8273      8263      7973      7983      8274      8264      7974      7984
 -1      6856    1    0    1
 -2      8274      8264      7974      7984      8275      8265      7975      7985
 -1      6857    1    0    1
 -2      8275      8265      7975      7985      8276      8266      7976      7986
 -1      6858    1    0    1
 -2      8276      8266      7976      7986      8277      8267      7977      7987
 -1      6859    1    0    1
 -2      8277      8267      7977      7987      8278      8268      7978      7988
 -1      6860    1    0    1
 -2      8278      8268      7978      7988      8279      8269      7979      7989
 -1      6861    1    0    1
 -2      8279      8269      7979      7989      8280      8270      7980      7990
 -1      6862    1    0    1
 -2      8280      8270      7980      7990      8281      8271      7981      7991
 -1      6863    1    0    1
 -2      8281      8271      7981      7991      8282      8272      7982      7992
 -1      6864    1    0    1
 -2      8282      8272      7982      7992      2797      2796      2767      2768
 -1      6865    1    0    1
 -2       797       796       767       768      8283      8273      7983      7993
 -1      6866    1    0    1
 -2      8283      8273      7983      7993      8284      8274      7984      7994
 -1      6867    1    0    1
 -2      8284      8274      7984      7994      8285      8275      7985      7995
 -1      6868    1    0    1
 -2      8285      8275      7985      7995      8286      8276      7986      7996
 -1      6869    1    0    1
 -2      8286      8276      7986      7996      8287      8277      7987      7997
 -1      6870    1    0    1
 -2      8287      8277      7987      7997      8288      8278      7988      7998
 -1      6871    1    0    1
 -2      8288      8278      7988      7998      8289      8279      7989      7999
 -1      6872    1    0    1
 -2      8289      8279      7989      7999      8290      8280      7990      8000
 -1      6873    1    0    1
 -2      8290      8280      7990      8000      8291      8281      7991      8001
 -1      6874    1    0    1
 -2      8291      8281      7991      8001      8292      8282      7992      8002
 -1      6875    1    0    1
 -2      8292      8282      7992      8002      2798      2797      2768      2769
 -1      6876    1    0    1
 -2       798       797       768       769      8293      8283      7993      8003
 -1      6877    1    0    1
 -2      8293      8283      7993      8003      8294      8284      7994      8004
 -1      6878    1    0    1
 -2      8294      8284      7994      8004      8295      8285      7995      8005
 -1      6879    1    0    1
 -2      8295      8285      7995      8005      8296      8286      7996      8006
 -1      6880    1    0    1
 -2      8296      8286      7996      8006      8297      8287      7997      8007
 -1      6881    1    0    1
 -2      8297      8287      7997      8007      8298      8288      7998      8008
 -1      6882    1    0    1
 -2      8298      8288      7998      8008      8299      8289      7999      8009
 -1      6883    1    0    1
 -2      8299      8289      7999      8009      8300      8290      8000      8010
 -1      6884    1    0    1
 -2      8300      8290      8000      8010      8301      8291      8001      8011
 -1      6885    1    0    1
 -2      8301      8291      8001      8011      8302      8292      8002      8012
 -1      6886    1    0    1
 -2      8302      8292      8002      8012      2799      2798      2769      2770
 -1      6887    1    0    1
 -2       799       798       769       770      8303      8293      8003      8013
 -1      6888    1    0    1
 -2      8303      8293      8003      8013      8304      8294      8004      8014
 -1      6889    1    0    1
 -2      8304      8294      8004      8014      8305      8295      8005      8015
 -1      6890    1    0    1
 -2      8305      8295      8005      8015      8306      8296      8006      8016
 -1      6891    1    0    1
 -2      8306      8296      8006      8016      8307      8297      8007      8017
 -1      6892    1    0    1
 -2      8307      8297      8007      8017      8308      8298      8008      8018
 -1      6893    1    0    1
 -2      8308      8298      8008      8018      8309      8299      8009      8019
 -1      6894    1    0    1
 -2      8309      8299      8009      8019      8310      8300      8010      8020
 -1      6895    1    0    1
 -2      8310      8300      8010      8020      8311      8301      8011      8021
 -1      6896    1    0    1
 -2      8311      8301      8011      8021      8312      8302      8012      8022
 -1      6897    1    0    1
 -2      8312      8302      8012      8022      2800      2799      2770      2771
 -1      6898    1    0    1
 -2       800       799       770       771      8313      8303      8013      8023
 -1      6899    1    0    1
 -2      8313      8303      8013      8023      8314      8304      8014      8024
 -1      6900    1    0    1
 -2      8314      8304      8014      8024      8315      8305      8015      8025
 -1      6901    1    0    1
 -2      8315      8305      8015      8025      8316      8306      8016      8026
 -1      6902    1    0    1
 -2      8316      8306      8016      8026      8317      8307      8017      8027
 -1      6903    1    0    1
 -2      8317      8307      8017      8027      8318      8308      8018      8028
 -1      6904    1    0    1
 -2      8318      8308      8018      8028      8319      8309      8019      8029
 -1      6905    1    0    1
 -2      8319      8309      8019      8029      8320      8310      8020      8030
 -1      6906    1    0    1
 -2      8320      8310      8020      8030      8321      8311      8021      8031
 -1      6907    1    0    1
 -2      8321      8311      8021      8031      8322      8312      8022      8032
 -1      6908    1    0    1
 -2      8322      8312      8022      8032      2801      2800      2771      2772
 -1      6909    1    0    1
 -2       801       800       771       772      8323      8313      8023      8033
 -1      6910    1    0    1
 -2      8323      8313      8023      8033      8324      8314      8024      8034
 -1      6911    1    0    1
 -2      8324      8314      8024      8034      8325      8315      8025      8035
 -1      6912    1    0    1
 -2      8325      8315      8025      8035      8326      8316      8026      8036
 -1      6913    1    0    1
 -2      8326      8316      8026      8036      8327      8317      8027      8037
 -1      6914    1    0    1
 -2      8327      8317      8027      8037      8328      8318      8028      8038
 -1      6915    1    0    1
 -2      8328      8318      8028      8038      8329      8319      8029      8039
 -1      6916    1    0    1
 -2      8329      8319      8029      8039      8330      8320      8030      8040
 -1      6917    1    0    1
 -2      8330      8320      8030      8040      8331      8321      8031      8041
 -1      6918    1    0    1
 -2      8331      8321      8031      8041      8332      8322      8032      8042
 -1      6919    1    0    1
 -2      8332      8322      8032      8042      2802      2801      2772      2773
 -1      6920    1    0    1
 -2       802       801       772       773      8333      8323      8033      8043
 -1      6921    1    0    1
 -2      8333      8323      8033      8043      8334      8324      8034      8044
 -1      6922    1    0    1
 -2      8334      8324      8034      8044      8335      8325      8035      8045
 -1      6923    1    0    1
 -2      8335      8325      8035      8045      8336      8326      8036      8046
 -1      6924    1    0    1
 -2      8336      8326      8036      8046      8337      8327      8037      8047
 -1      6925    1    0    1
 -2      8337      8327      8037      8047      8338      8328      8038      8048
 -1      6926    1    0    1
 -2      8338      8328      8038      8048      8339      8329      8039      8049
 -1      6927    1    0    1
 -2      8339      8329      8039      8049      8340      8330      8040      8050
 -1      6928    1    0    1
 -2      8340      8330      8040      8050      8341      8331      8041      8051
 -1      6929    1    0    1
 -2      8341      8331      8041      8051      8342      8332      8042      8052
 -1      6930    1    0    1
 -2      8342      8332      8042      8052      2803      2802      2773      2774
 -1      6931    1    0    1
 -2        78       802       773        79      1812      8333      8043      1822
 -1      6932    1    0    1
 -2      1812      8333      8043      1822      1813      8334      8044      1823
 -1      6933    1    0    1
 -2      1813      8334      8044      1823      1814      8335      8045      1824
 -1      6934    1    0    1
 -2      1814      8335      8045      1824      1815      8336      8046      1825
 -1      6935    1    0    1
 -2      1815      8336      8046      1825      1816      8337      8047      1826
 -1      6936    1    0    1
 -2      1816      8337      8047      1826      1817      8338      8048      1827
 -1      6937    1    0    1
 -2      1817      8338      8048      1827      1818      8339      8049      1828
 -1      6938    1    0    1
 -2      1818      8339      8049      1828      1819      8340      8050      1829
 -1      6939    1    0    1
 -2      1819      8340      8050      1829      1820      8341      8051      1830
 -1      6940    1    0    1
 -2      1820      8341      8051      1830      1821      8342      8052      1831
 -1      6941    1    0    1
 -2      1821      8342      8052      1831       194      2803      2774       195
 -1      6942    1    0    1
 -2       803        27        26       774      8343      1302      1292      8053
 -1      6943    1    0    1
 -2      8343      1302      1292      8053      8344      1303      1293      8054
 -1      6944    1    0    1
 -2      8344      1303      1293      8054      8345      1304      1294      8055
 -1      6945    1    0    1
 -2      8345      1304      1294      8055      8346      1305      1295      8056
 -1      6946    1    0    1
 -2      8346      1305      1295      8056      8347      1306      1296      8057
 -1      6947    1    0    1
 -2      8347      1306      1296      8057      8348      1307      1297      8058
 -1      6948    1    0    1
 -2      8348      1307      1297      8058      8349      1308      1298      8059
 -1      6949    1    0    1
 -2      8349      1308      1298      8059      8350      1309      1299      8060
 -1      6950    1    0    1
 -2      8350      1309      1299      8060      8351      1310      1300      8061
 -1      6951    1    0    1
 -2      8351      1310      1300      8061      8352      1311      1301      8062
 -1      6952    1    0    1
 -2      8352      1311      1301      8062      2804       143       142      2775
 -1      6953    1    0    1
 -2       804       803       774       775      8353      8343      8053      8063
 -1      6954    1    0    1
 -2      8353      8343      8053      8063      8354      8344      8054      8064
 -1      6955    1    0    1
 -2      8354      8344      8054      8064      8355      8345      8055      8065
 -1      6956    1    0    1
 -2      8355      8345      8055      8065      8356      8346      8056      8066
 -1      6957    1    0    1
 -2      8356      8346      8056      8066      8357      8347      8057      8067
 -1      6958    1    0    1
 -2      8357      8347      8057      8067      8358      8348      8058      8068
 -1      6959    1    0    1
 -2      8358      8348      8058      8068      8359      8349      8059      8069
 -1      6960    1    0    1
 -2      8359      8349      8059      8069      8360      8350      8060      8070
 -1      6961    1    0    1
 -2      8360      8350      8060      8070      8361      8351      8061      8071
 -1      6962    1    0    1
 -2      8361      8351      8061      8071      8362      8352      8062      8072
 -1      6963    1    0    1
 -2      8362      8352      8062      8072      2805      2804      2775      2776
 -1      6964    1    0    1
 -2       805       804       775       776      8363      8353      8063      8073
 -1      6965    1    0    1
 -2      8363      8353      8063      8073      8364      8354      8064      8074
 -1      6966    1    0    1
 -2      8364      8354      8064      8074      8365      8355      8065      8075
 -1      6967    1    0    1
 -2      8365      8355      8065      8075      8366      8356      8066      8076
 -1      6968    1    0    1
 -2      8366      8356      8066      8076      8367      8357      8067      8077
 -1      6969    1    0    1
 -2      8367      8357      8067      8077      8368      8358      8068      8078
 -1      6970    1    0    1
 -2      8368      8358      8068      8078      8369      8359      8069      8079
 -1      6971    1    0    1
 -2      8369      8359      8069      8079      8370      8360      8070      8080
 -1      6972    1    0    1
 -2      8370      8360      8070      8080      8371      8361      8071      8081
 -1      6973    1    0    1
 -2      8371      8361      8071      8081      8372      8362      8072      8082
 -1      6974    1    0    1
 -2      8372      8362      8072      8082      2806      2805      2776      2777
 -1      6975    1    0    1
 -2       806       805       776       777      8373      8363      8073      8083
 -1      6976    1    0    1
 -2      8373      8363      8073      8083      8374      8364      8074      8084
 -1      6977    1    0    1
 -2      8374      8364      8074      8084      8375      8365      8075      8085
 -1      6978    1    0    1
 -2      8375      8365      8075      8085      8376      8366      8076      8086
 -1      6979    1    0    1
 -2      8376      8366      8076      8086      8377      8367      8077      8087
 -1      6980    1    0    1
 -2      8377      8367      8077      8087      8378      8368      8078      8088
 -1      6981    1    0    1
 -2      8378      8368      8078      8088      8379      8369      8079      8089
 -1      6982    1    0    1
 -2      8379      8369      8079      8089      8380      8370      8080      8090
 -1      6983    1    0    1
 -2      8380      8370      8080      8090      8381      8371      8081      8091
 -1      6984    1    0    1
 -2      8381      8371      8081      8091      8382      8372      8082      8092
 -1      6985    1    0    1
 -2      8382      8372      8082      8092      2807      2806      2777      2778
 -1      6986    1    0    1
 -2       807       806       777       778      8383      8373      8083      8093
 -1      6987    1    0    1
 -2      8383      8373      8083      8093      8384      8374      8084      8094
 -1      6988    1    0    1
 -2      8384      8374      8084      8094      8385      8375      8085      8095
 -1      6989    1    0    1
 -2      8385      8375      8085      8095      8386      8376      8086      8096
 -1      6990    1    0    1
 -2      8386      8376      8086      8096      8387      8377      8087      8097
 -1      6991    1    0    1
 -2      8387      8377      8087      8097      8388      8378      8088      8098
 -1      6992    1    0    1
 -2      8388      8378      8088      8098      8389      8379      8089      8099
 -1      6993    1    0    1
 -2      8389      8379      8089      8099      8390      8380      8090      8100
 -1      6994    1    0    1
 -2      8390      8380      8090      8100      8391      8381      8091      8101
 -1      6995    1    0    1
 -2      8391      8381      8091      8101      8392      8382      8092      8102
 -1      6996    1    0    1
 -2      8392      8382      8092      8102      2808      2807      2778      2779
 -1      6997    1    0    1
 -2       808       807       778       779      8393      8383      8093      8103
 -1      6998    1    0    1
 -2      8393      8383      8093      8103      8394      8384      8094      8104
 -1      6999    1    0    1
 -2      8394      8384      8094      8104      8395      8385      8095      8105
 -1      7000    1    0    1
 -2      8395      8385      8095      8105      8396      8386      8096      8106
 -1      7001    1    0    1
 -2      8396      8386      8096      8106      8397      8387      8097      8107
 -1      7002    1    0    1
 -2      8397      8387      8097      8107      8398      8388      8098      8108
 -1      7003    1    0    1
 -2      8398      8388      8098      8108      8399      8389      8099      8109
 -1      7004    1    0    1
 -2      8399      8389      8099      8109      8400      8390      8100      8110
 -1      7005    1    0    1
 -2      8400      8390      8100      8110      8401      8391      8101      8111
 -1      7006    1    0    1
 -2      8401      8391      8101      8111      8402      8392      8102      8112
 -1      7007    1    0    1
 -2      8402      8392      8102      8112      2809      2808      2779      2780
 -1      7008    1    0    1
 -2       809       808       779       780      8403      8393      8103      8113
 -1      7009    1    0    1
 -2      8403      8393      8103      8113      8404      8394      8104      8114
 -1      7010    1    0    1
 -2      8404      8394      8104      8114      8405      8395      8105      8115
 -1      7011    1    0    1
 -2      8405      8395      8105      8115      8406      8396      8106      8116
 -1      7012    1    0    1
 -2      8406      8396      8106      8116      8407      8397      8107      8117
 -1      7013    1    0    1
 -2      8407      8397      8107      8117      8408      8398      8108      8118
 -1      7014    1    0    1
 -2      8408      8398      8108      8118      8409      8399      8109      8119
 -1      7015    1    0    1
 -2      8409      8399      8109      8119      8410      8400      8110      8120
 -1      7016    1    0    1
 -2      8410      8400      8110      8120      8411      8401      8111      8121
 -1      7017    1    0    1
 -2      8411      8401      8111      8121      8412      8402      8112      8122
 -1      7018    1    0    1
 -2      8412      8402      8112      8122      2810      2809      2780      2781
 -1      7019    1    0    1
 -2       810       809       780       781      8413      8403      8113      8123
 -1      7020    1    0    1
 -2      8413      8403      8113      8123      8414      8404      8114      8124
 -1      7021    1    0    1
 -2      8414      8404      8114      8124      8415      8405      8115      8125
 -1      7022    1    0    1
 -2      8415      8405      8115      8125      8416      8406      8116      8126
 -1      7023    1    0    1
 -2      8416      8406      8116      8126      8417      8407      8117      8127
 -1      7024    1    0    1
 -2      8417      8407      8117      8127      8418      8408      8118      8128
 -1      7025    1    0    1
 -2      8418      8408      8118      8128      8419      8409      8119      8129
 -1      7026    1    0    1
 -2      8419      8409      8119      8129      8420      8410      8120      8130
 -1      7027    1    0    1
 -2      8420      8410      8120      8130      8421      8411      8121      8131
 -1      7028    1    0    1
 -2      8421      8411      8121      8131      8422      8412      8122      8132
 -1      7029    1    0    1
 -2      8422      8412      8122      8132      2811      2810      2781      2782
 -1      7030    1    0    1
 -2       811       810       781       782      8423      8413      8123      8133
 -1      7031    1    0    1
 -2      8423      8413      8123      8133      8424      8414      8124      8134
 -1      7032    1    0    1
 -2      8424      8414      8124      8134      8425      8415      8125      8135
 -1      7033    1    0    1
 -2      8425      8415      8125      8135      8426      8416      8126      8136
 -1      7034    1    0    1
 -2      8426      8416      8126      8136      8427      8417      8127      8137
 -1      7035    1    0    1
 -2      8427      8417      8127      8137      8428      8418      8128      8138
 -1      7036    1    0    1
 -2      8428      8418      8128      8138      8429      8419      8129      8139
 -1      7037    1    0    1
 -2      8429      8419      8129      8139      8430      8420      8130      8140
 -1      7038    1    0    1
 -2      8430      8420      8130      8140      8431      8421      8131      8141
 -1      7039    1    0    1
 -2      8431      8421      8131      8141      8432      8422      8132      8142
 -1      7040    1    0    1
 -2      8432      8422      8132      8142      2812      2811      2782      2783
 -1      7041    1    0    1
 -2       812       811       782       783      8433      8423      8133      8143
 -1      7042    1    0    1
 -2      8433      8423      8133      8143      8434      8424      8134      8144
 -1      7043    1    0    1
 -2      8434      8424      8134      8144      8435      8425      8135      8145
 -1      7044    1    0    1
 -2      8435      8425      8135      8145      8436      8426      8136      8146
 -1      7045    1    0    1
 -2      8436      8426      8136      8146      8437      8427      8137      8147
 -1      7046    1    0    1
 -2      8437      8427      8137      8147      8438      8428      8138      8148
 -1      7047    1    0    1
 -2      8438      8428      8138      8148      8439      8429      8139      8149
 -1      7048    1    0    1
 -2      8439      8429      8139      8149      8440      8430      8140      8150
 -1      7049    1    0    1
 -2      8440      8430      8140      8150      8441      8431      8141      8151
 -1      7050    1    0    1
 -2      8441      8431      8141      8151      8442      8432      8142      8152
 -1      7051    1    0    1
 -2      8442      8432      8142      8152      2813      2812      2783      2784
 -1      7052    1    0    1
 -2       813       812       783       784      8443      8433      8143      8153
 -1      7053    1    0    1
 -2      8443      8433      8143      8153      8444      8434      8144      8154
 -1      7054    1    0    1
 -2      8444      8434      8144      8154      8445      8435      8145      8155
 -1      7055    1    0    1
 -2      8445      8435      8145      8155      8446      8436      8146      8156
 -1      7056    1    0    1
 -2      8446      8436      8146      8156      8447      8437      8147      8157
 -1      7057    1    0    1
 -2      8447      8437      8147      8157      8448      8438      8148      8158
 -1      7058    1    0    1
 -2      8448      8438      8148      8158      8449      8439      8149      8159
 -1      7059    1    0    1
 -2      8449      8439      8149      8159      8450      8440      8150      8160
 -1      7060    1    0    1
 -2      8450      8440      8150      8160      8451      8441      8151      8161
 -1      7061    1    0    1
 -2      8451      8441      8151      8161      8452      8442      8152      8162
 -1      7062    1    0    1
 -2      8452      8442      8152      8162      2814      2813      2784      2785
 -1      7063    1    0    1
 -2       814       813       784       785      8453      8443      8153      8163
 -1      7064    1    0    1
 -2      8453      8443      8153      8163      8454      8444      8154      8164
 -1      7065    1    0    1
 -2      8454      8444      8154      8164      8455      8445      8155      8165
 -1      7066    1    0    1
 -2      8455      8445      8155      8165      8456      8446      8156      8166
 -1      7067    1    0    1
 -2      8456      8446      8156      8166      8457      8447      8157      8167
 -1      7068    1    0    1
 -2      8457      8447      8157      8167      8458      8448      8158      8168
 -1      7069    1    0    1
 -2      8458      8448      8158      8168      8459      8449      8159      8169
 -1      7070    1    0    1
 -2      8459      8449      8159      8169      8460      8450      8160      8170
 -1      7071    1    0    1
 -2      8460      8450      8160      8170      8461      8451      8161      8171
 -1      7072    1    0    1
 -2      8461      8451      8161      8171      8462      8452      8162      8172
 -1      7073    1    0    1
 -2      8462      8452      8162      8172      2815      2814      2785      2786
 -1      7074    1    0    1
 -2       815       814       785       786      8463      8453      8163      8173
 -1      7075    1    0    1
 -2      8463      8453      8163      8173      8464      8454      8164      8174
 -1      7076    1    0    1
 -2      8464      8454      8164      8174      8465      8455      8165      8175
 -1      7077    1    0    1
 -2      8465      8455      8165      8175      8466      8456      8166      8176
 -1      7078    1    0    1
 -2      8466      8456      8166      8176      8467      8457      8167      8177
 -1      7079    1    0    1
 -2      8467      8457      8167      8177      8468      8458      8168      8178
 -1      7080    1    0    1
 -2      8468      8458      8168      8178      8469      8459      8169      8179
 -1      7081    1    0    1
 -2      8469      8459      8169      8179      8470      8460      8170      8180
 -1      7082    1    0    1
 -2      8470      8460      8170      8180      8471      8461      8171      8181
 -1      7083    1    0    1
 -2      8471      8461      8171      8181      8472      8462      8172      8182
 -1      7084    1    0    1
 -2      8472      8462      8172      8182      2816      2815      2786      2787
 -1      7085    1    0    1
 -2       816       815       786       787      8473      8463      8173      8183
 -1      7086    1    0    1
 -2      8473      8463      8173      8183      8474      8464      8174      8184
 -1      7087    1    0    1
 -2      8474      8464      8174      8184      8475      8465      8175      8185
 -1      7088    1    0    1
 -2      8475      8465      8175      8185      8476      8466      8176      8186
 -1      7089    1    0    1
 -2      8476      8466      8176      8186      8477      8467      8177      8187
 -1      7090    1    0    1
 -2      8477      8467      8177      8187      8478      8468      8178      8188
 -1      7091    1    0    1
 -2      8478      8468      8178      8188      8479      8469      8179      8189
 -1      7092    1    0    1
 -2      8479      8469      8179      8189      8480      8470      8180      8190
 -1      7093    1    0    1
 -2      8480      8470      8180      8190      8481      8471      8181      8191
 -1      7094    1    0    1
 -2      8481      8471      8181      8191      8482      8472      8182      8192
 -1      7095    1    0    1
 -2      8482      8472      8182      8192      2817      2816      2787      2788
 -1      7096    1    0    1
 -2       817       816       787       788      8483      8473      8183      8193
 -1      7097    1    0    1
 -2      8483      8473      8183      8193      8484      8474      8184      8194
 -1      7098    1    0    1
 -2      8484      8474      8184      8194      8485      8475      8185      8195
 -1      7099    1    0    1
 -2      8485      8475      8185      8195      8486      8476      8186      8196
 -1      7100    1    0    1
 -2      8486      8476      8186      8196      8487      8477      8187      8197
 -1      7101    1    0    1
 -2      8487      8477      8187      8197      8488      8478      8188      8198
 -1      7102    1    0    1
 -2      8488      8478      8188      8198      8489      8479      8189      8199
 -1      7103    1    0    1
 -2      8489      8479      8189      8199      8490      8480      8190      8200
 -1      7104    1    0    1
 -2      8490      8480      8190      8200      8491      8481      8191      8201
 -1      7105    1    0    1
 -2      8491      8481      8191      8201      8492      8482      8192      8202
 -1      7106    1    0    1
 -2      8492      8482      8192      8202      2818      2817      2788      2789
 -1      7107    1    0    1
 -2       818       817       788       789      8493      8483      8193      8203
 -1      7108    1    0    1
 -2      8493      8483      8193      8203      8494      8484      8194      8204
 -1      7109    1    0    1
 -2      8494      8484      8194      8204      8495      8485      8195      8205
 -1      7110    1    0    1
 -2      8495      8485      8195      8205      8496      8486      8196      8206
 -1      7111    1    0    1
 -2      8496      8486      8196      8206      8497      8487      8197      8207
 -1      7112    1    0    1
 -2      8497      8487      8197      8207      8498      8488      8198      8208
 -1      7113    1    0    1
 -2      8498      8488      8198      8208      8499      8489      8199      8209
 -1      7114    1    0    1
 -2      8499      8489      8199      8209      8500      8490      8200      8210
 -1      7115    1    0    1
 -2      8500      8490      8200      8210      8501      8491      8201      8211
 -1      7116    1    0    1
 -2      8501      8491      8201      8211      8502      8492      8202      8212
 -1      7117    1    0    1
 -2      8502      8492      8202      8212      2819      2818      2789      2790
 -1      7118    1    0    1
 -2       819       818       789       790      8503      8493      8203      8213
 -1      7119    1    0    1
 -2      8503      8493      8203      8213      8504      8494      8204      8214
 -1      7120    1    0    1
 -2      8504      8494      8204      8214      8505      8495      8205      8215
 -1      7121    1    0    1
 -2      8505      8495      8205      8215      8506      8496      8206      8216
 -1      7122    1    0    1
 -2      8506      8496      8206      8216      8507      8497      8207      8217
 -1      7123    1    0    1
 -2      8507      8497      8207      8217      8508      8498      8208      8218
 -1      7124    1    0    1
 -2      8508      8498      8208      8218      8509      8499      8209      8219
 -1      7125    1    0    1
 -2      8509      8499      8209      8219      8510      8500      8210      8220
 -1      7126    1    0    1
 -2      8510      8500      8210      8220      8511      8501      8211      8221
 -1      7127    1    0    1
 -2      8511      8501      8211      8221      8512      8502      8212      8222
 -1      7128    1    0    1
 -2      8512      8502      8212      8222      2820      2819      2790      2791
 -1      7129    1    0    1
 -2       820       819       790       791      8513      8503      8213      8223
 -1      7130    1    0    1
 -2      8513      8503      8213      8223      8514      8504      8214      8224
 -1      7131    1    0    1
 -2      8514      8504      8214      8224      8515      8505      8215      8225
 -1      7132    1    0    1
 -2      8515      8505      8215      8225      8516      8506      8216      8226
 -1      7133    1    0    1
 -2      8516      8506      8216      8226      8517      8507      8217      8227
 -1      7134    1    0    1
 -2      8517      8507      8217      8227      8518      8508      8218      8228
 -1      7135    1    0    1
 -2      8518      8508      8218      8228      8519      8509      8219      8229
 -1      7136    1    0    1
 -2      8519      8509      8219      8229      8520      8510      8220      8230
 -1      7137    1    0    1
 -2      8520      8510      8220      8230      8521      8511      8221      8231
 -1      7138    1    0    1
 -2      8521      8511      8221      8231      8522      8512      8222      8232
 -1      7139    1    0    1
 -2      8522      8512      8222      8232      2821      2820      2791      2792
 -1      7140    1    0    1
 -2       821       820       791       792      8523      8513      8223      8233
 -1      7141    1    0    1
 -2      8523      8513      8223      8233      8524      8514      8224      8234
 -1      7142    1    0    1
 -2      8524      8514      8224      8234      8525      8515      8225      8235
 -1      7143    1    0    1
 -2      8525      8515      8225      8235      8526      8516      8226      8236
 -1      7144    1    0    1
 -2      8526      8516      8226      8236      8527      8517      8227      8237
 -1      7145    1    0    1
 -2      8527      8517      8227      8237      8528      8518      8228      8238
 -1      7146    1    0    1
 -2      8528      8518      8228      8238      8529      8519      8229      8239
 -1      7147    1    0    1
 -2      8529      8519      8229      8239      8530      8520      8230      8240
 -1      7148    1    0    1
 -2      8530      8520      8230      8240      8531      8521      8231      8241
 -1      7149    1    0    1
 -2      8531      8521      8231      8241      8532      8522      8232      8242
 -1      7150    1    0    1
 -2      8532      8522      8232      8242      2822      2821      2792      2793
 -1      7151    1    0    1
 -2       822       821       792       793      8533      8523      8233      8243
 -1      7152    1    0    1
 -2      8533      8523      8233      8243      8534      8524      8234      8244
 -1      7153    1    0    1
 -2      8534      8524      8234      8244      8535      8525      8235      8245
 -1      7154    1    0    1
 -2      8535      8525      8235      8245      8536      8526      8236      8246
 -1      7155    1    0    1
 -2      8536      8526      8236      8246      8537      8527      8237      8247
 -1      7156    1    0    1
 -2      8537      8527      8237      8247      8538      8528      8238      8248
 -1      7157    1    0    1
 -2      8538      8528      8238      8248      8539      8529      8239      8249
 -1      7158    1    0    1
 -2      8539      8529      8239      8249      8540      8530      8240      8250
 -1      7159    1    0    1
 -2      8540      8530      8240      8250      8541      8531      8241      8251
 -1      7160    1    0    1
 -2      8541      8531      8241      8251      8542      8532      8242      8252
 -1      7161    1    0    1
 -2      8542      8532      8242      8252      2823      2822      2793      2794
 -1      7162    1    0    1
 -2       823       822       793       794      8543      8533      8243      8253
 -1      7163    1    0    1
 -2      8543      8533      8243      8253      8544      8534      8244      8254
 -1      7164    1    0    1
 -2      8544      8534      8244      8254      8545      8535      8245      8255
 -1      7165    1    0    1
 -2      8545      8535      8245      8255      8546      8536      8246      8256
 -1      7166    1    0    1
 -2      8546      8536      8246      8256      8547      8537      8247      8257
 -1      7167    1    0    1
 -2      8547      8537      8247      8257      8548      8538      8248      8258
 -1      7168    1    0    1
 -2      8548      8538      8248      8258      8549      8539      8249      8259
 -1      7169    1    0    1
 -2      8549      8539      8249      8259      8550      8540      8250      8260
 -1      7170    1    0    1
 -2      8550      8540      8250      8260      8551      8541      8251      8261
 -1      7171    1    0    1
 -2      8551      8541      8251      8261      8552      8542      8252      8262
 -1      7172    1    0    1
 -2      8552      8542      8252      8262      2824      2823      2794      2795
 -1      7173    1    0    1
 -2       824       823       794       795      8553      8543      8253      8263
 -1      7174    1    0    1
 -2      8553      8543      8253      8263      8554      8544      8254      8264
 -1      7175    1    0    1
 -2      8554      8544      8254      8264      8555      8545      8255      8265
 -1      7176    1    0    1
 -2      8555      8545      8255      8265      8556      8546      8256      8266
 -1      7177    1    0    1
 -2      8556      8546      8256      8266      8557      8547      8257      8267
 -1      7178    1    0    1
 -2      8557      8547      8257      8267      8558      8548      8258      8268
 -1      7179    1    0    1
 -2      8558      8548      8258      8268      8559      8549      8259      8269
 -1      7180    1    0    1
 -2      8559      8549      8259      8269      8560      8550      8260      8270
 -1      7181    1    0    1
 -2      8560      8550      8260      8270      8561      8551      8261      8271
 -1      7182    1    0    1
 -2      8561      8551      8261      8271      8562      8552      8262      8272
 -1      7183    1    0    1
 -2      8562      8552      8262      8272      2825      2824      2795      2796
 -1      7184    1    0    1
 -2       825       824       795       796      8563      8553      8263      8273
 -1      7185    1    0    1
 -2      8563      8553      8263      8273      8564      8554      8264      8274
 -1      7186    1    0    1
 -2      8564      8554      8264      8274      8565      8555      8265      8275
 -1      7187    1    0    1
 -2      8565      8555      8265      8275      8566      8556      8266      8276
 -1      7188    1    0    1
 -2      8566      8556      8266      8276      8567      8557      8267      8277
 -1      7189    1    0    1
 -2      8567      8557      8267      8277      8568      8558      8268      8278
 -1      7190    1    0    1
 -2      8568      8558      8268      8278      8569      8559      8269      8279
 -1      7191    1    0    1
 -2      8569      8559      8269      8279      8570      8560      8270      8280
 -1      7192    1    0    1
 -2      8570      8560      8270      8280      8571      8561      8271      8281
 -1      7193    1    0    1
 -2      8571      8561      8271      8281      8572      8562      8272      8282
 -1      7194    1    0    1
 -2      8572      8562      8272      8282      2826      2825      2796      2797
 -1      7195    1    0    1
 -2       826       825       796       797      8573      8563      8273      8283
 -1      7196    1    0    1
 -2      8573      8563      8273      8283      8574      8564      8274      8284
 -1      7197    1    0    1
 -2      8574      8564      8274      8284      8575      8565      8275      8285
 -1      7198    1    0    1
 -2      8575      8565      8275      8285      8576      8566      8276      8286
 -1      7199    1    0    1
 -2      8576      8566      8276      8286      8577      8567      8277      8287
 -1      7200    1    0    1
 -2      8577      8567      8277      8287      8578      8568      8278      8288
 -1      7201    1    0    1
 -2      8578      8568      8278      8288      8579      8569      8279      8289
 -1      7202    1    0    1
 -2      8579      8569      8279      8289      8580      8570      8280      8290
 -1      7203    1    0    1
 -2      8580      8570      8280      8290      8581      8571      8281      8291
 -1      7204    1    0    1
 -2      8581      8571      8281      8291      8582      8572      8282      8292
 -1      7205    1    0    1
 -2      8582      8572      8282      8292      2827      2826      2797      2798
 -1      7206    1    0    1
 -2       827       826       797       798      8583      8573      8283      8293
 -1      7207    1    0    1
 -2      8583      8573      8283      8293      8584      8574      8284      8294
 -1      7208    1    0    1
 -2      8584      8574      8284      8294      8585      8575      8285      8295
 -1      7209    1    0    1
 -2      8585      8575      8285      8295      8586      8576      8286      8296
 -1      7210    1    0    1
 -2      8586      8576      8286      8296      8587      8577      8287      8297
 -1      7211    1    0    1
 -2      8587      8577      8287      8297      8588      8578      8288      8298
 -1      7212    1    0    1
 -2      8588      8578      8288      8298      8589      8579      8289      8299
 -1      7213    1    0    1
 -2      8589      8579      8289      8299      8590      8580      8290      8300
 -1      7214    1    0    1
 -2      8590      8580      8290      8300      8591      8581      8291      8301
 -1      7215    1    0    1
 -2      8591      8581      8291      8301      8592      8582      8292      8302
 -1      7216    1    0    1
 -2      8592      8582      8292      8302      2828      2827      2798      2799
 -1      7217    1    0    1
 -2       828       827       798       799      8593      8583      8293      8303
 -1      7218    1    0    1
 -2      8593      8583      8293      8303      8594      8584      8294      8304
 -1      7219    1    0    1
 -2      8594      8584      8294      8304      8595      8585      8295      8305
 -1      7220    1    0    1
 -2      8595      8585      8295      8305      8596      8586      8296      8306
 -1      7221    1    0    1
 -2      8596      8586      8296      8306      8597      8587      8297      8307
 -1      7222    1    0    1
 -2      8597      8587      8297      8307      8598      8588      8298      8308
 -1      7223    1    0    1
 -2      8598      8588      8298      8308      8599      8589      8299      8309
 -1      7224    1    0    1
 -2      8599      8589      8299      8309      8600      8590      8300      8310
 -1      7225    1    0    1
 -2      8600      8590      8300      8310      8601      8591      8301      8311
 -1      7226    1    0    1
 -2      8601      8591      8301      8311      8602      8592      8302      8312
 -1      7227    1    0    1
 -2      8602      8592      8302      8312      2829      2828      2799      2800
 -1      7228    1    0    1
 -2       829       828       799       800      8603      8593      8303      8313
 -1      7229    1    0    1
 -2      8603      8593      8303      8313      8604      8594      8304      8314
 -1      7230    1    0    1
 -2      8604      8594      8304      8314      8605      8595      8305      8315
 -1      7231    1    0    1
 -2      8605      8595      8305      8315      8606      8596      8306      8316
 -1      7232    1    0    1
 -2      8606      8596      8306      8316      8607      8597      8307      8317
 -1      7233    1    0    1
 -2      8607      8597      8307      8317      8608      8598      8308      8318
 -1      7234    1    0    1
 -2      8608      8598      8308      8318      8609      8599      8309      8319
 -1      7235    1    0    1
 -2      8609      8599      8309      8319      8610      8600      8310      8320
 -1      7236    1    0    1
 -2      8610      8600      8310      8320      8611      8601      8311      8321
 -1      7237    1    0    1
 -2      8611      8601      8311      8321      8612      8602      8312      8322
 -1      7238    1    0    1
 -2      8612      8602      8312      8322      2830      2829      2800      2801
 -1      7239    1    0    1
 -2       830       829       800       801      8613      8603      8313      8323
 -1      7240    1    0    1
 -2      8613      8603      8313      8323      8614      8604      8314      8324
 -1      7241    1    0    1
 -2      8614      8604      8314      8324      8615      8605      8315      8325
 -1      7242    1    0    1
 -2      8615      8605      8315      8325      8616      8606      8316      8326
 -1      7243    1    0    1
 -2      8616      8606      8316      8326      8617      8607      8317      8327
 -1      7244    1    0    1
 -2      8617      8607      8317      8327      8618      8608      8318      8328
 -1      7245    1    0    1
 -2      8618      8608      8318      8328      8619      8609      8319      8329
 -1      7246    1    0    1
 -2      8619      8609      8319      8329      8620      8610      8320      8330
 -1      7247    1    0    1
 -2      8620      8610      8320      8330      8621      8611      8321      8331
 -1      7248    1    0    1
 -2      8621      8611      8321      8331      8622      8612      8322      8332
 -1      7249    1    0    1
 -2      8622      8612      8322      8332      2831      2830      2801      2802
 -1      7250    1    0    1
 -2       831       830       801       802      8623      8613      8323      8333
 -1      7251    1    0    1
 -2      8623      8613      8323      8333      8624      8614      8324      8334
 -1      7252    1    0    1
 -2      8624      8614      8324      8334      8625      8615      8325      8335
 -1      7253    1    0    1
 -2      8625      8615      8325      8335      8626      8616      8326      8336
 -1      7254    1    0    1
 -2      8626      8616      8326      8336      8627      8617      8327      8337
 -1      7255    1    0    1
 -2      8627      8617      8327      8337      8628      8618      8328      8338
 -1      7256    1    0    1
 -2      8628      8618      8328      8338      8629      8619      8329      8339
 -1      7257    1    0    1
 -2      8629      8619      8329      8339      8630      8620      8330      8340
 -1      7258    1    0    1
 -2      8630      8620      8330      8340      8631      8621      8331      8341
 -1      7259    1    0    1
 -2      8631      8621      8331      8341      8632      8622      8332      8342
 -1      7260    1    0    1
 -2      8632      8622      8332      8342      2832      2831      2802      2803
 -1      7261    1    0    1
 -2        77       831       802        78      1802      8623      8333      1812
 -1      7262    1    0    1
 -2      1802      8623      8333      1812      1803      8624      8334      1813
 -1      7263    1    0    1
 -2      1803      8624      8334      1813      1804      8625      8335      1814
 -1      7264    1    0    1
 -2      1804      8625      8335      1814      1805      8626      8336      1815
 -1      7265    1    0    1
 -2      1805      8626      8336      1815      1806      8627      8337      1816
 -1      7266    1    0    1
 -2      1806      8627      8337      1816      1807      8628      8338      1817
 -1      7267    1    0    1
 -2      1807      8628      8338      1817      1808      8629      8339      1818
 -1      7268    1    0    1
 -2      1808      8629      8339      1818      1809      8630      8340      1819
 -1      7269    1    0    1
 -2      1809      8630      8340      1819      1810      8631      8341      1820
 -1      7270    1    0    1
 -2      1810      8631      8341      1820      1811      8632      8342      1821
 -1      7271    1    0    1
 -2      1811      8632      8342      1821       193      2832      2803       194
 -1      7272    1    0    1
 -2       832        28        27       803      8633      1312      1302      8343
 -1      7273    1    0    1
 -2      8633      1312      1302      8343      8634      1313      1303      8344
 -1      7274    1    0    1
 -2      8634      1313      1303      8344      8635      1314      1304      8345
 -1      7275    1    0    1
 -2      8635      1314      1304      8345      8636      1315      1305      8346
 -1      7276    1    0    1
 -2      8636      1315      1305      8346      8637      1316      1306      8347
 -1      7277    1    0    1
 -2      8637      1316      1306      8347      8638      1317      1307      8348
 -1      7278    1    0    1
 -2      8638      1317      1307      8348      8639      1318      1308      8349
 -1      7279    1    0    1
 -2      8639      1318      1308      8349      8640      1319      1309      8350
 -1      7280    1    0    1
 -2      8640      1319      1309      8350      8641      1320      1310      8351
 -1      7281    1    0    1
 -2      8641      1320      1310      8351      8642      1321      1311      8352
 -1      7282    1    0    1
 -2      8642      1321      1311      8352      2833       144       143      2804
 -1      7283    1    0    1
 -2       833       832       803       804      8643      8633      8343      8353
 -1      7284    1    0    1
 -2      8643      8633      8343      8353      8644      8634      8344      8354
 -1      7285    1    0    1
 -2      8644      8634      8344      8354      8645      8635      8345      8355
 -1      7286    1    0    1
 -2      8645      8635      8345      8355      8646      8636      8346      8356
 -1      7287    1    0    1
 -2      8646      8636      8346      8356      8647      8637      8347      8357
 -1      7288    1    0    1
 -2      8647      8637      8347      8357      8648      8638      8348      8358
 -1      7289    1    0    1
 -2      8648      8638      8348      8358      8649      8639      8349      8359
 -1      7290    1    0    1
 -2      8649      8639      8349      8359      8650      8640      8350      8360
 -1      7291    1    0    1
 -2      8650      8640      8350      8360      8651      8641      8351      8361
 -1      7292    1    0    1
 -2      8651      8641      8351      8361      8652      8642      8352      8362
 -1      7293    1    0    1
 -2      8652      8642      8352      8362      2834      2833      2804      2805
 -1      7294    1    0    1
 -2       834       833       804       805      8653      8643      8353      8363
 -1      7295    1    0    1
 -2      8653      8643      8353      8363      8654      8644      8354      8364
 -1      7296    1    0    1
 -2      8654      8644      8354      8364      8655      8645      8355      8365
 -1      7297    1    0    1
 -2      8655      8645      8355      8365      8656      8646      8356      8366
 -1      7298    1    0    1
 -2      8656      8646      8356      8366      8657      8647      8357      8367
 -1      7299    1    0    1
 -2      8657      8647      8357      8367      8658      8648      8358      8368
 -1      7300    1    0    1
 -2      8658      8648      8358      8368      8659      8649      8359      8369
 -1      7301    1    0    1
 -2      8659      8649      8359      8369      8660      8650      8360      8370
 -1      7302    1    0    1
 -2      8660      8650      8360      8370      8661      8651      8361      8371
 -1      7303    1    0    1
 -2      8661      8651      8361      8371      8662      8652      8362      8372
 -1      7304    1    0    1
 -2      8662      8652      8362      8372      2835      2834      2805      2806
 -1      7305    1    0    1
 -2       835       834       805       806      8663      8653      8363      8373
 -1      7306    1    0    1
 -2      8663      8653      8363      8373      8664      8654      8364      8374
 -1      7307    1    0    1
 -2      8664      8654      8364      8374      8665      8655      8365      8375
 -1      7308    1    0    1
 -2      8665      8655      8365      8375      8666      8656      8366      8376
 -1      7309    1    0    1
 -2      8666      8656      8366      8376      8667      8657      8367      8377
 -1      7310    1    0    1
 -2      8667      8657      8367      8377      8668      8658      8368      8378
 -1      7311    1    0    1
 -2      8668      8658      8368      8378      8669      8659      8369      8379
 -1      7312    1    0    1
 -2      8669      8659      8369      8379      8670      8660      8370      8380
 -1      7313    1    0    1
 -2      8670      8660      8370      8380      8671      8661      8371      8381
 -1      7314    1    0    1
 -2      8671      8661      8371      8381      8672      8662      8372      8382
 -1      7315    1    0    1
 -2      8672      8662      8372      8382      2836      2835      2806      2807
 -1      7316    1    0    1
 -2       836       835       806       807      8673      8663      8373      8383
 -1      7317    1    0    1
 -2      8673      8663      8373      8383      8674      8664      8374      8384
 -1      7318    1    0    1
 -2      8674      8664      8374      8384      8675      8665      8375      8385
 -1      7319    1    0    1
 -2      8675      8665      8375      8385      8676      8666      8376      8386
 -1      7320    1    0    1
 -2      8676      8666      8376      8386      8677      8667      8377      8387
 -1      7321    1    0    1
 -2      8677      8667      8377      8387      8678      8668      8378      8388
 -1      7322    1    0    1
 -2      8678      8668      8378      8388      8679      8669      8379      8389
 -1      7323    1    0    1
 -2      8679      8669      8379      8389      8680      8670      8380      8390
 -1      7324    1    0    1
 -2      8680      8670      8380      8390      8681      8671      8381      8391
 -1      7325    1    0    1
 -2      8681      8671      8381      8391      8682      8672      8382      8392
 -1      7326    1    0    1
 -2      8682      8672      8382      8392      2837      2836      2807      2808
 -1      7327    1    0    1
 -2       837       836       807       808      8683      8673      8383      8393
 -1      7328    1    0    1
 -2      8683      8673      8383      8393      8684      8674      8384      8394
 -1      7329    1    0    1
 -2      8684      8674      8384      8394      8685      8675      8385      8395
 -1      7330    1    0    1
 -2      8685      8675      8385      8395      8686      8676      8386      8396
 -1      7331    1    0    1
 -2      8686      8676      8386      8396      8687      8677      8387      8397
 -1      7332    1    0    1
 -2      8687      8677      8387      8397      8688      8678      8388      8398
 -1      7333    1    0    1
 -2      8688      8678      8388      8398      8689      8679      8389      8399
 -1      7334    1    0    1
 -2      8689      8679      8389      8399      8690      8680      8390      8400
 -1      7335    1    0    1
 -2      8690      8680      8390      8400      8691      8681      8391      8401
 -1      7336    1    0    1
 -2      8691      8681      8391      8401      8692      8682      8392      8402
 -1      7337    1    0    1
 -2      8692      8682      8392      8402      2838      2837      2808      2809
 -1      7338    1    0    1
 -2       838       837       808       809      8693      8683      8393      8403
 -1      7339    1    0    1
 -2      8693      8683      8393      8403      8694      8684      8394      8404
 -1      7340    1    0    1
 -2      8694      8684      8394      8404      8695      8685      8395      8405
 -1      7341    1    0    1
 -2      8695      8685      8395      8405      8696      8686      8396      8406
 -1      7342    1    0    1
 -2      8696      8686      8396      8406      8697      8687      8397      8407
 -1      7343    1    0    1
 -2      8697      8687      8397      8407      8698      8688      8398      8408
 -1      7344    1    0    1
 -2      8698      8688      8398      8408      8699      8689      8399      8409
 -1      7345    1    0    1
 -2      8699      8689      8399      8409      8700      8690      8400      8410
 -1      7346    1    0    1
 -2      8700      8690      8400      8410      8701      8691      8401      8411
 -1      7347    1    0    1
 -2      8701      8691      8401      8411      8702      8692      8402      8412
 -1      7348    1    0    1
 -2      8702      8692      8402      8412      2839      2838      2809      2810
 -1      7349    1    0    1
 -2       839       838       809       810      8703      8693      8403      8413
 -1      7350    1    0    1
 -2      8703      8693      8403      8413      8704      8694      8404      8414
 -1      7351    1    0    1
 -2      8704      8694      8404      8414      8705      8695      8405      8415
 -1      7352    1    0    1
 -2      8705      8695      8405      8415      8706      8696      8406      8416
 -1      7353    1    0    1
 -2      8706      8696      8406      8416      8707      8697      8407      8417
 -1      7354    1    0    1
 -2      8707      8697      8407      8417      8708      8698      8408      8418
 -1      7355    1    0    1
 -2      8708      8698      8408      8418      8709      8699      8409      8419
 -1      7356    1    0    1
 -2      8709      8699      8409      8419      8710      8700      8410      8420
 -1      7357    1    0    1
 -2      8710      8700      8410      8420      8711      8701      8411      8421
 -1      7358    1    0    1
 -2      8711      8701      8411      8421      8712      8702      8412      8422
 -1      7359    1    0    1
 -2      8712      8702      8412      8422      2840      2839      2810      2811
 -1      7360    1    0    1
 -2       840       839       810       811      8713      8703      8413      8423
 -1      7361    1    0    1
 -2      8713      8703      8413      8423      8714      8704      8414      8424
 -1      7362    1    0    1
 -2      8714      8704      8414      8424      8715      8705      8415      8425
 -1      7363    1    0    1
 -2      8715      8705      8415      8425      8716      8706      8416      8426
 -1      7364    1    0    1
 -2      8716      8706      8416      8426      8717      8707      8417      8427
 -1      7365    1    0    1
 -2      8717      8707      8417      8427      8718      8708      8418      8428
 -1      7366    1    0    1
 -2      8718      8708      8418      8428      8719      8709      8419      8429
 -1      7367    1    0    1
 -2      8719      8709      8419      8429      8720      8710      8420      8430
 -1      7368    1    0    1
 -2      8720      8710      8420      8430      8721      8711      8421      8431
 -1      7369    1    0    1
 -2      8721      8711      8421      8431      8722      8712      8422      8432
 -1      7370    1    0    1
 -2      8722      8712      8422      8432      2841      2840      2811      2812
 -1      7371    1    0    1
 -2       841       840       811       812      8723      8713      8423      8433
 -1      7372    1    0    1
 -2      8723      8713      8423      8433      8724      8714      8424      8434
 -1      7373    1    0    1
 -2      8724      8714      8424      8434      8725      8715      8425      8435
 -1      7374    1    0    1
 -2      8725      8715      8425      8435      8726      8716      8426      8436
 -1      7375    1    0    1
 -2      8726      8716      8426      8436      8727      8717      8427      8437
 -1      7376    1    0    1
 -2      8727      8717      8427      8437      8728      8718      8428      8438
 -1      7377    1    0    1
 -2      8728      8718      8428      8438      8729      8719      8429      8439
 -1      7378    1    0    1
 -2      8729      8719      8429      8439      8730      8720      8430      8440
 -1      7379    1    0    1
 -2      8730      8720      8430      8440      8731      8721      8431      8441
 -1      7380    1    0    1
 -2      8731      8721      8431      8441      8732      8722      8432      8442
 -1      7381    1    0    1
 -2      8732      8722      8432      8442      2842      2841      2812      2813
 -1      7382    1    0    1
 -2       842       841       812       813      8733      8723      8433      8443
 -1      7383    1    0    1
 -2      8733      8723      8433      8443      8734      8724      8434      8444
 -1      7384    1    0    1
 -2      8734      8724      8434      8444      8735      8725      8435      8445
 -1      7385    1    0    1
 -2      8735      8725      8435      8445      8736      8726      8436      8446
 -1      7386    1    0    1
 -2      8736      8726      8436      8446      8737      8727      8437      8447
 -1      7387    1    0    1
 -2      8737      8727      8437      8447      8738      8728      8438      8448
 -1      7388    1    0    1
 -2      8738      8728      8438      8448      8739      8729      8439      8449
 -1      7389    1    0    1
 -2      8739      8729      8439      8449      8740      8730      8440      8450
 -1      7390    1    0    1
 -2      8740      8730      8440      8450      8741      8731      8441      8451
 -1      7391    1    0    1
 -2      8741      8731      8441      8451      8742      8732      8442      8452
 -1      7392    1    0    1
 -2      8742      8732      8442      8452      2843      2842      2813      2814
 -1      7393    1    0    1
 -2       843       842       813       814      8743      8733      8443      8453
 -1      7394    1    0    1
 -2      8743      8733      8443      8453      8744      8734      8444      8454
 -1      7395    1    0    1
 -2      8744      8734      8444      8454      8745      8735      8445      8455
 -1      7396    1    0    1
 -2      8745      8735      8445      8455      8746      8736      8446      8456
 -1      7397    1    0    1
 -2      8746      8736      8446      8456      8747      8737      8447      8457
 -1      7398    1    0    1
 -2      8747      8737      8447      8457      8748      8738      8448      8458
 -1      7399    1    0    1
 -2      8748      8738      8448      8458      8749      8739      8449      8459
 -1      7400    1    0    1
 -2      8749      8739      8449      8459      8750      8740      8450      8460
 -1      7401    1    0    1
 -2      8750      8740      8450      8460      8751      8741      8451      8461
 -1      7402    1    0    1
 -2      8751      8741      8451      8461      8752      8742      8452      8462
 -1      7403    1    0    1
 -2      8752      8742      8452      8462      2844      2843      2814      2815
 -1      7404    1    0    1
 -2       844       843       814       815      8753      8743      8453      8463
 -1      7405    1    0    1
 -2      8753      8743      8453      8463      8754      8744      8454      8464
 -1      7406    1    0    1
 -2      8754      8744      8454      8464      8755      8745      8455      8465
 -1      7407    1    0    1
 -2      8755      8745      8455      8465      8756      8746      8456      8466
 -1      7408    1    0    1
 -2      8756      8746      8456      8466      8757      8747      8457      8467
 -1      7409    1    0    1
 -2      8757      8747      8457      8467      8758      8748      8458      8468
 -1      7410    1    0    1
 -2      8758      8748      8458      8468      8759      8749      8459      8469
 -1      7411    1    0    1
 -2      8759      8749      8459      8469      8760      8750      8460      8470
 -1      7412    1    0    1
 -2      8760      8750      8460      8470      8761      8751      8461      8471
 -1      7413    1    0    1
 -2      8761      8751      8461      8471      8762      8752      8462      8472
 -1      7414    1    0    1
 -2      8762      8752      8462      8472      2845      2844      2815      2816
 -1      7415    1    0    1
 -2       845       844       815       816      8763      8753      8463      8473
 -1      7416    1    0    1
 -2      8763      8753      8463      8473      8764      8754      8464      8474
 -1      7417    1    0    1
 -2      8764      8754      8464      8474      8765      8755      8465      8475
 -1      7418    1    0    1
 -2      8765      8755      8465      8475      8766      8756      8466      8476
 -1      7419    1    0    1
 -2      8766      8756      8466      8476      8767      8757      8467      8477
 -1      7420    1    0    1
 -2      8767      8757      8467      8477      8768      8758      8468      8478
 -1      7421    1    0    1
 -2      8768      8758      8468      8478      8769      8759      8469      8479
 -1      7422    1    0    1
 -2      8769      8759      8469      8479      8770      8760      8470      8480
 -1      7423    1    0    1
 -2      8770      8760      8470      8480      8771      8761      8471      8481
 -1      7424    1    0    1
 -2      8771      8761      8471      8481      8772      8762      8472      8482
 -1      7425    1    0    1
 -2      8772      8762      8472      8482      2846      2845      2816      2817
 -1      7426    1    0    1
 -2       846       845       816       817      8773      8763      8473      8483
 -1      7427    1    0    1
 -2      8773      8763      8473      8483      8774      8764      8474      8484
 -1      7428    1    0    1
 -2      8774      8764      8474      8484      8775      8765      8475      8485
 -1      7429    1    0    1
 -2      8775      8765      8475      8485      8776      8766      8476      8486
 -1      7430    1    0    1
 -2      8776      8766      8476      8486      8777      8767      8477      8487
 -1      7431    1    0    1
 -2      8777      8767      8477      8487      8778      8768      8478      8488
 -1      7432    1    0    1
 -2      8778      8768      8478      8488      8779      8769      8479      8489
 -1      7433    1    0    1
 -2      8779      8769      8479      8489      8780      8770      8480      8490
 -1      7434    1    0    1
 -2      8780      8770      8480      8490      8781      8771      8481      8491
 -1      7435    1    0    1
 -2      8781      8771      8481      8491      8782      8772      8482      8492
 -1      7436    1    0    1
 -2      8782      8772      8482      8492      2847      2846      2817      2818
 -1      7437    1    0    1
 -2       847       846       817       818      8783      8773      8483      8493
 -1      7438    1    0    1
 -2      8783      8773      8483      8493      8784      8774      8484      8494
 -1      7439    1    0    1
 -2      8784      8774      8484      8494      8785      8775      8485      8495
 -1      7440    1    0    1
 -2      8785      8775      8485      8495      8786      8776      8486      8496
 -1      7441    1    0    1
 -2      8786      8776      8486      8496      8787      8777      8487      8497
 -1      7442    1    0    1
 -2      8787      8777      8487      8497      8788      8778      8488      8498
 -1      7443    1    0    1
 -2      8788      8778      8488      8498      8789      8779      8489      8499
 -1      7444    1    0    1
 -2      8789      8779      8489      8499      8790      8780      8490      8500
 -1      7445    1    0    1
 -2      8790      8780      8490      8500      8791      8781      8491      8501
 -1      7446    1    0    1
 -2      8791      8781      8491      8501      8792      8782      8492      8502
 -1      7447    1    0    1
 -2      8792      8782      8492      8502      2848      2847      2818      2819
 -1      7448    1    0    1
 -2       848       847       818       819      8793      8783      8493      8503
 -1      7449    1    0    1
 -2      8793      8783      8493      8503      8794      8784      8494      8504
 -1      7450    1    0    1
 -2      8794      8784      8494      8504      8795      8785      8495      8505
 -1      7451    1    0    1
 -2      8795      8785      8495      8505      8796      8786      8496      8506
 -1      7452    1    0    1
 -2      8796      8786      8496      8506      8797      8787      8497      8507
 -1      7453    1    0    1
 -2      8797      8787      8497      8507      8798      8788      8498      8508
 -1      7454    1    0    1
 -2      8798      8788      8498      8508      8799      8789      8499      8509
 -1      7455    1    0    1
 -2      8799      8789      8499      8509      8800      8790      8500      8510
 -1      7456    1    0    1
 -2      8800      8790      8500      8510      8801      8791      8501      8511
 -1      7457    1    0    1
 -2      8801      8791      8501      8511      8802      8792      8502      8512
 -1      7458    1    0    1
 -2      8802      8792      8502      8512      2849      2848      2819      2820
 -1      7459    1    0    1
 -2       849       848       819       820      8803      8793      8503      8513
 -1      7460    1    0    1
 -2      8803      8793      8503      8513      8804      8794      8504      8514
 -1      7461    1    0    1
 -2      8804      8794      8504      8514      8805      8795      8505      8515
 -1      7462    1    0    1
 -2      8805      8795      8505      8515      8806      8796      8506      8516
 -1      7463    1    0    1
 -2      8806      8796      8506      8516      8807      8797      8507      8517
 -1      7464    1    0    1
 -2      8807      8797      8507      8517      8808      8798      8508      8518
 -1      7465    1    0    1
 -2      8808      8798      8508      8518      8809      8799      8509      8519
 -1      7466    1    0    1
 -2      8809      8799      8509      8519      8810      8800      8510      8520
 -1      7467    1    0    1
 -2      8810      8800      8510      8520      8811      8801      8511      8521
 -1      7468    1    0    1
 -2      8811      8801      8511      8521      8812      8802      8512      8522
 -1      7469    1    0    1
 -2      8812      8802      8512      8522      2850      2849      2820      2821
 -1      7470    1    0    1
 -2       850       849       820       821      8813      8803      8513      8523
 -1      7471    1    0    1
 -2      8813      8803      8513      8523      8814      8804      8514      8524
 -1      7472    1    0    1
 -2      8814      8804      8514      8524      8815      8805      8515      8525
 -1      7473    1    0    1
 -2      8815      8805      8515      8525      8816      8806      8516      8526
 -1      7474    1    0    1
 -2      8816      8806      8516      8526      8817      8807      8517      8527
 -1      7475    1    0    1
 -2      8817      8807      8517      8527      8818      8808      8518      8528
 -1      7476    1    0    1
 -2      8818      8808      8518      8528      8819      8809      8519      8529
 -1      7477    1    0    1
 -2      8819      8809      8519      8529      8820      8810      8520      8530
 -1      7478    1    0    1
 -2      8820      8810      8520      8530      8821      8811      8521      8531
 -1      7479    1    0    1
 -2      8821      8811      8521      8531      8822      8812      8522      8532
 -1      7480    1    0    1
 -2      8822      8812      8522      8532      2851      2850      2821      2822
 -1      7481    1    0    1
 -2       851       850       821       822      8823      8813      8523      8533
 -1      7482    1    0    1
 -2      8823      8813      8523      8533      8824      8814      8524      8534
 -1      7483    1    0    1
 -2      8824      8814      8524      8534      8825      8815      8525      8535
 -1      7484    1    0    1
 -2      8825      8815      8525      8535      8826      8816      8526      8536
 -1      7485    1    0    1
 -2      8826      8816      8526      8536      8827      8817      8527      8537
 -1      7486    1    0    1
 -2      8827      8817      8527      8537      8828      8818      8528      8538
 -1      7487    1    0    1
 -2      8828      8818      8528      8538      8829      8819      8529      8539
 -1      7488    1    0    1
 -2      8829      8819      8529      8539      8830      8820      8530      8540
 -1      7489    1    0    1
 -2      8830      8820      8530      8540      8831      8821      8531      8541
 -1      7490    1    0    1
 -2      8831      8821      8531      8541      8832      8822      8532      8542
 -1      7491    1    0    1
 -2      8832      8822      8532      8542      2852      2851      2822      2823
 -1      7492    1    0    1
 -2       852       851       822       823      8833      8823      8533      8543
 -1      7493    1    0    1
 -2      8833      8823      8533      8543      8834      8824      8534      8544
 -1      7494    1    0    1
 -2      8834      8824      8534      8544      8835      8825      8535      8545
 -1      7495    1    0    1
 -2      8835      8825      8535      8545      8836      8826      8536      8546
 -1      7496    1    0    1
 -2      8836      8826      8536      8546      8837      8827      8537      8547
 -1      7497    1    0    1
 -2      8837      8827      8537      8547      8838      8828      8538      8548
 -1      7498    1    0    1
 -2      8838      8828      8538      8548      8839      8829      8539      8549
 -1      7499    1    0    1
 -2      8839      8829      8539      8549      8840      8830      8540      8550
 -1      7500    1    0    1
 -2      8840      8830      8540      8550      8841      8831      8541      8551
 -1      7501    1    0    1
 -2      8841      8831      8541      8551      8842      8832      8542      8552
 -1      7502    1    0    1
 -2      8842      8832      8542      8552      2853      2852      2823      2824
 -1      7503    1    0    1
 -2       853       852       823       824      8843      8833      8543      8553
 -1      7504    1    0    1
 -2      8843      8833      8543      8553      8844      8834      8544      8554
 -1      7505    1    0    1
 -2      8844      8834      8544      8554      8845      8835      8545      8555
 -1      7506    1    0    1
 -2      8845      8835      8545      8555      8846      8836      8546      8556
 -1      7507    1    0    1
 -2      8846      8836      8546      8556      8847      8837      8547      8557
 -1      7508    1    0    1
 -2      8847      8837      8547      8557      8848      8838      8548      8558
 -1      7509    1    0    1
 -2      8848      8838      8548      8558      8849      8839      8549      8559
 -1      7510    1    0    1
 -2      8849      8839      8549      8559      8850      8840      8550      8560
 -1      7511    1    0    1
 -2      8850      8840      8550      8560      8851      8841      8551      8561
 -1      7512    1    0    1
 -2      8851      8841      8551      8561      8852      8842      8552      8562
 -1      7513    1    0    1
 -2      8852      8842      8552      8562      2854      2853      2824      2825
 -1      7514    1    0    1
 -2       854       853       824       825      8853      8843      8553      8563
 -1      7515    1    0    1
 -2      8853      8843      8553      8563      8854      8844      8554      8564
 -1      7516    1    0    1
 -2      8854      8844      8554      8564      8855      8845      8555      8565
 -1      7517    1    0    1
 -2      8855      8845      8555      8565      8856      8846      8556      8566
 -1      7518    1    0    1
 -2      8856      8846      8556      8566      8857      8847      8557      8567
 -1      7519    1    0    1
 -2      8857      8847      8557      8567      8858      8848      8558      8568
 -1      7520    1    0    1
 -2      8858      8848      8558      8568      8859      8849      8559      8569
 -1      7521    1    0    1
 -2      8859      8849      8559      8569      8860      8850      8560      8570
 -1      7522    1    0    1
 -2      8860      8850      8560      8570      8861      8851      8561      8571
 -1      7523    1    0    1
 -2      8861      8851      8561      8571      8862      8852      8562      8572
 -1      7524    1    0    1
 -2      8862      8852      8562      8572      2855      2854      2825      2826
 -1      7525    1    0    1
 -2       855       854       825       826      8863      8853      8563      8573
 -1      7526    1    0    1
 -2      8863      8853      8563      8573      8864      8854      8564      8574
 -1      7527    1    0    1
 -2      8864      8854      8564      8574      8865      8855      8565      8575
 -1      7528    1    0    1
 -2      8865      8855      8565      8575      8866      8856      8566      8576
 -1      7529    1    0    1
 -2      8866      8856      8566      8576      8867      8857      8567      8577
 -1      7530    1    0    1
 -2      8867      8857      8567      8577      8868      8858      8568      8578
 -1      7531    1    0    1
 -2      8868      8858      8568      8578      8869      8859      8569      8579
 -1      7532    1    0    1
 -2      8869      8859      8569      8579      8870      8860      8570      8580
 -1      7533    1    0    1
 -2      8870      8860      8570      8580      8871      8861      8571      8581
 -1      7534    1    0    1
 -2      8871      8861      8571      8581      8872      8862      8572      8582
 -1      7535    1    0    1
 -2      8872      8862      8572      8582      2856      2855      2826      2827
 -1      7536    1    0    1
 -2       856       855       826       827      8873      8863      8573      8583
 -1      7537    1    0    1
 -2      8873      8863      8573      8583      8874      8864      8574      8584
 -1      7538    1    0    1
 -2      8874      8864      8574      8584      8875      8865      8575      8585
 -1      7539    1    0    1
 -2      8875      8865      8575      8585      8876      8866      8576      8586
 -1      7540    1    0    1
 -2      8876      8866      8576      8586      8877      8867      8577      8587
 -1      7541    1    0    1
 -2      8877      8867      8577      8587      8878      8868      8578      8588
 -1      7542    1    0    1
 -2      8878      8868      8578      8588      8879      8869      8579      8589
 -1      7543    1    0    1
 -2      8879      8869      8579      8589      8880      8870      8580      8590
 -1      7544    1    0    1
 -2      8880      8870      8580      8590      8881      8871      8581      8591
 -1      7545    1    0    1
 -2      8881      8871      8581      8591      8882      8872      8582      8592
 -1      7546    1    0    1
 -2      8882      8872      8582      8592      2857      2856      2827      2828
 -1      7547    1    0    1
 -2       857       856       827       828      8883      8873      8583      8593
 -1      7548    1    0    1
 -2      8883      8873      8583      8593      8884      8874      8584      8594
 -1      7549    1    0    1
 -2      8884      8874      8584      8594      8885      8875      8585      8595
 -1      7550    1    0    1
 -2      8885      8875      8585      8595      8886      8876      8586      8596
 -1      7551    1    0    1
 -2      8886      8876      8586      8596      8887      8877      8587      8597
 -1      7552    1    0    1
 -2      8887      8877      8587      8597      8888      8878      8588      8598
 -1      7553    1    0    1
 -2      8888      8878      8588      8598      8889      8879      8589      8599
 -1      7554    1    0    1
 -2      8889      8879      8589      8599      8890      8880      8590      8600
 -1      7555    1    0    1
 -2      8890      8880      8590      8600      8891      8881      8591      8601
 -1      7556    1    0    1
 -2      8891      8881      8591      8601      8892      8882      8592      8602
 -1      7557    1    0    1
 -2      8892      8882      8592      8602      2858      2857      2828      2829
 -1      7558    1    0    1
 -2       858       857       828       829      8893      8883      8593      8603
 -1      7559    1    0    1
 -2      8893      8883      8593      8603      8894      8884      8594      8604
 -1      7560    1    0    1
 -2      8894      8884      8594      8604      8895      8885      8595      8605
 -1      7561    1    0    1
 -2      8895      8885      8595      8605      8896      8886      8596      8606
 -1      7562    1    0    1
 -2      8896      8886      8596      8606      8897      8887      8597      8607
 -1      7563    1    0    1
 -2      8897      8887      8597      8607      8898      8888      8598      8608
 -1      7564    1    0    1
 -2      8898      8888      8598      8608      8899      8889      8599      8609
 -1      7565    1    0    1
 -2      8899      8889      8599      8609      8900      8890      8600      8610
 -1      7566    1    0    1
 -2      8900      8890      8600      8610      8901      8891      8601      8611
 -1      7567    1    0    1
 -2      8901      8891      8601      8611      8902      8892      8602      8612
 -1      7568    1    0    1
 -2      8902      8892      8602      8612      2859      2858      2829      2830
 -1      7569    1    0    1
 -2       859       858       829       830      8903      8893      8603      8613
 -1      7570    1    0    1
 -2      8903      8893      8603      8613      8904      8894      8604      8614
 -1      7571    1    0    1
 -2      8904      8894      8604      8614      8905      8895      8605      8615
 -1      7572    1    0    1
 -2      8905      8895      8605      8615      8906      8896      8606      8616
 -1      7573    1    0    1
 -2      8906      8896      8606      8616      8907      8897      8607      8617
 -1      7574    1    0    1
 -2      8907      8897      8607      8617      8908      8898      8608      8618
 -1      7575    1    0    1
 -2      8908      8898      8608      8618      8909      8899      8609      8619
 -1      7576    1    0    1
 -2      8909      8899      8609      8619      8910      8900      8610      8620
 -1      7577    1    0    1
 -2      8910      8900      8610      8620      8911      8901      8611      8621
 -1      7578    1    0    1
 -2      8911      8901      8611      8621      8912      8902      8612      8622
 -1      7579    1    0    1
 -2      8912      8902      8612      8622      2860      2859      2830      2831
 -1      7580    1    0    1
 -2       860       859       830       831      8913      8903      8613      8623
 -1      7581    1    0    1
 -2      8913      8903      8613      8623      8914      8904      8614      8624
 -1      7582    1    0    1
 -2      8914      8904      8614      8624      8915      8905      8615      8625
 -1      7583    1    0    1
 -2      8915      8905      8615      8625      8916      8906      8616      8626
 -1      7584    1    0    1
 -2      8916      8906      8616      8626      8917      8907      8617      8627
 -1      7585    1    0    1
 -2      8917      8907      8617      8627      8918      8908      8618      8628
 -1      7586    1    0    1
 -2      8918      8908      8618      8628      8919      8909      8619      8629
 -1      7587    1    0    1
 -2      8919      8909      8619      8629      8920      8910      8620      8630
 -1      7588    1    0    1
 -2      8920      8910      8620      8630      8921      8911      8621      8631
 -1      7589    1    0    1
 -2      8921      8911      8621      8631      8922      8912      8622      8632
 -1      7590    1    0    1
 -2      8922      8912      8622      8632      2861      2860      2831      2832
 -1      7591    1    0    1
 -2        76       860       831        77      1792      8913      8623      1802
 -1      7592    1    0    1
 -2      1792      8913      8623      1802      1793      8914      8624      1803
 -1      7593    1    0    1
 -2      1793      8914      8624      1803      1794      8915      8625      1804
 -1      7594    1    0    1
 -2      1794      8915      8625      1804      1795      8916      8626      1805
 -1      7595    1    0    1
 -2      1795      8916      8626      1805      1796      8917      8627      1806
 -1      7596    1    0    1
 -2      1796      8917      8627      1806      1797      8918      8628      1807
 -1      7597    1    0    1
 -2      1797      8918      8628      1807      1798      8919      8629      1808
 -1      7598    1    0    1
 -2      1798      8919      8629      1808      1799      8920      8630      1809
 -1      7599    1    0    1
 -2      1799      8920      8630      1809      1800      8921      8631      1810
 -1      7600    1    0    1
 -2      1800      8921      8631      1810      1801      8922      8632      1811
 -1      7601    1    0    1
 -2      1801      8922      8632      1811       192      2861      2832       193
 -1      7602    1    0    1
 -2       861        29        28       832      8923      1322      1312      8633
 -1      7603    1    0    1
 -2      8923      1322      1312      8633      8924      1323      1313      8634
 -1      7604    1    0    1
 -2      8924      1323      1313      8634      8925      1324      1314      8635
 -1      7605    1    0    1
 -2      8925      1324      1314      8635      8926      1325      1315      8636
 -1      7606    1    0    1
 -2      8926      1325      1315      8636      8927      1326      1316      8637
 -1      7607    1    0    1
 -2      8927      1326      1316      8637      8928      1327      1317      8638
 -1      7608    1    0    1
 -2      8928      1327      1317      8638      8929      1328      1318      8639
 -1      7609    1    0    1
 -2      8929      1328      1318      8639      8930      1329      1319      8640
 -1      7610    1    0    1
 -2      8930      1329      1319      8640      8931      1330      1320      8641
 -1      7611    1    0    1
 -2      8931      1330      1320      8641      8932      1331      1321      8642
 -1      7612    1    0    1
 -2      8932      1331      1321      8642      2862       145       144      2833
 -1      7613    1    0    1
 -2       862       861       832       833      8933      8923      8633      8643
 -1      7614    1    0    1
 -2      8933      8923      8633      8643      8934      8924      8634      8644
 -1      7615    1    0    1
 -2      8934      8924      8634      8644      8935      8925      8635      8645
 -1      7616    1    0    1
 -2      8935      8925      8635      8645      8936      8926      8636      8646
 -1      7617    1    0    1
 -2      8936      8926      8636      8646      8937      8927      8637      8647
 -1      7618    1    0    1
 -2      8937      8927      8637      8647      8938      8928      8638      8648
 -1      7619    1    0    1
 -2      8938      8928      8638      8648      8939      8929      8639      8649
 -1      7620    1    0    1
 -2      8939      8929      8639      8649      8940      8930      8640      8650
 -1      7621    1    0    1
 -2      8940      8930      8640      8650      8941      8931      8641      8651
 -1      7622    1    0    1
 -2      8941      8931      8641      8651      8942      8932      8642      8652
 -1      7623    1    0    1
 -2      8942      8932      8642      8652      2863      2862      2833      2834
 -1      7624    1    0    1
 -2       863       862       833       834      8943      8933      8643      8653
 -1      7625    1    0    1
 -2      8943      8933      8643      8653      8944      8934      8644      8654
 -1      7626    1    0    1
 -2      8944      8934      8644      8654      8945      8935      8645      8655
 -1      7627    1    0    1
 -2      8945      8935      8645      8655      8946      8936      8646      8656
 -1      7628    1    0    1
 -2      8946      8936      8646      8656      8947      8937      8647      8657
 -1      7629    1    0    1
 -2      8947      8937      8647      8657      8948      8938      8648      8658
 -1      7630    1    0    1
 -2      8948      8938      8648      8658      8949      8939      8649      8659
 -1      7631    1    0    1
 -2      8949      8939      8649      8659      8950      8940      8650      8660
 -1      7632    1    0    1
 -2      8950      8940      8650      8660      8951      8941      8651      8661
 -1      7633    1    0    1
 -2      8951      8941      8651      8661      8952      8942      8652      8662
 -1      7634    1    0    1
 -2      8952      8942      8652      8662      2864      2863      2834      2835
 -1      7635    1    0    1
 -2       864       863       834       835      8953      8943      8653      8663
 -1      7636    1    0    1
 -2      8953      8943      8653      8663      8954      8944      8654      8664
 -1      7637    1    0    1
 -2      8954      8944      8654      8664      8955      8945      8655      8665
 -1      7638    1    0    1
 -2      8955      8945      8655      8665      8956      8946      8656      8666
 -1      7639    1    0    1
 -2      8956      8946      8656      8666      8957      8947      8657      8667
 -1      7640    1    0    1
 -2      8957      8947      8657      8667      8958      8948      8658      8668
 -1      7641    1    0    1
 -2      8958      8948      8658      8668      8959      8949      8659      8669
 -1      7642    1    0    1
 -2      8959      8949      8659      8669      8960      8950      8660      8670
 -1      7643    1    0    1
 -2      8960      8950      8660      8670      8961      8951      8661      8671
 -1      7644    1    0    1
 -2      8961      8951      8661      8671      8962      8952      8662      8672
 -1      7645    1    0    1
 -2      8962      8952      8662      8672      2865      2864      2835      2836
 -1      7646    1    0    1
 -2       865       864       835       836      8963      8953      8663      8673
 -1      7647    1    0    1
 -2      8963      8953      8663      8673      8964      8954      8664      8674
 -1      7648    1    0    1
 -2      8964      8954      8664      8674      8965      8955      8665      8675
 -1      7649    1    0    1
 -2      8965      8955      8665      8675      8966      8956      8666      8676
 -1      7650    1    0    1
 -2      8966      8956      8666      8676      8967      8957      8667      8677
 -1      7651    1    0    1
 -2      8967      8957      8667      8677      8968      8958      8668      8678
 -1      7652    1    0    1
 -2      8968      8958      8668      8678      8969      8959      8669      8679
 -1      7653    1    0    1
 -2      8969      8959      8669      8679      8970      8960      8670      8680
 -1      7654    1    0    1
 -2      8970      8960      8670      8680      8971      8961      8671      8681
 -1      7655    1    0    1
 -2      8971      8961      8671      8681      8972      8962      8672      8682
 -1      7656    1    0    1
 -2      8972      8962      8672      8682      2866      2865      2836      2837
 -1      7657    1    0    1
 -2       866       865       836       837      8973      8963      8673      8683
 -1      7658    1    0    1
 -2      8973      8963      8673      8683      8974      8964      8674      8684
 -1      7659    1    0    1
 -2      8974      8964      8674      8684      8975      8965      8675      8685
 -1      7660    1    0    1
 -2      8975      8965      8675      8685      8976      8966      8676      8686
 -1      7661    1    0    1
 -2      8976      8966      8676      8686      8977      8967      8677      8687
 -1      7662    1    0    1
 -2      8977      8967      8677      8687      8978      8968      8678      8688
 -1      7663    1    0    1
 -2      8978      8968      8678      8688      8979      8969      8679      8689
 -1      7664    1    0    1
 -2      8979      8969      8679      8689      8980      8970      8680      8690
 -1      7665    1    0    1
 -2      8980      8970      8680      8690      8981      8971      8681      8691
 -1      7666    1    0    1
 -2      8981      8971      8681      8691      8982      8972      8682      8692
 -1      7667    1    0    1
 -2      8982      8972      8682      8692      2867      2866      2837      2838
 -1      7668    1    0    1
 -2       867       866       837       838      8983      8973      8683      8693
 -1      7669    1    0    1
 -2      8983      8973      8683      8693      8984      8974      8684      8694
 -1      7670    1    0    1
 -2      8984      8974      8684      8694      8985      8975      8685      8695
 -1      7671    1    0    1
 -2      8985      8975      8685      8695      8986      8976      8686      8696
 -1      7672    1    0    1
 -2      8986      8976      8686      8696      8987      8977      8687      8697
 -1      7673    1    0    1
 -2      8987      8977      8687      8697      8988      8978      8688      8698
 -1      7674    1    0    1
 -2      8988      8978      8688      8698      8989      8979      8689      8699
 -1      7675    1    0    1
 -2      8989      8979      8689      8699      8990      8980      8690      8700
 -1      7676    1    0    1
 -2      8990      8980      8690      8700      8991      8981      8691      8701
 -1      7677    1    0    1
 -2      8991      8981      8691      8701      8992      8982      8692      8702
 -1      7678    1    0    1
 -2      8992      8982      8692      8702      2868      2867      2838      2839
 -1      7679    1    0    1
 -2       868       867       838       839      8993      8983      8693      8703
 -1      7680    1    0    1
 -2      8993      8983      8693      8703      8994      8984      8694      8704
 -1      7681    1    0    1
 -2      8994      8984      8694      8704      8995      8985      8695      8705
 -1      7682    1    0    1
 -2      8995      8985      8695      8705      8996      8986      8696      8706
 -1      7683    1    0    1
 -2      8996      8986      8696      8706      8997      8987      8697      8707
 -1      7684    1    0    1
 -2      8997      8987      8697      8707      8998      8988      8698      8708
 -1      7685    1    0    1
 -2      8998      8988      8698      8708      8999      8989      8699      8709
 -1      7686    1    0    1
 -2      8999      8989      8699      8709      9000      8990      8700      8710
 -1      7687    1    0    1
 -2      9000      8990      8700      8710      9001      8991      8701      8711
 -1      7688    1    0    1
 -2      9001      8991      8701      8711      9002      8992      8702      8712
 -1      7689    1    0    1
 -2      9002      8992      8702      8712      2869      2868      2839      2840
 -1      7690    1    0    1
 -2       869       868       839       840      9003      8993      8703      8713
 -1      7691    1    0    1
 -2      9003      8993      8703      8713      9004      8994      8704      8714
 -1      7692    1    0    1
 -2      9004      8994      8704      8714      9005      8995      8705      8715
 -1      7693    1    0    1
 -2      9005      8995      8705      8715      9006      8996      8706      8716
 -1      7694    1    0    1
 -2      9006      8996      8706      8716      9007      8997      8707      8717
 -1      7695    1    0    1
 -2      9007      8997      8707      8717      9008      8998      8708      8718
 -1      7696    1    0    1
 -2      9008      8998      8708      8718      9009      8999      8709      8719
 -1      7697    1    0    1
 -2      9009      8999      8709      8719      9010      9000      8710      8720
 -1      7698    1    0    1
 -2      9010      9000      8710      8720      9011      9001      8711      8721
 -1      7699    1    0    1
 -2      9011      9001      8711      8721      9012      9002      8712      8722
 -1      7700    1    0    1
 -2      9012      9002      8712      8722      2870      2869      2840      2841
 -1      7701    1    0    1
 -2       870       869       840       841      9013      9003      8713      8723
 -1      7702    1    0    1
 -2      9013      9003      8713      8723      9014      9004      8714      8724
 -1      7703    1    0    1
 -2      9014      9004      8714      8724      9015      9005      8715      8725
 -1      7704    1    0    1
 -2      9015      9005      8715      8725      9016      9006      8716      8726
 -1      7705    1    0    1
 -2      9016      9006      8716      8726      9017      9007      8717      8727
 -1      7706    1    0    1
 -2      9017      9007      8717      8727      9018      9008      8718      8728
 -1      7707    1    0    1
 -2      9018      9008      8718      8728      9019      9009      8719      8729
 -1      7708    1    0    1
 -2      9019      9009      8719      8729      9020      9010      8720      8730
 -1      7709    1    0    1
 -2      9020      9010      8720      8730      9021      9011      8721      8731
 -1      7710    1    0    1
 -2      9021      9011      8721      8731      9022      9012      8722      8732
 -1      7711    1    0    1
 -2      9022      9012      8722      8732      2871      2870      2841      2842
 -1      7712    1    0    1
 -2       871       870       841       842      9023      9013      8723      8733
 -1      7713    1    0    1
 -2      9023      9013      8723      8733      9024      9014      8724      8734
 -1      7714    1    0    1
 -2      9024      9014      8724      8734      9025      9015      8725      8735
 -1      7715    1    0    1
 -2      9025      9015      8725      8735      9026      9016      8726      8736
 -1      7716    1    0    1
 -2      9026      9016      8726      8736      9027      9017      8727      8737
 -1      7717    1    0    1
 -2      9027      9017      8727      8737      9028      9018      8728      8738
 -1      7718    1    0    1
 -2      9028      9018      8728      8738      9029      9019      8729      8739
 -1      7719    1    0    1
 -2      9029      9019      8729      8739      9030      9020      8730      8740
 -1      7720    1    0    1
 -2      9030      9020      8730      8740      9031      9021      8731      8741
 -1      7721    1    0    1
 -2      9031      9021      8731      8741      9032      9022      8732      8742
 -1      7722    1    0    1
 -2      9032      9022      8732      8742      2872      2871      2842      2843
 -1      7723    1    0    1
 -2       872       871       842       843      9033      9023      8733      8743
 -1      7724    1    0    1
 -2      9033      9023      8733      8743      9034      9024      8734      8744
 -1      7725    1    0    1
 -2      9034      9024      8734      8744      9035      9025      8735      8745
 -1      7726    1    0    1
 -2      9035      9025      8735      8745      9036      9026      8736      8746
 -1      7727    1    0    1
 -2      9036      9026      8736      8746      9037      9027      8737      8747
 -1      7728    1    0    1
 -2      9037      9027      8737      8747      9038      9028      8738      8748
 -1      7729    1    0    1
 -2      9038      9028      8738      8748      9039      9029      8739      8749
 -1      7730    1    0    1
 -2      9039      9029      8739      8749      9040      9030      8740      8750
 -1      7731    1    0    1
 -2      9040      9030      8740      8750      9041      9031      8741      8751
 -1      7732    1    0    1
 -2      9041      9031      8741      8751      9042      9032      8742      8752
 -1      7733    1    0    1
 -2      9042      9032      8742      8752      2873      2872      2843      2844
 -1      7734    1    0    1
 -2       873       872       843       844      9043      9033      8743      8753
 -1      7735    1    0    1
 -2      9043      9033      8743      8753      9044      9034      8744      8754
 -1      7736    1    0    1
 -2      9044      9034      8744      8754      9045      9035      8745      8755
 -1      7737    1    0    1
 -2      9045      9035      8745      8755      9046      9036      8746      8756
 -1      7738    1    0    1
 -2      9046      9036      8746      8756      9047      9037      8747      8757
 -1      7739    1    0    1
 -2      9047      9037      8747      8757      9048      9038      8748      8758
 -1      7740    1    0    1
 -2      9048      9038      8748      8758      9049      9039      8749      8759
 -1      7741    1    0    1
 -2      9049      9039      8749      8759      9050      9040      8750      8760
 -1      7742    1    0    1
 -2      9050      9040      8750      8760      9051      9041      8751      8761
 -1      7743    1    0    1
 -2      9051      9041      8751      8761      9052      9042      8752      8762
 -1      7744    1    0    1
 -2      9052      9042      8752      8762      2874      2873      2844      2845
 -1      7745    1    0    1
 -2       874       873       844       845      9053      9043      8753      8763
 -1      7746    1    0    1
 -2      9053      9043      8753      8763      9054      9044      8754      8764
 -1      7747    1    0    1
 -2      9054      9044      8754      8764      9055      9045      8755      8765
 -1      7748    1    0    1
 -2      9055      9045      8755      8765      9056      9046      8756      8766
 -1      7749    1    0    1
 -2      9056      9046      8756      8766      9057      9047      8757      8767
 -1      7750    1    0    1
 -2      9057      9047      8757      8767      9058      9048      8758      8768
 -1      7751    1    0    1
 -2      9058      9048      8758      8768      9059      9049      8759      8769
 -1      7752    1    0    1
 -2      9059      9049      8759      8769      9060      9050      8760      8770
 -1      7753    1    0    1
 -2      9060      9050      8760      8770      9061      9051      8761      8771
 -1      7754    1    0    1
 -2      9061      9051      8761      8771      9062      9052      8762      8772
 -1      7755    1    0    1
 -2      9062      9052      8762      8772      2875      2874      2845      2846
 -1      7756    1    0    1
 -2       875       874       845       846      9063      9053      8763      8773
 -1      7757    1    0    1
 -2      9063      9053      8763      8773      9064      9054      8764      8774
 -1      7758    1    0    1
 -2      9064      9054      8764      8774      9065      9055      8765      8775
 -1      7759    1    0    1
 -2      9065      9055      8765      8775      9066      9056      8766      8776
 -1      7760    1    0    1
 -2      9066      9056      8766      8776      9067      9057      8767      8777
 -1      7761    1    0    1
 -2      9067      9057      8767      8777      9068      9058      8768      8778
 -1      7762    1    0    1
 -2      9068      9058      8768      8778      9069      9059      8769      8779
 -1      7763    1    0    1
 -2      9069      9059      8769      8779      9070      9060      8770      8780
 -1      7764    1    0    1
 -2      9070      9060      8770      8780      9071      9061      8771      8781
 -1      7765    1    0    1
 -2      9071      9061      8771      8781      9072      9062      8772      8782
 -1      7766    1    0    1
 -2      9072      9062      8772      8782      2876      2875      2846      2847
 -1      7767    1    0    1
 -2       876       875       846       847      9073      9063      8773      8783
 -1      7768    1    0    1
 -2      9073      9063      8773      8783      9074      9064      8774      8784
 -1      7769    1    0    1
 -2      9074      9064      8774      8784      9075      9065      8775      8785
 -1      7770    1    0    1
 -2      9075      9065      8775      8785      9076      9066      8776      8786
 -1      7771    1    0    1
 -2      9076      9066      8776      8786      9077      9067      8777      8787
 -1      7772    1    0    1
 -2      9077      9067      8777      8787      9078      9068      8778      8788
 -1      7773    1    0    1
 -2      9078      9068      8778      8788      9079      9069      8779      8789
 -1      7774    1    0    1
 -2      9079      9069      8779      8789      9080      9070      8780      8790
 -1      7775    1    0    1
 -2      9080      9070      8780      8790      9081      9071      8781      8791
 -1      7776    1    0    1
 -2      9081      9071      8781      8791      9082      9072      8782      8792
 -1      7777    1    0    1
 -2      9082      9072      8782      8792      2877      2876      2847      2848
 -1      7778    1    0    1
 -2       877       876       847       848      9083      9073      8783      8793
 -1      7779    1    0    1
 -2      9083      9073      8783      8793      9084      9074      8784      8794
 -1      7780    1    0    1
 -2      9084      9074      8784      8794      9085      9075      8785      8795
 -1      7781    1    0    1
 -2      9085      9075      8785      8795      9086      9076      8786      8796
 -1      7782    1    0    1
 -2      9086      9076      8786      8796      9087      9077      8787      8797
 -1      7783    1    0    1
 -2      9087      9077      8787      8797      9088      9078      8788      8798
 -1      7784    1    0    1
 -2      9088      9078      8788      8798      9089      9079      8789      8799
 -1      7785    1    0    1
 -2      9089      9079      8789      8799      9090      9080      8790      8800
 -1      7786    1    0    1
 -2      9090      9080      8790      8800      9091      9081      8791      8801
 -1      7787    1    0    1
 -2      9091      9081      8791      8801      9092      9082      8792      8802
 -1      7788    1    0    1
 -2      9092      9082      8792      8802      2878      2877      2848      2849
 -1      7789    1    0    1
 -2       878       877       848       849      9093      9083      8793      8803
 -1      7790    1    0    1
 -2      9093      9083      8793      8803      9094      9084      8794      8804
 -1      7791    1    0    1
 -2      9094      9084      8794      8804      9095      9085      8795      8805
 -1      7792    1    0    1
 -2      9095      9085      8795      8805      9096      9086      8796      8806
 -1      7793    1    0    1
 -2      9096      9086      8796      8806      9097      9087      8797      8807
 -1      7794    1    0    1
 -2      9097      9087      8797      8807      9098      9088      8798      8808
 -1      7795    1    0    1
 -2      9098      9088      8798      8808      9099      9089      8799      8809
 -1      7796    1    0    1
 -2      9099      9089      8799      8809      9100      9090      8800      8810
 -1      7797    1    0    1
 -2      9100      9090      8800      8810      9101      9091      8801      8811
 -1      7798    1    0    1
 -2      9101      9091      8801      8811      9102      9092      8802      8812
 -1      7799    1    0    1
 -2      9102      9092      8802      8812      2879      2878      2849      2850
 -1      7800    1    0    1
 -2       879       878       849       850      9103      9093      8803      8813
 -1      7801    1    0    1
 -2      9103      9093      8803      8813      9104      9094      8804      8814
 -1      7802    1    0    1
 -2      9104      9094      8804      8814      9105      9095      8805      8815
 -1      7803    1    0    1
 -2      9105      9095      8805      8815      9106      9096      8806      8816
 -1      7804    1    0    1
 -2      9106      9096      8806      8816      9107      9097      8807      8817
 -1      7805    1    0    1
 -2      9107      9097      8807      8817      9108      9098      8808      8818
 -1      7806    1    0    1
 -2      9108      9098      8808      8818      9109      9099      8809      8819
 -1      7807    1    0    1
 -2      9109      9099      8809      8819      9110      9100      8810      8820
 -1      7808    1    0    1
 -2      9110      9100      8810      8820      9111      9101      8811      8821
 -1      7809    1    0    1
 -2      9111      9101      8811      8821      9112      9102      8812      8822
 -1      7810    1    0    1
 -2      9112      9102      8812      8822      2880      2879      2850      2851
 -1      7811    1    0    1
 -2       880       879       850       851      9113      9103      8813      8823
 -1      7812    1    0    1
 -2      9113      9103      8813      8823      9114      9104      8814      8824
 -1      7813    1    0    1
 -2      9114      9104      8814      8824      9115      9105      8815      8825
 -1      7814    1    0    1
 -2      9115      9105      8815      8825      9116      9106      8816      8826
 -1      7815    1    0    1
 -2      9116      9106      8816      8826      9117      9107      8817      8827
 -1      7816    1    0    1
 -2      9117      9107      8817      8827      9118      9108      8818      8828
 -1      7817    1    0    1
 -2      9118      9108      8818      8828      9119      9109      8819      8829
 -1      7818    1    0    1
 -2      9119      9109      8819      8829      9120      9110      8820      8830
 -1      7819    1    0    1
 -2      9120      9110      8820      8830      9121      9111      8821      8831
 -1      7820    1    0    1
 -2      9121      9111      8821      8831      9122      9112      8822      8832
 -1      7821    1    0    1
 -2      9122      9112      8822      8832      2881      2880      2851      2852
 -1      7822    1    0    1
 -2       881       880       851       852      9123      9113      8823      8833
 -1      7823    1    0    1
 -2      9123      9113      8823      8833      9124      9114      8824      8834
 -1      7824    1    0    1
 -2      9124      9114      8824      8834      9125      9115      8825      8835
 -1      7825    1    0    1
 -2      9125      9115      8825      8835      9126      9116      8826      8836
 -1      7826    1    0    1
 -2      9126      9116      8826      8836      9127      9117      8827      8837
 -1      7827    1    0    1
 -2      9127      9117      8827      8837      9128      9118      8828      8838
 -1      7828    1    0    1
 -2      9128      9118      8828      8838      9129      9119      8829      8839
 -1      7829    1    0    1
 -2      9129      9119      8829      8839      9130      9120      8830      8840
 -1      7830    1    0    1
 -2      9130      9120      8830      8840      9131      9121      8831      8841
 -1      7831    1    0    1
 -2      9131      9121      8831      8841      9132      9122      8832      8842
 -1      7832    1    0    1
 -2      9132      9122      8832      8842      2882      2881      2852      2853
 -1      7833    1    0    1
 -2       882       881       852       853      9133      9123      8833      8843
 -1      7834    1    0    1
 -2      9133      9123      8833      8843      9134      9124      8834      8844
 -1      7835    1    0    1
 -2      9134      9124      8834      8844      9135      9125      8835      8845
 -1      7836    1    0    1
 -2      9135      9125      8835      8845      9136      9126      8836      8846
 -1      7837    1    0    1
 -2      9136      9126      8836      8846      9137      9127      8837      8847
 -1      7838    1    0    1
 -2      9137      9127      8837      8847      9138      9128      8838      8848
 -1      7839    1    0    1
 -2      9138      9128      8838      8848      9139      9129      8839      8849
 -1      7840    1    0    1
 -2      9139      9129      8839      8849      9140      9130      8840      8850
 -1      7841    1    0    1
 -2      9140      9130      8840      8850      9141      9131      8841      8851
 -1      7842    1    0    1
 -2      9141      9131      8841      8851      9142      9132      8842      8852
 -1      7843    1    0    1
 -2      9142      9132      8842      8852      2883      2882      2853      2854
 -1      7844    1    0    1
 -2       883       882       853       854      9143      9133      8843      8853
 -1      7845    1    0    1
 -2      9143      9133      8843      8853      9144      9134      8844      8854
 -1      7846    1    0    1
 -2      9144      9134      8844      8854      9145      9135      8845      8855
 -1      7847    1    0    1
 -2      9145      9135      8845      8855      9146      9136      8846      8856
 -1      7848    1    0    1
 -2      9146      9136      8846      8856      9147      9137      8847      8857
 -1      7849    1    0    1
 -2      9147      9137      8847      8857      9148      9138      8848      8858
 -1      7850    1    0    1
 -2      9148      9138      8848      8858      9149      9139      8849      8859
 -1      7851    1    0    1
 -2      9149      9139      8849      8859      9150      9140      8850      8860
 -1      7852    1    0    1
 -2      9150      9140      8850      8860      9151      9141      8851      8861
 -1      7853    1    0    1
 -2      9151      9141      8851      8861      9152      9142      8852      8862
 -1      7854    1    0    1
 -2      9152      9142      8852      8862      2884      2883      2854      2855
 -1      7855    1    0    1
 -2       884       883       854       855      9153      9143      8853      8863
 -1      7856    1    0    1
 -2      9153      9143      8853      8863      9154      9144      8854      8864
 -1      7857    1    0    1
 -2      9154      9144      8854      8864      9155      9145      8855      8865
 -1      7858    1    0    1
 -2      9155      9145      8855      8865      9156      9146      8856      8866
 -1      7859    1    0    1
 -2      9156      9146      8856      8866      9157      9147      8857      8867
 -1      7860    1    0    1
 -2      9157      9147      8857      8867      9158      9148      8858      8868
 -1      7861    1    0    1
 -2      9158      9148      8858      8868      9159      9149      8859      8869
 -1      7862    1    0    1
 -2      9159      9149      8859      8869      9160      9150      8860      8870
 -1      7863    1    0    1
 -2      9160      9150      8860      8870      9161      9151      8861      8871
 -1      7864    1    0    1
 -2      9161      9151      8861      8871      9162      9152      8862      8872
 -1      7865    1    0    1
 -2      9162      9152      8862      8872      2885      2884      2855      2856
 -1      7866    1    0    1
 -2       885       884       855       856      9163      9153      8863      8873
 -1      7867    1    0    1
 -2      9163      9153      8863      8873      9164      9154      8864      8874
 -1      7868    1    0    1
 -2      9164      9154      8864      8874      9165      9155      8865      8875
 -1      7869    1    0    1
 -2      9165      9155      8865      8875      9166      9156      8866      8876
 -1      7870    1    0    1
 -2      9166      9156      8866      8876      9167      9157      8867      8877
 -1      7871    1    0    1
 -2      9167      9157      8867      8877      9168      9158      8868      8878
 -1      7872    1    0    1
 -2      9168      9158      8868      8878      9169      9159      8869      8879
 -1      7873    1    0    1
 -2      9169      9159      8869      8879      9170      9160      8870      8880
 -1      7874    1    0    1
 -2      9170      9160      8870      8880      9171      9161      8871      8881
 -1      7875    1    0    1
 -2      9171      9161      8871      8881      9172      9162      8872      8882
 -1      7876    1    0    1
 -2      9172      9162      8872      8882      2886      2885      2856      2857
 -1      7877    1    0    1
 -2       886       885       856       857      9173      9163      8873      8883
 -1      7878    1    0    1
 -2      9173      9163      8873      8883      9174      9164      8874      8884
 -1      7879    1    0    1
 -2      9174      9164      8874      8884      9175      9165      8875      8885
 -1      7880    1    0    1
 -2      9175      9165      8875      8885      9176      9166      8876      8886
 -1      7881    1    0    1
 -2      9176      9166      8876      8886      9177      9167      8877      8887
 -1      7882    1    0    1
 -2      9177      9167      8877      8887      9178      9168      8878      8888
 -1      7883    1    0    1
 -2      9178      9168      8878      8888      9179      9169      8879      8889
 -1      7884    1    0    1
 -2      9179      9169      8879      8889      9180      9170      8880      8890
 -1      7885    1    0    1
 -2      9180      9170      8880      8890      9181      9171      8881      8891
 -1      7886    1    0    1
 -2      9181      9171      8881      8891      9182      9172      8882      8892
 -1      7887    1    0    1
 -2      9182      9172      8882      8892      2887      2886      2857      2858
 -1      7888    1    0    1
 -2       887       886       857       858      9183      9173      8883      8893
 -1      7889    1    0    1
 -2      9183      9173      8883      8893      9184      9174      8884      8894
 -1      7890    1    0    1
 -2      9184      9174      8884      8894      9185      9175      8885      8895
 -1      7891    1    0    1
 -2      9185      9175      8885      8895      9186      9176      8886      8896
 -1      7892    1    0    1
 -2      9186      9176      8886      8896      9187      9177      8887      8897
 -1      7893    1    0    1
 -2      9187      9177      8887      8897      9188      9178      8888      8898
 -1      7894    1    0    1
 -2      9188      9178      8888      8898      9189      9179      8889      8899
 -1      7895    1    0    1
 -2      9189      9179      8889      8899      9190      9180      8890      8900
 -1      7896    1    0    1
 -2      9190      9180      8890      8900      9191      9181      8891      8901
 -1      7897    1    0    1
 -2      9191      9181      8891      8901      9192      9182      8892      8902
 -1      7898    1    0    1
 -2      9192      9182      8892      8902      2888      2887      2858      2859
 -1      7899    1    0    1
 -2       888       887       858       859      9193      9183      8893      8903
 -1      7900    1    0    1
 -2      9193      9183      8893      8903      9194      9184      8894      8904
 -1      7901    1    0    1
 -2      9194      9184      8894      8904      9195      9185      8895      8905
 -1      7902    1    0    1
 -2      9195      9185      8895      8905      9196      9186      8896      8906
 -1      7903    1    0    1
 -2      9196      9186      8896      8906      9197      9187      8897      8907
 -1      7904    1    0    1
 -2      9197      9187      8897      8907      9198      9188      8898      8908
 -1      7905    1    0    1
 -2      9198      9188      8898      8908      9199      9189      8899      8909
 -1      7906    1    0    1
 -2      9199      9189      8899      8909      9200      9190      8900      8910
 -1      7907    1    0    1
 -2      9200      9190      8900      8910      9201      9191      8901      8911
 -1      7908    1    0    1
 -2      9201      9191      8901      8911      9202      9192      8902      8912
 -1      7909    1    0    1
 -2      9202      9192      8902      8912      2889      2888      2859      2860
 -1      7910    1    0    1
 -2       889       888       859       860      9203      9193      8903      8913
 -1      7911    1    0    1
 -2      9203      9193      8903      8913      9204      9194      8904      8914
 -1      7912    1    0    1
 -2      9204      9194      8904      8914      9205      9195      8905      8915
 -1      7913    1    0    1
 -2      9205      9195      8905      8915      9206      9196      8906      8916
 -1      7914    1    0    1
 -2      9206      9196      8906      8916      9207      9197      8907      8917
 -1      7915    1    0    1
 -2      9207      9197      8907      8917      9208      9198      8908      8918
 -1      7916    1    0    1
 -2      9208      9198      8908      8918      9209      9199      8909      8919
 -1      7917    1    0    1
 -2      9209      9199      8909      8919      9210      9200      8910      8920
 -1      7918    1    0    1
 -2      9210      9200      8910      8920      9211      9201      8911      8921
 -1      7919    1    0    1
 -2      9211      9201      8911      8921      9212      9202      8912      8922
 -1      7920    1    0    1
 -2      9212      9202      8912      8922      2890      2889      2860      2861
 -1      7921    1    0    1
 -2        75       889       860        76      1782      9203      8913      1792
 -1      7922    1    0    1
 -2      1782      9203      8913      1792      1783      9204      8914      1793
 -1      7923    1    0    1
 -2      1783      9204      8914      1793      1784      9205      8915      1794
 -1      7924    1    0    1
 -2      1784      9205      8915      1794      1785      9206      8916      1795
 -1      7925    1    0    1
 -2      1785      9206      8916      1795      1786      9207      8917      1796
 -1      7926    1    0    1
 -2      1786      9207      8917      1796      1787      9208      8918      1797
 -1      7927    1    0    1
 -2      1787      9208      8918      1797      1788      9209      8919      1798
 -1      7928    1    0    1
 -2      1788      9209      8919      1798      1789      9210      8920      1799
 -1      7929    1    0    1
 -2      1789      9210      8920      1799      1790      9211      8921      1800
 -1      7930    1    0    1
 -2      1790      9211      8921      1800      1791      9212      8922      1801
 -1      7931    1    0    1
 -2      1791      9212      8922      1801       191      2890      2861       192
 -1      7932    1    0    1
 -2       890        30        29       861      9213      1332      1322      8923
 -1      7933    1    0    1
 -2      9213      1332      1322      8923      9214      1333      1323      8924
 -1      7934    1    0    1
 -2      9214      1333      1323      8924      9215      1334      1324      8925
 -1      7935    1    0    1
 -2      9215      1334      1324      8925      9216      1335      1325      8926
 -1      7936    1    0    1
 -2      9216      1335      1325      8926      9217      1336      1326      8927
 -1      7937    1    0    1
 -2      9217      1336      1326      8927      9218      1337      1327      8928
 -1      7938    1    0    1
 -2      9218      1337      1327      8928      9219      1338      1328      8929
 -1      7939    1    0    1
 -2      9219      1338      1328      8929      9220      1339      1329      8930
 -1      7940    1    0    1
 -2      9220      1339      1329      8930      9221      1340      1330      8931
 -1      7941    1    0    1
 -2      9221      1340      1330      8931      9222      1341      1331      8932
 -1      7942    1    0    1
 -2      9222      1341      1331      8932      2891       146       145      2862
 -1      7943    1    0    1
 -2       891       890       861       862      9223      9213      8923      8933
 -1      7944    1    0    1
 -2      9223      9213      8923      8933      9224      9214      8924      8934
 -1      7945    1    0    1
 -2      9224      9214      8924      8934      9225      9215      8925      8935
 -1      7946    1    0    1
 -2      9225      9215      8925      8935      9226      9216      8926      8936
 -1      7947    1    0    1
 -2      9226      9216      8926      8936      9227      9217      8927      8937
 -1      7948    1    0    1
 -2      9227      9217      8927      8937      9228      9218      8928      8938
 -1      7949    1    0    1
 -2      9228      9218      8928      8938      9229      9219      8929      8939
 -1      7950    1    0    1
 -2      9229      9219      8929      8939      9230      9220      8930      8940
 -1      7951    1    0    1
 -2      9230      9220      8930      8940      9231      9221      8931      8941
 -1      7952    1    0    1
 -2      9231      9221      8931      8941      9232      9222      8932      8942
 -1      7953    1    0    1
 -2      9232      9222      8932      8942      2892      2891      2862      2863
 -1      7954    1    0    1
 -2       892       891       862       863      9233      9223      8933      8943
 -1      7955    1    0    1
 -2      9233      9223      8933      8943      9234      9224      8934      8944
 -1      7956    1    0    1
 -2      9234      9224      8934      8944      9235      9225      8935      8945
 -1      7957    1    0    1
 -2      9235      9225      8935      8945      9236      9226      8936      8946
 -1      7958    1    0    1
 -2      9236      9226      8936      8946      9237      9227      8937      8947
 -1      7959    1    0    1
 -2      9237      9227      8937      8947      9238      9228      8938      8948
 -1      7960    1    0    1
 -2      9238      9228      8938      8948      9239      9229      8939      8949
 -1      7961    1    0    1
 -2      9239      9229      8939      8949      9240      9230      8940      8950
 -1      7962    1    0    1
 -2      9240      9230      8940      8950      9241      9231      8941      8951
 -1      7963    1    0    1
 -2      9241      9231      8941      8951      9242      9232      8942      8952
 -1      7964    1    0    1
 -2      9242      9232      8942      8952      2893      2892      2863      2864
 -1      7965    1    0    1
 -2       893       892       863       864      9243      9233      8943      8953
 -1      7966    1    0    1
 -2      9243      9233      8943      8953      9244      9234      8944      8954
 -1      7967    1    0    1
 -2      9244      9234      8944      8954      9245      9235      8945      8955
 -1      7968    1    0    1
 -2      9245      9235      8945      8955      9246      9236      8946      8956
 -1      7969    1    0    1
 -2      9246      9236      8946      8956      9247      9237      8947      8957
 -1      7970    1    0    1
 -2      9247      9237      8947      8957      9248      9238      8948      8958
 -1      7971    1    0    1
 -2      9248      9238      8948      8958      9249      9239      8949      8959
 -1      7972    1    0    1
 -2      9249      9239      8949      8959      9250      9240      8950      8960
 -1      7973    1    0    1
 -2      9250      9240      8950      8960      9251      9241      8951      8961
 -1      7974    1    0    1
 -2      9251      9241      8951      8961      9252      9242      8952      8962
 -1      7975    1    0    1
 -2      9252      9242      8952      8962      2894      2893      2864      2865
 -1      7976    1    0    1
 -2       894       893       864       865      9253      9243      8953      8963
 -1      7977    1    0    1
 -2      9253      9243      8953      8963      9254      9244      8954      8964
 -1      7978    1    0    1
 -2      9254      9244      8954      8964      9255      9245      8955      8965
 -1      7979    1    0    1
 -2      9255      9245      8955      8965      9256      9246      8956      8966
 -1      7980    1    0    1
 -2      9256      9246      8956      8966      9257      9247      8957      8967
 -1      7981    1    0    1
 -2      9257      9247      8957      8967      9258      9248      8958      8968
 -1      7982    1    0    1
 -2      9258      9248      8958      8968      9259      9249      8959      8969
 -1      7983    1    0    1
 -2      9259      9249      8959      8969      9260      9250      8960      8970
 -1      7984    1    0    1
 -2      9260      9250      8960      8970      9261      9251      8961      8971
 -1      7985    1    0    1
 -2      9261      9251      8961      8971      9262      9252      8962      8972
 -1      7986    1    0    1
 -2      9262      9252      8962      8972      2895      2894      2865      2866
 -1      7987    1    0    1
 -2       895       894       865       866      9263      9253      8963      8973
 -1      7988    1    0    1
 -2      9263      9253      8963      8973      9264      9254      8964      8974
 -1      7989    1    0    1
 -2      9264      9254      8964      8974      9265      9255      8965      8975
 -1      7990    1    0    1
 -2      9265      9255      8965      8975      9266      9256      8966      8976
 -1      7991    1    0    1
 -2      9266      9256      8966      8976      9267      9257      8967      8977
 -1      7992    1    0    1
 -2      9267      9257      8967      8977      9268      9258      8968      8978
 -1      7993    1    0    1
 -2      9268      9258      8968      8978      9269      9259      8969      8979
 -1      7994    1    0    1
 -2      9269      9259      8969      8979      9270      9260      8970      8980
 -1      7995    1    0    1
 -2      9270      9260      8970      8980      9271      9261      8971      8981
 -1      7996    1    0    1
 -2      9271      9261      8971      8981      9272      9262      8972      8982
 -1      7997    1    0    1
 -2      9272      9262      8972      8982      2896      2895      2866      2867
 -1      7998    1    0    1
 -2       896       895       866       867      9273      9263      8973      8983
 -1      7999    1    0    1
 -2      9273      9263      8973      8983      9274      9264      8974      8984
 -1      8000    1    0    1
 -2      9274      9264      8974      8984      9275      9265      8975      8985
 -1      8001    1    0    1
 -2      9275      9265      8975      8985      9276      9266      8976      8986
 -1      8002    1    0    1
 -2      9276      9266      8976      8986      9277      9267      8977      8987
 -1      8003    1    0    1
 -2      9277      9267      8977      8987      9278      9268      8978      8988
 -1      8004    1    0    1
 -2      9278      9268      8978      8988      9279      9269      8979      8989
 -1      8005    1    0    1
 -2      9279      9269      8979      8989      9280      9270      8980      8990
 -1      8006    1    0    1
 -2      9280      9270      8980      8990      9281      9271      8981      8991
 -1      8007    1    0    1
 -2      9281      9271      8981      8991      9282      9272      8982      8992
 -1      8008    1    0    1
 -2      9282      9272      8982      8992      2897      2896      2867      2868
 -1      8009    1    0    1
 -2       897       896       867       868      9283      9273      8983      8993
 -1      8010    1    0    1
 -2      9283      9273      8983      8993      9284      9274      8984      8994
 -1      8011    1    0    1
 -2      9284      9274      8984      8994      9285      9275      8985      8995
 -1      8012    1    0    1
 -2      9285      9275      8985      8995      9286      9276      8986      8996
 -1      8013    1    0    1
 -2      9286      9276      8986      8996      9287      9277      8987      8997
 -1      8014    1    0    1
 -2      9287      9277      8987      8997      9288      9278      8988      8998
 -1      8015    1    0    1
 -2      9288      9278      8988      8998      9289      9279      8989      8999
 -1      8016    1    0    1
 -2      9289      9279      8989      8999      9290      9280      8990      9000
 -1      8017    1    0    1
 -2      9290      9280      8990      9000      9291      9281      8991      9001
 -1      8018    1    0    1
 -2      9291      9281      8991      9001      9292      9282      8992      9002
 -1      8019    1    0    1
 -2      9292      9282      8992      9002      2898      2897      2868      2869
 -1      8020    1    0    1
 -2       898       897       868       869      9293      9283      8993      9003
 -1      8021    1    0    1
 -2      9293      9283      8993      9003      9294      9284      8994      9004
 -1      8022    1    0    1
 -2      9294      9284      8994      9004      9295      9285      8995      9005
 -1      8023    1    0    1
 -2      9295      9285      8995      9005      9296      9286      8996      9006
 -1      8024    1    0    1
 -2      9296      9286      8996      9006      9297      9287      8997      9007
 -1      8025    1    0    1
 -2      9297      9287      8997      9007      9298      9288      8998      9008
 -1      8026    1    0    1
 -2      9298      9288      8998      9008      9299      9289      8999      9009
 -1      8027    1    0    1
 -2      9299      9289      8999      9009      9300      9290      9000      9010
 -1      8028    1    0    1
 -2      9300      9290      9000      9010      9301      9291      9001      9011
 -1      8029    1    0    1
 -2      9301      9291      9001      9011      9302      9292      9002      9012
 -1      8030    1    0    1
 -2      9302      9292      9002      9012      2899      2898      2869      2870
 -1      8031    1    0    1
 -2       899       898       869       870      9303      9293      9003      9013
 -1      8032    1    0    1
 -2      9303      9293      9003      9013      9304      9294      9004      9014
 -1      8033    1    0    1
 -2      9304      9294      9004      9014      9305      9295      9005      9015
 -1      8034    1    0    1
 -2      9305      9295      9005      9015      9306      9296      9006      9016
 -1      8035    1    0    1
 -2      9306      9296      9006      9016      9307      9297      9007      9017
 -1      8036    1    0    1
 -2      9307      9297      9007      9017      9308      9298      9008      9018
 -1      8037    1    0    1
 -2      9308      9298      9008      9018      9309      9299      9009      9019
 -1      8038    1    0    1
 -2      9309      9299      9009      9019      9310      9300      9010      9020
 -1      8039    1    0    1
 -2      9310      9300      9010      9020      9311      9301      9011      9021
 -1      8040    1    0    1
 -2      9311      9301      9011      9021      9312      9302      9012      9022
 -1      8041    1    0    1
 -2      9312      9302      9012      9022      2900      2899      2870      2871
 -1      8042    1    0    1
 -2       900       899       870       871      9313      9303      9013      9023
 -1      8043    1    0    1
 -2      9313      9303      9013      9023      9314      9304      9014      9024
 -1      8044    1    0    1
 -2      9314      9304      9014      9024      9315      9305      9015      9025
 -1      8045    1    0    1
 -2      9315      9305      9015      9025      9316      9306      9016      9026
 -1      8046    1    0    1
 -2      9316      9306      9016      9026      9317      9307      9017      9027
 -1      8047    1    0    1
 -2      9317      9307      9017      9027      9318      9308      9018      9028
 -1      8048    1    0    1
 -2      9318      9308      9018      9028      9319      9309      9019      9029
 -1      8049    1    0    1
 -2      9319      9309      9019      9029      9320      9310      9020      9030
 -1      8050    1    0    1
 -2      9320      9310      9020      9030      9321      9311      9021      9031
 -1      8051    1    0    1
 -2      9321      9311      9021      9031      9322      9312      9022      9032
 -1      8052    1    0    1
 -2      9322      9312      9022      9032      2901      2900      2871      2872
 -1      8053    1    0    1
 -2       901       900       871       872      9323      9313      9023      9033
 -1      8054    1    0    1
 -2      9323      9313      9023      9033      9324      9314      9024      9034
 -1      8055    1    0    1
 -2      9324      9314      9024      9034      9325      9315      9025      9035
 -1      8056    1    0    1
 -2      9325      9315      9025      9035      9326      9316      9026      9036
 -1      8057    1    0    1
 -2      9326      9316      9026      9036      9327      9317      9027      9037
 -1      8058    1    0    1
 -2      9327      9317      9027      9037      9328      9318      9028      9038
 -1      8059    1    0    1
 -2      9328      9318      9028      9038      9329      9319      9029      9039
 -1      8060    1    0    1
 -2      9329      9319      9029      9039      9330      9320      9030      9040
 -1      8061    1    0    1
 -2      9330      9320      9030      9040      9331      9321      9031      9041
 -1      8062    1    0    1
 -2      9331      9321      9031      9041      9332      9322      9032      9042
 -1      8063    1    0    1
 -2      9332      9322      9032      9042      2902      2901      2872      2873
 -1      8064    1    0    1
 -2       902       901       872       873      9333      9323      9033      9043
 -1      8065    1    0    1
 -2      9333      9323      9033      9043      9334      9324      9034      9044
 -1      8066    1    0    1
 -2      9334      9324      9034      9044      9335      9325      9035      9045
 -1      8067    1    0    1
 -2      9335      9325      9035      9045      9336      9326      9036      9046
 -1      8068    1    0    1
 -2      9336      9326      9036      9046      9337      9327      9037      9047
 -1      8069    1    0    1
 -2      9337      9327      9037      9047      9338      9328      9038      9048
 -1      8070    1    0    1
 -2      9338      9328      9038      9048      9339      9329      9039      9049
 -1      8071    1    0    1
 -2      9339      9329      9039      9049      9340      9330      9040      9050
 -1      8072    1    0    1
 -2      9340      9330      9040      9050      9341      9331      9041      9051
 -1      8073    1    0    1
 -2      9341      9331      9041      9051      9342      9332      9042      9052
 -1      8074    1    0    1
 -2      9342      9332      9042      9052      2903      2902      2873      2874
 -1      8075    1    0    1
 -2       903       902       873       874      9343      9333      9043      9053
 -1      8076    1    0    1
 -2      9343      9333      9043      9053      9344      9334      9044      9054
 -1      8077    1    0    1
 -2      9344      9334      9044      9054      9345      9335      9045      9055
 -1      8078    1    0    1
 -2      9345      9335      9045      9055      9346      9336      9046      9056
 -1      8079    1    0    1
 -2      9346      9336      9046      9056      9347      9337      9047      9057
 -1      8080    1    0    1
 -2      9347      9337      9047      9057      9348      9338      9048      9058
 -1      8081    1    0    1
 -2      9348      9338      9048      9058      9349      9339      9049      9059
 -1      8082    1    0    1
 -2      9349      9339      9049      9059      9350      9340      9050      9060
 -1      8083    1    0    1
 -2      9350      9340      9050      9060      9351      9341      9051      9061
 -1      8084    1    0    1
 -2      9351      9341      9051      9061      9352      9342      9052      9062
 -1      8085    1    0    1
 -2      9352      9342      9052      9062      2904      2903      2874      2875
 -1      8086    1    0    1
 -2       904       903       874       875      9353      9343      9053      9063
 -1      8087    1    0    1
 -2      9353      9343      9053      9063      9354      9344      9054      9064
 -1      8088    1    0    1
 -2      9354      9344      9054      9064      9355      9345      9055      9065
 -1      8089    1    0    1
 -2      9355      9345      9055      9065      9356      9346      9056      9066
 -1      8090    1    0    1
 -2      9356      9346      9056      9066      9357      9347      9057      9067
 -1      8091    1    0    1
 -2      9357      9347      9057      9067      9358      9348      9058      9068
 -1      8092    1    0    1
 -2      9358      9348      9058      9068      9359      9349      9059      9069
 -1      8093    1    0    1
 -2      9359      9349      9059      9069      9360      9350      9060      9070
 -1      8094    1    0    1
 -2      9360      9350      9060      9070      9361      9351      9061      9071
 -1      8095    1    0    1
 -2      9361      9351      9061      9071      9362      9352      9062      9072
 -1      8096    1    0    1
 -2      9362      9352      9062      9072      2905      2904      2875      2876
 -1      8097    1    0    1
 -2       905       904       875       876      9363      9353      9063      9073
 -1      8098    1    0    1
 -2      9363      9353      9063      9073      9364      9354      9064      9074
 -1      8099    1    0    1
 -2      9364      9354      9064      9074      9365      9355      9065      9075
 -1      8100    1    0    1
 -2      9365      9355      9065      9075      9366      9356      9066      9076
 -1      8101    1    0    1
 -2      9366      9356      9066      9076      9367      9357      9067      9077
 -1      8102    1    0    1
 -2      9367      9357      9067      9077      9368      9358      9068      9078
 -1      8103    1    0    1
 -2      9368      9358      9068      9078      9369      9359      9069      9079
 -1      8104    1    0    1
 -2      9369      9359      9069      9079      9370      9360      9070      9080
 -1      8105    1    0    1
 -2      9370      9360      9070      9080      9371      9361      9071      9081
 -1      8106    1    0    1
 -2      9371      9361      9071      9081      9372      9362      9072      9082
 -1      8107    1    0    1
 -2      9372      9362      9072      9082      2906      2905      2876      2877
 -1      8108    1    0    1
 -2       906       905       876       877      9373      9363      9073      9083
 -1      8109    1    0    1
 -2      9373      9363      9073      9083      9374      9364      9074      9084
 -1      8110    1    0    1
 -2      9374      9364      9074      9084      9375      9365      9075      9085
 -1      8111    1    0    1
 -2      9375      9365      9075      9085      9376      9366      9076      9086
 -1      8112    1    0    1
 -2      9376      9366      9076      9086      9377      9367      9077      9087
 -1      8113    1    0    1
 -2      9377      9367      9077      9087      9378      9368      9078      9088
 -1      8114    1    0    1
 -2      9378      9368      9078      9088      9379      9369      9079      9089
 -1      8115    1    0    1
 -2      9379      9369      9079      9089      9380      9370      9080      9090
 -1      8116    1    0    1
 -2      9380      9370      9080      9090      9381      9371      9081      9091
 -1      8117    1    0    1
 -2      9381      9371      9081      9091      9382      9372      9082      9092
 -1      8118    1    0    1
 -2      9382      9372      9082      9092      2907      2906      2877      2878
 -1      8119    1    0    1
 -2       907       906       877       878      9383      9373      9083      9093
 -1      8120    1    0    1
 -2      9383      9373      9083      9093      9384      9374      9084      9094
 -1      8121    1    0    1
 -2      9384      9374      9084      9094      9385      9375      9085      9095
 -1      8122    1    0    1
 -2      9385      9375      9085      9095      9386      9376      9086      9096
 -1      8123    1    0    1
 -2      9386      9376      9086      9096      9387      9377      9087      9097
 -1      8124    1    0    1
 -2      9387      9377      9087      9097      9388      9378      9088      9098
 -1      8125    1    0    1
 -2      9388      9378      9088      9098      9389      9379      9089      9099
 -1      8126    1    0    1
 -2      9389      9379      9089      9099      9390      9380      9090      9100
 -1      8127    1    0    1
 -2      9390      9380      9090      9100      9391      9381      9091      9101
 -1      8128    1    0    1
 -2      9391      9381      9091      9101      9392      9382      9092      9102
 -1      8129    1    0    1
 -2      9392      9382      9092      9102      2908      2907      2878      2879
 -1      8130    1    0    1
 -2       908       907       878       879      9393      9383      9093      9103
 -1      8131    1    0    1
 -2      9393      9383      9093      9103      9394      9384      9094      9104
 -1      8132    1    0    1
 -2      9394      9384      9094      9104      9395      9385      9095      9105
 -1      8133    1    0    1
 -2      9395      9385      9095      9105      9396      9386      9096      9106
 -1      8134    1    0    1
 -2      9396      9386      9096      9106      9397      9387      9097      9107
 -1      8135    1    0    1
 -2      9397      9387      9097      9107      9398      9388      9098      9108
 -1      8136    1    0    1
 -2      9398      9388      9098      9108      9399      9389      9099      9109
 -1      8137    1    0    1
 -2      9399      9389      9099      9109      9400      9390      9100      9110
 -1      8138    1    0    1
 -2      9400      9390      9100      9110      9401      9391      9101      9111
 -1      8139    1    0    1
 -2      9401      9391      9101      9111      9402      9392      9102      9112
 -1      8140    1    0    1
 -2      9402      9392      9102      9112      2909      2908      2879      2880
 -1      8141    1    0    1
 -2       909       908       879       880      9403      9393      9103      9113
 -1      8142    1    0    1
 -2      9403      9393      9103      9113      9404      9394      9104      9114
 -1      8143    1    0    1
 -2      9404      9394      9104      9114      9405      9395      9105      9115
 -1      8144    1    0    1
 -2      9405      9395      9105      9115      9406      9396      9106      9116
 -1      8145    1    0    1
 -2      9406      9396      9106      9116      9407      9397      9107      9117
 -1      8146    1    0    1
 -2      9407      9397      9107      9117      9408      9398      9108      9118
 -1      8147    1    0    1
 -2      9408      9398      9108      9118      9409      9399      9109      9119
 -1      8148    1    0    1
 -2      9409      9399      9109      9119      9410      9400      9110      9120
 -1      8149    1    0    1
 -2      9410      9400      9110      9120      9411      9401      9111      9121
 -1      8150    1    0    1
 -2      9411      9401      9111      9121      9412      9402      9112      9122
 -1      8151    1    0    1
 -2      9412      9402      9112      9122      2910      2909      2880      2881
 -1      8152    1    0    1
 -2       910       909       880       881      9413      9403      9113      9123
 -1      8153    1    0    1
 -2      9413      9403      9113      9123      9414      9404      9114      9124
 -1      8154    1    0    1
 -2      9414      9404      9114      9124      9415      9405      9115      9125
 -1      8155    1    0    1
 -2      9415      9405      9115      9125      9416      9406      9116      9126
 -1      8156    1    0    1
 -2      9416      9406      9116      9126      9417      9407      9117      9127
 -1      8157    1    0    1
 -2      9417      9407      9117      9127      9418      9408      9118      9128
 -1      8158    1    0    1
 -2      9418      9408      9118      9128      9419      9409      9119      9129
 -1      8159    1    0    1
 -2      9419      9409      9119      9129      9420      9410      9120      9130
 -1      8160    1    0    1
 -2      9420      9410      9120      9130      9421      9411      9121      9131
 -1      8161    1    0    1
 -2      9421      9411      9121      9131      9422      9412      9122      9132
 -1      8162    1    0    1
 -2      9422      9412      9122      9132      2911      2910      2881      2882
 -1      8163    1    0    1
 -2       911       910       881       882      9423      9413      9123      9133
 -1      8164    1    0    1
 -2      9423      9413      9123      9133      9424      9414      9124      9134
 -1      8165    1    0    1
 -2      9424      9414      9124      9134      9425      9415      9125      9135
 -1      8166    1    0    1
 -2      9425      9415      9125      9135      9426      9416      9126      9136
 -1      8167    1    0    1
 -2      9426      9416      9126      9136      9427      9417      9127      9137
 -1      8168    1    0    1
 -2      9427      9417      9127      9137      9428      9418      9128      9138
 -1      8169    1    0    1
 -2      9428      9418      9128      9138      9429      9419      9129      9139
 -1      8170    1    0    1
 -2      9429      9419      9129      9139      9430      9420      9130      9140
 -1      8171    1    0    1
 -2      9430      9420      9130      9140      9431      9421      9131      9141
 -1      8172    1    0    1
 -2      9431      9421      9131      9141      9432      9422      9132      9142
 -1      8173    1    0    1
 -2      9432      9422      9132      9142      2912      2911      2882      2883
 -1      8174    1    0    1
 -2       912       911       882       883      9433      9423      9133      9143
 -1      8175    1    0    1
 -2      9433      9423      9133      9143      9434      9424      9134      9144
 -1      8176    1    0    1
 -2      9434      9424      9134      9144      9435      9425      9135      9145
 -1      8177    1    0    1
 -2      9435      9425      9135      9145      9436      9426      9136      9146
 -1      8178    1    0    1
 -2      9436      9426      9136      9146      9437      9427      9137      9147
 -1      8179    1    0    1
 -2      9437      9427      9137      9147      9438      9428      9138      9148
 -1      8180    1    0    1
 -2      9438      9428      9138      9148      9439      9429      9139      9149
 -1      8181    1    0    1
 -2      9439      9429      9139      9149      9440      9430      9140      9150
 -1      8182    1    0    1
 -2      9440      9430      9140      9150      9441      9431      9141      9151
 -1      8183    1    0    1
 -2      9441      9431      9141      9151      9442      9432      9142      9152
 -1      8184    1    0    1
 -2      9442      9432      9142      9152      2913      2912      2883      2884
 -1      8185    1    0    1
 -2       913       912       883       884      9443      9433      9143      9153
 -1      8186    1    0    1
 -2      9443      9433      9143      9153      9444      9434      9144      9154
 -1      8187    1    0    1
 -2      9444      9434      9144      9154      9445      9435      9145      9155
 -1      8188    1    0    1
 -2      9445      9435      9145      9155      9446      9436      9146      9156
 -1      8189    1    0    1
 -2      9446      9436      9146      9156      9447      9437      9147      9157
 -1      8190    1    0    1
 -2      9447      9437      9147      9157      9448      9438      9148      9158
 -1      8191    1    0    1
 -2      9448      9438      9148      9158      9449      9439      9149      9159
 -1      8192    1    0    1
 -2      9449      9439      9149      9159      9450      9440      9150      9160
 -1      8193    1    0    1
 -2      9450      9440      9150      9160      9451      9441      9151      9161
 -1      8194    1    0    1
 -2      9451      9441      9151      9161      9452      9442      9152      9162
 -1      8195    1    0    1
 -2      9452      9442      9152      9162      2914      2913      2884      2885
 -1      8196    1    0    1
 -2       914       913       884       885      9453      9443      9153      9163
 -1      8197    1    0    1
 -2      9453      9443      9153      9163      9454      9444      9154      9164
 -1      8198    1    0    1
 -2      9454      9444      9154      9164      9455      9445      9155      9165
 -1      8199    1    0    1
 -2      9455      9445      9155      9165      9456      9446      9156      9166
 -1      8200    1    0    1
 -2      9456      9446      9156      9166      9457      9447      9157      9167
 -1      8201    1    0    1
 -2      9457      9447      9157      9167      9458      9448      9158      9168
 -1      8202    1    0    1
 -2      9458      9448      9158      9168      9459      9449      9159      9169
 -1      8203    1    0    1
 -2      9459      9449      9159      9169      9460      9450      9160      9170
 -1      8204    1    0    1
 -2      9460      9450      9160      9170      9461      9451      9161      9171
 -1      8205    1    0    1
 -2      9461      9451      9161      9171      9462      9452      9162      9172
 -1      8206    1    0    1
 -2      9462      9452      9162      9172      2915      2914      2885      2886
 -1      8207    1    0    1
 -2       915       914       885       886      9463      9453      9163      9173
 -1      8208    1    0    1
 -2      9463      9453      9163      9173      9464      9454      9164      9174
 -1      8209    1    0    1
 -2      9464      9454      9164      9174      9465      9455      9165      9175
 -1      8210    1    0    1
 -2      9465      9455      9165      9175      9466      9456      9166      9176
 -1      8211    1    0    1
 -2      9466      9456      9166      9176      9467      9457      9167      9177
 -1      8212    1    0    1
 -2      9467      9457      9167      9177      9468      9458      9168      9178
 -1      8213    1    0    1
 -2      9468      9458      9168      9178      9469      9459      9169      9179
 -1      8214    1    0    1
 -2      9469      9459      9169      9179      9470      9460      9170      9180
 -1      8215    1    0    1
 -2      9470      9460      9170      9180      9471      9461      9171      9181
 -1      8216    1    0    1
 -2      9471      9461      9171      9181      9472      9462      9172      9182
 -1      8217    1    0    1
 -2      9472      9462      9172      9182      2916      2915      2886      2887
 -1      8218    1    0    1
 -2       916       915       886       887      9473      9463      9173      9183
 -1      8219    1    0    1
 -2      9473      9463      9173      9183      9474      9464      9174      9184
 -1      8220    1    0    1
 -2      9474      9464      9174      9184      9475      9465      9175      9185
 -1      8221    1    0    1
 -2      9475      9465      9175      9185      9476      9466      9176      9186
 -1      8222    1    0    1
 -2      9476      9466      9176      9186      9477      9467      9177      9187
 -1      8223    1    0    1
 -2      9477      9467      9177      9187      9478      9468      9178      9188
 -1      8224    1    0    1
 -2      9478      9468      9178      9188      9479      9469      9179      9189
 -1      8225    1    0    1
 -2      9479      9469      9179      9189      9480      9470      9180      9190
 -1      8226    1    0    1
 -2      9480      9470      9180      9190      9481      9471      9181      9191
 -1      8227    1    0    1
 -2      9481      9471      9181      9191      9482      9472      9182      9192
 -1      8228    1    0    1
 -2      9482      9472      9182      9192      2917      2916      2887      2888
 -1      8229    1    0    1
 -2       917       916       887       888      9483      9473      9183      9193
 -1      8230    1    0    1
 -2      9483      9473      9183      9193      9484      9474      9184      9194
 -1      8231    1    0    1
 -2      9484      9474      9184      9194      9485      9475      9185      9195
 -1      8232    1    0    1
 -2      9485      9475      9185      9195      9486      9476      9186      9196
 -1      8233    1    0    1
 -2      9486      9476      9186      9196      9487      9477      9187      9197
 -1      8234    1    0    1
 -2      9487      9477      9187      9197      9488      9478      9188      9198
 -1      8235    1    0    1
 -2      9488      9478      9188      9198      9489      9479      9189      9199
 -1      8236    1    0    1
 -2      9489      9479      9189      9199      9490      9480      9190      9200
 -1      8237    1    0    1
 -2      9490      9480      9190      9200      9491      9481      9191      9201
 -1      8238    1    0    1
 -2      9491      9481      9191      9201      9492      9482      9192      9202
 -1      8239    1    0    1
 -2      9492      9482      9192      9202      2918      2917      2888      2889
 -1      8240    1    0    1
 -2       918       917       888       889      9493      9483      9193      9203
 -1      8241    1    0    1
 -2      9493      9483      9193      9203      9494      9484      9194      9204
 -1      8242    1    0    1
 -2      9494      9484      9194      9204      9495      9485      9195      9205
 -1      8243    1    0    1
 -2      9495      9485      9195      9205      9496      9486      9196      9206
 -1      8244    1    0    1
 -2      9496      9486      9196      9206      9497      9487      9197      9207
 -1      8245    1    0    1
 -2      9497      9487      9197      9207      9498      9488      9198      9208
 -1      8246    1    0    1
 -2      9498      9488      9198      9208      9499      9489      9199      9209
 -1      8247    1    0    1
 -2      9499      9489      9199      9209      9500      9490      9200      9210
 -1      8248    1    0    1
 -2      9500      9490      9200      9210      9501      9491      9201      9211
 -1      8249    1    0    1
 -2      9501      9491      9201      9211      9502      9492      9202      9212
 -1      8250    1    0    1
 -2      9502      9492      9202      9212      2919      2918      2889      2890
 -1      8251    1    0    1
 -2        74       918       889        75      1772      9493      9203      1782
 -1      8252    1    0    1
 -2      1772      9493      9203      1782      1773      9494      9204      1783
 -1      8253    1    0    1
 -2      1773      9494      9204      1783      1774      9495      9205      1784
 -1      8254    1    0    1
 -2      1774      9495      9205      1784      1775      9496      9206      1785
 -1      8255    1    0    1
 -2      1775      9496      9206      1785      1776      9497      9207      1786
 -1      8256    1    0    1
 -2      1776      9497      9207      1786      1777      9498      9208      1787
 -1      8257    1    0    1
 -2      1777      9498      9208      1787      1778      9499      9209      1788
 -1      8258    1    0    1
 -2      1778      9499      9209      1788      1779      9500      9210      1789
 -1      8259    1    0    1
 -2      1779      9500      9210      1789      1780      9501      9211      1790
 -1      8260    1    0    1
 -2      1780      9501      9211      1790      1781      9502      9212      1791
 -1      8261    1    0    1
 -2      1781      9502      9212      1791       190      2919      2890       191
 -1      8262    1    0    1
 -2       919        31        30       890      9503      1342      1332      9213
 -1      8263    1    0    1
 -2      9503      1342      1332      9213      9504      1343      1333      9214
 -1      8264    1    0    1
 -2      9504      1343      1333      9214      9505      1344      1334      9215
 -1      8265    1    0    1
 -2      9505      1344      1334      9215      9506      1345      1335      9216
 -1      8266    1    0    1
 -2      9506      1345      1335      9216      9507      1346      1336      9217
 -1      8267    1    0    1
 -2      9507      1346      1336      9217      9508      1347      1337      9218
 -1      8268    1    0    1
 -2      9508      1347      1337      9218      9509      1348      1338      9219
 -1      8269    1    0    1
 -2      9509      1348      1338      9219      9510      1349      1339      9220
 -1      8270    1    0    1
 -2      9510      1349      1339      9220      9511      1350      1340      9221
 -1      8271    1    0    1
 -2      9511      1350      1340      9221      9512      1351      1341      9222
 -1      8272    1    0    1
 -2      9512      1351      1341      9222      2920       147       146      2891
 -1      8273    1    0    1
 -2       920       919       890       891      9513      9503      9213      9223
 -1      8274    1    0    1
 -2      9513      9503      9213      9223      9514      9504      9214      9224
 -1      8275    1    0    1
 -2      9514      9504      9214      9224      9515      9505      9215      9225
 -1      8276    1    0    1
 -2      9515      9505      9215      9225      9516      9506      9216      9226
 -1      8277    1    0    1
 -2      9516      9506      9216      9226      9517      9507      9217      9227
 -1      8278    1    0    1
 -2      9517      9507      9217      9227      9518      9508      9218      9228
 -1      8279    1    0    1
 -2      9518      9508      9218      9228      9519      9509      9219      9229
 -1      8280    1    0    1
 -2      9519      9509      9219      9229      9520      9510      9220      9230
 -1      8281    1    0    1
 -2      9520      9510      9220      9230      9521      9511      9221      9231
 -1      8282    1    0    1
 -2      9521      9511      9221      9231      9522      9512      9222      9232
 -1      8283    1    0    1
 -2      9522      9512      9222      9232      2921      2920      2891      2892
 -1      8284    1    0    1
 -2       921       920       891       892      9523      9513      9223      9233
 -1      8285    1    0    1
 -2      9523      9513      9223      9233      9524      9514      9224      9234
 -1      8286    1    0    1
 -2      9524      9514      9224      9234      9525      9515      9225      9235
 -1      8287    1    0    1
 -2      9525      9515      9225      9235      9526      9516      9226      9236
 -1      8288    1    0    1
 -2      9526      9516      9226      9236      9527      9517      9227      9237
 -1      8289    1    0    1
 -2      9527      9517      9227      9237      9528      9518      9228      9238
 -1      8290    1    0    1
 -2      9528      9518      9228      9238      9529      9519      9229      9239
 -1      8291    1    0    1
 -2      9529      9519      9229      9239      9530      9520      9230      9240
 -1      8292    1    0    1
 -2      9530      9520      9230      9240      9531      9521      9231      9241
 -1      8293    1    0    1
 -2      9531      9521      9231      9241      9532      9522      9232      9242
 -1      8294    1    0    1
 -2      9532      9522      9232      9242      2922      2921      2892      2893
 -1      8295    1    0    1
 -2       922       921       892       893      9533      9523      9233      9243
 -1      8296    1    0    1
 -2      9533      9523      9233      9243      9534      9524      9234      9244
 -1      8297    1    0    1
 -2      9534      9524      9234      9244      9535      9525      9235      9245
 -1      8298    1    0    1
 -2      9535      9525      9235      9245      9536      9526      9236      9246
 -1      8299    1    0    1
 -2      9536      9526      9236      9246      9537      9527      9237      9247
 -1      8300    1    0    1
 -2      9537      9527      9237      9247      9538      9528      9238      9248
 -1      8301    1    0    1
 -2      9538      9528      9238      9248      9539      9529      9239      9249
 -1      8302    1    0    1
 -2      9539      9529      9239      9249      9540      9530      9240      9250
 -1      8303    1    0    1
 -2      9540      9530      9240      9250      9541      9531      9241      9251
 -1      8304    1    0    1
 -2      9541      9531      9241      9251      9542      9532      9242      9252
 -1      8305    1    0    1
 -2      9542      9532      9242      9252      2923      2922      2893      2894
 -1      8306    1    0    1
 -2       923       922       893       894      9543      9533      9243      9253
 -1      8307    1    0    1
 -2      9543      9533      9243      9253      9544      9534      9244      9254
 -1      8308    1    0    1
 -2      9544      9534      9244      9254      9545      9535      9245      9255
 -1      8309    1    0    1
 -2      9545      9535      9245      9255      9546      9536      9246      9256
 -1      8310    1    0    1
 -2      9546      9536      9246      9256      9547      9537      9247      9257
 -1      8311    1    0    1
 -2      9547      9537      9247      9257      9548      9538      9248      9258
 -1      8312    1    0    1
 -2      9548      9538      9248      9258      9549      9539      9249      9259
 -1      8313    1    0    1
 -2      9549      9539      9249      9259      9550      9540      9250      9260
 -1      8314    1    0    1
 -2      9550      9540      9250      9260      9551      9541      9251      9261
 -1      8315    1    0    1
 -2      9551      9541      9251      9261      9552      9542      9252      9262
 -1      8316    1    0    1
 -2      9552      9542      9252      9262      2924      2923      2894      2895
 -1      8317    1    0    1
 -2       924       923       894       895      9553      9543      9253      9263
 -1      8318    1    0    1
 -2      9553      9543      9253      9263      9554      9544      9254      9264
 -1      8319    1    0    1
 -2      9554      9544      9254      9264      9555      9545      9255      9265
 -1      8320    1    0    1
 -2      9555      9545      9255      9265      9556      9546      9256      9266
 -1      8321    1    0    1
 -2      9556      9546      9256      9266      9557      9547      9257      9267
 -1      8322    1    0    1
 -2      9557      9547      9257      9267      9558      9548      9258      9268
 -1      8323    1    0    1
 -2      9558      9548      9258      9268      9559      9549      9259      9269
 -1      8324    1    0    1
 -2      9559      9549      9259      9269      9560      9550      9260      9270
 -1      8325    1    0    1
 -2      9560      9550      9260      9270      9561      9551      9261      9271
 -1      8326    1    0    1
 -2      9561      9551      9261      9271      9562      9552      9262      9272
 -1      8327    1    0    1
 -2      9562      9552      9262      9272      2925      2924      2895      2896
 -1      8328    1    0    1
 -2       925       924       895       896      9563      9553      9263      9273
 -1      8329    1    0    1
 -2      9563      9553      9263      9273      9564      9554      9264      9274
 -1      8330    1    0    1
 -2      9564      9554      9264      9274      9565      9555      9265      9275
 -1      8331    1    0    1
 -2      9565      9555      9265      9275      9566      9556      9266      9276
 -1      8332    1    0    1
 -2      9566      9556      9266      9276      9567      9557      9267      9277
 -1      8333    1    0    1
 -2      9567      9557      9267      9277      9568      9558      9268      9278
 -1      8334    1    0    1
 -2      9568      9558      9268      9278      9569      9559      9269      9279
 -1      8335    1    0    1
 -2      9569      9559      9269      9279      9570      9560      9270      9280
 -1      8336    1    0    1
 -2      9570      9560      9270      9280      9571      9561      9271      9281
 -1      8337    1    0    1
 -2      9571      9561      9271      9281      9572      9562      9272      9282
 -1      8338    1    0    1
 -2      9572      9562      9272      9282      2926      2925      2896      2897
 -1      8339    1    0    1
 -2       926       925       896       897      9573      9563      9273      9283
 -1      8340    1    0    1
 -2      9573      9563      9273      9283      9574      9564      9274      9284
 -1      8341    1    0    1
 -2      9574      9564      9274      9284      9575      9565      9275      9285
 -1      8342    1    0    1
 -2      9575      9565      9275      9285      9576      9566      9276      9286
 -1      8343    1    0    1
 -2      9576      9566      9276      9286      9577      9567      9277      9287
 -1      8344    1    0    1
 -2      9577      9567      9277      9287      9578      9568      9278      9288
 -1      8345    1    0    1
 -2      9578      9568      9278      9288      9579      9569      9279      9289
 -1      8346    1    0    1
 -2      9579      9569      9279      9289      9580      9570      9280      9290
 -1      8347    1    0    1
 -2      9580      9570      9280      9290      9581      9571      9281      9291
 -1      8348    1    0    1
 -2      9581      9571      9281      9291      9582      9572      9282      9292
 -1      8349    1    0    1
 -2      9582      9572      9282      9292      2927      2926      2897      2898
 -1      8350    1    0    1
 -2       927       926       897       898      9583      9573      9283      9293
 -1      8351    1    0    1
 -2      9583      9573      9283      9293      9584      9574      9284      9294
 -1      8352    1    0    1
 -2      9584      9574      9284      9294      9585      9575      9285      9295
 -1      8353    1    0    1
 -2      9585      9575      9285      9295      9586      9576      9286      9296
 -1      8354    1    0    1
 -2      9586      9576      9286      9296      9587      9577      9287      9297
 -1      8355    1    0    1
 -2      9587      9577      9287      9297      9588      9578      9288      9298
 -1      8356    1    0    1
 -2      9588      9578      9288      9298      9589      9579      9289      9299
 -1      8357    1    0    1
 -2      9589      9579      9289      9299      9590      9580      9290      9300
 -1      8358    1    0    1
 -2      9590      9580      9290      9300      9591      9581      9291      9301
 -1      8359    1    0    1
 -2      9591      9581      9291      9301      9592      9582      9292      9302
 -1      8360    1    0    1
 -2      9592      9582      9292      9302      2928      2927      2898      2899
 -1      8361    1    0    1
 -2       928       927       898       899      9593      9583      9293      9303
 -1      8362    1    0    1
 -2      9593      9583      9293      9303      9594      9584      9294      9304
 -1      8363    1    0    1
 -2      9594      9584      9294      9304      9595      9585      9295      9305
 -1      8364    1    0    1
 -2      9595      9585      9295      9305      9596      9586      9296      9306
 -1      8365    1    0    1
 -2      9596      9586      9296      9306      9597      9587      9297      9307
 -1      8366    1    0    1
 -2      9597      9587      9297      9307      9598      9588      9298      9308
 -1      8367    1    0    1
 -2      9598      9588      9298      9308      9599      9589      9299      9309
 -1      8368    1    0    1
 -2      9599      9589      9299      9309      9600      9590      9300      9310
 -1      8369    1    0    1
 -2      9600      9590      9300      9310      9601      9591      9301      9311
 -1      8370    1    0    1
 -2      9601      9591      9301      9311      9602      9592      9302      9312
 -1      8371    1    0    1
 -2      9602      9592      9302      9312      2929      2928      2899      2900
 -1      8372    1    0    1
 -2       929       928       899       900      9603      9593      9303      9313
 -1      8373    1    0    1
 -2      9603      9593      9303      9313      9604      9594      9304      9314
 -1      8374    1    0    1
 -2      9604      9594      9304      9314      9605      9595      9305      9315
 -1      8375    1    0    1
 -2      9605      9595      9305      9315      9606      9596      9306      9316
 -1      8376    1    0    1
 -2      9606      9596      9306      9316      9607      9597      9307      9317
 -1      8377    1    0    1
 -2      9607      9597      9307      9317      9608      9598      9308      9318
 -1      8378    1    0    1
 -2      9608      9598      9308      9318      9609      9599      9309      9319
 -1      8379    1    0    1
 -2      9609      9599      9309      9319      9610      9600      9310      9320
 -1      8380    1    0    1
 -2      9610      9600      9310      9320      9611      9601      9311      9321
 -1      8381    1    0    1
 -2      9611      9601      9311      9321      9612      9602      9312      9322
 -1      8382    1    0    1
 -2      9612      9602      9312      9322      2930      2929      2900      2901
 -1      8383    1    0    1
 -2       930       929       900       901      9613      9603      9313      9323
 -1      8384    1    0    1
 -2      9613      9603      9313      9323      9614      9604      9314      9324
 -1      8385    1    0    1
 -2      9614      9604      9314      9324      9615      9605      9315      9325
 -1      8386    1    0    1
 -2      9615      9605      9315      9325      9616      9606      9316      9326
 -1      8387    1    0    1
 -2      9616      9606      9316      9326      9617      9607      9317      9327
 -1      8388    1    0    1
 -2      9617      9607      9317      9327      9618      9608      9318      9328
 -1      8389    1    0    1
 -2      9618      9608      9318      9328      9619      9609      9319      9329
 -1      8390    1    0    1
 -2      9619      9609      9319      9329      9620      9610      9320      9330
 -1      8391    1    0    1
 -2      9620      9610      9320      9330      9621      9611      9321      9331
 -1      8392    1    0    1
 -2      9621      9611      9321      9331      9622      9612      9322      9332
 -1      8393    1    0    1
 -2      9622      9612      9322      9332      2931      2930      2901      2902
 -1      8394    1    0    1
 -2       931       930       901       902      9623      9613      9323      9333
 -1      8395    1    0    1
 -2      9623      9613      9323      9333      9624      9614      9324      9334
 -1      8396    1    0    1
 -2      9624      9614      9324      9334      9625      9615      9325      9335
 -1      8397    1    0    1
 -2      9625      9615      9325      9335      9626      9616      9326      9336
 -1      8398    1    0    1
 -2      9626      9616      9326      9336      9627      9617      9327      9337
 -1      8399    1    0    1
 -2      9627      9617      9327      9337      9628      9618      9328      9338
 -1      8400    1    0    1
 -2      9628      9618      9328      9338      9629      9619      9329      9339
 -1      8401    1    0    1
 -2      9629      9619      9329      9339      9630      9620      9330      9340
 -1      8402    1    0    1
 -2      9630      9620      9330      9340      9631      9621      9331      9341
 -1      8403    1    0    1
 -2      9631      9621      9331      9341      9632      9622      9332      9342
 -1      8404    1    0    1
 -2      9632      9622      9332      9342      2932      2931      2902      2903
 -1      8405    1    0    1
 -2       932       931       902       903      9633      9623      9333      9343
 -1      8406    1    0    1
 -2      9633      9623      9333      9343      9634      9624      9334      9344
 -1      8407    1    0    1
 -2      9634      9624      9334      9344      9635      9625      9335      9345
 -1      8408    1    0    1
 -2      9635      9625      9335      9345      9636      9626      9336      9346
 -1      8409    1    0    1
 -2      9636      9626      9336      9346      9637      9627      9337      9347
 -1      8410    1    0    1
 -2      9637      9627      9337      9347      9638      9628      9338      9348
 -1      8411    1    0    1
 -2      9638      9628      9338      9348      9639      9629      9339      9349
 -1      8412    1    0    1
 -2      9639      9629      9339      9349      9640      9630      9340      9350
 -1      8413    1    0    1
 -2      9640      9630      9340      9350      9641      9631      9341      9351
 -1      8414    1    0    1
 -2      9641      9631      9341      9351      9642      9632      9342      9352
 -1      8415    1    0    1
 -2      9642      9632      9342      9352      2933      2932      2903      2904
 -1      8416    1    0    1
 -2       933       932       903       904      9643      9633      9343      9353
 -1      8417    1    0    1
 -2      9643      9633      9343      9353      9644      9634      9344      9354
 -1      8418    1    0    1
 -2      9644      9634      9344      9354      9645      9635      9345      9355
 -1      8419    1    0    1
 -2      9645      9635      9345      9355      9646      9636      9346      9356
 -1      8420    1    0    1
 -2      9646      9636      9346      9356      9647      9637      9347      9357
 -1      8421    1    0    1
 -2      9647      9637      9347      9357      9648      9638      9348      9358
 -1      8422    1    0    1
 -2      9648      9638      9348      9358      9649      9639      9349      9359
 -1      8423    1    0    1
 -2      9649      9639      9349      9359      9650      9640      9350      9360
 -1      8424    1    0    1
 -2      9650      9640      9350      9360      9651      9641      9351      9361
 -1      8425    1    0    1
 -2      9651      9641      9351      9361      9652      9642      9352      9362
 -1      8426    1    0    1
 -2      9652      9642      9352      9362      2934      2933      2904      2905
 -1      8427    1    0    1
 -2       934       933       904       905      9653      9643      9353      9363
 -1      8428    1    0    1
 -2      9653      9643      9353      9363      9654      9644      9354      9364
 -1      8429    1    0    1
 -2      9654      9644      9354      9364      9655      9645      9355      9365
 -1      8430    1    0    1
 -2      9655      9645      9355      9365      9656      9646      9356      9366
 -1      8431    1    0    1
 -2      9656      9646      9356      9366      9657      9647      9357      9367
 -1      8432    1    0    1
 -2      9657      9647      9357      9367      9658      9648      9358      9368
 -1      8433    1    0    1
 -2      9658      9648      9358      9368      9659      9649      9359      9369
 -1      8434    1    0    1
 -2      9659      9649      9359      9369      9660      9650      9360      9370
 -1      8435    1    0    1
 -2      9660      9650      9360      9370      9661      9651      9361      9371
 -1      8436    1    0    1
 -2      9661      9651      9361      9371      9662      9652      9362      9372
 -1      8437    1    0    1
 -2      9662      9652      9362      9372      2935      2934      2905      2906
 -1      8438    1    0    1
 -2       935       934       905       906      9663      9653      9363      9373
 -1      8439    1    0    1
 -2      9663      9653      9363      9373      9664      9654      9364      9374
 -1      8440    1    0    1
 -2      9664      9654      9364      9374      9665      9655      9365      9375
 -1      8441    1    0    1
 -2      9665      9655      9365      9375      9666      9656      9366      9376
 -1      8442    1    0    1
 -2      9666      9656      9366      9376      9667      9657      9367      9377
 -1      8443    1    0    1
 -2      9667      9657      9367      9377      9668      9658      9368      9378
 -1      8444    1    0    1
 -2      9668      9658      9368      9378      9669      9659      9369      9379
 -1      8445    1    0    1
 -2      9669      9659      9369      9379      9670      9660      9370      9380
 -1      8446    1    0    1
 -2      9670      9660      9370      9380      9671      9661      9371      9381
 -1      8447    1    0    1
 -2      9671      9661      9371      9381      9672      9662      9372      9382
 -1      8448    1    0    1
 -2      9672      9662      9372      9382      2936      2935      2906      2907
 -1      8449    1    0    1
 -2       936       935       906       907      9673      9663      9373      9383
 -1      8450    1    0    1
 -2      9673      9663      9373      9383      9674      9664      9374      9384
 -1      8451    1    0    1
 -2      9674      9664      9374      9384      9675      9665      9375      9385
 -1      8452    1    0    1
 -2      9675      9665      9375      9385      9676      9666      9376      9386
 -1      8453    1    0    1
 -2      9676      9666      9376      9386      9677      9667      9377      9387
 -1      8454    1    0    1
 -2      9677      9667      9377      9387      9678      9668      9378      9388
 -1      8455    1    0    1
 -2      9678      9668      9378      9388      9679      9669      9379      9389
 -1      8456    1    0    1
 -2      9679      9669      9379      9389      9680      9670      9380      9390
 -1      8457    1    0    1
 -2      9680      9670      9380      9390      9681      9671      9381      9391
 -1      8458    1    0    1
 -2      9681      9671      9381      9391      9682      9672      9382      9392
 -1      8459    1    0    1
 -2      9682      9672      9382      9392      2937      2936      2907      2908
 -1      8460    1    0    1
 -2       937       936       907       908      9683      9673      9383      9393
 -1      8461    1    0    1
 -2      9683      9673      9383      9393      9684      9674      9384      9394
 -1      8462    1    0    1
 -2      9684      9674      9384      9394      9685      9675      9385      9395
 -1      8463    1    0    1
 -2      9685      9675      9385      9395      9686      9676      9386      9396
 -1      8464    1    0    1
 -2      9686      9676      9386      9396      9687      9677      9387      9397
 -1      8465    1    0    1
 -2      9687      9677      9387      9397      9688      9678      9388      9398
 -1      8466    1    0    1
 -2      9688      9678      9388      9398      9689      9679      9389      9399
 -1      8467    1    0    1
 -2      9689      9679      9389      9399      9690      9680      9390      9400
 -1      8468    1    0    1
 -2      9690      9680      9390      9400      9691      9681      9391      9401
 -1      8469    1    0    1
 -2      9691      9681      9391      9401      9692      9682      9392      9402
 -1      8470    1    0    1
 -2      9692      9682      9392      9402      2938      2937      2908      2909
 -1      8471    1    0    1
 -2       938       937       908       909      9693      9683      9393      9403
 -1      8472    1    0    1
 -2      9693      9683      9393      9403      9694      9684      9394      9404
 -1      8473    1    0    1
 -2      9694      9684      9394      9404      9695      9685      9395      9405
 -1      8474    1    0    1
 -2      9695      9685      9395      9405      9696      9686      9396      9406
 -1      8475    1    0    1
 -2      9696      9686      9396      9406      9697      9687      9397      9407
 -1      8476    1    0    1
 -2      9697      9687      9397      9407      9698      9688      9398      9408
 -1      8477    1    0    1
 -2      9698      9688      9398      9408      9699      9689      9399      9409
 -1      8478    1    0    1
 -2      9699      9689      9399      9409      9700      9690      9400      9410
 -1      8479    1    0    1
 -2      9700      9690      9400      9410      9701      9691      9401      9411
 -1      8480    1    0    1
 -2      9701      9691      9401      9411      9702      9692      9402      9412
 -1      8481    1    0    1
 -2      9702      9692      9402      9412      2939      2938      2909      2910
 -1      8482    1    0    1
 -2       939       938       909       910      9703      9693      9403      9413
 -1      8483    1    0    1
 -2      9703      9693      9403      9413      9704      9694      9404      9414
 -1      8484    1    0    1
 -2      9704      9694      9404      9414      9705      9695      9405      9415
 -1      8485    1    0    1
 -2      9705      9695      9405      9415      9706      9696      9406      9416
 -1      8486    1    0    1
 -2      9706      9696      9406      9416      9707      9697      9407      9417
 -1      8487    1    0    1
 -2      9707      9697      9407      9417      9708      9698      9408      9418
 -1      8488    1    0    1
 -2      9708      9698      9408      9418      9709      9699      9409      9419
 -1      8489    1    0    1
 -2      9709      9699      9409      9419      9710      9700      9410      9420
 -1      8490    1    0    1
 -2      9710      9700      9410      9420      9711      9701      9411      9421
 -1      8491    1    0    1
 -2      9711      9701      9411      9421      9712      9702      9412      9422
 -1      8492    1    0    1
 -2      9712      9702      9412      9422      2940      2939      2910      2911
 -1      8493    1    0    1
 -2       940       939       910       911      9713      9703      9413      9423
 -1      8494    1    0    1
 -2      9713      9703      9413      9423      9714      9704      9414      9424
 -1      8495    1    0    1
 -2      9714      9704      9414      9424      9715      9705      9415      9425
 -1      8496    1    0    1
 -2      9715      9705      9415      9425      9716      9706      9416      9426
 -1      8497    1    0    1
 -2      9716      9706      9416      9426      9717      9707      9417      9427
 -1      8498    1    0    1
 -2      9717      9707      9417      9427      9718      9708      9418      9428
 -1      8499    1    0    1
 -2      9718      9708      9418      9428      9719      9709      9419      9429
 -1      8500    1    0    1
 -2      9719      9709      9419      9429      9720      9710      9420      9430
 -1      8501    1    0    1
 -2      9720      9710      9420      9430      9721      9711      9421      9431
 -1      8502    1    0    1
 -2      9721      9711      9421      9431      9722      9712      9422      9432
 -1      8503    1    0    1
 -2      9722      9712      9422      9432      2941      2940      2911      2912
 -1      8504    1    0    1
 -2       941       940       911       912      9723      9713      9423      9433
 -1      8505    1    0    1
 -2      9723      9713      9423      9433      9724      9714      9424      9434
 -1      8506    1    0    1
 -2      9724      9714      9424      9434      9725      9715      9425      9435
 -1      8507    1    0    1
 -2      9725      9715      9425      9435      9726      9716      9426      9436
 -1      8508    1    0    1
 -2      9726      9716      9426      9436      9727      9717      9427      9437
 -1      8509    1    0    1
 -2      9727      9717      9427      9437      9728      9718      9428      9438
 -1      8510    1    0    1
 -2      9728      9718      9428      9438      9729      9719      9429      9439
 -1      8511    1    0    1
 -2      9729      9719      9429      9439      9730      9720      9430      9440
 -1      8512    1    0    1
 -2      9730      9720      9430      9440      9731      9721      9431      9441
 -1      8513    1    0    1
 -2      9731      9721      9431      9441      9732      9722      9432      9442
 -1      8514    1    0    1
 -2      9732      9722      9432      9442      2942      2941      2912      2913
 -1      8515    1    0    1
 -2       942       941       912       913      9733      9723      9433      9443
 -1      8516    1    0    1
 -2      9733      9723      9433      9443      9734      9724      9434      9444
 -1      8517    1    0    1
 -2      9734      9724      9434      9444      9735      9725      9435      9445
 -1      8518    1    0    1
 -2      9735      9725      9435      9445      9736      9726      9436      9446
 -1      8519    1    0    1
 -2      9736      9726      9436      9446      9737      9727      9437      9447
 -1      8520    1    0    1
 -2      9737      9727      9437      9447      9738      9728      9438      9448
 -1      8521    1    0    1
 -2      9738      9728      9438      9448      9739      9729      9439      9449
 -1      8522    1    0    1
 -2      9739      9729      9439      9449      9740      9730      9440      9450
 -1      8523    1    0    1
 -2      9740      9730      9440      9450      9741      9731      9441      9451
 -1      8524    1    0    1
 -2      9741      9731      9441      9451      9742      9732      9442      9452
 -1      8525    1    0    1
 -2      9742      9732      9442      9452      2943      2942      2913      2914
 -1      8526    1    0    1
 -2       943       942       913       914      9743      9733      9443      9453
 -1      8527    1    0    1
 -2      9743      9733      9443      9453      9744      9734      9444      9454
 -1      8528    1    0    1
 -2      9744      9734      9444      9454      9745      9735      9445      9455
 -1      8529    1    0    1
 -2      9745      9735      9445      9455      9746      9736      9446      9456
 -1      8530    1    0    1
 -2      9746      9736      9446      9456      9747      9737      9447      9457
 -1      8531    1    0    1
 -2      9747      9737      9447      9457      9748      9738      9448      9458
 -1      8532    1    0    1
 -2      9748      9738      9448      9458      9749      9739      9449      9459
 -1      8533    1    0    1
 -2      9749      9739      9449      9459      9750      9740      9450      9460
 -1      8534    1    0    1
 -2      9750      9740      9450      9460      9751      9741      9451      9461
 -1      8535    1    0    1
 -2      9751      9741      9451      9461      9752      9742      9452      9462
 -1      8536    1    0    1
 -2      9752      9742      9452      9462      2944      2943      2914      2915
 -1      8537    1    0    1
 -2       944       943       914       915      9753      9743      9453      9463
 -1      8538    1    0    1
 -2      9753      9743      9453      9463      9754      9744      9454      9464
 -1      8539    1    0    1
 -2      9754      9744      9454      9464      9755      9745      9455      9465
 -1      8540    1    0    1
 -2      9755      9745      9455      9465      9756      9746      9456      9466
 -1      8541    1    0    1
 -2      9756      9746      9456      9466      9757      9747      9457      9467
 -1      8542    1    0    1
 -2      9757      9747      9457      9467      9758      9748      9458      9468
 -1      8543    1    0    1
 -2      9758      9748      9458      9468      9759      9749      9459      9469
 -1      8544    1    0    1
 -2      9759      9749      9459      9469      9760      9750      9460      9470
 -1      8545    1    0    1
 -2      9760      9750      9460      9470      9761      9751      9461      9471
 -1      8546    1    0    1
 -2      9761      9751      9461      9471      9762      9752      9462      9472
 -1      8547    1    0    1
 -2      9762      9752      9462      9472      2945      2944      2915      2916
 -1      8548    1    0    1
 -2       945       944       915       916      9763      9753      9463      9473
 -1      8549    1    0    1
 -2      9763      9753      9463      9473      9764      9754      9464      9474
 -1      8550    1    0    1
 -2      9764      9754      9464      9474      9765      9755      9465      9475
 -1      8551    1    0    1
 -2      9765      9755      9465      9475      9766      9756      9466      9476
 -1      8552    1    0    1
 -2      9766      9756      9466      9476      9767      9757      9467      9477
 -1      8553    1    0    1
 -2      9767      9757      9467      9477      9768      9758      9468      9478
 -1      8554    1    0    1
 -2      9768      9758      9468      9478      9769      9759      9469      9479
 -1      8555    1    0    1
 -2      9769      9759      9469      9479      9770      9760      9470      9480
 -1      8556    1    0    1
 -2      9770      9760      9470      9480      9771      9761      9471      9481
 -1      8557    1    0    1
 -2      9771      9761      9471      9481      9772      9762      9472      9482
 -1      8558    1    0    1
 -2      9772      9762      9472      9482      2946      2945      2916      2917
 -1      8559    1    0    1
 -2       946       945       916       917      9773      9763      9473      9483
 -1      8560    1    0    1
 -2      9773      9763      9473      9483      9774      9764      9474      9484
 -1      8561    1    0    1
 -2      9774      9764      9474      9484      9775      9765      9475      9485
 -1      8562    1    0    1
 -2      9775      9765      9475      9485      9776      9766      9476      9486
 -1      8563    1    0    1
 -2      9776      9766      9476      9486      9777      9767      9477      9487
 -1      8564    1    0    1
 -2      9777      9767      9477      9487      9778      9768      9478      9488
 -1      8565    1    0    1
 -2      9778      9768      9478      9488      9779      9769      9479      9489
 -1      8566    1    0    1
 -2      9779      9769      9479      9489      9780      9770      9480      9490
 -1      8567    1    0    1
 -2      9780      9770      9480      9490      9781      9771      9481      9491
 -1      8568    1    0    1
 -2      9781      9771      9481      9491      9782      9772      9482      9492
 -1      8569    1    0    1
 -2      9782      9772      9482      9492      2947      2946      2917      2918
 -1      8570    1    0    1
 -2       947       946       917       918      9783      9773      9483      9493
 -1      8571    1    0    1
 -2      9783      9773      9483      9493      9784      9774      9484      9494
 -1      8572    1    0    1
 -2      9784      9774      9484      9494      9785      9775      9485      9495
 -1      8573    1    0    1
 -2      9785      9775      9485      9495      9786      9776      9486      9496
 -1      8574    1    0    1
 -2      9786      9776      9486      9496      9787      9777      9487      9497
 -1      8575    1    0    1
 -2      9787      9777      9487      9497      9788      9778      9488      9498
 -1      8576    1    0    1
 -2      9788      9778      9488      9498      9789      9779      9489      9499
 -1      8577    1    0    1
 -2      9789      9779      9489      9499      9790      9780      9490      9500
 -1      8578    1    0    1
 -2      9790      9780      9490      9500      9791      9781      9491      9501
 -1      8579    1    0    1
 -2      9791      9781      9491      9501      9792      9782      9492      9502
 -1      8580    1    0    1
 -2      9792      9782      9492      9502      2948      2947      2918      2919
 -1      8581    1    0    1
 -2        73       947       918        74      1762      9783      9493      1772
 -1      8582    1    0    1
 -2      1762      9783      9493      1772      1763      9784      9494      1773
 -1      8583    1    0    1
 -2      1763      9784      9494      1773      1764      9785      9495      1774
 -1      8584    1    0    1
 -2      1764      9785      9495      1774      1765      9786      9496      1775
 -1      8585    1    0    1
 -2      1765      9786      9496      1775      1766      9787      9497      1776
 -1      8586    1    0    1
 -2      1766      9787      9497      1776      1767      9788      9498      1777
 -1      8587    1    0    1
 -2      1767      9788      9498      1777      1768      9789      9499      1778
 -1      8588    1    0    1
 -2      1768      9789      9499      1778      1769      9790      9500      1779
 -1      8589    1    0    1
 -2      1769      9790      9500      1779      1770      9791      9501      1780
 -1      8590    1    0    1
 -2      1770      9791      9501      1780      1771      9792      9502      1781
 -1      8591    1    0    1
 -2      1771      9792      9502      1781       189      2948      2919       190
 -1      8592    1    0    1
 -2       948        32        31       919      9793      1352      1342      9503
 -1      8593    1    0    1
 -2      9793      1352      1342      9503      9794      1353      1343      9504
 -1      8594    1    0    1
 -2      9794      1353      1343      9504      9795      1354      1344      9505
 -1      8595    1    0    1
 -2      9795      1354      1344      9505      9796      1355      1345      9506
 -1      8596    1    0    1
 -2      9796      1355      1345      9506      9797      1356      1346      9507
 -1      8597    1    0    1
 -2      9797      1356      1346      9507      9798      1357      1347      9508
 -1      8598    1    0    1
 -2      9798      1357      1347      9508      9799      1358      1348      9509
 -1      8599    1    0    1
 -2      9799      1358      1348      9509      9800      1359      1349      9510
 -1      8600    1    0    1
 -2      9800      1359      1349      9510      9801      1360      1350      9511
 -1      8601    1    0    1
 -2      9801      1360      1350      9511      9802      1361      1351      9512
 -1      8602    1    0    1
 -2      9802      1361      1351      9512      2949       148       147      2920
 -1      8603    1    0    1
 -2       949       948       919       920      9803      9793      9503      9513
 -1      8604    1    0    1
 -2      9803      9793      9503      9513      9804      9794      9504      9514
 -1      8605    1    0    1
 -2      9804      9794      9504      9514      9805      9795      9505      9515
 -1      8606    1    0    1
 -2      9805      9795      9505      9515      9806      9796      9506      9516
 -1      8607    1    0    1
 -2      9806      9796      9506      9516      9807      9797      9507      9517
 -1      8608    1    0    1
 -2      9807      9797      9507      9517      9808      9798      9508      9518
 -1      8609    1    0    1
 -2      9808      9798      9508      9518      9809      9799      9509      9519
 -1      8610    1    0    1
 -2      9809      9799      9509      9519      9810      9800      9510      9520
 -1      8611    1    0    1
 -2      9810      9800      9510      9520      9811      9801      9511      9521
 -1      8612    1    0    1
 -2      9811      9801      9511      9521      9812      9802      9512      9522
 -1      8613    1    0    1
 -2      9812      9802      9512      9522      2950      2949      2920      2921
 -1      8614    1    0    1
 -2       950       949       920       921      9813      9803      9513      9523
 -1      8615    1    0    1
 -2      9813      9803      9513      9523      9814      9804      9514      9524
 -1      8616    1    0    1
 -2      9814      9804      9514      9524      9815      9805      9515      9525
 -1      8617    1    0    1
 -2      9815      9805      9515      9525      9816      9806      9516      9526
 -1      8618    1    0    1
 -2      9816      9806      9516      9526      9817      9807      9517      9527
 -1      8619    1    0    1
 -2      9817      9807      9517      9527      9818      9808      9518      9528
 -1      8620    1    0    1
 -2      9818      9808      9518      9528      9819      9809      9519      9529
 -1      8621    1    0    1
 -2      9819      9809      9519      9529      9820      9810      9520      9530
 -1      8622    1    0    1
 -2      9820      9810      9520      9530      9821      9811      9521      9531
 -1      8623    1    0    1
 -2      9821      9811      9521      9531      9822      9812      9522      9532
 -1      8624    1    0    1
 -2      9822      9812      9522      9532      2951      2950      2921      2922
 -1      8625    1    0    1
 -2       951       950       921       922      9823      9813      9523      9533
 -1      8626    1    0    1
 -2      9823      9813      9523      9533      9824      9814      9524      9534
 -1      8627    1    0    1
 -2      9824      9814      9524      9534      9825      9815      9525      9535
 -1      8628    1    0    1
 -2      9825      9815      9525      9535      9826      9816      9526      9536
 -1      8629    1    0    1
 -2      9826      9816      9526      9536      9827      9817      9527      9537
 -1      8630    1    0    1
 -2      9827      9817      9527      9537      9828      9818      9528      9538
 -1      8631    1    0    1
 -2      9828      9818      9528      9538      9829      9819      9529      9539
 -1      8632    1    0    1
 -2      9829      9819      9529      9539      9830      9820      9530      9540
 -1      8633    1    0    1
 -2      9830      9820      9530      9540      9831      9821      9531      9541
 -1      8634    1    0    1
 -2      9831      9821      9531      9541      9832      9822      9532      9542
 -1      8635    1    0    1
 -2      9832      9822      9532      9542      2952      2951      2922      2923
 -1      8636    1    0    1
 -2       952       951       922       923      9833      9823      9533      9543
 -1      8637    1    0    1
 -2      9833      9823      9533      9543      9834      9824      9534      9544
 -1      8638    1    0    1
 -2      9834      9824      9534      9544      9835      9825      9535      9545
 -1      8639    1    0    1
 -2      9835      9825      9535      9545      9836      9826      9536      9546
 -1      8640    1    0    1
 -2      9836      9826      9536      9546      9837      9827      9537      9547
 -1      8641    1    0    1
 -2      9837      9827      9537      9547      9838      9828      9538      9548
 -1      8642    1    0    1
 -2      9838      9828      9538      9548      9839      9829      9539      9549
 -1      8643    1    0    1
 -2      9839      9829      9539      9549      9840      9830      9540      9550
 -1      8644    1    0    1
 -2      9840      9830      9540      9550      9841      9831      9541      9551
 -1      8645    1    0    1
 -2      9841      9831      9541      9551      9842      9832      9542      9552
 -1      8646    1    0    1
 -2      9842      9832      9542      9552      2953      2952      2923      2924
 -1      8647    1    0    1
 -2       953       952       923       924      9843      9833      9543      9553
 -1      8648    1    0    1
 -2      9843      9833      9543      9553      9844      9834      9544      9554
 -1      8649    1    0    1
 -2      9844      9834      9544      9554      9845      9835      9545      9555
 -1      8650    1    0    1
 -2      9845      9835      9545      9555      9846      9836      9546      9556
 -1      8651    1    0    1
 -2      9846      9836      9546      9556      9847      9837      9547      9557
 -1      8652    1    0    1
 -2      9847      9837      9547      9557      9848      9838      9548      9558
 -1      8653    1    0    1
 -2      9848      9838      9548      9558      9849      9839      9549      9559
 -1      8654    1    0    1
 -2      9849      9839      9549      9559      9850      9840      9550      9560
 -1      8655    1    0    1
 -2      9850      9840      9550      9560      9851      9841      9551      9561
 -1      8656    1    0    1
 -2      9851      9841      9551      9561      9852      9842      9552      9562
 -1      8657    1    0    1
 -2      9852      9842      9552      9562      2954      2953      2924      2925
 -1      8658    1    0    1
 -2       954       953       924       925      9853      9843      9553      9563
 -1      8659    1    0    1
 -2      9853      9843      9553      9563      9854      9844      9554      9564
 -1      8660    1    0    1
 -2      9854      9844      9554      9564      9855      9845      9555      9565
 -1      8661    1    0    1
 -2      9855      9845      9555      9565      9856      9846      9556      9566
 -1      8662    1    0    1
 -2      9856      9846      9556      9566      9857      9847      9557      9567
 -1      8663    1    0    1
 -2      9857      9847      9557      9567      9858      9848      9558      9568
 -1      8664    1    0    1
 -2      9858      9848      9558      9568      9859      9849      9559      9569
 -1      8665    1    0    1
 -2      9859      9849      9559      9569      9860      9850      9560      9570
 -1      8666    1    0    1
 -2      9860      9850      9560      9570      9861      9851      9561      9571
 -1      8667    1    0    1
 -2      9861      9851      9561      9571      9862      9852      9562      9572
 -1      8668    1    0    1
 -2      9862      9852      9562      9572      2955      2954      2925      2926
 -1      8669    1    0    1
 -2       955       954       925       926      9863      9853      9563      9573
 -1      8670    1    0    1
 -2      9863      9853      9563      9573      9864      9854      9564      9574
 -1      8671    1    0    1
 -2      9864      9854      9564      9574      9865      9855      9565      9575
 -1      8672    1    0    1
 -2      9865      9855      9565      9575      9866      9856      9566      9576
 -1      8673    1    0    1
 -2      9866      9856      9566      9576      9867      9857      9567      9577
 -1      8674    1    0    1
 -2      9867      9857      9567      9577      9868      9858      9568      9578
 -1      8675    1    0    1
 -2      9868      9858      9568      9578      9869      9859      9569      9579
 -1      8676    1    0    1
 -2      9869      9859      9569      9579      9870      9860      9570      9580
 -1      8677    1    0    1
 -2      9870      9860      9570      9580      9871      9861      9571      9581
 -1      8678    1    0    1
 -2      9871      9861      9571      9581      9872      9862      9572      9582
 -1      8679    1    0    1
 -2      9872      9862      9572      9582      2956      2955      2926      2927
 -1      8680    1    0    1
 -2       956       955       926       927      9873      9863      9573      9583
 -1      8681    1    0    1
 -2      9873      9863      9573      9583      9874      9864      9574      9584
 -1      8682    1    0    1
 -2      9874      9864      9574      9584      9875      9865      9575      9585
 -1      8683    1    0    1
 -2      9875      9865      9575      9585      9876      9866      9576      9586
 -1      8684    1    0    1
 -2      9876      9866      9576      9586      9877      9867      9577      9587
 -1      8685    1    0    1
 -2      9877      9867      9577      9587      9878      9868      9578      9588
 -1      8686    1    0    1
 -2      9878      9868      9578      9588      9879      9869      9579      9589
 -1      8687    1    0    1
 -2      9879      9869      9579      9589      9880      9870      9580      9590
 -1      8688    1    0    1
 -2      9880      9870      9580      9590      9881      9871      9581      9591
 -1      8689    1    0    1
 -2      9881      9871      9581      9591      9882      9872      9582      9592
 -1      8690    1    0    1
 -2      9882      9872      9582      9592      2957      2956      2927      2928
 -1      8691    1    0    1
 -2       957       956       927       928      9883      9873      9583      9593
 -1      8692    1    0    1
 -2      9883      9873      9583      9593      9884      9874      9584      9594
 -1      8693    1    0    1
 -2      9884      9874      9584      9594      9885      9875      9585      9595
 -1      8694    1    0    1
 -2      9885      9875      9585      9595      9886      9876      9586      9596
 -1      8695    1    0    1
 -2      9886      9876      9586      9596      9887      9877      9587      9597
 -1      8696    1    0    1
 -2      9887      9877      9587      9597      9888      9878      9588      9598
 -1      8697    1    0    1
 -2      9888      9878      9588      9598      9889      9879      9589      9599
 -1      8698    1    0    1
 -2      9889      9879      9589      9599      9890      9880      9590      9600
 -1      8699    1    0    1
 -2      9890      9880      9590      9600      9891      9881      9591      9601
 -1      8700    1    0    1
 -2      9891      9881      9591      9601      9892      9882      9592      9602
 -1      8701    1    0    1
 -2      9892      9882      9592      9602      2958      2957      2928      2929
 -1      8702    1    0    1
 -2       958       957       928       929      9893      9883      9593      9603
 -1      8703    1    0    1
 -2      9893      9883      9593      9603      9894      9884      9594      9604
 -1      8704    1    0    1
 -2      9894      9884      9594      9604      9895      9885      9595      9605
 -1      8705    1    0    1
 -2      9895      9885      9595      9605      9896      9886      9596      9606
 -1      8706    1    0    1
 -2      9896      9886      9596      9606      9897      9887      9597      9607
 -1      8707    1    0    1
 -2      9897      9887      9597      9607      9898      9888      9598      9608
 -1      8708    1    0    1
 -2      9898      9888      9598      9608      9899      9889      9599      9609
 -1      8709    1    0    1
 -2      9899      9889      9599      9609      9900      9890      9600      9610
 -1      8710    1    0    1
 -2      9900      9890      9600      9610      9901      9891      9601      9611
 -1      8711    1    0    1
 -2      9901      9891      9601      9611      9902      9892      9602      9612
 -1      8712    1    0    1
 -2      9902      9892      9602      9612      2959      2958      2929      2930
 -1      8713    1    0    1
 -2       959       958       929       930      9903      9893      9603      9613
 -1      8714    1    0    1
 -2      9903      9893      9603      9613      9904      9894      9604      9614
 -1      8715    1    0    1
 -2      9904      9894      9604      9614      9905      9895      9605      9615
 -1      8716    1    0    1
 -2      9905      9895      9605      9615      9906      9896      9606      9616
 -1      8717    1    0    1
 -2      9906      9896      9606      9616      9907      9897      9607      9617
 -1      8718    1    0    1
 -2      9907      9897      9607      9617      9908      9898      9608      9618
 -1      8719    1    0    1
 -2      9908      9898      9608      9618      9909      9899      9609      9619
 -1      8720    1    0    1
 -2      9909      9899      9609      9619      9910      9900      9610      9620
 -1      8721    1    0    1
 -2      9910      9900      9610      9620      9911      9901      9611      9621
 -1      8722    1    0    1
 -2      9911      9901      9611      9621      9912      9902      9612      9622
 -1      8723    1    0    1
 -2      9912      9902      9612      9622      2960      2959      2930      2931
 -1      8724    1    0    1
 -2       960       959       930       931      9913      9903      9613      9623
 -1      8725    1    0    1
 -2      9913      9903      9613      9623      9914      9904      9614      9624
 -1      8726    1    0    1
 -2      9914      9904      9614      9624      9915      9905      9615      9625
 -1      8727    1    0    1
 -2      9915      9905      9615      9625      9916      9906      9616      9626
 -1      8728    1    0    1
 -2      9916      9906      9616      9626      9917      9907      9617      9627
 -1      8729    1    0    1
 -2      9917      9907      9617      9627      9918      9908      9618      9628
 -1      8730    1    0    1
 -2      9918      9908      9618      9628      9919      9909      9619      9629
 -1      8731    1    0    1
 -2      9919      9909      9619      9629      9920      9910      9620      9630
 -1      8732    1    0    1
 -2      9920      9910      9620      9630      9921      9911      9621      9631
 -1      8733    1    0    1
 -2      9921      9911      9621      9631      9922      9912      9622      9632
 -1      8734    1    0    1
 -2      9922      9912      9622      9632      2961      2960      2931      2932
 -1      8735    1    0    1
 -2       961       960       931       932      9923      9913      9623      9633
 -1      8736    1    0    1
 -2      9923      9913      9623      9633      9924      9914      9624      9634
 -1      8737    1    0    1
 -2      9924      9914      9624      9634      9925      9915      9625      9635
 -1      8738    1    0    1
 -2      9925      9915      9625      9635      9926      9916      9626      9636
 -1      8739    1    0    1
 -2      9926      9916      9626      9636      9927      9917      9627      9637
 -1      8740    1    0    1
 -2      9927      9917      9627      9637      9928      9918      9628      9638
 -1      8741    1    0    1
 -2      9928      9918      9628      9638      9929      9919      9629      9639
 -1      8742    1    0    1
 -2      9929      9919      9629      9639      9930      9920      9630      9640
 -1      8743    1    0    1
 -2      9930      9920      9630      9640      9931      9921      9631      9641
 -1      8744    1    0    1
 -2      9931      9921      9631      9641      9932      9922      9632      9642
 -1      8745    1    0    1
 -2      9932      9922      9632      9642      2962      2961      2932      2933
 -1      8746    1    0    1
 -2       962       961       932       933      9933      9923      9633      9643
 -1      8747    1    0    1
 -2      9933      9923      9633      9643      9934      9924      9634      9644
 -1      8748    1    0    1
 -2      9934      9924      9634      9644      9935      9925      9635      9645
 -1      8749    1    0    1
 -2      9935      9925      9635      9645      9936      9926      9636      9646
 -1      8750    1    0    1
 -2      9936      9926      9636      9646      9937      9927      9637      9647
 -1      8751    1    0    1
 -2      9937      9927      9637      9647      9938      9928      9638      9648
 -1      8752    1    0    1
 -2      9938      9928      9638      9648      9939      9929      9639      9649
 -1      8753    1    0    1
 -2      9939      9929      9639      9649      9940      9930      9640      9650
 -1      8754    1    0    1
 -2      9940      9930      9640      9650      9941      9931      9641      9651
 -1      8755    1    0    1
 -2      9941      9931      9641      9651      9942      9932      9642      9652
 -1      8756    1    0    1
 -2      9942      9932      9642      9652      2963      2962      2933      2934
 -1      8757    1    0    1
 -2       963       962       933       934      9943      9933      9643      9653
 -1      8758    1    0    1
 -2      9943      9933      9643      9653      9944      9934      9644      9654
 -1      8759    1    0    1
 -2      9944      9934      9644      9654      9945      9935      9645      9655
 -1      8760    1    0    1
 -2      9945      9935      9645      9655      9946      9936      9646      9656
 -1      8761    1    0    1
 -2      9946      9936      9646      9656      9947      9937      9647      9657
 -1      8762    1    0    1
 -2      9947      9937      9647      9657      9948      9938      9648      9658
 -1      8763    1    0    1
 -2      9948      9938      9648      9658      9949      9939      9649      9659
 -1      8764    1    0    1
 -2      9949      9939      9649      9659      9950      9940      9650      9660
 -1      8765    1    0    1
 -2      9950      9940      9650      9660      9951      9941      9651      9661
 -1      8766    1    0    1
 -2      9951      9941      9651      9661      9952      9942      9652      9662
 -1      8767    1    0    1
 -2      9952      9942      9652      9662      2964      2963      2934      2935
 -1      8768    1    0    1
 -2       964       963       934       935      9953      9943      9653      9663
 -1      8769    1    0    1
 -2      9953      9943      9653      9663      9954      9944      9654      9664
 -1      8770    1    0    1
 -2      9954      9944      9654      9664      9955      9945      9655      9665
 -1      8771    1    0    1
 -2      9955      9945      9655      9665      9956      9946      9656      9666
 -1      8772    1    0    1
 -2      9956      9946      9656      9666      9957      9947      9657      9667
 -1      8773    1    0    1
 -2      9957      9947      9657      9667      9958      9948      9658      9668
 -1      8774    1    0    1
 -2      9958      9948      9658      9668      9959      9949      9659      9669
 -1      8775    1    0    1
 -2      9959      9949      9659      9669      9960      9950      9660      9670
 -1      8776    1    0    1
 -2      9960      9950      9660      9670      9961      9951      9661      9671
 -1      8777    1    0    1
 -2      9961      9951      9661      9671      9962      9952      9662      9672
 -1      8778    1    0    1
 -2      9962      9952      9662      9672      2965      2964      2935      2936
 -1      8779    1    0    1
 -2       965       964       935       936      9963      9953      9663      9673
 -1      8780    1    0    1
 -2      9963      9953      9663      9673      9964      9954      9664      9674
 -1      8781    1    0    1
 -2      9964      9954      9664      9674      9965      9955      9665      9675
 -1      8782    1    0    1
 -2      9965      9955      9665      9675      9966      9956      9666      9676
 -1      8783    1    0    1
 -2      9966      9956      9666      9676      9967      9957      9667      9677
 -1      8784    1    0    1
 -2      9967      9957      9667      9677      9968      9958      9668      9678
 -1      8785    1    0    1
 -2      9968      9958      9668      9678      9969      9959      9669      9679
 -1      8786    1    0    1
 -2      9969      9959      9669      9679      9970      9960      9670      9680
 -1      8787    1    0    1
 -2      9970      9960      9670      9680      9971      9961      9671      9681
 -1      8788    1    0    1
 -2      9971      9961      9671      9681      9972      9962      9672      9682
 -1      8789    1    0    1
 -2      9972      9962      9672      9682      2966      2965      2936      2937
 -1      8790    1    0    1
 -2       966       965       936       937      9973      9963      9673      9683
 -1      8791    1    0    1
 -2      9973      9963      9673      9683      9974      9964      9674      9684
 -1      8792    1    0    1
 -2      9974      9964      9674      9684      9975      9965      9675      9685
 -1      8793    1    0    1
 -2      9975      9965      9675      9685      9976      9966      9676      9686
 -1      8794    1    0    1
 -2      9976      9966      9676      9686      9977      9967      9677      9687
 -1      8795    1    0    1
 -2      9977      9967      9677      9687      9978      9968      9678      9688
 -1      8796    1    0    1
 -2      9978      9968      9678      9688      9979      9969      9679      9689
 -1      8797    1    0    1
 -2      9979      9969      9679      9689      9980      9970      9680      9690
 -1      8798    1    0    1
 -2      9980      9970      9680      9690      9981      9971      9681      9691
 -1      8799    1    0    1
 -2      9981      9971      9681      9691      9982      9972      9682      9692
 -1      8800    1    0    1
 -2      9982      9972      9682      9692      2967      2966      2937      2938
 -1      8801    1    0    1
 -2       967       966       937       938      9983      9973      9683      9693
 -1      8802    1    0    1
 -2      9983      9973      9683      9693      9984      9974      9684      9694
 -1      8803    1    0    1
 -2      9984      9974      9684      9694      9985      9975      9685      9695
 -1      8804    1    0    1
 -2      9985      9975      9685      9695      9986      9976      9686      9696
 -1      8805    1    0    1
 -2      9986      9976      9686      9696      9987      9977      9687      9697
 -1      8806    1    0    1
 -2      9987      9977      9687      9697      9988      9978      9688      9698
 -1      8807    1    0    1
 -2      9988      9978      9688      9698      9989      9979      9689      9699
 -1      8808    1    0    1
 -2      9989      9979      9689      9699      9990      9980      9690      9700
 -1      8809    1    0    1
 -2      9990      9980      9690      9700      9991      9981      9691      9701
 -1      8810    1    0    1
 -2      9991      9981      9691      9701      9992      9982      9692      9702
 -1      8811    1    0    1
 -2      9992      9982      9692      9702      2968      2967      2938      2939
 -1      8812    1    0    1
 -2       968       967       938       939      9993      9983      9693      9703
 -1      8813    1    0    1
 -2      9993      9983      9693      9703      9994      9984      9694      9704
 -1      8814    1    0    1
 -2      9994      9984      9694      9704      9995      9985      9695      9705
 -1      8815    1    0    1
 -2      9995      9985      9695      9705      9996      9986      9696      9706
 -1      8816    1    0    1
 -2      9996      9986      9696      9706      9997      9987      9697      9707
 -1      8817    1    0    1
 -2      9997      9987      9697      9707      9998      9988      9698      9708
 -1      8818    1    0    1
 -2      9998      9988      9698      9708      9999      9989      9699      9709
 -1      8819    1    0    1
 -2      9999      9989      9699      9709     10000      9990      9700      9710
 -1      8820    1    0    1
 -2     10000      9990      9700      9710     10001      9991      9701      9711
 -1      8821    1    0    1
 -2     10001      9991      9701      9711     10002      9992      9702      9712
 -1      8822    1    0    1
 -2     10002      9992      9702      9712      2969      2968      2939      2940
 -1      8823    1    0    1
 -2       969       968       939       940     10003      9993      9703      9713
 -1      8824    1    0    1
 -2     10003      9993      9703      9713     10004      9994      9704      9714
 -1      8825    1    0    1
 -2     10004      9994      9704      9714     10005      9995      9705      9715
 -1      8826    1    0    1
 -2     10005      9995      9705      9715     10006      9996      9706      9716
 -1      8827    1    0    1
 -2     10006      9996      9706      9716     10007      9997      9707      9717
 -1      8828    1    0    1
 -2     10007      9997      9707      9717     10008      9998      9708      9718
 -1      8829    1    0    1
 -2     10008      9998      9708      9718     10009      9999      9709      9719
 -1      8830    1    0    1
 -2     10009      9999      9709      9719     10010     10000      9710      9720
 -1      8831    1    0    1
 -2     10010     10000      9710      9720     10011     10001      9711      9721
 -1      8832    1    0    1
 -2     10011     10001      9711      9721     10012     10002      9712      9722
 -1      8833    1    0    1
 -2     10012     10002      9712      9722      2970      2969      2940      2941
 -1      8834    1    0    1
 -2       970       969       940       941     10013     10003      9713      9723
 -1      8835    1    0    1
 -2     10013     10003      9713      9723     10014     10004      9714      9724
 -1      8836    1    0    1
 -2     10014     10004      9714      9724     10015     10005      9715      9725
 -1      8837    1    0    1
 -2     10015     10005      9715      9725     10016     10006      9716      9726
 -1      8838    1    0    1
 -2     10016     10006      9716      9726     10017     10007      9717      9727
 -1      8839    1    0    1
 -2     10017     10007      9717      9727     10018     10008      9718      9728
 -1      8840    1    0    1
 -2     10018     10008      9718      9728     10019     10009      9719      9729
 -1      8841    1    0    1
 -2     10019     10009      9719      9729     10020     10010      9720      9730
 -1      8842    1    0    1
 -2     10020     10010      9720      9730     10021     10011      9721      9731
 -1      8843    1    0    1
 -2     10021     10011      9721      9731     10022     10012      9722      9732
 -1      8844    1    0    1
 -2     10022     10012      9722      9732      2971      2970      2941      2942
 -1      8845    1    0    1
 -2       971       970       941       942     10023     10013      9723      9733
 -1      8846    1    0    1
 -2     10023     10013      9723      9733     10024     10014      9724      9734
 -1      8847    1    0    1
 -2     10024     10014      9724      9734     10025     10015      9725      9735
 -1      8848    1    0    1
 -2     10025     10015      9725      9735     10026     10016      9726      9736
 -1      8849    1    0    1
 -2     10026     10016      9726      9736     10027     10017      9727      9737
 -1      8850    1    0    1
 -2     10027     10017      9727      9737     10028     10018      9728      9738
 -1      8851    1    0    1
 -2     10028     10018      9728      9738     10029     10019      9729      9739
 -1      8852    1    0    1
 -2     10029     10019      9729      9739     10030     10020      9730      9740
 -1      8853    1    0    1
 -2     10030     10020      9730      9740     10031     10021      9731      9741
 -1      8854    1    0    1
 -2     10031     10021      9731      9741     10032     10022      9732      9742
 -1      8855    1    0    1
 -2     10032     10022      9732      9742      2972      2971      2942      2943
 -1      8856    1    0    1
 -2       972       971       942       943     10033     10023      9733      9743
 -1      8857    1    0    1
 -2     10033     10023      9733      9743     10034     10024      9734      9744
 -1      8858    1    0    1
 -2     10034     10024      9734      9744     10035     10025      9735      9745
 -1      8859    1    0    1
 -2     10035     10025      9735      9745     10036     10026      9736      9746
 -1      8860    1    0    1
 -2     10036     10026      9736      9746     10037     10027      9737      9747
 -1      8861    1    0    1
 -2     10037     10027      9737      9747     10038     10028      9738      9748
 -1      8862    1    0    1
 -2     10038     10028      9738      9748     10039     10029      9739      9749
 -1      8863    1    0    1
 -2     10039     10029      9739      9749     10040     10030      9740      9750
 -1      8864    1    0    1
 -2     10040     10030      9740      9750     10041     10031      9741      9751
 -1      8865    1    0    1
 -2     10041     10031      9741      9751     10042     10032      9742      9752
 -1      8866    1    0    1
 -2     10042     10032      9742      9752      2973      2972      2943      2944
 -1      8867    1    0    1
 -2       973       972       943       944     10043     10033      9743      9753
 -1      8868    1    0    1
 -2     10043     10033      9743      9753     10044     10034      9744      9754
 -1      8869    1    0    1
 -2     10044     10034      9744      9754     10045     10035      9745      9755
 -1      8870    1    0    1
 -2     10045     10035      9745      9755     10046     10036      9746      9756
 -1      8871    1    0    1
 -2     10046     10036      9746      9756     10047     10037      9747      9757
 -1      8872    1    0    1
 -2     10047     10037      9747      9757     10048     10038      9748      9758
 -1      8873    1    0    1
 -2     10048     10038      9748      9758     10049     10039      9749      9759
 -1      8874    1    0    1
 -2     10049     10039      9749      9759     10050     10040      9750      9760
 -1      8875    1    0    1
 -2     10050     10040      9750      9760     10051     10041      9751      9761
 -1      8876    1    0    1
 -2     10051     10041      9751      9761     10052     10042      9752      9762
 -1      8877    1    0    1
 -2     10052     10042      9752      9762      2974      2973      2944      2945
 -1      8878    1    0    1
 -2       974       973       944       945     10053     10043      9753      9763
 -1      8879    1    0    1
 -2     10053     10043      9753      9763     10054     10044      9754      9764
 -1      8880    1    0    1
 -2     10054     10044      9754      9764     10055     10045      9755      9765
 -1      8881    1    0    1
 -2     10055     10045      9755      9765     10056     10046      9756      9766
 -1      8882    1    0    1
 -2     10056     10046      9756      9766     10057     10047      9757      9767
 -1      8883    1    0    1
 -2     10057     10047      9757      9767     10058     10048      9758      9768
 -1      8884    1    0    1
 -2     10058     10048      9758      9768     10059     10049      9759      9769
 -1      8885    1    0    1
 -2     10059     10049      9759      9769     10060     10050      9760      9770
 -1      8886    1    0    1
 -2     10060     10050      9760      9770     10061     10051      9761      9771
 -1      8887    1    0    1
 -2     10061     10051      9761      9771     10062     10052      9762      9772
 -1      8888    1    0    1
 -2     10062     10052      9762      9772      2975      2974      2945      2946
 -1      8889    1    0    1
 -2       975       974       945       946     10063     10053      9763      9773
 -1      8890    1    0    1
 -2     10063     10053      9763      9773     10064     10054      9764      9774
 -1      8891    1    0    1
 -2     10064     10054      9764      9774     10065     10055      9765      9775
 -1      8892    1    0    1
 -2     10065     10055      9765      9775     10066     10056      9766      9776
 -1      8893    1    0    1
 -2     10066     10056      9766      9776     10067     10057      9767      9777
 -1      8894    1    0    1
 -2     10067     10057      9767      9777     10068     10058      9768      9778
 -1      8895    1    0    1
 -2     10068     10058      9768      9778     10069     10059      9769      9779
 -1      8896    1    0    1
 -2     10069     10059      9769      9779     10070     10060      9770      9780
 -1      8897    1    0    1
 -2     10070     10060      9770      9780     10071     10061      9771      9781
 -1      8898    1    0    1
 -2     10071     10061      9771      9781     10072     10062      9772      9782
 -1      8899    1    0    1
 -2     10072     10062      9772      9782      2976      2975      2946      2947
 -1      8900    1    0    1
 -2       976       975       946       947     10073     10063      9773      9783
 -1      8901    1    0    1
 -2     10073     10063      9773      9783     10074     10064      9774      9784
 -1      8902    1    0    1
 -2     10074     10064      9774      9784     10075     10065      9775      9785
 -1      8903    1    0    1
 -2     10075     10065      9775      9785     10076     10066      9776      9786
 -1      8904    1    0    1
 -2     10076     10066      9776      9786     10077     10067      9777      9787
 -1      8905    1    0    1
 -2     10077     10067      9777      9787     10078     10068      9778      9788
 -1      8906    1    0    1
 -2     10078     10068      9778      9788     10079     10069      9779      9789
 -1      8907    1    0    1
 -2     10079     10069      9779      9789     10080     10070      9780      9790
 -1      8908    1    0    1
 -2     10080     10070      9780      9790     10081     10071      9781      9791
 -1      8909    1    0    1
 -2     10081     10071      9781      9791     10082     10072      9782      9792
 -1      8910    1    0    1
 -2     10082     10072      9782      9792      2977      2976      2947      2948
 -1      8911    1    0    1
 -2        72       976       947        73      1752     10073      9783      1762
 -1      8912    1    0    1
 -2      1752     10073      9783      1762      1753     10074      9784      1763
 -1      8913    1    0    1
 -2      1753     10074      9784      1763      1754     10075      9785      1764
 -1      8914    1    0    1
 -2      1754     10075      9785      1764      1755     10076      9786      1765
 -1      8915    1    0    1
 -2      1755     10076      9786      1765      1756     10077      9787      1766
 -1      8916    1    0    1
 -2      1756     10077      9787      1766      1757     10078      9788      1767
 -1      8917    1    0    1
 -2      1757     10078      9788      1767      1758     10079      9789      1768
 -1      8918    1    0    1
 -2      1758     10079      9789      1768      1759     10080      9790      1769
 -1      8919    1    0    1
 -2      1759     10080      9790      1769      1760     10081      9791      1770
 -1      8920    1    0    1
 -2      1760     10081      9791      1770      1761     10082      9792      1771
 -1      8921    1    0    1
 -2      1761     10082      9792      1771       188      2977      2948       189
 -1      8922    1    0    1
 -2       977        33        32       948     10083      1362      1352      9793
 -1      8923    1    0    1
 -2     10083      1362      1352      9793     10084      1363      1353      9794
 -1      8924    1    0    1
 -2     10084      1363      1353      9794     10085      1364      1354      9795
 -1      8925    1    0    1
 -2     10085      1364      1354      9795     10086      1365      1355      9796
 -1      8926    1    0    1
 -2     10086      1365      1355      9796     10087      1366      1356      9797
 -1      8927    1    0    1
 -2     10087      1366      1356      9797     10088      1367      1357      9798
 -1      8928    1    0    1
 -2     10088      1367      1357      9798     10089      1368      1358      9799
 -1      8929    1    0    1
 -2     10089      1368      1358      9799     10090      1369      1359      9800
 -1      8930    1    0    1
 -2     10090      1369      1359      9800     10091      1370      1360      9801
 -1      8931    1    0    1
 -2     10091      1370      1360      9801     10092      1371      1361      9802
 -1      8932    1    0    1
 -2     10092      1371      1361      9802      2978       149       148      2949
 -1      8933    1    0    1
 -2       978       977       948       949     10093     10083      9793      9803
 -1      8934    1    0    1
 -2     10093     10083      9793      9803     10094     10084      9794      9804
 -1      8935    1    0    1
 -2     10094     10084      9794      9804     10095     10085      9795      9805
 -1      8936    1    0    1
 -2     10095     10085      9795      9805     10096     10086      9796      9806
 -1      8937    1    0    1
 -2     10096     10086      9796      9806     10097     10087      9797      9807
 -1      8938    1    0    1
 -2     10097     10087      9797      9807     10098     10088      9798      9808
 -1      8939    1    0    1
 -2     10098     10088      9798      9808     10099     10089      9799      9809
 -1      8940    1    0    1
 -2     10099     10089      9799      9809     10100     10090      9800      9810
 -1      8941    1    0    1
 -2     10100     10090      9800      9810     10101     10091      9801      9811
 -1      8942    1    0    1
 -2     10101     10091      9801      9811     10102     10092      9802      9812
 -1      8943    1    0    1
 -2     10102     10092      9802      9812      2979      2978      2949      2950
 -1      8944    1    0    1
 -2       979       978       949       950     10103     10093      9803      9813
 -1      8945    1    0    1
 -2     10103     10093      9803      9813     10104     10094      9804      9814
 -1      8946    1    0    1
 -2     10104     10094      9804      9814     10105     10095      9805      9815
 -1      8947    1    0    1
 -2     10105     10095      9805      9815     10106     10096      9806      9816
 -1      8948    1    0    1
 -2     10106     10096      9806      9816     10107     10097      9807      9817
 -1      8949    1    0    1
 -2     10107     10097      9807      9817     10108     10098      9808      9818
 -1      8950    1    0    1
 -2     10108     10098      9808      9818     10109     10099      9809      9819
 -1      8951    1    0    1
 -2     10109     10099      9809      9819     10110     10100      9810      9820
 -1      8952    1    0    1
 -2     10110     10100      9810      9820     10111     10101      9811      9821
 -1      8953    1    0    1
 -2     10111     10101      9811      9821     10112     10102      9812      9822
 -1      8954    1    0    1
 -2     10112     10102      9812      9822      2980      2979      2950      2951
 -1      8955    1    0    1
 -2       980       979       950       951     10113     10103      9813      9823
 -1      8956    1    0    1
 -2     10113     10103      9813      9823     10114     10104      9814      9824
 -1      8957    1    0    1
 -2     10114     10104      9814      9824     10115     10105      9815      9825
 -1      8958    1    0    1
 -2     10115     10105      9815      9825     10116     10106      9816      9826
 -1      8959    1    0    1
 -2     10116     10106      9816      9826     10117     10107      9817      9827
 -1      8960    1    0    1
 -2     10117     10107      9817      9827     10118     10108      9818      9828
 -1      8961    1    0    1
 -2     10118     10108      9818      9828     10119     10109      9819      9829
 -1      8962    1    0    1
 -2     10119     10109      9819      9829     10120     10110      9820      9830
 -1      8963    1    0    1
 -2     10120     10110      9820      9830     10121     10111      9821      9831
 -1      8964    1    0    1
 -2     10121     10111      9821      9831     10122     10112      9822      9832
 -1      8965    1    0    1
 -2     10122     10112      9822      9832      2981      2980      2951      2952
 -1      8966    1    0    1
 -2       981       980       951       952     10123     10113      9823      9833
 -1      8967    1    0    1
 -2     10123     10113      9823      9833     10124     10114      9824      9834
 -1      8968    1    0    1
 -2     10124     10114      9824      9834     10125     10115      9825      9835
 -1      8969    1    0    1
 -2     10125     10115      9825      9835     10126     10116      9826      9836
 -1      8970    1    0    1
 -2     10126     10116      9826      9836     10127     10117      9827      9837
 -1      8971    1    0    1
 -2     10127     10117      9827      9837     10128     10118      9828      9838
 -1      8972    1    0    1
 -2     10128     10118      9828      9838     10129     10119      9829      9839
 -1      8973    1    0    1
 -2     10129     10119      9829      9839     10130     10120      9830      9840
 -1      8974    1    0    1
 -2     10130     10120      9830      9840     10131     10121      9831      9841
 -1      8975    1    0    1
 -2     10131     10121      9831      9841     10132     10122      9832      9842
 -1      8976    1    0    1
 -2     10132     10122      9832      9842      2982      2981      2952      2953
 -1      8977    1    0    1
 -2       982       981       952       953     10133     10123      9833      9843
 -1      8978    1    0    1
 -2     10133     10123      9833      9843     10134     10124      9834      9844
 -1      8979    1    0    1
 -2     10134     10124      9834      9844     10135     10125      9835      9845
 -1      8980    1    0    1
 -2     10135     10125      9835      9845     10136     10126      9836      9846
 -1      8981    1    0    1
 -2     10136     10126      9836      9846     10137     10127      9837      9847
 -1      8982    1    0    1
 -2     10137     10127      9837      9847     10138     10128      9838      9848
 -1      8983    1    0    1
 -2     10138     10128      9838      9848     10139     10129      9839      9849
 -1      8984    1    0    1
 -2     10139     10129      9839      9849     10140     10130      9840      9850
 -1      8985    1    0    1
 -2     10140     10130      9840      9850     10141     10131      9841      9851
 -1      8986    1    0    1
 -2     10141     10131      9841      9851     10142     10132      9842      9852
 -1      8987    1    0    1
 -2     10142     10132      9842      9852      2983      2982      2953      2954
 -1      8988    1    0    1
 -2       983       982       953       954     10143     10133      9843      9853
 -1      8989    1    0    1
 -2     10143     10133      9843      9853     10144     10134      9844      9854
 -1      8990    1    0    1
 -2     10144     10134      9844      9854     10145     10135      9845      9855
 -1      8991    1    0    1
 -2     10145     10135      9845      9855     10146     10136      9846      9856
 -1      8992    1    0    1
 -2     10146     10136      9846      9856     10147     10137      9847      9857
 -1      8993    1    0    1
 -2     10147     10137      9847      9857     10148     10138      9848      9858
 -1      8994    1    0    1
 -2     10148     10138      9848      9858     10149     10139      9849      9859
 -1      8995    1    0    1
 -2     10149     10139      9849      9859     10150     10140      9850      9860
 -1      8996    1    0    1
 -2     10150     10140      9850      9860     10151     10141      9851      9861
 -1      8997    1    0    1
 -2     10151     10141      9851      9861     10152     10142      9852      9862
 -1      8998    1    0    1
 -2     10152     10142      9852      9862      2984      2983      2954      2955
 -1      8999    1    0    1
 -2       984       983       954       955     10153     10143      9853      9863
 -1      9000    1    0    1
 -2     10153     10143      9853      9863     10154     10144      9854      9864
 -1      9001    1    0    1
 -2     10154     10144      9854      9864     10155     10145      9855      9865
 -1      9002    1    0    1
 -2     10155     10145      9855      9865     10156     10146      9856      9866
 -1      9003    1    0    1
 -2     10156     10146      9856      9866     10157     10147      9857      9867
 -1      9004    1    0    1
 -2     10157     10147      9857      9867     10158     10148      9858      9868
 -1      9005    1    0    1
 -2     10158     10148      9858      9868     10159     10149      9859      9869
 -1      9006    1    0    1
 -2     10159     10149      9859      9869     10160     10150      9860      9870
 -1      9007    1    0    1
 -2     10160     10150      9860      9870     10161     10151      9861      9871
 -1      9008    1    0    1
 -2     10161     10151      9861      9871     10162     10152      9862      9872
 -1      9009    1    0    1
 -2     10162     10152      9862      9872      2985      2984      2955      2956
 -1      9010    1    0    1
 -2       985       984       955       956     10163     10153      9863      9873
 -1      9011    1    0    1
 -2     10163     10153      9863      9873     10164     10154      9864      9874
 -1      9012    1    0    1
 -2     10164     10154      9864      9874     10165     10155      9865      9875
 -1      9013    1    0    1
 -2     10165     10155      9865      9875     10166     10156      9866      9876
 -1      9014    1    0    1
 -2     10166     10156      9866      9876     10167     10157      9867      9877
 -1      9015    1    0    1
 -2     10167     10157      9867      9877     10168     10158      9868      9878
 -1      9016    1    0    1
 -2     10168     10158      9868      9878     10169     10159      9869      9879
 -1      9017    1    0    1
 -2     10169     10159      9869      9879     10170     10160      9870      9880
 -1      9018    1    0    1
 -2     10170     10160      9870      9880     10171     10161      9871      9881
 -1      9019    1    0    1
 -2     10171     10161      9871      9881     10172     10162      9872      9882
 -1      9020    1    0    1
 -2     10172     10162      9872      9882      2986      2985      2956      2957
 -1      9021    1    0    1
 -2       986       985       956       957     10173     10163      9873      9883
 -1      9022    1    0    1
 -2     10173     10163      9873      9883     10174     10164      9874      9884
 -1      9023    1    0    1
 -2     10174     10164      9874      9884     10175     10165      9875      9885
 -1      9024    1    0    1
 -2     10175     10165      9875      9885     10176     10166      9876      9886
 -1      9025    1    0    1
 -2     10176     10166      9876      9886     10177     10167      9877      9887
 -1      9026    1    0    1
 -2     10177     10167      9877      9887     10178     10168      9878      9888
 -1      9027    1    0    1
 -2     10178     10168      9878      9888     10179     10169      9879      9889
 -1      9028    1    0    1
 -2     10179     10169      9879      9889     10180     10170      9880      9890
 -1      9029    1    0    1
 -2     10180     10170      9880      9890     10181     10171      9881      9891
 -1      9030    1    0    1
 -2     10181     10171      9881      9891     10182     10172      9882      9892
 -1      9031    1    0    1
 -2     10182     10172      9882      9892      2987      2986      2957      2958
 -1      9032    1    0    1
 -2       987       986       957       958     10183     10173      9883      9893
 -1      9033    1    0    1
 -2     10183     10173      9883      9893     10184     10174      9884      9894
 -1      9034    1    0    1
 -2     10184     10174      9884      9894     10185     10175      9885      9895
 -1      9035    1    0    1
 -2     10185     10175      9885      9895     10186     10176      9886      9896
 -1      9036    1    0    1
 -2     10186     10176      9886      9896     10187     10177      9887      9897
 -1      9037    1    0    1
 -2     10187     10177      9887      9897     10188     10178      9888      9898
 -1      9038    1    0    1
 -2     10188     10178      9888      9898     10189     10179      9889      9899
 -1      9039    1    0    1
 -2     10189     10179      9889      9899     10190     10180      9890      9900
 -1      9040    1    0    1
 -2     10190     10180      9890      9900     10191     10181      9891      9901
 -1      9041    1    0    1
 -2     10191     10181      9891      9901     10192     10182      9892      9902
 -1      9042    1    0    1
 -2     10192     10182      9892      9902      2988      2987      2958      2959
 -1      9043    1    0    1
 -2       988       987       958       959     10193     10183      9893      9903
 -1      9044    1    0    1
 -2     10193     10183      9893      9903     10194     10184      9894      9904
 -1      9045    1    0    1
 -2     10194     10184      9894      9904     10195     10185      9895      9905
 -1      9046    1    0    1
 -2     10195     10185      9895      9905     10196     10186      9896      9906
 -1      9047    1    0    1
 -2     10196     10186      9896      9906     10197     10187      9897      9907
 -1      9048    1    0    1
 -2     10197     10187      9897      9907     10198     10188      9898      9908
 -1      9049    1    0    1
 -2     10198     10188      9898      9908     10199     10189      9899      9909
 -1      9050    1    0    1
 -2     10199     10189      9899      9909     10200     10190      9900      9910
 -1      9051    1    0    1
 -2     10200     10190      9900      9910     10201     10191      9901      9911
 -1      9052    1    0    1
 -2     10201     10191      9901      9911     10202     10192      9902      9912
 -1      9053    1    0    1
 -2     10202     10192      9902      9912      2989      2988      2959      2960
 -1      9054    1    0    1
 -2       989       988       959       960     10203     10193      9903      9913
 -1      9055    1    0    1
 -2     10203     10193      9903      9913     10204     10194      9904      9914
 -1      9056    1    0    1
 -2     10204     10194      9904      9914     10205     10195      9905      9915
 -1      9057    1    0    1
 -2     10205     10195      9905      9915     10206     10196      9906      9916
 -1      9058    1    0    1
 -2     10206     10196      9906      9916     10207     10197      9907      9917
 -1      9059    1    0    1
 -2     10207     10197      9907      9917     10208     10198      9908      9918
 -1      9060    1    0    1
 -2     10208     10198      9908      9918     10209     10199      9909      9919
 -1      9061    1    0    1
 -2     10209     10199      9909      9919     10210     10200      9910      9920
 -1      9062    1    0    1
 -2     10210     10200      9910      9920     10211     10201      9911      9921
 -1      9063    1    0    1
 -2     10211     10201      9911      9921     10212     10202      9912      9922
 -1      9064    1    0    1
 -2     10212     10202      9912      9922      2990      2989      2960      2961
 -1      9065    1    0    1
 -2       990       989       960       961     10213     10203      9913      9923
 -1      9066    1    0    1
 -2     10213     10203      9913      9923     10214     10204      9914      9924
 -1      9067    1    0    1
 -2     10214     10204      9914      9924     10215     10205      9915      9925
 -1      9068    1    0    1
 -2     10215     10205      9915      9925     10216     10206      9916      9926
 -1      9069    1    0    1
 -2     10216     10206      9916      9926     10217     10207      9917      9927
 -1      9070    1    0    1
 -2     10217     10207      9917      9927     10218     10208      9918      9928
 -1      9071    1    0    1
 -2     10218     10208      9918      9928     10219     10209      9919      9929
 -1      9072    1    0    1
 -2     10219     10209      9919      9929     10220     10210      9920      9930
 -1      9073    1    0    1
 -2     10220     10210      9920      9930     10221     10211      9921      9931
 -1      9074    1    0    1
 -2     10221     10211      9921      9931     10222     10212      9922      9932
 -1      9075    1    0    1
 -2     10222     10212      9922      9932      2991      2990      2961      2962
 -1      9076    1    0    1
 -2       991       990       961       962     10223     10213      9923      9933
 -1      9077    1    0    1
 -2     10223     10213      9923      9933     10224     10214      9924      9934
 -1      9078    1    0    1
 -2     10224     10214      9924      9934     10225     10215      9925      9935
 -1      9079    1    0    1
 -2     10225     10215      9925      9935     10226     10216      9926      9936
 -1      9080    1    0    1
 -2     10226     10216      9926      9936     10227     10217      9927      9937
 -1      9081    1    0    1
 -2     10227     10217      9927      9937     10228     10218      9928      9938
 -1      9082    1    0    1
 -2     10228     10218      9928      9938     10229     10219      9929      9939
 -1      9083    1    0    1
 -2     10229     10219      9929      9939     10230     10220      9930      9940
 -1      9084    1    0    1
 -2     10230     10220      9930      9940     10231     10221      9931      9941
 -1      9085    1    0    1
 -2     10231     10221      9931      9941     10232     10222      9932      9942
 -1      9086    1    0    1
 -2     10232     10222      9932      9942      2992      2991      2962      2963
 -1      9087    1    0    1
 -2       992       991       962       963     10233     10223      9933      9943
 -1      9088    1    0    1
 -2     10233     10223      9933      9943     10234     10224      9934      9944
 -1      9089    1    0    1
 -2     10234     10224      9934      9944     10235     10225      9935      9945
 -1      9090    1    0    1
 -2     10235     10225      9935      9945     10236     10226      9936      9946
 -1      9091    1    0    1
 -2     10236     10226      9936      9946     10237     10227      9937      9947
 -1      9092    1    0    1
 -2     10237     10227      9937      9947     10238     10228      9938      9948
 -1      9093    1    0    1
 -2     10238     10228      9938      9948     10239     10229      9939      9949
 -1      9094    1    0    1
 -2     10239     10229      9939      9949     10240     10230      9940      9950
 -1      9095    1    0    1
 -2     10240     10230      9940      9950     10241     10231      9941      9951
 -1      9096    1    0    1
 -2     10241     10231      9941      9951     10242     10232      9942      9952
 -1      9097    1    0    1
 -2     10242     10232      9942      9952      2993      2992      2963      2964
 -1      9098    1    0    1
 -2       993       992       963       964     10243     10233      9943      9953
 -1      9099    1    0    1
 -2     10243     10233      9943      9953     10244     10234      9944      9954
 -1      9100    1    0    1
 -2     10244     10234      9944      9954     10245     10235      9945      9955
 -1      9101    1    0    1
 -2     10245     10235      9945      9955     10246     10236      9946      9956
 -1      9102    1    0    1
 -2     10246     10236      9946      9956     10247     10237      9947      9957
 -1      9103    1    0    1
 -2     10247     10237      9947      9957     10248     10238      9948      9958
 -1      9104    1    0    1
 -2     10248     10238      9948      9958     10249     10239      9949      9959
 -1      9105    1    0    1
 -2     10249     10239      9949      9959     10250     10240      9950      9960
 -1      9106    1    0    1
 -2     10250     10240      9950      9960     10251     10241      9951      9961
 -1      9107    1    0    1
 -2     10251     10241      9951      9961     10252     10242      9952      9962
 -1      9108    1    0    1
 -2     10252     10242      9952      9962      2994      2993      2964      2965
 -1      9109    1    0    1
 -2       994       993       964       965     10253     10243      9953      9963
 -1      9110    1    0    1
 -2     10253     10243      9953      9963     10254     10244      9954      9964
 -1      9111    1    0    1
 -2     10254     10244      9954      9964     10255     10245      9955      9965
 -1      9112    1    0    1
 -2     10255     10245      9955      9965     10256     10246      9956      9966
 -1      9113    1    0    1
 -2     10256     10246      9956      9966     10257     10247      9957      9967
 -1      9114    1    0    1
 -2     10257     10247      9957      9967     10258     10248      9958      9968
 -1      9115    1    0    1
 -2     10258     10248      9958      9968     10259     10249      9959      9969
 -1      9116    1    0    1
 -2     10259     10249      9959      9969     10260     10250      9960      9970
 -1      9117    1    0    1
 -2     10260     10250      9960      9970     10261     10251      9961      9971
 -1      9118    1    0    1
 -2     10261     10251      9961      9971     10262     10252      9962      9972
 -1      9119    1    0    1
 -2     10262     10252      9962      9972      2995      2994      2965      2966
 -1      9120    1    0    1
 -2       995       994       965       966     10263     10253      9963      9973
 -1      9121    1    0    1
 -2     10263     10253      9963      9973     10264     10254      9964      9974
 -1      9122    1    0    1
 -2     10264     10254      9964      9974     10265     10255      9965      9975
 -1      9123    1    0    1
 -2     10265     10255      9965      9975     10266     10256      9966      9976
 -1      9124    1    0    1
 -2     10266     10256      9966      9976     10267     10257      9967      9977
 -1      9125    1    0    1
 -2     10267     10257      9967      9977     10268     10258      9968      9978
 -1      9126    1    0    1
 -2     10268     10258      9968      9978     10269     10259      9969      9979
 -1      9127    1    0    1
 -2     10269     10259      9969      9979     10270     10260      9970      9980
 -1      9128    1    0    1
 -2     10270     10260      9970      9980     10271     10261      9971      9981
 -1      9129    1    0    1
 -2     10271     10261      9971      9981     10272     10262      9972      9982
 -1      9130    1    0    1
 -2     10272     10262      9972      9982      2996      2995      2966      2967
 -1      9131    1    0    1
 -2       996       995       966       967     10273     10263      9973      9983
 -1      9132    1    0    1
 -2     10273     10263      9973      9983     10274     10264      9974      9984
 -1      9133    1    0    1
 -2     10274     10264      9974      9984     10275     10265      9975      9985
 -1      9134    1    0    1
 -2     10275     10265      9975      9985     10276     10266      9976      9986
 -1      9135    1    0    1
 -2     10276     10266      9976      9986     10277     10267      9977      9987
 -1      9136    1    0    1
 -2     10277     10267      9977      9987     10278     10268      9978      9988
 -1      9137    1    0    1
 -2     10278     10268      9978      9988     10279     10269      9979      9989
 -1      9138    1    0    1
 -2     10279     10269      9979      9989     10280     10270      9980      9990
 -1      9139    1    0    1
 -2     10280     10270      9980      9990     10281     10271      9981      9991
 -1      9140    1    0    1
 -2     10281     10271      9981      9991     10282     10272      9982      9992
 -1      9141    1    0    1
 -2     10282     10272      9982      9992      2997      2996      2967      2968
 -1      9142    1    0    1
 -2       997       996       967       968     10283     10273      9983      9993
 -1      9143    1    0    1
 -2     10283     10273      9983      9993     10284     10274      9984      9994
 -1      9144    1    0    1
 -2     10284     10274      9984      9994     10285     10275      9985      9995
 -1      9145    1    0    1
 -2     10285     10275      9985      9995     10286     10276      9986      9996
 -1      9146    1    0    1
 -2     10286     10276      9986      9996     10287     10277      9987      9997
 -1      9147    1    0    1
 -2     10287     10277      9987      9997     10288     10278      9988      9998
 -1      9148    1    0    1
 -2     10288     10278      9988      9998     10289     10279      9989      9999
 -1      9149    1    0    1
 -2     10289     10279      9989      9999     10290     10280      9990     10000
 -1      9150    1    0    1
 -2     10290     10280      9990     10000     10291     10281      9991     10001
 -1      9151    1    0    1
 -2     10291     10281      9991     10001     10292     10282      9992     10002
 -1      9152    1    0    1
 -2     10292     10282      9992     10002      2998      2997      2968      2969
 -1      9153    1    0    1
 -2       998       997       968       969     10293     10283      9993     10003
 -1      9154    1    0    1
 -2     10293     10283      9993     10003     10294     10284      9994     10004
 -1      9155    1    0    1
 -2     10294     10284      9994     10004     10295     10285      9995     10005
 -1      9156    1    0    1
 -2     10295     10285      9995     10005     10296     10286      9996     10006
 -1      9157    1    0    1
 -2     10296     10286      9996     10006     10297     10287      9997     10007
 -1      9158    1    0    1
 -2     10297     10287      9997     10007     10298     10288      9998     10008
 -1      9159    1    0    1
 -2     10298     10288      9998     10008     10299     10289      9999     10009
 -1      9160    1    0    1
 -2     10299     10289      9999     10009     10300     10290     10000     10010
 -1      9161    1    0    1
 -2     10300     10290     10000     10010     10301     10291     10001     10011
 -1      9162    1    0    1
 -2     10301     10291     10001     10011     10302     10292     10002     10012
 -1      9163    1    0    1
 -2     10302     10292     10002     10012      2999      2998      2969      2970
 -1      9164    1    0    1
 -2       999       998       969       970     10303     10293     10003     10013
 -1      9165    1    0    1
 -2     10303     10293     10003     10013     10304     10294     10004     10014
 -1      9166    1    0    1
 -2     10304     10294     10004     10014     10305     10295     10005     10015
 -1      9167    1    0    1
 -2     10305     10295     10005     10015     10306     10296     10006     10016
 -1      9168    1    0    1
 -2     10306     10296     10006     10016     10307     10297     10007     10017
 -1      9169    1    0    1
 -2     10307     10297     10007     10017     10308     10298     10008     10018
 -1      9170    1    0    1
 -2     10308     10298     10008     10018     10309     10299     10009     10019
 -1      9171    1    0    1
 -2     10309     10299     10009     10019     10310     10300     10010     10020
 -1      9172    1    0    1
 -2     10310     10300     10010     10020     10311     10301     10011     10021
 -1      9173    1    0    1
 -2     10311     10301     10011     10021     10312     10302     10012     10022
 -1      9174    1    0    1
 -2     10312     10302     10012     10022      3000      2999      2970      2971
 -1      9175    1    0    1
 -2      1000       999       970       971     10313     10303     10013     10023
 -1      9176    1    0    1
 -2     10313     10303     10013     10023     10314     10304     10014     10024
 -1      9177    1    0    1
 -2     10314     10304     10014     10024     10315     10305     10015     10025
 -1      9178    1    0    1
 -2     10315     10305     10015     10025     10316     10306     10016     10026
 -1      9179    1    0    1
 -2     10316     10306     10016     10026     10317     10307     10017     10027
 -1      9180    1    0    1
 -2     10317     10307     10017     10027     10318     10308     10018     10028
 -1      9181    1    0    1
 -2     10318     10308     10018     10028     10319     10309     10019     10029
 -1      9182    1    0    1
 -2     10319     10309     10019     10029     10320     10310     10020     10030
 -1      9183    1    0    1
 -2     10320     10310     10020     10030     10321     10311     10021     10031
 -1      9184    1    0    1
 -2     10321     10311     10021     10031     10322     10312     10022     10032
 -1      9185    1    0    1
 -2     10322     10312     10022     10032      3001      3000      2971      2972
 -1      9186    1    0    1
 -2      1001      1000       971       972     10323     10313     10023     10033
 -1      9187    1    0    1
 -2     10323     10313     10023     10033     10324     10314     10024     10034
 -1      9188    1    0    1
 -2     10324     10314     10024     10034     10325     10315     10025     10035
 -1      9189    1    0    1
 -2     10325     10315     10025     10035     10326     10316     10026     10036
 -1      9190    1    0    1
 -2     10326     10316     10026     10036     10327     10317     10027     10037
 -1      9191    1    0    1
 -2     10327     10317     10027     10037     10328     10318     10028     10038
 -1      9192    1    0    1
 -2     10328     10318     10028     10038     10329     10319     10029     10039
 -1      9193    1    0    1
 -2     10329     10319     10029     10039     10330     10320     10030     10040
 -1      9194    1    0    1
 -2     10330     10320     10030     10040     10331     10321     10031     10041
 -1      9195    1    0    1
 -2     10331     10321     10031     10041     10332     10322     10032     10042
 -1      9196    1    0    1
 -2     10332     10322     10032     10042      3002      3001      2972      2973
 -1      9197    1    0    1
 -2      1002      1001       972       973     10333     10323     10033     10043
 -1      9198    1    0    1
 -2     10333     10323     10033     10043     10334     10324     10034     10044
 -1      9199    1    0    1
 -2     10334     10324     10034     10044     10335     10325     10035     10045
 -1      9200    1    0    1
 -2     10335     10325     10035     10045     10336     10326     10036     10046
 -1      9201    1    0    1
 -2     10336     10326     10036     10046     10337     10327     10037     10047
 -1      9202    1    0    1
 -2     10337     10327     10037     10047     10338     10328     10038     10048
 -1      9203    1    0    1
 -2     10338     10328     10038     10048     10339     10329     10039     10049
 -1      9204    1    0    1
 -2     10339     10329     10039     10049     10340     10330     10040     10050
 -1      9205    1    0    1
 -2     10340     10330     10040     10050     10341     10331     10041     10051
 -1      9206    1    0    1
 -2     10341     10331     10041     10051     10342     10332     10042     10052
 -1      9207    1    0    1
 -2     10342     10332     10042     10052      3003      3002      2973      2974
 -1      9208    1    0    1
 -2      1003      1002       973       974     10343     10333     10043     10053
 -1      9209    1    0    1
 -2     10343     10333     10043     10053     10344     10334     10044     10054
 -1      9210    1    0    1
 -2     10344     10334     10044     10054     10345     10335     10045     10055
 -1      9211    1    0    1
 -2     10345     10335     10045     10055     10346     10336     10046     10056
 -1      9212    1    0    1
 -2     10346     10336     10046     10056     10347     10337     10047     10057
 -1      9213    1    0    1
 -2     10347     10337     10047     10057     10348     10338     10048     10058
 -1      9214    1    0    1
 -2     10348     10338     10048     10058     10349     10339     10049     10059
 -1      9215    1    0    1
 -2     10349     10339     10049     10059     10350     10340     10050     10060
 -1      9216    1    0    1
 -2     10350     10340     10050     10060     10351     10341     10051     10061
 -1      9217    1    0    1
 -2     10351     10341     10051     10061     10352     10342     10052     10062
 -1      9218    1    0    1
 -2     10352     10342     10052     10062      3004      3003      2974      2975
 -1      9219    1    0    1
 -2      1004      1003       974       975     10353     10343     10053     10063
 -1      9220    1    0    1
 -2     10353     10343     10053     10063     10354     10344     10054     10064
 -1      9221    1    0    1
 -2     10354     10344     10054     10064     10355     10345     10055     10065
 -1      9222    1    0    1
 -2     10355     10345     10055     10065     10356     10346     10056     10066
 -1      9223    1    0    1
 -2     10356     10346     10056     10066     10357     10347     10057     10067
 -1      9224    1    0    1
 -2     10357     10347     10057     10067     10358     10348     10058     10068
 -1      9225    1    0    1
 -2     10358     10348     10058     10068     10359     10349     10059     10069
 -1      9226    1    0    1
 -2     10359     10349     10059     10069     10360     10350     10060     10070
 -1      9227    1    0    1
 -2     10360     10350     10060     10070     10361     10351     10061     10071
 -1      9228    1    0    1
 -2     10361     10351     10061     10071     10362     10352     10062     10072
 -1      9229    1    0    1
 -2     10362     10352     10062     10072      3005      3004      2975      2976
 -1      9230    1    0    1
 -2      1005      1004       975       976     10363     10353     10063     10073
 -1      9231    1    0    1
 -2     10363     10353     10063     10073     10364     10354     10064     10074
 -1      9232    1    0    1
 -2     10364     10354     10064     10074     10365     10355     10065     10075
 -1      9233    1    0    1
 -2     10365     10355     10065     10075     10366     10356     10066     10076
 -1      9234    1    0    1
 -2     10366     10356     10066     10076     10367     10357     10067     10077
 -1      9235    1    0    1
 -2     10367     10357     10067     10077     10368     10358     10068     10078
 -1      9236    1    0    1
 -2     10368     10358     10068     10078     10369     10359     10069     10079
 -1      9237    1    0    1
 -2     10369     10359     10069     10079     10370     10360     10070     10080
 -1      9238    1    0    1
 -2     10370     10360     10070     10080     10371     10361     10071     10081
 -1      9239    1    0    1
 -2     10371     10361     10071     10081     10372     10362     10072     10082
 -1      9240    1    0    1
 -2     10372     10362     10072     10082      3006      3005      2976      2977
 -1      9241    1    0    1
 -2        71      1005       976        72      1742     10363     10073      1752
 -1      9242    1    0    1
 -2      1742     10363     10073      1752      1743     10364     10074      1753
 -1      9243    1    0    1
 -2      1743     10364     10074      1753      1744     10365     10075      1754
 -1      9244    1    0    1
 -2      1744     10365     10075      1754      1745     10366     10076      1755
 -1      9245    1    0    1
 -2      1745     10366     10076      1755      1746     10367     10077      1756
 -1      9246    1    0    1
 -2      1746     10367     10077      1756      1747     10368     10078      1757
 -1      9247    1    0    1
 -2      1747     10368     10078      1757      1748     10369     10079      1758
 -1      9248    1    0    1
 -2      1748     10369     10079      1758      1749     10370     10080      1759
 -1      9249    1    0    1
 -2      1749     10370     10080      1759      1750     10371     10081      1760
 -1      9250    1    0    1
 -2      1750     10371     10081      1760      1751     10372     10082      1761
 -1      9251    1    0    1
 -2      1751     10372     10082      1761       187      3006      2977       188
 -1      9252    1    0    1
 -2      1006        34        33       977     10373      1372      1362     10083
 -1      9253    1    0    1
 -2     10373      1372      1362     10083     10374      1373      1363     10084
 -1      9254    1    0    1
 -2     10374      1373      1363     10084     10375      1374      1364     10085
 -1      9255    1    0    1
 -2     10375      1374      1364     10085     10376      1375      1365     10086
 -1      9256    1    0    1
 -2     10376      1375      1365     10086     10377      1376      1366     10087
 -1      9257    1    0    1
 -2     10377      1376      1366     10087     10378      1377      1367     10088
 -1      9258    1    0    1
 -2     10378      1377      1367     10088     10379      1378      1368     10089
 -1      9259    1    0    1
 -2     10379      1378      1368     10089     10380      1379      1369     10090
 -1      9260    1    0    1
 -2     10380      1379      1369     10090     10381      1380      1370     10091
 -1      9261    1    0    1
 -2     10381      1380      1370     10091     10382      1381      1371     10092
 -1      9262    1    0    1
 -2     10382      1381      1371     10092      3007       150       149      2978
 -1      9263    1    0    1
 -2      1007      1006       977       978     10383     10373     10083     10093
 -1      9264    1    0    1
 -2     10383     10373     10083     10093     10384     10374     10084     10094
 -1      9265    1    0    1
 -2     10384     10374     10084     10094     10385     10375     10085     10095
 -1      9266    1    0    1
 -2     10385     10375     10085     10095     10386     10376     10086     10096
 -1      9267    1    0    1
 -2     10386     10376     10086     10096     10387     10377     10087     10097
 -1      9268    1    0    1
 -2     10387     10377     10087     10097     10388     10378     10088     10098
 -1      9269    1    0    1
 -2     10388     10378     10088     10098     10389     10379     10089     10099
 -1      9270    1    0    1
 -2     10389     10379     10089     10099     10390     10380     10090     10100
 -1      9271    1    0    1
 -2     10390     10380     10090     10100     10391     10381     10091     10101
 -1      9272    1    0    1
 -2     10391     10381     10091     10101     10392     10382     10092     10102
 -1      9273    1    0    1
 -2     10392     10382     10092     10102      3008      3007      2978      2979
 -1      9274    1    0    1
 -2      1008      1007       978       979     10393     10383     10093     10103
 -1      9275    1    0    1
 -2     10393     10383     10093     10103     10394     10384     10094     10104
 -1      9276    1    0    1
 -2     10394     10384     10094     10104     10395     10385     10095     10105
 -1      9277    1    0    1
 -2     10395     10385     10095     10105     10396     10386     10096     10106
 -1      9278    1    0    1
 -2     10396     10386     10096     10106     10397     10387     10097     10107
 -1      9279    1    0    1
 -2     10397     10387     10097     10107     10398     10388     10098     10108
 -1      9280    1    0    1
 -2     10398     10388     10098     10108     10399     10389     10099     10109
 -1      9281    1    0    1
 -2     10399     10389     10099     10109     10400     10390     10100     10110
 -1      9282    1    0    1
 -2     10400     10390     10100     10110     10401     10391     10101     10111
 -1      9283    1    0    1
 -2     10401     10391     10101     10111     10402     10392     10102     10112
 -1      9284    1    0    1
 -2     10402     10392     10102     10112      3009      3008      2979      2980
 -1      9285    1    0    1
 -2      1009      1008       979       980     10403     10393     10103     10113
 -1      9286    1    0    1
 -2     10403     10393     10103     10113     10404     10394     10104     10114
 -1      9287    1    0    1
 -2     10404     10394     10104     10114     10405     10395     10105     10115
 -1      9288    1    0    1
 -2     10405     10395     10105     10115     10406     10396     10106     10116
 -1      9289    1    0    1
 -2     10406     10396     10106     10116     10407     10397     10107     10117
 -1      9290    1    0    1
 -2     10407     10397     10107     10117     10408     10398     10108     10118
 -1      9291    1    0    1
 -2     10408     10398     10108     10118     10409     10399     10109     10119
 -1      9292    1    0    1
 -2     10409     10399     10109     10119     10410     10400     10110     10120
 -1      9293    1    0    1
 -2     10410     10400     10110     10120     10411     10401     10111     10121
 -1      9294    1    0    1
 -2     10411     10401     10111     10121     10412     10402     10112     10122
 -1      9295    1    0    1
 -2     10412     10402     10112     10122      3010      3009      2980      2981
 -1      9296    1    0    1
 -2      1010      1009       980       981     10413     10403     10113     10123
 -1      9297    1    0    1
 -2     10413     10403     10113     10123     10414     10404     10114     10124
 -1      9298    1    0    1
 -2     10414     10404     10114     10124     10415     10405     10115     10125
 -1      9299    1    0    1
 -2     10415     10405     10115     10125     10416     10406     10116     10126
 -1      9300    1    0    1
 -2     10416     10406     10116     10126     10417     10407     10117     10127
 -1      9301    1    0    1
 -2     10417     10407     10117     10127     10418     10408     10118     10128
 -1      9302    1    0    1
 -2     10418     10408     10118     10128     10419     10409     10119     10129
 -1      9303    1    0    1
 -2     10419     10409     10119     10129     10420     10410     10120     10130
 -1      9304    1    0    1
 -2     10420     10410     10120     10130     10421     10411     10121     10131
 -1      9305    1    0    1
 -2     10421     10411     10121     10131     10422     10412     10122     10132
 -1      9306    1    0    1
 -2     10422     10412     10122     10132      3011      3010      2981      2982
 -1      9307    1    0    1
 -2      1011      1010       981       982     10423     10413     10123     10133
 -1      9308    1    0    1
 -2     10423     10413     10123     10133     10424     10414     10124     10134
 -1      9309    1    0    1
 -2     10424     10414     10124     10134     10425     10415     10125     10135
 -1      9310    1    0    1
 -2     10425     10415     10125     10135     10426     10416     10126     10136
 -1      9311    1    0    1
 -2     10426     10416     10126     10136     10427     10417     10127     10137
 -1      9312    1    0    1
 -2     10427     10417     10127     10137     10428     10418     10128     10138
 -1      9313    1    0    1
 -2     10428     10418     10128     10138     10429     10419     10129     10139
 -1      9314    1    0    1
 -2     10429     10419     10129     10139     10430     10420     10130     10140
 -1      9315    1    0    1
 -2     10430     10420     10130     10140     10431     10421     10131     10141
 -1      9316    1    0    1
 -2     10431     10421     10131     10141     10432     10422     10132     10142
 -1      9317    1    0    1
 -2     10432     10422     10132     10142      3012      3011      2982      2983
 -1      9318    1    0    1
 -2      1012      1011       982       983     10433     10423     10133     10143
 -1      9319    1    0    1
 -2     10433     10423     10133     10143     10434     10424     10134     10144
 -1      9320    1    0    1
 -2     10434     10424     10134     10144     10435     10425     10135     10145
 -1      9321    1    0    1
 -2     10435     10425     10135     10145     10436     10426     10136     10146
 -1      9322    1    0    1
 -2     10436     10426     10136     10146     10437     10427     10137     10147
 -1      9323    1    0    1
 -2     10437     10427     10137     10147     10438     10428     10138     10148
 -1      9324    1    0    1
 -2     10438     10428     10138     10148     10439     10429     10139     10149
 -1      9325    1    0    1
 -2     10439     10429     10139     10149     10440     10430     10140     10150
 -1      9326    1    0    1
 -2     10440     10430     10140     10150     10441     10431     10141     10151
 -1      9327    1    0    1
 -2     10441     10431     10141     10151     10442     10432     10142     10152
 -1      9328    1    0    1
 -2     10442     10432     10142     10152      3013      3012      2983      2984
 -1      9329    1    0    1
 -2      1013      1012       983       984     10443     10433     10143     10153
 -1      9330    1    0    1
 -2     10443     10433     10143     10153     10444     10434     10144     10154
 -1      9331    1    0    1
 -2     10444     10434     10144     10154     10445     10435     10145     10155
 -1      9332    1    0    1
 -2     10445     10435     10145     10155     10446     10436     10146     10156
 -1      9333    1    0    1
 -2     10446     10436     10146     10156     10447     10437     10147     10157
 -1      9334    1    0    1
 -2     10447     10437     10147     10157     10448     10438     10148     10158
 -1      9335    1    0    1
 -2     10448     10438     10148     10158     10449     10439     10149     10159
 -1      9336    1    0    1
 -2     10449     10439     10149     10159     10450     10440     10150     10160
 -1      9337    1    0    1
 -2     10450     10440     10150     10160     10451     10441     10151     10161
 -1      9338    1    0    1
 -2     10451     10441     10151     10161     10452     10442     10152     10162
 -1      9339    1    0    1
 -2     10452     10442     10152     10162      3014      3013      2984      2985
 -1      9340    1    0    1
 -2      1014      1013       984       985     10453     10443     10153     10163
 -1      9341    1    0    1
 -2     10453     10443     10153     10163     10454     10444     10154     10164
 -1      9342    1    0    1
 -2     10454     10444     10154     10164     10455     10445     10155     10165
 -1      9343    1    0    1
 -2     10455     10445     10155     10165     10456     10446     10156     10166
 -1      9344    1    0    1
 -2     10456     10446     10156     10166     10457     10447     10157     10167
 -1      9345    1    0    1
 -2     10457     10447     10157     10167     10458     10448     10158     10168
 -1      9346    1    0    1
 -2     10458     10448     10158     10168     10459     10449     10159     10169
 -1      9347    1    0    1
 -2     10459     10449     10159     10169     10460     10450     10160     10170
 -1      9348    1    0    1
 -2     10460     10450     10160     10170     10461     10451     10161     10171
 -1      9349    1    0    1
 -2     10461     10451     10161     10171     10462     10452     10162     10172
 -1      9350    1    0    1
 -2     10462     10452     10162     10172      3015      3014      2985      2986
 -1      9351    1    0    1
 -2      1015      1014       985       986     10463     10453     10163     10173
 -1      9352    1    0    1
 -2     10463     10453     10163     10173     10464     10454     10164     10174
 -1      9353    1    0    1
 -2     10464     10454     10164     10174     10465     10455     10165     10175
 -1      9354    1    0    1
 -2     10465     10455     10165     10175     10466     10456     10166     10176
 -1      9355    1    0    1
 -2     10466     10456     10166     10176     10467     10457     10167     10177
 -1      9356    1    0    1
 -2     10467     10457     10167     10177     10468     10458     10168     10178
 -1      9357    1    0    1
 -2     10468     10458     10168     10178     10469     10459     10169     10179
 -1      9358    1    0    1
 -2     10469     10459     10169     10179     10470     10460     10170     10180
 -1      9359    1    0    1
 -2     10470     10460     10170     10180     10471     10461     10171     10181
 -1      9360    1    0    1
 -2     10471     10461     10171     10181     10472     10462     10172     10182
 -1      9361    1    0    1
 -2     10472     10462     10172     10182      3016      3015      2986      2987
 -1      9362    1    0    1
 -2      1016      1015       986       987     10473     10463     10173     10183
 -1      9363    1    0    1
 -2     10473     10463     10173     10183     10474     10464     10174     10184
 -1      9364    1    0    1
 -2     10474     10464     10174     10184     10475     10465     10175     10185
 -1      9365    1    0    1
 -2     10475     10465     10175     10185     10476     10466     10176     10186
 -1      9366    1    0    1
 -2     10476     10466     10176     10186     10477     10467     10177     10187
 -1      9367    1    0    1
 -2     10477     10467     10177     10187     10478     10468     10178     10188
 -1      9368    1    0    1
 -2     10478     10468     10178     10188     10479     10469     10179     10189
 -1      9369    1    0    1
 -2     10479     10469     10179     10189     10480     10470     10180     10190
 -1      9370    1    0    1
 -2     10480     10470     10180     10190     10481     10471     10181     10191
 -1      9371    1    0    1
 -2     10481     10471     10181     10191     10482     10472     10182     10192
 -1      9372    1    0    1
 -2     10482     10472     10182     10192      3017      3016      2987      2988
 -1      9373    1    0    1
 -2      1017      1016       987       988     10483     10473     10183     10193
 -1      9374    1    0    1
 -2     10483     10473     10183     10193     10484     10474     10184     10194
 -1      9375    1    0    1
 -2     10484     10474     10184     10194     10485     10475     10185     10195
 -1      9376    1    0    1
 -2     10485     10475     10185     10195     10486     10476     10186     10196
 -1      9377    1    0    1
 -2     10486     10476     10186     10196     10487     10477     10187     10197
 -1      9378    1    0    1
 -2     10487     10477     10187     10197     10488     10478     10188     10198
 -1      9379    1    0    1
 -2     10488     10478     10188     10198     10489     10479     10189     10199
 -1      9380    1    0    1
 -2     10489     10479     10189     10199     10490     10480     10190     10200
 -1      9381    1    0    1
 -2     10490     10480     10190     10200     10491     10481     10191     10201
 -1      9382    1    0    1
 -2     10491     10481     10191     10201     10492     10482     10192     10202
 -1      9383    1    0    1
 -2     10492     10482     10192     10202      3018      3017      2988      2989
 -1      9384    1    0    1
 -2      1018      1017       988       989     10493     10483     10193     10203
 -1      9385    1    0    1
 -2     10493     10483     10193     10203     10494     10484     10194     10204
 -1      9386    1    0    1
 -2     10494     10484     10194     10204     10495     10485     10195     10205
 -1      9387    1    0    1
 -2     10495     10485     10195     10205     10496     10486     10196     10206
 -1      9388    1    0    1
 -2     10496     10486     10196     10206     10497     10487     10197     10207
 -1      9389    1    0    1
 -2     10497     10487     10197     10207     10498     10488     10198     10208
 -1      9390    1    0    1
 -2     10498     10488     10198     10208     10499     10489     10199     10209
 -1      9391    1    0    1
 -2     10499     10489     10199     10209     10500     10490     10200     10210
 -1      9392    1    0    1
 -2     10500     10490     10200     10210     10501     10491     10201     10211
 -1      9393    1    0    1
 -2     10501     10491     10201     10211     10502     10492     10202     10212
 -1      9394    1    0    1
 -2     10502     10492     10202     10212      3019      3018      2989      2990
 -1      9395    1    0    1
 -2      1019      1018       989       990     10503     10493     10203     10213
 -1      9396    1    0    1
 -2     10503     10493     10203     10213     10504     10494     10204     10214
 -1      9397    1    0    1
 -2     10504     10494     10204     10214     10505     10495     10205     10215
 -1      9398    1    0    1
 -2     10505     10495     10205     10215     10506     10496     10206     10216
 -1      9399    1    0    1
 -2     10506     10496     10206     10216     10507     10497     10207     10217
 -1      9400    1    0    1
 -2     10507     10497     10207     10217     10508     10498     10208     10218
 -1      9401    1    0    1
 -2     10508     10498     10208     10218     10509     10499     10209     10219
 -1      9402    1    0    1
 -2     10509     10499     10209     10219     10510     10500     10210     10220
 -1      9403    1    0    1
 -2     10510     10500     10210     10220     10511     10501     10211     10221
 -1      9404    1    0    1
 -2     10511     10501     10211     10221     10512     10502     10212     10222
 -1      9405    1    0    1
 -2     10512     10502     10212     10222      3020      3019      2990      2991
 -1      9406    1    0    1
 -2      1020      1019       990       991     10513     10503     10213     10223
 -1      9407    1    0    1
 -2     10513     10503     10213     10223     10514     10504     10214     10224
 -1      9408    1    0    1
 -2     10514     10504     10214     10224     10515     10505     10215     10225
 -1      9409    1    0    1
 -2     10515     10505     10215     10225     10516     10506     10216     10226
 -1      9410    1    0    1
 -2     10516     10506     10216     10226     10517     10507     10217     10227
 -1      9411    1    0    1
 -2     10517     10507     10217     10227     10518     10508     10218     10228
 -1      9412    1    0    1
 -2     10518     10508     10218     10228     10519     10509     10219     10229
 -1      9413    1    0    1
 -2     10519     10509     10219     10229     10520     10510     10220     10230
 -1      9414    1    0    1
 -2     10520     10510     10220     10230     10521     10511     10221     10231
 -1      9415    1    0    1
 -2     10521     10511     10221     10231     10522     10512     10222     10232
 -1      9416    1    0    1
 -2     10522     10512     10222     10232      3021      3020      2991      2992
 -1      9417    1    0    1
 -2      1021      1020       991       992     10523     10513     10223     10233
 -1      9418    1    0    1
 -2     10523     10513     10223     10233     10524     10514     10224     10234
 -1      9419    1    0    1
 -2     10524     10514     10224     10234     10525     10515     10225     10235
 -1      9420    1    0    1
 -2     10525     10515     10225     10235     10526     10516     10226     10236
 -1      9421    1    0    1
 -2     10526     10516     10226     10236     10527     10517     10227     10237
 -1      9422    1    0    1
 -2     10527     10517     10227     10237     10528     10518     10228     10238
 -1      9423    1    0    1
 -2     10528     10518     10228     10238     10529     10519     10229     10239
 -1      9424    1    0    1
 -2     10529     10519     10229     10239     10530     10520     10230     10240
 -1      9425    1    0    1
 -2     10530     10520     10230     10240     10531     10521     10231     10241
 -1      9426    1    0    1
 -2     10531     10521     10231     10241     10532     10522     10232     10242
 -1      9427    1    0    1
 -2     10532     10522     10232     10242      3022      3021      2992      2993
 -1      9428    1    0    1
 -2      1022      1021       992       993     10533     10523     10233     10243
 -1      9429    1    0    1
 -2     10533     10523     10233     10243     10534     10524     10234     10244
 -1      9430    1    0    1
 -2     10534     10524     10234     10244     10535     10525     10235     10245
 -1      9431    1    0    1
 -2     10535     10525     10235     10245     10536     10526     10236     10246
 -1      9432    1    0    1
 -2     10536     10526     10236     10246     10537     10527     10237     10247
 -1      9433    1    0    1
 -2     10537     10527     10237     10247     10538     10528     10238     10248
 -1      9434    1    0    1
 -2     10538     10528     10238     10248     10539     10529     10239     10249
 -1      9435    1    0    1
 -2     10539     10529     10239     10249     10540     10530     10240     10250
 -1      9436    1    0    1
 -2     10540     10530     10240     10250     10541     10531     10241     10251
 -1      9437    1    0    1
 -2     10541     10531     10241     10251     10542     10532     10242     10252
 -1      9438    1    0    1
 -2     10542     10532     10242     10252      3023      3022      2993      2994
 -1      9439    1    0    1
 -2      1023      1022       993       994     10543     10533     10243     10253
 -1      9440    1    0    1
 -2     10543     10533     10243     10253     10544     10534     10244     10254
 -1      9441    1    0    1
 -2     10544     10534     10244     10254     10545     10535     10245     10255
 -1      9442    1    0    1
 -2     10545     10535     10245     10255     10546     10536     10246     10256
 -1      9443    1    0    1
 -2     10546     10536     10246     10256     10547     10537     10247     10257
 -1      9444    1    0    1
 -2     10547     10537     10247     10257     10548     10538     10248     10258
 -1      9445    1    0    1
 -2     10548     10538     10248     10258     10549     10539     10249     10259
 -1      9446    1    0    1
 -2     10549     10539     10249     10259     10550     10540     10250     10260
 -1      9447    1    0    1
 -2     10550     10540     10250     10260     10551     10541     10251     10261
 -1      9448    1    0    1
 -2     10551     10541     10251     10261     10552     10542     10252     10262
 -1      9449    1    0    1
 -2     10552     10542     10252     10262      3024      3023      2994      2995
 -1      9450    1    0    1
 -2      1024      1023       994       995     10553     10543     10253     10263
 -1      9451    1    0    1
 -2     10553     10543     10253     10263     10554     10544     10254     10264
 -1      9452    1    0    1
 -2     10554     10544     10254     10264     10555     10545     10255     10265
 -1      9453    1    0    1
 -2     10555     10545     10255     10265     10556     10546     10256     10266
 -1      9454    1    0    1
 -2     10556     10546     10256     10266     10557     10547     10257     10267
 -1      9455    1    0    1
 -2     10557     10547     10257     10267     10558     10548     10258     10268
 -1      9456    1    0    1
 -2     10558     10548     10258     10268     10559     10549     10259     10269
 -1      9457    1    0    1
 -2     10559     10549     10259     10269     10560     10550     10260     10270
 -1      9458    1    0    1
 -2     10560     10550     10260     10270     10561     10551     10261     10271
 -1      9459    1    0    1
 -2     10561     10551     10261     10271     10562     10552     10262     10272
 -1      9460    1    0    1
 -2     10562     10552     10262     10272      3025      3024      2995      2996
 -1      9461    1    0    1
 -2      1025      1024       995       996     10563     10553     10263     10273
 -1      9462    1    0    1
 -2     10563     10553     10263     10273     10564     10554     10264     10274
 -1      9463    1    0    1
 -2     10564     10554     10264     10274     10565     10555     10265     10275
 -1      9464    1    0    1
 -2     10565     10555     10265     10275     10566     10556     10266     10276
 -1      9465    1    0    1
 -2     10566     10556     10266     10276     10567     10557     10267     10277
 -1      9466    1    0    1
 -2     10567     10557     10267     10277     10568     10558     10268     10278
 -1      9467    1    0    1
 -2     10568     10558     10268     10278     10569     10559     10269     10279
 -1      9468    1    0    1
 -2     10569     10559     10269     10279     10570     10560     10270     10280
 -1      9469    1    0    1
 -2     10570     10560     10270     10280     10571     10561     10271     10281
 -1      9470    1    0    1
 -2     10571     10561     10271     10281     10572     10562     10272     10282
 -1      9471    1    0    1
 -2     10572     10562     10272     10282      3026      3025      2996      2997
 -1      9472    1    0    1
 -2      1026      1025       996       997     10573     10563     10273     10283
 -1      9473    1    0    1
 -2     10573     10563     10273     10283     10574     10564     10274     10284
 -1      9474    1    0    1
 -2     10574     10564     10274     10284     10575     10565     10275     10285
 -1      9475    1    0    1
 -2     10575     10565     10275     10285     10576     10566     10276     10286
 -1      9476    1    0    1
 -2     10576     10566     10276     10286     10577     10567     10277     10287
 -1      9477    1    0    1
 -2     10577     10567     10277     10287     10578     10568     10278     10288
 -1      9478    1    0    1
 -2     10578     10568     10278     10288     10579     10569     10279     10289
 -1      9479    1    0    1
 -2     10579     10569     10279     10289     10580     10570     10280     10290
 -1      9480    1    0    1
 -2     10580     10570     10280     10290     10581     10571     10281     10291
 -1      9481    1    0    1
 -2     10581     10571     10281     10291     10582     10572     10282     10292
 -1      9482    1    0    1
 -2     10582     10572     10282     10292      3027      3026      2997      2998
 -1      9483    1    0    1
 -2      1027      1026       997       998     10583     10573     10283     10293
 -1      9484    1    0    1
 -2     10583     10573     10283     10293     10584     10574     10284     10294
 -1      9485    1    0    1
 -2     10584     10574     10284     10294     10585     10575     10285     10295
 -1      9486    1    0    1
 -2     10585     10575     10285     10295     10586     10576     10286     10296
 -1      9487    1    0    1
 -2     10586     10576     10286     10296     10587     10577     10287     10297
 -1      9488    1    0    1
 -2     10587     10577     10287     10297     10588     10578     10288     10298
 -1      9489    1    0    1
 -2     10588     10578     10288     10298     10589     10579     10289     10299
 -1      9490    1    0    1
 -2     10589     10579     10289     10299     10590     10580     10290     10300
 -1      9491    1    0    1
 -2     10590     10580     10290     10300     10591     10581     10291     10301
 -1      9492    1    0    1
 -2     10591     10581     10291     10301     10592     10582     10292     10302
 -1      9493    1    0    1
 -2     10592     10582     10292     10302      3028      3027      2998      2999
 -1      9494    1    0    1
 -2      1028      1027       998       999     10593     10583     10293     10303
 -1      9495    1    0    1
 -2     10593     10583     10293     10303     10594     10584     10294     10304
 -1      9496    1    0    1
 -2     10594     10584     10294     10304     10595     10585     10295     10305
 -1      9497    1    0    1
 -2     10595     10585     10295     10305     10596     10586     10296     10306
 -1      9498    1    0    1
 -2     10596     10586     10296     10306     10597     10587     10297     10307
 -1      9499    1    0    1
 -2     10597     10587     10297     10307     10598     10588     10298     10308
 -1      9500    1    0    1
 -2     10598     10588     10298     10308     10599     10589     10299     10309
 -1      9501    1    0    1
 -2     10599     10589     10299     10309     10600     10590     10300     10310
 -1      9502    1    0    1
 -2     10600     10590     10300     10310     10601     10591     10301     10311
 -1      9503    1    0    1
 -2     10601     10591     10301     10311     10602     10592     10302     10312
 -1      9504    1    0    1
 -2     10602     10592     10302     10312      3029      3028      2999      3000
 -1      9505    1    0    1
 -2      1029      1028       999      1000     10603     10593     10303     10313
 -1      9506    1    0    1
 -2     10603     10593     10303     10313     10604     10594     10304     10314
 -1      9507    1    0    1
 -2     10604     10594     10304     10314     10605     10595     10305     10315
 -1      9508    1    0    1
 -2     10605     10595     10305     10315     10606     10596     10306     10316
 -1      9509    1    0    1
 -2     10606     10596     10306     10316     10607     10597     10307     10317
 -1      9510    1    0    1
 -2     10607     10597     10307     10317     10608     10598     10308     10318
 -1      9511    1    0    1
 -2     10608     10598     10308     10318     10609     10599     10309     10319
 -1      9512    1    0    1
 -2     10609     10599     10309     10319     10610     10600     10310     10320
 -1      9513    1    0    1
 -2     10610     10600     10310     10320     10611     10601     10311     10321
 -1      9514    1    0    1
 -2     10611     10601     10311     10321     10612     10602     10312     10322
 -1      9515    1    0    1
 -2     10612     10602     10312     10322      3030      3029      3000      3001
 -1      9516    1    0    1
 -2      1030      1029      1000      1001     10613     10603     10313     10323
 -1      9517    1    0    1
 -2     10613     10603     10313     10323     10614     10604     10314     10324
 -1      9518    1    0    1
 -2     10614     10604     10314     10324     10615     10605     10315     10325
 -1      9519    1    0    1
 -2     10615     10605     10315     10325     10616     10606     10316     10326
 -1      9520    1    0    1
 -2     10616     10606     10316     10326     10617     10607     10317     10327
 -1      9521    1    0    1
 -2     10617     10607     10317     10327     10618     10608     10318     10328
 -1      9522    1    0    1
 -2     10618     10608     10318     10328     10619     10609     10319     10329
 -1      9523    1    0    1
 -2     10619     10609     10319     10329     10620     10610     10320     10330
 -1      9524    1    0    1
 -2     10620     10610     10320     10330     10621     10611     10321     10331
 -1      9525    1    0    1
 -2     10621     10611     10321     10331     10622     10612     10322     10332
 -1      9526    1    0    1
 -2     10622     10612     10322     10332      3031      3030      3001      3002
 -1      9527    1    0    1
 -2      1031      1030      1001      1002     10623     10613     10323     10333
 -1      9528    1    0    1
 -2     10623     10613     10323     10333     10624     10614     10324     10334
 -1      9529    1    0    1
 -2     10624     10614     10324     10334     10625     10615     10325     10335
 -1      9530    1    0    1
 -2     10625     10615     10325     10335     10626     10616     10326     10336
 -1      9531    1    0    1
 -2     10626     10616     10326     10336     10627     10617     10327     10337
 -1      9532    1    0    1
 -2     10627     10617     10327     10337     10628     10618     10328     10338
 -1      9533    1    0    1
 -2     10628     10618     10328     10338     10629     10619     10329     10339
 -1      9534    1    0    1
 -2     10629     10619     10329     10339     10630     10620     10330     10340
 -1      9535    1    0    1
 -2     10630     10620     10330     10340     10631     10621     10331     10341
 -1      9536    1    0    1
 -2     10631     10621     10331     10341     10632     10622     10332     10342
 -1      9537    1    0    1
 -2     10632     10622     10332     10342      3032      3031      3002      3003
 -1      9538    1    0    1
 -2      1032      1031      1002      1003     10633     10623     10333     10343
 -1      9539    1    0    1
 -2     10633     10623     10333     10343     10634     10624     10334     10344
 -1      9540    1    0    1
 -2     10634     10624     10334     10344     10635     10625     10335     10345
 -1      9541    1    0    1
 -2     10635     10625     10335     10345     10636     10626     10336     10346
 -1      9542    1    0    1
 -2     10636     10626     10336     10346     10637     10627     10337     10347
 -1      9543    1    0    1
 -2     10637     10627     10337     10347     10638     10628     10338     10348
 -1      9544    1    0    1
 -2     10638     10628     10338     10348     10639     10629     10339     10349
 -1      9545    1    0    1
 -2     10639     10629     10339     10349     10640     10630     10340     10350
 -1      9546    1    0    1
 -2     10640     10630     10340     10350     10641     10631     10341     10351
 -1      9547    1    0    1
 -2     10641     10631     10341     10351     10642     10632     10342     10352
 -1      9548    1    0    1
 -2     10642     10632     10342     10352      3033      3032      3003      3004
 -1      9549    1    0    1
 -2      1033      1032      1003      1004     10643     10633     10343     10353
 -1      9550    1    0    1
 -2     10643     10633     10343     10353     10644     10634     10344     10354
 -1      9551    1    0    1
 -2     10644     10634     10344     10354     10645     10635     10345     10355
 -1      9552    1    0    1
 -2     10645     10635     10345     10355     10646     10636     10346     10356
 -1      9553    1    0    1
 -2     10646     10636     10346     10356     10647     10637     10347     10357
 -1      9554    1    0    1
 -2     10647     10637     10347     10357     10648     10638     10348     10358
 -1      9555    1    0    1
 -2     10648     10638     10348     10358     10649     10639     10349     10359
 -1      9556    1    0    1
 -2     10649     10639     10349     10359     10650     10640     10350     10360
 -1      9557    1    0    1
 -2     10650     10640     10350     10360     10651     10641     10351     10361
 -1      9558    1    0    1
 -2     10651     10641     10351     10361     10652     10642     10352     10362
 -1      9559    1    0    1
 -2     10652     10642     10352     10362      3034      3033      3004      3005
 -1      9560    1    0    1
 -2      1034      1033      1004      1005     10653     10643     10353     10363
 -1      9561    1    0    1
 -2     10653     10643     10353     10363     10654     10644     10354     10364
 -1      9562    1    0    1
 -2     10654     10644     10354     10364     10655     10645     10355     10365
 -1      9563    1    0    1
 -2     10655     10645     10355     10365     10656     10646     10356     10366
 -1      9564    1    0    1
 -2     10656     10646     10356     10366     10657     10647     10357     10367
 -1      9565    1    0    1
 -2     10657     10647     10357     10367     10658     10648     10358     10368
 -1      9566    1    0    1
 -2     10658     10648     10358     10368     10659     10649     10359     10369
 -1      9567    1    0    1
 -2     10659     10649     10359     10369     10660     10650     10360     10370
 -1      9568    1    0    1
 -2     10660     10650     10360     10370     10661     10651     10361     10371
 -1      9569    1    0    1
 -2     10661     10651     10361     10371     10662     10652     10362     10372
 -1      9570    1    0    1
 -2     10662     10652     10362     10372      3035      3034      3005      3006
 -1      9571    1    0    1
 -2        70      1034      1005        71      1732     10653     10363      1742
 -1      9572    1    0    1
 -2      1732     10653     10363      1742      1733     10654     10364      1743
 -1      9573    1    0    1
 -2      1733     10654     10364      1743      1734     10655     10365      1744
 -1      9574    1    0    1
 -2      1734     10655     10365      1744      1735     10656     10366      1745
 -1      9575    1    0    1
 -2      1735     10656     10366      1745      1736     10657     10367      1746
 -1      9576    1    0    1
 -2      1736     10657     10367      1746      1737     10658     10368      1747
 -1      9577    1    0    1
 -2      1737     10658     10368      1747      1738     10659     10369      1748
 -1      9578    1    0    1
 -2      1738     10659     10369      1748      1739     10660     10370      1749
 -1      9579    1    0    1
 -2      1739     10660     10370      1749      1740     10661     10371      1750
 -1      9580    1    0    1
 -2      1740     10661     10371      1750      1741     10662     10372      1751
 -1      9581    1    0    1
 -2      1741     10662     10372      1751       186      3035      3006       187
 -1      9582    1    0    1
 -2      1035        35        34      1006     10663      1382      1372     10373
 -1      9583    1    0    1
 -2     10663      1382      1372     10373     10664      1383      1373     10374
 -1      9584    1    0    1
 -2     10664      1383      1373     10374     10665      1384      1374     10375
 -1      9585    1    0    1
 -2     10665      1384      1374     10375     10666      1385      1375     10376
 -1      9586    1    0    1
 -2     10666      1385      1375     10376     10667      1386      1376     10377
 -1      9587    1    0    1
 -2     10667      1386      1376     10377     10668      1387      1377     10378
 -1      9588    1    0    1
 -2     10668      1387      1377     10378     10669      1388      1378     10379
 -1      9589    1    0    1
 -2     10669      1388      1378     10379     10670      1389      1379     10380
 -1      9590    1    0    1
 -2     10670      1389      1379     10380     10671      1390      1380     10381
 -1      9591    1    0    1
 -2     10671      1390      1380     10381     10672      1391      1381     10382
 -1      9592    1    0    1
 -2     10672      1391      1381     10382      3036       151       150      3007
 -1      9593    1    0    1
 -2      1036      1035      1006      1007     10673     10663     10373     10383
 -1      9594    1    0    1
 -2     10673     10663     10373     10383     10674     10664     10374     10384
 -1      9595    1    0    1
 -2     10674     10664     10374     10384     10675     10665     10375     10385
 -1      9596    1    0    1
 -2     10675     10665     10375     10385     10676     10666     10376     10386
 -1      9597    1    0    1
 -2     10676     10666     10376     10386     10677     10667     10377     10387
 -1      9598    1    0    1
 -2     10677     10667     10377     10387     10678     10668     10378     10388
 -1      9599    1    0    1
 -2     10678     10668     10378     10388     10679     10669     10379     10389
 -1      9600    1    0    1
 -2     10679     10669     10379     10389     10680     10670     10380     10390
 -1      9601    1    0    1
 -2     10680     10670     10380     10390     10681     10671     10381     10391
 -1      9602    1    0    1
 -2     10681     10671     10381     10391     10682     10672     10382     10392
 -1      9603    1    0    1
 -2     10682     10672     10382     10392      3037      3036      3007      3008
 -1      9604    1    0    1
 -2      1037      1036      1007      1008     10683     10673     10383     10393
 -1      9605    1    0    1
 -2     10683     10673     10383     10393     10684     10674     10384     10394
 -1      9606    1    0    1
 -2     10684     10674     10384     10394     10685     10675     10385     10395
 -1      9607    1    0    1
 -2     10685     10675     10385     10395     10686     10676     10386     10396
 -1      9608    1    0    1
 -2     10686     10676     10386     10396     10687     10677     10387     10397
 -1      9609    1    0    1
 -2     10687     10677     10387     10397     10688     10678     10388     10398
 -1      9610    1    0    1
 -2     10688     10678     10388     10398     10689     10679     10389     10399
 -1      9611    1    0    1
 -2     10689     10679     10389     10399     10690     10680     10390     10400
 -1      9612    1    0    1
 -2     10690     10680     10390     10400     10691     10681     10391     10401
 -1      9613    1    0    1
 -2     10691     10681     10391     10401     10692     10682     10392     10402
 -1      9614    1    0    1
 -2     10692     10682     10392     10402      3038      3037      3008      3009
 -1      9615    1    0    1
 -2      1038      1037      1008      1009     10693     10683     10393     10403
 -1      9616    1    0    1
 -2     10693     10683     10393     10403     10694     10684     10394     10404
 -1      9617    1    0    1
 -2     10694     10684     10394     10404     10695     10685     10395     10405
 -1      9618    1    0    1
 -2     10695     10685     10395     10405     10696     10686     10396     10406
 -1      9619    1    0    1
 -2     10696     10686     10396     10406     10697     10687     10397     10407
 -1      9620    1    0    1
 -2     10697     10687     10397     10407     10698     10688     10398     10408
 -1      9621    1    0    1
 -2     10698     10688     10398     10408     10699     10689     10399     10409
 -1      9622    1    0    1
 -2     10699     10689     10399     10409     10700     10690     10400     10410
 -1      9623    1    0    1
 -2     10700     10690     10400     10410     10701     10691     10401     10411
 -1      9624    1    0    1
 -2     10701     10691     10401     10411     10702     10692     10402     10412
 -1      9625    1    0    1
 -2     10702     10692     10402     10412      3039      3038      3009      3010
 -1      9626    1    0    1
 -2      1039      1038      1009      1010     10703     10693     10403     10413
 -1      9627    1    0    1
 -2     10703     10693     10403     10413     10704     10694     10404     10414
 -1      9628    1    0    1
 -2     10704     10694     10404     10414     10705     10695     10405     10415
 -1      9629    1    0    1
 -2     10705     10695     10405     10415     10706     10696     10406     10416
 -1      9630    1    0    1
 -2     10706     10696     10406     10416     10707     10697     10407     10417
 -1      9631    1    0    1
 -2     10707     10697     10407     10417     10708     10698     10408     10418
 -1      9632    1    0    1
 -2     10708     10698     10408     10418     10709     10699     10409     10419
 -1      9633    1    0    1
 -2     10709     10699     10409     10419     10710     10700     10410     10420
 -1      9634    1    0    1
 -2     10710     10700     10410     10420     10711     10701     10411     10421
 -1      9635    1    0    1
 -2     10711     10701     10411     10421     10712     10702     10412     10422
 -1      9636    1    0    1
 -2     10712     10702     10412     10422      3040      3039      3010      3011
 -1      9637    1    0    1
 -2      1040      1039      1010      1011     10713     10703     10413     10423
 -1      9638    1    0    1
 -2     10713     10703     10413     10423     10714     10704     10414     10424
 -1      9639    1    0    1
 -2     10714     10704     10414     10424     10715     10705     10415     10425
 -1      9640    1    0    1
 -2     10715     10705     10415     10425     10716     10706     10416     10426
 -1      9641    1    0    1
 -2     10716     10706     10416     10426     10717     10707     10417     10427
 -1      9642    1    0    1
 -2     10717     10707     10417     10427     10718     10708     10418     10428
 -1      9643    1    0    1
 -2     10718     10708     10418     10428     10719     10709     10419     10429
 -1      9644    1    0    1
 -2     10719     10709     10419     10429     10720     10710     10420     10430
 -1      9645    1    0    1
 -2     10720     10710     10420     10430     10721     10711     10421     10431
 -1      9646    1    0    1
 -2     10721     10711     10421     10431     10722     10712     10422     10432
 -1      9647    1    0    1
 -2     10722     10712     10422     10432      3041      3040      3011      3012
 -1      9648    1    0    1
 -2      1041      1040      1011      1012     10723     10713     10423     10433
 -1      9649    1    0    1
 -2     10723     10713     10423     10433     10724     10714     10424     10434
 -1      9650    1    0    1
 -2     10724     10714     10424     10434     10725     10715     10425     10435
 -1      9651    1    0    1
 -2     10725     10715     10425     10435     10726     10716     10426     10436
 -1      9652    1    0    1
 -2     10726     10716     10426     10436     10727     10717     10427     10437
 -1      9653    1    0    1
 -2     10727     10717     10427     10437     10728     10718     10428     10438
 -1      9654    1    0    1
 -2     10728     10718     10428     10438     10729     10719     10429     10439
 -1      9655    1    0    1
 -2     10729     10719     10429     10439     10730     10720     10430     10440
 -1      9656    1    0    1
 -2     10730     10720     10430     10440     10731     10721     10431     10441
 -1      9657    1    0    1
 -2     10731     10721     10431     10441     10732     10722     10432     10442
 -1      9658    1    0    1
 -2     10732     10722     10432     10442      3042      3041      3012      3013
 -1      9659    1    0    1
 -2      1042      1041      1012      1013     10733     10723     10433     10443
 -1      9660    1    0    1
 -2     10733     10723     10433     10443     10734     10724     10434     10444
 -1      9661    1    0    1
 -2     10734     10724     10434     10444     10735     10725     10435     10445
 -1      9662    1    0    1
 -2     10735     10725     10435     10445     10736     10726     10436     10446
 -1      9663    1    0    1
 -2     10736     10726     10436     10446     10737     10727     10437     10447
 -1      9664    1    0    1
 -2     10737     10727     10437     10447     10738     10728     10438     10448
 -1      9665    1    0    1
 -2     10738     10728     10438     10448     10739     10729     10439     10449
 -1      9666    1    0    1
 -2     10739     10729     10439     10449     10740     10730     10440     10450
 -1      9667    1    0    1
 -2     10740     10730     10440     10450     10741     10731     10441     10451
 -1      9668    1    0    1
 -2     10741     10731     10441     10451     10742     10732     10442     10452
 -1      9669    1    0    1
 -2     10742     10732     10442     10452      3043      3042      3013      3014
 -1      9670    1    0    1
 -2      1043      1042      1013      1014     10743     10733     10443     10453
 -1      9671    1    0    1
 -2     10743     10733     10443     10453     10744     10734     10444     10454
 -1      9672    1    0    1
 -2     10744     10734     10444     10454     10745     10735     10445     10455
 -1      9673    1    0    1
 -2     10745     10735     10445     10455     10746     10736     10446     10456
 -1      9674    1    0    1
 -2     10746     10736     10446     10456     10747     10737     10447     10457
 -1      9675    1    0    1
 -2     10747     10737     10447     10457     10748     10738     10448     10458
 -1      9676    1    0    1
 -2     10748     10738     10448     10458     10749     10739     10449     10459
 -1      9677    1    0    1
 -2     10749     10739     10449     10459     10750     10740     10450     10460
 -1      9678    1    0    1
 -2     10750     10740     10450     10460     10751     10741     10451     10461
 -1      9679    1    0    1
 -2     10751     10741     10451     10461     10752     10742     10452     10462
 -1      9680    1    0    1
 -2     10752     10742     10452     10462      3044      3043      3014      3015
 -1      9681    1    0    1
 -2      1044      1043      1014      1015     10753     10743     10453     10463
 -1      9682    1    0    1
 -2     10753     10743     10453     10463     10754     10744     10454     10464
 -1      9683    1    0    1
 -2     10754     10744     10454     10464     10755     10745     10455     10465
 -1      9684    1    0    1
 -2     10755     10745     10455     10465     10756     10746     10456     10466
 -1      9685    1    0    1
 -2     10756     10746     10456     10466     10757     10747     10457     10467
 -1      9686    1    0    1
 -2     10757     10747     10457     10467     10758     10748     10458     10468
 -1      9687    1    0    1
 -2     10758     10748     10458     10468     10759     10749     10459     10469
 -1      9688    1    0    1
 -2     10759     10749     10459     10469     10760     10750     10460     10470
 -1      9689    1    0    1
 -2     10760     10750     10460     10470     10761     10751     10461     10471
 -1      9690    1    0    1
 -2     10761     10751     10461     10471     10762     10752     10462     10472
 -1      9691    1    0    1
 -2     10762     10752     10462     10472      3045      3044      3015      3016
 -1      9692    1    0    1
 -2      1045      1044      1015      1016     10763     10753     10463     10473
 -1      9693    1    0    1
 -2     10763     10753     10463     10473     10764     10754     10464     10474
 -1      9694    1    0    1
 -2     10764     10754     10464     10474     10765     10755     10465     10475
 -1      9695    1    0    1
 -2     10765     10755     10465     10475     10766     10756     10466     10476
 -1      9696    1    0    1
 -2     10766     10756     10466     10476     10767     10757     10467     10477
 -1      9697    1    0    1
 -2     10767     10757     10467     10477     10768     10758     10468     10478
 -1      9698    1    0    1
 -2     10768     10758     10468     10478     10769     10759     10469     10479
 -1      9699    1    0    1
 -2     10769     10759     10469     10479     10770     10760     10470     10480
 -1      9700    1    0    1
 -2     10770     10760     10470     10480     10771     10761     10471     10481
 -1      9701    1    0    1
 -2     10771     10761     10471     10481     10772     10762     10472     10482
 -1      9702    1    0    1
 -2     10772     10762     10472     10482      3046      3045      3016      3017
 -1      9703    1    0    1
 -2      1046      1045      1016      1017     10773     10763     10473     10483
 -1      9704    1    0    1
 -2     10773     10763     10473     10483     10774     10764     10474     10484
 -1      9705    1    0    1
 -2     10774     10764     10474     10484     10775     10765     10475     10485
 -1      9706    1    0    1
 -2     10775     10765     10475     10485     10776     10766     10476     10486
 -1      9707    1    0    1
 -2     10776     10766     10476     10486     10777     10767     10477     10487
 -1      9708    1    0    1
 -2     10777     10767     10477     10487     10778     10768     10478     10488
 -1      9709    1    0    1
 -2     10778     10768     10478     10488     10779     10769     10479     10489
 -1      9710    1    0    1
 -2     10779     10769     10479     10489     10780     10770     10480     10490
 -1      9711    1    0    1
 -2     10780     10770     10480     10490     10781     10771     10481     10491
 -1      9712    1    0    1
 -2     10781     10771     10481     10491     10782     10772     10482     10492
 -1      9713    1    0    1
 -2     10782     10772     10482     10492      3047      3046      3017      3018
 -1      9714    1    0    1
 -2      1047      1046      1017      1018     10783     10773     10483     10493
 -1      9715    1    0    1
 -2     10783     10773     10483     10493     10784     10774     10484     10494
 -1      9716    1    0    1
 -2     10784     10774     10484     10494     10785     10775     10485     10495
 -1      9717    1    0    1
 -2     10785     10775     10485     10495     10786     10776     10486     10496
 -1      9718    1    0    1
 -2     10786     10776     10486     10496     10787     10777     10487     10497
 -1      9719    1    0    1
 -2     10787     10777     10487     10497     10788     10778     10488     10498
 -1      9720    1    0    1
 -2     10788     10778     10488     10498     10789     10779     10489     10499
 -1      9721    1    0    1
 -2     10789     10779     10489     10499     10790     10780     10490     10500
 -1      9722    1    0    1
 -2     10790     10780     10490     10500     10791     10781     10491     10501
 -1      9723    1    0    1
 -2     10791     10781     10491     10501     10792     10782     10492     10502
 -1      9724    1    0    1
 -2     10792     10782     10492     10502      3048      3047      3018      3019
 -1      9725    1    0    1
 -2      1048      1047      1018      1019     10793     10783     10493     10503
 -1      9726    1    0    1
 -2     10793     10783     10493     10503     10794     10784     10494     10504
 -1      9727    1    0    1
 -2     10794     10784     10494     10504     10795     10785     10495     10505
 -1      9728    1    0    1
 -2     10795     10785     10495     10505     10796     10786     10496     10506
 -1      9729    1    0    1
 -2     10796     10786     10496     10506     10797     10787     10497     10507
 -1      9730    1    0    1
 -2     10797     10787     10497     10507     10798     10788     10498     10508
 -1      9731    1    0    1
 -2     10798     10788     10498     10508     10799     10789     10499     10509
 -1      9732    1    0    1
 -2     10799     10789     10499     10509     10800     10790     10500     10510
 -1      9733    1    0    1
 -2     10800     10790     10500     10510     10801     10791     10501     10511
 -1      9734    1    0    1
 -2     10801     10791     10501     10511     10802     10792     10502     10512
 -1      9735    1    0    1
 -2     10802     10792     10502     10512      3049      3048      3019      3020
 -1      9736    1    0    1
 -2      1049      1048      1019      1020     10803     10793     10503     10513
 -1      9737    1    0    1
 -2     10803     10793     10503     10513     10804     10794     10504     10514
 -1      9738    1    0    1
 -2     10804     10794     10504     10514     10805     10795     10505     10515
 -1      9739    1    0    1
 -2     10805     10795     10505     10515     10806     10796     10506     10516
 -1      9740    1    0    1
 -2     10806     10796     10506     10516     10807     10797     10507     10517
 -1      9741    1    0    1
 -2     10807     10797     10507     10517     10808     10798     10508     10518
 -1      9742    1    0    1
 -2     10808     10798     10508     10518     10809     10799     10509     10519
 -1      9743    1    0    1
 -2     10809     10799     10509     10519     10810     10800     10510     10520
 -1      9744    1    0    1
 -2     10810     10800     10510     10520     10811     10801     10511     10521
 -1      9745    1    0    1
 -2     10811     10801     10511     10521     10812     10802     10512     10522
 -1      9746    1    0    1
 -2     10812     10802     10512     10522      3050      3049      3020      3021
 -1      9747    1    0    1
 -2      1050      1049      1020      1021     10813     10803     10513     10523
 -1      9748    1    0    1
 -2     10813     10803     10513     10523     10814     10804     10514     10524
 -1      9749    1    0    1
 -2     10814     10804     10514     10524     10815     10805     10515     10525
 -1      9750    1    0    1
 -2     10815     10805     10515     10525     10816     10806     10516     10526
 -1      9751    1    0    1
 -2     10816     10806     10516     10526     10817     10807     10517     10527
 -1      9752    1    0    1
 -2     10817     10807     10517     10527     10818     10808     10518     10528
 -1      9753    1    0    1
 -2     10818     10808     10518     10528     10819     10809     10519     10529
 -1      9754    1    0    1
 -2     10819     10809     10519     10529     10820     10810     10520     10530
 -1      9755    1    0    1
 -2     10820     10810     10520     10530     10821     10811     10521     10531
 -1      9756    1    0    1
 -2     10821     10811     10521     10531     10822     10812     10522     10532
 -1      9757    1    0    1
 -2     10822     10812     10522     10532      3051      3050      3021      3022
 -1      9758    1    0    1
 -2      1051      1050      1021      1022     10823     10813     10523     10533
 -1      9759    1    0    1
 -2     10823     10813     10523     10533     10824     10814     10524     10534
 -1      9760    1    0    1
 -2     10824     10814     10524     10534     10825     10815     10525     10535
 -1      9761    1    0    1
 -2     10825     10815     10525     10535     10826     10816     10526     10536
 -1      9762    1    0    1
 -2     10826     10816     10526     10536     10827     10817     10527     10537
 -1      9763    1    0    1
 -2     10827     10817     10527     10537     10828     10818     10528     10538
 -1      9764    1    0    1
 -2     10828     10818     10528     10538     10829     10819     10529     10539
 -1      9765    1    0    1
 -2     10829     10819     10529     10539     10830     10820     10530     10540
 -1      9766    1    0    1
 -2     10830     10820     10530     10540     10831     10821     10531     10541
 -1      9767    1    0    1
 -2     10831     10821     10531     10541     10832     10822     10532     10542
 -1      9768    1    0    1
 -2     10832     10822     10532     10542      3052      3051      3022      3023
 -1      9769    1    0    1
 -2      1052      1051      1022      1023     10833     10823     10533     10543
 -1      9770    1    0    1
 -2     10833     10823     10533     10543     10834     10824     10534     10544
 -1      9771    1    0    1
 -2     10834     10824     10534     10544     10835     10825     10535     10545
 -1      9772    1    0    1
 -2     10835     10825     10535     10545     10836     10826     10536     10546
 -1      9773    1    0    1
 -2     10836     10826     10536     10546     10837     10827     10537     10547
 -1      9774    1    0    1
 -2     10837     10827     10537     10547     10838     10828     10538     10548
 -1      9775    1    0    1
 -2     10838     10828     10538     10548     10839     10829     10539     10549
 -1      9776    1    0    1
 -2     10839     10829     10539     10549     10840     10830     10540     10550
 -1      9777    1    0    1
 -2     10840     10830     10540     10550     10841     10831     10541     10551
 -1      9778    1    0    1
 -2     10841     10831     10541     10551     10842     10832     10542     10552
 -1      9779    1    0    1
 -2     10842     10832     10542     10552      3053      3052      3023      3024
 -1      9780    1    0    1
 -2      1053      1052      1023      1024     10843     10833     10543     10553
 -1      9781    1    0    1
 -2     10843     10833     10543     10553     10844     10834     10544     10554
 -1      9782    1    0    1
 -2     10844     10834     10544     10554     10845     10835     10545     10555
 -1      9783    1    0    1
 -2     10845     10835     10545     10555     10846     10836     10546     10556
 -1      9784    1    0    1
 -2     10846     10836     10546     10556     10847     10837     10547     10557
 -1      9785    1    0    1
 -2     10847     10837     10547     10557     10848     10838     10548     10558
 -1      9786    1    0    1
 -2     10848     10838     10548     10558     10849     10839     10549     10559
 -1      9787    1    0    1
 -2     10849     10839     10549     10559     10850     10840     10550     10560
 -1      9788    1    0    1
 -2     10850     10840     10550     10560     10851     10841     10551     10561
 -1      9789    1    0    1
 -2     10851     10841     10551     10561     10852     10842     10552     10562
 -1      9790    1    0    1
 -2     10852     10842     10552     10562      3054      3053      3024      3025
 -1      9791    1    0    1
 -2      1054      1053      1024      1025     10853     10843     10553     10563
 -1      9792    1    0    1
 -2     10853     10843     10553     10563     10854     10844     10554     10564
 -1      9793    1    0    1
 -2     10854     10844     10554     10564     10855     10845     10555     10565
 -1      9794    1    0    1
 -2     10855     10845     10555     10565     10856     10846     10556     10566
 -1      9795    1    0    1
 -2     10856     10846     10556     10566     10857     10847     10557     10567
 -1      9796    1    0    1
 -2     10857     10847     10557     10567     10858     10848     10558     10568
 -1      9797    1    0    1
 -2     10858     10848     10558     10568     10859     10849     10559     10569
 -1      9798    1    0    1
 -2     10859     10849     10559     10569     10860     10850     10560     10570
 -1      9799    1    0    1
 -2     10860     10850     10560     10570     10861     10851     10561     10571
 -1      9800    1    0    1
 -2     10861     10851     10561     10571     10862     10852     10562     10572
 -1      9801    1    0    1
 -2     10862     10852     10562     10572      3055      3054      3025      3026
 -1      9802    1    0    1
 -2      1055      1054      1025      1026     10863     10853     10563     10573
 -1      9803    1    0    1
 -2     10863     10853     10563     10573     10864     10854     10564     10574
 -1      9804    1    0    1
 -2     10864     10854     10564     10574     10865     10855     10565     10575
 -1      9805    1    0    1
 -2     10865     10855     10565     10575     10866     10856     10566     10576
 -1      9806    1    0    1
 -2     10866     10856     10566     10576     10867     10857     10567     10577
 -1      9807    1    0    1
 -2     10867     10857     10567     10577     10868     10858     10568     10578
 -1      9808    1    0    1
 -2     10868     10858     10568     10578     10869     10859     10569     10579
 -1      9809    1    0    1
 -2     10869     10859     10569     10579     10870     10860     10570     10580
 -1      9810    1    0    1
 -2     10870     10860     10570     10580     10871     10861     10571     10581
 -1      9811    1    0    1
 -2     10871     10861     10571     10581     10872     10862     10572     10582
 -1      9812    1    0    1
 -2     10872     10862     10572     10582      3056      3055      3026      3027
 -1      9813    1    0    1
 -2      1056      1055      1026      1027     10873     10863     10573     10583
 -1      9814    1    0    1
 -2     10873     10863     10573     10583     10874     10864     10574     10584
 -1      9815    1    0    1
 -2     10874     10864     10574     10584     10875     10865     10575     10585
 -1      9816    1    0    1
 -2     10875     10865     10575     10585     10876     10866     10576     10586
 -1      9817    1    0    1
 -2     10876     10866     10576     10586     10877     10867     10577     10587
 -1      9818    1    0    1
 -2     10877     10867     10577     10587     10878     10868     10578     10588
 -1      9819    1    0    1
 -2     10878     10868     10578     10588     10879     10869     10579     10589
 -1      9820    1    0    1
 -2     10879     10869     10579     10589     10880     10870     10580     10590
 -1      9821    1    0    1
 -2     10880     10870     10580     10590     10881     10871     10581     10591
 -1      9822    1    0    1
 -2     10881     10871     10581     10591     10882     10872     10582     10592
 -1      9823    1    0    1
 -2     10882     10872     10582     10592      3057      3056      3027      3028
 -1      9824    1    0    1
 -2      1057      1056      1027      1028     10883     10873     10583     10593
 -1      9825    1    0    1
 -2     10883     10873     10583     10593     10884     10874     10584     10594
 -1      9826    1    0    1
 -2     10884     10874     10584     10594     10885     10875     10585     10595
 -1      9827    1    0    1
 -2     10885     10875     10585     10595     10886     10876     10586     10596
 -1      9828    1    0    1
 -2     10886     10876     10586     10596     10887     10877     10587     10597
 -1      9829    1    0    1
 -2     10887     10877     10587     10597     10888     10878     10588     10598
 -1      9830    1    0    1
 -2     10888     10878     10588     10598     10889     10879     10589     10599
 -1      9831    1    0    1
 -2     10889     10879     10589     10599     10890     10880     10590     10600
 -1      9832    1    0    1
 -2     10890     10880     10590     10600     10891     10881     10591     10601
 -1      9833    1    0    1
 -2     10891     10881     10591     10601     10892     10882     10592     10602
 -1      9834    1    0    1
 -2     10892     10882     10592     10602      3058      3057      3028      3029
 -1      9835    1    0    1
 -2      1058      1057      1028      1029     10893     10883     10593     10603
 -1      9836    1    0    1
 -2     10893     10883     10593     10603     10894     10884     10594     10604
 -1      9837    1    0    1
 -2     10894     10884     10594     10604     10895     10885     10595     10605
 -1      9838    1    0    1
 -2     10895     10885     10595     10605     10896     10886     10596     10606
 -1      9839    1    0    1
 -2     10896     10886     10596     10606     10897     10887     10597     10607
 -1      9840    1    0    1
 -2     10897     10887     10597     10607     10898     10888     10598     10608
 -1      9841    1    0    1
 -2     10898     10888     10598     10608     10899     10889     10599     10609
 -1      9842    1    0    1
 -2     10899     10889     10599     10609     10900     10890     10600     10610
 -1      9843    1    0    1
 -2     10900     10890     10600     10610     10901     10891     10601     10611
 -1      9844    1    0    1
 -2     10901     10891     10601     10611     10902     10892     10602     10612
 -1      9845    1    0    1
 -2     10902     10892     10602     10612      3059      3058      3029      3030
 -1      9846    1    0    1
 -2      1059      1058      1029      1030     10903     10893     10603     10613
 -1      9847    1    0    1
 -2     10903     10893     10603     10613     10904     10894     10604     10614
 -1      9848    1    0    1
 -2     10904     10894     10604     10614     10905     10895     10605     10615
 -1      9849    1    0    1
 -2     10905     10895     10605     10615     10906     10896     10606     10616
 -1      9850    1    0    1
 -2     10906     10896     10606     10616     10907     10897     10607     10617
 -1      9851    1    0    1
 -2     10907     10897     10607     10617     10908     10898     10608     10618
 -1      9852    1    0    1
 -2     10908     10898     10608     10618     10909     10899     10609     10619
 -1      9853    1    0    1
 -2     10909     10899     10609     10619     10910     10900     10610     10620
 -1      9854    1    0    1
 -2     10910     10900     10610     10620     10911     10901     10611     10621
 -1      9855    1    0    1
 -2     10911     10901     10611     10621     10912     10902     10612     10622
 -1      9856    1    0    1
 -2     10912     10902     10612     10622      3060      3059      3030      3031
 -1      9857    1    0    1
 -2      1060      1059      1030      1031     10913     10903     10613     10623
 -1      9858    1    0    1
 -2     10913     10903     10613     10623     10914     10904     10614     10624
 -1      9859    1    0    1
 -2     10914     10904     10614     10624     10915     10905     10615     10625
 -1      9860    1    0    1
 -2     10915     10905     10615     10625     10916     10906     10616     10626
 -1      9861    1    0    1
 -2     10916     10906     10616     10626     10917     10907     10617     10627
 -1      9862    1    0    1
 -2     10917     10907     10617     10627     10918     10908     10618     10628
 -1      9863    1    0    1
 -2     10918     10908     10618     10628     10919     10909     10619     10629
 -1      9864    1    0    1
 -2     10919     10909     10619     10629     10920     10910     10620     10630
 -1      9865    1    0    1
 -2     10920     10910     10620     10630     10921     10911     10621     10631
 -1      9866    1    0    1
 -2     10921     10911     10621     10631     10922     10912     10622     10632
 -1      9867    1    0    1
 -2     10922     10912     10622     10632      3061      3060      3031      3032
 -1      9868    1    0    1
 -2      1061      1060      1031      1032     10923     10913     10623     10633
 -1      9869    1    0    1
 -2     10923     10913     10623     10633     10924     10914     10624     10634
 -1      9870    1    0    1
 -2     10924     10914     10624     10634     10925     10915     10625     10635
 -1      9871    1    0    1
 -2     10925     10915     10625     10635     10926     10916     10626     10636
 -1      9872    1    0    1
 -2     10926     10916     10626     10636     10927     10917     10627     10637
 -1      9873    1    0    1
 -2     10927     10917     10627     10637     10928     10918     10628     10638
 -1      9874    1    0    1
 -2     10928     10918     10628     10638     10929     10919     10629     10639
 -1      9875    1    0    1
 -2     10929     10919     10629     10639     10930     10920     10630     10640
 -1      9876    1    0    1
 -2     10930     10920     10630     10640     10931     10921     10631     10641
 -1      9877    1    0    1
 -2     10931     10921     10631     10641     10932     10922     10632     10642
 -1      9878    1    0    1
 -2     10932     10922     10632     10642      3062      3061      3032      3033
 -1      9879    1    0    1
 -2      1062      1061      1032      1033     10933     10923     10633     10643
 -1      9880    1    0    1
 -2     10933     10923     10633     10643     10934     10924     10634     10644
 -1      9881    1    0    1
 -2     10934     10924     10634     10644     10935     10925     10635     10645
 -1      9882    1    0    1
 -2     10935     10925     10635     10645     10936     10926     10636     10646
 -1      9883    1    0    1
 -2     10936     10926     10636     10646     10937     10927     10637     10647
 -1      9884    1    0    1
 -2     10937     10927     10637     10647     10938     10928     10638     10648
 -1      9885    1    0    1
 -2     10938     10928     10638     10648     10939     10929     10639     10649
 -1      9886    1    0    1
 -2     10939     10929     10639     10649     10940     10930     10640     10650
 -1      9887    1    0    1
 -2     10940     10930     10640     10650     10941     10931     10641     10651
 -1      9888    1    0    1
 -2     10941     10931     10641     10651     10942     10932     10642     10652
 -1      9889    1    0    1
 -2     10942     10932     10642     10652      3063      3062      3033      3034
 -1      9890    1    0    1
 -2      1063      1062      1033      1034     10943     10933     10643     10653
 -1      9891    1    0    1
 -2     10943     10933     10643     10653     10944     10934     10644     10654
 -1      9892    1    0    1
 -2     10944     10934     10644     10654     10945     10935     10645     10655
 -1      9893    1    0    1
 -2     10945     10935     10645     10655     10946     10936     10646     10656
 -1      9894    1    0    1
 -2     10946     10936     10646     10656     10947     10937     10647     10657
 -1      9895    1    0    1
 -2     10947     10937     10647     10657     10948     10938     10648     10658
 -1      9896    1    0    1
 -2     10948     10938     10648     10658     10949     10939     10649     10659
 -1      9897    1    0    1
 -2     10949     10939     10649     10659     10950     10940     10650     10660
 -1      9898    1    0    1
 -2     10950     10940     10650     10660     10951     10941     10651     10661
 -1      9899    1    0    1
 -2     10951     10941     10651     10661     10952     10942     10652     10662
 -1      9900    1    0    1
 -2     10952     10942     10652     10662      3064      3063      3034      3035
 -1      9901    1    0    1
 -2        69      1063      1034        70      1722     10943     10653      1732
 -1      9902    1    0    1
 -2      1722     10943     10653      1732      1723     10944     10654      1733
 -1      9903    1    0    1
 -2      1723     10944     10654      1733      1724     10945     10655      1734
 -1      9904    1    0    1
 -2      1724     10945     10655      1734      1725     10946     10656      1735
 -1      9905    1    0    1
 -2      1725     10946     10656      1735      1726     10947     10657      1736
 -1      9906    1    0    1
 -2      1726     10947     10657      1736      1727     10948     10658      1737
 -1      9907    1    0    1
 -2      1727     10948     10658      1737      1728     10949     10659      1738
 -1      9908    1    0    1
 -2      1728     10949     10659      1738      1729     10950     10660      1739
 -1      9909    1    0    1
 -2      1729     10950     10660      1739      1730     10951     10661      1740
 -1      9910    1    0    1
 -2      1730     10951     10661      1740      1731     10952     10662      1741
 -1      9911    1    0    1
 -2      1731     10952     10662      1741       185      3064      3035       186
 -1      9912    1    0    1
 -2      1064        36        35      1035     10953      1392      1382     10663
 -1      9913    1    0    1
 -2     10953      1392      1382     10663     10954      1393      1383     10664
 -1      9914    1    0    1
 -2     10954      1393      1383     10664     10955      1394      1384     10665
 -1      9915    1    0    1
 -2     10955      1394      1384     10665     10956      1395      1385     10666
 -1      9916    1    0    1
 -2     10956      1395      1385     10666     10957      1396      1386     10667
 -1      9917    1    0    1
 -2     10957      1396      1386     10667     10958      1397      1387     10668
 -1      9918    1    0    1
 -2     10958      1397      1387     10668     10959      1398      1388     10669
 -1      9919    1    0    1
 -2     10959      1398      1388     10669     10960      1399      1389     10670
 -1      9920    1    0    1
 -2     10960      1399      1389     10670     10961      1400      1390     10671
 -1      9921    1    0    1
 -2     10961      1400      1390     10671     10962      1401      1391     10672
 -1      9922    1    0    1
 -2     10962      1401      1391     10672      3065       152       151      3036
 -1      9923    1    0    1
 -2      1065      1064      1035      1036     10963     10953     10663     10673
 -1      9924    1    0    1
 -2     10963     10953     10663     10673     10964     10954     10664     10674
 -1      9925    1    0    1
 -2     10964     10954     10664     10674     10965     10955     10665     10675
 -1      9926    1    0    1
 -2     10965     10955     10665     10675     10966     10956     10666     10676
 -1      9927    1    0    1
 -2     10966     10956     10666     10676     10967     10957     10667     10677
 -1      9928    1    0    1
 -2     10967     10957     10667     10677     10968     10958     10668     10678
 -1      9929    1    0    1
 -2     10968     10958     10668     10678     10969     10959     10669     10679
 -1      9930    1    0    1
 -2     10969     10959     10669     10679     10970     10960     10670     10680
 -1      9931    1    0    1
 -2     10970     10960     10670     10680     10971     10961     10671     10681
 -1      9932    1    0    1
 -2     10971     10961     10671     10681     10972     10962     10672     10682
 -1      9933    1    0    1
 -2     10972     10962     10672     10682      3066      3065      3036      3037
 -1      9934    1    0    1
 -2      1066      1065      1036      1037     10973     10963     10673     10683
 -1      9935    1    0    1
 -2     10973     10963     10673     10683     10974     10964     10674     10684
 -1      9936    1    0    1
 -2     10974     10964     10674     10684     10975     10965     10675     10685
 -1      9937    1    0    1
 -2     10975     10965     10675     10685     10976     10966     10676     10686
 -1      9938    1    0    1
 -2     10976     10966     10676     10686     10977     10967     10677     10687
 -1      9939    1    0    1
 -2     10977     10967     10677     10687     10978     10968     10678     10688
 -1      9940    1    0    1
 -2     10978     10968     10678     10688     10979     10969     10679     10689
 -1      9941    1    0    1
 -2     10979     10969     10679     10689     10980     10970     10680     10690
 -1      9942    1    0    1
 -2     10980     10970     10680     10690     10981     10971     10681     10691
 -1      9943    1    0    1
 -2     10981     10971     10681     10691     10982     10972     10682     10692
 -1      9944    1    0    1
 -2     10982     10972     10682     10692      3067      3066      3037      3038
 -1      9945    1    0    1
 -2      1067      1066      1037      1038     10983     10973     10683     10693
 -1      9946    1    0    1
 -2     10983     10973     10683     10693     10984     10974     10684     10694
 -1      9947    1    0    1
 -2     10984     10974     10684     10694     10985     10975     10685     10695
 -1      9948    1    0    1
 -2     10985     10975     10685     10695     10986     10976     10686     10696
 -1      9949    1    0    1
 -2     10986     10976     10686     10696     10987     10977     10687     10697
 -1      9950    1    0    1
 -2     10987     10977     10687     10697     10988     10978     10688     10698
 -1      9951    1    0    1
 -2     10988     10978     10688     10698     10989     10979     10689     10699
 -1      9952    1    0    1
 -2     10989     10979     10689     10699     10990     10980     10690     10700
 -1      9953    1    0    1
 -2     10990     10980     10690     10700     10991     10981     10691     10701
 -1      9954    1    0    1
 -2     10991     10981     10691     10701     10992     10982     10692     10702
 -1      9955    1    0    1
 -2     10992     10982     10692     10702      3068      3067      3038      3039
 -1      9956    1    0    1
 -2      1068      1067      1038      1039     10993     10983     10693     10703
 -1      9957    1    0    1
 -2     10993     10983     10693     10703     10994     10984     10694     10704
 -1      9958    1    0    1
 -2     10994     10984     10694     10704     10995     10985     10695     10705
 -1      9959    1    0    1
 -2     10995     10985     10695     10705     10996     10986     10696     10706
 -1      9960    1    0    1
 -2     10996     10986     10696     10706     10997     10987     10697     10707
 -1      9961    1    0    1
 -2     10997     10987     10697     10707     10998     10988     10698     10708
 -1      9962    1    0    1
 -2     10998     10988     10698     10708     10999     10989     10699     10709
 -1      9963    1    0    1
 -2     10999     10989     10699     10709     11000     10990     10700     10710
 -1      9964    1    0    1
 -2     11000     10990     10700     10710     11001     10991     10701     10711
 -1      9965    1    0    1
 -2     11001     10991     10701     10711     11002     10992     10702     10712
 -1      9966    1    0    1
 -2     11002     10992     10702     10712      3069      3068      3039      3040
 -1      9967    1    0    1
 -2      1069      1068      1039      1040     11003     10993     10703     10713
 -1      9968    1    0    1
 -2     11003     10993     10703     10713     11004     10994     10704     10714
 -1      9969    1    0    1
 -2     11004     10994     10704     10714     11005     10995     10705     10715
 -1      9970    1    0    1
 -2     11005     10995     10705     10715     11006     10996     10706     10716
 -1      9971    1    0    1
 -2     11006     10996     10706     10716     11007     10997     10707     10717
 -1      9972    1    0    1
 -2     11007     10997     10707     10717     11008     10998     10708     10718
 -1      9973    1    0    1
 -2     11008     10998     10708     10718     11009     10999     10709     10719
 -1      9974    1    0    1
 -2     11009     10999     10709     10719     11010     11000     10710     10720
 -1      9975    1    0    1
 -2     11010     11000     10710     10720     11011     11001     10711     10721
 -1      9976    1    0    1
 -2     11011     11001     10711     10721     11012     11002     10712     10722
 -1      9977    1    0    1
 -2     11012     11002     10712     10722      3070      3069      3040      3041
 -1      9978    1    0    1
 -2      1070      1069      1040      1041     11013     11003     10713     10723
 -1      9979    1    0    1
 -2     11013     11003     10713     10723     11014     11004     10714     10724
 -1      9980    1    0    1
 -2     11014     11004     10714     10724     11015     11005     10715     10725
 -1      9981    1    0    1
 -2     11015     11005     10715     10725     11016     11006     10716     10726
 -1      9982    1    0    1
 -2     11016     11006     10716     10726     11017     11007     10717     10727
 -1      9983    1    0    1
 -2     11017     11007     10717     10727     11018     11008     10718     10728
 -1      9984    1    0    1
 -2     11018     11008     10718     10728     11019     11009     10719     10729
 -1      9985    1    0    1
 -2     11019     11009     10719     10729     11020     11010     10720     10730
 -1      9986    1    0    1
 -2     11020     11010     10720     10730     11021     11011     10721     10731
 -1      9987    1    0    1
 -2     11021     11011     10721     10731     11022     11012     10722     10732
 -1      9988    1    0    1
 -2     11022     11012     10722     10732      3071      3070      3041      3042
 -1      9989    1    0    1
 -2      1071      1070      1041      1042     11023     11013     10723     10733
 -1      9990    1    0    1
 -2     11023     11013     10723     10733     11024     11014     10724     10734
 -1      9991    1    0    1
 -2     11024     11014     10724     10734     11025     11015     10725     10735
 -1      9992    1    0    1
 -2     11025     11015     10725     10735     11026     11016     10726     10736
 -1      9993    1    0    1
 -2     11026     11016     10726     10736     11027     11017     10727     10737
 -1      9994    1    0    1
 -2     11027     11017     10727     10737     11028     11018     10728     10738
 -1      9995    1    0    1
 -2     11028     11018     10728     10738     11029     11019     10729     10739
 -1      9996    1    0    1
 -2     11029     11019     10729     10739     11030     11020     10730     10740
 -1      9997    1    0    1
 -2     11030     11020     10730     10740     11031     11021     10731     10741
 -1      9998    1    0    1
 -2     11031     11021     10731     10741     11032     11022     10732     10742
 -1      9999    1    0    1
 -2     11032     11022     10732     10742      3072      3071      3042      3043
 -1     10000    1    0    1
 -2      1072      1071      1042      1043     11033     11023     10733     10743
 -1     10001    1    0    1
 -2     11033     11023     10733     10743     11034     11024     10734     10744
 -1     10002    1    0    1
 -2     11034     11024     10734     10744     11035     11025     10735     10745
 -1     10003    1    0    1
 -2     11035     11025     10735     10745     11036     11026     10736     10746
 -1     10004    1    0    1
 -2     11036     11026     10736     10746     11037     11027     10737     10747
 -1     10005    1    0    1
 -2     11037     11027     10737     10747     11038     11028     10738     10748
 -1     10006    1    0    1
 -2     11038     11028     10738     10748     11039     11029     10739     10749
 -1     10007    1    0    1
 -2     11039     11029     10739     10749     11040     11030     10740     10750
 -1     10008    1    0    1
 -2     11040     11030     10740     10750     11041     11031     10741     10751
 -1     10009    1    0    1
 -2     11041     11031     10741     10751     11042     11032     10742     10752
 -1     10010    1    0    1
 -2     11042     11032     10742     10752      3073      3072      3043      3044
 -1     10011    1    0    1
 -2      1073      1072      1043      1044     11043     11033     10743     10753
 -1     10012    1    0    1
 -2     11043     11033     10743     10753     11044     11034     10744     10754
 -1     10013    1    0    1
 -2     11044     11034     10744     10754     11045     11035     10745     10755
 -1     10014    1    0    1
 -2     11045     11035     10745     10755     11046     11036     10746     10756
 -1     10015    1    0    1
 -2     11046     11036     10746     10756     11047     11037     10747     10757
 -1     10016    1    0    1
 -2     11047     11037     10747     10757     11048     11038     10748     10758
 -1     10017    1    0    1
 -2     11048     11038     10748     10758     11049     11039     10749     10759
 -1     10018    1    0    1
 -2     11049     11039     10749     10759     11050     11040     10750     10760
 -1     10019    1    0    1
 -2     11050     11040     10750     10760     11051     11041     10751     10761
 -1     10020    1    0    1
 -2     11051     11041     10751     10761     11052     11042     10752     10762
 -1     10021    1    0    1
 -2     11052     11042     10752     10762      3074      3073      3044      3045
 -1     10022    1    0    1
 -2      1074      1073      1044      1045     11053     11043     10753     10763
 -1     10023    1    0    1
 -2     11053     11043     10753     10763     11054     11044     10754     10764
 -1     10024    1    0    1
 -2     11054     11044     10754     10764     11055     11045     10755     10765
 -1     10025    1    0    1
 -2     11055     11045     10755     10765     11056     11046     10756     10766
 -1     10026    1    0    1
 -2     11056     11046     10756     10766     11057     11047     10757     10767
 -1     10027    1    0    1
 -2     11057     11047     10757     10767     11058     11048     10758     10768
 -1     10028    1    0    1
 -2     11058     11048     10758     10768     11059     11049     10759     10769
 -1     10029    1    0    1
 -2     11059     11049     10759     10769     11060     11050     10760     10770
 -1     10030    1    0    1
 -2     11060     11050     10760     10770     11061     11051     10761     10771
 -1     10031    1    0    1
 -2     11061     11051     10761     10771     11062     11052     10762     10772
 -1     10032    1    0    1
 -2     11062     11052     10762     10772      3075      3074      3045      3046
 -1     10033    1    0    1
 -2      1075      1074      1045      1046     11063     11053     10763     10773
 -1     10034    1    0    1
 -2     11063     11053     10763     10773     11064     11054     10764     10774
 -1     10035    1    0    1
 -2     11064     11054     10764     10774     11065     11055     10765     10775
 -1     10036    1    0    1
 -2     11065     11055     10765     10775     11066     11056     10766     10776
 -1     10037    1    0    1
 -2     11066     11056     10766     10776     11067     11057     10767     10777
 -1     10038    1    0    1
 -2     11067     11057     10767     10777     11068     11058     10768     10778
 -1     10039    1    0    1
 -2     11068     11058     10768     10778     11069     11059     10769     10779
 -1     10040    1    0    1
 -2     11069     11059     10769     10779     11070     11060     10770     10780
 -1     10041    1    0    1
 -2     11070     11060     10770     10780     11071     11061     10771     10781
 -1     10042    1    0    1
 -2     11071     11061     10771     10781     11072     11062     10772     10782
 -1     10043    1    0    1
 -2     11072     11062     10772     10782      3076      3075      3046      3047
 -1     10044    1    0    1
 -2      1076      1075      1046      1047     11073     11063     10773     10783
 -1     10045    1    0    1
 -2     11073     11063     10773     10783     11074     11064     10774     10784
 -1     10046    1    0    1
 -2     11074     11064     10774     10784     11075     11065     10775     10785
 -1     10047    1    0    1
 -2     11075     11065     10775     10785     11076     11066     10776     10786
 -1     10048    1    0    1
 -2     11076     11066     10776     10786     11077     11067     10777     10787
 -1     10049    1    0    1
 -2     11077     11067     10777     10787     11078     11068     10778     10788
 -1     10050    1    0    1
 -2     11078     11068     10778     10788     11079     11069     10779     10789
 -1     10051    1    0    1
 -2     11079     11069     10779     10789     11080     11070     10780     10790
 -1     10052    1    0    1
 -2     11080     11070     10780     10790     11081     11071     10781     10791
 -1     10053    1    0    1
 -2     11081     11071     10781     10791     11082     11072     10782     10792
 -1     10054    1    0    1
 -2     11082     11072     10782     10792      3077      3076      3047      3048
 -1     10055    1    0    1
 -2      1077      1076      1047      1048     11083     11073     10783     10793
 -1     10056    1    0    1
 -2     11083     11073     10783     10793     11084     11074     10784     10794
 -1     10057    1    0    1
 -2     11084     11074     10784     10794     11085     11075     10785     10795
 -1     10058    1    0    1
 -2     11085     11075     10785     10795     11086     11076     10786     10796
 -1     10059    1    0    1
 -2     11086     11076     10786     10796     11087     11077     10787     10797
 -1     10060    1    0    1
 -2     11087     11077     10787     10797     11088     11078     10788     10798
 -1     10061    1    0    1
 -2     11088     11078     10788     10798     11089     11079     10789     10799
 -1     10062    1    0    1
 -2     11089     11079     10789     10799     11090     11080     10790     10800
 -1     10063    1    0    1
 -2     11090     11080     10790     10800     11091     11081     10791     10801
 -1     10064    1    0    1
 -2     11091     11081     10791     10801     11092     11082     10792     10802
 -1     10065    1    0    1
 -2     11092     11082     10792     10802      3078      3077      3048      3049
 -1     10066    1    0    1
 -2      1078      1077      1048      1049     11093     11083     10793     10803
 -1     10067    1    0    1
 -2     11093     11083     10793     10803     11094     11084     10794     10804
 -1     10068    1    0    1
 -2     11094     11084     10794     10804     11095     11085     10795     10805
 -1     10069    1    0    1
 -2     11095     11085     10795     10805     11096     11086     10796     10806
 -1     10070    1    0    1
 -2     11096     11086     10796     10806     11097     11087     10797     10807
 -1     10071    1    0    1
 -2     11097     11087     10797     10807     11098     11088     10798     10808
 -1     10072    1    0    1
 -2     11098     11088     10798     10808     11099     11089     10799     10809
 -1     10073    1    0    1
 -2     11099     11089     10799     10809     11100     11090     10800     10810
 -1     10074    1    0    1
 -2     11100     11090     10800     10810     11101     11091     10801     10811
 -1     10075    1    0    1
 -2     11101     11091     10801     10811     11102     11092     10802     10812
 -1     10076    1    0    1
 -2     11102     11092     10802     10812      3079      3078      3049      3050
 -1     10077    1    0    1
 -2      1079      1078      1049      1050     11103     11093     10803     10813
 -1     10078    1    0    1
 -2     11103     11093     10803     10813     11104     11094     10804     10814
 -1     10079    1    0    1
 -2     11104     11094     10804     10814     11105     11095     10805     10815
 -1     10080    1    0    1
 -2     11105     11095     10805     10815     11106     11096     10806     10816
 -1     10081    1    0    1
 -2     11106     11096     10806     10816     11107     11097     10807     10817
 -1     10082    1    0    1
 -2     11107     11097     10807     10817     11108     11098     10808     10818
 -1     10083    1    0    1
 -2     11108     11098     10808     10818     11109     11099     10809     10819
 -1     10084    1    0    1
 -2     11109     11099     10809     10819     11110     11100     10810     10820
 -1     10085    1    0    1
 -2     11110     11100     10810     10820     11111     11101     10811     10821
 -1     10086    1    0    1
 -2     11111     11101     10811     10821     11112     11102     10812     10822
 -1     10087    1    0    1
 -2     11112     11102     10812     10822      3080      3079      3050      3051
 -1     10088    1    0    1
 -2      1080      1079      1050      1051     11113     11103     10813     10823
 -1     10089    1    0    1
 -2     11113     11103     10813     10823     11114     11104     10814     10824
 -1     10090    1    0    1
 -2     11114     11104     10814     10824     11115     11105     10815     10825
 -1     10091    1    0    1
 -2     11115     11105     10815     10825     11116     11106     10816     10826
 -1     10092    1    0    1
 -2     11116     11106     10816     10826     11117     11107     10817     10827
 -1     10093    1    0    1
 -2     11117     11107     10817     10827     11118     11108     10818     10828
 -1     10094    1    0    1
 -2     11118     11108     10818     10828     11119     11109     10819     10829
 -1     10095    1    0    1
 -2     11119     11109     10819     10829     11120     11110     10820     10830
 -1     10096    1    0    1
 -2     11120     11110     10820     10830     11121     11111     10821     10831
 -1     10097    1    0    1
 -2     11121     11111     10821     10831     11122     11112     10822     10832
 -1     10098    1    0    1
 -2     11122     11112     10822     10832      3081      3080      3051      3052
 -1     10099    1    0    1
 -2      1081      1080      1051      1052     11123     11113     10823     10833
 -1     10100    1    0    1
 -2     11123     11113     10823     10833     11124     11114     10824     10834
 -1     10101    1    0    1
 -2     11124     11114     10824     10834     11125     11115     10825     10835
 -1     10102    1    0    1
 -2     11125     11115     10825     10835     11126     11116     10826     10836
 -1     10103    1    0    1
 -2     11126     11116     10826     10836     11127     11117     10827     10837
 -1     10104    1    0    1
 -2     11127     11117     10827     10837     11128     11118     10828     10838
 -1     10105    1    0    1
 -2     11128     11118     10828     10838     11129     11119     10829     10839
 -1     10106    1    0    1
 -2     11129     11119     10829     10839     11130     11120     10830     10840
 -1     10107    1    0    1
 -2     11130     11120     10830     10840     11131     11121     10831     10841
 -1     10108    1    0    1
 -2     11131     11121     10831     10841     11132     11122     10832     10842
 -1     10109    1    0    1
 -2     11132     11122     10832     10842      3082      3081      3052      3053
 -1     10110    1    0    1
 -2      1082      1081      1052      1053     11133     11123     10833     10843
 -1     10111    1    0    1
 -2     11133     11123     10833     10843     11134     11124     10834     10844
 -1     10112    1    0    1
 -2     11134     11124     10834     10844     11135     11125     10835     10845
 -1     10113    1    0    1
 -2     11135     11125     10835     10845     11136     11126     10836     10846
 -1     10114    1    0    1
 -2     11136     11126     10836     10846     11137     11127     10837     10847
 -1     10115    1    0    1
 -2     11137     11127     10837     10847     11138     11128     10838     10848
 -1     10116    1    0    1
 -2     11138     11128     10838     10848     11139     11129     10839     10849
 -1     10117    1    0    1
 -2     11139     11129     10839     10849     11140     11130     10840     10850
 -1     10118    1    0    1
 -2     11140     11130     10840     10850     11141     11131     10841     10851
 -1     10119    1    0    1
 -2     11141     11131     10841     10851     11142     11132     10842     10852
 -1     10120    1    0    1
 -2     11142     11132     10842     10852      3083      3082      3053      3054
 -1     10121    1    0    1
 -2      1083      1082      1053      1054     11143     11133     10843     10853
 -1     10122    1    0    1
 -2     11143     11133     10843     10853     11144     11134     10844     10854
 -1     10123    1    0    1
 -2     11144     11134     10844     10854     11145     11135     10845     10855
 -1     10124    1    0    1
 -2     11145     11135     10845     10855     11146     11136     10846     10856
 -1     10125    1    0    1
 -2     11146     11136     10846     10856     11147     11137     10847     10857
 -1     10126    1    0    1
 -2     11147     11137     10847     10857     11148     11138     10848     10858
 -1     10127    1    0    1
 -2     11148     11138     10848     10858     11149     11139     10849     10859
 -1     10128    1    0    1
 -2     11149     11139     10849     10859     11150     11140     10850     10860
 -1     10129    1    0    1
 -2     11150     11140     10850     10860     11151     11141     10851     10861
 -1     10130    1    0    1
 -2     11151     11141     10851     10861     11152     11142     10852     10862
 -1     10131    1    0    1
 -2     11152     11142     10852     10862      3084      3083      3054      3055
 -1     10132    1    0    1
 -2      1084      1083      1054      1055     11153     11143     10853     10863
 -1     10133    1    0    1
 -2     11153     11143     10853     10863     11154     11144     10854     10864
 -1     10134    1    0    1
 -2     11154     11144     10854     10864     11155     11145     10855     10865
 -1     10135    1    0    1
 -2     11155     11145     10855     10865     11156     11146     10856     10866
 -1     10136    1    0    1
 -2     11156     11146     10856     10866     11157     11147     10857     10867
 -1     10137    1    0    1
 -2     11157     11147     10857     10867     11158     11148     10858     10868
 -1     10138    1    0    1
 -2     11158     11148     10858     10868     11159     11149     10859     10869
 -1     10139    1    0    1
 -2     11159     11149     10859     10869     11160     11150     10860     10870
 -1     10140    1    0    1
 -2     11160     11150     10860     10870     11161     11151     10861     10871
 -1     10141    1    0    1
 -2     11161     11151     10861     10871     11162     11152     10862     10872
 -1     10142    1    0    1
 -2     11162     11152     10862     10872      3085      3084      3055      3056
 -1     10143    1    0    1
 -2      1085      1084      1055      1056     11163     11153     10863     10873
 -1     10144    1    0    1
 -2     11163     11153     10863     10873     11164     11154     10864     10874
 -1     10145    1    0    1
 -2     11164     11154     10864     10874     11165     11155     10865     10875
 -1     10146    1    0    1
 -2     11165     11155     10865     10875     11166     11156     10866     10876
 -1     10147    1    0    1
 -2     11166     11156     10866     10876     11167     11157     10867     10877
 -1     10148    1    0    1
 -2     11167     11157     10867     10877     11168     11158     10868     10878
 -1     10149    1    0    1
 -2     11168     11158     10868     10878     11169     11159     10869     10879
 -1     10150    1    0    1
 -2     11169     11159     10869     10879     11170     11160     10870     10880
 -1     10151    1    0    1
 -2     11170     11160     10870     10880     11171     11161     10871     10881
 -1     10152    1    0    1
 -2     11171     11161     10871     10881     11172     11162     10872     10882
 -1     10153    1    0    1
 -2     11172     11162     10872     10882      3086      3085      3056      3057
 -1     10154    1    0    1
 -2      1086      1085      1056      1057     11173     11163     10873     10883
 -1     10155    1    0    1
 -2     11173     11163     10873     10883     11174     11164     10874     10884
 -1     10156    1    0    1
 -2     11174     11164     10874     10884     11175     11165     10875     10885
 -1     10157    1    0    1
 -2     11175     11165     10875     10885     11176     11166     10876     10886
 -1     10158    1    0    1
 -2     11176     11166     10876     10886     11177     11167     10877     10887
 -1     10159    1    0    1
 -2     11177     11167     10877     10887     11178     11168     10878     10888
 -1     10160    1    0    1
 -2     11178     11168     10878     10888     11179     11169     10879     10889
 -1     10161    1    0    1
 -2     11179     11169     10879     10889     11180     11170     10880     10890
 -1     10162    1    0    1
 -2     11180     11170     10880     10890     11181     11171     10881     10891
 -1     10163    1    0    1
 -2     11181     11171     10881     10891     11182     11172     10882     10892
 -1     10164    1    0    1
 -2     11182     11172     10882     10892      3087      3086      3057      3058
 -1     10165    1    0    1
 -2      1087      1086      1057      1058     11183     11173     10883     10893
 -1     10166    1    0    1
 -2     11183     11173     10883     10893     11184     11174     10884     10894
 -1     10167    1    0    1
 -2     11184     11174     10884     10894     11185     11175     10885     10895
 -1     10168    1    0    1
 -2     11185     11175     10885     10895     11186     11176     10886     10896
 -1     10169    1    0    1
 -2     11186     11176     10886     10896     11187     11177     10887     10897
 -1     10170    1    0    1
 -2     11187     11177     10887     10897     11188     11178     10888     10898
 -1     10171    1    0    1
 -2     11188     11178     10888     10898     11189     11179     10889     10899
 -1     10172    1    0    1
 -2     11189     11179     10889     10899     11190     11180     10890     10900
 -1     10173    1    0    1
 -2     11190     11180     10890     10900     11191     11181     10891     10901
 -1     10174    1    0    1
 -2     11191     11181     10891     10901     11192     11182     10892     10902
 -1     10175    1    0    1
 -2     11192     11182     10892     10902      3088      3087      3058      3059
 -1     10176    1    0    1
 -2      1088      1087      1058      1059     11193     11183     10893     10903
 -1     10177    1    0    1
 -2     11193     11183     10893     10903     11194     11184     10894     10904
 -1     10178    1    0    1
 -2     11194     11184     10894     10904     11195     11185     10895     10905
 -1     10179    1    0    1
 -2     11195     11185     10895     10905     11196     11186     10896     10906
 -1     10180    1    0    1
 -2     11196     11186     10896     10906     11197     11187     10897     10907
 -1     10181    1    0    1
 -2     11197     11187     10897     10907     11198     11188     10898     10908
 -1     10182    1    0    1
 -2     11198     11188     10898     10908     11199     11189     10899     10909
 -1     10183    1    0    1
 -2     11199     11189     10899     10909     11200     11190     10900     10910
 -1     10184    1    0    1
 -2     11200     11190     10900     10910     11201     11191     10901     10911
 -1     10185    1    0    1
 -2     11201     11191     10901     10911     11202     11192     10902     10912
 -1     10186    1    0    1
 -2     11202     11192     10902     10912      3089      3088      3059      3060
 -1     10187    1    0    1
 -2      1089      1088      1059      1060     11203     11193     10903     10913
 -1     10188    1    0    1
 -2     11203     11193     10903     10913     11204     11194     10904     10914
 -1     10189    1    0    1
 -2     11204     11194     10904     10914     11205     11195     10905     10915
 -1     10190    1    0    1
 -2     11205     11195     10905     10915     11206     11196     10906     10916
 -1     10191    1    0    1
 -2     11206     11196     10906     10916     11207     11197     10907     10917
 -1     10192    1    0    1
 -2     11207     11197     10907     10917     11208     11198     10908     10918
 -1     10193    1    0    1
 -2     11208     11198     10908     10918     11209     11199     10909     10919
 -1     10194    1    0    1
 -2     11209     11199     10909     10919     11210     11200     10910     10920
 -1     10195    1    0    1
 -2     11210     11200     10910     10920     11211     11201     10911     10921
 -1     10196    1    0    1
 -2     11211     11201     10911     10921     11212     11202     10912     10922
 -1     10197    1    0    1
 -2     11212     11202     10912     10922      3090      3089      3060      3061
 -1     10198    1    0    1
 -2      1090      1089      1060      1061     11213     11203     10913     10923
 -1     10199    1    0    1
 -2     11213     11203     10913     10923     11214     11204     10914     10924
 -1     10200    1    0    1
 -2     11214     11204     10914     10924     11215     11205     10915     10925
 -1     10201    1    0    1
 -2     11215     11205     10915     10925     11216     11206     10916     10926
 -1     10202    1    0    1
 -2     11216     11206     10916     10926     11217     11207     10917     10927
 -1     10203    1    0    1
 -2     11217     11207     10917     10927     11218     11208     10918     10928
 -1     10204    1    0    1
 -2     11218     11208     10918     10928     11219     11209     10919     10929
 -1     10205    1    0    1
 -2     11219     11209     10919     10929     11220     11210     10920     10930
 -1     10206    1    0    1
 -2     11220     11210     10920     10930     11221     11211     10921     10931
 -1     10207    1    0    1
 -2     11221     11211     10921     10931     11222     11212     10922     10932
 -1     10208    1    0    1
 -2     11222     11212     10922     10932      3091      3090      3061      3062
 -1     10209    1    0    1
 -2      1091      1090      1061      1062     11223     11213     10923     10933
 -1     10210    1    0    1
 -2     11223     11213     10923     10933     11224     11214     10924     10934
 -1     10211    1    0    1
 -2     11224     11214     10924     10934     11225     11215     10925     10935
 -1     10212    1    0    1
 -2     11225     11215     10925     10935     11226     11216     10926     10936
 -1     10213    1    0    1
 -2     11226     11216     10926     10936     11227     11217     10927     10937
 -1     10214    1    0    1
 -2     11227     11217     10927     10937     11228     11218     10928     10938
 -1     10215    1    0    1
 -2     11228     11218     10928     10938     11229     11219     10929     10939
 -1     10216    1    0    1
 -2     11229     11219     10929     10939     11230     11220     10930     10940
 -1     10217    1    0    1
 -2     11230     11220     10930     10940     11231     11221     10931     10941
 -1     10218    1    0    1
 -2     11231     11221     10931     10941     11232     11222     10932     10942
 -1     10219    1    0    1
 -2     11232     11222     10932     10942      3092      3091      3062      3063
 -1     10220    1    0    1
 -2      1092      1091      1062      1063     11233     11223     10933     10943
 -1     10221    1    0    1
 -2     11233     11223     10933     10943     11234     11224     10934     10944
 -1     10222    1    0    1
 -2     11234     11224     10934     10944     11235     11225     10935     10945
 -1     10223    1    0    1
 -2     11235     11225     10935     10945     11236     11226     10936     10946
 -1     10224    1    0    1
 -2     11236     11226     10936     10946     11237     11227     10937     10947
 -1     10225    1    0    1
 -2     11237     11227     10937     10947     11238     11228     10938     10948
 -1     10226    1    0    1
 -2     11238     11228     10938     10948     11239     11229     10939     10949
 -1     10227    1    0    1
 -2     11239     11229     10939     10949     11240     11230     10940     10950
 -1     10228    1    0    1
 -2     11240     11230     10940     10950     11241     11231     10941     10951
 -1     10229    1    0    1
 -2     11241     11231     10941     10951     11242     11232     10942     10952
 -1     10230    1    0    1
 -2     11242     11232     10942     10952      3093      3092      3063      3064
 -1     10231    1    0    1
 -2        68      1092      1063        69      1712     11233     10943      1722
 -1     10232    1    0    1
 -2      1712     11233     10943      1722      1713     11234     10944      1723
 -1     10233    1    0    1
 -2      1713     11234     10944      1723      1714     11235     10945      1724
 -1     10234    1    0    1
 -2      1714     11235     10945      1724      1715     11236     10946      1725
 -1     10235    1    0    1
 -2      1715     11236     10946      1725      1716     11237     10947      1726
 -1     10236    1    0    1
 -2      1716     11237     10947      1726      1717     11238     10948      1727
 -1     10237    1    0    1
 -2      1717     11238     10948      1727      1718     11239     10949      1728
 -1     10238    1    0    1
 -2      1718     11239     10949      1728      1719     11240     10950      1729
 -1     10239    1    0    1
 -2      1719     11240     10950      1729      1720     11241     10951      1730
 -1     10240    1    0    1
 -2      1720     11241     10951      1730      1721     11242     10952      1731
 -1     10241    1    0    1
 -2      1721     11242     10952      1731       184      3093      3064       185
 -1     10242    1    0    1
 -2      1093        37        36      1064     11243      1402      1392     10953
 -1     10243    1    0    1
 -2     11243      1402      1392     10953     11244      1403      1393     10954
 -1     10244    1    0    1
 -2     11244      1403      1393     10954     11245      1404      1394     10955
 -1     10245    1    0    1
 -2     11245      1404      1394     10955     11246      1405      1395     10956
 -1     10246    1    0    1
 -2     11246      1405      1395     10956     11247      1406      1396     10957
 -1     10247    1    0    1
 -2     11247      1406      1396     10957     11248      1407      1397     10958
 -1     10248    1    0    1
 -2     11248      1407      1397     10958     11249      1408      1398     10959
 -1     10249    1    0    1
 -2     11249      1408      1398     10959     11250      1409      1399     10960
 -1     10250    1    0    1
 -2     11250      1409      1399     10960     11251      1410      1400     10961
 -1     10251    1    0    1
 -2     11251      1410      1400     10961     11252      1411      1401     10962
 -1     10252    1    0    1
 -2     11252      1411      1401     10962      3094       153       152      3065
 -1     10253    1    0    1
 -2      1094      1093      1064      1065     11253     11243     10953     10963
 -1     10254    1    0    1
 -2     11253     11243     10953     10963     11254     11244     10954     10964
 -1     10255    1    0    1
 -2     11254     11244     10954     10964     11255     11245     10955     10965
 -1     10256    1    0    1
 -2     11255     11245     10955     10965     11256     11246     10956     10966
 -1     10257    1    0    1
 -2     11256     11246     10956     10966     11257     11247     10957     10967
 -1     10258    1    0    1
 -2     11257     11247     10957     10967     11258     11248     10958     10968
 -1     10259    1    0    1
 -2     11258     11248     10958     10968     11259     11249     10959     10969
 -1     10260    1    0    1
 -2     11259     11249     10959     10969     11260     11250     10960     10970
 -1     10261    1    0    1
 -2     11260     11250     10960     10970     11261     11251     10961     10971
 -1     10262    1    0    1
 -2     11261     11251     10961     10971     11262     11252     10962     10972
 -1     10263    1    0    1
 -2     11262     11252     10962     10972      3095      3094      3065      3066
 -1     10264    1    0    1
 -2      1095      1094      1065      1066     11263     11253     10963     10973
 -1     10265    1    0    1
 -2     11263     11253     10963     10973     11264     11254     10964     10974
 -1     10266    1    0    1
 -2     11264     11254     10964     10974     11265     11255     10965     10975
 -1     10267    1    0    1
 -2     11265     11255     10965     10975     11266     11256     10966     10976
 -1     10268    1    0    1
 -2     11266     11256     10966     10976     11267     11257     10967     10977
 -1     10269    1    0    1
 -2     11267     11257     10967     10977     11268     11258     10968     10978
 -1     10270    1    0    1
 -2     11268     11258     10968     10978     11269     11259     10969     10979
 -1     10271    1    0    1
 -2     11269     11259     10969     10979     11270     11260     10970     10980
 -1     10272    1    0    1
 -2     11270     11260     10970     10980     11271     11261     10971     10981
 -1     10273    1    0    1
 -2     11271     11261     10971     10981     11272     11262     10972     10982
 -1     10274    1    0    1
 -2     11272     11262     10972     10982      3096      3095      3066      3067
 -1     10275    1    0    1
 -2      1096      1095      1066      1067     11273     11263     10973     10983
 -1     10276    1    0    1
 -2     11273     11263     10973     10983     11274     11264     10974     10984
 -1     10277    1    0    1
 -2     11274     11264     10974     10984     11275     11265     10975     10985
 -1     10278    1    0    1
 -2     11275     11265     10975     10985     11276     11266     10976     10986
 -1     10279    1    0    1
 -2     11276     11266     10976     10986     11277     11267     10977     10987
 -1     10280    1    0    1
 -2     11277     11267     10977     10987     11278     11268     10978     10988
 -1     10281    1    0    1
 -2     11278     11268     10978     10988     11279     11269     10979     10989
 -1     10282    1    0    1
 -2     11279     11269     10979     10989     11280     11270     10980     10990
 -1     10283    1    0    1
 -2     11280     11270     10980     10990     11281     11271     10981     10991
 -1     10284    1    0    1
 -2     11281     11271     10981     10991     11282     11272     10982     10992
 -1     10285    1    0    1
 -2     11282     11272     10982     10992      3097      3096      3067      3068
 -1     10286    1    0    1
 -2      1097      1096      1067      1068     11283     11273     10983     10993
 -1     10287    1    0    1
 -2     11283     11273     10983     10993     11284     11274     10984     10994
 -1     10288    1    0    1
 -2     11284     11274     10984     10994     11285     11275     10985     10995
 -1     10289    1    0    1
 -2     11285     11275     10985     10995     11286     11276     10986     10996
 -1     10290    1    0    1
 -2     11286     11276     10986     10996     11287     11277     10987     10997
 -1     10291    1    0    1
 -2     11287     11277     10987     10997     11288     11278     10988     10998
 -1     10292    1    0    1
 -2     11288     11278     10988     10998     11289     11279     10989     10999
 -1     10293    1    0    1
 -2     11289     11279     10989     10999     11290     11280     10990     11000
 -1     10294    1    0    1
 -2     11290     11280     10990     11000     11291     11281     10991     11001
 -1     10295    1    0    1
 -2     11291     11281     10991     11001     11292     11282     10992     11002
 -1     10296    1    0    1
 -2     11292     11282     10992     11002      3098      3097      3068      3069
 -1     10297    1    0    1
 -2      1098      1097      1068      1069     11293     11283     10993     11003
 -1     10298    1    0    1
 -2     11293     11283     10993     11003     11294     11284     10994     11004
 -1     10299    1    0    1
 -2     11294     11284     10994     11004     11295     11285     10995     11005
 -1     10300    1    0    1
 -2     11295     11285     10995     11005     11296     11286     10996     11006
 -1     10301    1    0    1
 -2     11296     11286     10996     11006     11297     11287     10997     11007
 -1     10302    1    0    1
 -2     11297     11287     10997     11007     11298     11288     10998     11008
 -1     10303    1    0    1
 -2     11298     11288     10998     11008     11299     11289     10999     11009
 -1     10304    1    0    1
 -2     11299     11289     10999     11009     11300     11290     11000     11010
 -1     10305    1    0    1
 -2     11300     11290     11000     11010     11301     11291     11001     11011
 -1     10306    1    0    1
 -2     11301     11291     11001     11011     11302     11292     11002     11012
 -1     10307    1    0    1
 -2     11302     11292     11002     11012      3099      3098      3069      3070
 -1     10308    1    0    1
 -2      1099      1098      1069      1070     11303     11293     11003     11013
 -1     10309    1    0    1
 -2     11303     11293     11003     11013     11304     11294     11004     11014
 -1     10310    1    0    1
 -2     11304     11294     11004     11014     11305     11295     11005     11015
 -1     10311    1    0    1
 -2     11305     11295     11005     11015     11306     11296     11006     11016
 -1     10312    1    0    1
 -2     11306     11296     11006     11016     11307     11297     11007     11017
 -1     10313    1    0    1
 -2     11307     11297     11007     11017     11308     11298     11008     11018
 -1     10314    1    0    1
 -2     11308     11298     11008     11018     11309     11299     11009     11019
 -1     10315    1    0    1
 -2     11309     11299     11009     11019     11310     11300     11010     11020
 -1     10316    1    0    1
 -2     11310     11300     11010     11020     11311     11301     11011     11021
 -1     10317    1    0    1
 -2     11311     11301     11011     11021     11312     11302     11012     11022
 -1     10318    1    0    1
 -2     11312     11302     11012     11022      3100      3099      3070      3071
 -1     10319    1    0    1
 -2      1100      1099      1070      1071     11313     11303     11013     11023
 -1     10320    1    0    1
 -2     11313     11303     11013     11023     11314     11304     11014     11024
 -1     10321    1    0    1
 -2     11314     11304     11014     11024     11315     11305     11015     11025
 -1     10322    1    0    1
 -2     11315     11305     11015     11025     11316     11306     11016     11026
 -1     10323    1    0    1
 -2     11316     11306     11016     11026     11317     11307     11017     11027
 -1     10324    1    0    1
 -2     11317     11307     11017     11027     11318     11308     11018     11028
 -1     10325    1    0    1
 -2     11318     11308     11018     11028     11319     11309     11019     11029
 -1     10326    1    0    1
 -2     11319     11309     11019     11029     11320     11310     11020     11030
 -1     10327    1    0    1
 -2     11320     11310     11020     11030     11321     11311     11021     11031
 -1     10328    1    0    1
 -2     11321     11311     11021     11031     11322     11312     11022     11032
 -1     10329    1    0    1
 -2     11322     11312     11022     11032      3101      3100      3071      3072
 -1     10330    1    0    1
 -2      1101      1100      1071      1072     11323     11313     11023     11033
 -1     10331    1    0    1
 -2     11323     11313     11023     11033     11324     11314     11024     11034
 -1     10332    1    0    1
 -2     11324     11314     11024     11034     11325     11315     11025     11035
 -1     10333    1    0    1
 -2     11325     11315     11025     11035     11326     11316     11026     11036
 -1     10334    1    0    1
 -2     11326     11316     11026     11036     11327     11317     11027     11037
 -1     10335    1    0    1
 -2     11327     11317     11027     11037     11328     11318     11028     11038
 -1     10336    1    0    1
 -2     11328     11318     11028     11038     11329     11319     11029     11039
 -1     10337    1    0    1
 -2     11329     11319     11029     11039     11330     11320     11030     11040
 -1     10338    1    0    1
 -2     11330     11320     11030     11040     11331     11321     11031     11041
 -1     10339    1    0    1
 -2     11331     11321     11031     11041     11332     11322     11032     11042
 -1     10340    1    0    1
 -2     11332     11322     11032     11042      3102      3101      3072      3073
 -1     10341    1    0    1
 -2      1102      1101      1072      1073     11333     11323     11033     11043
 -1     10342    1    0    1
 -2     11333     11323     11033     11043     11334     11324     11034     11044
 -1     10343    1    0    1
 -2     11334     11324     11034     11044     11335     11325     11035     11045
 -1     10344    1    0    1
 -2     11335     11325     11035     11045     11336     11326     11036     11046
 -1     10345    1    0    1
 -2     11336     11326     11036     11046     11337     11327     11037     11047
 -1     10346    1    0    1
 -2     11337     11327     11037     11047     11338     11328     11038     11048
 -1     10347    1    0    1
 -2     11338     11328     11038     11048     11339     11329     11039     11049
 -1     10348    1    0    1
 -2     11339     11329     11039     11049     11340     11330     11040     11050
 -1     10349    1    0    1
 -2     11340     11330     11040     11050     11341     11331     11041     11051
 -1     10350    1    0    1
 -2     11341     11331     11041     11051     11342     11332     11042     11052
 -1     10351    1    0    1
 -2     11342     11332     11042     11052      3103      3102      3073      3074
 -1     10352    1    0    1
 -2      1103      1102      1073      1074     11343     11333     11043     11053
 -1     10353    1    0    1
 -2     11343     11333     11043     11053     11344     11334     11044     11054
 -1     10354    1    0    1
 -2     11344     11334     11044     11054     11345     11335     11045     11055
 -1     10355    1    0    1
 -2     11345     11335     11045     11055     11346     11336     11046     11056
 -1     10356    1    0    1
 -2     11346     11336     11046     11056     11347     11337     11047     11057
 -1     10357    1    0    1
 -2     11347     11337     11047     11057     11348     11338     11048     11058
 -1     10358    1    0    1
 -2     11348     11338     11048     11058     11349     11339     11049     11059
 -1     10359    1    0    1
 -2     11349     11339     11049     11059     11350     11340     11050     11060
 -1     10360    1    0    1
 -2     11350     11340     11050     11060     11351     11341     11051     11061
 -1     10361    1    0    1
 -2     11351     11341     11051     11061     11352     11342     11052     11062
 -1     10362    1    0    1
 -2     11352     11342     11052     11062      3104      3103      3074      3075
 -1     10363    1    0    1
 -2      1104      1103      1074      1075     11353     11343     11053     11063
 -1     10364    1    0    1
 -2     11353     11343     11053     11063     11354     11344     11054     11064
 -1     10365    1    0    1
 -2     11354     11344     11054     11064     11355     11345     11055     11065
 -1     10366    1    0    1
 -2     11355     11345     11055     11065     11356     11346     11056     11066
 -1     10367    1    0    1
 -2     11356     11346     11056     11066     11357     11347     11057     11067
 -1     10368    1    0    1
 -2     11357     11347     11057     11067     11358     11348     11058     11068
 -1     10369    1    0    1
 -2     11358     11348     11058     11068     11359     11349     11059     11069
 -1     10370    1    0    1
 -2     11359     11349     11059     11069     11360     11350     11060     11070
 -1     10371    1    0    1
 -2     11360     11350     11060     11070     11361     11351     11061     11071
 -1     10372    1    0    1
 -2     11361     11351     11061     11071     11362     11352     11062     11072
 -1     10373    1    0    1
 -2     11362     11352     11062     11072      3105      3104      3075      3076
 -1     10374    1    0    1
 -2      1105      1104      1075      1076     11363     11353     11063     11073
 -1     10375    1    0    1
 -2     11363     11353     11063     11073     11364     11354     11064     11074
 -1     10376    1    0    1
 -2     11364     11354     11064     11074     11365     11355     11065     11075
 -1     10377    1    0    1
 -2     11365     11355     11065     11075     11366     11356     11066     11076
 -1     10378    1    0    1
 -2     11366     11356     11066     11076     11367     11357     11067     11077
 -1     10379    1    0    1
 -2     11367     11357     11067     11077     11368     11358     11068     11078
 -1     10380    1    0    1
 -2     11368     11358     11068     11078     11369     11359     11069     11079
 -1     10381    1    0    1
 -2     11369     11359     11069     11079     11370     11360     11070     11080
 -1     10382    1    0    1
 -2     11370     11360     11070     11080     11371     11361     11071     11081
 -1     10383    1    0    1
 -2     11371     11361     11071     11081     11372     11362     11072     11082
 -1     10384    1    0    1
 -2     11372     11362     11072     11082      3106      3105      3076      3077
 -1     10385    1    0    1
 -2      1106      1105      1076      1077     11373     11363     11073     11083
 -1     10386    1    0    1
 -2     11373     11363     11073     11083     11374     11364     11074     11084
 -1     10387    1    0    1
 -2     11374     11364     11074     11084     11375     11365     11075     11085
 -1     10388    1    0    1
 -2     11375     11365     11075     11085     11376     11366     11076     11086
 -1     10389    1    0    1
 -2     11376     11366     11076     11086     11377     11367     11077     11087
 -1     10390    1    0    1
 -2     11377     11367     11077     11087     11378     11368     11078     11088
 -1     10391    1    0    1
 -2     11378     11368     11078     11088     11379     11369     11079     11089
 -1     10392    1    0    1
 -2     11379     11369     11079     11089     11380     11370     11080     11090
 -1     10393    1    0    1
 -2     11380     11370     11080     11090     11381     11371     11081     11091
 -1     10394    1    0    1
 -2     11381     11371     11081     11091     11382     11372     11082     11092
 -1     10395    1    0    1
 -2     11382     11372     11082     11092      3107      3106      3077      3078
 -1     10396    1    0    1
 -2      1107      1106      1077      1078     11383     11373     11083     11093
 -1     10397    1    0    1
 -2     11383     11373     11083     11093     11384     11374     11084     11094
 -1     10398    1    0    1
 -2     11384     11374     11084     11094     11385     11375     11085     11095
 -1     10399    1    0    1
 -2     11385     11375     11085     11095     11386     11376     11086     11096
 -1     10400    1    0    1
 -2     11386     11376     11086     11096     11387     11377     11087     11097
 -1     10401    1    0    1
 -2     11387     11377     11087     11097     11388     11378     11088     11098
 -1     10402    1    0    1
 -2     11388     11378     11088     11098     11389     11379     11089     11099
 -1     10403    1    0    1
 -2     11389     11379     11089     11099     11390     11380     11090     11100
 -1     10404    1    0    1
 -2     11390     11380     11090     11100     11391     11381     11091     11101
 -1     10405    1    0    1
 -2     11391     11381     11091     11101     11392     11382     11092     11102
 -1     10406    1    0    1
 -2     11392     11382     11092     11102      3108      3107      3078      3079
 -1     10407    1    0    1
 -2      1108      1107      1078      1079     11393     11383     11093     11103
 -1     10408    1    0    1
 -2     11393     11383     11093     11103     11394     11384     11094     11104
 -1     10409    1    0    1
 -2     11394     11384     11094     11104     11395     11385     11095     11105
 -1     10410    1    0    1
 -2     11395     11385     11095     11105     11396     11386     11096     11106
 -1     10411    1    0    1
 -2     11396     11386     11096     11106     11397     11387     11097     11107
 -1     10412    1    0    1
 -2     11397     11387     11097     11107     11398     11388     11098     11108
 -1     10413    1    0    1
 -2     11398     11388     11098     11108     11399     11389     11099     11109
 -1     10414    1    0    1
 -2     11399     11389     11099     11109     11400     11390     11100     11110
 -1     10415    1    0    1
 -2     11400     11390     11100     11110     11401     11391     11101     11111
 -1     10416    1    0    1
 -2     11401     11391     11101     11111     11402     11392     11102     11112
 -1     10417    1    0    1
 -2     11402     11392     11102     11112      3109      3108      3079      3080
 -1     10418    1    0    1
 -2      1109      1108      1079      1080     11403     11393     11103     11113
 -1     10419    1    0    1
 -2     11403     11393     11103     11113     11404     11394     11104     11114
 -1     10420    1    0    1
 -2     11404     11394     11104     11114     11405     11395     11105     11115
 -1     10421    1    0    1
 -2     11405     11395     11105     11115     11406     11396     11106     11116
 -1     10422    1    0    1
 -2     11406     11396     11106     11116     11407     11397     11107     11117
 -1     10423    1    0    1
 -2     11407     11397     11107     11117     11408     11398     11108     11118
 -1     10424    1    0    1
 -2     11408     11398     11108     11118     11409     11399     11109     11119
 -1     10425    1    0    1
 -2     11409     11399     11109     11119     11410     11400     11110     11120
 -1     10426    1    0    1
 -2     11410     11400     11110     11120     11411     11401     11111     11121
 -1     10427    1    0    1
 -2     11411     11401     11111     11121     11412     11402     11112     11122
 -1     10428    1    0    1
 -2     11412     11402     11112     11122      3110      3109      3080      3081
 -1     10429    1    0    1
 -2      1110      1109      1080      1081     11413     11403     11113     11123
 -1     10430    1    0    1
 -2     11413     11403     11113     11123     11414     11404     11114     11124
 -1     10431    1    0    1
 -2     11414     11404     11114     11124     11415     11405     11115     11125
 -1     10432    1    0    1
 -2     11415     11405     11115     11125     11416     11406     11116     11126
 -1     10433    1    0    1
 -2     11416     11406     11116     11126     11417     11407     11117     11127
 -1     10434    1    0    1
 -2     11417     11407     11117     11127     11418     11408     11118     11128
 -1     10435    1    0    1
 -2     11418     11408     11118     11128     11419     11409     11119     11129
 -1     10436    1    0    1
 -2     11419     11409     11119     11129     11420     11410     11120     11130
 -1     10437    1    0    1
 -2     11420     11410     11120     11130     11421     11411     11121     11131
 -1     10438    1    0    1
 -2     11421     11411     11121     11131     11422     11412     11122     11132
 -1     10439    1    0    1
 -2     11422     11412     11122     11132      3111      3110      3081      3082
 -1     10440    1    0    1
 -2      1111      1110      1081      1082     11423     11413     11123     11133
 -1     10441    1    0    1
 -2     11423     11413     11123     11133     11424     11414     11124     11134
 -1     10442    1    0    1
 -2     11424     11414     11124     11134     11425     11415     11125     11135
 -1     10443    1    0    1
 -2     11425     11415     11125     11135     11426     11416     11126     11136
 -1     10444    1    0    1
 -2     11426     11416     11126     11136     11427     11417     11127     11137
 -1     10445    1    0    1
 -2     11427     11417     11127     11137     11428     11418     11128     11138
 -1     10446    1    0    1
 -2     11428     11418     11128     11138     11429     11419     11129     11139
 -1     10447    1    0    1
 -2     11429     11419     11129     11139     11430     11420     11130     11140
 -1     10448    1    0    1
 -2     11430     11420     11130     11140     11431     11421     11131     11141
 -1     10449    1    0    1
 -2     11431     11421     11131     11141     11432     11422     11132     11142
 -1     10450    1    0    1
 -2     11432     11422     11132     11142      3112      3111      3082      3083
 -1     10451    1    0    1
 -2      1112      1111      1082      1083     11433     11423     11133     11143
 -1     10452    1    0    1
 -2     11433     11423     11133     11143     11434     11424     11134     11144
 -1     10453    1    0    1
 -2     11434     11424     11134     11144     11435     11425     11135     11145
 -1     10454    1    0    1
 -2     11435     11425     11135     11145     11436     11426     11136     11146
 -1     10455    1    0    1
 -2     11436     11426     11136     11146     11437     11427     11137     11147
 -1     10456    1    0    1
 -2     11437     11427     11137     11147     11438     11428     11138     11148
 -1     10457    1    0    1
 -2     11438     11428     11138     11148     11439     11429     11139     11149
 -1     10458    1    0    1
 -2     11439     11429     11139     11149     11440     11430     11140     11150
 -1     10459    1    0    1
 -2     11440     11430     11140     11150     11441     11431     11141     11151
 -1     10460    1    0    1
 -2     11441     11431     11141     11151     11442     11432     11142     11152
 -1     10461    1    0    1
 -2     11442     11432     11142     11152      3113      3112      3083      3084
 -1     10462    1    0    1
 -2      1113      1112      1083      1084     11443     11433     11143     11153
 -1     10463    1    0    1
 -2     11443     11433     11143     11153     11444     11434     11144     11154
 -1     10464    1    0    1
 -2     11444     11434     11144     11154     11445     11435     11145     11155
 -1     10465    1    0    1
 -2     11445     11435     11145     11155     11446     11436     11146     11156
 -1     10466    1    0    1
 -2     11446     11436     11146     11156     11447     11437     11147     11157
 -1     10467    1    0    1
 -2     11447     11437     11147     11157     11448     11438     11148     11158
 -1     10468    1    0    1
 -2     11448     11438     11148     11158     11449     11439     11149     11159
 -1     10469    1    0    1
 -2     11449     11439     11149     11159     11450     11440     11150     11160
 -1     10470    1    0    1
 -2     11450     11440     11150     11160     11451     11441     11151     11161
 -1     10471    1    0    1
 -2     11451     11441     11151     11161     11452     11442     11152     11162
 -1     10472    1    0    1
 -2     11452     11442     11152     11162      3114      3113      3084      3085
 -1     10473    1    0    1
 -2      1114      1113      1084      1085     11453     11443     11153     11163
 -1     10474    1    0    1
 -2     11453     11443     11153     11163     11454     11444     11154     11164
 -1     10475    1    0    1
 -2     11454     11444     11154     11164     11455     11445     11155     11165
 -1     10476    1    0    1
 -2     11455     11445     11155     11165     11456     11446     11156     11166
 -1     10477    1    0    1
 -2     11456     11446     11156     11166     11457     11447     11157     11167
 -1     10478    1    0    1
 -2     11457     11447     11157     11167     11458     11448     11158     11168
 -1     10479    1    0    1
 -2     11458     11448     11158     11168     11459     11449     11159     11169
 -1     10480    1    0    1
 -2     11459     11449     11159     11169     11460     11450     11160     11170
 -1     10481    1    0    1
 -2     11460     11450     11160     11170     11461     11451     11161     11171
 -1     10482    1    0    1
 -2     11461     11451     11161     11171     11462     11452     11162     11172
 -1     10483    1    0    1
 -2     11462     11452     11162     11172      3115      3114      3085      3086
 -1     10484    1    0    1
 -2      1115      1114      1085      1086     11463     11453     11163     11173
 -1     10485    1    0    1
 -2     11463     11453     11163     11173     11464     11454     11164     11174
 -1     10486    1    0    1
 -2     11464     11454     11164     11174     11465     11455     11165     11175
 -1     10487    1    0    1
 -2     11465     11455     11165     11175     11466     11456     11166     11176
 -1     10488    1    0    1
 -2     11466     11456     11166     11176     11467     11457     11167     11177
 -1     10489    1    0    1
 -2     11467     11457     11167     11177     11468     11458     11168     11178
 -1     10490    1    0    1
 -2     11468     11458     11168     11178     11469     11459     11169     11179
 -1     10491    1    0    1
 -2     11469     11459     11169     11179     11470     11460     11170     11180
 -1     10492    1    0    1
 -2     11470     11460     11170     11180     11471     11461     11171     11181
 -1     10493    1    0    1
 -2     11471     11461     11171     11181     11472     11462     11172     11182
 -1     10494    1    0    1
 -2     11472     11462     11172     11182      3116      3115      3086      3087
 -1     10495    1    0    1
 -2      1116      1115      1086      1087     11473     11463     11173     11183
 -1     10496    1    0    1
 -2     11473     11463     11173     11183     11474     11464     11174     11184
 -1     10497    1    0    1
 -2     11474     11464     11174     11184     11475     11465     11175     11185
 -1     10498    1    0    1
 -2     11475     11465     11175     11185     11476     11466     11176     11186
 -1     10499    1    0    1
 -2     11476     11466     11176     11186     11477     11467     11177     11187
 -1     10500    1    0    1
 -2     11477     11467     11177     11187     11478     11468     11178     11188
 -1     10501    1    0    1
 -2     11478     11468     11178     11188     11479     11469     11179     11189
 -1     10502    1    0    1
 -2     11479     11469     11179     11189     11480     11470     11180     11190
 -1     10503    1    0    1
 -2     11480     11470     11180     11190     11481     11471     11181     11191
 -1     10504    1    0    1
 -2     11481     11471     11181     11191     11482     11472     11182     11192
 -1     10505    1    0    1
 -2     11482     11472     11182     11192      3117      3116      3087      3088
 -1     10506    1    0    1
 -2      1117      1116      1087      1088     11483     11473     11183     11193
 -1     10507    1    0    1
 -2     11483     11473     11183     11193     11484     11474     11184     11194
 -1     10508    1    0    1
 -2     11484     11474     11184     11194     11485     11475     11185     11195
 -1     10509    1    0    1
 -2     11485     11475     11185     11195     11486     11476     11186     11196
 -1     10510    1    0    1
 -2     11486     11476     11186     11196     11487     11477     11187     11197
 -1     10511    1    0    1
 -2     11487     11477     11187     11197     11488     11478     11188     11198
 -1     10512    1    0    1
 -2     11488     11478     11188     11198     11489     11479     11189     11199
 -1     10513    1    0    1
 -2     11489     11479     11189     11199     11490     11480     11190     11200
 -1     10514    1    0    1
 -2     11490     11480     11190     11200     11491     11481     11191     11201
 -1     10515    1    0    1
 -2     11491     11481     11191     11201     11492     11482     11192     11202
 -1     10516    1    0    1
 -2     11492     11482     11192     11202      3118      3117      3088      3089
 -1     10517    1    0    1
 -2      1118      1117      1088      1089     11493     11483     11193     11203
 -1     10518    1    0    1
 -2     11493     11483     11193     11203     11494     11484     11194     11204
 -1     10519    1    0    1
 -2     11494     11484     11194     11204     11495     11485     11195     11205
 -1     10520    1    0    1
 -2     11495     11485     11195     11205     11496     11486     11196     11206
 -1     10521    1    0    1
 -2     11496     11486     11196     11206     11497     11487     11197     11207
 -1     10522    1    0    1
 -2     11497     11487     11197     11207     11498     11488     11198     11208
 -1     10523    1    0    1
 -2     11498     11488     11198     11208     11499     11489     11199     11209
 -1     10524    1    0    1
 -2     11499     11489     11199     11209     11500     11490     11200     11210
 -1     10525    1    0    1
 -2     11500     11490     11200     11210     11501     11491     11201     11211
 -1     10526    1    0    1
 -2     11501     11491     11201     11211     11502     11492     11202     11212
 -1     10527    1    0    1
 -2     11502     11492     11202     11212      3119      3118      3089      3090
 -1     10528    1    0    1
 -2      1119      1118      1089      1090     11503     11493     11203     11213
 -1     10529    1    0    1
 -2     11503     11493     11203     11213     11504     11494     11204     11214
 -1     10530    1    0    1
 -2     11504     11494     11204     11214     11505     11495     11205     11215
 -1     10531    1    0    1
 -2     11505     11495     11205     11215     11506     11496     11206     11216
 -1     10532    1    0    1
 -2     11506     11496     11206     11216     11507     11497     11207     11217
 -1     10533    1    0    1
 -2     11507     11497     11207     11217     11508     11498     11208     11218
 -1     10534    1    0    1
 -2     11508     11498     11208     11218     11509     11499     11209     11219
 -1     10535    1    0    1
 -2     11509     11499     11209     11219     11510     11500     11210     11220
 -1     10536    1    0    1
 -2     11510     11500     11210     11220     11511     11501     11211     11221
 -1     10537    1    0    1
 -2     11511     11501     11211     11221     11512     11502     11212     11222
 -1     10538    1    0    1
 -2     11512     11502     11212     11222      3120      3119      3090      3091
 -1     10539    1    0    1
 -2      1120      1119      1090      1091     11513     11503     11213     11223
 -1     10540    1    0    1
 -2     11513     11503     11213     11223     11514     11504     11214     11224
 -1     10541    1    0    1
 -2     11514     11504     11214     11224     11515     11505     11215     11225
 -1     10542    1    0    1
 -2     11515     11505     11215     11225     11516     11506     11216     11226
 -1     10543    1    0    1
 -2     11516     11506     11216     11226     11517     11507     11217     11227
 -1     10544    1    0    1
 -2     11517     11507     11217     11227     11518     11508     11218     11228
 -1     10545    1    0    1
 -2     11518     11508     11218     11228     11519     11509     11219     11229
 -1     10546    1    0    1
 -2     11519     11509     11219     11229     11520     11510     11220     11230
 -1     10547    1    0    1
 -2     11520     11510     11220     11230     11521     11511     11221     11231
 -1     10548    1    0    1
 -2     11521     11511     11221     11231     11522     11512     11222     11232
 -1     10549    1    0    1
 -2     11522     11512     11222     11232      3121      3120      3091      3092
 -1     10550    1    0    1
 -2      1121      1120      1091      1092     11523     11513     11223     11233
 -1     10551    1    0    1
 -2     11523     11513     11223     11233     11524     11514     11224     11234
 -1     10552    1    0    1
 -2     11524     11514     11224     11234     11525     11515     11225     11235
 -1     10553    1    0    1
 -2     11525     11515     11225     11235     11526     11516     11226     11236
 -1     10554    1    0    1
 -2     11526     11516     11226     11236     11527     11517     11227     11237
 -1     10555    1    0    1
 -2     11527     11517     11227     11237     11528     11518     11228     11238
 -1     10556    1    0    1
 -2     11528     11518     11228     11238     11529     11519     11229     11239
 -1     10557    1    0    1
 -2     11529     11519     11229     11239     11530     11520     11230     11240
 -1     10558    1    0    1
 -2     11530     11520     11230     11240     11531     11521     11231     11241
 -1     10559    1    0    1
 -2     11531     11521     11231     11241     11532     11522     11232     11242
 -1     10560    1    0    1
 -2     11532     11522     11232     11242      3122      3121      3092      3093
 -1     10561    1    0    1
 -2        67      1121      1092        68      1702     11523     11233      1712
 -1     10562    1    0    1
 -2      1702     11523     11233      1712      1703     11524     11234      1713
 -1     10563    1    0    1
 -2      1703     11524     11234      1713      1704     11525     11235      1714
 -1     10564    1    0    1
 -2      1704     11525     11235      1714      1705     11526     11236      1715
 -1     10565    1    0    1
 -2      1705     11526     11236      1715      1706     11527     11237      1716
 -1     10566    1    0    1
 -2      1706     11527     11237      1716      1707     11528     11238      1717
 -1     10567    1    0    1
 -2      1707     11528     11238      1717      1708     11529     11239      1718
 -1     10568    1    0    1
 -2      1708     11529     11239      1718      1709     11530     11240      1719
 -1     10569    1    0    1
 -2      1709     11530     11240      1719      1710     11531     11241      1720
 -1     10570    1    0    1
 -2      1710     11531     11241      1720      1711     11532     11242      1721
 -1     10571    1    0    1
 -2      1711     11532     11242      1721       183      3122      3093       184
 -1     10572    1    0    1
 -2        38         2        37      1093      1412       251      1402     11243
 -1     10573    1    0    1
 -2      1412       251      1402     11243      1413       252      1403     11244
 -1     10574    1    0    1
 -2      1413       252      1403     11244      1414       253      1404     11245
 -1     10575    1    0    1
 -2      1414       253      1404     11245      1415       254      1405     11246
 -1     10576    1    0    1
 -2      1415       254      1405     11246      1416       255      1406     11247
 -1     10577    1    0    1
 -2      1416       255      1406     11247      1417       256      1407     11248
 -1     10578    1    0    1
 -2      1417       256      1407     11248      1418       257      1408     11249
 -1     10579    1    0    1
 -2      1418       257      1408     11249      1419       258      1409     11250
 -1     10580    1    0    1
 -2      1419       258      1409     11250      1420       259      1410     11251
 -1     10581    1    0    1
 -2      1420       259      1410     11251      1421       260      1411     11252
 -1     10582    1    0    1
 -2      1421       260      1411     11252       154         6       153      3094
 -1     10583    1    0    1
 -2        39        38      1093      1094      1422      1412     11243     11253
 -1     10584    1    0    1
 -2      1422      1412     11243     11253      1423      1413     11244     11254
 -1     10585    1    0    1
 -2      1423      1413     11244     11254      1424      1414     11245     11255
 -1     10586    1    0    1
 -2      1424      1414     11245     11255      1425      1415     11246     11256
 -1     10587    1    0    1
 -2      1425      1415     11246     11256      1426      1416     11247     11257
 -1     10588    1    0    1
 -2      1426      1416     11247     11257      1427      1417     11248     11258
 -1     10589    1    0    1
 -2      1427      1417     11248     11258      1428      1418     11249     11259
 -1     10590    1    0    1
 -2      1428      1418     11249     11259      1429      1419     11250     11260
 -1     10591    1    0    1
 -2      1429      1419     11250     11260      1430      1420     11251     11261
 -1     10592    1    0    1
 -2      1430      1420     11251     11261      1431      1421     11252     11262
 -1     10593    1    0    1
 -2      1431      1421     11252     11262       155       154      3094      3095
 -1     10594    1    0    1
 -2        40        39      1094      1095      1432      1422     11253     11263
 -1     10595    1    0    1
 -2      1432      1422     11253     11263      1433      1423     11254     11264
 -1     10596    1    0    1
 -2      1433      1423     11254     11264      1434      1424     11255     11265
 -1     10597    1    0    1
 -2      1434      1424     11255     11265      1435      1425     11256     11266
 -1     10598    1    0    1
 -2      1435      1425     11256     11266      1436      1426     11257     11267
 -1     10599    1    0    1
 -2      1436      1426     11257     11267      1437      1427     11258     11268
 -1     10600    1    0    1
 -2      1437      1427     11258     11268      1438      1428     11259     11269
 -1     10601    1    0    1
 -2      1438      1428     11259     11269      1439      1429     11260     11270
 -1     10602    1    0    1
 -2      1439      1429     11260     11270      1440      1430     11261     11271
 -1     10603    1    0    1
 -2      1440      1430     11261     11271      1441      1431     11262     11272
 -1     10604    1    0    1
 -2      1441      1431     11262     11272       156       155      3095      3096
 -1     10605    1    0    1
 -2        41        40      1095      1096      1442      1432     11263     11273
 -1     10606    1    0    1
 -2      1442      1432     11263     11273      1443      1433     11264     11274
 -1     10607    1    0    1
 -2      1443      1433     11264     11274      1444      1434     11265     11275
 -1     10608    1    0    1
 -2      1444      1434     11265     11275      1445      1435     11266     11276
 -1     10609    1    0    1
 -2      1445      1435     11266     11276      1446      1436     11267     11277
 -1     10610    1    0    1
 -2      1446      1436     11267     11277      1447      1437     11268     11278
 -1     10611    1    0    1
 -2      1447      1437     11268     11278      1448      1438     11269     11279
 -1     10612    1    0    1
 -2      1448      1438     11269     11279      1449      1439     11270     11280
 -1     10613    1    0    1
 -2      1449      1439     11270     11280      1450      1440     11271     11281
 -1     10614    1    0    1
 -2      1450      1440     11271     11281      1451      1441     11272     11282
 -1     10615    1    0    1
 -2      1451      1441     11272     11282       157       156      3096      3097
 -1     10616    1    0    1
 -2        42        41      1096      1097      1452      1442     11273     11283
 -1     10617    1    0    1
 -2      1452      1442     11273     11283      1453      1443     11274     11284
 -1     10618    1    0    1
 -2      1453      1443     11274     11284      1454      1444     11275     11285
 -1     10619    1    0    1
 -2      1454      1444     11275     11285      1455      1445     11276     11286
 -1     10620    1    0    1
 -2      1455      1445     11276     11286      1456      1446     11277     11287
 -1     10621    1    0    1
 -2      1456      1446     11277     11287      1457      1447     11278     11288
 -1     10622    1    0    1
 -2      1457      1447     11278     11288      1458      1448     11279     11289
 -1     10623    1    0    1
 -2      1458      1448     11279     11289      1459      1449     11280     11290
 -1     10624    1    0    1
 -2      1459      1449     11280     11290      1460      1450     11281     11291
 -1     10625    1    0    1
 -2      1460      1450     11281     11291      1461      1451     11282     11292
 -1     10626    1    0    1
 -2      1461      1451     11282     11292       158       157      3097      3098
 -1     10627    1    0    1
 -2        43        42      1097      1098      1462      1452     11283     11293
 -1     10628    1    0    1
 -2      1462      1452     11283     11293      1463      1453     11284     11294
 -1     10629    1    0    1
 -2      1463      1453     11284     11294      1464      1454     11285     11295
 -1     10630    1    0    1
 -2      1464      1454     11285     11295      1465      1455     11286     11296
 -1     10631    1    0    1
 -2      1465      1455     11286     11296      1466      1456     11287     11297
 -1     10632    1    0    1
 -2      1466      1456     11287     11297      1467      1457     11288     11298
 -1     10633    1    0    1
 -2      1467      1457     11288     11298      1468      1458     11289     11299
 -1     10634    1    0    1
 -2      1468      1458     11289     11299      1469      1459     11290     11300
 -1     10635    1    0    1
 -2      1469      1459     11290     11300      1470      1460     11291     11301
 -1     10636    1    0    1
 -2      1470      1460     11291     11301      1471      1461     11292     11302
 -1     10637    1    0    1
 -2      1471      1461     11292     11302       159       158      3098      3099
 -1     10638    1    0    1
 -2        44        43      1098      1099      1472      1462     11293     11303
 -1     10639    1    0    1
 -2      1472      1462     11293     11303      1473      1463     11294     11304
 -1     10640    1    0    1
 -2      1473      1463     11294     11304      1474      1464     11295     11305
 -1     10641    1    0    1
 -2      1474      1464     11295     11305      1475      1465     11296     11306
 -1     10642    1    0    1
 -2      1475      1465     11296     11306      1476      1466     11297     11307
 -1     10643    1    0    1
 -2      1476      1466     11297     11307      1477      1467     11298     11308
 -1     10644    1    0    1
 -2      1477      1467     11298     11308      1478      1468     11299     11309
 -1     10645    1    0    1
 -2      1478      1468     11299     11309      1479      1469     11300     11310
 -1     10646    1    0    1
 -2      1479      1469     11300     11310      1480      1470     11301     11311
 -1     10647    1    0    1
 -2      1480      1470     11301     11311      1481      1471     11302     11312
 -1     10648    1    0    1
 -2      1481      1471     11302     11312       160       159      3099      3100
 -1     10649    1    0    1
 -2        45        44      1099      1100      1482      1472     11303     11313
 -1     10650    1    0    1
 -2      1482      1472     11303     11313      1483      1473     11304     11314
 -1     10651    1    0    1
 -2      1483      1473     11304     11314      1484      1474     11305     11315
 -1     10652    1    0    1
 -2      1484      1474     11305     11315      1485      1475     11306     11316
 -1     10653    1    0    1
 -2      1485      1475     11306     11316      1486      1476     11307     11317
 -1     10654    1    0    1
 -2      1486      1476     11307     11317      1487      1477     11308     11318
 -1     10655    1    0    1
 -2      1487      1477     11308     11318      1488      1478     11309     11319
 -1     10656    1    0    1
 -2      1488      1478     11309     11319      1489      1479     11310     11320
 -1     10657    1    0    1
 -2      1489      1479     11310     11320      1490      1480     11311     11321
 -1     10658    1    0    1
 -2      1490      1480     11311     11321      1491      1481     11312     11322
 -1     10659    1    0    1
 -2      1491      1481     11312     11322       161       160      3100      3101
 -1     10660    1    0    1
 -2        46        45      1100      1101      1492      1482     11313     11323
 -1     10661    1    0    1
 -2      1492      1482     11313     11323      1493      1483     11314     11324
 -1     10662    1    0    1
 -2      1493      1483     11314     11324      1494      1484     11315     11325
 -1     10663    1    0    1
 -2      1494      1484     11315     11325      1495      1485     11316     11326
 -1     10664    1    0    1
 -2      1495      1485     11316     11326      1496      1486     11317     11327
 -1     10665    1    0    1
 -2      1496      1486     11317     11327      1497      1487     11318     11328
 -1     10666    1    0    1
 -2      1497      1487     11318     11328      1498      1488     11319     11329
 -1     10667    1    0    1
 -2      1498      1488     11319     11329      1499      1489     11320     11330
 -1     10668    1    0    1
 -2      1499      1489     11320     11330      1500      1490     11321     11331
 -1     10669    1    0    1
 -2      1500      1490     11321     11331      1501      1491     11322     11332
 -1     10670    1    0    1
 -2      1501      1491     11322     11332       162       161      3101      3102
 -1     10671    1    0    1
 -2        47        46      1101      1102      1502      1492     11323     11333
 -1     10672    1    0    1
 -2      1502      1492     11323     11333      1503      1493     11324     11334
 -1     10673    1    0    1
 -2      1503      1493     11324     11334      1504      1494     11325     11335
 -1     10674    1    0    1
 -2      1504      1494     11325     11335      1505      1495     11326     11336
 -1     10675    1    0    1
 -2      1505      1495     11326     11336      1506      1496     11327     11337
 -1     10676    1    0    1
 -2      1506      1496     11327     11337      1507      1497     11328     11338
 -1     10677    1    0    1
 -2      1507      1497     11328     11338      1508      1498     11329     11339
 -1     10678    1    0    1
 -2      1508      1498     11329     11339      1509      1499     11330     11340
 -1     10679    1    0    1
 -2      1509      1499     11330     11340      1510      1500     11331     11341
 -1     10680    1    0    1
 -2      1510      1500     11331     11341      1511      1501     11332     11342
 -1     10681    1    0    1
 -2      1511      1501     11332     11342       163       162      3102      3103
 -1     10682    1    0    1
 -2        48        47      1102      1103      1512      1502     11333     11343
 -1     10683    1    0    1
 -2      1512      1502     11333     11343      1513      1503     11334     11344
 -1     10684    1    0    1
 -2      1513      1503     11334     11344      1514      1504     11335     11345
 -1     10685    1    0    1
 -2      1514      1504     11335     11345      1515      1505     11336     11346
 -1     10686    1    0    1
 -2      1515      1505     11336     11346      1516      1506     11337     11347
 -1     10687    1    0    1
 -2      1516      1506     11337     11347      1517      1507     11338     11348
 -1     10688    1    0    1
 -2      1517      1507     11338     11348      1518      1508     11339     11349
 -1     10689    1    0    1
 -2      1518      1508     11339     11349      1519      1509     11340     11350
 -1     10690    1    0    1
 -2      1519      1509     11340     11350      1520      1510     11341     11351
 -1     10691    1    0    1
 -2      1520      1510     11341     11351      1521      1511     11342     11352
 -1     10692    1    0    1
 -2      1521      1511     11342     11352       164       163      3103      3104
 -1     10693    1    0    1
 -2        49        48      1103      1104      1522      1512     11343     11353
 -1     10694    1    0    1
 -2      1522      1512     11343     11353      1523      1513     11344     11354
 -1     10695    1    0    1
 -2      1523      1513     11344     11354      1524      1514     11345     11355
 -1     10696    1    0    1
 -2      1524      1514     11345     11355      1525      1515     11346     11356
 -1     10697    1    0    1
 -2      1525      1515     11346     11356      1526      1516     11347     11357
 -1     10698    1    0    1
 -2      1526      1516     11347     11357      1527      1517     11348     11358
 -1     10699    1    0    1
 -2      1527      1517     11348     11358      1528      1518     11349     11359
 -1     10700    1    0    1
 -2      1528      1518     11349     11359      1529      1519     11350     11360
 -1     10701    1    0    1
 -2      1529      1519     11350     11360      1530      1520     11351     11361
 -1     10702    1    0    1
 -2      1530      1520     11351     11361      1531      1521     11352     11362
 -1     10703    1    0    1
 -2      1531      1521     11352     11362       165       164      3104      3105
 -1     10704    1    0    1
 -2        50        49      1104      1105      1532      1522     11353     11363
 -1     10705    1    0    1
 -2      1532      1522     11353     11363      1533      1523     11354     11364
 -1     10706    1    0    1
 -2      1533      1523     11354     11364      1534      1524     11355     11365
 -1     10707    1    0    1
 -2      1534      1524     11355     11365      1535      1525     11356     11366
 -1     10708    1    0    1
 -2      1535      1525     11356     11366      1536      1526     11357     11367
 -1     10709    1    0    1
 -2      1536      1526     11357     11367      1537      1527     11358     11368
 -1     10710    1    0    1
 -2      1537      1527     11358     11368      1538      1528     11359     11369
 -1     10711    1    0    1
 -2      1538      1528     11359     11369      1539      1529     11360     11370
 -1     10712    1    0    1
 -2      1539      1529     11360     11370      1540      1530     11361     11371
 -1     10713    1    0    1
 -2      1540      1530     11361     11371      1541      1531     11362     11372
 -1     10714    1    0    1
 -2      1541      1531     11362     11372       166       165      3105      3106
 -1     10715    1    0    1
 -2        51        50      1105      1106      1542      1532     11363     11373
 -1     10716    1    0    1
 -2      1542      1532     11363     11373      1543      1533     11364     11374
 -1     10717    1    0    1
 -2      1543      1533     11364     11374      1544      1534     11365     11375
 -1     10718    1    0    1
 -2      1544      1534     11365     11375      1545      1535     11366     11376
 -1     10719    1    0    1
 -2      1545      1535     11366     11376      1546      1536     11367     11377
 -1     10720    1    0    1
 -2      1546      1536     11367     11377      1547      1537     11368     11378
 -1     10721    1    0    1
 -2      1547      1537     11368     11378      1548      1538     11369     11379
 -1     10722    1    0    1
 -2      1548      1538     11369     11379      1549      1539     11370     11380
 -1     10723    1    0    1
 -2      1549      1539     11370     11380      1550      1540     11371     11381
 -1     10724    1    0    1
 -2      1550      1540     11371     11381      1551      1541     11372     11382
 -1     10725    1    0    1
 -2      1551      1541     11372     11382       167       166      3106      3107
 -1     10726    1    0    1
 -2        52        51      1106      1107      1552      1542     11373     11383
 -1     10727    1    0    1
 -2      1552      1542     11373     11383      1553      1543     11374     11384
 -1     10728    1    0    1
 -2      1553      1543     11374     11384      1554      1544     11375     11385
 -1     10729    1    0    1
 -2      1554      1544     11375     11385      1555      1545     11376     11386
 -1     10730    1    0    1
 -2      1555      1545     11376     11386      1556      1546     11377     11387
 -1     10731    1    0    1
 -2      1556      1546     11377     11387      1557      1547     11378     11388
 -1     10732    1    0    1
 -2      1557      1547     11378     11388      1558      1548     11379     11389
 -1     10733    1    0    1
 -2      1558      1548     11379     11389      1559      1549     11380     11390
 -1     10734    1    0    1
 -2      1559      1549     11380     11390      1560      1550     11381     11391
 -1     10735    1    0    1
 -2      1560      1550     11381     11391      1561      1551     11382     11392
 -1     10736    1    0    1
 -2      1561      1551     11382     11392       168       167      3107      3108
 -1     10737    1    0    1
 -2        53        52      1107      1108      1562      1552     11383     11393
 -1     10738    1    0    1
 -2      1562      1552     11383     11393      1563      1553     11384     11394
 -1     10739    1    0    1
 -2      1563      1553     11384     11394      1564      1554     11385     11395
 -1     10740    1    0    1
 -2      1564      1554     11385     11395      1565      1555     11386     11396
 -1     10741    1    0    1
 -2      1565      1555     11386     11396      1566      1556     11387     11397
 -1     10742    1    0    1
 -2      1566      1556     11387     11397      1567      1557     11388     11398
 -1     10743    1    0    1
 -2      1567      1557     11388     11398      1568      1558     11389     11399
 -1     10744    1    0    1
 -2      1568      1558     11389     11399      1569      1559     11390     11400
 -1     10745    1    0    1
 -2      1569      1559     11390     11400      1570      1560     11391     11401
 -1     10746    1    0    1
 -2      1570      1560     11391     11401      1571      1561     11392     11402
 -1     10747    1    0    1
 -2      1571      1561     11392     11402       169       168      3108      3109
 -1     10748    1    0    1
 -2        54        53      1108      1109      1572      1562     11393     11403
 -1     10749    1    0    1
 -2      1572      1562     11393     11403      1573      1563     11394     11404
 -1     10750    1    0    1
 -2      1573      1563     11394     11404      1574      1564     11395     11405
 -1     10751    1    0    1
 -2      1574      1564     11395     11405      1575      1565     11396     11406
 -1     10752    1    0    1
 -2      1575      1565     11396     11406      1576      1566     11397     11407
 -1     10753    1    0    1
 -2      1576      1566     11397     11407      1577      1567     11398     11408
 -1     10754    1    0    1
 -2      1577      1567     11398     11408      1578      1568     11399     11409
 -1     10755    1    0    1
 -2      1578      1568     11399     11409      1579      1569     11400     11410
 -1     10756    1    0    1
 -2      1579      1569     11400     11410      1580      1570     11401     11411
 -1     10757    1    0    1
 -2      1580      1570     11401     11411      1581      1571     11402     11412
 -1     10758    1    0    1
 -2      1581      1571     11402     11412       170       169      3109      3110
 -1     10759    1    0    1
 -2        55        54      1109      1110      1582      1572     11403     11413
 -1     10760    1    0    1
 -2      1582      1572     11403     11413      1583      1573     11404     11414
 -1     10761    1    0    1
 -2      1583      1573     11404     11414      1584      1574     11405     11415
 -1     10762    1    0    1
 -2      1584      1574     11405     11415      1585      1575     11406     11416
 -1     10763    1    0    1
 -2      1585      1575     11406     11416      1586      1576     11407     11417
 -1     10764    1    0    1
 -2      1586      1576     11407     11417      1587      1577     11408     11418
 -1     10765    1    0    1
 -2      1587      1577     11408     11418      1588      1578     11409     11419
 -1     10766    1    0    1
 -2      1588      1578     11409     11419      1589      1579     11410     11420
 -1     10767    1    0    1
 -2      1589      1579     11410     11420      1590      1580     11411     11421
 -1     10768    1    0    1
 -2      1590      1580     11411     11421      1591      1581     11412     11422
 -1     10769    1    0    1
 -2      1591      1581     11412     11422       171       170      3110      3111
 -1     10770    1    0    1
 -2        56        55      1110      1111      1592      1582     11413     11423
 -1     10771    1    0    1
 -2      1592      1582     11413     11423      1593      1583     11414     11424
 -1     10772    1    0    1
 -2      1593      1583     11414     11424      1594      1584     11415     11425
 -1     10773    1    0    1
 -2      1594      1584     11415     11425      1595      1585     11416     11426
 -1     10774    1    0    1
 -2      1595      1585     11416     11426      1596      1586     11417     11427
 -1     10775    1    0    1
 -2      1596      1586     11417     11427      1597      1587     11418     11428
 -1     10776    1    0    1
 -2      1597      1587     11418     11428      1598      1588     11419     11429
 -1     10777    1    0    1
 -2      1598      1588     11419     11429      1599      1589     11420     11430
 -1     10778    1    0    1
 -2      1599      1589     11420     11430      1600      1590     11421     11431
 -1     10779    1    0    1
 -2      1600      1590     11421     11431      1601      1591     11422     11432
 -1     10780    1    0    1
 -2      1601      1591     11422     11432       172       171      3111      3112
 -1     10781    1    0    1
 -2        57        56      1111      1112      1602      1592     11423     11433
 -1     10782    1    0    1
 -2      1602      1592     11423     11433      1603      1593     11424     11434
 -1     10783    1    0    1
 -2      1603      1593     11424     11434      1604      1594     11425     11435
 -1     10784    1    0    1
 -2      1604      1594     11425     11435      1605      1595     11426     11436
 -1     10785    1    0    1
 -2      1605      1595     11426     11436      1606      1596     11427     11437
 -1     10786    1    0    1
 -2      1606      1596     11427     11437      1607      1597     11428     11438
 -1     10787    1    0    1
 -2      1607      1597     11428     11438      1608      1598     11429     11439
 -1     10788    1    0    1
 -2      1608      1598     11429     11439      1609      1599     11430     11440
 -1     10789    1    0    1
 -2      1609      1599     11430     11440      1610      1600     11431     11441
 -1     10790    1    0    1
 -2      1610      1600     11431     11441      1611      1601     11432     11442
 -1     10791    1    0    1
 -2      1611      1601     11432     11442       173       172      3112      3113
 -1     10792    1    0    1
 -2        58        57      1112      1113      1612      1602     11433     11443
 -1     10793    1    0    1
 -2      1612      1602     11433     11443      1613      1603     11434     11444
 -1     10794    1    0    1
 -2      1613      1603     11434     11444      1614      1604     11435     11445
 -1     10795    1    0    1
 -2      1614      1604     11435     11445      1615      1605     11436     11446
 -1     10796    1    0    1
 -2      1615      1605     11436     11446      1616      1606     11437     11447
 -1     10797    1    0    1
 -2      1616      1606     11437     11447      1617      1607     11438     11448
 -1     10798    1    0    1
 -2      1617      1607     11438     11448      1618      1608     11439     11449
 -1     10799    1    0    1
 -2      1618      1608     11439     11449      1619      1609     11440     11450
 -1     10800    1    0    1
 -2      1619      1609     11440     11450      1620      1610     11441     11451
 -1     10801    1    0    1
 -2      1620      1610     11441     11451      1621      1611     11442     11452
 -1     10802    1    0    1
 -2      1621      1611     11442     11452       174       173      3113      3114
 -1     10803    1    0    1
 -2        59        58      1113      1114      1622      1612     11443     11453
 -1     10804    1    0    1
 -2      1622      1612     11443     11453      1623      1613     11444     11454
 -1     10805    1    0    1
 -2      1623      1613     11444     11454      1624      1614     11445     11455
 -1     10806    1    0    1
 -2      1624      1614     11445     11455      1625      1615     11446     11456
 -1     10807    1    0    1
 -2      1625      1615     11446     11456      1626      1616     11447     11457
 -1     10808    1    0    1
 -2      1626      1616     11447     11457      1627      1617     11448     11458
 -1     10809    1    0    1
 -2      1627      1617     11448     11458      1628      1618     11449     11459
 -1     10810    1    0    1
 -2      1628      1618     11449     11459      1629      1619     11450     11460
 -1     10811    1    0    1
 -2      1629      1619     11450     11460      1630      1620     11451     11461
 -1     10812    1    0    1
 -2      1630      1620     11451     11461      1631      1621     11452     11462
 -1     10813    1    0    1
 -2      1631      1621     11452     11462       175       174      3114      3115
 -1     10814    1    0    1
 -2        60        59      1114      1115      1632      1622     11453     11463
 -1     10815    1    0    1
 -2      1632      1622     11453     11463      1633      1623     11454     11464
 -1     10816    1    0    1
 -2      1633      1623     11454     11464      1634      1624     11455     11465
 -1     10817    1    0    1
 -2      1634      1624     11455     11465      1635      1625     11456     11466
 -1     10818    1    0    1
 -2      1635      1625     11456     11466      1636      1626     11457     11467
 -1     10819    1    0    1
 -2      1636      1626     11457     11467      1637      1627     11458     11468
 -1     10820    1    0    1
 -2      1637      1627     11458     11468      1638      1628     11459     11469
 -1     10821    1    0    1
 -2      1638      1628     11459     11469      1639      1629     11460     11470
 -1     10822    1    0    1
 -2      1639      1629     11460     11470      1640      1630     11461     11471
 -1     10823    1    0    1
 -2      1640      1630     11461     11471      1641      1631     11462     11472
 -1     10824    1    0    1
 -2      1641      1631     11462     11472       176       175      3115      3116
 -1     10825    1    0    1
 -2        61        60      1115      1116      1642      1632     11463     11473
 -1     10826    1    0    1
 -2      1642      1632     11463     11473      1643      1633     11464     11474
 -1     10827    1    0    1
 -2      1643      1633     11464     11474      1644      1634     11465     11475
 -1     10828    1    0    1
 -2      1644      1634     11465     11475      1645      1635     11466     11476
 -1     10829    1    0    1
 -2      1645      1635     11466     11476      1646      1636     11467     11477
 -1     10830    1    0    1
 -2      1646      1636     11467     11477      1647      1637     11468     11478
 -1     10831    1    0    1
 -2      1647      1637     11468     11478      1648      1638     11469     11479
 -1     10832    1    0    1
 -2      1648      1638     11469     11479      1649      1639     11470     11480
 -1     10833    1    0    1
 -2      1649      1639     11470     11480      1650      1640     11471     11481
 -1     10834    1    0    1
 -2      1650      1640     11471     11481      1651      1641     11472     11482
 -1     10835    1    0    1
 -2      1651      1641     11472     11482       177       176      3116      3117
 -1     10836    1    0    1
 -2        62        61      1116      1117      1652      1642     11473     11483
 -1     10837    1    0    1
 -2      1652      1642     11473     11483      1653      1643     11474     11484
 -1     10838    1    0    1
 -2      1653      1643     11474     11484      1654      1644     11475     11485
 -1     10839    1    0    1
 -2      1654      1644     11475     11485      1655      1645     11476     11486
 -1     10840    1    0    1
 -2      1655      1645     11476     11486      1656      1646     11477     11487
 -1     10841    1    0    1
 -2      1656      1646     11477     11487      1657      1647     11478     11488
 -1     10842    1    0    1
 -2      1657      1647     11478     11488      1658      1648     11479     11489
 -1     10843    1    0    1
 -2      1658      1648     11479     11489      1659      1649     11480     11490
 -1     10844    1    0    1
 -2      1659      1649     11480     11490      1660      1650     11481     11491
 -1     10845    1    0    1
 -2      1660      1650     11481     11491      1661      1651     11482     11492
 -1     10846    1    0    1
 -2      1661      1651     11482     11492       178       177      3117      3118
 -1     10847    1    0    1
 -2        63        62      1117      1118      1662      1652     11483     11493
 -1     10848    1    0    1
 -2      1662      1652     11483     11493      1663      1653     11484     11494
 -1     10849    1    0    1
 -2      1663      1653     11484     11494      1664      1654     11485     11495
 -1     10850    1    0    1
 -2      1664      1654     11485     11495      1665      1655     11486     11496
 -1     10851    1    0    1
 -2      1665      1655     11486     11496      1666      1656     11487     11497
 -1     10852    1    0    1
 -2      1666      1656     11487     11497      1667      1657     11488     11498
 -1     10853    1    0    1
 -2      1667      1657     11488     11498      1668      1658     11489     11499
 -1     10854    1    0    1
 -2      1668      1658     11489     11499      1669      1659     11490     11500
 -1     10855    1    0    1
 -2      1669      1659     11490     11500      1670      1660     11491     11501
 -1     10856    1    0    1
 -2      1670      1660     11491     11501      1671      1661     11492     11502
 -1     10857    1    0    1
 -2      1671      1661     11492     11502       179       178      3118      3119
 -1     10858    1    0    1
 -2        64        63      1118      1119      1672      1662     11493     11503
 -1     10859    1    0    1
 -2      1672      1662     11493     11503      1673      1663     11494     11504
 -1     10860    1    0    1
 -2      1673      1663     11494     11504      1674      1664     11495     11505
 -1     10861    1    0    1
 -2      1674      1664     11495     11505      1675      1665     11496     11506
 -1     10862    1    0    1
 -2      1675      1665     11496     11506      1676      1666     11497     11507
 -1     10863    1    0    1
 -2      1676      1666     11497     11507      1677      1667     11498     11508
 -1     10864    1    0    1
 -2      1677      1667     11498     11508      1678      1668     11499     11509
 -1     10865    1    0    1
 -2      1678      1668     11499     11509      1679      1669     11500     11510
 -1     10866    1    0    1
 -2      1679      1669     11500     11510      1680      1670     11501     11511
 -1     10867    1    0    1
 -2      1680      1670     11501     11511      1681      1671     11502     11512
 -1     10868    1    0    1
 -2      1681      1671     11502     11512       180       179      3119      3120
 -1     10869    1    0    1
 -2        65        64      1119      1120      1682      1672     11503     11513
 -1     10870    1    0    1
 -2      1682      1672     11503     11513      1683      1673     11504     11514
 -1     10871    1    0    1
 -2      1683      1673     11504     11514      1684      1674     11505     11515
 -1     10872    1    0    1
 -2      1684      1674     11505     11515      1685      1675     11506     11516
 -1     10873    1    0    1
 -2      1685      1675     11506     11516      1686      1676     11507     11517
 -1     10874    1    0    1
 -2      1686      1676     11507     11517      1687      1677     11508     11518
 -1     10875    1    0    1
 -2      1687      1677     11508     11518      1688      1678     11509     11519
 -1     10876    1    0    1
 -2      1688      1678     11509     11519      1689      1679     11510     11520
 -1     10877    1    0    1
 -2      1689      1679     11510     11520      1690      1680     11511     11521
 -1     10878    1    0    1
 -2      1690      1680     11511     11521      1691      1681     11512     11522
 -1     10879    1    0    1
 -2      1691      1681     11512     11522       181       180      3120      3121
 -1     10880    1    0    1
 -2        66        65      1120      1121      1692      1682     11513     11523
 -1     10881    1    0    1
 -2      1692      1682     11513     11523      1693      1683     11514     11524
 -1     10882    1    0    1
 -2      1693      1683     11514     11524      1694      1684     11515     11525
 -1     10883    1    0    1
 -2      1694      1684     11515     11525      1695      1685     11516     11526
 -1     10884    1    0    1
 -2      1695      1685     11516     11526      1696      1686     11517     11527
 -1     10885    1    0    1
 -2      1696      1686     11517     11527      1697      1687     11518     11528
 -1     10886    1    0    1
 -2      1697      1687     11518     11528      1698      1688     11519     11529
 -1     10887    1    0    1
 -2      1698      1688     11519     11529      1699      1689     11520     11530
 -1     10888    1    0    1
 -2      1699      1689     11520     11530      1700      1690     11521     11531
 -1     10889    1    0    1
 -2      1700      1690     11521     11531      1701      1691     11522     11532
 -1     10890    1    0    1
 -2      1701      1691     11522     11532       182       181      3121      3122
 -1     10891    1    0    1
 -2         3        66      1121        67       261      1692     11523      1702
 -1     10892    1    0    1
 -2       261      1692     11523      1702       262      1693     11524      1703
 -1     10893    1    0    1
 -2       262      1693     11524      1703       263      1694     11525      1704
 -1     10894    1    0    1
 -2       263      1694     11525      1704       264      1695     11526      1705
 -1     10895    1    0    1
 -2       264      1695     11526      1705       265      1696     11527      1706
 -1     10896    1    0    1
 -2       265      1696     11527      1706       266      1697     11528      1707
 -1     10897    1    0    1
 -2       266      1697     11528      1707       267      1698     11529      1708
 -1     10898    1    0    1
 -2       267      1698     11529      1708       268      1699     11530      1709
 -1     10899    1    0    1
 -2       268      1699     11530      1709       269      1700     11531      1710
 -1     10900    1    0    1
 -2       269      1700     11531      1710       270      1701     11532      1711
 -1     10901    1    0    1
 -2       270      1701     11532      1711         7       182      3122       183
 -3
    1PSTEP                         1           1           1          
  100CL  101 1.000000000       11532                     0    1           1
 -4  DISP        4    1
 -5  D1          1    2    1    0
 -5  D2          1    2    2    0
 -5  D3          1    2    3    0
 -5  ALL         1    2    0    0    1ALL
 -1         1 0.00000E+00 0.00000E+00 0.00000E+00
 -1         2 0.00000E+00 0.00000E+00 0.00000E+00
 -1         3 6.46221E-02-5.26394E-02 4.04094E-06
 -1         4-7.94433E-03-1.01919E-01-8.53174E-03
 -1         5 0.00000E+00 0.00000E+00 0.00000E+00
 -1         6 0.00000E+00 0.00000E+00 0.00000E+00
 -1         7 6.46221E-02-5.26394E-02-4.04094E-06
 -1         8-7.94433E-03-1.01919E-01 8.53174E-03
 -1         9 0.00000E+00 0.00000E+00 0.00000E+00
 -1        10 0.00000E+00 0.00000E+00 0.00000E+00
 -1        11 0.00000E+00 0.00000E+00 0.00000E+00
 -1        12 0.00000E+00 0.00000E+00 0.00000E+00
 -1        13 0.00000E+00 0.00000E+00 0.00000E+00
 -1        14 0.00000E+00 0.00000E+00 0.00000E+00
 -1        15 0.00000E+00 0.00000E+00 0.00000E+00
 -1        16 0.00000E+00 0.00000E+00 0.00000E+00
 -1        17 0.00000E+00 0.00000E+00 0.00000E+00
 -1        18 0.00000E+00 0.00000E+00 0.00000E+00
 -1        19 0.00000E+00 0.00000E+00 0.00000E+00
 -1        20 0.00000E+00 0.00000E+00 0.00000E+00
 -1        21 0.00000E+00 0.00000E+00 0.00000E+00
 -1        22 0.00000E+00 0.00000E+00 0.00000E+00
 -1        23 0.00000E+00 0.00000E+00 0.00000E+00
 -1        24 0.00000E+00 0.00000E+00 0.00000E+00
 -1        25 0.00000E+00 0.00000E+00 0.00000E+00
 -1        26 0.00000E+00 0.00000E+00 0.00000E+00
 -1        27 0.00000E+00 0.00000E+00 0.00000E+00
 -1        28 0.00000E+00 0.00000E+00 0.00000E+00
 -1        29 0.00000E+00 0.00000E+00 0.00000E+00
 -1        30 0.00000E+00 0.00000E+00 0.00000E+00
 -1        31 0.00000E+00 0.00000E+00 0.00000E+00
 -1        32 0.00000E+00 0.00000E+00 0.00000E+00
 -1        33 0.00000E+00 0.00000E+00 0.00000E+00
 -1        34 0.00000E+00 0.00000E+00 0.00000E+00
 -1        35 0.00000E+00 0.00000E+00 0.00000E+00
 -1        36 0.00000E+00 0.00000E+00 0.00000E+00
 -1        37 0.00000E+00 0.00000E+00 0.00000E+00
 -1        38 1.44982E-03 2.01304E-03-6.78181E-04
 -1        39 2.64633E-03 3.36109E-03-5.59413E-04
 -1        40 3.97567E-03 4.66472E-03-5.22739E-04
 -1        41 5.48694E-03 5.84380E-03-5.04876E-04
 -1        42 7.22841E-03 6.87844E-03-4.99885E-04
 -1        43 9.21443E-03 7.74546E-03-4.94860E-04
 -1        44 1.14458E-02 8.41722E-03-4.88465E-04
 -1        45 1.39131E-02 8.86428E-03-4.80211E-04
 -1        46 1.65995E-02 9.05772E-03-4.69926E-04
 -1        47 1.94822E-02 8.97075E-03-4.57428E-04
 -1        48 2.25335E-02 8.57955E-03-4.42604E-04
 -1        49 2.57213E-02 7.86392E-03-4.25383E-04
 -1        50 2.90100E-02 6.80780E-03-4.05720E-04
 -1        51 3.23609E-02 5.39986E-03-3.83593E-04
 -1        52 3.57331E-02 3.63389E-03-3.59010E-04
 -1        53 3.90839E-02 1.50929E-03-3.32022E-04
 -1        54 4.23698E-02-9.68509E-04-3.02738E-04
 -1        55 4.55470E-02-3.78769E-03-2.71356E-04
 -1        56 4.85730E-02-6.92982E-03-2.38184E-04
 -1        57 5.14074E-02-1.03697E-02-2.03676E-04
 -1        58 5.40132E-02-1.40758E-02-1.68457E-04
 -1        59 5.63587E-02-1.80102E-02-1.33357E-04
 -1        60 5.84185E-02-2.21304E-02-9.94212E-05
 -1        61 6.01756E-02-2.63901E-02-6.79205E-05
 -1        62 6.16224E-02-3.07421E-02-4.03297E-05
 -1        63 6.27619E-02-3.51410E-02-1.82758E-05
 -1        64 6.36076E-02-3.95477E-02-3.37343E-06
 -1        65 6.41822E-02-4.39344E-02 3.32149E-06
 -1        66 6.45136E-02-4.82926E-02 3.62480E-06
 -1        67 6.27753E-02-5.26388E-02 3.52455E-06
 -1        68 6.09269E-02-5.26363E-02 4.02032E-06
 -1        69 5.90816E-02-5.26318E-02 4.75101E-06
 -1        70 5.72434E-02-5.26264E-02 4.71932E-06
 -1        71 5.54158E-02-5.26219E-02 3.11747E-06
 -1        72 5.36015E-02-5.26207E-02-6.67874E-07
 -1        73 5.18028E-02-5.26255E-02-7.11658E-06
 -1        74 5.00210E-02-5.26398E-02-1.66353E-05
 -1        75 4.82571E-02-5.26674E-02-2.96062E-05
 -1        76 4.65117E-02-5.27123E-02-4.64248E-05
 -1        77 4.47848E-02-5.27793E-02-6.75309E-05
 -1        78 4.30757E-02-5.28737E-02-9.34369E-05
 -1        79 4.13834E-02-5.30014E-02-1.24759E-04
 -1        80 3.97062E-02-5.31691E-02-1.62252E-04
 -1        81 3.80418E-02-5.33844E-02-2.06867E-04
 -1        82 3.63870E-02-5.36563E-02-2.59819E-04
 -1        83 3.47377E-02-5.39953E-02-3.22703E-04
 -1        84 3.30889E-02-5.44139E-02-3.97680E-04
 -1        85 3.14339E-02-5.49273E-02-4.87763E-04
 -1        86 2.97646E-02-5.55545E-02-5.97285E-04
 -1        87 2.80705E-02-5.63192E-02-7.32611E-04
 -1        88 2.63385E-02-5.72522E-02-9.03167E-04
 -1        89 2.45512E-02-5.83942E-02-1.12281E-03
 -1        90 2.26850E-02-5.98014E-02-1.41133E-03
 -1        91 2.07057E-02-6.15570E-02-1.79634E-03
 -1        92 1.85539E-02-6.37945E-02-2.31490E-03
 -1        93 1.61449E-02-6.67965E-02-3.01704E-03
 -1        94 1.31431E-02-7.10898E-02-4.07799E-03
 -1        95 9.04550E-03-7.88337E-02-5.01160E-03
 -1        96-3.82892E-03-6.85339E-02-9.02405E-04
 -1        97-1.45710E-03-6.06981E-02 1.41017E-03
 -1        98 1.41201E-04-5.50394E-02 1.86862E-03
 -1        99 1.25553E-03-5.10989E-02 1.88943E-03
 -1       100 2.03837E-03-4.78066E-02 1.75676E-03
 -1       101 2.59513E-03-4.49028E-02 1.59835E-03
 -1       102 2.97672E-03-4.22320E-02 1.46052E-03
 -1       103 3.21509E-03-3.97208E-02 1.35808E-03
 -1       104 3.33391E-03-3.73280E-02 1.29113E-03
 -1       105 3.35342E-03-3.50297E-02 1.25440E-03
 -1       106 3.29153E-03-3.28109E-02 1.24143E-03
 -1       107 3.16422E-03-3.06617E-02 1.24635E-03
 -1       108 2.98560E-03-2.85749E-02 1.26436E-03
 -1       109 2.76821E-03-2.65454E-02 1.29175E-03
 -1       110 2.52321E-03-2.45688E-02 1.32563E-03
 -1       111 2.26067E-03-2.26418E-02 1.36375E-03
 -1       112 1.98979E-03-2.07614E-02 1.40430E-03
 -1       113 1.71905E-03-1.89252E-02 1.44577E-03
 -1       114 1.45638E-03-1.71309E-02 1.48686E-03
 -1       115 1.20916E-03-1.53764E-02 1.52643E-03
 -1       116 9.84253E-04-1.36601E-02 1.56339E-03
 -1       117 7.87933E-04-1.19813E-02 1.59661E-03
 -1       118 6.25736E-04-1.03403E-02 1.62446E-03
 -1       119 5.02287E-04-8.74013E-03 1.64390E-03
 -1       120 4.21094E-04-7.18683E-03 1.64866E-03
 -1       121 3.83554E-04-5.69095E-03 1.62506E-03
 -1       122 3.88804E-04-4.26521E-03 1.54896E-03
 -1       123 4.14702E-04-2.92106E-03 1.36066E-03
 -1       124 4.64567E-04-1.61021E-03 1.01780E-03
 -1       125 0.00000E+00 0.00000E+00 0.00000E+00
 -1       126 0.00000E+00 0.00000E+00 0.00000E+00
 -1       127 0.00000E+00 0.00000E+00 0.00000E+00
 -1       128 0.00000E+00 0.00000E+00 0.00000E+00
 -1       129 0.00000E+00 0.00000E+00 0.00000E+00
 -1       130 0.00000E+00 0.00000E+00 0.00000E+00
 -1       131 0.00000E+00 0.00000E+00 0.00000E+00
 -1       132 0.00000E+00 0.00000E+00 0.00000E+00
 -1       133 0.00000E+00 0.00000E+00 0.00000E+00
 -1       134 0.00000E+00 0.00000E+00 0.00000E+00
 -1       135 0.00000E+00 0.00000E+00 0.00000E+00
 -1       136 0.00000E+00 0.00000E+00 0.00000E+00
 -1       137 0.00000E+00 0.00000E+00 0.00000E+00
 -1       138 0.00000E+00 0.00000E+00 0.00000E+00
 -1       139 0.00000E+00 0.00000E+00 0.00000E+00
 -1       140 0.00000E+00 0.00000E+00 0.00000E+00
 -1       141 0.00000E+00 0.00000E+00 0.00000E+00
 -1       142 0.00000E+00 0.00000E+00 0.00000E+00
 -1       143 0.00000E+00 0.00000E+00 0.00000E+00
 -1       144 0.00000E+00 0.00000E+00 0.00000E+00
 -1       145 0.00000E+00 0.00000E+00 0.00000E+00
 -1       146 0.00000E+00 0.00000E+00 0.00000E+00
 -1       147 0.00000E+00 0.00000E+00 0.00000E+00
 -1       148 0.00000E+00 0.00000E+00 0.00000E+00
 -1       149 0.00000E+00 0.00000E+00 0.00000E+00
 -1       150 0.00000E+00 0.00000E+00 0.00000E+00
 -1       151 0.00000E+00 0.00000E+00 0.00000E+00
 -1       152 0.00000E+00 0.00000E+00 0.00000E+00
 -1       153 0.00000E+00 0.00000E+00 0.00000E+00
 -1       154 1.44982E-03 2.01304E-03 6.78181E-04
 -1       155 2.64633E-03 3.36109E-03 5.59413E-04
 -1       156 3.97567E-03 4.66472E-03 5.22739E-04
 -1       157 5.48694E-03 5.84380E-03 5.04876E-04
 -1       158 7.22841E-03 6.87844E-03 4.99885E-04
 -1       159 9.21443E-03 7.74546E-03 4.94860E-04
 -1       160 1.14458E-02 8.41722E-03 4.88465E-04
 -1       161 1.39131E-02 8.86428E-03 4.80211E-04
 -1       162 1.65995E-02 9.05772E-03 4.69926E-04
 -1       163 1.94822E-02 8.97075E-03 4.57428E-04
 -1       164 2.25335E-02 8.57955E-03 4.42604E-04
 -1       165 2.57213E-02 7.86392E-03 4.25383E-04
 -1       166 2.90100E-02 6.80780E-03 4.05720E-04
 -1       167 3.23609E-02 5.39986E-03 3.83593E-04
 -1       168 3.57331E-02 3.63389E-03 3.59010E-04
 -1       169 3.90839E-02 1.50929E-03 3.32022E-04
 -1       170 4.23698E-02-9.68509E-04 3.02738E-04
 -1       171 4.55470E-02-3.78769E-03 2.71356E-04
 -1       172 4.85730E-02-6.92982E-03 2.38184E-04
 -1       173 5.14074E-02-1.03697E-02 2.03676E-04
 -1       174 5.40132E-02-1.40758E-02 1.68457E-04
 -1       175 5.63587E-02-1.80102E-02 1.33357E-04
 -1       176 5.84185E-02-2.21304E-02 9.94212E-05
 -1       177 6.01756E-02-2.63901E-02 6.79205E-05
 -1       178 6.16224E-02-3.07421E-02 4.03297E-05
 -1       179 6.27619E-02-3.51410E-02 1.82758E-05
 -1       180 6.36076E-02-3.95477E-02 3.37343E-06
 -1       181 6.41822E-02-4.39344E-02-3.32149E-06
 -1       182 6.45136E-02-4.82926E-02-3.62480E-06
 -1       183 6.27753E-02-5.26388E-02-3.52455E-06
 -1       184 6.09269E-02-5.26363E-02-4.02032E-06
 -1       185 5.90816E-02-5.26318E-02-4.75101E-06
 -1       186 5.72434E-02-5.26264E-02-4.71932E-06
 -1       187 5.54158E-02-5.26219E-02-3.11747E-06
 -1       188 5.36015E-02-5.26207E-02 6.67874E-07
 -1       189 5.18028E-02-5.26255E-02 7.11658E-06
 -1       190 5.00210E-02-5.26398E-02 1.66353E-05
 -1       191 4.82571E-02-5.26674E-02 2.96062E-05
 -1       192 4.65117E-02-5.27123E-02 4.64248E-05
 -1       193 4.47848E-02-5.27793E-02 6.75309E-05
 -1       194 4.30757E-02-5.28737E-02 9.34369E-05
 -1       195 4.13834E-02-5.30014E-02 1.24759E-04
 -1       196 3.97062E-02-5.31691E-02 1.62252E-04
 -1       197 3.80418E-02-5.33844E-02 2.06867E-04
 -1       198 3.63870E-02-5.36563E-02 2.59819E-04
 -1       199 3.47377E-02-5.39953E-02 3.22703E-04
 -1       200 3.30889E-02-5.44139E-02 3.97680E-04
 -1       201 3.14339E-02-5.49273E-02 4.87763E-04
 -1       202 2.97646E-02-5.55545E-02 5.97285E-04
 -1       203 2.80705E-02-5.63192E-02 7.32611E-04
 -1       204 2.63385E-02-5.72522E-02 9.03167E-04
 -1       205 2.45512E-02-5.83942E-02 1.12281E-03
 -1       206 2.26850E-02-5.98014E-02 1.41133E-03
 -1       207 2.07057E-02-6.15570E-02 1.79634E-03
 -1       208 1.85539E-02-6.37945E-02 2.31490E-03
 -1       209 1.61449E-02-6.67965E-02 3.01704E-03
 -1       210 1.31431E-02-7.10898E-02 4.07799E-03
 -1       211 9.04550E-03-7.88337E-02 5.01160E-03
 -1       212-3.82892E-03-6.85339E-02 9.02405E-04
 -1       213-1.45710E-03-6.06981E-02-1.41017E-03
 -1       214 1.41201E-04-5.50394E-02-1.86862E-03
 -1       215 1.25553E-03-5.10989E-02-1.88943E-03
 -1       216 2.03837E-03-4.78066E-02-1.75676E-03
 -1       217 2.59513E-03-4.49028E-02-1.59835E-03
 -1       218 2.97672E-03-4.22320E-02-1.46052E-03
 -1       219 3.21509E-03-3.97208E-02-1.35808E-03
 -1       220 3.33391E-03-3.73280E-02-1.29113E-03
 -1       221 3.35342E-03-3.50297E-02-1.25440E-03
 -1       222 3.29153E-03-3.28109E-02-1.24143E-03
 -1       223 3.16422E-03-3.06617E-02-1.24635E-03
 -1       224 2.98560E-03-2.85749E-02-1.26436E-03
 -1       225 2.76821E-03-2.65454E-02-1.29175E-03
 -1       226 2.52321E-03-2.45688E-02-1.32563E-03
 -1       227 2.26067E-03-2.26418E-02-1.36375E-03
 -1       228 1.98979E-03-2.07614E-02-1.40430E-03
 -1       229 1.71905E-03-1.89252E-02-1.44577E-03
 -1       230 1.45638E-03-1.71309E-02-1.48686E-03
 -1       231 1.20916E-03-1.53764E-02-1.52643E-03
 -1       232 9.84253E-04-1.36601E-02-1.56339E-03
 -1       233 7.87933E-04-1.19813E-02-1.59661E-03
 -1       234 6.25736E-04-1.03403E-02-1.62446E-03
 -1       235 5.02287E-04-8.74013E-03-1.64390E-03
 -1       236 4.21094E-04-7.18683E-03-1.64866E-03
 -1       237 3.83554E-04-5.69095E-03-1.62506E-03
 -1       238 3.88804E-04-4.26521E-03-1.54896E-03
 -1       239 4.14702E-04-2.92106E-03-1.36066E-03
 -1       240 4.64567E-04-1.61021E-03-1.01780E-03
 -1       241 0.00000E+00 0.00000E+00 0.00000E+00
 -1       242 0.00000E+00 0.00000E+00 0.00000E+00
 -1       243 0.00000E+00 0.00000E+00 0.00000E+00
 -1       244 0.00000E+00 0.00000E+00 0.00000E+00
 -1       245 0.00000E+00 0.00000E+00 0.00000E+00
 -1       246 0.00000E+00 0.00000E+00 0.00000E+00
 -1       247 0.00000E+00 0.00000E+00 0.00000E+00
 -1       248 0.00000E+00 0.00000E+00 0.00000E+00
 -1       249 0.00000E+00 0.00000E+00 0.00000E+00
 -1       250 0.00000E+00 0.00000E+00 0.00000E+00
 -1       251 0.00000E+00 0.00000E+00 0.00000E+00
 -1       252 0.00000E+00 0.00000E+00 0.00000E+00
 -1       253 0.00000E+00 0.00000E+00 0.00000E+00
 -1       254 0.00000E+00 0.00000E+00 0.00000E+00
 -1       255 0.00000E+00 0.00000E+00 0.00000E+00
 -1       256 0.00000E+00 0.00000E+00 0.00000E+00
 -1       257 0.00000E+00 0.00000E+00 0.00000E+00
 -1       258 0.00000E+00 0.00000E+00 0.00000E+00
 -1       259 0.00000E+00 0.00000E+00 0.00000E+00
 -1       260 0.00000E+00 0.00000E+00 0.00000E+00
 -1       261 6.46225E-02-5.26390E-02 3.68232E-06
 -1       262 6.46232E-02-5.26385E-02 3.21446E-06
 -1       263 6.46238E-02-5.26380E-02 2.52170E-06
 -1       264 6.46242E-02-5.26375E-02 1.61224E-06
 -1       265 6.46245E-02-5.26373E-02 5.54735E-07
 -1       266 6.46245E-02-5.26373E-02-5.54735E-07
 -1       267 6.46242E-02-5.26375E-02-1.61224E-06
 -1       268 6.46238E-02-5.26380E-02-2.52170E-06
 -1       269 6.46232E-02-5.26385E-02-3.21446E-06
 -1       270 6.46225E-02-5.26390E-02-3.68232E-06
 -1       271-9.14454E-03-9.20039E-02-5.19073E-03
 -1       272-8.83114E-03-9.05896E-02-3.20911E-03
 -1       273-8.70411E-03-8.98396E-02-1.95042E-03
 -1       274-8.62757E-03-8.94780E-02-1.06536E-03
 -1       275-8.59376E-03-8.93220E-02-3.39897E-04
 -1       276-8.59376E-03-8.93220E-02 3.39897E-04
 -1       277-8.62757E-03-8.94780E-02 1.06536E-03
 -1       278-8.70411E-03-8.98396E-02 1.95042E-03
 -1       279-8.83114E-03-9.05896E-02 3.20911E-03
 -1       280-9.14454E-03-9.20039E-02 5.19073E-03
 -1       281 2.63164E-06-1.38658E-03 9.48889E-04
 -1       282 1.70276E-05-2.62709E-03 1.25521E-03
 -1       283 2.61092E-06-3.86766E-03 1.40011E-03
 -1       284 3.63164E-05-5.15964E-03 1.45478E-03
 -1       285 1.32461E-04-6.50697E-03 1.46837E-03
 -1       286 2.93767E-04-7.90972E-03 1.46074E-03
 -1       287 5.16579E-04-9.36522E-03 1.44242E-03
 -1       288 7.94859E-04-1.08721E-02 1.41797E-03
 -1       289 1.12137E-03-1.24303E-02 1.38941E-03
 -1       290 1.48816E-03-1.40412E-02 1.35774E-03
 -1       291 1.88681E-03-1.57066E-02 1.32368E-03
 -1       292 2.30856E-03-1.74284E-02 1.28795E-03
 -1       293 2.74439E-03-1.92086E-02 1.25135E-03
 -1       294 3.18504E-03-2.10493E-02 1.21481E-03
 -1       295 3.62110E-03-2.29521E-02 1.17936E-03
 -1       296 4.04295E-03-2.49190E-02 1.14621E-03
 -1       297 4.44084E-03-2.69520E-02 1.11676E-03
 -1       298 4.80492E-03-2.90537E-02 1.09267E-03
 -1       299 5.12549E-03-3.12274E-02 1.07593E-03
 -1       300 5.39348E-03-3.34782E-02 1.06872E-03
 -1       301 5.60146E-03-3.58139E-02 1.07310E-03
 -1       302 5.74560E-03-3.82473E-02 1.08986E-03
 -1       303 5.82912E-03-4.08007E-02 1.11591E-03
 -1       304 5.86822E-03-4.35146E-02 1.13859E-03
 -1       305 5.90294E-03-4.64666E-02 1.12496E-03
 -1       306 6.01538E-03-4.98038E-02 9.98104E-04
 -1       307 6.38241E-03-5.38734E-02 6.09006E-04
 -1       308 7.26338E-03-5.92663E-02-3.96543E-04
 -1       309 9.39512E-03-6.85787E-02-2.09576E-03
 -1       310-2.02521E-04-1.26341E-03 9.11035E-04
 -1       311-2.61275E-04-2.33569E-03 1.17588E-03
 -1       312-2.47866E-04-3.46283E-03 1.29327E-03
 -1       313-1.69443E-04-4.64419E-03 1.32766E-03
 -1       314-1.27567E-05-5.87700E-03 1.33042E-03
 -1       315 2.23525E-04-7.16221E-03 1.31853E-03
 -1       316 5.35778E-04-8.50134E-03 1.30004E-03
 -1       317 9.17138E-04-9.89700E-03 1.27773E-03
 -1       318 1.35915E-03-1.13525E-02 1.25252E-03
 -1       319 1.85252E-03-1.28711E-02 1.22475E-03
 -1       320 2.38749E-03-1.44563E-02 1.19472E-03
 -1       321 2.95413E-03-1.61109E-02 1.16284E-03
 -1       322 3.54245E-03-1.78373E-02 1.12960E-03
 -1       323 4.14260E-03-1.96375E-02 1.09560E-03
 -1       324 4.74495E-03-2.15129E-02 1.06148E-03
 -1       325 5.34030E-03-2.34650E-02 1.02788E-03
 -1       326 5.92010E-03-2.54952E-02 9.95467E-04
 -1       327 6.47685E-03-2.76052E-02 9.64852E-04
 -1       328 7.00470E-03-2.97979E-02 9.36508E-04
 -1       329 7.50048E-03-3.20778E-02 9.10511E-04
 -1       330 7.96551E-03-3.44534E-02 8.85933E-04
 -1       331 8.40836E-03-3.69394E-02 8.59552E-04
 -1       332 8.84931E-03-3.95628E-02 8.23198E-04
 -1       333 9.32680E-03-4.23729E-02 7.58888E-04
 -1       334 9.90488E-03-4.54601E-02 6.30227E-04
 -1       335 1.06795E-02-4.89966E-02 3.71688E-04
 -1       336 1.17442E-02-5.32741E-02-1.27234E-04
 -1       337 1.31196E-02-5.88633E-02-9.52452E-04
 -1       338 1.38200E-02-6.56584E-02-2.27871E-03
 -1       339-3.06583E-04-1.15085E-03 8.47391E-04
 -1       340-4.16692E-04-2.09988E-03 1.09010E-03
 -1       341-3.97371E-04-3.10412E-03 1.18577E-03
 -1       342-2.76278E-04-4.17581E-03 1.20747E-03
 -1       343-5.96487E-05-5.30315E-03 1.20309E-03
 -1       344 2.49719E-04-6.48466E-03 1.18862E-03
 -1       345 6.46797E-04-7.72240E-03 1.17048E-03
 -1       346 1.12422E-03-9.02105E-03 1.15019E-03
 -1       347 1.67297E-03-1.03861E-02 1.12787E-03
 -1       348 2.28308E-03-1.18228E-02 1.10338E-03
 -1       349 2.94405E-03-1.33360E-02 1.07667E-03
 -1       350 3.64529E-03-1.49295E-02 1.04791E-03
 -1       351 4.37627E-03-1.66064E-02 1.01736E-03
 -1       352 5.12686E-03-1.83689E-02 9.85335E-04
 -1       353 5.88749E-03-2.02189E-02 9.52112E-04
 -1       354 6.64951E-03-2.21576E-02 9.17905E-04
 -1       355 7.40549E-03-2.41865E-02 8.82768E-04
 -1       356 8.14985E-03-2.63076E-02 8.46504E-04
 -1       357 8.87951E-03-2.85240E-02 8.08486E-04
 -1       358 9.59506E-03-3.08416E-02 7.67324E-04
 -1       359 1.03023E-02-3.32707E-02 7.20247E-04
 -1       360 1.10143E-02-3.58296E-02 6.61959E-04
 -1       361 1.17538E-02-3.85501E-02 5.82648E-04
 -1       362 1.25542E-02-4.14863E-02 4.64804E-04
 -1       363 1.34560E-02-4.47285E-02 2.79264E-04
 -1       364 1.44851E-02-4.84143E-02-1.84958E-05
 -1       365 1.55998E-02-5.27313E-02-4.78395E-04
 -1       366 1.65027E-02-5.77208E-02-1.16432E-03
 -1       367 1.67510E-02-6.28711E-02-2.06290E-03
 -1       368-3.55914E-04-1.04735E-03 7.77093E-04
 -1       369-4.90837E-04-1.89164E-03 9.95317E-04
 -1       370-4.62865E-04-2.78921E-03 1.07684E-03
 -1       371-3.04665E-04-3.75564E-03 1.09095E-03
 -1       372-3.13373E-05-4.78249E-03 1.08348E-03
 -1       373 3.48153E-04-5.86716E-03 1.06870E-03
 -1       374 8.26406E-04-7.01195E-03 1.05188E-03
 -1       375 1.39503E-03-8.22256E-03 1.03381E-03
 -1       376 2.04447E-03-9.50590E-03 1.01414E-03
 -1       377 2.76427E-03-1.08687E-02 9.92447E-04
 -1       378 3.54352E-03-1.23169E-02 9.68521E-04
 -1       379 4.37116E-03-1.38553E-02 9.42346E-04
 -1       380 5.23634E-03-1.54877E-02 9.14008E-04
 -1       381 6.12872E-03-1.72170E-02 8.83603E-04
 -1       382 7.03875E-03-1.90453E-02 8.51156E-04
 -1       383 7.95803E-03-2.09745E-02 8.16545E-04
 -1       384 8.87971E-03-2.30065E-02 7.79408E-04
 -1       385 9.79903E-03-2.51437E-02 7.39017E-04
 -1       386 1.07139E-02-2.73903E-02 6.94086E-04
 -1       387 1.16257E-02-2.97535E-02 6.42460E-04
 -1       388 1.25401E-02-3.22453E-02 5.80608E-04
 -1       389 1.34673E-02-3.48857E-02 5.02817E-04
 -1       390 1.44217E-02-3.77065E-02 4.00013E-04
 -1       391 1.54175E-02-4.07566E-02 2.58310E-04
 -1       392 1.64574E-02-4.41037E-02 5.78300E-05
 -1       393 1.75074E-02-4.78270E-02-2.25642E-04
 -1       394 1.84448E-02-5.19617E-02-6.18388E-04
 -1       395 1.90485E-02-5.63710E-02-1.12746E-03
 -1       396 1.90838E-02-6.05988E-02-1.71094E-03
 -1       397-3.72129E-04-9.49146E-04 7.04819E-04
 -1       398-5.10950E-04-1.70239E-03 8.98477E-04
 -1       399-4.66709E-04-2.50493E-03 9.68073E-04
 -1       400-2.71531E-04-3.37441E-03 9.78196E-04
 -1       401 5.57522E-05-4.30600E-03 9.70247E-04
 -1       402 5.02399E-04-5.29892E-03 9.56813E-04
 -1       403 1.05852E-03-6.35642E-03 9.42114E-04
 -1       404 1.71442E-03-7.48522E-03 9.26453E-04
 -1       405 2.45982E-03-8.69327E-03 9.09288E-04
 -1       406 3.28381E-03-9.98839E-03 8.90096E-04
 -1       407 4.17505E-03-1.13775E-02 8.68592E-04
 -1       408 5.12212E-03-1.28662E-02 8.44669E-04
 -1       409 6.11383E-03-1.44592E-02 8.18291E-04
 -1       410 7.13956E-03-1.61599E-02 7.89403E-04
 -1       411 8.18953E-03-1.79711E-02 7.57850E-04
 -1       412 9.25516E-03-1.98952E-02 7.23290E-04
 -1       413 1.03295E-02-2.19347E-02 6.85112E-04
 -1       414 1.14073E-02-2.40927E-02 6.42306E-04
 -1       415 1.24860E-02-2.63743E-02 5.93299E-04
 -1       416 1.35651E-02-2.87870E-02 5.35708E-04
 -1       417 1.46467E-02-3.13433E-02 4.66000E-04
 -1       418 1.57344E-02-3.40619E-02 3.79032E-04
 -1       419 1.68300E-02-3.69695E-02 2.67540E-04
 -1       420 1.79277E-02-4.01012E-02 1.21774E-04
 -1       421 1.90017E-02-4.34950E-02-7.00297E-05
 -1       422 1.99875E-02-4.71705E-02-3.19990E-04
 -1       423 2.07688E-02-5.10830E-02-6.34406E-04
 -1       424 2.11940E-02-5.50535E-02-1.00392E-03
 -1       425 2.11569E-02-5.87227E-02-1.39864E-03
 -1       426-3.67360E-04-8.55081E-04 6.33326E-04
 -1       427-4.94690E-04-1.52589E-03 8.03073E-04
 -1       428-4.26191E-04-2.24220E-03 8.62394E-04
 -1       429-1.91841E-04-3.02180E-03 8.70323E-04
 -1       430 1.88522E-04-3.86358E-03 8.63411E-04
 -1       431 7.00166E-04-4.76934E-03 8.52233E-04
 -1       432 1.33140E-03-5.74412E-03 8.40061E-04
 -1       433 2.07128E-03-6.79591E-03 8.26882E-04
 -1       434 2.90873E-03-7.93368E-03 8.12099E-04
 -1       435 3.83227E-03-9.16615E-03 7.95202E-04
 -1       436 4.83011E-03-1.05011E-02 7.75900E-04
 -1       437 5.89041E-03-1.19449E-02 7.54045E-04
 -1       438 7.00157E-03-1.35030E-02 7.29531E-04
 -1       439 8.15250E-03-1.51794E-02 7.02204E-04
 -1       440 9.33291E-03-1.69777E-02 6.71792E-04
 -1       441 1.05336E-02-1.89007E-02 6.37835E-04
 -1       442 1.17467E-02-2.09514E-02 5.99599E-04
 -1       443 1.29659E-02-2.31334E-02 5.55982E-04
 -1       444 1.41864E-02-2.54520E-02 5.05377E-04
 -1       445 1.54048E-02-2.79145E-02 4.45517E-04
 -1       446 1.66179E-02-3.05318E-02 3.73282E-04
 -1       447 1.78214E-02-3.33188E-02 2.84512E-04
 -1       448 1.90057E-02-3.62941E-02 1.73918E-04
 -1       449 2.01500E-02-3.94765E-02 3.53273E-05
 -1       450 2.12136E-02-4.28758E-02-1.37446E-04
 -1       451 2.21278E-02-4.64728E-02-3.48319E-04
 -1       452 2.27975E-02-5.01872E-02-5.95051E-04
 -1       453 2.31268E-02-5.38447E-02-8.65518E-04
 -1       454 2.30696E-02-5.71707E-02-1.13995E-03
 -1       455-3.48742E-04-7.64220E-04 5.63726E-04
 -1       456-4.53491E-04-1.35836E-03 7.10929E-04
 -1       457-3.53814E-04-1.99439E-03 7.61327E-04
 -1       458-7.72754E-05-2.68964E-03 7.68138E-04
 -1       459 3.56497E-04-3.44631E-03 7.62977E-04
 -1       460 9.31937E-04-4.26903E-03 7.54425E-04
 -1       461 1.63621E-03-5.16503E-03 7.44884E-04
 -1       462 2.45735E-03-6.14378E-03 7.34137E-04
 -1       463 3.38350E-03-7.21534E-03 7.21612E-04
 -1       464 4.40258E-03-8.38929E-03 7.06862E-04
 -1       465 5.50227E-03-9.67415E-03 6.89632E-04
 -1       466 6.67023E-03-1.10771E-02 6.69765E-04
 -1       467 7.89431E-03-1.26042E-02 6.47113E-04
 -1       468 9.16277E-03-1.42602E-02 6.21469E-04
 -1       469 1.04645E-02-1.60490E-02 5.92500E-04
 -1       470 1.17894E-02-1.79739E-02 5.59694E-04
 -1       471 1.31282E-02-2.00384E-02 5.22291E-04
 -1       472 1.44726E-02-2.22462E-02 4.79213E-04
 -1       473 1.58152E-02-2.46019E-02 4.28978E-04
 -1       474 1.71488E-02-2.71118E-02 3.69607E-04
 -1       475 1.84650E-02-2.97842E-02 2.98556E-04
 -1       476 1.97521E-02-3.26286E-02 2.12701E-04
 -1       477 2.09921E-02-3.56543E-02 1.08484E-04
 -1       478 2.21552E-02-3.88652E-02-1.76284E-05
 -1       479 2.31961E-02-4.22501E-02-1.68123E-04
 -1       480 2.40518E-02-4.57672E-02-3.42679E-04
 -1       481 2.46497E-02-4.93243E-02-5.35985E-04
 -1       482 2.49298E-02-5.27651E-02-7.36997E-04
 -1       483 2.48774E-02-5.58755E-02-9.32615E-04
 -1       484-3.20763E-04-6.75833E-04 4.96425E-04
 -1       485-3.94869E-04-1.19710E-03 6.22781E-04
 -1       486-2.58370E-04-1.75679E-03 6.65526E-04
 -1       487 6.34168E-05-2.37166E-03 6.71912E-04
 -1       488 5.51560E-04-3.04696E-03 6.68796E-04
 -1       489 1.19030E-03-3.79016E-03 6.62912E-04
 -1       490 1.96613E-03-4.61075E-03 6.55919E-04
 -1       491 2.86633E-03-5.51980E-03 6.47477E-04
 -1       492 3.87834E-03-6.52852E-03 6.37080E-04
 -1       493 4.98945E-03-7.64735E-03 6.24368E-04
 -1       494 6.18678E-03-8.88556E-03 6.09133E-04
 -1       495 7.45740E-03-1.02510E-02 5.91227E-04
 -1       496 8.78847E-03-1.17504E-02 5.70486E-04
 -1       497 1.01675E-02-1.33889E-02 5.46678E-04
 -1       498 1.15823E-02-1.51710E-02 5.19449E-04
 -1       499 1.30214E-02-1.71003E-02 4.88283E-04
 -1       500 1.44740E-02-1.91802E-02 4.52454E-04
 -1       501 1.59296E-02-2.14141E-02 4.10980E-04
 -1       502 1.73778E-02-2.38059E-02 3.62572E-04
 -1       503 1.88076E-02-2.63599E-02 3.05606E-04
 -1       504 2.02058E-02-2.90809E-02 2.38122E-04
 -1       505 2.15553E-02-3.19728E-02 1.57916E-04
 -1       506 2.28320E-02-3.50363E-02 6.27778E-05
 -1       507 2.40025E-02-3.82630E-02-4.90021E-05
 -1       508 2.50218E-02-4.16277E-02-1.77755E-04
 -1       509 2.58360E-02-4.50767E-02-3.21213E-04
 -1       510 2.63907E-02-4.85169E-02-4.73417E-04
 -1       511 2.66492E-02-5.18113E-02-6.25096E-04
 -1       512 2.66133E-02-5.47887E-02-7.67378E-04
 -1       513-2.86307E-04-5.89294E-04 4.31459E-04
 -1       514-3.23835E-04-1.04011E-03 5.38791E-04
 -1       515-1.45987E-04-1.52590E-03 5.75077E-04
 -1       516 2.23853E-04-2.06309E-03 5.81536E-04
 -1       517 7.67584E-04-2.65983E-03 5.80539E-04
 -1       518 1.46958E-03-3.32631E-03 5.77196E-04
 -1       519 2.31596E-03-4.07427E-03 5.72573E-04
 -1       520 3.29346E-03-4.91640E-03 5.66275E-04
 -1       521 4.38890E-03-5.86504E-03 5.57882E-04
 -1       522 5.58900E-03-6.93154E-03 5.47120E-04
 -1       523 6.88026E-03-8.12588E-03 5.33832E-04
 -1       524 8.24909E-03-9.45660E-03 5.17887E-04
 -1       525 9.68189E-03-1.09308E-02 4.99123E-04
 -1       526 1.11652E-02-1.25543E-02 4.77301E-04
 -1       527 1.26857E-02-1.43318E-02 4.52074E-04
 -1       528 1.42304E-02-1.62671E-02 4.22953E-04
 -1       529 1.57868E-02-1.83632E-02 3.89280E-04
 -1       530 1.73419E-02-2.06231E-02 3.50200E-04
 -1       531 1.88826E-02-2.30493E-02 3.04641E-04
 -1       532 2.03943E-02-2.56438E-02 2.51327E-04
 -1       533 2.18600E-02-2.84079E-02 1.88821E-04
 -1       534 2.32584E-02-3.13400E-02 1.15662E-04
 -1       535 2.45623E-02-3.44331E-02 3.06227E-05
 -1       536 2.57371E-02-3.76701E-02-6.68332E-05
 -1       537 2.67410E-02-4.10166E-02-1.75873E-04
 -1       538 2.75288E-02-4.44137E-02-2.93497E-04
 -1       539 2.80602E-02-4.77720E-02-4.14028E-04
 -1       540 2.83136E-02-5.09717E-02-5.29864E-04
 -1       541 2.82999E-02-5.38723E-02-6.34727E-04
 -1       542-2.47264E-04-5.04064E-04 3.68705E-04
 -1       543-2.43756E-04-8.85841E-04 4.58838E-04
 -1       544-2.09249E-05-1.29904E-03 4.89781E-04
 -1       545 3.99440E-04-1.76024E-03 4.96687E-04
 -1       546 1.00003E-03-2.28037E-03 4.97770E-04
 -1       547 1.76547E-03-2.87227E-03 4.96771E-04
 -1       548 2.68172E-03-3.54981E-03 4.94309E-04
 -1       549 3.73510E-03-4.32724E-03 4.89987E-04
 -1       550 4.91194E-03-5.21806E-03 4.83480E-04
 -1       551 6.19839E-03-6.23447E-03 4.74595E-04
 -1       552 7.58036E-03-7.38718E-03 4.63220E-04
 -1       553 9.04353E-03-8.68534E-03 4.49245E-04
 -1       554 1.05734E-02-1.01365E-02 4.32517E-04
 -1       555 1.21556E-02-1.17469E-02 4.12811E-04
 -1       556 1.37755E-02-1.35214E-02 3.89799E-04
 -1       557 1.54186E-02-1.54636E-02 3.63039E-04
 -1       558 1.70704E-02-1.75764E-02 3.31956E-04
 -1       559 1.87158E-02-1.98617E-02 2.95827E-04
 -1       560 2.03389E-02-2.23205E-02 2.53793E-04
 -1       561 2.19223E-02-2.49525E-02 2.04887E-04
 -1       562 2.34457E-02-2.77553E-02 1.48105E-04
 -1       563 2.48853E-02-3.07226E-02 8.25508E-05
 -1       564 2.62123E-02-3.38412E-02 7.68237E-06
 -1       565 2.73925E-02-3.70875E-02-7.63187E-05
 -1       566 2.83883E-02-4.04218E-02-1.68047E-04
 -1       567 2.91621E-02-4.37837E-02-2.64362E-04
 -1       568 2.96841E-02-4.70891E-02-3.60171E-04
 -1       569 2.99426E-02-5.02327E-02-4.49225E-04
 -1       570 2.99535E-02-5.30965E-02-5.26878E-04
 -1       571-2.04879E-04-4.19671E-04 3.07978E-04
 -1       572-1.56902E-04-7.33049E-04 3.82683E-04
 -1       573 1.13872E-04-1.07412E-03 4.09306E-04
 -1       574 5.86909E-04-1.46016E-03 4.16949E-04
 -1       575 1.24557E-03-1.90494E-03 4.20020E-04
 -1       576 2.07479E-03-2.42376E-03 4.21145E-04
 -1       577 3.06044E-03-3.03254E-03 4.20633E-04
 -1       578 4.18857E-03-3.74701E-03 4.18131E-04
 -1       579 5.44509E-03-4.58176E-03 4.13402E-04
 -1       580 6.81565E-03-5.54987E-03 4.06327E-04
 -1       581 8.28554E-03-6.66273E-03 3.96833E-04
 -1       582 9.83972E-03-7.93006E-03 3.84834E-04
 -1       583 1.14628E-02-9.35986E-03 3.70192E-04
 -1       584 1.31393E-02-1.09586E-02 3.52700E-04
 -1       585 1.48534E-02-1.27311E-02 3.32067E-04
 -1       586 1.65889E-02-1.46810E-02 3.07901E-04
 -1       587 1.83295E-02-1.68106E-02 2.79711E-04
 -1       588 2.00580E-02-1.91206E-02 2.46907E-04
 -1       589 2.17561E-02-2.16106E-02 2.08814E-04
 -1       590 2.34040E-02-2.42777E-02 1.64726E-04
 -1       591 2.49792E-02-2.71162E-02 1.13978E-04
 -1       592 2.64560E-02-3.01157E-02 5.60898E-05
 -1       593 2.78050E-02-3.32583E-02-9.02346E-06
 -1       594 2.89938E-02-3.65159E-02-8.07617E-05
 -1       595 2.99885E-02-3.98457E-02-1.57481E-04
 -1       596 3.07580E-02-4.31878E-02-2.36164E-04
 -1       597 3.12803E-02-4.64640E-02-3.12348E-04
 -1       598 3.15502E-02-4.95808E-02-3.80834E-04
 -1       599 3.15866E-02-5.24371E-02-4.38020E-04
 -1       600-1.59973E-04-3.35700E-04 2.49075E-04
 -1       601-6.47900E-05-5.80702E-04 3.10041E-04
 -1       602 2.56389E-04-8.49419E-04 3.33278E-04
 -1       603 7.83970E-04-1.16050E-03 3.41884E-04
 -1       604 1.50183E-03-1.53055E-03 3.46826E-04
 -1       605 2.39520E-03-1.97725E-03 3.49858E-04
 -1       606 3.44993E-03-2.51844E-03 3.51102E-04
 -1       607 4.65188E-03-3.17122E-03 3.50276E-04
 -1       608 5.98664E-03-3.95124E-03 3.47229E-04
 -1       609 7.43939E-03-4.87243E-03 3.41901E-04
 -1       610 8.99485E-03-5.94683E-03 3.34254E-04
 -1       611 1.06372E-02-7.18466E-03 3.24226E-04
 -1       612 1.23503E-02-8.59432E-03 3.11700E-04
 -1       613 1.41174E-02-1.01824E-02 2.96495E-04
 -1       614 1.59213E-02-1.19539E-02 2.78353E-04
 -1       615 1.77445E-02-1.39120E-02 2.56942E-04
 -1       616 1.95688E-02-1.60582E-02 2.31848E-04
 -1       617 2.13751E-02-1.83924E-02 2.02598E-04
 -1       618 2.31430E-02-2.09123E-02 1.68675E-04
 -1       619 2.48508E-02-2.36128E-02 1.29580E-04
 -1       620 2.64741E-02-2.64853E-02 8.49062E-05
 -1       621 2.79864E-02-2.95158E-02 3.44675E-05
 -1       622 2.93585E-02-3.26829E-02-2.15275E-05
 -1       623 3.05595E-02-3.59552E-02-8.22511E-05
 -1       624 3.15593E-02-3.92886E-02-1.46003E-04
 -1       625 3.23321E-02-4.26247E-02-2.09993E-04
 -1       626 3.28616E-02-4.58910E-02-2.70337E-04
 -1       627 3.31471E-02-4.90038E-02-3.22638E-04
 -1       628 3.32090E-02-5.18749E-02-3.63977E-04
 -1       629-1.13070E-04-2.51787E-04 1.91801E-04
 -1       630 3.15899E-05-4.27924E-04 2.40628E-04
 -1       631 4.05284E-04-6.23532E-04 2.61321E-04
 -1       632 9.89055E-04-8.59300E-04 2.71068E-04
 -1       633 1.76714E-03-1.15471E-03 2.77754E-04
 -1       634 2.72501E-03-1.52978E-03 2.82493E-04
 -1       635 3.84857E-03-2.00409E-03 2.85320E-04
 -1       636 5.12357E-03-2.59606E-03 2.86041E-04
 -1       637 6.53536E-03-3.32234E-03 2.84584E-04
 -1       638 8.06872E-03-4.19762E-03 2.80939E-04
 -1       639 9.70781E-03-5.23461E-03 2.75102E-04
 -1       640 1.14361E-02-6.44398E-03 2.67030E-04
 -1       641 1.32365E-02-7.83444E-03 2.56633E-04
 -1       642 1.50912E-02-9.41275E-03 2.43755E-04
 -1       643 1.69817E-02-1.11837E-02 2.28180E-04
 -1       644 1.88889E-02-1.31502E-02 2.09623E-04
 -1       645 2.07930E-02-1.53131E-02 1.87748E-04
 -1       646 2.26732E-02-1.76710E-02 1.62176E-04
 -1       647 2.45075E-02-2.02201E-02 1.32521E-04
 -1       648 2.62722E-02-2.29531E-02 9.84426E-05
 -1       649 2.79419E-02-2.58588E-02 5.97226E-05
 -1       650 2.94896E-02-2.89203E-02 1.63745E-05
 -1       651 3.08865E-02-3.21134E-02-3.12133E-05
 -1       652 3.21036E-02-3.54047E-02-8.21063E-05
 -1       653 3.31140E-02-3.87496E-02-1.34643E-04
 -1       654 3.38960E-02-4.20919E-02-1.86293E-04
 -1       655 3.44376E-02-4.53641E-02-2.33664E-04
 -1       656 3.47414E-02-4.84908E-02-2.72980E-04
 -1       657 3.48283E-02-5.13941E-02-3.01764E-04
 -1       658-6.44869E-05-1.67601E-04 1.35975E-04
 -1       659 1.31633E-04-2.73956E-04 1.74176E-04
 -1       660 5.59715E-04-3.95239E-04 1.93086E-04
 -1       661 1.20114E-03-5.54874E-04 2.04108E-04
 -1       662 2.04035E-03-7.75322E-04 2.12411E-04
 -1       663 3.06305E-03-1.07883E-03 2.18679E-04
 -1       664 4.25522E-03-1.48661E-03 2.22934E-04
 -1       665 5.60262E-03-2.01831E-03 2.25086E-04
 -1       666 7.09042E-03-2.69150E-03 2.25132E-04
 -1       667 8.70307E-03-3.52163E-03 2.23106E-04
 -1       668 1.04242E-02-4.52197E-03 2.19031E-04
 -1       669 1.22366E-02-5.70363E-03 2.12891E-04
 -1       670 1.41223E-02-7.07559E-03 2.04618E-04
 -1       671 1.60622E-02-8.64468E-03 1.94086E-04
 -1       672 1.80367E-02-1.04156E-02 1.81115E-04
 -1       673 2.00253E-02-1.23908E-02 1.65469E-04
 -1       674 2.20066E-02-1.45703E-02 1.46873E-04
 -1       675 2.39581E-02-1.69517E-02 1.25028E-04
 -1       676 2.58564E-02-1.95296E-02 9.96509E-05
 -1       677 2.76765E-02-2.22947E-02 7.05180E-05
 -1       678 2.93921E-02-2.52337E-02 3.75426E-05
 -1       679 3.09759E-02-2.83271E-02 8.67004E-07
 -1       680 3.23999E-02-3.15486E-02-3.90209E-05
 -1       681 3.36368E-02-3.48635E-02-8.11562E-05
 -1       682 3.46624E-02-3.82275E-02-1.23966E-04
 -1       683 3.54583E-02-4.15864E-02-1.65171E-04
 -1       684 3.60158E-02-4.48775E-02-2.01797E-04
 -1       685 3.63395E-02-4.80325E-02-2.30540E-04
 -1       686 3.64507E-02-5.09819E-02-2.49213E-04
 -1       687-1.43831E-05-8.28419E-05 8.14284E-05
 -1       688 2.35028E-04-1.18112E-04 1.10436E-04
 -1       689 7.19218E-04-1.63459E-04 1.28251E-04
 -1       690 1.41962E-03-2.45759E-04 1.40653E-04
 -1       691 2.32075E-03-3.90541E-04 1.50451E-04
 -1       692 3.40850E-03-6.22207E-04 1.58085E-04
 -1       693 4.66908E-03-9.63514E-04 1.63634E-04
 -1       694 6.08829E-03-1.43520E-03 1.67109E-04
 -1       695 7.65125E-03-2.05571E-03 1.68573E-04
 -1       696 9.34214E-03-2.84118E-03 1.68096E-04
 -1       697 1.11441E-02-3.80541E-03 1.65731E-04
 -1       698 1.30393E-02-4.95990E-03 1.61486E-04
 -1       699 1.50086E-02-6.31386E-03 1.55318E-04
 -1       700 1.70321E-02-7.87416E-03 1.47131E-04
 -1       701 1.90888E-02-9.64533E-03 1.36776E-04
 -1       702 2.11569E-02-1.16294E-02 1.24061E-04
 -1       703 2.32135E-02-1.38256E-02 1.08761E-04
 -1       704 2.52348E-02-1.62305E-02 9.06425E-05
 -1       705 2.71958E-02-1.88371E-02 6.94953E-05
 -1       706 2.90707E-02-2.16346E-02 4.51814E-05
 -1       707 3.08325E-02-2.46074E-02 1.76996E-05
 -1       708 3.24538E-02-2.77342E-02-1.27333E-05
 -1       709 3.39072E-02-3.09871E-02-4.55864E-05
 -1       710 3.51673E-02-3.43304E-02-7.99130E-05
 -1       711 3.62120E-02-3.77203E-02-1.14253E-04
 -1       712 3.70255E-02-4.11049E-02-1.46560E-04
 -1       713 3.76016E-02-4.44259E-02-1.74209E-04
 -1       714 3.79464E-02-4.76209E-02-1.94260E-04
 -1       715 3.80811E-02-5.06276E-02-2.04710E-04
 -1       716 3.72075E-05 2.77506E-06 2.80112E-05
 -1       717 3.41698E-04 4.02429E-05 4.91879E-05
 -1       718 8.83633E-04 7.27981E-05 6.65290E-05
 -1       719 1.64421E-03 6.93742E-05 8.03901E-05
 -1       720 2.60789E-03 1.26583E-06 9.15687E-05
 -1       721 3.76086E-03-1.58019E-04 1.00426E-04
 -1       722 5.08957E-03-4.32654E-04 1.07145E-04
 -1       723 6.58007E-03-8.44379E-04 1.11843E-04
 -1       724 8.21748E-03-1.41243E-03 1.14636E-04
 -1       725 9.98577E-03-2.15354E-03 1.15635E-04
 -1       726 1.18677E-02-3.08200E-03 1.14920E-04
 -1       727 1.38445E-02-4.20967E-03 1.12524E-04
 -1       728 1.58964E-02-5.54595E-03 1.08431E-04
 -1       729 1.80024E-02-7.09777E-03 1.02571E-04
 -1       730 2.01402E-02-8.86943E-03 9.48241E-05
 -1       731 2.22867E-02-1.08625E-02 8.50342E-05
 -1       732 2.44176E-02-1.30756E-02 7.30180E-05
 -1       733 2.65077E-02-1.55042E-02 5.85895E-05
 -1       734 2.85311E-02-1.81399E-02 4.15923E-05
 -1       735 3.04608E-02-2.09703E-02 2.19434E-05
 -1       736 3.22695E-02-2.39780E-02-3.08309E-07
 -1       737 3.39299E-02-2.71402E-02-2.49120E-05
 -1       738 3.54153E-02-3.04276E-02-5.13351E-05
 -1       739 3.67016E-02-3.38040E-02-7.86811E-05
 -1       740 3.77686E-02-3.72262E-02-1.05614E-04
 -1       741 3.86027E-02-4.06445E-02-1.30300E-04
 -1       742 3.91994E-02-4.40044E-02-1.50406E-04
 -1       743 3.95660E-02-4.72490E-02-1.63278E-04
 -1       744 3.97234E-02-5.03221E-02-1.67018E-04
 -1       745 9.03582E-05 8.95286E-05-2.44165E-05
 -1       746 4.51767E-04 2.01728E-04-9.76714E-06
 -1       747 1.05305E-03 3.14485E-04 7.67106E-06
 -1       748 1.87488E-03 3.91773E-04 2.30526E-05
 -1       749 2.90160E-03 4.01592E-04 3.55028E-05
 -1       750 4.11976E-03 3.15428E-04 4.54541E-05
 -1       751 5.51629E-03 1.07827E-04 5.32282E-05
 -1       752 7.07756E-03-2.43837E-04 5.90459E-05
 -1       753 8.78883E-03-7.59476E-04 6.30789E-05
 -1       754 1.06339E-02-1.45638E-03 6.54747E-05
 -1       755 1.25951E-02-2.34926E-03 6.63432E-05
 -1       756 1.46530E-02-3.45031E-03 6.57448E-05
 -1       757 1.67870E-02-4.76911E-03 6.36864E-05
 -1       758 1.89748E-02-6.31262E-03 6.01225E-05
 -1       759 2.11930E-02-8.08495E-03 5.49611E-05
 -1       760 2.34173E-02-1.00873E-02 4.80732E-05
 -1       761 2.56220E-02-1.23175E-02 3.93077E-05
 -1       762 2.77809E-02-1.47700E-02 2.85133E-05
 -1       763 2.98667E-02-1.74353E-02 1.55683E-05
 -1       764 3.18519E-02-2.02995E-02 4.21099E-07
 -1       765 3.37086E-02-2.33438E-02-1.68578E-05
 -1       766 3.54098E-02-2.65437E-02-3.60150E-05
 -1       767 3.69294E-02-2.98689E-02-5.65461E-05
 -1       768 3.82445E-02-3.32829E-02-7.76270E-05
 -1       769 3.93366E-02-3.67432E-02-9.80522E-05
 -1       770 4.01937E-02-4.02021E-02-1.16183E-04
 -1       771 4.08126E-02-4.36087E-02-1.29933E-04
 -1       772 4.12014E-02-4.69108E-02-1.36872E-04
 -1       773 4.13804E-02-5.00578E-02-1.35161E-04
 -1       774 1.45244E-04 1.77705E-04-7.59850E-05
 -1       775 5.65551E-04 3.66977E-04-6.66013E-05
 -1       776 1.22779E-03 5.62563E-04-4.85364E-05
 -1       777 2.11179E-03 7.22655E-04-3.15866E-05
 -1       778 3.20183E-03 8.11833E-04-1.79680E-05
 -1       779 4.48501E-03 7.99653E-04-7.04563E-06
 -1       780 5.94892E-03 6.59540E-04 1.67034E-06
 -1       781 7.58047E-03 3.68131E-04 8.50409E-06
 -1       782 9.36512E-03-9.50535E-05 1.36816E-05
 -1       783 1.12866E-02-7.47768E-04 1.73900E-05
 -1       784 1.33267E-02-1.60513E-03 1.97708E-05
 -1       785 1.54654E-02-2.67962E-03 2.09109E-05
 -1       786 1.76811E-02-3.98102E-03 2.08402E-05
 -1       787 1.99506E-02-5.51630E-03 1.95349E-05
 -1       788 2.22492E-02-7.28941E-03 1.69249E-05
 -1       789 2.45512E-02-9.30113E-03 1.29038E-05
 -1       790 2.68299E-02-1.15487E-02 7.34418E-06
 -1       791 2.90577E-02-1.40257E-02 1.17030E-07
 -1       792 3.12065E-02-1.67214E-02-8.87988E-06
 -1       793 3.32481E-02-1.96207E-02-1.96859E-05
 -1       794 3.51542E-02-2.27031E-02-3.22317E-05
 -1       795 3.68979E-02-2.59432E-02-4.62859E-05
 -1       796 3.84539E-02-2.93096E-02-6.13951E-05
 -1       797 3.98002E-02-3.27657E-02-7.68248E-05
 -1       798 4.09195E-02-3.62694E-02-9.15042E-05
 -1       799 4.18014E-02-3.97752E-02-1.03976E-04
 -1       800 4.24437E-02-4.32350E-02-1.12367E-04
 -1       801 4.28547E-02-4.66011E-02-1.14431E-04
 -1       802 4.30545E-02-4.98281E-02-1.08348E-04
 -1       803 2.02146E-04 2.67617E-04-1.26818E-04
 -1       804 6.83555E-04 5.36677E-04-1.21462E-04
 -1       805 1.40836E-03 8.18049E-04-1.02268E-04
 -1       806 2.35527E-03 1.06326E-03-8.37129E-05
 -1       807 3.50864E-03 1.23333E-03-6.90277E-05
 -1       808 4.85643E-03 1.29603E-03-5.72557E-05
 -1       809 6.38720E-03 1.22387E-03-4.77149E-05
 -1       810 8.08853E-03 9.92947E-04-3.99761E-05
 -1       811 9.94620E-03 5.82332E-04-3.37560E-05
 -1       812 1.19438E-02-2.61262E-05-2.88242E-05
 -1       813 1.40628E-02-8.47903E-04-2.50065E-05
 -1       814 1.62824E-02-1.89578E-03-2.21905E-05
 -1       815 1.85800E-02-3.17973E-03-2.03254E-05
 -1       816 2.09313E-02-4.70678E-03-1.94163E-05
 -1       817 2.33105E-02-6.48075E-03-1.95153E-05
 -1       818 2.56907E-02-8.50206E-03-2.07116E-05
 -1       819 2.80438E-02-1.07674E-02-2.31170E-05
 -1       820 3.03413E-02-1.32694E-02-2.68476E-05
 -1       821 3.25541E-02-1.59965E-02-3.19988E-05
 -1       822 3.46531E-02-1.89320E-02-3.86136E-05
 -1       823 3.66101E-02-2.20547E-02-4.66421E-05
 -1       824 3.83980E-02-2.53376E-02-5.58940E-05
 -1       825 3.99922E-02-2.87487E-02-6.59859E-05
 -1       826 4.13716E-02-3.22510E-02-7.62864E-05
 -1       827 4.25200E-02-3.58032E-02-8.58643E-05
 -1       828 4.34280E-02-3.93613E-02-9.34352E-05
 -1       829 4.40944E-02-4.28800E-02-9.73185E-05
 -1       830 4.45275E-02-4.63154E-02-9.54225E-05
 -1       831 4.47471E-02-4.96274E-02-8.59217E-05
 -1       832 2.61472E-04 3.59625E-04-1.77039E-04
 -1       833 8.06500E-04 7.11619E-04-1.74466E-04
 -1       834 1.59547E-03 1.08209E-03-1.53658E-04
 -1       835 2.60576E-03 1.41488E-03-1.33470E-04
 -1       836 3.82213E-03 1.66737E-03-1.17825E-04
 -1       837 5.23388E-03 1.80578E-03-1.05332E-04
 -1       838 6.83084E-03 1.80199E-03-9.50940E-05
 -1       839 8.60147E-03 1.63177E-03-8.65709E-05
 -1       840 1.05319E-02 1.27388E-03-7.94169E-05
 -1       841 1.26057E-02 7.09830E-04-7.33552E-05
 -1       842 1.48037E-02-7.61950E-05-6.81790E-05
 -1       843 1.71044E-02-1.09729E-03-6.37524E-05
 -1       844 1.94844E-02-2.36364E-03-6.00064E-05
 -1       845 2.19181E-02-3.88237E-03-5.69304E-05
 -1       846 2.43787E-02-5.65721E-03-5.45629E-05
 -1       847 2.68378E-02-7.68826E-03-5.29805E-05
 -1       848 2.92663E-02-9.97170E-03-5.22854E-05
 -1       849 3.16344E-02-1.24994E-02-5.25891E-05
 -1       850 3.39123E-02-1.52588E-02-5.39905E-05
 -1       851 3.60702E-02-1.82323E-02-5.65489E-05
 -1       852 3.80795E-02-2.13971E-02-6.02481E-05
 -1       853 3.99132E-02-2.47256E-02-6.49550E-05
 -1       854 4.15472E-02-2.81849E-02-7.03712E-05
 -1       855 4.29612E-02-3.17376E-02-7.59814E-05
 -1       856 4.41400E-02-3.53429E-02-8.10005E-05
 -1       857 4.50752E-02-3.89581E-02-8.43152E-05
 -1       858 4.57660E-02-4.25405E-02-8.44240E-05
 -1       859 4.62210E-02-4.60498E-02-7.93745E-05
 -1       860 4.64594E-02-4.94506E-02-6.73247E-05
 -1       861 3.23793E-04 4.54179E-04-2.26768E-04
 -1       862 9.35361E-04 8.92778E-04-2.25699E-04
 -1       863 1.79003E-03 1.35602E-03-2.02793E-04
 -1       864 2.86377E-03 1.77894E-03-1.80957E-04
 -1       865 4.14238E-03 2.11525E-03-1.64476E-04
 -1       866 5.61713E-03 2.33000E-03-1.51408E-04
 -1       867 7.27950E-03 2.39485E-03-1.40617E-04
 -1       868 9.11899E-03 2.28550E-03-1.31443E-04
 -1       869 1.11221E-02 1.98051E-03-1.23470E-04
 -1       870 1.32722E-02 1.46110E-03-1.16375E-04
 -1       871 1.55496E-02 7.11102E-04-1.09920E-04
 -1       872 1.79322E-02-2.82919E-04-1.03950E-04
 -1       873 2.03953E-02-1.53143E-03-9.83787E-05
 -1       874 2.29124E-02-3.04165E-03-9.31855E-05
 -1       875 2.54552E-02-4.81729E-03-8.83977E-05
 -1       876 2.79944E-02-6.85822E-03-8.40839E-05
 -1       877 3.04995E-02-9.16014E-03-8.03416E-05
 -1       878 3.29396E-02-1.17143E-02-7.72841E-05
 -1       879 3.52839E-02-1.45071E-02-7.50220E-05
 -1       880 3.75021E-02-1.75201E-02-7.36407E-05
 -1       881 3.95651E-02-2.07294E-02-7.31696E-05
 -1       882 4.14461E-02-2.41063E-02-7.35454E-05
 -1       883 4.31213E-02-2.76171E-02-7.45684E-05
 -1       884 4.45710E-02-3.12241E-02-7.58513E-05
 -1       885 4.57811E-02-3.48869E-02-7.67646E-05
 -1       886 4.67439E-02-3.85637E-02-7.63692E-05
 -1       887 4.74592E-02-4.22141E-02-7.33403E-05
 -1       888 4.79357E-02-4.58010E-02-6.58597E-05
 -1       889 4.81918E-02-4.92935E-02-5.20686E-05
 -1       890 3.89904E-04 5.51871E-04-2.76128E-04
 -1       891 1.07143E-03 1.08142E-03-2.75191E-04
 -1       892 1.99310E-03 1.64149E-03-2.49699E-04
 -1       893 3.12980E-03 2.15700E-03-2.26229E-04
 -1       894 4.46936E-03 2.57820E-03-2.09066E-04
 -1       895 6.00583E-03 2.86960E-03-1.95601E-04
 -1       896 7.73276E-03 3.00317E-03-1.84425E-04
 -1       897 9.64072E-03 2.95477E-03-1.74745E-04
 -1       898 1.17165E-02 2.70289E-03-1.66074E-04
 -1       899 1.39433E-02 2.22844E-03-1.58044E-04
 -1       900 1.63009E-02 1.51485E-03-1.50390E-04
 -1       901 1.87662E-02 5.48298E-04-1.42940E-04
 -1       902 2.13135E-02-6.81987E-04-1.35601E-04
 -1       903 2.39151E-02-2.18343E-03-1.28341E-04
 -1       904 2.65417E-02-3.95975E-03-1.21179E-04
 -1       905 2.91623E-02-6.01064E-03-1.14181E-04
 -1       906 3.17454E-02-8.33141E-03-1.07442E-04
 -1       907 3.42590E-02-1.09127E-02-1.01083E-04
 -1       908 3.66712E-02-1.37401E-02-9.52328E-05
 -1       909 3.89512E-02-1.67942E-02-9.00093E-05
 -1       910 4.10694E-02-2.00502E-02-8.54973E-05
 -1       911 4.29990E-02-2.34783E-02-8.17141E-05
 -1       912 4.47164E-02-2.70441E-02-7.85701E-05
 -1       913 4.62027E-02-3.07094E-02-7.58190E-05
 -1       914 4.74445E-02-3.44338E-02-7.29980E-05
 -1       915 4.84349E-02-3.81764E-02-6.93523E-05
 -1       916 4.91744E-02-4.18984E-02-6.37394E-05
 -1       917 4.96716E-02-4.55659E-02-5.44809E-05
 -1       918 4.99442E-02-4.91523E-02-3.97130E-05
 -1       919 4.60940E-04 6.53542E-04-3.25230E-04
 -1       920 1.21640E-03 1.27927E-03-3.22899E-04
 -1       921 2.20593E-03 1.94056E-03-2.94330E-04
 -1       922 3.40422E-03 2.55080E-03-2.69290E-04
 -1       923 4.80281E-03 3.05737E-03-2.51655E-04
 -1       924 6.39949E-03 3.42527E-03-2.38017E-04
 -1       925 8.19009E-03 3.62738E-03-2.26650E-04
 -1       926 1.01663E-02 3.63997E-03-2.16622E-04
 -1       927 1.23150E-02 3.44145E-03-2.07377E-04
 -1       928 1.46192E-02 3.01236E-03-1.98508E-04
 -1       929 1.70578E-02 2.33568E-03-1.89733E-04
 -1       930 1.96069E-02 1.39713E-03-1.80869E-04
 -1       931 2.22398E-02 1.85551E-04-1.71817E-04
 -1       932 2.49275E-02-1.30673E-03-1.62538E-04
 -1       933 2.76393E-02-3.08352E-03-1.53050E-04
 -1       934 3.03430E-02-5.14440E-03-1.43412E-04
 -1       935 3.30058E-02-7.48435E-03-1.33725E-04
 -1       936 3.55946E-02-1.00935E-02-1.24117E-04
 -1       937 3.80765E-02-1.29567E-02-1.14741E-04
 -1       938 4.04198E-02-1.60536E-02-1.05753E-04
 -1       939 4.25945E-02-1.93585E-02-9.73010E-05
 -1       940 4.45738E-02-2.28407E-02-8.94906E-05
 -1       941 4.63342E-02-2.64648E-02-8.23531E-05
 -1       942 4.78574E-02-3.01921E-02-7.57953E-05
 -1       943 4.91309E-02-3.39821E-02-6.95365E-05
 -1       944 5.01485E-02-3.77943E-02-6.30210E-05
 -1       945 5.09113E-02-4.15915E-02-5.53031E-05
 -1       946 5.14282E-02-4.53421E-02-4.48605E-05
 -1       947 5.17163E-02-4.90238E-02-2.98458E-05
 -1       948 5.38548E-04 7.60455E-04-3.74151E-04
 -1       949 1.37248E-03 1.48883E-03-3.68652E-04
 -1       950 2.42978E-03 2.25589E-03-3.36541E-04
 -1       951 3.68718E-03 2.96219E-03-3.10088E-04
 -1       952 5.14222E-03 3.55372E-03-2.92288E-04
 -1       953 6.79737E-03 3.99740E-03-2.78762E-04
 -1       954 8.65086E-03 4.26766E-03-2.67427E-04
 -1       955 1.06952E-02 4.34124E-03-2.57216E-04
 -1       956 1.29173E-02 4.19637E-03-2.47519E-04
 -1       957 1.52997E-02 3.81317E-03-2.37905E-04
 -1       958 1.78206E-02 3.17404E-03-2.28082E-04
 -1       959 2.04550E-02 2.26415E-03-2.17867E-04
 -1       960 2.31750E-02 1.07189E-03-2.07155E-04
 -1       961 2.59505E-02-4.10743E-04-1.95906E-04
 -1       962 2.87493E-02-2.18771E-03-1.84135E-04
 -1       963 3.15381E-02-4.25853E-03-1.71902E-04
 -1       964 3.42826E-02-6.61795E-03-1.59309E-04
 -1       965 3.69484E-02-9.25560E-03-1.46499E-04
 -1       966 3.95017E-02-1.21558E-02-1.33647E-04
 -1       967 4.19099E-02-1.52972E-02-1.20955E-04
 -1       968 4.41425E-02-1.86533E-02-1.08635E-04
 -1       969 4.61723E-02-2.21923E-02-9.68911E-05
 -1       970 4.79763E-02-2.58780E-02-8.58832E-05
 -1       971 4.95364E-02-2.96711E-02-7.56844E-05
 -1       972 5.08409E-02-3.35305E-02-6.62124E-05
 -1       973 5.18847E-02-3.74161E-02-5.71323E-05
 -1       974 5.26697E-02-4.12915E-02-4.77189E-05
 -1       975 5.32049E-02-4.51274E-02-3.66307E-05
 -1       976 5.35069E-02-4.89052E-02-2.20655E-05
 -1       977 6.25185E-04 8.74647E-04-4.22879E-04
 -1       978 1.54245E-03 1.71379E-03-4.12088E-04
 -1       979 2.66576E-03 2.59086E-03-3.76061E-04
 -1       980 3.97829E-03 3.39304E-03-3.48526E-04
 -1       981 5.48664E-03 4.06785E-03-3.31012E-04
 -1       982 7.19857E-03 4.58602E-03-3.17953E-04
 -1       983 9.11435E-03 4.92385E-03-3.06890E-04
 -1       984 1.12270E-02 5.05844E-03-2.96660E-04
 -1       985 1.35232E-02 4.96767E-03-2.86630E-04
 -1       986 1.59849E-02 4.63102E-03-2.76360E-04
 -1       987 1.85894E-02 4.03022E-03-2.65560E-04
 -1       988 2.13107E-02 3.14980E-03-2.54051E-04
 -1       989 2.41198E-02 1.97758E-03-2.41730E-04
 -1       990 2.69850E-02 5.05195E-04-2.28559E-04
 -1       991 2.98729E-02-1.27155E-03-2.14549E-04
 -1       992 3.27489E-02-3.35220E-03-1.99761E-04
 -1       993 3.55772E-02-5.73131E-03-1.84302E-04
 -1       994 3.83221E-02-8.39812E-03-1.68328E-04
 -1       995 4.09488E-02-1.13363E-02-1.52040E-04
 -1       996 4.34235E-02-1.45239E-02-1.35684E-04
 -1       997 4.57152E-02-1.79333E-02-1.19544E-04
 -1       998 4.77964E-02-2.15319E-02-1.03923E-04
 -1       999 4.96440E-02-2.52826E-02-8.91210E-05
 -1      1000 5.12405E-02-2.91450E-02-7.53875E-05
 -1      1001 5.25750E-02-3.30777E-02-6.28577E-05
 -1      1002 5.36434E-02-3.70402E-02-5.14445E-05
 -1      1003 5.44486E-02-4.09969E-02-4.06765E-05
 -1      1004 5.50002E-02-4.49199E-02-2.94271E-05
 -1      1005 5.53146E-02-4.87941E-02-1.59659E-05
 -1      1006 7.24604E-04 9.99642E-04-4.71236E-04
 -1      1007 1.72966E-03 1.95987E-03-4.52576E-04
 -1      1008 2.91437E-03 2.94964E-03-4.12479E-04
 -1      1009 4.27641E-03 3.84482E-03-3.84481E-04
 -1      1010 5.83471E-03 4.59979E-03-3.67905E-04
 -1      1011 7.60200E-03 5.19070E-03-3.55725E-04
 -1      1012 9.57978E-03 5.59550E-03-3.45174E-04
 -1      1013 1.17611E-02 5.79123E-03-3.35085E-04
 -1      1014 1.41325E-02 5.75513E-03-3.24832E-04
 -1      1015 1.66748E-02 5.46587E-03-3.13986E-04
 -1      1016 1.93646E-02 4.90435E-03-3.02274E-04
 -1      1017 2.21747E-02 4.05434E-03-2.89525E-04
 -1      1018 2.50747E-02 2.90305E-03-2.75645E-04
 -1      1019 2.80319E-02 1.44162E-03-2.60595E-04
 -1      1020 3.10113E-02-3.34404E-04-2.44389E-04
 -1      1021 3.39768E-02-2.42467E-03-2.27085E-04
 -1      1022 3.68912E-02-4.82362E-03-2.08796E-04
 -1      1023 3.97175E-02-7.52016E-03-1.89690E-04
 -1      1024 4.24194E-02-1.04974E-02-1.69994E-04
 -1      1025 4.49624E-02-1.37327E-02-1.50001E-04
 -1      1026 4.73145E-02-1.71977E-02-1.30063E-04
 -1      1027 4.94476E-02-2.08586E-02-1.10590E-04
 -1      1028 5.13388E-02-2.46772E-02-9.20246E-05
 -1      1029 5.29709E-02-2.86126E-02-7.48065E-05
 -1      1030 5.43336E-02-3.26221E-02-5.93070E-05
 -1      1031 5.54243E-02-3.66652E-02-4.57182E-05
 -1      1032 5.62470E-02-4.07059E-02-3.38672E-05
 -1      1033 5.68125E-02-4.47179E-02-2.28863E-05
 -1      1034 5.71372E-02-4.86886E-02-1.11255E-05
 -1      1035 8.42716E-04 1.14212E-03-5.18769E-04
 -1      1036 1.93755E-03 2.23611E-03-4.89264E-04
 -1      1037 3.17459E-03 3.33672E-03-4.45256E-04
 -1      1038 4.57927E-03 4.31795E-03-4.17906E-04
 -1      1039 6.18472E-03 5.14875E-03-4.03125E-04
 -1      1040 8.00648E-03 5.81057E-03-3.92223E-04
 -1      1041 1.00464E-02 6.28184E-03-3.82413E-04
 -1      1042 1.22972E-02 6.53903E-03-3.72615E-04
 -1      1043 1.47449E-02 6.55840E-03-3.62236E-04
 -1      1044 1.73694E-02 6.31756E-03-3.50886E-04
 -1      1045 2.01463E-02 5.79645E-03-3.38319E-04
 -1      1046 2.30473E-02 4.97796E-03-3.24382E-04
 -1      1047 2.60406E-02 3.84859E-03-3.08988E-04
 -1      1048 2.90921E-02 2.39897E-03-2.92104E-04
 -1      1049 3.21655E-02 6.24262E-04-2.73740E-04
 -1      1050 3.52230E-02-1.47532E-03-2.53959E-04
 -1      1051 3.82260E-02-3.89416E-03-2.32873E-04
 -1      1052 4.11360E-02-6.62090E-03-2.10661E-04
 -1      1053 4.39154E-02-9.63822E-03-1.87577E-04
 -1      1054 4.65283E-02-1.29227E-02-1.63956E-04
 -1      1055 4.89420E-02-1.64452E-02-1.40223E-04
 -1      1056 5.11276E-02-2.01709E-02-1.16892E-04
 -1      1057 5.30620E-02-2.40608E-02-9.45559E-05
 -1      1058 5.47283E-02-2.80724E-02-7.38517E-05
 -1      1059 5.61171E-02-3.21625E-02-5.54062E-05
 -1      1060 5.72269E-02-3.62895E-02-3.97253E-05
 -1      1061 5.80636E-02-4.04173E-02-2.69905E-05
 -1      1062 5.86397E-02-4.45199E-02-1.66527E-05
 -1      1063 5.89722E-02-4.85870E-02-7.11084E-06
 -1      1064 9.89058E-04 1.31630E-03-5.65160E-04
 -1      1065 2.16815E-03 2.55685E-03-5.21108E-04
 -1      1066 3.44235E-03 3.75480E-03-4.73894E-04
 -1      1067 4.88373E-03 4.81079E-03-4.48987E-04
 -1      1068 6.53498E-03 5.71334E-03-4.36892E-04
 -1      1069 8.41076E-03 6.44427E-03-4.27560E-04
 -1      1070 1.05133E-02 6.98182E-03-4.18737E-04
 -1      1071 1.28348E-02 7.30110E-03-4.09347E-04
 -1      1072 1.53602E-02 7.37699E-03-3.98928E-04
 -1      1073 1.80688E-02 7.18584E-03-3.87137E-04
 -1      1074 2.09348E-02 6.70644E-03-3.73766E-04
 -1      1075 2.39289E-02 5.92073E-03-3.58686E-04
 -1      1076 2.70180E-02 4.81445E-03-3.41823E-04
 -1      1077 3.01665E-02 3.37758E-03-3.23146E-04
 -1      1078 3.33365E-02 1.60491E-03-3.02666E-04
 -1      1079 3.64887E-02-5.03574E-04-2.80441E-04
 -1      1080 3.95830E-02-2.94226E-03-2.56589E-04
 -1      1081 4.25793E-02-5.69959E-03-2.31296E-04
 -1      1082 4.54384E-02-8.75781E-03-2.04835E-04
 -1      1083 4.81232E-02-1.20929E-02-1.77587E-04
 -1      1084 5.05996E-02-1.56748E-02-1.50044E-04
 -1      1085 5.28381E-02-1.94679E-02-1.22828E-04
 -1      1086 5.48151E-02-2.34318E-02-9.66802E-05
 -1      1087 5.65139E-02-2.75230E-02-7.24458E-05
 -1      1088 5.79258E-02-3.16971E-02-5.10217E-05
 -1      1089 5.90508E-02-3.59114E-02-3.32623E-05
 -1      1090 5.98970E-02-4.01292E-02-1.97674E-05
 -1      1091 6.04792E-02-4.43243E-02-1.03926E-05
 -1      1092 6.08161E-02-4.84880E-02-3.50458E-06
 -1      1093 1.17993E-03 1.55874E-03-6.11214E-04
 -1      1094 2.41677E-03 2.94145E-03-5.48338E-04
 -1      1095 3.70897E-03 4.19803E-03-4.98064E-04
 -1      1096 5.18781E-03 5.32132E-03-4.78778E-04
 -1      1097 6.88336E-03 6.29106E-03-4.69208E-04
 -1      1098 8.81379E-03 7.09005E-03-4.62019E-04
 -1      1099 1.09800E-02 7.69416E-03-4.54288E-04
 -1      1100 1.33736E-02 8.07654E-03-4.45417E-04
 -1      1101 1.59785E-02 8.21033E-03-4.35018E-04
 -1      1102 1.87730E-02 8.07036E-03-4.22836E-04
 -1      1103 2.17305E-02 7.63418E-03-4.08705E-04
 -1      1104 2.48201E-02 6.88269E-03-3.92522E-04
 -1      1105 2.80076E-02 5.80076E-03-3.74227E-04
 -1      1106 3.12558E-02 4.37774E-03-3.53794E-04
 -1      1107 3.45253E-02 2.60793E-03-3.31233E-04
 -1      1108 3.77752E-02 4.91065E-04-3.06600E-04
 -1      1109 4.09637E-02-1.96732E-03-2.80008E-04
 -1      1110 4.40490E-02-4.75550E-03-2.51651E-04
 -1      1111 4.69903E-02-7.85537E-03-2.21823E-04
 -1      1112 4.97487E-02-1.12423E-02-1.90940E-04
 -1      1113 5.22892E-02-1.48855E-02-1.59565E-04
 -1      1114 5.45810E-02-1.87481E-02-1.28423E-04
 -1      1115 5.65998E-02-2.27888E-02-9.84077E-05
 -1      1116 5.83290E-02-2.69628E-02-7.05741E-05
 -1      1117 5.97605E-02-3.12243E-02-4.61029E-05
 -1      1118 6.08958E-02-3.55293E-02-2.62220E-05
 -1      1119 6.17455E-02-3.98400E-02-1.20168E-05
 -1      1120 6.23280E-02-4.41297E-02-3.85145E-06
 -1      1121 6.26650E-02-4.83902E-02 2.30793E-09
 -1      1122 0.00000E+00 0.00000E+00 0.00000E+00
 -1      1123 0.00000E+00 0.00000E+00 0.00000E+00
 -1      1124 0.00000E+00 0.00000E+00 0.00000E+00
 -1      1125 0.00000E+00 0.00000E+00 0.00000E+00
 -1      1126 0.00000E+00 0.00000E+00 0.00000E+00
 -1      1127 0.00000E+00 0.00000E+00 0.00000E+00
 -1      1128 0.00000E+00 0.00000E+00 0.00000E+00
 -1      1129 0.00000E+00 0.00000E+00 0.00000E+00
 -1      1130 0.00000E+00 0.00000E+00 0.00000E+00
 -1      1131 0.00000E+00 0.00000E+00 0.00000E+00
 -1      1132 0.00000E+00 0.00000E+00 0.00000E+00
 -1      1133 0.00000E+00 0.00000E+00 0.00000E+00
 -1      1134 0.00000E+00 0.00000E+00 0.00000E+00
 -1      1135 0.00000E+00 0.00000E+00 0.00000E+00
 -1      1136 0.00000E+00 0.00000E+00 0.00000E+00
 -1      1137 0.00000E+00 0.00000E+00 0.00000E+00
 -1      1138 0.00000E+00 0.00000E+00 0.00000E+00
 -1      1139 0.00000E+00 0.00000E+00 0.00000E+00
 -1      1140 0.00000E+00 0.00000E+00 0.00000E+00
 -1      1141 0.00000E+00 0.00000E+00 0.00000E+00
 -1      1142 0.00000E+00 0.00000E+00 0.00000E+00
 -1      1143 0.00000E+00 0.00000E+00 0.00000E+00
 -1      1144 0.00000E+00 0.00000E+00 0.00000E+00
 -1      1145 0.00000E+00 0.00000E+00 0.00000E+00
 -1      1146 0.00000E+00 0.00000E+00 0.00000E+00
 -1      1147 0.00000E+00 0.00000E+00 0.00000E+00
 -1      1148 0.00000E+00 0.00000E+00 0.00000E+00
 -1      1149 0.00000E+00 0.00000E+00 0.00000E+00
 -1      1150 0.00000E+00 0.00000E+00 0.00000E+00
 -1      1151 0.00000E+00 0.00000E+00 0.00000E+00
 -1      1152 0.00000E+00 0.00000E+00 0.00000E+00
 -1      1153 0.00000E+00 0.00000E+00 0.00000E+00
 -1      1154 0.00000E+00 0.00000E+00 0.00000E+00
 -1      1155 0.00000E+00 0.00000E+00 0.00000E+00
 -1      1156 0.00000E+00 0.00000E+00 0.00000E+00
 -1      1157 0.00000E+00 0.00000E+00 0.00000E+00
 -1      1158 0.00000E+00 0.00000E+00 0.00000E+00
 -1      1159 0.00000E+00 0.00000E+00 0.00000E+00
 -1      1160 0.00000E+00 0.00000E+00 0.00000E+00
 -1      1161 0.00000E+00 0.00000E+00 0.00000E+00
 -1      1162 0.00000E+00 0.00000E+00 0.00000E+00
 -1      1163 0.00000E+00 0.00000E+00 0.00000E+00
 -1      1164 0.00000E+00 0.00000E+00 0.00000E+00
 -1      1165 0.00000E+00 0.00000E+00 0.00000E+00
 -1      1166 0.00000E+00 0.00000E+00 0.00000E+00
 -1      1167 0.00000E+00 0.00000E+00 0.00000E+00
 -1      1168 0.00000E+00 0.00000E+00 0.00000E+00
 -1      1169 0.00000E+00 0.00000E+00 0.00000E+00
 -1      1170 0.00000E+00 0.00000E+00 0.00000E+00
 -1      1171 0.00000E+00 0.00000E+00 0.00000E+00
 -1      1172 0.00000E+00 0.00000E+00 0.00000E+00
 -1      1173 0.00000E+00 0.00000E+00 0.00000E+00
 -1      1174 0.00000E+00 0.00000E+00 0.00000E+00
 -1      1175 0.00000E+00 0.00000E+00 0.00000E+00
 -1      1176 0.00000E+00 0.00000E+00 0.00000E+00
 -1      1177 0.00000E+00 0.00000E+00 0.00000E+00
 -1      1178 0.00000E+00 0.00000E+00 0.00000E+00
 -1      1179 0.00000E+00 0.00000E+00 0.00000E+00
 -1      1180 0.00000E+00 0.00000E+00 0.00000E+00
 -1      1181 0.00000E+00 0.00000E+00 0.00000E+00
 -1      1182 0.00000E+00 0.00000E+00 0.00000E+00
 -1      1183 0.00000E+00 0.00000E+00 0.00000E+00
 -1      1184 0.00000E+00 0.00000E+00 0.00000E+00
 -1      1185 0.00000E+00 0.00000E+00 0.00000E+00
 -1      1186 0.00000E+00 0.00000E+00 0.00000E+00
 -1      1187 0.00000E+00 0.00000E+00 0.00000E+00
 -1      1188 0.00000E+00 0.00000E+00 0.00000E+00
 -1      1189 0.00000E+00 0.00000E+00 0.00000E+00
 -1      1190 0.00000E+00 0.00000E+00 0.00000E+00
 -1      1191 0.00000E+00 0.00000E+00 0.00000E+00
 -1      1192 0.00000E+00 0.00000E+00 0.00000E+00
 -1      1193 0.00000E+00 0.00000E+00 0.00000E+00
 -1      1194 0.00000E+00 0.00000E+00 0.00000E+00
 -1      1195 0.00000E+00 0.00000E+00 0.00000E+00
 -1      1196 0.00000E+00 0.00000E+00 0.00000E+00
 -1      1197 0.00000E+00 0.00000E+00 0.00000E+00
 -1      1198 0.00000E+00 0.00000E+00 0.00000E+00
 -1      1199 0.00000E+00 0.00000E+00 0.00000E+00
 -1      1200 0.00000E+00 0.00000E+00 0.00000E+00
 -1      1201 0.00000E+00 0.00000E+00 0.00000E+00
 -1      1202 0.00000E+00 0.00000E+00 0.00000E+00
 -1      1203 0.00000E+00 0.00000E+00 0.00000E+00
 -1      1204 0.00000E+00 0.00000E+00 0.00000E+00
 -1      1205 0.00000E+00 0.00000E+00 0.00000E+00
 -1      1206 0.00000E+00 0.00000E+00 0.00000E+00
 -1      1207 0.00000E+00 0.00000E+00 0.00000E+00
 -1      1208 0.00000E+00 0.00000E+00 0.00000E+00
 -1      1209 0.00000E+00 0.00000E+00 0.00000E+00
 -1      1210 0.00000E+00 0.00000E+00 0.00000E+00
 -1      1211 0.00000E+00 0.00000E+00 0.00000E+00
 -1      1212 0.00000E+00 0.00000E+00 0.00000E+00
 -1      1213 0.00000E+00 0.00000E+00 0.00000E+00
 -1      1214 0.00000E+00 0.00000E+00 0.00000E+00
 -1      1215 0.00000E+00 0.00000E+00 0.00000E+00
 -1      1216 0.00000E+00 0.00000E+00 0.00000E+00
 -1      1217 0.00000E+00 0.00000E+00 0.00000E+00
 -1      1218 0.00000E+00 0.00000E+00 0.00000E+00
 -1      1219 0.00000E+00 0.00000E+00 0.00000E+00
 -1      1220 0.00000E+00 0.00000E+00 0.00000E+00
 -1      1221 0.00000E+00 0.00000E+00 0.00000E+00
 -1      1222 0.00000E+00 0.00000E+00 0.00000E+00
 -1      1223 0.00000E+00 0.00000E+00 0.00000E+00
 -1      1224 0.00000E+00 0.00000E+00 0.00000E+00
 -1      1225 0.00000E+00 0.00000E+00 0.00000E+00
 -1      1226 0.00000E+00 0.00000E+00 0.00000E+00
 -1      1227 0.00000E+00 0.00000E+00 0.00000E+00
 -1      1228 0.00000E+00 0.00000E+00 0.00000E+00
 -1      1229 0.00000E+00 0.00000E+00 0.00000E+00
 -1      1230 0.00000E+00 0.00000E+00 0.00000E+00
 -1      1231 0.00000E+00 0.00000E+00 0.00000E+00
 -1      1232 0.00000E+00 0.00000E+00 0.00000E+00
 -1      1233 0.00000E+00 0.00000E+00 0.00000E+00
 -1      1234 0.00000E+00 0.00000E+00 0.00000E+00
 -1      1235 0.00000E+00 0.00000E+00 0.00000E+00
 -1      1236 0.00000E+00 0.00000E+00 0.00000E+00
 -1      1237 0.00000E+00 0.00000E+00 0.00000E+00
 -1      1238 0.00000E+00 0.00000E+00 0.00000E+00
 -1      1239 0.00000E+00 0.00000E+00 0.00000E+00
 -1      1240 0.00000E+00 0.00000E+00 0.00000E+00
 -1      1241 0.00000E+00 0.00000E+00 0.00000E+00
 -1      1242 0.00000E+00 0.00000E+00 0.00000E+00
 -1      1243 0.00000E+00 0.00000E+00 0.00000E+00
 -1      1244 0.00000E+00 0.00000E+00 0.00000E+00
 -1      1245 0.00000E+00 0.00000E+00 0.00000E+00
 -1      1246 0.00000E+00 0.00000E+00 0.00000E+00
 -1      1247 0.00000E+00 0.00000E+00 0.00000E+00
 -1      1248 0.00000E+00 0.00000E+00 0.00000E+00
 -1      1249 0.00000E+00 0.00000E+00 0.00000E+00
 -1      1250 0.00000E+00 0.00000E+00 0.00000E+00
 -1      1251 0.00000E+00 0.00000E+00 0.00000E+00
 -1      1252 0.00000E+00 0.00000E+00 0.00000E+00
 -1      1253 0.00000E+00 0.00000E+00 0.00000E+00
 -1      1254 0.00000E+00 0.00000E+00 0.00000E+00
 -1      1255 0.00000E+00 0.00000E+00 0.00000E+00
 -1      1256 0.00000E+00 0.00000E+00 0.00000E+00
 -1      1257 0.00000E+00 0.00000E+00 0.00000E+00
 -1      1258 0.00000E+00 0.00000E+00 0.00000E+00
 -1      1259 0.00000E+00 0.00000E+00 0.00000E+00
 -1      1260 0.00000E+00 0.00000E+00 0.00000E+00
 -1      1261 0.00000E+00 0.00000E+00 0.00000E+00
 -1      1262 0.00000E+00 0.00000E+00 0.00000E+00
 -1      1263 0.00000E+00 0.00000E+00 0.00000E+00
 -1      1264 0.00000E+00 0.00000E+00 0.00000E+00
 -1      1265 0.00000E+00 0.00000E+00 0.00000E+00
 -1      1266 0.00000E+00 0.00000E+00 0.00000E+00
 -1      1267 0.00000E+00 0.00000E+00 0.00000E+00
 -1      1268 0.00000E+00 0.00000E+00 0.00000E+00
 -1      1269 0.00000E+00 0.00000E+00 0.00000E+00
 -1      1270 0.00000E+00 0.00000E+00 0.00000E+00
 -1      1271 0.00000E+00 0.00000E+00 0.00000E+00
 -1      1272 0.00000E+00 0.00000E+00 0.00000E+00
 -1      1273 0.00000E+00 0.00000E+00 0.00000E+00
 -1      1274 0.00000E+00 0.00000E+00 0.00000E+00
 -1      1275 0.00000E+00 0.00000E+00 0.00000E+00
 -1      1276 0.00000E+00 0.00000E+00 0.00000E+00
 -1      1277 0.00000E+00 0.00000E+00 0.00000E+00
 -1      1278 0.00000E+00 0.00000E+00 0.00000E+00
 -1      1279 0.00000E+00 0.00000E+00 0.00000E+00
 -1      1280 0.00000E+00 0.00000E+00 0.00000E+00
 -1      1281 0.00000E+00 0.00000E+00 0.00000E+00
 -1      1282 0.00000E+00 0.00000E+00 0.00000E+00
 -1      1283 0.00000E+00 0.00000E+00 0.00000E+00
 -1      1284 0.00000E+00 0.00000E+00 0.00000E+00
 -1      1285 0.00000E+00 0.00000E+00 0.00000E+00
 -1      1286 0.00000E+00 0.00000E+00 0.00000E+00
 -1      1287 0.00000E+00 0.00000E+00 0.00000E+00
 -1      1288 0.00000E+00 0.00000E+00 0.00000E+00
 -1      1289 0.00000E+00 0.00000E+00 0.00000E+00
 -1      1290 0.00000E+00 0.00000E+00 0.00000E+00
 -1      1291 0.00000E+00 0.00000E+00 0.00000E+00
 -1      1292 0.00000E+00 0.00000E+00 0.00000E+00
 -1      1293 0.00000E+00 0.00000E+00 0.00000E+00
 -1      1294 0.00000E+00 0.00000E+00 0.00000E+00
 -1      1295 0.00000E+00 0.00000E+00 0.00000E+00
 -1      1296 0.00000E+00 0.00000E+00 0.00000E+00
 -1      1297 0.00000E+00 0.00000E+00 0.00000E+00
 -1      1298 0.00000E+00 0.00000E+00 0.00000E+00
 -1      1299 0.00000E+00 0.00000E+00 0.00000E+00
 -1      1300 0.00000E+00 0.00000E+00 0.00000E+00
 -1      1301 0.00000E+00 0.00000E+00 0.00000E+00
 -1      1302 0.00000E+00 0.00000E+00 0.00000E+00
 -1      1303 0.00000E+00 0.00000E+00 0.00000E+00
 -1      1304 0.00000E+00 0.00000E+00 0.00000E+00
 -1      1305 0.00000E+00 0.00000E+00 0.00000E+00
 -1      1306 0.00000E+00 0.00000E+00 0.00000E+00
 -1      1307 0.00000E+00 0.00000E+00 0.00000E+00
 -1      1308 0.00000E+00 0.00000E+00 0.00000E+00
 -1      1309 0.00000E+00 0.00000E+00 0.00000E+00
 -1      1310 0.00000E+00 0.00000E+00 0.00000E+00
 -1      1311 0.00000E+00 0.00000E+00 0.00000E+00
 -1      1312 0.00000E+00 0.00000E+00 0.00000E+00
 -1      1313 0.00000E+00 0.00000E+00 0.00000E+00
 -1      1314 0.00000E+00 0.00000E+00 0.00000E+00
 -1      1315 0.00000E+00 0.00000E+00 0.00000E+00
 -1      1316 0.00000E+00 0.00000E+00 0.00000E+00
 -1      1317 0.00000E+00 0.00000E+00 0.00000E+00
 -1      1318 0.00000E+00 0.00000E+00 0.00000E+00
 -1      1319 0.00000E+00 0.00000E+00 0.00000E+00
 -1      1320 0.00000E+00 0.00000E+00 0.00000E+00
 -1      1321 0.00000E+00 0.00000E+00 0.00000E+00
 -1      1322 0.00000E+00 0.00000E+00 0.00000E+00
 -1      1323 0.00000E+00 0.00000E+00 0.00000E+00
 -1      1324 0.00000E+00 0.00000E+00 0.00000E+00
 -1      1325 0.00000E+00 0.00000E+00 0.00000E+00
 -1      1326 0.00000E+00 0.00000E+00 0.00000E+00
 -1      1327 0.00000E+00 0.00000E+00 0.00000E+00
 -1      1328 0.00000E+00 0.00000E+00 0.00000E+00
 -1      1329 0.00000E+00 0.00000E+00 0.00000E+00
 -1      1330 0.00000E+00 0.00000E+00 0.00000E+00
 -1      1331 0.00000E+00 0.00000E+00 0.00000E+00
 -1      1332 0.00000E+00 0.00000E+00 0.00000E+00
 -1      1333 0.00000E+00 0.00000E+00 0.00000E+00
 -1      1334 0.00000E+00 0.00000E+00 0.00000E+00
 -1      1335 0.00000E+00 0.00000E+00 0.00000E+00
 -1      1336 0.00000E+00 0.00000E+00 0.00000E+00
 -1      1337 0.00000E+00 0.00000E+00 0.00000E+00
 -1      1338 0.00000E+00 0.00000E+00 0.00000E+00
 -1      1339 0.00000E+00 0.00000E+00 0.00000E+00
 -1      1340 0.00000E+00 0.00000E+00 0.00000E+00
 -1      1341 0.00000E+00 0.00000E+00 0.00000E+00
 -1      1342 0.00000E+00 0.00000E+00 0.00000E+00
 -1      1343 0.00000E+00 0.00000E+00 0.00000E+00
 -1      1344 0.00000E+00 0.00000E+00 0.00000E+00
 -1      1345 0.00000E+00 0.00000E+00 0.00000E+00
 -1      1346 0.00000E+00 0.00000E+00 0.00000E+00
 -1      1347 0.00000E+00 0.00000E+00 0.00000E+00
 -1      1348 0.00000E+00 0.00000E+00 0.00000E+00
 -1      1349 0.00000E+00 0.00000E+00 0.00000E+00
 -1      1350 0.00000E+00 0.00000E+00 0.00000E+00
 -1      1351 0.00000E+00 0.00000E+00 0.00000E+00
 -1      1352 0.00000E+00 0.00000E+00 0.00000E+00
 -1      1353 0.00000E+00 0.00000E+00 0.00000E+00
 -1      1354 0.00000E+00 0.00000E+00 0.00000E+00
 -1      1355 0.00000E+00 0.00000E+00 0.00000E+00
 -1      1356 0.00000E+00 0.00000E+00 0.00000E+00
 -1      1357 0.00000E+00 0.00000E+00 0.00000E+00
 -1      1358 0.00000E+00 0.00000E+00 0.00000E+00
 -1      1359 0.00000E+00 0.00000E+00 0.00000E+00
 -1      1360 0.00000E+00 0.00000E+00 0.00000E+00
 -1      1361 0.00000E+00 0.00000E+00 0.00000E+00
 -1      1362 0.00000E+00 0.00000E+00 0.00000E+00
 -1      1363 0.00000E+00 0.00000E+00 0.00000E+00
 -1      1364 0.00000E+00 0.00000E+00 0.00000E+00
 -1      1365 0.00000E+00 0.00000E+00 0.00000E+00
 -1      1366 0.00000E+00 0.00000E+00 0.00000E+00
 -1      1367 0.00000E+00 0.00000E+00 0.00000E+00
 -1      1368 0.00000E+00 0.00000E+00 0.00000E+00
 -1      1369 0.00000E+00 0.00000E+00 0.00000E+00
 -1      1370 0.00000E+00 0.00000E+00 0.00000E+00
 -1      1371 0.00000E+00 0.00000E+00 0.00000E+00
 -1      1372 0.00000E+00 0.00000E+00 0.00000E+00
 -1      1373 0.00000E+00 0.00000E+00 0.00000E+00
 -1      1374 0.00000E+00 0.00000E+00 0.00000E+00
 -1      1375 0.00000E+00 0.00000E+00 0.00000E+00
 -1      1376 0.00000E+00 0.00000E+00 0.00000E+00
 -1      1377 0.00000E+00 0.00000E+00 0.00000E+00
 -1      1378 0.00000E+00 0.00000E+00 0.00000E+00
 -1      1379 0.00000E+00 0.00000E+00 0.00000E+00
 -1      1380 0.00000E+00 0.00000E+00 0.00000E+00
 -1      1381 0.00000E+00 0.00000E+00 0.00000E+00
 -1      1382 0.00000E+00 0.00000E+00 0.00000E+00
 -1      1383 0.00000E+00 0.00000E+00 0.00000E+00
 -1      1384 0.00000E+00 0.00000E+00 0.00000E+00
 -1      1385 0.00000E+00 0.00000E+00 0.00000E+00
 -1      1386 0.00000E+00 0.00000E+00 0.00000E+00
 -1      1387 0.00000E+00 0.00000E+00 0.00000E+00
 -1      1388 0.00000E+00 0.00000E+00 0.00000E+00
 -1      1389 0.00000E+00 0.00000E+00 0.00000E+00
 -1      1390 0.00000E+00 0.00000E+00 0.00000E+00
 -1      1391 0.00000E+00 0.00000E+00 0.00000E+00
 -1      1392 0.00000E+00 0.00000E+00 0.00000E+00
 -1      1393 0.00000E+00 0.00000E+00 0.00000E+00
 -1      1394 0.00000E+00 0.00000E+00 0.00000E+00
 -1      1395 0.00000E+00 0.00000E+00 0.00000E+00
 -1      1396 0.00000E+00 0.00000E+00 0.00000E+00
 -1      1397 0.00000E+00 0.00000E+00 0.00000E+00
 -1      1398 0.00000E+00 0.00000E+00 0.00000E+00
 -1      1399 0.00000E+00 0.00000E+00 0.00000E+00
 -1      1400 0.00000E+00 0.00000E+00 0.00000E+00
 -1      1401 0.00000E+00 0.00000E+00 0.00000E+00
 -1      1402 0.00000E+00 0.00000E+00 0.00000E+00
 -1      1403 0.00000E+00 0.00000E+00 0.00000E+00
 -1      1404 0.00000E+00 0.00000E+00 0.00000E+00
 -1      1405 0.00000E+00 0.00000E+00 0.00000E+00
 -1      1406 0.00000E+00 0.00000E+00 0.00000E+00
 -1      1407 0.00000E+00 0.00000E+00 0.00000E+00
 -1      1408 0.00000E+00 0.00000E+00 0.00000E+00
 -1      1409 0.00000E+00 0.00000E+00 0.00000E+00
 -1      1410 0.00000E+00 0.00000E+00 0.00000E+00
 -1      1411 0.00000E+00 0.00000E+00 0.00000E+00
 -1      1412 1.48010E-03 1.94039E-03-5.29956E-04
 -1      1413 1.50494E-03 1.90604E-03-3.96837E-04
 -1      1414 1.52305E-03 1.88867E-03-2.75510E-04
 -1      1415 1.53484E-03 1.87985E-03-1.62221E-04
 -1      1416 1.54063E-03 1.87609E-03-5.35692E-05
 -1      1417 1.54063E-03 1.87609E-03 5.35692E-05
 -1      1418 1.53484E-03 1.87985E-03 1.62221E-04
 -1      1419 1.52305E-03 1.88867E-03 2.75510E-04
 -1      1420 1.50494E-03 1.90604E-03 3.96837E-04
 -1      1421 1.48010E-03 1.94039E-03 5.29956E-04
 -1      1422 2.65777E-03 3.38375E-03-4.76000E-04
 -1      1423 2.66982E-03 3.37934E-03-3.79350E-04
 -1      1424 2.68041E-03 3.36975E-03-2.74926E-04
 -1      1425 2.68809E-03 3.36174E-03-1.66295E-04
 -1      1426 2.69209E-03 3.35744E-03-5.56317E-05
 -1      1427 2.69209E-03 3.35744E-03 5.56317E-05
 -1      1428 2.68809E-03 3.36174E-03 1.66295E-04
 -1      1429 2.68041E-03 3.36975E-03 2.74926E-04
 -1      1430 2.66982E-03 3.37934E-03 3.79350E-04
 -1      1431 2.65777E-03 3.38375E-03 4.76000E-04
 -1      1432 3.98665E-03 4.66648E-03-4.26406E-04
 -1      1433 3.99637E-03 4.67275E-03-3.33175E-04
 -1      1434 4.00407E-03 4.67643E-03-2.39479E-04
 -1      1435 4.00942E-03 4.67786E-03-1.44428E-04
 -1      1436 4.01216E-03 4.67822E-03-4.82777E-05
 -1      1437 4.01216E-03 4.67822E-03 4.82777E-05
 -1      1438 4.00942E-03 4.67786E-03 1.44428E-04
 -1      1439 4.00407E-03 4.67643E-03 2.39479E-04
 -1      1440 3.99637E-03 4.67275E-03 3.33175E-04
 -1      1441 3.98665E-03 4.66648E-03 4.26406E-04
 -1      1442 5.49973E-03 5.84408E-03-4.13537E-04
 -1      1443 5.51032E-03 5.84417E-03-3.21324E-04
 -1      1444 5.51853E-03 5.84521E-03-2.29316E-04
 -1      1445 5.52412E-03 5.84634E-03-1.37530E-04
 -1      1446 5.52694E-03 5.84701E-03-4.58367E-05
 -1      1447 5.52694E-03 5.84701E-03 4.58367E-05
 -1      1448 5.52412E-03 5.84634E-03 1.37530E-04
 -1      1449 5.51853E-03 5.84521E-03 2.29316E-04
 -1      1450 5.51032E-03 5.84417E-03 3.21324E-04
 -1      1451 5.49973E-03 5.84408E-03 4.13537E-04
 -1      1452 7.24252E-03 6.87595E-03-4.08910E-04
 -1      1453 7.25428E-03 6.87464E-03-3.18100E-04
 -1      1454 7.26322E-03 6.87370E-03-2.27200E-04
 -1      1455 7.26924E-03 6.87315E-03-1.36294E-04
 -1      1456 7.27227E-03 6.87291E-03-4.54249E-05
 -1      1457 7.27227E-03 6.87291E-03 4.54249E-05
 -1      1458 7.26924E-03 6.87315E-03 1.36294E-04
 -1      1459 7.26322E-03 6.87370E-03 2.27200E-04
 -1      1460 7.25428E-03 6.87464E-03 3.18100E-04
 -1      1461 7.24252E-03 6.87595E-03 4.08910E-04
 -1      1462 9.22947E-03 7.74200E-03-4.05049E-04
 -1      1463 9.24180E-03 7.73936E-03-3.15090E-04
 -1      1464 9.25118E-03 7.73750E-03-2.25100E-04
 -1      1465 9.25749E-03 7.73629E-03-1.35077E-04
 -1      1466 9.26065E-03 7.73569E-03-4.50284E-05
 -1      1467 9.26065E-03 7.73569E-03 4.50284E-05
 -1      1468 9.25749E-03 7.73629E-03 1.35077E-04
 -1      1469 9.25118E-03 7.73750E-03 2.25100E-04
 -1      1470 9.24180E-03 7.73936E-03 3.15090E-04
 -1      1471 9.22947E-03 7.74200E-03 4.05049E-04
 -1      1472 1.14613E-02 8.41297E-03-3.99793E-04
 -1      1473 1.14740E-02 8.40964E-03-3.11040E-04
 -1      1474 1.14835E-02 8.40715E-03-2.22211E-04
 -1      1475 1.14900E-02 8.40551E-03-1.33340E-04
 -1      1476 1.14932E-02 8.40470E-03-4.44489E-05
 -1      1477 1.14932E-02 8.40470E-03 4.44489E-05
 -1      1478 1.14900E-02 8.40551E-03 1.33340E-04
 -1      1479 1.14835E-02 8.40715E-03 2.22211E-04
 -1      1480 1.14740E-02 8.40964E-03 3.11040E-04
 -1      1481 1.14613E-02 8.41297E-03 3.99793E-04
 -1      1482 1.39287E-02 8.85940E-03-3.93039E-04
 -1      1483 1.39415E-02 8.85548E-03-3.05775E-04
 -1      1484 1.39511E-02 8.85254E-03-2.18452E-04
 -1      1485 1.39575E-02 8.85058E-03-1.31086E-04
 -1      1486 1.39607E-02 8.84960E-03-4.36977E-05
 -1      1487 1.39607E-02 8.84960E-03 4.36977E-05
 -1      1488 1.39575E-02 8.85058E-03 1.31086E-04
 -1      1489 1.39511E-02 8.85254E-03 2.18452E-04
 -1      1490 1.39415E-02 8.85548E-03 3.05775E-04
 -1      1491 1.39287E-02 8.85940E-03 3.93039E-04
 -1      1492 1.66150E-02 9.05233E-03-3.84615E-04
 -1      1493 1.66277E-02 9.04795E-03-2.99221E-04
 -1      1494 1.66372E-02 9.04465E-03-2.13766E-04
 -1      1495 1.66436E-02 9.04243E-03-1.28274E-04
 -1      1496 1.66468E-02 9.04132E-03-4.27602E-05
 -1      1497 1.66468E-02 9.04132E-03 4.27602E-05
 -1      1498 1.66436E-02 9.04243E-03 1.28274E-04
 -1      1499 1.66372E-02 9.04465E-03 2.13766E-04
 -1      1500 1.66277E-02 9.04795E-03 2.99221E-04
 -1      1501 1.66150E-02 9.05233E-03 3.84615E-04
 -1      1502 1.94975E-02 8.96499E-03-3.74383E-04
 -1      1503 1.95099E-02 8.96026E-03-2.91259E-04
 -1      1504 1.95193E-02 8.95667E-03-2.08078E-04
 -1      1505 1.95255E-02 8.95426E-03-1.24860E-04
 -1      1506 1.95286E-02 8.95305E-03-4.16221E-05
 -1      1507 1.95286E-02 8.95305E-03 4.16221E-05
 -1      1508 1.95255E-02 8.95426E-03 1.24860E-04
 -1      1509 1.95193E-02 8.95667E-03 2.08078E-04
 -1      1510 1.95099E-02 8.96026E-03 2.91259E-04
 -1      1511 1.94975E-02 8.96499E-03 3.74383E-04
 -1      1512 2.25484E-02 8.57353E-03-3.62248E-04
 -1      1513 2.25605E-02 8.56856E-03-2.81817E-04
 -1      1514 2.25696E-02 8.56477E-03-2.01332E-04
 -1      1515 2.25757E-02 8.56222E-03-1.20812E-04
 -1      1516 2.25787E-02 8.56094E-03-4.02726E-05
 -1      1517 2.25787E-02 8.56094E-03 4.02726E-05
 -1      1518 2.25757E-02 8.56222E-03 1.20812E-04
 -1      1519 2.25696E-02 8.56477E-03 2.01332E-04
 -1      1520 2.25605E-02 8.56856E-03 2.81817E-04
 -1      1521 2.25484E-02 8.57353E-03 3.62248E-04
 -1      1522 2.57358E-02 7.85776E-03-3.48152E-04
 -1      1523 2.57474E-02 7.85265E-03-2.70849E-04
 -1      1524 2.57562E-02 7.84875E-03-1.93496E-04
 -1      1525 2.57620E-02 7.84613E-03-1.16109E-04
 -1      1526 2.57650E-02 7.84480E-03-3.87050E-05
 -1      1527 2.57650E-02 7.84480E-03 3.87050E-05
 -1      1528 2.57620E-02 7.84613E-03 1.16109E-04
 -1      1529 2.57562E-02 7.84875E-03 1.93496E-04
 -1      1530 2.57474E-02 7.85265E-03 2.70849E-04
 -1      1531 2.57358E-02 7.85776E-03 3.48152E-04
 -1      1532 2.90239E-02 6.80165E-03-3.32057E-04
 -1      1533 2.90351E-02 6.79652E-03-2.58327E-04
 -1      1534 2.90435E-02 6.79259E-03-1.84549E-04
 -1      1535 2.90490E-02 6.78994E-03-1.10740E-04
 -1      1536 2.90518E-02 6.78861E-03-3.69152E-05
 -1      1537 2.90518E-02 6.78861E-03 3.69152E-05
 -1      1538 2.90490E-02 6.78994E-03 1.10740E-04
 -1      1539 2.90435E-02 6.79259E-03 1.84549E-04
 -1      1540 2.90351E-02 6.79652E-03 2.58327E-04
 -1      1541 2.90239E-02 6.80165E-03 3.32057E-04
 -1      1542 3.23742E-02 5.39385E-03-3.13947E-04
 -1      1543 3.23849E-02 5.38882E-03-2.44237E-04
 -1      1544 3.23928E-02 5.38495E-03-1.74482E-04
 -1      1545 3.23981E-02 5.38233E-03-1.04699E-04
 -1      1546 3.24007E-02 5.38102E-03-3.49013E-05
 -1      1547 3.24007E-02 5.38102E-03 3.49013E-05
 -1      1548 3.23981E-02 5.38233E-03 1.04699E-04
 -1      1549 3.23928E-02 5.38495E-03 1.74482E-04
 -1      1550 3.23849E-02 5.38882E-03 2.44237E-04
 -1      1551 3.23742E-02 5.39385E-03 3.13947E-04
 -1      1552 3.57458E-02 3.62817E-03-2.93827E-04
 -1      1553 3.57558E-02 3.62335E-03-2.28584E-04
 -1      1554 3.57633E-02 3.61964E-03-1.63299E-04
 -1      1555 3.57682E-02 3.61713E-03-9.79884E-05
 -1      1556 3.57707E-02 3.61586E-03-3.26642E-05
 -1      1557 3.57707E-02 3.61586E-03 3.26642E-05
 -1      1558 3.57682E-02 3.61713E-03 9.79884E-05
 -1      1559 3.57633E-02 3.61964E-03 1.63299E-04
 -1      1560 3.57558E-02 3.62335E-03 2.28584E-04
 -1      1561 3.57458E-02 3.62817E-03 2.93827E-04
 -1      1562 3.90958E-02 1.50402E-03-2.71739E-04
 -1      1563 3.91052E-02 1.49955E-03-2.11400E-04
 -1      1564 3.91122E-02 1.49609E-03-1.51023E-04
 -1      1565 3.91168E-02 1.49374E-03-9.06218E-05
 -1      1566 3.91192E-02 1.49255E-03-3.02085E-05
 -1      1567 3.91192E-02 1.49255E-03 3.02085E-05
 -1      1568 3.91168E-02 1.49374E-03 9.06218E-05
 -1      1569 3.91122E-02 1.49609E-03 1.51023E-04
 -1      1570 3.91052E-02 1.49955E-03 2.11400E-04
 -1      1571 3.90958E-02 1.50402E-03 2.71739E-04
 -1      1572 4.23809E-02-9.73161E-04-2.47774E-04
 -1      1573 4.23896E-02-9.77159E-04-1.92757E-04
 -1      1574 4.23961E-02-9.80268E-04-1.37704E-04
 -1      1575 4.24004E-02-9.82384E-04-8.26301E-05
 -1      1576 4.24025E-02-9.83453E-04-2.75445E-05
 -1      1577 4.24025E-02-9.83453E-04 2.75445E-05
 -1      1578 4.24004E-02-9.82384E-04 8.26301E-05
 -1      1579 4.23961E-02-9.80268E-04 1.37704E-04
 -1      1580 4.23896E-02-9.77159E-04 1.92757E-04
 -1      1581 4.23809E-02-9.73161E-04 2.47774E-04
 -1      1582 4.55573E-02-3.79157E-03-2.22093E-04
 -1      1583 4.55653E-02-3.79496E-03-1.72780E-04
 -1      1584 4.55713E-02-3.79762E-03-1.23434E-04
 -1      1585 4.55752E-02-3.79944E-03-7.40674E-05
 -1      1586 4.55771E-02-3.80036E-03-2.46902E-05
 -1      1587 4.55771E-02-3.80036E-03 2.46902E-05
 -1      1588 4.55752E-02-3.79944E-03 7.40674E-05
 -1      1589 4.55713E-02-3.79762E-03 1.23434E-04
 -1      1590 4.55653E-02-3.79496E-03 1.72780E-04
 -1      1591 4.55573E-02-3.79157E-03 2.22093E-04
 -1      1592 4.85825E-02-6.93278E-03-1.94950E-04
 -1      1593 4.85898E-02-6.93543E-03-1.51667E-04
 -1      1594 4.85952E-02-6.93755E-03-1.08353E-04
 -1      1595 4.85987E-02-6.93900E-03-6.50185E-05
 -1      1596 4.86005E-02-6.93974E-03-2.16739E-05
 -1      1597 4.86005E-02-6.93974E-03 2.16739E-05
 -1      1598 4.85987E-02-6.93900E-03 6.50185E-05
 -1      1599 4.85952E-02-6.93755E-03 1.08353E-04
 -1      1600 4.85898E-02-6.93543E-03 1.51667E-04
 -1      1601 4.85825E-02-6.93278E-03 1.94950E-04
 -1      1602 5.14160E-02-1.03716E-02-1.66714E-04
 -1      1603 5.14226E-02-1.03735E-02-1.29707E-04
 -1      1604 5.14274E-02-1.03749E-02-9.26675E-05
 -1      1605 5.14306E-02-1.03760E-02-5.56077E-05
 -1      1606 5.14321E-02-1.03765E-02-1.85370E-05
 -1      1607 5.14321E-02-1.03765E-02 1.85370E-05
 -1      1608 5.14306E-02-1.03760E-02 5.56077E-05
 -1      1609 5.14274E-02-1.03749E-02 9.26675E-05
 -1      1610 5.14226E-02-1.03735E-02 1.29707E-04
 -1      1611 5.14160E-02-1.03716E-02 1.66714E-04
 -1      1612 5.40210E-02-1.40765E-02-1.37901E-04
 -1      1613 5.40268E-02-1.40774E-02-1.07299E-04
 -1      1614 5.40311E-02-1.40782E-02-7.66637E-05
 -1      1615 5.40338E-02-1.40787E-02-4.60063E-05
 -1      1616 5.40352E-02-1.40790E-02-1.53368E-05
 -1      1617 5.40352E-02-1.40790E-02 1.53368E-05
 -1      1618 5.40338E-02-1.40787E-02 4.60063E-05
 -1      1619 5.40311E-02-1.40782E-02 7.66637E-05
 -1      1620 5.40268E-02-1.40774E-02 1.07299E-04
 -1      1621 5.40210E-02-1.40765E-02 1.37901E-04
 -1      1622 5.63655E-02-1.80097E-02-1.09186E-04
 -1      1623 5.63706E-02-1.80096E-02-8.49706E-05
 -1      1624 5.63742E-02-1.80097E-02-6.07186E-05
 -1      1625 5.63766E-02-1.80098E-02-3.64410E-05
 -1      1626 5.63778E-02-1.80098E-02-1.21486E-05
 -1      1627 5.63778E-02-1.80098E-02 1.21486E-05
 -1      1628 5.63766E-02-1.80098E-02 3.64410E-05
 -1      1629 5.63742E-02-1.80097E-02 6.07186E-05
 -1      1630 5.63706E-02-1.80096E-02 8.49706E-05
 -1      1631 5.63655E-02-1.80097E-02 1.09186E-04
 -1      1632 5.84243E-02-2.21287E-02-8.14275E-05
 -1      1633 5.84287E-02-2.21276E-02-6.33890E-05
 -1      1634 5.84318E-02-2.21269E-02-4.53087E-05
 -1      1635 5.84338E-02-2.21265E-02-2.71976E-05
 -1      1636 5.84348E-02-2.21263E-02-9.06794E-06
 -1      1637 5.84348E-02-2.21263E-02 9.06794E-06
 -1      1638 5.84338E-02-2.21265E-02 2.71976E-05
 -1      1639 5.84318E-02-2.21269E-02 4.53087E-05
 -1      1640 5.84287E-02-2.21276E-02 6.33890E-05
 -1      1641 5.84243E-02-2.21287E-02 8.14275E-05
 -1      1642 6.01804E-02-2.63873E-02-5.56643E-05
 -1      1643 6.01840E-02-2.63853E-02-4.33624E-05
 -1      1644 6.01865E-02-2.63839E-02-3.10118E-05
 -1      1645 6.01882E-02-2.63830E-02-1.86230E-05
 -1      1646 6.01890E-02-2.63825E-02-6.21034E-06
 -1      1647 6.01890E-02-2.63825E-02 6.21034E-06
 -1      1648 6.01882E-02-2.63830E-02 1.86230E-05
 -1      1649 6.01865E-02-2.63839E-02 3.10118E-05
 -1      1650 6.01840E-02-2.63853E-02 4.33624E-05
 -1      1651 6.01804E-02-2.63873E-02 5.56643E-05
 -1      1652 6.16262E-02-3.07383E-02-3.31037E-05
 -1      1653 6.16290E-02-3.07356E-02-2.58303E-05
 -1      1654 6.16310E-02-3.07336E-02-1.84989E-05
 -1      1655 6.16323E-02-3.07323E-02-1.11198E-05
 -1      1656 6.16329E-02-3.07317E-02-3.71006E-06
 -1      1657 6.16329E-02-3.07317E-02 3.71006E-06
 -1      1658 6.16323E-02-3.07323E-02 1.11198E-05
 -1      1659 6.16310E-02-3.07336E-02 1.84989E-05
 -1      1660 6.16290E-02-3.07356E-02 2.58303E-05
 -1      1661 6.16262E-02-3.07383E-02 3.31037E-05
 -1      1662 6.27646E-02-3.51367E-02-1.50782E-05
 -1      1663 6.27667E-02-3.51335E-02-1.18308E-05
 -1      1664 6.27682E-02-3.51312E-02-8.51340E-06
 -1      1665 6.27691E-02-3.51297E-02-5.13491E-06
 -1      1666 6.27696E-02-3.51289E-02-1.71627E-06
 -1      1667 6.27696E-02-3.51289E-02 1.71627E-06
 -1      1668 6.27691E-02-3.51297E-02 5.13491E-06
 -1      1669 6.27682E-02-3.51312E-02 8.51340E-06
 -1      1670 6.27667E-02-3.51335E-02 1.18308E-05
 -1      1671 6.27646E-02-3.51367E-02 1.50782E-05
 -1      1672 6.36091E-02-3.95435E-02-2.91787E-06
 -1      1673 6.36105E-02-3.95402E-02-2.40485E-06
 -1      1674 6.36116E-02-3.95379E-02-1.80031E-06
 -1      1675 6.36123E-02-3.95364E-02-1.11538E-06
 -1      1676 6.36127E-02-3.95356E-02-3.77839E-07
 -1      1677 6.36127E-02-3.95356E-02 3.77840E-07
 -1      1678 6.36123E-02-3.95364E-02 1.11538E-06
 -1      1679 6.36116E-02-3.95379E-02 1.80031E-06
 -1      1680 6.36105E-02-3.95402E-02 2.40485E-06
 -1      1681 6.36091E-02-3.95435E-02 2.91787E-06
 -1      1682 6.41827E-02-4.39310E-02 2.56271E-06
 -1      1683 6.41837E-02-4.39284E-02 1.87175E-06
 -1      1684 6.41845E-02-4.39265E-02 1.26553E-06
 -1      1685 6.41852E-02-4.39253E-02 7.29496E-07
 -1      1686 6.41855E-02-4.39247E-02 2.38102E-07
 -1      1687 6.41855E-02-4.39247E-02-2.38102E-07
 -1      1688 6.41852E-02-4.39253E-02-7.29496E-07
 -1      1689 6.41845E-02-4.39265E-02-1.26553E-06
 -1      1690 6.41837E-02-4.39284E-02-1.87175E-06
 -1      1691 6.41827E-02-4.39310E-02-2.56271E-06
 -1      1692 6.45139E-02-4.82909E-02 2.98644E-06
 -1      1693 6.45147E-02-4.82896E-02 2.34561E-06
 -1      1694 6.45155E-02-4.82886E-02 1.69545E-06
 -1      1695 6.45161E-02-4.82879E-02 1.02814E-06
 -1      1696 6.45164E-02-4.82876E-02 3.44844E-07
 -1      1697 6.45164E-02-4.82876E-02-3.44844E-07
 -1      1698 6.45161E-02-4.82879E-02-1.02814E-06
 -1      1699 6.45155E-02-4.82886E-02-1.69545E-06
 -1      1700 6.45147E-02-4.82896E-02-2.34561E-06
 -1      1701 6.45139E-02-4.82909E-02-2.98644E-06
 -1      1702 6.27760E-02-5.26385E-02 3.10476E-06
 -1      1703 6.27768E-02-5.26379E-02 2.61128E-06
 -1      1704 6.27774E-02-5.26372E-02 1.98806E-06
 -1      1705 6.27778E-02-5.26367E-02 1.24606E-06
 -1      1706 6.27781E-02-5.26364E-02 4.24582E-07
 -1      1707 6.27781E-02-5.26364E-02-4.24582E-07
 -1      1708 6.27778E-02-5.26367E-02-1.24606E-06
 -1      1709 6.27774E-02-5.26372E-02-1.98806E-06
 -1      1710 6.27768E-02-5.26379E-02-2.61128E-06
 -1      1711 6.27760E-02-5.26385E-02-3.10476E-06
 -1      1712 6.09285E-02-5.26361E-02 3.35506E-06
 -1      1713 6.09298E-02-5.26353E-02 2.68940E-06
 -1      1714 6.09307E-02-5.26345E-02 1.97583E-06
 -1      1715 6.09313E-02-5.26338E-02 1.21011E-06
 -1      1716 6.09317E-02-5.26335E-02 4.07701E-07
 -1      1717 6.09317E-02-5.26335E-02-4.07701E-07
 -1      1718 6.09313E-02-5.26338E-02-1.21011E-06
 -1      1719 6.09307E-02-5.26345E-02-1.97583E-06
 -1      1720 6.09298E-02-5.26353E-02-2.68940E-06
 -1      1721 6.09285E-02-5.26361E-02-3.35506E-06
 -1      1722 5.90841E-02-5.26315E-02 3.85220E-06
 -1      1723 5.90861E-02-5.26305E-02 2.97339E-06
 -1      1724 5.90875E-02-5.26295E-02 2.11398E-06
 -1      1725 5.90884E-02-5.26287E-02 1.26532E-06
 -1      1726 5.90888E-02-5.26282E-02 4.21352E-07
 -1      1727 5.90888E-02-5.26282E-02-4.21352E-07
 -1      1728 5.90884E-02-5.26287E-02-1.26532E-06
 -1      1729 5.90875E-02-5.26295E-02-2.11398E-06
 -1      1730 5.90861E-02-5.26305E-02-2.97339E-06
 -1      1731 5.90841E-02-5.26315E-02-3.85220E-06
 -1      1732 5.72469E-02-5.26256E-02 3.76548E-06
 -1      1733 5.72495E-02-5.26243E-02 2.84166E-06
 -1      1734 5.72513E-02-5.26230E-02 1.97510E-06
 -1      1735 5.72525E-02-5.26220E-02 1.16159E-06
 -1      1736 5.72531E-02-5.26215E-02 3.83165E-07
 -1      1737 5.72531E-02-5.26215E-02-3.83165E-07
 -1      1738 5.72525E-02-5.26220E-02-1.16159E-06
 -1      1739 5.72513E-02-5.26230E-02-1.97510E-06
 -1      1740 5.72495E-02-5.26243E-02-2.84166E-06
 -1      1741 5.72469E-02-5.26256E-02-3.76548E-06
 -1      1742 5.54201E-02-5.26203E-02 2.41836E-06
 -1      1743 5.54233E-02-5.26184E-02 1.75562E-06
 -1      1744 5.54256E-02-5.26168E-02 1.17277E-06
 -1      1745 5.54270E-02-5.26156E-02 6.67797E-07
 -1      1746 5.54277E-02-5.26150E-02 2.16326E-07
 -1      1747 5.54277E-02-5.26150E-02-2.16326E-07
 -1      1748 5.54270E-02-5.26156E-02-6.67797E-07
 -1      1749 5.54256E-02-5.26168E-02-1.17277E-06
 -1      1750 5.54233E-02-5.26184E-02-1.75562E-06
 -1      1751 5.54201E-02-5.26203E-02-2.41836E-06
 -1      1752 5.36065E-02-5.26180E-02-7.01897E-07
 -1      1753 5.36102E-02-5.26154E-02-6.94887E-07
 -1      1754 5.36127E-02-5.26133E-02-5.93794E-07
 -1      1755 5.36143E-02-5.26118E-02-3.99594E-07
 -1      1756 5.36151E-02-5.26111E-02-1.40811E-07
 -1      1757 5.36151E-02-5.26111E-02 1.40811E-07
 -1      1758 5.36143E-02-5.26118E-02 3.99594E-07
 -1      1759 5.36127E-02-5.26133E-02 5.93794E-07
 -1      1760 5.36102E-02-5.26154E-02 6.94887E-07
 -1      1761 5.36065E-02-5.26180E-02 7.01897E-07
 -1      1762 5.18082E-02-5.26216E-02-5.99387E-06
 -1      1763 5.18121E-02-5.26182E-02-4.82716E-06
 -1      1764 5.18149E-02-5.26155E-02-3.55646E-06
 -1      1765 5.18166E-02-5.26137E-02-2.18223E-06
 -1      1766 5.18174E-02-5.26128E-02-7.35921E-07
 -1      1767 5.18174E-02-5.26128E-02 7.35921E-07
 -1      1768 5.18166E-02-5.26137E-02 2.18223E-06
 -1      1769 5.18149E-02-5.26155E-02 3.55646E-06
 -1      1770 5.18121E-02-5.26182E-02 4.82716E-06
 -1      1771 5.18082E-02-5.26216E-02 5.99387E-06
 -1      1772 5.00266E-02-5.26345E-02-1.37932E-05
 -1      1773 5.00306E-02-5.26301E-02-1.09062E-05
 -1      1774 5.00335E-02-5.26268E-02-7.90750E-06
 -1      1775 5.00352E-02-5.26245E-02-4.79691E-06
 -1      1776 5.00361E-02-5.26234E-02-1.60820E-06
 -1      1777 5.00361E-02-5.26234E-02 1.60820E-06
 -1      1778 5.00352E-02-5.26245E-02 4.79691E-06
 -1      1779 5.00335E-02-5.26268E-02 7.90750E-06
 -1      1780 5.00306E-02-5.26301E-02 1.09062E-05
 -1      1781 5.00266E-02-5.26345E-02 1.37932E-05
 -1      1782 4.82627E-02-5.26604E-02-2.44139E-05
 -1      1783 4.82667E-02-5.26549E-02-1.91783E-05
 -1      1784 4.82695E-02-5.26508E-02-1.38245E-05
 -1      1785 4.82712E-02-5.26480E-02-8.35098E-06
 -1      1786 4.82720E-02-5.26467E-02-2.79359E-06
 -1      1787 4.82720E-02-5.26467E-02 2.79359E-06
 -1      1788 4.82712E-02-5.26480E-02 8.35098E-06
 -1      1789 4.82695E-02-5.26508E-02 1.38245E-05
 -1      1790 4.82667E-02-5.26549E-02 1.91783E-05
 -1      1791 4.82627E-02-5.26604E-02 2.44139E-05
 -1      1792 4.65171E-02-5.27036E-02-3.81802E-05
 -1      1793 4.65208E-02-5.26968E-02-2.98970E-05
 -1      1794 4.65234E-02-5.26918E-02-2.14895E-05
 -1      1795 4.65249E-02-5.26885E-02-1.29541E-05
 -1      1796 4.65257E-02-5.26869E-02-4.32873E-06
 -1      1797 4.65257E-02-5.26869E-02 4.32873E-06
 -1      1798 4.65249E-02-5.26885E-02 1.29541E-05
 -1      1799 4.65234E-02-5.26918E-02 2.14895E-05
 -1      1800 4.65208E-02-5.26968E-02 2.98970E-05
 -1      1801 4.65171E-02-5.27036E-02 3.81802E-05
 -1      1802 4.47896E-02-5.27687E-02-5.54525E-05
 -1      1803 4.47928E-02-5.27605E-02-4.33434E-05
 -1      1804 4.47950E-02-5.27545E-02-3.11041E-05
 -1      1805 4.47963E-02-5.27506E-02-1.87277E-05
 -1      1806 4.47969E-02-5.27486E-02-6.25413E-06
 -1      1807 4.47969E-02-5.27486E-02 6.25413E-06
 -1      1808 4.47963E-02-5.27506E-02 1.87277E-05
 -1      1809 4.47950E-02-5.27545E-02 3.11041E-05
 -1      1810 4.47928E-02-5.27605E-02 4.33434E-05
 -1      1811 4.47896E-02-5.27687E-02 5.54525E-05
 -1      1812 4.30796E-02-5.28609E-02-7.66503E-05
 -1      1813 4.30822E-02-5.28511E-02-5.98450E-05
 -1      1814 4.30838E-02-5.28440E-02-4.29029E-05
 -1      1815 4.30847E-02-5.28393E-02-2.58129E-05
 -1      1816 4.30851E-02-5.28371E-02-8.61693E-06
 -1      1817 4.30851E-02-5.28371E-02 8.61693E-06
 -1      1818 4.30847E-02-5.28393E-02 2.58129E-05
 -1      1819 4.30838E-02-5.28440E-02 4.29029E-05
 -1      1820 4.30822E-02-5.28511E-02 5.98450E-05
 -1      1821 4.30796E-02-5.28609E-02 7.66503E-05
 -1      1822 4.13861E-02-5.29861E-02-1.02278E-04
 -1      1823 4.13877E-02-5.29745E-02-7.97955E-05
 -1      1824 4.13885E-02-5.29661E-02-5.71683E-05
 -1      1825 4.13889E-02-5.29607E-02-3.43795E-05
 -1      1826 4.13891E-02-5.29580E-02-1.14738E-05
 -1      1827 4.13891E-02-5.29580E-02 1.14738E-05
 -1      1828 4.13889E-02-5.29607E-02 3.43795E-05
 -1      1829 4.13885E-02-5.29661E-02 5.71683E-05
 -1      1830 4.13877E-02-5.29745E-02 7.97955E-05
 -1      1831 4.13861E-02-5.29861E-02 1.02278E-04
 -1      1832 3.97074E-02-5.31509E-02-1.32956E-04
 -1      1833 3.97076E-02-5.31372E-02-1.03679E-04
 -1      1834 3.97074E-02-5.31275E-02-7.42476E-05
 -1      1835 3.97071E-02-5.31211E-02-4.46368E-05
 -1      1836 3.97069E-02-5.31180E-02-1.48947E-05
 -1      1837 3.97069E-02-5.31180E-02 1.48947E-05
 -1      1838 3.97071E-02-5.31211E-02 4.46368E-05
 -1      1839 3.97074E-02-5.31275E-02 7.42476E-05
 -1      1840 3.97076E-02-5.31372E-02 1.03679E-04
 -1      1841 3.97074E-02-5.31509E-02 1.32956E-04
 -1      1842 3.80408E-02-5.33629E-02-1.69462E-04
 -1      1843 3.80394E-02-5.33469E-02-1.32104E-04
 -1      1844 3.80378E-02-5.33355E-02-9.45779E-05
 -1      1845 3.80366E-02-5.33282E-02-5.68482E-05
 -1      1846 3.80359E-02-5.33246E-02-1.89676E-05
 -1      1847 3.80359E-02-5.33246E-02 1.89676E-05
 -1      1848 3.80366E-02-5.33282E-02 5.68482E-05
 -1      1849 3.80378E-02-5.33355E-02 9.45779E-05
 -1      1850 3.80394E-02-5.33469E-02 1.32104E-04
 -1      1851 3.80408E-02-5.33629E-02 1.69462E-04
 -1      1852 3.63833E-02-5.36309E-02-2.12795E-04
 -1      1853 3.63796E-02-5.36122E-02-1.65854E-04
 -1      1854 3.63763E-02-5.35990E-02-1.18723E-04
 -1      1855 3.63738E-02-5.35905E-02-7.13542E-05
 -1      1856 3.63725E-02-5.35863E-02-2.38064E-05
 -1      1857 3.63725E-02-5.35863E-02 2.38064E-05
 -1      1858 3.63738E-02-5.35905E-02 7.13542E-05
 -1      1859 3.63763E-02-5.35990E-02 1.18723E-04
 -1      1860 3.63796E-02-5.36122E-02 1.65854E-04
 -1      1861 3.63833E-02-5.36309E-02 2.12795E-04
 -1      1862 3.47306E-02-5.39652E-02-2.64270E-04
 -1      1863 3.47239E-02-5.39434E-02-2.05964E-04
 -1      1864 3.47183E-02-5.39280E-02-1.47433E-04
 -1      1865 3.47143E-02-5.39181E-02-8.86091E-05
 -1      1866 3.47122E-02-5.39133E-02-2.95634E-05
 -1      1867 3.47122E-02-5.39133E-02 2.95634E-05
 -1      1868 3.47143E-02-5.39181E-02 8.86091E-05
 -1      1869 3.47183E-02-5.39280E-02 1.47433E-04
 -1      1870 3.47239E-02-5.39434E-02 2.05964E-04
 -1      1871 3.47306E-02-5.39652E-02 2.64270E-04
 -1      1872 3.30772E-02-5.43782E-02-3.25678E-04
 -1      1873 3.30667E-02-5.43525E-02-2.53854E-04
 -1      1874 3.30581E-02-5.43346E-02-1.81739E-04
 -1      1875 3.30520E-02-5.43231E-02-1.09241E-04
 -1      1876 3.30489E-02-5.43176E-02-3.64494E-05
 -1      1877 3.30489E-02-5.43176E-02 3.64494E-05
 -1      1878 3.30520E-02-5.43231E-02 1.09241E-04
 -1      1879 3.30581E-02-5.43346E-02 1.81739E-04
 -1      1880 3.30667E-02-5.43525E-02 2.53854E-04
 -1      1881 3.30772E-02-5.43782E-02 3.25678E-04
 -1      1882 3.14161E-02-5.48846E-02-3.99536E-04
 -1      1883 3.14005E-02-5.48543E-02-3.11535E-04
 -1      1884 3.13879E-02-5.48334E-02-2.23118E-04
 -1      1885 3.13791E-02-5.48202E-02-1.34152E-04
 -1      1886 3.13745E-02-5.48138E-02-4.47685E-05
 -1      1887 3.13745E-02-5.48138E-02 4.47685E-05
 -1      1888 3.13791E-02-5.48202E-02 1.34152E-04
 -1      1889 3.13879E-02-5.48334E-02 2.23118E-04
 -1      1890 3.14005E-02-5.48543E-02 3.11535E-04
 -1      1891 3.14161E-02-5.48846E-02 3.99536E-04
 -1      1892 2.97385E-02-5.55027E-02-4.89494E-04
 -1      1893 2.97159E-02-5.54669E-02-3.81955E-04
 -1      1894 2.96978E-02-5.54426E-02-2.73743E-04
 -1      1895 2.96852E-02-5.54275E-02-1.64680E-04
 -1      1896 2.96787E-02-5.54202E-02-5.49722E-05
 -1      1897 2.96787E-02-5.54202E-02 5.49722E-05
 -1      1898 2.96852E-02-5.54275E-02 1.64680E-04
 -1      1899 2.96978E-02-5.54426E-02 2.73743E-04
 -1      1900 2.97159E-02-5.54669E-02 3.81955E-04
 -1      1901 2.97385E-02-5.55027E-02 4.89494E-04
 -1      1902 2.80328E-02-5.62557E-02-6.00964E-04
 -1      1903 2.80004E-02-5.62132E-02-4.69508E-04
 -1      1904 2.79746E-02-5.61852E-02-3.36876E-04
 -1      1905 2.79566E-02-5.61681E-02-2.02835E-04
 -1      1906 2.79474E-02-5.61601E-02-6.77393E-05
 -1      1907 2.79474E-02-5.61601E-02 6.77393E-05
 -1      1908 2.79566E-02-5.61681E-02 2.02835E-04
 -1      1909 2.79746E-02-5.61852E-02 3.36876E-04
 -1      1910 2.80004E-02-5.62132E-02 4.69508E-04
 -1      1911 2.80328E-02-5.62557E-02 6.00964E-04
 -1      1912 2.62840E-02-5.71733E-02-7.41992E-04
 -1      1913 2.62373E-02-5.71230E-02-5.80743E-04
 -1      1914 2.62002E-02-5.70915E-02-4.17374E-04
 -1      1915 2.61745E-02-5.70731E-02-2.51602E-04
 -1      1916 2.61613E-02-5.70646E-02-8.40807E-05
 -1      1917 2.61613E-02-5.70646E-02 8.40807E-05
 -1      1918 2.61745E-02-5.70731E-02 2.51602E-04
 -1      1919 2.62002E-02-5.70915E-02 4.17374E-04
 -1      1920 2.62373E-02-5.71230E-02 5.80743E-04
 -1      1921 2.62840E-02-5.71733E-02 7.41992E-04
 -1      1922 2.44714E-02-5.82951E-02-9.24333E-04
 -1      1923 2.44032E-02-5.82367E-02-7.25133E-04
 -1      1924 2.43492E-02-5.82028E-02-5.22157E-04
 -1      1925 2.43119E-02-5.81846E-02-3.15214E-04
 -1      1926 2.42929E-02-5.81768E-02-1.05404E-04
 -1      1927 2.42929E-02-5.81768E-02 1.05404E-04
 -1      1928 2.43119E-02-5.81846E-02 3.15214E-04
 -1      1929 2.43492E-02-5.82028E-02 5.22157E-04
 -1      1930 2.44032E-02-5.82367E-02 7.25133E-04
 -1      1931 2.44714E-02-5.82951E-02 9.24333E-04
 -1      1932 2.25658E-02-5.96763E-02-1.16436E-03
 -1      1933 2.24641E-02-5.96109E-02-9.15390E-04
 -1      1934 2.23844E-02-5.95782E-02-6.60283E-04
 -1      1935 2.23297E-02-5.95636E-02-3.98923E-04
 -1      1936 2.23020E-02-5.95581E-02-1.33478E-04
 -1      1937 2.23020E-02-5.95581E-02 1.33478E-04
 -1      1938 2.23297E-02-5.95636E-02 3.98923E-04
 -1      1939 2.23844E-02-5.95782E-02 6.60283E-04
 -1      1940 2.24641E-02-5.96109E-02 9.15390E-04
 -1      1941 2.25658E-02-5.96763E-02 1.16436E-03
 -1      1942 2.05217E-02-6.13993E-02-1.48321E-03
 -1      1943 2.03675E-02-6.13317E-02-1.16652E-03
 -1      1944 2.02480E-02-6.13066E-02-8.40568E-04
 -1      1945 2.01671E-02-6.13003E-02-5.07743E-04
 -1      1946 2.01265E-02-6.13005E-02-1.69772E-04
 -1      1947 2.01265E-02-6.13005E-02 1.69772E-04
 -1      1948 2.01671E-02-6.13003E-02 5.07743E-04
 -1      1949 2.02480E-02-6.13066E-02 8.40568E-04
 -1      1950 2.03675E-02-6.13317E-02 1.16652E-03
 -1      1951 2.05217E-02-6.13993E-02 1.48321E-03
 -1      1952 1.82652E-02-6.36037E-02-1.90424E-03
 -1      1953 1.80245E-02-6.35400E-02-1.48793E-03
 -1      1954 1.78439E-02-6.35297E-02-1.06726E-03
 -1      1955 1.77252E-02-6.35383E-02-6.39503E-04
 -1      1956 1.76662E-02-6.35441E-02-2.12845E-04
 -1      1957 1.76662E-02-6.35441E-02 2.12845E-04
 -1      1958 1.77252E-02-6.35383E-02 6.39503E-04
 -1      1959 1.78439E-02-6.35297E-02 1.06726E-03
 -1      1960 1.80245E-02-6.35400E-02 1.48793E-03
 -1      1961 1.82652E-02-6.36037E-02 1.90424E-03
 -1      1962 1.56449E-02-6.65402E-02-2.44332E-03
 -1      1963 1.52683E-02-6.64993E-02-1.88308E-03
 -1      1964 1.50018E-02-6.65164E-02-1.30847E-03
 -1      1965 1.48294E-02-6.65146E-02-7.69092E-04
 -1      1966 1.47456E-02-6.65123E-02-2.53582E-04
 -1      1967 1.47456E-02-6.65123E-02 2.53582E-04
 -1      1968 1.48294E-02-6.65146E-02 7.69092E-04
 -1      1969 1.50018E-02-6.65164E-02 1.30847E-03
 -1      1970 1.52683E-02-6.64993E-02 1.88308E-03
 -1      1971 1.56449E-02-6.65402E-02 2.44332E-03
 -1      1972 1.23248E-02-7.08785E-02-3.15454E-03
 -1      1973 1.17323E-02-7.08879E-02-2.19671E-03
 -1      1974 1.13315E-02-7.07537E-02-1.46933E-03
 -1      1975 1.11052E-02-7.06720E-02-8.44922E-04
 -1      1976 1.10045E-02-7.06308E-02-2.75720E-04
 -1      1977 1.10045E-02-7.06308E-02 2.75720E-04
 -1      1978 1.11052E-02-7.06720E-02 8.44922E-04
 -1      1979 1.13315E-02-7.07537E-02 1.46933E-03
 -1      1980 1.17323E-02-7.08879E-02 2.19671E-03
 -1      1981 1.23248E-02-7.08785E-02 3.15454E-03
 -1      1982 7.15143E-03-7.87468E-02-3.10478E-03
 -1      1983 6.19282E-03-7.77871E-02-2.25277E-03
 -1      1984 5.81230E-03-7.74100E-02-1.50363E-03
 -1      1985 5.64711E-03-7.71953E-02-8.57352E-04
 -1      1986 5.58447E-03-7.70991E-02-2.78364E-04
 -1      1987 5.58447E-03-7.70991E-02 2.78364E-04
 -1      1988 5.64711E-03-7.71953E-02 8.57352E-04
 -1      1989 5.81230E-03-7.74100E-02 1.50363E-03
 -1      1990 6.19282E-03-7.77871E-02 2.25277E-03
 -1      1991 7.15143E-03-7.87468E-02 3.10478E-03
 -1      1992-5.50689E-03-7.02405E-02-1.67885E-03
 -1      1993-5.55107E-03-6.97590E-02-1.61074E-03
 -1      1994-5.43011E-03-6.95229E-02-1.18971E-03
 -1      1995-5.34426E-03-6.93790E-02-7.09492E-04
 -1      1996-5.30163E-03-6.93129E-02-2.34629E-04
 -1      1997-5.30163E-03-6.93129E-02 2.34629E-04
 -1      1998-5.34426E-03-6.93790E-02 7.09492E-04
 -1      1999-5.43011E-03-6.95229E-02 1.18971E-03
 -1      2000-5.55107E-03-6.97590E-02 1.61074E-03
 -1      2001-5.50689E-03-7.02405E-02 1.67885E-03
 -1      2002-2.14853E-03-6.12968E-02 7.66473E-04
 -1      2003-2.59742E-03-6.16972E-02 1.92467E-04
 -1      2004-2.71885E-03-6.17801E-02-5.95367E-05
 -1      2005-2.74101E-03-6.17959E-02-1.01072E-04
 -1      2006-2.74066E-03-6.17957E-02-4.31933E-05
 -1      2007-2.74066E-03-6.17957E-02 4.31933E-05
 -1      2008-2.74101E-03-6.17959E-02 1.01072E-04
 -1      2009-2.71885E-03-6.17801E-02 5.95367E-05
 -1      2010-2.59742E-03-6.16972E-02-1.92467E-04
 -1      2011-2.14853E-03-6.12968E-02-7.66473E-04
 -1      2012-3.89880E-05-5.56810E-02 1.39410E-03
 -1      2013-3.34573E-04-5.60342E-02 9.48478E-04
 -1      2014-5.46461E-04-5.62384E-02 5.69437E-04
 -1      2015-6.52755E-04-5.63353E-02 2.93483E-04
 -1      2016-6.95489E-04-5.63739E-02 8.96458E-05
 -1      2017-6.95489E-04-5.63739E-02-8.96458E-05
 -1      2018-6.52755E-04-5.63353E-02-2.93483E-04
 -1      2019-5.46461E-04-5.62384E-02-5.69437E-04
 -1      2020-3.34573E-04-5.60342E-02-9.48478E-04
 -1      2021-3.89880E-05-5.56810E-02-1.39410E-03
 -1      2022 1.24991E-03-5.15106E-02 1.51500E-03
 -1      2023 1.10625E-03-5.18164E-02 1.13851E-03
 -1      2024 9.57688E-04-5.20134E-02 7.80643E-04
 -1      2025 8.51850E-04-5.21288E-02 4.50171E-04
 -1      2026 8.00385E-04-5.21809E-02 1.46526E-04
 -1      2027 8.00385E-04-5.21809E-02-1.46526E-04
 -1      2028 8.51850E-04-5.21288E-02-4.50171E-04
 -1      2029 9.57688E-04-5.20134E-02-7.80643E-04
 -1      2030 1.10625E-03-5.18164E-02-1.13851E-03
 -1      2031 1.24991E-03-5.15106E-02-1.51500E-03
 -1      2032 2.10690E-03-4.80924E-02 1.44231E-03
 -1      2033 2.05246E-03-4.83203E-02 1.12107E-03
 -1      2034 1.96965E-03-4.84843E-02 7.96204E-04
 -1      2035 1.89994E-03-4.85878E-02 4.74516E-04
 -1      2036 1.86162E-03-4.86376E-02 1.57424E-04
 -1      2037 1.86162E-03-4.86376E-02-1.57424E-04
 -1      2038 1.89994E-03-4.85878E-02-4.74516E-04
 -1      2039 1.96965E-03-4.84843E-02-7.96204E-04
 -1      2040 2.05246E-03-4.83203E-02-1.12107E-03
 -1      2041 2.10690E-03-4.80924E-02-1.44231E-03
 -1      2042 2.68252E-03-4.50980E-02 1.32021E-03
 -1      2043 2.67745E-03-4.52649E-02 1.03638E-03
 -1      2044 2.64100E-03-4.53914E-02 7.44954E-04
 -1      2045 2.60374E-03-4.54751E-02 4.48467E-04
 -1      2046 2.58166E-03-4.55166E-02 1.49703E-04
 -1      2047 2.58166E-03-4.55166E-02-1.49703E-04
 -1      2048 2.60374E-03-4.54751E-02-4.48467E-04
 -1      2049 2.64100E-03-4.53914E-02-7.44954E-04
 -1      2050 2.67745E-03-4.52649E-02-1.03638E-03
 -1      2051 2.68252E-03-4.50980E-02-1.32021E-03
 -1      2052 3.05996E-03-4.23706E-02 1.20551E-03
 -1      2053 3.07771E-03-4.24924E-02 9.47362E-04
 -1      2054 3.06881E-03-4.25879E-02 6.82548E-04
 -1      2055 3.05356E-03-4.26526E-02 4.11959E-04
 -1      2056 3.04331E-03-4.26853E-02 1.37722E-04
 -1      2057 3.04331E-03-4.26853E-02-1.37722E-04
 -1      2058 3.05356E-03-4.26526E-02-4.11959E-04
 -1      2059 3.06881E-03-4.25879E-02-6.82548E-04
 -1      2060 3.07771E-03-4.24924E-02-9.47362E-04
 -1      2061 3.05996E-03-4.23706E-02-1.20551E-03
 -1      2062 3.28583E-03-3.98244E-02 1.11773E-03
 -1      2063 3.31180E-03-3.99158E-02 8.76378E-04
 -1      2064 3.31715E-03-3.99882E-02 6.30606E-04
 -1      2065 3.31465E-03-4.00380E-02 3.80399E-04
 -1      2066 3.31166E-03-4.00633E-02 1.27155E-04
 -1      2067 3.31166E-03-4.00633E-02-1.27155E-04
 -1      2068 3.31465E-03-4.00380E-02-3.80399E-04
 -1      2069 3.31715E-03-3.99882E-02-6.30606E-04
 -1      2070 3.31180E-03-3.99158E-02-8.76378E-04
 -1      2071 3.28583E-03-3.98244E-02-1.11773E-03
 -1      2072 3.39129E-03-3.74109E-02 1.05946E-03
 -1      2073 3.41838E-03-3.74826E-02 8.28235E-04
 -1      2074 3.43010E-03-3.75393E-02 5.94595E-04
 -1      2075 3.43418E-03-3.75783E-02 3.58140E-04
 -1      2076 3.43515E-03-3.75982E-02 1.19627E-04
 -1      2077 3.43515E-03-3.75982E-02-1.19627E-04
 -1      2078 3.43418E-03-3.75783E-02-3.58140E-04
 -1      2079 3.43010E-03-3.75393E-02-5.94595E-04
 -1      2080 3.41838E-03-3.74826E-02-8.28235E-04
 -1      2081 3.39129E-03-3.74109E-02-1.05946E-03
 -1      2082 3.39964E-03-3.51008E-02 1.02692E-03
 -1      2083 3.42515E-03-3.51604E-02 8.00739E-04
 -1      2084 3.43919E-03-3.52068E-02 5.73614E-04
 -1      2085 3.44635E-03-3.52386E-02 3.44980E-04
 -1      2086 3.44930E-03-3.52547E-02 1.15142E-04
 -1      2087 3.44930E-03-3.52547E-02-1.15142E-04
 -1      2088 3.44635E-03-3.52386E-02-3.44980E-04
 -1      2089 3.43919E-03-3.52068E-02-5.73614E-04
 -1      2090 3.42515E-03-3.51604E-02-8.00739E-04
 -1      2091 3.39964E-03-3.51008E-02-1.02692E-03
 -1      2092 3.32975E-03-3.28758E-02 1.01468E-03
 -1      2093 3.35328E-03-3.29281E-02 7.89716E-04
 -1      2094 3.36794E-03-3.29681E-02 5.64784E-04
 -1      2095 3.37645E-03-3.29952E-02 3.39263E-04
 -1      2096 3.38035E-03-3.30088E-02 1.13164E-04
 -1      2097 3.38035E-03-3.30088E-02-1.13164E-04
 -1      2098 3.37645E-03-3.29952E-02-3.39263E-04
 -1      2099 3.36794E-03-3.29681E-02-5.64784E-04
 -1      2100 3.35328E-03-3.29281E-02-7.89716E-04
 -1      2101 3.32975E-03-3.28758E-02-1.01468E-03
 -1      2102 3.19752E-03-3.07236E-02 1.01767E-03
 -1      2103 3.21969E-03-3.07718E-02 7.91050E-04
 -1      2104 3.23455E-03-3.08078E-02 5.65095E-04
 -1      2105 3.24375E-03-3.08320E-02 3.39165E-04
 -1      2106 3.24814E-03-3.08441E-02 1.13081E-04
 -1      2107 3.24814E-03-3.08441E-02-1.13081E-04
 -1      2108 3.24375E-03-3.08320E-02-3.39165E-04
 -1      2109 3.23455E-03-3.08078E-02-5.65095E-04
 -1      2110 3.21969E-03-3.07718E-02-7.91050E-04
 -1      2111 3.19752E-03-3.07236E-02-1.01767E-03
 -1      2112 3.01667E-03-2.86358E-02 1.03173E-03
 -1      2113 3.03847E-03-2.86816E-02 8.01337E-04
 -1      2114 3.05373E-03-2.87153E-02 5.72015E-04
 -1      2115 3.06349E-03-2.87376E-02 3.43127E-04
 -1      2116 3.06825E-03-2.87487E-02 1.14368E-04
 -1      2117 3.06825E-03-2.87487E-02-1.14368E-04
 -1      2118 3.06349E-03-2.87376E-02-3.43127E-04
 -1      2119 3.05373E-03-2.87153E-02-5.72015E-04
 -1      2120 3.03847E-03-2.86816E-02-8.01337E-04
 -1      2121 3.01667E-03-2.86358E-02-1.03173E-03
 -1      2122 2.79924E-03-2.66059E-02 1.05367E-03
 -1      2123 2.82171E-03-2.66505E-02 8.17947E-04
 -1      2124 2.83780E-03-2.66828E-02 5.83585E-04
 -1      2125 2.84826E-03-2.67040E-02 3.49938E-04
 -1      2126 2.85341E-03-2.67145E-02 1.16616E-04
 -1      2127 2.85341E-03-2.67145E-02-1.16616E-04
 -1      2128 2.84826E-03-2.67040E-02-3.49938E-04
 -1      2129 2.83780E-03-2.66828E-02-5.83585E-04
 -1      2130 2.82171E-03-2.66505E-02-8.17947E-04
 -1      2131 2.79924E-03-2.66059E-02-1.05367E-03
 -1      2132 2.55595E-03-2.46294E-02 1.08103E-03
 -1      2133 2.58002E-03-2.46733E-02 8.38890E-04
 -1      2134 2.59742E-03-2.47046E-02 5.98328E-04
 -1      2135 2.60881E-03-2.47250E-02 3.58688E-04
 -1      2136 2.61446E-03-2.47351E-02 1.19516E-04
 -1      2137 2.61446E-03-2.47351E-02-1.19516E-04
 -1      2138 2.60881E-03-2.47250E-02-3.58688E-04
 -1      2139 2.59742E-03-2.47046E-02-5.98328E-04
 -1      2140 2.58002E-03-2.46733E-02-8.38890E-04
 -1      2141 2.55595E-03-2.46294E-02-1.08103E-03
 -1      2142 2.29649E-03-2.27024E-02 1.11192E-03
 -1      2143 2.32293E-03-2.27456E-02 8.62639E-04
 -1      2144 2.34211E-03-2.27762E-02 6.15120E-04
 -1      2145 2.35467E-03-2.27960E-02 3.68689E-04
 -1      2146 2.36090E-03-2.28058E-02 1.22836E-04
 -1      2147 2.36090E-03-2.28058E-02-1.22836E-04
 -1      2148 2.35467E-03-2.27960E-02-3.68689E-04
 -1      2149 2.34211E-03-2.27762E-02-6.15120E-04
 -1      2150 2.32293E-03-2.27456E-02-8.62639E-04
 -1      2151 2.29649E-03-2.27024E-02-1.11192E-03
 -1      2152 2.02972E-03-2.08216E-02 1.14483E-03
 -1      2153 2.05917E-03-2.08642E-02 8.87997E-04
 -1      2154 2.08048E-03-2.08940E-02 6.33089E-04
 -1      2155 2.09443E-03-2.09133E-02 3.79409E-04
 -1      2156 2.10134E-03-2.09227E-02 1.26399E-04
 -1      2157 2.10134E-03-2.09227E-02-1.26399E-04
 -1      2158 2.09443E-03-2.09133E-02-3.79409E-04
 -1      2159 2.08048E-03-2.08940E-02-6.33089E-04
 -1      2160 2.05917E-03-2.08642E-02-8.87997E-04
 -1      2161 2.02972E-03-2.08216E-02-1.14483E-03
 -1      2162 1.76387E-03-1.89845E-02 1.17851E-03
 -1      2163 1.79677E-03-1.90260E-02 9.13993E-04
 -1      2164 1.82050E-03-1.90550E-02 6.51536E-04
 -1      2165 1.83600E-03-1.90735E-02 3.90426E-04
 -1      2166 1.84366E-03-1.90826E-02 1.30063E-04
 -1      2167 1.84366E-03-1.90826E-02-1.30063E-04
 -1      2168 1.83600E-03-1.90735E-02-3.90426E-04
 -1      2169 1.82050E-03-1.90550E-02-6.51536E-04
 -1      2170 1.79677E-03-1.90260E-02-9.13993E-04
 -1      2171 1.76387E-03-1.89845E-02-1.17851E-03
 -1      2172 1.50659E-03-1.71884E-02 1.21193E-03
 -1      2173 1.54326E-03-1.72285E-02 9.39830E-04
 -1      2174 1.56960E-03-1.72563E-02 6.69902E-04
 -1      2175 1.58675E-03-1.72739E-02 4.01411E-04
 -1      2176 1.59523E-03-1.72826E-02 1.33718E-04
 -1      2177 1.59523E-03-1.72826E-02-1.33718E-04
 -1      2178 1.58675E-03-1.72739E-02-4.01411E-04
 -1      2179 1.56960E-03-1.72563E-02-6.69902E-04
 -1      2180 1.54326E-03-1.72285E-02-9.39830E-04
 -1      2181 1.50659E-03-1.71884E-02-1.21193E-03
 -1      2182 1.26504E-03-1.54314E-02 1.24420E-03
 -1      2183 1.30564E-03-1.54693E-02 9.64859E-04
 -1      2184 1.33471E-03-1.54955E-02 6.87751E-04
 -1      2185 1.35360E-03-1.55120E-02 4.12112E-04
 -1      2186 1.36292E-03-1.55201E-02 1.37285E-04
 -1      2187 1.36292E-03-1.55201E-02-1.37285E-04
 -1      2188 1.35360E-03-1.55120E-02-4.12112E-04
 -1      2189 1.33471E-03-1.54955E-02-6.87751E-04
 -1      2190 1.30564E-03-1.54693E-02-9.64859E-04
 -1      2191 1.26504E-03-1.54314E-02-1.24420E-03
 -1      2192 1.04586E-03-1.37116E-02 1.27455E-03
 -1      2193 1.09046E-03-1.37466E-02 9.88560E-04
 -1      2194 1.12232E-03-1.37704E-02 7.04761E-04
 -1      2195 1.14301E-03-1.37854E-02 4.22360E-04
 -1      2196 1.15322E-03-1.37926E-02 1.40709E-04
 -1      2197 1.15322E-03-1.37926E-02-1.40709E-04
 -1      2198 1.14301E-03-1.37854E-02-4.22360E-04
 -1      2199 1.12232E-03-1.37704E-02-7.04761E-04
 -1      2200 1.09046E-03-1.37466E-02-9.88560E-04
 -1      2201 1.04586E-03-1.37116E-02-1.27455E-03
 -1      2202 8.55144E-04-1.20278E-02 1.30220E-03
 -1      2203 9.03749E-04-1.20587E-02 1.01046E-03
 -1      2204 9.38480E-04-1.20792E-02 7.20668E-04
 -1      2205 9.61057E-04-1.20916E-02 4.32027E-04
 -1      2206 9.72209E-04-1.20976E-02 1.43954E-04
 -1      2207 9.72209E-04-1.20976E-02-1.43954E-04
 -1      2208 9.61057E-04-1.20916E-02-4.32027E-04
 -1      2209 9.38480E-04-1.20792E-02-7.20668E-04
 -1      2210 9.03749E-04-1.20587E-02-1.01046E-03
 -1      2211 8.55144E-04-1.20278E-02-1.30220E-03
 -1      2212 6.98298E-04-1.03799E-02 1.32605E-03
 -1      2213 7.50921E-04-1.04047E-02 1.02983E-03
 -1      2214 7.88666E-04-1.04200E-02 7.35019E-04
 -1      2215 8.13291E-04-1.04288E-02 4.40866E-04
 -1      2216 8.25482E-04-1.04327E-02 1.46939E-04
 -1      2217 8.25482E-04-1.04327E-02-1.46939E-04
 -1      2218 8.13291E-04-1.04288E-02-4.40866E-04
 -1      2219 7.88666E-04-1.04200E-02-7.35019E-04
 -1      2220 7.50921E-04-1.04047E-02-1.02983E-03
 -1      2221 6.98298E-04-1.03799E-02-1.32605E-03
 -1      2222 5.79867E-04-8.76930E-03 1.34378E-03
 -1      2223 6.36576E-04-8.78468E-03 1.04488E-03
 -1      2224 6.77588E-04-8.79204E-03 7.46497E-04
 -1      2225 7.04501E-04-8.79501E-03 4.48038E-04
 -1      2226 7.17878E-04-8.79593E-03 1.49380E-04
 -1      2227 7.17878E-04-8.79593E-03-1.49380E-04
 -1      2228 7.04501E-04-8.79501E-03-4.48038E-04
 -1      2229 6.77588E-04-8.79204E-03-7.46497E-04
 -1      2230 6.36576E-04-8.78468E-03-1.04488E-03
 -1      2231 5.79867E-04-8.76930E-03-1.34378E-03
 -1      2232 5.03103E-04-7.19934E-03 1.34993E-03
 -1      2233 5.64045E-04-7.20001E-03 1.05094E-03
 -1      2234 6.08555E-04-7.19535E-03 7.51240E-04
 -1      2235 6.37987E-04-7.19001E-03 4.50986E-04
 -1      2236 6.52639E-04-7.18668E-03 1.50359E-04
 -1      2237 6.52639E-04-7.18668E-03-1.50359E-04
 -1      2238 6.37987E-04-7.19001E-03-4.50986E-04
 -1      2239 6.08555E-04-7.19535E-03-7.51240E-04
 -1      2240 5.64045E-04-7.20001E-03-1.05094E-03
 -1      2241 5.03103E-04-7.19934E-03-1.34993E-03
 -1      2242 4.69163E-04-5.67557E-03 1.33241E-03
 -1      2243 5.33888E-04-5.65348E-03 1.03640E-03
 -1      2244 5.81925E-04-5.63247E-03 7.39643E-04
 -1      2245 6.13506E-04-5.61685E-03 4.42997E-04
 -1      2246 6.29156E-04-5.60896E-03 1.47482E-04
 -1      2247 6.29156E-04-5.60896E-03-1.47482E-04
 -1      2248 6.13506E-04-5.61685E-03-4.42997E-04
 -1      2249 5.81925E-04-5.63247E-03-7.39643E-04
 -1      2250 5.33888E-04-5.65348E-03-1.03640E-03
 -1      2251 4.69163E-04-5.67557E-03-1.33241E-03
 -1      2252 4.73792E-04-4.20272E-03 1.26423E-03
 -1      2253 5.42136E-04-4.14917E-03 9.77001E-04
 -1      2254 5.91114E-04-4.10954E-03 6.89839E-04
 -1      2255 6.22913E-04-4.08712E-03 4.09883E-04
 -1      2256 6.38560E-04-4.07706E-03 1.35899E-04
 -1      2257 6.38560E-04-4.07706E-03-1.35899E-04
 -1      2258 6.22913E-04-4.08712E-03-4.09883E-04
 -1      2259 5.91114E-04-4.10954E-03-6.89839E-04
 -1      2260 5.42136E-04-4.14917E-03-9.77001E-04
 -1      2261 4.73792E-04-4.20272E-03-1.26423E-03
 -1      2262 5.01775E-04-2.78045E-03 1.09833E-03
 -1      2263 5.62651E-04-2.68651E-03 8.18142E-04
 -1      2264 6.06203E-04-2.64672E-03 5.63901E-04
 -1      2265 6.33952E-04-2.62861E-03 3.30370E-04
 -1      2266 6.47410E-04-2.62162E-03 1.08829E-04
 -1      2267 6.47410E-04-2.62162E-03-1.08829E-04
 -1      2268 6.33952E-04-2.62861E-03-3.30370E-04
 -1      2269 6.06203E-04-2.64672E-03-5.63901E-04
 -1      2270 5.62651E-04-2.68651E-03-8.18142E-04
 -1      2271 5.01775E-04-2.78045E-03-1.09833E-03
 -1      2272 5.07232E-04-1.33975E-03 6.97853E-04
 -1      2273 5.46416E-04-1.29031E-03 4.88538E-04
 -1      2274 5.72861E-04-1.27408E-03 3.27796E-04
 -1      2275 5.89189E-04-1.26951E-03 1.89575E-04
 -1      2276 5.96997E-04-1.26844E-03 6.21163E-05
 -1      2277 5.96997E-04-1.26844E-03-6.21163E-05
 -1      2278 5.89189E-04-1.26951E-03-1.89575E-04
 -1      2279 5.72861E-04-1.27408E-03-3.27796E-04
 -1      2280 5.46416E-04-1.29031E-03-4.88538E-04
 -1      2281 5.07232E-04-1.33975E-03-6.97853E-04
 -1      2282 2.63164E-06-1.38658E-03-9.48889E-04
 -1      2283 1.70276E-05-2.62709E-03-1.25521E-03
 -1      2284 2.61092E-06-3.86766E-03-1.40011E-03
 -1      2285 3.63164E-05-5.15964E-03-1.45478E-03
 -1      2286 1.32461E-04-6.50697E-03-1.46837E-03
 -1      2287 2.93767E-04-7.90972E-03-1.46074E-03
 -1      2288 5.16579E-04-9.36522E-03-1.44242E-03
 -1      2289 7.94859E-04-1.08721E-02-1.41797E-03
 -1      2290 1.12137E-03-1.24303E-02-1.38941E-03
 -1      2291 1.48816E-03-1.40412E-02-1.35774E-03
 -1      2292 1.88681E-03-1.57066E-02-1.32368E-03
 -1      2293 2.30856E-03-1.74284E-02-1.28795E-03
 -1      2294 2.74439E-03-1.92086E-02-1.25135E-03
 -1      2295 3.18504E-03-2.10493E-02-1.21481E-03
 -1      2296 3.62110E-03-2.29521E-02-1.17936E-03
 -1      2297 4.04295E-03-2.49190E-02-1.14621E-03
 -1      2298 4.44084E-03-2.69520E-02-1.11676E-03
 -1      2299 4.80492E-03-2.90537E-02-1.09267E-03
 -1      2300 5.12549E-03-3.12274E-02-1.07593E-03
 -1      2301 5.39348E-03-3.34782E-02-1.06872E-03
 -1      2302 5.60146E-03-3.58139E-02-1.07310E-03
 -1      2303 5.74560E-03-3.82473E-02-1.08986E-03
 -1      2304 5.82912E-03-4.08007E-02-1.11591E-03
 -1      2305 5.86822E-03-4.35146E-02-1.13859E-03
 -1      2306 5.90294E-03-4.64666E-02-1.12496E-03
 -1      2307 6.01538E-03-4.98038E-02-9.98104E-04
 -1      2308 6.38241E-03-5.38734E-02-6.09006E-04
 -1      2309 7.26338E-03-5.92663E-02 3.96543E-04
 -1      2310 9.39512E-03-6.85787E-02 2.09576E-03
 -1      2311-2.02521E-04-1.26341E-03-9.11035E-04
 -1      2312-2.61275E-04-2.33569E-03-1.17588E-03
 -1      2313-2.47866E-04-3.46283E-03-1.29327E-03
 -1      2314-1.69443E-04-4.64419E-03-1.32766E-03
 -1      2315-1.27567E-05-5.87700E-03-1.33042E-03
 -1      2316 2.23525E-04-7.16221E-03-1.31853E-03
 -1      2317 5.35778E-04-8.50134E-03-1.30004E-03
 -1      2318 9.17138E-04-9.89700E-03-1.27773E-03
 -1      2319 1.35915E-03-1.13525E-02-1.25252E-03
 -1      2320 1.85252E-03-1.28711E-02-1.22475E-03
 -1      2321 2.38749E-03-1.44563E-02-1.19472E-03
 -1      2322 2.95413E-03-1.61109E-02-1.16284E-03
 -1      2323 3.54245E-03-1.78373E-02-1.12960E-03
 -1      2324 4.14260E-03-1.96375E-02-1.09560E-03
 -1      2325 4.74495E-03-2.15129E-02-1.06148E-03
 -1      2326 5.34030E-03-2.34650E-02-1.02788E-03
 -1      2327 5.92010E-03-2.54952E-02-9.95467E-04
 -1      2328 6.47685E-03-2.76052E-02-9.64852E-04
 -1      2329 7.00470E-03-2.97979E-02-9.36508E-04
 -1      2330 7.50048E-03-3.20778E-02-9.10511E-04
 -1      2331 7.96551E-03-3.44534E-02-8.85933E-04
 -1      2332 8.40836E-03-3.69394E-02-8.59552E-04
 -1      2333 8.84931E-03-3.95628E-02-8.23198E-04
 -1      2334 9.32680E-03-4.23729E-02-7.58888E-04
 -1      2335 9.90488E-03-4.54601E-02-6.30227E-04
 -1      2336 1.06795E-02-4.89966E-02-3.71688E-04
 -1      2337 1.17442E-02-5.32741E-02 1.27234E-04
 -1      2338 1.31196E-02-5.88633E-02 9.52452E-04
 -1      2339 1.38200E-02-6.56584E-02 2.27871E-03
 -1      2340-3.06583E-04-1.15085E-03-8.47391E-04
 -1      2341-4.16692E-04-2.09988E-03-1.09010E-03
 -1      2342-3.97371E-04-3.10412E-03-1.18577E-03
 -1      2343-2.76278E-04-4.17581E-03-1.20747E-03
 -1      2344-5.96487E-05-5.30315E-03-1.20309E-03
 -1      2345 2.49719E-04-6.48466E-03-1.18862E-03
 -1      2346 6.46797E-04-7.72240E-03-1.17048E-03
 -1      2347 1.12422E-03-9.02105E-03-1.15019E-03
 -1      2348 1.67297E-03-1.03861E-02-1.12787E-03
 -1      2349 2.28308E-03-1.18228E-02-1.10338E-03
 -1      2350 2.94405E-03-1.33360E-02-1.07667E-03
 -1      2351 3.64529E-03-1.49295E-02-1.04791E-03
 -1      2352 4.37627E-03-1.66064E-02-1.01736E-03
 -1      2353 5.12686E-03-1.83689E-02-9.85335E-04
 -1      2354 5.88749E-03-2.02189E-02-9.52112E-04
 -1      2355 6.64951E-03-2.21576E-02-9.17905E-04
 -1      2356 7.40549E-03-2.41865E-02-8.82768E-04
 -1      2357 8.14985E-03-2.63076E-02-8.46504E-04
 -1      2358 8.87951E-03-2.85240E-02-8.08486E-04
 -1      2359 9.59506E-03-3.08416E-02-7.67324E-04
 -1      2360 1.03023E-02-3.32707E-02-7.20247E-04
 -1      2361 1.10143E-02-3.58296E-02-6.61959E-04
 -1      2362 1.17538E-02-3.85501E-02-5.82648E-04
 -1      2363 1.25542E-02-4.14863E-02-4.64804E-04
 -1      2364 1.34560E-02-4.47285E-02-2.79264E-04
 -1      2365 1.44851E-02-4.84143E-02 1.84958E-05
 -1      2366 1.55998E-02-5.27313E-02 4.78395E-04
 -1      2367 1.65027E-02-5.77208E-02 1.16432E-03
 -1      2368 1.67510E-02-6.28711E-02 2.06290E-03
 -1      2369-3.55914E-04-1.04735E-03-7.77093E-04
 -1      2370-4.90837E-04-1.89164E-03-9.95317E-04
 -1      2371-4.62865E-04-2.78921E-03-1.07684E-03
 -1      2372-3.04665E-04-3.75564E-03-1.09095E-03
 -1      2373-3.13373E-05-4.78249E-03-1.08348E-03
 -1      2374 3.48153E-04-5.86716E-03-1.06870E-03
 -1      2375 8.26406E-04-7.01195E-03-1.05188E-03
 -1      2376 1.39503E-03-8.22256E-03-1.03381E-03
 -1      2377 2.04447E-03-9.50590E-03-1.01414E-03
 -1      2378 2.76427E-03-1.08687E-02-9.92447E-04
 -1      2379 3.54352E-03-1.23169E-02-9.68521E-04
 -1      2380 4.37116E-03-1.38553E-02-9.42346E-04
 -1      2381 5.23634E-03-1.54877E-02-9.14008E-04
 -1      2382 6.12872E-03-1.72170E-02-8.83603E-04
 -1      2383 7.03875E-03-1.90453E-02-8.51156E-04
 -1      2384 7.95803E-03-2.09745E-02-8.16545E-04
 -1      2385 8.87971E-03-2.30065E-02-7.79408E-04
 -1      2386 9.79903E-03-2.51437E-02-7.39017E-04
 -1      2387 1.07139E-02-2.73903E-02-6.94086E-04
 -1      2388 1.16257E-02-2.97535E-02-6.42460E-04
 -1      2389 1.25401E-02-3.22453E-02-5.80608E-04
 -1      2390 1.34673E-02-3.48857E-02-5.02817E-04
 -1      2391 1.44217E-02-3.77065E-02-4.00013E-04
 -1      2392 1.54175E-02-4.07566E-02-2.58310E-04
 -1      2393 1.64574E-02-4.41037E-02-5.78300E-05
 -1      2394 1.75074E-02-4.78270E-02 2.25642E-04
 -1      2395 1.84448E-02-5.19617E-02 6.18388E-04
 -1      2396 1.90485E-02-5.63710E-02 1.12746E-03
 -1      2397 1.90838E-02-6.05988E-02 1.71094E-03
 -1      2398-3.72129E-04-9.49146E-04-7.04819E-04
 -1      2399-5.10950E-04-1.70239E-03-8.98477E-04
 -1      2400-4.66709E-04-2.50493E-03-9.68073E-04
 -1      2401-2.71531E-04-3.37441E-03-9.78196E-04
 -1      2402 5.57522E-05-4.30600E-03-9.70247E-04
 -1      2403 5.02399E-04-5.29892E-03-9.56813E-04
 -1      2404 1.05852E-03-6.35642E-03-9.42114E-04
 -1      2405 1.71442E-03-7.48522E-03-9.26453E-04
 -1      2406 2.45982E-03-8.69327E-03-9.09288E-04
 -1      2407 3.28381E-03-9.98839E-03-8.90096E-04
 -1      2408 4.17505E-03-1.13775E-02-8.68592E-04
 -1      2409 5.12212E-03-1.28662E-02-8.44669E-04
 -1      2410 6.11383E-03-1.44592E-02-8.18291E-04
 -1      2411 7.13956E-03-1.61599E-02-7.89403E-04
 -1      2412 8.18953E-03-1.79711E-02-7.57850E-04
 -1      2413 9.25516E-03-1.98952E-02-7.23290E-04
 -1      2414 1.03295E-02-2.19347E-02-6.85112E-04
 -1      2415 1.14073E-02-2.40927E-02-6.42306E-04
 -1      2416 1.24860E-02-2.63743E-02-5.93299E-04
 -1      2417 1.35651E-02-2.87870E-02-5.35708E-04
 -1      2418 1.46467E-02-3.13433E-02-4.66000E-04
 -1      2419 1.57344E-02-3.40619E-02-3.79032E-04
 -1      2420 1.68300E-02-3.69695E-02-2.67540E-04
 -1      2421 1.79277E-02-4.01012E-02-1.21774E-04
 -1      2422 1.90017E-02-4.34950E-02 7.00297E-05
 -1      2423 1.99875E-02-4.71705E-02 3.19990E-04
 -1      2424 2.07688E-02-5.10830E-02 6.34406E-04
 -1      2425 2.11940E-02-5.50535E-02 1.00392E-03
 -1      2426 2.11569E-02-5.87227E-02 1.39864E-03
 -1      2427-3.67360E-04-8.55081E-04-6.33326E-04
 -1      2428-4.94690E-04-1.52589E-03-8.03073E-04
 -1      2429-4.26191E-04-2.24220E-03-8.62394E-04
 -1      2430-1.91841E-04-3.02180E-03-8.70323E-04
 -1      2431 1.88522E-04-3.86358E-03-8.63411E-04
 -1      2432 7.00166E-04-4.76934E-03-8.52233E-04
 -1      2433 1.33140E-03-5.74412E-03-8.40061E-04
 -1      2434 2.07128E-03-6.79591E-03-8.26882E-04
 -1      2435 2.90873E-03-7.93368E-03-8.12099E-04
 -1      2436 3.83227E-03-9.16615E-03-7.95202E-04
 -1      2437 4.83011E-03-1.05011E-02-7.75900E-04
 -1      2438 5.89041E-03-1.19449E-02-7.54045E-04
 -1      2439 7.00157E-03-1.35030E-02-7.29531E-04
 -1      2440 8.15250E-03-1.51794E-02-7.02204E-04
 -1      2441 9.33291E-03-1.69777E-02-6.71792E-04
 -1      2442 1.05336E-02-1.89007E-02-6.37835E-04
 -1      2443 1.17467E-02-2.09514E-02-5.99599E-04
 -1      2444 1.29659E-02-2.31334E-02-5.55982E-04
 -1      2445 1.41864E-02-2.54520E-02-5.05377E-04
 -1      2446 1.54048E-02-2.79145E-02-4.45517E-04
 -1      2447 1.66179E-02-3.05318E-02-3.73282E-04
 -1      2448 1.78214E-02-3.33188E-02-2.84512E-04
 -1      2449 1.90057E-02-3.62941E-02-1.73918E-04
 -1      2450 2.01500E-02-3.94765E-02-3.53273E-05
 -1      2451 2.12136E-02-4.28758E-02 1.37446E-04
 -1      2452 2.21278E-02-4.64728E-02 3.48319E-04
 -1      2453 2.27975E-02-5.01872E-02 5.95051E-04
 -1      2454 2.31268E-02-5.38447E-02 8.65518E-04
 -1      2455 2.30696E-02-5.71707E-02 1.13995E-03
 -1      2456-3.48742E-04-7.64220E-04-5.63726E-04
 -1      2457-4.53491E-04-1.35836E-03-7.10929E-04
 -1      2458-3.53814E-04-1.99439E-03-7.61327E-04
 -1      2459-7.72754E-05-2.68964E-03-7.68138E-04
 -1      2460 3.56497E-04-3.44631E-03-7.62977E-04
 -1      2461 9.31937E-04-4.26903E-03-7.54425E-04
 -1      2462 1.63621E-03-5.16503E-03-7.44884E-04
 -1      2463 2.45735E-03-6.14378E-03-7.34137E-04
 -1      2464 3.38350E-03-7.21534E-03-7.21612E-04
 -1      2465 4.40258E-03-8.38929E-03-7.06862E-04
 -1      2466 5.50227E-03-9.67415E-03-6.89632E-04
 -1      2467 6.67023E-03-1.10771E-02-6.69765E-04
 -1      2468 7.89431E-03-1.26042E-02-6.47113E-04
 -1      2469 9.16277E-03-1.42602E-02-6.21469E-04
 -1      2470 1.04645E-02-1.60490E-02-5.92500E-04
 -1      2471 1.17894E-02-1.79739E-02-5.59694E-04
 -1      2472 1.31282E-02-2.00384E-02-5.22291E-04
 -1      2473 1.44726E-02-2.22462E-02-4.79213E-04
 -1      2474 1.58152E-02-2.46019E-02-4.28978E-04
 -1      2475 1.71488E-02-2.71118E-02-3.69607E-04
 -1      2476 1.84650E-02-2.97842E-02-2.98556E-04
 -1      2477 1.97521E-02-3.26286E-02-2.12701E-04
 -1      2478 2.09921E-02-3.56543E-02-1.08484E-04
 -1      2479 2.21552E-02-3.88652E-02 1.76284E-05
 -1      2480 2.31961E-02-4.22501E-02 1.68123E-04
 -1      2481 2.40518E-02-4.57672E-02 3.42679E-04
 -1      2482 2.46497E-02-4.93243E-02 5.35985E-04
 -1      2483 2.49298E-02-5.27651E-02 7.36997E-04
 -1      2484 2.48774E-02-5.58755E-02 9.32615E-04
 -1      2485-3.20763E-04-6.75833E-04-4.96425E-04
 -1      2486-3.94869E-04-1.19710E-03-6.22781E-04
 -1      2487-2.58370E-04-1.75679E-03-6.65526E-04
 -1      2488 6.34168E-05-2.37166E-03-6.71912E-04
 -1      2489 5.51560E-04-3.04696E-03-6.68796E-04
 -1      2490 1.19030E-03-3.79016E-03-6.62912E-04
 -1      2491 1.96613E-03-4.61075E-03-6.55919E-04
 -1      2492 2.86633E-03-5.51980E-03-6.47477E-04
 -1      2493 3.87834E-03-6.52852E-03-6.37080E-04
 -1      2494 4.98945E-03-7.64735E-03-6.24368E-04
 -1      2495 6.18678E-03-8.88556E-03-6.09133E-04
 -1      2496 7.45740E-03-1.02510E-02-5.91227E-04
 -1      2497 8.78847E-03-1.17504E-02-5.70486E-04
 -1      2498 1.01675E-02-1.33889E-02-5.46678E-04
 -1      2499 1.15823E-02-1.51710E-02-5.19449E-04
 -1      2500 1.30214E-02-1.71003E-02-4.88283E-04
 -1      2501 1.44740E-02-1.91802E-02-4.52454E-04
 -1      2502 1.59296E-02-2.14141E-02-4.10980E-04
 -1      2503 1.73778E-02-2.38059E-02-3.62572E-04
 -1      2504 1.88076E-02-2.63599E-02-3.05606E-04
 -1      2505 2.02058E-02-2.90809E-02-2.38122E-04
 -1      2506 2.15553E-02-3.19728E-02-1.57916E-04
 -1      2507 2.28320E-02-3.50363E-02-6.27778E-05
 -1      2508 2.40025E-02-3.82630E-02 4.90021E-05
 -1      2509 2.50218E-02-4.16277E-02 1.77755E-04
 -1      2510 2.58360E-02-4.50767E-02 3.21213E-04
 -1      2511 2.63907E-02-4.85169E-02 4.73417E-04
 -1      2512 2.66492E-02-5.18113E-02 6.25096E-04
 -1      2513 2.66133E-02-5.47887E-02 7.67378E-04
 -1      2514-2.86307E-04-5.89294E-04-4.31459E-04
 -1      2515-3.23835E-04-1.04011E-03-5.38791E-04
 -1      2516-1.45987E-04-1.52590E-03-5.75077E-04
 -1      2517 2.23853E-04-2.06309E-03-5.81536E-04
 -1      2518 7.67584E-04-2.65983E-03-5.80539E-04
 -1      2519 1.46958E-03-3.32631E-03-5.77196E-04
 -1      2520 2.31596E-03-4.07427E-03-5.72573E-04
 -1      2521 3.29346E-03-4.91640E-03-5.66275E-04
 -1      2522 4.38890E-03-5.86504E-03-5.57882E-04
 -1      2523 5.58900E-03-6.93154E-03-5.47120E-04
 -1      2524 6.88026E-03-8.12588E-03-5.33832E-04
 -1      2525 8.24909E-03-9.45660E-03-5.17887E-04
 -1      2526 9.68189E-03-1.09308E-02-4.99123E-04
 -1      2527 1.11652E-02-1.25543E-02-4.77301E-04
 -1      2528 1.26857E-02-1.43318E-02-4.52074E-04
 -1      2529 1.42304E-02-1.62671E-02-4.22953E-04
 -1      2530 1.57868E-02-1.83632E-02-3.89280E-04
 -1      2531 1.73419E-02-2.06231E-02-3.50200E-04
 -1      2532 1.88826E-02-2.30493E-02-3.04641E-04
 -1      2533 2.03943E-02-2.56438E-02-2.51327E-04
 -1      2534 2.18600E-02-2.84079E-02-1.88821E-04
 -1      2535 2.32584E-02-3.13400E-02-1.15662E-04
 -1      2536 2.45623E-02-3.44331E-02-3.06227E-05
 -1      2537 2.57371E-02-3.76701E-02 6.68332E-05
 -1      2538 2.67410E-02-4.10166E-02 1.75873E-04
 -1      2539 2.75288E-02-4.44137E-02 2.93497E-04
 -1      2540 2.80602E-02-4.77720E-02 4.14028E-04
 -1      2541 2.83136E-02-5.09717E-02 5.29864E-04
 -1      2542 2.82999E-02-5.38723E-02 6.34727E-04
 -1      2543-2.47264E-04-5.04064E-04-3.68705E-04
 -1      2544-2.43756E-04-8.85841E-04-4.58838E-04
 -1      2545-2.09249E-05-1.29904E-03-4.89781E-04
 -1      2546 3.99440E-04-1.76024E-03-4.96687E-04
 -1      2547 1.00003E-03-2.28037E-03-4.97770E-04
 -1      2548 1.76547E-03-2.87227E-03-4.96771E-04
 -1      2549 2.68172E-03-3.54981E-03-4.94309E-04
 -1      2550 3.73510E-03-4.32724E-03-4.89987E-04
 -1      2551 4.91194E-03-5.21806E-03-4.83480E-04
 -1      2552 6.19839E-03-6.23447E-03-4.74595E-04
 -1      2553 7.58036E-03-7.38718E-03-4.63220E-04
 -1      2554 9.04353E-03-8.68534E-03-4.49245E-04
 -1      2555 1.05734E-02-1.01365E-02-4.32517E-04
 -1      2556 1.21556E-02-1.17469E-02-4.12811E-04
 -1      2557 1.37755E-02-1.35214E-02-3.89799E-04
 -1      2558 1.54186E-02-1.54636E-02-3.63039E-04
 -1      2559 1.70704E-02-1.75764E-02-3.31956E-04
 -1      2560 1.87158E-02-1.98617E-02-2.95827E-04
 -1      2561 2.03389E-02-2.23205E-02-2.53793E-04
 -1      2562 2.19223E-02-2.49525E-02-2.04887E-04
 -1      2563 2.34457E-02-2.77553E-02-1.48105E-04
 -1      2564 2.48853E-02-3.07226E-02-8.25508E-05
 -1      2565 2.62123E-02-3.38412E-02-7.68237E-06
 -1      2566 2.73925E-02-3.70875E-02 7.63187E-05
 -1      2567 2.83883E-02-4.04218E-02 1.68047E-04
 -1      2568 2.91621E-02-4.37837E-02 2.64362E-04
 -1      2569 2.96841E-02-4.70891E-02 3.60171E-04
 -1      2570 2.99426E-02-5.02327E-02 4.49225E-04
 -1      2571 2.99535E-02-5.30965E-02 5.26878E-04
 -1      2572-2.04879E-04-4.19671E-04-3.07978E-04
 -1      2573-1.56902E-04-7.33049E-04-3.82683E-04
 -1      2574 1.13872E-04-1.07412E-03-4.09306E-04
 -1      2575 5.86909E-04-1.46016E-03-4.16949E-04
 -1      2576 1.24557E-03-1.90494E-03-4.20020E-04
 -1      2577 2.07479E-03-2.42376E-03-4.21145E-04
 -1      2578 3.06044E-03-3.03254E-03-4.20633E-04
 -1      2579 4.18857E-03-3.74701E-03-4.18131E-04
 -1      2580 5.44509E-03-4.58176E-03-4.13402E-04
 -1      2581 6.81565E-03-5.54987E-03-4.06327E-04
 -1      2582 8.28554E-03-6.66273E-03-3.96833E-04
 -1      2583 9.83972E-03-7.93006E-03-3.84834E-04
 -1      2584 1.14628E-02-9.35986E-03-3.70192E-04
 -1      2585 1.31393E-02-1.09586E-02-3.52700E-04
 -1      2586 1.48534E-02-1.27311E-02-3.32067E-04
 -1      2587 1.65889E-02-1.46810E-02-3.07901E-04
 -1      2588 1.83295E-02-1.68106E-02-2.79711E-04
 -1      2589 2.00580E-02-1.91206E-02-2.46907E-04
 -1      2590 2.17561E-02-2.16106E-02-2.08814E-04
 -1      2591 2.34040E-02-2.42777E-02-1.64726E-04
 -1      2592 2.49792E-02-2.71162E-02-1.13978E-04
 -1      2593 2.64560E-02-3.01157E-02-5.60898E-05
 -1      2594 2.78050E-02-3.32583E-02 9.02346E-06
 -1      2595 2.89938E-02-3.65159E-02 8.07617E-05
 -1      2596 2.99885E-02-3.98457E-02 1.57481E-04
 -1      2597 3.07580E-02-4.31878E-02 2.36164E-04
 -1      2598 3.12803E-02-4.64640E-02 3.12348E-04
 -1      2599 3.15502E-02-4.95808E-02 3.80834E-04
 -1      2600 3.15866E-02-5.24371E-02 4.38020E-04
 -1      2601-1.59973E-04-3.35700E-04-2.49075E-04
 -1      2602-6.47900E-05-5.80702E-04-3.10041E-04
 -1      2603 2.56389E-04-8.49419E-04-3.33278E-04
 -1      2604 7.83970E-04-1.16050E-03-3.41884E-04
 -1      2605 1.50183E-03-1.53055E-03-3.46826E-04
 -1      2606 2.39520E-03-1.97725E-03-3.49858E-04
 -1      2607 3.44993E-03-2.51844E-03-3.51102E-04
 -1      2608 4.65188E-03-3.17122E-03-3.50276E-04
 -1      2609 5.98664E-03-3.95124E-03-3.47229E-04
 -1      2610 7.43939E-03-4.87243E-03-3.41901E-04
 -1      2611 8.99485E-03-5.94683E-03-3.34254E-04
 -1      2612 1.06372E-02-7.18466E-03-3.24226E-04
 -1      2613 1.23503E-02-8.59432E-03-3.11700E-04
 -1      2614 1.41174E-02-1.01824E-02-2.96495E-04
 -1      2615 1.59213E-02-1.19539E-02-2.78353E-04
 -1      2616 1.77445E-02-1.39120E-02-2.56942E-04
 -1      2617 1.95688E-02-1.60582E-02-2.31848E-04
 -1      2618 2.13751E-02-1.83924E-02-2.02598E-04
 -1      2619 2.31430E-02-2.09123E-02-1.68675E-04
 -1      2620 2.48508E-02-2.36128E-02-1.29580E-04
 -1      2621 2.64741E-02-2.64853E-02-8.49062E-05
 -1      2622 2.79864E-02-2.95158E-02-3.44675E-05
 -1      2623 2.93585E-02-3.26829E-02 2.15275E-05
 -1      2624 3.05595E-02-3.59552E-02 8.22511E-05
 -1      2625 3.15593E-02-3.92886E-02 1.46003E-04
 -1      2626 3.23321E-02-4.26247E-02 2.09993E-04
 -1      2627 3.28616E-02-4.58910E-02 2.70337E-04
 -1      2628 3.31471E-02-4.90038E-02 3.22638E-04
 -1      2629 3.32090E-02-5.18749E-02 3.63977E-04
 -1      2630-1.13070E-04-2.51787E-04-1.91801E-04
 -1      2631 3.15899E-05-4.27924E-04-2.40628E-04
 -1      2632 4.05284E-04-6.23532E-04-2.61321E-04
 -1      2633 9.89055E-04-8.59300E-04-2.71068E-04
 -1      2634 1.76714E-03-1.15471E-03-2.77754E-04
 -1      2635 2.72501E-03-1.52978E-03-2.82493E-04
 -1      2636 3.84857E-03-2.00409E-03-2.85320E-04
 -1      2637 5.12357E-03-2.59606E-03-2.86041E-04
 -1      2638 6.53536E-03-3.32234E-03-2.84584E-04
 -1      2639 8.06872E-03-4.19762E-03-2.80939E-04
 -1      2640 9.70781E-03-5.23461E-03-2.75102E-04
 -1      2641 1.14361E-02-6.44398E-03-2.67030E-04
 -1      2642 1.32365E-02-7.83444E-03-2.56633E-04
 -1      2643 1.50912E-02-9.41275E-03-2.43755E-04
 -1      2644 1.69817E-02-1.11837E-02-2.28180E-04
 -1      2645 1.88889E-02-1.31502E-02-2.09623E-04
 -1      2646 2.07930E-02-1.53131E-02-1.87748E-04
 -1      2647 2.26732E-02-1.76710E-02-1.62176E-04
 -1      2648 2.45075E-02-2.02201E-02-1.32521E-04
 -1      2649 2.62722E-02-2.29531E-02-9.84426E-05
 -1      2650 2.79419E-02-2.58588E-02-5.97226E-05
 -1      2651 2.94896E-02-2.89203E-02-1.63745E-05
 -1      2652 3.08865E-02-3.21134E-02 3.12133E-05
 -1      2653 3.21036E-02-3.54047E-02 8.21063E-05
 -1      2654 3.31140E-02-3.87496E-02 1.34643E-04
 -1      2655 3.38960E-02-4.20919E-02 1.86293E-04
 -1      2656 3.44376E-02-4.53641E-02 2.33664E-04
 -1      2657 3.47414E-02-4.84908E-02 2.72980E-04
 -1      2658 3.48283E-02-5.13941E-02 3.01764E-04
 -1      2659-6.44869E-05-1.67601E-04-1.35975E-04
 -1      2660 1.31633E-04-2.73956E-04-1.74176E-04
 -1      2661 5.59715E-04-3.95239E-04-1.93086E-04
 -1      2662 1.20114E-03-5.54874E-04-2.04108E-04
 -1      2663 2.04035E-03-7.75322E-04-2.12411E-04
 -1      2664 3.06305E-03-1.07883E-03-2.18679E-04
 -1      2665 4.25522E-03-1.48661E-03-2.22934E-04
 -1      2666 5.60262E-03-2.01831E-03-2.25086E-04
 -1      2667 7.09042E-03-2.69150E-03-2.25132E-04
 -1      2668 8.70307E-03-3.52163E-03-2.23106E-04
 -1      2669 1.04242E-02-4.52197E-03-2.19031E-04
 -1      2670 1.22366E-02-5.70363E-03-2.12891E-04
 -1      2671 1.41223E-02-7.07559E-03-2.04618E-04
 -1      2672 1.60622E-02-8.64468E-03-1.94086E-04
 -1      2673 1.80367E-02-1.04156E-02-1.81115E-04
 -1      2674 2.00253E-02-1.23908E-02-1.65469E-04
 -1      2675 2.20066E-02-1.45703E-02-1.46873E-04
 -1      2676 2.39581E-02-1.69517E-02-1.25028E-04
 -1      2677 2.58564E-02-1.95296E-02-9.96509E-05
 -1      2678 2.76765E-02-2.22947E-02-7.05180E-05
 -1      2679 2.93921E-02-2.52337E-02-3.75426E-05
 -1      2680 3.09759E-02-2.83271E-02-8.67004E-07
 -1      2681 3.23999E-02-3.15486E-02 3.90209E-05
 -1      2682 3.36368E-02-3.48635E-02 8.11562E-05
 -1      2683 3.46624E-02-3.82275E-02 1.23966E-04
 -1      2684 3.54583E-02-4.15864E-02 1.65171E-04
 -1      2685 3.60158E-02-4.48775E-02 2.01797E-04
 -1      2686 3.63395E-02-4.80325E-02 2.30540E-04
 -1      2687 3.64507E-02-5.09819E-02 2.49213E-04
 -1      2688-1.43831E-05-8.28419E-05-8.14284E-05
 -1      2689 2.35028E-04-1.18112E-04-1.10436E-04
 -1      2690 7.19218E-04-1.63459E-04-1.28251E-04
 -1      2691 1.41962E-03-2.45759E-04-1.40653E-04
 -1      2692 2.32075E-03-3.90541E-04-1.50451E-04
 -1      2693 3.40850E-03-6.22207E-04-1.58085E-04
 -1      2694 4.66908E-03-9.63514E-04-1.63634E-04
 -1      2695 6.08829E-03-1.43520E-03-1.67109E-04
 -1      2696 7.65125E-03-2.05571E-03-1.68573E-04
 -1      2697 9.34214E-03-2.84118E-03-1.68096E-04
 -1      2698 1.11441E-02-3.80541E-03-1.65731E-04
 -1      2699 1.30393E-02-4.95990E-03-1.61486E-04
 -1      2700 1.50086E-02-6.31386E-03-1.55318E-04
 -1      2701 1.70321E-02-7.87416E-03-1.47131E-04
 -1      2702 1.90888E-02-9.64533E-03-1.36776E-04
 -1      2703 2.11569E-02-1.16294E-02-1.24061E-04
 -1      2704 2.32135E-02-1.38256E-02-1.08761E-04
 -1      2705 2.52348E-02-1.62305E-02-9.06425E-05
 -1      2706 2.71958E-02-1.88371E-02-6.94953E-05
 -1      2707 2.90707E-02-2.16346E-02-4.51814E-05
 -1      2708 3.08325E-02-2.46074E-02-1.76996E-05
 -1      2709 3.24538E-02-2.77342E-02 1.27333E-05
 -1      2710 3.39072E-02-3.09871E-02 4.55864E-05
 -1      2711 3.51673E-02-3.43304E-02 7.99130E-05
 -1      2712 3.62120E-02-3.77203E-02 1.14253E-04
 -1      2713 3.70255E-02-4.11049E-02 1.46560E-04
 -1      2714 3.76016E-02-4.44259E-02 1.74209E-04
 -1      2715 3.79464E-02-4.76209E-02 1.94260E-04
 -1      2716 3.80811E-02-5.06276E-02 2.04710E-04
 -1      2717 3.72075E-05 2.77506E-06-2.80112E-05
 -1      2718 3.41698E-04 4.02429E-05-4.91879E-05
 -1      2719 8.83633E-04 7.27981E-05-6.65290E-05
 -1      2720 1.64421E-03 6.93742E-05-8.03901E-05
 -1      2721 2.60789E-03 1.26583E-06-9.15687E-05
 -1      2722 3.76086E-03-1.58019E-04-1.00426E-04
 -1      2723 5.08957E-03-4.32654E-04-1.07145E-04
 -1      2724 6.58007E-03-8.44379E-04-1.11843E-04
 -1      2725 8.21748E-03-1.41243E-03-1.14636E-04
 -1      2726 9.98577E-03-2.15354E-03-1.15635E-04
 -1      2727 1.18677E-02-3.08200E-03-1.14920E-04
 -1      2728 1.38445E-02-4.20967E-03-1.12524E-04
 -1      2729 1.58964E-02-5.54595E-03-1.08431E-04
 -1      2730 1.80024E-02-7.09777E-03-1.02571E-04
 -1      2731 2.01402E-02-8.86943E-03-9.48241E-05
 -1      2732 2.22867E-02-1.08625E-02-8.50342E-05
 -1      2733 2.44176E-02-1.30756E-02-7.30180E-05
 -1      2734 2.65077E-02-1.55042E-02-5.85895E-05
 -1      2735 2.85311E-02-1.81399E-02-4.15923E-05
 -1      2736 3.04608E-02-2.09703E-02-2.19434E-05
 -1      2737 3.22695E-02-2.39780E-02 3.08309E-07
 -1      2738 3.39299E-02-2.71402E-02 2.49120E-05
 -1      2739 3.54153E-02-3.04276E-02 5.13351E-05
 -1      2740 3.67016E-02-3.38040E-02 7.86811E-05
 -1      2741 3.77686E-02-3.72262E-02 1.05614E-04
 -1      2742 3.86027E-02-4.06445E-02 1.30300E-04
 -1      2743 3.91994E-02-4.40044E-02 1.50406E-04
 -1      2744 3.95660E-02-4.72490E-02 1.63278E-04
 -1      2745 3.97234E-02-5.03221E-02 1.67018E-04
 -1      2746 9.03582E-05 8.95286E-05 2.44165E-05
 -1      2747 4.51767E-04 2.01728E-04 9.76714E-06
 -1      2748 1.05305E-03 3.14485E-04-7.67106E-06
 -1      2749 1.87488E-03 3.91773E-04-2.30526E-05
 -1      2750 2.90160E-03 4.01592E-04-3.55028E-05
 -1      2751 4.11976E-03 3.15428E-04-4.54541E-05
 -1      2752 5.51629E-03 1.07827E-04-5.32282E-05
 -1      2753 7.07756E-03-2.43837E-04-5.90459E-05
 -1      2754 8.78883E-03-7.59476E-04-6.30789E-05
 -1      2755 1.06339E-02-1.45638E-03-6.54747E-05
 -1      2756 1.25951E-02-2.34926E-03-6.63432E-05
 -1      2757 1.46530E-02-3.45031E-03-6.57448E-05
 -1      2758 1.67870E-02-4.76911E-03-6.36864E-05
 -1      2759 1.89748E-02-6.31262E-03-6.01225E-05
 -1      2760 2.11930E-02-8.08495E-03-5.49611E-05
 -1      2761 2.34173E-02-1.00873E-02-4.80732E-05
 -1      2762 2.56220E-02-1.23175E-02-3.93077E-05
 -1      2763 2.77809E-02-1.47700E-02-2.85133E-05
 -1      2764 2.98667E-02-1.74353E-02-1.55683E-05
 -1      2765 3.18519E-02-2.02995E-02-4.21099E-07
 -1      2766 3.37086E-02-2.33438E-02 1.68578E-05
 -1      2767 3.54098E-02-2.65437E-02 3.60150E-05
 -1      2768 3.69294E-02-2.98689E-02 5.65461E-05
 -1      2769 3.82445E-02-3.32829E-02 7.76270E-05
 -1      2770 3.93366E-02-3.67432E-02 9.80522E-05
 -1      2771 4.01937E-02-4.02021E-02 1.16183E-04
 -1      2772 4.08126E-02-4.36087E-02 1.29933E-04
 -1      2773 4.12014E-02-4.69108E-02 1.36872E-04
 -1      2774 4.13804E-02-5.00578E-02 1.35161E-04
 -1      2775 1.45244E-04 1.77705E-04 7.59850E-05
 -1      2776 5.65551E-04 3.66977E-04 6.66013E-05
 -1      2777 1.22779E-03 5.62563E-04 4.85364E-05
 -1      2778 2.11179E-03 7.22655E-04 3.15866E-05
 -1      2779 3.20183E-03 8.11833E-04 1.79680E-05
 -1      2780 4.48501E-03 7.99653E-04 7.04563E-06
 -1      2781 5.94892E-03 6.59540E-04-1.67034E-06
 -1      2782 7.58047E-03 3.68131E-04-8.50409E-06
 -1      2783 9.36512E-03-9.50535E-05-1.36816E-05
 -1      2784 1.12866E-02-7.47768E-04-1.73900E-05
 -1      2785 1.33267E-02-1.60513E-03-1.97708E-05
 -1      2786 1.54654E-02-2.67962E-03-2.09109E-05
 -1      2787 1.76811E-02-3.98102E-03-2.08402E-05
 -1      2788 1.99506E-02-5.51630E-03-1.95349E-05
 -1      2789 2.22492E-02-7.28941E-03-1.69249E-05
 -1      2790 2.45512E-02-9.30113E-03-1.29038E-05
 -1      2791 2.68299E-02-1.15487E-02-7.34418E-06
 -1      2792 2.90577E-02-1.40257E-02-1.17030E-07
 -1      2793 3.12065E-02-1.67214E-02 8.87988E-06
 -1      2794 3.32481E-02-1.96207E-02 1.96859E-05
 -1      2795 3.51542E-02-2.27031E-02 3.22317E-05
 -1      2796 3.68979E-02-2.59432E-02 4.62859E-05
 -1      2797 3.84539E-02-2.93096E-02 6.13951E-05
 -1      2798 3.98002E-02-3.27657E-02 7.68248E-05
 -1      2799 4.09195E-02-3.62694E-02 9.15042E-05
 -1      2800 4.18014E-02-3.97752E-02 1.03976E-04
 -1      2801 4.24437E-02-4.32350E-02 1.12367E-04
 -1      2802 4.28547E-02-4.66011E-02 1.14431E-04
 -1      2803 4.30545E-02-4.98281E-02 1.08348E-04
 -1      2804 2.02146E-04 2.67617E-04 1.26818E-04
 -1      2805 6.83555E-04 5.36677E-04 1.21462E-04
 -1      2806 1.40836E-03 8.18049E-04 1.02268E-04
 -1      2807 2.35527E-03 1.06326E-03 8.37129E-05
 -1      2808 3.50864E-03 1.23333E-03 6.90277E-05
 -1      2809 4.85643E-03 1.29603E-03 5.72557E-05
 -1      2810 6.38720E-03 1.22387E-03 4.77149E-05
 -1      2811 8.08853E-03 9.92947E-04 3.99761E-05
 -1      2812 9.94620E-03 5.82332E-04 3.37560E-05
 -1      2813 1.19438E-02-2.61262E-05 2.88242E-05
 -1      2814 1.40628E-02-8.47903E-04 2.50065E-05
 -1      2815 1.62824E-02-1.89578E-03 2.21905E-05
 -1      2816 1.85800E-02-3.17973E-03 2.03254E-05
 -1      2817 2.09313E-02-4.70678E-03 1.94163E-05
 -1      2818 2.33105E-02-6.48075E-03 1.95153E-05
 -1      2819 2.56907E-02-8.50206E-03 2.07116E-05
 -1      2820 2.80438E-02-1.07674E-02 2.31170E-05
 -1      2821 3.03413E-02-1.32694E-02 2.68476E-05
 -1      2822 3.25541E-02-1.59965E-02 3.19988E-05
 -1      2823 3.46531E-02-1.89320E-02 3.86136E-05
 -1      2824 3.66101E-02-2.20547E-02 4.66421E-05
 -1      2825 3.83980E-02-2.53376E-02 5.58940E-05
 -1      2826 3.99922E-02-2.87487E-02 6.59859E-05
 -1      2827 4.13716E-02-3.22510E-02 7.62864E-05
 -1      2828 4.25200E-02-3.58032E-02 8.58643E-05
 -1      2829 4.34280E-02-3.93613E-02 9.34352E-05
 -1      2830 4.40944E-02-4.28800E-02 9.73185E-05
 -1      2831 4.45275E-02-4.63154E-02 9.54225E-05
 -1      2832 4.47471E-02-4.96274E-02 8.59217E-05
 -1      2833 2.61472E-04 3.59625E-04 1.77039E-04
 -1      2834 8.06500E-04 7.11619E-04 1.74466E-04
 -1      2835 1.59547E-03 1.08209E-03 1.53658E-04
 -1      2836 2.60576E-03 1.41488E-03 1.33470E-04
 -1      2837 3.82213E-03 1.66737E-03 1.17825E-04
 -1      2838 5.23388E-03 1.80578E-03 1.05332E-04
 -1      2839 6.83084E-03 1.80199E-03 9.50940E-05
 -1      2840 8.60147E-03 1.63177E-03 8.65709E-05
 -1      2841 1.05319E-02 1.27388E-03 7.94169E-05
 -1      2842 1.26057E-02 7.09830E-04 7.33552E-05
 -1      2843 1.48037E-02-7.61950E-05 6.81790E-05
 -1      2844 1.71044E-02-1.09729E-03 6.37524E-05
 -1      2845 1.94844E-02-2.36364E-03 6.00064E-05
 -1      2846 2.19181E-02-3.88237E-03 5.69304E-05
 -1      2847 2.43787E-02-5.65721E-03 5.45629E-05
 -1      2848 2.68378E-02-7.68826E-03 5.29805E-05
 -1      2849 2.92663E-02-9.97170E-03 5.22854E-05
 -1      2850 3.16344E-02-1.24994E-02 5.25891E-05
 -1      2851 3.39123E-02-1.52588E-02 5.39905E-05
 -1      2852 3.60702E-02-1.82323E-02 5.65489E-05
 -1      2853 3.80795E-02-2.13971E-02 6.02481E-05
 -1      2854 3.99132E-02-2.47256E-02 6.49550E-05
 -1      2855 4.15472E-02-2.81849E-02 7.03712E-05
 -1      2856 4.29612E-02-3.17376E-02 7.59814E-05
 -1      2857 4.41400E-02-3.53429E-02 8.10005E-05
 -1      2858 4.50752E-02-3.89581E-02 8.43152E-05
 -1      2859 4.57660E-02-4.25405E-02 8.44240E-05
 -1      2860 4.62210E-02-4.60498E-02 7.93745E-05
 -1      2861 4.64594E-02-4.94506E-02 6.73247E-05
 -1      2862 3.23793E-04 4.54179E-04 2.26768E-04
 -1      2863 9.35361E-04 8.92778E-04 2.25699E-04
 -1      2864 1.79003E-03 1.35602E-03 2.02793E-04
 -1      2865 2.86377E-03 1.77894E-03 1.80957E-04
 -1      2866 4.14238E-03 2.11525E-03 1.64476E-04
 -1      2867 5.61713E-03 2.33000E-03 1.51408E-04
 -1      2868 7.27950E-03 2.39485E-03 1.40617E-04
 -1      2869 9.11899E-03 2.28550E-03 1.31443E-04
 -1      2870 1.11221E-02 1.98051E-03 1.23470E-04
 -1      2871 1.32722E-02 1.46110E-03 1.16375E-04
 -1      2872 1.55496E-02 7.11102E-04 1.09920E-04
 -1      2873 1.79322E-02-2.82919E-04 1.03950E-04
 -1      2874 2.03953E-02-1.53143E-03 9.83787E-05
 -1      2875 2.29124E-02-3.04165E-03 9.31855E-05
 -1      2876 2.54552E-02-4.81729E-03 8.83977E-05
 -1      2877 2.79944E-02-6.85822E-03 8.40839E-05
 -1      2878 3.04995E-02-9.16014E-03 8.03416E-05
 -1      2879 3.29396E-02-1.17143E-02 7.72841E-05
 -1      2880 3.52839E-02-1.45071E-02 7.50220E-05
 -1      2881 3.75021E-02-1.75201E-02 7.36407E-05
 -1      2882 3.95651E-02-2.07294E-02 7.31696E-05
 -1      2883 4.14461E-02-2.41063E-02 7.35454E-05
 -1      2884 4.31213E-02-2.76171E-02 7.45684E-05
 -1      2885 4.45710E-02-3.12241E-02 7.58513E-05
 -1      2886 4.57811E-02-3.48869E-02 7.67646E-05
 -1      2887 4.67439E-02-3.85637E-02 7.63692E-05
 -1      2888 4.74592E-02-4.22141E-02 7.33403E-05
 -1      2889 4.79357E-02-4.58010E-02 6.58597E-05
 -1      2890 4.81918E-02-4.92935E-02 5.20686E-05
 -1      2891 3.89904E-04 5.51871E-04 2.76128E-04
 -1      2892 1.07143E-03 1.08142E-03 2.75191E-04
 -1      2893 1.99310E-03 1.64149E-03 2.49699E-04
 -1      2894 3.12980E-03 2.15700E-03 2.26229E-04
 -1      2895 4.46936E-03 2.57820E-03 2.09066E-04
 -1      2896 6.00583E-03 2.86960E-03 1.95601E-04
 -1      2897 7.73276E-03 3.00317E-03 1.84425E-04
 -1      2898 9.64072E-03 2.95477E-03 1.74745E-04
 -1      2899 1.17165E-02 2.70289E-03 1.66074E-04
 -1      2900 1.39433E-02 2.22844E-03 1.58044E-04
 -1      2901 1.63009E-02 1.51485E-03 1.50390E-04
 -1      2902 1.87662E-02 5.48298E-04 1.42940E-04
 -1      2903 2.13135E-02-6.81987E-04 1.35601E-04
 -1      2904 2.39151E-02-2.18343E-03 1.28341E-04
 -1      2905 2.65417E-02-3.95975E-03 1.21179E-04
 -1      2906 2.91623E-02-6.01064E-03 1.14181E-04
 -1      2907 3.17454E-02-8.33141E-03 1.07442E-04
 -1      2908 3.42590E-02-1.09127E-02 1.01083E-04
 -1      2909 3.66712E-02-1.37401E-02 9.52328E-05
 -1      2910 3.89512E-02-1.67942E-02 9.00093E-05
 -1      2911 4.10694E-02-2.00502E-02 8.54973E-05
 -1      2912 4.29990E-02-2.34783E-02 8.17141E-05
 -1      2913 4.47164E-02-2.70441E-02 7.85701E-05
 -1      2914 4.62027E-02-3.07094E-02 7.58190E-05
 -1      2915 4.74445E-02-3.44338E-02 7.29980E-05
 -1      2916 4.84349E-02-3.81764E-02 6.93523E-05
 -1      2917 4.91744E-02-4.18984E-02 6.37394E-05
 -1      2918 4.96716E-02-4.55659E-02 5.44809E-05
 -1      2919 4.99442E-02-4.91523E-02 3.97130E-05
 -1      2920 4.60940E-04 6.53542E-04 3.25230E-04
 -1      2921 1.21640E-03 1.27927E-03 3.22899E-04
 -1      2922 2.20593E-03 1.94056E-03 2.94330E-04
 -1      2923 3.40422E-03 2.55080E-03 2.69290E-04
 -1      2924 4.80281E-03 3.05737E-03 2.51655E-04
 -1      2925 6.39949E-03 3.42527E-03 2.38017E-04
 -1      2926 8.19009E-03 3.62738E-03 2.26650E-04
 -1      2927 1.01663E-02 3.63997E-03 2.16622E-04
 -1      2928 1.23150E-02 3.44145E-03 2.07377E-04
 -1      2929 1.46192E-02 3.01236E-03 1.98508E-04
 -1      2930 1.70578E-02 2.33568E-03 1.89733E-04
 -1      2931 1.96069E-02 1.39713E-03 1.80869E-04
 -1      2932 2.22398E-02 1.85551E-04 1.71817E-04
 -1      2933 2.49275E-02-1.30673E-03 1.62538E-04
 -1      2934 2.76393E-02-3.08352E-03 1.53050E-04
 -1      2935 3.03430E-02-5.14440E-03 1.43412E-04
 -1      2936 3.30058E-02-7.48435E-03 1.33725E-04
 -1      2937 3.55946E-02-1.00935E-02 1.24117E-04
 -1      2938 3.80765E-02-1.29567E-02 1.14741E-04
 -1      2939 4.04198E-02-1.60536E-02 1.05753E-04
 -1      2940 4.25945E-02-1.93585E-02 9.73010E-05
 -1      2941 4.45738E-02-2.28407E-02 8.94906E-05
 -1      2942 4.63342E-02-2.64648E-02 8.23531E-05
 -1      2943 4.78574E-02-3.01921E-02 7.57953E-05
 -1      2944 4.91309E-02-3.39821E-02 6.95365E-05
 -1      2945 5.01485E-02-3.77943E-02 6.30210E-05
 -1      2946 5.09113E-02-4.15915E-02 5.53031E-05
 -1      2947 5.14282E-02-4.53421E-02 4.48605E-05
 -1      2948 5.17163E-02-4.90238E-02 2.98458E-05
 -1      2949 5.38548E-04 7.60455E-04 3.74151E-04
 -1      2950 1.37248E-03 1.48883E-03 3.68652E-04
 -1      2951 2.42978E-03 2.25589E-03 3.36541E-04
 -1      2952 3.68718E-03 2.96219E-03 3.10088E-04
 -1      2953 5.14222E-03 3.55372E-03 2.92288E-04
 -1      2954 6.79737E-03 3.99740E-03 2.78762E-04
 -1      2955 8.65086E-03 4.26766E-03 2.67427E-04
 -1      2956 1.06952E-02 4.34124E-03 2.57216E-04
 -1      2957 1.29173E-02 4.19637E-03 2.47519E-04
 -1      2958 1.52997E-02 3.81317E-03 2.37905E-04
 -1      2959 1.78206E-02 3.17404E-03 2.28082E-04
 -1      2960 2.04550E-02 2.26415E-03 2.17867E-04
 -1      2961 2.31750E-02 1.07189E-03 2.07155E-04
 -1      2962 2.59505E-02-4.10743E-04 1.95906E-04
 -1      2963 2.87493E-02-2.18771E-03 1.84135E-04
 -1      2964 3.15381E-02-4.25853E-03 1.71902E-04
 -1      2965 3.42826E-02-6.61795E-03 1.59309E-04
 -1      2966 3.69484E-02-9.25560E-03 1.46499E-04
 -1      2967 3.95017E-02-1.21558E-02 1.33647E-04
 -1      2968 4.19099E-02-1.52972E-02 1.20955E-04
 -1      2969 4.41425E-02-1.86533E-02 1.08635E-04
 -1      2970 4.61723E-02-2.21923E-02 9.68911E-05
 -1      2971 4.79763E-02-2.58780E-02 8.58832E-05
 -1      2972 4.95364E-02-2.96711E-02 7.56844E-05
 -1      2973 5.08409E-02-3.35305E-02 6.62124E-05
 -1      2974 5.18847E-02-3.74161E-02 5.71323E-05
 -1      2975 5.26697E-02-4.12915E-02 4.77189E-05
 -1      2976 5.32049E-02-4.51274E-02 3.66307E-05
 -1      2977 5.35069E-02-4.89052E-02 2.20655E-05
 -1      2978 6.25185E-04 8.74647E-04 4.22879E-04
 -1      2979 1.54245E-03 1.71379E-03 4.12088E-04
 -1      2980 2.66576E-03 2.59086E-03 3.76061E-04
 -1      2981 3.97829E-03 3.39304E-03 3.48526E-04
 -1      2982 5.48664E-03 4.06785E-03 3.31012E-04
 -1      2983 7.19857E-03 4.58602E-03 3.17953E-04
 -1      2984 9.11435E-03 4.92385E-03 3.06890E-04
 -1      2985 1.12270E-02 5.05844E-03 2.96660E-04
 -1      2986 1.35232E-02 4.96767E-03 2.86630E-04
 -1      2987 1.59849E-02 4.63102E-03 2.76360E-04
 -1      2988 1.85894E-02 4.03022E-03 2.65560E-04
 -1      2989 2.13107E-02 3.14980E-03 2.54051E-04
 -1      2990 2.41198E-02 1.97758E-03 2.41730E-04
 -1      2991 2.69850E-02 5.05195E-04 2.28559E-04
 -1      2992 2.98729E-02-1.27155E-03 2.14549E-04
 -1      2993 3.27489E-02-3.35220E-03 1.99761E-04
 -1      2994 3.55772E-02-5.73131E-03 1.84302E-04
 -1      2995 3.83221E-02-8.39812E-03 1.68328E-04
 -1      2996 4.09488E-02-1.13363E-02 1.52040E-04
 -1      2997 4.34235E-02-1.45239E-02 1.35684E-04
 -1      2998 4.57152E-02-1.79333E-02 1.19544E-04
 -1      2999 4.77964E-02-2.15319E-02 1.03923E-04
 -1      3000 4.96440E-02-2.52826E-02 8.91210E-05
 -1      3001 5.12405E-02-2.91450E-02 7.53875E-05
 -1      3002 5.25750E-02-3.30777E-02 6.28577E-05
 -1      3003 5.36434E-02-3.70402E-02 5.14445E-05
 -1      3004 5.44486E-02-4.09969E-02 4.06765E-05
 -1      3005 5.50002E-02-4.49199E-02 2.94271E-05
 -1      3006 5.53146E-02-4.87941E-02 1.59659E-05
 -1      3007 7.24604E-04 9.99642E-04 4.71236E-04
 -1      3008 1.72966E-03 1.95987E-03 4.52576E-04
 -1      3009 2.91437E-03 2.94964E-03 4.12479E-04
 -1      3010 4.27641E-03 3.84482E-03 3.84481E-04
 -1      3011 5.83471E-03 4.59979E-03 3.67905E-04
 -1      3012 7.60200E-03 5.19070E-03 3.55725E-04
 -1      3013 9.57978E-03 5.59550E-03 3.45174E-04
 -1      3014 1.17611E-02 5.79123E-03 3.35085E-04
 -1      3015 1.41325E-02 5.75513E-03 3.24832E-04
 -1      3016 1.66748E-02 5.46587E-03 3.13986E-04
 -1      3017 1.93646E-02 4.90435E-03 3.02274E-04
 -1      3018 2.21747E-02 4.05434E-03 2.89525E-04
 -1      3019 2.50747E-02 2.90305E-03 2.75645E-04
 -1      3020 2.80319E-02 1.44162E-03 2.60595E-04
 -1      3021 3.10113E-02-3.34404E-04 2.44389E-04
 -1      3022 3.39768E-02-2.42467E-03 2.27085E-04
 -1      3023 3.68912E-02-4.82362E-03 2.08796E-04
 -1      3024 3.97175E-02-7.52016E-03 1.89690E-04
 -1      3025 4.24194E-02-1.04974E-02 1.69994E-04
 -1      3026 4.49624E-02-1.37327E-02 1.50001E-04
 -1      3027 4.73145E-02-1.71977E-02 1.30063E-04
 -1      3028 4.94476E-02-2.08586E-02 1.10590E-04
 -1      3029 5.13388E-02-2.46772E-02 9.20246E-05
 -1      3030 5.29709E-02-2.86126E-02 7.48065E-05
 -1      3031 5.43336E-02-3.26221E-02 5.93070E-05
 -1      3032 5.54243E-02-3.66652E-02 4.57182E-05
 -1      3033 5.62470E-02-4.07059E-02 3.38672E-05
 -1      3034 5.68125E-02-4.47179E-02 2.28863E-05
 -1      3035 5.71372E-02-4.86886E-02 1.11255E-05
 -1      3036 8.42716E-04 1.14212E-03 5.18769E-04
 -1      3037 1.93755E-03 2.23611E-03 4.89264E-04
 -1      3038 3.17459E-03 3.33672E-03 4.45256E-04
 -1      3039 4.57927E-03 4.31795E-03 4.17906E-04
 -1      3040 6.18472E-03 5.14875E-03 4.03125E-04
 -1      3041 8.00648E-03 5.81057E-03 3.92223E-04
 -1      3042 1.00464E-02 6.28184E-03 3.82413E-04
 -1      3043 1.22972E-02 6.53903E-03 3.72615E-04
 -1      3044 1.47449E-02 6.55840E-03 3.62236E-04
 -1      3045 1.73694E-02 6.31756E-03 3.50886E-04
 -1      3046 2.01463E-02 5.79645E-03 3.38319E-04
 -1      3047 2.30473E-02 4.97796E-03 3.24382E-04
 -1      3048 2.60406E-02 3.84859E-03 3.08988E-04
 -1      3049 2.90921E-02 2.39897E-03 2.92104E-04
 -1      3050 3.21655E-02 6.24262E-04 2.73740E-04
 -1      3051 3.52230E-02-1.47532E-03 2.53959E-04
 -1      3052 3.82260E-02-3.89416E-03 2.32873E-04
 -1      3053 4.11360E-02-6.62090E-03 2.10661E-04
 -1      3054 4.39154E-02-9.63822E-03 1.87577E-04
 -1      3055 4.65283E-02-1.29227E-02 1.63956E-04
 -1      3056 4.89420E-02-1.64452E-02 1.40223E-04
 -1      3057 5.11276E-02-2.01709E-02 1.16892E-04
 -1      3058 5.30620E-02-2.40608E-02 9.45559E-05
 -1      3059 5.47283E-02-2.80724E-02 7.38517E-05
 -1      3060 5.61171E-02-3.21625E-02 5.54062E-05
 -1      3061 5.72269E-02-3.62895E-02 3.97253E-05
 -1      3062 5.80636E-02-4.04173E-02 2.69905E-05
 -1      3063 5.86397E-02-4.45199E-02 1.66527E-05
 -1      3064 5.89722E-02-4.85870E-02 7.11084E-06
 -1      3065 9.89058E-04 1.31630E-03 5.65160E-04
 -1      3066 2.16815E-03 2.55685E-03 5.21108E-04
 -1      3067 3.44235E-03 3.75480E-03 4.73894E-04
 -1      3068 4.88373E-03 4.81079E-03 4.48987E-04
 -1      3069 6.53498E-03 5.71334E-03 4.36892E-04
 -1      3070 8.41076E-03 6.44427E-03 4.27560E-04
 -1      3071 1.05133E-02 6.98182E-03 4.18737E-04
 -1      3072 1.28348E-02 7.30110E-03 4.09347E-04
 -1      3073 1.53602E-02 7.37699E-03 3.98928E-04
 -1      3074 1.80688E-02 7.18584E-03 3.87137E-04
 -1      3075 2.09348E-02 6.70644E-03 3.73766E-04
 -1      3076 2.39289E-02 5.92073E-03 3.58686E-04
 -1      3077 2.70180E-02 4.81445E-03 3.41823E-04
 -1      3078 3.01665E-02 3.37758E-03 3.23146E-04
 -1      3079 3.33365E-02 1.60491E-03 3.02666E-04
 -1      3080 3.64887E-02-5.03574E-04 2.80441E-04
 -1      3081 3.95830E-02-2.94226E-03 2.56589E-04
 -1      3082 4.25793E-02-5.69959E-03 2.31296E-04
 -1      3083 4.54384E-02-8.75781E-03 2.04835E-04
 -1      3084 4.81232E-02-1.20929E-02 1.77587E-04
 -1      3085 5.05996E-02-1.56748E-02 1.50044E-04
 -1      3086 5.28381E-02-1.94679E-02 1.22828E-04
 -1      3087 5.48151E-02-2.34318E-02 9.66802E-05
 -1      3088 5.65139E-02-2.75230E-02 7.24458E-05
 -1      3089 5.79258E-02-3.16971E-02 5.10217E-05
 -1      3090 5.90508E-02-3.59114E-02 3.32623E-05
 -1      3091 5.98970E-02-4.01292E-02 1.97674E-05
 -1      3092 6.04792E-02-4.43243E-02 1.03926E-05
 -1      3093 6.08161E-02-4.84880E-02 3.50458E-06
 -1      3094 1.17993E-03 1.55874E-03 6.11214E-04
 -1      3095 2.41677E-03 2.94145E-03 5.48338E-04
 -1      3096 3.70897E-03 4.19803E-03 4.98064E-04
 -1      3097 5.18781E-03 5.32132E-03 4.78778E-04
 -1      3098 6.88336E-03 6.29106E-03 4.69208E-04
 -1      3099 8.81379E-03 7.09005E-03 4.62019E-04
 -1      3100 1.09800E-02 7.69416E-03 4.54288E-04
 -1      3101 1.33736E-02 8.07654E-03 4.45417E-04
 -1      3102 1.59785E-02 8.21033E-03 4.35018E-04
 -1      3103 1.87730E-02 8.07036E-03 4.22836E-04
 -1      3104 2.17305E-02 7.63418E-03 4.08705E-04
 -1      3105 2.48201E-02 6.88269E-03 3.92522E-04
 -1      3106 2.80076E-02 5.80076E-03 3.74227E-04
 -1      3107 3.12558E-02 4.37774E-03 3.53794E-04
 -1      3108 3.45253E-02 2.60793E-03 3.31233E-04
 -1      3109 3.77752E-02 4.91065E-04 3.06600E-04
 -1      3110 4.09637E-02-1.96732E-03 2.80008E-04
 -1      3111 4.40490E-02-4.75550E-03 2.51651E-04
 -1      3112 4.69903E-02-7.85537E-03 2.21823E-04
 -1      3113 4.97487E-02-1.12423E-02 1.90940E-04
 -1      3114 5.22892E-02-1.48855E-02 1.59565E-04
 -1      3115 5.45810E-02-1.87481E-02 1.28423E-04
 -1      3116 5.65998E-02-2.27888E-02 9.84077E-05
 -1      3117 5.83290E-02-2.69628E-02 7.05741E-05
 -1      3118 5.97605E-02-3.12243E-02 4.61029E-05
 -1      3119 6.08958E-02-3.55293E-02 2.62220E-05
 -1      3120 6.17455E-02-3.98400E-02 1.20168E-05
 -1      3121 6.23280E-02-4.41297E-02 3.85145E-06
 -1      3122 6.26650E-02-4.83902E-02-2.30789E-09
 -1      3123 3.98750E-05-1.12849E-03 6.53516E-04
 -1      3124 6.54804E-05-1.06530E-03 4.54116E-04
 -1      3125 8.47627E-05-1.03921E-03 3.02754E-04
 -1      3126 9.69830E-05-1.02804E-03 1.74458E-04
 -1      3127 1.02876E-04-1.02374E-03 5.70717E-05
 -1      3128 1.02876E-04-1.02374E-03-5.70717E-05
 -1      3129 9.69830E-05-1.02804E-03-1.74458E-04
 -1      3130 8.47627E-05-1.03921E-03-3.02754E-04
 -1      3131 6.54804E-05-1.06530E-03-4.54116E-04
 -1      3132 3.98750E-05-1.12849E-03-6.53516E-04
 -1      3133 7.23784E-05-2.49867E-03 1.01500E-03
 -1      3134 1.18595E-04-2.39765E-03 7.57103E-04
 -1      3135 1.51759E-04-2.34816E-03 5.21454E-04
 -1      3136 1.73429E-04-2.32346E-03 3.05239E-04
 -1      3137 1.84074E-04-2.31318E-03 1.00503E-04
 -1      3138 1.84074E-04-2.31318E-03-1.00503E-04
 -1      3139 1.73429E-04-2.32346E-03-3.05239E-04
 -1      3140 1.51759E-04-2.34816E-03-5.21454E-04
 -1      3141 1.18595E-04-2.39765E-03-7.57103E-04
 -1      3142 7.23784E-05-2.49867E-03-1.01500E-03
 -1      3143 6.85351E-05-3.81395E-03 1.15015E-03
 -1      3144 1.21893E-04-3.75757E-03 8.93323E-04
 -1      3145 1.61743E-04-3.71322E-03 6.32759E-04
 -1      3146 1.87748E-04-3.68680E-03 3.76549E-04
 -1      3147 2.00603E-04-3.67465E-03 1.24924E-04
 -1      3148 2.00603E-04-3.67465E-03-1.24924E-04
 -1      3149 1.87748E-04-3.68680E-03-3.76549E-04
 -1      3150 1.61743E-04-3.71322E-03-6.32759E-04
 -1      3151 1.21893E-04-3.75757E-03-8.93323E-04
 -1      3152 6.85351E-05-3.81395E-03-1.15015E-03
 -1      3153 1.06007E-04-5.14707E-03 1.20128E-03
 -1      3154 1.60819E-04-5.12429E-03 9.39966E-04
 -1      3155 2.01453E-04-5.10146E-03 6.73582E-04
 -1      3156 2.28325E-04-5.08417E-03 4.04457E-04
 -1      3157 2.41648E-04-5.07530E-03 1.34810E-04
 -1      3158 2.41648E-04-5.07530E-03-1.34810E-04
 -1      3159 2.28325E-04-5.08417E-03-4.04457E-04
 -1      3160 2.01453E-04-5.10146E-03-6.73582E-04
 -1      3161 1.60819E-04-5.12429E-03-9.39966E-04
 -1      3162 1.06007E-04-5.14707E-03-1.20128E-03
 -1      3163 2.02170E-04-6.51892E-03 1.21114E-03
 -1      3164 2.55805E-04-6.51897E-03 9.48644E-04
 -1      3165 2.95087E-04-6.51365E-03 6.81014E-04
 -1      3166 3.20950E-04-6.50771E-03 4.09919E-04
 -1      3167 3.33809E-04-6.50404E-03 1.36843E-04
 -1      3168 3.33809E-04-6.50404E-03-1.36843E-04
 -1      3169 3.20950E-04-6.50771E-03-4.09919E-04
 -1      3170 2.95087E-04-6.51365E-03-6.81014E-04
 -1      3171 2.55805E-04-6.51897E-03-9.48644E-04
 -1      3172 2.02170E-04-6.51892E-03-1.21114E-03
 -1      3173 3.61244E-04-7.93617E-03 1.20268E-03
 -1      3174 4.12503E-04-7.95083E-03 9.40779E-04
 -1      3175 4.49657E-04-7.95785E-03 6.74962E-04
 -1      3176 4.73962E-04-7.96060E-03 4.06171E-04
 -1      3177 4.86004E-04-7.96140E-03 1.35591E-04
 -1      3178 4.86004E-04-7.96140E-03-1.35591E-04
 -1      3179 4.73962E-04-7.96060E-03-4.06171E-04
 -1      3180 4.49657E-04-7.95785E-03-6.74962E-04
 -1      3181 4.12503E-04-7.95083E-03-9.40779E-04
 -1      3182 3.61244E-04-7.93617E-03-1.20268E-03
 -1      3183 5.80546E-04-9.40077E-03 1.18570E-03
 -1      3184 6.28791E-04-9.42468E-03 9.26194E-04
 -1      3185 6.63543E-04-9.43975E-03 6.63757E-04
 -1      3186 6.86167E-04-9.44840E-03 3.99138E-04
 -1      3187 6.97342E-04-9.45230E-03 1.33193E-04
 -1      3188 6.97342E-04-9.45230E-03-1.33193E-04
 -1      3189 6.86167E-04-9.44840E-03-3.99138E-04
 -1      3190 6.63543E-04-9.43975E-03-6.63757E-04
 -1      3191 6.28791E-04-9.42468E-03-9.26194E-04
 -1      3192 5.80546E-04-9.40077E-03-1.18570E-03
 -1      3193 8.54537E-04-1.09137E-02 1.16436E-03
 -1      3194 8.99411E-04-1.09437E-02 9.08569E-04
 -1      3195 9.31643E-04-1.09639E-02 6.50549E-04
 -1      3196 9.52576E-04-1.09763E-02 3.90946E-04
 -1      3197 9.62899E-04-1.09823E-02 1.30417E-04
 -1      3198 9.62899E-04-1.09823E-02-1.30417E-04
 -1      3199 9.52576E-04-1.09763E-02-3.90946E-04
 -1      3200 9.31643E-04-1.09639E-02-6.50549E-04
 -1      3201 8.99411E-04-1.09437E-02-9.08569E-04
 -1      3202 8.54537E-04-1.09137E-02-1.16436E-03
 -1      3203 1.17629E-03-1.24764E-02 1.14018E-03
 -1      3204 1.21758E-03-1.25104E-02 8.89125E-04
 -1      3205 1.24723E-03-1.25340E-02 6.36265E-04
 -1      3206 1.26647E-03-1.25489E-02 3.82202E-04
 -1      3207 1.27596E-03-1.25562E-02 1.27472E-04
 -1      3208 1.27596E-03-1.25562E-02-1.27472E-04
 -1      3209 1.26647E-03-1.25489E-02-3.82202E-04
 -1      3210 1.24723E-03-1.25340E-02-6.36265E-04
 -1      3211 1.21758E-03-1.25104E-02-8.89125E-04
 -1      3212 1.17629E-03-1.24764E-02-1.14018E-03
 -1      3213 1.53810E-03-1.40906E-02 1.11380E-03
 -1      3214 1.57570E-03-1.41275E-02 8.68234E-04
 -1      3215 1.60274E-03-1.41534E-02 6.21117E-04
 -1      3216 1.62032E-03-1.41700E-02 3.73015E-04
 -1      3217 1.62899E-03-1.41780E-02 1.24392E-04
 -1      3218 1.62899E-03-1.41780E-02-1.24392E-04
 -1      3219 1.62032E-03-1.41700E-02-3.73015E-04
 -1      3220 1.60274E-03-1.41534E-02-6.21117E-04
 -1      3221 1.57570E-03-1.41275E-02-8.68234E-04
 -1      3222 1.53810E-03-1.40906E-02-1.11380E-03
 -1      3223 1.93176E-03-1.57584E-02 1.08564E-03
 -1      3224 1.96570E-03-1.57973E-02 8.46120E-04
 -1      3225 1.99019E-03-1.58249E-02 6.05198E-04
 -1      3226 2.00613E-03-1.58426E-02 3.63412E-04
 -1      3227 2.01400E-03-1.58512E-02 1.21182E-04
 -1      3228 2.01400E-03-1.58512E-02-1.21182E-04
 -1      3229 2.00613E-03-1.58426E-02-3.63412E-04
 -1      3230 1.99019E-03-1.58249E-02-6.05198E-04
 -1      3231 1.96570E-03-1.57973E-02-8.46120E-04
 -1      3232 1.93176E-03-1.57584E-02-1.08564E-03
 -1      3233 2.34873E-03-1.74819E-02 1.05620E-03
 -1      3234 2.37919E-03-1.75223E-02 8.23089E-04
 -1      3235 2.40122E-03-1.75511E-02 5.88680E-04
 -1      3236 2.41561E-03-1.75696E-02 3.53475E-04
 -1      3237 2.42273E-03-1.75786E-02 1.17866E-04
 -1      3238 2.42273E-03-1.75786E-02-1.17866E-04
 -1      3239 2.41561E-03-1.75696E-02-3.53475E-04
 -1      3240 2.40122E-03-1.75511E-02-5.88680E-04
 -1      3241 2.37919E-03-1.75223E-02-8.23089E-04
 -1      3242 2.34873E-03-1.74819E-02-1.05620E-03
 -1      3243 2.78020E-03-1.92633E-02 1.02609E-03
 -1      3244 2.80748E-03-1.93047E-02 7.99574E-04
 -1      3245 2.82729E-03-1.93344E-02 5.71844E-04
 -1      3246 2.84026E-03-1.93535E-02 3.43361E-04
 -1      3247 2.84669E-03-1.93629E-02 1.14492E-04
 -1      3248 2.84669E-03-1.93629E-02-1.14492E-04
 -1      3249 2.84026E-03-1.93535E-02-3.43361E-04
 -1      3250 2.82729E-03-1.93344E-02-5.71844E-04
 -1      3251 2.80748E-03-1.93047E-02-7.99574E-04
 -1      3252 2.78020E-03-1.92633E-02-1.02609E-03
 -1      3253 3.21716E-03-2.11047E-02 9.96033E-04
 -1      3254 3.24173E-03-2.11468E-02 7.76129E-04
 -1      3255 3.25964E-03-2.11771E-02 5.55075E-04
 -1      3256 3.27139E-03-2.11968E-02 3.33296E-04
 -1      3257 3.27721E-03-2.12064E-02 1.11137E-04
 -1      3258 3.27721E-03-2.12064E-02-1.11137E-04
 -1      3259 3.27139E-03-2.11968E-02-3.33296E-04
 -1      3260 3.25964E-03-2.11771E-02-5.55075E-04
 -1      3261 3.24173E-03-2.11468E-02-7.76129E-04
 -1      3262 3.21716E-03-2.11047E-02-9.96033E-04
 -1      3263 3.65040E-03-2.30080E-02 9.66897E-04
 -1      3264 3.67292E-03-2.30507E-02 7.53420E-04
 -1      3265 3.68935E-03-2.30817E-02 5.38852E-04
 -1      3266 3.70012E-03-2.31018E-02 3.23567E-04
 -1      3267 3.70547E-03-2.31118E-02 1.07896E-04
 -1      3268 3.70547E-03-2.31118E-02-1.07896E-04
 -1      3269 3.70012E-03-2.31018E-02-3.23567E-04
 -1      3270 3.68935E-03-2.30817E-02-5.38852E-04
 -1      3271 3.67292E-03-2.30507E-02-7.53420E-04
 -1      3272 3.65040E-03-2.30080E-02-9.66897E-04
 -1      3273 4.07058E-03-2.49754E-02 9.39675E-04
 -1      3274 4.09185E-03-2.50189E-02 7.32244E-04
 -1      3275 4.10733E-03-2.50506E-02 5.23755E-04
 -1      3276 4.11745E-03-2.50714E-02 3.14531E-04
 -1      3277 4.12246E-03-2.50817E-02 1.04889E-04
 -1      3278 4.12246E-03-2.50817E-02-1.04889E-04
 -1      3279 4.11745E-03-2.50714E-02-3.14531E-04
 -1      3280 4.10733E-03-2.50506E-02-5.23755E-04
 -1      3281 4.09185E-03-2.50189E-02-7.32244E-04
 -1      3282 4.07058E-03-2.49754E-02-9.39675E-04
 -1      3283 4.46822E-03-2.70094E-02 9.15560E-04
 -1      3284 4.48923E-03-2.70541E-02 7.13569E-04
 -1      3285 4.50436E-03-2.70870E-02 5.10507E-04
 -1      3286 4.51415E-03-2.71087E-02 3.06633E-04
 -1      3287 4.51895E-03-2.71195E-02 1.02266E-04
 -1      3288 4.51895E-03-2.71195E-02-1.02266E-04
 -1      3289 4.51415E-03-2.71087E-02-3.06633E-04
 -1      3290 4.50436E-03-2.70870E-02-5.10507E-04
 -1      3291 4.48923E-03-2.70541E-02-7.13569E-04
 -1      3292 4.46822E-03-2.70094E-02-9.15560E-04
 -1      3293 4.83380E-03-2.91131E-02 8.96002E-04
 -1      3294 4.85564E-03-2.91599E-02 6.98602E-04
 -1      3295 4.87101E-03-2.91948E-02 5.00022E-04
 -1      3296 4.88075E-03-2.92180E-02 3.00447E-04
 -1      3297 4.88546E-03-2.92296E-02 1.00224E-04
 -1      3298 4.88546E-03-2.92296E-02-1.00224E-04
 -1      3299 4.88075E-03-2.92180E-02-3.00447E-04
 -1      3300 4.87101E-03-2.91948E-02-5.00022E-04
 -1      3301 4.85564E-03-2.91599E-02-6.98602E-04
 -1      3302 4.83380E-03-2.91131E-02-8.96002E-04
 -1      3303 5.15790E-03-3.12908E-02 8.82766E-04
 -1      3304 5.18167E-03-3.13414E-02 6.88847E-04
 -1      3305 5.19770E-03-3.13796E-02 4.93461E-04
 -1      3306 5.20746E-03-3.14053E-02 2.96707E-04
 -1      3307 5.21205E-03-3.14182E-02 9.90135E-05
 -1      3308 5.21205E-03-3.14182E-02-9.90135E-05
 -1      3309 5.20746E-03-3.14053E-02-2.96707E-04
 -1      3310 5.19770E-03-3.13796E-02-4.93461E-04
 -1      3311 5.18167E-03-3.13414E-02-6.88847E-04
 -1      3312 5.15790E-03-3.12908E-02-8.82766E-04
 -1      3313 5.43155E-03-3.35487E-02 8.77902E-04
 -1      3314 5.45802E-03-3.36059E-02 6.86101E-04
 -1      3315 5.47463E-03-3.36496E-02 4.92234E-04
 -1      3316 5.48401E-03-3.36791E-02 2.96316E-04
 -1      3317 5.48816E-03-3.36940E-02 9.89455E-05
 -1      3318 5.48816E-03-3.36940E-02-9.89455E-05
 -1      3319 5.48401E-03-3.36791E-02-2.96316E-04
 -1      3320 5.47463E-03-3.36496E-02-4.92234E-04
 -1      3321 5.45802E-03-3.36059E-02-6.86101E-04
 -1      3322 5.43155E-03-3.35487E-02-8.77902E-04
 -1      3323 5.64693E-03-3.58967E-02 8.83449E-04
 -1      3324 5.67591E-03-3.59646E-02 6.92221E-04
 -1      3325 5.69186E-03-3.60168E-02 4.97822E-04
 -1      3326 5.69949E-03-3.60522E-02 3.00225E-04
 -1      3327 5.70237E-03-3.60701E-02 1.00348E-04
 -1      3328 5.70237E-03-3.60701E-02-1.00348E-04
 -1      3329 5.69949E-03-3.60522E-02-3.00225E-04
 -1      3330 5.69186E-03-3.60168E-02-4.97822E-04
 -1      3331 5.67591E-03-3.59646E-02-6.92221E-04
 -1      3332 5.64693E-03-3.58967E-02-8.83449E-04
 -1      3333 5.79865E-03-3.83504E-02 9.00496E-04
 -1      3334 5.82775E-03-3.84351E-02 7.08309E-04
 -1      3335 5.83960E-03-3.85000E-02 5.11138E-04
 -1      3336 5.84242E-03-3.85440E-02 3.09019E-04
 -1      3337 5.84226E-03-3.85661E-02 1.03421E-04
 -1      3338 5.84226E-03-3.85661E-02-1.03421E-04
 -1      3339 5.84242E-03-3.85440E-02-3.09019E-04
 -1      3340 5.83960E-03-3.85000E-02-5.11138E-04
 -1      3341 5.82775E-03-3.84351E-02-7.08309E-04
 -1      3342 5.79865E-03-3.83504E-02-9.00496E-04
 -1      3343 5.88593E-03-4.09361E-02 9.26818E-04
 -1      3344 5.90849E-03-4.10456E-02 7.32676E-04
 -1      3345 5.90907E-03-4.11284E-02 5.30854E-04
 -1      3346 5.90135E-03-4.11837E-02 3.21827E-04
 -1      3347 5.89503E-03-4.12113E-02 1.07853E-04
 -1      3348 5.89503E-03-4.12113E-02-1.07853E-04
 -1      3349 5.90135E-03-4.11837E-02-3.21827E-04
 -1      3350 5.90907E-03-4.11284E-02-5.30854E-04
 -1      3351 5.90849E-03-4.10456E-02-7.32676E-04
 -1      3352 5.88593E-03-4.09361E-02-9.26818E-04
 -1      3353 5.91653E-03-4.36991E-02 9.51876E-04
 -1      3354 5.91835E-03-4.38431E-02 7.56249E-04
 -1      3355 5.89495E-03-4.39485E-02 5.49817E-04
 -1      3356 5.86747E-03-4.40170E-02 3.33898E-04
 -1      3357 5.85028E-03-4.40507E-02 1.11981E-04
 -1      3358 5.85028E-03-4.40507E-02-1.11981E-04
 -1      3359 5.86747E-03-4.40170E-02-3.33898E-04
 -1      3360 5.89495E-03-4.39485E-02-5.49817E-04
 -1      3361 5.91835E-03-4.38431E-02-7.56249E-04
 -1      3362 5.91653E-03-4.36991E-02-9.51876E-04
 -1      3363 5.91342E-03-4.67206E-02 9.46420E-04
 -1      3364 5.86895E-03-4.69079E-02 7.54208E-04
 -1      3365 5.80175E-03-4.70375E-02 5.47764E-04
 -1      3366 5.74245E-03-4.71177E-02 3.31967E-04
 -1      3367 5.70878E-03-4.71560E-02 1.11140E-04
 -1      3368 5.70878E-03-4.71560E-02-1.11140E-04
 -1      3369 5.74245E-03-4.71177E-02-3.31967E-04
 -1      3370 5.80175E-03-4.70375E-02-5.47764E-04
 -1      3371 5.86895E-03-4.69079E-02-7.54208E-04
 -1      3372 5.91342E-03-4.67206E-02-9.46420E-04
 -1      3373 5.93053E-03-5.01531E-02 8.46516E-04
 -1      3374 5.79513E-03-5.03834E-02 6.69287E-04
 -1      3375 5.66029E-03-5.05280E-02 4.80178E-04
 -1      3376 5.55793E-03-5.06111E-02 2.86711E-04
 -1      3377 5.50469E-03-5.06484E-02 9.50731E-05
 -1      3378 5.50469E-03-5.06484E-02-9.50731E-05
 -1      3379 5.55793E-03-5.06111E-02-2.86711E-04
 -1      3380 5.66029E-03-5.05280E-02-4.80178E-04
 -1      3381 5.79513E-03-5.03834E-02-6.69287E-04
 -1      3382 5.93053E-03-5.01531E-02-8.46516E-04
 -1      3383 6.07381E-03-5.43031E-02 5.14472E-04
 -1      3384 5.79497E-03-5.45508E-02 3.96615E-04
 -1      3385 5.56708E-03-5.46823E-02 2.65041E-04
 -1      3386 5.42256E-03-5.47443E-02 1.47181E-04
 -1      3387 5.35468E-03-5.47681E-02 4.66320E-05
 -1      3388 5.35468E-03-5.47681E-02-4.66320E-05
 -1      3389 5.42256E-03-5.47443E-02-1.47181E-04
 -1      3390 5.56708E-03-5.46823E-02-2.65041E-04
 -1      3391 5.79497E-03-5.45508E-02-3.96615E-04
 -1      3392 6.07381E-03-5.43031E-02-5.14472E-04
 -1      3393 6.61878E-03-5.97719E-02-2.55102E-04
 -1      3394 6.07636E-03-5.99408E-02-2.27383E-04
 -1      3395 5.75270E-03-5.99771E-02-1.98615E-04
 -1      3396 5.58497E-03-5.99714E-02-1.39266E-04
 -1      3397 5.51594E-03-5.99643E-02-5.00960E-05
 -1      3398 5.51594E-03-5.99643E-02 5.00960E-05
 -1      3399 5.58497E-03-5.99714E-02 1.39266E-04
 -1      3400 5.75270E-03-5.99771E-02 1.98615E-04
 -1      3401 6.07636E-03-5.99408E-02 2.27383E-04
 -1      3402 6.61878E-03-5.97719E-02 2.55102E-04
 -1      3403 7.85972E-03-6.83633E-02-1.63385E-03
 -1      3404 7.01165E-03-6.81518E-02-1.22712E-03
 -1      3405 6.62212E-03-6.79518E-02-8.92405E-04
 -1      3406 6.45772E-03-6.78466E-02-5.42083E-04
 -1      3407 6.39651E-03-6.77990E-02-1.81521E-04
 -1      3408 6.39651E-03-6.77990E-02 1.81521E-04
 -1      3409 6.45772E-03-6.78466E-02 5.42083E-04
 -1      3410 6.62212E-03-6.79518E-02 8.92405E-04
 -1      3411 7.01165E-03-6.81518E-02 1.22712E-03
 -1      3412 7.85972E-03-6.83633E-02 1.63385E-03
 -1      3413-1.69661E-04-1.03001E-03 6.32018E-04
 -1      3414-1.47858E-04-9.70622E-04 4.39810E-04
 -1      3415-1.32655E-04-9.45330E-04 2.92519E-04
 -1      3416-1.22882E-04-9.34060E-04 1.68134E-04
 -1      3417-1.18115E-04-9.29597E-04 5.49228E-05
 -1      3418-1.18115E-04-9.29597E-04-5.49228E-05
 -1      3419-1.22882E-04-9.34060E-04-1.68134E-04
 -1      3420-1.32655E-04-9.45330E-04-2.92519E-04
 -1      3421-1.47858E-04-9.70622E-04-4.39810E-04
 -1      3422-1.69661E-04-1.03001E-03-6.32018E-04
 -1      3423-2.13795E-04-2.23130E-03 9.56205E-04
 -1      3424-1.77232E-04-2.13912E-03 7.16177E-04
 -1      3425-1.51193E-04-2.09023E-03 4.94211E-04
 -1      3426-1.34296E-04-2.06447E-03 2.89459E-04
 -1      3427-1.25971E-04-2.05336E-03 9.53164E-05
 -1      3428-1.25971E-04-2.05336E-03-9.53164E-05
 -1      3429-1.34296E-04-2.06447E-03-2.89459E-04
 -1      3430-1.51193E-04-2.09023E-03-4.94211E-04
 -1      3431-1.77232E-04-2.13912E-03-7.16177E-04
 -1      3432-2.13795E-04-2.23130E-03-9.56205E-04
 -1      3433-1.93587E-04-3.42257E-03 1.06288E-03
 -1      3434-1.49120E-04-3.37436E-03 8.27471E-04
 -1      3435-1.16091E-04-3.33243E-03 5.87553E-04
 -1      3436-9.45393E-05-3.30585E-03 3.50243E-04
 -1      3437-8.39109E-05-3.29320E-03 1.16293E-04
 -1      3438-8.39109E-05-3.29320E-03-1.16293E-04
 -1      3439-9.45393E-05-3.30585E-03-3.50243E-04
 -1      3440-1.16091E-04-3.33243E-03-5.87553E-04
 -1      3441-1.49120E-04-3.37436E-03-8.27471E-04
 -1      3442-1.93587E-04-3.42257E-03-1.06288E-03
 -1      3443-1.11406E-04-4.63844E-03 1.09537E-03
 -1      3444-6.39120E-05-4.62040E-03 8.57617E-04
 -1      3445-2.84146E-05-4.60014E-03 6.15499E-04
 -1      3446-4.92845E-06-4.58378E-03 3.70105E-04
 -1      3447 6.71557E-06-4.57509E-03 1.23459E-04
 -1      3448 6.71557E-06-4.57509E-03-1.23459E-04
 -1      3449-4.92845E-06-4.58378E-03-3.70105E-04
 -1      3450-2.84146E-05-4.60014E-03-6.15499E-04
 -1      3451-6.39120E-05-4.62040E-03-8.57617E-04
 -1      3452-1.11406E-04-4.63844E-03-1.09537E-03
 -1      3453 4.59680E-05-5.89032E-03 1.09532E-03
 -1      3454 9.38096E-05-5.89254E-03 8.57660E-04
 -1      3455 1.29418E-04-5.88891E-03 6.16066E-04
 -1      3456 1.52938E-04-5.88402E-03 3.71118E-04
 -1      3457 1.64632E-04-5.88081E-03 1.23953E-04
 -1      3458 1.64632E-04-5.88081E-03-1.23953E-04
 -1      3459 1.52938E-04-5.88402E-03-3.71118E-04
 -1      3460 1.29418E-04-5.88891E-03-6.16066E-04
 -1      3461 9.38096E-05-5.89254E-03-8.57660E-04
 -1      3462 4.59680E-05-5.89032E-03-1.09532E-03
 -1      3463 2.81085E-04-7.18649E-03 1.08311E-03
 -1      3464 3.27675E-04-7.20120E-03 8.46514E-04
 -1      3465 3.62188E-04-7.20891E-03 6.07386E-04
 -1      3466 3.84903E-04-7.21234E-03 3.65643E-04
 -1      3467 3.96167E-04-7.21352E-03 1.22095E-04
 -1      3468 3.96167E-04-7.21352E-03-1.22095E-04
 -1      3469 3.84903E-04-7.21234E-03-3.65643E-04
 -1      3470 3.62188E-04-7.20891E-03-6.07386E-04
 -1      3471 3.27675E-04-7.20120E-03-8.46514E-04
 -1      3472 2.81085E-04-7.18649E-03-1.08311E-03
 -1      3473 5.90860E-04-8.53248E-03 1.06604E-03
 -1      3474 6.35291E-04-8.55500E-03 8.31798E-04
 -1      3475 6.68087E-04-8.56991E-03 5.96006E-04
 -1      3476 6.89610E-04-8.57878E-03 3.58461E-04
 -1      3477 7.00264E-04-8.58286E-03 1.19639E-04
 -1      3478 7.00264E-04-8.58286E-03-1.19639E-04
 -1      3479 6.89610E-04-8.57878E-03-3.58461E-04
 -1      3480 6.68087E-04-8.56991E-03-5.96006E-04
 -1      3481 6.35291E-04-8.55500E-03-8.31798E-04
 -1      3482 5.90860E-04-8.53248E-03-1.06604E-03
 -1      3483 9.68891E-04-9.93293E-03 1.04660E-03
 -1      3484 1.01060E-03-9.96052E-03 8.15692E-04
 -1      3485 1.04134E-03-9.98002E-03 5.83885E-04
 -1      3486 1.06148E-03-9.99233E-03 3.50914E-04
 -1      3487 1.07144E-03-9.99826E-03 1.17076E-04
 -1      3488 1.07144E-03-9.99826E-03-1.17076E-04
 -1      3489 1.06148E-03-9.99233E-03-3.50914E-04
 -1      3490 1.04134E-03-9.98002E-03-5.83885E-04
 -1      3491 1.01060E-03-9.96052E-03-8.15692E-04
 -1      3492 9.68891E-04-9.93293E-03-1.04660E-03
 -1      3493 1.40704E-03-1.13920E-02 1.02531E-03
 -1      3494 1.44568E-03-1.14231E-02 7.98561E-04
 -1      3495 1.47415E-03-1.14457E-02 5.71271E-04
 -1      3496 1.49281E-03-1.14602E-02 3.43176E-04
 -1      3497 1.50203E-03-1.14673E-02 1.14466E-04
 -1      3498 1.50203E-03-1.14673E-02-1.14466E-04
 -1      3499 1.49281E-03-1.14602E-02-3.43176E-04
 -1      3500 1.47415E-03-1.14457E-02-5.71271E-04
 -1      3501 1.44568E-03-1.14231E-02-7.98561E-04
 -1      3502 1.40704E-03-1.13920E-02-1.02531E-03
 -1      3503 1.89625E-03-1.29136E-02 1.00225E-03
 -1      3504 1.93163E-03-1.29473E-02 7.80304E-04
 -1      3505 1.95774E-03-1.29720E-02 5.58017E-04
 -1      3506 1.97486E-03-1.29880E-02 3.35125E-04
 -1      3507 1.98332E-03-1.29959E-02 1.11765E-04
 -1      3508 1.98332E-03-1.29959E-02-1.11765E-04
 -1      3509 1.97486E-03-1.29880E-02-3.35125E-04
 -1      3510 1.95774E-03-1.29720E-02-5.58017E-04
 -1      3511 1.93163E-03-1.29473E-02-7.80304E-04
 -1      3512 1.89625E-03-1.29136E-02-1.00225E-03
 -1      3513 2.42699E-03-1.45011E-02 9.77495E-04
 -1      3514 2.45907E-03-1.45368E-02 7.60873E-04
 -1      3515 2.48280E-03-1.45630E-02 5.44017E-04
 -1      3516 2.49837E-03-1.45802E-02 3.26670E-04
 -1      3517 2.50608E-03-1.45886E-02 1.08937E-04
 -1      3518 2.50608E-03-1.45886E-02-1.08937E-04
 -1      3519 2.49837E-03-1.45802E-02-3.26670E-04
 -1      3520 2.48280E-03-1.45630E-02-5.44017E-04
 -1      3521 2.45907E-03-1.45368E-02-7.60873E-04
 -1      3522 2.42699E-03-1.45011E-02-9.77495E-04
 -1      3523 2.98950E-03-1.61574E-02 9.51289E-04
 -1      3524 3.01837E-03-1.61947E-02 7.40379E-04
 -1      3525 3.03978E-03-1.62221E-02 5.29303E-04
 -1      3526 3.05386E-03-1.62401E-02 3.17809E-04
 -1      3527 3.06084E-03-1.62490E-02 1.05977E-04
 -1      3528 3.06084E-03-1.62490E-02-1.05977E-04
 -1      3529 3.05386E-03-1.62401E-02-3.17809E-04
 -1      3530 3.03978E-03-1.62221E-02-5.29303E-04
 -1      3531 3.01837E-03-1.61947E-02-7.40379E-04
 -1      3532 2.98950E-03-1.61574E-02-9.51289E-04
 -1      3533 3.57398E-03-1.78852E-02 9.24004E-04
 -1      3534 3.59986E-03-1.79237E-02 7.19072E-04
 -1      3535 3.61912E-03-1.79521E-02 5.14029E-04
 -1      3536 3.63181E-03-1.79707E-02 3.08620E-04
 -1      3537 3.63811E-03-1.79800E-02 1.02910E-04
 -1      3538 3.63811E-03-1.79800E-02-1.02910E-04
 -1      3539 3.63181E-03-1.79707E-02-3.08620E-04
 -1      3540 3.61912E-03-1.79521E-02-5.14029E-04
 -1      3541 3.59986E-03-1.79237E-02-7.19072E-04
 -1      3542 3.57398E-03-1.78852E-02-9.24004E-04
 -1      3543 4.17072E-03-1.96865E-02 8.96100E-04
 -1      3544 4.19396E-03-1.97260E-02 6.97292E-04
 -1      3545 4.21131E-03-1.97552E-02 4.98426E-04
 -1      3546 4.22278E-03-1.97744E-02 2.99239E-04
 -1      3547 4.22848E-03-1.97839E-02 9.97801E-05
 -1      3548 4.22848E-03-1.97839E-02-9.97801E-05
 -1      3549 4.22278E-03-1.97744E-02-2.99239E-04
 -1      3550 4.21131E-03-1.97552E-02-4.98426E-04
 -1      3551 4.19396E-03-1.97260E-02-6.97292E-04
 -1      3552 4.17072E-03-1.96865E-02-8.96100E-04
 -1      3553 4.77026E-03-2.15630E-02 8.68090E-04
 -1      3554 4.79132E-03-2.16034E-02 6.75436E-04
 -1      3555 4.80712E-03-2.16335E-02 4.82775E-04
 -1      3556 4.81758E-03-2.16533E-02 2.89833E-04
 -1      3557 4.82278E-03-2.16631E-02 9.66424E-05
 -1      3558 4.82278E-03-2.16631E-02-9.66424E-05
 -1      3559 4.81758E-03-2.16533E-02-2.89833E-04
 -1      3560 4.80712E-03-2.16335E-02-4.82775E-04
 -1      3561 4.79132E-03-2.16034E-02-6.75436E-04
 -1      3562 4.77026E-03-2.15630E-02-8.68090E-04
 -1      3563 5.36354E-03-2.35164E-02 8.40517E-04
 -1      3564 5.38301E-03-2.35580E-02 6.53935E-04
 -1      3565 5.39765E-03-2.35890E-02 4.67391E-04
 -1      3566 5.40735E-03-2.36095E-02 2.80595E-04
 -1      3567 5.41218E-03-2.36197E-02 9.35621E-05
 -1      3568 5.41218E-03-2.36197E-02-9.35621E-05
 -1      3569 5.40735E-03-2.36095E-02-2.80595E-04
 -1      3570 5.39765E-03-2.35890E-02-4.67391E-04
 -1      3571 5.38301E-03-2.35580E-02-6.53935E-04
 -1      3572 5.36354E-03-2.35164E-02-8.40517E-04
 -1      3573 5.94216E-03-2.55484E-02 8.13940E-04
 -1      3574 5.96068E-03-2.55916E-02 6.33248E-04
 -1      3575 5.97462E-03-2.56240E-02 4.52621E-04
 -1      3576 5.98383E-03-2.56455E-02 2.71742E-04
 -1      3577 5.98841E-03-2.56562E-02 9.06130E-05
 -1      3578 5.98841E-03-2.56562E-02-9.06130E-05
 -1      3579 5.98383E-03-2.56455E-02-2.71742E-04
 -1      3580 5.97462E-03-2.56240E-02-4.52621E-04
 -1      3581 5.96068E-03-2.55916E-02-6.33248E-04
 -1      3582 5.94216E-03-2.55484E-02-8.13940E-04
 -1      3583 6.49869E-03-2.76613E-02 7.88919E-04
 -1      3584 6.51694E-03-2.77072E-02 6.13861E-04
 -1      3585 6.53058E-03-2.77417E-02 4.38846E-04
 -1      3586 6.53952E-03-2.77647E-02 2.63517E-04
 -1      3587 6.54393E-03-2.77761E-02 8.78797E-05
 -1      3588 6.54393E-03-2.77761E-02-8.78797E-05
 -1      3589 6.53952E-03-2.77647E-02-2.63517E-04
 -1      3590 6.53058E-03-2.77417E-02-4.38846E-04
 -1      3591 6.51694E-03-2.77072E-02-6.13861E-04
 -1      3592 6.49869E-03-2.76613E-02-7.88919E-04
 -1      3593 7.02726E-03-2.98588E-02 7.65944E-04
 -1      3594 7.04578E-03-2.99088E-02 5.96247E-04
 -1      3595 7.05932E-03-2.99466E-02 4.26466E-04
 -1      3596 7.06802E-03-2.99718E-02 2.56191E-04
 -1      3597 7.07224E-03-2.99845E-02 8.54568E-05
 -1      3598 7.07224E-03-2.99845E-02-8.54568E-05
 -1      3599 7.06802E-03-2.99718E-02-2.56191E-04
 -1      3600 7.05932E-03-2.99466E-02-4.26466E-04
 -1      3601 7.04578E-03-2.99088E-02-5.96247E-04
 -1      3602 7.02726E-03-2.98588E-02-7.65944E-04
 -1      3603 7.52443E-03-3.21465E-02 7.45258E-04
 -1      3604 7.54327E-03-3.22030E-02 5.80747E-04
 -1      3605 7.55643E-03-3.22458E-02 4.15820E-04
 -1      3606 7.56449E-03-3.22745E-02 2.50009E-04
 -1      3607 7.56827E-03-3.22889E-02 8.34342E-05
 -1      3608 7.56827E-03-3.22889E-02-8.34342E-05
 -1      3609 7.56449E-03-3.22745E-02-2.50009E-04
 -1      3610 7.55643E-03-3.22458E-02-4.15820E-04
 -1      3611 7.54327E-03-3.22030E-02-5.80747E-04
 -1      3612 7.52443E-03-3.21465E-02-7.45258E-04
 -1      3613 7.99061E-03-3.45341E-02 7.26386E-04
 -1      3614 8.00876E-03-3.46006E-02 5.67206E-04
 -1      3615 8.02018E-03-3.46509E-02 4.06931E-04
 -1      3616 8.02639E-03-3.46846E-02 2.45042E-04
 -1      3617 8.02901E-03-3.47015E-02 8.18448E-05
 -1      3618 8.02901E-03-3.47015E-02-8.18448E-05
 -1      3619 8.02639E-03-3.46846E-02-2.45042E-04
 -1      3620 8.02018E-03-3.46509E-02-4.06931E-04
 -1      3621 8.00876E-03-3.46006E-02-5.67206E-04
 -1      3622 7.99061E-03-3.45341E-02-7.26386E-04
 -1      3623 8.43231E-03-3.70386E-02 7.07058E-04
 -1      3624 8.44658E-03-3.71195E-02 5.54114E-04
 -1      3625 8.45298E-03-3.71803E-02 3.98854E-04
 -1      3626 8.45469E-03-3.72209E-02 2.40776E-04
 -1      3627 8.45469E-03-3.72412E-02 8.05267E-05
 -1      3628 8.45469E-03-3.72412E-02-8.05267E-05
 -1      3629 8.45469E-03-3.72209E-02-2.40776E-04
 -1      3630 8.45298E-03-3.71803E-02-3.98854E-04
 -1      3631 8.44658E-03-3.71195E-02-5.54114E-04
 -1      3632 8.43231E-03-3.70386E-02-7.07058E-04
 -1      3633 8.86559E-03-3.96888E-02 6.80963E-04
 -1      3634 8.86884E-03-3.97895E-02 5.36723E-04
 -1      3635 8.86378E-03-3.98641E-02 3.88263E-04
 -1      3636 8.85614E-03-3.99131E-02 2.35221E-04
 -1      3637 8.85092E-03-3.99374E-02 7.88153E-05
 -1      3638 8.85092E-03-3.99374E-02-7.88153E-05
 -1      3639 8.85614E-03-3.99131E-02-2.35221E-04
 -1      3640 8.86378E-03-3.98641E-02-3.88263E-04
 -1      3641 8.86884E-03-3.97895E-02-5.36723E-04
 -1      3642 8.86559E-03-3.96888E-02-6.80963E-04
 -1      3643 9.32085E-03-4.25352E-02 6.33406E-04
 -1      3644 9.29968E-03-4.26610E-02 5.03526E-04
 -1      3645 9.27207E-03-4.27513E-02 3.66700E-04
 -1      3646 9.24738E-03-4.28093E-02 2.23182E-04
 -1      3647 9.23302E-03-4.28375E-02 7.49527E-05
 -1      3648 9.23302E-03-4.28375E-02-7.49527E-05
 -1      3649 9.24738E-03-4.28093E-02-2.23182E-04
 -1      3650 9.27207E-03-4.27513E-02-3.66700E-04
 -1      3651 9.29968E-03-4.26610E-02-5.03526E-04
 -1      3652 9.32085E-03-4.25352E-02-6.33406E-04
 -1      3653 9.84913E-03-4.56674E-02 5.34374E-04
 -1      3654 9.78065E-03-4.58195E-02 4.30134E-04
 -1      3655 9.71411E-03-4.59236E-02 3.16207E-04
 -1      3656 9.66180E-03-4.59878E-02 1.93526E-04
 -1      3657 9.63325E-03-4.60182E-02 6.51587E-05
 -1      3658 9.63325E-03-4.60182E-02-6.51587E-05
 -1      3659 9.66180E-03-4.59878E-02-1.93526E-04
 -1      3660 9.71411E-03-4.59236E-02-3.16207E-04
 -1      3661 9.78065E-03-4.58195E-02-4.30134E-04
 -1      3662 9.84913E-03-4.56674E-02-5.34374E-04
 -1      3663 1.05248E-02-4.92444E-02 3.27283E-04
 -1      3664 1.03766E-02-4.94143E-02 2.72603E-04
 -1      3665 1.02495E-02-4.95214E-02 2.04309E-04
 -1      3666 1.01578E-02-4.95827E-02 1.26244E-04
 -1      3667 1.01101E-02-4.96103E-02 4.26467E-05
 -1      3668 1.01101E-02-4.96103E-02-4.26467E-05
 -1      3669 1.01578E-02-4.95827E-02-1.26244E-04
 -1      3670 1.02495E-02-4.95214E-02-2.04309E-04
 -1      3671 1.03766E-02-4.94143E-02-2.72603E-04
 -1      3672 1.05248E-02-4.92444E-02-3.27283E-04
 -1      3673 1.14336E-02-5.35359E-02-7.06592E-05
 -1      3674 1.11589E-02-5.36917E-02-3.53493E-05
 -1      3675 1.09485E-02-5.37741E-02-1.58302E-05
 -1      3676 1.08081E-02-5.38131E-02-6.78048E-06
 -1      3677 1.07387E-02-5.38281E-02-1.93388E-06
 -1      3678 1.07387E-02-5.38281E-02 1.93388E-06
 -1      3679 1.08081E-02-5.38131E-02 6.78048E-06
 -1      3680 1.09485E-02-5.37741E-02 1.58302E-05
 -1      3681 1.11589E-02-5.36917E-02 3.53493E-05
 -1      3682 1.14336E-02-5.35359E-02 7.06592E-05
 -1      3683 1.25500E-02-5.90126E-02-7.53611E-04
 -1      3684 1.21162E-02-5.90720E-02-5.56505E-04
 -1      3685 1.18093E-02-5.90763E-02-3.85394E-04
 -1      3686 1.16223E-02-5.90658E-02-2.28073E-04
 -1      3687 1.15349E-02-5.90571E-02-7.57746E-05
 -1      3688 1.15349E-02-5.90571E-02 7.57746E-05
 -1      3689 1.16223E-02-5.90658E-02 2.28073E-04
 -1      3690 1.18093E-02-5.90763E-02 3.85394E-04
 -1      3691 1.21162E-02-5.90720E-02 5.56505E-04
 -1      3692 1.25500E-02-5.90126E-02 7.53611E-04
 -1      3693 1.31027E-02-6.55891E-02-1.75071E-03
 -1      3694 1.25388E-02-6.54484E-02-1.30199E-03
 -1      3695 1.21679E-02-6.53479E-02-8.96751E-04
 -1      3696 1.19533E-02-6.52784E-02-5.28585E-04
 -1      3697 1.18575E-02-6.52462E-02-1.74915E-04
 -1      3698 1.18575E-02-6.52462E-02 1.74915E-04
 -1      3699 1.19533E-02-6.52784E-02 5.28585E-04
 -1      3700 1.21679E-02-6.53479E-02 8.96751E-04
 -1      3701 1.25388E-02-6.54484E-02 1.30199E-03
 -1      3702 1.31027E-02-6.55891E-02 1.75071E-03
 -1      3703-2.70685E-04-9.39322E-04 5.97367E-04
 -1      3704-2.50982E-04-8.83038E-04 4.19109E-04
 -1      3705-2.38032E-04-8.59049E-04 2.79909E-04
 -1      3706-2.30038E-04-8.48141E-04 1.61181E-04
 -1      3707-2.26183E-04-8.43756E-04 5.26855E-05
 -1      3708-2.26183E-04-8.43756E-04-5.26855E-05
 -1      3709-2.30038E-04-8.48141E-04-1.61181E-04
 -1      3710-2.38032E-04-8.59049E-04-2.79909E-04
 -1      3711-2.50982E-04-8.83038E-04-4.19109E-04
 -1      3712-2.70685E-04-9.39322E-04-5.97367E-04
 -1      3713-3.68927E-04-2.01336E-03 8.90878E-04
 -1      3714-3.35238E-04-1.93196E-03 6.71430E-04
 -1      3715-3.12709E-04-1.88692E-03 4.65223E-04
 -1      3716-2.98497E-04-1.86256E-03 2.73122E-04
 -1      3717-2.91593E-04-1.85185E-03 9.00313E-05
 -1      3718-2.91593E-04-1.85185E-03-9.00313E-05
 -1      3719-2.98497E-04-1.86256E-03-2.73122E-04
 -1      3720-3.12709E-04-1.88692E-03-4.65223E-04
 -1      3721-3.35238E-04-1.93196E-03-6.71430E-04
 -1      3722-3.68927E-04-2.01336E-03-8.90878E-04
 -1      3723-3.45271E-04-3.07515E-03 9.77290E-04
 -1      3724-3.05350E-04-3.03585E-03 7.62977E-04
 -1      3725-2.76337E-04-2.99932E-03 5.43255E-04
 -1      3726-2.57668E-04-2.97515E-03 3.24458E-04
 -1      3727-2.48523E-04-2.96338E-03 1.07836E-04
 -1      3728-2.48523E-04-2.96338E-03-1.07836E-04
 -1      3729-2.57668E-04-2.97515E-03-3.24458E-04
 -1      3730-2.76337E-04-2.99932E-03-5.43255E-04
 -1      3731-3.05350E-04-3.03585E-03-7.62977E-04
 -1      3732-3.45271E-04-3.07515E-03-9.77290E-04
 -1      3733-2.22331E-04-4.17573E-03 9.97195E-04
 -1      3734-1.79784E-04-4.16314E-03 7.81320E-04
 -1      3735-1.48119E-04-4.14705E-03 5.61225E-04
 -1      3736-1.27187E-04-4.13324E-03 3.37762E-04
 -1      3737-1.16817E-04-4.12567E-03 1.12727E-04
 -1      3738-1.16817E-04-4.12567E-03-1.12727E-04
 -1      3739-1.27187E-04-4.13324E-03-3.37762E-04
 -1      3740-1.48119E-04-4.14705E-03-5.61225E-04
 -1      3741-1.79784E-04-4.16314E-03-7.81320E-04
 -1      3742-2.22331E-04-4.17573E-03-9.97195E-04
 -1      3743-5.82434E-06-5.31822E-03 9.90684E-04
 -1      3744 3.71318E-05-5.32271E-03 7.75467E-04
 -1      3745 6.93562E-05-5.32139E-03 5.56898E-04
 -1      3746 9.07660E-05-5.31824E-03 3.35464E-04
 -1      3747 1.01442E-04-5.31594E-03 1.12050E-04
 -1      3748 1.01442E-04-5.31594E-03-1.12050E-04
 -1      3749 9.07660E-05-5.31824E-03-3.35464E-04
 -1      3750 6.93562E-05-5.32139E-03-5.56898E-04
 -1      3751 3.71318E-05-5.32271E-03-7.75467E-04
 -1      3752-5.82434E-06-5.31822E-03-9.90684E-04
 -1      3753 3.02235E-04-6.50793E-03 9.76255E-04
 -1      3754 3.44238E-04-6.52259E-03 7.62393E-04
 -1      3755 3.75801E-04-6.53096E-03 5.46630E-04
 -1      3756 3.96792E-04-6.53514E-03 3.28918E-04
 -1      3757 4.07257E-04-6.53679E-03 1.09809E-04
 -1      3758 4.07257E-04-6.53679E-03-1.09809E-04
 -1      3759 3.96792E-04-6.53514E-03-3.28918E-04
 -1      3760 3.75801E-04-6.53096E-03-5.46630E-04
 -1      3761 3.44238E-04-6.52259E-03-7.62393E-04
 -1      3762 3.02235E-04-6.50793E-03-9.76255E-04
 -1      3763 6.97090E-04-7.75081E-03 9.59598E-04
 -1      3764 7.37320E-04-7.77168E-03 7.48042E-04
 -1      3765 7.67544E-04-7.78601E-03 5.35511E-04
 -1      3766 7.87639E-04-7.79482E-03 3.21881E-04
 -1      3767 7.97656E-04-7.79898E-03 1.07399E-04
 -1      3768 7.97656E-04-7.79898E-03-1.07399E-04
 -1      3769 7.87639E-04-7.79482E-03-3.21881E-04
 -1      3770 7.67544E-04-7.78601E-03-5.35511E-04
 -1      3771 7.37320E-04-7.77168E-03-7.48042E-04
 -1      3772 6.97090E-04-7.75081E-03-9.59598E-04
 -1      3773 1.17162E-03-9.05322E-03 9.41976E-04
 -1      3774 1.20955E-03-9.07816E-03 7.33473E-04
 -1      3775 1.23804E-03-9.09626E-03 5.24551E-04
 -1      3776 1.25698E-03-9.10796E-03 3.15055E-04
 -1      3777 1.26642E-03-9.11367E-03 1.05080E-04
 -1      3778 1.26642E-03-9.11367E-03-1.05080E-04
 -1      3779 1.25698E-03-9.10796E-03-3.15055E-04
 -1      3780 1.23804E-03-9.09626E-03-5.24551E-04
 -1      3781 1.20955E-03-9.07816E-03-7.33473E-04
 -1      3782 1.17162E-03-9.05322E-03-9.41976E-04
 -1      3783 1.71702E-03-1.04213E-02 9.23194E-04
 -1      3784 1.75230E-03-1.04492E-02 7.18402E-04
 -1      3785 1.77882E-03-1.04699E-02 5.13475E-04
 -1      3786 1.79645E-03-1.04834E-02 3.08267E-04
 -1      3787 1.80524E-03-1.04902E-02 1.02791E-04
 -1      3788 1.80524E-03-1.04902E-02-1.02791E-04
 -1      3789 1.79645E-03-1.04834E-02-3.08267E-04
 -1      3790 1.77882E-03-1.04699E-02-5.13475E-04
 -1      3791 1.75230E-03-1.04492E-02-7.18402E-04
 -1      3792 1.71702E-03-1.04213E-02-9.23194E-04
 -1      3793 2.32349E-03-1.18607E-02 9.02899E-04
 -1      3794 2.35591E-03-1.18909E-02 7.02386E-04
 -1      3795 2.38031E-03-1.19134E-02 5.01875E-04
 -1      3796 2.39655E-03-1.19283E-02 3.01231E-04
 -1      3797 2.40465E-03-1.19357E-02 1.00432E-04
 -1      3798 2.40465E-03-1.19357E-02-1.00432E-04
 -1      3799 2.39655E-03-1.19283E-02-3.01231E-04
 -1      3800 2.38031E-03-1.19134E-02-5.01875E-04
 -1      3801 2.35591E-03-1.18909E-02-7.02386E-04
 -1      3802 2.32349E-03-1.18607E-02-9.02899E-04
 -1      3803 2.98071E-03-1.33761E-02 8.80927E-04
 -1      3804 3.01019E-03-1.34081E-02 6.85180E-04
 -1      3805 3.03242E-03-1.34321E-02 4.89502E-04
 -1      3806 3.04723E-03-1.34481E-02 2.93769E-04
 -1      3807 3.05462E-03-1.34560E-02 9.79375E-05
 -1      3808 3.05462E-03-1.34560E-02-9.79375E-05
 -1      3809 3.04723E-03-1.34481E-02-2.93769E-04
 -1      3810 3.03242E-03-1.34321E-02-4.89502E-04
 -1      3811 3.01019E-03-1.34081E-02-6.85180E-04
 -1      3812 2.98071E-03-1.33761E-02-8.80927E-04
 -1      3813 3.67822E-03-1.49715E-02 8.57321E-04
 -1      3814 3.70477E-03-1.50051E-02 6.66754E-04
 -1      3815 3.72485E-03-1.50303E-02 4.76294E-04
 -1      3816 3.73824E-03-1.50470E-02 2.85821E-04
 -1      3817 3.74493E-03-1.50554E-02 9.52842E-05
 -1      3818 3.74493E-03-1.50554E-02-9.52842E-05
 -1      3819 3.73824E-03-1.50470E-02-2.85821E-04
 -1      3820 3.72485E-03-1.50303E-02-4.76294E-04
 -1      3821 3.70477E-03-1.50051E-02-6.66754E-04
 -1      3822 3.67822E-03-1.49715E-02-8.57321E-04
 -1      3823 4.40563E-03-1.66499E-02 8.32265E-04
 -1      3824 4.42938E-03-1.66849E-02 6.47215E-04
 -1      3825 4.44739E-03-1.67111E-02 4.62303E-04
 -1      3826 4.45944E-03-1.67285E-02 2.77411E-04
 -1      3827 4.46546E-03-1.67372E-02 9.24778E-05
 -1      3828 4.46546E-03-1.67372E-02-9.24778E-05
 -1      3829 4.45944E-03-1.67285E-02-2.77411E-04
 -1      3830 4.44739E-03-1.67111E-02-4.62303E-04
 -1      3831 4.42938E-03-1.66849E-02-6.47215E-04
 -1      3832 4.40563E-03-1.66499E-02-8.32265E-04
 -1      3833 5.15290E-03-1.84139E-02 8.05995E-04
 -1      3834 5.17406E-03-1.84500E-02 6.26735E-04
 -1      3835 5.19017E-03-1.84772E-02 4.47643E-04
 -1      3836 5.20096E-03-1.84953E-02 2.68600E-04
 -1      3837 5.20636E-03-1.85043E-02 8.95384E-05
 -1      3838 5.20636E-03-1.85043E-02-8.95384E-05
 -1      3839 5.20096E-03-1.84953E-02-2.68600E-04
 -1      3840 5.19017E-03-1.84772E-02-4.47643E-04
 -1      3841 5.17406E-03-1.84500E-02-6.26735E-04
 -1      3842 5.15290E-03-1.84139E-02-8.05995E-04
 -1      3843 5.91056E-03-2.02653E-02 7.78744E-04
 -1      3844 5.92941E-03-2.03027E-02 6.05488E-04
 -1      3845 5.94382E-03-2.03308E-02 4.32436E-04
 -1      3846 5.95350E-03-2.03495E-02 2.59462E-04
 -1      3847 5.95836E-03-2.03589E-02 8.64901E-05
 -1      3848 5.95836E-03-2.03589E-02-8.64901E-05
 -1      3849 5.95350E-03-2.03495E-02-2.59462E-04
 -1      3850 5.94382E-03-2.03308E-02-4.32436E-04
 -1      3851 5.92941E-03-2.03027E-02-6.05488E-04
 -1      3852 5.91056E-03-2.02653E-02-7.78744E-04
 -1      3853 6.67000E-03-2.22057E-02 7.50682E-04
 -1      3854 6.68687E-03-2.22445E-02 5.83613E-04
 -1      3855 6.69982E-03-2.22738E-02 4.16782E-04
 -1      3856 6.70855E-03-2.22933E-02 2.50058E-04
 -1      3857 6.71293E-03-2.23031E-02 8.33536E-05
 -1      3858 6.71293E-03-2.23031E-02-8.33536E-05
 -1      3859 6.70855E-03-2.22933E-02-2.50058E-04
 -1      3860 6.69982E-03-2.22738E-02-4.16782E-04
 -1      3861 6.68687E-03-2.22445E-02-5.83613E-04
 -1      3862 6.67000E-03-2.22057E-02-7.50682E-04
 -1      3863 7.42385E-03-2.42369E-02 7.21868E-04
 -1      3864 7.43906E-03-2.42776E-02 5.61167E-04
 -1      3865 7.45078E-03-2.43083E-02 4.00734E-04
 -1      3866 7.45869E-03-2.43289E-02 2.40425E-04
 -1      3867 7.46267E-03-2.43392E-02 8.01420E-05
 -1      3868 7.46267E-03-2.43392E-02-8.01420E-05
 -1      3869 7.45869E-03-2.43289E-02-2.40425E-04
 -1      3870 7.45078E-03-2.43083E-02-4.00734E-04
 -1      3871 7.43906E-03-2.42776E-02-5.61167E-04
 -1      3872 7.42385E-03-2.42369E-02-7.21868E-04
 -1      3873 8.16641E-03-2.63612E-02 6.92174E-04
 -1      3874 8.18020E-03-2.64045E-02 5.38081E-04
 -1      3875 8.19085E-03-2.64374E-02 3.84263E-04
 -1      3876 8.19802E-03-2.64594E-02 2.30554E-04
 -1      3877 8.20162E-03-2.64704E-02 7.68543E-05
 -1      3878 8.20162E-03-2.64704E-02-7.68543E-05
 -1      3879 8.19802E-03-2.64594E-02-2.30554E-04
 -1      3880 8.19085E-03-2.64374E-02-3.84263E-04
 -1      3881 8.18020E-03-2.64045E-02-5.38081E-04
 -1      3882 8.16641E-03-2.63612E-02-6.92174E-04
 -1      3883 8.89442E-03-2.85824E-02 6.61151E-04
 -1      3884 8.90681E-03-2.86297E-02 5.14063E-04
 -1      3885 8.91628E-03-2.86656E-02 3.67197E-04
 -1      3886 8.92261E-03-2.86897E-02 2.20362E-04
 -1      3887 8.92575E-03-2.87018E-02 7.34657E-05
 -1      3888 8.92575E-03-2.87018E-02-7.34657E-05
 -1      3889 8.92261E-03-2.86897E-02-2.20362E-04
 -1      3890 8.91628E-03-2.86656E-02-3.67197E-04
 -1      3891 8.90681E-03-2.86297E-02-5.14063E-04
 -1      3892 8.89442E-03-2.85824E-02-6.61151E-04
 -1      3893 9.60797E-03-3.09070E-02 6.27777E-04
 -1      3894 9.61842E-03-3.09601E-02 4.88415E-04
 -1      3895 9.62615E-03-3.10004E-02 3.49104E-04
 -1      3896 9.63115E-03-3.10275E-02 2.09616E-04
 -1      3897 9.63357E-03-3.10411E-02 6.99040E-05
 -1      3898 9.63357E-03-3.10411E-02-6.99040E-05
 -1      3899 9.63115E-03-3.10275E-02-2.09616E-04
 -1      3900 9.62615E-03-3.10004E-02-3.49104E-04
 -1      3901 9.61842E-03-3.09601E-02-4.88415E-04
 -1      3902 9.60797E-03-3.09070E-02-6.27777E-04
 -1      3903 1.03118E-02-3.33463E-02 5.89968E-04
 -1      3904 1.03188E-02-3.34075E-02 4.59662E-04
 -1      3905 1.03233E-02-3.34540E-02 3.29016E-04
 -1      3906 1.03258E-02-3.34851E-02 1.97775E-04
 -1      3907 1.03268E-02-3.35007E-02 6.59957E-05
 -1      3908 1.03268E-02-3.35007E-02-6.59957E-05
 -1      3909 1.03258E-02-3.34851E-02-1.97775E-04
 -1      3910 1.03233E-02-3.34540E-02-3.29016E-04
 -1      3911 1.03188E-02-3.34075E-02-4.59662E-04
 -1      3912 1.03118E-02-3.33463E-02-5.89968E-04
 -1      3913 1.10170E-02-3.59194E-02 5.43634E-04
 -1      3914 1.10170E-02-3.59917E-02 4.24796E-04
 -1      3915 1.10153E-02-3.60461E-02 3.04891E-04
 -1      3916 1.10130E-02-3.60824E-02 1.83656E-04
 -1      3917 1.10115E-02-3.61005E-02 6.13533E-05
 -1      3918 1.10115E-02-3.61005E-02-6.13533E-05
 -1      3919 1.10130E-02-3.60824E-02-1.83656E-04
 -1      3920 1.10153E-02-3.60461E-02-3.04891E-04
 -1      3921 1.10170E-02-3.59917E-02-4.24796E-04
 -1      3922 1.10170E-02-3.59194E-02-5.43634E-04
 -1      3923 1.17428E-02-3.86585E-02 4.80977E-04
 -1      3924 1.17294E-02-3.87446E-02 3.77908E-04
 -1      3925 1.17159E-02-3.88085E-02 2.72574E-04
 -1      3926 1.17049E-02-3.88506E-02 1.64791E-04
 -1      3927 1.16988E-02-3.88715E-02 5.51582E-05
 -1      3928 1.16988E-02-3.88715E-02-5.51582E-05
 -1      3929 1.17049E-02-3.88506E-02-1.64791E-04
 -1      3930 1.17159E-02-3.88085E-02-2.72574E-04
 -1      3931 1.17294E-02-3.87446E-02-3.77908E-04
 -1      3932 1.17428E-02-3.86585E-02-4.80977E-04
 -1      3933 1.25169E-02-4.16168E-02 3.87807E-04
 -1      3934 1.24790E-02-4.17178E-02 3.07928E-04
 -1      3935 1.24452E-02-4.17910E-02 2.24138E-04
 -1      3936 1.24197E-02-4.18383E-02 1.36400E-04
 -1      3937 1.24060E-02-4.18615E-02 4.58117E-05
 -1      3938 1.24060E-02-4.18615E-02-4.58117E-05
 -1      3939 1.24197E-02-4.18383E-02-1.36400E-04
 -1      3940 1.24452E-02-4.17910E-02-2.24138E-04
 -1      3941 1.24790E-02-4.17178E-02-3.07928E-04
 -1      3942 1.25169E-02-4.16168E-02-3.87807E-04
 -1      3943 1.33716E-02-4.48796E-02 2.39806E-04
 -1      3944 1.32931E-02-4.49921E-02 1.95830E-04
 -1      3945 1.32269E-02-4.50706E-02 1.45793E-04
 -1      3946 1.31790E-02-4.51198E-02 9.01107E-05
 -1      3947 1.31540E-02-4.51433E-02 3.05004E-05
 -1      3948 1.31540E-02-4.51433E-02-3.05004E-05
 -1      3949 1.31790E-02-4.51198E-02-9.01107E-05
 -1      3950 1.32269E-02-4.50706E-02-1.45793E-04
 -1      3951 1.32931E-02-4.49921E-02-1.95830E-04
 -1      3952 1.33716E-02-4.48796E-02-2.39806E-04
 -1      3953 1.43262E-02-4.85736E-02 9.67363E-07
 -1      3954 1.41855E-02-4.86846E-02 1.28544E-05
 -1      3955 1.40727E-02-4.87573E-02 1.67125E-05
 -1      3956 1.39942E-02-4.88001E-02 1.32753E-05
 -1      3957 1.39539E-02-4.88197E-02 4.99039E-06
 -1      3958 1.39539E-02-4.88197E-02-4.99039E-06
 -1      3959 1.39942E-02-4.88001E-02-1.32753E-05
 -1      3960 1.40727E-02-4.87573E-02-1.67125E-05
 -1      3961 1.41855E-02-4.86846E-02-1.28544E-05
 -1      3962 1.43262E-02-4.85736E-02-9.67363E-07
 -1      3963 1.53314E-02-5.28610E-02-3.73527E-04
 -1      3964 1.51092E-02-5.29412E-02-2.75758E-04
 -1      3965 1.49387E-02-5.29862E-02-1.87934E-04
 -1      3966 1.48243E-02-5.30088E-02-1.08844E-04
 -1      3967 1.47669E-02-5.30179E-02-3.56180E-05
 -1      3968 1.47669E-02-5.30179E-02 3.56180E-05
 -1      3969 1.48243E-02-5.30088E-02 1.08844E-04
 -1      3970 1.49387E-02-5.29862E-02 1.87934E-04
 -1      3971 1.51092E-02-5.29412E-02 2.75758E-04
 -1      3972 1.53314E-02-5.28610E-02 3.73527E-04
 -1      3973 1.61214E-02-5.77688E-02-9.21632E-04
 -1      3974 1.58162E-02-5.77722E-02-6.97463E-04
 -1      3975 1.55920E-02-5.77639E-02-4.85996E-04
 -1      3976 1.54452E-02-5.77537E-02-2.86613E-04
 -1      3977 1.53731E-02-5.77474E-02-9.46911E-05
 -1      3978 1.53731E-02-5.77474E-02 9.46911E-05
 -1      3979 1.54452E-02-5.77537E-02 2.86613E-04
 -1      3980 1.55920E-02-5.77639E-02 4.85996E-04
 -1      3981 1.58162E-02-5.77722E-02 6.97463E-04
 -1      3982 1.61214E-02-5.77688E-02 9.21632E-04
 -1      3983 1.62719E-02-6.27522E-02-1.65319E-03
 -1      3984 1.59201E-02-6.26762E-02-1.25253E-03
 -1      3985 1.56633E-02-6.26248E-02-8.76199E-04
 -1      3986 1.54987E-02-6.25938E-02-5.17335E-04
 -1      3987 1.54186E-02-6.25783E-02-1.71064E-04
 -1      3988 1.54186E-02-6.25783E-02 1.71064E-04
 -1      3989 1.54987E-02-6.25938E-02 5.17335E-04
 -1      3990 1.56633E-02-6.26248E-02 8.76199E-04
 -1      3991 1.59201E-02-6.26762E-02 1.25253E-03
 -1      3992 1.62719E-02-6.27522E-02 1.65319E-03
 -1      3993-3.19501E-04-8.58475E-04 5.54004E-04
 -1      3994-2.99540E-04-8.05666E-04 3.91692E-04
 -1      3995-2.87294E-04-7.83055E-04 2.62822E-04
 -1      3996-2.80036E-04-7.72666E-04 1.51766E-04
 -1      3997-2.76626E-04-7.68462E-04 4.96722E-05
 -1      3998-2.76626E-04-7.68462E-04-4.96722E-05
 -1      3999-2.80036E-04-7.72666E-04-1.51766E-04
 -1      4000-2.87294E-04-7.83055E-04-2.62822E-04
 -1      4001-2.99540E-04-8.05666E-04-3.91692E-04
 -1      4002-3.19501E-04-8.58475E-04-5.54004E-04
 -1      4003-4.42835E-04-1.82018E-03 8.16975E-04
 -1      4004-4.09975E-04-1.74892E-03 6.19394E-04
 -1      4005-3.88704E-04-1.70814E-03 4.31101E-04
 -1      4006-3.75699E-04-1.68572E-03 2.53810E-04
 -1      4007-3.69488E-04-1.67575E-03 8.37799E-05
 -1      4008-3.69488E-04-1.67575E-03-8.37799E-05
 -1      4009-3.75699E-04-1.68572E-03-2.53810E-04
 -1      4010-3.88704E-04-1.70814E-03-4.31101E-04
 -1      4011-4.09975E-04-1.74892E-03-6.19394E-04
 -1      4012-4.42835E-04-1.82018E-03-8.16975E-04
 -1      4013-4.11833E-04-2.76820E-03 8.88655E-04
 -1      4014-3.73646E-04-2.73698E-03 6.95516E-04
 -1      4015-3.46567E-04-2.70616E-03 4.96559E-04
 -1      4016-3.29399E-04-2.68511E-03 2.97161E-04
 -1      4017-3.21067E-04-2.67470E-03 9.88646E-05
 -1      4018-3.21067E-04-2.67470E-03-9.88646E-05
 -1      4019-3.29399E-04-2.68511E-03-2.97161E-04
 -1      4020-3.46567E-04-2.70616E-03-4.96559E-04
 -1      4021-3.73646E-04-2.73698E-03-6.95516E-04
 -1      4022-4.11833E-04-2.76820E-03-8.88655E-04
 -1      4023-2.53133E-04-3.75922E-03 9.01106E-04
 -1      4024-2.13098E-04-3.75129E-03 7.06504E-04
 -1      4025-1.83775E-04-3.73937E-03 5.07903E-04
 -1      4026-1.64526E-04-3.72846E-03 3.05908E-04
 -1      4027-1.55016E-04-3.72232E-03 1.02142E-04
 -1      4028-1.55016E-04-3.72232E-03-1.02142E-04
 -1      4029-1.64526E-04-3.72846E-03-3.05908E-04
 -1      4030-1.83775E-04-3.73937E-03-5.07903E-04
 -1      4031-2.13098E-04-3.75129E-03-7.06504E-04
 -1      4032-2.53133E-04-3.75922E-03-9.01106E-04
 -1      4033 1.91727E-05-4.79817E-03 8.91816E-04
 -1      4034 5.91939E-05-4.80456E-03 6.97979E-04
 -1      4035 8.89511E-05-4.80539E-03 5.01191E-04
 -1      4036 1.08677E-04-4.80400E-03 3.01889E-04
 -1      4037 1.18512E-04-4.80267E-03 1.00834E-04
 -1      4038 1.18512E-04-4.80267E-03-1.00834E-04
 -1      4039 1.08677E-04-4.80400E-03-3.01889E-04
 -1      4040 8.89511E-05-4.80539E-03-5.01191E-04
 -1      4041 5.91939E-05-4.80456E-03-6.97979E-04
 -1      4042 1.91727E-05-4.79817E-03-8.91816E-04
 -1      4043 3.96961E-04-5.88911E-03 8.77279E-04
 -1      4044 4.35902E-04-5.90366E-03 6.84815E-04
 -1      4045 4.65030E-04-5.91249E-03 4.90786E-04
 -1      4046 4.84424E-04-5.91728E-03 2.95207E-04
 -1      4047 4.94110E-04-5.91933E-03 9.85352E-05
 -1      4048 4.94110E-04-5.91933E-03-9.85352E-05
 -1      4049 4.84424E-04-5.91728E-03-2.95207E-04
 -1      4050 4.65030E-04-5.91249E-03-4.90786E-04
 -1      4051 4.35902E-04-5.90366E-03-6.84815E-04
 -1      4052 3.96961E-04-5.88911E-03-8.77279E-04
 -1      4053 8.72969E-04-7.03783E-03 8.61949E-04
 -1      4054 9.10215E-04-7.05726E-03 6.71641E-04
 -1      4055 9.38133E-04-7.07088E-03 4.80579E-04
 -1      4056 9.56748E-04-7.07944E-03 2.88741E-04
 -1      4057 9.66055E-04-7.08355E-03 9.63184E-05
 -1      4058 9.66055E-04-7.08355E-03-9.63184E-05
 -1      4059 9.56748E-04-7.07944E-03-2.88741E-04
 -1      4060 9.38133E-04-7.07088E-03-4.80579E-04
 -1      4061 9.10215E-04-7.05726E-03-6.71641E-04
 -1      4062 8.72969E-04-7.03783E-03-8.61949E-04
 -1      4063 1.43892E-03-8.25149E-03 8.46346E-04
 -1      4064 1.47406E-03-8.27419E-03 6.58795E-04
 -1      4065 1.50042E-03-8.29083E-03 4.70941E-04
 -1      4066 1.51801E-03-8.30171E-03 2.82746E-04
 -1      4067 1.52681E-03-8.30708E-03 9.42826E-05
 -1      4068 1.52681E-03-8.30708E-03-9.42826E-05
 -1      4069 1.51801E-03-8.30171E-03-2.82746E-04
 -1      4070 1.50042E-03-8.29083E-03-4.70941E-04
 -1      4071 1.47406E-03-8.27419E-03-6.58795E-04
 -1      4072 1.43892E-03-8.25149E-03-8.46346E-04
 -1      4073 2.08534E-03-9.53750E-03 8.29873E-04
 -1      4074 2.11809E-03-9.56268E-03 6.45635E-04
 -1      4075 2.14268E-03-9.58144E-03 4.61303E-04
 -1      4076 2.15909E-03-9.59388E-03 2.76852E-04
 -1      4077 2.16730E-03-9.60006E-03 9.22981E-05
 -1      4078 2.16730E-03-9.60006E-03-9.22981E-05
 -1      4079 2.15909E-03-9.59388E-03-2.76852E-04
 -1      4080 2.14268E-03-9.58144E-03-4.61303E-04
 -1      4081 2.11809E-03-9.56268E-03-6.45635E-04
 -1      4082 2.08534E-03-9.53750E-03-8.29873E-04
 -1      4083 2.80188E-03-1.09027E-02 8.11966E-04
 -1      4084 2.83206E-03-1.09300E-02 6.31551E-04
 -1      4085 2.85473E-03-1.09504E-02 4.51132E-04
 -1      4086 2.86987E-03-1.09639E-02 2.70698E-04
 -1      4087 2.87745E-03-1.09707E-02 9.02369E-05
 -1      4088 2.87745E-03-1.09707E-02-9.02369E-05
 -1      4089 2.86987E-03-1.09639E-02-2.70698E-04
 -1      4090 2.85473E-03-1.09504E-02-4.51132E-04
 -1      4091 2.83206E-03-1.09300E-02-6.31551E-04
 -1      4092 2.80188E-03-1.09027E-02-8.11966E-04
 -1      4093 3.57774E-03-1.23531E-02 7.92326E-04
 -1      4094 3.60523E-03-1.23821E-02 6.16207E-04
 -1      4095 3.62591E-03-1.24038E-02 4.40123E-04
 -1      4096 3.63973E-03-1.24184E-02 2.64068E-04
 -1      4097 3.64665E-03-1.24256E-02 8.80225E-05
 -1      4098 3.64665E-03-1.24256E-02-8.80225E-05
 -1      4099 3.63973E-03-1.24184E-02-2.64068E-04
 -1      4100 3.62591E-03-1.24038E-02-4.40123E-04
 -1      4101 3.60523E-03-1.23821E-02-6.16207E-04
 -1      4102 3.57774E-03-1.23531E-02-7.92326E-04
 -1      4103 4.40195E-03-1.38934E-02 7.70877E-04
 -1      4104 4.42673E-03-1.39239E-02 5.99491E-04
 -1      4105 4.44540E-03-1.39469E-02 4.28157E-04
 -1      4106 4.45789E-03-1.39622E-02 2.56876E-04
 -1      4107 4.46415E-03-1.39699E-02 8.56231E-05
 -1      4108 4.46415E-03-1.39699E-02-8.56231E-05
 -1      4109 4.45789E-03-1.39622E-02-2.56876E-04
 -1      4110 4.44540E-03-1.39469E-02-4.28157E-04
 -1      4111 4.42673E-03-1.39239E-02-5.99491E-04
 -1      4112 4.40195E-03-1.38934E-02-7.70877E-04
 -1      4113 5.26376E-03-1.55275E-02 7.47665E-04
 -1      4114 5.28587E-03-1.55595E-02 5.81411E-04
 -1      4115 5.30255E-03-1.55835E-02 4.15225E-04
 -1      4116 5.31373E-03-1.55995E-02 2.49109E-04
 -1      4117 5.31934E-03-1.56075E-02 8.30323E-05
 -1      4118 5.31934E-03-1.56075E-02-8.30323E-05
 -1      4119 5.31373E-03-1.55995E-02-2.49109E-04
 -1      4120 5.30255E-03-1.55835E-02-4.15225E-04
 -1      4121 5.28587E-03-1.55595E-02-5.81411E-04
 -1      4122 5.26376E-03-1.55275E-02-7.47665E-04
 -1      4123 6.15287E-03-1.72584E-02 7.22756E-04
 -1      4124 6.17240E-03-1.72917E-02 5.62010E-04
 -1      4125 6.18718E-03-1.73167E-02 4.01350E-04
 -1      4126 6.19710E-03-1.73334E-02 2.40776E-04
 -1      4127 6.20208E-03-1.73418E-02 8.02531E-05
 -1      4128 6.20208E-03-1.73418E-02-8.02531E-05
 -1      4129 6.19710E-03-1.73334E-02-2.40776E-04
 -1      4130 6.18718E-03-1.73167E-02-4.01350E-04
 -1      4131 6.17240E-03-1.72917E-02-5.62010E-04
 -1      4132 6.15287E-03-1.72584E-02-7.22756E-04
 -1      4133 7.05978E-03-1.90884E-02 6.96170E-04
 -1      4134 7.07685E-03-1.91230E-02 5.41300E-04
 -1      4135 7.08981E-03-1.91491E-02 3.86537E-04
 -1      4136 7.09853E-03-1.91665E-02 2.31879E-04
 -1      4137 7.10291E-03-1.91752E-02 7.72859E-05
 -1      4138 7.10291E-03-1.91752E-02-7.72859E-05
 -1      4139 7.09853E-03-1.91665E-02-2.31879E-04
 -1      4140 7.08981E-03-1.91491E-02-3.86537E-04
 -1      4141 7.07685E-03-1.91230E-02-5.41300E-04
 -1      4142 7.05978E-03-1.90884E-02-6.96170E-04
 -1      4143 7.97607E-03-2.10195E-02 6.67806E-04
 -1      4144 7.99081E-03-2.10556E-02 5.19203E-04
 -1      4145 8.00204E-03-2.10828E-02 3.70732E-04
 -1      4146 8.00962E-03-2.11010E-02 2.22387E-04
 -1      4147 8.01344E-03-2.11102E-02 7.41204E-05
 -1      4148 8.01344E-03-2.11102E-02-7.41204E-05
 -1      4149 8.00962E-03-2.11010E-02-2.22387E-04
 -1      4150 8.00204E-03-2.10828E-02-3.70732E-04
 -1      4151 7.99081E-03-2.10556E-02-5.19203E-04
 -1      4152 7.97607E-03-2.10195E-02-6.67806E-04
 -1      4153 8.89486E-03-2.30537E-02 6.37374E-04
 -1      4154 8.90732E-03-2.30918E-02 4.95501E-04
 -1      4155 8.91687E-03-2.31204E-02 3.53784E-04
 -1      4156 8.92334E-03-2.31396E-02 2.12211E-04
 -1      4157 8.92661E-03-2.31493E-02 7.07274E-05
 -1      4158 8.92661E-03-2.31493E-02-7.07274E-05
 -1      4159 8.92334E-03-2.31396E-02-2.12211E-04
 -1      4160 8.91687E-03-2.31204E-02-3.53784E-04
 -1      4161 8.90732E-03-2.30918E-02-4.95501E-04
 -1      4162 8.89486E-03-2.30537E-02-6.37374E-04
 -1      4163 9.81120E-03-2.51940E-02 6.04295E-04
 -1      4164 9.82132E-03-2.52345E-02 4.69758E-04
 -1      4165 9.82912E-03-2.52651E-02 3.35394E-04
 -1      4166 9.83443E-03-2.52856E-02 2.01178E-04
 -1      4167 9.83711E-03-2.52959E-02 6.70499E-05
 -1      4168 9.83711E-03-2.52959E-02-6.70499E-05
 -1      4169 9.83443E-03-2.52856E-02-2.01178E-04
 -1      4170 9.82912E-03-2.52651E-02-3.35394E-04
 -1      4171 9.82132E-03-2.52345E-02-4.69758E-04
 -1      4172 9.81120E-03-2.51940E-02-6.04295E-04
 -1      4173 1.07227E-02-2.74448E-02 5.67551E-04
 -1      4174 1.07302E-02-2.74887E-02 4.41216E-04
 -1      4175 1.07359E-02-2.75219E-02 3.15040E-04
 -1      4176 1.07398E-02-2.75442E-02 1.88984E-04
 -1      4177 1.07418E-02-2.75554E-02 6.29888E-05
 -1      4178 1.07418E-02-2.75554E-02-6.29888E-05
 -1      4179 1.07398E-02-2.75442E-02-1.88984E-04
 -1      4180 1.07359E-02-2.75219E-02-3.15040E-04
 -1      4181 1.07302E-02-2.74887E-02-4.41216E-04
 -1      4182 1.07227E-02-2.74448E-02-5.67551E-04
 -1      4183 1.16303E-02-2.98136E-02 5.25441E-04
 -1      4184 1.16341E-02-2.98621E-02 4.08606E-04
 -1      4185 1.16371E-02-2.98988E-02 2.91854E-04
 -1      4186 1.16391E-02-2.99234E-02 1.75125E-04
 -1      4187 1.16401E-02-2.99358E-02 5.83790E-05
 -1      4188 1.16401E-02-2.99358E-02-5.83790E-05
 -1      4189 1.16391E-02-2.99234E-02-1.75125E-04
 -1      4190 1.16371E-02-2.98988E-02-2.91854E-04
 -1      4191 1.16341E-02-2.98621E-02-4.08606E-04
 -1      4192 1.16303E-02-2.98136E-02-5.25441E-04
 -1      4193 1.25384E-02-3.23129E-02 4.75177E-04
 -1      4194 1.25370E-02-3.23674E-02 3.69841E-04
 -1      4195 1.25357E-02-3.24086E-02 2.64397E-04
 -1      4196 1.25347E-02-3.24362E-02 1.58761E-04
 -1      4197 1.25342E-02-3.24500E-02 5.29446E-05
 -1      4198 1.25342E-02-3.24500E-02-5.29446E-05
 -1      4199 1.25347E-02-3.24362E-02-1.58761E-04
 -1      4200 1.25357E-02-3.24086E-02-2.64397E-04
 -1      4201 1.25370E-02-3.23674E-02-3.69841E-04
 -1      4202 1.25384E-02-3.23129E-02-4.75177E-04
 -1      4203 1.34559E-02-3.49627E-02 4.12212E-04
 -1      4204 1.34460E-02-3.50246E-02 3.21489E-04
 -1      4205 1.34379E-02-3.50711E-02 2.30279E-04
 -1      4206 1.34321E-02-3.51022E-02 1.38485E-04
 -1      4207 1.34290E-02-3.51177E-02 4.62213E-05
 -1      4208 1.34290E-02-3.51177E-02-4.62213E-05
 -1      4209 1.34321E-02-3.51022E-02-1.38485E-04
 -1      4210 1.34379E-02-3.50711E-02-2.30279E-04
 -1      4211 1.34460E-02-3.50246E-02-3.21489E-04
 -1      4212 1.34559E-02-3.49627E-02-4.12212E-04
 -1      4213 1.43946E-02-3.77943E-02 3.29251E-04
 -1      4214 1.43710E-02-3.78643E-02 2.57957E-04
 -1      4215 1.43518E-02-3.79164E-02 1.85557E-04
 -1      4216 1.43382E-02-3.79509E-02 1.11951E-04
 -1      4217 1.43311E-02-3.79680E-02 3.74302E-05
 -1      4218 1.43311E-02-3.79680E-02-3.74302E-05
 -1      4219 1.43382E-02-3.79509E-02-1.11951E-04
 -1      4220 1.43518E-02-3.79164E-02-1.85557E-04
 -1      4221 1.43710E-02-3.78643E-02-2.57957E-04
 -1      4222 1.43946E-02-3.77943E-02-3.29251E-04
 -1      4223 1.53654E-02-4.08545E-02 2.14948E-04
 -1      4224 1.53203E-02-4.09312E-02 1.70455E-04
 -1      4225 1.52840E-02-4.09873E-02 1.23951E-04
 -1      4226 1.52585E-02-4.10240E-02 7.53884E-05
 -1      4227 1.52453E-02-4.10420E-02 2.53134E-05
 -1      4228 1.52453E-02-4.10420E-02-2.53134E-05
 -1      4229 1.52585E-02-4.10240E-02-7.53884E-05
 -1      4230 1.52840E-02-4.09873E-02-1.23951E-04
 -1      4231 1.53203E-02-4.09312E-02-1.70455E-04
 -1      4232 1.53654E-02-4.08545E-02-2.14948E-04
 -1      4233 1.63675E-02-4.42062E-02 5.30391E-05
 -1      4234 1.62905E-02-4.42842E-02 4.61838E-05
 -1      4235 1.62294E-02-4.43396E-02 3.62320E-05
 -1      4236 1.61870E-02-4.43750E-02 2.32140E-05
 -1      4237 1.61652E-02-4.43921E-02 8.00277E-06
 -1      4238 1.61652E-02-4.43921E-02-8.00277E-06
 -1      4239 1.61870E-02-4.43750E-02-2.32140E-05
 -1      4240 1.62294E-02-4.43396E-02-3.62320E-05
 -1      4241 1.62905E-02-4.42842E-02-4.61838E-05
 -1      4242 1.63675E-02-4.42062E-02-5.30391E-05
 -1      4243 1.73643E-02-4.79195E-02-1.77019E-04
 -1      4244 1.72445E-02-4.79862E-02-1.31066E-04
 -1      4245 1.71512E-02-4.80312E-02-8.93375E-05
 -1      4246 1.70874E-02-4.80587E-02-5.16556E-05
 -1      4247 1.70549E-02-4.80716E-02-1.68718E-05
 -1      4248 1.70549E-02-4.80716E-02 1.68718E-05
 -1      4249 1.70874E-02-4.80587E-02 5.16556E-05
 -1      4250 1.71512E-02-4.80312E-02 8.93375E-05
 -1      4251 1.72445E-02-4.79862E-02 1.31066E-04
 -1      4252 1.73643E-02-4.79195E-02 1.77019E-04
 -1      4253 1.82389E-02-5.20180E-02-4.95639E-04
 -1      4254 1.80701E-02-5.20527E-02-3.77127E-04
 -1      4255 1.79415E-02-5.20728E-02-2.63958E-04
 -1      4256 1.78546E-02-5.20835E-02-1.55967E-04
 -1      4257 1.78109E-02-5.20879E-02-5.15610E-05
 -1      4258 1.78109E-02-5.20879E-02 5.15610E-05
 -1      4259 1.78546E-02-5.20835E-02 1.55967E-04
 -1      4260 1.79415E-02-5.20728E-02 2.63958E-04
 -1      4261 1.80701E-02-5.20527E-02 3.77127E-04
 -1      4262 1.82389E-02-5.20180E-02 4.95639E-04
 -1      4263 1.87834E-02-5.63519E-02-9.11507E-04
 -1      4264 1.85721E-02-5.63336E-02-6.98225E-04
 -1      4265 1.84129E-02-5.63169E-02-4.92576E-04
 -1      4266 1.83071E-02-5.63054E-02-2.92903E-04
 -1      4267 1.82543E-02-5.62997E-02-9.71854E-05
 -1      4268 1.82543E-02-5.62997E-02 9.71854E-05
 -1      4269 1.83071E-02-5.63054E-02 2.92903E-04
 -1      4270 1.84129E-02-5.63169E-02 4.92576E-04
 -1      4271 1.85721E-02-5.63336E-02 6.98225E-04
 -1      4272 1.87834E-02-5.63519E-02 9.11507E-04
 -1      4273 1.87916E-02-6.04640E-02-1.39274E-03
 -1      4274 1.85538E-02-6.03840E-02-1.07943E-03
 -1      4275 1.83790E-02-6.03430E-02-7.67779E-04
 -1      4276 1.82636E-02-6.03224E-02-4.59134E-04
 -1      4277 1.82064E-02-6.03138E-02-1.52714E-04
 -1      4278 1.82064E-02-6.03138E-02 1.52714E-04
 -1      4279 1.82636E-02-6.03224E-02 4.59134E-04
 -1      4280 1.83790E-02-6.03430E-02 7.67779E-04
 -1      4281 1.85538E-02-6.03840E-02 1.07943E-03
 -1      4282 1.87916E-02-6.04640E-02 1.39274E-03
 -1      4283-3.36341E-04-7.82274E-04 5.07317E-04
 -1      4284-3.16347E-04-7.33336E-04 3.60725E-04
 -1      4285-3.04139E-04-7.12196E-04 2.42913E-04
 -1      4286-2.97033E-04-7.02373E-04 1.40579E-04
 -1      4287-2.93740E-04-6.98374E-04 4.60601E-05
 -1      4288-2.93740E-04-6.98374E-04-4.60601E-05
 -1      4289-2.97033E-04-7.02373E-04-1.40579E-04
 -1      4290-3.04139E-04-7.12196E-04-2.42913E-04
 -1      4291-3.16347E-04-7.33336E-04-3.60725E-04
 -1      4292-3.36341E-04-7.82274E-04-5.07317E-04
 -1      4293-4.63998E-04-1.64378E-03 7.39829E-04
 -1      4294-4.31704E-04-1.58202E-03 5.63595E-04
 -1      4295-4.10866E-04-1.54554E-03 3.93733E-04
 -1      4296-3.98259E-04-1.52520E-03 2.32383E-04
 -1      4297-3.92293E-04-1.51608E-03 7.68005E-05
 -1      4298-3.92293E-04-1.51608E-03-7.68005E-05
 -1      4299-3.98259E-04-1.52520E-03-2.32383E-04
 -1      4300-4.10866E-04-1.54554E-03-3.93733E-04
 -1      4301-4.31704E-04-1.58202E-03-5.63595E-04
 -1      4302-4.63998E-04-1.64378E-03-7.39829E-04
 -1      4303-4.17154E-04-2.48968E-03 7.99461E-04
 -1      4304-3.80267E-04-2.46513E-03 6.26751E-04
 -1      4305-3.54222E-04-2.43960E-03 4.48422E-04
 -1      4306-3.37797E-04-2.42166E-03 2.68804E-04
 -1      4307-3.29861E-04-2.41266E-03 8.95103E-05
 -1      4308-3.29861E-04-2.41266E-03-8.95103E-05
 -1      4309-3.37797E-04-2.42166E-03-2.68804E-04
 -1      4310-3.54222E-04-2.43960E-03-4.48422E-04
 -1      4311-3.80267E-04-2.46513E-03-6.26751E-04
 -1      4312-4.17154E-04-2.48968E-03-7.99461E-04
 -1      4313-2.22199E-04-3.37993E-03 8.07745E-04
 -1      4314-1.84024E-04-3.37549E-03 6.33360E-04
 -1      4315-1.56192E-04-3.36713E-03 4.55520E-04
 -1      4316-1.38004E-04-3.35891E-03 2.74505E-04
 -1      4317-1.29039E-04-3.35413E-03 9.16874E-05
 -1      4318-1.29039E-04-3.35413E-03-9.16874E-05
 -1      4319-1.38004E-04-3.35891E-03-2.74505E-04
 -1      4320-1.56192E-04-3.36713E-03-4.55520E-04
 -1      4321-1.84024E-04-3.37549E-03-6.33360E-04
 -1      4322-2.22199E-04-3.37993E-03-8.07745E-04
 -1      4323 1.03522E-04-4.32134E-03 7.98166E-04
 -1      4324 1.41269E-04-4.32884E-03 6.24403E-04
 -1      4325 1.69263E-04-4.33132E-03 4.48240E-04
 -1      4326 1.87760E-04-4.33140E-03 2.69957E-04
 -1      4327 1.96966E-04-4.33091E-03 9.01644E-05
 -1      4328 1.96966E-04-4.33091E-03-9.01644E-05
 -1      4329 1.87760E-04-4.33140E-03-2.69957E-04
 -1      4330 1.69263E-04-4.33132E-03-4.48240E-04
 -1      4331 1.41269E-04-4.32884E-03-6.24403E-04
 -1      4332 1.03522E-04-4.32134E-03-7.98166E-04
 -1      4333 5.48185E-04-5.31921E-03 7.85032E-04
 -1      4334 5.84662E-04-5.33326E-03 6.12483E-04
 -1      4335 6.11917E-04-5.34227E-03 4.38766E-04
 -1      4336 6.30030E-04-5.34744E-03 2.63837E-04
 -1      4337 6.39068E-04-5.34977E-03 8.80497E-05
 -1      4338 6.39068E-04-5.34977E-03-8.80497E-05
 -1      4339 6.30030E-04-5.34744E-03-2.63837E-04
 -1      4340 6.11917E-04-5.34227E-03-4.38766E-04
 -1      4341 5.84662E-04-5.33326E-03-6.12483E-04
 -1      4342 5.48185E-04-5.31921E-03-7.85032E-04
 -1      4343 1.10202E-03-6.37988E-03 7.71726E-04
 -1      4344 1.13679E-03-6.39783E-03 6.01089E-04
 -1      4345 1.16284E-03-6.41065E-03 4.29945E-04
 -1      4346 1.18020E-03-6.41884E-03 2.58248E-04
 -1      4347 1.18887E-03-6.42281E-03 8.61334E-05
 -1      4348 1.18887E-03-6.42281E-03-8.61334E-05
 -1      4349 1.18020E-03-6.41884E-03-2.58248E-04
 -1      4350 1.16284E-03-6.41065E-03-4.29945E-04
 -1      4351 1.13679E-03-6.39783E-03-6.01089E-04
 -1      4352 1.10202E-03-6.37988E-03-7.71726E-04
 -1      4353 1.75537E-03-7.51129E-03 7.58301E-04
 -1      4354 1.78815E-03-7.53192E-03 5.90100E-04
 -1      4355 1.81274E-03-7.54718E-03 4.21733E-04
 -1      4356 1.82913E-03-7.55722E-03 2.53152E-04
 -1      4357 1.83733E-03-7.56219E-03 8.44050E-05
 -1      4358 1.83733E-03-7.56219E-03-8.44050E-05
 -1      4359 1.82913E-03-7.55722E-03-2.53152E-04
 -1      4360 1.81274E-03-7.54718E-03-4.21733E-04
 -1      4361 1.78815E-03-7.53192E-03-5.90100E-04
 -1      4362 1.75537E-03-7.51129E-03-7.58301E-04
 -1      4363 2.49799E-03-8.72176E-03 7.44000E-04
 -1      4364 2.52856E-03-8.74454E-03 5.78735E-04
 -1      4365 2.55150E-03-8.76159E-03 4.13445E-04
 -1      4366 2.56681E-03-8.77292E-03 2.48099E-04
 -1      4367 2.57447E-03-8.77858E-03 8.27061E-05
 -1      4368 2.57447E-03-8.77858E-03-8.27061E-05
 -1      4369 2.56681E-03-8.77292E-03-2.48099E-04
 -1      4370 2.55150E-03-8.76159E-03-4.13445E-04
 -1      4371 2.52856E-03-8.74454E-03-5.78735E-04
 -1      4372 2.49799E-03-8.72176E-03-7.44000E-04
 -1      4373 3.31900E-03-1.00191E-02 7.28208E-04
 -1      4374 3.34719E-03-1.00438E-02 5.66357E-04
 -1      4375 3.36837E-03-1.00623E-02 4.04534E-04
 -1      4376 3.38250E-03-1.00747E-02 2.42719E-04
 -1      4377 3.38958E-03-1.00808E-02 8.09064E-05
 -1      4378 3.38958E-03-1.00808E-02-8.09064E-05
 -1      4379 3.38250E-03-1.00747E-02-2.42719E-04
 -1      4380 3.36837E-03-1.00623E-02-4.04534E-04
 -1      4381 3.34719E-03-1.00438E-02-5.66357E-04
 -1      4382 3.31900E-03-1.00191E-02-7.28208E-04
 -1      4383 4.20711E-03-1.14103E-02 7.10588E-04
 -1      4384 4.23283E-03-1.14367E-02 5.52620E-04
 -1      4385 4.25215E-03-1.14565E-02 3.94696E-04
 -1      4386 4.26506E-03-1.14697E-02 2.36803E-04
 -1      4387 4.27152E-03-1.14763E-02 7.89319E-05
 -1      4388 4.27152E-03-1.14763E-02-7.89319E-05
 -1      4389 4.26506E-03-1.14697E-02-2.36803E-04
 -1      4390 4.25215E-03-1.14565E-02-3.94696E-04
 -1      4391 4.23283E-03-1.14367E-02-5.52620E-04
 -1      4392 4.20711E-03-1.14103E-02-7.10588E-04
 -1      4393 5.15099E-03-1.29010E-02 6.91006E-04
 -1      4394 5.17416E-03-1.29289E-02 5.37377E-04
 -1      4395 5.19159E-03-1.29498E-02 3.83797E-04
 -1      4396 5.20323E-03-1.29638E-02 2.30259E-04
 -1      4397 5.20907E-03-1.29708E-02 7.67494E-05
 -1      4398 5.20907E-03-1.29708E-02-7.67494E-05
 -1      4399 5.20323E-03-1.29638E-02-2.30259E-04
 -1      4400 5.19159E-03-1.29498E-02-3.83797E-04
 -1      4401 5.17416E-03-1.29289E-02-5.37377E-04
 -1      4402 5.15099E-03-1.29010E-02-6.91006E-04
 -1      4403 6.13948E-03-1.44957E-02 6.69416E-04
 -1      4404 6.16009E-03-1.45250E-02 5.20576E-04
 -1      4405 6.17561E-03-1.45470E-02 3.71789E-04
 -1      4406 6.18598E-03-1.45617E-02 2.23050E-04
 -1      4407 6.19118E-03-1.45690E-02 7.43459E-05
 -1      4408 6.19118E-03-1.45690E-02-7.43459E-05
 -1      4409 6.18598E-03-1.45617E-02-2.23050E-04
 -1      4410 6.17561E-03-1.45470E-02-3.71789E-04
 -1      4411 6.16009E-03-1.45250E-02-5.20576E-04
 -1      4412 6.13948E-03-1.44957E-02-6.69416E-04
 -1      4413 7.16198E-03-1.61981E-02 6.45768E-04
 -1      4414 7.18003E-03-1.62287E-02 5.02171E-04
 -1      4415 7.19364E-03-1.62517E-02 3.58634E-04
 -1      4416 7.20275E-03-1.62671E-02 2.15153E-04
 -1      4417 7.20732E-03-1.62748E-02 7.17129E-05
 -1      4418 7.20732E-03-1.62748E-02-7.17129E-05
 -1      4419 7.20275E-03-1.62671E-02-2.15153E-04
 -1      4420 7.19364E-03-1.62517E-02-3.58634E-04
 -1      4421 7.18003E-03-1.62287E-02-5.02171E-04
 -1      4422 7.16198E-03-1.61981E-02-6.45768E-04
 -1      4423 8.20873E-03-1.80110E-02 6.19932E-04
 -1      4424 8.22422E-03-1.80430E-02 4.82059E-04
 -1      4425 8.23593E-03-1.80670E-02 3.44258E-04
 -1      4426 8.24378E-03-1.80831E-02 2.06522E-04
 -1      4427 8.24772E-03-1.80911E-02 6.88350E-05
 -1      4428 8.24772E-03-1.80911E-02-6.88350E-05
 -1      4429 8.24378E-03-1.80831E-02-2.06522E-04
 -1      4430 8.23593E-03-1.80670E-02-3.44258E-04
 -1      4431 8.22422E-03-1.80430E-02-4.82059E-04
 -1      4432 8.20873E-03-1.80110E-02-6.19932E-04
 -1      4433 9.27110E-03-1.99369E-02 5.91630E-04
 -1      4434 9.28401E-03-1.99704E-02 4.60025E-04
 -1      4435 9.29380E-03-1.99956E-02 3.28505E-04
 -1      4436 9.30038E-03-2.00124E-02 1.97065E-04
 -1      4437 9.30368E-03-2.00208E-02 6.56815E-05
 -1      4438 9.30368E-03-2.00208E-02-6.56815E-05
 -1      4439 9.30038E-03-2.00124E-02-1.97065E-04
 -1      4440 9.29380E-03-1.99956E-02-3.28505E-04
 -1      4441 9.28401E-03-1.99704E-02-4.60025E-04
 -1      4442 9.27110E-03-1.99369E-02-5.91630E-04
 -1      4443 1.03420E-02-2.19785E-02 5.60363E-04
 -1      4444 1.03522E-02-2.20137E-02 4.35683E-04
 -1      4445 1.03600E-02-2.20402E-02 3.11104E-04
 -1      4446 1.03652E-02-2.20579E-02 1.86618E-04
 -1      4447 1.03679E-02-2.20668E-02 6.21983E-05
 -1      4448 1.03679E-02-2.20668E-02-6.21983E-05
 -1      4449 1.03652E-02-2.20579E-02-1.86618E-04
 -1      4450 1.03600E-02-2.20402E-02-3.11104E-04
 -1      4451 1.03522E-02-2.20137E-02-4.35683E-04
 -1      4452 1.03420E-02-2.19785E-02-5.60363E-04
 -1      4453 1.14161E-02-2.41392E-02 5.25312E-04
 -1      4454 1.14234E-02-2.41765E-02 4.08403E-04
 -1      4455 1.14289E-02-2.42046E-02 2.91610E-04
 -1      4456 1.14327E-02-2.42234E-02 1.74919E-04
 -1      4457 1.14346E-02-2.42328E-02 5.82980E-05
 -1      4458 1.14346E-02-2.42328E-02-5.82980E-05
 -1      4459 1.14327E-02-2.42234E-02-1.74919E-04
 -1      4460 1.14289E-02-2.42046E-02-2.91610E-04
 -1      4461 1.14234E-02-2.41765E-02-4.08403E-04
 -1      4462 1.14161E-02-2.41392E-02-5.25312E-04
 -1      4463 1.24903E-02-2.64239E-02 4.85207E-04
 -1      4464 1.24941E-02-2.64639E-02 3.77213E-04
 -1      4465 1.24970E-02-2.64941E-02 2.69338E-04
 -1      4466 1.24991E-02-2.65142E-02 1.61560E-04
 -1      4467 1.25001E-02-2.65243E-02 5.38461E-05
 -1      4468 1.25001E-02-2.65243E-02-5.38461E-05
 -1      4469 1.24991E-02-2.65142E-02-1.61560E-04
 -1      4470 1.24970E-02-2.64941E-02-2.69338E-04
 -1      4471 1.24941E-02-2.64639E-02-3.77213E-04
 -1      4472 1.24903E-02-2.64239E-02-4.85207E-04
 -1      4473 1.35639E-02-2.88408E-02 4.38126E-04
 -1      4474 1.35632E-02-2.88840E-02 3.40646E-04
 -1      4475 1.35627E-02-2.89167E-02 2.43260E-04
 -1      4476 1.35625E-02-2.89385E-02 1.45935E-04
 -1      4477 1.35623E-02-2.89495E-02 4.86416E-05
 -1      4478 1.35623E-02-2.89495E-02-4.86416E-05
 -1      4479 1.35625E-02-2.89385E-02-1.45935E-04
 -1      4480 1.35627E-02-2.89167E-02-2.43260E-04
 -1      4481 1.35632E-02-2.88840E-02-3.40646E-04
 -1      4482 1.35639E-02-2.88408E-02-4.38126E-04
 -1      4483 1.46381E-02-3.14019E-02 3.81228E-04
 -1      4484 1.46312E-02-3.14491E-02 2.96532E-04
 -1      4485 1.46261E-02-3.14847E-02 2.11853E-04
 -1      4486 1.46226E-02-3.15085E-02 1.27141E-04
 -1      4487 1.46208E-02-3.15204E-02 4.23863E-05
 -1      4488 1.46208E-02-3.15204E-02-4.23863E-05
 -1      4489 1.46226E-02-3.15085E-02-1.27141E-04
 -1      4490 1.46261E-02-3.14847E-02-2.11853E-04
 -1      4491 1.46312E-02-3.14491E-02-2.96532E-04
 -1      4492 1.46381E-02-3.14019E-02-3.81228E-04
 -1      4493 1.57152E-02-3.41257E-02 3.10366E-04
 -1      4494 1.56996E-02-3.41771E-02 2.41698E-04
 -1      4495 1.56877E-02-3.42157E-02 1.72884E-04
 -1      4496 1.56796E-02-3.42415E-02 1.03853E-04
 -1      4497 1.56754E-02-3.42544E-02 3.46409E-05
 -1      4498 1.56754E-02-3.42544E-02-3.46409E-05
 -1      4499 1.56796E-02-3.42415E-02-1.03853E-04
 -1      4500 1.56877E-02-3.42157E-02-1.72884E-04
 -1      4501 1.56996E-02-3.41771E-02-2.41698E-04
 -1      4502 1.57152E-02-3.41257E-02-3.10366E-04
 -1      4503 1.67957E-02-3.70381E-02 2.19652E-04
 -1      4504 1.67675E-02-3.70930E-02 1.71611E-04
 -1      4505 1.67458E-02-3.71341E-02 1.23143E-04
 -1      4506 1.67310E-02-3.71614E-02 7.41576E-05
 -1      4507 1.67235E-02-3.71750E-02 2.47695E-05
 -1      4508 1.67235E-02-3.71750E-02-2.47695E-05
 -1      4509 1.67310E-02-3.71614E-02-7.41576E-05
 -1      4510 1.67458E-02-3.71341E-02-1.23143E-04
 -1      4511 1.67675E-02-3.70930E-02-1.71611E-04
 -1      4512 1.67957E-02-3.70381E-02-2.19652E-04
 -1      4513 1.78721E-02-4.01719E-02 1.01150E-04
 -1      4514 1.78263E-02-4.02279E-02 8.01109E-05
 -1      4515 1.77909E-02-4.02693E-02 5.82338E-05
 -1      4516 1.77667E-02-4.02965E-02 3.54178E-05
 -1      4517 1.77545E-02-4.03100E-02 1.18933E-05
 -1      4518 1.77545E-02-4.03100E-02-1.18933E-05
 -1      4519 1.77667E-02-4.02965E-02-3.54178E-05
 -1      4520 1.77909E-02-4.02693E-02-5.82338E-05
 -1      4521 1.78263E-02-4.02279E-02-8.01109E-05
 -1      4522 1.78721E-02-4.01719E-02-1.01150E-04
 -1      4523 1.89177E-02-4.35612E-02-5.48567E-05
 -1      4524 1.88484E-02-4.36125E-02-4.03999E-05
 -1      4525 1.87951E-02-4.36497E-02-2.72999E-05
 -1      4526 1.87587E-02-4.36738E-02-1.56519E-05
 -1      4527 1.87403E-02-4.36856E-02-5.08521E-06
 -1      4528 1.87403E-02-4.36856E-02 5.08521E-06
 -1      4529 1.87587E-02-4.36738E-02 1.56519E-05
 -1      4530 1.87951E-02-4.36497E-02 2.72999E-05
 -1      4531 1.88484E-02-4.36125E-02 4.03999E-05
 -1      4532 1.89177E-02-4.35612E-02 5.48567E-05
 -1      4533 1.98689E-02-4.72199E-02-2.58220E-04
 -1      4534 1.97716E-02-4.72566E-02-1.97637E-04
 -1      4535 1.96970E-02-4.72822E-02-1.38985E-04
 -1      4536 1.96464E-02-4.72982E-02-8.23841E-05
 -1      4537 1.96209E-02-4.73058E-02-2.72792E-05
 -1      4538 1.96209E-02-4.73058E-02 2.72792E-05
 -1      4539 1.96464E-02-4.72982E-02 8.23841E-05
 -1      4540 1.96970E-02-4.72822E-02 1.38985E-04
 -1      4541 1.97716E-02-4.72566E-02 1.97637E-04
 -1      4542 1.98689E-02-4.72199E-02 2.58220E-04
 -1      4543 2.06143E-02-5.10965E-02-5.14558E-04
 -1      4544 2.04886E-02-5.11049E-02-3.96002E-04
 -1      4545 2.03926E-02-5.11095E-02-2.80095E-04
 -1      4546 2.03279E-02-5.11116E-02-1.66808E-04
 -1      4547 2.02953E-02-5.11124E-02-5.53820E-05
 -1      4548 2.02953E-02-5.11124E-02 5.53820E-05
 -1      4549 2.03279E-02-5.11116E-02 1.66808E-04
 -1      4550 2.03926E-02-5.11095E-02 2.80095E-04
 -1      4551 2.04886E-02-5.11049E-02 3.96002E-04
 -1      4552 2.06143E-02-5.10965E-02 5.14558E-04
 -1      4553 2.10134E-02-5.50093E-02-8.16416E-04
 -1      4554 2.08651E-02-5.49758E-02-6.31312E-04
 -1      4555 2.07524E-02-5.49526E-02-4.48575E-04
 -1      4556 2.06767E-02-5.49380E-02-2.68173E-04
 -1      4557 2.06387E-02-5.49311E-02-8.92242E-05
 -1      4558 2.06387E-02-5.49311E-02 8.92242E-05
 -1      4559 2.06767E-02-5.49380E-02 2.68173E-04
 -1      4560 2.07524E-02-5.49526E-02 4.48575E-04
 -1      4561 2.08651E-02-5.49758E-02 6.31312E-04
 -1      4562 2.10134E-02-5.50093E-02 8.16416E-04
 -1      4563 2.09669E-02-5.86054E-02-1.14318E-03
 -1      4564 2.08093E-02-5.85278E-02-8.90357E-04
 -1      4565 2.06888E-02-5.84829E-02-6.37594E-04
 -1      4566 2.06083E-02-5.84599E-02-3.83315E-04
 -1      4567 2.05680E-02-5.84503E-02-1.27915E-04
 -1      4568 2.05680E-02-5.84503E-02 1.27915E-04
 -1      4569 2.06083E-02-5.84599E-02 3.83315E-04
 -1      4570 2.06888E-02-5.84829E-02 6.37594E-04
 -1      4571 2.08093E-02-5.85278E-02 8.90357E-04
 -1      4572 2.09669E-02-5.86054E-02 1.14318E-03
 -1      4573-3.32807E-04-7.09095E-04 4.59597E-04
 -1      4574-3.13016E-04-6.64321E-04 3.28356E-04
 -1      4575-3.00846E-04-6.44762E-04 2.21715E-04
 -1      4576-2.93740E-04-6.35570E-04 1.28518E-04
 -1      4577-2.90449E-04-6.31803E-04 4.21405E-05
 -1      4578-2.90449E-04-6.31803E-04-4.21405E-05
 -1      4579-2.93740E-04-6.35570E-04-1.28518E-04
 -1      4580-3.00846E-04-6.44762E-04-2.21715E-04
 -1      4581-3.13016E-04-6.64321E-04-3.28356E-04
 -1      4582-3.32807E-04-7.09095E-04-4.59597E-04
 -1      4583-4.49558E-04-1.47829E-03 6.62906E-04
 -1      4584-4.18102E-04-1.42527E-03 5.06957E-04
 -1      4585-3.97599E-04-1.39299E-03 3.55243E-04
 -1      4586-3.85163E-04-1.37474E-03 2.10084E-04
 -1      4587-3.79278E-04-1.36650E-03 6.94994E-05
 -1      4588-3.79278E-04-1.36650E-03-6.94994E-05
 -1      4589-3.85163E-04-1.37474E-03-2.10084E-04
 -1      4590-3.97599E-04-1.39299E-03-3.55243E-04
 -1      4591-4.18102E-04-1.42527E-03-5.06957E-04
 -1      4592-4.49558E-04-1.47829E-03-6.62906E-04
 -1      4593-3.78693E-04-2.23122E-03 7.12306E-04
 -1      4594-3.43163E-04-2.21215E-03 5.59019E-04
 -1      4595-3.17979E-04-2.19125E-03 4.00579E-04
 -1      4596-3.02047E-04-2.17619E-03 2.40431E-04
 -1      4597-2.94343E-04-2.16855E-03 8.01174E-05
 -1      4598-2.94343E-04-2.16855E-03-8.01174E-05
 -1      4599-3.02047E-04-2.17619E-03-2.40431E-04
 -1      4600-3.17979E-04-2.19125E-03-4.00579E-04
 -1      4601-3.43163E-04-2.21215E-03-5.59019E-04
 -1      4602-3.78693E-04-2.23122E-03-7.12306E-04
 -1      4603-1.44859E-04-3.02817E-03 7.18251E-04
 -1      4604-1.08424E-04-3.02622E-03 5.63034E-04
 -1      4605-8.18374E-05-3.02068E-03 4.04959E-04
 -1      4606-6.44528E-05-3.01471E-03 2.44094E-04
 -1      4607-5.58799E-05-3.01112E-03 8.15450E-05
 -1      4608-5.58799E-05-3.01112E-03-8.15450E-05
 -1      4609-6.44528E-05-3.01471E-03-2.44094E-04
 -1      4610-8.18374E-05-3.02068E-03-4.04959E-04
 -1      4611-1.08424E-04-3.02622E-03-5.63034E-04
 -1      4612-1.44859E-04-3.02817E-03-7.18251E-04
 -1      4613 2.33722E-04-3.87796E-03 7.09780E-04
 -1      4614 2.69466E-04-3.88593E-03 5.54924E-04
 -1      4615 2.95978E-04-3.88948E-03 3.98181E-04
 -1      4616 3.13494E-04-3.89064E-03 2.39741E-04
 -1      4617 3.22207E-04-3.89080E-03 8.00624E-05
 -1      4618 3.22207E-04-3.89080E-03-8.00624E-05
 -1      4619 3.13494E-04-3.89064E-03-2.39741E-04
 -1      4620 2.95978E-04-3.88948E-03-3.98181E-04
 -1      4621 2.69466E-04-3.88593E-03-5.54924E-04
 -1      4622 2.33722E-04-3.87796E-03-7.09780E-04
 -1      4623 7.43280E-04-4.78777E-03 6.98854E-04
 -1      4624 7.77635E-04-4.80103E-03 5.44953E-04
 -1      4625 8.03300E-04-4.80989E-03 3.90207E-04
 -1      4626 8.20355E-04-4.81520E-03 2.34560E-04
 -1      4627 8.28862E-04-4.81767E-03 7.82657E-05
 -1      4628 8.28862E-04-4.81767E-03-7.82657E-05
 -1      4629 8.20355E-04-4.81520E-03-2.34560E-04
 -1      4630 8.03300E-04-4.80989E-03-3.90207E-04
 -1      4631 7.77635E-04-4.80103E-03-5.44953E-04
 -1      4632 7.43280E-04-4.78777E-03-6.98854E-04
 -1      4633 1.37225E-03-5.76527E-03 6.87905E-04
 -1      4634 1.40490E-03-5.78171E-03 5.35612E-04
 -1      4635 1.42936E-03-5.79364E-03 3.82985E-04
 -1      4636 1.44565E-03-5.80135E-03 2.29985E-04
 -1      4637 1.45379E-03-5.80513E-03 7.66971E-05
 -1      4638 1.45379E-03-5.80513E-03-7.66971E-05
 -1      4639 1.44565E-03-5.80135E-03-2.29985E-04
 -1      4640 1.42936E-03-5.79364E-03-3.82985E-04
 -1      4641 1.40490E-03-5.78171E-03-5.35612E-04
 -1      4642 1.37225E-03-5.76527E-03-6.87905E-04
 -1      4643 2.10970E-03-6.81942E-03 6.76691E-04
 -1      4644 2.14044E-03-6.83815E-03 5.26492E-04
 -1      4645 2.16350E-03-6.85208E-03 3.76203E-04
 -1      4646 2.17887E-03-6.86130E-03 2.25790E-04
 -1      4647 2.18656E-03-6.86589E-03 7.52762E-05
 -1      4648 2.18656E-03-6.86589E-03-7.52762E-05
 -1      4649 2.17887E-03-6.86130E-03-2.25790E-04
 -1      4650 2.16350E-03-6.85208E-03-3.76203E-04
 -1      4651 2.14044E-03-6.83815E-03-5.26492E-04
 -1      4652 2.10970E-03-6.81942E-03-6.76691E-04
 -1      4653 2.94455E-03-7.95945E-03 6.64437E-04
 -1      4654 2.97322E-03-7.98011E-03 5.16804E-04
 -1      4655 2.99474E-03-7.99560E-03 3.69169E-04
 -1      4656 3.00909E-03-8.00592E-03 2.21516E-04
 -1      4657 3.01626E-03-8.01107E-03 7.38414E-05
 -1      4658 3.01626E-03-8.01107E-03-7.38414E-05
 -1      4659 3.00909E-03-8.00592E-03-2.21516E-04
 -1      4660 2.99474E-03-7.99560E-03-3.69169E-04
 -1      4661 2.97322E-03-7.98011E-03-5.16804E-04
 -1      4662 2.94455E-03-7.95945E-03-6.64437E-04
 -1      4663 3.86532E-03-9.19409E-03 6.50570E-04
 -1      4664 3.89179E-03-9.21649E-03 5.05967E-04
 -1      4665 3.91165E-03-9.23333E-03 3.61389E-04
 -1      4666 3.92490E-03-9.24456E-03 2.16828E-04
 -1      4667 3.93153E-03-9.25018E-03 7.22750E-05
 -1      4668 3.93153E-03-9.25018E-03-7.22750E-05
 -1      4669 3.92490E-03-9.24456E-03-2.16828E-04
 -1      4670 3.91165E-03-9.23333E-03-3.61389E-04
 -1      4671 3.89179E-03-9.21649E-03-5.05967E-04
 -1      4672 3.86532E-03-9.19409E-03-6.50570E-04
 -1      4673 4.86025E-03-1.05310E-02 6.34773E-04
 -1      4674 4.88440E-03-1.05550E-02 4.93669E-04
 -1      4675 4.90253E-03-1.05731E-02 3.52594E-04
 -1      4676 4.91463E-03-1.05851E-02 2.11545E-04
 -1      4677 4.92068E-03-1.05911E-02 7.05131E-05
 -1      4678 4.92068E-03-1.05911E-02-7.05131E-05
 -1      4679 4.91463E-03-1.05851E-02-2.11545E-04
 -1      4680 4.90253E-03-1.05731E-02-3.52594E-04
 -1      4681 4.88440E-03-1.05550E-02-4.93669E-04
 -1      4682 4.86025E-03-1.05310E-02-6.34773E-04
 -1      4683 5.91755E-03-1.19767E-02 6.16896E-04
 -1      4684 5.93929E-03-1.20022E-02 4.79764E-04
 -1      4685 5.95562E-03-1.20214E-02 3.42660E-04
 -1      4686 5.96652E-03-1.20342E-02 2.05583E-04
 -1      4687 5.97198E-03-1.20406E-02 6.85254E-05
 -1      4688 5.97198E-03-1.20406E-02-6.85254E-05
 -1      4689 5.96652E-03-1.20342E-02-2.05583E-04
 -1      4690 5.95562E-03-1.20214E-02-3.42660E-04
 -1      4691 5.93929E-03-1.20022E-02-4.79764E-04
 -1      4692 5.91755E-03-1.19767E-02-6.16896E-04
 -1      4693 7.02562E-03-1.35365E-02 5.96840E-04
 -1      4694 7.04489E-03-1.35634E-02 4.64165E-04
 -1      4695 7.05938E-03-1.35836E-02 3.31516E-04
 -1      4696 7.06905E-03-1.35970E-02 1.98896E-04
 -1      4697 7.07389E-03-1.36038E-02 6.62962E-05
 -1      4698 7.07389E-03-1.36038E-02-6.62962E-05
 -1      4699 7.06905E-03-1.35970E-02-1.98896E-04
 -1      4700 7.05938E-03-1.35836E-02-3.31516E-04
 -1      4701 7.04489E-03-1.35634E-02-4.64165E-04
 -1      4702 7.02562E-03-1.35365E-02-5.96840E-04
 -1      4703 8.17338E-03-1.52146E-02 5.74478E-04
 -1      4704 8.19013E-03-1.52428E-02 4.46768E-04
 -1      4705 8.20272E-03-1.52640E-02 3.19087E-04
 -1      4706 8.21114E-03-1.52781E-02 1.91437E-04
 -1      4707 8.21536E-03-1.52851E-02 6.38096E-05
 -1      4708 8.21536E-03-1.52851E-02-6.38096E-05
 -1      4709 8.21114E-03-1.52781E-02-1.91437E-04
 -1      4710 8.20272E-03-1.52640E-02-3.19087E-04
 -1      4711 8.19013E-03-1.52428E-02-4.46768E-04
 -1      4712 8.17338E-03-1.52146E-02-5.74478E-04
 -1      4713 9.35052E-03-1.70145E-02 5.49587E-04
 -1      4714 9.36467E-03-1.70439E-02 4.27401E-04
 -1      4715 9.37532E-03-1.70661E-02 3.05248E-04
 -1      4716 9.38245E-03-1.70808E-02 1.83131E-04
 -1      4717 9.38602E-03-1.70882E-02 6.10405E-05
 -1      4718 9.38602E-03-1.70882E-02-6.10405E-05
 -1      4719 9.38245E-03-1.70808E-02-1.83131E-04
 -1      4720 9.37532E-03-1.70661E-02-3.05248E-04
 -1      4721 9.36467E-03-1.70439E-02-4.27401E-04
 -1      4722 9.35052E-03-1.70145E-02-5.49587E-04
 -1      4723 1.05478E-02-1.89391E-02 5.21791E-04
 -1      4724 1.05592E-02-1.89699E-02 4.05770E-04
 -1      4725 1.05678E-02-1.89931E-02 2.89790E-04
 -1      4726 1.05736E-02-1.90085E-02 1.73853E-04
 -1      4727 1.05765E-02-1.90163E-02 5.79471E-05
 -1      4728 1.05765E-02-1.90163E-02-5.79471E-05
 -1      4729 1.05736E-02-1.90085E-02-1.73853E-04
 -1      4730 1.05678E-02-1.89931E-02-2.89790E-04
 -1      4731 1.05592E-02-1.89699E-02-4.05770E-04
 -1      4732 1.05478E-02-1.89391E-02-5.21791E-04
 -1      4733 1.17572E-02-2.09916E-02 4.90490E-04
 -1      4734 1.17657E-02-2.10239E-02 3.81411E-04
 -1      4735 1.17721E-02-2.10482E-02 2.72381E-04
 -1      4736 1.17764E-02-2.10644E-02 1.63403E-04
 -1      4737 1.17786E-02-2.10725E-02 5.44633E-05
 -1      4738 1.17786E-02-2.10725E-02-5.44633E-05
 -1      4739 1.17764E-02-2.10644E-02-1.63403E-04
 -1      4740 1.17721E-02-2.10482E-02-2.72381E-04
 -1      4741 1.17657E-02-2.10239E-02-3.81411E-04
 -1      4742 1.17572E-02-2.09916E-02-4.90490E-04
 -1      4743 1.29722E-02-2.31757E-02 4.54784E-04
 -1      4744 1.29774E-02-2.32097E-02 3.53624E-04
 -1      4745 1.29814E-02-2.32352E-02 2.52525E-04
 -1      4746 1.29841E-02-2.32523E-02 1.51486E-04
 -1      4747 1.29854E-02-2.32608E-02 5.04903E-05
 -1      4748 1.29854E-02-2.32608E-02-5.04903E-05
 -1      4749 1.29841E-02-2.32523E-02-1.51486E-04
 -1      4750 1.29814E-02-2.32352E-02-2.52525E-04
 -1      4751 1.29774E-02-2.32097E-02-3.53624E-04
 -1      4752 1.29722E-02-2.31757E-02-4.54784E-04
 -1      4753 1.41879E-02-2.54966E-02 4.13365E-04
 -1      4754 1.41891E-02-2.55325E-02 3.21401E-04
 -1      4755 1.41902E-02-2.55595E-02 2.29505E-04
 -1      4756 1.41909E-02-2.55775E-02 1.37674E-04
 -1      4757 1.41913E-02-2.55865E-02 4.58861E-05
 -1      4758 1.41913E-02-2.55865E-02-4.58861E-05
 -1      4759 1.41909E-02-2.55775E-02-1.37674E-04
 -1      4760 1.41902E-02-2.55595E-02-2.29505E-04
 -1      4761 1.41891E-02-2.55325E-02-3.21401E-04
 -1      4762 1.41879E-02-2.54966E-02-4.13365E-04
 -1      4763 1.54001E-02-2.79617E-02 3.64390E-04
 -1      4764 1.53966E-02-2.79997E-02 2.83319E-04
 -1      4765 1.53940E-02-2.80283E-02 2.02315E-04
 -1      4766 1.53923E-02-2.80474E-02 1.21365E-04
 -1      4767 1.53914E-02-2.80570E-02 4.04512E-05
 -1      4768 1.53914E-02-2.80570E-02-4.04512E-05
 -1      4769 1.53923E-02-2.80474E-02-1.21365E-04
 -1      4770 1.53940E-02-2.80283E-02-2.02315E-04
 -1      4771 1.53966E-02-2.79997E-02-2.83319E-04
 -1      4772 1.54001E-02-2.79617E-02-3.64390E-04
 -1      4773 1.66056E-02-3.05817E-02 3.05326E-04
 -1      4774 1.65957E-02-3.06218E-02 2.37428E-04
 -1      4775 1.65884E-02-3.06520E-02 1.69572E-04
 -1      4776 1.65835E-02-3.06722E-02 1.01739E-04
 -1      4777 1.65811E-02-3.06823E-02 3.39126E-05
 -1      4778 1.65811E-02-3.06823E-02-3.39126E-05
 -1      4779 1.65835E-02-3.06722E-02-1.01739E-04
 -1      4780 1.65884E-02-3.06520E-02-1.69572E-04
 -1      4781 1.65957E-02-3.06218E-02-2.37428E-04
 -1      4782 1.66056E-02-3.05817E-02-3.05326E-04
 -1      4783 1.77989E-02-3.33709E-02 2.32797E-04
 -1      4784 1.77809E-02-3.34128E-02 1.81123E-04
 -1      4785 1.77673E-02-3.34443E-02 1.29434E-04
 -1      4786 1.77582E-02-3.34653E-02 7.76951E-05
 -1      4787 1.77536E-02-3.34758E-02 2.59053E-05
 -1      4788 1.77536E-02-3.34758E-02-2.59053E-05
 -1      4789 1.77582E-02-3.34653E-02-7.76951E-05
 -1      4790 1.77673E-02-3.34443E-02-1.29434E-04
 -1      4791 1.77809E-02-3.34128E-02-1.81123E-04
 -1      4792 1.77989E-02-3.33709E-02-2.32797E-04
 -1      4793 1.89699E-02-3.63468E-02 1.42505E-04
 -1      4794 1.89410E-02-3.63891E-02 1.11088E-04
 -1      4795 1.89191E-02-3.64208E-02 7.95459E-05
 -1      4796 1.89044E-02-3.64420E-02 4.78278E-05
 -1      4797 1.88970E-02-3.64525E-02 1.59616E-05
 -1      4798 1.88970E-02-3.64525E-02-1.59616E-05
 -1      4799 1.89044E-02-3.64420E-02-4.78278E-05
 -1      4800 1.89191E-02-3.64208E-02-7.95459E-05
 -1      4801 1.89410E-02-3.63891E-02-1.11088E-04
 -1      4802 1.89699E-02-3.63468E-02-1.42505E-04
 -1      4803 2.00972E-02-3.95266E-02 2.94135E-05
 -1      4804 2.00545E-02-3.95665E-02 2.34208E-05
 -1      4805 2.00220E-02-3.95962E-02 1.71312E-05
 -1      4806 2.00001E-02-3.96159E-02 1.04758E-05
 -1      4807 1.99891E-02-3.96258E-02 3.52857E-06
 -1      4808 1.99891E-02-3.96258E-02-3.52857E-06
 -1      4809 2.00001E-02-3.96159E-02-1.04758E-05
 -1      4810 2.00220E-02-3.95962E-02-1.71312E-05
 -1      4811 2.00545E-02-3.95665E-02-2.34208E-05
 -1      4812 2.00972E-02-3.95266E-02-2.94135E-05
 -1      4813 2.11404E-02-4.29172E-02-1.11503E-04
 -1      4814 2.10810E-02-4.29498E-02-8.57713E-05
 -1      4815 2.10359E-02-4.29738E-02-6.05803E-05
 -1      4816 2.10054E-02-4.29895E-02-3.60193E-05
 -1      4817 2.09901E-02-4.29972E-02-1.19457E-05
 -1      4818 2.09901E-02-4.29972E-02 1.19457E-05
 -1      4819 2.10054E-02-4.29895E-02 3.60193E-05
 -1      4820 2.10359E-02-4.29738E-02 6.05803E-05
 -1      4821 2.10810E-02-4.29498E-02 8.57713E-05
 -1      4822 2.11404E-02-4.29172E-02 1.11503E-04
 -1      4823 2.20326E-02-4.64960E-02-2.83452E-04
 -1      4824 2.19553E-02-4.65138E-02-2.18957E-04
 -1      4825 2.18964E-02-4.65265E-02-1.55348E-04
 -1      4826 2.18567E-02-4.65346E-02-9.27129E-05
 -1      4827 2.18367E-02-4.65386E-02-3.08141E-05
 -1      4828 2.18367E-02-4.65386E-02 3.08141E-05
 -1      4829 2.18567E-02-4.65346E-02 9.27129E-05
 -1      4830 2.18964E-02-4.65265E-02 1.55348E-04
 -1      4831 2.19553E-02-4.65138E-02 2.18957E-04
 -1      4832 2.20326E-02-4.64960E-02 2.83452E-04
 -1      4833 2.26831E-02-5.01799E-02-4.84555E-04
 -1      4834 2.25896E-02-5.01738E-02-3.74827E-04
 -1      4835 2.25181E-02-5.01690E-02-2.66363E-04
 -1      4836 2.24698E-02-5.01656E-02-1.59198E-04
 -1      4837 2.24455E-02-5.01639E-02-5.29555E-05
 -1      4838 2.24455E-02-5.01639E-02 5.29555E-05
 -1      4839 2.24698E-02-5.01656E-02 1.59198E-04
 -1      4840 2.25181E-02-5.01690E-02 2.66363E-04
 -1      4841 2.25896E-02-5.01738E-02 3.74827E-04
 -1      4842 2.26831E-02-5.01799E-02 4.84555E-04
 -1      4843 2.30013E-02-5.37954E-02-7.05313E-04
 -1      4844 2.28969E-02-5.37576E-02-5.46639E-04
 -1      4845 2.28165E-02-5.37307E-02-3.89487E-04
 -1      4846 2.27621E-02-5.37138E-02-2.33316E-04
 -1      4847 2.27347E-02-5.37058E-02-7.77128E-05
 -1      4848 2.27347E-02-5.37058E-02 7.77128E-05
 -1      4849 2.27621E-02-5.37138E-02 2.33316E-04
 -1      4850 2.28165E-02-5.37307E-02 3.89487E-04
 -1      4851 2.28969E-02-5.37576E-02 5.46639E-04
 -1      4852 2.30013E-02-5.37954E-02 7.05313E-04
 -1      4853 2.29433E-02-5.70719E-02-9.32216E-04
 -1      4854 2.28363E-02-5.70024E-02-7.26338E-04
 -1      4855 2.27535E-02-5.69582E-02-5.20251E-04
 -1      4856 2.26972E-02-5.69329E-02-3.12978E-04
 -1      4857 2.26688E-02-5.69216E-02-1.04484E-04
 -1      4858 2.26688E-02-5.69216E-02 1.04484E-04
 -1      4859 2.26972E-02-5.69329E-02 3.12978E-04
 -1      4860 2.27535E-02-5.69582E-02 5.20251E-04
 -1      4861 2.28363E-02-5.70024E-02 7.26338E-04
 -1      4862 2.29433E-02-5.70719E-02 9.32216E-04
 -1      4863-3.15688E-04-6.37727E-04 4.12072E-04
 -1      4864-2.96316E-04-5.97292E-04 2.95631E-04
 -1      4865-2.84275E-04-5.79413E-04 2.00081E-04
 -1      4866-2.77194E-04-5.70917E-04 1.16128E-04
 -1      4867-2.73902E-04-5.67411E-04 3.81001E-05
 -1      4868-2.73902E-04-5.67411E-04-3.81001E-05
 -1      4869-2.77194E-04-5.70917E-04-1.16128E-04
 -1      4870-2.84275E-04-5.79413E-04-2.00081E-04
 -1      4871-2.96316E-04-5.97292E-04-2.95631E-04
 -1      4872-3.15688E-04-6.37727E-04-4.12072E-04
 -1      4873-4.10544E-04-1.32012E-03 5.88000E-04
 -1      4874-3.80171E-04-1.27506E-03 4.51143E-04
 -1      4875-3.60117E-04-1.24682E-03 3.16946E-04
 -1      4876-3.47869E-04-1.23064E-03 1.87750E-04
 -1      4877-3.42052E-04-1.22328E-03 6.21616E-05
 -1      4878-3.42052E-04-1.22328E-03-6.21616E-05
 -1      4879-3.47869E-04-1.23064E-03-1.87750E-04
 -1      4880-3.60117E-04-1.24682E-03-3.16946E-04
 -1      4881-3.80171E-04-1.27506E-03-4.51143E-04
 -1      4882-4.10544E-04-1.32012E-03-5.88000E-04
 -1      4883-3.08684E-04-1.98662E-03 6.28754E-04
 -1      4884-2.74672E-04-1.97200E-03 4.93754E-04
 -1      4885-2.50396E-04-1.95512E-03 3.54207E-04
 -1      4886-2.34946E-04-1.94264E-03 2.12802E-04
 -1      4887-2.27450E-04-1.93624E-03 7.09486E-05
 -1      4888-2.27450E-04-1.93624E-03-7.09486E-05
 -1      4889-2.34946E-04-1.94264E-03-2.12802E-04
 -1      4890-2.50396E-04-1.95512E-03-3.54207E-04
 -1      4891-2.74672E-04-1.97200E-03-4.93754E-04
 -1      4892-3.08684E-04-1.98662E-03-6.28754E-04
 -1      4893-3.27692E-05-2.69622E-03 6.33463E-04
 -1      4894 1.90233E-06-2.69599E-03 4.96323E-04
 -1      4895 2.72855E-05-2.69258E-03 3.56902E-04
 -1      4896 4.39244E-05-2.68843E-03 2.15131E-04
 -1      4897 5.21454E-05-2.68582E-03 7.18737E-05
 -1      4898 5.21454E-05-2.68582E-03-7.18737E-05
 -1      4899 4.39244E-05-2.68843E-03-2.15131E-04
 -1      4900 2.72855E-05-2.69258E-03-3.56902E-04
 -1      4901 1.90233E-06-2.69599E-03-4.96323E-04
 -1      4902-3.27692E-05-2.69622E-03-6.33463E-04
 -1      4903 3.99204E-04-3.45944E-03 6.26764E-04
 -1      4904 4.33049E-04-3.46740E-03 4.89689E-04
 -1      4905 4.58196E-04-3.47156E-03 3.51181E-04
 -1      4906 4.74827E-04-3.47344E-03 2.11363E-04
 -1      4907 4.83106E-04-3.47406E-03 7.05729E-05
 -1      4908 4.83106E-04-3.47406E-03-7.05729E-05
 -1      4909 4.74827E-04-3.47344E-03-2.11363E-04
 -1      4910 4.58196E-04-3.47156E-03-3.51181E-04
 -1      4911 4.33049E-04-3.46740E-03-4.89689E-04
 -1      4912 3.99204E-04-3.45944E-03-6.26764E-04
 -1      4913 9.72592E-04-4.28559E-03 6.18342E-04
 -1      4914 1.00502E-03-4.29787E-03 4.81920E-04
 -1      4915 1.02926E-03-4.30635E-03 3.44915E-04
 -1      4916 1.04537E-03-4.31159E-03 2.07263E-04
 -1      4917 1.05341E-03-4.31408E-03 6.91450E-05
 -1      4918 1.05341E-03-4.31408E-03-6.91450E-05
 -1      4919 1.04537E-03-4.31159E-03-2.07263E-04
 -1      4920 1.02926E-03-4.30635E-03-3.44915E-04
 -1      4921 1.00502E-03-4.29787E-03-4.81920E-04
 -1      4922 9.72592E-04-4.28559E-03-6.18342E-04
 -1      4923 1.67468E-03-5.18405E-03 6.09802E-04
 -1      4924 1.70544E-03-5.19900E-03 4.74654E-04
 -1      4925 1.72849E-03-5.20997E-03 3.39300E-04
 -1      4926 1.74385E-03-5.21715E-03 2.03708E-04
 -1      4927 1.75152E-03-5.22069E-03 6.79261E-05
 -1      4928 1.75152E-03-5.22069E-03-6.79261E-05
 -1      4929 1.74385E-03-5.21715E-03-2.03708E-04
 -1      4930 1.72849E-03-5.20997E-03-3.39300E-04
 -1      4931 1.70544E-03-5.19900E-03-4.74654E-04
 -1      4932 1.67468E-03-5.18405E-03-6.09802E-04
 -1      4933 2.49353E-03-6.16502E-03 6.00723E-04
 -1      4934 2.52247E-03-6.18199E-03 4.67318E-04
 -1      4935 2.54418E-03-6.19468E-03 3.33872E-04
 -1      4936 2.55865E-03-6.20311E-03 2.00361E-04
 -1      4937 2.56589E-03-6.20731E-03 6.67945E-05
 -1      4938 2.56589E-03-6.20731E-03-6.67945E-05
 -1      4939 2.55865E-03-6.20311E-03-2.00361E-04
 -1      4940 2.54418E-03-6.19468E-03-3.33872E-04
 -1      4941 2.52247E-03-6.18199E-03-4.67318E-04
 -1      4942 2.49353E-03-6.16502E-03-6.00723E-04
 -1      4943 3.41724E-03-7.23873E-03 5.90385E-04
 -1      4944 3.44424E-03-7.25749E-03 4.59183E-04
 -1      4945 3.46450E-03-7.27157E-03 3.27991E-04
 -1      4946 3.47800E-03-7.28097E-03 1.96799E-04
 -1      4947 3.48475E-03-7.28567E-03 6.56005E-05
 -1      4948 3.48475E-03-7.28567E-03-6.56005E-05
 -1      4949 3.47800E-03-7.28097E-03-1.96799E-04
 -1      4950 3.46450E-03-7.27157E-03-3.27991E-04
 -1      4951 3.44424E-03-7.25749E-03-4.59183E-04
 -1      4952 3.41724E-03-7.23873E-03-5.90385E-04
 -1      4953 4.43373E-03-8.41475E-03 5.78303E-04
 -1      4954 4.45866E-03-8.43516E-03 4.49764E-04
 -1      4955 4.47736E-03-8.45049E-03 3.21244E-04
 -1      4956 4.48984E-03-8.46073E-03 1.92740E-04
 -1      4957 4.49608E-03-8.46585E-03 6.42457E-05
 -1      4958 4.49608E-03-8.46585E-03-6.42457E-05
 -1      4959 4.48984E-03-8.46073E-03-1.92740E-04
 -1      4960 4.47736E-03-8.45049E-03-3.21244E-04
 -1      4961 4.45866E-03-8.43516E-03-4.49764E-04
 -1      4962 4.43373E-03-8.41475E-03-5.78303E-04
 -1      4963 5.53069E-03-9.70155E-03 5.64212E-04
 -1      4964 5.55344E-03-9.72349E-03 4.38804E-04
 -1      4965 5.57051E-03-9.73997E-03 3.13414E-04
 -1      4966 5.58190E-03-9.75097E-03 1.88041E-04
 -1      4967 5.58760E-03-9.75647E-03 6.26788E-05
 -1      4968 5.58760E-03-9.75647E-03-6.26788E-05
 -1      4969 5.58190E-03-9.75097E-03-1.88041E-04
 -1      4970 5.57051E-03-9.73997E-03-3.13414E-04
 -1      4971 5.55344E-03-9.72349E-03-4.38804E-04
 -1      4972 5.53069E-03-9.70155E-03-5.64212E-04
 -1      4973 6.69580E-03-1.11063E-02 5.47965E-04
 -1      4974 6.71627E-03-1.11297E-02 4.26172E-04
 -1      4975 6.73164E-03-1.11472E-02 3.04393E-04
 -1      4976 6.74189E-03-1.11589E-02 1.82628E-04
 -1      4977 6.74701E-03-1.11648E-02 6.08748E-05
 -1      4978 6.74701E-03-1.11648E-02-6.08748E-05
 -1      4979 6.74189E-03-1.11589E-02-1.82628E-04
 -1      4980 6.73164E-03-1.11472E-02-3.04393E-04
 -1      4981 6.71627E-03-1.11297E-02-4.26172E-04
 -1      4982 6.69580E-03-1.11063E-02-5.47965E-04
 -1      4983 7.91691E-03-1.26350E-02 5.29436E-04
 -1      4984 7.93501E-03-1.26597E-02 4.11764E-04
 -1      4985 7.94859E-03-1.26782E-02 2.94102E-04
 -1      4986 7.95766E-03-1.26906E-02 1.76455E-04
 -1      4987 7.96219E-03-1.26968E-02 5.88169E-05
 -1      4988 7.96219E-03-1.26968E-02-5.88169E-05
 -1      4989 7.95766E-03-1.26906E-02-1.76455E-04
 -1      4990 7.94859E-03-1.26782E-02-2.94102E-04
 -1      4991 7.93501E-03-1.26597E-02-4.11764E-04
 -1      4992 7.91691E-03-1.26350E-02-5.29436E-04
 -1      4993 9.18227E-03-1.42925E-02 5.08455E-04
 -1      4994 9.19790E-03-1.43184E-02 3.95445E-04
 -1      4995 9.20963E-03-1.43379E-02 2.82446E-04
 -1      4996 9.21746E-03-1.43508E-02 1.69460E-04
 -1      4997 9.22138E-03-1.43573E-02 5.64854E-05
 -1      4998 9.22138E-03-1.43573E-02-5.64854E-05
 -1      4999 9.21746E-03-1.43508E-02-1.69460E-04
 -1      5000 9.20963E-03-1.43379E-02-2.82446E-04
 -1      5001 9.19790E-03-1.43184E-02-3.95445E-04
 -1      5002 9.18227E-03-1.42925E-02-5.08455E-04
 -1      5003 1.04808E-02-1.60828E-02 4.84751E-04
 -1      5004 1.04938E-02-1.61099E-02 3.77005E-04
 -1      5005 1.05036E-02-1.61302E-02 2.69272E-04
 -1      5006 1.05101E-02-1.61437E-02 1.61555E-04
 -1      5007 1.05134E-02-1.61505E-02 5.38502E-05
 -1      5008 1.05134E-02-1.61505E-02-5.38502E-05
 -1      5009 1.05101E-02-1.61437E-02-1.61555E-04
 -1      5010 1.05036E-02-1.61302E-02-2.69272E-04
 -1      5011 1.04938E-02-1.61099E-02-3.77005E-04
 -1      5012 1.04808E-02-1.60828E-02-4.84751E-04
 -1      5013 1.18022E-02-1.80092E-02 4.57903E-04
 -1      5014 1.18124E-02-1.80375E-02 3.56118E-04
 -1      5015 1.18201E-02-1.80587E-02 2.54349E-04
 -1      5016 1.18253E-02-1.80728E-02 1.52599E-04
 -1      5017 1.18279E-02-1.80799E-02 5.08647E-05
 -1      5018 1.18279E-02-1.80799E-02-5.08647E-05
 -1      5019 1.18253E-02-1.80728E-02-1.52599E-04
 -1      5020 1.18201E-02-1.80587E-02-2.54349E-04
 -1      5021 1.18124E-02-1.80375E-02-3.56118E-04
 -1      5022 1.18022E-02-1.80092E-02-4.57903E-04
 -1      5023 1.31371E-02-2.00752E-02 4.27292E-04
 -1      5024 1.31443E-02-2.01046E-02 3.32301E-04
 -1      5025 1.31498E-02-2.01267E-02 2.37332E-04
 -1      5026 1.31534E-02-2.01414E-02 1.42387E-04
 -1      5027 1.31553E-02-2.01488E-02 4.74600E-05
 -1      5028 1.31553E-02-2.01488E-02-4.74600E-05
 -1      5029 1.31534E-02-2.01414E-02-1.42387E-04
 -1      5030 1.31498E-02-2.01267E-02-2.37332E-04
 -1      5031 1.31443E-02-2.01046E-02-3.32301E-04
 -1      5032 1.31371E-02-2.00752E-02-4.27292E-04
 -1      5033 1.44772E-02-2.22844E-02 3.92035E-04
 -1      5034 1.44810E-02-2.23151E-02 3.04870E-04
 -1      5035 1.44839E-02-2.23381E-02 2.17732E-04
 -1      5036 1.44858E-02-2.23535E-02 1.30624E-04
 -1      5037 1.44868E-02-2.23612E-02 4.35386E-05
 -1      5038 1.44868E-02-2.23612E-02-4.35386E-05
 -1      5039 1.44858E-02-2.23535E-02-1.30624E-04
 -1      5040 1.44839E-02-2.23381E-02-2.17732E-04
 -1      5041 1.44810E-02-2.23151E-02-3.04870E-04
 -1      5042 1.44772E-02-2.22844E-02-3.92035E-04
 -1      5043 1.58149E-02-2.46417E-02 3.50921E-04
 -1      5044 1.58146E-02-2.46735E-02 2.72882E-04
 -1      5045 1.58145E-02-2.46975E-02 1.94878E-04
 -1      5046 1.58145E-02-2.47135E-02 1.16910E-04
 -1      5047 1.58144E-02-2.47215E-02 3.89669E-05
 -1      5048 1.58144E-02-2.47215E-02-3.89669E-05
 -1      5049 1.58145E-02-2.47135E-02-1.16910E-04
 -1      5050 1.58145E-02-2.46975E-02-1.94878E-04
 -1      5051 1.58146E-02-2.46735E-02-2.72882E-04
 -1      5052 1.58149E-02-2.46417E-02-3.50921E-04
 -1      5053 1.71424E-02-2.71530E-02 3.02335E-04
 -1      5054 1.71374E-02-2.71860E-02 2.35089E-04
 -1      5055 1.71336E-02-2.72108E-02 1.67882E-04
 -1      5056 1.71312E-02-2.72274E-02 1.00712E-04
 -1      5057 1.71299E-02-2.72357E-02 3.35677E-05
 -1      5058 1.71299E-02-2.72357E-02-3.35677E-05
 -1      5059 1.71312E-02-2.72274E-02-1.00712E-04
 -1      5060 1.71336E-02-2.72108E-02-1.67882E-04
 -1      5061 1.71374E-02-2.71860E-02-2.35089E-04
 -1      5062 1.71424E-02-2.71530E-02-3.02335E-04
 -1      5063 1.84512E-02-2.98263E-02 2.44202E-04
 -1      5064 1.84402E-02-2.98602E-02 1.89882E-04
 -1      5065 1.84320E-02-2.98856E-02 1.35600E-04
 -1      5066 1.84265E-02-2.99026E-02 8.13481E-05
 -1      5067 1.84238E-02-2.99111E-02 2.71141E-05
 -1      5068 1.84238E-02-2.99111E-02-2.71141E-05
 -1      5069 1.84265E-02-2.99026E-02-8.13481E-05
 -1      5070 1.84320E-02-2.98856E-02-1.35600E-04
 -1      5071 1.84402E-02-2.98602E-02-1.89882E-04
 -1      5072 1.84512E-02-2.98263E-02-2.44202E-04
 -1      5073 1.97292E-02-3.26708E-02 1.73978E-04
 -1      5074 1.97108E-02-3.27046E-02 1.35294E-04
 -1      5075 1.96971E-02-3.27301E-02 9.66340E-05
 -1      5076 1.96879E-02-3.27471E-02 5.79814E-05
 -1      5077 1.96833E-02-3.27556E-02 1.93277E-05
 -1      5078 1.96833E-02-3.27556E-02-1.93277E-05
 -1      5079 1.96879E-02-3.27471E-02-5.79814E-05
 -1      5080 1.96971E-02-3.27301E-02-9.66340E-05
 -1      5081 1.97108E-02-3.27046E-02-1.35294E-04
 -1      5082 1.97292E-02-3.26708E-02-1.73978E-04
 -1      5083 2.09580E-02-3.56946E-02 8.87655E-05
 -1      5084 2.09306E-02-3.57269E-02 6.90837E-05
 -1      5085 2.09100E-02-3.57512E-02 4.93919E-05
 -1      5086 2.08963E-02-3.57674E-02 2.96617E-05
 -1      5087 2.08894E-02-3.57755E-02 9.89254E-06
 -1      5088 2.08894E-02-3.57755E-02-9.89254E-06
 -1      5089 2.08963E-02-3.57674E-02-2.96617E-05
 -1      5090 2.09100E-02-3.57512E-02-4.93919E-05
 -1      5091 2.09306E-02-3.57269E-02-6.90837E-05
 -1      5092 2.09580E-02-3.56946E-02-8.87655E-05
 -1      5093 2.21080E-02-3.89004E-02-1.43034E-05
 -1      5094 2.20700E-02-3.89286E-02-1.09595E-05
 -1      5095 2.20414E-02-3.89497E-02-7.69181E-06
 -1      5096 2.20222E-02-3.89638E-02-4.54493E-06
 -1      5097 2.20126E-02-3.89708E-02-1.50154E-06
 -1      5098 2.20126E-02-3.89708E-02 1.50154E-06
 -1      5099 2.20222E-02-3.89638E-02 4.54493E-06
 -1      5100 2.20414E-02-3.89497E-02 7.69181E-06
 -1      5101 2.20700E-02-3.89286E-02 1.09595E-05
 -1      5102 2.21080E-02-3.89004E-02 1.43034E-05
 -1      5103 2.31346E-02-4.22753E-02-1.37222E-04
 -1      5104 2.30850E-02-4.22954E-02-1.06348E-04
 -1      5105 2.30475E-02-4.23103E-02-7.56752E-05
 -1      5106 2.30223E-02-4.23201E-02-4.52629E-05
 -1      5107 2.30097E-02-4.23250E-02-1.50610E-05
 -1      5108 2.30097E-02-4.23250E-02 1.50610E-05
 -1      5109 2.30223E-02-4.23201E-02 4.52629E-05
 -1      5110 2.30475E-02-4.23103E-02 7.56752E-05
 -1      5111 2.30850E-02-4.22954E-02 1.06348E-04
 -1      5112 2.31346E-02-4.22753E-02 1.37222E-04
 -1      5113 2.39766E-02-4.57756E-02-2.79628E-04
 -1      5114 2.39157E-02-4.57821E-02-2.16752E-04
 -1      5115 2.38695E-02-4.57868E-02-1.54295E-04
 -1      5116 2.38384E-02-4.57899E-02-9.23269E-05
 -1      5117 2.38228E-02-4.57914E-02-3.07297E-05
 -1      5118 2.38228E-02-4.57914E-02 3.07297E-05
 -1      5119 2.38384E-02-4.57899E-02 9.23269E-05
 -1      5120 2.38695E-02-4.57868E-02 1.54295E-04
 -1      5121 2.39157E-02-4.57821E-02 2.16752E-04
 -1      5122 2.39766E-02-4.57756E-02 2.79628E-04
 -1      5123 2.45646E-02-4.93082E-02-4.37095E-04
 -1      5124 2.44948E-02-4.92953E-02-3.38716E-04
 -1      5125 2.44414E-02-4.92857E-02-2.41142E-04
 -1      5126 2.44052E-02-4.92792E-02-1.44329E-04
 -1      5127 2.43870E-02-4.92760E-02-4.80473E-05
 -1      5128 2.43870E-02-4.92760E-02 4.80473E-05
 -1      5129 2.44052E-02-4.92792E-02 1.44329E-04
 -1      5130 2.44414E-02-4.92857E-02 2.41142E-04
 -1      5131 2.44948E-02-4.92953E-02 3.38716E-04
 -1      5132 2.45646E-02-4.93082E-02 4.37095E-04
 -1      5133 2.48411E-02-5.27183E-02-6.00774E-04
 -1      5134 2.47666E-02-5.26816E-02-4.65829E-04
 -1      5135 2.47089E-02-5.26548E-02-3.32001E-04
 -1      5136 2.46697E-02-5.26375E-02-1.98938E-04
 -1      5137 2.46498E-02-5.26291E-02-6.62722E-05
 -1      5138 2.46498E-02-5.26291E-02 6.62722E-05
 -1      5139 2.46697E-02-5.26375E-02 1.98938E-04
 -1      5140 2.47089E-02-5.26548E-02 3.32001E-04
 -1      5141 2.47666E-02-5.26816E-02 4.65829E-04
 -1      5142 2.48411E-02-5.27183E-02 6.00774E-04
 -1      5143 2.47912E-02-5.57947E-02-7.61953E-04
 -1      5144 2.47175E-02-5.57348E-02-5.92994E-04
 -1      5145 2.46598E-02-5.56943E-02-4.24265E-04
 -1      5146 2.46203E-02-5.56698E-02-2.54987E-04
 -1      5147 2.46002E-02-5.56582E-02-8.50840E-05
 -1      5148 2.46002E-02-5.56582E-02 8.50840E-05
 -1      5149 2.46203E-02-5.56698E-02 2.54987E-04
 -1      5150 2.46598E-02-5.56943E-02 4.24265E-04
 -1      5151 2.47175E-02-5.57348E-02 5.92994E-04
 -1      5152 2.47912E-02-5.57947E-02 7.61953E-04
 -1      5153-2.89264E-04-5.67388E-04 3.65269E-04
 -1      5154-2.70433E-04-5.31369E-04 2.63058E-04
 -1      5155-2.58614E-04-5.15244E-04 1.78411E-04
 -1      5156-2.51613E-04-5.07501E-04 1.03670E-04
 -1      5157-2.48344E-04-5.04285E-04 3.40304E-05
 -1      5158-2.48344E-04-5.04285E-04-3.40304E-05
 -1      5159-2.51613E-04-5.07501E-04-1.03670E-04
 -1      5160-2.58614E-04-5.15244E-04-1.78411E-04
 -1      5161-2.70433E-04-5.31369E-04-2.63058E-04
 -1      5162-2.89264E-04-5.67388E-04-3.65269E-04
 -1      5163-3.54199E-04-1.16674E-03 5.15919E-04
 -1      5164-3.25052E-04-1.12889E-03 3.96956E-04
 -1      5165-3.05564E-04-1.10449E-03 2.79506E-04
 -1      5166-2.93574E-04-1.09034E-03 1.65815E-04
 -1      5167-2.87856E-04-1.08385E-03 5.49389E-05
 -1      5168-2.87856E-04-1.08385E-03-5.49389E-05
 -1      5169-2.93574E-04-1.09034E-03-1.65815E-04
 -1      5170-3.05564E-04-1.10449E-03-2.79506E-04
 -1      5171-3.25052E-04-1.12889E-03-3.96956E-04
 -1      5172-3.54199E-04-1.16674E-03-5.15919E-04
 -1      5173-2.15689E-04-1.75143E-03 5.49470E-04
 -1      5174-1.83282E-04-1.74042E-03 4.31637E-04
 -1      5175-1.59991E-04-1.72697E-03 3.09897E-04
 -1      5176-1.45073E-04-1.71678E-03 1.86319E-04
 -1      5177-1.37808E-04-1.71149E-03 6.21449E-05
 -1      5178-1.37808E-04-1.71149E-03-6.21449E-05
 -1      5179-1.45073E-04-1.71678E-03-1.86319E-04
 -1      5180-1.59991E-04-1.72697E-03-3.09897E-04
 -1      5181-1.83282E-04-1.74042E-03-4.31637E-04
 -1      5182-2.15689E-04-1.75143E-03-5.49470E-04
 -1      5183 1.05445E-04-2.37808E-03 5.53684E-04
 -1      5184 1.38343E-04-2.37898E-03 4.33553E-04
 -1      5185 1.62519E-04-2.37718E-03 3.11651E-04
 -1      5186 1.78412E-04-2.37444E-03 1.87831E-04
 -1      5187 1.86281E-04-2.37263E-03 6.27518E-05
 -1      5188 1.86281E-04-2.37263E-03-6.27518E-05
 -1      5189 1.78412E-04-2.37444E-03-1.87831E-04
 -1      5190 1.62519E-04-2.37718E-03-3.11651E-04
 -1      5191 1.38343E-04-2.37898E-03-4.33553E-04
 -1      5192 1.05445E-04-2.37808E-03-5.53684E-04
 -1      5193 5.91871E-04-3.05877E-03 5.49021E-04
 -1      5194 6.23893E-04-3.06641E-03 4.28662E-04
 -1      5195 6.47735E-04-3.07084E-03 3.07241E-04
 -1      5196 6.63526E-04-3.07314E-03 1.84842E-04
 -1      5197 6.71393E-04-3.07405E-03 6.17051E-05
 -1      5198 6.71393E-04-3.07405E-03-6.17051E-05
 -1      5199 6.63526E-04-3.07314E-03-1.84842E-04
 -1      5200 6.47735E-04-3.07084E-03-3.07241E-04
 -1      5201 6.23893E-04-3.06641E-03-4.28662E-04
 -1      5202 5.91871E-04-3.05877E-03-5.49021E-04
 -1      5203 1.22867E-03-3.80494E-03 5.43101E-04
 -1      5204 1.25931E-03-3.81616E-03 4.23081E-04
 -1      5205 1.28223E-03-3.82410E-03 3.02675E-04
 -1      5206 1.29748E-03-3.82912E-03 1.81823E-04
 -1      5207 1.30509E-03-3.83155E-03 6.06477E-05
 -1      5208 1.30509E-03-3.83155E-03-6.06477E-05
 -1      5209 1.29748E-03-3.82912E-03-1.81823E-04
 -1      5210 1.28223E-03-3.82410E-03-3.02675E-04
 -1      5211 1.25931E-03-3.81616E-03-4.23081E-04
 -1      5212 1.22867E-03-3.80494E-03-5.43101E-04
 -1      5213 2.00245E-03-4.62782E-03 5.36855E-04
 -1      5214 2.03149E-03-4.64135E-03 4.17770E-04
 -1      5215 2.05327E-03-4.65138E-03 2.98566E-04
 -1      5216 2.06777E-03-4.65798E-03 1.79219E-04
 -1      5217 2.07503E-03-4.66126E-03 5.97544E-05
 -1      5218 2.07503E-03-4.66126E-03-5.97544E-05
 -1      5219 2.06777E-03-4.65798E-03-1.79219E-04
 -1      5220 2.05327E-03-4.65138E-03-2.98566E-04
 -1      5221 2.03149E-03-4.64135E-03-4.17770E-04
 -1      5222 2.00245E-03-4.62782E-03-5.36855E-04
 -1      5223 2.90049E-03-5.53900E-03 5.29768E-04
 -1      5224 2.92783E-03-5.55439E-03 4.12077E-04
 -1      5225 2.94833E-03-5.56592E-03 2.94375E-04
 -1      5226 2.96199E-03-5.57360E-03 1.76644E-04
 -1      5227 2.96882E-03-5.57744E-03 5.88849E-05
 -1      5228 2.96882E-03-5.57744E-03-5.88849E-05
 -1      5229 2.96199E-03-5.57360E-03-1.76644E-04
 -1      5230 2.94833E-03-5.56592E-03-2.94375E-04
 -1      5231 2.92783E-03-5.55439E-03-4.12077E-04
 -1      5232 2.90049E-03-5.53900E-03-5.29768E-04
 -1      5233 3.91022E-03-6.54979E-03 5.21218E-04
 -1      5234 3.93572E-03-6.56685E-03 4.05376E-04
 -1      5235 3.95485E-03-6.57967E-03 2.89548E-04
 -1      5236 3.96761E-03-6.58822E-03 1.73728E-04
 -1      5237 3.97399E-03-6.59250E-03 5.79091E-05
 -1      5238 3.97399E-03-6.59250E-03-5.79091E-05
 -1      5239 3.96761E-03-6.58822E-03-1.73728E-04
 -1      5240 3.95485E-03-6.57967E-03-2.89548E-04
 -1      5241 3.93572E-03-6.56685E-03-4.05376E-04
 -1      5242 3.91022E-03-6.54979E-03-5.21218E-04
 -1      5243 5.01890E-03-7.67059E-03 5.10819E-04
 -1      5244 5.04246E-03-7.68922E-03 3.97282E-04
 -1      5245 5.06013E-03-7.70322E-03 2.83760E-04
 -1      5246 5.07192E-03-7.71255E-03 1.70250E-04
 -1      5247 5.07781E-03-7.71723E-03 5.67492E-05
 -1      5248 5.07781E-03-7.71723E-03-5.67492E-05
 -1      5249 5.07192E-03-7.71255E-03-1.70250E-04
 -1      5250 5.06013E-03-7.70322E-03-2.83760E-04
 -1      5251 5.04246E-03-7.68922E-03-3.97282E-04
 -1      5252 5.01890E-03-7.67059E-03-5.10819E-04
 -1      5253 6.21366E-03-8.91064E-03 4.98364E-04
 -1      5254 6.23517E-03-8.93073E-03 3.87600E-04
 -1      5255 6.25130E-03-8.94581E-03 2.76847E-04
 -1      5256 6.26206E-03-8.95587E-03 1.66103E-04
 -1      5257 6.26743E-03-8.96090E-03 5.53668E-05
 -1      5258 6.26743E-03-8.96090E-03-5.53668E-05
 -1      5259 6.26206E-03-8.95587E-03-1.66103E-04
 -1      5260 6.25130E-03-8.94581E-03-2.76847E-04
 -1      5261 6.23517E-03-8.93073E-03-3.87600E-04
 -1      5262 6.21366E-03-8.91064E-03-4.98364E-04
 -1      5263 7.48157E-03-1.02778E-02 4.83721E-04
 -1      5264 7.50091E-03-1.02993E-02 3.76217E-04
 -1      5265 7.51542E-03-1.03153E-02 2.68719E-04
 -1      5266 7.52509E-03-1.03261E-02 1.61228E-04
 -1      5267 7.52993E-03-1.03314E-02 5.37419E-05
 -1      5268 7.52993E-03-1.03314E-02-5.37419E-05
 -1      5269 7.52509E-03-1.03261E-02-1.61228E-04
 -1      5270 7.51542E-03-1.03153E-02-2.68719E-04
 -1      5271 7.50091E-03-1.02993E-02-3.76217E-04
 -1      5272 7.48157E-03-1.02778E-02-4.83721E-04
 -1      5273 8.80979E-03-1.17787E-02 4.66756E-04
 -1      5274 8.82686E-03-1.18013E-02 3.63026E-04
 -1      5275 8.83966E-03-1.18183E-02 2.59298E-04
 -1      5276 8.84819E-03-1.18297E-02 1.55576E-04
 -1      5277 8.85246E-03-1.18353E-02 5.18582E-05
 -1      5278 8.85246E-03-1.18353E-02-5.18582E-05
 -1      5279 8.84819E-03-1.18297E-02-1.55576E-04
 -1      5280 8.83966E-03-1.18183E-02-2.59298E-04
 -1      5281 8.82686E-03-1.18013E-02-3.63026E-04
 -1      5282 8.80979E-03-1.17787E-02-4.66756E-04
 -1      5283 1.01858E-02-1.34186E-02 4.47279E-04
 -1      5284 1.02004E-02-1.34424E-02 3.47877E-04
 -1      5285 1.02114E-02-1.34602E-02 2.48479E-04
 -1      5286 1.02188E-02-1.34721E-02 1.49084E-04
 -1      5287 1.02224E-02-1.34781E-02 4.96943E-05
 -1      5288 1.02224E-02-1.34781E-02-4.96943E-05
 -1      5289 1.02188E-02-1.34721E-02-1.49084E-04
 -1      5290 1.02114E-02-1.34602E-02-2.48479E-04
 -1      5291 1.02004E-02-1.34424E-02-3.47877E-04
 -1      5292 1.01858E-02-1.34186E-02-4.47279E-04
 -1      5293 1.15974E-02-1.52020E-02 4.25000E-04
 -1      5294 1.16095E-02-1.52268E-02 3.30549E-04
 -1      5295 1.16186E-02-1.52454E-02 2.36100E-04
 -1      5296 1.16246E-02-1.52578E-02 1.41657E-04
 -1      5297 1.16277E-02-1.52640E-02 4.72185E-05
 -1      5298 1.16277E-02-1.52640E-02-4.72185E-05
 -1      5299 1.16246E-02-1.52578E-02-1.41657E-04
 -1      5300 1.16186E-02-1.52454E-02-2.36100E-04
 -1      5301 1.16095E-02-1.52268E-02-3.30549E-04
 -1      5302 1.15974E-02-1.52020E-02-4.25000E-04
 -1      5303 1.30331E-02-1.71325E-02 3.99498E-04
 -1      5304 1.30424E-02-1.71583E-02 3.10712E-04
 -1      5305 1.30495E-02-1.71777E-02 2.21929E-04
 -1      5306 1.30542E-02-1.71906E-02 1.33154E-04
 -1      5307 1.30565E-02-1.71970E-02 4.43839E-05
 -1      5308 1.30565E-02-1.71970E-02-4.43839E-05
 -1      5309 1.30542E-02-1.71906E-02-1.33154E-04
 -1      5310 1.30495E-02-1.71777E-02-2.21929E-04
 -1      5311 1.30424E-02-1.71583E-02-3.10712E-04
 -1      5312 1.30331E-02-1.71325E-02-3.99498E-04
 -1      5313 1.44819E-02-1.92136E-02 3.70180E-04
 -1      5314 1.44882E-02-1.92403E-02 2.87904E-04
 -1      5315 1.44930E-02-1.92603E-02 2.05636E-04
 -1      5316 1.44962E-02-1.92736E-02 1.23376E-04
 -1      5317 1.44978E-02-1.92803E-02 4.11245E-05
 -1      5318 1.44978E-02-1.92803E-02-4.11245E-05
 -1      5319 1.44962E-02-1.92736E-02-1.23376E-04
 -1      5320 1.44930E-02-1.92603E-02-2.05636E-04
 -1      5321 1.44882E-02-1.92403E-02-2.87904E-04
 -1      5322 1.44819E-02-1.92136E-02-3.70180E-04
 -1      5323 1.59332E-02-2.14485E-02 3.36240E-04
 -1      5324 1.59361E-02-2.14760E-02 2.61501E-04
 -1      5325 1.59384E-02-2.14967E-02 1.86773E-04
 -1      5326 1.59399E-02-2.15104E-02 1.12057E-04
 -1      5327 1.59406E-02-2.15173E-02 3.73510E-05
 -1      5328 1.59406E-02-2.15173E-02-3.73510E-05
 -1      5329 1.59399E-02-2.15104E-02-1.12057E-04
 -1      5330 1.59384E-02-2.14967E-02-1.86773E-04
 -1      5331 1.59361E-02-2.14760E-02-2.61501E-04
 -1      5332 1.59332E-02-2.14485E-02-3.36240E-04
 -1      5333 1.73766E-02-2.38411E-02 2.96625E-04
 -1      5334 1.73756E-02-2.38693E-02 2.30683E-04
 -1      5335 1.73749E-02-2.38904E-02 1.64755E-04
 -1      5336 1.73744E-02-2.39046E-02 9.88445E-05
 -1      5337 1.73742E-02-2.39116E-02 3.29466E-05
 -1      5338 1.73742E-02-2.39116E-02-3.29466E-05
 -1      5339 1.73744E-02-2.39046E-02-9.88445E-05
 -1      5340 1.73749E-02-2.38904E-02-1.64755E-04
 -1      5341 1.73756E-02-2.38693E-02-2.30683E-04
 -1      5342 1.73766E-02-2.38411E-02-2.96625E-04
 -1      5343 1.88006E-02-2.63956E-02 2.50006E-04
 -1      5344 1.87951E-02-2.64241E-02 1.94417E-04
 -1      5345 1.87909E-02-2.64456E-02 1.38847E-04
 -1      5346 1.87881E-02-2.64599E-02 8.32982E-05
 -1      5347 1.87868E-02-2.64671E-02 2.77643E-05
 -1      5348 1.87868E-02-2.64671E-02-2.77643E-05
 -1      5349 1.87881E-02-2.64599E-02-8.32982E-05
 -1      5350 1.87909E-02-2.64456E-02-1.38847E-04
 -1      5351 1.87951E-02-2.64241E-02-1.94417E-04
 -1      5352 1.88006E-02-2.63956E-02-2.50006E-04
 -1      5353 2.01921E-02-2.91164E-02 1.94783E-04
 -1      5354 2.01811E-02-2.91448E-02 1.51460E-04
 -1      5355 2.01729E-02-2.91662E-02 1.08163E-04
 -1      5356 2.01674E-02-2.91804E-02 6.48874E-05
 -1      5357 2.01647E-02-2.91876E-02 2.16274E-05
 -1      5358 2.01647E-02-2.91876E-02-2.16274E-05
 -1      5359 2.01674E-02-2.91804E-02-6.48874E-05
 -1      5360 2.01729E-02-2.91662E-02-1.08163E-04
 -1      5361 2.01811E-02-2.91448E-02-1.51460E-04
 -1      5362 2.01921E-02-2.91164E-02-1.94783E-04
 -1      5363 2.15336E-02-3.20070E-02 1.29154E-04
 -1      5364 2.15162E-02-3.20343E-02 1.00418E-04
 -1      5365 2.15032E-02-3.20549E-02 7.17078E-05
 -1      5366 2.14945E-02-3.20686E-02 4.30173E-05
 -1      5367 2.14902E-02-3.20755E-02 1.43379E-05
 -1      5368 2.14902E-02-3.20755E-02-1.43379E-05
 -1      5369 2.14945E-02-3.20686E-02-4.30173E-05
 -1      5370 2.15032E-02-3.20549E-02-7.17078E-05
 -1      5371 2.15162E-02-3.20343E-02-1.00418E-04
 -1      5372 2.15336E-02-3.20070E-02-1.29154E-04
 -1      5373 2.28012E-02-3.50672E-02 5.13197E-05
 -1      5374 2.27765E-02-3.50919E-02 3.98966E-05
 -1      5375 2.27579E-02-3.51105E-02 2.84938E-05
 -1      5376 2.27456E-02-3.51230E-02 1.70972E-05
 -1      5377 2.27394E-02-3.51292E-02 5.69952E-06
 -1      5378 2.27394E-02-3.51292E-02-5.69952E-06
 -1      5379 2.27456E-02-3.51230E-02-1.70972E-05
 -1      5380 2.27579E-02-3.51105E-02-2.84938E-05
 -1      5381 2.27765E-02-3.50919E-02-3.98966E-05
 -1      5382 2.28012E-02-3.50672E-02-5.13197E-05
 -1      5383 2.39617E-02-3.82878E-02-4.00984E-05
 -1      5384 2.39289E-02-3.83077E-02-3.11569E-05
 -1      5385 2.39043E-02-3.83226E-02-2.22196E-05
 -1      5386 2.38879E-02-3.83326E-02-1.33112E-05
 -1      5387 2.38796E-02-3.83376E-02-4.43291E-06
 -1      5388 2.38796E-02-3.83376E-02 4.43291E-06
 -1      5389 2.38879E-02-3.83326E-02 1.33112E-05
 -1      5390 2.39043E-02-3.83226E-02 2.22196E-05
 -1      5391 2.39289E-02-3.83077E-02 3.11569E-05
 -1      5392 2.39617E-02-3.82878E-02 4.00984E-05
 -1      5393 2.49711E-02-4.16426E-02-1.45319E-04
 -1      5394 2.49302E-02-4.16545E-02-1.12872E-04
 -1      5395 2.48995E-02-4.16634E-02-8.04988E-05
 -1      5396 2.48789E-02-4.16693E-02-4.82363E-05
 -1      5397 2.48686E-02-4.16723E-02-1.60668E-05
 -1      5398 2.48686E-02-4.16723E-02 1.60668E-05
 -1      5399 2.48789E-02-4.16693E-02 4.82363E-05
 -1      5400 2.48995E-02-4.16634E-02 8.04988E-05
 -1      5401 2.49302E-02-4.16545E-02 1.12872E-04
 -1      5402 2.49711E-02-4.16426E-02 1.45319E-04
 -1      5403 2.57769E-02-4.50770E-02-2.62380E-04
 -1      5404 2.57291E-02-4.50771E-02-2.03649E-04
 -1      5405 2.56928E-02-4.50772E-02-1.45162E-04
 -1      5406 2.56685E-02-4.50772E-02-8.69542E-05
 -1      5407 2.56563E-02-4.50772E-02-2.89586E-05
 -1      5408 2.56563E-02-4.50772E-02 2.89586E-05
 -1      5409 2.56685E-02-4.50772E-02 8.69542E-05
 -1      5410 2.56928E-02-4.50772E-02 1.45162E-04
 -1      5411 2.57291E-02-4.50771E-02 2.03649E-04
 -1      5412 2.57769E-02-4.50770E-02 2.62380E-04
 -1      5413 2.63268E-02-4.84978E-02-3.86289E-04
 -1      5414 2.62744E-02-4.84825E-02-2.99555E-04
 -1      5415 2.62343E-02-4.84710E-02-2.13400E-04
 -1      5416 2.62071E-02-4.84633E-02-1.27790E-04
 -1      5417 2.61934E-02-4.84595E-02-4.25530E-05
 -1      5418 2.61934E-02-4.84595E-02 4.25530E-05
 -1      5419 2.62071E-02-4.84633E-02 1.27790E-04
 -1      5420 2.62343E-02-4.84710E-02 2.13400E-04
 -1      5421 2.62744E-02-4.84825E-02 2.99555E-04
 -1      5422 2.63268E-02-4.84978E-02 3.86289E-04
 -1      5423 2.65854E-02-5.17695E-02-5.09547E-04
 -1      5424 2.65317E-02-5.17363E-02-3.95036E-04
 -1      5425 2.64899E-02-5.17116E-02-2.81491E-04
 -1      5426 2.64613E-02-5.16953E-02-1.68633E-04
 -1      5427 2.64468E-02-5.16873E-02-5.61693E-05
 -1      5428 2.64468E-02-5.16873E-02 5.61693E-05
 -1      5429 2.64613E-02-5.16953E-02 1.68633E-04
 -1      5430 2.64899E-02-5.17116E-02 2.81491E-04
 -1      5431 2.65317E-02-5.17363E-02 3.95036E-04
 -1      5432 2.65854E-02-5.17695E-02 5.09547E-04
 -1      5433 2.65534E-02-5.47230E-02-6.26353E-04
 -1      5434 2.65017E-02-5.46726E-02-4.86810E-04
 -1      5435 2.64610E-02-5.46372E-02-3.47826E-04
 -1      5436 2.64331E-02-5.46149E-02-2.08829E-04
 -1      5437 2.64188E-02-5.46042E-02-6.96411E-05
 -1      5438 2.64188E-02-5.46042E-02 6.96411E-05
 -1      5439 2.64331E-02-5.46149E-02 2.08829E-04
 -1      5440 2.64610E-02-5.46372E-02 3.47826E-04
 -1      5441 2.65017E-02-5.46726E-02 4.86810E-04
 -1      5442 2.65534E-02-5.47230E-02 6.26353E-04
 -1      5443-2.56312E-04-4.97497E-04 3.19385E-04
 -1      5444-2.38071E-04-4.65902E-04 2.30840E-04
 -1      5445-2.26529E-04-4.51580E-04 1.56873E-04
 -1      5446-2.19652E-04-4.44636E-04 9.12550E-05
 -1      5447-2.16430E-04-4.41735E-04 2.99699E-05
 -1      5448-2.16430E-04-4.41735E-04-2.99699E-05
 -1      5449-2.19652E-04-4.44636E-04-9.12550E-05
 -1      5450-2.26529E-04-4.51580E-04-1.56873E-04
 -1      5451-2.38071E-04-4.65902E-04-2.30840E-04
 -1      5452-2.56312E-04-4.97497E-04-3.19385E-04
 -1      5453-2.85378E-04-1.01632E-03 4.46922E-04
 -1      5454-2.57502E-04-9.84960E-04 3.44719E-04
 -1      5455-2.38653E-04-9.64200E-04 2.43214E-04
 -1      5456-2.26977E-04-9.52001E-04 1.44477E-04
 -1      5457-2.21387E-04-9.46374E-04 4.79001E-05
 -1      5458-2.21387E-04-9.46374E-04-4.79001E-05
 -1      5459-2.26977E-04-9.52001E-04-1.44477E-04
 -1      5460-2.38653E-04-9.64200E-04-2.43214E-04
 -1      5461-2.57502E-04-9.84960E-04-3.44719E-04
 -1      5462-2.85378E-04-1.01632E-03-4.46922E-04
 -1      5463-1.05690E-04-1.52233E-03 4.74602E-04
 -1      5464-7.48936E-05-1.51421E-03 3.72867E-04
 -1      5465-5.26236E-05-1.50368E-03 2.67860E-04
 -1      5466-3.82791E-05-1.49550E-03 1.61137E-04
 -1      5467-3.12686E-05-1.49120E-03 5.37634E-05
 -1      5468-3.12686E-05-1.49120E-03-5.37634E-05
 -1      5469-3.82791E-05-1.49550E-03-1.61137E-04
 -1      5470-5.26236E-05-1.50368E-03-2.67860E-04
 -1      5471-7.48936E-05-1.51421E-03-3.72867E-04
 -1      5472-1.05690E-04-1.52233E-03-4.74602E-04
 -1      5473 2.63498E-04-2.06913E-03 4.78849E-04
 -1      5474 2.94663E-04-2.07076E-03 3.74711E-04
 -1      5475 3.17644E-04-2.07012E-03 2.69231E-04
 -1      5476 3.32790E-04-2.06847E-03 1.62231E-04
 -1      5477 3.40304E-04-2.06729E-03 5.41949E-05
 -1      5478 3.40304E-04-2.06729E-03-5.41949E-05
 -1      5479 3.32790E-04-2.06847E-03-1.62231E-04
 -1      5480 3.17644E-04-2.07012E-03-2.69231E-04
 -1      5481 2.94663E-04-2.07076E-03-3.74711E-04
 -1      5482 2.63498E-04-2.06913E-03-4.78849E-04
 -1      5483 8.05634E-04-2.67033E-03 4.76276E-04
 -1      5484 8.35922E-04-2.67750E-03 3.71632E-04
 -1      5485 8.58515E-04-2.68194E-03 2.66221E-04
 -1      5486 8.73500E-04-2.68445E-03 1.60099E-04
 -1      5487 8.80971E-04-2.68553E-03 5.34342E-05
 -1      5488 8.80971E-04-2.68553E-03-5.34342E-05
 -1      5489 8.73500E-04-2.68445E-03-1.60099E-04
 -1      5490 8.58515E-04-2.68194E-03-2.66221E-04
 -1      5491 8.35922E-04-2.67750E-03-3.71632E-04
 -1      5492 8.05634E-04-2.67033E-03-4.76276E-04
 -1      5493 1.50583E-03-3.33946E-03 4.72708E-04
 -1      5494 1.53480E-03-3.34962E-03 3.68097E-04
 -1      5495 1.55649E-03-3.35696E-03 2.63243E-04
 -1      5496 1.57094E-03-3.36167E-03 1.58092E-04
 -1      5497 1.57815E-03-3.36397E-03 5.27240E-05
 -1      5498 1.57815E-03-3.36397E-03-5.27240E-05
 -1      5499 1.57094E-03-3.36167E-03-1.58092E-04
 -1      5500 1.55649E-03-3.35696E-03-2.63243E-04
 -1      5501 1.53480E-03-3.34962E-03-3.68097E-04
 -1      5502 1.50583E-03-3.33946E-03-4.72708E-04
 -1      5503 2.35030E-03-4.08960E-03 4.68564E-04
 -1      5504 2.37778E-03-4.10182E-03 3.64556E-04
 -1      5505 2.39838E-03-4.11094E-03 2.60487E-04
 -1      5506 2.41212E-03-4.11697E-03 1.56339E-04
 -1      5507 2.41898E-03-4.11997E-03 5.21216E-05
 -1      5508 2.41898E-03-4.11997E-03-5.21216E-05
 -1      5509 2.41212E-03-4.11697E-03-1.56339E-04
 -1      5510 2.39838E-03-4.11094E-03-2.60487E-04
 -1      5511 2.37778E-03-4.10182E-03-3.64556E-04
 -1      5512 2.35030E-03-4.08960E-03-4.68564E-04
 -1      5513 3.32579E-03-4.93379E-03 4.63305E-04
 -1      5514 3.35166E-03-4.94774E-03 3.60354E-04
 -1      5515 3.37107E-03-4.95822E-03 2.57406E-04
 -1      5516 3.38400E-03-4.96521E-03 1.54451E-04
 -1      5517 3.39047E-03-4.96870E-03 5.14851E-05
 -1      5518 3.39047E-03-4.96870E-03-5.14851E-05
 -1      5519 3.38400E-03-4.96521E-03-1.54451E-04
 -1      5520 3.37107E-03-4.95822E-03-2.57406E-04
 -1      5521 3.35166E-03-4.94774E-03-3.60354E-04
 -1      5522 3.32579E-03-4.93379E-03-4.63305E-04
 -1      5523 4.41910E-03-5.88442E-03 4.56421E-04
 -1      5524 4.44325E-03-5.89997E-03 3.54976E-04
 -1      5525 4.46137E-03-5.91165E-03 2.53545E-04
 -1      5526 4.47345E-03-5.91945E-03 1.52123E-04
 -1      5527 4.47950E-03-5.92335E-03 5.07072E-05
 -1      5528 4.47950E-03-5.92335E-03-5.07072E-05
 -1      5529 4.47345E-03-5.91945E-03-1.52123E-04
 -1      5530 4.46137E-03-5.91165E-03-2.53545E-04
 -1      5531 4.44325E-03-5.89997E-03-3.54976E-04
 -1      5532 4.41910E-03-5.88442E-03-4.56421E-04
 -1      5533 5.61691E-03-6.95280E-03 4.47625E-04
 -1      5534 5.63924E-03-6.96984E-03 3.48137E-04
 -1      5535 5.65599E-03-6.98263E-03 2.48659E-04
 -1      5536 5.66716E-03-6.99116E-03 1.49191E-04
 -1      5537 5.67274E-03-6.99543E-03 4.97297E-05
 -1      5538 5.67274E-03-6.99543E-03-4.97297E-05
 -1      5539 5.66716E-03-6.99116E-03-1.49191E-04
 -1      5540 5.65599E-03-6.98263E-03-2.48659E-04
 -1      5541 5.63924E-03-6.96984E-03-3.48137E-04
 -1      5542 5.61691E-03-6.95280E-03-4.47625E-04
 -1      5543 6.90575E-03-8.14888E-03 4.36763E-04
 -1      5544 6.92614E-03-8.16729E-03 3.39695E-04
 -1      5545 6.94144E-03-8.18111E-03 2.42633E-04
 -1      5546 6.95163E-03-8.19033E-03 1.45577E-04
 -1      5547 6.95673E-03-8.19494E-03 4.85252E-05
 -1      5548 6.95673E-03-8.19494E-03-4.85252E-05
 -1      5549 6.95163E-03-8.19033E-03-1.45577E-04
 -1      5550 6.94144E-03-8.18111E-03-2.42633E-04
 -1      5551 6.92614E-03-8.16729E-03-3.39695E-04
 -1      5552 6.90575E-03-8.14888E-03-4.36763E-04
 -1      5553 8.27201E-03-9.48118E-03 4.23723E-04
 -1      5554 8.29035E-03-9.50085E-03 3.29559E-04
 -1      5555 8.30410E-03-9.51561E-03 2.35396E-04
 -1      5556 8.31327E-03-9.52544E-03 1.41236E-04
 -1      5557 8.31785E-03-9.53036E-03 4.70784E-05
 -1      5558 8.31785E-03-9.53036E-03-4.70784E-05
 -1      5559 8.31327E-03-9.52544E-03-1.41236E-04
 -1      5560 8.30410E-03-9.51561E-03-2.35396E-04
 -1      5561 8.29035E-03-9.50085E-03-3.29559E-04
 -1      5562 8.27201E-03-9.48118E-03-4.23723E-04
 -1      5563 9.70208E-03-1.09568E-02 4.08374E-04
 -1      5564 9.71824E-03-1.09776E-02 3.17623E-04
 -1      5565 9.73035E-03-1.09932E-02 2.26872E-04
 -1      5566 9.73843E-03-1.10036E-02 1.36123E-04
 -1      5567 9.74247E-03-1.10088E-02 4.53740E-05
 -1      5568 9.74247E-03-1.10088E-02-4.53740E-05
 -1      5569 9.73843E-03-1.10036E-02-1.36123E-04
 -1      5570 9.73035E-03-1.09932E-02-2.26872E-04
 -1      5571 9.71824E-03-1.09776E-02-3.17623E-04
 -1      5572 9.70208E-03-1.09568E-02-4.08374E-04
 -1      5573 1.11825E-02-1.25816E-02 3.90521E-04
 -1      5574 1.11963E-02-1.26034E-02 3.03739E-04
 -1      5575 1.12067E-02-1.26198E-02 2.16956E-04
 -1      5576 1.12136E-02-1.26307E-02 1.30173E-04
 -1      5577 1.12171E-02-1.26361E-02 4.33908E-05
 -1      5578 1.12171E-02-1.26361E-02-4.33908E-05
 -1      5579 1.12136E-02-1.26307E-02-1.30173E-04
 -1      5580 1.12067E-02-1.26198E-02-2.16956E-04
 -1      5581 1.11963E-02-1.26034E-02-3.03739E-04
 -1      5582 1.11825E-02-1.25816E-02-3.90521E-04
 -1      5583 1.26999E-02-1.43602E-02 3.69881E-04
 -1      5584 1.27112E-02-1.43829E-02 2.87686E-04
 -1      5585 1.27198E-02-1.43999E-02 2.05489E-04
 -1      5586 1.27254E-02-1.44113E-02 1.23293E-04
 -1      5587 1.27283E-02-1.44170E-02 4.10974E-05
 -1      5588 1.27283E-02-1.44170E-02-4.10974E-05
 -1      5589 1.27254E-02-1.44113E-02-1.23293E-04
 -1      5590 1.27198E-02-1.43999E-02-2.05489E-04
 -1      5591 1.27112E-02-1.43829E-02-2.87686E-04
 -1      5592 1.26999E-02-1.43602E-02-3.69881E-04
 -1      5593 1.42413E-02-1.62964E-02 3.46055E-04
 -1      5594 1.42500E-02-1.63199E-02 2.69153E-04
 -1      5595 1.42565E-02-1.63375E-02 1.92251E-04
 -1      5596 1.42609E-02-1.63493E-02 1.15350E-04
 -1      5597 1.42630E-02-1.63552E-02 3.84496E-05
 -1      5598 1.42630E-02-1.63552E-02-3.84496E-05
 -1      5599 1.42609E-02-1.63493E-02-1.15350E-04
 -1      5600 1.42565E-02-1.63375E-02-1.92251E-04
 -1      5601 1.42500E-02-1.63199E-02-2.69153E-04
 -1      5602 1.42413E-02-1.62964E-02-3.46055E-04
 -1      5603 1.57939E-02-1.83934E-02 3.18503E-04
 -1      5604 1.57997E-02-1.84176E-02 2.47722E-04
 -1      5605 1.58040E-02-1.84357E-02 1.76942E-04
 -1      5606 1.58069E-02-1.84478E-02 1.06163E-04
 -1      5607 1.58083E-02-1.84538E-02 3.53875E-05
 -1      5608 1.58083E-02-1.84538E-02-3.53875E-05
 -1      5609 1.58069E-02-1.84478E-02-1.06163E-04
 -1      5610 1.58040E-02-1.84357E-02-1.76942E-04
 -1      5611 1.57997E-02-1.84176E-02-2.47722E-04
 -1      5612 1.57939E-02-1.83934E-02-3.18503E-04
 -1      5613 1.73450E-02-2.06539E-02 2.86525E-04
 -1      5614 1.73475E-02-2.06786E-02 2.22847E-04
 -1      5615 1.73493E-02-2.06970E-02 1.59172E-04
 -1      5616 1.73506E-02-2.07094E-02 9.55008E-05
 -1      5617 1.73512E-02-2.07155E-02 3.18331E-05
 -1      5618 1.73512E-02-2.07155E-02-3.18331E-05
 -1      5619 1.73506E-02-2.07094E-02-9.55008E-05
 -1      5620 1.73493E-02-2.06970E-02-1.59172E-04
 -1      5621 1.73475E-02-2.06786E-02-2.22847E-04
 -1      5622 1.73450E-02-2.06539E-02-2.86525E-04
 -1      5623 1.88810E-02-2.30804E-02 2.49245E-04
 -1      5624 1.88798E-02-2.31052E-02 1.93848E-04
 -1      5625 1.88789E-02-2.31239E-02 1.38455E-04
 -1      5626 1.88783E-02-2.31363E-02 8.30695E-05
 -1      5627 1.88780E-02-2.31426E-02 2.76892E-05
 -1      5628 1.88780E-02-2.31426E-02-2.76892E-05
 -1      5629 1.88783E-02-2.31363E-02-8.30695E-05
 -1      5630 1.88789E-02-2.31239E-02-1.38455E-04
 -1      5631 1.88798E-02-2.31052E-02-1.93848E-04
 -1      5632 1.88810E-02-2.30804E-02-2.49245E-04
 -1      5633 2.03875E-02-2.56747E-02 2.05617E-04
 -1      5634 2.03820E-02-2.56994E-02 1.59909E-04
 -1      5635 2.03779E-02-2.57180E-02 1.14210E-04
 -1      5636 2.03752E-02-2.57303E-02 6.85212E-05
 -1      5637 2.03739E-02-2.57365E-02 2.28395E-05
 -1      5638 2.03739E-02-2.57365E-02-2.28395E-05
 -1      5639 2.03752E-02-2.57303E-02-6.85212E-05
 -1      5640 2.03779E-02-2.57180E-02-1.14210E-04
 -1      5641 2.03820E-02-2.56994E-02-1.59909E-04
 -1      5642 2.03875E-02-2.56747E-02-2.05617E-04
 -1      5643 2.18471E-02-2.84378E-02 1.54467E-04
 -1      5644 2.18369E-02-2.84617E-02 1.20119E-04
 -1      5645 2.18292E-02-2.84797E-02 8.57856E-05
 -1      5646 2.18240E-02-2.84917E-02 5.14649E-05
 -1      5647 2.18215E-02-2.84977E-02 1.71538E-05
 -1      5648 2.18215E-02-2.84977E-02-1.71538E-05
 -1      5649 2.18240E-02-2.84917E-02-5.14649E-05
 -1      5650 2.18292E-02-2.84797E-02-8.57856E-05
 -1      5651 2.18369E-02-2.84617E-02-1.20119E-04
 -1      5652 2.18471E-02-2.84378E-02-1.54467E-04
 -1      5653 2.32387E-02-3.13677E-02 9.45981E-05
 -1      5654 2.32230E-02-3.13899E-02 7.35493E-05
 -1      5655 2.32113E-02-3.14066E-02 5.25188E-05
 -1      5656 2.32034E-02-3.14177E-02 3.15043E-05
 -1      5657 2.31995E-02-3.14233E-02 1.05002E-05
 -1      5658 2.31995E-02-3.14233E-02-1.05002E-05
 -1      5659 2.32034E-02-3.14177E-02-3.15043E-05
 -1      5660 2.32113E-02-3.14066E-02-5.25188E-05
 -1      5661 2.32230E-02-3.13899E-02-7.35493E-05
 -1      5662 2.32387E-02-3.13677E-02-9.45981E-05
 -1      5663 2.45352E-02-3.44570E-02 2.50126E-05
 -1      5664 2.45136E-02-3.44761E-02 1.94269E-05
 -1      5665 2.44974E-02-3.44904E-02 1.38624E-05
 -1      5666 2.44866E-02-3.45000E-02 8.31229E-06
 -1      5667 2.44812E-02-3.45048E-02 2.76997E-06
 -1      5668 2.44812E-02-3.45048E-02-2.76997E-06
 -1      5669 2.44866E-02-3.45000E-02-8.31229E-06
 -1      5670 2.44974E-02-3.44904E-02-1.38624E-05
 -1      5671 2.45136E-02-3.44761E-02-1.94269E-05
 -1      5672 2.45352E-02-3.44570E-02-2.50126E-05
 -1      5673 2.57025E-02-3.76877E-02-5.47123E-05
 -1      5674 2.56748E-02-3.77018E-02-4.25611E-05
 -1      5675 2.56540E-02-3.77124E-02-3.03974E-05
 -1      5676 2.56401E-02-3.77195E-02-1.82345E-05
 -1      5677 2.56332E-02-3.77230E-02-6.07722E-06
 -1      5678 2.56332E-02-3.77230E-02 6.07722E-06
 -1      5679 2.56401E-02-3.77195E-02 1.82345E-05
 -1      5680 2.56540E-02-3.77124E-02 3.03974E-05
 -1      5681 2.56748E-02-3.77018E-02 4.25611E-05
 -1      5682 2.57025E-02-3.76877E-02 5.47123E-05
 -1      5683 2.66995E-02-4.10250E-02-1.43850E-04
 -1      5684 2.66662E-02-4.10318E-02-1.11812E-04
 -1      5685 2.66412E-02-4.10368E-02-7.98059E-05
 -1      5686 2.66244E-02-4.10402E-02-4.78526E-05
 -1      5687 2.66160E-02-4.10419E-02-1.59449E-05
 -1      5688 2.66160E-02-4.10419E-02 1.59449E-05
 -1      5689 2.66244E-02-4.10402E-02 4.78526E-05
 -1      5690 2.66412E-02-4.10368E-02 7.98059E-05
 -1      5691 2.66662E-02-4.10318E-02 1.11812E-04
 -1      5692 2.66995E-02-4.10250E-02 1.43850E-04
 -1      5693 2.74822E-02-4.44097E-02-2.39849E-04
 -1      5694 2.74447E-02-4.44065E-02-1.86272E-04
 -1      5695 2.74163E-02-4.44041E-02-1.32855E-04
 -1      5696 2.73972E-02-4.44025E-02-7.96198E-05
 -1      5697 2.73876E-02-4.44017E-02-2.65229E-05
 -1      5698 2.73876E-02-4.44017E-02 2.65229E-05
 -1      5699 2.73972E-02-4.44025E-02 7.96198E-05
 -1      5700 2.74163E-02-4.44041E-02 1.32855E-04
 -1      5701 2.74447E-02-4.44065E-02 1.86272E-04
 -1      5702 2.74822E-02-4.44097E-02 2.39849E-04
 -1      5703 2.80118E-02-4.77528E-02-3.37950E-04
 -1      5704 2.79722E-02-4.77372E-02-2.62169E-04
 -1      5705 2.79419E-02-4.77255E-02-1.86828E-04
 -1      5706 2.79214E-02-4.77177E-02-1.11904E-04
 -1      5707 2.79110E-02-4.77138E-02-3.72674E-05
 -1      5708 2.79110E-02-4.77138E-02 3.72674E-05
 -1      5709 2.79214E-02-4.77177E-02 1.11904E-04
 -1      5710 2.79419E-02-4.77255E-02 1.86828E-04
 -1      5711 2.79722E-02-4.77372E-02 2.62169E-04
 -1      5712 2.80118E-02-4.77528E-02 3.37950E-04
 -1      5713 2.82671E-02-5.09354E-02-4.31943E-04
 -1      5714 2.82279E-02-5.09062E-02-3.34837E-04
 -1      5715 2.81974E-02-5.08843E-02-2.38546E-04
 -1      5716 2.81764E-02-5.08698E-02-1.42877E-04
 -1      5717 2.81658E-02-5.08626E-02-4.75840E-05
 -1      5718 2.81658E-02-5.08626E-02 4.75840E-05
 -1      5719 2.81764E-02-5.08698E-02 1.42877E-04
 -1      5720 2.81974E-02-5.08843E-02 2.38546E-04
 -1      5721 2.82279E-02-5.09062E-02 3.34837E-04
 -1      5722 2.82671E-02-5.09354E-02 4.31943E-04
 -1      5723 2.82577E-02-5.38186E-02-5.17744E-04
 -1      5724 2.82210E-02-5.37766E-02-4.02002E-04
 -1      5725 2.81920E-02-5.37464E-02-2.86933E-04
 -1      5726 2.81720E-02-5.37269E-02-1.72125E-04
 -1      5727 2.81618E-02-5.37175E-02-5.73748E-05
 -1      5728 2.81618E-02-5.37175E-02 5.73748E-05
 -1      5729 2.81720E-02-5.37269E-02 1.72125E-04
 -1      5730 2.81920E-02-5.37464E-02 2.86933E-04
 -1      5731 2.82210E-02-5.37766E-02 4.02002E-04
 -1      5732 2.82577E-02-5.38186E-02 5.17744E-04
 -1      5733-2.18671E-04-4.27608E-04 2.74453E-04
 -1      5734-2.01021E-04-4.00395E-04 1.99041E-04
 -1      5735-1.89780E-04-3.87905E-04 1.35526E-04
 -1      5736-1.83050E-04-3.81795E-04 7.89221E-05
 -1      5737-1.79888E-04-3.79228E-04 2.59320E-05
 -1      5738-1.79888E-04-3.79228E-04-2.59320E-05
 -1      5739-1.83050E-04-3.81795E-04-7.89221E-05
 -1      5740-1.89780E-04-3.87905E-04-1.35526E-04
 -1      5741-2.01021E-04-4.00395E-04-1.99041E-04
 -1      5742-2.18671E-04-4.27608E-04-2.74453E-04
 -1      5743-2.07373E-04-8.67485E-04 3.80995E-04
 -1      5744-1.80745E-04-8.41928E-04 2.94506E-04
 -1      5745-1.62563E-04-8.24575E-04 2.08164E-04
 -1      5746-1.51231E-04-8.14253E-04 1.23806E-04
 -1      5747-1.45788E-04-8.09463E-04 4.10714E-05
 -1      5748-1.45788E-04-8.09463E-04-4.10714E-05
 -1      5749-1.51231E-04-8.14253E-04-1.23806E-04
 -1      5750-1.62563E-04-8.24575E-04-2.08164E-04
 -1      5751-1.80745E-04-8.41928E-04-2.94506E-04
 -1      5752-2.07373E-04-8.67485E-04-3.80995E-04
 -1      5753 1.71317E-05-1.29679E-03 4.04014E-04
 -1      5754 4.63751E-05-1.29095E-03 3.17393E-04
 -1      5755 6.76276E-05-1.28288E-03 2.28099E-04
 -1      5756 8.13833E-05-1.27645E-03 1.37279E-04
 -1      5757 8.81268E-05-1.27303E-03 4.58149E-05
 -1      5758 8.81268E-05-1.27303E-03-4.58149E-05
 -1      5759 8.13833E-05-1.27645E-03-1.37279E-04
 -1      5760 6.76276E-05-1.28288E-03-2.28099E-04
 -1      5761 4.63751E-05-1.29095E-03-3.17393E-04
 -1      5762 1.71317E-05-1.29679E-03-4.04014E-04
 -1      5763 4.36851E-04-1.76577E-03 4.08688E-04
 -1      5764 4.66366E-04-1.76782E-03 3.19598E-04
 -1      5765 4.88192E-04-1.76800E-03 2.29518E-04
 -1      5766 5.02608E-04-1.76718E-03 1.38263E-04
 -1      5767 5.09770E-04-1.76648E-03 4.61832E-05
 -1      5768 5.09770E-04-1.76648E-03-4.61832E-05
 -1      5769 5.02608E-04-1.76718E-03-1.38263E-04
 -1      5770 4.88192E-04-1.76800E-03-2.29518E-04
 -1      5771 4.66366E-04-1.76782E-03-3.19598E-04
 -1      5772 4.36851E-04-1.76577E-03-4.08688E-04
 -1      5773 1.03597E-03-2.28965E-03 4.08154E-04
 -1      5774 1.06463E-03-2.29625E-03 3.18299E-04
 -1      5775 1.08605E-03-2.30055E-03 2.27902E-04
 -1      5776 1.10027E-03-2.30311E-03 1.37004E-04
 -1      5777 1.10736E-03-2.30427E-03 4.57168E-05
 -1      5778 1.10736E-03-2.30427E-03-4.57168E-05
 -1      5779 1.10027E-03-2.30311E-03-1.37004E-04
 -1      5780 1.08605E-03-2.30055E-03-2.27902E-04
 -1      5781 1.06463E-03-2.29625E-03-3.18299E-04
 -1      5782 1.03597E-03-2.28965E-03-4.08154E-04
 -1      5783 1.79977E-03-2.88396E-03 4.06726E-04
 -1      5784 1.82720E-03-2.89312E-03 3.16614E-04
 -1      5785 1.84775E-03-2.89982E-03 2.26356E-04
 -1      5786 1.86145E-03-2.90417E-03 1.35908E-04
 -1      5787 1.86829E-03-2.90631E-03 4.53199E-05
 -1      5788 1.86829E-03-2.90631E-03-4.53199E-05
 -1      5789 1.86145E-03-2.90417E-03-1.35908E-04
 -1      5790 1.84775E-03-2.89982E-03-2.26356E-04
 -1      5791 1.82720E-03-2.89312E-03-3.16614E-04
 -1      5792 1.79977E-03-2.88396E-03-4.06726E-04
 -1      5793 2.71426E-03-3.56359E-03 4.04470E-04
 -1      5794 2.74030E-03-3.57463E-03 3.14644E-04
 -1      5795 2.75983E-03-3.58288E-03 2.24792E-04
 -1      5796 2.77285E-03-3.58837E-03 1.34900E-04
 -1      5797 2.77936E-03-3.59111E-03 4.49716E-05
 -1      5798 2.77936E-03-3.59111E-03-4.49716E-05
 -1      5799 2.77285E-03-3.58837E-03-1.34900E-04
 -1      5800 2.75983E-03-3.58288E-03-2.24792E-04
 -1      5801 2.74030E-03-3.57463E-03-3.14644E-04
 -1      5802 2.71426E-03-3.56359E-03-4.04470E-04
 -1      5803 3.76577E-03-4.34303E-03 4.00877E-04
 -1      5804 3.79032E-03-4.35569E-03 3.11785E-04
 -1      5805 3.80873E-03-4.36521E-03 2.22702E-04
 -1      5806 3.82100E-03-4.37156E-03 1.33622E-04
 -1      5807 3.82714E-03-4.37474E-03 4.45410E-05
 -1      5808 3.82714E-03-4.37474E-03-4.45410E-05
 -1      5809 3.82100E-03-4.37156E-03-1.33622E-04
 -1      5810 3.80873E-03-4.36521E-03-2.22702E-04
 -1      5811 3.79032E-03-4.35569E-03-3.11785E-04
 -1      5812 3.76577E-03-4.34303E-03-4.00877E-04
 -1      5813 4.94062E-03-5.23575E-03 3.95552E-04
 -1      5814 4.96356E-03-5.24994E-03 3.07635E-04
 -1      5815 4.98077E-03-5.26059E-03 2.19729E-04
 -1      5816 4.99224E-03-5.26771E-03 1.31834E-04
 -1      5817 4.99797E-03-5.27127E-03 4.39439E-05
 -1      5818 4.99797E-03-5.27127E-03-4.39439E-05
 -1      5819 4.99224E-03-5.26771E-03-1.31834E-04
 -1      5820 4.98077E-03-5.26059E-03-2.19729E-04
 -1      5821 4.96356E-03-5.24994E-03-3.07635E-04
 -1      5822 4.94062E-03-5.23575E-03-3.95552E-04
 -1      5823 6.22493E-03-6.25395E-03 3.88293E-04
 -1      5824 6.24615E-03-6.26955E-03 3.01995E-04
 -1      5825 6.26207E-03-6.28126E-03 2.15703E-04
 -1      5826 6.27269E-03-6.28907E-03 1.29419E-04
 -1      5827 6.27799E-03-6.29298E-03 4.31390E-05
 -1      5828 6.27799E-03-6.29298E-03-4.31390E-05
 -1      5829 6.27269E-03-6.28907E-03-1.29419E-04
 -1      5830 6.26207E-03-6.28126E-03-2.15703E-04
 -1      5831 6.24615E-03-6.26955E-03-3.01995E-04
 -1      5832 6.22493E-03-6.25395E-03-3.88293E-04
 -1      5833 7.60461E-03-7.40829E-03 3.78994E-04
 -1      5834 7.62400E-03-7.42519E-03 2.94768E-04
 -1      5835 7.63855E-03-7.43787E-03 2.10545E-04
 -1      5836 7.64825E-03-7.44632E-03 1.26326E-04
 -1      5837 7.65309E-03-7.45055E-03 4.21082E-05
 -1      5838 7.65309E-03-7.45055E-03-4.21082E-05
 -1      5839 7.64825E-03-7.44632E-03-1.26326E-04
 -1      5840 7.63855E-03-7.43787E-03-2.10545E-04
 -1      5841 7.62400E-03-7.42519E-03-2.94768E-04
 -1      5842 7.60461E-03-7.40829E-03-3.78994E-04
 -1      5843 9.06534E-03-8.70791E-03 3.67564E-04
 -1      5844 9.08278E-03-8.72598E-03 2.85883E-04
 -1      5845 9.09587E-03-8.73953E-03 2.04201E-04
 -1      5846 9.10459E-03-8.74856E-03 1.22520E-04
 -1      5847 9.10895E-03-8.75308E-03 4.08399E-05
 -1      5848 9.10895E-03-8.75308E-03-4.08399E-05
 -1      5849 9.10459E-03-8.74856E-03-1.22520E-04
 -1      5850 9.09587E-03-8.73953E-03-2.04201E-04
 -1      5851 9.08278E-03-8.72598E-03-2.85883E-04
 -1      5852 9.06534E-03-8.70791E-03-3.67564E-04
 -1      5853 1.05927E-02-1.01604E-02 3.53881E-04
 -1      5854 1.06080E-02-1.01795E-02 2.75242E-04
 -1      5855 1.06196E-02-1.01938E-02 1.96602E-04
 -1      5856 1.06272E-02-1.02034E-02 1.17961E-04
 -1      5857 1.06311E-02-1.02081E-02 3.93203E-05
 -1      5858 1.06311E-02-1.02081E-02-3.93203E-05
 -1      5859 1.06272E-02-1.02034E-02-1.17961E-04
 -1      5860 1.06196E-02-1.01938E-02-1.96602E-04
 -1      5861 1.06080E-02-1.01795E-02-2.75242E-04
 -1      5862 1.05927E-02-1.01604E-02-3.53881E-04
 -1      5863 1.21721E-02-1.17719E-02 3.37758E-04
 -1      5864 1.21852E-02-1.17919E-02 2.62703E-04
 -1      5865 1.21951E-02-1.18069E-02 1.87646E-04
 -1      5866 1.22017E-02-1.18169E-02 1.12588E-04
 -1      5867 1.22049E-02-1.18219E-02 3.75293E-05
 -1      5868 1.22049E-02-1.18219E-02-3.75293E-05
 -1      5869 1.22017E-02-1.18169E-02-1.12588E-04
 -1      5870 1.21951E-02-1.18069E-02-1.87646E-04
 -1      5871 1.21852E-02-1.17919E-02-2.62703E-04
 -1      5872 1.21721E-02-1.17719E-02-3.37758E-04
 -1      5873 1.37890E-02-1.35473E-02 3.18931E-04
 -1      5874 1.37998E-02-1.35681E-02 2.48060E-04
 -1      5875 1.38078E-02-1.35836E-02 1.77186E-04
 -1      5876 1.38132E-02-1.35940E-02 1.06312E-04
 -1      5877 1.38159E-02-1.35992E-02 3.54374E-05
 -1      5878 1.38159E-02-1.35992E-02-3.54374E-05
 -1      5879 1.38132E-02-1.35940E-02-1.06312E-04
 -1      5880 1.38078E-02-1.35836E-02-1.77186E-04
 -1      5881 1.37998E-02-1.35681E-02-2.48060E-04
 -1      5882 1.37890E-02-1.35473E-02-3.18931E-04
 -1      5883 1.54289E-02-1.54903E-02 2.97037E-04
 -1      5884 1.54371E-02-1.55117E-02 2.31031E-04
 -1      5885 1.54433E-02-1.55277E-02 1.65023E-04
 -1      5886 1.54474E-02-1.55384E-02 9.90139E-05
 -1      5887 1.54494E-02-1.55437E-02 3.30047E-05
 -1      5888 1.54494E-02-1.55437E-02-3.30047E-05
 -1      5889 1.54474E-02-1.55384E-02-9.90139E-05
 -1      5890 1.54433E-02-1.55277E-02-1.65023E-04
 -1      5891 1.54371E-02-1.55117E-02-2.31031E-04
 -1      5892 1.54289E-02-1.54903E-02-2.97037E-04
 -1      5893 1.70772E-02-1.76037E-02 2.71604E-04
 -1      5894 1.70826E-02-1.76255E-02 2.11249E-04
 -1      5895 1.70866E-02-1.76418E-02 1.50893E-04
 -1      5896 1.70893E-02-1.76527E-02 9.05356E-05
 -1      5897 1.70907E-02-1.76582E-02 3.01785E-05
 -1      5898 1.70907E-02-1.76582E-02-3.01785E-05
 -1      5899 1.70893E-02-1.76527E-02-9.05356E-05
 -1      5900 1.70866E-02-1.76418E-02-1.50893E-04
 -1      5901 1.70826E-02-1.76255E-02-2.11249E-04
 -1      5902 1.70772E-02-1.76037E-02-2.71604E-04
 -1      5903 1.87187E-02-1.98893E-02 2.42043E-04
 -1      5904 1.87210E-02-1.99113E-02 1.88256E-04
 -1      5905 1.87227E-02-1.99278E-02 1.34468E-04
 -1      5906 1.87239E-02-1.99388E-02 8.06803E-05
 -1      5907 1.87244E-02-1.99443E-02 2.68933E-05
 -1      5908 1.87244E-02-1.99443E-02-2.68933E-05
 -1      5909 1.87239E-02-1.99388E-02-8.06803E-05
 -1      5910 1.87227E-02-1.99278E-02-1.34468E-04
 -1      5911 1.87210E-02-1.99113E-02-1.88256E-04
 -1      5912 1.87187E-02-1.98893E-02-2.42043E-04
 -1      5913 2.03375E-02-2.23479E-02 2.07649E-04
 -1      5914 2.03364E-02-2.23699E-02 1.61503E-04
 -1      5915 2.03355E-02-2.23863E-02 1.15357E-04
 -1      5916 2.03350E-02-2.23973E-02 6.92133E-05
 -1      5917 2.03347E-02-2.24028E-02 2.30709E-05
 -1      5918 2.03347E-02-2.24028E-02-2.30709E-05
 -1      5919 2.03350E-02-2.23973E-02-6.92133E-05
 -1      5920 2.03355E-02-2.23863E-02-1.15357E-04
 -1      5921 2.03364E-02-2.23699E-02-1.61503E-04
 -1      5922 2.03375E-02-2.23479E-02-2.07649E-04
 -1      5923 2.19161E-02-2.49793E-02 1.67631E-04
 -1      5924 2.19111E-02-2.50007E-02 1.30374E-04
 -1      5925 2.19074E-02-2.50167E-02 9.31203E-05
 -1      5926 2.19049E-02-2.50274E-02 5.58701E-05
 -1      5927 2.19037E-02-2.50328E-02 1.86230E-05
 -1      5928 2.19037E-02-2.50328E-02-1.86230E-05
 -1      5929 2.19049E-02-2.50274E-02-5.58701E-05
 -1      5930 2.19074E-02-2.50167E-02-9.31203E-05
 -1      5931 2.19111E-02-2.50007E-02-1.30374E-04
 -1      5932 2.19161E-02-2.49793E-02-1.67631E-04
 -1      5933 2.34343E-02-2.77806E-02 1.21166E-04
 -1      5934 2.34251E-02-2.78008E-02 9.42298E-05
 -1      5935 2.34182E-02-2.78160E-02 6.72999E-05
 -1      5936 2.34136E-02-2.78261E-02 4.03766E-05
 -1      5937 2.34113E-02-2.78311E-02 1.34583E-05
 -1      5938 2.34113E-02-2.78311E-02-1.34583E-05
 -1      5939 2.34136E-02-2.78261E-02-4.03766E-05
 -1      5940 2.34182E-02-2.78160E-02-6.72999E-05
 -1      5941 2.34251E-02-2.78008E-02-9.42298E-05
 -1      5942 2.34343E-02-2.77806E-02-1.21166E-04
 -1      5943 2.48681E-02-3.07452E-02 6.75215E-05
 -1      5944 2.48544E-02-3.07634E-02 5.25003E-05
 -1      5945 2.48440E-02-3.07770E-02 3.74898E-05
 -1      5946 2.48372E-02-3.07861E-02 2.24892E-05
 -1      5947 2.48337E-02-3.07906E-02 7.49559E-06
 -1      5948 2.48337E-02-3.07906E-02-7.49559E-06
 -1      5949 2.48372E-02-3.07861E-02-2.24892E-05
 -1      5950 2.48440E-02-3.07770E-02-3.74898E-05
 -1      5951 2.48544E-02-3.07634E-02-5.25003E-05
 -1      5952 2.48681E-02-3.07452E-02-6.75215E-05
 -1      5953 2.61891E-02-3.38598E-02 6.25613E-06
 -1      5954 2.61706E-02-3.38747E-02 4.84492E-06
 -1      5955 2.61567E-02-3.38858E-02 3.44868E-06
 -1      5956 2.61474E-02-3.38933E-02 2.06430E-06
 -1      5957 2.61428E-02-3.38970E-02 6.87279E-07
 -1      5958 2.61428E-02-3.38970E-02-6.87279E-07
 -1      5959 2.61474E-02-3.38933E-02-2.06430E-06
 -1      5960 2.61567E-02-3.38858E-02-3.44868E-06
 -1      5961 2.61706E-02-3.38747E-02-4.84492E-06
 -1      5962 2.61891E-02-3.38598E-02-6.25613E-06
 -1      5963 2.73636E-02-3.71001E-02-6.24697E-05
 -1      5964 2.73405E-02-3.71102E-02-4.86004E-05
 -1      5965 2.73232E-02-3.71178E-02-3.47187E-05
 -1      5966 2.73116E-02-3.71228E-02-2.08318E-05
 -1      5967 2.73058E-02-3.71253E-02-6.94392E-06
 -1      5968 2.73058E-02-3.71253E-02 6.94392E-06
 -1      5969 2.73116E-02-3.71228E-02 2.08318E-05
 -1      5970 2.73232E-02-3.71178E-02 3.47187E-05
 -1      5971 2.73405E-02-3.71102E-02 4.86004E-05
 -1      5972 2.73636E-02-3.71001E-02 6.24697E-05
 -1      5973 2.83546E-02-4.04262E-02-1.37471E-04
 -1      5974 2.83276E-02-4.04297E-02-1.06884E-04
 -1      5975 2.83073E-02-4.04324E-02-7.63133E-05
 -1      5976 2.82938E-02-4.04341E-02-4.57708E-05
 -1      5977 2.82870E-02-4.04350E-02-1.52536E-05
 -1      5978 2.82870E-02-4.04350E-02 1.52536E-05
 -1      5979 2.82938E-02-4.04341E-02 4.57708E-05
 -1      5980 2.83073E-02-4.04324E-02 7.63133E-05
 -1      5981 2.83276E-02-4.04297E-02 1.06884E-04
 -1      5982 2.83546E-02-4.04262E-02 1.37471E-04
 -1      5983 2.91254E-02-4.37777E-02-2.16101E-04
 -1      5984 2.90959E-02-4.37728E-02-1.67888E-04
 -1      5985 2.90736E-02-4.37692E-02-1.19785E-04
 -1      5986 2.90587E-02-4.37667E-02-7.18068E-05
 -1      5987 2.90512E-02-4.37655E-02-2.39238E-05
 -1      5988 2.90512E-02-4.37655E-02 2.39238E-05
 -1      5989 2.90587E-02-4.37667E-02 7.18068E-05
 -1      5990 2.90736E-02-4.37692E-02 1.19785E-04
 -1      5991 2.90959E-02-4.37728E-02 1.67888E-04
 -1      5992 2.91254E-02-4.37777E-02 2.16101E-04
 -1      5993 2.96472E-02-4.70709E-02-2.94087E-04
 -1      5994 2.96171E-02-4.70562E-02-2.28218E-04
 -1      5995 2.95941E-02-4.70451E-02-1.62678E-04
 -1      5996 2.95785E-02-4.70376E-02-9.74572E-05
 -1      5997 2.95706E-02-4.70339E-02-3.24593E-05
 -1      5998 2.95706E-02-4.70339E-02 3.24593E-05
 -1      5999 2.95785E-02-4.70376E-02 9.74572E-05
 -1      6000 2.95941E-02-4.70451E-02 1.62678E-04
 -1      6001 2.96171E-02-4.70562E-02 2.28218E-04
 -1      6002 2.96472E-02-4.70709E-02 2.94087E-04
 -1      6003 2.99084E-02-5.02014E-02-3.66282E-04
 -1      6004 2.98796E-02-5.01761E-02-2.83955E-04
 -1      6005 2.98571E-02-5.01571E-02-2.02286E-04
 -1      6006 2.98417E-02-5.01444E-02-1.21149E-04
 -1      6007 2.98339E-02-5.01380E-02-4.03453E-05
 -1      6008 2.98339E-02-5.01380E-02 4.03453E-05
 -1      6009 2.98417E-02-5.01444E-02 1.21149E-04
 -1      6010 2.98571E-02-5.01571E-02 2.02286E-04
 -1      6011 2.98796E-02-5.01761E-02 2.83955E-04
 -1      6012 2.99084E-02-5.02014E-02 3.66282E-04
 -1      6013 2.99236E-02-5.30521E-02-4.29627E-04
 -1      6014 2.98974E-02-5.30171E-02-3.33385E-04
 -1      6015 2.98766E-02-5.29915E-02-2.37798E-04
 -1      6016 2.98622E-02-5.29748E-02-1.42572E-04
 -1      6017 2.98549E-02-5.29667E-02-4.75089E-05
 -1      6018 2.98549E-02-5.29667E-02 4.75089E-05
 -1      6019 2.98622E-02-5.29748E-02 1.42572E-04
 -1      6020 2.98766E-02-5.29915E-02 2.37798E-04
 -1      6021 2.98974E-02-5.30171E-02 3.33385E-04
 -1      6022 2.99236E-02-5.30521E-02 4.29627E-04
 -1      6023-1.77570E-04-3.57355E-04 2.30435E-04
 -1      6024-1.60485E-04-3.34454E-04 1.67661E-04
 -1      6025-1.49543E-04-3.23811E-04 1.14377E-04
 -1      6026-1.42968E-04-3.18560E-04 6.66777E-05
 -1      6027-1.39872E-04-3.16342E-04 2.19195E-05
 -1      6028-1.39872E-04-3.16342E-04-2.19195E-05
 -1      6029-1.42968E-04-3.18560E-04-6.66777E-05
 -1      6030-1.49543E-04-3.23811E-04-1.14377E-04
 -1      6031-1.60485E-04-3.34454E-04-1.67661E-04
 -1      6032-1.77570E-04-3.57355E-04-2.30435E-04
 -1      6033-1.22422E-04-7.19126E-04 3.18000E-04
 -1      6034-9.69849E-05-6.98738E-04 2.46276E-04
 -1      6035-7.94625E-05-6.84562E-04 1.74359E-04
 -1      6036-6.84832E-05-6.76032E-04 1.03815E-04
 -1      6037-6.31937E-05-6.72050E-04 3.44584E-05
 -1      6038-6.31937E-05-6.72050E-04-3.44584E-05
 -1      6039-6.84832E-05-6.76032E-04-1.03815E-04
 -1      6040-7.94625E-05-6.84562E-04-1.74359E-04
 -1      6041-9.69849E-05-6.98738E-04-2.46276E-04
 -1      6042-1.22422E-04-7.19126E-04-3.18000E-04
 -1      6043 1.49863E-04-1.07279E-03 3.37448E-04
 -1      6044 1.77645E-04-1.06874E-03 2.65045E-04
 -1      6045 1.97916E-04-1.06273E-03 1.90523E-04
 -1      6046 2.11089E-04-1.05780E-03 1.14700E-04
 -1      6047 2.17564E-04-1.05515E-03 3.82870E-05
 -1      6048 2.17564E-04-1.05515E-03-3.82870E-05
 -1      6049 2.11089E-04-1.05780E-03-1.14700E-04
 -1      6050 1.97916E-04-1.06273E-03-1.90523E-04
 -1      6051 1.77645E-04-1.06874E-03-2.65045E-04
 -1      6052 1.49863E-04-1.07279E-03-3.37448E-04
 -1      6053 6.22260E-04-1.46513E-03 3.42844E-04
 -1      6054 6.50231E-04-1.46739E-03 2.67935E-04
 -1      6055 6.70965E-04-1.46811E-03 1.92316E-04
 -1      6056 6.84681E-04-1.46789E-03 1.15816E-04
 -1      6057 6.91504E-04-1.46756E-03 3.86802E-05
 -1      6058 6.91504E-04-1.46756E-03-3.86802E-05
 -1      6059 6.84681E-04-1.46789E-03-1.15816E-04
 -1      6060 6.70965E-04-1.46811E-03-1.92316E-04
 -1      6061 6.50231E-04-1.46739E-03-2.67935E-04
 -1      6062 6.22260E-04-1.46513E-03-3.42844E-04
 -1      6063 1.27958E-03-1.91310E-03 3.44245E-04
 -1      6064 1.30673E-03-1.91910E-03 2.68328E-04
 -1      6065 1.32704E-03-1.92316E-03 1.92038E-04
 -1      6066 1.34054E-03-1.92566E-03 1.15405E-04
 -1      6067 1.34728E-03-1.92684E-03 3.85023E-05
 -1      6068 1.34728E-03-1.92684E-03-3.85023E-05
 -1      6069 1.34054E-03-1.92566E-03-1.15405E-04
 -1      6070 1.32704E-03-1.92316E-03-1.92038E-04
 -1      6071 1.30673E-03-1.91910E-03-2.68328E-04
 -1      6072 1.27958E-03-1.91310E-03-3.44245E-04
 -1      6073 2.10730E-03-2.43416E-03 3.44732E-04
 -1      6074 2.13331E-03-2.44239E-03 2.68286E-04
 -1      6075 2.15281E-03-2.44846E-03 1.91758E-04
 -1      6076 2.16580E-03-2.45245E-03 1.15113E-04
 -1      6077 2.17230E-03-2.45442E-03 3.83818E-05
 -1      6078 2.17230E-03-2.45442E-03-3.83818E-05
 -1      6079 2.16580E-03-2.45245E-03-1.15113E-04
 -1      6080 2.15281E-03-2.44846E-03-1.91758E-04
 -1      6081 2.13331E-03-2.44239E-03-2.68286E-04
 -1      6082 2.10730E-03-2.43416E-03-3.44732E-04
 -1      6083 3.09134E-03-3.04496E-03 3.44158E-04
 -1      6084 3.11606E-03-3.05493E-03 2.67700E-04
 -1      6085 3.13461E-03-3.06240E-03 1.91234E-04
 -1      6086 3.14697E-03-3.06738E-03 1.14753E-04
 -1      6087 3.15316E-03-3.06986E-03 3.82533E-05
 -1      6088 3.15316E-03-3.06986E-03-3.82533E-05
 -1      6089 3.14697E-03-3.06738E-03-1.14753E-04
 -1      6090 3.13461E-03-3.06240E-03-1.91234E-04
 -1      6091 3.11606E-03-3.05493E-03-2.67700E-04
 -1      6092 3.09134E-03-3.04496E-03-3.44158E-04
 -1      6093 4.21773E-03-3.76136E-03 3.42084E-04
 -1      6094 4.24107E-03-3.77288E-03 2.66052E-04
 -1      6095 4.25857E-03-3.78154E-03 1.90031E-04
 -1      6096 4.27024E-03-3.78732E-03 1.14016E-04
 -1      6097 4.27608E-03-3.79021E-03 3.80052E-05
 -1      6098 4.27608E-03-3.79021E-03-3.80052E-05
 -1      6099 4.27024E-03-3.78732E-03-1.14016E-04
 -1      6100 4.25857E-03-3.78154E-03-1.90031E-04
 -1      6101 4.24107E-03-3.77288E-03-2.66052E-04
 -1      6102 4.21773E-03-3.76136E-03-3.42084E-04
 -1      6103 5.47239E-03-4.59794E-03 3.38221E-04
 -1      6104 5.49423E-03-4.61091E-03 2.63048E-04
 -1      6105 5.51061E-03-4.62065E-03 1.87883E-04
 -1      6106 5.52153E-03-4.62715E-03 1.12726E-04
 -1      6107 5.52699E-03-4.63040E-03 3.75748E-05
 -1      6108 5.52699E-03-4.63040E-03-3.75748E-05
 -1      6109 5.52153E-03-4.62715E-03-1.12726E-04
 -1      6110 5.51061E-03-4.62065E-03-1.87883E-04
 -1      6111 5.49423E-03-4.61091E-03-2.63048E-04
 -1      6112 5.47239E-03-4.59794E-03-3.38221E-04
 -1      6113 6.84094E-03-5.56774E-03 3.32442E-04
 -1      6114 6.86117E-03-5.58205E-03 2.58559E-04
 -1      6115 6.87634E-03-5.59279E-03 1.84680E-04
 -1      6116 6.88645E-03-5.59995E-03 1.10806E-04
 -1      6117 6.89151E-03-5.60353E-03 3.69349E-05
 -1      6118 6.89151E-03-5.60353E-03-3.69349E-05
 -1      6119 6.88645E-03-5.59995E-03-1.10806E-04
 -1      6120 6.87634E-03-5.59279E-03-1.84680E-04
 -1      6121 6.86117E-03-5.58205E-03-2.58559E-04
 -1      6122 6.84094E-03-5.56774E-03-3.32442E-04
 -1      6123 8.30867E-03-6.68213E-03 3.24680E-04
 -1      6124 8.32718E-03-6.69766E-03 2.52527E-04
 -1      6125 8.34105E-03-6.70930E-03 1.80375E-04
 -1      6126 8.35031E-03-6.71706E-03 1.08224E-04
 -1      6127 8.35493E-03-6.72095E-03 3.60745E-05
 -1      6128 8.35493E-03-6.72095E-03-3.60745E-05
 -1      6129 8.35031E-03-6.71706E-03-1.08224E-04
 -1      6130 8.34105E-03-6.70930E-03-1.80375E-04
 -1      6131 8.32718E-03-6.69766E-03-2.52527E-04
 -1      6132 8.30867E-03-6.68213E-03-3.24680E-04
 -1      6133 9.86054E-03-7.95081E-03 3.14866E-04
 -1      6134 9.87721E-03-7.96741E-03 2.44896E-04
 -1      6135 9.88970E-03-7.97986E-03 1.74926E-04
 -1      6136 9.89803E-03-7.98816E-03 1.04955E-04
 -1      6137 9.90220E-03-7.99231E-03 3.49851E-05
 -1      6138 9.90220E-03-7.99231E-03-3.49851E-05
 -1      6139 9.89803E-03-7.98816E-03-1.04955E-04
 -1      6140 9.88970E-03-7.97986E-03-1.74926E-04
 -1      6141 9.87721E-03-7.96741E-03-2.44896E-04
 -1      6142 9.86054E-03-7.95081E-03-3.14866E-04
 -1      6143 1.14812E-02-9.38178E-03 3.02887E-04
 -1      6144 1.14959E-02-9.39932E-03 2.35581E-04
 -1      6145 1.15069E-02-9.41247E-03 1.68273E-04
 -1      6146 1.15143E-02-9.42124E-03 1.00964E-04
 -1      6147 1.15179E-02-9.42562E-03 3.36547E-05
 -1      6148 1.15179E-02-9.42562E-03-3.36547E-05
 -1      6149 1.15143E-02-9.42124E-03-1.00964E-04
 -1      6150 1.15069E-02-9.41247E-03-1.68273E-04
 -1      6151 1.14959E-02-9.39932E-03-2.35581E-04
 -1      6152 1.14812E-02-9.38178E-03-3.02887E-04
 -1      6153 1.31551E-02-1.09815E-02 2.88577E-04
 -1      6154 1.31677E-02-1.09998E-02 2.24451E-04
 -1      6155 1.31771E-02-1.10135E-02 1.60323E-04
 -1      6156 1.31834E-02-1.10227E-02 9.61944E-05
 -1      6157 1.31865E-02-1.10273E-02 3.20649E-05
 -1      6158 1.31865E-02-1.10273E-02-3.20649E-05
 -1      6159 1.31834E-02-1.10227E-02-9.61944E-05
 -1      6160 1.31771E-02-1.10135E-02-1.60323E-04
 -1      6161 1.31677E-02-1.09998E-02-2.24451E-04
 -1      6162 1.31551E-02-1.09815E-02-2.88577E-04
 -1      6163 1.48663E-02-1.27548E-02 2.71695E-04
 -1      6164 1.48766E-02-1.27738E-02 2.11321E-04
 -1      6165 1.48844E-02-1.27880E-02 1.50945E-04
 -1      6166 1.48895E-02-1.27975E-02 9.05674E-05
 -1      6167 1.48921E-02-1.28022E-02 3.01892E-05
 -1      6168 1.48921E-02-1.28022E-02-3.01892E-05
 -1      6169 1.48895E-02-1.27975E-02-9.05674E-05
 -1      6170 1.48844E-02-1.27880E-02-1.50945E-04
 -1      6171 1.48766E-02-1.27738E-02-2.11321E-04
 -1      6172 1.48663E-02-1.27548E-02-2.71695E-04
 -1      6173 1.65988E-02-1.47053E-02 2.51923E-04
 -1      6174 1.66067E-02-1.47247E-02 1.95943E-04
 -1      6175 1.66126E-02-1.47393E-02 1.39961E-04
 -1      6176 1.66165E-02-1.47490E-02 8.39768E-05
 -1      6177 1.66185E-02-1.47539E-02 2.79924E-05
 -1      6178 1.66185E-02-1.47539E-02-2.79924E-05
 -1      6179 1.66165E-02-1.47490E-02-8.39768E-05
 -1      6180 1.66126E-02-1.47393E-02-1.39961E-04
 -1      6181 1.66067E-02-1.47247E-02-1.95943E-04
 -1      6182 1.65988E-02-1.47053E-02-2.51923E-04
 -1      6183 1.83360E-02-1.68352E-02 2.28859E-04
 -1      6184 1.83413E-02-1.68549E-02 1.78004E-04
 -1      6185 1.83452E-02-1.68696E-02 1.27147E-04
 -1      6186 1.83478E-02-1.68795E-02 7.62885E-05
 -1      6187 1.83491E-02-1.68844E-02 2.54296E-05
 -1      6188 1.83491E-02-1.68844E-02-2.54296E-05
 -1      6189 1.83478E-02-1.68795E-02-7.62885E-05
 -1      6190 1.83452E-02-1.68696E-02-1.27147E-04
 -1      6191 1.83413E-02-1.68549E-02-1.78004E-04
 -1      6192 1.83360E-02-1.68352E-02-2.28859E-04
 -1      6193 2.00609E-02-1.91452E-02 2.02018E-04
 -1      6194 2.00633E-02-1.91649E-02 1.57127E-04
 -1      6195 2.00650E-02-1.91797E-02 1.12235E-04
 -1      6196 2.00662E-02-1.91895E-02 6.73410E-05
 -1      6197 2.00668E-02-1.91944E-02 2.24470E-05
 -1      6198 2.00668E-02-1.91944E-02-2.24470E-05
 -1      6199 2.00662E-02-1.91895E-02-6.73410E-05
 -1      6200 2.00650E-02-1.91797E-02-1.12235E-04
 -1      6201 2.00633E-02-1.91649E-02-1.57127E-04
 -1      6202 2.00609E-02-1.91452E-02-2.02018E-04
 -1      6203 2.17551E-02-2.16347E-02 1.70851E-04
 -1      6204 2.17543E-02-2.16541E-02 1.32885E-04
 -1      6205 2.17537E-02-2.16686E-02 9.49178E-05
 -1      6206 2.17533E-02-2.16783E-02 5.69506E-05
 -1      6207 2.17531E-02-2.16831E-02 1.89835E-05
 -1      6208 2.17531E-02-2.16831E-02-1.89835E-05
 -1      6209 2.17533E-02-2.16783E-02-5.69506E-05
 -1      6210 2.17537E-02-2.16686E-02-9.49178E-05
 -1      6211 2.17543E-02-2.16541E-02-1.32885E-04
 -1      6212 2.17551E-02-2.16347E-02-1.70851E-04
 -1      6213 2.33988E-02-2.43008E-02 1.34776E-04
 -1      6214 2.33945E-02-2.43194E-02 1.04825E-04
 -1      6215 2.33913E-02-2.43333E-02 7.48736E-05
 -1      6216 2.33892E-02-2.43426E-02 4.49236E-05
 -1      6217 2.33882E-02-2.43472E-02 1.49744E-05
 -1      6218 2.33882E-02-2.43472E-02-1.49744E-05
 -1      6219 2.33892E-02-2.43426E-02-4.49236E-05
 -1      6220 2.33913E-02-2.43333E-02-7.48736E-05
 -1      6221 2.33945E-02-2.43194E-02-1.04825E-04
 -1      6222 2.33988E-02-2.43008E-02-1.34776E-04
 -1      6223 2.49693E-02-2.71376E-02 9.32502E-05
 -1      6224 2.49614E-02-2.71548E-02 7.25238E-05
 -1      6225 2.49555E-02-2.71676E-02 5.17997E-05
 -1      6226 2.49515E-02-2.71762E-02 3.10783E-05
 -1      6227 2.49495E-02-2.71805E-02 1.03592E-05
 -1      6228 2.49495E-02-2.71805E-02-1.03592E-05
 -1      6229 2.49515E-02-2.71762E-02-3.10783E-05
 -1      6230 2.49555E-02-2.71676E-02-5.17997E-05
 -1      6231 2.49614E-02-2.71548E-02-7.25238E-05
 -1      6232 2.49693E-02-2.71376E-02-9.32502E-05
 -1      6233 2.64413E-02-3.01344E-02 4.58810E-05
 -1      6234 2.64295E-02-3.01493E-02 3.56764E-05
 -1      6235 2.64207E-02-3.01605E-02 2.54774E-05
 -1      6236 2.64148E-02-3.01680E-02 1.52838E-05
 -1      6237 2.64118E-02-3.01717E-02 5.09415E-06
 -1      6238 2.64118E-02-3.01717E-02-5.09415E-06
 -1      6239 2.64148E-02-3.01680E-02-1.52838E-05
 -1      6240 2.64207E-02-3.01605E-02-2.54774E-05
 -1      6241 2.64295E-02-3.01493E-02-3.56764E-05
 -1      6242 2.64413E-02-3.01344E-02-4.58810E-05
 -1      6243 2.77855E-02-3.32730E-02-7.40111E-06
 -1      6244 2.77699E-02-3.32847E-02-5.76994E-06
 -1      6245 2.77582E-02-3.32935E-02-4.12942E-06
 -1      6246 2.77504E-02-3.32993E-02-2.48106E-06
 -1      6247 2.77465E-02-3.33023E-02-8.27607E-07
 -1      6248 2.77465E-02-3.33023E-02 8.27607E-07
 -1      6249 2.77504E-02-3.32993E-02 2.48106E-06
 -1      6250 2.77582E-02-3.32935E-02 4.12942E-06
 -1      6251 2.77699E-02-3.32847E-02 5.76994E-06
 -1      6252 2.77855E-02-3.32730E-02 7.40111E-06
 -1      6253 2.89699E-02-3.65250E-02-6.60974E-05
 -1      6254 2.89509E-02-3.65322E-02-5.14200E-05
 -1      6255 2.89365E-02-3.65377E-02-3.67333E-05
 -1      6256 2.89270E-02-3.65413E-02-2.20415E-05
 -1      6257 2.89222E-02-3.65431E-02-7.34735E-06
 -1      6258 2.89222E-02-3.65431E-02 7.34735E-06
 -1      6259 2.89270E-02-3.65413E-02 2.20415E-05
 -1      6260 2.89365E-02-3.65377E-02 3.67333E-05
 -1      6261 2.89509E-02-3.65322E-02 5.14200E-05
 -1      6262 2.89699E-02-3.65250E-02 6.60974E-05
 -1      6263 2.99613E-02-3.98476E-02-1.28838E-04
 -1      6264 2.99395E-02-3.98490E-02-1.00187E-04
 -1      6265 2.99231E-02-3.98501E-02-7.15433E-05
 -1      6266 2.99122E-02-3.98509E-02-4.29160E-05
 -1      6267 2.99067E-02-3.98512E-02-1.43034E-05
 -1      6268 2.99067E-02-3.98512E-02 1.43034E-05
 -1      6269 2.99122E-02-3.98509E-02 4.29160E-05
 -1      6270 2.99231E-02-3.98501E-02 7.15433E-05
 -1      6271 2.99395E-02-3.98490E-02 1.00187E-04
 -1      6272 2.99613E-02-3.98476E-02 1.28838E-04
 -1      6273 3.07291E-02-4.31809E-02-1.93095E-04
 -1      6274 3.07059E-02-4.31754E-02-1.50056E-04
 -1      6275 3.06884E-02-4.31712E-02-1.07090E-04
 -1      6276 3.06767E-02-4.31684E-02-6.42100E-05
 -1      6277 3.06708E-02-4.31670E-02-2.13952E-05
 -1      6278 3.06708E-02-4.31670E-02 2.13952E-05
 -1      6279 3.06767E-02-4.31684E-02 6.42100E-05
 -1      6280 3.06884E-02-4.31712E-02 1.07090E-04
 -1      6281 3.07059E-02-4.31754E-02 1.50056E-04
 -1      6282 3.07291E-02-4.31809E-02 1.93095E-04
 -1      6283 3.12520E-02-4.64472E-02-2.55123E-04
 -1      6284 3.12291E-02-4.64337E-02-1.98048E-04
 -1      6285 3.12115E-02-4.64235E-02-1.41212E-04
 -1      6286 3.11997E-02-4.64167E-02-8.46140E-05
 -1      6287 3.11937E-02-4.64133E-02-2.81845E-05
 -1      6288 3.11937E-02-4.64133E-02 2.81845E-05
 -1      6289 3.11997E-02-4.64167E-02 8.46140E-05
 -1      6290 3.12115E-02-4.64235E-02 1.41212E-04
 -1      6291 3.12291E-02-4.64337E-02 1.98048E-04
 -1      6292 3.12520E-02-4.64472E-02 2.55123E-04
 -1      6293 3.15250E-02-4.95538E-02-3.10612E-04
 -1      6294 3.15038E-02-4.95320E-02-2.40842E-04
 -1      6295 3.14872E-02-4.95156E-02-1.71588E-04
 -1      6296 3.14758E-02-4.95046E-02-1.02766E-04
 -1      6297 3.14701E-02-4.94991E-02-3.42233E-05
 -1      6298 3.14701E-02-4.94991E-02 3.42233E-05
 -1      6299 3.14758E-02-4.95046E-02 1.02766E-04
 -1      6300 3.14872E-02-4.95156E-02 1.71588E-04
 -1      6301 3.15038E-02-4.95320E-02 2.40842E-04
 -1      6302 3.15250E-02-4.95538E-02 3.10612E-04
 -1      6303 3.15655E-02-5.24001E-02-3.57120E-04
 -1      6304 3.15468E-02-5.23707E-02-2.77031E-04
 -1      6305 3.15319E-02-5.23491E-02-1.97526E-04
 -1      6306 3.15216E-02-5.23349E-02-1.18388E-04
 -1      6307 3.15163E-02-5.23279E-02-3.94428E-05
 -1      6308 3.15163E-02-5.23279E-02 3.94428E-05
 -1      6309 3.15216E-02-5.23349E-02 1.18388E-04
 -1      6310 3.15319E-02-5.23491E-02 1.97526E-04
 -1      6311 3.15468E-02-5.23707E-02 2.77031E-04
 -1      6312 3.15655E-02-5.24001E-02 3.57120E-04
 -1      6313-1.33825E-04-2.86434E-04 1.87261E-04
 -1      6314-1.17265E-04-2.67756E-04 1.36675E-04
 -1      6315-1.06609E-04-2.58961E-04 9.34140E-05
 -1      6316-1.00187E-04-2.54586E-04 5.45161E-05
 -1      6317-9.71566E-05-2.52730E-04 1.79304E-05
 -1      6318-9.71566E-05-2.52730E-04-1.79304E-05
 -1      6319-1.00187E-04-2.54586E-04-5.45161E-05
 -1      6320-1.06609E-04-2.58961E-04-9.34140E-05
 -1      6321-1.17265E-04-2.67756E-04-1.36675E-04
 -1      6322-1.33825E-04-2.86434E-04-1.87261E-04
 -1      6323-3.20398E-05-5.70349E-04 2.57751E-04
 -1      6324-7.71510E-06-5.54542E-04 1.99936E-04
 -1      6325 9.17162E-06-5.43309E-04 1.41756E-04
 -1      6326 1.98046E-05-5.36477E-04 8.44877E-05
 -1      6327 2.49412E-05-5.33271E-04 2.80574E-05
 -1      6328 2.49412E-05-5.33271E-04-2.80574E-05
 -1      6329 1.98046E-05-5.36477E-04-8.44877E-05
 -1      6330 9.17162E-06-5.43309E-04-1.41756E-04
 -1      6331-7.71510E-06-5.54542E-04-1.99936E-04
 -1      6332-3.20398E-05-5.70349E-04-2.57751E-04
 -1      6333 2.90496E-04-8.48721E-04 2.74602E-04
 -1      6334 3.16923E-04-8.46029E-04 2.15606E-04
 -1      6335 3.36266E-04-8.41706E-04 1.54995E-04
 -1      6336 3.48878E-04-8.38066E-04 9.33290E-05
 -1      6337 3.55091E-04-8.36085E-04 3.11577E-05
 -1      6338 3.55091E-04-8.36085E-04-3.11577E-05
 -1      6339 3.48878E-04-8.38066E-04-9.33290E-05
 -1      6340 3.36266E-04-8.41706E-04-1.54995E-04
 -1      6341 3.16923E-04-8.46029E-04-2.15606E-04
 -1      6342 2.90496E-04-8.48721E-04-2.74602E-04
 -1      6343 8.17436E-04-1.16489E-03 2.80941E-04
 -1      6344 8.43979E-04-1.16718E-03 2.19421E-04
 -1      6345 8.63695E-04-1.16824E-03 1.57410E-04
 -1      6346 8.76752E-04-1.16845E-03 9.47632E-05
 -1      6347 8.83253E-04-1.16838E-03 3.16439E-05
 -1      6348 8.83253E-04-1.16838E-03-3.16439E-05
 -1      6349 8.76752E-04-1.16845E-03-9.47632E-05
 -1      6350 8.63695E-04-1.16824E-03-1.57410E-04
 -1      6351 8.43979E-04-1.16718E-03-2.19421E-04
 -1      6352 8.17436E-04-1.16489E-03-2.80941E-04
 -1      6353 1.53408E-03-1.53770E-03 2.84147E-04
 -1      6354 1.55984E-03-1.54310E-03 2.21391E-04
 -1      6355 1.57913E-03-1.54686E-03 1.58385E-04
 -1      6356 1.59196E-03-1.54924E-03 9.51521E-05
 -1      6357 1.59836E-03-1.55038E-03 3.17403E-05
 -1      6358 1.59836E-03-1.55038E-03-3.17403E-05
 -1      6359 1.59196E-03-1.54924E-03-9.51521E-05
 -1      6360 1.57913E-03-1.54686E-03-1.58385E-04
 -1      6361 1.55984E-03-1.54310E-03-2.21391E-04
 -1      6362 1.53408E-03-1.53770E-03-2.84147E-04
 -1      6363 2.42607E-03-1.98652E-03 2.86332E-04
 -1      6364 2.45078E-03-1.99390E-03 2.22793E-04
 -1      6365 2.46930E-03-1.99939E-03 1.59212E-04
 -1      6366 2.48166E-03-2.00301E-03 9.55615E-05
 -1      6367 2.48783E-03-2.00481E-03 3.18601E-05
 -1      6368 2.48783E-03-2.00481E-03-3.18601E-05
 -1      6369 2.48166E-03-2.00301E-03-9.55615E-05
 -1      6370 2.46930E-03-1.99939E-03-1.59212E-04
 -1      6371 2.45078E-03-1.99390E-03-2.22793E-04
 -1      6372 2.42607E-03-1.98652E-03-2.86332E-04
 -1      6373 3.47932E-03-2.52966E-03 2.87255E-04
 -1      6374 3.50284E-03-2.53867E-03 2.23424E-04
 -1      6375 3.52048E-03-2.54543E-03 1.59595E-04
 -1      6376 3.53225E-03-2.54995E-03 9.57615E-05
 -1      6377 3.53813E-03-2.55220E-03 3.19215E-05
 -1      6378 3.53813E-03-2.55220E-03-3.19215E-05
 -1      6379 3.53225E-03-2.54995E-03-9.57615E-05
 -1      6380 3.52048E-03-2.54543E-03-1.59595E-04
 -1      6381 3.50284E-03-2.53867E-03-2.23424E-04
 -1      6382 3.47932E-03-2.52966E-03-2.87255E-04
 -1      6383 4.67966E-03-3.18430E-03 2.86570E-04
 -1      6384 4.70190E-03-3.19480E-03 2.22874E-04
 -1      6385 4.71857E-03-3.20268E-03 1.59188E-04
 -1      6386 4.72969E-03-3.20795E-03 9.55099E-05
 -1      6387 4.73525E-03-3.21058E-03 3.18361E-05
 -1      6388 4.73525E-03-3.21058E-03-3.18361E-05
 -1      6389 4.72969E-03-3.20795E-03-9.55099E-05
 -1      6390 4.71857E-03-3.20268E-03-1.59188E-04
 -1      6391 4.70190E-03-3.19480E-03-2.22874E-04
 -1      6392 4.67966E-03-3.18430E-03-2.86570E-04
 -1      6393 6.01268E-03-3.96607E-03 2.84084E-04
 -1      6394 6.03352E-03-3.97795E-03 2.20945E-04
 -1      6395 6.04915E-03-3.98686E-03 1.57811E-04
 -1      6396 6.05957E-03-3.99281E-03 9.46840E-05
 -1      6397 6.06478E-03-3.99579E-03 3.15608E-05
 -1      6398 6.06478E-03-3.99579E-03-3.15608E-05
 -1      6399 6.05957E-03-3.99281E-03-9.46840E-05
 -1      6400 6.04915E-03-3.98686E-03-1.57811E-04
 -1      6401 6.03352E-03-3.97795E-03-2.20945E-04
 -1      6402 6.01268E-03-3.96607E-03-2.84084E-04
 -1      6403 7.46356E-03-4.88885E-03 2.79733E-04
 -1      6404 7.48289E-03-4.90199E-03 2.17565E-04
 -1      6405 7.49739E-03-4.91185E-03 1.55401E-04
 -1      6406 7.50705E-03-4.91842E-03 9.32391E-05
 -1      6407 7.51189E-03-4.92171E-03 3.10795E-05
 -1      6408 7.51189E-03-4.92171E-03-3.10795E-05
 -1      6409 7.50705E-03-4.91842E-03-9.32391E-05
 -1      6410 7.49739E-03-4.91185E-03-1.55401E-04
 -1      6411 7.48289E-03-4.90199E-03-2.17565E-04
 -1      6412 7.46356E-03-4.88885E-03-2.79733E-04
 -1      6413 9.01699E-03-5.96467E-03 2.73481E-04
 -1      6414 9.03471E-03-5.97895E-03 2.12706E-04
 -1      6415 9.04799E-03-5.98966E-03 1.51932E-04
 -1      6416 9.05684E-03-5.99680E-03 9.11591E-05
 -1      6417 9.06127E-03-6.00037E-03 3.03863E-05
 -1      6418 9.06127E-03-6.00037E-03-3.03863E-05
 -1      6419 9.05684E-03-5.99680E-03-9.11591E-05
 -1      6420 9.04799E-03-5.98966E-03-1.51932E-04
 -1      6421 9.03471E-03-5.97895E-03-2.12706E-04
 -1      6422 9.01699E-03-5.96467E-03-2.73481E-04
 -1      6423 1.06572E-02-7.20375E-03 2.65278E-04
 -1      6424 1.06732E-02-7.21902E-03 2.06328E-04
 -1      6425 1.06852E-02-7.23047E-03 1.47378E-04
 -1      6426 1.06932E-02-7.23810E-03 8.84266E-05
 -1      6427 1.06971E-02-7.24192E-03 2.94756E-05
 -1      6428 1.06971E-02-7.24192E-03-2.94756E-05
 -1      6429 1.06932E-02-7.23810E-03-8.84266E-05
 -1      6430 1.06852E-02-7.23047E-03-1.47378E-04
 -1      6431 1.06732E-02-7.21902E-03-2.06328E-04
 -1      6432 1.06572E-02-7.20375E-03-2.65278E-04
 -1      6433 1.23680E-02-8.61446E-03 2.55030E-04
 -1      6434 1.23821E-02-8.63058E-03 1.98358E-04
 -1      6435 1.23927E-02-8.64266E-03 1.41685E-04
 -1      6436 1.23997E-02-8.65072E-03 8.50115E-05
 -1      6437 1.24032E-02-8.65475E-03 2.83372E-05
 -1      6438 1.24032E-02-8.65475E-03-2.83372E-05
 -1      6439 1.23997E-02-8.65072E-03-8.50115E-05
 -1      6440 1.23927E-02-8.64266E-03-1.41685E-04
 -1      6441 1.23821E-02-8.63058E-03-1.98358E-04
 -1      6442 1.23680E-02-8.61446E-03-2.55030E-04
 -1      6443 1.41325E-02-1.02034E-02 2.42589E-04
 -1      6444 1.41447E-02-1.02202E-02 1.88683E-04
 -1      6445 1.41537E-02-1.02328E-02 1.34774E-04
 -1      6446 1.41598E-02-1.02412E-02 8.08650E-05
 -1      6447 1.41628E-02-1.02454E-02 2.69551E-05
 -1      6448 1.41628E-02-1.02454E-02-2.69551E-05
 -1      6449 1.41598E-02-1.02412E-02-8.08650E-05
 -1      6450 1.41537E-02-1.02328E-02-1.34774E-04
 -1      6451 1.41447E-02-1.02202E-02-1.88683E-04
 -1      6452 1.41325E-02-1.02034E-02-2.42589E-04
 -1      6453 1.59338E-02-1.19755E-02 2.27747E-04
 -1      6454 1.59438E-02-1.19929E-02 1.77138E-04
 -1      6455 1.59513E-02-1.20059E-02 1.26529E-04
 -1      6456 1.59563E-02-1.20145E-02 7.59176E-05
 -1      6457 1.59588E-02-1.20188E-02 2.53060E-05
 -1      6458 1.59588E-02-1.20188E-02-2.53060E-05
 -1      6459 1.59563E-02-1.20145E-02-7.59176E-05
 -1      6460 1.59513E-02-1.20059E-02-1.26529E-04
 -1      6461 1.59438E-02-1.19929E-02-1.77138E-04
 -1      6462 1.59338E-02-1.19755E-02-2.27747E-04
 -1      6463 1.77541E-02-1.39340E-02 2.10228E-04
 -1      6464 1.77618E-02-1.39517E-02 1.63513E-04
 -1      6465 1.77676E-02-1.39649E-02 1.16796E-04
 -1      6466 1.77714E-02-1.39737E-02 7.00782E-05
 -1      6467 1.77733E-02-1.39782E-02 2.33595E-05
 -1      6468 1.77733E-02-1.39782E-02-2.33595E-05
 -1      6469 1.77714E-02-1.39737E-02-7.00782E-05
 -1      6470 1.77676E-02-1.39649E-02-1.16796E-04
 -1      6471 1.77618E-02-1.39517E-02-1.63513E-04
 -1      6472 1.77541E-02-1.39340E-02-2.10228E-04
 -1      6473 1.95753E-02-1.60804E-02 1.89697E-04
 -1      6474 1.95805E-02-1.60982E-02 1.47545E-04
 -1      6475 1.95844E-02-1.61115E-02 1.05390E-04
 -1      6476 1.95870E-02-1.61204E-02 6.32346E-05
 -1      6477 1.95883E-02-1.61248E-02 2.10783E-05
 -1      6478 1.95883E-02-1.61248E-02-2.10783E-05
 -1      6479 1.95870E-02-1.61204E-02-6.32346E-05
 -1      6480 1.95844E-02-1.61115E-02-1.05390E-04
 -1      6481 1.95805E-02-1.60982E-02-1.47545E-04
 -1      6482 1.95753E-02-1.60804E-02-1.89697E-04
 -1      6483 2.13782E-02-1.84144E-02 1.65765E-04
 -1      6484 2.13808E-02-1.84320E-02 1.28930E-04
 -1      6485 2.13826E-02-1.84452E-02 9.20940E-05
 -1      6486 2.13839E-02-1.84540E-02 5.52568E-05
 -1      6487 2.13845E-02-1.84584E-02 1.84190E-05
 -1      6488 2.13845E-02-1.84584E-02-1.84190E-05
 -1      6489 2.13839E-02-1.84540E-02-5.52568E-05
 -1      6490 2.13826E-02-1.84452E-02-9.20940E-05
 -1      6491 2.13808E-02-1.84320E-02-1.28930E-04
 -1      6492 2.13782E-02-1.84144E-02-1.65765E-04
 -1      6493 2.31426E-02-2.09336E-02 1.38009E-04
 -1      6494 2.31423E-02-2.09507E-02 1.07342E-04
 -1      6495 2.31420E-02-2.09636E-02 7.66737E-05
 -1      6496 2.31418E-02-2.09721E-02 4.60045E-05
 -1      6497 2.31417E-02-2.09764E-02 1.53349E-05
 -1      6498 2.31417E-02-2.09764E-02-1.53349E-05
 -1      6499 2.31418E-02-2.09721E-02-4.60045E-05
 -1      6500 2.31420E-02-2.09636E-02-7.66737E-05
 -1      6501 2.31423E-02-2.09507E-02-1.07342E-04
 -1      6502 2.31426E-02-2.09336E-02-1.38009E-04
 -1      6503 2.48465E-02-2.36330E-02 1.06021E-04
 -1      6504 2.48431E-02-2.36491E-02 8.24615E-05
 -1      6505 2.48406E-02-2.36612E-02 5.89012E-05
 -1      6506 2.48389E-02-2.36693E-02 3.53407E-05
 -1      6507 2.48380E-02-2.36734E-02 1.17802E-05
 -1      6508 2.48380E-02-2.36734E-02-1.17802E-05
 -1      6509 2.48389E-02-2.36693E-02-3.53407E-05
 -1      6510 2.48406E-02-2.36612E-02-5.89012E-05
 -1      6511 2.48431E-02-2.36491E-02-8.24615E-05
 -1      6512 2.48465E-02-2.36330E-02-1.06021E-04
 -1      6513 2.64659E-02-2.65036E-02 6.94674E-05
 -1      6514 2.64593E-02-2.65182E-02 5.40289E-05
 -1      6515 2.64543E-02-2.65292E-02 3.85910E-05
 -1      6516 2.64510E-02-2.65365E-02 2.31541E-05
 -1      6517 2.64494E-02-2.65402E-02 7.71793E-06
 -1      6518 2.64494E-02-2.65402E-02-7.71793E-06
 -1      6519 2.64510E-02-2.65365E-02-2.31541E-05
 -1      6520 2.64543E-02-2.65292E-02-3.85910E-05
 -1      6521 2.64593E-02-2.65182E-02-5.40289E-05
 -1      6522 2.64659E-02-2.65036E-02-6.94674E-05
 -1      6523 2.79741E-02-2.95313E-02 2.81953E-05
 -1      6524 2.79643E-02-2.95437E-02 2.19252E-05
 -1      6525 2.79569E-02-2.95530E-02 1.56579E-05
 -1      6526 2.79520E-02-2.95592E-02 9.39342E-06
 -1      6527 2.79495E-02-2.95623E-02 3.13090E-06
 -1      6528 2.79495E-02-2.95623E-02-3.13090E-06
 -1      6529 2.79520E-02-2.95592E-02-9.39342E-06
 -1      6530 2.79569E-02-2.95530E-02-1.56579E-05
 -1      6531 2.79643E-02-2.95437E-02-2.19252E-05
 -1      6532 2.79741E-02-2.95313E-02-2.81953E-05
 -1      6533 2.93423E-02-3.26946E-02-1.76244E-05
 -1      6534 2.93293E-02-3.27039E-02-1.37162E-05
 -1      6535 2.93196E-02-3.27109E-02-9.80228E-06
 -1      6536 2.93132E-02-3.27155E-02-5.88353E-06
 -1      6537 2.93099E-02-3.27178E-02-1.96155E-06
 -1      6538 2.93099E-02-3.27178E-02 1.96155E-06
 -1      6539 2.93132E-02-3.27155E-02 5.88353E-06
 -1      6540 2.93196E-02-3.27109E-02 9.80228E-06
 -1      6541 2.93293E-02-3.27039E-02 1.37162E-05
 -1      6542 2.93423E-02-3.26946E-02 1.76244E-05
 -1      6543 3.05400E-02-3.59617E-02-6.73103E-05
 -1      6544 3.05244E-02-3.59670E-02-5.23609E-05
 -1      6545 3.05126E-02-3.59710E-02-3.74048E-05
 -1      6546 3.05048E-02-3.59736E-02-2.24443E-05
 -1      6547 3.05009E-02-3.59749E-02-7.48167E-06
 -1      6548 3.05009E-02-3.59749E-02 7.48167E-06
 -1      6549 3.05048E-02-3.59736E-02 2.24443E-05
 -1      6550 3.05126E-02-3.59710E-02 3.74048E-05
 -1      6551 3.05244E-02-3.59670E-02 5.23609E-05
 -1      6552 3.05400E-02-3.59617E-02 6.73103E-05
 -1      6553 3.15375E-02-3.92889E-02-1.19454E-04
 -1      6554 3.15200E-02-3.92891E-02-9.28989E-05
 -1      6555 3.15068E-02-3.92892E-02-6.63464E-05
 -1      6556 3.14981E-02-3.92893E-02-3.98023E-05
 -1      6557 3.14937E-02-3.92894E-02-1.32663E-05
 -1      6558 3.14937E-02-3.92894E-02 1.32663E-05
 -1      6559 3.14981E-02-3.92893E-02 3.98023E-05
 -1      6560 3.15068E-02-3.92892E-02 6.63464E-05
 -1      6561 3.15200E-02-3.92891E-02 9.28989E-05
 -1      6562 3.15375E-02-3.92889E-02 1.19454E-04
 -1      6563 3.23094E-02-4.26176E-02-1.71730E-04
 -1      6564 3.22912E-02-4.26119E-02-1.33484E-04
 -1      6565 3.22775E-02-4.26076E-02-9.52845E-05
 -1      6566 3.22683E-02-4.26048E-02-5.71411E-05
 -1      6567 3.22637E-02-4.26033E-02-1.90415E-05
 -1      6568 3.22637E-02-4.26033E-02 1.90415E-05
 -1      6569 3.22683E-02-4.26048E-02 5.71411E-05
 -1      6570 3.22775E-02-4.26076E-02 9.52845E-05
 -1      6571 3.22912E-02-4.26119E-02 1.33484E-04
 -1      6572 3.23094E-02-4.26176E-02 1.71730E-04
 -1      6573 3.28400E-02-4.58758E-02-2.20878E-04
 -1      6574 3.28225E-02-4.58636E-02-1.71520E-04
 -1      6575 3.28091E-02-4.58545E-02-1.22331E-04
 -1      6576 3.28001E-02-4.58483E-02-7.33150E-05
 -1      6577 3.27956E-02-4.58452E-02-2.44234E-05
 -1      6578 3.27956E-02-4.58452E-02 2.44234E-05
 -1      6579 3.28001E-02-4.58483E-02 7.33150E-05
 -1      6580 3.28091E-02-4.58545E-02 1.22331E-04
 -1      6581 3.28225E-02-4.58636E-02 1.71520E-04
 -1      6582 3.28400E-02-4.58758E-02 2.20878E-04
 -1      6583 3.31286E-02-4.89805E-02-2.63234E-04
 -1      6584 3.31130E-02-4.89617E-02-2.04155E-04
 -1      6585 3.31008E-02-4.89475E-02-1.45472E-04
 -1      6586 3.30925E-02-4.89380E-02-8.71320E-05
 -1      6587 3.30882E-02-4.89333E-02-2.90179E-05
 -1      6588 3.30882E-02-4.89333E-02 2.90179E-05
 -1      6589 3.30925E-02-4.89380E-02 8.71320E-05
 -1      6590 3.31008E-02-4.89475E-02 1.45472E-04
 -1      6591 3.31130E-02-4.89617E-02 2.04155E-04
 -1      6592 3.31286E-02-4.89805E-02 2.63234E-04
 -1      6593 3.31943E-02-5.18438E-02-2.96734E-04
 -1      6594 3.31812E-02-5.18189E-02-2.30145E-04
 -1      6595 3.31706E-02-5.18006E-02-1.64059E-04
 -1      6596 3.31632E-02-5.17885E-02-9.83105E-05
 -1      6597 3.31594E-02-5.17826E-02-3.27501E-05
 -1      6598 3.31594E-02-5.17826E-02 3.27501E-05
 -1      6599 3.31632E-02-5.17885E-02 9.83105E-05
 -1      6600 3.31706E-02-5.18006E-02 1.64059E-04
 -1      6601 3.31812E-02-5.18189E-02 2.30145E-04
 -1      6602 3.31943E-02-5.18438E-02 2.96734E-04
 -1      6603-8.79692E-05-2.14582E-04 1.44855E-04
 -1      6604-7.18890E-05-2.00025E-04 1.06047E-04
 -1      6605-6.14965E-05-1.93073E-04 7.26182E-05
 -1      6606-5.52182E-05-1.89586E-04 4.24272E-05
 -1      6607-5.22519E-05-1.88099E-04 1.39617E-05
 -1      6608-5.22519E-05-1.88099E-04-1.39617E-05
 -1      6609-5.52182E-05-1.89586E-04-4.24272E-05
 -1      6610-6.14965E-05-1.93073E-04-7.26182E-05
 -1      6611-7.18890E-05-2.00025E-04-1.06047E-04
 -1      6612-8.79692E-05-2.14582E-04-1.44855E-04
 -1      6613 6.27781E-05-4.20394E-04 2.00050E-04
 -1      6614 8.60732E-05-4.08627E-04 1.55376E-04
 -1      6615 1.02359E-04-4.00108E-04 1.10301E-04
 -1      6616 1.12660E-04-3.94878E-04 6.57985E-05
 -1      6617 1.17648E-04-3.92412E-04 2.18609E-05
 -1      6618 1.17648E-04-3.92412E-04-2.18609E-05
 -1      6619 1.12660E-04-3.94878E-04-6.57985E-05
 -1      6620 1.02359E-04-4.00108E-04-1.10301E-04
 -1      6621 8.60732E-05-4.08627E-04-1.55376E-04
 -1      6622 6.27781E-05-4.20394E-04-2.00050E-04
 -1      6623 4.37681E-04-6.23220E-04 2.15169E-04
 -1      6624 4.62864E-04-6.21532E-04 1.68851E-04
 -1      6625 4.81340E-04-6.18579E-04 1.21369E-04
 -1      6626 4.93420E-04-6.16025E-04 7.30856E-05
 -1      6627 4.99382E-04-6.14619E-04 2.44010E-05
 -1      6628 4.99382E-04-6.14619E-04-2.44010E-05
 -1      6629 4.93420E-04-6.16025E-04-7.30856E-05
 -1      6630 4.81340E-04-6.18579E-04-1.21369E-04
 -1      6631 4.62864E-04-6.21532E-04-1.68851E-04
 -1      6632 4.37681E-04-6.23220E-04-2.15169E-04
 -1      6633 1.02080E-03-8.63095E-04 2.22614E-04
 -1      6634 1.04604E-03-8.65311E-04 1.73762E-04
 -1      6635 1.06481E-03-8.66545E-04 1.24588E-04
 -1      6636 1.07725E-03-8.67025E-04 7.49761E-05
 -1      6637 1.08345E-03-8.67148E-04 2.50320E-05
 -1      6638 1.08345E-03-8.67148E-04-2.50320E-05
 -1      6639 1.07725E-03-8.67025E-04-7.49761E-05
 -1      6640 1.06481E-03-8.66545E-04-1.24588E-04
 -1      6641 1.04604E-03-8.65311E-04-1.73762E-04
 -1      6642 1.02080E-03-8.63095E-04-2.22614E-04
 -1      6643 1.79777E-03-1.16097E-03 2.27486E-04
 -1      6644 1.82226E-03-1.16579E-03 1.77181E-04
 -1      6645 1.84060E-03-1.16922E-03 1.26715E-04
 -1      6646 1.85282E-03-1.17143E-03 7.61065E-05
 -1      6647 1.85892E-03-1.17251E-03 2.53835E-05
 -1      6648 1.85892E-03-1.17251E-03-2.53835E-05
 -1      6649 1.85282E-03-1.17143E-03-7.61065E-05
 -1      6650 1.84060E-03-1.16922E-03-1.26715E-04
 -1      6651 1.82226E-03-1.16579E-03-1.77181E-04
 -1      6652 1.79777E-03-1.16097E-03-2.27486E-04
 -1      6653 2.75438E-03-1.53806E-03 2.31172E-04
 -1      6654 2.77790E-03-1.54467E-03 1.79847E-04
 -1      6655 2.79554E-03-1.54961E-03 1.28503E-04
 -1      6656 2.80730E-03-1.55289E-03 7.71213E-05
 -1      6657 2.81318E-03-1.55452E-03 2.57106E-05
 -1      6658 2.81318E-03-1.55452E-03-2.57106E-05
 -1      6659 2.80730E-03-1.55289E-03-7.71213E-05
 -1      6660 2.79554E-03-1.54961E-03-1.28503E-04
 -1      6661 2.77790E-03-1.54467E-03-1.79847E-04
 -1      6662 2.75438E-03-1.53806E-03-2.31172E-04
 -1      6663 3.87659E-03-2.01426E-03 2.33430E-04
 -1      6664 3.89901E-03-2.02242E-03 1.81552E-04
 -1      6665 3.91583E-03-2.02855E-03 1.29679E-04
 -1      6666 3.92704E-03-2.03264E-03 7.78085E-05
 -1      6667 3.93265E-03-2.03469E-03 2.59365E-05
 -1      6668 3.93265E-03-2.03469E-03-2.59365E-05
 -1      6669 3.92704E-03-2.03264E-03-7.78085E-05
 -1      6670 3.91583E-03-2.02855E-03-1.29679E-04
 -1      6671 3.89901E-03-2.02242E-03-1.81552E-04
 -1      6672 3.87659E-03-2.01426E-03-2.33430E-04
 -1      6673 5.15010E-03-2.60801E-03 2.34018E-04
 -1      6674 5.17133E-03-2.61760E-03 1.82003E-04
 -1      6675 5.18726E-03-2.62480E-03 1.29995E-04
 -1      6676 5.19787E-03-2.62960E-03 7.79944E-05
 -1      6677 5.20318E-03-2.63200E-03 2.59977E-05
 -1      6678 5.20318E-03-2.63200E-03-2.59977E-05
 -1      6679 5.19787E-03-2.62960E-03-7.79944E-05
 -1      6680 5.18726E-03-2.62480E-03-1.29995E-04
 -1      6681 5.17133E-03-2.61760E-03-1.82003E-04
 -1      6682 5.15010E-03-2.60801E-03-2.34018E-04
 -1      6683 6.56027E-03-3.33595E-03 2.32833E-04
 -1      6684 6.58020E-03-3.34685E-03 1.81086E-04
 -1      6685 6.59515E-03-3.35502E-03 1.29343E-04
 -1      6686 6.60511E-03-3.36048E-03 7.76036E-05
 -1      6687 6.61010E-03-3.36321E-03 2.58675E-05
 -1      6688 6.61010E-03-3.36321E-03-2.58675E-05
 -1      6689 6.60511E-03-3.36048E-03-7.76036E-05
 -1      6690 6.59515E-03-3.35502E-03-1.29343E-04
 -1      6691 6.58020E-03-3.34685E-03-1.81086E-04
 -1      6692 6.56027E-03-3.33595E-03-2.32833E-04
 -1      6693 8.09187E-03-4.21273E-03 2.29857E-04
 -1      6694 8.11039E-03-4.22482E-03 1.78775E-04
 -1      6695 8.12429E-03-4.23389E-03 1.27695E-04
 -1      6696 8.13355E-03-4.23994E-03 7.66161E-05
 -1      6697 8.13818E-03-4.24297E-03 2.55386E-05
 -1      6698 8.13818E-03-4.24297E-03-2.55386E-05
 -1      6699 8.13355E-03-4.23994E-03-7.66161E-05
 -1      6700 8.12429E-03-4.23389E-03-1.27695E-04
 -1      6701 8.11039E-03-4.22482E-03-1.78775E-04
 -1      6702 8.09187E-03-4.21273E-03-2.29857E-04
 -1      6703 9.72907E-03-5.25104E-03 2.25084E-04
 -1      6704 9.74607E-03-5.26419E-03 1.75065E-04
 -1      6705 9.75882E-03-5.27405E-03 1.25046E-04
 -1      6706 9.76732E-03-5.28063E-03 7.50276E-05
 -1      6707 9.77157E-03-5.28391E-03 2.50092E-05
 -1      6708 9.77157E-03-5.28391E-03-2.50092E-05
 -1      6709 9.76732E-03-5.28063E-03-7.50276E-05
 -1      6710 9.75882E-03-5.27405E-03-1.25046E-04
 -1      6711 9.74607E-03-5.26419E-03-1.75065E-04
 -1      6712 9.72907E-03-5.25104E-03-2.25084E-04
 -1      6713 1.14553E-02-6.46155E-03 2.18481E-04
 -1      6714 1.14707E-02-6.47561E-03 1.69931E-04
 -1      6715 1.14822E-02-6.48616E-03 1.21380E-04
 -1      6716 1.14899E-02-6.49319E-03 7.28279E-05
 -1      6717 1.14938E-02-6.49670E-03 2.42760E-05
 -1      6718 1.14938E-02-6.49670E-03-2.42760E-05
 -1      6719 1.14899E-02-6.49319E-03-7.28279E-05
 -1      6720 1.14822E-02-6.48616E-03-1.21380E-04
 -1      6721 1.14707E-02-6.47561E-03-1.69931E-04
 -1      6722 1.14553E-02-6.46155E-03-2.18481E-04
 -1      6723 1.32535E-02-7.85296E-03 2.09974E-04
 -1      6724 1.32671E-02-7.86778E-03 1.63315E-04
 -1      6725 1.32774E-02-7.87889E-03 1.16654E-04
 -1      6726 1.32842E-02-7.88630E-03 6.99928E-05
 -1      6727 1.32876E-02-7.89001E-03 2.33310E-05
 -1      6728 1.32876E-02-7.89001E-03-2.33310E-05
 -1      6729 1.32842E-02-7.88630E-03-6.99928E-05
 -1      6730 1.32774E-02-7.87889E-03-1.16654E-04
 -1      6731 1.32671E-02-7.86778E-03-1.63315E-04
 -1      6732 1.32535E-02-7.85296E-03-2.09974E-04
 -1      6733 1.51058E-02-9.43202E-03 1.99438E-04
 -1      6734 1.51176E-02-9.44743E-03 1.55120E-04
 -1      6735 1.51264E-02-9.45899E-03 1.10801E-04
 -1      6736 1.51322E-02-9.46670E-03 6.64810E-05
 -1      6737 1.51352E-02-9.47055E-03 2.21604E-05
 -1      6738 1.51352E-02-9.47055E-03-2.21604E-05
 -1      6739 1.51322E-02-9.46670E-03-6.64810E-05
 -1      6740 1.51264E-02-9.45899E-03-1.10801E-04
 -1      6741 1.51176E-02-9.44743E-03-1.55120E-04
 -1      6742 1.51058E-02-9.43202E-03-1.99438E-04
 -1      6743 1.69938E-02-1.12035E-02 1.86695E-04
 -1      6744 1.70035E-02-1.12193E-02 1.45209E-04
 -1      6745 1.70108E-02-1.12312E-02 1.03721E-04
 -1      6746 1.70157E-02-1.12391E-02 6.22331E-05
 -1      6747 1.70181E-02-1.12431E-02 2.07444E-05
 -1      6748 1.70181E-02-1.12431E-02-2.07444E-05
 -1      6749 1.70157E-02-1.12391E-02-6.22331E-05
 -1      6750 1.70108E-02-1.12312E-02-1.03721E-04
 -1      6751 1.70035E-02-1.12193E-02-1.45209E-04
 -1      6752 1.69938E-02-1.12035E-02-1.86695E-04
 -1      6753 1.88984E-02-1.31703E-02 1.71512E-04
 -1      6754 1.89059E-02-1.31863E-02 1.33400E-04
 -1      6755 1.89116E-02-1.31984E-02 9.52867E-05
 -1      6756 1.89154E-02-1.32064E-02 5.71724E-05
 -1      6757 1.89173E-02-1.32104E-02 1.90575E-05
 -1      6758 1.89173E-02-1.32104E-02-1.90575E-05
 -1      6759 1.89154E-02-1.32064E-02-5.71724E-05
 -1      6760 1.89116E-02-1.31984E-02-9.52867E-05
 -1      6761 1.89059E-02-1.31863E-02-1.33400E-04
 -1      6762 1.88984E-02-1.31703E-02-1.71512E-04
 -1      6763 2.07996E-02-1.53332E-02 1.53614E-04
 -1      6764 2.08049E-02-1.53492E-02 1.19479E-04
 -1      6765 2.08088E-02-1.53613E-02 8.53433E-05
 -1      6766 2.08114E-02-1.53693E-02 5.12064E-05
 -1      6767 2.08128E-02-1.53733E-02 1.70689E-05
 -1      6768 2.08128E-02-1.53733E-02-1.70689E-05
 -1      6769 2.08114E-02-1.53693E-02-5.12064E-05
 -1      6770 2.08088E-02-1.53613E-02-8.53433E-05
 -1      6771 2.08049E-02-1.53492E-02-1.19479E-04
 -1      6772 2.07996E-02-1.53332E-02-1.53614E-04
 -1      6773 2.26767E-02-1.76908E-02 1.32691E-04
 -1      6774 2.26795E-02-1.77065E-02 1.03206E-04
 -1      6775 2.26816E-02-1.77183E-02 7.37194E-05
 -1      6776 2.26830E-02-1.77262E-02 4.42320E-05
 -1      6777 2.26837E-02-1.77302E-02 1.47441E-05
 -1      6778 2.26837E-02-1.77302E-02-1.47441E-05
 -1      6779 2.26830E-02-1.77262E-02-4.42320E-05
 -1      6780 2.26816E-02-1.77183E-02-7.37194E-05
 -1      6781 2.26795E-02-1.77065E-02-1.03206E-04
 -1      6782 2.26767E-02-1.76908E-02-1.32691E-04
 -1      6783 2.45077E-02-2.02390E-02 1.08428E-04
 -1      6784 2.45079E-02-2.02542E-02 8.43341E-05
 -1      6785 2.45080E-02-2.02655E-02 6.02394E-05
 -1      6786 2.45081E-02-2.02731E-02 3.61440E-05
 -1      6787 2.45082E-02-2.02769E-02 1.20480E-05
 -1      6788 2.45082E-02-2.02769E-02-1.20480E-05
 -1      6789 2.45081E-02-2.02731E-02-3.61440E-05
 -1      6790 2.45080E-02-2.02655E-02-6.02394E-05
 -1      6791 2.45079E-02-2.02542E-02-8.43341E-05
 -1      6792 2.45077E-02-2.02390E-02-1.08428E-04
 -1      6793 2.62690E-02-2.29707E-02 8.05450E-05
 -1      6794 2.62665E-02-2.29848E-02 6.26469E-05
 -1      6795 2.62646E-02-2.29954E-02 4.47483E-05
 -1      6796 2.62633E-02-2.30025E-02 2.68491E-05
 -1      6797 2.62627E-02-2.30060E-02 8.94974E-06
 -1      6798 2.62627E-02-2.30060E-02-8.94974E-06
 -1      6799 2.62633E-02-2.30025E-02-2.68491E-05
 -1      6800 2.62646E-02-2.29954E-02-4.47483E-05
 -1      6801 2.62665E-02-2.29848E-02-6.26469E-05
 -1      6802 2.62690E-02-2.29707E-02-8.05450E-05
 -1      6803 2.79353E-02-2.58745E-02 4.88636E-05
 -1      6804 2.79300E-02-2.58871E-02 3.80048E-05
 -1      6805 2.79260E-02-2.58965E-02 2.71461E-05
 -1      6806 2.79233E-02-2.59027E-02 1.62875E-05
 -1      6807 2.79220E-02-2.59059E-02 5.42916E-06
 -1      6808 2.79220E-02-2.59059E-02-5.42916E-06
 -1      6809 2.79233E-02-2.59027E-02-1.62875E-05
 -1      6810 2.79260E-02-2.58965E-02-2.71461E-05
 -1      6811 2.79300E-02-2.58871E-02-3.80048E-05
 -1      6812 2.79353E-02-2.58745E-02-4.88636E-05
 -1      6813 2.94795E-02-2.89333E-02 1.33945E-05
 -1      6814 2.94715E-02-2.89437E-02 1.04157E-05
 -1      6815 2.94654E-02-2.89515E-02 7.43835E-06
 -1      6816 2.94614E-02-2.89566E-02 4.46236E-06
 -1      6817 2.94594E-02-2.89592E-02 1.48734E-06
 -1      6818 2.94594E-02-2.89592E-02-1.48734E-06
 -1      6819 2.94614E-02-2.89566E-02-4.46236E-06
 -1      6820 2.94654E-02-2.89515E-02-7.43835E-06
 -1      6821 2.94715E-02-2.89437E-02-1.04157E-05
 -1      6822 2.94795E-02-2.89333E-02-1.33945E-05
 -1      6823 3.08732E-02-3.21228E-02-2.55449E-05
 -1      6824 3.08627E-02-3.21303E-02-1.98734E-05
 -1      6825 3.08547E-02-3.21359E-02-1.41984E-05
 -1      6826 3.08494E-02-3.21397E-02-8.52039E-06
 -1      6827 3.08468E-02-3.21415E-02-2.84037E-06
 -1      6828 3.08468E-02-3.21415E-02 2.84037E-06
 -1      6829 3.08494E-02-3.21397E-02 8.52039E-06
 -1      6830 3.08547E-02-3.21359E-02 1.41984E-05
 -1      6831 3.08627E-02-3.21303E-02 1.98734E-05
 -1      6832 3.08732E-02-3.21228E-02 2.55449E-05
 -1      6833 3.20878E-02-3.54095E-02-6.71881E-05
 -1      6834 3.20752E-02-3.54134E-02-5.22641E-05
 -1      6835 3.20657E-02-3.54162E-02-3.73350E-05
 -1      6836 3.20594E-02-3.54182E-02-2.24023E-05
 -1      6837 3.20562E-02-3.54191E-02-7.46766E-06
 -1      6838 3.20562E-02-3.54191E-02 7.46766E-06
 -1      6839 3.20594E-02-3.54182E-02 2.24023E-05
 -1      6840 3.20657E-02-3.54162E-02 3.73350E-05
 -1      6841 3.20752E-02-3.54134E-02 5.22641E-05
 -1      6842 3.20878E-02-3.54095E-02 6.71881E-05
 -1      6843 3.30966E-02-3.87490E-02-1.10165E-04
 -1      6844 3.30826E-02-3.87484E-02-8.56810E-05
 -1      6845 3.30721E-02-3.87480E-02-6.11964E-05
 -1      6846 3.30651E-02-3.87477E-02-3.67151E-05
 -1      6847 3.30617E-02-3.87476E-02-1.22378E-05
 -1      6848 3.30617E-02-3.87476E-02 1.22378E-05
 -1      6849 3.30651E-02-3.87477E-02 3.67151E-05
 -1      6850 3.30721E-02-3.87480E-02 6.11964E-05
 -1      6851 3.30826E-02-3.87484E-02 8.56810E-05
 -1      6852 3.30966E-02-3.87490E-02 1.10165E-04
 -1      6853 3.38783E-02-4.20850E-02-1.52373E-04
 -1      6854 3.38640E-02-4.20795E-02-1.18460E-04
 -1      6855 3.38533E-02-4.20753E-02-8.45751E-05
 -1      6856 3.38462E-02-4.20725E-02-5.07259E-05
 -1      6857 3.38426E-02-4.20711E-02-1.69051E-05
 -1      6858 3.38426E-02-4.20711E-02 1.69051E-05
 -1      6859 3.38462E-02-4.20725E-02 5.07259E-05
 -1      6860 3.38533E-02-4.20753E-02 8.45751E-05
 -1      6861 3.38640E-02-4.20795E-02 1.18460E-04
 -1      6862 3.38783E-02-4.20850E-02 1.52373E-04
 -1      6863 3.44212E-02-4.53505E-02-1.90967E-04
 -1      6864 3.44080E-02-4.53396E-02-1.48336E-04
 -1      6865 3.43979E-02-4.53314E-02-1.05823E-04
 -1      6866 3.43911E-02-4.53259E-02-6.34335E-05
 -1      6867 3.43876E-02-4.53232E-02-2.11336E-05
 -1      6868 3.43876E-02-4.53232E-02 2.11336E-05
 -1      6869 3.43911E-02-4.53259E-02 6.34335E-05
 -1      6870 3.43979E-02-4.53314E-02 1.05823E-04
 -1      6871 3.44080E-02-4.53396E-02 1.48336E-04
 -1      6872 3.44212E-02-4.53505E-02 1.90967E-04
 -1      6873 3.47280E-02-4.84706E-02-2.22788E-04
 -1      6874 3.47167E-02-4.84544E-02-1.72828E-04
 -1      6875 3.47079E-02-4.84422E-02-1.23171E-04
 -1      6876 3.47018E-02-4.84340E-02-7.37819E-05
 -1      6877 3.46987E-02-4.84299E-02-2.45730E-05
 -1      6878 3.46987E-02-4.84299E-02 2.45730E-05
 -1      6879 3.47018E-02-4.84340E-02 7.37819E-05
 -1      6880 3.47079E-02-4.84422E-02 1.23171E-04
 -1      6881 3.47167E-02-4.84544E-02 1.72828E-04
 -1      6882 3.47280E-02-4.84706E-02 2.22788E-04
 -1      6883 3.48185E-02-5.13678E-02-2.45997E-04
 -1      6884 3.48095E-02-5.13467E-02-1.90766E-04
 -1      6885 3.48022E-02-5.13311E-02-1.35967E-04
 -1      6886 3.47971E-02-5.13208E-02-8.14658E-05
 -1      6887 3.47944E-02-5.13157E-02-2.71367E-05
 -1      6888 3.47944E-02-5.13157E-02 2.71367E-05
 -1      6889 3.47971E-02-5.13208E-02 8.14658E-05
 -1      6890 3.48022E-02-5.13311E-02 1.35967E-04
 -1      6891 3.48095E-02-5.13467E-02 1.90766E-04
 -1      6892 3.48185E-02-5.13678E-02 2.45997E-04
 -1      6893-4.03264E-05-1.41564E-04 1.03140E-04
 -1      6894-2.46801E-05-1.31019E-04 7.57395E-05
 -1      6895-1.45273E-05-1.25899E-04 5.19685E-05
 -1      6896-8.38080E-06-1.23305E-04 3.03997E-05
 -1      6897-5.47349E-06-1.22193E-04 1.00095E-05
 -1      6898-5.47349E-06-1.22193E-04-1.00095E-05
 -1      6899-8.38080E-06-1.23305E-04-3.03997E-05
 -1      6900-1.45273E-05-1.25899E-04-5.19685E-05
 -1      6901-2.46801E-05-1.31019E-04-7.57395E-05
 -1      6902-4.03264E-05-1.41564E-04-1.03140E-04
 -1      6903 1.61414E-04-2.68600E-04 1.44706E-04
 -1      6904 1.83762E-04-2.60376E-04 1.12484E-04
 -1      6905 1.99484E-04-2.54346E-04 7.99304E-05
 -1      6906 2.09471E-04-2.50619E-04 4.77169E-05
 -1      6907 2.14318E-04-2.48855E-04 1.58596E-05
 -1      6908 2.14318E-04-2.48855E-04-1.58596E-05
 -1      6909 2.09471E-04-2.50619E-04-4.77169E-05
 -1      6910 1.99484E-04-2.54346E-04-7.99304E-05
 -1      6911 1.83762E-04-2.60376E-04-1.12484E-04
 -1      6912 1.61414E-04-2.68600E-04-1.44706E-04
 -1      6913 5.90561E-04-3.95123E-04 1.58860E-04
 -1      6914 6.14605E-04-3.94136E-04 1.24563E-04
 -1      6915 6.32277E-04-3.92271E-04 8.95001E-05
 -1      6916 6.43858E-04-3.90619E-04 5.38879E-05
 -1      6917 6.49582E-04-3.89701E-04 1.79910E-05
 -1      6918 6.49582E-04-3.89701E-04-1.79910E-05
 -1      6919 6.43858E-04-3.90619E-04-5.38879E-05
 -1      6920 6.32277E-04-3.92271E-04-8.95001E-05
 -1      6921 6.14605E-04-3.94136E-04-1.24563E-04
 -1      6922 5.90561E-04-3.95123E-04-1.58860E-04
 -1      6923 1.23133E-03-5.58092E-04 1.67526E-04
 -1      6924 1.25536E-03-5.60147E-04 1.30688E-04
 -1      6925 1.27326E-03-5.61429E-04 9.36511E-05
 -1      6926 1.28514E-03-5.62066E-04 5.63360E-05
 -1      6927 1.29106E-03-5.62308E-04 1.88049E-05
 -1      6928 1.29106E-03-5.62308E-04-1.88049E-05
 -1      6929 1.28514E-03-5.62066E-04-5.63360E-05
 -1      6930 1.27326E-03-5.61429E-04-9.36511E-05
 -1      6931 1.25536E-03-5.60147E-04-1.30688E-04
 -1      6932 1.23133E-03-5.58092E-04-1.67526E-04
 -1      6933 2.06951E-03-7.80787E-04 1.73926E-04
 -1      6934 2.09283E-03-7.85054E-04 1.35425E-04
 -1      6935 2.11031E-03-7.88145E-04 9.68269E-05
 -1      6936 2.12195E-03-7.90162E-04 5.81425E-05
 -1      6937 2.12777E-03-7.91155E-04 1.93897E-05
 -1      6938 2.12777E-03-7.91155E-04-1.93897E-05
 -1      6939 2.12195E-03-7.90162E-04-5.81425E-05
 -1      6940 2.11031E-03-7.88145E-04-9.68269E-05
 -1      6941 2.09283E-03-7.85054E-04-1.35425E-04
 -1      6942 2.06951E-03-7.80787E-04-1.73926E-04
 -1      6943 3.09105E-03-1.08623E-03 1.78936E-04
 -1      6944 3.11347E-03-1.09216E-03 1.39195E-04
 -1      6945 3.13029E-03-1.09661E-03 9.94466E-05
 -1      6946 3.14151E-03-1.09956E-03 5.96782E-05
 -1      6947 3.14712E-03-1.10103E-03 1.98946E-05
 -1      6948 3.14712E-03-1.10103E-03-1.98946E-05
 -1      6949 3.14151E-03-1.09956E-03-5.96782E-05
 -1      6950 3.13029E-03-1.09661E-03-9.94466E-05
 -1      6951 3.11347E-03-1.09216E-03-1.39195E-04
 -1      6952 3.09105E-03-1.08623E-03-1.78936E-04
 -1      6953 4.28198E-03-1.49585E-03 1.82388E-04
 -1      6954 4.30340E-03-1.50326E-03 1.41851E-04
 -1      6955 4.31946E-03-1.50882E-03 1.01319E-04
 -1      6956 4.33017E-03-1.51254E-03 6.07908E-05
 -1      6957 4.33553E-03-1.51439E-03 2.02636E-05
 -1      6958 4.33553E-03-1.51439E-03-2.02636E-05
 -1      6959 4.33017E-03-1.51254E-03-6.07908E-05
 -1      6960 4.31946E-03-1.50882E-03-1.01319E-04
 -1      6961 4.30340E-03-1.50326E-03-1.41851E-04
 -1      6962 4.28198E-03-1.49585E-03-1.82388E-04
 -1      6963 5.62801E-03-2.02925E-03 1.84151E-04
 -1      6964 5.64832E-03-2.03802E-03 1.43220E-04
 -1      6965 5.66356E-03-2.04461E-03 1.02295E-04
 -1      6966 5.67371E-03-2.04900E-03 6.13746E-05
 -1      6967 5.67879E-03-2.05120E-03 2.04578E-05
 -1      6968 5.67879E-03-2.05120E-03-2.04578E-05
 -1      6969 5.67371E-03-2.04900E-03-6.13746E-05
 -1      6970 5.66356E-03-2.04461E-03-1.02295E-04
 -1      6971 5.64832E-03-2.03802E-03-1.43220E-04
 -1      6972 5.62801E-03-2.02925E-03-1.84151E-04
 -1      6973 7.11430E-03-2.70402E-03 1.84194E-04
 -1      6974 7.13341E-03-2.71404E-03 1.43258E-04
 -1      6975 7.14774E-03-2.72155E-03 1.02324E-04
 -1      6976 7.15729E-03-2.72657E-03 6.13931E-05
 -1      6977 7.16207E-03-2.72908E-03 2.04641E-05
 -1      6978 7.16207E-03-2.72908E-03-2.04641E-05
 -1      6979 7.15729E-03-2.72657E-03-6.13931E-05
 -1      6980 7.14774E-03-2.72155E-03-1.02324E-04
 -1      6981 7.13341E-03-2.71404E-03-1.43258E-04
 -1      6982 7.11430E-03-2.70402E-03-1.84194E-04
 -1      6983 8.72532E-03-3.53555E-03 1.82540E-04
 -1      6984 8.74311E-03-3.54670E-03 1.41975E-04
 -1      6985 8.75645E-03-3.55505E-03 1.01409E-04
 -1      6986 8.76535E-03-3.56063E-03 6.08452E-05
 -1      6987 8.76980E-03-3.56341E-03 2.02816E-05
 -1      6988 8.76980E-03-3.56341E-03-2.02816E-05
 -1      6989 8.76535E-03-3.56063E-03-6.08452E-05
 -1      6990 8.75645E-03-3.55505E-03-1.01409E-04
 -1      6991 8.74311E-03-3.54670E-03-1.41975E-04
 -1      6992 8.72532E-03-3.53555E-03-1.82540E-04
 -1      6993 1.04447E-02-4.53712E-03 1.79208E-04
 -1      6994 1.04611E-02-4.54925E-03 1.39384E-04
 -1      6995 1.04733E-02-4.55834E-03 9.95602E-05
 -1      6996 1.04815E-02-4.56440E-03 5.97361E-05
 -1      6997 1.04856E-02-4.56744E-03 1.99120E-05
 -1      6998 1.04856E-02-4.56744E-03-1.99120E-05
 -1      6999 1.04815E-02-4.56440E-03-5.97361E-05
 -1      7000 1.04733E-02-4.55834E-03-9.95602E-05
 -1      7001 1.04611E-02-4.54925E-03-1.39384E-04
 -1      7002 1.04447E-02-4.53712E-03-1.79208E-04
 -1      7003 1.22552E-02-5.71983E-03 1.74185E-04
 -1      7004 1.22700E-02-5.73279E-03 1.35478E-04
 -1      7005 1.22812E-02-5.74251E-03 9.67704E-05
 -1      7006 1.22886E-02-5.74899E-03 5.80624E-05
 -1      7007 1.22923E-02-5.75223E-03 1.93542E-05
 -1      7008 1.22923E-02-5.75223E-03-1.93542E-05
 -1      7009 1.22886E-02-5.74899E-03-5.80624E-05
 -1      7010 1.22812E-02-5.74251E-03-9.67704E-05
 -1      7011 1.22700E-02-5.73279E-03-1.35478E-04
 -1      7012 1.22552E-02-5.71983E-03-1.74185E-04
 -1      7013 1.41388E-02-7.09264E-03 1.67416E-04
 -1      7014 1.41519E-02-7.10628E-03 1.30213E-04
 -1      7015 1.41618E-02-7.11651E-03 9.30102E-05
 -1      7016 1.41684E-02-7.12333E-03 5.58064E-05
 -1      7017 1.41717E-02-7.12674E-03 1.86022E-05
 -1      7018 1.41717E-02-7.12674E-03-1.86022E-05
 -1      7019 1.41684E-02-7.12333E-03-5.58064E-05
 -1      7020 1.41618E-02-7.11651E-03-9.30102E-05
 -1      7021 1.41519E-02-7.10628E-03-1.30213E-04
 -1      7022 1.41388E-02-7.09264E-03-1.67416E-04
 -1      7023 1.60765E-02-8.66238E-03 1.58800E-04
 -1      7024 1.60879E-02-8.67653E-03 1.23512E-04
 -1      7025 1.60965E-02-8.68715E-03 8.82233E-05
 -1      7026 1.61022E-02-8.69422E-03 5.29343E-05
 -1      7027 1.61050E-02-8.69776E-03 1.76448E-05
 -1      7028 1.61050E-02-8.69776E-03-1.76448E-05
 -1      7029 1.61022E-02-8.69422E-03-5.29343E-05
 -1      7030 1.60965E-02-8.68715E-03-8.82233E-05
 -1      7031 1.60879E-02-8.67653E-03-1.23512E-04
 -1      7032 1.60765E-02-8.66238E-03-1.58800E-04
 -1      7033 1.80486E-02-1.04337E-02 1.48187E-04
 -1      7034 1.80582E-02-1.04482E-02 1.15257E-04
 -1      7035 1.80653E-02-1.04591E-02 8.23273E-05
 -1      7036 1.80701E-02-1.04663E-02 4.93967E-05
 -1      7037 1.80725E-02-1.04699E-02 1.64656E-05
 -1      7038 1.80725E-02-1.04699E-02-1.64656E-05
 -1      7039 1.80701E-02-1.04663E-02-4.93967E-05
 -1      7040 1.80653E-02-1.04591E-02-8.23273E-05
 -1      7041 1.80582E-02-1.04482E-02-1.15257E-04
 -1      7042 1.80486E-02-1.04337E-02-1.48187E-04
 -1      7043 2.00347E-02-1.24090E-02 1.35386E-04
 -1      7044 2.00422E-02-1.24237E-02 1.05301E-04
 -1      7045 2.00479E-02-1.24346E-02 7.52156E-05
 -1      7046 2.00517E-02-1.24419E-02 4.51296E-05
 -1      7047 2.00535E-02-1.24456E-02 1.50433E-05
 -1      7048 2.00535E-02-1.24456E-02-1.50433E-05
 -1      7049 2.00517E-02-1.24419E-02-4.51296E-05
 -1      7050 2.00479E-02-1.24346E-02-7.52156E-05
 -1      7051 2.00422E-02-1.24237E-02-1.05301E-04
 -1      7052 2.00347E-02-1.24090E-02-1.35386E-04
 -1      7053 2.20133E-02-1.45885E-02 1.20170E-04
 -1      7054 2.20187E-02-1.46030E-02 9.34668E-05
 -1      7055 2.20227E-02-1.46139E-02 6.67627E-05
 -1      7056 2.20254E-02-1.46211E-02 4.00579E-05
 -1      7057 2.20268E-02-1.46247E-02 1.33527E-05
 -1      7058 2.20268E-02-1.46247E-02-1.33527E-05
 -1      7059 2.20254E-02-1.46211E-02-4.00579E-05
 -1      7060 2.20227E-02-1.46139E-02-6.67627E-05
 -1      7061 2.20187E-02-1.46030E-02-9.34668E-05
 -1      7062 2.20133E-02-1.45885E-02-1.20170E-04
 -1      7063 2.39620E-02-1.69694E-02 1.02297E-04
 -1      7064 2.39652E-02-1.69836E-02 7.95656E-05
 -1      7065 2.39675E-02-1.69942E-02 5.68332E-05
 -1      7066 2.39691E-02-1.70012E-02 3.41002E-05
 -1      7067 2.39699E-02-1.70048E-02 1.13668E-05
 -1      7068 2.39699E-02-1.70048E-02-1.13668E-05
 -1      7069 2.39691E-02-1.70012E-02-3.41002E-05
 -1      7070 2.39675E-02-1.69942E-02-5.68332E-05
 -1      7071 2.39652E-02-1.69836E-02-7.95656E-05
 -1      7072 2.39620E-02-1.69694E-02-1.02297E-04
 -1      7073 2.58573E-02-1.95464E-02 8.15336E-05
 -1      7074 2.58581E-02-1.95598E-02 6.34159E-05
 -1      7075 2.58587E-02-1.95699E-02 4.52976E-05
 -1      7076 2.58591E-02-1.95766E-02 2.71788E-05
 -1      7077 2.58593E-02-1.95800E-02 9.05966E-06
 -1      7078 2.58593E-02-1.95800E-02-9.05966E-06
 -1      7079 2.58591E-02-1.95766E-02-2.71788E-05
 -1      7080 2.58587E-02-1.95699E-02-4.52976E-05
 -1      7081 2.58581E-02-1.95598E-02-6.34159E-05
 -1      7082 2.58573E-02-1.95464E-02-8.15336E-05
 -1      7083 2.76744E-02-2.23102E-02 5.76972E-05
 -1      7084 2.76727E-02-2.23226E-02 4.48762E-05
 -1      7085 2.76715E-02-2.23318E-02 3.20549E-05
 -1      7086 2.76706E-02-2.23380E-02 1.92331E-05
 -1      7087 2.76702E-02-2.23411E-02 6.41107E-06
 -1      7088 2.76702E-02-2.23411E-02-6.41107E-06
 -1      7089 2.76706E-02-2.23380E-02-1.92331E-05
 -1      7090 2.76715E-02-2.23318E-02-3.20549E-05
 -1      7091 2.76727E-02-2.23226E-02-4.48762E-05
 -1      7092 2.76744E-02-2.23102E-02-5.76972E-05
 -1      7093 2.93870E-02-2.52472E-02 3.07166E-05
 -1      7094 2.93829E-02-2.52580E-02 2.38907E-05
 -1      7095 2.93798E-02-2.52661E-02 1.70649E-05
 -1      7096 2.93778E-02-2.52715E-02 1.02389E-05
 -1      7097 2.93768E-02-2.52742E-02 3.41299E-06
 -1      7098 2.93768E-02-2.52742E-02-3.41299E-06
 -1      7099 2.93778E-02-2.52715E-02-1.02389E-05
 -1      7100 2.93798E-02-2.52661E-02-1.70649E-05
 -1      7101 2.93829E-02-2.52580E-02-2.38907E-05
 -1      7102 2.93870E-02-2.52472E-02-3.07166E-05
 -1      7103 3.09679E-02-2.83380E-02 7.07773E-07
 -1      7104 3.09615E-02-2.83467E-02 5.49333E-07
 -1      7105 3.09567E-02-2.83533E-02 3.91661E-07
 -1      7106 3.09534E-02-2.83577E-02 2.34674E-07
 -1      7107 3.09518E-02-2.83599E-02 7.81672E-08
 -1      7108 3.09518E-02-2.83599E-02-7.81671E-08
 -1      7109 3.09534E-02-2.83577E-02-2.34674E-07
 -1      7110 3.09567E-02-2.83533E-02-3.91661E-07
 -1      7111 3.09615E-02-2.83467E-02-5.49333E-07
 -1      7112 3.09679E-02-2.83380E-02-7.07773E-07
 -1      7113 3.23893E-02-3.15562E-02-3.19305E-05
 -1      7114 3.23808E-02-3.15623E-02-2.48381E-05
 -1      7115 3.23744E-02-3.15669E-02-1.77435E-05
 -1      7116 3.23702E-02-3.15699E-02-1.06470E-05
 -1      7117 3.23680E-02-3.15714E-02-3.54915E-06
 -1      7118 3.23680E-02-3.15714E-02 3.54915E-06
 -1      7119 3.23702E-02-3.15699E-02 1.06470E-05
 -1      7120 3.23744E-02-3.15669E-02 1.77435E-05
 -1      7121 3.23808E-02-3.15623E-02 2.48381E-05
 -1      7122 3.23893E-02-3.15562E-02 3.19305E-05
 -1      7123 3.36242E-02-3.48671E-02-6.64082E-05
 -1      7124 3.36141E-02-3.48699E-02-5.16561E-05
 -1      7125 3.36065E-02-3.48720E-02-3.69002E-05
 -1      7126 3.36014E-02-3.48734E-02-2.21413E-05
 -1      7127 3.35989E-02-3.48741E-02-7.38065E-06
 -1      7128 3.35989E-02-3.48741E-02 7.38065E-06
 -1      7129 3.36014E-02-3.48734E-02 2.21413E-05
 -1      7130 3.36065E-02-3.48720E-02 3.69002E-05
 -1      7131 3.36141E-02-3.48699E-02 5.16561E-05
 -1      7132 3.36242E-02-3.48671E-02 6.64082E-05
 -1      7133 3.46486E-02-3.82262E-02-1.01432E-04
 -1      7134 3.46376E-02-3.82253E-02-7.88927E-05
 -1      7135 3.46293E-02-3.82245E-02-5.63510E-05
 -1      7136 3.46238E-02-3.82240E-02-3.38097E-05
 -1      7137 3.46210E-02-3.82238E-02-1.12697E-05
 -1      7138 3.46210E-02-3.82238E-02 1.12697E-05
 -1      7139 3.46238E-02-3.82240E-02 3.38097E-05
 -1      7140 3.46293E-02-3.82245E-02 5.63510E-05
 -1      7141 3.46376E-02-3.82253E-02 7.88927E-05
 -1      7142 3.46486E-02-3.82262E-02 1.01432E-04
 -1      7143 3.54445E-02-4.15798E-02-1.35113E-04
 -1      7144 3.54335E-02-4.15746E-02-1.05057E-04
 -1      7145 3.54252E-02-4.15707E-02-7.50171E-05
 -1      7146 3.54197E-02-4.15681E-02-4.49985E-05
 -1      7147 3.54169E-02-4.15667E-02-1.49973E-05
 -1      7148 3.54169E-02-4.15667E-02 1.49973E-05
 -1      7149 3.54197E-02-4.15681E-02 4.49985E-05
 -1      7150 3.54252E-02-4.15707E-02 7.50171E-05
 -1      7151 3.54335E-02-4.15746E-02 1.05057E-04
 -1      7152 3.54445E-02-4.15798E-02 1.35113E-04
 -1      7153 3.60035E-02-4.48654E-02-1.64959E-04
 -1      7154 3.59935E-02-4.48558E-02-1.28167E-04
 -1      7155 3.59860E-02-4.48485E-02-9.14552E-05
 -1      7156 3.59809E-02-4.48436E-02-5.48298E-05
 -1      7157 3.59783E-02-4.48412E-02-1.82687E-05
 -1      7158 3.59783E-02-4.48412E-02 1.82687E-05
 -1      7159 3.59809E-02-4.48436E-02 5.48298E-05
 -1      7160 3.59860E-02-4.48485E-02 9.14552E-05
 -1      7161 3.59935E-02-4.48558E-02 1.28167E-04
 -1      7162 3.60035E-02-4.48654E-02 1.64959E-04
 -1      7163 3.63300E-02-4.80151E-02-1.88203E-04
 -1      7164 3.63221E-02-4.80011E-02-1.46031E-04
 -1      7165 3.63158E-02-4.79905E-02-1.04089E-04
 -1      7166 3.63115E-02-4.79835E-02-6.23573E-05
 -1      7167 3.63093E-02-4.79799E-02-2.07690E-05
 -1      7168 3.63093E-02-4.79799E-02 2.07690E-05
 -1      7169 3.63115E-02-4.79835E-02 6.23573E-05
 -1      7170 3.63158E-02-4.79905E-02 1.04089E-04
 -1      7171 3.63221E-02-4.80011E-02 1.46031E-04
 -1      7172 3.63300E-02-4.80151E-02 1.88203E-04
 -1      7173 3.64446E-02-5.09595E-02-2.03132E-04
 -1      7174 3.64389E-02-5.09416E-02-1.57499E-04
 -1      7175 3.64340E-02-5.09283E-02-1.12238E-04
 -1      7176 3.64306E-02-5.09195E-02-6.72404E-05
 -1      7177 3.64288E-02-5.09151E-02-2.23967E-05
 -1      7178 3.64288E-02-5.09151E-02 2.23967E-05
 -1      7179 3.64306E-02-5.09195E-02 6.72404E-05
 -1      7180 3.64340E-02-5.09283E-02 1.12238E-04
 -1      7181 3.64389E-02-5.09416E-02 1.57499E-04
 -1      7182 3.64446E-02-5.09595E-02 2.03132E-04
 -1      7183 8.93489E-06-6.71635E-05 6.20397E-05
 -1      7184 2.41918E-05-6.05177E-05 4.57155E-05
 -1      7185 3.41298E-05-5.72118E-05 3.14442E-05
 -1      7186 4.01575E-05-5.55142E-05 1.84225E-05
 -1      7187 4.30114E-05-5.47812E-05 6.07058E-06
 -1      7188 4.30114E-05-5.47812E-05-6.07058E-06
 -1      7189 4.01575E-05-5.55142E-05-1.84225E-05
 -1      7190 3.41298E-05-5.72118E-05-3.14442E-05
 -1      7191 2.41918E-05-6.05177E-05-4.57155E-05
 -1      7192 8.93489E-06-6.71635E-05-6.20397E-05
 -1      7193 2.63541E-04-1.14366E-04 9.15379E-05
 -1      7194 2.85019E-04-1.09232E-04 7.11496E-05
 -1      7195 3.00218E-04-1.05474E-04 5.05831E-05
 -1      7196 3.09909E-04-1.03148E-04 3.02117E-05
 -1      7197 3.14623E-04-1.02048E-04 1.00442E-05
 -1      7198 3.14623E-04-1.02048E-04-1.00442E-05
 -1      7199 3.09909E-04-1.03148E-04-3.02117E-05
 -1      7200 3.00218E-04-1.05474E-04-5.05831E-05
 -1      7201 2.85019E-04-1.09232E-04-7.11496E-05
 -1      7202 2.63541E-04-1.14366E-04-9.15379E-05
 -1      7203 7.48656E-04-1.63389E-04 1.05409E-04
 -1      7204 7.71659E-04-1.62851E-04 8.25385E-05
 -1      7205 7.88589E-04-1.61824E-04 5.92522E-05
 -1      7206 7.99702E-04-1.60908E-04 3.56585E-05
 -1      7207 8.05203E-04-1.60397E-04 1.19025E-05
 -1      7208 8.05203E-04-1.60397E-04-1.19025E-05
 -1      7209 7.99702E-04-1.60908E-04-3.56585E-05
 -1      7210 7.88589E-04-1.61824E-04-5.92522E-05
 -1      7211 7.71659E-04-1.62851E-04-8.25385E-05
 -1      7212 7.48656E-04-1.63389E-04-1.05409E-04
 -1      7213 1.44838E-03-2.48420E-04 1.15374E-04
 -1      7214 1.47130E-03-2.50257E-04 8.99539E-05
 -1      7215 1.48841E-03-2.51488E-04 6.44217E-05
 -1      7216 1.49976E-03-2.52188E-04 3.87348E-05
 -1      7217 1.50542E-03-2.52494E-04 1.29264E-05
 -1      7218 1.50542E-03-2.52494E-04-1.29264E-05
 -1      7219 1.49976E-03-2.52188E-04-3.87348E-05
 -1      7220 1.48841E-03-2.51488E-04-6.44217E-05
 -1      7221 1.47130E-03-2.50257E-04-8.99539E-05
 -1      7222 1.44838E-03-2.48420E-04-1.15374E-04
 -1      7223 2.34855E-03-3.95304E-04 1.23170E-04
 -1      7224 2.37080E-03-3.99057E-04 9.58824E-05
 -1      7225 2.38748E-03-4.01811E-04 6.85404E-05
 -1      7226 2.39860E-03-4.03622E-04 4.11502E-05
 -1      7227 2.40416E-03-4.04519E-04 1.37217E-05
 -1      7228 2.40416E-03-4.04519E-04-1.37217E-05
 -1      7229 2.39860E-03-4.03622E-04-4.11502E-05
 -1      7230 2.38748E-03-4.01811E-04-6.85404E-05
 -1      7231 2.37080E-03-3.99057E-04-9.58824E-05
 -1      7232 2.34855E-03-3.95304E-04-1.23170E-04
 -1      7233 3.43526E-03-6.28854E-04 1.29349E-04
 -1      7234 3.45667E-03-6.34176E-04 1.00615E-04
 -1      7235 3.47274E-03-6.38167E-04 7.18790E-05
 -1      7236 3.48345E-03-6.40823E-04 4.31327E-05
 -1      7237 3.48881E-03-6.42149E-04 1.43786E-05
 -1      7238 3.48881E-03-6.42149E-04-1.43786E-05
 -1      7239 3.48345E-03-6.40823E-04-4.31327E-05
 -1      7240 3.47274E-03-6.38167E-04-7.18790E-05
 -1      7241 3.45667E-03-6.34176E-04-1.00615E-04
 -1      7242 3.43526E-03-6.28854E-04-1.29349E-04
 -1      7243 4.69468E-03-9.71926E-04 1.33873E-04
 -1      7244 4.71517E-03-9.78668E-04 1.04118E-04
 -1      7245 4.73055E-03-9.83731E-04 7.43669E-05
 -1      7246 4.74080E-03-9.87110E-04 4.46193E-05
 -1      7247 4.74592E-03-9.88800E-04 1.48730E-05
 -1      7248 4.74592E-03-9.88800E-04-1.48730E-05
 -1      7249 4.74080E-03-9.87110E-04-4.46193E-05
 -1      7250 4.73055E-03-9.83731E-04-7.43669E-05
 -1      7251 4.71517E-03-9.78668E-04-1.04118E-04
 -1      7252 4.69468E-03-9.71926E-04-1.33873E-04
 -1      7253 6.11263E-03-1.44525E-03 1.36719E-04
 -1      7254 6.13210E-03-1.45329E-03 1.06331E-04
 -1      7255 6.14671E-03-1.45933E-03 7.59475E-05
 -1      7256 6.15645E-03-1.46336E-03 4.55669E-05
 -1      7257 6.16132E-03-1.46538E-03 1.51887E-05
 -1      7258 6.16132E-03-1.46538E-03-1.51887E-05
 -1      7259 6.15645E-03-1.46336E-03-4.55669E-05
 -1      7260 6.14671E-03-1.45933E-03-7.59475E-05
 -1      7261 6.13210E-03-1.45329E-03-1.06331E-04
 -1      7262 6.11263E-03-1.44525E-03-1.36719E-04
 -1      7263 7.67420E-03-2.06725E-03 1.37920E-04
 -1      7264 7.69255E-03-2.07648E-03 1.07269E-04
 -1      7265 7.70632E-03-2.08341E-03 7.66187E-05
 -1      7266 7.71549E-03-2.08803E-03 4.59704E-05
 -1      7267 7.72008E-03-2.09034E-03 1.53233E-05
 -1      7268 7.72008E-03-2.09034E-03-1.53233E-05
 -1      7269 7.71549E-03-2.08803E-03-4.59704E-05
 -1      7270 7.70632E-03-2.08341E-03-7.66187E-05
 -1      7271 7.69255E-03-2.07648E-03-1.07269E-04
 -1      7272 7.67420E-03-2.06725E-03-1.37920E-04
 -1      7273 9.36356E-03-2.85404E-03 1.37533E-04
 -1      7274 9.38069E-03-2.86433E-03 1.06969E-04
 -1      7275 9.39354E-03-2.87204E-03 7.64062E-05
 -1      7276 9.40211E-03-2.87719E-03 4.58435E-05
 -1      7277 9.40639E-03-2.87976E-03 1.52811E-05
 -1      7278 9.40639E-03-2.87976E-03-1.52811E-05
 -1      7279 9.40211E-03-2.87719E-03-4.58435E-05
 -1      7280 9.39354E-03-2.87204E-03-7.64062E-05
 -1      7281 9.38069E-03-2.86433E-03-1.06969E-04
 -1      7282 9.36356E-03-2.85404E-03-1.37533E-04
 -1      7283 1.11639E-02-3.81941E-03 1.35599E-04
 -1      7284 1.11797E-02-3.83061E-03 1.05466E-04
 -1      7285 1.11915E-02-3.83901E-03 7.53330E-05
 -1      7286 1.11994E-02-3.84461E-03 4.51999E-05
 -1      7287 1.12034E-02-3.84741E-03 1.50666E-05
 -1      7288 1.12034E-02-3.84741E-03-1.50666E-05
 -1      7289 1.11994E-02-3.84461E-03-4.51999E-05
 -1      7290 1.11915E-02-3.83901E-03-7.53330E-05
 -1      7291 1.11797E-02-3.83061E-03-1.05466E-04
 -1      7292 1.11639E-02-3.81941E-03-1.35599E-04
 -1      7293 1.30572E-02-4.97486E-03 1.32126E-04
 -1      7294 1.30716E-02-4.98682E-03 1.02765E-04
 -1      7295 1.30824E-02-4.99579E-03 7.34041E-05
 -1      7296 1.30895E-02-5.00178E-03 4.40426E-05
 -1      7297 1.30931E-02-5.00477E-03 1.46809E-05
 -1      7298 1.30931E-02-5.00477E-03-1.46809E-05
 -1      7299 1.30895E-02-5.00178E-03-4.40426E-05
 -1      7300 1.30824E-02-4.99579E-03-7.34041E-05
 -1      7301 1.30716E-02-4.98682E-03-1.02765E-04
 -1      7302 1.30572E-02-4.97486E-03-1.32126E-04
 -1      7303 1.50246E-02-6.32957E-03 1.27079E-04
 -1      7304 1.50374E-02-6.34214E-03 9.88404E-05
 -1      7305 1.50470E-02-6.35157E-03 7.06007E-05
 -1      7306 1.50535E-02-6.35786E-03 4.23606E-05
 -1      7307 1.50567E-02-6.36100E-03 1.41202E-05
 -1      7308 1.50567E-02-6.36100E-03-1.41202E-05
 -1      7309 1.50535E-02-6.35786E-03-4.23606E-05
 -1      7310 1.50470E-02-6.35157E-03-7.06007E-05
 -1      7311 1.50374E-02-6.34214E-03-9.88404E-05
 -1      7312 1.50246E-02-6.32957E-03-1.27079E-04
 -1      7313 1.70460E-02-7.89043E-03 1.20381E-04
 -1      7314 1.70572E-02-7.90344E-03 9.36304E-05
 -1      7315 1.70656E-02-7.91320E-03 6.68793E-05
 -1      7316 1.70712E-02-7.91971E-03 4.01278E-05
 -1      7317 1.70740E-02-7.92296E-03 1.33760E-05
 -1      7318 1.70740E-02-7.92296E-03-1.33760E-05
 -1      7319 1.70712E-02-7.91971E-03-4.01278E-05
 -1      7320 1.70656E-02-7.91320E-03-6.68793E-05
 -1      7321 1.70572E-02-7.90344E-03-9.36304E-05
 -1      7322 1.70460E-02-7.89043E-03-1.20381E-04
 -1      7323 1.91006E-02-9.66192E-03 1.11909E-04
 -1      7324 1.91100E-02-9.67519E-03 8.70410E-05
 -1      7325 1.91171E-02-9.68514E-03 6.21726E-05
 -1      7326 1.91218E-02-9.69177E-03 3.73037E-05
 -1      7327 1.91241E-02-9.69509E-03 1.24346E-05
 -1      7328 1.91241E-02-9.69509E-03-1.24346E-05
 -1      7329 1.91218E-02-9.69177E-03-3.73037E-05
 -1      7330 1.91171E-02-9.68514E-03-6.21726E-05
 -1      7331 1.91100E-02-9.67519E-03-8.70410E-05
 -1      7332 1.91006E-02-9.66192E-03-1.11909E-04
 -1      7333 2.11664E-02-1.16460E-02 1.01505E-04
 -1      7334 2.11739E-02-1.16593E-02 7.89495E-05
 -1      7335 2.11795E-02-1.16693E-02 5.63929E-05
 -1      7336 2.11833E-02-1.16760E-02 3.38359E-05
 -1      7337 2.11852E-02-1.16793E-02 1.12787E-05
 -1      7338 2.11852E-02-1.16793E-02-1.12787E-05
 -1      7339 2.11833E-02-1.16760E-02-3.38359E-05
 -1      7340 2.11795E-02-1.16693E-02-5.63929E-05
 -1      7341 2.11739E-02-1.16593E-02-7.89495E-05
 -1      7342 2.11664E-02-1.16460E-02-1.01505E-04
 -1      7343 2.32205E-02-1.38421E-02 8.89873E-05
 -1      7344 2.32260E-02-1.38552E-02 6.92130E-05
 -1      7345 2.32302E-02-1.38651E-02 4.94383E-05
 -1      7346 2.32330E-02-1.38717E-02 2.96632E-05
 -1      7347 2.32344E-02-1.38749E-02 9.88776E-06
 -1      7348 2.32344E-02-1.38749E-02-9.88776E-06
 -1      7349 2.32330E-02-1.38717E-02-2.96632E-05
 -1      7350 2.32302E-02-1.38651E-02-4.94383E-05
 -1      7351 2.32260E-02-1.38552E-02-6.92130E-05
 -1      7352 2.32205E-02-1.38421E-02-8.89873E-05
 -1      7353 2.52392E-02-1.62464E-02 7.41628E-05
 -1      7354 2.52427E-02-1.62591E-02 5.76828E-05
 -1      7355 2.52453E-02-1.62687E-02 4.12024E-05
 -1      7356 2.52470E-02-1.62750E-02 2.47216E-05
 -1      7357 2.52479E-02-1.62782E-02 8.24058E-06
 -1      7358 2.52479E-02-1.62782E-02-8.24058E-06
 -1      7359 2.52470E-02-1.62750E-02-2.47216E-05
 -1      7360 2.52453E-02-1.62687E-02-4.12024E-05
 -1      7361 2.52427E-02-1.62591E-02-5.76828E-05
 -1      7362 2.52392E-02-1.62464E-02-7.41628E-05
 -1      7363 2.71975E-02-1.88521E-02 5.68603E-05
 -1      7364 2.71989E-02-1.88641E-02 4.42252E-05
 -1      7365 2.71999E-02-1.88731E-02 3.15898E-05
 -1      7366 2.72006E-02-1.88791E-02 1.89541E-05
 -1      7367 2.72009E-02-1.88821E-02 6.31805E-06
 -1      7368 2.72009E-02-1.88821E-02-6.31805E-06
 -1      7369 2.72006E-02-1.88791E-02-1.89541E-05
 -1      7370 2.71999E-02-1.88731E-02-3.15898E-05
 -1      7371 2.71989E-02-1.88641E-02-4.42252E-05
 -1      7372 2.71975E-02-1.88521E-02-5.68603E-05
 -1      7373 2.90697E-02-2.16482E-02 3.69669E-05
 -1      7374 2.90689E-02-2.16591E-02 2.87524E-05
 -1      7375 2.90682E-02-2.16673E-02 2.05377E-05
 -1      7376 2.90678E-02-2.16727E-02 1.23228E-05
 -1      7377 2.90676E-02-2.16754E-02 4.10761E-06
 -1      7378 2.90676E-02-2.16754E-02-4.10761E-06
 -1      7379 2.90678E-02-2.16727E-02-1.23228E-05
 -1      7380 2.90682E-02-2.16673E-02-2.05377E-05
 -1      7381 2.90689E-02-2.16591E-02-2.87524E-05
 -1      7382 2.90697E-02-2.16482E-02-3.69669E-05
 -1      7383 3.08288E-02-2.46191E-02 1.44813E-05
 -1      7384 3.08259E-02-2.46285E-02 1.12633E-05
 -1      7385 3.08236E-02-2.46355E-02 8.04530E-06
 -1      7386 3.08222E-02-2.46402E-02 4.82723E-06
 -1      7387 3.08214E-02-2.46426E-02 1.60908E-06
 -1      7388 3.08214E-02-2.46426E-02-1.60908E-06
 -1      7389 3.08222E-02-2.46402E-02-4.82723E-06
 -1      7390 3.08236E-02-2.46355E-02-8.04530E-06
 -1      7391 3.08259E-02-2.46285E-02-1.12633E-05
 -1      7392 3.08288E-02-2.46191E-02-1.44813E-05
 -1      7393 3.24476E-02-2.77435E-02-1.04191E-05
 -1      7394 3.24426E-02-2.77509E-02-8.10445E-06
 -1      7395 3.24389E-02-2.77565E-02-5.78928E-06
 -1      7396 3.24364E-02-2.77602E-02-3.47374E-06
 -1      7397 3.24352E-02-2.77621E-02-1.15794E-06
 -1      7398 3.24352E-02-2.77621E-02 1.15794E-06
 -1      7399 3.24364E-02-2.77602E-02 3.47374E-06
 -1      7400 3.24389E-02-2.77565E-02 5.78928E-06
 -1      7401 3.24426E-02-2.77509E-02 8.10445E-06
 -1      7402 3.24476E-02-2.77435E-02 1.04191E-05
 -1      7403 3.38989E-02-3.09933E-02-3.73008E-05
 -1      7404 3.38922E-02-3.09983E-02-2.90139E-05
 -1      7405 3.38872E-02-3.10021E-02-2.07255E-05
 -1      7406 3.38839E-02-3.10046E-02-1.24359E-05
 -1      7407 3.38822E-02-3.10058E-02-4.14541E-06
 -1      7408 3.38822E-02-3.10058E-02 4.14541E-06
 -1      7409 3.38839E-02-3.10046E-02 1.24359E-05
 -1      7410 3.38872E-02-3.10021E-02 2.07255E-05
 -1      7411 3.38922E-02-3.09983E-02 2.90139E-05
 -1      7412 3.38989E-02-3.09933E-02 3.73008E-05
 -1      7413 3.51574E-02-3.43330E-02-6.53891E-05
 -1      7414 3.51494E-02-3.43351E-02-5.08624E-05
 -1      7415 3.51435E-02-3.43367E-02-3.63328E-05
 -1      7416 3.51395E-02-3.43377E-02-2.18007E-05
 -1      7417 3.51375E-02-3.43382E-02-7.26708E-06
 -1      7418 3.51375E-02-3.43382E-02 7.26708E-06
 -1      7419 3.51395E-02-3.43377E-02 2.18007E-05
 -1      7420 3.51435E-02-3.43367E-02 3.63328E-05
 -1      7421 3.51494E-02-3.43351E-02 5.08624E-05
 -1      7422 3.51574E-02-3.43330E-02 6.53891E-05
 -1      7423 3.62012E-02-3.77187E-02-9.34860E-05
 -1      7424 3.61926E-02-3.77175E-02-7.27144E-05
 -1      7425 3.61862E-02-3.77166E-02-5.19398E-05
 -1      7426 3.61819E-02-3.77160E-02-3.11640E-05
 -1      7427 3.61798E-02-3.77156E-02-1.03880E-05
 -1      7428 3.61798E-02-3.77156E-02 1.03880E-05
 -1      7429 3.61819E-02-3.77160E-02 3.11640E-05
 -1      7430 3.61862E-02-3.77166E-02 5.19398E-05
 -1      7431 3.61926E-02-3.77175E-02 7.27144E-05
 -1      7432 3.62012E-02-3.77187E-02 9.34860E-05
 -1      7433 3.70150E-02-4.10989E-02-1.19900E-04
 -1      7434 3.70066E-02-4.10940E-02-9.32386E-05
 -1      7435 3.70003E-02-4.10904E-02-6.65854E-05
 -1      7436 3.69961E-02-4.10880E-02-3.99443E-05
 -1      7437 3.69939E-02-4.10867E-02-1.33134E-05
 -1      7438 3.69939E-02-4.10867E-02 1.33134E-05
 -1      7439 3.69961E-02-4.10880E-02 3.99443E-05
 -1      7440 3.70003E-02-4.10904E-02 6.65854E-05
 -1      7441 3.70066E-02-4.10940E-02 9.32386E-05
 -1      7442 3.70150E-02-4.10989E-02 1.19900E-04
 -1      7443 3.75925E-02-4.44152E-02-1.42433E-04
 -1      7444 3.75852E-02-4.44067E-02-1.10689E-04
 -1      7445 3.75797E-02-4.44003E-02-7.89983E-05
 -1      7446 3.75760E-02-4.43960E-02-4.73683E-05
 -1      7447 3.75741E-02-4.43938E-02-1.57838E-05
 -1      7448 3.75741E-02-4.43938E-02 1.57838E-05
 -1      7449 3.75760E-02-4.43960E-02 4.73683E-05
 -1      7450 3.75797E-02-4.44003E-02 7.89983E-05
 -1      7451 3.75852E-02-4.44067E-02 1.10689E-04
 -1      7452 3.75925E-02-4.44152E-02 1.42433E-04
 -1      7453 3.79400E-02-4.76058E-02-1.58624E-04
 -1      7454 3.79346E-02-4.75937E-02-1.23103E-04
 -1      7455 3.79304E-02-4.75846E-02-8.77571E-05
 -1      7456 3.79274E-02-4.75785E-02-5.25776E-05
 -1      7457 3.79259E-02-4.75755E-02-1.75124E-05
 -1      7458 3.79259E-02-4.75755E-02 1.75124E-05
 -1      7459 3.79274E-02-4.75785E-02 5.25776E-05
 -1      7460 3.79304E-02-4.75846E-02 8.77571E-05
 -1      7461 3.79346E-02-4.75937E-02 1.23103E-04
 -1      7462 3.79400E-02-4.76058E-02 1.58624E-04
 -1      7463 3.80779E-02-5.06085E-02-1.66823E-04
 -1      7464 3.80746E-02-5.05933E-02-1.29318E-04
 -1      7465 3.80717E-02-5.05819E-02-9.21370E-05
 -1      7466 3.80695E-02-5.05743E-02-5.51902E-05
 -1      7467 3.80684E-02-5.05706E-02-1.83816E-05
 -1      7468 3.80684E-02-5.05706E-02 1.83816E-05
 -1      7469 3.80695E-02-5.05743E-02 5.51902E-05
 -1      7470 3.80717E-02-5.05819E-02 9.21370E-05
 -1      7471 3.80746E-02-5.05933E-02 1.29318E-04
 -1      7472 3.80779E-02-5.06085E-02 1.66823E-04
 -1      7473 5.97722E-05 8.82850E-06 2.14841E-05
 -1      7474 7.46816E-05 1.16901E-05 1.59384E-05
 -1      7475 8.44289E-05 1.32022E-05 1.10246E-05
 -1      7476 9.03512E-05 1.40043E-05 6.48492E-06
 -1      7477 9.31574E-05 1.43559E-05 2.14133E-06
 -1      7478 9.31574E-05 1.43559E-05-2.14133E-06
 -1      7479 9.03512E-05 1.40043E-05-6.48492E-06
 -1      7480 8.44289E-05 1.32022E-05-1.10246E-05
 -1      7481 7.46816E-05 1.16901E-05-1.59384E-05
 -1      7482 5.97722E-05 8.82850E-06-2.14841E-05
 -1      7483 3.69068E-04 4.28703E-05 4.03829E-05
 -1      7484 3.89749E-04 4.53317E-05 3.12707E-05
 -1      7485 4.04459E-04 4.70296E-05 2.21999E-05
 -1      7486 4.13873E-04 4.80538E-05 1.32528E-05
 -1      7487 4.18463E-04 4.85316E-05 4.40543E-06
 -1      7488 4.18463E-04 4.85316E-05-4.40543E-06
 -1      7489 4.13873E-04 4.80538E-05-1.32528E-05
 -1      7490 4.04459E-04 4.70296E-05-2.21999E-05
 -1      7491 3.89749E-04 4.53317E-05-3.12707E-05
 -1      7492 3.69068E-04 4.28703E-05-4.03829E-05
 -1      7493 9.11790E-04 7.29404E-05 5.45773E-05
 -1      7494 9.33839E-04 7.32440E-05 4.25959E-05
 -1      7495 9.50083E-04 7.36506E-05 3.05000E-05
 -1      7496 9.60760E-04 7.39838E-05 1.83254E-05
 -1      7497 9.66051E-04 7.41633E-05 6.11212E-06
 -1      7498 9.66051E-04 7.41633E-05-6.11212E-06
 -1      7499 9.60760E-04 7.39838E-05-1.83254E-05
 -1      7500 9.50083E-04 7.36506E-05-3.05000E-05
 -1      7501 9.33839E-04 7.32440E-05-4.25959E-05
 -1      7502 9.11790E-04 7.29404E-05-5.45773E-05
 -1      7503 1.67166E-03 6.72445E-05 6.58931E-05
 -1      7504 1.69357E-03 6.56653E-05 5.13441E-05
 -1      7505 1.70994E-03 6.45573E-05 3.67414E-05
 -1      7506 1.72081E-03 6.38701E-05 2.20763E-05
 -1      7507 1.72623E-03 6.35440E-05 7.36438E-06
 -1      7508 1.72623E-03 6.35440E-05-7.36438E-06
 -1      7509 1.72081E-03 6.38701E-05-2.20763E-05
 -1      7510 1.70994E-03 6.45573E-05-3.67414E-05
 -1      7511 1.69357E-03 6.56653E-05-5.13441E-05
 -1      7512 1.67166E-03 6.72445E-05-6.58931E-05
 -1      7513 2.63446E-03-2.87602E-06 7.49596E-05
 -1      7514 2.65571E-03-6.15498E-06 5.83430E-05
 -1      7515 2.67166E-03-8.58378E-06 4.17013E-05
 -1      7516 2.68229E-03-1.01876E-05 2.50342E-05
 -1      7517 2.68761E-03-1.09840E-05 8.34722E-06
 -1      7518 2.68761E-03-1.09840E-05-8.34722E-06
 -1      7519 2.68229E-03-1.01876E-05-2.50342E-05
 -1      7520 2.67166E-03-8.58378E-06-4.17013E-05
 -1      7521 2.65571E-03-6.15498E-06-5.83430E-05
 -1      7522 2.63446E-03-2.87602E-06-7.49596E-05
 -1      7523 3.78645E-03-1.63999E-04 8.21713E-05
 -1      7524 3.80694E-03-1.68784E-04 6.39174E-05
 -1      7525 3.82231E-03-1.72370E-04 4.56612E-05
 -1      7526 3.83257E-03-1.74758E-04 2.73997E-05
 -1      7527 3.83769E-03-1.75951E-04 9.13382E-06
 -1      7528 3.83769E-03-1.75951E-04-9.13382E-06
 -1      7529 3.83257E-03-1.74758E-04-2.73997E-05
 -1      7530 3.82231E-03-1.72370E-04-4.56612E-05
 -1      7531 3.80694E-03-1.68784E-04-6.39174E-05
 -1      7532 3.78645E-03-1.63999E-04-8.21713E-05
 -1      7533 5.11411E-03-4.40337E-04 8.76590E-05
 -1      7534 5.13375E-03-4.46490E-04 6.81758E-05
 -1      7535 5.14848E-03-4.51108E-04 4.86953E-05
 -1      7536 5.15831E-03-4.54189E-04 2.92166E-05
 -1      7537 5.16322E-03-4.55730E-04 9.73878E-06
 -1      7538 5.16322E-03-4.55730E-04-9.73878E-06
 -1      7539 5.15831E-03-4.54189E-04-2.92166E-05
 -1      7540 5.14848E-03-4.51108E-04-4.86953E-05
 -1      7541 5.13375E-03-4.46490E-04-6.81758E-05
 -1      7542 5.11411E-03-4.40337E-04-8.76590E-05
 -1      7543 6.60344E-03-8.53625E-04 9.15034E-05
 -1      7544 6.62215E-03-8.61027E-04 7.11658E-05
 -1      7545 6.63617E-03-8.66581E-04 5.08306E-05
 -1      7546 6.64553E-03-8.70285E-04 3.04974E-05
 -1      7547 6.65020E-03-8.72137E-04 1.01656E-05
 -1      7548 6.65020E-03-8.72137E-04-1.01656E-05
 -1      7549 6.64553E-03-8.70285E-04-3.04974E-05
 -1      7550 6.63617E-03-8.66581E-04-5.08306E-05
 -1      7551 6.62215E-03-8.61027E-04-7.11658E-05
 -1      7552 6.60344E-03-8.53625E-04-9.15034E-05
 -1      7553 8.23956E-03-1.42308E-03 9.37914E-05
 -1      7554 8.25723E-03-1.43161E-03 7.29474E-05
 -1      7555 8.27049E-03-1.43800E-03 5.21042E-05
 -1      7556 8.27932E-03-1.44227E-03 3.12620E-05
 -1      7557 8.28374E-03-1.44440E-03 1.04206E-05
 -1      7558 8.28374E-03-1.44440E-03-1.04206E-05
 -1      7559 8.27932E-03-1.44227E-03-3.12620E-05
 -1      7560 8.27049E-03-1.43800E-03-5.21042E-05
 -1      7561 8.25723E-03-1.43161E-03-7.29474E-05
 -1      7562 8.23956E-03-1.42308E-03-9.37914E-05
 -1      7563 1.00064E-02-2.16543E-03 9.46105E-05
 -1      7564 1.00230E-02-2.17495E-03 7.35857E-05
 -1      7565 1.00354E-02-2.18209E-03 5.25610E-05
 -1      7566 1.00437E-02-2.18685E-03 3.15365E-05
 -1      7567 1.00478E-02-2.18923E-03 1.05121E-05
 -1      7568 1.00478E-02-2.18923E-03-1.05121E-05
 -1      7569 1.00437E-02-2.18685E-03-3.15365E-05
 -1      7570 1.00354E-02-2.18209E-03-5.25610E-05
 -1      7571 1.00230E-02-2.17495E-03-7.35857E-05
 -1      7572 1.00064E-02-2.16543E-03-9.46105E-05
 -1      7573 1.18868E-02-3.09496E-03 9.40258E-05
 -1      7574 1.19021E-02-3.10532E-03 7.31316E-05
 -1      7575 1.19136E-02-3.11310E-03 5.22370E-05
 -1      7576 1.19212E-02-3.11828E-03 3.13423E-05
 -1      7577 1.19250E-02-3.12087E-03 1.04474E-05
 -1      7578 1.19250E-02-3.12087E-03-1.04474E-05
 -1      7579 1.19212E-02-3.11828E-03-3.13423E-05
 -1      7580 1.19136E-02-3.11310E-03-5.22370E-05
 -1      7581 1.19021E-02-3.10532E-03-7.31316E-05
 -1      7582 1.18868E-02-3.09496E-03-9.40258E-05
 -1      7583 1.38620E-02-4.22350E-03 9.20662E-05
 -1      7584 1.38759E-02-4.23456E-03 7.16076E-05
 -1      7585 1.38864E-02-4.24286E-03 5.11486E-05
 -1      7586 1.38934E-02-4.24840E-03 3.06893E-05
 -1      7587 1.38969E-02-4.25116E-03 1.02298E-05
 -1      7588 1.38969E-02-4.25116E-03-1.02298E-05
 -1      7589 1.38934E-02-4.24840E-03-3.06893E-05
 -1      7590 1.38864E-02-4.24286E-03-5.11486E-05
 -1      7591 1.38759E-02-4.23456E-03-7.16076E-05
 -1      7592 1.38620E-02-4.22350E-03-9.20662E-05
 -1      7593 1.59121E-02-5.56046E-03 8.87174E-05
 -1      7594 1.59246E-02-5.57207E-03 6.90031E-05
 -1      7595 1.59340E-02-5.58077E-03 4.92882E-05
 -1      7596 1.59403E-02-5.58658E-03 2.95731E-05
 -1      7597 1.59434E-02-5.58948E-03 9.85772E-06
 -1      7598 1.59434E-02-5.58948E-03-9.85772E-06
 -1      7599 1.59403E-02-5.58658E-03-2.95731E-05
 -1      7600 1.59340E-02-5.58077E-03-4.92882E-05
 -1      7601 1.59246E-02-5.57207E-03-6.90031E-05
 -1      7602 1.59121E-02-5.56046E-03-8.87174E-05
 -1      7603 1.80161E-02-7.11274E-03 8.39223E-05
 -1      7604 1.80271E-02-7.12472E-03 6.52735E-05
 -1      7605 1.80353E-02-7.13371E-03 4.66243E-05
 -1      7606 1.80408E-02-7.13970E-03 2.79747E-05
 -1      7607 1.80436E-02-7.14270E-03 9.32493E-06
 -1      7608 1.80436E-02-7.14270E-03-9.32493E-06
 -1      7609 1.80408E-02-7.13970E-03-2.79747E-05
 -1      7610 1.80353E-02-7.13371E-03-4.66243E-05
 -1      7611 1.80271E-02-7.12472E-03-6.52735E-05
 -1      7612 1.80161E-02-7.11274E-03-8.39223E-05
 -1      7613 2.01519E-02-8.88464E-03 7.75842E-05
 -1      7614 2.01612E-02-8.89682E-03 6.03439E-05
 -1      7615 2.01682E-02-8.90595E-03 4.31031E-05
 -1      7616 2.01729E-02-8.91203E-03 2.58620E-05
 -1      7617 2.01752E-02-8.91508E-03 8.62070E-06
 -1      7618 2.01752E-02-8.91508E-03-8.62070E-06
 -1      7619 2.01729E-02-8.91203E-03-2.58620E-05
 -1      7620 2.01682E-02-8.90595E-03-4.31031E-05
 -1      7621 2.01612E-02-8.89682E-03-6.03439E-05
 -1      7622 2.01519E-02-8.88464E-03-7.75842E-05
 -1      7623 2.22962E-02-1.08777E-02 6.95742E-05
 -1      7624 2.23038E-02-1.08899E-02 5.41138E-05
 -1      7625 2.23095E-02-1.08990E-02 3.86531E-05
 -1      7626 2.23133E-02-1.09051E-02 2.31920E-05
 -1      7627 2.23152E-02-1.09081E-02 7.73068E-06
 -1      7628 2.23152E-02-1.09081E-02-7.73068E-06
 -1      7629 2.23133E-02-1.09051E-02-2.31920E-05
 -1      7630 2.23095E-02-1.08990E-02-3.86531E-05
 -1      7631 2.23038E-02-1.08899E-02-5.41138E-05
 -1      7632 2.22962E-02-1.08777E-02-6.95742E-05
 -1      7633 2.44248E-02-1.30906E-02 5.97426E-05
 -1      7634 2.44305E-02-1.31025E-02 4.64669E-05
 -1      7635 2.44349E-02-1.31114E-02 3.31910E-05
 -1      7636 2.44377E-02-1.31174E-02 1.99147E-05
 -1      7637 2.44392E-02-1.31204E-02 6.63826E-06
 -1      7638 2.44392E-02-1.31204E-02-6.63826E-06
 -1      7639 2.44377E-02-1.31174E-02-1.99147E-05
 -1      7640 2.44349E-02-1.31114E-02-3.31910E-05
 -1      7641 2.44305E-02-1.31025E-02-4.64669E-05
 -1      7642 2.44248E-02-1.30906E-02-5.97426E-05
 -1      7643 2.65126E-02-1.55185E-02 4.79373E-05
 -1      7644 2.65164E-02-1.55300E-02 3.72850E-05
 -1      7645 2.65193E-02-1.55385E-02 2.66324E-05
 -1      7646 2.65213E-02-1.55443E-02 1.59796E-05
 -1      7647 2.65222E-02-1.55471E-02 5.32654E-06
 -1      7648 2.65222E-02-1.55471E-02-5.32654E-06
 -1      7649 2.65213E-02-1.55443E-02-1.59796E-05
 -1      7650 2.65193E-02-1.55385E-02-2.66324E-05
 -1      7651 2.65164E-02-1.55300E-02-3.72850E-05
 -1      7652 2.65126E-02-1.55185E-02-4.79373E-05
 -1      7653 2.85335E-02-1.81532E-02 3.40303E-05
 -1      7654 2.85354E-02-1.81639E-02 2.64683E-05
 -1      7655 2.85369E-02-1.81719E-02 1.89061E-05
 -1      7656 2.85378E-02-1.81773E-02 1.13438E-05
 -1      7657 2.85383E-02-1.81800E-02 3.78128E-06
 -1      7658 2.85383E-02-1.81800E-02-3.78128E-06
 -1      7659 2.85378E-02-1.81773E-02-1.13438E-05
 -1      7660 2.85369E-02-1.81719E-02-1.89061E-05
 -1      7661 2.85354E-02-1.81639E-02-2.64683E-05
 -1      7662 2.85335E-02-1.81532E-02-3.40303E-05
 -1      7663 3.04608E-02-2.09823E-02 1.79537E-05
 -1      7664 3.04608E-02-2.09919E-02 1.39642E-05
 -1      7665 3.04608E-02-2.09991E-02 9.97458E-06
 -1      7666 3.04608E-02-2.10039E-02 5.98483E-06
 -1      7667 3.04608E-02-2.10063E-02 1.99496E-06
 -1      7668 3.04608E-02-2.10063E-02-1.99496E-06
 -1      7669 3.04608E-02-2.10039E-02-5.98483E-06
 -1      7670 3.04608E-02-2.09991E-02-9.97458E-06
 -1      7671 3.04608E-02-2.09919E-02-1.39642E-05
 -1      7672 3.04608E-02-2.09823E-02-1.79537E-05
 -1      7673 3.22672E-02-2.39882E-02-2.52503E-07
 -1      7674 3.22653E-02-2.39964E-02-1.96404E-07
 -1      7675 3.22638E-02-2.40025E-02-1.40239E-07
 -1      7676 3.22629E-02-2.40066E-02-8.41090E-08
 -1      7677 3.22624E-02-2.40086E-02-2.80292E-08
 -1      7678 3.22624E-02-2.40086E-02 2.80292E-08
 -1      7679 3.22629E-02-2.40066E-02 8.41090E-08
 -1      7680 3.22638E-02-2.40025E-02 1.40239E-07
 -1      7681 3.22653E-02-2.39964E-02 1.96404E-07
 -1      7682 3.22672E-02-2.39882E-02 2.52503E-07
 -1      7683 3.39253E-02-2.71482E-02-2.03833E-05
 -1      7684 3.39217E-02-2.71545E-02-1.58541E-05
 -1      7685 3.39190E-02-2.71592E-02-1.13246E-05
 -1      7686 3.39172E-02-2.71624E-02-6.79487E-06
 -1      7687 3.39163E-02-2.71640E-02-2.26497E-06
 -1      7688 3.39163E-02-2.71640E-02 2.26497E-06
 -1      7689 3.39172E-02-2.71624E-02 6.79487E-06
 -1      7690 3.39190E-02-2.71592E-02 1.13246E-05
 -1      7691 3.39217E-02-2.71545E-02 1.58541E-05
 -1      7692 3.39253E-02-2.71482E-02 2.03833E-05
 -1      7693 3.54090E-02-3.04328E-02-4.20034E-05
 -1      7694 3.54039E-02-3.04369E-02-3.26708E-05
 -1      7695 3.54001E-02-3.04400E-02-2.33372E-05
 -1      7696 3.53975E-02-3.04420E-02-1.40027E-05
 -1      7697 3.53963E-02-3.04430E-02-4.66764E-06
 -1      7698 3.53963E-02-3.04430E-02 4.66764E-06
 -1      7699 3.53975E-02-3.04420E-02 1.40027E-05
 -1      7700 3.54001E-02-3.04400E-02 2.33372E-05
 -1      7701 3.54039E-02-3.04369E-02 3.26708E-05
 -1      7702 3.54090E-02-3.04328E-02 4.20034E-05
 -1      7703 3.66939E-02-3.38059E-02-6.43797E-05
 -1      7704 3.66878E-02-3.38074E-02-5.00763E-05
 -1      7705 3.66832E-02-3.38086E-02-3.57708E-05
 -1      7706 3.66802E-02-3.38093E-02-2.14634E-05
 -1      7707 3.66786E-02-3.38097E-02-7.15460E-06
 -1      7708 3.66786E-02-3.38097E-02 7.15460E-06
 -1      7709 3.66802E-02-3.38093E-02 2.14634E-05
 -1      7710 3.66832E-02-3.38086E-02 3.57708E-05
 -1      7711 3.66878E-02-3.38074E-02 5.00763E-05
 -1      7712 3.66939E-02-3.38059E-02 6.43797E-05
 -1      7713 3.77604E-02-3.72245E-02-8.64174E-05
 -1      7714 3.77538E-02-3.72231E-02-6.72174E-05
 -1      7715 3.77489E-02-3.72221E-02-4.80142E-05
 -1      7716 3.77456E-02-3.72214E-02-2.88092E-05
 -1      7717 3.77439E-02-3.72211E-02-9.60315E-06
 -1      7718 3.77439E-02-3.72211E-02 9.60315E-06
 -1      7719 3.77456E-02-3.72214E-02 2.88092E-05
 -1      7720 3.77489E-02-3.72221E-02 4.80142E-05
 -1      7721 3.77538E-02-3.72231E-02 6.72174E-05
 -1      7722 3.77604E-02-3.72245E-02 8.64174E-05
 -1      7723 3.85948E-02-4.06389E-02-1.06605E-04
 -1      7724 3.85885E-02-4.06345E-02-8.29067E-05
 -1      7725 3.85838E-02-4.06312E-02-5.92118E-05
 -1      7726 3.85807E-02-4.06290E-02-3.55233E-05
 -1      7727 3.85791E-02-4.06278E-02-1.18404E-05
 -1      7728 3.85791E-02-4.06278E-02 1.18404E-05
 -1      7729 3.85807E-02-4.06290E-02 3.55233E-05
 -1      7730 3.85838E-02-4.06312E-02 5.92118E-05
 -1      7731 3.85885E-02-4.06345E-02 8.29067E-05
 -1      7732 3.85948E-02-4.06389E-02 1.06605E-04
 -1      7733 3.91930E-02-4.39950E-02-1.22990E-04
 -1      7734 3.91878E-02-4.39875E-02-9.55958E-05
 -1      7735 3.91839E-02-4.39818E-02-6.82376E-05
 -1      7736 3.91812E-02-4.39781E-02-4.09209E-05
 -1      7737 3.91799E-02-4.39762E-02-1.36363E-05
 -1      7738 3.91799E-02-4.39762E-02 1.36363E-05
 -1      7739 3.91812E-02-4.39781E-02 4.09209E-05
 -1      7740 3.91839E-02-4.39818E-02 6.82376E-05
 -1      7741 3.91878E-02-4.39875E-02 9.55958E-05
 -1      7742 3.91930E-02-4.39950E-02 1.22990E-04
 -1      7743 3.95621E-02-4.72360E-02-1.33354E-04
 -1      7744 3.95587E-02-4.72255E-02-1.03508E-04
 -1      7745 3.95560E-02-4.72177E-02-7.37958E-05
 -1      7746 3.95541E-02-4.72124E-02-4.42156E-05
 -1      7747 3.95531E-02-4.72098E-02-1.47276E-05
 -1      7748 3.95531E-02-4.72098E-02 1.47276E-05
 -1      7749 3.95541E-02-4.72124E-02 4.42156E-05
 -1      7750 3.95560E-02-4.72177E-02 7.37958E-05
 -1      7751 3.95587E-02-4.72255E-02 1.03508E-04
 -1      7752 3.95621E-02-4.72360E-02 1.33354E-04
 -1      7753 3.97224E-02-5.03059E-02-1.36065E-04
 -1      7754 3.97210E-02-5.02929E-02-1.05441E-04
 -1      7755 3.97195E-02-5.02832E-02-7.51059E-05
 -1      7756 3.97184E-02-5.02767E-02-4.49803E-05
 -1      7757 3.97178E-02-5.02735E-02-1.49797E-05
 -1      7758 3.97178E-02-5.02735E-02 1.49797E-05
 -1      7759 3.97184E-02-5.02767E-02 4.49803E-05
 -1      7760 3.97195E-02-5.02832E-02 7.51059E-05
 -1      7761 3.97210E-02-5.02929E-02 1.05441E-04
 -1      7762 3.97224E-02-5.03059E-02 1.36065E-04
 -1      7763 1.12251E-04 8.66233E-05-1.85954E-05
 -1      7764 1.26852E-04 8.58164E-05-1.36280E-05
 -1      7765 1.36432E-04 8.55589E-05-9.31066E-06
 -1      7766 1.42261E-04 8.54686E-05-5.42403E-06
 -1      7767 1.45026E-04 8.54383E-05-1.78164E-06
 -1      7768 1.45026E-04 8.54383E-05 1.78164E-06
 -1      7769 1.42261E-04 8.54686E-05 5.42403E-06
 -1      7770 1.36432E-04 8.55589E-05 9.31066E-06
 -1      7771 1.26852E-04 8.58164E-05 1.36280E-05
 -1      7772 1.12251E-04 8.66233E-05 1.85954E-05
 -1      7773 4.78105E-04 2.03668E-04-8.90721E-06
 -1      7774 4.98054E-04 2.03840E-04-7.24680E-06
 -1      7775 5.12309E-04 2.03680E-04-5.27458E-06
 -1      7776 5.21464E-04 2.03503E-04-3.18842E-06
 -1      7777 5.25935E-04 2.03399E-04-1.06545E-06
 -1      7778 5.25935E-04 2.03399E-04 1.06545E-06
 -1      7779 5.21464E-04 2.03503E-04 3.18842E-06
 -1      7780 5.12309E-04 2.03680E-04 5.27458E-06
 -1      7781 4.98054E-04 2.03840E-04 7.24680E-06
 -1      7782 4.78105E-04 2.03668E-04 8.90721E-06
 -1      7783 1.08004E-03 3.14794E-04 6.15526E-06
 -1      7784 1.10121E-03 3.15042E-04 4.57283E-06
 -1      7785 1.11682E-03 3.15022E-04 3.13173E-06
 -1      7786 1.12709E-03 3.14910E-04 1.82388E-06
 -1      7787 1.13218E-03 3.14826E-04 5.98809E-07
 -1      7788 1.13218E-03 3.14826E-04-5.98809E-07
 -1      7789 1.12709E-03 3.14910E-04-1.82388E-06
 -1      7790 1.11682E-03 3.15022E-04-3.13173E-06
 -1      7791 1.10121E-03 3.15042E-04-4.57283E-06
 -1      7792 1.08004E-03 3.14794E-04-6.15526E-06
 -1      7793 1.90112E-03 3.90148E-04 1.88526E-05
 -1      7794 1.92209E-03 3.88851E-04 1.46722E-05
 -1      7795 1.93777E-03 3.87921E-04 1.04729E-05
 -1      7796 1.94819E-03 3.87304E-04 6.27671E-06
 -1      7797 1.95339E-03 3.86995E-04 2.09065E-06
 -1      7798 1.95339E-03 3.86995E-04-2.09065E-06
 -1      7799 1.94819E-03 3.87304E-04-6.27671E-06
 -1      7800 1.93777E-03 3.87921E-04-1.04729E-05
 -1      7801 1.92209E-03 3.88851E-04-1.46722E-05
 -1      7802 1.90112E-03 3.90148E-04-1.88526E-05
 -1      7803 2.92701E-03 3.97998E-04 2.90726E-05
 -1      7804 2.94735E-03 3.95153E-04 2.26285E-05
 -1      7805 2.96262E-03 3.93031E-04 1.61776E-05
 -1      7806 2.97280E-03 3.91630E-04 9.71337E-06
 -1      7807 2.97789E-03 3.90934E-04 3.23899E-06
 -1      7808 2.97789E-03 3.90934E-04-3.23899E-06
 -1      7809 2.97280E-03 3.91630E-04-9.71337E-06
 -1      7810 2.96262E-03 3.93031E-04-1.61776E-05
 -1      7811 2.94735E-03 3.95153E-04-2.26285E-05
 -1      7812 2.92701E-03 3.97998E-04-2.90726E-05
 -1      7813 4.14428E-03 3.10035E-04 3.71953E-05
 -1      7814 4.16392E-03 3.05725E-04 2.89368E-05
 -1      7815 4.17865E-03 3.02499E-04 2.06735E-05
 -1      7816 4.18847E-03 3.00349E-04 1.24065E-05
 -1      7817 4.19338E-03 2.99276E-04 4.13595E-06
 -1      7818 4.19338E-03 2.99276E-04-4.13595E-06
 -1      7819 4.18847E-03 3.00349E-04-1.24065E-05
 -1      7820 4.17865E-03 3.02499E-04-2.06735E-05
 -1      7821 4.16392E-03 3.05725E-04-2.89368E-05
 -1      7822 4.14428E-03 3.10035E-04-3.71953E-05
 -1      7823 5.53985E-03 1.00789E-04 4.35483E-05
 -1      7824 5.55870E-03 9.51566E-05 3.38698E-05
 -1      7825 5.57284E-03 9.09307E-05 2.41925E-05
 -1      7826 5.58227E-03 8.81132E-05 1.45154E-05
 -1      7827 5.58699E-03 8.67043E-05 4.83845E-06
 -1      7828 5.58699E-03 8.67043E-05-4.83845E-06
 -1      7829 5.58227E-03 8.81132E-05-1.45154E-05
 -1      7830 5.57284E-03 9.09307E-05-2.41925E-05
 -1      7831 5.55870E-03 9.51566E-05-3.38698E-05
 -1      7832 5.53985E-03 1.00789E-04-4.35483E-05
 -1      7833 7.10005E-03-2.52369E-04 4.83076E-05
 -1      7834 7.11805E-03-2.59197E-04 3.75707E-05
 -1      7835 7.13154E-03-2.64319E-04 2.68350E-05
 -1      7836 7.14054E-03-2.67735E-04 1.61005E-05
 -1      7837 7.14504E-03-2.69443E-04 5.36674E-06
 -1      7838 7.14504E-03-2.69443E-04-5.36674E-06
 -1      7839 7.14054E-03-2.67735E-04-1.61005E-05
 -1      7840 7.13154E-03-2.64319E-04-2.68350E-05
 -1      7841 7.11805E-03-2.59197E-04-3.75707E-05
 -1      7842 7.10005E-03-2.52369E-04-4.83076E-05
 -1      7843 8.81014E-03-7.69343E-04 5.16090E-05
 -1      7844 8.82718E-03-7.77237E-04 4.01394E-05
 -1      7845 8.83996E-03-7.83159E-04 2.86704E-05
 -1      7846 8.84849E-03-7.87107E-04 1.72019E-05
 -1      7847 8.85275E-03-7.89081E-04 5.73393E-06
 -1      7848 8.85275E-03-7.89081E-04-5.73393E-06
 -1      7849 8.84849E-03-7.87107E-04-1.72019E-05
 -1      7850 8.83996E-03-7.83159E-04-2.86704E-05
 -1      7851 8.82718E-03-7.77237E-04-4.01394E-05
 -1      7852 8.81014E-03-7.69343E-04-5.16090E-05
 -1      7853 1.06539E-02-1.46741E-03 5.35703E-05
 -1      7854 1.06699E-02-1.47623E-03 4.16657E-05
 -1      7855 1.06819E-02-1.48285E-03 2.97612E-05
 -1      7856 1.06899E-02-1.48727E-03 1.78566E-05
 -1      7857 1.06939E-02-1.48947E-03 5.95221E-06
 -1      7858 1.06939E-02-1.48947E-03-5.95221E-06
 -1      7859 1.06899E-02-1.48727E-03-1.78566E-05
 -1      7860 1.06819E-02-1.48285E-03-2.97612E-05
 -1      7861 1.06699E-02-1.47623E-03-4.16657E-05
 -1      7862 1.06539E-02-1.46741E-03-5.35703E-05
 -1      7863 1.26136E-02-2.36128E-03 5.42813E-05
 -1      7864 1.26285E-02-2.37089E-03 4.22191E-05
 -1      7865 1.26396E-02-2.37810E-03 3.01567E-05
 -1      7866 1.26471E-02-2.38291E-03 1.80941E-05
 -1      7867 1.26508E-02-2.38531E-03 6.03138E-06
 -1      7868 1.26508E-02-2.38531E-03-6.03138E-06
 -1      7869 1.26471E-02-2.38291E-03-1.80941E-05
 -1      7870 1.26396E-02-2.37810E-03-3.01567E-05
 -1      7871 1.26285E-02-2.37089E-03-4.22191E-05
 -1      7872 1.26136E-02-2.36128E-03-5.42813E-05
 -1      7873 1.46700E-02-3.46312E-03 5.37919E-05
 -1      7874 1.46836E-02-3.47337E-03 4.18386E-05
 -1      7875 1.46938E-02-3.48106E-03 2.98850E-05
 -1      7876 1.47006E-02-3.48619E-03 1.79311E-05
 -1      7877 1.47040E-02-3.48875E-03 5.97706E-06
 -1      7878 1.47040E-02-3.48875E-03-5.97706E-06
 -1      7879 1.47006E-02-3.48619E-03-1.79311E-05
 -1      7880 1.46938E-02-3.48106E-03-2.98850E-05
 -1      7881 1.46836E-02-3.47337E-03-4.18386E-05
 -1      7882 1.46700E-02-3.46312E-03-5.37919E-05
 -1      7883 1.68023E-02-4.78253E-03 5.21078E-05
 -1      7884 1.68145E-02-4.79327E-03 4.05288E-05
 -1      7885 1.68237E-02-4.80132E-03 2.89495E-05
 -1      7886 1.68299E-02-4.80668E-03 1.73698E-05
 -1      7887 1.68329E-02-4.80937E-03 5.78995E-06
 -1      7888 1.68329E-02-4.80937E-03-5.78995E-06
 -1      7889 1.68299E-02-4.80668E-03-1.73698E-05
 -1      7890 1.68237E-02-4.80132E-03-2.89495E-05
 -1      7891 1.68145E-02-4.79327E-03-4.05288E-05
 -1      7892 1.68023E-02-4.78253E-03-5.21078E-05
 -1      7893 1.89883E-02-6.32643E-03 4.91919E-05
 -1      7894 1.89991E-02-6.33748E-03 3.82609E-05
 -1      7895 1.90072E-02-6.34576E-03 2.73295E-05
 -1      7896 1.90126E-02-6.35129E-03 1.63978E-05
 -1      7897 1.90153E-02-6.35405E-03 5.46596E-06
 -1      7898 1.90153E-02-6.35405E-03-5.46596E-06
 -1      7899 1.90126E-02-6.35129E-03-1.63978E-05
 -1      7900 1.90072E-02-6.34576E-03-2.73295E-05
 -1      7901 1.89991E-02-6.33748E-03-3.82609E-05
 -1      7902 1.89883E-02-6.32643E-03-4.91919E-05
 -1      7903 2.12046E-02-8.09893E-03 4.49689E-05
 -1      7904 2.12139E-02-8.11011E-03 3.49763E-05
 -1      7905 2.12209E-02-8.11850E-03 2.49833E-05
 -1      7906 2.12255E-02-8.12409E-03 1.49901E-05
 -1      7907 2.12279E-02-8.12689E-03 4.99673E-06
 -1      7908 2.12279E-02-8.12689E-03-4.99673E-06
 -1      7909 2.12255E-02-8.12409E-03-1.49901E-05
 -1      7910 2.12209E-02-8.11850E-03-2.49833E-05
 -1      7911 2.12139E-02-8.11011E-03-3.49763E-05
 -1      7912 2.12046E-02-8.09893E-03-4.49689E-05
 -1      7913 2.34269E-02-1.01012E-02 3.93332E-05
 -1      7914 2.34346E-02-1.01123E-02 3.05929E-05
 -1      7915 2.34403E-02-1.01206E-02 2.18523E-05
 -1      7916 2.34442E-02-1.01262E-02 1.31115E-05
 -1      7917 2.34461E-02-1.01290E-02 4.37052E-06
 -1      7918 2.34461E-02-1.01290E-02-4.37052E-06
 -1      7919 2.34442E-02-1.01262E-02-1.31115E-05
 -1      7920 2.34403E-02-1.01206E-02-2.18523E-05
 -1      7921 2.34346E-02-1.01123E-02-3.05929E-05
 -1      7922 2.34269E-02-1.01012E-02-3.93332E-05
 -1      7923 2.56295E-02-1.23310E-02 3.21613E-05
 -1      7924 2.56355E-02-1.23419E-02 2.50147E-05
 -1      7925 2.56400E-02-1.23500E-02 1.78679E-05
 -1      7926 2.56430E-02-1.23555E-02 1.07208E-05
 -1      7927 2.56445E-02-1.23582E-02 3.57362E-06
 -1      7928 2.56445E-02-1.23582E-02-3.57362E-06
 -1      7929 2.56430E-02-1.23555E-02-1.07208E-05
 -1      7930 2.56400E-02-1.23500E-02-1.78679E-05
 -1      7931 2.56355E-02-1.23419E-02-2.50147E-05
 -1      7932 2.56295E-02-1.23310E-02-3.21613E-05
 -1      7933 2.77862E-02-1.47829E-02 2.33294E-05
 -1      7934 2.77904E-02-1.47933E-02 1.81453E-05
 -1      7935 2.77936E-02-1.48010E-02 1.29611E-05
 -1      7936 2.77957E-02-1.48062E-02 7.77674E-06
 -1      7937 2.77968E-02-1.48088E-02 2.59226E-06
 -1      7938 2.77968E-02-1.48088E-02-2.59226E-06
 -1      7939 2.77957E-02-1.48062E-02-7.77674E-06
 -1      7940 2.77936E-02-1.48010E-02-1.29611E-05
 -1      7941 2.77904E-02-1.47933E-02-1.81453E-05
 -1      7942 2.77862E-02-1.47829E-02-2.33294E-05
 -1      7943 2.98698E-02-1.74473E-02 1.27377E-05
 -1      7944 2.98723E-02-1.74569E-02 9.90726E-06
 -1      7945 2.98741E-02-1.74640E-02 7.07674E-06
 -1      7946 2.98754E-02-1.74688E-02 4.24611E-06
 -1      7947 2.98760E-02-1.74712E-02 1.41538E-06
 -1      7948 2.98760E-02-1.74712E-02-1.41538E-06
 -1      7949 2.98754E-02-1.74688E-02-4.24611E-06
 -1      7950 2.98741E-02-1.74640E-02-7.07674E-06
 -1      7951 2.98723E-02-1.74569E-02-9.90726E-06
 -1      7952 2.98698E-02-1.74473E-02-1.27377E-05
 -1      7953 3.18528E-02-2.03102E-02 3.44394E-07
 -1      7954 3.18535E-02-2.03187E-02 2.67902E-07
 -1      7955 3.18540E-02-2.03250E-02 1.91433E-07
 -1      7956 3.18544E-02-2.03293E-02 1.14905E-07
 -1      7957 3.18546E-02-2.03314E-02 3.83107E-08
 -1      7958 3.18546E-02-2.03314E-02-3.83107E-08
 -1      7959 3.18544E-02-2.03293E-02-1.14905E-07
 -1      7960 3.18540E-02-2.03250E-02-1.91433E-07
 -1      7961 3.18535E-02-2.03187E-02-2.67902E-07
 -1      7962 3.18528E-02-2.03102E-02-3.44394E-07
 -1      7963 3.37075E-02-2.33527E-02-1.37931E-05
 -1      7964 3.37065E-02-2.33598E-02-1.07280E-05
 -1      7965 3.37058E-02-2.33651E-02-7.66288E-06
 -1      7966 3.37054E-02-2.33687E-02-4.59771E-06
 -1      7967 3.37051E-02-2.33705E-02-1.53257E-06
 -1      7968 3.37051E-02-2.33705E-02 1.53257E-06
 -1      7969 3.37054E-02-2.33687E-02 4.59771E-06
 -1      7970 3.37058E-02-2.33651E-02 7.66288E-06
 -1      7971 3.37065E-02-2.33598E-02 1.07280E-05
 -1      7972 3.37075E-02-2.33527E-02 1.37931E-05
 -1      7973 3.54067E-02-2.65504E-02-2.94674E-05
 -1      7974 3.54043E-02-2.65559E-02-2.29195E-05
 -1      7975 3.54024E-02-2.65599E-02-1.63712E-05
 -1      7976 3.54012E-02-2.65626E-02-9.82279E-06
 -1      7977 3.54006E-02-2.65640E-02-3.27427E-06
 -1      7978 3.54006E-02-2.65640E-02 3.27427E-06
 -1      7979 3.54012E-02-2.65626E-02 9.82279E-06
 -1      7980 3.54024E-02-2.65599E-02 1.63712E-05
 -1      7981 3.54043E-02-2.65559E-02 2.29195E-05
 -1      7982 3.54067E-02-2.65504E-02 2.94674E-05
 -1      7983 3.69248E-02-2.98731E-02-4.62663E-05
 -1      7984 3.69211E-02-2.98765E-02-3.59859E-05
 -1      7985 3.69183E-02-2.98791E-02-2.57048E-05
 -1      7986 3.69165E-02-2.98808E-02-1.54232E-05
 -1      7987 3.69156E-02-2.98817E-02-5.14111E-06
 -1      7988 3.69156E-02-2.98817E-02 5.14111E-06
 -1      7989 3.69165E-02-2.98808E-02 1.54232E-05
 -1      7990 3.69183E-02-2.98791E-02 2.57048E-05
 -1      7991 3.69211E-02-2.98765E-02 3.59859E-05
 -1      7992 3.69248E-02-2.98731E-02 4.62663E-05
 -1      7993 3.82389E-02-3.32843E-02-6.35161E-05
 -1      7994 3.82343E-02-3.32854E-02-4.94039E-05
 -1      7995 3.82309E-02-3.32862E-02-3.52900E-05
 -1      7996 3.82286E-02-3.32867E-02-2.11747E-05
 -1      7997 3.82275E-02-3.32870E-02-7.05836E-06
 -1      7998 3.82275E-02-3.32870E-02 7.05836E-06
 -1      7999 3.82286E-02-3.32867E-02 2.11747E-05
 -1      8000 3.82309E-02-3.32862E-02 3.52900E-05
 -1      8001 3.82343E-02-3.32854E-02 4.94039E-05
 -1      8002 3.82389E-02-3.32843E-02 6.35161E-05
 -1      8003 3.93305E-02-3.67414E-02-8.02298E-05
 -1      8004 3.93256E-02-3.67400E-02-6.24048E-05
 -1      8005 3.93220E-02-3.67389E-02-4.45769E-05
 -1      8006 3.93195E-02-3.67382E-02-2.67469E-05
 -1      8007 3.93183E-02-3.67379E-02-8.91578E-06
 -1      8008 3.93183E-02-3.67379E-02 8.91578E-06
 -1      8009 3.93195E-02-3.67382E-02 2.67469E-05
 -1      8010 3.93220E-02-3.67389E-02 4.45769E-05
 -1      8011 3.93256E-02-3.67400E-02 6.24048E-05
 -1      8012 3.93305E-02-3.67414E-02 8.02298E-05
 -1      8013 4.01880E-02-4.01971E-02-9.50597E-05
 -1      8014 4.01834E-02-4.01931E-02-7.39319E-05
 -1      8015 4.01800E-02-4.01901E-02-5.28052E-05
 -1      8016 4.01777E-02-4.01880E-02-3.16813E-05
 -1      8017 4.01766E-02-4.01870E-02-1.05601E-05
 -1      8018 4.01766E-02-4.01870E-02 1.05601E-05
 -1      8019 4.01777E-02-4.01880E-02 3.16813E-05
 -1      8020 4.01800E-02-4.01901E-02 5.28052E-05
 -1      8021 4.01834E-02-4.01931E-02 7.39319E-05
 -1      8022 4.01880E-02-4.01971E-02 9.50597E-05
 -1      8023 4.08083E-02-4.36005E-02-1.06261E-04
 -1      8024 4.08048E-02-4.35939E-02-8.26050E-05
 -1      8025 4.08021E-02-4.35889E-02-5.89728E-05
 -1      8026 4.08003E-02-4.35856E-02-3.53687E-05
 -1      8027 4.07994E-02-4.35840E-02-1.17868E-05
 -1      8028 4.07994E-02-4.35840E-02 1.17868E-05
 -1      8029 4.08003E-02-4.35856E-02 3.53687E-05
 -1      8030 4.08021E-02-4.35889E-02 5.89728E-05
 -1      8031 4.08048E-02-4.35939E-02 8.26050E-05
 -1      8032 4.08083E-02-4.36005E-02 1.06261E-04
 -1      8033 4.11993E-02-4.68996E-02-1.11810E-04
 -1      8034 4.11975E-02-4.68906E-02-8.67973E-05
 -1      8035 4.11960E-02-4.68838E-02-6.18874E-05
 -1      8036 4.11949E-02-4.68793E-02-3.70823E-05
 -1      8037 4.11943E-02-4.68771E-02-1.23519E-05
 -1      8038 4.11943E-02-4.68771E-02 1.23519E-05
 -1      8039 4.11949E-02-4.68793E-02 3.70823E-05
 -1      8040 4.11960E-02-4.68838E-02 6.18874E-05
 -1      8041 4.11975E-02-4.68906E-02 8.67973E-05
 -1      8042 4.11993E-02-4.68996E-02 1.11810E-04
 -1      8043 4.13812E-02-5.00441E-02-1.10064E-04
 -1      8044 4.13812E-02-5.00330E-02-8.52568E-05
 -1      8045 4.13809E-02-5.00247E-02-6.07077E-05
 -1      8046 4.13805E-02-5.00192E-02-3.63486E-05
 -1      8047 4.13803E-02-5.00165E-02-1.21036E-05
 -1      8048 4.13803E-02-5.00165E-02 1.21036E-05
 -1      8049 4.13805E-02-5.00192E-02 3.63486E-05
 -1      8050 4.13809E-02-5.00247E-02 6.07077E-05
 -1      8051 4.13812E-02-5.00330E-02 8.52568E-05
 -1      8052 4.13812E-02-5.00441E-02 1.10064E-04
 -1      8053 1.66541E-04 1.66448E-04-5.82656E-05
 -1      8054 1.80870E-04 1.62088E-04-4.30205E-05
 -1      8055 1.90303E-04 1.60088E-04-2.95827E-05
 -1      8056 1.96051E-04 1.59112E-04-1.73156E-05
 -1      8057 1.98778E-04 1.58700E-04-5.70192E-06
 -1      8058 1.98778E-04 1.58700E-04 5.70192E-06
 -1      8059 1.96051E-04 1.59112E-04 1.73156E-05
 -1      8060 1.90303E-04 1.60088E-04 2.95827E-05
 -1      8061 1.80870E-04 1.62088E-04 4.30205E-05
 -1      8062 1.66541E-04 1.66448E-04 5.82656E-05
 -1      8063 5.90953E-04 3.68612E-04-5.64635E-05
 -1      8064 6.10226E-04 3.66846E-04-4.44877E-05
 -1      8065 6.24056E-04 3.65024E-04-3.18907E-05
 -1      8066 6.32965E-04 3.63744E-04-1.91382E-05
 -1      8067 6.37325E-04 3.63102E-04-6.37659E-06
 -1      8068 6.37325E-04 3.63102E-04 6.37659E-06
 -1      8069 6.32965E-04 3.63744E-04 1.91382E-05
 -1      8070 6.24056E-04 3.65024E-04 3.18907E-05
 -1      8071 6.10226E-04 3.66846E-04 4.44877E-05
 -1      8072 5.90953E-04 3.68612E-04 5.64635E-05
 -1      8073 1.25369E-03 5.63111E-04-4.00367E-05
 -1      8074 1.27405E-03 5.63457E-04-3.16712E-05
 -1      8075 1.28906E-03 5.63181E-04-2.29504E-05
 -1      8076 1.29895E-03 5.62748E-04-1.39029E-05
 -1      8077 1.30385E-03 5.62464E-04-4.65607E-06
 -1      8078 1.30385E-03 5.62464E-04 4.65607E-06
 -1      8079 1.29895E-03 5.62748E-04 1.39029E-05
 -1      8080 1.28906E-03 5.63181E-04 2.29504E-05
 -1      8081 1.27405E-03 5.63457E-04 3.16712E-05
 -1      8082 1.25369E-03 5.63111E-04 4.00367E-05
 -1      8083 2.13690E-03 7.21508E-04-2.59419E-05
 -1      8084 2.15699E-03 7.20507E-04-2.02197E-05
 -1      8085 2.17204E-03 7.19792E-04-1.45005E-05
 -1      8086 2.18204E-03 7.19292E-04-8.73534E-06
 -1      8087 2.18703E-03 7.19027E-04-2.91877E-06
 -1      8088 2.18703E-03 7.19027E-04 2.91877E-06
 -1      8089 2.18204E-03 7.19292E-04 8.73534E-06
 -1      8090 2.17204E-03 7.19792E-04 1.45005E-05
 -1      8091 2.15699E-03 7.20507E-04 2.02197E-05
 -1      8092 2.13690E-03 7.21508E-04 2.59419E-05
 -1      8093 3.22617E-03 8.08722E-04-1.46780E-05
 -1      8094 3.24565E-03 8.06272E-04-1.14120E-05
 -1      8095 3.26028E-03 8.04436E-04-8.14193E-06
 -1      8096 3.27004E-03 8.03227E-04-4.88053E-06
 -1      8097 3.27492E-03 8.02629E-04-1.62611E-06
 -1      8098 3.27492E-03 8.02629E-04 1.62611E-06
 -1      8099 3.27004E-03 8.03227E-04 4.88053E-06
 -1      8100 3.26028E-03 8.04436E-04 8.14193E-06
 -1      8101 3.24565E-03 8.06272E-04 1.14120E-05
 -1      8102 3.22617E-03 8.08722E-04 1.46780E-05
 -1      8103 4.50853E-03 7.94775E-04-5.75587E-06
 -1      8104 4.52736E-03 7.90882E-04-4.46651E-06
 -1      8105 4.54149E-03 7.87973E-04-3.18563E-06
 -1      8106 4.55092E-03 7.86036E-04-1.90888E-06
 -1      8107 4.55563E-03 7.85068E-04-6.35772E-07
 -1      8108 4.55563E-03 7.85068E-04 6.35772E-07
 -1      8109 4.55092E-03 7.86036E-04 1.90888E-06
 -1      8110 4.54149E-03 7.87973E-04 3.18563E-06
 -1      8111 4.52736E-03 7.90882E-04 4.46651E-06
 -1      8112 4.50853E-03 7.94775E-04 5.75587E-06
 -1      8113 5.97157E-03 6.53071E-04 1.36729E-06
 -1      8114 5.98969E-03 6.47897E-04 1.06405E-06
 -1      8115 6.00329E-03 6.44017E-04 7.61181E-07
 -1      8116 6.01235E-03 6.41431E-04 4.57108E-07
 -1      8117 6.01688E-03 6.40138E-04 1.52424E-07
 -1      8118 6.01688E-03 6.40138E-04-1.52424E-07
 -1      8119 6.01235E-03 6.41431E-04-4.57108E-07
 -1      8120 6.00329E-03 6.44017E-04-7.61181E-07
 -1      8121 5.98969E-03 6.47897E-04-1.06405E-06
 -1      8122 5.97157E-03 6.53071E-04-1.36729E-06
 -1      8123 7.60215E-03 3.60234E-04 6.95619E-06
 -1      8124 7.61949E-03 3.53914E-04 5.40936E-06
 -1      8125 7.63250E-03 3.49174E-04 3.86317E-06
 -1      8126 7.64117E-03 3.46014E-04 2.31770E-06
 -1      8127 7.64550E-03 3.44433E-04 7.72537E-07
 -1      8128 7.64550E-03 3.44433E-04-7.72537E-07
 -1      8129 7.64117E-03 3.46014E-04-2.31770E-06
 -1      8130 7.63250E-03 3.49174E-04-3.86317E-06
 -1      8131 7.61949E-03 3.53914E-04-5.40936E-06
 -1      8132 7.60215E-03 3.60234E-04-6.95619E-06
 -1      8133 9.38572E-03-1.04216E-04 1.11932E-05
 -1      8134 9.40219E-03-1.11547E-04 8.70522E-06
 -1      8135 9.41454E-03-1.17046E-04 6.21764E-06
 -1      8136 9.42278E-03-1.20712E-04 3.73040E-06
 -1      8137 9.42690E-03-1.22546E-04 1.24343E-06
 -1      8138 9.42690E-03-1.22546E-04-1.24343E-06
 -1      8139 9.42278E-03-1.20712E-04-3.73040E-06
 -1      8140 9.41454E-03-1.17046E-04-6.21764E-06
 -1      8141 9.40219E-03-1.11547E-04-8.70522E-06
 -1      8142 9.38572E-03-1.04216E-04-1.11932E-05
 -1      8143 1.13060E-02-7.58025E-04 1.42282E-05
 -1      8144 1.13215E-02-7.66231E-04 1.10664E-05
 -1      8145 1.13331E-02-7.72385E-04 7.90455E-06
 -1      8146 1.13409E-02-7.76489E-04 4.74272E-06
 -1      8147 1.13447E-02-7.78540E-04 1.58090E-06
 -1      8148 1.13447E-02-7.78540E-04-1.58090E-06
 -1      8149 1.13409E-02-7.76489E-04-4.74272E-06
 -1      8150 1.13331E-02-7.72385E-04-7.90455E-06
 -1      8151 1.13215E-02-7.66231E-04-1.10664E-05
 -1      8152 1.13060E-02-7.58025E-04-1.42282E-05
 -1      8153 1.33447E-02-1.61630E-03 1.61766E-05
 -1      8154 1.33592E-02-1.62524E-03 1.25821E-05
 -1      8155 1.33700E-02-1.63194E-03 8.98739E-06
 -1      8156 1.33773E-02-1.63641E-03 5.39250E-06
 -1      8157 1.33809E-02-1.63864E-03 1.79751E-06
 -1      8158 1.33809E-02-1.63864E-03-1.79751E-06
 -1      8159 1.33773E-02-1.63641E-03-5.39250E-06
 -1      8160 1.33700E-02-1.63194E-03-8.98739E-06
 -1      8161 1.33592E-02-1.62524E-03-1.25821E-05
 -1      8162 1.33447E-02-1.61630E-03-1.61766E-05
 -1      8163 1.54820E-02-2.69152E-03 1.71096E-05
 -1      8164 1.54953E-02-2.70104E-03 1.33079E-05
 -1      8165 1.55053E-02-2.70818E-03 9.50588E-06
 -1      8166 1.55120E-02-2.71294E-03 5.70363E-06
 -1      8167 1.55153E-02-2.71532E-03 1.90123E-06
 -1      8168 1.55153E-02-2.71532E-03-1.90123E-06
 -1      8169 1.55120E-02-2.71294E-03-5.70363E-06
 -1      8170 1.55053E-02-2.70818E-03-9.50588E-06
 -1      8171 1.54953E-02-2.70104E-03-1.33079E-05
 -1      8172 1.54820E-02-2.69152E-03-1.71096E-05
 -1      8173 1.76962E-02-3.99345E-03 1.70518E-05
 -1      8174 1.77082E-02-4.00340E-03 1.32630E-05
 -1      8175 1.77173E-02-4.01086E-03 9.47381E-06
 -1      8176 1.77233E-02-4.01583E-03 5.68439E-06
 -1      8177 1.77263E-02-4.01832E-03 1.89481E-06
 -1      8178 1.77263E-02-4.01832E-03-1.89481E-06
 -1      8179 1.77233E-02-4.01583E-03-5.68439E-06
 -1      8180 1.77173E-02-4.01086E-03-9.47381E-06
 -1      8181 1.77082E-02-4.00340E-03-1.32630E-05
 -1      8182 1.76962E-02-3.99345E-03-1.70518E-05
 -1      8183 1.99640E-02-5.52906E-03 1.59838E-05
 -1      8184 1.99747E-02-5.53926E-03 1.24323E-05
 -1      8185 1.99827E-02-5.54692E-03 8.88048E-06
 -1      8186 1.99880E-02-5.55203E-03 5.32839E-06
 -1      8187 1.99907E-02-5.55458E-03 1.77615E-06
 -1      8188 1.99907E-02-5.55458E-03-1.77615E-06
 -1      8189 1.99880E-02-5.55203E-03-5.32839E-06
 -1      8190 1.99827E-02-5.54692E-03-8.88048E-06
 -1      8191 1.99747E-02-5.53926E-03-1.24323E-05
 -1      8192 1.99640E-02-5.52906E-03-1.59838E-05
 -1      8193 2.22608E-02-7.30228E-03 1.38483E-05
 -1      8194 2.22701E-02-7.31258E-03 1.07713E-05
 -1      8195 2.22770E-02-7.32030E-03 7.69403E-06
 -1      8196 2.22817E-02-7.32545E-03 4.61651E-06
 -1      8197 2.22840E-02-7.32802E-03 1.53886E-06
 -1      8198 2.22840E-02-7.32802E-03-1.53886E-06
 -1      8199 2.22817E-02-7.32545E-03-4.61651E-06
 -1      8200 2.22770E-02-7.32030E-03-7.69403E-06
 -1      8201 2.22701E-02-7.31258E-03-1.07713E-05
 -1      8202 2.22608E-02-7.30228E-03-1.38483E-05
 -1      8203 2.45609E-02-9.31387E-03 1.05582E-05
 -1      8204 2.45687E-02-9.32407E-03 8.21233E-06
 -1      8205 2.45746E-02-9.33171E-03 5.86616E-06
 -1      8206 2.45784E-02-9.33681E-03 3.51979E-06
 -1      8207 2.45804E-02-9.33936E-03 1.17328E-06
 -1      8208 2.45804E-02-9.33936E-03-1.17328E-06
 -1      8209 2.45784E-02-9.33681E-03-3.51979E-06
 -1      8210 2.45746E-02-9.33171E-03-5.86616E-06
 -1      8211 2.45687E-02-9.32407E-03-8.21233E-06
 -1      8212 2.45609E-02-9.31387E-03-1.05582E-05
 -1      8213 2.68377E-02-1.15611E-02 6.00926E-06
 -1      8214 2.68439E-02-1.15710E-02 4.67415E-06
 -1      8215 2.68486E-02-1.15784E-02 3.33885E-06
 -1      8216 2.68517E-02-1.15833E-02 2.00339E-06
 -1      8217 2.68532E-02-1.15858E-02 6.67809E-07
 -1      8218 2.68532E-02-1.15858E-02-6.67809E-07
 -1      8219 2.68517E-02-1.15833E-02-2.00339E-06
 -1      8220 2.68486E-02-1.15784E-02-3.33885E-06
 -1      8221 2.68439E-02-1.15710E-02-4.67415E-06
 -1      8222 2.68377E-02-1.15611E-02-6.00926E-06
 -1      8223 2.90635E-02-1.40374E-02 9.59420E-08
 -1      8224 2.90681E-02-1.40468E-02 7.48028E-08
 -1      8225 2.90716E-02-1.40538E-02 5.35545E-08
 -1      8226 2.90739E-02-1.40585E-02 3.21902E-08
 -1      8227 2.90750E-02-1.40608E-02 1.07404E-08
 -1      8228 2.90750E-02-1.40608E-02-1.07404E-08
 -1      8229 2.90739E-02-1.40585E-02-3.21901E-08
 -1      8230 2.90716E-02-1.40538E-02-5.35545E-08
 -1      8231 2.90681E-02-1.40468E-02-7.48027E-08
 -1      8232 2.90635E-02-1.40374E-02-9.59420E-08
 -1      8233 3.12103E-02-1.67322E-02-7.26537E-06
 -1      8234 3.12133E-02-1.67408E-02-5.65078E-06
 -1      8235 3.12156E-02-1.67472E-02-4.03620E-06
 -1      8236 3.12171E-02-1.67515E-02-2.42168E-06
 -1      8237 3.12178E-02-1.67536E-02-8.07219E-07
 -1      8238 3.12178E-02-1.67536E-02 8.07219E-07
 -1      8239 3.12171E-02-1.67515E-02 2.42168E-06
 -1      8240 3.12156E-02-1.67472E-02 4.03620E-06
 -1      8241 3.12133E-02-1.67408E-02 5.65078E-06
 -1      8242 3.12103E-02-1.67322E-02 7.26537E-06
 -1      8243 3.32499E-02-1.96301E-02-1.61068E-05
 -1      8244 3.32513E-02-1.96376E-02-1.25276E-05
 -1      8245 3.32524E-02-1.96433E-02-8.94824E-06
 -1      8246 3.32531E-02-1.96471E-02-5.36892E-06
 -1      8247 3.32534E-02-1.96489E-02-1.78964E-06
 -1      8248 3.32534E-02-1.96489E-02 1.78964E-06
 -1      8249 3.32531E-02-1.96471E-02 5.36892E-06
 -1      8250 3.32524E-02-1.96433E-02 8.94824E-06
 -1      8251 3.32513E-02-1.96376E-02 1.25276E-05
 -1      8252 3.32499E-02-1.96301E-02 1.61068E-05
 -1      8253 3.51542E-02-2.27109E-02-2.63718E-05
 -1      8254 3.51541E-02-2.27171E-02-2.05115E-05
 -1      8255 3.51540E-02-2.27218E-02-1.46511E-05
 -1      8256 3.51540E-02-2.27249E-02-8.79067E-06
 -1      8257 3.51540E-02-2.27265E-02-2.93022E-06
 -1      8258 3.51540E-02-2.27265E-02 2.93022E-06
 -1      8259 3.51540E-02-2.27249E-02 8.79067E-06
 -1      8260 3.51540E-02-2.27218E-02 1.46511E-05
 -1      8261 3.51541E-02-2.27171E-02 2.05115E-05
 -1      8262 3.51542E-02-2.27109E-02 2.63718E-05
 -1      8263 3.68962E-02-2.59490E-02-3.78708E-05
 -1      8264 3.68948E-02-2.59537E-02-2.94553E-05
 -1      8265 3.68937E-02-2.59572E-02-2.10397E-05
 -1      8266 3.68930E-02-2.59595E-02-1.26238E-05
 -1      8267 3.68927E-02-2.59607E-02-4.20796E-06
 -1      8268 3.68927E-02-2.59607E-02 4.20796E-06
 -1      8269 3.68930E-02-2.59595E-02 1.26238E-05
 -1      8270 3.68937E-02-2.59572E-02 2.10397E-05
 -1      8271 3.68948E-02-2.59537E-02 2.94553E-05
 -1      8272 3.68962E-02-2.59490E-02 3.78708E-05
 -1      8273 3.84508E-02-2.93132E-02-5.02333E-05
 -1      8274 3.84483E-02-2.93160E-02-3.90711E-05
 -1      8275 3.84464E-02-2.93181E-02-2.79083E-05
 -1      8276 3.84452E-02-2.93195E-02-1.67452E-05
 -1      8277 3.84446E-02-2.93202E-02-5.58177E-06
 -1      8278 3.84446E-02-2.93202E-02 5.58177E-06
 -1      8279 3.84452E-02-2.93195E-02 1.67452E-05
 -1      8280 3.84464E-02-2.93181E-02 2.79083E-05
 -1      8281 3.84483E-02-2.93160E-02 3.90711E-05
 -1      8282 3.84508E-02-2.93132E-02 5.02333E-05
 -1      8283 3.97962E-02-3.27666E-02-6.28590E-05
 -1      8284 3.97929E-02-3.27674E-02-4.88921E-05
 -1      8285 3.97905E-02-3.27680E-02-3.49241E-05
 -1      8286 3.97889E-02-3.27684E-02-2.09550E-05
 -1      8287 3.97881E-02-3.27686E-02-6.98510E-06
 -1      8288 3.97881E-02-3.27686E-02 6.98510E-06
 -1      8289 3.97889E-02-3.27684E-02 2.09550E-05
 -1      8290 3.97905E-02-3.27680E-02 3.49241E-05
 -1      8291 3.97929E-02-3.27674E-02 4.88921E-05
 -1      8292 3.97962E-02-3.27666E-02 6.28590E-05
 -1      8293 4.09152E-02-3.62677E-02-7.48714E-05
 -1      8294 4.09117E-02-3.62663E-02-5.82368E-05
 -1      8295 4.09091E-02-3.62652E-02-4.15997E-05
 -1      8296 4.09074E-02-3.62645E-02-2.49606E-05
 -1      8297 4.09065E-02-3.62641E-02-8.32035E-06
 -1      8298 4.09065E-02-3.62641E-02 8.32035E-06
 -1      8299 4.09074E-02-3.62645E-02 2.49606E-05
 -1      8300 4.09091E-02-3.62652E-02 4.15997E-05
 -1      8301 4.09117E-02-3.62663E-02 5.82368E-05
 -1      8302 4.09152E-02-3.62677E-02 7.48714E-05
 -1      8303 4.17975E-02-3.97707E-02-8.50745E-05
 -1      8304 4.17943E-02-3.97670E-02-6.61685E-05
 -1      8305 4.17920E-02-3.97643E-02-4.72623E-05
 -1      8306 4.17904E-02-3.97624E-02-2.83568E-05
 -1      8307 4.17896E-02-3.97615E-02-9.45214E-06
 -1      8308 4.17896E-02-3.97615E-02 9.45214E-06
 -1      8309 4.17904E-02-3.97624E-02 2.83568E-05
 -1      8310 4.17920E-02-3.97643E-02 4.72623E-05
 -1      8311 4.17943E-02-3.97670E-02 6.61685E-05
 -1      8312 4.17975E-02-3.97707E-02 8.50745E-05
 -1      8313 4.24410E-02-4.32278E-02-9.19040E-05
 -1      8314 4.24388E-02-4.32220E-02-7.14532E-05
 -1      8315 4.24372E-02-4.32177E-02-5.10176E-05
 -1      8316 4.24361E-02-4.32148E-02-3.06004E-05
 -1      8317 4.24355E-02-4.32133E-02-1.01982E-05
 -1      8318 4.24355E-02-4.32133E-02 1.01982E-05
 -1      8319 4.24361E-02-4.32148E-02 3.06004E-05
 -1      8320 4.24372E-02-4.32177E-02 5.10176E-05
 -1      8321 4.24388E-02-4.32220E-02 7.14532E-05
 -1      8322 4.24410E-02-4.32278E-02 9.19040E-05
 -1      8323 4.28540E-02-4.65915E-02-9.34961E-05
 -1      8324 4.28534E-02-4.65838E-02-7.25896E-05
 -1      8325 4.28529E-02-4.65780E-02-5.17609E-05
 -1      8326 4.28525E-02-4.65741E-02-3.10157E-05
 -1      8327 4.28522E-02-4.65721E-02-1.03313E-05
 -1      8328 4.28522E-02-4.65721E-02 1.03313E-05
 -1      8329 4.28525E-02-4.65741E-02 3.10157E-05
 -1      8330 4.28529E-02-4.65780E-02 5.17609E-05
 -1      8331 4.28534E-02-4.65838E-02 7.25896E-05
 -1      8332 4.28540E-02-4.65915E-02 9.34961E-05
 -1      8333 4.30565E-02-4.98165E-02-8.81791E-05
 -1      8334 4.30576E-02-4.98072E-02-6.82673E-05
 -1      8335 4.30582E-02-4.98002E-02-4.85886E-05
 -1      8336 4.30584E-02-4.97955E-02-2.90834E-05
 -1      8337 4.30585E-02-4.97932E-02-9.68288E-06
 -1      8338 4.30585E-02-4.97932E-02 9.68288E-06
 -1      8339 4.30584E-02-4.97955E-02 2.90834E-05
 -1      8340 4.30582E-02-4.98002E-02 4.85886E-05
 -1      8341 4.30576E-02-4.98072E-02 6.82673E-05
 -1      8342 4.30565E-02-4.98165E-02 8.81791E-05
 -1      8343 2.22919E-04 2.48562E-04-9.75938E-05
 -1      8344 2.37009E-04 2.40766E-04-7.22774E-05
 -1      8345 2.46314E-04 2.37053E-04-4.98144E-05
 -1      8346 2.51990E-04 2.35198E-04-2.92023E-05
 -1      8347 2.54685E-04 2.34407E-04-9.62347E-06
 -1      8348 2.54685E-04 2.34407E-04 9.62347E-06
 -1      8349 2.51990E-04 2.35198E-04 2.92023E-05
 -1      8350 2.46314E-04 2.37053E-04 4.98144E-05
 -1      8351 2.37009E-04 2.40766E-04 7.22774E-05
 -1      8352 2.22919E-04 2.48562E-04 9.75938E-05
 -1      8353 7.08103E-04 5.38348E-04-1.02399E-04
 -1      8354 7.26750E-04 5.34973E-04-8.05264E-05
 -1      8355 7.40178E-04 5.31677E-04-5.76931E-05
 -1      8356 7.48854E-04 5.29395E-04-3.46201E-05
 -1      8357 7.53106E-04 5.28255E-04-1.15353E-05
 -1      8358 7.53106E-04 5.28255E-04 1.15353E-05
 -1      8359 7.48854E-04 5.29395E-04 3.46201E-05
 -1      8360 7.40178E-04 5.31677E-04 5.76931E-05
 -1      8361 7.26750E-04 5.34973E-04 8.05264E-05
 -1      8362 7.08103E-04 5.38348E-04 1.02399E-04
 -1      8363 1.43325E-03 8.18900E-04-8.41471E-05
 -1      8364 1.45284E-03 8.19473E-04-6.62533E-05
 -1      8365 1.46730E-03 8.19091E-04-4.78288E-05
 -1      8366 1.47682E-03 8.18449E-04-2.89031E-05
 -1      8367 1.48155E-03 8.18024E-04-9.66832E-06
 -1      8368 1.48155E-03 8.18024E-04 9.66832E-06
 -1      8369 1.47682E-03 8.18449E-04 2.89031E-05
 -1      8370 1.46730E-03 8.19091E-04 4.78288E-05
 -1      8371 1.45284E-03 8.19473E-04 6.62533E-05
 -1      8372 1.43325E-03 8.18900E-04 8.41471E-05
 -1      8373 2.37933E-03 1.06256E-03-6.86499E-05
 -1      8374 2.39859E-03 1.06186E-03-5.34617E-05
 -1      8375 2.41303E-03 1.06139E-03-3.82755E-05
 -1      8376 2.42263E-03 1.06104E-03-2.30191E-05
 -1      8377 2.42742E-03 1.06084E-03-7.68385E-06
 -1      8378 2.42742E-03 1.06084E-03 7.68385E-06
 -1      8379 2.42263E-03 1.06104E-03 2.30191E-05
 -1      8380 2.41303E-03 1.06139E-03 3.82755E-05
 -1      8381 2.39859E-03 1.06186E-03 5.34617E-05
 -1      8382 2.37933E-03 1.06256E-03 6.86499E-05
 -1      8383 3.53197E-03 1.23064E-03-5.64473E-05
 -1      8384 3.55065E-03 1.22855E-03-4.39031E-05
 -1      8385 3.56467E-03 1.22697E-03-3.13489E-05
 -1      8386 3.57403E-03 1.22594E-03-1.88039E-05
 -1      8387 3.57871E-03 1.22543E-03-6.26710E-06
 -1      8388 3.57871E-03 1.22543E-03 6.26710E-06
 -1      8389 3.57403E-03 1.22594E-03 1.88039E-05
 -1      8390 3.56467E-03 1.22697E-03 3.13489E-05
 -1      8391 3.55065E-03 1.22855E-03 4.39031E-05
 -1      8392 3.53197E-03 1.23064E-03 5.64473E-05
 -1      8393 4.87902E-03 1.29160E-03-4.68335E-05
 -1      8394 4.89710E-03 1.28807E-03-3.64117E-05
 -1      8395 4.91067E-03 1.28544E-03-2.60024E-05
 -1      8396 4.91972E-03 1.28369E-03-1.55985E-05
 -1      8397 4.92424E-03 1.28281E-03-5.19885E-06
 -1      8398 4.92424E-03 1.28281E-03 5.19885E-06
 -1      8399 4.91972E-03 1.28369E-03 1.55985E-05
 -1      8400 4.91067E-03 1.28544E-03 2.60024E-05
 -1      8401 4.89710E-03 1.28807E-03 3.64117E-05
 -1      8402 4.87902E-03 1.29160E-03 4.68335E-05
 -1      8403 6.40900E-03 1.21790E-03-3.90372E-05
 -1      8404 6.42644E-03 1.21313E-03-3.03606E-05
 -1      8405 6.43953E-03 1.20955E-03-2.16839E-05
 -1      8406 6.44825E-03 1.20717E-03-1.30096E-05
 -1      8407 6.45261E-03 1.20598E-03-4.33641E-06
 -1      8408 6.45261E-03 1.20598E-03 4.33641E-06
 -1      8409 6.44825E-03 1.20717E-03 1.30096E-05
 -1      8410 6.43953E-03 1.20955E-03 2.16839E-05
 -1      8411 6.42644E-03 1.21313E-03 3.03606E-05
 -1      8412 6.40900E-03 1.21790E-03 3.90372E-05
 -1      8413 8.10945E-03 9.85610E-04-3.27090E-05
 -1      8414 8.12619E-03 9.79740E-04-2.54409E-05
 -1      8415 8.13875E-03 9.75336E-04-1.81725E-05
 -1      8416 8.14712E-03 9.72400E-04-1.09035E-05
 -1      8417 8.15130E-03 9.70932E-04-3.63451E-06
 -1      8418 8.15130E-03 9.70932E-04 3.63451E-06
 -1      8419 8.14712E-03 9.72400E-04 1.09035E-05
 -1      8420 8.13875E-03 9.75336E-04 1.81725E-05
 -1      8421 8.12619E-03 9.79740E-04 2.54409E-05
 -1      8422 8.10945E-03 9.85610E-04 3.27090E-05
 -1      8423 9.96614E-03 5.73795E-04-2.76192E-05
 -1      8424 9.98209E-03 5.66964E-04-2.14821E-05
 -1      8425 9.99405E-03 5.61840E-04-1.53446E-05
 -1      8426 1.00020E-02 5.58424E-04-9.20691E-06
 -1      8427 1.00060E-02 5.56716E-04-3.06900E-06
 -1      8428 1.00060E-02 5.56716E-04 3.06900E-06
 -1      8429 1.00020E-02 5.58424E-04 9.20691E-06
 -1      8430 9.99405E-03 5.61840E-04 1.53446E-05
 -1      8431 9.98209E-03 5.66964E-04 2.14821E-05
 -1      8432 9.96614E-03 5.73795E-04 2.76192E-05
 -1      8433 1.19627E-02-3.56909E-05-2.35834E-05
 -1      8434 1.19777E-02-4.33432E-05-1.83426E-05
 -1      8435 1.19890E-02-4.90828E-05-1.31018E-05
 -1      8436 1.19965E-02-5.29093E-05-7.86111E-06
 -1      8437 1.20003E-02-5.48227E-05-2.62037E-06
 -1      8438 1.20003E-02-5.48227E-05 2.62037E-06
 -1      8439 1.19965E-02-5.29093E-05 7.86111E-06
 -1      8440 1.19890E-02-4.90828E-05 1.31018E-05
 -1      8441 1.19777E-02-4.33432E-05 1.83426E-05
 -1      8442 1.19627E-02-3.56909E-05 2.35834E-05
 -1      8443 1.40804E-02-8.58316E-04-2.04594E-05
 -1      8444 1.40945E-02-8.66646E-04-1.59126E-05
 -1      8445 1.41050E-02-8.72894E-04-1.13659E-05
 -1      8446 1.41121E-02-8.77060E-04-6.81951E-06
 -1      8447 1.41156E-02-8.79143E-04-2.27316E-06
 -1      8448 1.41156E-02-8.79143E-04 2.27316E-06
 -1      8449 1.41121E-02-8.77060E-04 6.81951E-06
 -1      8450 1.41050E-02-8.72894E-04 1.13659E-05
 -1      8451 1.40945E-02-8.66646E-04 1.59126E-05
 -1      8452 1.40804E-02-8.58316E-04 2.04594E-05
 -1      8453 1.62986E-02-1.90685E-03-1.81552E-05
 -1      8454 1.63117E-02-1.91571E-03-1.41203E-05
 -1      8455 1.63214E-02-1.92236E-03-1.00857E-05
 -1      8456 1.63279E-02-1.92679E-03-6.05135E-06
 -1      8457 1.63312E-02-1.92901E-03-2.01710E-06
 -1      8458 1.63312E-02-1.92901E-03 2.01710E-06
 -1      8459 1.63279E-02-1.92679E-03 6.05135E-06
 -1      8460 1.63214E-02-1.92236E-03 1.00857E-05
 -1      8461 1.63117E-02-1.91571E-03 1.41203E-05
 -1      8462 1.62986E-02-1.90685E-03 1.81552E-05
 -1      8463 1.85948E-02-3.19128E-03-1.66292E-05
 -1      8464 1.86066E-02-3.20052E-03-1.29334E-05
 -1      8465 1.86155E-02-3.20744E-03-9.23790E-06
 -1      8466 1.86215E-02-3.21206E-03-5.54265E-06
 -1      8467 1.86244E-02-3.21437E-03-1.84753E-06
 -1      8468 1.86244E-02-3.21437E-03 1.84753E-06
 -1      8469 1.86215E-02-3.21206E-03 5.54265E-06
 -1      8470 1.86155E-02-3.20744E-03 9.23790E-06
 -1      8471 1.86066E-02-3.20052E-03 1.29334E-05
 -1      8472 1.85948E-02-3.19128E-03 1.66292E-05
 -1      8473 2.09445E-02-4.71859E-03-1.58854E-05
 -1      8474 2.09552E-02-4.72804E-03-1.23548E-05
 -1      8475 2.09631E-02-4.73513E-03-8.82465E-06
 -1      8476 2.09684E-02-4.73986E-03-5.29470E-06
 -1      8477 2.09711E-02-4.74222E-03-1.76488E-06
 -1      8478 2.09711E-02-4.74222E-03 1.76488E-06
 -1      8479 2.09684E-02-4.73986E-03 5.29470E-06
 -1      8480 2.09631E-02-4.73513E-03 8.82465E-06
 -1      8481 2.09552E-02-4.72804E-03 1.23548E-05
 -1      8482 2.09445E-02-4.71859E-03 1.58854E-05
 -1      8483 2.33221E-02-6.49262E-03-1.59665E-05
 -1      8484 2.33314E-02-6.50211E-03-1.24180E-05
 -1      8485 2.33384E-02-6.50924E-03-8.86975E-06
 -1      8486 2.33430E-02-6.51398E-03-5.32176E-06
 -1      8487 2.33454E-02-6.51636E-03-1.77390E-06
 -1      8488 2.33454E-02-6.51636E-03 1.77390E-06
 -1      8489 2.33430E-02-6.51398E-03 5.32176E-06
 -1      8490 2.33384E-02-6.50924E-03 8.86975E-06
 -1      8491 2.33314E-02-6.50211E-03 1.24180E-05
 -1      8492 2.33221E-02-6.49262E-03 1.59665E-05
 -1      8493 2.57006E-02-8.51375E-03-1.69454E-05
 -1      8494 2.57085E-02-8.52311E-03-1.31794E-05
 -1      8495 2.57144E-02-8.53012E-03-9.41365E-06
 -1      8496 2.57184E-02-8.53480E-03-5.64811E-06
 -1      8497 2.57203E-02-8.53714E-03-1.88269E-06
 -1      8498 2.57203E-02-8.53714E-03 1.88269E-06
 -1      8499 2.57184E-02-8.53480E-03 5.64811E-06
 -1      8500 2.57144E-02-8.53012E-03 9.41365E-06
 -1      8501 2.57085E-02-8.52311E-03 1.31794E-05
 -1      8502 2.57006E-02-8.51375E-03 1.69454E-05
 -1      8503 2.80519E-02-1.07787E-02-1.89136E-05
 -1      8504 2.80584E-02-1.07877E-02-1.47103E-05
 -1      8505 2.80632E-02-1.07945E-02-1.05072E-05
 -1      8506 2.80665E-02-1.07990E-02-6.30425E-06
 -1      8507 2.80681E-02-1.08012E-02-2.10141E-06
 -1      8508 2.80681E-02-1.08012E-02 2.10141E-06
 -1      8509 2.80665E-02-1.07990E-02 6.30425E-06
 -1      8510 2.80632E-02-1.07945E-02 1.05072E-05
 -1      8511 2.80584E-02-1.07877E-02 1.47103E-05
 -1      8512 2.80519E-02-1.07787E-02 1.89136E-05
 -1      8513 3.03476E-02-1.32800E-02-2.19660E-05
 -1      8514 3.03526E-02-1.32885E-02-1.70845E-05
 -1      8515 3.03563E-02-1.32949E-02-1.22031E-05
 -1      8516 3.03588E-02-1.32991E-02-7.32183E-06
 -1      8517 3.03601E-02-1.33012E-02-2.44060E-06
 -1      8518 3.03601E-02-1.33012E-02 2.44060E-06
 -1      8519 3.03588E-02-1.32991E-02 7.32183E-06
 -1      8520 3.03563E-02-1.32949E-02 1.22031E-05
 -1      8521 3.03526E-02-1.32885E-02 1.70845E-05
 -1      8522 3.03476E-02-1.32800E-02 2.19660E-05
 -1      8523 3.25585E-02-1.60061E-02-2.61809E-05
 -1      8524 3.25620E-02-1.60138E-02-2.03628E-05
 -1      8525 3.25646E-02-1.60196E-02-1.45448E-05
 -1      8526 3.25664E-02-1.60234E-02-8.72687E-06
 -1      8527 3.25673E-02-1.60254E-02-2.90895E-06
 -1      8528 3.25673E-02-1.60254E-02 2.90895E-06
 -1      8529 3.25664E-02-1.60234E-02 8.72687E-06
 -1      8530 3.25646E-02-1.60196E-02 1.45448E-05
 -1      8531 3.25620E-02-1.60138E-02 2.03628E-05
 -1      8532 3.25585E-02-1.60061E-02 2.61809E-05
 -1      8533 3.46557E-02-1.89404E-02-3.15932E-05
 -1      8534 3.46578E-02-1.89471E-02-2.45725E-05
 -1      8535 3.46594E-02-1.89521E-02-1.75518E-05
 -1      8536 3.46604E-02-1.89555E-02-1.05311E-05
 -1      8537 3.46609E-02-1.89572E-02-3.51036E-06
 -1      8538 3.46609E-02-1.89572E-02 3.51036E-06
 -1      8539 3.46604E-02-1.89555E-02 1.05311E-05
 -1      8540 3.46594E-02-1.89521E-02 1.75518E-05
 -1      8541 3.46578E-02-1.89471E-02 2.45725E-05
 -1      8542 3.46557E-02-1.89404E-02 3.15932E-05
 -1      8543 3.66110E-02-2.20615E-02-3.81621E-05
 -1      8544 3.66118E-02-2.20670E-02-2.96818E-05
 -1      8545 3.66123E-02-2.20711E-02-2.12013E-05
 -1      8546 3.66127E-02-2.20738E-02-1.27208E-05
 -1      8547 3.66129E-02-2.20752E-02-4.24027E-06
 -1      8548 3.66129E-02-2.20752E-02 4.24027E-06
 -1      8549 3.66127E-02-2.20738E-02 1.27208E-05
 -1      8550 3.66123E-02-2.20711E-02 2.12013E-05
 -1      8551 3.66118E-02-2.20670E-02 2.96818E-05
 -1      8552 3.66110E-02-2.20615E-02 3.81621E-05
 -1      8553 3.83975E-02-2.53426E-02-4.57320E-05
 -1      8554 3.83970E-02-2.53466E-02-3.55696E-05
 -1      8555 3.83967E-02-2.53496E-02-2.54070E-05
 -1      8556 3.83964E-02-2.53516E-02-1.52442E-05
 -1      8557 3.83963E-02-2.53526E-02-5.08142E-06
 -1      8558 3.83963E-02-2.53526E-02 5.08142E-06
 -1      8559 3.83964E-02-2.53516E-02 1.52442E-05
 -1      8560 3.83967E-02-2.53496E-02 2.54070E-05
 -1      8561 3.83970E-02-2.53466E-02 3.55696E-05
 -1      8562 3.83975E-02-2.53426E-02 4.57320E-05
 -1      8563 3.99904E-02-2.87516E-02-5.39892E-05
 -1      8564 3.99890E-02-2.87539E-02-4.19922E-05
 -1      8565 3.99879E-02-2.87557E-02-2.99947E-05
 -1      8566 3.99872E-02-2.87569E-02-1.79970E-05
 -1      8567 3.99869E-02-2.87574E-02-5.99902E-06
 -1      8568 3.99869E-02-2.87574E-02 5.99902E-06
 -1      8569 3.99872E-02-2.87569E-02 1.79970E-05
 -1      8570 3.99879E-02-2.87557E-02 2.99947E-05
 -1      8571 3.99890E-02-2.87539E-02 4.19922E-05
 -1      8572 3.99904E-02-2.87516E-02 5.39892E-05
 -1      8573 4.13690E-02-3.22516E-02-6.24179E-05
 -1      8574 4.13669E-02-3.22521E-02-4.85486E-05
 -1      8575 4.13654E-02-3.22525E-02-3.46785E-05
 -1      8576 4.13643E-02-3.22528E-02-2.08075E-05
 -1      8577 4.13638E-02-3.22529E-02-6.93591E-06
 -1      8578 4.13638E-02-3.22529E-02 6.93591E-06
 -1      8579 4.13643E-02-3.22528E-02 2.08075E-05
 -1      8580 4.13654E-02-3.22525E-02 3.46785E-05
 -1      8581 4.13669E-02-3.22521E-02 4.85486E-05
 -1      8582 4.13690E-02-3.22516E-02 6.24179E-05
 -1      8583 4.25171E-02-3.58015E-02-7.02561E-05
 -1      8584 4.25148E-02-3.58001E-02-5.46467E-05
 -1      8585 4.25131E-02-3.57990E-02-3.90351E-05
 -1      8586 4.25120E-02-3.57983E-02-2.34218E-05
 -1      8587 4.25114E-02-3.57980E-02-7.80739E-06
 -1      8588 4.25114E-02-3.57980E-02 7.80739E-06
 -1      8589 4.25120E-02-3.57983E-02 2.34218E-05
 -1      8590 4.25131E-02-3.57990E-02 3.90351E-05
 -1      8591 4.25148E-02-3.58001E-02 5.46467E-05
 -1      8592 4.25171E-02-3.58015E-02 7.02561E-05
 -1      8593 4.34255E-02-3.93571E-02-7.64517E-05
 -1      8594 4.34235E-02-3.93538E-02-5.94636E-05
 -1      8595 4.34220E-02-3.93514E-02-4.24744E-05
 -1      8596 4.34211E-02-3.93497E-02-2.54848E-05
 -1      8597 4.34206E-02-3.93489E-02-8.49494E-06
 -1      8598 4.34206E-02-3.93489E-02 8.49494E-06
 -1      8599 4.34211E-02-3.93497E-02 2.54848E-05
 -1      8600 4.34220E-02-3.93514E-02 4.24744E-05
 -1      8601 4.34235E-02-3.93538E-02 5.94636E-05
 -1      8602 4.34255E-02-3.93571E-02 7.64517E-05
 -1      8603 4.40930E-02-4.28736E-02-7.96023E-05
 -1      8604 4.40919E-02-4.28685E-02-6.18958E-05
 -1      8605 4.40910E-02-4.28647E-02-4.41984E-05
 -1      8606 4.40905E-02-4.28622E-02-2.65124E-05
 -1      8607 4.40902E-02-4.28609E-02-8.83620E-06
 -1      8608 4.40902E-02-4.28609E-02 8.83620E-06
 -1      8609 4.40905E-02-4.28622E-02 2.65124E-05
 -1      8610 4.40910E-02-4.28647E-02 4.41984E-05
 -1      8611 4.40919E-02-4.28685E-02 6.18958E-05
 -1      8612 4.40930E-02-4.28736E-02 7.96023E-05
 -1      8613 4.45280E-02-4.63072E-02-7.79805E-05
 -1      8614 4.45284E-02-4.63006E-02-6.05510E-05
 -1      8615 4.45285E-02-4.62956E-02-4.31795E-05
 -1      8616 4.45286E-02-4.62923E-02-2.58745E-05
 -1      8617 4.45286E-02-4.62906E-02-8.61884E-06
 -1      8618 4.45286E-02-4.62906E-02 8.61884E-06
 -1      8619 4.45286E-02-4.62923E-02 2.58745E-05
 -1      8620 4.45285E-02-4.62956E-02 4.31795E-05
 -1      8621 4.45284E-02-4.63006E-02 6.05510E-05
 -1      8622 4.45280E-02-4.63072E-02 7.79805E-05
 -1      8623 4.47501E-02-4.96176E-02-6.98763E-05
 -1      8624 4.47520E-02-4.96098E-02-5.40597E-05
 -1      8625 4.47532E-02-4.96039E-02-3.84547E-05
 -1      8626 4.47539E-02-4.95999E-02-2.30087E-05
 -1      8627 4.47542E-02-4.95980E-02-7.65888E-06
 -1      8628 4.47542E-02-4.95980E-02 7.65888E-06
 -1      8629 4.47539E-02-4.95999E-02 2.30087E-05
 -1      8630 4.47532E-02-4.96039E-02 3.84547E-05
 -1      8631 4.47520E-02-4.96098E-02 5.40597E-05
 -1      8632 4.47501E-02-4.96176E-02 6.98763E-05
 -1      8633 2.81788E-04 3.33281E-04-1.36650E-04
 -1      8634 2.95670E-04 3.22165E-04-1.01441E-04
 -1      8635 3.04861E-04 3.16774E-04-7.00314E-05
 -1      8636 3.10474E-04 3.14052E-04-4.10982E-05
 -1      8637 3.13138E-04 3.12886E-04-1.35508E-05
 -1      8638 3.13138E-04 3.12886E-04 1.35508E-05
 -1      8639 3.10474E-04 3.14052E-04 4.10982E-05
 -1      8640 3.04861E-04 3.16774E-04 7.00314E-05
 -1      8641 2.95670E-04 3.22165E-04 1.01441E-04
 -1      8642 2.81788E-04 3.33281E-04 1.36650E-04
 -1      8643 8.30261E-04 7.13641E-04-1.46807E-04
 -1      8644 8.48319E-04 7.08964E-04-1.15424E-04
 -1      8645 8.61362E-04 7.04378E-04-8.27191E-05
 -1      8646 8.69809E-04 7.01191E-04-4.96537E-05
 -1      8647 8.73956E-04 6.99597E-04-1.65476E-05
 -1      8648 8.73956E-04 6.99597E-04 1.65476E-05
 -1      8649 8.69809E-04 7.01191E-04 4.96537E-05
 -1      8650 8.61362E-04 7.04378E-04 8.27191E-05
 -1      8651 8.48319E-04 7.08964E-04 1.15424E-04
 -1      8652 8.30261E-04 7.13641E-04 1.46807E-04
 -1      8653 1.61940E-03 1.08329E-03-1.26291E-04
 -1      8654 1.63827E-03 1.08420E-03-9.92649E-05
 -1      8655 1.65219E-03 1.08385E-03-7.15680E-05
 -1      8656 1.66135E-03 1.08310E-03-4.32149E-05
 -1      8657 1.66591E-03 1.08259E-03-1.44505E-05
 -1      8658 1.66591E-03 1.08259E-03 1.44505E-05
 -1      8659 1.66135E-03 1.08310E-03 4.32149E-05
 -1      8660 1.65219E-03 1.08385E-03 7.15680E-05
 -1      8661 1.63827E-03 1.08420E-03 9.92649E-05
 -1      8662 1.61940E-03 1.08329E-03 1.26291E-04
 -1      8663 2.62881E-03 1.41461E-03-1.09395E-04
 -1      8664 2.64728E-03 1.41421E-03-8.51555E-05
 -1      8665 2.66113E-03 1.41399E-03-6.09278E-05
 -1      8666 2.67035E-03 1.41382E-03-3.66215E-05
 -1      8667 2.67496E-03 1.41370E-03-1.22204E-05
 -1      8668 2.67496E-03 1.41370E-03 1.22204E-05
 -1      8669 2.67035E-03 1.41382E-03 3.66215E-05
 -1      8670 2.66113E-03 1.41399E-03 6.09278E-05
 -1      8671 2.64728E-03 1.41421E-03 8.51555E-05
 -1      8672 2.62881E-03 1.41461E-03 1.09395E-04
 -1      8673 3.84451E-03 1.66506E-03-9.63604E-05
 -1      8674 3.86242E-03 1.66328E-03-7.49452E-05
 -1      8675 3.87586E-03 1.66194E-03-5.35172E-05
 -1      8676 3.88484E-03 1.66107E-03-3.21020E-05
 -1      8677 3.88933E-03 1.66065E-03-1.06993E-05
 -1      8678 3.88933E-03 1.66065E-03 1.06993E-05
 -1      8679 3.88484E-03 1.66107E-03 3.21020E-05
 -1      8680 3.87586E-03 1.66194E-03 5.35172E-05
 -1      8681 3.86242E-03 1.66328E-03 7.49452E-05
 -1      8682 3.84451E-03 1.66506E-03 9.63604E-05
 -1      8683 5.25558E-03 1.80174E-03-8.61660E-05
 -1      8684 5.27296E-03 1.79852E-03-6.69997E-05
 -1      8685 5.28599E-03 1.79613E-03-4.78497E-05
 -1      8686 5.29468E-03 1.79454E-03-2.87063E-05
 -1      8687 5.29903E-03 1.79374E-03-9.56801E-06
 -1      8688 5.29903E-03 1.79374E-03 9.56801E-06
 -1      8689 5.29468E-03 1.79454E-03 2.87063E-05
 -1      8690 5.28599E-03 1.79613E-03 4.78497E-05
 -1      8691 5.27296E-03 1.79852E-03 6.69997E-05
 -1      8692 5.25558E-03 1.80174E-03 8.61660E-05
 -1      8693 6.85184E-03 1.79646E-03-7.78011E-05
 -1      8694 6.86865E-03 1.79203E-03-6.05099E-05
 -1      8695 6.88126E-03 1.78872E-03-4.32185E-05
 -1      8696 6.88966E-03 1.78651E-03-2.59301E-05
 -1      8697 6.89386E-03 1.78540E-03-8.64323E-06
 -1      8698 6.89386E-03 1.78540E-03 8.64323E-06
 -1      8699 6.88966E-03 1.78651E-03 2.59301E-05
 -1      8700 6.88126E-03 1.78872E-03 4.32185E-05
 -1      8701 6.86865E-03 1.79203E-03 6.05099E-05
 -1      8702 6.85184E-03 1.79646E-03 7.78011E-05
 -1      8703 8.62170E-03 1.62492E-03-7.08321E-05
 -1      8704 8.63788E-03 1.61944E-03-5.50920E-05
 -1      8705 8.65001E-03 1.61534E-03-3.93518E-05
 -1      8706 8.65810E-03 1.61260E-03-2.36111E-05
 -1      8707 8.66214E-03 1.61123E-03-7.87034E-06
 -1      8708 8.66214E-03 1.61123E-03 7.87034E-06
 -1      8709 8.65810E-03 1.61260E-03 2.36111E-05
 -1      8710 8.65001E-03 1.61534E-03 3.93518E-05
 -1      8711 8.63788E-03 1.61944E-03 5.50920E-05
 -1      8712 8.62170E-03 1.62492E-03 7.08321E-05
 -1      8713 1.05512E-02 1.26589E-03-6.49780E-05
 -1      8714 1.05667E-02 1.25950E-03-5.05389E-05
 -1      8715 1.05783E-02 1.25471E-03-3.60995E-05
 -1      8716 1.05860E-02 1.25151E-03-2.16598E-05
 -1      8717 1.05899E-02 1.24992E-03-7.21997E-06
 -1      8718 1.05899E-02 1.24992E-03 7.21997E-06
 -1      8719 1.05860E-02 1.25151E-03 2.16598E-05
 -1      8720 1.05783E-02 1.25471E-03 3.60995E-05
 -1      8721 1.05667E-02 1.25950E-03 5.05389E-05
 -1      8722 1.05512E-02 1.26589E-03 6.49780E-05
 -1      8723 1.26240E-02 7.00881E-04-6.00178E-05
 -1      8724 1.26387E-02 6.93721E-04-4.66804E-05
 -1      8725 1.26497E-02 6.88350E-04-3.33432E-05
 -1      8726 1.26570E-02 6.84770E-04-2.00059E-05
 -1      8727 1.26607E-02 6.82979E-04-6.66864E-06
 -1      8728 1.26607E-02 6.82979E-04 6.66864E-06
 -1      8729 1.26570E-02 6.84770E-04 2.00059E-05
 -1      8730 1.26497E-02 6.88350E-04 3.33432E-05
 -1      8731 1.26387E-02 6.93721E-04 4.66804E-05
 -1      8732 1.26240E-02 7.00881E-04 6.00178E-05
 -1      8733 1.48209E-02-8.59290E-05-5.57823E-05
 -1      8734 1.48346E-02-9.37165E-05-4.33860E-05
 -1      8735 1.48450E-02-9.95574E-05-3.09898E-05
 -1      8736 1.48518E-02-1.03451E-04-1.85939E-05
 -1      8737 1.48553E-02-1.05398E-04-6.19794E-06
 -1      8738 1.48553E-02-1.05398E-04 6.19794E-06
 -1      8739 1.48518E-02-1.03451E-04 1.85939E-05
 -1      8740 1.48450E-02-9.95574E-05 3.09898E-05
 -1      8741 1.48346E-02-9.37165E-05 4.33860E-05
 -1      8742 1.48209E-02-8.59290E-05 5.57823E-05
 -1      8743 1.71204E-02-1.10762E-03-5.21604E-05
 -1      8744 1.71332E-02-1.11589E-03-4.05688E-05
 -1      8745 1.71428E-02-1.12209E-03-2.89775E-05
 -1      8746 1.71492E-02-1.12623E-03-1.73865E-05
 -1      8747 1.71524E-02-1.12829E-03-5.79547E-06
 -1      8748 1.71524E-02-1.12829E-03 5.79547E-06
 -1      8749 1.71492E-02-1.12623E-03 1.73865E-05
 -1      8750 1.71428E-02-1.12209E-03 2.89775E-05
 -1      8751 1.71332E-02-1.11589E-03 4.05688E-05
 -1      8752 1.71204E-02-1.10762E-03 5.21604E-05
 -1      8753 1.94990E-02-2.37439E-03-4.90954E-05
 -1      8754 1.95107E-02-2.38299E-03-3.81849E-05
 -1      8755 1.95195E-02-2.38944E-03-2.72747E-05
 -1      8756 1.95254E-02-2.39374E-03-1.63648E-05
 -1      8757 1.95283E-02-2.39589E-03-5.45491E-06
 -1      8758 1.95283E-02-2.39589E-03 5.45491E-06
 -1      8759 1.95254E-02-2.39374E-03 1.63648E-05
 -1      8760 1.95195E-02-2.38944E-03 2.72747E-05
 -1      8761 1.95107E-02-2.38299E-03 3.81849E-05
 -1      8762 1.94990E-02-2.37439E-03 4.90954E-05
 -1      8763 2.19313E-02-3.89333E-03-4.65788E-05
 -1      8764 2.19419E-02-3.90210E-03-3.62275E-05
 -1      8765 2.19498E-02-3.90868E-03-2.58766E-05
 -1      8766 2.19551E-02-3.91306E-03-1.55259E-05
 -1      8767 2.19577E-02-3.91525E-03-5.17527E-06
 -1      8768 2.19577E-02-3.91525E-03 5.17527E-06
 -1      8769 2.19551E-02-3.91306E-03 1.55259E-05
 -1      8770 2.19498E-02-3.90868E-03 2.58766E-05
 -1      8771 2.19419E-02-3.90210E-03 3.62275E-05
 -1      8772 2.19313E-02-3.89333E-03 4.65788E-05
 -1      8773 2.43903E-02-5.66817E-03-4.46418E-05
 -1      8774 2.43997E-02-5.67695E-03-3.47210E-05
 -1      8775 2.44067E-02-5.68353E-03-2.48005E-05
 -1      8776 2.44113E-02-5.68791E-03-1.48802E-05
 -1      8777 2.44137E-02-5.69011E-03-4.96006E-06
 -1      8778 2.44137E-02-5.69011E-03 4.96006E-06
 -1      8779 2.44113E-02-5.68791E-03 1.48802E-05
 -1      8780 2.44067E-02-5.68353E-03 2.48005E-05
 -1      8781 2.43997E-02-5.67695E-03 3.47210E-05
 -1      8782 2.43903E-02-5.66817E-03 4.46418E-05
 -1      8783 2.68478E-02-7.69901E-03-4.33472E-05
 -1      8784 2.68559E-02-7.70761E-03-3.37141E-05
 -1      8785 2.68619E-02-7.71406E-03-2.40813E-05
 -1      8786 2.68660E-02-7.71837E-03-1.44487E-05
 -1      8787 2.68680E-02-7.72052E-03-4.81623E-06
 -1      8788 2.68680E-02-7.72052E-03 4.81623E-06
 -1      8789 2.68660E-02-7.71837E-03 1.44487E-05
 -1      8790 2.68619E-02-7.71406E-03 2.40813E-05
 -1      8791 2.68559E-02-7.70761E-03 3.37141E-05
 -1      8792 2.68478E-02-7.69901E-03 4.33472E-05
 -1      8793 2.92747E-02-9.98201E-03-4.27786E-05
 -1      8794 2.92814E-02-9.99025E-03-3.32720E-05
 -1      8795 2.92865E-02-9.99643E-03-2.37656E-05
 -1      8796 2.92898E-02-1.00006E-02-1.42593E-05
 -1      8797 2.92915E-02-1.00026E-02-4.75308E-06
 -1      8798 2.92915E-02-1.00026E-02 4.75308E-06
 -1      8799 2.92898E-02-1.00006E-02 1.42593E-05
 -1      8800 2.92865E-02-9.99643E-03 2.37656E-05
 -1      8801 2.92814E-02-9.99025E-03 3.32720E-05
 -1      8802 2.92747E-02-9.98201E-03 4.27786E-05
 -1      8803 3.16412E-02-1.25091E-02-4.30272E-05
 -1      8804 3.16465E-02-1.25167E-02-3.34655E-05
 -1      8805 3.16505E-02-1.25225E-02-2.39038E-05
 -1      8806 3.16532E-02-1.25264E-02-1.43422E-05
 -1      8807 3.16546E-02-1.25283E-02-4.78074E-06
 -1      8808 3.16546E-02-1.25283E-02 4.78074E-06
 -1      8809 3.16532E-02-1.25264E-02 1.43422E-05
 -1      8810 3.16505E-02-1.25225E-02 2.39038E-05
 -1      8811 3.16465E-02-1.25167E-02 3.34655E-05
 -1      8812 3.16412E-02-1.25091E-02 4.30272E-05
 -1      8813 3.39173E-02-1.52675E-02-4.41741E-05
 -1      8814 3.39213E-02-1.52744E-02-3.43576E-05
 -1      8815 3.39243E-02-1.52796E-02-2.45411E-05
 -1      8816 3.39263E-02-1.52831E-02-1.47246E-05
 -1      8817 3.39273E-02-1.52848E-02-4.90820E-06
 -1      8818 3.39273E-02-1.52848E-02 4.90821E-06
 -1      8819 3.39263E-02-1.52831E-02 1.47246E-05
 -1      8820 3.39243E-02-1.52796E-02 2.45411E-05
 -1      8821 3.39213E-02-1.52744E-02 3.43576E-05
 -1      8822 3.39173E-02-1.52675E-02 4.41741E-05
 -1      8823 3.60736E-02-1.82397E-02-4.62675E-05
 -1      8824 3.60763E-02-1.82457E-02-3.59859E-05
 -1      8825 3.60783E-02-1.82501E-02-2.57042E-05
 -1      8826 3.60796E-02-1.82531E-02-1.54225E-05
 -1      8827 3.60803E-02-1.82546E-02-5.14084E-06
 -1      8828 3.60803E-02-1.82546E-02 5.14084E-06
 -1      8829 3.60796E-02-1.82531E-02 1.54225E-05
 -1      8830 3.60783E-02-1.82501E-02 2.57042E-05
 -1      8831 3.60763E-02-1.82457E-02 3.59859E-05
 -1      8832 3.60736E-02-1.82397E-02 4.62675E-05
 -1      8833 3.80813E-02-2.14031E-02-4.92943E-05
 -1      8834 3.80828E-02-2.14079E-02-3.83402E-05
 -1      8835 3.80839E-02-2.14115E-02-2.73859E-05
 -1      8836 3.80846E-02-2.14139E-02-1.64316E-05
 -1      8837 3.80850E-02-2.14151E-02-5.47719E-06
 -1      8838 3.80850E-02-2.14151E-02 5.47719E-06
 -1      8839 3.80846E-02-2.14139E-02 1.64316E-05
 -1      8840 3.80839E-02-2.14115E-02 2.73859E-05
 -1      8841 3.80828E-02-2.14079E-02 3.83402E-05
 -1      8842 3.80813E-02-2.14031E-02 4.92943E-05
 -1      8843 3.99137E-02-2.47299E-02-5.31455E-05
 -1      8844 3.99141E-02-2.47333E-02-4.13357E-05
 -1      8845 3.99144E-02-2.47359E-02-2.95256E-05
 -1      8846 3.99145E-02-2.47376E-02-1.77154E-05
 -1      8847 3.99146E-02-2.47385E-02-5.90515E-06
 -1      8848 3.99146E-02-2.47385E-02 5.90515E-06
 -1      8849 3.99145E-02-2.47376E-02 1.77154E-05
 -1      8850 3.99144E-02-2.47359E-02 2.95256E-05
 -1      8851 3.99141E-02-2.47333E-02 4.13357E-05
 -1      8852 3.99137E-02-2.47299E-02 5.31455E-05
 -1      8853 4.15466E-02-2.81873E-02-5.75772E-05
 -1      8854 4.15461E-02-2.81892E-02-4.47827E-05
 -1      8855 4.15457E-02-2.81906E-02-3.19879E-05
 -1      8856 4.15455E-02-2.81916E-02-1.91929E-05
 -1      8857 4.15454E-02-2.81920E-02-6.39765E-06
 -1      8858 4.15454E-02-2.81920E-02 6.39765E-06
 -1      8859 4.15455E-02-2.81916E-02 1.91929E-05
 -1      8860 4.15457E-02-2.81906E-02 3.19879E-05
 -1      8861 4.15461E-02-2.81892E-02 4.47827E-05
 -1      8862 4.15466E-02-2.81873E-02 5.75772E-05
 -1      8863 4.29598E-02-3.17379E-02-6.21681E-05
 -1      8864 4.29588E-02-3.17382E-02-4.83540E-05
 -1      8865 4.29579E-02-3.17384E-02-3.45393E-05
 -1      8866 4.29574E-02-3.17385E-02-2.07239E-05
 -1      8867 4.29571E-02-3.17386E-02-6.90802E-06
 -1      8868 4.29571E-02-3.17386E-02 6.90802E-06
 -1      8869 4.29574E-02-3.17385E-02 2.07239E-05
 -1      8870 4.29579E-02-3.17384E-02 3.45393E-05
 -1      8871 4.29588E-02-3.17382E-02 4.83540E-05
 -1      8872 4.29598E-02-3.17379E-02 6.21681E-05
 -1      8873 4.41384E-02-3.53412E-02-6.62761E-05
 -1      8874 4.41371E-02-3.53398E-02-5.15507E-05
 -1      8875 4.41361E-02-3.53387E-02-3.68234E-05
 -1      8876 4.41355E-02-3.53380E-02-2.20947E-05
 -1      8877 4.41351E-02-3.53377E-02-7.36501E-06
 -1      8878 4.41351E-02-3.53377E-02 7.36501E-06
 -1      8879 4.41355E-02-3.53380E-02 2.20947E-05
 -1      8880 4.41361E-02-3.53387E-02 3.68234E-05
 -1      8881 4.41371E-02-3.53398E-02 5.15507E-05
 -1      8882 4.41384E-02-3.53412E-02 6.62761E-05
 -1      8883 4.50738E-02-3.89543E-02-6.89904E-05
 -1      8884 4.50728E-02-3.89513E-02-5.36611E-05
 -1      8885 4.50720E-02-3.89491E-02-3.83305E-05
 -1      8886 4.50715E-02-3.89476E-02-2.29989E-05
 -1      8887 4.50712E-02-3.89468E-02-7.66638E-06
 -1      8888 4.50712E-02-3.89468E-02 7.66638E-06
 -1      8889 4.50715E-02-3.89476E-02 2.29989E-05
 -1      8890 4.50720E-02-3.89491E-02 3.83305E-05
 -1      8891 4.50728E-02-3.89513E-02 5.36611E-05
 -1      8892 4.50738E-02-3.89543E-02 6.89904E-05
 -1      8893 4.57656E-02-4.25349E-02-6.90596E-05
 -1      8894 4.57653E-02-4.25305E-02-5.37035E-05
 -1      8895 4.57651E-02-4.25271E-02-3.83522E-05
 -1      8896 4.57650E-02-4.25249E-02-2.30073E-05
 -1      8897 4.57649E-02-4.25238E-02-7.66832E-06
 -1      8898 4.57649E-02-4.25238E-02 7.66832E-06
 -1      8899 4.57650E-02-4.25249E-02 2.30073E-05
 -1      8900 4.57651E-02-4.25271E-02 3.83522E-05
 -1      8901 4.57653E-02-4.25305E-02 5.37035E-05
 -1      8902 4.57656E-02-4.25349E-02 6.90596E-05
 -1      8903 4.62223E-02-4.60428E-02-6.48796E-05
 -1      8904 4.62234E-02-4.60372E-02-5.03850E-05
 -1      8905 4.62241E-02-4.60329E-02-3.59326E-05
 -1      8906 4.62245E-02-4.60301E-02-2.15327E-05
 -1      8907 4.62247E-02-4.60287E-02-7.17266E-06
 -1      8908 4.62247E-02-4.60287E-02 7.17266E-06
 -1      8909 4.62245E-02-4.60301E-02 2.15327E-05
 -1      8910 4.62241E-02-4.60329E-02 3.59326E-05
 -1      8911 4.62234E-02-4.60372E-02 5.03850E-05
 -1      8912 4.62223E-02-4.60428E-02 6.48796E-05
 -1      8913 4.64630E-02-4.94425E-02-5.47014E-05
 -1      8914 4.64655E-02-4.94359E-02-4.22826E-05
 -1      8915 4.64672E-02-4.94310E-02-3.00560E-05
 -1      8916 4.64682E-02-4.94278E-02-1.79747E-05
 -1      8917 4.64687E-02-4.94261E-02-5.98174E-06
 -1      8918 4.64687E-02-4.94261E-02 5.98174E-06
 -1      8919 4.64682E-02-4.94278E-02 1.79747E-05
 -1      8920 4.64672E-02-4.94310E-02 3.00560E-05
 -1      8921 4.64655E-02-4.94359E-02 4.22826E-05
 -1      8922 4.64630E-02-4.94425E-02 5.47014E-05
 -1      8923 3.43715E-04 4.21015E-04-1.75507E-04
 -1      8924 3.57414E-04 4.06699E-04-1.30557E-04
 -1      8925 3.66502E-04 3.99668E-04-9.02623E-05
 -1      8926 3.72053E-04 3.96094E-04-5.30192E-05
 -1      8927 3.74688E-04 3.94558E-04-1.74892E-05
 -1      8928 3.74688E-04 3.94558E-04 1.74892E-05
 -1      8929 3.72053E-04 3.96094E-04 5.30192E-05
 -1      8930 3.66502E-04 3.99668E-04 9.02623E-05
 -1      8931 3.57414E-04 4.06699E-04 1.30557E-04
 -1      8932 3.43715E-04 4.21015E-04 1.75507E-04
 -1      8933 9.58381E-04 8.95445E-04-1.89754E-04
 -1      8934 9.75871E-04 8.89757E-04-1.49225E-04
 -1      8935 9.88535E-04 8.84062E-04-1.06994E-04
 -1      8936 9.96754E-04 8.80069E-04-6.42518E-05
 -1      8937 1.00079E-03 8.78064E-04-2.14174E-05
 -1      8938 1.00079E-03 8.78064E-04 2.14174E-05
 -1      8939 9.96754E-04 8.80069E-04 6.42518E-05
 -1      8940 9.88535E-04 8.84062E-04 1.06994E-04
 -1      8941 9.75871E-04 8.89757E-04 1.49225E-04
 -1      8942 9.58381E-04 8.95445E-04 1.89754E-04
 -1      8943 1.81302E-03 1.35762E-03-1.66543E-04
 -1      8944 1.83118E-03 1.35897E-03-1.30767E-04
 -1      8945 1.84457E-03 1.35876E-03-9.42118E-05
 -1      8946 1.85339E-03 1.35800E-03-5.68641E-05
 -1      8947 1.85777E-03 1.35745E-03-1.90110E-05
 -1      8948 1.85777E-03 1.35745E-03 1.90110E-05
 -1      8949 1.85339E-03 1.35800E-03 5.68641E-05
 -1      8950 1.84457E-03 1.35876E-03 9.42118E-05
 -1      8951 1.83118E-03 1.35897E-03 1.30767E-04
 -1      8952 1.81302E-03 1.35762E-03 1.66543E-04
 -1      8953 2.88584E-03 1.77907E-03-1.48266E-04
 -1      8954 2.90353E-03 1.77895E-03-1.15373E-04
 -1      8955 2.91681E-03 1.77900E-03-8.25120E-05
 -1      8956 2.92566E-03 1.77902E-03-4.95763E-05
 -1      8957 2.93007E-03 1.77899E-03-1.65398E-05
 -1      8958 2.93007E-03 1.77899E-03 1.65398E-05
 -1      8959 2.92566E-03 1.77902E-03 4.95763E-05
 -1      8960 2.91681E-03 1.77900E-03 8.25120E-05
 -1      8961 2.90353E-03 1.77895E-03 1.15373E-04
 -1      8962 2.88584E-03 1.77907E-03 1.48266E-04
 -1      8963 4.16383E-03 2.11326E-03-1.34514E-04
 -1      8964 4.18100E-03 2.11175E-03-1.04616E-04
 -1      8965 4.19389E-03 2.11062E-03-7.47041E-05
 -1      8966 4.20249E-03 2.10989E-03-4.48101E-05
 -1      8967 4.20679E-03 2.10954E-03-1.49345E-05
 -1      8968 4.20679E-03 2.10954E-03 1.49345E-05
 -1      8969 4.20249E-03 2.10989E-03 4.48101E-05
 -1      8970 4.19389E-03 2.11062E-03 7.47041E-05
 -1      8971 4.18100E-03 2.11175E-03 1.04616E-04
 -1      8972 4.16383E-03 2.11326E-03 1.34514E-04
 -1      8973 5.63799E-03 2.32629E-03-1.23863E-04
 -1      8974 5.65468E-03 2.32334E-03-9.63164E-05
 -1      8975 5.66721E-03 2.32115E-03-6.87892E-05
 -1      8976 5.67556E-03 2.31969E-03-4.12696E-05
 -1      8977 5.67973E-03 2.31896E-03-1.37557E-05
 -1      8978 5.67973E-03 2.31896E-03 1.37557E-05
 -1      8979 5.67556E-03 2.31969E-03 4.12696E-05
 -1      8980 5.66721E-03 2.32115E-03 6.87892E-05
 -1      8981 5.65468E-03 2.32334E-03 9.63164E-05
 -1      8982 5.63799E-03 2.32629E-03 1.23863E-04
 -1      8983 7.29976E-03 2.38969E-03-1.15048E-04
 -1      8984 7.31597E-03 2.38556E-03-8.94795E-05
 -1      8985 7.32812E-03 2.38247E-03-6.39109E-05
 -1      8986 7.33623E-03 2.38040E-03-3.83454E-05
 -1      8987 7.34028E-03 2.37937E-03-1.27817E-05
 -1      8988 7.34028E-03 2.37937E-03 1.27817E-05
 -1      8989 7.33623E-03 2.38040E-03 3.83454E-05
 -1      8990 7.32812E-03 2.38247E-03 6.39109E-05
 -1      8991 7.31597E-03 2.38556E-03 8.94795E-05
 -1      8992 7.29976E-03 2.38969E-03 1.15048E-04
 -1      8993 9.13856E-03 2.27907E-03-1.07546E-04
 -1      8994 9.15422E-03 2.27394E-03-8.36472E-05
 -1      8995 9.16597E-03 2.27008E-03-5.97485E-05
 -1      8996 9.17380E-03 2.26751E-03-3.58491E-05
 -1      8997 9.17771E-03 2.26622E-03-1.19497E-05
 -1      8998 9.17771E-03 2.26622E-03 1.19497E-05
 -1      8999 9.17380E-03 2.26751E-03 3.58491E-05
 -1      9000 9.16597E-03 2.27008E-03 5.97485E-05
 -1      9001 9.15422E-03 2.27394E-03 8.36472E-05
 -1      9002 9.13856E-03 2.27907E-03 1.07546E-04
 -1      9003 1.11409E-02 1.97301E-03-1.01022E-04
 -1      9004 1.11559E-02 1.96700E-03-7.85730E-05
 -1      9005 1.11672E-02 1.96250E-03-5.61238E-05
 -1      9006 1.11747E-02 1.95950E-03-3.36745E-05
 -1      9007 1.11784E-02 1.95800E-03-1.12249E-05
 -1      9008 1.11784E-02 1.95800E-03 1.12249E-05
 -1      9009 1.11747E-02 1.95950E-03 3.36745E-05
 -1      9010 1.11672E-02 1.96250E-03 5.61238E-05
 -1      9011 1.11559E-02 1.96700E-03 7.85730E-05
 -1      9012 1.11409E-02 1.97301E-03 1.01022E-04
 -1      9013 1.32900E-02 1.45270E-03-9.52161E-05
 -1      9014 1.33043E-02 1.44597E-03-7.40569E-05
 -1      9015 1.33151E-02 1.44093E-03-5.28978E-05
 -1      9016 1.33222E-02 1.43757E-03-3.17387E-05
 -1      9017 1.33258E-02 1.43589E-03-1.05796E-05
 -1      9018 1.33258E-02 1.43589E-03 1.05796E-05
 -1      9019 1.33222E-02 1.43757E-03 3.17387E-05
 -1      9020 1.33151E-02 1.44093E-03 5.28978E-05
 -1      9021 1.33043E-02 1.44597E-03 7.40569E-05
 -1      9022 1.32900E-02 1.45270E-03 9.52161E-05
 -1      9023 1.55665E-02 7.01973E-04-8.99345E-05
 -1      9024 1.55799E-02 6.94670E-04-6.99488E-05
 -1      9025 1.55901E-02 6.89192E-04-4.99633E-05
 -1      9026 1.55968E-02 6.85541E-04-2.99780E-05
 -1      9027 1.56002E-02 6.83715E-04-9.99265E-06
 -1      9028 1.56002E-02 6.83715E-04 9.99265E-06
 -1      9029 1.55968E-02 6.85541E-04 2.99780E-05
 -1      9030 1.55901E-02 6.89192E-04 4.99633E-05
 -1      9031 1.55799E-02 6.94670E-04 6.99488E-05
 -1      9032 1.55665E-02 7.01973E-04 8.99345E-05
 -1      9033 1.79479E-02-2.92591E-04-8.50490E-05
 -1      9034 1.79605E-02-3.00328E-04-6.61489E-05
 -1      9035 1.79699E-02-3.06131E-04-4.72491E-05
 -1      9036 1.79762E-02-3.10000E-04-2.83494E-05
 -1      9037 1.79793E-02-3.11935E-04-9.44979E-06
 -1      9038 1.79793E-02-3.11935E-04 9.44979E-06
 -1      9039 1.79762E-02-3.10000E-04 2.83494E-05
 -1      9040 1.79699E-02-3.06131E-04 4.72491E-05
 -1      9041 1.79605E-02-3.00328E-04 6.61489E-05
 -1      9042 1.79479E-02-2.92591E-04 8.50490E-05
 -1      9043 2.04098E-02-1.54145E-03-8.04910E-05
 -1      9044 2.04214E-02-1.54948E-03-6.26038E-05
 -1      9045 2.04300E-02-1.55549E-03-4.47168E-05
 -1      9046 2.04358E-02-1.55951E-03-2.68300E-05
 -1      9047 2.04387E-02-1.56151E-03-8.94334E-06
 -1      9048 2.04387E-02-1.56151E-03 8.94334E-06
 -1      9049 2.04358E-02-1.55951E-03 2.68300E-05
 -1      9050 2.04300E-02-1.55549E-03 4.47168E-05
 -1      9051 2.04214E-02-1.54948E-03 6.26038E-05
 -1      9052 2.04098E-02-1.54145E-03 8.04910E-05
 -1      9053 2.29255E-02-3.05184E-03-7.62420E-05
 -1      9054 2.29360E-02-3.05999E-03-5.92990E-05
 -1      9055 2.29439E-02-3.06611E-03-4.23563E-05
 -1      9056 2.29492E-02-3.07019E-03-2.54137E-05
 -1      9057 2.29518E-02-3.07223E-03-8.47122E-06
 -1      9058 2.29518E-02-3.07223E-03 8.47122E-06
 -1      9059 2.29492E-02-3.07019E-03 2.54137E-05
 -1      9060 2.29439E-02-3.06611E-03 4.23563E-05
 -1      9061 2.29360E-02-3.05999E-03 5.92990E-05
 -1      9062 2.29255E-02-3.05184E-03 7.62420E-05
 -1      9063 2.54670E-02-4.82744E-03-7.23248E-05
 -1      9064 2.54764E-02-4.83557E-03-5.62523E-05
 -1      9065 2.54834E-02-4.84166E-03-4.01801E-05
 -1      9066 2.54881E-02-4.84572E-03-2.41080E-05
 -1      9067 2.54904E-02-4.84776E-03-8.03598E-06
 -1      9068 2.54904E-02-4.84776E-03 8.03598E-06
 -1      9069 2.54881E-02-4.84572E-03 2.41080E-05
 -1      9070 2.54834E-02-4.84166E-03 4.01801E-05
 -1      9071 2.54764E-02-4.83557E-03 5.62523E-05
 -1      9072 2.54670E-02-4.82744E-03 7.23248E-05
 -1      9073 2.80046E-02-6.86812E-03-6.87954E-05
 -1      9074 2.80128E-02-6.87605E-03-5.35072E-05
 -1      9075 2.80190E-02-6.88199E-03-3.82193E-05
 -1      9076 2.80231E-02-6.88595E-03-2.29315E-05
 -1      9077 2.80251E-02-6.88794E-03-7.64384E-06
 -1      9078 2.80251E-02-6.88794E-03 7.64384E-06
 -1      9079 2.80231E-02-6.88595E-03 2.29315E-05
 -1      9080 2.80190E-02-6.88199E-03 3.82193E-05
 -1      9081 2.80128E-02-6.87605E-03 5.35072E-05
 -1      9082 2.80046E-02-6.86812E-03 6.87954E-05
 -1      9083 3.05082E-02-9.16958E-03-6.57337E-05
 -1      9084 3.05152E-02-9.17712E-03-5.11259E-05
 -1      9085 3.05204E-02-9.18278E-03-3.65184E-05
 -1      9086 3.05239E-02-9.18656E-03-2.19110E-05
 -1      9087 3.05256E-02-9.18845E-03-7.30366E-06
 -1      9088 3.05256E-02-9.18845E-03 7.30366E-06
 -1      9089 3.05239E-02-9.18656E-03 2.19110E-05
 -1      9090 3.05204E-02-9.18278E-03 3.65184E-05
 -1      9091 3.05152E-02-9.17712E-03 5.11259E-05
 -1      9092 3.05082E-02-9.16958E-03 6.57337E-05
 -1      9093 3.29467E-02-1.17230E-02-6.32322E-05
 -1      9094 3.29525E-02-1.17300E-02-4.91804E-05
 -1      9095 3.29567E-02-1.17352E-02-3.51288E-05
 -1      9096 3.29596E-02-1.17387E-02-2.10773E-05
 -1      9097 3.29610E-02-1.17405E-02-7.02575E-06
 -1      9098 3.29610E-02-1.17405E-02 7.02575E-06
 -1      9099 3.29596E-02-1.17387E-02 2.10773E-05
 -1      9100 3.29567E-02-1.17352E-02 3.51288E-05
 -1      9101 3.29525E-02-1.17300E-02 4.91804E-05
 -1      9102 3.29467E-02-1.17230E-02 6.32322E-05
 -1      9103 3.52895E-02-1.45149E-02-6.13816E-05
 -1      9104 3.52939E-02-1.45211E-02-4.77412E-05
 -1      9105 3.52973E-02-1.45258E-02-3.41009E-05
 -1      9106 3.52995E-02-1.45289E-02-2.04605E-05
 -1      9107 3.53006E-02-1.45305E-02-6.82017E-06
 -1      9108 3.53006E-02-1.45305E-02 6.82017E-06
 -1      9109 3.52995E-02-1.45289E-02 2.04605E-05
 -1      9110 3.52973E-02-1.45258E-02 3.41009E-05
 -1      9111 3.52939E-02-1.45211E-02 4.77412E-05
 -1      9112 3.52895E-02-1.45149E-02 6.13816E-05
 -1      9113 3.75061E-02-1.75267E-02-6.02517E-05
 -1      9114 3.75094E-02-1.75320E-02-4.68625E-05
 -1      9115 3.75118E-02-1.75360E-02-3.34732E-05
 -1      9116 3.75135E-02-1.75386E-02-2.00840E-05
 -1      9117 3.75143E-02-1.75399E-02-6.69466E-06
 -1      9118 3.75143E-02-1.75399E-02 6.69466E-06
 -1      9119 3.75135E-02-1.75386E-02 2.00840E-05
 -1      9120 3.75118E-02-1.75360E-02 3.34732E-05
 -1      9121 3.75094E-02-1.75320E-02 4.68625E-05
 -1      9122 3.75061E-02-1.75267E-02 6.02517E-05
 -1      9123 3.95678E-02-2.07346E-02-5.98664E-05
 -1      9124 3.95699E-02-2.07388E-02-4.65630E-05
 -1      9125 3.95715E-02-2.07419E-02-3.32594E-05
 -1      9126 3.95725E-02-2.07440E-02-1.99556E-05
 -1      9127 3.95731E-02-2.07451E-02-6.65189E-06
 -1      9128 3.95731E-02-2.07451E-02 6.65189E-06
 -1      9129 3.95725E-02-2.07440E-02 1.99556E-05
 -1      9130 3.95715E-02-2.07419E-02 3.32594E-05
 -1      9131 3.95699E-02-2.07388E-02 4.65630E-05
 -1      9132 3.95678E-02-2.07346E-02 5.98664E-05
 -1      9133 4.14475E-02-2.41099E-02-6.01741E-05
 -1      9134 4.14486E-02-2.41128E-02-4.68024E-05
 -1      9135 4.14495E-02-2.41150E-02-3.34305E-05
 -1      9136 4.14500E-02-2.41164E-02-2.00583E-05
 -1      9137 4.14503E-02-2.41172E-02-6.68612E-06
 -1      9138 4.14503E-02-2.41172E-02 6.68612E-06
 -1      9139 4.14500E-02-2.41164E-02 2.00583E-05
 -1      9140 4.14495E-02-2.41150E-02 3.34305E-05
 -1      9141 4.14486E-02-2.41128E-02 4.68024E-05
 -1      9142 4.14475E-02-2.41099E-02 6.01741E-05
 -1      9143 4.31217E-02-2.76190E-02-6.10113E-05
 -1      9144 4.31220E-02-2.76205E-02-4.74537E-05
 -1      9145 4.31222E-02-2.76216E-02-3.38958E-05
 -1      9146 4.31224E-02-2.76224E-02-2.03376E-05
 -1      9147 4.31225E-02-2.76228E-02-6.77921E-06
 -1      9148 4.31225E-02-2.76228E-02 6.77921E-06
 -1      9149 4.31224E-02-2.76224E-02 2.03376E-05
 -1      9150 4.31222E-02-2.76216E-02 3.38958E-05
 -1      9151 4.31220E-02-2.76205E-02 4.74537E-05
 -1      9152 4.31217E-02-2.76190E-02 6.10113E-05
 -1      9153 4.45707E-02-3.12242E-02-6.20615E-05
 -1      9154 4.45705E-02-3.12243E-02-4.82710E-05
 -1      9155 4.45703E-02-3.12243E-02-3.44799E-05
 -1      9156 4.45702E-02-3.12243E-02-2.06882E-05
 -1      9157 4.45701E-02-3.12243E-02-6.89611E-06
 -1      9158 4.45701E-02-3.12243E-02 6.89611E-06
 -1      9159 4.45702E-02-3.12243E-02 2.06882E-05
 -1      9160 4.45703E-02-3.12243E-02 3.44799E-05
 -1      9161 4.45705E-02-3.12243E-02 4.82710E-05
 -1      9162 4.45707E-02-3.12242E-02 6.20615E-05
 -1      9163 4.57806E-02-3.48852E-02-6.28099E-05
 -1      9164 4.57801E-02-3.48837E-02-4.88544E-05
 -1      9165 4.57797E-02-3.48827E-02-3.48973E-05
 -1      9166 4.57795E-02-3.48820E-02-2.09389E-05
 -1      9167 4.57794E-02-3.48816E-02-6.97973E-06
 -1      9168 4.57794E-02-3.48816E-02 6.97973E-06
 -1      9169 4.57795E-02-3.48820E-02 2.09389E-05
 -1      9170 4.57797E-02-3.48827E-02 3.48973E-05
 -1      9171 4.57801E-02-3.48837E-02 4.88544E-05
 -1      9172 4.57806E-02-3.48852E-02 6.28099E-05
 -1      9173 4.67435E-02-3.85603E-02-6.24893E-05
 -1      9174 4.67432E-02-3.85575E-02-4.86051E-05
 -1      9175 4.67430E-02-3.85554E-02-3.47194E-05
 -1      9176 4.67429E-02-3.85540E-02-2.08324E-05
 -1      9177 4.67428E-02-3.85533E-02-6.94425E-06
 -1      9178 4.67428E-02-3.85533E-02 6.94425E-06
 -1      9179 4.67429E-02-3.85540E-02 2.08324E-05
 -1      9180 4.67430E-02-3.85554E-02 3.47194E-05
 -1      9181 4.67432E-02-3.85575E-02 4.86051E-05
 -1      9182 4.67435E-02-3.85603E-02 6.24893E-05
 -1      9183 4.74597E-02-4.22092E-02-5.99963E-05
 -1      9184 4.74600E-02-4.22052E-02-4.66596E-05
 -1      9185 4.74603E-02-4.22023E-02-3.33248E-05
 -1      9186 4.74604E-02-4.22003E-02-1.99928E-05
 -1      9187 4.74605E-02-4.21993E-02-6.66382E-06
 -1      9188 4.74605E-02-4.21993E-02 6.66382E-06
 -1      9189 4.74604E-02-4.22003E-02 1.99928E-05
 -1      9190 4.74603E-02-4.22023E-02 3.33248E-05
 -1      9191 4.74600E-02-4.22052E-02 4.66596E-05
 -1      9192 4.74597E-02-4.22092E-02 5.99963E-05
 -1      9193 4.79376E-02-4.57950E-02-5.38451E-05
 -1      9194 4.79391E-02-4.57902E-02-4.18219E-05
 -1      9195 4.79402E-02-4.57865E-02-2.98283E-05
 -1      9196 4.79409E-02-4.57841E-02-1.78754E-05
 -1      9197 4.79412E-02-4.57829E-02-5.95451E-06
 -1      9198 4.79412E-02-4.57829E-02 5.95451E-06
 -1      9199 4.79409E-02-4.57841E-02 1.78754E-05
 -1      9200 4.79402E-02-4.57865E-02 2.98283E-05
 -1      9201 4.79391E-02-4.57902E-02 4.18219E-05
 -1      9202 4.79376E-02-4.57950E-02 5.38451E-05
 -1      9203 4.81958E-02-4.92868E-02-4.22574E-05
 -1      9204 4.81986E-02-4.92814E-02-3.26285E-05
 -1      9205 4.82006E-02-4.92774E-02-2.31734E-05
 -1      9206 4.82018E-02-4.92747E-02-1.38503E-05
 -1      9207 4.82024E-02-4.92733E-02-4.60781E-06
 -1      9208 4.82024E-02-4.92733E-02 4.60781E-06
 -1      9209 4.82018E-02-4.92747E-02 1.38503E-05
 -1      9210 4.82006E-02-4.92774E-02 2.31734E-05
 -1      9211 4.81986E-02-4.92814E-02 3.26285E-05
 -1      9212 4.81958E-02-4.92868E-02 4.22574E-05
 -1      9213 4.09491E-04 5.12330E-04-2.14242E-04
 -1      9214 4.23024E-04 4.94938E-04-1.59673E-04
 -1      9215 4.32010E-04 4.86312E-04-1.10537E-04
 -1      9216 4.37497E-04 4.81906E-04-6.49815E-05
 -1      9217 4.40100E-04 4.80006E-04-2.14436E-05
 -1      9218 4.40100E-04 4.80006E-04 2.14436E-05
 -1      9219 4.37497E-04 4.81906E-04 6.49815E-05
 -1      9220 4.32010E-04 4.86312E-04 1.10537E-04
 -1      9221 4.23024E-04 4.94938E-04 1.59673E-04
 -1      9222 4.09491E-04 5.12330E-04 2.14242E-04
 -1      9223 1.09373E-03 1.08502E-03-2.31268E-04
 -1      9224 1.11065E-03 1.07860E-03-1.81944E-04
 -1      9225 1.12293E-03 1.07197E-03-1.30524E-04
 -1      9226 1.13091E-03 1.06728E-03-7.84155E-05
 -1      9227 1.13484E-03 1.06491E-03-2.61448E-05
 -1      9228 1.13484E-03 1.06491E-03 2.61448E-05
 -1      9229 1.13091E-03 1.06728E-03 7.84155E-05
 -1      9230 1.12293E-03 1.07197E-03 1.30524E-04
 -1      9231 1.11065E-03 1.07860E-03 1.81944E-04
 -1      9232 1.09373E-03 1.08502E-03 2.31268E-04
 -1      9233 2.01516E-03 1.64352E-03-2.04930E-04
 -1      9234 2.03260E-03 1.64538E-03-1.60783E-04
 -1      9235 2.04546E-03 1.64543E-03-1.15776E-04
 -1      9236 2.05392E-03 1.64475E-03-6.98595E-05
 -1      9237 2.05812E-03 1.64420E-03-2.33528E-05
 -1      9238 2.05812E-03 1.64420E-03 2.33528E-05
 -1      9239 2.05392E-03 1.64475E-03 6.98595E-05
 -1      9240 2.04546E-03 1.64543E-03 1.15776E-04
 -1      9241 2.03260E-03 1.64538E-03 1.60783E-04
 -1      9242 2.01516E-03 1.64352E-03 2.04930E-04
 -1      9243 3.15088E-03 2.15749E-03-1.85309E-04
 -1      9244 3.16779E-03 2.15766E-03-1.44156E-04
 -1      9245 3.18051E-03 2.15797E-03-1.03059E-04
 -1      9246 3.18898E-03 2.15817E-03-6.19028E-05
 -1      9247 3.19321E-03 2.15825E-03-2.06488E-05
 -1      9248 3.19321E-03 2.15825E-03 2.06488E-05
 -1      9249 3.18898E-03 2.15817E-03 6.19028E-05
 -1      9250 3.18051E-03 2.15797E-03 1.03059E-04
 -1      9251 3.16779E-03 2.15766E-03 1.44156E-04
 -1      9252 3.15088E-03 2.15749E-03 1.85309E-04
 -1      9253 4.48990E-03 2.57647E-03-1.70981E-04
 -1      9254 4.50634E-03 2.57520E-03-1.32973E-04
 -1      9255 4.51868E-03 2.57423E-03-9.49515E-05
 -1      9256 4.52692E-03 2.57362E-03-5.69538E-05
 -1      9257 4.53104E-03 2.57333E-03-1.89815E-05
 -1      9258 4.53104E-03 2.57333E-03 1.89815E-05
 -1      9259 4.52692E-03 2.57362E-03 5.69538E-05
 -1      9260 4.51868E-03 2.57423E-03 9.49515E-05
 -1      9261 4.50634E-03 2.57520E-03 1.32973E-04
 -1      9262 4.48990E-03 2.57647E-03 1.70981E-04
 -1      9263 6.02588E-03 2.86616E-03-1.60021E-04
 -1      9264 6.04193E-03 2.86342E-03-1.24436E-04
 -1      9265 6.05397E-03 2.86139E-03-8.88743E-05
 -1      9266 6.06200E-03 2.86004E-03-5.33206E-05
 -1      9267 6.06601E-03 2.85937E-03-1.77727E-05
 -1      9268 6.06601E-03 2.85937E-03 1.77727E-05
 -1      9269 6.06200E-03 2.86004E-03 5.33206E-05
 -1      9270 6.05397E-03 2.86139E-03 8.88743E-05
 -1      9271 6.04193E-03 2.86342E-03 1.24436E-04
 -1      9272 6.02588E-03 2.86616E-03 1.60021E-04
 -1      9273 7.75232E-03 2.99831E-03-1.50890E-04
 -1      9274 7.76796E-03 2.99443E-03-1.17358E-04
 -1      9275 7.77970E-03 2.99152E-03-8.38244E-05
 -1      9276 7.78752E-03 2.98958E-03-5.02936E-05
 -1      9277 7.79143E-03 2.98861E-03-1.67644E-05
 -1      9278 7.79143E-03 2.98861E-03 1.67644E-05
 -1      9279 7.78752E-03 2.98958E-03 5.02936E-05
 -1      9280 7.77970E-03 2.99152E-03 8.38244E-05
 -1      9281 7.76796E-03 2.99443E-03 1.17358E-04
 -1      9282 7.75232E-03 2.99831E-03 1.50890E-04
 -1      9283 9.65970E-03 2.94871E-03-1.42975E-04
 -1      9284 9.67487E-03 2.94386E-03-1.11203E-04
 -1      9285 9.68626E-03 2.94022E-03-7.94319E-05
 -1      9286 9.69385E-03 2.93779E-03-4.76593E-05
 -1      9287 9.69764E-03 2.93658E-03-1.58864E-05
 -1      9288 9.69764E-03 2.93658E-03 1.58864E-05
 -1      9289 9.69385E-03 2.93779E-03 4.76593E-05
 -1      9290 9.68626E-03 2.94022E-03 7.94319E-05
 -1      9291 9.67487E-03 2.94386E-03 1.11203E-04
 -1      9292 9.65970E-03 2.94871E-03 1.42975E-04
 -1      9293 1.17348E-02 2.69581E-03-1.35880E-04
 -1      9294 1.17494E-02 2.69014E-03-1.05685E-04
 -1      9295 1.17604E-02 2.68589E-03-7.54895E-05
 -1      9296 1.17677E-02 2.68305E-03-4.52939E-05
 -1      9297 1.17714E-02 2.68164E-03-1.50980E-05
 -1      9298 1.17714E-02 2.68164E-03 1.50980E-05
 -1      9299 1.17677E-02 2.68305E-03 4.52939E-05
 -1      9300 1.17604E-02 2.68589E-03 7.54895E-05
 -1      9301 1.17494E-02 2.69014E-03 1.05685E-04
 -1      9302 1.17348E-02 2.69581E-03 1.35880E-04
 -1      9303 1.39608E-02 2.22051E-03-1.29309E-04
 -1      9304 1.39748E-02 2.21417E-03-1.00573E-04
 -1      9305 1.39852E-02 2.20942E-03-7.18382E-05
 -1      9306 1.39922E-02 2.20624E-03-4.31030E-05
 -1      9307 1.39957E-02 2.20466E-03-1.43677E-05
 -1      9308 1.39957E-02 2.20466E-03 1.43677E-05
 -1      9309 1.39922E-02 2.20624E-03 4.31030E-05
 -1      9310 1.39852E-02 2.20942E-03 7.18382E-05
 -1      9311 1.39748E-02 2.21417E-03 1.00573E-04
 -1      9312 1.39608E-02 2.22051E-03 1.29309E-04
 -1      9313 1.63174E-02 1.50626E-03-1.23046E-04
 -1      9314 1.63307E-02 1.49938E-03-9.57022E-05
 -1      9315 1.63406E-02 1.49423E-03-6.83587E-05
 -1      9316 1.63472E-02 1.49079E-03-4.10152E-05
 -1      9317 1.63505E-02 1.48907E-03-1.36717E-05
 -1      9318 1.63505E-02 1.48907E-03 1.36717E-05
 -1      9319 1.63472E-02 1.49079E-03 4.10152E-05
 -1      9320 1.63406E-02 1.49423E-03 6.83587E-05
 -1      9321 1.63307E-02 1.49938E-03 9.57022E-05
 -1      9322 1.63174E-02 1.50626E-03 1.23046E-04
 -1      9323 1.87817E-02 5.39220E-04-1.16951E-04
 -1      9324 1.87941E-02 5.31958E-04-9.09616E-05
 -1      9325 1.88034E-02 5.26511E-04-6.49725E-05
 -1      9326 1.88096E-02 5.22880E-04-3.89835E-05
 -1      9327 1.88127E-02 5.21065E-04-1.29945E-05
 -1      9328 1.88127E-02 5.21065E-04 1.29945E-05
 -1      9329 1.88096E-02 5.22880E-04 3.89835E-05
 -1      9330 1.88034E-02 5.26511E-04 6.49725E-05
 -1      9331 1.87941E-02 5.31958E-04 9.09616E-05
 -1      9332 1.87817E-02 5.39220E-04 1.16951E-04
 -1      9333 2.13279E-02-6.91371E-04-1.10946E-04
 -1      9334 2.13394E-02-6.98877E-04-8.62911E-05
 -1      9335 2.13480E-02-7.04507E-04-6.16364E-05
 -1      9336 2.13537E-02-7.08261E-04-3.69818E-05
 -1      9337 2.13566E-02-7.10137E-04-1.23273E-05
 -1      9338 2.13566E-02-7.10137E-04 1.23273E-05
 -1      9339 2.13537E-02-7.08261E-04 3.69818E-05
 -1      9340 2.13480E-02-7.04507E-04 6.16364E-05
 -1      9341 2.13394E-02-6.98877E-04 8.62911E-05
 -1      9342 2.13279E-02-6.91371E-04 1.10946E-04
 -1      9343 2.39283E-02-2.19293E-03-1.05005E-04
 -1      9344 2.39388E-02-2.20053E-03-8.16707E-05
 -1      9345 2.39467E-02-2.20623E-03-5.83361E-05
 -1      9346 2.39519E-02-2.21003E-03-3.50017E-05
 -1      9347 2.39545E-02-2.21193E-03-1.16672E-05
 -1      9348 2.39545E-02-2.21193E-03 1.16672E-05
 -1      9349 2.39519E-02-2.21003E-03 3.50017E-05
 -1      9350 2.39467E-02-2.20623E-03 5.83361E-05
 -1      9351 2.39388E-02-2.20053E-03 8.16707E-05
 -1      9352 2.39283E-02-2.19293E-03 1.05005E-04
 -1      9353 2.65535E-02-3.96917E-03-9.91463E-05
 -1      9354 2.65629E-02-3.97671E-03-7.71136E-05
 -1      9355 2.65700E-02-3.98237E-03-5.50810E-05
 -1      9356 2.65748E-02-3.98614E-03-3.30486E-05
 -1      9357 2.65771E-02-3.98802E-03-1.10162E-05
 -1      9358 2.65771E-02-3.98802E-03 1.10162E-05
 -1      9359 2.65748E-02-3.98614E-03 3.30486E-05
 -1      9360 2.65700E-02-3.98237E-03 5.50810E-05
 -1      9361 2.65629E-02-3.97671E-03 7.71136E-05
 -1      9362 2.65535E-02-3.96917E-03 9.91463E-05
 -1      9363 2.91727E-02-6.01978E-03-9.34203E-05
 -1      9364 2.91811E-02-6.02710E-03-7.26601E-05
 -1      9365 2.91873E-02-6.03258E-03-5.19000E-05
 -1      9366 2.91915E-02-6.03624E-03-3.11400E-05
 -1      9367 2.91936E-02-6.03807E-03-1.03800E-05
 -1      9368 2.91936E-02-6.03807E-03 1.03800E-05
 -1      9369 2.91915E-02-6.03624E-03 3.11400E-05
 -1      9370 2.91873E-02-6.03258E-03 5.19000E-05
 -1      9371 2.91811E-02-6.02710E-03 7.26601E-05
 -1      9372 2.91727E-02-6.01978E-03 9.34203E-05
 -1      9373 3.17544E-02-8.34006E-03-8.79070E-05
 -1      9374 3.17616E-02-8.34698E-03-6.83720E-05
 -1      9375 3.17670E-02-8.35218E-03-4.88371E-05
 -1      9376 3.17706E-02-8.35564E-03-2.93023E-05
 -1      9377 3.17724E-02-8.35737E-03-9.76742E-06
 -1      9378 3.17724E-02-8.35737E-03 9.76742E-06
 -1      9379 3.17706E-02-8.35564E-03 2.93023E-05
 -1      9380 3.17670E-02-8.35218E-03 4.88371E-05
 -1      9381 3.17616E-02-8.34698E-03 6.83720E-05
 -1      9382 3.17544E-02-8.34006E-03 8.79070E-05
 -1      9383 3.42665E-02-1.09206E-02-8.27044E-05
 -1      9384 3.42726E-02-1.09270E-02-6.43256E-05
 -1      9385 3.42771E-02-1.09318E-02-4.59468E-05
 -1      9386 3.42802E-02-1.09349E-02-2.75681E-05
 -1      9387 3.42817E-02-1.09365E-02-9.18937E-06
 -1      9388 3.42817E-02-1.09365E-02 9.18937E-06
 -1      9389 3.42802E-02-1.09349E-02 2.75681E-05
 -1      9390 3.42771E-02-1.09318E-02 4.59468E-05
 -1      9391 3.42726E-02-1.09270E-02 6.43256E-05
 -1      9392 3.42665E-02-1.09206E-02 8.27044E-05
 -1      9393 3.66774E-02-1.37471E-02-7.79177E-05
 -1      9394 3.66823E-02-1.37528E-02-6.06027E-05
 -1      9395 3.66860E-02-1.37570E-02-4.32877E-05
 -1      9396 3.66884E-02-1.37598E-02-2.59726E-05
 -1      9397 3.66896E-02-1.37612E-02-8.65755E-06
 -1      9398 3.66896E-02-1.37612E-02 8.65755E-06
 -1      9399 3.66884E-02-1.37598E-02 2.59726E-05
 -1      9400 3.66860E-02-1.37570E-02 4.32877E-05
 -1      9401 3.66823E-02-1.37528E-02 6.06027E-05
 -1      9402 3.66774E-02-1.37471E-02 7.79177E-05
 -1      9403 3.89559E-02-1.68001E-02-7.36442E-05
 -1      9404 3.89597E-02-1.68048E-02-5.72790E-05
 -1      9405 3.89625E-02-1.68083E-02-4.09136E-05
 -1      9406 3.89644E-02-1.68107E-02-2.45482E-05
 -1      9407 3.89654E-02-1.68119E-02-8.18275E-06
 -1      9408 3.89654E-02-1.68119E-02 8.18275E-06
 -1      9409 3.89644E-02-1.68107E-02 2.45482E-05
 -1      9410 3.89625E-02-1.68083E-02 4.09136E-05
 -1      9411 3.89597E-02-1.68048E-02 5.72790E-05
 -1      9412 3.89559E-02-1.68001E-02 7.36442E-05
 -1      9413 4.10728E-02-2.00548E-02-6.99528E-05
 -1      9414 4.10756E-02-2.00584E-02-5.44080E-05
 -1      9415 4.10776E-02-2.00611E-02-3.88630E-05
 -1      9416 4.10790E-02-2.00630E-02-2.33178E-05
 -1      9417 4.10797E-02-2.00639E-02-7.77263E-06
 -1      9418 4.10797E-02-2.00639E-02 7.77263E-06
 -1      9419 4.10790E-02-2.00630E-02 2.33178E-05
 -1      9420 4.10776E-02-2.00611E-02 3.88630E-05
 -1      9421 4.10756E-02-2.00584E-02 5.44080E-05
 -1      9422 4.10728E-02-2.00548E-02 6.99528E-05
 -1      9423 4.30012E-02-2.34814E-02-6.68577E-05
 -1      9424 4.30030E-02-2.34838E-02-5.20008E-05
 -1      9425 4.30044E-02-2.34856E-02-3.71436E-05
 -1      9426 4.30053E-02-2.34869E-02-2.22863E-05
 -1      9427 4.30057E-02-2.34875E-02-7.42876E-06
 -1      9428 4.30057E-02-2.34875E-02 7.42876E-06
 -1      9429 4.30053E-02-2.34869E-02 2.22863E-05
 -1      9430 4.30044E-02-2.34856E-02 3.71436E-05
 -1      9431 4.30030E-02-2.34838E-02 5.20008E-05
 -1      9432 4.30012E-02-2.34814E-02 6.68577E-05
 -1      9433 4.47177E-02-2.70455E-02-6.42856E-05
 -1      9434 4.47187E-02-2.70467E-02-5.00004E-05
 -1      9435 4.47195E-02-2.70476E-02-3.57148E-05
 -1      9436 4.47200E-02-2.70481E-02-2.14290E-05
 -1      9437 4.47202E-02-2.70484E-02-7.14302E-06
 -1      9438 4.47202E-02-2.70484E-02 7.14302E-06
 -1      9439 4.47200E-02-2.70481E-02 2.14290E-05
 -1      9440 4.47195E-02-2.70476E-02 3.57148E-05
 -1      9441 4.47187E-02-2.70467E-02 5.00004E-05
 -1      9442 4.47177E-02-2.70455E-02 6.42856E-05
 -1      9443 4.62033E-02-3.07092E-02-6.20350E-05
 -1      9444 4.62038E-02-3.07090E-02-4.82503E-05
 -1      9445 4.62041E-02-3.07089E-02-3.44650E-05
 -1      9446 4.62044E-02-3.07088E-02-2.06792E-05
 -1      9447 4.62045E-02-3.07088E-02-6.89310E-06
 -1      9448 4.62045E-02-3.07088E-02 6.89310E-06
 -1      9449 4.62044E-02-3.07088E-02 2.06792E-05
 -1      9450 4.62041E-02-3.07089E-02 3.44650E-05
 -1      9451 4.62038E-02-3.07090E-02 4.82503E-05
 -1      9452 4.62033E-02-3.07092E-02 6.20350E-05
 -1      9453 4.74448E-02-3.44320E-02-5.97278E-05
 -1      9454 4.74450E-02-3.44305E-02-4.64570E-05
 -1      9455 4.74451E-02-3.44294E-02-3.31846E-05
 -1      9456 4.74452E-02-3.44287E-02-1.99112E-05
 -1      9457 4.74453E-02-3.44284E-02-6.63713E-06
 -1      9458 4.74453E-02-3.44284E-02 6.63713E-06
 -1      9459 4.74452E-02-3.44287E-02 1.99112E-05
 -1      9460 4.74451E-02-3.44294E-02 3.31846E-05
 -1      9461 4.74450E-02-3.44305E-02 4.64570E-05
 -1      9462 4.74448E-02-3.44320E-02 5.97278E-05
 -1      9463 4.84353E-02-3.81731E-02-5.67482E-05
 -1      9464 4.84356E-02-3.81705E-02-4.41398E-05
 -1      9465 4.84358E-02-3.81686E-02-3.15299E-05
 -1      9466 4.84360E-02-3.81673E-02-1.89187E-05
 -1      9467 4.84360E-02-3.81666E-02-6.30636E-06
 -1      9468 4.84360E-02-3.81666E-02 6.30636E-06
 -1      9469 4.84360E-02-3.81673E-02 1.89187E-05
 -1      9470 4.84358E-02-3.81686E-02 3.15299E-05
 -1      9471 4.84356E-02-3.81705E-02 4.41398E-05
 -1      9472 4.84353E-02-3.81731E-02 5.67482E-05
 -1      9473 4.91754E-02-4.18940E-02-5.21445E-05
 -1      9474 4.91762E-02-4.18905E-02-4.05562E-05
 -1      9475 4.91768E-02-4.18879E-02-2.89679E-05
 -1      9476 4.91772E-02-4.18861E-02-1.73800E-05
 -1      9477 4.91775E-02-4.18852E-02-5.79313E-06
 -1      9478 4.91775E-02-4.18852E-02 5.79313E-06
 -1      9479 4.91772E-02-4.18861E-02 1.73800E-05
 -1      9480 4.91768E-02-4.18879E-02 2.89679E-05
 -1      9481 4.91762E-02-4.18905E-02 4.05562E-05
 -1      9482 4.91754E-02-4.18940E-02 5.21445E-05
 -1      9483 4.96738E-02-4.55608E-02-4.45533E-05
 -1      9484 4.96756E-02-4.55567E-02-3.46108E-05
 -1      9485 4.96769E-02-4.55536E-02-2.46878E-05
 -1      9486 4.96778E-02-4.55515E-02-1.47957E-05
 -1      9487 4.96782E-02-4.55505E-02-4.92873E-06
 -1      9488 4.96782E-02-4.55505E-02 4.92873E-06
 -1      9489 4.96778E-02-4.55515E-02 1.47957E-05
 -1      9490 4.96769E-02-4.55536E-02 2.46878E-05
 -1      9491 4.96756E-02-4.55567E-02 3.46108E-05
 -1      9492 4.96738E-02-4.55608E-02 4.45533E-05
 -1      9493 4.99484E-02-4.91469E-02-3.21858E-05
 -1      9494 4.99514E-02-4.91425E-02-2.48200E-05
 -1      9495 4.99535E-02-4.91392E-02-1.76094E-05
 -1      9496 4.99548E-02-4.91370E-02-1.05174E-05
 -1      9497 4.99554E-02-4.91359E-02-3.49773E-06
 -1      9498 4.99554E-02-4.91359E-02 3.49773E-06
 -1      9499 4.99548E-02-4.91370E-02 1.05174E-05
 -1      9500 4.99535E-02-4.91392E-02 1.76094E-05
 -1      9501 4.99514E-02-4.91425E-02 2.48200E-05
 -1      9502 4.99484E-02-4.91469E-02 3.21858E-05
 -1      9503 4.80236E-04 6.08046E-04-2.52921E-04
 -1      9504 4.93607E-04 5.87713E-04-1.88828E-04
 -1      9505 5.02483E-04 5.77546E-04-1.30876E-04
 -1      9506 5.07896E-04 5.72333E-04-7.69953E-05
 -1      9507 5.10462E-04 5.70082E-04-2.54171E-05
 -1      9508 5.10462E-04 5.70082E-04 2.54171E-05
 -1      9509 5.07896E-04 5.72333E-04 7.69953E-05
 -1      9510 5.02483E-04 5.77546E-04 1.30876E-04
 -1      9511 4.93607E-04 5.87713E-04 1.88828E-04
 -1      9512 4.80236E-04 6.08046E-04 2.52921E-04
 -1      9513 1.23795E-03 1.28409E-03-2.71310E-04
 -1      9514 1.25428E-03 1.27723E-03-2.13544E-04
 -1      9515 1.26614E-03 1.26985E-03-1.53276E-04
 -1      9516 1.27387E-03 1.26455E-03-9.21233E-05
 -1      9517 1.27767E-03 1.26186E-03-3.07220E-05
 -1      9518 1.27767E-03 1.26186E-03 3.07220E-05
 -1      9519 1.27387E-03 1.26455E-03 9.21233E-05
 -1      9520 1.26614E-03 1.26985E-03 1.53276E-04
 -1      9521 1.25428E-03 1.27723E-03 2.13544E-04
 -1      9522 1.23795E-03 1.28409E-03 2.71310E-04
 -1      9523 2.22700E-03 1.94305E-03-2.41415E-04
 -1      9524 2.24369E-03 1.94551E-03-1.89283E-04
 -1      9525 2.25598E-03 1.94591E-03-1.36238E-04
 -1      9526 2.26407E-03 1.94537E-03-8.21864E-05
 -1      9527 2.26808E-03 1.94487E-03-2.74707E-05
 -1      9528 2.26808E-03 1.94487E-03 2.74707E-05
 -1      9529 2.26407E-03 1.94537E-03 8.21864E-05
 -1      9530 2.25598E-03 1.94591E-03 1.36238E-04
 -1      9531 2.24369E-03 1.94551E-03 1.89283E-04
 -1      9532 2.22700E-03 1.94305E-03 2.41415E-04
 -1      9533 3.42431E-03 2.55161E-03-2.20531E-04
 -1      9534 3.44042E-03 2.55202E-03-1.71509E-04
 -1      9535 3.45255E-03 2.55257E-03-1.22574E-04
 -1      9536 3.46064E-03 2.55297E-03-7.36046E-05
 -1      9537 3.46468E-03 2.55315E-03-2.45485E-05
 -1      9538 3.46468E-03 2.55315E-03 2.45485E-05
 -1      9539 3.46064E-03 2.55297E-03 7.36046E-05
 -1      9540 3.45255E-03 2.55257E-03 1.22574E-04
 -1      9541 3.44042E-03 2.55202E-03 1.71509E-04
 -1      9542 3.42431E-03 2.55161E-03 2.20531E-04
 -1      9543 4.82246E-03 3.05584E-03-2.05811E-04
 -1      9544 4.83818E-03 3.05475E-03-1.60057E-04
 -1      9545 4.84997E-03 3.05391E-03-1.14289E-04
 -1      9546 4.85785E-03 3.05339E-03-6.85511E-05
 -1      9547 4.86180E-03 3.05315E-03-2.28462E-05
 -1      9548 4.86180E-03 3.05315E-03 2.28462E-05
 -1      9549 4.85785E-03 3.05339E-03 6.85511E-05
 -1      9550 4.84997E-03 3.05391E-03 1.14289E-04
 -1      9551 4.83818E-03 3.05475E-03 1.60057E-04
 -1      9552 4.82246E-03 3.05584E-03 2.05811E-04
 -1      9553 6.41876E-03 3.42204E-03-1.94725E-04
 -1      9554 6.43418E-03 3.41946E-03-1.51427E-04
 -1      9555 6.44575E-03 3.41755E-03-1.08154E-04
 -1      9556 6.45347E-03 3.41628E-03-6.48885E-05
 -1      9557 6.45732E-03 3.41565E-03-2.16287E-05
 -1      9558 6.45732E-03 3.41565E-03 2.16287E-05
 -1      9559 6.45347E-03 3.41628E-03 6.48885E-05
 -1      9560 6.44575E-03 3.41755E-03 1.08154E-04
 -1      9561 6.43418E-03 3.41946E-03 1.51427E-04
 -1      9562 6.41876E-03 3.42204E-03 1.94725E-04
 -1      9563 8.20899E-03 3.62277E-03-1.85439E-04
 -1      9564 8.22411E-03 3.61909E-03-1.44231E-04
 -1      9565 8.23544E-03 3.61632E-03-1.03020E-04
 -1      9566 8.24300E-03 3.61448E-03-6.18110E-05
 -1      9567 8.24678E-03 3.61356E-03-2.06036E-05
 -1      9568 8.24678E-03 3.61356E-03 2.06036E-05
 -1      9569 8.24300E-03 3.61448E-03 6.18110E-05
 -1      9570 8.23544E-03 3.61632E-03 1.03020E-04
 -1      9571 8.22411E-03 3.61909E-03 1.44231E-04
 -1      9572 8.20899E-03 3.62277E-03 1.85439E-04
 -1      9573 1.01847E-02 3.63422E-03-1.77239E-04
 -1      9574 1.01994E-02 3.62960E-03-1.37854E-04
 -1      9575 1.02105E-02 3.62615E-03-9.84680E-05
 -1      9576 1.02178E-02 3.62384E-03-5.90811E-05
 -1      9577 1.02215E-02 3.62269E-03-1.96937E-05
 -1      9578 1.02215E-02 3.62269E-03 1.96937E-05
 -1      9579 1.02178E-02 3.62384E-03 5.90811E-05
 -1      9580 1.02105E-02 3.62615E-03 9.84680E-05
 -1      9581 1.01994E-02 3.62960E-03 1.37854E-04
 -1      9582 1.01847E-02 3.63422E-03 1.77239E-04
 -1      9583 1.23328E-02 3.43472E-03-1.69673E-04
 -1      9584 1.23471E-02 3.42934E-03-1.31969E-04
 -1      9585 1.23578E-02 3.42531E-03-9.42639E-05
 -1      9586 1.23649E-02 3.42262E-03-5.65587E-05
 -1      9587 1.23685E-02 3.42127E-03-1.88529E-05
 -1      9588 1.23685E-02 3.42127E-03 1.88529E-05
 -1      9589 1.23649E-02 3.42262E-03 5.65587E-05
 -1      9590 1.23578E-02 3.42531E-03 9.42639E-05
 -1      9591 1.23471E-02 3.42934E-03 1.31969E-04
 -1      9592 1.23328E-02 3.43472E-03 1.69673E-04
 -1      9593 1.46363E-02 3.00485E-03-1.62416E-04
 -1      9594 1.46499E-02 2.99885E-03-1.26324E-04
 -1      9595 1.46602E-02 2.99434E-03-9.02316E-05
 -1      9596 1.46670E-02 2.99134E-03-5.41391E-05
 -1      9597 1.46705E-02 2.98984E-03-1.80464E-05
 -1      9598 1.46705E-02 2.98984E-03 1.80464E-05
 -1      9599 1.46670E-02 2.99134E-03 5.41391E-05
 -1      9600 1.46602E-02 2.99434E-03 9.02316E-05
 -1      9601 1.46499E-02 2.99885E-03 1.26324E-04
 -1      9602 1.46363E-02 3.00485E-03 1.62416E-04
 -1      9603 1.70741E-02 2.32756E-03-1.55236E-04
 -1      9604 1.70871E-02 2.32107E-03-1.20739E-04
 -1      9605 1.70968E-02 2.31620E-03-8.62424E-05
 -1      9606 1.71033E-02 2.31296E-03-5.17455E-05
 -1      9607 1.71066E-02 2.31134E-03-1.72485E-05
 -1      9608 1.71066E-02 2.31134E-03 1.72485E-05
 -1      9609 1.71033E-02 2.31296E-03 5.17455E-05
 -1      9610 1.70968E-02 2.31620E-03 8.62424E-05
 -1      9611 1.70871E-02 2.32107E-03 1.20739E-04
 -1      9612 1.70741E-02 2.32756E-03 1.55236E-04
 -1      9613 1.96223E-02 1.38858E-03-1.47984E-04
 -1      9614 1.96345E-02 1.38174E-03-1.15099E-04
 -1      9615 1.96437E-02 1.37662E-03-8.22135E-05
 -1      9616 1.96498E-02 1.37320E-03-4.93282E-05
 -1      9617 1.96529E-02 1.37149E-03-1.64427E-05
 -1      9618 1.96529E-02 1.37149E-03 1.64427E-05
 -1      9619 1.96498E-02 1.37320E-03 4.93282E-05
 -1      9620 1.96437E-02 1.37662E-03 8.22135E-05
 -1      9621 1.96345E-02 1.38174E-03 1.15099E-04
 -1      9622 1.96223E-02 1.38858E-03 1.47984E-04
 -1      9623 2.22541E-02 1.76746E-04-1.40577E-04
 -1      9624 2.22655E-02 1.69703E-04-1.09338E-04
 -1      9625 2.22741E-02 1.64420E-04-7.80987E-05
 -1      9626 2.22798E-02 1.60898E-04-4.68593E-05
 -1      9627 2.22826E-02 1.59138E-04-1.56198E-05
 -1      9628 2.22826E-02 1.59138E-04 1.56198E-05
 -1      9629 2.22798E-02 1.60898E-04 4.68593E-05
 -1      9630 2.22741E-02 1.64420E-04 7.80987E-05
 -1      9631 2.22655E-02 1.69703E-04 1.09338E-04
 -1      9632 2.22541E-02 1.76746E-04 1.40577E-04
 -1      9633 2.49406E-02-1.31561E-03-1.32986E-04
 -1      9634 2.49512E-02-1.32271E-03-1.03433E-04
 -1      9635 2.49590E-02-1.32804E-03-7.38811E-05
 -1      9636 2.49643E-02-1.33159E-03-4.43287E-05
 -1      9637 2.49669E-02-1.33337E-03-1.47763E-05
 -1      9638 2.49669E-02-1.33337E-03 1.47763E-05
 -1      9639 2.49643E-02-1.33159E-03 4.43287E-05
 -1      9640 2.49590E-02-1.32804E-03 7.38811E-05
 -1      9641 2.49512E-02-1.32271E-03 1.03433E-04
 -1      9642 2.49406E-02-1.31561E-03 1.32986E-04
 -1      9643 2.76512E-02-3.09229E-03-1.25222E-04
 -1      9644 2.76607E-02-3.09930E-03-9.73952E-05
 -1      9645 2.76679E-02-3.10456E-03-6.95681E-05
 -1      9646 2.76726E-02-3.10807E-03-4.17410E-05
 -1      9647 2.76750E-02-3.10982E-03-1.39137E-05
 -1      9648 2.76750E-02-3.10982E-03 1.39137E-05
 -1      9649 2.76726E-02-3.10807E-03 4.17410E-05
 -1      9650 2.76679E-02-3.10456E-03 6.95681E-05
 -1      9651 2.76607E-02-3.09930E-03 9.73952E-05
 -1      9652 2.76512E-02-3.09229E-03 1.25222E-04
 -1      9653 3.03536E-02-5.15286E-03-1.17337E-04
 -1      9654 3.03622E-02-5.15962E-03-9.12622E-05
 -1      9655 3.03685E-02-5.16470E-03-6.51874E-05
 -1      9656 3.03728E-02-5.16808E-03-3.91125E-05
 -1      9657 3.03749E-02-5.16977E-03-1.30375E-05
 -1      9658 3.03749E-02-5.16977E-03 1.30375E-05
 -1      9659 3.03728E-02-5.16808E-03 3.91125E-05
 -1      9660 3.03685E-02-5.16470E-03 6.51874E-05
 -1      9661 3.03622E-02-5.15962E-03 9.12622E-05
 -1      9662 3.03536E-02-5.15286E-03 1.17337E-04
 -1      9663 3.30152E-02-7.49230E-03-1.09411E-04
 -1      9664 3.30226E-02-7.49866E-03-8.50976E-05
 -1      9665 3.30282E-02-7.50343E-03-6.07841E-05
 -1      9666 3.30320E-02-7.50661E-03-3.64705E-05
 -1      9667 3.30338E-02-7.50820E-03-1.21569E-05
 -1      9668 3.30338E-02-7.50820E-03 1.21569E-05
 -1      9669 3.30320E-02-7.50661E-03 3.64705E-05
 -1      9670 3.30282E-02-7.50343E-03 6.07841E-05
 -1      9671 3.30226E-02-7.49866E-03 8.50976E-05
 -1      9672 3.30152E-02-7.49230E-03 1.09411E-04
 -1      9673 3.56026E-02-1.01007E-02-1.01550E-04
 -1      9674 3.56090E-02-1.01065E-02-7.89839E-05
 -1      9675 3.56138E-02-1.01108E-02-5.64172E-05
 -1      9676 3.56170E-02-1.01137E-02-3.38504E-05
 -1      9677 3.56186E-02-1.01152E-02-1.12835E-05
 -1      9678 3.56186E-02-1.01152E-02 1.12835E-05
 -1      9679 3.56170E-02-1.01137E-02 3.38504E-05
 -1      9680 3.56138E-02-1.01108E-02 5.64172E-05
 -1      9681 3.56090E-02-1.01065E-02 7.89839E-05
 -1      9682 3.56026E-02-1.01007E-02 1.01550E-04
 -1      9683 3.80832E-02-1.29630E-02-9.38789E-05
 -1      9684 3.80885E-02-1.29681E-02-7.30172E-05
 -1      9685 3.80925E-02-1.29719E-02-5.21553E-05
 -1      9686 3.80952E-02-1.29744E-02-3.12933E-05
 -1      9687 3.80965E-02-1.29756E-02-1.04311E-05
 -1      9688 3.80965E-02-1.29756E-02 1.04311E-05
 -1      9689 3.80952E-02-1.29744E-02 3.12933E-05
 -1      9690 3.80925E-02-1.29719E-02 5.21553E-05
 -1      9691 3.80885E-02-1.29681E-02 7.30172E-05
 -1      9692 3.80832E-02-1.29630E-02 9.38789E-05
 -1      9693 4.04251E-02-1.60588E-02-8.65258E-05
 -1      9694 4.04294E-02-1.60630E-02-6.72981E-05
 -1      9695 4.04326E-02-1.60661E-02-4.80703E-05
 -1      9696 4.04348E-02-1.60682E-02-2.88423E-05
 -1      9697 4.04358E-02-1.60693E-02-9.61411E-06
 -1      9698 4.04358E-02-1.60693E-02 9.61411E-06
 -1      9699 4.04348E-02-1.60682E-02 2.88423E-05
 -1      9700 4.04326E-02-1.60661E-02 4.80703E-05
 -1      9701 4.04294E-02-1.60630E-02 6.72981E-05
 -1      9702 4.04251E-02-1.60588E-02 8.65258E-05
 -1      9703 4.25987E-02-1.93625E-02-7.96105E-05
 -1      9704 4.26020E-02-1.93656E-02-6.19196E-05
 -1      9705 4.26044E-02-1.93680E-02-4.42285E-05
 -1      9706 4.26061E-02-1.93696E-02-2.65372E-05
 -1      9707 4.26069E-02-1.93703E-02-8.84575E-06
 -1      9708 4.26069E-02-1.93703E-02 8.84575E-06
 -1      9709 4.26061E-02-1.93696E-02 2.65372E-05
 -1      9710 4.26044E-02-1.93680E-02 4.42285E-05
 -1      9711 4.26020E-02-1.93656E-02 6.19196E-05
 -1      9712 4.25987E-02-1.93625E-02 7.96105E-05
 -1      9713 4.45768E-02-2.28432E-02-7.32203E-05
 -1      9714 4.45792E-02-2.28452E-02-5.69496E-05
 -1      9715 4.45810E-02-2.28467E-02-4.06785E-05
 -1      9716 4.45822E-02-2.28477E-02-2.44072E-05
 -1      9717 4.45828E-02-2.28482E-02-8.13574E-06
 -1      9718 4.45828E-02-2.28482E-02 8.13574E-06
 -1      9719 4.45822E-02-2.28477E-02 2.44072E-05
 -1      9720 4.45810E-02-2.28467E-02 4.06785E-05
 -1      9721 4.45792E-02-2.28452E-02 5.69496E-05
 -1      9722 4.45768E-02-2.28432E-02 7.32203E-05
 -1      9723 4.63363E-02-2.64658E-02-6.73807E-05
 -1      9724 4.63379E-02-2.64666E-02-5.24077E-05
 -1      9725 4.63392E-02-2.64672E-02-3.74343E-05
 -1      9726 4.63400E-02-2.64677E-02-2.24606E-05
 -1      9727 4.63404E-02-2.64679E-02-7.48689E-06
 -1      9728 4.63404E-02-2.64679E-02 7.48689E-06
 -1      9729 4.63400E-02-2.64677E-02 2.24606E-05
 -1      9730 4.63392E-02-2.64672E-02 3.74343E-05
 -1      9731 4.63379E-02-2.64666E-02 5.24077E-05
 -1      9732 4.63363E-02-2.64658E-02 6.73807E-05
 -1      9733 4.78588E-02-3.01916E-02-6.20156E-05
 -1      9734 4.78599E-02-3.01913E-02-4.82349E-05
 -1      9735 4.78608E-02-3.01910E-02-3.44538E-05
 -1      9736 4.78613E-02-3.01908E-02-2.06724E-05
 -1      9737 4.78616E-02-3.01907E-02-6.89081E-06
 -1      9738 4.78616E-02-3.01907E-02 6.89081E-06
 -1      9739 4.78613E-02-3.01908E-02 2.06724E-05
 -1      9740 4.78608E-02-3.01910E-02 3.44538E-05
 -1      9741 4.78599E-02-3.01913E-02 4.82349E-05
 -1      9742 4.78588E-02-3.01916E-02 6.20156E-05
 -1      9743 4.91319E-02-3.39802E-02-5.68952E-05
 -1      9744 4.91327E-02-3.39787E-02-4.42533E-05
 -1      9745 4.91333E-02-3.39776E-02-3.16101E-05
 -1      9746 4.91337E-02-3.39768E-02-1.89663E-05
 -1      9747 4.91339E-02-3.39764E-02-6.32213E-06
 -1      9748 4.91339E-02-3.39764E-02 6.32213E-06
 -1      9749 4.91337E-02-3.39768E-02 1.89663E-05
 -1      9750 4.91333E-02-3.39776E-02 3.16101E-05
 -1      9751 4.91327E-02-3.39787E-02 4.42533E-05
 -1      9752 4.91319E-02-3.39802E-02 5.68952E-05
 -1      9753 5.01495E-02-3.77912E-02-5.15674E-05
 -1      9754 5.01503E-02-3.77888E-02-4.01098E-05
 -1      9755 5.01508E-02-3.77869E-02-2.86510E-05
 -1      9756 5.01512E-02-3.77857E-02-1.71911E-05
 -1      9757 5.01514E-02-3.77850E-02-5.73048E-06
 -1      9758 5.01514E-02-3.77850E-02 5.73048E-06
 -1      9759 5.01512E-02-3.77857E-02 1.71911E-05
 -1      9760 5.01508E-02-3.77869E-02 2.86510E-05
 -1      9761 5.01503E-02-3.77888E-02 4.01098E-05
 -1      9762 5.01495E-02-3.77912E-02 5.15674E-05
 -1      9763 5.09128E-02-4.15875E-02-4.52442E-05
 -1      9764 5.09139E-02-4.15843E-02-3.51913E-05
 -1      9765 5.09148E-02-4.15819E-02-2.51373E-05
 -1      9766 5.09154E-02-4.15803E-02-1.50824E-05
 -1      9767 5.09157E-02-4.15796E-02-5.02742E-06
 -1      9768 5.09157E-02-4.15796E-02 5.02742E-06
 -1      9769 5.09154E-02-4.15803E-02 1.50824E-05
 -1      9770 5.09148E-02-4.15819E-02 2.51373E-05
 -1      9771 5.09139E-02-4.15843E-02 3.51913E-05
 -1      9772 5.09128E-02-4.15875E-02 4.52442E-05
 -1      9773 5.14307E-02-4.53377E-02-3.66957E-05
 -1      9774 5.14326E-02-4.53342E-02-2.85122E-05
 -1      9775 5.14340E-02-4.53315E-02-2.03402E-05
 -1      9776 5.14350E-02-4.53297E-02-1.21910E-05
 -1      9777 5.14355E-02-4.53289E-02-4.06121E-06
 -1      9778 5.14355E-02-4.53289E-02 4.06121E-06
 -1      9779 5.14350E-02-4.53297E-02 1.21910E-05
 -1      9780 5.14340E-02-4.53315E-02 2.03402E-05
 -1      9781 5.14326E-02-4.53342E-02 2.85122E-05
 -1      9782 5.14307E-02-4.53377E-02 3.66957E-05
 -1      9783 5.17204E-02-4.90195E-02-2.41515E-05
 -1      9784 5.17234E-02-4.90160E-02-1.85974E-05
 -1      9785 5.17255E-02-4.90133E-02-1.31792E-05
 -1      9786 5.17268E-02-4.90115E-02-7.86507E-06
 -1      9787 5.17274E-02-4.90106E-02-2.61460E-06
 -1      9788 5.17274E-02-4.90106E-02 2.61460E-06
 -1      9789 5.17268E-02-4.90115E-02 7.86507E-06
 -1      9790 5.17255E-02-4.90133E-02 1.31792E-05
 -1      9791 5.17234E-02-4.90160E-02 1.85974E-05
 -1      9792 5.17204E-02-4.90195E-02 2.41515E-05
 -1      9793 5.57571E-04 7.09429E-04-2.91578E-04
 -1      9794 5.70768E-04 6.86305E-04-2.18027E-04
 -1      9795 5.79521E-04 6.74665E-04-1.51270E-04
 -1      9796 5.84852E-04 6.68677E-04-8.90488E-05
 -1      9797 5.87376E-04 6.66087E-04-2.94047E-05
 -1      9798 5.87376E-04 6.66087E-04 2.94047E-05
 -1      9799 5.84852E-04 6.68677E-04 8.90488E-05
 -1      9800 5.79521E-04 6.74665E-04 1.51270E-04
 -1      9801 5.70768E-04 6.86305E-04 2.18027E-04
 -1      9802 5.57571E-04 7.09429E-04 2.91578E-04
 -1      9803 1.39319E-03 1.49517E-03-3.09737E-04
 -1      9804 1.40887E-03 1.48813E-03-2.43900E-04
 -1      9805 1.42027E-03 1.48019E-03-1.75152E-04
 -1      9806 1.42771E-03 1.47439E-03-1.05311E-04
 -1      9807 1.43138E-03 1.47143E-03-3.51268E-05
 -1      9808 1.43138E-03 1.47143E-03 3.51268E-05
 -1      9809 1.42771E-03 1.47439E-03 1.05311E-04
 -1      9810 1.42027E-03 1.48019E-03 1.75152E-04
 -1      9811 1.40887E-03 1.48813E-03 2.43900E-04
 -1      9812 1.39319E-03 1.49517E-03 3.09737E-04
 -1      9813 2.44978E-03 2.25885E-03-2.75872E-04
 -1      9814 2.46564E-03 2.26196E-03-2.16164E-04
 -1      9815 2.47732E-03 2.26279E-03-1.55521E-04
 -1      9816 2.48500E-03 2.26247E-03-9.37966E-05
 -1      9817 2.48882E-03 2.26205E-03-3.13481E-05
 -1      9818 2.48882E-03 2.26205E-03 3.13481E-05
 -1      9819 2.48500E-03 2.26247E-03 9.37966E-05
 -1      9820 2.47732E-03 2.26279E-03 1.55521E-04
 -1      9821 2.46564E-03 2.26196E-03 2.16164E-04
 -1      9822 2.44978E-03 2.25885E-03 2.75872E-04
 -1      9823 3.70622E-03 2.96327E-03-2.53890E-04
 -1      9824 3.72150E-03 2.96388E-03-1.97401E-04
 -1      9825 3.73302E-03 2.96465E-03-1.41034E-04
 -1      9826 3.74071E-03 2.96522E-03-8.46674E-05
 -1      9827 3.74455E-03 2.96549E-03-2.82341E-05
 -1      9828 3.74455E-03 2.96549E-03 2.82341E-05
 -1      9829 3.74071E-03 2.96522E-03 8.46674E-05
 -1      9830 3.73302E-03 2.96465E-03 1.41034E-04
 -1      9831 3.72150E-03 2.96388E-03 1.97401E-04
 -1      9832 3.70622E-03 2.96327E-03 2.53890E-04
 -1      9833 5.16097E-03 3.55232E-03-2.39040E-04
 -1      9834 5.17597E-03 3.55134E-03-1.85894E-04
 -1      9835 5.18723E-03 3.55059E-03-1.32737E-04
 -1      9836 5.19475E-03 3.55013E-03-7.96148E-05
 -1      9837 5.19852E-03 3.54991E-03-2.65331E-05
 -1      9838 5.19852E-03 3.54991E-03 2.65331E-05
 -1      9839 5.19475E-03 3.55013E-03 7.96148E-05
 -1      9840 5.18723E-03 3.55059E-03 1.32737E-04
 -1      9841 5.17597E-03 3.55134E-03 1.85894E-04
 -1      9842 5.16097E-03 3.55232E-03 2.39040E-04
 -1      9843 6.81590E-03 3.99431E-03-2.28064E-04
 -1      9844 6.83073E-03 3.99184E-03-1.77357E-04
 -1      9845 6.84185E-03 3.99001E-03-1.26676E-04
 -1      9846 6.84926E-03 3.98879E-03-7.60024E-05
 -1      9847 6.85297E-03 3.98818E-03-2.53335E-05
 -1      9848 6.85297E-03 3.98818E-03 2.53335E-05
 -1      9849 6.84926E-03 3.98879E-03 7.60024E-05
 -1      9850 6.84185E-03 3.99001E-03 1.26676E-04
 -1      9851 6.83073E-03 3.99184E-03 1.77357E-04
 -1      9852 6.81590E-03 3.99431E-03 2.28064E-04
 -1      9853 8.66914E-03 4.26324E-03-2.18804E-04
 -1      9854 8.68376E-03 4.25970E-03-1.70182E-04
 -1      9855 8.69473E-03 4.25704E-03-1.21557E-04
 -1      9856 8.70204E-03 4.25527E-03-7.29337E-05
 -1      9857 8.70569E-03 4.25439E-03-2.43112E-05
 -1      9858 8.70569E-03 4.25439E-03 2.43112E-05
 -1      9859 8.70204E-03 4.25527E-03 7.29337E-05
 -1      9860 8.69473E-03 4.25704E-03 1.21557E-04
 -1      9861 8.68376E-03 4.25970E-03 1.70182E-04
 -1      9862 8.66914E-03 4.26324E-03 2.18804E-04
 -1      9863 1.07131E-02 4.33572E-03-2.10452E-04
 -1      9864 1.07274E-02 4.33131E-03-1.63686E-04
 -1      9865 1.07382E-02 4.32800E-03-1.16921E-04
 -1      9866 1.07453E-02 4.32579E-03-7.01528E-05
 -1      9867 1.07489E-02 4.32468E-03-2.33843E-05
 -1      9868 1.07489E-02 4.32468E-03 2.33843E-05
 -1      9869 1.07453E-02 4.32579E-03 7.01528E-05
 -1      9870 1.07382E-02 4.32800E-03 1.16921E-04
 -1      9871 1.07274E-02 4.33131E-03 1.63686E-04
 -1      9872 1.07131E-02 4.33572E-03 2.10452E-04
 -1      9873 1.29347E-02 4.18996E-03-2.02516E-04
 -1      9874 1.29487E-02 4.18482E-03-1.57514E-04
 -1      9875 1.29591E-02 4.18097E-03-1.12511E-04
 -1      9876 1.29661E-02 4.17840E-03-6.75068E-05
 -1      9877 1.29695E-02 4.17712E-03-2.25024E-05
 -1      9878 1.29695E-02 4.17712E-03 2.25024E-05
 -1      9879 1.29661E-02 4.17840E-03 6.75068E-05
 -1      9880 1.29591E-02 4.18097E-03 1.12511E-04
 -1      9881 1.29487E-02 4.18482E-03 1.57514E-04
 -1      9882 1.29347E-02 4.18996E-03 2.02516E-04
 -1      9883 1.53165E-02 3.80603E-03-1.94650E-04
 -1      9884 1.53299E-02 3.80032E-03-1.51395E-04
 -1      9885 1.53399E-02 3.79604E-03-1.08140E-04
 -1      9886 1.53466E-02 3.79318E-03-6.48842E-05
 -1      9887 1.53500E-02 3.79175E-03-2.16281E-05
 -1      9888 1.53500E-02 3.79175E-03 2.16281E-05
 -1      9889 1.53466E-02 3.79318E-03 6.48842E-05
 -1      9890 1.53399E-02 3.79604E-03 1.08140E-04
 -1      9891 1.53299E-02 3.80032E-03 1.51395E-04
 -1      9892 1.53165E-02 3.80603E-03 1.94650E-04
 -1      9893 1.78366E-02 3.16635E-03-1.86613E-04
 -1      9894 1.78494E-02 3.16019E-03-1.45144E-04
 -1      9895 1.78590E-02 3.15558E-03-1.03675E-04
 -1      9896 1.78654E-02 3.15250E-03-6.22052E-05
 -1      9897 1.78686E-02 3.15097E-03-2.07351E-05
 -1      9898 1.78686E-02 3.15097E-03 2.07351E-05
 -1      9899 1.78654E-02 3.15250E-03 6.22052E-05
 -1      9900 1.78590E-02 3.15558E-03 1.03675E-04
 -1      9901 1.78494E-02 3.16019E-03 1.45144E-04
 -1      9902 1.78366E-02 3.16635E-03 1.86613E-04
 -1      9903 2.04701E-02 2.25608E-03-1.78255E-04
 -1      9904 2.04823E-02 2.24962E-03-1.38643E-04
 -1      9905 2.04913E-02 2.24478E-03-9.90315E-05
 -1      9906 2.04974E-02 2.24155E-03-5.94191E-05
 -1      9907 2.05004E-02 2.23993E-03-1.98064E-05
 -1      9908 2.05004E-02 2.23993E-03 1.98064E-05
 -1      9909 2.04974E-02 2.24155E-03 5.94191E-05
 -1      9910 2.04913E-02 2.24478E-03 9.90315E-05
 -1      9911 2.04823E-02 2.24962E-03 1.38643E-04
 -1      9912 2.04701E-02 2.25608E-03 1.78255E-04
 -1      9913 2.31892E-02 1.06361E-03-1.69491E-04
 -1      9914 2.32006E-02 1.05698E-03-1.31827E-04
 -1      9915 2.32091E-02 1.05201E-03-9.41623E-05
 -1      9916 2.32148E-02 1.04869E-03-5.64976E-05
 -1      9917 2.32176E-02 1.04704E-03-1.88326E-05
 -1      9918 2.32176E-02 1.04704E-03 1.88326E-05
 -1      9919 2.32148E-02 1.04869E-03 5.64976E-05
 -1      9920 2.32091E-02 1.05201E-03 9.41623E-05
 -1      9921 2.32006E-02 1.05698E-03 1.31827E-04
 -1      9922 2.31892E-02 1.06361E-03 1.69491E-04
 -1      9923 2.59636E-02-4.19066E-04-1.60287E-04
 -1      9924 2.59741E-02-4.25722E-04-1.24669E-04
 -1      9925 2.59820E-02-4.30715E-04-8.90494E-05
 -1      9926 2.59873E-02-4.34043E-04-5.34299E-05
 -1      9927 2.59899E-02-4.35706E-04-1.78100E-05
 -1      9928 2.59899E-02-4.35706E-04 1.78100E-05
 -1      9929 2.59873E-02-4.34043E-04 5.34299E-05
 -1      9930 2.59820E-02-4.30715E-04 8.90494E-05
 -1      9931 2.59741E-02-4.25722E-04 1.24669E-04
 -1      9932 2.59636E-02-4.19066E-04 1.60287E-04
 -1      9933 2.87613E-02-2.19588E-03-1.50657E-04
 -1      9934 2.87710E-02-2.20242E-03-1.17178E-04
 -1      9935 2.87782E-02-2.20733E-03-8.36990E-05
 -1      9936 2.87830E-02-2.21060E-03-5.02196E-05
 -1      9937 2.87854E-02-2.21223E-03-1.67399E-05
 -1      9938 2.87854E-02-2.21223E-03 1.67399E-05
 -1      9939 2.87830E-02-2.21060E-03 5.02196E-05
 -1      9940 2.87782E-02-2.20733E-03 8.36990E-05
 -1      9941 2.87710E-02-2.20242E-03 1.17178E-04
 -1      9942 2.87613E-02-2.19588E-03 1.50657E-04
 -1      9943 3.15489E-02-4.26637E-03-1.40647E-04
 -1      9944 3.15576E-02-4.27264E-03-1.09393E-04
 -1      9945 3.15641E-02-4.27735E-03-7.81384E-05
 -1      9946 3.15685E-02-4.28048E-03-4.68832E-05
 -1      9947 3.15706E-02-4.28205E-03-1.56278E-05
 -1      9948 3.15706E-02-4.28205E-03 1.56278E-05
 -1      9949 3.15685E-02-4.28048E-03 4.68832E-05
 -1      9950 3.15641E-02-4.27735E-03 7.81384E-05
 -1      9951 3.15576E-02-4.27264E-03 1.09393E-04
 -1      9952 3.15489E-02-4.26637E-03 1.40647E-04
 -1      9953 3.42922E-02-6.62527E-03-1.30344E-04
 -1      9954 3.42999E-02-6.63112E-03-1.01379E-04
 -1      9955 3.43057E-02-6.63551E-03-7.24144E-05
 -1      9956 3.43095E-02-6.63843E-03-4.34488E-05
 -1      9957 3.43115E-02-6.63989E-03-1.44830E-05
 -1      9958 3.43115E-02-6.63989E-03 1.44830E-05
 -1      9959 3.43095E-02-6.63843E-03 4.34488E-05
 -1      9960 3.43057E-02-6.63551E-03 7.24144E-05
 -1      9961 3.42999E-02-6.63112E-03 1.01379E-04
 -1      9962 3.42922E-02-6.62527E-03 1.30344E-04
 -1      9963 3.69568E-02-9.26220E-03-1.19863E-04
 -1      9964 3.69635E-02-9.26747E-03-9.32276E-05
 -1      9965 3.69686E-02-9.27143E-03-6.65916E-05
 -1      9966 3.69719E-02-9.27407E-03-3.99552E-05
 -1      9967 3.69736E-02-9.27538E-03-1.33184E-05
 -1      9968 3.69736E-02-9.27538E-03 1.33184E-05
 -1      9969 3.69719E-02-9.27407E-03 3.99552E-05
 -1      9970 3.69686E-02-9.27143E-03 6.65916E-05
 -1      9971 3.69635E-02-9.26747E-03 9.32276E-05
 -1      9972 3.69568E-02-9.26220E-03 1.19863E-04
 -1      9973 3.95089E-02-1.21614E-02-1.09348E-04
 -1      9974 3.95146E-02-1.21660E-02-8.50492E-05
 -1      9975 3.95189E-02-1.21694E-02-6.07499E-05
 -1      9976 3.95218E-02-1.21717E-02-3.64501E-05
 -1      9977 3.95232E-02-1.21728E-02-1.21501E-05
 -1      9978 3.95232E-02-1.21728E-02 1.21501E-05
 -1      9979 3.95218E-02-1.21717E-02 3.64501E-05
 -1      9980 3.95189E-02-1.21694E-02 6.07499E-05
 -1      9981 3.95146E-02-1.21660E-02 8.50492E-05
 -1      9982 3.95089E-02-1.21614E-02 1.09348E-04
 -1      9983 4.19158E-02-1.53018E-02-9.89639E-05
 -1      9984 4.19206E-02-1.53055E-02-7.69725E-05
 -1      9985 4.19242E-02-1.53082E-02-5.49807E-05
 -1      9986 4.19265E-02-1.53101E-02-3.29886E-05
 -1      9987 4.19277E-02-1.53110E-02-1.09962E-05
 -1      9988 4.19277E-02-1.53110E-02 1.09962E-05
 -1      9989 4.19265E-02-1.53101E-02 3.29886E-05
 -1      9990 4.19242E-02-1.53082E-02 5.49807E-05
 -1      9991 4.19206E-02-1.53055E-02 7.69725E-05
 -1      9992 4.19158E-02-1.53018E-02 9.89639E-05
 -1      9993 4.41473E-02-1.86566E-02-8.88842E-05
 -1      9994 4.41511E-02-1.86593E-02-6.91327E-05
 -1      9995 4.41540E-02-1.86614E-02-4.93808E-05
 -1      9996 4.41559E-02-1.86627E-02-2.96286E-05
 -1      9997 4.41569E-02-1.86634E-02-9.87622E-06
 -1      9998 4.41569E-02-1.86634E-02 9.87622E-06
 -1      9999 4.41559E-02-1.86627E-02 2.96286E-05
 -1     10000 4.41540E-02-1.86614E-02 4.93808E-05
 -1     10001 4.41511E-02-1.86593E-02 6.91327E-05
 -1     10002 4.41473E-02-1.86566E-02 8.88842E-05
 -1     10003 4.61761E-02-2.21943E-02-7.92752E-05
 -1     10004 4.61790E-02-2.21959E-02-6.16589E-05
 -1     10005 4.61813E-02-2.21971E-02-4.40422E-05
 -1     10006 4.61828E-02-2.21979E-02-2.64254E-05
 -1     10007 4.61835E-02-2.21983E-02-8.80847E-06
 -1     10008 4.61835E-02-2.21983E-02 8.80847E-06
 -1     10009 4.61828E-02-2.21979E-02 2.64254E-05
 -1     10010 4.61813E-02-2.21971E-02 4.40422E-05
 -1     10011 4.61790E-02-2.21959E-02 6.16589E-05
 -1     10012 4.61761E-02-2.21943E-02 7.92752E-05
 -1     10013 4.79791E-02-2.58786E-02-7.02688E-05
 -1     10014 4.79813E-02-2.58791E-02-5.46536E-05
 -1     10015 4.79830E-02-2.58795E-02-3.90383E-05
 -1     10016 4.79841E-02-2.58797E-02-2.34229E-05
 -1     10017 4.79847E-02-2.58798E-02-7.80762E-06
 -1     10018 4.79847E-02-2.58798E-02 7.80762E-06
 -1     10019 4.79841E-02-2.58797E-02 2.34229E-05
 -1     10020 4.79830E-02-2.58795E-02 3.90383E-05
 -1     10021 4.79813E-02-2.58791E-02 5.46536E-05
 -1     10022 4.79791E-02-2.58786E-02 7.02688E-05
 -1     10023 4.95385E-02-2.96703E-02-6.19242E-05
 -1     10024 4.95401E-02-2.96697E-02-4.81632E-05
 -1     10025 4.95414E-02-2.96692E-02-3.44020E-05
 -1     10026 4.95422E-02-2.96689E-02-2.06411E-05
 -1     10027 4.95426E-02-2.96688E-02-6.88032E-06
 -1     10028 4.95426E-02-2.96688E-02 6.88032E-06
 -1     10029 4.95422E-02-2.96689E-02 2.06411E-05
 -1     10030 4.95414E-02-2.96692E-02 3.44020E-05
 -1     10031 4.95401E-02-2.96697E-02 4.81632E-05
 -1     10032 4.95385E-02-2.96703E-02 6.19242E-05
 -1     10033 5.08425E-02-3.35285E-02-5.41744E-05
 -1     10034 5.08438E-02-3.35269E-02-4.21358E-05
 -1     10035 5.08448E-02-3.35256E-02-3.00968E-05
 -1     10036 5.08454E-02-3.35248E-02-1.80578E-05
 -1     10037 5.08458E-02-3.35244E-02-6.01923E-06
 -1     10038 5.08458E-02-3.35244E-02 6.01923E-06
 -1     10039 5.08454E-02-3.35248E-02 1.80578E-05
 -1     10040 5.08448E-02-3.35256E-02 3.00968E-05
 -1     10041 5.08438E-02-3.35269E-02 4.21358E-05
 -1     10042 5.08425E-02-3.35285E-02 5.41744E-05
 -1     10043 5.18862E-02-3.74131E-02-4.67479E-05
 -1     10044 5.18873E-02-3.74107E-02-3.63598E-05
 -1     10045 5.18882E-02-3.74088E-02-2.59713E-05
 -1     10046 5.18888E-02-3.74076E-02-1.55828E-05
 -1     10047 5.18891E-02-3.74070E-02-5.19427E-06
 -1     10048 5.18891E-02-3.74070E-02 5.19427E-06
 -1     10049 5.18888E-02-3.74076E-02 1.55828E-05
 -1     10050 5.18882E-02-3.74088E-02 2.59713E-05
 -1     10051 5.18873E-02-3.74107E-02 3.63598E-05
 -1     10052 5.18862E-02-3.74131E-02 4.67479E-05
 -1     10053 5.26714E-02-4.12878E-02-3.90396E-05
 -1     10054 5.26728E-02-4.12849E-02-3.03655E-05
 -1     10055 5.26738E-02-4.12827E-02-2.16905E-05
 -1     10056 5.26745E-02-4.12812E-02-1.30145E-05
 -1     10057 5.26748E-02-4.12804E-02-4.33815E-06
 -1     10058 5.26748E-02-4.12804E-02 4.33815E-06
 -1     10059 5.26745E-02-4.12812E-02 1.30145E-05
 -1     10060 5.26738E-02-4.12827E-02 2.16905E-05
 -1     10061 5.26728E-02-4.12849E-02 3.03655E-05
 -1     10062 5.26714E-02-4.12878E-02 3.90396E-05
 -1     10063 5.32073E-02-4.51236E-02-2.99715E-05
 -1     10064 5.32093E-02-4.51205E-02-2.32921E-05
 -1     10065 5.32107E-02-4.51182E-02-1.66185E-05
 -1     10066 5.32117E-02-4.51166E-02-9.96121E-06
 -1     10067 5.32122E-02-4.51159E-02-3.31851E-06
 -1     10068 5.32122E-02-4.51159E-02 3.31851E-06
 -1     10069 5.32117E-02-4.51166E-02 9.96121E-06
 -1     10070 5.32107E-02-4.51182E-02 1.66185E-05
 -1     10071 5.32093E-02-4.51205E-02 2.32921E-05
 -1     10072 5.32073E-02-4.51236E-02 2.99715E-05
 -1     10073 5.35107E-02-4.89018E-02-1.78273E-05
 -1     10074 5.35135E-02-4.88990E-02-1.37069E-05
 -1     10075 5.35156E-02-4.88969E-02-9.70170E-06
 -1     10076 5.35168E-02-4.88955E-02-5.78491E-06
 -1     10077 5.35175E-02-4.88948E-02-1.92226E-06
 -1     10078 5.35175E-02-4.88948E-02 1.92226E-06
 -1     10079 5.35168E-02-4.88955E-02 5.78491E-06
 -1     10080 5.35156E-02-4.88969E-02 9.70170E-06
 -1     10081 5.35135E-02-4.88990E-02 1.37069E-05
 -1     10082 5.35107E-02-4.89018E-02 1.78273E-05
 -1     10083 6.43913E-04 8.18536E-04-3.30151E-04
 -1     10084 6.56920E-04 7.92799E-04-2.47179E-04
 -1     10085 6.65556E-04 7.79767E-04-1.71628E-04
 -1     10086 6.70823E-04 7.73043E-04-1.01075E-04
 -1     10087 6.73321E-04 7.70131E-04-3.33817E-05
 -1     10088 6.73321E-04 7.70131E-04 3.33817E-05
 -1     10089 6.70823E-04 7.73043E-04 1.01075E-04
 -1     10090 6.65556E-04 7.79767E-04 1.71628E-04
 -1     10091 6.56920E-04 7.92799E-04 2.47179E-04
 -1     10092 6.43913E-04 8.18536E-04 3.30151E-04
 -1     10093 1.56216E-03 1.72197E-03-3.46229E-04
 -1     10094 1.57708E-03 1.71505E-03-2.72742E-04
 -1     10095 1.58798E-03 1.70674E-03-1.95942E-04
 -1     10096 1.59512E-03 1.70055E-03-1.17846E-04
 -1     10097 1.59865E-03 1.69737E-03-3.93136E-05
 -1     10098 1.59865E-03 1.69737E-03 3.93136E-05
 -1     10099 1.59512E-03 1.70055E-03 1.17846E-04
 -1     10100 1.58798E-03 1.70674E-03 1.95942E-04
 -1     10101 1.57708E-03 1.71505E-03 2.72742E-04
 -1     10102 1.56216E-03 1.72197E-03 3.46229E-04
 -1     10103 2.68453E-03 2.59429E-03-3.08066E-04
 -1     10104 2.69947E-03 2.59808E-03-2.41230E-04
 -1     10105 2.71049E-03 2.59940E-03-1.73476E-04
 -1     10106 2.71774E-03 2.59935E-03-1.04598E-04
 -1     10107 2.72134E-03 2.59905E-03-3.49536E-05
 -1     10108 2.72134E-03 2.59905E-03 3.49536E-05
 -1     10109 2.71774E-03 2.59935E-03 1.04598E-04
 -1     10110 2.71049E-03 2.59940E-03 1.73476E-04
 -1     10111 2.69947E-03 2.59808E-03 2.41230E-04
 -1     10112 2.68453E-03 2.59429E-03 3.08066E-04
 -1     10113 3.99622E-03 3.39430E-03-2.85303E-04
 -1     10114 4.01063E-03 3.39504E-03-2.21763E-04
 -1     10115 4.02152E-03 3.39597E-03-1.58390E-04
 -1     10116 4.02880E-03 3.39668E-03-9.50621E-05
 -1     10117 4.03244E-03 3.39704E-03-3.16960E-05
 -1     10118 4.03244E-03 3.39704E-03 3.16960E-05
 -1     10119 4.02880E-03 3.39668E-03 9.50621E-05
 -1     10120 4.02152E-03 3.39597E-03 1.58390E-04
 -1     10121 4.01063E-03 3.39504E-03 2.21763E-04
 -1     10122 3.99622E-03 3.39430E-03 2.85303E-04
 -1     10123 5.50450E-03 4.06649E-03-2.70705E-04
 -1     10124 5.51879E-03 4.06555E-03-2.10517E-04
 -1     10125 5.52952E-03 4.06482E-03-1.50317E-04
 -1     10126 5.53669E-03 4.06438E-03-9.01584E-05
 -1     10127 5.54028E-03 4.06417E-03-3.00466E-05
 -1     10128 5.54028E-03 4.06417E-03 3.00466E-05
 -1     10129 5.53669E-03 4.06438E-03 9.01584E-05
 -1     10130 5.52952E-03 4.06482E-03 1.50317E-04
 -1     10131 5.51879E-03 4.06555E-03 2.10517E-04
 -1     10132 5.50450E-03 4.06649E-03 2.70705E-04
 -1     10133 7.21639E-03 4.58299E-03-2.60133E-04
 -1     10134 7.23065E-03 4.58056E-03-2.02300E-04
 -1     10135 7.24134E-03 4.57877E-03-1.44493E-04
 -1     10136 7.24847E-03 4.57757E-03-8.66934E-05
 -1     10137 7.25203E-03 4.57697E-03-2.88973E-05
 -1     10138 7.25203E-03 4.57697E-03 2.88973E-05
 -1     10139 7.24847E-03 4.57757E-03 8.66934E-05
 -1     10140 7.24134E-03 4.57877E-03 1.44493E-04
 -1     10141 7.23065E-03 4.58056E-03 2.02300E-04
 -1     10142 7.21639E-03 4.58299E-03 2.60133E-04
 -1     10143 9.13206E-03 4.91956E-03-2.51093E-04
 -1     10144 9.14622E-03 4.91612E-03-1.95298E-04
 -1     10145 9.15683E-03 4.91353E-03-1.39497E-04
 -1     10146 9.16391E-03 4.91181E-03-8.36978E-05
 -1     10147 9.16745E-03 4.91095E-03-2.78993E-05
 -1     10148 9.16745E-03 4.91095E-03 2.78993E-05
 -1     10149 9.16391E-03 4.91181E-03 8.36978E-05
 -1     10150 9.15683E-03 4.91353E-03 1.39497E-04
 -1     10151 9.14622E-03 4.91612E-03 1.95298E-04
 -1     10152 9.13206E-03 4.91956E-03 2.51093E-04
 -1     10153 1.12444E-02 5.05312E-03-2.42725E-04
 -1     10154 1.12584E-02 5.04885E-03-1.88788E-04
 -1     10155 1.12688E-02 5.04566E-03-1.34851E-04
 -1     10156 1.12758E-02 5.04352E-03-8.09109E-05
 -1     10157 1.12793E-02 5.04246E-03-2.69704E-05
 -1     10158 1.12793E-02 5.04246E-03 2.69704E-05
 -1     10159 1.12758E-02 5.04352E-03 8.09109E-05
 -1     10160 1.12688E-02 5.04566E-03 1.34851E-04
 -1     10161 1.12584E-02 5.04885E-03 1.88788E-04
 -1     10162 1.12444E-02 5.05312E-03 2.42725E-04
 -1     10163 1.35403E-02 4.96150E-03-2.34517E-04
 -1     10164 1.35539E-02 4.95657E-03-1.82404E-04
 -1     10165 1.35641E-02 4.95288E-03-1.30289E-04
 -1     10166 1.35709E-02 4.95041E-03-7.81738E-05
 -1     10167 1.35743E-02 4.94918E-03-2.60580E-05
 -1     10168 1.35743E-02 4.94918E-03 2.60580E-05
 -1     10169 1.35709E-02 4.95041E-03 7.81738E-05
 -1     10170 1.35641E-02 4.95288E-03 1.30289E-04
 -1     10171 1.35539E-02 4.95657E-03 1.82404E-04
 -1     10172 1.35403E-02 4.96150E-03 2.34517E-04
 -1     10173 1.60014E-02 4.62419E-03-2.26114E-04
 -1     10174 1.60145E-02 4.61873E-03-1.75867E-04
 -1     10175 1.60244E-02 4.61464E-03-1.25620E-04
 -1     10176 1.60310E-02 4.61191E-03-7.53723E-05
 -1     10177 1.60343E-02 4.61055E-03-2.51242E-05
 -1     10178 1.60343E-02 4.61055E-03 2.51242E-05
 -1     10179 1.60310E-02 4.61191E-03 7.53723E-05
 -1     10180 1.60244E-02 4.61464E-03 1.25620E-04
 -1     10181 1.60145E-02 4.61873E-03 1.75867E-04
 -1     10182 1.60014E-02 4.62419E-03 2.26114E-04
 -1     10183 1.86052E-02 4.02290E-03-2.17278E-04
 -1     10184 1.86179E-02 4.01704E-03-1.68995E-04
 -1     10185 1.86273E-02 4.01265E-03-1.20711E-04
 -1     10186 1.86337E-02 4.00972E-03-7.24270E-05
 -1     10187 1.86368E-02 4.00826E-03-2.41424E-05
 -1     10188 1.86368E-02 4.00826E-03 2.41424E-05
 -1     10189 1.86337E-02 4.00972E-03 7.24270E-05
 -1     10190 1.86273E-02 4.01265E-03 1.20711E-04
 -1     10191 1.86179E-02 4.01704E-03 1.68995E-04
 -1     10192 1.86052E-02 4.02290E-03 2.17278E-04
 -1     10193 2.13258E-02 3.14214E-03-2.07861E-04
 -1     10194 2.13378E-02 3.13602E-03-1.61671E-04
 -1     10195 2.13468E-02 3.13143E-03-1.15480E-04
 -1     10196 2.13528E-02 3.12837E-03-6.92881E-05
 -1     10197 2.13558E-02 3.12684E-03-2.30961E-05
 -1     10198 2.13558E-02 3.12684E-03 2.30961E-05
 -1     10199 2.13528E-02 3.12837E-03 6.92881E-05
 -1     10200 2.13468E-02 3.13143E-03 1.15480E-04
 -1     10201 2.13378E-02 3.13602E-03 1.61671E-04
 -1     10202 2.13258E-02 3.14214E-03 2.07861E-04
 -1     10203 2.41339E-02 1.96976E-03-1.97780E-04
 -1     10204 2.41452E-02 1.96351E-03-1.53830E-04
 -1     10205 2.41537E-02 1.95881E-03-1.09880E-04
 -1     10206 2.41594E-02 1.95569E-03-6.59281E-05
 -1     10207 2.41622E-02 1.95412E-03-2.19761E-05
 -1     10208 2.41622E-02 1.95412E-03 2.19761E-05
 -1     10209 2.41594E-02 1.95569E-03 6.59281E-05
 -1     10210 2.41537E-02 1.95881E-03 1.09880E-04
 -1     10211 2.41452E-02 1.96351E-03 1.53830E-04
 -1     10212 2.41339E-02 1.96976E-03 1.97780E-04
 -1     10213 2.69982E-02 4.97375E-04-1.87004E-04
 -1     10214 2.70087E-02 4.91120E-04-1.45449E-04
 -1     10215 2.70166E-02 4.86429E-04-1.03893E-04
 -1     10216 2.70219E-02 4.83303E-04-6.23360E-05
 -1     10217 2.70245E-02 4.81740E-04-2.07787E-05
 -1     10218 2.70245E-02 4.81740E-04 2.07787E-05
 -1     10219 2.70219E-02 4.83303E-04 6.23360E-05
 -1     10220 2.70166E-02 4.86429E-04 1.03893E-04
 -1     10221 2.70087E-02 4.91120E-04 1.45449E-04
 -1     10222 2.69982E-02 4.97375E-04 1.87004E-04
 -1     10223 2.98851E-02-1.27919E-03-1.75541E-04
 -1     10224 2.98948E-02-1.28530E-03-1.36533E-04
 -1     10225 2.99021E-02-1.28989E-03-9.75247E-05
 -1     10226 2.99070E-02-1.29294E-03-5.85152E-05
 -1     10227 2.99094E-02-1.29447E-03-1.95051E-05
 -1     10228 2.99094E-02-1.29447E-03 1.95051E-05
 -1     10229 2.99070E-02-1.29294E-03 5.85152E-05
 -1     10230 2.99021E-02-1.28989E-03 9.75247E-05
 -1     10231 2.98948E-02-1.28530E-03 1.36533E-04
 -1     10232 2.98851E-02-1.27919E-03 1.75541E-04
 -1     10233 3.27599E-02-3.35948E-03-1.63442E-04
 -1     10234 3.27688E-02-3.36531E-03-1.27123E-04
 -1     10235 3.27754E-02-3.36968E-03-9.08029E-05
 -1     10236 3.27799E-02-3.37259E-03-5.44822E-05
 -1     10237 3.27821E-02-3.37405E-03-1.81608E-05
 -1     10238 3.27821E-02-3.37405E-03 1.81608E-05
 -1     10239 3.27799E-02-3.37259E-03 5.44822E-05
 -1     10240 3.27754E-02-3.36968E-03 9.08029E-05
 -1     10241 3.27688E-02-3.36531E-03 1.27123E-04
 -1     10242 3.27599E-02-3.35948E-03 1.63442E-04
 -1     10243 3.55871E-02-5.73805E-03-1.50794E-04
 -1     10244 3.55951E-02-5.74345E-03-1.17286E-04
 -1     10245 3.56010E-02-5.74749E-03-8.37763E-05
 -1     10246 3.56050E-02-5.75018E-03-5.02662E-05
 -1     10247 3.56070E-02-5.75153E-03-1.67555E-05
 -1     10248 3.56070E-02-5.75153E-03 1.67555E-05
 -1     10249 3.56050E-02-5.75018E-03 5.02662E-05
 -1     10250 3.56010E-02-5.74749E-03 8.37763E-05
 -1     10251 3.55951E-02-5.74345E-03 1.17286E-04
 -1     10252 3.55871E-02-5.73805E-03 1.50794E-04
 -1     10253 3.83309E-02-8.40414E-03-1.37724E-04
 -1     10254 3.83380E-02-8.40895E-03-1.07120E-04
 -1     10255 3.83432E-02-8.41256E-03-7.65151E-05
 -1     10256 3.83468E-02-8.41496E-03-4.59095E-05
 -1     10257 3.83485E-02-8.41616E-03-1.53032E-05
 -1     10258 3.83485E-02-8.41616E-03 1.53032E-05
 -1     10259 3.83468E-02-8.41496E-03 4.59095E-05
 -1     10260 3.83432E-02-8.41256E-03 7.65151E-05
 -1     10261 3.83380E-02-8.40895E-03 1.07120E-04
 -1     10262 3.83309E-02-8.40414E-03 1.37724E-04
 -1     10263 4.09564E-02-1.13414E-02-1.24397E-04
 -1     10264 4.09625E-02-1.13455E-02-9.67547E-05
 -1     10265 4.09671E-02-1.13486E-02-6.91113E-05
 -1     10266 4.09701E-02-1.13506E-02-4.14671E-05
 -1     10267 4.09717E-02-1.13516E-02-1.38224E-05
 -1     10268 4.09717E-02-1.13516E-02 1.38224E-05
 -1     10269 4.09701E-02-1.13506E-02 4.14671E-05
 -1     10270 4.09671E-02-1.13486E-02 6.91113E-05
 -1     10271 4.09625E-02-1.13455E-02 9.67547E-05
 -1     10272 4.09564E-02-1.13414E-02 1.24397E-04
 -1     10273 4.34300E-02-1.45279E-02-1.11015E-04
 -1     10274 4.34352E-02-1.45312E-02-8.63463E-05
 -1     10275 4.34391E-02-1.45336E-02-6.16765E-05
 -1     10276 4.34417E-02-1.45352E-02-3.70062E-05
 -1     10277 4.34430E-02-1.45360E-02-1.23354E-05
 -1     10278 4.34430E-02-1.45360E-02 1.23354E-05
 -1     10279 4.34417E-02-1.45352E-02 3.70062E-05
 -1     10280 4.34391E-02-1.45336E-02 6.16765E-05
 -1     10281 4.34352E-02-1.45312E-02 8.63463E-05
 -1     10282 4.34300E-02-1.45279E-02 1.11015E-04
 -1     10283 4.57206E-02-1.79362E-02-9.78096E-05
 -1     10284 4.57250E-02-1.79385E-02-7.60747E-05
 -1     10285 4.57282E-02-1.79402E-02-5.43393E-05
 -1     10286 4.57304E-02-1.79413E-02-3.26037E-05
 -1     10287 4.57314E-02-1.79419E-02-1.08679E-05
 -1     10288 4.57314E-02-1.79419E-02 1.08679E-05
 -1     10289 4.57304E-02-1.79413E-02 3.26037E-05
 -1     10290 4.57282E-02-1.79402E-02 5.43393E-05
 -1     10291 4.57250E-02-1.79385E-02 7.60747E-05
 -1     10292 4.57206E-02-1.79362E-02 9.78096E-05
 -1     10293 4.78008E-02-2.15335E-02-8.50285E-05
 -1     10294 4.78043E-02-2.15347E-02-6.61332E-05
 -1     10295 4.78069E-02-2.15356E-02-4.72379E-05
 -1     10296 4.78087E-02-2.15362E-02-2.83426E-05
 -1     10297 4.78095E-02-2.15366E-02-9.44752E-06
 -1     10298 4.78095E-02-2.15366E-02 9.44752E-06
 -1     10299 4.78087E-02-2.15362E-02 2.83426E-05
 -1     10300 4.78069E-02-2.15356E-02 4.72379E-05
 -1     10301 4.78043E-02-2.15347E-02 6.61332E-05
 -1     10302 4.78008E-02-2.15335E-02 8.50285E-05
 -1     10303 4.96475E-02-2.52828E-02-7.29167E-05
 -1     10304 4.96502E-02-2.52829E-02-5.67121E-05
 -1     10305 4.96523E-02-2.52831E-02-4.05079E-05
 -1     10306 4.96537E-02-2.52832E-02-2.43043E-05
 -1     10307 4.96544E-02-2.52832E-02-8.10137E-06
 -1     10308 4.96544E-02-2.52832E-02 8.10137E-06
 -1     10309 4.96537E-02-2.52832E-02 2.43043E-05
 -1     10310 4.96523E-02-2.52831E-02 4.05079E-05
 -1     10311 4.96502E-02-2.52829E-02 5.67121E-05
 -1     10312 4.96475E-02-2.52828E-02 7.29167E-05
 -1     10313 5.12433E-02-2.91439E-02-6.16793E-05
 -1     10314 5.12454E-02-2.91431E-02-4.79708E-05
 -1     10315 5.12470E-02-2.91424E-02-3.42633E-05
 -1     10316 5.12481E-02-2.91420E-02-2.05572E-05
 -1     10317 5.12487E-02-2.91418E-02-6.85227E-06
 -1     10318 5.12487E-02-2.91418E-02 6.85227E-06
 -1     10319 5.12481E-02-2.91420E-02 2.05572E-05
 -1     10320 5.12470E-02-2.91424E-02 3.42633E-05
 -1     10321 5.12454E-02-2.91431E-02 4.79708E-05
 -1     10322 5.12433E-02-2.91439E-02 6.16793E-05
 -1     10323 5.25772E-02-3.30754E-02-5.14266E-05
 -1     10324 5.25789E-02-3.30737E-02-3.99958E-05
 -1     10325 5.25802E-02-3.30723E-02-2.85662E-05
 -1     10326 5.25810E-02-3.30715E-02-1.71386E-05
 -1     10327 5.25815E-02-3.30710E-02-5.71266E-06
 -1     10328 5.25815E-02-3.30710E-02 5.71266E-06
 -1     10329 5.25810E-02-3.30715E-02 1.71386E-05
 -1     10330 5.25802E-02-3.30723E-02 2.85662E-05
 -1     10331 5.25789E-02-3.30737E-02 3.99958E-05
 -1     10332 5.25772E-02-3.30754E-02 5.14266E-05
 -1     10333 5.36452E-02-3.70372E-02-4.20902E-05
 -1     10334 5.36467E-02-3.70347E-02-3.27336E-05
 -1     10335 5.36478E-02-3.70329E-02-2.33787E-05
 -1     10336 5.36485E-02-3.70316E-02-1.40261E-05
 -1     10337 5.36489E-02-3.70310E-02-4.67519E-06
 -1     10338 5.36489E-02-3.70310E-02 4.67519E-06
 -1     10339 5.36485E-02-3.70316E-02 1.40261E-05
 -1     10340 5.36478E-02-3.70329E-02 2.33787E-05
 -1     10341 5.36467E-02-3.70347E-02 3.27336E-05
 -1     10342 5.36452E-02-3.70372E-02 4.20902E-05
 -1     10343 5.44504E-02-4.09933E-02-3.32756E-05
 -1     10344 5.44519E-02-4.09905E-02-2.58799E-05
 -1     10345 5.44530E-02-4.09884E-02-1.84849E-05
 -1     10346 5.44538E-02-4.09870E-02-1.10904E-05
 -1     10347 5.44542E-02-4.09863E-02-3.69668E-06
 -1     10348 5.44542E-02-4.09863E-02 3.69668E-06
 -1     10349 5.44538E-02-4.09870E-02 1.10904E-05
 -1     10350 5.44530E-02-4.09884E-02 1.84849E-05
 -1     10351 5.44519E-02-4.09905E-02 2.58799E-05
 -1     10352 5.44504E-02-4.09933E-02 3.32756E-05
 -1     10353 5.50025E-02-4.49165E-02-2.40818E-05
 -1     10354 5.50044E-02-4.49137E-02-1.87175E-05
 -1     10355 5.50058E-02-4.49117E-02-1.33558E-05
 -1     10356 5.50067E-02-4.49103E-02-8.00594E-06
 -1     10357 5.50072E-02-4.49096E-02-2.66719E-06
 -1     10358 5.50072E-02-4.49096E-02 2.66719E-06
 -1     10359 5.50067E-02-4.49103E-02 8.00594E-06
 -1     10360 5.50058E-02-4.49117E-02 1.33558E-05
 -1     10361 5.50044E-02-4.49137E-02 1.87175E-05
 -1     10362 5.50025E-02-4.49165E-02 2.40818E-05
 -1     10363 5.53180E-02-4.87914E-02-1.28812E-05
 -1     10364 5.53205E-02-4.87893E-02-9.89030E-06
 -1     10365 5.53223E-02-4.87876E-02-6.99213E-06
 -1     10366 5.53235E-02-4.87864E-02-4.16578E-06
 -1     10367 5.53240E-02-4.87859E-02-1.38365E-06
 -1     10368 5.53240E-02-4.87859E-02 1.38365E-06
 -1     10369 5.53235E-02-4.87864E-02 4.16578E-06
 -1     10370 5.53223E-02-4.87876E-02 6.99213E-06
 -1     10371 5.53205E-02-4.87893E-02 9.89030E-06
 -1     10372 5.53180E-02-4.87914E-02 1.28812E-05
 -1     10373 7.42971E-04 9.38946E-04-3.68392E-04
 -1     10374 7.55832E-04 9.10803E-04-2.76019E-04
 -1     10375 7.64459E-04 8.96473E-04-1.91706E-04
 -1     10376 7.69788E-04 8.89056E-04-1.12906E-04
 -1     10377 7.72337E-04 8.85838E-04-3.72891E-05
 -1     10378 7.72337E-04 8.85838E-04 3.72891E-05
 -1     10379 7.69788E-04 8.89056E-04 1.12906E-04
 -1     10380 7.64459E-04 8.96473E-04 1.91706E-04
 -1     10381 7.55832E-04 9.10803E-04 2.76019E-04
 -1     10382 7.42971E-04 9.38946E-04 3.68392E-04
 -1     10383 1.74811E-03 1.97023E-03-3.80237E-04
 -1     10384 1.76219E-03 1.96373E-03-2.99597E-04
 -1     10385 1.77260E-03 1.95523E-03-2.15290E-04
 -1     10386 1.77948E-03 1.94878E-03-1.29503E-04
 -1     10387 1.78290E-03 1.94543E-03-4.32055E-05
 -1     10388 1.78290E-03 1.94543E-03 4.32055E-05
 -1     10389 1.77948E-03 1.94878E-03 1.29503E-04
 -1     10390 1.77260E-03 1.95523E-03 2.15290E-04
 -1     10391 1.76219E-03 1.96373E-03 2.99597E-04
 -1     10392 1.74811E-03 1.97023E-03 3.80237E-04
 -1     10393 2.93171E-03 2.95345E-03-3.37634E-04
 -1     10394 2.94562E-03 2.95793E-03-2.64185E-04
 -1     10395 2.95592E-03 2.95978E-03-1.89880E-04
 -1     10396 2.96273E-03 2.96005E-03-1.14450E-04
 -1     10397 2.96613E-03 2.95990E-03-3.82403E-05
 -1     10398 2.96613E-03 2.95990E-03 3.82403E-05
 -1     10399 2.96273E-03 2.96005E-03 1.14450E-04
 -1     10400 2.95592E-03 2.95978E-03 1.89880E-04
 -1     10401 2.94562E-03 2.95793E-03 2.64185E-04
 -1     10402 2.93171E-03 2.95345E-03 3.37634E-04
 -1     10403 4.29315E-03 3.84614E-03-3.14670E-04
 -1     10404 4.30666E-03 3.84690E-03-2.44518E-04
 -1     10405 4.31690E-03 3.84791E-03-1.74587E-04
 -1     10406 4.32376E-03 3.84873E-03-1.04757E-04
 -1     10407 4.32720E-03 3.84915E-03-3.49237E-05
 -1     10408 4.32720E-03 3.84915E-03 3.49237E-05
 -1     10409 4.32376E-03 3.84873E-03 1.04757E-04
 -1     10410 4.31690E-03 3.84791E-03 1.74587E-04
 -1     10411 4.30666E-03 3.84690E-03 2.44518E-04
 -1     10412 4.29315E-03 3.84614E-03 3.14670E-04
 -1     10413 5.85170E-03 4.59834E-03-3.00874E-04
 -1     10414 5.86530E-03 4.59736E-03-2.33976E-04
 -1     10415 5.87551E-03 4.59659E-03-1.67067E-04
 -1     10416 5.88233E-03 4.59611E-03-1.00204E-04
 -1     10417 5.88575E-03 4.59590E-03-3.33940E-05
 -1     10418 5.88575E-03 4.59590E-03 3.33940E-05
 -1     10419 5.88233E-03 4.59611E-03 1.00204E-04
 -1     10420 5.87551E-03 4.59659E-03 1.67067E-04
 -1     10421 5.86530E-03 4.59736E-03 2.33976E-04
 -1     10422 5.85170E-03 4.59834E-03 3.00874E-04
 -1     10423 7.61915E-03 5.18766E-03-2.91040E-04
 -1     10424 7.63287E-03 5.18521E-03-2.26336E-04
 -1     10425 7.64317E-03 5.18342E-03-1.61662E-04
 -1     10426 7.65003E-03 5.18221E-03-9.69950E-05
 -1     10427 7.65346E-03 5.18161E-03-3.23312E-05
 -1     10428 7.65346E-03 5.18161E-03 3.23312E-05
 -1     10429 7.65003E-03 5.18221E-03 9.69950E-05
 -1     10430 7.64317E-03 5.18342E-03 1.61662E-04
 -1     10431 7.63287E-03 5.18521E-03 2.26336E-04
 -1     10432 7.61915E-03 5.18766E-03 2.91040E-04
 -1     10433 9.59696E-03 5.59127E-03-2.82416E-04
 -1     10434 9.61069E-03 5.58789E-03-2.19660E-04
 -1     10435 9.62099E-03 5.58534E-03-1.56898E-04
 -1     10436 9.62786E-03 5.58365E-03-9.41379E-05
 -1     10437 9.63130E-03 5.58280E-03-3.13792E-05
 -1     10438 9.63130E-03 5.58280E-03 3.13792E-05
 -1     10439 9.62786E-03 5.58365E-03 9.41379E-05
 -1     10440 9.62099E-03 5.58534E-03 1.56898E-04
 -1     10441 9.61069E-03 5.58789E-03 2.19660E-04
 -1     10442 9.59696E-03 5.59127E-03 2.82416E-04
 -1     10443 1.17782E-02 5.78604E-03-2.74164E-04
 -1     10444 1.17918E-02 5.78189E-03-2.13239E-04
 -1     10445 1.18020E-02 5.77878E-03-1.52315E-04
 -1     10446 1.18088E-02 5.77671E-03-9.13891E-05
 -1     10447 1.18122E-02 5.77567E-03-3.04630E-05
 -1     10448 1.18122E-02 5.77567E-03 3.04630E-05
 -1     10449 1.18088E-02 5.77671E-03 9.13891E-05
 -1     10450 1.18020E-02 5.77878E-03 1.52315E-04
 -1     10451 1.17918E-02 5.78189E-03 2.13239E-04
 -1     10452 1.17782E-02 5.78604E-03 2.74164E-04
 -1     10453 1.41492E-02 5.74917E-03-2.65773E-04
 -1     10454 1.41625E-02 5.74441E-03-2.06713E-04
 -1     10455 1.41725E-02 5.74084E-03-1.47652E-04
 -1     10456 1.41792E-02 5.73846E-03-8.85914E-05
 -1     10457 1.41825E-02 5.73727E-03-2.95304E-05
 -1     10458 1.41825E-02 5.73727E-03 2.95304E-05
 -1     10459 1.41792E-02 5.73846E-03 8.85914E-05
 -1     10460 1.41725E-02 5.74084E-03 1.47652E-04
 -1     10461 1.41625E-02 5.74441E-03 2.06713E-04
 -1     10462 1.41492E-02 5.74917E-03 2.65773E-04
 -1     10463 1.66910E-02 5.45932E-03-2.56899E-04
 -1     10464 1.67040E-02 5.45407E-03-1.99811E-04
 -1     10465 1.67137E-02 5.45014E-03-1.42722E-04
 -1     10466 1.67202E-02 5.44752E-03-8.56333E-05
 -1     10467 1.67234E-02 5.44621E-03-2.85444E-05
 -1     10468 1.67234E-02 5.44621E-03 2.85444E-05
 -1     10469 1.67202E-02 5.44752E-03 8.56333E-05
 -1     10470 1.67137E-02 5.45014E-03 1.42722E-04
 -1     10471 1.67040E-02 5.45407E-03 1.99811E-04
 -1     10472 1.66910E-02 5.45932E-03 2.56899E-04
 -1     10473 1.93802E-02 4.89735E-03-2.47317E-04
 -1     10474 1.93927E-02 4.89176E-03-1.92358E-04
 -1     10475 1.94021E-02 4.88756E-03-1.37399E-04
 -1     10476 1.94083E-02 4.88477E-03-8.24392E-05
 -1     10477 1.94114E-02 4.88337E-03-2.74797E-05
 -1     10478 1.94114E-02 4.88337E-03 2.74797E-05
 -1     10479 1.94083E-02 4.88477E-03 8.24392E-05
 -1     10480 1.94021E-02 4.88756E-03 1.37399E-04
 -1     10481 1.93927E-02 4.89176E-03 1.92358E-04
 -1     10482 1.93802E-02 4.89735E-03 2.47317E-04
 -1     10483 2.21896E-02 4.04706E-03-2.36886E-04
 -1     10484 2.22015E-02 4.04124E-03-1.84245E-04
 -1     10485 2.22105E-02 4.03687E-03-1.31604E-04
 -1     10486 2.22164E-02 4.03396E-03-7.89627E-05
 -1     10487 2.22194E-02 4.03251E-03-2.63209E-05
 -1     10488 2.22194E-02 4.03251E-03 2.63209E-05
 -1     10489 2.22164E-02 4.03396E-03 7.89627E-05
 -1     10490 2.22105E-02 4.03687E-03 1.31604E-04
 -1     10491 2.22015E-02 4.04124E-03 1.84245E-04
 -1     10492 2.21896E-02 4.04706E-03 2.36886E-04
 -1     10493 2.50889E-02 2.89564E-03-2.25530E-04
 -1     10494 2.51001E-02 2.88972E-03-1.75413E-04
 -1     10495 2.51086E-02 2.88528E-03-1.25296E-04
 -1     10496 2.51142E-02 2.88232E-03-7.51776E-05
 -1     10497 2.51171E-02 2.88084E-03-2.50592E-05
 -1     10498 2.51171E-02 2.88084E-03 2.50592E-05
 -1     10499 2.51142E-02 2.88232E-03 7.51776E-05
 -1     10500 2.51086E-02 2.88528E-03 1.25296E-04
 -1     10501 2.51001E-02 2.88972E-03 1.75413E-04
 -1     10502 2.50889E-02 2.89564E-03 2.25530E-04
 -1     10503 2.80451E-02 1.43425E-03-2.13217E-04
 -1     10504 2.80557E-02 1.42836E-03-1.65837E-04
 -1     10505 2.80637E-02 1.42394E-03-1.18455E-04
 -1     10506 2.80690E-02 1.42099E-03-7.10735E-05
 -1     10507 2.80716E-02 1.41952E-03-2.36912E-05
 -1     10508 2.80716E-02 1.41952E-03 2.36912E-05
 -1     10509 2.80690E-02 1.42099E-03 7.10735E-05
 -1     10510 2.80637E-02 1.42394E-03 1.18455E-04
 -1     10511 2.80557E-02 1.42836E-03 1.65837E-04
 -1     10512 2.80451E-02 1.43425E-03 2.13217E-04
 -1     10513 3.10236E-02-3.41567E-04-1.99957E-04
 -1     10514 3.10334E-02-3.47295E-04-1.55524E-04
 -1     10515 3.10408E-02-3.51591E-04-1.11089E-04
 -1     10516 3.10457E-02-3.54454E-04-6.66538E-05
 -1     10517 3.10482E-02-3.55886E-04-2.22180E-05
 -1     10518 3.10482E-02-3.55886E-04 2.22180E-05
 -1     10519 3.10457E-02-3.54454E-04 6.66538E-05
 -1     10520 3.10408E-02-3.51591E-04 1.11089E-04
 -1     10521 3.10334E-02-3.47295E-04 1.55524E-04
 -1     10522 3.10236E-02-3.41567E-04 1.99957E-04
 -1     10523 3.39880E-02-2.43145E-03-1.85800E-04
 -1     10524 3.39971E-02-2.43688E-03-1.44512E-04
 -1     10525 3.40038E-02-2.44094E-03-1.03224E-04
 -1     10526 3.40083E-02-2.44365E-03-6.19350E-05
 -1     10527 3.40106E-02-2.44501E-03-2.06450E-05
 -1     10528 3.40106E-02-2.44501E-03 2.06450E-05
 -1     10529 3.40083E-02-2.44365E-03 6.19350E-05
 -1     10530 3.40038E-02-2.44094E-03 1.03224E-04
 -1     10531 3.39971E-02-2.43688E-03 1.44512E-04
 -1     10532 3.39880E-02-2.43145E-03 1.85800E-04
 -1     10533 3.69014E-02-4.82984E-03-1.70836E-04
 -1     10534 3.69096E-02-4.83482E-03-1.32874E-04
 -1     10535 3.69157E-02-4.83855E-03-9.49114E-05
 -1     10536 3.69198E-02-4.84104E-03-5.69473E-05
 -1     10537 3.69219E-02-4.84228E-03-1.89825E-05
 -1     10538 3.69219E-02-4.84228E-03 1.89825E-05
 -1     10539 3.69198E-02-4.84104E-03 5.69473E-05
 -1     10540 3.69157E-02-4.83855E-03 9.49114E-05
 -1     10541 3.69096E-02-4.83482E-03 1.32874E-04
 -1     10542 3.69014E-02-4.82984E-03 1.70836E-04
 -1     10543 3.97266E-02-7.52565E-03-1.55204E-04
 -1     10544 3.97340E-02-7.53003E-03-1.20716E-04
 -1     10545 3.97395E-02-7.53333E-03-8.62267E-05
 -1     10546 3.97432E-02-7.53552E-03-5.17364E-05
 -1     10547 3.97450E-02-7.53662E-03-1.72455E-05
 -1     10548 3.97450E-02-7.53662E-03 1.72455E-05
 -1     10549 3.97432E-02-7.53552E-03 5.17364E-05
 -1     10550 3.97395E-02-7.53333E-03 8.62267E-05
 -1     10551 3.97340E-02-7.53003E-03 1.20716E-04
 -1     10552 3.97266E-02-7.52565E-03 1.55204E-04
 -1     10553 4.24275E-02-1.05020E-02-1.39089E-04
 -1     10554 4.24340E-02-1.05057E-02-1.08181E-04
 -1     10555 4.24388E-02-1.05084E-02-7.72734E-05
 -1     10556 4.24421E-02-1.05103E-02-4.63644E-05
 -1     10557 4.24437E-02-1.05112E-02-1.54548E-05
 -1     10558 4.24437E-02-1.05112E-02 1.54548E-05
 -1     10559 4.24421E-02-1.05103E-02 4.63644E-05
 -1     10560 4.24388E-02-1.05084E-02 7.72734E-05
 -1     10561 4.24340E-02-1.05057E-02 1.08181E-04
 -1     10562 4.24275E-02-1.05020E-02 1.39089E-04
 -1     10563 4.49694E-02-1.37363E-02-1.22729E-04
 -1     10564 4.49750E-02-1.37391E-02-9.54570E-05
 -1     10565 4.49792E-02-1.37412E-02-6.81841E-05
 -1     10566 4.49820E-02-1.37426E-02-4.09106E-05
 -1     10567 4.49834E-02-1.37433E-02-1.36369E-05
 -1     10568 4.49834E-02-1.37433E-02 1.36369E-05
 -1     10569 4.49820E-02-1.37426E-02 4.09106E-05
 -1     10570 4.49792E-02-1.37412E-02 6.81841E-05
 -1     10571 4.49750E-02-1.37391E-02 9.54570E-05
 -1     10572 4.49694E-02-1.37363E-02 1.22729E-04
 -1     10573 4.73204E-02-1.72000E-02-1.06416E-04
 -1     10574 4.73252E-02-1.72019E-02-8.27676E-05
 -1     10575 4.73288E-02-1.72033E-02-5.91196E-05
 -1     10576 4.73312E-02-1.72042E-02-3.54716E-05
 -1     10577 4.73324E-02-1.72047E-02-1.18238E-05
 -1     10578 4.73324E-02-1.72047E-02 1.18238E-05
 -1     10579 4.73312E-02-1.72042E-02 3.54716E-05
 -1     10580 4.73288E-02-1.72033E-02 5.91196E-05
 -1     10581 4.73252E-02-1.72019E-02 8.27676E-05
 -1     10582 4.73204E-02-1.72000E-02 1.06416E-04
 -1     10583 4.94526E-02-2.08596E-02-9.04817E-05
 -1     10584 4.94566E-02-2.08605E-02-7.03730E-05
 -1     10585 4.94596E-02-2.08611E-02-5.02653E-05
 -1     10586 4.94616E-02-2.08616E-02-3.01586E-05
 -1     10587 4.94626E-02-2.08618E-02-1.00527E-05
 -1     10588 4.94626E-02-2.08618E-02 1.00527E-05
 -1     10589 4.94616E-02-2.08616E-02 3.01586E-05
 -1     10590 4.94596E-02-2.08611E-02 5.02653E-05
 -1     10591 4.94566E-02-2.08605E-02 7.03730E-05
 -1     10592 4.94526E-02-2.08596E-02 9.04817E-05
 -1     10593 5.13429E-02-2.46770E-02-7.52897E-05
 -1     10594 5.13461E-02-2.46769E-02-5.85551E-05
 -1     10595 5.13486E-02-2.46768E-02-4.18226E-05
 -1     10596 5.13502E-02-2.46767E-02-2.50924E-05
 -1     10597 5.13510E-02-2.46767E-02-8.36388E-06
 -1     10598 5.13510E-02-2.46767E-02 8.36388E-06
 -1     10599 5.13502E-02-2.46767E-02 2.50924E-05
 -1     10600 5.13486E-02-2.46768E-02 4.18226E-05
 -1     10601 5.13461E-02-2.46769E-02 5.85551E-05
 -1     10602 5.13429E-02-2.46770E-02 7.52897E-05
 -1     10603 5.29741E-02-2.86111E-02-6.11995E-05
 -1     10604 5.29767E-02-2.86100E-02-4.75935E-05
 -1     10605 5.29787E-02-2.86092E-02-3.39912E-05
 -1     10606 5.29800E-02-2.86086E-02-2.03928E-05
 -1     10607 5.29806E-02-2.86083E-02-6.79722E-06
 -1     10608 5.29806E-02-2.86083E-02 6.79722E-06
 -1     10609 5.29800E-02-2.86086E-02 2.03928E-05
 -1     10610 5.29787E-02-2.86092E-02 3.39912E-05
 -1     10611 5.29767E-02-2.86100E-02 4.75935E-05
 -1     10612 5.29741E-02-2.86111E-02 6.11995E-05
 -1     10613 5.43362E-02-3.26197E-02-4.85150E-05
 -1     10614 5.43383E-02-3.26177E-02-3.77253E-05
 -1     10615 5.43399E-02-3.26162E-02-2.69407E-05
 -1     10616 5.43409E-02-3.26153E-02-1.61616E-05
 -1     10617 5.43414E-02-3.26148E-02-5.38670E-06
 -1     10618 5.43414E-02-3.26148E-02 5.38670E-06
 -1     10619 5.43409E-02-3.26153E-02 1.61616E-05
 -1     10620 5.43399E-02-3.26162E-02 2.69407E-05
 -1     10621 5.43383E-02-3.26177E-02 3.77253E-05
 -1     10622 5.43362E-02-3.26197E-02 4.85150E-05
 -1     10623 5.54264E-02-3.66620E-02-3.73966E-05
 -1     10624 5.54281E-02-3.66594E-02-2.90759E-05
 -1     10625 5.54293E-02-3.66575E-02-2.07616E-05
 -1     10626 5.54302E-02-3.66563E-02-1.24538E-05
 -1     10627 5.54306E-02-3.66556E-02-4.15071E-06
 -1     10628 5.54306E-02-3.66556E-02 4.15071E-06
 -1     10629 5.54302E-02-3.66563E-02 1.24538E-05
 -1     10630 5.54293E-02-3.66575E-02 2.07616E-05
 -1     10631 5.54281E-02-3.66594E-02 2.90759E-05
 -1     10632 5.54264E-02-3.66620E-02 3.73966E-05
 -1     10633 5.62489E-02-4.07025E-02-2.76981E-05
 -1     10634 5.62504E-02-4.06997E-02-2.15354E-05
 -1     10635 5.62515E-02-4.06976E-02-1.53777E-05
 -1     10636 5.62523E-02-4.06962E-02-9.22434E-06
 -1     10637 5.62527E-02-4.06955E-02-3.07435E-06
 -1     10638 5.62527E-02-4.06955E-02 3.07435E-06
 -1     10639 5.62523E-02-4.06962E-02 9.22434E-06
 -1     10640 5.62515E-02-4.06976E-02 1.53777E-05
 -1     10641 5.62504E-02-4.06997E-02 2.15354E-05
 -1     10642 5.62489E-02-4.07025E-02 2.76981E-05
 -1     10643 5.68146E-02-4.47147E-02-1.87283E-05
 -1     10644 5.68163E-02-4.47122E-02-1.45554E-05
 -1     10645 5.68175E-02-4.47103E-02-1.03851E-05
 -1     10646 5.68184E-02-4.47090E-02-6.22474E-06
 -1     10647 5.68188E-02-4.47084E-02-2.07369E-06
 -1     10648 5.68188E-02-4.47084E-02 2.07369E-06
 -1     10649 5.68184E-02-4.47090E-02 6.22474E-06
 -1     10650 5.68175E-02-4.47103E-02 1.03851E-05
 -1     10651 5.68163E-02-4.47122E-02 1.45554E-05
 -1     10652 5.68146E-02-4.47147E-02 1.87283E-05
 -1     10653 5.71400E-02-4.86865E-02-8.96679E-06
 -1     10654 5.71422E-02-4.86847E-02-6.87630E-06
 -1     10655 5.71437E-02-4.86833E-02-4.85563E-06
 -1     10656 5.71447E-02-4.86824E-02-2.89024E-06
 -1     10657 5.71452E-02-4.86819E-02-9.59497E-07
 -1     10658 5.71452E-02-4.86819E-02 9.59497E-07
 -1     10659 5.71447E-02-4.86824E-02 2.89024E-06
 -1     10660 5.71437E-02-4.86833E-02 4.85563E-06
 -1     10661 5.71422E-02-4.86847E-02 6.87630E-06
 -1     10662 5.71400E-02-4.86865E-02 8.96679E-06
 -1     10663 8.60700E-04 1.07740E-03-4.05810E-04
 -1     10664 8.73691E-04 1.04709E-03-3.04013E-04
 -1     10665 8.82764E-04 1.03155E-03-2.11092E-04
 -1     10666 8.88514E-04 1.02348E-03-1.24293E-04
 -1     10667 8.91309E-04 1.01996E-03-4.10437E-05
 -1     10668 8.91309E-04 1.01996E-03 4.10437E-05
 -1     10669 8.88514E-04 1.02348E-03 1.24293E-04
 -1     10670 8.82764E-04 1.03155E-03 2.11092E-04
 -1     10671 8.73691E-04 1.04709E-03 3.04013E-04
 -1     10672 8.60700E-04 1.07740E-03 4.05810E-04
 -1     10673 1.95449E-03 2.24901E-03-4.10963E-04
 -1     10674 1.96777E-03 2.24323E-03-3.23850E-04
 -1     10675 1.97779E-03 2.23479E-03-2.32720E-04
 -1     10676 1.98457E-03 2.22821E-03-1.39981E-04
 -1     10677 1.98800E-03 2.22476E-03-4.66995E-05
 -1     10678 1.98800E-03 2.22476E-03 4.66995E-05
 -1     10679 1.98457E-03 2.22821E-03 1.39981E-04
 -1     10680 1.97779E-03 2.23479E-03 2.32720E-04
 -1     10681 1.96777E-03 2.24323E-03 3.23850E-04
 -1     10682 1.95449E-03 2.24901E-03 4.10963E-04
 -1     10683 3.19027E-03 3.34076E-03-3.64125E-04
 -1     10684 3.20307E-03 3.34588E-03-2.84656E-04
 -1     10685 3.21267E-03 3.34828E-03-2.04470E-04
 -1     10686 3.21907E-03 3.34891E-03-1.23200E-04
 -1     10687 3.22228E-03 3.34893E-03-4.11569E-05
 -1     10688 3.22228E-03 3.34893E-03 4.11569E-05
 -1     10689 3.21907E-03 3.34891E-03 1.23200E-04
 -1     10690 3.21267E-03 3.34828E-03 2.04470E-04
 -1     10691 3.20307E-03 3.34588E-03 2.84656E-04
 -1     10692 3.19027E-03 3.34076E-03 3.64125E-04
 -1     10693 4.59482E-03 4.31912E-03-3.41946E-04
 -1     10694 4.60744E-03 4.31975E-03-2.65651E-04
 -1     10695 4.61703E-03 4.32075E-03-1.89621E-04
 -1     10696 4.62348E-03 4.32161E-03-1.13749E-04
 -1     10697 4.62672E-03 4.32208E-03-3.79161E-05
 -1     10698 4.62672E-03 4.32208E-03 3.79161E-05
 -1     10699 4.62348E-03 4.32161E-03 1.13749E-04
 -1     10700 4.61703E-03 4.32075E-03 1.89621E-04
 -1     10701 4.60744E-03 4.31975E-03 2.65651E-04
 -1     10702 4.59482E-03 4.31912E-03 3.41946E-04
 -1     10703 6.20090E-03 5.14710E-03-3.29671E-04
 -1     10704 6.21385E-03 5.14599E-03-2.56365E-04
 -1     10705 6.22357E-03 5.14511E-03-1.83047E-04
 -1     10706 6.23007E-03 5.14457E-03-1.09784E-04
 -1     10707 6.23334E-03 5.14432E-03-3.65857E-05
 -1     10708 6.23334E-03 5.14432E-03 3.65857E-05
 -1     10709 6.23007E-03 5.14457E-03 1.09784E-04
 -1     10710 6.22357E-03 5.14511E-03 1.83047E-04
 -1     10711 6.21385E-03 5.14599E-03 2.56365E-04
 -1     10712 6.20090E-03 5.14710E-03 3.29671E-04
 -1     10713 8.02301E-03 5.80745E-03-3.20895E-04
 -1     10714 8.03625E-03 5.80494E-03-2.49551E-04
 -1     10715 8.04618E-03 5.80310E-03-1.78238E-04
 -1     10716 8.05281E-03 5.80186E-03-1.06938E-04
 -1     10717 8.05612E-03 5.80124E-03-3.56450E-05
 -1     10718 8.05612E-03 5.80124E-03 3.56450E-05
 -1     10719 8.05281E-03 5.80186E-03 1.06938E-04
 -1     10720 8.04618E-03 5.80310E-03 1.78238E-04
 -1     10721 8.03625E-03 5.80494E-03 2.49551E-04
 -1     10722 8.02301E-03 5.80745E-03 3.20895E-04
 -1     10723 1.00630E-02 6.27762E-03-3.12878E-04
 -1     10724 1.00764E-02 6.27425E-03-2.43350E-04
 -1     10725 1.00864E-02 6.27172E-03-1.73814E-04
 -1     10726 1.00931E-02 6.27003E-03-1.04284E-04
 -1     10727 1.00964E-02 6.26919E-03-3.47605E-05
 -1     10728 1.00964E-02 6.26919E-03 3.47605E-05
 -1     10729 1.00931E-02 6.27003E-03 1.04284E-04
 -1     10730 1.00864E-02 6.27172E-03 1.73814E-04
 -1     10731 1.00764E-02 6.27425E-03 2.43350E-04
 -1     10732 1.00630E-02 6.27762E-03 3.12878E-04
 -1     10733 1.23139E-02 6.53394E-03-3.04864E-04
 -1     10734 1.23272E-02 6.52987E-03-2.37113E-04
 -1     10735 1.23372E-02 6.52682E-03-1.69363E-04
 -1     10736 1.23438E-02 6.52479E-03-1.01615E-04
 -1     10737 1.23471E-02 6.52377E-03-3.38710E-05
 -1     10738 1.23471E-02 6.52377E-03 3.38710E-05
 -1     10739 1.23438E-02 6.52479E-03 1.01615E-04
 -1     10740 1.23372E-02 6.52682E-03 1.69363E-04
 -1     10741 1.23272E-02 6.52987E-03 2.37113E-04
 -1     10742 1.23139E-02 6.53394E-03 3.04864E-04
 -1     10743 1.47613E-02 6.55262E-03-2.96371E-04
 -1     10744 1.47744E-02 6.54799E-03-2.30508E-04
 -1     10745 1.47842E-02 6.54452E-03-1.64644E-04
 -1     10746 1.47907E-02 6.54221E-03-9.87838E-05
 -1     10747 1.47940E-02 6.54105E-03-3.29274E-05
 -1     10748 1.47940E-02 6.54105E-03 3.29274E-05
 -1     10749 1.47907E-02 6.54221E-03 9.87838E-05
 -1     10750 1.47842E-02 6.54452E-03 1.64644E-04
 -1     10751 1.47744E-02 6.54799E-03 2.30508E-04
 -1     10752 1.47613E-02 6.55262E-03 2.96371E-04
 -1     10753 1.73854E-02 6.31125E-03-2.87086E-04
 -1     10754 1.73982E-02 6.30619E-03-2.23287E-04
 -1     10755 1.74078E-02 6.30240E-03-1.59487E-04
 -1     10756 1.74141E-02 6.29987E-03-9.56893E-05
 -1     10757 1.74173E-02 6.29861E-03-3.18959E-05
 -1     10758 1.74173E-02 6.29861E-03 3.18959E-05
 -1     10759 1.74141E-02 6.29987E-03 9.56893E-05
 -1     10760 1.74078E-02 6.30240E-03 1.59487E-04
 -1     10761 1.73982E-02 6.30619E-03 2.23287E-04
 -1     10762 1.73854E-02 6.31125E-03 2.87086E-04
 -1     10763 2.01618E-02 5.78974E-03-2.76804E-04
 -1     10764 2.01741E-02 5.78438E-03-2.15290E-04
 -1     10765 2.01834E-02 5.78035E-03-1.53775E-04
 -1     10766 2.01896E-02 5.77767E-03-9.22629E-05
 -1     10767 2.01927E-02 5.77632E-03-3.07538E-05
 -1     10768 2.01927E-02 5.77632E-03 3.07538E-05
 -1     10769 2.01896E-02 5.77767E-03 9.22629E-05
 -1     10770 2.01834E-02 5.78035E-03 1.53775E-04
 -1     10771 2.01741E-02 5.78438E-03 2.15290E-04
 -1     10772 2.01618E-02 5.78974E-03 2.76804E-04
 -1     10773 2.30621E-02 4.97101E-03-2.65401E-04
 -1     10774 2.30739E-02 4.96545E-03-2.06422E-04
 -1     10775 2.30828E-02 4.96129E-03-1.47441E-04
 -1     10776 2.30887E-02 4.95851E-03-8.84627E-05
 -1     10777 2.30917E-02 4.95712E-03-2.94871E-05
 -1     10778 2.30917E-02 4.95712E-03 2.94871E-05
 -1     10779 2.30887E-02 4.95851E-03 8.84627E-05
 -1     10780 2.30828E-02 4.96129E-03 1.47441E-04
 -1     10781 2.30739E-02 4.96545E-03 2.06422E-04
 -1     10782 2.30621E-02 4.97101E-03 2.65401E-04
 -1     10783 2.60547E-02 3.84156E-03-2.52807E-04
 -1     10784 2.60660E-02 3.83594E-03-1.96627E-04
 -1     10785 2.60744E-02 3.83171E-03-1.40446E-04
 -1     10786 2.60801E-02 3.82890E-03-8.42656E-05
 -1     10787 2.60829E-02 3.82749E-03-2.80881E-05
 -1     10788 2.60829E-02 3.82749E-03 2.80881E-05
 -1     10789 2.60801E-02 3.82890E-03 8.42656E-05
 -1     10790 2.60744E-02 3.83171E-03 1.40446E-04
 -1     10791 2.60660E-02 3.83594E-03 1.96627E-04
 -1     10792 2.60547E-02 3.84156E-03 2.52807E-04
 -1     10793 2.91054E-02 2.39200E-03-2.38994E-04
 -1     10794 2.91161E-02 2.38643E-03-1.85884E-04
 -1     10795 2.91240E-02 2.38226E-03-1.32772E-04
 -1     10796 2.91293E-02 2.37947E-03-7.96619E-05
 -1     10797 2.91320E-02 2.37807E-03-2.65536E-05
 -1     10798 2.91320E-02 2.37807E-03 2.65536E-05
 -1     10799 2.91293E-02 2.37947E-03 7.96619E-05
 -1     10800 2.91240E-02 2.38226E-03 1.32772E-04
 -1     10801 2.91161E-02 2.38643E-03 1.85884E-04
 -1     10802 2.91054E-02 2.39200E-03 2.38994E-04
 -1     10803 3.21779E-02 6.17534E-04-2.23970E-04
 -1     10804 3.21879E-02 6.12150E-04-1.74200E-04
 -1     10805 3.21953E-02 6.08112E-04-1.24427E-04
 -1     10806 3.22003E-02 6.05418E-04-7.46548E-05
 -1     10807 3.22027E-02 6.04070E-04-2.48846E-05
 -1     10808 3.22027E-02 6.04070E-04 2.48846E-05
 -1     10809 3.22003E-02 6.05418E-04 7.46548E-05
 -1     10810 3.21953E-02 6.08112E-04 1.24427E-04
 -1     10811 3.21879E-02 6.12150E-04 1.74200E-04
 -1     10812 3.21779E-02 6.17534E-04 2.23970E-04
 -1     10813 3.52345E-02-1.48164E-03-2.07786E-04
 -1     10814 3.52437E-02-1.48670E-03-1.61612E-04
 -1     10815 3.52505E-02-1.49050E-03-1.15436E-04
 -1     10816 3.52551E-02-1.49303E-03-6.92606E-05
 -1     10817 3.52574E-02-1.49430E-03-2.30866E-05
 -1     10818 3.52574E-02-1.49430E-03 2.30866E-05
 -1     10819 3.52551E-02-1.49303E-03 6.92606E-05
 -1     10820 3.52505E-02-1.49050E-03 1.15436E-04
 -1     10821 3.52437E-02-1.48670E-03 1.61612E-04
 -1     10822 3.52345E-02-1.48164E-03 2.07786E-04
 -1     10823 3.82365E-02-3.89991E-03-1.90534E-04
 -1     10824 3.82449E-02-3.90451E-03-1.48194E-04
 -1     10825 3.82513E-02-3.90796E-03-1.05852E-04
 -1     10826 3.82555E-02-3.91027E-03-6.35105E-05
 -1     10827 3.82576E-02-3.91142E-03-2.11699E-05
 -1     10828 3.82576E-02-3.91142E-03 2.11699E-05
 -1     10829 3.82555E-02-3.91027E-03 6.35105E-05
 -1     10830 3.82513E-02-3.90796E-03 1.05852E-04
 -1     10831 3.82449E-02-3.90451E-03 1.48194E-04
 -1     10832 3.82365E-02-3.89991E-03 1.90534E-04
 -1     10833 4.11456E-02-6.62591E-03-1.72361E-04
 -1     10834 4.11532E-02-6.62991E-03-1.34060E-04
 -1     10835 4.11589E-02-6.63292E-03-9.57564E-05
 -1     10836 4.11627E-02-6.63493E-03-5.74530E-05
 -1     10837 4.11646E-02-6.63593E-03-1.91508E-05
 -1     10838 4.11646E-02-6.63593E-03 1.91508E-05
 -1     10839 4.11627E-02-6.63493E-03 5.74530E-05
 -1     10840 4.11589E-02-6.63292E-03 9.57564E-05
 -1     10841 4.11532E-02-6.62991E-03 1.34060E-04
 -1     10842 4.11456E-02-6.62591E-03 1.72361E-04
 -1     10843 4.39239E-02-9.64232E-03-1.53473E-04
 -1     10844 4.39308E-02-9.64560E-03-1.19369E-04
 -1     10845 4.39359E-02-9.64806E-03-8.52627E-05
 -1     10846 4.39393E-02-9.64971E-03-5.11567E-05
 -1     10847 4.39410E-02-9.65053E-03-1.70520E-05
 -1     10848 4.39410E-02-9.65053E-03 1.70520E-05
 -1     10849 4.39393E-02-9.64971E-03 5.11567E-05
 -1     10850 4.39359E-02-9.64806E-03 8.52627E-05
 -1     10851 4.39308E-02-9.64560E-03 1.19369E-04
 -1     10852 4.39239E-02-9.64232E-03 1.53473E-04
 -1     10853 4.65359E-02-1.29258E-02-1.34145E-04
 -1     10854 4.65419E-02-1.29282E-02-1.04335E-04
 -1     10855 4.65464E-02-1.29301E-02-7.45236E-05
 -1     10856 4.65494E-02-1.29313E-02-4.47130E-05
 -1     10857 4.65509E-02-1.29319E-02-1.49041E-05
 -1     10858 4.65509E-02-1.29319E-02 1.49041E-05
 -1     10859 4.65494E-02-1.29313E-02 4.47130E-05
 -1     10860 4.65464E-02-1.29301E-02 7.45236E-05
 -1     10861 4.65419E-02-1.29282E-02 1.04335E-04
 -1     10862 4.65359E-02-1.29258E-02 1.34145E-04
 -1     10863 4.89485E-02-1.64471E-02-1.14725E-04
 -1     10864 4.89537E-02-1.64486E-02-8.92287E-05
 -1     10865 4.89576E-02-1.64497E-02-6.37322E-05
 -1     10866 4.89602E-02-1.64505E-02-3.82376E-05
 -1     10867 4.89615E-02-1.64509E-02-1.27455E-05
 -1     10868 4.89615E-02-1.64509E-02 1.27455E-05
 -1     10869 4.89602E-02-1.64505E-02 3.82376E-05
 -1     10870 4.89576E-02-1.64497E-02 6.37322E-05
 -1     10871 4.89537E-02-1.64486E-02 8.92287E-05
 -1     10872 4.89485E-02-1.64471E-02 1.14725E-04
 -1     10873 5.11332E-02-2.01716E-02-9.56333E-05
 -1     10874 5.11376E-02-2.01721E-02-7.43769E-05
 -1     10875 5.11410E-02-2.01725E-02-5.31221E-05
 -1     10876 5.11432E-02-2.01728E-02-3.18708E-05
 -1     10877 5.11443E-02-2.01729E-02-1.06231E-05
 -1     10878 5.11443E-02-2.01729E-02 1.06231E-05
 -1     10879 5.11432E-02-2.01728E-02 3.18708E-05
 -1     10880 5.11410E-02-2.01725E-02 5.31221E-05
 -1     10881 5.11376E-02-2.01721E-02 7.43769E-05
 -1     10882 5.11332E-02-2.01716E-02 9.56333E-05
 -1     10883 5.30666E-02-2.40601E-02-7.73537E-05
 -1     10884 5.30703E-02-2.40597E-02-6.01558E-05
 -1     10885 5.30731E-02-2.40593E-02-4.29619E-05
 -1     10886 5.30750E-02-2.40591E-02-2.57737E-05
 -1     10887 5.30759E-02-2.40590E-02-8.59060E-06
 -1     10888 5.30759E-02-2.40590E-02 8.59060E-06
 -1     10889 5.30750E-02-2.40591E-02 2.57737E-05
 -1     10890 5.30731E-02-2.40593E-02 4.29619E-05
 -1     10891 5.30703E-02-2.40597E-02 6.01558E-05
 -1     10892 5.30666E-02-2.40601E-02 7.73537E-05
 -1     10893 5.47321E-02-2.80706E-02-6.04084E-05
 -1     10894 5.47351E-02-2.80692E-02-4.69715E-05
 -1     10895 5.47373E-02-2.80681E-02-3.35417E-05
 -1     10896 5.47388E-02-2.80675E-02-2.01204E-05
 -1     10897 5.47396E-02-2.80671E-02-6.70595E-06
 -1     10898 5.47396E-02-2.80671E-02 6.70595E-06
 -1     10899 5.47388E-02-2.80675E-02 2.01204E-05
 -1     10900 5.47373E-02-2.80681E-02 3.35417E-05
 -1     10901 5.47351E-02-2.80692E-02 4.69715E-05
 -1     10902 5.47321E-02-2.80706E-02 6.04084E-05
 -1     10903 5.61201E-02-3.21597E-02-4.53102E-05
 -1     10904 5.61225E-02-3.21575E-02-3.52236E-05
 -1     10905 5.61243E-02-3.21559E-02-2.51473E-05
 -1     10906 5.61254E-02-3.21548E-02-1.50824E-05
 -1     10907 5.61260E-02-3.21543E-02-5.02639E-06
 -1     10908 5.61260E-02-3.21543E-02 5.02639E-06
 -1     10909 5.61254E-02-3.21548E-02 1.50824E-05
 -1     10910 5.61243E-02-3.21559E-02 2.51473E-05
 -1     10911 5.61225E-02-3.21575E-02 3.52236E-05
 -1     10912 5.61201E-02-3.21597E-02 4.53102E-05
 -1     10913 5.72292E-02-3.62861E-02-3.24770E-05
 -1     10914 5.72310E-02-3.62834E-02-2.52388E-05
 -1     10915 5.72324E-02-3.62814E-02-1.80134E-05
 -1     10916 5.72334E-02-3.62800E-02-1.08014E-05
 -1     10917 5.72338E-02-3.62794E-02-3.59929E-06
 -1     10918 5.72338E-02-3.62794E-02 3.59929E-06
 -1     10919 5.72334E-02-3.62800E-02 1.08014E-05
 -1     10920 5.72324E-02-3.62814E-02 1.80134E-05
 -1     10921 5.72310E-02-3.62834E-02 2.52388E-05
 -1     10922 5.72292E-02-3.62861E-02 3.24770E-05
 -1     10923 5.80655E-02-4.04137E-02-2.20583E-05
 -1     10924 5.80670E-02-4.04109E-02-1.71391E-05
 -1     10925 5.80681E-02-4.04088E-02-1.22307E-05
 -1     10926 5.80689E-02-4.04074E-02-7.33309E-06
 -1     10927 5.80692E-02-4.04067E-02-2.44339E-06
 -1     10928 5.80692E-02-4.04067E-02 2.44339E-06
 -1     10929 5.80689E-02-4.04074E-02 7.33309E-06
 -1     10930 5.80681E-02-4.04088E-02 1.22307E-05
 -1     10931 5.80670E-02-4.04109E-02 1.71391E-05
 -1     10932 5.80655E-02-4.04137E-02 2.20583E-05
 -1     10933 5.86414E-02-4.45168E-02-1.36186E-05
 -1     10934 5.86428E-02-4.45144E-02-1.05785E-05
 -1     10935 5.86439E-02-4.45126E-02-7.54367E-06
 -1     10936 5.86446E-02-4.45114E-02-4.51976E-06
 -1     10937 5.86450E-02-4.45108E-02-1.50536E-06
 -1     10938 5.86450E-02-4.45108E-02 1.50536E-06
 -1     10939 5.86446E-02-4.45114E-02 4.51976E-06
 -1     10940 5.86439E-02-4.45126E-02 7.54367E-06
 -1     10941 5.86428E-02-4.45144E-02 1.05785E-05
 -1     10942 5.86414E-02-4.45168E-02 1.36186E-05
 -1     10943 5.89743E-02-4.85852E-02-5.72398E-06
 -1     10944 5.89759E-02-4.85837E-02-4.38181E-06
 -1     10945 5.89771E-02-4.85826E-02-3.08793E-06
 -1     10946 5.89779E-02-4.85818E-02-1.83485E-06
 -1     10947 5.89783E-02-4.85814E-02-6.08530E-07
 -1     10948 5.89783E-02-4.85814E-02 6.08530E-07
 -1     10949 5.89779E-02-4.85818E-02 1.83485E-06
 -1     10950 5.89771E-02-4.85826E-02 3.08793E-06
 -1     10951 5.89759E-02-4.85837E-02 4.38181E-06
 -1     10952 5.89743E-02-4.85852E-02 5.72398E-06
 -1     10953 1.00717E-03 1.24819E-03-4.41724E-04
 -1     10954 1.02162E-03 1.21591E-03-3.30844E-04
 -1     10955 1.03209E-03 1.19923E-03-2.29686E-04
 -1     10956 1.03890E-03 1.19050E-03-1.35227E-04
 -1     10957 1.04226E-03 1.18668E-03-4.46526E-05
 -1     10958 1.04226E-03 1.18668E-03 4.46526E-05
 -1     10959 1.03890E-03 1.19050E-03 1.35227E-04
 -1     10960 1.03209E-03 1.19923E-03 2.29686E-04
 -1     10961 1.02162E-03 1.21591E-03 3.30844E-04
 -1     10962 1.00717E-03 1.24819E-03 4.41724E-04
 -1     10963 2.18353E-03 2.57263E-03-4.37843E-04
 -1     10964 2.19600E-03 2.56797E-03-3.44910E-04
 -1     10965 2.20609E-03 2.55983E-03-2.47792E-04
 -1     10966 2.21319E-03 2.55325E-03-1.49034E-04
 -1     10967 2.21685E-03 2.54975E-03-4.97191E-05
 -1     10968 2.21685E-03 2.54975E-03 4.97191E-05
 -1     10969 2.21319E-03 2.55325E-03 1.49034E-04
 -1     10970 2.20609E-03 2.55983E-03 2.47792E-04
 -1     10971 2.19600E-03 2.56797E-03 3.44910E-04
 -1     10972 2.18353E-03 2.57263E-03 4.37843E-04
 -1     10973 3.45622E-03 3.75880E-03-3.87079E-04
 -1     10974 3.46799E-03 3.76444E-03-3.02390E-04
 -1     10975 3.47692E-03 3.76738E-03-2.17111E-04
 -1     10976 3.48295E-03 3.76840E-03-1.30782E-04
 -1     10977 3.48599E-03 3.76861E-03-4.36843E-05
 -1     10978 3.48599E-03 3.76861E-03 4.36843E-05
 -1     10979 3.48295E-03 3.76840E-03 1.30782E-04
 -1     10980 3.47692E-03 3.76738E-03 2.17111E-04
 -1     10981 3.46799E-03 3.76444E-03 3.02390E-04
 -1     10982 3.45622E-03 3.75880E-03 3.87079E-04
 -1     10983 4.89825E-03 4.81153E-03-3.67387E-04
 -1     10984 4.90995E-03 4.81187E-03-2.85332E-04
 -1     10985 4.91893E-03 4.81275E-03-2.03598E-04
 -1     10986 4.92501E-03 4.81361E-03-1.22101E-04
 -1     10987 4.92806E-03 4.81410E-03-4.06939E-05
 -1     10988 4.92806E-03 4.81410E-03 4.06939E-05
 -1     10989 4.92501E-03 4.81361E-03 1.22101E-04
 -1     10990 4.91893E-03 4.81275E-03 2.03598E-04
 -1     10991 4.90995E-03 4.81187E-03 2.85332E-04
 -1     10992 4.89825E-03 4.81153E-03 3.67387E-04
 -1     10993 6.55039E-03 5.71141E-03-3.57258E-04
 -1     10994 6.56276E-03 5.71010E-03-2.77782E-04
 -1     10995 6.57207E-03 5.70908E-03-1.98315E-04
 -1     10996 6.57832E-03 5.70844E-03-1.18931E-04
 -1     10997 6.58146E-03 5.70814E-03-3.96322E-05
 -1     10998 6.58146E-03 5.70814E-03 3.96322E-05
 -1     10999 6.57832E-03 5.70844E-03 1.18931E-04
 -1     11000 6.57207E-03 5.70908E-03 1.98315E-04
 -1     11001 6.56276E-03 5.71010E-03 2.77782E-04
 -1     11002 6.55039E-03 5.71141E-03 3.57258E-04
 -1     11003 8.42675E-03 6.44102E-03-3.49811E-04
 -1     11004 8.43954E-03 6.43841E-03-2.72015E-04
 -1     11005 8.44918E-03 6.43649E-03-1.94264E-04
 -1     11006 8.45562E-03 6.43521E-03-1.16545E-04
 -1     11007 8.45885E-03 6.43456E-03-3.88461E-05
 -1     11008 8.45885E-03 6.43456E-03 3.88461E-05
 -1     11009 8.45562E-03 6.43521E-03 1.16545E-04
 -1     11010 8.44918E-03 6.43649E-03 1.94264E-04
 -1     11011 8.43954E-03 6.43841E-03 2.72015E-04
 -1     11012 8.42675E-03 6.44102E-03 3.49811E-04
 -1     11013 1.05296E-02 6.97758E-03-3.42592E-04
 -1     11014 1.05426E-02 6.97420E-03-2.66435E-04
 -1     11015 1.05524E-02 6.97166E-03-1.90284E-04
 -1     11016 1.05589E-02 6.96996E-03-1.14157E-04
 -1     11017 1.05622E-02 6.96912E-03-3.80502E-05
 -1     11018 1.05622E-02 6.96912E-03 3.80502E-05
 -1     11019 1.05589E-02 6.96996E-03 1.14157E-04
 -1     11020 1.05524E-02 6.97166E-03 1.90284E-04
 -1     11021 1.05426E-02 6.97420E-03 2.66435E-04
 -1     11022 1.05296E-02 6.97758E-03 3.42592E-04
 -1     11023 1.28511E-02 7.29608E-03-3.34916E-04
 -1     11024 1.28641E-02 7.29207E-03-2.60464E-04
 -1     11025 1.28739E-02 7.28906E-03-1.86024E-04
 -1     11026 1.28805E-02 7.28705E-03-1.11604E-04
 -1     11027 1.28837E-02 7.28604E-03-3.71994E-05
 -1     11028 1.28837E-02 7.28604E-03 3.71994E-05
 -1     11029 1.28805E-02 7.28705E-03 1.11604E-04
 -1     11030 1.28739E-02 7.28906E-03 1.86024E-04
 -1     11031 1.28641E-02 7.29207E-03 2.60464E-04
 -1     11032 1.28511E-02 7.29608E-03 3.34916E-04
 -1     11033 1.53764E-02 7.37135E-03-3.26390E-04
 -1     11034 1.53892E-02 7.36684E-03-2.53835E-04
 -1     11035 1.53989E-02 7.36345E-03-1.81290E-04
 -1     11036 1.54054E-02 7.36119E-03-1.08764E-04
 -1     11037 1.54086E-02 7.36005E-03-3.62530E-05
 -1     11038 1.54086E-02 7.36005E-03 3.62530E-05
 -1     11039 1.54054E-02 7.36119E-03 1.08764E-04
 -1     11040 1.53989E-02 7.36345E-03 1.81290E-04
 -1     11041 1.53892E-02 7.36684E-03 2.53835E-04
 -1     11042 1.53764E-02 7.37135E-03 3.26390E-04
 -1     11043 1.80845E-02 7.17973E-03-3.16744E-04
 -1     11044 1.80972E-02 7.17484E-03-2.46335E-04
 -1     11045 1.81066E-02 7.17116E-03-1.75934E-04
 -1     11046 1.81130E-02 7.16869E-03-1.05551E-04
 -1     11047 1.81161E-02 7.16746E-03-3.51822E-05
 -1     11048 1.81161E-02 7.16746E-03 3.51822E-05
 -1     11049 1.81130E-02 7.16869E-03 1.05551E-04
 -1     11050 1.81066E-02 7.17116E-03 1.75934E-04
 -1     11051 1.80972E-02 7.17484E-03 2.46335E-04
 -1     11052 1.80845E-02 7.17973E-03 3.16744E-04
 -1     11053 2.09502E-02 6.69999E-03-3.05806E-04
 -1     11054 2.09624E-02 6.69483E-03-2.37829E-04
 -1     11055 2.09716E-02 6.69094E-03-1.69860E-04
 -1     11056 2.09777E-02 6.68834E-03-1.01908E-04
 -1     11057 2.09808E-02 6.68704E-03-3.39677E-05
 -1     11058 2.09808E-02 6.68704E-03 3.39677E-05
 -1     11059 2.09777E-02 6.68834E-03 1.01908E-04
 -1     11060 2.09716E-02 6.69094E-03 1.69860E-04
 -1     11061 2.09624E-02 6.69483E-03 2.37829E-04
 -1     11062 2.09502E-02 6.69999E-03 3.05806E-04
 -1     11063 2.39436E-02 5.91409E-03-2.93469E-04
 -1     11064 2.39554E-02 5.90877E-03-2.28235E-04
 -1     11065 2.39643E-02 5.90476E-03-1.63009E-04
 -1     11066 2.39702E-02 5.90208E-03-9.77975E-05
 -1     11067 2.39731E-02 5.90074E-03-3.25978E-05
 -1     11068 2.39731E-02 5.90074E-03 3.25978E-05
 -1     11069 2.39702E-02 5.90208E-03 9.77975E-05
 -1     11070 2.39643E-02 5.90476E-03 1.63009E-04
 -1     11071 2.39554E-02 5.90877E-03 2.28235E-04
 -1     11072 2.39436E-02 5.91409E-03 2.93469E-04
 -1     11073 2.70321E-02 4.80775E-03-2.79673E-04
 -1     11074 2.70433E-02 4.80239E-03-2.17506E-04
 -1     11075 2.70518E-02 4.79835E-03-1.55347E-04
 -1     11076 2.70574E-02 4.79565E-03-9.32010E-05
 -1     11077 2.70602E-02 4.79429E-03-3.10657E-05
 -1     11078 2.70602E-02 4.79429E-03 3.10657E-05
 -1     11079 2.70574E-02 4.79565E-03 9.32010E-05
 -1     11080 2.70518E-02 4.79835E-03 1.55347E-04
 -1     11081 2.70433E-02 4.80239E-03 2.17506E-04
 -1     11082 2.70321E-02 4.80775E-03 2.79673E-04
 -1     11083 3.01798E-02 3.37098E-03-2.64392E-04
 -1     11084 3.01905E-02 3.36570E-03-2.05624E-04
 -1     11085 3.01985E-02 3.36172E-03-1.46861E-04
 -1     11086 3.02038E-02 3.35906E-03-8.81097E-05
 -1     11087 3.02065E-02 3.35772E-03-2.93687E-05
 -1     11088 3.02065E-02 3.35772E-03 2.93687E-05
 -1     11089 3.02038E-02 3.35906E-03 8.81097E-05
 -1     11090 3.01985E-02 3.36172E-03 1.46861E-04
 -1     11091 3.01905E-02 3.36570E-03 2.05624E-04
 -1     11092 3.01798E-02 3.37098E-03 2.64392E-04
 -1     11093 3.33491E-02 1.59857E-03-2.47637E-04
 -1     11094 3.33591E-02 1.59350E-03-1.92594E-04
 -1     11095 3.33666E-02 1.58967E-03-1.37555E-04
 -1     11096 3.33716E-02 1.58711E-03-8.25267E-05
 -1     11097 3.33741E-02 1.58583E-03-2.75078E-05
 -1     11098 3.33741E-02 1.58583E-03 2.75078E-05
 -1     11099 3.33716E-02 1.58711E-03 8.25267E-05
 -1     11100 3.33666E-02 1.58967E-03 1.37555E-04
 -1     11101 3.33591E-02 1.59350E-03 1.92594E-04
 -1     11102 3.33491E-02 1.59857E-03 2.47637E-04
 -1     11103 3.65004E-02-5.09488E-04-2.29455E-04
 -1     11104 3.65098E-02-5.14223E-04-1.78453E-04
 -1     11105 3.65168E-02-5.17794E-04-1.27455E-04
 -1     11106 3.65214E-02-5.20188E-04-7.64678E-05
 -1     11107 3.65238E-02-5.21389E-04-2.54883E-05
 -1     11108 3.65238E-02-5.21389E-04 2.54883E-05
 -1     11109 3.65214E-02-5.20188E-04 7.64678E-05
 -1     11110 3.65168E-02-5.17794E-04 1.27455E-04
 -1     11111 3.65098E-02-5.14223E-04 1.78453E-04
 -1     11112 3.65004E-02-5.09488E-04 2.29455E-04
 -1     11113 3.95939E-02-2.94758E-03-2.09940E-04
 -1     11114 3.96025E-02-2.95185E-03-1.63276E-04
 -1     11115 3.96090E-02-2.95507E-03-1.16615E-04
 -1     11116 3.96133E-02-2.95723E-03-6.99642E-05
 -1     11117 3.96154E-02-2.95831E-03-2.33205E-05
 -1     11118 3.96154E-02-2.95831E-03 2.33205E-05
 -1     11119 3.96133E-02-2.95723E-03 6.99642E-05
 -1     11120 3.96090E-02-2.95507E-03 1.16615E-04
 -1     11121 3.96025E-02-2.95185E-03 1.63276E-04
 -1     11122 3.95939E-02-2.94758E-03 2.09940E-04
 -1     11123 4.25892E-02-5.70416E-03-1.89245E-04
 -1     11124 4.25971E-02-5.70782E-03-1.47181E-04
 -1     11125 4.26030E-02-5.71059E-03-1.05119E-04
 -1     11126 4.26070E-02-5.71244E-03-6.30668E-05
 -1     11127 4.26089E-02-5.71338E-03-2.10214E-05
 -1     11128 4.26089E-02-5.71338E-03 2.10214E-05
 -1     11129 4.26070E-02-5.71244E-03 6.30668E-05
 -1     11130 4.26030E-02-5.71059E-03 1.05119E-04
 -1     11131 4.25971E-02-5.70782E-03 1.47181E-04
 -1     11132 4.25892E-02-5.70416E-03 1.89245E-04
 -1     11133 4.54474E-02-8.76147E-03-1.67595E-04
 -1     11134 4.54545E-02-8.76440E-03-1.30342E-04
 -1     11135 4.54599E-02-8.76662E-03-9.30916E-05
 -1     11136 4.54634E-02-8.76812E-03-5.58502E-05
 -1     11137 4.54652E-02-8.76887E-03-1.86159E-05
 -1     11138 4.54652E-02-8.76887E-03 1.86159E-05
 -1     11139 4.54634E-02-8.76812E-03 5.58502E-05
 -1     11140 4.54599E-02-8.76662E-03 9.30916E-05
 -1     11141 4.54545E-02-8.76440E-03 1.30342E-04
 -1     11142 4.54474E-02-8.76147E-03 1.67595E-04
 -1     11143 4.81312E-02-1.20955E-02-1.45298E-04
 -1     11144 4.81376E-02-1.20976E-02-1.12999E-04
 -1     11145 4.81423E-02-1.20992E-02-8.07032E-05
 -1     11146 4.81455E-02-1.21003E-02-4.84170E-05
 -1     11147 4.81471E-02-1.21008E-02-1.61381E-05
 -1     11148 4.81471E-02-1.21008E-02 1.61381E-05
 -1     11149 4.81455E-02-1.21003E-02 4.84170E-05
 -1     11150 4.81423E-02-1.20992E-02 8.07032E-05
 -1     11151 4.81376E-02-1.20976E-02 1.12999E-04
 -1     11152 4.81312E-02-1.20955E-02 1.45298E-04
 -1     11153 5.06066E-02-1.56763E-02-1.22760E-04
 -1     11154 5.06122E-02-1.56774E-02-9.54665E-05
 -1     11155 5.06164E-02-1.56783E-02-6.81791E-05
 -1     11156 5.06192E-02-1.56790E-02-4.09021E-05
 -1     11157 5.06206E-02-1.56793E-02-1.36331E-05
 -1     11158 5.06206E-02-1.56793E-02 1.36331E-05
 -1     11159 5.06192E-02-1.56790E-02 4.09021E-05
 -1     11160 5.06164E-02-1.56783E-02 6.81791E-05
 -1     11161 5.06122E-02-1.56774E-02 9.54665E-05
 -1     11162 5.06066E-02-1.56763E-02 1.22760E-04
 -1     11163 5.28442E-02-1.94681E-02-1.00487E-04
 -1     11164 5.28491E-02-1.94683E-02-7.81396E-05
 -1     11165 5.28527E-02-1.94685E-02-5.58008E-05
 -1     11166 5.28551E-02-1.94686E-02-3.34743E-05
 -1     11167 5.28563E-02-1.94687E-02-1.11570E-05
 -1     11168 5.28563E-02-1.94687E-02 1.11570E-05
 -1     11169 5.28551E-02-1.94686E-02 3.34743E-05
 -1     11170 5.28527E-02-1.94685E-02 5.58008E-05
 -1     11171 5.28491E-02-1.94683E-02 7.81396E-05
 -1     11172 5.28442E-02-1.94681E-02 1.00487E-04
 -1     11173 5.48203E-02-2.34307E-02-7.90867E-05
 -1     11174 5.48244E-02-2.34300E-02-6.14901E-05
 -1     11175 5.48275E-02-2.34294E-02-4.39056E-05
 -1     11176 5.48295E-02-2.34290E-02-2.63361E-05
 -1     11177 5.48305E-02-2.34289E-02-8.77742E-06
 -1     11178 5.48305E-02-2.34289E-02 8.77742E-06
 -1     11179 5.48295E-02-2.34290E-02 2.63361E-05
 -1     11180 5.48275E-02-2.34294E-02 4.39056E-05
 -1     11181 5.48244E-02-2.34300E-02 6.14901E-05
 -1     11182 5.48203E-02-2.34307E-02 7.90867E-05
 -1     11183 5.65182E-02-2.75208E-02-5.92499E-05
 -1     11184 5.65215E-02-2.75191E-02-4.60555E-05
 -1     11185 5.65240E-02-2.75179E-02-3.28775E-05
 -1     11186 5.65257E-02-2.75171E-02-1.97179E-05
 -1     11187 5.65265E-02-2.75167E-02-6.57112E-06
 -1     11188 5.65265E-02-2.75167E-02 6.57112E-06
 -1     11189 5.65257E-02-2.75171E-02 1.97179E-05
 -1     11190 5.65240E-02-2.75179E-02 3.28775E-05
 -1     11191 5.65215E-02-2.75191E-02 4.60555E-05
 -1     11192 5.65182E-02-2.75208E-02 5.92499E-05
 -1     11193 5.79292E-02-3.16940E-02-4.17117E-05
 -1     11194 5.79318E-02-3.16916E-02-3.24082E-05
 -1     11195 5.79338E-02-3.16898E-02-2.31259E-05
 -1     11196 5.79351E-02-3.16886E-02-1.38655E-05
 -1     11197 5.79358E-02-3.16880E-02-4.62010E-06
 -1     11198 5.79358E-02-3.16880E-02 4.62010E-06
 -1     11199 5.79351E-02-3.16886E-02 1.38655E-05
 -1     11200 5.79338E-02-3.16898E-02 2.31259E-05
 -1     11201 5.79318E-02-3.16916E-02 3.24082E-05
 -1     11202 5.79292E-02-3.16940E-02 4.17117E-05
 -1     11203 5.90533E-02-3.59078E-02-2.71745E-05
 -1     11204 5.90553E-02-3.59049E-02-2.10974E-05
 -1     11205 5.90568E-02-3.59027E-02-1.50452E-05
 -1     11206 5.90578E-02-3.59013E-02-9.01679E-06
 -1     11207 5.90583E-02-3.59007E-02-3.00384E-06
 -1     11208 5.90583E-02-3.59007E-02 3.00384E-06
 -1     11209 5.90578E-02-3.59013E-02 9.01679E-06
 -1     11210 5.90568E-02-3.59027E-02 1.50452E-05
 -1     11211 5.90553E-02-3.59049E-02 2.10974E-05
 -1     11212 5.90533E-02-3.59078E-02 2.71745E-05
 -1     11213 5.98987E-02-4.01255E-02-1.61377E-05
 -1     11214 5.99002E-02-4.01225E-02-1.25201E-05
 -1     11215 5.99013E-02-4.01204E-02-8.92367E-06
 -1     11216 5.99020E-02-4.01190E-02-5.34622E-06
 -1     11217 5.99024E-02-4.01183E-02-1.78074E-06
 -1     11218 5.99024E-02-4.01183E-02 1.78074E-06
 -1     11219 5.99020E-02-4.01190E-02 5.34622E-06
 -1     11220 5.99013E-02-4.01204E-02 8.92367E-06
 -1     11221 5.99002E-02-4.01225E-02 1.25201E-05
 -1     11222 5.98987E-02-4.01255E-02 1.61377E-05
 -1     11223 6.04805E-02-4.43213E-02-8.48874E-06
 -1     11224 6.04816E-02-4.43188E-02-6.58188E-06
 -1     11225 6.04825E-02-4.43170E-02-4.68676E-06
 -1     11226 6.04831E-02-4.43159E-02-2.80550E-06
 -1     11227 6.04834E-02-4.43153E-02-9.34018E-07
 -1     11228 6.04834E-02-4.43153E-02 9.34018E-07
 -1     11229 6.04831E-02-4.43159E-02 2.80550E-06
 -1     11230 6.04825E-02-4.43170E-02 4.68676E-06
 -1     11231 6.04816E-02-4.43188E-02 6.58188E-06
 -1     11232 6.04805E-02-4.43213E-02 8.48874E-06
 -1     11233 6.08175E-02-4.84863E-02-2.80631E-06
 -1     11234 6.08186E-02-4.84850E-02-2.13209E-06
 -1     11235 6.08195E-02-4.84839E-02-1.49082E-06
 -1     11236 6.08201E-02-4.84832E-02-8.80432E-07
 -1     11237 6.08204E-02-4.84828E-02-2.91026E-07
 -1     11238 6.08204E-02-4.84828E-02 2.91026E-07
 -1     11239 6.08201E-02-4.84832E-02 8.80432E-07
 -1     11240 6.08195E-02-4.84839E-02 1.49082E-06
 -1     11241 6.08186E-02-4.84850E-02 2.13209E-06
 -1     11242 6.08175E-02-4.84863E-02 2.80631E-06
 -1     11243 1.20258E-03 1.48761E-03-4.78608E-04
 -1     11244 1.22037E-03 1.45355E-03-3.58841E-04
 -1     11245 1.23359E-03 1.43575E-03-2.49296E-04
 -1     11246 1.24227E-03 1.42635E-03-1.46838E-04
 -1     11247 1.24657E-03 1.42222E-03-4.84970E-05
 -1     11248 1.24657E-03 1.42222E-03 4.84970E-05
 -1     11249 1.24227E-03 1.42635E-03 1.46838E-04
 -1     11250 1.23359E-03 1.43575E-03 2.49296E-04
 -1     11251 1.22037E-03 1.45355E-03 3.58841E-04
 -1     11252 1.20258E-03 1.48761E-03 4.78608E-04
 -1     11253 2.42932E-03 2.96118E-03-4.59912E-04
 -1     11254 2.44215E-03 2.95812E-03-3.62442E-04
 -1     11255 2.45311E-03 2.95035E-03-2.60714E-04
 -1     11256 2.46097E-03 2.94373E-03-1.56992E-04
 -1     11257 2.46504E-03 2.94013E-03-5.24100E-05
 -1     11258 2.46504E-03 2.94013E-03 5.24100E-05
 -1     11259 2.46097E-03 2.94373E-03 1.56992E-04
 -1     11260 2.45311E-03 2.95035E-03 2.60714E-04
 -1     11261 2.44215E-03 2.95812E-03 3.62442E-04
 -1     11262 2.42932E-03 2.96118E-03 4.59912E-04
 -1     11263 3.72159E-03 4.20119E-03-4.06899E-04
 -1     11264 3.73211E-03 4.20696E-03-3.17856E-04
 -1     11265 3.74031E-03 4.21030E-03-2.28215E-04
 -1     11266 3.74596E-03 4.21163E-03-1.37480E-04
 -1     11267 3.74885E-03 4.21199E-03-4.59245E-05
 -1     11268 3.74885E-03 4.21199E-03 4.59245E-05
 -1     11269 3.74596E-03 4.21163E-03 1.37480E-04
 -1     11270 3.74031E-03 4.21030E-03 2.28215E-04
 -1     11271 3.73211E-03 4.20696E-03 3.17856E-04
 -1     11272 3.72159E-03 4.20119E-03 4.06899E-04
 -1     11273 5.20115E-03 5.32151E-03-3.91436E-04
 -1     11274 5.21223E-03 5.32151E-03-3.03857E-04
 -1     11275 5.22078E-03 5.32231E-03-2.16744E-04
 -1     11276 5.22658E-03 5.32320E-03-1.29956E-04
 -1     11277 5.22950E-03 5.32373E-03-4.33074E-05
 -1     11278 5.22950E-03 5.32373E-03 4.33074E-05
 -1     11279 5.22658E-03 5.32320E-03 1.29956E-04
 -1     11280 5.22078E-03 5.32231E-03 2.16744E-04
 -1     11281 5.21223E-03 5.32151E-03 3.03857E-04
 -1     11282 5.20115E-03 5.32151E-03 3.91436E-04
 -1     11283 6.89804E-03 6.28881E-03-3.83608E-04
 -1     11284 6.90996E-03 6.28730E-03-2.98233E-04
 -1     11285 6.91902E-03 6.28617E-03-2.12913E-04
 -1     11286 6.92511E-03 6.28547E-03-1.27688E-04
 -1     11287 6.92818E-03 6.28515E-03-4.25510E-05
 -1     11288 6.92818E-03 6.28515E-03 4.25510E-05
 -1     11289 6.92511E-03 6.28547E-03 1.27688E-04
 -1     11290 6.91902E-03 6.28617E-03 2.12913E-04
 -1     11291 6.90996E-03 6.28730E-03 2.98233E-04
 -1     11292 6.89804E-03 6.28881E-03 3.83608E-04
 -1     11293 8.82919E-03 7.08662E-03-3.77877E-04
 -1     11294 8.84168E-03 7.08389E-03-2.93786E-04
 -1     11295 8.85114E-03 7.08192E-03-2.09797E-04
 -1     11296 8.85749E-03 7.08062E-03-1.25862E-04
 -1     11297 8.86068E-03 7.07998E-03-4.19514E-05
 -1     11298 8.86068E-03 7.07998E-03 4.19514E-05
 -1     11299 8.85749E-03 7.08062E-03 1.25862E-04
 -1     11300 8.85114E-03 7.08192E-03 2.09797E-04
 -1     11301 8.84168E-03 7.08389E-03 2.93786E-04
 -1     11302 8.82919E-03 7.08662E-03 3.77877E-04
 -1     11303 1.09958E-02 7.68989E-03-3.71580E-04
 -1     11304 1.10086E-02 7.68648E-03-2.88935E-04
 -1     11305 1.10182E-02 7.68392E-03-2.06341E-04
 -1     11306 1.10247E-02 7.68222E-03-1.23789E-04
 -1     11307 1.10279E-02 7.68138E-03-4.12606E-05
 -1     11308 1.10279E-02 7.68138E-03 4.12606E-05
 -1     11309 1.10247E-02 7.68222E-03 1.23789E-04
 -1     11310 1.10182E-02 7.68392E-03 2.06341E-04
 -1     11311 1.10086E-02 7.68648E-03 2.88935E-04
 -1     11312 1.09958E-02 7.68989E-03 3.71580E-04
 -1     11313 1.33895E-02 8.07159E-03-3.64331E-04
 -1     11314 1.34023E-02 8.06761E-03-2.83300E-04
 -1     11315 1.34120E-02 8.06461E-03-2.02323E-04
 -1     11316 1.34185E-02 8.06261E-03-1.21381E-04
 -1     11317 1.34217E-02 8.06161E-03-4.04584E-05
 -1     11318 1.34217E-02 8.06161E-03 4.04584E-05
 -1     11319 1.34185E-02 8.06261E-03 1.21381E-04
 -1     11320 1.34120E-02 8.06461E-03 2.02323E-04
 -1     11321 1.34023E-02 8.06761E-03 2.83300E-04
 -1     11322 1.33895E-02 8.07159E-03 3.64331E-04
 -1     11323 1.59943E-02 8.20483E-03-3.55831E-04
 -1     11324 1.60070E-02 8.20040E-03-2.76694E-04
 -1     11325 1.60166E-02 8.19705E-03-1.97606E-04
 -1     11326 1.60230E-02 8.19481E-03-1.18552E-04
 -1     11327 1.60262E-02 8.19368E-03-3.95156E-05
 -1     11328 1.60262E-02 8.19368E-03 3.95156E-05
 -1     11329 1.60230E-02 8.19481E-03 1.18552E-04
 -1     11330 1.60166E-02 8.19705E-03 1.97606E-04
 -1     11331 1.60070E-02 8.20040E-03 2.76694E-04
 -1     11332 1.59943E-02 8.20483E-03 3.55831E-04
 -1     11333 1.87885E-02 8.06446E-03-3.45870E-04
 -1     11334 1.88010E-02 8.05967E-03-2.68951E-04
 -1     11335 1.88104E-02 8.05606E-03-1.92078E-04
 -1     11336 1.88167E-02 8.05363E-03-1.15236E-04
 -1     11337 1.88199E-02 8.05241E-03-3.84104E-05
 -1     11338 1.88199E-02 8.05241E-03 3.84104E-05
 -1     11339 1.88167E-02 8.05363E-03 1.15236E-04
 -1     11340 1.88104E-02 8.05606E-03 1.92078E-04
 -1     11341 1.88010E-02 8.05967E-03 2.68951E-04
 -1     11342 1.87885E-02 8.06446E-03 3.45870E-04
 -1     11343 2.17456E-02 7.62799E-03-3.34314E-04
 -1     11344 2.17577E-02 7.62297E-03-2.59967E-04
 -1     11345 2.17669E-02 7.61917E-03-1.85663E-04
 -1     11346 2.17730E-02 7.61661E-03-1.11388E-04
 -1     11347 2.17761E-02 7.61533E-03-3.71278E-05
 -1     11348 2.17761E-02 7.61533E-03 3.71278E-05
 -1     11349 2.17730E-02 7.61661E-03 1.11388E-04
 -1     11350 2.17669E-02 7.61917E-03 1.85663E-04
 -1     11351 2.17577E-02 7.62297E-03 2.59967E-04
 -1     11352 2.17456E-02 7.62799E-03 3.34314E-04
 -1     11353 2.48347E-02 6.87635E-03-3.21079E-04
 -1     11354 2.48464E-02 6.87120E-03-2.49677E-04
 -1     11355 2.48553E-02 6.86729E-03-1.78315E-04
 -1     11356 2.48611E-02 6.86466E-03-1.06980E-04
 -1     11357 2.48641E-02 6.86334E-03-3.56585E-05
 -1     11358 2.48641E-02 6.86334E-03 3.56585E-05
 -1     11359 2.48611E-02 6.86466E-03 1.06980E-04
 -1     11360 2.48553E-02 6.86729E-03 1.78315E-04
 -1     11361 2.48464E-02 6.87120E-03 2.49677E-04
 -1     11362 2.48347E-02 6.87635E-03 3.21079E-04
 -1     11363 2.80216E-02 5.79441E-03-3.06116E-04
 -1     11364 2.80328E-02 5.78924E-03-2.38042E-04
 -1     11365 2.80413E-02 5.78531E-03-1.70007E-04
 -1     11366 2.80469E-02 5.78267E-03-1.01995E-04
 -1     11367 2.80497E-02 5.78134E-03-3.39971E-05
 -1     11368 2.80497E-02 5.78134E-03 3.39971E-05
 -1     11369 2.80469E-02 5.78267E-03 1.01995E-04
 -1     11370 2.80413E-02 5.78531E-03 1.70007E-04
 -1     11371 2.80328E-02 5.78924E-03 2.38042E-04
 -1     11372 2.80216E-02 5.79441E-03 3.06116E-04
 -1     11373 3.12691E-02 4.37152E-03-2.89403E-04
 -1     11374 3.12798E-02 4.36645E-03-2.25047E-04
 -1     11375 3.12878E-02 4.36259E-03-1.60726E-04
 -1     11376 3.12932E-02 4.35999E-03-9.64274E-05
 -1     11377 3.12959E-02 4.35868E-03-3.21412E-05
 -1     11378 3.12959E-02 4.35868E-03 3.21412E-05
 -1     11379 3.12932E-02 4.35999E-03 9.64274E-05
 -1     11380 3.12878E-02 4.36259E-03 1.60726E-04
 -1     11381 3.12798E-02 4.36645E-03 2.25047E-04
 -1     11382 3.12691E-02 4.37152E-03 2.89403E-04
 -1     11383 3.45380E-02 2.60199E-03-2.70949E-04
 -1     11384 3.45481E-02 2.59715E-03-2.10697E-04
 -1     11385 3.45556E-02 2.59345E-03-1.50477E-04
 -1     11386 3.45607E-02 2.59095E-03-9.02789E-05
 -1     11387 3.45632E-02 2.58970E-03-3.00918E-05
 -1     11388 3.45632E-02 2.58970E-03 3.00918E-05
 -1     11389 3.45607E-02 2.59095E-03 9.02789E-05
 -1     11390 3.45556E-02 2.59345E-03 1.50477E-04
 -1     11391 3.45481E-02 2.59715E-03 2.10697E-04
 -1     11392 3.45380E-02 2.60199E-03 2.70949E-04
 -1     11393 3.77871E-02 4.85568E-04-2.50799E-04
 -1     11394 3.77966E-02 4.81071E-04-1.95027E-04
 -1     11395 3.78036E-02 4.77633E-04-1.39286E-04
 -1     11396 3.78084E-02 4.75311E-04-8.35646E-05
 -1     11397 3.78107E-02 4.74142E-04-2.78537E-05
 -1     11398 3.78107E-02 4.74142E-04 2.78537E-05
 -1     11399 3.78084E-02 4.75311E-04 8.35646E-05
 -1     11400 3.78036E-02 4.77633E-04 1.39286E-04
 -1     11401 3.77966E-02 4.81071E-04 1.95027E-04
 -1     11402 3.77871E-02 4.85568E-04 2.50799E-04
 -1     11403 4.09748E-02-1.97221E-03-2.29046E-04
 -1     11404 4.09836E-02-1.97623E-03-1.78111E-04
 -1     11405 4.09902E-02-1.97931E-03-1.27204E-04
 -1     11406 4.09945E-02-1.98139E-03-7.63157E-05
 -1     11407 4.09967E-02-1.98244E-03-2.54375E-05
 -1     11408 4.09967E-02-1.98244E-03 2.54375E-05
 -1     11409 4.09945E-02-1.98139E-03 7.63157E-05
 -1     11410 4.09902E-02-1.97931E-03 1.27204E-04
 -1     11411 4.09836E-02-1.97623E-03 1.78111E-04
 -1     11412 4.09748E-02-1.97221E-03 2.29046E-04
 -1     11413 4.40592E-02-4.75963E-03-2.05847E-04
 -1     11414 4.40673E-02-4.76304E-03-1.60069E-04
 -1     11415 4.40734E-02-4.76566E-03-1.14318E-04
 -1     11416 4.40774E-02-4.76744E-03-6.85845E-05
 -1     11417 4.40794E-02-4.76834E-03-2.28605E-05
 -1     11418 4.40794E-02-4.76834E-03 2.28605E-05
 -1     11419 4.40774E-02-4.76744E-03 6.85845E-05
 -1     11420 4.40734E-02-4.76566E-03 1.14318E-04
 -1     11421 4.40673E-02-4.76304E-03 1.60069E-04
 -1     11422 4.40592E-02-4.75963E-03 2.05847E-04
 -1     11423 4.69996E-02-7.85858E-03-1.81444E-04
 -1     11424 4.70070E-02-7.86125E-03-1.41090E-04
 -1     11425 4.70125E-02-7.86333E-03-1.00762E-04
 -1     11426 4.70161E-02-7.86475E-03-6.04510E-05
 -1     11427 4.70179E-02-7.86547E-03-2.01494E-05
 -1     11428 4.70179E-02-7.86547E-03 2.01494E-05
 -1     11429 4.70161E-02-7.86475E-03 6.04510E-05
 -1     11430 4.70125E-02-7.86333E-03 1.00762E-04
 -1     11431 4.70070E-02-7.86125E-03 1.41090E-04
 -1     11432 4.69996E-02-7.85858E-03 1.81444E-04
 -1     11433 4.97572E-02-1.12445E-02-1.56176E-04
 -1     11434 4.97639E-02-1.12463E-02-1.21437E-04
 -1     11435 4.97688E-02-1.12478E-02-8.67243E-05
 -1     11436 4.97720E-02-1.12488E-02-5.20285E-05
 -1     11437 4.97737E-02-1.12493E-02-1.73419E-05
 -1     11438 4.97737E-02-1.12493E-02 1.73419E-05
 -1     11439 4.97720E-02-1.12488E-02 5.20285E-05
 -1     11440 4.97688E-02-1.12478E-02 8.67243E-05
 -1     11441 4.97639E-02-1.12463E-02 1.21437E-04
 -1     11442 4.97572E-02-1.12445E-02 1.56176E-04
 -1     11443 5.22967E-02-1.48865E-02-1.30503E-04
 -1     11444 5.23026E-02-1.48874E-02-1.01468E-04
 -1     11445 5.23070E-02-1.48881E-02-7.24607E-05
 -1     11446 5.23099E-02-1.48887E-02-4.34703E-05
 -1     11447 5.23113E-02-1.48890E-02-1.44891E-05
 -1     11448 5.23113E-02-1.48890E-02 1.44891E-05
 -1     11449 5.23099E-02-1.48887E-02 4.34703E-05
 -1     11450 5.23070E-02-1.48881E-02 7.24607E-05
 -1     11451 5.23026E-02-1.48874E-02 1.01468E-04
 -1     11452 5.22967E-02-1.48865E-02 1.30503E-04
 -1     11453 5.45876E-02-1.87479E-02-1.05018E-04
 -1     11454 5.45928E-02-1.87479E-02-8.16450E-05
 -1     11455 5.45966E-02-1.87479E-02-5.83004E-05
 -1     11456 5.45991E-02-1.87480E-02-3.49739E-05
 -1     11457 5.46003E-02-1.87480E-02-1.16570E-05
 -1     11458 5.46003E-02-1.87480E-02 1.16570E-05
 -1     11459 5.45991E-02-1.87480E-02 3.49739E-05
 -1     11460 5.45966E-02-1.87479E-02 5.83004E-05
 -1     11461 5.45928E-02-1.87479E-02 8.16450E-05
 -1     11462 5.45876E-02-1.87479E-02 1.05018E-04
 -1     11463 5.66055E-02-2.27874E-02-8.04538E-05
 -1     11464 5.66099E-02-2.27864E-02-6.25362E-05
 -1     11465 5.66132E-02-2.27857E-02-4.46502E-05
 -1     11466 5.66153E-02-2.27853E-02-2.67836E-05
 -1     11467 5.66163E-02-2.27851E-02-8.92685E-06
 -1     11468 5.66163E-02-2.27851E-02 8.92685E-06
 -1     11469 5.66153E-02-2.27853E-02 2.67836E-05
 -1     11470 5.66132E-02-2.27857E-02 4.46502E-05
 -1     11471 5.66099E-02-2.27864E-02 6.25362E-05
 -1     11472 5.66055E-02-2.27874E-02 8.04538E-05
 -1     11473 5.83337E-02-2.69603E-02-5.76726E-05
 -1     11474 5.83374E-02-2.69583E-02-4.48139E-05
 -1     11475 5.83400E-02-2.69570E-02-3.19903E-05
 -1     11476 5.83418E-02-2.69561E-02-1.91874E-05
 -1     11477 5.83426E-02-2.69557E-02-6.39480E-06
 -1     11478 5.83426E-02-2.69557E-02 6.39480E-06
 -1     11479 5.83418E-02-2.69561E-02 1.91874E-05
 -1     11480 5.83400E-02-2.69570E-02 3.19903E-05
 -1     11481 5.83374E-02-2.69583E-02 4.48139E-05
 -1     11482 5.83337E-02-2.69603E-02 5.76726E-05
 -1     11483 5.97642E-02-3.12208E-02-3.76424E-05
 -1     11484 5.97671E-02-3.12181E-02-2.92320E-05
 -1     11485 5.97692E-02-3.12162E-02-2.08599E-05
 -1     11486 5.97705E-02-3.12150E-02-1.25093E-05
 -1     11487 5.97712E-02-3.12144E-02-4.16881E-06
 -1     11488 5.97712E-02-3.12144E-02 4.16881E-06
 -1     11489 5.97705E-02-3.12150E-02 1.25093E-05
 -1     11490 5.97692E-02-3.12162E-02 2.08599E-05
 -1     11491 5.97671E-02-3.12181E-02 2.92320E-05
 -1     11492 5.97642E-02-3.12208E-02 3.76424E-05
 -1     11493 6.08984E-02-3.55253E-02-2.13732E-05
 -1     11494 6.09005E-02-3.55222E-02-1.65799E-05
 -1     11495 6.09021E-02-3.55200E-02-1.18256E-05
 -1     11496 6.09031E-02-3.55185E-02-7.09047E-06
 -1     11497 6.09036E-02-3.55178E-02-2.36289E-06
 -1     11498 6.09036E-02-3.55178E-02 2.36289E-06
 -1     11499 6.09031E-02-3.55185E-02 7.09047E-06
 -1     11500 6.09021E-02-3.55200E-02 1.18256E-05
 -1     11501 6.09005E-02-3.55222E-02 1.65799E-05
 -1     11502 6.08984E-02-3.55253E-02 2.13732E-05
 -1     11503 6.17471E-02-3.98360E-02-9.76473E-06
 -1     11504 6.17485E-02-3.98329E-02-7.56704E-06
 -1     11505 6.17496E-02-3.98307E-02-5.39882E-06
 -1     11506 6.17503E-02-3.98293E-02-3.23940E-06
 -1     11507 6.17507E-02-3.98286E-02-1.08007E-06
 -1     11508 6.17507E-02-3.98286E-02 1.08007E-06
 -1     11509 6.17503E-02-3.98293E-02 3.23940E-06
 -1     11510 6.17496E-02-3.98307E-02 5.39882E-06
 -1     11511 6.17485E-02-3.98329E-02 7.56704E-06
 -1     11512 6.17471E-02-3.98360E-02 9.76473E-06
 -1     11513 6.23288E-02-4.41265E-02-3.12148E-06
 -1     11514 6.23297E-02-4.41240E-02-2.41675E-06
 -1     11515 6.23304E-02-4.41222E-02-1.72549E-06
 -1     11516 6.23310E-02-4.41211E-02-1.03658E-06
 -1     11517 6.23313E-02-4.41205E-02-3.45900E-07
 -1     11518 6.23313E-02-4.41205E-02 3.45900E-07
 -1     11519 6.23310E-02-4.41211E-02 1.03658E-06
 -1     11520 6.23304E-02-4.41222E-02 1.72549E-06
 -1     11521 6.23297E-02-4.41240E-02 2.41675E-06
 -1     11522 6.23288E-02-4.41265E-02 3.12148E-06
 -1     11523 6.26657E-02-4.83886E-02 6.00734E-08
 -1     11524 6.26664E-02-4.83873E-02 8.87932E-08
 -1     11525 6.26671E-02-4.83863E-02 8.79342E-08
 -1     11526 6.26676E-02-4.83856E-02 6.31362E-08
 -1     11527 6.26678E-02-4.83852E-02 2.28356E-08
 -1     11528 6.26678E-02-4.83852E-02-2.28356E-08
 -1     11529 6.26676E-02-4.83856E-02-6.31362E-08
 -1     11530 6.26671E-02-4.83863E-02-8.79342E-08
 -1     11531 6.26664E-02-4.83873E-02-8.87931E-08
 -1     11532 6.26657E-02-4.83886E-02-6.00734E-08
 -3
    1PSTEP                         2           1           1          
  100CL  101 1.000000000       11532                     0    1           1
 -4  STRESS      6    1
 -5  SXX         1    4    1    1
 -5  SYY         1    4    2    2
 -5  SZZ         1    4    3    3
 -5  SXY         1    4    1    2
 -5  SYZ         1    4    2    3
 -5  SZX         1    4    3    1
 -1         1 7.32178E+01 1.70840E+02 7.32179E+01-1.39573E+01-3.08764E+01 1.10988E-05
 -1         2-3.06007E+01-7.14007E+01-3.06007E+01-1.46904E+01 6.86943E+00-2.06111E-06
 -1         3 1.86176E-01 1.03415E-01 4.33923E-02-2.79585E-02 6.76653E-03 1.63110E-02
 -1         4-1.21882E+02-1.49171E+03-7.89559E+01 6.15429E+02 3.78483E+02 1.76345E+02
 -1         5 7.32178E+01 1.70840E+02 7.32179E+01-1.39573E+01 3.08764E+01-1.10988E-05
 -1         6-3.06007E+01-7.14007E+01-3.06007E+01-1.46904E+01-6.86943E+00 2.06111E-06
 -1         7 1.86176E-01 1.03415E-01 4.33923E-02-2.79585E-02-6.76653E-03-1.63110E-02
 -1         8-1.21882E+02-1.49171E+03-7.89559E+01 6.15429E+02-3.78483E+02-1.76345E+02
 -1         9 5.91178E+01 1.37940E+02 5.91180E+01 2.67500E-02-2.69906E+01 6.58920E-06
 -1        10 5.07223E+01 1.18351E+02 5.07226E+01 5.46683E+00-2.43928E+01 4.75877E-06
 -1        11 4.36409E+01 1.01828E+02 4.36413E+01 7.77560E+00-2.14255E+01 8.05838E-06
 -1        12 3.76288E+01 8.78001E+01 3.76291E+01 8.53897E+00-1.86136E+01 7.54153E-06
 -1        13 3.23970E+01 7.55928E+01 3.23974E+01 8.47613E+00-1.60383E+01 6.71949E-06
 -1        14 2.77972E+01 6.48599E+01 2.77975E+01 7.96628E+00-1.37252E+01 5.84422E-06
 -1        15 2.37143E+01 5.53331E+01 2.37145E+01 7.21717E+00-1.16616E+01 5.03807E-06
 -1        16 2.00593E+01 4.68050E+01 2.00596E+01 6.34844E+00-9.82267E+00 4.32810E-06
 -1        17 1.67612E+01 3.91094E+01 1.67614E+01 5.42952E+00-8.18118E+00 3.70600E-06
 -1        18 1.37623E+01 3.21120E+01 1.37625E+01 4.50071E+00-6.71118E+00 3.15677E-06
 -1        19 1.10158E+01 2.57037E+01 1.10160E+01 3.58490E+00-5.38962E+00 2.66599E-06
 -1        20 8.48331E+00 1.97944E+01 8.48345E+00 2.69441E+00-4.19664E+00 2.22226E-06
 -1        21 6.13288E+00 1.43101E+01 6.13300E+00 1.83507E+00-3.11529E+00 1.81698E-06
 -1        22 3.93800E+00 9.18876E+00 3.93810E+00 1.00859E+00-2.13118E+00 1.44376E-06
 -1        23 1.87627E+00 4.37807E+00 1.87634E+00 2.14107E-01-1.23206E+00 1.09783E-06
 -1        24-7.14596E-02-1.66614E-01-7.14085E-02-5.50993E-01-4.07491E-01 7.75529E-07
 -1        25-1.92182E+00-4.48409E+00-1.92178E+00-1.29051E+00 3.51496E-01 4.74072E-07
 -1        26-3.68958E+00-8.60886E+00-3.68957E+00-2.00920E+00 1.05265E+00 1.91397E-07
 -1        27-5.38830E+00-1.25725E+01-5.38831E+00-2.71266E+00 1.70275E+00-7.38468E-08
 -1        28-7.03096E+00-1.64054E+01-7.03098E+00-3.40752E+00 2.30774E+00-3.22209E-07
 -1        29-8.63074E+00-2.01382E+01-8.63078E+00-4.10172E+00 2.87293E+00-5.53350E-07
 -1        30-1.02021E+01-2.38047E+01-1.02022E+01-4.80514E+00 3.40304E+00-7.66313E-07
 -1        31-1.17624E+01-2.74454E+01-1.17625E+01-5.53065E+00 3.90217E+00-9.61176E-07
 -1        32-1.33348E+01-3.11141E+01-1.33348E+01-6.29582E+00 4.37360E+00-1.14415E-06
 -1        33-1.49530E+01-3.48900E+01-1.49531E+01-7.12574E+00 4.81925E+00-1.34135E-06
 -1        34-1.66728E+01-3.89027E+01-1.66728E+01-8.05743E+00 5.23905E+00-1.62661E-06
 -1        35-1.85957E+01-4.33895E+01-1.85958E+01-9.14785E+00 5.62991E+00-2.19090E-06
 -1        36-2.09348E+01-4.88472E+01-2.09348E+01-1.04872E+01 5.99049E+00-3.68132E-06
 -1        37-2.42328E+01-5.65423E+01-2.42328E+01-1.22277E+01 6.33163E+00-3.74017E-06
 -1        38 4.05909E+00-4.25287E+01 6.43238E+00-3.79167E+00-4.76189E-01-3.41786E-02
 -1        39-1.38288E+00-3.83933E+01-1.81865E+00-4.74006E+00 3.01387E-01 1.88287E-01
 -1        40-3.84813E-01-3.67636E+01 5.36410E-01-6.17399E+00-9.81595E-02-1.12469E-01
 -1        41-1.50489E+00-3.57230E+01-9.29575E-02-7.73507E+00 2.97776E-02-3.63205E-02
 -1        42-2.30369E+00-3.42861E+01 5.43055E-02-9.32117E+00 2.41611E-02-6.17319E-02
 -1        43-3.37098E+00-3.28305E+01 2.95394E-02-1.08037E+01 2.58374E-02-6.11719E-02
 -1        44-4.54283E+00-3.11738E+01 3.69440E-02-1.21237E+01 2.45835E-02-6.59527E-02
 -1        45-5.81452E+00-2.93086E+01 3.32021E-02-1.32295E+01 2.41721E-02-6.77959E-02
 -1        46-7.13700E+00-2.72394E+01 3.15858E-02-1.40872E+01 2.40053E-02-6.88771E-02
 -1        47-8.46689E+00-2.49991E+01 2.98533E-02-1.46710E+01 2.37575E-02-6.91341E-02
 -1        48-9.75499E+00-2.26284E+01 2.86020E-02-1.49644E+01 2.32930E-02-6.88450E-02
 -1        49-1.09501E+01-2.01735E+01 2.76642E-02-1.49593E+01 2.24930E-02-6.81344E-02
 -1        50-1.19999E+01-1.76835E+01 2.70248E-02-1.46565E+01 2.12681E-02-6.71166E-02
 -1        51-1.28524E+01-1.52090E+01 2.66012E-02-1.40665E+01 1.95436E-02-6.58800E-02
 -1        52-1.34584E+01-1.28002E+01 2.62950E-02-1.32090E+01 1.72667E-02-6.44903E-02
 -1        53-1.37733E+01-1.05055E+01 2.59761E-02-1.21137E+01 1.44084E-02-6.29876E-02
 -1        54-1.37603E+01-8.37034E+00 2.54819E-02-1.08205E+01 1.09684E-02-6.13813E-02
 -1        55-1.33939E+01-6.43519E+00 2.46136E-02-9.37889E+00 6.98063E-03-5.96426E-02
 -1        56-1.26639E+01-4.73368E+00 2.31365E-02-7.84726E+00 2.51974E-03-5.76957E-02
 -1        57-1.15793E+01-3.29057E+00 2.07840E-02-6.29137E+00-2.29262E-03-5.54080E-02
 -1        58-1.01733E+01-2.11966E+00 1.72670E-02-4.78154E+00-7.28110E-03-5.25802E-02
 -1        59-8.50658E+00-1.22190E+00 1.22885E-02-3.38863E+00-1.22098E-02-4.89360E-02
 -1        60-6.66997E+00-5.84226E-01 5.56131E-03-2.17864E+00-1.67750E-02-4.41125E-02
 -1        61-4.78474E+00-1.79492E-01-3.14855E-03-1.20606E+00-2.05899E-02-3.76433E-02
 -1        62-2.99922E+00 3.21243E-02-1.39356E-02-5.06269E-01-2.31784E-02-2.89594E-02
 -1        63-1.47958E+00 9.98756E-02-2.61835E-02-8.74463E-02-2.39168E-02-1.74033E-02
 -1        64-3.89985E-01 7.79136E-02-3.83867E-02 7.78998E-02-2.22645E-02-3.02849E-03
 -1        65 1.51503E-01 1.89905E-02-4.08613E-02 6.43384E-02-1.70678E-02 9.85370E-03
 -1        66 2.19654E-01 1.70954E-02-6.38164E-03-6.27273E-03-8.55764E-03 1.66926E-02
 -1        67 6.78389E-02 1.18486E-01 4.99394E-03-6.30133E-02 1.42639E-02-2.83705E-04
 -1        68 6.51905E-03 2.16082E-01-1.38882E-02-8.60512E-02 2.25985E-02-5.27800E-03
 -1        69-1.52514E-02 2.92991E-01-2.56684E-02-4.21354E-02 2.39995E-02-9.07744E-03
 -1        70-1.37134E-02 2.91861E-01-3.22205E-02 5.12447E-02 2.00954E-02-1.16602E-02
 -1        71-1.97716E-03 1.67071E-01-3.52506E-02 1.79342E-01 1.27446E-02-1.35349E-02
 -1        72 1.06363E-02-1.19527E-01-3.68018E-02 3.31772E-01 3.27039E-03-1.47726E-02
 -1        73 1.82700E-02-6.00094E-01-3.84229E-02 5.02162E-01-7.63893E-03-1.53537E-02
 -1        74 1.73426E-02-1.30358E+00-4.12638E-02 6.87071E-01-1.97109E-02-1.51966E-02
 -1        75 5.61224E-03-2.25816E+00-4.61840E-02 8.85157E-01-3.29469E-02-1.41917E-02
 -1        76-1.84974E-02-3.49338E+00-5.38795E-02 1.09662E+00-4.75331E-02-1.22070E-02
 -1        77-5.63640E-02-5.04215E+00-6.49932E-02 1.32288E+00-6.38021E-02-9.08378E-03
 -1        78-1.09510E-01-6.94271E+00-8.02156E-02 1.56651E+00-8.22317E-02-4.62542E-03
 -1        79-1.79898E-01-9.24090E+00-1.00388E-01 1.83124E+00-1.03476E-01 1.41925E-03
 -1        80-2.70243E-01-1.19929E+01-1.26623E-01 2.12228E+00-1.28436E-01 9.38055E-03
 -1        81-3.84426E-01-1.52690E+01-1.60465E-01 2.44676E+00-1.58384E-01 1.97040E-02
 -1        82-5.28088E-01-1.91585E+01-2.04122E-01 2.81456E+00-1.95194E-01 3.30050E-02
 -1        83-7.09563E-01-2.37773E+01-2.60792E-01 3.23972E+00-2.41776E-01 5.01527E-02
 -1        84-9.41352E-01-2.92777E+01-3.35132E-01 3.74268E+00-3.02875E-01 7.23984E-02
 -1        85-1.24253E+00-3.58640E+01-4.33896E-01 4.35417E+00-3.86560E-01 1.01566E-01
 -1        86-1.64284E+00-4.38143E+01-5.66932E-01 5.12159E+00-5.06920E-01 1.40347E-01
 -1        87-2.18989E+00-5.35152E+01-7.48609E-01 6.11977E+00-6.88587E-01 1.92682E-01
 -1        88-2.96416E+00-6.55221E+01-1.00259E+00 7.46954E+00-9.74554E-01 2.64814E-01
 -1        89-4.11075E+00-8.06773E+01-1.36947E+00 9.36954E+00-1.43576E+00 3.65359E-01
 -1        90-5.93111E+00-1.00422E+02-1.95946E+00 1.21686E+01-2.19833E+00 5.18719E-01
 -1        91-9.08860E+00-1.27418E+02-2.98422E+00 1.64816E+01-3.42048E+00 7.26354E-01
 -1        92-1.56027E+01-1.68776E+02-5.51788E+00 2.37411E+01-5.66060E+00 1.33829E+00
 -1        93-3.08288E+01-2.38823E+02-1.13286E+01 3.68121E+01-9.07293E+00 1.22732E+00
 -1        94-7.93462E+01-4.07189E+02-3.39874E+01 6.37458E+01-1.39290E+01 1.04029E+01
 -1        95-3.62095E+02-1.12931E+03-2.16206E+02 4.57122E+01-4.90592E+01-4.85624E+00
 -1        96 3.93505E+02 2.33712E+02 9.40118E+01 3.11504E+02-4.33180E+01 7.01149E+01
 -1        97 2.18182E+02 3.19793E+01-3.00528E+00 6.82131E+00 1.93267E+01 5.07040E+00
 -1        98 1.81461E+02 4.54464E+01 1.05338E+01 7.57158E+00 9.10325E-01-5.77482E+00
 -1        99 1.42641E+02 2.50810E+01 4.91441E+00 8.70957E+00 1.26200E+00-6.24524E+00
 -1       100 1.19655E+02 2.00765E+01 3.78995E+00 1.53087E+01 9.79081E-02-4.90554E+00
 -1       101 1.03845E+02 1.81502E+01 2.87251E+00 2.08321E+01-5.11547E-02-3.54606E+00
 -1       102 9.23382E+01 1.88842E+01 2.44565E+00 2.54995E+01-8.71881E-02-2.43978E+00
 -1       103 8.34035E+01 2.09293E+01 2.15681E+00 2.93430E+01-2.36806E-02-1.63325E+00
 -1       104 7.62656E+01 2.38791E+01 1.95303E+00 3.25840E+01 5.93508E-02-1.07538E+00
 -1       105 7.04385E+01 2.75105E+01 1.80173E+00 3.53975E+01 1.42764E-01-7.04552E-01
 -1       106 6.55618E+01 3.17324E+01 1.69359E+00 3.78992E+01 2.17188E-01-4.65602E-01
 -1       107 6.13387E+01 3.64963E+01 1.62183E+00 4.01415E+01 2.80848E-01-3.16981E-01
 -1       108 5.75268E+01 4.17657E+01 1.58025E+00 4.21251E+01 3.34023E-01-2.29576E-01
 -1       109 5.39371E+01 4.74986E+01 1.56267E+00 4.38152E+01 3.77505E-01-1.83917E-01
 -1       110 5.04325E+01 5.36404E+01 1.56337E+00 4.51550E+01 4.11878E-01-1.67213E-01
 -1       111 4.69229E+01 6.01205E+01 1.57733E+00 4.60778E+01 4.37389E-01-1.71048E-01
 -1       112 4.33591E+01 6.68504E+01 1.60019E+00 4.65153E+01 4.54009E-01-1.89741E-01
 -1       113 3.97258E+01 7.37231E+01 1.62802E+00 4.64039E+01 4.61601E-01-2.19234E-01
 -1       114 3.60348E+01 8.06103E+01 1.65672E+00 4.56889E+01 4.60153E-01-2.56322E-01
 -1       115 3.23174E+01 8.73576E+01 1.68116E+00 4.43277E+01 4.50094E-01-2.98033E-01
 -1       116 2.86181E+01 9.37743E+01 1.69359E+00 4.22919E+01 4.32533E-01-3.41070E-01
 -1       117 2.49863E+01 9.96176E+01 1.68209E+00 3.95709E+01 4.09110E-01-3.81052E-01
 -1       118 2.14680E+01 1.04568E+02 1.62631E+00 3.61784E+01 3.79793E-01-4.11922E-01
 -1       119 1.81011E+01 1.08216E+02 1.50441E+00 3.21672E+01 3.39233E-01-4.22661E-01
 -1       120 1.48743E+01 1.10043E+02 1.25277E+00 2.76472E+01 2.55126E-01-4.01939E-01
 -1       121 1.18586E+01 1.09667E+02 9.72482E-01 2.28320E+01 8.60237E-02-2.93229E-01
 -1       122 8.50675E+00 1.06565E+02-2.43786E-03 1.78350E+01-4.84438E-01-1.68750E-01
 -1       123 8.03139E+00 1.05294E+02 2.18902E+00 1.33048E+01-1.18494E+00 7.18456E-01
 -1       124 3.89892E+00 1.14457E+02-3.28920E+00 1.99708E+00-7.90853E+00-7.31477E-01
 -1       125 5.91178E+01 1.37940E+02 5.91180E+01 2.67500E-02 2.69906E+01-6.58920E-06
 -1       126 5.07223E+01 1.18351E+02 5.07226E+01 5.46683E+00 2.43928E+01-4.75877E-06
 -1       127 4.36409E+01 1.01828E+02 4.36413E+01 7.77560E+00 2.14255E+01-8.05838E-06
 -1       128 3.76288E+01 8.78001E+01 3.76291E+01 8.53897E+00 1.86136E+01-7.54153E-06
 -1       129 3.23970E+01 7.55928E+01 3.23974E+01 8.47613E+00 1.60383E+01-6.71949E-06
 -1       130 2.77972E+01 6.48599E+01 2.77975E+01 7.96628E+00 1.37252E+01-5.84422E-06
 -1       131 2.37143E+01 5.53331E+01 2.37145E+01 7.21717E+00 1.16616E+01-5.03807E-06
 -1       132 2.00593E+01 4.68050E+01 2.00596E+01 6.34844E+00 9.82267E+00-4.32810E-06
 -1       133 1.67612E+01 3.91094E+01 1.67614E+01 5.42952E+00 8.18118E+00-3.70600E-06
 -1       134 1.37623E+01 3.21120E+01 1.37625E+01 4.50071E+00 6.71118E+00-3.15677E-06
 -1       135 1.10158E+01 2.57037E+01 1.10160E+01 3.58490E+00 5.38962E+00-2.66599E-06
 -1       136 8.48331E+00 1.97944E+01 8.48345E+00 2.69441E+00 4.19664E+00-2.22226E-06
 -1       137 6.13288E+00 1.43101E+01 6.13300E+00 1.83507E+00 3.11529E+00-1.81698E-06
 -1       138 3.93800E+00 9.18876E+00 3.93810E+00 1.00859E+00 2.13118E+00-1.44376E-06
 -1       139 1.87627E+00 4.37807E+00 1.87634E+00 2.14107E-01 1.23206E+00-1.09783E-06
 -1       140-7.14596E-02-1.66614E-01-7.14085E-02-5.50993E-01 4.07491E-01-7.75529E-07
 -1       141-1.92182E+00-4.48409E+00-1.92178E+00-1.29051E+00-3.51496E-01-4.74072E-07
 -1       142-3.68958E+00-8.60886E+00-3.68957E+00-2.00920E+00-1.05265E+00-1.91397E-07
 -1       143-5.38830E+00-1.25725E+01-5.38831E+00-2.71266E+00-1.70275E+00 7.38468E-08
 -1       144-7.03096E+00-1.64054E+01-7.03098E+00-3.40752E+00-2.30774E+00 3.22209E-07
 -1       145-8.63074E+00-2.01382E+01-8.63078E+00-4.10172E+00-2.87293E+00 5.53350E-07
 -1       146-1.02021E+01-2.38047E+01-1.02022E+01-4.80514E+00-3.40304E+00 7.66313E-07
 -1       147-1.17624E+01-2.74454E+01-1.17625E+01-5.53065E+00-3.90217E+00 9.61176E-07
 -1       148-1.33348E+01-3.11141E+01-1.33348E+01-6.29582E+00-4.37360E+00 1.14415E-06
 -1       149-1.49530E+01-3.48900E+01-1.49531E+01-7.12574E+00-4.81925E+00 1.34135E-06
 -1       150-1.66728E+01-3.89027E+01-1.66728E+01-8.05743E+00-5.23905E+00 1.62661E-06
 -1       151-1.85957E+01-4.33895E+01-1.85958E+01-9.14785E+00-5.62991E+00 2.19090E-06
 -1       152-2.09348E+01-4.88472E+01-2.09348E+01-1.04872E+01-5.99049E+00 3.68132E-06
 -1       153-2.42328E+01-5.65423E+01-2.42328E+01-1.22277E+01-6.33163E+00 3.74017E-06
 -1       154 4.05909E+00-4.25287E+01 6.43238E+00-3.79167E+00 4.76189E-01 3.41786E-02
 -1       155-1.38288E+00-3.83933E+01-1.81865E+00-4.74006E+00-3.01387E-01-1.88287E-01
 -1       156-3.84813E-01-3.67636E+01 5.36410E-01-6.17399E+00 9.81595E-02 1.12469E-01
 -1       157-1.50489E+00-3.57230E+01-9.29575E-02-7.73507E+00-2.97776E-02 3.63205E-02
 -1       158-2.30369E+00-3.42861E+01 5.43055E-02-9.32117E+00-2.41611E-02 6.17319E-02
 -1       159-3.37098E+00-3.28305E+01 2.95394E-02-1.08037E+01-2.58374E-02 6.11719E-02
 -1       160-4.54283E+00-3.11738E+01 3.69440E-02-1.21237E+01-2.45835E-02 6.59527E-02
 -1       161-5.81452E+00-2.93086E+01 3.32021E-02-1.32295E+01-2.41721E-02 6.77959E-02
 -1       162-7.13700E+00-2.72394E+01 3.15858E-02-1.40872E+01-2.40053E-02 6.88771E-02
 -1       163-8.46689E+00-2.49991E+01 2.98533E-02-1.46710E+01-2.37575E-02 6.91341E-02
 -1       164-9.75499E+00-2.26284E+01 2.86020E-02-1.49644E+01-2.32930E-02 6.88450E-02
 -1       165-1.09501E+01-2.01735E+01 2.76642E-02-1.49593E+01-2.24930E-02 6.81344E-02
 -1       166-1.19999E+01-1.76835E+01 2.70248E-02-1.46565E+01-2.12681E-02 6.71166E-02
 -1       167-1.28524E+01-1.52090E+01 2.66012E-02-1.40665E+01-1.95436E-02 6.58800E-02
 -1       168-1.34584E+01-1.28002E+01 2.62950E-02-1.32090E+01-1.72667E-02 6.44903E-02
 -1       169-1.37733E+01-1.05055E+01 2.59761E-02-1.21137E+01-1.44084E-02 6.29876E-02
 -1       170-1.37603E+01-8.37034E+00 2.54819E-02-1.08205E+01-1.09684E-02 6.13813E-02
 -1       171-1.33939E+01-6.43519E+00 2.46136E-02-9.37889E+00-6.98063E-03 5.96426E-02
 -1       172-1.26639E+01-4.73368E+00 2.31365E-02-7.84726E+00-2.51974E-03 5.76957E-02
 -1       173-1.15793E+01-3.29057E+00 2.07840E-02-6.29137E+00 2.29262E-03 5.54080E-02
 -1       174-1.01733E+01-2.11966E+00 1.72670E-02-4.78154E+00 7.28110E-03 5.25802E-02
 -1       175-8.50658E+00-1.22190E+00 1.22885E-02-3.38863E+00 1.22098E-02 4.89360E-02
 -1       176-6.66997E+00-5.84226E-01 5.56131E-03-2.17864E+00 1.67750E-02 4.41125E-02
 -1       177-4.78474E+00-1.79492E-01-3.14855E-03-1.20606E+00 2.05899E-02 3.76433E-02
 -1       178-2.99922E+00 3.21243E-02-1.39356E-02-5.06269E-01 2.31784E-02 2.89594E-02
 -1       179-1.47958E+00 9.98756E-02-2.61835E-02-8.74463E-02 2.39168E-02 1.74033E-02
 -1       180-3.89985E-01 7.79136E-02-3.83867E-02 7.78998E-02 2.22645E-02 3.02849E-03
 -1       181 1.51503E-01 1.89905E-02-4.08613E-02 6.43384E-02 1.70678E-02-9.85370E-03
 -1       182 2.19654E-01 1.70954E-02-6.38164E-03-6.27273E-03 8.55764E-03-1.66926E-02
 -1       183 6.78389E-02 1.18486E-01 4.99394E-03-6.30133E-02-1.42639E-02 2.83705E-04
 -1       184 6.51905E-03 2.16082E-01-1.38882E-02-8.60512E-02-2.25985E-02 5.27800E-03
 -1       185-1.52514E-02 2.92991E-01-2.56684E-02-4.21354E-02-2.39995E-02 9.07744E-03
 -1       186-1.37134E-02 2.91861E-01-3.22205E-02 5.12447E-02-2.00954E-02 1.16602E-02
 -1       187-1.97716E-03 1.67071E-01-3.52506E-02 1.79342E-01-1.27446E-02 1.35349E-02
 -1       188 1.06363E-02-1.19527E-01-3.68018E-02 3.31772E-01-3.27039E-03 1.47726E-02
 -1       189 1.82700E-02-6.00094E-01-3.84229E-02 5.02162E-01 7.63893E-03 1.53537E-02
 -1       190 1.73426E-02-1.30358E+00-4.12638E-02 6.87071E-01 1.97109E-02 1.51966E-02
 -1       191 5.61224E-03-2.25816E+00-4.61840E-02 8.85157E-01 3.29469E-02 1.41917E-02
 -1       192-1.84974E-02-3.49338E+00-5.38795E-02 1.09662E+00 4.75331E-02 1.22070E-02
 -1       193-5.63640E-02-5.04215E+00-6.49932E-02 1.32288E+00 6.38021E-02 9.08378E-03
 -1       194-1.09510E-01-6.94271E+00-8.02156E-02 1.56651E+00 8.22317E-02 4.62542E-03
 -1       195-1.79898E-01-9.24090E+00-1.00388E-01 1.83124E+00 1.03476E-01-1.41925E-03
 -1       196-2.70243E-01-1.19929E+01-1.26623E-01 2.12228E+00 1.28436E-01-9.38055E-03
 -1       197-3.84426E-01-1.52690E+01-1.60465E-01 2.44676E+00 1.58384E-01-1.97040E-02
 -1       198-5.28088E-01-1.91585E+01-2.04122E-01 2.81456E+00 1.95194E-01-3.30050E-02
 -1       199-7.09563E-01-2.37773E+01-2.60792E-01 3.23972E+00 2.41776E-01-5.01527E-02
 -1       200-9.41352E-01-2.92777E+01-3.35132E-01 3.74268E+00 3.02875E-01-7.23984E-02
 -1       201-1.24253E+00-3.58640E+01-4.33896E-01 4.35417E+00 3.86560E-01-1.01566E-01
 -1       202-1.64284E+00-4.38143E+01-5.66932E-01 5.12159E+00 5.06920E-01-1.40347E-01
 -1       203-2.18989E+00-5.35152E+01-7.48609E-01 6.11977E+00 6.88587E-01-1.92682E-01
 -1       204-2.96416E+00-6.55221E+01-1.00259E+00 7.46954E+00 9.74554E-01-2.64814E-01
 -1       205-4.11075E+00-8.06773E+01-1.36947E+00 9.36954E+00 1.43576E+00-3.65359E-01
 -1       206-5.93111E+00-1.00422E+02-1.95946E+00 1.21686E+01 2.19833E+00-5.18719E-01
 -1       207-9.08860E+00-1.27418E+02-2.98422E+00 1.64816E+01 3.42048E+00-7.26354E-01
 -1       208-1.56027E+01-1.68776E+02-5.51788E+00 2.37411E+01 5.66060E+00-1.33829E+00
 -1       209-3.08288E+01-2.38823E+02-1.13286E+01 3.68121E+01 9.07293E+00-1.22732E+00
 -1       210-7.93462E+01-4.07189E+02-3.39874E+01 6.37458E+01 1.39290E+01-1.04029E+01
 -1       211-3.62095E+02-1.12931E+03-2.16206E+02 4.57122E+01 4.90592E+01 4.85624E+00
 -1       212 3.93505E+02 2.33712E+02 9.40118E+01 3.11504E+02 4.33180E+01-7.01149E+01
 -1       213 2.18182E+02 3.19793E+01-3.00528E+00 6.82131E+00-1.93267E+01-5.07040E+00
 -1       214 1.81461E+02 4.54464E+01 1.05338E+01 7.57158E+00-9.10325E-01 5.77482E+00
 -1       215 1.42641E+02 2.50810E+01 4.91441E+00 8.70957E+00-1.26200E+00 6.24524E+00
 -1       216 1.19655E+02 2.00765E+01 3.78995E+00 1.53087E+01-9.79081E-02 4.90554E+00
 -1       217 1.03845E+02 1.81502E+01 2.87251E+00 2.08321E+01 5.11547E-02 3.54606E+00
 -1       218 9.23382E+01 1.88842E+01 2.44565E+00 2.54995E+01 8.71881E-02 2.43978E+00
 -1       219 8.34035E+01 2.09293E+01 2.15681E+00 2.93430E+01 2.36806E-02 1.63325E+00
 -1       220 7.62656E+01 2.38791E+01 1.95303E+00 3.25840E+01-5.93508E-02 1.07538E+00
 -1       221 7.04385E+01 2.75105E+01 1.80173E+00 3.53975E+01-1.42764E-01 7.04552E-01
 -1       222 6.55618E+01 3.17324E+01 1.69359E+00 3.78992E+01-2.17188E-01 4.65602E-01
 -1       223 6.13387E+01 3.64963E+01 1.62183E+00 4.01415E+01-2.80848E-01 3.16981E-01
 -1       224 5.75268E+01 4.17657E+01 1.58025E+00 4.21251E+01-3.34023E-01 2.29576E-01
 -1       225 5.39371E+01 4.74986E+01 1.56267E+00 4.38152E+01-3.77505E-01 1.83917E-01
 -1       226 5.04325E+01 5.36404E+01 1.56337E+00 4.51550E+01-4.11878E-01 1.67213E-01
 -1       227 4.69229E+01 6.01205E+01 1.57733E+00 4.60778E+01-4.37389E-01 1.71048E-01
 -1       228 4.33591E+01 6.68504E+01 1.60019E+00 4.65153E+01-4.54009E-01 1.89741E-01
 -1       229 3.97258E+01 7.37231E+01 1.62802E+00 4.64039E+01-4.61601E-01 2.19234E-01
 -1       230 3.60348E+01 8.06103E+01 1.65672E+00 4.56889E+01-4.60153E-01 2.56322E-01
 -1       231 3.23174E+01 8.73576E+01 1.68116E+00 4.43277E+01-4.50094E-01 2.98033E-01
 -1       232 2.86181E+01 9.37743E+01 1.69359E+00 4.22919E+01-4.32533E-01 3.41070E-01
 -1       233 2.49863E+01 9.96176E+01 1.68209E+00 3.95709E+01-4.09110E-01 3.81052E-01
 -1       234 2.14680E+01 1.04568E+02 1.62631E+00 3.61784E+01-3.79793E-01 4.11922E-01
 -1       235 1.81011E+01 1.08216E+02 1.50441E+00 3.21672E+01-3.39233E-01 4.22661E-01
 -1       236 1.48743E+01 1.10043E+02 1.25277E+00 2.76472E+01-2.55126E-01 4.01939E-01
 -1       237 1.18586E+01 1.09667E+02 9.72482E-01 2.28320E+01-8.60237E-02 2.93229E-01
 -1       238 8.50675E+00 1.06565E+02-2.43786E-03 1.78350E+01 4.84438E-01 1.68750E-01
 -1       239 8.03139E+00 1.05294E+02 2.18902E+00 1.33048E+01 1.18494E+00-7.18456E-01
 -1       240 3.89892E+00 1.14457E+02-3.28920E+00 1.99708E+00 7.90853E+00 7.31477E-01
 -1       241 6.09075E+01 1.42116E+02 6.09075E+01-1.52508E+01-2.11711E+01 1.00784E-05
 -1       242 5.86499E+01 1.36848E+02 5.86498E+01-1.64360E+01-1.48199E+01 5.48290E-06
 -1       243 5.79061E+01 1.35113E+02 5.79059E+01-1.72365E+01-9.94310E+00 4.11270E-06
 -1       244 5.76948E+01 1.34620E+02 5.76946E+01-1.77309E+01-5.75022E+00 2.74456E-06
 -1       245 5.76444E+01 1.34502E+02 5.76442E+01-1.79674E+01-1.88409E+00 9.61510E-07
 -1       246 5.76444E+01 1.34502E+02 5.76442E+01-1.79674E+01 1.88409E+00-9.61510E-07
 -1       247 5.76948E+01 1.34620E+02 5.76946E+01-1.77309E+01 5.75022E+00-2.74456E-06
 -1       248 5.79061E+01 1.35113E+02 5.79059E+01-1.72365E+01 9.94310E+00-4.11270E-06
 -1       249 5.86499E+01 1.36848E+02 5.86498E+01-1.64360E+01 1.48199E+01-5.48290E-06
 -1       250 6.09075E+01 1.42116E+02 6.09075E+01-1.52508E+01 2.11711E+01-1.00784E-05
 -1       251-2.94971E+01-6.88258E+01-2.94972E+01-1.49973E+01 5.36796E+00-1.81380E-06
 -1       252-2.89754E+01-6.76083E+01-2.89754E+01-1.52490E+01 4.01957E+00-1.99552E-06
 -1       253-2.87117E+01-6.69930E+01-2.87116E+01-1.54326E+01 2.79063E+00-1.57124E-06
 -1       254-2.85777E+01-6.66805E+01-2.85777E+01-1.55521E+01 1.64312E+00-9.66044E-07
 -1       255-2.85206E+01-6.65472E+01-2.85205E+01-1.56108E+01 5.42599E-01-3.23513E-07
 -1       256-2.85206E+01-6.65472E+01-2.85205E+01-1.56108E+01-5.42599E-01 3.23513E-07
 -1       257-2.85777E+01-6.66805E+01-2.85777E+01-1.55521E+01-1.64312E+00 9.66044E-07
 -1       258-2.87117E+01-6.69930E+01-2.87116E+01-1.54326E+01-2.79063E+00 1.57124E-06
 -1       259-2.89754E+01-6.76083E+01-2.89754E+01-1.52490E+01-4.01957E+00 1.99552E-06
 -1       260-2.94971E+01-6.88258E+01-2.94972E+01-1.49973E+01-5.36796E+00 1.81380E-06
 -1       261 1.74755E-01 8.96574E-02 2.92159E-02-6.96797E-03 7.52751E-03 1.86025E-02
 -1       262 1.71764E-01 9.03971E-02 8.28251E-03 2.99162E-03 9.45417E-03 2.10594E-02
 -1       263 1.67974E-01 9.08448E-02-1.94939E-02 8.21800E-03 9.08919E-03 1.68668E-02
 -1       264 1.64726E-01 9.07061E-02-4.26243E-02 1.09724E-02 6.38987E-03 1.05190E-02
 -1       265 1.62909E-01 9.04784E-02-5.53640E-02 1.21771E-02 2.28138E-03 3.54684E-03
 -1       266 1.62909E-01 9.04784E-02-5.53640E-02 1.21771E-02-2.28138E-03-3.54684E-03
 -1       267 1.64726E-01 9.07061E-02-4.26243E-02 1.09724E-02-6.38987E-03-1.05190E-02
 -1       268 1.67974E-01 9.08448E-02-1.94939E-02 8.21800E-03-9.08919E-03-1.68668E-02
 -1       269 1.71764E-01 9.03971E-02 8.28251E-03 2.99162E-03-9.45417E-03-2.10594E-02
 -1       270 1.74755E-01 8.96574E-02 2.92159E-02-6.96797E-03-7.52751E-03-1.86025E-02
 -1       271 1.30818E+02-7.40868E+02 1.39689E+02 2.76731E+02 2.14449E+02 8.65908E+01
 -1       272 3.39831E+01-7.93021E+02-3.12564E+01 2.78526E+02 2.76595E+01 5.92094E+01
 -1       273 7.21036E+00-8.01002E+02-1.08166E+02 2.74904E+02 1.52660E+01 2.80721E+01
 -1       274-5.73402E+00-8.07196E+02-1.46236E+02 2.74002E+02 7.10906E+00 1.34934E+01
 -1       275-1.00596E+01-8.09084E+02-1.60545E+02 2.73548E+02 2.16915E+00 4.01981E+00
 -1       276-1.00596E+01-8.09084E+02-1.60545E+02 2.73548E+02-2.16915E+00-4.01981E+00
 -1       277-5.73402E+00-8.07196E+02-1.46236E+02 2.74002E+02-7.10906E+00-1.34934E+01
 -1       278 7.21036E+00-8.01002E+02-1.08166E+02 2.74904E+02-1.52660E+01-2.80721E+01
 -1       279 3.39831E+01-7.93021E+02-3.12564E+01 2.78526E+02-2.76595E+01-5.92094E+01
 -1       280 1.30818E+02-7.40868E+02 1.39689E+02 2.76731E+02-2.14449E+02-8.65908E+01
 -1       281 7.11024E+00 9.71653E+01-4.53321E+00 6.30900E+00-5.72062E+00-4.68607E-01
 -1       282 6.66457E+00 9.13994E+01 2.92462E-01 1.14689E+01-1.55413E-01-2.79998E-01
 -1       283 7.21314E+00 9.04287E+01-1.01560E+00 1.59898E+01 1.85349E-01-3.79813E-01
 -1       284 9.49489E+00 9.13810E+01-4.75463E-01 1.95587E+01 3.77840E-01-4.19693E-01
 -1       285 1.17600E+01 9.11027E+01-3.31367E-01 2.29855E+01 3.45130E-01-4.35793E-01
 -1       286 1.41903E+01 8.95706E+01-1.63378E-01 2.62554E+01 3.17058E-01-4.28747E-01
 -1       287 1.67468E+01 8.68062E+01-6.25668E-02 2.92645E+01 2.96147E-01-4.10319E-01
 -1       288 1.94433E+01 8.30706E+01 3.25264E-03 3.19105E+01 2.90880E-01-3.84095E-01
 -1       289 2.22630E+01 7.86155E+01 4.40274E-02 3.41235E+01 2.95122E-01-3.53131E-01
 -1       290 2.51778E+01 7.36570E+01 7.14770E-02 3.58632E+01 3.03329E-01-3.19565E-01
 -1       291 2.81530E+01 6.83671E+01 9.23801E-02 3.71109E+01 3.11265E-01-2.85294E-01
 -1       292 3.11552E+01 6.28841E+01 1.10827E-01 3.78645E+01 3.16625E-01-2.51915E-01
 -1       293 3.41574E+01 5.73219E+01 1.29095E-01 3.81338E+01 3.18494E-01-2.20808E-01
 -1       294 3.71441E+01 5.17760E+01 1.48573E-01 3.79375E+01 3.16836E-01-1.93241E-01
 -1       295 4.01148E+01 4.63266E+01 1.70214E-01 3.72994E+01 3.12112E-01-1.70558E-01
 -1       296 4.30860E+01 4.10401E+01 1.94639E-01 3.62433E+01 3.05086E-01-1.54464E-01
 -1       297 4.60905E+01 3.59692E+01 2.21856E-01 3.47863E+01 2.96809E-01-1.47460E-01
 -1       298 4.91718E+01 3.11539E+01 2.50458E-01 3.29304E+01 2.88831E-01-1.53506E-01
 -1       299 5.23693E+01 2.66234E+01 2.75959E-01 3.06510E+01 2.83870E-01-1.78960E-01
 -1       300 5.56865E+01 2.23995E+01 2.87886E-01 2.78857E+01 2.87328E-01-2.33575E-01
 -1       301 5.90318E+01 1.85040E+01 2.64236E-01 2.45236E+01 3.10830E-01-3.30710E-01
 -1       302 6.21142E+01 1.49713E+01 1.64646E-01 2.04075E+01 3.78122E-01-4.84455E-01
 -1       303 6.42631E+01 1.18561E+01-9.26368E-02 1.53614E+01 5.41573E-01-6.97162E-01
 -1       304 6.41128E+01 9.25054E+00-6.30741E-01 9.31499E+00 8.87699E-01-9.27640E-01
 -1       305 5.89384E+01 7.11035E+00-1.83370E+00 2.52135E+00 1.65758E+00-1.00737E+00
 -1       306 4.29441E+01 4.92418E+00-4.02024E+00-3.04042E+00 2.95462E+00-4.73264E-01
 -1       307 6.78903E+00-7.83796E-02-9.44931E+00-3.18328E+00 6.58405E+00 1.55412E+00
 -1       308-7.72824E+01-2.71563E+01-1.41805E+01 3.29443E+01 8.45899E+00 5.22954E+00
 -1       309-4.93134E+01-5.91908E+01 2.34575E+01 6.61311E+01 2.98418E+01-7.40444E+00
 -1       310 1.48311E+01 8.39470E+01-4.19917E+00 8.15947E+00-4.76907E+00-4.99903E-01
 -1       311 9.76570E+00 7.71379E+01-5.65051E-01 1.04785E+01-1.01031E-02-2.78141E-01
 -1       312 1.03476E+01 7.83292E+01-1.33240E+00 1.33482E+01 2.75031E-01-3.10086E-01
 -1       313 1.24313E+01 7.93630E+01-6.27833E-01 1.58733E+01 3.97880E-01-2.80675E-01
 -1       314 1.42769E+01 7.91059E+01-4.93035E-01 1.80787E+01 3.17073E-01-2.84632E-01
 -1       315 1.60423E+01 7.79005E+01-3.62832E-01 2.01688E+01 2.57834E-01-2.75639E-01
 -1       316 1.77481E+01 7.58289E+01-3.00026E-01 2.21525E+01 2.19576E-01-2.62778E-01
 -1       317 1.94780E+01 7.30687E+01-2.61181E-01 2.39876E+01 2.04356E-01-2.44772E-01
 -1       318 2.12712E+01 6.97681E+01-2.37799E-01 2.56166E+01 2.02536E-01-2.23622E-01
 -1       319 2.31425E+01 6.60522E+01-2.21008E-01 2.69879E+01 2.06967E-01-2.00579E-01
 -1       320 2.50885E+01 6.20217E+01-2.06993E-01 2.80600E+01 2.12864E-01-1.76917E-01
 -1       321 2.70971E+01 5.77600E+01-1.93998E-01 2.88007E+01 2.17795E-01-1.53668E-01
 -1       322 2.91531E+01 5.33399E+01-1.81631E-01 2.91856E+01 2.20843E-01-1.31680E-01
 -1       323 3.12412E+01 4.88273E+01-1.70208E-01 2.91949E+01 2.22001E-01-1.11650E-01
 -1       324 3.33465E+01 4.42826E+01-1.60584E-01 2.88103E+01 2.21789E-01-9.42167E-02
 -1       325 3.54526E+01 3.97628E+01-1.54299E-01 2.80104E+01 2.21086E-01-8.00924E-02
 -1       326 3.75340E+01 3.53224E+01-1.54090E-01 2.67667E+01 2.21153E-01-7.02829E-02
 -1       327 3.95426E+01 3.10168E+01-1.64915E-01 2.50378E+01 2.23892E-01-6.64224E-02
 -1       328 4.13803E+01 2.69065E+01-1.95737E-01 2.27659E+01 2.32477E-01-7.12107E-02
 -1       329 4.28523E+01 2.30650E+01-2.62553E-01 1.98786E+01 2.52764E-01-8.87307E-02
 -1       330 4.35884E+01 1.95891E+01-3.92692E-01 1.63047E+01 2.95896E-01-1.23901E-01
 -1       331 4.29210E+01 1.66090E+01-6.31744E-01 1.20233E+01 3.83587E-01-1.79285E-01
 -1       332 3.97113E+01 1.42956E+01-1.04468E+00 7.18951E+00 5.53333E-01-2.45488E-01
 -1       333 3.21490E+01 1.28126E+01-1.72677E+00 2.40579E+00 8.77000E-01-2.81857E-01
 -1       334 1.76521E+01 1.21752E+01-2.67451E+00-6.13429E-01 1.42152E+00-1.77840E-01
 -1       335-6.00283E+00 1.15449E+01-3.72173E+00 1.92843E+00 2.41242E+00 2.06027E-01
 -1       336-3.82168E+01 6.51673E+00-2.65003E+00 1.89785E+01 3.36924E+00 9.88708E-01
 -1       337-4.36707E+01-1.36801E+01 6.90517E+00 5.41384E+01 5.14659E+00 1.06593E+00
 -1       338-3.67310E+01-1.64437E+02 3.67100E+00 7.87978E+01 5.02254E+00 8.19217E+00
 -1       339 1.66373E+01 7.24741E+01-3.58355E+00 9.33571E+00-3.81302E+00-6.41985E-01
 -1       340 1.29500E+01 6.61444E+01-4.28183E-01 9.27824E+00 7.46702E-03-3.60617E-01
 -1       341 1.25633E+01 6.74993E+01-1.26061E+00 1.06788E+01 2.91416E-01-3.50928E-01
 -1       342 1.41304E+01 6.90368E+01-5.46825E-01 1.22874E+01 3.77657E-01-2.90192E-01
 -1       343 1.55701E+01 6.90772E+01-3.61333E-01 1.37750E+01 2.90693E-01-2.72138E-01
 -1       344 1.68761E+01 6.82126E+01-2.23830E-01 1.51606E+01 2.27668E-01-2.56528E-01
 -1       345 1.80264E+01 6.66436E+01-1.68922E-01 1.64816E+01 1.89001E-01-2.42943E-01
 -1       346 1.91080E+01 6.45661E+01-1.44321E-01 1.77391E+01 1.74647E-01-2.27365E-01
 -1       347 2.01827E+01 6.20932E+01-1.35506E-01 1.89063E+01 1.74076E-01-2.09781E-01
 -1       348 2.12892E+01 5.92996E+01-1.32194E-01 1.99435E+01 1.79908E-01-1.90610E-01
 -1       349 2.24443E+01 5.62379E+01-1.30622E-01 2.08074E+01 1.87509E-01-1.70630E-01
 -1       350 2.36497E+01 5.29528E+01-1.29563E-01 2.14554E+01 1.94669E-01-1.50551E-01
 -1       351 2.48960E+01 4.94876E+01-1.29152E-01 2.18472E+01 2.00654E-01-1.30938E-01
 -1       352 2.61639E+01 4.58882E+01-1.30135E-01 2.19438E+01 2.05579E-01-1.12184E-01
 -1       353 2.74231E+01 4.22041E+01-1.33677E-01 2.17074E+01 2.10053E-01-9.45232E-02
 -1       354 2.86270E+01 3.84904E+01-1.41446E-01 2.10997E+01 2.15039E-01-7.80599E-02
 -1       355 2.97034E+01 3.48097E+01-1.55929E-01 2.00815E+01 2.21880E-01-6.28343E-02
 -1       356 3.05385E+01 3.12357E+01-1.80972E-01 1.86150E+01 2.32504E-01-4.89193E-02
 -1       357 3.09506E+01 2.78578E+01-2.22581E-01 1.66711E+01 2.49894E-01-3.65290E-02
 -1       358 3.06510E+01 2.47855E+01-2.89769E-01 1.42482E+01 2.78998E-01-2.59695E-02
 -1       359 2.91905E+01 2.21498E+01-3.94913E-01 1.14144E+01 3.28405E-01-1.70170E-02
 -1       360 2.58992E+01 2.00911E+01-5.50440E-01 8.39421E+00 4.12394E-01-6.69737E-03
 -1       361 1.98612E+01 1.87059E+01-7.57969E-01 5.73112E+00 5.54517E-01 1.51014E-02
 -1       362 1.00338E+01 1.78862E+01-9.60305E-01 4.57758E+00 7.81162E-01 7.49514E-02
 -1       363-4.11562E+00 1.68561E+01-9.62301E-01 7.06716E+00 1.13266E+00 2.09926E-01
 -1       364-2.11645E+01 1.28771E+01-1.26201E-01 1.66564E+01 1.52924E+00 4.81347E-01
 -1       365-3.25490E+01-1.32753E+00 2.55277E+00 3.57602E+01 1.99866E+00 8.58387E-01
 -1       366-3.18085E+01-5.01311E+01 4.84512E+00 5.86403E+01 1.92819E+00 1.87294E+00
 -1       367-2.52926E+01-1.49473E+02-2.75003E+00 5.50899E+01 6.63381E-03 1.30131E+00
 -1       368 1.64832E+01 6.24182E+01-3.38055E+00 9.50843E+00-3.00584E+00-6.23413E-01
 -1       369 1.44516E+01 5.69133E+01-2.15344E-01 8.28653E+00 2.38634E-03-4.08911E-01
 -1       370 1.41446E+01 5.83333E+01-1.07490E+00 8.46873E+00 2.55981E-01-3.62911E-01
 -1       371 1.51854E+01 5.99530E+01-4.77537E-01 9.22950E+00 3.24050E-01-2.87251E-01
 -1       372 1.61681E+01 6.02653E+01-3.10275E-01 1.01033E+01 2.45015E-01-2.57206E-01
 -1       373 1.70424E+01 5.97281E+01-1.79025E-01 1.09748E+01 1.90398E-01-2.35637E-01
 -1       374 1.77472E+01 5.85910E+01-1.28791E-01 1.18265E+01 1.58694E-01-2.20905E-01
 -1       375 1.83415E+01 5.70626E+01-1.09522E-01 1.26635E+01 1.48768E-01-2.06646E-01
 -1       376 1.88795E+01 5.52439E+01-1.06162E-01 1.34752E+01 1.50771E-01-1.91585E-01
 -1       377 1.94033E+01 5.31837E+01-1.08101E-01 1.42354E+01 1.58118E-01-1.75354E-01
 -1       378 1.99367E+01 5.09066E+01-1.11577E-01 1.49076E+01 1.66869E-01-1.58298E-01
 -1       379 2.04875E+01 4.84324E+01-1.15450E-01 1.54497E+01 1.75265E-01-1.40853E-01
 -1       380 2.10484E+01 4.57849E+01-1.19905E-01 1.58180E+01 1.82808E-01-1.23379E-01
 -1       381 2.15964E+01 4.29961E+01-1.25633E-01 1.59689E+01 1.89692E-01-1.06077E-01
 -1       382 2.20901E+01 4.01074E+01-1.33579E-01 1.58610E+01 1.96503E-01-8.89570E-02
 -1       383 2.24638E+01 3.71711E+01-1.44895E-01 1.54576E+01 2.04097E-01-7.18160E-02
 -1       384 2.26196E+01 3.42517E+01-1.60978E-01 1.47307E+01 2.13602E-01-5.42255E-02
 -1       385 2.24142E+01 3.14266E+01-1.83503E-01 1.36695E+01 2.26519E-01-3.55257E-02
 -1       386 2.16427E+01 2.87867E+01-2.14257E-01 1.22960E+01 2.44962E-01-1.48135E-02
 -1       387 2.00192E+01 2.64299E+01-2.54402E-01 1.06940E+01 2.72091E-01 9.14171E-03
 -1       388 1.71630E+01 2.44436E+01-3.02045E-01 9.05964E+00 3.12698E-01 3.82592E-02
 -1       389 1.26133E+01 2.28537E+01-3.46217E-01 7.78317E+00 3.73927E-01 7.59415E-02
 -1       390 5.92285E+00 2.15058E+01-3.51689E-01 7.56923E+00 4.64166E-01 1.28926E-01
 -1       391-3.05042E+00 1.97947E+01-2.34599E-01 9.55856E+00 5.91513E-01 2.07061E-01
 -1       392-1.35496E+01 1.60815E+01 1.78647E-01 1.53136E+01 7.42570E-01 3.27431E-01
 -1       393-2.27289E+01 6.68975E+00 1.08403E+00 2.60638E+01 8.86252E-01 4.96975E-01
 -1       394-2.64774E+01-1.61667E+01 2.09068E+00 4.03871E+01 9.00630E-01 7.58003E-01
 -1       395-2.21817E+01-6.03726E+01 1.41906E+00 4.97195E+01 3.50733E-01 8.19471E-01
 -1       396-1.44957E+01-1.21347E+02-2.16956E+00 3.91530E+01-8.81620E-01 9.46745E-01
 -1       397 1.56045E+01 5.37108E+01-3.15376E+00 9.12084E+00-2.33579E+00-5.77890E-01
 -1       398 1.48543E+01 4.90132E+01-7.65846E-02 7.26111E+00-4.98267E-03-4.03128E-01
 -1       399 1.48719E+01 5.03975E+01-8.64313E-01 6.65149E+00 2.15884E-01-3.56355E-01
 -1       400 1.56826E+01 5.19767E+01-3.70287E-01 6.71199E+00 2.65689E-01-2.77677E-01
 -1       401 1.63046E+01 5.24384E+01-2.42785E-01 7.04919E+00 1.99003E-01-2.43920E-01
 -1       402 1.68076E+01 5.21784E+01-1.33464E-01 7.49008E+00 1.56063E-01-2.20634E-01
 -1       403 1.71406E+01 5.14198E+01-9.23208E-02 7.97269E+00 1.33413E-01-2.05647E-01
 -1       404 1.73451E+01 5.03604E+01-7.76804E-02 8.48549E+00 1.28863E-01-1.92353E-01
 -1       405 1.74612E+01 4.90885E+01-7.70058E-02 9.02018E+00 1.33638E-01-1.78902E-01
 -1       406 1.75246E+01 4.76376E+01-8.10407E-02 9.55864E+00 1.42297E-01-1.64556E-01
 -1       407 1.75585E+01 4.60159E+01-8.64829E-02 1.00718E+01 1.51763E-01-1.49393E-01
 -1       408 1.75721E+01 4.42283E+01-9.22754E-02 1.05231E+01 1.60775E-01-1.33658E-01
 -1       409 1.75586E+01 4.22859E+01-9.84689E-02 1.08726E+01 1.69053E-01-1.17567E-01
 -1       410 1.74934E+01 4.02101E+01-1.05475E-01 1.10807E+01 1.76833E-01-1.01196E-01
 -1       411 1.73306E+01 3.80343E+01-1.13790E-01 1.11123E+01 1.84620E-01-8.44380E-02
 -1       412 1.69984E+01 3.58037E+01-1.23852E-01 1.09421E+01 1.93089E-01-6.69565E-02
 -1       413 1.63936E+01 3.35751E+01-1.35883E-01 1.05617E+01 2.03061E-01-4.81486E-02
 -1       414 1.53750E+01 3.14133E+01-1.49605E-01 9.99199E+00 2.15517E-01-2.71091E-02
 -1       415 1.37593E+01 2.93846E+01-1.63618E-01 9.30158E+00 2.31656E-01-2.60472E-03
 -1       416 1.13215E+01 2.75391E+01-1.74108E-01 8.63525E+00 2.52974E-01 2.69565E-02
 -1       417 7.81537E+00 2.58737E+01-1.72325E-01 8.25450E+00 2.81320E-01 6.35691E-02
 -1       418 3.03133E+00 2.42560E+01-1.39890E-01 8.58716E+00 3.18567E-01 1.09784E-01
 -1       419-3.06502E+00 2.22782E+01-4.27059E-02 1.02649E+01 3.65665E-01 1.68503E-01
 -1       420-1.00801E+01 1.89935E+01 1.73141E-01 1.40816E+01 4.18163E-01 2.43258E-01
 -1       421-1.68071E+01 1.25211E+01 5.53996E-01 2.06919E+01 4.62334E-01 3.34738E-01
 -1       422-2.11641E+01-4.17134E-01 1.01550E+00 2.97799E+01 4.58240E-01 4.41163E-01
 -1       423-2.08988E+01-2.37823E+01 1.12776E+00 3.85049E+01 3.11899E-01 5.14117E-01
 -1       424-1.57229E+01-5.88821E+01 3.54434E-01 4.07632E+01-1.39953E-01 5.32515E-01
 -1       425-9.42377E+00-9.93974E+01-1.67032E+00 2.88525E+01-8.58988E-01 4.75245E-01
 -1       426 1.43975E+01 4.60708E+01-2.92519E+00 8.40810E+00-1.79314E+00-5.24064E-01
 -1       427 1.45893E+01 4.21308E+01 2.02393E-02 6.20993E+00-1.44850E-02-3.78664E-01
 -1       428 1.49382E+01 4.34224E+01-6.90609E-01 5.08793E+00 1.78245E-01-3.33763E-01
 -1       429 1.56662E+01 4.48858E+01-2.73932E-01 4.62913E+00 2.12763E-01-2.61252E-01
 -1       430 1.60627E+01 4.54263E+01-1.81861E-01 4.52081E+00 1.58167E-01-2.28648E-01
 -1       431 1.62833E+01 4.53854E+01-9.73597E-02 4.59518E+00 1.26701E-01-2.06376E-01
 -1       432 1.63187E+01 4.49552E+01-6.75098E-02 4.77062E+00 1.12514E-01-1.92215E-01
 -1       433 1.62090E+01 4.43036E+01-5.76343E-02 5.02147E+00 1.12687E-01-1.79929E-01
 -1       434 1.59857E+01 4.35015E+01-5.85783E-02 5.33586E+00 1.19643E-01-1.67688E-01
 -1       435 1.56779E+01 4.25698E+01-6.30899E-02 5.69894E+00 1.29090E-01-1.54675E-01
 -1       436 1.53059E+01 4.15064E+01-6.86735E-02 6.08766E+00 1.38769E-01-1.40849E-01
 -1       437 1.48787E+01 4.03068E+01-7.44621E-02 6.47228E+00 1.47853E-01-1.26341E-01
 -1       438 1.43906E+01 3.89731E+01-8.03810E-02 6.81998E+00 1.56229E-01-1.11269E-01
 -1       439 1.38183E+01 3.75180E+01-8.65507E-02 7.09936E+00 1.64129E-01-9.56355E-02
 -1       440 1.31178E+01 3.59652E+01-9.30448E-02 7.28577E+00 1.71949E-01-7.92798E-02
 -1       441 1.22219E+01 3.43487E+01-9.97073E-02 7.36797E+00 1.80165E-01-6.18370E-02
 -1       442 1.10377E+01 3.27094E+01-1.05927E-01 7.35713E+00 1.89293E-01-4.27003E-02
 -1       443 9.44684E+00 3.10882E+01-1.10263E-01 7.29921E+00 1.99847E-01-2.09915E-02
 -1       444 7.31118E+00 2.95126E+01-1.09810E-01 7.29158E+00 2.12289E-01 4.44399E-03
 -1       445 4.48853E+00 2.79713E+01-9.91659E-02 7.50385E+00 2.26937E-01 3.49959E-02
 -1       446 8.69392E-01 2.63674E+01-6.89475E-02 8.19961E+00 2.43757E-01 7.21834E-02
 -1       447-3.55149E+00 2.44393E+01-4.35092E-03 9.74699E+00 2.61925E-01 1.17381E-01
 -1       448-8.55608E+00 2.16338E+01 1.14236E-01 1.25880E+01 2.78680E-01 1.71418E-01
 -1       449-1.35411E+01 1.69356E+01 3.01269E-01 1.71020E+01 2.87500E-01 2.33339E-01
 -1       450-1.74203E+01 8.71081E+00 5.32880E-01 2.32659E+01 2.74549E-01 2.98801E-01
 -1       451-1.87881E+01-5.13183E+00 6.89505E-01 3.00457E+01 2.10449E-01 3.52780E-01
 -1       452-1.66551E+01-2.61821E+01 5.47044E-01 3.48090E+01 5.50918E-02 3.75974E-01
 -1       453-1.15784E+01-5.34861E+01-9.38103E-02 3.35180E+01-2.50283E-01 3.40078E-01
 -1       454-6.39762E+00-8.16513E+01-1.22545E+00 2.22003E+01-6.34094E-01 2.94285E-01
 -1       455 1.30702E+01 3.93066E+01-2.67602E+00 7.52523E+00-1.35817E+00-4.73536E-01
 -1       456 1.39272E+01 3.60377E+01 8.37053E-02 5.15216E+00-2.42457E-02-3.48724E-01
 -1       457 1.45498E+01 3.72068E+01-5.48285E-01 3.70483E+00 1.45373E-01-3.06431E-01
 -1       458 1.52597E+01 3.85227E+01-1.95285E-01 2.87207E+00 1.68104E-01-2.42140E-01
 -1       459 1.55249E+01 3.90973E+01-1.29801E-01 2.41286E+00 1.24723E-01-2.13186E-01
 -1       460 1.55483E+01 3.92315E+01-6.68073E-02 2.18283E+00 1.03121E-01-1.93258E-01
 -1       461 1.53566E+01 3.90833E+01-4.73545E-02 2.10135E+00 9.58900E-02-1.80460E-01
 -1       462 1.49976E+01 3.87866E+01-4.19231E-02 2.13664E+00 9.96489E-02-1.69215E-01
 -1       463 1.45008E+01 3.83919E+01-4.40858E-02 2.27370E+00 1.08030E-01-1.57945E-01
 -1       464 1.38919E+01 3.79078E+01-4.85220E-02 2.49898E+00 1.17775E-01-1.45924E-01
 -1       465 1.31895E+01 3.73245E+01-5.35596E-02 2.79412E+00 1.27300E-01-1.33089E-01
 -1       466 1.24032E+01 3.66310E+01-5.85676E-02 3.13601E+00 1.36109E-01-1.19507E-01
 -1       467 1.15296E+01 3.58221E+01-6.33972E-02 3.49977E+00 1.44192E-01-1.05236E-01
 -1       468 1.05498E+01 3.49020E+01-6.79502E-02 3.86324E+00 1.51751E-01-9.02364E-02
 -1       469 9.42689E+00 3.38836E+01-7.19975E-02 4.21266E+00 1.59065E-01-7.43363E-02
 -1       470 8.10534E+00 3.27865E+01-7.50130E-02 4.54963E+00 1.66429E-01-5.71971E-02
 -1       471 6.51202E+00 3.16316E+01-7.59636E-02 4.89983E+00 1.74103E-01-3.82894E-02
 -1       472 4.56148E+00 3.04311E+01-7.30004E-02 5.32350E+00 1.82250E-01-1.68809E-02
 -1       473 2.16790E+00 2.91714E+01-6.30283E-02 5.92727E+00 1.90832E-01 7.94323E-03
 -1       474-7.31694E-01 2.77847E+01-4.11957E-02 6.87468E+00 1.99469E-01 3.71999E-02
 -1       475-4.13693E+00 2.61039E+01-5.78684E-04 8.38897E+00 2.07190E-01 7.18226E-02
 -1       476-7.92166E+00 2.37964E+01 6.71301E-02 1.07337E+01 2.12031E-01 1.12331E-01
 -1       477-1.17531E+01 2.02821E+01 1.67777E-01 1.41447E+01 2.10405E-01 1.58197E-01
 -1       478-1.50256E+01 1.46626E+01 2.94271E-01 1.86750E+01 1.96077E-01 2.06847E-01
 -1       479-1.68882E+01 5.75715E+00 4.07531E-01 2.39224E+01 1.58748E-01 2.51633E-01
 -1       480-1.64943E+01-7.57783E+00 4.23575E-01 2.87034E+01 8.32770E-02 2.81115E-01
 -1       481-1.35336E+01-2.56820E+01 2.26194E-01 3.09072E+01-4.31849E-02 2.78855E-01
 -1       482-8.84164E+00-4.69925E+01-2.32485E-01 2.79399E+01-2.38490E-01 2.36511E-01
 -1       483-4.61285E+00-6.74837E+01-9.35394E-01 1.76691E+01-4.61070E-01 1.93131E-01
 -1       484 1.17192E+01 3.32592E+01-2.40995E+00 6.56419E+00-1.01259E+00-4.28502E-01
 -1       485 1.30362E+01 3.05689E+01 1.24022E-01 4.11062E+00-3.31995E-02-3.19502E-01
 -1       486 1.38652E+01 3.15988E+01-4.33075E-01 2.45919E+00 1.17383E-01-2.79090E-01
 -1       487 1.45794E+01 3.27585E+01-1.34270E-01 1.36265E+00 1.31536E-01-2.23144E-01
 -1       488 1.47719E+01 3.33438E+01-8.85735E-02 6.35121E-01 9.82580E-02-1.98344E-01
 -1       489 1.46632E+01 3.36204E+01-4.25932E-02 1.60019E-01 8.46941E-02-1.81183E-01
 -1       490 1.43046E+01 3.37144E+01-3.13613E-02-1.32776E-01 8.27536E-02-1.69885E-01
 -1       491 1.37516E+01 3.37260E+01-2.95001E-02-2.74168E-01 8.89558E-02-1.59640E-01
 -1       492 1.30362E+01 3.36848E+01-3.25519E-02-2.79784E-01 9.80838E-02-1.49197E-01
 -1       493 1.21841E+01 3.35882E+01-3.67289E-02-1.61831E-01 1.07743E-01-1.37982E-01
 -1       494 1.12146E+01 3.34196E+01-4.10287E-02 6.52230E-02 1.16873E-01-1.25950E-01
 -1       495 1.01394E+01 3.31624E+01-4.50330E-02 3.84251E-01 1.25205E-01-1.13141E-01
 -1       496 8.95914E+00 3.28049E+01-4.85656E-02 7.77843E-01 1.32777E-01-9.95754E-02
 -1       497 7.66167E+00 3.23427E+01-5.14001E-02 1.23240E+00 1.39744E-01-8.51960E-02
 -1       498 6.22050E+00 3.17772E+01-5.31428E-02 1.74347E+00 1.46279E-01-6.98404E-02
 -1       499 4.59583E+00 3.11125E+01-5.31095E-02 2.32207E+00 1.52529E-01-5.32222E-02
 -1       500 2.73832E+00 3.03484E+01-5.01752E-02 3.00202E+00 1.58564E-01-3.49194E-02
 -1       501 5.97394E-01 2.94693E+01-4.25882E-02 3.84736E+00 1.64307E-01-1.43786E-02
 -1       502-1.86380E+00 2.84259E+01-2.77833E-02 4.95848E+00 1.69432E-01 9.04650E-03
 -1       503-4.64392E+00 2.71086E+01-2.32601E-03 6.47307E+00 1.73220E-01 3.59971E-02
 -1       504-7.66770E+00 2.53104E+01 3.76874E-02 8.55470E+00 1.74361E-01 6.69212E-02
 -1       505-1.07405E+01 2.26827E+01 9.50775E-02 1.13568E+01 1.70692E-01 1.01743E-01
 -1       506-1.35060E+01 1.86964E+01 1.67771E-01 1.49448E+01 1.58887E-01 1.39333E-01
 -1       507-1.54389E+01 1.26468E+01 2.41995E-01 1.91620E+01 1.34098E-01 1.76655E-01
 -1       508-1.59294E+01 3.76820E+00 2.84668E-01 2.34503E+01 9.01348E-02 2.07857E-01
 -1       509-1.45141E+01-8.45420E+00 2.43201E-01 2.67053E+01 2.04268E-02 2.23508E-01
 -1       510-1.12419E+01-2.37675E+01 6.18333E-02 2.73251E+01-7.61219E-02 2.12954E-01
 -1       511-6.99517E+00-4.05996E+01-2.67569E-01 2.36291E+01-2.05611E-01 1.72833E-01
 -1       512-3.47230E+00-5.59471E+01-7.25832E-01 1.44523E+01-3.38716E-01 1.35016E-01
 -1       513 1.03953E+01 2.78040E+01-2.12981E+00 5.57977E+00-7.40124E-01-3.89345E-01
 -1       514 1.20205E+01 2.56016E+01 1.47155E-01 3.10112E+00-4.04099E-02-2.93005E-01
 -1       515 1.29978E+01 2.64840E+01-3.38617E-01 1.32552E+00 9.37943E-02-2.53897E-01
 -1       516 1.37204E+01 2.74914E+01-8.77422E-02 4.60986E-02 1.02083E-01-2.05651E-01
 -1       517 1.38749E+01 2.80769E+01-5.67677E-02-8.81723E-01 7.76929E-02-1.84762E-01
 -1       518 1.36801E+01 2.84726E+01-2.39347E-02-1.54887E+00 7.04581E-02-1.70253E-01
 -1       519 1.32014E+01 2.87753E+01-1.87036E-02-2.01144E+00 7.23396E-02-1.60371E-01
 -1       520 1.25001E+01 2.90541E+01-1.94318E-02-2.29541E+00 8.00397E-02-1.51035E-01
 -1       521 1.16121E+01 2.93197E+01-2.30652E-02-2.41463E+00 8.94032E-02-1.41316E-01
 -1       522 1.05657E+01 2.95588E+01-2.69470E-02-2.37927E+00 9.87284E-02-1.30799E-01
 -1       523 9.38298E+00 2.97490E+01-3.05438E-02-2.20019E+00 1.07334E-01-1.19470E-01
 -1       524 8.07925E+00 2.98682E+01-3.35991E-02-1.88925E+00 1.15091E-01-1.07357E-01
 -1       525 6.66094E+00 2.98983E+01-3.59405E-02-1.45741E+00 1.22053E-01-9.44613E-02
 -1       526 5.12405E+00 2.98264E+01-3.72912E-02-9.11237E-01 1.28321E-01-8.07203E-02
 -1       527 3.45419E+00 2.96425E+01-3.72059E-02-2.48332E-01 1.33980E-01-6.59946E-02
 -1       528 1.62879E+00 2.93355E+01-3.49960E-02 5.47895E-01 1.39066E-01-5.00580E-02
 -1       529-3.77551E-01 2.88858E+01-2.96487E-02 1.51350E+00 1.43518E-01-3.25975E-02
 -1       530-2.58333E+00 2.82538E+01-1.97579E-02 2.70818E+00 1.47118E-01-1.32295E-02
 -1       531-4.98487E+00 2.73634E+01-3.52802E-03 4.21623E+00 1.49400E-01 8.45226E-03
 -1       532-7.53445E+00 2.60797E+01 2.10127E-02 6.14026E+00 1.49540E-01 3.27804E-02
 -1       533-1.01128E+01 2.41829E+01 5.53363E-02 8.58153E+00 1.46222E-01 5.98447E-02
 -1       534-1.25012E+01 2.13446E+01 9.88982E-02 1.15983E+01 1.37500E-01 8.92254E-02
 -1       535-1.43678E+01 1.71234E+01 1.46444E-01 1.51346E+01 1.20708E-01 1.19588E-01
 -1       536-1.52922E+01 1.10083E+01 1.84568E-01 1.89194E+01 9.25200E-02 1.48150E-01
 -1       537-1.48641E+01 2.55208E+00 1.89387E-01 2.23626E+01 4.95965E-02 1.70070E-01
 -1       538-1.28711E+01-8.37857E+00 1.30167E-01 2.45132E+01-1.02154E-02 1.78325E-01
 -1       539-9.54157E+00-2.12771E+01-2.07236E-02 2.41743E+01-8.42251E-02 1.65368E-01
 -1       540-5.70935E+00-3.47303E+01-2.58508E-01 2.02426E+01-1.73761E-01 1.30319E-01
 -1       541-2.71373E+00-4.64716E+01-5.70777E-01 1.20785E+01-2.58293E-01 9.67613E-02
 -1       542 9.12324E+00 2.28415E+01-1.83917E+00 4.60372E+00-5.27255E-01-3.55476E-01
 -1       543 1.09450E+01 2.10423E+01 1.57406E-01 2.13320E+00-4.51840E-02-2.69659E-01
 -1       544 1.20253E+01 2.17737E+01-2.60028E-01 2.86986E-01 7.39845E-02-2.31420E-01
 -1       545 1.27538E+01 2.26391E+01-5.24710E-02-1.11590E+00 7.85743E-02-1.90093E-01
 -1       546 1.28905E+01 2.32222E+01-3.25739E-02-2.18956E+00 6.18434E-02-1.72606E-01
 -1       547 1.26412E+01 2.37207E+01-9.86870E-03-3.00319E+00 5.94510E-02-1.60441E-01
 -1       548 1.20776E+01 2.42044E+01-8.82910E-03-3.59868E+00 6.39654E-02-1.51791E-01
 -1       549 1.12644E+01 2.47147E+01-1.13091E-02-3.99530E+00 7.24563E-02-1.43259E-01
 -1       550 1.02418E+01 2.52464E+01-1.52716E-02-4.20353E+00 8.17120E-02-1.34191E-01
 -1       551 9.04229E+00 2.57768E+01-1.88715E-02-4.23080E+00 9.05642E-02-1.24310E-01
 -1       552 7.69216E+00 2.62776E+01-2.18744E-02-4.08439E+00 9.85930E-02-1.13633E-01
 -1       553 6.21172E+00 2.67216E+01-2.41363E-02-3.77159E+00 1.05748E-01-1.02179E-01
 -1       554 4.61395E+00 2.70846E+01-2.55088E-02-3.29811E+00 1.12073E-01-8.99439E-02
 -1       555 2.90394E+00 2.73453E+01-2.57206E-02-2.66524E+00 1.17621E-01-7.68684E-02
 -1       556 1.07976E+00 2.74827E+01-2.43518E-02-1.86621E+00 1.22410E-01-6.28414E-02
 -1       557-8.64410E-01 2.74722E+01-2.08003E-02-8.82392E-01 1.26396E-01-4.76956E-02
 -1       558-2.93210E+00 2.72776E+01-1.42599E-02 3.19946E-01 1.29441E-01-3.12161E-02
 -1       559-5.11485E+00 2.68409E+01-3.73680E-03 1.79087E+00 1.31255E-01-1.31634E-02
 -1       560-7.37832E+00 2.60684E+01 1.18332E-02 3.59373E+00 1.31330E-01 6.67679E-03
 -1       561-9.64474E+00 2.48140E+01 3.32650E-02 5.79439E+00 1.28868E-01 2.84064E-02
 -1       562-1.17741E+01 2.28639E+01 6.04557E-02 8.43823E+00 1.22699E-01 5.18775E-02
 -1       563-1.35509E+01 1.99296E+01 9.12343E-02 1.15102E+01 1.11241E-01 7.64928E-02
 -1       564-1.46882E+01 1.56639E+01 1.19782E-01 1.48763E+01 9.25253E-02 1.00935E-01
 -1       565-1.48675E+01 9.72065E+00 1.35198E-01 1.82151E+01 6.44236E-02 1.22821E-01
 -1       566-1.38307E+01 1.87727E+00 1.21456E-01 2.09652E+01 2.53211E-02 1.38366E-01
 -1       567-1.15244E+01-7.77904E+00 6.08410E-02 2.23356E+01-2.49757E-02 1.42342E-01
 -1       568-8.25902E+00-1.86523E+01-6.02795E-02 2.14335E+01-8.28010E-02 1.29323E-01
 -1       569-4.78962E+00-2.95193E+01-2.35490E-01 1.75239E+01-1.47890E-01 9.92272E-02
 -1       570-2.19170E+00-3.86322E+01-4.55060E-01 1.02632E+01-2.04564E-01 6.91612E-02
 -1       571 7.91392E+00 1.82910E+01-1.54106E+00 3.65372E+00-3.62933E-01-3.26157E-01
 -1       572 9.85053E+00 1.68185E+01 1.57712E-01 1.21147E+00-4.70669E-02-2.49254E-01
 -1       573 1.10004E+01 1.73985E+01-1.93503E-01-6.68606E-01 5.73522E-02-2.11619E-01
 -1       574 1.17309E+01 1.81354E+01-2.57445E-02-2.15087E+00 5.99263E-02-1.76456E-01
 -1       575 1.18620E+01 1.87179E+01-1.42250E-02-3.32710E+00 4.96592E-02-1.61830E-01
 -1       576 1.15794E+01 1.93075E+01 6.14118E-04-4.24898E+00 5.08688E-02-1.51654E-01
 -1       577 1.09567E+01 1.99492E+01-1.19291E-03-4.94553E+00 5.71003E-02-1.44041E-01
 -1       578 1.00599E+01 2.06608E+01-4.80618E-03-5.42897E+00 6.58881E-02-1.36214E-01
 -1       579 8.93370E+00 2.14235E+01-8.91896E-03-5.70560E+00 7.48284E-02-1.27742E-01
 -1       580 7.61552E+00 2.22068E+01-1.22661E-02-5.77958E+00 8.31478E-02-1.18460E-01
 -1       581 6.13674E+00 2.29770E+01-1.47919E-02-5.65468E+00 9.05967E-02-1.08404E-01
 -1       582 4.52338E+00 2.37018E+01-1.64309E-02-5.33420E+00 9.71610E-02-9.75920E-02
 -1       583 2.79549E+00 2.43510E+01-1.70725E-02-4.81972E+00 1.02866E-01-8.60155E-02
 -1       584 9.67284E-01 2.48955E+01-1.64866E-02-4.10889E+00 1.07722E-01-7.36271E-02
 -1       585-9.51240E-01 2.53047E+01-1.43221E-02-3.19281E+00 1.11700E-01-6.03442E-02
 -1       586-2.95065E+00 2.55423E+01-1.01039E-02-2.05356E+00 1.14708E-01-4.60530E-02
 -1       587-5.01592E+00 2.55588E+01-3.25260E-03-6.62795E-01 1.16564E-01-3.06209E-02
 -1       588-7.11741E+00 2.52834E+01 6.84751E-03 1.01709E+00 1.16956E-01-1.39229E-02
 -1       589-9.19937E+00 2.46127E+01 2.06830E-02 3.02729E+00 1.15393E-01 4.11124E-03
 -1       590-1.11670E+01 2.33999E+01 3.82870E-02 5.39969E+00 1.11164E-01 2.34228E-02
 -1       591-1.28753E+01 2.14486E+01 5.86967E-02 8.13388E+00 1.03301E-01 4.37180E-02
 -1       592-1.41266E+01 1.85168E+01 7.91951E-02 1.11624E+01 9.05889E-02 6.43279E-02
 -1       593-1.46847E+01 1.43440E+01 9.45090E-02 1.43064E+01 7.16535E-02 8.40350E-02
 -1       594-1.43188E+01 8.71322E+00 9.64335E-02 1.72325E+01 4.52037E-02 1.00871E-01
 -1       595-1.28824E+01 1.55377E+00 7.45221E-02 1.94328E+01 1.05867E-02 1.11910E-01
 -1       596-1.04205E+01-6.92503E+00 1.86531E-02 2.02599E+01-3.15787E-02 1.13275E-01
 -1       597-7.27403E+00-1.61152E+01-7.79426E-02 1.90443E+01-7.77478E-02 1.00930E-01
 -1       598-4.11474E+00-2.49686E+01-2.10273E-01 1.52911E+01-1.27051E-01 7.50677E-02
 -1       599-1.82248E+00-3.21045E+01-3.68641E-01 8.82844E+00-1.66977E-01 4.78969E-02
 -1       600 6.77089E+00 1.40870E+01-1.23792E+00 2.73878E+00-2.38225E-01-3.00684E-01
 -1       601 8.76251E+00 1.28726E+01 1.50166E-01 3.37164E-01-4.58054E-02-2.31411E-01
 -1       602 9.95870E+00 1.33030E+01-1.36224E-01-1.55084E+00 4.33552E-02-1.94226E-01
 -1       603 1.06882E+01 1.39259E+01-5.47579E-03-3.07915E+00 4.52098E-02-1.64554E-01
 -1       604 1.08210E+01 1.45120E+01-2.89488E-04-4.32346E+00 4.02787E-02-1.52288E-01
 -1       605 1.05194E+01 1.51845E+01 8.35875E-03-5.32187E+00 4.40842E-02-1.43774E-01
 -1       606 9.85596E+00 1.59654E+01 4.65249E-03-6.09252E+00 5.13530E-02-1.37017E-01
 -1       607 8.89719E+00 1.68528E+01 3.25177E-04-6.64096E+00 6.01127E-02-1.29813E-01
 -1       608 7.69237E+00 1.78168E+01-3.82316E-03-6.96905E+00 6.86282E-02-1.21897E-01
 -1       609 6.28399E+00 1.88202E+01-6.94470E-03-7.07737E+00 7.64054E-02-1.13189E-01
 -1       610 4.70898E+00 1.98244E+01-9.08849E-03-6.96625E+00 8.32989E-02-1.03734E-01
 -1       611 2.99935E+00 2.07924E+01-1.02507E-02-6.63553E+00 8.93050E-02-9.35512E-02
 -1       612 1.18221E+00 2.16884E+01-1.03685E-02-6.08361E+00 9.44273E-02-8.26315E-02
 -1       613-7.19521E-01 2.24762E+01-9.27245E-03-5.30592E+00 9.86450E-02-7.09410E-02
 -1       614-2.68503E+00 2.31170E+01-6.69801E-03-4.29314E+00 1.01897E-01-5.84246E-02
 -1       615-4.69179E+00 2.35649E+01-2.30387E-03-3.03000E+00 1.04065E-01-4.50145E-02
 -1       616-6.70979E+00 2.37608E+01 4.28368E-03-1.49536E+00 1.04950E-01-3.06444E-02
 -1       617-8.69378E+00 2.36256E+01 1.33783E-02 3.35000E-01 1.04249E-01-1.52762E-02
 -1       618-1.05743E+01 2.30524E+01 2.50621E-02 2.48121E+00 1.01518E-01 1.05755E-03
 -1       619-1.22491E+01 2.19009E+01 3.89051E-02 4.94595E+00 9.61556E-02 1.81926E-02
 -1       620-1.35783E+01 1.99969E+01 5.35686E-02 7.69349E+00 8.73977E-02 3.57539E-02
 -1       621-1.43882E+01 1.71445E+01 6.63537E-02 1.06214E+01 7.43497E-02 5.30616E-02
 -1       622-1.44915E+01 1.31569E+01 7.28708E-02 1.35288E+01 5.60926E-02 6.90260E-02
 -1       623-1.37288E+01 7.91378E+00 6.71454E-02 1.60919E+01 3.18938E-02 8.20350E-02
 -1       624-1.20334E+01 1.44451E+00 4.24500E-02 1.78633E+01 1.62482E-03 8.98341E-02
 -1       625-9.51041E+00-5.97813E+00-7.01974E-03 1.83162E+01-3.38160E-02 8.95242E-02
 -1       626-6.50350E+00-1.37689E+01-8.45507E-02 1.69455E+01-7.13187E-02 7.80489E-02
 -1       627-3.60748E+00-2.10277E+01-1.87420E-01 1.34165E+01-1.09826E-01 5.56401E-02
 -1       628-1.55470E+00-2.66370E+01-3.03930E-01 7.65968E+00-1.39068E-01 3.09575E-02
 -1       629 5.69383E+00 1.01756E+01-9.31648E-01 1.86253E+00-1.45911E-01-2.78458E-01
 -1       630 7.69718E+00 9.15809E+00 1.36309E-01-4.90681E-01-4.13015E-02-2.15739E-01
 -1       631 8.92471E+00 9.44232E+00-8.60784E-02-2.36761E+00 3.15167E-02-1.78931E-01
 -1       632 9.65147E+00 9.96599E+00 9.89545E-03-3.91612E+00 3.36519E-02-1.54159E-01
 -1       633 9.79064E+00 1.05612E+01 1.03273E-02-5.20074E+00 3.30210E-02-1.43816E-01
 -1       634 9.47918E+00 1.13108E+01 1.40151E-02-6.24953E+00 3.86272E-02-1.36679E-01
 -1       635 8.78769E+00 1.22158E+01 9.05314E-03-7.07182E+00 4.64453E-02-1.30628E-01
 -1       636 7.78320E+00 1.32577E+01 4.28077E-03-7.66725E+00 5.49780E-02-1.23982E-01
 -1       637 6.51941E+00 1.43978E+01 1.70606E-04-8.03323E+00 6.30250E-02-1.16593E-01
 -1       638 5.04406E+00 1.55934E+01-2.73908E-03-8.16663E+00 7.02799E-02-1.08439E-01
 -1       639 3.39964E+00 1.68016E+01-4.56400E-03-8.06441E+00 7.66559E-02-9.95704E-02
 -1       640 1.62406E+00 1.79809E+01-5.35808E-03-7.72337E+00 8.21451E-02-9.00033E-02
 -1       641-2.48881E-01 1.90904E+01-5.11325E-03-7.13953E+00 8.67315E-02-7.97334E-02
 -1       642-2.18836E+00 2.00881E+01-3.72718E-03-6.30717E+00 9.03728E-02-6.87398E-02
 -1       643-4.16416E+00 2.09283E+01-1.02326E-03-5.21784E+00 9.29894E-02-5.69926E-02
 -1       644-6.14298E+00 2.15576E+01 3.21879E-03-3.86013E+00 9.44520E-02-4.44616E-02
 -1       645-8.08332E+00 2.19103E+01 9.20562E-03-2.22085E+00 9.45648E-02-3.11320E-02
 -1       646-9.92915E+00 2.19030E+01 1.70322E-02-2.88892E-01 9.30473E-02-1.70297E-02
 -1       647-1.16034E+01 2.14298E+01 2.65257E-02 1.93705E+00 8.95176E-02-2.25730E-03
 -1       648-1.30030E+01 2.03603E+01 3.70228E-02 4.43583E+00 8.34862E-02 1.29564E-02
 -1       649-1.39986E+01 1.85446E+01 4.70990E-02 7.14577E+00 7.43689E-02 2.81985E-02
 -1       650-1.44426E+01 1.58282E+01 5.43235E-02 9.94273E+00 6.15322E-02 4.28113E-02
 -1       651-1.41910E+01 1.20839E+01 5.51868E-02 1.26188E+01 4.43916E-02 5.58327E-02
 -1       652-1.31406E+01 7.26218E+00 4.53869E-02 1.48707E+01 2.25805E-02 6.59418E-02
 -1       653-1.12814E+01 1.45640E+00 2.05886E-02 1.63100E+01-3.74959E-03 7.13888E-02
 -1       654-8.75347E+00-5.03167E+00-2.25847E-02 1.65087E+01-3.36474E-02 6.99880E-02
 -1       655-5.88986E+00-1.16533E+01-8.56246E-02 1.50842E+01-6.44879E-02 5.93934E-02
 -1       656-3.21748E+00-1.76298E+01-1.68070E-01 1.18107E+01-9.51830E-02 3.97771E-02
 -1       657-1.35582E+00-2.20345E+01-2.55085E-01 6.68189E+00-1.17205E-01 1.72777E-02
 -1       658 4.68058E+00 6.51207E+00-6.23623E-01 1.02529E+00-8.01516E-02-2.58991E-01
 -1       659 6.66511E+00 5.63725E+00 1.17322E-01-1.27438E+00-3.35700E-02-2.01896E-01
 -1       660 7.91547E+00 5.77977E+00-4.14658E-02-3.12560E+00 2.14203E-02-1.65439E-01
 -1       661 8.63921E+00 6.21871E+00 2.15269E-02-4.67354E+00 2.46179E-02-1.45051E-01
 -1       662 8.78729E+00 6.82921E+00 1.84299E-02-5.97578E+00 2.73574E-02-1.36259E-01
 -1       663 8.47128E+00 7.65200E+00 1.80501E-02-7.05343E+00 3.41519E-02-1.30260E-01
 -1       664 7.76006E+00 8.66902E+00 1.22571E-02-7.90898E+00 4.21823E-02-1.24796E-01
 -1       665 6.72155E+00 9.84786E+00 7.21122E-03-8.53694E+00 5.03790E-02-1.18657E-01
 -1       666 5.41405E+00 1.11430E+01 3.19683E-03-8.93034E+00 5.79554E-02-1.11771E-01
 -1       667 3.89046E+00 1.25072E+01 5.06782E-04-9.08228E+00 6.47234E-02-1.04156E-01
 -1       668 2.19860E+00 1.38938E+01-1.02933E-03-8.98639E+00 7.06242E-02-9.58583E-02
 -1       669 3.81906E-01 1.52574E+01-1.52656E-03-8.63677E+00 7.56401E-02-8.68928E-02
 -1       670-1.51977E+00 1.65526E+01-1.03432E-03-8.02770E+00 7.97397E-02-7.72604E-02
 -1       671-3.46866E+00 1.77326E+01 4.84249E-04-7.15308E+00 8.28676E-02-6.69530E-02
 -1       672-5.42673E+00 1.87463E+01 3.12728E-03-6.00619E+00 8.49360E-02-5.59620E-02
 -1       673-7.35218E+00 1.95349E+01 7.01563E-03-4.58009E+00 8.58157E-02-4.42877E-02
 -1       674-9.19514E+00 2.00287E+01 1.22311E-02-2.86964E+00 8.53238E-02-3.19540E-02
 -1       675-1.08928E+01 2.01427E+01 1.87236E-02-8.75837E-01 8.32128E-02-1.90318E-02
 -1       676-1.23650E+01 1.97749E+01 2.61790E-02 1.38658E+00 7.91639E-02-5.66916E-03
 -1       677-1.35122E+01 1.88070E+01 3.38511E-02 3.87770E+00 7.27909E-02 7.86939E-03
 -1       678-1.42183E+01 1.71119E+01 4.03860E-02 6.51765E+00 6.36619E-02 2.11614E-02
 -1       679-1.43611E+01 1.45711E+01 4.37042E-02 9.17025E+00 5.13466E-02 3.35879E-02
 -1       680-1.38333E+01 1.11043E+01 4.10528E-02 1.16298E+01 3.55019E-02 4.43041E-02
 -1       681-1.25755E+01 6.71238E+00 2.93271E-02 1.36183E+01 1.60001E-02 5.22201E-02
 -1       682-1.06172E+01 1.52830E+00 5.70189E-03 1.48012E+01-6.86064E-03 5.59630E-02
 -1       683-8.11760E+00-4.13728E+00-3.18659E-02 1.48310E+01-3.21674E-02 5.38658E-02
 -1       684-5.39279E+00-9.77602E+00-8.39257E-02 1.34171E+01-5.77377E-02 4.41135E-02
 -1       685-2.91126E+00-1.47076E+01-1.52060E-01 1.04105E+01-8.25097E-02 2.67637E-02
 -1       686-1.20482E+00-1.81462E+01-2.17755E-01 5.84471E+00-9.93857E-02 6.20723E-03
 -1       687 3.72830E+00 3.05899E+00-3.14811E-01 2.25340E-01-3.62046E-02-2.41889E-01
 -1       688 5.67360E+00 2.27872E+00 9.41647E-02-2.01700E+00-2.27034E-02-1.89593E-01
 -1       689 6.94338E+00 2.28495E+00-1.13787E-03-3.83037E+00 1.27032E-02-1.53490E-01
 -1       690 7.66475E+00 2.65331E+00 3.02769E-02-5.36036E+00 1.75892E-02-1.37031E-01
 -1       691 7.82264E+00 3.28574E+00 2.45898E-02-6.66131E+00 2.28805E-02-1.29477E-01
 -1       692 7.50423E+00 4.17952E+00 2.07769E-02-7.75018E+00 3.04069E-02-1.24423E-01
 -1       693 6.77792E+00 5.29913E+00 1.44305E-02-8.62432E+00 3.84284E-02-1.19453E-01
 -1       694 5.71340E+00 6.60071E+00 9.23275E-03-9.27364E+00 4.62423E-02-1.13783E-01
 -1       695 4.37374E+00 8.03340E+00 5.37743E-03-9.68684E+00 5.33710E-02-1.07382E-01
 -1       696 2.81682E+00 9.54616E+00 2.94056E-03-9.85314E+00 5.96933E-02-1.00291E-01
 -1       697 1.09535E+00 1.10892E+01 1.69255E-03-9.76288E+00 6.51612E-02-9.25484E-02
 -1       698-7.42275E-01 1.26139E+01 1.45222E-03-9.40774E+00 6.97458E-02-8.41679E-02
 -1       699-2.65092E+00 1.40715E+01 2.11458E-03-8.78068E+00 7.34058E-02-7.51559E-02
 -1       700-4.58703E+00 1.54111E+01 3.65932E-03-7.87583E+00 7.60794E-02-6.55161E-02
 -1       701-6.50623E+00 1.65775E+01 6.12079E-03-6.68865E+00 7.76783E-02-5.52576E-02
 -1       702-8.36036E+00 1.75087E+01 9.54446E-03-5.21693E+00 7.80800E-02-4.44040E-02
 -1       703-1.00939E+01 1.81325E+01 1.39258E-02-3.46317E+00 7.71206E-02-3.30077E-02
 -1       704-1.16402E+01 1.83648E+01 1.91277E-02-1.43910E+00 7.45887E-02-2.11696E-02
 -1       705-1.29195E+01 1.81089E+01 2.47738E-02 8.27262E-01 7.02255E-02-9.06521E-03
 -1       706-1.38385E+01 1.72591E+01 3.01270E-02 3.28173E+00 6.37355E-02 3.02537E-03
 -1       707-1.42953E+01 1.57093E+01 3.39785E-02 5.83225E+00 5.48107E-02 1.46874E-02
 -1       708-1.41908E+01 1.33708E+01 3.46035E-02 8.33742E+00 4.31768E-02 2.53481E-02
 -1       709-1.34486E+01 1.01992E+01 2.98613E-02 1.05993E+01 2.86632E-02 3.42663E-02
 -1       710-1.20426E+01 6.23064E+00 1.74864E-02 1.23661E+01 1.12986E-02 4.05333E-02
 -1       711-1.00296E+01 1.62113E+00-4.40584E-03 1.33513E+01-8.54503E-03 4.30569E-02
 -1       712-7.57766E+00-3.32157E+00-3.71593E-02 1.32728E+01-3.00238E-02 4.05464E-02
 -1       713-4.98365E+00-8.12890E+00-8.08347E-02 1.19103E+01-5.13313E-02 3.15918E-02
 -1       714-2.66615E+00-1.22002E+01-1.38816E-01 9.17051E+00-7.14452E-02 1.60999E-02
 -1       715-1.08790E+00-1.48548E+01-1.88798E-01 5.11361E+00-8.44810E-02-2.70802E-03
 -1       716 2.83420E+00-2.15389E-01-5.80451E-03-5.40360E-01-1.02101E-02-2.26839E-01
 -1       717 4.72821E+00-9.43864E-01 6.76557E-02-2.72188E+00-8.84497E-03-1.78589E-01
 -1       718 6.01800E+00-1.06765E+00 3.59052E-02-4.48641E+00 5.04845E-03-1.42858E-01
 -1       719 6.73800E+00-7.55975E-01 3.67753E-02-5.98311E+00 1.21423E-02-1.29926E-01
 -1       720 6.90478E+00-9.43889E-02 2.91885E-02-7.26675E+00 1.92788E-02-1.23348E-01
 -1       721 6.58328E+00 8.69740E-01 2.23823E-02-8.35257E+00 2.72106E-02-1.19084E-01
 -1       722 5.84343E+00 2.08494E+00 1.56759E-02-9.23398E+00 3.50896E-02-1.14538E-01
 -1       723 4.75783E+00 3.49779E+00 1.04387E-02-9.89657E+00 4.25157E-02-1.09312E-01
 -1       724 3.39454E+00 5.05327E+00 6.82811E-03-1.03246E+01 4.92324E-02-1.03383E-01
 -1       725 1.81604E+00 6.69745E+00 4.70399E-03-1.05031E+01 5.51514E-02-9.68012E-02
 -1       726 7.93628E-02 8.37814E+00 3.76589E-03-1.04193E+01 6.02256E-02-8.95960E-02
 -1       727-1.76287E+00 1.00442E+01 3.76488E-03-1.00626E+01 6.44175E-02-8.17819E-02
 -1       728-3.66111E+00 1.16443E+01 4.54808E-03-9.42492E+00 6.76808E-02-7.33699E-02
 -1       729-5.56711E+00 1.31246E+01 6.05076E-03-8.50107E+00 6.99532E-02-6.43737E-02
 -1       730-7.43167E+00 1.44273E+01 8.26028E-03-7.28893E+00 7.11505E-02-5.48167E-02
 -1       731-9.20208E+00 1.54880E+01 1.11694E-02-5.79094E+00 7.11616E-02-4.47399E-02
 -1       732-1.08193E+01 1.62340E+01 1.47187E-02-4.01660E+00 6.98435E-02-3.42155E-02
 -1       733-1.22156E+01 1.65835E+01 1.87267E-02-1.98686E+00 6.70208E-02-2.33633E-02
 -1       734-1.33136E+01 1.64461E+01 2.28067E-02 2.59524E-01 6.24894E-02-1.23727E-02
 -1       735-1.40277E+01 1.57279E+01 2.62812E-02 2.65785E+00 5.60301E-02-1.52611E-03
 -1       736-1.42703E+01 1.43415E+01 2.81151E-02 5.10850E+00 4.74349E-02 8.77988E-03
 -1       737-1.39629E+01 1.22221E+01 2.69091E-02 7.46938E+00 3.65478E-02 1.80210E-02
 -1       738-1.30543E+01 9.35262E+00 2.10068E-02 9.55321E+00 2.33215E-02 2.55451E-02
 -1       739-1.15441E+01 5.79283E+00 8.72979E-03 1.11340E+01 7.88770E-03 3.05860E-02
 -1       740-9.50692E+00 1.71054E+00-1.12265E-02 1.19668E+01-9.34730E-03 3.22595E-02
 -1       741-7.11381E+00-2.59622E+00-3.98758E-02 1.18231E+01-2.76124E-02 2.95480E-02
 -1       742-4.64161E+00-6.69633E+00-7.70463E-02 1.05373E+01-4.54117E-02 2.13532E-02
 -1       743-2.46641E+00-1.00541E+01-1.27717E-01 8.05801E+00-6.17556E-02 7.40505E-03
 -1       744-9.95771E-01-1.20685E+01-1.65986E-01 4.46435E+00-7.18123E-02-9.81175E-03
 -1       745 1.99605E+00-3.33845E+00 3.03131E-01-1.27562E+00 9.85088E-04-2.13597E-01
 -1       746 3.83397E+00-4.05306E+00 3.85410E-02-3.39236E+00 7.83222E-03-1.68681E-01
 -1       747 5.14732E+00-4.29971E+00 7.04862E-02-5.09698E+00-1.82162E-03-1.33341E-01
 -1       748 5.86647E+00-4.03069E+00 4.14643E-02-6.54613E+00 7.93155E-03-1.23582E-01
 -1       749 6.03904E+00-3.33190E+00 3.24439E-02-7.79872E+00 1.63143E-02-1.17765E-01
 -1       750 5.71102E+00-2.29646E+00 2.29492E-02-8.87026E+00 2.44328E-02-1.14169E-01
 -1       751 4.95651E+00-9.90586E-01 1.60507E-02-9.75084E+00 3.21006E-02-1.10000E-01
 -1       752 3.85230E+00 5.24289E-01 1.09126E-02-1.04216E+01 3.91608E-02-1.05201E-01
 -1       753 2.47147E+00 2.19005E+00 7.66497E-03-1.08617E+01 4.55074E-02-9.97319E-02
 -1       754 8.80599E-01 3.95077E+00 5.93505E-03-1.10522E+01 5.10628E-02-9.36463E-02
 -1       755-8.59668E-01 5.75267E+00 5.34199E-03-1.09769E+01 5.57781E-02-8.69617E-02
 -1       756-2.69330E+00 7.54303E+00 5.57542E-03-1.06230E+01 5.96113E-02-7.96940E-02
 -1       757-4.56726E+00 9.26861E+00 6.44825E-03-9.98202E+00 6.25160E-02-7.18590E-02
 -1       758-6.42969E+00 1.08739E+01 7.86694E-03-9.04939E+00 6.44332E-02-6.34792E-02
 -1       759-8.22790E+00 1.22992E+01 9.78850E-03-7.82561E+00 6.52862E-02-5.45886E-02
 -1       760-9.90621E+00 1.34793E+01 1.21722E-02-6.31750E+00 6.49771E-02-4.52409E-02
 -1       761-1.14039E+01 1.43421E+01 1.49279E-02-4.54079E+00 6.33848E-02-3.55209E-02
 -1       762-1.26538E+01 1.48087E+01 1.78586E-02-2.52419E+00 6.03671E-02-2.55590E-02
 -1       763-1.35827E+01 1.47954E+01 2.05984E-02-3.14886E-01 5.57676E-02-1.55490E-02
 -1       764-1.41133E+01 1.42195E+01 2.25542E-02 2.01489E+00 4.94314E-02-5.76627E-03
 -1       765-1.41716E+01 1.30091E+01 2.28678E-02 4.36137E+00 4.12295E-02 3.41644E-03
 -1       766-1.36973E+01 1.11189E+01 2.04266E-02 6.58477E+00 3.10956E-02 1.15224E-02
 -1       767-1.26599E+01 8.55150E+00 1.39580E-02 8.50982E+00 1.90709E-02 1.79760E-02
 -1       768-1.10779E+01 5.38191E+00 2.20074E-03 9.93458E+00 5.35613E-03 2.21224E-02
 -1       769-9.03815E+00 1.78197E+00-1.57912E-02 1.06501E+01-9.62893E-03 2.32323E-02
 -1       770-6.71006E+00-1.96405E+00-4.09133E-02 1.04717E+01-2.51785E-02 2.04839E-02
 -1       771-4.35105E+00-5.45973E+00-7.29165E-02 9.27772E+00-4.00489E-02 1.30216E-02
 -1       772-2.30074E+00-8.22311E+00-1.18213E-01 7.04891E+00-5.32691E-02 3.78575E-04
 -1       773-9.22030E-01-9.71423E+00-1.47739E-01 3.87956E+00-6.09370E-02-1.53724E-02
 -1       774 1.21252E+00-6.33428E+00 6.12059E-01-1.98476E+00-3.78110E-05-2.01983E-01
 -1       775 2.99626E+00-7.06861E+00 7.54818E-03-4.03135E+00 2.71408E-02-1.59698E-01
 -1       776 4.33872E+00-7.42985E+00 1.03295E-01-5.66387E+00-8.15278E-03-1.24763E-01
 -1       777 5.05602E+00-7.18881E+00 4.46102E-02-7.05156E+00 4.67306E-03-1.17864E-01
 -1       778 5.22847E+00-6.44347E+00 3.44226E-02-8.26135E+00 1.38060E-02-1.12632E-01
 -1       779 4.88772E+00-5.33409E+00 2.24770E-02-9.31040E+00 2.19814E-02-1.09615E-01
 -1       780 4.11516E+00-3.94070E+00 1.55885E-02-1.01853E+01 2.94173E-02-1.05792E-01
 -1       781 2.99286E+00-2.33141E+00 1.07421E-02-1.08618E+01 3.61500E-02-1.01413E-01
 -1       782 1.59875E+00-5.66314E-01 8.01098E-03-1.13137E+01 4.21689E-02-9.63958E-02
 -1       783 2.79646E-03 1.29769E+00 6.76934E-03-1.15174E+01 4.73960E-02-9.07926E-02
 -1       784-1.73163E+00 3.20620E+00 6.55890E-03-1.14534E+01 5.17819E-02-8.46111E-02
 -1       785-3.54593E+00 5.10578E+00 7.02517E-03-1.11072E+01 5.52853E-02-7.78690E-02
 -1       786-5.38450E+00 6.94226E+00 7.96601E-03-1.04697E+01 5.78639E-02-7.05869E-02
 -1       787-7.19289E+00 8.65910E+00 9.27569E-03-9.53745E+00 5.94650E-02-6.27942E-02
 -1       788-8.91609E+00 1.01959E+01 1.08958E-02-8.31341E+00 6.00210E-02-5.45331E-02
 -1       789-1.04967E+01 1.14874E+01 1.27673E-02-6.80842E+00 5.94478E-02-4.58658E-02
 -1       790-1.18739E+01 1.24627E+01 1.47860E-02-5.04367E+00 5.76452E-02-3.68843E-02
 -1       791-1.29823E+01 1.30467E+01 1.67577E-02-3.05425E+00 5.45008E-02-2.77229E-02
 -1       792-1.37537E+01 1.31623E+01 1.83535E-02-8.93840E-01 4.98995E-02-1.85729E-02
 -1       793-1.41196E+01 1.27366E+01 1.90729E-02 1.36023E+00 4.37388E-02-9.69716E-03
 -1       794-1.40187E+01 1.17109E+01 1.82253E-02 3.60247E+00 3.59525E-02-1.44099E-03
 -1       795-1.34064E+01 1.00550E+01 1.49464E-02 5.69726E+00 2.65421E-02 5.76395E-03
 -1       796-1.22691E+01 7.78532E+00 8.27310E-03 7.48170E+00 1.56131E-02 1.14077E-02
 -1       797-1.06399E+01 4.98595E+00-2.74736E-03 8.77575E+00 3.41331E-03 1.49229E-02
 -1       798-8.61269E+00 1.82723E+00-1.88319E-02 9.40135E+00-9.63345E-03 1.56954E-02
 -1       799-6.35307E+00-1.42275E+00-4.08706E-02 9.21009E+00-2.28751E-02 1.30422E-02
 -1       800-4.09975E+00-4.39977E+00-6.86369E-02 8.11578E+00-3.52704E-02 6.29665E-03
 -1       801-2.16065E+00-6.66712E+00-1.09849E-01 6.12546E+00-4.58491E-02-5.21803E-03
 -1       802-8.62030E-01-7.73281E+00-1.32916E-01 3.34663E+00-5.15462E-02-1.95998E-02
 -1       803 4.83755E-01-9.22463E+00 9.21407E-01-2.67235E+00-1.11620E-02-1.91876E-01
 -1       804 2.22178E+00-1.00083E+01-2.45573E-02-4.64100E+00 4.88916E-02-1.51484E-01
 -1       805 3.59959E+00-1.04743E+01 1.34901E-01-6.18700E+00-1.41670E-02-1.16962E-01
 -1       806 4.31108E+00-1.02450E+01 4.62875E-02-7.49920E+00 2.13187E-03-1.12650E-01
 -1       807 4.47395E+00-9.44195E+00 3.50407E-02-8.65660E+00 1.16159E-02-1.07866E-01
 -1       808 4.11151E+00-8.25432E+00 2.09037E-02-9.67825E+00 1.97923E-02-1.05365E-01
 -1       809 3.31564E+00-6.77529E+00 1.43245E-02-1.05458E+01 2.70112E-02-1.01876E-01
 -1       810 2.17445E+00-5.07822E+00 1.00353E-02-1.12285E+01 3.34640E-02-9.79165E-02
 -1       811 7.70103E-01-3.22384E+00 8.00116E-03-1.16938E+01 3.91947E-02-9.33443E-02
 -1       812-8.25061E-01-1.26874E+00 7.33995E-03-1.19132E+01 4.41224E-02-8.82105E-02
 -1       813-2.54585E+00 7.33115E-01 7.54042E-03-1.18640E+01 4.82026E-02-8.25143E-02
 -1       814-4.33202E+00 2.72847E+00 8.23316E-03-1.15303E+01 5.14000E-02-7.62767E-02
 -1       815-6.12623E+00 4.66302E+00 9.22347E-03-1.09027E+01 5.36798E-02-6.95227E-02
 -1       816-7.87239E+00 6.47996E+00 1.04093E-02-9.97883E+00 5.49973E-02-6.22874E-02
 -1       817-9.51413E+00 8.11883E+00 1.17287E-02-8.76409E+00 5.52946E-02-5.46189E-02
 -1       818-1.09935E+01 9.51499E+00 1.31153E-02-7.27295E+00 5.45012E-02-4.65843E-02
 -1       819-1.22504E+01 1.05997E+01 1.44615E-02-5.53123E+00 5.25357E-02-3.82787E-02
 -1       820-1.32225E+01 1.13014E+01 1.55854E-02-3.57919E+00 4.93120E-02-2.98355E-02
 -1       821-1.38470E+01 1.15495E+01 1.62015E-02-1.47536E+00 4.47496E-02-2.14387E-02
 -1       822-1.40643E+01 1.12797E+01 1.59000E-02 6.99676E-01 3.87888E-02-1.33343E-02
 -1       823-1.38246E+01 1.04443E+01 1.41417E-02 2.84050E+00 3.14126E-02-5.83896E-03
 -1       824-1.30972E+01 9.02415E+00 1.02761E-02 4.81671E+00 2.26745E-02 6.58183E-04
 -1       825-1.18824E+01 7.04556E+00 3.59651E-03 6.47747E+00 1.27272E-02 5.70360E-03
 -1       826-1.02240E+01 4.59656E+00-6.60587E-03 7.66234E+00 1.85163E-03 8.79954E-03
 -1       827-8.22035E+00 1.84218E+00-2.08854E-02 8.21963E+00-9.52745E-03 9.41709E-03
 -1       828-6.03121E+00-9.67158E-01-4.01731E-02 8.03111E+00-2.07980E-02 6.96969E-03
 -1       829-3.87758E+00-3.49743E+00-6.43255E-02 7.03976E+00-3.10798E-02 9.37798E-04
 -1       830-2.03938E+00-5.35121E+00-1.02253E-01 5.27468E+00-3.93849E-02-9.57232E-03
 -1       831-8.12188E-01-6.07529E+00-1.20660E-01 2.85639E+00-4.34153E-02-2.26555E-02
 -1       832-1.87955E-01-1.20299E+01 1.23207E+00-3.34310E+00-3.06500E-02-1.83217E-01
 -1       833 1.51948E+00-1.28884E+01-5.69148E-02-5.22215E+00 7.29029E-02-1.43894E-01
 -1       834 2.93782E+00-1.34470E+01 1.65732E-01-6.66377E+00-2.00730E-02-1.09783E-01
 -1       835 3.63468E+00-1.32107E+01 4.63290E-02-7.88633E+00 1.09446E-04-1.07829E-01
 -1       836 3.77412E+00-1.23363E+01 3.40635E-02-8.98450E+00 9.63908E-03-1.03389E-01
 -1       837 3.37840E+00-1.10645E+01 1.81398E-02-9.97768E+00 1.78243E-02-1.01370E-01
 -1       838 2.55274E+00-9.50112E+00 1.23285E-02-1.08400E+01 2.48679E-02-9.82184E-02
 -1       839 1.39116E+00-7.72276E+00 8.93612E-03-1.15318E+01 3.10912E-02-9.46836E-02
 -1       840-2.10903E-02-5.78891E+00 7.78464E-03-1.20137E+01 3.65664E-02-9.05520E-02
 -1       841-1.61048E+00-3.75438E+00 7.77500E-03-1.22522E+01 4.12160E-02-8.58748E-02
 -1       842-3.31104E+00-1.67151E+00 8.39443E-03-1.22218E+01 4.50080E-02-8.06462E-02
 -1       843-5.06172E+00 4.07427E-01 9.29657E-03-1.19053E+01 4.79182E-02-7.48918E-02
 -1       844-6.80426E+00 2.42864E+00 1.03167E-02-1.12933E+01 4.99218E-02-6.86410E-02
 -1       845-8.48170E+00 4.33564E+00 1.13695E-02-1.03848E+01 5.09824E-02-6.19336E-02
 -1       846-1.00371E+01 6.06851E+00 1.23981E-02-9.18723E+00 5.10520E-02-5.48215E-02
 -1       847-1.14130E+01 7.56378E+00 1.33353E-02-7.71846E+00 5.00720E-02-4.73744E-02
 -1       848-1.25506E+01 8.75503E+00 1.40758E-02-6.00814E+00 4.79781E-02-3.96869E-02
 -1       849-1.33913E+01 9.57470E+00 1.44535E-02-4.10062E+00 4.47064E-02-3.18880E-02
 -1       850-1.38780E+01 9.95780E+00 1.42256E-02-2.05791E+00 4.02051E-02-2.41506E-02
 -1       851-1.39598E+01 9.84781E+00 1.30644E-02 3.76164E-02 3.44488E-02-1.67015E-02
 -1       852-1.35977E+01 9.20553E+00 1.05629E-02 2.08181E+00 2.74595E-02-9.82789E-03
 -1       853-1.27730E+01 8.02062E+00 6.25385E-03 3.95006E+00 1.93302E-02-3.87885E-03
 -1       854-1.14974E+01 6.32514E+00-3.50721E-04 5.50290E+00 1.02488E-02 7.41413E-04
 -1       855-9.82330E+00 4.20767E+00-9.75059E-03 6.59724E+00 5.21124E-04 3.59097E-03
 -1       856-7.85108E+00 1.82515E+00-2.23603E-02 7.10376E+00-9.42689E-03 4.20443E-03
 -1       857-5.73381E+00-5.90692E-01-3.91482E-02 6.92932E+00-1.90092E-02 2.06025E-03
 -1       858-3.67564E+00-2.73466E+00-6.00799E-02 6.04109E+00-2.74711E-02-3.24777E-03
 -1       859-1.93110E+00-4.24459E+00-9.51281E-02 4.48735E+00-3.37883E-02-1.28290E-02
 -1       860-7.69492E-01-4.70027E+00-1.10291E-01 2.40230E+00-3.63803E-02-2.46593E-02
 -1       861-7.96970E-01-1.47700E+01 1.54563E+00-4.00163E+00-5.70746E-02-1.76003E-01
 -1       862 9.01831E-01-1.57249E+01-8.85140E-02-5.77336E+00 9.90051E-02-1.36760E-01
 -1       863 2.36180E+00-1.63601E+01 1.95978E-01-7.08814E+00-2.60810E-02-1.03070E-01
 -1       864 3.02780E+00-1.60937E+01 4.42379E-02-8.20742E+00-1.56722E-03-1.03292E-01
 -1       865 3.12489E+00-1.51311E+01 3.11147E-02-9.24356E+00 7.79705E-03-9.91308E-02
 -1       866 2.68221E+00-1.37684E+01 1.41252E-02-1.02119E+01 1.60570E-02-9.75906E-02
 -1       867 1.81986E+00-1.21223E+01 9.74609E-03-1.10746E+01 2.29867E-02-9.47949E-02
 -1       868 6.36436E-01-1.02699E+01 7.63553E-03-1.17810E+01 2.90270E-02-9.16939E-02
 -1       869-7.81509E-01-8.26679E+00 7.52126E-03-1.22840E+01 3.42690E-02-8.79981E-02
 -1       870-2.36063E+00-6.16430E+00 8.19284E-03-1.25457E+01 3.86530E-02-8.37645E-02
 -1       871-4.03519E+00-4.01213E+00 9.21090E-03-1.25382E+01 4.21683E-02-7.89857E-02
 -1       872-5.74411E+00-1.86085E+00 1.02916E-02-1.22433E+01 4.48058E-02-7.36932E-02
 -1       873-7.42892E+00 2.36751E-01 1.13189E-02-1.16520E+01 4.65513E-02-6.79209E-02
 -1       874-9.03242E+00 2.22494E+00 1.22328E-02-1.07646E+01 4.73770E-02-6.17126E-02
 -1       875-1.04979E+01 4.04476E+00 1.29866E-02-9.59074E+00 4.72433E-02-5.51225E-02
 -1       876-1.17685E+01 5.63425E+00 1.35150E-02-8.15099E+00 4.61027E-02-4.82206E-02
 -1       877-1.27881E+01 6.92953E+00 1.37165E-02-6.47822E+00 4.39047E-02-4.10988E-02
 -1       878-1.35016E+01 7.86689E+00 1.34403E-02-4.61993E+00 4.06043E-02-3.38787E-02
 -1       879-1.38582E+01 8.38660E+00 1.24808E-02-2.64048E+00 3.61727E-02-2.67197E-02
 -1       880-1.38150E+01 8.43865E+00 1.05800E-02-6.22912E-01 3.06123E-02-1.98274E-02
 -1       881-1.33429E+01 7.99080E+00 7.44188E-03 1.33078E+00 2.39752E-02-1.34592E-02
 -1       882-1.24341E+01 7.03883E+00 2.75440E-03 3.10195E+00 1.63846E-02-7.92620E-03
 -1       883-1.11102E+01 5.61803E+00-3.78048E-03 4.56168E+00 8.05512E-03-3.58842E-03
 -1       884-9.42991E+00 3.81474E+00-1.24689E-02 5.58201E+00-6.87908E-04-8.41854E-04
 -1       885-7.49471E+00 1.77584E+00-2.35785E-02 6.05250E+00-9.41466E-03-1.04394E-04
 -1       886-5.45054E+00-2.86371E-01-3.80717E-02 5.90074E+00-1.75514E-02-1.85562E-03
 -1       887-3.48545E+00-2.09469E+00-5.60114E-02 5.11399E+00-2.44367E-02-6.41541E-03
 -1       888-1.83039E+00-3.31986E+00-8.82490E-02 3.75735E+00-2.89916E-02-1.50968E-02
 -1       889-7.31124E-01-3.57186E+00-1.01232E-01 1.98001E+00-3.03234E-02-2.56947E-02
 -1       890-1.33234E+00-1.74656E+01 1.86472E+00-4.65204E+00-8.92619E-02-1.70262E-01
 -1       891 3.86146E-01-1.85332E+01-1.18201E-01-6.28944E+00 1.27039E-01-1.29845E-01
 -1       892 1.87984E+00-1.92234E+01 2.25367E-01-7.44928E+00-3.24218E-02-9.66388E-02
 -1       893 2.48824E+00-1.88972E+01 3.90556E-02-8.45396E+00-3.05327E-03-9.89241E-02
 -1       894 2.51886E+00-1.78262E+01 2.57298E-02-9.43152E+00 6.03666E-03-9.50255E-02
 -1       895 2.01463E+00-1.63659E+01 8.92333E-03-1.03844E+01 1.44946E-02-9.39980E-02
 -1       896 1.10941E+00-1.46406E+01 6.84244E-03-1.12568E+01 2.13820E-02-9.15892E-02
 -1       897-9.65649E-02-1.27231E+01 6.37077E-03-1.19852E+01 2.72727E-02-8.89318E-02
 -1       898-1.51768E+00-1.06620E+01 7.37022E-03-1.25147E+01 3.22891E-02-8.56663E-02
 -1       899-3.08220E+00-8.50317E+00 8.69520E-03-1.28039E+01 3.64106E-02-8.18628E-02
 -1       900-4.72551E+00-6.29293E+00 1.00599E-02-1.28230E+01 3.96553E-02-7.75156E-02
 -1       901-6.38722E+00-4.07977E+00 1.12743E-02-1.25537E+01 4.20308E-02-7.26637E-02
 -1       902-8.00917E+00-1.91512E+00 1.22830E-02-1.19876E+01 4.35332E-02-6.73457E-02
 -1       903-9.53447E+00 1.46317E-01 1.30552E-02-1.11262E+01 4.41419E-02-6.16087E-02
 -1       904-1.09070E+01 2.04679E+00 1.35546E-02-9.98122E+00 4.38247E-02-5.55081E-02
 -1       905-1.20714E+01 3.72610E+00 1.37183E-02-8.57560E+00 4.25428E-02-4.91129E-02
 -1       906-1.29740E+01 5.12297E+00 1.34472E-02-6.94478E+00 4.02575E-02-4.25099E-02
 -1       907-1.35639E+01 6.17739E+00 1.26021E-02-5.13855E+00 3.69388E-02-3.58114E-02
 -1       908-1.37961E+01 6.83437E+00 1.10061E-02-3.22271E+00 3.25763E-02-2.91614E-02
 -1       909-1.36357E+01 7.04942E+00 8.45646E-03-1.28007E+00 2.71940E-02-2.27431E-02
 -1       910-1.30628E+01 6.79580E+00 4.74567E-03 5.90107E-01 2.08670E-02-1.67838E-02
 -1       911-1.20792E+01 6.07347E+00-3.10806E-04 2.27517E+00 1.37418E-02-1.15577E-02
 -1       912-1.07152E+01 4.91883E+00-6.84585E-03 3.65581E+00 6.05321E-03-7.38428E-03
 -1       913-9.03518E+00 3.41402E+00-1.49778E-02 4.61722E+00-1.85724E-03-4.62007E-03
 -1       914-7.14072E+00 1.69446E+00-2.48012E-02 5.06469E+00-9.55257E-03-3.64692E-03
 -1       915-5.17088E+00-4.74992E-02-3.71965E-02 4.94273E+00-1.64577E-02-4.91908E-03
 -1       916-3.29842E+00-1.56228E+00-5.22719E-02 4.25501E+00-2.19741E-02-8.69198E-03
 -1       917-1.73165E+00-2.55251E+00-8.14721E-02 3.08135E+00-2.49474E-02-1.64540E-02
 -1       918-6.94138E-01-2.65810E+00-9.29634E-02 1.58713E+00-2.51639E-02-2.58119E-02
 -1       919-1.77454E+00-2.01395E+01 2.19370E+00-5.29698E+00-1.26242E-01-1.65977E-01
 -1       920-4.25609E-03-2.13297E+01-1.44806E-01-6.75864E+00 1.56841E-01-1.22721E-01
 -1       921 1.49812E+00-2.20433E+01 2.52700E-01-7.72977E+00-3.93692E-02-9.02345E-02
 -1       922 2.00847E+00-2.16184E+01 2.92231E-02-8.61482E+00-4.48513E-03-9.45770E-02
 -1       923 1.94460E+00-2.04157E+01 1.75115E-02-9.54654E+00 4.33982E-03-9.10141E-02
 -1       924 1.36547E+00-1.88536E+01 2.86786E-03-1.04999E+01 1.31740E-02-9.05791E-02
 -1       925 4.13234E-01-1.70565E+01 4.02970E-03-1.13946E+01 2.00835E-02-8.85928E-02
 -1       926-8.14642E-01-1.50856E+01 5.40420E-03-1.21534E+01 2.58315E-02-8.63858E-02
 -1       927-2.23577E+00-1.29787E+01 7.47498E-03-1.27152E+01 3.06123E-02-8.35438E-02
 -1       928-3.78125E+00-1.07754E+01 9.36296E-03-1.30359E+01 3.44662E-02-8.01559E-02
 -1       929-5.38844E+00-8.51800E+00 1.09921E-02-1.30852E+01 3.74421E-02-7.62216E-02
 -1       930-6.99809E+00-6.25271E+00 1.22843E-02-1.28449E+01 3.95636E-02-7.17891E-02
 -1       931-8.55279E+00-4.02956E+00 1.32473E-02-1.23076E+01 4.08352E-02-6.69018E-02
 -1       932-9.99634E+00-1.90206E+00 1.38775E-02-1.14763E+01 4.12421E-02-6.16097E-02
 -1       933-1.12736E+01 7.33867E-02 1.41472E-02-1.03643E+01 4.07573E-02-5.59688E-02
 -1       934-1.23309E+01 1.83844E+00 1.39933E-02-8.99665E+00 3.93490E-02-5.00452E-02
 -1       935-1.31172E+01 3.33444E+00 1.33160E-02-7.41075E+00 3.69875E-02-4.39198E-02
 -1       936-1.35860E+01 4.50485E+00 1.19819E-02-5.65800E+00 3.36543E-02-3.76935E-02
 -1       937-1.36981E+01 5.29894E+00 9.83330E-03-3.80482E+00 2.93535E-02-3.14940E-02
 -1       938-1.34259E+01 5.67684E+00 6.70631E-03-1.93308E+00 2.41252E-02-2.54808E-02
 -1       939-1.27581E+01 5.61611E+00 2.45917E-03-1.38899E-01 1.80620E-02-1.98509E-02
 -1       940-1.17055E+01 5.11938E+00-2.99386E-03 1.47096E+00 1.13272E-02-1.48424E-02
 -1       941-1.03063E+01 4.22252E+00-9.64668E-03 2.78597E+00 4.17131E-03-1.07353E-02
 -1       942-8.62976E+00 3.00211E+00-1.74349E-02 3.70262E+00-3.05063E-03-7.85065E-03
 -1       943-6.77802E+00 1.58117E+00-2.62436E-02 4.13921E+00-9.89116E-03-6.54184E-03
 -1       944-4.88368E+00 1.31799E-01-3.67687E-02 4.05370E+00-1.57609E-02-7.24968E-03
 -1       945-3.10521E+00-1.12398E+00-4.90736E-02 3.46276E+00-2.00918E-02-1.01838E-02
 -1       946-1.62872E+00-1.92059E+00-7.47636E-02 2.45856E+00-2.16287E-02-1.69553E-02
 -1       947-6.55132E-01-1.92974E+00-8.50008E-02 1.22330E+00-2.08511E-02-2.50292E-02
 -1       948-2.08994E+00-2.28184E+01 2.54006E+00-5.93528E+00-1.67213E-01-1.62812E-01
 -1       949-2.40289E-01-2.41319E+01-1.67959E-01-7.15774E+00 1.88219E-01-1.14613E-01
 -1       950 1.21612E+00-2.48208E+01 2.75014E-01-7.90361E+00-4.72480E-02-8.34383E-02
 -1       951 1.57260E+00-2.42450E+01 1.24828E-02-8.67772E+00-5.95567E-03-9.00646E-02
 -1       952 1.38644E+00-2.28869E+01 6.50204E-03-9.58940E+00 2.75196E-03-8.70612E-02
 -1       953 7.23387E-01-2.12255E+01-3.28427E-03-1.05657E+01 1.21802E-02-8.73411E-02
 -1       954-2.76845E-01-1.93698E+01 1.82132E-03-1.14973E+01 1.91309E-02-8.57995E-02
 -1       955-1.52421E+00-1.73603E+01 4.96406E-03-1.22951E+01 2.47026E-02-8.40476E-02
 -1       956-2.94133E+00-1.52214E+01 7.93887E-03-1.28945E+01 2.92219E-02-8.16215E-02
 -1       957-4.46318E+00-1.29855E+01 1.02427E-02-1.32502E+01 3.27970E-02-7.86331E-02
 -1       958-6.02959E+00-1.06914E+01 1.20309E-02-1.33326E+01 3.55029E-02-7.50924E-02
 -1       959-7.58282E+00-8.38308E+00 1.33390E-02-1.31243E+01 3.73766E-02-7.10583E-02
 -1       960-9.06648E+00-6.10923E+00 1.42306E-02-1.26188E+01 3.84282E-02-6.65789E-02
 -1       961-1.04253E+01-3.92219E+00 1.47231E-02-1.18206E+01 3.86461E-02-6.17072E-02
 -1       962-1.16052E+01-1.87698E+00 1.47926E-02-1.07448E+01 3.80070E-02-5.64986E-02
 -1       963-1.25546E+01-3.00261E-02 1.43718E-02-9.41796E+00 3.64837E-02-5.10159E-02
 -1       964-1.32251E+01 1.56254E+00 1.33558E-02-7.87890E+00 3.40530E-02-4.53323E-02
 -1       965-1.35744E+01 2.84744E+00 1.16105E-02-6.17998E+00 3.07050E-02-3.95369E-02
 -1       966-1.35689E+01 3.77771E+00 8.98670E-03-4.38761E+00 2.64537E-02-3.37391E-02
 -1       967-1.31880E+01 4.31739E+00 5.34315E-03-2.58213E+00 2.13510E-02-2.80747E-02
 -1       968-1.24284E+01 4.44728E+00 5.80264E-04-8.56175E-01 1.55018E-02-2.27099E-02
 -1       969-1.13093E+01 4.17151E+00-5.31890E-03 6.89244E-01 9.08131E-03-1.78462E-02
 -1       970-9.87615E+00 3.52424E+00-1.22407E-02 1.95160E+00 2.35133E-03-1.37247E-02
 -1       971-8.20368E+00 2.57555E+00-1.99511E-02 2.83717E+00-4.32178E-03-1.06312E-02
 -1       972-6.39477E+00 1.43558E+00-2.80906E-02 3.27482E+00-1.04774E-02-8.89469E-03
 -1       973-4.57680E+00 2.56111E-01-3.70440E-02 3.23288E+00-1.55006E-02-8.95120E-03
 -1       974-2.89529E+00-7.68445E-01-4.67098E-02 2.73762E+00-1.88166E-02-1.09842E-02
 -1       975-1.51430E+00-1.40474E+00-6.82454E-02 1.89068E+00-1.90321E-02-1.66392E-02
 -1       976-6.09900E-01-1.35945E+00-7.69057E-02 8.90336E-01-1.73557E-02-2.33347E-02
 -1       977-2.22197E+00-2.55372E+01 2.91600E+00-6.55605E+00-2.11511E-01-1.59779E-01
 -1       978-2.91021E-01-2.69589E+01-1.89287E-01-7.44319E+00 2.20937E-01-1.03932E-01
 -1       979 1.01686E+00-2.75464E+01 2.85841E-01-7.93513E+00-5.63998E-02-7.56115E-02
 -1       980 1.15297E+00-2.67513E+01-1.35116E-02-8.63323E+00-7.46072E-03-8.51337E-02
 -1       981 8.25719E-01-2.52208E+01-6.07674E-03-9.56639E+00 1.43826E-03-8.31953E-02
 -1       982 7.73396E-02-2.34749E+01-8.23100E-03-1.05924E+01 1.16449E-02-8.42793E-02
 -1       983-9.68459E-01-2.15815E+01 7.03182E-04-1.15753E+01 1.85519E-02-8.31859E-02
 -1       984-2.23098E+00-1.95512E+01 5.24077E-03-1.24199E+01 2.38705E-02-8.19001E-02
 -1       985-3.63914E+00-1.73946E+01 8.85023E-03-1.30610E+01 2.80932E-02-7.98806E-02
 -1       986-5.13258E+00-1.51381E+01 1.13753E-02-1.34546E+01 3.13728E-02-7.72743E-02
 -1       987-6.65377E+00-1.28172E+01 1.32038E-02-1.35723E+01 3.38058E-02-7.41090E-02
 -1       988-8.14665E+00-1.04743E+01 1.44654E-02-1.33980E+01 3.54368E-02-7.04535E-02
 -1       989-9.55597E+00-8.15687E+00 1.52636E-02-1.29267E+01 3.62780E-02-6.63618E-02
 -1       990-1.08274E+01-5.91623E+00 1.56275E-02-1.21643E+01 3.63186E-02-6.18890E-02
 -1       991-1.19084E+01-3.80604E+00 1.55305E-02-1.11271E+01 3.55368E-02-5.70897E-02
 -1       992-1.27489E+01-1.88087E+00 1.48966E-02-9.84299E+00 3.39077E-02-5.20223E-02
 -1       993-1.33036E+01-1.94420E-01 1.36109E-02-8.35188E+00 3.14122E-02-4.67515E-02
 -1       994-1.35340E+01 1.20303E+00 1.15312E-02-6.70642E+00 2.80455E-02-4.13533E-02
 -1       995-1.34120E+01 2.26788E+00 8.50637E-03-4.97243E+00 2.38282E-02-3.59189E-02
 -1       996-1.29234E+01 2.96741E+00 4.40154E-03-3.22824E+00 1.88194E-02-3.05590E-02
 -1       997-1.20724E+01 3.28484E+00-8.63909E-04-1.56274E+00 1.31316E-02-2.54089E-02
 -1       998-1.08861E+01 3.22487E+00-7.26929E-03-7.12672E-02 6.94736E-03-2.06331E-02
 -1       999-9.41740E+00 2.81912E+00-1.46316E-02 1.15105E+00 5.35874E-04-1.64319E-02
 -1      1000-7.74646E+00 2.13058E+00-2.25783E-02 2.01897E+00-5.72771E-03-1.30534E-02
 -1      1001-5.97828E+00 1.25639E+00-3.04862E-02 2.46998E+00-1.13679E-02-1.08022E-02
 -1      1002-4.23679E+00 3.28320E-01-3.82805E-02 2.47995E+00-1.57351E-02-1.01152E-02
 -1      1003-2.65635E+00-4.86812E-01-4.55463E-02 2.08137E+00-1.82065E-02-1.11794E-02
 -1      1004-1.37944E+00-9.88496E-01-6.22383E-02 1.38182E+00-1.71883E-02-1.55434E-02
 -1      1005-5.53053E-01-9.21493E-01-6.83350E-02 5.92668E-01-1.46588E-02-2.06939E-02
 -1      1006-2.07241E+00-2.83422E+01 3.34603E+00-7.12310E+00-2.58685E-01-1.53637E-01
 -1      1007-1.41740E-01-2.98324E+01-2.20844E-01-7.53545E+00 2.54776E-01-8.87793E-02
 -1      1008 8.50253E-01-3.01881E+01 2.74069E-01-7.78314E+00-6.70454E-02-6.55510E-02
 -1      1009 7.09097E-01-2.90921E+01-5.00608E-02-8.48353E+00-8.70947E-03-7.98407E-02
 -1      1010 2.45374E-01-2.73942E+01-1.67122E-02-9.49239E+00 7.76533E-04-7.95443E-02
 -1      1011-5.82711E-01-2.55984E+01-1.09333E-02-1.05940E+01 1.17415E-02-8.13729E-02
 -1      1012-1.66856E+00-2.36946E+01 7.74792E-04-1.16402E+01 1.83477E-02-8.07405E-02
 -1      1013-2.93967E+00-2.16631E+01 6.20348E-03-1.25372E+01 2.33276E-02-7.99482E-02
 -1      1014-4.33327E+00-1.95037E+01 1.00980E-02-1.32228E+01 2.72061E-02-7.83134E-02
 -1      1015-5.79336E+00-1.72381E+01 1.26314E-02-1.36559E+01 3.01693E-02-7.60752E-02
 -1      1016-7.26512E+00-1.48997E+01 1.43923E-02-1.38103E+01 3.23243E-02-7.32674E-02
 -1      1017-8.69412E+00-1.25299E+01 1.55569E-02-1.36716E+01 3.37161E-02-6.99732E-02
 -1      1018-1.00262E+01-1.01753E+01 1.62542E-02-1.32363E+01 3.43548E-02-6.62520E-02
 -1      1019-1.12081E+01-7.88650E+00 1.65119E-02-1.25115E+01 3.42278E-02-6.21610E-02
 -1      1020-1.21885E+01-5.71576E+00 1.62942E-02-1.15147E+01 3.33125E-02-5.77534E-02
 -1      1021-1.29192E+01-3.71594E+00 1.55112E-02-1.02749E+01 3.15844E-02-5.30823E-02
 -1      1022-1.33577E+01-1.93842E+00 1.40326E-02-8.83225E+00 2.90256E-02-4.82035E-02
 -1      1023-1.34691E+01-4.30745E-01 1.17011E-02-7.23945E+00 2.56336E-02-4.31790E-02
 -1      1024-1.32302E+01 7.66444E-01 8.35234E-03-5.56115E+00 2.14319E-02-3.80806E-02
 -1      1025-1.26329E+01 1.62313E+00 3.84233E-03-3.87324E+00 1.64826E-02-3.29940E-02
 -1      1026-1.16885E+01 2.12428E+00-1.91331E-03-2.26061E+00 1.09014E-02-2.80226E-02
 -1      1027-1.04315E+01 2.27444E+00-8.88755E-03-8.12984E-01 4.87397E-03-2.32927E-02
 -1      1028-8.92229E+00 2.10208E+00-1.68709E-02 3.81473E-01-1.32684E-03-1.89611E-02
 -1      1029-7.24722E+00 1.66281E+00-2.54058E-02 1.24512E+00-7.32007E-03-1.52318E-02
 -1      1030-5.51505E+00 1.04099E+00-3.36313E-02 1.72249E+00-1.26152E-02-1.23773E-02
 -1      1031-3.84871E+00 3.49085E-01-4.08474E-02 1.79464E+00-1.65235E-02-1.08360E-02
 -1      1032-2.37394E+00-2.73211E-01-4.61151E-02 1.49683E+00-1.83335E-02-1.08534E-02
 -1      1033-1.21291E+00-6.58887E-01-5.73672E-02 9.38410E-01-1.61555E-02-1.37190E-02
 -1      1034-4.77663E-01-5.92129E-01-5.91841E-02 3.37831E-01-1.27172E-02-1.70598E-02
 -1      1035-1.47690E+00-3.13075E+01 3.86163E+00-7.52937E+00-3.08489E-01-1.40807E-01
 -1      1036 1.67062E-01-3.27643E+01-2.84792E-01-7.29403E+00 2.90243E-01-6.43154E-02
 -1      1037 6.03972E-01-3.26668E+01 2.18720E-01-7.42402E+00-7.91715E-02-5.25575E-02
 -1      1038 2.05185E-01-3.11958E+01-8.66408E-02-8.25585E+00-9.11099E-03-7.44818E-02
 -1      1039-3.63906E-01-2.93913E+01-1.99442E-02-9.39023E+00 1.40191E-03-7.61273E-02
 -1      1040-1.26695E+00-2.75980E+01-1.05376E-02-1.05875E+01 1.24199E-02-7.82651E-02
 -1      1041-2.38153E+00-2.57139E+01 2.77852E-03-1.17044E+01 1.84585E-02-7.83710E-02
 -1      1042-3.65366E+00-2.37021E+01 8.47121E-03-1.26564E+01 2.29973E-02-7.80224E-02
 -1      1043-5.02651E+00-2.15544E+01 1.21603E-02-1.33873E+01 2.64692E-02-7.67838E-02
 -1      1044-6.44838E+00-1.92904E+01 1.44968E-02-1.38604E+01 2.90876E-02-7.49089E-02
 -1      1045-7.86678E+00-1.69430E+01 1.60567E-02-1.40520E+01 3.09554E-02-7.24535E-02
 -1      1046-9.22873E+00-1.45532E+01 1.70634E-02-1.39497E+01 3.21068E-02-6.95171E-02
 -1      1047-1.04811E+01-1.21673E+01 1.76369E-02-1.35517E+01 3.25470E-02-6.61636E-02
 -1      1048-1.15716E+01-9.83522E+00 1.77956E-02-1.28659E+01 3.22587E-02-6.24525E-02
 -1      1049-1.24500E+01-7.60808E+00 1.74872E-02-1.19111E+01 3.12162E-02-5.84348E-02
 -1      1050-1.30699E+01-5.53710E+00 1.66034E-02-1.07165E+01 2.93931E-02-5.41581E-02
 -1      1051-1.33912E+01-3.67152E+00 1.49931E-02-9.32265E+00 2.67704E-02-4.96683E-02
 -1      1052-1.33825E+01-2.05635E+00 1.24776E-02-7.78151E+00 2.33447E-02-4.50127E-02
 -1      1053-1.30250E+01-7.29656E-01 8.86931E-03-6.15619E+00 1.91387E-02-4.02431E-02
 -1      1054-1.23163E+01 2.80777E-01 4.00035E-03-4.51976E+00 1.42139E-02-3.54192E-02
 -1      1055-1.12742E+01 9.61101E-01-2.23838E-03-2.95285E+00 8.68484E-03-3.06116E-02
 -1      1056-9.94048E+00 1.31517E+00-9.84428E-03-1.53955E+00 2.73632E-03-2.59065E-02
 -1      1057-8.38278E+00 1.36786E+00-1.86256E-02-3.61277E-01-3.35873E-03-2.14136E-02
 -1      1058-6.69456E+00 1.16729E+00-2.81103E-02 5.11376E-01-9.21568E-03-1.72828E-02
 -1      1059-4.99039E+00 7.85427E-01-3.73074E-02 1.02901E+00-1.43306E-02-1.37369E-02
 -1      1060-3.39563E+00 3.16654E-01-4.47986E-02 1.17613E+00-1.79748E-02-1.12010E-02
 -1      1061-2.03087E+00-1.25037E-01-4.87184E-02 9.87500E-01-1.93257E-02-1.00770E-02
 -1      1062-1.00042E+00-4.06833E-01-5.42728E-02 5.69175E-01-1.60706E-02-1.12952E-02
 -1      1063-3.74959E-01-3.50917E-01-4.95993E-02 1.37193E-01-1.14239E-02-1.24689E-02
 -1      1064-1.08346E-01-3.45265E+01 4.57686E+00-7.43498E+00-3.61004E-01-1.11848E-01
 -1      1065 3.61039E-01-3.57519E+01-5.20917E-01-6.51234E+00 3.28365E-01-3.40961E-02
 -1      1066 1.16141E-01-3.47776E+01 1.28280E-01-6.93297E+00-9.22284E-02-3.49090E-02
 -1      1067-3.34231E-01-3.29960E+01-1.04624E-01-7.99238E+00-6.15814E-03-7.36263E-02
 -1      1068-1.02605E+00-3.12209E+01-1.81663E-02-9.29170E+00 4.02590E-03-7.16449E-02
 -1      1069-1.97985E+00-2.94799E+01-1.04849E-02-1.05907E+01 1.39489E-02-7.57287E-02
 -1      1070-3.11151E+00-2.76486E+01 4.85508E-03-1.17803E+01 1.91547E-02-7.62541E-02
 -1      1071-4.37577E+00-2.56765E+01 9.50814E-03-1.27863E+01 2.30683E-02-7.63868E-02
 -1      1072-5.72153E+00-2.35539E+01 1.29416E-02-1.35613E+01 2.60026E-02-7.55457E-02
 -1      1073-7.10041E+00-2.13013E+01 1.49430E-02-1.40734E+01 2.82189E-02-7.40240E-02
 -1      1074-8.46180E+00-1.89523E+01 1.63223E-02-1.43020E+01 2.97532E-02-7.19236E-02
 -1      1075-9.75387E+00-1.65486E+01 1.72225E-02-1.42366E+01 3.06335E-02-6.93485E-02
 -1      1076-1.09243E+01-1.41366E+01 1.77609E-02-1.38765E+01 3.08502E-02-6.63720E-02
 -1      1077-1.19217E+01-1.17656E+01 1.79311E-02-1.32310E+01 3.03791E-02-6.30551E-02
 -1      1078-1.26967E+01-9.48598E+00 1.76595E-02-1.23193E+01 2.91893E-02-5.94477E-02
 -1      1079-1.32047E+01-7.34729E+00 1.68135E-02-1.11708E+01 2.72510E-02-5.55913E-02
 -1      1080-1.34074E+01-5.39682E+00 1.52150E-02-9.82590E+00 2.45430E-02-5.15217E-02
 -1      1081-1.32767E+01-3.67729E+00 1.26543E-02-8.33552E+00 2.10604E-02-4.72704E-02
 -1      1082-1.27979E+01-2.22448E+00 8.90907E-03-6.76075E+00 1.68244E-02-4.28668E-02
 -1      1083-1.19735E+01-1.06436E+00 3.77136E-03-5.17150E+00 1.18950E-02-3.83406E-02
 -1      1084-1.08274E+01-2.10049E-01-2.91358E-03-3.64388E+00 6.38460E-03-3.37238E-02
 -1      1085-9.40824E+00 3.41153E-01-1.11946E-02-2.25618E+00 4.75420E-04-2.90538E-02
 -1      1086-7.79107E+00 6.10247E-01-2.09405E-02-1.08312E+00-5.56194E-03-2.43798E-02
 -1      1087-6.07713E+00 6.37867E-01-3.17208E-02-1.88419E-01-1.13433E-02-1.97758E-02
 -1      1088-4.38892E+00 4.84048E-01-4.25797E-02 3.84298E-01-1.63547E-02-1.53751E-02
 -1      1089-2.85864E+00 2.26287E-01-5.15280E-02 6.22181E-01-1.98521E-02-1.15187E-02
 -1      1090-1.60714E+00-4.38840E-02-5.51880E-02 5.57109E-01-2.09176E-02-8.87653E-03
 -1      1091-7.24257E-01-2.27539E-01-5.46844E-02 2.85371E-01-1.68438E-02-8.23008E-03
 -1      1092-2.34647E-01-1.82778E-01-4.05592E-02 6.60703E-03-1.03700E-02-6.84188E-03
 -1      1093 2.70931E+00-3.82571E+01 5.41501E+00-5.28918E+00-4.11060E-01-1.41095E-01
 -1      1094-6.50764E-01-3.84445E+01-1.00656E+00-5.51094E+00 3.84886E-01 6.98645E-02
 -1      1095-3.00069E-01-3.61131E+01 1.30363E-01-6.37854E+00-1.16839E-01-4.32192E-02
 -1      1096-9.72491E-01-3.45359E+01-6.19001E-02-7.77895E+00 1.21343E-03-6.08482E-02
 -1      1097-1.73280E+00-3.28755E+01-3.10313E-03-9.22800E+00 6.09510E-03-6.33736E-02
 -1      1098-2.71826E+00-3.12481E+01 1.27292E-02-1.06263E+01 1.46511E-02-6.89887E-02
 -1      1099-3.85398E+00-2.95018E+01 2.19765E-02-1.18807E+01 1.88896E-02-7.02708E-02
 -1      1100-5.10141E+00-2.75881E+01 2.51993E-02-1.29353E+01 2.17110E-02-7.13586E-02
 -1      1101-6.41385E+00-2.55030E+01 2.68430E-02-1.37506E+01 2.40042E-02-7.11652E-02
 -1      1102-7.74514E+00-2.32710E+01 2.77075E-02-1.42993E+01 2.56744E-02-7.02932E-02
 -1      1103-9.04601E+00-2.09278E+01 2.81358E-02-1.45636E+01 2.67855E-02-6.88079E-02
 -1      1104-1.02655E+01-1.85164E+01 2.82731E-02-1.45348E+01 2.73220E-02-6.68517E-02
 -1      1105-1.13519E+01-1.60837E+01 2.81691E-02-1.42133E+01 2.72639E-02-6.45020E-02
 -1      1106-1.22543E+01-1.36789E+01 2.77896E-02-1.36091E+01 2.65755E-02-6.18243E-02
 -1      1107-1.29245E+01-1.13513E+01 2.70383E-02-1.27417E+01 2.52181E-02-5.88664E-02
 -1      1108-1.33187E+01-9.14917E+00 2.57655E-02-1.16407E+01 2.31556E-02-5.56633E-02
 -1      1109-1.34009E+01-7.11793E+00 2.37775E-02-1.03455E+01 2.03612E-02-5.22385E-02
 -1      1110-1.31455E+01-5.29815E+00 2.08464E-02-8.90592E+00 1.68245E-02-4.86056E-02
 -1      1111-1.25412E+01-3.72356E+00 1.67255E-02-7.38049E+00 1.25623E-02-4.47689E-02
 -1      1112-1.15953E+01-2.41861E+00 1.11723E-02-5.83557E+00 7.62946E-03-4.07248E-02
 -1      1113-1.03372E+01-1.39600E+00 3.98162E-03-4.34241E+00 2.13450E-03-3.64629E-02
 -1      1114-8.82181E+00-6.54503E-01-4.96947E-03-2.97320E+00-3.74312E-03-3.19668E-02
 -1      1115-7.13167E+00-1.77201E-01-1.56603E-02-1.79568E+00-9.73202E-03-2.72170E-02
 -1      1116-5.37635E+00 6.90292E-02-2.78266E-02-8.66305E-01-1.54406E-02-2.21975E-02
 -1      1117-3.68801E+00 1.32687E-01-4.07210E-02-2.22430E-01-2.03335E-02-1.69270E-02
 -1      1118-2.21032E+00 7.50570E-02-5.26289E-02 1.26465E-01-2.36166E-02-1.15650E-02
 -1      1119-1.07425E+00-3.23634E-02-5.89155E-02 2.09105E-01-2.43589E-02-7.07756E-03
 -1      1120-3.61477E-01-1.17148E-01-5.50759E-02 1.06944E-01-1.94610E-02-5.20178E-03
 -1      1121-4.48085E-02-7.52356E-02-2.90089E-02-2.69795E-02-9.74497E-03-1.73912E-03
 -1      1122 4.81070E+01 1.12248E+02 4.81071E+01-1.03179E+00-1.85899E+01 6.08748E-06
 -1      1123 4.54070E+01 1.05948E+02 4.54070E+01-1.75786E+00-1.29172E+01 2.80800E-06
 -1      1124 4.42908E+01 1.03344E+02 4.42907E+01-2.30496E+00-8.61133E+00 2.04233E-06
 -1      1125 4.38126E+01 1.02228E+02 4.38125E+01-2.65177E+00-4.96201E+00 1.42389E-06
 -1      1126 4.36282E+01 1.01798E+02 4.36281E+01-2.81904E+00-1.62323E+00 5.13706E-07
 -1      1127 4.36282E+01 1.01798E+02 4.36281E+01-2.81904E+00 1.62323E+00-5.13706E-07
 -1      1128 4.38126E+01 1.02228E+02 4.38125E+01-2.65177E+00 4.96201E+00-1.42389E-06
 -1      1129 4.42908E+01 1.03344E+02 4.42907E+01-2.30496E+00 8.61133E+00-2.04233E-06
 -1      1130 4.54070E+01 1.05948E+02 4.54070E+01-1.75786E+00 1.29172E+01-2.80800E-06
 -1      1131 4.81070E+01 1.12248E+02 4.81071E+01-1.03179E+00 1.85899E+01-6.08748E-06
 -1      1132 4.13522E+01 9.64876E+01 4.13524E+01 4.58677E+00-1.69239E+01 5.69902E-06
 -1      1133 3.89672E+01 9.09229E+01 3.89674E+01 4.00348E+00-1.17775E+01 3.32012E-06
 -1      1134 3.79513E+01 8.85523E+01 3.79514E+01 3.59706E+00-7.83330E+00 1.71605E-06
 -1      1135 3.74985E+01 8.74958E+01 3.74985E+01 3.33581E+00-4.50238E+00 9.50416E-07
 -1      1136 3.73191E+01 8.70773E+01 3.73191E+01 3.20837E+00-1.47075E+00 3.14892E-07
 -1      1137 3.73191E+01 8.70773E+01 3.73191E+01 3.20837E+00 1.47075E+00-3.14892E-07
 -1      1138 3.74985E+01 8.74958E+01 3.74985E+01 3.33581E+00 4.50238E+00-9.50416E-07
 -1      1139 3.79513E+01 8.85523E+01 3.79514E+01 3.59706E+00 7.83330E+00-1.71605E-06
 -1      1140 3.89672E+01 9.09229E+01 3.89674E+01 4.00348E+00 1.17775E+01-3.32012E-06
 -1      1141 4.13522E+01 9.64876E+01 4.13524E+01 4.58677E+00 1.69239E+01-5.69902E-06
 -1      1142 3.56204E+01 8.31138E+01 3.56207E+01 6.86683E+00-1.51057E+01 9.25700E-06
 -1      1143 3.34854E+01 7.81322E+01 3.34856E+01 6.36855E+00-1.05988E+01 6.68540E-06
 -1      1144 3.25754E+01 7.60088E+01 3.25755E+01 6.04124E+00-7.07889E+00 4.11995E-06
 -1      1145 3.21615E+01 7.50432E+01 3.21616E+01 5.83929E+00-4.07634E+00 2.25183E-06
 -1      1146 3.19951E+01 7.46549E+01 3.19952E+01 5.74190E+00-1.33245E+00 7.18389E-07
 -1      1147 3.19951E+01 7.46549E+01 3.19952E+01 5.74190E+00 1.33245E+00-7.18389E-07
 -1      1148 3.21615E+01 7.50432E+01 3.21616E+01 5.83929E+00 4.07634E+00-2.25183E-06
 -1      1149 3.25754E+01 7.60088E+01 3.25755E+01 6.04124E+00 7.07889E+00-4.11995E-06
 -1      1150 3.34854E+01 7.81322E+01 3.34856E+01 6.36855E+00 1.05988E+01-6.68540E-06
 -1      1151 3.56204E+01 8.31138E+01 3.56207E+01 6.86683E+00 1.51057E+01-9.25700E-06
 -1      1152 3.08442E+01 7.19694E+01 3.08445E+01 7.66609E+00-1.32711E+01 9.51443E-06
 -1      1153 2.89464E+01 6.75413E+01 2.89466E+01 7.18756E+00-9.38347E+00 8.16521E-06
 -1      1154 2.81338E+01 6.56453E+01 2.81340E+01 6.89408E+00-6.29645E+00 5.60622E-06
 -1      1155 2.77604E+01 6.47740E+01 2.77605E+01 6.72018E+00-3.63594E+00 3.25738E-06
 -1      1156 2.76093E+01 6.44214E+01 2.76094E+01 6.63851E+00-1.19004E+00 1.06563E-06
 -1      1157 2.76093E+01 6.44214E+01 2.76094E+01 6.63851E+00 1.19004E+00-1.06563E-06
 -1      1158 2.77604E+01 6.47740E+01 2.77605E+01 6.72018E+00 3.63594E+00-3.25738E-06
 -1      1159 2.81338E+01 6.56453E+01 2.81340E+01 6.89408E+00 6.29645E+00-5.60622E-06
 -1      1160 2.89464E+01 6.75413E+01 2.89466E+01 7.18756E+00 9.38347E+00-8.16521E-06
 -1      1161 3.08442E+01 7.19694E+01 3.08445E+01 7.66609E+00 1.32711E+01-9.51443E-06
 -1      1162 2.67024E+01 6.23054E+01 2.67027E+01 7.66124E+00-1.15449E+01 8.81082E-06
 -1      1163 2.50317E+01 5.84072E+01 2.50319E+01 7.20592E+00-8.20926E+00 8.09053E-06
 -1      1164 2.43100E+01 5.67232E+01 2.43102E+01 6.92788E+00-5.52827E+00 5.91071E-06
 -1      1165 2.39746E+01 5.59406E+01 2.39747E+01 6.76608E+00-3.19939E+00 3.56527E-06
 -1      1166 2.38380E+01 5.56219E+01 2.38382E+01 6.69108E+00-1.04827E+00 1.18847E-06
 -1      1167 2.38380E+01 5.56219E+01 2.38382E+01 6.69108E+00 1.04827E+00-1.18847E-06
 -1      1168 2.39746E+01 5.59406E+01 2.39747E+01 6.76608E+00 3.19939E+00-3.56527E-06
 -1      1169 2.43100E+01 5.67232E+01 2.43102E+01 6.92788E+00 5.52827E+00-5.91071E-06
 -1      1170 2.50317E+01 5.84072E+01 2.50319E+01 7.20592E+00 8.20926E+00-8.09053E-06
 -1      1171 2.67024E+01 6.23054E+01 2.67027E+01 7.66124E+00 1.15449E+01-8.81082E-06
 -1      1172 2.30525E+01 5.37889E+01 2.30527E+01 7.21702E+00-9.96081E+00 7.88185E-06
 -1      1173 2.15968E+01 5.03924E+01 2.15970E+01 6.78781E+00-7.11665E+00 7.49448E-06
 -1      1174 2.09608E+01 4.89085E+01 2.09610E+01 6.52385E+00-4.80546E+00 5.62312E-06
 -1      1175 2.06619E+01 4.82111E+01 2.06621E+01 6.36970E+00-2.78554E+00 3.45577E-06
 -1      1176 2.05394E+01 4.79252E+01 2.05396E+01 6.29832E+00-9.13369E-01 1.16299E-06
 -1      1177 2.05394E+01 4.79252E+01 2.05396E+01 6.29832E+00 9.13369E-01-1.16299E-06
 -1      1178 2.06619E+01 4.82111E+01 2.06621E+01 6.36970E+00 2.78554E+00-3.45577E-06
 -1      1179 2.09608E+01 4.89085E+01 2.09610E+01 6.52385E+00 4.80546E+00-5.62312E-06
 -1      1180 2.15968E+01 5.03924E+01 2.15970E+01 6.78781E+00 7.11665E+00-7.49448E-06
 -1      1181 2.30525E+01 5.37889E+01 2.30527E+01 7.21702E+00 9.96081E+00-7.88185E-06
 -1      1182 1.97899E+01 4.61764E+01 1.97902E+01 6.53302E+00-8.52475E+00 6.96222E-06
 -1      1183 1.85352E+01 4.32486E+01 1.85353E+01 6.13198E+00-6.11605E+00 6.77657E-06
 -1      1184 1.79802E+01 4.19539E+01 1.79804E+01 5.88270E+00-4.13936E+00 5.15965E-06
 -1      1185 1.77165E+01 4.13385E+01 1.77167E+01 5.73610E+00-2.40252E+00 3.19678E-06
 -1      1186 1.76077E+01 4.10846E+01 1.76079E+01 5.66794E+00-7.88241E-01 1.08043E-06
 -1      1187 1.76077E+01 4.10846E+01 1.76079E+01 5.66794E+00 7.88241E-01-1.08043E-06
 -1      1188 1.77165E+01 4.13385E+01 1.77167E+01 5.73610E+00 2.40252E+00-3.19678E-06
 -1      1189 1.79802E+01 4.19539E+01 1.79804E+01 5.88270E+00 4.13936E+00-5.15965E-06
 -1      1190 1.85352E+01 4.32486E+01 1.85353E+01 6.13198E+00 6.11605E+00-6.77657E-06
 -1      1191 1.97899E+01 4.61764E+01 1.97902E+01 6.53302E+00 8.52475E+00-6.96222E-06
 -1      1192 1.68412E+01 3.92961E+01 1.68414E+01 5.72481E+00-7.22780E+00 6.13070E-06
 -1      1193 1.57721E+01 3.68016E+01 1.57723E+01 5.35192E+00-5.20542E+00 6.08821E-06
 -1      1194 1.52934E+01 3.56846E+01 1.52936E+01 5.11787E+00-3.53045E+00 4.68496E-06
 -1      1195 1.50635E+01 3.51483E+01 1.50637E+01 4.97923E+00-2.05147E+00 2.91680E-06
 -1      1196 1.49681E+01 3.49255E+01 1.49682E+01 4.91450E+00-6.73413E-01 9.87870E-07
 -1      1197 1.49681E+01 3.49255E+01 1.49682E+01 4.91450E+00 6.73413E-01-9.87870E-07
 -1      1198 1.50635E+01 3.51483E+01 1.50637E+01 4.97923E+00 2.05147E+00-2.91680E-06
 -1      1199 1.52934E+01 3.56846E+01 1.52936E+01 5.11787E+00 3.53045E+00-4.68496E-06
 -1      1200 1.57721E+01 3.68016E+01 1.57723E+01 5.35192E+00 5.20542E+00-6.08821E-06
 -1      1201 1.68412E+01 3.92961E+01 1.68414E+01 5.72481E+00 7.22780E+00-6.13070E-06
 -1      1202 1.41507E+01 3.30182E+01 1.41509E+01 4.86038E+00-6.05629E+00 5.39727E-06
 -1      1203 1.32520E+01 3.09213E+01 1.32521E+01 4.51422E+00-4.37735E+00 5.47183E-06
 -1      1204 1.28446E+01 2.99706E+01 1.28447E+01 4.29519E+00-2.97478E+00 4.25357E-06
 -1      1205 1.26470E+01 2.95097E+01 1.26471E+01 4.16467E+00-1.73048E+00 2.65918E-06
 -1      1206 1.25645E+01 2.93171E+01 1.25646E+01 4.10351E+00-5.68324E-01 9.02117E-07
 -1      1207 1.25645E+01 2.93171E+01 1.25646E+01 4.10351E+00 5.68324E-01-9.02117E-07
 -1      1208 1.26470E+01 2.95097E+01 1.26471E+01 4.16467E+00 1.73048E+00-2.65918E-06
 -1      1209 1.28446E+01 2.99706E+01 1.28447E+01 4.29519E+00 2.97478E+00-4.25357E-06
 -1      1210 1.32520E+01 3.09213E+01 1.32521E+01 4.51422E+00 4.37735E+00-5.47183E-06
 -1      1211 1.41507E+01 3.30182E+01 1.41509E+01 4.86038E+00 6.05629E+00-5.39727E-06
 -1      1212 1.16751E+01 2.72420E+01 1.16753E+01 3.97985E+00-4.99576E+00 4.75071E-06
 -1      1213 1.09321E+01 2.55083E+01 1.09323E+01 3.65830E+00-3.62312E+00 4.92809E-06
 -1      1214 1.05910E+01 2.47125E+01 1.05912E+01 3.45349E+00-2.46700E+00 3.87395E-06
 -1      1215 1.04242E+01 2.43232E+01 1.04243E+01 3.33088E+00-1.43664E+00 2.43302E-06
 -1      1216 1.03541E+01 2.41596E+01 1.03542E+01 3.27326E+00-4.72049E-01 8.26848E-07
 -1      1217 1.03541E+01 2.41596E+01 1.03542E+01 3.27326E+00 4.72049E-01-8.26848E-07
 -1      1218 1.04242E+01 2.43232E+01 1.04243E+01 3.33088E+00 1.43664E+00-2.43302E-06
 -1      1219 1.05910E+01 2.47125E+01 1.05912E+01 3.45349E+00 2.46700E+00-3.87395E-06
 -1      1220 1.09321E+01 2.55083E+01 1.09323E+01 3.65830E+00 3.62312E+00-4.92809E-06
 -1      1221 1.16751E+01 2.72420E+01 1.16753E+01 3.97985E+00 4.99576E+00-4.75071E-06
 -1      1222 9.38027E+00 2.18873E+01 9.38042E+00 3.10652E+00-4.03273E+00 4.17575E-06
 -1      1223 8.77910E+00 2.04846E+01 8.77923E+00 2.80722E+00-2.93420E+00 4.44581E-06
 -1      1224 8.49967E+00 1.98326E+01 8.49978E+00 2.61554E+00-2.00171E+00 3.53967E-06
 -1      1225 8.36180E+00 1.95109E+01 8.36191E+00 2.50036E+00-1.16693E+00 2.23533E-06
 -1      1226 8.30358E+00 1.93751E+01 8.30368E+00 2.44611E+00-3.83617E-01 7.61300E-07
 -1      1227 8.30358E+00 1.93751E+01 8.30368E+00 2.44611E+00 3.83617E-01-7.61300E-07
 -1      1228 8.36180E+00 1.95109E+01 8.36191E+00 2.50036E+00 1.16693E+00-2.23533E-06
 -1      1229 8.49967E+00 1.98326E+01 8.49978E+00 2.61554E+00 2.00171E+00-3.53967E-06
 -1      1230 8.77910E+00 2.04846E+01 8.77923E+00 2.80722E+00 2.93420E+00-4.44581E-06
 -1      1231 9.38027E+00 2.18873E+01 9.38042E+00 3.10652E+00 4.03273E+00-4.17575E-06
 -1      1232 7.23833E+00 1.68895E+01 7.23846E+00 2.25333E+00-3.15522E+00 3.65888E-06
 -1      1233 6.76625E+00 1.57880E+01 6.76636E+00 1.97397E+00-2.30291E+00 4.01285E-06
 -1      1234 6.54394E+00 1.52693E+01 6.54405E+00 1.79419E+00-1.57400E+00 3.24160E-06
 -1      1235 6.43335E+00 1.50112E+01 6.43345E+00 1.68585E+00-9.18589E-01 2.06049E-06
 -1      1236 6.38642E+00 1.49017E+01 6.38651E+00 1.63473E+00-3.02126E-01 7.03585E-07
 -1      1237 6.38642E+00 1.49017E+01 6.38651E+00 1.63473E+00 3.02126E-01-7.03585E-07
 -1      1238 6.43335E+00 1.50112E+01 6.43345E+00 1.68585E+00 9.18589E-01-2.06049E-06
 -1      1239 6.54394E+00 1.52693E+01 6.54405E+00 1.79419E+00 1.57400E+00-3.24160E-06
 -1      1240 6.76625E+00 1.57880E+01 6.76636E+00 1.97397E+00 2.30291E+00-4.01285E-06
 -1      1241 7.23833E+00 1.68895E+01 7.23846E+00 2.25333E+00 3.15522E+00-3.65888E-06
 -1      1242 5.22653E+00 1.21953E+01 5.22664E+00 1.42675E+00-2.35283E+00 3.18953E-06
 -1      1243 4.87184E+00 1.13677E+01 4.87193E+00 1.16516E+00-1.72250E+00 3.61934E-06
 -1      1244 4.70245E+00 1.09725E+01 4.70254E+00 9.96097E-01-1.17954E+00 2.97183E-06
 -1      1245 4.61746E+00 1.07741E+01 4.61754E+00 8.93959E-01-6.89151E-01 1.90336E-06
 -1      1246 4.58121E+00 1.06896E+01 4.58129E+00 8.45702E-01-2.26782E-01 6.51930E-07
 -1      1247 4.58121E+00 1.06896E+01 4.58129E+00 8.45702E-01 2.26782E-01-6.51930E-07
 -1      1248 4.61746E+00 1.07741E+01 4.61754E+00 8.93959E-01 6.89151E-01-1.90336E-06
 -1      1249 4.70245E+00 1.09725E+01 4.70254E+00 9.96097E-01 1.17954E+00-2.97183E-06
 -1      1250 4.87184E+00 1.13677E+01 4.87193E+00 1.16516E+00 1.72250E+00-3.61934E-06
 -1      1251 5.22653E+00 1.21953E+01 5.22664E+00 1.42675E+00 2.35283E+00-3.18953E-06
 -1      1252 3.32589E+00 7.76050E+00 3.32598E+00 6.29111E-01-1.61658E+00 2.75975E-06
 -1      1253 3.07794E+00 7.18195E+00 3.07802E+00 3.83349E-01-1.18713E+00 3.25799E-06
 -1      1254 2.95753E+00 6.90099E+00 2.95760E+00 2.23873E-01-8.14559E-01 2.72452E-06
 -1      1255 2.89652E+00 6.75865E+00 2.89659E+00 1.27324E-01-4.76490E-01 1.76005E-06
 -1      1256 2.87037E+00 6.69762E+00 2.87044E+00 8.16560E-02-1.56892E-01 6.04978E-07
 -1      1257 2.87037E+00 6.69762E+00 2.87044E+00 8.16560E-02 1.56892E-01-6.04978E-07
 -1      1258 2.89652E+00 6.75865E+00 2.89659E+00 1.27324E-01 4.76490E-01-1.76005E-06
 -1      1259 2.95753E+00 6.90099E+00 2.95760E+00 2.23873E-01 8.14559E-01-2.72452E-06
 -1      1260 3.07794E+00 7.18195E+00 3.07802E+00 3.83349E-01 1.18713E+00-3.25799E-06
 -1      1261 3.32589E+00 7.76050E+00 3.32598E+00 6.29111E-01 1.61658E+00-2.75975E-06
 -1      1262 1.52038E+00 3.54766E+00 1.52045E+00-1.39946E-01-9.38718E-01 2.36364E-06
 -1      1263 1.36948E+00 3.19556E+00 1.36954E+00-3.71610E-01-6.91731E-01 2.92364E-06
 -1      1264 1.29440E+00 3.02038E+00 1.29446E+00-5.22513E-01-4.75795E-01 2.49559E-06
 -1      1265 1.25584E+00 2.93041E+00 1.25590E+00-6.14044E-01-2.78763E-01 1.62786E-06
 -1      1266 1.23919E+00 2.89156E+00 1.23925E+00-6.57379E-01-9.18580E-02 5.61786E-07
 -1      1267 1.23919E+00 2.89156E+00 1.23925E+00-6.57379E-01 9.18580E-02-5.61786E-07
 -1      1268 1.25584E+00 2.93041E+00 1.25590E+00-6.14044E-01 2.78763E-01-1.62786E-06
 -1      1269 1.29440E+00 3.02038E+00 1.29446E+00-5.22513E-01 4.75795E-01-2.49559E-06
 -1      1270 1.36948E+00 3.19556E+00 1.36954E+00-3.71610E-01 6.91731E-01-2.92364E-06
 -1      1271 1.52038E+00 3.54766E+00 1.52045E+00-1.39946E-01 9.38718E-01-2.36364E-06
 -1      1272-2.03807E-01-4.75425E-01-2.03757E-01-8.82568E-01-3.12559E-01 1.99678E-06
 -1      1273-2.66447E-01-6.21586E-01-2.66399E-01-1.10166E+00-2.31896E-01 2.61277E-06
 -1      1274-2.99571E-01-6.98876E-01-2.99524E-01-1.24490E+00-1.60413E-01 2.28242E-06
 -1      1275-3.17146E-01-7.39884E-01-3.17100E-01-1.33193E+00-9.43641E-02 1.50507E-06
 -1      1276-3.24853E-01-7.57868E-01-3.24807E-01-1.37316E+00-3.11600E-02 5.21749E-07
 -1      1277-3.24853E-01-7.57868E-01-3.24807E-01-1.37316E+00 3.11600E-02-5.21749E-07
 -1      1278-3.17146E-01-7.39884E-01-3.17100E-01-1.33193E+00 9.43641E-02-1.50507E-06
 -1      1279-2.99571E-01-6.98876E-01-2.99524E-01-1.24490E+00 1.60413E-01-2.28242E-06
 -1      1280-2.66447E-01-6.21586E-01-2.66399E-01-1.10166E+00 2.31896E-01-2.61277E-06
 -1      1281-2.03807E-01-4.75425E-01-2.03757E-01-8.82568E-01 3.12559E-01-1.99678E-06
 -1      1282-1.85880E+00-4.33706E+00-1.85877E+00-1.60218E+00 2.67714E-01 1.65596E-06
 -1      1283-1.84117E+00-4.29591E+00-1.84113E+00-1.81003E+00 1.96219E-01 2.32315E-06
 -1      1284-1.83547E+00-4.28263E+00-1.83544E+00-1.94641E+00 1.34068E-01 2.08354E-06
 -1      1285-1.83344E+00-4.27789E+00-1.83341E+00-2.02940E+00 7.81083E-02 1.39077E-06
 -1      1286-1.83275E+00-4.27628E+00-1.83272E+00-2.06875E+00 2.56573E-02 4.84549E-07
 -1      1287-1.83275E+00-4.27628E+00-1.83272E+00-2.06875E+00-2.56573E-02-4.84549E-07
 -1      1288-1.83344E+00-4.27789E+00-1.83341E+00-2.02940E+00-7.81083E-02-1.39077E-06
 -1      1289-1.83547E+00-4.28263E+00-1.83544E+00-1.94641E+00-1.34068E-01-2.08354E-06
 -1      1290-1.84117E+00-4.29591E+00-1.84113E+00-1.81003E+00-1.96219E-01-2.32315E-06
 -1      1291-1.85880E+00-4.33706E+00-1.85877E+00-1.60218E+00-2.67714E-01-1.65596E-06
 -1      1292-3.45559E+00-8.06289E+00-3.45558E+00-2.30320E+00 8.07192E-01 1.33902E-06
 -1      1293-3.36494E+00-7.85137E+00-3.36492E+00-2.50101E+00 5.96000E-01 2.05377E-06
 -1      1294-3.32334E+00-7.75430E+00-3.32332E+00-2.63123E+00 4.09840E-01 1.89856E-06
 -1      1295-3.30302E+00-7.70689E+00-3.30299E+00-2.71058E+00 2.39894E-01 1.28476E-06
 -1      1296-3.29445E+00-7.68690E+00-3.29443E+00-2.74823E+00 7.89958E-02 4.50132E-07
 -1      1297-3.29445E+00-7.68690E+00-3.29443E+00-2.74823E+00-7.89958E-02-4.50132E-07
 -1      1298-3.30302E+00-7.70689E+00-3.30299E+00-2.71058E+00-2.39894E-01-1.28476E-06
 -1      1299-3.32334E+00-7.75430E+00-3.32332E+00-2.63123E+00-4.09840E-01-1.89856E-06
 -1      1300-3.36494E+00-7.85137E+00-3.36492E+00-2.50101E+00-5.96000E-01-2.05377E-06
 -1      1301-3.45559E+00-8.06289E+00-3.45558E+00-2.30320E+00-8.07192E-01-1.33902E-06
 -1      1302-5.00452E+00-1.16770E+01-5.00452E+00-2.99099E+00 1.31037E+00 1.04485E-06
 -1      1303-4.84749E+00-1.13106E+01-4.84748E+00-3.17980E+00 9.70464E-01 1.80489E-06
 -1      1304-4.77269E+00-1.11361E+01-4.77268E+00-3.30447E+00 6.68859E-01 1.72826E-06
 -1      1305-4.73532E+00-1.10489E+01-4.73531E+00-3.38053E+00 3.92102E-01 1.18768E-06
 -1      1306-4.71938E+00-1.10117E+01-4.71938E+00-3.41664E+00 1.29216E-01 4.18729E-07
 -1      1307-4.71938E+00-1.10117E+01-4.71938E+00-3.41664E+00-1.29216E-01-4.18729E-07
 -1      1308-4.73532E+00-1.10489E+01-4.73531E+00-3.38053E+00-3.92102E-01-1.18768E-06
 -1      1309-4.77269E+00-1.11361E+01-4.77268E+00-3.30447E+00-6.68859E-01-1.72826E-06
 -1      1310-4.84749E+00-1.13106E+01-4.84748E+00-3.17980E+00-9.70464E-01-1.80489E-06
 -1      1311-5.00452E+00-1.16770E+01-5.00452E+00-2.99099E+00-1.31037E+00-1.04485E-06
 -1      1312-6.51587E+00-1.52035E+01-6.51589E+00-3.67196E+00 1.78128E+00 7.73531E-07
 -1      1313-6.29852E+00-1.46964E+01-6.29853E+00-3.85266E+00 1.32232E+00 1.57824E-06
 -1      1314-6.19309E+00-1.44504E+01-6.19310E+00-3.97230E+00 9.12893E-01 1.57470E-06
 -1      1315-6.13987E+00-1.43262E+01-6.13987E+00-4.04535E+00 5.35737E-01 1.10104E-06
 -1      1316-6.11705E+00-1.42729E+01-6.11706E+00-4.08003E+00 1.76643E-01 3.90879E-07
 -1      1317-6.11705E+00-1.42729E+01-6.11706E+00-4.08003E+00-1.76643E-01-3.90879E-07
 -1      1318-6.13987E+00-1.43262E+01-6.13987E+00-4.04535E+00-5.35737E-01-1.10104E-06
 -1      1319-6.19309E+00-1.44504E+01-6.19310E+00-3.97230E+00-9.12893E-01-1.57470E-06
 -1      1320-6.29852E+00-1.46964E+01-6.29853E+00-3.85266E+00-1.32232E+00-1.57824E-06
 -1      1321-6.51587E+00-1.52035E+01-6.51589E+00-3.67196E+00-1.78128E+00-7.73531E-07
 -1      1322-8.00057E+00-1.86678E+01-8.00060E+00-4.35384E+00 2.22352E+00 5.26399E-07
 -1      1323-7.72851E+00-1.80330E+01-7.72854E+00-4.52721E+00 1.65404E+00 1.37694E-06
 -1      1324-7.59489E+00-1.77212E+01-7.59491E+00-4.64221E+00 1.14355E+00 1.44107E-06
 -1      1325-7.52697E+00-1.75627E+01-7.52699E+00-4.71246E+00 6.71714E-01 1.02699E-06
 -1      1326-7.49776E+00-1.74946E+01-7.49778E+00-4.74581E+00 2.21575E-01 3.67333E-07
 -1      1327-7.49776E+00-1.74946E+01-7.49778E+00-4.74581E+00-2.21575E-01-3.67333E-07
 -1      1328-7.52697E+00-1.75627E+01-7.52699E+00-4.71246E+00-6.71714E-01-1.02699E-06
 -1      1329-7.59489E+00-1.77212E+01-7.59491E+00-4.64221E+00-1.14355E+00-1.44107E-06
 -1      1330-7.72851E+00-1.80330E+01-7.72854E+00-4.52721E+00-1.65404E+00-1.37694E-06
 -1      1331-8.00057E+00-1.86678E+01-8.00060E+00-4.35384E+00-2.22352E+00-5.26399E-07
 -1      1332-9.47121E+00-2.20993E+01-9.47126E+00-5.04632E+00 2.64036E+00 3.05303E-07
 -1      1333-9.14971E+00-2.13491E+01-9.14975E+00-5.21295E+00 1.96785E+00 1.20410E-06
 -1      1334-8.99024E+00-2.09770E+01-8.99027E+00-5.32360E+00 1.36229E+00 1.32993E-06
 -1      1335-8.90879E+00-2.07870E+01-8.90881E+00-5.39116E+00 8.00854E-01 9.67002E-07
 -1      1336-8.87367E+00-2.07050E+01-8.87370E+00-5.42321E+00 2.64279E-01 3.48543E-07
 -1      1337-8.87367E+00-2.07050E+01-8.87370E+00-5.42321E+00-2.64279E-01-3.48543E-07
 -1      1338-8.90879E+00-2.07870E+01-8.90881E+00-5.39116E+00-8.00854E-01-9.67002E-07
 -1      1339-8.99024E+00-2.09770E+01-8.99027E+00-5.32360E+00-1.36229E+00-1.32993E-06
 -1      1340-9.14971E+00-2.13491E+01-9.14975E+00-5.21295E+00-1.96785E+00-1.20410E-06
 -1      1341-9.47121E+00-2.20993E+01-9.47126E+00-5.04632E+00-2.64036E+00-3.05303E-07
 -1      1342-1.09437E+01-2.55351E+01-1.09438E+01-5.76199E+00 3.03461E+00 1.09533E-07
 -1      1343-1.05778E+01-2.46813E+01-1.05778E+01-5.92230E+00 2.26561E+00 1.05752E-06
 -1      1344-1.03948E+01-2.42543E+01-1.03949E+01-6.02872E+00 1.57029E+00 1.23751E-06
 -1      1345-1.03010E+01-2.40354E+01-1.03010E+01-6.09362E+00 9.23816E-01 9.17489E-07
 -1      1346-1.02605E+01-2.39409E+01-1.02605E+01-6.12438E+00 3.04963E-01 3.33070E-07
 -1      1347-1.02605E+01-2.39409E+01-1.02605E+01-6.12438E+00-3.04963E-01-3.33070E-07
 -1      1348-1.03010E+01-2.40354E+01-1.03010E+01-6.09362E+00-9.23816E-01-9.17489E-07
 -1      1349-1.03948E+01-2.42543E+01-1.03949E+01-6.02872E+00-1.57029E+00-1.23751E-06
 -1      1350-1.05778E+01-2.46813E+01-1.05778E+01-5.92230E+00-2.26561E+00-1.05752E-06
 -1      1351-1.09437E+01-2.55351E+01-1.09438E+01-5.76199E+00-3.03461E+00-1.09533E-07
 -1      1352-1.24401E+01-2.90267E+01-1.24402E+01-6.51806E+00 3.40838E+00-7.31026E-08
 -1      1353-1.20347E+01-2.80807E+01-1.20348E+01-6.67223E+00 2.54862E+00 9.15407E-07
 -1      1354-1.18306E+01-2.76045E+01-1.18307E+01-6.77448E+00 1.76827E+00 1.13888E-06
 -1      1355-1.17256E+01-2.73595E+01-1.17257E+01-6.83676E+00 1.04094E+00 8.58926E-07
 -1      1356-1.16802E+01-2.72536E+01-1.16803E+01-6.86624E+00 3.43726E-01 3.13454E-07
 -1      1357-1.16802E+01-2.72536E+01-1.16803E+01-6.86624E+00-3.43726E-01-3.13454E-07
 -1      1358-1.17256E+01-2.73595E+01-1.17257E+01-6.83676E+00-1.04094E+00-8.58926E-07
 -1      1359-1.18306E+01-2.76045E+01-1.18307E+01-6.77448E+00-1.76827E+00-1.13888E-06
 -1      1360-1.20347E+01-2.80807E+01-1.20348E+01-6.67223E+00-2.54862E+00-9.15407E-07
 -1      1361-1.24401E+01-2.90267E+01-1.24402E+01-6.51806E+00-3.40838E+00 7.31026E-08
 -1      1362-1.39939E+01-3.26521E+01-1.39940E+01-7.33905E+00 3.76251E+00-2.87420E-07
 -1      1363-1.35540E+01-3.16257E+01-1.35541E+01-7.48720E+00 2.81694E+00 7.05813E-07
 -1      1364-1.33312E+01-3.11059E+01-1.33313E+01-7.58558E+00 1.95594E+00 9.58194E-07
 -1      1365-1.32163E+01-3.08377E+01-1.32163E+01-7.64557E+00 1.15189E+00 7.33985E-07
 -1      1366-1.31665E+01-3.07215E+01-1.31666E+01-7.67402E+00 3.80430E-01 2.68766E-07
 -1      1367-1.31665E+01-3.07215E+01-1.31666E+01-7.67402E+00-3.80430E-01-2.68766E-07
 -1      1368-1.32163E+01-3.08377E+01-1.32163E+01-7.64557E+00-1.15189E+00-7.33985E-07
 -1      1369-1.33312E+01-3.11059E+01-1.33313E+01-7.58558E+00-1.95594E+00-9.58194E-07
 -1      1370-1.35540E+01-3.16257E+01-1.35541E+01-7.48720E+00-2.81694E+00-7.05813E-07
 -1      1371-1.39939E+01-3.26521E+01-1.39940E+01-7.33905E+00-3.76251E+00 2.87420E-07
 -1      1372-1.56607E+01-3.65412E+01-1.56608E+01-8.26152E+00 4.09567E+00-6.50446E-07
 -1      1373-1.51914E+01-3.54462E+01-1.51915E+01-8.40444E+00 3.06868E+00 2.53556E-07
 -1      1374-1.49524E+01-3.48886E+01-1.49525E+01-8.50032E+00 2.13132E+00 5.26353E-07
 -1      1375-1.48287E+01-3.46000E+01-1.48288E+01-8.55956E+00 1.25525E+00 4.32612E-07
 -1      1376-1.47751E+01-3.44748E+01-1.47751E+01-8.58789E+00 4.14566E-01 1.61316E-07
 -1      1377-1.47751E+01-3.44748E+01-1.47751E+01-8.58789E+00-4.14566E-01-1.61316E-07
 -1      1378-1.48287E+01-3.46000E+01-1.48288E+01-8.55956E+00-1.25525E+00-4.32612E-07
 -1      1379-1.49524E+01-3.48886E+01-1.49525E+01-8.50032E+00-2.13132E+00-5.26353E-07
 -1      1380-1.51914E+01-3.54462E+01-1.51915E+01-8.40444E+00-3.06868E+00-2.53556E-07
 -1      1381-1.56607E+01-3.65412E+01-1.56608E+01-8.26152E+00-4.09567E+00 6.50446E-07
 -1      1382-1.75424E+01-4.09318E+01-1.75425E+01-9.34294E+00 4.40401E+00-1.44001E-06
 -1      1383-1.70490E+01-3.97805E+01-1.70490E+01-9.48391E+00 3.29925E+00-7.55120E-07
 -1      1384-1.67961E+01-3.91904E+01-1.67961E+01-9.58237E+00 2.29084E+00-3.44276E-07
 -1      1385-1.66646E+01-3.88836E+01-1.66646E+01-9.64478E+00 1.34886E+00-1.41028E-07
 -1      1386-1.66074E+01-3.87501E+01-1.66074E+01-9.67512E+00 4.45419E-01-3.74564E-08
 -1      1387-1.66074E+01-3.87501E+01-1.66074E+01-9.67512E+00-4.45419E-01 3.74564E-08
 -1      1388-1.66646E+01-3.88836E+01-1.66646E+01-9.64478E+00-1.34886E+00 1.41028E-07
 -1      1389-1.67961E+01-3.91904E+01-1.67961E+01-9.58237E+00-2.29084E+00 3.44276E-07
 -1      1390-1.70490E+01-3.97805E+01-1.70490E+01-9.48391E+00-3.29925E+00 7.55120E-07
 -1      1391-1.75424E+01-4.09318E+01-1.75425E+01-9.34294E+00-4.40401E+00 1.44001E-06
 -1      1392-1.98520E+01-4.63208E+01-1.98521E+01-1.06791E+01 4.68211E+00-2.98184E-06
 -1      1393-1.93388E+01-4.51233E+01-1.93388E+01-1.08325E+01 3.50681E+00-2.20420E-06
 -1      1394-1.90736E+01-4.45044E+01-1.90736E+01-1.09435E+01 2.43458E+00-1.48222E-06
 -1      1395-1.89347E+01-4.41804E+01-1.89347E+01-1.10157E+01 1.43336E+00-8.48689E-07
 -1      1396-1.88740E+01-4.40387E+01-1.88740E+01-1.10513E+01 4.73300E-01-2.76185E-07
 -1      1397-1.88740E+01-4.40387E+01-1.88740E+01-1.10513E+01-4.73300E-01 2.76185E-07
 -1      1398-1.89347E+01-4.41804E+01-1.89347E+01-1.10157E+01-1.43336E+00 8.48689E-07
 -1      1399-1.90736E+01-4.45044E+01-1.90736E+01-1.09435E+01-2.43458E+00 1.48222E-06
 -1      1400-1.93388E+01-4.51233E+01-1.93388E+01-1.08325E+01-3.50681E+00 2.20420E-06
 -1      1401-1.98520E+01-4.63208E+01-1.98521E+01-1.06791E+01-4.68211E+00 2.98184E-06
 -1      1402-2.31278E+01-5.39640E+01-2.31278E+01-1.24625E+01 4.95792E+00-3.26594E-06
 -1      1403-2.25986E+01-5.27294E+01-2.25987E+01-1.26469E+01 3.71724E+00-2.83234E-06
 -1      1404-2.23221E+01-5.20841E+01-2.23221E+01-1.27840E+01 2.58245E+00-2.03585E-06
 -1      1405-2.21761E+01-5.17436E+01-2.21761E+01-1.28740E+01 1.52109E+00-1.20685E-06
 -1      1406-2.21120E+01-5.15940E+01-2.21120E+01-1.29185E+01 5.02380E-01-3.98423E-07
 -1      1407-2.21120E+01-5.15940E+01-2.21120E+01-1.29185E+01-5.02380E-01 3.98423E-07
 -1      1408-2.21761E+01-5.17436E+01-2.21761E+01-1.28740E+01-1.52109E+00 1.20685E-06
 -1      1409-2.23221E+01-5.20841E+01-2.23221E+01-1.27840E+01-2.58245E+00 2.03585E-06
 -1      1410-2.25986E+01-5.27294E+01-2.25987E+01-1.26469E+01-3.71724E+00 2.83234E-06
 -1      1411-2.31278E+01-5.39640E+01-2.31278E+01-1.24625E+01-4.95792E+00 3.26594E-06
 -1      1412 3.98780E+00-4.31834E+01 5.29869E+00-3.90127E+00-2.42710E-02 1.88591E-01
 -1      1413 3.65713E+00-4.37978E+01 3.38439E+00-3.97682E+00 7.59635E-01 1.97082E-01
 -1      1414 3.43308E+00-4.41531E+01 2.00837E+00-4.02349E+00 8.12326E-01 1.45700E-01
 -1      1415 3.30088E+00-4.43494E+01 1.14125E+00-4.05036E+00 5.66676E-01 8.77210E-02
 -1      1416 3.23944E+00-4.44378E+01 7.23417E-01-4.06266E+00 1.99902E-01 2.91464E-02
 -1      1417 3.23944E+00-4.44378E+01 7.23417E-01-4.06266E+00-1.99902E-01-2.91464E-02
 -1      1418 3.30088E+00-4.43494E+01 1.14125E+00-4.05036E+00-5.66676E-01-8.77210E-02
 -1      1419 3.43308E+00-4.41531E+01 2.00837E+00-4.02349E+00-8.12326E-01-1.45700E-01
 -1      1420 3.65713E+00-4.37978E+01 3.38439E+00-3.97682E+00-7.59635E-01-1.97082E-01
 -1      1421 3.98780E+00-4.31834E+01 5.29869E+00-3.90127E+00 2.42710E-02-1.88591E-01
 -1      1422-1.54978E+00-3.92917E+01-1.33567E+00-4.60967E+00-5.61618E-02 1.11298E-01
 -1      1423-1.15284E+00-3.92764E+01 6.18320E-02-4.58504E+00-6.05407E-01 9.34052E-02
 -1      1424-8.96871E-01-3.92170E+01 8.82822E-01-4.58610E+00-5.56646E-01 6.98725E-02
 -1      1425-7.53911E-01-3.91685E+01 1.31857E+00-4.59132E+00-3.53649E-01 4.21698E-02
 -1      1426-6.90659E-01-3.91430E+01 1.50480E+00-4.59475E+00-1.19063E-01 1.40364E-02
 -1      1427-6.90659E-01-3.91430E+01 1.50480E+00-4.59475E+00 1.19063E-01-1.40364E-02
 -1      1428-7.53911E-01-3.91685E+01 1.31857E+00-4.59132E+00 3.53649E-01-4.21698E-02
 -1      1429-8.96871E-01-3.92170E+01 8.82822E-01-4.58610E+00 5.56646E-01-6.98725E-02
 -1      1430-1.15284E+00-3.92764E+01 6.18320E-02-4.58504E+00 6.05407E-01-9.34052E-02
 -1      1431-1.54978E+00-3.92917E+01-1.33567E+00-4.60967E+00 5.61618E-02-1.11298E-01
 -1      1432-4.56525E-01-3.65215E+01 3.99369E-01-6.18996E+00-5.22255E-02-2.62882E-02
 -1      1433-6.47124E-01-3.67256E+01 1.21091E-01-6.17140E+00-9.33038E-04-4.66678E-04
 -1      1434-6.99813E-01-3.68675E+01 1.73066E-01-6.15791E+00-6.69025E-02 2.81135E-03
 -1      1435-7.02625E-01-3.69514E+01 2.95846E-01-6.15133E+00-7.63352E-02 2.06192E-03
 -1      1436-6.96442E-01-3.69898E+01 3.77419E-01-6.14890E+00-3.18416E-02 6.87577E-04
 -1      1437-6.96442E-01-3.69898E+01 3.77419E-01-6.14890E+00 3.18416E-02-6.87577E-04
 -1      1438-7.02625E-01-3.69514E+01 2.95846E-01-6.15133E+00 7.63352E-02-2.06192E-03
 -1      1439-6.99813E-01-3.68675E+01 1.73066E-01-6.15791E+00 6.69025E-02-2.81135E-03
 -1      1440-6.47124E-01-3.67256E+01 1.21091E-01-6.17140E+00 9.33038E-04 4.66678E-04
 -1      1441-4.56525E-01-3.65215E+01 3.99369E-01-6.18996E+00 5.22255E-02 2.62882E-02
 -1      1442-1.49979E+00-3.56446E+01-1.49907E-02-7.74103E+00 3.16792E-02 1.12572E-02
 -1      1443-1.46826E+00-3.55117E+01 7.48485E-02-7.73886E+00 3.82395E-02 1.51090E-02
 -1      1444-1.48321E+00-3.54647E+01 5.85997E-02-7.73269E+00 5.23643E-02 1.55334E-02
 -1      1445-1.50129E+00-3.54541E+01 3.72783E-02-7.72725E+00 3.94236E-02 1.08178E-02
 -1      1446-1.51123E+00-3.54542E+01 2.74505E-02-7.72433E+00 1.40594E-02 3.80163E-03
 -1      1447-1.51123E+00-3.54542E+01 2.74505E-02-7.72433E+00-1.40594E-02-3.80163E-03
 -1      1448-1.50129E+00-3.54541E+01 3.72783E-02-7.72725E+00-3.94236E-02-1.08178E-02
 -1      1449-1.48321E+00-3.54647E+01 5.85997E-02-7.73269E+00-5.23643E-02-1.55334E-02
 -1      1450-1.46826E+00-3.55117E+01 7.48485E-02-7.73886E+00-3.82395E-02-1.51090E-02
 -1      1451-1.49979E+00-3.56446E+01-1.49907E-02-7.74103E+00-3.16792E-02-1.12572E-02
 -1      1452-2.33595E+00-3.42465E+01 4.64842E-02-9.32955E+00 2.60310E-02 9.20133E-03
 -1      1453-2.34184E+00-3.42160E+01 4.92778E-02-9.32885E+00 3.97838E-02 1.68807E-02
 -1      1454-2.33321E+00-3.41733E+01 7.04604E-02-9.32555E+00 3.28622E-02 1.42512E-02
 -1      1455-2.32804E+00-3.41416E+01 7.96914E-02-9.32211E+00 2.26954E-02 9.43106E-03
 -1      1456-2.32632E+00-3.41255E+01 8.16147E-02-9.32003E+00 8.22949E-03 3.30666E-03
 -1      1457-2.32632E+00-3.41255E+01 8.16147E-02-9.32003E+00-8.22949E-03-3.30666E-03
 -1      1458-2.32804E+00-3.41416E+01 7.96914E-02-9.32211E+00-2.26954E-02-9.43106E-03
 -1      1459-2.33321E+00-3.41733E+01 7.04604E-02-9.32555E+00-3.28622E-02-1.42512E-02
 -1      1460-2.34184E+00-3.42160E+01 4.92778E-02-9.32885E+00-3.97838E-02-1.68807E-02
 -1      1461-2.33595E+00-3.42465E+01 4.64842E-02-9.32955E+00-2.60310E-02-9.20133E-03
 -1      1462-3.38836E+00-3.28102E+01 3.94550E-02-1.08056E+01 1.40852E-02 7.76179E-03
 -1      1463-3.38595E+00-3.27794E+01 6.02924E-02-1.08037E+01 1.80522E-02 1.21503E-02
 -1      1464-3.38371E+00-3.27582E+01 7.11845E-02-1.08012E+01 1.72617E-02 1.09337E-02
 -1      1465-3.38061E+00-3.27426E+01 8.03251E-02-1.07991E+01 1.14476E-02 7.11697E-03
 -1      1466-3.37858E+00-3.27342E+01 8.54964E-02-1.07979E+01 3.94038E-03 2.43911E-03
 -1      1467-3.37858E+00-3.27342E+01 8.54964E-02-1.07979E+01-3.94038E-03-2.43911E-03
 -1      1468-3.38061E+00-3.27426E+01 8.03251E-02-1.07991E+01-1.14476E-02-7.11697E-03
 -1      1469-3.38371E+00-3.27582E+01 7.11845E-02-1.08012E+01-1.72617E-02-1.09337E-02
 -1      1470-3.38595E+00-3.27794E+01 6.02924E-02-1.08037E+01-1.80522E-02-1.21503E-02
 -1      1471-3.38836E+00-3.28102E+01 3.94550E-02-1.08056E+01-1.40852E-02-7.76179E-03
 -1      1472-4.55914E+00-3.11602E+01 4.10250E-02-1.21208E+01 7.47117E-03 5.71224E-03
 -1      1473-4.55737E+00-3.11410E+01 5.68601E-02-1.21175E+01 9.23035E-03 9.15725E-03
 -1      1474-4.55358E+00-3.11243E+01 7.01491E-02-1.21143E+01 8.04748E-03 7.77653E-03
 -1      1475-4.55110E+00-3.11133E+01 7.79539E-02-1.21119E+01 5.56122E-03 5.07094E-03
 -1      1476-4.54992E+00-3.11078E+01 8.15954E-02-1.21107E+01 1.98229E-03 1.75181E-03
 -1      1477-4.54992E+00-3.11078E+01 8.15954E-02-1.21107E+01-1.98229E-03-1.75181E-03
 -1      1478-4.55110E+00-3.11133E+01 7.79539E-02-1.21119E+01-5.56122E-03-5.07094E-03
 -1      1479-4.55358E+00-3.11243E+01 7.01491E-02-1.21143E+01-8.04748E-03-7.77653E-03
 -1      1480-4.55737E+00-3.11410E+01 5.68601E-02-1.21175E+01-9.23035E-03-9.15725E-03
 -1      1481-4.55914E+00-3.11602E+01 4.10250E-02-1.21208E+01-7.47117E-03-5.71224E-03
 -1      1482-5.82590E+00-2.92986E+01 3.82698E-02-1.32234E+01 3.04416E-03 3.98521E-03
 -1      1483-5.82280E+00-2.92822E+01 5.32921E-02-1.32187E+01 3.39696E-03 6.73410E-03
 -1      1484-5.81899E+00-2.92692E+01 6.45529E-02-1.32149E+01 3.13278E-03 5.73736E-03
 -1      1485-5.81612E+00-2.92602E+01 7.20169E-02-1.32122E+01 2.11465E-03 3.65241E-03
 -1      1486-5.81466E+00-2.92556E+01 7.56303E-02-1.32109E+01 7.43762E-04 1.24372E-03
 -1      1487-5.81466E+00-2.92556E+01 7.56303E-02-1.32109E+01-7.43762E-04-1.24372E-03
 -1      1488-5.81612E+00-2.92602E+01 7.20169E-02-1.32122E+01-2.11465E-03-3.65241E-03
 -1      1489-5.81899E+00-2.92692E+01 6.45529E-02-1.32149E+01-3.13278E-03-5.73736E-03
 -1      1490-5.82280E+00-2.92822E+01 5.32921E-02-1.32187E+01-3.39696E-03-6.73410E-03
 -1      1491-5.82590E+00-2.92986E+01 3.82698E-02-1.32234E+01-3.04416E-03-3.98521E-03
 -1      1492-7.14501E+00-2.72331E+01 3.60379E-02-1.40790E+01-1.94541E-04 2.43311E-03
 -1      1493-7.14058E+00-2.72197E+01 5.00194E-02-1.40733E+01-8.45792E-04 4.53275E-03
 -1      1494-7.13599E+00-2.72086E+01 6.07217E-02-1.40691E+01-6.36789E-04 3.77959E-03
 -1      1495-7.13282E+00-2.72011E+01 6.75187E-02-1.40662E+01-3.40431E-04 2.38069E-03
 -1      1496-7.13123E+00-2.71973E+01 7.08094E-02-1.40647E+01-1.05049E-04 8.05333E-04
 -1      1497-7.13123E+00-2.71973E+01 7.08094E-02-1.40647E+01 1.05049E-04-8.05333E-04
 -1      1498-7.13282E+00-2.72011E+01 6.75187E-02-1.40662E+01 3.40431E-04-2.38069E-03
 -1      1499-7.13599E+00-2.72086E+01 6.07217E-02-1.40691E+01 6.36789E-04-3.77959E-03
 -1      1500-7.14058E+00-2.72197E+01 5.00194E-02-1.40733E+01 8.45792E-04-4.53275E-03
 -1      1501-7.14501E+00-2.72331E+01 3.60379E-02-1.40790E+01 1.94541E-04-2.43311E-03
 -1      1502-8.47149E+00-2.49963E+01 3.41006E-02-1.46616E+01-2.80104E-03 8.36733E-04
 -1      1503-8.46580E+00-2.49855E+01 4.72766E-02-1.46554E+01-4.27938E-03 2.32210E-03
 -1      1504-8.46054E+00-2.49763E+01 5.72980E-02-1.46509E+01-3.64928E-03 1.84283E-03
 -1      1505-8.45695E+00-2.49700E+01 6.37186E-02-1.46479E+01-2.35738E-03 1.09029E-03
 -1      1506-8.45518E+00-2.49668E+01 6.68061E-02-1.46464E+01-8.08658E-04 3.56092E-04
 -1      1507-8.45518E+00-2.49668E+01 6.68061E-02-1.46464E+01 8.08658E-04-3.56092E-04
 -1      1508-8.45695E+00-2.49700E+01 6.37186E-02-1.46479E+01 2.35738E-03-1.09029E-03
 -1      1509-8.46054E+00-2.49763E+01 5.72980E-02-1.46509E+01 3.64928E-03-1.84283E-03
 -1      1510-8.46580E+00-2.49855E+01 4.72766E-02-1.46554E+01 4.27938E-03-2.32210E-03
 -1      1511-8.47149E+00-2.49963E+01 3.41006E-02-1.46616E+01 2.80104E-03-8.36733E-04
 -1      1512-9.75644E+00-2.26289E+01 3.25295E-02-1.49544E+01-4.95297E-03-8.22575E-04
 -1      1513-9.74951E+00-2.26206E+01 4.49261E-02-1.49481E+01-7.10373E-03 3.49399E-05
 -1      1514-9.74358E+00-2.26131E+01 5.43472E-02-1.49435E+01-6.13742E-03-1.65075E-04
 -1      1515-9.73962E+00-2.26080E+01 6.03587E-02-1.49405E+01-4.01158E-03-2.37696E-04
 -1      1516-9.73766E+00-2.26053E+01 6.32548E-02-1.49390E+01-1.38595E-03-1.05846E-04
 -1      1517-9.73766E+00-2.26053E+01 6.32548E-02-1.49390E+01 1.38595E-03 1.05846E-04
 -1      1518-9.73962E+00-2.26080E+01 6.03587E-02-1.49405E+01 4.01158E-03 2.37696E-04
 -1      1519-9.74358E+00-2.26131E+01 5.43472E-02-1.49435E+01 6.13742E-03 1.65075E-04
 -1      1520-9.74951E+00-2.26206E+01 4.49261E-02-1.49481E+01 7.10373E-03-3.49399E-05
 -1      1521-9.75644E+00-2.26289E+01 3.25295E-02-1.49544E+01 4.95297E-03 8.22575E-04
 -1      1522-1.09486E+01-2.01773E+01 3.12678E-02-1.49493E+01-6.77759E-03-2.58363E-03
 -1      1523-1.09405E+01-2.01713E+01 4.28927E-02-1.49432E+01-9.48794E-03-2.37281E-03
 -1      1524-1.09339E+01-2.01655E+01 5.16940E-02-1.49388E+01-8.23369E-03-2.27793E-03
 -1      1525-1.09296E+01-2.01614E+01 5.72982E-02-1.49358E+01-5.40759E-03-1.63821E-03
 -1      1526-1.09275E+01-2.01593E+01 5.99906E-02-1.49343E+01-1.87264E-03-5.92905E-04
 -1      1527-1.09275E+01-2.01593E+01 5.99906E-02-1.49343E+01 1.87264E-03 5.92905E-04
 -1      1528-1.09296E+01-2.01614E+01 5.72982E-02-1.49358E+01 5.40759E-03 1.63821E-03
 -1      1529-1.09339E+01-2.01655E+01 5.16940E-02-1.49388E+01 8.23369E-03 2.27793E-03
 -1      1530-1.09405E+01-2.01713E+01 4.28927E-02-1.49432E+01 9.48794E-03 2.37281E-03
 -1      1531-1.09486E+01-2.01773E+01 3.12678E-02-1.49493E+01 6.77759E-03 2.58363E-03
 -1      1532-1.19955E+01-1.76906E+01 3.02688E-02-1.46473E+01-8.35843E-03-4.47453E-03
 -1      1533-1.19863E+01-1.76868E+01 4.11194E-02-1.46416E+01-1.15454E-02-4.94784E-03
 -1      1534-1.19792E+01-1.76826E+01 4.92898E-02-1.46375E+01-1.00422E-02-4.53866E-03
 -1      1535-1.19745E+01-1.76795E+01 5.44709E-02-1.46347E+01-6.61138E-03-3.13692E-03
 -1      1536-1.19722E+01-1.76779E+01 5.69544E-02-1.46333E+01-2.29256E-03-1.11442E-03
 -1      1537-1.19722E+01-1.76779E+01 5.69544E-02-1.46333E+01 2.29256E-03 1.11442E-03
 -1      1538-1.19745E+01-1.76795E+01 5.44709E-02-1.46347E+01 6.61138E-03 3.13692E-03
 -1      1539-1.19792E+01-1.76826E+01 4.92898E-02-1.46375E+01 1.00422E-02 4.53866E-03
 -1      1540-1.19863E+01-1.76868E+01 4.11194E-02-1.46416E+01 1.15454E-02 4.94784E-03
 -1      1541-1.19955E+01-1.76906E+01 3.02688E-02-1.46473E+01 8.35843E-03 4.47453E-03
 -1      1542-1.28454E+01-1.52193E+01 2.94699E-02-1.40584E+01-9.74521E-03-6.52091E-03
 -1      1543-1.28352E+01-1.52176E+01 3.95501E-02-1.40534E+01-1.33454E-02-7.72508E-03
 -1      1544-1.28276E+01-1.52149E+01 4.70851E-02-1.40498E+01-1.16244E-02-6.97867E-03
 -1      1545-1.28226E+01-1.52127E+01 5.18384E-02-1.40474E+01-7.66483E-03-4.75564E-03
 -1      1546-1.28202E+01-1.52116E+01 5.41088E-02-1.40461E+01-2.66000E-03-1.67780E-03
 -1      1547-1.28202E+01-1.52116E+01 5.41088E-02-1.40461E+01 2.66000E-03 1.67780E-03
 -1      1548-1.28226E+01-1.52127E+01 5.18384E-02-1.40474E+01 7.66483E-03 4.75564E-03
 -1      1549-1.28276E+01-1.52149E+01 4.70851E-02-1.40498E+01 1.16244E-02 6.97867E-03
 -1      1550-1.28352E+01-1.52176E+01 3.95501E-02-1.40534E+01 1.33454E-02 7.72508E-03
 -1      1551-1.28454E+01-1.52193E+01 2.94699E-02-1.40584E+01 9.74521E-03 6.52091E-03
 -1      1552-1.34489E+01-1.28134E+01 2.87926E-02-1.32026E+01-1.09581E-02-8.73603E-03
 -1      1553-1.34378E+01-1.28138E+01 3.81259E-02-1.31985E+01-1.49186E-02-1.07234E-02
 -1      1554-1.34297E+01-1.28124E+01 4.50420E-02-1.31955E+01-1.30081E-02-9.61482E-03
 -1      1555-1.34245E+01-1.28111E+01 4.93772E-02-1.31935E+01-8.58658E-03-6.50557E-03
 -1      1556-1.34220E+01-1.28104E+01 5.14396E-02-1.31925E+01-2.98160E-03-2.28707E-03
 -1      1557-1.34220E+01-1.28104E+01 5.14396E-02-1.31925E+01 2.98160E-03 2.28707E-03
 -1      1558-1.34245E+01-1.28111E+01 4.93772E-02-1.31935E+01 8.58658E-03 6.50557E-03
 -1      1559-1.34297E+01-1.28124E+01 4.50420E-02-1.31955E+01 1.30081E-02 9.61482E-03
 -1      1560-1.34378E+01-1.28138E+01 3.81259E-02-1.31985E+01 1.49186E-02 1.07234E-02
 -1      1561-1.34489E+01-1.28134E+01 2.87926E-02-1.32026E+01 1.09581E-02 8.73603E-03
 -1      1562-1.37614E+01-1.05214E+01 2.81385E-02-1.21094E+01-1.19920E-02-1.11150E-02
 -1      1563-1.37496E+01-1.05236E+01 3.67795E-02-1.21065E+01-1.62635E-02-1.39370E-02
 -1      1564-1.37411E+01-1.05234E+01 4.31243E-02-1.21043E+01-1.41930E-02-1.24421E-02
 -1      1565-1.37357E+01-1.05229E+01 4.70749E-02-1.21027E+01-9.37650E-03-8.38343E-03
 -1      1566-1.37331E+01-1.05226E+01 4.89461E-02-1.21019E+01-3.25729E-03-2.94105E-03
 -1      1567-1.37331E+01-1.05226E+01 4.89461E-02-1.21019E+01 3.25729E-03 2.94105E-03
 -1      1568-1.37357E+01-1.05229E+01 4.70749E-02-1.21027E+01 9.37650E-03 8.38343E-03
 -1      1569-1.37411E+01-1.05234E+01 4.31243E-02-1.21043E+01 1.41930E-02 1.24421E-02
 -1      1570-1.37496E+01-1.05236E+01 3.67795E-02-1.21065E+01 1.62635E-02 1.39370E-02
 -1      1571-1.37614E+01-1.05214E+01 2.81385E-02-1.21094E+01 1.19920E-02 1.11150E-02
 -1      1572-1.37464E+01-8.38863E+00 2.73852E-02-1.08186E+01-1.28199E-02-1.36255E-02
 -1      1573-1.37338E+01-8.39230E+00 3.54302E-02-1.08170E+01-1.73507E-02-1.73243E-02
 -1      1574-1.37250E+01-8.39315E+00 4.12926E-02-1.08156E+01-1.51539E-02-1.54240E-02
 -1      1575-1.37194E+01-8.39329E+00 4.49227E-02-1.08145E+01-1.00180E-02-1.03649E-02
 -1      1576-1.37167E+01-8.39328E+00 4.66360E-02-1.08139E+01-3.48129E-03-3.63126E-03
 -1      1577-1.37167E+01-8.39328E+00 4.66360E-02-1.08139E+01 3.48129E-03 3.63126E-03
 -1      1578-1.37194E+01-8.39329E+00 4.49227E-02-1.08145E+01 1.00180E-02 1.03649E-02
 -1      1579-1.37250E+01-8.39315E+00 4.12926E-02-1.08156E+01 1.51539E-02 1.54240E-02
 -1      1580-1.37338E+01-8.39230E+00 3.54302E-02-1.08170E+01 1.73507E-02 1.73243E-02
 -1      1581-1.37464E+01-8.38863E+00 2.73852E-02-1.08186E+01 1.28199E-02 1.36255E-02
 -1      1582-1.33781E+01-6.45530E+00 2.63826E-02-9.37962E+00-1.33953E-02-1.61975E-02
 -1      1583-1.33648E+01-6.46018E+00 3.39782E-02-9.37936E+00-1.81265E-02-2.07943E-02
 -1      1584-1.33556E+01-6.46183E+00 3.94976E-02-9.37871E+00-1.58445E-02-1.84802E-02
 -1      1585-1.33498E+01-6.46247E+00 4.29087E-02-9.37810E+00-1.04803E-02-1.23965E-02
 -1      1586-1.33470E+01-6.46271E+00 4.45166E-02-9.37775E+00-3.64286E-03-4.33904E-03
 -1      1587-1.33470E+01-6.46271E+00 4.45166E-02-9.37775E+00 3.64286E-03 4.33904E-03
 -1      1588-1.33498E+01-6.46247E+00 4.29087E-02-9.37810E+00 1.04803E-02 1.23965E-02
 -1      1589-1.33556E+01-6.46183E+00 3.94976E-02-9.37871E+00 1.58445E-02 1.84802E-02
 -1      1590-1.33648E+01-6.46018E+00 3.39782E-02-9.37936E+00 1.81265E-02 2.07943E-02
 -1      1591-1.33781E+01-6.45530E+00 2.63826E-02-9.37962E+00 1.33953E-02 1.61975E-02
 -1      1592-1.26462E+01-4.75498E+00 2.49516E-02-7.85065E+00-1.36578E-02-1.87104E-02
 -1      1593-1.26322E+01-4.76066E+00 3.23009E-02-7.85170E+00-1.85184E-02-2.41905E-02
 -1      1594-1.26226E+01-4.76286E+00 3.76731E-02-7.85184E+00-1.62024E-02-2.14727E-02
 -1      1595-1.26166E+01-4.76383E+00 4.10091E-02-7.85169E+00-1.07218E-02-1.43860E-02
 -1      1596-1.26137E+01-4.76423E+00 4.25867E-02-7.85155E+00-3.72750E-03-5.03223E-03
 -1      1597-1.26137E+01-4.76423E+00 4.25867E-02-7.85155E+00 3.72750E-03 5.03223E-03
 -1      1598-1.26166E+01-4.76383E+00 4.10091E-02-7.85169E+00 1.07218E-02 1.43860E-02
 -1      1599-1.26226E+01-4.76286E+00 3.76731E-02-7.85184E+00 1.62024E-02 2.14727E-02
 -1      1600-1.26322E+01-4.76066E+00 3.23009E-02-7.85170E+00 1.85184E-02 2.41905E-02
 -1      1601-1.26462E+01-4.75498E+00 2.49516E-02-7.85065E+00 1.36578E-02 1.87104E-02
 -1      1602-1.15599E+01-3.31229E+00 2.28854E-02-6.29729E+00-1.35395E-02-2.09802E-02
 -1      1603-1.15451E+01-3.31835E+00 3.02499E-02-6.29952E+00-1.84444E-02-2.72734E-02
 -1      1604-1.15350E+01-3.32078E+00 3.57305E-02-6.30033E+00-1.61560E-02-2.41905E-02
 -1      1605-1.15287E+01-3.32190E+00 3.91798E-02-6.30058E+00-1.06951E-02-1.61928E-02
 -1      1606-1.15256E+01-3.32237E+00 4.08254E-02-6.30063E+00-3.71865E-03-5.66168E-03
 -1      1607-1.15256E+01-3.32237E+00 4.08254E-02-6.30063E+00 3.71865E-03 5.66168E-03
 -1      1608-1.15287E+01-3.32190E+00 3.91798E-02-6.30058E+00 1.06951E-02 1.61928E-02
 -1      1609-1.15350E+01-3.32078E+00 3.57305E-02-6.30033E+00 1.61560E-02 2.41905E-02
 -1      1610-1.15451E+01-3.31835E+00 3.02499E-02-6.29952E+00 1.84444E-02 2.72734E-02
 -1      1611-1.15599E+01-3.31229E+00 2.28854E-02-6.29729E+00 1.35395E-02 2.09802E-02
 -1      1612-1.01522E+01-2.14091E+00 1.99545E-02-4.78962E+00-1.29754E-02-2.27466E-02
 -1      1613-1.01365E+01-2.14687E+00 2.76499E-02-4.79276E+00-1.78241E-02-2.97038E-02
 -1      1614-1.01257E+01-2.14922E+00 3.35512E-02-4.79408E+00-1.56357E-02-2.63340E-02
 -1      1615-1.01189E+01-2.15029E+00 3.73453E-02-4.79462E+00-1.03539E-02-1.76169E-02
 -1      1616-1.01156E+01-2.15073E+00 3.91803E-02-4.79480E+00-3.60015E-03-6.15761E-03
 -1      1617-1.01156E+01-2.15073E+00 3.91803E-02-4.79480E+00 3.60015E-03 6.15761E-03
 -1      1618-1.01189E+01-2.15029E+00 3.73453E-02-4.79462E+00 1.03539E-02 1.76169E-02
 -1      1619-1.01257E+01-2.14922E+00 3.35512E-02-4.79408E+00 1.56357E-02 2.63340E-02
 -1      1620-1.01365E+01-2.14687E+00 2.76499E-02-4.79276E+00 1.78241E-02 2.97038E-02
 -1      1621-1.01522E+01-2.14091E+00 1.99545E-02-4.78962E+00 1.29754E-02 2.27466E-02
 -1      1622-8.48367E+00-1.24172E+00 1.59153E-02-3.39817E+00-1.19167E-02-2.36602E-02
 -1      1623-8.46679E+00-1.24708E+00 2.42984E-02-3.40185E+00-1.65956E-02-3.10253E-02
 -1      1624-8.45514E+00-1.24904E+00 3.09791E-02-3.40344E+00-1.45873E-02-2.75003E-02
 -1      1625-8.44777E+00-1.24987E+00 3.53856E-02-3.40412E+00-9.66209E-03-1.83896E-02
 -1      1626-8.44420E+00-1.25019E+00 3.75501E-02-3.40437E+00-3.35946E-03-6.42615E-03
 -1      1627-8.44420E+00-1.25019E+00 3.75501E-02-3.40437E+00 3.35946E-03 6.42615E-03
 -1      1628-8.44777E+00-1.24987E+00 3.53856E-02-3.40412E+00 9.66209E-03 1.83896E-02
 -1      1629-8.45514E+00-1.24904E+00 3.09791E-02-3.40344E+00 1.45873E-02 2.75003E-02
 -1      1630-8.46679E+00-1.24708E+00 2.42984E-02-3.40185E+00 1.65956E-02 3.10253E-02
 -1      1631-8.48367E+00-1.24172E+00 1.59153E-02-3.39817E+00 1.19167E-02 2.36602E-02
 -1      1632-6.64513E+00-6.01616E-01 1.05207E-02-2.18859E+00-1.03456E-02-2.32690E-02
 -1      1633-6.62682E+00-6.05927E-01 1.99665E-02-2.19228E+00-1.47326E-02-3.06455E-02
 -1      1634-6.61407E+00-6.07199E-01 2.78089E-02-2.19382E+00-1.29879E-02-2.71667E-02
 -1      1635-6.60598E+00-6.07606E-01 3.31141E-02-2.19447E+00-8.60457E-03-1.81621E-02
 -1      1636-6.60205E+00-6.07729E-01 3.57592E-02-2.19471E+00-2.99126E-03-6.34563E-03
 -1      1637-6.60205E+00-6.07729E-01 3.57592E-02-2.19471E+00 2.99126E-03 6.34563E-03
 -1      1638-6.60598E+00-6.07606E-01 3.31141E-02-2.19447E+00 8.60457E-03 1.81621E-02
 -1      1639-6.61407E+00-6.07199E-01 2.78089E-02-2.19382E+00 1.29879E-02 2.71667E-02
 -1      1640-6.62682E+00-6.05927E-01 1.99665E-02-2.19228E+00 1.47326E-02 3.06455E-02
 -1      1641-6.64513E+00-6.01616E-01 1.05207E-02-2.18859E+00 1.03456E-02 2.32690E-02
 -1      1642-4.75769E+00-1.93467E-01 3.54952E-03-1.21493E+00-8.28995E-03-2.09950E-02
 -1      1643-4.73774E+00-1.96331E-01 1.43969E-02-1.21793E+00-1.22621E-02-2.78072E-02
 -1      1644-4.72372E+00-1.96684E-01 2.37667E-02-1.21904E+00-1.08593E-02-2.46631E-02
 -1      1645-4.71479E+00-1.96530E-01 3.02524E-02-1.21945E+00-7.19505E-03-1.64859E-02
 -1      1646-4.71046E+00-1.96388E-01 3.35270E-02-1.21957E+00-2.50023E-03-5.75912E-03
 -1      1647-4.71046E+00-1.96388E-01 3.35270E-02-1.21957E+00 2.50023E-03 5.75912E-03
 -1      1648-4.71479E+00-1.96530E-01 3.02524E-02-1.21945E+00 7.19505E-03 1.64859E-02
 -1      1649-4.72372E+00-1.96684E-01 2.37667E-02-1.21904E+00 1.08593E-02 2.46631E-02
 -1      1650-4.73774E+00-1.96331E-01 1.43969E-02-1.21793E+00 1.22621E-02 2.78072E-02
 -1      1651-4.75769E+00-1.93467E-01 3.54952E-03-1.21493E+00 8.28995E-03 2.09950E-02
 -1      1652-2.96973E+00 2.24323E-02-5.12759E-03-5.12020E-01-5.83959E-03-1.60926E-02
 -1      1653-2.94814E+00 2.12852E-02 7.38831E-03-5.13447E-01-9.26840E-03-2.15002E-02
 -1      1654-2.93291E+00 2.19802E-02 1.85809E-02-5.13678E-01-8.26987E-03-1.90890E-02
 -1      1655-2.92326E+00 2.27456E-02 2.64544E-02-5.13597E-01-5.47890E-03-1.27609E-02
 -1      1656-2.91859E+00 2.31724E-02 3.04647E-02-5.13506E-01-1.90231E-03-4.45747E-03
 -1      1657-2.91859E+00 2.31724E-02 3.04647E-02-5.13506E-01 1.90231E-03 4.45747E-03
 -1      1658-2.92326E+00 2.27456E-02 2.64544E-02-5.13597E-01 5.47890E-03 1.27609E-02
 -1      1659-2.93291E+00 2.19802E-02 1.85809E-02-5.13678E-01 8.26987E-03 1.90890E-02
 -1      1660-2.94814E+00 2.12852E-02 7.38831E-03-5.13447E-01 9.26840E-03 2.15002E-02
 -1      1661-2.96973E+00 2.24323E-02-5.12759E-03-5.12020E-01 5.83959E-03 1.60926E-02
 -1      1662-1.44790E+00 9.51072E-02-1.50943E-02-8.73827E-02-3.16606E-03-7.55077E-03
 -1      1663-1.42556E+00 9.56500E-02-9.72639E-04-8.61473E-02-5.92059E-03-1.03051E-02
 -1      1664-1.41012E+00 9.72754E-02 1.20979E-02-8.49968E-02-5.35516E-03-9.15189E-03
 -1      1665-1.40051E+00 9.85770E-02 2.15102E-02-8.42003E-02-3.53804E-03-6.09521E-03
 -1      1666-1.39591E+00 9.92555E-02 2.63690E-02-8.38024E-02-1.22435E-03-2.12329E-03
 -1      1667-1.39591E+00 9.92555E-02 2.63690E-02-8.38024E-02 1.22435E-03 2.12329E-03
 -1      1668-1.40051E+00 9.85770E-02 2.15102E-02-8.42003E-02 3.53804E-03 6.09521E-03
 -1      1669-1.41012E+00 9.72754E-02 1.20979E-02-8.49968E-02 5.35516E-03 9.15189E-03
 -1      1670-1.42556E+00 9.56500E-02-9.72639E-04-8.61473E-02 5.92059E-03 1.03051E-02
 -1      1671-1.44790E+00 9.51072E-02-1.50943E-02-8.73827E-02 3.16606E-03 7.55077E-03
 -1      1672-3.59547E-01 7.74949E-02-2.58978E-02 8.72235E-02-7.08386E-04 5.24655E-03
 -1      1673-3.39706E-01 7.93812E-02-1.03476E-02 9.22118E-02-2.52074E-03 7.21965E-03
 -1      1674-3.26224E-01 8.19620E-02 4.89465E-03 9.51067E-02-2.29154E-03 6.62491E-03
 -1      1675-3.17995E-01 8.38818E-02 1.60027E-02 9.67425E-02-1.47541E-03 4.52114E-03
 -1      1676-3.14109E-01 8.48648E-02 2.17524E-02 9.74855E-02-5.01880E-04 1.59478E-03
 -1      1677-3.14109E-01 8.48648E-02 2.17524E-02 9.74855E-02 5.01880E-04-1.59478E-03
 -1      1678-3.17995E-01 8.38818E-02 1.60027E-02 9.67425E-02 1.47541E-03-4.52114E-03
 -1      1679-3.26224E-01 8.19620E-02 4.89465E-03 9.51067E-02 2.29154E-03-6.62491E-03
 -1      1680-3.39706E-01 7.93812E-02-1.03476E-02 9.22118E-02 2.52074E-03-7.21965E-03
 -1      1681-3.59547E-01 7.74949E-02-2.58978E-02 8.72235E-02 7.08386E-04-5.24655E-03
 -1      1682 1.69770E-01 2.17917E-02-3.04295E-02 8.46842E-02 6.74486E-04 1.93048E-02
 -1      1683 1.83374E-01 2.58540E-02-1.58803E-02 9.33886E-02-9.33459E-05 2.81807E-02
 -1      1684 1.93020E-01 2.95809E-02-2.47529E-03 9.77822E-02-1.72546E-04 2.50549E-02
 -1      1685 1.99079E-01 3.21480E-02 7.07451E-03 1.00038E-01-9.72396E-05 1.66268E-02
 -1      1686 2.01993E-01 3.34313E-02 1.19610E-02 1.01003E-01-2.75886E-05 5.77869E-03
 -1      1687 2.01993E-01 3.34313E-02 1.19610E-02 1.01003E-01 2.75886E-05-5.77869E-03
 -1      1688 1.99079E-01 3.21480E-02 7.07451E-03 1.00038E-01 9.72396E-05-1.66268E-02
 -1      1689 1.93020E-01 2.95809E-02-2.47529E-03 9.77822E-02 1.72546E-04-2.50549E-02
 -1      1690 1.83374E-01 2.58540E-02-1.58803E-02 9.33886E-02 9.33459E-05-2.81807E-02
 -1      1691 1.69770E-01 2.17917E-02-3.04295E-02 8.46842E-02-6.74486E-04-1.93048E-02
 -1      1692 2.21323E-01 1.88935E-02-5.49038E-03 1.69529E-02 1.57948E-05 2.38937E-02
 -1      1693 2.25901E-01 2.10077E-02-4.19819E-03 2.66463E-02 6.15254E-04 3.22348E-02
 -1      1694 2.30096E-01 2.26589E-02-4.05018E-03 3.10957E-02 1.13751E-03 2.77751E-02
 -1      1695 2.32941E-01 2.36626E-02-4.90398E-03 3.31270E-02 1.03673E-03 1.80859E-02
 -1      1696 2.34330E-01 2.41115E-02-5.70920E-03 3.39149E-02 4.10885E-04 6.22737E-03
 -1      1697 2.34330E-01 2.41115E-02-5.70920E-03 3.39149E-02-4.10885E-04-6.22737E-03
 -1      1698 2.32941E-01 2.36626E-02-4.90398E-03 3.31270E-02-1.03673E-03-1.80859E-02
 -1      1699 2.30096E-01 2.26589E-02-4.05018E-03 3.10957E-02-1.13751E-03-2.77751E-02
 -1      1700 2.25901E-01 2.10077E-02-4.19819E-03 2.66463E-02-6.15254E-04-3.22348E-02
 -1      1701 2.21323E-01 1.88935E-02-5.49038E-03 1.69529E-02-1.57948E-05-2.38937E-02
 -1      1702 5.64447E-02 1.04015E-01-7.23230E-03-3.50793E-02 1.80907E-02 3.47963E-03
 -1      1703 5.36752E-02 1.07393E-01-1.93832E-02-2.09062E-02 2.42851E-02 5.43988E-03
 -1      1704 5.22524E-02 1.12911E-01-3.32225E-02-1.37161E-02 2.19604E-02 5.75541E-03
 -1      1705 5.14742E-02 1.17320E-01-4.41528E-02-1.01933E-02 1.48084E-02 4.19244E-03
 -1      1706 5.11107E-02 1.19642E-01-5.00622E-02-8.75276E-03 5.18875E-03 1.51546E-03
 -1      1707 5.11107E-02 1.19642E-01-5.00622E-02-8.75276E-03-5.18875E-03-1.51546E-03
 -1      1708 5.14742E-02 1.17320E-01-4.41528E-02-1.01933E-02-1.48084E-02-4.19244E-03
 -1      1709 5.22524E-02 1.12911E-01-3.32225E-02-1.37161E-02-2.19604E-02-5.75541E-03
 -1      1710 5.36752E-02 1.07393E-01-1.93832E-02-2.09062E-02-2.42851E-02-5.43988E-03
 -1      1711 5.64447E-02 1.04015E-01-7.23230E-03-3.50793E-02-1.80907E-02-3.47963E-03
 -1      1712-2.80816E-03 2.12919E-01-1.76600E-02-4.87028E-02 3.05677E-02 1.15237E-03
 -1      1713-3.96563E-03 2.22358E-01-1.81046E-02-2.81238E-02 4.16584E-02-1.89998E-05
 -1      1714-3.90232E-03 2.32409E-01-2.11361E-02-1.70325E-02 3.68694E-02-1.15865E-04
 -1      1715-3.55367E-03 2.39986E-01-2.41449E-02-1.13711E-02 2.44723E-02 4.52618E-06
 -1      1716-3.30881E-03 2.43950E-01-2.58946E-02-8.99933E-03 8.50872E-03 2.40552E-05
 -1      1717-3.30881E-03 2.43950E-01-2.58946E-02-8.99933E-03-8.50872E-03-2.40552E-05
 -1      1718-3.55367E-03 2.39986E-01-2.41449E-02-1.13711E-02-2.44723E-02-4.52618E-06
 -1      1719-3.90232E-03 2.32409E-01-2.11361E-02-1.70325E-02-3.68694E-02 1.15865E-04
 -1      1720-3.96563E-03 2.22358E-01-1.81046E-02-2.81238E-02-4.16584E-02 1.89998E-05
 -1      1721-2.80816E-03 2.12919E-01-1.76600E-02-4.87028E-02-3.05677E-02-1.15237E-03
 -1      1722-2.16373E-02 3.13739E-01-2.01471E-02-3.34537E-03 3.49251E-02 8.80343E-04
 -1      1723-2.25518E-02 3.33007E-01-1.22522E-02 1.82691E-02 4.80517E-02-2.50526E-03
 -1      1724-2.13144E-02 3.49180E-01-5.20121E-03 3.02186E-02 4.29891E-02-3.09412E-03
 -1      1725-1.98711E-02 3.60565E-01-4.15863E-04 3.65054E-02 2.86454E-02-2.27178E-03
 -1      1726-1.90066E-02 3.66398E-01 1.95474E-03 3.92031E-02 9.97076E-03-8.16091E-04
 -1      1727-1.90066E-02 3.66398E-01 1.95474E-03 3.92031E-02-9.97076E-03 8.16091E-04
 -1      1728-1.98711E-02 3.60565E-01-4.15863E-04 3.65054E-02-2.86454E-02 2.27178E-03
 -1      1729-2.13144E-02 3.49180E-01-5.20121E-03 3.02186E-02-4.29891E-02 3.09412E-03
 -1      1730-2.25518E-02 3.33007E-01-1.22522E-02 1.82691E-02-4.80517E-02 2.50526E-03
 -1      1731-2.16373E-02 3.13739E-01-2.01471E-02-3.34537E-03-3.49251E-02-8.80343E-04
 -1      1732-1.87936E-02 3.35078E-01-1.89592E-02 8.64856E-02 3.32750E-02 1.58193E-03
 -1      1733-1.95690E-02 3.67073E-01-4.30098E-03 1.06097E-01 4.60312E-02-3.94173E-03
 -1      1734-1.78305E-02 3.90848E-01 1.00411E-02 1.16946E-01 4.15969E-02-5.04037E-03
 -1      1735-1.57926E-02 4.06675E-01 2.07436E-02 1.22672E-01 2.79329E-02-3.77150E-03
 -1      1736-1.45567E-02 4.14586E-01 2.63483E-02 1.25140E-01 9.75971E-03-1.36869E-03
 -1      1737-1.45567E-02 4.14586E-01 2.63483E-02 1.25140E-01-9.75971E-03 1.36869E-03
 -1      1738-1.57926E-02 4.06675E-01 2.07436E-02 1.22672E-01-2.79329E-02 3.77150E-03
 -1      1739-1.78305E-02 3.90848E-01 1.00411E-02 1.16946E-01-4.15969E-02 5.04037E-03
 -1      1740-1.95690E-02 3.67073E-01-4.30098E-03 1.06097E-01-4.60312E-02 3.94173E-03
 -1      1741-1.87936E-02 3.35078E-01-1.89592E-02 8.64856E-02-3.32750E-02-1.58193E-03
 -1      1742-7.46558E-03 2.28074E-01-1.63906E-02 2.08017E-01 2.83526E-02 2.55022E-03
 -1      1743-8.43621E-03 2.72252E-01 3.62066E-03 2.23755E-01 3.92507E-02-4.84711E-03
 -1      1744-6.38806E-03 3.04349E-01 2.34288E-02 2.32342E-01 3.56481E-02-6.45304E-03
 -1      1745-3.98046E-03 3.25279E-01 3.83955E-02 2.36813E-01 2.40447E-02-4.89097E-03
 -1      1746-2.51110E-03 3.35616E-01 4.63223E-02 2.38719E-01 8.42258E-03-1.78384E-03
 -1      1747-2.51110E-03 3.35616E-01 4.63223E-02 2.38719E-01-8.42258E-03 1.78384E-03
 -1      1748-3.98046E-03 3.25279E-01 3.83955E-02 2.36813E-01-2.40447E-02 4.89097E-03
 -1      1749-6.38806E-03 3.04349E-01 2.34288E-02 2.32342E-01-3.56481E-02 6.45304E-03
 -1      1750-8.43621E-03 2.72252E-01 3.62066E-03 2.23755E-01-3.92507E-02 4.84711E-03
 -1      1751-7.46558E-03 2.28074E-01-1.63906E-02 2.08017E-01-2.83526E-02-2.55022E-03
 -1      1752 3.97695E-03-4.42873E-02-1.37398E-02 3.52315E-01 2.18597E-02 3.50122E-03
 -1      1753 2.57468E-03 1.07548E-02 1.05443E-02 3.63161E-01 3.01990E-02-5.48075E-03
 -1      1754 4.78173E-03 5.08808E-02 3.45935E-02 3.68811E-01 2.74595E-02-7.53754E-03
 -1      1755 7.46995E-03 7.70519E-02 5.28119E-02 3.71613E-01 1.85500E-02-5.76615E-03
 -1      1756 9.12104E-03 8.99611E-02 6.24803E-02 3.72761E-01 6.50399E-03-2.11038E-03
 -1      1757 9.12104E-03 8.99611E-02 6.24803E-02 3.72761E-01-6.50399E-03 2.11038E-03
 -1      1758 7.46995E-03 7.70519E-02 5.28119E-02 3.71613E-01-1.85500E-02 5.76615E-03
 -1      1759 4.78173E-03 5.08808E-02 3.45935E-02 3.68811E-01-2.74595E-02 7.53754E-03
 -1      1760 2.57468E-03 1.07548E-02 1.05443E-02 3.63161E-01-3.01990E-02 5.48075E-03
 -1      1761 3.97695E-03-4.42873E-02-1.37398E-02 3.52315E-01-2.18597E-02-3.50122E-03
 -1      1762 1.03602E-02-5.12635E-01-1.18899E-02 5.13761E-01 1.46441E-02 4.32689E-03
 -1      1763 8.46616E-03-4.47787E-01 1.59688E-02 5.19175E-01 2.01516E-02-5.97407E-03
 -1      1764 1.07574E-02-4.00125E-01 4.35363E-02 5.21514E-01 1.82927E-02-8.41571E-03
 -1      1765 1.36696E-02-3.68887E-01 6.44286E-02 5.22402E-01 1.23485E-02-6.48023E-03
 -1      1766 1.54751E-02-3.53438E-01 7.55229E-02 5.22670E-01 4.32850E-03-2.37748E-03
 -1      1767 1.54751E-02-3.53438E-01 7.55229E-02 5.22670E-01-4.32850E-03 2.37748E-03
 -1      1768 1.36696E-02-3.68887E-01 6.44286E-02 5.22402E-01-1.23485E-02 6.48023E-03
 -1      1769 1.07574E-02-4.00125E-01 4.35363E-02 5.21514E-01-1.82927E-02 8.41571E-03
 -1      1770 8.46616E-03-4.47787E-01 1.59688E-02 5.19175E-01-2.01516E-02 5.97407E-03
 -1      1771 1.03602E-02-5.12635E-01-1.18899E-02 5.13761E-01-1.46441E-02-4.32689E-03
 -1      1772 8.53820E-03-1.20454E+00-1.14691E-02 6.89228E-01 7.01885E-03 5.01057E-03
 -1      1773 6.21151E-03-1.13041E+00 1.95673E-02 6.88883E-01 9.59378E-03-6.39704E-03
 -1      1774 8.57871E-03-1.07553E+00 5.02977E-02 6.87675E-01 8.64866E-03-9.16804E-03
 -1      1775 1.16932E-02-1.03938E+00 7.35949E-02 6.86490E-01 5.80987E-03-7.09306E-03
 -1      1776 1.36386E-02-1.02146E+00 8.59702E-02 6.85797E-01 2.03145E-03-2.60692E-03
 -1      1777 1.36386E-02-1.02146E+00 8.59702E-02 6.85797E-01-2.03145E-03 2.60692E-03
 -1      1778 1.16932E-02-1.03938E+00 7.35949E-02 6.86490E-01-5.80987E-03 7.09306E-03
 -1      1779 8.57871E-03-1.07553E+00 5.02977E-02 6.87675E-01-8.64866E-03 9.16804E-03
 -1      1780 6.21151E-03-1.13041E+00 1.95673E-02 6.88883E-01-9.59378E-03 6.39704E-03
 -1      1781 8.53820E-03-1.20454E+00-1.14691E-02 6.89228E-01-7.01885E-03-5.01057E-03
 -1      1782-3.47545E-03-2.14705E+00-1.29550E-02 8.77396E-01-1.01421E-03 5.57480E-03
 -1      1783-6.10706E-03-2.06358E+00 2.10927E-02 8.71006E-01-1.44865E-03-6.78648E-03
 -1      1784-3.62540E-03-2.00148E+00 5.48954E-02 8.66046E-01-1.41910E-03-9.85032E-03
 -1      1785-3.00899E-04-1.96044E+00 8.05461E-02 8.62651E-01-1.01407E-03-7.64931E-03
 -1      1786 1.78437E-03-1.94005E+00 9.41782E-02 8.60926E-01-3.66099E-04-2.81537E-03
 -1      1787 1.78437E-03-1.94005E+00 9.41782E-02 8.60926E-01 3.66099E-04 2.81537E-03
 -1      1788-3.00899E-04-1.96044E+00 8.05461E-02 8.62651E-01 1.01407E-03 7.64931E-03
 -1      1789-3.62540E-03-2.00148E+00 5.48954E-02 8.66046E-01 1.41910E-03 9.85032E-03
 -1      1790-6.10706E-03-2.06358E+00 2.10927E-02 8.71006E-01 1.44865E-03 6.78648E-03
 -1      1791-3.47545E-03-2.14705E+00-1.29550E-02 8.77396E-01 1.01421E-03-5.57480E-03
 -1      1792-2.70982E-02-3.36880E+00-1.67436E-02 1.07830E+00-9.63578E-03 6.05593E-03
 -1      1793-2.98720E-02-3.27537E+00 2.03358E-02 1.06550E+00-1.32123E-02-7.16392E-03
 -1      1794-2.72054E-02-3.20569E+00 5.73293E-02 1.05654E+00-1.21114E-02-1.05050E-02
 -1      1795-2.36387E-02-3.15955E+00 8.54508E-02 1.05078E+00-8.25198E-03-8.18473E-03
 -1      1796-2.14004E-02-3.13660E+00 1.00408E-01 1.04794E+00-2.90796E-03-3.01639E-03
 -1      1797-2.14004E-02-3.13660E+00 1.00408E-01 1.04794E+00 2.90796E-03 3.01639E-03
 -1      1798-2.36387E-02-3.15955E+00 8.54508E-02 1.05078E+00 8.25198E-03 8.18473E-03
 -1      1799-2.72054E-02-3.20569E+00 5.73293E-02 1.05654E+00 1.21114E-02 1.05050E-02
 -1      1800-2.98720E-02-3.27537E+00 2.03358E-02 1.06550E+00 1.32123E-02 7.16392E-03
 -1      1801-2.70982E-02-3.36880E+00-1.67436E-02 1.07830E+00 9.63578E-03-6.05593E-03
 -1      1802-6.35820E-02-4.90183E+00-2.32063E-02 1.29306E+00-1.91516E-02 6.49237E-03
 -1      1803-6.63156E-02-4.79727E+00 1.70980E-02 1.27331E+00-2.61059E-02-7.54617E-03
 -1      1804-6.33683E-02-4.71927E+00 5.75928E-02 1.26002E+00-2.37913E-02-1.11700E-02
 -1      1805-5.95047E-02-4.66759E+00 8.84557E-02 1.25167E+00-1.61460E-02-8.73164E-03
 -1      1806-5.70876E-02-4.64187E+00 1.04891E-01 1.24761E+00-5.67853E-03-3.22228E-03
 -1      1807-5.70876E-02-4.64187E+00 1.04891E-01 1.24761E+00 5.67853E-03 3.22228E-03
 -1      1808-5.95047E-02-4.66759E+00 8.84557E-02 1.25167E+00 1.61460E-02 8.73164E-03
 -1      1809-6.33683E-02-4.71927E+00 5.75928E-02 1.26002E+00 2.37913E-02 1.11700E-02
 -1      1810-6.63156E-02-4.79727E+00 1.70980E-02 1.27331E+00 2.61059E-02 7.54617E-03
 -1      1811-6.35820E-02-4.90183E+00-2.32063E-02 1.29306E+00 1.91516E-02-6.49237E-03
 -1      1812-1.14308E-01-6.78344E+00-3.27408E-02 1.52380E+00-2.99836E-02 6.92040E-03
 -1      1813-1.16800E-01-6.66602E+00 1.11665E-02 1.49632E+00-4.06908E-02-7.95159E-03
 -1      1814-1.13448E-01-6.57854E+00 5.56810E-02 1.47819E+00-3.69610E-02-1.18841E-02
 -1      1815-1.09208E-01-6.52062E+00 8.97214E-02 1.46695E+00-2.50334E-02-9.32315E-03
 -1      1816-1.06572E-01-6.49180E+00 1.07877E-01 1.46153E+00-8.79591E-03-3.44561E-03
 -1      1817-1.06572E-01-6.49180E+00 1.07877E-01 1.46153E+00 8.79591E-03 3.44561E-03
 -1      1818-1.09208E-01-6.52062E+00 8.97214E-02 1.46695E+00 2.50334E-02 9.32315E-03
 -1      1819-1.13448E-01-6.57854E+00 5.56810E-02 1.47819E+00 3.69610E-02 1.18841E-02
 -1      1820-1.16800E-01-6.66602E+00 1.11665E-02 1.49632E+00 4.06908E-02 7.95159E-03
 -1      1821-1.14308E-01-6.78344E+00-3.27408E-02 1.52380E+00 2.99836E-02-6.92040E-03
 -1      1822-1.81035E-01-9.05835E+00-4.58214E-02 1.77366E+00-4.26971E-02 7.37418E-03
 -1      1823-1.83053E-01-8.92562E+00 2.29204E-03 1.73733E+00-5.77135E-02-8.40366E-03
 -1      1824-1.79135E-01-8.82703E+00 5.16008E-02 1.71367E+00-5.22885E-02-1.26925E-02
 -1      1825-1.74405E-01-8.76185E+00 8.94590E-02 1.69910E+00-3.53637E-02-9.99664E-03
 -1      1826-1.71490E-01-8.72945E+00 1.09689E-01 1.69211E+00-1.24177E-02-3.70043E-03
 -1      1827-1.71490E-01-8.72945E+00 1.09689E-01 1.69211E+00 1.24177E-02 3.70043E-03
 -1      1828-1.74405E-01-8.76185E+00 8.94590E-02 1.69910E+00 3.53637E-02 9.99664E-03
 -1      1829-1.79135E-01-8.82703E+00 5.16008E-02 1.71367E+00 5.22885E-02 1.26925E-02
 -1      1830-1.83053E-01-8.92562E+00 2.29204E-03 1.73733E+00 5.77135E-02 8.40366E-03
 -1      1831-1.81035E-01-9.05835E+00-4.58214E-02 1.77366E+00 4.26971E-02-7.37418E-03
 -1      1832-2.66163E-01-1.17812E+01-6.30517E-02 2.04701E+00-5.80699E-02 7.88861E-03
 -1      1833-2.67414E-01-1.16298E+01-9.82580E-03 2.00025E+00-7.81954E-02-8.93306E-03
 -1      1834-2.62706E-01-1.15179E+01 4.54001E-02 1.97006E+00-7.06884E-02-1.36497E-02
 -1      1835-2.57326E-01-1.14441E+01 8.79947E-02 1.95155E+00-4.77537E-02-1.07966E-02
 -1      1836-2.54048E-01-1.14074E+01 1.10804E-01 1.94269E+00-1.67604E-02-4.00342E-03
 -1      1837-2.54048E-01-1.14074E+01 1.10804E-01 1.94269E+00 1.67604E-02 4.00342E-03
 -1      1838-2.57326E-01-1.14441E+01 8.79947E-02 1.95155E+00 4.77537E-02 1.07966E-02
 -1      1839-2.62706E-01-1.15179E+01 4.54001E-02 1.97006E+00 7.06884E-02 1.36497E-02
 -1      1840-2.67414E-01-1.16298E+01-9.82580E-03 2.00025E+00 7.81954E-02 8.93306E-03
 -1      1841-2.66163E-01-1.17812E+01-6.30517E-02 2.04701E+00 5.80699E-02-7.88861E-03
 -1      1842-3.73061E-01-1.50200E+01-8.52195E-02 2.34980E+00-7.72253E-02 8.50536E-03
 -1      1843-3.73141E-01-1.48454E+01-2.55303E-02 2.29035E+00-1.03613E-01-9.57805E-03
 -1      1844-3.67329E-01-1.47171E+01 3.72484E-02 2.25221E+00-9.34899E-02-1.48227E-02
 -1      1845-3.61071E-01-1.46328E+01 8.59085E-02 2.22892E+00-6.31042E-02-1.17774E-02
 -1      1846-3.57310E-01-1.45910E+01 1.12026E-01 2.21777E+00-2.21413E-02-4.37477E-03
 -1      1847-3.57310E-01-1.45910E+01 1.12026E-01 2.21777E+00 2.21413E-02 4.37477E-03
 -1      1848-3.61071E-01-1.46328E+01 8.59085E-02 2.22892E+00 6.31042E-02 1.17774E-02
 -1      1849-3.67329E-01-1.47171E+01 3.72484E-02 2.25221E+00 9.34899E-02 1.48227E-02
 -1      1850-3.73141E-01-1.48454E+01-2.55303E-02 2.29035E+00 1.03613E-01 9.57805E-03
 -1      1851-3.73061E-01-1.50200E+01-8.52195E-02 2.34980E+00 7.72253E-02-8.50536E-03
 -1      1852-5.06530E-01-1.88609E+01-1.13346E-01 2.69017E+00-1.01897E-01 9.28331E-03
 -1      1853-5.04855E-01-1.86567E+01-4.51438E-02 2.61480E+00-1.36260E-01-1.03828E-02
 -1      1854-4.97481E-01-1.85080E+01 2.76333E-02 2.56669E+00-1.22781E-01-1.62926E-02
 -1      1855-4.90024E-01-1.84108E+01 8.43401E-02 2.53736E+00-8.28418E-02-1.30046E-02
 -1      1856-4.85615E-01-1.83627E+01 1.14851E-01 2.52334E+00-2.90646E-02-4.83891E-03
 -1      1857-4.85615E-01-1.83627E+01 1.14851E-01 2.52334E+00 2.90646E-02 4.83891E-03
 -1      1858-4.90024E-01-1.84108E+01 8.43401E-02 2.53736E+00 8.28418E-02 1.30046E-02
 -1      1859-4.97481E-01-1.85080E+01 2.76333E-02 2.56669E+00 1.22781E-01 1.62926E-02
 -1      1860-5.04855E-01-1.86567E+01-4.51438E-02 2.61480E+00 1.36260E-01 1.03828E-02
 -1      1861-5.06530E-01-1.88609E+01-1.13346E-01 2.69017E+00 1.01897E-01-9.28331E-03
 -1      1862-6.73523E-01-2.34142E+01-1.48716E-01 3.07945E+00-1.34957E-01 1.03146E-02
 -1      1863-6.69212E-01-2.31720E+01-6.87836E-02 2.98342E+00-1.79991E-01-1.13926E-02
 -1      1864-6.59619E-01-2.29975E+01 1.77950E-02 2.92238E+00-1.62111E-01-1.81543E-02
 -1      1865-6.50519E-01-2.28846E+01 8.56274E-02 2.88522E+00-1.09414E-01-1.45555E-02
 -1      1866-6.45239E-01-2.28291E+01 1.22221E-01 2.86746E+00-3.83998E-02-5.42447E-03
 -1      1867-6.45239E-01-2.28291E+01 1.22221E-01 2.86746E+00 3.83998E-02 5.42447E-03
 -1      1868-6.50519E-01-2.28846E+01 8.56274E-02 2.88522E+00 1.09414E-01 1.45555E-02
 -1      1869-6.59619E-01-2.29975E+01 1.77950E-02 2.92238E+00 1.62111E-01 1.81543E-02
 -1      1870-6.69212E-01-2.31720E+01-6.87836E-02 2.98342E+00 1.79991E-01 1.13926E-02
 -1      1871-6.73523E-01-2.34142E+01-1.48716E-01 3.07945E+00 1.34957E-01-1.03146E-02
 -1      1872-8.84289E-01-2.88247E+01-1.92851E-01 3.53377E+00-1.81462E-01 1.17453E-02
 -1      1873-8.76018E-01-2.85327E+01-9.59543E-02 3.40998E+00-2.41688E-01-1.26472E-02
 -1      1874-8.63274E-01-2.83265E+01 1.05885E-02 3.33159E+00-2.17897E-01-2.05114E-02
 -1      1875-8.51938E-01-2.81949E+01 9.45379E-02 3.28394E+00-1.47274E-01-1.65138E-02
 -1      1876-8.45501E-01-2.81308E+01 1.39957E-01 3.26119E+00-5.17335E-02-6.16187E-03
 -1      1877-8.45501E-01-2.81308E+01 1.39957E-01 3.26119E+00 5.17335E-02 6.16187E-03
 -1      1878-8.51938E-01-2.81949E+01 9.45379E-02 3.28394E+00 1.47274E-01 1.65138E-02
 -1      1879-8.63274E-01-2.83265E+01 1.05885E-02 3.33159E+00 2.17897E-01 2.05114E-02
 -1      1880-8.76018E-01-2.85327E+01-9.59543E-02 3.40998E+00 2.41688E-01 1.26472E-02
 -1      1881-8.84289E-01-2.88247E+01-1.92851E-01 3.53377E+00 1.81462E-01-1.17453E-02
 -1      1882-1.15433E+00-3.52847E+01-2.47431E-01 4.07673E+00-2.50669E-01 1.37916E-02
 -1      1883-1.14013E+00-3.49286E+01-1.24804E-01 3.91423E+00-3.34093E-01-1.41692E-02
 -1      1884-1.12295E+00-3.46848E+01 1.19910E-02 3.81178E+00-3.02088E-01-2.34566E-02
 -1      1885-1.10861E+00-3.45330E+01 1.20391E-01 3.74964E+00-2.04740E-01-1.89477E-02
 -1      1886-1.10066E+00-3.44604E+01 1.79206E-01 3.72000E+00-7.20336E-02-7.07508E-03
 -1      1887-1.10066E+00-3.44604E+01 1.79206E-01 3.72000E+00 7.20336E-02 7.07508E-03
 -1      1888-1.10861E+00-3.45330E+01 1.20391E-01 3.74964E+00 2.04740E-01 1.89477E-02
 -1      1889-1.12295E+00-3.46848E+01 1.19910E-02 3.81178E+00 3.02088E-01 2.34566E-02
 -1      1890-1.14013E+00-3.49286E+01-1.24804E-01 3.91423E+00 3.34093E-01 1.41692E-02
 -1      1891-1.15433E+00-3.52847E+01-2.47431E-01 4.07673E+00 2.50669E-01-1.37916E-02
 -1      1892-1.50790E+00-4.30564E+01-3.14290E-01 4.74363E+00-3.59686E-01 1.67379E-02
 -1      1893-1.48493E+00-4.26204E+01-1.51115E-01 4.52516E+00-4.80881E-01-1.59445E-02
 -1      1894-1.46152E+00-4.23371E+01 3.32615E-02 4.38831E+00-4.36850E-01-2.69987E-02
 -1      1895-1.44321E+00-4.21685E+01 1.80042E-01 4.30565E+00-2.97213E-01-2.18392E-02
 -1      1896-1.43333E+00-4.20903E+01 2.59891E-01 4.26634E+00-1.04778E-01-8.14630E-03
 -1      1897-1.43333E+00-4.20903E+01 2.59891E-01 4.26634E+00 1.04778E-01 8.14630E-03
 -1      1898-1.44321E+00-4.21685E+01 1.80042E-01 4.30565E+00 2.97213E-01 2.18392E-02
 -1      1899-1.46152E+00-4.23371E+01 3.32615E-02 4.38831E+00 4.36850E-01 2.69987E-02
 -1      1900-1.48493E+00-4.26204E+01-1.51115E-01 4.52516E+00 4.80881E-01 1.59445E-02
 -1      1901-1.50790E+00-4.30564E+01-3.14290E-01 4.74363E+00 3.59686E-01-1.67379E-02
 -1      1902-1.98484E+00-5.25066E+01-3.96118E-01 5.58857E+00-5.39615E-01 2.08608E-02
 -1      1903-1.94892E+00-5.19801E+01-1.67722E-01 5.28653E+00-7.24871E-01-1.78021E-02
 -1      1904-1.91678E+00-5.16670E+01 9.25943E-02 5.09934E+00-6.61944E-01-3.08366E-02
 -1      1905-1.89311E+00-5.14962E+01 3.00371E-01 4.98724E+00-4.52053E-01-2.48379E-02
 -1      1906-1.88076E+00-5.14221E+01 4.13439E-01 4.93424E+00-1.59698E-01-9.24433E-03
 -1      1907-1.88076E+00-5.14221E+01 4.13439E-01 4.93424E+00 1.59698E-01 9.24433E-03
 -1      1908-1.89311E+00-5.14962E+01 3.00371E-01 4.98724E+00 4.52053E-01 2.48379E-02
 -1      1909-1.91678E+00-5.16670E+01 9.25943E-02 5.09934E+00 6.61944E-01 3.08366E-02
 -1      1910-1.94892E+00-5.19801E+01-1.67722E-01 5.28653E+00 7.24871E-01 1.78021E-02
 -1      1911-1.98484E+00-5.25066E+01-3.96118E-01 5.58857E+00 5.39615E-01-2.08608E-02
 -1      1912-2.65473E+00-6.41717E+01-5.00127E-01 6.69619E+00-8.44573E-01 2.64350E-02
 -1      1913-2.59970E+00-6.35631E+01-1.67973E-01 6.26627E+00-1.13949E+00-1.90940E-02
 -1      1914-2.55426E+00-6.32553E+01 2.12181E-01 6.00466E+00-1.04393E+00-3.35332E-02
 -1      1915-2.52315E+00-6.31188E+01 5.14175E-01 5.85038E+00-7.14527E-01-2.66630E-02
 -1      1916-2.50744E+00-6.30711E+01 6.78089E-01 5.77828E+00-2.52571E-01-9.76864E-03
 -1      1917-2.50744E+00-6.30711E+01 6.78089E-01 5.77828E+00 2.52571E-01 9.76864E-03
 -1      1918-2.52315E+00-6.31188E+01 5.14175E-01 5.85038E+00 7.14527E-01 2.66630E-02
 -1      1919-2.55426E+00-6.32553E+01 2.12181E-01 6.00466E+00 1.04393E+00 3.35332E-02
 -1      1920-2.59970E+00-6.35631E+01-1.67973E-01 6.26627E+00 1.13949E+00 1.90940E-02
 -1      1921-2.65473E+00-6.41717E+01-5.00127E-01 6.69619E+00 8.44573E-01-2.64350E-02
 -1      1922-3.64933E+00-7.88912E+01-6.51691E-01 8.20357E+00-1.36235E+00 3.34684E-02
 -1      1923-3.56178E+00-7.82461E+01-1.59450E-01 7.57457E+00-1.83898E+00-1.67191E-02
 -1      1924-3.49656E+00-7.80279E+01 3.95096E-01 7.20295E+00-1.68283E+00-3.07834E-02
 -1      1925-3.45322E+00-7.79988E+01 8.31162E-01 6.99009E+00-1.14944E+00-2.28485E-02
 -1      1926-3.43126E+00-7.80150E+01 1.06720E+00 6.89260E+00-4.06258E-01-8.23034E-03
 -1      1927-3.43126E+00-7.80150E+01 1.06720E+00 6.89260E+00 4.06258E-01 8.23034E-03
 -1      1928-3.45322E+00-7.79988E+01 8.31162E-01 6.99009E+00 1.14944E+00 2.28485E-02
 -1      1929-3.49656E+00-7.80279E+01 3.95096E-01 7.20295E+00 1.68283E+00 3.07834E-02
 -1      1930-3.56178E+00-7.82461E+01-1.59450E-01 7.57457E+00 1.83898E+00 1.67191E-02
 -1      1931-3.64933E+00-7.88912E+01-6.51691E-01 8.20357E+00 1.36235E+00-3.34684E-02
 -1      1932-5.23796E+00-9.80902E+01-9.30515E-01 1.03391E+01-2.22122E+00 4.45119E-02
 -1      1933-5.10394E+00-9.75579E+01-2.37271E-01 9.39767E+00-2.97593E+00-3.27015E-03
 -1      1934-4.99129E+00-9.75602E+01 5.46741E-01 8.86983E+00-2.69341E+00-6.39958E-03
 -1      1935-4.91898E+00-9.77275E+01 1.14505E+00 8.58126E+00-1.82691E+00-3.62539E-03
 -1      1936-4.89149E+00-9.78779E+01 1.44740E+00 8.45254E+00-6.41347E-01-4.13425E-04
 -1      1937-4.89149E+00-9.78779E+01 1.44740E+00 8.45254E+00 6.41347E-01 4.13425E-04
 -1      1938-4.91898E+00-9.77275E+01 1.14505E+00 8.58126E+00 1.82691E+00 3.62539E-03
 -1      1939-4.99129E+00-9.75602E+01 5.46741E-01 8.86983E+00 2.69341E+00 6.39958E-03
 -1      1940-5.10394E+00-9.75579E+01-2.37271E-01 9.39767E+00 2.97593E+00 3.27015E-03
 -1      1941-5.23796E+00-9.80902E+01-9.30515E-01 1.03391E+01 2.22122E+00-4.45119E-02
 -1      1942-8.08411E+00-1.24679E+02-1.64465E+00 1.35235E+01-3.56943E+00 6.08614E-02
 -1      1943-7.78316E+00-1.24354E+02-6.78978E-01 1.20928E+01-4.66597E+00 6.48408E-02
 -1      1944-7.59030E+00-1.24708E+02 2.50742E-01 1.13450E+01-4.12047E+00 6.19324E-02
 -1      1945-7.48766E+00-1.25218E+02 8.57022E-01 1.09676E+01-2.72619E+00 6.50847E-02
 -1      1946-7.39409E+00-1.25426E+02 1.23031E+00 1.08207E+01-9.51178E-01 2.73032E-02
 -1      1947-7.39409E+00-1.25426E+02 1.23031E+00 1.08207E+01 9.51178E-01-2.73032E-02
 -1      1948-7.48766E+00-1.25218E+02 8.57022E-01 1.09676E+01 2.72619E+00-6.50847E-02
 -1      1949-7.59030E+00-1.24708E+02 2.50742E-01 1.13450E+01 4.12047E+00-6.19324E-02
 -1      1950-7.78316E+00-1.24354E+02-6.78978E-01 1.20928E+01 4.66597E+00-6.48408E-02
 -1      1951-8.08411E+00-1.24679E+02-1.64465E+00 1.35235E+01 3.56943E+00-6.08614E-02
 -1      1952-1.36004E+01-1.64447E+02-3.27671E+00 1.86109E+01-5.51542E+00 1.69663E-01
 -1      1953-1.32562E+01-1.65006E+02-2.73476E+00 1.63557E+01-6.81776E+00 1.53796E-01
 -1      1954-1.29619E+01-1.66091E+02-2.27770E+00 1.53471E+01-5.53966E+00 3.20266E-01
 -1      1955-1.24544E+01-1.65905E+02-1.70660E+00 1.49574E+01-3.45283E+00 2.46895E-01
 -1      1956-1.22852E+01-1.65789E+02-1.74629E+00 1.47855E+01-1.13425E+00 8.72409E-02
 -1      1957-1.22852E+01-1.65789E+02-1.74629E+00 1.47855E+01 1.13425E+00-8.72409E-02
 -1      1958-1.24544E+01-1.65905E+02-1.70660E+00 1.49574E+01 3.45283E+00-2.46895E-01
 -1      1959-1.29619E+01-1.66091E+02-2.27770E+00 1.53471E+01 5.53966E+00-3.20266E-01
 -1      1960-1.32562E+01-1.65006E+02-2.73476E+00 1.63557E+01 6.81776E+00-1.53796E-01
 -1      1961-1.36004E+01-1.64447E+02-3.27671E+00 1.86109E+01 5.51542E+00-1.69663E-01
 -1      1962-2.85421E+01-2.37411E+02-1.10363E+01 2.70257E+01-7.97787E+00-1.66953E-01
 -1      1963-2.72458E+01-2.39331E+02-1.11693E+01 2.37209E+01-7.89648E+00 1.12396E+00
 -1      1964-2.46722E+01-2.34424E+02-1.01903E+01 2.28011E+01-5.15159E+00 7.96692E-01
 -1      1965-2.43175E+01-2.32376E+02-1.30527E+01 2.22327E+01-2.35257E+00 4.44031E-01
 -1      1966-2.42344E+01-2.31384E+02-1.46831E+01 2.20585E+01-6.96300E-01 1.50020E-01
 -1      1967-2.42344E+01-2.31384E+02-1.46831E+01 2.20585E+01 6.96300E-01-1.50020E-01
 -1      1968-2.43175E+01-2.32376E+02-1.30527E+01 2.22327E+01 2.35257E+00-4.44031E-01
 -1      1969-2.46722E+01-2.34424E+02-1.01903E+01 2.28011E+01 5.15159E+00-7.96692E-01
 -1      1970-2.72458E+01-2.39331E+02-1.11693E+01 2.37209E+01 7.89648E+00-1.12396E+00
 -1      1971-2.85421E+01-2.37411E+02-1.10363E+01 2.70257E+01 7.97787E+00 1.66953E-01
 -1      1972-7.03469E+01-4.08416E+02-2.95705E+01 4.33347E+01-3.18091E+00 4.83085E+00
 -1      1973-5.74859E+01-3.75521E+02-2.77310E+01 4.02409E+01-1.49915E+00 8.69201E-01
 -1      1974-5.91553E+01-3.69470E+02-4.66315E+01 3.78853E+01 2.70759E+00 7.54723E-01
 -1      1975-5.97987E+01-3.65655E+02-5.52699E+01 3.75984E+01 1.81249E+00 8.70329E-01
 -1      1976-6.02355E+01-3.64100E+02-5.93586E+01 3.75897E+01 6.64699E-01 3.58521E-01
 -1      1977-6.02355E+01-3.64100E+02-5.93586E+01 3.75897E+01-6.64699E-01-3.58521E-01
 -1      1978-5.97987E+01-3.65655E+02-5.52699E+01 3.75984E+01-1.81249E+00-8.70329E-01
 -1      1979-5.91553E+01-3.69470E+02-4.66315E+01 3.78853E+01-2.70759E+00-7.54723E-01
 -1      1980-5.74859E+01-3.75521E+02-2.77310E+01 4.02409E+01 1.49915E+00-8.69201E-01
 -1      1981-7.03469E+01-4.08416E+02-2.95705E+01 4.33347E+01 3.18091E+00-4.83085E+00
 -1      1982-1.88931E+02-7.45557E+02-1.13084E+02 4.36057E+01 1.24671E-01-2.43530E+01
 -1      1983-1.93719E+02-7.22244E+02-1.77715E+02 3.28230E+01 1.91003E+01-1.82826E+00
 -1      1984-1.91358E+02-7.04366E+02-1.84116E+02 3.39603E+01 8.06242E+00 4.79209E+00
 -1      1985-1.92554E+02-6.98742E+02-1.93103E+02 3.43977E+01 4.62246E+00 3.72300E+00
 -1      1986-1.93641E+02-6.97087E+02-1.98362E+02 3.45927E+01 1.47892E+00 1.31500E+00
 -1      1987-1.93641E+02-6.97087E+02-1.98362E+02 3.45927E+01-1.47892E+00-1.31500E+00
 -1      1988-1.92554E+02-6.98742E+02-1.93103E+02 3.43977E+01-4.62246E+00-3.72300E+00
 -1      1989-1.91358E+02-7.04366E+02-1.84116E+02 3.39603E+01-8.06242E+00-4.79209E+00
 -1      1990-1.93719E+02-7.22244E+02-1.77715E+02 3.28230E+01-1.91003E+01 1.82826E+00
 -1      1991-1.88931E+02-7.45557E+02-1.13084E+02 4.36057E+01-1.24671E-01 2.43530E+01
 -1      1992 3.70005E+02 8.61094E+01 9.38869E+01 1.53109E+02-2.49335E+01 4.97071E+01
 -1      1993 3.76079E+02 1.26915E+02 1.80553E+02 1.43922E+02 1.02882E+01 5.36133E+01
 -1      1994 3.75552E+02 1.35500E+02 2.07956E+02 1.43283E+02 3.27839E+00 3.37633E+01
 -1      1995 3.72094E+02 1.36876E+02 2.10596E+02 1.43421E+02 1.67292E+00 1.77826E+01
 -1      1996 3.69971E+02 1.36650E+02 2.09226E+02 1.43494E+02 5.10027E-01 5.54700E+00
 -1      1997 3.69971E+02 1.36650E+02 2.09226E+02 1.43494E+02-5.10027E-01-5.54700E+00
 -1      1998 3.72094E+02 1.36876E+02 2.10596E+02 1.43421E+02-1.67292E+00-1.77826E+01
 -1      1999 3.75552E+02 1.35500E+02 2.07956E+02 1.43283E+02-3.27839E+00-3.37633E+01
 -1      2000 3.76079E+02 1.26915E+02 1.80553E+02 1.43922E+02-1.02882E+01-5.36133E+01
 -1      2001 3.70005E+02 8.61094E+01 9.38869E+01 1.53109E+02 2.49335E+01-4.97071E+01
 -1      2002 2.99195E+02 6.65299E+01 3.58891E+01 2.41237E+01 5.79172E+00 1.71059E+01
 -1      2003 2.89034E+02 5.05493E+01 5.17948E+01 1.39908E+01 2.73343E+00 2.41402E+01
 -1      2004 2.85877E+02 5.46915E+01 8.43734E+01 1.17547E+01 3.77872E+00 2.27661E+01
 -1      2005 2.84075E+02 5.75678E+01 1.03483E+02 1.13357E+01 2.12659E+00 1.44875E+01
 -1      2006 2.82983E+02 5.87156E+01 1.11256E+02 1.12895E+01 6.80682E-01 4.87097E+00
 -1      2007 2.82983E+02 5.87156E+01 1.11256E+02 1.12895E+01-6.80682E-01-4.87097E+00
 -1      2008 2.84075E+02 5.75678E+01 1.03483E+02 1.13357E+01-2.12659E+00-1.44875E+01
 -1      2009 2.85877E+02 5.46915E+01 8.43734E+01 1.17547E+01-3.77872E+00-2.27661E+01
 -1      2010 2.89034E+02 5.05493E+01 5.17948E+01 1.39908E+01-2.73343E+00-2.41402E+01
 -1      2011 2.99195E+02 6.65299E+01 3.58891E+01 2.41237E+01-5.79172E+00-1.71059E+01
 -1      2012 2.09890E+02 4.52125E+01 2.07439E+01 1.58114E+01-6.92674E-01-3.09899E+00
 -1      2013 2.26120E+02 4.76021E+01 3.21185E+01 1.79320E+01 2.24582E+00 2.82993E-01
 -1      2014 2.27568E+02 4.59519E+01 4.23446E+01 1.68109E+01 2.14102E+00 4.01560E+00
 -1      2015 2.27300E+02 4.63154E+01 5.29956E+01 1.61556E+01 1.59094E+00 4.22374E+00
 -1      2016 2.26959E+02 4.67460E+01 5.88831E+01 1.58997E+01 5.61299E-01 1.68034E+00
 -1      2017 2.26959E+02 4.67460E+01 5.88831E+01 1.58997E+01-5.61299E-01-1.68034E+00
 -1      2018 2.27300E+02 4.63154E+01 5.29956E+01 1.61556E+01-1.59094E+00-4.22374E+00
 -1      2019 2.27568E+02 4.59519E+01 4.23446E+01 1.68109E+01-2.14102E+00-4.01560E+00
 -1      2020 2.26120E+02 4.76021E+01 3.21185E+01 1.79320E+01-2.24582E+00-2.82993E-01
 -1      2021 2.09890E+02 4.52125E+01 2.07439E+01 1.58114E+01 6.92674E-01 3.09899E+00
 -1      2022 1.53649E+02 2.87900E+01 9.20498E+00 1.69083E+01-9.72585E-01-6.02059E+00
 -1      2023 1.64847E+02 3.00102E+01 1.39347E+01 1.97027E+01-2.28238E-01-6.54971E+00
 -1      2024 1.71773E+02 3.07639E+01 1.90285E+01 2.06411E+01 4.43253E-01-4.04644E+00
 -1      2025 1.74496E+02 3.08010E+01 2.31438E+01 2.07365E+01 4.78873E-01-1.79015E+00
 -1      2026 1.75450E+02 3.08736E+01 2.57204E+01 2.07005E+01 1.99194E-01-4.49398E-01
 -1      2027 1.75450E+02 3.08736E+01 2.57204E+01 2.07005E+01-1.99194E-01 4.49398E-01
 -1      2028 1.74496E+02 3.08010E+01 2.31438E+01 2.07365E+01-4.78873E-01 1.79015E+00
 -1      2029 1.71773E+02 3.07639E+01 1.90285E+01 2.06411E+01-4.43253E-01 4.04644E+00
 -1      2030 1.64847E+02 3.00102E+01 1.39347E+01 1.97027E+01 2.28238E-01 6.54971E+00
 -1      2031 1.53649E+02 2.87900E+01 9.20498E+00 1.69083E+01 9.72585E-01 6.02059E+00
 -1      2032 1.23132E+02 2.17632E+01 4.92775E+00 2.03747E+01-1.30867E+00-5.54230E+00
 -1      2033 1.29507E+02 2.31684E+01 6.63094E+00 2.29697E+01-1.08003E+00-6.93358E+00
 -1      2034 1.34805E+02 2.39510E+01 8.42778E+00 2.42909E+01-6.51655E-01-5.59724E+00
 -1      2035 1.38205E+02 2.43846E+01 1.00491E+01 2.49259E+01-2.96525E-01-3.41642E+00
 -1      2036 1.39721E+02 2.45323E+01 1.09630E+01 2.51605E+01-8.13004E-02-1.13062E+00
 -1      2037 1.39721E+02 2.45323E+01 1.09630E+01 2.51605E+01 8.13004E-02 1.13062E+00
 -1      2038 1.38205E+02 2.43846E+01 1.00491E+01 2.49259E+01 2.96525E-01 3.41642E+00
 -1      2039 1.34805E+02 2.39510E+01 8.42778E+00 2.42909E+01 6.51655E-01 5.59724E+00
 -1      2040 1.29507E+02 2.31684E+01 6.63094E+00 2.29697E+01 1.08003E+00 6.93358E+00
 -1      2041 1.23132E+02 2.17632E+01 4.92775E+00 2.03747E+01 1.30867E+00 5.54230E+00
 -1      2042 1.04067E+02 1.94065E+01 2.97103E+00 2.39892E+01-1.18892E+00-4.18046E+00
 -1      2043 1.07389E+02 2.04962E+01 3.48919E+00 2.58662E+01-1.29468E+00-5.51724E+00
 -1      2044 1.10778E+02 2.12433E+01 3.96263E+00 2.70588E+01-1.00501E+00-4.78309E+00
 -1      2045 1.13278E+02 2.17020E+01 4.40527E+00 2.77619E+01-6.12011E-01-3.12305E+00
 -1      2046 1.14574E+02 2.19211E+01 4.68286E+00 2.80869E+01-2.02856E-01-1.07466E+00
 -1      2047 1.14574E+02 2.19211E+01 4.68286E+00 2.80869E+01 2.02856E-01 1.07466E+00
 -1      2048 1.13278E+02 2.17020E+01 4.40527E+00 2.77619E+01 6.12011E-01 3.12305E+00
 -1      2049 1.10778E+02 2.12433E+01 3.96263E+00 2.70588E+01 1.00501E+00 4.78309E+00
 -1      2050 1.07389E+02 2.04962E+01 3.48919E+00 2.58662E+01 1.29468E+00 5.51724E+00
 -1      2051 1.04067E+02 1.94065E+01 2.97103E+00 2.39892E+01 1.18892E+00 4.18046E+00
 -1      2052 9.12630E+01 1.95790E+01 2.14093E+00 2.73230E+01-9.61400E-01-2.87398E+00
 -1      2053 9.28024E+01 2.04262E+01 2.26242E+00 2.85570E+01-1.15051E+00-3.87908E+00
 -1      2054 9.47389E+01 2.10421E+01 2.27403E+00 2.94453E+01-9.75778E-01-3.46877E+00
 -1      2055 9.63147E+01 2.14501E+01 2.29785E+00 3.00275E+01-6.32638E-01-2.32310E+00
 -1      2056 9.71720E+01 2.16528E+01 2.32153E+00 3.03151E+01-2.17579E-01-8.11557E-01
 -1      2057 9.71720E+01 2.16528E+01 2.32153E+00 3.03151E+01 2.17579E-01 8.11557E-01
 -1      2058 9.63147E+01 2.14501E+01 2.29785E+00 3.00275E+01 6.32638E-01 2.32310E+00
 -1      2059 9.47389E+01 2.10421E+01 2.27403E+00 2.94453E+01 9.75778E-01 3.46877E+00
 -1      2060 9.28024E+01 2.04262E+01 2.26242E+00 2.85570E+01 1.15051E+00 3.87908E+00
 -1      2061 9.12630E+01 1.95790E+01 2.14093E+00 2.73230E+01 9.61400E-01 2.87398E+00
 -1      2062 8.20228E+01 2.12759E+01 1.78533E+00 3.03456E+01-7.08814E-01-1.86243E+00
 -1      2063 8.26329E+01 2.18894E+01 1.82337E+00 3.10944E+01-8.89559E-01-2.54030E+00
 -1      2064 8.36544E+01 2.23652E+01 1.73582E+00 3.16882E+01-7.86710E-01-2.30405E+00
 -1      2065 8.45573E+01 2.26923E+01 1.65182E+00 3.21046E+01-5.25638E-01-1.56220E+00
 -1      2066 8.50683E+01 2.28585E+01 1.60621E+00 3.23189E+01-1.83504E-01-5.49359E-01
 -1      2067 8.50683E+01 2.28585E+01 1.60621E+00 3.23189E+01 1.83504E-01 5.49359E-01
 -1      2068 8.45573E+01 2.26923E+01 1.65182E+00 3.21046E+01 5.25638E-01 1.56220E+00
 -1      2069 8.36544E+01 2.23652E+01 1.73582E+00 3.16882E+01 7.86710E-01 2.30405E+00
 -1      2070 8.26329E+01 2.18894E+01 1.82337E+00 3.10944E+01 8.89559E-01 2.54030E+00
 -1      2071 8.20228E+01 2.12759E+01 1.78533E+00 3.03456E+01 7.08814E-01 1.86243E+00
 -1      2072 7.50071E+01 2.39835E+01 1.63315E+00 3.31073E+01-4.86262E-01-1.15475E+00
 -1      2073 7.51934E+01 2.44169E+01 1.69915E+00 3.35355E+01-6.21997E-01-1.58311E+00
 -1      2074 7.57052E+01 2.47705E+01 1.64196E+00 3.39051E+01-5.65412E-01-1.44466E+00
 -1      2075 7.61965E+01 2.50194E+01 1.56860E+00 3.41784E+01-3.84897E-01-9.85123E-01
 -1      2076 7.64835E+01 2.51477E+01 1.52343E+00 3.43233E+01-1.35657E-01-3.47632E-01
 -1      2077 7.64835E+01 2.51477E+01 1.52343E+00 3.43233E+01 1.35657E-01 3.47632E-01
 -1      2078 7.61965E+01 2.50194E+01 1.56860E+00 3.41784E+01 3.84897E-01 9.85123E-01
 -1      2079 7.57052E+01 2.47705E+01 1.64196E+00 3.39051E+01 5.65412E-01 1.44466E+00
 -1      2080 7.51934E+01 2.44169E+01 1.69915E+00 3.35355E+01 6.21997E-01 1.58311E+00
 -1      2081 7.50071E+01 2.39835E+01 1.63315E+00 3.31073E+01 4.86262E-01 1.15475E+00
 -1      2082 6.94486E+01 2.74616E+01 1.56888E+00 3.56647E+01-3.07336E-01-6.86858E-01
 -1      2083 6.94840E+01 2.77650E+01 1.69196E+00 3.59011E+01-3.93239E-01-9.46193E-01
 -1      2084 6.97440E+01 2.80264E+01 1.69951E+00 3.61223E+01-3.66343E-01-8.64421E-01
 -1      2085 7.00107E+01 2.82133E+01 1.67114E+00 3.62936E+01-2.53628E-01-5.90651E-01
 -1      2086 7.01700E+01 2.83100E+01 1.64790E+00 3.63866E+01-9.01250E-02-2.08715E-01
 -1      2087 7.01700E+01 2.83100E+01 1.64790E+00 3.63866E+01 9.01250E-02 2.08715E-01
 -1      2088 7.00107E+01 2.82133E+01 1.67114E+00 3.62936E+01 2.53628E-01 5.90651E-01
 -1      2089 6.97440E+01 2.80264E+01 1.69951E+00 3.61223E+01 3.66343E-01 8.64421E-01
 -1      2090 6.94840E+01 2.77650E+01 1.69196E+00 3.59011E+01 3.93239E-01 9.46193E-01
 -1      2091 6.94486E+01 2.74616E+01 1.56888E+00 3.56647E+01 3.07336E-01 6.86858E-01
 -1      2092 6.48523E+01 3.15891E+01 1.54620E+00 3.80471E+01-1.70262E-01-3.87763E-01
 -1      2093 6.48690E+01 3.18074E+01 1.72697E+00 3.81812E+01-2.12599E-01-5.40035E-01
 -1      2094 6.50234E+01 3.20064E+01 1.79908E+00 3.83149E+01-2.05646E-01-4.92276E-01
 -1      2095 6.51809E+01 3.21498E+01 1.81854E+00 3.84222E+01-1.45968E-01-3.36153E-01
 -1      2096 6.52747E+01 3.22241E+01 1.82001E+00 3.84814E+01-5.24772E-02-1.18797E-01
 -1      2097 6.52747E+01 3.22241E+01 1.82001E+00 3.84814E+01 5.24772E-02 1.18797E-01
 -1      2098 6.51809E+01 3.21498E+01 1.81854E+00 3.84222E+01 1.45968E-01 3.36153E-01
 -1      2099 6.50234E+01 3.20064E+01 1.79908E+00 3.83149E+01 2.05646E-01 4.92276E-01
 -1      2100 6.48690E+01 3.18074E+01 1.72697E+00 3.81812E+01 2.12599E-01 5.40035E-01
 -1      2101 6.48523E+01 3.15891E+01 1.54620E+00 3.80471E+01 1.70262E-01 3.87763E-01
 -1      2102 6.08689E+01 3.62997E+01 1.54704E+00 4.02505E+01-6.71554E-02-2.00437E-01
 -1      2103 6.09214E+01 3.64678E+01 1.77847E+00 4.03391E+01-7.49194E-02-2.87970E-01
 -1      2104 6.10451E+01 3.66297E+01 1.90576E+00 4.04277E+01-8.20652E-02-2.61151E-01
 -1      2105 6.11574E+01 3.67464E+01 1.96664E+00 4.04994E+01-6.26495E-02-1.77755E-01
 -1      2106 6.12215E+01 3.68066E+01 1.98982E+00 4.05392E+01-2.32421E-02-6.27479E-02
 -1      2107 6.12215E+01 3.68066E+01 1.98982E+00 4.05392E+01 2.32421E-02 6.27479E-02
 -1      2108 6.11574E+01 3.67464E+01 1.96664E+00 4.04994E+01 6.26495E-02 1.77755E-01
 -1      2109 6.10451E+01 3.66297E+01 1.90576E+00 4.04277E+01 8.20652E-02 2.61151E-01
 -1      2110 6.09214E+01 3.64678E+01 1.77847E+00 4.03391E+01 7.49194E-02 2.87970E-01
 -1      2111 6.08689E+01 3.62997E+01 1.54704E+00 4.02505E+01 6.71554E-02 2.00437E-01
 -1      2112 5.72425E+01 4.15449E+01 1.56402E+00 4.22405E+01 1.02943E-02-8.49213E-02
 -1      2113 5.73461E+01 4.16892E+01 1.83891E+00 4.23177E+01 2.89265E-02-1.34903E-01
 -1      2114 5.74733E+01 4.18335E+01 2.01187E+00 4.23881E+01 1.12958E-02-1.21083E-01
 -1      2115 5.75728E+01 4.19370E+01 2.10690E+00 4.24432E+01 3.73633E-04-8.17321E-02
 -1      2116 5.76261E+01 4.19900E+01 2.14799E+00 4.24734E+01-1.11243E-03-2.87549E-02
 -1      2117 5.76261E+01 4.19900E+01 2.14799E+00 4.24734E+01 1.11243E-03 2.87549E-02
 -1      2118 5.75728E+01 4.19370E+01 2.10690E+00 4.24432E+01-3.73633E-04 8.17321E-02
 -1      2119 5.74733E+01 4.18335E+01 2.01187E+00 4.23881E+01-1.12958E-02 1.21083E-01
 -1      2120 5.73461E+01 4.16892E+01 1.83891E+00 4.23177E+01-2.89265E-02 1.34903E-01
 -1      2121 5.72425E+01 4.15449E+01 1.56402E+00 4.22405E+01-1.02943E-02 8.49213E-02
 -1      2122 5.37873E+01 4.72759E+01 1.59341E+00 4.39615E+01 6.88384E-02-1.52150E-02
 -1      2123 5.39397E+01 4.74159E+01 1.90637E+00 4.40463E+01 1.07362E-01-4.46541E-02
 -1      2124 5.40829E+01 4.75573E+01 2.11780E+00 4.41144E+01 8.16696E-02-3.87099E-02
 -1      2125 5.41840E+01 4.76577E+01 2.24125E+00 4.41644E+01 4.78123E-02-2.52504E-02
 -1      2126 5.42355E+01 4.77086E+01 2.29719E+00 4.41911E+01 1.55339E-02-8.75173E-03
 -1      2127 5.42355E+01 4.77086E+01 2.29719E+00 4.41911E+01-1.55339E-02 8.75173E-03
 -1      2128 5.41840E+01 4.76577E+01 2.24125E+00 4.41644E+01-4.78123E-02 2.52504E-02
 -1      2129 5.40829E+01 4.75573E+01 2.11780E+00 4.41144E+01-8.16696E-02 3.87099E-02
 -1      2130 5.39397E+01 4.74159E+01 1.90637E+00 4.40463E+01-1.07362E-01 4.46541E-02
 -1      2131 5.37873E+01 4.72759E+01 1.59341E+00 4.39615E+01-6.88384E-02 1.52150E-02
 -1      2132 5.03740E+01 5.34342E+01 1.63255E+00 4.53442E+01 1.13268E-01 2.49169E-02
 -1      2133 5.05663E+01 5.35848E+01 1.97999E+00 4.54465E+01 1.66707E-01 5.37742E-03
 -1      2134 5.07276E+01 5.37341E+01 2.22505E+00 4.55210E+01 1.34758E-01 6.94644E-03
 -1      2135 5.08354E+01 5.38388E+01 2.37302E+00 4.55725E+01 8.35208E-02 6.14465E-03
 -1      2136 5.08886E+01 5.38915E+01 2.44166E+00 4.55991E+01 2.80499E-02 2.38640E-03
 -1      2137 5.08886E+01 5.38915E+01 2.44166E+00 4.55991E+01-2.80499E-02-2.38640E-03
 -1      2138 5.08354E+01 5.38388E+01 2.37302E+00 4.55725E+01-8.35208E-02-6.14465E-03
 -1      2139 5.07276E+01 5.37341E+01 2.22505E+00 4.55210E+01-1.34758E-01-6.94644E-03
 -1      2140 5.05663E+01 5.35848E+01 1.97999E+00 4.54465E+01-1.66707E-01-5.37742E-03
 -1      2141 5.03740E+01 5.34342E+01 1.63255E+00 4.53442E+01-1.13268E-01-2.49169E-02
 -1      2142 4.69207E+01 5.99468E+01 1.67901E+00 4.63143E+01 1.46727E-01 4.54523E-02
 -1      2143 4.71422E+01 6.01197E+01 2.05865E+00 4.64383E+01 2.11232E-01 2.90274E-02
 -1      2144 4.73192E+01 6.02851E+01 2.33425E+00 4.65232E+01 1.74529E-01 2.87360E-02
 -1      2145 4.74342E+01 6.03997E+01 2.50421E+00 4.65795E+01 1.10240E-01 2.13263E-02
 -1      2146 4.74902E+01 6.04571E+01 2.58417E+00 4.66078E+01 3.74090E-02 7.81072E-03
 -1      2147 4.74902E+01 6.04571E+01 2.58417E+00 4.66078E+01-3.74090E-02-7.81072E-03
 -1      2148 4.74342E+01 6.03997E+01 2.50421E+00 4.65795E+01-1.10240E-01-2.13263E-02
 -1      2149 4.73192E+01 6.02851E+01 2.33425E+00 4.65232E+01-1.74529E-01-2.87360E-02
 -1      2150 4.71422E+01 6.01197E+01 2.05865E+00 4.64383E+01-2.11232E-01-2.90274E-02
 -1      2151 4.69207E+01 5.99468E+01 1.67901E+00 4.63143E+01-1.46727E-01-4.54523E-02
 -1      2152 4.33852E+01 6.67236E+01 1.73030E+00 4.67982E+01 1.71248E-01 5.26093E-02
 -1      2153 4.36254E+01 6.69285E+01 2.14066E+00 4.69447E+01 2.43780E-01 3.48912E-02
 -1      2154 4.38141E+01 6.71168E+01 2.44475E+00 4.70413E+01 2.03718E-01 3.46334E-02
 -1      2155 4.39353E+01 6.72459E+01 2.63499E+00 4.71037E+01 1.29906E-01 2.58046E-02
 -1      2156 4.39939E+01 6.73102E+01 2.72534E+00 4.71346E+01 4.43075E-02 9.47928E-03
 -1      2157 4.39939E+01 6.73102E+01 2.72534E+00 4.71346E+01-4.43075E-02-9.47928E-03
 -1      2158 4.39353E+01 6.72459E+01 2.63499E+00 4.71037E+01-1.29906E-01-2.58046E-02
 -1      2159 4.38141E+01 6.71168E+01 2.44475E+00 4.70413E+01-2.03718E-01-3.46334E-02
 -1      2160 4.36254E+01 6.69285E+01 2.14066E+00 4.69447E+01-2.43780E-01-3.48912E-02
 -1      2161 4.33852E+01 6.67236E+01 1.73030E+00 4.67982E+01-1.71248E-01-5.26093E-02
 -1      2162 3.97575E+01 7.36565E+01 1.78367E+00 4.67284E+01 1.88389E-01 5.05186E-02
 -1      2163 4.00074E+01 7.39020E+01 2.22350E+00 4.68957E+01 2.66672E-01 2.87214E-02
 -1      2164 4.02038E+01 7.41196E+01 2.55442E+00 4.70040E+01 2.24681E-01 2.99963E-02
 -1      2165 4.03298E+01 7.42675E+01 2.76354E+00 4.70728E+01 1.44244E-01 2.32923E-02
 -1      2166 4.03904E+01 7.43412E+01 2.86347E+00 4.71066E+01 4.93758E-02 8.71368E-03
 -1      2167 4.03904E+01 7.43412E+01 2.86347E+00 4.71066E+01-4.93758E-02-8.71368E-03
 -1      2168 4.03298E+01 7.42675E+01 2.76354E+00 4.70728E+01-1.44244E-01-2.32923E-02
 -1      2169 4.02038E+01 7.41196E+01 2.55442E+00 4.70040E+01-2.24681E-01-2.99963E-02
 -1      2170 4.00074E+01 7.39020E+01 2.22350E+00 4.68957E+01-2.66672E-01-2.87214E-02
 -1      2171 3.97575E+01 7.36565E+01 1.78367E+00 4.67284E+01-1.88389E-01-5.05186E-02
 -1      2172 3.60540E+01 8.06165E+01 1.83572E+00 4.60475E+01 2.00005E-01 4.23627E-02
 -1      2173 3.63065E+01 8.09121E+01 2.30346E+00 4.62328E+01 2.82883E-01 1.50614E-02
 -1      2174 3.65077E+01 8.11666E+01 2.65922E+00 4.63521E+01 2.40561E-01 1.91149E-02
 -1      2175 3.66373E+01 8.13393E+01 2.88545E+00 4.64275E+01 1.55603E-01 1.67857E-02
 -1      2176 3.66998E+01 8.14253E+01 2.99394E+00 4.64645E+01 5.34796E-02 6.58439E-03
 -1      2177 3.66998E+01 8.14253E+01 2.99394E+00 4.64645E+01-5.34796E-02-6.58439E-03
 -1      2178 3.66373E+01 8.13393E+01 2.88545E+00 4.64275E+01-1.55603E-01-1.67857E-02
 -1      2179 3.65077E+01 8.11666E+01 2.65922E+00 4.63521E+01-2.40561E-01-1.91149E-02
 -1      2180 3.63065E+01 8.09121E+01 2.30346E+00 4.62328E+01-2.82883E-01-1.50614E-02
 -1      2181 3.60540E+01 8.06165E+01 1.83572E+00 4.60475E+01-2.00005E-01-4.23627E-02
 -1      2182 3.23111E+01 8.74511E+01 1.88199E+00 4.47106E+01 2.09219E-01 3.12073E-02
 -1      2183 3.25617E+01 8.78100E+01 2.37507E+00 4.49113E+01 2.97566E-01-1.59433E-03
 -1      2184 3.27666E+01 8.81138E+01 2.75236E+00 4.50417E+01 2.56794E-01 6.28826E-03
 -1      2185 3.28999E+01 8.83208E+01 2.99280E+00 4.51248E+01 1.68025E-01 9.30594E-03
 -1      2186 3.29646E+01 8.84246E+01 3.10818E+00 4.51658E+01 5.81027E-02 4.17256E-03
 -1      2187 3.29646E+01 8.84246E+01 3.10818E+00 4.51658E+01-5.81027E-02-4.17256E-03
 -1      2188 3.28999E+01 8.83208E+01 2.99280E+00 4.51248E+01-1.68025E-01-9.30594E-03
 -1      2189 3.27666E+01 8.81138E+01 2.75236E+00 4.50417E+01-2.56794E-01-6.28826E-03
 -1      2190 3.25617E+01 8.78100E+01 2.37507E+00 4.49113E+01-2.97566E-01 1.59433E-03
 -1      2191 3.23111E+01 8.74511E+01 1.88199E+00 4.47106E+01-2.09219E-01-3.12073E-02
 -1      2192 2.85794E+01 9.39782E+01 1.91645E+00 4.26892E+01 2.21463E-01 2.06447E-02
 -1      2193 2.88272E+01 9.44238E+01 2.43042E+00 4.29044E+01 3.19647E-01-1.60307E-02
 -1      2194 2.90371E+01 9.47993E+01 2.82356E+00 4.30482E+01 2.82626E-01-3.52216E-03
 -1      2195 2.91760E+01 9.50583E+01 3.07317E+00 4.31418E+01 1.88273E-01 4.31181E-03
 -1      2196 2.92440E+01 9.51895E+01 3.19252E+00 4.31886E+01 6.57140E-02 2.71242E-03
 -1      2197 2.92440E+01 9.51895E+01 3.19252E+00 4.31886E+01-6.57140E-02-2.71242E-03
 -1      2198 2.91760E+01 9.50583E+01 3.07317E+00 4.31418E+01-1.88273E-01-4.31181E-03
 -1      2199 2.90371E+01 9.47993E+01 2.82356E+00 4.30482E+01-2.82626E-01 3.52216E-03
 -1      2200 2.88272E+01 9.44238E+01 2.43042E+00 4.29044E+01-3.19647E-01 1.60307E-02
 -1      2201 2.85794E+01 9.39782E+01 1.91645E+00 4.26892E+01-2.21463E-01-2.06447E-02
 -1      2202 2.49180E+01 9.99775E+01 1.93162E+00 3.99741E+01 2.44761E-01 1.51901E-02
 -1      2203 2.51666E+01 1.00554E+02 2.45945E+00 4.02064E+01 3.62244E-01-2.20413E-02
 -1      2204 2.53856E+01 1.01042E+02 2.85936E+00 4.03694E+01 3.31167E-01-4.68045E-03
 -1      2205 2.55332E+01 1.01383E+02 3.11016E+00 4.04788E+01 2.25726E-01 5.62620E-03
 -1      2206 2.56061E+01 1.01558E+02 3.22896E+00 4.05345E+01 7.96621E-02 3.54178E-03
 -1      2207 2.56061E+01 1.01558E+02 3.22896E+00 4.05345E+01-7.96621E-02-3.54178E-03
 -1      2208 2.55332E+01 1.01383E+02 3.11016E+00 4.04788E+01-2.25726E-01-5.62620E-03
 -1      2209 2.53856E+01 1.01042E+02 2.85936E+00 4.03694E+01-3.31167E-01 4.68045E-03
 -1      2210 2.51666E+01 1.00554E+02 2.45945E+00 4.02064E+01-3.62244E-01 2.20413E-02
 -1      2211 2.49180E+01 9.99775E+01 1.93162E+00 3.99741E+01-2.44761E-01-1.51901E-02
 -1      2212 2.13890E+01 1.05182E+02 1.92023E+00 3.65822E+01 2.87217E-01 2.05121E-02
 -1      2213 2.16464E+01 1.05971E+02 2.45266E+00 3.68384E+01 4.37931E-01-1.30741E-02
 -1      2214 2.18798E+01 1.06636E+02 2.84727E+00 3.70295E+01 4.14074E-01 8.17409E-03
 -1      2215 2.20384E+01 1.07105E+02 3.08924E+00 3.71617E+01 2.87818E-01 1.64953E-02
 -1      2216 2.21170E+01 1.07346E+02 3.20165E+00 3.72298E+01 1.02534E-01 7.72707E-03
 -1      2217 2.21170E+01 1.07346E+02 3.20165E+00 3.72298E+01-1.02534E-01-7.72707E-03
 -1      2218 2.20384E+01 1.07105E+02 3.08924E+00 3.71617E+01-2.87818E-01-1.64953E-02
 -1      2219 2.18798E+01 1.06636E+02 2.84727E+00 3.70295E+01-4.14074E-01-8.17409E-03
 -1      2220 2.16464E+01 1.05971E+02 2.45266E+00 3.68384E+01-4.37931E-01 1.30741E-02
 -1      2221 2.13890E+01 1.05182E+02 1.92023E+00 3.65822E+01-2.87217E-01-2.05121E-02
 -1      2222 1.80513E+01 1.09276E+02 1.88126E+00 3.25658E+01 3.46111E-01 4.29780E-02
 -1      2223 1.83297E+01 1.10410E+02 2.40981E+00 3.28552E+01 5.41808E-01 1.66170E-02
 -1      2224 1.85782E+01 1.11342E+02 2.79078E+00 3.30825E+01 5.20672E-01 3.75596E-02
 -1      2225 1.87430E+01 1.11984E+02 3.01620E+00 3.32418E+01 3.64147E-01 3.73833E-02
 -1      2226 1.88228E+01 1.12309E+02 3.11961E+00 3.33237E+01 1.29622E-01 1.52302E-02
 -1      2227 1.88228E+01 1.12309E+02 3.11961E+00 3.33237E+01-1.29622E-01-1.52302E-02
 -1      2228 1.87430E+01 1.11984E+02 3.01620E+00 3.32418E+01-3.64147E-01-3.73833E-02
 -1      2229 1.85782E+01 1.11342E+02 2.79078E+00 3.30825E+01-5.20672E-01-3.75596E-02
 -1      2230 1.83297E+01 1.10410E+02 2.40981E+00 3.28552E+01-5.41808E-01-1.66170E-02
 -1      2231 1.80513E+01 1.09276E+02 1.88126E+00 3.25658E+01-3.46111E-01-4.29780E-02
 -1      2232 1.49565E+01 1.11927E+02 1.82709E+00 2.80277E+01 3.84068E-01 9.20928E-02
 -1      2233 1.52611E+01 1.13597E+02 2.36043E+00 2.83512E+01 6.01330E-01 6.94419E-02
 -1      2234 1.55096E+01 1.14856E+02 2.73560E+00 2.86125E+01 5.67019E-01 7.98192E-02
 -1      2235 1.56569E+01 1.15669E+02 2.96775E+00 2.87895E+01 3.82219E-01 6.23238E-02
 -1      2236 1.57181E+01 1.16049E+02 3.07212E+00 2.88765E+01 1.33374E-01 2.29105E-02
 -1      2237 1.57181E+01 1.16049E+02 3.07212E+00 2.88765E+01-1.33374E-01-2.29105E-02
 -1      2238 1.56569E+01 1.15669E+02 2.96775E+00 2.87895E+01-3.82219E-01-6.23238E-02
 -1      2239 1.55096E+01 1.14856E+02 2.73560E+00 2.86125E+01-5.67019E-01-7.98192E-02
 -1      2240 1.52611E+01 1.13597E+02 2.36043E+00 2.83512E+01-6.01330E-01-6.94419E-02
 -1      2241 1.49565E+01 1.11927E+02 1.82709E+00 2.80277E+01-3.84068E-01-9.20928E-02
 -1      2242 1.21626E+01 1.12948E+02 1.84413E+00 2.31249E+01 2.55366E-01 1.77049E-01
 -1      2243 1.24932E+01 1.15299E+02 2.39933E+00 2.34703E+01 3.88366E-01 1.47055E-01
 -1      2244 1.26816E+01 1.16826E+02 2.87540E+00 2.37255E+01 2.72112E-01 1.22215E-01
 -1      2245 1.27353E+01 1.17576E+02 3.19212E+00 2.38766E+01 1.30263E-01 7.28725E-02
 -1      2246 1.27581E+01 1.17892E+02 3.39564E+00 2.39469E+01 3.26640E-02 2.37802E-02
 -1      2247 1.27581E+01 1.17892E+02 3.39564E+00 2.39469E+01-3.26640E-02-2.37802E-02
 -1      2248 1.27353E+01 1.17576E+02 3.19212E+00 2.38766E+01-1.30263E-01-7.28725E-02
 -1      2249 1.26816E+01 1.16826E+02 2.87540E+00 2.37255E+01-2.72112E-01-1.22215E-01
 -1      2250 1.24932E+01 1.15299E+02 2.39933E+00 2.34703E+01-3.88366E-01-1.47055E-01
 -1      2251 1.21626E+01 1.12948E+02 1.84413E+00 2.31249E+01-2.55366E-01-1.77049E-01
 -1      2252 9.72131E+00 1.12490E+02 1.98696E+00 1.80163E+01-3.70376E-01 3.33707E-01
 -1      2253 9.96942E+00 1.15597E+02 2.84579E+00 1.82510E+01-7.81529E-01 2.47381E-01
 -1      2254 9.83149E+00 1.16441E+02 3.49872E+00 1.83732E+01-9.71231E-01 1.22392E-01
 -1      2255 9.81776E+00 1.16765E+02 4.39079E+00 1.84374E+01-8.04719E-01 5.40929E-02
 -1      2256 9.82321E+00 1.16871E+02 4.91869E+00 1.84622E+01-3.03300E-01 1.46844E-02
 -1      2257 9.82321E+00 1.16871E+02 4.91869E+00 1.84622E+01 3.03300E-01-1.46844E-02
 -1      2258 9.81776E+00 1.16765E+02 4.39079E+00 1.84374E+01 8.04719E-01-5.40929E-02
 -1      2259 9.83149E+00 1.16441E+02 3.49872E+00 1.83732E+01 9.71231E-01-1.22392E-01
 -1      2260 9.96942E+00 1.15597E+02 2.84579E+00 1.82510E+01 7.81529E-01-2.47381E-01
 -1      2261 9.72131E+00 1.12490E+02 1.98696E+00 1.80163E+01 3.70376E-01-3.33707E-01
 -1      2262 9.29313E+00 1.14533E+02 4.25631E+00 1.27879E+01-2.86192E+00 5.76086E-01
 -1      2263 8.07988E+00 1.13952E+02 4.20807E+00 1.25464E+01-4.09543E+00 2.13212E-01
 -1      2264 8.15988E+00 1.13843E+02 7.02830E+00 1.24253E+01-4.00412E+00 8.19938E-02
 -1      2265 8.28500E+00 1.13734E+02 9.01583E+00 1.23350E+01-2.67473E+00 1.55944E-02
 -1      2266 8.34765E+00 1.13668E+02 9.97706E+00 1.22878E+01-9.29059E-01-6.07234E-04
 -1      2267 8.34765E+00 1.13668E+02 9.97706E+00 1.22878E+01 9.29059E-01 6.07234E-04
 -1      2268 8.28500E+00 1.13734E+02 9.01583E+00 1.23350E+01 2.67473E+00-1.55944E-02
 -1      2269 8.15988E+00 1.13843E+02 7.02830E+00 1.24253E+01 4.00412E+00-8.19938E-02
 -1      2270 8.07988E+00 1.13952E+02 4.20807E+00 1.25464E+01 4.09543E+00-2.13212E-01
 -1      2271 9.29313E+00 1.14533E+02 4.25631E+00 1.27879E+01 2.86192E+00-5.76086E-01
 -1      2272 3.90449E+00 1.10631E+02 2.27224E+00 2.82853E-01-9.12037E+00-1.91274E-02
 -1      2273 6.00941E+00 1.10595E+02 1.25454E+01-3.67835E-01-1.08175E+01 6.11560E-02
 -1      2274 6.85279E+00 1.10614E+02 1.71146E+01-8.14234E-01-8.02451E+00-4.66046E-02
 -1      2275 7.17188E+00 1.10605E+02 1.92256E+01-1.08620E+00-4.85331E+00-5.94353E-02
 -1      2276 7.29842E+00 1.10623E+02 2.01170E+01-1.21603E+00-1.61700E+00-2.44512E-02
 -1      2277 7.29842E+00 1.10623E+02 2.01170E+01-1.21603E+00 1.61700E+00 2.44512E-02
 -1      2278 7.17188E+00 1.10605E+02 1.92256E+01-1.08620E+00 4.85331E+00 5.94353E-02
 -1      2279 6.85279E+00 1.10614E+02 1.71146E+01-8.14234E-01 8.02451E+00 4.66046E-02
 -1      2280 6.00941E+00 1.10595E+02 1.25454E+01-3.67835E-01 1.08175E+01-6.11560E-02
 -1      2281 3.90449E+00 1.10631E+02 2.27224E+00 2.82853E-01 9.12037E+00 1.91274E-02
 -1      2282 7.11024E+00 9.71653E+01-4.53321E+00 6.30900E+00 5.72062E+00 4.68607E-01
 -1      2283 6.66457E+00 9.13994E+01 2.92462E-01 1.14689E+01 1.55413E-01 2.79998E-01
 -1      2284 7.21314E+00 9.04287E+01-1.01560E+00 1.59898E+01-1.85349E-01 3.79813E-01
 -1      2285 9.49489E+00 9.13810E+01-4.75463E-01 1.95587E+01-3.77840E-01 4.19693E-01
 -1      2286 1.17600E+01 9.11027E+01-3.31367E-01 2.29855E+01-3.45130E-01 4.35793E-01
 -1      2287 1.41903E+01 8.95706E+01-1.63378E-01 2.62554E+01-3.17058E-01 4.28747E-01
 -1      2288 1.67468E+01 8.68062E+01-6.25668E-02 2.92645E+01-2.96147E-01 4.10319E-01
 -1      2289 1.94433E+01 8.30706E+01 3.25264E-03 3.19105E+01-2.90880E-01 3.84095E-01
 -1      2290 2.22630E+01 7.86155E+01 4.40274E-02 3.41235E+01-2.95122E-01 3.53131E-01
 -1      2291 2.51778E+01 7.36570E+01 7.14770E-02 3.58632E+01-3.03329E-01 3.19565E-01
 -1      2292 2.81530E+01 6.83671E+01 9.23801E-02 3.71109E+01-3.11265E-01 2.85294E-01
 -1      2293 3.11552E+01 6.28841E+01 1.10827E-01 3.78645E+01-3.16625E-01 2.51915E-01
 -1      2294 3.41574E+01 5.73219E+01 1.29095E-01 3.81338E+01-3.18494E-01 2.20808E-01
 -1      2295 3.71441E+01 5.17760E+01 1.48573E-01 3.79375E+01-3.16836E-01 1.93241E-01
 -1      2296 4.01148E+01 4.63266E+01 1.70214E-01 3.72994E+01-3.12112E-01 1.70558E-01
 -1      2297 4.30860E+01 4.10401E+01 1.94639E-01 3.62433E+01-3.05086E-01 1.54464E-01
 -1      2298 4.60905E+01 3.59692E+01 2.21856E-01 3.47863E+01-2.96809E-01 1.47460E-01
 -1      2299 4.91718E+01 3.11539E+01 2.50458E-01 3.29304E+01-2.88831E-01 1.53506E-01
 -1      2300 5.23693E+01 2.66234E+01 2.75959E-01 3.06510E+01-2.83870E-01 1.78960E-01
 -1      2301 5.56865E+01 2.23995E+01 2.87886E-01 2.78857E+01-2.87328E-01 2.33575E-01
 -1      2302 5.90318E+01 1.85040E+01 2.64236E-01 2.45236E+01-3.10830E-01 3.30710E-01
 -1      2303 6.21142E+01 1.49713E+01 1.64646E-01 2.04075E+01-3.78122E-01 4.84455E-01
 -1      2304 6.42631E+01 1.18561E+01-9.26368E-02 1.53614E+01-5.41573E-01 6.97162E-01
 -1      2305 6.41128E+01 9.25054E+00-6.30741E-01 9.31499E+00-8.87699E-01 9.27640E-01
 -1      2306 5.89384E+01 7.11035E+00-1.83370E+00 2.52135E+00-1.65758E+00 1.00737E+00
 -1      2307 4.29441E+01 4.92418E+00-4.02024E+00-3.04042E+00-2.95462E+00 4.73264E-01
 -1      2308 6.78903E+00-7.83796E-02-9.44931E+00-3.18328E+00-6.58405E+00-1.55412E+00
 -1      2309-7.72824E+01-2.71563E+01-1.41805E+01 3.29443E+01-8.45899E+00-5.22954E+00
 -1      2310-4.93134E+01-5.91908E+01 2.34575E+01 6.61311E+01-2.98418E+01 7.40444E+00
 -1      2311 1.48311E+01 8.39470E+01-4.19917E+00 8.15947E+00 4.76907E+00 4.99903E-01
 -1      2312 9.76570E+00 7.71379E+01-5.65051E-01 1.04785E+01 1.01031E-02 2.78141E-01
 -1      2313 1.03476E+01 7.83292E+01-1.33240E+00 1.33482E+01-2.75031E-01 3.10086E-01
 -1      2314 1.24313E+01 7.93630E+01-6.27833E-01 1.58733E+01-3.97880E-01 2.80675E-01
 -1      2315 1.42769E+01 7.91059E+01-4.93035E-01 1.80787E+01-3.17073E-01 2.84632E-01
 -1      2316 1.60423E+01 7.79005E+01-3.62832E-01 2.01688E+01-2.57834E-01 2.75639E-01
 -1      2317 1.77481E+01 7.58289E+01-3.00026E-01 2.21525E+01-2.19576E-01 2.62778E-01
 -1      2318 1.94780E+01 7.30687E+01-2.61181E-01 2.39876E+01-2.04356E-01 2.44772E-01
 -1      2319 2.12712E+01 6.97681E+01-2.37799E-01 2.56166E+01-2.02536E-01 2.23622E-01
 -1      2320 2.31425E+01 6.60522E+01-2.21008E-01 2.69879E+01-2.06967E-01 2.00579E-01
 -1      2321 2.50885E+01 6.20217E+01-2.06993E-01 2.80600E+01-2.12864E-01 1.76917E-01
 -1      2322 2.70971E+01 5.77600E+01-1.93998E-01 2.88007E+01-2.17795E-01 1.53668E-01
 -1      2323 2.91531E+01 5.33399E+01-1.81631E-01 2.91856E+01-2.20843E-01 1.31680E-01
 -1      2324 3.12412E+01 4.88273E+01-1.70208E-01 2.91949E+01-2.22001E-01 1.11650E-01
 -1      2325 3.33465E+01 4.42826E+01-1.60584E-01 2.88103E+01-2.21789E-01 9.42167E-02
 -1      2326 3.54526E+01 3.97628E+01-1.54299E-01 2.80104E+01-2.21086E-01 8.00924E-02
 -1      2327 3.75340E+01 3.53224E+01-1.54090E-01 2.67667E+01-2.21153E-01 7.02829E-02
 -1      2328 3.95426E+01 3.10168E+01-1.64915E-01 2.50378E+01-2.23892E-01 6.64224E-02
 -1      2329 4.13803E+01 2.69065E+01-1.95737E-01 2.27659E+01-2.32477E-01 7.12107E-02
 -1      2330 4.28523E+01 2.30650E+01-2.62553E-01 1.98786E+01-2.52764E-01 8.87307E-02
 -1      2331 4.35884E+01 1.95891E+01-3.92692E-01 1.63047E+01-2.95896E-01 1.23901E-01
 -1      2332 4.29210E+01 1.66090E+01-6.31744E-01 1.20233E+01-3.83587E-01 1.79285E-01
 -1      2333 3.97113E+01 1.42956E+01-1.04468E+00 7.18951E+00-5.53333E-01 2.45488E-01
 -1      2334 3.21490E+01 1.28126E+01-1.72677E+00 2.40579E+00-8.77000E-01 2.81857E-01
 -1      2335 1.76521E+01 1.21752E+01-2.67451E+00-6.13429E-01-1.42152E+00 1.77840E-01
 -1      2336-6.00283E+00 1.15449E+01-3.72173E+00 1.92843E+00-2.41242E+00-2.06027E-01
 -1      2337-3.82168E+01 6.51673E+00-2.65003E+00 1.89785E+01-3.36924E+00-9.88708E-01
 -1      2338-4.36707E+01-1.36801E+01 6.90517E+00 5.41384E+01-5.14659E+00-1.06593E+00
 -1      2339-3.67310E+01-1.64437E+02 3.67100E+00 7.87978E+01-5.02254E+00-8.19217E+00
 -1      2340 1.66373E+01 7.24741E+01-3.58355E+00 9.33571E+00 3.81302E+00 6.41985E-01
 -1      2341 1.29500E+01 6.61444E+01-4.28183E-01 9.27824E+00-7.46702E-03 3.60617E-01
 -1      2342 1.25633E+01 6.74993E+01-1.26061E+00 1.06788E+01-2.91416E-01 3.50928E-01
 -1      2343 1.41304E+01 6.90368E+01-5.46825E-01 1.22874E+01-3.77657E-01 2.90192E-01
 -1      2344 1.55701E+01 6.90772E+01-3.61333E-01 1.37750E+01-2.90693E-01 2.72138E-01
 -1      2345 1.68761E+01 6.82126E+01-2.23830E-01 1.51606E+01-2.27668E-01 2.56528E-01
 -1      2346 1.80264E+01 6.66436E+01-1.68922E-01 1.64816E+01-1.89001E-01 2.42943E-01
 -1      2347 1.91080E+01 6.45661E+01-1.44321E-01 1.77391E+01-1.74647E-01 2.27365E-01
 -1      2348 2.01827E+01 6.20932E+01-1.35506E-01 1.89063E+01-1.74076E-01 2.09781E-01
 -1      2349 2.12892E+01 5.92996E+01-1.32194E-01 1.99435E+01-1.79908E-01 1.90610E-01
 -1      2350 2.24443E+01 5.62379E+01-1.30622E-01 2.08074E+01-1.87509E-01 1.70630E-01
 -1      2351 2.36497E+01 5.29528E+01-1.29563E-01 2.14554E+01-1.94669E-01 1.50551E-01
 -1      2352 2.48960E+01 4.94876E+01-1.29152E-01 2.18472E+01-2.00654E-01 1.30938E-01
 -1      2353 2.61639E+01 4.58882E+01-1.30135E-01 2.19438E+01-2.05579E-01 1.12184E-01
 -1      2354 2.74231E+01 4.22041E+01-1.33677E-01 2.17074E+01-2.10053E-01 9.45232E-02
 -1      2355 2.86270E+01 3.84904E+01-1.41446E-01 2.10997E+01-2.15039E-01 7.80599E-02
 -1      2356 2.97034E+01 3.48097E+01-1.55929E-01 2.00815E+01-2.21880E-01 6.28343E-02
 -1      2357 3.05385E+01 3.12357E+01-1.80972E-01 1.86150E+01-2.32504E-01 4.89193E-02
 -1      2358 3.09506E+01 2.78578E+01-2.22581E-01 1.66711E+01-2.49894E-01 3.65290E-02
 -1      2359 3.06510E+01 2.47855E+01-2.89769E-01 1.42482E+01-2.78998E-01 2.59695E-02
 -1      2360 2.91905E+01 2.21498E+01-3.94913E-01 1.14144E+01-3.28405E-01 1.70170E-02
 -1      2361 2.58992E+01 2.00911E+01-5.50440E-01 8.39421E+00-4.12394E-01 6.69737E-03
 -1      2362 1.98612E+01 1.87059E+01-7.57969E-01 5.73112E+00-5.54517E-01-1.51014E-02
 -1      2363 1.00338E+01 1.78862E+01-9.60305E-01 4.57758E+00-7.81162E-01-7.49514E-02
 -1      2364-4.11562E+00 1.68561E+01-9.62301E-01 7.06716E+00-1.13266E+00-2.09926E-01
 -1      2365-2.11645E+01 1.28771E+01-1.26201E-01 1.66564E+01-1.52924E+00-4.81347E-01
 -1      2366-3.25490E+01-1.32753E+00 2.55277E+00 3.57602E+01-1.99866E+00-8.58387E-01
 -1      2367-3.18085E+01-5.01311E+01 4.84512E+00 5.86403E+01-1.92819E+00-1.87294E+00
 -1      2368-2.52926E+01-1.49473E+02-2.75003E+00 5.50899E+01-6.63381E-03-1.30131E+00
 -1      2369 1.64832E+01 6.24182E+01-3.38055E+00 9.50843E+00 3.00584E+00 6.23413E-01
 -1      2370 1.44516E+01 5.69133E+01-2.15344E-01 8.28653E+00-2.38634E-03 4.08911E-01
 -1      2371 1.41446E+01 5.83333E+01-1.07490E+00 8.46873E+00-2.55981E-01 3.62911E-01
 -1      2372 1.51854E+01 5.99530E+01-4.77537E-01 9.22950E+00-3.24050E-01 2.87251E-01
 -1      2373 1.61681E+01 6.02653E+01-3.10275E-01 1.01033E+01-2.45015E-01 2.57206E-01
 -1      2374 1.70424E+01 5.97281E+01-1.79025E-01 1.09748E+01-1.90398E-01 2.35637E-01
 -1      2375 1.77472E+01 5.85910E+01-1.28791E-01 1.18265E+01-1.58694E-01 2.20905E-01
 -1      2376 1.83415E+01 5.70626E+01-1.09522E-01 1.26635E+01-1.48768E-01 2.06646E-01
 -1      2377 1.88795E+01 5.52439E+01-1.06162E-01 1.34752E+01-1.50771E-01 1.91585E-01
 -1      2378 1.94033E+01 5.31837E+01-1.08101E-01 1.42354E+01-1.58118E-01 1.75354E-01
 -1      2379 1.99367E+01 5.09066E+01-1.11577E-01 1.49076E+01-1.66869E-01 1.58298E-01
 -1      2380 2.04875E+01 4.84324E+01-1.15450E-01 1.54497E+01-1.75265E-01 1.40853E-01
 -1      2381 2.10484E+01 4.57849E+01-1.19905E-01 1.58180E+01-1.82808E-01 1.23379E-01
 -1      2382 2.15964E+01 4.29961E+01-1.25633E-01 1.59689E+01-1.89692E-01 1.06077E-01
 -1      2383 2.20901E+01 4.01074E+01-1.33579E-01 1.58610E+01-1.96503E-01 8.89570E-02
 -1      2384 2.24638E+01 3.71711E+01-1.44895E-01 1.54576E+01-2.04097E-01 7.18160E-02
 -1      2385 2.26196E+01 3.42517E+01-1.60978E-01 1.47307E+01-2.13602E-01 5.42255E-02
 -1      2386 2.24142E+01 3.14266E+01-1.83503E-01 1.36695E+01-2.26519E-01 3.55257E-02
 -1      2387 2.16427E+01 2.87867E+01-2.14257E-01 1.22960E+01-2.44962E-01 1.48135E-02
 -1      2388 2.00192E+01 2.64299E+01-2.54402E-01 1.06940E+01-2.72091E-01-9.14171E-03
 -1      2389 1.71630E+01 2.44436E+01-3.02045E-01 9.05964E+00-3.12698E-01-3.82592E-02
 -1      2390 1.26133E+01 2.28537E+01-3.46217E-01 7.78317E+00-3.73927E-01-7.59415E-02
 -1      2391 5.92285E+00 2.15058E+01-3.51689E-01 7.56923E+00-4.64166E-01-1.28926E-01
 -1      2392-3.05042E+00 1.97947E+01-2.34599E-01 9.55856E+00-5.91513E-01-2.07061E-01
 -1      2393-1.35496E+01 1.60815E+01 1.78647E-01 1.53136E+01-7.42570E-01-3.27431E-01
 -1      2394-2.27289E+01 6.68975E+00 1.08403E+00 2.60638E+01-8.86252E-01-4.96975E-01
 -1      2395-2.64774E+01-1.61667E+01 2.09068E+00 4.03871E+01-9.00630E-01-7.58003E-01
 -1      2396-2.21817E+01-6.03726E+01 1.41906E+00 4.97195E+01-3.50733E-01-8.19471E-01
 -1      2397-1.44957E+01-1.21347E+02-2.16956E+00 3.91530E+01 8.81620E-01-9.46745E-01
 -1      2398 1.56045E+01 5.37108E+01-3.15376E+00 9.12084E+00 2.33579E+00 5.77890E-01
 -1      2399 1.48543E+01 4.90132E+01-7.65846E-02 7.26111E+00 4.98267E-03 4.03128E-01
 -1      2400 1.48719E+01 5.03975E+01-8.64313E-01 6.65149E+00-2.15884E-01 3.56355E-01
 -1      2401 1.56826E+01 5.19767E+01-3.70287E-01 6.71199E+00-2.65689E-01 2.77677E-01
 -1      2402 1.63046E+01 5.24384E+01-2.42785E-01 7.04919E+00-1.99003E-01 2.43920E-01
 -1      2403 1.68076E+01 5.21784E+01-1.33464E-01 7.49008E+00-1.56063E-01 2.20634E-01
 -1      2404 1.71406E+01 5.14198E+01-9.23208E-02 7.97269E+00-1.33413E-01 2.05647E-01
 -1      2405 1.73451E+01 5.03604E+01-7.76804E-02 8.48549E+00-1.28863E-01 1.92353E-01
 -1      2406 1.74612E+01 4.90885E+01-7.70058E-02 9.02018E+00-1.33638E-01 1.78902E-01
 -1      2407 1.75246E+01 4.76376E+01-8.10407E-02 9.55864E+00-1.42297E-01 1.64556E-01
 -1      2408 1.75585E+01 4.60159E+01-8.64829E-02 1.00718E+01-1.51763E-01 1.49393E-01
 -1      2409 1.75721E+01 4.42283E+01-9.22754E-02 1.05231E+01-1.60775E-01 1.33658E-01
 -1      2410 1.75586E+01 4.22859E+01-9.84689E-02 1.08726E+01-1.69053E-01 1.17567E-01
 -1      2411 1.74934E+01 4.02101E+01-1.05475E-01 1.10807E+01-1.76833E-01 1.01196E-01
 -1      2412 1.73306E+01 3.80343E+01-1.13790E-01 1.11123E+01-1.84620E-01 8.44380E-02
 -1      2413 1.69984E+01 3.58037E+01-1.23852E-01 1.09421E+01-1.93089E-01 6.69565E-02
 -1      2414 1.63936E+01 3.35751E+01-1.35883E-01 1.05617E+01-2.03061E-01 4.81486E-02
 -1      2415 1.53750E+01 3.14133E+01-1.49605E-01 9.99199E+00-2.15517E-01 2.71091E-02
 -1      2416 1.37593E+01 2.93846E+01-1.63618E-01 9.30158E+00-2.31656E-01 2.60472E-03
 -1      2417 1.13215E+01 2.75391E+01-1.74108E-01 8.63525E+00-2.52974E-01-2.69565E-02
 -1      2418 7.81537E+00 2.58737E+01-1.72325E-01 8.25450E+00-2.81320E-01-6.35691E-02
 -1      2419 3.03133E+00 2.42560E+01-1.39890E-01 8.58716E+00-3.18567E-01-1.09784E-01
 -1      2420-3.06502E+00 2.22782E+01-4.27059E-02 1.02649E+01-3.65665E-01-1.68503E-01
 -1      2421-1.00801E+01 1.89935E+01 1.73141E-01 1.40816E+01-4.18163E-01-2.43258E-01
 -1      2422-1.68071E+01 1.25211E+01 5.53996E-01 2.06919E+01-4.62334E-01-3.34738E-01
 -1      2423-2.11641E+01-4.17134E-01 1.01550E+00 2.97799E+01-4.58240E-01-4.41163E-01
 -1      2424-2.08988E+01-2.37823E+01 1.12776E+00 3.85049E+01-3.11899E-01-5.14117E-01
 -1      2425-1.57229E+01-5.88821E+01 3.54434E-01 4.07632E+01 1.39953E-01-5.32515E-01
 -1      2426-9.42377E+00-9.93974E+01-1.67032E+00 2.88525E+01 8.58988E-01-4.75245E-01
 -1      2427 1.43975E+01 4.60708E+01-2.92519E+00 8.40810E+00 1.79314E+00 5.24064E-01
 -1      2428 1.45893E+01 4.21308E+01 2.02393E-02 6.20993E+00 1.44850E-02 3.78664E-01
 -1      2429 1.49382E+01 4.34224E+01-6.90609E-01 5.08793E+00-1.78245E-01 3.33763E-01
 -1      2430 1.56662E+01 4.48858E+01-2.73932E-01 4.62913E+00-2.12763E-01 2.61252E-01
 -1      2431 1.60627E+01 4.54263E+01-1.81861E-01 4.52081E+00-1.58167E-01 2.28648E-01
 -1      2432 1.62833E+01 4.53854E+01-9.73597E-02 4.59518E+00-1.26701E-01 2.06376E-01
 -1      2433 1.63187E+01 4.49552E+01-6.75098E-02 4.77062E+00-1.12514E-01 1.92215E-01
 -1      2434 1.62090E+01 4.43036E+01-5.76343E-02 5.02147E+00-1.12687E-01 1.79929E-01
 -1      2435 1.59857E+01 4.35015E+01-5.85783E-02 5.33586E+00-1.19643E-01 1.67688E-01
 -1      2436 1.56779E+01 4.25698E+01-6.30899E-02 5.69894E+00-1.29090E-01 1.54675E-01
 -1      2437 1.53059E+01 4.15064E+01-6.86735E-02 6.08766E+00-1.38769E-01 1.40849E-01
 -1      2438 1.48787E+01 4.03068E+01-7.44621E-02 6.47228E+00-1.47853E-01 1.26341E-01
 -1      2439 1.43906E+01 3.89731E+01-8.03810E-02 6.81998E+00-1.56229E-01 1.11269E-01
 -1      2440 1.38183E+01 3.75180E+01-8.65507E-02 7.09936E+00-1.64129E-01 9.56355E-02
 -1      2441 1.31178E+01 3.59652E+01-9.30448E-02 7.28577E+00-1.71949E-01 7.92798E-02
 -1      2442 1.22219E+01 3.43487E+01-9.97073E-02 7.36797E+00-1.80165E-01 6.18370E-02
 -1      2443 1.10377E+01 3.27094E+01-1.05927E-01 7.35713E+00-1.89293E-01 4.27003E-02
 -1      2444 9.44684E+00 3.10882E+01-1.10263E-01 7.29921E+00-1.99847E-01 2.09915E-02
 -1      2445 7.31118E+00 2.95126E+01-1.09810E-01 7.29158E+00-2.12289E-01-4.44399E-03
 -1      2446 4.48853E+00 2.79713E+01-9.91659E-02 7.50385E+00-2.26937E-01-3.49959E-02
 -1      2447 8.69392E-01 2.63674E+01-6.89475E-02 8.19961E+00-2.43757E-01-7.21834E-02
 -1      2448-3.55149E+00 2.44393E+01-4.35092E-03 9.74699E+00-2.61925E-01-1.17381E-01
 -1      2449-8.55608E+00 2.16338E+01 1.14236E-01 1.25880E+01-2.78680E-01-1.71418E-01
 -1      2450-1.35411E+01 1.69356E+01 3.01269E-01 1.71020E+01-2.87500E-01-2.33339E-01
 -1      2451-1.74203E+01 8.71081E+00 5.32880E-01 2.32659E+01-2.74549E-01-2.98801E-01
 -1      2452-1.87881E+01-5.13183E+00 6.89505E-01 3.00457E+01-2.10449E-01-3.52780E-01
 -1      2453-1.66551E+01-2.61821E+01 5.47044E-01 3.48090E+01-5.50918E-02-3.75974E-01
 -1      2454-1.15784E+01-5.34861E+01-9.38103E-02 3.35180E+01 2.50283E-01-3.40078E-01
 -1      2455-6.39762E+00-8.16513E+01-1.22545E+00 2.22003E+01 6.34094E-01-2.94285E-01
 -1      2456 1.30702E+01 3.93066E+01-2.67602E+00 7.52523E+00 1.35817E+00 4.73536E-01
 -1      2457 1.39272E+01 3.60377E+01 8.37053E-02 5.15216E+00 2.42457E-02 3.48724E-01
 -1      2458 1.45498E+01 3.72068E+01-5.48285E-01 3.70483E+00-1.45373E-01 3.06431E-01
 -1      2459 1.52597E+01 3.85227E+01-1.95285E-01 2.87207E+00-1.68104E-01 2.42140E-01
 -1      2460 1.55249E+01 3.90973E+01-1.29801E-01 2.41286E+00-1.24723E-01 2.13186E-01
 -1      2461 1.55483E+01 3.92315E+01-6.68073E-02 2.18283E+00-1.03121E-01 1.93258E-01
 -1      2462 1.53566E+01 3.90833E+01-4.73545E-02 2.10135E+00-9.58900E-02 1.80460E-01
 -1      2463 1.49976E+01 3.87866E+01-4.19231E-02 2.13664E+00-9.96489E-02 1.69215E-01
 -1      2464 1.45008E+01 3.83919E+01-4.40858E-02 2.27370E+00-1.08030E-01 1.57945E-01
 -1      2465 1.38919E+01 3.79078E+01-4.85220E-02 2.49898E+00-1.17775E-01 1.45924E-01
 -1      2466 1.31895E+01 3.73245E+01-5.35596E-02 2.79412E+00-1.27300E-01 1.33089E-01
 -1      2467 1.24032E+01 3.66310E+01-5.85676E-02 3.13601E+00-1.36109E-01 1.19507E-01
 -1      2468 1.15296E+01 3.58221E+01-6.33972E-02 3.49977E+00-1.44192E-01 1.05236E-01
 -1      2469 1.05498E+01 3.49020E+01-6.79502E-02 3.86324E+00-1.51751E-01 9.02364E-02
 -1      2470 9.42689E+00 3.38836E+01-7.19975E-02 4.21266E+00-1.59065E-01 7.43363E-02
 -1      2471 8.10534E+00 3.27865E+01-7.50130E-02 4.54963E+00-1.66429E-01 5.71971E-02
 -1      2472 6.51202E+00 3.16316E+01-7.59636E-02 4.89983E+00-1.74103E-01 3.82894E-02
 -1      2473 4.56148E+00 3.04311E+01-7.30004E-02 5.32350E+00-1.82250E-01 1.68809E-02
 -1      2474 2.16790E+00 2.91714E+01-6.30283E-02 5.92727E+00-1.90832E-01-7.94323E-03
 -1      2475-7.31694E-01 2.77847E+01-4.11957E-02 6.87468E+00-1.99469E-01-3.71999E-02
 -1      2476-4.13693E+00 2.61039E+01-5.78684E-04 8.38897E+00-2.07190E-01-7.18226E-02
 -1      2477-7.92166E+00 2.37964E+01 6.71301E-02 1.07337E+01-2.12031E-01-1.12331E-01
 -1      2478-1.17531E+01 2.02821E+01 1.67777E-01 1.41447E+01-2.10405E-01-1.58197E-01
 -1      2479-1.50256E+01 1.46626E+01 2.94271E-01 1.86750E+01-1.96077E-01-2.06847E-01
 -1      2480-1.68882E+01 5.75715E+00 4.07531E-01 2.39224E+01-1.58748E-01-2.51633E-01
 -1      2481-1.64943E+01-7.57783E+00 4.23575E-01 2.87034E+01-8.32770E-02-2.81115E-01
 -1      2482-1.35336E+01-2.56820E+01 2.26194E-01 3.09072E+01 4.31849E-02-2.78855E-01
 -1      2483-8.84164E+00-4.69925E+01-2.32485E-01 2.79399E+01 2.38490E-01-2.36511E-01
 -1      2484-4.61285E+00-6.74837E+01-9.35394E-01 1.76691E+01 4.61070E-01-1.93131E-01
 -1      2485 1.17192E+01 3.32592E+01-2.40995E+00 6.56419E+00 1.01259E+00 4.28502E-01
 -1      2486 1.30362E+01 3.05689E+01 1.24022E-01 4.11062E+00 3.31995E-02 3.19502E-01
 -1      2487 1.38652E+01 3.15988E+01-4.33075E-01 2.45919E+00-1.17383E-01 2.79090E-01
 -1      2488 1.45794E+01 3.27585E+01-1.34270E-01 1.36265E+00-1.31536E-01 2.23144E-01
 -1      2489 1.47719E+01 3.33438E+01-8.85735E-02 6.35121E-01-9.82580E-02 1.98344E-01
 -1      2490 1.46632E+01 3.36204E+01-4.25932E-02 1.60019E-01-8.46941E-02 1.81183E-01
 -1      2491 1.43046E+01 3.37144E+01-3.13613E-02-1.32776E-01-8.27536E-02 1.69885E-01
 -1      2492 1.37516E+01 3.37260E+01-2.95001E-02-2.74168E-01-8.89558E-02 1.59640E-01
 -1      2493 1.30362E+01 3.36848E+01-3.25519E-02-2.79784E-01-9.80838E-02 1.49197E-01
 -1      2494 1.21841E+01 3.35882E+01-3.67289E-02-1.61831E-01-1.07743E-01 1.37982E-01
 -1      2495 1.12146E+01 3.34196E+01-4.10287E-02 6.52230E-02-1.16873E-01 1.25950E-01
 -1      2496 1.01394E+01 3.31624E+01-4.50330E-02 3.84251E-01-1.25205E-01 1.13141E-01
 -1      2497 8.95914E+00 3.28049E+01-4.85656E-02 7.77843E-01-1.32777E-01 9.95754E-02
 -1      2498 7.66167E+00 3.23427E+01-5.14001E-02 1.23240E+00-1.39744E-01 8.51960E-02
 -1      2499 6.22050E+00 3.17772E+01-5.31428E-02 1.74347E+00-1.46279E-01 6.98404E-02
 -1      2500 4.59583E+00 3.11125E+01-5.31095E-02 2.32207E+00-1.52529E-01 5.32222E-02
 -1      2501 2.73832E+00 3.03484E+01-5.01752E-02 3.00202E+00-1.58564E-01 3.49194E-02
 -1      2502 5.97394E-01 2.94693E+01-4.25882E-02 3.84736E+00-1.64307E-01 1.43786E-02
 -1      2503-1.86380E+00 2.84259E+01-2.77833E-02 4.95848E+00-1.69432E-01-9.04650E-03
 -1      2504-4.64392E+00 2.71086E+01-2.32601E-03 6.47307E+00-1.73220E-01-3.59971E-02
 -1      2505-7.66770E+00 2.53104E+01 3.76874E-02 8.55470E+00-1.74361E-01-6.69212E-02
 -1      2506-1.07405E+01 2.26827E+01 9.50775E-02 1.13568E+01-1.70692E-01-1.01743E-01
 -1      2507-1.35060E+01 1.86964E+01 1.67771E-01 1.49448E+01-1.58887E-01-1.39333E-01
 -1      2508-1.54389E+01 1.26468E+01 2.41995E-01 1.91620E+01-1.34098E-01-1.76655E-01
 -1      2509-1.59294E+01 3.76820E+00 2.84668E-01 2.34503E+01-9.01348E-02-2.07857E-01
 -1      2510-1.45141E+01-8.45420E+00 2.43201E-01 2.67053E+01-2.04268E-02-2.23508E-01
 -1      2511-1.12419E+01-2.37675E+01 6.18333E-02 2.73251E+01 7.61219E-02-2.12954E-01
 -1      2512-6.99517E+00-4.05996E+01-2.67569E-01 2.36291E+01 2.05611E-01-1.72833E-01
 -1      2513-3.47230E+00-5.59471E+01-7.25832E-01 1.44523E+01 3.38716E-01-1.35016E-01
 -1      2514 1.03953E+01 2.78040E+01-2.12981E+00 5.57977E+00 7.40124E-01 3.89345E-01
 -1      2515 1.20205E+01 2.56016E+01 1.47155E-01 3.10112E+00 4.04099E-02 2.93005E-01
 -1      2516 1.29978E+01 2.64840E+01-3.38617E-01 1.32552E+00-9.37943E-02 2.53897E-01
 -1      2517 1.37204E+01 2.74914E+01-8.77422E-02 4.60986E-02-1.02083E-01 2.05651E-01
 -1      2518 1.38749E+01 2.80769E+01-5.67677E-02-8.81723E-01-7.76929E-02 1.84762E-01
 -1      2519 1.36801E+01 2.84726E+01-2.39347E-02-1.54887E+00-7.04581E-02 1.70253E-01
 -1      2520 1.32014E+01 2.87753E+01-1.87036E-02-2.01144E+00-7.23396E-02 1.60371E-01
 -1      2521 1.25001E+01 2.90541E+01-1.94318E-02-2.29541E+00-8.00397E-02 1.51035E-01
 -1      2522 1.16121E+01 2.93197E+01-2.30652E-02-2.41463E+00-8.94032E-02 1.41316E-01
 -1      2523 1.05657E+01 2.95588E+01-2.69470E-02-2.37927E+00-9.87284E-02 1.30799E-01
 -1      2524 9.38298E+00 2.97490E+01-3.05438E-02-2.20019E+00-1.07334E-01 1.19470E-01
 -1      2525 8.07925E+00 2.98682E+01-3.35991E-02-1.88925E+00-1.15091E-01 1.07357E-01
 -1      2526 6.66094E+00 2.98983E+01-3.59405E-02-1.45741E+00-1.22053E-01 9.44613E-02
 -1      2527 5.12405E+00 2.98264E+01-3.72912E-02-9.11237E-01-1.28321E-01 8.07203E-02
 -1      2528 3.45419E+00 2.96425E+01-3.72059E-02-2.48332E-01-1.33980E-01 6.59946E-02
 -1      2529 1.62879E+00 2.93355E+01-3.49960E-02 5.47895E-01-1.39066E-01 5.00580E-02
 -1      2530-3.77551E-01 2.88858E+01-2.96487E-02 1.51350E+00-1.43518E-01 3.25975E-02
 -1      2531-2.58333E+00 2.82538E+01-1.97579E-02 2.70818E+00-1.47118E-01 1.32295E-02
 -1      2532-4.98487E+00 2.73634E+01-3.52802E-03 4.21623E+00-1.49400E-01-8.45226E-03
 -1      2533-7.53445E+00 2.60797E+01 2.10127E-02 6.14026E+00-1.49540E-01-3.27804E-02
 -1      2534-1.01128E+01 2.41829E+01 5.53363E-02 8.58153E+00-1.46222E-01-5.98447E-02
 -1      2535-1.25012E+01 2.13446E+01 9.88982E-02 1.15983E+01-1.37500E-01-8.92254E-02
 -1      2536-1.43678E+01 1.71234E+01 1.46444E-01 1.51346E+01-1.20708E-01-1.19588E-01
 -1      2537-1.52922E+01 1.10083E+01 1.84568E-01 1.89194E+01-9.25200E-02-1.48150E-01
 -1      2538-1.48641E+01 2.55208E+00 1.89387E-01 2.23626E+01-4.95965E-02-1.70070E-01
 -1      2539-1.28711E+01-8.37857E+00 1.30167E-01 2.45132E+01 1.02154E-02-1.78325E-01
 -1      2540-9.54157E+00-2.12771E+01-2.07236E-02 2.41743E+01 8.42251E-02-1.65368E-01
 -1      2541-5.70935E+00-3.47303E+01-2.58508E-01 2.02426E+01 1.73761E-01-1.30319E-01
 -1      2542-2.71373E+00-4.64716E+01-5.70777E-01 1.20785E+01 2.58293E-01-9.67613E-02
 -1      2543 9.12324E+00 2.28415E+01-1.83917E+00 4.60372E+00 5.27255E-01 3.55476E-01
 -1      2544 1.09450E+01 2.10423E+01 1.57406E-01 2.13320E+00 4.51840E-02 2.69659E-01
 -1      2545 1.20253E+01 2.17737E+01-2.60028E-01 2.86986E-01-7.39845E-02 2.31420E-01
 -1      2546 1.27538E+01 2.26391E+01-5.24710E-02-1.11590E+00-7.85743E-02 1.90093E-01
 -1      2547 1.28905E+01 2.32222E+01-3.25739E-02-2.18956E+00-6.18434E-02 1.72606E-01
 -1      2548 1.26412E+01 2.37207E+01-9.86870E-03-3.00319E+00-5.94510E-02 1.60441E-01
 -1      2549 1.20776E+01 2.42044E+01-8.82910E-03-3.59868E+00-6.39654E-02 1.51791E-01
 -1      2550 1.12644E+01 2.47147E+01-1.13091E-02-3.99530E+00-7.24563E-02 1.43259E-01
 -1      2551 1.02418E+01 2.52464E+01-1.52716E-02-4.20353E+00-8.17120E-02 1.34191E-01
 -1      2552 9.04229E+00 2.57768E+01-1.88715E-02-4.23080E+00-9.05642E-02 1.24310E-01
 -1      2553 7.69216E+00 2.62776E+01-2.18744E-02-4.08439E+00-9.85930E-02 1.13633E-01
 -1      2554 6.21172E+00 2.67216E+01-2.41363E-02-3.77159E+00-1.05748E-01 1.02179E-01
 -1      2555 4.61395E+00 2.70846E+01-2.55088E-02-3.29811E+00-1.12073E-01 8.99439E-02
 -1      2556 2.90394E+00 2.73453E+01-2.57206E-02-2.66524E+00-1.17621E-01 7.68684E-02
 -1      2557 1.07976E+00 2.74827E+01-2.43518E-02-1.86621E+00-1.22410E-01 6.28414E-02
 -1      2558-8.64410E-01 2.74722E+01-2.08003E-02-8.82392E-01-1.26396E-01 4.76956E-02
 -1      2559-2.93210E+00 2.72776E+01-1.42599E-02 3.19946E-01-1.29441E-01 3.12161E-02
 -1      2560-5.11485E+00 2.68409E+01-3.73680E-03 1.79087E+00-1.31255E-01 1.31634E-02
 -1      2561-7.37832E+00 2.60684E+01 1.18332E-02 3.59373E+00-1.31330E-01-6.67679E-03
 -1      2562-9.64474E+00 2.48140E+01 3.32650E-02 5.79439E+00-1.28868E-01-2.84064E-02
 -1      2563-1.17741E+01 2.28639E+01 6.04557E-02 8.43823E+00-1.22699E-01-5.18775E-02
 -1      2564-1.35509E+01 1.99296E+01 9.12343E-02 1.15102E+01-1.11241E-01-7.64928E-02
 -1      2565-1.46882E+01 1.56639E+01 1.19782E-01 1.48763E+01-9.25253E-02-1.00935E-01
 -1      2566-1.48675E+01 9.72065E+00 1.35198E-01 1.82151E+01-6.44236E-02-1.22821E-01
 -1      2567-1.38307E+01 1.87727E+00 1.21456E-01 2.09652E+01-2.53211E-02-1.38366E-01
 -1      2568-1.15244E+01-7.77904E+00 6.08410E-02 2.23356E+01 2.49757E-02-1.42342E-01
 -1      2569-8.25902E+00-1.86523E+01-6.02795E-02 2.14335E+01 8.28010E-02-1.29323E-01
 -1      2570-4.78962E+00-2.95193E+01-2.35490E-01 1.75239E+01 1.47890E-01-9.92272E-02
 -1      2571-2.19170E+00-3.86322E+01-4.55060E-01 1.02632E+01 2.04564E-01-6.91612E-02
 -1      2572 7.91392E+00 1.82910E+01-1.54106E+00 3.65372E+00 3.62933E-01 3.26157E-01
 -1      2573 9.85053E+00 1.68185E+01 1.57712E-01 1.21147E+00 4.70669E-02 2.49254E-01
 -1      2574 1.10004E+01 1.73985E+01-1.93503E-01-6.68606E-01-5.73522E-02 2.11619E-01
 -1      2575 1.17309E+01 1.81354E+01-2.57445E-02-2.15087E+00-5.99263E-02 1.76456E-01
 -1      2576 1.18620E+01 1.87179E+01-1.42250E-02-3.32710E+00-4.96592E-02 1.61830E-01
 -1      2577 1.15794E+01 1.93075E+01 6.14118E-04-4.24898E+00-5.08688E-02 1.51654E-01
 -1      2578 1.09567E+01 1.99492E+01-1.19291E-03-4.94553E+00-5.71003E-02 1.44041E-01
 -1      2579 1.00599E+01 2.06608E+01-4.80618E-03-5.42897E+00-6.58881E-02 1.36214E-01
 -1      2580 8.93370E+00 2.14235E+01-8.91896E-03-5.70560E+00-7.48284E-02 1.27742E-01
 -1      2581 7.61552E+00 2.22068E+01-1.22661E-02-5.77958E+00-8.31478E-02 1.18460E-01
 -1      2582 6.13674E+00 2.29770E+01-1.47919E-02-5.65468E+00-9.05967E-02 1.08404E-01
 -1      2583 4.52338E+00 2.37018E+01-1.64309E-02-5.33420E+00-9.71610E-02 9.75920E-02
 -1      2584 2.79549E+00 2.43510E+01-1.70725E-02-4.81972E+00-1.02866E-01 8.60155E-02
 -1      2585 9.67284E-01 2.48955E+01-1.64866E-02-4.10889E+00-1.07722E-01 7.36271E-02
 -1      2586-9.51240E-01 2.53047E+01-1.43221E-02-3.19281E+00-1.11700E-01 6.03442E-02
 -1      2587-2.95065E+00 2.55423E+01-1.01039E-02-2.05356E+00-1.14708E-01 4.60530E-02
 -1      2588-5.01592E+00 2.55588E+01-3.25260E-03-6.62795E-01-1.16564E-01 3.06209E-02
 -1      2589-7.11741E+00 2.52834E+01 6.84751E-03 1.01709E+00-1.16956E-01 1.39229E-02
 -1      2590-9.19937E+00 2.46127E+01 2.06830E-02 3.02729E+00-1.15393E-01-4.11124E-03
 -1      2591-1.11670E+01 2.33999E+01 3.82870E-02 5.39969E+00-1.11164E-01-2.34228E-02
 -1      2592-1.28753E+01 2.14486E+01 5.86967E-02 8.13388E+00-1.03301E-01-4.37180E-02
 -1      2593-1.41266E+01 1.85168E+01 7.91951E-02 1.11624E+01-9.05889E-02-6.43279E-02
 -1      2594-1.46847E+01 1.43440E+01 9.45090E-02 1.43064E+01-7.16535E-02-8.40350E-02
 -1      2595-1.43188E+01 8.71322E+00 9.64335E-02 1.72325E+01-4.52037E-02-1.00871E-01
 -1      2596-1.28824E+01 1.55377E+00 7.45221E-02 1.94328E+01-1.05867E-02-1.11910E-01
 -1      2597-1.04205E+01-6.92503E+00 1.86531E-02 2.02599E+01 3.15787E-02-1.13275E-01
 -1      2598-7.27403E+00-1.61152E+01-7.79426E-02 1.90443E+01 7.77478E-02-1.00930E-01
 -1      2599-4.11474E+00-2.49686E+01-2.10273E-01 1.52911E+01 1.27051E-01-7.50677E-02
 -1      2600-1.82248E+00-3.21045E+01-3.68641E-01 8.82844E+00 1.66977E-01-4.78969E-02
 -1      2601 6.77089E+00 1.40870E+01-1.23792E+00 2.73878E+00 2.38225E-01 3.00684E-01
 -1      2602 8.76251E+00 1.28726E+01 1.50166E-01 3.37164E-01 4.58054E-02 2.31411E-01
 -1      2603 9.95870E+00 1.33030E+01-1.36224E-01-1.55084E+00-4.33552E-02 1.94226E-01
 -1      2604 1.06882E+01 1.39259E+01-5.47579E-03-3.07915E+00-4.52098E-02 1.64554E-01
 -1      2605 1.08210E+01 1.45120E+01-2.89488E-04-4.32346E+00-4.02787E-02 1.52288E-01
 -1      2606 1.05194E+01 1.51845E+01 8.35875E-03-5.32187E+00-4.40842E-02 1.43774E-01
 -1      2607 9.85596E+00 1.59654E+01 4.65249E-03-6.09252E+00-5.13530E-02 1.37017E-01
 -1      2608 8.89719E+00 1.68528E+01 3.25177E-04-6.64096E+00-6.01127E-02 1.29813E-01
 -1      2609 7.69237E+00 1.78168E+01-3.82316E-03-6.96905E+00-6.86282E-02 1.21897E-01
 -1      2610 6.28399E+00 1.88202E+01-6.94470E-03-7.07737E+00-7.64054E-02 1.13189E-01
 -1      2611 4.70898E+00 1.98244E+01-9.08849E-03-6.96625E+00-8.32989E-02 1.03734E-01
 -1      2612 2.99935E+00 2.07924E+01-1.02507E-02-6.63553E+00-8.93050E-02 9.35512E-02
 -1      2613 1.18221E+00 2.16884E+01-1.03685E-02-6.08361E+00-9.44273E-02 8.26315E-02
 -1      2614-7.19521E-01 2.24762E+01-9.27245E-03-5.30592E+00-9.86450E-02 7.09410E-02
 -1      2615-2.68503E+00 2.31170E+01-6.69801E-03-4.29314E+00-1.01897E-01 5.84246E-02
 -1      2616-4.69179E+00 2.35649E+01-2.30387E-03-3.03000E+00-1.04065E-01 4.50145E-02
 -1      2617-6.70979E+00 2.37608E+01 4.28368E-03-1.49536E+00-1.04950E-01 3.06444E-02
 -1      2618-8.69378E+00 2.36256E+01 1.33783E-02 3.35000E-01-1.04249E-01 1.52762E-02
 -1      2619-1.05743E+01 2.30524E+01 2.50621E-02 2.48121E+00-1.01518E-01-1.05755E-03
 -1      2620-1.22491E+01 2.19009E+01 3.89051E-02 4.94595E+00-9.61556E-02-1.81926E-02
 -1      2621-1.35783E+01 1.99969E+01 5.35686E-02 7.69349E+00-8.73977E-02-3.57539E-02
 -1      2622-1.43882E+01 1.71445E+01 6.63537E-02 1.06214E+01-7.43497E-02-5.30616E-02
 -1      2623-1.44915E+01 1.31569E+01 7.28708E-02 1.35288E+01-5.60926E-02-6.90260E-02
 -1      2624-1.37288E+01 7.91378E+00 6.71454E-02 1.60919E+01-3.18938E-02-8.20350E-02
 -1      2625-1.20334E+01 1.44451E+00 4.24500E-02 1.78633E+01-1.62482E-03-8.98341E-02
 -1      2626-9.51041E+00-5.97813E+00-7.01974E-03 1.83162E+01 3.38160E-02-8.95242E-02
 -1      2627-6.50350E+00-1.37689E+01-8.45507E-02 1.69455E+01 7.13187E-02-7.80489E-02
 -1      2628-3.60748E+00-2.10277E+01-1.87420E-01 1.34165E+01 1.09826E-01-5.56401E-02
 -1      2629-1.55470E+00-2.66370E+01-3.03930E-01 7.65968E+00 1.39068E-01-3.09575E-02
 -1      2630 5.69383E+00 1.01756E+01-9.31648E-01 1.86253E+00 1.45911E-01 2.78458E-01
 -1      2631 7.69718E+00 9.15809E+00 1.36309E-01-4.90681E-01 4.13015E-02 2.15739E-01
 -1      2632 8.92471E+00 9.44232E+00-8.60784E-02-2.36761E+00-3.15167E-02 1.78931E-01
 -1      2633 9.65147E+00 9.96599E+00 9.89545E-03-3.91612E+00-3.36519E-02 1.54159E-01
 -1      2634 9.79064E+00 1.05612E+01 1.03273E-02-5.20074E+00-3.30210E-02 1.43816E-01
 -1      2635 9.47918E+00 1.13108E+01 1.40151E-02-6.24953E+00-3.86272E-02 1.36679E-01
 -1      2636 8.78769E+00 1.22158E+01 9.05314E-03-7.07182E+00-4.64453E-02 1.30628E-01
 -1      2637 7.78320E+00 1.32577E+01 4.28077E-03-7.66725E+00-5.49780E-02 1.23982E-01
 -1      2638 6.51941E+00 1.43978E+01 1.70606E-04-8.03323E+00-6.30250E-02 1.16593E-01
 -1      2639 5.04406E+00 1.55934E+01-2.73908E-03-8.16663E+00-7.02799E-02 1.08439E-01
 -1      2640 3.39964E+00 1.68016E+01-4.56400E-03-8.06441E+00-7.66559E-02 9.95704E-02
 -1      2641 1.62406E+00 1.79809E+01-5.35808E-03-7.72337E+00-8.21451E-02 9.00033E-02
 -1      2642-2.48881E-01 1.90904E+01-5.11325E-03-7.13953E+00-8.67315E-02 7.97334E-02
 -1      2643-2.18836E+00 2.00881E+01-3.72718E-03-6.30717E+00-9.03728E-02 6.87398E-02
 -1      2644-4.16416E+00 2.09283E+01-1.02326E-03-5.21784E+00-9.29894E-02 5.69926E-02
 -1      2645-6.14298E+00 2.15576E+01 3.21879E-03-3.86013E+00-9.44520E-02 4.44616E-02
 -1      2646-8.08332E+00 2.19103E+01 9.20562E-03-2.22085E+00-9.45648E-02 3.11320E-02
 -1      2647-9.92915E+00 2.19030E+01 1.70322E-02-2.88892E-01-9.30473E-02 1.70297E-02
 -1      2648-1.16034E+01 2.14298E+01 2.65257E-02 1.93705E+00-8.95176E-02 2.25730E-03
 -1      2649-1.30030E+01 2.03603E+01 3.70228E-02 4.43583E+00-8.34862E-02-1.29564E-02
 -1      2650-1.39986E+01 1.85446E+01 4.70990E-02 7.14577E+00-7.43689E-02-2.81985E-02
 -1      2651-1.44426E+01 1.58282E+01 5.43235E-02 9.94273E+00-6.15322E-02-4.28113E-02
 -1      2652-1.41910E+01 1.20839E+01 5.51868E-02 1.26188E+01-4.43916E-02-5.58327E-02
 -1      2653-1.31406E+01 7.26218E+00 4.53869E-02 1.48707E+01-2.25805E-02-6.59418E-02
 -1      2654-1.12814E+01 1.45640E+00 2.05886E-02 1.63100E+01 3.74959E-03-7.13888E-02
 -1      2655-8.75347E+00-5.03167E+00-2.25847E-02 1.65087E+01 3.36474E-02-6.99880E-02
 -1      2656-5.88986E+00-1.16533E+01-8.56246E-02 1.50842E+01 6.44879E-02-5.93934E-02
 -1      2657-3.21748E+00-1.76298E+01-1.68070E-01 1.18107E+01 9.51830E-02-3.97771E-02
 -1      2658-1.35582E+00-2.20345E+01-2.55085E-01 6.68189E+00 1.17205E-01-1.72777E-02
 -1      2659 4.68058E+00 6.51207E+00-6.23623E-01 1.02529E+00 8.01516E-02 2.58991E-01
 -1      2660 6.66511E+00 5.63725E+00 1.17322E-01-1.27438E+00 3.35700E-02 2.01896E-01
 -1      2661 7.91547E+00 5.77977E+00-4.14658E-02-3.12560E+00-2.14203E-02 1.65439E-01
 -1      2662 8.63921E+00 6.21871E+00 2.15269E-02-4.67354E+00-2.46179E-02 1.45051E-01
 -1      2663 8.78729E+00 6.82921E+00 1.84299E-02-5.97578E+00-2.73574E-02 1.36259E-01
 -1      2664 8.47128E+00 7.65200E+00 1.80501E-02-7.05343E+00-3.41519E-02 1.30260E-01
 -1      2665 7.76006E+00 8.66902E+00 1.22571E-02-7.90898E+00-4.21823E-02 1.24796E-01
 -1      2666 6.72155E+00 9.84786E+00 7.21122E-03-8.53694E+00-5.03790E-02 1.18657E-01
 -1      2667 5.41405E+00 1.11430E+01 3.19683E-03-8.93034E+00-5.79554E-02 1.11771E-01
 -1      2668 3.89046E+00 1.25072E+01 5.06782E-04-9.08228E+00-6.47234E-02 1.04156E-01
 -1      2669 2.19860E+00 1.38938E+01-1.02933E-03-8.98639E+00-7.06242E-02 9.58583E-02
 -1      2670 3.81906E-01 1.52574E+01-1.52656E-03-8.63677E+00-7.56401E-02 8.68928E-02
 -1      2671-1.51977E+00 1.65526E+01-1.03432E-03-8.02770E+00-7.97397E-02 7.72604E-02
 -1      2672-3.46866E+00 1.77326E+01 4.84249E-04-7.15308E+00-8.28676E-02 6.69530E-02
 -1      2673-5.42673E+00 1.87463E+01 3.12728E-03-6.00619E+00-8.49360E-02 5.59620E-02
 -1      2674-7.35218E+00 1.95349E+01 7.01563E-03-4.58009E+00-8.58157E-02 4.42877E-02
 -1      2675-9.19514E+00 2.00287E+01 1.22311E-02-2.86964E+00-8.53238E-02 3.19540E-02
 -1      2676-1.08928E+01 2.01427E+01 1.87236E-02-8.75837E-01-8.32128E-02 1.90318E-02
 -1      2677-1.23650E+01 1.97749E+01 2.61790E-02 1.38658E+00-7.91639E-02 5.66916E-03
 -1      2678-1.35122E+01 1.88070E+01 3.38511E-02 3.87770E+00-7.27909E-02-7.86939E-03
 -1      2679-1.42183E+01 1.71119E+01 4.03860E-02 6.51765E+00-6.36619E-02-2.11614E-02
 -1      2680-1.43611E+01 1.45711E+01 4.37042E-02 9.17025E+00-5.13466E-02-3.35879E-02
 -1      2681-1.38333E+01 1.11043E+01 4.10528E-02 1.16298E+01-3.55019E-02-4.43041E-02
 -1      2682-1.25755E+01 6.71238E+00 2.93271E-02 1.36183E+01-1.60001E-02-5.22201E-02
 -1      2683-1.06172E+01 1.52830E+00 5.70189E-03 1.48012E+01 6.86064E-03-5.59630E-02
 -1      2684-8.11760E+00-4.13728E+00-3.18659E-02 1.48310E+01 3.21674E-02-5.38658E-02
 -1      2685-5.39279E+00-9.77602E+00-8.39257E-02 1.34171E+01 5.77377E-02-4.41135E-02
 -1      2686-2.91126E+00-1.47076E+01-1.52060E-01 1.04105E+01 8.25097E-02-2.67637E-02
 -1      2687-1.20482E+00-1.81462E+01-2.17755E-01 5.84471E+00 9.93857E-02-6.20723E-03
 -1      2688 3.72830E+00 3.05899E+00-3.14811E-01 2.25340E-01 3.62046E-02 2.41889E-01
 -1      2689 5.67360E+00 2.27872E+00 9.41647E-02-2.01700E+00 2.27034E-02 1.89593E-01
 -1      2690 6.94338E+00 2.28495E+00-1.13787E-03-3.83037E+00-1.27032E-02 1.53490E-01
 -1      2691 7.66475E+00 2.65331E+00 3.02769E-02-5.36036E+00-1.75892E-02 1.37031E-01
 -1      2692 7.82264E+00 3.28574E+00 2.45898E-02-6.66131E+00-2.28805E-02 1.29477E-01
 -1      2693 7.50423E+00 4.17952E+00 2.07769E-02-7.75018E+00-3.04069E-02 1.24423E-01
 -1      2694 6.77792E+00 5.29913E+00 1.44305E-02-8.62432E+00-3.84284E-02 1.19453E-01
 -1      2695 5.71340E+00 6.60071E+00 9.23275E-03-9.27364E+00-4.62423E-02 1.13783E-01
 -1      2696 4.37374E+00 8.03340E+00 5.37743E-03-9.68684E+00-5.33710E-02 1.07382E-01
 -1      2697 2.81682E+00 9.54616E+00 2.94056E-03-9.85314E+00-5.96933E-02 1.00291E-01
 -1      2698 1.09535E+00 1.10892E+01 1.69255E-03-9.76288E+00-6.51612E-02 9.25484E-02
 -1      2699-7.42275E-01 1.26139E+01 1.45222E-03-9.40774E+00-6.97458E-02 8.41679E-02
 -1      2700-2.65092E+00 1.40715E+01 2.11458E-03-8.78068E+00-7.34058E-02 7.51559E-02
 -1      2701-4.58703E+00 1.54111E+01 3.65932E-03-7.87583E+00-7.60794E-02 6.55161E-02
 -1      2702-6.50623E+00 1.65775E+01 6.12079E-03-6.68865E+00-7.76783E-02 5.52576E-02
 -1      2703-8.36036E+00 1.75087E+01 9.54446E-03-5.21693E+00-7.80800E-02 4.44040E-02
 -1      2704-1.00939E+01 1.81325E+01 1.39258E-02-3.46317E+00-7.71206E-02 3.30077E-02
 -1      2705-1.16402E+01 1.83648E+01 1.91277E-02-1.43910E+00-7.45887E-02 2.11696E-02
 -1      2706-1.29195E+01 1.81089E+01 2.47738E-02 8.27262E-01-7.02255E-02 9.06521E-03
 -1      2707-1.38385E+01 1.72591E+01 3.01270E-02 3.28173E+00-6.37355E-02-3.02537E-03
 -1      2708-1.42953E+01 1.57093E+01 3.39785E-02 5.83225E+00-5.48107E-02-1.46874E-02
 -1      2709-1.41908E+01 1.33708E+01 3.46035E-02 8.33742E+00-4.31768E-02-2.53481E-02
 -1      2710-1.34486E+01 1.01992E+01 2.98613E-02 1.05993E+01-2.86632E-02-3.42663E-02
 -1      2711-1.20426E+01 6.23064E+00 1.74864E-02 1.23661E+01-1.12986E-02-4.05333E-02
 -1      2712-1.00296E+01 1.62113E+00-4.40584E-03 1.33513E+01 8.54503E-03-4.30569E-02
 -1      2713-7.57766E+00-3.32157E+00-3.71593E-02 1.32728E+01 3.00238E-02-4.05464E-02
 -1      2714-4.98365E+00-8.12890E+00-8.08347E-02 1.19103E+01 5.13313E-02-3.15918E-02
 -1      2715-2.66615E+00-1.22002E+01-1.38816E-01 9.17051E+00 7.14452E-02-1.60999E-02
 -1      2716-1.08790E+00-1.48548E+01-1.88798E-01 5.11361E+00 8.44810E-02 2.70802E-03
 -1      2717 2.83420E+00-2.15389E-01-5.80451E-03-5.40360E-01 1.02101E-02 2.26839E-01
 -1      2718 4.72821E+00-9.43864E-01 6.76557E-02-2.72188E+00 8.84497E-03 1.78589E-01
 -1      2719 6.01800E+00-1.06765E+00 3.59052E-02-4.48641E+00-5.04845E-03 1.42858E-01
 -1      2720 6.73800E+00-7.55975E-01 3.67753E-02-5.98311E+00-1.21423E-02 1.29926E-01
 -1      2721 6.90478E+00-9.43889E-02 2.91885E-02-7.26675E+00-1.92788E-02 1.23348E-01
 -1      2722 6.58328E+00 8.69740E-01 2.23823E-02-8.35257E+00-2.72106E-02 1.19084E-01
 -1      2723 5.84343E+00 2.08494E+00 1.56759E-02-9.23398E+00-3.50896E-02 1.14538E-01
 -1      2724 4.75783E+00 3.49779E+00 1.04387E-02-9.89657E+00-4.25157E-02 1.09312E-01
 -1      2725 3.39454E+00 5.05327E+00 6.82811E-03-1.03246E+01-4.92324E-02 1.03383E-01
 -1      2726 1.81604E+00 6.69745E+00 4.70399E-03-1.05031E+01-5.51514E-02 9.68012E-02
 -1      2727 7.93628E-02 8.37814E+00 3.76589E-03-1.04193E+01-6.02256E-02 8.95960E-02
 -1      2728-1.76287E+00 1.00442E+01 3.76488E-03-1.00626E+01-6.44175E-02 8.17819E-02
 -1      2729-3.66111E+00 1.16443E+01 4.54808E-03-9.42492E+00-6.76808E-02 7.33699E-02
 -1      2730-5.56711E+00 1.31246E+01 6.05076E-03-8.50107E+00-6.99532E-02 6.43737E-02
 -1      2731-7.43167E+00 1.44273E+01 8.26028E-03-7.28893E+00-7.11505E-02 5.48167E-02
 -1      2732-9.20208E+00 1.54880E+01 1.11694E-02-5.79094E+00-7.11616E-02 4.47399E-02
 -1      2733-1.08193E+01 1.62340E+01 1.47187E-02-4.01660E+00-6.98435E-02 3.42155E-02
 -1      2734-1.22156E+01 1.65835E+01 1.87267E-02-1.98686E+00-6.70208E-02 2.33633E-02
 -1      2735-1.33136E+01 1.64461E+01 2.28067E-02 2.59524E-01-6.24894E-02 1.23727E-02
 -1      2736-1.40277E+01 1.57279E+01 2.62812E-02 2.65785E+00-5.60301E-02 1.52611E-03
 -1      2737-1.42703E+01 1.43415E+01 2.81151E-02 5.10850E+00-4.74349E-02-8.77988E-03
 -1      2738-1.39629E+01 1.22221E+01 2.69091E-02 7.46938E+00-3.65478E-02-1.80210E-02
 -1      2739-1.30543E+01 9.35262E+00 2.10068E-02 9.55321E+00-2.33215E-02-2.55451E-02
 -1      2740-1.15441E+01 5.79283E+00 8.72979E-03 1.11340E+01-7.88770E-03-3.05860E-02
 -1      2741-9.50692E+00 1.71054E+00-1.12265E-02 1.19668E+01 9.34730E-03-3.22595E-02
 -1      2742-7.11381E+00-2.59622E+00-3.98758E-02 1.18231E+01 2.76124E-02-2.95480E-02
 -1      2743-4.64161E+00-6.69633E+00-7.70463E-02 1.05373E+01 4.54117E-02-2.13532E-02
 -1      2744-2.46641E+00-1.00541E+01-1.27717E-01 8.05801E+00 6.17556E-02-7.40505E-03
 -1      2745-9.95771E-01-1.20685E+01-1.65986E-01 4.46435E+00 7.18123E-02 9.81175E-03
 -1      2746 1.99605E+00-3.33845E+00 3.03131E-01-1.27562E+00-9.85088E-04 2.13597E-01
 -1      2747 3.83397E+00-4.05306E+00 3.85410E-02-3.39236E+00-7.83222E-03 1.68681E-01
 -1      2748 5.14732E+00-4.29971E+00 7.04862E-02-5.09698E+00 1.82162E-03 1.33341E-01
 -1      2749 5.86647E+00-4.03069E+00 4.14643E-02-6.54613E+00-7.93155E-03 1.23582E-01
 -1      2750 6.03904E+00-3.33190E+00 3.24439E-02-7.79872E+00-1.63143E-02 1.17765E-01
 -1      2751 5.71102E+00-2.29646E+00 2.29492E-02-8.87026E+00-2.44328E-02 1.14169E-01
 -1      2752 4.95651E+00-9.90586E-01 1.60507E-02-9.75084E+00-3.21006E-02 1.10000E-01
 -1      2753 3.85230E+00 5.24289E-01 1.09126E-02-1.04216E+01-3.91608E-02 1.05201E-01
 -1      2754 2.47147E+00 2.19005E+00 7.66497E-03-1.08617E+01-4.55074E-02 9.97319E-02
 -1      2755 8.80599E-01 3.95077E+00 5.93505E-03-1.10522E+01-5.10628E-02 9.36463E-02
 -1      2756-8.59668E-01 5.75267E+00 5.34199E-03-1.09769E+01-5.57781E-02 8.69617E-02
 -1      2757-2.69330E+00 7.54303E+00 5.57542E-03-1.06230E+01-5.96113E-02 7.96940E-02
 -1      2758-4.56726E+00 9.26861E+00 6.44825E-03-9.98202E+00-6.25160E-02 7.18590E-02
 -1      2759-6.42969E+00 1.08739E+01 7.86694E-03-9.04939E+00-6.44332E-02 6.34792E-02
 -1      2760-8.22790E+00 1.22992E+01 9.78850E-03-7.82561E+00-6.52862E-02 5.45886E-02
 -1      2761-9.90621E+00 1.34793E+01 1.21722E-02-6.31750E+00-6.49771E-02 4.52409E-02
 -1      2762-1.14039E+01 1.43421E+01 1.49279E-02-4.54079E+00-6.33848E-02 3.55209E-02
 -1      2763-1.26538E+01 1.48087E+01 1.78586E-02-2.52419E+00-6.03671E-02 2.55590E-02
 -1      2764-1.35827E+01 1.47954E+01 2.05984E-02-3.14886E-01-5.57676E-02 1.55490E-02
 -1      2765-1.41133E+01 1.42195E+01 2.25542E-02 2.01489E+00-4.94314E-02 5.76627E-03
 -1      2766-1.41716E+01 1.30091E+01 2.28678E-02 4.36137E+00-4.12295E-02-3.41644E-03
 -1      2767-1.36973E+01 1.11189E+01 2.04266E-02 6.58477E+00-3.10956E-02-1.15224E-02
 -1      2768-1.26599E+01 8.55150E+00 1.39580E-02 8.50982E+00-1.90709E-02-1.79760E-02
 -1      2769-1.10779E+01 5.38191E+00 2.20074E-03 9.93458E+00-5.35613E-03-2.21224E-02
 -1      2770-9.03815E+00 1.78197E+00-1.57912E-02 1.06501E+01 9.62893E-03-2.32323E-02
 -1      2771-6.71006E+00-1.96405E+00-4.09133E-02 1.04717E+01 2.51785E-02-2.04839E-02
 -1      2772-4.35105E+00-5.45973E+00-7.29165E-02 9.27772E+00 4.00489E-02-1.30216E-02
 -1      2773-2.30074E+00-8.22311E+00-1.18213E-01 7.04891E+00 5.32691E-02-3.78575E-04
 -1      2774-9.22030E-01-9.71423E+00-1.47739E-01 3.87956E+00 6.09370E-02 1.53724E-02
 -1      2775 1.21252E+00-6.33428E+00 6.12059E-01-1.98476E+00 3.78110E-05 2.01983E-01
 -1      2776 2.99626E+00-7.06861E+00 7.54818E-03-4.03135E+00-2.71408E-02 1.59698E-01
 -1      2777 4.33872E+00-7.42985E+00 1.03295E-01-5.66387E+00 8.15278E-03 1.24763E-01
 -1      2778 5.05602E+00-7.18881E+00 4.46102E-02-7.05156E+00-4.67306E-03 1.17864E-01
 -1      2779 5.22847E+00-6.44347E+00 3.44226E-02-8.26135E+00-1.38060E-02 1.12632E-01
 -1      2780 4.88772E+00-5.33409E+00 2.24770E-02-9.31040E+00-2.19814E-02 1.09615E-01
 -1      2781 4.11516E+00-3.94070E+00 1.55885E-02-1.01853E+01-2.94173E-02 1.05792E-01
 -1      2782 2.99286E+00-2.33141E+00 1.07421E-02-1.08618E+01-3.61500E-02 1.01413E-01
 -1      2783 1.59875E+00-5.66314E-01 8.01098E-03-1.13137E+01-4.21689E-02 9.63958E-02
 -1      2784 2.79646E-03 1.29769E+00 6.76934E-03-1.15174E+01-4.73960E-02 9.07926E-02
 -1      2785-1.73163E+00 3.20620E+00 6.55890E-03-1.14534E+01-5.17819E-02 8.46111E-02
 -1      2786-3.54593E+00 5.10578E+00 7.02517E-03-1.11072E+01-5.52853E-02 7.78690E-02
 -1      2787-5.38450E+00 6.94226E+00 7.96601E-03-1.04697E+01-5.78639E-02 7.05869E-02
 -1      2788-7.19289E+00 8.65910E+00 9.27569E-03-9.53745E+00-5.94650E-02 6.27942E-02
 -1      2789-8.91609E+00 1.01959E+01 1.08958E-02-8.31341E+00-6.00210E-02 5.45331E-02
 -1      2790-1.04967E+01 1.14874E+01 1.27673E-02-6.80842E+00-5.94478E-02 4.58658E-02
 -1      2791-1.18739E+01 1.24627E+01 1.47860E-02-5.04367E+00-5.76452E-02 3.68843E-02
 -1      2792-1.29823E+01 1.30467E+01 1.67577E-02-3.05425E+00-5.45008E-02 2.77229E-02
 -1      2793-1.37537E+01 1.31623E+01 1.83535E-02-8.93840E-01-4.98995E-02 1.85729E-02
 -1      2794-1.41196E+01 1.27366E+01 1.90729E-02 1.36023E+00-4.37388E-02 9.69716E-03
 -1      2795-1.40187E+01 1.17109E+01 1.82253E-02 3.60247E+00-3.59525E-02 1.44099E-03
 -1      2796-1.34064E+01 1.00550E+01 1.49464E-02 5.69726E+00-2.65421E-02-5.76395E-03
 -1      2797-1.22691E+01 7.78532E+00 8.27310E-03 7.48170E+00-1.56131E-02-1.14077E-02
 -1      2798-1.06399E+01 4.98595E+00-2.74736E-03 8.77575E+00-3.41331E-03-1.49229E-02
 -1      2799-8.61269E+00 1.82723E+00-1.88319E-02 9.40135E+00 9.63345E-03-1.56954E-02
 -1      2800-6.35307E+00-1.42275E+00-4.08706E-02 9.21009E+00 2.28751E-02-1.30422E-02
 -1      2801-4.09975E+00-4.39977E+00-6.86369E-02 8.11578E+00 3.52704E-02-6.29665E-03
 -1      2802-2.16065E+00-6.66712E+00-1.09849E-01 6.12546E+00 4.58491E-02 5.21803E-03
 -1      2803-8.62030E-01-7.73281E+00-1.32916E-01 3.34663E+00 5.15462E-02 1.95998E-02
 -1      2804 4.83755E-01-9.22463E+00 9.21407E-01-2.67235E+00 1.11620E-02 1.91876E-01
 -1      2805 2.22178E+00-1.00083E+01-2.45573E-02-4.64100E+00-4.88916E-02 1.51484E-01
 -1      2806 3.59959E+00-1.04743E+01 1.34901E-01-6.18700E+00 1.41670E-02 1.16962E-01
 -1      2807 4.31108E+00-1.02450E+01 4.62875E-02-7.49920E+00-2.13187E-03 1.12650E-01
 -1      2808 4.47395E+00-9.44195E+00 3.50407E-02-8.65660E+00-1.16159E-02 1.07866E-01
 -1      2809 4.11151E+00-8.25432E+00 2.09037E-02-9.67825E+00-1.97923E-02 1.05365E-01
 -1      2810 3.31564E+00-6.77529E+00 1.43245E-02-1.05458E+01-2.70112E-02 1.01876E-01
 -1      2811 2.17445E+00-5.07822E+00 1.00353E-02-1.12285E+01-3.34640E-02 9.79165E-02
 -1      2812 7.70103E-01-3.22384E+00 8.00116E-03-1.16938E+01-3.91947E-02 9.33443E-02
 -1      2813-8.25061E-01-1.26874E+00 7.33995E-03-1.19132E+01-4.41224E-02 8.82105E-02
 -1      2814-2.54585E+00 7.33115E-01 7.54042E-03-1.18640E+01-4.82026E-02 8.25143E-02
 -1      2815-4.33202E+00 2.72847E+00 8.23316E-03-1.15303E+01-5.14000E-02 7.62767E-02
 -1      2816-6.12623E+00 4.66302E+00 9.22347E-03-1.09027E+01-5.36798E-02 6.95227E-02
 -1      2817-7.87239E+00 6.47996E+00 1.04093E-02-9.97883E+00-5.49973E-02 6.22874E-02
 -1      2818-9.51413E+00 8.11883E+00 1.17287E-02-8.76409E+00-5.52946E-02 5.46189E-02
 -1      2819-1.09935E+01 9.51499E+00 1.31153E-02-7.27295E+00-5.45012E-02 4.65843E-02
 -1      2820-1.22504E+01 1.05997E+01 1.44615E-02-5.53123E+00-5.25357E-02 3.82787E-02
 -1      2821-1.32225E+01 1.13014E+01 1.55854E-02-3.57919E+00-4.93120E-02 2.98355E-02
 -1      2822-1.38470E+01 1.15495E+01 1.62015E-02-1.47536E+00-4.47496E-02 2.14387E-02
 -1      2823-1.40643E+01 1.12797E+01 1.59000E-02 6.99676E-01-3.87888E-02 1.33343E-02
 -1      2824-1.38246E+01 1.04443E+01 1.41417E-02 2.84050E+00-3.14126E-02 5.83896E-03
 -1      2825-1.30972E+01 9.02415E+00 1.02761E-02 4.81671E+00-2.26745E-02-6.58183E-04
 -1      2826-1.18824E+01 7.04556E+00 3.59651E-03 6.47747E+00-1.27272E-02-5.70360E-03
 -1      2827-1.02240E+01 4.59656E+00-6.60587E-03 7.66234E+00-1.85163E-03-8.79954E-03
 -1      2828-8.22035E+00 1.84218E+00-2.08854E-02 8.21963E+00 9.52745E-03-9.41709E-03
 -1      2829-6.03121E+00-9.67158E-01-4.01731E-02 8.03111E+00 2.07980E-02-6.96969E-03
 -1      2830-3.87758E+00-3.49743E+00-6.43255E-02 7.03976E+00 3.10798E-02-9.37798E-04
 -1      2831-2.03938E+00-5.35121E+00-1.02253E-01 5.27468E+00 3.93849E-02 9.57232E-03
 -1      2832-8.12188E-01-6.07529E+00-1.20660E-01 2.85639E+00 4.34153E-02 2.26555E-02
 -1      2833-1.87955E-01-1.20299E+01 1.23207E+00-3.34310E+00 3.06500E-02 1.83217E-01
 -1      2834 1.51948E+00-1.28884E+01-5.69148E-02-5.22215E+00-7.29029E-02 1.43894E-01
 -1      2835 2.93782E+00-1.34470E+01 1.65732E-01-6.66377E+00 2.00730E-02 1.09783E-01
 -1      2836 3.63468E+00-1.32107E+01 4.63290E-02-7.88633E+00-1.09446E-04 1.07829E-01
 -1      2837 3.77412E+00-1.23363E+01 3.40635E-02-8.98450E+00-9.63908E-03 1.03389E-01
 -1      2838 3.37840E+00-1.10645E+01 1.81398E-02-9.97768E+00-1.78243E-02 1.01370E-01
 -1      2839 2.55274E+00-9.50112E+00 1.23285E-02-1.08400E+01-2.48679E-02 9.82184E-02
 -1      2840 1.39116E+00-7.72276E+00 8.93612E-03-1.15318E+01-3.10912E-02 9.46836E-02
 -1      2841-2.10903E-02-5.78891E+00 7.78464E-03-1.20137E+01-3.65664E-02 9.05520E-02
 -1      2842-1.61048E+00-3.75438E+00 7.77500E-03-1.22522E+01-4.12160E-02 8.58748E-02
 -1      2843-3.31104E+00-1.67151E+00 8.39443E-03-1.22218E+01-4.50080E-02 8.06462E-02
 -1      2844-5.06172E+00 4.07427E-01 9.29657E-03-1.19053E+01-4.79182E-02 7.48918E-02
 -1      2845-6.80426E+00 2.42864E+00 1.03167E-02-1.12933E+01-4.99218E-02 6.86410E-02
 -1      2846-8.48170E+00 4.33564E+00 1.13695E-02-1.03848E+01-5.09824E-02 6.19336E-02
 -1      2847-1.00371E+01 6.06851E+00 1.23981E-02-9.18723E+00-5.10520E-02 5.48215E-02
 -1      2848-1.14130E+01 7.56378E+00 1.33353E-02-7.71846E+00-5.00720E-02 4.73744E-02
 -1      2849-1.25506E+01 8.75503E+00 1.40758E-02-6.00814E+00-4.79781E-02 3.96869E-02
 -1      2850-1.33913E+01 9.57470E+00 1.44535E-02-4.10062E+00-4.47064E-02 3.18880E-02
 -1      2851-1.38780E+01 9.95780E+00 1.42256E-02-2.05791E+00-4.02051E-02 2.41506E-02
 -1      2852-1.39598E+01 9.84781E+00 1.30644E-02 3.76164E-02-3.44488E-02 1.67015E-02
 -1      2853-1.35977E+01 9.20553E+00 1.05629E-02 2.08181E+00-2.74595E-02 9.82789E-03
 -1      2854-1.27730E+01 8.02062E+00 6.25385E-03 3.95006E+00-1.93302E-02 3.87885E-03
 -1      2855-1.14974E+01 6.32514E+00-3.50721E-04 5.50290E+00-1.02488E-02-7.41413E-04
 -1      2856-9.82330E+00 4.20767E+00-9.75059E-03 6.59724E+00-5.21124E-04-3.59097E-03
 -1      2857-7.85108E+00 1.82515E+00-2.23603E-02 7.10376E+00 9.42689E-03-4.20443E-03
 -1      2858-5.73381E+00-5.90692E-01-3.91482E-02 6.92932E+00 1.90092E-02-2.06025E-03
 -1      2859-3.67564E+00-2.73466E+00-6.00799E-02 6.04109E+00 2.74711E-02 3.24777E-03
 -1      2860-1.93110E+00-4.24459E+00-9.51281E-02 4.48735E+00 3.37883E-02 1.28290E-02
 -1      2861-7.69492E-01-4.70027E+00-1.10291E-01 2.40230E+00 3.63803E-02 2.46593E-02
 -1      2862-7.96970E-01-1.47700E+01 1.54563E+00-4.00163E+00 5.70746E-02 1.76003E-01
 -1      2863 9.01831E-01-1.57249E+01-8.85140E-02-5.77336E+00-9.90051E-02 1.36760E-01
 -1      2864 2.36180E+00-1.63601E+01 1.95978E-01-7.08814E+00 2.60810E-02 1.03070E-01
 -1      2865 3.02780E+00-1.60937E+01 4.42379E-02-8.20742E+00 1.56722E-03 1.03292E-01
 -1      2866 3.12489E+00-1.51311E+01 3.11147E-02-9.24356E+00-7.79705E-03 9.91308E-02
 -1      2867 2.68221E+00-1.37684E+01 1.41252E-02-1.02119E+01-1.60570E-02 9.75906E-02
 -1      2868 1.81986E+00-1.21223E+01 9.74609E-03-1.10746E+01-2.29867E-02 9.47949E-02
 -1      2869 6.36436E-01-1.02699E+01 7.63553E-03-1.17810E+01-2.90270E-02 9.16939E-02
 -1      2870-7.81509E-01-8.26679E+00 7.52126E-03-1.22840E+01-3.42690E-02 8.79981E-02
 -1      2871-2.36063E+00-6.16430E+00 8.19284E-03-1.25457E+01-3.86530E-02 8.37645E-02
 -1      2872-4.03519E+00-4.01213E+00 9.21090E-03-1.25382E+01-4.21683E-02 7.89857E-02
 -1      2873-5.74411E+00-1.86085E+00 1.02916E-02-1.22433E+01-4.48058E-02 7.36932E-02
 -1      2874-7.42892E+00 2.36751E-01 1.13189E-02-1.16520E+01-4.65513E-02 6.79209E-02
 -1      2875-9.03242E+00 2.22494E+00 1.22328E-02-1.07646E+01-4.73770E-02 6.17126E-02
 -1      2876-1.04979E+01 4.04476E+00 1.29866E-02-9.59074E+00-4.72433E-02 5.51225E-02
 -1      2877-1.17685E+01 5.63425E+00 1.35150E-02-8.15099E+00-4.61027E-02 4.82206E-02
 -1      2878-1.27881E+01 6.92953E+00 1.37165E-02-6.47822E+00-4.39047E-02 4.10988E-02
 -1      2879-1.35016E+01 7.86689E+00 1.34403E-02-4.61993E+00-4.06043E-02 3.38787E-02
 -1      2880-1.38582E+01 8.38660E+00 1.24808E-02-2.64048E+00-3.61727E-02 2.67197E-02
 -1      2881-1.38150E+01 8.43865E+00 1.05800E-02-6.22912E-01-3.06123E-02 1.98274E-02
 -1      2882-1.33429E+01 7.99080E+00 7.44188E-03 1.33078E+00-2.39752E-02 1.34592E-02
 -1      2883-1.24341E+01 7.03883E+00 2.75440E-03 3.10195E+00-1.63846E-02 7.92620E-03
 -1      2884-1.11102E+01 5.61803E+00-3.78048E-03 4.56168E+00-8.05512E-03 3.58842E-03
 -1      2885-9.42991E+00 3.81474E+00-1.24689E-02 5.58201E+00 6.87908E-04 8.41854E-04
 -1      2886-7.49471E+00 1.77584E+00-2.35785E-02 6.05250E+00 9.41466E-03 1.04394E-04
 -1      2887-5.45054E+00-2.86371E-01-3.80717E-02 5.90074E+00 1.75514E-02 1.85562E-03
 -1      2888-3.48545E+00-2.09469E+00-5.60114E-02 5.11399E+00 2.44367E-02 6.41541E-03
 -1      2889-1.83039E+00-3.31986E+00-8.82490E-02 3.75735E+00 2.89916E-02 1.50968E-02
 -1      2890-7.31124E-01-3.57186E+00-1.01232E-01 1.98001E+00 3.03234E-02 2.56947E-02
 -1      2891-1.33234E+00-1.74656E+01 1.86472E+00-4.65204E+00 8.92619E-02 1.70262E-01
 -1      2892 3.86146E-01-1.85332E+01-1.18201E-01-6.28944E+00-1.27039E-01 1.29845E-01
 -1      2893 1.87984E+00-1.92234E+01 2.25367E-01-7.44928E+00 3.24218E-02 9.66388E-02
 -1      2894 2.48824E+00-1.88972E+01 3.90556E-02-8.45396E+00 3.05327E-03 9.89241E-02
 -1      2895 2.51886E+00-1.78262E+01 2.57298E-02-9.43152E+00-6.03666E-03 9.50255E-02
 -1      2896 2.01463E+00-1.63659E+01 8.92333E-03-1.03844E+01-1.44946E-02 9.39980E-02
 -1      2897 1.10941E+00-1.46406E+01 6.84244E-03-1.12568E+01-2.13820E-02 9.15892E-02
 -1      2898-9.65649E-02-1.27231E+01 6.37077E-03-1.19852E+01-2.72727E-02 8.89318E-02
 -1      2899-1.51768E+00-1.06620E+01 7.37022E-03-1.25147E+01-3.22891E-02 8.56663E-02
 -1      2900-3.08220E+00-8.50317E+00 8.69520E-03-1.28039E+01-3.64106E-02 8.18628E-02
 -1      2901-4.72551E+00-6.29293E+00 1.00599E-02-1.28230E+01-3.96553E-02 7.75156E-02
 -1      2902-6.38722E+00-4.07977E+00 1.12743E-02-1.25537E+01-4.20308E-02 7.26637E-02
 -1      2903-8.00917E+00-1.91512E+00 1.22830E-02-1.19876E+01-4.35332E-02 6.73457E-02
 -1      2904-9.53447E+00 1.46317E-01 1.30552E-02-1.11262E+01-4.41419E-02 6.16087E-02
 -1      2905-1.09070E+01 2.04679E+00 1.35546E-02-9.98122E+00-4.38247E-02 5.55081E-02
 -1      2906-1.20714E+01 3.72610E+00 1.37183E-02-8.57560E+00-4.25428E-02 4.91129E-02
 -1      2907-1.29740E+01 5.12297E+00 1.34472E-02-6.94478E+00-4.02575E-02 4.25099E-02
 -1      2908-1.35639E+01 6.17739E+00 1.26021E-02-5.13855E+00-3.69388E-02 3.58114E-02
 -1      2909-1.37961E+01 6.83437E+00 1.10061E-02-3.22271E+00-3.25763E-02 2.91614E-02
 -1      2910-1.36357E+01 7.04942E+00 8.45646E-03-1.28007E+00-2.71940E-02 2.27431E-02
 -1      2911-1.30628E+01 6.79580E+00 4.74567E-03 5.90107E-01-2.08670E-02 1.67838E-02
 -1      2912-1.20792E+01 6.07347E+00-3.10806E-04 2.27517E+00-1.37418E-02 1.15577E-02
 -1      2913-1.07152E+01 4.91883E+00-6.84585E-03 3.65581E+00-6.05321E-03 7.38428E-03
 -1      2914-9.03518E+00 3.41402E+00-1.49778E-02 4.61722E+00 1.85724E-03 4.62007E-03
 -1      2915-7.14072E+00 1.69446E+00-2.48012E-02 5.06469E+00 9.55257E-03 3.64692E-03
 -1      2916-5.17088E+00-4.74992E-02-3.71965E-02 4.94273E+00 1.64577E-02 4.91908E-03
 -1      2917-3.29842E+00-1.56228E+00-5.22719E-02 4.25501E+00 2.19741E-02 8.69198E-03
 -1      2918-1.73165E+00-2.55251E+00-8.14721E-02 3.08135E+00 2.49474E-02 1.64540E-02
 -1      2919-6.94138E-01-2.65810E+00-9.29634E-02 1.58713E+00 2.51639E-02 2.58119E-02
 -1      2920-1.77454E+00-2.01395E+01 2.19370E+00-5.29698E+00 1.26242E-01 1.65977E-01
 -1      2921-4.25609E-03-2.13297E+01-1.44806E-01-6.75864E+00-1.56841E-01 1.22721E-01
 -1      2922 1.49812E+00-2.20433E+01 2.52700E-01-7.72977E+00 3.93692E-02 9.02345E-02
 -1      2923 2.00847E+00-2.16184E+01 2.92231E-02-8.61482E+00 4.48513E-03 9.45770E-02
 -1      2924 1.94460E+00-2.04157E+01 1.75115E-02-9.54654E+00-4.33982E-03 9.10141E-02
 -1      2925 1.36547E+00-1.88536E+01 2.86786E-03-1.04999E+01-1.31740E-02 9.05791E-02
 -1      2926 4.13234E-01-1.70565E+01 4.02970E-03-1.13946E+01-2.00835E-02 8.85928E-02
 -1      2927-8.14642E-01-1.50856E+01 5.40420E-03-1.21534E+01-2.58315E-02 8.63858E-02
 -1      2928-2.23577E+00-1.29787E+01 7.47498E-03-1.27152E+01-3.06123E-02 8.35438E-02
 -1      2929-3.78125E+00-1.07754E+01 9.36296E-03-1.30359E+01-3.44662E-02 8.01559E-02
 -1      2930-5.38844E+00-8.51800E+00 1.09921E-02-1.30852E+01-3.74421E-02 7.62216E-02
 -1      2931-6.99809E+00-6.25271E+00 1.22843E-02-1.28449E+01-3.95636E-02 7.17891E-02
 -1      2932-8.55279E+00-4.02956E+00 1.32473E-02-1.23076E+01-4.08352E-02 6.69018E-02
 -1      2933-9.99634E+00-1.90206E+00 1.38775E-02-1.14763E+01-4.12421E-02 6.16097E-02
 -1      2934-1.12736E+01 7.33867E-02 1.41472E-02-1.03643E+01-4.07573E-02 5.59688E-02
 -1      2935-1.23309E+01 1.83844E+00 1.39933E-02-8.99665E+00-3.93490E-02 5.00452E-02
 -1      2936-1.31172E+01 3.33444E+00 1.33160E-02-7.41075E+00-3.69875E-02 4.39198E-02
 -1      2937-1.35860E+01 4.50485E+00 1.19819E-02-5.65800E+00-3.36543E-02 3.76935E-02
 -1      2938-1.36981E+01 5.29894E+00 9.83330E-03-3.80482E+00-2.93535E-02 3.14940E-02
 -1      2939-1.34259E+01 5.67684E+00 6.70631E-03-1.93308E+00-2.41252E-02 2.54808E-02
 -1      2940-1.27581E+01 5.61611E+00 2.45917E-03-1.38899E-01-1.80620E-02 1.98509E-02
 -1      2941-1.17055E+01 5.11938E+00-2.99386E-03 1.47096E+00-1.13272E-02 1.48424E-02
 -1      2942-1.03063E+01 4.22252E+00-9.64668E-03 2.78597E+00-4.17131E-03 1.07353E-02
 -1      2943-8.62976E+00 3.00211E+00-1.74349E-02 3.70262E+00 3.05063E-03 7.85065E-03
 -1      2944-6.77802E+00 1.58117E+00-2.62436E-02 4.13921E+00 9.89116E-03 6.54184E-03
 -1      2945-4.88368E+00 1.31799E-01-3.67687E-02 4.05370E+00 1.57609E-02 7.24968E-03
 -1      2946-3.10521E+00-1.12398E+00-4.90736E-02 3.46276E+00 2.00918E-02 1.01838E-02
 -1      2947-1.62872E+00-1.92059E+00-7.47636E-02 2.45856E+00 2.16287E-02 1.69553E-02
 -1      2948-6.55132E-01-1.92974E+00-8.50008E-02 1.22330E+00 2.08511E-02 2.50292E-02
 -1      2949-2.08994E+00-2.28184E+01 2.54006E+00-5.93528E+00 1.67213E-01 1.62812E-01
 -1      2950-2.40289E-01-2.41319E+01-1.67959E-01-7.15774E+00-1.88219E-01 1.14613E-01
 -1      2951 1.21612E+00-2.48208E+01 2.75014E-01-7.90361E+00 4.72480E-02 8.34383E-02
 -1      2952 1.57260E+00-2.42450E+01 1.24828E-02-8.67772E+00 5.95567E-03 9.00646E-02
 -1      2953 1.38644E+00-2.28869E+01 6.50204E-03-9.58940E+00-2.75196E-03 8.70612E-02
 -1      2954 7.23387E-01-2.12255E+01-3.28427E-03-1.05657E+01-1.21802E-02 8.73411E-02
 -1      2955-2.76845E-01-1.93698E+01 1.82132E-03-1.14973E+01-1.91309E-02 8.57995E-02
 -1      2956-1.52421E+00-1.73603E+01 4.96406E-03-1.22951E+01-2.47026E-02 8.40476E-02
 -1      2957-2.94133E+00-1.52214E+01 7.93887E-03-1.28945E+01-2.92219E-02 8.16215E-02
 -1      2958-4.46318E+00-1.29855E+01 1.02427E-02-1.32502E+01-3.27970E-02 7.86331E-02
 -1      2959-6.02959E+00-1.06914E+01 1.20309E-02-1.33326E+01-3.55029E-02 7.50924E-02
 -1      2960-7.58282E+00-8.38308E+00 1.33390E-02-1.31243E+01-3.73766E-02 7.10583E-02
 -1      2961-9.06648E+00-6.10923E+00 1.42306E-02-1.26188E+01-3.84282E-02 6.65789E-02
 -1      2962-1.04253E+01-3.92219E+00 1.47231E-02-1.18206E+01-3.86461E-02 6.17072E-02
 -1      2963-1.16052E+01-1.87698E+00 1.47926E-02-1.07448E+01-3.80070E-02 5.64986E-02
 -1      2964-1.25546E+01-3.00261E-02 1.43718E-02-9.41796E+00-3.64837E-02 5.10159E-02
 -1      2965-1.32251E+01 1.56254E+00 1.33558E-02-7.87890E+00-3.40530E-02 4.53323E-02
 -1      2966-1.35744E+01 2.84744E+00 1.16105E-02-6.17998E+00-3.07050E-02 3.95369E-02
 -1      2967-1.35689E+01 3.77771E+00 8.98670E-03-4.38761E+00-2.64537E-02 3.37391E-02
 -1      2968-1.31880E+01 4.31739E+00 5.34315E-03-2.58213E+00-2.13510E-02 2.80747E-02
 -1      2969-1.24284E+01 4.44728E+00 5.80264E-04-8.56175E-01-1.55018E-02 2.27099E-02
 -1      2970-1.13093E+01 4.17151E+00-5.31890E-03 6.89244E-01-9.08131E-03 1.78462E-02
 -1      2971-9.87615E+00 3.52424E+00-1.22407E-02 1.95160E+00-2.35133E-03 1.37247E-02
 -1      2972-8.20368E+00 2.57555E+00-1.99511E-02 2.83717E+00 4.32178E-03 1.06312E-02
 -1      2973-6.39477E+00 1.43558E+00-2.80906E-02 3.27482E+00 1.04774E-02 8.89469E-03
 -1      2974-4.57680E+00 2.56111E-01-3.70440E-02 3.23288E+00 1.55006E-02 8.95120E-03
 -1      2975-2.89529E+00-7.68445E-01-4.67098E-02 2.73762E+00 1.88166E-02 1.09842E-02
 -1      2976-1.51430E+00-1.40474E+00-6.82454E-02 1.89068E+00 1.90321E-02 1.66392E-02
 -1      2977-6.09900E-01-1.35945E+00-7.69057E-02 8.90336E-01 1.73557E-02 2.33347E-02
 -1      2978-2.22197E+00-2.55372E+01 2.91600E+00-6.55605E+00 2.11511E-01 1.59779E-01
 -1      2979-2.91021E-01-2.69589E+01-1.89287E-01-7.44319E+00-2.20937E-01 1.03932E-01
 -1      2980 1.01686E+00-2.75464E+01 2.85841E-01-7.93513E+00 5.63998E-02 7.56115E-02
 -1      2981 1.15297E+00-2.67513E+01-1.35116E-02-8.63323E+00 7.46072E-03 8.51337E-02
 -1      2982 8.25719E-01-2.52208E+01-6.07674E-03-9.56639E+00-1.43826E-03 8.31953E-02
 -1      2983 7.73396E-02-2.34749E+01-8.23100E-03-1.05924E+01-1.16449E-02 8.42793E-02
 -1      2984-9.68459E-01-2.15815E+01 7.03182E-04-1.15753E+01-1.85519E-02 8.31859E-02
 -1      2985-2.23098E+00-1.95512E+01 5.24077E-03-1.24199E+01-2.38705E-02 8.19001E-02
 -1      2986-3.63914E+00-1.73946E+01 8.85023E-03-1.30610E+01-2.80932E-02 7.98806E-02
 -1      2987-5.13258E+00-1.51381E+01 1.13753E-02-1.34546E+01-3.13728E-02 7.72743E-02
 -1      2988-6.65377E+00-1.28172E+01 1.32038E-02-1.35723E+01-3.38058E-02 7.41090E-02
 -1      2989-8.14665E+00-1.04743E+01 1.44654E-02-1.33980E+01-3.54368E-02 7.04535E-02
 -1      2990-9.55597E+00-8.15687E+00 1.52636E-02-1.29267E+01-3.62780E-02 6.63618E-02
 -1      2991-1.08274E+01-5.91623E+00 1.56275E-02-1.21643E+01-3.63186E-02 6.18890E-02
 -1      2992-1.19084E+01-3.80604E+00 1.55305E-02-1.11271E+01-3.55368E-02 5.70897E-02
 -1      2993-1.27489E+01-1.88087E+00 1.48966E-02-9.84299E+00-3.39077E-02 5.20223E-02
 -1      2994-1.33036E+01-1.94420E-01 1.36109E-02-8.35188E+00-3.14122E-02 4.67515E-02
 -1      2995-1.35340E+01 1.20303E+00 1.15312E-02-6.70642E+00-2.80455E-02 4.13533E-02
 -1      2996-1.34120E+01 2.26788E+00 8.50637E-03-4.97243E+00-2.38282E-02 3.59189E-02
 -1      2997-1.29234E+01 2.96741E+00 4.40154E-03-3.22824E+00-1.88194E-02 3.05590E-02
 -1      2998-1.20724E+01 3.28484E+00-8.63909E-04-1.56274E+00-1.31316E-02 2.54089E-02
 -1      2999-1.08861E+01 3.22487E+00-7.26929E-03-7.12672E-02-6.94736E-03 2.06331E-02
 -1      3000-9.41740E+00 2.81912E+00-1.46316E-02 1.15105E+00-5.35874E-04 1.64319E-02
 -1      3001-7.74646E+00 2.13058E+00-2.25783E-02 2.01897E+00 5.72771E-03 1.30534E-02
 -1      3002-5.97828E+00 1.25639E+00-3.04862E-02 2.46998E+00 1.13679E-02 1.08022E-02
 -1      3003-4.23679E+00 3.28320E-01-3.82805E-02 2.47995E+00 1.57351E-02 1.01152E-02
 -1      3004-2.65635E+00-4.86812E-01-4.55463E-02 2.08137E+00 1.82065E-02 1.11794E-02
 -1      3005-1.37944E+00-9.88496E-01-6.22383E-02 1.38182E+00 1.71883E-02 1.55434E-02
 -1      3006-5.53053E-01-9.21493E-01-6.83350E-02 5.92668E-01 1.46588E-02 2.06939E-02
 -1      3007-2.07241E+00-2.83422E+01 3.34603E+00-7.12310E+00 2.58685E-01 1.53637E-01
 -1      3008-1.41740E-01-2.98324E+01-2.20844E-01-7.53545E+00-2.54776E-01 8.87793E-02
 -1      3009 8.50253E-01-3.01881E+01 2.74069E-01-7.78314E+00 6.70454E-02 6.55510E-02
 -1      3010 7.09097E-01-2.90921E+01-5.00608E-02-8.48353E+00 8.70947E-03 7.98407E-02
 -1      3011 2.45374E-01-2.73942E+01-1.67122E-02-9.49239E+00-7.76533E-04 7.95443E-02
 -1      3012-5.82711E-01-2.55984E+01-1.09333E-02-1.05940E+01-1.17415E-02 8.13729E-02
 -1      3013-1.66856E+00-2.36946E+01 7.74792E-04-1.16402E+01-1.83477E-02 8.07405E-02
 -1      3014-2.93967E+00-2.16631E+01 6.20348E-03-1.25372E+01-2.33276E-02 7.99482E-02
 -1      3015-4.33327E+00-1.95037E+01 1.00980E-02-1.32228E+01-2.72061E-02 7.83134E-02
 -1      3016-5.79336E+00-1.72381E+01 1.26314E-02-1.36559E+01-3.01693E-02 7.60752E-02
 -1      3017-7.26512E+00-1.48997E+01 1.43923E-02-1.38103E+01-3.23243E-02 7.32674E-02
 -1      3018-8.69412E+00-1.25299E+01 1.55569E-02-1.36716E+01-3.37161E-02 6.99732E-02
 -1      3019-1.00262E+01-1.01753E+01 1.62542E-02-1.32363E+01-3.43548E-02 6.62520E-02
 -1      3020-1.12081E+01-7.88650E+00 1.65119E-02-1.25115E+01-3.42278E-02 6.21610E-02
 -1      3021-1.21885E+01-5.71576E+00 1.62942E-02-1.15147E+01-3.33125E-02 5.77534E-02
 -1      3022-1.29192E+01-3.71594E+00 1.55112E-02-1.02749E+01-3.15844E-02 5.30823E-02
 -1      3023-1.33577E+01-1.93842E+00 1.40326E-02-8.83225E+00-2.90256E-02 4.82035E-02
 -1      3024-1.34691E+01-4.30745E-01 1.17011E-02-7.23945E+00-2.56336E-02 4.31790E-02
 -1      3025-1.32302E+01 7.66444E-01 8.35234E-03-5.56115E+00-2.14319E-02 3.80806E-02
 -1      3026-1.26329E+01 1.62313E+00 3.84233E-03-3.87324E+00-1.64826E-02 3.29940E-02
 -1      3027-1.16885E+01 2.12428E+00-1.91331E-03-2.26061E+00-1.09014E-02 2.80226E-02
 -1      3028-1.04315E+01 2.27444E+00-8.88755E-03-8.12984E-01-4.87397E-03 2.32927E-02
 -1      3029-8.92229E+00 2.10208E+00-1.68709E-02 3.81473E-01 1.32684E-03 1.89611E-02
 -1      3030-7.24722E+00 1.66281E+00-2.54058E-02 1.24512E+00 7.32007E-03 1.52318E-02
 -1      3031-5.51505E+00 1.04099E+00-3.36313E-02 1.72249E+00 1.26152E-02 1.23773E-02
 -1      3032-3.84871E+00 3.49085E-01-4.08474E-02 1.79464E+00 1.65235E-02 1.08360E-02
 -1      3033-2.37394E+00-2.73211E-01-4.61151E-02 1.49683E+00 1.83335E-02 1.08534E-02
 -1      3034-1.21291E+00-6.58887E-01-5.73672E-02 9.38410E-01 1.61555E-02 1.37190E-02
 -1      3035-4.77663E-01-5.92129E-01-5.91841E-02 3.37831E-01 1.27172E-02 1.70598E-02
 -1      3036-1.47690E+00-3.13075E+01 3.86163E+00-7.52937E+00 3.08489E-01 1.40807E-01
 -1      3037 1.67062E-01-3.27643E+01-2.84792E-01-7.29403E+00-2.90243E-01 6.43154E-02
 -1      3038 6.03972E-01-3.26668E+01 2.18720E-01-7.42402E+00 7.91715E-02 5.25575E-02
 -1      3039 2.05185E-01-3.11958E+01-8.66408E-02-8.25585E+00 9.11099E-03 7.44818E-02
 -1      3040-3.63906E-01-2.93913E+01-1.99442E-02-9.39023E+00-1.40191E-03 7.61273E-02
 -1      3041-1.26695E+00-2.75980E+01-1.05376E-02-1.05875E+01-1.24199E-02 7.82651E-02
 -1      3042-2.38153E+00-2.57139E+01 2.77852E-03-1.17044E+01-1.84585E-02 7.83710E-02
 -1      3043-3.65366E+00-2.37021E+01 8.47121E-03-1.26564E+01-2.29973E-02 7.80224E-02
 -1      3044-5.02651E+00-2.15544E+01 1.21603E-02-1.33873E+01-2.64692E-02 7.67838E-02
 -1      3045-6.44838E+00-1.92904E+01 1.44968E-02-1.38604E+01-2.90876E-02 7.49089E-02
 -1      3046-7.86678E+00-1.69430E+01 1.60567E-02-1.40520E+01-3.09554E-02 7.24535E-02
 -1      3047-9.22873E+00-1.45532E+01 1.70634E-02-1.39497E+01-3.21068E-02 6.95171E-02
 -1      3048-1.04811E+01-1.21673E+01 1.76369E-02-1.35517E+01-3.25470E-02 6.61636E-02
 -1      3049-1.15716E+01-9.83522E+00 1.77956E-02-1.28659E+01-3.22587E-02 6.24525E-02
 -1      3050-1.24500E+01-7.60808E+00 1.74872E-02-1.19111E+01-3.12162E-02 5.84348E-02
 -1      3051-1.30699E+01-5.53710E+00 1.66034E-02-1.07165E+01-2.93931E-02 5.41581E-02
 -1      3052-1.33912E+01-3.67152E+00 1.49931E-02-9.32265E+00-2.67704E-02 4.96683E-02
 -1      3053-1.33825E+01-2.05635E+00 1.24776E-02-7.78151E+00-2.33447E-02 4.50127E-02
 -1      3054-1.30250E+01-7.29656E-01 8.86931E-03-6.15619E+00-1.91387E-02 4.02431E-02
 -1      3055-1.23163E+01 2.80777E-01 4.00035E-03-4.51976E+00-1.42139E-02 3.54192E-02
 -1      3056-1.12742E+01 9.61101E-01-2.23838E-03-2.95285E+00-8.68484E-03 3.06116E-02
 -1      3057-9.94048E+00 1.31517E+00-9.84428E-03-1.53955E+00-2.73632E-03 2.59065E-02
 -1      3058-8.38278E+00 1.36786E+00-1.86256E-02-3.61277E-01 3.35873E-03 2.14136E-02
 -1      3059-6.69456E+00 1.16729E+00-2.81103E-02 5.11376E-01 9.21568E-03 1.72828E-02
 -1      3060-4.99039E+00 7.85427E-01-3.73074E-02 1.02901E+00 1.43306E-02 1.37369E-02
 -1      3061-3.39563E+00 3.16654E-01-4.47986E-02 1.17613E+00 1.79748E-02 1.12010E-02
 -1      3062-2.03087E+00-1.25037E-01-4.87184E-02 9.87500E-01 1.93257E-02 1.00770E-02
 -1      3063-1.00042E+00-4.06833E-01-5.42728E-02 5.69175E-01 1.60706E-02 1.12952E-02
 -1      3064-3.74959E-01-3.50917E-01-4.95993E-02 1.37193E-01 1.14239E-02 1.24689E-02
 -1      3065-1.08346E-01-3.45265E+01 4.57686E+00-7.43498E+00 3.61004E-01 1.11848E-01
 -1      3066 3.61039E-01-3.57519E+01-5.20917E-01-6.51234E+00-3.28365E-01 3.40961E-02
 -1      3067 1.16141E-01-3.47776E+01 1.28280E-01-6.93297E+00 9.22284E-02 3.49090E-02
 -1      3068-3.34231E-01-3.29960E+01-1.04624E-01-7.99238E+00 6.15814E-03 7.36263E-02
 -1      3069-1.02605E+00-3.12209E+01-1.81663E-02-9.29170E+00-4.02590E-03 7.16449E-02
 -1      3070-1.97985E+00-2.94799E+01-1.04849E-02-1.05907E+01-1.39489E-02 7.57287E-02
 -1      3071-3.11151E+00-2.76486E+01 4.85508E-03-1.17803E+01-1.91547E-02 7.62541E-02
 -1      3072-4.37577E+00-2.56765E+01 9.50814E-03-1.27863E+01-2.30683E-02 7.63868E-02
 -1      3073-5.72153E+00-2.35539E+01 1.29416E-02-1.35613E+01-2.60026E-02 7.55457E-02
 -1      3074-7.10041E+00-2.13013E+01 1.49430E-02-1.40734E+01-2.82189E-02 7.40240E-02
 -1      3075-8.46180E+00-1.89523E+01 1.63223E-02-1.43020E+01-2.97532E-02 7.19236E-02
 -1      3076-9.75387E+00-1.65486E+01 1.72225E-02-1.42366E+01-3.06335E-02 6.93485E-02
 -1      3077-1.09243E+01-1.41366E+01 1.77609E-02-1.38765E+01-3.08502E-02 6.63720E-02
 -1      3078-1.19217E+01-1.17656E+01 1.79311E-02-1.32310E+01-3.03791E-02 6.30551E-02
 -1      3079-1.26967E+01-9.48598E+00 1.76595E-02-1.23193E+01-2.91893E-02 5.94477E-02
 -1      3080-1.32047E+01-7.34729E+00 1.68135E-02-1.11708E+01-2.72510E-02 5.55913E-02
 -1      3081-1.34074E+01-5.39682E+00 1.52150E-02-9.82590E+00-2.45430E-02 5.15217E-02
 -1      3082-1.32767E+01-3.67729E+00 1.26543E-02-8.33552E+00-2.10604E-02 4.72704E-02
 -1      3083-1.27979E+01-2.22448E+00 8.90907E-03-6.76075E+00-1.68244E-02 4.28668E-02
 -1      3084-1.19735E+01-1.06436E+00 3.77136E-03-5.17150E+00-1.18950E-02 3.83406E-02
 -1      3085-1.08274E+01-2.10049E-01-2.91358E-03-3.64388E+00-6.38460E-03 3.37238E-02
 -1      3086-9.40824E+00 3.41153E-01-1.11946E-02-2.25618E+00-4.75420E-04 2.90538E-02
 -1      3087-7.79107E+00 6.10247E-01-2.09405E-02-1.08312E+00 5.56194E-03 2.43798E-02
 -1      3088-6.07713E+00 6.37867E-01-3.17208E-02-1.88419E-01 1.13433E-02 1.97758E-02
 -1      3089-4.38892E+00 4.84048E-01-4.25797E-02 3.84298E-01 1.63547E-02 1.53751E-02
 -1      3090-2.85864E+00 2.26287E-01-5.15280E-02 6.22181E-01 1.98521E-02 1.15187E-02
 -1      3091-1.60714E+00-4.38840E-02-5.51880E-02 5.57109E-01 2.09176E-02 8.87653E-03
 -1      3092-7.24257E-01-2.27539E-01-5.46844E-02 2.85371E-01 1.68438E-02 8.23008E-03
 -1      3093-2.34647E-01-1.82778E-01-4.05592E-02 6.60703E-03 1.03700E-02 6.84188E-03
 -1      3094 2.70931E+00-3.82571E+01 5.41501E+00-5.28918E+00 4.11060E-01 1.41095E-01
 -1      3095-6.50764E-01-3.84445E+01-1.00656E+00-5.51094E+00-3.84886E-01-6.98645E-02
 -1      3096-3.00069E-01-3.61131E+01 1.30363E-01-6.37854E+00 1.16839E-01 4.32192E-02
 -1      3097-9.72491E-01-3.45359E+01-6.19001E-02-7.77895E+00-1.21343E-03 6.08482E-02
 -1      3098-1.73280E+00-3.28755E+01-3.10313E-03-9.22800E+00-6.09510E-03 6.33736E-02
 -1      3099-2.71826E+00-3.12481E+01 1.27292E-02-1.06263E+01-1.46511E-02 6.89887E-02
 -1      3100-3.85398E+00-2.95018E+01 2.19765E-02-1.18807E+01-1.88896E-02 7.02708E-02
 -1      3101-5.10141E+00-2.75881E+01 2.51993E-02-1.29353E+01-2.17110E-02 7.13586E-02
 -1      3102-6.41385E+00-2.55030E+01 2.68430E-02-1.37506E+01-2.40042E-02 7.11652E-02
 -1      3103-7.74514E+00-2.32710E+01 2.77075E-02-1.42993E+01-2.56744E-02 7.02932E-02
 -1      3104-9.04601E+00-2.09278E+01 2.81358E-02-1.45636E+01-2.67855E-02 6.88079E-02
 -1      3105-1.02655E+01-1.85164E+01 2.82731E-02-1.45348E+01-2.73220E-02 6.68517E-02
 -1      3106-1.13519E+01-1.60837E+01 2.81691E-02-1.42133E+01-2.72639E-02 6.45020E-02
 -1      3107-1.22543E+01-1.36789E+01 2.77896E-02-1.36091E+01-2.65755E-02 6.18243E-02
 -1      3108-1.29245E+01-1.13513E+01 2.70383E-02-1.27417E+01-2.52181E-02 5.88664E-02
 -1      3109-1.33187E+01-9.14917E+00 2.57655E-02-1.16407E+01-2.31556E-02 5.56633E-02
 -1      3110-1.34009E+01-7.11793E+00 2.37775E-02-1.03455E+01-2.03612E-02 5.22385E-02
 -1      3111-1.31455E+01-5.29815E+00 2.08464E-02-8.90592E+00-1.68245E-02 4.86056E-02
 -1      3112-1.25412E+01-3.72356E+00 1.67255E-02-7.38049E+00-1.25623E-02 4.47689E-02
 -1      3113-1.15953E+01-2.41861E+00 1.11723E-02-5.83557E+00-7.62946E-03 4.07248E-02
 -1      3114-1.03372E+01-1.39600E+00 3.98162E-03-4.34241E+00-2.13450E-03 3.64629E-02
 -1      3115-8.82181E+00-6.54503E-01-4.96947E-03-2.97320E+00 3.74312E-03 3.19668E-02
 -1      3116-7.13167E+00-1.77201E-01-1.56603E-02-1.79568E+00 9.73202E-03 2.72170E-02
 -1      3117-5.37635E+00 6.90292E-02-2.78266E-02-8.66305E-01 1.54406E-02 2.21975E-02
 -1      3118-3.68801E+00 1.32687E-01-4.07210E-02-2.22430E-01 2.03335E-02 1.69270E-02
 -1      3119-2.21032E+00 7.50570E-02-5.26289E-02 1.26465E-01 2.36166E-02 1.15650E-02
 -1      3120-1.07425E+00-3.23634E-02-5.89155E-02 2.09105E-01 2.43589E-02 7.07756E-03
 -1      3121-3.61477E-01-1.17148E-01-5.50759E-02 1.06944E-01 1.94610E-02 5.20178E-03
 -1      3122-4.48085E-02-7.52356E-02-2.90089E-02-2.69795E-02 9.74497E-03 1.73912E-03
 -1      3123 7.21588E+00 9.39880E+01 3.64064E-01 4.99479E+00-6.88069E+00-7.38118E-02
 -1      3124 9.24579E+00 9.36168E+01 9.59283E+00 4.39394E+00-8.63931E+00-9.70013E-02
 -1      3125 1.01137E+01 9.33825E+01 1.40938E+01 4.00196E+00-6.51437E+00-7.35644E-02
 -1      3126 1.04390E+01 9.31845E+01 1.61919E+01 3.76025E+00-3.96068E+00-6.01106E-02
 -1      3127 1.05566E+01 9.30931E+01 1.70578E+01 3.64396E+00-1.32243E+00-2.30330E-02
 -1      3128 1.05566E+01 9.30931E+01 1.70578E+01 3.64396E+00 1.32243E+00 2.30330E-02
 -1      3129 1.04390E+01 9.31845E+01 1.61919E+01 3.76025E+00 3.96068E+00 6.01106E-02
 -1      3130 1.01137E+01 9.33825E+01 1.40938E+01 4.00196E+00 6.51437E+00 7.35644E-02
 -1      3131 9.24579E+00 9.36168E+01 9.59283E+00 4.39394E+00 8.63931E+00 9.70013E-02
 -1      3132 7.21588E+00 9.39880E+01 3.64064E-01 4.99479E+00 6.88069E+00 7.38118E-02
 -1      3133 8.65875E+00 1.00291E+02 2.48575E+00 1.09882E+01-1.49120E+00-5.47890E-02
 -1      3134 7.81427E+00 1.00305E+02 2.51308E+00 1.06157E+01-2.57169E+00-1.06910E-02
 -1      3135 8.03481E+00 1.00464E+02 5.15409E+00 1.04276E+01-2.84880E+00-3.81539E-02
 -1      3136 8.25612E+00 1.00533E+02 7.11546E+00 1.03143E+01-1.99047E+00-3.19491E-02
 -1      3137 8.36454E+00 1.00551E+02 8.07562E+00 1.02594E+01-7.02640E-01-1.28531E-02
 -1      3138 8.36454E+00 1.00551E+02 8.07562E+00 1.02594E+01 7.02640E-01 1.28531E-02
 -1      3139 8.25612E+00 1.00533E+02 7.11546E+00 1.03143E+01 1.99047E+00 3.19491E-02
 -1      3140 8.03481E+00 1.00464E+02 5.15409E+00 1.04276E+01 2.84880E+00 3.81539E-02
 -1      3141 7.81427E+00 1.00305E+02 2.51308E+00 1.06157E+01 2.57169E+00 1.06910E-02
 -1      3142 8.65875E+00 1.00291E+02 2.48575E+00 1.09882E+01 1.49120E+00 5.47890E-02
 -1      3143 8.09637E+00 9.54353E+01 3.34377E-01 1.58405E+01 3.31584E-01-3.51340E-03
 -1      3144 8.33856E+00 9.84981E+01 6.82613E-01 1.58749E+01 6.30480E-02 6.18150E-03
 -1      3145 8.20105E+00 9.95118E+01 9.83103E-01 1.58859E+01-2.93395E-01-7.07495E-03
 -1      3146 8.19609E+00 9.99653E+01 1.65962E+00 1.58973E+01-3.81475E-01-1.67442E-02
 -1      3147 8.21379E+00 1.00144E+02 2.10423E+00 1.59026E+01-1.61417E-01-7.38466E-03
 -1      3148 8.21379E+00 1.00144E+02 2.10423E+00 1.59026E+01 1.61417E-01 7.38466E-03
 -1      3149 8.19609E+00 9.99653E+01 1.65962E+00 1.58973E+01 3.81475E-01 1.67442E-02
 -1      3150 8.20105E+00 9.95118E+01 9.83103E-01 1.58859E+01 2.93395E-01 7.07495E-03
 -1      3151 8.33856E+00 9.84981E+01 6.82613E-01 1.58749E+01-6.30480E-02-6.18150E-03
 -1      3152 8.09637E+00 9.54353E+01 3.34377E-01 1.58405E+01-3.31584E-01 3.51340E-03
 -1      3153 9.46078E+00 9.38853E+01-2.08284E-01 1.96555E+01 5.67054E-01-4.12184E-02
 -1      3154 9.49625E+00 9.59153E+01-3.69666E-01 1.98132E+01 7.40069E-01-2.26695E-02
 -1      3155 9.53474E+00 9.73339E+01-4.05956E-01 1.99585E+01 5.73864E-01-1.61167E-02
 -1      3156 9.51674E+00 9.80712E+01-3.88084E-01 2.00495E+01 3.27647E-01-1.13231E-02
 -1      3157 9.51011E+00 9.83906E+01-3.24209E-01 2.00936E+01 1.01054E-01-4.67270E-03
 -1      3158 9.51011E+00 9.83906E+01-3.24209E-01 2.00936E+01-1.01054E-01 4.67270E-03
 -1      3159 9.51674E+00 9.80712E+01-3.88084E-01 2.00495E+01-3.27647E-01 1.13231E-02
 -1      3160 9.53474E+00 9.73339E+01-4.05956E-01 1.99585E+01-5.73864E-01 1.61167E-02
 -1      3161 9.49625E+00 9.59153E+01-3.69666E-01 1.98132E+01-7.40069E-01 2.26695E-02
 -1      3162 9.46078E+00 9.38853E+01-2.08284E-01 1.96555E+01-5.67054E-01 4.12184E-02
 -1      3163 1.14718E+01 9.24104E+01-3.44989E-01 2.32213E+01 4.88578E-01-6.10799E-02
 -1      3164 1.14040E+01 9.36569E+01-6.22011E-01 2.34300E+01 7.09525E-01-6.21582E-02
 -1      3165 1.14090E+01 9.46683E+01-8.38308E-01 2.36030E+01 6.61727E-01-4.26337E-02
 -1      3166 1.14284E+01 9.53591E+01-9.55478E-01 2.37248E+01 4.47827E-01-2.30874E-02
 -1      3167 1.14351E+01 9.56915E+01-1.01087E+00 2.37857E+01 1.56734E-01-7.08562E-03
 -1      3168 1.14351E+01 9.56915E+01-1.01087E+00 2.37857E+01-1.56734E-01 7.08562E-03
 -1      3169 1.14284E+01 9.53591E+01-9.55478E-01 2.37248E+01-4.47827E-01 2.30874E-02
 -1      3170 1.14090E+01 9.46683E+01-8.38308E-01 2.36030E+01-6.61727E-01 4.26337E-02
 -1      3171 1.14040E+01 9.36569E+01-6.22011E-01 2.34300E+01-7.09525E-01 6.21582E-02
 -1      3172 1.14718E+01 9.24104E+01-3.44989E-01 2.32213E+01-4.88578E-01 6.10799E-02
 -1      3173 1.38009E+01 9.01866E+01-3.27660E-01 2.65655E+01 3.46592E-01-7.54891E-02
 -1      3174 1.36909E+01 9.08994E+01-6.16820E-01 2.67878E+01 5.29665E-01-8.91551E-02
 -1      3175 1.36768E+01 9.15472E+01-8.44790E-01 2.69583E+01 5.18606E-01-6.84907E-02
 -1      3176 1.36919E+01 9.20273E+01-9.84975E-01 2.70764E+01 3.66721E-01-3.93987E-02
 -1      3177 1.37055E+01 9.22813E+01-1.04962E+00 2.71372E+01 1.31254E-01-1.25653E-02
 -1      3178 1.37055E+01 9.22813E+01-1.04962E+00 2.71372E+01-1.31254E-01 1.25653E-02
 -1      3179 1.36919E+01 9.20273E+01-9.84975E-01 2.70764E+01-3.66721E-01 3.93987E-02
 -1      3180 1.36768E+01 9.15472E+01-8.44790E-01 2.69583E+01-5.18606E-01 6.84907E-02
 -1      3181 1.36909E+01 9.08994E+01-6.16820E-01 2.67878E+01-5.29665E-01 8.91551E-02
 -1      3182 1.38009E+01 9.01866E+01-3.27660E-01 2.65655E+01-3.46592E-01 7.54891E-02
 -1      3183 1.63559E+01 8.70572E+01-2.73622E-01 2.96139E+01 2.33147E-01-8.25128E-02
 -1      3184 1.62394E+01 8.74434E+01-5.39475E-01 2.98366E+01 3.65083E-01-1.05028E-01
 -1      3185 1.62164E+01 8.78284E+01-7.40653E-01 2.99948E+01 3.65252E-01-8.51755E-02
 -1      3186 1.62269E+01 8.81323E+01-8.58965E-01 3.01007E+01 2.61643E-01-5.16175E-02
 -1      3187 1.62385E+01 8.82977E+01-9.13087E-01 3.01545E+01 9.43824E-02-1.69535E-02
 -1      3188 1.62385E+01 8.82977E+01-9.13087E-01 3.01545E+01-9.43824E-02 1.69535E-02
 -1      3189 1.62269E+01 8.81323E+01-8.58965E-01 3.01007E+01-2.61643E-01 5.16175E-02
 -1      3190 1.62164E+01 8.78284E+01-7.40653E-01 2.99948E+01-3.65252E-01 8.51755E-02
 -1      3191 1.62394E+01 8.74434E+01-5.39475E-01 2.98366E+01-3.65083E-01 1.05028E-01
 -1      3192 1.63559E+01 8.70572E+01-2.73622E-01 2.96139E+01-2.33147E-01 8.25128E-02
 -1      3193 1.90888E+01 8.31196E+01-2.21026E-01 3.22792E+01 1.61278E-01-8.31905E-02
 -1      3194 1.89840E+01 8.33137E+01-4.61868E-01 3.24973E+01 2.56552E-01-1.09349E-01
 -1      3195 1.89619E+01 8.35333E+01-6.33613E-01 3.26429E+01 2.58068E-01-9.13448E-02
 -1      3196 1.89703E+01 8.37168E+01-7.28168E-01 3.27367E+01 1.85134E-01-5.68235E-02
 -1      3197 1.89804E+01 8.38193E+01-7.69020E-01 3.27833E+01 6.67760E-02-1.89818E-02
 -1      3198 1.89804E+01 8.38193E+01-7.69020E-01 3.27833E+01-6.67760E-02 1.89818E-02
 -1      3199 1.89703E+01 8.37168E+01-7.28168E-01 3.27367E+01-1.85134E-01 5.68235E-02
 -1      3200 1.89619E+01 8.35333E+01-6.33613E-01 3.26429E+01-2.58068E-01 9.13448E-02
 -1      3201 1.89840E+01 8.33137E+01-4.61868E-01 3.24973E+01-2.56552E-01 1.09349E-01
 -1      3202 1.90888E+01 8.31196E+01-2.21026E-01 3.22792E+01-1.61278E-01 8.31905E-02
 -1      3203 2.19587E+01 7.85440E+01-1.80005E-01 3.44972E+01 1.22186E-01-7.84011E-02
 -1      3204 2.18737E+01 7.86250E+01-4.01754E-01 3.47078E+01 1.95933E-01-1.04284E-01
 -1      3205 2.18580E+01 7.87452E+01-5.52496E-01 3.48425E+01 1.96401E-01-8.81631E-02
 -1      3206 2.18677E+01 7.88546E+01-6.30141E-01 3.49265E+01 1.40032E-01-5.55112E-02
 -1      3207 2.18776E+01 7.89177E+01-6.61681E-01 3.49676E+01 5.03290E-02-1.86803E-02
 -1      3208 2.18776E+01 7.89177E+01-6.61681E-01 3.49676E+01-5.03290E-02 1.86803E-02
 -1      3209 2.18677E+01 7.88546E+01-6.30141E-01 3.49265E+01-1.40032E-01 5.55112E-02
 -1      3210 2.18580E+01 7.87452E+01-5.52496E-01 3.48425E+01-1.96401E-01 8.81631E-02
 -1      3211 2.18737E+01 7.86250E+01-4.01754E-01 3.47078E+01-1.95933E-01 1.04284E-01
 -1      3212 2.19587E+01 7.85440E+01-1.80005E-01 3.44972E+01-1.22186E-01 7.84011E-02
 -1      3213 2.49233E+01 7.35029E+01-1.49543E-01 3.62290E+01 1.02876E-01-6.97865E-02
 -1      3214 2.48593E+01 7.35135E+01-3.58215E-01 3.64291E+01 1.65455E-01-9.27387E-02
 -1      3215 2.48522E+01 7.35738E+01-4.96138E-01 3.65536E+01 1.64616E-01-7.84260E-02
 -1      3216 2.48647E+01 7.36387E+01-5.64141E-01 3.66297E+01 1.16384E-01-4.94686E-02
 -1      3217 2.48754E+01 7.36781E+01-5.90493E-01 3.66664E+01 4.16216E-02-1.66744E-02
 -1      3218 2.48754E+01 7.36781E+01-5.90493E-01 3.66664E+01-4.16216E-02 1.66744E-02
 -1      3219 2.48647E+01 7.36387E+01-5.64141E-01 3.66297E+01-1.16384E-01 4.94686E-02
 -1      3220 2.48522E+01 7.35738E+01-4.96138E-01 3.65536E+01-1.64616E-01 7.84260E-02
 -1      3221 2.48593E+01 7.35135E+01-3.58215E-01 3.64291E+01-1.65455E-01 9.27387E-02
 -1      3222 2.49233E+01 7.35029E+01-1.49543E-01 3.62290E+01-1.02876E-01 6.97865E-02
 -1      3223 2.79404E+01 6.81500E+01-1.26153E-01 3.74575E+01 9.32830E-02-5.90603E-02
 -1      3224 2.78939E+01 6.81130E+01-3.25850E-01 3.76430E+01 1.50073E-01-7.77576E-02
 -1      3225 2.78942E+01 6.81352E+01-4.56591E-01 3.77568E+01 1.48286E-01-6.51610E-02
 -1      3226 2.79095E+01 6.81727E+01-5.20017E-01 3.78256E+01 1.04090E-01-4.08405E-02
 -1      3227 2.79210E+01 6.81976E+01-5.44133E-01 3.78587E+01 3.70720E-02-1.37224E-02
 -1      3228 2.79210E+01 6.81976E+01-5.44133E-01 3.78587E+01-3.70720E-02 1.37224E-02
 -1      3229 2.79095E+01 6.81727E+01-5.20017E-01 3.78256E+01-1.04090E-01 4.08405E-02
 -1      3230 2.78942E+01 6.81352E+01-4.56591E-01 3.77568E+01-1.48286E-01 6.51610E-02
 -1      3231 2.78939E+01 6.81130E+01-3.25850E-01 3.76430E+01-1.50073E-01 7.77576E-02
 -1      3232 2.79404E+01 6.81500E+01-1.26153E-01 3.74575E+01-9.32830E-02 5.90603E-02
 -1      3233 3.09712E+01 6.26173E+01-1.06738E-01 3.81824E+01 8.71519E-02-4.76848E-02
 -1      3234 3.09356E+01 6.25461E+01-2.99932E-01 3.83493E+01 1.40157E-01-6.19002E-02
 -1      3235 3.09398E+01 6.25425E+01-4.26852E-01 3.84510E+01 1.37769E-01-5.10302E-02
 -1      3236 3.09563E+01 6.25621E+01-4.88767E-01 3.85125E+01 9.62158E-02-3.15591E-02
 -1      3237 3.09680E+01 6.25778E+01-5.12443E-01 3.85420E+01 3.41677E-02-1.05264E-02
 -1      3238 3.09680E+01 6.25778E+01-5.12443E-01 3.85420E+01-3.41677E-02 1.05264E-02
 -1      3239 3.09563E+01 6.25621E+01-4.88767E-01 3.85125E+01-9.62158E-02 3.15591E-02
 -1      3240 3.09398E+01 6.25425E+01-4.26852E-01 3.84510E+01-1.37769E-01 5.10302E-02
 -1      3241 3.09356E+01 6.25461E+01-2.99932E-01 3.83493E+01-1.40157E-01 6.19002E-02
 -1      3242 3.09712E+01 6.26173E+01-1.06738E-01 3.81824E+01-8.71519E-02 4.76848E-02
 -1      3243 3.39852E+01 5.70176E+01-8.92738E-02 3.84162E+01 8.11136E-02-3.67719E-02
 -1      3244 3.39510E+01 5.69222E+01-2.77537E-01 3.85614E+01 1.30411E-01-4.71781E-02
 -1      3245 3.39537E+01 5.69010E+01-4.02689E-01 3.86499E+01 1.27620E-01-3.81986E-02
 -1      3246 3.39686E+01 5.69085E+01-4.64955E-01 3.87038E+01 8.87592E-02-2.32377E-02
 -1      3247 3.39794E+01 5.69180E+01-4.89282E-01 3.87298E+01 3.14468E-02-7.67781E-03
 -1      3248 3.39794E+01 5.69180E+01-4.89282E-01 3.87298E+01-3.14468E-02 7.67781E-03
 -1      3249 3.39686E+01 5.69085E+01-4.64955E-01 3.87038E+01-8.87592E-02 2.32377E-02
 -1      3250 3.39537E+01 5.69010E+01-4.02689E-01 3.86499E+01-1.27620E-01 3.81986E-02
 -1      3251 3.39510E+01 5.69222E+01-2.77537E-01 3.85614E+01-1.30411E-01 4.71781E-02
 -1      3252 3.39852E+01 5.70176E+01-8.92738E-02 3.84162E+01-8.11136E-02 3.67719E-02
 -1      3253 3.69631E+01 5.14476E+01-7.27218E-02 3.81813E+01 7.34610E-02-2.72379E-02
 -1      3254 3.69185E+01 5.13373E+01-2.57429E-01 3.83037E+01 1.18130E-01-3.53420E-02
 -1      3255 3.69131E+01 5.13050E+01-3.82473E-01 3.83788E+01 1.14992E-01-2.86256E-02
 -1      3256 3.69228E+01 5.13049E+01-4.46552E-01 3.84253E+01 7.95943E-02-1.73665E-02
 -1      3257 3.69311E+01 5.13105E+01-4.72380E-01 3.84480E+01 2.81255E-02-5.72877E-03
 -1      3258 3.69311E+01 5.13105E+01-4.72380E-01 3.84480E+01-2.81255E-02 5.72877E-03
 -1      3259 3.69228E+01 5.13049E+01-4.46552E-01 3.84253E+01-7.95943E-02 1.73665E-02
 -1      3260 3.69131E+01 5.13050E+01-3.82473E-01 3.83788E+01-1.14992E-01 2.86256E-02
 -1      3261 3.69185E+01 5.13373E+01-2.57429E-01 3.83037E+01-1.18130E-01 3.53420E-02
 -1      3262 3.69631E+01 5.14476E+01-7.27218E-02 3.81813E+01-7.34610E-02 2.72379E-02
 -1      3263 3.99000E+01 4.59892E+01-5.68644E-02 3.75061E+01 6.31915E-02-2.01451E-02
 -1      3264 3.98311E+01 4.58739E+01-2.39797E-01 3.76072E+01 1.01758E-01-2.84771E-02
 -1      3265 3.98101E+01 4.58370E+01-3.66788E-01 3.76706E+01 9.82323E-02-2.46830E-02
 -1      3266 3.98108E+01 4.58336E+01-4.34446E-01 3.77110E+01 6.74757E-02-1.57641E-02
 -1      3267 3.98151E+01 4.58373E+01-4.62783E-01 3.77312E+01 2.37425E-02-5.35516E-03
 -1      3268 3.98151E+01 4.58373E+01-4.62783E-01 3.77312E+01-2.37425E-02 5.35516E-03
 -1      3269 3.98108E+01 4.58336E+01-4.34446E-01 3.77110E+01-6.74757E-02 1.57641E-02
 -1      3270 3.98101E+01 4.58370E+01-3.66788E-01 3.76706E+01-9.82323E-02 2.46830E-02
 -1      3271 3.98311E+01 4.58739E+01-2.39797E-01 3.76072E+01-1.01758E-01 2.84771E-02
 -1      3272 3.99000E+01 4.59892E+01-5.68644E-02 3.75061E+01-6.31915E-02 2.01451E-02
 -1      3273 4.28073E+01 4.07103E+01-4.23176E-02 3.64203E+01 4.93627E-02-1.72682E-02
 -1      3274 4.26986E+01 4.06010E+01-2.26276E-01 3.65059E+01 7.99021E-02-2.99620E-02
 -1      3275 4.26545E+01 4.05670E+01-3.58455E-01 3.65621E+01 7.58973E-02-3.01599E-02
 -1      3276 4.26431E+01 4.05648E+01-4.32463E-01 3.65999E+01 5.13320E-02-2.13167E-02
 -1      3277 4.26425E+01 4.05690E+01-4.64889E-01 3.66193E+01 1.79041E-02-7.62666E-03
 -1      3278 4.26425E+01 4.05690E+01-4.64889E-01 3.66193E+01-1.79041E-02 7.62666E-03
 -1      3279 4.26431E+01 4.05648E+01-4.32463E-01 3.65999E+01-5.13320E-02 2.13167E-02
 -1      3280 4.26545E+01 4.05670E+01-3.58455E-01 3.65621E+01-7.58973E-02 3.01599E-02
 -1      3281 4.26986E+01 4.06010E+01-2.26276E-01 3.65059E+01-7.99021E-02 2.99620E-02
 -1      3282 4.28073E+01 4.07103E+01-4.23176E-02 3.64203E+01-4.93627E-02 1.72682E-02
 -1      3283 4.57121E+01 3.56659E+01-3.08099E-02 3.49497E+01 3.06962E-02-2.20224E-02
 -1      3284 4.55479E+01 3.55752E+01-2.20376E-01 3.50316E+01 5.07456E-02-4.60065E-02
 -1      3285 4.54754E+01 3.55525E+01-3.63146E-01 3.50899E+01 4.61752E-02-5.18573E-02
 -1      3286 4.54517E+01 3.55567E+01-4.48146E-01 3.51314E+01 2.98556E-02-3.91431E-02
 -1      3287 4.54469E+01 3.55639E+01-4.87304E-01 3.51534E+01 1.01362E-02-1.44307E-02
 -1      3288 4.54469E+01 3.55639E+01-4.87304E-01 3.51534E+01-1.01362E-02 1.44307E-02
 -1      3289 4.54517E+01 3.55567E+01-4.48146E-01 3.51314E+01-2.98556E-02 3.91431E-02
 -1      3290 4.54754E+01 3.55525E+01-3.63146E-01 3.50899E+01-4.61752E-02 5.18573E-02
 -1      3291 4.55479E+01 3.55752E+01-2.20376E-01 3.50316E+01-5.07456E-02 4.60065E-02
 -1      3292 4.57121E+01 3.56659E+01-3.08099E-02 3.49497E+01-3.06962E-02 2.20224E-02
 -1      3293 4.86539E+01 3.08985E+01-2.57550E-02 3.31094E+01 5.44484E-03-4.09616E-02
 -1      3294 4.84221E+01 3.08410E+01-2.28302E-01 3.32090E+01 1.19013E-02-8.80768E-02
 -1      3295 4.83231E+01 3.08389E+01-3.90528E-01 3.32854E+01 6.78663E-03-1.02044E-01
 -1      3296 4.82933E+01 3.08555E+01-4.94162E-01 3.33415E+01 1.45315E-03-7.83636E-02
 -1      3297 4.82890E+01 3.08685E+01-5.44404E-01 3.33716E+01-1.28711E-04-2.91105E-02
 -1      3298 4.82890E+01 3.08685E+01-5.44404E-01 3.33716E+01 1.28711E-04 2.91105E-02
 -1      3299 4.82933E+01 3.08555E+01-4.94162E-01 3.33415E+01-1.45315E-03 7.83636E-02
 -1      3300 4.83231E+01 3.08389E+01-3.90528E-01 3.32854E+01-6.78663E-03 1.02044E-01
 -1      3301 4.84221E+01 3.08410E+01-2.28302E-01 3.32090E+01-1.19013E-02 8.80768E-02
 -1      3302 4.86539E+01 3.08985E+01-2.57550E-02 3.31094E+01-5.44484E-03 4.09616E-02
 -1      3303 5.16744E+01 2.64411E+01-3.30759E-02 3.08959E+01-2.82454E-02-8.60129E-02
 -1      3304 5.13758E+01 2.64328E+01-2.59964E-01 3.10488E+01-3.89207E-02-1.76403E-01
 -1      3305 5.12683E+01 2.64615E+01-4.55510E-01 3.11692E+01-4.42524E-02-2.01902E-01
 -1      3306 5.12526E+01 2.64963E+01-5.89727E-01 3.12571E+01-3.51530E-02-1.54512E-01
 -1      3307 5.12612E+01 2.65179E+01-6.57833E-01 3.13040E+01-1.33267E-02-5.73257E-02
 -1      3308 5.12612E+01 2.65179E+01-6.57833E-01 3.13040E+01 1.33267E-02 5.73257E-02
 -1      3309 5.12526E+01 2.64963E+01-5.89727E-01 3.12571E+01 3.51530E-02 1.54512E-01
 -1      3310 5.12683E+01 2.64615E+01-4.55510E-01 3.11692E+01 4.42524E-02 2.01902E-01
 -1      3311 5.13758E+01 2.64328E+01-2.59964E-01 3.10488E+01 3.89207E-02 1.76403E-01
 -1      3312 5.16744E+01 2.64411E+01-3.30759E-02 3.08959E+01 2.82454E-02 8.60129E-02
 -1      3313 5.47969E+01 2.23207E+01-6.20478E-02 2.82789E+01-7.08608E-02-1.77243E-01
 -1      3314 5.44640E+01 2.23778E+01-3.29541E-01 2.85413E+01-1.01504E-01-3.44172E-01
 -1      3315 5.43987E+01 2.24457E+01-5.78407E-01 2.87443E+01-1.06064E-01-3.85355E-01
 -1      3316 5.44430E+01 2.25028E+01-7.60349E-01 2.88886E+01-7.90125E-02-2.92092E-01
 -1      3317 5.44912E+01 2.25347E+01-8.55954E-01 2.89641E+01-2.90497E-02-1.07927E-01
 -1      3318 5.44912E+01 2.25347E+01-8.55954E-01 2.89641E+01 2.90497E-02 1.07927E-01
 -1      3319 5.44430E+01 2.25028E+01-7.60349E-01 2.88886E+01 7.90125E-02 2.92092E-01
 -1      3320 5.43987E+01 2.24457E+01-5.78407E-01 2.87443E+01 1.06064E-01 3.85355E-01
 -1      3321 5.44640E+01 2.23778E+01-3.29541E-01 2.85413E+01 1.01504E-01 3.44172E-01
 -1      3322 5.47969E+01 2.23207E+01-6.20478E-02 2.82789E+01 7.08608E-02 1.77243E-01
 -1      3323 5.79891E+01 1.85648E+01-1.25770E-01 2.51962E+01-1.17737E-01-3.44948E-01
 -1      3324 5.77192E+01 1.86989E+01-4.54186E-01 2.56505E+01-1.67209E-01-6.40133E-01
 -1      3325 5.78061E+01 1.88081E+01-7.81458E-01 2.59880E+01-1.68914E-01-7.00853E-01
 -1      3326 5.79999E+01 1.88860E+01-1.03208E+00 2.62189E+01-1.22534E-01-5.25266E-01
 -1      3327 5.81366E+01 1.89264E+01-1.16684E+00 2.63368E+01-4.44662E-02-1.93123E-01
 -1      3328 5.81366E+01 1.89264E+01-1.16684E+00 2.63368E+01 4.44662E-02 1.93123E-01
 -1      3329 5.79999E+01 1.88860E+01-1.03208E+00 2.62189E+01 1.22534E-01 5.25266E-01
 -1      3330 5.78061E+01 1.88081E+01-7.81458E-01 2.59880E+01 1.68914E-01 7.00853E-01
 -1      3331 5.77192E+01 1.86989E+01-4.54186E-01 2.56505E+01 1.67209E-01 6.40133E-01
 -1      3332 5.79891E+01 1.85648E+01-1.25770E-01 2.51962E+01 1.17737E-01 3.44948E-01
 -1      3333 6.10968E+01 1.52101E+01-2.40252E-01 2.15563E+01-1.51149E-01-6.26970E-01
 -1      3334 6.11068E+01 1.54169E+01-6.48731E-01 2.23119E+01-2.07059E-01-1.12380E+00
 -1      3335 6.15514E+01 1.55532E+01-1.07658E+00 2.28420E+01-2.02366E-01-1.20411E+00
 -1      3336 6.20464E+01 1.56371E+01-1.41379E+00 2.31868E+01-1.43202E-01-8.91645E-01
 -1      3337 6.23516E+01 1.56774E+01-1.59647E+00 2.33577E+01-5.12406E-02-3.25920E-01
 -1      3338 6.23516E+01 1.56774E+01-1.59647E+00 2.33577E+01 5.12406E-02 3.25920E-01
 -1      3339 6.20464E+01 1.56371E+01-1.41379E+00 2.31868E+01 1.43202E-01 8.91645E-01
 -1      3340 6.15514E+01 1.55532E+01-1.07658E+00 2.28420E+01 2.02366E-01 1.20411E+00
 -1      3341 6.11068E+01 1.54169E+01-6.48731E-01 2.23119E+01 2.07059E-01 1.12380E+00
 -1      3342 6.10968E+01 1.52101E+01-2.40252E-01 2.15563E+01 1.51149E-01 6.26970E-01
 -1      3343 6.37258E+01 1.23042E+01-4.25555E-01 1.72648E+01-1.25534E-01-1.05397E+00
 -1      3344 6.44325E+01 1.25425E+01-9.13784E-01 1.84415E+01-1.50989E-01-1.83758E+00
 -1      3345 6.55670E+01 1.26565E+01-1.44169E+00 1.92030E+01-1.36350E-01-1.92780E+00
 -1      3346 6.65878E+01 1.27084E+01-1.85664E+00 1.96657E+01-9.00832E-02-1.40715E+00
 -1      3347 6.71689E+01 1.27260E+01-2.08195E+00 1.98842E+01-3.11454E-02-5.10804E-01
 -1      3348 6.71689E+01 1.27260E+01-2.08195E+00 1.98842E+01 3.11454E-02 5.10804E-01
 -1      3349 6.65878E+01 1.27084E+01-1.85664E+00 1.96657E+01 9.00832E-02 1.40715E+00
 -1      3350 6.55670E+01 1.26565E+01-1.44169E+00 1.92030E+01 1.36350E-01 1.92780E+00
 -1      3351 6.44325E+01 1.25425E+01-9.13784E-01 1.84415E+01 1.50989E-01 1.83758E+00
 -1      3352 6.37258E+01 1.23042E+01-4.25555E-01 1.72648E+01 1.25534E-01 1.05397E+00
 -1      3353 6.50276E+01 9.88522E+00-7.06394E-01 1.23013E+01 5.26347E-02-1.59958E+00
 -1      3354 6.71151E+01 1.00252E+01-1.23372E+00 1.39790E+01 1.40401E-01-2.73791E+00
 -1      3355 6.94188E+01 1.00199E+01-1.77447E+00 1.49400E+01 1.63319E-01-2.79590E+00
 -1      3356 7.12062E+01 9.95467E+00-2.19667E+00 1.54558E+01 1.29418E-01-2.00169E+00
 -1      3357 7.21646E+01 9.91007E+00-2.41013E+00 1.56804E+01 4.96253E-02-7.18390E-01
 -1      3358 7.21646E+01 9.91007E+00-2.41013E+00 1.56804E+01-4.96253E-02 7.18390E-01
 -1      3359 7.12062E+01 9.95467E+00-2.19667E+00 1.54558E+01-1.29418E-01 2.00169E+00
 -1      3360 6.94188E+01 1.00199E+01-1.77447E+00 1.49400E+01-1.63319E-01 2.79590E+00
 -1      3361 6.71151E+01 1.00252E+01-1.23372E+00 1.39790E+01-1.40401E-01 2.73791E+00
 -1      3362 6.50276E+01 9.88522E+00-7.06394E-01 1.23013E+01-5.26347E-02 1.59958E+00
 -1      3363 6.30884E+01 7.75773E+00-1.22365E+00 6.94239E+00 5.64477E-01-2.10975E+00
 -1      3364 6.77251E+01 7.59818E+00-1.57253E+00 9.02338E+00 8.97330E-01-3.51662E+00
 -1      3365 7.16147E+01 7.23247E+00-1.94523E+00 9.96520E+00 8.95744E-01-3.45959E+00
 -1      3366 7.43001E+01 6.95002E+00-2.09641E+00 1.03599E+01 6.47712E-01-2.37950E+00
 -1      3367 7.56005E+01 6.77929E+00-2.15056E+00 1.04900E+01 2.33323E-01-8.35533E-01
 -1      3368 7.56005E+01 6.77929E+00-2.15056E+00 1.04900E+01-2.33323E-01 8.35533E-01
 -1      3369 7.43001E+01 6.95002E+00-2.09641E+00 1.03599E+01-6.47712E-01 2.37950E+00
 -1      3370 7.16147E+01 7.23247E+00-1.94523E+00 9.96520E+00-8.95744E-01 3.45959E+00
 -1      3371 6.77251E+01 7.59818E+00-1.57253E+00 9.02338E+00-8.97330E-01 3.51662E+00
 -1      3372 6.30884E+01 7.75773E+00-1.22365E+00 6.94239E+00-5.64477E-01 2.10975E+00
 -1      3373 5.42087E+01 5.25096E+00-2.09739E+00 2.47074E+00 1.62506E+00-2.02635E+00
 -1      3374 6.21547E+01 3.88140E+00-2.39931E+00 4.38548E+00 2.42113E+00-3.44882E+00
 -1      3375 6.80411E+01 3.10027E+00-1.85221E+00 4.85705E+00 2.25216E+00-3.01676E+00
 -1      3376 7.12130E+01 2.45068E+00-1.24888E+00 4.82288E+00 1.51674E+00-1.85800E+00
 -1      3377 7.25435E+01 2.14634E+00-7.39729E-01 4.74013E+00 5.31744E-01-6.01276E-01
 -1      3378 7.25435E+01 2.14634E+00-7.39729E-01 4.74013E+00-5.31744E-01 6.01276E-01
 -1      3379 7.12130E+01 2.45068E+00-1.24888E+00 4.82288E+00-1.51674E+00 1.85800E+00
 -1      3380 6.80411E+01 3.10027E+00-1.85221E+00 4.85705E+00-2.25216E+00 3.01676E+00
 -1      3381 6.21547E+01 3.88140E+00-2.39931E+00 4.38548E+00-2.42113E+00 3.44882E+00
 -1      3382 5.42087E+01 5.25096E+00-2.09739E+00 2.47074E+00-1.62506E+00 2.02635E+00
 -1      3383 2.63972E+01-3.93463E+00-6.13778E+00 2.48103E+00 3.91284E+00-9.20642E-01
 -1      3384 4.15635E+01-5.21560E+00-4.21794E+00 2.63074E+00 4.73905E+00-1.05687E+00
 -1      3385 4.84070E+01-7.06779E+00-2.72086E+00 1.74137E+00 3.88873E+00-2.53618E-01
 -1      3386 5.12133E+01-7.75875E+00-2.05318E-01 1.15424E+00 2.48216E+00 4.59706E-01
 -1      3387 5.21354E+01-7.94932E+00 1.50533E+00 9.24424E-01 8.46566E-01 2.81355E-01
 -1      3388 5.21354E+01-7.94932E+00 1.50533E+00 9.24424E-01-8.46566E-01-2.81355E-01
 -1      3389 5.12133E+01-7.75875E+00-2.05318E-01 1.15424E+00-2.48216E+00-4.59706E-01
 -1      3390 4.84070E+01-7.06779E+00-2.72086E+00 1.74137E+00-3.88873E+00 2.53618E-01
 -1      3391 4.15635E+01-5.21560E+00-4.21794E+00 2.63074E+00-4.73905E+00 1.05687E+00
 -1      3392 2.63972E+01-3.93463E+00-6.13778E+00 2.48103E+00-3.91284E+00 9.20642E-01
 -1      3393-2.96833E+01-2.70311E+01-6.75821E+00 2.46350E+01 5.48279E+00 7.25261E-01
 -1      3394-1.22893E+01-3.53234E+01-1.08592E+01 1.92741E+01 6.50246E+00 1.75250E+00
 -1      3395-5.98399E+00-3.60544E+01-7.26937E+00 1.71432E+01 4.86563E+00 4.44969E+00
 -1      3396-4.37386E+00-3.57573E+01-3.03513E+00 1.68061E+01 2.82450E+00 4.03923E+00
 -1      3397-3.93771E+00-3.53427E+01-3.03690E-01 1.68419E+01 8.89690E-01 1.56716E+00
 -1      3398-3.93771E+00-3.53427E+01-3.03690E-01 1.68419E+01-8.89690E-01-1.56716E+00
 -1      3399-4.37386E+00-3.57573E+01-3.03513E+00 1.68061E+01-2.82450E+00-4.03923E+00
 -1      3400-5.98399E+00-3.60544E+01-7.26937E+00 1.71432E+01-4.86563E+00-4.44969E+00
 -1      3401-1.22893E+01-3.53234E+01-1.08592E+01 1.92741E+01-6.50246E+00-1.75250E+00
 -1      3402-2.96833E+01-2.70311E+01-6.75821E+00 2.46350E+01-5.48279E+00-7.25261E-01
 -1      3403-1.93561E+01-1.09018E+02 1.41513E+01 4.91107E+01 1.29171E+01-1.54038E+01
 -1      3404 8.60584E-01-9.36825E+01 1.71052E+01 3.94895E+01 7.42131E+00-1.91149E-02
 -1      3405 2.70034E+00-9.02784E+01 1.52583E+01 3.94845E+01 4.59809E+00 5.74995E+00
 -1      3406 3.95567E+00-8.71337E+01 1.81457E+01 4.00671E+01 1.94216E+00 5.03028E+00
 -1      3407 4.29674E+00-8.57720E+01 1.94276E+01 4.04322E+01 5.67993E-01 1.84656E+00
 -1      3408 4.29674E+00-8.57720E+01 1.94276E+01 4.04322E+01-5.67993E-01-1.84656E+00
 -1      3409 3.95567E+00-8.71337E+01 1.81457E+01 4.00671E+01-1.94216E+00-5.03028E+00
 -1      3410 2.70034E+00-9.02784E+01 1.52583E+01 3.94845E+01-4.59809E+00-5.74995E+00
 -1      3411 8.60584E-01-9.36825E+01 1.71052E+01 3.94895E+01-7.42131E+00 1.91149E-02
 -1      3412-1.93561E+01-1.09018E+02 1.41513E+01 4.91107E+01-1.29171E+01 1.54038E+01
 -1      3413 1.56483E+01 8.21337E+01 7.65217E-01 6.89813E+00-5.91965E+00-6.38442E-02
 -1      3414 1.80791E+01 8.23013E+01 9.53108E+00 6.26685E+00-7.57767E+00-5.56916E-02
 -1      3415 1.91450E+01 8.22496E+01 1.39472E+01 5.86388E+00-5.74012E+00-3.58719E-02
 -1      3416 1.96031E+01 8.21433E+01 1.61190E+01 5.61992E+00-3.49458E+00-2.18435E-02
 -1      3417 1.97833E+01 8.20864E+01 1.70375E+01 5.50328E+00-1.16746E+00-7.85025E-03
 -1      3418 1.97833E+01 8.20864E+01 1.70375E+01 5.50328E+00 1.16746E+00 7.85025E-03
 -1      3419 1.96031E+01 8.21433E+01 1.61190E+01 5.61992E+00 3.49458E+00 2.18435E-02
 -1      3420 1.91450E+01 8.22496E+01 1.39472E+01 5.86388E+00 5.74012E+00 3.58719E-02
 -1      3421 1.80791E+01 8.23013E+01 9.53108E+00 6.26685E+00 7.57767E+00 5.56916E-02
 -1      3422 1.56483E+01 8.21337E+01 7.65217E-01 6.89813E+00 5.91965E+00 6.38442E-02
 -1      3423 1.25697E+01 8.54290E+01 1.52921E+00 9.97686E+00-9.93440E-01-1.14672E-01
 -1      3424 1.21195E+01 8.56873E+01 1.33243E+00 9.47398E+00-1.76128E+00-9.83148E-02
 -1      3425 1.25010E+01 8.59394E+01 3.66120E+00 9.17411E+00-2.11502E+00-7.82563E-02
 -1      3426 1.28019E+01 8.60432E+01 5.46948E+00 9.00125E+00-1.52376E+00-4.74394E-02
 -1      3427 1.29476E+01 8.60750E+01 6.37880E+00 8.92156E+00-5.44599E-01-1.58994E-02
 -1      3428 1.29476E+01 8.60750E+01 6.37880E+00 8.92156E+00 5.44599E-01 1.58994E-02
 -1      3429 1.28019E+01 8.60432E+01 5.46948E+00 9.00125E+00 1.52376E+00 4.74394E-02
 -1      3430 1.25010E+01 8.59394E+01 3.66120E+00 9.17411E+00 2.11502E+00 7.82563E-02
 -1      3431 1.21195E+01 8.56873E+01 1.33243E+00 9.47398E+00 1.76128E+00 9.83148E-02
 -1      3432 1.25697E+01 8.54290E+01 1.52921E+00 9.97686E+00 9.93440E-01 1.14672E-01
 -1      3433 1.15487E+01 8.25984E+01 3.99113E-03 1.31498E+01 5.49715E-01-2.40410E-02
 -1      3434 1.20995E+01 8.55360E+01 4.72656E-01 1.29842E+01 4.78694E-01-2.36685E-02
 -1      3435 1.21072E+01 8.66254E+01 6.86652E-01 1.28473E+01 1.63691E-01-3.49579E-02
 -1      3436 1.21581E+01 8.71343E+01 1.21636E+00 1.27669E+01-5.27732E-02-3.17336E-02
 -1      3437 1.21953E+01 8.73385E+01 1.57523E+00 1.27304E+01-4.48098E-02-1.22674E-02
 -1      3438 1.21953E+01 8.73385E+01 1.57523E+00 1.27304E+01 4.48098E-02 1.22674E-02
 -1      3439 1.21581E+01 8.71343E+01 1.21636E+00 1.27669E+01 5.27732E-02 3.17336E-02
 -1      3440 1.21072E+01 8.66254E+01 6.86652E-01 1.28473E+01-1.63691E-01 3.49579E-02
 -1      3441 1.20995E+01 8.55360E+01 4.72656E-01 1.29842E+01-4.78694E-01 2.36685E-02
 -1      3442 1.15487E+01 8.25984E+01 3.99113E-03 1.31498E+01-5.49715E-01 2.40410E-02
 -1      3443 1.26518E+01 8.14388E+01-2.70100E-01 1.58574E+01 6.38780E-01-9.26405E-03
 -1      3444 1.28020E+01 8.32643E+01-2.73316E-01 1.58647E+01 8.93704E-01 1.34945E-03
 -1      3445 1.29206E+01 8.46431E+01-2.87468E-01 1.58810E+01 7.61268E-01-1.40184E-02
 -1      3446 1.29398E+01 8.53977E+01-3.29944E-01 1.58896E+01 4.77323E-01-1.65541E-02
 -1      3447 1.29459E+01 8.57327E+01-3.20014E-01 1.58939E+01 1.57477E-01-7.26642E-03
 -1      3448 1.29459E+01 8.57327E+01-3.20014E-01 1.58939E+01-1.57477E-01 7.26642E-03
 -1      3449 1.29398E+01 8.53977E+01-3.29944E-01 1.58896E+01-4.77323E-01 1.65541E-02
 -1      3450 1.29206E+01 8.46431E+01-2.87468E-01 1.58810E+01-7.61268E-01 1.40184E-02
 -1      3451 1.28020E+01 8.32643E+01-2.73316E-01 1.58647E+01-8.93704E-01-1.34945E-03
 -1      3452 1.26518E+01 8.14388E+01-2.70100E-01 1.58574E+01-6.38780E-01 9.26405E-03
 -1      3453 1.41489E+01 8.01348E+01-3.77280E-01 1.82017E+01 4.78070E-01-1.13567E-02
 -1      3454 1.41574E+01 8.12565E+01-4.31531E-01 1.83084E+01 7.12332E-01-9.87018E-03
 -1      3455 1.41907E+01 8.21939E+01-5.82432E-01 1.83936E+01 6.87626E-01-2.23709E-02
 -1      3456 1.42222E+01 8.28516E+01-7.13458E-01 1.84535E+01 4.76935E-01-2.07892E-02
 -1      3457 1.42331E+01 8.31742E+01-7.92739E-01 1.84834E+01 1.69190E-01-8.10385E-03
 -1      3458 1.42331E+01 8.31742E+01-7.92739E-01 1.84834E+01-1.69190E-01 8.10385E-03
 -1      3459 1.42222E+01 8.28516E+01-7.13458E-01 1.84535E+01-4.76935E-01 2.07892E-02
 -1      3460 1.41907E+01 8.21939E+01-5.82432E-01 1.83936E+01-6.87626E-01 2.23709E-02
 -1      3461 1.41574E+01 8.12565E+01-4.31531E-01 1.83084E+01-7.12332E-01 9.87018E-03
 -1      3462 1.41489E+01 8.01348E+01-3.77280E-01 1.82017E+01-4.78070E-01 1.13567E-02
 -1      3463 1.57819E+01 7.83788E+01-3.68760E-01 2.03797E+01 2.98375E-01-1.78220E-02
 -1      3464 1.57212E+01 7.90161E+01-4.20630E-01 2.05410E+01 4.64057E-01-2.46592E-02
 -1      3465 1.57212E+01 7.96016E+01-5.57151E-01 2.06586E+01 4.68821E-01-3.77815E-02
 -1      3466 1.57343E+01 8.00340E+01-6.91459E-01 2.07368E+01 3.38640E-01-3.13119E-02
 -1      3467 1.57451E+01 8.02640E+01-7.67635E-01 2.07763E+01 1.22427E-01-1.18528E-02
 -1      3468 1.57451E+01 8.02640E+01-7.67635E-01 2.07763E+01-1.22427E-01 1.18528E-02
 -1      3469 1.57343E+01 8.00340E+01-6.91459E-01 2.07368E+01-3.38640E-01 3.13119E-02
 -1      3470 1.57212E+01 7.96016E+01-5.57151E-01 2.06586E+01-4.68821E-01 3.77815E-02
 -1      3471 1.57212E+01 7.90161E+01-4.20630E-01 2.05410E+01-4.64057E-01 2.46592E-02
 -1      3472 1.57819E+01 7.83788E+01-3.68760E-01 2.03797E+01-2.98375E-01 1.78220E-02
 -1      3473 1.74759E+01 7.60349E+01-3.35057E-01 2.24186E+01 1.71198E-01-2.14106E-02
 -1      3474 1.74043E+01 7.63907E+01-3.58703E-01 2.26094E+01 2.73653E-01-3.45469E-02
 -1      3475 1.73918E+01 7.67308E+01-4.60478E-01 2.27404E+01 2.87204E-01-4.82626E-02
 -1      3476 1.73979E+01 7.69919E+01-5.63994E-01 2.28241E+01 2.12195E-01-3.90615E-02
 -1      3477 1.74046E+01 7.71326E+01-6.24828E-01 2.28652E+01 7.76790E-02-1.46469E-02
 -1      3478 1.74046E+01 7.71326E+01-6.24828E-01 2.28652E+01-7.76790E-02 1.46469E-02
 -1      3479 1.73979E+01 7.69919E+01-5.63994E-01 2.28241E+01-2.12195E-01 3.90615E-02
 -1      3480 1.73918E+01 7.67308E+01-4.60478E-01 2.27404E+01-2.87204E-01 4.82626E-02
 -1      3481 1.74043E+01 7.63907E+01-3.58703E-01 2.26094E+01-2.73653E-01 3.45469E-02
 -1      3482 1.74759E+01 7.60349E+01-3.35057E-01 2.24186E+01-1.71198E-01 2.14106E-02
 -1      3483 1.92394E+01 7.31324E+01-3.00420E-01 2.42844E+01 9.52996E-02-2.14981E-02
 -1      3484 1.91826E+01 7.33260E+01-3.00653E-01 2.44898E+01 1.57246E-01-3.72010E-02
 -1      3485 1.91744E+01 7.35179E+01-3.70621E-01 2.46255E+01 1.71678E-01-5.14968E-02
 -1      3486 1.91805E+01 7.36675E+01-4.47067E-01 2.47093E+01 1.29657E-01-4.15917E-02
 -1      3487 1.91866E+01 7.37493E+01-4.92323E-01 2.47497E+01 4.78814E-02-1.56118E-02
 -1      3488 1.91866E+01 7.37493E+01-4.92323E-01 2.47497E+01-4.78814E-02 1.56118E-02
 -1      3489 1.91805E+01 7.36675E+01-4.47067E-01 2.47093E+01-1.29657E-01 4.15917E-02
 -1      3490 1.91744E+01 7.35179E+01-3.70621E-01 2.46255E+01-1.71678E-01 5.14968E-02
 -1      3491 1.91826E+01 7.33260E+01-3.00653E-01 2.44898E+01-1.57246E-01 3.72010E-02
 -1      3492 1.92394E+01 7.31324E+01-3.00420E-01 2.42844E+01-9.52996E-02 2.14981E-02
 -1      3493 2.10814E+01 6.97494E+01-2.72994E-01 2.59260E+01 5.51258E-02-1.84236E-02
 -1      3494 2.10494E+01 6.98486E+01-2.58064E-01 2.61359E+01 9.45353E-02-3.39501E-02
 -1      3495 2.10528E+01 6.99535E+01-3.06975E-01 2.62712E+01 1.08345E-01-4.84514E-02
 -1      3496 2.10638E+01 7.00370E+01-3.64663E-01 2.63529E+01 8.36404E-02-3.95609E-02
 -1      3497 2.10715E+01 7.00833E+01-3.99234E-01 2.63917E+01 3.11595E-02-1.49104E-02
 -1      3498 2.10715E+01 7.00833E+01-3.99234E-01 2.63917E+01-3.11595E-02 1.49104E-02
 -1      3499 2.10638E+01 7.00370E+01-3.64663E-01 2.63529E+01-8.36404E-02 3.95609E-02
 -1      3500 2.10528E+01 6.99535E+01-3.06975E-01 2.62712E+01-1.08345E-01 4.84514E-02
 -1      3501 2.10494E+01 6.98486E+01-2.58064E-01 2.61359E+01-9.45353E-02 3.39501E-02
 -1      3502 2.10814E+01 6.97494E+01-2.72994E-01 2.59260E+01-5.51258E-02 1.84236E-02
 -1      3503 2.30008E+01 6.59772E+01-2.52295E-01 2.72957E+01 3.53344E-02-1.31927E-02
 -1      3504 2.29946E+01 6.60173E+01-2.29133E-01 2.75021E+01 6.34757E-02-2.67145E-02
 -1      3505 2.30112E+01 6.60701E+01-2.65639E-01 2.76331E+01 7.66904E-02-4.11507E-02
 -1      3506 2.30284E+01 6.61149E+01-3.12096E-01 2.77112E+01 6.04495E-02-3.43662E-02
 -1      3507 2.30386E+01 6.61404E+01-3.40176E-01 2.77479E+01 2.26793E-02-1.30552E-02
 -1      3508 2.30386E+01 6.61404E+01-3.40176E-01 2.77479E+01-2.26793E-02 1.30552E-02
 -1      3509 2.30284E+01 6.61149E+01-3.12096E-01 2.77112E+01-6.04495E-02 3.43662E-02
 -1      3510 2.30112E+01 6.60701E+01-2.65639E-01 2.76331E+01-7.66904E-02 4.11507E-02
 -1      3511 2.29946E+01 6.60173E+01-2.29133E-01 2.75021E+01-6.34757E-02 2.67145E-02
 -1      3512 2.30008E+01 6.59772E+01-2.52295E-01 2.72957E+01-3.53344E-02 1.31927E-02
 -1      3513 2.49871E+01 6.19032E+01-2.36189E-01 2.83549E+01 2.54924E-02-6.73080E-03
 -1      3514 2.50023E+01 6.19030E+01-2.09118E-01 2.85512E+01 4.81999E-02-1.72800E-02
 -1      3515 2.50299E+01 6.19230E+01-2.38728E-01 2.86748E+01 6.12408E-02-3.14586E-02
 -1      3516 2.50524E+01 6.19443E+01-2.78776E-01 2.87479E+01 4.91242E-02-2.73812E-02
 -1      3517 2.50646E+01 6.19574E+01-3.03156E-01 2.87820E+01 1.85343E-02-1.05395E-02
 -1      3518 2.50646E+01 6.19574E+01-3.03156E-01 2.87820E+01-1.85343E-02 1.05395E-02
 -1      3519 2.50524E+01 6.19443E+01-2.78776E-01 2.87479E+01-4.91242E-02 2.73812E-02
 -1      3520 2.50299E+01 6.19230E+01-2.38728E-01 2.86748E+01-6.12408E-02 3.14586E-02
 -1      3521 2.50023E+01 6.19030E+01-2.09118E-01 2.85512E+01-4.81999E-02 1.72800E-02
 -1      3522 2.49871E+01 6.19032E+01-2.36189E-01 2.83549E+01-2.54924E-02 6.73080E-03
 -1      3523 2.70242E+01 5.76078E+01-2.22925E-01 2.90747E+01 1.95975E-02 2.83356E-04
 -1      3524 2.70533E+01 5.75790E+01-1.94266E-01 2.92560E+01 3.93897E-02-6.92045E-03
 -1      3525 2.70872E+01 5.75775E+01-2.19964E-01 2.93695E+01 5.25901E-02-2.07729E-02
 -1      3526 2.71123E+01 5.75840E+01-2.56285E-01 2.94364E+01 4.28697E-02-1.96541E-02
 -1      3527 2.71255E+01 5.75896E+01-2.78528E-01 2.94677E+01 1.62564E-02-7.75147E-03
 -1      3528 2.71255E+01 5.75896E+01-2.78528E-01 2.94677E+01-1.62564E-02 7.75147E-03
 -1      3529 2.71123E+01 5.75840E+01-2.56285E-01 2.94364E+01-4.28697E-02 1.96541E-02
 -1      3530 2.70872E+01 5.75775E+01-2.19964E-01 2.93695E+01-5.25901E-02 2.07729E-02
 -1      3531 2.70533E+01 5.75790E+01-1.94266E-01 2.92560E+01-3.93897E-02 6.92045E-03
 -1      3532 2.70242E+01 5.76078E+01-2.22925E-01 2.90747E+01-1.95975E-02-2.83356E-04
 -1      3533 2.90944E+01 5.31644E+01-2.11675E-01 2.94339E+01 1.45973E-02 7.45460E-03
 -1      3534 2.91275E+01 5.31167E+01-1.82515E-01 2.95976E+01 3.22246E-02 3.56815E-03
 -1      3535 2.91613E+01 5.31015E+01-2.05779E-01 2.96997E+01 4.57711E-02-1.00229E-02
 -1      3536 2.91853E+01 5.30991E+01-2.39744E-01 2.97599E+01 3.80319E-02-1.19140E-02
 -1      3537 2.91977E+01 5.31002E+01-2.60668E-01 2.97880E+01 1.45105E-02-4.96436E-03
 -1      3538 2.91977E+01 5.31002E+01-2.60668E-01 2.97880E+01-1.45105E-02 4.96436E-03
 -1      3539 2.91853E+01 5.30991E+01-2.39744E-01 2.97599E+01-3.80319E-02 1.19140E-02
 -1      3540 2.91613E+01 5.31015E+01-2.05779E-01 2.96997E+01-4.57711E-02 1.00229E-02
 -1      3541 2.91275E+01 5.31167E+01-1.82515E-01 2.95976E+01-3.22246E-02-3.56815E-03
 -1      3542 2.90944E+01 5.31644E+01-2.11675E-01 2.94339E+01-1.45973E-02-7.45460E-03
 -1      3543 3.11800E+01 4.86403E+01-2.02492E-01 2.94169E+01 9.03942E-03 1.45679E-02
 -1      3544 3.12055E+01 4.85834E+01-1.73316E-01 2.95631E+01 2.44089E-02 1.36652E-02
 -1      3545 3.12317E+01 4.85618E+01-1.94931E-01 2.96542E+01 3.83829E-02 1.11296E-04
 -1      3546 3.12501E+01 4.85551E+01-2.27327E-01 2.97082E+01 3.28232E-02-4.72500E-03
 -1      3547 3.12597E+01 4.85541E+01-2.47415E-01 2.97335E+01 1.26381E-02-2.39568E-03
 -1      3548 3.12597E+01 4.85541E+01-2.47415E-01 2.97335E+01-1.26381E-02 2.39568E-03
 -1      3549 3.12501E+01 4.85551E+01-2.27327E-01 2.97082E+01-3.28232E-02 4.72500E-03
 -1      3550 3.12317E+01 4.85618E+01-1.94931E-01 2.96542E+01-3.83829E-02-1.11296E-04
 -1      3551 3.12055E+01 4.85834E+01-1.73316E-01 2.95631E+01-2.44089E-02-1.36652E-02
 -1      3552 3.11800E+01 4.86403E+01-2.02492E-01 2.94169E+01-9.03942E-03-1.45679E-02
 -1      3553 3.32638E+01 4.40978E+01-1.96283E-01 2.90103E+01 2.16543E-03 2.13835E-02
 -1      3554 3.32686E+01 4.40422E+01-1.67421E-01 2.91428E+01 1.47898E-02 2.27575E-02
 -1      3555 3.32788E+01 4.40214E+01-1.88095E-01 2.92261E+01 2.92328E-02 8.80940E-03
 -1      3556 3.32868E+01 4.40151E+01-2.19679E-01 2.92759E+01 2.63550E-02 1.22204E-03
 -1      3557 3.32914E+01 4.40142E+01-2.39409E-01 2.92995E+01 1.03113E-02-3.13192E-04
 -1      3558 3.32914E+01 4.40142E+01-2.39409E-01 2.92995E+01-1.03113E-02 3.13192E-04
 -1      3559 3.32868E+01 4.40151E+01-2.19679E-01 2.92759E+01-2.63550E-02-1.22204E-03
 -1      3560 3.32788E+01 4.40214E+01-1.88095E-01 2.92261E+01-2.92328E-02-8.80940E-03
 -1      3561 3.32686E+01 4.40422E+01-1.67421E-01 2.91428E+01-1.47898E-02-2.27575E-02
 -1      3562 3.32638E+01 4.40978E+01-1.96283E-01 2.90103E+01-2.16543E-03-2.13835E-02
 -1      3563 3.53267E+01 3.95949E+01-1.94967E-01 2.81995E+01-6.61508E-03 2.72821E-02
 -1      3564 3.52969E+01 3.95520E+01-1.67001E-01 2.83271E+01 2.55025E-03 2.95372E-02
 -1      3565 3.52828E+01 3.95396E+01-1.87922E-01 2.84092E+01 1.75260E-02 1.44707E-02
 -1      3566 3.52761E+01 3.95385E+01-2.19938E-01 2.84594E+01 1.80542E-02 4.63243E-03
 -1      3567 3.52738E+01 3.95400E+01-2.40083E-01 2.84835E+01 7.32185E-03 7.89092E-04
 -1      3568 3.52738E+01 3.95400E+01-2.40083E-01 2.84835E+01-7.32185E-03-7.89092E-04
 -1      3569 3.52761E+01 3.95385E+01-2.19938E-01 2.84594E+01-1.80542E-02-4.63243E-03
 -1      3570 3.52828E+01 3.95396E+01-1.87922E-01 2.84092E+01-1.75260E-02-1.44707E-02
 -1      3571 3.52969E+01 3.95520E+01-1.67001E-01 2.83271E+01-2.55025E-03-2.95372E-02
 -1      3572 3.53267E+01 3.95949E+01-1.94967E-01 2.81995E+01 6.61508E-03-2.72821E-02
 -1      3573 3.73415E+01 3.51867E+01-2.01950E-01 2.69648E+01-1.79565E-02 3.06509E-02
 -1      3574 3.72639E+01 3.51684E+01-1.76193E-01 2.71035E+01-1.31379E-02 3.09889E-02
 -1      3575 3.72192E+01 3.51726E+01-1.99712E-01 2.71959E+01 2.52516E-03 1.36574E-02
 -1      3576 3.71956E+01 3.51815E+01-2.34524E-01 2.72541E+01 7.42085E-03 2.82621E-03
 -1      3577 3.71860E+01 3.51877E+01-2.56530E-01 2.72825E+01 3.49331E-03-9.51926E-05
 -1      3578 3.71860E+01 3.51877E+01-2.56530E-01 2.72825E+01-3.49331E-03 9.51926E-05
 -1      3579 3.71956E+01 3.51815E+01-2.34524E-01 2.72541E+01-7.42085E-03-2.82621E-03
 -1      3580 3.72192E+01 3.51726E+01-1.99712E-01 2.71959E+01-2.52516E-03-1.36574E-02
 -1      3581 3.72639E+01 3.51684E+01-1.76193E-01 2.71035E+01 1.31379E-02-3.09889E-02
 -1      3582 3.73415E+01 3.51867E+01-2.01950E-01 2.69648E+01 1.79565E-02-3.06509E-02
 -1      3583 3.92609E+01 3.09282E+01-2.22952E-01 2.52777E+01-3.24917E-02 2.78542E-02
 -1      3584 3.91269E+01 3.09461E+01-2.02145E-01 2.54531E+01-3.29567E-02 2.07376E-02
 -1      3585 3.90513E+01 3.09743E+01-2.32757E-01 2.55745E+01-1.62624E-02-5.89784E-04
 -1      3586 3.90139E+01 3.09977E+01-2.74733E-01 2.56526E+01-5.82179E-03-9.48610E-03
 -1      3587 3.89997E+01 3.10106E+01-3.01235E-01 2.56912E+01-1.26128E-03-4.92989E-03
 -1      3588 3.89997E+01 3.10106E+01-3.01235E-01 2.56912E+01 1.26128E-03 4.92989E-03
 -1      3589 3.90139E+01 3.09977E+01-2.74733E-01 2.56526E+01 5.82179E-03 9.48610E-03
 -1      3590 3.90513E+01 3.09743E+01-2.32757E-01 2.55745E+01 1.62624E-02 5.89784E-04
 -1      3591 3.91269E+01 3.09461E+01-2.02145E-01 2.54531E+01 3.29567E-02-2.07376E-02
 -1      3592 3.92609E+01 3.09282E+01-2.22952E-01 2.52777E+01 3.24917E-02-2.78542E-02
 -1      3593 4.09951E+01 2.68779E+01-2.67271E-01 2.30992E+01-5.01912E-02 1.16860E-02
 -1      3594 4.08091E+01 2.69414E+01-2.56530E-01 2.33503E+01-5.64229E-02-1.33752E-02
 -1      3595 4.07163E+01 2.69989E+01-3.02198E-01 2.35281E+01-3.80126E-02-4.11416E-02
 -1      3596 4.06794E+01 2.70394E+01-3.58900E-01 2.36434E+01-2.09265E-02-4.19028E-02
 -1      3597 4.06693E+01 2.70602E+01-3.94401E-01 2.37005E+01-6.64446E-03-1.72451E-02
 -1      3598 4.06693E+01 2.70602E+01-3.94401E-01 2.37005E+01 6.64446E-03 1.72451E-02
 -1      3599 4.06794E+01 2.70394E+01-3.58900E-01 2.36434E+01 2.09265E-02 4.19028E-02
 -1      3600 4.07163E+01 2.69989E+01-3.02198E-01 2.35281E+01 3.80126E-02 4.11416E-02
 -1      3601 4.08091E+01 2.69414E+01-2.56530E-01 2.33503E+01 5.64229E-02 1.33752E-02
 -1      3602 4.09951E+01 2.68779E+01-2.67271E-01 2.30992E+01 5.01912E-02-1.16860E-02
 -1      3603 4.23740E+01 2.31038E+01-3.49420E-01 2.03828E+01-6.85998E-02-3.05138E-02
 -1      3604 4.21696E+01 2.32160E+01-3.57274E-01 2.07657E+01-7.91981E-02-9.21035E-02
 -1      3605 4.21005E+01 2.33024E+01-4.30903E-01 2.10369E+01-5.78448E-02-1.29415E-01
 -1      3606 4.20996E+01 2.33585E+01-5.14316E-01 2.12116E+01-3.41192E-02-1.10109E-01
 -1      3607 4.21139E+01 2.33859E+01-5.65898E-01 2.12974E+01-1.12431E-02-4.27628E-02
 -1      3608 4.21139E+01 2.33859E+01-5.65898E-01 2.12974E+01 1.12431E-02 4.27628E-02
 -1      3609 4.20996E+01 2.33585E+01-5.14316E-01 2.12116E+01 3.41192E-02 1.10109E-01
 -1      3610 4.21005E+01 2.33024E+01-4.30903E-01 2.10369E+01 5.78448E-02 1.29415E-01
 -1      3611 4.21696E+01 2.32160E+01-3.57274E-01 2.07657E+01 7.91981E-02 9.21035E-02
 -1      3612 4.23740E+01 2.31038E+01-3.49420E-01 2.03828E+01 6.85998E-02 3.05138E-02
 -1      3613 4.30864E+01 1.96896E+01-4.90849E-01 1.70906E+01-7.90146E-02-1.17999E-01
 -1      3614 4.29537E+01 1.98395E+01-5.29785E-01 1.76791E+01-8.74071E-02-2.46344E-01
 -1      3615 4.29978E+01 1.99426E+01-6.49897E-01 1.80877E+01-6.12044E-02-2.96341E-01
 -1      3616 4.31032E+01 2.00041E+01-7.77005E-01 1.83454E+01-3.45717E-02-2.36320E-01
 -1      3617 4.31802E+01 2.00325E+01-8.54497E-01 1.84700E+01-1.10778E-02-8.94873E-02
 -1      3618 4.31802E+01 2.00325E+01-8.54497E-01 1.84700E+01 1.10778E-02 8.94873E-02
 -1      3619 4.31032E+01 2.00041E+01-7.77005E-01 1.83454E+01 3.45717E-02 2.36320E-01
 -1      3620 4.29978E+01 1.99426E+01-6.49897E-01 1.80877E+01 6.12044E-02 2.96341E-01
 -1      3621 4.29537E+01 1.98395E+01-5.29785E-01 1.76791E+01 8.74071E-02 2.46344E-01
 -1      3622 4.30864E+01 1.96896E+01-4.90849E-01 1.70906E+01 7.90146E-02 1.17999E-01
 -1      3623 4.25840E+01 1.67383E+01-7.21276E-01 1.32370E+01-5.93002E-02-2.74458E-01
 -1      3624 4.27123E+01 1.68866E+01-8.05977E-01 1.41141E+01-4.75816E-02-5.12673E-01
 -1      3625 4.30344E+01 1.69719E+01-9.95037E-01 1.46994E+01-1.42065E-02-5.77141E-01
 -1      3626 4.33662E+01 1.70139E+01-1.18535E+00 1.50545E+01 2.33408E-03-4.44812E-01
 -1      3627 4.35685E+01 1.70303E+01-1.30015E+00 1.52216E+01 2.81900E-03-1.66029E-01
 -1      3628 4.35685E+01 1.70303E+01-1.30015E+00 1.52216E+01-2.81900E-03 1.66029E-01
 -1      3629 4.33662E+01 1.70139E+01-1.18535E+00 1.50545E+01-2.33408E-03 4.44812E-01
 -1      3630 4.30344E+01 1.69719E+01-9.95037E-01 1.46994E+01 1.42065E-02 5.77141E-01
 -1      3631 4.27123E+01 1.68866E+01-8.05977E-01 1.41141E+01 4.75816E-02 5.12673E-01
 -1      3632 4.25840E+01 1.67383E+01-7.21276E-01 1.32370E+01 5.93002E-02 2.74458E-01
 -1      3633 3.99454E+01 1.43596E+01-1.07678E+00 8.99161E+00 3.65901E-02-5.15877E-01
 -1      3634 4.06731E+01 1.44143E+01-1.21943E+00 1.02214E+01 1.07917E-01-9.15404E-01
 -1      3635 4.15392E+01 1.44124E+01-1.49381E+00 1.09888E+01 1.49187E-01-9.90397E-01
 -1      3636 4.22727E+01 1.43877E+01-1.76287E+00 1.14243E+01 1.23669E-01-7.46283E-01
 -1      3637 4.26875E+01 1.43686E+01-1.92239E+00 1.16192E+01 4.73357E-02-2.75562E-01
 -1      3638 4.26875E+01 1.43686E+01-1.92239E+00 1.16192E+01-4.73357E-02 2.75562E-01
 -1      3639 4.22727E+01 1.43877E+01-1.76287E+00 1.14243E+01-1.23669E-01 7.46283E-01
 -1      3640 4.15392E+01 1.44124E+01-1.49381E+00 1.09888E+01-1.49187E-01 9.90397E-01
 -1      3641 4.06731E+01 1.44143E+01-1.21943E+00 1.02214E+01-1.07917E-01 9.15404E-01
 -1      3642 3.99454E+01 1.43596E+01-1.07678E+00 8.99161E+00-3.65901E-02 5.15877E-01
 -1      3643 3.36927E+01 1.25939E+01-1.59593E+00 4.90635E+00 2.93061E-01-8.26945E-01
 -1      3644 3.55688E+01 1.23833E+01-1.78413E+00 6.46312E+00 4.92234E-01-1.41868E+00
 -1      3645 3.73307E+01 1.21716E+01-2.14586E+00 7.32795E+00 5.36164E-01-1.49238E+00
 -1      3646 3.86780E+01 1.20105E+01-2.48135E+00 7.75904E+00 4.02592E-01-1.10178E+00
 -1      3647 3.93979E+01 1.19238E+01-2.67864E+00 7.93181E+00 1.48371E-01-4.02956E-01
 -1      3648 3.93979E+01 1.19238E+01-2.67864E+00 7.93181E+00-1.48371E-01 4.02956E-01
 -1      3649 3.86780E+01 1.20105E+01-2.48135E+00 7.75904E+00-4.02592E-01 1.10178E+00
 -1      3650 3.73307E+01 1.21716E+01-2.14586E+00 7.32795E+00-5.36164E-01 1.49238E+00
 -1      3651 3.55688E+01 1.23833E+01-1.78413E+00 6.46312E+00-4.92234E-01 1.41868E+00
 -1      3652 3.36927E+01 1.25939E+01-1.59593E+00 4.90635E+00-2.93061E-01 8.26945E-01
 -1      3653 2.17293E+01 1.12053E+01-2.25075E+00 2.41040E+00 8.23713E-01-1.09864E+00
 -1      3654 2.54077E+01 1.03949E+01-2.48610E+00 4.03997E+00 1.26048E+00-1.87062E+00
 -1      3655 2.84800E+01 9.82886E+00-2.85226E+00 4.74573E+00 1.27181E+00-1.90190E+00
 -1      3656 3.06053E+01 9.45791E+00-3.20146E+00 4.98286E+00 9.17912E-01-1.37276E+00
 -1      3657 3.16822E+01 9.27410E+00-3.39652E+00 5.03498E+00 3.31888E-01-4.95120E-01
 -1      3658 3.16822E+01 9.27410E+00-3.39652E+00 5.03498E+00-3.31888E-01 4.95120E-01
 -1      3659 3.06053E+01 9.45791E+00-3.20146E+00 4.98286E+00-9.17912E-01 1.37276E+00
 -1      3660 2.84800E+01 9.82886E+00-2.85226E+00 4.74573E+00-1.27181E+00 1.90190E+00
 -1      3661 2.54077E+01 1.03949E+01-2.48610E+00 4.03997E+00-1.26048E+00 1.87062E+00
 -1      3662 2.17293E+01 1.12053E+01-2.25075E+00 2.41040E+00-8.23713E-01 1.09864E+00
 -1      3663 1.55207E+00 8.67336E+00-2.93962E+00 4.67183E+00 1.80891E+00-1.21853E+00
 -1      3664 8.03184E+00 7.02265E+00-2.93924E+00 5.64571E+00 2.49435E+00-1.94094E+00
 -1      3665 1.26392E+01 5.96147E+00-3.29319E+00 5.67934E+00 2.40388E+00-1.89807E+00
 -1      3666 1.55386E+01 5.35376E+00-3.53346E+00 5.41621E+00 1.67584E+00-1.30322E+00
 -1      3667 1.68931E+01 5.07622E+00-3.64864E+00 5.21995E+00 5.95260E-01-4.57509E-01
 -1      3668 1.68931E+01 5.07622E+00-3.64864E+00 5.21995E+00-5.95260E-01 4.57509E-01
 -1      3669 1.55386E+01 5.35376E+00-3.53346E+00 5.41621E+00-1.67584E+00 1.30322E+00
 -1      3670 1.26392E+01 5.96147E+00-3.29319E+00 5.67934E+00-2.40388E+00 1.89807E+00
 -1      3671 8.03184E+00 7.02265E+00-2.93924E+00 5.64571E+00-2.49435E+00 1.94094E+00
 -1      3672 1.55207E+00 8.67336E+00-2.93962E+00 4.67183E+00-1.80891E+00 1.21853E+00
 -1      3673-2.51754E+01 9.90223E-01-1.68480E+00 1.86091E+01 2.98204E+00-1.01545E+00
 -1      3674-1.62368E+01-2.21878E+00-2.21251E+00 1.73851E+01 4.09828E+00-1.60759E+00
 -1      3675-1.03256E+01-3.73764E+00-2.48691E+00 1.58874E+01 3.73906E+00-1.23543E+00
 -1      3676-7.14686E+00-4.42319E+00-2.62854E+00 1.48590E+01 2.49802E+00-6.90147E-01
 -1      3677-5.79491E+00-4.65715E+00-2.60732E+00 1.43681E+01 8.66264E-01-2.06020E-01
 -1      3678-5.79491E+00-4.65715E+00-2.60732E+00 1.43681E+01-8.66264E-01 2.06020E-01
 -1      3679-7.14686E+00-4.42319E+00-2.62854E+00 1.48590E+01-2.49802E+00 6.90147E-01
 -1      3680-1.03256E+01-3.73764E+00-2.48691E+00 1.58874E+01-3.73906E+00 1.23543E+00
 -1      3681-1.62368E+01-2.21878E+00-2.21251E+00 1.73851E+01-4.09828E+00 1.60759E+00
 -1      3682-2.51754E+01 9.90223E-01-1.68480E+00 1.86091E+01-2.98204E+00 1.01545E+00
 -1      3683-3.26920E+01-2.58317E+01 6.44813E+00 4.77647E+01 5.38387E+00-1.90529E+00
 -1      3684-2.28118E+01-2.89397E+01 6.79861E+00 4.16299E+01 5.85886E+00-1.02839E+00
 -1      3685-1.74739E+01-2.96816E+01 5.76536E+00 3.83095E+01 4.78333E+00-1.72567E-01
 -1      3686-1.48818E+01-2.95339E+01 5.44674E+00 3.67340E+01 2.92206E+00 3.51433E-01
 -1      3687-1.39388E+01-2.94068E+01 5.41781E+00 3.61797E+01 9.71729E-01 2.06108E-01
 -1      3688-1.39388E+01-2.94068E+01 5.41781E+00 3.61797E+01-9.71729E-01-2.06108E-01
 -1      3689-1.48818E+01-2.95339E+01 5.44674E+00 3.67340E+01-2.92206E+00-3.51433E-01
 -1      3690-1.74739E+01-2.96816E+01 5.76536E+00 3.83095E+01-4.78333E+00 1.72567E-01
 -1      3691-2.28118E+01-2.89397E+01 6.79861E+00 4.16299E+01-5.85886E+00 1.02839E+00
 -1      3692-3.26920E+01-2.58317E+01 6.44813E+00 4.77647E+01-5.38387E+00 1.90529E+00
 -1      3693-2.44823E+01-1.58211E+02 4.40776E+00 6.15256E+01 6.80500E+00 2.14277E+00
 -1      3694-1.79667E+01-1.53348E+02 3.79318E-01 5.50487E+01 7.07207E+00 7.23264E-02
 -1      3695-1.35903E+01-1.48300E+02-1.67734E+00 5.16173E+01 4.52896E+00 8.23341E-01
 -1      3696-1.22982E+01-1.46391E+02-3.84370E+00 5.06638E+01 2.50982E+00 1.01126E+00
 -1      3697-1.18119E+01-1.45523E+02-4.54891E+00 5.04487E+01 7.67201E-01 4.42222E-01
 -1      3698-1.18119E+01-1.45523E+02-4.54891E+00 5.04487E+01-7.67201E-01-4.42222E-01
 -1      3699-1.22982E+01-1.46391E+02-3.84370E+00 5.06638E+01-2.50982E+00-1.01126E+00
 -1      3700-1.35903E+01-1.48300E+02-1.67734E+00 5.16173E+01-4.52896E+00-8.23341E-01
 -1      3701-1.79667E+01-1.53348E+02 3.79318E-01 5.50487E+01-7.07207E+00-7.23264E-02
 -1      3702-2.44823E+01-1.58211E+02 4.40776E+00 6.15256E+01-6.80500E+00-2.14277E+00
 -1      3703 1.75898E+01 7.12785E+01 6.94594E-01 8.14252E+00-4.95343E+00-2.21881E-01
 -1      3704 1.97769E+01 7.15080E+01 8.13868E+00 7.58615E+00-6.57520E+00-2.55835E-01
 -1      3705 2.08334E+01 7.15310E+01 1.20717E+01 7.24192E+00-5.04157E+00-1.73094E-01
 -1      3706 2.13092E+01 7.14715E+01 1.40581E+01 7.03758E+00-3.08167E+00-9.93402E-02
 -1      3707 2.15011E+01 7.14346E+01 1.49145E+01 6.94114E+00-1.03124E+00-3.21953E-02
 -1      3708 2.15011E+01 7.14346E+01 1.49145E+01 6.94114E+00 1.03124E+00 3.21953E-02
 -1      3709 2.13092E+01 7.14715E+01 1.40581E+01 7.03758E+00 3.08167E+00 9.93402E-02
 -1      3710 2.08334E+01 7.15310E+01 1.20717E+01 7.24192E+00 5.04157E+00 1.73094E-01
 -1      3711 1.97769E+01 7.15080E+01 8.13868E+00 7.58615E+00 6.57520E+00 2.55835E-01
 -1      3712 1.75898E+01 7.12785E+01 6.94594E-01 8.14252E+00 4.95343E+00 2.21881E-01
 -1      3713 1.56941E+01 7.35920E+01 1.40296E+00 8.92490E+00-6.85435E-01-2.53571E-01
 -1      3714 1.55631E+01 7.40831E+01 1.08746E+00 8.44976E+00-1.25266E+00-2.91030E-01
 -1      3715 1.60266E+01 7.44076E+01 2.98181E+00 8.14102E+00-1.61286E+00-2.39554E-01
 -1      3716 1.63805E+01 7.45572E+01 4.53433E+00 7.95465E+00-1.18991E+00-1.46056E-01
 -1      3717 1.65523E+01 7.46104E+01 5.33169E+00 7.86756E+00-4.28953E-01-4.86561E-02
 -1      3718 1.65523E+01 7.46104E+01 5.33169E+00 7.86756E+00 4.28953E-01 4.86561E-02
 -1      3719 1.63805E+01 7.45572E+01 4.53433E+00 7.95465E+00 1.18991E+00 1.46056E-01
 -1      3720 1.60266E+01 7.44076E+01 2.98181E+00 8.14102E+00 1.61286E+00 2.39554E-01
 -1      3721 1.55631E+01 7.40831E+01 1.08746E+00 8.44976E+00 1.25266E+00 2.91030E-01
 -1      3722 1.56941E+01 7.35920E+01 1.40296E+00 8.92490E+00 6.85435E-01 2.53571E-01
 -1      3723 1.38551E+01 7.11214E+01-1.40035E-01 1.05522E+01 5.91555E-01-1.16043E-01
 -1      3724 1.44780E+01 7.37088E+01 1.41571E-01 1.03894E+01 6.44445E-01-1.63621E-01
 -1      3725 1.45863E+01 7.47582E+01 2.17020E-01 1.02128E+01 3.88334E-01-1.49399E-01
 -1      3726 1.46808E+01 7.52672E+01 5.85990E-01 1.00928E+01 1.31032E-01-1.04276E-01
 -1      3727 1.47369E+01 7.54782E+01 8.55587E-01 1.00337E+01 2.38995E-02-3.68410E-02
 -1      3728 1.47369E+01 7.54782E+01 8.55587E-01 1.00337E+01-2.38995E-02 3.68410E-02
 -1      3729 1.46808E+01 7.52672E+01 5.85990E-01 1.00928E+01-1.31032E-01 1.04276E-01
 -1      3730 1.45863E+01 7.47582E+01 2.17020E-01 1.02128E+01-3.88334E-01 1.49399E-01
 -1      3731 1.44780E+01 7.37088E+01 1.41571E-01 1.03894E+01-6.44445E-01 1.63621E-01
 -1      3732 1.38551E+01 7.11214E+01-1.40035E-01 1.05522E+01-5.91555E-01 1.16043E-01
 -1      3733 1.45040E+01 7.07052E+01-2.73703E-01 1.22892E+01 6.12870E-01-5.05703E-02
 -1      3734 1.46775E+01 7.22009E+01-3.68267E-01 1.22674E+01 8.90651E-01-6.45323E-02
 -1      3735 1.48146E+01 7.34111E+01-4.24094E-01 1.22382E+01 7.96623E-01-6.40875E-02
 -1      3736 1.48539E+01 7.41109E+01-5.01849E-01 1.22064E+01 5.22301E-01-4.76008E-02
 -1      3737 1.48682E+01 7.44299E+01-5.22621E-01 1.21880E+01 1.77470E-01-1.78202E-02
 -1      3738 1.48682E+01 7.44299E+01-5.22621E-01 1.21880E+01-1.77470E-01 1.78202E-02
 -1      3739 1.48539E+01 7.41109E+01-5.01849E-01 1.22064E+01-5.22301E-01 4.76008E-02
 -1      3740 1.48146E+01 7.34111E+01-4.24094E-01 1.22382E+01-7.96623E-01 6.40875E-02
 -1      3741 1.46775E+01 7.22009E+01-3.68267E-01 1.22674E+01-8.90651E-01 6.45323E-02
 -1      3742 1.45040E+01 7.07052E+01-2.73703E-01 1.22892E+01-6.12870E-01 5.05703E-02
 -1      3743 1.55951E+01 6.98658E+01-2.87563E-01 1.38670E+01 4.28590E-01-1.83787E-02
 -1      3744 1.55884E+01 7.07264E+01-4.04937E-01 1.39388E+01 6.50714E-01-2.39620E-02
 -1      3745 1.56047E+01 7.15014E+01-5.44432E-01 1.39868E+01 6.37508E-01-2.45249E-02
 -1      3746 1.56272E+01 7.20725E+01-6.60095E-01 1.40162E+01 4.49064E-01-2.01177E-02
 -1      3747 1.56355E+01 7.23610E+01-7.32738E-01 1.40294E+01 1.60758E-01-7.72967E-03
 -1      3748 1.56355E+01 7.23610E+01-7.32738E-01 1.40294E+01-1.60758E-01 7.72967E-03
 -1      3749 1.56272E+01 7.20725E+01-6.60095E-01 1.40162E+01-4.49064E-01 2.01177E-02
 -1      3750 1.56047E+01 7.15014E+01-5.44432E-01 1.39868E+01-6.37508E-01 2.45249E-02
 -1      3751 1.55884E+01 7.07264E+01-4.04937E-01 1.39388E+01-6.50714E-01 2.39620E-02
 -1      3752 1.55951E+01 6.98658E+01-2.87563E-01 1.38670E+01-4.28590E-01 1.83787E-02
 -1      3753 1.67521E+01 6.85627E+01-2.46698E-01 1.53139E+01 2.48014E-01-8.63747E-03
 -1      3754 1.66608E+01 6.90155E+01-3.44238E-01 1.54406E+01 3.88908E-01-1.10952E-02
 -1      3755 1.66279E+01 6.94735E+01-4.50116E-01 1.55329E+01 3.94299E-01-1.32114E-02
 -1      3756 1.66201E+01 6.98282E+01-5.48822E-01 1.55921E+01 2.86873E-01-1.21473E-02
 -1      3757 1.66210E+01 7.00213E+01-6.06257E-01 1.56212E+01 1.04209E-01-4.96846E-03
 -1      3758 1.66210E+01 7.00213E+01-6.06257E-01 1.56212E+01-1.04209E-01 4.96846E-03
 -1      3759 1.66201E+01 6.98282E+01-5.48822E-01 1.55921E+01-2.86873E-01 1.21473E-02
 -1      3760 1.66279E+01 6.94735E+01-4.50116E-01 1.55329E+01-3.94299E-01 1.32114E-02
 -1      3761 1.66608E+01 6.90155E+01-3.44238E-01 1.54406E+01-3.88908E-01 1.10952E-02
 -1      3762 1.67521E+01 6.85627E+01-2.46698E-01 1.53139E+01-2.48014E-01 8.63747E-03
 -1      3763 1.78753E+01 6.68004E+01-2.08378E-01 1.66771E+01 1.27679E-01-5.88355E-03
 -1      3764 1.77640E+01 6.70281E+01-2.73687E-01 1.68367E+01 2.04937E-01-8.98556E-03
 -1      3765 1.77140E+01 6.72773E+01-3.39658E-01 1.69522E+01 2.14021E-01-1.15536E-02
 -1      3766 1.76958E+01 6.74798E+01-4.02680E-01 1.70263E+01 1.59021E-01-1.11779E-02
 -1      3767 1.76906E+01 6.75913E+01-4.41575E-01 1.70623E+01 5.84879E-02-4.61527E-03
 -1      3768 1.76906E+01 6.75913E+01-4.41575E-01 1.70623E+01-5.84879E-02 4.61527E-03
 -1      3769 1.76958E+01 6.74798E+01-4.02680E-01 1.70263E+01-1.59021E-01 1.11779E-02
 -1      3770 1.77140E+01 6.72773E+01-3.39658E-01 1.69522E+01-2.14021E-01 1.15536E-02
 -1      3771 1.77640E+01 6.70281E+01-2.73687E-01 1.68367E+01-2.04937E-01 8.98556E-03
 -1      3772 1.78753E+01 6.68004E+01-2.08378E-01 1.66771E+01-1.27679E-01 5.88355E-03
 -1      3773 1.89775E+01 6.46324E+01-1.81313E-01 1.79606E+01 5.99377E-02-4.56699E-03
 -1      3774 1.88771E+01 6.47385E+01-2.22741E-01 1.81390E+01 9.94603E-02-7.98518E-03
 -1      3775 1.88309E+01 6.48677E+01-2.58054E-01 1.82665E+01 1.07270E-01-1.10108E-02
 -1      3776 1.88132E+01 6.49764E+01-2.94626E-01 1.83474E+01 8.17951E-02-1.08597E-02
 -1      3777 1.88079E+01 6.50374E+01-3.18127E-01 1.83865E+01 3.04511E-02-4.52064E-03
 -1      3778 1.88079E+01 6.50374E+01-3.18127E-01 1.83865E+01-3.04511E-02 4.52064E-03
 -1      3779 1.88132E+01 6.49764E+01-2.94626E-01 1.83474E+01-8.17951E-02 1.08597E-02
 -1      3780 1.88309E+01 6.48677E+01-2.58054E-01 1.82665E+01-1.07270E-01 1.10108E-02
 -1      3781 1.88771E+01 6.47385E+01-2.22741E-01 1.81390E+01-9.94603E-02 7.98518E-03
 -1      3782 1.89775E+01 6.46324E+01-1.81313E-01 1.79606E+01-5.99377E-02 4.56699E-03
 -1      3783 2.00895E+01 6.21109E+01-1.65009E-01 1.91401E+01 2.62025E-02-2.54034E-03
 -1      3784 2.00126E+01 6.21495E+01-1.91579E-01 1.93272E+01 4.60737E-02-5.46363E-03
 -1      3785 1.99797E+01 6.22110E+01-2.08260E-01 1.94598E+01 5.21825E-02-8.73063E-03
 -1      3786 1.99687E+01 6.22663E+01-2.28221E-01 1.95433E+01 4.13134E-02-9.26516E-03
 -1      3787 1.99662E+01 6.22981E+01-2.42141E-01 1.95834E+01 1.56674E-02-3.94411E-03
 -1      3788 1.99662E+01 6.22981E+01-2.42141E-01 1.95834E+01-1.56674E-02 3.94411E-03
 -1      3789 1.99687E+01 6.22663E+01-2.28221E-01 1.95433E+01-4.13134E-02 9.26516E-03
 -1      3790 1.99797E+01 6.22110E+01-2.08260E-01 1.94598E+01-5.21825E-02 8.73063E-03
 -1      3791 2.00126E+01 6.21495E+01-1.91579E-01 1.93272E+01-4.60737E-02 5.46363E-03
 -1      3792 2.00895E+01 6.21109E+01-1.65009E-01 1.91401E+01-2.62025E-02 2.54034E-03
 -1      3793 2.12343E+01 5.92836E+01-1.55675E-01 2.01784E+01 1.07720E-02 4.44136E-04
 -1      3794 2.11835E+01 5.92807E+01-1.73876E-01 2.03663E+01 2.14110E-02-1.21003E-03
 -1      3795 2.11663E+01 5.93026E+01-1.80315E-01 2.04990E+01 2.62934E-02-4.60820E-03
 -1      3796 2.11640E+01 5.93273E+01-1.91061E-01 2.05821E+01 2.20874E-02-6.27904E-03
 -1      3797 2.11651E+01 5.93424E+01-1.99570E-01 2.06219E+01 8.60059E-03-2.85846E-03
 -1      3798 2.11651E+01 5.93424E+01-1.99570E-01 2.06219E+01-8.60059E-03 2.85846E-03
 -1      3799 2.11640E+01 5.93273E+01-1.91061E-01 2.05821E+01-2.20874E-02 6.27904E-03
 -1      3800 2.11663E+01 5.93026E+01-1.80315E-01 2.04990E+01-2.62934E-02 4.60820E-03
 -1      3801 2.11835E+01 5.92807E+01-1.73876E-01 2.03663E+01-2.14110E-02 1.21003E-03
 -1      3802 2.12343E+01 5.92836E+01-1.55675E-01 2.01784E+01-1.07720E-02-4.44136E-04
 -1      3803 2.24221E+01 5.61945E+01-1.50296E-01 2.10347E+01 3.83829E-03 4.13579E-03
 -1      3804 2.23942E+01 5.61633E+01-1.63835E-01 2.12173E+01 1.03248E-02 4.20184E-03
 -1      3805 2.23912E+01 5.61601E+01-1.64891E-01 2.13462E+01 1.45614E-02 7.58030E-04
 -1      3806 2.23967E+01 5.61662E+01-1.70723E-01 2.14267E+01 1.33304E-02-2.35626E-03
 -1      3807 2.24013E+01 5.61715E+01-1.76321E-01 2.14652E+01 5.37547E-03-1.42459E-03
 -1      3808 2.24013E+01 5.61715E+01-1.76321E-01 2.14652E+01-5.37547E-03 1.42459E-03
 -1      3809 2.23967E+01 5.61662E+01-1.70723E-01 2.14267E+01-1.33304E-02 2.35626E-03
 -1      3810 2.23912E+01 5.61601E+01-1.64891E-01 2.13462E+01-1.45614E-02-7.58030E-04
 -1      3811 2.23942E+01 5.61633E+01-1.63835E-01 2.12173E+01-1.03248E-02-4.20184E-03
 -1      3812 2.24221E+01 5.61945E+01-1.50296E-01 2.10347E+01-3.83829E-03-4.13579E-03
 -1      3813 2.36511E+01 5.28875E+01-1.47197E-01 2.16693E+01 1.69203E-04 8.26680E-03
 -1      3814 2.36403E+01 5.28359E+01-1.57895E-01 2.18424E+01 4.59952E-03 1.02554E-02
 -1      3815 2.36475E+01 5.28159E+01-1.55969E-01 2.19648E+01 8.58936E-03 6.79444E-03
 -1      3816 2.36585E+01 5.28101E+01-1.59056E-01 2.20412E+01 8.92103E-03 2.07035E-03
 -1      3817 2.36655E+01 5.28093E+01-1.63011E-01 2.20778E+01 3.75925E-03 1.95104E-04
 -1      3818 2.36655E+01 5.28093E+01-1.63011E-01 2.20778E+01-3.75925E-03-1.95104E-04
 -1      3819 2.36585E+01 5.28101E+01-1.59056E-01 2.20412E+01-8.92103E-03-2.07035E-03
 -1      3820 2.36475E+01 5.28159E+01-1.55969E-01 2.19648E+01-8.58936E-03-6.79444E-03
 -1      3821 2.36403E+01 5.28359E+01-1.57895E-01 2.18424E+01-4.59952E-03-1.02554E-02
 -1      3822 2.36511E+01 5.28875E+01-1.47197E-01 2.16693E+01-1.69203E-04-8.26680E-03
 -1      3823 2.49105E+01 4.94074E+01-1.45866E-01 2.20449E+01-2.69412E-03 1.27217E-02
 -1      3824 2.49089E+01 4.93423E+01-1.54467E-01 2.22065E+01 3.01598E-04 1.66819E-02
 -1      3825 2.49210E+01 4.93115E+01-1.50560E-01 2.23212E+01 4.26891E-03 1.31729E-02
 -1      3826 2.49342E+01 4.92983E+01-1.51839E-01 2.23930E+01 5.81149E-03 6.73373E-03
 -1      3827 2.49419E+01 4.92937E+01-1.54713E-01 2.24274E+01 2.63388E-03 1.89904E-03
 -1      3828 2.49419E+01 4.92937E+01-1.54713E-01 2.24274E+01-2.63388E-03-1.89904E-03
 -1      3829 2.49342E+01 4.92983E+01-1.51839E-01 2.23930E+01-5.81149E-03-6.73373E-03
 -1      3830 2.49210E+01 4.93115E+01-1.50560E-01 2.23212E+01-4.26891E-03-1.31729E-02
 -1      3831 2.49089E+01 4.93423E+01-1.54467E-01 2.22065E+01-3.01598E-04-1.66819E-02
 -1      3832 2.49105E+01 4.94074E+01-1.45866E-01 2.20449E+01 2.69412E-03-1.27217E-02
 -1      3833 2.61798E+01 4.58014E+01-1.46642E-01 2.21263E+01-5.80501E-03 1.75242E-02
 -1      3834 2.61788E+01 4.57300E+01-1.53366E-01 2.22773E+01-4.27910E-03 2.34138E-02
 -1      3835 2.61894E+01 4.56939E+01-1.47809E-01 2.23852E+01-2.26207E-04 1.97494E-02
 -1      3836 2.62007E+01 4.56771E+01-1.47631E-01 2.24531E+01 2.62773E-03 1.14919E-02
 -1      3837 2.62074E+01 4.56706E+01-1.49647E-01 2.24856E+01 1.49089E-03 3.62861E-03
 -1      3838 2.62074E+01 4.56706E+01-1.49647E-01 2.24856E+01-1.49089E-03-3.62861E-03
 -1      3839 2.62007E+01 4.56771E+01-1.47631E-01 2.24531E+01-2.62773E-03-1.14919E-02
 -1      3840 2.61894E+01 4.56939E+01-1.47809E-01 2.23852E+01 2.26207E-04-1.97494E-02
 -1      3841 2.61788E+01 4.57300E+01-1.53366E-01 2.22773E+01 4.27910E-03-2.34138E-02
 -1      3842 2.61798E+01 4.58014E+01-1.46642E-01 2.21263E+01 5.80501E-03-1.75242E-02
 -1      3843 2.74279E+01 4.21201E+01-1.50570E-01 2.18801E+01-9.62772E-03 2.27328E-02
 -1      3844 2.74179E+01 4.20499E+01-1.55470E-01 2.20250E+01-9.89673E-03 3.03890E-02
 -1      3845 2.74205E+01 4.20139E+01-1.48392E-01 2.21295E+01-5.70732E-03 2.63538E-02
 -1      3846 2.74259E+01 4.19970E+01-1.46947E-01 2.21957E+01-1.24378E-03 1.61691E-02
 -1      3847 2.74294E+01 4.19905E+01-1.48244E-01 2.22276E+01 1.02835E-04 5.31035E-03
 -1      3848 2.74294E+01 4.19905E+01-1.48244E-01 2.22276E+01-1.02835E-04-5.31035E-03
 -1      3849 2.74259E+01 4.19970E+01-1.46947E-01 2.21957E+01 1.24378E-03-1.61691E-02
 -1      3850 2.74205E+01 4.20139E+01-1.48392E-01 2.21295E+01 5.70732E-03-2.63538E-02
 -1      3851 2.74179E+01 4.20499E+01-1.55470E-01 2.20250E+01 9.89673E-03-3.03890E-02
 -1      3852 2.74279E+01 4.21201E+01-1.50570E-01 2.18801E+01 9.62772E-03-2.27328E-02
 -1      3853 2.86077E+01 3.84184E+01-1.59471E-01 2.12736E+01-1.44522E-02 2.82371E-02
 -1      3854 2.85794E+01 3.83566E+01-1.62708E-01 2.14213E+01-1.70033E-02 3.71964E-02
 -1      3855 2.85678E+01 3.83260E+01-1.54419E-01 2.15291E+01-1.26384E-02 3.24101E-02
 -1      3856 2.85637E+01 3.83124E+01-1.52090E-01 2.15982E+01-6.14204E-03 2.02705E-02
 -1      3857 2.85625E+01 3.83075E+01-1.52929E-01 2.16318E+01-1.65389E-03 6.75053E-03
 -1      3858 2.85625E+01 3.83075E+01-1.52929E-01 2.16318E+01 1.65389E-03-6.75053E-03
 -1      3859 2.85637E+01 3.83124E+01-1.52090E-01 2.15982E+01 6.14204E-03-2.02705E-02
 -1      3860 2.85678E+01 3.83260E+01-1.54419E-01 2.15291E+01 1.26384E-02-3.24101E-02
 -1      3861 2.85794E+01 3.83566E+01-1.62708E-01 2.14213E+01 1.70033E-02-3.71964E-02
 -1      3862 2.86077E+01 3.84184E+01-1.59471E-01 2.12736E+01 1.44522E-02-2.82371E-02
 -1      3863 2.96480E+01 3.47573E+01-1.76230E-01 2.02751E+01-2.05261E-02 3.33861E-02
 -1      3864 2.95939E+01 3.47099E+01-1.78411E-01 2.04404E+01-2.59632E-02 4.24536E-02
 -1      3865 2.95640E+01 3.46891E+01-1.69851E-01 2.05627E+01-2.13549E-02 3.62816E-02
 -1      3866 2.95487E+01 3.46815E+01-1.67631E-01 2.06421E+01-1.22901E-02 2.24970E-02
 -1      3867 2.95423E+01 3.46795E+01-1.68642E-01 2.06810E+01-3.85647E-03 7.45708E-03
 -1      3868 2.95423E+01 3.46795E+01-1.68642E-01 2.06810E+01 3.85647E-03-7.45708E-03
 -1      3869 2.95487E+01 3.46815E+01-1.67631E-01 2.06421E+01 1.22901E-02-2.24970E-02
 -1      3870 2.95640E+01 3.46891E+01-1.69851E-01 2.05627E+01 2.13549E-02-3.62816E-02
 -1      3871 2.95939E+01 3.47099E+01-1.78411E-01 2.04404E+01 2.59632E-02-4.24536E-02
 -1      3872 2.96480E+01 3.47573E+01-1.76230E-01 2.02751E+01 2.05261E-02-3.33861E-02
 -1      3873 3.04387E+01 3.12068E+01-2.05269E-01 1.88565E+01-2.79032E-02 3.63561E-02
 -1      3874 3.03564E+01 3.11768E+01-2.07955E-01 1.90617E+01-3.68283E-02 4.27740E-02
 -1      3875 3.03097E+01 3.11676E+01-2.01388E-01 1.92150E+01-3.18273E-02 3.42126E-02
 -1      3876 3.02858E+01 3.11672E+01-2.01497E-01 1.93154E+01-1.96173E-02 1.99731E-02
 -1      3877 3.02761E+01 3.11685E+01-2.04039E-01 1.93650E+01-6.46978E-03 6.35865E-03
 -1      3878 3.02761E+01 3.11685E+01-2.04039E-01 1.93650E+01 6.46978E-03-6.35865E-03
 -1      3879 3.02858E+01 3.11672E+01-2.01497E-01 1.93154E+01 1.96173E-02-1.99731E-02
 -1      3880 3.03097E+01 3.11676E+01-2.01388E-01 1.92150E+01 3.18273E-02-3.42126E-02
 -1      3881 3.03564E+01 3.11768E+01-2.07955E-01 1.90617E+01 3.68283E-02-4.27740E-02
 -1      3882 3.04387E+01 3.12068E+01-2.05269E-01 1.88565E+01 2.79032E-02-3.63561E-02
 -1      3883 3.08083E+01 2.78484E+01-2.53124E-01 1.70011E+01-3.58335E-02 3.32031E-02
 -1      3884 3.07076E+01 2.78326E+01-2.59602E-01 1.72779E+01-4.84224E-02 3.12687E-02
 -1      3885 3.06567E+01 2.78323E+01-2.59629E-01 1.74849E+01-4.27231E-02 1.88370E-02
 -1      3886 3.06358E+01 2.78369E+01-2.66410E-01 1.76207E+01-2.70687E-02 7.18466E-03
 -1      3887 3.06295E+01 2.78403E+01-2.73089E-01 1.76878E+01-9.09347E-03 1.42214E-03
 -1      3888 3.06295E+01 2.78403E+01-2.73089E-01 1.76878E+01 9.09347E-03-1.42214E-03
 -1      3889 3.06358E+01 2.78369E+01-2.66410E-01 1.76207E+01 2.70687E-02-7.18466E-03
 -1      3890 3.06567E+01 2.78323E+01-2.59629E-01 1.74849E+01 4.27231E-02-1.88370E-02
 -1      3891 3.07076E+01 2.78326E+01-2.59602E-01 1.72779E+01 4.84224E-02-3.12687E-02
 -1      3892 3.08083E+01 2.78484E+01-2.53124E-01 1.70011E+01 3.58335E-02-3.32031E-02
 -1      3893 3.04915E+01 2.47777E+01-3.28758E-01 1.47226E+01-4.13198E-02 1.67726E-02
 -1      3894 3.04059E+01 2.47614E+01-3.45079E-01 1.51120E+01-5.62009E-02-4.11392E-03
 -1      3895 3.03848E+01 2.47584E+01-3.59939E-01 1.54003E+01-4.92605E-02-2.23683E-02
 -1      3896 3.03940E+01 2.47600E+01-3.80978E-01 1.55884E+01-3.10482E-02-2.50763E-02
 -1      3897 3.04061E+01 2.47616E+01-3.96253E-01 1.56809E+01-1.03965E-02-1.07147E-02
 -1      3898 3.04061E+01 2.47616E+01-3.96253E-01 1.56809E+01 1.03965E-02 1.07147E-02
 -1      3899 3.03940E+01 2.47600E+01-3.80978E-01 1.55884E+01 3.10482E-02 2.50763E-02
 -1      3900 3.03848E+01 2.47584E+01-3.59939E-01 1.54003E+01 4.92605E-02 2.23683E-02
 -1      3901 3.04059E+01 2.47614E+01-3.45079E-01 1.51120E+01 5.62009E-02 4.11392E-03
 -1      3902 3.04915E+01 2.47777E+01-3.28758E-01 1.47226E+01 4.13198E-02-1.67726E-02
 -1      3903 2.90853E+01 2.21010E+01-4.42735E-01 1.21034E+01-3.62930E-02-2.38627E-02
 -1      3904 2.90911E+01 2.20493E+01-4.78718E-01 1.26518E+01-4.81950E-02-8.11760E-02
 -1      3905 2.91692E+01 2.20174E+01-5.21552E-01 1.30494E+01-3.92302E-02-1.07413E-01
 -1      3906 2.92607E+01 2.19984E+01-5.68545E-01 1.33044E+01-2.25859E-02-8.97713E-02
 -1      3907 2.93191E+01 2.19893E+01-5.99245E-01 1.34284E+01-7.09480E-03-3.47429E-02
 -1      3908 2.93191E+01 2.19893E+01-5.99245E-01 1.34284E+01 7.09480E-03 3.47429E-02
 -1      3909 2.92607E+01 2.19984E+01-5.68545E-01 1.33044E+01 2.25859E-02 8.97713E-02
 -1      3910 2.91692E+01 2.20174E+01-5.21552E-01 1.30494E+01 3.92302E-02 1.07413E-01
 -1      3911 2.90911E+01 2.20493E+01-4.78718E-01 1.26518E+01 4.81950E-02 8.11760E-02
 -1      3912 2.90853E+01 2.21010E+01-4.42735E-01 1.21034E+01 3.62930E-02 2.38627E-02
 -1      3913 2.60036E+01 1.99160E+01-6.02745E-01 9.37099E+00-3.15220E-03-1.01623E-01
 -1      3914 2.62450E+01 1.97609E+01-6.72648E-01 1.01164E+01 1.25260E-03-2.20400E-01
 -1      3915 2.65434E+01 1.96512E+01-7.61328E-01 1.06379E+01 1.28842E-02-2.55978E-01
 -1      3916 2.68031E+01 1.95800E+01-8.50112E-01 1.09621E+01 1.67663E-02-2.00629E-01
 -1      3917 2.69525E+01 1.95447E+01-9.05122E-01 1.11162E+01 7.50140E-03-7.55175E-02
 -1      3918 2.69525E+01 1.95447E+01-9.05122E-01 1.11162E+01-7.50140E-03 7.55175E-02
 -1      3919 2.68031E+01 1.95800E+01-8.50112E-01 1.09621E+01-1.67663E-02 2.00629E-01
 -1      3920 2.65434E+01 1.96512E+01-7.61328E-01 1.06379E+01-1.28842E-02 2.55978E-01
 -1      3921 2.62450E+01 1.97609E+01-6.72648E-01 1.01164E+01-1.25260E-03 2.20400E-01
 -1      3922 2.60036E+01 1.99160E+01-6.02745E-01 9.37099E+00 3.15220E-03 1.01623E-01
 -1      3923 2.04594E+01 1.82475E+01-8.00765E-01 7.03731E+00 9.08403E-02-2.25483E-01
 -1      3924 2.11750E+01 1.78721E+01-9.20867E-01 7.97601E+00 1.37943E-01-4.33269E-01
 -1      3925 2.18746E+01 1.76051E+01-1.07685E+00 8.59518E+00 1.51661E-01-4.77445E-01
 -1      3926 2.24248E+01 1.74340E+01-1.22371E+00 8.95917E+00 1.18541E-01-3.62853E-01
 -1      3927 2.27257E+01 1.73502E+01-1.31219E+00 9.12519E+00 4.47270E-02-1.34689E-01
 -1      3928 2.27257E+01 1.73502E+01-1.31219E+00 9.12519E+00-4.47270E-02 1.34689E-01
 -1      3929 2.24248E+01 1.74340E+01-1.22371E+00 8.95917E+00-1.18541E-01 3.62853E-01
 -1      3930 2.18746E+01 1.76051E+01-1.07685E+00 8.59518E+00-1.51661E-01 4.77445E-01
 -1      3931 2.11750E+01 1.78721E+01-9.20867E-01 7.97601E+00-1.37943E-01 4.33269E-01
 -1      3932 2.04594E+01 1.82475E+01-8.00765E-01 7.03731E+00-9.08403E-02 2.25483E-01
 -1      3933 1.15790E+01 1.68780E+01-9.73938E-01 6.13524E+00 2.93999E-01-3.85170E-01
 -1      3934 1.30907E+01 1.60951E+01-1.16715E+00 7.15701E+00 4.28595E-01-7.01818E-01
 -1      3935 1.44244E+01 1.55645E+01-1.40258E+00 7.76173E+00 4.38387E-01-7.47288E-01
 -1      3936 1.54048E+01 1.52352E+01-1.61945E+00 8.07763E+00 3.25030E-01-5.56584E-01
 -1      3937 1.59227E+01 1.50780E+01-1.74685E+00 8.20750E+00 1.19503E-01-2.04489E-01
 -1      3938 1.59227E+01 1.50780E+01-1.74685E+00 8.20750E+00-1.19503E-01 2.04489E-01
 -1      3939 1.54048E+01 1.52352E+01-1.61945E+00 8.07763E+00-3.25030E-01 5.56584E-01
 -1      3940 1.44244E+01 1.55645E+01-1.40258E+00 7.76173E+00-4.38387E-01 7.47288E-01
 -1      3941 1.30907E+01 1.60951E+01-1.16715E+00 7.15701E+00-4.28595E-01 7.01818E-01
 -1      3942 1.15790E+01 1.68780E+01-9.73938E-01 6.13524E+00-2.93999E-01 3.85170E-01
 -1      3943-1.12538E+00 1.48654E+01-9.36363E-01 8.52906E+00 6.66207E-01-5.51957E-01
 -1      3944 1.56777E+00 1.34577E+01-1.19210E+00 9.31173E+00 9.34519E-01-9.50309E-01
 -1      3945 3.74180E+00 1.25482E+01-1.52249E+00 9.64833E+00 9.27327E-01-9.85717E-01
 -1      3946 5.25754E+00 1.20152E+01-1.80811E+00 9.74036E+00 6.70885E-01-7.18962E-01
 -1      3947 6.03010E+00 1.17694E+01-1.97251E+00 9.74591E+00 2.43733E-01-2.61514E-01
 -1      3948 6.03010E+00 1.17694E+01-1.97251E+00 9.74591E+00-2.43733E-01 2.61514E-01
 -1      3949 5.25754E+00 1.20152E+01-1.80811E+00 9.74036E+00-6.70885E-01 7.18962E-01
 -1      3950 3.74180E+00 1.25482E+01-1.52249E+00 9.64833E+00-9.27327E-01 9.85717E-01
 -1      3951 1.56777E+00 1.34577E+01-1.19210E+00 9.31173E+00-9.34519E-01 9.50309E-01
 -1      3952-1.12538E+00 1.48654E+01-9.36363E-01 8.52906E+00-6.66207E-01 5.51957E-01
 -1      3953-1.61892E+01 9.51749E+00-1.00811E-01 1.71189E+01 1.19142E+00-6.49461E-01
 -1      3954-1.22239E+01 7.22225E+00-5.45916E-01 1.70181E+01 1.66479E+00-1.07818E+00
 -1      3955-9.18501E+00 5.89506E+00-9.61464E-01 1.66338E+01 1.60982E+00-1.06108E+00
 -1      3956-7.18963E+00 5.18002E+00-1.31356E+00 1.62392E+01 1.14331E+00-7.49771E-01
 -1      3957-6.20393E+00 4.87514E+00-1.50604E+00 1.60033E+01 4.10834E-01-2.67702E-01
 -1      3958-6.20393E+00 4.87514E+00-1.50604E+00 1.60033E+01-4.10834E-01 2.67702E-01
 -1      3959-7.18963E+00 5.18002E+00-1.31356E+00 1.62392E+01-1.14331E+00 7.49771E-01
 -1      3960-9.18501E+00 5.89506E+00-9.61464E-01 1.66338E+01-1.60982E+00 1.06108E+00
 -1      3961-1.22239E+01 7.22225E+00-5.45916E-01 1.70181E+01-1.66479E+00 1.07818E+00
 -1      3962-1.61892E+01 9.51749E+00-1.00811E-01 1.71189E+01-1.19142E+00 6.49461E-01
 -1      3963-2.64081E+01-6.38413E+00 2.44772E+00 3.39559E+01 1.93270E+00-7.24720E-01
 -1      3964-2.16181E+01-9.35816E+00 1.95914E+00 3.19152E+01 2.50998E+00-9.33420E-01
 -1      3965-1.82284E+01-1.08282E+01 1.40263E+00 3.02793E+01 2.34021E+00-8.35751E-01
 -1      3966-1.60709E+01-1.14480E+01 9.78893E-01 2.91747E+01 1.61036E+00-5.43192E-01
 -1      3967-1.50535E+01-1.16703E+01 7.41189E-01 2.86327E+01 5.69227E-01-1.86721E-01
 -1      3968-1.50535E+01-1.16703E+01 7.41189E-01 2.86327E+01-5.69227E-01 1.86721E-01
 -1      3969-1.60709E+01-1.14480E+01 9.78893E-01 2.91747E+01-1.61036E+00 5.43192E-01
 -1      3970-1.82284E+01-1.08282E+01 1.40263E+00 3.02793E+01-2.34021E+00 8.35751E-01
 -1      3971-2.16181E+01-9.35816E+00 1.95914E+00 3.19152E+01-2.50998E+00 9.33420E-01
 -1      3972-2.64081E+01-6.38413E+00 2.44772E+00 3.39559E+01-1.93270E+00 7.24720E-01
 -1      3973-2.54027E+01-5.43973E+01 4.36428E+00 5.23948E+01 2.36207E+00-1.51144E-01
 -1      3974-2.15543E+01-5.65911E+01 2.96790E+00 4.80703E+01 3.08145E+00-2.64618E-01
 -1      3975-1.85658E+01-5.68797E+01 2.27516E+00 4.52513E+01 2.61013E+00-1.46914E-01
 -1      3976-1.68154E+01-5.67537E+01 1.65307E+00 4.36860E+01 1.69341E+00-5.80678E-02
 -1      3977-1.60145E+01-5.66052E+01 1.33156E+00 4.29956E+01 5.79508E-01-6.80431E-03
 -1      3978-1.60145E+01-5.66052E+01 1.33156E+00 4.29956E+01-5.79508E-01 6.80431E-03
 -1      3979-1.68154E+01-5.67537E+01 1.65307E+00 4.36860E+01-1.69341E+00 5.80678E-02
 -1      3980-1.85658E+01-5.68797E+01 2.27516E+00 4.52513E+01-2.61013E+00 1.46914E-01
 -1      3981-2.15543E+01-5.65911E+01 2.96790E+00 4.80703E+01-3.08145E+00 2.64618E-01
 -1      3982-2.54027E+01-5.43973E+01 4.36428E+00 5.23948E+01-2.36207E+00 1.51144E-01
 -1      3983-2.09466E+01-1.50593E+02-2.33113E+00 4.63132E+01 1.28461E+00-1.03111E-02
 -1      3984-1.72342E+01-1.47689E+02-2.37024E+00 4.18797E+01 1.10239E+00 8.78234E-01
 -1      3985-1.53266E+01-1.45636E+02-3.71601E+00 3.98651E+01 9.28964E-01 6.15403E-01
 -1      3986-1.41514E+01-1.44053E+02-4.71079E+00 3.87809E+01 5.75714E-01 4.16796E-01
 -1      3987-1.37092E+01-1.43384E+02-5.39192E+00 3.83675E+01 2.02400E-01 1.49258E-01
 -1      3988-1.37092E+01-1.43384E+02-5.39192E+00 3.83675E+01-2.02400E-01-1.49258E-01
 -1      3989-1.41514E+01-1.44053E+02-4.71079E+00 3.87809E+01-5.75714E-01-4.16796E-01
 -1      3990-1.53266E+01-1.45636E+02-3.71601E+00 3.98651E+01-9.28964E-01-6.15403E-01
 -1      3991-1.72342E+01-1.47689E+02-2.37024E+00 4.18797E+01-1.10239E+00-8.78234E-01
 -1      3992-2.09466E+01-1.50593E+02-2.33113E+00 4.63132E+01-1.28461E+00 1.03111E-02
 -1      3993 1.72601E+01 6.16059E+01 2.93712E-01 8.35749E+00-4.07893E+00-2.69839E-01
 -1      3994 1.92247E+01 6.19102E+01 6.68679E+00 7.83195E+00-5.61306E+00-3.32457E-01
 -1      3995 2.02111E+01 6.19691E+01 1.01078E+01 7.51842E+00-4.36370E+00-2.55961E-01
 -1      3996 2.06809E+01 6.19414E+01 1.18639E+01 7.33641E+00-2.68268E+00-1.55661E-01
 -1      3997 2.08750E+01 6.19185E+01 1.26253E+01 7.25164E+00-8.99944E-01-5.19072E-02
 -1      3998 2.08750E+01 6.19185E+01 1.26253E+01 7.25164E+00 8.99944E-01 5.19072E-02
 -1      3999 2.06809E+01 6.19414E+01 1.18639E+01 7.33641E+00 2.68268E+00 1.55661E-01
 -1      4000 2.02111E+01 6.19691E+01 1.01078E+01 7.51842E+00 4.36370E+00 2.55961E-01
 -1      4001 1.92247E+01 6.19102E+01 6.68679E+00 7.83195E+00 5.61306E+00 3.32457E-01
 -1      4002 1.72601E+01 6.16059E+01 2.93712E-01 8.35749E+00 4.07893E+00 2.69839E-01
 -1      4003 1.67321E+01 6.33180E+01 1.22371E+00 7.99254E+00-4.68346E-01-3.24481E-01
 -1      4004 1.66695E+01 6.38984E+01 7.75693E-01 7.57140E+00-8.70597E-01-3.96775E-01
 -1      4005 1.71139E+01 6.42468E+01 2.24371E+00 7.28506E+00-1.22024E+00-3.41062E-01
 -1      4006 1.74601E+01 6.44122E+01 3.50446E+00 7.10803E+00-9.25167E-01-2.17011E-01
 -1      4007 1.76320E+01 6.44749E+01 4.16482E+00 7.02390E+00-3.36759E-01-7.36510E-02
 -1      4008 1.76320E+01 6.44749E+01 4.16482E+00 7.02390E+00 3.36759E-01 7.36510E-02
 -1      4009 1.74601E+01 6.44122E+01 3.50446E+00 7.10803E+00 9.25167E-01 2.17011E-01
 -1      4010 1.71139E+01 6.42468E+01 2.24371E+00 7.28506E+00 1.22024E+00 3.41062E-01
 -1      4011 1.66695E+01 6.38984E+01 7.75693E-01 7.57140E+00 8.70597E-01 3.96775E-01
 -1      4012 1.67321E+01 6.33180E+01 1.22371E+00 7.99254E+00 4.68346E-01 3.24481E-01
 -1      4013 1.52126E+01 6.13002E+01-1.64840E-01 8.41082E+00 5.55842E-01-1.71333E-01
 -1      4014 1.58286E+01 6.35676E+01 4.70280E-02 8.27663E+00 6.71589E-01-2.45499E-01
 -1      4015 1.59777E+01 6.45411E+01 4.33865E-03 8.11153E+00 4.78819E-01-2.28850E-01
 -1      4016 1.60896E+01 6.50253E+01 2.23239E-01 7.99006E+00 2.21908E-01-1.58336E-01
 -1      4017 1.61522E+01 6.52297E+01 4.04526E-01 7.92779E+00 6.00759E-02-5.59051E-02
 -1      4018 1.61522E+01 6.52297E+01 4.04526E-01 7.92779E+00-6.00759E-02 5.59051E-02
 -1      4019 1.60896E+01 6.50253E+01 2.23239E-01 7.99006E+00-2.21908E-01 1.58336E-01
 -1      4020 1.59777E+01 6.45411E+01 4.33865E-03 8.11153E+00-4.78819E-01 2.28850E-01
 -1      4021 1.58286E+01 6.35676E+01 4.70280E-02 8.27663E+00-6.71589E-01 2.45499E-01
 -1      4022 1.52126E+01 6.13002E+01-1.64840E-01 8.41082E+00-5.55842E-01 1.71333E-01
 -1      4023 1.55002E+01 6.12596E+01-2.79834E-01 9.27335E+00 5.34748E-01-8.21780E-02
 -1      4024 1.56903E+01 6.24821E+01-3.87146E-01 9.26123E+00 8.01745E-01-1.14397E-01
 -1      4025 1.58365E+01 6.35105E+01-4.83012E-01 9.22793E+00 7.40715E-01-1.11678E-01
 -1      4026 1.58878E+01 6.41269E+01-5.95904E-01 9.18862E+00 4.99510E-01-7.88885E-02
 -1      4027 1.59074E+01 6.44134E+01-6.42794E-01 9.16463E+00 1.72646E-01-2.85238E-02
 -1      4028 1.59074E+01 6.44134E+01-6.42794E-01 9.16463E+00-1.72646E-01 2.85238E-02
 -1      4029 1.58878E+01 6.41269E+01-5.95904E-01 9.18862E+00-4.99510E-01 7.88885E-02
 -1      4030 1.58365E+01 6.35105E+01-4.83012E-01 9.22793E+00-7.40715E-01 1.11678E-01
 -1      4031 1.56903E+01 6.24821E+01-3.87146E-01 9.26123E+00-8.01745E-01 1.14397E-01
 -1      4032 1.55002E+01 6.12596E+01-2.79834E-01 9.27335E+00-5.34748E-01 8.21780E-02
 -1      4033 1.61973E+01 6.08430E+01-2.59903E-01 1.02074E+01 3.55370E-01-3.24217E-02
 -1      4034 1.62236E+01 6.15206E+01-3.59342E-01 1.02710E+01 5.49143E-01-4.55061E-02
 -1      4035 1.62415E+01 6.21382E+01-5.00020E-01 1.03070E+01 5.46779E-01-4.45054E-02
 -1      4036 1.62604E+01 6.26078E+01-6.12130E-01 1.03258E+01 3.89562E-01-3.19731E-02
 -1      4037 1.62671E+01 6.28503E+01-6.80896E-01 1.03328E+01 1.40381E-01-1.15432E-02
 -1      4038 1.62671E+01 6.28503E+01-6.80896E-01 1.03328E+01-1.40381E-01 1.15432E-02
 -1      4039 1.62604E+01 6.26078E+01-6.12130E-01 1.03258E+01-3.89562E-01 3.19731E-02
 -1      4040 1.62415E+01 6.21382E+01-5.00020E-01 1.03070E+01-5.46779E-01 4.45054E-02
 -1      4041 1.62236E+01 6.15206E+01-3.59342E-01 1.02710E+01-5.49143E-01 4.55061E-02
 -1      4042 1.61973E+01 6.08430E+01-2.59903E-01 1.02074E+01-3.55370E-01 3.24217E-02
 -1      4043 1.69474E+01 5.99664E+01-1.99595E-01 1.11162E+01 1.93890E-01-1.18725E-02
 -1      4044 1.68918E+01 6.03078E+01-2.72204E-01 1.12233E+01 3.07295E-01-1.53113E-02
 -1      4045 1.68577E+01 6.06537E+01-3.67504E-01 1.13002E+01 3.14525E-01-1.54724E-02
 -1      4046 1.68406E+01 6.09275E+01-4.50798E-01 1.13490E+01 2.30075E-01-1.13046E-02
 -1      4047 1.68352E+01 6.10792E+01-4.97311E-01 1.13728E+01 8.38000E-02-4.20370E-03
 -1      4048 1.68352E+01 6.10792E+01-4.97311E-01 1.13728E+01-8.38000E-02 4.20370E-03
 -1      4049 1.68406E+01 6.09275E+01-4.50798E-01 1.13490E+01-2.30075E-01 1.13046E-02
 -1      4050 1.68577E+01 6.06537E+01-3.67504E-01 1.13002E+01-3.14525E-01 1.54724E-02
 -1      4051 1.68918E+01 6.03078E+01-2.72204E-01 1.12233E+01-3.07295E-01 1.53113E-02
 -1      4052 1.69474E+01 5.99664E+01-1.99595E-01 1.11162E+01-1.93890E-01 1.18725E-02
 -1      4053 1.76285E+01 5.86948E+01-1.56016E-01 1.19957E+01 9.19275E-02-4.40002E-03
 -1      4054 1.75512E+01 5.88637E+01-1.96980E-01 1.21289E+01 1.48082E-01-4.74365E-03
 -1      4055 1.74979E+01 5.90410E+01-2.52606E-01 1.22280E+01 1.55715E-01-4.94544E-03
 -1      4056 1.74687E+01 5.91879E+01-2.99791E-01 1.22930E+01 1.15869E-01-3.81835E-03
 -1      4057 1.74561E+01 5.92700E+01-3.27319E-01 1.23249E+01 4.26630E-02-1.47594E-03
 -1      4058 1.74561E+01 5.92700E+01-3.27319E-01 1.23249E+01-4.26630E-02 1.47594E-03
 -1      4059 1.74687E+01 5.91879E+01-2.99791E-01 1.22930E+01-1.15869E-01 3.81835E-03
 -1      4060 1.74979E+01 5.90410E+01-2.52606E-01 1.22280E+01-1.55715E-01 4.94544E-03
 -1      4061 1.75512E+01 5.88637E+01-1.96980E-01 1.21289E+01-1.48082E-01 4.74365E-03
 -1      4062 1.76285E+01 5.86948E+01-1.56016E-01 1.19957E+01-9.19275E-02 4.40002E-03
 -1      4063 1.82390E+01 5.71110E+01-1.31088E-01 1.28514E+01 3.77857E-02-1.79963E-03
 -1      4064 1.81685E+01 5.71928E+01-1.51479E-01 1.30005E+01 6.23419E-02-9.67478E-04
 -1      4065 1.81175E+01 5.72792E+01-1.79920E-01 1.31118E+01 6.76407E-02-1.24405E-03
 -1      4066 1.80882E+01 5.73526E+01-2.03585E-01 1.31851E+01 5.14662E-02-1.14222E-03
 -1      4067 1.80754E+01 5.73945E+01-2.17301E-01 1.32213E+01 1.91480E-02-5.13956E-04
 -1      4068 1.80754E+01 5.73945E+01-2.17301E-01 1.32213E+01-1.91480E-02 5.13956E-04
 -1      4069 1.80882E+01 5.73526E+01-2.03585E-01 1.31851E+01-5.14662E-02 1.14222E-03
 -1      4070 1.81175E+01 5.72792E+01-1.79920E-01 1.31118E+01-6.76407E-02 1.24405E-03
 -1      4071 1.81685E+01 5.71928E+01-1.51479E-01 1.30005E+01-6.23419E-02 9.67478E-04
 -1      4072 1.82390E+01 5.71110E+01-1.31088E-01 1.28514E+01-3.77857E-02 1.79963E-03
 -1      4073 1.88078E+01 5.52644E+01-1.19795E-01 1.36734E+01 1.27564E-02-2.56254E-04
 -1      4074 1.87561E+01 5.53005E+01-1.28504E-01 1.38307E+01 2.20114E-02 1.26853E-03
 -1      4075 1.87170E+01 5.53383E+01-1.41790E-01 1.39483E+01 2.53426E-02 9.71980E-04
 -1      4076 1.86944E+01 5.53719E+01-1.51916E-01 1.40256E+01 1.99935E-02 4.36022E-04
 -1      4077 1.86845E+01 5.53916E+01-1.57824E-01 1.40637E+01 7.58556E-03 5.98531E-05
 -1      4078 1.86845E+01 5.53916E+01-1.57824E-01 1.40637E+01-7.58556E-03-5.98531E-05
 -1      4079 1.86944E+01 5.53719E+01-1.51916E-01 1.40256E+01-1.99935E-02-4.36022E-04
 -1      4080 1.87170E+01 5.53383E+01-1.41790E-01 1.39483E+01-2.53426E-02-9.71980E-04
 -1      4081 1.87561E+01 5.53005E+01-1.28504E-01 1.38307E+01-2.20114E-02-1.26853E-03
 -1      4082 1.88078E+01 5.52644E+01-1.19795E-01 1.36734E+01-1.27564E-02 2.56254E-04
 -1      4083 1.93638E+01 5.31833E+01-1.16071E-01 1.44363E+01 2.47410E-03 1.41868E-03
 -1      4084 1.93340E+01 5.31914E+01-1.18828E-01 1.45959E+01 5.16350E-03 3.70547E-03
 -1      4085 1.93096E+01 5.32013E+01-1.24363E-01 1.47152E+01 7.22370E-03 3.37945E-03
 -1      4086 1.92959E+01 5.32127E+01-1.27591E-01 1.47937E+01 6.29215E-03 2.16124E-03
 -1      4087 1.92902E+01 5.32202E+01-1.29458E-01 1.48324E+01 2.50439E-03 6.83912E-04
 -1      4088 1.92902E+01 5.32202E+01-1.29458E-01 1.48324E+01-2.50439E-03-6.83912E-04
 -1      4089 1.92959E+01 5.32127E+01-1.27591E-01 1.47937E+01-6.29215E-03-2.16124E-03
 -1      4090 1.93096E+01 5.32013E+01-1.24363E-01 1.47152E+01-7.22370E-03-3.37945E-03
 -1      4091 1.93340E+01 5.31914E+01-1.18828E-01 1.45959E+01-5.16350E-03-3.70547E-03
 -1      4092 1.93638E+01 5.31833E+01-1.16071E-01 1.44363E+01-2.47410E-03-1.41868E-03
 -1      4093 1.99256E+01 5.08870E+01-1.16114E-01 1.51048E+01-1.41797E-03 3.45146E-03
 -1      4094 1.99158E+01 5.08751E+01-1.15906E-01 1.52621E+01-1.33786E-03 6.61213E-03
 -1      4095 1.99054E+01 5.08670E+01-1.17618E-01 1.53799E+01 4.58198E-05 6.25974E-03
 -1      4096 1.99002E+01 5.08648E+01-1.17458E-01 1.54574E+01 7.63368E-04 4.23097E-03
 -1      4097 1.98985E+01 5.08649E+01-1.17342E-01 1.54956E+01 4.38263E-04 1.43538E-03
 -1      4098 1.98985E+01 5.08649E+01-1.17342E-01 1.54956E+01-4.38263E-04-1.43538E-03
 -1      4099 1.99002E+01 5.08648E+01-1.17458E-01 1.54574E+01-7.63368E-04-4.23097E-03
 -1      4100 1.99054E+01 5.08670E+01-1.17618E-01 1.53799E+01-4.58198E-05-6.25974E-03
 -1      4101 1.99158E+01 5.08751E+01-1.15906E-01 1.52621E+01 1.33786E-03-6.61213E-03
 -1      4102 1.99256E+01 5.08870E+01-1.16114E-01 1.51048E+01 1.41797E-03-3.45146E-03
 -1      4103 2.04985E+01 4.83960E+01-1.18091E-01 1.56392E+01-3.06215E-03 5.80634E-03
 -1      4104 2.05045E+01 4.83688E+01-1.16252E-01 1.57909E+01-4.09540E-03 9.91298E-03
 -1      4105 2.05052E+01 4.83480E+01-1.15895E-01 1.59050E+01-3.03242E-03 9.52231E-03
 -1      4106 2.05069E+01 4.83366E+01-1.13954E-01 1.59803E+01-1.62532E-03 6.57853E-03
 -1      4107 2.05084E+01 4.83319E+01-1.12803E-01 1.60175E+01-4.57641E-04 2.28794E-03
 -1      4108 2.05084E+01 4.83319E+01-1.12803E-01 1.60175E+01 4.57641E-04-2.28794E-03
 -1      4109 2.05069E+01 4.83366E+01-1.13954E-01 1.59803E+01 1.62532E-03-6.57853E-03
 -1      4110 2.05052E+01 4.83480E+01-1.15895E-01 1.59050E+01 3.03242E-03-9.52231E-03
 -1      4111 2.05045E+01 4.83688E+01-1.16252E-01 1.57909E+01 4.09540E-03-9.91298E-03
 -1      4112 2.04985E+01 4.83960E+01-1.18091E-01 1.56392E+01 3.06215E-03-5.80634E-03
 -1      4113 2.10742E+01 4.57359E+01-1.21486E-01 1.59980E+01-4.23565E-03 8.47410E-03
 -1      4114 2.10907E+01 4.56976E+01-1.18471E-01 1.61431E+01-6.00599E-03 1.35689E-02
 -1      4115 2.10986E+01 4.56680E+01-1.16666E-01 1.62528E+01-5.08491E-03 1.31086E-02
 -1      4116 2.11045E+01 4.56504E+01-1.13533E-01 1.63253E+01-3.17923E-03 9.15084E-03
 -1      4117 2.11080E+01 4.56426E+01-1.11701E-01 1.63612E+01-1.03324E-03 3.22089E-03
 -1      4118 2.11080E+01 4.56426E+01-1.11701E-01 1.63612E+01 1.03324E-03-3.22089E-03
 -1      4119 2.11045E+01 4.56504E+01-1.13533E-01 1.63253E+01 3.17923E-03-9.15084E-03
 -1      4120 2.10986E+01 4.56680E+01-1.16666E-01 1.62528E+01 5.08491E-03-1.31086E-02
 -1      4121 2.10907E+01 4.56976E+01-1.18471E-01 1.61431E+01 6.00599E-03-1.35689E-02
 -1      4122 2.10742E+01 4.57359E+01-1.21486E-01 1.59980E+01 4.23565E-03-8.47410E-03
 -1      4123 2.16293E+01 4.29399E+01-1.26569E-01 1.61410E+01-5.60056E-03 1.15322E-02
 -1      4124 2.16503E+01 4.28952E+01-1.22417E-01 1.62807E+01-8.18541E-03 1.76553E-02
 -1      4125 2.16610E+01 4.28603E+01-1.19261E-01 1.63869E+01-7.33630E-03 1.70601E-02
 -1      4126 2.16685E+01 4.28390E+01-1.15056E-01 1.64574E+01-4.83570E-03 1.19616E-02
 -1      4127 2.16726E+01 4.28292E+01-1.12625E-01 1.64924E+01-1.63827E-03 4.23604E-03
 -1      4128 2.16726E+01 4.28292E+01-1.12625E-01 1.64924E+01 1.63827E-03-4.23604E-03
 -1      4129 2.16685E+01 4.28390E+01-1.15056E-01 1.64574E+01 4.83570E-03-1.19616E-02
 -1      4130 2.16610E+01 4.28603E+01-1.19261E-01 1.63869E+01 7.33630E-03-1.70601E-02
 -1      4131 2.16503E+01 4.28952E+01-1.22417E-01 1.62807E+01 8.18541E-03-1.76553E-02
 -1      4132 2.16293E+01 4.29399E+01-1.26569E-01 1.61410E+01 5.60056E-03-1.15322E-02
 -1      4133 2.21225E+01 4.00499E+01-1.34109E-01 1.60303E+01-7.38362E-03 1.51090E-02
 -1      4134 2.21422E+01 4.00032E+01-1.28701E-01 1.61687E+01-1.10443E-02 2.22869E-02
 -1      4135 2.21514E+01 3.99663E+01-1.24113E-01 1.62746E+01-1.02544E-02 2.14360E-02
 -1      4136 2.21576E+01 3.99435E+01-1.18799E-01 1.63453E+01-6.96049E-03 1.50269E-02
 -1      4137 2.21609E+01 3.99328E+01-1.15763E-01 1.63805E+01-2.41031E-03 5.33438E-03
 -1      4138 2.21609E+01 3.99328E+01-1.15763E-01 1.63805E+01 2.41031E-03-5.33438E-03
 -1      4139 2.21576E+01 3.99435E+01-1.18799E-01 1.63453E+01 6.96049E-03-1.50269E-02
 -1      4140 2.21514E+01 3.99663E+01-1.24113E-01 1.62746E+01 1.02544E-02-2.14360E-02
 -1      4141 2.21422E+01 4.00032E+01-1.28701E-01 1.61687E+01 1.10443E-02-2.22869E-02
 -1      4142 2.21225E+01 4.00499E+01-1.34109E-01 1.60303E+01 7.38362E-03-1.51090E-02
 -1      4143 2.24893E+01 3.71169E+01-1.45293E-01 1.56335E+01-9.68700E-03 1.92756E-02
 -1      4144 2.25025E+01 3.70719E+01-1.38529E-01 1.57784E+01-1.47902E-02 2.74291E-02
 -1      4145 2.25068E+01 3.70356E+01-1.32486E-01 1.58899E+01-1.40723E-02 2.61079E-02
 -1      4146 2.25095E+01 3.70129E+01-1.26094E-01 1.59646E+01-9.73225E-03 1.82106E-02
 -1      4147 2.25110E+01 3.70023E+01-1.22488E-01 1.60019E+01-3.41584E-03 6.45872E-03
 -1      4148 2.25110E+01 3.70023E+01-1.22488E-01 1.60019E+01 3.41584E-03-6.45872E-03
 -1      4149 2.25095E+01 3.70129E+01-1.26094E-01 1.59646E+01 9.73225E-03-1.82106E-02
 -1      4150 2.25068E+01 3.70356E+01-1.32486E-01 1.58899E+01 1.40723E-02-2.61079E-02
 -1      4151 2.25025E+01 3.70719E+01-1.38529E-01 1.57784E+01 1.47902E-02-2.74291E-02
 -1      4152 2.24893E+01 3.71169E+01-1.45293E-01 1.56335E+01 9.68700E-03-1.92756E-02
 -1      4153 2.26337E+01 3.42024E+01-1.61749E-01 1.49280E+01-1.25663E-02 2.38369E-02
 -1      4154 2.26381E+01 3.41605E+01-1.53744E-01 1.50913E+01-1.95663E-02 3.25454E-02
 -1      4155 2.26362E+01 3.41257E+01-1.46561E-01 1.52172E+01-1.89352E-02 3.03864E-02
 -1      4156 2.26349E+01 3.41037E+01-1.39441E-01 1.53020E+01-1.32517E-02 2.09455E-02
 -1      4157 2.26346E+01 3.40933E+01-1.35497E-01 1.53444E+01-4.69020E-03 7.39116E-03
 -1      4158 2.26346E+01 3.40933E+01-1.35497E-01 1.53444E+01 4.69020E-03-7.39116E-03
 -1      4159 2.26349E+01 3.41037E+01-1.39441E-01 1.53020E+01 1.32517E-02-2.09455E-02
 -1      4160 2.26362E+01 3.41257E+01-1.46561E-01 1.52172E+01 1.89352E-02-3.03864E-02
 -1      4161 2.26381E+01 3.41605E+01-1.53744E-01 1.50913E+01 1.95663E-02-3.25454E-02
 -1      4162 2.26337E+01 3.42024E+01-1.61749E-01 1.49280E+01 1.25663E-02-2.38369E-02
 -1      4163 2.24178E+01 3.13786E+01-1.85568E-01 1.39091E+01-1.59009E-02 2.79663E-02
 -1      4164 2.24159E+01 3.13367E+01-1.76981E-01 1.41076E+01-2.52692E-02 3.60028E-02
 -1      4165 2.24110E+01 3.13010E+01-1.69737E-01 1.42606E+01-2.47142E-02 3.24072E-02
 -1      4166 2.24090E+01 3.12779E+01-1.62950E-01 1.43636E+01-1.74035E-02 2.17838E-02
 -1      4167 2.24086E+01 3.12669E+01-1.59316E-01 1.44153E+01-6.18676E-03 7.58893E-03
 -1      4168 2.24086E+01 3.12669E+01-1.59316E-01 1.44153E+01 6.18676E-03-7.58893E-03
 -1      4169 2.24090E+01 3.12779E+01-1.62950E-01 1.43636E+01 1.74035E-02-2.17838E-02
 -1      4170 2.24110E+01 3.13010E+01-1.69737E-01 1.42606E+01 2.47142E-02-3.24072E-02
 -1      4171 2.24159E+01 3.13367E+01-1.76981E-01 1.41076E+01 2.52692E-02-3.60028E-02
 -1      4172 2.24178E+01 3.13786E+01-1.85568E-01 1.39091E+01 1.59009E-02-2.79663E-02
 -1      4173 2.16463E+01 2.87264E+01-2.19114E-01 1.26059E+01-1.89600E-02 2.96607E-02
 -1      4174 2.16508E+01 2.86739E+01-2.11665E-01 1.28613E+01-3.09090E-02 3.42145E-02
 -1      4175 2.16552E+01 2.86291E+01-2.06884E-01 1.30569E+01-3.03532E-02 2.82771E-02
 -1      4176 2.16620E+01 2.85995E+01-2.02796E-01 1.31883E+01-2.13766E-02 1.77854E-02
 -1      4177 2.16669E+01 2.85850E+01-2.00886E-01 1.32541E+01-7.60153E-03 5.96444E-03
 -1      4178 2.16669E+01 2.85850E+01-2.00886E-01 1.32541E+01 7.60153E-03-5.96444E-03
 -1      4179 2.16620E+01 2.85995E+01-2.02796E-01 1.31883E+01 2.13766E-02-1.77854E-02
 -1      4180 2.16552E+01 2.86291E+01-2.06884E-01 1.30569E+01 3.03532E-02-2.82771E-02
 -1      4181 2.16508E+01 2.86739E+01-2.11665E-01 1.28613E+01 3.09090E-02-3.42145E-02
 -1      4182 2.16463E+01 2.87264E+01-2.19114E-01 1.26059E+01 1.89600E-02-2.96607E-02
 -1      4183 2.00517E+01 2.63279E+01-2.64134E-01 1.11079E+01-1.94601E-02 2.51155E-02
 -1      4184 2.00931E+01 2.62418E+01-2.61357E-01 1.14449E+01-3.32295E-02 2.07379E-02
 -1      4185 2.01342E+01 2.61706E+01-2.63948E-01 1.17001E+01-3.24839E-02 1.12297E-02
 -1      4186 2.01704E+01 2.61229E+01-2.67011E-01 1.18700E+01-2.26596E-02 3.94681E-03
 -1      4187 2.01917E+01 2.60993E+01-2.69445E-01 1.19547E+01-8.00772E-03 6.83961E-04
 -1      4188 2.01917E+01 2.60993E+01-2.69445E-01 1.19547E+01 8.00772E-03-6.83961E-04
 -1      4189 2.01704E+01 2.61229E+01-2.67011E-01 1.18700E+01 2.26596E-02-3.94681E-03
 -1      4190 2.01342E+01 2.61706E+01-2.63948E-01 1.17001E+01 3.24839E-02-1.12297E-02
 -1      4191 2.00931E+01 2.62418E+01-2.61357E-01 1.14449E+01 3.32295E-02-2.07379E-02
 -1      4192 2.00517E+01 2.63279E+01-2.64134E-01 1.11079E+01 1.94601E-02-2.51155E-02
 -1      4193 1.72855E+01 2.42450E+01-3.19118E-01 9.61156E+00-1.19133E-02 8.43691E-03
 -1      4194 1.74228E+01 2.40830E+01-3.27295E-01 1.00518E+01-2.43247E-02-1.39823E-02
 -1      4195 1.75513E+01 2.39546E+01-3.45508E-01 1.03786E+01-2.30945E-02-2.84269E-02
 -1      4196 1.76538E+01 2.38687E+01-3.63078E-01 1.05929E+01-1.53761E-02-2.67532E-02
 -1      4197 1.77109E+01 2.38260E+01-3.74096E-01 1.06986E+01-5.25628E-03-1.07949E-02
 -1      4198 1.77109E+01 2.38260E+01-3.74096E-01 1.06986E+01 5.25628E-03 1.07949E-02
 -1      4199 1.76538E+01 2.38687E+01-3.63078E-01 1.05929E+01 1.53761E-02 2.67532E-02
 -1      4200 1.75513E+01 2.39546E+01-3.45508E-01 1.03786E+01 2.30945E-02 2.84269E-02
 -1      4201 1.74228E+01 2.40830E+01-3.27295E-01 1.00518E+01 2.43247E-02 1.39823E-02
 -1      4202 1.72855E+01 2.42450E+01-3.19118E-01 9.61156E+00 1.19133E-02-8.43691E-03
 -1      4203 1.29359E+01 2.24660E+01-3.72918E-01 8.49242E+00 1.46640E-02-2.75910E-02
 -1      4204 1.32694E+01 2.21590E+01-4.01647E-01 9.03975E+00 1.14479E-02-8.07179E-02
 -1      4205 1.35664E+01 2.19243E+01-4.47841E-01 9.43319E+00 1.33947E-02-1.01123E-01
 -1      4206 1.37926E+01 2.17694E+01-4.90362E-01 9.68452E+00 1.17250E-02-8.15726E-02
 -1      4207 1.39149E+01 2.16929E+01-5.15928E-01 9.80626E+00 4.73651E-03-3.10583E-02
 -1      4208 1.39149E+01 2.16929E+01-5.15928E-01 9.80626E+00-4.73651E-03 3.10583E-02
 -1      4209 1.37926E+01 2.17694E+01-4.90362E-01 9.68452E+00-1.17250E-02 8.15726E-02
 -1      4210 1.35664E+01 2.19243E+01-4.47841E-01 9.43319E+00-1.33947E-02 1.01123E-01
 -1      4211 1.32694E+01 2.21590E+01-4.01647E-01 9.03975E+00-1.14479E-02 8.07179E-02
 -1      4212 1.29359E+01 2.24660E+01-3.72918E-01 8.49242E+00-1.46640E-02 2.75910E-02
 -1      4213 6.62060E+00 2.07861E+01-3.90506E-01 8.40604E+00 7.82998E-02-8.82095E-02
 -1      4214 7.29503E+00 2.02314E+01-4.53907E-01 9.01815E+00 9.95194E-02-1.85972E-01
 -1      4215 7.87320E+00 1.98232E+01-5.43056E-01 9.43469E+00 1.01611E-01-2.11704E-01
 -1      4216 8.29832E+00 1.95591E+01-6.23300E-01 9.68814E+00 7.61526E-02-1.63352E-01
 -1      4217 8.52366E+00 1.94302E+01-6.70450E-01 9.80666E+00 2.82675E-02-6.09921E-02
 -1      4218 8.52366E+00 1.94302E+01-6.70450E-01 9.80666E+00-2.82675E-02 6.09921E-02
 -1      4219 8.29832E+00 1.95591E+01-6.23300E-01 9.68814E+00-7.61526E-02 1.63352E-01
 -1      4220 7.87320E+00 1.98232E+01-5.43056E-01 9.43469E+00-1.01611E-01 2.11704E-01
 -1      4221 7.29503E+00 2.02314E+01-4.53907E-01 9.01815E+00-9.95194E-02 1.85972E-01
 -1      4222 6.62060E+00 2.07861E+01-3.90506E-01 8.40604E+00-7.82998E-02 8.82095E-02
 -1      4223-1.75662E+00 1.85442E+01-2.90143E-01 1.03834E+01 2.02830E-01-1.73136E-01
 -1      4224-5.63882E-01 1.76164E+01-4.01137E-01 1.09264E+01 2.70736E-01-3.21702E-01
 -1      4225 4.17674E-01 1.69585E+01-5.50815E-01 1.12537E+01 2.70745E-01-3.49567E-01
 -1      4226 1.11853E+00 1.65450E+01-6.81096E-01 1.14286E+01 1.98169E-01-2.62884E-01
 -1      4227 1.48306E+00 1.63465E+01-7.56432E-01 1.15019E+01 7.25664E-02-9.70356E-02
 -1      4228 1.48306E+00 1.63465E+01-7.56432E-01 1.15019E+01-7.25664E-02 9.70356E-02
 -1      4229 1.11853E+00 1.65450E+01-6.81096E-01 1.14286E+01-1.98169E-01 2.62884E-01
 -1      4230 4.17674E-01 1.69585E+01-5.50815E-01 1.12537E+01-2.70745E-01 3.49567E-01
 -1      4231-5.63882E-01 1.76164E+01-4.01137E-01 1.09264E+01-2.70736E-01 3.21702E-01
 -1      4232-1.75662E+00 1.85442E+01-2.90143E-01 1.03834E+01-2.02830E-01 1.73136E-01
 -1      4233-1.14341E+01 1.41049E+01 9.51419E-02 1.57868E+01 4.01690E-01-2.66341E-01
 -1      4234-9.60023E+00 1.26843E+01-9.37501E-02 1.59831E+01 5.45712E-01-4.58767E-01
 -1      4235-8.14119E+00 1.17270E+01-3.16859E-01 1.60090E+01 5.38007E-01-4.78434E-01
 -1      4236-7.13006E+00 1.11488E+01-5.05841E-01 1.59655E+01 3.88618E-01-3.52082E-01
 -1      4237-6.61269E+00 1.08796E+01-6.12508E-01 1.59245E+01 1.41145E-01-1.28566E-01
 -1      4238-6.61269E+00 1.08796E+01-6.12508E-01 1.59245E+01-1.41145E-01 1.28566E-01
 -1      4239-7.13006E+00 1.11488E+01-5.05841E-01 1.59655E+01-3.88618E-01 3.52082E-01
 -1      4240-8.14119E+00 1.17270E+01-3.16859E-01 1.60090E+01-5.38007E-01 4.78434E-01
 -1      4241-9.60023E+00 1.26843E+01-9.37501E-02 1.59831E+01-5.45712E-01 4.58767E-01
 -1      4242-1.14341E+01 1.41049E+01 9.51419E-02 1.57868E+01-4.01690E-01 2.66341E-01
 -1      4243-1.98310E+01 3.88713E+00 9.50773E-01 2.56100E+01 6.76024E-01-3.48423E-01
 -1      4244-1.74101E+01 2.00098E+00 6.93185E-01 2.50080E+01 9.03397E-01-5.33922E-01
 -1      4245-1.55626E+01 8.05933E-01 3.87453E-01 2.44339E+01 8.74064E-01-5.34221E-01
 -1      4246-1.43079E+01 1.36492E-01 1.41990E-01 2.39946E+01 6.21276E-01-3.83154E-01
 -1      4247-1.36774E+01-1.60007E-01 3.42243E-03 2.37591E+01 2.24003E-01-1.38443E-01
 -1      4248-1.36774E+01-1.60007E-01 3.42243E-03 2.37591E+01-2.24003E-01 1.38443E-01
 -1      4249-1.43079E+01 1.36492E-01 1.41990E-01 2.39946E+01-6.21276E-01 3.83154E-01
 -1      4250-1.55626E+01 8.05933E-01 3.87453E-01 2.44339E+01-8.74064E-01 5.34221E-01
 -1      4251-1.74101E+01 2.00098E+00 6.93185E-01 2.50080E+01-9.03397E-01 5.33922E-01
 -1      4252-1.98310E+01 3.88713E+00 9.50773E-01 2.56100E+01-6.76024E-01 3.48423E-01
 -1      4253-2.32256E+01-1.93664E+01 1.84942E+00 3.81693E+01 9.14992E-01-3.23230E-01
 -1      4254-2.06643E+01-2.13291E+01 1.44817E+00 3.63336E+01 1.19805E+00-4.59090E-01
 -1      4255-1.87186E+01-2.23953E+01 1.07420E+00 3.49247E+01 1.12147E+00-4.33051E-01
 -1      4256-1.74403E+01-2.29184E+01 7.69507E-01 3.39969E+01 7.82819E-01-3.01845E-01
 -1      4257-1.68056E+01-2.31223E+01 6.03559E-01 3.35389E+01 2.79175E-01-1.06821E-01
 -1      4258-1.68056E+01-2.31223E+01 6.03559E-01 3.35389E+01-2.79175E-01 1.06821E-01
 -1      4259-1.74403E+01-2.29184E+01 7.69507E-01 3.39969E+01-7.82819E-01 3.01845E-01
 -1      4260-1.87186E+01-2.23953E+01 1.07420E+00 3.49247E+01-1.12147E+00 4.33051E-01
 -1      4261-2.06643E+01-2.13291E+01 1.44817E+00 3.63336E+01-1.19805E+00 4.59090E-01
 -1      4262-2.32256E+01-1.93664E+01 1.84942E+00 3.81693E+01-9.14992E-01 3.23230E-01
 -1      4263-1.98313E+01-6.32215E+01 1.10760E+00 4.52898E+01 7.43435E-01-3.18921E-01
 -1      4264-1.75128E+01-6.40936E+01 9.16791E-01 4.21979E+01 9.09840E-01-2.10721E-01
 -1      4265-1.59723E+01-6.44322E+01 4.52282E-01 4.02241E+01 8.43256E-01-1.42331E-01
 -1      4266-1.49591E+01-6.44533E+01 1.47841E-01 3.90509E+01 5.61388E-01-7.20954E-02
 -1      4267-1.44692E+01-6.44156E+01-1.53796E-02 3.85105E+01 1.95767E-01-2.26611E-02
 -1      4268-1.44692E+01-6.44156E+01-1.53796E-02 3.85105E+01-1.95767E-01 2.26611E-02
 -1      4269-1.49591E+01-6.44533E+01 1.47841E-01 3.90509E+01-5.61388E-01 7.20954E-02
 -1      4270-1.59723E+01-6.44322E+01 4.52282E-01 4.02241E+01-8.43256E-01 1.42331E-01
 -1      4271-1.75128E+01-6.40936E+01 9.16791E-01 4.21979E+01-9.09840E-01 2.10721E-01
 -1      4272-1.98313E+01-6.32215E+01 1.10760E+00 4.52898E+01-7.43435E-01 3.18921E-01
 -1      4273-1.31996E+01-1.21139E+02-2.01493E+00 3.36789E+01-4.44272E-01-2.03659E-01
 -1      4274-1.18608E+01-1.20835E+02-1.91868E+00 3.08429E+01-9.96578E-01 2.24670E-02
 -1      4275-1.07086E+01-1.20199E+02-1.66498E+00 2.93044E+01-1.04382E+00 2.39127E-01
 -1      4276-1.00087E+01-1.19698E+02-1.62214E+00 2.85466E+01-6.99245E-01 1.94284E-01
 -1      4277-9.66033E+00-1.19390E+02-1.62040E+00 2.82118E+01-2.42497E-01 7.30405E-02
 -1      4278-9.66033E+00-1.19390E+02-1.62040E+00 2.82118E+01 2.42497E-01-7.30405E-02
 -1      4279-1.00087E+01-1.19698E+02-1.62214E+00 2.85466E+01 6.99245E-01-1.94284E-01
 -1      4280-1.07086E+01-1.20199E+02-1.66498E+00 2.93044E+01 1.04382E+00-2.39127E-01
 -1      4281-1.18608E+01-1.20835E+02-1.91868E+00 3.08429E+01 9.96578E-01-2.24670E-02
 -1      4282-1.31996E+01-1.21139E+02-2.01493E+00 3.36789E+01 4.44272E-01 2.03659E-01
 -1      4283 1.62519E+01 5.31813E+01-3.17695E-02 8.04262E+00-3.31437E+00-2.63951E-01
 -1      4284 1.79203E+01 5.34993E+01 5.39563E+00 7.54313E+00-4.72997E+00-3.38890E-01
 -1      4285 1.88029E+01 5.35836E+01 8.36902E+00 7.24819E+00-3.72610E+00-2.73575E-01
 -1      4286 1.92395E+01 5.35782E+01 9.91058E+00 7.07857E+00-2.30365E+00-1.72716E-01
 -1      4287 1.94243E+01 5.35662E+01 1.05816E+01 7.00019E+00-7.74703E-01-5.86172E-02
 -1      4288 1.94243E+01 5.35662E+01 1.05816E+01 7.00019E+00 7.74703E-01 5.86172E-02
 -1      4289 1.92395E+01 5.35782E+01 9.91058E+00 7.07857E+00 2.30365E+00 1.72716E-01
 -1      4290 1.88029E+01 5.35836E+01 8.36902E+00 7.24819E+00 3.72610E+00 2.73575E-01
 -1      4291 1.79203E+01 5.34993E+01 5.39563E+00 7.54313E+00 4.72997E+00 3.38890E-01
 -1      4292 1.62519E+01 5.31813E+01-3.17695E-02 8.04262E+00 3.31437E+00 2.63951E-01
 -1      4293 1.66807E+01 5.44312E+01 1.03048E+00 7.00615E+00-3.05785E-01-3.26527E-01
 -1      4294 1.66085E+01 5.50308E+01 5.08794E-01 6.62959E+00-5.78355E-01-4.10705E-01
 -1      4295 1.69814E+01 5.53770E+01 1.62690E+00 6.36790E+00-9.05273E-01-3.64025E-01
 -1      4296 1.72887E+01 5.55471E+01 2.63587E+00 6.20393E+00-7.09040E-01-2.37884E-01
 -1      4297 1.74455E+01 5.56140E+01 3.17279E+00 6.12535E+00-2.61032E-01-8.18952E-02
 -1      4298 1.74455E+01 5.56140E+01 3.17279E+00 6.12535E+00 2.61032E-01 8.18952E-02
 -1      4299 1.72887E+01 5.55471E+01 2.63587E+00 6.20393E+00 7.09040E-01 2.37884E-01
 -1      4300 1.69814E+01 5.53770E+01 1.62690E+00 6.36790E+00 9.05273E-01 3.64025E-01
 -1      4301 1.66085E+01 5.50308E+01 5.08794E-01 6.62959E+00 5.78355E-01 4.10705E-01
 -1      4302 1.66807E+01 5.44312E+01 1.03048E+00 7.00615E+00 3.05785E-01 3.26527E-01
 -1      4303 1.56765E+01 5.27719E+01-1.58995E-01 6.62729E+00 4.94414E-01-1.82004E-01
 -1      4304 1.61908E+01 5.47034E+01-1.43599E-02 6.52510E+00 6.39300E-01-2.64129E-01
 -1      4305 1.63295E+01 5.55808E+01-1.28349E-01 6.38331E+00 4.99164E-01-2.49931E-01
 -1      4306 1.64312E+01 5.60265E+01-2.26021E-02 6.27399E+00 2.60949E-01-1.74985E-01
 -1      4307 1.64886E+01 5.62174E+01 8.80777E-02 6.21655E+00 7.75741E-02-6.22126E-02
 -1      4308 1.64886E+01 5.62174E+01 8.80777E-02 6.21655E+00-7.75741E-02 6.22126E-02
 -1      4309 1.64312E+01 5.60265E+01-2.26021E-02 6.27399E+00-2.60949E-01 1.74985E-01
 -1      4310 1.63295E+01 5.55808E+01-1.28349E-01 6.38331E+00-4.99164E-01 2.49931E-01
 -1      4311 1.61908E+01 5.47034E+01-1.43599E-02 6.52510E+00-6.39300E-01 2.64129E-01
 -1      4312 1.56765E+01 5.27719E+01-1.58995E-01 6.62729E+00-4.94414E-01 1.82004E-01
 -1      4313 1.58946E+01 5.29805E+01-2.44040E-01 6.78302E+00 4.42681E-01-8.91078E-02
 -1      4314 1.60393E+01 5.39559E+01-3.56001E-01 6.78842E+00 6.80440E-01-1.28562E-01
 -1      4315 1.61707E+01 5.48153E+01-4.60692E-01 6.76544E+00 6.44302E-01-1.27095E-01
 -1      4316 1.62225E+01 5.53458E+01-5.87731E-01 6.73213E+00 4.43905E-01-9.04732E-02
 -1      4317 1.62428E+01 5.55960E+01-6.49679E-01 6.71059E+00 1.55355E-01-3.27044E-02
 -1      4318 1.62428E+01 5.55960E+01-6.49679E-01 6.71059E+00-1.55355E-01 3.27044E-02
 -1      4319 1.62225E+01 5.53458E+01-5.87731E-01 6.73213E+00-4.43905E-01 9.04732E-02
 -1      4320 1.61707E+01 5.48153E+01-4.60692E-01 6.76544E+00-6.44302E-01 1.27095E-01
 -1      4321 1.60393E+01 5.39559E+01-3.56001E-01 6.78842E+00-6.80440E-01 1.28562E-01
 -1      4322 1.58946E+01 5.29805E+01-2.44040E-01 6.78302E+00-4.42681E-01 8.91078E-02
 -1      4323 1.63054E+01 5.28568E+01-2.18962E-01 7.16304E+00 2.78720E-01-3.56717E-02
 -1      4324 1.63195E+01 5.33751E+01-3.06742E-01 7.23122E+00 4.38209E-01-5.32441E-02
 -1      4325 1.63354E+01 5.38607E+01-4.30328E-01 7.26730E+00 4.42589E-01-5.30106E-02
 -1      4326 1.63527E+01 5.42384E+01-5.31887E-01 7.28506E+00 3.18637E-01-3.83891E-02
 -1      4327 1.63592E+01 5.44365E+01-5.94540E-01 7.29145E+00 1.15496E-01-1.38521E-02
 -1      4328 1.63592E+01 5.44365E+01-5.94540E-01 7.29145E+00-1.15496E-01 1.38521E-02
 -1      4329 1.63527E+01 5.42384E+01-5.31887E-01 7.28506E+00-3.18637E-01 3.83891E-02
 -1      4330 1.63354E+01 5.38607E+01-4.30328E-01 7.26730E+00-4.42589E-01 5.30106E-02
 -1      4331 1.63195E+01 5.33751E+01-3.06742E-01 7.23122E+00-4.38209E-01 5.32441E-02
 -1      4332 1.63054E+01 5.28568E+01-2.18962E-01 7.16304E+00-2.78720E-01 3.56717E-02
 -1      4333 1.67196E+01 5.23391E+01-1.58237E-01 7.62581E+00 1.42811E-01-1.22954E-02
 -1      4334 1.66686E+01 5.25874E+01-2.16478E-01 7.72616E+00 2.29704E-01-1.80679E-02
 -1      4335 1.66398E+01 5.28475E+01-2.91378E-01 7.79592E+00 2.37756E-01-1.84282E-02
 -1      4336 1.66230E+01 5.30548E+01-3.59696E-01 7.83949E+00 1.75278E-01-1.34976E-02
 -1      4337 1.66164E+01 5.31708E+01-3.97833E-01 7.86054E+00 6.40603E-02-4.94467E-03
 -1      4338 1.66164E+01 5.31708E+01-3.97833E-01 7.86054E+00-6.40603E-02 4.94467E-03
 -1      4339 1.66230E+01 5.30548E+01-3.59696E-01 7.83949E+00-1.75278E-01 1.34976E-02
 -1      4340 1.66398E+01 5.28475E+01-2.91378E-01 7.79592E+00-2.37756E-01 1.84282E-02
 -1      4341 1.66686E+01 5.25874E+01-2.16478E-01 7.72616E+00-2.29704E-01 1.80679E-02
 -1      4342 1.67196E+01 5.23391E+01-1.58237E-01 7.62581E+00-1.42811E-01 1.22954E-02
 -1      4343 1.70401E+01 5.14896E+01-1.16588E-01 8.12472E+00 6.20199E-02-3.44096E-03
 -1      4344 1.69729E+01 5.16086E+01-1.46877E-01 8.24383E+00 1.01452E-01-4.73404E-03
 -1      4345 1.69277E+01 5.17368E+01-1.86237E-01 8.33125E+00 1.07975E-01-4.76004E-03
 -1      4346 1.68999E+01 5.18428E+01-2.21654E-01 8.38866E+00 8.09879E-02-3.56188E-03
 -1      4347 1.68865E+01 5.19020E+01-2.42421E-01 8.41702E+00 2.99261E-02-1.29952E-03
 -1      4348 1.68865E+01 5.19020E+01-2.42421E-01 8.41702E+00-2.99261E-02 1.29952E-03
 -1      4349 1.68999E+01 5.18428E+01-2.21654E-01 8.38866E+00-8.09879E-02 3.56188E-03
 -1      4350 1.69277E+01 5.17368E+01-1.86237E-01 8.33125E+00-1.07975E-01 4.76004E-03
 -1      4351 1.69729E+01 5.16086E+01-1.46877E-01 8.24383E+00-1.01452E-01 4.73404E-03
 -1      4352 1.70401E+01 5.14896E+01-1.16588E-01 8.12472E+00-6.20199E-02 3.44096E-03
 -1      4353 1.72605E+01 5.03975E+01-9.48818E-02 8.64968E+00 2.19369E-02-6.12598E-04
 -1      4354 1.71998E+01 5.04557E+01-1.08635E-01 8.78039E+00 3.70033E-02-1.25924E-04
 -1      4355 1.71569E+01 5.05176E+01-1.25953E-01 8.87778E+00 4.08786E-02 2.92777E-05
 -1      4356 1.71291E+01 5.05684E+01-1.42095E-01 8.94245E+00 3.14903E-02 8.23795E-06
 -1      4357 1.71157E+01 5.05971E+01-1.51408E-01 8.97469E+00 1.17670E-02 3.63304E-06
 -1      4358 1.71157E+01 5.05971E+01-1.51408E-01 8.97469E+00-1.17670E-02-3.63304E-06
 -1      4359 1.71291E+01 5.05684E+01-1.42095E-01 8.94245E+00-3.14903E-02-8.23795E-06
 -1      4360 1.71569E+01 5.05176E+01-1.25953E-01 8.87778E+00-4.08786E-02-2.92777E-05
 -1      4361 1.71998E+01 5.04557E+01-1.08635E-01 8.78039E+00-3.70033E-02 1.25924E-04
 -1      4362 1.72605E+01 5.03975E+01-9.48818E-02 8.64968E+00-2.19369E-02 6.12598E-04
 -1      4363 1.74026E+01 4.91097E+01-8.69246E-02 9.19214E+00 5.01334E-03 4.43997E-04
 -1      4364 1.73582E+01 4.91375E+01-9.20804E-02 9.32958E+00 9.25425E-03 1.68161E-03
 -1      4365 1.73257E+01 4.91656E+01-9.81868E-02 9.43238E+00 1.12836E-02 1.96500E-03
 -1      4366 1.73040E+01 4.91883E+01-1.04146E-01 9.50085E+00 9.22430E-03 1.45240E-03
 -1      4367 1.72934E+01 4.92011E+01-1.07564E-01 9.53504E+00 3.54274E-03 5.37972E-04
 -1      4368 1.72934E+01 4.92011E+01-1.07564E-01 9.53504E+00-3.54274E-03-5.37972E-04
 -1      4369 1.73040E+01 4.91883E+01-1.04146E-01 9.50085E+00-9.22430E-03-1.45240E-03
 -1      4370 1.73257E+01 4.91656E+01-9.81868E-02 9.43238E+00-1.12836E-02-1.96500E-03
 -1      4371 1.73582E+01 4.91375E+01-9.20804E-02 9.32958E+00-9.25425E-03-1.68161E-03
 -1      4372 1.74026E+01 4.91097E+01-8.69246E-02 9.19214E+00-5.01334E-03-4.43997E-04
 -1      4373 1.74930E+01 4.76445E+01-8.62397E-02 9.73363E+00-9.80013E-04 1.25591E-03
 -1      4374 1.74674E+01 4.76531E+01-8.74088E-02 9.87376E+00-8.41227E-04 2.99352E-03
 -1      4375 1.74480E+01 4.76620E+01-8.83464E-02 9.97874E+00 1.07298E-04 3.32251E-03
 -1      4376 1.74345E+01 4.76692E+01-8.96074E-02 1.00487E+01 6.17991E-04 2.45615E-03
 -1      4377 1.74278E+01 4.76734E+01-9.02493E-02 1.00837E+01 3.21313E-04 9.04388E-04
 -1      4378 1.74278E+01 4.76734E+01-9.02493E-02 1.00837E+01-3.21313E-04-9.04388E-04
 -1      4379 1.74345E+01 4.76692E+01-8.96074E-02 1.00487E+01-6.17991E-04-2.45615E-03
 -1      4380 1.74480E+01 4.76620E+01-8.83464E-02 9.97874E+00-1.07298E-04-3.32251E-03
 -1      4381 1.74674E+01 4.76531E+01-8.74088E-02 9.87376E+00 8.41227E-04-2.99352E-03
 -1      4382 1.74930E+01 4.76445E+01-8.62397E-02 9.73363E+00 9.80013E-04-1.25591E-03
 -1      4383 1.75512E+01 4.60077E+01-8.89529E-02 1.02456E+01-2.64325E-03 2.24620E-03
 -1      4384 1.75435E+01 4.60013E+01-8.83348E-02 1.03852E+01-3.82183E-03 4.43576E-03
 -1      4385 1.75368E+01 4.59970E+01-8.70313E-02 1.04899E+01-3.41941E-03 4.76869E-03
 -1      4386 1.75314E+01 4.59944E+01-8.62339E-02 1.05598E+01-2.21184E-03 3.50743E-03
 -1      4387 1.75286E+01 4.59932E+01-8.56615E-02 1.05948E+01-7.56906E-04 1.28683E-03
 -1      4388 1.75286E+01 4.59932E+01-8.56615E-02 1.05948E+01 7.56906E-04-1.28683E-03
 -1      4389 1.75314E+01 4.59944E+01-8.62339E-02 1.05598E+01 2.21184E-03-3.50743E-03
 -1      4390 1.75368E+01 4.59970E+01-8.70313E-02 1.04899E+01 3.41941E-03-4.76869E-03
 -1      4391 1.75435E+01 4.60013E+01-8.83348E-02 1.03852E+01 3.82183E-03-4.43576E-03
 -1      4392 1.75512E+01 4.60077E+01-8.89529E-02 1.02456E+01 2.64325E-03-2.24620E-03
 -1      4393 1.75849E+01 4.42055E+01-9.32333E-02 1.06930E+01-2.98561E-03 3.47469E-03
 -1      4394 1.75923E+01 4.41863E+01-9.17092E-02 1.08298E+01-4.56466E-03 6.11967E-03
 -1      4395 1.75964E+01 4.41718E+01-8.93380E-02 1.09327E+01-4.42474E-03 6.42408E-03
 -1      4396 1.75980E+01 4.41619E+01-8.75701E-02 1.10015E+01-3.07386E-03 4.70184E-03
 -1      4397 1.75986E+01 4.41570E+01-8.64283E-02 1.10360E+01-1.09524E-03 1.71974E-03
 -1      4398 1.75986E+01 4.41570E+01-8.64283E-02 1.10360E+01 1.09524E-03-1.71974E-03
 -1      4399 1.75980E+01 4.41619E+01-8.75701E-02 1.10015E+01 3.07386E-03-4.70184E-03
 -1      4400 1.75964E+01 4.41718E+01-8.93380E-02 1.09327E+01 4.42474E-03-6.42408E-03
 -1      4401 1.75923E+01 4.41863E+01-9.17092E-02 1.08298E+01 4.56466E-03-6.11967E-03
 -1      4402 1.75849E+01 4.42055E+01-9.32333E-02 1.06930E+01 2.98561E-03-3.47469E-03
 -1      4403 1.75868E+01 4.22506E+01-9.84985E-02 1.10376E+01-3.15751E-03 4.95953E-03
 -1      4404 1.76058E+01 4.22210E+01-9.63073E-02 1.11710E+01-4.99103E-03 8.07945E-03
 -1      4405 1.76182E+01 4.21985E+01-9.32026E-02 1.12716E+01-4.98980E-03 8.32446E-03
 -1      4406 1.76252E+01 4.21830E+01-9.07899E-02 1.13391E+01-3.54967E-03 6.06403E-03
 -1      4407 1.76284E+01 4.21753E+01-8.92794E-02 1.13729E+01-1.28032E-03 2.21232E-03
 -1      4408 1.76284E+01 4.21753E+01-8.92794E-02 1.13729E+01 1.28032E-03-2.21232E-03
 -1      4409 1.76252E+01 4.21830E+01-9.07899E-02 1.13391E+01 3.54967E-03-6.06403E-03
 -1      4410 1.76182E+01 4.21985E+01-9.32026E-02 1.12716E+01 4.98980E-03-8.32446E-03
 -1      4411 1.76058E+01 4.22210E+01-9.63073E-02 1.11710E+01 4.99103E-03-8.07945E-03
 -1      4412 1.75868E+01 4.22506E+01-9.84985E-02 1.10376E+01 3.15751E-03-4.95953E-03
 -1      4413 1.75325E+01 4.01655E+01-1.04803E-01 1.12423E+01-3.50444E-03 6.76745E-03
 -1      4414 1.75595E+01 4.01281E+01-1.01904E-01 1.13734E+01-5.71998E-03 1.04045E-02
 -1      4415 1.75774E+01 4.00996E+01-9.80408E-02 1.14727E+01-5.82423E-03 1.05478E-02
 -1      4416 1.75879E+01 4.00799E+01-9.49838E-02 1.15394E+01-4.19610E-03 7.64465E-03
 -1      4417 1.75928E+01 4.00701E+01-9.31129E-02 1.15729E+01-1.52242E-03 2.78173E-03
 -1      4418 1.75928E+01 4.00701E+01-9.31129E-02 1.15729E+01 1.52242E-03-2.78173E-03
 -1      4419 1.75879E+01 4.00799E+01-9.49838E-02 1.15394E+01 4.19610E-03-7.64465E-03
 -1      4420 1.75774E+01 4.00996E+01-9.80408E-02 1.14727E+01 5.82423E-03-1.05478E-02
 -1      4421 1.75595E+01 4.01281E+01-1.01904E-01 1.13734E+01 5.71998E-03-1.04045E-02
 -1      4422 1.75325E+01 4.01655E+01-1.04803E-01 1.12423E+01 3.50444E-03-6.76745E-03
 -1      4423 1.73766E+01 3.79834E+01-1.12492E-01 1.12747E+01-4.09066E-03 9.01194E-03
 -1      4424 1.74085E+01 3.79405E+01-1.08741E-01 1.14069E+01-6.91163E-03 1.32275E-02
 -1      4425 1.74296E+01 3.79075E+01-1.03968E-01 1.15074E+01-7.13579E-03 1.32011E-02
 -1      4426 1.74420E+01 3.78847E+01-1.00157E-01 1.15751E+01-5.18611E-03 9.50841E-03
 -1      4427 1.74479E+01 3.78733E+01-9.78705E-02 1.16092E+01-1.88835E-03 3.44921E-03
 -1      4428 1.74479E+01 3.78733E+01-9.78705E-02 1.16092E+01 1.88835E-03-3.44921E-03
 -1      4429 1.74420E+01 3.78847E+01-1.00157E-01 1.15751E+01 5.18611E-03-9.50841E-03
 -1      4430 1.74296E+01 3.79075E+01-1.03968E-01 1.15074E+01 7.13579E-03-1.32011E-02
 -1      4431 1.74085E+01 3.79405E+01-1.08741E-01 1.14069E+01 6.91163E-03-1.32275E-02
 -1      4432 1.73766E+01 3.79834E+01-1.12492E-01 1.12747E+01 4.09066E-03-9.01194E-03
 -1      4433 1.70491E+01 3.57480E+01-1.22003E-01 1.11123E+01-4.91535E-03 1.17994E-02
 -1      4434 1.70839E+01 3.57005E+01-1.17252E-01 1.12515E+01-8.62491E-03 1.66327E-02
 -1      4435 1.71068E+01 3.56637E+01-1.11433E-01 1.13576E+01-9.00954E-03 1.63196E-02
 -1      4436 1.71204E+01 3.56382E+01-1.06778E-01 1.14293E+01-6.59129E-03 1.16582E-02
 -1      4437 1.71267E+01 3.56254E+01-1.04033E-01 1.14655E+01-2.40580E-03 4.21173E-03
 -1      4438 1.71267E+01 3.56254E+01-1.04033E-01 1.14655E+01 2.40580E-03-4.21173E-03
 -1      4439 1.71204E+01 3.56382E+01-1.06778E-01 1.14293E+01 6.59129E-03-1.16582E-02
 -1      4440 1.71068E+01 3.56637E+01-1.11433E-01 1.13576E+01 9.00954E-03-1.63196E-02
 -1      4441 1.70839E+01 3.57005E+01-1.17252E-01 1.12515E+01 8.62491E-03-1.66327E-02
 -1      4442 1.70491E+01 3.57480E+01-1.22003E-01 1.11123E+01 4.91535E-03-1.17994E-02
 -1      4443 1.64494E+01 3.35125E+01-1.33703E-01 1.07502E+01-5.95770E-03 1.51157E-02
 -1      4444 1.64878E+01 3.34588E+01-1.27917E-01 1.09049E+01-1.09048E-02 2.04674E-02
 -1      4445 1.65134E+01 3.34169E+01-1.21076E-01 1.10231E+01-1.15043E-02 1.96675E-02
 -1      4446 1.65286E+01 3.33878E+01-1.15645E-01 1.11031E+01-8.45544E-03 1.38855E-02
 -1      4447 1.65358E+01 3.33730E+01-1.12494E-01 1.11435E+01-3.09053E-03 4.98693E-03
 -1      4448 1.65358E+01 3.33730E+01-1.12494E-01 1.11435E+01 3.09053E-03-4.98693E-03
 -1      4449 1.65286E+01 3.33878E+01-1.15645E-01 1.11031E+01 8.45544E-03-1.38855E-02
 -1      4450 1.65134E+01 3.34169E+01-1.21076E-01 1.10231E+01 1.15043E-02-1.96675E-02
 -1      4451 1.64878E+01 3.34588E+01-1.27917E-01 1.09049E+01 1.09048E-02-2.04674E-02
 -1      4452 1.64494E+01 3.35125E+01-1.33703E-01 1.07502E+01 5.95770E-03-1.51157E-02
 -1      4453 1.54416E+01 3.13362E+01-1.47625E-01 1.02125E+01-7.09069E-03 1.86234E-02
 -1      4454 1.54888E+01 3.12702E+01-1.41070E-01 1.03937E+01-1.36640E-02 2.40179E-02
 -1      4455 1.55214E+01 3.12184E+01-1.33639E-01 1.05323E+01-1.45331E-02 2.24035E-02
 -1      4456 1.55418E+01 3.11824E+01-1.27876E-01 1.06261E+01-1.07065E-02 1.55251E-02
 -1      4457 1.55517E+01 3.11641E+01-1.24597E-01 1.06734E+01-3.91419E-03 5.52341E-03
 -1      4458 1.55517E+01 3.11641E+01-1.24597E-01 1.06734E+01 3.91419E-03-5.52341E-03
 -1      4459 1.55418E+01 3.11824E+01-1.27876E-01 1.06261E+01 1.07065E-02-1.55251E-02
 -1      4460 1.55214E+01 3.12184E+01-1.33639E-01 1.05323E+01 1.45331E-02-2.24035E-02
 -1      4461 1.54888E+01 3.12702E+01-1.41070E-01 1.03937E+01 1.36640E-02-2.40179E-02
 -1      4462 1.54416E+01 3.13362E+01-1.47625E-01 1.02125E+01 7.09069E-03-1.86234E-02
 -1      4463 1.38501E+01 2.92762E+01-1.62884E-01 9.57018E+00-7.82106E-03 2.13534E-02
 -1      4464 1.39191E+01 2.91846E+01-1.56460E-01 9.79054E+00-1.63013E-02 2.55422E-02
 -1      4465 1.39698E+01 2.91129E+01-1.49683E-01 9.95873E+00-1.74729E-02 2.26160E-02
 -1      4466 1.40033E+01 2.90633E+01-1.44764E-01 1.00723E+01-1.28691E-02 1.51226E-02
 -1      4467 1.40202E+01 2.90381E+01-1.42061E-01 1.01294E+01-4.69887E-03 5.28081E-03
 -1      4468 1.40202E+01 2.90381E+01-1.42061E-01 1.01294E+01 4.69887E-03-5.28081E-03
 -1      4469 1.40033E+01 2.90633E+01-1.44764E-01 1.00723E+01 1.28691E-02-1.51226E-02
 -1      4470 1.39698E+01 2.91129E+01-1.49683E-01 9.95873E+00 1.74729E-02-2.26160E-02
 -1      4471 1.39191E+01 2.91846E+01-1.56460E-01 9.79054E+00 1.63013E-02-2.55422E-02
 -1      4472 1.38501E+01 2.92762E+01-1.62884E-01 9.57018E+00 7.82106E-03-2.13534E-02
 -1      4473 1.14635E+01 2.73689E+01-1.76429E-01 8.96758E+00-6.76602E-03 2.13459E-02
 -1      4474 1.15793E+01 2.72277E+01-1.72171E-01 9.23855E+00-1.69280E-02 2.17768E-02
 -1      4475 1.16690E+01 2.71183E+01-1.68678E-01 9.44401E+00-1.83849E-02 1.68750E-02
 -1      4476 1.17308E+01 2.70433E+01-1.66998E-01 9.58185E+00-1.34966E-02 1.01304E-02
 -1      4477 1.17627E+01 2.70053E+01-1.66277E-01 9.65095E+00-4.91026E-03 3.32399E-03
 -1      4478 1.17627E+01 2.70053E+01-1.66277E-01 9.65095E+00 4.91026E-03-3.32399E-03
 -1      4479 1.17308E+01 2.70433E+01-1.66998E-01 9.58185E+00 1.34966E-02-1.01304E-02
 -1      4480 1.16690E+01 2.71183E+01-1.68678E-01 9.44401E+00 1.83849E-02-1.68750E-02
 -1      4481 1.15793E+01 2.72277E+01-1.72171E-01 9.23855E+00 1.69280E-02-2.17768E-02
 -1      4482 1.14635E+01 2.73689E+01-1.76429E-01 8.96758E+00 6.76602E-03-2.13459E-02
 -1      4483 8.05445E+00 2.55919E+01-1.80523E-01 8.65910E+00-8.11912E-04 1.54239E-02
 -1      4484 8.25926E+00 2.53625E+01-1.82218E-01 8.98466E+00-1.11498E-02 7.79763E-03
 -1      4485 8.42288E+00 2.51872E+01-1.86714E-01 9.22821E+00-1.28117E-02 1.98124E-04
 -1      4486 8.53792E+00 2.50686E+01-1.92399E-01 9.38971E+00-9.31219E-03-3.05744E-03
 -1      4487 8.59763E+00 2.50089E+01-1.96048E-01 9.47005E+00-3.34805E-03-1.65621E-03
 -1      4488 8.59763E+00 2.50089E+01-1.96048E-01 9.47005E+00 3.34805E-03 1.65621E-03
 -1      4489 8.53792E+00 2.50686E+01-1.92399E-01 9.38971E+00 9.31219E-03 3.05744E-03
 -1      4490 8.42288E+00 2.51872E+01-1.86714E-01 9.22821E+00 1.28117E-02-1.98124E-04
 -1      4491 8.25926E+00 2.53625E+01-1.82218E-01 8.98466E+00 1.11498E-02-7.79763E-03
 -1      4492 8.05445E+00 2.55919E+01-1.80523E-01 8.65910E+00 8.11912E-04-1.54239E-02
 -1      4493 3.43860E+00 2.37882E+01-1.58189E-01 9.05162E+00 1.58100E-02-4.74994E-04
 -1      4494 3.79529E+00 2.34149E+01-1.72149E-01 9.41615E+00 9.26906E-03-2.21479E-02
 -1      4495 4.08354E+00 2.31344E+01-1.91805E-01 9.68212E+00 7.45932E-03-3.28560E-02
 -1      4496 4.28711E+00 2.29472E+01-2.11039E-01 9.85476E+00 5.64359E-03-2.82409E-02
 -1      4497 4.39284E+00 2.28537E+01-2.22568E-01 9.93940E+00 2.15506E-03-1.10106E-02
 -1      4498 4.39284E+00 2.28537E+01-2.22568E-01 9.93940E+00-2.15506E-03 1.10106E-02
 -1      4499 4.28711E+00 2.29472E+01-2.11039E-01 9.85476E+00-5.64359E-03 2.82409E-02
 -1      4500 4.08354E+00 2.31344E+01-1.91805E-01 9.68212E+00-7.45932E-03 3.28560E-02
 -1      4501 3.79529E+00 2.34149E+01-1.72149E-01 9.41615E+00-9.26906E-03 2.21479E-02
 -1      4502 3.43860E+00 2.37882E+01-1.58189E-01 9.05162E+00-1.58100E-02 4.74994E-04
 -1      4503-2.39618E+00 2.15253E+01-7.71834E-02 1.07316E+01 5.18334E-02-3.02946E-02
 -1      4504-1.80729E+00 2.09380E+01-1.11926E-01 1.10801E+01 5.65321E-02-7.20352E-02
 -1      4505-1.33271E+00 2.05055E+01-1.56532E-01 1.13219E+01 5.44089E-02-8.54135E-02
 -1      4506-9.98838E-01 2.02217E+01-1.97249E-01 1.14717E+01 3.99382E-02-6.72483E-02
 -1      4507-8.26172E-01 2.00815E+01-2.21096E-01 1.15428E+01 1.46952E-02-2.53350E-02
 -1      4508-8.26172E-01 2.00815E+01-2.21096E-01 1.15428E+01-1.46952E-02 2.53350E-02
 -1      4509-9.98838E-01 2.02217E+01-1.97249E-01 1.14717E+01-3.99382E-02 6.72483E-02
 -1      4510-1.33271E+00 2.05055E+01-1.56532E-01 1.13219E+01-5.44089E-02 8.54135E-02
 -1      4511-1.80729E+00 2.09380E+01-1.11926E-01 1.10801E+01-5.65321E-02 7.20352E-02
 -1      4512-2.39618E+00 2.15253E+01-7.71834E-02 1.07316E+01-5.18334E-02 3.02946E-02
 -1      4513-9.05129E+00 1.78508E+01 1.13898E-01 1.44121E+01 1.16119E-01-7.50612E-02
 -1      4514-8.15573E+00 1.69809E+01 4.56808E-02 1.46256E+01 1.43474E-01-1.40333E-01
 -1      4515-7.44057E+00 1.63570E+01-3.46931E-02 1.47485E+01 1.40164E-01-1.53841E-01
 -1      4516-6.94223E+00 1.59561E+01-1.05339E-01 1.48103E+01 1.02018E-01-1.16716E-01
 -1      4517-6.68605E+00 1.57610E+01-1.45871E-01 1.48347E+01 3.72635E-02-4.32616E-02
 -1      4518-6.68605E+00 1.57610E+01-1.45871E-01 1.48347E+01-3.72635E-02 4.32616E-02
 -1      4519-6.94223E+00 1.59561E+01-1.05339E-01 1.48103E+01-1.02018E-01 1.16716E-01
 -1      4520-7.44057E+00 1.63570E+01-3.46931E-02 1.47485E+01-1.40164E-01 1.53841E-01
 -1      4521-8.15573E+00 1.69809E+01 4.56808E-02 1.46256E+01-1.43474E-01 1.40333E-01
 -1      4522-9.05129E+00 1.78508E+01 1.13898E-01 1.44121E+01-1.16119E-01 7.50612E-02
 -1      4523-1.53812E+01 1.09267E+01 4.60039E-01 2.06376E+01 2.12930E-01-1.32049E-01
 -1      4524-1.41563E+01 9.75440E+00 3.50116E-01 2.05132E+01 2.73344E-01-2.14548E-01
 -1      4525-1.31933E+01 8.94128E+00 2.24790E-01 2.03681E+01 2.66290E-01-2.23750E-01
 -1      4526-1.25286E+01 8.43505E+00 1.18774E-01 2.02446E+01 1.91954E-01-1.65326E-01
 -1      4527-1.21893E+01 8.19352E+00 5.85116E-02 2.01745E+01 6.97279E-02-6.06108E-02
 -1      4528-1.21893E+01 8.19352E+00 5.85116E-02 2.01745E+01-6.97279E-02 6.06108E-02
 -1      4529-1.25286E+01 8.43505E+00 1.18774E-01 2.02446E+01-1.91954E-01 1.65326E-01
 -1      4530-1.31933E+01 8.94128E+00 2.24790E-01 2.03681E+01-2.66290E-01 2.23750E-01
 -1      4531-1.41563E+01 9.75440E+00 3.50116E-01 2.05132E+01-2.73344E-01 2.14548E-01
 -1      4532-1.53812E+01 1.09267E+01 4.60039E-01 2.06376E+01-2.12930E-01 1.32049E-01
 -1      4533-1.94533E+01-2.37177E+00 8.70394E-01 2.89709E+01 3.19941E-01-1.86729E-01
 -1      4534-1.80094E+01-3.73642E+00 7.05199E-01 2.82527E+01 4.14826E-01-2.72169E-01
 -1      4535-1.68780E+01-4.62839E+00 5.35596E-01 2.76683E+01 3.98308E-01-2.70799E-01
 -1      4536-1.61060E+01-5.16048E+00 3.92491E-01 2.72578E+01 2.84315E-01-1.95848E-01
 -1      4537-1.57142E+01-5.40588E+00 3.12599E-01 2.70464E+01 1.02695E-01-7.10265E-02
 -1      4538-1.57142E+01-5.40588E+00 3.12599E-01 2.70464E+01-1.02695E-01 7.10265E-02
 -1      4539-1.61060E+01-5.16048E+00 3.92491E-01 2.72578E+01-2.84315E-01 1.95848E-01
 -1      4540-1.68780E+01-4.62839E+00 5.35596E-01 2.76683E+01-3.98308E-01 2.70799E-01
 -1      4541-1.80094E+01-3.73642E+00 7.05199E-01 2.82527E+01-4.14826E-01 2.72169E-01
 -1      4542-1.94533E+01-2.37177E+00 8.70394E-01 2.89709E+01-3.19941E-01 1.86729E-01
 -1      4543-1.92928E+01-2.57331E+01 9.46053E-01 3.66043E+01 3.49906E-01-2.50050E-01
 -1      4544-1.78521E+01-2.69235E+01 7.82283E-01 3.50979E+01 4.40405E-01-2.99362E-01
 -1      4545-1.67441E+01-2.76438E+01 5.79098E-01 3.39906E+01 4.22327E-01-2.77928E-01
 -1      4546-1.59922E+01-2.80364E+01 4.15200E-01 3.32646E+01 2.99177E-01-1.91558E-01
 -1      4547-1.56150E+01-2.82071E+01 3.24194E-01 3.29069E+01 1.07629E-01-6.80326E-02
 -1      4548-1.56150E+01-2.82071E+01 3.24194E-01 3.29069E+01-1.07629E-01 6.80326E-02
 -1      4549-1.59922E+01-2.80364E+01 4.15200E-01 3.32646E+01-2.99177E-01 1.91558E-01
 -1      4550-1.67441E+01-2.76438E+01 5.79098E-01 3.39906E+01-4.22327E-01 2.77928E-01
 -1      4551-1.78521E+01-2.69235E+01 7.82283E-01 3.50979E+01-4.40405E-01 2.99362E-01
 -1      4552-1.92928E+01-2.57331E+01 9.46053E-01 3.66043E+01-3.49906E-01 2.50050E-01
 -1      4553-1.45725E+01-5.99051E+01 2.47064E-01 3.77122E+01 1.11347E-01-3.14884E-01
 -1      4554-1.35207E+01-6.05029E+01 9.42400E-02 3.55332E+01 1.12087E-01-3.14311E-01
 -1      4555-1.26449E+01-6.07328E+01 2.97646E-03 3.40825E+01 8.29562E-02-2.27340E-01
 -1      4556-1.20721E+01-6.08318E+01-8.46663E-02 3.32134E+01 4.99816E-02-1.32258E-01
 -1      4557-1.17854E+01-6.08617E+01-1.26065E-01 3.28065E+01 1.58387E-02-4.23500E-02
 -1      4558-1.17854E+01-6.08617E+01-1.26065E-01 3.28065E+01-1.58387E-02 4.23500E-02
 -1      4559-1.20721E+01-6.08318E+01-8.46663E-02 3.32134E+01-4.99816E-02 1.32258E-01
 -1      4560-1.26449E+01-6.07328E+01 2.97646E-03 3.40825E+01-8.29562E-02 2.27340E-01
 -1      4561-1.35207E+01-6.05029E+01 9.42400E-02 3.55332E+01-1.12087E-01 3.14311E-01
 -1      4562-1.45725E+01-5.99051E+01 2.47064E-01 3.77122E+01-1.11347E-01 3.14884E-01
 -1      4563-8.48146E+00-9.80134E+01-1.13260E+00 2.55708E+01-5.43313E-01-2.60840E-01
 -1      4564-7.90202E+00-9.75207E+01-9.74586E-01 2.36226E+01-1.03111E+00-1.97054E-01
 -1      4565-7.44147E+00-9.74048E+01-7.13190E-01 2.25126E+01-1.13122E+00-8.92283E-02
 -1      4566-7.09057E+00-9.73454E+01-4.30267E-01 2.19073E+01-8.36987E-01-1.13037E-02
 -1      4567-6.91117E+00-9.73190E+01-2.74458E-01 2.16477E+01-3.02912E-01 2.88924E-03
 -1      4568-6.91117E+00-9.73190E+01-2.74458E-01 2.16477E+01 3.02912E-01-2.88924E-03
 -1      4569-7.09057E+00-9.73454E+01-4.30267E-01 2.19073E+01 8.36987E-01 1.13037E-02
 -1      4570-7.44147E+00-9.74048E+01-7.13190E-01 2.25126E+01 1.13122E+00 8.92283E-02
 -1      4571-7.90202E+00-9.75207E+01-9.74586E-01 2.36226E+01 1.03111E+00 1.97054E-01
 -1      4572-8.48146E+00-9.80134E+01-1.13260E+00 2.55708E+01 5.43313E-01 2.60840E-01
 -1      4573 1.49459E+01 4.57568E+01-2.78958E-01 7.41335E+00-2.66533E+00-2.42879E-01
 -1      4574 1.63517E+01 4.60765E+01 4.30618E+00 6.94182E+00-3.94496E+00-3.17354E-01
 -1      4575 1.71139E+01 4.61716E+01 6.86997E+00 6.66278E+00-3.14699E+00-2.61993E-01
 -1      4576 1.75021E+01 4.61813E+01 8.21780E+00 6.50198E+00-1.95593E+00-1.67854E-01
 -1      4577 1.76688E+01 4.61770E+01 8.80710E+00 6.42770E+00-6.59261E-01-5.74647E-02
 -1      4578 1.76688E+01 4.61770E+01 8.80710E+00 6.42770E+00 6.59261E-01 5.74647E-02
 -1      4579 1.75021E+01 4.61813E+01 8.21780E+00 6.50198E+00 1.95593E+00 1.67854E-01
 -1      4580 1.71139E+01 4.61716E+01 6.86997E+00 6.66278E+00 3.14699E+00 2.61993E-01
 -1      4581 1.63517E+01 4.60765E+01 4.30618E+00 6.94182E+00 3.94496E+00 3.17354E-01
 -1      4582 1.49459E+01 4.57568E+01-2.78958E-01 7.41335E+00 2.66533E+00 2.42879E-01
 -1      4583 1.60400E+01 4.66662E+01 8.59110E-01 5.98667E+00-1.86859E-01-3.00759E-01
 -1      4584 1.59411E+01 4.72448E+01 3.02848E-01 5.65055E+00-3.55599E-01-3.83145E-01
 -1      4585 1.62285E+01 4.75724E+01 1.14157E+00 5.41205E+00-6.53208E-01-3.45060E-01
 -1      4586 1.64809E+01 4.77375E+01 1.94157E+00 5.26130E+00-5.32507E-01-2.28800E-01
 -1      4587 1.66134E+01 4.78045E+01 2.37489E+00 5.18862E+00-1.98716E-01-7.93704E-02
 -1      4588 1.66134E+01 4.78045E+01 2.37489E+00 5.18862E+00 1.98716E-01 7.93704E-02
 -1      4589 1.64809E+01 4.77375E+01 1.94157E+00 5.26130E+00 5.32507E-01 2.28800E-01
 -1      4590 1.62285E+01 4.75724E+01 1.14157E+00 5.41205E+00 6.53208E-01 3.45060E-01
 -1      4591 1.59411E+01 4.72448E+01 3.02848E-01 5.65055E+00 3.55599E-01 3.83145E-01
 -1      4592 1.60400E+01 4.66662E+01 8.59110E-01 5.98667E+00 1.86859E-01 3.00759E-01
 -1      4593 1.55198E+01 4.52969E+01-1.47829E-01 5.07978E+00 4.27235E-01-1.68158E-01
 -1      4594 1.59273E+01 4.69194E+01-4.52940E-02 5.00151E+00 5.80367E-01-2.45573E-01
 -1      4595 1.60318E+01 4.76909E+01-1.98399E-01 4.88311E+00 4.82561E-01-2.35041E-01
 -1      4596 1.61092E+01 4.80913E+01-1.68607E-01 4.78850E+00 2.70198E-01-1.65981E-01
 -1      4597 1.61541E+01 4.82651E+01-1.08288E-01 4.73797E+00 8.40440E-02-5.93521E-02
 -1      4598 1.61541E+01 4.82651E+01-1.08288E-01 4.73797E+00-8.40440E-02 5.93521E-02
 -1      4599 1.61092E+01 4.80913E+01-1.68607E-01 4.78850E+00-2.70198E-01 1.65981E-01
 -1      4600 1.60318E+01 4.76909E+01-1.98399E-01 4.88311E+00-4.82561E-01 2.35041E-01
 -1      4601 1.59273E+01 4.69194E+01-4.52940E-02 5.00151E+00-5.80367E-01 2.45573E-01
 -1      4602 1.55198E+01 4.52969E+01-1.47829E-01 5.07978E+00-4.27235E-01 1.68158E-01
 -1      4603 1.57843E+01 4.56487E+01-2.00259E-01 4.71017E+00 3.55696E-01-8.19090E-02
 -1      4604 1.58748E+01 4.64155E+01-3.07006E-01 4.72859E+00 5.57997E-01-1.19534E-01
 -1      4605 1.59739E+01 4.71204E+01-4.08248E-01 4.71782E+00 5.38612E-01-1.19469E-01
 -1      4606 1.60147E+01 4.75685E+01-5.32797E-01 4.69403E+00 3.77565E-01-8.56403E-02
 -1      4607 1.60307E+01 4.77826E+01-5.98678E-01 4.67739E+00 1.33459E-01-3.10574E-02
 -1      4608 1.60307E+01 4.77826E+01-5.98678E-01 4.67739E+00-1.33459E-01 3.10574E-02
 -1      4609 1.60147E+01 4.75685E+01-5.32797E-01 4.69403E+00-3.77565E-01 8.56403E-02
 -1      4610 1.59739E+01 4.71204E+01-4.08248E-01 4.71782E+00-5.38612E-01 1.19469E-01
 -1      4611 1.58748E+01 4.64155E+01-3.07006E-01 4.72859E+00-5.57997E-01 1.19534E-01
 -1      4612 1.57843E+01 4.56487E+01-2.00259E-01 4.71017E+00-3.55696E-01 8.19090E-02
 -1      4613 1.60328E+01 4.57299E+01-1.74011E-01 4.63608E+00 2.10743E-01-3.23417E-02
 -1      4614 1.60277E+01 4.61239E+01-2.45973E-01 4.70742E+00 3.36251E-01-4.92156E-02
 -1      4615 1.60307E+01 4.64992E+01-3.49811E-01 4.74679E+00 3.43973E-01-4.99025E-02
 -1      4616 1.60414E+01 4.67981E+01-4.34893E-01 4.76696E+00 2.49801E-01-3.65219E-02
 -1      4617 1.60459E+01 4.69572E+01-4.87947E-01 4.77474E+00 9.10101E-02-1.32651E-02
 -1      4618 1.60459E+01 4.69572E+01-4.87947E-01 4.77474E+00-9.10101E-02 1.32651E-02
 -1      4619 1.60414E+01 4.67981E+01-4.34893E-01 4.76696E+00-2.49801E-01 3.65219E-02
 -1      4620 1.60307E+01 4.64992E+01-3.49811E-01 4.74679E+00-3.43973E-01 4.99025E-02
 -1      4621 1.60277E+01 4.61239E+01-2.45973E-01 4.70742E+00-3.36251E-01 4.92156E-02
 -1      4622 1.60328E+01 4.57299E+01-1.74011E-01 4.63608E+00-2.10743E-01 3.23417E-02
 -1      4623 1.61965E+01 4.54979E+01-1.21253E-01 4.72386E+00 1.00545E-01-1.07288E-02
 -1      4624 1.61452E+01 4.56791E+01-1.65157E-01 4.81920E+00 1.64000E-01-1.64845E-02
 -1      4625 1.61149E+01 4.58719E+01-2.22312E-01 4.88547E+00 1.71694E-01-1.73249E-02
 -1      4626 1.60975E+01 4.60271E+01-2.74865E-01 4.92665E+00 1.27567E-01-1.28794E-02
 -1      4627 1.60905E+01 4.61145E+01-3.04342E-01 4.94648E+00 4.67881E-02-4.76358E-03
 -1      4628 1.60905E+01 4.61145E+01-3.04342E-01 4.94648E+00-4.67881E-02 4.76358E-03
 -1      4629 1.60975E+01 4.60271E+01-2.74865E-01 4.92665E+00-1.27567E-01 1.28794E-02
 -1      4630 1.61149E+01 4.58719E+01-2.22312E-01 4.88547E+00-1.71694E-01 1.73249E-02
 -1      4631 1.61452E+01 4.56791E+01-1.65157E-01 4.81920E+00-1.64000E-01 1.64845E-02
 -1      4632 1.61965E+01 4.54979E+01-1.21253E-01 4.72386E+00-1.00545E-01 1.07288E-02
 -1      4633 1.62306E+01 4.50075E+01-8.65408E-02 4.90884E+00 3.94121E-02-2.72920E-03
 -1      4634 1.61707E+01 4.50937E+01-1.07215E-01 5.01711E+00 6.55495E-02-4.16303E-03
 -1      4635 1.61295E+01 4.51858E+01-1.34819E-01 5.09656E+00 7.09008E-02-4.47069E-03
 -1      4636 1.61041E+01 4.52623E+01-1.59544E-01 5.14858E+00 5.37095E-02-3.41308E-03
 -1      4637 1.60917E+01 4.53049E+01-1.74375E-01 5.17423E+00 1.99522E-02-1.26804E-03
 -1      4638 1.60917E+01 4.53049E+01-1.74375E-01 5.17423E+00-1.99522E-02 1.26804E-03
 -1      4639 1.61041E+01 4.52623E+01-1.59544E-01 5.14858E+00-5.37095E-02 3.41308E-03
 -1      4640 1.61295E+01 4.51858E+01-1.34819E-01 5.09656E+00-7.09008E-02 4.47069E-03
 -1      4641 1.61707E+01 4.50937E+01-1.07215E-01 5.01711E+00-6.55495E-02 4.16303E-03
 -1      4642 1.62306E+01 4.50075E+01-8.65408E-02 4.90884E+00-3.94121E-02 2.72920E-03
 -1      4643 1.61378E+01 4.43366E+01-6.95626E-02 5.16749E+00 1.14696E-02-3.96381E-04
 -1      4644 1.60857E+01 4.43810E+01-7.78390E-02 5.28384E+00 1.99521E-02-1.65835E-04
 -1      4645 1.60480E+01 4.44258E+01-8.86738E-02 5.37070E+00 2.27987E-02-1.70362E-04
 -1      4646 1.60237E+01 4.44622E+01-9.86637E-02 5.42831E+00 1.79251E-02-1.44059E-04
 -1      4647 1.60117E+01 4.44825E+01-1.04610E-01 5.45705E+00 6.76320E-03-6.32979E-05
 -1      4648 1.60117E+01 4.44825E+01-1.04610E-01 5.45705E+00-6.76320E-03 6.32979E-05
 -1      4649 1.60237E+01 4.44622E+01-9.86637E-02 5.42831E+00-1.79251E-02 1.44059E-04
 -1      4650 1.60480E+01 4.44258E+01-8.86738E-02 5.37070E+00-2.27987E-02 1.70362E-04
 -1      4651 1.60857E+01 4.43810E+01-7.78390E-02 5.28384E+00-1.99521E-02 1.65835E-04
 -1      4652 1.61378E+01 4.43366E+01-6.95626E-02 5.16749E+00-1.14696E-02 3.96381E-04
 -1      4653 1.59373E+01 4.35246E+01-6.44635E-02 5.48765E+00 9.95867E-04 2.02084E-04
 -1      4654 1.58999E+01 4.35485E+01-6.68684E-02 5.60914E+00 2.40043E-03 1.02966E-03
 -1      4655 1.58719E+01 4.35701E+01-6.99721E-02 5.70025E+00 3.71364E-03 1.21374E-03
 -1      4656 1.58535E+01 4.35869E+01-7.28476E-02 5.76096E+00 3.38047E-03 9.30793E-04
 -1      4657 1.58442E+01 4.35961E+01-7.46593E-02 5.79130E+00 1.36045E-03 3.42714E-04
 -1      4658 1.58442E+01 4.35961E+01-7.46593E-02 5.79130E+00-1.36045E-03-3.42714E-04
 -1      4659 1.58535E+01 4.35869E+01-7.28476E-02 5.76096E+00-3.38047E-03-9.30793E-04
 -1      4660 1.58719E+01 4.35701E+01-6.99721E-02 5.70025E+00-3.71364E-03-1.21374E-03
 -1      4661 1.58999E+01 4.35485E+01-6.68684E-02 5.60914E+00-2.40043E-03-1.02966E-03
 -1      4662 1.59373E+01 4.35246E+01-6.44635E-02 5.48765E+00-9.95867E-04-2.02084E-04
 -1      4663 1.56524E+01 4.25815E+01-6.54473E-02 5.85372E+00-1.92428E-03 5.09946E-04
 -1      4664 1.56315E+01 4.25914E+01-6.54469E-02 5.97781E+00-2.77324E-03 1.62142E-03
 -1      4665 1.56152E+01 4.25994E+01-6.53904E-02 6.07103E+00-2.28155E-03 1.88304E-03
 -1      4666 1.56042E+01 4.26054E+01-6.53653E-02 6.13321E+00-1.36314E-03 1.45059E-03
 -1      4667 1.55985E+01 4.26086E+01-6.54385E-02 6.16433E+00-4.38179E-04 5.36819E-04
 -1      4668 1.55985E+01 4.26086E+01-6.54385E-02 6.16433E+00 4.38179E-04-5.36819E-04
 -1      4669 1.56042E+01 4.26054E+01-6.53653E-02 6.13321E+00 1.36314E-03-1.45059E-03
 -1      4670 1.56152E+01 4.25994E+01-6.53904E-02 6.07103E+00 2.28155E-03-1.88304E-03
 -1      4671 1.56315E+01 4.25914E+01-6.54469E-02 5.97781E+00 2.77324E-03-1.62142E-03
 -1      4672 1.56524E+01 4.25815E+01-6.54473E-02 5.85372E+00 1.92428E-03-5.09946E-04
 -1      4673 1.53014E+01 4.15046E+01-6.91416E-02 6.24276E+00-2.20074E-03 9.41292E-04
 -1      4674 1.52964E+01 4.15022E+01-6.82265E-02 6.36727E+00-3.52200E-03 2.24987E-03
 -1      4675 1.52916E+01 4.14999E+01-6.70221E-02 6.46091E+00-3.41566E-03 2.53108E-03
 -1      4676 1.52881E+01 4.14984E+01-6.59281E-02 6.52344E+00-2.38546E-03 1.93039E-03
 -1      4677 1.52861E+01 4.14976E+01-6.53588E-02 6.55475E+00-8.46134E-04 7.13587E-04
 -1      4678 1.52861E+01 4.14976E+01-6.53588E-02 6.55475E+00 8.46134E-04-7.13587E-04
 -1      4679 1.52881E+01 4.14984E+01-6.59281E-02 6.52344E+00 2.38546E-03-1.93039E-03
 -1      4680 1.52916E+01 4.14999E+01-6.70221E-02 6.46091E+00 3.41566E-03-2.53108E-03
 -1      4681 1.52964E+01 4.15022E+01-6.82265E-02 6.36727E+00 3.52200E-03-2.24987E-03
 -1      4682 1.53014E+01 4.15046E+01-6.91416E-02 6.24276E+00 2.20074E-03-9.41292E-04
 -1      4683 1.48925E+01 4.02910E+01-7.39393E-02 6.62582E+00-1.85384E-03 1.56087E-03
 -1      4684 1.49017E+01 4.02770E+01-7.26296E-02 6.74927E+00-3.17829E-03 3.04927E-03
 -1      4685 1.49073E+01 4.02658E+01-7.09790E-02 6.84224E+00-3.25184E-03 3.31241E-03
 -1      4686 1.49106E+01 4.02581E+01-6.94804E-02 6.90439E+00-2.36031E-03 2.49486E-03
 -1      4687 1.49120E+01 4.02542E+01-6.86657E-02 6.93553E+00-8.54481E-04 9.18960E-04
 -1      4688 1.49120E+01 4.02542E+01-6.86657E-02 6.93553E+00 8.54481E-04-9.18960E-04
 -1      4689 1.49106E+01 4.02581E+01-6.94804E-02 6.90439E+00 2.36031E-03-2.49486E-03
 -1      4690 1.49073E+01 4.02658E+01-7.09790E-02 6.84224E+00 3.25184E-03-3.31241E-03
 -1      4691 1.49017E+01 4.02770E+01-7.26296E-02 6.74927E+00 3.17829E-03-3.04927E-03
 -1      4692 1.48925E+01 4.02910E+01-7.39393E-02 6.62582E+00 1.85384E-03-1.56087E-03
 -1      4693 1.44199E+01 3.89442E+01-7.92455E-02 6.97139E+00-1.53892E-03 2.37669E-03
 -1      4694 1.44412E+01 3.89197E+01-7.76350E-02 7.09335E+00-2.87529E-03 4.05050E-03
 -1      4695 1.44557E+01 3.89006E+01-7.56774E-02 7.18536E+00-3.05351E-03 4.26827E-03
 -1      4696 1.44648E+01 3.88876E+01-7.39186E-02 7.24695E+00-2.26572E-03 3.17699E-03
 -1      4697 1.44690E+01 3.88809E+01-7.29512E-02 7.27783E+00-8.28821E-04 1.16591E-03
 -1      4698 1.44690E+01 3.88809E+01-7.29512E-02 7.27783E+00 8.28821E-04-1.16591E-03
 -1      4699 1.44648E+01 3.88876E+01-7.39186E-02 7.24695E+00 2.26572E-03-3.17699E-03
 -1      4700 1.44557E+01 3.89006E+01-7.56774E-02 7.18536E+00 3.05351E-03-4.26827E-03
 -1      4701 1.44412E+01 3.89197E+01-7.76350E-02 7.09335E+00 2.87529E-03-4.05050E-03
 -1      4702 1.44199E+01 3.89442E+01-7.92455E-02 6.97139E+00 1.53892E-03-2.37669E-03
 -1      4703 1.38608E+01 3.74776E+01-8.49134E-02 7.24974E+00-1.38102E-03 3.42555E-03
 -1      4704 1.38921E+01 3.74438E+01-8.29334E-02 7.37112E+00-2.87472E-03 5.31184E-03
 -1      4705 1.39140E+01 3.74176E+01-8.05942E-02 7.46286E+00-3.15070E-03 5.45602E-03
 -1      4706 1.39279E+01 3.73998E+01-7.85224E-02 7.52436E+00-2.37379E-03 4.01763E-03
 -1      4707 1.39345E+01 3.73908E+01-7.73767E-02 7.55522E+00-8.74258E-04 1.46897E-03
 -1      4708 1.39345E+01 3.73908E+01-7.73767E-02 7.55522E+00 8.74258E-04-1.46897E-03
 -1      4709 1.39279E+01 3.73998E+01-7.85224E-02 7.52436E+00 2.37379E-03-4.01763E-03
 -1      4710 1.39140E+01 3.74176E+01-8.05942E-02 7.46286E+00 3.15070E-03-5.45602E-03
 -1      4711 1.38921E+01 3.74438E+01-8.29334E-02 7.37112E+00 2.87472E-03-5.31184E-03
 -1      4712 1.38608E+01 3.74776E+01-8.49134E-02 7.24974E+00 1.38102E-03-3.42555E-03
 -1      4713 1.31720E+01 3.59144E+01-9.09066E-02 7.43805E+00-1.34995E-03 4.78091E-03
 -1      4714 1.32121E+01 3.58720E+01-8.84364E-02 7.56125E+00-3.18053E-03 6.92919E-03
 -1      4715 1.32404E+01 3.58392E+01-8.55755E-02 7.65456E+00-3.58242E-03 6.96159E-03
 -1      4716 1.32584E+01 3.58170E+01-8.30773E-02 7.71720E+00-2.72945E-03 5.07395E-03
 -1      4717 1.32671E+01 3.58057E+01-8.16916E-02 7.74867E+00-1.01005E-03 1.84800E-03
 -1      4718 1.32671E+01 3.58057E+01-8.16916E-02 7.74867E+00 1.01005E-03-1.84800E-03
 -1      4719 1.32584E+01 3.58170E+01-8.30773E-02 7.71720E+00 2.72945E-03-5.07395E-03
 -1      4720 1.32404E+01 3.58392E+01-8.55755E-02 7.65456E+00 3.58242E-03-6.96159E-03
 -1      4721 1.32121E+01 3.58720E+01-8.84364E-02 7.56125E+00 3.18053E-03-6.92919E-03
 -1      4722 1.31720E+01 3.59144E+01-9.09066E-02 7.43805E+00 1.34995E-03-4.78091E-03
 -1      4723 1.22879E+01 3.42869E+01-9.70670E-02 7.52700E+00-1.39761E-03 6.52503E-03
 -1      4724 1.23370E+01 3.42352E+01-9.39878E-02 7.65597E+00-3.77162E-03 8.99243E-03
 -1      4725 1.23716E+01 3.41953E+01-9.04709E-02 7.75384E+00-4.34885E-03 8.85278E-03
 -1      4726 1.23938E+01 3.41682E+01-8.74396E-02 7.81966E+00-3.34101E-03 6.38451E-03
 -1      4727 1.24045E+01 3.41545E+01-8.57569E-02 7.85276E+00-1.24055E-03 2.31509E-03
 -1      4728 1.24045E+01 3.41545E+01-8.57569E-02 7.85276E+00 1.24055E-03-2.31509E-03
 -1      4729 1.23938E+01 3.41682E+01-8.74396E-02 7.81966E+00 3.34101E-03-6.38451E-03
 -1      4730 1.23716E+01 3.41953E+01-9.04709E-02 7.75384E+00 4.34885E-03-8.85278E-03
 -1      4731 1.23370E+01 3.42352E+01-9.39878E-02 7.65597E+00 3.77162E-03-8.99243E-03
 -1      4732 1.22879E+01 3.42869E+01-9.70670E-02 7.52700E+00 1.39761E-03-6.52503E-03
 -1      4733 1.11185E+01 3.26328E+01-1.02879E-01 7.52944E+00-1.48059E-03 8.68750E-03
 -1      4734 1.11788E+01 3.25688E+01-9.91332E-02 7.66953E+00-4.64988E-03 1.14883E-02
 -1      4735 1.12218E+01 3.25193E+01-9.49043E-02 7.77605E+00-5.46762E-03 1.10772E-02
 -1      4736 1.12493E+01 3.24857E+01-9.13073E-02 7.84778E+00-4.22449E-03 7.89299E-03
 -1      4737 1.12627E+01 3.24687E+01-8.93153E-02 7.88388E+00-1.57190E-03 2.84651E-03
 -1      4738 1.12627E+01 3.24687E+01-8.93153E-02 7.88388E+00 1.57190E-03-2.84651E-03
 -1      4739 1.12493E+01 3.24857E+01-9.13073E-02 7.84778E+00 4.22449E-03-7.89299E-03
 -1      4740 1.12218E+01 3.25193E+01-9.49043E-02 7.77605E+00 5.46762E-03-1.10772E-02
 -1      4741 1.11788E+01 3.25688E+01-9.91332E-02 7.66953E+00 4.64988E-03-1.14883E-02
 -1      4742 1.11185E+01 3.26328E+01-1.02879E-01 7.52944E+00 1.48059E-03-8.68750E-03
 -1      4743 9.54966E+00 3.09880E+01-1.07122E-01 7.49238E+00-1.50949E-03 1.11335E-02
 -1      4744 9.62740E+00 3.09046E+01-1.02822E-01 7.64977E+00-5.77094E-03 1.41300E-02
 -1      4745 9.68333E+00 3.08403E+01-9.80331E-02 7.76961E+00-6.90431E-03 1.32878E-02
 -1      4746 9.71959E+00 3.07965E+01-9.40253E-02 7.85037E+00-5.35278E-03 9.32039E-03
 -1      4747 9.73739E+00 3.07743E+01-9.18229E-02 7.89103E+00-1.99337E-03 3.33593E-03
 -1      4748 9.73739E+00 3.07743E+01-9.18229E-02 7.89103E+00 1.99337E-03-3.33593E-03
 -1      4749 9.71959E+00 3.07965E+01-9.40253E-02 7.85037E+00 5.35278E-03-9.32039E-03
 -1      4750 9.68333E+00 3.08403E+01-9.80331E-02 7.76961E+00 6.90431E-03-1.32878E-02
 -1      4751 9.62740E+00 3.09046E+01-1.02822E-01 7.64977E+00 5.77094E-03-1.41300E-02
 -1      4752 9.54966E+00 3.09880E+01-1.07122E-01 7.49238E+00 1.50949E-03-1.11335E-02
 -1      4753 7.44937E+00 2.93730E+01-1.07289E-01 7.51270E+00-1.21196E-03 1.33911E-02
 -1      4754 7.55599E+00 2.92574E+01-1.02910E-01 7.69305E+00-6.83956E-03 1.61080E-02
 -1      4755 7.63412E+00 2.91685E+01-9.81442E-02 7.83036E+00-8.36186E-03 1.45991E-02
 -1      4756 7.68558E+00 2.91081E+01-9.42603E-02 7.92285E+00-6.49974E-03 9.99090E-03
 -1      4757 7.71112E+00 2.90776E+01-9.21670E-02 7.96939E+00-2.42016E-03 3.53183E-03
 -1      4758 7.71112E+00 2.90776E+01-9.21670E-02 7.96939E+00 2.42016E-03-3.53183E-03
 -1      4759 7.68558E+00 2.91081E+01-9.42603E-02 7.92285E+00 6.49974E-03-9.99090E-03
 -1      4760 7.63412E+00 2.91685E+01-9.81442E-02 7.83036E+00 8.36186E-03-1.45991E-02
 -1      4761 7.55599E+00 2.92574E+01-1.02910E-01 7.69305E+00 6.83956E-03-1.61080E-02
 -1      4762 7.44937E+00 2.93730E+01-1.07289E-01 7.51270E+00 1.21196E-03-1.33911E-02
 -1      4763 4.68378E+00 2.77663E+01-9.86248E-02 7.75635E+00 1.26149E-04 1.44381E-02
 -1      4764 4.83830E+00 2.75981E+01-9.53028E-02 7.96195E+00-6.91859E-03 1.58230E-02
 -1      4765 4.95395E+00 2.74692E+01-9.19077E-02 8.11804E+00-8.88163E-03 1.33463E-02
 -1      4766 5.03137E+00 2.73821E+01-8.93339E-02 8.22287E+00-6.94843E-03 8.67095E-03
 -1      4767 5.07022E+00 2.73381E+01-8.80430E-02 8.27551E+00-2.58687E-03 2.98111E-03
 -1      4768 5.07022E+00 2.73381E+01-8.80430E-02 8.27551E+00 2.58687E-03-2.98111E-03
 -1      4769 5.03137E+00 2.73821E+01-8.93339E-02 8.22287E+00 6.94843E-03-8.67095E-03
 -1      4770 4.95395E+00 2.74692E+01-9.19077E-02 8.11804E+00 8.88163E-03-1.33463E-02
 -1      4771 4.83830E+00 2.75981E+01-9.53028E-02 7.96195E+00 6.91859E-03-1.58230E-02
 -1      4772 4.68378E+00 2.77663E+01-9.86248E-02 7.75635E+00-1.26149E-04-1.44381E-02
 -1      4773 1.15361E+00 2.60591E+01-7.27091E-02 8.47724E+00 4.03413E-03 1.25453E-02
 -1      4774 1.38413E+00 2.58085E+01-7.26559E-02 8.70177E+00-3.85863E-03 1.07691E-02
 -1      4775 1.55990E+00 2.56179E+01-7.31251E-02 8.87088E+00-6.27657E-03 7.04144E-03
 -1      4776 1.67914E+00 2.54898E+01-7.40090E-02 8.98364E+00-5.08372E-03 3.56441E-03
 -1      4777 1.73948E+00 2.54253E+01-7.47541E-02 9.03997E+00-1.90037E-03 1.03275E-03
 -1      4778 1.73948E+00 2.54253E+01-7.47541E-02 9.03997E+00 1.90037E-03-1.03275E-03
 -1      4779 1.67914E+00 2.54898E+01-7.40090E-02 8.98364E+00 5.08372E-03-3.56441E-03
 -1      4780 1.55990E+00 2.56179E+01-7.31251E-02 8.87088E+00 6.27657E-03-7.04144E-03
 -1      4781 1.38413E+00 2.58085E+01-7.26559E-02 8.70177E+00 3.85863E-03-1.07691E-02
 -1      4782 1.15361E+00 2.60591E+01-7.27091E-02 8.47724E+00-4.03413E-03-1.25453E-02
 -1      4783-3.13699E+00 2.39774E+01-1.60587E-02 1.00237E+01 1.31985E-02 5.30052E-03
 -1      4784-2.79404E+00 2.36066E+01-2.28674E-02 1.02437E+01 6.20141E-03-2.13591E-03
 -1      4785-2.52916E+00 2.33272E+01-3.11938E-02 1.04064E+01 3.34655E-03-7.19774E-03
 -1      4786-2.34795E+00 2.31407E+01-3.88607E-02 1.05131E+01 1.93667E-03-7.32524E-03
 -1      4787-2.25580E+00 2.30475E+01-4.35282E-02 1.05659E+01 6.77001E-04-3.02395E-03
 -1      4788-2.25580E+00 2.30475E+01-4.35282E-02 1.05659E+01-6.77001E-04 3.02395E-03
 -1      4789-2.34795E+00 2.31407E+01-3.88607E-02 1.05131E+01-1.93667E-03 7.32524E-03
 -1      4790-2.52916E+00 2.33272E+01-3.11938E-02 1.04064E+01-3.34655E-03 7.19774E-03
 -1      4791-2.79404E+00 2.36066E+01-2.28674E-02 1.02437E+01-6.20141E-03 2.13591E-03
 -1      4792-3.13699E+00 2.39774E+01-1.60587E-02 1.00237E+01-1.31985E-02-5.30052E-03
 -1      4793-7.96737E+00 2.09627E+01 8.93349E-02 1.28035E+01 3.12176E-02-9.90925E-03
 -1      4794-7.47425E+00 2.04318E+01 7.02197E-02 1.29668E+01 2.85848E-02-2.56351E-02
 -1      4795-7.09065E+00 2.00369E+01 4.85709E-02 1.30814E+01 2.52754E-02-3.15325E-02
 -1      4796-6.82726E+00 1.97761E+01 2.96861E-02 1.31531E+01 1.79198E-02-2.53419E-02
 -1      4797-6.69307E+00 1.96465E+01 1.86493E-02 1.31873E+01 6.52170E-03-9.63672E-03
 -1      4798-6.69307E+00 1.96465E+01 1.86493E-02 1.31873E+01-6.52170E-03 9.63672E-03
 -1      4799-6.82726E+00 1.97761E+01 2.96861E-02 1.31531E+01-1.79198E-02 2.53419E-02
 -1      4800-7.09065E+00 2.00369E+01 4.85709E-02 1.30814E+01-2.52754E-02 3.15325E-02
 -1      4801-7.47425E+00 2.04318E+01 7.02197E-02 1.29668E+01-2.85848E-02 2.56351E-02
 -1      4802-7.96737E+00 2.09627E+01 8.93349E-02 1.28035E+01-3.12176E-02 9.90925E-03
 -1      4803-1.27524E+01 1.60139E+01 2.56600E-01 1.71460E+01 6.12572E-02-3.53702E-02
 -1      4804-1.20867E+01 1.52991E+01 2.19101E-01 1.71606E+01 6.78190E-02-6.06037E-02
 -1      4805-1.15678E+01 1.47767E+01 1.77841E-01 1.71564E+01 6.37828E-02-6.59518E-02
 -1      4806-1.12112E+01 1.44367E+01 1.42966E-01 1.71452E+01 4.57829E-02-5.01096E-02
 -1      4807-1.10295E+01 1.42694E+01 1.22945E-01 1.71368E+01 1.66653E-02-1.86180E-02
 -1      4808-1.10295E+01 1.42694E+01 1.22945E-01 1.71368E+01-1.66653E-02 1.86180E-02
 -1      4809-1.12112E+01 1.44367E+01 1.42966E-01 1.71452E+01-4.57829E-02 5.01096E-02
 -1      4810-1.15678E+01 1.47767E+01 1.77841E-01 1.71564E+01-6.37828E-02 6.59518E-02
 -1      4811-1.20867E+01 1.52991E+01 2.19101E-01 1.71606E+01-6.78190E-02 6.06037E-02
 -1      4812-1.27524E+01 1.60139E+01 2.56600E-01 1.71460E+01-6.12572E-02 3.53702E-02
 -1      4813-1.64592E+01 7.55368E+00 4.61241E-01 2.29709E+01 1.01163E-01-7.20070E-02
 -1      4814-1.56436E+01 6.68096E+00 3.98514E-01 2.27060E+01 1.20955E-01-1.05811E-01
 -1      4815-1.50055E+01 6.05972E+00 3.32591E-01 2.24871E+01 1.15363E-01-1.08060E-01
 -1      4816-1.45668E+01 5.66372E+00 2.77676E-01 2.23307E+01 8.27669E-02-7.96301E-02
 -1      4817-1.43432E+01 5.47160E+00 2.46526E-01 2.22491E+01 3.00461E-02-2.91846E-02
 -1      4818-1.43432E+01 5.47160E+00 2.46526E-01 2.22491E+01-3.00461E-02 2.91846E-02
 -1      4819-1.45668E+01 5.66372E+00 2.77676E-01 2.23307E+01-8.27669E-02 7.96301E-02
 -1      4820-1.50055E+01 6.05972E+00 3.32591E-01 2.24871E+01-1.15363E-01 1.08060E-01
 -1      4821-1.56436E+01 6.68096E+00 3.98514E-01 2.27060E+01-1.20955E-01 1.05811E-01
 -1      4822-1.64592E+01 7.55368E+00 4.61241E-01 2.29709E+01-1.01163E-01 7.20070E-02
 -1      4823-1.77835E+01-6.39081E+00 5.90584E-01 2.92176E+01 1.32825E-01-1.24087E-01
 -1      4824-1.69062E+01-7.29388E+00 5.06579E-01 2.85341E+01 1.63074E-01-1.62143E-01
 -1      4825-1.62145E+01-7.91461E+00 4.15147E-01 2.80088E+01 1.56396E-01-1.57530E-01
 -1      4826-1.57367E+01-8.29831E+00 3.39693E-01 2.76517E+01 1.11941E-01-1.12852E-01
 -1      4827-1.54932E+01-8.48104E+00 2.96853E-01 2.74711E+01 4.05966E-02-4.08519E-02
 -1      4828-1.54932E+01-8.48104E+00 2.96853E-01 2.74711E+01-4.05966E-02 4.08519E-02
 -1      4829-1.57367E+01-8.29831E+00 3.39693E-01 2.76517E+01-1.11941E-01 1.12852E-01
 -1      4830-1.62145E+01-7.91461E+00 4.15147E-01 2.80088E+01-1.56396E-01 1.57530E-01
 -1      4831-1.69062E+01-7.29388E+00 5.06579E-01 2.85341E+01-1.63074E-01 1.62143E-01
 -1      4832-1.77835E+01-6.39081E+00 5.90584E-01 2.92176E+01-1.32825E-01 1.24087E-01
 -1      4833-1.58051E+01-2.71804E+01 4.55974E-01 3.33238E+01 1.14187E-01-1.96398E-01
 -1      4834-1.50197E+01-2.78716E+01 3.61025E-01 3.21559E+01 1.35348E-01-2.39492E-01
 -1      4835-1.43812E+01-2.83184E+01 2.63167E-01 3.12945E+01 1.28331E-01-2.17687E-01
 -1      4836-1.39395E+01-2.85826E+01 1.81685E-01 3.07313E+01 9.19736E-02-1.49177E-01
 -1      4837-1.37144E+01-2.87043E+01 1.36722E-01 3.04534E+01 3.32679E-02-5.26919E-02
 -1      4838-1.37144E+01-2.87043E+01 1.36722E-01 3.04534E+01-3.32679E-02 5.26919E-02
 -1      4839-1.39395E+01-2.85826E+01 1.81685E-01 3.07313E+01-9.19736E-02 1.49177E-01
 -1      4840-1.43812E+01-2.83184E+01 2.63167E-01 3.12945E+01-1.28331E-01 2.17687E-01
 -1      4841-1.50197E+01-2.78716E+01 3.61025E-01 3.21559E+01-1.35348E-01 2.39492E-01
 -1      4842-1.58051E+01-2.71804E+01 4.55974E-01 3.33238E+01-1.14187E-01 1.96398E-01
 -1      4843-1.09899E+01-5.36508E+01-5.93642E-02 3.14608E+01-2.00045E-02-2.77390E-01
 -1      4844-1.04365E+01-5.37891E+01-1.19937E-01 2.99221E+01-5.64082E-02-3.21228E-01
 -1      4845-9.98815E+00-5.38934E+01-1.68495E-01 2.88635E+01-7.52082E-02-2.66030E-01
 -1      4846-9.66908E+00-5.39512E+01-1.83985E-01 2.82080E+01-6.58100E-02-1.67188E-01
 -1      4847-9.50737E+00-5.39794E+01-1.89149E-01 2.78967E+01-2.57270E-02-5.65057E-02
 -1      4848-9.50737E+00-5.39794E+01-1.89149E-01 2.78967E+01 2.57270E-02 5.65057E-02
 -1      4849-9.66908E+00-5.39512E+01-1.83985E-01 2.82080E+01 6.58100E-02 1.67188E-01
 -1      4850-9.98815E+00-5.38934E+01-1.68495E-01 2.88635E+01 7.52082E-02 2.66030E-01
 -1      4851-1.04365E+01-5.37891E+01-1.19937E-01 2.99221E+01 5.64082E-02 3.21228E-01
 -1      4852-1.09899E+01-5.36508E+01-5.93642E-02 3.14608E+01 2.00045E-02 2.77390E-01
 -1      4853-5.88893E+00-8.03508E+01-7.95430E-01 2.01191E+01-3.55480E-01-2.45725E-01
 -1      4854-5.57777E+00-7.96933E+01-6.04926E-01 1.88094E+01-6.80327E-01-2.59269E-01
 -1      4855-5.34448E+00-7.94261E+01-3.70191E-01 1.79969E+01-7.67241E-01-1.86920E-01
 -1      4856-5.18610E+00-7.93580E+01-1.56292E-01 1.75324E+01-5.82408E-01-1.06624E-01
 -1      4857-5.10198E+00-7.93494E+01-2.57785E-02 1.73208E+01-2.15432E-01-3.32617E-02
 -1      4858-5.10198E+00-7.93494E+01-2.57785E-02 1.73208E+01 2.15432E-01 3.32617E-02
 -1      4859-5.18610E+00-7.93580E+01-1.56292E-01 1.75324E+01 5.82408E-01 1.06624E-01
 -1      4860-5.34448E+00-7.94261E+01-3.70191E-01 1.79969E+01 7.67241E-01 1.86920E-01
 -1      4861-5.57777E+00-7.96933E+01-6.04926E-01 1.88094E+01 6.80327E-01 2.59269E-01
 -1      4862-5.88893E+00-8.03508E+01-7.95430E-01 2.01191E+01 3.55480E-01 2.45725E-01
 -1      4863 1.35363E+01 3.91497E+01-4.48253E-01 6.61557E+00-2.12190E+00-2.19052E-01
 -1      4864 1.47115E+01 3.94609E+01 3.39921E+00 6.17360E+00-3.25930E+00-2.89255E-01
 -1      4865 1.53609E+01 3.95614E+01 5.59380E+00 5.91036E+00-2.63171E+00-2.41354E-01
 -1      4866 1.56970E+01 3.95810E+01 6.76283E+00 5.75781E+00-1.64393E+00-1.55652E-01
 -1      4867 1.58427E+01 3.95822E+01 7.27697E+00 5.68714E+00-5.55274E-01-5.34574E-02
 -1      4868 1.58427E+01 3.95822E+01 7.27697E+00 5.68714E+00 5.55274E-01 5.34574E-02
 -1      4869 1.56970E+01 3.95810E+01 6.76283E+00 5.75781E+00 1.64393E+00 1.55652E-01
 -1      4870 1.53609E+01 3.95614E+01 5.59380E+00 5.91036E+00 2.63171E+00 2.41354E-01
 -1      4871 1.47115E+01 3.94609E+01 3.39921E+00 6.17360E+00 3.25930E+00 2.89255E-01
 -1      4872 1.35363E+01 3.91497E+01-4.48253E-01 6.61557E+00 2.12190E+00 2.19052E-01
 -1      4873 1.50730E+01 3.98007E+01 7.11954E-01 4.95738E+00-1.02694E-01-2.67604E-01
 -1      4874 1.49547E+01 4.03382E+01 1.54494E-01 4.65755E+00-1.91029E-01-3.42746E-01
 -1      4875 1.51646E+01 4.06392E+01 7.72200E-01 4.44048E+00-4.54963E-01-3.11512E-01
 -1      4876 1.53619E+01 4.07936E+01 1.39969E+00 4.30213E+00-3.90284E-01-2.08244E-01
 -1      4877 1.54680E+01 4.08576E+01 1.74616E+00 4.23510E+00-1.48056E-01-7.25440E-02
 -1      4878 1.54680E+01 4.08576E+01 1.74616E+00 4.23510E+00 1.48056E-01 7.25440E-02
 -1      4879 1.53619E+01 4.07936E+01 1.39969E+00 4.30213E+00 3.90284E-01 2.08244E-01
 -1      4880 1.51646E+01 4.06392E+01 7.72200E-01 4.44048E+00 4.54963E-01 3.11512E-01
 -1      4881 1.49547E+01 4.03382E+01 1.54494E-01 4.65755E+00 1.91029E-01 3.42746E-01
 -1      4882 1.50730E+01 3.98007E+01 7.11954E-01 4.95738E+00 1.02694E-01 2.67604E-01
 -1      4883 1.49597E+01 3.86714E+01-1.32950E-01 3.70421E+00 3.61623E-01-1.45838E-01
 -1      4884 1.52721E+01 4.00171E+01-5.83217E-02 3.64380E+00 5.10905E-01-2.14092E-01
 -1      4885 1.53414E+01 4.06837E+01-2.25872E-01 3.54536E+00 4.45908E-01-2.06255E-01
 -1      4886 1.53919E+01 4.10361E+01-2.44876E-01 3.46451E+00 2.61788E-01-1.46503E-01
 -1      4887 1.54225E+01 4.11908E+01-2.19146E-01 3.42078E+00 8.37702E-02-5.25762E-02
 -1      4888 1.54225E+01 4.11908E+01-2.19146E-01 3.42078E+00-8.37702E-02 5.25762E-02
 -1      4889 1.53919E+01 4.10361E+01-2.44876E-01 3.46451E+00-2.61788E-01 1.46503E-01
 -1      4890 1.53414E+01 4.06837E+01-2.25872E-01 3.54536E+00-4.45908E-01 2.06255E-01
 -1      4891 1.52721E+01 4.00171E+01-5.83217E-02 3.64380E+00-5.10905E-01 2.14092E-01
 -1      4892 1.49597E+01 3.86714E+01-1.32950E-01 3.70421E+00-3.61623E-01 1.45838E-01
 -1      4893 1.53068E+01 3.90980E+01-1.57988E-01 2.95332E+00 2.80064E-01-6.88711E-02
 -1      4894 1.53506E+01 3.96942E+01-2.53718E-01 2.97906E+00 4.46943E-01-1.01097E-01
 -1      4895 1.54169E+01 4.02648E+01-3.43465E-01 2.97784E+00 4.38246E-01-1.01902E-01
 -1      4896 1.54428E+01 4.06370E+01-4.56624E-01 2.96274E+00 3.11778E-01-7.34289E-02
 -1      4897 1.54523E+01 4.08173E+01-5.19536E-01 2.95095E+00 1.11140E-01-2.66866E-02
 -1      4898 1.54523E+01 4.08173E+01-5.19536E-01 2.95095E+00-1.11140E-01 2.66866E-02
 -1      4899 1.54428E+01 4.06370E+01-4.56624E-01 2.96274E+00-3.11778E-01 7.34289E-02
 -1      4900 1.54169E+01 4.02648E+01-3.43465E-01 2.97784E+00-4.38246E-01 1.01902E-01
 -1      4901 1.53506E+01 3.96942E+01-2.53718E-01 2.97906E+00-4.46943E-01 1.01097E-01
 -1      4902 1.53068E+01 3.90980E+01-1.57988E-01 2.95332E+00-2.80064E-01 6.88711E-02
 -1      4903 1.54713E+01 3.93190E+01-1.31653E-01 2.52282E+00 1.55185E-01-2.60960E-02
 -1      4904 1.54479E+01 3.96173E+01-1.88340E-01 2.59396E+00 2.50822E-01-4.01450E-02
 -1      4905 1.54371E+01 3.99046E+01-2.71708E-01 2.63540E+00 2.59482E-01-4.11729E-02
 -1      4906 1.54387E+01 4.01378E+01-3.39625E-01 2.65797E+00 1.89812E-01-3.04185E-02
 -1      4907 1.54396E+01 4.02636E+01-3.82143E-01 2.66735E+00 6.94542E-02-1.10959E-02
 -1      4908 1.54396E+01 4.02636E+01-3.82143E-01 2.66735E+00-6.94542E-02 1.10959E-02
 -1      4909 1.54387E+01 4.01378E+01-3.39625E-01 2.65797E+00-1.89812E-01 3.04185E-02
 -1      4910 1.54371E+01 3.99046E+01-2.71708E-01 2.63540E+00-2.59482E-01 4.11729E-02
 -1      4911 1.54479E+01 3.96173E+01-1.88340E-01 2.59396E+00-2.50822E-01 4.01450E-02
 -1      4912 1.54713E+01 3.93190E+01-1.31653E-01 2.52282E+00-1.55185E-01 2.60960E-02
 -1      4913 1.54619E+01 3.93144E+01-8.84038E-02 2.30215E+00 6.81546E-02-8.08061E-03
 -1      4914 1.54084E+01 3.94481E+01-1.20273E-01 2.39170E+00 1.12696E-01-1.27552E-02
 -1      4915 1.53755E+01 3.95911E+01-1.61782E-01 2.45465E+00 1.19302E-01-1.36889E-02
 -1      4916 1.53558E+01 3.97062E+01-2.00600E-01 2.49410E+00 8.93331E-02-1.03225E-02
 -1      4917 1.53476E+01 3.97714E+01-2.22245E-01 2.51317E+00 3.28708E-02-3.84419E-03
 -1      4918 1.53476E+01 3.97714E+01-2.22245E-01 2.51317E+00-3.28708E-02 3.84419E-03
 -1      4919 1.53558E+01 3.97062E+01-2.00600E-01 2.49410E+00-8.93331E-02 1.03225E-02
 -1      4920 1.53755E+01 3.95911E+01-1.61782E-01 2.45465E+00-1.19302E-01 1.36889E-02
 -1      4921 1.54084E+01 3.94481E+01-1.20273E-01 2.39170E+00-1.12696E-01 1.27552E-02
 -1      4922 1.54619E+01 3.93144E+01-8.84038E-02 2.30215E+00-6.81546E-02 8.08061E-03
 -1      4923 1.52774E+01 3.91271E+01-6.20193E-02 2.22680E+00 2.34742E-02-1.82300E-03
 -1      4924 1.52221E+01 3.91922E+01-7.55851E-02 2.32552E+00 3.98465E-02-2.98981E-03
 -1      4925 1.51835E+01 3.92596E+01-9.38704E-02 2.39821E+00 4.39454E-02-3.34168E-03
 -1      4926 1.51594E+01 3.93151E+01-1.10397E-01 2.44591E+00 3.36931E-02-2.62279E-03
 -1      4927 1.51477E+01 3.93460E+01-1.20405E-01 2.46946E+00 1.25948E-02-9.82458E-04
 -1      4928 1.51477E+01 3.93460E+01-1.20405E-01 2.46946E+00-1.25948E-02 9.82458E-04
 -1      4929 1.51594E+01 3.93151E+01-1.10397E-01 2.44591E+00-3.36931E-02 2.62279E-03
 -1      4930 1.51835E+01 3.92596E+01-9.38704E-02 2.39821E+00-4.39454E-02 3.34168E-03
 -1      4931 1.52221E+01 3.91922E+01-7.55851E-02 2.32552E+00-3.98465E-02 2.98981E-03
 -1      4932 1.52774E+01 3.91271E+01-6.20193E-02 2.22680E+00-2.34742E-02 1.82300E-03
 -1      4933 1.49359E+01 3.88187E+01-5.02158E-02 2.26751E+00 4.96704E-03-2.59515E-04
 -1      4934 1.48900E+01 3.88550E+01-5.49614E-02 2.37199E+00 9.19885E-03-1.64535E-04
 -1      4935 1.48565E+01 3.88892E+01-6.11715E-02 2.45007E+00 1.11630E-02-2.00338E-04
 -1      4936 1.48347E+01 3.89160E+01-6.70598E-02 2.50193E+00 9.09582E-03-1.84666E-04
 -1      4937 1.48241E+01 3.89308E+01-7.05410E-02 2.52779E+00 3.48375E-03-7.71911E-05
 -1      4938 1.48241E+01 3.89308E+01-7.05410E-02 2.52779E+00-3.48375E-03 7.71911E-05
 -1      4939 1.48347E+01 3.89160E+01-6.70598E-02 2.50193E+00-9.09582E-03 1.84666E-04
 -1      4940 1.48565E+01 3.88892E+01-6.11715E-02 2.45007E+00-1.11630E-02 2.00338E-04
 -1      4941 1.48900E+01 3.88550E+01-5.49614E-02 2.37199E+00-9.19885E-03 1.64535E-04
 -1      4942 1.49359E+01 3.88187E+01-5.02158E-02 2.26751E+00-4.96704E-03 2.59515E-04
 -1      4943 1.44595E+01 3.84162E+01-4.76774E-02 2.40912E+00-9.19040E-04-5.17636E-05
 -1      4944 1.44273E+01 3.84380E+01-4.86788E-02 2.51758E+00-9.54518E-04 4.22283E-04
 -1      4945 1.44032E+01 3.84561E+01-4.99191E-02 2.59896E+00-1.68454E-04 5.68752E-04
 -1      4946 1.43871E+01 3.84694E+01-5.11553E-02 2.65321E+00 3.14735E-04 4.47223E-04
 -1      4947 1.43792E+01 3.84764E+01-5.19328E-02 2.68033E+00 1.98613E-04 1.68213E-04
 -1      4948 1.43792E+01 3.84764E+01-5.19328E-02 2.68033E+00-1.98613E-04-1.68213E-04
 -1      4949 1.43871E+01 3.84694E+01-5.11553E-02 2.65321E+00-3.14735E-04-4.47223E-04
 -1      4950 1.44032E+01 3.84561E+01-4.99191E-02 2.59896E+00 1.68454E-04-5.68752E-04
 -1      4951 1.44273E+01 3.84380E+01-4.86788E-02 2.51758E+00 9.54518E-04-4.22283E-04
 -1      4952 1.44595E+01 3.84162E+01-4.76774E-02 2.40912E+00 9.19040E-04 5.17636E-05
 -1      4953 1.38704E+01 3.79216E+01-4.96494E-02 2.63730E+00-1.90843E-03-2.77737E-05
 -1      4954 1.38529E+01 3.79322E+01-4.93482E-02 2.74818E+00-2.96667E-03 5.74478E-04
 -1      4955 1.38394E+01 3.79400E+01-4.88589E-02 2.83145E+00-2.76022E-03 7.91685E-04
 -1      4956 1.38303E+01 3.79454E+01-4.84806E-02 2.88703E+00-1.85256E-03 6.42714E-04
 -1      4957 1.38256E+01 3.79481E+01-4.82744E-02 2.91483E+00-6.44237E-04 2.44362E-04
 -1      4958 1.38256E+01 3.79481E+01-4.82744E-02 2.91483E+00 6.44237E-04-2.44362E-04
 -1      4959 1.38303E+01 3.79454E+01-4.84806E-02 2.88703E+00 1.85256E-03-6.42714E-04
 -1      4960 1.38394E+01 3.79400E+01-4.88589E-02 2.83145E+00 2.76022E-03-7.91685E-04
 -1      4961 1.38529E+01 3.79322E+01-4.93482E-02 2.74818E+00 2.96667E-03-5.74478E-04
 -1      4962 1.38704E+01 3.79216E+01-4.96494E-02 2.63730E+00 1.90843E-03 2.77737E-05
 -1      4963 1.31866E+01 3.73253E+01-5.34829E-02 2.93356E+00-1.47020E-03 1.23264E-04
 -1      4964 1.31833E+01 3.73249E+01-5.28084E-02 3.04539E+00-2.52879E-03 7.86663E-04
 -1      4965 1.31804E+01 3.73240E+01-5.18616E-02 3.12942E+00-2.57419E-03 1.01822E-03
 -1      4966 1.31781E+01 3.73232E+01-5.10380E-02 3.18553E+00-1.85175E-03 8.15907E-04
 -1      4967 1.31770E+01 3.73228E+01-5.05586E-02 3.21361E+00-6.68446E-04 3.09315E-04
 -1      4968 1.31770E+01 3.73228E+01-5.05586E-02 3.21361E+00 6.68446E-04-3.09315E-04
 -1      4969 1.31781E+01 3.73232E+01-5.10380E-02 3.18553E+00 1.85175E-03-8.15907E-04
 -1      4970 1.31804E+01 3.73240E+01-5.18616E-02 3.12942E+00 2.57419E-03-1.01822E-03
 -1      4971 1.31833E+01 3.73249E+01-5.28084E-02 3.04539E+00 2.52879E-03-7.86663E-04
 -1      4972 1.31866E+01 3.73253E+01-5.34829E-02 2.93356E+00 1.47020E-03-1.23264E-04
 -1      4973 1.24171E+01 3.66179E+01-5.79076E-02 3.27523E+00-8.56156E-04 4.32124E-04
 -1      4974 1.24272E+01 3.66063E+01-5.71235E-02 3.38694E+00-1.74696E-03 1.14317E-03
 -1      4975 1.24341E+01 3.65971E+01-5.60816E-02 3.47096E+00-1.90769E-03 1.35507E-03
 -1      4976 1.24384E+01 3.65907E+01-5.51671E-02 3.52709E+00-1.42793E-03 1.05750E-03
 -1      4977 1.24405E+01 3.65874E+01-5.46292E-02 3.55518E+00-5.25562E-04 3.96989E-04
 -1      4978 1.24405E+01 3.65874E+01-5.46292E-02 3.55518E+00 5.25562E-04-3.96989E-04
 -1      4979 1.24384E+01 3.65907E+01-5.51671E-02 3.52709E+00 1.42793E-03-1.05750E-03
 -1      4980 1.24341E+01 3.65971E+01-5.60816E-02 3.47096E+00 1.90769E-03-1.35507E-03
 -1      4981 1.24272E+01 3.66063E+01-5.71235E-02 3.38694E+00 1.74696E-03-1.14317E-03
 -1      4982 1.24171E+01 3.66179E+01-5.79076E-02 3.27523E+00 8.56156E-04-4.32124E-04
 -1      4983 1.15589E+01 3.57953E+01-6.23802E-02 3.63829E+00-3.76516E-04 8.86538E-04
 -1      4984 1.15812E+01 3.57729E+01-6.14951E-02 3.74954E+00-1.19095E-03 1.64553E-03
 -1      4985 1.15972E+01 3.57556E+01-6.03798E-02 3.83328E+00-1.42780E-03 1.81600E-03
 -1      4986 1.16074E+01 3.57438E+01-5.94077E-02 3.88926E+00-1.11301E-03 1.38190E-03
 -1      4987 1.16125E+01 3.57378E+01-5.88367E-02 3.91730E+00-4.16812E-04 5.13795E-04
 -1      4988 1.16125E+01 3.57378E+01-5.88367E-02 3.91730E+00 4.16812E-04-5.13795E-04
 -1      4989 1.16074E+01 3.57438E+01-5.94077E-02 3.88926E+00 1.11301E-03-1.38190E-03
 -1      4990 1.15972E+01 3.57556E+01-6.03798E-02 3.83328E+00 1.42780E-03-1.81600E-03
 -1      4991 1.15812E+01 3.57729E+01-6.14951E-02 3.74954E+00 1.19095E-03-1.64553E-03
 -1      4992 1.15589E+01 3.57953E+01-6.23802E-02 3.63829E+00 3.76516E-04-8.86538E-04
 -1      4993 1.05935E+01 3.48620E+01-6.66220E-02 4.00170E+00-2.53736E-05 1.49558E-03
 -1      4994 1.06271E+01 3.48290E+01-6.55675E-02 4.11302E+00-9.00676E-04 2.31506E-03
 -1      4995 1.06515E+01 3.48038E+01-6.42954E-02 4.19689E+00-1.22148E-03 2.42542E-03
 -1      4996 1.06673E+01 3.47867E+01-6.31982E-02 4.25301E+00-9.93331E-04 1.80811E-03
 -1      4997 1.06751E+01 3.47781E+01-6.25576E-02 4.28112E+00-3.78058E-04 6.66733E-04
 -1      4998 1.06751E+01 3.47781E+01-6.25576E-02 4.28112E+00 3.78058E-04-6.66733E-04
 -1      4999 1.06673E+01 3.47867E+01-6.31982E-02 4.25301E+00 9.93331E-04-1.80811E-03
 -1      5000 1.06515E+01 3.48038E+01-6.42954E-02 4.19689E+00 1.22148E-03-2.42542E-03
 -1      5001 1.06271E+01 3.48290E+01-6.55675E-02 4.11302E+00 9.00676E-04-2.31506E-03
 -1      5002 1.05935E+01 3.48620E+01-6.66220E-02 4.00170E+00 2.53736E-05-1.49558E-03
 -1      5003 9.48497E+00 3.38303E+01-7.03386E-02 4.35286E+00 2.69442E-04 2.29496E-03
 -1      5004 9.52971E+00 3.37866E+01-6.90325E-02 4.46572E+00-8.01222E-04 3.20319E-03
 -1      5005 9.56233E+00 3.37533E+01-6.74995E-02 4.55084E+00-1.23693E-03 3.23270E-03
 -1      5006 9.58357E+00 3.37308E+01-6.61884E-02 4.60784E+00-1.04250E-03 2.37059E-03
 -1      5007 9.59405E+00 3.37195E+01-6.54281E-02 4.63642E+00-4.01680E-04 8.68089E-04
 -1      5008 9.59405E+00 3.37195E+01-6.54281E-02 4.63642E+00 4.01680E-04-8.68089E-04
 -1      5009 9.58357E+00 3.37308E+01-6.61884E-02 4.60784E+00 1.04250E-03-2.37059E-03
 -1      5010 9.56233E+00 3.37533E+01-6.74995E-02 4.55084E+00 1.23693E-03-3.23270E-03
 -1      5011 9.52971E+00 3.37866E+01-6.90325E-02 4.46572E+00 8.01222E-04-3.20319E-03
 -1      5012 9.48497E+00 3.38303E+01-7.03386E-02 4.35286E+00-2.69442E-04-2.29496E-03
 -1      5013 8.17922E+00 3.27183E+01-7.30097E-02 4.69438E+00 5.68791E-04 3.32992E-03
 -1      5014 8.23625E+00 3.26624E+01-7.13815E-02 4.81108E+00-8.37810E-04 4.36869E-03
 -1      5015 8.27790E+00 3.26199E+01-6.94942E-02 4.89922E+00-1.43428E-03 4.28921E-03
 -1      5016 8.30508E+00 3.25911E+01-6.78886E-02 4.95831E+00-1.23741E-03 3.10266E-03
 -1      5017 8.31850E+00 3.25767E+01-6.69631E-02 4.98795E+00-4.80235E-04 1.12925E-03
 -1      5018 8.31850E+00 3.25767E+01-6.69631E-02 4.98795E+00 4.80235E-04-1.12925E-03
 -1      5019 8.30508E+00 3.25911E+01-6.78886E-02 4.95831E+00 1.23741E-03-3.10266E-03
 -1      5020 8.27790E+00 3.26199E+01-6.94942E-02 4.89922E+00 1.43428E-03-4.28921E-03
 -1      5021 8.23625E+00 3.26624E+01-7.13815E-02 4.81108E+00 8.37810E-04-4.36869E-03
 -1      5022 8.17922E+00 3.27183E+01-7.30097E-02 4.69438E+00-5.68791E-04-3.32992E-03
 -1      5023 6.60554E+00 3.15442E+01-7.36708E-02 5.05252E+00 9.15015E-04 4.62049E-03
 -1      5024 6.67787E+00 3.14726E+01-7.16901E-02 5.17586E+00-9.95133E-04 5.82739E-03
 -1      5025 6.73082E+00 3.14180E+01-6.93972E-02 5.26916E+00-1.81108E-03 5.59686E-03
 -1      5026 6.76545E+00 3.13812E+01-6.74528E-02 5.33178E+00-1.57953E-03 3.99850E-03
 -1      5027 6.78257E+00 3.13627E+01-6.63379E-02 5.36322E+00-6.14660E-04 1.44674E-03
 -1      5028 6.78257E+00 3.13627E+01-6.63379E-02 5.36322E+00 6.14660E-04-1.44674E-03
 -1      5029 6.76545E+00 3.13812E+01-6.74528E-02 5.33178E+00 1.57953E-03-3.99850E-03
 -1      5030 6.73082E+00 3.14180E+01-6.93972E-02 5.26916E+00 1.81108E-03-5.59686E-03
 -1      5031 6.67787E+00 3.14726E+01-7.16901E-02 5.17586E+00 9.95133E-04-5.82739E-03
 -1      5032 6.60554E+00 3.15442E+01-7.36708E-02 5.05252E+00-9.15015E-04-4.62049E-03
 -1      5033 4.68174E+00 3.03163E+01-7.06265E-02 5.48721E+00 1.35997E-03 6.09970E-03
 -1      5034 4.77514E+00 3.02223E+01-6.83606E-02 5.61975E+00-1.25738E-03 7.46438E-03
 -1      5035 4.84377E+00 3.01508E+01-6.57156E-02 5.72018E+00-2.36218E-03 7.02002E-03
 -1      5036 4.88882E+00 3.01026E+01-6.34787E-02 5.78765E+00-2.06577E-03 4.94887E-03
 -1      5037 4.91114E+00 3.00783E+01-6.22025E-02 5.82155E+00-8.03637E-04 1.77882E-03
 -1      5038 4.91114E+00 3.00783E+01-6.22025E-02 5.82155E+00 8.03637E-04-1.77882E-03
 -1      5039 4.88882E+00 3.01026E+01-6.34787E-02 5.78765E+00 2.06577E-03-4.94887E-03
 -1      5040 4.84377E+00 3.01508E+01-6.57156E-02 5.72018E+00 2.36218E-03-7.02002E-03
 -1      5041 4.77514E+00 3.02223E+01-6.83606E-02 5.61975E+00 1.25738E-03-7.46438E-03
 -1      5042 4.68174E+00 3.03163E+01-7.06265E-02 5.48721E+00-1.35997E-03-6.09970E-03
 -1      5043 2.32618E+00 2.90159E+01-6.10612E-02 6.10310E+00 2.03001E-03 7.51721E-03
 -1      5044 2.44998E+00 2.88890E+01-5.87820E-02 6.24577E+00-1.50701E-03 8.90521E-03
 -1      5045 2.54151E+00 2.87924E+01-5.60590E-02 6.35400E+00-2.97379E-03 8.16148E-03
 -1      5046 2.60192E+00 2.87273E+01-5.37624E-02 6.42676E+00-2.60947E-03 5.65331E-03
 -1      5047 2.63197E+00 2.86945E+01-5.24602E-02 6.46332E+00-1.01451E-03 2.01389E-03
 -1      5048 2.63197E+00 2.86945E+01-5.24602E-02 6.46332E+00 1.01451E-03-2.01389E-03
 -1      5049 2.60192E+00 2.87273E+01-5.37624E-02 6.42676E+00 2.60947E-03-5.65331E-03
 -1      5050 2.54151E+00 2.87924E+01-5.60590E-02 6.35400E+00 2.97379E-03-8.16148E-03
 -1      5051 2.44998E+00 2.88890E+01-5.87820E-02 6.24577E+00 1.50701E-03-8.90521E-03
 -1      5052 2.32618E+00 2.90159E+01-6.10612E-02 6.10310E+00-2.03001E-03-7.51721E-03
 -1      5053-5.19373E-01 2.75692E+01-4.05840E-02 7.05892E+00 3.23967E-03 8.31828E-03
 -1      5054-3.51634E-01 2.73937E+01-3.89363E-02 7.20858E+00-1.34193E-03 9.37241E-03
 -1      5055-2.26623E-01 2.72603E+01-3.68023E-02 7.32210E+00-3.23374E-03 8.23665E-03
 -1      5056-1.43532E-01 2.71706E+01-3.50078E-02 7.39836E+00-2.90034E-03 5.53579E-03
 -1      5057-1.02021E-01 2.71255E+01-3.40010E-02 7.43666E+00-1.13200E-03 1.94107E-03
 -1      5058-1.02021E-01 2.71255E+01-3.40010E-02 7.43666E+00 1.13200E-03-1.94107E-03
 -1      5059-1.43532E-01 2.71706E+01-3.50078E-02 7.39836E+00 2.90034E-03-5.53579E-03
 -1      5060-2.26623E-01 2.72603E+01-3.68023E-02 7.32210E+00 3.23374E-03-8.23665E-03
 -1      5061-3.51634E-01 2.73937E+01-3.89363E-02 7.20858E+00 1.34193E-03-9.37241E-03
 -1      5062-5.19373E-01 2.75692E+01-4.05840E-02 7.05892E+00-3.23967E-03-8.31828E-03
 -1      5063-3.85032E+00 2.58025E+01-2.95701E-03 8.56855E+00 5.64259E-03 7.53325E-03
 -1      5064-3.62124E+00 2.55583E+01-3.15997E-03 8.71417E+00 1.70517E-04 7.60548E-03
 -1      5065-3.44902E+00 2.53733E+01-2.88813E-03 8.82427E+00-2.17983E-03 6.02657E-03
 -1      5066-3.33374E+00 2.52491E+01-2.65011E-03 8.89798E+00-2.22183E-03 3.72550E-03
 -1      5067-3.27590E+00 2.51867E+01-2.53657E-03 8.93489E+00-8.91795E-04 1.24545E-03
 -1      5068-3.27590E+00 2.51867E+01-2.53657E-03 8.93489E+00 8.91795E-04-1.24545E-03
 -1      5069-3.33374E+00 2.52491E+01-2.65011E-03 8.89798E+00 2.22183E-03-3.72550E-03
 -1      5070-3.44902E+00 2.53733E+01-2.88813E-03 8.82427E+00 2.17983E-03-6.02657E-03
 -1      5071-3.62124E+00 2.55583E+01-3.15997E-03 8.71417E+00-1.70517E-04-7.60548E-03
 -1      5072-3.85032E+00 2.58025E+01-2.95701E-03 8.56855E+00-5.64259E-03-7.53325E-03
 -1      5073-7.53938E+00 2.33800E+01 5.92086E-02 1.08798E+01 1.03145E-02 3.75323E-03
 -1      5074-7.23026E+00 2.30446E+01 5.51259E-02 1.09972E+01 4.66395E-03 1.93113E-03
 -1      5075-6.99596E+00 2.27918E+01 5.14809E-02 1.10849E+01 1.86670E-03 9.27174E-06
 -1      5076-6.83818E+00 2.26227E+01 4.84822E-02 1.11429E+01 6.64177E-04-8.28391E-04
 -1      5077-6.75872E+00 2.25381E+01 4.67637E-02 1.11718E+01 1.59703E-04-4.46091E-04
 -1      5078-6.75872E+00 2.25381E+01 4.67637E-02 1.11718E+01-1.59703E-04 4.46091E-04
 -1      5079-6.83818E+00 2.26227E+01 4.84822E-02 1.11429E+01-6.64177E-04 8.28391E-04
 -1      5080-6.99596E+00 2.27918E+01 5.14809E-02 1.10849E+01-1.86670E-03-9.27174E-06
 -1      5081-7.23026E+00 2.30446E+01 5.51259E-02 1.09972E+01-4.66395E-03-1.93113E-03
 -1      5082-7.53938E+00 2.33800E+01 5.92086E-02 1.08798E+01-1.03145E-02-3.75323E-03
 -1      5083-1.12606E+01 1.97256E+01 1.50769E-01 1.42056E+01 1.85654E-02-4.82961E-03
 -1      5084-1.08580E+01 1.92817E+01 1.39997E-01 1.42516E+01 1.42074E-02-9.48765E-03
 -1      5085-1.05507E+01 1.89495E+01 1.29564E-01 1.42835E+01 1.10118E-02-1.13621E-02
 -1      5086-1.03428E+01 1.87287E+01 1.21038E-01 1.43030E+01 7.28428E-03-9.13634E-03
 -1      5087-1.02377E+01 1.86187E+01 1.16210E-01 1.43122E+01 2.57681E-03-3.48469E-03
 -1      5088-1.02377E+01 1.86187E+01 1.16210E-01 1.43122E+01-2.57681E-03 3.48469E-03
 -1      5089-1.03428E+01 1.87287E+01 1.21038E-01 1.43030E+01-7.28428E-03 9.13634E-03
 -1      5090-1.05507E+01 1.89495E+01 1.29564E-01 1.42835E+01-1.10118E-02 1.13621E-02
 -1      5091-1.08580E+01 1.92817E+01 1.39997E-01 1.42516E+01-1.42074E-02 9.48765E-03
 -1      5092-1.12606E+01 1.97256E+01 1.50769E-01 1.42056E+01-1.85654E-02 4.82961E-03
 -1      5093-1.44303E+01 1.39620E+01 2.63852E-01 1.85709E+01 3.09337E-02-2.03870E-02
 -1      5094-1.39378E+01 1.34111E+01 2.42832E-01 1.84807E+01 2.99258E-02-2.87116E-02
 -1      5095-1.35591E+01 1.30034E+01 2.22200E-01 1.84075E+01 2.63532E-02-2.97012E-02
 -1      5096-1.33015E+01 1.27351E+01 2.05366E-01 1.83556E+01 1.84067E-02-2.22338E-02
 -1      5097-1.31711E+01 1.26022E+01 1.95915E-01 1.83285E+01 6.63117E-03-8.22233E-03
 -1      5098-1.31711E+01 1.26022E+01 1.95915E-01 1.83285E+01-6.63117E-03 8.22233E-03
 -1      5099-1.33015E+01 1.27351E+01 2.05366E-01 1.83556E+01-1.84067E-02 2.22338E-02
 -1      5100-1.35591E+01 1.30034E+01 2.22200E-01 1.84075E+01-2.63532E-02 2.97012E-02
 -1      5101-1.39378E+01 1.34111E+01 2.42832E-01 1.84807E+01-2.99258E-02 2.87116E-02
 -1      5102-1.44303E+01 1.39620E+01 2.63852E-01 1.85709E+01-3.09337E-02 2.03870E-02
 -1      5103-1.62391E+01 4.95771E+00 3.60827E-01 2.35521E+01 4.47954E-02-4.64414E-02
 -1      5104-1.56907E+01 4.34273E+00 3.27035E-01 2.32461E+01 4.85717E-02-5.94299E-02
 -1      5105-1.52642E+01 3.89514E+00 2.92726E-01 2.30097E+01 4.48741E-02-5.82864E-02
 -1      5106-1.49715E+01 3.60456E+00 2.64791E-01 2.28482E+01 3.18573E-02-4.22950E-02
 -1      5107-1.48226E+01 3.46184E+00 2.49051E-01 2.27662E+01 1.15326E-02-1.54277E-02
 -1      5108-1.48226E+01 3.46184E+00 2.49051E-01 2.27662E+01-1.15326E-02 1.54277E-02
 -1      5109-1.49715E+01 3.60456E+00 2.64791E-01 2.28482E+01-3.18573E-02 4.22950E-02
 -1      5110-1.52642E+01 3.89514E+00 2.92726E-01 2.30097E+01-4.48741E-02 5.82864E-02
 -1      5111-1.56907E+01 4.34273E+00 3.27035E-01 2.32461E+01-4.85717E-02 5.94299E-02
 -1      5112-1.62391E+01 4.95771E+00 3.60827E-01 2.35521E+01-4.47954E-02 4.64414E-02
 -1      5113-1.58895E+01-8.34094E+00 3.65513E-01 2.79730E+01 5.14870E-02-8.86113E-02
 -1      5114-1.53563E+01-8.91320E+00 3.17754E-01 2.73827E+01 5.91854E-02-1.10332E-01
 -1      5115-1.49290E+01-9.31949E+00 2.69014E-01 2.69357E+01 5.56855E-02-1.04721E-01
 -1      5116-1.46317E+01-9.57892E+00 2.28279E-01 2.66356E+01 3.98356E-02-7.43489E-02
 -1      5117-1.44794E+01-9.70486E+00 2.05350E-01 2.64849E+01 1.44528E-02-2.68005E-02
 -1      5118-1.44794E+01-9.70486E+00 2.05350E-01 2.64849E+01-1.44528E-02 2.68005E-02
 -1      5119-1.46317E+01-9.57892E+00 2.28279E-01 2.66356E+01-3.98356E-02 7.43489E-02
 -1      5120-1.49290E+01-9.31949E+00 2.69014E-01 2.69357E+01-5.56855E-02 1.04721E-01
 -1      5121-1.53563E+01-8.91320E+00 3.17754E-01 2.73827E+01-5.91854E-02 1.10332E-01
 -1      5122-1.58895E+01-8.34094E+00 3.65513E-01 2.79730E+01-5.14870E-02 8.86113E-02
 -1      5123-1.30833E+01-2.61523E+01 1.89243E-01 2.97930E+01 3.82791E-02-1.52806E-01
 -1      5124-1.26452E+01-2.64993E+01 1.36835E-01 2.89059E+01 4.15552E-02-1.91101E-01
 -1      5125-1.22809E+01-2.67445E+01 7.75759E-02 2.82465E+01 3.79869E-02-1.76748E-01
 -1      5126-1.20221E+01-2.68980E+01 3.08142E-02 2.78115E+01 2.66021E-02-1.21801E-01
 -1      5127-1.18886E+01-2.69716E+01 5.26414E-03 2.75959E+01 9.55449E-03-4.31888E-02
 -1      5128-1.18886E+01-2.69716E+01 5.26414E-03 2.75959E+01-9.55449E-03 4.31888E-02
 -1      5129-1.20221E+01-2.68980E+01 3.08142E-02 2.78115E+01-2.66021E-02 1.21801E-01
 -1      5130-1.22809E+01-2.67445E+01 7.75759E-02 2.82465E+01-3.79869E-02 1.76748E-01
 -1      5131-1.26452E+01-2.64993E+01 1.36835E-01 2.89059E+01-4.15552E-02 1.91101E-01
 -1      5132-1.30833E+01-2.61523E+01 1.89243E-01 2.97930E+01-3.82791E-02 1.52806E-01
 -1      5133-8.55417E+00-4.68386E+01-1.77554E-01 2.65353E+01-2.23848E-02-2.23939E-01
 -1      5134-8.27090E+00-4.67568E+01-2.13252E-01 2.54500E+01-4.28942E-02-2.80773E-01
 -1      5135-8.02667E+00-4.67109E+01-2.40367E-01 2.46778E+01-5.59817E-02-2.45961E-01
 -1      5136-7.85310E+00-4.66942E+01-2.53738E-01 2.41877E+01-4.85061E-02-1.62285E-01
 -1      5137-7.76257E+00-4.66894E+01-2.56562E-01 2.39507E+01-1.92596E-02-5.61332E-02
 -1      5138-7.76257E+00-4.66894E+01-2.56562E-01 2.39507E+01 1.92596E-02 5.61332E-02
 -1      5139-7.85310E+00-4.66942E+01-2.53738E-01 2.41877E+01 4.85061E-02 1.62285E-01
 -1      5140-8.02667E+00-4.67109E+01-2.40367E-01 2.46778E+01 5.59817E-02 2.45961E-01
 -1      5141-8.27090E+00-4.67568E+01-2.13252E-01 2.54500E+01 4.28942E-02 2.80773E-01
 -1      5142-8.55417E+00-4.68386E+01-1.77554E-01 2.65353E+01 2.23848E-02 2.23939E-01
 -1      5143-4.30269E+00-6.63409E+01-6.02687E-01 1.63139E+01-1.86693E-01-2.01922E-01
 -1      5144-4.15105E+00-6.56970E+01-4.81279E-01 1.54160E+01-3.70952E-01-2.42939E-01
 -1      5145-4.03160E+00-6.53516E+01-3.22475E-01 1.48335E+01-4.33681E-01-1.98636E-01
 -1      5146-3.94907E+00-6.51924E+01-1.78743E-01 1.44836E+01-3.36171E-01-1.24562E-01
 -1      5147-3.90760E+00-6.51362E+01-9.54889E-02 1.43200E+01-1.25291E-01-4.21865E-02
 -1      5148-3.90760E+00-6.51362E+01-9.54889E-02 1.43200E+01 1.25291E-01 4.21865E-02
 -1      5149-3.94907E+00-6.51924E+01-1.78743E-01 1.44836E+01 3.36171E-01 1.24562E-01
 -1      5150-4.03160E+00-6.53516E+01-3.22475E-01 1.48335E+01 4.33681E-01 1.98636E-01
 -1      5151-4.15105E+00-6.56970E+01-4.81279E-01 1.54160E+01 3.70952E-01 2.42939E-01
 -1      5152-4.30269E+00-6.63409E+01-6.02687E-01 1.63139E+01 1.86693E-01 2.01922E-01
 -1      5153 1.21134E+01 3.32122E+01-5.50871E-01 5.73519E+00-1.67049E+00-1.97209E-01
 -1      5154 1.30877E+01 3.35071E+01 2.64962E+00 5.32289E+00-2.66545E+00-2.62331E-01
 -1      5155 1.36343E+01 3.36082E+01 4.50940E+00 5.07554E+00-2.17793E+00-2.20391E-01
 -1      5156 1.39207E+01 3.36342E+01 5.51303E+00 4.93130E+00-1.36718E+00-1.42577E-01
 -1      5157 1.40455E+01 3.36393E+01 5.95699E+00 4.86425E+00-4.62734E-01-4.90415E-02
 -1      5158 1.40455E+01 3.36393E+01 5.95699E+00 4.86425E+00 4.62734E-01 4.90415E-02
 -1      5159 1.39207E+01 3.36342E+01 5.51303E+00 4.93130E+00 1.36718E+00 1.42577E-01
 -1      5160 1.36343E+01 3.36082E+01 4.50940E+00 5.07554E+00 2.17793E+00 2.20391E-01
 -1      5161 1.30877E+01 3.35071E+01 2.64962E+00 5.32289E+00 2.66545E+00 2.62331E-01
 -1      5162 1.21134E+01 3.32122E+01-5.50871E-01 5.73519E+00 1.67049E+00 1.97209E-01
 -1      5163 1.39343E+01 3.36610E+01 5.87449E-01 3.94136E+00-4.56211E-02-2.35441E-01
 -1      5164 1.38061E+01 3.41465E+01 5.26228E-02 3.67425E+00-7.41769E-02-3.02258E-01
 -1      5165 1.39526E+01 3.44170E+01 4.97334E-01 3.47689E+00-3.02643E-01-2.76297E-01
 -1      5166 1.41015E+01 3.45577E+01 9.82803E-01 3.35002E+00-2.77815E-01-1.85708E-01
 -1      5167 1.41836E+01 3.46170E+01 1.25640E+00 3.28826E+00-1.07566E-01-6.48679E-02
 -1      5168 1.41836E+01 3.46170E+01 1.25640E+00 3.28826E+00 1.07566E-01 6.48679E-02
 -1      5169 1.41015E+01 3.45577E+01 9.82803E-01 3.35002E+00 2.77815E-01 1.85708E-01
 -1      5170 1.39526E+01 3.44170E+01 4.97334E-01 3.47689E+00 3.02643E-01 2.76297E-01
 -1      5171 1.38061E+01 3.41465E+01 5.26228E-02 3.67425E+00 7.41769E-02 3.02258E-01
 -1      5172 1.39343E+01 3.36610E+01 5.87449E-01 3.94136E+00 4.56211E-02 2.35441E-01
 -1      5173 1.41469E+01 3.27326E+01-1.16255E-01 2.46229E+00 3.00523E-01-1.23016E-01
 -1      5174 1.43814E+01 3.38358E+01-5.95705E-02 2.41517E+00 4.38498E-01-1.81535E-01
 -1      5175 1.44213E+01 3.44028E+01-2.25731E-01 2.33322E+00 3.98352E-01-1.75682E-01
 -1      5176 1.44489E+01 3.47078E+01-2.73604E-01 2.26425E+00 2.42458E-01-1.25267E-01
 -1      5177 1.44668E+01 3.48430E+01-2.70837E-01 2.22656E+00 7.91825E-02-4.50706E-02
 -1      5178 1.44668E+01 3.48430E+01-2.70837E-01 2.22656E+00-7.91825E-02 4.50706E-02
 -1      5179 1.44489E+01 3.47078E+01-2.73604E-01 2.26425E+00-2.42458E-01 1.25267E-01
 -1      5180 1.44213E+01 3.44028E+01-2.25731E-01 2.33322E+00-3.98352E-01 1.75682E-01
 -1      5181 1.43814E+01 3.38358E+01-5.95705E-02 2.41517E+00-4.38498E-01 1.81535E-01
 -1      5182 1.41469E+01 3.27326E+01-1.16255E-01 2.46229E+00-3.00523E-01 1.23016E-01
 -1      5183 1.45784E+01 3.31906E+01-1.20386E-01 1.43933E+00 2.16820E-01-5.52874E-02
 -1      5184 1.45872E+01 3.36498E+01-2.02777E-01 1.46836E+00 3.51203E-01-8.14693E-02
 -1      5185 1.46258E+01 3.41062E+01-2.77883E-01 1.47360E+00 3.48904E-01-8.27618E-02
 -1      5186 1.46381E+01 3.44111E+01-3.75344E-01 1.46521E+00 2.51481E-01-5.98840E-02
 -1      5187 1.46414E+01 3.45605E+01-4.31657E-01 1.45737E+00 9.03222E-02-2.18027E-02
 -1      5188 1.46414E+01 3.45605E+01-4.31657E-01 1.45737E+00-9.03222E-02 2.18027E-02
 -1      5189 1.46381E+01 3.44111E+01-3.75344E-01 1.46521E+00-2.51481E-01 5.98840E-02
 -1      5190 1.46258E+01 3.41062E+01-2.77883E-01 1.47360E+00-3.48904E-01 8.27618E-02
 -1      5191 1.45872E+01 3.36498E+01-2.02777E-01 1.46836E+00-3.51203E-01 8.14693E-02
 -1      5192 1.45784E+01 3.31906E+01-1.20386E-01 1.43933E+00-2.16820E-01 5.52874E-02
 -1      5193 1.47042E+01 3.35081E+01-9.50607E-02 7.36285E-01 1.11799E-01-1.95627E-02
 -1      5194 1.46676E+01 3.37342E+01-1.38000E-01 8.04397E-01 1.82769E-01-3.03355E-02
 -1      5195 1.46456E+01 3.39525E+01-2.02716E-01 8.46002E-01 1.91043E-01-3.14390E-02
 -1      5196 1.46390E+01 3.41326E+01-2.54720E-01 8.69800E-01 1.40596E-01-2.34360E-02
 -1      5197 1.46362E+01 3.42309E+01-2.87410E-01 8.80214E-01 5.16379E-02-8.58555E-03
 -1      5198 1.46362E+01 3.42309E+01-2.87410E-01 8.80214E-01-5.16379E-02 8.58555E-03
 -1      5199 1.46390E+01 3.41326E+01-2.54720E-01 8.69800E-01-1.40596E-01 2.34360E-02
 -1      5200 1.46456E+01 3.39525E+01-2.02716E-01 8.46002E-01-1.91043E-01 3.14390E-02
 -1      5201 1.46676E+01 3.37342E+01-1.38000E-01 8.04397E-01-1.82769E-01 3.03355E-02
 -1      5202 1.47042E+01 3.35081E+01-9.50607E-02 7.36285E-01-1.11799E-01 1.95627E-02
 -1      5203 1.45793E+01 3.36858E+01-6.08392E-02 2.68589E-01 4.46294E-02-5.40521E-03
 -1      5204 1.45246E+01 3.37866E+01-8.31103E-02 3.51315E-01 7.47961E-02-8.69902E-03
 -1      5205 1.44893E+01 3.38933E+01-1.12058E-01 4.10318E-01 8.00867E-02-9.56148E-03
 -1      5206 1.44676E+01 3.39787E+01-1.39617E-01 4.47720E-01 6.04538E-02-7.31154E-03
 -1      5207 1.44580E+01 3.40270E+01-1.54898E-01 4.65914E-01 2.23142E-02-2.74634E-03
 -1      5208 1.44580E+01 3.40270E+01-1.54898E-01 4.65914E-01-2.23142E-02 2.74634E-03
 -1      5209 1.44676E+01 3.39787E+01-1.39617E-01 4.47720E-01-6.04538E-02 7.31154E-03
 -1      5210 1.44893E+01 3.38933E+01-1.12058E-01 4.10318E-01-8.00867E-02 9.56148E-03
 -1      5211 1.45246E+01 3.37866E+01-8.31103E-02 3.51315E-01-7.47961E-02 8.69902E-03
 -1      5212 1.45793E+01 3.36858E+01-6.08392E-02 2.68589E-01-4.46294E-02 5.40521E-03
 -1      5213 1.42327E+01 3.37548E+01-4.21542E-02-1.95223E-02 1.29284E-02-9.59472E-04
 -1      5214 1.41811E+01 3.38066E+01-5.05715E-02 7.01318E-02 2.25447E-02-1.66539E-03
 -1      5215 1.41445E+01 3.38576E+01-6.20878E-02 1.36481E-01 2.55291E-02-1.97794E-03
 -1      5216 1.41214E+01 3.38987E+01-7.25233E-02 1.80208E-01 1.98800E-02-1.61064E-03
 -1      5217 1.41100E+01 3.39213E+01-7.89710E-02 2.01851E-01 7.49330E-03-6.12080E-04
 -1      5218 1.41100E+01 3.39213E+01-7.89710E-02 2.01851E-01-7.49330E-03 6.12080E-04
 -1      5219 1.41214E+01 3.38987E+01-7.25233E-02 1.80208E-01-1.98800E-02 1.61064E-03
 -1      5220 1.41445E+01 3.38576E+01-6.20878E-02 1.36481E-01-2.55291E-02 1.97794E-03
 -1      5221 1.41811E+01 3.38066E+01-5.05715E-02 7.01318E-02-2.25447E-02 1.66539E-03
 -1      5222 1.42327E+01 3.37548E+01-4.21542E-02-1.95223E-02-1.29284E-02 9.59472E-04
 -1      5223 1.36972E+01 3.37583E+01-3.50177E-02-1.56570E-01 1.26521E-03-1.18065E-04
 -1      5224 1.36560E+01 3.37900E+01-3.74722E-02-6.25082E-02 2.93111E-03 1.59049E-06
 -1      5225 1.36258E+01 3.38177E+01-4.07032E-02 7.91894E-03 4.21951E-03-3.25402E-05
 -1      5226 1.36060E+01 3.38385E+01-4.38476E-02 5.47580E-02 3.74062E-03-5.57118E-05
 -1      5227 1.35962E+01 3.38497E+01-4.57191E-02 7.81457E-02 1.48069E-03-2.96832E-05
 -1      5228 1.35962E+01 3.38497E+01-4.57191E-02 7.81457E-02-1.48069E-03 2.96832E-05
 -1      5229 1.36060E+01 3.38385E+01-4.38476E-02 5.47580E-02-3.74062E-03 5.57118E-05
 -1      5230 1.36258E+01 3.38177E+01-4.07032E-02 7.91894E-03-4.21951E-03 3.25402E-05
 -1      5231 1.36560E+01 3.37900E+01-3.74722E-02-6.25082E-02-2.93111E-03-1.59049E-06
 -1      5232 1.36972E+01 3.37583E+01-3.50177E-02-1.56570E-01-1.26521E-03 1.18065E-04
 -1      5233 1.30002E+01 3.37099E+01-3.46029E-02-1.58266E-01-1.63260E-03-1.88762E-04
 -1      5234 1.29719E+01 3.37305E+01-3.48346E-02-6.09073E-02-2.30698E-03 1.13476E-04
 -1      5235 1.29507E+01 3.37465E+01-3.50972E-02 1.21697E-02-1.86673E-03 2.28958E-04
 -1      5236 1.29366E+01 3.37577E+01-3.54005E-02 6.09049E-02-1.09506E-03 1.96887E-04
 -1      5237 1.29296E+01 3.37635E+01-3.56271E-02 8.52730E-02-3.46479E-04 7.58801E-05
 -1      5238 1.29296E+01 3.37635E+01-3.56271E-02 8.52730E-02 3.46479E-04-7.58801E-05
 -1      5239 1.29366E+01 3.37577E+01-3.54005E-02 6.09049E-02 1.09506E-03-1.96887E-04
 -1      5240 1.29507E+01 3.37465E+01-3.50972E-02 1.21697E-02 1.86673E-03-2.28958E-04
 -1      5241 1.29719E+01 3.37305E+01-3.48346E-02-6.09073E-02 2.30698E-03-1.13476E-04
 -1      5242 1.30002E+01 3.37099E+01-3.46029E-02-1.58266E-01 1.63260E-03 1.88762E-04
 -1      5243 1.21657E+01 3.36026E+01-3.71637E-02-3.74969E-02-1.56197E-03-3.06368E-04
 -1      5244 1.21507E+01 3.36134E+01-3.67957E-02 6.21141E-02-2.53186E-03 2.11790E-05
 -1      5245 1.21393E+01 3.36211E+01-3.62482E-02 1.36910E-01-2.47467E-03 1.89253E-04
 -1      5246 1.21316E+01 3.36261E+01-3.57772E-02 1.86814E-01-1.73152E-03 1.94303E-04
 -1      5247 1.21277E+01 3.36286E+01-3.55161E-02 2.11780E-01-6.16009E-04 7.88804E-05
 -1      5248 1.21277E+01 3.36286E+01-3.55161E-02 2.11780E-01 6.16009E-04-7.88804E-05
 -1      5249 1.21316E+01 3.36261E+01-3.57772E-02 1.86814E-01 1.73152E-03-1.94303E-04
 -1      5250 1.21393E+01 3.36211E+01-3.62482E-02 1.36910E-01 2.47467E-03-1.89253E-04
 -1      5251 1.21507E+01 3.36134E+01-3.67957E-02 6.21141E-02 2.53186E-03-2.11790E-05
 -1      5252 1.21657E+01 3.36026E+01-3.71637E-02-3.74969E-02 1.56197E-03 3.06368E-04
 -1      5253 1.12129E+01 3.34212E+01-4.07584E-02 1.91060E-01-8.53568E-04-2.81773E-04
 -1      5254 1.12109E+01 3.34215E+01-4.03158E-02 2.91869E-01-1.61418E-03 3.91327E-05
 -1      5255 1.12092E+01 3.34212E+01-3.96900E-02 3.67572E-01-1.71096E-03 2.13343E-04
 -1      5256 1.12079E+01 3.34209E+01-3.91235E-02 4.18091E-01-1.26159E-03 2.16738E-04
 -1      5257 1.12072E+01 3.34206E+01-3.87973E-02 4.43366E-01-4.60423E-04 8.83475E-05
 -1      5258 1.12072E+01 3.34206E+01-3.87973E-02 4.43366E-01 4.60423E-04-8.83475E-05
 -1      5259 1.12079E+01 3.34209E+01-3.91235E-02 4.18091E-01 1.26159E-03-2.16738E-04
 -1      5260 1.12092E+01 3.34212E+01-3.96900E-02 3.67572E-01 1.71096E-03-2.13343E-04
 -1      5261 1.12109E+01 3.34215E+01-4.03158E-02 2.91869E-01 1.61418E-03-3.91327E-05
 -1      5262 1.12129E+01 3.34212E+01-4.07584E-02 1.91060E-01 8.53568E-04 2.81773E-04
 -1      5263 1.01533E+01 3.31501E+01-4.44600E-02 5.10517E-01-2.12433E-04-1.23037E-04
 -1      5264 1.01639E+01 3.31394E+01-4.40444E-02 6.11689E-01-7.69766E-04 1.88447E-04
 -1      5265 1.01716E+01 3.31311E+01-4.34843E-02 6.87682E-01-9.38251E-04 3.42191E-04
 -1      5266 1.01765E+01 3.31253E+01-4.29739E-02 7.38404E-01-7.36795E-04 3.05814E-04
 -1      5267 1.01789E+01 3.31224E+01-4.26767E-02 7.63785E-01-2.76257E-04 1.20261E-04
 -1      5268 1.01789E+01 3.31224E+01-4.26767E-02 7.63785E-01 2.76257E-04-1.20261E-04
 -1      5269 1.01765E+01 3.31253E+01-4.29739E-02 7.38404E-01 7.36795E-04-3.05814E-04
 -1      5270 1.01716E+01 3.31311E+01-4.34843E-02 6.87682E-01 9.38251E-04-3.42191E-04
 -1      5271 1.01639E+01 3.31394E+01-4.40444E-02 6.11689E-01 7.69766E-04-1.88447E-04
 -1      5272 1.01533E+01 3.31501E+01-4.44600E-02 5.10517E-01 2.12433E-04 1.23037E-04
 -1      5273 8.98821E+00 3.27785E+01-4.78130E-02 9.04016E-01 2.65069E-04 1.41091E-04
 -1      5274 9.01082E+00 3.27568E+01-4.73918E-02 1.00515E+00-2.08834E-04 4.42835E-04
 -1      5275 9.02746E+00 3.27401E+01-4.68601E-02 1.08114E+00-4.33771E-04 5.60222E-04
 -1      5276 9.03838E+00 3.27289E+01-4.63808E-02 1.13188E+00-3.92930E-04 4.54298E-04
 -1      5277 9.04378E+00 3.27233E+01-4.61021E-02 1.15727E+00-1.54836E-04 1.73072E-04
 -1      5278 9.04378E+00 3.27233E+01-4.61021E-02 1.15727E+00 1.54836E-04-1.73072E-04
 -1      5279 9.03838E+00 3.27289E+01-4.63808E-02 1.13188E+00 3.92930E-04-4.54298E-04
 -1      5280 9.02746E+00 3.27401E+01-4.68601E-02 1.08114E+00 4.33771E-04-5.60222E-04
 -1      5281 9.01082E+00 3.27568E+01-4.73918E-02 1.00515E+00 2.08834E-04-4.42835E-04
 -1      5282 8.98821E+00 3.27785E+01-4.78130E-02 9.04016E-01-2.65069E-04-1.41091E-04
 -1      5283 7.70566E+00 3.23021E+01-5.04814E-02 1.35865E+00 6.47418E-04 5.01236E-04
 -1      5284 7.74013E+00 3.22690E+01-4.99992E-02 1.45989E+00 1.43014E-04 7.96541E-04
 -1      5285 7.76562E+00 3.22440E+01-4.94233E-02 1.53600E+00-1.52610E-04 8.65492E-04
 -1      5286 7.78242E+00 3.22272E+01-4.89132E-02 1.58684E+00-2.12516E-04 6.62557E-04
 -1      5287 7.79075E+00 3.22187E+01-4.86180E-02 1.61229E+00-9.28000E-05 2.47110E-04
 -1      5288 7.79075E+00 3.22187E+01-4.86180E-02 1.61229E+00 9.28000E-05-2.47110E-04
 -1      5289 7.78242E+00 3.22272E+01-4.89132E-02 1.58684E+00 2.12516E-04-6.62557E-04
 -1      5290 7.76562E+00 3.22440E+01-4.94233E-02 1.53600E+00 1.52610E-04-8.65492E-04
 -1      5291 7.74013E+00 3.22690E+01-4.99992E-02 1.45989E+00-1.43014E-04-7.96541E-04
 -1      5292 7.70566E+00 3.23021E+01-5.04814E-02 1.35865E+00-6.47418E-04-5.01236E-04
 -1      5293 6.28007E+00 3.17217E+01-5.20410E-02 1.87060E+00 1.01452E-03 9.66411E-04
 -1      5294 6.32686E+00 3.16767E+01-5.14511E-02 1.97262E+00 3.85969E-04 1.26704E-03
 -1      5295 6.36153E+00 3.16426E+01-5.07650E-02 2.04936E+00-8.02472E-06 1.27682E-03
 -1      5296 6.38441E+00 3.16198E+01-5.01649E-02 2.10064E+00-1.39389E-04 9.44507E-04
 -1      5297 6.39577E+00 3.16084E+01-4.98189E-02 2.12633E+00-7.09124E-05 3.47490E-04
 -1      5298 6.39577E+00 3.16084E+01-4.98189E-02 2.12633E+00 7.09124E-05-3.47490E-04
 -1      5299 6.38441E+00 3.16198E+01-5.01649E-02 2.10064E+00 1.39389E-04-9.44507E-04
 -1      5300 6.36153E+00 3.16426E+01-5.07650E-02 2.04936E+00 8.02472E-06-1.27682E-03
 -1      5301 6.32686E+00 3.16767E+01-5.14511E-02 1.97262E+00-3.85969E-04-1.26704E-03
 -1      5302 6.28007E+00 3.17217E+01-5.20410E-02 1.87060E+00-1.01452E-03-9.66411E-04
 -1      5303 4.67293E+00 3.10400E+01-5.18215E-02 2.45131E+00 1.42124E-03 1.55097E-03
 -1      5304 4.73356E+00 3.09813E+01-5.10951E-02 2.55511E+00 5.79879E-04 1.88007E-03
 -1      5305 4.77850E+00 3.09370E+01-5.02491E-02 2.63326E+00 5.08943E-05 1.81982E-03
 -1      5306 4.80818E+00 3.09072E+01-4.95116E-02 2.68552E+00-1.40130E-04 1.31816E-03
 -1      5307 4.82293E+00 3.08923E+01-4.90870E-02 2.71170E+00-7.76142E-05 4.80606E-04
 -1      5308 4.82293E+00 3.08923E+01-4.90870E-02 2.71170E+00 7.76142E-05-4.80606E-04
 -1      5309 4.80818E+00 3.09072E+01-4.95116E-02 2.68552E+00 1.40130E-04-1.31816E-03
 -1      5310 4.77850E+00 3.09370E+01-5.02491E-02 2.63326E+00-5.08943E-05-1.81982E-03
 -1      5311 4.73356E+00 3.09813E+01-5.10951E-02 2.55511E+00-5.79879E-04-1.88007E-03
 -1      5312 4.67293E+00 3.10400E+01-5.18215E-02 2.45131E+00-1.42124E-03-1.55097E-03
 -1      5313 2.83674E+00 3.02549E+01-4.87502E-02 3.13445E+00 1.89970E-03 2.25350E-03
 -1      5314 2.91418E+00 3.01792E+01-4.78887E-02 3.24097E+00 7.43685E-04 2.64243E-03
 -1      5315 2.97161E+00 3.01220E+01-4.68595E-02 3.32125E+00 3.47398E-05 2.50038E-03
 -1      5316 3.00957E+00 3.00836E+01-4.59581E-02 3.37499E+00-2.09415E-04 1.78627E-03
 -1      5317 3.02843E+00 3.00643E+01-4.54385E-02 3.40193E+00-1.11279E-04 6.47124E-04
 -1      5318 3.02843E+00 3.00643E+01-4.54385E-02 3.40193E+00 1.11279E-04-6.47124E-04
 -1      5319 3.00957E+00 3.00836E+01-4.59581E-02 3.37499E+00 2.09415E-04-1.78627E-03
 -1      5320 2.97161E+00 3.01220E+01-4.68595E-02 3.32125E+00-3.47398E-05-2.50038E-03
 -1      5321 2.91418E+00 3.01792E+01-4.78887E-02 3.24097E+00-7.43685E-04-2.64243E-03
 -1      5322 2.83674E+00 3.02549E+01-4.87502E-02 3.13445E+00-1.89970E-03-2.25350E-03
 -1      5323 7.23204E-01 2.93480E+01-4.11790E-02 3.98305E+00 2.47472E-03 3.02228E-03
 -1      5324 8.22321E-01 2.92497E+01-4.02433E-02 4.09239E+00 8.79518E-04 3.49751E-03
 -1      5325 8.95906E-01 2.91754E+01-3.90626E-02 4.17493E+00-6.16975E-05 3.26131E-03
 -1      5326 9.44582E-01 2.91256E+01-3.80144E-02 4.23023E+00-3.52116E-04 2.30520E-03
 -1      5327 9.68801E-01 2.91006E+01-3.74079E-02 4.25797E+00-1.73711E-04 8.30651E-04
 -1      5328 9.68801E-01 2.91006E+01-3.74079E-02 4.25797E+00 1.73711E-04-8.30651E-04
 -1      5329 9.44582E-01 2.91256E+01-3.80144E-02 4.23023E+00 3.52116E-04-2.30520E-03
 -1      5330 8.95906E-01 2.91754E+01-3.90626E-02 4.17493E+00 6.16975E-05-3.26131E-03
 -1      5331 8.22321E-01 2.92497E+01-4.02433E-02 4.09239E+00-8.79518E-04-3.49751E-03
 -1      5332 7.23204E-01 2.93480E+01-4.11790E-02 3.98305E+00-2.47472E-03-3.02228E-03
 -1      5333-1.70195E+00 2.82666E+01-2.67251E-02 5.09498E+00 3.19152E-03 3.70313E-03
 -1      5334-1.57414E+00 2.81377E+01-2.58903E-02 5.20522E+00 1.02002E-03 4.26124E-03
 -1      5335-1.47907E+00 2.80402E+01-2.46994E-02 5.28858E+00-2.08510E-04 3.92246E-03
 -1      5336-1.41607E+00 2.79748E+01-2.36100E-02 5.34450E+00-5.44928E-04 2.74283E-03
 -1      5337-1.38468E+00 2.79420E+01-2.29743E-02 5.37256E+00-2.55945E-04 9.82663E-04
 -1      5338-1.38468E+00 2.79420E+01-2.29743E-02 5.37256E+00 2.55945E-04-9.82663E-04
 -1      5339-1.41607E+00 2.79748E+01-2.36100E-02 5.34450E+00 5.44928E-04-2.74283E-03
 -1      5340-1.47907E+00 2.80402E+01-2.46994E-02 5.28858E+00 2.08510E-04-3.92246E-03
 -1      5341-1.57414E+00 2.81377E+01-2.58903E-02 5.20522E+00-1.02002E-03-4.26124E-03
 -1      5342-1.70195E+00 2.82666E+01-2.67251E-02 5.09498E+00-3.19152E-03-3.70313E-03
 -1      5343-4.43517E+00 2.68981E+01-2.24533E-03 6.60318E+00 4.15990E-03 3.97379E-03
 -1      5344-4.26968E+00 2.67278E+01-1.88188E-03 6.70852E+00 1.30741E-03 4.55138E-03
 -1      5345-4.14623E+00 2.65990E+01-1.01437E-03 6.78829E+00-2.55739E-04 4.11942E-03
 -1      5346-4.06420E+00 2.65126E+01-1.44249E-04 6.84184E+00-6.72738E-04 2.83776E-03
 -1      5347-4.02326E+00 2.64693E+01 3.76411E-04 6.86872E+00-3.14785E-04 1.00823E-03
 -1      5348-4.02326E+00 2.64693E+01 3.76411E-04 6.86872E+00 3.14785E-04-1.00823E-03
 -1      5349-4.06420E+00 2.65126E+01-1.44249E-04 6.84184E+00 6.72738E-04-2.83776E-03
 -1      5350-4.14623E+00 2.65990E+01-1.01437E-03 6.78829E+00 2.55739E-04-4.11942E-03
 -1      5351-4.26968E+00 2.67278E+01-1.88188E-03 6.70852E+00-1.30741E-03-4.55138E-03
 -1      5352-4.43517E+00 2.68981E+01-2.24533E-03 6.60318E+00-4.15990E-03-3.97379E-03
 -1      5353-7.40041E+00 2.50332E+01 3.57428E-02 8.66345E+00 5.60436E-03 3.28356E-03
 -1      5354-7.18746E+00 2.48092E+01 3.49664E-02 8.75169E+00 2.09188E-03 3.73855E-03
 -1      5355-7.02800E+00 2.46400E+01 3.48866E-02 8.81853E+00 1.71427E-04 3.27198E-03
 -1      5356-6.92172E+00 2.45266E+01 3.50439E-02 8.86337E+00-4.51218E-04 2.18249E-03
 -1      5357-6.86856E+00 2.44697E+01 3.51758E-02 8.88587E+00-2.44573E-04 7.60965E-04
 -1      5358-6.86856E+00 2.44697E+01 3.51758E-02 8.88587E+00 2.44573E-04-7.60965E-04
 -1      5359-6.92172E+00 2.45266E+01 3.50439E-02 8.86337E+00 4.51218E-04-2.18249E-03
 -1      5360-7.02800E+00 2.46400E+01 3.48866E-02 8.81853E+00-1.71427E-04-3.27198E-03
 -1      5361-7.18746E+00 2.48092E+01 3.49664E-02 8.75169E+00-2.09188E-03-3.73855E-03
 -1      5362-7.40041E+00 2.50332E+01 3.57428E-02 8.66345E+00-5.60436E-03-3.28356E-03
 -1      5363-1.04060E+01 2.23243E+01 8.95232E-02 1.14179E+01 7.87347E-03 8.08898E-04
 -1      5364-1.01378E+01 2.20357E+01 8.65682E-02 1.14676E+01 3.97598E-03 9.38063E-04
 -1      5365-9.93617E+00 2.18181E+01 8.45410E-02 1.15050E+01 1.71946E-03 5.92081E-04
 -1      5366-9.80130E+00 2.16726E+01 8.31926E-02 1.15299E+01 6.04933E-04 2.35736E-04
 -1      5367-9.73371E+00 2.15997E+01 8.24955E-02 1.15424E+01 1.33941E-04 4.82953E-05
 -1      5368-9.73371E+00 2.15997E+01 8.24955E-02 1.15424E+01-1.33941E-04-4.82953E-05
 -1      5369-9.80130E+00 2.16726E+01 8.31926E-02 1.15299E+01-6.04933E-04-2.35736E-04
 -1      5370-9.93617E+00 2.18181E+01 8.45410E-02 1.15050E+01-1.71946E-03-5.92081E-04
 -1      5371-1.01378E+01 2.20357E+01 8.65682E-02 1.14676E+01-3.97598E-03-9.38063E-04
 -1      5372-1.04060E+01 2.23243E+01 8.95232E-02 1.14179E+01-7.87347E-03-8.08898E-04
 -1      5373-1.31052E+01 1.82508E+01 1.56462E-01 1.49180E+01 1.12857E-02-4.61027E-03
 -1      5374-1.27815E+01 1.78939E+01 1.49870E-01 1.48961E+01 7.62623E-03-5.07626E-03
 -1      5375-1.25368E+01 1.76259E+01 1.44473E-01 1.48790E+01 5.11267E-03-4.99787E-03
 -1      5376-1.23725E+01 1.74472E+01 1.40471E-01 1.48670E+01 3.03736E-03-3.74041E-03
 -1      5377-1.22899E+01 1.73579E+01 1.38303E-01 1.48609E+01 1.01946E-03-1.39163E-03
 -1      5378-1.22899E+01 1.73579E+01 1.38303E-01 1.48609E+01-1.01946E-03 1.39163E-03
 -1      5379-1.23725E+01 1.74472E+01 1.40471E-01 1.48670E+01-3.03736E-03 3.74041E-03
 -1      5380-1.25368E+01 1.76259E+01 1.44473E-01 1.48790E+01-5.11267E-03 4.99787E-03
 -1      5381-1.27815E+01 1.78939E+01 1.49870E-01 1.48961E+01-7.62623E-03 5.07626E-03
 -1      5382-1.31052E+01 1.82508E+01 1.56462E-01 1.49180E+01-1.12857E-02 4.61027E-03
 -1      5383-1.49923E+01 1.21279E+01 2.22597E-01 1.89936E+01 1.56337E-02-1.48012E-02
 -1      5384-1.46272E+01 1.17163E+01 2.10678E-01 1.88568E+01 1.31055E-02-1.64429E-02
 -1      5385-1.43490E+01 1.14092E+01 2.00005E-01 1.87525E+01 1.05139E-02-1.54927E-02
 -1      5386-1.41610E+01 1.12056E+01 1.91750E-01 1.86819E+01 6.98461E-03-1.11458E-02
 -1      5387-1.40661E+01 1.11042E+01 1.87209E-01 1.86462E+01 2.46580E-03-4.06165E-03
 -1      5388-1.40661E+01 1.11042E+01 1.87209E-01 1.86462E+01-2.46580E-03 4.06165E-03
 -1      5389-1.41610E+01 1.12056E+01 1.91750E-01 1.86819E+01-6.98461E-03 1.11458E-02
 -1      5390-1.43490E+01 1.14092E+01 2.00005E-01 1.87525E+01-1.05139E-02 1.54927E-02
 -1      5391-1.46272E+01 1.17163E+01 2.10678E-01 1.88568E+01-1.31055E-02 1.64429E-02
 -1      5392-1.49923E+01 1.21279E+01 2.22597E-01 1.89936E+01-1.56337E-02 1.48012E-02
 -1      5393-1.54857E+01 3.22790E+00 2.56372E-01 2.30830E+01 1.95550E-02-3.30023E-02
 -1      5394-1.51138E+01 2.80496E+00 2.37243E-01 2.27858E+01 1.89918E-02-3.78691E-02
 -1      5395-1.48253E+01 2.49265E+00 2.18877E-01 2.25604E+01 1.66501E-02-3.54881E-02
 -1      5396-1.46279E+01 2.28731E+00 2.04181E-01 2.24087E+01 1.15724E-02-2.52581E-02
 -1      5397-1.45275E+01 2.18561E+00 1.95971E-01 2.23324E+01 4.15695E-03-9.14165E-03
 -1      5398-1.45275E+01 2.18561E+00 1.95971E-01 2.23324E+01-4.15695E-03 9.14165E-03
 -1      5399-1.46279E+01 2.28731E+00 2.04181E-01 2.24087E+01-1.15724E-02 2.52581E-02
 -1      5400-1.48253E+01 2.49265E+00 2.18877E-01 2.25604E+01-1.66501E-02 3.54881E-02
 -1      5401-1.51138E+01 2.80496E+00 2.37243E-01 2.27858E+01-1.89918E-02 3.78691E-02
 -1      5402-1.54857E+01 3.22790E+00 2.56372E-01 2.30830E+01-1.95550E-02 3.30023E-02
 -1      5403-1.41465E+01-8.90915E+00 2.10884E-01 2.60999E+01 2.05939E-02-6.46237E-02
 -1      5404-1.38187E+01-9.25881E+00 1.83369E-01 2.56121E+01 2.25343E-02-7.83253E-02
 -1      5405-1.35538E+01-9.51380E+00 1.54630E-01 2.52440E+01 2.07743E-02-7.37673E-02
 -1      5406-1.33679E+01-9.67989E+00 1.30817E-01 2.49974E+01 1.46972E-02-5.21727E-02
 -1      5407-1.32722E+01-9.76170E+00 1.17340E-01 2.48738E+01 5.31847E-03-1.87874E-02
 -1      5408-1.32722E+01-9.76170E+00 1.17340E-01 2.48738E+01-5.31847E-03 1.87874E-02
 -1      5409-1.33679E+01-9.67989E+00 1.30817E-01 2.49974E+01-1.46972E-02 5.21727E-02
 -1      5410-1.35538E+01-9.51380E+00 1.54630E-01 2.52440E+01-2.07743E-02 7.37673E-02
 -1      5411-1.38187E+01-9.25881E+00 1.83369E-01 2.56121E+01-2.25343E-02 7.83253E-02
 -1      5412-1.41465E+01-8.90915E+00 2.10884E-01 2.60999E+01-2.05939E-02 6.46237E-02
 -1      5413-1.10119E+01-2.39687E+01 4.66272E-02 2.64948E+01 1.67139E-02-1.14502E-01
 -1      5414-1.07717E+01-2.41216E+01 1.38641E-02 2.58270E+01 1.94083E-02-1.46493E-01
 -1      5415-1.05635E+01-2.42333E+01-2.53530E-02 2.53254E+01 1.77573E-02-1.37466E-01
 -1      5416-1.04128E+01-2.43062E+01-5.77048E-02 2.49919E+01 1.23495E-02-9.58172E-02
 -1      5417-1.03340E+01-2.43421E+01-7.53662E-02 2.48258E+01 4.38751E-03-3.41471E-02
 -1      5418-1.03340E+01-2.43421E+01-7.53662E-02 2.48258E+01-4.38751E-03 3.41471E-02
 -1      5419-1.04128E+01-2.43062E+01-5.77048E-02 2.49919E+01-1.23495E-02 9.58172E-02
 -1      5420-1.05635E+01-2.42333E+01-2.53530E-02 2.53254E+01-1.77573E-02 1.37466E-01
 -1      5421-1.07717E+01-2.41216E+01 1.38641E-02 2.58270E+01-1.94083E-02 1.46493E-01
 -1      5422-1.10119E+01-2.39687E+01 4.66272E-02 2.64948E+01-1.67139E-02 1.14502E-01
 -1      5423-6.87129E+00-4.03480E+01-2.17852E-01 2.26530E+01-4.53997E-03-1.70554E-01
 -1      5424-6.73328E+00-4.01777E+01-2.46820E-01 2.18803E+01-7.79957E-03-2.24626E-01
 -1      5425-6.60510E+00-4.00616E+01-2.73749E-01 2.13178E+01-1.49890E-02-2.03490E-01
 -1      5426-6.50933E+00-3.99923E+01-2.89790E-01 2.09538E+01-1.59791E-02-1.37349E-01
 -1      5427-6.45894E+00-3.99612E+01-2.96828E-01 2.07755E+01-6.81638E-03-4.81520E-02
 -1      5428-6.45894E+00-3.99612E+01-2.96828E-01 2.07755E+01 6.81638E-03 4.81520E-02
 -1      5429-6.50933E+00-3.99923E+01-2.89790E-01 2.09538E+01 1.59791E-02 1.37349E-01
 -1      5430-6.60510E+00-4.00616E+01-2.73749E-01 2.13178E+01 1.49890E-02 2.03490E-01
 -1      5431-6.73328E+00-4.01777E+01-2.46820E-01 2.18803E+01 7.79957E-03 2.24626E-01
 -1      5432-6.87129E+00-4.03480E+01-2.17852E-01 2.26530E+01 4.53997E-03 1.70554E-01
 -1      5433-3.29609E+00-5.50354E+01-4.89329E-01 1.35418E+01-8.05448E-02-1.56985E-01
 -1      5434-3.22316E+00-5.44613E+01-4.18957E-01 1.29175E+01-1.77332E-01-2.02895E-01
 -1      5435-3.16486E+00-5.41092E+01-3.28960E-01 1.24986E+01-2.19868E-01-1.75057E-01
 -1      5436-3.12302E+00-5.39155E+01-2.45926E-01 1.22403E+01-1.75190E-01-1.14412E-01
 -1      5437-3.10110E+00-5.38314E+01-1.96783E-01 1.21170E+01-6.60990E-02-3.94101E-02
 -1      5438-3.10110E+00-5.38314E+01-1.96783E-01 1.21170E+01 6.60990E-02 3.94101E-02
 -1      5439-3.12302E+00-5.39155E+01-2.45926E-01 1.22403E+01 1.75190E-01 1.14412E-01
 -1      5440-3.16486E+00-5.41092E+01-3.28960E-01 1.24986E+01 2.19868E-01 1.75057E-01
 -1      5441-3.22316E+00-5.44613E+01-4.18957E-01 1.29175E+01 1.77332E-01 2.02895E-01
 -1      5442-3.29609E+00-5.50354E+01-4.89329E-01 1.35418E+01 8.05448E-02 1.56985E-01
 -1      5443 1.07228E+01 2.78288E+01-5.97650E-01 4.82454E+00-1.29724E+00-1.78376E-01
 -1      5444 1.15210E+01 2.81001E+01 2.03360E+00 4.44075E+00-2.15301E+00-2.38857E-01
 -1      5445 1.19747E+01 2.81978E+01 3.58906E+00 4.20892E+00-1.78005E+00-2.01849E-01
 -1      5446 1.22150E+01 2.82272E+01 4.43881E+00 4.07295E+00-1.12288E+00-1.30872E-01
 -1      5447 1.23202E+01 2.82347E+01 4.81690E+00 4.00953E+00-3.80810E-01-4.50536E-02
 -1      5448 1.23202E+01 2.82347E+01 4.81690E+00 4.00953E+00 3.80810E-01 4.50536E-02
 -1      5449 1.22150E+01 2.82272E+01 4.43881E+00 4.07295E+00 1.12288E+00 1.30872E-01
 -1      5450 1.19747E+01 2.81978E+01 3.58906E+00 4.20892E+00 1.78005E+00 2.01849E-01
 -1      5451 1.15210E+01 2.81001E+01 2.03360E+00 4.44075E+00 2.15301E+00 2.38857E-01
 -1      5452 1.07228E+01 2.78288E+01-5.97650E-01 4.82454E+00 1.29724E+00 1.78376E-01
 -1      5453 1.27155E+01 2.81123E+01 4.82293E-01 2.95440E+00-9.12162E-03-2.07048E-01
 -1      5454 1.25853E+01 2.85402E+01-1.26860E-02 2.71658E+00 4.23305E-03-2.66093E-01
 -1      5455 1.26821E+01 2.87786E+01 2.97982E-01 2.53726E+00-1.88778E-01-2.44207E-01
 -1      5456 1.27910E+01 2.89041E+01 6.67091E-01 2.42096E+00-1.90751E-01-1.64826E-01
 -1      5457 1.28526E+01 2.89576E+01 8.79714E-01 2.36409E+00-7.58211E-02-5.76948E-02
 -1      5458 1.28526E+01 2.89576E+01 8.79714E-01 2.36409E+00 7.58211E-02 5.76948E-02
 -1      5459 1.27910E+01 2.89041E+01 6.67091E-01 2.42096E+00 1.90751E-01 1.64826E-01
 -1      5460 1.26821E+01 2.87786E+01 2.97982E-01 2.53726E+00 1.88778E-01 2.44207E-01
 -1      5461 1.25853E+01 2.85402E+01-1.26860E-02 2.71658E+00-4.23305E-03 2.66093E-01
 -1      5462 1.27155E+01 2.81123E+01 4.82293E-01 2.95440E+00 9.12162E-03 2.07048E-01
 -1      5463 1.31844E+01 2.73528E+01-9.83629E-02 1.33063E+00 2.45056E-01-1.02655E-01
 -1      5464 1.33562E+01 2.82460E+01-5.36114E-02 1.29368E+00 3.67326E-01-1.52523E-01
 -1      5465 1.33739E+01 2.87208E+01-2.08224E-01 1.22526E+00 3.45359E-01-1.48145E-01
 -1      5466 1.33840E+01 2.89804E+01-2.70769E-01 1.16637E+00 2.16425E-01-1.05926E-01
 -1      5467 1.33921E+01 2.90967E+01-2.82297E-01 1.13386E+00 7.18066E-02-3.81822E-02
 -1      5468 1.33921E+01 2.90967E+01-2.82297E-01 1.13386E+00-7.18066E-02 3.81822E-02
 -1      5469 1.33840E+01 2.89804E+01-2.70769E-01 1.16637E+00-2.16425E-01 1.05926E-01
 -1      5470 1.33739E+01 2.87208E+01-2.08224E-01 1.22526E+00-3.45359E-01 1.48145E-01
 -1      5471 1.33562E+01 2.82460E+01-5.36114E-02 1.29368E+00-3.67326E-01 1.52523E-01
 -1      5472 1.31844E+01 2.73528E+01-9.83629E-02 1.33063E+00-2.45056E-01 1.02655E-01
 -1      5473 1.36890E+01 2.78151E+01-8.80697E-02 1.16404E-01 1.65042E-01-4.33443E-02
 -1      5474 1.36736E+01 2.81659E+01-1.56738E-01 1.46273E-01 2.70861E-01-6.41276E-02
 -1      5475 1.36909E+01 2.85267E+01-2.16850E-01 1.55534E-01 2.72060E-01-6.56840E-02
 -1      5476 1.36926E+01 2.87731E+01-2.97408E-01 1.51979E-01 1.98420E-01-4.77196E-02
 -1      5477 1.36910E+01 2.88953E+01-3.45465E-01 1.47121E-01 7.17558E-02-1.74013E-02
 -1      5478 1.36910E+01 2.88953E+01-3.45465E-01 1.47121E-01-7.17558E-02 1.74013E-02
 -1      5479 1.36926E+01 2.87731E+01-2.97408E-01 1.51979E-01-1.98420E-01 4.77196E-02
 -1      5480 1.36909E+01 2.85267E+01-2.16850E-01 1.55534E-01-2.72060E-01 6.56840E-02
 -1      5481 1.36736E+01 2.81659E+01-1.56738E-01 1.46273E-01-2.70861E-01 6.41276E-02
 -1      5482 1.36890E+01 2.78151E+01-8.80697E-02 1.16404E-01-1.65042E-01 4.33443E-02
 -1      5483 1.38008E+01 2.82014E+01-6.47971E-02-7.90559E-01 7.88555E-02-1.39609E-02
 -1      5484 1.37563E+01 2.83734E+01-9.62508E-02-7.27073E-01 1.30259E-01-2.18526E-02
 -1      5485 1.37268E+01 2.85387E+01-1.45056E-01-6.86814E-01 1.37491E-01-2.28855E-02
 -1      5486 1.37140E+01 2.86767E+01-1.83505E-01-6.62938E-01 1.01698E-01-1.72310E-02
 -1      5487 1.37083E+01 2.87526E+01-2.07719E-01-6.52116E-01 3.74713E-02-6.34108E-03
 -1      5488 1.37083E+01 2.87526E+01-2.07719E-01-6.52116E-01-3.74713E-02 6.34108E-03
 -1      5489 1.37140E+01 2.86767E+01-1.83505E-01-6.62938E-01-1.01698E-01 1.72310E-02
 -1      5490 1.37268E+01 2.85387E+01-1.45056E-01-6.86814E-01-1.37491E-01 2.28855E-02
 -1      5491 1.37563E+01 2.83734E+01-9.62508E-02-7.27073E-01-1.30259E-01 2.18526E-02
 -1      5492 1.38008E+01 2.82014E+01-6.47971E-02-7.90559E-01-7.88555E-02 1.39609E-02
 -1      5493 1.36005E+01 2.85280E+01-3.86171E-02-1.45128E+00 2.81954E-02-3.21653E-03
 -1      5494 1.35463E+01 2.86060E+01-5.36375E-02-1.37589E+00 4.79229E-02-5.29886E-03
 -1      5495 1.35101E+01 2.86868E+01-7.30245E-02-1.32140E+00 5.19457E-02-6.01897E-03
 -1      5496 1.34871E+01 2.87506E+01-9.19242E-02-1.28648E+00 3.95626E-02-4.68683E-03
 -1      5497 1.34766E+01 2.87865E+01-1.02311E-01-1.26938E+00 1.46499E-02-1.77977E-03
 -1      5498 1.34766E+01 2.87865E+01-1.02311E-01-1.26938E+00-1.46499E-02 1.77977E-03
 -1      5499 1.34871E+01 2.87506E+01-9.19242E-02-1.28648E+00-3.95626E-02 4.68683E-03
 -1      5500 1.35101E+01 2.86868E+01-7.30245E-02-1.32140E+00-5.19457E-02 6.01897E-03
 -1      5501 1.35463E+01 2.86060E+01-5.36375E-02-1.37589E+00-4.79229E-02 5.29886E-03
 -1      5502 1.36005E+01 2.85280E+01-3.86171E-02-1.45128E+00-2.81954E-02 3.21653E-03
 -1      5503 1.31362E+01 2.88146E+01-2.63621E-02-1.90965E+00 6.34888E-03-3.01910E-04
 -1      5504 1.30882E+01 2.88581E+01-3.12814E-02-1.82864E+00 1.15644E-02-5.90964E-04
 -1      5505 1.30535E+01 2.88983E+01-3.81248E-02-1.76839E+00 1.36441E-02-8.22991E-04
 -1      5506 1.30313E+01 2.89298E+01-4.43330E-02-1.72851E+00 1.08712E-02-7.35485E-04
 -1      5507 1.30204E+01 2.89468E+01-4.82719E-02-1.70872E+00 4.14780E-03-2.87513E-04
 -1      5508 1.30204E+01 2.89468E+01-4.82719E-02-1.70872E+00-4.14780E-03 2.87513E-04
 -1      5509 1.30313E+01 2.89298E+01-4.43330E-02-1.72851E+00-1.08712E-02 7.35485E-04
 -1      5510 1.30535E+01 2.88983E+01-3.81248E-02-1.76839E+00-1.36441E-02 8.22991E-04
 -1      5511 1.30882E+01 2.88581E+01-3.12814E-02-1.82864E+00-1.15644E-02 5.90964E-04
 -1      5512 1.31362E+01 2.88146E+01-2.63621E-02-1.90965E+00-6.34888E-03 3.01910E-04
 -1      5513 1.24517E+01 2.90868E+01-2.29822E-02-2.18967E+00-6.05726E-04-7.33960E-06
 -1      5514 1.24143E+01 2.91158E+01-2.40657E-02-2.10496E+00-3.37280E-04 1.73858E-04
 -1      5515 1.23868E+01 2.91395E+01-2.54807E-02-2.04142E+00 4.65638E-04 1.65755E-04
 -1      5516 1.23686E+01 2.91566E+01-2.69388E-02-1.99911E+00 7.79929E-04 1.00739E-04
 -1      5517 1.23597E+01 2.91656E+01-2.78039E-02-1.97796E+00 3.61486E-04 3.00604E-05
 -1      5518 1.23597E+01 2.91656E+01-2.78039E-02-1.97796E+00-3.61486E-04-3.00604E-05
 -1      5519 1.23686E+01 2.91566E+01-2.69388E-02-1.99911E+00-7.79929E-04-1.00739E-04
 -1      5520 1.23868E+01 2.91395E+01-2.54807E-02-2.04142E+00-4.65638E-04-1.65755E-04
 -1      5521 1.24143E+01 2.91158E+01-2.40657E-02-2.10496E+00 3.37280E-04-1.73858E-04
 -1      5522 1.24517E+01 2.90868E+01-2.29822E-02-2.18967E+00 6.05726E-04 7.33960E-06
 -1      5523 1.15803E+01 2.93447E+01-2.41754E-02-2.30527E+00-1.71292E-03-2.40168E-04
 -1      5524 1.15551E+01 2.93644E+01-2.40502E-02-2.21763E+00-2.56192E-03-1.61053E-05
 -1      5525 1.15361E+01 2.93792E+01-2.38443E-02-2.15183E+00-2.33723E-03 8.71125E-05
 -1      5526 1.15236E+01 2.93892E+01-2.36978E-02-2.10794E+00-1.55181E-03 9.14792E-05
 -1      5527 1.15173E+01 2.93943E+01-2.36449E-02-2.08599E+00-5.34560E-04 3.76142E-05
 -1      5528 1.15173E+01 2.93943E+01-2.36449E-02-2.08599E+00 5.34560E-04-3.76142E-05
 -1      5529 1.15236E+01 2.93892E+01-2.36978E-02-2.10794E+00 1.55181E-03-9.14792E-05
 -1      5530 1.15361E+01 2.93792E+01-2.38443E-02-2.15183E+00 2.33723E-03-8.71125E-05
 -1      5531 1.15551E+01 2.93644E+01-2.40502E-02-2.21763E+00 2.56192E-03 1.61053E-05
 -1      5532 1.15803E+01 2.93447E+01-2.41754E-02-2.30527E+00 1.71292E-03 2.40168E-04
 -1      5533 1.05497E+01 2.95730E+01-2.70596E-02-2.26718E+00-1.16176E-03-4.10740E-04
 -1      5534 1.05367E+01 2.95835E+01-2.67394E-02-2.17742E+00-1.93337E-03-2.18437E-04
 -1      5535 1.05268E+01 2.95909E+01-2.62600E-02-2.11003E+00-1.94754E-03-8.16027E-05
 -1      5536 1.05202E+01 2.95957E+01-2.58364E-02-2.06508E+00-1.39429E-03-1.31335E-05
 -1      5537 1.05168E+01 2.95981E+01-2.55932E-02-2.04259E+00-5.02389E-04 2.09736E-06
 -1      5538 1.05168E+01 2.95981E+01-2.55932E-02-2.04259E+00 5.02389E-04-2.09736E-06
 -1      5539 1.05202E+01 2.95957E+01-2.58364E-02-2.06508E+00 1.39429E-03 1.31335E-05
 -1      5540 1.05268E+01 2.95909E+01-2.62600E-02-2.11003E+00 1.94754E-03 8.16027E-05
 -1      5541 1.05367E+01 2.95835E+01-2.67394E-02-2.17742E+00 1.93337E-03 2.18437E-04
 -1      5542 1.05497E+01 2.95730E+01-2.70596E-02-2.26718E+00 1.16176E-03 4.10740E-04
 -1      5543 9.38212E+00 2.97503E+01-3.02801E-02-2.08647E+00-4.34517E-04-4.33373E-04
 -1      5544 9.38115E+00 2.97507E+01-3.00243E-02-1.99543E+00-9.43665E-04-2.75073E-04
 -1      5545 9.38029E+00 2.97506E+01-2.96421E-02-1.92710E+00-1.04744E-03-1.39049E-04
 -1      5546 9.37965E+00 2.97504E+01-2.92889E-02-1.88152E+00-7.90820E-04-5.32786E-05
 -1      5547 9.37932E+00 2.97502E+01-2.90813E-02-1.85872E+00-2.91833E-04-1.18680E-05
 -1      5548 9.37932E+00 2.97502E+01-2.90813E-02-1.85872E+00 2.91833E-04 1.18680E-05
 -1      5549 9.37965E+00 2.97504E+01-2.92889E-02-1.88152E+00 7.90820E-04 5.32786E-05
 -1      5550 9.38029E+00 2.97506E+01-2.96421E-02-1.92710E+00 1.04744E-03 1.39049E-04
 -1      5551 9.38115E+00 2.97507E+01-3.00243E-02-1.99543E+00 9.43665E-04 2.75073E-04
 -1      5552 9.38212E+00 2.97503E+01-3.02801E-02-2.08647E+00 4.34517E-04 4.33373E-04
 -1      5553 8.09319E+00 2.98557E+01-3.32028E-02-1.77486E+00 1.23335E-04-3.44763E-04
 -1      5554 8.10403E+00 2.98453E+01-3.30226E-02-1.68330E+00-2.11582E-04-2.14315E-04
 -1      5555 8.11204E+00 2.98372E+01-3.27578E-02-1.61458E+00-3.61023E-04-9.79208E-05
 -1      5556 8.11731E+00 2.98317E+01-3.25089E-02-1.56874E+00-3.13608E-04-2.85486E-05
 -1      5557 8.11992E+00 2.98290E+01-3.23600E-02-1.54581E+00-1.22084E-04-3.57188E-06
 -1      5558 8.11992E+00 2.98290E+01-3.23600E-02-1.54581E+00 1.22084E-04 3.57188E-06
 -1      5559 8.11731E+00 2.98317E+01-3.25089E-02-1.56874E+00 3.13608E-04 2.85486E-05
 -1      5560 8.11204E+00 2.98372E+01-3.27578E-02-1.61458E+00 3.61023E-04 9.79208E-05
 -1      5561 8.10403E+00 2.98453E+01-3.30226E-02-1.68330E+00 2.11582E-04 2.14315E-04
 -1      5562 8.09319E+00 2.98557E+01-3.32028E-02-1.77486E+00-1.23335E-04 3.44763E-04
 -1      5563 6.68952E+00 2.98718E+01-3.54702E-02-1.34301E+00 5.30771E-04-1.82020E-04
 -1      5564 6.71209E+00 2.98502E+01-3.53206E-02-1.25142E+00 2.54841E-04-7.89903E-05
 -1      5565 6.72888E+00 2.98339E+01-3.51151E-02-1.18267E+00 6.10707E-05 7.05821E-06
 -1      5566 6.74001E+00 2.98229E+01-3.49229E-02-1.13681E+00-2.27004E-05 3.89588E-05
 -1      5567 6.74555E+00 2.98174E+01-3.48075E-02-1.11386E+00-1.86352E-05 1.98293E-05
 -1      5568 6.74555E+00 2.98174E+01-3.48075E-02-1.11386E+00 1.86351E-05-1.98293E-05
 -1      5569 6.74001E+00 2.98229E+01-3.49229E-02-1.13681E+00 2.27004E-05-3.89588E-05
 -1      5570 6.72888E+00 2.98339E+01-3.51151E-02-1.18267E+00-6.10707E-05-7.05821E-06
 -1      5571 6.71209E+00 2.98502E+01-3.53206E-02-1.25142E+00-2.54841E-04 7.89903E-05
 -1      5572 6.68952E+00 2.98718E+01-3.54702E-02-1.34301E+00-5.30771E-04 1.82020E-04
 -1      5573 5.16756E+00 2.97854E+01-3.67473E-02-7.97078E-01 8.74263E-04 3.62947E-05
 -1      5574 5.20204E+00 2.97522E+01-3.65891E-02-7.05660E-01 5.71595E-04 1.10662E-04
 -1      5575 5.22776E+00 2.97272E+01-3.63885E-02-6.37025E-01 3.18316E-04 1.58942E-04
 -1      5576 5.24483E+00 2.97105E+01-3.62045E-02-5.91227E-01 1.45176E-04 1.38512E-04
 -1      5577 5.25334E+00 2.97021E+01-3.60947E-02-5.68314E-01 3.96726E-05 5.46062E-05
 -1      5578 5.25334E+00 2.97021E+01-3.60947E-02-5.68314E-01-3.96726E-05-5.46062E-05
 -1      5579 5.24483E+00 2.97105E+01-3.62045E-02-5.91227E-01-1.45176E-04-1.38512E-04
 -1      5580 5.22776E+00 2.97272E+01-3.63885E-02-6.37025E-01-3.18316E-04-1.58942E-04
 -1      5581 5.20204E+00 2.97522E+01-3.65891E-02-7.05660E-01-5.71595E-04-1.10662E-04
 -1      5582 5.16756E+00 2.97854E+01-3.67473E-02-7.97078E-01-8.74263E-04-3.62947E-05
 -1      5583 3.51359E+00 2.95859E+01-3.65815E-02-1.34377E-01 1.22306E-03 3.03650E-04
 -1      5584 3.56072E+00 2.95403E+01-3.63943E-02-4.30918E-02 8.33040E-04 3.51742E-04
 -1      5585 3.59589E+00 2.95060E+01-3.61630E-02 2.54668E-02 4.98501E-04 3.57394E-04
 -1      5586 3.61925E+00 2.94830E+01-3.59532E-02 7.12263E-02 2.50180E-04 2.70703E-04
 -1      5587 3.63089E+00 2.94716E+01-3.58284E-02 9.41239E-02 7.40999E-05 1.01128E-04
 -1      5588 3.63089E+00 2.94716E+01-3.58284E-02 9.41239E-02-7.40999E-05-1.01128E-04
 -1      5589 3.61925E+00 2.94830E+01-3.59532E-02 7.12263E-02-2.50180E-04-2.70703E-04
 -1      5590 3.59589E+00 2.95060E+01-3.61630E-02 2.54668E-02-4.98501E-04-3.57394E-04
 -1      5591 3.56072E+00 2.95403E+01-3.63943E-02-4.30918E-02-8.33040E-04-3.51742E-04
 -1      5592 3.51359E+00 2.95859E+01-3.65815E-02-1.34377E-01-1.22306E-03-3.03650E-04
 -1      5593 1.70602E+00 2.92613E+01-3.43027E-02 6.61692E-01 1.61823E-03 6.14280E-04
 -1      5594 1.76732E+00 2.92016E+01-3.40857E-02 7.52899E-01 1.08939E-03 6.46502E-04
 -1      5595 1.81309E+00 2.91566E+01-3.38063E-02 8.21433E-01 6.47538E-04 6.07841E-04
 -1      5596 1.84348E+00 2.91266E+01-3.35500E-02 8.67195E-01 3.23894E-04 4.40344E-04
 -1      5597 1.85863E+00 2.91116E+01-3.33972E-02 8.90099E-01 9.58338E-05 1.61249E-04
 -1      5598 1.85863E+00 2.91116E+01-3.33972E-02 8.90099E-01-9.58338E-05-1.61249E-04
 -1      5599 1.84348E+00 2.91266E+01-3.35500E-02 8.67195E-01-3.23894E-04-4.40344E-04
 -1      5600 1.81309E+00 2.91566E+01-3.38063E-02 8.21433E-01-6.47538E-04-6.07841E-04
 -1      5601 1.76732E+00 2.92016E+01-3.40857E-02 7.52899E-01-1.08939E-03-6.46502E-04
 -1      5602 1.70602E+00 2.92613E+01-3.43027E-02 6.61692E-01-1.61823E-03-6.14280E-04
 -1      5603-2.79227E-01 2.87905E+01-2.89381E-02 1.62668E+00 2.07964E-03 9.49450E-04
 -1      5604-2.01168E-01 2.87138E+01-2.87144E-02 1.71747E+00 1.35625E-03 9.86584E-04
 -1      5605-1.42896E-01 2.86561E+01-2.83889E-02 1.78574E+00 7.76829E-04 9.06893E-04
 -1      5606-1.04198E-01 2.86175E+01-2.80795E-02 1.83135E+00 3.73347E-04 6.46115E-04
 -1      5607-8.48980E-02 2.85982E+01-2.78930E-02 1.85419E+00 1.07260E-04 2.34610E-04
 -1      5608-8.48980E-02 2.85982E+01-2.78930E-02 1.85419E+00-1.07260E-04-2.34610E-04
 -1      5609-1.04198E-01 2.86175E+01-2.80795E-02 1.83135E+00-3.73347E-04-6.46115E-04
 -1      5610-1.42896E-01 2.86561E+01-2.83889E-02 1.78574E+00-7.76829E-04-9.06893E-04
 -1      5611-2.01168E-01 2.87138E+01-2.87144E-02 1.71747E+00-1.35625E-03-9.86584E-04
 -1      5612-2.79227E-01 2.87905E+01-2.89381E-02 1.62668E+00-2.07964E-03-9.49450E-04
 -1      5613-2.45917E+00 2.81322E+01-1.91503E-02 2.81897E+00 2.61497E-03 1.25801E-03
 -1      5614-2.36058E+00 2.80342E+01-1.89809E-02 2.90796E+00 1.63017E-03 1.33079E-03
 -1      5615-2.28697E+00 2.79605E+01-1.86416E-02 2.97495E+00 8.79529E-04 1.22168E-03
 -1      5616-2.23808E+00 2.79112E+01-1.82948E-02 3.01974E+00 3.92962E-04 8.65983E-04
 -1      5617-2.21370E+00 2.78865E+01-1.80808E-02 3.04218E+00 1.06312E-04 3.13379E-04
 -1      5618-2.21370E+00 2.78865E+01-1.80808E-02 3.04218E+00-1.06312E-04-3.13379E-04
 -1      5619-2.23808E+00 2.79112E+01-1.82948E-02 3.01974E+00-3.92962E-04-8.65983E-04
 -1      5620-2.28697E+00 2.79605E+01-1.86416E-02 2.97495E+00-8.79529E-04-1.22168E-03
 -1      5621-2.36058E+00 2.80342E+01-1.89809E-02 2.90796E+00-1.63017E-03-1.33079E-03
 -1      5622-2.45917E+00 2.81322E+01-1.91503E-02 2.81897E+00-2.61497E-03-1.25801E-03
 -1      5623-4.82878E+00 2.72084E+01-3.25554E-03 4.32035E+00 3.23007E-03 1.42946E-03
 -1      5624-4.70476E+00 2.70835E+01-3.26391E-03 4.40413E+00 1.90991E-03 1.57571E-03
 -1      5625-4.61213E+00 2.69895E+01-2.99687E-03 4.46730E+00 9.54396E-04 1.46346E-03
 -1      5626-4.55058E+00 2.69266E+01-2.66869E-03 4.50959E+00 3.82853E-04 1.03897E-03
 -1      5627-4.51986E+00 2.68951E+01-2.45526E-03 4.53079E+00 9.32842E-05 3.75745E-04
 -1      5628-4.51986E+00 2.68951E+01-2.45526E-03 4.53079E+00-9.32842E-05-3.75745E-04
 -1      5629-4.55058E+00 2.69266E+01-2.66869E-03 4.50959E+00-3.82853E-04-1.03897E-03
 -1      5630-4.61213E+00 2.69895E+01-2.99687E-03 4.46730E+00-9.54396E-04-1.46346E-03
 -1      5631-4.70476E+00 2.70835E+01-3.26391E-03 4.40413E+00-1.90991E-03-1.57571E-03
 -1      5632-4.82878E+00 2.72084E+01-3.25554E-03 4.32035E+00-3.23007E-03-1.42946E-03
 -1      5633-7.33972E+00 2.58829E+01 2.05505E-02 6.22935E+00 3.94285E-03 1.26315E-03
 -1      5634-7.18480E+00 2.57244E+01 2.01429E-02 6.30123E+00 2.22771E-03 1.52582E-03
 -1      5635-7.06899E+00 2.56050E+01 2.01648E-02 6.35554E+00 1.04135E-03 1.46298E-03
 -1      5636-6.99197E+00 2.55251E+01 2.03514E-02 6.39194E+00 3.76070E-04 1.04898E-03
 -1      5637-6.95352E+00 2.54851E+01 2.04995E-02 6.41020E+00 8.09658E-05 3.80307E-04
 -1      5638-6.95352E+00 2.54851E+01 2.04995E-02 6.41020E+00-8.09658E-05-3.80307E-04
 -1      5639-6.99197E+00 2.55251E+01 2.03514E-02 6.39194E+00-3.76070E-04-1.04898E-03
 -1      5640-7.06899E+00 2.56050E+01 2.01648E-02 6.35554E+00-1.04135E-03-1.46298E-03
 -1      5641-7.18480E+00 2.57244E+01 2.01429E-02 6.30123E+00-2.22771E-03-1.52582E-03
 -1      5642-7.33972E+00 2.58829E+01 2.05505E-02 6.22935E+00-3.94285E-03-1.26315E-03
 -1      5643-9.87381E+00 2.39362E+01 5.35112E-02 8.64130E+00 4.79529E-03 4.41179E-04
 -1      5644-9.68331E+00 2.37377E+01 5.23509E-02 8.68976E+00 2.68377E-03 8.74209E-04
 -1      5645-9.54073E+00 2.35880E+01 5.18315E-02 8.72649E+00 1.26081E-03 9.56954E-04
 -1      5646-9.44580E+00 2.34879E+01 5.16570E-02 8.75116E+00 4.68333E-04 7.16887E-04
 -1      5647-9.39836E+00 2.34377E+01 5.16218E-02 8.76355E+00 1.05592E-04 2.63430E-04
 -1      5648-9.39836E+00 2.34377E+01 5.16218E-02 8.76355E+00-1.05592E-04-2.63430E-04
 -1      5649-9.44580E+00 2.34879E+01 5.16570E-02 8.75116E+00-4.68333E-04-7.16887E-04
 -1      5650-9.54073E+00 2.35880E+01 5.18315E-02 8.72649E+00-1.26081E-03-9.56954E-04
 -1      5651-9.68331E+00 2.37377E+01 5.23509E-02 8.68976E+00-2.68377E-03-8.74209E-04
 -1      5652-9.87381E+00 2.39362E+01 5.35112E-02 8.64130E+00-4.79529E-03-4.41179E-04
 -1      5653-1.22168E+01 2.10434E+01 9.48017E-02 1.16070E+01 5.83875E-03-1.49828E-03
 -1      5654-1.19894E+01 2.08012E+01 9.23770E-02 1.16144E+01 3.44725E-03-8.26235E-04
 -1      5655-1.18189E+01 2.06188E+01 9.08630E-02 1.16202E+01 1.81821E-03-4.39172E-04
 -1      5656-1.17052E+01 2.04968E+01 8.99777E-02 1.16241E+01 8.21690E-04-2.20149E-04
 -1      5657-1.16483E+01 2.04357E+01 8.95677E-02 1.16261E+01 2.28152E-04-6.83611E-05
 -1      5658-1.16483E+01 2.04357E+01 8.95677E-02 1.16261E+01-2.28152E-04 6.83611E-05
 -1      5659-1.17052E+01 2.04968E+01 8.99777E-02 1.16241E+01-8.21690E-04 2.20149E-04
 -1      5660-1.18189E+01 2.06188E+01 9.08630E-02 1.16202E+01-1.81821E-03 4.39172E-04
 -1      5661-1.19894E+01 2.08012E+01 9.23770E-02 1.16144E+01-3.44725E-03 8.26235E-04
 -1      5662-1.22168E+01 2.10434E+01 9.48017E-02 1.16070E+01-5.83875E-03 1.49828E-03
 -1      5663-1.40461E+01 1.67717E+01 1.38912E-01 1.50626E+01 7.04816E-03-5.25425E-03
 -1      5664-1.37878E+01 1.64896E+01 1.34558E-01 1.50050E+01 4.65484E-03-4.32887E-03
 -1      5665-1.35934E+01 1.62776E+01 1.31381E-01 1.49617E+01 2.91058E-03-3.41929E-03
 -1      5666-1.34635E+01 1.61360E+01 1.29240E-01 1.49327E+01 1.59761E-03-2.25219E-03
 -1      5667-1.33984E+01 1.60652E+01 1.28145E-01 1.49182E+01 5.10011E-04-7.92249E-04
 -1      5668-1.33984E+01 1.60652E+01 1.28145E-01 1.49182E+01-5.10011E-04 7.92249E-04
 -1      5669-1.34635E+01 1.61360E+01 1.29240E-01 1.49327E+01-1.59761E-03 2.25219E-03
 -1      5670-1.35934E+01 1.62776E+01 1.31381E-01 1.49617E+01-2.91058E-03 3.41929E-03
 -1      5671-1.37878E+01 1.64896E+01 1.34558E-01 1.50050E+01-4.65484E-03 4.32887E-03
 -1      5672-1.40461E+01 1.67717E+01 1.38912E-01 1.50626E+01-7.04816E-03 5.25425E-03
 -1      5673-1.49570E+01 1.06266E+01 1.72430E-01 1.87322E+01 8.17808E-03-1.20741E-02
 -1      5674-1.46851E+01 1.03222E+01 1.65273E-01 1.85819E+01 6.23739E-03-1.13308E-02
 -1      5675-1.44791E+01 1.00941E+01 1.59388E-01 1.84686E+01 4.55519E-03-9.66805E-03
 -1      5676-1.43404E+01 9.94236E+00 1.55051E-01 1.83927E+01 2.83631E-03-6.60737E-03
 -1      5677-1.42707E+01 9.86658E+00 1.52732E-01 1.83547E+01 9.69975E-04-2.35554E-03
 -1      5678-1.42707E+01 9.86658E+00 1.52732E-01 1.83547E+01-9.69975E-04 2.35554E-03
 -1      5679-1.43404E+01 9.94236E+00 1.55051E-01 1.83927E+01-2.83631E-03 6.60737E-03
 -1      5680-1.44791E+01 1.00941E+01 1.59388E-01 1.84686E+01-4.55519E-03 9.66805E-03
 -1      5681-1.46851E+01 1.03222E+01 1.65273E-01 1.85819E+01-6.23739E-03 1.13308E-02
 -1      5682-1.49570E+01 1.06266E+01 1.72430E-01 1.87322E+01-8.17808E-03 1.20741E-02
 -1      5683-1.45578E+01 2.18652E+00 1.72495E-01 2.20298E+01 8.84710E-03-2.44571E-02
 -1      5684-1.43026E+01 1.89777E+00 1.61366E-01 2.17621E+01 7.99468E-03-2.58370E-02
 -1      5685-1.41054E+01 1.68268E+00 1.50878E-01 2.15603E+01 6.67356E-03-2.33065E-02
 -1      5686-1.39706E+01 1.54025E+00 1.42626E-01 2.14251E+01 4.51200E-03-1.62881E-02
 -1      5687-1.39021E+01 1.46935E+00 1.38042E-01 2.13574E+01 1.60185E-03-5.85295E-03
 -1      5688-1.39021E+01 1.46935E+00 1.38042E-01 2.13574E+01-1.60185E-03 5.85295E-03
 -1      5689-1.39706E+01 1.54025E+00 1.42626E-01 2.14251E+01-4.51200E-03 1.62881E-02
 -1      5690-1.41054E+01 1.68268E+00 1.50878E-01 2.15603E+01-6.67356E-03 2.33065E-02
 -1      5691-1.43026E+01 1.89777E+00 1.61366E-01 2.17621E+01-7.99468E-03 2.58370E-02
 -1      5692-1.45578E+01 2.18652E+00 1.72495E-01 2.20298E+01-8.84710E-03 2.44571E-02
 -1      5693-1.26472E+01-8.65032E+00 1.11517E-01 2.40230E+01 9.07719E-03-4.67389E-02
 -1      5694-1.24454E+01-8.86130E+00 9.47560E-02 2.36281E+01 1.04804E-02-5.54560E-02
 -1      5695-1.22806E+01-9.01672E+00 7.68284E-02 2.33300E+01 9.79637E-03-5.19590E-02
 -1      5696-1.21642E+01-9.11907E+00 6.16643E-02 2.31303E+01 6.94821E-03-3.67433E-02
 -1      5697-1.21039E+01-9.16983E+00 5.30417E-02 2.30302E+01 2.51066E-03-1.32354E-02
 -1      5698-1.21039E+01-9.16983E+00 5.30417E-02 2.30302E+01-2.51066E-03 1.32354E-02
 -1      5699-1.21642E+01-9.11907E+00 6.16643E-02 2.31303E+01-6.94821E-03 3.67433E-02
 -1      5700-1.22806E+01-9.01672E+00 7.68284E-02 2.33300E+01-9.79637E-03 5.19590E-02
 -1      5701-1.24454E+01-8.86130E+00 9.47560E-02 2.36281E+01-1.04804E-02 5.54560E-02
 -1      5702-1.26472E+01-8.65032E+00 1.11517E-01 2.40230E+01-9.07719E-03 4.67389E-02
 -1      5703-9.43535E+00-2.13467E+01-2.77772E-02 2.35515E+01 1.03703E-02-8.32421E-02
 -1      5704-9.30937E+00-2.13975E+01-4.99382E-02 2.30474E+01 1.47184E-02-1.07873E-01
 -1      5705-9.19369E+00-2.14345E+01-7.82670E-02 2.26662E+01 1.44238E-02-1.02443E-01
 -1      5706-9.10722E+00-2.14585E+01-1.02256E-01 2.24112E+01 1.03211E-02-7.20063E-02
 -1      5707-9.06132E+00-2.14704E+01-1.15652E-01 2.22837E+01 3.72098E-03-2.57840E-02
 -1      5708-9.06132E+00-2.14704E+01-1.15652E-01 2.22837E+01-3.72098E-03 2.57840E-02
 -1      5709-9.10722E+00-2.14585E+01-1.02256E-01 2.24112E+01-1.03211E-02 7.20063E-02
 -1      5710-9.19369E+00-2.14345E+01-7.82670E-02 2.26662E+01-1.44238E-02 1.02443E-01
 -1      5711-9.30937E+00-2.13975E+01-4.99382E-02 2.30474E+01-1.47184E-02 1.07873E-01
 -1      5712-9.43535E+00-2.13467E+01-2.77772E-02 2.35515E+01-1.03703E-02 8.32421E-02
 -1      5713-5.67815E+00-3.44774E+01-2.22715E-01 1.95483E+01 6.64597E-03-1.26057E-01
 -1      5714-5.62126E+00-3.42893E+01-2.47989E-01 1.89903E+01 1.28091E-02-1.71435E-01
 -1      5715-5.55872E+00-3.41521E+01-2.75171E-01 1.85779E+01 9.45925E-03-1.58766E-01
 -1      5716-5.50860E+00-3.40642E+01-2.94321E-01 1.83077E+01 3.94810E-03-1.08762E-01
 -1      5717-5.48118E+00-3.40217E+01-3.03693E-01 1.81742E+01 8.12333E-04-3.84008E-02
 -1      5718-5.48118E+00-3.40217E+01-3.03693E-01 1.81742E+01-8.12333E-04 3.84008E-02
 -1      5719-5.50860E+00-3.40642E+01-2.94321E-01 1.83077E+01-3.94810E-03 1.08762E-01
 -1      5720-5.55872E+00-3.41521E+01-2.75171E-01 1.85779E+01-9.45925E-03 1.58766E-01
 -1      5721-5.62126E+00-3.42893E+01-2.47989E-01 1.89903E+01-1.28091E-02 1.71435E-01
 -1      5722-5.67815E+00-3.44774E+01-2.22715E-01 1.95483E+01-6.64597E-03 1.26057E-01
 -1      5723-2.62239E+00-4.57681E+01-4.07635E-01 1.14476E+01-2.63934E-02-1.19307E-01
 -1      5724-2.59544E+00-4.52925E+01-3.72896E-01 1.10047E+01-7.49199E-02-1.61871E-01
 -1      5725-2.57045E+00-4.49749E+01-3.26725E-01 1.07012E+01-1.03196E-01-1.43995E-01
 -1      5726-2.55099E+00-4.47850E+01-2.83270E-01 1.05107E+01-8.57126E-02-9.60518E-02
 -1      5727-2.54037E+00-4.46969E+01-2.57198E-01 1.04187E+01-3.28466E-02-3.34822E-02
 -1      5728-2.54037E+00-4.46969E+01-2.57198E-01 1.04187E+01 3.28466E-02 3.34822E-02
 -1      5729-2.55099E+00-4.47850E+01-2.83270E-01 1.05107E+01 8.57126E-02 9.60518E-02
 -1      5730-2.57045E+00-4.49749E+01-3.26725E-01 1.07012E+01 1.03196E-01 1.43995E-01
 -1      5731-2.59544E+00-4.52925E+01-3.72896E-01 1.10047E+01 7.49199E-02 1.61871E-01
 -1      5732-2.62239E+00-4.57681E+01-4.07635E-01 1.14476E+01 2.63934E-02 1.19307E-01
 -1      5733 9.38710E+00 2.29074E+01-5.98076E-01 3.91468E+00-9.89668E-01-1.62368E-01
 -1      5734 1.00294E+01 2.31491E+01 1.53068E+00 3.55750E+00-1.71137E+00-2.18894E-01
 -1      5735 1.03989E+01 2.32394E+01 2.80898E+00 3.34040E+00-1.43167E+00-1.86130E-01
 -1      5736 1.05964E+01 2.32694E+01 3.51533E+00 3.21244E+00-9.07557E-01-1.20960E-01
 -1      5737 1.06832E+01 2.32782E+01 3.83136E+00 3.15258E+00-3.08402E-01-4.16763E-02
 -1      5738 1.06832E+01 2.32782E+01 3.83136E+00 3.15258E+00 3.08402E-01 4.16763E-02
 -1      5739 1.05964E+01 2.32694E+01 3.51533E+00 3.21244E+00 9.07557E-01 1.20960E-01
 -1      5740 1.03989E+01 2.32394E+01 2.80898E+00 3.34040E+00 1.43167E+00 1.86130E-01
 -1      5741 1.00294E+01 2.31491E+01 1.53068E+00 3.55750E+00 1.71137E+00 2.18894E-01
 -1      5742 9.38710E+00 2.29074E+01-5.98076E-01 3.91468E+00 9.89668E-01 1.62368E-01
 -1      5743 1.14718E+01 2.30491E+01 3.93242E-01 2.00608E+00 1.21576E-02-1.82797E-01
 -1      5744 1.13454E+01 2.34171E+01-4.95553E-02 1.79433E+00 5.22150E-02-2.35089E-01
 -1      5745 1.14040E+01 2.36229E+01 1.58919E-01 1.63145E+00-1.06627E-01-2.16367E-01
 -1      5746 1.14803E+01 2.37324E+01 4.33382E-01 1.52486E+00-1.25041E-01-1.46554E-01
 -1      5747 1.15250E+01 2.37797E+01 5.95275E-01 1.47249E+00-5.14833E-02-5.13931E-02
 -1      5748 1.15250E+01 2.37797E+01 5.95275E-01 1.47249E+00 5.14833E-02 5.13931E-02
 -1      5749 1.14803E+01 2.37324E+01 4.33382E-01 1.52486E+00 1.25041E-01 1.46554E-01
 -1      5750 1.14040E+01 2.36229E+01 1.58919E-01 1.63145E+00 1.06627E-01 2.16367E-01
 -1      5751 1.13454E+01 2.34171E+01-4.95553E-02 1.79433E+00-5.22150E-02 2.35089E-01
 -1      5752 1.14718E+01 2.30491E+01 3.93242E-01 2.00608E+00-1.21576E-02 1.82797E-01
 -1      5753 1.21411E+01 2.24316E+01-7.96383E-02 2.93376E-01 1.95546E-01-8.54189E-02
 -1      5754 1.22627E+01 2.31439E+01-4.32730E-02 2.64349E-01 2.99799E-01-1.28099E-01
 -1      5755 1.22642E+01 2.35348E+01-1.80200E-01 2.07129E-01 2.90521E-01-1.24887E-01
 -1      5756 1.22620E+01 2.37519E+01-2.47279E-01 1.56772E-01 1.86572E-01-8.94842E-02
 -1      5757 1.22628E+01 2.38500E+01-2.66670E-01 1.28714E-01 6.27041E-02-3.23014E-02
 -1      5758 1.22628E+01 2.38500E+01-2.66670E-01 1.28714E-01-6.27041E-02 3.23014E-02
 -1      5759 1.22620E+01 2.37519E+01-2.47279E-01 1.56772E-01-1.86572E-01 8.94842E-02
 -1      5760 1.22642E+01 2.35348E+01-1.80200E-01 2.07129E-01-2.90521E-01 1.24887E-01
 -1      5761 1.22627E+01 2.31439E+01-4.32730E-02 2.64349E-01-2.99799E-01 1.28099E-01
 -1      5762 1.21411E+01 2.24316E+01-7.96383E-02 2.93376E-01-1.95546E-01 8.54189E-02
 -1      5763 1.27043E+01 2.28818E+01-6.06683E-02-1.05226E+00 1.23228E-01-3.35787E-02
 -1      5764 1.26733E+01 2.31476E+01-1.16316E-01-1.02289E+00 2.04603E-01-4.99445E-02
 -1      5765 1.26751E+01 2.34292E+01-1.62570E-01-1.01127E+00 2.07397E-01-5.16489E-02
 -1      5766 1.26691E+01 2.36256E+01-2.26754E-01-1.01145E+00 1.52896E-01-3.77002E-02
 -1      5767 1.26640E+01 2.37239E+01-2.66143E-01-1.01411E+00 5.56455E-02-1.37719E-02
 -1      5768 1.26640E+01 2.37239E+01-2.66143E-01-1.01411E+00-5.56455E-02 1.37719E-02
 -1      5769 1.26691E+01 2.36256E+01-2.26754E-01-1.01145E+00-1.52896E-01 3.77002E-02
 -1      5770 1.26751E+01 2.34292E+01-1.62570E-01-1.01127E+00-2.07397E-01 5.16489E-02
 -1      5771 1.26733E+01 2.31476E+01-1.16316E-01-1.02289E+00-2.04603E-01 4.99445E-02
 -1      5772 1.27043E+01 2.28818E+01-6.06683E-02-1.05226E+00-1.23228E-01 3.35787E-02
 -1      5773 1.28156E+01 2.33194E+01-4.03814E-02-2.10826E+00 5.43412E-02-9.59820E-03
 -1      5774 1.27673E+01 2.34513E+01-6.26740E-02-2.05005E+00 9.06467E-02-1.52250E-02
 -1      5775 1.27335E+01 2.35764E+01-9.85224E-02-2.01203E+00 9.65970E-02-1.61339E-02
 -1      5776 1.27167E+01 2.36813E+01-1.26020E-01-1.98889E+00 7.17500E-02-1.22908E-02
 -1      5777 1.27090E+01 2.37395E+01-1.43331E-01-1.97814E+00 2.65086E-02-4.54796E-03
 -1      5778 1.27090E+01 2.37395E+01-1.43331E-01-1.97814E+00-2.65086E-02 4.54796E-03
 -1      5779 1.27167E+01 2.36813E+01-1.26020E-01-1.98889E+00-7.17500E-02 1.22908E-02
 -1      5780 1.27335E+01 2.35764E+01-9.85224E-02-2.01203E+00-9.65970E-02 1.61339E-02
 -1      5781 1.27673E+01 2.34513E+01-6.26740E-02-2.05005E+00-9.06467E-02 1.52250E-02
 -1      5782 1.28156E+01 2.33194E+01-4.03814E-02-2.10826E+00-5.43412E-02 9.59820E-03
 -1      5783 1.25673E+01 2.37703E+01-2.11985E-02-2.91605E+00 1.70823E-02-1.64167E-03
 -1      5784 1.25150E+01 2.38329E+01-3.09766E-02-2.84797E+00 2.95047E-02-2.81413E-03
 -1      5785 1.24790E+01 2.38953E+01-4.34304E-02-2.79820E+00 3.24374E-02-3.38354E-03
 -1      5786 1.24558E+01 2.39436E+01-5.59590E-02-2.76602E+00 2.49672E-02-2.70815E-03
 -1      5787 1.24449E+01 2.39705E+01-6.27693E-02-2.75018E+00 9.27834E-03-1.04569E-03
 -1      5788 1.24449E+01 2.39705E+01-6.27693E-02-2.75018E+00-9.27834E-03 1.04569E-03
 -1      5789 1.24558E+01 2.39436E+01-5.59590E-02-2.76602E+00-2.49672E-02 2.70815E-03
 -1      5790 1.24790E+01 2.38953E+01-4.34304E-02-2.79820E+00-3.24374E-02 3.38354E-03
 -1      5791 1.25150E+01 2.38329E+01-3.09766E-02-2.84797E+00-2.95047E-02 2.81413E-03
 -1      5792 1.25673E+01 2.37703E+01-2.11985E-02-2.91605E+00-1.70823E-02 1.64167E-03
 -1      5793 1.20186E+01 2.42432E+01-1.40565E-02-3.50743E+00 2.49390E-03 1.08303E-04
 -1      5794 1.19741E+01 2.42815E+01-1.67236E-02-3.43451E+00 5.01062E-03 1.16165E-04
 -1      5795 1.19416E+01 2.43147E+01-2.05217E-02-3.38005E+00 6.40741E-03-3.44959E-05
 -1      5796 1.19206E+01 2.43398E+01-2.39505E-02-3.34388E+00 5.31632E-03-1.24002E-04
 -1      5797 1.19101E+01 2.43531E+01-2.62183E-02-3.32588E+00 2.07155E-03-5.88846E-05
 -1      5798 1.19101E+01 2.43531E+01-2.62183E-02-3.32588E+00-2.07155E-03 5.88846E-05
 -1      5799 1.19206E+01 2.43398E+01-2.39505E-02-3.34388E+00-5.31632E-03 1.24002E-04
 -1      5800 1.19416E+01 2.43147E+01-2.05217E-02-3.38005E+00-6.40741E-03 3.44959E-05
 -1      5801 1.19741E+01 2.42815E+01-1.67236E-02-3.43451E+00-5.01062E-03-1.16165E-04
 -1      5802 1.20186E+01 2.42432E+01-1.40565E-02-3.50743E+00-2.49390E-03-1.08303E-04
 -1      5803 1.12209E+01 2.47474E+01-1.35022E-02-3.90020E+00-1.37060E-03 4.32327E-05
 -1      5804 1.11870E+01 2.47746E+01-1.38340E-02-3.82394E+00-1.75328E-03 2.69510E-04
 -1      5805 1.11618E+01 2.47959E+01-1.42415E-02-3.76666E+00-1.27521E-03 2.89544E-04
 -1      5806 1.11451E+01 2.48107E+01-1.47411E-02-3.72848E+00-6.49727E-04 2.04857E-04
 -1      5807 1.11368E+01 2.48183E+01-1.50313E-02-3.70938E+00-1.88437E-04 7.06708E-05
 -1      5808 1.11368E+01 2.48183E+01-1.50313E-02-3.70938E+00 1.88437E-04-7.06708E-05
 -1      5809 1.11451E+01 2.48107E+01-1.47411E-02-3.72848E+00 6.49727E-04-2.04857E-04
 -1      5810 1.11618E+01 2.47959E+01-1.42415E-02-3.76666E+00 1.27521E-03-2.89544E-04
 -1      5811 1.11870E+01 2.47746E+01-1.38340E-02-3.82394E+00 1.75328E-03-2.69510E-04
 -1      5812 1.12209E+01 2.47474E+01-1.35022E-02-3.90020E+00 1.37060E-03-4.32327E-05
 -1      5813 1.02134E+01 2.52707E+01-1.58200E-02-4.10497E+00-1.50496E-03-2.59198E-04
 -1      5814 1.01907E+01 2.52897E+01-1.55728E-02-4.02599E+00-2.29094E-03-7.31246E-05
 -1      5815 1.01737E+01 2.53036E+01-1.52040E-02-3.96667E+00-2.18770E-03 2.43993E-05
 -1      5816 1.01623E+01 2.53128E+01-1.48868E-02-3.92710E+00-1.51360E-03 4.59850E-05
 -1      5817 1.01567E+01 2.53175E+01-1.47236E-02-3.90730E+00-5.34274E-04 2.11015E-05
 -1      5818 1.01567E+01 2.53175E+01-1.47236E-02-3.90730E+00 5.34274E-04-2.11015E-05
 -1      5819 1.01623E+01 2.53128E+01-1.48868E-02-3.92710E+00 1.51360E-03-4.59850E-05
 -1      5820 1.01737E+01 2.53036E+01-1.52040E-02-3.96667E+00 2.18770E-03-2.43993E-05
 -1      5821 1.01907E+01 2.52897E+01-1.55728E-02-4.02599E+00 2.29094E-03 7.31246E-05
 -1      5822 1.02134E+01 2.52707E+01-1.58200E-02-4.10497E+00 1.50496E-03 2.59198E-04
 -1      5823 9.02819E+00 2.57901E+01-1.88444E-02-4.12962E+00-8.15648E-04-4.32054E-04
 -1      5824 9.01677E+00 2.58001E+01-1.86084E-02-4.04861E+00-1.37415E-03-3.01800E-04
 -1      5825 9.00815E+00 2.58072E+01-1.82430E-02-3.98781E+00-1.41213E-03-1.85621E-04
 -1      5826 9.00237E+00 2.58117E+01-1.79110E-02-3.94726E+00-1.02670E-03-9.56947E-05
 -1      5827 8.99947E+00 2.58140E+01-1.77169E-02-3.92697E+00-3.73000E-04-2.90876E-05
 -1      5828 8.99947E+00 2.58140E+01-1.77169E-02-3.92697E+00 3.73000E-04 2.90876E-05
 -1      5829 9.00237E+00 2.58117E+01-1.79110E-02-3.94726E+00 1.02670E-03 9.56947E-05
 -1      5830 9.00815E+00 2.58072E+01-1.82430E-02-3.98781E+00 1.41213E-03 1.85621E-04
 -1      5831 9.01677E+00 2.58001E+01-1.86084E-02-4.04861E+00 1.37415E-03 3.01800E-04
 -1      5832 9.02819E+00 2.57901E+01-1.88444E-02-4.12962E+00 8.15648E-04 4.32054E-04
 -1      5833 7.69208E+00 2.62783E+01-2.16709E-02-3.98161E+00-1.85898E-04-4.64483E-04
 -1      5834 7.69185E+00 2.62783E+01-2.15455E-02-3.89935E+00-5.07710E-04-3.73730E-04
 -1      5835 7.69162E+00 2.62781E+01-2.13340E-02-3.83764E+00-5.96639E-04-2.62429E-04
 -1      5836 7.69144E+00 2.62779E+01-2.11295E-02-3.79649E+00-4.62781E-04-1.52180E-04
 -1      5837 7.69134E+00 2.62777E+01-2.10074E-02-3.77590E+00-1.72735E-04-4.94527E-05
 -1      5838 7.69134E+00 2.62777E+01-2.10074E-02-3.77590E+00 1.72735E-04 4.94527E-05
 -1      5839 7.69144E+00 2.62779E+01-2.11295E-02-3.79649E+00 4.62781E-04 1.52180E-04
 -1      5840 7.69162E+00 2.62781E+01-2.13340E-02-3.83764E+00 5.96639E-04 2.62429E-04
 -1      5841 7.69185E+00 2.62783E+01-2.15455E-02-3.89935E+00 5.07710E-04 3.73730E-04
 -1      5842 7.69208E+00 2.62783E+01-2.16709E-02-3.98161E+00 1.85898E-04 4.64483E-04
 -1      5843 6.22558E+00 2.67089E+01-2.38928E-02-3.66817E+00 2.56106E-04-4.08516E-04
 -1      5844 6.23652E+00 2.66984E+01-2.38478E-02-3.58541E+00 5.85360E-05-3.46522E-04
 -1      5845 6.24468E+00 2.66904E+01-2.37514E-02-3.52333E+00-6.19616E-05-2.52386E-04
 -1      5846 6.25009E+00 2.66850E+01-2.36504E-02-3.48193E+00-8.72003E-05-1.49890E-04
 -1      5847 6.25279E+00 2.66823E+01-2.35875E-02-3.46123E+00-3.82882E-05-4.93574E-05
 -1      5848 6.25279E+00 2.66823E+01-2.35875E-02-3.46123E+00 3.82882E-05 4.93574E-05
 -1      5849 6.25009E+00 2.66850E+01-2.36504E-02-3.48193E+00 8.72003E-05 1.49890E-04
 -1      5850 6.24468E+00 2.66904E+01-2.37514E-02-3.52333E+00 6.19616E-05 2.52386E-04
 -1      5851 6.23652E+00 2.66984E+01-2.38478E-02-3.58541E+00-5.85360E-05 3.46522E-04
 -1      5852 6.22558E+00 2.67089E+01-2.38928E-02-3.66817E+00-2.56106E-04 4.08516E-04
 -1      5853 4.64191E+00 2.70580E+01-2.52477E-02-3.19482E+00 5.79010E-04-3.02419E-04
 -1      5854 4.66414E+00 2.70365E+01-2.52406E-02-3.11218E+00 4.10844E-04-2.68189E-04
 -1      5855 4.68077E+00 2.70204E+01-2.52024E-02-3.05017E+00 2.53458E-04-1.97918E-04
 -1      5856 4.69183E+00 2.70096E+01-2.51554E-02-3.00883E+00 1.30148E-04-1.17537E-04
 -1      5857 4.69735E+00 2.70041E+01-2.51242E-02-2.98815E+00 3.91183E-05-3.85787E-05
 -1      5858 4.69735E+00 2.70041E+01-2.51242E-02-2.98815E+00-3.91183E-05 3.85787E-05
 -1      5859 4.69183E+00 2.70096E+01-2.51554E-02-3.00883E+00-1.30148E-04 1.17537E-04
 -1      5860 4.68077E+00 2.70204E+01-2.52024E-02-3.05017E+00-2.53458E-04 1.97918E-04
 -1      5861 4.66414E+00 2.70365E+01-2.52406E-02-3.11218E+00-4.10844E-04 2.68189E-04
 -1      5862 4.64191E+00 2.70580E+01-2.52477E-02-3.19482E+00-5.79010E-04 3.02419E-04
 -1      5863 2.94648E+00 2.73042E+01-2.54394E-02-2.56268E+00 8.62692E-04-1.67343E-04
 -1      5864 2.98036E+00 2.72713E+01-2.54463E-02-2.48062E+00 6.64714E-04-1.63682E-04
 -1      5865 3.00573E+00 2.72465E+01-2.54299E-02-2.41904E+00 4.57272E-04-1.21421E-04
 -1      5866 3.02262E+00 2.72300E+01-2.54031E-02-2.37798E+00 2.62764E-04-7.01871E-05
 -1      5867 3.03105E+00 2.72217E+01-2.53838E-02-2.35744E+00 8.51712E-05-2.24785E-05
 -1      5868 3.03105E+00 2.72217E+01-2.53838E-02-2.35744E+00-8.51713E-05 2.24785E-05
 -1      5869 3.02262E+00 2.72300E+01-2.54031E-02-2.37798E+00-2.62764E-04 7.01871E-05
 -1      5870 3.00573E+00 2.72465E+01-2.54299E-02-2.41904E+00-4.57272E-04 1.21421E-04
 -1      5871 2.98036E+00 2.72713E+01-2.54463E-02-2.48062E+00-6.64714E-04 1.63682E-04
 -1      5872 2.94648E+00 2.73042E+01-2.54394E-02-2.56268E+00-8.62692E-04 1.67343E-04
 -1      5873 1.13786E+00 2.74263E+01-2.40534E-02-1.76493E+00 1.15876E-03-1.72118E-05
 -1      5874 1.18417E+00 2.73809E+01-2.40708E-02-1.68387E+00 8.94758E-04-4.55902E-05
 -1      5875 1.21886E+00 2.73469E+01-2.40615E-02-1.62304E+00 6.21909E-04-3.25974E-05
 -1      5876 1.24195E+00 2.73242E+01-2.40386E-02-1.58247E+00 3.61768E-04-1.39170E-05
 -1      5877 1.25349E+00 2.73128E+01-2.40209E-02-1.56217E+00 1.18219E-04-3.09713E-06
 -1      5878 1.25349E+00 2.73128E+01-2.40209E-02-1.56217E+00-1.18219E-04 3.09713E-06
 -1      5879 1.24195E+00 2.73242E+01-2.40386E-02-1.58247E+00-3.61768E-04 1.39170E-05
 -1      5880 1.21886E+00 2.73469E+01-2.40615E-02-1.62304E+00-6.21909E-04 3.25974E-05
 -1      5881 1.18417E+00 2.73809E+01-2.40708E-02-1.68387E+00-8.94758E-04 4.55902E-05
 -1      5882 1.13786E+00 2.74263E+01-2.40534E-02-1.76493E+00-1.15876E-03 1.72118E-05
 -1      5883-7.89035E-01 2.73985E+01-2.05071E-02-7.83145E-01 1.49335E-03 1.31440E-04
 -1      5884-7.28934E-01 2.73394E+01-2.05492E-02-7.03690E-01 1.13649E-03 7.51645E-05
 -1      5885-6.83923E-01 2.72950E+01-2.05490E-02-6.44051E-01 7.81673E-04 6.20532E-05
 -1      5886-6.53956E-01 2.72653E+01-2.05265E-02-6.04263E-01 4.51535E-04 4.79669E-05
 -1      5887-6.38986E-01 2.72505E+01-2.05070E-02-5.84359E-01 1.47027E-04 1.85619E-05
 -1      5888-6.38986E-01 2.72505E+01-2.05070E-02-5.84359E-01-1.47027E-04-1.85619E-05
 -1      5889-6.53956E-01 2.72653E+01-2.05265E-02-6.04263E-01-4.51535E-04-4.79669E-05
 -1      5890-6.83923E-01 2.72950E+01-2.05490E-02-6.44051E-01-7.81673E-04-6.20532E-05
 -1      5891-7.28934E-01 2.73394E+01-2.05492E-02-7.03690E-01-1.13649E-03-7.51645E-05
 -1      5892-7.89035E-01 2.73985E+01-2.05071E-02-7.83145E-01-1.49335E-03-1.31440E-04
 -1      5893-2.83688E+00 2.71839E+01-1.40242E-02 4.15731E-01 1.87559E-03 2.50133E-04
 -1      5894-2.76096E+00 2.71087E+01-1.41240E-02 4.92448E-01 1.39950E-03 1.79505E-04
 -1      5895-2.70410E+00 2.70522E+01-1.41496E-02 5.50057E-01 9.45019E-04 1.50588E-04
 -1      5896-2.66625E+00 2.70145E+01-1.41342E-02 5.88504E-01 5.37855E-04 1.08944E-04
 -1      5897-2.64735E+00 2.69956E+01-1.41149E-02 6.07742E-01 1.73657E-04 4.04288E-05
 -1      5898-2.64735E+00 2.69956E+01-1.41149E-02 6.07742E-01-1.73657E-04-4.04288E-05
 -1      5899-2.66625E+00 2.70145E+01-1.41342E-02 5.88504E-01-5.37855E-04-1.08944E-04
 -1      5900-2.70410E+00 2.70522E+01-1.41496E-02 5.50057E-01-9.45019E-04-1.50588E-04
 -1      5901-2.76096E+00 2.71087E+01-1.41240E-02 4.92448E-01-1.39950E-03-1.79505E-04
 -1      5902-2.83688E+00 2.71839E+01-1.40242E-02 4.15731E-01-1.87559E-03-2.50133E-04
 -1      5903-4.99639E+00 2.67234E+01-3.65552E-03 1.88043E+00 2.30314E-03 2.87531E-04
 -1      5904-4.90193E+00 2.66290E+01-3.87038E-03 1.95221E+00 1.67814E-03 2.29346E-04
 -1      5905-4.83120E+00 2.65581E+01-3.95653E-03 2.00614E+00 1.10591E-03 2.06171E-04
 -1      5906-4.78411E+00 2.65108E+01-3.96717E-03 2.04216E+00 6.16375E-04 1.52818E-04
 -1      5907-4.76059E+00 2.64871E+01-3.95621E-03 2.06019E+00 1.96545E-04 5.70595E-05
 -1      5908-4.76059E+00 2.64871E+01-3.95621E-03 2.06019E+00-1.96545E-04-5.70595E-05
 -1      5909-4.78411E+00 2.65108E+01-3.96717E-03 2.04216E+00-6.16375E-04-1.52818E-04
 -1      5910-4.83120E+00 2.65581E+01-3.95653E-03 2.00614E+00-1.10591E-03-2.06171E-04
 -1      5911-4.90193E+00 2.66290E+01-3.87038E-03 1.95221E+00-1.67814E-03-2.29346E-04
 -1      5912-4.99639E+00 2.67234E+01-3.65552E-03 1.88043E+00-2.30314E-03-2.87531E-04
 -1      5913-7.23270E+00 2.59224E+01 1.15990E-02 3.67207E+00 2.76550E-03 1.56822E-04
 -1      5914-7.11656E+00 2.58053E+01 1.11777E-02 3.73493E+00 1.96077E-03 1.56052E-04
 -1      5915-7.02960E+00 2.57172E+01 1.09705E-02 3.78222E+00 1.25492E-03 1.77567E-04
 -1      5916-6.97172E+00 2.56584E+01 1.08972E-02 3.81383E+00 6.81284E-04 1.47399E-04
 -1      5917-6.94280E+00 2.56289E+01 1.08825E-02 3.82966E+00 2.13762E-04 5.74203E-05
 -1      5918-6.94280E+00 2.56289E+01 1.08825E-02 3.82966E+00-2.13762E-04-5.74203E-05
 -1      5919-6.97172E+00 2.56584E+01 1.08972E-02 3.81383E+00-6.81284E-04-1.47399E-04
 -1      5920-7.02960E+00 2.57172E+01 1.09705E-02 3.78222E+00-1.25492E-03-1.77567E-04
 -1      5921-7.11656E+00 2.58053E+01 1.11777E-02 3.73493E+00-1.96077E-03-1.56052E-04
 -1      5922-7.23270E+00 2.59224E+01 1.15990E-02 3.67207E+00-2.76550E-03-1.56822E-04
 -1      5923-9.46835E+00 2.46350E+01 3.24672E-02 5.85328E+00 3.24653E-03-2.75209E-04
 -1      5924-9.32763E+00 2.44913E+01 3.17043E-02 5.90064E+00 2.24062E-03-1.46917E-04
 -1      5925-9.22227E+00 2.43832E+01 3.12812E-02 5.93633E+00 1.39272E-03-1.58293E-05
 -1      5926-9.15212E+00 2.43110E+01 3.10840E-02 5.96022E+00 7.36004E-04 4.15605E-05
 -1      5927-9.11707E+00 2.42749E+01 3.10135E-02 5.97219E+00 2.27048E-04 2.39007E-05
 -1      5928-9.11707E+00 2.42749E+01 3.10135E-02 5.97219E+00-2.27048E-04-2.39007E-05
 -1      5929-9.15212E+00 2.43110E+01 3.10840E-02 5.96022E+00-7.36004E-04-4.15605E-05
 -1      5930-9.22227E+00 2.43832E+01 3.12812E-02 5.93633E+00-1.39272E-03 1.58293E-05
 -1      5931-9.32763E+00 2.44913E+01 3.17043E-02 5.90064E+00-2.24062E-03 1.46917E-04
 -1      5932-9.46835E+00 2.46350E+01 3.24672E-02 5.85328E+00-3.24653E-03 2.75209E-04
 -1      5933-1.15653E+01 2.26487E+01 5.87373E-02 8.46521E+00 3.72329E-03-1.19290E-03
 -1      5934-1.13986E+01 2.24760E+01 5.74491E-02 8.48706E+00 2.52428E-03-8.24077E-04
 -1      5935-1.12738E+01 2.23460E+01 5.66750E-02 8.50362E+00 1.54167E-03-4.83128E-04
 -1      5936-1.11907E+01 2.22592E+01 5.62621E-02 8.51475E+00 8.02505E-04-2.34278E-04
 -1      5937-1.11492E+01 2.22157E+01 5.60886E-02 8.52035E+00 2.45302E-04-6.75657E-05
 -1      5938-1.11492E+01 2.22157E+01 5.60886E-02 8.52035E+00-2.45302E-04 6.75657E-05
 -1      5939-1.11907E+01 2.22592E+01 5.62621E-02 8.51475E+00-8.02505E-04 2.34278E-04
 -1      5940-1.12738E+01 2.23460E+01 5.66750E-02 8.50362E+00-1.54167E-03 4.83128E-04
 -1      5941-1.13986E+01 2.24760E+01 5.74491E-02 8.48706E+00-2.52428E-03 8.24077E-04
 -1      5942-1.15653E+01 2.26487E+01 5.87373E-02 8.46521E+00-3.72329E-03 1.19290E-03
 -1      5943-1.33125E+01 1.96792E+01 8.81167E-02 1.14881E+01 4.15024E-03-2.83983E-03
 -1      5944-1.31221E+01 1.94782E+01 8.60776E-02 1.14706E+01 2.82166E-03-2.07599E-03
 -1      5945-1.29795E+01 1.93270E+01 8.47692E-02 1.14577E+01 1.73954E-03-1.38665E-03
 -1      5946-1.28844E+01 1.92260E+01 8.40055E-02 1.14491E+01 9.17686E-04-7.89202E-04
 -1      5947-1.28369E+01 1.91755E+01 8.36564E-02 1.14448E+01 2.83443E-04-2.55725E-04
 -1      5948-1.28369E+01 1.91755E+01 8.36564E-02 1.14448E+01-2.83443E-04 2.55725E-04
 -1      5949-1.28844E+01 1.92260E+01 8.40055E-02 1.14491E+01-9.17686E-04 7.89202E-04
 -1      5950-1.29795E+01 1.93270E+01 8.47692E-02 1.14577E+01-1.73954E-03 1.38665E-03
 -1      5951-1.31221E+01 1.94782E+01 8.60776E-02 1.14706E+01-2.82166E-03 2.07599E-03
 -1      5952-1.33125E+01 1.96792E+01 8.81167E-02 1.14881E+01-4.15024E-03 2.83983E-03
 -1      5953-1.44314E+01 1.53871E+01 1.14686E-01 1.47842E+01 4.42625E-03-5.58568E-03
 -1      5954-1.42257E+01 1.51651E+01 1.11623E-01 1.47107E+01 3.11046E-03-4.30852E-03
 -1      5955-1.40714E+01 1.49983E+01 1.09502E-01 1.46555E+01 2.00878E-03-3.11466E-03
 -1      5956-1.39683E+01 1.48869E+01 1.08152E-01 1.46187E+01 1.11296E-03-1.90643E-03
 -1      5957-1.39168E+01 1.48312E+01 1.07490E-01 1.46003E+01 3.55057E-04-6.44533E-04
 -1      5958-1.39168E+01 1.48312E+01 1.07490E-01 1.46003E+01-3.55057E-04 6.44533E-04
 -1      5959-1.39683E+01 1.48869E+01 1.08152E-01 1.46187E+01-1.11296E-03 1.90643E-03
 -1      5960-1.40714E+01 1.49983E+01 1.09502E-01 1.46555E+01-2.00878E-03 3.11466E-03
 -1      5961-1.42257E+01 1.51651E+01 1.11623E-01 1.47107E+01-3.11046E-03 4.30852E-03
 -1      5962-1.44314E+01 1.53871E+01 1.14686E-01 1.47842E+01-4.42625E-03 5.58568E-03
 -1      5963-1.46148E+01 9.43837E+00 1.27554E-01 1.80318E+01 4.39857E-03-1.01866E-02
 -1      5964-1.44109E+01 9.21292E+00 1.23070E-01 1.78849E+01 3.35678E-03-8.65686E-03
 -1      5965-1.42570E+01 9.04374E+00 1.19568E-01 1.77746E+01 2.38111E-03-6.85389E-03
 -1      5966-1.41537E+01 8.93097E+00 1.17089E-01 1.77009E+01 1.43263E-03-4.47254E-03
 -1      5967-1.41019E+01 8.87459E+00 1.15793E-01 1.76640E+01 4.79918E-04-1.56085E-03
 -1      5968-1.41019E+01 8.87459E+00 1.15793E-01 1.76640E+01-4.79918E-04 1.56085E-03
 -1      5969-1.41537E+01 8.93097E+00 1.17089E-01 1.77009E+01-1.43263E-03 4.47254E-03
 -1      5970-1.42570E+01 9.04374E+00 1.19568E-01 1.77746E+01-2.38111E-03 6.85389E-03
 -1      5971-1.44109E+01 9.21292E+00 1.23070E-01 1.78849E+01-3.35678E-03 8.65686E-03
 -1      5972-1.46148E+01 9.43837E+00 1.27554E-01 1.80318E+01-4.39857E-03 1.01866E-02
 -1      5973-1.36170E+01 1.62704E+00 1.11177E-01 2.06758E+01 4.10165E-03-1.83755E-02
 -1      5974-1.34400E+01 1.42874E+00 1.04486E-01 2.04434E+01 3.82334E-03-1.81026E-02
 -1      5975-1.33036E+01 1.28056E+00 9.82392E-02 2.02686E+01 3.20563E-03-1.57533E-02
 -1      5976-1.32106E+01 1.18213E+00 9.33394E-02 2.01517E+01 2.16109E-03-1.08215E-02
 -1      5977-1.31635E+01 1.13304E+00 9.06262E-02 2.00931E+01 7.64736E-04-3.86104E-03
 -1      5978-1.31635E+01 1.13304E+00 9.06262E-02 2.00931E+01-7.64736E-04 3.86104E-03
 -1      5979-1.32106E+01 1.18213E+00 9.33394E-02 2.01517E+01-2.16109E-03 1.08215E-02
 -1      5980-1.33036E+01 1.28056E+00 9.82392E-02 2.02686E+01-3.20563E-03 1.57533E-02
 -1      5981-1.34400E+01 1.42874E+00 1.04486E-01 2.04434E+01-3.82334E-03 1.81026E-02
 -1      5982-1.36170E+01 1.62704E+00 1.11177E-01 2.06758E+01-4.10165E-03 1.83755E-02
 -1      5983-1.13890E+01-7.94258E+00 4.94726E-02 2.19413E+01 4.28624E-03-3.35042E-02
 -1      5984-1.12654E+01-8.06929E+00 3.89700E-02 2.16236E+01 5.91038E-03-3.86720E-02
 -1      5985-1.11634E+01-8.16270E+00 2.73478E-02 2.13838E+01 5.88859E-03-3.59857E-02
 -1      5986-1.10906E+01-8.22427E+00 1.73544E-02 2.12231E+01 4.27939E-03-2.54205E-02
 -1      5987-1.10528E+01-8.25486E+00 1.16019E-02 2.11425E+01 1.56082E-03-9.16047E-03
 -1      5988-1.10528E+01-8.25486E+00 1.16019E-02 2.11425E+01-1.56082E-03 9.16047E-03
 -1      5989-1.10906E+01-8.22427E+00 1.73544E-02 2.12231E+01-4.27939E-03 2.54205E-02
 -1      5990-1.11634E+01-8.16270E+00 2.73478E-02 2.13838E+01-5.88859E-03 3.59857E-02
 -1      5991-1.12654E+01-8.06929E+00 3.89700E-02 2.16236E+01-5.91038E-03 3.86720E-02
 -1      5992-1.13890E+01-7.94258E+00 4.94726E-02 2.19413E+01-4.28624E-03 3.35042E-02
 -1      5993-8.22284E+00-1.86596E+01-6.47234E-02 2.09602E+01 7.21814E-03-5.95459E-02
 -1      5994-8.16365E+00-1.86603E+01-8.01977E-02 2.05761E+01 1.20522E-02-7.74093E-02
 -1      5995-8.10322E+00-1.86591E+01-1.01007E-01 2.02847E+01 1.25023E-02-7.40935E-02
 -1      5996-8.05575E+00-1.86575E+01-1.19154E-01 2.00891E+01 9.20736E-03-5.24288E-02
 -1      5997-8.02992E+00-1.86565E+01-1.29421E-01 1.99910E+01 3.36243E-03-1.88380E-02
 -1      5998-8.02992E+00-1.86565E+01-1.29421E-01 1.99910E+01-3.36243E-03 1.88380E-02
 -1      5999-8.05575E+00-1.86575E+01-1.19154E-01 2.00891E+01-9.20736E-03 5.24288E-02
 -1      6000-8.10322E+00-1.86591E+01-1.01007E-01 2.02847E+01-1.25023E-02 7.40935E-02
 -1      6001-8.16365E+00-1.86603E+01-8.01977E-02 2.05761E+01-1.20522E-02 7.74093E-02
 -1      6002-8.22284E+00-1.86596E+01-6.47234E-02 2.09602E+01-7.21814E-03 5.95459E-02
 -1      6003-4.80988E+00-2.92956E+01-2.11745E-01 1.70177E+01 9.87968E-03-9.21730E-02
 -1      6004-4.79881E+00-2.91205E+01-2.33131E-01 1.66075E+01 1.89289E-02-1.28176E-01
 -1      6005-4.77440E+00-2.89884E+01-2.58326E-01 1.63015E+01 1.78985E-02-1.20596E-01
 -1      6006-4.75115E+00-2.89008E+01-2.77515E-01 1.60995E+01 1.14743E-02-8.34687E-02
 -1      6007-4.73757E+00-2.88575E+01-2.87529E-01 1.59992E+01 3.82891E-03-2.96255E-02
 -1      6008-4.73757E+00-2.88575E+01-2.87529E-01 1.59992E+01-3.82891E-03 2.96255E-02
 -1      6009-4.75115E+00-2.89008E+01-2.77515E-01 1.60995E+01-1.14743E-02 8.34687E-02
 -1      6010-4.77440E+00-2.89884E+01-2.58326E-01 1.63015E+01-1.78985E-02 1.20596E-01
 -1      6011-4.79881E+00-2.91205E+01-2.33131E-01 1.66075E+01-1.89289E-02 1.28176E-01
 -1      6012-4.80988E+00-2.92956E+01-2.11745E-01 1.70177E+01-9.87968E-03 9.21730E-02
 -1      6013-2.15428E+00-3.80941E+01-3.43546E-01 9.81251E+00-2.66938E-03-9.05277E-02
 -1      6014-2.15415E+00-3.77127E+01-3.29945E-01 9.49115E+00-2.68751E-02-1.27464E-01
 -1      6015-2.14883E+00-3.74450E+01-3.09626E-01 9.26801E+00-4.57890E-02-1.15635E-01
 -1      6016-2.14243E+00-3.72772E+01-2.89125E-01 9.12641E+00-4.06204E-02-7.80900E-02
 -1      6017-2.13836E+00-3.71968E+01-2.76450E-01 9.05756E+00-1.59285E-02-2.73800E-02
 -1      6018-2.13836E+00-3.71968E+01-2.76450E-01 9.05756E+00 1.59285E-02 2.73800E-02
 -1      6019-2.14243E+00-3.72772E+01-2.89125E-01 9.12641E+00 4.06204E-02 7.80900E-02
 -1      6020-2.14883E+00-3.74450E+01-3.09626E-01 9.26801E+00 4.57890E-02 1.15635E-01
 -1      6021-2.15415E+00-3.77127E+01-3.29945E-01 9.49115E+00 2.68751E-02 1.27464E-01
 -1      6022-2.15428E+00-3.80941E+01-3.43546E-01 9.81251E+00 2.66938E-03 9.05277E-02
 -1      6023 8.11636E+00 1.83741E+01-5.60000E-01 3.02354E+00-7.37118E-01-1.48683E-01
 -1      6024 8.61949E+00 1.85809E+01 1.12378E+00 2.69077E+00-1.33085E+00-2.01880E-01
 -1      6025 8.91196E+00 1.86603E+01 2.14930E+00 2.48737E+00-1.12665E+00-1.72854E-01
 -1      6026 9.06956E+00 1.86884E+01 2.72191E+00 2.36696E+00-7.17768E-01-1.12650E-01
 -1      6027 9.13904E+00 1.86972E+01 2.97943E+00 2.31050E+00-2.44403E-01-3.88538E-02
 -1      6028 9.13904E+00 1.86972E+01 2.97943E+00 2.31050E+00 2.44403E-01 3.88538E-02
 -1      6029 9.06956E+00 1.86884E+01 2.72191E+00 2.36696E+00 7.17768E-01 1.12650E-01
 -1      6030 8.91196E+00 1.86603E+01 2.14930E+00 2.48737E+00 1.12665E+00 1.72854E-01
 -1      6031 8.61949E+00 1.85809E+01 1.12378E+00 2.69077E+00 1.33085E+00 2.01880E-01
 -1      6032 8.11636E+00 1.83741E+01-5.60000E-01 3.02354E+00 7.37118E-01 1.48683E-01
 -1      6033 1.02366E+01 1.83881E+01 3.17426E-01 1.10126E+00 2.24751E-02-1.62247E-01
 -1      6034 1.01180E+01 1.86961E+01-6.44258E-02 9.12601E-01 7.64640E-02-2.08803E-01
 -1      6035 1.01476E+01 1.88694E+01 6.80104E-02 7.64640E-01-5.03235E-02-1.92550E-01
 -1      6036 1.01978E+01 1.89627E+01 2.66326E-01 6.66949E-01-7.70788E-02-1.30826E-01
 -1      6037 1.02285E+01 1.90033E+01 3.86359E-01 6.18726E-01-3.33481E-02-4.59554E-02
 -1      6038 1.02285E+01 1.90033E+01 3.86359E-01 6.18726E-01 3.33481E-02 4.59554E-02
 -1      6039 1.01978E+01 1.89627E+01 2.66326E-01 6.66949E-01 7.70788E-02 1.30826E-01
 -1      6040 1.01476E+01 1.88694E+01 6.80104E-02 7.64640E-01 5.03235E-02 1.92550E-01
 -1      6041 1.01180E+01 1.86961E+01-6.44258E-02 9.12601E-01-7.64640E-02 2.08803E-01
 -1      6042 1.02366E+01 1.83881E+01 3.17426E-01 1.10126E+00-2.24751E-02 1.62247E-01
 -1      6043 1.10636E+01 1.78894E+01-6.02925E-02-6.61238E-01 1.51934E-01-7.10737E-02
 -1      6044 1.11444E+01 1.84466E+01-3.04077E-02-6.83958E-01 2.37338E-01-1.07938E-01
 -1      6045 1.11343E+01 1.87618E+01-1.46235E-01-7.31846E-01 2.36291E-01-1.05702E-01
 -1      6046 1.11236E+01 1.89396E+01-2.10701E-01-7.74927E-01 1.54976E-01-7.58716E-02
 -1      6047 1.11194E+01 1.90207E+01-2.33184E-01-7.99159E-01 5.26521E-02-2.74176E-02
 -1      6048 1.11194E+01 1.90207E+01-2.33184E-01-7.99159E-01-5.26521E-02 2.74176E-02
 -1      6049 1.11236E+01 1.89396E+01-2.10701E-01-7.74927E-01-1.54976E-01 7.58716E-02
 -1      6050 1.11343E+01 1.87618E+01-1.46235E-01-7.31846E-01-2.36291E-01 1.05702E-01
 -1      6051 1.11444E+01 1.84466E+01-3.04077E-02-6.83958E-01-2.37338E-01 1.07938E-01
 -1      6052 1.10636E+01 1.78894E+01-6.02925E-02-6.61238E-01-1.51934E-01 7.10737E-02
 -1      6053 1.16718E+01 1.83177E+01-3.75240E-02-2.09350E+00 8.98321E-02-2.58357E-02
 -1      6054 1.16315E+01 1.85177E+01-8.13524E-02-2.06525E+00 1.50700E-01-3.87054E-02
 -1      6055 1.16221E+01 1.87345E+01-1.15587E-01-2.05236E+00 1.53903E-01-4.04951E-02
 -1      6056 1.16107E+01 1.88883E+01-1.64860E-01-2.05020E+00 1.14580E-01-2.97394E-02
 -1      6057 1.16034E+01 1.89661E+01-1.95892E-01-2.05126E+00 4.19494E-02-1.08886E-02
 -1      6058 1.16034E+01 1.89661E+01-1.95892E-01-2.05126E+00-4.19494E-02 1.08886E-02
 -1      6059 1.16107E+01 1.88883E+01-1.64860E-01-2.05020E+00-1.14580E-01 2.97394E-02
 -1      6060 1.16221E+01 1.87345E+01-1.15587E-01-2.05236E+00-1.53903E-01 4.04951E-02
 -1      6061 1.16315E+01 1.85177E+01-8.13524E-02-2.06525E+00-1.50700E-01 3.87054E-02
 -1      6062 1.16718E+01 1.83177E+01-3.75240E-02-2.09350E+00-8.98321E-02 2.58357E-02
 -1      6063 1.17894E+01 1.87965E+01-2.09531E-02-3.25490E+00 3.64157E-02-6.36163E-03
 -1      6064 1.17402E+01 1.88988E+01-3.62196E-02-3.20200E+00 6.13386E-02-1.03014E-02
 -1      6065 1.17047E+01 1.89937E+01-6.18519E-02-3.16663E+00 6.60020E-02-1.10730E-02
 -1      6066 1.16855E+01 1.90732E+01-8.08671E-02-3.14468E+00 4.91920E-02-8.55816E-03
 -1      6067 1.16766E+01 1.91174E+01-9.27951E-02-3.13431E+00 1.82155E-02-3.18884E-03
 -1      6068 1.16766E+01 1.91174E+01-9.27951E-02-3.13431E+00-1.82155E-02 3.18884E-03
 -1      6069 1.16855E+01 1.90732E+01-8.08671E-02-3.14468E+00-4.91920E-02 8.55816E-03
 -1      6070 1.17047E+01 1.89937E+01-6.18519E-02-3.16663E+00-6.60020E-02 1.10730E-02
 -1      6071 1.17402E+01 1.88988E+01-3.62196E-02-3.20200E+00-6.13386E-02 1.03014E-02
 -1      6072 1.17894E+01 1.87965E+01-2.09531E-02-3.25490E+00-3.64157E-02 6.36163E-03
 -1      6073 1.15117E+01 1.93538E+01-7.80602E-03-4.17136E+00 9.80115E-03-6.02271E-04
 -1      6074 1.14623E+01 1.94059E+01-1.39396E-02-4.11019E+00 1.72887E-02-1.15000E-03
 -1      6075 1.14276E+01 1.94554E+01-2.15786E-02-4.06507E+00 1.93495E-02-1.58495E-03
 -1      6076 1.14048E+01 1.94926E+01-2.96017E-02-4.03567E+00 1.50964E-02-1.34018E-03
 -1      6077 1.13939E+01 1.95131E+01-3.39067E-02-4.02114E+00 5.63467E-03-5.33854E-04
 -1      6078 1.13939E+01 1.95131E+01-3.39067E-02-4.02114E+00-5.63467E-03 5.33854E-04
 -1      6079 1.14048E+01 1.94926E+01-2.96017E-02-4.03567E+00-1.50964E-02 1.34018E-03
 -1      6080 1.14276E+01 1.94554E+01-2.15786E-02-4.06507E+00-1.93495E-02 1.58495E-03
 -1      6081 1.14623E+01 1.94059E+01-1.39396E-02-4.11019E+00-1.72887E-02 1.15000E-03
 -1      6082 1.15117E+01 1.93538E+01-7.80602E-03-4.17136E+00-9.80115E-03 6.02271E-04
 -1      6083 1.09034E+01 1.99877E+01-4.62560E-03-4.86380E+00 4.07048E-04 3.13252E-04
 -1      6084 1.08623E+01 2.00225E+01-5.93004E-03-4.79830E+00 1.38514E-03 4.96975E-04
 -1      6085 1.08321E+01 2.00511E+01-7.85657E-03-4.74923E+00 2.29432E-03 4.14890E-04
 -1      6086 1.08123E+01 2.00720E+01-9.56638E-03-4.71655E+00 2.10640E-03 2.35809E-04
 -1      6087 1.08025E+01 2.00828E+01-1.07786E-02-4.70026E+00 8.61147E-04 7.72991E-05
 -1      6088 1.08025E+01 2.00828E+01-1.07786E-02-4.70026E+00-8.61147E-04-7.72991E-05
 -1      6089 1.08123E+01 2.00720E+01-9.56638E-03-4.71655E+00-2.10640E-03-2.35809E-04
 -1      6090 1.08321E+01 2.00511E+01-7.85657E-03-4.74923E+00-2.29432E-03-4.14890E-04
 -1      6091 1.08623E+01 2.00225E+01-5.93004E-03-4.79830E+00-1.38514E-03-4.96975E-04
 -1      6092 1.09034E+01 1.99877E+01-4.62560E-03-4.86380E+00-4.07048E-04-3.13252E-04
 -1      6093 1.00206E+01 2.06929E+01-6.10615E-03-5.34342E+00-1.52986E-03 4.00539E-05
 -1      6094 9.98970E+00 2.07188E+01-6.07832E-03-5.27477E+00-2.12460E-03 2.79086E-04
 -1      6095 9.96662E+00 2.07384E+01-5.99635E-03-5.22318E+00-1.84947E-03 3.21926E-04
 -1      6096 9.95128E+00 2.07518E+01-6.01304E-03-5.18875E+00-1.17639E-03 2.40248E-04
 -1      6097 9.94366E+00 2.07586E+01-6.01080E-03-5.17152E+00-3.99917E-04 8.60028E-05
 -1      6098 9.94366E+00 2.07586E+01-6.01080E-03-5.17152E+00 3.99917E-04-8.60028E-05
 -1      6099 9.95128E+00 2.07518E+01-6.01304E-03-5.18875E+00 1.17639E-03-2.40248E-04
 -1      6100 9.96662E+00 2.07384E+01-5.99635E-03-5.22318E+00 1.84947E-03-3.21926E-04
 -1      6101 9.98970E+00 2.07188E+01-6.07832E-03-5.27477E+00 2.12460E-03-2.79086E-04
 -1      6102 1.00206E+01 2.06929E+01-6.10615E-03-5.34342E+00 1.52986E-03-4.00539E-05
 -1      6103 8.90809E+00 2.14468E+01-9.15766E-03-5.61671E+00-1.20917E-03-2.71178E-04
 -1      6104 8.88757E+00 2.14649E+01-8.91245E-03-5.54549E+00-1.83313E-03-1.12403E-04
 -1      6105 8.87216E+00 2.14781E+01-8.54264E-03-5.49199E+00-1.78948E-03-1.83230E-05
 -1      6106 8.86189E+00 2.14867E+01-8.20884E-03-5.45630E+00-1.26349E-03 1.52665E-05
 -1      6107 8.85675E+00 2.14911E+01-8.02792E-03-5.43845E+00-4.51203E-04 1.00772E-05
 -1      6108 8.85675E+00 2.14911E+01-8.02792E-03-5.43845E+00 4.51203E-04-1.00772E-05
 -1      6109 8.86189E+00 2.14867E+01-8.20884E-03-5.45630E+00 1.26349E-03-1.52665E-05
 -1      6110 8.87216E+00 2.14781E+01-8.54264E-03-5.49199E+00 1.78948E-03 1.83230E-05
 -1      6111 8.88757E+00 2.14649E+01-8.91245E-03-5.54549E+00 1.83313E-03 1.12403E-04
 -1      6112 8.90809E+00 2.14468E+01-9.15766E-03-5.61671E+00 1.20917E-03 2.71178E-04
 -1      6113 7.60304E+00 2.22190E+01-1.21994E-02-5.68821E+00-5.58475E-04-4.22005E-04
 -1      6114 7.59295E+00 2.22283E+01-1.20505E-02-5.61507E+00-9.29658E-04-3.22462E-04
 -1      6115 7.58534E+00 2.22350E+01-1.18014E-02-5.56019E+00-9.65766E-04-2.19822E-04
 -1      6116 7.58025E+00 2.22393E+01-1.15678E-02-5.52358E+00-7.09289E-04-1.25299E-04
 -1      6117 7.57770E+00 2.22414E+01-1.14284E-02-5.50528E+00-2.59186E-04-4.05600E-05
 -1      6118 7.57770E+00 2.22414E+01-1.14284E-02-5.50528E+00 2.59186E-04 4.05600E-05
 -1      6119 7.58025E+00 2.22393E+01-1.15678E-02-5.52358E+00 7.09289E-04 1.25299E-04
 -1      6120 7.58534E+00 2.22350E+01-1.18014E-02-5.56019E+00 9.65766E-04 2.19822E-04
 -1      6121 7.59295E+00 2.22283E+01-1.20505E-02-5.61507E+00 9.29658E-04 3.22462E-04
 -1      6122 7.60304E+00 2.22190E+01-1.21994E-02-5.68821E+00 5.58475E-04 4.22005E-04
 -1      6123 6.13730E+00 2.29769E+01-1.46596E-02-5.56183E+00-6.13780E-05-4.49401E-04
 -1      6124 6.13765E+00 2.29766E+01-1.46208E-02-5.48754E+00-2.51403E-04-3.84300E-04
 -1      6125 6.13789E+00 2.29762E+01-1.45218E-02-5.43182E+00-3.17382E-04-2.88044E-04
 -1      6126 6.13803E+00 2.29758E+01-1.44168E-02-5.39466E+00-2.53967E-04-1.76691E-04
 -1      6127 6.13810E+00 2.29756E+01-1.43519E-02-5.37608E+00-9.60274E-05-5.93304E-05
 -1      6128 6.13810E+00 2.29756E+01-1.43519E-02-5.37608E+00 9.60274E-05 5.93304E-05
 -1      6129 6.13803E+00 2.29758E+01-1.44168E-02-5.39466E+00 2.53967E-04 1.76691E-04
 -1      6130 6.13789E+00 2.29762E+01-1.45218E-02-5.43182E+00 3.17382E-04 2.88044E-04
 -1      6131 6.13765E+00 2.29766E+01-1.46208E-02-5.48754E+00 2.51403E-04 3.84300E-04
 -1      6132 6.13730E+00 2.29769E+01-1.46596E-02-5.56183E+00 6.13780E-05 4.49401E-04
 -1      6133 4.53710E+00 2.36888E+01-1.63024E-02-5.24086E+00 2.71359E-04-4.09817E-04
 -1      6134 4.54800E+00 2.36782E+01-1.63308E-02-5.16619E+00 1.57210E-04-3.67646E-04
 -1      6135 4.55616E+00 2.36703E+01-1.63243E-02-5.11018E+00 6.66240E-05-2.85273E-04
 -1      6136 4.56159E+00 2.36649E+01-1.63026E-02-5.07284E+00 1.65769E-05-1.79005E-04
 -1      6137 4.56430E+00 2.36622E+01-1.62857E-02-5.05417E+00 1.07077E-06-6.08443E-05
 -1      6138 4.56430E+00 2.36622E+01-1.62857E-02-5.05417E+00-1.07077E-06 6.08443E-05
 -1      6139 4.56159E+00 2.36649E+01-1.63026E-02-5.07284E+00-1.65769E-05 1.79005E-04
 -1      6140 4.55616E+00 2.36703E+01-1.63243E-02-5.11018E+00-6.66241E-05 2.85273E-04
 -1      6141 4.54800E+00 2.36782E+01-1.63308E-02-5.16619E+00-1.57210E-04 3.67646E-04
 -1      6142 4.53710E+00 2.36888E+01-1.63024E-02-5.24086E+00-2.71359E-04 4.09817E-04
 -1      6143 2.82266E+00 2.43246E+01-1.69526E-02-4.72678E+00 5.19033E-04-3.38076E-04
 -1      6144 2.84433E+00 2.43034E+01-1.70151E-02-4.65244E+00 4.10640E-04-3.17880E-04
 -1      6145 2.86057E+00 2.42875E+01-1.70548E-02-4.59668E+00 2.88077E-04-2.53264E-04
 -1      6146 2.87140E+00 2.42769E+01-1.70750E-02-4.55950E+00 1.67865E-04-1.61299E-04
 -1      6147 2.87681E+00 2.42715E+01-1.70827E-02-4.54091E+00 5.48151E-05-5.51855E-05
 -1      6148 2.87681E+00 2.42715E+01-1.70827E-02-4.54091E+00-5.48151E-05 5.51855E-05
 -1      6149 2.87140E+00 2.42769E+01-1.70750E-02-4.55950E+00-1.67865E-04 1.61299E-04
 -1      6150 2.86057E+00 2.42875E+01-1.70548E-02-4.59668E+00-2.88077E-04 2.53264E-04
 -1      6151 2.84433E+00 2.43034E+01-1.70151E-02-4.65244E+00-4.10640E-04 3.17880E-04
 -1      6152 2.82266E+00 2.43246E+01-1.69526E-02-4.72678E+00-5.19033E-04 3.38076E-04
 -1      6153 1.00844E+00 2.48551E+01-1.63745E-02-4.01721E+00 7.44421E-04-2.54233E-04
 -1      6154 1.04129E+00 2.48228E+01-1.64592E-02-3.94387E+00 6.04168E-04-2.58863E-04
 -1      6155 1.06594E+00 2.47985E+01-1.65235E-02-3.88886E+00 4.39686E-04-2.13890E-04
 -1      6156 1.08236E+00 2.47824E+01-1.65647E-02-3.85219E+00 2.65263E-04-1.38584E-04
 -1      6157 1.09057E+00 2.47743E+01-1.65842E-02-3.83385E+00 8.84589E-05-4.77464E-05
 -1      6158 1.09057E+00 2.47743E+01-1.65842E-02-3.83385E+00-8.84589E-05 4.77464E-05
 -1      6159 1.08236E+00 2.47824E+01-1.65647E-02-3.85219E+00-2.65263E-04 1.38584E-04
 -1      6160 1.06594E+00 2.47985E+01-1.65235E-02-3.88886E+00-4.39686E-04 2.13890E-04
 -1      6161 1.04129E+00 2.48228E+01-1.64592E-02-3.94387E+00-6.04168E-04 2.58863E-04
 -1      6162 1.00844E+00 2.48551E+01-1.63745E-02-4.01721E+00-7.44421E-04 2.54233E-04
 -1      6163-8.95214E-01 2.52495E+01-1.42279E-02-3.10333E+00 9.81316E-04-1.74661E-04
 -1      6164-8.50459E-01 2.52053E+01-1.43404E-02-3.03175E+00 7.89727E-04-2.06236E-04
 -1      6165-8.16895E-01 2.51721E+01-1.44273E-02-2.97805E+00 5.73685E-04-1.79887E-04
 -1      6166-7.94524E-01 2.51499E+01-1.44842E-02-2.94224E+00 3.46467E-04-1.19163E-04
 -1      6167-7.83340E-01 2.51389E+01-1.45118E-02-2.92434E+00 1.15684E-04-4.13854E-05
 -1      6168-7.83340E-01 2.51389E+01-1.45118E-02-2.92434E+00-1.15684E-04 4.13854E-05
 -1      6169-7.94524E-01 2.51499E+01-1.44842E-02-2.94224E+00-3.46467E-04 1.19163E-04
 -1      6170-8.16895E-01 2.51721E+01-1.44273E-02-2.97805E+00-5.73685E-04 1.79887E-04
 -1      6171-8.50459E-01 2.52053E+01-1.43404E-02-3.03175E+00-7.89727E-04 2.06236E-04
 -1      6172-8.95214E-01 2.52495E+01-1.42279E-02-3.10333E+00-9.81316E-04 1.74661E-04
 -1      6173-2.87839E+00 2.54707E+01-1.00551E-02-1.96755E+00 1.24327E-03-1.20312E-04
 -1      6174-2.82065E+00 2.54133E+01-1.02156E-02-1.89873E+00 9.88673E-04-1.76624E-04
 -1      6175-2.77736E+00 2.53703E+01-1.03365E-02-1.84710E+00 7.12034E-04-1.63157E-04
 -1      6176-2.74850E+00 2.53416E+01-1.04144E-02-1.81267E+00 4.27599E-04-1.10138E-04
 -1      6177-2.73407E+00 2.53273E+01-1.04519E-02-1.79546E+00 1.42375E-04-3.84654E-05
 -1      6178-2.73407E+00 2.53273E+01-1.04519E-02-1.79546E+00-1.42375E-04 3.84654E-05
 -1      6179-2.74850E+00 2.53416E+01-1.04144E-02-1.81267E+00-4.27599E-04 1.10138E-04
 -1      6180-2.77736E+00 2.53703E+01-1.03365E-02-1.84710E+00-7.12034E-04 1.63157E-04
 -1      6181-2.82065E+00 2.54133E+01-1.02156E-02-1.89873E+00-9.88673E-04 1.76624E-04
 -1      6182-2.87839E+00 2.54707E+01-1.00551E-02-1.96755E+00-1.24327E-03 1.20312E-04
 -1      6183-4.92556E+00 2.54688E+01-3.29839E-03-5.82234E-01 1.53146E-03-1.23118E-04
 -1      6184-4.85335E+00 2.53967E+01-3.54108E-03-5.17763E-01 1.20470E-03-1.94026E-04
 -1      6185-4.79920E+00 2.53426E+01-3.71815E-03-4.69386E-01 8.59150E-04-1.80210E-04
 -1      6186-4.76312E+00 2.53066E+01-3.83001E-03-4.37121E-01 5.12107E-04-1.21119E-04
 -1      6187-4.74508E+00 2.52885E+01-3.88323E-03-4.20984E-01 1.69824E-04-4.21349E-05
 -1      6188-4.74508E+00 2.52885E+01-3.88323E-03-4.20984E-01-1.69824E-04 4.21349E-05
 -1      6189-4.76312E+00 2.53066E+01-3.83001E-03-4.37121E-01-5.12107E-04 1.21119E-04
 -1      6190-4.79920E+00 2.53426E+01-3.71815E-03-4.69386E-01-8.59150E-04 1.80210E-04
 -1      6191-4.85335E+00 2.53967E+01-3.54108E-03-5.17763E-01-1.20470E-03 1.94026E-04
 -1      6192-4.92556E+00 2.54688E+01-3.29839E-03-5.82234E-01-1.53146E-03 1.23118E-04
 -1      6193-7.00671E+00 2.51725E+01 6.63005E-03 1.08901E+00 1.83834E-03-2.31966E-04
 -1      6194-6.91825E+00 2.50836E+01 6.25535E-03 1.14658E+00 1.43122E-03-2.94889E-04
 -1      6195-6.85192E+00 2.50169E+01 5.98859E-03 1.18979E+00 1.00991E-03-2.56159E-04
 -1      6196-6.80772E+00 2.49724E+01 5.82276E-03 1.21862E+00 5.96747E-04-1.66809E-04
 -1      6197-6.78562E+00 2.49502E+01 5.74459E-03 1.23304E+00 1.96923E-04-5.72368E-05
 -1      6198-6.78562E+00 2.49502E+01 5.74459E-03 1.23304E+00-1.96923E-04 5.72368E-05
 -1      6199-6.80772E+00 2.49724E+01 5.82276E-03 1.21862E+00-5.96747E-04 1.66809E-04
 -1      6200-6.85192E+00 2.50169E+01 5.98859E-03 1.18979E+00-1.00991E-03 2.56159E-04
 -1      6201-6.91825E+00 2.50836E+01 6.25535E-03 1.14658E+00-1.43122E-03 2.94889E-04
 -1      6202-7.00671E+00 2.51725E+01 6.63005E-03 1.08901E+00-1.83834E-03 2.31966E-04
 -1      6203-9.06612E+00 2.44782E+01 2.01824E-02 3.08554E+00 2.14850E-03-5.17531E-04
 -1      6204-8.95963E+00 2.43704E+01 1.96082E-02 3.13220E+00 1.65548E-03-5.30873E-04
 -1      6205-8.87980E+00 2.42895E+01 1.92066E-02 3.16724E+00 1.15484E-03-4.26269E-04
 -1      6206-8.82660E+00 2.42355E+01 1.89595E-02 3.19062E+00 6.75751E-04-2.67788E-04
 -1      6207-8.80001E+00 2.42085E+01 1.88437E-02 3.20233E+00 2.21741E-04-9.05448E-05
 -1      6208-8.80001E+00 2.42085E+01 1.88437E-02 3.20233E+00-2.21741E-04 9.05448E-05
 -1      6209-8.82660E+00 2.42355E+01 1.89595E-02 3.19062E+00-6.75751E-04 2.67788E-04
 -1      6210-8.87980E+00 2.42895E+01 1.92066E-02 3.16724E+00-1.15484E-03 4.26269E-04
 -1      6211-8.95963E+00 2.43704E+01 1.96082E-02 3.13220E+00-1.65548E-03 5.30873E-04
 -1      6212-9.06612E+00 2.44782E+01 2.01824E-02 3.08554E+00-2.14850E-03 5.17531E-04
 -1      6213-1.10098E+01 2.32399E+01 3.73527E-02 5.43681E+00 2.43786E-03-1.07256E-03
 -1      6214-1.08842E+01 2.31116E+01 3.64952E-02 5.46656E+00 1.86133E-03-9.65342E-04
 -1      6215-1.07900E+01 2.30152E+01 3.59037E-02 5.48894E+00 1.28438E-03-7.31568E-04
 -1      6216-1.07273E+01 2.29509E+01 3.55426E-02 5.50389E+00 7.44393E-04-4.47194E-04
 -1      6217-1.06959E+01 2.29187E+01 3.53738E-02 5.51138E+00 2.42898E-04-1.49550E-04
 -1      6218-1.06959E+01 2.29187E+01 3.53738E-02 5.51138E+00-2.42898E-04 1.49550E-04
 -1      6219-1.07273E+01 2.29509E+01 3.55426E-02 5.50389E+00-7.44393E-04 4.47194E-04
 -1      6220-1.07900E+01 2.30152E+01 3.59037E-02 5.48894E+00-1.28438E-03 7.31568E-04
 -1      6221-1.08842E+01 2.31116E+01 3.64952E-02 5.46656E+00-1.86133E-03 9.65342E-04
 -1      6222-1.10098E+01 2.32399E+01 3.73527E-02 5.43681E+00-2.43786E-03 1.07256E-03
 -1      6223-1.26950E+01 2.12630E+01 5.71377E-02 8.13952E+00 2.66953E-03-2.00432E-03
 -1      6224-1.25510E+01 2.11141E+01 5.59058E-02 8.14410E+00 2.02837E-03-1.66203E-03
 -1      6225-1.24430E+01 2.10023E+01 5.50669E-02 8.14760E+00 1.38981E-03-1.20895E-03
 -1      6226-1.23711E+01 2.09277E+01 5.45577E-02 8.14996E+00 8.00239E-04-7.24391E-04
 -1      6227-1.23351E+01 2.08904E+01 5.43199E-02 8.15115E+00 2.60098E-04-2.40329E-04
 -1      6228-1.23351E+01 2.08904E+01 5.43199E-02 8.15115E+00-2.60098E-04 2.40329E-04
 -1      6229-1.23711E+01 2.09277E+01 5.45577E-02 8.14996E+00-8.00239E-04 7.24391E-04
 -1      6230-1.24430E+01 2.10023E+01 5.50669E-02 8.14760E+00-1.38981E-03 1.20895E-03
 -1      6231-1.25510E+01 2.11141E+01 5.59058E-02 8.14410E+00-2.02837E-03 1.66203E-03
 -1      6232-1.26950E+01 2.12630E+01 5.71377E-02 8.13952E+00-2.66953E-03 2.00432E-03
 -1      6233-1.39282E+01 1.83095E+01 7.67832E-02 1.11235E+01 2.78286E-03-3.42735E-03
 -1      6234-1.37696E+01 1.81433E+01 7.50941E-02 1.10925E+01 2.12232E-03-2.68750E-03
 -1      6235-1.36508E+01 1.80185E+01 7.39532E-02 1.10692E+01 1.45576E-03-1.90152E-03
 -1      6236-1.35716E+01 1.79351E+01 7.32599E-02 1.10538E+01 8.38495E-04-1.12606E-03
 -1      6237-1.35321E+01 1.78934E+01 7.29348E-02 1.10460E+01 2.72582E-04-3.72171E-04
 -1      6238-1.35321E+01 1.78934E+01 7.29348E-02 1.10460E+01-2.72582E-04 3.72171E-04
 -1      6239-1.35716E+01 1.79351E+01 7.32599E-02 1.10538E+01-8.38495E-04 1.12606E-03
 -1      6240-1.36508E+01 1.80185E+01 7.39532E-02 1.10692E+01-1.45576E-03 1.90152E-03
 -1      6241-1.37696E+01 1.81433E+01 7.50941E-02 1.10925E+01-2.12232E-03 2.68750E-03
 -1      6242-1.39282E+01 1.83095E+01 7.67832E-02 1.11235E+01-2.78286E-03 3.42735E-03
 -1      6243-1.44796E+01 1.41254E+01 9.09854E-02 1.42086E+01 2.68440E-03-5.50225E-03
 -1      6244-1.43156E+01 1.39503E+01 8.87654E-02 1.41304E+01 2.08623E-03-4.21303E-03
 -1      6245-1.41926E+01 1.38187E+01 8.72384E-02 1.40718E+01 1.45516E-03-2.98254E-03
 -1      6246-1.41106E+01 1.37309E+01 8.62825E-02 1.40327E+01 8.49919E-04-1.78447E-03
 -1      6247-1.40696E+01 1.36870E+01 8.58211E-02 1.40131E+01 2.78544E-04-5.94816E-04
 -1      6248-1.40696E+01 1.36870E+01 8.58211E-02 1.40131E+01-2.78544E-04 5.94816E-04
 -1      6249-1.41106E+01 1.37309E+01 8.62825E-02 1.40327E+01-8.49919E-04 1.78447E-03
 -1      6250-1.41926E+01 1.38187E+01 8.72384E-02 1.40718E+01-1.45516E-03 2.98254E-03
 -1      6251-1.43156E+01 1.39503E+01 8.87654E-02 1.41304E+01-2.08623E-03 4.21303E-03
 -1      6252-1.44796E+01 1.41254E+01 9.09854E-02 1.42086E+01-2.68440E-03 5.50225E-03
 -1      6253-1.41270E+01 8.50233E+00 9.15202E-02 1.70632E+01 2.28687E-03-8.63093E-03
 -1      6254-1.39727E+01 8.33389E+00 8.86207E-02 1.69276E+01 1.90552E-03-6.90898E-03
 -1      6255-1.38566E+01 8.20751E+00 8.64290E-02 1.68258E+01 1.41735E-03-5.18733E-03
 -1      6256-1.37788E+01 8.12324E+00 8.49183E-02 1.67578E+01 8.71542E-04-3.26352E-03
 -1      6257-1.37399E+01 8.08110E+00 8.41417E-02 1.67238E+01 2.94133E-04-1.11845E-03
 -1      6258-1.37399E+01 8.08110E+00 8.41417E-02 1.67238E+01-2.94133E-04 1.11845E-03
 -1      6259-1.37788E+01 8.12324E+00 8.49183E-02 1.67578E+01-8.71542E-04 3.26352E-03
 -1      6260-1.38566E+01 8.20751E+00 8.64290E-02 1.68258E+01-1.41735E-03 5.18733E-03
 -1      6261-1.39727E+01 8.33389E+00 8.86207E-02 1.69276E+01-1.90552E-03 6.90898E-03
 -1      6262-1.41270E+01 8.50233E+00 9.15202E-02 1.70632E+01-2.28687E-03 8.63093E-03
 -1      6263-1.27316E+01 1.37989E+00 6.80907E-02 1.91859E+01 1.73369E-03-1.39541E-02
 -1      6264-1.26075E+01 1.24206E+00 6.40114E-02 1.89879E+01 1.90047E-03-1.28489E-02
 -1      6265-1.25122E+01 1.13905E+00 6.02232E-02 1.88389E+01 1.72344E-03-1.07582E-02
 -1      6266-1.24474E+01 1.07059E+00 5.72566E-02 1.87395E+01 1.20546E-03-7.24548E-03
 -1      6267-1.24146E+01 1.03643E+00 5.56136E-02 1.86897E+01 4.32899E-04-2.56401E-03
 -1      6268-1.24146E+01 1.03643E+00 5.56136E-02 1.86897E+01-4.32899E-04 2.56401E-03
 -1      6269-1.24474E+01 1.07059E+00 5.72566E-02 1.87395E+01-1.20546E-03 7.24548E-03
 -1      6270-1.25122E+01 1.13905E+00 6.02232E-02 1.88389E+01-1.72344E-03 1.07582E-02
 -1      6271-1.26075E+01 1.24206E+00 6.40114E-02 1.89879E+01-1.90047E-03 1.28489E-02
 -1      6272-1.27316E+01 1.37989E+00 6.80907E-02 1.91859E+01-1.73369E-03 1.39541E-02
 -1      6273-1.03402E+01-7.02371E+00 1.13231E-02 1.99420E+01 1.81593E-03-2.40301E-02
 -1      6274-1.02656E+01-7.09946E+00 4.71028E-03 1.96861E+01 3.41113E-03-2.67075E-02
 -1      6275-1.02033E+01-7.15497E+00-2.84266E-03 1.94931E+01 3.72970E-03-2.45574E-02
 -1      6276-1.01584E+01-7.19141E+00-9.44883E-03 1.93638E+01 2.81582E-03-1.72901E-02
 -1      6277-1.01349E+01-7.20947E+00-1.32876E-02 1.92989E+01 1.04190E-03-6.22647E-03
 -1      6278-1.01349E+01-7.20947E+00-1.32876E-02 1.92989E+01-1.04190E-03 6.22647E-03
 -1      6279-1.01584E+01-7.19141E+00-9.44883E-03 1.93638E+01-2.81582E-03 1.72901E-02
 -1      6280-1.02033E+01-7.15497E+00-2.84266E-03 1.94931E+01-3.72970E-03 2.45574E-02
 -1      6281-1.02656E+01-7.09946E+00 4.71028E-03 1.96861E+01-3.41113E-03 2.67075E-02
 -1      6282-1.03402E+01-7.02371E+00 1.13231E-02 1.99420E+01-1.81593E-03 2.40301E-02
 -1      6283-7.27693E+00-1.60937E+01-8.14440E-02 1.86790E+01 4.67082E-03-4.24993E-02
 -1      6284-7.25686E+00-1.60712E+01-9.22702E-02 1.83826E+01 8.90941E-03-5.49343E-02
 -1      6285-7.22967E+00-1.60523E+01-1.07365E-01 1.81576E+01 9.67610E-03-5.27919E-02
 -1      6286-7.20601E+00-1.60388E+01-1.20859E-01 1.80064E+01 7.29668E-03-3.75311E-02
 -1      6287-7.19257E+00-1.60318E+01-1.28606E-01 1.79305E+01 2.69490E-03-1.35223E-02
 -1      6288-7.19257E+00-1.60318E+01-1.28606E-01 1.79305E+01-2.69490E-03 1.35223E-02
 -1      6289-7.20601E+00-1.60388E+01-1.20859E-01 1.80064E+01-7.29668E-03 3.75311E-02
 -1      6290-7.22967E+00-1.60523E+01-1.07365E-01 1.81576E+01-9.67610E-03 5.27919E-02
 -1      6291-7.25686E+00-1.60712E+01-9.22702E-02 1.83826E+01-8.90941E-03 5.49343E-02
 -1      6292-7.27693E+00-1.60937E+01-8.14440E-02 1.86790E+01-4.67082E-03 4.24993E-02
 -1      6293-4.16237E+00-2.47789E+01-1.95023E-01 1.49131E+01 8.91209E-03-6.75974E-02
 -1      6294-4.17696E+00-2.46261E+01-2.12197E-01 1.46056E+01 1.75005E-02-9.54649E-02
 -1      6295-4.17478E+00-2.45089E+01-2.33894E-01 1.43752E+01 1.76527E-02-9.09243E-02
 -1      6296-4.16757E+00-2.44300E+01-2.51214E-01 1.42223E+01 1.21280E-02-6.34263E-02
 -1      6297-4.16234E+00-2.43904E+01-2.60527E-01 1.41462E+01 4.23206E-03-2.25974E-02
 -1      6298-4.16234E+00-2.43904E+01-2.60527E-01 1.41462E+01-4.23206E-03 2.25974E-02
 -1      6299-4.16757E+00-2.44300E+01-2.51214E-01 1.42223E+01-1.21280E-02 6.34263E-02
 -1      6300-4.17478E+00-2.45089E+01-2.33894E-01 1.43752E+01-1.76527E-02 9.09243E-02
 -1      6301-4.17696E+00-2.46261E+01-2.12197E-01 1.46056E+01-1.75005E-02 9.54649E-02
 -1      6302-4.16237E+00-2.47789E+01-1.95023E-01 1.49131E+01-8.91209E-03 6.75974E-02
 -1      6303-1.81855E+00-3.16896E+01-2.92063E-01 8.49720E+00 5.98489E-03-6.94324E-02
 -1      6304-1.83426E+00-3.13866E+01-2.90463E-01 8.25862E+00-6.51934E-03-1.00801E-01
 -1      6305-1.84067E+00-3.11676E+01-2.84360E-01 8.09160E+00-1.95119E-02-9.27214E-02
 -1      6306-1.84218E+00-3.10266E+01-2.76460E-01 7.98494E+00-1.92891E-02-6.31168E-02
 -1      6307-1.84209E+00-3.09578E+01-2.71111E-01 7.93287E+00-7.81808E-03-2.22165E-02
 -1      6308-1.84209E+00-3.09578E+01-2.71111E-01 7.93287E+00 7.81808E-03 2.22165E-02
 -1      6309-1.84218E+00-3.10266E+01-2.76460E-01 7.98494E+00 1.92891E-02 6.31168E-02
 -1      6310-1.84067E+00-3.11676E+01-2.84360E-01 8.09160E+00 1.95119E-02 9.27214E-02
 -1      6311-1.83426E+00-3.13866E+01-2.90463E-01 8.25862E+00 6.51934E-03 1.00801E-01
 -1      6312-1.81855E+00-3.16896E+01-2.92063E-01 8.49720E+00-5.98489E-03 6.94324E-02
 -1      6313 6.91386E+00 1.41687E+01-4.89831E-01 2.16072E+00-5.30689E-01-1.36842E-01
 -1      6314 7.29173E+00 1.43365E+01 7.98722E-01 1.85015E+00-1.00301E+00-1.87199E-01
 -1      6315 7.51333E+00 1.44018E+01 1.59344E+00 1.65934E+00-8.59469E-01-1.61515E-01
 -1      6316 7.63347E+00 1.44256E+01 2.04132E+00 1.54595E+00-5.50373E-01-1.05618E-01
 -1      6317 7.68656E+00 1.44333E+01 2.24369E+00 1.49265E+00-1.87795E-01-3.64766E-02
 -1      6318 7.68656E+00 1.44333E+01 2.24369E+00 1.49265E+00 1.87795E-01 3.64766E-02
 -1      6319 7.63347E+00 1.44256E+01 2.04132E+00 1.54595E+00 5.50373E-01 1.05618E-01
 -1      6320 7.51333E+00 1.44018E+01 1.59344E+00 1.65934E+00 8.59469E-01 1.61515E-01
 -1      6321 7.29173E+00 1.43365E+01 7.98722E-01 1.85015E+00 1.00301E+00 1.87199E-01
 -1      6322 6.91386E+00 1.41687E+01-4.89831E-01 2.16072E+00 5.30689E-01 1.36842E-01
 -1      6323 9.03036E+00 1.40622E+01 2.52411E-01 2.41470E-01 2.51537E-02-1.44782E-01
 -1      6324 8.92204E+00 1.43115E+01-6.24062E-02 7.32414E-02 8.24591E-02-1.86493E-01
 -1      6325 8.92985E+00 1.44531E+01 1.55286E-02-6.12091E-02-1.48940E-02-1.72166E-01
 -1      6326 8.95921E+00 1.45301E+01 1.53493E-01-1.50771E-01-4.37459E-02-1.17288E-01
 -1      6327 8.97854E+00 1.45639E+01 2.39382E-01-1.95181E-01-2.03657E-02-4.12642E-02
 -1      6328 8.97854E+00 1.45639E+01 2.39382E-01-1.95181E-01 2.03657E-02 4.12642E-02
 -1      6329 8.95921E+00 1.45301E+01 1.53493E-01-1.50771E-01 4.37459E-02 1.17288E-01
 -1      6330 8.92985E+00 1.44531E+01 1.55286E-02-6.12091E-02 1.48940E-02 1.72166E-01
 -1      6331 8.92204E+00 1.43115E+01-6.24062E-02 7.32414E-02-8.24591E-02 1.86493E-01
 -1      6332 9.03036E+00 1.40622E+01 2.52411E-01 2.41470E-01-2.51537E-02 1.44782E-01
 -1      6333 9.98279E+00 1.36626E+01-4.04913E-02-1.54259E+00 1.13963E-01-5.91483E-02
 -1      6334 1.00302E+01 1.40872E+01-1.62661E-02-1.56021E+00 1.80735E-01-9.13381E-02
 -1      6335 1.00118E+01 1.43345E+01-1.09470E-01-1.60025E+00 1.84352E-01-8.99604E-02
 -1      6336 9.99547E+00 1.44763E+01-1.66397E-01-1.63709E+00 1.23152E-01-6.46810E-02
 -1      6337 9.98801E+00 1.45415E+01-1.88475E-01-1.65802E+00 4.22299E-02-2.33942E-02
 -1      6338 9.98801E+00 1.45415E+01-1.88475E-01-1.65802E+00-4.22299E-02 2.33942E-02
 -1      6339 9.99547E+00 1.44763E+01-1.66397E-01-1.63709E+00-1.23152E-01 6.46810E-02
 -1      6340 1.00118E+01 1.43345E+01-1.09470E-01-1.60025E+00-1.84352E-01 8.99604E-02
 -1      6341 1.00302E+01 1.40872E+01-1.62661E-02-1.56021E+00-1.80735E-01 9.13381E-02
 -1      6342 9.98279E+00 1.36626E+01-4.04913E-02-1.54259E+00-1.13963E-01 5.91483E-02
 -1      6343 1.06251E+01 1.40639E+01-1.79719E-02-3.02738E+00 6.34484E-02-1.97609E-02
 -1      6344 1.05799E+01 1.42134E+01-5.13596E-02-3.00049E+00 1.07411E-01-2.98800E-02
 -1      6345 1.05626E+01 1.43775E+01-7.56717E-02-2.98698E+00 1.10342E-01-3.17140E-02
 -1      6346 1.05476E+01 1.44956E+01-1.11945E-01-2.98321E+00 8.28865E-02-2.34819E-02
 -1      6347 1.05389E+01 1.45558E+01-1.35345E-01-2.98311E+00 3.05143E-02-8.62476E-03
 -1      6348 1.05389E+01 1.45558E+01-1.35345E-01-2.98311E+00-3.05143E-02 8.62476E-03
 -1      6349 1.05476E+01 1.44956E+01-1.11945E-01-2.98321E+00-8.28865E-02 2.34819E-02
 -1      6350 1.05626E+01 1.43775E+01-7.56717E-02-2.98698E+00-1.10342E-01 3.17140E-02
 -1      6351 1.05799E+01 1.42134E+01-5.13596E-02-3.00049E+00-1.07411E-01 2.98800E-02
 -1      6352 1.06251E+01 1.40639E+01-1.79719E-02-3.02738E+00-6.34484E-02 1.97609E-02
 -1      6353 1.07526E+01 1.45781E+01-5.62543E-03-4.25935E+00 2.35458E-02-4.01687E-03
 -1      6354 1.07044E+01 1.46587E+01-1.56974E-02-4.21146E+00 4.00843E-02-6.72671E-03
 -1      6355 1.06688E+01 1.47313E+01-3.34830E-02-4.17883E+00 4.35765E-02-7.36486E-03
 -1      6356 1.06485E+01 1.47914E+01-4.61692E-02-4.15828E+00 3.25678E-02-5.79848E-03
 -1      6357 1.06389E+01 1.48248E+01-5.40649E-02-4.14845E+00 1.20815E-02-2.18050E-03
 -1      6358 1.06389E+01 1.48248E+01-5.40649E-02-4.14845E+00-1.20815E-02 2.18050E-03
 -1      6359 1.06485E+01 1.47914E+01-4.61692E-02-4.15828E+00-3.25678E-02 5.79848E-03
 -1      6360 1.06688E+01 1.47313E+01-3.34830E-02-4.17883E+00-4.35765E-02 7.36486E-03
 -1      6361 1.07044E+01 1.46587E+01-1.56974E-02-4.21146E+00-4.00843E-02 6.72671E-03
 -1      6362 1.07526E+01 1.45781E+01-5.62543E-03-4.25935E+00-2.35458E-02 4.01687E-03
 -1      6363 1.04579E+01 1.52287E+01 2.33505E-03-5.25273E+00 5.19929E-03 3.77882E-05
 -1      6364 1.04118E+01 1.52736E+01-1.36216E-03-5.19787E+00 9.48209E-03-1.03540E-04
 -1      6365 1.03789E+01 1.53141E+01-5.80660E-03-5.15712E+00 1.08833E-02-4.27970E-04
 -1      6366 1.03571E+01 1.53437E+01-1.07589E-02-5.13041E+00 8.65261E-03-4.47284E-04
 -1      6367 1.03465E+01 1.53597E+01-1.33801E-02-5.11717E+00 3.24882E-03-1.96440E-04
 -1      6368 1.03465E+01 1.53597E+01-1.33801E-02-5.11717E+00-3.24882E-03 1.96440E-04
 -1      6369 1.03571E+01 1.53437E+01-1.07589E-02-5.13041E+00-8.65261E-03 4.47284E-04
 -1      6370 1.03789E+01 1.53141E+01-5.80660E-03-5.15712E+00-1.08833E-02 4.27970E-04
 -1      6371 1.04118E+01 1.52736E+01-1.36216E-03-5.19787E+00-9.48209E-03 1.03540E-04
 -1      6372 1.04579E+01 1.52287E+01 2.33505E-03-5.25273E+00-5.19929E-03-3.77882E-05
 -1      6373 9.80764E+00 1.60033E+01 2.48735E-03-6.01929E+00-5.92207E-04 3.78694E-04
 -1      6374 9.76997E+00 1.60357E+01 1.94730E-03-5.96048E+00-4.03094E-04 6.46971E-04
 -1      6375 9.74197E+00 1.60612E+01 1.09304E-03-5.91634E+00 1.75497E-04 6.16722E-04
 -1      6376 9.72359E+00 1.60793E+01 3.71684E-04-5.88689E+00 4.10334E-04 4.08457E-04
 -1      6377 9.71440E+00 1.60886E+01-2.12973E-04-5.87218E+00 2.12746E-04 1.43996E-04
 -1      6378 9.71440E+00 1.60886E+01-2.12973E-04-5.87218E+00-2.12746E-04-1.43996E-04
 -1      6379 9.72359E+00 1.60793E+01 3.71684E-04-5.88689E+00-4.10334E-04-4.08457E-04
 -1      6380 9.74197E+00 1.60612E+01 1.09304E-03-5.91634E+00-1.75497E-04-6.16722E-04
 -1      6381 9.76997E+00 1.60357E+01 1.94730E-03-5.96048E+00 4.03094E-04-6.46971E-04
 -1      6382 9.80764E+00 1.60033E+01 2.48735E-03-6.01929E+00 5.92207E-04-3.78694E-04
 -1      6383 8.86161E+00 1.68839E+01-4.15288E-04-6.56395E+00-1.40177E-03 3.71376E-06
 -1      6384 8.83334E+00 1.69085E+01-2.55803E-04-6.50215E+00-1.97693E-03 2.29136E-04
 -1      6385 8.81218E+00 1.69270E+01 8.81417E-06-6.45569E+00-1.81829E-03 2.86788E-04
 -1      6386 8.79809E+00 1.69393E+01 1.89072E-04-6.42467E+00-1.22198E-03 2.23251E-04
 -1      6387 8.79108E+00 1.69455E+01 3.11412E-04-6.40914E+00-4.28842E-04 8.16834E-05
 -1      6388 8.79108E+00 1.69455E+01 3.11412E-04-6.40914E+00 4.28842E-04-8.16834E-05
 -1      6389 8.79809E+00 1.69393E+01 1.89072E-04-6.42467E+00 1.22198E-03-2.23251E-04
 -1      6390 8.81218E+00 1.69270E+01 8.81417E-06-6.45569E+00 1.81829E-03-2.86788E-04
 -1      6391 8.83334E+00 1.69085E+01-2.55803E-04-6.50215E+00 1.97693E-03-2.29136E-04
 -1      6392 8.86161E+00 1.68839E+01-4.15288E-04-6.56395E+00 1.40177E-03-3.71376E-06
 -1      6393 7.66915E+00 1.78388E+01-3.90972E-03-6.88884E+00-9.29764E-04-2.82700E-04
 -1      6394 7.65050E+00 1.78558E+01-3.71963E-03-6.82459E+00-1.37185E-03-1.49637E-04
 -1      6395 7.63648E+00 1.78683E+01-3.42084E-03-6.77634E+00-1.34962E-03-5.95452E-05
 -1      6396 7.62714E+00 1.78765E+01-3.14158E-03-6.74414E+00-9.62866E-04-1.48312E-05
 -1      6397 7.62246E+00 1.78806E+01-2.98695E-03-6.72804E+00-3.45954E-04-8.55547E-07
 -1      6398 7.62246E+00 1.78806E+01-2.98695E-03-6.72804E+00 3.45954E-04 8.55547E-07
 -1      6399 7.62714E+00 1.78765E+01-3.14158E-03-6.74414E+00 9.62866E-04 1.48312E-05
 -1      6400 7.63648E+00 1.78683E+01-3.42084E-03-6.77634E+00 1.34962E-03 5.95452E-05
 -1      6401 7.65050E+00 1.78558E+01-3.71963E-03-6.82459E+00 1.37185E-03 1.49637E-04
 -1      6402 7.66915E+00 1.78388E+01-3.90972E-03-6.88884E+00 9.29764E-04 2.82700E-04
 -1      6403 6.27287E+00 1.88313E+01-6.88684E-03-6.99486E+00-3.90776E-04-4.03608E-04
 -1      6404 6.26390E+00 1.88398E+01-6.81214E-03-6.92883E+00-6.14570E-04-3.22208E-04
 -1      6405 6.25714E+00 1.88460E+01-6.66244E-03-6.87928E+00-6.36225E-04-2.29416E-04
 -1      6406 6.25262E+00 1.88500E+01-6.51503E-03-6.84624E+00-4.68954E-04-1.35637E-04
 -1      6407 6.25036E+00 1.88520E+01-6.42458E-03-6.82971E+00-1.71886E-04-4.48253E-05
 -1      6408 6.25036E+00 1.88520E+01-6.42458E-03-6.82971E+00 1.71886E-04 4.48253E-05
 -1      6409 6.25262E+00 1.88500E+01-6.51503E-03-6.84624E+00 4.68954E-04 1.35637E-04
 -1      6410 6.25714E+00 1.88460E+01-6.66244E-03-6.87928E+00 6.36225E-04 2.29416E-04
 -1      6411 6.26390E+00 1.88398E+01-6.81214E-03-6.92883E+00 6.14570E-04 3.22208E-04
 -1      6412 6.27287E+00 1.88313E+01-6.88684E-03-6.99486E+00 3.90776E-04 4.03608E-04
 -1      6413 4.71005E+00 1.98237E+01-9.01942E-03-6.88244E+00-1.94754E-05-4.22344E-04
 -1      6414 4.71084E+00 1.98229E+01-9.03517E-03-6.81539E+00-1.20492E-04-3.66390E-04
 -1      6415 4.71142E+00 1.98223E+01-9.00755E-03-6.76510E+00-1.61818E-04-2.79678E-04
 -1      6416 4.71181E+00 1.98218E+01-8.96621E-03-6.73157E+00-1.33210E-04-1.74282E-04
 -1      6417 4.71200E+00 1.98215E+01-8.93820E-03-6.71480E+00-5.09634E-05-5.90625E-05
 -1      6418 4.71200E+00 1.98215E+01-8.93820E-03-6.71480E+00 5.09634E-05 5.90625E-05
 -1      6419 4.71181E+00 1.98218E+01-8.96621E-03-6.73157E+00 1.33210E-04 1.74282E-04
 -1      6420 4.71142E+00 1.98223E+01-9.00755E-03-6.76510E+00 1.61818E-04 2.79678E-04
 -1      6421 4.71084E+00 1.98229E+01-9.03517E-03-6.81539E+00 1.20492E-04 3.66390E-04
 -1      6422 4.71005E+00 1.98237E+01-9.01942E-03-6.88244E+00 1.94754E-05 4.22344E-04
 -1      6423 3.01283E+00 2.07794E+01-1.02014E-02-6.55143E+00 2.25777E-04-3.92603E-04
 -1      6424 3.02357E+00 2.07688E+01-1.02673E-02-6.48415E+00 1.62829E-04-3.52253E-04
 -1      6425 3.03162E+00 2.07609E+01-1.03061E-02-6.43370E+00 1.00091E-04-2.75969E-04
 -1      6426 3.03698E+00 2.07556E+01-1.03247E-02-6.40006E+00 5.06445E-05-1.74997E-04
 -1      6427 3.03967E+00 2.07529E+01-1.03313E-02-6.38325E+00 1.49909E-05-5.98728E-05
 -1      6428 3.03967E+00 2.07529E+01-1.03313E-02-6.38325E+00-1.49909E-05 5.98728E-05
 -1      6429 3.03698E+00 2.07556E+01-1.03247E-02-6.40006E+00-5.06445E-05 1.74997E-04
 -1      6430 3.03162E+00 2.07609E+01-1.03061E-02-6.43370E+00-1.00091E-04 2.75969E-04
 -1      6431 3.02357E+00 2.07688E+01-1.02673E-02-6.48415E+00-1.62829E-04 3.52253E-04
 -1      6432 3.01283E+00 2.07794E+01-1.02014E-02-6.55143E+00-2.25777E-04 3.92603E-04
 -1      6433 1.20843E+00 2.16625E+01-1.03375E-02-6.00022E+00 4.14931E-04-3.43661E-04
 -1      6434 1.22938E+00 2.16419E+01-1.04309E-02-5.93351E+00 3.42614E-04-3.18474E-04
 -1      6435 1.24509E+00 2.16263E+01-1.05032E-02-5.88348E+00 2.51576E-04-2.54676E-04
 -1      6436 1.25556E+00 2.16160E+01-1.05511E-02-5.85012E+00 1.52404E-04-1.63527E-04
 -1      6437 1.26080E+00 2.16108E+01-1.05747E-02-5.83345E+00 5.09072E-05-5.62718E-05
 -1      6438 1.26080E+00 2.16108E+01-1.05747E-02-5.83345E+00-5.09072E-05 5.62718E-05
 -1      6439 1.25556E+00 2.16160E+01-1.05511E-02-5.85012E+00-1.52404E-04 1.63527E-04
 -1      6440 1.24509E+00 2.16263E+01-1.05032E-02-5.88348E+00-2.51576E-04 2.54676E-04
 -1      6441 1.22938E+00 2.16419E+01-1.04309E-02-5.93351E+00-3.42614E-04 3.18474E-04
 -1      6442 1.20843E+00 2.16625E+01-1.03375E-02-6.00022E+00-4.14931E-04 3.43661E-04
 -1      6443-6.80057E-01 2.24371E+01-9.26199E-03-5.22425E+00 5.91678E-04-2.92952E-04
 -1      6444-6.48516E-01 2.24058E+01-9.37919E-03-5.15893E+00 4.88294E-04-2.85241E-04
 -1      6445-6.24852E-01 2.23823E+01-9.47412E-03-5.10994E+00 3.62380E-04-2.34314E-04
 -1      6446-6.09073E-01 2.23666E+01-9.54003E-03-5.07728E+00 2.22314E-04-1.52656E-04
 -1      6447-6.01182E-01 2.23588E+01-9.57360E-03-5.06095E+00 7.48541E-05-5.28739E-05
 -1      6448-6.01182E-01 2.23588E+01-9.57360E-03-5.06095E+00-7.48541E-05 5.28739E-05
 -1      6449-6.09073E-01 2.23666E+01-9.54003E-03-5.07728E+00-2.22314E-04 1.52656E-04
 -1      6450-6.24852E-01 2.23823E+01-9.47412E-03-5.10994E+00-3.62380E-04 2.34314E-04
 -1      6451-6.48516E-01 2.24058E+01-9.37919E-03-5.15893E+00-4.88294E-04 2.85241E-04
 -1      6452-6.80057E-01 2.24371E+01-9.26199E-03-5.22425E+00-5.91678E-04 2.92952E-04
 -1      6453-2.63160E+00 2.30639E+01-6.72227E-03-4.21441E+00 7.75119E-04-2.56754E-04
 -1      6454-2.58888E+00 2.30213E+01-6.87314E-03-4.15142E+00 6.31925E-04-2.67858E-04
 -1      6455-2.55682E+00 2.29894E+01-6.99513E-03-4.10419E+00 4.66062E-04-2.27351E-04
 -1      6456-2.53545E+00 2.29681E+01-7.08001E-03-4.07270E+00 2.85141E-04-1.50540E-04
 -1      6457-2.52476E+00 2.29575E+01-7.12335E-03-4.05695E+00 9.59194E-05-5.24976E-05
 -1      6458-2.52476E+00 2.29575E+01-7.12335E-03-4.05695E+00-9.59194E-05 5.24976E-05
 -1      6459-2.53545E+00 2.29681E+01-7.08001E-03-4.07270E+00-2.85141E-04 1.50540E-04
 -1      6460-2.55682E+00 2.29894E+01-6.99513E-03-4.10419E+00-4.66062E-04 2.27351E-04
 -1      6461-2.58888E+00 2.30213E+01-6.87314E-03-4.15142E+00-6.31925E-04 2.67858E-04
 -1      6462-2.63160E+00 2.30639E+01-6.72227E-03-4.21441E+00-7.75119E-04 2.56754E-04
 -1      6463-4.62339E+00 2.34966E+01-2.39096E-03-2.95576E+00 9.69703E-04-2.56739E-04
 -1      6464-4.56869E+00 2.34419E+01-2.59611E-03-2.89638E+00 7.83788E-04-2.84237E-04
 -1      6465-4.52765E+00 2.34008E+01-2.75948E-03-2.85183E+00 5.74409E-04-2.47101E-04
 -1      6466-4.50028E+00 2.33735E+01-2.87204E-03-2.82213E+00 3.49968E-04-1.65356E-04
 -1      6467-4.48660E+00 2.33598E+01-2.92921E-03-2.80729E+00 1.17484E-04-5.79022E-05
 -1      6468-4.48660E+00 2.33598E+01-2.92921E-03-2.80729E+00-1.17484E-04 5.79022E-05
 -1      6469-4.50028E+00 2.33735E+01-2.87204E-03-2.82213E+00-3.49968E-04 1.65356E-04
 -1      6470-4.52765E+00 2.34008E+01-2.75948E-03-2.85183E+00-5.74409E-04 2.47101E-04
 -1      6471-4.56869E+00 2.34419E+01-2.59611E-03-2.89638E+00-7.83788E-04 2.84237E-04
 -1      6472-4.62339E+00 2.34966E+01-2.39096E-03-2.95576E+00-9.69703E-04 2.56739E-04
 -1      6473-6.62518E+00 2.36759E+01 4.09048E-03-1.42785E+00 1.17159E-03-3.24295E-04
 -1      6474-6.55751E+00 2.36080E+01 3.80056E-03-1.37384E+00 9.43101E-04-3.59084E-04
 -1      6475-6.50673E+00 2.35570E+01 3.57370E-03-1.33332E+00 6.88301E-04-3.11213E-04
 -1      6476-6.47288E+00 2.35230E+01 3.41935E-03-1.30631E+00 4.17977E-04-2.07653E-04
 -1      6477-6.45595E+00 2.35060E+01 3.34156E-03-1.29281E+00 1.40060E-04-7.25923E-05
 -1      6478-6.45595E+00 2.35060E+01 3.34156E-03-1.29281E+00-1.40060E-04 7.25923E-05
 -1      6479-6.47288E+00 2.35230E+01 3.41935E-03-1.30631E+00-4.17977E-04 2.07653E-04
 -1      6480-6.50673E+00 2.35570E+01 3.57370E-03-1.33332E+00-6.88301E-04 3.11213E-04
 -1      6481-6.55751E+00 2.36080E+01 3.80056E-03-1.37384E+00-9.43101E-04 3.59084E-04
 -1      6482-6.62518E+00 2.36759E+01 4.09048E-03-1.42785E+00-1.17159E-03 3.24295E-04
 -1      6483-8.59168E+00 2.35227E+01 1.30192E-02 3.92521E-01 1.37114E-03-5.03618E-04
 -1      6484-8.51000E+00 2.34403E+01 1.26042E-02 4.38538E-01 1.10305E-03-5.26018E-04
 -1      6485-8.44873E+00 2.33784E+01 1.22850E-02 4.73056E-01 8.03209E-04-4.43079E-04
 -1      6486-8.40787E+00 2.33372E+01 1.20705E-02 4.96073E-01 4.86586E-04-2.91158E-04
 -1      6487-8.38744E+00 2.33166E+01 1.19632E-02 5.07583E-01 1.62810E-04-1.01087E-04
 -1      6488-8.38744E+00 2.33166E+01 1.19632E-02 5.07583E-01-1.62810E-04 1.01087E-04
 -1      6489-8.40787E+00 2.33372E+01 1.20705E-02 4.96073E-01-4.86586E-04 2.91158E-04
 -1      6490-8.44873E+00 2.33784E+01 1.22850E-02 4.73056E-01-8.03210E-04 4.43079E-04
 -1      6491-8.51000E+00 2.34403E+01 1.26042E-02 4.38538E-01-1.10305E-03 5.26018E-04
 -1      6492-8.59168E+00 2.35227E+01 1.30192E-02 3.92521E-01-1.37114E-03 5.03618E-04
 -1      6493-1.04538E+01 2.29302E+01 2.44610E-02 2.52403E+00 1.55318E-03-8.52511E-04
 -1      6494-1.03574E+01 2.28324E+01 2.38721E-02 2.55829E+00 1.25269E-03-8.26463E-04
 -1      6495-1.02850E+01 2.27589E+01 2.34267E-02 2.58399E+00 9.11701E-04-6.70068E-04
 -1      6496-1.02368E+01 2.27100E+01 2.31312E-02 2.60113E+00 5.51468E-04-4.31327E-04
 -1      6497-1.02127E+01 2.26855E+01 2.29846E-02 2.60970E+00 1.84311E-04-1.48370E-04
 -1      6498-1.02127E+01 2.26855E+01 2.29846E-02 2.60970E+00-1.84311E-04 1.48370E-04
 -1      6499-1.02368E+01 2.27100E+01 2.31312E-02 2.60113E+00-5.51468E-04 4.31327E-04
 -1      6500-1.02850E+01 2.27589E+01 2.34267E-02 2.58399E+00-9.11701E-04 6.70068E-04
 -1      6501-1.03574E+01 2.28324E+01 2.38721E-02 2.55829E+00-1.25269E-03 8.26463E-04
 -1      6502-1.04538E+01 2.29302E+01 2.44610E-02 2.52403E+00-1.55318E-03 8.52511E-04
 -1      6503-1.21103E+01 2.17592E+01 3.79728E-02 4.96761E+00 1.69590E-03-1.43777E-03
 -1      6504-1.19993E+01 2.16457E+01 3.71583E-02 4.98493E+00 1.37709E-03-1.30181E-03
 -1      6505-1.19160E+01 2.15605E+01 3.65539E-02 4.99793E+00 1.00418E-03-1.01568E-03
 -1      6506-1.18604E+01 2.15037E+01 3.61587E-02 5.00660E+00 6.07312E-04-6.39742E-04
 -1      6507-1.18327E+01 2.14753E+01 3.59643E-02 5.01094E+00 2.02872E-04-2.17877E-04
 -1      6508-1.18327E+01 2.14753E+01 3.59643E-02 5.01094E+00-2.02872E-04 2.17877E-04
 -1      6509-1.18604E+01 2.15037E+01 3.61587E-02 5.00660E+00-6.07312E-04 6.39742E-04
 -1      6510-1.19160E+01 2.15605E+01 3.65539E-02 4.99793E+00-1.00418E-03 1.01568E-03
 -1      6511-1.19993E+01 2.16457E+01 3.71583E-02 4.98493E+00-1.37709E-03 1.30181E-03
 -1      6512-1.21103E+01 2.17592E+01 3.79728E-02 4.96761E+00-1.69590E-03 1.43777E-03
 -1      6513-1.34234E+01 1.98375E+01 5.22111E-02 7.68569E+00 1.76728E-03-2.32219E-03
 -1      6514-1.32996E+01 1.97099E+01 5.11292E-02 7.67944E+00 1.45405E-03-1.97727E-03
 -1      6515-1.32067E+01 1.96141E+01 5.03451E-02 7.67475E+00 1.06643E-03-1.48542E-03
 -1      6516-1.31448E+01 1.95502E+01 4.98412E-02 7.67163E+00 6.46327E-04-9.14854E-04
 -1      6517-1.31139E+01 1.95182E+01 4.95962E-02 7.67007E+00 2.16025E-04-3.08303E-04
 -1      6518-1.31139E+01 1.95182E+01 4.95962E-02 7.67007E+00-2.16025E-04 3.08303E-04
 -1      6519-1.31448E+01 1.95502E+01 4.98412E-02 7.67163E+00-6.46327E-04 9.14854E-04
 -1      6520-1.32067E+01 1.96141E+01 5.03451E-02 7.67475E+00-1.06643E-03 1.48542E-03
 -1      6521-1.32996E+01 1.97099E+01 5.11292E-02 7.67944E+00-1.45405E-03 1.97727E-03
 -1      6522-1.34234E+01 1.98375E+01 5.22111E-02 7.68569E+00-1.76728E-03 2.32219E-03
 -1      6523-1.42231E+01 1.69727E+01 6.44799E-02 1.05745E+01 1.71804E-03-3.54885E-03
 -1      6524-1.40911E+01 1.68352E+01 6.31167E-02 1.05369E+01 1.44595E-03-2.85192E-03
 -1      6525-1.39922E+01 1.67320E+01 6.21553E-02 1.05087E+01 1.07253E-03-2.06411E-03
 -1      6526-1.39263E+01 1.66631E+01 6.15496E-02 1.04899E+01 6.53588E-04-1.24311E-03
 -1      6527-1.38934E+01 1.66287E+01 6.12586E-02 1.04805E+01 2.18945E-04-4.14544E-04
 -1      6528-1.38934E+01 1.66287E+01 6.12586E-02 1.04805E+01-2.18945E-04 4.14544E-04
 -1      6529-1.39263E+01 1.66631E+01 6.15496E-02 1.04899E+01-6.53588E-04 1.24311E-03
 -1      6530-1.39922E+01 1.67320E+01 6.21553E-02 1.05087E+01-1.07253E-03 2.06411E-03
 -1      6531-1.40911E+01 1.68352E+01 6.31167E-02 1.05369E+01-1.44595E-03 2.85192E-03
 -1      6532-1.42231E+01 1.69727E+01 6.44799E-02 1.05745E+01-1.71804E-03 3.54885E-03
 -1      6533-1.43270E+01 1.29831E+01 7.03879E-02 1.34331E+01 1.47915E-03-5.15768E-03
 -1      6534-1.41956E+01 1.28440E+01 6.87611E-02 1.33564E+01 1.29700E-03-3.95767E-03
 -1      6535-1.40970E+01 1.27396E+01 6.76317E-02 1.32989E+01 9.84658E-04-2.79189E-03
 -1      6536-1.40314E+01 1.26699E+01 6.69226E-02 1.32606E+01 6.08249E-04-1.66097E-03
 -1      6537-1.39986E+01 1.26351E+01 6.65808E-02 1.32414E+01 2.05052E-04-5.51397E-04
 -1      6538-1.39986E+01 1.26351E+01 6.65808E-02 1.32414E+01-2.05052E-04 5.51397E-04
 -1      6539-1.40314E+01 1.26699E+01 6.69226E-02 1.32606E+01-6.08249E-04 1.66097E-03
 -1      6540-1.40970E+01 1.27396E+01 6.76317E-02 1.32989E+01-9.84658E-04 2.79189E-03
 -1      6541-1.41956E+01 1.28440E+01 6.87611E-02 1.33564E+01-1.29700E-03 3.95767E-03
 -1      6542-1.43270E+01 1.29831E+01 7.03879E-02 1.34331E+01-1.47915E-03 5.15768E-03
 -1      6543-1.35818E+01 7.75431E+00 6.39233E-02 1.59401E+01 9.96770E-04-7.32534E-03
 -1      6544-1.34639E+01 7.62699E+00 6.20160E-02 1.58186E+01 9.88950E-04-5.63986E-03
 -1      6545-1.33754E+01 7.53151E+00 6.06110E-02 1.57274E+01 8.11818E-04-4.07440E-03
 -1      6546-1.33162E+01 7.46787E+00 5.96648E-02 1.56666E+01 5.27253E-04-2.48981E-03
 -1      6547-1.32866E+01 7.43606E+00 5.91849E-02 1.56362E+01 1.82372E-04-8.40465E-04
 -1      6548-1.32866E+01 7.43606E+00 5.91849E-02 1.56362E+01-1.82372E-04 8.40465E-04
 -1      6549-1.33162E+01 7.46787E+00 5.96648E-02 1.56666E+01-5.27253E-04 2.48981E-03
 -1      6550-1.33754E+01 7.53151E+00 6.06110E-02 1.57274E+01-8.11818E-04 4.07440E-03
 -1      6551-1.34639E+01 7.62699E+00 6.20160E-02 1.58186E+01-9.88950E-04 5.63986E-03
 -1      6552-1.35818E+01 7.75431E+00 6.39233E-02 1.59401E+01-9.96770E-04 7.32534E-03
 -1      6553-1.19260E+01 1.32192E+00 3.83280E-02 1.76543E+01 4.03231E-04-1.07745E-02
 -1      6554-1.18380E+01 1.22481E+00 3.58427E-02 1.74869E+01 7.64931E-04-9.28410E-03
 -1      6555-1.17708E+01 1.15229E+00 3.35703E-02 1.73611E+01 8.36722E-04-7.44232E-03
 -1      6556-1.17252E+01 1.10411E+00 3.17949E-02 1.72771E+01 6.35556E-04-4.89284E-03
 -1      6557-1.17021E+01 1.08008E+00 3.08131E-02 1.72350E+01 2.35834E-04-1.71321E-03
 -1      6558-1.17021E+01 1.08008E+00 3.08131E-02 1.72350E+01-2.35834E-04 1.71321E-03
 -1      6559-1.17252E+01 1.10411E+00 3.17949E-02 1.72771E+01-6.35556E-04 4.89284E-03
 -1      6560-1.17708E+01 1.15229E+00 3.35703E-02 1.73611E+01-8.36722E-04 7.44232E-03
 -1      6561-1.18380E+01 1.22481E+00 3.58427E-02 1.74869E+01-7.64931E-04 9.28410E-03
 -1      6562-1.19260E+01 1.32192E+00 3.83280E-02 1.76543E+01-4.03231E-04 1.07745E-02
 -1      6563-9.46462E+00-6.03694E+00-1.19100E-02 1.80585E+01 3.33324E-04-1.74470E-02
 -1      6564-9.42097E+00-6.08148E+00-1.60090E-02 1.78514E+01 1.66563E-03-1.84754E-02
 -1      6565-9.38389E+00-6.11383E+00-2.08329E-02 1.76954E+01 2.12186E-03-1.66775E-02
 -1      6566-9.35686E+00-6.13491E+00-2.51105E-02 1.75910E+01 1.69460E-03-1.16615E-02
 -1      6567-9.34262E+00-6.14531E+00-2.76202E-02 1.75386E+01 6.40635E-04-4.19070E-03
 -1      6568-9.34262E+00-6.14531E+00-2.76202E-02 1.75386E+01-6.40635E-04 4.19070E-03
 -1      6569-9.35686E+00-6.13491E+00-2.51105E-02 1.75910E+01-1.69460E-03 1.16615E-02
 -1      6570-9.38389E+00-6.11383E+00-2.08329E-02 1.76954E+01-2.12186E-03 1.66775E-02
 -1      6571-9.42097E+00-6.08148E+00-1.60090E-02 1.78514E+01-1.66563E-03 1.84754E-02
 -1      6572-9.46462E+00-6.03694E+00-1.19100E-02 1.80585E+01-3.33324E-04 1.74470E-02
 -1      6573-6.52753E+00-1.37343E+01-8.75106E-02 1.66594E+01 2.57598E-03-3.06033E-02
 -1      6574-6.53019E+00-1.37020E+01-9.50227E-02 1.64277E+01 5.82330E-03-3.90203E-02
 -1      6575-6.52295E+00-1.36759E+01-1.05737E-01 1.62519E+01 6.64584E-03-3.75027E-02
 -1      6576-6.51387E+00-1.36576E+01-1.15535E-01 1.61338E+01 5.13707E-03-2.67378E-02
 -1      6577-6.50807E+00-1.36481E+01-1.21232E-01 1.60745E+01 1.91840E-03-9.65195E-03
 -1      6578-6.50807E+00-1.36481E+01-1.21232E-01 1.60745E+01-1.91840E-03 9.65195E-03
 -1      6579-6.51387E+00-1.36576E+01-1.15535E-01 1.61338E+01-5.13707E-03 2.67378E-02
 -1      6580-6.52295E+00-1.36759E+01-1.05737E-01 1.62519E+01-6.64584E-03 3.75027E-02
 -1      6581-6.53019E+00-1.37020E+01-9.50227E-02 1.64277E+01-5.82330E-03 3.90203E-02
 -1      6582-6.52753E+00-1.37343E+01-8.75106E-02 1.66594E+01-2.57598E-03 3.06033E-02
 -1      6583-3.66848E+00-2.08680E+01-1.77558E-01 1.31283E+01 6.65727E-03-5.01558E-02
 -1      6584-3.69698E+00-2.07374E+01-1.90712E-01 1.28936E+01 1.36322E-02-7.15454E-02
 -1      6585-3.70762E+00-2.06367E+01-2.08513E-01 1.27173E+01 1.42890E-02-6.88325E-02
 -1      6586-3.70995E+00-2.05685E+01-2.23223E-01 1.26000E+01 1.01315E-02-4.83268E-02
 -1      6587-3.70976E+00-2.05341E+01-2.31289E-01 1.25415E+01 3.60037E-03-1.72716E-02
 -1      6588-3.70976E+00-2.05341E+01-2.31289E-01 1.25415E+01-3.60037E-03 1.72716E-02
 -1      6589-3.70995E+00-2.05685E+01-2.23223E-01 1.26000E+01-1.01315E-02 4.83268E-02
 -1      6590-3.70762E+00-2.06367E+01-2.08513E-01 1.27173E+01-1.42890E-02 6.88325E-02
 -1      6591-3.69698E+00-2.07374E+01-1.90712E-01 1.28936E+01-1.36322E-02 7.15454E-02
 -1      6592-3.66848E+00-2.08680E+01-1.77558E-01 1.31283E+01-6.65727E-03 5.01558E-02
 -1      6593-1.57126E+00-2.63112E+01-2.50828E-01 7.41035E+00 8.20943E-03-5.41862E-02
 -1      6594-1.59617E+00-2.60694E+01-2.55961E-01 7.22947E+00 1.31477E-03-8.07726E-02
 -1      6595-1.60958E+00-2.58916E+01-2.57587E-01 7.10219E+00-7.92903E-03-7.50857E-02
 -1      6596-1.61589E+00-2.57754E+01-2.56456E-01 7.02060E+00-9.42659E-03-5.14005E-02
 -1      6597-1.61826E+00-2.57181E+01-2.55040E-01 6.98068E+00-4.00374E-03-1.81393E-02
 -1      6598-1.61826E+00-2.57181E+01-2.55040E-01 6.98068E+00 4.00374E-03 1.81393E-02
 -1      6599-1.61589E+00-2.57754E+01-2.56456E-01 7.02060E+00 9.42659E-03 5.14005E-02
 -1      6600-1.60958E+00-2.58916E+01-2.57587E-01 7.10219E+00 7.92903E-03 7.50857E-02
 -1      6601-1.59617E+00-2.60694E+01-2.55961E-01 7.22947E+00-1.31477E-03 8.07726E-02
 -1      6602-1.57126E+00-2.63112E+01-2.50828E-01 7.41035E+00-8.20943E-03 5.41862E-02
 -1      6603 5.77934E+00 1.02419E+01-3.92771E-01 1.33063E+00-3.62996E-01-1.26468E-01
 -1      6604 6.04385E+00 1.03673E+01 5.43753E-01 1.04015E+00-7.20616E-01-1.74348E-01
 -1      6605 6.19984E+00 1.04156E+01 1.12751E+00 8.60812E-01-6.25323E-01-1.51675E-01
 -1      6606 6.28465E+00 1.04331E+01 1.45911E+00 7.53885E-01-4.02613E-01-9.95738E-02
 -1      6607 6.32213E+00 1.04387E+01 1.60952E+00 7.03527E-01-1.37682E-01-3.44437E-02
 -1      6608 6.32213E+00 1.04387E+01 1.60952E+00 7.03527E-01 1.37682E-01 3.44437E-02
 -1      6609 6.28465E+00 1.04331E+01 1.45911E+00 7.53885E-01 4.02613E-01 9.95738E-02
 -1      6610 6.19984E+00 1.04156E+01 1.12751E+00 8.60812E-01 6.25323E-01 1.51675E-01
 -1      6611 6.04385E+00 1.03673E+01 5.43753E-01 1.04015E+00 7.20616E-01 1.74348E-01
 -1      6612 5.77934E+00 1.02419E+01-3.92771E-01 1.33063E+00 3.62996E-01 1.26468E-01
 -1      6613 7.86522E+00 1.00173E+01 1.96168E-01-5.73917E-01 2.27537E-02-1.29841E-01
 -1      6614 7.76889E+00 1.02102E+01-4.75586E-02-7.24072E-01 7.46287E-02-1.67455E-01
 -1      6615 7.76073E+00 1.03210E+01-6.37964E-03-8.46294E-01 3.81429E-03-1.54628E-01
 -1      6616 7.77357E+00 1.03819E+01 8.47265E-02-9.28430E-01-2.23925E-02-1.05570E-01
 -1      6617 7.78367E+00 1.04089E+01 1.43179E-01-9.69338E-01-1.16380E-02-3.71936E-02
 -1      6618 7.78367E+00 1.04089E+01 1.43179E-01-9.69338E-01 1.16380E-02 3.71936E-02
 -1      6619 7.77357E+00 1.03819E+01 8.47265E-02-9.28430E-01 2.23925E-02 1.05570E-01
 -1      6620 7.76073E+00 1.03210E+01-6.37964E-03-8.46294E-01-3.81429E-03 1.54628E-01
 -1      6621 7.76889E+00 1.02102E+01-4.75586E-02-7.24072E-01-7.46287E-02 1.67455E-01
 -1      6622 7.86522E+00 1.00173E+01 1.96168E-01-5.73917E-01-2.27537E-02 1.29841E-01
 -1      6623 8.91990E+00 9.69964E+00-2.03734E-02-2.35849E+00 8.12577E-02-4.91804E-02
 -1      6624 8.93953E+00 1.00110E+01-1.71646E-03-2.37191E+00 1.30352E-01-7.76021E-02
 -1      6625 8.91514E+00 1.01980E+01-7.20997E-02-2.40532E+00 1.35829E-01-7.70085E-02
 -1      6626 8.89531E+00 1.03069E+01-1.18238E-01-2.43678E+00 9.21950E-02-5.54706E-02
 -1      6627 8.88575E+00 1.03575E+01-1.37402E-01-2.45482E+00 3.18658E-02-2.00778E-02
 -1      6628 8.88575E+00 1.03575E+01-1.37402E-01-2.45482E+00-3.18658E-02 2.00778E-02
 -1      6629 8.89531E+00 1.03069E+01-1.18238E-01-2.43678E+00-9.21950E-02 5.54706E-02
 -1      6630 8.91514E+00 1.01980E+01-7.20997E-02-2.40532E+00-1.35829E-01 7.70085E-02
 -1      6631 8.93953E+00 1.00110E+01-1.71646E-03-2.37191E+00-1.30352E-01 7.76021E-02
 -1      6632 8.91990E+00 9.69964E+00-2.03734E-02-2.35849E+00-8.12577E-02 4.91804E-02
 -1      6633 9.58805E+00 1.00718E+01-1.43172E-03-3.86921E+00 4.28569E-02-1.50018E-02
 -1      6634 9.54103E+00 1.01833E+01-2.57636E-02-3.84368E+00 7.31245E-02-2.29379E-02
 -1      6635 9.51817E+00 1.03048E+01-4.22635E-02-3.82996E+00 7.54573E-02-2.47819E-02
 -1      6636 9.50074E+00 1.03933E+01-6.76157E-02-3.82508E+00 5.71306E-02-1.85524E-02
 -1      6637 9.49112E+00 1.04386E+01-8.43224E-02-3.82413E+00 2.11391E-02-6.84453E-03
 -1      6638 9.49112E+00 1.04386E+01-8.43224E-02-3.82413E+00-2.11391E-02 6.84453E-03
 -1      6639 9.50074E+00 1.03933E+01-6.76157E-02-3.82508E+00-5.71306E-02 1.85524E-02
 -1      6640 9.51817E+00 1.03048E+01-4.22635E-02-3.82996E+00-7.54573E-02 2.47819E-02
 -1      6641 9.54103E+00 1.01833E+01-2.57636E-02-3.84368E+00-7.31245E-02 2.29379E-02
 -1      6642 9.58805E+00 1.00718E+01-1.43172E-03-3.86921E+00-4.28569E-02 1.50018E-02
 -1      6643 9.72722E+00 1.06190E+01 6.38217E-03-5.14369E+00 1.45044E-02-2.33692E-03
 -1      6644 9.68102E+00 1.06838E+01-5.48491E-06-5.10036E+00 2.50306E-02-4.15369E-03
 -1      6645 9.64645E+00 1.07402E+01-1.19047E-02-5.07036E+00 2.75211E-02-4.66722E-03
 -1      6646 9.62583E+00 1.07857E+01-2.00519E-02-5.05126E+00 2.06175E-02-3.76837E-03
 -1      6647 9.61598E+00 1.08108E+01-2.50554E-02-5.04203E+00 7.65908E-03-1.43532E-03
 -1      6648 9.61598E+00 1.08108E+01-2.50554E-02-5.04203E+00-7.65908E-03 1.43532E-03
 -1      6649 9.62583E+00 1.07857E+01-2.00519E-02-5.05126E+00-2.06175E-02 3.76837E-03
 -1      6650 9.64645E+00 1.07402E+01-1.19047E-02-5.07036E+00-2.75211E-02 4.66722E-03
 -1      6651 9.68102E+00 1.06838E+01-5.48491E-06-5.10036E+00-2.50306E-02 4.15369E-03
 -1      6652 9.72722E+00 1.06190E+01 6.38217E-03-5.14369E+00-1.45044E-02 2.33692E-03
 -1      6653 9.42338E+00 1.13536E+01 9.89084E-03-6.18783E+00 2.42321E-03 4.03811E-04
 -1      6654 9.38079E+00 1.13935E+01 7.75291E-03-6.13863E+00 4.72829E-03 5.17321E-04
 -1      6655 9.34991E+00 1.14278E+01 5.31271E-03-6.10188E+00 5.65603E-03 2.80332E-04
 -1      6656 9.32936E+00 1.14521E+01 2.37299E-03-6.07767E+00 4.62753E-03 1.09024E-04
 -1      6657 9.31928E+00 1.14650E+01 8.34474E-04-6.06564E+00 1.75325E-03 1.64653E-05
 -1      6658 9.31928E+00 1.14650E+01 8.34474E-04-6.06564E+00-1.75325E-03-1.64653E-05
 -1      6659 9.32936E+00 1.14521E+01 2.37299E-03-6.07767E+00-4.62753E-03-1.09024E-04
 -1      6660 9.34991E+00 1.14278E+01 5.31271E-03-6.10188E+00-5.65603E-03-2.80332E-04
 -1      6661 9.38079E+00 1.13935E+01 7.75291E-03-6.13863E+00-4.72829E-03-5.17321E-04
 -1      6662 9.42338E+00 1.13536E+01 9.89084E-03-6.18783E+00-2.42321E-03-4.03811E-04
 -1      6663 8.74377E+00 1.22527E+01 7.74205E-03-7.00613E+00-9.62521E-04 3.62392E-04
 -1      6664 8.70918E+00 1.22832E+01 7.58579E-03-6.95331E+00-1.10405E-03 6.55726E-04
 -1      6665 8.68335E+00 1.23066E+01 7.28999E-03-6.91361E+00-7.37676E-04 6.62195E-04
 -1      6666 8.66632E+00 1.23228E+01 7.08032E-03-6.88709E+00-3.57978E-04 4.60547E-04
 -1      6667 8.65779E+00 1.23310E+01 6.84086E-03-6.87382E+00-8.89701E-05 1.65552E-04
 -1      6668 8.65779E+00 1.23310E+01 6.84086E-03-6.87382E+00 8.89701E-05-1.65552E-04
 -1      6669 8.66632E+00 1.23228E+01 7.08032E-03-6.88709E+00 3.57978E-04-4.60547E-04
 -1      6670 8.68335E+00 1.23066E+01 7.28999E-03-6.91361E+00 7.37676E-04-6.62195E-04
 -1      6671 8.70918E+00 1.22832E+01 7.58579E-03-6.95331E+00 1.10405E-03-6.55726E-04
 -1      6672 8.74377E+00 1.22527E+01 7.74205E-03-7.00613E+00 9.62521E-04-3.62392E-04
 -1      6673 7.75072E+00 1.32874E+01 3.86995E-03-7.59789E+00-1.17340E-03-4.61588E-05
 -1      6674 7.72479E+00 1.33108E+01 4.04229E-03-7.54223E+00-1.62671E-03 1.50288E-04
 -1      6675 7.70537E+00 1.33282E+01 4.32614E-03-7.50037E+00-1.52698E-03 2.15580E-04
 -1      6676 7.69241E+00 1.33398E+01 4.54750E-03-7.47243E+00-1.04975E-03 1.76819E-04
 -1      6677 7.68596E+00 1.33456E+01 4.69444E-03-7.45844E+00-3.73183E-04 6.61096E-05
 -1      6678 7.68596E+00 1.33456E+01 4.69444E-03-7.45844E+00 3.73183E-04-6.61096E-05
 -1      6679 7.69241E+00 1.33398E+01 4.54750E-03-7.47243E+00 1.04975E-03-1.76819E-04
 -1      6680 7.70537E+00 1.33282E+01 4.32614E-03-7.50037E+00 1.52698E-03-2.15580E-04
 -1      6681 7.72479E+00 1.33108E+01 4.04229E-03-7.54223E+00 1.62671E-03-1.50288E-04
 -1      6682 7.75072E+00 1.32874E+01 3.86995E-03-7.59789E+00 1.17340E-03 4.61588E-05
 -1      6683 6.49819E+00 1.44183E+01 1.42706E-04-7.96084E+00-7.11246E-04-2.93045E-04
 -1      6684 6.48115E+00 1.44344E+01 2.64787E-04-7.90286E+00-9.90732E-04-1.84837E-04
 -1      6685 6.46835E+00 1.44461E+01 4.73484E-04-7.85934E+00-9.68353E-04-9.97250E-05
 -1      6686 6.45981E+00 1.44539E+01 6.76121E-04-7.83030E+00-6.92479E-04-4.48851E-05
 -1      6687 6.45553E+00 1.44578E+01 7.89902E-04-7.81577E+00-2.49372E-04-1.19145E-05
 -1      6688 6.45553E+00 1.44578E+01 7.89902E-04-7.81577E+00 2.49372E-04 1.19145E-05
 -1      6689 6.45981E+00 1.44539E+01 6.76121E-04-7.83030E+00 6.92479E-04 4.48851E-05
 -1      6690 6.46835E+00 1.44461E+01 4.73484E-04-7.85934E+00 9.68353E-04 9.97250E-05
 -1      6691 6.48115E+00 1.44344E+01 2.64787E-04-7.90286E+00 9.90732E-04 1.84837E-04
 -1      6692 6.49819E+00 1.44183E+01 1.42706E-04-7.96084E+00 7.11246E-04 2.93045E-04
 -1      6693 5.03408E+00 1.56034E+01-2.70976E-03-8.09214E+00-2.98482E-04-3.84927E-04
 -1      6694 5.02604E+00 1.56111E+01-2.69090E-03-8.03253E+00-4.14954E-04-3.16183E-04
 -1      6695 5.01999E+00 1.56168E+01-2.61702E-03-7.98781E+00-4.17395E-04-2.31117E-04
 -1      6696 5.01595E+00 1.56206E+01-2.53651E-03-7.95799E+00-3.05325E-04-1.39502E-04
 -1      6697 5.01392E+00 1.56224E+01-2.48471E-03-7.94307E+00-1.11743E-04-4.66121E-05
 -1      6698 5.01392E+00 1.56224E+01-2.48471E-03-7.94307E+00 1.11743E-04 4.66121E-05
 -1      6699 5.01595E+00 1.56206E+01-2.53651E-03-7.95799E+00 3.05325E-04 1.39502E-04
 -1      6700 5.01999E+00 1.56168E+01-2.61702E-03-7.98781E+00 4.17395E-04 2.31117E-04
 -1      6701 5.02604E+00 1.56111E+01-2.69090E-03-8.03253E+00 4.14954E-04 3.16183E-04
 -1      6702 5.03408E+00 1.56034E+01-2.70976E-03-8.09214E+00 2.98482E-04 3.84927E-04
 -1      6703 3.40108E+00 1.68003E+01-4.54483E-03-7.98881E+00-2.87036E-05-3.96085E-04
 -1      6704 3.40219E+00 1.67992E+01-4.59275E-03-7.92834E+00-7.14548E-05-3.43367E-04
 -1      6705 3.40302E+00 1.67984E+01-4.60808E-03-7.88298E+00-8.95169E-05-2.63053E-04
 -1      6706 3.40357E+00 1.67977E+01-4.60566E-03-7.85275E+00-7.28429E-05-1.64614E-04
 -1      6707 3.40384E+00 1.67974E+01-4.60038E-03-7.83763E+00-2.78173E-05-5.59348E-05
 -1      6708 3.40384E+00 1.67974E+01-4.60038E-03-7.83763E+00 2.78173E-05 5.59348E-05
 -1      6709 3.40357E+00 1.67977E+01-4.60566E-03-7.85275E+00 7.28429E-05 1.64614E-04
 -1      6710 3.40302E+00 1.67984E+01-4.60808E-03-7.88298E+00 8.95169E-05 2.63053E-04
 -1      6711 3.40219E+00 1.67992E+01-4.59275E-03-7.92834E+00 7.14548E-05 3.43367E-04
 -1      6712 3.40108E+00 1.68003E+01-4.54483E-03-7.98881E+00 2.87036E-05 3.96085E-04
 -1      6713 1.63718E+00 1.79680E+01-5.36066E-03-7.64770E+00 1.53320E-04-3.73575E-04
 -1      6714 1.64765E+00 1.79576E+01-5.44368E-03-7.58717E+00 1.22871E-04-3.29884E-04
 -1      6715 1.65551E+00 1.79498E+01-5.50343E-03-7.54178E+00 8.48293E-05-2.56825E-04
 -1      6716 1.66074E+00 1.79446E+01-5.54087E-03-7.51152E+00 4.81640E-05-1.62559E-04
 -1      6717 1.66336E+00 1.79420E+01-5.55856E-03-7.49639E+00 1.54210E-05-5.56009E-05
 -1      6718 1.66336E+00 1.79420E+01-5.55856E-03-7.49639E+00-1.54210E-05 5.56009E-05
 -1      6719 1.66074E+00 1.79446E+01-5.54087E-03-7.51152E+00-4.81640E-05 1.62559E-04
 -1      6720 1.65551E+00 1.79498E+01-5.50343E-03-7.54178E+00-8.48293E-05 2.56825E-04
 -1      6721 1.64765E+00 1.79576E+01-5.44368E-03-7.58717E+00-1.22871E-04 3.29884E-04
 -1      6722 1.63718E+00 1.79680E+01-5.36066E-03-7.64770E+00-1.53320E-04 3.73575E-04
 -1      6723-2.23752E-01 1.90655E+01-5.13543E-03-7.06485E+00 3.00418E-04-3.40765E-04
 -1      6724-2.03669E-01 1.90455E+01-5.24013E-03-7.00511E+00 2.52840E-04-3.06388E-04
 -1      6725-1.88601E-01 1.90305E+01-5.32319E-03-6.96030E+00 1.89539E-04-2.41583E-04
 -1      6726-1.78553E-01 1.90205E+01-5.38025E-03-6.93044E+00 1.16812E-04-1.54182E-04
 -1      6727-1.73528E-01 1.90154E+01-5.40919E-03-6.91550E+00 3.93983E-05-5.29422E-05
 -1      6728-1.73528E-01 1.90154E+01-5.40919E-03-6.91550E+00-3.93983E-05 5.29422E-05
 -1      6729-1.78553E-01 1.90205E+01-5.38025E-03-6.93044E+00-1.16812E-04 1.54182E-04
 -1      6730-1.88601E-01 1.90305E+01-5.32319E-03-6.96030E+00-1.89539E-04 2.41583E-04
 -1      6731-2.03669E-01 1.90455E+01-5.24013E-03-7.00511E+00-2.52840E-04 3.06388E-04
 -1      6732-2.23752E-01 1.90655E+01-5.13543E-03-7.06485E+00-3.00418E-04 3.40765E-04
 -1      6733-2.15080E+00 2.00507E+01-3.77447E-03-6.23460E+00 4.39586E-04-3.12217E-04
 -1      6734-2.12077E+00 2.00207E+01-3.90199E-03-6.17656E+00 3.63977E-04-2.88813E-04
 -1      6735-2.09824E+00 1.99982E+01-4.00472E-03-6.13303E+00 2.71805E-04-2.31705E-04
 -1      6736-2.08322E+00 1.99832E+01-4.07646E-03-6.10401E+00 1.67752E-04-1.49376E-04
 -1      6737-2.07571E+00 1.99757E+01-4.11326E-03-6.08950E+00 5.66843E-05-5.15341E-05
 -1      6738-2.07571E+00 1.99757E+01-4.11326E-03-6.08950E+00-5.66843E-05 5.15341E-05
 -1      6739-2.08322E+00 1.99832E+01-4.07646E-03-6.10401E+00-1.67752E-04 1.49376E-04
 -1      6740-2.09824E+00 1.99982E+01-4.00472E-03-6.13303E+00-2.71805E-04 2.31705E-04
 -1      6741-2.12077E+00 2.00207E+01-3.90199E-03-6.17656E+00-3.63977E-04 2.88813E-04
 -1      6742-2.15080E+00 2.00507E+01-3.77447E-03-6.23460E+00-4.39586E-04 3.12217E-04
 -1      6743-4.11363E+00 2.08777E+01-1.11131E-03-5.14874E+00 5.79327E-04-3.03016E-04
 -1      6744-4.07322E+00 2.08372E+01-1.27259E-03-5.09346E+00 4.73398E-04-2.90773E-04
 -1      6745-4.04290E+00 2.08069E+01-1.40199E-03-5.05200E+00 3.50676E-04-2.38064E-04
 -1      6746-4.02268E+00 2.07866E+01-1.49224E-03-5.02437E+00 2.15466E-04-1.55185E-04
 -1      6747-4.01257E+00 2.07765E+01-1.53853E-03-5.01055E+00 7.26670E-05-5.38024E-05
 -1      6748-4.01257E+00 2.07765E+01-1.53853E-03-5.01055E+00-7.26670E-05 5.38024E-05
 -1      6749-4.02268E+00 2.07866E+01-1.49224E-03-5.02437E+00-2.15466E-04 1.55185E-04
 -1      6750-4.04290E+00 2.08069E+01-1.40199E-03-5.05200E+00-3.50676E-04 2.38064E-04
 -1      6751-4.07322E+00 2.08372E+01-1.27259E-03-5.09346E+00-4.73398E-04 2.90773E-04
 -1      6752-4.11363E+00 2.08777E+01-1.11131E-03-5.14874E+00-5.79327E-04 3.03016E-04
 -1      6753-6.07882E+00 2.14931E+01 3.06398E-03-3.79619E+00 7.18362E-04-3.33683E-04
 -1      6754-6.02750E+00 2.14416E+01 2.85060E-03-3.74504E+00 5.83937E-04-3.29277E-04
 -1      6755-5.98898E+00 2.14029E+01 2.68071E-03-3.70668E+00 4.30810E-04-2.73375E-04
 -1      6756-5.96330E+00 2.13771E+01 2.56287E-03-3.68111E+00 2.63984E-04-1.79461E-04
 -1      6757-5.95046E+00 2.13642E+01 2.50263E-03-3.66833E+00 8.89084E-05-6.24046E-05
 -1      6758-5.95046E+00 2.13642E+01 2.50263E-03-3.66833E+00-8.89084E-05 6.24046E-05
 -1      6759-5.96330E+00 2.13771E+01 2.56287E-03-3.68111E+00-2.63984E-04 1.79461E-04
 -1      6760-5.98898E+00 2.14029E+01 2.68071E-03-3.70668E+00-4.30810E-04 2.73375E-04
 -1      6761-6.02750E+00 2.14416E+01 2.85060E-03-3.74504E+00-5.83937E-04 3.29277E-04
 -1      6762-6.07882E+00 2.14931E+01 3.06398E-03-3.79619E+00-7.18362E-04 3.33683E-04
 -1      6763-8.00482E+00 2.18312E+01 8.94807E-03-2.16436E+00 8.50264E-04-4.32980E-04
 -1      6764-7.94200E+00 2.17679E+01 8.65762E-03-2.11918E+00 6.92083E-04-4.27372E-04
 -1      6765-7.89487E+00 2.17204E+01 8.42824E-03-2.08530E+00 5.10697E-04-3.54369E-04
 -1      6766-7.86344E+00 2.16887E+01 8.27016E-03-2.06271E+00 3.12854E-04-2.32325E-04
 -1      6767-7.84772E+00 2.16729E+01 8.18965E-03-2.05141E+00 1.05342E-04-8.07243E-05
 -1      6768-7.84772E+00 2.16729E+01 8.18965E-03-2.05141E+00-1.05342E-04 8.07243E-05
 -1      6769-7.86344E+00 2.16887E+01 8.27016E-03-2.06271E+00-3.12854E-04 2.32325E-04
 -1      6770-7.89487E+00 2.17204E+01 8.42824E-03-2.08530E+00-5.10697E-04 3.54369E-04
 -1      6771-7.94200E+00 2.17679E+01 8.65762E-03-2.11918E+00-6.92083E-04 4.27372E-04
 -1      6772-8.00482E+00 2.18312E+01 8.94807E-03-2.16436E+00-8.50264E-04 4.32980E-04
 -1      6773-9.83575E+00 2.18085E+01 1.66269E-02-2.42994E-01 9.65181E-04-6.39339E-04
 -1      6774-9.76100E+00 2.17328E+01 1.62285E-02-2.06288E-01 7.91295E-04-6.14785E-04
 -1      6775-9.70492E+00 2.16761E+01 1.59167E-02-1.78762E-01 5.86261E-04-5.02002E-04
 -1      6776-9.66751E+00 2.16383E+01 1.57032E-02-1.60413E-01 3.59874E-04-3.26180E-04
 -1      6777-9.64881E+00 2.16194E+01 1.55949E-02-1.51239E-01 1.21273E-04-1.12863E-04
 -1      6778-9.64881E+00 2.16194E+01 1.55949E-02-1.51239E-01-1.21273E-04 1.12863E-04
 -1      6779-9.66751E+00 2.16383E+01 1.57032E-02-1.60413E-01-3.59874E-04 3.26180E-04
 -1      6780-9.70492E+00 2.16761E+01 1.59167E-02-1.78762E-01-5.86261E-04 5.02002E-04
 -1      6781-9.76100E+00 2.17328E+01 1.62285E-02-2.06288E-01-7.91295E-04 6.14785E-04
 -1      6782-9.83575E+00 2.18085E+01 1.66269E-02-2.42994E-01-9.65181E-04 6.39339E-04
 -1      6783-1.14951E+01 2.13196E+01 2.59214E-02 1.96815E+00 1.05017E-03-9.99769E-04
 -1      6784-1.14084E+01 2.12315E+01 2.53810E-02 1.99300E+00 8.73037E-04-9.25415E-04
 -1      6785-1.13433E+01 2.11654E+01 2.49622E-02 2.01164E+00 6.52141E-04-7.38688E-04
 -1      6786-1.13000E+01 2.11213E+01 2.46778E-02 2.02406E+00 4.02097E-04-4.73652E-04
 -1      6787-1.12783E+01 2.10993E+01 2.45344E-02 2.03027E+00 1.35763E-04-1.62880E-04
 -1      6788-1.12783E+01 2.10993E+01 2.45344E-02 2.03027E+00-1.35763E-04 1.62880E-04
 -1      6789-1.13000E+01 2.11213E+01 2.46778E-02 2.02406E+00-4.02097E-04 4.73652E-04
 -1      6790-1.13433E+01 2.11654E+01 2.49622E-02 2.01164E+00-6.52141E-04 7.38688E-04
 -1      6791-1.14084E+01 2.12315E+01 2.53810E-02 1.99300E+00-8.73037E-04 9.25415E-04
 -1      6792-1.14951E+01 2.13196E+01 2.59214E-02 1.96815E+00-1.05017E-03 9.99769E-04
 -1      6793-1.28809E+01 2.02355E+01 3.61689E-02 4.44669E+00 1.08865E-03-1.56359E-03
 -1      6794-1.27832E+01 2.01356E+01 3.54552E-02 4.45535E+00 9.26309E-04-1.38871E-03
 -1      6795-1.27098E+01 2.00606E+01 3.49098E-02 4.46184E+00 7.01352E-04-1.08006E-03
 -1      6796-1.26609E+01 2.00107E+01 3.45434E-02 4.46615E+00 4.35644E-04-6.81787E-04
 -1      6797-1.26365E+01 1.99857E+01 3.43599E-02 4.46831E+00 1.47567E-04-2.32721E-04
 -1      6798-1.26365E+01 1.99857E+01 3.43599E-02 4.46831E+00-1.47567E-04 2.32721E-04
 -1      6799-1.26609E+01 2.00107E+01 3.45434E-02 4.46615E+00-4.35644E-04 6.81787E-04
 -1      6800-1.27098E+01 2.00606E+01 3.49098E-02 4.46184E+00-7.01352E-04 1.08006E-03
 -1      6801-1.27832E+01 2.01356E+01 3.54552E-02 4.45535E+00-9.26309E-04 1.38871E-03
 -1      6802-1.28809E+01 2.02355E+01 3.61689E-02 4.44669E+00-1.08865E-03 1.56359E-03
 -1      6803-1.38657E+01 1.84079E+01 4.59556E-02 7.12988E+00 1.05813E-03-2.36827E-03
 -1      6804-1.37594E+01 1.82985E+01 4.50527E-02 7.11713E+00 9.34432E-04-2.01286E-03
 -1      6805-1.36796E+01 1.82164E+01 4.43769E-02 7.10755E+00 7.22228E-04-1.52018E-03
 -1      6806-1.36265E+01 1.81617E+01 4.39301E-02 7.10115E+00 4.53571E-04-9.42206E-04
 -1      6807-1.35999E+01 1.81343E+01 4.37086E-02 7.09795E+00 1.54376E-04-3.18780E-04
 -1      6808-1.35999E+01 1.81343E+01 4.37086E-02 7.09795E+00-1.54376E-04 3.18780E-04
 -1      6809-1.36265E+01 1.81617E+01 4.39301E-02 7.10115E+00-4.53571E-04 9.42206E-04
 -1      6810-1.36796E+01 1.82164E+01 4.43769E-02 7.10755E+00-7.22228E-04 1.52018E-03
 -1      6811-1.37594E+01 1.82985E+01 4.50527E-02 7.11713E+00-9.34432E-04 2.01286E-03
 -1      6812-1.38657E+01 1.84079E+01 4.59556E-02 7.12988E+00-1.05813E-03 2.36827E-03
 -1      6813-1.43049E+01 1.56853E+01 5.28703E-02 9.89306E+00 9.25373E-04-3.42075E-03
 -1      6814-1.41947E+01 1.55711E+01 5.17941E-02 9.85326E+00 8.68062E-04-2.76839E-03
 -1      6815-1.41122E+01 1.54854E+01 5.10126E-02 9.82338E+00 6.91863E-04-2.02080E-03
 -1      6816-1.40572E+01 1.54282E+01 5.05079E-02 9.80345E+00 4.41373E-04-1.22565E-03
 -1      6817-1.40297E+01 1.53996E+01 5.02613E-02 9.79348E+00 1.51237E-04-4.10327E-04
 -1      6818-1.40297E+01 1.53996E+01 5.02613E-02 9.79348E+00-1.51237E-04 4.10327E-04
 -1      6819-1.40572E+01 1.54282E+01 5.05079E-02 9.80345E+00-4.41373E-04 1.22565E-03
 -1      6820-1.41122E+01 1.54854E+01 5.10126E-02 9.82338E+00-6.91863E-04 2.02080E-03
 -1      6821-1.41947E+01 1.55711E+01 5.17941E-02 9.85326E+00-8.68062E-04 2.76839E-03
 -1      6822-1.43049E+01 1.56853E+01 5.28703E-02 9.89306E+00-9.25373E-04 3.42075E-03
 -1      6823-1.40582E+01 1.19445E+01 5.34130E-02 1.25290E+01 6.44330E-04-4.69945E-03
 -1      6824-1.39521E+01 1.18331E+01 5.22177E-02 1.24571E+01 6.81437E-04-3.61556E-03
 -1      6825-1.38726E+01 1.17495E+01 5.13792E-02 1.24031E+01 5.74006E-04-2.55114E-03
 -1      6826-1.38196E+01 1.16938E+01 5.08492E-02 1.23671E+01 3.76531E-04-1.51604E-03
 -1      6827-1.37932E+01 1.16659E+01 5.05930E-02 1.23491E+01 1.30568E-04-5.02745E-04
 -1      6828-1.37932E+01 1.16659E+01 5.05930E-02 1.23491E+01-1.30568E-04 5.02745E-04
 -1      6829-1.38196E+01 1.16938E+01 5.08492E-02 1.23671E+01-3.76531E-04 1.51604E-03
 -1      6830-1.38726E+01 1.17495E+01 5.13792E-02 1.24031E+01-5.74006E-04 2.55114E-03
 -1      6831-1.39521E+01 1.18331E+01 5.22177E-02 1.24571E+01-6.81437E-04 3.61556E-03
 -1      6832-1.40582E+01 1.19445E+01 5.34130E-02 1.25290E+01-6.44330E-04 4.69945E-03
 -1      6833-1.30268E+01 7.14006E+00 4.32416E-02 1.47369E+01 1.78196E-04-6.24984E-03
 -1      6834-1.29357E+01 7.04258E+00 4.19745E-02 1.46299E+01 3.48475E-04-4.69540E-03
 -1      6835-1.28674E+01 6.96953E+00 4.10673E-02 1.45496E+01 3.57902E-04-3.30146E-03
 -1      6836-1.28219E+01 6.92085E+00 4.04729E-02 1.44960E+01 2.57525E-04-1.97310E-03
 -1      6837-1.27991E+01 6.89652E+00 4.01760E-02 1.44692E+01 9.29464E-05-6.57970E-04
 -1      6838-1.27991E+01 6.89652E+00 4.01760E-02 1.44692E+01-9.29464E-05 6.57970E-04
 -1      6839-1.28219E+01 6.92085E+00 4.04729E-02 1.44960E+01-2.57525E-04 1.97310E-03
 -1      6840-1.28674E+01 6.96953E+00 4.10673E-02 1.45496E+01-3.57902E-04 3.30146E-03
 -1      6841-1.29357E+01 7.04258E+00 4.19745E-02 1.46299E+01-3.48475E-04 4.69540E-03
 -1      6842-1.30268E+01 7.14006E+00 4.32416E-02 1.47369E+01-1.78196E-04 6.24984E-03
 -1      6843-1.12041E+01 1.36888E+00 1.79087E-02 1.61337E+01-3.79836E-04-8.51203E-03
 -1      6844-1.11411E+01 1.29956E+00 1.64112E-02 1.59926E+01 2.07106E-05-6.90261E-03
 -1      6845-1.10931E+01 1.24783E+00 1.50907E-02 1.58866E+01 2.19352E-04-5.28260E-03
 -1      6846-1.10607E+01 1.21348E+00 1.40671E-02 1.58159E+01 2.26154E-04-3.37588E-03
 -1      6847-1.10443E+01 1.19635E+00 1.35033E-02 1.57805E+01 9.24571E-05-1.16660E-03
 -1      6848-1.10443E+01 1.19635E+00 1.35033E-02 1.57805E+01-9.24571E-05 1.16660E-03
 -1      6849-1.10607E+01 1.21348E+00 1.40671E-02 1.58159E+01-2.26154E-04 3.37588E-03
 -1      6850-1.10931E+01 1.24783E+00 1.50907E-02 1.58866E+01-2.19352E-04 5.28260E-03
 -1      6851-1.11411E+01 1.29956E+00 1.64112E-02 1.59926E+01-2.07106E-05 6.90261E-03
 -1      6852-1.12041E+01 1.36888E+00 1.79087E-02 1.61337E+01 3.79836E-04 8.51203E-03
 -1      6853-8.72939E+00-5.06537E+00-2.58905E-02 1.62987E+01-5.68335E-04-1.29477E-02
 -1      6854-8.70539E+00-5.09044E+00-2.83530E-02 1.61301E+01 4.43614E-04-1.29569E-02
 -1      6855-8.68446E+00-5.10846E+00-3.13480E-02 1.60033E+01 9.25996E-04-1.14026E-02
 -1      6856-8.66892E+00-5.12007E+00-3.40312E-02 1.59185E+01 8.36193E-04-7.88441E-03
 -1      6857-8.66063E+00-5.12576E+00-3.56183E-02 1.58760E+01 3.29590E-04-2.82177E-03
 -1      6858-8.66063E+00-5.12576E+00-3.56183E-02 1.58760E+01-3.29590E-04 2.82177E-03
 -1      6859-8.66892E+00-5.12007E+00-3.40312E-02 1.59185E+01-8.36193E-04 7.88441E-03
 -1      6860-8.68446E+00-5.10846E+00-3.13480E-02 1.60033E+01-9.25996E-04 1.14026E-02
 -1      6861-8.70539E+00-5.09044E+00-2.83530E-02 1.61301E+01-4.43614E-04 1.29569E-02
 -1      6862-8.72939E+00-5.06537E+00-2.58905E-02 1.62987E+01 5.68335E-04 1.29477E-02
 -1      6863-5.92458E+00-1.16132E+01-8.81161E-02 1.48573E+01 1.05031E-03-2.24052E-02
 -1      6864-5.94016E+00-1.15776E+01-9.32981E-02 1.46740E+01 3.35705E-03-2.79772E-02
 -1      6865-5.94478E+00-1.15492E+01-1.00743E-01 1.45351E+01 4.11238E-03-2.67855E-02
 -1      6866-5.94455E+00-1.15295E+01-1.07697E-01 1.44418E+01 3.28128E-03-1.91164E-02
 -1      6867-5.94346E+00-1.15195E+01-1.11793E-01 1.43950E+01 1.24205E-03-6.90904E-03
 -1      6868-5.94346E+00-1.15195E+01-1.11793E-01 1.43950E+01-1.24205E-03 6.90904E-03
 -1      6869-5.94455E+00-1.15295E+01-1.07697E-01 1.44418E+01-3.28128E-03 1.91164E-02
 -1      6870-5.94478E+00-1.15492E+01-1.00743E-01 1.45351E+01-4.11238E-03 2.67855E-02
 -1      6871-5.94016E+00-1.15776E+01-9.32981E-02 1.46740E+01-3.35705E-03 2.79772E-02
 -1      6872-5.92458E+00-1.16132E+01-8.81161E-02 1.48573E+01-1.05031E-03 2.24052E-02
 -1      6873-3.28385E+00-1.74944E+01-1.61491E-01 1.15873E+01 4.51378E-03-3.78281E-02
 -1      6874-3.31940E+00-1.73829E+01-1.71152E-01 1.14053E+01 9.80826E-03-5.42258E-02
 -1      6875-3.33719E+00-1.72970E+01-1.85347E-01 1.12684E+01 1.06115E-02-5.26295E-02
 -1      6876-3.34510E+00-1.72388E+01-1.97456E-01 1.11772E+01 7.68242E-03-3.71650E-02
 -1      6877-3.34793E+00-1.72095E+01-2.04200E-01 1.11317E+01 2.75960E-03-1.33193E-02
 -1      6878-3.34793E+00-1.72095E+01-2.04200E-01 1.11317E+01-2.75960E-03 1.33193E-02
 -1      6879-3.34510E+00-1.72388E+01-1.97456E-01 1.11772E+01-7.68242E-03 3.71650E-02
 -1      6880-3.33719E+00-1.72970E+01-1.85347E-01 1.12684E+01-1.06115E-02 5.26295E-02
 -1      6881-3.31940E+00-1.73829E+01-1.71152E-01 1.14053E+01-9.80826E-03 5.42258E-02
 -1      6882-3.28385E+00-1.74944E+01-1.61491E-01 1.15873E+01-4.51378E-03 3.78281E-02
 -1      6883-1.38479E+00-2.17735E+01-2.17987E-01 6.49071E+00 8.11625E-03-4.31390E-02
 -1      6884-1.41486E+00-2.15780E+01-2.27007E-01 6.35119E+00 4.07992E-03-6.58207E-02
 -1      6885-1.43235E+00-2.14329E+01-2.32947E-01 6.25265E+00-2.71837E-03-6.17135E-02
 -1      6886-1.44156E+00-2.13372E+01-2.35545E-01 6.18933E+00-4.69271E-03-4.24284E-02
 -1      6887-1.44544E+00-2.12898E+01-2.36285E-01 6.15829E+00-2.13382E-03-1.50017E-02
 -1      6888-1.44544E+00-2.12898E+01-2.36285E-01 6.15829E+00 2.13382E-03 1.50017E-02
 -1      6889-1.44156E+00-2.13372E+01-2.35545E-01 6.18933E+00 4.69271E-03 4.24284E-02
 -1      6890-1.43235E+00-2.14329E+01-2.32947E-01 6.25265E+00 2.71837E-03 6.17135E-02
 -1      6891-1.41486E+00-2.15780E+01-2.27007E-01 6.35119E+00-4.07992E-03 6.58207E-02
 -1      6892-1.38479E+00-2.17735E+01-2.17987E-01 6.49071E+00-8.11625E-03 4.31390E-02
 -1      6893 4.71079E+00 6.55222E+00-2.73033E-01 5.34324E-01-2.27921E-01-1.17285E-01
 -1      6894 4.87223E+00 6.63280E+00 3.49106E-01 2.62000E-01-4.77502E-01-1.62962E-01
 -1      6895 4.96727E+00 6.66176E+00 7.39858E-01 9.30935E-02-4.20062E-01-1.43010E-01
 -1      6896 5.01863E+00 6.67118E+00 9.63062E-01-7.91480E-03-2.72097E-01-9.42971E-02
 -1      6897 5.04118E+00 6.67374E+00 1.06456E+00-5.55686E-02-9.32817E-02-3.26776E-02
 -1      6898 5.04118E+00 6.67374E+00 1.06456E+00-5.55686E-02 9.32817E-02 3.26776E-02
 -1      6899 5.01863E+00 6.67118E+00 9.63062E-01-7.91480E-03 2.72097E-01 9.42971E-02
 -1      6900 4.96727E+00 6.66176E+00 7.39858E-01 9.30935E-02 4.20062E-01 1.43010E-01
 -1      6901 4.87223E+00 6.63280E+00 3.49106E-01 2.62000E-01 4.77502E-01 1.62962E-01
 -1      6902 4.71079E+00 6.55222E+00-2.73033E-01 5.34324E-01 2.27921E-01 1.17285E-01
 -1      6903 6.74872E+00 6.20875E+00 1.47037E-01-1.34689E+00 1.72308E-02-1.16967E-01
 -1      6904 6.66552E+00 6.34798E+00-2.31062E-02-1.48103E+00 5.65252E-02-1.51117E-01
 -1      6905 6.64605E+00 6.42929E+00-4.07340E-03-1.59217E+00 9.24053E-03-1.39454E-01
 -1      6906 6.64596E+00 6.47454E+00 5.16872E-02-1.66752E+00-1.07888E-02-9.53670E-02
 -1      6907 6.64862E+00 6.49477E+00 8.85270E-02-1.70521E+00-6.40434E-03-3.36387E-02
 -1      6908 6.64862E+00 6.49477E+00 8.85270E-02-1.70521E+00 6.40434E-03 3.36387E-02
 -1      6909 6.64596E+00 6.47454E+00 5.16872E-02-1.66752E+00 1.07888E-02 9.53670E-02
 -1      6910 6.64605E+00 6.42929E+00-4.07340E-03-1.59217E+00-9.24053E-03 1.39454E-01
 -1      6911 6.66552E+00 6.34798E+00-2.31062E-02-1.48103E+00-5.65252E-02 1.51117E-01
 -1      6912 6.74872E+00 6.20875E+00 1.47037E-01-1.34689E+00-1.72308E-02 1.16967E-01
 -1      6913 7.88957E+00 5.95828E+00-4.75162E-05-3.11553E+00 5.33878E-02-4.07862E-02
 -1      6914 7.88581E+00 6.17346E+00 1.26441E-02-3.12544E+00 8.62587E-02-6.61513E-02
 -1      6915 7.85705E+00 6.30689E+00-3.56482E-02-3.15320E+00 9.14305E-02-6.62927E-02
 -1      6916 7.83517E+00 6.38614E+00-6.90240E-02-3.17999E+00 6.28732E-02-4.78596E-02
 -1      6917 7.82441E+00 6.42327E+00-8.35402E-02-3.19552E+00 2.18709E-02-1.73351E-02
 -1      6918 7.82441E+00 6.42327E+00-8.35402E-02-3.19552E+00-2.18709E-02 1.73351E-02
 -1      6919 7.83517E+00 6.38614E+00-6.90240E-02-3.17999E+00-6.28732E-02 4.78596E-02
 -1      6920 7.85705E+00 6.30689E+00-3.56482E-02-3.15320E+00-9.14305E-02 6.62927E-02
 -1      6921 7.88581E+00 6.17346E+00 1.26441E-02-3.12544E+00-8.62587E-02 6.61513E-02
 -1      6922 7.88957E+00 5.95828E+00-4.75162E-05-3.11553E+00-5.33878E-02 4.07862E-02
 -1      6923 8.57783E+00 6.30169E+00 1.25764E-02-4.63079E+00 2.70167E-02-1.12671E-02
 -1      6924 8.53102E+00 6.38505E+00-4.00141E-03-4.60651E+00 4.63958E-02-1.74444E-02
 -1      6925 8.50434E+00 6.47267E+00-1.46846E-02-4.59279E+00 4.80453E-02-1.92650E-02
 -1      6926 8.48522E+00 6.53659E+00-3.11948E-02-4.58715E+00 3.66094E-02-1.46363E-02
 -1      6927 8.47506E+00 6.56950E+00-4.22417E-02-4.58556E+00 1.36044E-02-5.43328E-03
 -1      6928 8.47506E+00 6.56950E+00-4.22417E-02-4.58556E+00-1.36044E-02 5.43328E-03
 -1      6929 8.48522E+00 6.53659E+00-3.11948E-02-4.58715E+00-3.66094E-02 1.46363E-02
 -1      6930 8.50434E+00 6.47267E+00-1.46846E-02-4.59279E+00-4.80453E-02 1.92650E-02
 -1      6931 8.53102E+00 6.38505E+00-4.00141E-03-4.60651E+00-4.63958E-02 1.74444E-02
 -1      6932 8.57783E+00 6.30169E+00 1.25764E-02-4.63079E+00-2.70167E-02 1.12671E-02
 -1      6933 8.72905E+00 6.88155E+00 1.57057E-02-5.92480E+00 8.32783E-03-1.14145E-03
 -1      6934 8.68534E+00 6.93509E+00 1.17910E-02-5.88555E+00 1.46886E-02-2.30729E-03
 -1      6935 8.65242E+00 6.97980E+00 4.20410E-03-5.85798E+00 1.63605E-02-2.70591E-03
 -1      6936 8.63205E+00 7.01456E+00-8.41052E-04-5.84027E+00 1.22906E-02-2.27100E-03
 -1      6937 8.62219E+00 7.03350E+00-3.88087E-03-5.83166E+00 4.57114E-03-8.82176E-04
 -1      6938 8.62219E+00 7.03350E+00-3.88087E-03-5.83166E+00-4.57114E-03 8.82176E-04
 -1      6939 8.63205E+00 7.01456E+00-8.41052E-04-5.84027E+00-1.22906E-02 2.27100E-03
 -1      6940 8.65242E+00 6.97980E+00 4.20410E-03-5.85798E+00-1.63605E-02 2.70591E-03
 -1      6941 8.68534E+00 6.93509E+00 1.17910E-02-5.88555E+00-1.46886E-02 2.30729E-03
 -1      6942 8.72905E+00 6.88155E+00 1.57057E-02-5.92480E+00-8.32783E-03 1.14145E-03
 -1      6943 8.42066E+00 7.69363E+00 1.53862E-02-6.99822E+00 8.57071E-04 5.89590E-04
 -1      6944 8.38142E+00 7.73014E+00 1.41939E-02-6.95403E+00 2.03062E-03 8.57554E-04
 -1      6945 8.35264E+00 7.76005E+00 1.29136E-02-6.92088E+00 2.63798E-03 6.88552E-04
 -1      6946 8.33343E+00 7.78081E+00 1.12337E-02-6.89895E+00 2.26375E-03 4.37230E-04
 -1      6947 8.32394E+00 7.79158E+00 1.03553E-02-6.88803E+00 8.70718E-04 1.44279E-04
 -1      6948 8.32394E+00 7.79158E+00 1.03553E-02-6.88803E+00-8.70718E-04-1.44279E-04
 -1      6949 8.33343E+00 7.78081E+00 1.12337E-02-6.89895E+00-2.26375E-03-4.37230E-04
 -1      6950 8.35264E+00 7.76005E+00 1.29136E-02-6.92088E+00-2.63798E-03-6.88552E-04
 -1      6951 8.38142E+00 7.73014E+00 1.41939E-02-6.95403E+00-2.03062E-03-8.57554E-04
 -1      6952 8.42066E+00 7.69363E+00 1.53862E-02-6.99822E+00-8.57071E-04-5.89590E-04
 -1      6953 7.71993E+00 8.70469E+00 1.14903E-02-7.84997E+00-1.00022E-03 3.04325E-04
 -1      6954 7.68810E+00 8.73355E+00 1.14910E-02-7.80249E+00-1.21126E-03 5.87706E-04
 -1      6955 7.66428E+00 8.75540E+00 1.14438E-02-7.76676E+00-9.72083E-04 6.19033E-04
 -1      6956 7.64851E+00 8.77026E+00 1.14526E-02-7.74288E+00-5.93846E-04 4.42706E-04
 -1      6957 7.64062E+00 8.77774E+00 1.13817E-02-7.73092E+00-1.89851E-04 1.60659E-04
 -1      6958 7.64062E+00 8.77774E+00 1.13817E-02-7.73092E+00 1.89851E-04-1.60659E-04
 -1      6959 7.64851E+00 8.77026E+00 1.14526E-02-7.74288E+00 5.93846E-04-4.42706E-04
 -1      6960 7.66428E+00 8.75540E+00 1.14438E-02-7.76676E+00 9.72083E-04-6.19033E-04
 -1      6961 7.68810E+00 8.73355E+00 1.14910E-02-7.80249E+00 1.21126E-03-5.87706E-04
 -1      6962 7.71993E+00 8.70469E+00 1.14903E-02-7.84997E+00 1.00022E-03-3.04325E-04
 -1      6963 6.69170E+00 9.87602E+00 6.97943E-03-8.47443E+00-9.45020E-04-9.69104E-05
 -1      6964 6.66784E+00 9.89824E+00 7.11330E-03-8.42427E+00-1.24865E-03 6.46876E-05
 -1      6965 6.64993E+00 9.91475E+00 7.34302E-03-8.38657E+00-1.17164E-03 1.32372E-04
 -1      6966 6.63799E+00 9.92569E+00 7.53274E-03-8.36139E+00-8.11900E-04 1.19165E-04
 -1      6967 6.63203E+00 9.93115E+00 7.65838E-03-8.34879E+00-2.90077E-04 4.60135E-05
 -1      6968 6.63203E+00 9.93115E+00 7.65838E-03-8.34879E+00 2.90077E-04-4.60135E-05
 -1      6969 6.63799E+00 9.92569E+00 7.53274E-03-8.36139E+00 8.11900E-04-1.19165E-04
 -1      6970 6.64993E+00 9.91475E+00 7.34302E-03-8.38657E+00 1.17164E-03-1.32372E-04
 -1      6971 6.66784E+00 9.89824E+00 7.11330E-03-8.42427E+00 1.24865E-03-6.46876E-05
 -1      6972 6.69170E+00 9.87602E+00 6.97943E-03-8.47443E+00 9.45020E-04 9.69104E-05
 -1      6973 5.39454E+00 1.11621E+01 3.17721E-03-8.86501E+00-5.64250E-04-3.00797E-04
 -1      6974 5.37889E+00 1.11772E+01 3.23860E-03-8.81270E+00-7.15209E-04-2.14863E-04
 -1      6975 5.36712E+00 1.11883E+01 3.36524E-03-8.77344E+00-6.81824E-04-1.35243E-04
 -1      6976 5.35928E+00 1.11956E+01 3.49511E-03-8.74724E+00-4.84010E-04-7.20609E-05
 -1      6977 5.35535E+00 1.11992E+01 3.56921E-03-8.73414E+00-1.73979E-04-2.20436E-05
 -1      6978 5.35535E+00 1.11992E+01 3.56921E-03-8.73414E+00 1.73979E-04 2.20436E-05
 -1      6979 5.35928E+00 1.11956E+01 3.49511E-03-8.74724E+00 4.84010E-04 7.20609E-05
 -1      6980 5.36712E+00 1.11883E+01 3.36524E-03-8.77344E+00 6.81824E-04 1.35243E-04
 -1      6981 5.37889E+00 1.11772E+01 3.23860E-03-8.81270E+00 7.15209E-04 2.14863E-04
 -1      6982 5.39454E+00 1.11621E+01 3.17721E-03-8.86501E+00 5.64250E-04 3.00797E-04
 -1      6983 3.88143E+00 1.25163E+01 5.04048E-04-9.01505E+00-2.63057E-04-3.68229E-04
 -1      6984 3.87416E+00 1.25233E+01 4.85271E-04-8.96127E+00-3.06154E-04-3.08617E-04
 -1      6985 3.86870E+00 1.25286E+01 5.06729E-04-8.92092E+00-2.88832E-04-2.29753E-04
 -1      6986 3.86505E+00 1.25320E+01 5.40211E-04-8.89402E+00-2.05937E-04-1.40642E-04
 -1      6987 3.86323E+00 1.25337E+01 5.64371E-04-8.88056E+00-7.46677E-05-4.73337E-05
 -1      6988 3.86323E+00 1.25337E+01 5.64371E-04-8.88056E+00 7.46677E-05 4.73337E-05
 -1      6989 3.86505E+00 1.25320E+01 5.40211E-04-8.89402E+00 2.05937E-04 1.40642E-04
 -1      6990 3.86870E+00 1.25286E+01 5.06729E-04-8.92092E+00 2.88832E-04 2.29753E-04
 -1      6991 3.87416E+00 1.25233E+01 4.85271E-04-8.96127E+00 3.06154E-04 3.08617E-04
 -1      6992 3.88143E+00 1.25163E+01 5.04048E-04-9.01505E+00 2.63057E-04 3.68229E-04
 -1      6993 2.20028E+00 1.38922E+01-1.04598E-03-8.91826E+00-6.66826E-05-3.74161E-04
 -1      6994 2.20160E+00 1.38908E+01-1.11076E-03-8.86376E+00-7.22221E-05-3.22382E-04
 -1      6995 2.20259E+00 1.38898E+01-1.14983E-03-8.82289E+00-6.96421E-05-2.46549E-04
 -1      6996 2.20324E+00 1.38891E+01-1.16952E-03-8.79565E+00-5.12518E-05-1.54289E-04
 -1      6997 2.20357E+00 1.38887E+01-1.17731E-03-8.78202E+00-1.88704E-05-5.24477E-05
 -1      6998 2.20357E+00 1.38887E+01-1.17731E-03-8.78202E+00 1.88704E-05 5.24477E-05
 -1      6999 2.20324E+00 1.38891E+01-1.16952E-03-8.79565E+00 5.12518E-05 1.54289E-04
 -1      7000 2.20259E+00 1.38898E+01-1.14983E-03-8.82289E+00 6.96421E-05 2.46549E-04
 -1      7001 2.20160E+00 1.38908E+01-1.11076E-03-8.86376E+00 7.22221E-05 3.22382E-04
 -1      7002 2.20028E+00 1.38922E+01-1.04598E-03-8.91826E+00 6.66826E-05 3.74161E-04
 -1      7003 3.94568E-01 1.52448E+01-1.56086E-03-8.56878E+00 7.32403E-05-3.57522E-04
 -1      7004 4.04679E-01 1.52346E+01-1.64960E-03-8.51439E+00 6.44335E-05-3.09711E-04
 -1      7005 4.12265E-01 1.52270E+01-1.71712E-03-8.47360E+00 4.77273E-05-2.38502E-04
 -1      7006 4.17323E-01 1.52220E+01-1.76197E-03-8.44641E+00 2.85542E-05-1.50084E-04
 -1      7007 4.19853E-01 1.52194E+01-1.78417E-03-8.43281E+00 9.41395E-06-5.12044E-05
 -1      7008 4.19853E-01 1.52194E+01-1.78417E-03-8.43281E+00-9.41395E-06 5.12044E-05
 -1      7009 4.17323E-01 1.52220E+01-1.76197E-03-8.44641E+00-2.85542E-05 1.50084E-04
 -1      7010 4.12265E-01 1.52270E+01-1.71712E-03-8.47360E+00-4.77273E-05 2.38502E-04
 -1      7011 4.04679E-01 1.52346E+01-1.64960E-03-8.51439E+00-6.44335E-05 3.09711E-04
 -1      7012 3.94568E-01 1.52448E+01-1.56086E-03-8.56878E+00-7.32403E-05 3.57522E-04
 -1      7013-1.49584E+00 1.65287E+01-1.08630E-03-7.96092E+00 1.91737E-04-3.36361E-04
 -1      7014-1.47671E+00 1.65095E+01-1.19237E-03-7.90750E+00 1.63128E-04-2.93525E-04
 -1      7015-1.46236E+00 1.64952E+01-1.27632E-03-7.86744E+00 1.23767E-04-2.27387E-04
 -1      7016-1.45279E+00 1.64856E+01-1.33423E-03-7.84074E+00 7.70320E-05-1.43699E-04
 -1      7017-1.44800E+00 1.64808E+01-1.36374E-03-7.82739E+00 2.61245E-05-4.91260E-05
 -1      7018-1.44800E+00 1.64808E+01-1.36374E-03-7.82739E+00-2.61245E-05 4.91260E-05
 -1      7019-1.45279E+00 1.64856E+01-1.33423E-03-7.84074E+00-7.70320E-05 1.43699E-04
 -1      7020-1.46236E+00 1.64952E+01-1.27632E-03-7.86744E+00-1.23767E-04 2.27387E-04
 -1      7021-1.47671E+00 1.65095E+01-1.19237E-03-7.90750E+00-1.63128E-04 2.93525E-04
 -1      7022-1.49584E+00 1.65287E+01-1.08630E-03-7.96092E+00-1.91737E-04 3.36361E-04
 -1      7023-3.43315E+00 1.76970E+01 4.06850E-04-7.08871E+00 3.03153E-04-3.22698E-04
 -1      7024-3.40475E+00 1.76685E+01 2.79752E-04-7.03722E+00 2.50628E-04-2.85912E-04
 -1      7025-3.38344E+00 1.76472E+01 1.78909E-04-6.99861E+00 1.87366E-04-2.23743E-04
 -1      7026-3.36923E+00 1.76329E+01 1.08991E-04-6.97287E+00 1.15849E-04-1.42280E-04
 -1      7027-3.36213E+00 1.76258E+01 7.32170E-05-6.96000E+00 3.91950E-05-4.87883E-05
 -1      7028-3.36213E+00 1.76258E+01 7.32170E-05-6.96000E+00-3.91950E-05 4.87883E-05
 -1      7029-3.36923E+00 1.76329E+01 1.08991E-04-6.97287E+00-1.15849E-04 1.42280E-04
 -1      7030-3.38344E+00 1.76472E+01 1.78909E-04-6.99861E+00-1.87366E-04 2.23743E-04
 -1      7031-3.40475E+00 1.76685E+01 2.79752E-04-7.03722E+00-2.50628E-04 2.85912E-04
 -1      7032-3.43315E+00 1.76970E+01 4.06850E-04-7.08871E+00-3.03153E-04 3.22698E-04
 -1      7033-5.37927E+00 1.86986E+01 3.00898E-03-5.94563E+00 4.09237E-04-3.30080E-04
 -1      7034-5.34130E+00 1.86604E+01 2.85063E-03-5.89719E+00 3.34117E-04-2.98502E-04
 -1      7035-5.31282E+00 1.86318E+01 2.72546E-03-5.86086E+00 2.47650E-04-2.36576E-04
 -1      7036-5.29382E+00 1.86127E+01 2.63884E-03-5.83665E+00 1.52325E-04-1.51562E-04
 -1      7037-5.28432E+00 1.86032E+01 2.59456E-03-5.82454E+00 5.14108E-05-5.21496E-05
 -1      7038-5.28432E+00 1.86032E+01 2.59456E-03-5.82454E+00-5.14108E-05 5.21496E-05
 -1      7039-5.29382E+00 1.86127E+01 2.63884E-03-5.83665E+00-1.52325E-04 1.51562E-04
 -1      7040-5.31282E+00 1.86318E+01 2.72546E-03-5.86086E+00-2.47650E-04 2.36576E-04
 -1      7041-5.34130E+00 1.86604E+01 2.85063E-03-5.89719E+00-3.34117E-04 2.98502E-04
 -1      7042-5.37927E+00 1.86986E+01 3.00898E-03-5.94563E+00-4.09237E-04 3.30080E-04
 -1      7043-7.29240E+00 1.94747E+01 6.83387E-03-4.52508E+00 5.05673E-04-3.77056E-04
 -1      7044-7.24456E+00 1.94265E+01 6.62918E-03-4.48108E+00 4.12135E-04-3.46512E-04
 -1      7045-7.20867E+00 1.93904E+01 6.46790E-03-4.44808E+00 3.04978E-04-2.77198E-04
 -1      7046-7.18474E+00 1.93663E+01 6.35658E-03-4.42608E+00 1.87359E-04-1.78510E-04
 -1      7047-7.17277E+00 1.93542E+01 6.29975E-03-4.41508E+00 6.31942E-05-6.15653E-05
 -1      7048-7.17277E+00 1.93542E+01 6.29975E-03-4.41508E+00-6.31942E-05 6.15653E-05
 -1      7049-7.18474E+00 1.93663E+01 6.35658E-03-4.42608E+00-1.87359E-04 1.78510E-04
 -1      7050-7.20867E+00 1.93904E+01 6.46790E-03-4.44808E+00-3.04978E-04 2.77198E-04
 -1      7051-7.24456E+00 1.94265E+01 6.62918E-03-4.48108E+00-4.12135E-04 3.46512E-04
 -1      7052-7.29240E+00 1.94747E+01 6.83387E-03-4.52508E+00-5.05673E-04 3.77056E-04
 -1      7053-9.12274E+00 1.99555E+01 1.19572E-02-2.82241E+00 5.85185E-04-4.88934E-04
 -1      7054-9.06480E+00 1.98970E+01 1.16869E-02-2.78463E+00 4.79955E-04-4.50316E-04
 -1      7055-9.02133E+00 1.98531E+01 1.14745E-02-2.75629E+00 3.56603E-04-3.60481E-04
 -1      7056-8.99234E+00 1.98238E+01 1.13282E-02-2.73741E+00 2.19592E-04-2.32161E-04
 -1      7057-8.97784E+00 1.98092E+01 1.12537E-02-2.72797E+00 7.41461E-05-8.00642E-05
 -1      7058-8.97784E+00 1.98092E+01 1.12537E-02-2.72797E+00-7.41461E-05 8.00642E-05
 -1      7059-8.99234E+00 1.98238E+01 1.13282E-02-2.73741E+00-2.19592E-04 2.32161E-04
 -1      7060-9.02133E+00 1.98531E+01 1.14745E-02-2.75629E+00-3.56603E-04 3.60481E-04
 -1      7061-9.06480E+00 1.98970E+01 1.16869E-02-2.78463E+00-4.79955E-04 4.50316E-04
 -1      7062-9.12274E+00 1.99555E+01 1.19572E-02-2.82241E+00-5.85185E-04 4.88934E-04
 -1      7063-1.08078E+01 2.00565E+01 1.83245E-02-8.39264E-01 6.38740E-04-6.98268E-04
 -1      7064-1.07397E+01 1.99875E+01 1.79661E-02-8.10019E-01 5.31680E-04-6.35359E-04
 -1      7065-1.06886E+01 1.99358E+01 1.76854E-02-7.88092E-01 3.98927E-04-5.04541E-04
 -1      7066-1.06546E+01 1.99013E+01 1.74925E-02-7.73477E-01 2.47116E-04-3.23322E-04
 -1      7067-1.06376E+01 1.98840E+01 1.73945E-02-7.66170E-01 8.36723E-05-1.11234E-04
 -1      7068-1.06376E+01 1.98840E+01 1.73945E-02-7.66170E-01-8.36723E-05 1.11234E-04
 -1      7069-1.06546E+01 1.99013E+01 1.74925E-02-7.73477E-01-2.47116E-04 3.23322E-04
 -1      7070-1.06886E+01 1.99358E+01 1.76854E-02-7.88092E-01-3.98927E-04 5.04541E-04
 -1      7071-1.07397E+01 1.99875E+01 1.79661E-02-8.10019E-01-5.31680E-04 6.35359E-04
 -1      7072-1.08078E+01 2.00565E+01 1.83245E-02-8.39264E-01-6.38740E-04 6.98268E-04
 -1      7073-1.22679E+01 1.96761E+01 2.56211E-02 1.40882E+00 6.56086E-04-1.04305E-03
 -1      7074-1.21903E+01 1.95971E+01 2.51515E-02 1.42659E+00 5.60949E-04-9.29451E-04
 -1      7075-1.21320E+01 1.95378E+01 2.47853E-02 1.43990E+00 4.28216E-04-7.28011E-04
 -1      7076-1.20931E+01 1.94983E+01 2.45350E-02 1.44877E+00 2.67996E-04-4.62593E-04
 -1      7077-1.20737E+01 1.94785E+01 2.44080E-02 1.45321E+00 9.11772E-05-1.58502E-04
 -1      7078-1.20737E+01 1.94785E+01 2.44080E-02 1.45321E+00-9.11772E-05 1.58502E-04
 -1      7079-1.20931E+01 1.94983E+01 2.45350E-02 1.44877E+00-2.67996E-04 4.62593E-04
 -1      7080-1.21320E+01 1.95378E+01 2.47853E-02 1.43990E+00-4.28216E-04 7.28011E-04
 -1      7081-1.21903E+01 1.95971E+01 2.51515E-02 1.42659E+00-5.60949E-04 9.29451E-04
 -1      7082-1.22679E+01 1.96761E+01 2.56211E-02 1.40882E+00-6.56086E-04 1.04305E-03
 -1      7083-1.34048E+01 1.86972E+01 3.31073E-02 3.88114E+00 6.25827E-04-1.56049E-03
 -1      7084-1.33189E+01 1.86094E+01 3.25084E-02 3.88386E+00 5.60595E-04-1.35498E-03
 -1      7085-1.32545E+01 1.85435E+01 3.20455E-02 3.88588E+00 4.40118E-04-1.04282E-03
 -1      7086-1.32115E+01 1.84996E+01 3.17312E-02 3.88722E+00 2.79888E-04-6.55336E-04
 -1      7087-1.31900E+01 1.84777E+01 3.15725E-02 3.88789E+00 9.59196E-05-2.23344E-04
 -1      7088-1.31900E+01 1.84777E+01 3.15725E-02 3.88789E+00-9.59196E-05 2.23344E-04
 -1      7089-1.32115E+01 1.84996E+01 3.17312E-02 3.88722E+00-2.79888E-04 6.55336E-04
 -1      7090-1.32545E+01 1.85435E+01 3.20455E-02 3.88588E+00-4.40118E-04 1.04282E-03
 -1      7091-1.33189E+01 1.86094E+01 3.25084E-02 3.88386E+00-5.60595E-04 1.35498E-03
 -1      7092-1.34048E+01 1.86972E+01 3.31073E-02 3.88114E+00-6.25827E-04 1.56049E-03
 -1      7093-1.41040E+01 1.69945E+01 3.94455E-02 6.49725E+00 5.34300E-04-2.27397E-03
 -1      7094-1.40126E+01 1.69005E+01 3.87145E-02 6.48089E+00 5.20140E-04-1.91387E-03
 -1      7095-1.39440E+01 1.68301E+01 3.81583E-02 6.46859E+00 4.26974E-04-1.44082E-03
 -1      7096-1.38983E+01 1.67831E+01 3.77854E-02 6.46038E+00 2.78060E-04-8.92688E-04
 -1      7097-1.38754E+01 1.67597E+01 3.75986E-02 6.45628E+00 9.62922E-05-3.02115E-04
 -1      7098-1.38754E+01 1.67597E+01 3.75986E-02 6.45628E+00-9.62922E-05 3.02115E-04
 -1      7099-1.38983E+01 1.67831E+01 3.77854E-02 6.46038E+00-2.78060E-04 8.92688E-04
 -1      7100-1.39440E+01 1.68301E+01 3.81583E-02 6.46859E+00-4.26974E-04 1.44082E-03
 -1      7101-1.40126E+01 1.69005E+01 3.87145E-02 6.48089E+00-5.20140E-04 1.91387E-03
 -1      7102-1.41040E+01 1.69945E+01 3.94455E-02 6.49725E+00-5.34300E-04 2.27397E-03
 -1      7103-1.42456E+01 1.44517E+01 4.25805E-02 9.12097E+00 3.62124E-04-3.17477E-03
 -1      7104-1.41532E+01 1.43562E+01 4.17436E-02 9.08149E+00 4.19928E-04-2.56923E-03
 -1      7105-1.40840E+01 1.42846E+01 4.11246E-02 9.05186E+00 3.71998E-04-1.87972E-03
 -1      7106-1.40378E+01 1.42369E+01 4.07186E-02 9.03208E+00 2.51266E-04-1.14295E-03
 -1      7107-1.40148E+01 1.42130E+01 4.05181E-02 9.02220E+00 8.83473E-05-3.83235E-04
 -1      7108-1.40148E+01 1.42130E+01 4.05181E-02 9.02220E+00-8.83473E-05 3.83235E-04
 -1      7109-1.40378E+01 1.42369E+01 4.07186E-02 9.03208E+00-2.51266E-04 1.14295E-03
 -1      7110-1.40840E+01 1.42846E+01 4.11246E-02 9.05186E+00-3.71998E-04 1.87972E-03
 -1      7111-1.41532E+01 1.43562E+01 4.17436E-02 9.08149E+00-4.19928E-04 2.56923E-03
 -1      7112-1.42456E+01 1.44517E+01 4.25805E-02 9.12097E+00-3.62124E-04 3.17477E-03
 -1      7113-1.37252E+01 1.09915E+01 3.97731E-02 1.15476E+01 8.12067E-05-4.21567E-03
 -1      7114-1.36388E+01 1.09014E+01 3.88933E-02 1.14818E+01 2.25700E-04-3.25243E-03
 -1      7115-1.35741E+01 1.08338E+01 3.82715E-02 1.14324E+01 2.44882E-04-2.29845E-03
 -1      7116-1.35310E+01 1.07887E+01 3.78760E-02 1.13995E+01 1.79364E-04-1.36664E-03
 -1      7117-1.35095E+01 1.07662E+01 3.76846E-02 1.13830E+01 6.50827E-05-4.53221E-04
 -1      7118-1.35095E+01 1.07662E+01 3.76846E-02 1.13830E+01-6.50827E-05 4.53221E-04
 -1      7119-1.35310E+01 1.07887E+01 3.78760E-02 1.13995E+01-1.79364E-04 1.36664E-03
 -1      7120-1.35741E+01 1.08338E+01 3.82715E-02 1.14324E+01-2.44882E-04 2.29845E-03
 -1      7121-1.36388E+01 1.09014E+01 3.88933E-02 1.14818E+01-2.25700E-04 3.25243E-03
 -1      7122-1.37252E+01 1.09915E+01 3.97731E-02 1.15476E+01-8.12067E-05 4.21567E-03
 -1      7123-1.24864E+01 6.61765E+00 2.78846E-02 1.35016E+01-3.34353E-04-5.37248E-03
 -1      7124-1.24152E+01 6.54204E+00 2.70354E-02 1.34082E+01-9.19147E-05-3.98628E-03
 -1      7125-1.23619E+01 6.48538E+00 2.64471E-02 1.33382E+01 2.37477E-05-2.75761E-03
 -1      7126-1.23264E+01 6.44763E+00 2.60755E-02 1.32914E+01 4.98585E-05-1.62382E-03
 -1      7127-1.23086E+01 6.42877E+00 2.58937E-02 1.32681E+01 2.25598E-05-5.36882E-04
 -1      7128-1.23086E+01 6.42877E+00 2.58937E-02 1.32681E+01-2.25598E-05 5.36882E-04
 -1      7129-1.23264E+01 6.44763E+00 2.60755E-02 1.32914E+01-4.98585E-05 1.62382E-03
 -1      7130-1.23619E+01 6.48538E+00 2.64471E-02 1.33382E+01-2.37477E-05 2.75761E-03
 -1      7131-1.24152E+01 6.54204E+00 2.70354E-02 1.34082E+01 9.19147E-05 3.98628E-03
 -1      7132-1.24864E+01 6.61765E+00 2.78846E-02 1.35016E+01 3.34353E-04 5.37248E-03
 -1      7133-1.05610E+01 1.46512E+00 3.94908E-03 1.46526E+01-8.26254E-04-6.89822E-03
 -1      7134-1.05154E+01 1.41505E+00 3.05997E-03 1.45338E+01-4.50135E-04-5.32522E-03
 -1      7135-1.04808E+01 1.37769E+00 2.33067E-03 1.44446E+01-1.94979E-04-3.89988E-03
 -1      7136-1.04575E+01 1.35288E+00 1.77432E-03 1.43852E+01-5.76737E-05-2.41898E-03
 -1      7137-1.04458E+01 1.34051E+00 1.47083E-03 1.43554E+01-8.39757E-06-8.23689E-04
 -1      7138-1.04458E+01 1.34051E+00 1.47083E-03 1.43554E+01 8.39757E-06 8.23689E-04
 -1      7139-1.04575E+01 1.35288E+00 1.77432E-03 1.43852E+01 5.76737E-05 2.41898E-03
 -1      7140-1.04808E+01 1.37769E+00 2.33067E-03 1.44446E+01 1.94979E-04 3.89988E-03
 -1      7141-1.05154E+01 1.41505E+00 3.05997E-03 1.45338E+01 4.50135E-04 5.32522E-03
 -1      7142-1.05610E+01 1.46512E+00 3.94908E-03 1.46526E+01 8.26254E-04 6.89822E-03
 -1      7143-8.10716E+00-4.15492E+00-3.40959E-02 1.46589E+01-1.07279E-03-9.87981E-03
 -1      7144-8.09560E+00-4.16767E+00-3.55040E-02 1.45210E+01-3.33653E-04-9.30395E-03
 -1      7145-8.08500E+00-4.17669E+00-3.73000E-02 1.44173E+01 1.24510E-04-7.93287E-03
 -1      7146-8.07684E+00-4.18240E+00-3.89175E-02 1.43481E+01 2.46003E-04-5.39901E-03
 -1      7147-8.07240E+00-4.18517E+00-3.98804E-02 1.43134E+01 1.13412E-04-1.91998E-03
 -1      7148-8.07240E+00-4.18517E+00-3.98804E-02 1.43134E+01-1.13412E-04 1.91998E-03
 -1      7149-8.07684E+00-4.18240E+00-3.89175E-02 1.43481E+01-2.46003E-04 5.39901E-03
 -1      7150-8.08500E+00-4.17669E+00-3.73000E-02 1.44173E+01-1.24510E-04 7.93287E-03
 -1      7151-8.09560E+00-4.16767E+00-3.55040E-02 1.45210E+01 3.33653E-04 9.30395E-03
 -1      7152-8.10716E+00-4.15492E+00-3.40959E-02 1.46589E+01 1.07279E-03 9.87981E-03
 -1      7153-5.43217E+00-9.73441E+00-8.59951E-02 1.32355E+01 6.44356E-05-1.67504E-02
 -1      7154-5.45474E+00-9.69845E+00-8.95809E-02 1.30890E+01 1.64814E-03-2.03504E-02
 -1      7155-5.46621E+00-9.67018E+00-9.46539E-02 1.29782E+01 2.29728E-03-1.93268E-02
 -1      7156-5.47128E+00-9.65074E+00-9.94935E-02 1.29039E+01 1.92459E-03-1.37805E-02
 -1      7157-5.47304E+00-9.64085E+00-1.02384E-01 1.28666E+01 7.42618E-04-4.98281E-03
 -1      7158-5.47304E+00-9.64085E+00-1.02384E-01 1.28666E+01-7.42618E-04 4.98281E-03
 -1      7159-5.47128E+00-9.65074E+00-9.94935E-02 1.29039E+01-1.92459E-03 1.37805E-02
 -1      7160-5.46621E+00-9.67018E+00-9.46539E-02 1.29782E+01-2.29728E-03 1.93268E-02
 -1      7161-5.45474E+00-9.69845E+00-8.95809E-02 1.30890E+01-1.64814E-03 2.03504E-02
 -1      7162-5.43217E+00-9.73441E+00-8.59951E-02 1.32355E+01-6.44356E-05 1.67504E-02
 -1      7163-2.97855E+00-1.45917E+01-1.47474E-01 1.02351E+01 2.90573E-03-2.90536E-02
 -1      7164-3.01712E+00-1.44959E+01-1.54261E-01 1.00924E+01 6.83099E-03-4.16263E-02
 -1      7165-3.03865E+00-1.44224E+01-1.65401E-01 9.98486E+00 7.61826E-03-4.07216E-02
 -1      7166-3.04971E+00-1.43726E+01-1.75232E-01 9.91321E+00 5.60976E-03-2.89150E-02
 -1      7167-3.05428E+00-1.43475E+01-1.80791E-01 9.87744E+00 2.03149E-03-1.03903E-02
 -1      7168-3.05428E+00-1.43475E+01-1.80791E-01 9.87744E+00-2.03149E-03 1.03903E-02
 -1      7169-3.04971E+00-1.43726E+01-1.75232E-01 9.91321E+00-5.60976E-03 2.89150E-02
 -1      7170-3.03865E+00-1.44224E+01-1.65401E-01 9.98486E+00-7.61826E-03 4.07216E-02
 -1      7171-3.01712E+00-1.44959E+01-1.54261E-01 1.00924E+01-6.83099E-03 4.16263E-02
 -1      7172-2.97855E+00-1.45917E+01-1.47474E-01 1.02351E+01-2.90573E-03 2.90536E-02
 -1      7173-1.24123E+00-1.79328E+01-1.91861E-01 5.69627E+00 7.38944E-03-3.50346E-02
 -1      7174-1.27401E+00-1.77723E+01-2.03240E-01 5.58733E+00 5.00069E-03-5.45703E-02
 -1      7175-1.29379E+00-1.76525E+01-2.11733E-01 5.51012E+00-1.18542E-04-5.15415E-02
 -1      7176-1.30469E+00-1.75732E+01-2.16513E-01 5.46040E+00-2.15465E-03-3.55607E-02
 -1      7177-1.30946E+00-1.75338E+01-2.18506E-01 5.43600E+00-1.11009E-03-1.25927E-02
 -1      7178-1.30946E+00-1.75338E+01-2.18506E-01 5.43600E+00 1.11009E-03 1.25927E-02
 -1      7179-1.30469E+00-1.75732E+01-2.16513E-01 5.46040E+00 2.15465E-03 3.55607E-02
 -1      7180-1.29379E+00-1.76525E+01-2.11733E-01 5.51012E+00 1.18542E-04 5.15415E-02
 -1      7181-1.27401E+00-1.77723E+01-2.03240E-01 5.58733E+00-5.00069E-03 5.45703E-02
 -1      7182-1.24123E+00-1.79328E+01-1.91861E-01 5.69627E+00-7.38944E-03 3.50346E-02
 -1      7183 3.70551E+00 3.06512E+00-1.34010E-01-2.29274E-01-1.20383E-01-1.09101E-01
 -1      7184 3.77290E+00 3.09910E+00 2.06656E-01-4.85174E-01-2.68422E-01-1.52783E-01
 -1      7185 3.81115E+00 3.10677E+00 4.20661E-01-6.44595E-01-2.40117E-01-1.35297E-01
 -1      7186 3.83078E+00 3.10651E+00 5.42845E-01-7.40189E-01-1.56759E-01-8.96346E-02
 -1      7187 3.83904E+00 3.10525E+00 5.98327E-01-7.85359E-01-5.39193E-02-3.11242E-02
 -1      7188 3.83904E+00 3.10525E+00 5.98327E-01-7.85359E-01 5.39193E-02 3.11242E-02
 -1      7189 3.83078E+00 3.10651E+00 5.42845E-01-7.40189E-01 1.56759E-01 8.96346E-02
 -1      7190 3.81115E+00 3.10677E+00 4.20661E-01-6.44595E-01 2.40117E-01 1.35297E-01
 -1      7191 3.77290E+00 3.09910E+00 2.06656E-01-4.85174E-01 2.68422E-01 1.52783E-01
 -1      7192 3.70551E+00 3.06512E+00-1.34010E-01-2.29274E-01 1.20383E-01 1.09101E-01
 -1      7193 5.68571E+00 2.59942E+00 1.03685E-01-2.08021E+00 1.00674E-02-1.05802E-01
 -1      7194 5.61642E+00 2.68825E+00 8.41545E-03-2.20009E+00 3.09837E-02-1.37034E-01
 -1      7195 5.58941E+00 2.74150E+00 1.73081E-02-2.30118E+00 4.21804E-03-1.26270E-01
 -1      7196 5.57939E+00 2.77163E+00 4.75279E-02-2.37030E+00-7.06931E-03-8.64416E-02
 -1      7197 5.57614E+00 2.78525E+00 6.77994E-02-2.40502E+00-4.02468E-03-3.05192E-02
 -1      7198 5.57614E+00 2.78525E+00 6.77994E-02-2.40502E+00 4.02468E-03 3.05192E-02
 -1      7199 5.57939E+00 2.77163E+00 4.75279E-02-2.37030E+00 7.06931E-03 8.64416E-02
 -1      7200 5.58941E+00 2.74150E+00 1.73081E-02-2.30118E+00-4.21804E-03 1.26270E-01
 -1      7201 5.61642E+00 2.68825E+00 8.41545E-03-2.20009E+00-3.09837E-02 1.37034E-01
 -1      7202 5.68571E+00 2.59942E+00 1.03685E-01-2.08021E+00-1.00674E-02 1.05802E-01
 -1      7203 6.90237E+00 2.40372E+00 2.04192E-02-3.81926E+00 2.98945E-02-3.36634E-02
 -1      7204 6.87871E+00 2.53733E+00 2.64281E-02-3.82618E+00 4.83146E-02-5.65307E-02
 -1      7205 6.84668E+00 2.62358E+00-1.14282E-03-3.84906E+00 5.15515E-02-5.73735E-02
 -1      7206 6.82376E+00 2.67606E+00-2.07496E-02-3.87178E+00 3.57042E-02-4.15426E-02
 -1      7207 6.81240E+00 2.70097E+00-2.94891E-02-3.88510E+00 1.24636E-02-1.50586E-02
 -1      7208 6.81240E+00 2.70097E+00-2.94891E-02-3.88510E+00-1.24636E-02 1.50586E-02
 -1      7209 6.82376E+00 2.67606E+00-2.07496E-02-3.87178E+00-3.57042E-02 4.15426E-02
 -1      7210 6.84668E+00 2.62358E+00-1.14282E-03-3.84906E+00-5.15515E-02 5.73735E-02
 -1      7211 6.87871E+00 2.53733E+00 2.64281E-02-3.82618E+00-4.83146E-02 5.65307E-02
 -1      7212 6.90237E+00 2.40372E+00 2.04192E-02-3.81926E+00-2.98945E-02 3.36634E-02
 -1      7213 7.60683E+00 2.72041E+00 2.44403E-02-5.32111E+00 1.50471E-02-8.33211E-03
 -1      7214 7.56162E+00 2.78357E+00 1.44419E-02-5.29792E+00 2.59554E-02-1.30676E-02
 -1      7215 7.53230E+00 2.84453E+00 7.76185E-03-5.28430E+00 2.69957E-02-1.48315E-02
 -1      7216 7.51201E+00 2.88846E+00-1.88691E-03-5.27812E+00 2.06384E-02-1.14919E-02
 -1      7217 7.50150E+00 2.91106E+00-8.32253E-03-5.27606E+00 7.68864E-03-4.30244E-03
 -1      7218 7.50150E+00 2.91106E+00-8.32253E-03-5.27606E+00-7.68864E-03 4.30244E-03
 -1      7219 7.51201E+00 2.88846E+00-1.88691E-03-5.27812E+00-2.06384E-02 1.14919E-02
 -1      7220 7.53230E+00 2.84453E+00 7.76185E-03-5.28430E+00-2.69957E-02 1.48315E-02
 -1      7221 7.56162E+00 2.78357E+00 1.44419E-02-5.29792E+00-2.59554E-02 1.30676E-02
 -1      7222 7.60683E+00 2.72041E+00 2.44403E-02-5.32111E+00-1.50471E-02 8.33211E-03
 -1      7223 7.76938E+00 3.33461E+00 2.28353E-02-6.61555E+00 4.26576E-03-2.98397E-04
 -1      7224 7.72830E+00 3.38008E+00 2.04434E-02-6.57989E+00 7.87730E-03-9.87818E-04
 -1      7225 7.69733E+00 3.41671E+00 1.59358E-02-6.55451E+00 8.90466E-03-1.28108E-03
 -1      7226 7.67753E+00 3.44380E+00 1.28735E-02-6.53809E+00 6.72727E-03-1.16265E-03
 -1      7227 7.66782E+00 3.45820E+00 1.10637E-02-6.53006E+00 2.50626E-03-4.69141E-04
 -1      7228 7.66782E+00 3.45820E+00 1.10637E-02-6.53006E+00-2.50626E-03 4.69141E-04
 -1      7229 7.67753E+00 3.44380E+00 1.28735E-02-6.53809E+00-6.72727E-03 1.16265E-03
 -1      7230 7.69733E+00 3.41671E+00 1.59358E-02-6.55451E+00-8.90466E-03 1.28108E-03
 -1      7231 7.72830E+00 3.38008E+00 2.04434E-02-6.57989E+00-7.87730E-03 9.87818E-04
 -1      7232 7.76938E+00 3.33461E+00 2.28353E-02-6.61555E+00-4.26576E-03 2.98397E-04
 -1      7233 7.45815E+00 4.22004E+00 1.92061E-02-7.70064E+00 6.39910E-05 6.58511E-04
 -1      7234 7.42197E+00 4.25414E+00 1.85471E-02-7.66087E+00 6.70621E-04 1.01525E-03
 -1      7235 7.39520E+00 4.28104E+00 1.78489E-02-7.63094E+00 1.07849E-03 8.98778E-04
 -1      7236 7.37732E+00 4.29942E+00 1.69123E-02-7.61106E+00 1.00506E-03 6.12782E-04
 -1      7237 7.36844E+00 4.30882E+00 1.64098E-02-7.60114E+00 3.96875E-04 2.14600E-04
 -1      7238 7.36844E+00 4.30882E+00 1.64098E-02-7.60114E+00-3.96875E-04-2.14600E-04
 -1      7239 7.37732E+00 4.29942E+00 1.69123E-02-7.61106E+00-1.00506E-03-6.12782E-04
 -1      7240 7.39520E+00 4.28104E+00 1.78489E-02-7.63094E+00-1.07849E-03-8.98778E-04
 -1      7241 7.42197E+00 4.25414E+00 1.85471E-02-7.66087E+00-6.70621E-04-1.01525E-03
 -1      7242 7.45815E+00 4.22004E+00 1.92061E-02-7.70064E+00-6.39910E-05-6.58511E-04
 -1      7243 6.74099E+00 5.33333E+00 1.39848E-02-8.57123E+00-8.89570E-04 2.28233E-04
 -1      7244 6.71160E+00 5.36078E+00 1.40187E-02-8.52850E+00-1.03712E-03 4.82775E-04
 -1      7245 6.68957E+00 5.38141E+00 1.40489E-02-8.49633E+00-8.66554E-04 5.30433E-04
 -1      7246 6.67495E+00 5.39531E+00 1.41088E-02-8.47481E+00-5.54009E-04 3.87884E-04
 -1      7247 6.66763E+00 5.40228E+00 1.41029E-02-8.46403E+00-1.85051E-04 1.41618E-04
 -1      7248 6.66763E+00 5.40228E+00 1.41029E-02-8.46403E+00 1.85051E-04-1.41618E-04
 -1      7249 6.67495E+00 5.39531E+00 1.41088E-02-8.47481E+00 5.54009E-04-3.87884E-04
 -1      7250 6.68957E+00 5.38141E+00 1.40489E-02-8.49633E+00 8.66554E-04-5.30433E-04
 -1      7251 6.71160E+00 5.36078E+00 1.40187E-02-8.52850E+00 1.03712E-03-4.82775E-04
 -1      7252 6.74099E+00 5.33333E+00 1.39848E-02-8.57123E+00 8.89570E-04-2.28233E-04
 -1      7253 5.68578E+00 6.62727E+00 9.08676E-03-9.21727E+00-7.63547E-04-1.42678E-04
 -1      7254 5.66369E+00 6.64829E+00 9.16911E-03-9.17207E+00-9.28175E-04-1.55165E-05
 -1      7255 5.64711E+00 6.66394E+00 9.32332E-03-9.13809E+00-8.52507E-04 5.13612E-05
 -1      7256 5.63605E+00 6.67432E+00 9.45756E-03-9.11540E+00-5.88404E-04 6.14067E-05
 -1      7257 5.63053E+00 6.67950E+00 9.54566E-03-9.10405E+00-2.09931E-04 2.55729E-05
 -1      7258 5.63053E+00 6.67950E+00 9.54566E-03-9.10405E+00 2.09931E-04-2.55729E-05
 -1      7259 5.63605E+00 6.67432E+00 9.45756E-03-9.11540E+00 5.88404E-04-6.14067E-05
 -1      7260 5.64711E+00 6.66394E+00 9.32332E-03-9.13809E+00 8.52507E-04-5.13612E-05
 -1      7261 5.66369E+00 6.64829E+00 9.16911E-03-9.17207E+00 9.28175E-04 1.55165E-05
 -1      7262 5.68578E+00 6.62727E+00 9.08676E-03-9.21727E+00 7.63547E-04 1.42678E-04
 -1      7263 4.35569E+00 8.05115E+00 5.34318E-03-9.62790E+00-4.82594E-04-3.05786E-04
 -1      7264 4.34121E+00 8.06518E+00 5.35896E-03-9.58071E+00-5.40518E-04-2.37958E-04
 -1      7265 4.33034E+00 8.07561E+00 5.42247E-03-9.54530E+00-4.91654E-04-1.63575E-04
 -1      7266 4.32309E+00 8.08251E+00 5.49447E-03-9.52168E+00-3.42075E-04-9.42066E-05
 -1      7267 4.31946E+00 8.08594E+00 5.53698E-03-9.50986E+00-1.22100E-04-3.04024E-05
 -1      7268 4.31946E+00 8.08594E+00 5.53698E-03-9.50986E+00 1.22100E-04 3.04024E-05
 -1      7269 4.32309E+00 8.08251E+00 5.49447E-03-9.52168E+00 3.42075E-04 9.42067E-05
 -1      7270 4.33034E+00 8.07561E+00 5.42247E-03-9.54530E+00 4.91654E-04 1.63575E-04
 -1      7271 4.34121E+00 8.06518E+00 5.35896E-03-9.58071E+00 5.40518E-04 2.37958E-04
 -1      7272 4.35569E+00 8.05115E+00 5.34318E-03-9.62790E+00 4.82594E-04 3.05786E-04
 -1      7273 2.80857E+00 9.55433E+00 2.91066E-03-9.79251E+00-2.66663E-04-3.54073E-04
 -1      7274 2.80194E+00 9.56079E+00 2.86955E-03-9.74401E+00-2.62275E-04-3.00417E-04
 -1      7275 2.79697E+00 9.56559E+00 2.85832E-03-9.70763E+00-2.26654E-04-2.26347E-04
 -1      7276 2.79365E+00 9.56877E+00 2.86188E-03-9.68337E+00-1.54708E-04-1.39862E-04
 -1      7277 2.79199E+00 9.57035E+00 2.86806E-03-9.67124E+00-5.50573E-05-4.72914E-05
 -1      7278 2.79199E+00 9.57035E+00 2.86806E-03-9.67124E+00 5.50573E-05 4.72914E-05
 -1      7279 2.79365E+00 9.56877E+00 2.86188E-03-9.68337E+00 1.54708E-04 1.39862E-04
 -1      7280 2.79697E+00 9.56559E+00 2.85832E-03-9.70763E+00 2.26654E-04 2.26347E-04
 -1      7281 2.80194E+00 9.56079E+00 2.86955E-03-9.74401E+00 2.62275E-04 3.00417E-04
 -1      7282 2.80857E+00 9.55433E+00 2.91066E-03-9.79251E+00 2.66663E-04 3.54073E-04
 -1      7283 1.09716E+00 1.10874E+01 1.65295E-03-9.70154E+00-1.18167E-04-3.56838E-04
 -1      7284 1.09860E+00 1.10859E+01 1.58139E-03-9.65248E+00-1.00272E-04-3.04683E-04
 -1      7285 1.09967E+00 1.10847E+01 1.53118E-03-9.61568E+00-7.99999E-05-2.31979E-04
 -1      7286 1.10039E+00 1.10839E+01 1.50045E-03-9.59115E+00-5.25955E-05-1.44880E-04
 -1      7287 1.10075E+00 1.10836E+01 1.48600E-03-9.57889E+00-1.84178E-05-4.92171E-05
 -1      7288 1.10075E+00 1.10836E+01 1.48600E-03-9.57889E+00 1.84178E-05 4.92171E-05
 -1      7289 1.10039E+00 1.10839E+01 1.50045E-03-9.59115E+00 5.25955E-05 1.44880E-04
 -1      7290 1.09967E+00 1.10847E+01 1.53118E-03-9.61568E+00 7.99999E-05 2.31979E-04
 -1      7291 1.09860E+00 1.10859E+01 1.58139E-03-9.65248E+00 1.00272E-04 3.04683E-04
 -1      7292 1.09716E+00 1.10874E+01 1.65295E-03-9.70154E+00 1.18167E-04 3.56838E-04
 -1      7293-7.30156E-01 1.26018E+01 1.40063E-03-9.34671E+00-4.02531E-06-3.44891E-04
 -1      7294-7.20474E-01 1.25920E+01 1.31247E-03-9.29789E+00 2.40418E-06-2.93273E-04
 -1      7295-7.13209E-01 1.25847E+01 1.24423E-03-9.26128E+00 3.77634E-06-2.23215E-04
 -1      7296-7.08365E-01 1.25798E+01 1.19802E-03-9.23687E+00 2.76405E-06-1.39504E-04
 -1      7297-7.05943E-01 1.25774E+01 1.17479E-03-9.22467E+00 9.64427E-07-4.74438E-05
 -1      7298-7.05943E-01 1.25774E+01 1.17479E-03-9.22467E+00-9.64427E-07 4.74438E-05
 -1      7299-7.08365E-01 1.25798E+01 1.19802E-03-9.23687E+00-2.76405E-06 1.39504E-04
 -1      7300-7.13209E-01 1.25847E+01 1.24423E-03-9.26128E+00-3.77634E-06 2.23215E-04
 -1      7301-7.20474E-01 1.25920E+01 1.31247E-03-9.29789E+00-2.40418E-06 2.93273E-04
 -1      7302-7.30156E-01 1.26018E+01 1.40063E-03-9.34671E+00 4.02531E-06 3.44891E-04
 -1      7303-2.62827E+00 1.40487E+01 2.04811E-03-8.72105E+00 9.58646E-05-3.31945E-04
 -1      7304-2.61016E+00 1.40305E+01 1.94557E-03-8.67334E+00 8.27643E-05-2.82430E-04
 -1      7305-2.59657E+00 1.40169E+01 1.86515E-03-8.63757E+00 6.36700E-05-2.15217E-04
 -1      7306-2.58751E+00 1.40078E+01 1.80987E-03-8.61372E+00 4.00429E-05-1.34666E-04
 -1      7307-2.58297E+00 1.40032E+01 1.78174E-03-8.60180E+00 1.36552E-05-4.58242E-05
 -1      7308-2.58297E+00 1.40032E+01 1.78174E-03-8.60180E+00-1.36552E-05 4.58242E-05
 -1      7309-2.58751E+00 1.40078E+01 1.80987E-03-8.61372E+00-4.00429E-05 1.34666E-04
 -1      7310-2.59657E+00 1.40169E+01 1.86515E-03-8.63757E+00-6.36700E-05 2.15217E-04
 -1      7311-2.61016E+00 1.40305E+01 1.94557E-03-8.67334E+00-8.27643E-05 2.82430E-04
 -1      7312-2.62827E+00 1.40487E+01 2.04811E-03-8.72105E+00-9.58646E-05 3.31945E-04
 -1      7313-4.55362E+00 1.53775E+01 3.56902E-03-7.81880E+00 1.87404E-04-3.27968E-04
 -1      7314-4.52690E+00 1.53506E+01 3.44748E-03-7.77318E+00 1.54594E-04-2.81146E-04
 -1      7315-4.50685E+00 1.53305E+01 3.35242E-03-7.73897E+00 1.15564E-04-2.15394E-04
 -1      7316-4.49348E+00 1.53170E+01 3.28709E-03-7.71616E+00 7.15045E-05-1.35246E-04
 -1      7317-4.48680E+00 1.53103E+01 3.25382E-03-7.70476E+00 2.42063E-05-4.61017E-05
 -1      7318-4.48680E+00 1.53103E+01 3.25382E-03-7.70476E+00-2.42063E-05 4.61017E-05
 -1      7319-4.49348E+00 1.53170E+01 3.28709E-03-7.71616E+00-7.15045E-05 1.35246E-04
 -1      7320-4.50685E+00 1.53305E+01 3.35242E-03-7.73897E+00-1.15564E-04 2.15394E-04
 -1      7321-4.52690E+00 1.53506E+01 3.44748E-03-7.77318E+00-1.54594E-04 2.81146E-04
 -1      7322-4.55362E+00 1.53775E+01 3.56902E-03-7.81880E+00-1.87404E-04 3.27968E-04
 -1      7323-6.46187E+00 1.65329E+01 5.99238E-03-6.63563E+00 2.68663E-04-3.44920E-04
 -1      7324-6.42638E+00 1.64971E+01 5.84312E-03-6.59322E+00 2.19301E-04-2.99201E-04
 -1      7325-6.39975E+00 1.64703E+01 5.72670E-03-6.56141E+00 1.62602E-04-2.31059E-04
 -1      7326-6.38200E+00 1.64524E+01 5.64682E-03-6.54021E+00 1.00065E-04-1.45797E-04
 -1      7327-6.37312E+00 1.64435E+01 5.60618E-03-6.52961E+00 3.37843E-05-4.98151E-05
 -1      7328-6.37312E+00 1.64435E+01 5.60618E-03-6.52961E+00-3.37843E-05 4.98151E-05
 -1      7329-6.38200E+00 1.64524E+01 5.64682E-03-6.54021E+00-1.00065E-04 1.45797E-04
 -1      7330-6.39975E+00 1.64703E+01 5.72670E-03-6.56141E+00-1.62602E-04 2.31059E-04
 -1      7331-6.42638E+00 1.64971E+01 5.84312E-03-6.59322E+00-2.19301E-04 2.99201E-04
 -1      7332-6.46187E+00 1.65329E+01 5.99238E-03-6.63563E+00-2.68663E-04 3.44920E-04
 -1      7333-8.30490E+00 1.74528E+01 9.35916E-03-5.16962E+00 3.34196E-04-3.99103E-04
 -1      7334-8.26053E+00 1.74080E+01 9.17043E-03-5.13177E+00 2.73464E-04-3.49795E-04
 -1      7335-8.22724E+00 1.73744E+01 9.02330E-03-5.10339E+00 2.03009E-04-2.71933E-04
 -1      7336-8.20504E+00 1.73520E+01 8.92243E-03-5.08447E+00 1.24999E-04-1.72272E-04
 -1      7337-8.19394E+00 1.73408E+01 8.87113E-03-5.07501E+00 4.22111E-05-5.89710E-05
 -1      7338-8.19394E+00 1.73408E+01 8.87113E-03-5.07501E+00-4.22111E-05 5.89710E-05
 -1      7339-8.20504E+00 1.73520E+01 8.92243E-03-5.08447E+00-1.24999E-04 1.72272E-04
 -1      7340-8.22724E+00 1.73744E+01 9.02330E-03-5.10339E+00-2.03009E-04 2.71933E-04
 -1      7341-8.26053E+00 1.74080E+01 9.17043E-03-5.13177E+00-2.73464E-04 3.49795E-04
 -1      7342-8.30490E+00 1.74528E+01 9.35916E-03-5.16962E+00-3.34196E-04 3.99103E-04
 -1      7343-1.00273E+01 1.80652E+01 1.36615E-02-3.42367E+00 3.76952E-04-5.12227E-04
 -1      7344-9.97410E+00 1.80113E+01 1.34190E-02-3.39207E+00 3.12198E-04-4.50377E-04
 -1      7345-9.93416E+00 1.79710E+01 1.32299E-02-3.36837E+00 2.33689E-04-3.50761E-04
 -1      7346-9.90753E+00 1.79440E+01 1.31003E-02-3.35258E+00 1.44632E-04-2.22424E-04
 -1      7347-9.89421E+00 1.79306E+01 1.30344E-02-3.34468E+00 4.89609E-05-7.61698E-05
 -1      7348-9.89421E+00 1.79306E+01 1.30344E-02-3.34468E+00-4.89609E-05 7.61698E-05
 -1      7349-9.90753E+00 1.79440E+01 1.31003E-02-3.35258E+00-1.44632E-04 2.22424E-04
 -1      7350-9.93416E+00 1.79710E+01 1.32299E-02-3.36837E+00-2.33689E-04 3.50761E-04
 -1      7351-9.97410E+00 1.80113E+01 1.34190E-02-3.39207E+00-3.12198E-04 4.50377E-04
 -1      7352-1.00273E+01 1.80652E+01 1.36615E-02-3.42367E+00-3.76952E-04 5.12227E-04
 -1      7353-1.15630E+01 1.82864E+01 1.87606E-02-1.40999E+00 3.89159E-04-7.11414E-04
 -1      7354-1.15012E+01 1.82237E+01 1.84486E-02-1.38671E+00 3.30455E-04-6.22273E-04
 -1      7355-1.14549E+01 1.81767E+01 1.82054E-02-1.36926E+00 2.51582E-04-4.82820E-04
 -1      7356-1.14240E+01 1.81454E+01 1.80386E-02-1.35763E+00 1.57347E-04-3.05413E-04
 -1      7357-1.14085E+01 1.81297E+01 1.79539E-02-1.35181E+00 5.35328E-05-1.04462E-04
 -1      7358-1.14085E+01 1.81297E+01 1.79539E-02-1.35181E+00-5.35328E-05 1.04462E-04
 -1      7359-1.14240E+01 1.81454E+01 1.80386E-02-1.35763E+00-1.57347E-04 3.05413E-04
 -1      7360-1.14549E+01 1.81767E+01 1.82054E-02-1.36926E+00-2.51582E-04 4.82820E-04
 -1      7361-1.15012E+01 1.82237E+01 1.84486E-02-1.38671E+00-3.30455E-04 6.22273E-04
 -1      7362-1.15630E+01 1.82864E+01 1.87606E-02-1.40999E+00-3.89159E-04 7.11414E-04
 -1      7363-1.28327E+01 1.80205E+01 2.42826E-02 8.42838E-01 3.63027E-04-1.02729E-03
 -1      7364-1.27632E+01 1.79497E+01 2.38861E-02 8.55280E-01 3.23615E-04-8.88255E-04
 -1      7365-1.27110E+01 1.78967E+01 2.35773E-02 8.64602E-01 2.54128E-04-6.83618E-04
 -1      7366-1.26762E+01 1.78613E+01 2.33660E-02 8.70812E-01 1.61895E-04-4.30178E-04
 -1      7367-1.26588E+01 1.78436E+01 2.32588E-02 8.73915E-01 5.55563E-05-1.46759E-04
 -1      7368-1.26588E+01 1.78436E+01 2.32588E-02 8.73915E-01-5.55563E-05 1.46759E-04
 -1      7369-1.26762E+01 1.78613E+01 2.33660E-02 8.70812E-01-1.61895E-04 4.30178E-04
 -1      7370-1.27110E+01 1.78967E+01 2.35773E-02 8.64602E-01-2.54128E-04 6.83618E-04
 -1      7371-1.27632E+01 1.79497E+01 2.38861E-02 8.55280E-01-3.23615E-04 8.88255E-04
 -1      7372-1.28327E+01 1.80205E+01 2.42826E-02 8.42838E-01-3.63027E-04 1.02729E-03
 -1      7373-1.37441E+01 1.71626E+01 2.94986E-02 3.28016E+00 2.91295E-04-1.48855E-03
 -1      7374-1.36684E+01 1.70853E+01 2.90078E-02 3.27887E+00 2.87430E-04-1.26622E-03
 -1      7375-1.36117E+01 1.70274E+01 2.86273E-02 3.27789E+00 2.38938E-04-9.63148E-04
 -1      7376-1.35739E+01 1.69888E+01 2.83680E-02 3.27723E+00 1.57070E-04-6.01470E-04
 -1      7377-1.35549E+01 1.69695E+01 2.82368E-02 3.27690E+00 5.46637E-05-2.04427E-04
 -1      7378-1.35549E+01 1.69695E+01 2.82368E-02 3.27690E+00-5.46637E-05 2.04427E-04
 -1      7379-1.35739E+01 1.69888E+01 2.83680E-02 3.27723E+00-1.57070E-04 6.01470E-04
 -1      7380-1.36117E+01 1.70274E+01 2.86273E-02 3.27789E+00-2.38938E-04 9.63148E-04
 -1      7381-1.36684E+01 1.70853E+01 2.90078E-02 3.27887E+00-2.87430E-04 1.26622E-03
 -1      7382-1.37441E+01 1.71626E+01 2.94986E-02 3.28016E+00-2.91295E-04 1.48855E-03
 -1      7383-1.41967E+01 1.56081E+01 3.32167E-02 5.80969E+00 1.66924E-04-2.11101E-03
 -1      7384-1.41177E+01 1.55272E+01 3.26349E-02 5.79161E+00 2.16321E-04-1.75685E-03
 -1      7385-1.40585E+01 1.54665E+01 3.21890E-02 5.77803E+00 2.01753E-04-1.31492E-03
 -1      7386-1.40190E+01 1.54260E+01 3.18878E-02 5.76896E+00 1.40145E-04-8.12420E-04
 -1      7387-1.39993E+01 1.54058E+01 3.17363E-02 5.76443E+00 4.99130E-05-2.74652E-04
 -1      7388-1.39993E+01 1.54058E+01 3.17363E-02 5.76443E+00-4.99130E-05 2.74652E-04
 -1      7389-1.40190E+01 1.54260E+01 3.18878E-02 5.76896E+00-1.40145E-04 8.12420E-04
 -1      7390-1.40585E+01 1.54665E+01 3.21890E-02 5.77803E+00-2.01753E-04 1.31492E-03
 -1      7391-1.41177E+01 1.55272E+01 3.26349E-02 5.79161E+00-2.16321E-04 1.75685E-03
 -1      7392-1.41967E+01 1.56081E+01 3.32167E-02 5.80969E+00-1.66924E-04 2.11101E-03
 -1      7393-1.40933E+01 1.32703E+01 3.37359E-02 8.29033E+00-1.93238E-05-2.88144E-03
 -1      7394-1.40153E+01 1.31900E+01 3.30904E-02 8.25262E+00 9.87163E-05-2.32625E-03
 -1      7395-1.39569E+01 1.31297E+01 3.26075E-02 8.22432E+00 1.31619E-04-1.70160E-03
 -1      7396-1.39179E+01 1.30896E+01 3.22879E-02 8.20543E+00 1.03371E-04-1.03520E-03
 -1      7397-1.38984E+01 1.30695E+01 3.21289E-02 8.19599E+00 3.85116E-05-3.47276E-04
 -1      7398-1.38984E+01 1.30695E+01 3.21289E-02 8.19599E+00-3.85116E-05 3.47276E-04
 -1      7399-1.39179E+01 1.30896E+01 3.22879E-02 8.20543E+00-1.03371E-04 1.03520E-03
 -1      7400-1.39569E+01 1.31297E+01 3.26075E-02 8.22432E+00-1.31619E-04 1.70160E-03
 -1      7401-1.40153E+01 1.31900E+01 3.30904E-02 8.25262E+00-9.87163E-05 2.32625E-03
 -1      7402-1.40933E+01 1.32703E+01 3.37359E-02 8.29033E+00 1.93238E-05 2.88144E-03
 -1      7403-1.33597E+01 1.01070E+01 2.89298E-02 1.05252E+01-2.82402E-04-3.74707E-03
 -1      7404-1.32887E+01 1.00333E+01 2.82795E-02 1.04660E+01-8.90618E-05-2.90108E-03
 -1      7405-1.32355E+01 9.97798E+00 2.78175E-02 1.04215E+01 5.39941E-06-2.05553E-03
 -1      7406-1.32001E+01 9.94114E+00 2.75223E-02 1.03919E+01 3.05677E-05-1.22425E-03
 -1      7407-1.31824E+01 9.92273E+00 2.73793E-02 1.03770E+01 1.47193E-05-4.06296E-04
 -1      7408-1.31824E+01 9.92273E+00 2.73793E-02 1.03770E+01-1.47193E-05 4.06296E-04
 -1      7409-1.32001E+01 9.94114E+00 2.75223E-02 1.03919E+01-3.05677E-05 1.22425E-03
 -1      7410-1.32355E+01 9.97798E+00 2.78175E-02 1.04215E+01-5.39941E-06 2.05553E-03
 -1      7411-1.32887E+01 1.00333E+01 2.82795E-02 1.04660E+01 8.90618E-05 2.90108E-03
 -1      7412-1.33597E+01 1.01070E+01 2.89298E-02 1.05252E+01 2.82402E-04 3.74707E-03
 -1      7413-1.19720E+01 6.15616E+00 1.65094E-02 1.22649E+01-6.39635E-04-4.65169E-03
 -1      7414-1.19156E+01 6.09668E+00 1.59330E-02 1.21839E+01-3.74533E-04-3.44205E-03
 -1      7415-1.18734E+01 6.05211E+00 1.55471E-02 1.21232E+01-2.01775E-04-2.36534E-03
 -1      7416-1.18453E+01 6.02242E+00 1.53147E-02 1.20828E+01-9.47917E-05-1.38249E-03
 -1      7417-1.18313E+01 6.00758E+00 1.52040E-02 1.20625E+01-2.72262E-05-4.54967E-04
 -1      7418-1.18313E+01 6.00758E+00 1.52040E-02 1.20625E+01 2.72262E-05 4.54967E-04
 -1      7419-1.18453E+01 6.02242E+00 1.53147E-02 1.20828E+01 9.47917E-05 1.38249E-03
 -1      7420-1.18734E+01 6.05211E+00 1.55471E-02 1.21232E+01 2.01775E-04 2.36534E-03
 -1      7421-1.19156E+01 6.09668E+00 1.59330E-02 1.21839E+01 3.74533E-04 3.44205E-03
 -1      7422-1.19720E+01 6.15616E+00 1.65094E-02 1.22649E+01 6.39635E-04 4.65169E-03
 -1      7423-9.98815E+00 1.57500E+00-5.55410E-03 1.32262E+01-1.05669E-03-5.72663E-03
 -1      7424-9.95479E+00 1.53840E+00-6.07532E-03 1.31261E+01-7.18184E-04-4.27220E-03
 -1      7425-9.92956E+00 1.51108E+00-6.44836E-03 1.30511E+01-4.43727E-04-3.01800E-03
 -1      7426-9.91262E+00 1.49293E+00-6.72470E-03 1.30011E+01-2.33228E-04-1.82216E-03
 -1      7427-9.90410E+00 1.48388E+00-6.87261E-03 1.29760E+01-7.16220E-05-6.11716E-04
 -1      7428-9.90410E+00 1.48388E+00-6.87261E-03 1.29760E+01 7.16220E-05 6.11716E-04
 -1      7429-9.91262E+00 1.49293E+00-6.72470E-03 1.30011E+01 2.33228E-04 1.82216E-03
 -1      7430-9.92956E+00 1.51108E+00-6.44836E-03 1.30511E+01 4.43727E-04 3.01800E-03
 -1      7431-9.95479E+00 1.53840E+00-6.07532E-03 1.31261E+01 7.18184E-04 4.27220E-03
 -1      7432-9.98815E+00 1.57500E+00-5.55410E-03 1.32262E+01 1.05669E-03 5.72663E-03
 -1      7433-7.57567E+00-3.32893E+00-3.86463E-02 1.31313E+01-1.31309E-03-7.76708E-03
 -1      7434-7.57192E+00-3.33387E+00-3.93870E-02 1.30180E+01-7.69693E-04-6.88638E-03
 -1      7435-7.56785E+00-3.33722E+00-4.04194E-02 1.29329E+01-3.52211E-04-5.66382E-03
 -1      7436-7.56440E+00-3.33924E+00-4.13463E-02 1.28761E+01-1.14637E-04-3.77740E-03
 -1      7437-7.56242E+00-3.34019E+00-4.18996E-02 1.28476E+01-2.02029E-05-1.33153E-03
 -1      7438-7.56242E+00-3.34019E+00-4.18996E-02 1.28476E+01 2.02029E-05 1.33153E-03
 -1      7439-7.56440E+00-3.33924E+00-4.13463E-02 1.28761E+01 1.14637E-04 3.77740E-03
 -1      7440-7.56785E+00-3.33722E+00-4.04194E-02 1.29329E+01 3.52211E-04 5.66382E-03
 -1      7441-7.57192E+00-3.33387E+00-3.93870E-02 1.30180E+01 7.69693E-04 6.88638E-03
 -1      7442-7.57567E+00-3.32893E+00-3.86463E-02 1.31313E+01 1.31309E-03 7.76708E-03
 -1      7443-5.02418E+00-8.08788E+00-8.25495E-02 1.17640E+01-5.12299E-04-1.28117E-02
 -1      7444-5.05013E+00-8.05314E+00-8.50691E-02 1.16462E+01 5.73726E-04-1.50540E-02
 -1      7445-5.06535E+00-8.02605E+00-8.84586E-02 1.15572E+01 1.11974E-03-1.41158E-02
 -1      7446-5.07346E+00-8.00753E+00-9.17599E-02 1.14976E+01 1.02776E-03-1.00335E-02
 -1      7447-5.07691E+00-7.99814E+00-9.37623E-02 1.14676E+01 4.09485E-04-3.62655E-03
 -1      7448-5.07691E+00-7.99814E+00-9.37623E-02 1.14676E+01-4.09485E-04 3.62655E-03
 -1      7449-5.07346E+00-8.00753E+00-9.17599E-02 1.14976E+01-1.02776E-03 1.00335E-02
 -1      7450-5.06535E+00-8.02605E+00-8.84586E-02 1.15572E+01-1.11974E-03 1.41158E-02
 -1      7451-5.05013E+00-8.05314E+00-8.50691E-02 1.16462E+01-5.73726E-04 1.50540E-02
 -1      7452-5.02418E+00-8.08788E+00-8.25495E-02 1.17640E+01 5.12299E-04 1.28117E-02
 -1      7453-2.73193E+00-1.21000E+01-1.35464E-01 9.03191E+00 1.81874E-03-2.27274E-02
 -1      7454-2.77117E+00-1.20170E+01-1.39952E-01 8.91908E+00 4.73258E-03-3.23445E-02
 -1      7455-2.79437E+00-1.19535E+01-1.48603E-01 8.83403E+00 5.44333E-03-3.18684E-02
 -1      7456-2.80705E+00-1.19106E+01-1.56547E-01 8.77731E+00 4.07157E-03-2.27521E-02
 -1      7457-2.81258E+00-1.18891E+01-1.61112E-01 8.74897E+00 1.48501E-03-8.19771E-03
 -1      7458-2.81258E+00-1.18891E+01-1.61112E-01 8.74897E+00-1.48501E-03 8.19771E-03
 -1      7459-2.80705E+00-1.19106E+01-1.56547E-01 8.77731E+00-4.07157E-03 2.27521E-02
 -1      7460-2.79437E+00-1.19535E+01-1.48603E-01 8.83403E+00-5.44333E-03 3.18684E-02
 -1      7461-2.77117E+00-1.20170E+01-1.39952E-01 8.91908E+00-4.73258E-03 3.23445E-02
 -1      7462-2.73193E+00-1.21000E+01-1.35464E-01 9.03191E+00-1.81874E-03 2.27274E-02
 -1      7463-1.12865E+00-1.46775E+01-1.70979E-01 4.99763E+00 6.59594E-03-2.89857E-02
 -1      7464-1.16264E+00-1.45436E+01-1.83859E-01 4.91199E+00 5.29835E-03-4.59735E-02
 -1      7465-1.18358E+00-1.44435E+01-1.93963E-01 4.85107E+00 1.40165E-03-4.37026E-02
 -1      7466-1.19540E+00-1.43770E+01-2.00114E-01 4.81175E+00-5.78409E-04-3.02450E-02
 -1      7467-1.20068E+00-1.43439E+01-2.02894E-01 4.79243E+00-4.64041E-04-1.07244E-02
 -1      7468-1.20068E+00-1.43439E+01-2.02894E-01 4.79243E+00 4.64041E-04 1.07244E-02
 -1      7469-1.19540E+00-1.43770E+01-2.00114E-01 4.81175E+00 5.78409E-04 3.02450E-02
 -1      7470-1.18358E+00-1.44435E+01-1.93963E-01 4.85107E+00-1.40165E-03 4.37026E-02
 -1      7471-1.16264E+00-1.45436E+01-1.83859E-01 4.91199E+00-5.29835E-03 4.59735E-02
 -1      7472-1.12865E+00-1.46775E+01-1.70979E-01 4.99763E+00-6.59594E-03 2.89857E-02
 -1      7473 2.76084E+00-2.49062E-01 2.15882E-02-9.62584E-01-3.61495E-02-1.01783E-01
 -1      7474 2.74214E+00-2.62874E-01 1.09642E-01-1.20360E+00-8.89010E-02-1.43644E-01
 -1      7475 2.72735E+00-2.78125E-01 1.61626E-01-1.35438E+00-8.24076E-02-1.28391E-01
 -1      7476 2.71684E+00-2.89379E-01 1.89669E-01-1.44501E+00-5.48083E-02-8.54879E-02
 -1      7477 2.71140E+00-2.95160E-01 2.01885E-01-1.48790E+00-1.90082E-02-2.97488E-02
 -1      7478 2.71140E+00-2.95160E-01 2.01885E-01-1.48790E+00 1.90082E-02 2.97488E-02
 -1      7479 2.71684E+00-2.89379E-01 1.89669E-01-1.44501E+00 5.48083E-02 8.54879E-02
 -1      7480 2.72735E+00-2.78125E-01 1.61626E-01-1.35438E+00 8.24076E-02 1.28391E-01
 -1      7481 2.74214E+00-2.62874E-01 1.09642E-01-1.20360E+00 8.89010E-02 1.43644E-01
 -1      7482 2.76084E+00-2.49062E-01 2.15882E-02-9.62584E-01 3.61495E-02 1.01783E-01
 -1      7483 4.67978E+00-8.41960E-01 6.50711E-02-2.77694E+00 2.37845E-03-9.60674E-02
 -1      7484 4.62491E+00-8.00107E-01 4.50480E-02-2.88408E+00 2.55497E-04-1.24860E-01
 -1      7485 4.59347E+00-7.73383E-01 5.36433E-02-2.97599E+00-8.92809E-03-1.14792E-01
 -1      7486 4.57603E+00-7.57730E-01 6.66565E-02-3.03939E+00-9.67944E-03-7.86171E-02
 -1      7487 4.56816E+00-7.50510E-01 7.47196E-02-3.07137E+00-3.96243E-03-2.77755E-02
 -1      7488 4.56816E+00-7.50510E-01 7.47196E-02-3.07137E+00 3.96243E-03 2.77755E-02
 -1      7489 4.57603E+00-7.57730E-01 6.66565E-02-3.03939E+00 9.67944E-03 7.86171E-02
 -1      7490 4.59347E+00-7.73383E-01 5.36433E-02-2.97599E+00 8.92809E-03 1.14792E-01
 -1      7491 4.62491E+00-8.00107E-01 4.50480E-02-2.88408E+00-2.55497E-04 1.24860E-01
 -1      7492 4.67978E+00-8.41960E-01 6.50711E-02-2.77694E+00-2.37845E-03 9.60674E-02
 -1      7493 5.96647E+00-9.93112E-01 4.10074E-02-4.47411E+00 1.03149E-02-2.75769E-02
 -1      7494 5.92566E+00-9.28457E-01 3.94167E-02-4.47840E+00 1.62424E-02-4.83881E-02
 -1      7495 5.89108E+00-8.83617E-01 3.07739E-02-4.49706E+00 1.63569E-02-4.99086E-02
 -1      7496 5.86777E+00-8.55123E-01 2.52165E-02-4.51620E+00 1.10109E-02-3.62802E-02
 -1      7497 5.85625E+00-8.41277E-01 2.29100E-02-4.52756E+00 3.78991E-03-1.31637E-02
 -1      7498 5.85625E+00-8.41277E-01 2.29100E-02-4.52756E+00-3.78991E-03 1.31637E-02
 -1      7499 5.86777E+00-8.55123E-01 2.52165E-02-4.51620E+00-1.10109E-02 3.62802E-02
 -1      7500 5.89108E+00-8.83617E-01 3.07739E-02-4.49706E+00-1.63569E-02 4.99086E-02
 -1      7501 5.92566E+00-9.28457E-01 3.94167E-02-4.47840E+00-1.62424E-02 4.83881E-02
 -1      7502 5.96647E+00-9.93112E-01 4.10074E-02-4.47411E+00-1.03149E-02 2.75769E-02
 -1      7503 6.68428E+00-6.99446E-01 3.44636E-02-5.94678E+00 6.20617E-03-6.02711E-03
 -1      7504 6.64155E+00-6.50187E-01 3.00170E-02-5.92448E+00 1.06977E-02-9.56095E-03
 -1      7505 6.61042E+00-6.09845E-01 2.57402E-02-5.91100E+00 1.13019E-02-1.12352E-02
 -1      7506 6.58927E+00-5.81987E-01 2.11271E-02-5.90443E+00 8.57224E-03-8.93912E-03
 -1      7507 6.57852E+00-5.67843E-01 1.82897E-02-5.90201E+00 3.17762E-03-3.38600E-03
 -1      7508 6.57852E+00-5.67843E-01 1.82897E-02-5.90201E+00-3.17762E-03 3.38600E-03
 -1      7509 6.58927E+00-5.81987E-01 2.11271E-02-5.90443E+00-8.57224E-03 8.93912E-03
 -1      7510 6.61042E+00-6.09845E-01 2.57402E-02-5.91100E+00-1.13019E-02 1.12352E-02
 -1      7511 6.64155E+00-6.50187E-01 3.00170E-02-5.92448E+00-1.06977E-02 9.56095E-03
 -1      7512 6.68428E+00-6.99446E-01 3.44636E-02-5.94678E+00-6.20617E-03 6.02711E-03
 -1      7513 6.85603E+00-4.76688E-02 2.81227E-02-7.22545E+00 1.73720E-03 2.85525E-04
 -1      7514 6.81750E+00-7.86083E-03 2.65241E-02-7.19294E+00 3.66670E-03-5.58584E-05
 -1      7515 6.78857E+00 2.33890E-02 2.41533E-02-7.16951E+00 4.20314E-03-2.53255E-04
 -1      7516 6.76951E+00 4.51709E-02 2.22288E-02-7.15427E+00 3.23219E-03-3.43195E-04
 -1      7517 6.76003E+00 5.63616E-02 2.10868E-02-7.14679E+00 1.21076E-03-1.60105E-04
 -1      7518 6.76003E+00 5.63616E-02 2.10868E-02-7.14679E+00-1.21076E-03 1.60105E-04
 -1      7519 6.76951E+00 4.51709E-02 2.22288E-02-7.15427E+00-3.23219E-03 3.43195E-04
 -1      7520 6.78857E+00 2.33890E-02 2.41533E-02-7.16951E+00-4.20314E-03 2.53255E-04
 -1      7521 6.81750E+00-7.86083E-03 2.65241E-02-7.19294E+00-3.66670E-03 5.58584E-05
 -1      7522 6.85603E+00-4.76688E-02 2.81227E-02-7.22545E+00-1.73720E-03-2.85525E-04
 -1      7523 6.54106E+00 9.09151E-01 2.16085E-02-8.30799E+00-2.62004E-04 6.50986E-04
 -1      7524 6.50761E+00 9.41519E-01 2.12200E-02-8.27211E+00 1.38033E-04 1.05300E-03
 -1      7525 6.48265E+00 9.66340E-01 2.07255E-02-8.24504E+00 4.38832E-04 9.77122E-04
 -1      7526 6.46602E+00 9.83169E-01 2.01926E-02-8.22701E+00 4.49838E-04 6.85140E-04
 -1      7527 6.45772E+00 9.91689E-01 1.98849E-02-8.21799E+00 1.83768E-04 2.45638E-04
 -1      7528 6.45772E+00 9.91689E-01 1.98849E-02-8.21799E+00-1.83768E-04-2.45638E-04
 -1      7529 6.46602E+00 9.83169E-01 2.01926E-02-8.22701E+00-4.49838E-04-6.85140E-04
 -1      7530 6.48265E+00 9.66340E-01 2.07255E-02-8.24504E+00-4.38832E-04-9.77122E-04
 -1      7531 6.50761E+00 9.41519E-01 2.12200E-02-8.27211E+00-1.38033E-04-1.05300E-03
 -1      7532 6.54106E+00 9.09151E-01 2.16085E-02-8.30799E+00 2.62004E-04-6.50986E-04
 -1      7533 5.80919E+00 2.11757E+00 1.53960E-02-9.18616E+00-7.40494E-04 1.46451E-04
 -1      7534 5.78188E+00 2.14371E+00 1.54056E-02-9.14767E+00-7.71207E-04 3.63147E-04
 -1      7535 5.76141E+00 2.16336E+00 1.54317E-02-9.11869E+00-6.30498E-04 4.21409E-04
 -1      7536 5.74779E+00 2.17652E+00 1.54581E-02-9.09929E+00-3.98942E-04 3.15625E-04
 -1      7537 5.74099E+00 2.18311E+00 1.54615E-02-9.08958E+00-1.34346E-04 1.15814E-04
 -1      7538 5.74099E+00 2.18311E+00 1.54615E-02-9.08958E+00 1.34346E-04-1.15814E-04
 -1      7539 5.74779E+00 2.17652E+00 1.54581E-02-9.09929E+00 3.98942E-04-3.15625E-04
 -1      7540 5.76141E+00 2.16336E+00 1.54317E-02-9.11869E+00 6.30498E-04-4.21409E-04
 -1      7541 5.78188E+00 2.14371E+00 1.54056E-02-9.14767E+00 7.71207E-04-3.63147E-04
 -1      7542 5.80919E+00 2.11757E+00 1.53960E-02-9.18616E+00 7.40494E-04-1.46451E-04
 -1      7543 4.73210E+00 3.52278E+00 1.03253E-02-9.84575E+00-6.45309E-04-1.82127E-04
 -1      7544 4.71152E+00 3.54265E+00 1.03624E-02-9.80501E+00-6.98148E-04-8.53403E-05
 -1      7545 4.69609E+00 3.55749E+00 1.04465E-02-9.77439E+00-6.12072E-04-2.07483E-05
 -1      7546 4.68579E+00 3.56735E+00 1.05275E-02-9.75396E+00-4.15057E-04 9.10425E-06
 -1      7547 4.68065E+00 3.57227E+00 1.05779E-02-9.74373E+00-1.46697E-04 6.91901E-06
 -1      7548 4.68065E+00 3.57227E+00 1.05779E-02-9.74373E+00 1.46697E-04-6.91901E-06
 -1      7549 4.68579E+00 3.56735E+00 1.05275E-02-9.75396E+00 4.15057E-04-9.10425E-06
 -1      7550 4.69609E+00 3.55749E+00 1.04465E-02-9.77439E+00 6.12072E-04 2.07483E-05
 -1      7551 4.71152E+00 3.54265E+00 1.03624E-02-9.80501E+00 6.98148E-04 8.53403E-05
 -1      7552 4.73210E+00 3.52278E+00 1.03253E-02-9.84575E+00 6.45309E-04 1.82127E-04
 -1      7553 3.37772E+00 5.06979E+00 6.77299E-03-1.02714E+01-4.53382E-04-3.08927E-04
 -1      7554 3.36425E+00 5.08292E+00 6.75920E-03-1.02289E+01-4.48877E-04-2.54155E-04
 -1      7555 3.35414E+00 5.09271E+00 6.78025E-03-1.01970E+01-3.83546E-04-1.84085E-04
 -1      7556 3.34740E+00 5.09921E+00 6.81173E-03-1.01757E+01-2.58324E-04-1.10566E-04
 -1      7557 3.34403E+00 5.10246E+00 6.83247E-03-1.01650E+01-9.10814E-05-3.66639E-05
 -1      7558 3.34403E+00 5.10246E+00 6.83247E-03-1.01650E+01 9.10814E-05 3.66639E-05
 -1      7559 3.34740E+00 5.09921E+00 6.81173E-03-1.01757E+01 2.58324E-04 1.10566E-04
 -1      7560 3.35414E+00 5.09271E+00 6.78025E-03-1.01970E+01 3.83546E-04 1.84085E-04
 -1      7561 3.36425E+00 5.08292E+00 6.75920E-03-1.02289E+01 4.48877E-04 2.54155E-04
 -1      7562 3.37772E+00 5.06979E+00 6.77299E-03-1.02714E+01 4.53382E-04 3.08927E-04
 -1      7563 1.80843E+00 6.70492E+00 4.65558E-03-1.04485E+01-2.94296E-04-3.42669E-04
 -1      7564 1.80233E+00 6.71086E+00 4.60368E-03-1.04048E+01-2.60640E-04-2.91866E-04
 -1      7565 1.79775E+00 6.71529E+00 4.57469E-03-1.03720E+01-2.08943E-04-2.21185E-04
 -1      7566 1.79470E+00 6.71823E+00 4.56147E-03-1.03502E+01-1.36315E-04-1.37370E-04
 -1      7567 1.79317E+00 6.71970E+00 4.55713E-03-1.03392E+01-4.74558E-05-4.65620E-05
 -1      7568 1.79317E+00 6.71970E+00 4.55713E-03-1.03392E+01 4.74558E-05 4.65620E-05
 -1      7569 1.79470E+00 6.71823E+00 4.56147E-03-1.03502E+01 1.36315E-04 1.37370E-04
 -1      7570 1.79775E+00 6.71529E+00 4.57469E-03-1.03720E+01 2.08943E-04 2.21185E-04
 -1      7571 1.80233E+00 6.71086E+00 4.60368E-03-1.04048E+01 2.60640E-04 2.91866E-04
 -1      7572 1.80843E+00 6.70492E+00 4.65558E-03-1.04485E+01 2.94296E-04 3.42669E-04
 -1      7573 8.12150E-02 8.37620E+00 3.71425E-03-1.03641E+01-1.73124E-04-3.43495E-04
 -1      7574 8.26860E-02 8.37462E+00 3.64227E-03-1.03200E+01-1.40413E-04-2.89876E-04
 -1      7575 8.37901E-02 8.37344E+00 3.58879E-03-1.02869E+01-1.05315E-04-2.19242E-04
 -1      7576 8.45264E-02 8.37265E+00 3.55396E-03-1.02649E+01-6.58198E-05-1.36443E-04
 -1      7577 8.48945E-02 8.37225E+00 3.53689E-03-1.02538E+01-2.24486E-05-4.62857E-05
 -1      7578 8.48945E-02 8.37225E+00 3.53689E-03-1.02538E+01 2.24486E-05 4.62857E-05
 -1      7579 8.45264E-02 8.37265E+00 3.55396E-03-1.02649E+01 6.58198E-05 1.36443E-04
 -1      7580 8.37901E-02 8.37344E+00 3.58879E-03-1.02869E+01 1.05315E-04 2.19242E-04
 -1      7581 8.26860E-02 8.37462E+00 3.64227E-03-1.03200E+01 1.40413E-04 2.89876E-04
 -1      7582 8.12150E-02 8.37620E+00 3.71425E-03-1.03641E+01 1.73124E-04 3.43495E-04
 -1      7583-1.75135E+00 1.00326E+01 3.70628E-03-1.00079E+01-7.31313E-05-3.34953E-04
 -1      7584-1.74214E+00 1.00233E+01 3.62209E-03-9.96409E+00-5.53753E-05-2.79919E-04
 -1      7585-1.73524E+00 1.00163E+01 3.55674E-03-9.93127E+00-3.89617E-05-2.10623E-04
 -1      7586-1.73063E+00 1.00117E+01 3.51226E-03-9.90939E+00-2.32428E-05-1.30721E-04
 -1      7587-1.72833E+00 1.00094E+01 3.48978E-03-9.89845E+00-7.73701E-06-4.43093E-05
 -1      7588-1.72833E+00 1.00094E+01 3.48978E-03-9.89845E+00 7.73701E-06 4.43093E-05
 -1      7589-1.73063E+00 1.00117E+01 3.51226E-03-9.90939E+00 2.32428E-05 1.30721E-04
 -1      7590-1.73524E+00 1.00163E+01 3.55674E-03-9.93127E+00 3.89617E-05 2.10623E-04
 -1      7591-1.74214E+00 1.00233E+01 3.62209E-03-9.96409E+00 5.53753E-05 2.79919E-04
 -1      7592-1.75135E+00 1.00326E+01 3.70628E-03-1.00079E+01 7.31313E-05 3.34953E-04
 -1      7593-3.63976E+00 1.16228E+01 4.47714E-03-9.37173E+00 1.51282E-05-3.27432E-04
 -1      7594-3.62269E+00 1.16056E+01 4.38049E-03-9.32918E+00 1.49793E-05-2.72852E-04
 -1      7595-3.60988E+00 1.15927E+01 4.30542E-03-9.29727E+00 1.26880E-05-2.04987E-04
 -1      7596-3.60134E+00 1.15841E+01 4.25412E-03-9.27600E+00 8.47466E-06-1.27135E-04
 -1      7597-3.59707E+00 1.15798E+01 4.22809E-03-9.26536E+00 2.97394E-06-4.30783E-05
 -1      7598-3.59707E+00 1.15798E+01 4.22809E-03-9.26536E+00-2.97394E-06 4.30783E-05
 -1      7599-3.60134E+00 1.15841E+01 4.25412E-03-9.27600E+00-8.47466E-06 1.27135E-04
 -1      7600-3.60988E+00 1.15927E+01 4.30542E-03-9.29727E+00-1.26880E-05 2.04987E-04
 -1      7601-3.62269E+00 1.16056E+01 4.38049E-03-9.32918E+00-1.49793E-05 2.72852E-04
 -1      7602-3.63976E+00 1.16228E+01 4.47714E-03-9.37173E+00-1.51282E-05 3.27432E-04
 -1      7603-5.53580E+00 1.30931E+01 5.95825E-03-8.45059E+00 9.27645E-05-3.29273E-04
 -1      7604-5.51076E+00 1.30679E+01 5.84463E-03-8.41021E+00 7.65979E-05-2.75326E-04
 -1      7605-5.49197E+00 1.30489E+01 5.75677E-03-8.37993E+00 5.74067E-05-2.07389E-04
 -1      7606-5.47945E+00 1.30363E+01 5.69685E-03-8.35974E+00 3.56103E-05-1.28850E-04
 -1      7607-5.47319E+00 1.30300E+01 5.66647E-03-8.34965E+00 1.20735E-05-4.36995E-05
 -1      7608-5.47319E+00 1.30300E+01 5.66647E-03-8.34965E+00-1.20735E-05 4.36995E-05
 -1      7609-5.47945E+00 1.30363E+01 5.69685E-03-8.35974E+00-3.56103E-05 1.28850E-04
 -1      7610-5.49197E+00 1.30489E+01 5.75677E-03-8.37993E+00-5.74067E-05 2.07389E-04
 -1      7611-5.51076E+00 1.30679E+01 5.84463E-03-8.41021E+00-7.65979E-05 2.75326E-04
 -1      7612-5.53580E+00 1.30931E+01 5.95825E-03-8.45059E+00-9.27645E-05 3.29273E-04
 -1      7613-7.39034E+00 1.43856E+01 8.13368E-03-7.24254E+00 1.56400E-04-3.50882E-04
 -1      7614-7.35728E+00 1.43523E+01 7.99614E-03-7.20543E+00 1.28159E-04-2.95511E-04
 -1      7615-7.33248E+00 1.43273E+01 7.88993E-03-7.17760E+00 9.53049E-05-2.23735E-04
 -1      7616-7.31594E+00 1.43106E+01 7.81757E-03-7.15905E+00 5.87697E-05-1.39464E-04
 -1      7617-7.30767E+00 1.43023E+01 7.78090E-03-7.14978E+00 1.98627E-05-4.73750E-05
 -1      7618-7.30767E+00 1.43023E+01 7.78090E-03-7.14978E+00-1.98627E-05 4.73750E-05
 -1      7619-7.31594E+00 1.43106E+01 7.81757E-03-7.15905E+00-5.87697E-05 1.39464E-04
 -1      7620-7.33248E+00 1.43273E+01 7.88993E-03-7.17760E+00-9.53049E-05 2.23735E-04
 -1      7621-7.35728E+00 1.43523E+01 7.99614E-03-7.20543E+00-1.28159E-04 2.95511E-04
 -1      7622-7.39034E+00 1.43856E+01 8.13368E-03-7.24254E+00-1.56400E-04 3.50882E-04
 -1      7623-9.15078E+00 1.54362E+01 1.09935E-02-5.75025E+00 2.00663E-04-4.06276E-04
 -1      7624-9.10974E+00 1.53947E+01 1.08233E-02-5.71771E+00 1.65797E-04-3.44628E-04
 -1      7625-9.07895E+00 1.53636E+01 1.06917E-02-5.69330E+00 1.23918E-04-2.62219E-04
 -1      7626-9.05842E+00 1.53429E+01 1.06020E-02-5.67703E+00 7.66322E-05-1.63964E-04
 -1      7627-9.04816E+00 1.53326E+01 1.05566E-02-5.66890E+00 2.59329E-05-5.57811E-05
 -1      7628-9.04816E+00 1.53326E+01 1.05566E-02-5.66890E+00-2.59329E-05 5.57811E-05
 -1      7629-9.05842E+00 1.53429E+01 1.06020E-02-5.67703E+00-7.66322E-05 1.63964E-04
 -1      7630-9.07895E+00 1.53636E+01 1.06917E-02-5.69330E+00-1.23918E-04 2.62219E-04
 -1      7631-9.10974E+00 1.53947E+01 1.08233E-02-5.71771E+00-1.65797E-04 3.44628E-04
 -1      7632-9.15078E+00 1.54362E+01 1.09935E-02-5.75025E+00-2.00663E-04 4.06276E-04
 -1      7633-1.07583E+01 1.61723E+01 1.44769E-02-3.98355E+00 2.19296E-04-5.13741E-04
 -1      7634-1.07095E+01 1.61229E+01 1.42638E-02-3.95711E+00 1.85092E-04-4.37330E-04
 -1      7635-1.06729E+01 1.60859E+01 1.40988E-02-3.93728E+00 1.40362E-04-3.33531E-04
 -1      7636-1.06485E+01 1.60612E+01 1.39862E-02-3.92407E+00 8.75875E-05-2.08847E-04
 -1      7637-1.06363E+01 1.60488E+01 1.39291E-02-3.91746E+00 2.97687E-05-7.10974E-05
 -1      7638-1.06363E+01 1.60488E+01 1.39291E-02-3.91746E+00-2.97687E-05 7.10974E-05
 -1      7639-1.06485E+01 1.60612E+01 1.39862E-02-3.92407E+00-8.75875E-05 2.08847E-04
 -1      7640-1.06729E+01 1.60859E+01 1.40988E-02-3.93728E+00-1.40362E-04 3.33531E-04
 -1      7641-1.07095E+01 1.61229E+01 1.42638E-02-3.95711E+00-1.85092E-04 4.37330E-04
 -1      7642-1.07583E+01 1.61723E+01 1.44769E-02-3.98355E+00-2.19296E-04 5.13741E-04
 -1      7643-1.21456E+01 1.65124E+01 1.84024E-02-1.96373E+00 2.05856E-04-6.95638E-04
 -1      7644-1.20895E+01 1.64555E+01 1.81357E-02-1.94523E+00 1.81888E-04-5.91255E-04
 -1      7645-1.20475E+01 1.64129E+01 1.79289E-02-1.93136E+00 1.42133E-04-4.50353E-04
 -1      7646-1.20195E+01 1.63845E+01 1.77876E-02-1.92211E+00 9.03223E-05-2.81746E-04
 -1      7647-1.20054E+01 1.63703E+01 1.77159E-02-1.91749E+00 3.09636E-05-9.58702E-05
 -1      7648-1.20054E+01 1.63703E+01 1.77159E-02-1.91749E+00-3.09636E-05 9.58702E-05
 -1      7649-1.20195E+01 1.63845E+01 1.77876E-02-1.92211E+00-9.03223E-05 2.81746E-04
 -1      7650-1.20475E+01 1.64129E+01 1.79289E-02-1.93136E+00-1.42133E-04 4.50353E-04
 -1      7651-1.20895E+01 1.64555E+01 1.81357E-02-1.94523E+00-1.81888E-04 5.91255E-04
 -1      7652-1.21456E+01 1.65124E+01 1.84024E-02-1.96373E+00-2.05856E-04 6.95638E-04
 -1      7653-1.32358E+01 1.63669E+01 2.23866E-02 2.70099E-01 1.54515E-04-9.76696E-04
 -1      7654-1.31735E+01 1.63035E+01 2.20570E-02 2.78545E-01 1.52849E-04-8.25060E-04
 -1      7655-1.31268E+01 1.62560E+01 2.18012E-02 2.84871E-01 1.27473E-04-6.25585E-04
 -1      7656-1.30957E+01 1.62244E+01 2.16265E-02 2.89085E-01 8.40262E-05-3.90191E-04
 -1      7657-1.30801E+01 1.62085E+01 2.15379E-02 2.91190E-01 2.92881E-05-1.32570E-04
 -1      7658-1.30801E+01 1.62085E+01 2.15379E-02 2.91190E-01-2.92881E-05 1.32570E-04
 -1      7659-1.30957E+01 1.62244E+01 2.16265E-02 2.89085E-01-8.40262E-05 3.90191E-04
 -1      7660-1.31268E+01 1.62560E+01 2.18012E-02 2.84871E-01-1.27473E-04 6.25585E-04
 -1      7661-1.31735E+01 1.63035E+01 2.20570E-02 2.78545E-01-1.52849E-04 8.25060E-04
 -1      7662-1.32358E+01 1.63669E+01 2.23866E-02 2.70099E-01-1.54515E-04 9.76696E-04
 -1      7663-1.39444E+01 1.56428E+01 2.57603E-02 2.65298E+00 6.08990E-05-1.37960E-03
 -1      7664-1.38776E+01 1.55747E+01 2.53632E-02 2.64906E+00 9.56700E-05-1.15362E-03
 -1      7665-1.38275E+01 1.55236E+01 2.50557E-02 2.64610E+00 9.52557E-05-8.68071E-04
 -1      7666-1.37942E+01 1.54896E+01 2.48460E-02 2.64413E+00 6.82088E-05-5.38686E-04
 -1      7667-1.37775E+01 1.54726E+01 2.47398E-02 2.64314E+00 2.46065E-05-1.82557E-04
 -1      7668-1.37775E+01 1.54726E+01 2.47398E-02 2.64314E+00-2.46065E-05 1.82557E-04
 -1      7669-1.37942E+01 1.54896E+01 2.48460E-02 2.64413E+00-6.82088E-05 5.38686E-04
 -1      7670-1.38275E+01 1.55236E+01 2.50557E-02 2.64610E+00-9.52557E-05 8.68071E-04
 -1      7671-1.38776E+01 1.55747E+01 2.53632E-02 2.64906E+00-9.56700E-05 1.15362E-03
 -1      7672-1.39444E+01 1.56428E+01 2.57603E-02 2.65298E+00-6.08990E-05 1.37960E-03
 -1      7673-1.41847E+01 1.42538E+01 2.75037E-02 5.08530E+00-7.76672E-05-1.91639E-03
 -1      7674-1.41162E+01 1.41837E+01 2.70450E-02 5.06671E+00 8.08236E-06-1.57851E-03
 -1      7675-1.40648E+01 1.41311E+01 2.66923E-02 5.05275E+00 4.35927E-05-1.17418E-03
 -1      7676-1.40306E+01 1.40961E+01 2.64533E-02 5.04344E+00 4.15858E-05-7.22994E-04
 -1      7677-1.40134E+01 1.40785E+01 2.63328E-02 5.03878E+00 1.64634E-05-2.44051E-04
 -1      7678-1.40134E+01 1.40785E+01 2.63328E-02 5.03878E+00-1.64634E-05 2.44051E-04
 -1      7679-1.40306E+01 1.40961E+01 2.64533E-02 5.04344E+00-4.15858E-05 7.22994E-04
 -1      7680-1.40648E+01 1.41311E+01 2.66923E-02 5.05275E+00-4.35927E-05 1.17418E-03
 -1      7681-1.41162E+01 1.41837E+01 2.70450E-02 5.06671E+00-8.08236E-06 1.57851E-03
 -1      7682-1.41847E+01 1.42538E+01 2.75037E-02 5.08530E+00 7.76672E-05 1.91639E-03
 -1      7683-1.38799E+01 1.21369E+01 2.62384E-02 7.42544E+00-2.63724E-04-2.57502E-03
 -1      7684-1.38136E+01 1.20687E+01 2.57424E-02 7.39025E+00-1.15619E-04-2.07313E-03
 -1      7685-1.37638E+01 1.20176E+01 2.53685E-02 7.36384E+00-3.38890E-05-1.51497E-03
 -1      7686-1.37306E+01 1.19835E+01 2.51195E-02 7.34623E+00-6.87515E-07-9.21505E-04
 -1      7687-1.37141E+01 1.19665E+01 2.49951E-02 7.33742E+00 3.05527E-06-3.09155E-04
 -1      7688-1.37141E+01 1.19665E+01 2.49951E-02 7.33742E+00-3.05527E-06 3.09155E-04
 -1      7689-1.37306E+01 1.19835E+01 2.51195E-02 7.34623E+00 6.87514E-07 9.21505E-04
 -1      7690-1.37638E+01 1.20176E+01 2.53685E-02 7.36384E+00 3.38890E-05 1.51497E-03
 -1      7691-1.38136E+01 1.20687E+01 2.57424E-02 7.39025E+00 1.15619E-04 2.07313E-03
 -1      7692-1.38799E+01 1.21369E+01 2.62384E-02 7.42544E+00 2.63724E-04 2.57502E-03
 -1      7693-1.29805E+01 9.27631E+00 2.03218E-02 9.48723E+00-5.03122E-04-3.30743E-03
 -1      7694-1.29215E+01 9.21531E+00 1.98382E-02 9.43443E+00-2.90393E-04-2.57168E-03
 -1      7695-1.28773E+01 9.16957E+00 1.94929E-02 9.39482E+00-1.53539E-04-1.82851E-03
 -1      7696-1.28478E+01 9.13909E+00 1.92709E-02 9.36840E+00-7.06106E-05-1.09172E-03
 -1      7697-1.28331E+01 9.12385E+00 1.91633E-02 9.35519E+00-1.99445E-05-3.62756E-04
 -1      7698-1.28331E+01 9.12385E+00 1.91633E-02 9.35519E+00 1.99445E-05 3.62756E-04
 -1      7699-1.28478E+01 9.13909E+00 1.92709E-02 9.36840E+00 7.06106E-05 1.09172E-03
 -1      7700-1.28773E+01 9.16957E+00 1.94929E-02 9.39482E+00 1.53539E-04 1.82851E-03
 -1      7701-1.29215E+01 9.21531E+00 1.98382E-02 9.43443E+00 2.90393E-04 2.57168E-03
 -1      7702-1.29805E+01 9.27631E+00 2.03218E-02 9.48723E+00 5.03122E-04 3.30743E-03
 -1      7703-1.14873E+01 5.73337E+00 8.06260E-03 1.10466E+01-8.06097E-04-4.04754E-03
 -1      7704-1.14419E+01 5.68587E+00 7.66469E-03 1.09767E+01-5.39025E-04-3.00752E-03
 -1      7705-1.14080E+01 5.65027E+00 7.40535E-03 1.09243E+01-3.38314E-04-2.06815E-03
 -1      7706-1.13855E+01 5.62655E+00 7.25755E-03 1.08894E+01-1.84409E-04-1.20703E-03
 -1      7707-1.13742E+01 5.61469E+00 7.18951E-03 1.08719E+01-5.84061E-05-3.96703E-04
 -1      7708-1.13742E+01 5.61469E+00 7.18951E-03 1.08719E+01 5.84061E-05 3.96703E-04
 -1      7709-1.13855E+01 5.62655E+00 7.25755E-03 1.08894E+01 1.84409E-04 1.20703E-03
 -1      7710-1.14080E+01 5.65027E+00 7.40535E-03 1.09243E+01 3.38314E-04 2.06815E-03
 -1      7711-1.14419E+01 5.68587E+00 7.66469E-03 1.09767E+01 5.39025E-04 3.00752E-03
 -1      7712-1.14873E+01 5.73337E+00 8.06260E-03 1.10466E+01 8.06097E-04 4.04754E-03
 -1      7713-9.47596E+00 1.67639E+00-1.19801E-02 1.18615E+01-1.15305E-03-4.84979E-03
 -1      7714-9.45115E+00 1.64924E+00-1.22846E-02 1.17773E+01-8.46639E-04-3.54980E-03
 -1      7715-9.43246E+00 1.62897E+00-1.24515E-02 1.17142E+01-5.71097E-04-2.44664E-03
 -1      7716-9.41994E+00 1.61549E+00-1.25685E-02 1.16721E+01-3.26450E-04-1.44754E-03
 -1      7717-9.41366E+00 1.60876E+00-1.26286E-02 1.16510E+01-1.05747E-04-4.80481E-04
 -1      7718-9.41366E+00 1.60876E+00-1.26286E-02 1.16510E+01 1.05747E-04 4.80481E-04
 -1      7719-9.41994E+00 1.61549E+00-1.25685E-02 1.16721E+01 3.26450E-04 1.44754E-03
 -1      7720-9.43246E+00 1.62897E+00-1.24515E-02 1.17142E+01 5.71097E-04 2.44664E-03
 -1      7721-9.45115E+00 1.64924E+00-1.22846E-02 1.17773E+01 8.46639E-04 3.54980E-03
 -1      7722-9.47596E+00 1.67639E+00-1.19801E-02 1.18615E+01 1.15305E-03 4.84979E-03
 -1      7723-7.11687E+00-2.59714E+00-4.08486E-02 1.17065E+01-1.39366E-03-6.28393E-03
 -1      7724-7.11786E+00-2.59723E+00-4.11751E-02 1.16132E+01-9.77697E-04-5.27070E-03
 -1      7725-7.11783E+00-2.59708E+00-4.17362E-02 1.15431E+01-6.01360E-04-4.17492E-03
 -1      7726-7.11731E+00-2.59684E+00-4.22299E-02 1.14964E+01-3.10290E-04-2.71921E-03
 -1      7727-7.11687E+00-2.59667E+00-4.25227E-02 1.14730E+01-9.37823E-05-9.47983E-04
 -1      7728-7.11687E+00-2.59667E+00-4.25227E-02 1.14730E+01 9.37823E-05 9.47983E-04
 -1      7729-7.11731E+00-2.59684E+00-4.22299E-02 1.14964E+01 3.10290E-04 2.71921E-03
 -1      7730-7.11783E+00-2.59708E+00-4.17362E-02 1.15431E+01 6.01360E-04 4.17492E-03
 -1      7731-7.11786E+00-2.59723E+00-4.11751E-02 1.16132E+01 9.77697E-04 5.27070E-03
 -1      7732-7.11687E+00-2.59714E+00-4.08486E-02 1.17065E+01 1.39366E-03 6.28393E-03
 -1      7733-4.68125E+00-6.65713E+00-7.84818E-02 1.04191E+01-8.24226E-04-1.00289E-02
 -1      7734-4.70834E+00-6.62443E+00-8.03044E-02 1.03241E+01-6.04801E-05-1.13360E-02
 -1      7735-4.72534E+00-6.59905E+00-8.25138E-02 1.02524E+01 4.01351E-04-1.04402E-02
 -1      7736-4.73505E+00-6.58178E+00-8.47086E-02 1.02043E+01 4.69888E-04-7.37800E-03
 -1      7737-4.73942E+00-6.57304E+00-8.60647E-02 1.01802E+01 2.00340E-04-2.66297E-03
 -1      7738-4.73942E+00-6.57304E+00-8.60647E-02 1.01802E+01-2.00340E-04 2.66297E-03
 -1      7739-4.73505E+00-6.58178E+00-8.47086E-02 1.02043E+01-4.69888E-04 7.37800E-03
 -1      7740-4.72534E+00-6.59905E+00-8.25138E-02 1.02524E+01-4.01351E-04 1.04402E-02
 -1      7741-4.70834E+00-6.62443E+00-8.03044E-02 1.03241E+01 6.04801E-05 1.13360E-02
 -1      7742-4.68125E+00-6.65713E+00-7.84818E-02 1.04191E+01 8.24226E-04 1.00289E-02
 -1      7743-2.52936E+00-9.96691E+00-1.25155E-01 7.94822E+00 1.10945E-03-1.81006E-02
 -1      7744-2.56788E+00-9.89437E+00-1.27819E-01 7.85882E+00 3.30147E-03-2.54006E-02
 -1      7745-2.59147E+00-9.83915E+00-1.34467E-01 7.79137E+00 3.92202E-03-2.51833E-02
 -1      7746-2.60482E+00-9.80194E+00-1.40875E-01 7.74634E+00 2.97996E-03-1.80770E-02
 -1      7747-2.61081E+00-9.78322E+00-1.44625E-01 7.72382E+00 1.09454E-03-6.53104E-03
 -1      7748-2.61081E+00-9.78322E+00-1.44625E-01 7.72382E+00-1.09454E-03 6.53104E-03
 -1      7749-2.60482E+00-9.80194E+00-1.40875E-01 7.74634E+00-2.97996E-03 1.80770E-02
 -1      7750-2.59147E+00-9.83915E+00-1.34467E-01 7.79137E+00-3.92202E-03 2.51833E-02
 -1      7751-2.56788E+00-9.89437E+00-1.27819E-01 7.85882E+00-3.30147E-03 2.54006E-02
 -1      7752-2.52936E+00-9.96691E+00-1.25155E-01 7.94822E+00-1.10945E-03 1.81006E-02
 -1      7753-1.03888E+00-1.19191E+01-1.54132E-01 4.37379E+00 5.86414E-03-2.43869E-02
 -1      7754-1.07315E+00-1.18060E+01-1.67974E-01 4.30644E+00 5.36374E-03-3.92808E-02
 -1      7755-1.09451E+00-1.17213E+01-1.79132E-01 4.25831E+00 2.40759E-03-3.75535E-02
 -1      7756-1.10676E+00-1.16649E+01-1.86190E-01 4.22716E+00 5.16611E-04-2.60602E-02
 -1      7757-1.11230E+00-1.16368E+01-1.89493E-01 4.21183E+00-9.57956E-06-9.25126E-03
 -1      7758-1.11230E+00-1.16368E+01-1.89493E-01 4.21183E+00 9.57956E-06 9.25126E-03
 -1      7759-1.10676E+00-1.16649E+01-1.86190E-01 4.22716E+00-5.16611E-04 2.60602E-02
 -1      7760-1.09451E+00-1.17213E+01-1.79132E-01 4.25831E+00-2.40759E-03 3.75535E-02
 -1      7761-1.07315E+00-1.18060E+01-1.67974E-01 4.30644E+00-5.36374E-03 3.92808E-02
 -1      7762-1.03888E+00-1.19191E+01-1.54132E-01 4.37379E+00-5.86414E-03 2.43869E-02
 -1      7763 1.87458E+00-3.41606E+00 1.91643E-01-1.66890E+00 2.83212E-02-9.52489E-02
 -1      7764 1.77683E+00-3.47839E+00 5.24501E-02-1.89637E+00 6.48957E-02-1.35448E-01
 -1      7765 1.71242E+00-3.51790E+00-4.42477E-02-2.03926E+00 5.57318E-02-1.22214E-01
 -1      7766 1.67324E+00-3.54129E+00-1.03943E-01-2.12534E+00 3.53072E-02-8.18040E-02
 -1      7767 1.65465E+00-3.55220E+00-1.32397E-01-2.16612E+00 1.19615E-02-2.85324E-02
 -1      7768 1.65465E+00-3.55220E+00-1.32397E-01-2.16612E+00-1.19615E-02 2.85324E-02
 -1      7769 1.67324E+00-3.54129E+00-1.03943E-01-2.12534E+00-3.53072E-02 8.18040E-02
 -1      7770 1.71242E+00-3.51790E+00-4.42477E-02-2.03926E+00-5.57318E-02 1.22214E-01
 -1      7771 1.77683E+00-3.47839E+00 5.24501E-02-1.89637E+00-6.48957E-02 1.35448E-01
 -1      7772 1.87458E+00-3.41606E+00 1.91643E-01-1.66890E+00-2.83212E-02 9.52489E-02
 -1      7773 3.73427E+00-4.14218E+00 3.04269E-02-3.44012E+00-5.00572E-03-8.75472E-02
 -1      7774 3.69414E+00-4.14383E+00 8.53319E-02-3.53579E+00-3.38817E-02-1.14334E-01
 -1      7775 3.66079E+00-4.14203E+00 1.01678E-01-3.61929E+00-2.82976E-02-1.04804E-01
 -1      7776 3.63805E+00-4.14016E+00 1.04557E-01-3.67739E+00-1.73285E-02-7.17631E-02
 -1      7777 3.62667E+00-4.13910E+00 1.04173E-01-3.70683E+00-5.76945E-03-2.53640E-02
 -1      7778 3.62667E+00-4.13910E+00 1.04173E-01-3.70683E+00 5.76945E-03 2.53640E-02
 -1      7779 3.63805E+00-4.14016E+00 1.04557E-01-3.67739E+00 1.73285E-02 7.17631E-02
 -1      7780 3.66079E+00-4.14203E+00 1.01678E-01-3.61929E+00 2.82976E-02 1.04804E-01
 -1      7781 3.69414E+00-4.14383E+00 8.53319E-02-3.53579E+00 3.38817E-02 1.14334E-01
 -1      7782 3.73427E+00-4.14218E+00 3.04269E-02-3.44012E+00 5.00572E-03 8.75472E-02
 -1      7783 5.08875E+00-4.25680E+00 6.17457E-02-5.08332E+00-5.80363E-03-2.23439E-02
 -1      7784 5.03297E+00-4.25019E+00 5.15263E-02-5.08522E+00-1.03252E-02-4.14519E-02
 -1      7785 4.99625E+00-4.24152E+00 5.97569E-02-5.10015E+00-1.41588E-02-4.36332E-02
 -1      7786 4.97295E+00-4.23442E+00 6.79933E-02-5.11612E+00-1.10323E-02-3.18858E-02
 -1      7787 4.96154E+00-4.23055E+00 7.24137E-02-5.12573E+00-4.06051E-03-1.15844E-02
 -1      7788 4.96154E+00-4.23055E+00 7.24137E-02-5.12573E+00 4.06051E-03 1.15844E-02
 -1      7789 4.97295E+00-4.23442E+00 6.79933E-02-5.11612E+00 1.10323E-02 3.18858E-02
 -1      7790 4.99625E+00-4.24152E+00 5.97569E-02-5.10015E+00 1.41588E-02 4.36332E-02
 -1      7791 5.03297E+00-4.25019E+00 5.15263E-02-5.08522E+00 1.03252E-02 4.14519E-02
 -1      7792 5.08875E+00-4.25680E+00 6.17457E-02-5.08332E+00 5.80363E-03 2.23439E-02
 -1      7793 5.81724E+00-3.98075E+00 4.28635E-02-6.51219E+00-1.29762E-04-4.22523E-03
 -1      7794 5.77747E+00-3.94037E+00 4.30934E-02-6.49059E+00-3.33547E-04-6.74348E-03
 -1      7795 5.74509E+00-3.91561E+00 3.98439E-02-6.47722E+00 6.40595E-05-8.29625E-03
 -1      7796 5.72322E+00-3.90047E+00 3.86264E-02-6.47036E+00-1.85077E-04-6.84685E-03
 -1      7797 5.71226E+00-3.89315E+00 3.84412E-02-6.46766E+00-1.30688E-04-2.63565E-03
 -1      7798 5.71226E+00-3.89315E+00 3.84412E-02-6.46766E+00 1.30688E-04 2.63565E-03
 -1      7799 5.72322E+00-3.90047E+00 3.86264E-02-6.47036E+00 1.85077E-04 6.84685E-03
 -1      7800 5.74509E+00-3.91561E+00 3.98439E-02-6.47722E+00-6.40595E-05 8.29625E-03
 -1      7801 5.77747E+00-3.94037E+00 4.30934E-02-6.49059E+00 3.33547E-04 6.74348E-03
 -1      7802 5.81724E+00-3.98075E+00 4.28635E-02-6.51219E+00 1.29762E-04 4.22523E-03
 -1      7803 5.99421E+00-3.28646E+00 3.17858E-02-7.76125E+00 2.93336E-04 6.74879E-04
 -1      7804 5.95795E+00-3.25053E+00 3.04338E-02-7.73149E+00 1.32869E-03 5.83929E-04
 -1      7805 5.93099E+00-3.22262E+00 2.94989E-02-7.70980E+00 1.50251E-03 4.72764E-04
 -1      7806 5.91273E+00-3.20430E+00 2.80974E-02-7.69562E+00 1.24832E-03 2.55468E-04
 -1      7807 5.90352E+00-3.19527E+00 2.72072E-02-7.68863E+00 4.79949E-04 6.93900E-05
 -1      7808 5.90352E+00-3.19527E+00 2.72072E-02-7.68863E+00-4.79949E-04-6.93900E-05
 -1      7809 5.91273E+00-3.20430E+00 2.80974E-02-7.69562E+00-1.24832E-03-2.55468E-04
 -1      7810 5.93099E+00-3.22262E+00 2.94989E-02-7.70980E+00-1.50251E-03-4.72764E-04
 -1      7811 5.95795E+00-3.25053E+00 3.04338E-02-7.73149E+00-1.32869E-03-5.83929E-04
 -1      7812 5.99421E+00-3.28646E+00 3.17858E-02-7.76125E+00-2.93336E-04-6.74879E-04
 -1      7813 5.67199E+00-2.25817E+00 2.27413E-02-8.83004E+00-3.32821E-04 5.91854E-04
 -1      7814 5.64088E+00-2.22706E+00 2.24687E-02-8.79761E+00 7.52992E-05 1.00965E-03
 -1      7815 5.61749E+00-2.20369E+00 2.19450E-02-8.77311E+00 3.37979E-04 9.65337E-04
 -1      7816 5.60197E+00-2.18784E+00 2.16053E-02-8.75674E+00 3.12569E-04 6.86008E-04
 -1      7817 5.59422E+00-2.17985E+00 2.13860E-02-8.74854E+00 1.25979E-04 2.49158E-04
 -1      7818 5.59422E+00-2.17985E+00 2.13860E-02-8.74854E+00-1.25979E-04-2.49158E-04
 -1      7819 5.60197E+00-2.18784E+00 2.16053E-02-8.75674E+00-3.12569E-04-6.86008E-04
 -1      7820 5.61749E+00-2.20369E+00 2.19450E-02-8.77311E+00-3.37979E-04-9.65337E-04
 -1      7821 5.64088E+00-2.22706E+00 2.24687E-02-8.79761E+00-7.52992E-05-1.00965E-03
 -1      7822 5.67199E+00-2.25817E+00 2.27413E-02-8.83004E+00 3.32821E-04-5.91854E-04
 -1      7823 4.92447E+00-9.59524E-01 1.58337E-02-9.70776E+00-6.15033E-04 6.44689E-05
 -1      7824 4.89892E+00-9.34588E-01 1.58012E-02-9.67309E+00-5.22430E-04 2.40366E-04
 -1      7825 4.87979E+00-9.15776E-01 1.57970E-02-9.64697E+00-3.86965E-04 3.05715E-04
 -1      7826 4.86703E+00-9.03228E-01 1.57569E-02-9.62951E+00-2.24309E-04 2.36988E-04
 -1      7827 4.86066E+00-8.96937E-01 1.57442E-02-9.62075E+00-7.36007E-05 8.74828E-05
 -1      7828 4.86066E+00-8.96937E-01 1.57442E-02-9.62075E+00 7.36007E-05-8.74828E-05
 -1      7829 4.86703E+00-9.03228E-01 1.57569E-02-9.62951E+00 2.24309E-04-2.36988E-04
 -1      7830 4.87979E+00-9.15776E-01 1.57970E-02-9.64697E+00 3.86965E-04-3.05715E-04
 -1      7831 4.89892E+00-9.34588E-01 1.58012E-02-9.67309E+00 5.22430E-04-2.40366E-04
 -1      7832 4.92447E+00-9.59524E-01 1.58337E-02-9.70776E+00 6.15033E-04-6.44689E-05
 -1      7833 3.82816E+00 5.47820E-01 1.08057E-02-1.03758E+01-5.90253E-04-2.16205E-04
 -1      7834 3.80886E+00 5.66621E-01 1.08115E-02-1.03391E+01-5.62510E-04-1.43734E-04
 -1      7835 3.79439E+00 5.80692E-01 1.08425E-02-1.03115E+01-4.60186E-04-8.16044E-05
 -1      7836 3.78475E+00 5.90073E-01 1.08840E-02-1.02931E+01-3.02248E-04-3.55253E-05
 -1      7837 3.77993E+00 5.94759E-01 1.09044E-02-1.02839E+01-1.04781E-04-9.06344E-06
 -1      7838 3.77993E+00 5.94759E-01 1.09044E-02-1.02839E+01 1.04781E-04 9.06344E-06
 -1      7839 3.78475E+00 5.90073E-01 1.08840E-02-1.02931E+01 3.02248E-04 3.55253E-05
 -1      7840 3.79439E+00 5.80692E-01 1.08425E-02-1.03115E+01 4.60186E-04 8.16044E-05
 -1      7841 3.80886E+00 5.66621E-01 1.08115E-02-1.03391E+01 5.62510E-04 1.43734E-04
 -1      7842 3.82816E+00 5.47820E-01 1.08057E-02-1.03758E+01 5.90253E-04 2.16205E-04
 -1      7843 2.45570E+00 2.20550E+00 7.59236E-03-1.08139E+01-4.62267E-04-3.11530E-04
 -1      7844 2.44309E+00 2.21782E+00 7.56279E-03-1.07755E+01-4.18905E-04-2.64514E-04
 -1      7845 2.43362E+00 2.22704E+00 7.55944E-03-1.07468E+01-3.37830E-04-1.97389E-04
 -1      7846 2.42731E+00 2.23317E+00 7.56596E-03-1.07277E+01-2.19576E-04-1.21381E-04
 -1      7847 2.42416E+00 2.23623E+00 7.57388E-03-1.07181E+01-7.63419E-05-4.08781E-05
 -1      7848 2.42416E+00 2.23623E+00 7.57388E-03-1.07181E+01 7.63419E-05 4.08781E-05
 -1      7849 2.42731E+00 2.23317E+00 7.56596E-03-1.07277E+01 2.19576E-04 1.21381E-04
 -1      7850 2.43362E+00 2.22704E+00 7.55944E-03-1.07468E+01 3.37830E-04 1.97389E-04
 -1      7851 2.44309E+00 2.21782E+00 7.56279E-03-1.07755E+01 4.18905E-04 2.64514E-04
 -1      7852 2.45570E+00 2.20550E+00 7.59236E-03-1.08139E+01 4.62267E-04 3.11530E-04
 -1      7853 8.73518E-01 3.95768E+00 5.87782E-03-1.10031E+01-3.34205E-04-3.34106E-04
 -1      7854 8.67846E-01 3.96319E+00 5.82312E-03-1.09638E+01-2.83185E-04-2.83286E-04
 -1      7855 8.63592E-01 3.96731E+00 5.78671E-03-1.09343E+01-2.17789E-04-2.14644E-04
 -1      7856 8.60755E-01 3.97005E+00 5.76593E-03-1.09146E+01-1.37975E-04-1.33457E-04
 -1      7857 8.59337E-01 3.97142E+00 5.75636E-03-1.09048E+01-4.72638E-05-4.52523E-05
 -1      7858 8.59337E-01 3.97142E+00 5.75636E-03-1.09048E+01 4.72638E-05 4.52523E-05
 -1      7859 8.60755E-01 3.97005E+00 5.76593E-03-1.09146E+01 1.37975E-04 1.33457E-04
 -1      7860 8.63592E-01 3.96731E+00 5.78671E-03-1.09343E+01 2.17789E-04 2.14644E-04
 -1      7861 8.67846E-01 3.96319E+00 5.82312E-03-1.09638E+01 2.83185E-04 2.83286E-04
 -1      7862 8.73518E-01 3.95768E+00 5.87782E-03-1.10031E+01 3.34205E-04 3.34106E-04
 -1      7863-8.57845E-01 5.75073E+00 5.28713E-03-1.09273E+01-2.25136E-04-3.33385E-04
 -1      7864-8.56393E-01 5.74917E+00 5.21842E-03-1.08877E+01-1.82769E-04-2.77387E-04
 -1      7865-8.55303E-01 5.74799E+00 5.16627E-03-1.08580E+01-1.35493E-04-2.07985E-04
 -1      7866-8.54577E-01 5.74721E+00 5.13144E-03-1.08381E+01-8.35348E-05-1.28804E-04
 -1      7867-8.54213E-01 5.74682E+00 5.11417E-03-1.08282E+01-2.82660E-05-4.36042E-05
 -1      7868-8.54213E-01 5.74682E+00 5.11417E-03-1.08282E+01 2.82660E-05 4.36042E-05
 -1      7869-8.54577E-01 5.74721E+00 5.13144E-03-1.08381E+01 8.35348E-05 1.28804E-04
 -1      7870-8.55303E-01 5.74799E+00 5.16627E-03-1.08580E+01 1.35493E-04 2.07985E-04
 -1      7871-8.56393E-01 5.74917E+00 5.21842E-03-1.08877E+01 1.82769E-04 2.77387E-04
 -1      7872-8.57845E-01 5.75073E+00 5.28713E-03-1.09273E+01 2.25136E-04 3.33385E-04
 -1      7873-2.68241E+00 7.53203E+00 5.51702E-03-1.05740E+01-1.31602E-04-3.26884E-04
 -1      7874-2.67371E+00 7.52323E+00 5.43843E-03-1.05348E+01-1.05039E-04-2.68759E-04
 -1      7875-2.66719E+00 7.51662E+00 5.37767E-03-1.05055E+01-7.63748E-05-2.00006E-04
 -1      7876-2.66283E+00 7.51222E+00 5.33636E-03-1.04859E+01-4.63648E-05-1.23287E-04
 -1      7877-2.66066E+00 7.51002E+00 5.31546E-03-1.04761E+01-1.55412E-05-4.16518E-05
 -1      7878-2.66066E+00 7.51002E+00 5.31546E-03-1.04761E+01 1.55412E-05 4.16518E-05
 -1      7879-2.66283E+00 7.51222E+00 5.33636E-03-1.04859E+01 4.63648E-05 1.23287E-04
 -1      7880-2.66719E+00 7.51662E+00 5.37767E-03-1.05055E+01 7.63748E-05 2.00006E-04
 -1      7881-2.67371E+00 7.52323E+00 5.43843E-03-1.05348E+01 1.05039E-04 2.68759E-04
 -1      7882-2.68241E+00 7.53203E+00 5.51702E-03-1.05740E+01 1.31602E-04 3.26884E-04
 -1      7883-4.54721E+00 9.24842E+00 6.37935E-03-9.93462E+00-5.03798E-05-3.22527E-04
 -1      7884-4.53117E+00 9.23225E+00 6.28958E-03-9.89671E+00-3.97526E-05-2.64148E-04
 -1      7885-4.51915E+00 9.22013E+00 6.22050E-03-9.86828E+00-2.84425E-05-1.96062E-04
 -1      7886-4.51113E+00 9.21205E+00 6.17355E-03-9.84932E+00-1.70128E-05-1.20671E-04
 -1      7887-4.50712E+00 9.20801E+00 6.14982E-03-9.83985E+00-5.65669E-06-4.07367E-05
 -1      7888-4.50712E+00 9.20801E+00 6.14982E-03-9.83985E+00 5.65669E-06 4.07367E-05
 -1      7889-4.51113E+00 9.21205E+00 6.17355E-03-9.84932E+00 1.70128E-05 1.20671E-04
 -1      7890-4.51915E+00 9.22013E+00 6.22050E-03-9.86828E+00 2.84425E-05 1.96062E-04
 -1      7891-4.53117E+00 9.23225E+00 6.28958E-03-9.89671E+00 3.97526E-05 2.64148E-04
 -1      7892-4.54721E+00 9.24842E+00 6.37935E-03-9.93462E+00 5.03798E-05 3.22527E-04
 -1      7893-6.40043E+00 1.08444E+01 7.77883E-03-9.00475E+00 1.77064E-05-3.27308E-04
 -1      7894-6.37704E+00 1.08208E+01 7.67406E-03-8.96905E+00 1.52226E-05-2.68476E-04
 -1      7895-6.35948E+00 1.08031E+01 7.59373E-03-8.94227E+00 1.18636E-05-1.99520E-04
 -1      7896-6.34778E+00 1.07914E+01 7.53928E-03-8.92442E+00 7.57694E-06-1.22903E-04
 -1      7897-6.34193E+00 1.07855E+01 7.51177E-03-8.91549E+00 2.60893E-06-4.15090E-05
 -1      7898-6.34193E+00 1.07855E+01 7.51177E-03-8.91549E+00-2.60893E-06 4.15090E-05
 -1      7899-6.34778E+00 1.07914E+01 7.53928E-03-8.92442E+00-7.57694E-06 1.22903E-04
 -1      7900-6.35948E+00 1.08031E+01 7.59373E-03-8.94227E+00-1.18636E-05 1.99520E-04
 -1      7901-6.37704E+00 1.08208E+01 7.67406E-03-8.96905E+00-1.52226E-05 2.68476E-04
 -1      7902-6.40043E+00 1.08444E+01 7.77883E-03-9.00475E+00-1.77064E-05 3.27308E-04
 -1      7903-8.18949E+00 1.22605E+01 9.67064E-03-7.78505E+00 6.93144E-05-3.50094E-04
 -1      7904-8.15877E+00 1.22295E+01 9.54566E-03-7.75260E+00 5.78541E-05-2.88507E-04
 -1      7905-8.13572E+00 1.22063E+01 9.44982E-03-7.72827E+00 4.35991E-05-2.15145E-04
 -1      7906-8.12035E+00 1.21908E+01 9.38487E-03-7.71204E+00 2.71196E-05-1.32829E-04
 -1      7907-8.11267E+00 1.21830E+01 9.35207E-03-7.70393E+00 9.20503E-06-4.49116E-05
 -1      7908-8.11267E+00 1.21830E+01 9.35207E-03-7.70393E+00-9.20503E-06 4.49116E-05
 -1      7909-8.12035E+00 1.21908E+01 9.38487E-03-7.71204E+00-2.71196E-05 1.32829E-04
 -1      7910-8.13572E+00 1.22063E+01 9.44982E-03-7.72827E+00-4.35991E-05 2.15145E-04
 -1      7911-8.15877E+00 1.22295E+01 9.54566E-03-7.75260E+00-5.78541E-05 2.88507E-04
 -1      7912-8.18949E+00 1.22605E+01 9.67064E-03-7.78505E+00-6.93144E-05 3.50094E-04
 -1      7913-9.85884E+00 1.34315E+01 1.20128E-02-6.28252E+00 9.98257E-05-4.02664E-04
 -1      7914-9.82095E+00 1.33932E+01 1.18613E-02-6.25453E+00 8.47114E-05-3.33605E-04
 -1      7915-9.79252E+00 1.33645E+01 1.17449E-02-6.23355E+00 6.44633E-05-2.49736E-04
 -1      7916-9.77357E+00 1.33454E+01 1.16659E-02-6.21956E+00 4.03119E-05-1.54569E-04
 -1      7917-9.76409E+00 1.33358E+01 1.16260E-02-6.21256E+00 1.37151E-05-5.23262E-05
 -1      7918-9.76409E+00 1.33358E+01 1.16260E-02-6.21256E+00-1.37151E-05 5.23262E-05
 -1      7919-9.77357E+00 1.33454E+01 1.16659E-02-6.21956E+00-4.03119E-05 1.54569E-04
 -1      7920-9.79252E+00 1.33645E+01 1.17449E-02-6.23355E+00-6.44633E-05 2.49736E-04
 -1      7921-9.82095E+00 1.33932E+01 1.18613E-02-6.25453E+00-8.47114E-05 3.33605E-04
 -1      7922-9.85884E+00 1.34315E+01 1.20128E-02-6.28252E+00-9.98257E-05 4.02664E-04
 -1      7923-1.13480E+01 1.42856E+01 1.47145E-02-4.51313E+00 1.03996E-04-5.00162E-04
 -1      7924-1.13033E+01 1.42403E+01 1.45295E-02-4.49101E+00 9.21181E-05-4.15884E-04
 -1      7925-1.12698E+01 1.42064E+01 1.43870E-02-4.47442E+00 7.20577E-05-3.12116E-04
 -1      7926-1.12474E+01 1.41838E+01 1.42901E-02-4.46337E+00 4.58112E-05-1.93486E-04
 -1      7927-1.12362E+01 1.41725E+01 1.42411E-02-4.45784E+00 1.57074E-05-6.55510E-05
 -1      7928-1.12362E+01 1.41725E+01 1.42411E-02-4.45784E+00-1.57074E-05 6.55510E-05
 -1      7929-1.12474E+01 1.41838E+01 1.42901E-02-4.46337E+00-4.58112E-05 1.93486E-04
 -1      7930-1.12698E+01 1.42064E+01 1.43870E-02-4.47442E+00-7.20577E-05 3.12116E-04
 -1      7931-1.13033E+01 1.42403E+01 1.45295E-02-4.49101E+00-9.21181E-05 4.15884E-04
 -1      7932-1.13480E+01 1.42856E+01 1.47145E-02-4.51313E+00-1.03996E-04 5.00162E-04
 -1      7933-1.25903E+01 1.47442E+01 1.75797E-02-2.50585E+00 7.65598E-05-6.60884E-04
 -1      7934-1.25394E+01 1.46926E+01 1.73542E-02-2.49119E+00 7.67260E-05-5.49804E-04
 -1      7935-1.25013E+01 1.46539E+01 1.71802E-02-2.48020E+00 6.43927E-05-4.12717E-04
 -1      7936-1.24758E+01 1.46282E+01 1.70617E-02-2.47287E+00 4.25850E-05-2.55871E-04
 -1      7937-1.24631E+01 1.46153E+01 1.70016E-02-2.46921E+00 1.48649E-05-8.66882E-05
 -1      7938-1.24631E+01 1.46153E+01 1.70016E-02-2.46921E+00-1.48649E-05 8.66882E-05
 -1      7939-1.24758E+01 1.46282E+01 1.70617E-02-2.47287E+00-4.25850E-05 2.55871E-04
 -1      7940-1.25013E+01 1.46539E+01 1.71802E-02-2.48020E+00-6.43927E-05 4.12717E-04
 -1      7941-1.25394E+01 1.46926E+01 1.73542E-02-2.49119E+00-7.67260E-05 5.49804E-04
 -1      7942-1.25903E+01 1.47442E+01 1.75797E-02-2.50585E+00-7.65598E-05 6.60884E-04
 -1      7943-1.35128E+01 1.47244E+01 2.02461E-02-3.08067E-01 1.30845E-05-9.04897E-04
 -1      7944-1.34569E+01 1.46676E+01 1.99746E-02-3.02623E-01 3.60666E-05-7.50709E-04
 -1      7945-1.34150E+01 1.46250E+01 1.97648E-02-2.98546E-01 4.02212E-05-5.62286E-04
 -1      7946-1.33871E+01 1.45966E+01 1.96218E-02-2.95832E-01 3.00885E-05-3.48067E-04
 -1      7947-1.33731E+01 1.45824E+01 1.95493E-02-2.94476E-01 1.10397E-05-1.17831E-04
 -1      7948-1.33731E+01 1.45824E+01 1.95493E-02-2.94476E-01-1.10397E-05 1.17831E-04
 -1      7949-1.33871E+01 1.45966E+01 1.96218E-02-2.95832E-01-3.00885E-05 3.48067E-04
 -1      7950-1.34150E+01 1.46250E+01 1.97648E-02-2.98546E-01-4.02212E-05 5.62286E-04
 -1      7951-1.34569E+01 1.46676E+01 1.99746E-02-3.02623E-01-3.60666E-05 7.50709E-04
 -1      7952-1.35128E+01 1.47244E+01 2.02461E-02-3.08067E-01-1.30845E-05 9.04897E-04
 -1      7953-1.40394E+01 1.41441E+01 2.21278E-02 2.00792E+00-8.90415E-05-1.25068E-03
 -1      7954-1.39803E+01 1.40839E+01 2.18090E-02 2.00232E+00-3.10431E-05-1.03136E-03
 -1      7955-1.39359E+01 1.40387E+01 2.15625E-02 1.99811E+00-8.89890E-07-7.68896E-04
 -1      7956-1.39063E+01 1.40086E+01 2.13946E-02 1.99530E+00 8.21228E-06-4.74439E-04
 -1      7957-1.38915E+01 1.39935E+01 2.13095E-02 1.99389E+00 4.21789E-06-1.60353E-04
 -1      7958-1.38915E+01 1.39935E+01 2.13095E-02 1.99389E+00-4.21789E-06 1.60353E-04
 -1      7959-1.39063E+01 1.40086E+01 2.13946E-02 1.99530E+00-8.21228E-06 4.74439E-04
 -1      7960-1.39359E+01 1.40387E+01 2.15625E-02 1.99811E+00 8.89889E-07 7.68896E-04
 -1      7961-1.39803E+01 1.40839E+01 2.18090E-02 2.00232E+00 3.10431E-05 1.03136E-03
 -1      7962-1.40394E+01 1.41441E+01 2.21278E-02 2.00792E+00 8.90415E-05 1.25068E-03
 -1      7963-1.40969E+01 1.29327E+01 2.23795E-02 4.33848E+00-2.30011E-04-1.70864E-03
 -1      7964-1.40370E+01 1.28716E+01 2.20197E-02 4.32014E+00-1.24937E-04-1.39502E-03
 -1      7965-1.39922E+01 1.28257E+01 2.17428E-02 4.30637E+00-5.93961E-05-1.03184E-03
 -1      7966-1.39622E+01 1.27952E+01 2.15548E-02 4.29719E+00-2.34342E-05-6.33241E-04
 -1      7967-1.39473E+01 1.27799E+01 2.14599E-02 4.29260E+00-5.74947E-06-2.13426E-04
 -1      7968-1.39473E+01 1.27799E+01 2.14599E-02 4.29260E+00 5.74947E-06 2.13426E-04
 -1      7969-1.39622E+01 1.27952E+01 2.15548E-02 4.29719E+00 2.34342E-05 6.33241E-04
 -1      7970-1.39922E+01 1.28257E+01 2.17428E-02 4.30637E+00 5.93961E-05 1.03184E-03
 -1      7971-1.40370E+01 1.28716E+01 2.20197E-02 4.32014E+00 1.24937E-04 1.39502E-03
 -1      7972-1.40969E+01 1.29327E+01 2.23795E-02 4.33848E+00 2.30011E-04 1.70864E-03
 -1      7973-1.36261E+01 1.10459E+01 1.99062E-02 6.54439E+00-4.08429E-04-2.27055E-03
 -1      7974-1.35691E+01 1.09875E+01 1.95256E-02 6.51206E+00-2.47492E-04-1.82346E-03
 -1      7975-1.35263E+01 1.09437E+01 1.92369E-02 6.48780E+00-1.38461E-04-1.33110E-03
 -1      7976-1.34978E+01 1.09145E+01 1.90439E-02 6.47162E+00-6.75644E-05-8.09363E-04
 -1      7977-1.34836E+01 1.08999E+01 1.89471E-02 6.46353E+00-1.99246E-05-2.71515E-04
 -1      7978-1.34836E+01 1.08999E+01 1.89471E-02 6.46353E+00 1.99246E-05 2.71515E-04
 -1      7979-1.34978E+01 1.09145E+01 1.90439E-02 6.47162E+00 6.75644E-05 8.09363E-04
 -1      7980-1.35263E+01 1.09437E+01 1.92369E-02 6.48780E+00 1.38461E-04 1.33110E-03
 -1      7981-1.35691E+01 1.09875E+01 1.95256E-02 6.51206E+00 2.47492E-04 1.82346E-03
 -1      7982-1.36261E+01 1.10459E+01 1.99062E-02 6.54439E+00 4.08429E-04 2.27055E-03
 -1      7983-1.25977E+01 8.48753E+00 1.34476E-02 8.45146E+00-6.24279E-04-2.89790E-03
 -1      7984-1.25481E+01 8.43639E+00 1.30854E-02 8.40475E+00-4.07109E-04-2.26379E-03
 -1      7985-1.25108E+01 8.39804E+00 1.28253E-02 8.36971E+00-2.48830E-04-1.61595E-03
 -1      7986-1.24861E+01 8.37249E+00 1.26566E-02 8.34635E+00-1.32521E-04-9.67615E-04
 -1      7987-1.24737E+01 8.35971E+00 1.25746E-02 8.33467E+00-4.13621E-05-3.21994E-04
 -1      7988-1.24737E+01 8.35971E+00 1.25746E-02 8.33467E+00 4.13621E-05 3.21994E-04
 -1      7989-1.24861E+01 8.37249E+00 1.26566E-02 8.34635E+00 1.32521E-04 9.67615E-04
 -1      7990-1.25108E+01 8.39804E+00 1.28253E-02 8.36971E+00 2.48830E-04 1.61595E-03
 -1      7991-1.25481E+01 8.43639E+00 1.30854E-02 8.40475E+00 4.07109E-04 2.26379E-03
 -1      7992-1.25977E+01 8.48753E+00 1.34476E-02 8.45146E+00 6.24279E-04 2.89790E-03
 -1      7993-1.10315E+01 5.33361E+00 1.73923E-03 9.85941E+00-8.82174E-04-3.52732E-03
 -1      7994-1.09944E+01 5.29501E+00 1.45890E-03 9.79927E+00-6.21099E-04-2.64283E-03
 -1      7995-1.09667E+01 5.26606E+00 1.27815E-03 9.75418E+00-4.09528E-04-1.82710E-03
 -1      7996-1.09482E+01 5.24678E+00 1.18079E-03 9.72412E+00-2.32235E-04-1.06904E-03
 -1      7997-1.09390E+01 5.23713E+00 1.13751E-03 9.70910E+00-7.52157E-05-3.51691E-04
 -1      7998-1.09390E+01 5.23713E+00 1.13751E-03 9.70910E+00 7.52157E-05 3.51691E-04
 -1      7999-1.09482E+01 5.24678E+00 1.18079E-03 9.72412E+00 2.32235E-04 1.06904E-03
 -1      8000-1.09667E+01 5.26606E+00 1.27815E-03 9.75418E+00 4.09528E-04 1.82710E-03
 -1      8001-1.09944E+01 5.29501E+00 1.45890E-03 9.79927E+00 6.21099E-04 2.64283E-03
 -1      8002-1.10315E+01 5.33361E+00 1.73923E-03 9.85941E+00 8.82174E-04 3.52732E-03
 -1      8003-9.01452E+00 1.75617E+00-1.62894E-02 1.05616E+01-1.17108E-03-4.16729E-03
 -1      8004-8.99567E+00 1.73562E+00-1.64703E-02 1.04907E+01-8.87703E-04-3.03089E-03
 -1      8005-8.98150E+00 1.72026E+00-1.65239E-02 1.04376E+01-6.19266E-04-2.06182E-03
 -1      8006-8.97205E+00 1.71004E+00-1.65563E-02 1.04022E+01-3.64634E-04-1.20533E-03
 -1      8007-8.96731E+00 1.70494E+00-1.65708E-02 1.03846E+01-1.20198E-04-3.97244E-04
 -1      8008-8.96731E+00 1.70494E+00-1.65708E-02 1.03846E+01 1.20198E-04 3.97244E-04
 -1      8009-8.97205E+00 1.71004E+00-1.65563E-02 1.04022E+01 3.64634E-04 1.20533E-03
 -1      8010-8.98150E+00 1.72026E+00-1.65239E-02 1.04376E+01 6.19266E-04 2.06182E-03
 -1      8011-8.99567E+00 1.73562E+00-1.64703E-02 1.04907E+01 8.87703E-04 3.03089E-03
 -1      8012-9.01452E+00 1.75617E+00-1.62894E-02 1.05616E+01 1.17108E-03 4.16729E-03
 -1      8013-6.71588E+00-1.96118E+00-4.15318E-02 1.03756E+01-1.38848E-03-5.21557E-03
 -1      8014-6.71955E+00-1.95843E+00-4.16068E-02 1.02988E+01-1.05086E-03-4.17253E-03
 -1      8015-6.72185E+00-1.95626E+00-4.18871E-02 1.02412E+01-7.10155E-04-3.18858E-03
 -1      8016-6.72306E+00-1.95472E+00-4.21184E-02 1.02027E+01-4.01950E-04-2.02494E-03
 -1      8017-6.72356E+00-1.95391E+00-4.22510E-02 1.01835E+01-1.29153E-04-6.97051E-04
 -1      8018-6.72356E+00-1.95391E+00-4.22510E-02 1.01835E+01 1.29153E-04 6.97051E-04
 -1      8019-6.72306E+00-1.95472E+00-4.21184E-02 1.02027E+01 4.01950E-04 2.02494E-03
 -1      8020-6.72185E+00-1.95626E+00-4.18871E-02 1.02412E+01 7.10155E-04 3.18858E-03
 -1      8021-6.71955E+00-1.95843E+00-4.16068E-02 1.02988E+01 1.05086E-03 4.17253E-03
 -1      8022-6.71588E+00-1.96118E+00-4.15318E-02 1.03756E+01 1.38848E-03 5.21557E-03
 -1      8023-4.38858E+00-5.42312E+00-7.41403E-02 9.18229E+00-9.84829E-04-8.03214E-03
 -1      8024-4.41538E+00-5.39291E+00-7.55159E-02 9.10562E+00-4.23444E-04-8.69512E-03
 -1      8025-4.43288E+00-5.36954E+00-7.69036E-02 9.04781E+00-2.40881E-05-7.81975E-03
 -1      8026-4.44325E+00-5.35367E+00-7.83053E-02 9.00910E+00 1.32762E-04-5.47619E-03
 -1      8027-4.44804E+00-5.34566E+00-7.91922E-02 8.98970E+00 7.27327E-05-1.97115E-03
 -1      8028-4.44804E+00-5.34566E+00-7.91922E-02 8.98970E+00-7.27327E-05 1.97115E-03
 -1      8029-4.44325E+00-5.35367E+00-7.83053E-02 9.00910E+00-1.32762E-04 5.47619E-03
 -1      8030-4.43288E+00-5.36954E+00-7.69036E-02 9.04781E+00 2.40881E-05 7.81975E-03
 -1      8031-4.41538E+00-5.39291E+00-7.55159E-02 9.10562E+00 4.23444E-04 8.69512E-03
 -1      8032-4.38858E+00-5.42312E+00-7.41403E-02 9.18229E+00 9.84829E-04 8.03214E-03
 -1      8033-2.36011E+00-8.14687E+00-1.16171E-01 6.96223E+00 6.37368E-04-1.46729E-02
 -1      8034-2.39708E+00-8.08317E+00-1.17394E-01 6.89163E+00 2.31318E-03-2.01297E-02
 -1      8035-2.42025E+00-8.03483E+00-1.22425E-01 6.83829E+00 2.84836E-03-2.00565E-02
 -1      8036-2.43366E+00-8.00232E+00-1.27577E-01 6.80263E+00 2.20081E-03-1.44733E-02
 -1      8037-2.43977E+00-7.98598E+00-1.30657E-01 6.78478E+00 8.14453E-04-5.24356E-03
 -1      8038-2.43977E+00-7.98598E+00-1.30657E-01 6.78478E+00-8.14453E-04 5.24356E-03
 -1      8039-2.43366E+00-8.00232E+00-1.27577E-01 6.80263E+00-2.20081E-03 1.44733E-02
 -1      8040-2.42025E+00-8.03483E+00-1.22425E-01 6.83829E+00-2.84836E-03 2.00565E-02
 -1      8041-2.39708E+00-8.08317E+00-1.17394E-01 6.89163E+00-2.31318E-03 2.01297E-02
 -1      8042-2.36011E+00-8.14687E+00-1.16171E-01 6.96223E+00-6.37368E-04 1.46729E-02
 -1      8043-9.66135E-01-9.58696E+00-1.40359E-01 3.80949E+00 5.18506E-03-2.08290E-02
 -1      8044-1.00005E+00-9.49040E+00-1.54780E-01 3.75691E+00 5.29485E-03-3.39686E-02
 -1      8045-1.02136E+00-9.41795E+00-1.66610E-01 3.71911E+00 3.09673E-03-3.26345E-02
 -1      8046-1.03369E+00-9.36968E+00-1.74269E-01 3.69455E+00 1.31344E-03-2.27010E-02
 -1      8047-1.03931E+00-9.34557E+00-1.77924E-01 3.68244E+00 3.26183E-04-8.06702E-03
 -1      8048-1.03931E+00-9.34557E+00-1.77924E-01 3.68244E+00-3.26183E-04 8.06702E-03
 -1      8049-1.03369E+00-9.36968E+00-1.74269E-01 3.69455E+00-1.31344E-03 2.27010E-02
 -1      8050-1.02136E+00-9.41795E+00-1.66610E-01 3.71911E+00-3.09673E-03 3.26345E-02
 -1      8051-1.00005E+00-9.49040E+00-1.54780E-01 3.75691E+00-5.29485E-03 3.39686E-02
 -1      8052-9.66135E-01-9.58696E+00-1.40359E-01 3.80949E+00-5.18506E-03 2.08290E-02
 -1      8053 1.04539E+00-6.45874E+00 3.74572E-01-2.35205E+00 7.60048E-02-8.94645E-02
 -1      8054 8.74882E-01-6.56998E+00 3.04612E-02-2.56716E+00 1.96266E-01-1.28163E-01
 -1      8055 7.63923E-01-6.63485E+00-2.02843E-01-2.70279E+00 1.76618E-01-1.16750E-01
 -1      8056 6.97424E-01-6.67135E+00-3.44336E-01-2.78465E+00 1.14944E-01-7.85732E-02
 -1      8057 6.66196E-01-6.68793E+00-4.11012E-01-2.82348E+00 3.94352E-02-2.74719E-02
 -1      8058 6.66196E-01-6.68793E+00-4.11012E-01-2.82348E+00-3.94352E-02 2.74719E-02
 -1      8059 6.97424E-01-6.67135E+00-3.44336E-01-2.78465E+00-1.14944E-01 7.85732E-02
 -1      8060 7.63923E-01-6.63485E+00-2.02843E-01-2.70279E+00-1.76618E-01 1.16750E-01
 -1      8061 8.74882E-01-6.56998E+00 3.04612E-02-2.56716E+00-1.96266E-01 1.28163E-01
 -1      8062 1.04539E+00-6.45874E+00 3.74572E-01-2.35205E+00-7.60048E-02 8.94645E-02
 -1      8063 2.85316E+00-7.32466E+00-7.61089E-04-4.07243E+00-1.14737E-02-8.00765E-02
 -1      8064 2.82790E+00-7.36636E+00 1.28255E-01-4.15765E+00-7.00362E-02-1.05257E-01
 -1      8065 2.79467E+00-7.38787E+00 1.58920E-01-4.23336E+00-5.23462E-02-9.61499E-02
 -1      8066 2.76840E+00-7.39906E+00 1.57661E-01-4.28652E+00-2.89504E-02-6.57878E-02
 -1      8067 2.75443E+00-7.40388E+00 1.52069E-01-4.31358E+00-9.07338E-03-2.32550E-02
 -1      8068 2.75443E+00-7.40388E+00 1.52069E-01-4.31358E+00 9.07338E-03 2.32550E-02
 -1      8069 2.76840E+00-7.39906E+00 1.57661E-01-4.28652E+00 2.89504E-02 6.57878E-02
 -1      8070 2.79467E+00-7.38787E+00 1.58920E-01-4.23336E+00 5.23462E-02 9.61499E-02
 -1      8071 2.82790E+00-7.36636E+00 1.28255E-01-4.15765E+00 7.00362E-02 1.05257E-01
 -1      8072 2.85316E+00-7.32466E+00-7.61089E-04-4.07243E+00 1.14737E-02 8.00765E-02
 -1      8073 4.27566E+00-7.40831E+00 8.26996E-02-5.64862E+00-1.88949E-02-1.78233E-02
 -1      8074 4.20657E+00-7.45032E+00 6.27715E-02-5.64827E+00-3.18085E-02-3.55153E-02
 -1      8075 4.16789E+00-7.47311E+00 8.56824E-02-5.65985E+00-4.01228E-02-3.83448E-02
 -1      8076 4.14475E+00-7.48498E+00 1.07072E-01-5.67297E+00-3.03641E-02-2.82164E-02
 -1      8077 4.13359E+00-7.49007E+00 1.18239E-01-5.68101E+00-1.10417E-02-1.02696E-02
 -1      8078 4.13359E+00-7.49007E+00 1.18239E-01-5.68101E+00 1.10417E-02 1.02696E-02
 -1      8079 4.14475E+00-7.48498E+00 1.07072E-01-5.67297E+00 3.03641E-02 2.82164E-02
 -1      8080 4.16789E+00-7.47311E+00 8.56824E-02-5.65985E+00 4.01228E-02 3.83448E-02
 -1      8081 4.20657E+00-7.45032E+00 6.27715E-02-5.64827E+00 3.18085E-02 3.55153E-02
 -1      8082 4.27566E+00-7.40831E+00 8.26996E-02-5.64862E+00 1.88949E-02 1.78233E-02
 -1      8083 5.01115E+00-7.14247E+00 4.97529E-02-7.01956E+00-4.48522E-03-2.83344E-03
 -1      8084 4.97453E+00-7.10697E+00 5.39335E-02-6.99846E+00-7.96095E-03-4.48496E-03
 -1      8085 4.94122E+00-7.09360E+00 5.05559E-02-6.98517E+00-7.51458E-03-5.88617E-03
 -1      8086 4.91868E+00-7.08828E+00 5.12916E-02-6.97806E+00-6.17549E-03-5.12120E-03
 -1      8087 4.90749E+00-7.08637E+00 5.28979E-02-6.97514E+00-2.42311E-03-2.01679E-03
 -1      8088 4.90749E+00-7.08637E+00 5.28979E-02-6.97514E+00 2.42311E-03 2.01679E-03
 -1      8089 4.91868E+00-7.08828E+00 5.12916E-02-6.97806E+00 6.17549E-03 5.12120E-03
 -1      8090 4.94122E+00-7.09360E+00 5.05559E-02-6.98517E+00 7.51458E-03 5.88617E-03
 -1      8091 4.97453E+00-7.10697E+00 5.39335E-02-6.99846E+00 7.96095E-03 4.48496E-03
 -1      8092 5.01115E+00-7.14247E+00 4.97529E-02-7.01956E+00 4.48522E-03 2.83344E-03
 -1      8093 5.18684E+00-6.39872E+00 3.39073E-02-8.22720E+00-4.12682E-04 9.13327E-04
 -1      8094 5.15249E+00-6.36537E+00 3.24036E-02-8.19987E+00 2.94788E-04 9.95606E-04
 -1      8095 5.12732E+00-6.33927E+00 3.24016E-02-8.17973E+00 2.08446E-04 9.61022E-04
 -1      8096 5.10984E+00-6.32298E+00 3.10978E-02-8.16650E+00 3.32184E-04 6.78980E-04
 -1      8097 5.10090E+00-6.31528E+00 3.01658E-02-8.15996E+00 1.49951E-04 2.35654E-04
 -1      8098 5.10090E+00-6.31528E+00 3.01658E-02-8.15996E+00-1.49951E-04-2.35654E-04
 -1      8099 5.10984E+00-6.32298E+00 3.10978E-02-8.16650E+00-3.32184E-04-6.78980E-04
 -1      8100 5.12732E+00-6.33927E+00 3.24016E-02-8.17973E+00-2.08446E-04-9.61022E-04
 -1      8101 5.15249E+00-6.36537E+00 3.24036E-02-8.19987E+00-2.94788E-04-9.95606E-04
 -1      8102 5.18684E+00-6.39872E+00 3.39073E-02-8.22720E+00 4.12682E-04-9.13327E-04
 -1      8103 4.85123E+00-5.29692E+00 2.26597E-02-9.27409E+00-2.93830E-04 4.96027E-04
 -1      8104 4.82207E+00-5.26674E+00 2.24253E-02-9.24476E+00 2.35180E-04 9.09308E-04
 -1      8105 4.79998E+00-5.24438E+00 2.17434E-02-9.22258E+00 5.10301E-04 8.90046E-04
 -1      8106 4.78541E+00-5.22912E+00 2.14782E-02-9.20772E+00 3.93402E-04 6.35984E-04
 -1      8107 4.77814E+00-5.22142E+00 2.12933E-02-9.20027E+00 1.49631E-04 2.32884E-04
 -1      8108 4.77814E+00-5.22142E+00 2.12933E-02-9.20027E+00-1.49631E-04-2.32884E-04
 -1      8109 4.78541E+00-5.22912E+00 2.14782E-02-9.20772E+00-3.93402E-04-6.35984E-04
 -1      8110 4.79998E+00-5.24438E+00 2.17434E-02-9.22258E+00-5.10301E-04-8.90046E-04
 -1      8111 4.82207E+00-5.26674E+00 2.24253E-02-9.24476E+00-2.35180E-04-9.09308E-04
 -1      8112 4.85123E+00-5.29692E+00 2.26597E-02-9.27409E+00 2.93830E-04-4.96027E-04
 -1      8113 4.08491E+00-3.91114E+00 1.53710E-02-1.01465E+01-5.45050E-04-1.58293E-05
 -1      8114 4.06080E+00-3.88731E+00 1.53013E-02-1.01153E+01-3.47827E-04 1.20375E-04
 -1      8115 4.04279E+00-3.86923E+00 1.52724E-02-1.00918E+01-2.02683E-04 1.91005E-04
 -1      8116 4.03076E+00-3.85719E+00 1.51632E-02-1.00761E+01-8.31303E-05 1.58313E-04
 -1      8117 4.02476E+00-3.85115E+00 1.51269E-02-1.00682E+01-2.28877E-05 5.90843E-05
 -1      8118 4.02476E+00-3.85115E+00 1.51269E-02-1.00682E+01 2.28877E-05-5.90843E-05
 -1      8119 4.03076E+00-3.85719E+00 1.51632E-02-1.00761E+01 8.31303E-05-1.58313E-04
 -1      8120 4.04279E+00-3.86923E+00 1.52724E-02-1.00918E+01 2.02683E-04-1.91005E-04
 -1      8121 4.06080E+00-3.88731E+00 1.53013E-02-1.01153E+01 3.47827E-04-1.20375E-04
 -1      8122 4.08491E+00-3.91114E+00 1.53710E-02-1.01465E+01 5.45050E-04 1.58293E-05
 -1      8123 2.97006E+00-2.30919E+00 1.06340E-02-1.08206E+01-5.90110E-04-2.46660E-04
 -1      8124 2.95185E+00-2.29136E+00 1.06243E-02-1.07876E+01-5.10391E-04-1.91381E-04
 -1      8125 2.93820E+00-2.27800E+00 1.06218E-02-1.07628E+01-3.89402E-04-1.30984E-04
 -1      8126 2.92912E+00-2.26906E+00 1.06411E-02-1.07463E+01-2.46603E-04-7.19830E-05
 -1      8127 2.92457E+00-2.26459E+00 1.06418E-02-1.07380E+01-8.33620E-05-2.21445E-05
 -1      8128 2.92457E+00-2.26459E+00 1.06418E-02-1.07380E+01 8.33620E-05 2.21445E-05
 -1      8129 2.92912E+00-2.26906E+00 1.06411E-02-1.07463E+01 2.46603E-04 7.19830E-05
 -1      8130 2.93820E+00-2.27800E+00 1.06218E-02-1.07628E+01 3.89402E-04 1.30984E-04
 -1      8131 2.95185E+00-2.29136E+00 1.06243E-02-1.07876E+01 5.10391E-04 1.91381E-04
 -1      8132 2.97006E+00-2.30919E+00 1.06340E-02-1.08206E+01 5.90110E-04 2.46660E-04
 -1      8133 1.58389E+00-5.51784E-01 7.92939E-03-1.12707E+01-4.95661E-04-3.14802E-04
 -1      8134 1.57201E+00-5.40167E-01 7.89458E-03-1.12362E+01-4.29986E-04-2.70493E-04
 -1      8135 1.56310E+00-5.31458E-01 7.88082E-03-1.12104E+01-3.34654E-04-2.04753E-04
 -1      8136 1.55716E+00-5.25662E-01 7.87459E-03-1.11932E+01-2.11980E-04-1.27470E-04
 -1      8137 1.55419E+00-5.22762E-01 7.87674E-03-1.11846E+01-7.29518E-05-4.33214E-05
 -1      8138 1.55419E+00-5.22762E-01 7.87674E-03-1.11846E+01 7.29518E-05 4.33214E-05
 -1      8139 1.55716E+00-5.25662E-01 7.87459E-03-1.11932E+01 2.11980E-04 1.27470E-04
 -1      8140 1.56310E+00-5.31458E-01 7.88082E-03-1.12104E+01 3.34654E-04 2.04753E-04
 -1      8141 1.57201E+00-5.40167E-01 7.89458E-03-1.12362E+01 4.29986E-04 2.70493E-04
 -1      8142 1.58389E+00-5.51784E-01 7.92939E-03-1.12707E+01 4.95661E-04 3.14802E-04
 -1      8143-3.84610E-03 1.30416E+00 6.71254E-03-1.14733E+01-3.77451E-04-3.28332E-04
 -1      8144-9.16284E-03 1.30932E+00 6.66013E-03-1.14379E+01-3.16238E-04-2.75138E-04
 -1      8145-1.31504E-02 1.31319E+00 6.62294E-03-1.14115E+01-2.39465E-04-2.07361E-04
 -1      8146-1.58083E-02 1.31577E+00 6.60058E-03-1.13938E+01-1.49780E-04-1.28636E-04
 -1      8147-1.71378E-02 1.31705E+00 6.58922E-03-1.13850E+01-5.08924E-05-4.35579E-05
 -1      8148-1.71378E-02 1.31705E+00 6.58922E-03-1.13850E+01 5.08924E-05 4.35579E-05
 -1      8149-1.58083E-02 1.31577E+00 6.60058E-03-1.13938E+01 1.49780E-04 1.28636E-04
 -1      8150-1.31504E-02 1.31319E+00 6.62294E-03-1.14115E+01 2.39465E-04 2.07361E-04
 -1      8151-9.16284E-03 1.30932E+00 6.66013E-03-1.14379E+01 3.16238E-04 2.75138E-04
 -1      8152-3.84610E-03 1.30416E+00 6.71254E-03-1.14733E+01 3.77451E-04 3.28332E-04
 -1      8153-1.72988E+00 3.20434E+00 6.50755E-03-1.14090E+01-2.70168E-04-3.25822E-04
 -1      8154-1.72849E+00 3.20284E+00 6.44407E-03-1.13734E+01-2.21100E-04-2.66868E-04
 -1      8155-1.72744E+00 3.20172E+00 6.39571E-03-1.13468E+01-1.64078E-04-1.98102E-04
 -1      8156-1.72675E+00 3.20097E+00 6.36312E-03-1.13290E+01-1.00970E-04-1.21971E-04
 -1      8157-1.72640E+00 3.20059E+00 6.34698E-03-1.13201E+01-3.41202E-05-4.11880E-05
 -1      8158-1.72640E+00 3.20059E+00 6.34698E-03-1.13201E+01 3.41202E-05 4.11880E-05
 -1      8159-1.72675E+00 3.20097E+00 6.36312E-03-1.13290E+01 1.00970E-04 1.21971E-04
 -1      8160-1.72744E+00 3.20172E+00 6.39571E-03-1.13468E+01 1.64078E-04 1.98102E-04
 -1      8161-1.72849E+00 3.20284E+00 6.44407E-03-1.13734E+01 2.21100E-04 2.66868E-04
 -1      8162-1.72988E+00 3.20434E+00 6.50755E-03-1.14090E+01 2.70168E-04 3.25822E-04
 -1      8163-3.53569E+00 5.09543E+00 6.97186E-03-1.10634E+01-1.78531E-04-3.20055E-04
 -1      8164-3.52750E+00 5.08715E+00 6.89950E-03-1.10284E+01-1.44898E-04-2.59234E-04
 -1      8165-3.52136E+00 5.08093E+00 6.84399E-03-1.10021E+01-1.06528E-04-1.90953E-04
 -1      8166-3.51726E+00 5.07679E+00 6.80645E-03-1.09846E+01-6.50885E-05-1.16958E-04
 -1      8167-3.51522E+00 5.07472E+00 6.78747E-03-1.09758E+01-2.18785E-05-3.93916E-05
 -1      8168-3.51522E+00 5.07472E+00 6.78747E-03-1.09758E+01 2.18785E-05 3.93916E-05
 -1      8169-3.51726E+00 5.07679E+00 6.80645E-03-1.09846E+01 6.50885E-05 1.16958E-04
 -1      8170-3.52136E+00 5.08093E+00 6.84399E-03-1.10021E+01 1.06528E-04 1.90953E-04
 -1      8171-3.52750E+00 5.08715E+00 6.89950E-03-1.10284E+01 1.44898E-04 2.59234E-04
 -1      8172-3.53569E+00 5.09543E+00 6.97186E-03-1.10634E+01 1.78531E-04 3.20055E-04
 -1      8173-5.36571E+00 6.92335E+00 7.90327E-03-1.04275E+01-1.01574E-04-3.17116E-04
 -1      8174-5.35070E+00 6.90821E+00 7.82065E-03-1.03938E+01-8.21020E-05-2.55993E-04
 -1      8175-5.33943E+00 6.89686E+00 7.75760E-03-1.03685E+01-6.00834E-05-1.88093E-04
 -1      8176-5.33192E+00 6.88929E+00 7.71502E-03-1.03516E+01-3.65585E-05-1.15025E-04
 -1      8177-5.32817E+00 6.88551E+00 7.69358E-03-1.03432E+01-1.22667E-05-3.87105E-05
 -1      8178-5.32817E+00 6.88551E+00 7.69358E-03-1.03432E+01 1.22667E-05 3.87105E-05
 -1      8179-5.33192E+00 6.88929E+00 7.71502E-03-1.03516E+01 3.65585E-05 1.15025E-04
 -1      8180-5.33943E+00 6.89686E+00 7.75760E-03-1.03685E+01 6.00834E-05 1.88093E-04
 -1      8181-5.35070E+00 6.90821E+00 7.82065E-03-1.03938E+01 8.21020E-05 2.55993E-04
 -1      8182-5.36571E+00 6.92335E+00 7.90327E-03-1.04275E+01 1.01574E-04 3.17116E-04
 -1      8183-7.16561E+00 8.63163E+00 9.19593E-03-9.49802E+00-4.00047E-05-3.22765E-04
 -1      8184-7.14378E+00 8.60964E+00 9.10020E-03-9.46648E+00-3.15629E-05-2.60772E-04
 -1      8185-7.12742E+00 8.59315E+00 9.02728E-03-9.44282E+00-2.26322E-05-1.91730E-04
 -1      8186-7.11650E+00 8.58216E+00 8.97811E-03-9.42706E+00-1.35673E-05-1.17299E-04
 -1      8187-7.11104E+00 8.57666E+00 8.95335E-03-9.41917E+00-4.51485E-06-3.94846E-05
 -1      8188-7.11104E+00 8.57666E+00 8.95335E-03-9.41917E+00 4.51485E-06 3.94846E-05
 -1      8189-7.11650E+00 8.58216E+00 8.97811E-03-9.42706E+00 1.35673E-05 1.17299E-04
 -1      8190-7.12742E+00 8.59315E+00 9.02728E-03-9.44282E+00 2.26322E-05 1.91730E-04
 -1      8191-7.14378E+00 8.60964E+00 9.10020E-03-9.46648E+00 3.15629E-05 2.60772E-04
 -1      8192-7.16561E+00 8.63163E+00 9.19593E-03-9.49802E+00 4.00047E-05 3.22765E-04
 -1      8193-8.88043E+00 1.01600E+01 1.07905E-02-8.27797E+00 3.76355E-06-3.44310E-04
 -1      8194-8.85192E+00 1.01312E+01 1.06780E-02-8.24961E+00 5.17993E-06-2.79066E-04
 -1      8195-8.83053E+00 1.01097E+01 1.05922E-02-8.22835E+00 5.01425E-06-2.05670E-04
 -1      8196-8.81627E+00 1.00953E+01 1.05343E-02-8.21418E+00 3.56938E-06-1.26027E-04
 -1      8197-8.80914E+00 1.00881E+01 1.05051E-02-8.20709E+00 1.28686E-06-4.24557E-05
 -1      8198-8.80914E+00 1.00881E+01 1.05051E-02-8.20709E+00-1.28686E-06 4.24557E-05
 -1      8199-8.81627E+00 1.00953E+01 1.05343E-02-8.21418E+00-3.56938E-06 1.26027E-04
 -1      8200-8.83053E+00 1.01097E+01 1.05922E-02-8.22835E+00-5.01425E-06 2.05670E-04
 -1      8201-8.85192E+00 1.01312E+01 1.06780E-02-8.24961E+00-5.17993E-06 2.79066E-04
 -1      8202-8.88043E+00 1.01600E+01 1.07905E-02-8.27797E+00-3.76355E-06 3.44310E-04
 -1      8203-1.04530E+01 1.14432E+01 1.26275E-02-6.77836E+00 2.61809E-05-3.91358E-04
 -1      8204-1.04181E+01 1.14079E+01 1.24940E-02-6.75432E+00 2.55493E-05-3.18502E-04
 -1      8205-1.03918E+01 1.13815E+01 1.23918E-02-6.73628E+00 2.11405E-05-2.35442E-04
 -1      8206-1.03744E+01 1.13638E+01 1.23227E-02-6.72426E+00 1.38772E-05-1.44554E-04
 -1      8207-1.03656E+01 1.13550E+01 1.22878E-02-6.71825E+00 4.82848E-06-4.87446E-05
 -1      8208-1.03656E+01 1.13550E+01 1.22878E-02-6.71825E+00-4.82848E-06 4.87446E-05
 -1      8209-1.03744E+01 1.13638E+01 1.23227E-02-6.72426E+00-1.38772E-05 1.44554E-04
 -1      8210-1.03918E+01 1.13815E+01 1.23918E-02-6.73628E+00-2.11405E-05 2.35442E-04
 -1      8211-1.04181E+01 1.14079E+01 1.24940E-02-6.75432E+00-2.55493E-05 3.18502E-04
 -1      8212-1.04530E+01 1.14432E+01 1.26275E-02-6.77836E+00-2.61809E-05 3.91358E-04
 -1      8213-1.18227E+01 1.24110E+01 1.46028E-02-5.02055E+00 2.30153E-05-4.76202E-04
 -1      8214-1.17817E+01 1.23695E+01 1.44435E-02-5.00206E+00 2.66712E-05-3.88917E-04
 -1      8215-1.17510E+01 1.23385E+01 1.43213E-02-4.98819E+00 2.39175E-05-2.88214E-04
 -1      8216-1.17305E+01 1.23177E+01 1.42385E-02-4.97895E+00 1.63498E-05-1.77239E-04
 -1      8217-1.17202E+01 1.23074E+01 1.41967E-02-4.97433E+00 5.78871E-06-5.98126E-05
 -1      8218-1.17202E+01 1.23074E+01 1.41967E-02-4.97433E+00-5.78871E-06 5.98126E-05
 -1      8219-1.17305E+01 1.23177E+01 1.42385E-02-4.97895E+00-1.63498E-05 1.77239E-04
 -1      8220-1.17510E+01 1.23385E+01 1.43213E-02-4.98819E+00-2.39175E-05 2.88214E-04
 -1      8221-1.17817E+01 1.23695E+01 1.44435E-02-5.00206E+00-2.66712E-05 3.88917E-04
 -1      8222-1.18227E+01 1.24110E+01 1.46028E-02-5.02055E+00-2.30153E-05 4.76202E-04
 -1      8223-1.29246E+01 1.29882E+01 1.65230E-02-3.03979E+00-1.00683E-05-6.13686E-04
 -1      8224-1.28783E+01 1.29413E+01 1.63338E-02-3.02823E+00 5.84476E-06-5.02076E-04
 -1      8225-1.28437E+01 1.29062E+01 1.61882E-02-3.01957E+00 1.17748E-05-3.72497E-04
 -1      8226-1.28205E+01 1.28828E+01 1.60894E-02-3.01379E+00 1.01881E-05-2.29225E-04
 -1      8227-1.28090E+01 1.28711E+01 1.60394E-02-3.01090E+00 3.92518E-06-7.73810E-05
 -1      8228-1.28090E+01 1.28711E+01 1.60394E-02-3.01090E+00-3.92518E-06 7.73810E-05
 -1      8229-1.28205E+01 1.28828E+01 1.60894E-02-3.01379E+00-1.01881E-05 2.29225E-04
 -1      8230-1.28437E+01 1.29062E+01 1.61882E-02-3.01957E+00-1.17748E-05 3.72497E-04
 -1      8231-1.28783E+01 1.29413E+01 1.63338E-02-3.02823E+00-5.84476E-06 5.02076E-04
 -1      8232-1.29246E+01 1.29882E+01 1.65230E-02-3.03979E+00 1.00683E-05 6.13686E-04
 -1      8233-1.36908E+01 1.30984E+01 1.80627E-02-8.89855E-01-7.66411E-05-8.20199E-04
 -1      8234-1.36405E+01 1.30474E+01 1.78406E-02-8.86675E-01-3.88934E-05-6.70664E-04
 -1      8235-1.36027E+01 1.30091E+01 1.76695E-02-8.84296E-01-1.62589E-05-4.97281E-04
 -1      8236-1.35776E+01 1.29835E+01 1.75531E-02-8.82712E-01-5.01957E-06-3.05867E-04
 -1      8237-1.35650E+01 1.29708E+01 1.74942E-02-8.81921E-01-8.70653E-07-1.03226E-04
 -1      8238-1.35650E+01 1.29708E+01 1.74942E-02-8.81921E-01 8.70653E-07 1.03226E-04
 -1      8239-1.35776E+01 1.29835E+01 1.75531E-02-8.82712E-01 5.01957E-06 3.05867E-04
 -1      8240-1.36027E+01 1.30091E+01 1.76695E-02-8.84296E-01 1.62589E-05 4.97281E-04
 -1      8241-1.36405E+01 1.30474E+01 1.78406E-02-8.86675E-01 3.88934E-05 6.70664E-04
 -1      8242-1.36908E+01 1.30984E+01 1.80627E-02-8.89855E-01 7.66411E-05 8.20199E-04
 -1      8243-1.40538E+01 1.26696E+01 1.87275E-02 1.35196E+00-1.78471E-04-1.11126E-03
 -1      8244-1.40011E+01 1.26160E+01 1.84729E-02 1.34534E+00-1.08241E-04-9.05937E-04
 -1      8245-1.39616E+01 1.25758E+01 1.82765E-02 1.34036E+00-6.03444E-05-6.70063E-04
 -1      8246-1.39353E+01 1.25491E+01 1.81428E-02 1.33704E+00-2.92442E-05-4.11409E-04
 -1      8247-1.39221E+01 1.25357E+01 1.80752E-02 1.33538E+00-8.57065E-06-1.38718E-04
 -1      8248-1.39221E+01 1.25357E+01 1.80752E-02 1.33538E+00 8.57065E-06 1.38718E-04
 -1      8249-1.39353E+01 1.25491E+01 1.81428E-02 1.33704E+00 2.92442E-05 4.11409E-04
 -1      8250-1.39616E+01 1.25758E+01 1.82765E-02 1.34036E+00 6.03444E-05 6.70063E-04
 -1      8251-1.40011E+01 1.26160E+01 1.84729E-02 1.34534E+00 1.08241E-04 9.05937E-04
 -1      8252-1.40538E+01 1.26696E+01 1.87275E-02 1.35196E+00 1.78471E-04 1.11126E-03
 -1      8253-1.39529E+01 1.16438E+01 1.78367E-02 3.58043E+00-3.14703E-04-1.49691E-03
 -1      8254-1.39003E+01 1.15902E+01 1.75558E-02 3.56279E+00-2.01653E-04-1.21297E-03
 -1      8255-1.38608E+01 1.15499E+01 1.73394E-02 3.54955E+00-1.20237E-04-8.92696E-04
 -1      8256-1.38345E+01 1.15231E+01 1.71924E-02 3.54072E+00-6.24166E-05-5.46188E-04
 -1      8257-1.38213E+01 1.15097E+01 1.71181E-02 3.53630E+00-1.91615E-05-1.83821E-04
 -1      8258-1.38213E+01 1.15097E+01 1.71181E-02 3.53630E+00 1.91615E-05 1.83821E-04
 -1      8259-1.38345E+01 1.15231E+01 1.71924E-02 3.54072E+00 6.24166E-05 5.46188E-04
 -1      8260-1.38608E+01 1.15499E+01 1.73394E-02 3.54955E+00 1.20237E-04 8.92696E-04
 -1      8261-1.39003E+01 1.15902E+01 1.75558E-02 3.56279E+00 2.01653E-04 1.21297E-03
 -1      8262-1.39529E+01 1.16438E+01 1.78367E-02 3.58043E+00 3.14703E-04 1.49691E-03
 -1      8263-1.33446E+01 9.99177E+00 1.45406E-02 5.66053E+00-4.82090E-04-1.97377E-03
 -1      8264-1.32952E+01 9.94122E+00 1.42492E-02 5.63112E+00-3.18831E-04-1.58160E-03
 -1      8265-1.32581E+01 9.90332E+00 1.40269E-02 5.60906E+00-1.97090E-04-1.15335E-03
 -1      8266-1.32333E+01 9.87805E+00 1.38777E-02 5.59435E+00-1.05840E-04-7.00975E-04
 -1      8267-1.32210E+01 9.86542E+00 1.38026E-02 5.58699E+00-3.32034E-05-2.35126E-04
 -1      8268-1.32210E+01 9.86542E+00 1.38026E-02 5.58699E+00 3.32034E-05 2.35126E-04
 -1      8269-1.32333E+01 9.87805E+00 1.38777E-02 5.59435E+00 1.05840E-04 7.00975E-04
 -1      8270-1.32581E+01 9.90332E+00 1.40269E-02 5.60906E+00 1.97090E-04 1.15335E-03
 -1      8271-1.32952E+01 9.94122E+00 1.42492E-02 5.63112E+00 3.18831E-04 1.58160E-03
 -1      8272-1.33446E+01 9.99177E+00 1.45406E-02 5.66053E+00 4.82090E-04 1.97377E-03
 -1      8273-1.22161E+01 7.73091E+00 7.88648E-03 7.43032E+00-6.77259E-04-2.51465E-03
 -1      8274-1.21737E+01 7.68740E+00 7.61398E-03 7.38921E+00-4.63662E-04-1.97342E-03
 -1      8275-1.21419E+01 7.65478E+00 7.41681E-03 7.35837E+00-2.97459E-04-1.41422E-03
 -1      8276-1.21208E+01 7.63304E+00 7.28742E-03 7.33781E+00-1.65010E-04-8.49336E-04
 -1      8277-1.21102E+01 7.62216E+00 7.22433E-03 7.32753E+00-5.27423E-05-2.83070E-04
 -1      8278-1.21102E+01 7.62216E+00 7.22433E-03 7.32753E+00 5.27423E-05 2.83070E-04
 -1      8279-1.21208E+01 7.63304E+00 7.28742E-03 7.33781E+00 1.65010E-04 8.49336E-04
 -1      8280-1.21419E+01 7.65478E+00 7.41681E-03 7.35837E+00 2.97459E-04 1.41422E-03
 -1      8281-1.21737E+01 7.68740E+00 7.61398E-03 7.38921E+00 4.63662E-04 1.97342E-03
 -1      8282-1.22161E+01 7.73091E+00 7.88648E-03 7.43032E+00 6.77259E-04 2.51465E-03
 -1      8283-1.06011E+01 4.94590E+00-3.07342E-03 8.71122E+00-9.00674E-04-3.06600E-03
 -1      8284-1.05702E+01 4.91387E+00-3.27475E-03 8.65961E+00-6.48500E-04-2.32086E-03
 -1      8285-1.05471E+01 4.88986E+00-3.40616E-03 8.62090E+00-4.36176E-04-1.61695E-03
 -1      8286-1.05317E+01 4.87385E+00-3.47353E-03 8.59510E+00-2.51035E-04-9.50475E-04
 -1      8287-1.05240E+01 4.86585E+00-3.50257E-03 8.58221E+00-8.19553E-05-3.13374E-04
 -1      8288-1.05240E+01 4.86585E+00-3.50257E-03 8.58221E+00 8.19553E-05 3.13374E-04
 -1      8289-1.05317E+01 4.87385E+00-3.47353E-03 8.59510E+00 2.51035E-04 9.50475E-04
 -1      8290-1.05471E+01 4.88986E+00-3.40616E-03 8.62090E+00 4.36176E-04 1.61695E-03
 -1      8291-1.05702E+01 4.91387E+00-3.27475E-03 8.65961E+00 6.48500E-04 2.32086E-03
 -1      8292-1.06011E+01 4.94590E+00-3.07342E-03 8.71122E+00 9.00674E-04 3.06600E-03
 -1      8293-8.59408E+00 1.80713E+00-1.91681E-02 9.32697E+00-1.14619E-03-3.61196E-03
 -1      8294-8.57930E+00 1.79109E+00-1.92810E-02 9.26750E+00-8.78181E-04-2.63468E-03
 -1      8295-8.56821E+00 1.77910E+00-1.92765E-02 9.22292E+00-6.20134E-04-1.78574E-03
 -1      8296-8.56083E+00 1.77112E+00-1.92684E-02 9.19322E+00-3.69335E-04-1.03931E-03
 -1      8297-8.55714E+00 1.76712E+00-1.92619E-02 9.17836E+00-1.22580E-04-3.41516E-04
 -1      8298-8.55714E+00 1.76712E+00-1.92619E-02 9.17836E+00 1.22580E-04 3.41516E-04
 -1      8299-8.56083E+00 1.77112E+00-1.92684E-02 9.19322E+00 3.69335E-04 1.03931E-03
 -1      8300-8.56821E+00 1.77910E+00-1.92765E-02 9.22292E+00 6.20134E-04 1.78574E-03
 -1      8301-8.57930E+00 1.79109E+00-1.92810E-02 9.26750E+00 8.78181E-04 2.63468E-03
 -1      8302-8.59408E+00 1.80713E+00-1.91681E-02 9.32697E+00 1.14619E-03 3.61196E-03
 -1      8303-6.36006E+00-1.41796E+00-4.12472E-02 9.13109E+00-1.34353E-03-4.42151E-03
 -1      8304-6.36497E+00-1.41380E+00-4.11740E-02 9.06794E+00-1.05210E-03-3.40904E-03
 -1      8305-6.36843E+00-1.41065E+00-4.12943E-02 9.02058E+00-7.40307E-04-2.52606E-03
 -1      8306-6.37055E+00-1.40849E+00-4.13740E-02 8.98900E+00-4.33986E-04-1.56562E-03
 -1      8307-6.37153E+00-1.40738E+00-4.14124E-02 8.97320E+00-1.42400E-04-5.31902E-04
 -1      8308-6.37153E+00-1.40738E+00-4.14124E-02 8.97320E+00 1.42400E-04 5.31902E-04
 -1      8309-6.37055E+00-1.40849E+00-4.13740E-02 8.98900E+00 4.33986E-04 1.56562E-03
 -1      8310-6.36843E+00-1.41065E+00-4.12943E-02 9.02058E+00 7.40307E-04 2.52606E-03
 -1      8311-6.36497E+00-1.41380E+00-4.11740E-02 9.06794E+00 1.05210E-03 3.40904E-03
 -1      8312-6.36006E+00-1.41796E+00-4.12472E-02 9.13109E+00 1.34353E-03 4.42151E-03
 -1      8313-4.13441E+00-4.36623E+00-6.97023E-02 8.03909E+00-1.06798E-03-6.57748E-03
 -1      8314-4.15998E+00-4.33881E+00-7.07966E-02 7.97750E+00-6.31654E-04-6.80025E-03
 -1      8315-4.17712E+00-4.31763E+00-7.16156E-02 7.93111E+00-2.75524E-04-5.93551E-03
 -1      8316-4.18750E+00-4.30326E+00-7.24497E-02 7.90007E+00-7.03552E-05-4.10280E-03
 -1      8317-4.19237E+00-4.29600E+00-7.29959E-02 7.88451E+00-4.88069E-06-1.47028E-03
 -1      8318-4.19237E+00-4.29600E+00-7.29959E-02 7.88451E+00 4.88069E-06 1.47028E-03
 -1      8319-4.18750E+00-4.30326E+00-7.24497E-02 7.90007E+00 7.03552E-05 4.10280E-03
 -1      8320-4.17712E+00-4.31763E+00-7.16156E-02 7.93111E+00 2.75524E-04 5.93551E-03
 -1      8321-4.15998E+00-4.33881E+00-7.07966E-02 7.97750E+00 6.31654E-04 6.80025E-03
 -1      8322-4.13441E+00-4.36623E+00-6.97023E-02 8.03909E+00 1.06798E-03 6.57748E-03
 -1      8323-2.21601E+00-6.60035E+00-1.08156E-01 6.05774E+00 3.02510E-04-1.21082E-02
 -1      8324-2.25088E+00-6.54428E+00-1.08243E-01 6.00255E+00 1.60121E-03-1.60819E-02
 -1      8325-2.27311E+00-6.50183E+00-1.11957E-01 5.96077E+00 2.06153E-03-1.60729E-02
 -1      8326-2.28615E+00-6.47333E+00-1.16072E-01 5.93280E+00 1.62443E-03-1.16564E-02
 -1      8327-2.29217E+00-6.45903E+00-1.18595E-01 5.91879E+00 6.06403E-04-4.23456E-03
 -1      8328-2.29217E+00-6.45903E+00-1.18595E-01 5.91879E+00-6.06403E-04 4.23456E-03
 -1      8329-2.28615E+00-6.47333E+00-1.16072E-01 5.93280E+00-1.62443E-03 1.16564E-02
 -1      8330-2.27311E+00-6.50183E+00-1.11957E-01 5.96077E+00-2.06153E-03 1.60729E-02
 -1      8331-2.25088E+00-6.54428E+00-1.08243E-01 6.00255E+00-1.60121E-03 1.60819E-02
 -1      8332-2.21601E+00-6.60035E+00-1.08156E-01 6.05774E+00-3.02510E-04 1.21082E-02
 -1      8333-9.06113E-01-7.62350E+00-1.28905E-01 3.29353E+00 4.52573E-03-1.80329E-02
 -1      8334-9.39207E-01-7.54038E+00-1.43597E-01 3.25321E+00 5.11047E-03-2.96701E-02
 -1      8335-9.60119E-01-7.47794E+00-1.55799E-01 3.22397E+00 3.54730E-03-2.86189E-02
 -1      8336-9.72291E-01-7.43630E+00-1.63823E-01 3.20488E+00 1.89205E-03-1.99479E-02
 -1      8337-9.77868E-01-7.41548E+00-1.67701E-01 3.19543E+00 5.75945E-04-7.09495E-03
 -1      8338-9.77868E-01-7.41548E+00-1.67701E-01 3.19543E+00-5.75945E-04 7.09495E-03
 -1      8339-9.72291E-01-7.43630E+00-1.63823E-01 3.20488E+00-1.89205E-03 1.99479E-02
 -1      8340-9.60119E-01-7.47794E+00-1.55799E-01 3.22397E+00-3.54730E-03 2.86189E-02
 -1      8341-9.39207E-01-7.54038E+00-1.43597E-01 3.25321E+00-5.11047E-03 2.96701E-02
 -1      8342-9.06113E-01-7.62350E+00-1.28905E-01 3.29353E+00-4.52573E-03 1.80329E-02
 -1      8343 2.73348E-01-9.39799E+00 5.69325E-01-3.01621E+00 1.09414E-01-8.44443E-02
 -1      8344 3.56080E-02-9.55832E+00 3.99598E-02-3.21994E+00 3.08062E-01-1.21830E-01
 -1      8345-1.19162E-01-9.64949E+00-3.19038E-01-3.34885E+00 2.82277E-01-1.12049E-01
 -1      8346-2.11765E-01-9.69999E+00-5.36834E-01-3.42677E+00 1.85291E-01-7.58324E-02
 -1      8347-2.55183E-01-9.72270E+00-6.39441E-01-3.46377E+00 6.38049E-02-2.65804E-02
 -1      8348-2.55183E-01-9.72270E+00-6.39441E-01-3.46377E+00-6.38049E-02 2.65804E-02
 -1      8349-2.11765E-01-9.69999E+00-5.36834E-01-3.42677E+00-1.85291E-01 7.58324E-02
 -1      8350-1.19162E-01-9.64949E+00-3.19038E-01-3.34885E+00-2.82277E-01 1.12049E-01
 -1      8351 3.56080E-02-9.55832E+00 3.99598E-02-3.21994E+00-3.08062E-01 1.21830E-01
 -1      8352 2.73348E-01-9.39799E+00 5.69325E-01-3.01621E+00-1.09414E-01 8.44443E-02
 -1      8353 2.04183E+00-1.04103E+01-2.87485E-02-4.67573E+00-1.65821E-02-7.35333E-02
 -1      8354 2.03137E+00-1.04887E+01 1.73226E-01-4.75130E+00-1.07133E-01-9.74931E-02
 -1      8355 1.99986E+00-1.05319E+01 2.23566E-01-4.81973E+00-7.98310E-02-8.87270E-02
 -1      8356 1.97148E+00-1.05554E+01 2.23253E-01-4.86824E+00-4.36726E-02-6.06346E-02
 -1      8357 1.95569E+00-1.05659E+01 2.15247E-01-4.89305E+00-1.35674E-02-2.14308E-02
 -1      8358 1.95569E+00-1.05659E+01 2.15247E-01-4.89305E+00 1.35674E-02 2.14308E-02
 -1      8359 1.97148E+00-1.05554E+01 2.23253E-01-4.86824E+00 4.36726E-02 6.06346E-02
 -1      8360 1.99986E+00-1.05319E+01 2.23566E-01-4.81973E+00 7.98310E-02 8.87270E-02
 -1      8361 2.03137E+00-1.04887E+01 1.73226E-01-4.75130E+00 1.07133E-01 9.74931E-02
 -1      8362 2.04183E+00-1.04103E+01-2.87485E-02-4.67573E+00 1.65821E-02 7.35333E-02
 -1      8363 3.53382E+00-1.04657E+01 1.03943E-01-6.16989E+00-2.93709E-02-1.39082E-02
 -1      8364 3.45262E+00-1.05482E+01 7.32148E-02-6.16733E+00-4.86565E-02-3.04251E-02
 -1      8365 3.41189E+00-1.05982E+01 1.08564E-01-6.17584E+00-6.17490E-02-3.38930E-02
 -1      8366 3.38889E+00-1.06268E+01 1.42201E-01-6.18635E+00-4.70086E-02-2.51643E-02
 -1      8367 3.37801E+00-1.06399E+01 1.59933E-01-6.19296E+00-1.71414E-02-9.18118E-03
 -1      8368 3.37801E+00-1.06399E+01 1.59933E-01-6.19296E+00 1.71414E-02 9.18118E-03
 -1      8369 3.38889E+00-1.06268E+01 1.42201E-01-6.18635E+00 4.70086E-02 2.51643E-02
 -1      8370 3.41189E+00-1.05982E+01 1.08564E-01-6.17584E+00 6.17490E-02 3.38930E-02
 -1      8371 3.45262E+00-1.05482E+01 7.32148E-02-6.16733E+00 4.86565E-02 3.04251E-02
 -1      8372 3.53382E+00-1.04657E+01 1.03943E-01-6.16989E+00 2.93709E-02 1.39082E-02
 -1      8373 4.27017E+00-1.02000E+01 5.51012E-02-7.46877E+00-7.30390E-03-1.78610E-03
 -1      8374 4.23663E+00-1.01662E+01 6.26475E-02-7.44801E+00-1.28925E-02-2.69487E-03
 -1      8375 4.20251E+00-1.01607E+01 5.81939E-02-7.43474E+00-1.21359E-02-3.91564E-03
 -1      8376 4.17924E+00-1.01628E+01 5.96376E-02-7.42742E+00-9.88752E-03-3.69680E-03
 -1      8377 4.16775E+00-1.01650E+01 6.22684E-02-7.42430E+00-3.87042E-03-1.50521E-03
 -1      8378 4.16775E+00-1.01650E+01 6.22684E-02-7.42430E+00 3.87042E-03 1.50521E-03
 -1      8379 4.17924E+00-1.01628E+01 5.96376E-02-7.42742E+00 9.88752E-03 3.69680E-03
 -1      8380 4.20251E+00-1.01607E+01 5.81939E-02-7.43474E+00 1.21359E-02 3.91564E-03
 -1      8381 4.23663E+00-1.01662E+01 6.26475E-02-7.44801E+00 1.28925E-02 2.69487E-03
 -1      8382 4.27017E+00-1.02000E+01 5.51012E-02-7.46877E+00 7.30390E-03 1.78610E-03
 -1      8383 4.43477E+00-9.39749E+00 3.44273E-02-8.62538E+00-6.50697E-04 1.02965E-03
 -1      8384 4.40187E+00-9.36573E+00 3.24933E-02-8.60023E+00 1.20501E-04 1.22192E-03
 -1      8385 4.37822E+00-9.34030E+00 3.30804E-02-8.58150E+00-1.47177E-04 1.25474E-03
 -1      8386 4.36144E+00-9.32493E+00 3.16020E-02-8.56914E+00 1.31961E-04 9.58196E-04
 -1      8387 4.35273E+00-9.31792E+00 3.04344E-02-8.56302E+00 9.00963E-05 3.49677E-04
 -1      8388 4.35273E+00-9.31792E+00 3.04344E-02-8.56302E+00-9.00963E-05-3.49677E-04
 -1      8389 4.36144E+00-9.32493E+00 3.16020E-02-8.56914E+00-1.31961E-04-9.58196E-04
 -1      8390 4.37822E+00-9.34030E+00 3.30804E-02-8.58150E+00 1.47177E-04-1.25474E-03
 -1      8391 4.40187E+00-9.36573E+00 3.24933E-02-8.60023E+00-1.20501E-04-1.22192E-03
 -1      8392 4.43477E+00-9.39749E+00 3.44273E-02-8.62538E+00 6.50697E-04-1.02965E-03
 -1      8393 4.07698E+00-8.21821E+00 2.13503E-02-9.64548E+00-2.43916E-04 3.72517E-04
 -1      8394 4.04936E+00-8.18870E+00 2.11297E-02-9.61899E+00 4.49204E-04 7.67971E-04
 -1      8395 4.02830E+00-8.16704E+00 2.02329E-02-9.59895E+00 7.73687E-04 7.69457E-04
 -1      8396 4.01452E+00-8.15213E+00 1.99870E-02-9.58549E+00 5.54982E-04 5.49437E-04
 -1      8397 4.00765E+00-8.14455E+00 1.98183E-02-9.57873E+00 2.03934E-04 2.02265E-04
 -1      8398 4.00765E+00-8.14455E+00 1.98183E-02-9.57873E+00-2.03934E-04-2.02265E-04
 -1      8399 4.01452E+00-8.15213E+00 1.99870E-02-9.58549E+00-5.54982E-04-5.49437E-04
 -1      8400 4.02830E+00-8.16704E+00 2.02329E-02-9.59895E+00-7.73687E-04-7.69457E-04
 -1      8401 4.04936E+00-8.18870E+00 2.11297E-02-9.61899E+00-4.49204E-04-7.67971E-04
 -1      8402 4.07698E+00-8.21821E+00 2.13503E-02-9.64548E+00 2.43916E-04-3.72517E-04
 -1      8403 3.28683E+00-6.74709E+00 1.40736E-02-1.05110E+01-5.43281E-04-9.42864E-05
 -1      8404 3.26391E+00-6.72425E+00 1.39830E-02-1.04831E+01-2.71274E-04 6.45849E-06
 -1      8405 3.24683E+00-6.70681E+00 1.39515E-02-1.04620E+01-1.07900E-04 8.18703E-05
 -1      8406 3.23539E+00-6.69521E+00 1.37873E-02-1.04479E+01-5.87849E-07 8.34711E-05
 -1      8407 3.22968E+00-6.68939E+00 1.37299E-02-1.04408E+01 8.06312E-06 3.21269E-05
 -1      8408 3.22968E+00-6.68939E+00 1.37299E-02-1.04408E+01-8.06312E-06-3.21269E-05
 -1      8409 3.23539E+00-6.69521E+00 1.37873E-02-1.04479E+01 5.87849E-07-8.34711E-05
 -1      8410 3.24683E+00-6.70681E+00 1.39515E-02-1.04620E+01 1.07900E-04-8.18703E-05
 -1      8411 3.26391E+00-6.72425E+00 1.39830E-02-1.04831E+01 2.71274E-04-6.45849E-06
 -1      8412 3.28683E+00-6.74709E+00 1.40736E-02-1.05110E+01 5.43281E-04 9.42864E-05
 -1      8413 2.15280E+00-5.05714E+00 9.93075E-03-1.11916E+01-6.32437E-04-2.75393E-04
 -1      8414 2.13552E+00-5.04017E+00 9.91964E-03-1.11620E+01-5.23680E-04-2.29820E-04
 -1      8415 2.12257E+00-5.02744E+00 9.90169E-03-1.11398E+01-3.83556E-04-1.69878E-04
 -1      8416 2.11395E+00-5.01890E+00 9.91569E-03-1.11250E+01-2.37641E-04-1.00795E-04
 -1      8417 2.10964E+00-5.01463E+00 9.90679E-03-1.11176E+01-7.88845E-05-3.24909E-05
 -1      8418 2.10964E+00-5.01463E+00 9.90679E-03-1.11176E+01 7.88845E-05 3.24909E-05
 -1      8419 2.11395E+00-5.01890E+00 9.91569E-03-1.11250E+01 2.37641E-04 1.00795E-04
 -1      8420 2.12257E+00-5.02744E+00 9.90169E-03-1.11398E+01 3.83556E-04 1.69878E-04
 -1      8421 2.13552E+00-5.04017E+00 9.91964E-03-1.11620E+01 5.23680E-04 2.29820E-04
 -1      8422 2.15280E+00-5.05714E+00 9.93075E-03-1.11916E+01 6.32437E-04 2.75393E-04
 -1      8423 7.56029E-01-3.21008E+00 7.92138E-03-1.16552E+01-5.41239E-04-3.19725E-04
 -1      8424 7.44782E-01-3.19907E+00 7.88880E-03-1.16244E+01-4.63707E-04-2.73863E-04
 -1      8425 7.36352E-01-3.19081E+00 7.87464E-03-1.16012E+01-3.55989E-04-2.08019E-04
 -1      8426 7.30729E-01-3.18531E+00 7.86447E-03-1.15858E+01-2.22738E-04-1.30160E-04
 -1      8427 7.27920E-01-3.18256E+00 7.86597E-03-1.15781E+01-7.63101E-05-4.44708E-05
 -1      8428 7.27920E-01-3.18256E+00 7.86597E-03-1.15781E+01 7.63101E-05 4.44708E-05
 -1      8429 7.30729E-01-3.18531E+00 7.86447E-03-1.15858E+01 2.22738E-04 1.30160E-04
 -1      8430 7.36352E-01-3.19081E+00 7.87464E-03-1.16012E+01 3.55989E-04 2.08019E-04
 -1      8431 7.44782E-01-3.19907E+00 7.88880E-03-1.16244E+01 4.63707E-04 2.73863E-04
 -1      8432 7.56029E-01-3.21008E+00 7.92138E-03-1.16552E+01 5.41239E-04 3.19725E-04
 -1      8433-8.31329E-01-1.26262E+00 7.29155E-03-1.18736E+01-4.17181E-04-3.25239E-04
 -1      8434-8.36347E-01-1.25773E+00 7.24442E-03-1.18420E+01-3.49630E-04-2.68194E-04
 -1      8435-8.40110E-01-1.25407E+00 7.21047E-03-1.18182E+01-2.63743E-04-2.00415E-04
 -1      8436-8.42618E-01-1.25163E+00 7.19024E-03-1.18024E+01-1.64311E-04-1.23791E-04
 -1      8437-8.43873E-01-1.25042E+00 7.17925E-03-1.17945E+01-5.56459E-05-4.18149E-05
 -1      8438-8.43873E-01-1.25042E+00 7.17925E-03-1.17945E+01 5.56459E-05 4.18149E-05
 -1      8439-8.42618E-01-1.25163E+00 7.19024E-03-1.18024E+01 1.64311E-04 1.23791E-04
 -1      8440-8.40110E-01-1.25407E+00 7.21047E-03-1.18182E+01 2.63743E-04 2.00415E-04
 -1      8441-8.36347E-01-1.25773E+00 7.24442E-03-1.18420E+01 3.49630E-04 2.68194E-04
 -1      8442-8.31329E-01-1.26262E+00 7.29155E-03-1.18736E+01 4.17181E-04 3.25239E-04
 -1      8443-2.54421E+00 7.31386E-01 7.49744E-03-1.18243E+01-3.05659E-04-3.20320E-04
 -1      8444-2.54290E+00 7.29992E-01 7.44006E-03-1.17925E+01-2.51476E-04-2.58438E-04
 -1      8445-2.54192E+00 7.28944E-01 7.39677E-03-1.17686E+01-1.86971E-04-1.90001E-04
 -1      8446-2.54126E+00 7.28244E-01 7.36764E-03-1.17527E+01-1.15070E-04-1.16334E-04
 -1      8447-2.54094E+00 7.27894E-01 7.35341E-03-1.17448E+01-3.88857E-05-3.91940E-05
 -1      8448-2.54094E+00 7.27894E-01 7.35341E-03-1.17448E+01 3.88857E-05 3.91940E-05
 -1      8449-2.54126E+00 7.28244E-01 7.36764E-03-1.17527E+01 1.15070E-04 1.16334E-04
 -1      8450-2.54192E+00 7.28944E-01 7.39677E-03-1.17686E+01 1.86971E-04 1.90001E-04
 -1      8451-2.54290E+00 7.29992E-01 7.44006E-03-1.17925E+01 2.51476E-04 2.58438E-04
 -1      8452-2.54421E+00 7.31386E-01 7.49744E-03-1.18243E+01 3.05659E-04 3.20320E-04
 -1      8453-4.32241E+00 2.71879E+00 8.18810E-03-1.14912E+01-2.13792E-04-3.14176E-04
 -1      8454-4.31473E+00 2.71103E+00 8.12210E-03-1.14600E+01-1.74316E-04-2.51351E-04
 -1      8455-4.30897E+00 2.70521E+00 8.07208E-03-1.14365E+01-1.28544E-04-1.83631E-04
 -1      8456-4.30513E+00 2.70133E+00 8.03859E-03-1.14209E+01-7.86765E-05-1.11914E-04
 -1      8457-4.30321E+00 2.69938E+00 8.02172E-03-1.14130E+01-2.64633E-05-3.76027E-05
 -1      8458-4.30321E+00 2.69938E+00 8.02172E-03-1.14130E+01 2.64633E-05 3.76027E-05
 -1      8459-4.30513E+00 2.70133E+00 8.03859E-03-1.14209E+01 7.86765E-05 1.11914E-04
 -1      8460-4.30897E+00 2.70521E+00 8.07208E-03-1.14365E+01 1.28544E-04 1.83631E-04
 -1      8461-4.31473E+00 2.71103E+00 8.12210E-03-1.14600E+01 1.74316E-04 2.51351E-04
 -1      8462-4.32241E+00 2.71879E+00 8.18810E-03-1.14912E+01 2.13792E-04 3.14176E-04
 -1      8463-6.10867E+00 4.64536E+00 9.16940E-03-1.08652E+01-1.39707E-04-3.11403E-04
 -1      8464-6.09463E+00 4.63122E+00 9.09388E-03-1.08353E+01-1.13030E-04-2.48619E-04
 -1      8465-6.08410E+00 4.62061E+00 9.03683E-03-1.08128E+01-8.28486E-05-1.81314E-04
 -1      8466-6.07708E+00 4.61354E+00 8.99859E-03-1.07978E+01-5.04809E-05-1.10372E-04
 -1      8467-6.07357E+00 4.61001E+00 8.97944E-03-1.07903E+01-1.69515E-05-3.70648E-05
 -1      8468-6.07357E+00 4.61001E+00 8.97944E-03-1.07903E+01 1.69515E-05 3.70648E-05
 -1      8469-6.07708E+00 4.61354E+00 8.99859E-03-1.07978E+01 5.04809E-05 1.10372E-04
 -1      8470-6.08410E+00 4.62061E+00 9.03683E-03-1.08128E+01 8.28486E-05 1.81314E-04
 -1      8471-6.09463E+00 4.63122E+00 9.09388E-03-1.08353E+01 1.13030E-04 2.48619E-04
 -1      8472-6.10867E+00 4.64536E+00 9.16940E-03-1.08652E+01 1.39707E-04 3.11403E-04
 -1      8473-7.84697E+00 6.45438E+00 1.03401E-02-9.94405E+00-8.26754E-05-3.16523E-04
 -1      8474-7.82664E+00 6.43391E+00 1.02533E-02-9.91622E+00-6.56805E-05-2.52851E-04
 -1      8475-7.81140E+00 6.41856E+00 1.01876E-02-9.89536E+00-4.74886E-05-1.84467E-04
 -1      8476-7.80123E+00 6.40832E+00 1.01436E-02-9.88144E+00-2.86705E-05-1.12313E-04
 -1      8477-7.79615E+00 6.40320E+00 1.01215E-02-9.87449E+00-9.57965E-06-3.77191E-05
 -1      8478-7.79615E+00 6.40320E+00 1.01215E-02-9.87449E+00 9.57965E-06 3.77191E-05
 -1      8479-7.80123E+00 6.40832E+00 1.01436E-02-9.88144E+00 2.86705E-05 1.12313E-04
 -1      8480-7.81140E+00 6.41856E+00 1.01876E-02-9.89536E+00 4.74886E-05 1.84467E-04
 -1      8481-7.82664E+00 6.43391E+00 1.02533E-02-9.91622E+00 6.56805E-05 2.52851E-04
 -1      8482-7.84697E+00 6.45438E+00 1.03401E-02-9.94405E+00 8.26754E-05 3.16523E-04
 -1      8483-9.48106E+00 8.08553E+00 1.16381E-02-8.73316E+00-4.37278E-05-3.35228E-04
 -1      8484-9.45461E+00 8.05888E+00 1.15376E-02-8.70842E+00-3.27130E-05-2.68332E-04
 -1      8485-9.43476E+00 8.03889E+00 1.14613E-02-8.68986E+00-2.25400E-05-1.96047E-04
 -1      8486-9.42154E+00 8.02556E+00 1.14101E-02-8.67749E+00-1.31494E-05-1.19476E-04
 -1      8487-9.41492E+00 8.01890E+00 1.13844E-02-8.67131E+00-4.31597E-06-4.01436E-05
 -1      8488-9.41492E+00 8.01890E+00 1.13844E-02-8.67131E+00 4.31597E-06 4.01436E-05
 -1      8489-9.42154E+00 8.02556E+00 1.14101E-02-8.67749E+00 1.31494E-05 1.19476E-04
 -1      8490-9.43476E+00 8.03889E+00 1.14613E-02-8.68986E+00 2.25400E-05 1.96047E-04
 -1      8491-9.45461E+00 8.05888E+00 1.15376E-02-8.70842E+00 3.27130E-05 2.68332E-04
 -1      8492-9.48106E+00 8.08553E+00 1.16381E-02-8.73316E+00 4.37278E-05 3.35228E-04
 -1      8493-1.09532E+01 9.47431E+00 1.29966E-02-7.24715E+00-2.52696E-05-3.75019E-04
 -1      8494-1.09209E+01 9.44176E+00 1.28797E-02-7.22651E+00-1.57262E-05-3.01051E-04
 -1      8495-1.08967E+01 9.41735E+00 1.27907E-02-7.21104E+00-8.98993E-06-2.20411E-04
 -1      8496-1.08806E+01 9.40108E+00 1.27307E-02-7.20072E+00-4.45082E-06-1.34505E-04
 -1      8497-1.08725E+01 9.39294E+00 1.27005E-02-7.19556E+00-1.32119E-06-4.52227E-05
 -1      8498-1.08725E+01 9.39294E+00 1.27005E-02-7.19556E+00 1.32119E-06 4.52227E-05
 -1      8499-1.08806E+01 9.40108E+00 1.27307E-02-7.20072E+00 4.45082E-06 1.34505E-04
 -1      8500-1.08967E+01 9.41735E+00 1.27907E-02-7.21104E+00 8.98993E-06 2.20411E-04
 -1      8501-1.09209E+01 9.44176E+00 1.28797E-02-7.22651E+00 1.57262E-05 3.01051E-04
 -1      8502-1.09532E+01 9.47431E+00 1.29966E-02-7.24715E+00 2.52696E-05 3.75019E-04
 -1      8503-1.22035E+01 1.05522E+01 1.43082E-02-5.51195E+00-3.06374E-05-4.45596E-04
 -1      8504-1.21659E+01 1.05143E+01 1.41721E-02-5.49652E+00-1.68654E-05-3.58796E-04
 -1      8505-1.21377E+01 1.04858E+01 1.40681E-02-5.48496E+00-8.13477E-06-2.63249E-04
 -1      8506-1.21189E+01 1.04668E+01 1.39979E-02-5.47725E+00-3.25766E-06-1.60862E-04
 -1      8507-1.21095E+01 1.04573E+01 1.39625E-02-5.47339E+00-8.08912E-07-5.41195E-05
 -1      8508-1.21095E+01 1.04573E+01 1.39625E-02-5.47339E+00 8.08911E-07 5.41195E-05
 -1      8509-1.21189E+01 1.04668E+01 1.39979E-02-5.47725E+00 3.25766E-06 1.60862E-04
 -1      8510-1.21377E+01 1.04858E+01 1.40681E-02-5.48496E+00 8.13477E-06 2.63249E-04
 -1      8511-1.21659E+01 1.05143E+01 1.41721E-02-5.49652E+00 1.68654E-05 3.58796E-04
 -1      8512-1.22035E+01 1.05522E+01 1.43082E-02-5.51195E+00 3.06374E-05 4.45596E-04
 -1      8513-1.31699E+01 1.12482E+01 1.53922E-02-3.56790E+00-6.35104E-05-5.58848E-04
 -1      8514-1.31278E+01 1.12056E+01 1.52345E-02-3.55886E+00-3.83714E-05-4.51030E-04
 -1      8515-1.30962E+01 1.11736E+01 1.51136E-02-3.55209E+00-2.12443E-05-3.31429E-04
 -1      8516-1.30752E+01 1.11523E+01 1.50318E-02-3.54758E+00-1.02005E-05-2.02711E-04
 -1      8517-1.30646E+01 1.11417E+01 1.49905E-02-3.54533E+00-2.96719E-06-6.82283E-05
 -1      8518-1.30646E+01 1.11417E+01 1.49905E-02-3.54533E+00 2.96719E-06 6.82283E-05
 -1      8519-1.30752E+01 1.11523E+01 1.50318E-02-3.54758E+00 1.02005E-05 2.02711E-04
 -1      8520-1.30962E+01 1.11736E+01 1.51136E-02-3.55209E+00 2.12443E-05 3.31429E-04
 -1      8521-1.31278E+01 1.12056E+01 1.52345E-02-3.55886E+00 3.83714E-05 4.51030E-04
 -1      8522-1.31699E+01 1.12482E+01 1.53922E-02-3.56790E+00 6.35104E-05 5.58848E-04
 -1      8523-1.37902E+01 1.14919E+01 1.59657E-02-1.47353E+00-1.27057E-04-7.28211E-04
 -1      8524-1.37447E+01 1.14458E+01 1.57853E-02-1.47208E+00-8.20066E-05-5.88275E-04
 -1      8525-1.37106E+01 1.14112E+01 1.56466E-02-1.47099E+00-4.92042E-05-4.32486E-04
 -1      8526-1.36879E+01 1.13882E+01 1.55525E-02-1.47027E+00-2.56621E-05-2.64575E-04
 -1      8527-1.36765E+01 1.13767E+01 1.55050E-02-1.46991E+00-7.89855E-06-8.90555E-05
 -1      8528-1.36765E+01 1.13767E+01 1.55050E-02-1.46991E+00 7.89855E-06 8.90555E-05
 -1      8529-1.36879E+01 1.13882E+01 1.55525E-02-1.47027E+00 2.56621E-05 2.64575E-04
 -1      8530-1.37106E+01 1.14112E+01 1.56466E-02-1.47099E+00 4.92042E-05 4.32486E-04
 -1      8531-1.37447E+01 1.14458E+01 1.57853E-02-1.47208E+00 8.20066E-05 5.88275E-04
 -1      8532-1.37902E+01 1.14919E+01 1.59657E-02-1.47353E+00 1.27057E-04 7.28211E-04
 -1      8533-1.40053E+01 1.12198E+01 1.56235E-02 6.90675E-01-2.22906E-04-9.67096E-04
 -1      8534-1.39582E+01 1.11719E+01 1.54217E-02 6.83465E-01-1.48457E-04-7.80672E-04
 -1      8535-1.39228E+01 1.11360E+01 1.52662E-02 6.78052E-01-9.22082E-05-5.73451E-04
 -1      8536-1.38992E+01 1.11120E+01 1.51605E-02 6.74440E-01-4.96466E-05-3.50561E-04
 -1      8537-1.38874E+01 1.11001E+01 1.51071E-02 6.72634E-01-1.55882E-05-1.17954E-04
 -1      8538-1.38874E+01 1.11001E+01 1.51071E-02 6.72634E-01 1.55882E-05 1.17954E-04
 -1      8539-1.38992E+01 1.11120E+01 1.51605E-02 6.74440E-01 4.96466E-05 3.50561E-04
 -1      8540-1.39228E+01 1.11360E+01 1.52662E-02 6.78052E-01 9.22082E-05 5.73451E-04
 -1      8541-1.39582E+01 1.11719E+01 1.54217E-02 6.83465E-01 1.48457E-04 7.80672E-04
 -1      8542-1.40053E+01 1.12198E+01 1.56235E-02 6.90675E-01 2.22906E-04 9.67096E-04
 -1      8543-1.37663E+01 1.03848E+01 1.38340E-02 2.81962E+00-3.50204E-04-1.28586E-03
 -1      8544-1.37196E+01 1.03373E+01 1.36161E-02 2.80291E+00-2.37066E-04-1.03498E-03
 -1      8545-1.36846E+01 1.03017E+01 1.34483E-02 2.79037E+00-1.49848E-04-7.58250E-04
 -1      8546-1.36612E+01 1.02780E+01 1.33341E-02 2.78201E+00-8.19458E-05-4.62640E-04
 -1      8547-1.36495E+01 1.02661E+01 1.32765E-02 2.77783E+00-2.59679E-05-1.55496E-04
 -1      8548-1.36495E+01 1.02661E+01 1.32765E-02 2.77783E+00 2.59679E-05 1.55496E-04
 -1      8549-1.36612E+01 1.02780E+01 1.33341E-02 2.78201E+00 8.19457E-05 4.62640E-04
 -1      8550-1.36846E+01 1.03017E+01 1.34483E-02 2.79037E+00 1.49848E-04 7.58250E-04
 -1      8551-1.37196E+01 1.03373E+01 1.36161E-02 2.80291E+00 2.37066E-04 1.03498E-03
 -1      8552-1.37663E+01 1.03848E+01 1.38340E-02 2.81962E+00 3.50204E-04 1.28586E-03
 -1      8553-1.30430E+01 8.96880E+00 9.95836E-03 4.78351E+00-5.05360E-04-1.68616E-03
 -1      8554-1.29996E+01 8.92454E+00 9.73646E-03 4.75694E+00-3.46615E-04-1.34818E-03
 -1      8555-1.29670E+01 8.89135E+00 9.56626E-03 4.73700E+00-2.22211E-04-9.82037E-04
 -1      8556-1.29453E+01 8.86923E+00 9.45179E-03 4.72371E+00-1.23040E-04-5.96542E-04
 -1      8557-1.29345E+01 8.85816E+00 9.39399E-03 4.71706E+00-3.92936E-05-2.00061E-04
 -1      8558-1.29345E+01 8.85816E+00 9.39399E-03 4.71706E+00 3.92936E-05 2.00061E-04
 -1      8559-1.29453E+01 8.86923E+00 9.45179E-03 4.72371E+00 1.23040E-04 5.96542E-04
 -1      8560-1.29670E+01 8.89135E+00 9.56626E-03 4.73700E+00 2.22211E-04 9.82037E-04
 -1      8561-1.29996E+01 8.92454E+00 9.73646E-03 4.75694E+00 3.46615E-04 1.34818E-03
 -1      8562-1.30430E+01 8.96880E+00 9.95836E-03 4.78351E+00 5.05360E-04 1.68616E-03
 -1      8563-1.18364E+01 6.99852E+00 3.29818E-03 6.43239E+00-6.83562E-04-2.15247E-03
 -1      8564-1.17997E+01 6.96090E+00 3.09338E-03 6.39633E+00-4.78203E-04-1.69608E-03
 -1      8565-1.17721E+01 6.93270E+00 2.94399E-03 6.36927E+00-3.12985E-04-1.21979E-03
 -1      8566-1.17537E+01 6.91389E+00 2.84449E-03 6.35124E+00-1.76395E-04-7.34589E-04
 -1      8567-1.17446E+01 6.90449E+00 2.79574E-03 6.34222E+00-5.68821E-05-2.45181E-04
 -1      8568-1.17446E+01 6.90449E+00 2.79574E-03 6.34222E+00 5.68821E-05 2.45181E-04
 -1      8569-1.17537E+01 6.91389E+00 2.84449E-03 6.35124E+00 1.76395E-04 7.34589E-04
 -1      8570-1.17721E+01 6.93270E+00 2.94399E-03 6.36927E+00 3.12985E-04 1.21979E-03
 -1      8571-1.17997E+01 6.96090E+00 3.09338E-03 6.39633E+00 4.78203E-04 1.69608E-03
 -1      8572-1.18364E+01 6.99852E+00 3.29818E-03 6.43239E+00 6.83562E-04 2.15247E-03
 -1      8573-1.01909E+01 4.56253E+00-6.84401E-03 7.60707E+00-8.82486E-04-2.64481E-03
 -1      8574-1.01645E+01 4.53531E+00-6.99040E-03 7.56287E+00-6.40236E-04-2.02355E-03
 -1      8575-1.01448E+01 4.51490E+00-7.08954E-03 7.52973E+00-4.33340E-04-1.42190E-03
 -1      8576-1.01316E+01 4.50129E+00-7.13842E-03 7.50763E+00-2.50476E-04-8.40353E-04
 -1      8577-1.01251E+01 4.49449E+00-7.15900E-03 7.49659E+00-8.19537E-05-2.77804E-04
 -1      8578-1.01251E+01 4.49449E+00-7.15900E-03 7.49659E+00 8.19536E-05 2.77804E-04
 -1      8579-1.01316E+01 4.50129E+00-7.13842E-03 7.50763E+00 2.50476E-04 8.40353E-04
 -1      8580-1.01448E+01 4.51490E+00-7.08954E-03 7.52973E+00 4.33340E-04 1.42190E-03
 -1      8581-1.01645E+01 4.53531E+00-6.99040E-03 7.56287E+00 6.40236E-04 2.02355E-03
 -1      8582-1.01909E+01 4.56253E+00-6.84401E-03 7.60707E+00 8.82486E-04 2.64481E-03
 -1      8583-8.20503E+00 1.82582E+00-2.11227E-02 8.15733E+00-1.09876E-03-3.13831E-03
 -1      8584-8.19291E+00 1.81274E+00-2.11997E-02 8.10753E+00-8.40598E-04-2.30992E-03
 -1      8585-8.18382E+00 1.80296E+00-2.11686E-02 8.07020E+00-5.94052E-04-1.57015E-03
 -1      8586-8.17778E+00 1.79643E+00-2.11445E-02 8.04532E+00-3.54679E-04-9.14876E-04
 -1      8587-8.17477E+00 1.79317E+00-2.11309E-02 8.03289E+00-1.17939E-04-3.00711E-04
 -1      8588-8.17477E+00 1.79317E+00-2.11309E-02 8.03289E+00 1.17939E-04 3.00711E-04
 -1      8589-8.17778E+00 1.79643E+00-2.11445E-02 8.04532E+00 3.54679E-04 9.14876E-04
 -1      8590-8.18382E+00 1.80296E+00-2.11686E-02 8.07020E+00 5.94052E-04 1.57015E-03
 -1      8591-8.19291E+00 1.81274E+00-2.11997E-02 8.10753E+00 8.40598E-04 2.30992E-03
 -1      8592-8.20503E+00 1.82582E+00-2.11227E-02 8.15733E+00 1.09876E-03 3.13831E-03
 -1      8593-6.03821E+00-9.61804E-01-4.03880E-02 7.96646E+00-1.28364E-03-3.80845E-03
 -1      8594-6.04335E+00-9.57285E-01-4.02316E-02 7.91479E+00-1.01779E-03-2.86195E-03
 -1      8595-6.04714E+00-9.53919E-01-4.02671E-02 7.87606E+00-7.28876E-04-2.07221E-03
 -1      8596-6.04955E+00-9.51634E-01-4.02657E-02 7.85023E+00-4.33667E-04-1.25805E-03
 -1      8597-6.05072E+00-9.50474E-01-4.02523E-02 7.83732E+00-1.43516E-04-4.22283E-04
 -1      8598-6.05072E+00-9.50474E-01-4.02523E-02 7.83732E+00 1.43516E-04 4.22283E-04
 -1      8599-6.04955E+00-9.51634E-01-4.02657E-02 7.85023E+00 4.33667E-04 1.25805E-03
 -1      8600-6.04714E+00-9.53919E-01-4.02671E-02 7.87606E+00 7.28876E-04 2.07221E-03
 -1      8601-6.04335E+00-9.57285E-01-4.02316E-02 7.91479E+00 1.01779E-03 2.86195E-03
 -1      8602-6.03821E+00-9.61804E-01-4.03880E-02 7.96646E+00 1.28364E-03 3.80845E-03
 -1      8603-3.90887E+00-3.46733E+00-6.52719E-02 6.97869E+00-1.11520E-03-5.50100E-03
 -1      8604-3.93257E+00-3.44290E+00-6.61932E-02 6.92970E+00-7.54346E-04-5.43010E-03
 -1      8605-3.94874E+00-3.42403E+00-6.66226E-02 6.89281E+00-4.26057E-04-4.57405E-03
 -1      8606-3.95868E+00-3.41123E+00-6.70527E-02 6.86814E+00-1.93894E-04-3.10676E-03
 -1      8607-3.96339E+00-3.40478E+00-6.73522E-02 6.85578E+00-5.24975E-05-1.10611E-03
 -1      8608-3.96339E+00-3.40478E+00-6.73522E-02 6.85578E+00 5.24975E-05 1.10611E-03
 -1      8609-3.95868E+00-3.41123E+00-6.70527E-02 6.86814E+00 1.93894E-04 3.10676E-03
 -1      8610-3.94874E+00-3.42403E+00-6.66226E-02 6.89281E+00 4.26057E-04 4.57405E-03
 -1      8611-3.93257E+00-3.44290E+00-6.61932E-02 6.92970E+00 7.54346E-04 5.43010E-03
 -1      8612-3.90887E+00-3.46733E+00-6.52719E-02 6.97869E+00 1.11520E-03 5.50100E-03
 -1      8613-2.09041E+00-5.29282E+00-1.00797E-01 5.22283E+00 4.49057E-05-1.01753E-02
 -1      8614-2.12280E+00-5.24352E+00-9.99962E-02 5.18053E+00 1.06135E-03-1.29478E-02
 -1      8615-2.14370E+00-5.20625E+00-1.02634E-01 5.14844E+00 1.45790E-03-1.29465E-02
 -1      8616-2.15609E+00-5.18127E+00-1.05881E-01 5.12690E+00 1.17872E-03-9.42982E-03
 -1      8617-2.16185E+00-5.16875E+00-1.07933E-01 5.11610E+00 4.44919E-04-3.43446E-03
 -1      8618-2.16185E+00-5.16875E+00-1.07933E-01 5.11610E+00-4.44919E-04 3.43446E-03
 -1      8619-2.15609E+00-5.18127E+00-1.05881E-01 5.12690E+00-1.17872E-03 9.42982E-03
 -1      8620-2.14370E+00-5.20625E+00-1.02634E-01 5.14844E+00-1.45790E-03 1.29465E-02
 -1      8621-2.12280E+00-5.24352E+00-9.99962E-02 5.18053E+00-1.06135E-03 1.29478E-02
 -1      8622-2.09041E+00-5.29282E+00-1.00797E-01 5.22283E+00-4.49057E-05 1.01753E-02
 -1      8623-8.55417E-01-5.98085E+00-1.19165E-01 2.81773E+00 3.86244E-03-1.58035E-02
 -1      8624-8.87304E-01-5.90892E+00-1.33853E-01 2.78782E+00 4.82118E-03-2.61226E-02
 -1      8625-9.07528E-01-5.85483E+00-1.46163E-01 2.76587E+00 3.80807E-03-2.52698E-02
 -1      8626-9.19350E-01-5.81874E+00-1.54349E-01 2.75142E+00 2.30225E-03-1.76411E-02
 -1      8627-9.24784E-01-5.80068E+00-1.58340E-01 2.74424E+00 7.60007E-04-6.27885E-03
 -1      8628-9.24784E-01-5.80068E+00-1.58340E-01 2.74424E+00-7.60007E-04 6.27885E-03
 -1      8629-9.19350E-01-5.81874E+00-1.54349E-01 2.75142E+00-2.30225E-03 1.76411E-02
 -1      8630-9.07528E-01-5.85483E+00-1.46163E-01 2.76587E+00-3.80807E-03 2.52698E-02
 -1      8631-8.87304E-01-5.90892E+00-1.33853E-01 2.78782E+00-4.82118E-03 2.61226E-02
 -1      8632-8.55417E-01-5.98085E+00-1.19165E-01 2.81773E+00-3.86244E-03 1.58035E-02
 -1      8633-4.39445E-01-1.22536E+01 7.75438E-01-3.66568E+00 1.30681E-01-8.02616E-02
 -1      8634-7.39614E-01-1.24632E+01 7.81127E-02-3.85883E+00 4.02765E-01-1.16573E-01
 -1      8635-9.35836E-01-1.25815E+01-3.96751E-01-3.98142E+00 3.74491E-01-1.08239E-01
 -1      8636-1.05351E+00-1.26468E+01-6.85801E-01-4.05562E+00 2.47399E-01-7.36706E-02
 -1      8637-1.10874E+00-1.26761E+01-8.22206E-01-4.09087E+00 8.54165E-02-2.58895E-02
 -1      8638-1.10874E+00-1.26761E+01-8.22206E-01-4.09087E+00-8.54165E-02 2.58895E-02
 -1      8639-1.05351E+00-1.26468E+01-6.85801E-01-4.05562E+00-2.47399E-01 7.36706E-02
 -1      8640-9.35836E-01-1.25815E+01-3.96751E-01-3.98142E+00-3.74491E-01 1.08239E-01
 -1      8641-7.39614E-01-1.24632E+01 7.81127E-02-3.85883E+00-4.02765E-01 1.16573E-01
 -1      8642-4.39445E-01-1.22536E+01 7.75438E-01-3.66568E+00-1.30681E-01 8.02616E-02
 -1      8643 1.30802E+00-1.34183E+01-5.35253E-02-5.25057E+00-2.00175E-02-6.78298E-02
 -1      8644 1.31204E+00-1.35302E+01 2.20065E-01-5.31703E+00-1.44364E-01-9.09517E-02
 -1      8645 1.28341E+00-1.35936E+01 2.94456E-01-5.37854E+00-1.09771E-01-8.24737E-02
 -1      8646 1.25402E+00-1.36287E+01 2.99409E-01-5.42261E+00-6.07927E-02-5.62737E-02
 -1      8647 1.23702E+00-1.36444E+01 2.91399E-01-5.44526E+00-1.90031E-02-1.98831E-02
 -1      8648 1.23702E+00-1.36444E+01 2.91399E-01-5.44526E+00 1.90031E-02 1.98831E-02
 -1      8649 1.25402E+00-1.36287E+01 2.99409E-01-5.42261E+00 6.07927E-02 5.62737E-02
 -1      8650 1.28341E+00-1.35936E+01 2.94456E-01-5.37854E+00 1.09771E-01 8.24737E-02
 -1      8651 1.31204E+00-1.35302E+01 2.20065E-01-5.31703E+00 1.44364E-01 9.09517E-02
 -1      8652 1.30802E+00-1.34183E+01-5.35253E-02-5.25057E+00 2.00175E-02 6.78298E-02
 -1      8653 2.87037E+00-1.34445E+01 1.25493E-01-6.64450E+00-3.76250E-02-1.05189E-02
 -1      8654 2.77775E+00-1.35605E+01 8.28797E-02-6.63969E+00-6.13320E-02-2.60691E-02
 -1      8655 2.73466E+00-1.36338E+01 1.28435E-01-6.64531E+00-7.93139E-02-3.01656E-02
 -1      8656 2.71156E+00-1.36771E+01 1.73235E-01-6.65341E+00-6.10557E-02-2.26477E-02
 -1      8657 2.70087E+00-1.36972E+01 1.97202E-01-6.65869E+00-2.23740E-02-8.28938E-03
 -1      8658 2.70087E+00-1.36972E+01 1.97202E-01-6.65869E+00 2.23740E-02 8.28938E-03
 -1      8659 2.71156E+00-1.36771E+01 1.73235E-01-6.65341E+00 6.10557E-02 2.26477E-02
 -1      8660 2.73466E+00-1.36338E+01 1.28435E-01-6.64531E+00 7.93139E-02 3.01656E-02
 -1      8661 2.77775E+00-1.35605E+01 8.28797E-02-6.63969E+00 6.13320E-02 2.60691E-02
 -1      8662 2.87037E+00-1.34445E+01 1.25493E-01-6.64450E+00 3.76250E-02 1.05189E-02
 -1      8663 3.59702E+00-1.31653E+01 5.86678E-02-7.85717E+00-8.96735E-03-1.03840E-03
 -1      8664 3.56622E+00-1.31307E+01 6.91226E-02-7.83663E+00-1.57421E-02-1.31054E-03
 -1      8665 3.53125E+00-1.31301E+01 6.28313E-02-7.82335E+00-1.44192E-02-2.32137E-03
 -1      8666 3.50709E+00-1.31374E+01 6.39221E-02-7.81586E+00-1.17605E-02-2.52655E-03
 -1      8667 3.49518E+00-1.31427E+01 6.69040E-02-7.81259E+00-4.62802E-03-1.08329E-03
 -1      8668 3.49518E+00-1.31427E+01 6.69040E-02-7.81259E+00 4.62802E-03 1.08329E-03
 -1      8669 3.50709E+00-1.31374E+01 6.39221E-02-7.81586E+00 1.17605E-02 2.52655E-03
 -1      8670 3.53125E+00-1.31301E+01 6.28313E-02-7.82335E+00 1.44192E-02 2.32137E-03
 -1      8671 3.56622E+00-1.31307E+01 6.91226E-02-7.83663E+00 1.57421E-02 1.31054E-03
 -1      8672 3.59702E+00-1.31653E+01 5.86678E-02-7.85717E+00 8.96735E-03 1.03840E-03
 -1      8673 3.73657E+00-1.22918E+01 3.31380E-02-8.95594E+00-6.34107E-04 1.04355E-03
 -1      8674 3.70460E+00-1.22609E+01 3.05893E-02-8.93283E+00 4.55554E-04 1.29399E-03
 -1      8675 3.68216E+00-1.22352E+01 3.15480E-02-8.91544E+00 6.55734E-05 1.38639E-03
 -1      8676 3.66595E+00-1.22200E+01 2.97434E-02-8.90391E+00 3.68351E-04 1.11666E-03
 -1      8677 3.65742E+00-1.22131E+01 2.82260E-02-8.89819E+00 1.96289E-04 4.19873E-04
 -1      8678 3.65742E+00-1.22131E+01 2.82260E-02-8.89819E+00-1.96289E-04-4.19873E-04
 -1      8679 3.66595E+00-1.22200E+01 2.97434E-02-8.90391E+00-3.68351E-04-1.11666E-03
 -1      8680 3.68216E+00-1.22352E+01 3.15480E-02-8.91544E+00-6.55734E-05-1.38639E-03
 -1      8681 3.70460E+00-1.22609E+01 3.05893E-02-8.93283E+00-4.55554E-04-1.29399E-03
 -1      8682 3.73657E+00-1.22918E+01 3.31380E-02-8.95594E+00 6.34107E-04-1.04355E-03
 -1      8683 3.34528E+00-1.10294E+01 1.87666E-02-9.94823E+00-2.49141E-04 2.27296E-04
 -1      8684 3.31884E+00-1.10003E+01 1.85716E-02-9.92442E+00 6.05566E-04 5.98183E-04
 -1      8685 3.29856E+00-1.09792E+01 1.74522E-02-9.90640E+00 1.00682E-03 6.18188E-04
 -1      8686 3.28538E+00-1.09644E+01 1.72131E-02-9.89428E+00 7.05741E-04 4.37998E-04
 -1      8687 3.27883E+00-1.09569E+01 1.70657E-02-9.88818E+00 2.55069E-04 1.61739E-04
 -1      8688 3.27883E+00-1.09569E+01 1.70657E-02-9.88818E+00-2.55069E-04-1.61739E-04
 -1      8689 3.28538E+00-1.09644E+01 1.72131E-02-9.89428E+00-7.05741E-04-4.37998E-04
 -1      8690 3.29856E+00-1.09792E+01 1.74522E-02-9.90640E+00-1.00682E-03-6.18188E-04
 -1      8691 3.31884E+00-1.10003E+01 1.85716E-02-9.92442E+00-6.05566E-04-5.98183E-04
 -1      8692 3.34528E+00-1.10294E+01 1.87666E-02-9.94823E+00 2.49141E-04-2.27296E-04
 -1      8693 2.52508E+00-9.47412E+00 1.20356E-02-1.08089E+01-6.09242E-04-1.71778E-04
 -1      8694 2.50312E+00-9.45216E+00 1.19452E-02-1.07839E+01-2.94333E-04-9.98173E-05
 -1      8695 2.48679E+00-9.43528E+00 1.19408E-02-1.07651E+01-1.08356E-04-1.91419E-05
 -1      8696 2.47584E+00-9.42407E+00 1.17434E-02-1.07526E+01 1.68567E-05 1.46477E-05
 -1      8697 2.47037E+00-9.41844E+00 1.16726E-02-1.07463E+01 1.64793E-05 7.46432E-06
 -1      8698 2.47037E+00-9.41844E+00 1.16726E-02-1.07463E+01-1.64793E-05-7.46432E-06
 -1      8699 2.47584E+00-9.42407E+00 1.17434E-02-1.07526E+01-1.68567E-05-1.46477E-05
 -1      8700 2.48679E+00-9.43528E+00 1.19408E-02-1.07651E+01 1.08356E-04 1.91419E-05
 -1      8701 2.50312E+00-9.45216E+00 1.19452E-02-1.07839E+01 2.94333E-04 9.98173E-05
 -1      8702 2.52508E+00-9.47412E+00 1.20356E-02-1.08089E+01 6.09242E-04 1.71778E-04
 -1      8703 1.37050E+00-7.70264E+00 8.84768E-03-1.14989E+01-7.02080E-04-3.04491E-04
 -1      8704 1.35403E+00-7.68644E+00 8.84690E-03-1.14725E+01-5.80452E-04-2.61734E-04
 -1      8705 1.34167E+00-7.67428E+00 8.82857E-03-1.14527E+01-4.22017E-04-2.00754E-04
 -1      8706 1.33347E+00-7.66610E+00 8.85156E-03-1.14396E+01-2.61217E-04-1.23670E-04
 -1      8707 1.32936E+00-7.66202E+00 8.84237E-03-1.14330E+01-8.63768E-05-4.07130E-05
 -1      8708 1.32936E+00-7.66202E+00 8.84237E-03-1.14330E+01 8.63768E-05 4.07130E-05
 -1      8709 1.33347E+00-7.66610E+00 8.85156E-03-1.14396E+01 2.61217E-04 1.23670E-04
 -1      8710 1.34167E+00-7.67428E+00 8.82857E-03-1.14527E+01 4.22017E-04 2.00754E-04
 -1      8711 1.35403E+00-7.68644E+00 8.84690E-03-1.14725E+01 5.80452E-04 2.61734E-04
 -1      8712 1.37050E+00-7.70264E+00 8.84768E-03-1.14989E+01 7.02080E-04 3.04491E-04
 -1      8713-3.44540E-02-5.77581E+00 7.71759E-03-1.19792E+01-5.87704E-04-3.27273E-04
 -1      8714-4.51349E-02-5.76533E+00 7.69225E-03-1.19517E+01-5.03916E-04-2.77160E-04
 -1      8715-5.31411E-02-5.75747E+00 7.68466E-03-1.19310E+01-3.86044E-04-2.10029E-04
 -1      8716-5.84829E-02-5.75223E+00 7.67666E-03-1.19173E+01-2.40581E-04-1.31581E-04
 -1      8717-6.11501E-02-5.74961E+00 7.68102E-03-1.19104E+01-8.23510E-05-4.51045E-05
 -1      8718-6.11501E-02-5.74961E+00 7.68102E-03-1.19104E+01 8.23510E-05 4.51045E-05
 -1      8719-5.84829E-02-5.75223E+00 7.67666E-03-1.19173E+01 2.40581E-04 1.31581E-04
 -1      8720-5.31411E-02-5.75747E+00 7.68466E-03-1.19310E+01 3.86044E-04 2.10029E-04
 -1      8721-4.51349E-02-5.76533E+00 7.69225E-03-1.19517E+01 5.03916E-04 2.77160E-04
 -1      8722-3.44540E-02-5.77581E+00 7.71759E-03-1.19792E+01 5.87704E-04 3.27273E-04
 -1      8723-1.61642E+00-3.74853E+00 7.74112E-03-1.22168E+01-4.47953E-04-3.24949E-04
 -1      8724-1.62117E+00-3.74387E+00 7.70102E-03-1.21886E+01-3.75675E-04-2.63963E-04
 -1      8725-1.62474E+00-3.74038E+00 7.67284E-03-1.21674E+01-2.82963E-04-1.95745E-04
 -1      8726-1.62712E+00-3.73806E+00 7.65718E-03-1.21533E+01-1.76011E-04-1.20461E-04
 -1      8727-1.62831E+00-3.73690E+00 7.64801E-03-1.21462E+01-5.95053E-05-4.06018E-05
 -1      8728-1.62831E+00-3.73690E+00 7.64801E-03-1.21462E+01 5.95053E-05 4.06018E-05
 -1      8729-1.62712E+00-3.73806E+00 7.65718E-03-1.21533E+01 1.76011E-04 1.20461E-04
 -1      8730-1.62474E+00-3.74038E+00 7.67284E-03-1.21674E+01 2.82963E-04 1.95745E-04
 -1      8731-1.62117E+00-3.74387E+00 7.70102E-03-1.21886E+01 3.75675E-04 2.63963E-04
 -1      8732-1.61642E+00-3.74853E+00 7.74112E-03-1.22168E+01 4.47953E-04 3.24949E-04
 -1      8733-3.30951E+00-1.67308E+00 8.36296E-03-1.21863E+01-3.29850E-04-3.16872E-04
 -1      8734-3.30830E+00-1.67435E+00 8.31215E-03-1.21579E+01-2.71219E-04-2.53064E-04
 -1      8735-3.30739E+00-1.67531E+00 8.27485E-03-1.21366E+01-2.01361E-04-1.84983E-04
 -1      8736-3.30678E+00-1.67595E+00 8.25014E-03-1.21225E+01-1.23731E-04-1.12945E-04
 -1      8737-3.30648E+00-1.67627E+00 8.23842E-03-1.21154E+01-4.17854E-05-3.80183E-05
 -1      8738-3.30648E+00-1.67627E+00 8.23842E-03-1.21154E+01 4.17854E-05 3.80183E-05
 -1      8739-3.30678E+00-1.67595E+00 8.25014E-03-1.21225E+01 1.23731E-04 1.12945E-04
 -1      8740-3.30739E+00-1.67531E+00 8.27485E-03-1.21366E+01 2.01361E-04 1.84983E-04
 -1      8741-3.30830E+00-1.67435E+00 8.31215E-03-1.21579E+01 2.71219E-04 2.53064E-04
 -1      8742-3.30951E+00-1.67308E+00 8.36296E-03-1.21863E+01 3.29850E-04 3.16872E-04
 -1      8743-5.05272E+00 3.98390E-01 9.26164E-03-1.18705E+01-2.37495E-04-3.09521E-04
 -1      8744-5.04554E+00 3.91143E-01 9.20211E-03-1.18426E+01-1.92906E-04-2.46015E-04
 -1      8745-5.04015E+00 3.85706E-01 9.15800E-03-1.18217E+01-1.41787E-04-1.79129E-04
 -1      8746-5.03655E+00 3.82080E-01 9.12902E-03-1.18078E+01-8.65688E-05-1.09007E-04
 -1      8747-5.03476E+00 3.80266E-01 9.11456E-03-1.18009E+01-2.90767E-05-3.66034E-05
 -1      8748-5.03476E+00 3.80266E-01 9.11456E-03-1.18009E+01 2.90767E-05 3.66034E-05
 -1      8749-5.03655E+00 3.82080E-01 9.12902E-03-1.18078E+01 8.65688E-05 1.09007E-04
 -1      8750-5.04015E+00 3.85706E-01 9.15800E-03-1.18217E+01 1.41787E-04 1.79129E-04
 -1      8751-5.04554E+00 3.91143E-01 9.20211E-03-1.18426E+01 1.92906E-04 2.46015E-04
 -1      8752-5.05272E+00 3.98390E-01 9.26164E-03-1.18705E+01 2.37495E-04 3.09521E-04
 -1      8753-6.78786E+00 2.41217E+00 1.02728E-02-1.12601E+01-1.65913E-04-3.06117E-04
 -1      8754-6.77474E+00 2.39898E+00 1.02044E-02-1.12335E+01-1.33183E-04-2.43123E-04
 -1      8755-6.76491E+00 2.38908E+00 1.01536E-02-1.12136E+01-9.70076E-05-1.76851E-04
 -1      8756-6.75835E+00 2.38248E+00 1.01201E-02-1.12003E+01-5.88433E-05-1.07546E-04
 -1      8757-6.75508E+00 2.37918E+00 1.01034E-02-1.11936E+01-1.97145E-05-3.61048E-05
 -1      8758-6.75508E+00 2.37918E+00 1.01034E-02-1.11936E+01 1.97145E-05 3.61048E-05
 -1      8759-6.75835E+00 2.38248E+00 1.01201E-02-1.12003E+01 5.88433E-05 1.07546E-04
 -1      8760-6.76491E+00 2.38908E+00 1.01536E-02-1.12136E+01 9.70076E-05 1.76851E-04
 -1      8761-6.77474E+00 2.39898E+00 1.02044E-02-1.12335E+01 1.33183E-04 2.43123E-04
 -1      8762-6.78786E+00 2.41217E+00 1.02728E-02-1.12601E+01 1.65913E-04 3.06117E-04
 -1      8763-8.45803E+00 4.31185E+00 1.13123E-02-1.03541E+01-1.12256E-04-3.09853E-04
 -1      8764-8.43910E+00 4.29281E+00 1.12343E-02-1.03296E+01-8.84318E-05-2.46113E-04
 -1      8765-8.42490E+00 4.27853E+00 1.11760E-02-1.03112E+01-6.34687E-05-1.79007E-04
 -1      8766-8.41544E+00 4.26900E+00 1.11374E-02-1.02990E+01-3.81066E-05-1.08836E-04
 -1      8767-8.41071E+00 4.26424E+00 1.11182E-02-1.02929E+01-1.26953E-05-3.65323E-05
 -1      8768-8.41071E+00 4.26424E+00 1.11182E-02-1.02929E+01 1.26953E-05 3.65322E-05
 -1      8769-8.41544E+00 4.26900E+00 1.11374E-02-1.02990E+01 3.81066E-05 1.08836E-04
 -1      8770-8.42490E+00 4.27853E+00 1.11760E-02-1.03112E+01 6.34687E-05 1.79007E-04
 -1      8771-8.43910E+00 4.29281E+00 1.12343E-02-1.03296E+01 8.84318E-05 2.46113E-04
 -1      8772-8.45803E+00 4.31185E+00 1.13123E-02-1.03541E+01 1.12256E-04 3.09853E-04
 -1      8773-1.00065E+01 6.03765E+00 1.23232E-02-9.16029E+00-7.60375E-05-3.24747E-04
 -1      8774-9.98192E+00 6.01295E+00 1.22343E-02-9.13873E+00-5.78191E-05-2.58071E-04
 -1      8775-9.96352E+00 5.99442E+00 1.21675E-02-9.12257E+00-4.03081E-05-1.87744E-04
 -1      8776-9.95125E+00 5.98207E+00 1.21230E-02-9.11179E+00-2.36950E-05-1.14155E-04
 -1      8777-9.94512E+00 5.97590E+00 1.21008E-02-9.10640E+00-7.80740E-06-3.83184E-05
 -1      8778-9.94512E+00 5.97590E+00 1.21008E-02-9.10640E+00 7.80741E-06 3.83184E-05
 -1      8779-9.95125E+00 5.98207E+00 1.21230E-02-9.11179E+00 2.36950E-05 1.14155E-04
 -1      8780-9.96352E+00 5.99442E+00 1.21675E-02-9.12257E+00 4.03081E-05 1.87744E-04
 -1      8781-9.98192E+00 6.01295E+00 1.22343E-02-9.13873E+00 5.78191E-05 2.58071E-04
 -1      8782-1.00065E+01 6.03765E+00 1.23232E-02-9.16029E+00 7.60375E-05 3.24747E-04
 -1      8783-1.13757E+01 7.52626E+00 1.32381E-02-7.69637E+00-5.85891E-05-3.56252E-04
 -1      8784-1.13459E+01 7.49623E+00 1.31368E-02-7.67870E+00-4.20176E-05-2.83416E-04
 -1      8785-1.13235E+01 7.47371E+00 1.30603E-02-7.66544E+00-2.78120E-05-2.06311E-04
 -1      8786-1.13086E+01 7.45869E+00 1.30091E-02-7.65661E+00-1.57095E-05-1.25484E-04
 -1      8787-1.13012E+01 7.45118E+00 1.29835E-02-7.65219E+00-5.06338E-06-4.21262E-05
 -1      8788-1.13012E+01 7.45118E+00 1.29835E-02-7.65219E+00 5.06338E-06 4.21262E-05
 -1      8789-1.13086E+01 7.45869E+00 1.30091E-02-7.65661E+00 1.57095E-05 1.25484E-04
 -1      8790-1.13235E+01 7.47371E+00 1.30603E-02-7.66544E+00 2.78120E-05 2.06311E-04
 -1      8791-1.13459E+01 7.49623E+00 1.31368E-02-7.67870E+00 4.20176E-05 2.83416E-04
 -1      8792-1.13757E+01 7.52626E+00 1.32381E-02-7.69637E+00 5.85891E-05 3.56252E-04
 -1      8793-1.25074E+01 8.71149E+00 1.39517E-02-5.99212E+00-6.25246E-05-4.11686E-04
 -1      8794-1.24729E+01 8.67665E+00 1.38365E-02-5.97931E+00-4.25829E-05-3.28068E-04
 -1      8795-1.24470E+01 8.65052E+00 1.37491E-02-5.96971E+00-2.68427E-05-2.39054E-04
 -1      8796-1.24297E+01 8.63310E+00 1.36904E-02-5.96330E+00-1.45679E-05-1.45476E-04
 -1      8797-1.24211E+01 8.62439E+00 1.36610E-02-5.96010E+00-4.58849E-06-4.88488E-05
 -1      8798-1.24211E+01 8.62439E+00 1.36610E-02-5.96010E+00 4.58849E-06 4.88488E-05
 -1      8799-1.24297E+01 8.63310E+00 1.36904E-02-5.96330E+00 1.45679E-05 1.45476E-04
 -1      8800-1.24470E+01 8.65052E+00 1.37491E-02-5.96971E+00 2.68427E-05 2.39054E-04
 -1      8801-1.24729E+01 8.67665E+00 1.38365E-02-5.97931E+00 4.25829E-05 3.28068E-04
 -1      8802-1.25074E+01 8.71149E+00 1.39517E-02-5.99212E+00 6.25246E-05 4.11686E-04
 -1      8803-1.33432E+01 9.52613E+00 1.42989E-02-4.09193E+00-9.11266E-05-5.00353E-04
 -1      8804-1.33047E+01 9.48726E+00 1.41688E-02-4.08498E+00-6.14846E-05-3.99478E-04
 -1      8805-1.32759E+01 9.45812E+00 1.40697E-02-4.07977E+00-3.84970E-05-2.91405E-04
 -1      8806-1.32566E+01 9.43869E+00 1.40029E-02-4.07630E+00-2.08059E-05-1.77434E-04
 -1      8807-1.32470E+01 9.42897E+00 1.39693E-02-4.07457E+00-6.54053E-06-5.95937E-05
 -1      8808-1.32470E+01 9.42897E+00 1.39693E-02-4.07457E+00 6.54053E-06 5.95937E-05
 -1      8809-1.32566E+01 9.43869E+00 1.40029E-02-4.07630E+00 2.08059E-05 1.77434E-04
 -1      8810-1.32759E+01 9.45812E+00 1.40697E-02-4.07977E+00 3.84970E-05 2.91405E-04
 -1      8811-1.33047E+01 9.48726E+00 1.41688E-02-4.08498E+00 6.14846E-05 3.99478E-04
 -1      8812-1.33432E+01 9.52613E+00 1.42989E-02-4.09193E+00 9.11266E-05 5.00353E-04
 -1      8813-1.38265E+01 9.90559E+00 1.40388E-02-2.05774E+00-1.47531E-04-6.33249E-04
 -1      8814-1.37852E+01 9.86383E+00 1.38938E-02-2.05762E+00-1.00532E-04-5.06352E-04
 -1      8815-1.37542E+01 9.83252E+00 1.37828E-02-2.05753E+00-6.37332E-05-3.69658E-04
 -1      8816-1.37336E+01 9.81164E+00 1.37078E-02-2.05747E+00-3.48656E-05-2.25160E-04
 -1      8817-1.37233E+01 9.80120E+00 1.36701E-02-2.05744E+00-1.10444E-05-7.56314E-05
 -1      8818-1.37233E+01 9.80120E+00 1.36701E-02-2.05744E+00 1.10444E-05 7.56314E-05
 -1      8819-1.37336E+01 9.81164E+00 1.37078E-02-2.05747E+00 3.48656E-05 2.25160E-04
 -1      8820-1.37542E+01 9.83252E+00 1.37828E-02-2.05753E+00 6.37332E-05 3.69658E-04
 -1      8821-1.37852E+01 9.86383E+00 1.38938E-02-2.05762E+00 1.00532E-04 5.06352E-04
 -1      8822-1.38265E+01 9.90559E+00 1.40388E-02-2.05774E+00 1.47531E-04 6.33249E-04
 -1      8823-1.39067E+01 9.79391E+00 1.28471E-02 2.82330E-02-2.33747E-04-8.22204E-04
 -1      8824-1.38642E+01 9.75080E+00 1.26889E-02 2.07191E-02-1.60748E-04-6.57929E-04
 -1      8825-1.38323E+01 9.71848E+00 1.25674E-02 1.50794E-02-1.03004E-04-4.80401E-04
 -1      8826-1.38110E+01 9.69693E+00 1.24852E-02 1.13175E-02-5.69123E-05-2.92588E-04
 -1      8827-1.38004E+01 9.68615E+00 1.24436E-02 9.43598E-03-1.81402E-05-9.82737E-05
 -1      8828-1.38004E+01 9.68615E+00 1.24436E-02 9.43598E-03 1.81402E-05 9.82737E-05
 -1      8829-1.38110E+01 9.69693E+00 1.24852E-02 1.13175E-02 5.69123E-05 2.92588E-04
 -1      8830-1.38323E+01 9.71848E+00 1.25674E-02 1.50794E-02 1.03004E-04 4.80401E-04
 -1      8831-1.38642E+01 9.75080E+00 1.26889E-02 2.07191E-02 1.60748E-04 6.57929E-04
 -1      8832-1.39067E+01 9.79391E+00 1.28471E-02 2.82330E-02 2.33747E-04 8.22204E-04
 -1      8833-1.35455E+01 9.15248E+00 1.03219E-02 2.06221E+00-3.49668E-04-1.07816E-03
 -1      8834-1.35037E+01 9.11005E+00 1.01551E-02 2.04652E+00-2.41914E-04-8.62368E-04
 -1      8835-1.34724E+01 9.07823E+00 1.00267E-02 2.03475E+00-1.56124E-04-6.29145E-04
 -1      8836-1.34515E+01 9.05702E+00 9.93954E-03 2.02690E+00-8.68332E-05-3.82896E-04
 -1      8837-1.34410E+01 9.04642E+00 9.89557E-03 2.02298E+00-2.77838E-05-1.28539E-04
 -1      8838-1.34410E+01 9.04642E+00 9.89557E-03 2.02298E+00 2.77838E-05 1.28539E-04
 -1      8839-1.34515E+01 9.05702E+00 9.93954E-03 2.02690E+00 8.68332E-05 3.82896E-04
 -1      8840-1.34724E+01 9.07823E+00 1.00267E-02 2.03475E+00 1.56124E-04 6.29145E-04
 -1      8841-1.35037E+01 9.11005E+00 1.01551E-02 2.04652E+00 2.41914E-04 8.62368E-04
 -1      8842-1.35455E+01 9.15248E+00 1.03219E-02 2.06221E+00 3.49668E-04 1.07816E-03
 -1      8843-1.27248E+01 7.97155E+00 6.00511E-03 3.92016E+00-4.92440E-04-1.40761E-03
 -1      8844-1.26862E+01 7.93232E+00 5.83846E-03 3.89623E+00-3.42811E-04-1.12272E-03
 -1      8845-1.26573E+01 7.90289E+00 5.71006E-03 3.87827E+00-2.22833E-04-8.16759E-04
 -1      8846-1.26380E+01 7.88328E+00 5.62364E-03 3.86630E+00-1.24741E-04-4.95817E-04
 -1      8847-1.26284E+01 7.87348E+00 5.57990E-03 3.86031E+00-4.00823E-05-1.66241E-04
 -1      8848-1.26284E+01 7.87348E+00 5.57990E-03 3.86031E+00 4.00823E-05 1.66241E-04
 -1      8849-1.26380E+01 7.88328E+00 5.62364E-03 3.86630E+00 1.24741E-04 4.95817E-04
 -1      8850-1.26573E+01 7.90289E+00 5.71006E-03 3.87827E+00 2.22833E-04 8.16759E-04
 -1      8851-1.26862E+01 7.93232E+00 5.83846E-03 3.89623E+00 3.42811E-04 1.12272E-03
 -1      8852-1.27248E+01 7.97155E+00 6.00511E-03 3.92016E+00 4.92440E-04 1.40761E-03
 -1      8853-1.14569E+01 6.28375E+00-5.85347E-04 5.46343E+00-6.57257E-04-1.80620E-03
 -1      8854-1.14245E+01 6.25065E+00-7.37587E-04 5.43185E+00-4.63130E-04-1.42791E-03
 -1      8855-1.14002E+01 6.22583E+00-8.49407E-04 5.40816E+00-3.05049E-04-1.02995E-03
 -1      8856-1.13839E+01 6.20928E+00-9.25179E-04 5.39237E+00-1.72778E-04-6.21745E-04
 -1      8857-1.13758E+01 6.20101E+00-9.62512E-04 5.38447E+00-5.58688E-05-2.07782E-04
 -1      8858-1.13758E+01 6.20101E+00-9.62512E-04 5.38447E+00 5.58688E-05 2.07782E-04
 -1      8859-1.13839E+01 6.20928E+00-9.25179E-04 5.39237E+00 1.72778E-04 6.21745E-04
 -1      8860-1.14002E+01 6.22583E+00-8.49407E-04 5.40816E+00 3.05049E-04 1.02995E-03
 -1      8861-1.14245E+01 6.25065E+00-7.37587E-04 5.43185E+00 4.63130E-04 1.42791E-03
 -1      8862-1.14569E+01 6.28375E+00-5.85347E-04 5.46343E+00 6.57257E-04 1.80620E-03
 -1      8863-9.79433E+00 4.17795E+00-9.93316E-03 6.55000E+00-8.40234E-04-2.24945E-03
 -1      8864-9.77119E+00 4.15418E+00-1.00395E-02 6.51222E+00-6.08398E-04-1.73873E-03
 -1      8865-9.75388E+00 4.13635E+00-1.01160E-02 6.48389E+00-4.11052E-04-1.23205E-03
 -1      8866-9.74235E+00 4.12446E+00-1.01526E-02 6.46501E+00-2.37198E-04-7.32071E-04
 -1      8867-9.73659E+00 4.11852E+00-1.01677E-02 6.45556E+00-7.75357E-05-2.42651E-04
 -1      8868-9.73659E+00 4.11852E+00-1.01677E-02 6.45556E+00 7.75357E-05 2.42651E-04
 -1      8869-9.74235E+00 4.12446E+00-1.01526E-02 6.46501E+00 2.37198E-04 7.32071E-04
 -1      8870-9.75388E+00 4.13635E+00-1.01160E-02 6.48389E+00 4.11052E-04 1.23205E-03
 -1      8871-9.77119E+00 4.15418E+00-1.00395E-02 6.51222E+00 6.08398E-04 1.73873E-03
 -1      8872-9.79433E+00 4.17795E+00-9.93316E-03 6.55000E+00 8.40234E-04 2.24945E-03
 -1      8873-7.83774E+00 1.81103E+00-2.25421E-02 7.05177E+00-1.03959E-03-2.71445E-03
 -1      8874-7.82719E+00 1.79973E+00-2.26011E-02 7.01022E+00-7.87584E-04-2.02320E-03
 -1      8875-7.81929E+00 1.79127E+00-2.25605E-02 6.97907E+00-5.52969E-04-1.38463E-03
 -1      8876-7.81404E+00 1.78563E+00-2.25334E-02 6.95831E+00-3.29204E-04-8.10487E-04
 -1      8877-7.81143E+00 1.78280E+00-2.25197E-02 6.94794E+00-1.09369E-04-2.67020E-04
 -1      8878-7.81143E+00 1.78280E+00-2.25197E-02 6.94794E+00 1.09369E-04 2.67020E-04
 -1      8879-7.81404E+00 1.78563E+00-2.25334E-02 6.95831E+00 3.29204E-04 8.10487E-04
 -1      8880-7.81929E+00 1.79127E+00-2.25605E-02 6.97907E+00 5.52969E-04 1.38463E-03
 -1      8881-7.82719E+00 1.79973E+00-2.26011E-02 7.01022E+00 7.87584E-04 2.02320E-03
 -1      8882-7.83774E+00 1.81103E+00-2.25421E-02 7.05177E+00 1.03959E-03 2.71445E-03
 -1      8883-5.73998E+00-5.85810E-01-3.92608E-02 6.87681E+00-1.22034E-03-3.31208E-03
 -1      8884-5.74458E+00-5.81730E-01-3.90621E-02 6.83486E+00-9.66599E-04-2.45243E-03
 -1      8885-5.74806E+00-5.78728E-01-3.90590E-02 6.80341E+00-6.95957E-04-1.75081E-03
 -1      8886-5.75034E+00-5.76705E-01-3.90208E-02 6.78245E+00-4.16224E-04-1.04725E-03
 -1      8887-5.75145E+00-5.75680E-01-3.89831E-02 6.77198E+00-1.38164E-04-3.48194E-04
 -1      8888-5.75145E+00-5.75680E-01-3.89831E-02 6.77198E+00 1.38164E-04 3.48194E-04
 -1      8889-5.75034E+00-5.76705E-01-3.90208E-02 6.78245E+00 4.16224E-04 1.04725E-03
 -1      8890-5.74806E+00-5.78728E-01-3.90590E-02 6.80341E+00 6.95957E-04 1.75081E-03
 -1      8891-5.74458E+00-5.81730E-01-3.90621E-02 6.83486E+00 9.66599E-04 2.45243E-03
 -1      8892-5.73998E+00-5.85810E-01-3.92608E-02 6.87681E+00 1.22034E-03 3.31208E-03
 -1      8893-3.70320E+00-2.70828E+00-6.09363E-02 5.99325E+00-1.14658E-03-4.68825E-03
 -1      8894-3.72454E+00-2.68702E+00-6.17533E-02 5.95487E+00-8.28214E-04-4.43164E-03
 -1      8895-3.73927E+00-2.67058E+00-6.19223E-02 5.92601E+00-5.16220E-04-3.58807E-03
 -1      8896-3.74843E+00-2.65943E+00-6.20695E-02 5.90672E+00-2.68832E-04-2.38385E-03
 -1      8897-3.75280E+00-2.65381E+00-6.21924E-02 5.89706E+00-8.16374E-05-8.41215E-04
 -1      8898-3.75280E+00-2.65381E+00-6.21924E-02 5.89706E+00 8.16374E-05 8.41215E-04
 -1      8899-3.74843E+00-2.65943E+00-6.20695E-02 5.90672E+00 2.68832E-04 2.38385E-03
 -1      8900-3.73927E+00-2.67058E+00-6.19223E-02 5.92601E+00 5.16220E-04 3.58807E-03
 -1      8901-3.72454E+00-2.68702E+00-6.17533E-02 5.95487E+00 8.28214E-04 4.43164E-03
 -1      8902-3.70320E+00-2.70828E+00-6.09363E-02 5.99325E+00 1.14658E-03 4.68825E-03
 -1      8903-1.97753E+00-4.19380E+00-9.38363E-02 4.44901E+00-1.66178E-04-8.70751E-03
 -1      8904-2.00714E+00-4.15067E+00-9.23595E-02 4.41770E+00 6.36298E-04-1.05077E-02
 -1      8905-2.02640E+00-4.11812E+00-9.41136E-02 4.39386E+00 9.78925E-04-1.04742E-02
 -1      8906-2.03791E+00-4.09633E+00-9.66283E-02 4.37781E+00 8.22463E-04-7.65377E-03
 -1      8907-2.04328E+00-4.08542E+00-9.82769E-02 4.36975E+00 3.15362E-04-2.79377E-03
 -1      8908-2.04328E+00-4.08542E+00-9.82769E-02 4.36975E+00-3.15362E-04 2.79377E-03
 -1      8909-2.03791E+00-4.09633E+00-9.66283E-02 4.37781E+00-8.22463E-04 7.65377E-03
 -1      8910-2.02640E+00-4.11812E+00-9.41136E-02 4.39386E+00-9.78925E-04 1.04742E-02
 -1      8911-2.00714E+00-4.15067E+00-9.23595E-02 4.41770E+00-6.36298E-04 1.05077E-02
 -1      8912-1.97753E+00-4.19380E+00-9.38363E-02 4.44901E+00 1.66178E-04 8.70751E-03
 -1      8913-8.11123E-01-4.61845E+00-1.10629E-01 2.37623E+00 3.18582E-03-1.39970E-02
 -1      8914-8.41434E-01-4.55605E+00-1.25051E-01 2.35541E+00 4.44669E-03-2.31286E-02
 -1      8915-8.60707E-01-4.50912E+00-1.37220E-01 2.33981E+00 3.92496E-03-2.24077E-02
 -1      8916-8.72004E-01-4.47779E+00-1.45377E-01 2.32939E+00 2.58693E-03-1.56584E-02
 -1      8917-8.77208E-01-4.46211E+00-1.49379E-01 2.32417E+00 8.95383E-04-5.57577E-03
 -1      8918-8.77208E-01-4.46211E+00-1.49379E-01 2.32417E+00-8.95383E-04 5.57577E-03
 -1      8919-8.72004E-01-4.47779E+00-1.45377E-01 2.32939E+00-2.58693E-03 1.56584E-02
 -1      8920-8.60707E-01-4.50912E+00-1.37220E-01 2.33981E+00-3.92496E-03 2.24077E-02
 -1      8921-8.41434E-01-4.55605E+00-1.25051E-01 2.35541E+00-4.44669E-03 2.31286E-02
 -1      8922-8.11123E-01-4.61845E+00-1.10629E-01 2.37623E+00-3.18582E-03 1.39970E-02
 -1      8923-1.08772E+00-1.50454E+01 9.93185E-01-4.30465E+00 1.41628E-01-7.70489E-02
 -1      8924-1.44631E+00-1.53043E+01 1.43043E-01-4.48780E+00 4.82539E-01-1.12596E-01
 -1      8925-1.68207E+00-1.54507E+01-4.38902E-01-4.60432E+00 4.54825E-01-1.05513E-01
 -1      8926-1.82402E+00-1.55316E+01-7.94616E-01-4.67491E+00 3.02191E-01-7.22189E-02
 -1      8927-1.89078E+00-1.55680E+01-9.62864E-01-4.70846E+00 1.04575E-01-2.54446E-02
 -1      8928-1.89078E+00-1.55680E+01-9.62864E-01-4.70846E+00-1.04575E-01 2.54446E-02
 -1      8929-1.82402E+00-1.55316E+01-7.94616E-01-4.67491E+00-3.02191E-01 7.22189E-02
 -1      8930-1.68207E+00-1.54507E+01-4.38902E-01-4.60432E+00-4.54825E-01 1.05513E-01
 -1      8931-1.44631E+00-1.53043E+01 1.43043E-01-4.48780E+00-4.82539E-01 1.12596E-01
 -1      8932-1.08772E+00-1.50454E+01 9.93185E-01-4.30465E+00-1.41628E-01 7.70489E-02
 -1      8933 6.62914E-01-1.63669E+01-7.48163E-02-5.79518E+00-2.15699E-02-6.28863E-02
 -1      8934 6.80732E-01-1.65093E+01 2.68982E-01-5.85283E+00-1.81155E-01-8.55538E-02
 -1      8935 6.55660E-01-1.65914E+01 3.71018E-01-5.90764E+00-1.41420E-01-7.73305E-02
 -1      8936 6.26053E-01-1.66374E+01 3.84912E-01-5.94740E+00-7.97666E-02-5.26719E-02
 -1      8937 6.08284E-01-1.66581E+01 3.78978E-01-5.96796E+00-2.51864E-02-1.86013E-02
 -1      8938 6.08284E-01-1.66581E+01 3.78978E-01-5.96796E+00 2.51864E-02 1.86013E-02
 -1      8939 6.26053E-01-1.66374E+01 3.84912E-01-5.94740E+00 7.97666E-02 5.26719E-02
 -1      8940 6.55660E-01-1.65914E+01 3.71018E-01-5.90764E+00 1.41420E-01 7.73305E-02
 -1      8941 6.80732E-01-1.65093E+01 2.68982E-01-5.85283E+00 1.81155E-01 8.55538E-02
 -1      8942 6.62914E-01-1.63669E+01-7.48163E-02-5.79518E+00 2.15699E-02 6.28863E-02
 -1      8943 2.29294E+00-1.63580E+01 1.47179E-01-7.06640E+00-4.40418E-02-7.58617E-03
 -1      8944 2.18908E+00-1.65013E+01 9.15882E-02-7.05924E+00-7.03063E-02-2.23464E-02
 -1      8945 2.14302E+00-1.65944E+01 1.45152E-01-7.06210E+00-9.31416E-02-2.70560E-02
 -1      8946 2.11940E+00-1.66505E+01 1.99905E-01-7.06793E+00-7.26474E-02-2.05854E-02
 -1      8947 2.10872E+00-1.66769E+01 2.29666E-01-7.07197E+00-2.67750E-02-7.56414E-03
 -1      8948 2.10872E+00-1.66769E+01 2.29666E-01-7.07197E+00 2.67750E-02 7.56414E-03
 -1      8949 2.11940E+00-1.66505E+01 1.99905E-01-7.06793E+00 7.26474E-02 2.05854E-02
 -1      8950 2.14302E+00-1.65944E+01 1.45152E-01-7.06210E+00 9.31416E-02 2.70560E-02
 -1      8951 2.18908E+00-1.65013E+01 9.15882E-02-7.05924E+00 7.03063E-02 2.23464E-02
 -1      8952 2.29294E+00-1.63580E+01 1.47179E-01-7.06640E+00 4.40418E-02 7.58617E-03
 -1      8953 2.99239E+00-1.60466E+01 5.98987E-02-8.17937E+00-9.81383E-03-5.54501E-04
 -1      8954 2.96382E+00-1.60090E+01 7.29161E-02-8.15902E+00-1.70514E-02-2.76033E-04
 -1      8955 2.92776E+00-1.60109E+01 6.41800E-02-8.14574E+00-1.49160E-02-1.04308E-03
 -1      8956 2.90249E+00-1.60215E+01 6.40177E-02-8.13813E+00-1.21908E-02-1.56411E-03
 -1      8957 2.89000E+00-1.60290E+01 6.67621E-02-8.13475E+00-4.83741E-03-7.33509E-04
 -1      8958 2.89000E+00-1.60290E+01 6.67621E-02-8.13475E+00 4.83741E-03 7.33509E-04
 -1      8959 2.90249E+00-1.60215E+01 6.40177E-02-8.13813E+00 1.21908E-02 1.56411E-03
 -1      8960 2.92776E+00-1.60109E+01 6.41800E-02-8.14574E+00 1.49160E-02 1.04308E-03
 -1      8961 2.96382E+00-1.60090E+01 7.29161E-02-8.15902E+00 1.70514E-02 2.76033E-04
 -1      8962 2.99239E+00-1.60466E+01 5.98987E-02-8.17937E+00 9.81383E-03 5.54501E-04
 -1      8963 3.08814E+00-1.50863E+01 2.96932E-02-9.21756E+00-5.35501E-04 9.72878E-04
 -1      8964 3.05656E+00-1.50557E+01 2.64188E-02-9.19646E+00 1.02100E-03 1.24341E-03
 -1      8965 3.03499E+00-1.50292E+01 2.76292E-02-9.18042E+00 5.52929E-04 1.39012E-03
 -1      8966 3.01918E+00-1.50133E+01 2.54391E-02-9.16974E+00 8.19652E-04 1.17959E-03
 -1      8967 3.01077E+00-1.50063E+01 2.35196E-02-9.16443E+00 3.85793E-04 4.55364E-04
 -1      8968 3.01077E+00-1.50063E+01 2.35196E-02-9.16443E+00-3.85793E-04-4.55364E-04
 -1      8969 3.01918E+00-1.50133E+01 2.54391E-02-9.16974E+00-8.19652E-04-1.17959E-03
 -1      8970 3.03499E+00-1.50292E+01 2.76292E-02-9.18042E+00-5.52929E-04-1.39012E-03
 -1      8971 3.05656E+00-1.50557E+01 2.64188E-02-9.19646E+00-1.02100E-03-1.24341E-03
 -1      8972 3.08814E+00-1.50863E+01 2.96932E-02-9.21756E+00 5.35501E-04-9.72878E-04
 -1      8973 2.65006E+00-1.37341E+01 1.48896E-02-1.01857E+01-3.49946E-04 6.50058E-05
 -1      8974 2.62449E+00-1.37053E+01 1.47558E-02-1.01645E+01 6.36370E-04 4.11886E-04
 -1      8975 2.60474E+00-1.36844E+01 1.34389E-02-1.01485E+01 1.13555E-03 4.50092E-04
 -1      8976 2.59202E+00-1.36697E+01 1.32219E-02-1.01377E+01 7.89642E-04 3.12584E-04
 -1      8977 2.58573E+00-1.36622E+01 1.31155E-02-1.01322E+01 2.82384E-04 1.15436E-04
 -1      8978 2.58573E+00-1.36622E+01 1.31155E-02-1.01322E+01-2.82384E-04-1.15436E-04
 -1      8979 2.59202E+00-1.36697E+01 1.32219E-02-1.01377E+01-7.89642E-04-3.12584E-04
 -1      8980 2.60474E+00-1.36844E+01 1.34389E-02-1.01485E+01-1.13555E-03-4.50092E-04
 -1      8981 2.62449E+00-1.37053E+01 1.47558E-02-1.01645E+01-6.36370E-04-4.11886E-04
 -1      8982 2.65006E+00-1.37341E+01 1.48896E-02-1.01857E+01 3.49946E-04-6.50058E-05
 -1      8983 1.79316E+00-1.20963E+01 9.42240E-03-1.10471E+01-7.31035E-04-2.50552E-04
 -1      8984 1.77200E+00-1.20751E+01 9.35409E-03-1.10250E+01-4.01182E-04-1.99530E-04
 -1      8985 1.75630E+00-1.20587E+01 9.40843E-03-1.10084E+01-1.91390E-04-1.12416E-04
 -1      8986 1.74574E+00-1.20479E+01 9.20303E-03-1.09973E+01-2.34362E-05-4.82100E-05
 -1      8987 1.74047E+00-1.20424E+01 9.12863E-03-1.09917E+01 4.69321E-06-1.48913E-05
 -1      8988 1.74047E+00-1.20424E+01 9.12863E-03-1.09917E+01-4.69321E-06 1.48913E-05
 -1      8989 1.74574E+00-1.20479E+01 9.20303E-03-1.09973E+01 2.34362E-05 4.82100E-05
 -1      8990 1.75630E+00-1.20587E+01 9.40843E-03-1.10084E+01 1.91390E-04 1.12416E-04
 -1      8991 1.77200E+00-1.20751E+01 9.35409E-03-1.10250E+01 4.01182E-04 1.99530E-04
 -1      8992 1.79316E+00-1.20963E+01 9.42240E-03-1.10471E+01 7.31035E-04 2.50552E-04
 -1      8993 6.16688E-01-1.02506E+01 7.57955E-03-1.17518E+01-7.81384E-04-3.36620E-04
 -1      8994 6.00933E-01-1.02350E+01 7.59816E-03-1.17285E+01-6.56349E-04-2.91905E-04
 -1      8995 5.89106E-01-1.02234E+01 7.59126E-03-1.17110E+01-4.81717E-04-2.28484E-04
 -1      8996 5.81257E-01-1.02156E+01 7.63491E-03-1.16993E+01-3.01293E-04-1.44100E-04
 -1      8997 5.77326E-01-1.02116E+01 7.63328E-03-1.16935E+01-1.00139E-04-4.80775E-05
 -1      8998 5.77326E-01-1.02116E+01 7.63328E-03-1.16935E+01 1.00139E-04 4.80775E-05
 -1      8999 5.81257E-01-1.02156E+01 7.63491E-03-1.16993E+01 3.01293E-04 1.44100E-04
 -1      9000 5.89106E-01-1.02234E+01 7.59126E-03-1.17110E+01 4.81717E-04 2.28484E-04
 -1      9001 6.00933E-01-1.02350E+01 7.59816E-03-1.17285E+01 6.56349E-04 2.91905E-04
 -1      9002 6.16688E-01-1.02506E+01 7.57955E-03-1.17518E+01 7.81384E-04 3.36620E-04
 -1      9003-7.94212E-01-8.25426E+00 7.47575E-03-1.22534E+01-6.24557E-04-3.38848E-04
 -1      9004-8.04373E-01-8.24425E+00 7.46098E-03-1.22290E+01-5.36471E-04-2.84357E-04
 -1      9005-8.11992E-01-8.23674E+00 7.46488E-03-1.22106E+01-4.11175E-04-2.15260E-04
 -1      9006-8.17080E-01-8.23175E+00 7.46341E-03-1.21984E+01-2.55808E-04-1.35075E-04
 -1      9007-8.19619E-01-8.22925E+00 7.47306E-03-1.21923E+01-8.75721E-05-4.64495E-05
 -1      9008-8.19619E-01-8.22925E+00 7.47306E-03-1.21923E+01 8.75721E-05 4.64495E-05
 -1      9009-8.17080E-01-8.23175E+00 7.46341E-03-1.21984E+01 2.55808E-04 1.35075E-04
 -1      9010-8.11992E-01-8.23674E+00 7.46488E-03-1.22106E+01 4.11175E-04 2.15260E-04
 -1      9011-8.04373E-01-8.24425E+00 7.46098E-03-1.22290E+01 5.36471E-04 2.84357E-04
 -1      9012-7.94212E-01-8.25426E+00 7.47575E-03-1.22534E+01 6.24557E-04 3.38848E-04
 -1      9013-2.36626E+00-6.15870E+00 8.17711E-03-1.25143E+01-4.65255E-04-3.28321E-04
 -1      9014-2.37077E+00-6.15424E+00 8.14531E-03-1.24891E+01-3.88296E-04-2.65343E-04
 -1      9015-2.37416E+00-6.15091E+00 8.12502E-03-1.24703E+01-2.91143E-04-1.96735E-04
 -1      9016-2.37642E+00-6.14869E+00 8.11601E-03-1.24577E+01-1.80572E-04-1.21227E-04
 -1      9017-2.37756E+00-6.14758E+00 8.10992E-03-1.24514E+01-6.09047E-05-4.08783E-05
 -1      9018-2.37756E+00-6.14758E+00 8.10992E-03-1.24514E+01 6.09047E-05 4.08783E-05
 -1      9019-2.37642E+00-6.14869E+00 8.11601E-03-1.24577E+01 1.80572E-04 1.21227E-04
 -1      9020-2.37416E+00-6.15091E+00 8.12502E-03-1.24703E+01 2.91143E-04 1.96735E-04
 -1      9021-2.37077E+00-6.15424E+00 8.14531E-03-1.24891E+01 3.88296E-04 2.65343E-04
 -1      9022-2.36626E+00-6.15870E+00 8.17711E-03-1.25143E+01 4.65255E-04 3.28321E-04
 -1      9023-4.03377E+00-4.01354E+00 9.19234E-03-1.25066E+01-3.41261E-04-3.16418E-04
 -1      9024-4.03265E+00-4.01469E+00 9.14879E-03-1.24813E+01-2.78030E-04-2.53179E-04
 -1      9025-4.03181E+00-4.01556E+00 9.11887E-03-1.24623E+01-2.04837E-04-1.85807E-04
 -1      9026-4.03126E+00-4.01615E+00 9.09994E-03-1.24497E+01-1.25160E-04-1.13886E-04
 -1      9027-4.03098E+00-4.01644E+00 9.09159E-03-1.24434E+01-4.21571E-05-3.84336E-05
 -1      9028-4.03098E+00-4.01644E+00 9.09159E-03-1.24434E+01 4.21571E-05 3.84336E-05
 -1      9029-4.03126E+00-4.01615E+00 9.09994E-03-1.24497E+01 1.25160E-04 1.13886E-04
 -1      9030-4.03181E+00-4.01556E+00 9.11887E-03-1.24623E+01 2.04837E-04 1.85807E-04
 -1      9031-4.03265E+00-4.01469E+00 9.14879E-03-1.24813E+01 2.78030E-04 2.53179E-04
 -1      9032-4.03377E+00-4.01354E+00 9.19234E-03-1.25066E+01 3.41261E-04 3.16418E-04
 -1      9033-5.73569E+00-1.86927E+00 1.02675E-02-1.22123E+01-2.49514E-04-3.07340E-04
 -1      9034-5.72897E+00-1.87603E+00 1.02151E-02-1.21876E+01-1.99829E-04-2.45604E-04
 -1      9035-5.72393E+00-1.88111E+00 1.01780E-02-1.21690E+01-1.45159E-04-1.79999E-04
 -1      9036-5.72058E+00-1.88449E+00 1.01548E-02-1.21566E+01-8.78886E-05-1.10126E-04
 -1      9037-5.71890E+00-1.88619E+00 1.01435E-02-1.21504E+01-2.93845E-05-3.70897E-05
 -1      9038-5.71890E+00-1.88619E+00 1.01435E-02-1.21504E+01 2.93845E-05 3.70897E-05
 -1      9039-5.72058E+00-1.88449E+00 1.01548E-02-1.21566E+01 8.78886E-05 1.10126E-04
 -1      9040-5.72393E+00-1.88111E+00 1.01780E-02-1.21690E+01 1.45159E-04 1.79999E-04
 -1      9041-5.72897E+00-1.87603E+00 1.02151E-02-1.21876E+01 1.99829E-04 2.45604E-04
 -1      9042-5.73569E+00-1.86927E+00 1.02675E-02-1.22123E+01 2.49514E-04 3.07340E-04
 -1      9043-7.41359E+00 2.21398E-01 1.12857E-02-1.16226E+01-1.80778E-04-3.02892E-04
 -1      9044-7.40135E+00 2.09095E-01 1.12251E-02-1.15991E+01-1.42303E-04-2.42016E-04
 -1      9045-7.39217E+00 1.99865E-01 1.11818E-02-1.15814E+01-1.01914E-04-1.77261E-04
 -1      9046-7.38605E+00 1.93709E-01 1.11541E-02-1.15697E+01-6.10577E-05-1.08402E-04
 -1      9047-7.38300E+00 1.90631E-01 1.11407E-02-1.15638E+01-2.03213E-05-3.65084E-05
 -1      9048-7.38300E+00 1.90631E-01 1.11407E-02-1.15638E+01 2.03213E-05 3.65084E-05
 -1      9049-7.38605E+00 1.93709E-01 1.11541E-02-1.15697E+01 6.10577E-05 1.08402E-04
 -1      9050-7.39217E+00 1.99865E-01 1.11818E-02-1.15814E+01 1.01914E-04 1.77261E-04
 -1      9051-7.40135E+00 2.09095E-01 1.12251E-02-1.15991E+01 1.42303E-04 2.42016E-04
 -1      9052-7.41359E+00 2.21398E-01 1.12857E-02-1.16226E+01 1.80778E-04 3.02892E-04
 -1      9053-9.01037E+00 2.20282E+00 1.21883E-02-1.07377E+01-1.29915E-04-3.04808E-04
 -1      9054-8.99274E+00 2.18511E+00 1.21196E-02-1.07161E+01-9.99393E-05-2.43275E-04
 -1      9055-8.97953E+00 2.17182E+00 1.20699E-02-1.07000E+01-7.01566E-05-1.77989E-04
 -1      9056-8.97072E+00 2.16296E+00 1.20378E-02-1.06892E+01-4.14098E-05-1.08752E-04
 -1      9057-8.96631E+00 2.15853E+00 1.20221E-02-1.06838E+01-1.36656E-05-3.66071E-05
 -1      9058-8.96631E+00 2.15853E+00 1.20221E-02-1.06838E+01 1.36656E-05 3.66071E-05
 -1      9059-8.97072E+00 2.16296E+00 1.20378E-02-1.06892E+01 4.14098E-05 1.08752E-04
 -1      9060-8.97953E+00 2.17182E+00 1.20699E-02-1.07000E+01 7.01566E-05 1.77989E-04
 -1      9061-8.99274E+00 2.18511E+00 1.21196E-02-1.07161E+01 9.99393E-05 2.43275E-04
 -1      9062-9.01037E+00 2.20282E+00 1.21883E-02-1.07377E+01 1.29915E-04 3.04808E-04
 -1      9063-1.04694E+01 4.01615E+00 1.29279E-02-9.56732E+00-9.50156E-05-3.15381E-04
 -1      9064-1.04466E+01 3.99325E+00 1.28507E-02-9.54859E+00-7.07119E-05-2.51245E-04
 -1      9065-1.04295E+01 3.97607E+00 1.27943E-02-9.53455E+00-4.81469E-05-1.83514E-04
 -1      9066-1.04181E+01 3.96462E+00 1.27575E-02-9.52518E+00-2.77434E-05-1.11992E-04
 -1      9067-1.04124E+01 3.95889E+00 1.27395E-02-9.52050E+00-9.03457E-06-3.76740E-05
 -1      9068-1.04124E+01 3.95889E+00 1.27395E-02-9.52050E+00 9.03457E-06 3.76740E-05
 -1      9069-1.04181E+01 3.96462E+00 1.27575E-02-9.52518E+00 2.77434E-05 1.11992E-04
 -1      9070-1.04295E+01 3.97607E+00 1.27943E-02-9.53455E+00 4.81469E-05 1.83514E-04
 -1      9071-1.04466E+01 3.99325E+00 1.28507E-02-9.54859E+00 7.07119E-05 2.51245E-04
 -1      9072-1.04694E+01 4.01615E+00 1.29279E-02-9.56732E+00 9.50156E-05 3.15381E-04
 -1      9073-1.17341E+01 5.59960E+00 1.34392E-02-8.13214E+00-7.65013E-05-3.38075E-04
 -1      9074-1.17065E+01 5.57187E+00 1.33531E-02-8.11706E+00-5.45270E-05-2.68817E-04
 -1      9075-1.16859E+01 5.55106E+00 1.32894E-02-8.10575E+00-3.55972E-05-1.96002E-04
 -1      9076-1.16721E+01 5.53719E+00 1.32477E-02-8.09821E+00-1.98079E-05-1.19455E-04
 -1      9077-1.16652E+01 5.53026E+00 1.32271E-02-8.09443E+00-6.32022E-06-4.01558E-05
 -1      9078-1.16652E+01 5.53026E+00 1.32271E-02-8.09443E+00 6.32022E-06 4.01558E-05
 -1      9079-1.16721E+01 5.53719E+00 1.32477E-02-8.09821E+00 1.98079E-05 1.19455E-04
 -1      9080-1.16859E+01 5.55106E+00 1.32894E-02-8.10575E+00 3.55972E-05 1.96002E-04
 -1      9081-1.17065E+01 5.57187E+00 1.33531E-02-8.11706E+00 5.45270E-05 2.68817E-04
 -1      9082-1.17341E+01 5.59960E+00 1.34392E-02-8.13214E+00 7.65013E-05 3.38075E-04
 -1      9083-1.27483E+01 6.88950E+00 1.36206E-02-6.46502E+00-7.64562E-05-3.77986E-04
 -1      9084-1.27165E+01 6.85747E+00 1.35249E-02-6.45445E+00-5.25247E-05-3.00166E-04
 -1      9085-1.26927E+01 6.83344E+00 1.34537E-02-6.44653E+00-3.30745E-05-2.18546E-04
 -1      9086-1.26768E+01 6.81742E+00 1.34067E-02-6.44124E+00-1.78455E-05-1.33038E-04
 -1      9087-1.26688E+01 6.80941E+00 1.33833E-02-6.43860E+00-5.59023E-06-4.46922E-05
 -1      9088-1.26688E+01 6.80941E+00 1.33833E-02-6.43860E+00 5.59023E-06 4.46922E-05
 -1      9089-1.26768E+01 6.81742E+00 1.34067E-02-6.44124E+00 1.78455E-05 1.33038E-04
 -1      9090-1.26927E+01 6.83344E+00 1.34537E-02-6.44653E+00 3.30745E-05 2.18546E-04
 -1      9091-1.27165E+01 6.85747E+00 1.35249E-02-6.45445E+00 5.25247E-05 3.00166E-04
 -1      9092-1.27483E+01 6.88950E+00 1.36206E-02-6.46502E+00 7.64562E-05 3.77986E-04
 -1      9093-1.34575E+01 7.82245E+00 1.33217E-02-4.61342E+00-9.80003E-05-4.42092E-04
 -1      9094-1.34223E+01 7.78689E+00 1.32165E-02-4.60822E+00-6.65904E-05-3.50924E-04
 -1      9095-1.33958E+01 7.76022E+00 1.31375E-02-4.60432E+00-4.16427E-05-2.55270E-04
 -1      9096-1.33782E+01 7.74243E+00 1.30851E-02-4.60171E+00-2.23848E-05-1.55255E-04
 -1      9097-1.33694E+01 7.73354E+00 1.30590E-02-4.60041E+00-7.00219E-06-5.21282E-05
 -1      9098-1.33694E+01 7.73354E+00 1.30590E-02-4.60041E+00 7.00219E-06 5.21282E-05
 -1      9099-1.33782E+01 7.74243E+00 1.30851E-02-4.60171E+00 2.23848E-05 1.55255E-04
 -1      9100-1.33958E+01 7.76022E+00 1.31375E-02-4.60432E+00 4.16427E-05 2.55270E-04
 -1      9101-1.34223E+01 7.78689E+00 1.32165E-02-4.60822E+00 6.65904E-05 3.50924E-04
 -1      9102-1.34575E+01 7.82245E+00 1.33217E-02-4.61342E+00 9.80003E-05 4.42092E-04
 -1      9103-1.38112E+01 8.33908E+00 1.23382E-02-2.64163E+00-1.44531E-04-5.39272E-04
 -1      9104-1.37735E+01 8.30107E+00 1.22240E-02-2.64256E+00-9.87960E-05-4.28190E-04
 -1      9105-1.37453E+01 8.27256E+00 1.21378E-02-2.64325E+00-6.24860E-05-3.11342E-04
 -1      9106-1.37265E+01 8.25355E+00 1.20802E-02-2.64372E+00-3.40208E-05-1.89247E-04
 -1      9107-1.37171E+01 8.24404E+00 1.20515E-02-2.64395E+00-1.07350E-05-6.35148E-05
 -1      9108-1.37171E+01 8.24404E+00 1.20515E-02-2.64395E+00 1.07350E-05 6.35148E-05
 -1      9109-1.37265E+01 8.25355E+00 1.20802E-02-2.64372E+00 3.40208E-05 1.89247E-04
 -1      9110-1.37453E+01 8.27256E+00 1.21378E-02-2.64325E+00 6.24860E-05 3.11342E-04
 -1      9111-1.37735E+01 8.30107E+00 1.22240E-02-2.64256E+00 9.87960E-05 4.28190E-04
 -1      9112-1.38112E+01 8.33908E+00 1.23382E-02-2.64163E+00 1.44531E-04 5.39272E-04
 -1      9113-1.37668E+01 8.38984E+00 1.04142E-02-6.32466E-01-2.18819E-04-6.80042E-04
 -1      9114-1.37282E+01 8.35080E+00 1.02931E-02-6.40113E-01-1.50782E-04-5.40365E-04
 -1      9115-1.36992E+01 8.32152E+00 1.02010E-02-6.45852E-01-9.65135E-05-3.92871E-04
 -1      9116-1.36799E+01 8.30200E+00 1.01392E-02-6.49679E-01-5.32001E-05-2.38707E-04
 -1      9117-1.36703E+01 8.29223E+00 1.01082E-02-6.51593E-01-1.69242E-05-8.00937E-05
 -1      9118-1.36703E+01 8.29223E+00 1.01082E-02-6.51593E-01 1.69242E-05 8.00937E-05
 -1      9119-1.36799E+01 8.30200E+00 1.01392E-02-6.49679E-01 5.32001E-05 2.38707E-04
 -1      9120-1.36992E+01 8.32152E+00 1.02010E-02-6.45852E-01 9.65135E-05 3.92871E-04
 -1      9121-1.37282E+01 8.35080E+00 1.02931E-02-6.40113E-01 1.50782E-04 5.40365E-04
 -1      9122-1.37668E+01 8.38984E+00 1.04142E-02-6.32466E-01 2.18819E-04 6.80042E-04
 -1      9123-1.32958E+01 7.94298E+00 7.25704E-03 1.31245E+00-3.22031E-04-8.75934E-04
 -1      9124-1.32580E+01 7.90474E+00 7.13256E-03 1.29778E+00-2.23181E-04-6.96645E-04
 -1      9125-1.32297E+01 7.87606E+00 7.03743E-03 1.28677E+00-1.44076E-04-5.06467E-04
 -1      9126-1.32108E+01 7.85694E+00 6.97312E-03 1.27944E+00-8.01038E-05-3.07638E-04
 -1      9127-1.32014E+01 7.84738E+00 6.94083E-03 1.27577E+00-2.56186E-05-1.03186E-04
 -1      9128-1.32014E+01 7.84738E+00 6.94083E-03 1.27577E+00 2.56186E-05 1.03185E-04
 -1      9129-1.32108E+01 7.85694E+00 6.97312E-03 1.27944E+00 8.01038E-05 3.07638E-04
 -1      9130-1.32297E+01 7.87606E+00 7.03743E-03 1.28677E+00 1.44076E-04 5.06467E-04
 -1      9131-1.32580E+01 7.90474E+00 7.13256E-03 1.29778E+00 2.23181E-04 6.96645E-04
 -1      9132-1.32958E+01 7.94298E+00 7.25704E-03 1.31245E+00 3.22031E-04 8.75934E-04
 -1      9133-1.23908E+01 6.99477E+00 2.56086E-03 3.07504E+00-4.52832E-04-1.13774E-03
 -1      9134-1.23561E+01 6.95954E+00 2.43917E-03 3.05350E+00-3.15470E-04-9.05022E-04
 -1      9135-1.23301E+01 6.93312E+00 2.34529E-03 3.03734E+00-2.05126E-04-6.57501E-04
 -1      9136-1.23127E+01 6.91550E+00 2.28225E-03 3.02657E+00-1.14845E-04-3.98879E-04
 -1      9137-1.23040E+01 6.90670E+00 2.25030E-03 3.02118E+00-3.69032E-05-1.33711E-04
 -1      9138-1.23040E+01 6.90670E+00 2.25030E-03 3.02118E+00 3.69032E-05 1.33711E-04
 -1      9139-1.23127E+01 6.91550E+00 2.28225E-03 3.02657E+00 1.14845E-04 3.98879E-04
 -1      9140-1.23301E+01 6.93312E+00 2.34529E-03 3.03734E+00 2.05126E-04 6.57501E-04
 -1      9141-1.23561E+01 6.95954E+00 2.43917E-03 3.05350E+00 3.15470E-04 9.05022E-04
 -1      9142-1.23908E+01 6.99477E+00 2.56086E-03 3.07504E+00 4.52832E-04 1.13774E-03
 -1      9143-1.10738E+01 5.58091E+00-3.96859E-03 4.52713E+00-6.07542E-04-1.47143E-03
 -1      9144-1.10446E+01 5.55123E+00-4.07885E-03 4.49948E+00-4.27028E-04-1.16602E-03
 -1      9145-1.10228E+01 5.52897E+00-4.16019E-03 4.47874E+00-2.80719E-04-8.42984E-04
 -1      9146-1.10082E+01 5.51414E+00-4.21653E-03 4.46492E+00-1.58833E-04-5.09906E-04
 -1      9147-1.10009E+01 5.50672E+00-4.24450E-03 4.45801E+00-5.13360E-05-1.70595E-04
 -1      9148-1.10009E+01 5.50672E+00-4.24450E-03 4.45801E+00 5.13360E-05 1.70595E-04
 -1      9149-1.10082E+01 5.51414E+00-4.21653E-03 4.46492E+00 1.58833E-04 5.09906E-04
 -1      9150-1.10228E+01 5.52897E+00-4.16019E-03 4.47874E+00 2.80719E-04 8.42984E-04
 -1      9151-1.10446E+01 5.55123E+00-4.07885E-03 4.49948E+00 4.27028E-04 1.16602E-03
 -1      9152-1.10738E+01 5.58091E+00-3.96859E-03 4.52713E+00 6.07542E-04 1.47143E-03
 -1      9153-9.40380E+00 3.78798E+00-1.26186E-02 5.54170E+00-7.81840E-04-1.86878E-03
 -1      9154-9.38293E+00 3.76659E+00-1.26946E-02 5.50945E+00-5.61512E-04-1.45788E-03
 -1      9155-9.36730E+00 3.75053E+00-1.27543E-02 5.48527E+00-3.77022E-04-1.04109E-03
 -1      9156-9.35689E+00 3.73983E+00-1.27823E-02 5.46915E+00-2.16600E-04-6.21626E-04
 -1      9157-9.35168E+00 3.73448E+00-1.27938E-02 5.46109E+00-7.06401E-05-2.06535E-04
 -1      9158-9.35168E+00 3.73448E+00-1.27938E-02 5.46109E+00 7.06401E-05 2.06535E-04
 -1      9159-9.35689E+00 3.73983E+00-1.27823E-02 5.46915E+00 2.16600E-04 6.21626E-04
 -1      9160-9.36730E+00 3.75053E+00-1.27543E-02 5.48527E+00 3.77022E-04 1.04109E-03
 -1      9161-9.38293E+00 3.76659E+00-1.26946E-02 5.50945E+00 5.61512E-04 1.45788E-03
 -1      9162-9.40380E+00 3.78798E+00-1.26186E-02 5.54170E+00 7.81840E-04 1.86878E-03
 -1      9163-7.48233E+00 1.76279E+00-2.37364E-02 6.00932E+00-9.74890E-04-2.31685E-03
 -1      9164-7.47252E+00 1.75234E+00-2.37871E-02 5.97480E+00-7.27748E-04-1.75157E-03
 -1      9165-7.46517E+00 1.74452E+00-2.37471E-02 5.94893E+00-5.05778E-04-1.20904E-03
 -1      9166-7.46029E+00 1.73930E+00-2.37241E-02 5.93169E+00-2.99577E-04-7.12136E-04
 -1      9167-7.45786E+00 1.73668E+00-2.37142E-02 5.92307E+00-9.93354E-05-2.35407E-04
 -1      9168-7.45786E+00 1.73668E+00-2.37142E-02 5.92307E+00 9.93354E-05 2.35407E-04
 -1      9169-7.46029E+00 1.73930E+00-2.37241E-02 5.93169E+00 2.99577E-04 7.12136E-04
 -1      9170-7.46517E+00 1.74452E+00-2.37471E-02 5.94893E+00 5.05778E-04 1.20904E-03
 -1      9171-7.47252E+00 1.75234E+00-2.37871E-02 5.97480E+00 7.27748E-04 1.75157E-03
 -1      9172-7.48233E+00 1.76279E+00-2.37364E-02 6.00932E+00 9.74890E-04 2.31685E-03
 -1      9173-5.45521E+00-2.82779E-01-3.81292E-02 5.85856E+00-1.15934E-03-2.88567E-03
 -1      9174-5.45869E+00-2.79769E-01-3.79155E-02 5.82488E+00-9.09668E-04-2.12502E-03
 -1      9175-5.46139E+00-2.77591E-01-3.79024E-02 5.79963E+00-6.54438E-04-1.50881E-03
 -1      9176-5.46319E+00-2.76129E-01-3.78561E-02 5.78280E+00-3.91794E-04-8.95018E-04
 -1      9177-5.46408E+00-2.75388E-01-3.78121E-02 5.77439E+00-1.30169E-04-2.95748E-04
 -1      9178-5.46408E+00-2.75388E-01-3.78121E-02 5.77439E+00 1.30169E-04 2.95748E-04
 -1      9179-5.46319E+00-2.76129E-01-3.78561E-02 5.78280E+00 3.91794E-04 8.95018E-04
 -1      9180-5.46139E+00-2.77591E-01-3.79024E-02 5.79963E+00 6.54438E-04 1.50881E-03
 -1      9181-5.45869E+00-2.79769E-01-3.79155E-02 5.82488E+00 9.09668E-04 2.12502E-03
 -1      9182-5.45521E+00-2.82779E-01-3.81292E-02 5.85856E+00 1.15934E-03 2.88567E-03
 -1      9183-3.50900E+00-2.07230E+00-5.68009E-02 5.07743E+00-1.17109E-03-4.05490E-03
 -1      9184-3.52758E+00-2.05437E+00-5.75554E-02 5.04811E+00-8.72763E-04-3.69315E-03
 -1      9185-3.54052E+00-2.04048E+00-5.75595E-02 5.02609E+00-5.69116E-04-2.87036E-03
 -1      9186-3.54862E+00-2.03106E+00-5.75168E-02 5.01137E+00-3.13483E-04-1.85832E-03
 -1      9187-3.55250E+00-2.02630E+00-5.75178E-02 5.00401E+00-9.92180E-05-6.48422E-04
 -1      9188-3.55250E+00-2.02630E+00-5.75178E-02 5.00401E+00 9.92180E-05 6.48422E-04
 -1      9189-3.54862E+00-2.03106E+00-5.75168E-02 5.01137E+00 3.13483E-04 1.85832E-03
 -1      9190-3.54052E+00-2.04048E+00-5.75595E-02 5.02609E+00 5.69116E-04 2.87036E-03
 -1      9191-3.52758E+00-2.05437E+00-5.75554E-02 5.04811E+00 8.72763E-04 3.69315E-03
 -1      9192-3.50900E+00-2.07230E+00-5.68009E-02 5.07743E+00 1.17109E-03 4.05490E-03
 -1      9193-1.87192E+00-3.27617E+00-8.70780E-02 3.73070E+00-3.43097E-04-7.57666E-03
 -1      9194-1.89845E+00-3.23885E+00-8.51129E-02 3.70890E+00 2.98391E-04-8.59564E-03
 -1      9195-1.91582E+00-3.21072E+00-8.61483E-02 3.69221E+00 5.94881E-04-8.50338E-03
 -1      9196-1.92625E+00-3.19192E+00-8.80415E-02 3.68092E+00 5.34347E-04-6.22325E-03
 -1      9197-1.93113E+00-3.18250E+00-8.93415E-02 3.67522E+00 2.10124E-04-2.27527E-03
 -1      9198-1.93113E+00-3.18250E+00-8.93415E-02 3.67522E+00-2.10124E-04 2.27527E-03
 -1      9199-1.92625E+00-3.19192E+00-8.80415E-02 3.68092E+00-5.34347E-04 6.22325E-03
 -1      9200-1.91582E+00-3.21072E+00-8.61483E-02 3.69221E+00-5.94881E-04 8.50338E-03
 -1      9201-1.89845E+00-3.23885E+00-8.51129E-02 3.70890E+00-2.98391E-04 8.59564E-03
 -1      9202-1.87192E+00-3.27617E+00-8.70780E-02 3.73070E+00 3.43097E-04 7.57666E-03
 -1      9203-7.70442E-01-3.50106E+00-1.02844E-01 1.96516E+00 2.49903E-03-1.24988E-02
 -1      9204-7.98793E-01-3.44704E+00-1.16732E-01 1.95244E+00 4.01692E-03-2.05282E-02
 -1      9205-8.16847E-01-3.40643E+00-1.28508E-01 1.94247E+00 3.94614E-03-1.98858E-02
 -1      9206-8.27448E-01-3.37932E+00-1.36449E-01 1.93563E+00 2.78744E-03-1.38997E-02
 -1      9207-8.32338E-01-3.36576E+00-1.40360E-01 1.93215E+00 9.98026E-04-4.95034E-03
 -1      9208-8.32338E-01-3.36576E+00-1.40360E-01 1.93215E+00-9.98026E-04 4.95034E-03
 -1      9209-8.27448E-01-3.37932E+00-1.36449E-01 1.93563E+00-2.78744E-03 1.38997E-02
 -1      9210-8.16847E-01-3.40643E+00-1.28508E-01 1.94247E+00-3.94614E-03 1.98858E-02
 -1      9211-7.98793E-01-3.44704E+00-1.16732E-01 1.95244E+00-4.01692E-03 2.05282E-02
 -1      9212-7.70442E-01-3.50106E+00-1.02844E-01 1.96516E+00-2.49903E-03 1.24988E-02
 -1      9213-1.66122E+00-1.77941E+01 1.22387E+00-4.93673E+00 1.43811E-01-7.49579E-02
 -1      9214-2.07513E+00-1.81028E+01 2.34042E-01-5.11016E+00 5.49258E-01-1.10109E-01
 -1      9215-2.34899E+00-1.82783E+01-4.47260E-01-5.22070E+00 5.24636E-01-1.04049E-01
 -1      9216-2.51464E+00-1.83757E+01-8.65569E-01-5.28769E+00 3.50463E-01-7.15830E-02
 -1      9217-2.59275E+00-1.84196E+01-1.06392E+00-5.31953E+00 1.21541E-01-2.52802E-02
 -1      9218-2.59275E+00-1.84196E+01-1.06392E+00-5.31953E+00-1.21541E-01 2.52802E-02
 -1      9219-2.51464E+00-1.83757E+01-8.65569E-01-5.28769E+00-3.50463E-01 7.15830E-02
 -1      9220-2.34899E+00-1.82783E+01-4.47260E-01-5.22070E+00-5.24636E-01 1.04049E-01
 -1      9221-2.07513E+00-1.81028E+01 2.34042E-01-5.11016E+00-5.49258E-01 1.10109E-01
 -1      9222-1.66122E+00-1.77941E+01 1.22387E+00-4.93673E+00-1.43811E-01 7.49579E-02
 -1      9223 1.22297E-01-1.92739E+01-9.21367E-02-6.30397E+00-2.11216E-02-5.85564E-02
 -1      9224 1.52780E-01-1.94440E+01 3.20495E-01-6.35285E+00-2.17151E-01-8.11133E-02
 -1      9225 1.31532E-01-1.95434E+01 4.53121E-01-6.40102E+00-1.74264E-01-7.31160E-02
 -1      9226 1.02216E-01-1.95994E+01 4.79069E-01-6.43653E+00-1.00205E-01-4.97005E-02
 -1      9227 8.40078E-02-1.96249E+01 4.76990E-01-6.45502E+00-3.19775E-02-1.75388E-02
 -1      9228 8.40078E-02-1.96249E+01 4.76990E-01-6.45502E+00 3.19775E-02 1.75388E-02
 -1      9229 1.02216E-01-1.95994E+01 4.79069E-01-6.43653E+00 1.00205E-01 4.97005E-02
 -1      9230 1.31532E-01-1.95434E+01 4.53121E-01-6.40102E+00 1.74264E-01 7.31160E-02
 -1      9231 1.52780E-01-1.94440E+01 3.20495E-01-6.35285E+00 2.17151E-01 8.11133E-02
 -1      9232 1.22297E-01-1.92739E+01-9.21367E-02-6.30397E+00 2.11216E-02 5.85564E-02
 -1      9233 1.80897E+00-1.92168E+01 1.68375E-01-7.42481E+00-4.90129E-02-5.00874E-03
 -1      9234 1.69349E+00-1.93819E+01 9.86539E-02-7.41520E+00-7.60582E-02-1.90945E-02
 -1      9235 1.64360E+00-1.94917E+01 1.58034E-01-7.41541E+00-1.03591E-01-2.43845E-02
 -1      9236 1.61888E+00-1.95588E+01 2.21412E-01-7.41911E+00-8.19658E-02-1.88374E-02
 -1      9237 1.60793E+00-1.95906E+01 2.56422E-01-7.42199E+00-3.03968E-02-6.95316E-03
 -1      9238 1.60793E+00-1.95906E+01 2.56422E-01-7.42199E+00 3.03968E-02 6.95316E-03
 -1      9239 1.61888E+00-1.95588E+01 2.21412E-01-7.41911E+00 8.19658E-02 1.88374E-02
 -1      9240 1.64360E+00-1.94917E+01 1.58034E-01-7.41541E+00 1.03591E-01 2.43845E-02
 -1      9241 1.69349E+00-1.93819E+01 9.86539E-02-7.41520E+00 7.60582E-02 1.90945E-02
 -1      9242 1.80897E+00-1.92168E+01 1.68375E-01-7.42481E+00 4.90129E-02 5.00874E-03
 -1      9243 2.45380E+00-1.88474E+01 5.77889E-02-8.42705E+00-1.01548E-02-2.83173E-04
 -1      9244 2.42673E+00-1.88051E+01 7.31133E-02-8.40701E+00-1.73079E-02 4.98746E-04
 -1      9245 2.38925E+00-1.88072E+01 6.14372E-02-8.39388E+00-1.41210E-02 1.98459E-05
 -1      9246 2.36259E+00-1.88195E+01 5.92442E-02-8.38627E+00-1.15357E-02-7.32002E-04
 -1      9247 2.34937E+00-1.88283E+01 6.12279E-02-8.38285E+00-4.62674E-03-4.26624E-04
 -1      9248 2.34937E+00-1.88283E+01 6.12279E-02-8.38285E+00 4.62674E-03 4.26624E-04
 -1      9249 2.36259E+00-1.88195E+01 5.92442E-02-8.38627E+00 1.15357E-02 7.32002E-04
 -1      9250 2.38925E+00-1.88072E+01 6.14372E-02-8.39388E+00 1.41210E-02-1.98459E-05
 -1      9251 2.42673E+00-1.88051E+01 7.31133E-02-8.40701E+00 1.73079E-02-4.98746E-04
 -1      9252 2.45380E+00-1.88474E+01 5.77889E-02-8.42705E+00 1.01548E-02 2.83173E-04
 -1      9253 2.48211E+00-1.77809E+01 2.36657E-02-9.40817E+00-4.94242E-04 8.42753E-04
 -1      9254 2.45041E+00-1.77500E+01 1.96102E-02-9.38921E+00 1.59805E-03 1.11719E-03
 -1      9255 2.42937E+00-1.77222E+01 2.10267E-02-9.37465E+00 1.08679E-03 1.31628E-03
 -1      9256 2.41384E+00-1.77052E+01 1.84606E-02-9.36492E+00 1.31459E-03 1.18421E-03
 -1      9257 2.40550E+00-1.76976E+01 1.61327E-02-9.36007E+00 5.94714E-04 4.69648E-04
 -1      9258 2.40550E+00-1.76976E+01 1.61327E-02-9.36007E+00-5.94714E-04-4.69648E-04
 -1      9259 2.41384E+00-1.77052E+01 1.84606E-02-9.36492E+00-1.31459E-03-1.18421E-03
 -1      9260 2.42937E+00-1.77222E+01 2.10267E-02-9.37465E+00-1.08679E-03-1.31628E-03
 -1      9261 2.45041E+00-1.77500E+01 1.96102E-02-9.38921E+00-1.59805E-03-1.11719E-03
 -1      9262 2.48211E+00-1.77809E+01 2.36657E-02-9.40817E+00 4.94242E-04-8.42753E-04
 -1      9263 1.98313E+00-1.63322E+01 9.82487E-03-1.03615E+01-5.60862E-04-1.11214E-04
 -1      9264 1.95818E+00-1.63036E+01 9.80369E-03-1.03429E+01 5.15049E-04 2.19875E-04
 -1      9265 1.93880E+00-1.62829E+01 8.33500E-03-1.03289E+01 1.12884E-03 2.77814E-04
 -1      9266 1.92641E+00-1.62682E+01 8.17372E-03-1.03195E+01 7.82549E-04 1.82967E-04
 -1      9267 1.92032E+00-1.62606E+01 8.13681E-03-1.03147E+01 2.76942E-04 6.70829E-05
 -1      9268 1.92032E+00-1.62606E+01 8.13681E-03-1.03147E+01-2.76942E-04-6.70829E-05
 -1      9269 1.92641E+00-1.62682E+01 8.17372E-03-1.03195E+01-7.82549E-04-1.82967E-04
 -1      9270 1.93880E+00-1.62829E+01 8.33500E-03-1.03289E+01-1.12884E-03-2.77814E-04
 -1      9271 1.95818E+00-1.63036E+01 9.80369E-03-1.03429E+01-5.15049E-04-2.19875E-04
 -1      9272 1.98313E+00-1.63322E+01 9.82487E-03-1.03615E+01 5.60862E-04 1.11214E-04
 -1      9273 1.08357E+00-1.46155E+01 6.51224E-03-1.12328E+01-8.84547E-04-3.34887E-04
 -1      9274 1.06309E+00-1.45950E+01 6.48639E-03-1.12136E+01-5.60115E-04-2.98347E-04
 -1      9275 1.04794E+00-1.45790E+01 6.63007E-03-1.11991E+01-3.28856E-04-2.02991E-04
 -1      9276 1.03772E+00-1.45685E+01 6.44161E-03-1.11895E+01-1.02917E-04-1.08474E-04
 -1      9277 1.03262E+00-1.45632E+01 6.37378E-03-1.11846E+01-2.09181E-05-3.61022E-05
 -1      9278 1.03262E+00-1.45632E+01 6.37378E-03-1.11846E+01 2.09181E-05 3.61022E-05
 -1      9279 1.03772E+00-1.45685E+01 6.44161E-03-1.11895E+01 1.02917E-04 1.08474E-04
 -1      9280 1.04794E+00-1.45790E+01 6.63007E-03-1.11991E+01 3.28856E-04 2.02991E-04
 -1      9281 1.06309E+00-1.45950E+01 6.48639E-03-1.12136E+01 5.60115E-04 2.98347E-04
 -1      9282 1.08357E+00-1.46155E+01 6.51224E-03-1.12328E+01 8.84547E-04 3.34887E-04
 -1      9283-1.15450E-01-1.27046E+01 6.36155E-03-1.19596E+01-8.50721E-04-3.75049E-04
 -1      9284-1.30538E-01-1.26896E+01 6.40591E-03-1.19391E+01-7.26004E-04-3.27646E-04
 -1      9285-1.41877E-01-1.26785E+01 6.41877E-03-1.19238E+01-5.39021E-04-2.60569E-04
 -1      9286-1.49397E-01-1.26710E+01 6.49191E-03-1.19135E+01-3.41459E-04-1.67470E-04
 -1      9287-1.53165E-01-1.26672E+01 6.50394E-03-1.19084E+01-1.14343E-04-5.64971E-05
 -1      9288-1.53165E-01-1.26672E+01 6.50394E-03-1.19084E+01 1.14343E-04 5.64971E-05
 -1      9289-1.49397E-01-1.26710E+01 6.49191E-03-1.19135E+01 3.41459E-04 1.67470E-04
 -1      9290-1.41877E-01-1.26785E+01 6.41877E-03-1.19238E+01 5.39021E-04 2.60569E-04
 -1      9291-1.30538E-01-1.26896E+01 6.40591E-03-1.19391E+01 7.26004E-04 3.27646E-04
 -1      9292-1.15450E-01-1.27046E+01 6.36155E-03-1.19596E+01 8.50721E-04 3.75049E-04
 -1      9293-1.52975E+00-1.06500E+01 7.35063E-03-1.24878E+01-6.42362E-04-3.56631E-04
 -1      9294-1.53942E+00-1.06404E+01 7.34860E-03-1.24662E+01-5.49360E-04-3.01238E-04
 -1      9295-1.54668E+00-1.06333E+01 7.36766E-03-1.24500E+01-4.20040E-04-2.29964E-04
 -1      9296-1.55153E+00-1.06285E+01 7.37601E-03-1.24392E+01-2.60398E-04-1.45254E-04
 -1      9297-1.55395E+00-1.06261E+01 7.39264E-03-1.24338E+01-8.90958E-05-5.01654E-05
 -1      9298-1.55395E+00-1.06261E+01 7.39264E-03-1.24338E+01 8.90958E-05 5.01654E-05
 -1      9299-1.55153E+00-1.06285E+01 7.37601E-03-1.24392E+01 2.60398E-04 1.45254E-04
 -1      9300-1.54668E+00-1.06333E+01 7.36766E-03-1.24500E+01 4.20040E-04 2.29964E-04
 -1      9301-1.53942E+00-1.06404E+01 7.34860E-03-1.24662E+01 5.49360E-04 3.01238E-04
 -1      9302-1.52975E+00-1.06500E+01 7.35063E-03-1.24878E+01 6.42362E-04 3.56631E-04
 -1      9303-3.08752E+00-8.49780E+00 8.69812E-03-1.27760E+01-4.65259E-04-3.37462E-04
 -1      9304-3.09181E+00-8.49354E+00 8.67604E-03-1.27537E+01-3.82413E-04-2.77175E-04
 -1      9305-3.09504E+00-8.49036E+00 8.66607E-03-1.27370E+01-2.83401E-04-2.08545E-04
 -1      9306-3.09719E+00-8.48824E+00 8.66622E-03-1.27259E+01-1.74505E-04-1.29901E-04
 -1      9307-3.09827E+00-8.48719E+00 8.66460E-03-1.27203E+01-5.85958E-05-4.40183E-05
 -1      9308-3.09827E+00-8.48719E+00 8.66460E-03-1.27203E+01 5.85958E-05 4.40183E-05
 -1      9309-3.09719E+00-8.48824E+00 8.66622E-03-1.27259E+01 1.74505E-04 1.29901E-04
 -1      9310-3.09504E+00-8.49036E+00 8.66607E-03-1.27370E+01 2.83401E-04 2.08545E-04
 -1      9311-3.09181E+00-8.49354E+00 8.67604E-03-1.27537E+01 3.82413E-04 2.77175E-04
 -1      9312-3.08752E+00-8.49780E+00 8.69812E-03-1.27760E+01 4.65259E-04 3.37462E-04
 -1      9313-4.72419E+00-6.29421E+00 1.00536E-02-1.27950E+01-3.38340E-04-3.21293E-04
 -1      9314-4.72316E+00-6.29526E+00 1.00188E-02-1.27726E+01-2.69361E-04-2.63257E-04
 -1      9315-4.72240E+00-6.29606E+00 9.99859E-03-1.27558E+01-1.94831E-04-1.97090E-04
 -1      9316-4.72189E+00-6.29659E+00 9.98781E-03-1.27445E+01-1.17480E-04-1.22526E-04
 -1      9317-4.72164E+00-6.29686E+00 9.98413E-03-1.27389E+01-3.93277E-05-4.16468E-05
 -1      9318-4.72164E+00-6.29686E+00 9.98413E-03-1.27389E+01 3.93277E-05 4.16468E-05
 -1      9319-4.72189E+00-6.29659E+00 9.98781E-03-1.27445E+01 1.17480E-04 1.22526E-04
 -1      9320-4.72240E+00-6.29606E+00 9.99859E-03-1.27558E+01 1.94831E-04 1.97090E-04
 -1      9321-4.72316E+00-6.29526E+00 1.00188E-02-1.27726E+01 2.69361E-04 2.63257E-04
 -1      9322-4.72419E+00-6.29421E+00 1.00536E-02-1.27950E+01 3.38340E-04 3.21293E-04
 -1      9323-6.37934E+00-4.08763E+00 1.12605E-02-1.25263E+01-2.49148E-04-3.10290E-04
 -1      9324-6.37306E+00-4.09394E+00 1.12167E-02-1.25043E+01-1.93260E-04-2.54574E-04
 -1      9325-6.36836E+00-4.09868E+00 1.11893E-02-1.24879E+01-1.36668E-04-1.90713E-04
 -1      9326-6.36523E+00-4.10184E+00 1.11741E-02-1.24769E+01-8.11367E-05-1.18505E-04
 -1      9327-6.36367E+00-4.10343E+00 1.11672E-02-1.24714E+01-2.68468E-05-4.02177E-05
 -1      9328-6.36367E+00-4.10343E+00 1.11672E-02-1.24714E+01 2.68468E-05 4.02177E-05
 -1      9329-6.36523E+00-4.10184E+00 1.11741E-02-1.24769E+01 8.11367E-05 1.18505E-04
 -1      9330-6.36836E+00-4.09868E+00 1.11893E-02-1.24879E+01 1.36668E-04 1.90713E-04
 -1      9331-6.37306E+00-4.09394E+00 1.12167E-02-1.25043E+01 1.93260E-04 2.54574E-04
 -1      9332-6.37934E+00-4.08763E+00 1.12605E-02-1.25263E+01 2.49148E-04 3.10290E-04
 -1      9333-7.99485E+00-1.92944E+00 1.22603E-02-1.19616E+01-1.83976E-04-3.04718E-04
 -1      9334-7.98343E+00-1.94092E+00 1.22091E-02-1.19409E+01-1.38712E-04-2.49887E-04
 -1      9335-7.97487E+00-1.94953E+00 1.21758E-02-1.19253E+01-9.55977E-05-1.87068E-04
 -1      9336-7.96916E+00-1.95528E+00 1.21564E-02-1.19149E+01-5.56069E-05-1.16190E-04
 -1      9337-7.96631E+00-1.95815E+00 1.21476E-02-1.19097E+01-1.82207E-05-3.94365E-05
 -1      9338-7.96631E+00-1.95815E+00 1.21476E-02-1.19097E+01 1.82207E-05 3.94365E-05
 -1      9339-7.96916E+00-1.95528E+00 1.21564E-02-1.19149E+01 5.56069E-05 1.16190E-04
 -1      9340-7.97487E+00-1.94953E+00 1.21758E-02-1.19253E+01 9.55977E-05 1.87068E-04
 -1      9341-7.98343E+00-1.94092E+00 1.22091E-02-1.19409E+01 1.38712E-04 2.49887E-04
 -1      9342-7.99485E+00-1.92944E+00 1.22603E-02-1.19616E+01 1.83976E-04 3.04718E-04
 -1      9343-9.51392E+00 1.25739E-01 1.30231E-02-1.11026E+01-1.35638E-04-3.04720E-04
 -1      9344-9.49751E+00 1.09250E-01 1.29654E-02-1.10837E+01-9.85818E-05-2.49120E-04
 -1      9345-9.48521E+00 9.68783E-02 1.29268E-02-1.10696E+01-6.55103E-05-1.86058E-04
 -1      9346-9.47701E+00 8.86272E-02 1.29037E-02-1.10601E+01-3.69705E-05-1.15381E-04
 -1      9347-9.47291E+00 8.45006E-02 1.28929E-02-1.10554E+01-1.18999E-05-3.91292E-05
 -1      9348-9.47291E+00 8.45006E-02 1.28929E-02-1.10554E+01 1.18999E-05 3.91292E-05
 -1      9349-9.47701E+00 8.86272E-02 1.29037E-02-1.10601E+01 3.69705E-05 1.15381E-04
 -1      9350-9.48521E+00 9.68783E-02 1.29268E-02-1.10696E+01 6.55103E-05 1.86058E-04
 -1      9351-9.49751E+00 1.09250E-01 1.29654E-02-1.10837E+01 9.85818E-05 2.49120E-04
 -1      9352-9.51392E+00 1.25739E-01 1.30231E-02-1.11026E+01 1.35638E-04 3.04720E-04
 -1      9353-1.08805E+01 2.02025E+00 1.35120E-02-9.96094E+00-1.01055E-04-3.10829E-04
 -1      9354-1.08594E+01 1.99899E+00 1.34480E-02-9.94472E+00-6.99174E-05-2.52852E-04
 -1      9355-1.08435E+01 1.98305E+00 1.34043E-02-9.93255E+00-4.40110E-05-1.88140E-04
 -1      9356-1.08330E+01 1.97241E+00 1.33777E-02-9.92444E+00-2.36344E-05-1.16387E-04
 -1      9357-1.08277E+01 1.96710E+00 1.33651E-02-9.92038E+00-7.38142E-06-3.94248E-05
 -1      9358-1.08277E+01 1.96710E+00 1.33651E-02-9.92038E+00 7.38142E-06 3.94248E-05
 -1      9359-1.08330E+01 1.97241E+00 1.33777E-02-9.92444E+00 2.36344E-05 1.16387E-04
 -1      9360-1.08435E+01 1.98305E+00 1.34043E-02-9.93255E+00 4.40110E-05 1.88140E-04
 -1      9361-1.08594E+01 1.99899E+00 1.34480E-02-9.94472E+00 6.99174E-05 2.52852E-04
 -1      9362-1.08805E+01 2.02025E+00 1.35120E-02-9.96094E+00 1.01055E-04 3.10829E-04
 -1      9363-1.20395E+01 3.69406E+00 1.36635E-02-8.55960E+00-7.99636E-05-3.24565E-04
 -1      9364-1.20140E+01 3.66840E+00 1.35935E-02-8.54680E+00-5.20948E-05-2.62451E-04
 -1      9365-1.19949E+01 3.64915E+00 1.35448E-02-8.53719E+00-3.04435E-05-1.94381E-04
 -1      9366-1.19821E+01 3.63632E+00 1.35146E-02-8.53078E+00-1.51354E-05-1.19877E-04
 -1      9367-1.19757E+01 3.62990E+00 1.35002E-02-8.52758E+00-4.48540E-06-4.05451E-05
 -1      9368-1.19757E+01 3.62990E+00 1.35002E-02-8.52758E+00 4.48540E-06 4.05451E-05
 -1      9369-1.19821E+01 3.63632E+00 1.35146E-02-8.53078E+00 1.51354E-05 1.19877E-04
 -1      9370-1.19949E+01 3.64915E+00 1.35448E-02-8.53719E+00 3.04435E-05 1.94381E-04
 -1      9371-1.20140E+01 3.66840E+00 1.35935E-02-8.54680E+00 5.20948E-05 2.62451E-04
 -1      9372-1.20395E+01 3.69406E+00 1.36635E-02-8.55960E+00 7.99636E-05 3.24565E-04
 -1      9373-1.29373E+01 5.08609E+00 1.33783E-02-6.93400E+00-7.41336E-05-3.48912E-04
 -1      9374-1.29079E+01 5.05656E+00 1.33024E-02-6.92538E+00-4.60601E-05-2.80409E-04
 -1      9375-1.28859E+01 5.03441E+00 1.32487E-02-6.91891E+00-2.52739E-05-2.06643E-04
 -1      9376-1.28713E+01 5.01964E+00 1.32151E-02-6.91460E+00-1.16733E-05-1.26995E-04
 -1      9377-1.28639E+01 5.01226E+00 1.31988E-02-6.91244E+00-3.26962E-06-4.28775E-05
 -1      9378-1.28639E+01 5.01226E+00 1.31988E-02-6.91244E+00 3.26962E-06 4.28775E-05
 -1      9379-1.28713E+01 5.01964E+00 1.32151E-02-6.91460E+00 1.16733E-05 1.26995E-04
 -1      9380-1.28859E+01 5.03441E+00 1.32487E-02-6.91891E+00 2.52739E-05 2.06643E-04
 -1      9381-1.29079E+01 5.05656E+00 1.33024E-02-6.92538E+00 4.60601E-05 2.80409E-04
 -1      9382-1.29373E+01 5.08609E+00 1.33783E-02-6.93400E+00 7.41336E-05 3.48912E-04
 -1      9383-1.35233E+01 6.13659E+00 1.25172E-02-5.13389E+00-8.67508E-05-3.88682E-04
 -1      9384-1.34909E+01 6.10394E+00 1.24358E-02-5.13017E+00-5.38400E-05-3.10634E-04
 -1      9385-1.34666E+01 6.07945E+00 1.23775E-02-5.12737E+00-2.97303E-05-2.27793E-04
 -1      9386-1.34504E+01 6.06311E+00 1.23404E-02-5.12550E+00-1.39052E-05-1.39491E-04
 -1      9387-1.34423E+01 6.05495E+00 1.23224E-02-5.12457E+00-3.93990E-06-4.70094E-05
 -1      9388-1.34423E+01 6.05495E+00 1.23224E-02-5.12457E+00 3.93990E-06 4.70094E-05
 -1      9389-1.34504E+01 6.06311E+00 1.23404E-02-5.12550E+00 1.39052E-05 1.39491E-04
 -1      9390-1.34666E+01 6.07945E+00 1.23775E-02-5.12737E+00 2.97303E-05 2.27793E-04
 -1      9391-1.34909E+01 6.10394E+00 1.24358E-02-5.13017E+00 5.38400E-05 3.10634E-04
 -1      9392-1.35233E+01 6.13659E+00 1.25172E-02-5.13389E+00 8.67508E-05 3.88682E-04
 -1      9393-1.37530E+01 6.79091E+00 1.09038E-02-3.22493E+00-1.21734E-04-4.50794E-04
 -1      9394-1.37185E+01 6.75613E+00 1.08180E-02-3.22671E+00-7.80183E-05-3.58693E-04
 -1      9395-1.36926E+01 6.73004E+00 1.07557E-02-3.22804E+00-4.54374E-05-2.61901E-04
 -1      9396-1.36754E+01 6.71265E+00 1.07156E-02-3.22892E+00-2.27266E-05-1.59842E-04
 -1      9397-1.36668E+01 6.70395E+00 1.06960E-02-3.22936E+00-6.78196E-06-5.37707E-05
 -1      9398-1.36668E+01 6.70395E+00 1.06960E-02-3.22936E+00 6.78196E-06 5.37707E-05
 -1      9399-1.36754E+01 6.71265E+00 1.07156E-02-3.22892E+00 2.27266E-05 1.59842E-04
 -1      9400-1.36926E+01 6.73004E+00 1.07557E-02-3.22804E+00 4.54374E-05 2.61901E-04
 -1      9401-1.37185E+01 6.75613E+00 1.08180E-02-3.22671E+00 7.80183E-05 3.58693E-04
 -1      9402-1.37530E+01 6.79091E+00 1.09038E-02-3.22493E+00 1.21734E-04 4.50794E-04
 -1      9403-1.35917E+01 7.00491E+00 8.33635E-03-1.28968E+00-1.82933E-04-5.44521E-04
 -1      9404-1.35564E+01 6.96931E+00 8.24791E-03-1.29737E+00-1.21148E-04-4.32095E-04
 -1      9405-1.35299E+01 6.94261E+00 8.18284E-03-1.30314E+00-7.40173E-05-3.14485E-04
 -1      9406-1.35123E+01 6.92480E+00 8.14039E-03-1.30698E+00-3.90416E-05-1.91410E-04
 -1      9407-1.35035E+01 6.91590E+00 8.11941E-03-1.30891E+00-1.20894E-05-6.42957E-05
 -1      9408-1.35035E+01 6.91590E+00 8.11941E-03-1.30891E+00 1.20894E-05 6.42957E-05
 -1      9409-1.35123E+01 6.92480E+00 8.14039E-03-1.30698E+00 3.90416E-05 1.91410E-04
 -1      9410-1.35299E+01 6.94261E+00 8.18284E-03-1.30314E+00 7.40173E-05 3.14485E-04
 -1      9411-1.35564E+01 6.96931E+00 8.24791E-03-1.29737E+00 1.21148E-04 4.32095E-04
 -1      9412-1.35917E+01 7.00491E+00 8.33635E-03-1.28968E+00 1.82933E-04 5.44521E-04
 -1      9413-1.30198E+01 6.75229E+00 4.60888E-03 5.72967E-01-2.73194E-04-6.81760E-04
 -1      9414-1.29854E+01 6.71749E+00 4.52059E-03 5.59251E-01-1.85119E-04-5.40629E-04
 -1      9415-1.29596E+01 6.69139E+00 4.45459E-03 5.48962E-01-1.16704E-04-3.92777E-04
 -1      9416-1.29424E+01 6.67398E+00 4.41073E-03 5.42103E-01-6.35647E-05-2.38662E-04
 -1      9417-1.29338E+01 6.66528E+00 4.38893E-03 5.38673E-01-2.00903E-05-8.00779E-05
 -1      9418-1.29338E+01 6.66528E+00 4.38893E-03 5.38673E-01 2.00903E-05 8.00779E-05
 -1      9419-1.29424E+01 6.67398E+00 4.41073E-03 5.42103E-01 6.35647E-05 2.38662E-04
 -1      9420-1.29596E+01 6.69139E+00 4.45459E-03 5.48962E-01 1.16704E-04 3.92777E-04
 -1      9421-1.29854E+01 6.71749E+00 4.52059E-03 5.59251E-01 1.85119E-04 5.40629E-04
 -1      9422-1.30198E+01 6.75229E+00 4.60888E-03 5.72967E-01 2.73194E-04 6.81760E-04
 -1      9423-1.20397E+01 6.03338E+00-4.59395E-04 2.25090E+00-3.93309E-04-8.76865E-04
 -1      9424-1.20081E+01 6.00132E+00-5.43754E-04 2.23148E+00-2.70710E-04-6.96089E-04
 -1      9425-1.19844E+01 5.97727E+00-6.08635E-04 2.21692E+00-1.74204E-04-5.05514E-04
 -1      9426-1.19685E+01 5.96124E+00-6.51880E-04 2.20720E+00-9.67768E-05-3.06735E-04
 -1      9427-1.19606E+01 5.95323E+00-6.73859E-04 2.20235E+00-3.09771E-05-1.02849E-04
 -1      9428-1.19606E+01 5.95323E+00-6.73859E-04 2.20235E+00 3.09771E-05 1.02849E-04
 -1      9429-1.19685E+01 5.96124E+00-6.51880E-04 2.20720E+00 9.67768E-05 3.06735E-04
 -1      9430-1.19844E+01 5.97727E+00-6.08635E-04 2.21692E+00 1.74204E-04 5.05514E-04
 -1      9431-1.20081E+01 6.00132E+00-5.43754E-04 2.23148E+00 2.70710E-04 6.96089E-04
 -1      9432-1.20397E+01 6.03338E+00-4.59395E-04 2.25090E+00 3.93309E-04 8.76865E-04
 -1      9433-1.06819E+01 4.88488E+00-7.00016E-03 3.62552E+00-5.41653E-04-1.14497E-03
 -1      9434-1.06552E+01 4.85775E+00-7.07664E-03 3.60129E+00-3.77946E-04-9.08939E-04
 -1      9435-1.06352E+01 4.83741E+00-7.13371E-03 3.58311E+00-2.47516E-04-6.58431E-04
 -1      9436-1.06219E+01 4.82384E+00-7.17472E-03 3.57099E+00-1.39898E-04-3.99073E-04
 -1      9437-1.06152E+01 4.81706E+00-7.19547E-03 3.56493E+00-4.52256E-05-1.33664E-04
 -1      9438-1.06152E+01 4.81706E+00-7.19547E-03 3.56493E+00 4.52256E-05 1.33664E-04
 -1      9439-1.06219E+01 4.82384E+00-7.17472E-03 3.57099E+00 1.39898E-04 3.99073E-04
 -1      9440-1.06352E+01 4.83741E+00-7.13371E-03 3.58311E+00 2.47516E-04 6.58431E-04
 -1      9441-1.06552E+01 4.85775E+00-7.07664E-03 3.60129E+00 3.77946E-04 9.08939E-04
 -1      9442-1.06819E+01 4.88488E+00-7.00016E-03 3.62552E+00 5.41653E-04 1.14497E-03
 -1      9443-9.01093E+00 3.38916E+00-1.51121E-02 4.58283E+00-7.14559E-04-1.49413E-03
 -1      9444-8.99152E+00 3.36929E+00-1.51656E-02 4.55533E+00-5.09564E-04-1.17503E-03
 -1      9445-8.97699E+00 3.35439E+00-1.52143E-02 4.53470E+00-3.41458E-04-8.44989E-04
 -1      9446-8.96730E+00 3.34446E+00-1.52383E-02 4.52095E+00-1.96243E-04-5.06668E-04
 -1      9447-8.96245E+00 3.33949E+00-1.52486E-02 4.51407E+00-6.40618E-05-1.68679E-04
 -1      9448-8.96245E+00 3.33949E+00-1.52486E-02 4.51407E+00 6.40618E-05 1.68679E-04
 -1      9449-8.96730E+00 3.34446E+00-1.52383E-02 4.52095E+00 1.96243E-04 5.06668E-04
 -1      9450-8.97699E+00 3.35439E+00-1.52143E-02 4.53470E+00 3.41458E-04 8.44989E-04
 -1      9451-8.99152E+00 3.36929E+00-1.51656E-02 4.55533E+00 5.09564E-04 1.17503E-03
 -1      9452-9.01093E+00 3.38916E+00-1.51121E-02 4.58283E+00 7.14559E-04 1.49413E-03
 -1      9453-7.12848E+00 1.68155E+00-2.49604E-02 5.02902E+00-9.11905E-04-1.92718E-03
 -1      9454-7.11876E+00 1.67122E+00-2.50104E-02 5.00049E+00-6.73342E-04-1.47815E-03
 -1      9455-7.11145E+00 1.66350E+00-2.49800E-02 4.97911E+00-4.65930E-04-1.02912E-03
 -1      9456-7.10660E+00 1.65835E+00-2.49682E-02 4.96486E+00-2.76062E-04-6.10128E-04
 -1      9457-7.10418E+00 1.65577E+00-2.49659E-02 4.95774E+00-9.16695E-05-2.02412E-04
 -1      9458-7.10418E+00 1.65577E+00-2.49659E-02 4.95774E+00 9.16695E-05 2.02412E-04
 -1      9459-7.10660E+00 1.65835E+00-2.49682E-02 4.96486E+00 2.76062E-04 6.10128E-04
 -1      9460-7.11145E+00 1.66350E+00-2.49800E-02 4.97911E+00 4.65930E-04 1.02912E-03
 -1      9461-7.11876E+00 1.67122E+00-2.50104E-02 5.00049E+00 6.73342E-04 1.47815E-03
 -1      9462-7.12848E+00 1.68155E+00-2.49604E-02 5.02902E+00 9.11905E-04 1.92718E-03
 -1      9463-5.17351E+00-4.58738E-02-3.72409E-02 4.90936E+00-1.10829E-03-2.49310E-03
 -1      9464-5.17541E+00-4.44465E-02-3.70338E-02 4.88272E+00-8.62151E-04-1.83786E-03
 -1      9465-5.17695E+00-4.34598E-02-3.70320E-02 4.86276E+00-6.21693E-04-1.30642E-03
 -1      9466-5.17800E+00-4.27953E-02-3.69992E-02 4.84945E+00-3.73893E-04-7.72780E-04
 -1      9467-5.17852E+00-4.24553E-02-3.69630E-02 4.84279E+00-1.24615E-04-2.54567E-04
 -1      9468-5.17852E+00-4.24553E-02-3.69630E-02 4.84279E+00 1.24615E-04 2.54567E-04
 -1      9469-5.17800E+00-4.27953E-02-3.69992E-02 4.84945E+00 3.73893E-04 7.72780E-04
 -1      9470-5.17695E+00-4.34598E-02-3.70320E-02 4.86276E+00 6.21693E-04 1.30642E-03
 -1      9471-5.17541E+00-4.44465E-02-3.70338E-02 4.88272E+00 8.62151E-04 1.83786E-03
 -1      9472-5.17351E+00-4.58738E-02-3.72409E-02 4.90936E+00 1.10829E-03 2.49310E-03
 -1      9473-3.31770E+00-1.54416E+00-5.30160E-02 4.22815E+00-1.19662E-03-3.53461E-03
 -1      9474-3.33317E+00-1.52974E+00-5.37320E-02 4.20662E+00-9.05955E-04-3.12662E-03
 -1      9475-3.34402E+00-1.51852E+00-5.36466E-02 4.19046E+00-6.06370E-04-2.33658E-03
 -1      9476-3.35083E+00-1.51089E+00-5.34904E-02 4.17967E+00-3.45083E-04-1.47064E-03
 -1      9477-3.35410E+00-1.50704E+00-5.34152E-02 4.17427E+00-1.11779E-04-5.06367E-04
 -1      9478-3.35410E+00-1.50704E+00-5.34152E-02 4.17427E+00 1.11779E-04 5.06367E-04
 -1      9479-3.35083E+00-1.51089E+00-5.34904E-02 4.17967E+00 3.45083E-04 1.47064E-03
 -1      9480-3.34402E+00-1.51852E+00-5.36466E-02 4.19046E+00 6.06370E-04 2.33658E-03
 -1      9481-3.33317E+00-1.52974E+00-5.37320E-02 4.20662E+00 9.05955E-04 3.12662E-03
 -1      9482-3.31770E+00-1.54416E+00-5.30160E-02 4.22815E+00 1.19662E-03 3.53461E-03
 -1      9483-1.76796E+00-2.51564E+00-8.04045E-02 3.06494E+00-4.89614E-04-6.67462E-03
 -1      9484-1.79113E+00-2.48395E+00-7.81272E-02 3.05146E+00 3.34484E-05-7.07533E-03
 -1      9485-1.80635E+00-2.46009E+00-7.85908E-02 3.04103E+00 2.88657E-04-6.90856E-03
 -1      9486-1.81551E+00-2.44416E+00-7.99596E-02 3.03389E+00 3.01464E-04-5.05194E-03
 -1      9487-1.81981E+00-2.43619E+00-8.09583E-02 3.03026E+00 1.24477E-04-1.84832E-03
 -1      9488-1.81981E+00-2.43619E+00-8.09583E-02 3.03026E+00-1.24477E-04 1.84832E-03
 -1      9489-1.81551E+00-2.44416E+00-7.99596E-02 3.03389E+00-3.01464E-04 5.05194E-03
 -1      9490-1.80635E+00-2.46009E+00-7.85908E-02 3.04103E+00-2.88657E-04 6.90856E-03
 -1      9491-1.79113E+00-2.48395E+00-7.81272E-02 3.05146E+00-3.34484E-05 7.07533E-03
 -1      9492-1.76796E+00-2.51564E+00-8.04045E-02 3.06494E+00 4.89614E-04 6.67462E-03
 -1      9493-7.30425E-01-2.59727E+00-9.53825E-02 1.58249E+00 1.81522E-03-1.12051E-02
 -1      9494-7.56397E-01-2.55090E+00-1.08456E-01 1.57710E+00 3.56845E-03-1.81759E-02
 -1      9495-7.72945E-01-2.51609E+00-1.19577E-01 1.57221E+00 3.91931E-03-1.75705E-02
 -1      9496-7.82668E-01-2.49287E+00-1.27106E-01 1.56857E+00 2.94186E-03-1.22735E-02
 -1      9497-7.87155E-01-2.48127E+00-1.30825E-01 1.56665E+00 1.08223E-03-4.37026E-03
 -1      9498-7.87155E-01-2.48127E+00-1.30825E-01 1.56665E+00-1.08223E-03 4.37026E-03
 -1      9499-7.82668E-01-2.49287E+00-1.27106E-01 1.56857E+00-2.94186E-03 1.22735E-02
 -1      9500-7.72945E-01-2.51609E+00-1.19577E-01 1.57221E+00-3.91931E-03 1.75705E-02
 -1      9501-7.56397E-01-2.55090E+00-1.08456E-01 1.57710E+00-3.56845E-03 1.81759E-02
 -1      9502-7.30425E-01-2.59727E+00-9.53825E-02 1.58249E+00-1.81522E-03 1.12051E-02
 -1      9503-2.14161E+00-2.05230E+01 1.47039E+00-5.56390E+00 1.38543E-01-7.39932E-02
 -1      9504-2.60865E+00-2.08824E+01 3.52023E-01-5.72755E+00 6.04471E-01-1.09065E-01
 -1      9505-2.91953E+00-2.10882E+01-4.22115E-01-5.83197E+00 5.85012E-01-1.03711E-01
 -1      9506-3.10832E+00-2.12030E+01-8.99622E-01-5.89528E+00 3.92836E-01-7.16197E-02
 -1      9507-3.19754E+00-2.12548E+01-1.12666E+00-5.92538E+00 1.36515E-01-2.53347E-02
 -1      9508-3.19754E+00-2.12548E+01-1.12666E+00-5.92538E+00-1.36515E-01 2.53347E-02
 -1      9509-3.10832E+00-2.12030E+01-8.99622E-01-5.89528E+00-3.92836E-01 7.16197E-02
 -1      9510-2.91953E+00-2.10882E+01-4.22115E-01-5.83197E+00-5.85012E-01 1.03711E-01
 -1      9511-2.60865E+00-2.08824E+01 3.52023E-01-5.72755E+00-6.04471E-01 1.09065E-01
 -1      9512-2.14161E+00-2.05230E+01 1.47039E+00-5.56390E+00-1.38543E-01 7.39932E-02
 -1      9513-2.92309E-01-2.21574E+01-1.05010E-01-6.76481E+00-1.86478E-02-5.44431E-02
 -1      9514-2.50743E-01-2.23525E+01 3.75139E-01-6.80468E+00-2.52214E-01-7.70435E-02
 -1      9515-2.68120E-01-2.24676E+01 5.40708E-01-6.84615E+00-2.08009E-01-6.92297E-02
 -1      9516-2.96674E-01-2.25330E+01 5.81241E-01-6.87739E+00-1.21873E-01-4.69136E-02
 -1      9517-3.14961E-01-2.25628E+01 5.84485E-01-6.89382E+00-3.92900E-02-1.65327E-02
 -1      9518-3.14961E-01-2.25628E+01 5.84485E-01-6.89382E+00 3.92900E-02 1.65327E-02
 -1      9519-2.96674E-01-2.25330E+01 5.81241E-01-6.87739E+00 1.21873E-01 4.69136E-02
 -1      9520-2.68120E-01-2.24676E+01 5.40708E-01-6.84615E+00 2.08009E-01 6.92297E-02
 -1      9521-2.50743E-01-2.23525E+01 3.75139E-01-6.80468E+00 2.52214E-01 7.70435E-02
 -1      9522-2.92309E-01-2.21574E+01-1.05010E-01-6.76481E+00 1.86478E-02 5.44431E-02
 -1      9523 1.42374E+00-2.20280E+01 1.87507E-01-7.70249E+00-5.29511E-02-2.56232E-03
 -1      9524 1.29575E+00-2.22101E+01 1.02321E-01-7.69045E+00-7.90599E-02-1.59374E-02
 -1      9525 1.24099E+00-2.23335E+01 1.65220E-01-7.68815E+00-1.11028E-01-2.17384E-02
 -1      9526 1.21455E+00-2.24098E+01 2.35716E-01-7.68988E+00-8.92065E-02-1.70886E-02
 -1      9527 1.20309E+00-2.24462E+01 2.75295E-01-7.69169E+00-3.32977E-02-6.33869E-03
 -1      9528 1.20309E+00-2.24462E+01 2.75295E-01-7.69169E+00 3.32977E-02 6.33869E-03
 -1      9529 1.21455E+00-2.24098E+01 2.35716E-01-7.68988E+00 8.92065E-02 1.70886E-02
 -1      9530 1.24099E+00-2.23335E+01 1.65220E-01-7.68815E+00 1.11028E-01 2.17384E-02
 -1      9531 1.29575E+00-2.22101E+01 1.02321E-01-7.69045E+00 7.90599E-02 1.59374E-02
 -1      9532 1.42374E+00-2.20280E+01 1.87507E-01-7.70249E+00 5.29511E-02 2.56232E-03
 -1      9533 1.97350E+00-2.15649E+01 5.07451E-02-8.58940E+00-1.02792E-02-1.15993E-04
 -1      9534 1.94717E+00-2.15162E+01 6.81875E-02-8.57006E+00-1.69471E-02 1.20726E-03
 -1      9535 1.90796E+00-2.15166E+01 5.31356E-02-8.55736E+00-1.24650E-02 1.07585E-03
 -1      9536 1.87968E+00-2.15292E+01 4.82022E-02-8.54997E+00-1.01039E-02 1.27488E-04
 -1      9537 1.86562E+00-2.15384E+01 4.89425E-02-8.54663E+00-4.10652E-03-1.04553E-04
 -1      9538 1.86562E+00-2.15384E+01 4.89425E-02-8.54663E+00 4.10652E-03 1.04553E-04
 -1      9539 1.87968E+00-2.15292E+01 4.82022E-02-8.54997E+00 1.01039E-02-1.27488E-04
 -1      9540 1.90796E+00-2.15166E+01 5.31356E-02-8.55736E+00 1.24650E-02-1.07585E-03
 -1      9541 1.94717E+00-2.15162E+01 6.81875E-02-8.57006E+00 1.69471E-02-1.20726E-03
 -1      9542 1.97350E+00-2.15649E+01 5.07451E-02-8.58940E+00 1.02792E-02 1.15993E-04
 -1      9543 1.90721E+00-2.03695E+01 1.47170E-02-9.52623E+00-6.09257E-04 6.92361E-04
 -1      9544 1.87499E+00-2.03380E+01 9.86586E-03-9.50974E+00 2.03804E-03 9.88488E-04
 -1      9545 1.85427E+00-2.03084E+01 1.15009E-02-9.49692E+00 1.51418E-03 1.24065E-03
 -1      9546 1.83893E+00-2.02900E+01 8.61991E-03-9.48830E+00 1.73876E-03 1.18515E-03
 -1      9547 1.83064E+00-2.02816E+01 5.91220E-03-9.48400E+00 7.80435E-04 4.82417E-04
 -1      9548 1.83064E+00-2.02816E+01 5.91220E-03-9.48400E+00-7.80435E-04-4.82417E-04
 -1      9549 1.83893E+00-2.02900E+01 8.61991E-03-9.48830E+00-1.73876E-03-1.18515E-03
 -1      9550 1.85427E+00-2.03084E+01 1.15009E-02-9.49692E+00-1.51418E-03-1.24065E-03
 -1      9551 1.87499E+00-2.03380E+01 9.86586E-03-9.50974E+00-2.03804E-03-9.88488E-04
 -1      9552 1.90721E+00-2.03695E+01 1.47170E-02-9.52623E+00 6.09257E-04-6.92361E-04
 -1      9553 1.33446E+00-1.88203E+01 3.94462E-03-1.04805E+01-8.61937E-04-3.02372E-04
 -1      9554 1.31002E+00-1.87917E+01 4.09577E-03-1.04647E+01 2.63078E-04 2.70879E-05
 -1      9555 1.29091E+00-1.87712E+01 2.53410E-03-1.04529E+01 1.00257E-03 1.07844E-04
 -1      9556 1.27879E+00-1.87565E+01 2.47214E-03-1.04448E+01 6.93736E-04 5.48858E-05
 -1      9557 1.27287E+00-1.87488E+01 2.53904E-03-1.04408E+01 2.41850E-04 1.88249E-05
 -1      9558 1.27287E+00-1.87488E+01 2.53904E-03-1.04408E+01-2.41850E-04-1.88249E-05
 -1      9559 1.27879E+00-1.87565E+01 2.47214E-03-1.04448E+01-6.93736E-04-5.48858E-05
 -1      9560 1.29091E+00-1.87712E+01 2.53410E-03-1.04529E+01-1.00257E-03-1.07844E-04
 -1      9561 1.31002E+00-1.87917E+01 4.09577E-03-1.04647E+01-2.63078E-04-2.70879E-05
 -1      9562 1.33446E+00-1.88203E+01 3.94462E-03-1.04805E+01 8.61937E-04 3.02372E-04
 -1      9563 3.88223E-01-1.70321E+01 3.71512E-03-1.13742E+01-1.03328E-03-4.29614E-04
 -1      9564 3.68385E-01-1.70122E+01 3.74700E-03-1.13577E+01-7.26493E-04-4.05324E-04
 -1      9565 3.53744E-01-1.69968E+01 4.00549E-03-1.13454E+01-4.81331E-04-2.99106E-04
 -1      9566 3.43836E-01-1.69866E+01 3.85414E-03-1.13371E+01-1.95498E-04-1.71324E-04
 -1      9567 3.38885E-01-1.69815E+01 3.80095E-03-1.13330E+01-5.12870E-05-5.79468E-05
 -1      9568 3.38885E-01-1.69815E+01 3.80095E-03-1.13330E+01 5.12870E-05 5.79469E-05
 -1      9569 3.43836E-01-1.69866E+01 3.85414E-03-1.13371E+01 1.95498E-04 1.71324E-04
 -1      9570 3.53744E-01-1.69968E+01 4.00549E-03-1.13454E+01 4.81331E-04 2.99106E-04
 -1      9571 3.68385E-01-1.70122E+01 3.74700E-03-1.13577E+01 7.26493E-04 4.05324E-04
 -1      9572 3.88223E-01-1.70321E+01 3.71512E-03-1.13742E+01 1.03328E-03 4.29614E-04
 -1      9573-8.32680E-01-1.50677E+01 5.44404E-03-1.21312E+01-8.90917E-04-4.22130E-04
 -1      9574-8.47123E-01-1.50534E+01 5.51597E-03-1.21135E+01-7.66552E-04-3.76016E-04
 -1      9575-8.57996E-01-1.50427E+01 5.55221E-03-1.21002E+01-5.73041E-04-3.04435E-04
 -1      9576-8.65203E-01-1.50356E+01 5.65839E-03-1.20914E+01-3.67366E-04-1.98786E-04
 -1      9577-8.68815E-01-1.50320E+01 5.68788E-03-1.20869E+01-1.23867E-04-6.77863E-05
 -1      9578-8.68815E-01-1.50320E+01 5.68788E-03-1.20869E+01 1.23867E-04 6.77863E-05
 -1      9579-8.65203E-01-1.50356E+01 5.65839E-03-1.20914E+01 3.67366E-04 1.98786E-04
 -1      9580-8.57996E-01-1.50427E+01 5.55221E-03-1.21002E+01 5.73041E-04 3.04435E-04
 -1      9581-8.47123E-01-1.50534E+01 5.51597E-03-1.21135E+01 7.66552E-04 3.76016E-04
 -1      9582-8.32680E-01-1.50677E+01 5.44404E-03-1.21312E+01 8.90917E-04 4.22130E-04
 -1      9583-2.24722E+00-1.29673E+01 7.47658E-03-1.26916E+01-6.33673E-04-3.83302E-04
 -1      9584-2.25642E+00-1.29582E+01 7.48774E-03-1.26727E+01-5.33646E-04-3.34020E-04
 -1      9585-2.26332E+00-1.29514E+01 7.52431E-03-1.26586E+01-4.04334E-04-2.60640E-04
 -1      9586-2.26795E+00-1.29468E+01 7.54386E-03-1.26491E+01-2.48645E-04-1.66586E-04
 -1      9587-2.27026E+00-1.29446E+01 7.56856E-03-1.26444E+01-8.48632E-05-5.78797E-05
 -1      9588-2.27026E+00-1.29446E+01 7.56856E-03-1.26444E+01 8.48632E-05 5.78797E-05
 -1      9589-2.26795E+00-1.29468E+01 7.54386E-03-1.26491E+01 2.48645E-04 1.66586E-04
 -1      9590-2.26332E+00-1.29514E+01 7.52431E-03-1.26586E+01 4.04334E-04 2.60640E-04
 -1      9591-2.25642E+00-1.29582E+01 7.48774E-03-1.26727E+01 5.33646E-04 3.34020E-04
 -1      9592-2.24722E+00-1.29673E+01 7.47658E-03-1.26916E+01 6.33673E-04 3.83302E-04
 -1      9593-3.78629E+00-1.07703E+01 9.37831E-03-1.30114E+01-4.44990E-04-3.55548E-04
 -1      9594-3.79036E+00-1.07663E+01 9.36719E-03-1.29918E+01-3.54236E-04-3.05296E-04
 -1      9595-3.79344E+00-1.07633E+01 9.37044E-03-1.29770E+01-2.56207E-04-2.37063E-04
 -1      9596-3.79549E+00-1.07613E+01 9.38172E-03-1.29672E+01-1.55477E-04-1.50471E-04
 -1      9597-3.79653E+00-1.07603E+01 9.38618E-03-1.29623E+01-5.17359E-05-5.14720E-05
 -1      9598-3.79653E+00-1.07603E+01 9.38618E-03-1.29623E+01 5.17359E-05 5.14720E-05
 -1      9599-3.79549E+00-1.07613E+01 9.38172E-03-1.29672E+01 1.55477E-04 1.50471E-04
 -1      9600-3.79344E+00-1.07633E+01 9.37044E-03-1.29770E+01 2.56207E-04 2.37063E-04
 -1      9601-3.79036E+00-1.07663E+01 9.36719E-03-1.29918E+01 3.54236E-04 3.05296E-04
 -1      9602-3.78629E+00-1.07703E+01 9.37831E-03-1.30114E+01 4.44990E-04 3.55548E-04
 -1      9603-5.38721E+00-8.51918E+00 1.09923E-02-1.30605E+01-3.19595E-04-3.35079E-04
 -1      9604-5.38627E+00-8.52016E+00 1.09679E-02-1.30406E+01-2.42832E-04-2.89106E-04
 -1      9605-5.38558E+00-8.52091E+00 1.09609E-02-1.30258E+01-1.69012E-04-2.24538E-04
 -1      9606-5.38513E+00-8.52142E+00 1.09606E-02-1.30159E+01-9.91740E-05-1.42715E-04
 -1      9607-5.38491E+00-8.52167E+00 1.09634E-02-1.30109E+01-3.27424E-05-4.90533E-05
 -1      9608-5.38491E+00-8.52167E+00 1.09634E-02-1.30109E+01 3.27424E-05 4.90533E-05
 -1      9609-5.38513E+00-8.52142E+00 1.09606E-02-1.30159E+01 9.91739E-05 1.42715E-04
 -1      9610-5.38558E+00-8.52091E+00 1.09609E-02-1.30258E+01 1.69012E-04 2.24538E-04
 -1      9611-5.38627E+00-8.52016E+00 1.09679E-02-1.30406E+01 2.42832E-04 2.89106E-04
 -1      9612-5.38721E+00-8.51918E+00 1.09923E-02-1.30605E+01 3.19595E-04 3.35079E-04
 -1      9613-6.99071E+00-6.26006E+00 1.22757E-02-1.28207E+01-2.35231E-04-3.22419E-04
 -1      9614-6.98486E+00-6.26598E+00 1.22428E-02-1.28014E+01-1.70853E-04-2.79048E-04
 -1      9615-6.98048E+00-6.27043E+00 1.22287E-02-1.27868E+01-1.13898E-04-2.17225E-04
 -1      9616-6.97757E+00-6.27340E+00 1.22243E-02-1.27771E+01-6.47103E-05-1.38177E-04
 -1      9617-6.97612E+00-6.27489E+00 1.22238E-02-1.27723E+01-2.08751E-05-4.74479E-05
 -1      9618-6.97612E+00-6.27489E+00 1.22238E-02-1.27723E+01 2.08751E-05 4.74479E-05
 -1      9619-6.97757E+00-6.27340E+00 1.22243E-02-1.27771E+01 6.47103E-05 1.38177E-04
 -1      9620-6.98048E+00-6.27043E+00 1.22287E-02-1.27868E+01 1.13898E-04 2.17225E-04
 -1      9621-6.98486E+00-6.26598E+00 1.22428E-02-1.28014E+01 1.70853E-04 2.79048E-04
 -1      9622-6.99071E+00-6.26006E+00 1.22757E-02-1.28207E+01 2.35231E-04 3.22419E-04
 -1      9623-8.53942E+00-4.04293E+00 1.32308E-02-1.22848E+01-1.74335E-04-3.16091E-04
 -1      9624-8.52877E+00-4.05366E+00 1.31916E-02-1.22665E+01-1.19732E-04-2.73315E-04
 -1      9625-8.52080E+00-4.06172E+00 1.31724E-02-1.22528E+01-7.52204E-05-2.12647E-04
 -1      9626-8.51549E+00-4.06710E+00 1.31644E-02-1.22437E+01-4.05581E-05-1.35268E-04
 -1      9627-8.51283E+00-4.06979E+00 1.31623E-02-1.22391E+01-1.27010E-05-4.64673E-05
 -1      9628-8.51283E+00-4.06979E+00 1.31623E-02-1.22391E+01 1.27010E-05 4.64673E-05
 -1      9629-8.51549E+00-4.06710E+00 1.31644E-02-1.22437E+01 4.05581E-05 1.35268E-04
 -1      9630-8.52080E+00-4.06172E+00 1.31724E-02-1.22528E+01 7.52204E-05 2.12647E-04
 -1      9631-8.52877E+00-4.05366E+00 1.31916E-02-1.22665E+01 1.19732E-04 2.73315E-04
 -1      9632-8.53942E+00-4.04293E+00 1.32308E-02-1.22848E+01 1.74335E-04 3.16091E-04
 -1      9633-9.97719E+00-1.92123E+00 1.38544E-02-1.14557E+01-1.28223E-04-3.14540E-04
 -1      9634-9.96191E+00-1.93660E+00 1.38103E-02-1.14392E+01-8.13089E-05-2.70734E-04
 -1      9635-9.95047E+00-1.94814E+00 1.37871E-02-1.14268E+01-4.62158E-05-2.10088E-04
 -1      9636-9.94285E+00-1.95583E+00 1.37764E-02-1.14186E+01-2.24814E-05-1.33463E-04
 -1      9637-9.93904E+00-1.95968E+00 1.37729E-02-1.14144E+01-6.54641E-06-4.58165E-05
 -1      9638-9.93904E+00-1.95968E+00 1.37729E-02-1.14144E+01 6.54641E-06 4.58165E-05
 -1      9639-9.94285E+00-1.95583E+00 1.37764E-02-1.14186E+01 2.24814E-05 1.33463E-04
 -1      9640-9.95047E+00-1.94814E+00 1.37871E-02-1.14268E+01 4.62158E-05 2.10088E-04
 -1      9641-9.96191E+00-1.93660E+00 1.38103E-02-1.14392E+01 8.13089E-05 2.70734E-04
 -1      9642-9.97719E+00-1.92123E+00 1.38544E-02-1.14557E+01 1.28223E-04 3.14540E-04
 -1      9643-1.12490E+01 4.87305E-02 1.41176E-02-1.03468E+01-9.30136E-05-3.16511E-04
 -1      9644-1.12293E+01 2.89727E-02 1.40695E-02-1.03328E+01-5.21007E-05-2.70499E-04
 -1      9645-1.12146E+01 1.41438E-02 1.40430E-02-1.03223E+01-2.41807E-05-2.09000E-04
 -1      9646-1.12048E+01 4.25228E-03 1.40299E-02-1.03153E+01-8.72964E-06-1.32467E-04
 -1      9647-1.11999E+01-6.94922E-04 1.40253E-02-1.03118E+01-1.87066E-06-4.54294E-05
 -1      9648-1.11999E+01-6.94922E-04 1.40253E-02-1.03118E+01 1.87066E-06 4.54294E-05
 -1      9649-1.12048E+01 4.25228E-03 1.40299E-02-1.03153E+01 8.72964E-06 1.32467E-04
 -1      9650-1.12146E+01 1.41438E-02 1.40430E-02-1.03223E+01 2.41807E-05 2.09000E-04
 -1      9651-1.12293E+01 2.89727E-02 1.40695E-02-1.03328E+01 5.21007E-05 2.70499E-04
 -1      9652-1.12490E+01 4.87305E-02 1.41176E-02-1.03468E+01 9.30136E-05 3.16511E-04
 -1      9653-1.23013E+01 1.80875E+00 1.39565E-02-8.98317E+00-6.80537E-05-3.21593E-04
 -1      9654-1.22776E+01 1.78497E+00 1.39050E-02-8.97237E+00-3.12934E-05-2.72387E-04
 -1      9655-1.22599E+01 1.76713E+00 1.38755E-02-8.96427E+00-8.40348E-06-2.09259E-04
 -1      9656-1.22481E+01 1.75523E+00 1.38604E-02-8.95886E+00 1.15411E-06-1.32206E-04
 -1      9657-1.22422E+01 1.74927E+00 1.38547E-02-8.95616E+00 1.49937E-06-4.52730E-05
 -1      9658-1.22422E+01 1.74927E+00 1.38547E-02-8.95616E+00-1.49937E-06 4.52730E-05
 -1      9659-1.22481E+01 1.75523E+00 1.38604E-02-8.95886E+00-1.15411E-06 1.32206E-04
 -1      9660-1.22599E+01 1.76713E+00 1.38755E-02-8.96427E+00 8.40348E-06 2.09259E-04
 -1      9661-1.22776E+01 1.78497E+00 1.39050E-02-8.97237E+00 3.12934E-05 2.72387E-04
 -1      9662-1.23013E+01 1.80875E+00 1.39565E-02-8.98317E+00 6.80537E-05 3.21593E-04
 -1      9663-1.30832E+01 3.30036E+00 1.32708E-02-7.40211E+00-5.50738E-05-3.30696E-04
 -1      9664-1.30561E+01 3.27307E+00 1.32163E-02-7.39518E+00-1.99789E-05-2.77170E-04
 -1      9665-1.30358E+01 3.25260E+00 1.31842E-02-7.38998E+00 4.24644E-07-2.11424E-04
 -1      9666-1.30222E+01 3.23894E+00 1.31672E-02-7.38650E+00 6.77803E-06-1.33011E-04
 -1      9667-1.30154E+01 3.23211E+00 1.31604E-02-7.38476E+00 3.43097E-06-4.54580E-05
 -1      9668-1.30154E+01 3.23211E+00 1.31604E-02-7.38476E+00-3.43097E-06 4.54580E-05
 -1      9669-1.30222E+01 3.23894E+00 1.31672E-02-7.38650E+00-6.77803E-06 1.33011E-04
 -1      9670-1.30358E+01 3.25260E+00 1.31842E-02-7.38998E+00-4.24643E-07 2.11424E-04
 -1      9671-1.30561E+01 3.27307E+00 1.32163E-02-7.39518E+00 1.99789E-05 2.77170E-04
 -1      9672-1.30832E+01 3.30036E+00 1.32708E-02-7.40211E+00 5.50738E-05 3.30696E-04
 -1      9673-1.35486E+01 4.46726E+00 1.19267E-02-5.65494E+00-5.76161E-05-3.46514E-04
 -1      9674-1.35186E+01 4.43716E+00 1.18699E-02-5.65248E+00-2.06948E-05-2.87006E-04
 -1      9675-1.34962E+01 4.41458E+00 1.18353E-02-5.65063E+00 5.49585E-07-2.17045E-04
 -1      9676-1.34813E+01 4.39951E+00 1.18163E-02-5.64939E+00 7.09375E-06-1.35808E-04
 -1      9677-1.34738E+01 4.39198E+00 1.18084E-02-5.64877E+00 3.57435E-06-4.62923E-05
 -1      9678-1.34738E+01 4.39198E+00 1.18084E-02-5.64877E+00-3.57435E-06 4.62923E-05
 -1      9679-1.34813E+01 4.39951E+00 1.18163E-02-5.64939E+00-7.09374E-06 1.35808E-04
 -1      9680-1.34962E+01 4.41458E+00 1.18353E-02-5.65063E+00-5.49585E-07 2.17045E-04
 -1      9681-1.35186E+01 4.43716E+00 1.18699E-02-5.65248E+00 2.06948E-05 2.87006E-04
 -1      9682-1.35486E+01 4.46726E+00 1.19267E-02-5.65494E+00 5.76161E-05 3.46514E-04
 -1      9683-1.36584E+01 5.25898E+00 9.76608E-03-3.80793E+00-8.04434E-05-3.74035E-04
 -1      9684-1.36266E+01 5.22699E+00 9.70793E-03-3.81042E+00-3.69543E-05-3.05880E-04
 -1      9685-1.36028E+01 5.20300E+00 9.67127E-03-3.81228E+00-1.05069E-05-2.29013E-04
 -1      9686-1.35869E+01 5.18699E+00 9.65025E-03-3.81351E+00 6.04532E-07-1.42347E-04
 -1      9687-1.35790E+01 5.17899E+00 9.64112E-03-3.81413E+00 1.42714E-06-4.83586E-05
 -1      9688-1.35790E+01 5.17899E+00 9.64112E-03-3.81413E+00-1.42714E-06 4.83586E-05
 -1      9689-1.35869E+01 5.18699E+00 9.65025E-03-3.81351E+00-6.04532E-07 1.42347E-04
 -1      9690-1.36028E+01 5.20300E+00 9.67127E-03-3.81228E+00 1.05069E-05 2.29013E-04
 -1      9691-1.36266E+01 5.22699E+00 9.70793E-03-3.81042E+00 3.69543E-05 3.05880E-04
 -1      9692-1.36584E+01 5.25898E+00 9.76608E-03-3.80793E+00 8.04434E-05 3.74035E-04
 -1      9693-1.33854E+01 5.63598E+00 6.62517E-03-1.94271E+00-1.28844E-04-4.21194E-04
 -1      9694-1.33529E+01 5.60328E+00 6.56697E-03-1.95040E+00-7.27032E-05-3.40239E-04
 -1      9695-1.33286E+01 5.57875E+00 6.52859E-03-1.95617E+00-3.55544E-05-2.52074E-04
 -1      9696-1.33124E+01 5.56240E+00 6.50550E-03-1.96001E+00-1.43976E-05-1.55521E-04
 -1      9697-1.33043E+01 5.55422E+00 6.49499E-03-1.96193E+00-3.58885E-06-5.26346E-05
 -1      9698-1.33043E+01 5.55422E+00 6.49499E-03-1.96193E+00 3.58885E-06 5.26346E-05
 -1      9699-1.33124E+01 5.56240E+00 6.50550E-03-1.96001E+00 1.43976E-05 1.55521E-04
 -1      9700-1.33286E+01 5.57875E+00 6.52859E-03-1.95617E+00 3.55544E-05 2.52074E-04
 -1      9701-1.33529E+01 5.60328E+00 6.56697E-03-1.95040E+00 7.27032E-05 3.40239E-04
 -1      9702-1.33854E+01 5.63598E+00 6.62517E-03-1.94271E+00 1.28844E-04 4.21194E-04
 -1      9703-1.27186E+01 5.57614E+00 2.36204E-03-1.54987E-01-2.07773E-04-4.99870E-04
 -1      9704-1.26869E+01 5.54417E+00 2.30525E-03-1.67855E-01-1.31652E-04-3.99974E-04
 -1      9705-1.26631E+01 5.52018E+00 2.26558E-03-1.77505E-01-7.72716E-05-2.93621E-04
 -1      9706-1.26473E+01 5.50419E+00 2.24011E-03-1.83936E-01-3.95682E-05-1.79936E-04
 -1      9707-1.26394E+01 5.49620E+00 2.22801E-03-1.87151E-01-1.20295E-05-6.06686E-05
 -1      9708-1.26394E+01 5.49620E+00 2.22801E-03-1.87151E-01 1.20295E-05 6.06687E-05
 -1      9709-1.26473E+01 5.50419E+00 2.24011E-03-1.83936E-01 3.95682E-05 1.79936E-04
 -1      9710-1.26631E+01 5.52018E+00 2.26558E-03-1.77505E-01 7.72716E-05 2.93621E-04
 -1      9711-1.26869E+01 5.54417E+00 2.30525E-03-1.67855E-01 1.31652E-04 3.99974E-04
 -1      9712-1.27186E+01 5.57614E+00 2.36204E-03-1.54987E-01 2.07773E-04 4.99870E-04
 -1      9713-1.16690E+01 5.08240E+00-3.10759E-03 1.44898E+00-3.20719E-04-6.27051E-04
 -1      9714-1.16398E+01 5.05283E+00-3.16160E-03 1.43139E+00-2.16611E-04-4.99538E-04
 -1      9715-1.16179E+01 5.03066E+00-3.20305E-03 1.41820E+00-1.37815E-04-3.64694E-04
 -1      9716-1.16033E+01 5.01588E+00-3.23103E-03 1.40941E+00-7.62560E-05-2.22290E-04
 -1      9717-1.15960E+01 5.00849E+00-3.24523E-03 1.40501E+00-2.43749E-05-7.47401E-05
 -1      9718-1.15960E+01 5.00849E+00-3.24523E-03 1.40501E+00 2.43749E-05 7.47401E-05
 -1      9719-1.16033E+01 5.01588E+00-3.23103E-03 1.40941E+00 7.62560E-05 2.22290E-04
 -1      9720-1.16179E+01 5.03066E+00-3.20305E-03 1.41820E+00 1.37815E-04 3.64694E-04
 -1      9721-1.16398E+01 5.05283E+00-3.16160E-03 1.43139E+00 2.16611E-04 4.99538E-04
 -1      9722-1.16690E+01 5.08240E+00-3.10759E-03 1.44898E+00 3.20719E-04 6.27051E-04
 -1      9723-1.02752E+01 4.19087E+00-9.77920E-03 2.75931E+00-4.68974E-04-8.25600E-04
 -1      9724-1.02503E+01 4.16559E+00-9.83082E-03 2.73799E+00-3.29234E-04-6.57511E-04
 -1      9725-1.02316E+01 4.14664E+00-9.87194E-03 2.72199E+00-2.19012E-04-4.78103E-04
 -1      9726-1.02191E+01 4.13401E+00-9.90460E-03 2.71133E+00-1.26093E-04-2.90842E-04
 -1      9727-1.02129E+01 4.12770E+00-9.92178E-03 2.70599E+00-4.12332E-05-9.76263E-05
 -1      9728-1.02129E+01 4.12770E+00-9.92178E-03 2.70599E+00 4.12332E-05 9.76263E-05
 -1      9729-1.02191E+01 4.13401E+00-9.90460E-03 2.71133E+00 1.26093E-04 2.90842E-04
 -1      9730-1.02316E+01 4.14664E+00-9.87194E-03 2.72199E+00 2.19012E-04 4.78103E-04
 -1      9731-1.02503E+01 4.16559E+00-9.83082E-03 2.73799E+00 3.29234E-04 6.57511E-04
 -1      9732-1.02752E+01 4.19087E+00-9.77920E-03 2.75931E+00 4.68974E-04 8.25600E-04
 -1      9733-8.60658E+00 2.97829E+00-1.75699E-02 3.67326E+00-6.50644E-04-1.11920E-03
 -1      9734-8.58800E+00 2.95929E+00-1.76115E-02 3.64978E+00-4.72298E-04-8.86644E-04
 -1      9735-8.57407E+00 2.94505E+00-1.76598E-02 3.63216E+00-3.25130E-04-6.42004E-04
 -1      9736-8.56479E+00 2.93557E+00-1.76894E-02 3.62042E+00-1.91736E-04-3.86470E-04
 -1      9737-8.56014E+00 2.93083E+00-1.77040E-02 3.61455E+00-6.35325E-05-1.28907E-04
 -1      9738-8.56014E+00 2.93083E+00-1.77040E-02 3.61455E+00 6.35325E-05 1.28907E-04
 -1      9739-8.56479E+00 2.93557E+00-1.76894E-02 3.62042E+00 1.91736E-04 3.86470E-04
 -1      9740-8.57407E+00 2.94505E+00-1.76598E-02 3.63216E+00 3.25130E-04 6.42004E-04
 -1      9741-8.58800E+00 2.95929E+00-1.76115E-02 3.64978E+00 4.72298E-04 8.86644E-04
 -1      9742-8.60658E+00 2.97829E+00-1.75699E-02 3.67326E+00 6.50644E-04 1.11920E-03
 -1      9743-6.76525E+00 1.56764E+00-2.64278E-02 4.10989E+00-8.66408E-04-1.53060E-03
 -1      9744-6.75507E+00 1.55687E+00-2.64888E-02 4.08644E+00-6.51764E-04-1.18992E-03
 -1      9745-6.74741E+00 1.54884E+00-2.64840E-02 4.06887E+00-4.62788E-04-8.34416E-04
 -1      9746-6.74232E+00 1.54350E+00-2.64972E-02 4.05715E+00-2.80811E-04-4.97540E-04
 -1      9747-6.73977E+00 1.54083E+00-2.65102E-02 4.05130E+00-9.45258E-05-1.65611E-04
 -1      9748-6.73977E+00 1.54083E+00-2.65102E-02 4.05130E+00 9.45258E-05 1.65611E-04
 -1      9749-6.74232E+00 1.54350E+00-2.64972E-02 4.05715E+00 2.80811E-04 4.97540E-04
 -1      9750-6.74741E+00 1.54884E+00-2.64840E-02 4.06887E+00 4.62788E-04 8.34416E-04
 -1      9751-6.75507E+00 1.55687E+00-2.64888E-02 4.08644E+00 6.51764E-04 1.18992E-03
 -1      9752-6.76525E+00 1.56764E+00-2.64278E-02 4.10989E+00 8.66408E-04 1.53060E-03
 -1      9753-4.88384E+00 1.30882E-01-3.68426E-02 4.02785E+00-1.08694E-03-2.10446E-03
 -1      9754-4.88377E+00 1.30312E-01-3.66673E-02 4.00721E+00-8.59010E-04-1.55667E-03
 -1      9755-4.88384E+00 1.29825E-01-3.67017E-02 3.99174E+00-6.35315E-04-1.11121E-03
 -1      9756-4.88391E+00 1.29517E-01-3.67070E-02 3.98142E+00-3.90873E-04-6.57287E-04
 -1      9757-4.88395E+00 1.29374E-01-3.66941E-02 3.97626E+00-1.31953E-04-2.16216E-04
 -1      9758-4.88395E+00 1.29374E-01-3.66941E-02 3.97626E+00 1.31953E-04 2.16216E-04
 -1      9759-4.88391E+00 1.29517E-01-3.67070E-02 3.98142E+00 3.90873E-04 6.57287E-04
 -1      9760-4.88384E+00 1.29825E-01-3.67017E-02 3.99174E+00 6.35315E-04 1.11121E-03
 -1      9761-4.88377E+00 1.30312E-01-3.66673E-02 4.00721E+00 8.59010E-04 1.55667E-03
 -1      9762-4.88384E+00 1.30882E-01-3.68426E-02 4.02785E+00 1.08694E-03 2.10446E-03
 -1      9763-3.12000E+00-1.11043E+00-4.97971E-02 3.44428E+00-1.24240E-03-3.07153E-03
 -1      9764-3.13206E+00-1.09968E+00-5.04895E-02 3.42945E+00-9.63811E-04-2.65593E-03
 -1      9765-3.14053E+00-1.09125E+00-5.03820E-02 3.41833E+00-6.67772E-04-1.91344E-03
 -1      9766-3.14584E+00-1.08548E+00-5.01839E-02 3.41091E+00-3.94087E-04-1.16892E-03
 -1      9767-3.14840E+00-1.08255E+00-5.00756E-02 3.40720E+00-1.30620E-04-3.96414E-04
 -1      9768-3.14840E+00-1.08255E+00-5.00756E-02 3.40720E+00 1.30620E-04 3.96414E-04
 -1      9769-3.14584E+00-1.08548E+00-5.01839E-02 3.41091E+00 3.94087E-04 1.16892E-03
 -1      9770-3.14053E+00-1.09125E+00-5.03820E-02 3.41833E+00 6.67772E-04 1.91344E-03
 -1      9771-3.13206E+00-1.09968E+00-5.04895E-02 3.42945E+00 9.63811E-04 2.65593E-03
 -1      9772-3.12000E+00-1.11043E+00-4.97971E-02 3.44428E+00 1.24240E-03 3.07153E-03
 -1      9773-1.65943E+00-1.89046E+00-7.38070E-02 2.45116E+00-6.12283E-04-5.90040E-03
 -1      9774-1.67893E+00-1.86435E+00-7.13925E-02 2.44501E+00-1.78155E-04-5.82075E-03
 -1      9775-1.69174E+00-1.84471E+00-7.14258E-02 2.44007E+00 3.67043E-05-5.57359E-03
 -1      9776-1.69946E+00-1.83161E+00-7.23632E-02 2.43658E+00 1.05529E-04-4.05955E-03
 -1      9777-1.70308E+00-1.82505E+00-7.31055E-02 2.43477E+00 5.16370E-05-1.48439E-03
 -1      9778-1.70308E+00-1.82505E+00-7.31055E-02 2.43477E+00-5.16370E-05 1.48439E-03
 -1      9779-1.69946E+00-1.83161E+00-7.23632E-02 2.43658E+00-1.05529E-04 4.05955E-03
 -1      9780-1.69174E+00-1.84471E+00-7.14258E-02 2.44007E+00-3.67043E-05 5.57359E-03
 -1      9781-1.67893E+00-1.86435E+00-7.13925E-02 2.44501E+00 1.78155E-04 5.82075E-03
 -1      9782-1.65943E+00-1.89046E+00-7.38070E-02 2.45116E+00 6.12283E-04 5.90040E-03
 -1      9783-6.87654E-01-1.87837E+00-8.78422E-02 1.22803E+00 1.15376E-03-1.00062E-02
 -1      9784-7.10786E-01-1.83929E+00-9.97968E-02 1.22933E+00 3.13578E-03-1.59210E-02
 -1      9785-7.25515E-01-1.81002E+00-1.09988E-01 1.22903E+00 3.88140E-03-1.53238E-02
 -1      9786-7.34164E-01-1.79053E+00-1.16906E-01 1.22828E+00 3.07680E-03-1.06858E-02
 -1      9787-7.38153E-01-1.78080E+00-1.20330E-01 1.22775E+00 1.15753E-03-3.80237E-03
 -1      9788-7.38153E-01-1.78080E+00-1.20330E-01 1.22775E+00-1.15753E-03 3.80237E-03
 -1      9789-7.34164E-01-1.79053E+00-1.16906E-01 1.22828E+00-3.07680E-03 1.06858E-02
 -1      9790-7.25515E-01-1.81002E+00-1.09988E-01 1.22903E+00-3.88140E-03 1.53238E-02
 -1      9791-7.10786E-01-1.83929E+00-9.97968E-02 1.22933E+00-3.13578E-03 1.59210E-02
 -1      9792-6.87654E-01-1.87837E+00-8.78422E-02 1.22803E+00-1.15376E-03 1.00062E-02
 -1      9793-2.49699E+00-2.32601E+01 1.73838E+00-6.18409E+00 1.26859E-01-7.35636E-02
 -1      9794-3.01551E+00-2.36715E+01 5.00455E-01-6.33747E+00 6.49275E-01-1.08400E-01
 -1      9795-3.36179E+00-2.39089E+01-3.61512E-01-6.43552E+00 6.36628E-01-1.03284E-01
 -1      9796-3.57248E+00-2.40420E+01-8.95895E-01-6.49502E+00 4.29642E-01-7.13590E-02
 -1      9797-3.67201E+00-2.41023E+01-1.15070E+00-6.52334E+00 1.49595E-01-2.52438E-02
 -1      9798-3.67201E+00-2.41023E+01-1.15070E+00-6.52334E+00-1.49595E-01 2.52438E-02
 -1      9799-3.57248E+00-2.40420E+01-8.95895E-01-6.49502E+00-4.29642E-01 7.13590E-02
 -1      9800-3.36179E+00-2.39089E+01-3.61512E-01-6.43552E+00-6.36628E-01 1.03284E-01
 -1      9801-3.01551E+00-2.36715E+01 5.00455E-01-6.33747E+00-6.49275E-01 1.08400E-01
 -1      9802-2.49699E+00-2.32601E+01 1.73838E+00-6.18409E+00-1.26859E-01 7.35636E-02
 -1      9803-5.53603E-01-2.50364E+01-1.13638E-01-7.15414E+00-1.42144E-02-4.95235E-02
 -1      9804-5.02474E-01-2.52535E+01 4.32726E-01-7.18453E+00-2.86386E-01-7.17939E-02
 -1      9805-5.15515E-01-2.53827E+01 6.32845E-01-7.21910E+00-2.42546E-01-6.40655E-02
 -1      9806-5.42216E-01-2.54564E+01 6.89831E-01-7.24598E+00-1.44653E-01-4.31396E-02
 -1      9807-5.59882E-01-2.54901E+01 6.99423E-01-7.26032E+00-4.70781E-02-1.51511E-02
 -1      9808-5.59882E-01-2.54901E+01 6.99423E-01-7.26032E+00 4.70781E-02 1.51511E-02
 -1      9809-5.42216E-01-2.54564E+01 6.89831E-01-7.24598E+00 1.44653E-01 4.31396E-02
 -1      9810-5.15515E-01-2.53827E+01 6.32845E-01-7.21910E+00 2.42546E-01 6.40655E-02
 -1      9811-5.02474E-01-2.52535E+01 4.32726E-01-7.18453E+00 2.86386E-01 7.17939E-02
 -1      9812-5.53603E-01-2.50364E+01-1.13638E-01-7.15414E+00 1.42144E-02 4.95235E-02
 -1      9813 1.13587E+00-2.47926E+01 2.01179E-01-7.87385E+00-5.62724E-02 2.55455E-04
 -1      9814 9.94243E-01-2.49870E+01 9.87992E-02-7.85963E+00-7.97080E-02-1.20273E-02
 -1      9815 9.33804E-01-2.51211E+01 1.62621E-01-7.85508E+00-1.15734E-01-1.82220E-02
 -1      9816 9.05278E-01-2.52049E+01 2.38387E-01-7.85502E+00-9.45051E-02-1.46663E-02
 -1      9817 8.93215E-01-2.52451E+01 2.81658E-01-7.85585E+00-3.55152E-02-5.47422E-03
 -1      9818 8.93215E-01-2.52451E+01 2.81658E-01-7.85585E+00 3.55152E-02 5.47422E-03
 -1      9819 9.05278E-01-2.52049E+01 2.38387E-01-7.85502E+00 9.45051E-02 1.46663E-02
 -1      9820 9.33804E-01-2.51211E+01 1.62621E-01-7.85508E+00 1.15734E-01 1.82220E-02
 -1      9821 9.94243E-01-2.49870E+01 9.87992E-02-7.85963E+00 7.97080E-02 1.20273E-02
 -1      9822 1.13587E+00-2.47926E+01 2.01179E-01-7.87385E+00 5.62724E-02-2.55455E-04
 -1      9823 1.53566E+00-2.41869E+01 3.65756E-02-8.65462E+00-1.04295E-02 1.65500E-04
 -1      9824 1.50954E+00-2.41302E+01 5.60153E-02-8.63669E+00-1.63073E-02 2.21933E-03
 -1      9825 1.46851E+00-2.41271E+01 3.71516E-02-8.62496E+00-1.02614E-02 2.51164E-03
 -1      9826 1.43863E+00-2.41385E+01 2.88006E-02-8.61812E+00-8.11253E-03 1.29334E-03
 -1      9827 1.42373E+00-2.41475E+01 2.78155E-02-8.61502E+00-3.35308E-03 3.35066E-04
 -1      9828 1.42373E+00-2.41475E+01 2.78155E-02-8.61502E+00 3.35308E-03-3.35066E-04
 -1      9829 1.43863E+00-2.41385E+01 2.88006E-02-8.61812E+00 8.11253E-03-1.29334E-03
 -1      9830 1.46851E+00-2.41271E+01 3.71516E-02-8.62496E+00 1.02614E-02-2.51164E-03
 -1      9831 1.50954E+00-2.41302E+01 5.60153E-02-8.63669E+00 1.63073E-02-2.21933E-03
 -1      9832 1.53566E+00-2.41869E+01 3.65756E-02-8.65462E+00 1.04295E-02-1.65500E-04
 -1      9833 1.34815E+00-2.28395E+01 2.98948E-03-9.57282E+00-9.05448E-04 5.67025E-04
 -1      9834 1.31529E+00-2.28071E+01-2.64203E-03-9.55933E+00 2.30592E-03 9.42544E-04
 -1      9835 1.29486E+00-2.27755E+01-7.21070E-04-9.54864E+00 1.79496E-03 1.24620E-03
 -1      9836 1.27976E+00-2.27553E+01-3.80743E-03-9.54137E+00 2.06058E-03 1.24014E-03
 -1      9837 1.27156E+00-2.27459E+01-6.83353E-03-9.53773E+00 9.30384E-04 5.13893E-04
 -1      9838 1.27156E+00-2.27459E+01-6.83353E-03-9.53773E+00-9.30384E-04-5.13893E-04
 -1      9839 1.27976E+00-2.27553E+01-3.80743E-03-9.54137E+00-2.06058E-03-1.24014E-03
 -1      9840 1.29486E+00-2.27755E+01-7.21070E-04-9.54864E+00-1.79496E-03-1.24620E-03
 -1      9841 1.31529E+00-2.28071E+01-2.64203E-03-9.55933E+00-2.30592E-03-9.42544E-04
 -1      9842 1.34815E+00-2.28395E+01 2.98948E-03-9.57282E+00 9.05448E-04-5.67025E-04
 -1      9843 6.92947E-01-2.11926E+01-1.96467E-03-1.05500E+01-1.18671E-03-5.13091E-04
 -1      9844 6.69031E-01-2.11640E+01-1.57892E-03-1.05373E+01-4.26007E-05-1.71342E-04
 -1      9845 6.50204E-01-2.11437E+01-3.17816E-03-1.05277E+01 8.21527E-04-5.88345E-05
 -1      9846 6.38357E-01-2.11291E+01-3.09091E-03-1.05212E+01 5.64926E-04-6.94381E-05
 -1      9847 6.32609E-01-2.11214E+01-2.88915E-03-1.05178E+01 1.91419E-04-2.77299E-05
 -1      9848 6.32609E-01-2.11214E+01-2.88915E-03-1.05178E+01-1.91419E-04 2.77299E-05
 -1      9849 6.38357E-01-2.11291E+01-3.09091E-03-1.05212E+01-5.64926E-04 6.94381E-05
 -1      9850 6.50204E-01-2.11437E+01-3.17816E-03-1.05277E+01-8.21527E-04 5.88345E-05
 -1      9851 6.69031E-01-2.11640E+01-1.57892E-03-1.05373E+01 4.26007E-05 1.71342E-04
 -1      9852 6.92947E-01-2.11926E+01-1.96467E-03-1.05500E+01 1.18671E-03 5.13091E-04
 -1      9853-3.01001E-01-1.93462E+01 1.52175E-03-1.14803E+01-1.13489E-03-5.29773E-04
 -1      9854-3.20185E-01-1.93271E+01 1.61464E-03-1.14667E+01-8.53726E-04-5.19574E-04
 -1      9855-3.34305E-01-1.93122E+01 1.99598E-03-1.14564E+01-6.09758E-04-3.97902E-04
 -1      9856-3.43889E-01-1.93024E+01 1.88848E-03-1.14495E+01-2.75290E-04-2.33704E-04
 -1      9857-3.48687E-01-1.92975E+01 1.84748E-03-1.14461E+01-7.75179E-05-7.89435E-05
 -1      9858-3.48687E-01-1.92975E+01 1.84748E-03-1.14461E+01 7.75179E-05 7.89435E-05
 -1      9859-3.43889E-01-1.93024E+01 1.88848E-03-1.14495E+01 2.75290E-04 2.33704E-04
 -1      9860-3.34305E-01-1.93122E+01 1.99598E-03-1.14564E+01 6.09758E-04 3.97902E-04
 -1      9861-3.20185E-01-1.93271E+01 1.61464E-03-1.14667E+01 8.53726E-04 5.19574E-04
 -1      9862-3.01001E-01-1.93462E+01 1.52175E-03-1.14803E+01 1.13489E-03 5.29773E-04
 -1      9863-1.54141E+00-1.73432E+01 5.04100E-03-1.22762E+01-8.88592E-04-4.74213E-04
 -1      9864-1.55521E+00-1.73296E+01 5.13522E-03-1.22611E+01-7.62994E-04-4.35920E-04
 -1      9865-1.56562E+00-1.73195E+01 5.18530E-03-1.22498E+01-5.70641E-04-3.57710E-04
 -1      9866-1.57251E+00-1.73126E+01 5.32176E-03-1.22422E+01-3.69844E-04-2.36319E-04
 -1      9867-1.57597E+00-1.73092E+01 5.36556E-03-1.22385E+01-1.25531E-04-8.10399E-05
 -1      9868-1.57597E+00-1.73092E+01 5.36556E-03-1.22385E+01 1.25531E-04 8.10399E-05
 -1      9869-1.57251E+00-1.73126E+01 5.32176E-03-1.22422E+01 3.69844E-04 2.36319E-04
 -1      9870-1.56562E+00-1.73195E+01 5.18530E-03-1.22498E+01 5.70641E-04 3.57710E-04
 -1      9871-1.55521E+00-1.73296E+01 5.13522E-03-1.22611E+01 7.62994E-04 4.35920E-04
 -1      9872-1.54141E+00-1.73432E+01 5.04100E-03-1.22762E+01 8.88592E-04 4.74213E-04
 -1      9873-2.95218E+00-1.52105E+01 7.94832E-03-1.28740E+01-5.94938E-04-4.18660E-04
 -1      9874-2.96092E+00-1.52019E+01 7.97044E-03-1.28576E+01-4.85479E-04-3.84060E-04
 -1      9875-2.96749E+00-1.51955E+01 8.02055E-03-1.28453E+01-3.61555E-04-3.07103E-04
 -1      9876-2.97190E+00-1.51912E+01 8.05028E-03-1.28371E+01-2.18935E-04-1.98641E-04
 -1      9877-2.97410E+00-1.51891E+01 8.07962E-03-1.28330E+01-7.44303E-05-6.91695E-05
 -1      9878-2.97410E+00-1.51891E+01 8.07962E-03-1.28330E+01 7.44303E-05 6.91695E-05
 -1      9879-2.97190E+00-1.51912E+01 8.05028E-03-1.28371E+01 2.18935E-04 1.98641E-04
 -1      9880-2.96749E+00-1.51955E+01 8.02055E-03-1.28453E+01 3.61555E-04 3.07103E-04
 -1      9881-2.96092E+00-1.52019E+01 7.97044E-03-1.28576E+01 4.85479E-04 3.84060E-04
 -1      9882-2.95218E+00-1.52105E+01 7.94832E-03-1.28740E+01 5.94938E-04 4.18660E-04
 -1      9883-4.46794E+00-1.29807E+01 1.02581E-02-1.32288E+01-4.04285E-04-3.83408E-04
 -1      9884-4.47182E+00-1.29770E+01 1.02582E-02-1.32116E+01-3.03792E-04-3.51829E-04
 -1      9885-4.47475E+00-1.29741E+01 1.02723E-02-1.31987E+01-2.10677E-04-2.82747E-04
 -1      9886-4.47672E+00-1.29723E+01 1.02955E-02-1.31901E+01-1.24440E-04-1.83017E-04
 -1      9887-4.47771E+00-1.29714E+01 1.03040E-02-1.31858E+01-4.08126E-05-6.30243E-05
 -1      9888-4.47771E+00-1.29714E+01 1.03040E-02-1.31858E+01 4.08126E-05 6.30243E-05
 -1      9889-4.47672E+00-1.29723E+01 1.02955E-02-1.31901E+01 1.24440E-04 1.83017E-04
 -1      9890-4.47475E+00-1.29741E+01 1.02723E-02-1.31987E+01 2.10677E-04 2.82747E-04
 -1      9891-4.47182E+00-1.29770E+01 1.02582E-02-1.32116E+01 3.03792E-04 3.51829E-04
 -1      9892-4.46794E+00-1.29807E+01 1.02581E-02-1.32288E+01 4.04285E-04 3.83408E-04
 -1      9893-6.02846E+00-1.06925E+01 1.20268E-02-1.33109E+01-2.85691E-04-3.59780E-04
 -1      9894-6.02762E+00-1.06935E+01 1.20140E-02-1.32934E+01-1.99037E-04-3.34005E-04
 -1      9895-6.02701E+00-1.06942E+01 1.20192E-02-1.32803E+01-1.28969E-04-2.69864E-04
 -1      9896-6.02662E+00-1.06947E+01 1.20311E-02-1.32716E+01-7.15226E-05-1.75432E-04
 -1      9897-6.02643E+00-1.06950E+01 1.20390E-02-1.32673E+01-2.30116E-05-6.07837E-05
 -1      9898-6.02643E+00-1.06950E+01 1.20390E-02-1.32673E+01 2.30116E-05 6.07837E-05
 -1      9899-6.02662E+00-1.06947E+01 1.20311E-02-1.32716E+01 7.15226E-05 1.75432E-04
 -1      9900-6.02701E+00-1.06942E+01 1.20192E-02-1.32803E+01 1.28969E-04 2.69864E-04
 -1      9901-6.02762E+00-1.06935E+01 1.20140E-02-1.32934E+01 1.99037E-04 3.34005E-04
 -1      9902-6.02846E+00-1.06925E+01 1.20268E-02-1.33109E+01 2.85691E-04 3.59780E-04
 -1      9903-7.57595E+00-8.39000E+00 1.33266E-02-1.31030E+01-2.08298E-04-3.46890E-04
 -1      9904-7.57050E+00-8.39559E+00 1.33066E-02-1.30859E+01-1.32722E-04-3.23812E-04
 -1      9905-7.56645E+00-8.39979E+00 1.33060E-02-1.30731E+01-7.79588E-05-2.62845E-04
 -1      9906-7.56375E+00-8.40259E+00 1.33150E-02-1.30645E+01-3.95563E-05-1.71297E-04
 -1      9907-7.56241E+00-8.40400E+00 1.33202E-02-1.30603E+01-1.19638E-05-5.93560E-05
 -1      9908-7.56241E+00-8.40400E+00 1.33202E-02-1.30603E+01 1.19638E-05 5.93560E-05
 -1      9909-7.56375E+00-8.40259E+00 1.33150E-02-1.30645E+01 3.95563E-05 1.71297E-04
 -1      9910-7.56645E+00-8.39979E+00 1.33060E-02-1.30731E+01 7.79588E-05 2.62845E-04
 -1      9911-7.57050E+00-8.39559E+00 1.33066E-02-1.30859E+01 1.32722E-04 3.23812E-04
 -1      9912-7.57595E+00-8.39000E+00 1.33266E-02-1.31030E+01 2.08298E-04 3.46890E-04
 -1      9913-9.05402E+00-6.12176E+00 1.42125E-02-1.25988E+01-1.52030E-04-3.41284E-04
 -1      9914-9.04411E+00-6.13183E+00 1.41881E-02-1.25828E+01-8.47315E-05-3.18677E-04
 -1      9915-9.03670E+00-6.13939E+00 1.41843E-02-1.25707E+01-4.11295E-05-2.59074E-04
 -1      9916-9.03177E+00-6.14444E+00 1.41910E-02-1.25627E+01-1.63103E-05-1.69101E-04
 -1      9917-9.02931E+00-6.14697E+00 1.41955E-02-1.25587E+01-4.06075E-06-5.86747E-05
 -1      9918-9.02931E+00-6.14697E+00 1.41955E-02-1.25587E+01 4.06075E-06 5.86747E-05
 -1      9919-9.03177E+00-6.14444E+00 1.41910E-02-1.25627E+01 1.63103E-05 1.69101E-04
 -1      9920-9.03670E+00-6.13939E+00 1.41843E-02-1.25707E+01 4.11295E-05 2.59074E-04
 -1      9921-9.04411E+00-6.13183E+00 1.41881E-02-1.25828E+01 8.47315E-05 3.18677E-04
 -1      9922-9.05402E+00-6.12176E+00 1.42125E-02-1.25988E+01 1.52030E-04 3.41284E-04
 -1      9923-1.04074E+01-3.94010E+00 1.47021E-02-1.18027E+01-1.07430E-04-3.39709E-04
 -1      9924-1.03932E+01-3.95446E+00 1.46750E-02-1.17884E+01-4.66277E-05-3.16205E-04
 -1      9925-1.03826E+01-3.96525E+00 1.46696E-02-1.17776E+01-1.17202E-05-2.57029E-04
 -1      9926-1.03755E+01-3.97245E+00 1.46754E-02-1.17704E+01 2.31191E-06-1.67856E-04
 -1      9927-1.03720E+01-3.97605E+00 1.46795E-02-1.17668E+01 2.33288E-06-5.82698E-05
 -1      9928-1.03720E+01-3.97605E+00 1.46795E-02-1.17668E+01-2.33288E-06 5.82698E-05
 -1      9929-1.03755E+01-3.97245E+00 1.46754E-02-1.17704E+01-2.31191E-06 1.67856E-04
 -1      9930-1.03826E+01-3.96525E+00 1.46696E-02-1.17776E+01 1.17202E-05 2.57029E-04
 -1      9931-1.03932E+01-3.95446E+00 1.46750E-02-1.17884E+01 4.66277E-05 3.16205E-04
 -1      9932-1.04074E+01-3.94010E+00 1.47021E-02-1.18027E+01 1.07430E-04 3.39709E-04
 -1      9933-1.15823E+01-1.89994E+00 1.47696E-02-1.07299E+01-7.02973E-05-3.39048E-04
 -1      9934-1.15641E+01-1.91835E+00 1.47411E-02-1.07179E+01-1.49466E-05-3.13987E-04
 -1      9935-1.15504E+01-1.93218E+00 1.47349E-02-1.07088E+01 1.27851E-05-2.54920E-04
 -1      9936-1.15413E+01-1.94140E+00 1.47404E-02-1.07028E+01 1.78781E-05-1.66484E-04
 -1      9937-1.15368E+01-1.94601E+00 1.47446E-02-1.06998E+01 7.67387E-06-5.78147E-05
 -1      9938-1.15368E+01-1.94601E+00 1.47446E-02-1.06998E+01-7.67387E-06 5.78147E-05
 -1      9939-1.15413E+01-1.94140E+00 1.47404E-02-1.07028E+01-1.78781E-05 1.66484E-04
 -1      9940-1.15504E+01-1.93218E+00 1.47349E-02-1.07088E+01-1.27851E-05 2.54920E-04
 -1      9941-1.15641E+01-1.91835E+00 1.47411E-02-1.07179E+01 1.49466E-05 3.13987E-04
 -1      9942-1.15823E+01-1.89994E+00 1.47696E-02-1.07299E+01 7.02973E-05 3.39048E-04
 -1      9943-1.25271E+01-5.76013E-02 1.43470E-02-9.40672E+00-4.00032E-05-3.36895E-04
 -1      9944-1.25051E+01-7.97047E-02 1.43178E-02-9.39769E+00 1.07792E-05-3.10016E-04
 -1      9945-1.24887E+01-9.63004E-02 1.43113E-02-9.39091E+00 3.26352E-05-2.51201E-04
 -1      9946-1.24778E+01-1.07371E-01 1.43167E-02-9.38638E+00 3.04685E-05-1.63988E-04
 -1      9947-1.24723E+01-1.12909E-01 1.43209E-02-9.38412E+00 1.19949E-05-5.69558E-05
 -1      9948-1.24723E+01-1.12909E-01 1.43209E-02-9.38412E+00-1.19949E-05 5.69558E-05
 -1      9949-1.24778E+01-1.07371E-01 1.43167E-02-9.38638E+00-3.04685E-05 1.63988E-04
 -1      9950-1.24887E+01-9.63004E-02 1.43113E-02-9.39091E+00-3.26352E-05 2.51201E-04
 -1      9951-1.25051E+01-7.97047E-02 1.43178E-02-9.39769E+00-1.07792E-05 3.10016E-04
 -1      9952-1.25271E+01-5.76013E-02 1.43470E-02-9.40672E+00 4.00032E-05 3.36895E-04
 -1      9953-1.31936E+01 1.53096E+00 1.33283E-02-7.87213E+00-1.86700E-05-3.32012E-04
 -1      9954-1.31685E+01 1.50565E+00 1.32989E-02-7.86669E+00 2.87065E-05-3.03136E-04
 -1      9955-1.31496E+01 1.48665E+00 1.32920E-02-7.86259E+00 4.63082E-05-2.44888E-04
 -1      9956-1.31371E+01 1.47398E+00 1.32970E-02-7.85985E+00 3.90600E-05-1.59705E-04
 -1      9957-1.31308E+01 1.46764E+00 1.33011E-02-7.85848E+00 1.49281E-05-5.54594E-05
 -1      9958-1.31308E+01 1.46764E+00 1.33011E-02-7.85848E+00-1.49281E-05 5.54594E-05
 -1      9959-1.31371E+01 1.47398E+00 1.32970E-02-7.85985E+00-3.90600E-05 1.59705E-04
 -1      9960-1.31496E+01 1.48665E+00 1.32920E-02-7.86259E+00-4.63082E-05 2.44888E-04
 -1      9961-1.31685E+01 1.50565E+00 1.32989E-02-7.86669E+00-2.87065E-05 3.03136E-04
 -1      9962-1.31936E+01 1.53096E+00 1.33283E-02-7.87213E+00 1.86700E-05 3.32012E-04
 -1      9963-1.35397E+01 2.81266E+00 1.15785E-02-6.17831E+00-1.06760E-05-3.24887E-04
 -1      9964-1.35121E+01 2.78480E+00 1.15491E-02-6.17696E+00 3.50766E-05-2.93547E-04
 -1      9965-1.34913E+01 2.76388E+00 1.15414E-02-6.17592E+00 5.08026E-05-2.35980E-04
 -1      9966-1.34775E+01 2.74993E+00 1.15452E-02-6.17523E+00 4.16861E-05-1.53561E-04
 -1      9967-1.34706E+01 2.74295E+00 1.15487E-02-6.17488E+00 1.57874E-05-5.32871E-05
 -1      9968-1.34706E+01 2.74295E+00 1.15487E-02-6.17488E+00-1.57874E-05 5.32871E-05
 -1      9969-1.34775E+01 2.74993E+00 1.15452E-02-6.17523E+00-4.16861E-05 1.53561E-04
 -1      9970-1.34913E+01 2.76388E+00 1.15414E-02-6.17592E+00-5.08026E-05 2.35980E-04
 -1      9971-1.35121E+01 2.78480E+00 1.15491E-02-6.17696E+00-3.50766E-05 2.93547E-04
 -1      9972-1.35397E+01 2.81266E+00 1.15785E-02-6.17831E+00 1.06760E-05 3.24887E-04
 -1      9973-1.35322E+01 3.74078E+00 8.94749E-03-4.39150E+00-2.21699E-05-3.18455E-04
 -1      9974-1.35028E+01 3.71120E+00 8.91822E-03-4.39460E+00 2.46241E-05-2.83434E-04
 -1      9975-1.34808E+01 3.68900E+00 8.90864E-03-4.39690E+00 4.19444E-05-2.25953E-04
 -1      9976-1.34661E+01 3.67419E+00 8.91010E-03-4.39843E+00 3.56318E-05-1.46396E-04
 -1      9977-1.34588E+01 3.66679E+00 8.91203E-03-4.39920E+00 1.36280E-05-5.07099E-05
 -1      9978-1.34588E+01 3.66679E+00 8.91203E-03-4.39920E+00-1.36280E-05 5.07099E-05
 -1      9979-1.34661E+01 3.67419E+00 8.91010E-03-4.39843E+00-3.56318E-05 1.46396E-04
 -1      9980-1.34808E+01 3.68900E+00 8.90864E-03-4.39690E+00-4.19444E-05 2.25953E-04
 -1      9981-1.35028E+01 3.71120E+00 8.91822E-03-4.39460E+00-2.46241E-05 2.83434E-04
 -1      9982-1.35322E+01 3.74078E+00 8.94749E-03-4.39150E+00 2.21699E-05 3.18455E-04
 -1      9983-1.31505E+01 4.27960E+00 5.29290E-03-2.59177E+00-6.04752E-05-3.19088E-04
 -1      9984-1.31204E+01 4.24936E+00 5.26367E-03-2.59947E+00-8.91468E-06-2.77891E-04
 -1      9985-1.30979E+01 4.22666E+00 5.25068E-03-2.60523E+00 1.47857E-05-2.18503E-04
 -1      9986-1.30829E+01 4.21153E+00 5.24792E-03-2.60906E+00 1.76886E-05-1.40441E-04
 -1      9987-1.30754E+01 4.20396E+00 5.24711E-03-2.61098E+00 7.33283E-06-4.84761E-05
 -1      9988-1.30754E+01 4.20396E+00 5.24711E-03-2.61098E+00-7.33283E-06 4.84761E-05
 -1      9989-1.30829E+01 4.21153E+00 5.24792E-03-2.60906E+00-1.76886E-05 1.40441E-04
 -1      9990-1.30979E+01 4.22666E+00 5.25068E-03-2.60523E+00-1.47857E-05 2.18503E-04
 -1      9991-1.31204E+01 4.24936E+00 5.26367E-03-2.59947E+00 8.91468E-06 2.77891E-04
 -1      9992-1.31505E+01 4.27960E+00 5.29290E-03-2.59177E+00 6.04752E-05 3.19088E-04
 -1      9993-1.23917E+01 4.41020E+00 5.13675E-04-8.71372E-01-1.33297E-04-3.38147E-04
 -1      9994-1.23622E+01 4.38055E+00 4.83789E-04-8.83518E-01-7.20825E-05-2.86379E-04
 -1      9995-1.23402E+01 4.35831E+00 4.65073E-04-8.92618E-01-3.58345E-05-2.20711E-04
 -1      9996-1.23255E+01 4.34349E+00 4.55354E-04-8.98679E-01-1.55001E-05-1.40113E-04
 -1      9997-1.23182E+01 4.33607E+00 4.50161E-04-9.01708E-01-4.25998E-06-4.80746E-05
 -1      9998-1.23182E+01 4.33607E+00 4.50161E-04-9.01708E-01 4.25998E-06 4.80746E-05
 -1      9999-1.23255E+01 4.34349E+00 4.55354E-04-8.98679E-01 1.55001E-05 1.40113E-04
 -1     10000-1.23402E+01 4.35831E+00 4.65073E-04-8.92618E-01 3.58345E-05 2.20711E-04
 -1     10001-1.23622E+01 4.38055E+00 4.83789E-04-8.83518E-01 7.20825E-05 2.86379E-04
 -1     10002-1.23917E+01 4.41020E+00 5.13675E-04-8.71372E-01 1.33297E-04 3.38147E-04
 -1     10003-1.12751E+01 4.13695E+00-5.40777E-03 6.69186E-01-2.47526E-04-3.94206E-04
 -1     10004-1.12478E+01 4.10934E+00-5.44007E-03 6.53147E-01-1.70813E-04-3.24896E-04
 -1     10005-1.12273E+01 4.08864E+00-5.46876E-03 6.41122E-01-1.14632E-04-2.44940E-04
 -1     10006-1.12136E+01 4.07486E+00-5.48885E-03 6.33109E-01-6.69574E-05-1.53014E-04
 -1     10007-1.12068E+01 4.06797E+00-5.50081E-03 6.29104E-01-2.22103E-05-5.21000E-05
 -1     10008-1.12068E+01 4.06797E+00-5.50081E-03 6.29104E-01 2.22103E-05 5.21000E-05
 -1     10009-1.12136E+01 4.07486E+00-5.48885E-03 6.33109E-01 6.69574E-05 1.53014E-04
 -1     10010-1.12273E+01 4.08864E+00-5.46876E-03 6.41122E-01 1.14632E-04 2.44940E-04
 -1     10011-1.12478E+01 4.10934E+00-5.44007E-03 6.53147E-01 1.70813E-04 3.24896E-04
 -1     10012-1.12751E+01 4.13695E+00-5.40777E-03 6.69186E-01 2.47526E-04 3.94206E-04
 -1     10013-9.84663E+00 3.49419E+00-1.23621E-02 1.92800E+00-4.08283E-04-5.16048E-04
 -1     10014-9.82298E+00 3.47022E+00-1.24019E-02 1.90911E+00-3.09604E-04-4.18122E-04
 -1     10015-9.80524E+00 3.45228E+00-1.24441E-02 1.89495E+00-2.25399E-04-3.09340E-04
 -1     10016-9.79341E+00 3.44035E+00-1.24814E-02 1.88551E+00-1.39508E-04-1.91015E-04
 -1     10017-9.78749E+00 3.43439E+00-1.25038E-02 1.88079E+00-4.75377E-05-6.46226E-05
 -1     10018-9.78749E+00 3.43439E+00-1.25038E-02 1.88079E+00 4.75377E-05 6.46226E-05
 -1     10019-9.79341E+00 3.44035E+00-1.24814E-02 1.88551E+00 1.39508E-04 1.91015E-04
 -1     10020-9.80524E+00 3.45228E+00-1.24441E-02 1.89495E+00 2.25399E-04 3.09340E-04
 -1     10021-9.82298E+00 3.47022E+00-1.24019E-02 1.90911E+00 3.09604E-04 4.18122E-04
 -1     10022-9.84663E+00 3.49419E+00-1.23621E-02 1.92800E+00 4.08283E-04 5.16048E-04
 -1     10023-8.18092E+00 2.55211E+00-2.01000E-02 2.81202E+00-6.16595E-04-7.41523E-04
 -1     10024-8.16265E+00 2.53348E+00-2.01477E-02 2.79189E+00-4.92293E-04-5.94063E-04
 -1     10025-8.14895E+00 2.51956E+00-2.02195E-02 2.77680E+00-3.72730E-04-4.35248E-04
 -1     10026-8.13981E+00 2.51032E+00-2.02744E-02 2.76673E+00-2.35797E-04-2.64017E-04
 -1     10027-8.13524E+00 2.50571E+00-2.03062E-02 2.76170E+00-8.11065E-05-8.83817E-05
 -1     10028-8.13524E+00 2.50571E+00-2.03062E-02 2.76170E+00 8.11065E-05 8.83817E-05
 -1     10029-8.13981E+00 2.51032E+00-2.02744E-02 2.76673E+00 2.35797E-04 2.64017E-04
 -1     10030-8.14895E+00 2.51956E+00-2.02195E-02 2.77680E+00 3.72730E-04 4.35248E-04
 -1     10031-8.16265E+00 2.53348E+00-2.01477E-02 2.79189E+00 4.92293E-04 5.94063E-04
 -1     10032-8.18092E+00 2.55211E+00-2.01000E-02 2.81202E+00 6.16595E-04 7.41523E-04
 -1     10033-6.38092E+00 1.42086E+00-2.83185E-02 3.25084E+00-8.74190E-04-1.11579E-03
 -1     10034-6.36983E+00 1.40923E+00-2.84132E-02 3.23165E+00-7.22208E-04-8.78287E-04
 -1     10035-6.36147E+00 1.40061E+00-2.84683E-02 3.21727E+00-5.58455E-04-6.18985E-04
 -1     10036-6.35590E+00 1.39492E+00-2.85348E-02 3.20768E+00-3.59301E-04-3.70984E-04
 -1     10037-6.35312E+00 1.39208E+00-2.85804E-02 3.20288E+00-1.24609E-04-1.23870E-04
 -1     10038-6.35312E+00 1.39208E+00-2.85804E-02 3.20288E+00 1.24609E-04 1.23870E-04
 -1     10039-6.35590E+00 1.39492E+00-2.85348E-02 3.20768E+00 3.59301E-04 3.70984E-04
 -1     10040-6.36147E+00 1.40061E+00-2.84683E-02 3.21727E+00 5.58455E-04 6.18985E-04
 -1     10041-6.36983E+00 1.40923E+00-2.84132E-02 3.23165E+00 7.22208E-04 8.78287E-04
 -1     10042-6.38092E+00 1.42086E+00-2.83185E-02 3.25084E+00 8.74190E-04 1.11579E-03
 -1     10043-4.57410E+00 2.52185E-01-3.71868E-02 3.21341E+00-1.14161E-03-1.69362E-03
 -1     10044-4.57171E+00 2.49322E-01-3.70827E-02 3.19785E+00-9.76531E-04-1.25193E-03
 -1     10045-4.57003E+00 2.47190E-01-3.71966E-02 3.18617E+00-7.74641E-04-8.95391E-04
 -1     10046-4.56894E+00 2.45820E-01-3.72785E-02 3.17838E+00-5.00647E-04-5.28790E-04
 -1     10047-4.56840E+00 2.45155E-01-3.73132E-02 3.17449E+00-1.73386E-04-1.73532E-04
 -1     10048-4.56840E+00 2.45155E-01-3.73132E-02 3.17449E+00 1.73386E-04 1.73532E-04
 -1     10049-4.56894E+00 2.45820E-01-3.72785E-02 3.17838E+00 5.00647E-04 5.28790E-04
 -1     10050-4.57003E+00 2.47190E-01-3.71966E-02 3.18617E+00 7.74641E-04 8.95391E-04
 -1     10051-4.57171E+00 2.49322E-01-3.70827E-02 3.19785E+00 9.76531E-04 1.25193E-03
 -1     10052-4.57410E+00 2.52185E-01-3.71868E-02 3.21341E+00 1.14161E-03 1.69362E-03
 -1     10053-2.90534E+00-7.59752E-01-4.74367E-02 2.72637E+00-1.35691E-03-2.61581E-03
 -1     10054-2.91370E+00-7.52801E-01-4.81212E-02 2.71729E+00-1.12666E-03-2.20894E-03
 -1     10055-2.91953E+00-7.47193E-01-4.80664E-02 2.71048E+00-8.37357E-04-1.53013E-03
 -1     10056-2.92317E+00-7.43287E-01-4.79040E-02 2.70593E+00-5.22109E-04-9.02706E-04
 -1     10057-2.92490E+00-7.41288E-01-4.78111E-02 2.70366E+00-1.78333E-04-3.00382E-04
 -1     10058-2.92490E+00-7.41288E-01-4.78111E-02 2.70366E+00 1.78333E-04 3.00382E-04
 -1     10059-2.92317E+00-7.43287E-01-4.79040E-02 2.70593E+00 5.22109E-04 9.02706E-04
 -1     10060-2.91953E+00-7.47193E-01-4.80664E-02 2.71048E+00 8.37357E-04 1.53013E-03
 -1     10061-2.91370E+00-7.52801E-01-4.81212E-02 2.71729E+00 1.12666E-03 2.20894E-03
 -1     10062-2.90534E+00-7.59752E-01-4.74367E-02 2.72637E+00 1.35691E-03 2.61581E-03
 -1     10063-1.53901E+00-1.38137E+00-6.74273E-02 1.89121E+00-7.37199E-04-5.15183E-03
 -1     10064-1.55451E+00-1.36087E+00-6.50596E-02 1.89146E+00-3.87283E-04-4.70084E-03
 -1     10065-1.56467E+00-1.34544E+00-6.48129E-02 1.89131E+00-2.16545E-04-4.37606E-03
 -1     10066-1.57076E+00-1.33512E+00-6.54188E-02 1.89098E+00-9.48390E-05-3.16108E-03
 -1     10067-1.57361E+00-1.32996E+00-6.59551E-02 1.89074E+00-2.36666E-05-1.15325E-03
 -1     10068-1.57361E+00-1.32996E+00-6.59551E-02 1.89074E+00 2.36666E-05 1.15325E-03
 -1     10069-1.57076E+00-1.33512E+00-6.54188E-02 1.89098E+00 9.48390E-05 3.16108E-03
 -1     10070-1.56467E+00-1.34544E+00-6.48129E-02 1.89131E+00 2.16545E-04 4.37606E-03
 -1     10071-1.55451E+00-1.36087E+00-6.50596E-02 1.89146E+00 3.87283E-04 4.70084E-03
 -1     10072-1.53901E+00-1.38137E+00-6.74273E-02 1.89121E+00 7.37199E-04 5.15183E-03
 -1     10073-6.37920E-01-1.31748E+00-7.98600E-02 9.03636E-01 5.32298E-04-8.77130E-03
 -1     10074-6.57718E-01-1.28566E+00-9.03765E-02 9.10966E-01 2.73258E-03-1.35901E-02
 -1     10075-6.70292E-01-1.26189E+00-9.93626E-02 9.14779E-01 3.83591E-03-1.29894E-02
 -1     10076-6.77656E-01-1.24610E+00-1.05477E-01 9.16590E-01 3.18960E-03-9.03091E-03
 -1     10077-6.81046E-01-1.23821E+00-1.08511E-01 9.17290E-01 1.22194E-03-3.20957E-03
 -1     10078-6.81046E-01-1.23821E+00-1.08511E-01 9.17290E-01-1.22194E-03 3.20957E-03
 -1     10079-6.77656E-01-1.24610E+00-1.05477E-01 9.16590E-01-3.18960E-03 9.03091E-03
 -1     10080-6.70292E-01-1.26189E+00-9.93626E-02 9.14779E-01-3.83591E-03 1.29894E-02
 -1     10081-6.57718E-01-1.28566E+00-9.03765E-02 9.10966E-01-2.73258E-03 1.35901E-02
 -1     10082-6.37920E-01-1.31748E+00-7.98600E-02 9.03636E-01-5.32298E-04 8.77130E-03
 -1     10083-2.67200E+00-2.60410E+01 2.03841E+00-6.78529E+00 1.09400E-01-7.14420E-02
 -1     10084-3.23863E+00-2.65058E+01 6.87621E-01-6.92765E+00 6.84052E-01-1.04528E-01
 -1     10085-3.61612E+00-2.67758E+01-2.59553E-01-7.01910E+00 6.79461E-01-9.88648E-02
 -1     10086-3.84439E+00-2.69276E+01-8.49979E-01-7.07488E+00 4.60744E-01-6.78854E-02
 -1     10087-3.95183E+00-2.69965E+01-1.13268E+00-7.10151E+00 1.60713E-01-2.39172E-02
 -1     10088-3.95183E+00-2.69965E+01-1.13268E+00-7.10151E+00-1.60713E-01 2.39172E-02
 -1     10089-3.84439E+00-2.69276E+01-8.49979E-01-7.07488E+00-4.60744E-01 6.78854E-02
 -1     10090-3.61612E+00-2.67758E+01-2.59553E-01-7.01910E+00-6.79461E-01 9.88648E-02
 -1     10091-3.23863E+00-2.65058E+01 6.87621E-01-6.92765E+00-6.84052E-01 1.04528E-01
 -1     10092-2.67200E+00-2.60410E+01 2.03841E+00-6.78529E+00-1.09400E-01 7.14420E-02
 -1     10093-6.31676E-01-2.79306E+01-1.20494E-01-7.42828E+00-7.89219E-03-4.16243E-02
 -1     10094-5.71155E-01-2.81660E+01 4.90387E-01-7.44854E+00-3.19707E-01-6.19435E-02
 -1     10095-5.77106E-01-2.83067E+01 7.25860E-01-7.47583E+00-2.77732E-01-5.42476E-02
 -1     10096-5.99371E-01-2.83874E+01 7.99997E-01-7.49810E+00-1.68382E-01-3.59221E-02
 -1     10097-6.14717E-01-2.84243E+01 8.16487E-01-7.51020E+00-5.52730E-02-1.25172E-02
 -1     10098-6.14717E-01-2.84243E+01 8.16487E-01-7.51020E+00 5.52730E-02 1.25172E-02
 -1     10099-5.99371E-01-2.83874E+01 7.99997E-01-7.49810E+00 1.68382E-01 3.59221E-02
 -1     10100-5.77106E-01-2.83067E+01 7.25860E-01-7.47583E+00 2.77732E-01 5.42476E-02
 -1     10101-5.71155E-01-2.81660E+01 4.90387E-01-7.44854E+00 3.19707E-01 6.19435E-02
 -1     10102-6.31676E-01-2.79306E+01-1.20494E-01-7.42828E+00 7.89219E-03 4.16243E-02
 -1     10103 9.28309E-01-2.75007E+01 2.02721E-01-7.90401E+00-5.93060E-02 4.42544E-03
 -1     10104 7.72502E-01-2.77027E+01 8.08199E-02-7.88820E+00-7.81320E-02-5.77485E-03
 -1     10105 7.06327E-01-2.78442E+01 1.42336E-01-7.88175E+00-1.17684E-01-1.21806E-02
 -1     10106 6.76185E-01-2.79335E+01 2.21083E-01-7.88006E+00-9.77785E-02-1.03739E-02
 -1     10107 6.63858E-01-2.79765E+01 2.66841E-01-7.87998E+00-3.70067E-02-3.92096E-03
 -1     10108 6.63858E-01-2.79765E+01 2.66841E-01-7.87998E+00 3.70067E-02 3.92096E-03
 -1     10109 6.76185E-01-2.79335E+01 2.21083E-01-7.88006E+00 9.77785E-02 1.03739E-02
 -1     10110 7.06327E-01-2.78442E+01 1.42336E-01-7.88175E+00 1.17684E-01 1.21806E-02
 -1     10111 7.72502E-01-2.77027E+01 8.08199E-02-7.88820E+00 7.81320E-02 5.77485E-03
 -1     10112 9.28309E-01-2.75007E+01 2.02721E-01-7.90401E+00 5.93060E-02-4.42544E-03
 -1     10113 1.11338E+00-2.66874E+01 1.30799E-02-8.61404E+00-1.07095E-02 8.86631E-04
 -1     10114 1.08770E+00-2.66211E+01 3.44655E-02-8.59871E+00-1.54954E-02 4.08452E-03
 -1     10115 1.04546E+00-2.66126E+01 1.14370E-02-8.58866E+00-7.57046E-03 4.83271E-03
 -1     10116 1.01428E+00-2.66215E+01-1.04296E-03-8.58278E+00-5.58047E-03 3.11728E-03
 -1     10117 9.98701E-01-2.66294E+01-4.19686E-03-8.58010E+00-2.36870E-03 1.01217E-03
 -1     10118 9.98701E-01-2.66294E+01-4.19686E-03-8.58010E+00 2.36870E-03-1.01217E-03
 -1     10119 1.01428E+00-2.66215E+01-1.04296E-03-8.58278E+00 5.58047E-03-3.11728E-03
 -1     10120 1.04546E+00-2.66126E+01 1.14370E-02-8.58866E+00 7.57046E-03-4.83271E-03
 -1     10121 1.08770E+00-2.66211E+01 3.44655E-02-8.59871E+00 1.54954E-02-4.08452E-03
 -1     10122 1.11338E+00-2.66874E+01 1.30799E-02-8.61404E+00 1.07095E-02-8.86631E-04
 -1     10123 7.86984E-01-2.51718E+01-1.01482E-02-9.55458E+00-1.26908E-03 4.73213E-04
 -1     10124 7.53782E-01-2.51384E+01-1.65270E-02-9.54477E+00 2.55438E-03 1.00765E-03
 -1     10125 7.33875E-01-2.51046E+01-1.41931E-02-9.53665E+00 2.06264E-03 1.36345E-03
 -1     10126 7.19231E-01-2.50825E+01-1.72990E-02-9.53100E+00 2.36177E-03 1.36997E-03
 -1     10127 7.11260E-01-2.50721E+01-2.05287E-02-9.52814E+00 1.07165E-03 5.71762E-04
 -1     10128 7.11260E-01-2.50721E+01-2.05287E-02-9.52814E+00-1.07165E-03-5.71762E-04
 -1     10129 7.19231E-01-2.50825E+01-1.72990E-02-9.53100E+00-2.36177E-03-1.36997E-03
 -1     10130 7.33875E-01-2.51046E+01-1.41931E-02-9.53665E+00-2.06264E-03-1.36345E-03
 -1     10131 7.53782E-01-2.51384E+01-1.65270E-02-9.54477E+00-2.55438E-03-1.00765E-03
 -1     10132 7.86984E-01-2.51718E+01-1.01482E-02-9.55458E+00 1.26908E-03-4.73213E-04
 -1     10133 4.76236E-02-2.34426E+01-6.69035E-03-1.05807E+01-1.42164E-03-7.27096E-04
 -1     10134 2.43656E-02-2.34144E+01-6.04660E-03-1.05712E+01-2.88825E-04-3.47094E-04
 -1     10135 5.99262E-03-2.33945E+01-7.63489E-03-1.05640E+01 6.74559E-04-1.89485E-04
 -1     10136-5.48070E-03-2.33801E+01-7.39911E-03-1.05591E+01 4.51492E-04-1.56889E-04
 -1     10137-1.09919E-02-2.33724E+01-7.04534E-03-1.05565E+01 1.44739E-04-6.01912E-05
 -1     10138-1.09919E-02-2.33724E+01-7.04534E-03-1.05565E+01-1.44739E-04 6.01912E-05
 -1     10139-5.48070E-03-2.33801E+01-7.39911E-03-1.05591E+01-4.51492E-04 1.56889E-04
 -1     10140 5.99262E-03-2.33945E+01-7.63489E-03-1.05640E+01-6.74559E-04 1.89485E-04
 -1     10141 2.43656E-02-2.34144E+01-6.04660E-03-1.05712E+01 2.88825E-04 3.47094E-04
 -1     10142 4.76236E-02-2.34426E+01-6.69035E-03-1.05807E+01 1.42164E-03 7.27096E-04
 -1     10143-9.91749E-01-2.15590E+01 3.43863E-04-1.15617E+01-1.15980E-03-5.98817E-04
 -1     10144-1.01021E+00-2.15408E+01 4.61369E-04-1.15508E+01-9.16077E-04-5.91137E-04
 -1     10145-1.02373E+00-2.15266E+01 9.37358E-04-1.15426E+01-6.90941E-04-4.49933E-04
 -1     10146-1.03293E+00-2.15173E+01 8.35912E-04-1.15372E+01-3.27253E-04-2.57884E-04
 -1     10147-1.03754E+00-2.15126E+01 7.92804E-04-1.15344E+01-9.40753E-05-8.56870E-05
 -1     10148-1.03754E+00-2.15126E+01 7.92804E-04-1.15344E+01 9.40753E-05 8.56870E-05
 -1     10149-1.03293E+00-2.15173E+01 8.35912E-04-1.15372E+01 3.27253E-04 2.57884E-04
 -1     10150-1.02373E+00-2.15266E+01 9.37358E-04-1.15426E+01 6.90941E-04 4.49933E-04
 -1     10151-1.01021E+00-2.15408E+01 4.61369E-04-1.15508E+01 9.16077E-04 5.91137E-04
 -1     10152-9.91749E-01-2.15590E+01 3.43863E-04-1.15617E+01 1.15980E-03 5.98817E-04
 -1     10153-2.24736E+00-1.95350E+01 5.29237E-03-1.24041E+01-8.39782E-04-5.14452E-04
 -1     10154-2.26051E+00-1.95222E+01 5.37192E-03-1.23914E+01-7.14136E-04-4.75975E-04
 -1     10155-2.27042E+00-1.95126E+01 5.41781E-03-1.23820E+01-5.30960E-04-3.89354E-04
 -1     10156-2.27698E+00-1.95062E+01 5.55305E-03-1.23756E+01-3.49579E-04-2.54277E-04
 -1     10157-2.28026E+00-1.95030E+01 5.60401E-03-1.23725E+01-1.19474E-04-8.70640E-05
 -1     10158-2.28026E+00-1.95030E+01 5.60401E-03-1.23725E+01 1.19474E-04 8.70640E-05
 -1     10159-2.27698E+00-1.95062E+01 5.55305E-03-1.23756E+01 3.49579E-04 2.54277E-04
 -1     10160-2.27042E+00-1.95126E+01 5.41781E-03-1.23820E+01 5.30960E-04 3.89354E-04
 -1     10161-2.26051E+00-1.95222E+01 5.37192E-03-1.23914E+01 7.14136E-04 4.75975E-04
 -1     10162-2.24736E+00-1.95350E+01 5.29237E-03-1.24041E+01 8.39782E-04 5.14452E-04
 -1     10163-3.64945E+00-1.73844E+01 8.81082E-03-1.30434E+01-5.29983E-04-4.50431E-04
 -1     10164-3.65776E+00-1.73764E+01 8.82168E-03-1.30293E+01-4.15011E-04-4.27402E-04
 -1     10165-3.66398E+00-1.73704E+01 8.87428E-03-1.30188E+01-3.02270E-04-3.44197E-04
 -1     10166-3.66816E+00-1.73664E+01 8.88866E-03-1.30117E+01-1.80383E-04-2.20285E-04
 -1     10167-3.67025E+00-1.73644E+01 8.91665E-03-1.30082E+01-6.10033E-05-7.65031E-05
 -1     10168-3.67025E+00-1.73644E+01 8.91665E-03-1.30082E+01 6.10033E-05 7.65031E-05
 -1     10169-3.66816E+00-1.73664E+01 8.88866E-03-1.30117E+01 1.80383E-04 2.20285E-04
 -1     10170-3.66398E+00-1.73704E+01 8.87428E-03-1.30188E+01 3.02270E-04 3.44197E-04
 -1     10171-3.65776E+00-1.73764E+01 8.82168E-03-1.30293E+01 4.15011E-04 4.27402E-04
 -1     10172-3.64945E+00-1.73844E+01 8.81082E-03-1.30434E+01 5.29983E-04 4.50431E-04
 -1     10173-5.13714E+00-1.51337E+01 1.13381E-02-1.34359E+01-3.50501E-04-4.11593E-04
 -1     10174-5.14085E+00-1.51303E+01 1.13286E-02-1.34209E+01-2.45645E-04-3.96823E-04
 -1     10175-5.14364E+00-1.51277E+01 1.13461E-02-1.34097E+01-1.61624E-04-3.25111E-04
 -1     10176-5.14552E+00-1.51260E+01 1.13599E-02-1.34022E+01-9.36788E-05-2.10078E-04
 -1     10177-5.14646E+00-1.51251E+01 1.13688E-02-1.33985E+01-3.02042E-05-7.24893E-05
 -1     10178-5.14646E+00-1.51251E+01 1.13688E-02-1.33985E+01 3.02042E-05 7.24893E-05
 -1     10179-5.14552E+00-1.51260E+01 1.13599E-02-1.34022E+01 9.36788E-05 2.10078E-04
 -1     10180-5.14364E+00-1.51277E+01 1.13461E-02-1.34097E+01 1.61624E-04 3.25111E-04
 -1     10181-5.14085E+00-1.51303E+01 1.13286E-02-1.34209E+01 2.45645E-04 3.96823E-04
 -1     10182-5.13714E+00-1.51337E+01 1.13381E-02-1.34359E+01 3.50501E-04 4.11593E-04
 -1     10183-6.65280E+00-1.28184E+01 1.31481E-02-1.35532E+01-2.44597E-04-3.89405E-04
 -1     10184-6.65208E+00-1.28194E+01 1.31298E-02-1.35379E+01-1.53435E-04-3.83383E-04
 -1     10185-6.65156E+00-1.28202E+01 1.31422E-02-1.35265E+01-9.05901E-05-3.17688E-04
 -1     10186-6.65123E+00-1.28207E+01 1.31480E-02-1.35188E+01-4.77550E-05-2.07117E-04
 -1     10187-6.65106E+00-1.28209E+01 1.31583E-02-1.35150E+01-1.48795E-05-7.20500E-05
 -1     10188-6.65106E+00-1.28209E+01 1.31583E-02-1.35150E+01 1.48795E-05 7.20500E-05
 -1     10189-6.65123E+00-1.28207E+01 1.31480E-02-1.35188E+01 4.77550E-05 2.07117E-04
 -1     10190-6.65156E+00-1.28202E+01 1.31422E-02-1.35265E+01 9.05901E-05 3.17688E-04
 -1     10191-6.65208E+00-1.28194E+01 1.31298E-02-1.35379E+01 1.53435E-04 3.83383E-04
 -1     10192-6.65280E+00-1.28184E+01 1.31481E-02-1.35532E+01 2.44597E-04 3.89405E-04
 -1     10193-8.14031E+00-1.04809E+01 1.44053E-02-1.33793E+01-1.76289E-04-3.80571E-04
 -1     10194-8.13530E+00-1.04862E+01 1.43832E-02-1.33643E+01-9.44565E-05-3.79219E-04
 -1     10195-8.13156E+00-1.04902E+01 1.43930E-02-1.33531E+01-4.50187E-05-3.17315E-04
 -1     10196-8.12908E+00-1.04929E+01 1.43994E-02-1.33456E+01-1.92422E-05-2.08278E-04
 -1     10197-8.12785E+00-1.04942E+01 1.44085E-02-1.33418E+01-5.00250E-06-7.25990E-05
 -1     10198-8.12785E+00-1.04942E+01 1.44085E-02-1.33418E+01 5.00250E-06 7.25990E-05
 -1     10199-8.12908E+00-1.04929E+01 1.43994E-02-1.33456E+01 1.92422E-05 2.08278E-04
 -1     10200-8.13156E+00-1.04902E+01 1.43930E-02-1.33531E+01 4.50187E-05 3.17315E-04
 -1     10201-8.13530E+00-1.04862E+01 1.43832E-02-1.33643E+01 9.44565E-05 3.79219E-04
 -1     10202-8.14031E+00-1.04809E+01 1.44053E-02-1.33793E+01 1.76289E-04 3.80571E-04
 -1     10203-9.54442E+00-8.16870E+00 1.52030E-02-1.29092E+01-1.24635E-04-3.80227E-04
 -1     10204-9.53525E+00-8.17819E+00 1.51805E-02-1.28952E+01-4.88531E-05-3.81623E-04
 -1     10205-9.52839E+00-8.18531E+00 1.51909E-02-1.28847E+01-9.19425E-06-3.21500E-04
 -1     10206-9.52384E+00-8.19006E+00 1.51989E-02-1.28776E+01 3.66546E-06-2.12272E-04
 -1     10207-9.52157E+00-8.19244E+00 1.52093E-02-1.28741E+01 2.82424E-06-7.42264E-05
 -1     10208-9.52157E+00-8.19244E+00 1.52093E-02-1.28741E+01-2.82424E-06 7.42264E-05
 -1     10209-9.52384E+00-8.19006E+00 1.51989E-02-1.28776E+01-3.66546E-06 2.12272E-04
 -1     10210-9.52839E+00-8.18531E+00 1.51909E-02-1.28847E+01 9.19425E-06 3.21500E-04
 -1     10211-9.53525E+00-8.17819E+00 1.51805E-02-1.28952E+01 4.88531E-05 3.81623E-04
 -1     10212-9.54442E+00-8.16870E+00 1.52030E-02-1.29092E+01 1.24635E-04 3.80227E-04
 -1     10213-1.08109E+01-5.93304E+00 1.55698E-02-1.21488E+01-8.02754E-05-3.83307E-04
 -1     10214-1.07977E+01-5.94652E+00 1.55490E-02-1.21363E+01-8.83479E-06-3.86599E-04
 -1     10215-1.07879E+01-5.95663E+00 1.55621E-02-1.21270E+01 2.28340E-05-3.27597E-04
 -1     10216-1.07814E+01-5.96338E+00 1.55733E-02-1.21207E+01 2.43669E-05-2.17421E-04
 -1     10217-1.07781E+01-5.96675E+00 1.55854E-02-1.21176E+01 9.99643E-06-7.62110E-05
 -1     10218-1.07781E+01-5.96675E+00 1.55854E-02-1.21176E+01-9.99643E-06 7.62110E-05
 -1     10219-1.07814E+01-5.96338E+00 1.55733E-02-1.21207E+01-2.43669E-05 2.17421E-04
 -1     10220-1.07879E+01-5.95663E+00 1.55621E-02-1.21270E+01-2.28340E-05 3.27597E-04
 -1     10221-1.07977E+01-5.94652E+00 1.55490E-02-1.21363E+01 8.83479E-06 3.86599E-04
 -1     10222-1.08109E+01-5.93304E+00 1.55698E-02-1.21488E+01 8.02754E-05 3.83307E-04
 -1     10223-1.18871E+01-3.82751E+00 1.54774E-02-1.11143E+01-3.93241E-05-3.84723E-04
 -1     10224-1.18702E+01-3.84473E+00 1.54596E-02-1.11041E+01 2.82524E-05-3.89859E-04
 -1     10225-1.18576E+01-3.85765E+00 1.54763E-02-1.10964E+01 5.26561E-05-3.32240E-04
 -1     10226-1.18492E+01-3.86627E+00 1.54914E-02-1.10912E+01 4.37303E-05-2.21618E-04
 -1     10227-1.18450E+01-3.87058E+00 1.55057E-02-1.10887E+01 1.67028E-05-7.78747E-05
 -1     10228-1.18450E+01-3.87058E+00 1.55057E-02-1.10887E+01-1.67028E-05 7.78747E-05
 -1     10229-1.18492E+01-3.86627E+00 1.54914E-02-1.10912E+01-4.37303E-05 2.21618E-04
 -1     10230-1.18576E+01-3.85765E+00 1.54763E-02-1.10964E+01-5.26561E-05 3.32240E-04
 -1     10231-1.18702E+01-3.84473E+00 1.54596E-02-1.11041E+01-2.82524E-05 3.89859E-04
 -1     10232-1.18871E+01-3.82751E+00 1.54774E-02-1.11143E+01 3.93241E-05 3.84723E-04
 -1     10233-1.27234E+01-1.90660E+00 1.48487E-02-9.83372E+00-1.81293E-06-3.79868E-04
 -1     10234-1.27031E+01-1.92722E+00 1.48344E-02-9.82625E+00 6.16406E-05-3.87176E-04
 -1     10235-1.26879E+01-1.94269E+00 1.48547E-02-9.82064E+00 7.91889E-05-3.32006E-04
 -1     10236-1.26778E+01-1.95301E+00 1.48735E-02-9.81688E+00 6.08371E-05-2.22610E-04
 -1     10237-1.26727E+01-1.95817E+00 1.48897E-02-9.81500E+00 2.26115E-05-7.84216E-05
 -1     10238-1.26727E+01-1.95817E+00 1.48897E-02-9.81500E+00-2.26115E-05 7.84216E-05
 -1     10239-1.26778E+01-1.95301E+00 1.48735E-02-9.81688E+00-6.08371E-05 2.22610E-04
 -1     10240-1.26879E+01-1.94269E+00 1.48547E-02-9.82064E+00-7.91889E-05 3.32006E-04
 -1     10241-1.27031E+01-1.92722E+00 1.48344E-02-9.82625E+00-6.16406E-05 3.87176E-04
 -1     10242-1.27234E+01-1.90660E+00 1.48487E-02-9.83372E+00 1.81293E-06 3.79868E-04
 -1     10243-1.32744E+01-2.23827E-01 1.35673E-02-8.34674E+00 2.90223E-05-3.65101E-04
 -1     10244-1.32511E+01-2.47396E-01 1.35563E-02-8.34260E+00 8.76462E-05-3.74992E-04
 -1     10245-1.32337E+01-2.65077E-01 1.35791E-02-8.33947E+00 9.89966E-05-3.23873E-04
 -1     10246-1.32221E+01-2.76873E-01 1.36003E-02-8.33736E+00 7.32530E-05-2.18370E-04
 -1     10247-1.32164E+01-2.82770E-01 1.36176E-02-8.33631E+00 2.68380E-05-7.71395E-05
 -1     10248-1.32164E+01-2.82770E-01 1.36176E-02-8.33631E+00-2.68380E-05 7.71395E-05
 -1     10249-1.32221E+01-2.76873E-01 1.36003E-02-8.33736E+00-7.32530E-05 2.18370E-04
 -1     10250-1.32337E+01-2.65077E-01 1.35791E-02-8.33947E+00-9.89966E-05 3.23873E-04
 -1     10251-1.32511E+01-2.47396E-01 1.35563E-02-8.34260E+00-8.76462E-05 3.74992E-04
 -1     10252-1.32744E+01-2.23827E-01 1.35673E-02-8.34674E+00-2.90223E-05 3.65101E-04
 -1     10253-1.35019E+01 1.17068E+00 1.14899E-02-6.70597E+00 4.71179E-05-3.38418E-04
 -1     10254-1.34763E+01 1.14476E+00 1.14811E-02-6.70557E+00 9.99724E-05-3.51044E-04
 -1     10255-1.34571E+01 1.12532E+00 1.15041E-02-6.70525E+00 1.06509E-04-3.05762E-04
 -1     10256-1.34444E+01 1.11235E+00 1.15252E-02-6.70502E+00 7.71398E-05-2.07437E-04
 -1     10257-1.34380E+01 1.10587E+00 1.15421E-02-6.70490E+00 2.80156E-05-7.35043E-05
 -1     10258-1.34380E+01 1.10587E+00 1.15421E-02-6.70490E+00-2.80156E-05 7.35043E-05
 -1     10259-1.34444E+01 1.11235E+00 1.15252E-02-6.70502E+00-7.71398E-05 2.07437E-04
 -1     10260-1.34571E+01 1.12532E+00 1.15041E-02-6.70525E+00-1.06509E-04 3.05762E-04
 -1     10261-1.34763E+01 1.14476E+00 1.14811E-02-6.70557E+00-9.99724E-05 3.51044E-04
 -1     10262-1.35019E+01 1.17068E+00 1.14899E-02-6.70597E+00-4.71179E-05 3.38418E-04
 -1     10263-1.33779E+01 2.23352E+00 8.46351E-03-4.97701E+00 4.39640E-05-3.00375E-04
 -1     10264-1.33507E+01 2.20601E+00 8.45500E-03-4.98063E+00 9.00613E-05-3.15212E-04
 -1     10265-1.33303E+01 2.18538E+00 8.47442E-03-4.98332E+00 9.43100E-05-2.77221E-04
 -1     10266-1.33167E+01 2.17162E+00 8.49148E-03-4.98510E+00 6.74465E-05-1.89373E-04
 -1     10267-1.33100E+01 2.16475E+00 8.50569E-03-4.98599E+00 2.43538E-05-6.73374E-05
 -1     10268-1.33100E+01 2.16475E+00 8.50569E-03-4.98599E+00-2.43538E-05 6.73374E-05
 -1     10269-1.33167E+01 2.17162E+00 8.49148E-03-4.98510E+00-6.74465E-05 1.89373E-04
 -1     10270-1.33303E+01 2.18538E+00 8.47442E-03-4.98332E+00-9.43100E-05 2.77221E-04
 -1     10271-1.33507E+01 2.20601E+00 8.45500E-03-4.98063E+00-9.00613E-05 3.15212E-04
 -1     10272-1.33779E+01 2.23352E+00 8.46351E-03-4.97701E+00-4.39640E-05 3.00375E-04
 -1     10273-1.28885E+01 2.93219E+00 4.35156E-03-3.23792E+00 9.13680E-06-2.55385E-04
 -1     10274-1.28605E+01 2.90401E+00 4.34026E-03-3.24563E+00 4.76248E-05-2.70712E-04
 -1     10275-1.28396E+01 2.88290E+00 4.35067E-03-3.25138E+00 5.35912E-05-2.40383E-04
 -1     10276-1.28257E+01 2.86882E+00 4.35832E-03-3.25520E+00 3.82224E-05-1.65368E-04
 -1     10277-1.28188E+01 2.86179E+00 4.36654E-03-3.25711E+00 1.37484E-05-5.90234E-05
 -1     10278-1.28188E+01 2.86179E+00 4.36654E-03-3.25711E+00-1.37484E-05 5.90234E-05
 -1     10279-1.28257E+01 2.86882E+00 4.35832E-03-3.25520E+00-3.82224E-05 1.65368E-04
 -1     10280-1.28396E+01 2.88290E+00 4.35067E-03-3.25138E+00-5.35912E-05 2.40383E-04
 -1     10281-1.28605E+01 2.90401E+00 4.34026E-03-3.24563E+00-4.76248E-05 2.70712E-04
 -1     10282-1.28885E+01 2.93219E+00 4.35156E-03-3.23792E+00-9.13680E-06 2.55385E-04
 -1     10283-1.20380E+01 3.25012E+00-9.29150E-04-1.57722E+00-6.89090E-05-2.13669E-04
 -1     10284-1.20105E+01 3.22237E+00-9.47806E-04-1.58876E+00-3.84953E-05-2.25903E-04
 -1     10285-1.19899E+01 3.20161E+00-9.53704E-04-1.59740E+00-2.50881E-05-2.01413E-04
 -1     10286-1.19762E+01 3.18777E+00-9.62761E-04-1.60314E+00-1.68867E-05-1.39227E-04
 -1     10287-1.19693E+01 3.18087E+00-9.64766E-04-1.60601E+00-6.03675E-06-4.98362E-05
 -1     10288-1.19693E+01 3.18087E+00-9.64766E-04-1.60601E+00 6.03675E-06 4.98362E-05
 -1     10289-1.19762E+01 3.18777E+00-9.62761E-04-1.60314E+00 1.68867E-05 1.39227E-04
 -1     10290-1.19899E+01 3.20161E+00-9.53704E-04-1.59740E+00 2.50881E-05 2.01413E-04
 -1     10291-1.20105E+01 3.22237E+00-9.47806E-04-1.58876E+00 3.84953E-05 2.25903E-04
 -1     10292-1.20380E+01 3.25012E+00-9.29150E-04-1.57722E+00 6.89090E-05 2.13669E-04
 -1     10293-1.08538E+01 3.19218E+00-7.36015E-03-8.97510E-02-2.01519E-04-1.94231E-04
 -1     10294-1.08279E+01 3.16612E+00-7.39277E-03-1.04513E-01-1.79087E-04-1.97168E-04
 -1     10295-1.08086E+01 3.14665E+00-7.42530E-03-1.15567E-01-1.50762E-04-1.72971E-04
 -1     10296-1.07957E+01 3.13369E+00-7.46002E-03-1.22924E-01-1.03847E-04-1.18757E-04
 -1     10297-1.07892E+01 3.12723E+00-7.47772E-03-1.26598E-01-3.70988E-05-4.24357E-05
 -1     10298-1.07892E+01 3.12723E+00-7.47772E-03-1.26598E-01 3.70988E-05 4.24357E-05
 -1     10299-1.07957E+01 3.13369E+00-7.46002E-03-1.22924E-01 1.03847E-04 1.18757E-04
 -1     10300-1.08086E+01 3.14665E+00-7.42530E-03-1.15567E-01 1.50762E-04 1.72971E-04
 -1     10301-1.08279E+01 3.16612E+00-7.39277E-03-1.04513E-01 1.79087E-04 1.97168E-04
 -1     10302-1.08538E+01 3.19218E+00-7.36015E-03-8.97510E-02 2.01519E-04 1.94231E-04
 -1     10303-9.38891E+00 2.79013E+00-1.47648E-02 1.12993E+00-3.98637E-04-2.29532E-04
 -1     10304-9.36608E+00 2.76711E+00-1.48225E-02 1.11305E+00-3.83076E-04-2.12959E-04
 -1     10305-9.34895E+00 2.74996E+00-1.48929E-02 1.10040E+00-3.30692E-04-1.76553E-04
 -1     10306-9.33754E+00 2.73857E+00-1.49667E-02 1.09198E+00-2.27706E-04-1.18040E-04
 -1     10307-9.33184E+00 2.73290E+00-1.50076E-02 1.08777E+00-8.12324E-05-4.16802E-05
 -1     10308-9.33184E+00 2.73290E+00-1.50076E-02 1.08777E+00 8.12324E-05 4.16802E-05
 -1     10309-9.33754E+00 2.73857E+00-1.49667E-02 1.09198E+00 2.27706E-04 1.18040E-04
 -1     10310-9.34895E+00 2.74996E+00-1.48929E-02 1.10040E+00 3.30692E-04 1.76553E-04
 -1     10311-9.36608E+00 2.76711E+00-1.48225E-02 1.11305E+00 3.83076E-04 2.12959E-04
 -1     10312-9.38891E+00 2.79013E+00-1.47648E-02 1.12993E+00 3.98637E-04 2.29532E-04
 -1     10313-7.72359E+00 2.10704E+00-2.27600E-02 1.99726E+00-6.65315E-04-3.68689E-04
 -1     10314-7.70520E+00 2.08849E+00-2.28524E-02 1.97989E+00-6.56331E-04-3.13362E-04
 -1     10315-7.69140E+00 2.07473E+00-2.29866E-02 1.96687E+00-5.70617E-04-2.43744E-04
 -1     10316-7.68220E+00 2.06563E+00-2.31100E-02 1.95820E+00-3.91683E-04-1.54168E-04
 -1     10317-7.67760E+00 2.06110E+00-2.31789E-02 1.95386E+00-1.39454E-04-5.28566E-05
 -1     10318-7.67760E+00 2.06110E+00-2.31789E-02 1.95386E+00 1.39454E-04 5.28566E-05
 -1     10319-7.68220E+00 2.06563E+00-2.31100E-02 1.95820E+00 3.91683E-04 1.54168E-04
 -1     10320-7.69140E+00 2.07473E+00-2.29866E-02 1.96687E+00 5.70617E-04 2.43744E-04
 -1     10321-7.70520E+00 2.08849E+00-2.28524E-02 1.97989E+00 6.56331E-04 3.13362E-04
 -1     10322-7.72359E+00 2.10704E+00-2.27600E-02 1.99726E+00 6.65315E-04 3.68689E-04
 -1     10323-5.96287E+00 1.24009E+00-3.07743E-02 2.45040E+00-1.00434E-03-6.79271E-04
 -1     10324-5.95047E+00 1.22740E+00-3.09503E-02 2.43472E+00-9.98396E-04-5.46211E-04
 -1     10325-5.94111E+00 1.21813E+00-3.11212E-02 2.42296E+00-8.65945E-04-3.89781E-04
 -1     10326-5.93488E+00 1.21204E+00-3.12980E-02 2.41513E+00-5.93571E-04-2.36894E-04
 -1     10327-5.93176E+00 1.20903E+00-3.14039E-02 2.41121E+00-2.11270E-04-7.98921E-05
 -1     10328-5.93176E+00 1.20903E+00-3.14039E-02 2.41121E+00 2.11270E-04 7.98921E-05
 -1     10329-5.93488E+00 1.21204E+00-3.12980E-02 2.41513E+00 5.93571E-04 2.36894E-04
 -1     10330-5.94111E+00 1.21813E+00-3.11212E-02 2.42296E+00 8.65945E-04 3.89781E-04
 -1     10331-5.95047E+00 1.22740E+00-3.09503E-02 2.43472E+00 9.98396E-04 5.46211E-04
 -1     10332-5.96287E+00 1.24009E+00-3.07743E-02 2.45040E+00 1.00434E-03 6.79271E-04
 -1     10333-4.23083E+00 3.21091E-01-3.85259E-02 2.46581E+00-1.36046E-03-1.23847E-03
 -1     10334-4.22580E+00 3.15829E-01-3.85640E-02 2.45450E+00-1.35782E-03-9.00418E-04
 -1     10335-4.22211E+00 3.12063E-01-3.88266E-02 2.44599E+00-1.18095E-03-6.38713E-04
 -1     10336-4.21968E+00 3.09666E-01-3.90534E-02 2.44030E+00-8.04843E-04-3.73365E-04
 -1     10337-4.21846E+00 3.08511E-01-3.91709E-02 2.43745E+00-2.85206E-04-1.21661E-04
 -1     10338-4.21846E+00 3.08511E-01-3.91709E-02 2.43745E+00 2.85206E-04 1.21661E-04
 -1     10339-4.21968E+00 3.09666E-01-3.90534E-02 2.44030E+00 8.04843E-04 3.73365E-04
 -1     10340-4.22211E+00 3.12063E-01-3.88266E-02 2.44599E+00 1.18095E-03 6.38713E-04
 -1     10341-4.22580E+00 3.15829E-01-3.85640E-02 2.45450E+00 1.35782E-03 9.00418E-04
 -1     10342-4.23083E+00 3.21091E-01-3.85259E-02 2.46581E+00 1.36046E-03 1.23847E-03
 -1     10343-2.66143E+00-4.83165E-01-4.62979E-02 2.07631E+00-1.63776E-03-2.12127E-03
 -1     10344-2.66578E+00-4.79984E-01-4.70074E-02 2.07211E+00-1.55046E-03-1.71196E-03
 -1     10345-2.66872E+00-4.77098E-01-4.70940E-02 2.06893E+00-1.26872E-03-1.11257E-03
 -1     10346-2.67050E+00-4.74960E-01-4.70664E-02 2.06680E+00-8.39313E-04-6.18564E-04
 -1     10347-2.67133E+00-4.73826E-01-4.70437E-02 2.06573E+00-2.94245E-04-1.98989E-04
 -1     10348-2.67133E+00-4.73826E-01-4.70437E-02 2.06573E+00 2.94245E-04 1.98989E-04
 -1     10349-2.67050E+00-4.74960E-01-4.70664E-02 2.06680E+00 8.39313E-04 6.18564E-04
 -1     10350-2.66872E+00-4.77098E-01-4.70940E-02 2.06893E+00 1.26872E-03 1.11257E-03
 -1     10351-2.66578E+00-4.79984E-01-4.70074E-02 2.07211E+00 1.55046E-03 1.71196E-03
 -1     10352-2.66143E+00-4.83165E-01-4.62979E-02 2.07631E+00 1.63776E-03 2.12127E-03
 -1     10353-1.39773E+00-9.71913E-01-6.16005E-02 1.38923E+00-9.31434E-04-4.32363E-03
 -1     10354-1.40893E+00-9.56969E-01-5.94810E-02 1.39497E+00-7.08879E-04-3.56628E-03
 -1     10355-1.41617E+00-9.45621E-01-5.91201E-02 1.39888E+00-5.86324E-04-3.17323E-03
 -1     10356-1.42047E+00-9.38000E-01-5.95155E-02 1.40121E+00-3.82946E-04-2.25677E-03
 -1     10357-1.42246E+00-9.34171E-01-5.99047E-02 1.40229E+00-1.31295E-04-8.19283E-04
 -1     10358-1.42246E+00-9.34171E-01-5.99047E-02 1.40229E+00 1.31295E-04 8.19283E-04
 -1     10359-1.42047E+00-9.38000E-01-5.95155E-02 1.40121E+00 3.82946E-04 2.25677E-03
 -1     10360-1.41617E+00-9.45621E-01-5.91201E-02 1.39888E+00 5.86324E-04 3.17323E-03
 -1     10361-1.40893E+00-9.56969E-01-5.94810E-02 1.39497E+00 7.08879E-04 3.56628E-03
 -1     10362-1.39773E+00-9.71913E-01-6.16005E-02 1.38923E+00 9.31434E-04 4.32363E-03
 -1     10363-5.75871E-01-8.89183E-01-7.11696E-02 6.13552E-01-4.57640E-05-7.33654E-03
 -1     10364-5.91835E-01-8.64785E-01-7.99443E-02 6.26130E-01 2.32064E-03-1.09742E-02
 -1     10365-6.01911E-01-8.46577E-01-8.74822E-02 6.33462E-01 3.71789E-03-1.03840E-02
 -1     10366-6.07776E-01-8.34468E-01-9.26444E-02 6.37441E-01 3.22108E-03-7.18706E-03
 -1     10367-6.10463E-01-8.28418E-01-9.52160E-02 6.39174E-01 1.25200E-03-2.54950E-03
 -1     10368-6.10463E-01-8.28418E-01-9.52160E-02 6.39174E-01-1.25200E-03 2.54950E-03
 -1     10369-6.07776E-01-8.34468E-01-9.26444E-02 6.37441E-01-3.22108E-03 7.18706E-03
 -1     10370-6.01911E-01-8.46577E-01-8.74822E-02 6.33462E-01-3.71789E-03 1.03840E-02
 -1     10371-5.91835E-01-8.64785E-01-7.99443E-02 6.26130E-01-2.32064E-03 1.09742E-02
 -1     10372-5.75871E-01-8.89183E-01-7.11696E-02 6.13552E-01 4.57640E-05 7.33654E-03
 -1     10373-2.56676E+00-2.89126E+01 2.39183E+00-7.33046E+00 8.62380E-02-6.21455E-02
 -1     10374-3.17146E+00-2.94308E+01 9.31472E-01-7.46116E+00 7.08054E-01-8.85403E-02
 -1     10375-3.56563E+00-2.97319E+01-1.00076E-01-7.54653E+00 7.12540E-01-8.18636E-02
 -1     10376-3.80169E+00-2.99022E+01-7.49201E-01-7.59925E+00 4.85340E-01-5.50890E-02
 -1     10377-3.91201E+00-2.99797E+01-1.06148E+00-7.62464E+00 1.69567E-01-1.92253E-02
 -1     10378-3.91201E+00-2.99797E+01-1.06148E+00-7.62464E+00-1.69567E-01 1.92253E-02
 -1     10379-3.80169E+00-2.99022E+01-7.49201E-01-7.59925E+00-4.85340E-01 5.50890E-02
 -1     10380-3.56563E+00-2.97319E+01-1.00076E-01-7.54653E+00-7.12540E-01 8.18636E-02
 -1     10381-3.17146E+00-2.94308E+01 9.31472E-01-7.46116E+00-7.08054E-01 8.85403E-02
 -1     10382-2.56676E+00-2.89126E+01 2.39183E+00-7.33046E+00-8.62380E-02 6.21455E-02
 -1     10383-5.07851E-01-3.08590E+01-1.35363E-01-7.50783E+00 5.29383E-04-2.69009E-02
 -1     10384-4.32245E-01-3.11067E+01 5.38653E-01-7.51698E+00-3.51616E-01-4.19643E-02
 -1     10385-4.25818E-01-3.12561E+01 8.07835E-01-7.53602E+00-3.12802E-01-3.41240E-02
 -1     10386-4.37069E-01-3.13412E+01 8.99570E-01-7.55294E+00-1.92464E-01-2.13089E-02
 -1     10387-4.46123E-01-3.13801E+01 9.23031E-01-7.56245E+00-6.36582E-02-7.16992E-03
 -1     10388-4.46123E-01-3.13801E+01 9.23031E-01-7.56245E+00 6.36582E-02 7.16992E-03
 -1     10389-4.37069E-01-3.13412E+01 8.99570E-01-7.55294E+00 1.92464E-01 2.13089E-02
 -1     10390-4.25818E-01-3.12561E+01 8.07835E-01-7.53602E+00 3.12802E-01 3.41240E-02
 -1     10391-4.32245E-01-3.11067E+01 5.38653E-01-7.51698E+00 3.51616E-01 4.19643E-02
 -1     10392-5.07851E-01-3.08590E+01-1.35363E-01-7.50783E+00-5.29383E-04 2.69009E-02
 -1     10393 7.52060E-01-3.01194E+01 1.80506E-01-7.75280E+00-6.20326E-02 1.14517E-02
 -1     10394 5.83001E-01-3.03235E+01 3.57802E-02-7.73643E+00-7.38030E-02 5.27997E-03
 -1     10395 5.13405E-01-3.04686E+01 9.14948E-02-7.72837E+00-1.16201E-01-1.31747E-03
 -1     10396 4.83139E-01-3.05611E+01 1.70142E-01-7.72498E+00-9.84287E-02-2.58863E-03
 -1     10397 4.71400E-01-3.06059E+01 2.16894E-01-7.72385E+00-3.75355E-02-1.11651E-03
 -1     10398 4.71400E-01-3.06059E+01 2.16894E-01-7.72385E+00 3.75355E-02 1.11651E-03
 -1     10399 4.83139E-01-3.05611E+01 1.70142E-01-7.72498E+00 9.84287E-02 2.58863E-03
 -1     10400 5.13405E-01-3.04686E+01 9.14948E-02-7.72837E+00 1.16201E-01 1.31747E-03
 -1     10401 5.83001E-01-3.03235E+01 3.57802E-02-7.73643E+00 7.38030E-02-5.27997E-03
 -1     10402 7.52060E-01-3.01194E+01 1.80506E-01-7.75280E+00 6.20326E-02-1.14517E-02
 -1     10403 6.68967E-01-2.90201E+01-1.97526E-02-8.47087E+00-1.09194E-02 2.26886E-03
 -1     10404 6.45920E-01-2.89420E+01 4.06178E-03-8.45969E+00-1.41213E-02 7.04238E-03
 -1     10405 6.03297E-01-2.89266E+01-2.36411E-02-8.45208E+00-3.92253E-03 8.25524E-03
 -1     10406 5.71646E-01-2.89315E+01-4.05031E-02-8.44747E+00-2.16546E-03 5.68284E-03
 -1     10407 5.55821E-01-2.89377E+01-4.60709E-02-8.44532E+00-1.03163E-03 1.95814E-03
 -1     10408 5.55821E-01-2.89377E+01-4.60709E-02-8.44532E+00 1.03163E-03-1.95814E-03
 -1     10409 5.71646E-01-2.89315E+01-4.05031E-02-8.44747E+00 2.16546E-03-5.68284E-03
 -1     10410 6.03297E-01-2.89266E+01-2.36411E-02-8.45208E+00 3.92253E-03-8.25524E-03
 -1     10411 6.45920E-01-2.89420E+01 4.06178E-03-8.45969E+00 1.41213E-02-7.04238E-03
 -1     10412 6.68967E-01-2.90201E+01-1.97526E-02-8.47087E+00 1.09194E-02-2.26886E-03
 -1     10413 2.07326E-01-2.73438E+01-2.11535E-02-9.48641E+00-1.35258E-03 3.29201E-04
 -1     10414 1.74305E-01-2.73098E+01-2.82967E-02-9.48090E+00 3.18265E-03 1.10763E-03
 -1     10415 1.55551E-01-2.72741E+01-2.53018E-02-9.47571E+00 2.60352E-03 1.57088E-03
 -1     10416 1.42017E-01-2.72501E+01-2.81601E-02-9.47191E+00 2.81095E-03 1.60747E-03
 -1     10417 1.34681E-01-2.72385E+01-3.14575E-02-9.46994E+00 1.25766E-03 6.78177E-04
 -1     10418 1.34681E-01-2.72385E+01-3.14575E-02-9.46994E+00-1.25766E-03-6.78177E-04
 -1     10419 1.42017E-01-2.72501E+01-2.81601E-02-9.47191E+00-2.81095E-03-1.60747E-03
 -1     10420 1.55551E-01-2.72741E+01-2.53018E-02-9.47571E+00-2.60352E-03-1.57088E-03
 -1     10421 1.74305E-01-2.73098E+01-2.82967E-02-9.48090E+00-3.18265E-03-1.10763E-03
 -1     10422 2.07326E-01-2.73438E+01-2.11535E-02-9.48641E+00 1.35258E-03-3.29201E-04
 -1     10423-6.11608E-01-2.55675E+01-9.20615E-03-1.05865E+01-1.46733E-03-7.88726E-04
 -1     10424-6.33714E-01-2.55399E+01-8.23237E-03-1.05802E+01-4.02646E-04-3.19928E-04
 -1     10425-6.51387E-01-2.55209E+01-1.00318E-02-1.05755E+01 6.16409E-04-5.78919E-05
 -1     10426-6.62133E-01-2.55069E+01-9.71043E-03-1.05722E+01 3.88629E-04-3.79230E-05
 -1     10427-6.67176E-01-2.54994E+01-9.24678E-03-1.05705E+01 1.12956E-04-1.15679E-05
 -1     10428-6.67176E-01-2.54994E+01-9.24678E-03-1.05705E+01-1.12956E-04 1.15679E-05
 -1     10429-6.62133E-01-2.55069E+01-9.71043E-03-1.05722E+01-3.88629E-04 3.79230E-05
 -1     10430-6.51387E-01-2.55209E+01-1.00318E-02-1.05755E+01-6.16409E-04 5.78919E-05
 -1     10431-6.33714E-01-2.55399E+01-8.23237E-03-1.05802E+01 4.02646E-04 3.19928E-04
 -1     10432-6.11608E-01-2.55675E+01-9.20615E-03-1.05865E+01 1.46733E-03 7.88726E-04
 -1     10433-1.69088E+00-2.36735E+01 3.18990E-04-1.16300E+01-1.10369E-03-5.44526E-04
 -1     10434-1.70847E+00-2.36565E+01 3.70588E-04-1.16218E+01-9.01554E-04-4.85051E-04
 -1     10435-1.72128E+00-2.36431E+01 7.82114E-04-1.16156E+01-7.22155E-04-2.97077E-04
 -1     10436-1.72987E+00-2.36343E+01 6.40530E-04-1.16115E+01-3.51149E-04-1.18269E-04
 -1     10437-1.73412E+00-2.36300E+01 5.55632E-04-1.16094E+01-1.02606E-04-2.73882E-05
 -1     10438-1.73412E+00-2.36300E+01 5.55632E-04-1.16094E+01 1.02606E-04 2.73882E-05
 -1     10439-1.72987E+00-2.36343E+01 6.40530E-04-1.16115E+01 3.51149E-04 1.18269E-04
 -1     10440-1.72128E+00-2.36431E+01 7.82114E-04-1.16156E+01 7.22155E-04 2.97077E-04
 -1     10441-1.70847E+00-2.36565E+01 3.70588E-04-1.16218E+01 9.01554E-04 4.85051E-04
 -1     10442-1.69088E+00-2.36735E+01 3.18990E-04-1.16300E+01 1.10369E-03 5.44526E-04
 -1     10443-2.95525E+00-2.16480E+01 6.23231E-03-1.25243E+01-7.53836E-04-4.84633E-04
 -1     10444-2.96765E+00-2.16360E+01 6.29042E-03-1.25139E+01-6.33406E-04-4.10415E-04
 -1     10445-2.97703E+00-2.16272E+01 6.19153E-03-1.25062E+01-4.80417E-04-2.77326E-04
 -1     10446-2.98308E+00-2.16212E+01 6.29453E-03-1.25010E+01-3.29646E-04-1.53203E-04
 -1     10447-2.98606E+00-2.16182E+01 6.32436E-03-1.24985E+01-1.16088E-04-4.46969E-05
 -1     10448-2.98606E+00-2.16182E+01 6.32436E-03-1.24985E+01 1.16088E-04 4.46969E-05
 -1     10449-2.98308E+00-2.16212E+01 6.29453E-03-1.25010E+01 3.29646E-04 1.53203E-04
 -1     10450-2.97703E+00-2.16272E+01 6.19153E-03-1.25062E+01 4.80417E-04 2.77326E-04
 -1     10451-2.96765E+00-2.16360E+01 6.29042E-03-1.25139E+01 6.33406E-04 4.10415E-04
 -1     10452-2.95525E+00-2.16480E+01 6.23231E-03-1.25243E+01 7.53836E-04 4.84633E-04
 -1     10453-4.34311E+00-1.94944E+01 1.00016E-02-1.32079E+01-4.63033E-04-4.23793E-04
 -1     10454-4.35094E+00-1.94870E+01 9.98232E-03-1.31959E+01-3.57152E-04-3.84427E-04
 -1     10455-4.35683E+00-1.94815E+01 9.91350E-03-1.31870E+01-2.75386E-04-2.65320E-04
 -1     10456-4.36067E+00-1.94778E+01 9.88796E-03-1.31810E+01-1.72513E-04-1.44939E-04
 -1     10457-4.36253E+00-1.94759E+01 9.89020E-03-1.31780E+01-6.10887E-05-4.39949E-05
 -1     10458-4.36253E+00-1.94759E+01 9.89020E-03-1.31780E+01 6.10887E-05 4.39949E-05
 -1     10459-4.36067E+00-1.94778E+01 9.88796E-03-1.31810E+01 1.72513E-04 1.44939E-04
 -1     10460-4.35683E+00-1.94815E+01 9.91350E-03-1.31870E+01 2.75386E-04 2.65320E-04
 -1     10461-4.35094E+00-1.94870E+01 9.98232E-03-1.31959E+01 3.57152E-04 3.84427E-04
 -1     10462-4.34311E+00-1.94944E+01 1.00016E-02-1.32079E+01 4.63033E-04 4.23793E-04
 -1     10463-5.79780E+00-1.72343E+01 1.25422E-02-1.36398E+01-3.13563E-04-3.97496E-04
 -1     10464-5.80132E+00-1.72312E+01 1.25156E-02-1.36268E+01-2.22968E-04-3.77476E-04
 -1     10465-5.80401E+00-1.72289E+01 1.24251E-02-1.36171E+01-1.67786E-04-2.74742E-04
 -1     10466-5.80570E+00-1.72273E+01 1.24116E-02-1.36106E+01-1.10637E-04-1.58084E-04
 -1     10467-5.80652E+00-1.72265E+01 1.24007E-02-1.36074E+01-3.94605E-05-4.90126E-05
 -1     10468-5.80652E+00-1.72265E+01 1.24007E-02-1.36074E+01 3.94605E-05 4.90126E-05
 -1     10469-5.80570E+00-1.72273E+01 1.24116E-02-1.36106E+01 1.10637E-04 1.58084E-04
 -1     10470-5.80401E+00-1.72289E+01 1.24251E-02-1.36171E+01 1.67786E-04 2.74742E-04
 -1     10471-5.80132E+00-1.72312E+01 1.25156E-02-1.36268E+01 2.22968E-04 3.77476E-04
 -1     10472-5.79780E+00-1.72343E+01 1.25422E-02-1.36398E+01 3.13563E-04 3.97496E-04
 -1     10473-7.26439E+00-1.49011E+01 1.42857E-02-1.37936E+01-2.29603E-04-3.89236E-04
 -1     10474-7.26379E+00-1.49022E+01 1.42548E-02-1.37803E+01-1.54745E-04-3.86234E-04
 -1     10475-7.26340E+00-1.49030E+01 1.41711E-02-1.37703E+01-1.19566E-04-2.93590E-04
 -1     10476-7.26306E+00-1.49035E+01 1.41550E-02-1.37637E+01-8.08974E-05-1.75965E-04
 -1     10477-7.26285E+00-1.49037E+01 1.41496E-02-1.37603E+01-3.00582E-05-5.66497E-05
 -1     10478-7.26285E+00-1.49037E+01 1.41496E-02-1.37603E+01 3.00582E-05 5.66497E-05
 -1     10479-7.26306E+00-1.49035E+01 1.41550E-02-1.37637E+01 8.08974E-05 1.75965E-04
 -1     10480-7.26340E+00-1.49030E+01 1.41711E-02-1.37703E+01 1.19566E-04 2.93590E-04
 -1     10481-7.26379E+00-1.49022E+01 1.42548E-02-1.37803E+01 1.54745E-04 3.86234E-04
 -1     10482-7.26439E+00-1.49011E+01 1.42857E-02-1.37936E+01 2.29603E-04 3.89236E-04
 -1     10483-8.68837E+00-1.25363E+01 1.54499E-02-1.36552E+01-1.74844E-04-3.97232E-04
 -1     10484-8.68378E+00-1.25414E+01 1.54213E-02-1.36421E+01-1.08899E-04-4.07327E-04
 -1     10485-8.68041E+00-1.25452E+01 1.53463E-02-1.36323E+01-8.60446E-05-3.21680E-04
 -1     10486-8.67809E+00-1.25477E+01 1.53372E-02-1.36258E+01-6.11187E-05-1.99316E-04
 -1     10487-8.67691E+00-1.25489E+01 1.53341E-02-1.36225E+01-2.33825E-05-6.56638E-05
 -1     10488-8.67691E+00-1.25489E+01 1.53341E-02-1.36225E+01 2.33825E-05 6.56638E-05
 -1     10489-8.67809E+00-1.25477E+01 1.53372E-02-1.36258E+01 6.11187E-05 1.99316E-04
 -1     10490-8.68041E+00-1.25452E+01 1.53463E-02-1.36323E+01 8.60446E-05 3.21680E-04
 -1     10491-8.68378E+00-1.25414E+01 1.54213E-02-1.36421E+01 1.08899E-04 4.07327E-04
 -1     10492-8.68837E+00-1.25363E+01 1.54499E-02-1.36552E+01 1.74844E-04 3.97232E-04
 -1     10493-1.00156E+01-1.01866E+01 1.61503E-02-1.32210E+01-1.29340E-04-4.15251E-04
 -1     10494-1.00072E+01-1.01956E+01 1.61270E-02-1.32088E+01-6.76700E-05-4.37201E-04
 -1     10495-1.00009E+01-1.02023E+01 1.60639E-02-1.31996E+01-5.41141E-05-3.56480E-04
 -1     10496-9.99670E+00-1.02067E+01 1.60628E-02-1.31935E+01-4.11354E-05-2.26994E-04
 -1     10497-9.99457E+00-1.02089E+01 1.60648E-02-1.31905E+01-1.66736E-05-7.62995E-05
 -1     10498-9.99457E+00-1.02089E+01 1.60648E-02-1.31905E+01 1.66736E-05 7.62995E-05
 -1     10499-9.99670E+00-1.02067E+01 1.60628E-02-1.31935E+01 4.11354E-05 2.26994E-04
 -1     10500-1.00009E+01-1.02023E+01 1.60639E-02-1.31996E+01 5.41141E-05 3.56480E-04
 -1     10501-1.00072E+01-1.01956E+01 1.61270E-02-1.32088E+01 6.76700E-05 4.37201E-04
 -1     10502-1.00156E+01-1.01866E+01 1.61503E-02-1.32210E+01 1.29340E-04 4.15251E-04
 -1     10503-1.11929E+01-7.90238E+00 1.64149E-02-1.24980E+01-8.48824E-05-4.36516E-04
 -1     10504-1.11808E+01-7.91504E+00 1.63994E-02-1.24873E+01-2.52466E-05-4.70509E-04
 -1     10505-1.11718E+01-7.92455E+00 1.63503E-02-1.24792E+01-1.98001E-05-3.94303E-04
 -1     10506-1.11657E+01-7.93081E+00 1.63591E-02-1.24739E+01-1.90641E-05-2.56691E-04
 -1     10507-1.11627E+01-7.93391E+00 1.63667E-02-1.24712E+01-9.06778E-06-8.76001E-05
 -1     10508-1.11627E+01-7.93391E+00 1.63667E-02-1.24712E+01 9.06779E-06 8.76001E-05
 -1     10509-1.11657E+01-7.93081E+00 1.63591E-02-1.24739E+01 1.90641E-05 2.56691E-04
 -1     10510-1.11718E+01-7.92455E+00 1.63503E-02-1.24792E+01 1.98001E-05 3.94303E-04
 -1     10511-1.11808E+01-7.91504E+00 1.63994E-02-1.24873E+01 2.52466E-05 4.70509E-04
 -1     10512-1.11929E+01-7.90238E+00 1.64149E-02-1.24980E+01 8.48824E-05 4.36516E-04
 -1     10513-1.21689E+01-5.73596E+00 1.62060E-02-1.15039E+01-3.87744E-05-4.53791E-04
 -1     10514-1.21533E+01-5.75209E+00 1.61995E-02-1.14952E+01 1.91031E-05-5.00564E-04
 -1     10515-1.21417E+01-5.76419E+00 1.61653E-02-1.14887E+01 1.64728E-05-4.29726E-04
 -1     10516-1.21340E+01-5.77218E+00 1.61844E-02-1.14843E+01 4.49478E-06-2.84939E-04
 -1     10517-1.21301E+01-5.77614E+00 1.61980E-02-1.14822E+01-9.22453E-07-9.84217E-05
 -1     10518-1.21301E+01-5.77614E+00 1.61980E-02-1.14822E+01 9.22453E-07 9.84217E-05
 -1     10519-1.21340E+01-5.77218E+00 1.61844E-02-1.14843E+01-4.49478E-06 2.84939E-04
 -1     10520-1.21417E+01-5.76419E+00 1.61653E-02-1.14887E+01-1.64728E-05 4.29726E-04
 -1     10521-1.21533E+01-5.75209E+00 1.61995E-02-1.14952E+01-1.91031E-05 5.00564E-04
 -1     10522-1.21689E+01-5.73596E+00 1.62060E-02-1.15039E+01 3.87744E-05 4.53791E-04
 -1     10523-1.28957E+01-3.74008E+00 1.54330E-02-1.02673E+01 7.33677E-06-4.59890E-04
 -1     10524-1.28770E+01-3.75935E+00 1.54353E-02-1.02612E+01 6.19892E-05-5.20283E-04
 -1     10525-1.28630E+01-3.77380E+00 1.54148E-02-1.02566E+01 5.09467E-05-4.56790E-04
 -1     10526-1.28537E+01-3.78337E+00 1.54433E-02-1.02536E+01 2.66775E-05-3.07762E-04
 -1     10527-1.28491E+01-3.78812E+00 1.54621E-02-1.02520E+01 6.72541E-06-1.07357E-04
 -1     10528-1.28491E+01-3.78812E+00 1.54621E-02-1.02520E+01-6.72541E-06 1.07357E-04
 -1     10529-1.28537E+01-3.78337E+00 1.54433E-02-1.02536E+01-2.66775E-05 3.07762E-04
 -1     10530-1.28630E+01-3.77380E+00 1.54148E-02-1.02566E+01-5.09467E-05 4.56790E-04
 -1     10531-1.28770E+01-3.75935E+00 1.54353E-02-1.02612E+01-6.19892E-05 5.20283E-04
 -1     10532-1.28957E+01-3.74008E+00 1.54330E-02-1.02673E+01-7.33677E-06 4.59890E-04
 -1     10533-1.33307E+01-1.96597E+00 1.39641E-02-8.82855E+00 4.79733E-05-4.48261E-04
 -1     10534-1.33092E+01-1.98797E+00 1.39738E-02-8.82553E+00 9.62019E-05-5.22854E-04
 -1     10535-1.32932E+01-2.00446E+00 1.39635E-02-8.82322E+00 7.66193E-05-4.69570E-04
 -1     10536-1.32826E+01-2.01538E+00 1.39984E-02-8.82168E+00 4.24759E-05-3.21154E-04
 -1     10537-1.32772E+01-2.02081E+00 1.40206E-02-8.82092E+00 1.20565E-05-1.12994E-04
 -1     10538-1.32772E+01-2.02081E+00 1.40206E-02-8.82092E+00-1.20565E-05 1.12994E-04
 -1     10539-1.32826E+01-2.01538E+00 1.39984E-02-8.82168E+00-4.24759E-05 3.21154E-04
 -1     10540-1.32932E+01-2.00446E+00 1.39635E-02-8.82322E+00-7.66193E-05 4.69570E-04
 -1     10541-1.33092E+01-1.98797E+00 1.39738E-02-8.82553E+00-9.62019E-05 5.22854E-04
 -1     10542-1.33307E+01-1.96597E+00 1.39641E-02-8.82855E+00-4.79733E-05 4.48261E-04
 -1     10543-1.34393E+01-4.61032E-01 1.16411E-02-7.24006E+00 7.40477E-05-4.13803E-04
 -1     10544-1.34156E+01-4.85211E-01 1.16547E-02-7.24048E+00 1.10868E-04-5.02587E-04
 -1     10545-1.33980E+01-5.03334E-01 1.16488E-02-7.24074E+00 8.33615E-05-4.62924E-04
 -1     10546-1.33862E+01-5.15336E-01 1.16846E-02-7.24091E+00 4.47847E-05-3.21554E-04
 -1     10547-1.33804E+01-5.21303E-01 1.17072E-02-7.24099E+00 1.25225E-05-1.14062E-04
 -1     10548-1.33804E+01-5.21303E-01 1.17072E-02-7.24099E+00-1.25225E-05 1.14062E-04
 -1     10549-1.33862E+01-5.15336E-01 1.16846E-02-7.24091E+00-4.47847E-05 3.21554E-04
 -1     10550-1.33980E+01-5.03334E-01 1.16488E-02-7.24074E+00-8.33615E-05 4.62924E-04
 -1     10551-1.34156E+01-4.85211E-01 1.16547E-02-7.24048E+00-1.10868E-04 5.02587E-04
 -1     10552-1.34393E+01-4.61032E-01 1.16411E-02-7.24006E+00-7.40477E-05 4.13803E-04
 -1     10553-1.31985E+01 7.34255E-01 8.29781E-03-5.56633E+00 7.31554E-05-3.54006E-04
 -1     10554-1.31732E+01 7.08577E-01 8.31011E-03-5.57040E+00 9.17831E-05-4.56004E-04
 -1     10555-1.31544E+01 6.89344E-01 8.29965E-03-5.57339E+00 5.82164E-05-4.33382E-04
 -1     10556-1.31419E+01 6.76610E-01 8.32852E-03-5.57536E+00 2.46140E-05-3.06446E-04
 -1     10557-1.31356E+01 6.70278E-01 8.34673E-03-5.57635E+00 4.91307E-06-1.09644E-04
 -1     10558-1.31356E+01 6.70278E-01 8.34673E-03-5.57635E+00-4.91307E-06 1.09644E-04
 -1     10559-1.31419E+01 6.76610E-01 8.32852E-03-5.57536E+00-2.46140E-05 3.06446E-04
 -1     10560-1.31544E+01 6.89344E-01 8.29965E-03-5.57339E+00-5.82164E-05 4.33382E-04
 -1     10561-1.31732E+01 7.08577E-01 8.31011E-03-5.57040E+00-9.17831E-05 4.56004E-04
 -1     10562-1.31985E+01 7.34255E-01 8.29781E-03-5.56633E+00-7.31554E-05 3.54006E-04
 -1     10563-1.26002E+01 1.59005E+00 3.78854E-03-3.88298E+00 3.01162E-05-2.70522E-04
 -1     10564-1.25742E+01 1.56370E+00 3.79191E-03-3.89068E+00 2.20644E-05-3.83301E-04
 -1     10565-1.25548E+01 1.54398E+00 3.76465E-03-3.89640E+00-1.39802E-05-3.80342E-04
 -1     10566-1.25419E+01 1.53094E+00 3.77573E-03-3.90019E+00-2.84678E-05-2.75116E-04
 -1     10567-1.25354E+01 1.52446E+00 3.78323E-03-3.90208E+00-1.44836E-05-9.94422E-05
 -1     10568-1.25354E+01 1.52446E+00 3.78323E-03-3.90208E+00 1.44836E-05 9.94422E-05
 -1     10569-1.25419E+01 1.53094E+00 3.77573E-03-3.90019E+00 2.84678E-05 2.75116E-04
 -1     10570-1.25548E+01 1.54398E+00 3.76465E-03-3.89640E+00 1.39802E-05 3.80342E-04
 -1     10571-1.25742E+01 1.56370E+00 3.79191E-03-3.89068E+00-2.20644E-05 3.83301E-04
 -1     10572-1.26002E+01 1.59005E+00 3.78854E-03-3.88298E+00-3.01162E-05 2.70522E-04
 -1     10573-1.16560E+01 2.09147E+00-1.97377E-03-2.27452E+00-7.21034E-05-1.71397E-04
 -1     10574-1.16302E+01 2.06541E+00-1.98955E-03-2.28557E+00-1.16664E-04-2.90400E-04
 -1     10575-1.16109E+01 2.04595E+00-2.04926E-03-2.29378E+00-1.49472E-04-3.07692E-04
 -1     10576-1.15981E+01 2.03309E+00-2.06995E-03-2.29924E+00-1.25558E-04-2.29741E-04
 -1     10577-1.15917E+01 2.02671E+00-2.08120E-03-2.30196E+00-4.95982E-05-8.41435E-05
 -1     10578-1.15917E+01 2.02671E+00-2.08120E-03-2.30196E+00 4.95982E-05 8.41435E-05
 -1     10579-1.15981E+01 2.03309E+00-2.06995E-03-2.29924E+00 1.25558E-04 2.29741E-04
 -1     10580-1.16109E+01 2.04595E+00-2.04926E-03-2.29378E+00 1.49472E-04 3.07692E-04
 -1     10581-1.16302E+01 2.06541E+00-1.98955E-03-2.28557E+00 1.16664E-04 2.90400E-04
 -1     10582-1.16560E+01 2.09147E+00-1.97377E-03-2.27452E+00 7.21034E-05 1.71397E-04
 -1     10583-1.04006E+01 2.24323E+00-8.96487E-03-8.30219E-01-2.50764E-04-7.44526E-05
 -1     10584-1.03760E+01 2.21853E+00-9.01308E-03-8.43930E-01-3.42407E-04-1.92170E-04
 -1     10585-1.03576E+01 2.20014E+00-9.12512E-03-8.54146E-01-3.63887E-04-2.26508E-04
 -1     10586-1.03453E+01 2.18803E+00-9.19440E-03-8.60932E-01-2.77142E-04-1.76953E-04
 -1     10587-1.03392E+01 2.18202E+00-9.23425E-03-8.64318E-01-1.04123E-04-6.59700E-05
 -1     10588-1.03392E+01 2.18202E+00-9.23425E-03-8.64318E-01 1.04123E-04 6.59700E-05
 -1     10589-1.03453E+01 2.18803E+00-9.19440E-03-8.60932E-01 2.77142E-04 1.76953E-04
 -1     10590-1.03576E+01 2.20014E+00-9.12512E-03-8.54146E-01 3.63887E-04 2.26508E-04
 -1     10591-1.03760E+01 2.21853E+00-9.01308E-03-8.43930E-01 3.42407E-04 1.92170E-04
 -1     10592-1.04006E+01 2.24323E+00-8.96487E-03-8.30219E-01 2.50764E-04 7.44526E-05
 -1     10593-8.89437E+00 2.07385E+00-1.69821E-02 3.62330E-01-5.21647E-04-1.28290E-05
 -1     10594-8.87203E+00 2.05167E+00-1.70810E-02 3.47080E-01-6.70317E-04-1.17488E-04
 -1     10595-8.85534E+00 2.03524E+00-1.72676E-02 3.35702E-01-6.69665E-04-1.58479E-04
 -1     10596-8.84421E+00 2.02446E+00-1.74071E-02 3.28141E-01-4.91603E-04-1.30704E-04
 -1     10597-8.83865E+00 2.01913E+00-1.74879E-02 3.24367E-01-1.81005E-04-4.97058E-05
 -1     10598-8.83865E+00 2.01913E+00-1.74879E-02 3.24367E-01 1.81005E-04 4.97058E-05
 -1     10599-8.84421E+00 2.02446E+00-1.74071E-02 3.28141E-01 4.91603E-04 1.30704E-04
 -1     10600-8.85534E+00 2.03524E+00-1.72676E-02 3.35702E-01 6.69665E-04 1.58479E-04
 -1     10601-8.87203E+00 2.05167E+00-1.70810E-02 3.47080E-01 6.70317E-04 1.17488E-04
 -1     10602-8.89437E+00 2.07385E+00-1.69821E-02 3.62330E-01 5.21647E-04 1.28290E-05
 -1     10603-7.22374E+00 1.63901E+00-2.55624E-02 1.22614E+00-8.94436E-04-4.14066E-05
 -1     10604-7.20488E+00 1.62054E+00-2.57319E-02 1.21099E+00-1.10882E-03-1.12292E-04
 -1     10605-7.19077E+00 1.60697E+00-2.60291E-02 1.19968E+00-1.07384E-03-1.39492E-04
 -1     10606-7.18135E+00 1.59814E+00-2.62606E-02 1.19216E+00-7.72783E-04-1.11233E-04
 -1     10607-7.17664E+00 1.59379E+00-2.63933E-02 1.18840E+00-2.81419E-04-4.17776E-05
 -1     10608-7.17664E+00 1.59379E+00-2.63933E-02 1.18840E+00 2.81419E-04 4.17776E-05
 -1     10609-7.18135E+00 1.59814E+00-2.62606E-02 1.19216E+00 7.72783E-04 1.11233E-04
 -1     10610-7.19077E+00 1.60697E+00-2.60291E-02 1.19968E+00 1.07384E-03 1.39492E-04
 -1     10611-7.20488E+00 1.62054E+00-2.57319E-02 1.21099E+00 1.10882E-03 1.12292E-04
 -1     10612-7.22374E+00 1.63901E+00-2.55624E-02 1.22614E+00 8.94436E-04 4.14066E-05
 -1     10613-5.49756E+00 1.02309E+00-3.38937E-02 1.70642E+00-1.37225E-03-2.44644E-04
 -1     10614-5.48345E+00 1.00951E+00-3.41902E-02 1.69356E+00-1.65165E-03-2.39063E-04
 -1     10615-5.47286E+00 9.99712E-01-3.45952E-02 1.68395E+00-1.56323E-03-1.97559E-04
 -1     10616-5.46577E+00 9.93430E-01-3.49355E-02 1.67755E+00-1.11095E-03-1.34565E-04
 -1     10617-5.46223E+00 9.90372E-01-3.51348E-02 1.67436E+00-4.01931E-04-4.78347E-05
 -1     10618-5.46223E+00 9.90372E-01-3.51348E-02 1.67436E+00 4.01931E-04 4.78347E-05
 -1     10619-5.46577E+00 9.93430E-01-3.49355E-02 1.67755E+00 1.11095E-03 1.34565E-04
 -1     10620-5.47286E+00 9.99712E-01-3.45952E-02 1.68395E+00 1.56323E-03 1.97559E-04
 -1     10621-5.48345E+00 1.00951E+00-3.41902E-02 1.69356E+00 1.65165E-03 2.39063E-04
 -1     10622-5.49756E+00 1.02309E+00-3.38937E-02 1.70642E+00 1.37225E-03 2.44644E-04
 -1     10623-3.83897E+00 3.38664E-01-4.11090E-02 1.78484E+00-1.88038E-03-7.29407E-04
 -1     10624-3.83092E+00 3.31277E-01-4.13581E-02 1.77698E+00-2.20619E-03-5.01844E-04
 -1     10625-3.82497E+00 3.26122E-01-4.19020E-02 1.77105E+00-2.05889E-03-3.45291E-04
 -1     10626-3.82101E+00 3.22960E-01-4.23376E-02 1.76708E+00-1.44689E-03-1.95669E-04
 -1     10627-3.81903E+00 3.21471E-01-4.25764E-02 1.76509E+00-5.20043E-04-6.21469E-05
 -1     10628-3.81903E+00 3.21471E-01-4.25764E-02 1.76509E+00 5.20043E-04 6.21469E-05
 -1     10629-3.82101E+00 3.22960E-01-4.23376E-02 1.76708E+00 1.44689E-03 1.95669E-04
 -1     10630-3.82497E+00 3.26122E-01-4.19020E-02 1.77105E+00 2.05889E-03 3.45291E-04
 -1     10631-3.83092E+00 3.31277E-01-4.13581E-02 1.77698E+00 2.20619E-03 5.01844E-04
 -1     10632-3.83897E+00 3.38664E-01-4.11090E-02 1.78484E+00 1.88038E-03 7.29407E-04
 -1     10633-2.37369E+00-2.74443E-01-4.67980E-02 1.49699E+00-2.24267E-03-1.54259E-03
 -1     10634-2.37370E+00-2.74660E-01-4.75536E-02 1.49684E+00-2.46320E-03-1.08796E-03
 -1     10635-2.37352E+00-2.74178E-01-4.79172E-02 1.49663E+00-2.18589E-03-5.79157E-04
 -1     10636-2.37326E+00-2.73508E-01-4.81068E-02 1.49645E+00-1.50056E-03-2.56347E-04
 -1     10637-2.37308E+00-2.73065E-01-4.82055E-02 1.49634E+00-5.34569E-04-7.00512E-05
 -1     10638-2.37308E+00-2.73065E-01-4.82055E-02 1.49634E+00 5.34569E-04 7.00512E-05
 -1     10639-2.37326E+00-2.73508E-01-4.81068E-02 1.49645E+00 1.50056E-03 2.56347E-04
 -1     10640-2.37352E+00-2.74178E-01-4.79172E-02 1.49663E+00 2.18589E-03 5.79157E-04
 -1     10641-2.37370E+00-2.74660E-01-4.75536E-02 1.49684E+00 2.46320E-03 1.08796E-03
 -1     10642-2.37369E+00-2.74443E-01-4.67980E-02 1.49699E+00 2.24267E-03 1.54259E-03
 -1     10643-1.22438E+00-6.48829E-01-5.68820E-02 9.51640E-01-1.32156E-03-3.30948E-03
 -1     10644-1.23098E+00-6.39076E-01-5.51893E-02 9.61873E-01-1.33283E-03-2.23599E-03
 -1     10645-1.23510E+00-6.31487E-01-5.49121E-02 9.69020E-01-1.25816E-03-1.78199E-03
 -1     10646-1.23745E+00-6.26265E-01-5.52128E-02 9.73447E-01-8.86716E-04-1.21538E-03
 -1     10647-1.23850E+00-6.23603E-01-5.55168E-02 9.75545E-01-3.17491E-04-4.35290E-04
 -1     10648-1.23850E+00-6.23603E-01-5.55168E-02 9.75545E-01 3.17491E-04 4.35290E-04
 -1     10649-1.23745E+00-6.26265E-01-5.52128E-02 9.73447E-01 8.86716E-04 1.21538E-03
 -1     10650-1.23510E+00-6.31487E-01-5.49121E-02 9.69020E-01 1.25816E-03 1.78199E-03
 -1     10651-1.23098E+00-6.39076E-01-5.51893E-02 9.61873E-01 1.33283E-03 2.23599E-03
 -1     10652-1.22438E+00-6.48829E-01-5.68820E-02 9.51640E-01 1.32156E-03 3.30948E-03
 -1     10653-4.94677E-01-5.69722E-01-6.17016E-02 3.64892E-01-6.00092E-04-5.50248E-03
 -1     10654-5.06357E-01-5.52800E-01-6.84972E-02 3.81621E-01 1.78924E-03-7.83043E-03
 -1     10655-5.13634E-01-5.40101E-01-7.44547E-02 3.91675E-01 3.36858E-03-7.29827E-03
 -1     10656-5.17809E-01-5.31571E-01-7.86008E-02 3.97300E-01 3.03882E-03-5.01780E-03
 -1     10657-5.19702E-01-5.27278E-01-8.06940E-02 3.99808E-01 1.19650E-03-1.77515E-03
 -1     10658-5.19702E-01-5.27278E-01-8.06940E-02 3.99808E-01-1.19650E-03 1.77515E-03
 -1     10659-5.17809E-01-5.31571E-01-7.86008E-02 3.97300E-01-3.03882E-03 5.01780E-03
 -1     10660-5.13634E-01-5.40101E-01-7.44547E-02 3.91675E-01-3.36858E-03 7.29827E-03
 -1     10661-5.06357E-01-5.52800E-01-6.84972E-02 3.81621E-01-1.78924E-03 7.83043E-03
 -1     10662-4.94677E-01-5.69722E-01-6.17016E-02 3.64892E-01 6.00092E-04 5.50248E-03
 -1     10663-1.99292E+00-3.19384E+01 2.84087E+00-7.71288E+00 5.65966E-02-3.42364E-02
 -1     10664-2.58959E+00-3.24978E+01 1.27915E+00-7.83344E+00 7.19757E-01-4.63802E-02
 -1     10665-2.97660E+00-3.28286E+01 1.54514E-01-7.91448E+00 7.33964E-01-4.05326E-02
 -1     10666-3.20517E+00-3.30157E+01-5.56545E-01-7.96597E+00 5.02082E-01-2.67922E-02
 -1     10667-3.31119E+00-3.31008E+01-8.99577E-01-7.99124E+00 1.75674E-01-9.25096E-03
 -1     10668-3.31119E+00-3.31008E+01-8.99577E-01-7.99124E+00-1.75674E-01 9.25096E-03
 -1     10669-3.20517E+00-3.30157E+01-5.56545E-01-7.96597E+00-5.02082E-01 2.67922E-02
 -1     10670-2.97660E+00-3.28286E+01 1.54514E-01-7.91448E+00-7.33964E-01 4.05326E-02
 -1     10671-2.58959E+00-3.24978E+01 1.27915E+00-7.83344E+00-7.19757E-01 4.63802E-02
 -1     10672-1.99292E+00-3.19384E+01 2.84087E+00-7.71288E+00-5.65966E-02 3.42364E-02
 -1     10673-2.14542E-01-3.38310E+01-1.85075E-01-7.25253E+00 1.27755E-02-2.09992E-03
 -1     10674-1.22502E-01-3.40879E+01 5.43313E-01-7.24764E+00-3.79765E-01-4.98713E-03
 -1     10675-8.58246E-02-3.42375E+01 8.50564E-01-7.25602E+00-3.45696E-01 2.71722E-03
 -1     10676-7.29363E-02-3.43229E+01 9.59212E-01-7.26623E+00-2.15621E-01 5.90685E-03
 -1     10677-6.91617E-02-3.43620E+01 9.88629E-01-7.27253E+00-7.18101E-02 2.77134E-03
 -1     10678-6.91617E-02-3.43620E+01 9.88629E-01-7.27253E+00 7.18101E-02-2.77134E-03
 -1     10679-7.29363E-02-3.43229E+01 9.59212E-01-7.26623E+00 2.15621E-01-5.90685E-03
 -1     10680-8.58246E-02-3.42375E+01 8.50564E-01-7.25602E+00 3.45696E-01-2.71722E-03
 -1     10681-1.22502E-01-3.40879E+01 5.43313E-01-7.24764E+00 3.79765E-01 4.98713E-03
 -1     10682-2.14542E-01-3.38310E+01-1.85075E-01-7.25253E+00-1.27755E-02 2.09992E-03
 -1     10683 5.00811E-01-3.25655E+01 1.17392E-01-7.39789E+00-6.40139E-02 2.31294E-02
 -1     10684 3.26787E-01-3.27632E+01-5.14269E-02-7.38221E+00-6.53436E-02 2.29815E-02
 -1     10685 2.55788E-01-3.29080E+01-7.02243E-03-7.37248E+00-1.09401E-01 1.58729E-02
 -1     10686 2.27321E-01-3.30011E+01 6.91131E-02-7.36673E+00-9.49759E-02 9.30695E-03
 -1     10687 2.17350E-01-3.30464E+01 1.15844E-01-7.36405E+00-3.65529E-02 3.11943E-03
 -1     10688 2.17350E-01-3.30464E+01 1.15844E-01-7.36405E+00 3.65529E-02-3.11943E-03
 -1     10689 2.27321E-01-3.30011E+01 6.91131E-02-7.36673E+00 9.49759E-02-9.30695E-03
 -1     10690 2.55788E-01-3.29080E+01-7.02243E-03-7.37248E+00 1.09401E-01-1.58729E-02
 -1     10691 3.26787E-01-3.27632E+01-5.14269E-02-7.38221E+00 6.53436E-02-2.29815E-02
 -1     10692 5.00811E-01-3.25655E+01 1.17392E-01-7.39789E+00 6.40139E-02-2.31294E-02
 -1     10693 1.71543E-01-3.11131E+01-5.16498E-02-8.25331E+00-1.00932E-02 3.15209E-03
 -1     10694 1.50970E-01-3.10231E+01-2.65483E-02-8.24754E+00-1.07824E-02 9.99241E-03
 -1     10695 1.10814E-01-3.09982E+01-5.67732E-02-8.24278E+00 1.80237E-03 1.16368E-02
 -1     10696 8.05426E-02-3.09975E+01-7.76375E-02-8.23953E+00 2.82213E-03 8.44912E-03
 -1     10697 6.53582E-02-3.10012E+01-8.56871E-02-8.23789E+00 8.93611E-04 3.00943E-03
 -1     10698 6.53582E-02-3.10012E+01-8.56871E-02-8.23789E+00-8.93611E-04-3.00943E-03
 -1     10699 8.05426E-02-3.09975E+01-7.76375E-02-8.23953E+00-2.82213E-03-8.44912E-03
 -1     10700 1.10814E-01-3.09982E+01-5.67732E-02-8.24278E+00-1.80237E-03-1.16368E-02
 -1     10701 1.50970E-01-3.10231E+01-2.65483E-02-8.24754E+00 1.07824E-02-9.99241E-03
 -1     10702 1.71543E-01-3.11131E+01-5.16498E-02-8.25331E+00 1.00932E-02-3.15209E-03
 -1     10703-4.01493E-01-2.93419E+01-2.52978E-02-9.39013E+00-6.71414E-04 2.73299E-04
 -1     10704-4.33223E-01-2.93083E+01-3.29891E-02-9.38891E+00 4.53824E-03 1.51701E-03
 -1     10705-4.49080E-01-2.92711E+01-2.92225E-02-9.38682E+00 3.66800E-03 2.40425E-03
 -1     10706-4.59978E-01-2.92453E+01-3.19878E-02-9.38496E+00 3.53386E-03 2.44117E-03
 -1     10707-4.65871E-01-2.92327E+01-3.55460E-02-9.38393E+00 1.52786E-03 1.02477E-03
 -1     10708-4.65871E-01-2.92327E+01-3.55460E-02-9.38393E+00-1.52786E-03-1.02477E-03
 -1     10709-4.59978E-01-2.92453E+01-3.19878E-02-9.38496E+00-3.53386E-03-2.44117E-03
 -1     10710-4.49080E-01-2.92711E+01-2.92225E-02-9.38682E+00-3.66800E-03-2.40425E-03
 -1     10711-4.33223E-01-2.93083E+01-3.29891E-02-9.38891E+00-4.53824E-03-1.51701E-03
 -1     10712-4.01493E-01-2.93419E+01-2.52978E-02-9.39013E+00 6.71414E-04-2.73299E-04
 -1     10713-1.29477E+00-2.75696E+01-9.45174E-03-1.05840E+01-1.27558E-03-3.90777E-04
 -1     10714-1.31621E+00-2.75440E+01-9.15796E-03-1.05809E+01-3.39386E-04 5.34846E-04
 -1     10715-1.33217E+00-2.75260E+01-1.11590E-02-1.05785E+01 6.96153E-04 9.34780E-04
 -1     10716-1.34128E+00-2.75127E+01-1.11127E-02-1.05769E+01 4.00844E-04 8.01655E-04
 -1     10717-1.34535E+00-2.75055E+01-1.08163E-02-1.05760E+01 1.05073E-04 3.13836E-04
 -1     10718-1.34535E+00-2.75055E+01-1.08163E-02-1.05760E+01-1.05073E-04-3.13836E-04
 -1     10719-1.34128E+00-2.75127E+01-1.11127E-02-1.05769E+01-4.00844E-04-8.01655E-04
 -1     10720-1.33217E+00-2.75260E+01-1.11590E-02-1.05785E+01-6.96153E-04-9.34780E-04
 -1     10721-1.31621E+00-2.75440E+01-9.15796E-03-1.05809E+01 3.39386E-04-5.34846E-04
 -1     10722-1.29477E+00-2.75696E+01-9.45174E-03-1.05840E+01 1.27558E-03 3.90777E-04
 -1     10723-2.40298E+00-2.56946E+01 1.77985E-03-1.16973E+01-9.21791E-04-3.05340E-04
 -1     10724-2.41998E+00-2.56794E+01 1.31498E-03-1.16914E+01-7.85608E-04 8.48484E-05
 -1     10725-2.43127E+00-2.56668E+01 1.77524E-03-1.16870E+01-6.97123E-04 4.57934E-04
 -1     10726-2.43849E+00-2.56586E+01 1.34311E-03-1.16842E+01-3.72938E-04 5.65410E-04
 -1     10727-2.44199E+00-2.56545E+01 9.76858E-04-1.16829E+01-1.15633E-04 2.45921E-04
 -1     10728-2.44199E+00-2.56545E+01 9.76858E-04-1.16829E+01 1.15633E-04-2.45921E-04
 -1     10729-2.43849E+00-2.56586E+01 1.34311E-03-1.16842E+01 3.72938E-04-5.65410E-04
 -1     10730-2.43127E+00-2.56668E+01 1.77524E-03-1.16870E+01 6.97123E-04-4.57934E-04
 -1     10731-2.41998E+00-2.56794E+01 1.31498E-03-1.16914E+01 7.85608E-04-8.48484E-05
 -1     10732-2.40298E+00-2.56946E+01 1.77985E-03-1.16973E+01 9.21791E-04 3.05340E-04
 -1     10733-3.66868E+00-2.36886E+01 7.95792E-03-1.26461E+01-6.31047E-04-2.84570E-04
 -1     10734-3.68083E+00-2.36780E+01 7.44341E-03-1.26377E+01-5.85471E-04 6.87157E-05
 -1     10735-3.68907E+00-2.36698E+01 7.27992E-03-1.26316E+01-5.07327E-04 3.42016E-04
 -1     10736-3.69404E+00-2.36641E+01 7.10483E-03-1.26277E+01-4.05198E-04 4.07213E-04
 -1     10737-3.69640E+00-2.36612E+01 6.89655E-03-1.26257E+01-1.53436E-04 1.78991E-04
 -1     10738-3.69640E+00-2.36612E+01 6.89655E-03-1.26257E+01 1.53436E-04-1.78991E-04
 -1     10739-3.69404E+00-2.36641E+01 7.10483E-03-1.26277E+01 4.05198E-04-4.07213E-04
 -1     10740-3.68907E+00-2.36698E+01 7.27992E-03-1.26316E+01 5.07327E-04-3.42016E-04
 -1     10741-3.68083E+00-2.36780E+01 7.44341E-03-1.26377E+01 5.85471E-04-6.87157E-05
 -1     10742-3.66868E+00-2.36886E+01 7.95792E-03-1.26461E+01 6.31047E-04 2.84570E-04
 -1     10743-5.03617E+00-2.15463E+01 1.15568E-02-1.33748E+01-4.21492E-04-2.73727E-04
 -1     10744-5.04402E+00-2.15400E+01 1.10504E-02-1.33646E+01-4.24878E-04-1.26170E-05
 -1     10745-5.04908E+00-2.15348E+01 1.09657E-02-1.33572E+01-4.19916E-04 2.36246E-04
 -1     10746-5.05210E+00-2.15312E+01 1.06908E-02-1.33524E+01-3.30739E-04 3.21745E-04
 -1     10747-5.05349E+00-2.15293E+01 1.04710E-02-1.33501E+01-1.27950E-04 1.44142E-04
 -1     10748-5.05349E+00-2.15293E+01 1.04710E-02-1.33501E+01 1.27950E-04-1.44142E-04
 -1     10749-5.05210E+00-2.15312E+01 1.06908E-02-1.33524E+01 3.30739E-04-3.21745E-04
 -1     10750-5.04908E+00-2.15348E+01 1.09657E-02-1.33572E+01 4.19916E-04-2.36246E-04
 -1     10751-5.04402E+00-2.15400E+01 1.10504E-02-1.33646E+01 4.24878E-04 1.26170E-05
 -1     10752-5.03617E+00-2.15463E+01 1.15568E-02-1.33748E+01 4.21492E-04 2.73727E-04
 -1     10753-6.45299E+00-1.92874E+01 1.39257E-02-1.38464E+01-3.35695E-04-2.89308E-04
 -1     10754-6.45683E+00-1.92851E+01 1.34390E-02-1.38352E+01-3.78111E-04-8.31061E-05
 -1     10755-6.45902E+00-1.92829E+01 1.33385E-02-1.38270E+01-4.02040E-04 1.34116E-04
 -1     10756-6.46014E+00-1.92812E+01 1.30997E-02-1.38217E+01-3.38089E-04 2.30842E-04
 -1     10757-6.46062E+00-1.92803E+01 1.28848E-02-1.38190E+01-1.32356E-04 1.08955E-04
 -1     10758-6.46062E+00-1.92803E+01 1.28848E-02-1.38190E+01 1.32356E-04-1.08955E-04
 -1     10759-6.46014E+00-1.92812E+01 1.30997E-02-1.38217E+01 3.38089E-04-2.30842E-04
 -1     10760-6.45902E+00-1.92829E+01 1.33385E-02-1.38270E+01 4.02040E-04-1.34116E-04
 -1     10761-6.45683E+00-1.92851E+01 1.34390E-02-1.38352E+01 3.78111E-04 8.31061E-05
 -1     10762-6.45299E+00-1.92874E+01 1.39257E-02-1.38464E+01 3.35695E-04 2.89308E-04
 -1     10763-7.86658E+00-1.69449E+01 1.54944E-02-1.40374E+01-2.95246E-04-3.22854E-04
 -1     10764-7.86660E+00-1.69464E+01 1.50392E-02-1.40258E+01-3.71776E-04-1.70882E-04
 -1     10765-7.86600E+00-1.69470E+01 1.49553E-02-1.40172E+01-4.17813E-04 2.48590E-05
 -1     10766-7.86533E+00-1.69472E+01 1.47327E-02-1.40117E+01-3.56921E-04 1.38643E-04
 -1     10767-7.86493E+00-1.69472E+01 1.45385E-02-1.40090E+01-1.41145E-04 7.26661E-05
 -1     10768-7.86493E+00-1.69472E+01 1.45385E-02-1.40090E+01 1.41145E-04-7.26661E-05
 -1     10769-7.86533E+00-1.69472E+01 1.47327E-02-1.40117E+01 3.56921E-04-1.38643E-04
 -1     10770-7.86600E+00-1.69470E+01 1.49553E-02-1.40172E+01 4.17813E-04-2.48590E-05
 -1     10771-7.86660E+00-1.69464E+01 1.50392E-02-1.40258E+01 3.71776E-04 1.70882E-04
 -1     10772-7.86658E+00-1.69449E+01 1.54944E-02-1.40374E+01 2.95246E-04 3.22854E-04
 -1     10773-9.22386E+00-1.45597E+01 1.65226E-02-1.39354E+01-2.68760E-04-3.75784E-04
 -1     10774-9.22019E+00-1.45649E+01 1.60983E-02-1.39239E+01-3.65713E-04-2.72669E-04
 -1     10775-9.21692E+00-1.45683E+01 1.60299E-02-1.39155E+01-4.26563E-04-9.50115E-05
 -1     10776-9.21451E+00-1.45703E+01 1.58313E-02-1.39101E+01-3.70139E-04 4.04278E-05
 -1     10777-9.21326E+00-1.45713E+01 1.56526E-02-1.39074E+01-1.46966E-04 3.49062E-05
 -1     10778-9.21326E+00-1.45713E+01 1.56526E-02-1.39074E+01 1.46966E-04-3.49062E-05
 -1     10779-9.21451E+00-1.45703E+01 1.58313E-02-1.39101E+01 3.70139E-04-4.04278E-05
 -1     10780-9.21692E+00-1.45683E+01 1.60299E-02-1.39155E+01 4.26563E-04 9.50115E-05
 -1     10781-9.22019E+00-1.45649E+01 1.60983E-02-1.39239E+01 3.65713E-04 2.72669E-04
 -1     10782-9.22386E+00-1.45597E+01 1.65226E-02-1.39354E+01 2.68760E-04 3.75784E-04
 -1     10783-1.04717E+01-1.21783E+01 1.71185E-02-1.35384E+01-2.39650E-04-4.41066E-04
 -1     10784-1.04645E+01-1.21871E+01 1.67282E-02-1.35276E+01-3.48593E-04-3.87544E-04
 -1     10785-1.04586E+01-1.21931E+01 1.66786E-02-1.35198E+01-4.21335E-04-2.25369E-04
 -1     10786-1.04546E+01-1.21969E+01 1.65041E-02-1.35147E+01-3.71551E-04-6.44996E-05
 -1     10787-1.04525E+01-1.21988E+01 1.63432E-02-1.35122E+01-1.48487E-04-5.29199E-06
 -1     10788-1.04525E+01-1.21988E+01 1.63432E-02-1.35122E+01 1.48487E-04 5.29199E-06
 -1     10789-1.04546E+01-1.21969E+01 1.65041E-02-1.35147E+01 3.71551E-04 6.44996E-05
 -1     10790-1.04586E+01-1.21931E+01 1.66786E-02-1.35198E+01 4.21335E-04 2.25369E-04
 -1     10791-1.04645E+01-1.21871E+01 1.67282E-02-1.35276E+01 3.48593E-04 3.87544E-04
 -1     10792-1.04717E+01-1.21783E+01 1.71185E-02-1.35384E+01 2.39650E-04 4.41066E-04
 -1     10793-1.15579E+01-9.85049E+00 1.73014E-02-1.28544E+01-2.02272E-04-5.10845E-04
 -1     10794-1.15473E+01-9.86267E+00 1.69463E-02-1.28450E+01-3.18041E-04-5.08655E-04
 -1     10795-1.15390E+01-9.87126E+00 1.69176E-02-1.28382E+01-4.01781E-04-3.61758E-04
 -1     10796-1.15333E+01-9.87673E+00 1.67687E-02-1.28338E+01-3.62049E-04-1.73503E-04
 -1     10797-1.15304E+01-9.87939E+00 1.66256E-02-1.28316E+01-1.45852E-04-4.68765E-05
 -1     10798-1.15304E+01-9.87939E+00 1.66256E-02-1.28316E+01 1.45852E-04 4.68765E-05
 -1     10799-1.15333E+01-9.87673E+00 1.67687E-02-1.28338E+01 3.62049E-04 1.73503E-04
 -1     10800-1.15390E+01-9.87126E+00 1.69176E-02-1.28382E+01 4.01781E-04 3.61758E-04
 -1     10801-1.15473E+01-9.86267E+00 1.69463E-02-1.28450E+01 3.18041E-04 5.08655E-04
 -1     10802-1.15579E+01-9.85049E+00 1.73014E-02-1.28544E+01 2.02272E-04 5.10845E-04
 -1     10803-1.24323E+01-7.62736E+00 1.70184E-02-1.19019E+01-1.56246E-04-5.75641E-04
 -1     10804-1.24185E+01-7.64274E+00 1.66984E-02-1.18945E+01-2.76991E-04-6.26947E-04
 -1     10805-1.24078E+01-7.65371E+00 1.66910E-02-1.18891E+01-3.71951E-04-4.96684E-04
 -1     10806-1.24007E+01-7.66075E+00 1.65673E-02-1.18856E+01-3.44853E-04-2.81766E-04
 -1     10807-1.23971E+01-7.66420E+00 1.64417E-02-1.18839E+01-1.40377E-04-8.82468E-05
 -1     10808-1.23971E+01-7.66420E+00 1.64417E-02-1.18839E+01 1.40377E-04 8.82468E-05
 -1     10809-1.24007E+01-7.66075E+00 1.65673E-02-1.18856E+01 3.44853E-04 2.81766E-04
 -1     10810-1.24078E+01-7.65371E+00 1.66910E-02-1.18891E+01 3.71951E-04 4.96684E-04
 -1     10811-1.24185E+01-7.64274E+00 1.66984E-02-1.18945E+01 2.76991E-04 6.26947E-04
 -1     10812-1.24323E+01-7.62736E+00 1.70184E-02-1.19019E+01 1.56246E-04 5.75641E-04
 -1     10813-1.30485E+01-5.56003E+00 1.61610E-02-1.07104E+01-1.05962E-04-6.25331E-04
 -1     10814-1.30318E+01-5.57832E+00 1.58740E-02-1.07054E+01-2.33131E-04-7.31732E-04
 -1     10815-1.30191E+01-5.59145E+00 1.58857E-02-1.07017E+01-3.39879E-04-6.20999E-04
 -1     10816-1.30105E+01-5.59992E+00 1.57847E-02-1.06994E+01-3.25913E-04-3.83141E-04
 -1     10817-1.30063E+01-5.60408E+00 1.56751E-02-1.06982E+01-1.34215E-04-1.27228E-04
 -1     10818-1.30063E+01-5.60408E+00 1.56751E-02-1.06982E+01 1.34215E-04 1.27228E-04
 -1     10819-1.30105E+01-5.59992E+00 1.57847E-02-1.06994E+01 3.25913E-04 3.83141E-04
 -1     10820-1.30191E+01-5.59145E+00 1.58857E-02-1.07017E+01 3.39879E-04 6.20999E-04
 -1     10821-1.30318E+01-5.57832E+00 1.58740E-02-1.07054E+01 2.33131E-04 7.31732E-04
 -1     10822-1.30485E+01-5.56003E+00 1.61610E-02-1.07104E+01 1.05962E-04 6.25331E-04
 -1     10823-1.33666E+01-3.69762E+00 1.45784E-02-9.32013E+00-6.03581E-05-6.49756E-04
 -1     10824-1.33473E+01-3.71842E+00 1.43196E-02-9.31795E+00-1.99062E-04-8.11732E-04
 -1     10825-1.33327E+01-3.73343E+00 1.43451E-02-9.31638E+00-3.17842E-04-7.24687E-04
 -1     10826-1.33229E+01-3.74314E+00 1.42615E-02-9.31540E+00-3.14009E-04-4.70781E-04
 -1     10827-1.33181E+01-3.74791E+00 1.41644E-02-9.31493E+00-1.30543E-04-1.61394E-04
 -1     10828-1.33181E+01-3.74791E+00 1.41644E-02-9.31493E+00 1.30543E-04 1.61394E-04
 -1     10829-1.33229E+01-3.74314E+00 1.42615E-02-9.31540E+00 3.14009E-04 4.70781E-04
 -1     10830-1.33327E+01-3.73343E+00 1.43451E-02-9.31638E+00 3.17842E-04 7.24687E-04
 -1     10831-1.33473E+01-3.71842E+00 1.43196E-02-9.31795E+00 1.99062E-04 8.11732E-04
 -1     10832-1.33666E+01-3.69762E+00 1.45784E-02-9.32013E+00 6.03581E-05 6.49756E-04
 -1     10833-1.33552E+01-2.08501E+00 1.20918E-02-7.78297E+00-3.28989E-05-6.39689E-04
 -1     10834-1.33338E+01-2.10784E+00 1.18531E-02-7.78394E+00-1.92299E-04-8.56057E-04
 -1     10835-1.33177E+01-2.12434E+00 1.18833E-02-7.78470E+00-3.22384E-04-7.97760E-04
 -1     10836-1.33070E+01-2.13503E+00 1.18083E-02-7.78524E+00-3.20787E-04-5.37715E-04
 -1     10837-1.33016E+01-2.14028E+00 1.17182E-02-7.78551E+00-1.33534E-04-1.88250E-04
 -1     10838-1.33016E+01-2.14028E+00 1.17182E-02-7.78551E+00 1.33534E-04 1.88250E-04
 -1     10839-1.33070E+01-2.13503E+00 1.18083E-02-7.78524E+00 3.20787E-04 5.37715E-04
 -1     10840-1.33177E+01-2.12434E+00 1.18833E-02-7.78470E+00 3.22384E-04 7.97760E-04
 -1     10841-1.33338E+01-2.10784E+00 1.18531E-02-7.78394E+00 1.92299E-04 8.56057E-04
 -1     10842-1.33552E+01-2.08501E+00 1.20918E-02-7.78297E+00 3.28989E-05 6.39689E-04
 -1     10843-1.29958E+01-7.60120E-01 8.51376E-03-6.16183E+00-4.13621E-05-5.88149E-04
 -1     10844-1.29728E+01-7.84345E-01 8.28355E-03-6.16611E+00-2.34941E-04-8.55487E-04
 -1     10845-1.29556E+01-8.01878E-01 8.30497E-03-6.16930E+00-3.73958E-04-8.31288E-04
 -1     10846-1.29442E+01-8.13236E-01 8.22577E-03-6.17144E+00-3.60491E-04-5.77528E-04
 -1     10847-1.29385E+01-8.18813E-01 8.13526E-03-6.17250E+00-1.48270E-04-2.05465E-04
 -1     10848-1.29385E+01-8.18813E-01 8.13526E-03-6.17250E+00 1.48270E-04 2.05465E-04
 -1     10849-1.29442E+01-8.13236E-01 8.22577E-03-6.17144E+00 3.60491E-04 5.77528E-04
 -1     10850-1.29556E+01-8.01878E-01 8.30497E-03-6.16930E+00 3.73958E-04 8.31288E-04
 -1     10851-1.29728E+01-7.84345E-01 8.28355E-03-6.16611E+00 2.34941E-04 8.55487E-04
 -1     10852-1.29958E+01-7.60120E-01 8.51376E-03-6.16183E+00 4.13621E-05 5.88149E-04
 -1     10853-1.22860E+01 2.49413E-01 3.67632E-03-4.52950E+00-1.07221E-04-4.92150E-04
 -1     10854-1.22621E+01 2.24527E-01 3.43895E-03-4.53704E+00-3.52777E-04-8.04082E-04
 -1     10855-1.22442E+01 2.06535E-01 3.43361E-03-4.54263E+00-4.96054E-04-8.18667E-04
 -1     10856-1.22324E+01 1.94892E-01 3.33339E-03-4.54634E+00-4.49313E-04-5.85159E-04
 -1     10857-1.22265E+01 1.89178E-01 3.23238E-03-4.54818E+00-1.80500E-04-2.11151E-04
 -1     10858-1.22265E+01 1.89178E-01 3.23238E-03-4.54818E+00 1.80500E-04 2.11151E-04
 -1     10859-1.22324E+01 1.94892E-01 3.33339E-03-4.54634E+00 4.49313E-04 5.85159E-04
 -1     10860-1.22442E+01 2.06535E-01 3.43361E-03-4.54263E+00 4.96054E-04 8.18667E-04
 -1     10861-1.22621E+01 2.24527E-01 3.43895E-03-4.53704E+00 3.52777E-04 8.04082E-04
 -1     10862-1.22860E+01 2.49413E-01 3.67632E-03-4.52950E+00 1.07221E-04 4.92150E-04
 -1     10863-1.12438E+01 9.29871E-01-2.53023E-03-2.96627E+00-2.54452E-04-3.55028E-04
 -1     10864-1.12197E+01 9.05178E-01-2.79426E-03-2.97673E+00-5.73607E-04-7.01261E-04
 -1     10865-1.12018E+01 8.87381E-01-2.84906E-03-2.98448E+00-7.13520E-04-7.57224E-04
 -1     10866-1.11898E+01 8.75892E-01-2.99125E-03-2.98959E+00-6.04209E-04-5.57927E-04
 -1     10867-1.11839E+01 8.70263E-01-3.11504E-03-2.99213E+00-2.36213E-04-2.04202E-04
 -1     10868-1.11839E+01 8.70263E-01-3.11504E-03-2.99213E+00 2.36213E-04 2.04202E-04
 -1     10869-1.11898E+01 8.75892E-01-2.99125E-03-2.98959E+00 6.04209E-04 5.57927E-04
 -1     10870-1.12018E+01 8.87381E-01-2.84906E-03-2.98448E+00 7.13520E-04 7.57224E-04
 -1     10871-1.12197E+01 9.05178E-01-2.79426E-03-2.97673E+00 5.73607E-04 7.01261E-04
 -1     10872-1.12438E+01 9.29871E-01-2.53023E-03-2.96627E+00 2.54452E-04 3.55028E-04
 -1     10873-9.91090E+00 1.28521E+00-1.01040E-02-1.55576E+00-5.07435E-04-1.89784E-04
 -1     10874-9.88755E+00 1.26165E+00-1.04177E-02-1.56844E+00-9.24427E-04-5.54803E-04
 -1     10875-9.87005E+00 1.24477E+00-1.05495E-02-1.57784E+00-1.04994E-03-6.50595E-04
 -1     10876-9.85846E+00 1.23393E+00-1.07580E-02-1.58403E+00-8.40955E-04-4.96912E-04
 -1     10877-9.85270E+00 1.22862E+00-1.09188E-02-1.58710E+00-3.20933E-04-1.84768E-04
 -1     10878-9.85270E+00 1.22862E+00-1.09188E-02-1.58710E+00 3.20933E-04 1.84768E-04
 -1     10879-9.85846E+00 1.23393E+00-1.07580E-02-1.58403E+00 8.40955E-04 4.96912E-04
 -1     10880-9.87005E+00 1.24477E+00-1.05495E-02-1.57784E+00 1.04994E-03 6.50595E-04
 -1     10881-9.88755E+00 1.26165E+00-1.04177E-02-1.56844E+00 9.24427E-04 5.54803E-04
 -1     10882-9.91090E+00 1.28521E+00-1.01040E-02-1.55576E+00 5.07435E-04 1.89784E-04
 -1     10883-8.35520E+00 1.34037E+00-1.88574E-02-3.78853E-01-8.88302E-04-2.45135E-05
 -1     10884-8.33340E+00 1.31894E+00-1.92483E-02-3.92635E-01-1.42751E-03-3.85773E-04
 -1     10885-8.31702E+00 1.30374E+00-1.94878E-02-4.02841E-01-1.52343E-03-5.12185E-04
 -1     10886-8.30616E+00 1.29404E+00-1.97911E-02-4.09565E-01-1.17130E-03-4.09574E-04
 -1     10887-8.30076E+00 1.28933E+00-2.00051E-02-4.12897E-01-4.38707E-04-1.55180E-04
 -1     10888-8.30076E+00 1.28933E+00-2.00051E-02-4.12897E-01 4.38707E-04 1.55180E-04
 -1     10889-8.30616E+00 1.29404E+00-1.97911E-02-4.09565E-01 1.17130E-03 4.09574E-04
 -1     10890-8.31702E+00 1.30374E+00-1.94878E-02-4.02841E-01 1.52343E-03 5.12185E-04
 -1     10891-8.33340E+00 1.31894E+00-1.92483E-02-3.92635E-01 1.42751E-03 3.85773E-04
 -1     10892-8.35520E+00 1.34037E+00-1.88574E-02-3.78853E-01 8.88302E-04 2.45135E-05
 -1     10893-6.67012E+00 1.14348E+00-2.83143E-02 4.94506E-01-1.41109E-03 9.02013E-05
 -1     10894-6.65074E+00 1.12518E+00-2.88102E-02 4.81252E-01-2.09322E-03-2.32760E-04
 -1     10895-6.63614E+00 1.11243E+00-2.91984E-02 4.71432E-01-2.14116E-03-3.68683E-04
 -1     10896-6.62644E+00 1.10441E+00-2.96250E-02 4.64963E-01-1.59855E-03-3.09448E-04
 -1     10897-6.62161E+00 1.10053E+00-2.99073E-02 4.61758E-01-5.90399E-04-1.19396E-04
 -1     10898-6.62161E+00 1.10053E+00-2.99073E-02 4.61758E-01 5.90399E-04 1.19396E-04
 -1     10899-6.62644E+00 1.10441E+00-2.96250E-02 4.64963E-01 1.59855E-03 3.09448E-04
 -1     10900-6.63614E+00 1.11243E+00-2.91984E-02 4.71432E-01 2.14116E-03 3.68683E-04
 -1     10901-6.65074E+00 1.12518E+00-2.88102E-02 4.81252E-01 2.09322E-03 2.32760E-04
 -1     10902-6.67012E+00 1.14348E+00-2.83143E-02 4.94506E-01 1.41109E-03-9.02013E-05
 -1     10903-4.97030E+00 7.66498E-01-3.75259E-02 1.01563E+00-2.07699E-03 7.10132E-05
 -1     10904-4.95434E+00 7.52309E-01-3.81832E-02 1.00508E+00-2.90526E-03-1.48238E-04
 -1     10905-4.94224E+00 7.42749E-01-3.87378E-02 9.97253E-01-2.87700E-03-2.38732E-04
 -1     10906-4.93419E+00 7.36880E-01-3.93127E-02 9.92090E-01-2.10189E-03-2.03336E-04
 -1     10907-4.93018E+00 7.34092E-01-3.96796E-02 9.89528E-01-7.68276E-04-7.91504E-05
 -1     10908-4.93018E+00 7.34092E-01-3.96796E-02 9.89528E-01 7.68276E-04 7.91504E-05
 -1     10909-4.93419E+00 7.36880E-01-3.93127E-02 9.92090E-01 2.10189E-03 2.03336E-04
 -1     10910-4.94224E+00 7.42749E-01-3.87378E-02 9.97253E-01 2.87700E-03 2.38732E-04
 -1     10911-4.95434E+00 7.52309E-01-3.81832E-02 1.00508E+00 2.90526E-03 1.48238E-04
 -1     10912-4.97030E+00 7.66498E-01-3.75259E-02 1.01563E+00 2.07699E-03-7.10132E-05
 -1     10913-3.38144E+00 3.03872E-01-4.49877E-02 1.16971E+00-2.79469E-03-2.09773E-04
 -1     10914-3.37011E+00 2.94820E-01-4.56965E-02 1.16460E+00-3.72633E-03-1.36728E-04
 -1     10915-3.36156E+00 2.89112E-01-4.64348E-02 1.16073E+00-3.60224E-03-1.00776E-04
 -1     10916-3.35589E+00 2.85816E-01-4.71312E-02 1.15813E+00-2.58497E-03-5.47249E-05
 -1     10917-3.35308E+00 2.84316E-01-4.75491E-02 1.15683E+00-9.36225E-04-1.66800E-05
 -1     10918-3.35308E+00 2.84316E-01-4.75491E-02 1.15683E+00 9.36225E-04 1.66800E-05
 -1     10919-3.35589E+00 2.85816E-01-4.71312E-02 1.15813E+00 2.58497E-03 5.47249E-05
 -1     10920-3.36156E+00 2.89112E-01-4.64348E-02 1.16073E+00 3.60224E-03 1.00776E-04
 -1     10921-3.37011E+00 2.94820E-01-4.56965E-02 1.16460E+00 3.72633E-03 1.36728E-04
 -1     10922-3.38144E+00 3.03872E-01-4.49877E-02 1.16971E+00 2.79469E-03 2.09773E-04
 -1     10923-2.02469E+00-1.30245E-01-4.92165E-02 9.91866E-01-3.28636E-03-8.35129E-04
 -1     10924-2.02012E+00-1.33328E-01-5.02166E-02 9.94937E-01-4.07932E-03-2.48475E-04
 -1     10925-2.01648E+00-1.34415E-01-5.07561E-02 9.97002E-01-3.77667E-03 1.68879E-04
 -1     10926-2.01400E+00-1.34601E-01-5.11976E-02 9.98253E-01-2.65033E-03 2.63712E-04
 -1     10927-2.01274E+00-1.34545E-01-5.14634E-02 9.98837E-01-9.51008E-04 1.16642E-04
 -1     10928-2.01274E+00-1.34545E-01-5.14634E-02 9.98837E-01 9.51008E-04-1.16642E-04
 -1     10929-2.01400E+00-1.34601E-01-5.11976E-02 9.98253E-01 2.65033E-03-2.63712E-04
 -1     10930-2.01648E+00-1.34415E-01-5.07561E-02 9.97002E-01 3.77667E-03-1.68879E-04
 -1     10931-2.02012E+00-1.33328E-01-5.02166E-02 9.94937E-01 4.07932E-03 2.48475E-04
 -1     10932-2.02469E+00-1.30245E-01-4.92165E-02 9.91866E-01 3.28636E-03 8.35129E-04
 -1     10933-1.00477E+00-4.02440E-01-5.38970E-02 5.87071E-01-2.04079E-03-2.01370E-03
 -1     10934-1.00664E+00-3.97212E-01-5.28512E-02 6.00644E-01-2.47644E-03-4.39585E-04
 -1     10935-1.00741E+00-3.92548E-01-5.26631E-02 6.10018E-01-2.41548E-03 9.07115E-05
 -1     10936-1.00766E+00-3.89140E-01-5.29508E-02 6.15771E-01-1.73741E-03 1.81579E-04
 -1     10937-1.00770E+00-3.87356E-01-5.32295E-02 6.18482E-01-6.27850E-04 7.96355E-05
 -1     10938-1.00770E+00-3.87356E-01-5.32295E-02 6.18482E-01 6.27850E-04-7.96355E-05
 -1     10939-1.00766E+00-3.89140E-01-5.29508E-02 6.15771E-01 1.73741E-03-1.81579E-04
 -1     10940-1.00741E+00-3.92548E-01-5.26631E-02 6.10018E-01 2.41548E-03-9.07115E-05
 -1     10941-1.00664E+00-3.97212E-01-5.28512E-02 6.00644E-01 2.47644E-03 4.39585E-04
 -1     10942-1.00477E+00-4.02440E-01-5.38970E-02 5.87071E-01 2.04079E-03 2.01370E-03
 -1     10943-3.85789E-01-3.37868E-01-5.16427E-02 1.68252E-01-1.12656E-03-3.06457E-03
 -1     10944-3.92976E-01-3.28021E-01-5.64814E-02 1.87560E-01 1.00154E-03-3.87876E-03
 -1     10945-3.97256E-01-3.20324E-01-6.08580E-02 1.99201E-01 2.59866E-03-3.48447E-03
 -1     10946-3.99624E-01-3.14990E-01-6.40640E-02 2.05704E-01 2.48507E-03-2.34782E-03
 -1     10947-4.00672E-01-3.12259E-01-6.57427E-02 2.08594E-01 9.96134E-04-8.21690E-04
 -1     10948-4.00672E-01-3.12259E-01-6.57427E-02 2.08594E-01-9.96134E-04 8.21690E-04
 -1     10949-3.99624E-01-3.14990E-01-6.40640E-02 2.05704E-01-2.48507E-03 2.34782E-03
 -1     10950-3.97256E-01-3.20324E-01-6.08580E-02 1.99201E-01-2.59866E-03 3.48447E-03
 -1     10951-3.92976E-01-3.28021E-01-5.64814E-02 1.87560E-01-1.00154E-03 3.87876E-03
 -1     10952-3.85789E-01-3.37868E-01-5.16427E-02 1.68252E-01 1.12656E-03 3.06457E-03
 -1     10953-4.87420E-01-3.51672E+01 3.50975E+00-7.59995E+00 2.15056E-02 1.39634E-02
 -1     10954-1.03830E+00-3.57715E+01 1.81254E+00-7.71224E+00 7.17707E-01 2.40496E-02
 -1     10955-1.38279E+00-3.61204E+01 6.08861E-01-7.79293E+00 7.42491E-01 1.67298E-02
 -1     10956-1.58422E+00-3.63164E+01-1.52012E-01-7.84622E+00 5.10003E-01 9.92109E-03
 -1     10957-1.67720E+00-3.64052E+01-5.18977E-01-7.87285E+00 1.78685E-01 3.27457E-03
 -1     10958-1.67720E+00-3.64052E+01-5.18977E-01-7.87285E+00-1.78685E-01-3.27457E-03
 -1     10959-1.58422E+00-3.63164E+01-1.52012E-01-7.84622E+00-5.10003E-01-9.92109E-03
 -1     10960-1.38279E+00-3.61204E+01 6.08861E-01-7.79293E+00-7.42491E-01-1.67298E-02
 -1     10961-1.03830E+00-3.57715E+01 1.81254E+00-7.71224E+00-7.17707E-01-2.40496E-02
 -1     10962-4.87420E-01-3.51672E+01 3.50975E+00-7.59995E+00-2.15056E-02-1.39634E-02
 -1     10963-5.75820E-02-3.68482E+01-3.89318E-01-6.44337E+00 3.20761E-02 3.84935E-02
 -1     10964 1.08659E-01-3.70806E+01 4.30687E-01-6.41734E+00-4.00463E-01 5.25422E-02
 -1     10965 1.97925E-01-3.72238E+01 7.67761E-01-6.41321E+00-3.74632E-01 6.18790E-02
 -1     10966 2.43786E-01-3.73070E+01 8.89725E-01-6.41630E+00-2.37387E-01 4.67647E-02
 -1     10967 2.63274E-01-3.73453E+01 9.25305E-01-6.41933E+00-7.96826E-02 1.71075E-02
 -1     10968 2.63274E-01-3.73453E+01 9.25305E-01-6.41933E+00 7.96826E-02-1.71075E-02
 -1     10969 2.43786E-01-3.73070E+01 8.89725E-01-6.41630E+00 2.37387E-01-4.67647E-02
 -1     10970 1.97925E-01-3.72238E+01 7.67761E-01-6.41321E+00 3.74632E-01-6.18790E-02
 -1     10971 1.08659E-01-3.70806E+01 4.30687E-01-6.41734E+00 4.00463E-01-5.25422E-02
 -1     10972-5.75820E-02-3.68482E+01-3.89318E-01-6.44337E+00-3.20761E-02-3.84935E-02
 -1     10973 3.85547E-02-3.46235E+01 2.23294E-02-6.92066E+00-6.42315E-02 3.57215E-02
 -1     10974-1.47742E-01-3.48122E+01-1.83250E-01-6.90889E+00-4.99029E-02 4.24565E-02
 -1     10975-2.18335E-01-3.49496E+01-1.46192E-01-6.89690E+00-9.45892E-02 3.25870E-02
 -1     10976-2.42882E-01-3.50387E+01-7.00329E-02-6.88805E+00-8.56494E-02 2.08936E-02
 -1     10977-2.49968E-01-3.50824E+01-2.22587E-02-6.88351E+00-3.34670E-02 7.26995E-03
 -1     10978-2.49968E-01-3.50824E+01-2.22587E-02-6.88351E+00 3.34670E-02-7.26995E-03
 -1     10979-2.42882E-01-3.50387E+01-7.00329E-02-6.88805E+00 8.56494E-02-2.08936E-02
 -1     10980-2.18335E-01-3.49496E+01-1.46192E-01-6.89690E+00 9.45892E-02-3.25870E-02
 -1     10981-1.47742E-01-3.48122E+01-1.83250E-01-6.90889E+00 4.99029E-02-4.24565E-02
 -1     10982 3.85547E-02-3.46235E+01 2.23294E-02-6.92066E+00 6.42315E-02-3.57215E-02
 -1     10983-3.64928E-01-3.29051E+01-5.90224E-02-7.99981E+00-6.58749E-03 1.41264E-03
 -1     10984-3.68953E-01-3.27970E+01-1.97178E-02-7.99878E+00-4.13756E-03 9.71582E-03
 -1     10985-4.00838E-01-3.27616E+01-5.24508E-02-7.99618E+00 1.06655E-02 1.40455E-02
 -1     10986-4.26834E-01-3.27549E+01-7.80336E-02-7.99354E+00 1.01759E-02 1.07908E-02
 -1     10987-4.40117E-01-3.27557E+01-8.89384E-02-7.99193E+00 3.70525E-03 3.92753E-03
 -1     10988-4.40117E-01-3.27557E+01-8.89384E-02-7.99193E+00-3.70525E-03-3.92753E-03
 -1     10989-4.26834E-01-3.27549E+01-7.80336E-02-7.99354E+00-1.01759E-02-1.07908E-02
 -1     10990-4.00838E-01-3.27616E+01-5.24508E-02-7.99618E+00-1.06655E-02-1.40455E-02
 -1     10991-3.68953E-01-3.27970E+01-1.97178E-02-7.99878E+00 4.13756E-03-9.71582E-03
 -1     10992-3.64928E-01-3.29051E+01-5.90224E-02-7.99981E+00 6.58749E-03-1.41264E-03
 -1     10993-1.06558E+00-3.11774E+01-2.64598E-02-9.29593E+00 1.04372E-03 2.40455E-03
 -1     10994-1.09367E+00-3.11461E+01-3.56075E-02-9.29888E+00 6.91074E-03 4.91413E-03
 -1     10995-1.10420E+00-3.11091E+01-3.32447E-02-9.29932E+00 5.57610E-03 6.03128E-03
 -1     10996-1.11111E+00-3.10828E+01-3.76099E-02-9.29879E+00 4.90761E-03 5.12043E-03
 -1     10997-1.11498E+00-3.10697E+01-4.21426E-02-9.29830E+00 2.04620E-03 1.99577E-03
 -1     10998-1.11498E+00-3.10697E+01-4.21426E-02-9.29830E+00-2.04620E-03-1.99577E-03
 -1     10999-1.11111E+00-3.10828E+01-3.76099E-02-9.29879E+00-4.90761E-03-5.12043E-03
 -1     11000-1.10420E+00-3.11091E+01-3.32447E-02-9.29932E+00-5.57610E-03-6.03128E-03
 -1     11001-1.09367E+00-3.11461E+01-3.56075E-02-9.29888E+00-6.91074E-03-4.91413E-03
 -1     11002-1.06558E+00-3.11774E+01-2.64598E-02-9.29593E+00-1.04372E-03-2.40455E-03
 -1     11003-2.00903E+00-2.94550E+01-8.87974E-03-1.05906E+01-7.05022E-04 8.63212E-04
 -1     11004-2.02543E+00-2.94298E+01-6.14625E-03-1.05901E+01 2.18077E-04 2.80772E-03
 -1     11005-2.03729E+00-2.94133E+01-9.44454E-03-1.05897E+01 1.26678E-03 3.90793E-03
 -1     11006-2.04344E+00-2.94012E+01-1.07708E-02-1.05892E+01 8.33431E-04 3.07654E-03
 -1     11007-2.04597E+00-2.93946E+01-1.11701E-02-1.05888E+01 2.63777E-04 1.14643E-03
 -1     11008-2.04597E+00-2.93946E+01-1.11701E-02-1.05888E+01-2.63777E-04-1.14643E-03
 -1     11009-2.04344E+00-2.94012E+01-1.07708E-02-1.05892E+01-8.33431E-04-3.07654E-03
 -1     11010-2.03729E+00-2.94133E+01-9.44454E-03-1.05897E+01-1.26678E-03-3.90793E-03
 -1     11011-2.02543E+00-2.94298E+01-6.14625E-03-1.05901E+01-2.18077E-04-2.80772E-03
 -1     11012-2.00903E+00-2.94550E+01-8.87974E-03-1.05906E+01 7.05022E-04-8.63212E-04
 -1     11013-3.13464E+00-2.76328E+01 3.46517E-03-1.17751E+01-5.75458E-04 7.84572E-04
 -1     11014-3.14828E+00-2.76182E+01 4.14258E-03-1.17716E+01-4.66130E-04 2.05413E-03
 -1     11015-3.15638E+00-2.76065E+01 3.33516E-03-1.17690E+01-5.85531E-04 2.93626E-03
 -1     11016-3.16141E+00-2.75991E+01 1.39469E-03-1.17673E+01-2.97771E-04 2.46706E-03
 -1     11017-3.16380E+00-2.75955E+01 1.86256E-04-1.17664E+01-8.25469E-05 9.43275E-04
 -1     11018-3.16380E+00-2.75955E+01 1.86256E-04-1.17664E+01 8.25469E-05-9.43275E-04
 -1     11019-3.16141E+00-2.75991E+01 1.39469E-03-1.17673E+01 2.97771E-04-2.46706E-03
 -1     11020-3.15638E+00-2.76065E+01 3.33516E-03-1.17690E+01 5.85531E-04-2.93626E-03
 -1     11021-3.14828E+00-2.76182E+01 4.14258E-03-1.17716E+01 4.66130E-04-2.05413E-03
 -1     11022-3.13464E+00-2.76328E+01 3.46517E-03-1.17751E+01 5.75458E-04-7.84572E-04
 -1     11023-4.39276E+00-2.56660E+01 8.83477E-03-1.27774E+01-5.95494E-04 6.01979E-04
 -1     11024-4.40205E+00-2.56554E+01 9.70497E-03-1.27712E+01-7.28128E-04 1.64795E-03
 -1     11025-4.40779E+00-2.56475E+01 8.39177E-03-1.27668E+01-8.33284E-04 2.39675E-03
 -1     11026-4.41103E+00-2.56422E+01 6.91891E-03-1.27640E+01-6.68111E-04 1.98305E-03
 -1     11027-4.41250E+00-2.56395E+01 6.00040E-03-1.27626E+01-2.49018E-04 7.55806E-04
 -1     11028-4.41250E+00-2.56395E+01 6.00040E-03-1.27626E+01 2.49018E-04-7.55806E-04
 -1     11029-4.41103E+00-2.56422E+01 6.91891E-03-1.27640E+01 6.68111E-04-1.98305E-03
 -1     11030-4.40779E+00-2.56475E+01 8.39177E-03-1.27668E+01 8.33284E-04-2.39675E-03
 -1     11031-4.40205E+00-2.56554E+01 9.70497E-03-1.27712E+01 7.28128E-04-1.64795E-03
 -1     11032-4.39276E+00-2.56660E+01 8.83477E-03-1.27774E+01 5.95494E-04-6.01979E-04
 -1     11033-5.73333E+00-2.35482E+01 1.21284E-02-1.35500E+01-6.13264E-04 4.49033E-04
 -1     11034-5.73902E+00-2.35416E+01 1.28625E-02-1.35419E+01-8.77316E-04 1.31470E-03
 -1     11035-5.74218E+00-2.35363E+01 1.17244E-02-1.35363E+01-1.09193E-03 1.98384E-03
 -1     11036-5.74391E+00-2.35328E+01 1.02244E-02-1.35327E+01-8.52561E-04 1.66452E-03
 -1     11037-5.74466E+00-2.35310E+01 9.33380E-03-1.35310E+01-3.18349E-04 6.35255E-04
 -1     11038-5.74466E+00-2.35310E+01 9.33380E-03-1.35310E+01 3.18349E-04-6.35255E-04
 -1     11039-5.74391E+00-2.35328E+01 1.02244E-02-1.35327E+01 8.52561E-04-1.66452E-03
 -1     11040-5.74218E+00-2.35363E+01 1.17244E-02-1.35363E+01 1.09193E-03-1.98384E-03
 -1     11041-5.73902E+00-2.35416E+01 1.28625E-02-1.35419E+01 8.77316E-04-1.31470E-03
 -1     11042-5.73333E+00-2.35482E+01 1.21284E-02-1.35500E+01 6.13264E-04-4.49033E-04
 -1     11043-7.10736E+00-2.13003E+01 1.41866E-02-1.40606E+01-6.93257E-04 2.95162E-04
 -1     11044-7.10960E+00-2.12972E+01 1.49054E-02-1.40514E+01-1.07972E-03 1.00487E-03
 -1     11045-7.11043E+00-2.12946E+01 1.38222E-02-1.40450E+01-1.34157E-03 1.59995E-03
 -1     11046-7.11067E+00-2.12927E+01 1.24448E-02-1.40410E+01-1.06524E-03 1.35760E-03
 -1     11047-7.11071E+00-2.12917E+01 1.16053E-02-1.40390E+01-3.99202E-04 5.20491E-04
 -1     11048-7.11071E+00-2.12917E+01 1.16053E-02-1.40390E+01 3.99202E-04-5.20491E-04
 -1     11049-7.11067E+00-2.12927E+01 1.24448E-02-1.40410E+01 1.06524E-03-1.35760E-03
 -1     11050-7.11043E+00-2.12946E+01 1.38222E-02-1.40450E+01 1.34157E-03-1.59995E-03
 -1     11051-7.10960E+00-2.12972E+01 1.49054E-02-1.40514E+01 1.07972E-03-1.00487E-03
 -1     11052-7.10736E+00-2.13003E+01 1.41866E-02-1.40606E+01 6.93257E-04-2.95162E-04
 -1     11053-8.46411E+00-1.89558E+01 1.55724E-02-1.42885E+01-7.75712E-04 1.22695E-04
 -1     11054-8.46308E+00-1.89562E+01 1.62561E-02-1.42788E+01-1.25516E-03 6.89906E-04
 -1     11055-8.46165E+00-1.89560E+01 1.52520E-02-1.42721E+01-1.55982E-03 1.22080E-03
 -1     11056-8.46049E+00-1.89557E+01 1.39576E-02-1.42679E+01-1.23988E-03 1.05891E-03
 -1     11057-8.45985E+00-1.89555E+01 1.31762E-02-1.42658E+01-4.66055E-04 4.08029E-04
 -1     11058-8.45985E+00-1.89555E+01 1.31762E-02-1.42658E+01 4.66055E-04-4.08029E-04
 -1     11059-8.46049E+00-1.89557E+01 1.39576E-02-1.42679E+01 1.23988E-03-1.05891E-03
 -1     11060-8.46165E+00-1.89560E+01 1.52520E-02-1.42721E+01 1.55982E-03-1.22080E-03
 -1     11061-8.46308E+00-1.89562E+01 1.62561E-02-1.42788E+01 1.25516E-03-6.89906E-04
 -1     11062-8.46411E+00-1.89558E+01 1.55724E-02-1.42885E+01 7.75712E-04-1.22695E-04
 -1     11063-9.75171E+00-1.65564E+01 1.64908E-02-1.42233E+01-8.41665E-04-7.09030E-05
 -1     11064-9.74751E+00-1.65602E+01 1.71479E-02-1.42137E+01-1.38910E-03 3.56445E-04
 -1     11065-9.74392E+00-1.65624E+01 1.62119E-02-1.42071E+01-1.72540E-03 8.29475E-04
 -1     11066-9.74139E+00-1.65636E+01 1.50017E-02-1.42029E+01-1.37517E-03 7.53325E-04
 -1     11067-9.74009E+00-1.65641E+01 1.42681E-02-1.42009E+01-5.17575E-04 2.93851E-04
 -1     11068-9.74009E+00-1.65641E+01 1.42681E-02-1.42009E+01 5.17575E-04-2.93851E-04
 -1     11069-9.74139E+00-1.65636E+01 1.50017E-02-1.42029E+01 1.37517E-03-7.53325E-04
 -1     11070-9.74392E+00-1.65624E+01 1.62119E-02-1.42071E+01 1.72540E-03-8.29475E-04
 -1     11071-9.74751E+00-1.65602E+01 1.71479E-02-1.42137E+01 1.38910E-03-3.56445E-04
 -1     11072-9.75171E+00-1.65564E+01 1.64908E-02-1.42233E+01 8.41665E-04 7.09030E-05
 -1     11073-1.09179E+01-1.41486E+01 1.70406E-02-1.38641E+01-8.82448E-04-2.81880E-04
 -1     11074-1.09106E+01-1.41556E+01 1.76724E-02-1.38552E+01-1.47964E-03 3.10589E-06
 -1     11075-1.09049E+01-1.41601E+01 1.68038E-02-1.38491E+01-1.84304E-03 4.21092E-04
 -1     11076-1.09011E+01-1.41629E+01 1.56724E-02-1.38453E+01-1.47333E-03 4.36163E-04
 -1     11077-1.08992E+01-1.41641E+01 1.49863E-02-1.38434E+01-5.55527E-04 1.75397E-04
 -1     11078-1.08992E+01-1.41641E+01 1.49863E-02-1.38434E+01 5.55527E-04-1.75397E-04
 -1     11079-1.09011E+01-1.41629E+01 1.56724E-02-1.38453E+01 1.47333E-03-4.36163E-04
 -1     11080-1.09049E+01-1.41601E+01 1.68038E-02-1.38491E+01 1.84304E-03-4.21092E-04
 -1     11081-1.09106E+01-1.41556E+01 1.76724E-02-1.38552E+01 1.47964E-03-3.10589E-06
 -1     11082-1.09179E+01-1.41486E+01 1.70406E-02-1.38641E+01 8.82448E-04 2.81880E-04
 -1     11083-1.19111E+01-1.17817E+01 1.72205E-02-1.32203E+01-8.97360E-04-5.02457E-04
 -1     11084-1.19010E+01-1.17918E+01 1.78297E-02-1.32126E+01-1.53201E-03-3.65204E-04
 -1     11085-1.18933E+01-1.17985E+01 1.70270E-02-1.32073E+01-1.91977E-03-1.94810E-06
 -1     11086-1.18882E+01-1.18026E+01 1.59723E-02-1.32040E+01-1.54083E-03 1.08251E-04
 -1     11087-1.18857E+01-1.18046E+01 1.53314E-02-1.32024E+01-5.82094E-04 5.30443E-05
 -1     11088-1.18857E+01-1.18046E+01 1.53314E-02-1.32024E+01 5.82094E-04-5.30443E-05
 -1     11089-1.18882E+01-1.18026E+01 1.59723E-02-1.32040E+01 1.54083E-03-1.08251E-04
 -1     11090-1.18933E+01-1.17985E+01 1.70270E-02-1.32073E+01 1.91977E-03 1.94810E-06
 -1     11091-1.19010E+01-1.17918E+01 1.78297E-02-1.32126E+01 1.53201E-03 3.65204E-04
 -1     11092-1.19111E+01-1.17817E+01 1.72205E-02-1.32203E+01 8.97360E-04 5.02457E-04
 -1     11093-1.26823E+01-9.50579E+00 1.69588E-02-1.23108E+01-8.89819E-04-7.21893E-04
 -1     11094-1.26695E+01-9.51882E+00 1.75473E-02-1.23048E+01-1.55469E-03-7.38165E-04
 -1     11095-1.26599E+01-9.52762E+00 1.68079E-02-1.23007E+01-1.96539E-03-4.31635E-04
 -1     11096-1.26537E+01-9.53308E+00 1.58263E-02-1.22982E+01-1.58500E-03-2.25511E-04
 -1     11097-1.26506E+01-9.53569E+00 1.52285E-02-1.22969E+01-6.00080E-04-7.16402E-05
 -1     11098-1.26506E+01-9.53569E+00 1.52285E-02-1.22969E+01 6.00080E-04 7.16402E-05
 -1     11099-1.26537E+01-9.53308E+00 1.58263E-02-1.22982E+01 1.58500E-03 2.25511E-04
 -1     11100-1.26599E+01-9.52762E+00 1.68079E-02-1.23007E+01 1.96539E-03 4.31635E-04
 -1     11101-1.26695E+01-9.51882E+00 1.75473E-02-1.23048E+01 1.55469E-03 7.38165E-04
 -1     11102-1.26823E+01-9.50579E+00 1.69588E-02-1.23108E+01 8.89819E-04 7.21893E-04
 -1     11103-1.31867E+01-7.37053E+00 1.61270E-02-1.11652E+01-8.67659E-04-9.27193E-04
 -1     11104-1.31713E+01-7.38622E+00 1.66958E-02-1.11614E+01-1.56056E-03-1.10175E-03
 -1     11105-1.31601E+01-7.39691E+00 1.60148E-02-1.11588E+01-1.99300E-03-8.55849E-04
 -1     11106-1.31528E+01-7.40357E+00 1.51008E-02-1.11572E+01-1.61525E-03-5.57075E-04
 -1     11107-1.31492E+01-7.40677E+00 1.45429E-02-1.11564E+01-6.12850E-04-1.95834E-04
 -1     11108-1.31492E+01-7.40677E+00 1.45429E-02-1.11564E+01 6.12850E-04 1.95834E-04
 -1     11109-1.31528E+01-7.40357E+00 1.51008E-02-1.11572E+01 1.61525E-03 5.57075E-04
 -1     11110-1.31601E+01-7.39691E+00 1.60148E-02-1.11588E+01 1.99300E-03 8.55849E-04
 -1     11111-1.31713E+01-7.38622E+00 1.66958E-02-1.11614E+01 1.56056E-03 1.10175E-03
 -1     11112-1.31867E+01-7.37053E+00 1.61270E-02-1.11652E+01 8.67659E-04 9.27193E-04
 -1     11113-1.33863E+01-5.42304E+00 1.45521E-02-9.82369E+00-8.43332E-04-1.10370E-03
 -1     11114-1.33687E+01-5.44103E+00 1.51013E-02-9.82238E+00-1.56743E-03-1.43892E-03
 -1     11115-1.33559E+01-5.45334E+00 1.44706E-02-9.82159E+00-2.01975E-03-1.25907E-03
 -1     11116-1.33477E+01-5.46105E+00 1.36158E-02-9.82111E+00-1.64353E-03-8.75745E-04
 -1     11117-1.33437E+01-5.46475E+00 1.30928E-02-9.82088E+00-6.24651E-04-3.15744E-04
 -1     11118-1.33437E+01-5.46475E+00 1.30928E-02-9.82088E+00 6.24651E-04 3.15744E-04
 -1     11119-1.33477E+01-5.46105E+00 1.36158E-02-9.82111E+00 1.64353E-03 8.75745E-04
 -1     11120-1.33559E+01-5.45334E+00 1.44706E-02-9.82159E+00 2.01975E-03 1.25907E-03
 -1     11121-1.33687E+01-5.44103E+00 1.51013E-02-9.82238E+00 1.56743E-03 1.43892E-03
 -1     11122-1.33863E+01-5.42304E+00 1.45521E-02-9.82369E+00 8.43332E-04 1.10370E-03
 -1     11123-1.32529E+01-3.70591E+00 1.20305E-02-8.33704E+00-8.34162E-04-1.23587E-03
 -1     11124-1.32335E+01-3.72575E+00 1.25591E-02-8.33851E+00-1.59833E-03-1.73034E-03
 -1     11125-1.32195E+01-3.73936E+00 1.19666E-02-8.33967E+00-2.06709E-03-1.62287E-03
 -1     11126-1.32104E+01-3.74788E+00 1.11590E-02-8.34042E+00-1.68447E-03-1.16844E-03
 -1     11127-1.32060E+01-3.75198E+00 1.06643E-02-8.34079E+00-6.40620E-04-4.26653E-04
 -1     11128-1.32060E+01-3.75198E+00 1.06643E-02-8.34079E+00 6.40620E-04 4.26653E-04
 -1     11129-1.32104E+01-3.74788E+00 1.11590E-02-8.34042E+00 1.68447E-03 1.16844E-03
 -1     11130-1.32195E+01-3.73936E+00 1.19666E-02-8.33967E+00 2.06709E-03 1.62287E-03
 -1     11131-1.32335E+01-3.72575E+00 1.25591E-02-8.33851E+00 1.59833E-03 1.73034E-03
 -1     11132-1.32529E+01-3.70591E+00 1.20305E-02-8.33704E+00 8.34162E-04 1.23587E-03
 -1     11133-1.27720E+01-2.25479E+00 8.34669E-03-6.76617E+00-8.62269E-04-1.30843E-03
 -1     11134-1.27511E+01-2.27591E+00 8.85224E-03-6.77054E+00-1.68128E-03-1.95526E-03
 -1     11135-1.27361E+01-2.29039E+00 8.28162E-03-6.77371E+00-2.16042E-03-1.92646E-03
 -1     11136-1.27264E+01-2.29946E+00 7.50550E-03-6.77575E+00-1.75513E-03-1.41989E-03
 -1     11137-1.27217E+01-2.30382E+00 7.03027E-03-6.77673E+00-6.66724E-04-5.22976E-04
 -1     11138-1.27217E+01-2.30382E+00 7.03027E-03-6.77673E+00 6.66724E-04 5.22976E-04
 -1     11139-1.27264E+01-2.29946E+00 7.50550E-03-6.77575E+00 1.75513E-03 1.41989E-03
 -1     11140-1.27361E+01-2.29039E+00 8.28162E-03-6.77371E+00 2.16042E-03 1.92646E-03
 -1     11141-1.27511E+01-2.27591E+00 8.85224E-03-6.77054E+00 1.68128E-03 1.95526E-03
 -1     11142-1.27720E+01-2.25479E+00 8.34669E-03-6.76617E+00 8.62269E-04 1.30843E-03
 -1     11143-1.19462E+01-1.09551E+00 3.30022E-03-5.18071E+00-9.53952E-04-1.30779E-03
 -1     11144-1.19243E+01-1.11723E+00 3.77871E-03-5.18788E+00-1.84825E-03-2.09259E-03
 -1     11145-1.19086E+01-1.13209E+00 3.20947E-03-5.19302E+00-2.32814E-03-2.14723E-03
 -1     11146-1.18985E+01-1.14138E+00 2.44554E-03-5.19628E+00-1.87437E-03-1.61289E-03
 -1     11147-1.18936E+01-1.14585E+00 1.97914E-03-5.19787E+00-7.09501E-04-5.98309E-04
 -1     11148-1.18936E+01-1.14585E+00 1.97914E-03-5.19787E+00 7.09501E-04 5.98309E-04
 -1     11149-1.18985E+01-1.14138E+00 2.44554E-03-5.19628E+00 1.87437E-03 1.61289E-03
 -1     11150-1.19086E+01-1.13209E+00 3.20947E-03-5.19302E+00 2.32814E-03 2.14723E-03
 -1     11151-1.19243E+01-1.11723E+00 3.77871E-03-5.18788E+00 1.84825E-03 2.09259E-03
 -1     11152-1.19462E+01-1.09551E+00 3.30022E-03-5.18071E+00 9.53952E-04 1.30779E-03
 -1     11153-1.07994E+01-2.41071E-01-3.25632E-03-3.65642E+00-1.13833E-03-1.22392E-03
 -1     11154-1.07770E+01-2.62623E-01-2.81079E-03-3.66607E+00-2.13321E-03-2.12212E-03
 -1     11155-1.07611E+01-2.77298E-01-3.40266E-03-3.67291E+00-2.59961E-03-2.26149E-03
 -1     11156-1.07508E+01-2.86440E-01-4.17638E-03-3.67725E+00-2.06140E-03-1.72853E-03
 -1     11157-1.07458E+01-2.90828E-01-4.64588E-03-3.67935E+00-7.75574E-04-6.45477E-04
 -1     11158-1.07458E+01-2.90828E-01-4.64588E-03-3.67935E+00 7.75574E-04 6.45477E-04
 -1     11159-1.07508E+01-2.86440E-01-4.17638E-03-3.67725E+00 2.06140E-03 1.72853E-03
 -1     11160-1.07611E+01-2.77298E-01-3.40266E-03-3.67291E+00 2.59961E-03 2.26149E-03
 -1     11161-1.07770E+01-2.62623E-01-2.81079E-03-3.66607E+00 2.13321E-03 2.12212E-03
 -1     11162-1.07994E+01-2.41071E-01-3.25632E-03-3.65642E+00 1.13833E-03 1.22392E-03
 -1     11163-9.38029E+00 3.11322E-01-1.13653E-02-2.27118E+00-1.44489E-03-1.05290E-03
 -1     11164-9.35800E+00 2.90789E-01-1.09609E-02-2.28263E+00-2.56866E-03-2.02637E-03
 -1     11165-9.34206E+00 2.76915E-01-1.16015E-02-2.29070E+00-3.00194E-03-2.24536E-03
 -1     11166-9.33182E+00 2.68319E-01-1.24078E-02-2.29581E+00-2.33354E-03-1.74656E-03
 -1     11167-9.32680E+00 2.64207E-01-1.28927E-02-2.29828E+00-8.70857E-04-6.56624E-04
 -1     11168-9.32680E+00 2.64207E-01-1.28927E-02-2.29828E+00 8.70857E-04 6.56624E-04
 -1     11169-9.33182E+00 2.68319E-01-1.24078E-02-2.29581E+00 2.33354E-03 1.74656E-03
 -1     11170-9.34206E+00 2.76915E-01-1.16015E-02-2.29070E+00 3.00194E-03 2.24536E-03
 -1     11171-9.35800E+00 2.90789E-01-1.09609E-02-2.28263E+00 2.56866E-03 2.02637E-03
 -1     11172-9.38029E+00 3.11322E-01-1.13653E-02-2.27118E+00 1.44489E-03 1.05290E-03
 -1     11173-7.76397E+00 5.82710E-01-2.08917E-02-1.09916E+00-1.89995E-03-8.00682E-04
 -1     11174-7.74233E+00 5.64071E-01-2.05391E-02-1.11135E+00-3.18031E-03-1.79313E-03
 -1     11175-7.72681E+00 5.51633E-01-2.12541E-02-1.11990E+00-3.55442E-03-2.07637E-03
 -1     11176-7.71683E+00 5.43994E-01-2.21151E-02-1.12530E+00-2.70238E-03-1.64636E-03
 -1     11177-7.71193E+00 5.40359E-01-2.26267E-02-1.12791E+00-9.99172E-04-6.23512E-04
 -1     11178-7.71193E+00 5.40359E-01-2.26267E-02-1.12791E+00 9.99172E-04 6.23512E-04
 -1     11179-7.71683E+00 5.43994E-01-2.21151E-02-1.12530E+00 2.70238E-03 1.64636E-03
 -1     11180-7.72681E+00 5.51633E-01-2.12541E-02-1.11990E+00 3.55442E-03 2.07637E-03
 -1     11181-7.74233E+00 5.64071E-01-2.05391E-02-1.11135E+00 3.18031E-03 1.79313E-03
 -1     11182-7.76397E+00 5.82710E-01-2.08917E-02-1.09916E+00 1.89995E-03 8.00682E-04
 -1     11183-6.05166E+00 6.13722E-01-3.14036E-02-2.03457E-01-2.51943E-03-4.88668E-04
 -1     11184-6.03122E+00 5.97835E-01-3.11209E-02-2.14837E-01-3.97706E-03-1.41821E-03
 -1     11185-6.01651E+00 5.87447E-01-3.19371E-02-2.22798E-01-4.25946E-03-1.73346E-03
 -1     11186-6.00702E+00 5.81162E-01-3.28686E-02-2.27811E-01-3.16709E-03-1.40468E-03
 -1     11187-6.00236E+00 5.78198E-01-3.34135E-02-2.30228E-01-1.15982E-03-5.36343E-04
 -1     11188-6.00236E+00 5.78198E-01-3.34135E-02-2.30228E-01 1.15982E-03 5.36343E-04
 -1     11189-6.00702E+00 5.81162E-01-3.28686E-02-2.27811E-01 3.16709E-03 1.40468E-03
 -1     11190-6.01651E+00 5.87447E-01-3.19371E-02-2.22798E-01 4.25946E-03 1.73346E-03
 -1     11191-6.03122E+00 5.97835E-01-3.11209E-02-2.14837E-01 3.97706E-03 1.41821E-03
 -1     11192-6.05166E+00 6.13722E-01-3.14036E-02-2.03457E-01 2.51943E-03 4.88668E-04
 -1     11193-4.36586E+00 4.64343E-01-4.19669E-02 3.73050E-01-3.30027E-03-1.58675E-04
 -1     11194-4.34729E+00 4.51989E-01-4.17802E-02 3.64545E-01-4.92929E-03-8.88611E-04
 -1     11195-4.33386E+00 4.44207E-01-4.27006E-02 3.58614E-01-5.07578E-03-1.16956E-03
 -1     11196-4.32517E+00 4.39619E-01-4.37082E-02 3.54888E-01-3.69541E-03-9.77029E-04
 -1     11197-4.32091E+00 4.37491E-01-4.42901E-02 3.53092E-01-1.34086E-03-3.77460E-04
 -1     11198-4.32091E+00 4.37491E-01-4.42901E-02 3.53092E-01 1.34086E-03 3.77460E-04
 -1     11199-4.32517E+00 4.39619E-01-4.37082E-02 3.54888E-01 3.69541E-03 9.77029E-04
 -1     11200-4.33386E+00 4.44207E-01-4.27006E-02 3.58614E-01 5.07578E-03 1.16956E-03
 -1     11201-4.34729E+00 4.51989E-01-4.17802E-02 3.64545E-01 4.92929E-03 8.88611E-04
 -1     11202-4.36586E+00 4.64343E-01-4.19669E-02 3.73050E-01 3.30027E-03 1.58675E-04
 -1     11203-2.83925E+00 2.11991E-01-5.06527E-02 6.18320E-01-4.14026E-03 1.08379E-04
 -1     11204-2.82362E+00 2.03847E-01-5.05674E-02 6.15327E-01-5.86428E-03-1.21871E-04
 -1     11205-2.81239E+00 1.99066E-01-5.15795E-02 6.13193E-01-5.82675E-03-2.41476E-04
 -1     11206-2.80518E+00 1.96411E-01-5.25900E-02 6.11825E-01-4.15495E-03-2.29481E-04
 -1     11207-2.80165E+00 1.95230E-01-5.31469E-02 6.11157E-01-1.49319E-03-9.25815E-05
 -1     11208-2.80165E+00 1.95230E-01-5.31469E-02 6.11157E-01 1.49319E-03 9.25815E-05
 -1     11209-2.80518E+00 1.96411E-01-5.25900E-02 6.11825E-01 4.15495E-03 2.29481E-04
 -1     11210-2.81239E+00 1.99066E-01-5.15795E-02 6.13193E-01 5.82675E-03 2.41476E-04
 -1     11211-2.82362E+00 2.03847E-01-5.05674E-02 6.15327E-01 5.86428E-03 1.21871E-04
 -1     11212-2.83925E+00 2.11991E-01-5.06527E-02 6.18320E-01 4.14026E-03-1.08379E-04
 -1     11213-1.59418E+00-5.19505E-02-5.44539E-02 5.64732E-01-4.73334E-03 1.01310E-04
 -1     11214-1.58397E+00-5.54858E-02-5.44703E-02 5.69973E-01-6.20781E-03 9.38699E-04
 -1     11215-1.57667E+00-5.68777E-02-5.51295E-02 5.73380E-01-5.88312E-03 1.31081E-03
 -1     11216-1.57199E+00-5.73194E-02-5.57358E-02 5.75405E-01-4.09036E-03 1.07933E-03
 -1     11217-1.56971E+00-5.74089E-02-5.60466E-02 5.76345E-01-1.45374E-03 4.11323E-04
 -1     11218-1.56971E+00-5.74089E-02-5.60466E-02 5.76345E-01 1.45374E-03-4.11323E-04
 -1     11219-1.57199E+00-5.73194E-02-5.57358E-02 5.75405E-01 4.09036E-03-1.07933E-03
 -1     11220-1.57667E+00-5.68777E-02-5.51295E-02 5.73380E-01 5.88312E-03-1.31081E-03
 -1     11221-1.58397E+00-5.54858E-02-5.44703E-02 5.69973E-01 6.20781E-03-9.38699E-04
 -1     11222-1.59418E+00-5.19505E-02-5.44539E-02 5.64732E-01 4.73334E-03-1.01310E-04
 -1     11223-7.21493E-01-2.27621E-01-5.36998E-02 3.06990E-01-3.15975E-03-1.65942E-04
 -1     11224-7.18078E-01-2.24729E-01-5.23384E-02 3.22292E-01-4.09383E-03 2.38954E-03
 -1     11225-7.15381E-01-2.21832E-01-5.22113E-02 3.32179E-01-3.98160E-03 3.12934E-03
 -1     11226-7.13537E-01-2.19660E-01-5.24402E-02 3.37975E-01-2.79441E-03 2.47976E-03
 -1     11227-7.12603E-01-2.18515E-01-5.26184E-02 3.40635E-01-9.94966E-04 9.29286E-04
 -1     11228-7.12603E-01-2.18515E-01-5.26184E-02 3.40635E-01 9.94966E-04-9.29286E-04
 -1     11229-7.13537E-01-2.19660E-01-5.24402E-02 3.37975E-01 2.79441E-03-2.47976E-03
 -1     11230-7.15381E-01-2.21832E-01-5.22113E-02 3.32179E-01 3.98160E-03-3.12934E-03
 -1     11231-7.18078E-01-2.24729E-01-5.23384E-02 3.22292E-01 4.09383E-03-2.38954E-03
 -1     11232-7.21493E-01-2.27621E-01-5.36998E-02 3.06990E-01 3.15975E-03 1.65942E-04
 -1     11233-2.39467E-01-1.76994E-01-4.17272E-02 3.88934E-02-1.50858E-03 2.33991E-04
 -1     11234-2.42160E-01-1.72353E-01-4.45990E-02 5.84730E-02 1.62324E-05 1.24538E-03
 -1     11235-2.43490E-01-1.68476E-01-4.77050E-02 6.97388E-02 1.41127E-03 1.59703E-03
 -1     11236-2.44088E-01-1.65685E-01-5.01910E-02 7.57517E-02 1.58231E-03 1.30940E-03
 -1     11237-2.44303E-01-1.64226E-01-5.15361E-02 7.83374E-02 6.65301E-04 5.01319E-04
 -1     11238-2.44303E-01-1.64226E-01-5.15361E-02 7.83374E-02-6.65301E-04-5.01319E-04
 -1     11239-2.44088E-01-1.65685E-01-5.01910E-02 7.57517E-02-1.58231E-03-1.30940E-03
 -1     11240-2.43490E-01-1.68476E-01-4.77050E-02 6.97388E-02-1.41127E-03-1.59703E-03
 -1     11241-2.42160E-01-1.72353E-01-4.45990E-02 5.84730E-02-1.62324E-05-1.24538E-03
 -1     11242-2.39467E-01-1.76994E-01-4.17272E-02 3.88934E-02 1.50858E-03-2.33991E-04
 -1     11243 2.60699E+00-3.88412E+01 4.43062E+00-5.42108E+00-1.93720E-02 1.68977E-02
 -1     11244 2.24633E+00-3.94078E+01 2.75429E+00-5.51771E+00 7.06202E-01 3.55950E-02
 -1     11245 2.00995E+00-3.97391E+01 1.53458E+00-5.58519E+00 7.42670E-01 3.58277E-02
 -1     11246 1.86938E+00-3.99252E+01 7.57258E-01-5.62816E+00 5.13438E-01 2.36839E-02
 -1     11247 1.80405E+00-4.00094E+01 3.81143E-01-5.64909E+00 1.80392E-01 8.14068E-03
 -1     11248 1.80405E+00-4.00094E+01 3.81143E-01-5.64909E+00-1.80392E-01-8.14068E-03
 -1     11249 1.86938E+00-3.99252E+01 7.57258E-01-5.62816E+00-5.13438E-01-2.36839E-02
 -1     11250 2.00995E+00-3.97391E+01 1.53458E+00-5.58519E+00-7.42670E-01-3.58277E-02
 -1     11251 2.24633E+00-3.94078E+01 2.75429E+00-5.51771E+00-7.06202E-01-3.55950E-02
 -1     11252 2.60699E+00-3.88412E+01 4.43062E+00-5.42108E+00 1.93720E-02-1.68977E-02
 -1     11253-1.06564E+00-3.95591E+01-9.17081E-01-5.41277E+00 6.66419E-02 1.00464E-01
 -1     11254-9.11848E-01-3.98142E+01-1.40888E-01-5.39330E+00-4.20930E-01 1.24065E-01
 -1     11255-8.23158E-01-3.99571E+01 2.21867E-01-5.39671E+00-4.10540E-01 1.05583E-01
 -1     11256-7.73962E-01-4.00317E+01 3.87229E-01-5.40450E+00-2.65123E-01 6.83890E-02
 -1     11257-7.51996E-01-4.00635E+01 4.50884E-01-5.40962E+00-8.97339E-02 2.34360E-02
 -1     11258-7.51996E-01-4.00635E+01 4.50884E-01-5.40962E+00 8.97339E-02-2.34360E-02
 -1     11259-7.73962E-01-4.00317E+01 3.87229E-01-5.40450E+00 2.65123E-01-6.83890E-02
 -1     11260-8.23158E-01-3.99571E+01 2.21867E-01-5.39671E+00 4.10540E-01-1.05583E-01
 -1     11261-9.11848E-01-3.98142E+01-1.40888E-01-5.39330E+00 4.20930E-01-1.24065E-01
 -1     11262-1.06564E+00-3.95591E+01-9.17081E-01-5.41277E+00-6.66419E-02-1.00464E-01
 -1     11263-3.39494E-01-3.58747E+01 6.13321E-02-6.38771E+00-6.85443E-02 2.08977E-02
 -1     11264-4.97577E-01-3.60210E+01-1.22420E-01-6.36996E+00-2.98778E-02 2.65938E-02
 -1     11265-5.50154E-01-3.61388E+01-7.09491E-02-6.35353E+00-7.42304E-02 2.40306E-02
 -1     11266-5.64249E-01-3.62187E+01 1.68907E-02-6.34305E+00-7.33441E-02 1.65551E-02
 -1     11267-5.66525E-01-3.62585E+01 7.18284E-02-6.33819E+00-2.95454E-02 5.90543E-03
 -1     11268-5.66525E-01-3.62585E+01 7.18284E-02-6.33819E+00 2.95454E-02-5.90543E-03
 -1     11269-5.64249E-01-3.62187E+01 1.68907E-02-6.34305E+00 7.33441E-02-1.65551E-02
 -1     11270-5.50154E-01-3.61388E+01-7.09491E-02-6.35353E+00 7.42304E-02-2.40306E-02
 -1     11271-4.97577E-01-3.60210E+01-1.22420E-01-6.36996E+00 2.98778E-02-2.65938E-02
 -1     11272-3.39494E-01-3.58747E+01 6.13321E-02-6.38771E+00 6.85443E-02-2.08977E-02
 -1     11273-9.99763E-01-3.44614E+01-3.33676E-02-7.78460E+00 9.75594E-04 6.07715E-03
 -1     11274-1.00233E+00-3.43600E+01-1.75869E-02-7.78409E+00 8.54960E-03 1.69269E-02
 -1     11275-1.03131E+00-3.43245E+01-6.35811E-02-7.77987E+00 2.57291E-02 1.82740E-02
 -1     11276-1.05469E+00-3.43164E+01-9.62793E-02-7.77551E+00 2.19821E-02 1.29304E-02
 -1     11277-1.06652E+00-3.43164E+01-1.10324E-01-7.77295E+00 8.10153E-03 4.57590E-03
 -1     11278-1.06652E+00-3.43164E+01-1.10324E-01-7.77295E+00-8.10153E-03-4.57590E-03
 -1     11279-1.05469E+00-3.43164E+01-9.62793E-02-7.77551E+00-2.19821E-02-1.29304E-02
 -1     11280-1.03131E+00-3.43245E+01-6.35811E-02-7.77987E+00-2.57291E-02-1.82740E-02
 -1     11281-1.00233E+00-3.43600E+01-1.75869E-02-7.78409E+00-8.54960E-03-1.69269E-02
 -1     11282-9.99763E-01-3.44614E+01-3.33676E-02-7.78460E+00-9.75594E-04-6.07715E-03
 -1     11283-1.77320E+00-3.28407E+01-1.84275E-02-9.23585E+00 4.12829E-03 7.23193E-03
 -1     11284-1.79361E+00-3.28160E+01-3.40503E-02-9.23748E+00 1.23946E-02 1.12195E-02
 -1     11285-1.79756E+00-3.27819E+01-3.40793E-02-9.23623E+00 1.16296E-02 1.12501E-02
 -1     11286-1.79985E+00-3.27560E+01-3.81515E-02-9.23427E+00 9.39612E-03 8.22036E-03
 -1     11287-1.80139E+00-3.27428E+01-4.21077E-02-9.23297E+00 3.69473E-03 3.00194E-03
 -1     11288-1.80139E+00-3.27428E+01-4.21077E-02-9.23297E+00-3.69473E-03-3.00194E-03
 -1     11289-1.79985E+00-3.27560E+01-3.81515E-02-9.23427E+00-9.39612E-03-8.22036E-03
 -1     11290-1.79756E+00-3.27819E+01-3.40793E-02-9.23623E+00-1.16296E-02-1.12501E-02
 -1     11291-1.79361E+00-3.28160E+01-3.40503E-02-9.23748E+00-1.23946E-02-1.12195E-02
 -1     11292-1.77320E+00-3.28407E+01-1.84275E-02-9.23585E+00-4.12829E-03-7.23193E-03
 -1     11293-2.74770E+00-3.12312E+01 5.84954E-03-1.06274E+01 8.73110E-04 4.66278E-03
 -1     11294-2.76189E+00-3.12132E+01-2.30412E-03-1.06272E+01 3.52901E-03 8.64799E-03
 -1     11295-2.77047E+00-3.12006E+01-1.04900E-02-1.06262E+01 5.08020E-03 8.56005E-03
 -1     11296-2.77387E+00-3.11903E+01-1.31822E-02-1.06251E+01 3.66367E-03 5.89680E-03
 -1     11297-2.77489E+00-3.11844E+01-1.36901E-02-1.06245E+01 1.28624E-03 2.07643E-03
 -1     11298-2.77489E+00-3.11844E+01-1.36901E-02-1.06245E+01-1.28624E-03-2.07643E-03
 -1     11299-2.77387E+00-3.11903E+01-1.31822E-02-1.06251E+01-3.66367E-03-5.89680E-03
 -1     11300-2.77047E+00-3.12006E+01-1.04900E-02-1.06262E+01-5.08020E-03-8.56005E-03
 -1     11301-2.76189E+00-3.12132E+01-2.30412E-03-1.06272E+01-3.52901E-03-8.64799E-03
 -1     11302-2.74770E+00-3.12312E+01 5.84954E-03-1.06274E+01-8.73110E-04-4.66278E-03
 -1     11303-3.87913E+00-2.94927E+01 1.33922E-02-1.18770E+01-4.81509E-05 4.13533E-03
 -1     11304-3.89059E+00-2.94831E+01 5.92237E-03-1.18742E+01 6.22188E-04 6.65555E-03
 -1     11305-3.89620E+00-2.94739E+01 1.32355E-03-1.18718E+01 1.02283E-03 6.54938E-03
 -1     11306-3.89920E+00-2.94675E+01-1.56989E-03-1.18701E+01 1.04686E-03 4.60556E-03
 -1     11307-3.90049E+00-2.94642E+01-2.84157E-03-1.18692E+01 4.31895E-04 1.64066E-03
 -1     11308-3.90049E+00-2.94642E+01-2.84157E-03-1.18692E+01-4.31895E-04-1.64066E-03
 -1     11309-3.89920E+00-2.94675E+01-1.56989E-03-1.18701E+01-1.04686E-03-4.60556E-03
 -1     11310-3.89620E+00-2.94739E+01 1.32355E-03-1.18718E+01-1.02283E-03-6.54938E-03
 -1     11311-3.89059E+00-2.94831E+01 5.92237E-03-1.18742E+01-6.22188E-04-6.65555E-03
 -1     11312-3.87913E+00-2.94927E+01 1.33922E-02-1.18770E+01 4.81509E-05-4.13533E-03
 -1     11313-5.12080E+00-2.75828E+01 1.76870E-02-1.29279E+01-9.25970E-04 3.38043E-03
 -1     11314-5.12946E+00-2.75761E+01 1.04649E-02-1.29231E+01-8.83165E-04 5.55828E-03
 -1     11315-5.13369E+00-2.75701E+01 5.55862E-03-1.29196E+01-5.32463E-04 5.35583E-03
 -1     11316-5.13551E+00-2.75653E+01 3.20858E-03-1.29171E+01-2.82200E-04 3.68614E-03
 -1     11317-5.13619E+00-2.75627E+01 2.27080E-03-1.29159E+01-8.45174E-05 1.30100E-03
 -1     11318-5.13619E+00-2.75627E+01 2.27080E-03-1.29159E+01 8.45174E-05-1.30100E-03
 -1     11319-5.13551E+00-2.75653E+01 3.20858E-03-1.29171E+01 2.82200E-04-3.68614E-03
 -1     11320-5.13369E+00-2.75701E+01 5.55862E-03-1.29196E+01 5.32463E-04-5.35583E-03
 -1     11321-5.12946E+00-2.75761E+01 1.04649E-02-1.29231E+01 8.83165E-04-5.55828E-03
 -1     11322-5.12080E+00-2.75828E+01 1.76870E-02-1.29279E+01 9.25970E-04-3.38043E-03
 -1     11323-6.42869E+00-2.55018E+01 1.96808E-02-1.37409E+01-1.51260E-03 2.82224E-03
 -1     11324-6.43457E+00-2.54979E+01 1.30078E-02-1.37347E+01-2.05442E-03 4.53592E-03
 -1     11325-6.43705E+00-2.54936E+01 8.51718E-03-1.37303E+01-1.81131E-03 4.33822E-03
 -1     11326-6.43796E+00-2.54902E+01 6.20107E-03-1.37274E+01-1.17767E-03 2.97415E-03
 -1     11327-6.43821E+00-2.54883E+01 5.28848E-03-1.37260E+01-4.05287E-04 1.04606E-03
 -1     11328-6.43821E+00-2.54883E+01 5.28848E-03-1.37260E+01 4.05287E-04-1.04606E-03
 -1     11329-6.43796E+00-2.54902E+01 6.20107E-03-1.37274E+01 1.17767E-03-2.97415E-03
 -1     11330-6.43705E+00-2.54936E+01 8.51718E-03-1.37303E+01 1.81131E-03-4.33822E-03
 -1     11331-6.43457E+00-2.54979E+01 1.30078E-02-1.37347E+01 2.05442E-03-4.53592E-03
 -1     11332-6.42869E+00-2.55018E+01 1.96808E-02-1.37409E+01 1.51260E-03-2.82224E-03
 -1     11333-7.75562E+00-2.32735E+01 2.09476E-02-1.42882E+01-2.03286E-03 2.26727E-03
 -1     11334-7.75899E+00-2.32721E+01 1.46531E-02-1.42812E+01-3.01375E-03 3.60008E-03
 -1     11335-7.75991E+00-2.32698E+01 1.04287E-02-1.42763E+01-2.84400E-03 3.37473E-03
 -1     11336-7.75986E+00-2.32675E+01 8.29281E-03-1.42732E+01-1.94797E-03 2.28186E-03
 -1     11337-7.75967E+00-2.32662E+01 7.43838E-03-1.42716E+01-6.85504E-04 7.97725E-04
 -1     11338-7.75967E+00-2.32662E+01 7.43838E-03-1.42716E+01 6.85504E-04-7.97725E-04
 -1     11339-7.75986E+00-2.32675E+01 8.29281E-03-1.42732E+01 1.94797E-03-2.28186E-03
 -1     11340-7.75991E+00-2.32698E+01 1.04287E-02-1.42763E+01 2.84400E-03-3.37473E-03
 -1     11341-7.75899E+00-2.32721E+01 1.46531E-02-1.42812E+01 3.01375E-03-3.60008E-03
 -1     11342-7.75562E+00-2.32735E+01 2.09476E-02-1.42882E+01 2.03286E-03-2.26727E-03
 -1     11343-9.05238E+00-2.09340E+01 2.17054E-02-1.45519E+01-2.46155E-03 1.70655E-03
 -1     11344-9.05335E+00-2.09351E+01 1.57758E-02-1.45445E+01-3.80406E-03 2.65486E-03
 -1     11345-9.05277E+00-2.09345E+01 1.17960E-02-1.45395E+01-3.69351E-03 2.41538E-03
 -1     11346-9.05183E+00-2.09334E+01 9.78043E-03-1.45363E+01-2.57087E-03 1.59627E-03
 -1     11347-9.05122E+00-2.09327E+01 8.98223E-03-1.45346E+01-9.12491E-04 5.51089E-04
 -1     11348-9.05122E+00-2.09327E+01 8.98223E-03-1.45346E+01 9.12491E-04-5.51089E-04
 -1     11349-9.05183E+00-2.09334E+01 9.78043E-03-1.45363E+01 2.57087E-03-1.59627E-03
 -1     11350-9.05277E+00-2.09345E+01 1.17960E-02-1.45395E+01 3.69351E-03-2.41538E-03
 -1     11351-9.05335E+00-2.09351E+01 1.57758E-02-1.45445E+01 3.80406E-03-2.65486E-03
 -1     11352-9.05238E+00-2.09340E+01 2.17054E-02-1.45519E+01 2.46155E-03-1.70655E-03
 -1     11353-1.02679E+01-1.85261E+01 2.21405E-02-1.45232E+01-2.81145E-03 1.12223E-03
 -1     11354-1.02666E+01-1.85297E+01 1.65373E-02-1.45160E+01-4.44590E-03 1.68391E-03
 -1     11355-1.02646E+01-1.85307E+01 1.27746E-02-1.45110E+01-4.38635E-03 1.42836E-03
 -1     11356-1.02628E+01-1.85307E+01 1.08671E-02-1.45078E+01-3.08203E-03 8.91008E-04
 -1     11357-1.02618E+01-1.85305E+01 1.01082E-02-1.45063E+01-1.09844E-03 2.97880E-04
 -1     11358-1.02618E+01-1.85305E+01 1.01082E-02-1.45063E+01 1.09844E-03-2.97880E-04
 -1     11359-1.02628E+01-1.85307E+01 1.08671E-02-1.45078E+01 3.08203E-03-8.91008E-04
 -1     11360-1.02646E+01-1.85307E+01 1.27746E-02-1.45110E+01 4.38635E-03-1.42836E-03
 -1     11361-1.02666E+01-1.85297E+01 1.65373E-02-1.45160E+01 4.44590E-03-1.68391E-03
 -1     11362-1.02679E+01-1.85261E+01 2.21405E-02-1.45232E+01 2.81145E-03-1.12223E-03
 -1     11363-1.13506E+01-1.60969E+01 2.23029E-02-1.42025E+01-3.08952E-03 5.11609E-04
 -1     11364-1.13471E+01-1.61028E+01 1.70077E-02-1.41958E+01-4.96836E-03 6.69752E-04
 -1     11365-1.13437E+01-1.61055E+01 1.34420E-02-1.41913E+01-4.95645E-03 3.96902E-04
 -1     11366-1.13411E+01-1.61065E+01 1.16271E-02-1.41883E+01-3.50442E-03 1.53105E-04
 -1     11367-1.13397E+01-1.61069E+01 1.09025E-02-1.41869E+01-1.25264E-03 3.26299E-05
 -1     11368-1.13397E+01-1.61069E+01 1.09025E-02-1.41869E+01 1.25264E-03-3.26299E-05
 -1     11369-1.13411E+01-1.61065E+01 1.16271E-02-1.41883E+01 3.50442E-03-1.53105E-04
 -1     11370-1.13437E+01-1.61055E+01 1.34420E-02-1.41913E+01 4.95645E-03-3.96902E-04
 -1     11371-1.13471E+01-1.61028E+01 1.70077E-02-1.41958E+01 4.96836E-03-6.69752E-04
 -1     11372-1.13506E+01-1.60969E+01 2.23029E-02-1.42025E+01 3.08952E-03-5.11609E-04
 -1     11373-1.22495E+01-1.36954E+01 2.21676E-02-1.35997E+01-3.30483E-03-1.22963E-04
 -1     11374-1.22439E+01-1.37035E+01 1.71644E-02-1.35939E+01-5.39252E-03-3.91641E-04
 -1     11375-1.22392E+01-1.37078E+01 1.37824E-02-1.35900E+01-5.42777E-03-6.87210E-04
 -1     11376-1.22359E+01-1.37098E+01 1.20506E-02-1.35875E+01-3.85636E-03-6.24038E-04
 -1     11377-1.22342E+01-1.37106E+01 1.13547E-02-1.35862E+01-1.38144E-03-2.46923E-04
 -1     11378-1.22342E+01-1.37106E+01 1.13547E-02-1.35862E+01 1.38144E-03 2.46923E-04
 -1     11379-1.22359E+01-1.37098E+01 1.20506E-02-1.35875E+01 3.85636E-03 6.24038E-04
 -1     11380-1.22392E+01-1.37078E+01 1.37824E-02-1.35900E+01 5.42777E-03 6.87210E-04
 -1     11381-1.22439E+01-1.37035E+01 1.71644E-02-1.35939E+01 5.39252E-03 3.91641E-04
 -1     11382-1.22495E+01-1.36954E+01 2.21676E-02-1.35997E+01 3.30483E-03 1.22963E-04
 -1     11383-1.29163E+01-1.13710E+01 2.16461E-02-1.27342E+01-3.46579E-03-7.73368E-04
 -1     11384-1.29088E+01-1.13812E+01 1.69203E-02-1.27298E+01-5.73499E-03-1.49576E-03
 -1     11385-1.29030E+01-1.13868E+01 1.37106E-02-1.27267E+01-5.81754E-03-1.82235E-03
 -1     11386-1.28989E+01-1.13898E+01 1.20551E-02-1.27247E+01-4.15026E-03-1.44041E-03
 -1     11387-1.28969E+01-1.13911E+01 1.13849E-02-1.27237E+01-1.48944E-03-5.41008E-04
 -1     11388-1.28969E+01-1.13911E+01 1.13849E-02-1.27237E+01 1.48944E-03 5.41008E-04
 -1     11389-1.28989E+01-1.13898E+01 1.20551E-02-1.27247E+01 4.15026E-03 1.44041E-03
 -1     11390-1.29030E+01-1.13868E+01 1.37106E-02-1.27267E+01 5.81754E-03 1.82235E-03
 -1     11391-1.29088E+01-1.13812E+01 1.69203E-02-1.27298E+01 5.73499E-03 1.49576E-03
 -1     11392-1.29163E+01-1.13710E+01 2.16461E-02-1.27342E+01 3.46579E-03 7.73368E-04
 -1     11393-1.33074E+01-9.17176E+00 2.05975E-02-1.16356E+01-3.58163E-03-1.42603E-03
 -1     11394-1.32982E+01-9.18384E+00 1.61330E-02-1.16327E+01-6.00983E-03-2.62876E-03
 -1     11395-1.32913E+01-9.19078E+00 1.30856E-02-1.16307E+01-6.13874E-03-2.99758E-03
 -1     11396-1.32866E+01-9.19457E+00 1.15023E-02-1.16293E+01-4.39487E-03-2.28907E-03
 -1     11397-1.32843E+01-9.19625E+00 1.08564E-02-1.16287E+01-1.57965E-03-8.47248E-04
 -1     11398-1.32843E+01-9.19625E+00 1.08564E-02-1.16287E+01 1.57965E-03 8.47248E-04
 -1     11399-1.32866E+01-9.19457E+00 1.15023E-02-1.16293E+01 4.39487E-03 2.28907E-03
 -1     11400-1.32913E+01-9.19078E+00 1.30856E-02-1.16307E+01 6.13874E-03 2.99758E-03
 -1     11401-1.32982E+01-9.18384E+00 1.61330E-02-1.16327E+01 6.00983E-03 2.62876E-03
 -1     11402-1.33074E+01-9.17176E+00 2.05975E-02-1.16356E+01 3.58163E-03 1.42603E-03
 -1     11403-1.33868E+01-7.14299E+00 1.88384E-02-1.03434E+01-3.66314E-03-2.06157E-03
 -1     11404-1.33760E+01-7.15667E+00 1.46159E-02-1.03423E+01-6.23004E-03-3.76646E-03
 -1     11405-1.33681E+01-7.16470E+00 1.17218E-02-1.03414E+01-6.40154E-03-4.19082E-03
 -1     11406-1.33629E+01-7.16918E+00 1.02091E-02-1.03408E+01-4.59638E-03-3.15498E-03
 -1     11407-1.33603E+01-7.17120E+00 9.58819E-03-1.03405E+01-1.65416E-03-1.16034E-03
 -1     11408-1.33603E+01-7.17120E+00 9.58819E-03-1.03405E+01 1.65416E-03 1.16034E-03
 -1     11409-1.33629E+01-7.16918E+00 1.02091E-02-1.03408E+01 4.59638E-03 3.15498E-03
 -1     11410-1.33681E+01-7.16470E+00 1.17218E-02-1.03414E+01 6.40154E-03 4.19082E-03
 -1     11411-1.33760E+01-7.15667E+00 1.46159E-02-1.03423E+01 6.23004E-03 3.76646E-03
 -1     11412-1.33868E+01-7.14299E+00 1.88384E-02-1.03434E+01 3.66314E-03 2.06157E-03
 -1     11413-1.31289E+01-5.32516E+00 1.61532E-02-8.90690E+00-3.72331E-03-2.65427E-03
 -1     11414-1.31167E+01-5.34010E+00 1.21497E-02-8.90775E+00-6.40850E-03-4.87237E-03
 -1     11415-1.31080E+01-5.34897E+00 9.40068E-03-8.90815E+00-6.61431E-03-5.36642E-03
 -1     11416-1.31023E+01-5.35399E+00 7.96043E-03-8.90829E+00-4.75912E-03-4.01295E-03
 -1     11417-1.30995E+01-5.35627E+00 7.36796E-03-8.90831E+00-1.71424E-03-1.47126E-03
 -1     11418-1.30995E+01-5.35627E+00 7.36796E-03-8.90831E+00 1.71424E-03 1.47126E-03
 -1     11419-1.31023E+01-5.35399E+00 7.96043E-03-8.90829E+00 4.75912E-03 4.01295E-03
 -1     11420-1.31080E+01-5.34897E+00 9.40068E-03-8.90815E+00 6.61431E-03 5.36642E-03
 -1     11421-1.31167E+01-5.34010E+00 1.21497E-02-8.90775E+00 6.40850E-03 4.87237E-03
 -1     11422-1.31289E+01-5.32516E+00 1.61532E-02-8.90690E+00 3.72331E-03 2.65427E-03
 -1     11423-1.25225E+01-3.75189E+00 1.23101E-02-7.38471E+00-3.77770E-03-3.17167E-03
 -1     11424-1.25091E+01-3.76766E+00 8.49939E-03-7.38752E+00-6.55859E-03-5.89535E-03
 -1     11425-1.24997E+01-3.77708E+00 5.88923E-03-7.38918E+00-6.78435E-03-6.47204E-03
 -1     11426-1.24936E+01-3.78244E+00 4.52765E-03-7.39007E+00-4.88612E-03-4.82521E-03
 -1     11427-1.24905E+01-3.78489E+00 3.97005E-03-7.39046E+00-1.76067E-03-1.76638E-03
 -1     11428-1.24905E+01-3.78489E+00 3.97005E-03-7.39046E+00 1.76067E-03 1.76638E-03
 -1     11429-1.24936E+01-3.78244E+00 4.52765E-03-7.39007E+00 4.88612E-03 4.82521E-03
 -1     11430-1.24997E+01-3.77708E+00 5.88923E-03-7.38918E+00 6.78435E-03 6.47204E-03
 -1     11431-1.25091E+01-3.76766E+00 8.49939E-03-7.38752E+00 6.55859E-03 5.89535E-03
 -1     11432-1.25225E+01-3.75189E+00 1.23101E-02-7.38471E+00 3.77770E-03 3.17167E-03
 -1     11433-1.15749E+01-2.44747E+00 7.08477E-03-5.84289E+00-3.84444E-03-3.57410E-03
 -1     11434-1.15605E+01-2.46359E+00 3.43890E-03-5.84754E+00-6.69452E-03-6.76701E-03
 -1     11435-1.15504E+01-2.47322E+00 9.65081E-04-5.85035E+00-6.91856E-03-7.43524E-03
 -1     11436-1.15439E+01-2.47871E+00-3.05859E-04-5.85194E+00-4.97976E-03-5.53868E-03
 -1     11437-1.15407E+01-2.48122E+00-8.18214E-04-5.85266E+00-1.79390E-03-2.02641E-03
 -1     11438-1.15407E+01-2.48122E+00-8.18214E-04-5.85266E+00 1.79390E-03 2.02641E-03
 -1     11439-1.15439E+01-2.47871E+00-3.05859E-04-5.85194E+00 4.97976E-03 5.53868E-03
 -1     11440-1.15504E+01-2.47322E+00 9.65081E-04-5.85035E+00 6.91856E-03 7.43524E-03
 -1     11441-1.15605E+01-2.46359E+00 3.43890E-03-5.84754E+00 6.69452E-03 6.76701E-03
 -1     11442-1.15749E+01-2.44747E+00 7.08477E-03-5.84289E+00 3.84444E-03 3.57410E-03
 -1     11443-1.03154E+01-1.42453E+00 2.93306E-04-4.35242E+00-3.94372E-03-3.81452E-03
 -1     11444-1.03001E+01-1.44045E+00-3.21379E-03-4.35859E+00-6.83133E-03-7.39912E-03
 -1     11445-1.02895E+01-1.44993E+00-5.54732E-03-4.36234E+00-7.02396E-03-8.15986E-03
 -1     11446-1.02826E+01-1.45533E+00-6.70813E-03-4.36449E+00-5.04228E-03-6.08211E-03
 -1     11447-1.02792E+01-1.45779E+00-7.16002E-03-4.36547E+00-1.81432E-03-2.22534E-03
 -1     11448-1.02792E+01-1.45779E+00-7.16002E-03-4.36547E+00 1.81432E-03 2.22534E-03
 -1     11449-1.02826E+01-1.45533E+00-6.70813E-03-4.36449E+00 5.04228E-03 6.08211E-03
 -1     11450-1.02895E+01-1.44993E+00-5.54732E-03-4.36234E+00 7.02396E-03 8.15986E-03
 -1     11451-1.03001E+01-1.44045E+00-3.21379E-03-4.35859E+00 6.83133E-03 7.39912E-03
 -1     11452-1.03154E+01-1.42453E+00 2.93306E-04-4.35242E+00 3.94372E-03 3.81452E-03
 -1     11453-8.79893E+00-6.81728E-01-8.16253E-03-2.98511E+00-4.09640E-03-3.83847E-03
 -1     11454-8.78295E+00-6.96875E-01-1.15494E-02-2.99229E+00-6.98398E-03-7.68085E-03
 -1     11455-8.77177E+00-7.05825E-01-1.37281E-02-2.99662E+00-7.10768E-03-8.52229E-03
 -1     11456-8.76452E+00-7.10883E-01-1.47494E-02-2.99911E+00-5.07614E-03-6.36305E-03
 -1     11457-8.76094E+00-7.13182E-01-1.51199E-02-3.00025E+00-1.82242E-03-2.32932E-03
 -1     11458-8.76094E+00-7.13182E-01-1.51199E-02-3.00025E+00 1.82242E-03 2.32932E-03
 -1     11459-8.76452E+00-7.10883E-01-1.47494E-02-2.99911E+00 5.07614E-03 6.36305E-03
 -1     11460-8.77177E+00-7.05825E-01-1.37281E-02-2.99662E+00 7.10768E-03 8.52229E-03
 -1     11461-8.78295E+00-6.96875E-01-1.15494E-02-2.99229E+00 6.98398E-03 7.68085E-03
 -1     11462-8.79893E+00-6.81728E-01-8.16253E-03-2.98511E+00 4.09640E-03 3.83847E-03
 -1     11463-7.10799E+00-2.02125E-01-1.82336E-02-1.80825E+00-4.32140E-03-3.58383E-03
 -1     11464-7.09137E+00-2.15921E-01-2.15026E-02-1.81564E+00-7.16488E-03-7.47549E-03
 -1     11465-7.07966E+00-2.23968E-01-2.34958E-02-1.82006E+00-7.17548E-03-8.36721E-03
 -1     11466-7.07204E+00-2.28461E-01-2.43362E-02-1.82258E+00-5.08330E-03-6.26471E-03
 -1     11467-7.06828E+00-2.30487E-01-2.45976E-02-1.82373E+00-1.81859E-03-2.29546E-03
 -1     11468-7.06828E+00-2.30487E-01-2.45976E-02-1.82373E+00 1.81859E-03 2.29546E-03
 -1     11469-7.07204E+00-2.28461E-01-2.43362E-02-1.82258E+00 5.08330E-03 6.26471E-03
 -1     11470-7.07966E+00-2.23968E-01-2.34958E-02-1.82006E+00 7.17548E-03 8.36721E-03
 -1     11471-7.09137E+00-2.15921E-01-2.15026E-02-1.81564E+00 7.16488E-03 7.47549E-03
 -1     11472-7.10799E+00-2.02125E-01-1.82336E-02-1.80825E+00 4.32140E-03 3.58383E-03
 -1     11473-5.35206E+00 4.74005E-02-2.96234E-02-8.77774E-01-4.62949E-03-2.97979E-03
 -1     11474-5.33485E+00 3.55002E-02-3.27521E-02-8.84306E-01-7.37624E-03-6.61335E-03
 -1     11475-5.32261E+00 2.86981E-02-3.45075E-02-8.88127E-01-7.22495E-03-7.49754E-03
 -1     11476-5.31463E+00 2.49770E-02-3.51071E-02-8.90275E-01-5.06054E-03-5.63665E-03
 -1     11477-5.31068E+00 2.33231E-02-3.52224E-02-8.91245E-01-1.80143E-03-2.06823E-03
 -1     11478-5.31068E+00 2.33231E-02-3.52224E-02-8.91245E-01 1.80143E-03 2.06823E-03
 -1     11479-5.31463E+00 2.49770E-02-3.51071E-02-8.90275E-01 5.06054E-03 5.63665E-03
 -1     11480-5.32261E+00 2.86981E-02-3.45075E-02-8.88127E-01 7.22495E-03 7.49754E-03
 -1     11481-5.33485E+00 3.55002E-02-3.27521E-02-8.84306E-01 7.37624E-03 6.61335E-03
 -1     11482-5.35206E+00 4.74005E-02-2.96234E-02-8.77774E-01 4.62949E-03 2.97979E-03
 -1     11483-3.66329E+00 1.15274E-01-4.15641E-02-2.30386E-01-5.01417E-03-1.94258E-03
 -1     11484-3.64563E+00 1.05736E-01-4.44848E-02-2.34629E-01-7.58781E-03-4.85678E-03
 -1     11485-3.63300E+00 1.00453E-01-4.59105E-02-2.36982E-01-7.22445E-03-5.63110E-03
 -1     11486-3.62477E+00 9.76532E-02-4.61990E-02-2.38252E-01-4.98610E-03-4.26591E-03
 -1     11487-3.62071E+00 9.64361E-02-4.61299E-02-2.38812E-01-1.76335E-03-1.56955E-03
 -1     11488-3.62071E+00 9.64361E-02-4.61299E-02-2.38812E-01 1.76335E-03 1.56955E-03
 -1     11489-3.62477E+00 9.76532E-02-4.61990E-02-2.38252E-01 4.98610E-03 4.26591E-03
 -1     11490-3.63300E+00 1.00453E-01-4.59105E-02-2.36982E-01 7.22445E-03 5.63110E-03
 -1     11491-3.64563E+00 1.05736E-01-4.44848E-02-2.34629E-01 7.58781E-03 4.85678E-03
 -1     11492-3.66329E+00 1.15274E-01-4.15641E-02-2.30386E-01 5.01417E-03 1.94258E-03
 -1     11493-2.18577E+00 6.26452E-02-5.23580E-02 1.25195E-01-5.38750E-03-3.57899E-04
 -1     11494-2.16836E+00 5.58093E-02-5.49179E-02 1.25023E-01-7.66486E-03-1.79644E-03
 -1     11495-2.15610E+00 5.21739E-02-5.58577E-02 1.25157E-01-7.04259E-03-2.27797E-03
 -1     11496-2.14821E+00 5.03524E-02-5.56621E-02 1.25318E-01-4.76360E-03-1.76579E-03
 -1     11497-2.14436E+00 4.95981E-02-5.52951E-02 1.25413E-01-1.66883E-03-6.53587E-04
 -1     11498-2.14436E+00 4.95981E-02-5.52951E-02 1.25413E-01 1.66883E-03 6.53587E-04
 -1     11499-2.14821E+00 5.03524E-02-5.56621E-02 1.25318E-01 4.76360E-03 1.76579E-03
 -1     11500-2.15610E+00 5.21739E-02-5.58577E-02 1.25157E-01 7.04259E-03 2.27797E-03
 -1     11501-2.16836E+00 5.58093E-02-5.49179E-02 1.25023E-01 7.66486E-03 1.79644E-03
 -1     11502-2.18577E+00 6.26452E-02-5.23580E-02 1.25195E-01 5.38750E-03 3.57899E-04
 -1     11503-1.05323E+00-3.98914E-02-5.81626E-02 2.18294E-01-5.56622E-03 1.49487E-03
 -1     11504-1.03892E+00-4.40922E-02-6.02094E-02 2.23969E-01-7.15466E-03 2.92965E-03
 -1     11505-1.02898E+00-4.59441E-02-6.01049E-02 2.27457E-01-6.20411E-03 3.20969E-03
 -1     11506-1.02266E+00-4.66237E-02-5.89528E-02 2.29475E-01-4.06206E-03 2.38855E-03
 -1     11507-1.01959E+00-4.68185E-02-5.80461E-02 2.30402E-01-1.40203E-03 8.73478E-04
 -1     11508-1.01959E+00-4.68185E-02-5.80461E-02 2.30402E-01 1.40203E-03-8.73478E-04
 -1     11509-1.02266E+00-4.66237E-02-5.89528E-02 2.29475E-01 4.06206E-03-2.38855E-03
 -1     11510-1.02898E+00-4.59441E-02-6.01049E-02 2.27457E-01 6.20411E-03-3.20969E-03
 -1     11511-1.03892E+00-4.40922E-02-6.02094E-02 2.23969E-01 7.15466E-03-2.92965E-03
 -1     11512-1.05323E+00-3.98914E-02-5.81626E-02 2.18294E-01 5.56622E-03-1.49487E-03
 -1     11513-3.51151E-01-1.18879E-01-5.40274E-02 1.28650E-01-3.94752E-03 2.81568E-03
 -1     11514-3.43302E-01-1.18684E-01-5.39613E-02 1.40738E-01-4.80201E-03 8.49831E-03
 -1     11515-3.37671E-01-1.17853E-01-5.29819E-02 1.47648E-01-4.07140E-03 9.63568E-03
 -1     11516-3.34010E-01-1.17016E-01-5.16677E-02 1.51421E-01-2.62971E-03 7.14050E-03
 -1     11517-3.32207E-01-1.16526E-01-5.08044E-02 1.53085E-01-9.00778E-04 2.59706E-03
 -1     11518-3.32207E-01-1.16526E-01-5.08044E-02 1.53085E-01 9.00778E-04-2.59706E-03
 -1     11519-3.34010E-01-1.17016E-01-5.16677E-02 1.51421E-01 2.62971E-03-7.14050E-03
 -1     11520-3.37671E-01-1.17853E-01-5.29819E-02 1.47648E-01 4.07140E-03-9.63568E-03
 -1     11521-3.43302E-01-1.18684E-01-5.39613E-02 1.40738E-01 4.80201E-03-8.49831E-03
 -1     11522-3.51151E-01-1.18879E-01-5.40274E-02 1.28650E-01 3.94752E-03-2.81568E-03
 -1     11523-4.54283E-02-7.35294E-02-3.04440E-02 5.70745E-04-1.44477E-03 4.50580E-03
 -1     11524-4.48578E-02-7.24013E-02-3.34886E-02 1.45900E-02-5.92686E-04 9.63796E-03
 -1     11525-4.36710E-02-7.11151E-02-3.59913E-02 2.16912E-02 5.25340E-04 1.03367E-02
 -1     11526-4.25673E-02-6.99869E-02-3.77129E-02 2.51120E-02 8.53997E-04 7.51178E-03
 -1     11527-4.19349E-02-6.93403E-02-3.85947E-02 2.64783E-02 3.87931E-04 2.71182E-03
 -1     11528-4.19349E-02-6.93403E-02-3.85947E-02 2.64783E-02-3.87931E-04-2.71182E-03
 -1     11529-4.25673E-02-6.99869E-02-3.77129E-02 2.51120E-02-8.53997E-04-7.51178E-03
 -1     11530-4.36710E-02-7.11151E-02-3.59913E-02 2.16912E-02-5.25340E-04-1.03367E-02
 -1     11531-4.48578E-02-7.24013E-02-3.34886E-02 1.45900E-02 5.92686E-04-9.63796E-03
 -1     11532-4.54283E-02-7.35294E-02-3.04440E-02 5.70745E-04 1.44477E-03-4.50580E-03
 -3
    1PSTEP                         3           1           1          
  100CL  101 1.000000000       11532                     0    1           1
 -4  ERROR       1    1
 -5  STR(%)      1    1    0    0
 -1         1 2.51559E+01
 -1         2 2.08096E+01
 -1         3 3.42718E+01
 -1         4 6.22193E+01
 -1         5 2.51559E+01
 -1         6 2.08096E+01
 -1         7 3.42718E+01
 -1         8 6.22193E+01
 -1         9 2.51559E+01
 -1        10 2.04868E+01
 -1        11 1.89426E+01
 -1        12 1.79165E+01
 -1        13 1.71239E+01
 -1        14 1.64792E+01
 -1        15 1.59582E+01
 -1        16 1.55536E+01
 -1        17 1.52674E+01
 -1        18 1.51115E+01
 -1        19 1.53134E+01
 -1        20 1.58012E+01
 -1        21 1.73213E+01
 -1        22 2.97862E+01
 -1        23 5.85794E+01
 -1        24 7.08106E+01
 -1        25 7.08106E+01
 -1        26 3.82637E+01
 -1        27 2.78982E+01
 -1        28 2.27700E+01
 -1        29 1.97273E+01
 -1        30 1.77416E+01
 -1        31 1.63861E+01
 -1        32 1.54627E+01
 -1        33 1.48842E+01
 -1        34 1.47689E+01
 -1        35 1.54497E+01
 -1        36 1.71461E+01
 -1        37 2.08096E+01
 -1        38 2.08096E+01
 -1        39 5.59375E+00
 -1        40 9.33110E-01
 -1        41 7.15671E-01
 -1        42 8.25079E-01
 -1        43 9.12071E-01
 -1        44 9.91673E-01
 -1        45 1.06029E+00
 -1        46 1.12230E+00
 -1        47 1.18014E+00
 -1        48 1.23584E+00
 -1        49 1.29091E+00
 -1        50 1.34648E+00
 -1        51 1.40330E+00
 -1        52 1.46181E+00
 -1        53 1.52198E+00
 -1        54 1.58318E+00
 -1        55 1.64392E+00
 -1        56 1.70129E+00
 -1        57 1.74994E+00
 -1        58 1.78019E+00
 -1        59 1.93446E+00
 -1        60 3.16166E+00
 -1        61 5.55692E+00
 -1        62 1.56196E+01
 -1        63 3.66072E+01
 -1        64 8.29171E+01
 -1        65 8.29171E+01
 -1        66 6.91785E+01
 -1        67 3.42718E+01
 -1        68 7.28611E+01
 -1        69 7.28611E+01
 -1        70 6.95380E+01
 -1        71 6.95380E+01
 -1        72 5.53436E+01
 -1        73 4.17776E+01
 -1        74 3.06752E+01
 -1        75 2.18118E+01
 -1        76 1.47747E+01
 -1        77 9.19870E+00
 -1        78 4.91729E+00
 -1        79 3.60569E+00
 -1        80 2.55798E+00
 -1        81 2.09326E+00
 -1        82 2.46712E+00
 -1        83 2.78978E+00
 -1        84 3.08185E+00
 -1        85 3.36111E+00
 -1        86 3.64420E+00
 -1        87 3.94822E+00
 -1        88 4.29422E+00
 -1        89 4.71154E+00
 -1        90 5.70202E+00
 -1        91 7.74950E+00
 -1        92 1.14286E+01
 -1        93 1.62043E+01
 -1        94 3.64044E+01
 -1        95 6.22193E+01
 -1        96 7.47071E+01
 -1        97 7.47071E+01
 -1        98 6.52478E+01
 -1        99 4.62942E+01
 -1       100 3.12233E+01
 -1       101 2.06567E+01
 -1       102 1.36481E+01
 -1       103 9.28727E+00
 -1       104 6.64218E+00
 -1       105 4.99714E+00
 -1       106 4.58010E+00
 -1       107 4.30105E+00
 -1       108 4.11745E+00
 -1       109 3.99930E+00
 -1       110 3.92564E+00
 -1       111 3.88492E+00
 -1       112 3.88928E+00
 -1       113 3.90244E+00
 -1       114 3.91812E+00
 -1       115 3.93378E+00
 -1       116 3.94756E+00
 -1       117 3.95871E+00
 -1       118 3.96778E+00
 -1       119 4.00821E+00
 -1       120 4.09812E+00
 -1       121 4.14235E+00
 -1       122 4.32060E+00
 -1       123 6.17602E+00
 -1       124 2.51559E+01
 -1       125 2.51559E+01
 -1       126 2.04868E+01
 -1       127 1.89426E+01
 -1       128 1.79165E+01
 -1       129 1.71239E+01
 -1       130 1.64792E+01
 -1       131 1.59582E+01
 -1       132 1.55536E+01
 -1       133 1.52674E+01
 -1       134 1.51115E+01
 -1       135 1.53134E+01
 -1       136 1.58012E+01
 -1       137 1.73213E+01
 -1       138 2.97862E+01
 -1       139 5.85794E+01
 -1       140 7.08106E+01
 -1       141 7.08106E+01
 -1       142 3.82637E+01
 -1       143 2.78982E+01
 -1       144 2.27700E+01
 -1       145 1.97273E+01
 -1       146 1.77416E+01
 -1       147 1.63861E+01
 -1       148 1.54627E+01
 -1       149 1.48842E+01
 -1       150 1.47689E+01
 -1       151 1.54497E+01
 -1       152 1.71461E+01
 -1       153 2.08096E+01
 -1       154 2.08096E+01
 -1       155 5.59375E+00
 -1       156 9.33110E-01
 -1       157 7.15671E-01
 -1       158 8.25079E-01
 -1       159 9.12071E-01
 -1       160 9.91673E-01
 -1       161 1.06029E+00
 -1       162 1.12230E+00
 -1       163 1.18014E+00
 -1       164 1.23584E+00
 -1       165 1.29091E+00
 -1       166 1.34648E+00
 -1       167 1.40330E+00
 -1       168 1.46181E+00
 -1       169 1.52198E+00
 -1       170 1.58318E+00
 -1       171 1.64392E+00
 -1       172 1.70129E+00
 -1       173 1.74994E+00
 -1       174 1.78019E+00
 -1       175 1.93446E+00
 -1       176 3.16166E+00
 -1       177 5.55692E+00
 -1       178 1.56196E+01
 -1       179 3.66072E+01
 -1       180 8.29171E+01
 -1       181 8.29171E+01
 -1       182 6.91785E+01
 -1       183 3.42718E+01
 -1       184 7.28611E+01
 -1       185 7.28611E+01
 -1       186 6.95380E+01
 -1       187 6.95380E+01
 -1       188 5.53436E+01
 -1       189 4.17776E+01
 -1       190 3.06752E+01
 -1       191 2.18118E+01
 -1       192 1.47747E+01
 -1       193 9.19870E+00
 -1       194 4.91729E+00
 -1       195 3.60569E+00
 -1       196 2.55798E+00
 -1       197 2.09326E+00
 -1       198 2.46712E+00
 -1       199 2.78978E+00
 -1       200 3.08185E+00
 -1       201 3.36111E+00
 -1       202 3.64420E+00
 -1       203 3.94822E+00
 -1       204 4.29422E+00
 -1       205 4.71154E+00
 -1       206 5.70202E+00
 -1       207 7.74950E+00
 -1       208 1.14286E+01
 -1       209 1.62043E+01
 -1       210 3.64044E+01
 -1       211 6.22193E+01
 -1       212 7.47071E+01
 -1       213 7.47071E+01
 -1       214 6.52478E+01
 -1       215 4.62942E+01
 -1       216 3.12233E+01
 -1       217 2.06567E+01
 -1       218 1.36481E+01
 -1       219 9.28727E+00
 -1       220 6.64218E+00
 -1       221 4.99714E+00
 -1       222 4.58010E+00
 -1       223 4.30105E+00
 -1       224 4.11745E+00
 -1       225 3.99930E+00
 -1       226 3.92564E+00
 -1       227 3.88492E+00
 -1       228 3.88928E+00
 -1       229 3.90244E+00
 -1       230 3.91812E+00
 -1       231 3.93378E+00
 -1       232 3.94756E+00
 -1       233 3.95871E+00
 -1       234 3.96778E+00
 -1       235 4.00821E+00
 -1       236 4.09812E+00
 -1       237 4.14235E+00
 -1       238 4.32060E+00
 -1       239 6.17602E+00
 -1       240 2.51559E+01
 -1       241 2.51559E+01
 -1       242 1.91245E+01
 -1       243 1.76288E+01
 -1       244 1.70901E+01
 -1       245 1.68679E+01
 -1       246 1.68679E+01
 -1       247 1.70901E+01
 -1       248 1.76288E+01
 -1       249 1.91245E+01
 -1       250 2.51559E+01
 -1       251 2.08096E+01
 -1       252 2.01739E+01
 -1       253 1.97523E+01
 -1       254 1.94755E+01
 -1       255 1.92868E+01
 -1       256 1.92868E+01
 -1       257 1.94755E+01
 -1       258 1.97523E+01
 -1       259 2.01739E+01
 -1       260 2.08096E+01
 -1       261 3.61222E+01
 -1       262 3.99122E+01
 -1       263 4.12906E+01
 -1       264 4.12906E+01
 -1       265 4.12359E+01
 -1       266 4.12359E+01
 -1       267 4.12906E+01
 -1       268 4.12906E+01
 -1       269 3.99122E+01
 -1       270 3.61222E+01
 -1       271 6.22193E+01
 -1       272 5.57828E+01
 -1       273 5.57828E+01
 -1       274 5.58111E+01
 -1       275 5.58111E+01
 -1       276 5.58111E+01
 -1       277 5.58111E+01
 -1       278 5.57828E+01
 -1       279 5.57828E+01
 -1       280 6.22193E+01
 -1       281 2.51559E+01
 -1       282 8.49211E+00
 -1       283 4.58457E+00
 -1       284 4.14235E+00
 -1       285 4.09812E+00
 -1       286 4.00821E+00
 -1       287 3.96778E+00
 -1       288 3.95871E+00
 -1       289 3.94756E+00
 -1       290 3.93378E+00
 -1       291 3.91812E+00
 -1       292 3.90664E+00
 -1       293 3.95091E+00
 -1       294 4.02604E+00
 -1       295 4.13835E+00
 -1       296 4.29738E+00
 -1       297 4.55117E+00
 -1       298 4.94996E+00
 -1       299 6.39487E+00
 -1       300 8.61356E+00
 -1       301 1.18597E+01
 -1       302 1.65669E+01
 -1       303 2.35839E+01
 -1       304 3.42954E+01
 -1       305 5.10274E+01
 -1       306 6.39262E+01
 -1       307 6.52478E+01
 -1       308 7.47071E+01
 -1       309 7.47071E+01
 -1       310 2.04868E+01
 -1       311 8.49211E+00
 -1       312 4.87729E+00
 -1       313 3.95335E+00
 -1       314 3.75472E+00
 -1       315 3.74387E+00
 -1       316 3.77738E+00
 -1       317 3.80777E+00
 -1       318 3.83247E+00
 -1       319 3.85402E+00
 -1       320 3.89580E+00
 -1       321 3.96404E+00
 -1       322 4.04673E+00
 -1       323 4.15334E+00
 -1       324 4.29537E+00
 -1       325 4.48729E+00
 -1       326 4.74762E+00
 -1       327 5.26940E+00
 -1       328 6.77631E+00
 -1       329 9.42286E+00
 -1       330 1.32412E+01
 -1       331 1.88053E+01
 -1       332 2.68057E+01
 -1       333 3.42954E+01
 -1       334 5.10274E+01
 -1       335 6.39262E+01
 -1       336 6.39262E+01
 -1       337 5.58130E+01
 -1       338 5.28762E+01
 -1       339 1.89426E+01
 -1       340 8.24652E+00
 -1       341 4.87729E+00
 -1       342 3.92924E+00
 -1       343 3.61630E+00
 -1       344 3.56153E+00
 -1       345 3.63073E+00
 -1       346 3.70418E+00
 -1       347 3.79031E+00
 -1       348 3.87567E+00
 -1       349 3.96017E+00
 -1       350 4.05022E+00
 -1       351 4.15373E+00
 -1       352 4.28000E+00
 -1       353 4.44023E+00
 -1       354 4.64827E+00
 -1       355 4.92181E+00
 -1       356 5.76088E+00
 -1       357 7.05085E+00
 -1       358 9.42286E+00
 -1       359 1.32412E+01
 -1       360 1.88053E+01
 -1       361 2.68057E+01
 -1       362 2.98328E+01
 -1       363 2.98328E+01
 -1       364 2.77725E+01
 -1       365 3.84029E+01
 -1       366 3.84029E+01
 -1       367 3.64041E+01
 -1       368 1.79165E+01
 -1       369 8.58452E+00
 -1       370 4.63874E+00
 -1       371 3.89875E+00
 -1       372 3.61010E+00
 -1       373 3.57341E+00
 -1       374 3.65852E+00
 -1       375 3.75775E+00
 -1       376 3.85547E+00
 -1       377 3.94846E+00
 -1       378 4.03911E+00
 -1       379 4.13247E+00
 -1       380 4.23477E+00
 -1       381 4.35277E+00
 -1       382 4.49335E+00
 -1       383 4.66258E+00
 -1       384 4.92181E+00
 -1       385 5.76088E+00
 -1       386 7.05085E+00
 -1       387 8.75523E+00
 -1       388 1.08422E+01
 -1       389 1.21369E+01
 -1       390 1.21369E+01
 -1       391 1.03451E+01
 -1       392 2.03818E+01
 -1       393 2.77725E+01
 -1       394 3.02551E+01
 -1       395 3.02551E+01
 -1       396 2.43597E+01
 -1       397 1.71239E+01
 -1       398 9.05067E+00
 -1       399 4.41627E+00
 -1       400 3.80857E+00
 -1       401 3.63933E+00
 -1       402 3.68230E+00
 -1       403 3.77463E+00
 -1       404 3.87301E+00
 -1       405 3.96545E+00
 -1       406 4.04948E+00
 -1       407 4.12665E+00
 -1       408 4.20008E+00
 -1       409 4.27283E+00
 -1       410 4.35277E+00
 -1       411 4.49335E+00
 -1       412 4.66258E+00
 -1       413 4.86309E+00
 -1       414 5.23258E+00
 -1       415 5.79684E+00
 -1       416 6.07247E+00
 -1       417 6.07247E+00
 -1       418 5.72781E+00
 -1       419 6.66827E+00
 -1       420 1.48746E+01
 -1       421 2.03818E+01
 -1       422 2.42841E+01
 -1       423 2.42841E+01
 -1       424 2.35010E+01
 -1       425 1.69797E+01
 -1       426 1.64792E+01
 -1       427 9.63300E+00
 -1       428 4.22294E+00
 -1       429 3.74400E+00
 -1       430 3.75801E+00
 -1       431 3.84814E+00
 -1       432 3.94292E+00
 -1       433 4.02880E+00
 -1       434 4.09922E+00
 -1       435 4.15412E+00
 -1       436 4.19525E+00
 -1       437 4.22439E+00
 -1       438 4.27283E+00
 -1       439 4.34675E+00
 -1       440 4.42101E+00
 -1       441 4.48997E+00
 -1       442 4.54014E+00
 -1       443 4.54828E+00
 -1       444 4.54828E+00
 -1       445 4.49784E+00
 -1       446 4.41677E+00
 -1       447 4.89463E+00
 -1       448 8.10358E+00
 -1       449 1.48746E+01
 -1       450 1.89678E+01
 -1       451 2.03014E+01
 -1       452 2.03014E+01
 -1       453 1.81798E+01
 -1       454 1.19545E+01
 -1       455 1.59582E+01
 -1       456 1.03776E+01
 -1       457 4.19130E+00
 -1       458 3.87917E+00
 -1       459 3.96490E+00
 -1       460 4.06741E+00
 -1       461 4.14680E+00
 -1       462 4.19939E+00
 -1       463 4.22630E+00
 -1       464 4.23190E+00
 -1       465 4.23190E+00
 -1       466 4.22439E+00
 -1       467 4.24217E+00
 -1       468 4.24740E+00
 -1       469 4.24740E+00
 -1       470 4.23663E+00
 -1       471 4.21076E+00
 -1       472 4.16187E+00
 -1       473 4.09454E+00
 -1       474 4.06597E+00
 -1       475 4.45135E+00
 -1       476 5.63157E+00
 -1       477 9.31560E+00
 -1       478 1.45163E+01
 -1       479 1.66573E+01
 -1       480 1.67553E+01
 -1       481 1.67553E+01
 -1       482 1.41995E+01
 -1       483 8.54691E+00
 -1       484 1.55536E+01
 -1       485 1.13482E+01
 -1       486 4.38249E+00
 -1       487 4.13597E+00
 -1       488 4.23853E+00
 -1       489 4.31666E+00
 -1       490 4.34727E+00
 -1       491 4.34727E+00
 -1       492 4.34117E+00
 -1       493 4.30911E+00
 -1       494 4.26398E+00
 -1       495 4.21981E+00
 -1       496 4.19485E+00
 -1       497 4.15946E+00
 -1       498 4.11297E+00
 -1       499 4.05355E+00
 -1       500 3.98525E+00
 -1       501 3.91855E+00
 -1       502 3.91982E+00
 -1       503 4.18238E+00
 -1       504 4.68939E+00
 -1       505 6.49418E+00
 -1       506 1.01932E+01
 -1       507 1.32367E+01
 -1       508 1.43610E+01
 -1       509 1.43610E+01
 -1       510 1.38470E+01
 -1       511 1.11881E+01
 -1       512 6.28148E+00
 -1       513 1.52674E+01
 -1       514 1.26479E+01
 -1       515 4.65458E+00
 -1       516 4.48676E+00
 -1       517 4.53007E+00
 -1       518 4.53007E+00
 -1       519 4.52506E+00
 -1       520 4.48503E+00
 -1       521 4.42079E+00
 -1       522 4.34437E+00
 -1       523 4.26398E+00
 -1       524 4.21009E+00
 -1       525 4.14581E+00
 -1       526 4.07317E+00
 -1       527 3.99507E+00
 -1       528 3.91675E+00
 -1       529 3.84773E+00
 -1       530 3.85417E+00
 -1       531 4.02815E+00
 -1       532 4.36499E+00
 -1       533 4.93564E+00
 -1       534 7.22445E+00
 -1       535 1.01932E+01
 -1       536 1.17792E+01
 -1       537 1.23235E+01
 -1       538 1.23235E+01
 -1       539 1.14887E+01
 -1       540 8.86070E+00
 -1       541 5.18457E+00
 -1       542 1.51115E+01
 -1       543 1.44460E+01
 -1       544 4.96938E+00
 -1       545 4.82830E+00
 -1       546 4.81240E+00
 -1       547 4.69674E+00
 -1       548 4.61185E+00
 -1       549 4.51223E+00
 -1       550 4.42079E+00
 -1       551 4.34437E+00
 -1       552 4.26199E+00
 -1       553 4.17580E+00
 -1       554 4.08729E+00
 -1       555 3.99886E+00
 -1       556 3.91487E+00
 -1       557 3.84283E+00
 -1       558 3.84474E+00
 -1       559 3.95645E+00
 -1       560 4.18219E+00
 -1       561 4.56748E+00
 -1       562 5.45400E+00
 -1       563 7.83409E+00
 -1       564 9.27251E+00
 -1       565 1.03742E+01
 -1       566 1.05705E+01
 -1       567 1.05705E+01
 -1       568 9.57001E+00
 -1       569 7.01745E+00
 -1       570 4.71731E+00
 -1       571 1.70283E+01
 -1       572 1.70283E+01
 -1       573 6.49051E+00
 -1       574 5.47396E+00
 -1       575 4.81240E+00
 -1       576 4.69674E+00
 -1       577 4.61185E+00
 -1       578 4.51223E+00
 -1       579 4.41379E+00
 -1       580 4.31844E+00
 -1       581 4.22509E+00
 -1       582 4.13301E+00
 -1       583 4.04314E+00
 -1       584 3.96026E+00
 -1       585 3.90550E+00
 -1       586 3.88377E+00
 -1       587 3.95015E+00
 -1       588 4.09900E+00
 -1       589 4.36152E+00
 -1       590 4.77613E+00
 -1       591 6.04190E+00
 -1       592 8.35964E+00
 -1       593 8.35964E+00
 -1       594 9.08762E+00
 -1       595 9.08762E+00
 -1       596 9.07385E+00
 -1       597 7.99185E+00
 -1       598 5.52075E+00
 -1       599 4.41004E+00
 -1       600 2.08021E+01
 -1       601 2.08021E+01
 -1       602 7.92804E+00
 -1       603 5.47396E+00
 -1       604 4.77114E+00
 -1       605 4.59850E+00
 -1       606 4.49352E+00
 -1       607 4.40716E+00
 -1       608 4.33063E+00
 -1       609 4.25620E+00
 -1       610 4.18071E+00
 -1       611 4.10410E+00
 -1       612 4.05068E+00
 -1       613 4.00408E+00
 -1       614 3.97149E+00
 -1       615 3.99919E+00
 -1       616 4.09326E+00
 -1       617 4.27009E+00
 -1       618 4.55741E+00
 -1       619 4.98784E+00
 -1       620 6.60447E+00
 -1       621 8.83960E+00
 -1       622 8.83960E+00
 -1       623 7.92947E+00
 -1       624 7.92947E+00
 -1       625 7.79221E+00
 -1       626 6.67577E+00
 -1       627 4.72886E+00
 -1       628 4.13546E+00
 -1       629 2.41927E+01
 -1       630 2.41927E+01
 -1       631 7.92804E+00
 -1       632 4.53158E+00
 -1       633 4.27243E+00
 -1       634 4.24259E+00
 -1       635 4.23980E+00
 -1       636 4.23399E+00
 -1       637 4.21860E+00
 -1       638 4.19034E+00
 -1       639 4.15025E+00
 -1       640 4.13153E+00
 -1       641 4.10911E+00
 -1       642 4.08779E+00
 -1       643 4.09469E+00
 -1       644 4.15158E+00
 -1       645 4.26772E+00
 -1       646 4.46477E+00
 -1       647 4.76768E+00
 -1       648 5.54806E+00
 -1       649 7.16097E+00
 -1       650 8.83960E+00
 -1       651 8.83960E+00
 -1       652 6.88920E+00
 -1       653 6.88920E+00
 -1       654 6.68582E+00
 -1       655 5.56184E+00
 -1       656 4.33083E+00
 -1       657 3.88331E+00
 -1       658 2.97862E+01
 -1       659 2.41927E+01
 -1       660 3.78978E+00
 -1       661 3.64447E+00
 -1       662 3.83265E+00
 -1       663 3.96896E+00
 -1       664 4.06073E+00
 -1       665 4.11697E+00
 -1       666 4.14314E+00
 -1       667 4.17176E+00
 -1       668 4.19436E+00
 -1       669 4.20326E+00
 -1       670 4.20910E+00
 -1       671 4.22394E+00
 -1       672 4.26163E+00
 -1       673 4.33810E+00
 -1       674 4.47155E+00
 -1       675 4.68255E+00
 -1       676 4.99402E+00
 -1       677 6.15433E+00
 -1       678 7.73204E+00
 -1       679 7.73204E+00
 -1       680 5.52301E+00
 -1       681 5.95022E+00
 -1       682 5.95022E+00
 -1       683 5.72078E+00
 -1       684 4.85281E+00
 -1       685 4.02847E+00
 -1       686 3.64502E+00
 -1       687 5.85794E+01
 -1       688 1.94160E+01
 -1       689 4.75799E+00
 -1       690 3.12729E+00
 -1       691 3.49475E+00
 -1       692 3.74835E+00
 -1       693 3.92527E+00
 -1       694 4.04696E+00
 -1       695 4.14238E+00
 -1       696 4.23019E+00
 -1       697 4.29017E+00
 -1       698 4.33212E+00
 -1       699 4.36680E+00
 -1       700 4.40645E+00
 -1       701 4.46518E+00
 -1       702 4.55905E+00
 -1       703 4.70605E+00
 -1       704 4.92607E+00
 -1       705 5.64475E+00
 -1       706 6.80239E+00
 -1       707 8.33860E+00
 -1       708 8.33860E+00
 -1       709 4.88555E+00
 -1       710 5.09555E+00
 -1       711 5.09555E+00
 -1       712 4.95143E+00
 -1       713 4.54273E+00
 -1       714 3.86704E+00
 -1       715 3.41392E+00
 -1       716 7.08106E+01
 -1       717 2.07688E+01
 -1       718 7.23347E+00
 -1       719 3.29807E+00
 -1       720 3.25776E+00
 -1       721 3.59826E+00
 -1       722 3.84111E+00
 -1       723 4.02810E+00
 -1       724 4.19411E+00
 -1       725 4.32124E+00
 -1       726 4.41885E+00
 -1       727 4.49559E+00
 -1       728 4.56117E+00
 -1       729 4.62715E+00
 -1       730 4.70727E+00
 -1       731 4.81740E+00
 -1       732 4.97534E+00
 -1       733 5.53739E+00
 -1       734 6.37726E+00
 -1       735 7.51216E+00
 -1       736 8.33860E+00
 -1       737 8.33860E+00
 -1       738 4.59112E+00
 -1       739 4.74259E+00
 -1       740 4.74259E+00
 -1       741 4.66847E+00
 -1       742 4.27111E+00
 -1       743 3.72434E+00
 -1       744 3.18542E+00
 -1       745 7.08106E+01
 -1       746 2.69068E+01
 -1       747 2.00811E+01
 -1       748 1.59438E+01
 -1       749 1.29696E+01
 -1       750 3.51922E+00
 -1       751 3.83096E+00
 -1       752 4.08071E+00
 -1       753 4.28123E+00
 -1       754 4.44551E+00
 -1       755 4.58125E+00
 -1       756 4.69494E+00
 -1       757 4.79423E+00
 -1       758 4.88909E+00
 -1       759 4.99218E+00
 -1       760 5.31807E+00
 -1       761 5.76691E+00
 -1       762 6.37728E+00
 -1       763 7.20486E+00
 -1       764 7.51216E+00
 -1       765 7.51216E+00
 -1       766 3.99527E+00
 -1       767 4.31011E+00
 -1       768 4.47094E+00
 -1       769 4.47094E+00
 -1       770 4.41427E+00
 -1       771 4.03241E+00
 -1       772 3.60077E+00
 -1       773 3.60569E+00
 -1       774 3.82637E+01
 -1       775 2.69068E+01
 -1       776 2.00811E+01
 -1       777 1.59438E+01
 -1       778 1.29696E+01
 -1       779 5.47607E+00
 -1       780 4.65077E+00
 -1       781 4.22126E+00
 -1       782 4.28123E+00
 -1       783 4.44551E+00
 -1       784 4.77975E+00
 -1       785 4.93329E+00
 -1       786 5.18769E+00
 -1       787 5.52947E+00
 -1       788 5.87548E+00
 -1       789 6.26329E+00
 -1       790 6.26329E+00
 -1       791 6.37728E+00
 -1       792 7.20486E+00
 -1       793 7.20486E+00
 -1       794 3.29635E+00
 -1       795 3.72150E+00
 -1       796 4.04141E+00
 -1       797 4.21773E+00
 -1       798 4.21773E+00
 -1       799 4.18483E+00
 -1       800 3.82346E+00
 -1       801 3.49806E+00
 -1       802 4.91729E+00
 -1       803 2.78982E+01
 -1       804 1.74845E+01
 -1       805 1.25039E+01
 -1       806 9.41290E+00
 -1       807 7.28074E+00
 -1       808 5.47607E+00
 -1       809 4.65077E+00
 -1       810 4.22126E+00
 -1       811 3.84787E+00
 -1       812 3.49243E+00
 -1       813 4.77975E+00
 -1       814 4.93329E+00
 -1       815 5.18769E+00
 -1       816 5.52947E+00
 -1       817 5.87548E+00
 -1       818 6.26329E+00
 -1       819 6.26329E+00
 -1       820 2.17782E+00
 -1       821 2.24324E+00
 -1       822 2.53414E+00
 -1       823 3.03077E+00
 -1       824 3.45554E+00
 -1       825 3.78509E+00
 -1       826 3.98167E+00
 -1       827 3.98167E+00
 -1       828 3.97813E+00
 -1       829 3.64330E+00
 -1       830 3.41924E+00
 -1       831 9.19870E+00
 -1       832 2.27700E+01
 -1       833 1.23728E+01
 -1       834 8.19443E+00
 -1       835 5.47927E+00
 -1       836 4.52775E+00
 -1       837 3.97411E+00
 -1       838 3.56450E+00
 -1       839 3.24908E+00
 -1       840 2.98873E+00
 -1       841 2.74763E+00
 -1       842 2.58683E+00
 -1       843 2.48508E+00
 -1       844 2.37732E+00
 -1       845 2.27136E+00
 -1       846 2.17585E+00
 -1       847 2.09967E+00
 -1       848 2.05136E+00
 -1       849 2.06729E+00
 -1       850 2.14204E+00
 -1       851 2.28516E+00
 -1       852 2.77121E+00
 -1       853 3.19963E+00
 -1       854 3.54276E+00
 -1       855 3.76362E+00
 -1       856 3.79453E+00
 -1       857 3.79453E+00
 -1       858 3.53768E+00
 -1       859 3.36851E+00
 -1       860 1.47747E+01
 -1       861 1.97273E+01
 -1       862 9.19861E+00
 -1       863 5.44051E+00
 -1       864 4.18988E+00
 -1       865 3.61364E+00
 -1       866 3.13481E+00
 -1       867 2.80603E+00
 -1       868 2.56968E+00
 -1       869 2.40364E+00
 -1       870 2.34422E+00
 -1       871 2.28995E+00
 -1       872 2.22539E+00
 -1       873 2.15443E+00
 -1       874 2.08250E+00
 -1       875 2.01638E+00
 -1       876 1.96386E+00
 -1       877 1.93316E+00
 -1       878 1.96820E+00
 -1       879 2.04645E+00
 -1       880 2.17046E+00
 -1       881 2.52067E+00
 -1       882 2.95689E+00
 -1       883 3.31788E+00
 -1       884 3.56723E+00
 -1       885 3.63772E+00
 -1       886 3.63772E+00
 -1       887 3.50883E+00
 -1       888 3.37342E+00
 -1       889 2.18118E+01
 -1       890 1.77416E+01
 -1       891 7.06833E+00
 -1       892 4.45103E+00
 -1       893 3.46297E+00
 -1       894 2.93063E+00
 -1       895 2.51025E+00
 -1       896 2.24806E+00
 -1       897 2.11635E+00
 -1       898 2.10532E+00
 -1       899 2.08572E+00
 -1       900 2.05729E+00
 -1       901 2.02070E+00
 -1       902 1.97786E+00
 -1       903 1.93227E+00
 -1       904 1.88900E+00
 -1       905 1.85454E+00
 -1       906 1.84267E+00
 -1       907 1.88104E+00
 -1       908 1.95823E+00
 -1       909 2.07920E+00
 -1       910 2.28231E+00
 -1       911 2.73132E+00
 -1       912 3.11600E+00
 -1       913 3.39971E+00
 -1       914 3.51617E+00
 -1       915 3.51617E+00
 -1       916 3.49595E+00
 -1       917 3.44186E+00
 -1       918 3.06752E+01
 -1       919 1.63861E+01
 -1       920 5.57074E+00
 -1       921 3.91807E+00
 -1       922 2.88440E+00
 -1       923 2.38593E+00
 -1       924 2.02312E+00
 -1       925 1.87858E+00
 -1       926 1.87996E+00
 -1       927 1.87996E+00
 -1       928 1.87759E+00
 -1       929 1.86943E+00
 -1       930 1.85485E+00
 -1       931 1.83445E+00
 -1       932 1.81027E+00
 -1       933 1.78588E+00
 -1       934 1.76634E+00
 -1       935 1.76892E+00
 -1       936 1.80674E+00
 -1       937 1.87946E+00
 -1       938 1.99378E+00
 -1       939 2.15455E+00
 -1       940 2.52762E+00
 -1       941 2.94484E+00
 -1       942 3.27276E+00
 -1       943 3.45143E+00
 -1       944 3.51021E+00
 -1       945 3.56311E+00
 -1       946 3.56311E+00
 -1       947 4.17776E+01
 -1       948 1.54627E+01
 -1       949 4.80806E+00
 -1       950 3.48480E+00
 -1       951 2.38554E+00
 -1       952 1.92787E+00
 -1       953 1.67440E+00
 -1       954 1.68084E+00
 -1       955 1.69386E+00
 -1       956 1.70602E+00
 -1       957 1.71435E+00
 -1       958 1.71755E+00
 -1       959 1.71755E+00
 -1       960 1.71551E+00
 -1       961 1.70932E+00
 -1       962 1.70127E+00
 -1       963 1.69582E+00
 -1       964 1.71025E+00
 -1       965 1.74624E+00
 -1       966 1.81237E+00
 -1       967 1.91707E+00
 -1       968 2.06770E+00
 -1       969 2.35084E+00
 -1       970 2.81407E+00
 -1       971 3.21491E+00
 -1       972 3.57484E+00
 -1       973 3.65496E+00
 -1       974 3.76388E+00
 -1       975 3.76388E+00
 -1       976 5.53436E+01
 -1       977 1.48842E+01
 -1       978 4.50381E+00
 -1       979 3.09039E+00
 -1       980 1.91996E+00
 -1       981 1.52925E+00
 -1       982 1.49479E+00
 -1       983 1.51295E+00
 -1       984 1.53746E+00
 -1       985 1.56228E+00
 -1       986 1.58421E+00
 -1       987 1.60195E+00
 -1       988 1.61511E+00
 -1       989 1.62425E+00
 -1       990 1.63075E+00
 -1       991 1.63706E+00
 -1       992 1.64691E+00
 -1       993 1.66558E+00
 -1       994 1.70006E+00
 -1       995 1.75893E+00
 -1       996 1.85189E+00
 -1       997 1.98895E+00
 -1       998 2.20582E+00
 -1       999 2.73477E+00
 -1      1000 3.33664E+00
 -1      1001 3.87736E+00
 -1      1002 4.18013E+00
 -1      1003 4.18013E+00
 -1      1004 4.04815E+00
 -1      1005 6.95380E+01
 -1      1006 1.47689E+01
 -1      1007 4.25121E+00
 -1      1008 2.67536E+00
 -1      1009 1.45611E+00
 -1      1010 1.34993E+00
 -1      1011 1.33778E+00
 -1      1012 1.36881E+00
 -1      1013 1.40473E+00
 -1      1014 1.44058E+00
 -1      1015 1.47376E+00
 -1      1016 1.50334E+00
 -1      1017 1.52908E+00
 -1      1018 1.55130E+00
 -1      1019 1.57085E+00
 -1      1020 1.58920E+00
 -1      1021 1.60874E+00
 -1      1022 1.63317E+00
 -1      1023 1.66788E+00
 -1      1024 1.72046E+00
 -1      1025 1.80078E+00
 -1      1026 1.92091E+00
 -1      1027 2.10133E+00
 -1      1028 2.77189E+00
 -1      1029 3.60302E+00
 -1      1030 4.45144E+00
 -1      1031 5.44654E+00
 -1      1032 6.10538E+00
 -1      1033 6.10538E+00
 -1      1034 6.95380E+01
 -1      1035 1.54497E+01
 -1      1036 3.97884E+00
 -1      1037 2.16316E+00
 -1      1038 1.29176E+00
 -1      1039 1.17605E+00
 -1      1040 1.19979E+00
 -1      1041 1.24476E+00
 -1      1042 1.29147E+00
 -1      1043 1.33677E+00
 -1      1044 1.37908E+00
 -1      1045 1.41818E+00
 -1      1046 1.45419E+00
 -1      1047 1.48748E+00
 -1      1048 1.51863E+00
 -1      1049 1.54848E+00
 -1      1050 1.57833E+00
 -1      1051 1.61034E+00
 -1      1052 1.64796E+00
 -1      1053 1.69672E+00
 -1      1054 1.76505E+00
 -1      1055 1.86526E+00
 -1      1056 2.02955E+00
 -1      1057 2.89344E+00
 -1      1058 4.04178E+00
 -1      1059 6.14739E+00
 -1      1060 1.02795E+01
 -1      1061 1.43603E+01
 -1      1062 1.53694E+01
 -1      1063 7.28611E+01
 -1      1064 1.71461E+01
 -1      1065 3.72596E+00
 -1      1066 1.45254E+00
 -1      1067 1.07263E+00
 -1      1068 1.03197E+00
 -1      1069 1.08049E+00
 -1      1070 1.13932E+00
 -1      1071 1.19572E+00
 -1      1072 1.24868E+00
 -1      1073 1.29815E+00
 -1      1074 1.34469E+00
 -1      1075 1.38889E+00
 -1      1076 1.43136E+00
 -1      1077 1.47260E+00
 -1      1078 1.51313E+00
 -1      1079 1.55352E+00
 -1      1080 1.59466E+00
 -1      1081 1.63804E+00
 -1      1082 1.68646E+00
 -1      1083 1.74506E+00
 -1      1084 1.82311E+00
 -1      1085 1.98479E+00
 -1      1086 3.06453E+00
 -1      1087 4.65431E+00
 -1      1088 1.03241E+01
 -1      1089 1.94025E+01
 -1      1090 3.28912E+01
 -1      1091 4.97349E+01
 -1      1092 7.28611E+01
 -1      1093 2.08096E+01
 -1      1094 5.59375E+00
 -1      1095 9.33110E-01
 -1      1096 8.54374E-01
 -1      1097 9.02751E-01
 -1      1098 9.73254E-01
 -1      1099 1.04530E+00
 -1      1100 1.10963E+00
 -1      1101 1.16860E+00
 -1      1102 1.22349E+00
 -1      1103 1.27570E+00
 -1      1104 1.32633E+00
 -1      1105 1.37624E+00
 -1      1106 1.42604E+00
 -1      1107 1.47611E+00
 -1      1108 1.52659E+00
 -1      1109 1.58318E+00
 -1      1110 1.64392E+00
 -1      1111 1.70129E+00
 -1      1112 1.74994E+00
 -1      1113 1.78321E+00
 -1      1114 1.97466E+00
 -1      1115 3.16166E+00
 -1      1116 5.55692E+00
 -1      1117 1.56196E+01
 -1      1118 3.66072E+01
 -1      1119 8.29171E+01
 -1      1120 8.29171E+01
 -1      1121 6.91785E+01
 -1      1122 2.51559E+01
 -1      1123 1.91245E+01
 -1      1124 1.76288E+01
 -1      1125 1.70901E+01
 -1      1126 1.68679E+01
 -1      1127 1.68679E+01
 -1      1128 1.70901E+01
 -1      1129 1.76288E+01
 -1      1130 1.91245E+01
 -1      1131 2.51559E+01
 -1      1132 2.04868E+01
 -1      1133 1.25188E+01
 -1      1134 9.62918E+00
 -1      1135 8.20456E+00
 -1      1136 7.45218E+00
 -1      1137 7.45218E+00
 -1      1138 8.20456E+00
 -1      1139 9.62918E+00
 -1      1140 1.25188E+01
 -1      1141 2.04868E+01
 -1      1142 1.89426E+01
 -1      1143 1.09407E+01
 -1      1144 7.81588E+00
 -1      1145 6.19727E+00
 -1      1146 5.30611E+00
 -1      1147 5.30611E+00
 -1      1148 6.19727E+00
 -1      1149 7.81588E+00
 -1      1150 1.09407E+01
 -1      1151 1.89426E+01
 -1      1152 1.79165E+01
 -1      1153 9.99993E+00
 -1      1154 6.74852E+00
 -1      1155 5.02837E+00
 -1      1156 4.64977E+00
 -1      1157 4.64977E+00
 -1      1158 5.02837E+00
 -1      1159 6.74852E+00
 -1      1160 9.99993E+00
 -1      1161 1.79165E+01
 -1      1162 1.71239E+01
 -1      1163 9.50039E+00
 -1      1164 6.20617E+00
 -1      1165 4.79029E+00
 -1      1166 4.41465E+00
 -1      1167 4.41465E+00
 -1      1168 4.79029E+00
 -1      1169 6.20617E+00
 -1      1170 9.50039E+00
 -1      1171 1.71239E+01
 -1      1172 1.64792E+01
 -1      1173 9.19355E+00
 -1      1174 5.91039E+00
 -1      1175 4.67110E+00
 -1      1176 4.28574E+00
 -1      1177 4.28574E+00
 -1      1178 4.67110E+00
 -1      1179 5.91039E+00
 -1      1180 9.19355E+00
 -1      1181 1.64792E+01
 -1      1182 1.59582E+01
 -1      1183 9.02569E+00
 -1      1184 5.77970E+00
 -1      1185 4.61970E+00
 -1      1186 4.22776E+00
 -1      1187 4.22776E+00
 -1      1188 4.61970E+00
 -1      1189 5.77970E+00
 -1      1190 9.02569E+00
 -1      1191 1.59582E+01
 -1      1192 1.55536E+01
 -1      1193 9.01637E+00
 -1      1194 5.88520E+00
 -1      1195 4.66249E+00
 -1      1196 4.26238E+00
 -1      1197 4.26238E+00
 -1      1198 4.66249E+00
 -1      1199 5.88520E+00
 -1      1200 9.01637E+00
 -1      1201 1.55536E+01
 -1      1202 1.52674E+01
 -1      1203 9.18011E+00
 -1      1204 6.11619E+00
 -1      1205 4.75274E+00
 -1      1206 4.34968E+00
 -1      1207 4.34968E+00
 -1      1208 4.75274E+00
 -1      1209 6.11619E+00
 -1      1210 9.18011E+00
 -1      1211 1.52674E+01
 -1      1212 1.51115E+01
 -1      1213 9.48783E+00
 -1      1214 6.49595E+00
 -1      1215 4.89954E+00
 -1      1216 4.49366E+00
 -1      1217 4.49366E+00
 -1      1218 4.89954E+00
 -1      1219 6.49595E+00
 -1      1220 9.48783E+00
 -1      1221 1.51115E+01
 -1      1222 1.53134E+01
 -1      1223 9.99626E+00
 -1      1224 7.08482E+00
 -1      1225 5.33755E+00
 -1      1226 4.71731E+00
 -1      1227 4.71731E+00
 -1      1228 5.33755E+00
 -1      1229 7.08482E+00
 -1      1230 9.99626E+00
 -1      1231 1.53134E+01
 -1      1232 1.58012E+01
 -1      1233 1.08128E+01
 -1      1234 8.46548E+00
 -1      1235 8.00496E+00
 -1      1236 7.92791E+00
 -1      1237 7.92791E+00
 -1      1238 8.00496E+00
 -1      1239 8.46548E+00
 -1      1240 1.08128E+01
 -1      1241 1.58012E+01
 -1      1242 1.73213E+01
 -1      1243 1.52680E+01
 -1      1244 1.54252E+01
 -1      1245 1.54252E+01
 -1      1246 1.53496E+01
 -1      1247 1.53496E+01
 -1      1248 1.54252E+01
 -1      1249 1.54252E+01
 -1      1250 1.52680E+01
 -1      1251 1.73213E+01
 -1      1252 2.97862E+01
 -1      1253 2.96806E+01
 -1      1254 2.96806E+01
 -1      1255 2.96624E+01
 -1      1256 2.94208E+01
 -1      1257 2.94208E+01
 -1      1258 2.96624E+01
 -1      1259 2.96806E+01
 -1      1260 2.96806E+01
 -1      1261 2.97862E+01
 -1      1262 5.85794E+01
 -1      1263 5.46182E+01
 -1      1264 5.06297E+01
 -1      1265 4.75443E+01
 -1      1266 4.55338E+01
 -1      1267 4.55338E+01
 -1      1268 4.75443E+01
 -1      1269 5.06297E+01
 -1      1270 5.46182E+01
 -1      1271 5.85794E+01
 -1      1272 7.08273E+01
 -1      1273 7.08273E+01
 -1      1274 6.98024E+01
 -1      1275 6.88611E+01
 -1      1276 6.82239E+01
 -1      1277 6.82239E+01
 -1      1278 6.88611E+01
 -1      1279 6.98024E+01
 -1      1280 7.08273E+01
 -1      1281 7.08273E+01
 -1      1282 7.08273E+01
 -1      1283 7.08273E+01
 -1      1284 6.98024E+01
 -1      1285 6.88611E+01
 -1      1286 6.82239E+01
 -1      1287 6.82239E+01
 -1      1288 6.88611E+01
 -1      1289 6.98024E+01
 -1      1290 7.08273E+01
 -1      1291 7.08273E+01
 -1      1292 3.82637E+01
 -1      1293 3.69516E+01
 -1      1294 3.62677E+01
 -1      1295 3.58394E+01
 -1      1296 3.55245E+01
 -1      1297 3.55245E+01
 -1      1298 3.58394E+01
 -1      1299 3.62677E+01
 -1      1300 3.69516E+01
 -1      1301 3.82637E+01
 -1      1302 2.78982E+01
 -1      1303 2.60302E+01
 -1      1304 2.49650E+01
 -1      1305 2.43453E+01
 -1      1306 2.40074E+01
 -1      1307 2.40074E+01
 -1      1308 2.43453E+01
 -1      1309 2.49650E+01
 -1      1310 2.60302E+01
 -1      1311 2.78982E+01
 -1      1312 2.27700E+01
 -1      1313 2.06652E+01
 -1      1314 1.94494E+01
 -1      1315 1.87333E+01
 -1      1316 1.83261E+01
 -1      1317 1.83261E+01
 -1      1318 1.87333E+01
 -1      1319 1.94494E+01
 -1      1320 2.06652E+01
 -1      1321 2.27700E+01
 -1      1322 1.97273E+01
 -1      1323 1.75348E+01
 -1      1324 1.62433E+01
 -1      1325 1.54709E+01
 -1      1326 1.50205E+01
 -1      1327 1.50205E+01
 -1      1328 1.54709E+01
 -1      1329 1.62433E+01
 -1      1330 1.75348E+01
 -1      1331 1.97273E+01
 -1      1332 1.77416E+01
 -1      1333 1.55406E+01
 -1      1334 1.42200E+01
 -1      1335 1.34190E+01
 -1      1336 1.29440E+01
 -1      1337 1.29440E+01
 -1      1338 1.34190E+01
 -1      1339 1.42200E+01
 -1      1340 1.55406E+01
 -1      1341 1.77416E+01
 -1      1342 1.63861E+01
 -1      1343 1.42240E+01
 -1      1344 1.29051E+01
 -1      1345 1.20955E+01
 -1      1346 1.16092E+01
 -1      1347 1.16092E+01
 -1      1348 1.20955E+01
 -1      1349 1.29051E+01
 -1      1350 1.42240E+01
 -1      1351 1.63861E+01
 -1      1352 1.54627E+01
 -1      1353 1.33724E+01
 -1      1354 1.20786E+01
 -1      1355 1.12760E+01
 -1      1356 1.07890E+01
 -1      1357 1.07890E+01
 -1      1358 1.12760E+01
 -1      1359 1.20786E+01
 -1      1360 1.33724E+01
 -1      1361 1.54627E+01
 -1      1362 1.48842E+01
 -1      1363 1.28931E+01
 -1      1364 1.16454E+01
 -1      1365 1.08644E+01
 -1      1366 1.03943E+01
 -1      1367 1.03943E+01
 -1      1368 1.08644E+01
 -1      1369 1.16454E+01
 -1      1370 1.28931E+01
 -1      1371 1.48842E+01
 -1      1372 1.47689E+01
 -1      1373 1.30764E+01
 -1      1374 1.20013E+01
 -1      1375 1.13187E+01
 -1      1376 1.08931E+01
 -1      1377 1.08931E+01
 -1      1378 1.13187E+01
 -1      1379 1.20013E+01
 -1      1380 1.30764E+01
 -1      1381 1.47689E+01
 -1      1382 1.54497E+01
 -1      1383 1.40068E+01
 -1      1384 1.30718E+01
 -1      1385 1.24726E+01
 -1      1386 1.20931E+01
 -1      1387 1.20931E+01
 -1      1388 1.24726E+01
 -1      1389 1.30718E+01
 -1      1390 1.40068E+01
 -1      1391 1.54497E+01
 -1      1392 1.71461E+01
 -1      1393 1.60002E+01
 -1      1394 1.52584E+01
 -1      1395 1.47758E+01
 -1      1396 1.44630E+01
 -1      1397 1.44630E+01
 -1      1398 1.47758E+01
 -1      1399 1.52584E+01
 -1      1400 1.60002E+01
 -1      1401 1.71461E+01
 -1      1402 2.08096E+01
 -1      1403 2.01739E+01
 -1      1404 1.97523E+01
 -1      1405 1.94755E+01
 -1      1406 1.92868E+01
 -1      1407 1.92868E+01
 -1      1408 1.94755E+01
 -1      1409 1.97523E+01
 -1      1410 2.01739E+01
 -1      1411 2.08096E+01
 -1      1412 2.08096E+01
 -1      1413 2.01739E+01
 -1      1414 1.97523E+01
 -1      1415 1.94755E+01
 -1      1416 1.92868E+01
 -1      1417 1.92868E+01
 -1      1418 1.94755E+01
 -1      1419 1.97523E+01
 -1      1420 2.01739E+01
 -1      1421 2.08096E+01
 -1      1422 5.59375E+00
 -1      1423 3.67026E+00
 -1      1424 3.01728E+00
 -1      1425 2.74672E+00
 -1      1426 2.63213E+00
 -1      1427 2.63213E+00
 -1      1428 2.74672E+00
 -1      1429 3.01728E+00
 -1      1430 3.67026E+00
 -1      1431 5.59375E+00
 -1      1432 9.33110E-01
 -1      1433 6.85713E-01
 -1      1434 6.85713E-01
 -1      1435 6.76403E-01
 -1      1436 6.44030E-01
 -1      1437 6.44030E-01
 -1      1438 6.76403E-01
 -1      1439 6.85713E-01
 -1      1440 6.85713E-01
 -1      1441 9.33110E-01
 -1      1442 7.15671E-01
 -1      1443 7.11649E-01
 -1      1444 7.02541E-01
 -1      1445 6.85905E-01
 -1      1446 6.69948E-01
 -1      1447 6.69948E-01
 -1      1448 6.85905E-01
 -1      1449 7.02541E-01
 -1      1450 7.11649E-01
 -1      1451 7.15671E-01
 -1      1452 8.25079E-01
 -1      1453 8.20963E-01
 -1      1454 8.11584E-01
 -1      1455 8.03145E-01
 -1      1456 7.95038E-01
 -1      1457 7.95038E-01
 -1      1458 8.03145E-01
 -1      1459 8.11584E-01
 -1      1460 8.20963E-01
 -1      1461 8.25079E-01
 -1      1462 9.12071E-01
 -1      1463 9.09530E-01
 -1      1464 9.03437E-01
 -1      1465 8.97535E-01
 -1      1466 8.93073E-01
 -1      1467 8.93073E-01
 -1      1468 8.97535E-01
 -1      1469 9.03437E-01
 -1      1470 9.09530E-01
 -1      1471 9.12071E-01
 -1      1472 9.91673E-01
 -1      1473 9.88899E-01
 -1      1474 9.83715E-01
 -1      1475 9.79161E-01
 -1      1476 9.75478E-01
 -1      1477 9.75478E-01
 -1      1478 9.79161E-01
 -1      1479 9.83715E-01
 -1      1480 9.88899E-01
 -1      1481 9.91673E-01
 -1      1482 1.06029E+00
 -1      1483 1.05765E+00
 -1      1484 1.05280E+00
 -1      1485 1.04858E+00
 -1      1486 1.04531E+00
 -1      1487 1.04531E+00
 -1      1488 1.04858E+00
 -1      1489 1.05280E+00
 -1      1490 1.05765E+00
 -1      1491 1.06029E+00
 -1      1492 1.12230E+00
 -1      1493 1.11973E+00
 -1      1494 1.11514E+00
 -1      1495 1.11119E+00
 -1      1496 1.10813E+00
 -1      1497 1.10813E+00
 -1      1498 1.11119E+00
 -1      1499 1.11514E+00
 -1      1500 1.11973E+00
 -1      1501 1.12230E+00
 -1      1502 1.18014E+00
 -1      1503 1.17764E+00
 -1      1504 1.17326E+00
 -1      1505 1.16950E+00
 -1      1506 1.16661E+00
 -1      1507 1.16661E+00
 -1      1508 1.16950E+00
 -1      1509 1.17326E+00
 -1      1510 1.17764E+00
 -1      1511 1.18014E+00
 -1      1512 1.23584E+00
 -1      1513 1.23344E+00
 -1      1514 1.22922E+00
 -1      1515 1.22563E+00
 -1      1516 1.22287E+00
 -1      1517 1.22287E+00
 -1      1518 1.22563E+00
 -1      1519 1.22922E+00
 -1      1520 1.23344E+00
 -1      1521 1.23584E+00
 -1      1522 1.29091E+00
 -1      1523 1.28863E+00
 -1      1524 1.28456E+00
 -1      1525 1.28109E+00
 -1      1526 1.27844E+00
 -1      1527 1.27844E+00
 -1      1528 1.28109E+00
 -1      1529 1.28456E+00
 -1      1530 1.28863E+00
 -1      1531 1.29091E+00
 -1      1532 1.34648E+00
 -1      1533 1.34433E+00
 -1      1534 1.34039E+00
 -1      1535 1.33704E+00
 -1      1536 1.33448E+00
 -1      1537 1.33448E+00
 -1      1538 1.33704E+00
 -1      1539 1.34039E+00
 -1      1540 1.34433E+00
 -1      1541 1.34648E+00
 -1      1542 1.40330E+00
 -1      1543 1.40131E+00
 -1      1544 1.39749E+00
 -1      1545 1.39423E+00
 -1      1546 1.39174E+00
 -1      1547 1.39174E+00
 -1      1548 1.39423E+00
 -1      1549 1.39749E+00
 -1      1550 1.40131E+00
 -1      1551 1.40330E+00
 -1      1552 1.46181E+00
 -1      1553 1.45998E+00
 -1      1554 1.45625E+00
 -1      1555 1.45305E+00
 -1      1556 1.45061E+00
 -1      1557 1.45061E+00
 -1      1558 1.45305E+00
 -1      1559 1.45625E+00
 -1      1560 1.45998E+00
 -1      1561 1.46181E+00
 -1      1562 1.52198E+00
 -1      1563 1.52027E+00
 -1      1564 1.51658E+00
 -1      1565 1.51339E+00
 -1      1566 1.51095E+00
 -1      1567 1.51095E+00
 -1      1568 1.51339E+00
 -1      1569 1.51658E+00
 -1      1570 1.52027E+00
 -1      1571 1.52198E+00
 -1      1572 1.58318E+00
 -1      1573 1.58153E+00
 -1      1574 1.57776E+00
 -1      1575 1.57450E+00
 -1      1576 1.57198E+00
 -1      1577 1.57198E+00
 -1      1578 1.57450E+00
 -1      1579 1.57776E+00
 -1      1580 1.58153E+00
 -1      1581 1.58318E+00
 -1      1582 1.64392E+00
 -1      1583 1.64215E+00
 -1      1584 1.63813E+00
 -1      1585 1.63463E+00
 -1      1586 1.63191E+00
 -1      1587 1.63191E+00
 -1      1588 1.63463E+00
 -1      1589 1.63813E+00
 -1      1590 1.64215E+00
 -1      1591 1.64392E+00
 -1      1592 1.70129E+00
 -1      1593 1.69904E+00
 -1      1594 1.69445E+00
 -1      1595 1.69044E+00
 -1      1596 1.68729E+00
 -1      1597 1.68729E+00
 -1      1598 1.69044E+00
 -1      1599 1.69445E+00
 -1      1600 1.69904E+00
 -1      1601 1.70129E+00
 -1      1602 1.74994E+00
 -1      1603 1.74654E+00
 -1      1604 1.74079E+00
 -1      1605 1.73580E+00
 -1      1606 1.73186E+00
 -1      1607 1.73186E+00
 -1      1608 1.73580E+00
 -1      1609 1.74079E+00
 -1      1610 1.74654E+00
 -1      1611 1.74994E+00
 -1      1612 1.78019E+00
 -1      1613 1.77430E+00
 -1      1614 1.76629E+00
 -1      1615 1.75947E+00
 -1      1616 1.75407E+00
 -1      1617 1.75407E+00
 -1      1618 1.75947E+00
 -1      1619 1.76629E+00
 -1      1620 1.77430E+00
 -1      1621 1.78019E+00
 -1      1622 1.94176E+00
 -1      1623 1.94640E+00
 -1      1624 1.94773E+00
 -1      1625 1.94773E+00
 -1      1626 1.94618E+00
 -1      1627 1.94618E+00
 -1      1628 1.94773E+00
 -1      1629 1.94773E+00
 -1      1630 1.94640E+00
 -1      1631 1.94176E+00
 -1      1632 3.17057E+00
 -1      1633 3.17662E+00
 -1      1634 3.17826E+00
 -1      1635 3.17826E+00
 -1      1636 3.17577E+00
 -1      1637 3.17577E+00
 -1      1638 3.17826E+00
 -1      1639 3.17826E+00
 -1      1640 3.17662E+00
 -1      1641 3.17057E+00
 -1      1642 5.60378E+00
 -1      1643 5.63664E+00
 -1      1644 5.64939E+00
 -1      1645 5.64939E+00
 -1      1646 5.64260E+00
 -1      1647 5.64260E+00
 -1      1648 5.64939E+00
 -1      1649 5.64939E+00
 -1      1650 5.63664E+00
 -1      1651 5.60378E+00
 -1      1652 1.57837E+01
 -1      1653 1.58965E+01
 -1      1654 1.59564E+01
 -1      1655 1.59688E+01
 -1      1656 1.59688E+01
 -1      1657 1.59688E+01
 -1      1658 1.59688E+01
 -1      1659 1.59564E+01
 -1      1660 1.58965E+01
 -1      1661 1.57837E+01
 -1      1662 3.73760E+01
 -1      1663 3.78779E+01
 -1      1664 3.81822E+01
 -1      1665 3.83287E+01
 -1      1666 3.83331E+01
 -1      1667 3.83331E+01
 -1      1668 3.83287E+01
 -1      1669 3.81822E+01
 -1      1670 3.78779E+01
 -1      1671 3.73760E+01
 -1      1672 8.59483E+01
 -1      1673 8.86909E+01
 -1      1674 9.04937E+01
 -1      1675 9.14397E+01
 -1      1676 9.16513E+01
 -1      1677 9.16513E+01
 -1      1678 9.14397E+01
 -1      1679 9.04937E+01
 -1      1680 8.86909E+01
 -1      1681 8.59483E+01
 -1      1682 8.59483E+01
 -1      1683 8.86909E+01
 -1      1684 9.04937E+01
 -1      1685 9.14397E+01
 -1      1686 9.16513E+01
 -1      1687 9.16513E+01
 -1      1688 9.14397E+01
 -1      1689 9.04937E+01
 -1      1690 8.86909E+01
 -1      1691 8.59483E+01
 -1      1692 6.91785E+01
 -1      1693 6.31030E+01
 -1      1694 6.00022E+01
 -1      1695 5.84816E+01
 -1      1696 5.77212E+01
 -1      1697 5.77212E+01
 -1      1698 5.84816E+01
 -1      1699 6.00022E+01
 -1      1700 6.31030E+01
 -1      1701 6.91785E+01
 -1      1702 7.26332E+01
 -1      1703 7.26332E+01
 -1      1704 6.86926E+01
 -1      1705 6.53892E+01
 -1      1706 6.33639E+01
 -1      1707 6.33639E+01
 -1      1708 6.53892E+01
 -1      1709 6.86926E+01
 -1      1710 7.26332E+01
 -1      1711 7.26332E+01
 -1      1712 7.32596E+01
 -1      1713 7.47091E+01
 -1      1714 7.60412E+01
 -1      1715 7.69188E+01
 -1      1716 7.70348E+01
 -1      1717 7.70348E+01
 -1      1718 7.69188E+01
 -1      1719 7.60412E+01
 -1      1720 7.47091E+01
 -1      1721 7.32596E+01
 -1      1722 7.32596E+01
 -1      1723 7.47091E+01
 -1      1724 7.66109E+01
 -1      1725 7.69188E+01
 -1      1726 7.70348E+01
 -1      1727 7.70348E+01
 -1      1728 7.69188E+01
 -1      1729 7.66109E+01
 -1      1730 7.47091E+01
 -1      1731 7.32596E+01
 -1      1732 6.95380E+01
 -1      1733 6.60941E+01
 -1      1734 7.66109E+01
 -1      1735 7.69029E+01
 -1      1736 7.69029E+01
 -1      1737 7.69029E+01
 -1      1738 7.69029E+01
 -1      1739 7.66109E+01
 -1      1740 6.60941E+01
 -1      1741 6.95380E+01
 -1      1742 6.95380E+01
 -1      1743 6.60941E+01
 -1      1744 6.52847E+01
 -1      1745 6.52932E+01
 -1      1746 6.52932E+01
 -1      1747 6.52932E+01
 -1      1748 6.52932E+01
 -1      1749 6.52847E+01
 -1      1750 6.60941E+01
 -1      1751 6.95380E+01
 -1      1752 5.56363E+01
 -1      1753 5.61338E+01
 -1      1754 5.66434E+01
 -1      1755 5.69798E+01
 -1      1756 5.70317E+01
 -1      1757 5.70317E+01
 -1      1758 5.69798E+01
 -1      1759 5.66434E+01
 -1      1760 5.61338E+01
 -1      1761 5.56363E+01
 -1      1762 4.28998E+01
 -1      1763 4.38234E+01
 -1      1764 4.44938E+01
 -1      1765 4.48584E+01
 -1      1766 4.48806E+01
 -1      1767 4.48806E+01
 -1      1768 4.48584E+01
 -1      1769 4.44938E+01
 -1      1770 4.38234E+01
 -1      1771 4.28998E+01
 -1      1772 3.17169E+01
 -1      1773 3.25282E+01
 -1      1774 3.30786E+01
 -1      1775 3.33467E+01
 -1      1776 3.33467E+01
 -1      1777 3.33467E+01
 -1      1778 3.33467E+01
 -1      1779 3.30786E+01
 -1      1780 3.25282E+01
 -1      1781 3.17169E+01
 -1      1782 2.25894E+01
 -1      1783 2.31794E+01
 -1      1784 2.35606E+01
 -1      1785 2.37209E+01
 -1      1786 2.37209E+01
 -1      1787 2.37209E+01
 -1      1788 2.37209E+01
 -1      1789 2.35606E+01
 -1      1790 2.31794E+01
 -1      1791 2.25894E+01
 -1      1792 1.53039E+01
 -1      1793 1.56961E+01
 -1      1794 1.59344E+01
 -1      1795 1.60099E+01
 -1      1796 1.60099E+01
 -1      1797 1.60099E+01
 -1      1798 1.60099E+01
 -1      1799 1.59344E+01
 -1      1800 1.56961E+01
 -1      1801 1.53039E+01
 -1      1802 9.53518E+00
 -1      1803 9.77750E+00
 -1      1804 9.91054E+00
 -1      1805 9.92661E+00
 -1      1806 9.92661E+00
 -1      1807 9.92661E+00
 -1      1808 9.92661E+00
 -1      1809 9.91054E+00
 -1      1810 9.77750E+00
 -1      1811 9.53518E+00
 -1      1812 4.99054E+00
 -1      1813 5.10940E+00
 -1      1814 5.16857E+00
 -1      1815 5.16857E+00
 -1      1816 5.14477E+00
 -1      1817 5.14477E+00
 -1      1818 5.16857E+00
 -1      1819 5.16857E+00
 -1      1820 5.10940E+00
 -1      1821 4.99054E+00
 -1      1822 3.64154E+00
 -1      1823 3.66347E+00
 -1      1824 3.66639E+00
 -1      1825 3.66639E+00
 -1      1826 3.64760E+00
 -1      1827 3.64760E+00
 -1      1828 3.66639E+00
 -1      1829 3.66639E+00
 -1      1830 3.66347E+00
 -1      1831 3.64154E+00
 -1      1832 2.56693E+00
 -1      1833 2.56853E+00
 -1      1834 2.56853E+00
 -1      1835 2.55790E+00
 -1      1836 2.53237E+00
 -1      1837 2.53237E+00
 -1      1838 2.55790E+00
 -1      1839 2.56853E+00
 -1      1840 2.56853E+00
 -1      1841 2.56693E+00
 -1      1842 2.09326E+00
 -1      1843 1.98224E+00
 -1      1844 1.89845E+00
 -1      1845 1.82997E+00
 -1      1846 1.77242E+00
 -1      1847 1.77242E+00
 -1      1848 1.82997E+00
 -1      1849 1.89845E+00
 -1      1850 1.98224E+00
 -1      1851 2.09326E+00
 -1      1852 2.46712E+00
 -1      1853 2.36407E+00
 -1      1854 2.28970E+00
 -1      1855 2.22978E+00
 -1      1856 2.17893E+00
 -1      1857 2.17893E+00
 -1      1858 2.22978E+00
 -1      1859 2.28970E+00
 -1      1860 2.36407E+00
 -1      1861 2.46712E+00
 -1      1862 2.78978E+00
 -1      1863 2.68965E+00
 -1      1864 2.62157E+00
 -1      1865 2.56826E+00
 -1      1866 2.52298E+00
 -1      1867 2.52298E+00
 -1      1868 2.56826E+00
 -1      1869 2.62157E+00
 -1      1870 2.68965E+00
 -1      1871 2.78978E+00
 -1      1872 3.08185E+00
 -1      1873 2.97958E+00
 -1      1874 2.91541E+00
 -1      1875 2.86787E+00
 -1      1876 2.82809E+00
 -1      1877 2.82809E+00
 -1      1878 2.86787E+00
 -1      1879 2.91541E+00
 -1      1880 2.97958E+00
 -1      1881 3.08185E+00
 -1      1882 3.36111E+00
 -1      1883 3.25102E+00
 -1      1884 3.18901E+00
 -1      1885 3.14757E+00
 -1      1886 3.11458E+00
 -1      1887 3.11458E+00
 -1      1888 3.14757E+00
 -1      1889 3.18901E+00
 -1      1890 3.25102E+00
 -1      1891 3.36111E+00
 -1      1892 3.64420E+00
 -1      1893 3.51948E+00
 -1      1894 3.45858E+00
 -1      1895 3.42501E+00
 -1      1896 3.40179E+00
 -1      1897 3.40179E+00
 -1      1898 3.42501E+00
 -1      1899 3.45858E+00
 -1      1900 3.51948E+00
 -1      1901 3.64420E+00
 -1      1902 3.94822E+00
 -1      1903 3.80108E+00
 -1      1904 3.74105E+00
 -1      1905 3.71875E+00
 -1      1906 3.71000E+00
 -1      1907 3.71000E+00
 -1      1908 3.71875E+00
 -1      1909 3.74105E+00
 -1      1910 3.80108E+00
 -1      1911 3.94822E+00
 -1      1912 4.29422E+00
 -1      1913 4.11604E+00
 -1      1914 4.05822E+00
 -1      1915 4.06715E+00
 -1      1916 4.06953E+00
 -1      1917 4.06953E+00
 -1      1918 4.06715E+00
 -1      1919 4.05822E+00
 -1      1920 4.11604E+00
 -1      1921 4.29422E+00
 -1      1922 4.71154E+00
 -1      1923 4.49786E+00
 -1      1924 4.48831E+00
 -1      1925 4.52187E+00
 -1      1926 4.52187E+00
 -1      1927 4.52187E+00
 -1      1928 4.52187E+00
 -1      1929 4.48831E+00
 -1      1930 4.49786E+00
 -1      1931 4.71154E+00
 -1      1932 5.70202E+00
 -1      1933 5.02792E+00
 -1      1934 5.21939E+00
 -1      1935 5.30688E+00
 -1      1936 5.30688E+00
 -1      1937 5.30688E+00
 -1      1938 5.30688E+00
 -1      1939 5.21939E+00
 -1      1940 5.02792E+00
 -1      1941 5.70202E+00
 -1      1942 7.74950E+00
 -1      1943 7.19194E+00
 -1      1944 7.36045E+00
 -1      1945 7.36045E+00
 -1      1946 7.34860E+00
 -1      1947 7.34860E+00
 -1      1948 7.36045E+00
 -1      1949 7.36045E+00
 -1      1950 7.19194E+00
 -1      1951 7.74950E+00
 -1      1952 1.14286E+01
 -1      1953 1.07513E+01
 -1      1954 1.08895E+01
 -1      1955 1.08895E+01
 -1      1956 1.06579E+01
 -1      1957 1.06579E+01
 -1      1958 1.08895E+01
 -1      1959 1.08895E+01
 -1      1960 1.07513E+01
 -1      1961 1.14286E+01
 -1      1962 1.70060E+01
 -1      1963 1.79335E+01
 -1      1964 1.79335E+01
 -1      1965 1.71933E+01
 -1      1966 1.67477E+01
 -1      1967 1.67477E+01
 -1      1968 1.71933E+01
 -1      1969 1.79335E+01
 -1      1970 1.79335E+01
 -1      1971 1.70060E+01
 -1      1972 4.06140E+01
 -1      1973 4.06140E+01
 -1      1974 3.74589E+01
 -1      1975 3.70863E+01
 -1      1976 3.68585E+01
 -1      1977 3.68585E+01
 -1      1978 3.70863E+01
 -1      1979 3.74589E+01
 -1      1980 4.06140E+01
 -1      1981 4.06140E+01
 -1      1982 6.22193E+01
 -1      1983 5.57828E+01
 -1      1984 5.57828E+01
 -1      1985 5.58111E+01
 -1      1986 5.58111E+01
 -1      1987 5.58111E+01
 -1      1988 5.58111E+01
 -1      1989 5.57828E+01
 -1      1990 5.57828E+01
 -1      1991 6.22193E+01
 -1      1992 7.47071E+01
 -1      1993 6.94241E+01
 -1      1994 6.83257E+01
 -1      1995 6.85755E+01
 -1      1996 6.85755E+01
 -1      1997 6.85755E+01
 -1      1998 6.85755E+01
 -1      1999 6.83257E+01
 -1      2000 6.94241E+01
 -1      2001 7.47071E+01
 -1      2002 7.47071E+01
 -1      2003 6.94241E+01
 -1      2004 6.83257E+01
 -1      2005 6.85755E+01
 -1      2006 6.85755E+01
 -1      2007 6.85755E+01
 -1      2008 6.85755E+01
 -1      2009 6.83257E+01
 -1      2010 6.94241E+01
 -1      2011 7.47071E+01
 -1      2012 6.52478E+01
 -1      2013 5.55727E+01
 -1      2014 5.06045E+01
 -1      2015 4.99093E+01
 -1      2016 4.94589E+01
 -1      2017 4.94589E+01
 -1      2018 4.99093E+01
 -1      2019 5.06045E+01
 -1      2020 5.55727E+01
 -1      2021 6.52478E+01
 -1      2022 4.62942E+01
 -1      2023 4.03968E+01
 -1      2024 3.69025E+01
 -1      2025 3.51502E+01
 -1      2026 3.46785E+01
 -1      2027 3.46785E+01
 -1      2028 3.51502E+01
 -1      2029 3.69025E+01
 -1      2030 4.03968E+01
 -1      2031 4.62942E+01
 -1      2032 3.12233E+01
 -1      2033 2.86461E+01
 -1      2034 2.65011E+01
 -1      2035 2.51147E+01
 -1      2036 2.43115E+01
 -1      2037 2.43115E+01
 -1      2038 2.51147E+01
 -1      2039 2.65011E+01
 -1      2040 2.86461E+01
 -1      2041 3.12233E+01
 -1      2042 2.06567E+01
 -1      2043 1.99155E+01
 -1      2044 1.90079E+01
 -1      2045 1.80769E+01
 -1      2046 1.72979E+01
 -1      2047 1.72979E+01
 -1      2048 1.80769E+01
 -1      2049 1.90079E+01
 -1      2050 1.99155E+01
 -1      2051 2.06567E+01
 -1      2052 1.38022E+01
 -1      2053 1.38022E+01
 -1      2054 1.36351E+01
 -1      2055 1.31998E+01
 -1      2056 1.27501E+01
 -1      2057 1.27501E+01
 -1      2058 1.31998E+01
 -1      2059 1.36351E+01
 -1      2060 1.38022E+01
 -1      2061 1.38022E+01
 -1      2062 9.59575E+00
 -1      2063 9.73313E+00
 -1      2064 9.73313E+00
 -1      2065 9.72820E+00
 -1      2066 9.53066E+00
 -1      2067 9.53066E+00
 -1      2068 9.72820E+00
 -1      2069 9.73313E+00
 -1      2070 9.73313E+00
 -1      2071 9.59575E+00
 -1      2072 6.75477E+00
 -1      2073 6.99216E+00
 -1      2074 7.11409E+00
 -1      2075 7.11409E+00
 -1      2076 7.04144E+00
 -1      2077 7.04144E+00
 -1      2078 7.11409E+00
 -1      2079 7.11409E+00
 -1      2080 6.99216E+00
 -1      2081 6.75477E+00
 -1      2082 4.99714E+00
 -1      2083 5.11056E+00
 -1      2084 5.21225E+00
 -1      2085 5.21225E+00
 -1      2086 5.20388E+00
 -1      2087 5.20388E+00
 -1      2088 5.21225E+00
 -1      2089 5.21225E+00
 -1      2090 5.11056E+00
 -1      2091 4.99714E+00
 -1      2092 4.58010E+00
 -1      2093 4.58530E+00
 -1      2094 4.60770E+00
 -1      2095 4.60770E+00
 -1      2096 4.60263E+00
 -1      2097 4.60263E+00
 -1      2098 4.60770E+00
 -1      2099 4.60770E+00
 -1      2100 4.58530E+00
 -1      2101 4.58010E+00
 -1      2102 4.30105E+00
 -1      2103 4.32316E+00
 -1      2104 4.34252E+00
 -1      2105 4.34252E+00
 -1      2106 4.33922E+00
 -1      2107 4.33922E+00
 -1      2108 4.34252E+00
 -1      2109 4.34252E+00
 -1      2110 4.32316E+00
 -1      2111 4.30105E+00
 -1      2112 4.11745E+00
 -1      2113 4.16324E+00
 -1      2114 4.18385E+00
 -1      2115 4.18601E+00
 -1      2116 4.18601E+00
 -1      2117 4.18601E+00
 -1      2118 4.18601E+00
 -1      2119 4.18385E+00
 -1      2120 4.16324E+00
 -1      2121 4.11745E+00
 -1      2122 4.02592E+00
 -1      2123 4.06903E+00
 -1      2124 4.08898E+00
 -1      2125 4.09318E+00
 -1      2126 4.09318E+00
 -1      2127 4.09318E+00
 -1      2128 4.09318E+00
 -1      2129 4.08898E+00
 -1      2130 4.06903E+00
 -1      2131 4.02592E+00
 -1      2132 3.97731E+00
 -1      2133 4.01693E+00
 -1      2134 4.03556E+00
 -1      2135 4.04012E+00
 -1      2136 4.04012E+00
 -1      2137 4.04012E+00
 -1      2138 4.04012E+00
 -1      2139 4.03556E+00
 -1      2140 4.01693E+00
 -1      2141 3.97731E+00
 -1      2142 3.95502E+00
 -1      2143 3.99183E+00
 -1      2144 4.00902E+00
 -1      2145 4.01320E+00
 -1      2146 4.01320E+00
 -1      2147 4.01320E+00
 -1      2148 4.01320E+00
 -1      2149 4.00902E+00
 -1      2150 3.99183E+00
 -1      2151 3.95502E+00
 -1      2152 3.95452E+00
 -1      2153 3.98735E+00
 -1      2154 4.00208E+00
 -1      2155 4.00487E+00
 -1      2156 4.00487E+00
 -1      2157 4.00487E+00
 -1      2158 4.00487E+00
 -1      2159 4.00208E+00
 -1      2160 3.98735E+00
 -1      2161 3.95452E+00
 -1      2162 3.96599E+00
 -1      2163 3.99767E+00
 -1      2164 4.01155E+00
 -1      2165 4.01357E+00
 -1      2166 4.01357E+00
 -1      2167 4.01357E+00
 -1      2168 4.01357E+00
 -1      2169 4.01155E+00
 -1      2170 3.99767E+00
 -1      2171 3.96599E+00
 -1      2172 3.98116E+00
 -1      2173 4.01253E+00
 -1      2174 4.02589E+00
 -1      2175 4.02695E+00
 -1      2176 4.02695E+00
 -1      2177 4.02695E+00
 -1      2178 4.02695E+00
 -1      2179 4.02589E+00
 -1      2180 4.01253E+00
 -1      2181 3.98116E+00
 -1      2182 3.99833E+00
 -1      2183 4.03057E+00
 -1      2184 4.04364E+00
 -1      2185 4.04364E+00
 -1      2186 4.04318E+00
 -1      2187 4.04318E+00
 -1      2188 4.04364E+00
 -1      2189 4.04364E+00
 -1      2190 4.03057E+00
 -1      2191 3.99833E+00
 -1      2192 4.01677E+00
 -1      2193 4.05114E+00
 -1      2194 4.06362E+00
 -1      2195 4.06362E+00
 -1      2196 4.06012E+00
 -1      2197 4.06012E+00
 -1      2198 4.06362E+00
 -1      2199 4.06362E+00
 -1      2200 4.05114E+00
 -1      2201 4.01677E+00
 -1      2202 4.03619E+00
 -1      2203 4.07303E+00
 -1      2204 4.08278E+00
 -1      2205 4.08278E+00
 -1      2206 4.07304E+00
 -1      2207 4.07304E+00
 -1      2208 4.08278E+00
 -1      2209 4.08278E+00
 -1      2210 4.07303E+00
 -1      2211 4.03619E+00
 -1      2212 4.05559E+00
 -1      2213 4.09035E+00
 -1      2214 4.09133E+00
 -1      2215 4.09133E+00
 -1      2216 4.07304E+00
 -1      2217 4.07304E+00
 -1      2218 4.09133E+00
 -1      2219 4.09133E+00
 -1      2220 4.09035E+00
 -1      2221 4.05559E+00
 -1      2222 4.06676E+00
 -1      2223 4.09035E+00
 -1      2224 4.09133E+00
 -1      2225 4.09133E+00
 -1      2226 4.06853E+00
 -1      2227 4.06853E+00
 -1      2228 4.09133E+00
 -1      2229 4.09133E+00
 -1      2230 4.09035E+00
 -1      2231 4.06676E+00
 -1      2232 4.09812E+00
 -1      2233 4.08549E+00
 -1      2234 4.08549E+00
 -1      2235 4.05891E+00
 -1      2236 4.01262E+00
 -1      2237 4.01262E+00
 -1      2238 4.05891E+00
 -1      2239 4.08549E+00
 -1      2240 4.08549E+00
 -1      2241 4.09812E+00
 -1      2242 4.14235E+00
 -1      2243 4.08328E+00
 -1      2244 4.00614E+00
 -1      2245 3.91735E+00
 -1      2246 3.84213E+00
 -1      2247 3.84213E+00
 -1      2248 3.91735E+00
 -1      2249 4.00614E+00
 -1      2250 4.08328E+00
 -1      2251 4.14235E+00
 -1      2252 4.32060E+00
 -1      2253 4.01255E+00
 -1      2254 3.80435E+00
 -1      2255 3.66949E+00
 -1      2256 3.63222E+00
 -1      2257 3.63222E+00
 -1      2258 3.66949E+00
 -1      2259 3.80435E+00
 -1      2260 4.01255E+00
 -1      2261 4.32060E+00
 -1      2262 6.17602E+00
 -1      2263 3.87989E+00
 -1      2264 3.81835E+00
 -1      2265 3.65678E+00
 -1      2266 3.48645E+00
 -1      2267 3.48645E+00
 -1      2268 3.65678E+00
 -1      2269 3.81835E+00
 -1      2270 3.87989E+00
 -1      2271 6.17602E+00
 -1      2272 2.51559E+01
 -1      2273 1.91245E+01
 -1      2274 1.76288E+01
 -1      2275 1.70901E+01
 -1      2276 1.68679E+01
 -1      2277 1.68679E+01
 -1      2278 1.70901E+01
 -1      2279 1.76288E+01
 -1      2280 1.91245E+01
 -1      2281 2.51559E+01
 -1      2282 2.51559E+01
 -1      2283 8.49211E+00
 -1      2284 4.58457E+00
 -1      2285 4.14235E+00
 -1      2286 4.09812E+00
 -1      2287 4.00821E+00
 -1      2288 3.96778E+00
 -1      2289 3.95871E+00
 -1      2290 3.94756E+00
 -1      2291 3.93378E+00
 -1      2292 3.91812E+00
 -1      2293 3.90664E+00
 -1      2294 3.95091E+00
 -1      2295 4.02604E+00
 -1      2296 4.13835E+00
 -1      2297 4.29738E+00
 -1      2298 4.55117E+00
 -1      2299 4.94996E+00
 -1      2300 6.39487E+00
 -1      2301 8.61356E+00
 -1      2302 1.18597E+01
 -1      2303 1.65669E+01
 -1      2304 2.35839E+01
 -1      2305 3.42954E+01
 -1      2306 5.10274E+01
 -1      2307 6.39262E+01
 -1      2308 6.52478E+01
 -1      2309 7.47071E+01
 -1      2310 7.47071E+01
 -1      2311 2.04868E+01
 -1      2312 8.49211E+00
 -1      2313 4.87729E+00
 -1      2314 3.95335E+00
 -1      2315 3.75472E+00
 -1      2316 3.74387E+00
 -1      2317 3.77738E+00
 -1      2318 3.80777E+00
 -1      2319 3.83247E+00
 -1      2320 3.85402E+00
 -1      2321 3.89580E+00
 -1      2322 3.96404E+00
 -1      2323 4.04673E+00
 -1      2324 4.15334E+00
 -1      2325 4.29537E+00
 -1      2326 4.48729E+00
 -1      2327 4.74762E+00
 -1      2328 5.26940E+00
 -1      2329 6.77631E+00
 -1      2330 9.42286E+00
 -1      2331 1.32412E+01
 -1      2332 1.88053E+01
 -1      2333 2.68057E+01
 -1      2334 3.42954E+01
 -1      2335 5.10274E+01
 -1      2336 6.39262E+01
 -1      2337 6.39262E+01
 -1      2338 5.58130E+01
 -1      2339 5.28762E+01
 -1      2340 1.89426E+01
 -1      2341 8.24652E+00
 -1      2342 4.87729E+00
 -1      2343 3.92924E+00
 -1      2344 3.61630E+00
 -1      2345 3.56153E+00
 -1      2346 3.63073E+00
 -1      2347 3.70418E+00
 -1      2348 3.79031E+00
 -1      2349 3.87567E+00
 -1      2350 3.96017E+00
 -1      2351 4.05022E+00
 -1      2352 4.15373E+00
 -1      2353 4.28000E+00
 -1      2354 4.44023E+00
 -1      2355 4.64827E+00
 -1      2356 4.92181E+00
 -1      2357 5.76088E+00
 -1      2358 7.05085E+00
 -1      2359 9.42286E+00
 -1      2360 1.32412E+01
 -1      2361 1.88053E+01
 -1      2362 2.68057E+01
 -1      2363 2.98328E+01
 -1      2364 2.98328E+01
 -1      2365 2.77725E+01
 -1      2366 3.84029E+01
 -1      2367 3.84029E+01
 -1      2368 3.64041E+01
 -1      2369 1.79165E+01
 -1      2370 8.58452E+00
 -1      2371 4.63874E+00
 -1      2372 3.89875E+00
 -1      2373 3.61010E+00
 -1      2374 3.57341E+00
 -1      2375 3.65852E+00
 -1      2376 3.75775E+00
 -1      2377 3.85547E+00
 -1      2378 3.94846E+00
 -1      2379 4.03911E+00
 -1      2380 4.13247E+00
 -1      2381 4.23477E+00
 -1      2382 4.35277E+00
 -1      2383 4.49335E+00
 -1      2384 4.66258E+00
 -1      2385 4.92181E+00
 -1      2386 5.76088E+00
 -1      2387 7.05085E+00
 -1      2388 8.75523E+00
 -1      2389 1.08422E+01
 -1      2390 1.21369E+01
 -1      2391 1.21369E+01
 -1      2392 1.03451E+01
 -1      2393 2.03818E+01
 -1      2394 2.77725E+01
 -1      2395 3.02551E+01
 -1      2396 3.02551E+01
 -1      2397 2.43597E+01
 -1      2398 1.71239E+01
 -1      2399 9.05067E+00
 -1      2400 4.41627E+00
 -1      2401 3.80857E+00
 -1      2402 3.63933E+00
 -1      2403 3.68230E+00
 -1      2404 3.77463E+00
 -1      2405 3.87301E+00
 -1      2406 3.96545E+00
 -1      2407 4.04948E+00
 -1      2408 4.12665E+00
 -1      2409 4.20008E+00
 -1      2410 4.27283E+00
 -1      2411 4.35277E+00
 -1      2412 4.49335E+00
 -1      2413 4.66258E+00
 -1      2414 4.86309E+00
 -1      2415 5.23258E+00
 -1      2416 5.79684E+00
 -1      2417 6.07247E+00
 -1      2418 6.07247E+00
 -1      2419 5.72781E+00
 -1      2420 6.66827E+00
 -1      2421 1.48746E+01
 -1      2422 2.03818E+01
 -1      2423 2.42841E+01
 -1      2424 2.42841E+01
 -1      2425 2.35010E+01
 -1      2426 1.69797E+01
 -1      2427 1.64792E+01
 -1      2428 9.63300E+00
 -1      2429 4.22294E+00
 -1      2430 3.74400E+00
 -1      2431 3.75801E+00
 -1      2432 3.84814E+00
 -1      2433 3.94292E+00
 -1      2434 4.02880E+00
 -1      2435 4.09922E+00
 -1      2436 4.15412E+00
 -1      2437 4.19525E+00
 -1      2438 4.22439E+00
 -1      2439 4.27283E+00
 -1      2440 4.34675E+00
 -1      2441 4.42101E+00
 -1      2442 4.48997E+00
 -1      2443 4.54014E+00
 -1      2444 4.54828E+00
 -1      2445 4.54828E+00
 -1      2446 4.49784E+00
 -1      2447 4.41677E+00
 -1      2448 4.89463E+00
 -1      2449 8.10358E+00
 -1      2450 1.48746E+01
 -1      2451 1.89678E+01
 -1      2452 2.03014E+01
 -1      2453 2.03014E+01
 -1      2454 1.81798E+01
 -1      2455 1.19545E+01
 -1      2456 1.59582E+01
 -1      2457 1.03776E+01
 -1      2458 4.19130E+00
 -1      2459 3.87917E+00
 -1      2460 3.96490E+00
 -1      2461 4.06741E+00
 -1      2462 4.14680E+00
 -1      2463 4.19939E+00
 -1      2464 4.22630E+00
 -1      2465 4.23190E+00
 -1      2466 4.23190E+00
 -1      2467 4.22439E+00
 -1      2468 4.24217E+00
 -1      2469 4.24740E+00
 -1      2470 4.24740E+00
 -1      2471 4.23663E+00
 -1      2472 4.21076E+00
 -1      2473 4.16187E+00
 -1      2474 4.09454E+00
 -1      2475 4.06597E+00
 -1      2476 4.45135E+00
 -1      2477 5.63157E+00
 -1      2478 9.31560E+00
 -1      2479 1.45163E+01
 -1      2480 1.66573E+01
 -1      2481 1.67553E+01
 -1      2482 1.67553E+01
 -1      2483 1.41995E+01
 -1      2484 8.54691E+00
 -1      2485 1.55536E+01
 -1      2486 1.13482E+01
 -1      2487 4.38249E+00
 -1      2488 4.13597E+00
 -1      2489 4.23853E+00
 -1      2490 4.31666E+00
 -1      2491 4.34727E+00
 -1      2492 4.34727E+00
 -1      2493 4.34117E+00
 -1      2494 4.30911E+00
 -1      2495 4.26398E+00
 -1      2496 4.21981E+00
 -1      2497 4.19485E+00
 -1      2498 4.15946E+00
 -1      2499 4.11297E+00
 -1      2500 4.05355E+00
 -1      2501 3.98525E+00
 -1      2502 3.91855E+00
 -1      2503 3.91982E+00
 -1      2504 4.18238E+00
 -1      2505 4.68939E+00
 -1      2506 6.49418E+00
 -1      2507 1.01932E+01
 -1      2508 1.32367E+01
 -1      2509 1.43610E+01
 -1      2510 1.43610E+01
 -1      2511 1.38470E+01
 -1      2512 1.11881E+01
 -1      2513 6.28148E+00
 -1      2514 1.52674E+01
 -1      2515 1.26479E+01
 -1      2516 4.65458E+00
 -1      2517 4.48676E+00
 -1      2518 4.53007E+00
 -1      2519 4.53007E+00
 -1      2520 4.52506E+00
 -1      2521 4.48503E+00
 -1      2522 4.42079E+00
 -1      2523 4.34437E+00
 -1      2524 4.26398E+00
 -1      2525 4.21009E+00
 -1      2526 4.14581E+00
 -1      2527 4.07317E+00
 -1      2528 3.99507E+00
 -1      2529 3.91675E+00
 -1      2530 3.84773E+00
 -1      2531 3.85417E+00
 -1      2532 4.02815E+00
 -1      2533 4.36499E+00
 -1      2534 4.93564E+00
 -1      2535 7.22445E+00
 -1      2536 1.01932E+01
 -1      2537 1.17792E+01
 -1      2538 1.23235E+01
 -1      2539 1.23235E+01
 -1      2540 1.14887E+01
 -1      2541 8.86070E+00
 -1      2542 5.18457E+00
 -1      2543 1.51115E+01
 -1      2544 1.44460E+01
 -1      2545 4.96938E+00
 -1      2546 4.82830E+00
 -1      2547 4.81240E+00
 -1      2548 4.69674E+00
 -1      2549 4.61185E+00
 -1      2550 4.51223E+00
 -1      2551 4.42079E+00
 -1      2552 4.34437E+00
 -1      2553 4.26199E+00
 -1      2554 4.17580E+00
 -1      2555 4.08729E+00
 -1      2556 3.99886E+00
 -1      2557 3.91487E+00
 -1      2558 3.84283E+00
 -1      2559 3.84474E+00
 -1      2560 3.95645E+00
 -1      2561 4.18219E+00
 -1      2562 4.56748E+00
 -1      2563 5.45400E+00
 -1      2564 7.83409E+00
 -1      2565 9.27251E+00
 -1      2566 1.03742E+01
 -1      2567 1.05705E+01
 -1      2568 1.05705E+01
 -1      2569 9.57001E+00
 -1      2570 7.01745E+00
 -1      2571 4.71731E+00
 -1      2572 1.70283E+01
 -1      2573 1.70283E+01
 -1      2574 6.49051E+00
 -1      2575 5.47396E+00
 -1      2576 4.81240E+00
 -1      2577 4.69674E+00
 -1      2578 4.61185E+00
 -1      2579 4.51223E+00
 -1      2580 4.41379E+00
 -1      2581 4.31844E+00
 -1      2582 4.22509E+00
 -1      2583 4.13301E+00
 -1      2584 4.04314E+00
 -1      2585 3.96026E+00
 -1      2586 3.90550E+00
 -1      2587 3.88377E+00
 -1      2588 3.95015E+00
 -1      2589 4.09900E+00
 -1      2590 4.36152E+00
 -1      2591 4.77613E+00
 -1      2592 6.04190E+00
 -1      2593 8.35964E+00
 -1      2594 8.35964E+00
 -1      2595 9.08762E+00
 -1      2596 9.08762E+00
 -1      2597 9.07385E+00
 -1      2598 7.99185E+00
 -1      2599 5.52075E+00
 -1      2600 4.41004E+00
 -1      2601 2.08021E+01
 -1      2602 2.08021E+01
 -1      2603 7.92804E+00
 -1      2604 5.47396E+00
 -1      2605 4.77114E+00
 -1      2606 4.59850E+00
 -1      2607 4.49352E+00
 -1      2608 4.40716E+00
 -1      2609 4.33063E+00
 -1      2610 4.25620E+00
 -1      2611 4.18071E+00
 -1      2612 4.10410E+00
 -1      2613 4.05068E+00
 -1      2614 4.00408E+00
 -1      2615 3.97149E+00
 -1      2616 3.99919E+00
 -1      2617 4.09326E+00
 -1      2618 4.27009E+00
 -1      2619 4.55741E+00
 -1      2620 4.98784E+00
 -1      2621 6.60447E+00
 -1      2622 8.83960E+00
 -1      2623 8.83960E+00
 -1      2624 7.92947E+00
 -1      2625 7.92947E+00
 -1      2626 7.79221E+00
 -1      2627 6.67577E+00
 -1      2628 4.72886E+00
 -1      2629 4.13546E+00
 -1      2630 2.41927E+01
 -1      2631 2.41927E+01
 -1      2632 7.92804E+00
 -1      2633 4.53158E+00
 -1      2634 4.27243E+00
 -1      2635 4.24259E+00
 -1      2636 4.23980E+00
 -1      2637 4.23399E+00
 -1      2638 4.21860E+00
 -1      2639 4.19034E+00
 -1      2640 4.15025E+00
 -1      2641 4.13153E+00
 -1      2642 4.10911E+00
 -1      2643 4.08779E+00
 -1      2644 4.09469E+00
 -1      2645 4.15158E+00
 -1      2646 4.26772E+00
 -1      2647 4.46477E+00
 -1      2648 4.76768E+00
 -1      2649 5.54806E+00
 -1      2650 7.16097E+00
 -1      2651 8.83960E+00
 -1      2652 8.83960E+00
 -1      2653 6.88920E+00
 -1      2654 6.88920E+00
 -1      2655 6.68582E+00
 -1      2656 5.56184E+00
 -1      2657 4.33083E+00
 -1      2658 3.88331E+00
 -1      2659 2.97862E+01
 -1      2660 2.41927E+01
 -1      2661 3.78978E+00
 -1      2662 3.64447E+00
 -1      2663 3.83265E+00
 -1      2664 3.96896E+00
 -1      2665 4.06073E+00
 -1      2666 4.11697E+00
 -1      2667 4.14314E+00
 -1      2668 4.17176E+00
 -1      2669 4.19436E+00
 -1      2670 4.20326E+00
 -1      2671 4.20910E+00
 -1      2672 4.22394E+00
 -1      2673 4.26163E+00
 -1      2674 4.33810E+00
 -1      2675 4.47155E+00
 -1      2676 4.68255E+00
 -1      2677 4.99402E+00
 -1      2678 6.15433E+00
 -1      2679 7.73204E+00
 -1      2680 7.73204E+00
 -1      2681 5.52301E+00
 -1      2682 5.95022E+00
 -1      2683 5.95022E+00
 -1      2684 5.72078E+00
 -1      2685 4.85281E+00
 -1      2686 4.02847E+00
 -1      2687 3.64502E+00
 -1      2688 5.85794E+01
 -1      2689 1.94160E+01
 -1      2690 4.75799E+00
 -1      2691 3.12729E+00
 -1      2692 3.49475E+00
 -1      2693 3.74835E+00
 -1      2694 3.92527E+00
 -1      2695 4.04696E+00
 -1      2696 4.14238E+00
 -1      2697 4.23019E+00
 -1      2698 4.29017E+00
 -1      2699 4.33212E+00
 -1      2700 4.36680E+00
 -1      2701 4.40645E+00
 -1      2702 4.46518E+00
 -1      2703 4.55905E+00
 -1      2704 4.70605E+00
 -1      2705 4.92607E+00
 -1      2706 5.64475E+00
 -1      2707 6.80239E+00
 -1      2708 8.33860E+00
 -1      2709 8.33860E+00
 -1      2710 4.88555E+00
 -1      2711 5.09555E+00
 -1      2712 5.09555E+00
 -1      2713 4.95143E+00
 -1      2714 4.54273E+00
 -1      2715 3.86704E+00
 -1      2716 3.41392E+00
 -1      2717 7.08106E+01
 -1      2718 2.07688E+01
 -1      2719 7.23347E+00
 -1      2720 3.29807E+00
 -1      2721 3.25776E+00
 -1      2722 3.59826E+00
 -1      2723 3.84111E+00
 -1      2724 4.02810E+00
 -1      2725 4.19411E+00
 -1      2726 4.32124E+00
 -1      2727 4.41885E+00
 -1      2728 4.49559E+00
 -1      2729 4.56117E+00
 -1      2730 4.62715E+00
 -1      2731 4.70727E+00
 -1      2732 4.81740E+00
 -1      2733 4.97534E+00
 -1      2734 5.53739E+00
 -1      2735 6.37726E+00
 -1      2736 7.51216E+00
 -1      2737 8.33860E+00
 -1      2738 8.33860E+00
 -1      2739 4.59112E+00
 -1      2740 4.74259E+00
 -1      2741 4.74259E+00
 -1      2742 4.66847E+00
 -1      2743 4.27111E+00
 -1      2744 3.72434E+00
 -1      2745 3.18542E+00
 -1      2746 7.08106E+01
 -1      2747 2.69068E+01
 -1      2748 2.00811E+01
 -1      2749 1.59438E+01
 -1      2750 1.29696E+01
 -1      2751 3.51922E+00
 -1      2752 3.83096E+00
 -1      2753 4.08071E+00
 -1      2754 4.28123E+00
 -1      2755 4.44551E+00
 -1      2756 4.58125E+00
 -1      2757 4.69494E+00
 -1      2758 4.79423E+00
 -1      2759 4.88909E+00
 -1      2760 4.99218E+00
 -1      2761 5.31807E+00
 -1      2762 5.76691E+00
 -1      2763 6.37728E+00
 -1      2764 7.20486E+00
 -1      2765 7.51216E+00
 -1      2766 7.51216E+00
 -1      2767 3.99527E+00
 -1      2768 4.31011E+00
 -1      2769 4.47094E+00
 -1      2770 4.47094E+00
 -1      2771 4.41427E+00
 -1      2772 4.03241E+00
 -1      2773 3.60077E+00
 -1      2774 3.60569E+00
 -1      2775 3.82637E+01
 -1      2776 2.69068E+01
 -1      2777 2.00811E+01
 -1      2778 1.59438E+01
 -1      2779 1.29696E+01
 -1      2780 5.47607E+00
 -1      2781 4.65077E+00
 -1      2782 4.22126E+00
 -1      2783 4.28123E+00
 -1      2784 4.44551E+00
 -1      2785 4.77975E+00
 -1      2786 4.93329E+00
 -1      2787 5.18769E+00
 -1      2788 5.52947E+00
 -1      2789 5.87548E+00
 -1      2790 6.26329E+00
 -1      2791 6.26329E+00
 -1      2792 6.37728E+00
 -1      2793 7.20486E+00
 -1      2794 7.20486E+00
 -1      2795 3.29635E+00
 -1      2796 3.72150E+00
 -1      2797 4.04141E+00
 -1      2798 4.21773E+00
 -1      2799 4.21773E+00
 -1      2800 4.18483E+00
 -1      2801 3.82346E+00
 -1      2802 3.49806E+00
 -1      2803 4.91729E+00
 -1      2804 2.78982E+01
 -1      2805 1.74845E+01
 -1      2806 1.25039E+01
 -1      2807 9.41290E+00
 -1      2808 7.28074E+00
 -1      2809 5.47607E+00
 -1      2810 4.65077E+00
 -1      2811 4.22126E+00
 -1      2812 3.84787E+00
 -1      2813 3.49243E+00
 -1      2814 4.77975E+00
 -1      2815 4.93329E+00
 -1      2816 5.18769E+00
 -1      2817 5.52947E+00
 -1      2818 5.87548E+00
 -1      2819 6.26329E+00
 -1      2820 6.26329E+00
 -1      2821 2.17782E+00
 -1      2822 2.24324E+00
 -1      2823 2.53414E+00
 -1      2824 3.03077E+00
 -1      2825 3.45554E+00
 -1      2826 3.78509E+00
 -1      2827 3.98167E+00
 -1      2828 3.98167E+00
 -1      2829 3.97813E+00
 -1      2830 3.64330E+00
 -1      2831 3.41924E+00
 -1      2832 9.19870E+00
 -1      2833 2.27700E+01
 -1      2834 1.23728E+01
 -1      2835 8.19443E+00
 -1      2836 5.47927E+00
 -1      2837 4.52775E+00
 -1      2838 3.97411E+00
 -1      2839 3.56450E+00
 -1      2840 3.24908E+00
 -1      2841 2.98873E+00
 -1      2842 2.74763E+00
 -1      2843 2.58683E+00
 -1      2844 2.48508E+00
 -1      2845 2.37732E+00
 -1      2846 2.27136E+00
 -1      2847 2.17585E+00
 -1      2848 2.09967E+00
 -1      2849 2.05136E+00
 -1      2850 2.06729E+00
 -1      2851 2.14204E+00
 -1      2852 2.28516E+00
 -1      2853 2.77121E+00
 -1      2854 3.19963E+00
 -1      2855 3.54276E+00
 -1      2856 3.76362E+00
 -1      2857 3.79453E+00
 -1      2858 3.79453E+00
 -1      2859 3.53768E+00
 -1      2860 3.36851E+00
 -1      2861 1.47747E+01
 -1      2862 1.97273E+01
 -1      2863 9.19861E+00
 -1      2864 5.44051E+00
 -1      2865 4.18988E+00
 -1      2866 3.61364E+00
 -1      2867 3.13481E+00
 -1      2868 2.80603E+00
 -1      2869 2.56968E+00
 -1      2870 2.40364E+00
 -1      2871 2.34422E+00
 -1      2872 2.28995E+00
 -1      2873 2.22539E+00
 -1      2874 2.15443E+00
 -1      2875 2.08250E+00
 -1      2876 2.01638E+00
 -1      2877 1.96386E+00
 -1      2878 1.93316E+00
 -1      2879 1.96820E+00
 -1      2880 2.04645E+00
 -1      2881 2.17046E+00
 -1      2882 2.52067E+00
 -1      2883 2.95689E+00
 -1      2884 3.31788E+00
 -1      2885 3.56723E+00
 -1      2886 3.63772E+00
 -1      2887 3.63772E+00
 -1      2888 3.50883E+00
 -1      2889 3.37342E+00
 -1      2890 2.18118E+01
 -1      2891 1.77416E+01
 -1      2892 7.06833E+00
 -1      2893 4.45103E+00
 -1      2894 3.46297E+00
 -1      2895 2.93063E+00
 -1      2896 2.51025E+00
 -1      2897 2.24806E+00
 -1      2898 2.11635E+00
 -1      2899 2.10532E+00
 -1      2900 2.08572E+00
 -1      2901 2.05729E+00
 -1      2902 2.02070E+00
 -1      2903 1.97786E+00
 -1      2904 1.93227E+00
 -1      2905 1.88900E+00
 -1      2906 1.85454E+00
 -1      2907 1.84267E+00
 -1      2908 1.88104E+00
 -1      2909 1.95823E+00
 -1      2910 2.07920E+00
 -1      2911 2.28231E+00
 -1      2912 2.73132E+00
 -1      2913 3.11600E+00
 -1      2914 3.39971E+00
 -1      2915 3.51617E+00
 -1      2916 3.51617E+00
 -1      2917 3.49595E+00
 -1      2918 3.44186E+00
 -1      2919 3.06752E+01
 -1      2920 1.63861E+01
 -1      2921 5.57074E+00
 -1      2922 3.91807E+00
 -1      2923 2.88440E+00
 -1      2924 2.38593E+00
 -1      2925 2.02312E+00
 -1      2926 1.87858E+00
 -1      2927 1.87996E+00
 -1      2928 1.87996E+00
 -1      2929 1.87759E+00
 -1      2930 1.86943E+00
 -1      2931 1.85485E+00
 -1      2932 1.83445E+00
 -1      2933 1.81027E+00
 -1      2934 1.78588E+00
 -1      2935 1.76634E+00
 -1      2936 1.76892E+00
 -1      2937 1.80674E+00
 -1      2938 1.87946E+00
 -1      2939 1.99378E+00
 -1      2940 2.15455E+00
 -1      2941 2.52762E+00
 -1      2942 2.94484E+00
 -1      2943 3.27276E+00
 -1      2944 3.45143E+00
 -1      2945 3.51021E+00
 -1      2946 3.56311E+00
 -1      2947 3.56311E+00
 -1      2948 4.17776E+01
 -1      2949 1.54627E+01
 -1      2950 4.80806E+00
 -1      2951 3.48480E+00
 -1      2952 2.38554E+00
 -1      2953 1.92787E+00
 -1      2954 1.67440E+00
 -1      2955 1.68084E+00
 -1      2956 1.69386E+00
 -1      2957 1.70602E+00
 -1      2958 1.71435E+00
 -1      2959 1.71755E+00
 -1      2960 1.71755E+00
 -1      2961 1.71551E+00
 -1      2962 1.70932E+00
 -1      2963 1.70127E+00
 -1      2964 1.69582E+00
 -1      2965 1.71025E+00
 -1      2966 1.74624E+00
 -1      2967 1.81237E+00
 -1      2968 1.91707E+00
 -1      2969 2.06770E+00
 -1      2970 2.35084E+00
 -1      2971 2.81407E+00
 -1      2972 3.21491E+00
 -1      2973 3.57484E+00
 -1      2974 3.65496E+00
 -1      2975 3.76388E+00
 -1      2976 3.76388E+00
 -1      2977 5.53436E+01
 -1      2978 1.48842E+01
 -1      2979 4.50381E+00
 -1      2980 3.09039E+00
 -1      2981 1.91996E+00
 -1      2982 1.52925E+00
 -1      2983 1.49479E+00
 -1      2984 1.51295E+00
 -1      2985 1.53746E+00
 -1      2986 1.56228E+00
 -1      2987 1.58421E+00
 -1      2988 1.60195E+00
 -1      2989 1.61511E+00
 -1      2990 1.62425E+00
 -1      2991 1.63075E+00
 -1      2992 1.63706E+00
 -1      2993 1.64691E+00
 -1      2994 1.66558E+00
 -1      2995 1.70006E+00
 -1      2996 1.75893E+00
 -1      2997 1.85189E+00
 -1      2998 1.98895E+00
 -1      2999 2.20582E+00
 -1      3000 2.73477E+00
 -1      3001 3.33664E+00
 -1      3002 3.87736E+00
 -1      3003 4.18013E+00
 -1      3004 4.18013E+00
 -1      3005 4.04815E+00
 -1      3006 6.95380E+01
 -1      3007 1.47689E+01
 -1      3008 4.25121E+00
 -1      3009 2.67536E+00
 -1      3010 1.45611E+00
 -1      3011 1.34993E+00
 -1      3012 1.33778E+00
 -1      3013 1.36881E+00
 -1      3014 1.40473E+00
 -1      3015 1.44058E+00
 -1      3016 1.47376E+00
 -1      3017 1.50334E+00
 -1      3018 1.52908E+00
 -1      3019 1.55130E+00
 -1      3020 1.57085E+00
 -1      3021 1.58920E+00
 -1      3022 1.60874E+00
 -1      3023 1.63317E+00
 -1      3024 1.66788E+00
 -1      3025 1.72046E+00
 -1      3026 1.80078E+00
 -1      3027 1.92091E+00
 -1      3028 2.10133E+00
 -1      3029 2.77189E+00
 -1      3030 3.60302E+00
 -1      3031 4.45144E+00
 -1      3032 5.44654E+00
 -1      3033 6.10538E+00
 -1      3034 6.10538E+00
 -1      3035 6.95380E+01
 -1      3036 1.54497E+01
 -1      3037 3.97884E+00
 -1      3038 2.16316E+00
 -1      3039 1.29176E+00
 -1      3040 1.17605E+00
 -1      3041 1.19979E+00
 -1      3042 1.24476E+00
 -1      3043 1.29147E+00
 -1      3044 1.33677E+00
 -1      3045 1.37908E+00
 -1      3046 1.41818E+00
 -1      3047 1.45419E+00
 -1      3048 1.48748E+00
 -1      3049 1.51863E+00
 -1      3050 1.54848E+00
 -1      3051 1.57833E+00
 -1      3052 1.61034E+00
 -1      3053 1.64796E+00
 -1      3054 1.69672E+00
 -1      3055 1.76505E+00
 -1      3056 1.86526E+00
 -1      3057 2.02955E+00
 -1      3058 2.89344E+00
 -1      3059 4.04178E+00
 -1      3060 6.14739E+00
 -1      3061 1.02795E+01
 -1      3062 1.43603E+01
 -1      3063 1.53694E+01
 -1      3064 7.28611E+01
 -1      3065 1.71461E+01
 -1      3066 3.72596E+00
 -1      3067 1.45254E+00
 -1      3068 1.07263E+00
 -1      3069 1.03197E+00
 -1      3070 1.08049E+00
 -1      3071 1.13932E+00
 -1      3072 1.19572E+00
 -1      3073 1.24868E+00
 -1      3074 1.29815E+00
 -1      3075 1.34469E+00
 -1      3076 1.38889E+00
 -1      3077 1.43136E+00
 -1      3078 1.47260E+00
 -1      3079 1.51313E+00
 -1      3080 1.55352E+00
 -1      3081 1.59466E+00
 -1      3082 1.63804E+00
 -1      3083 1.68646E+00
 -1      3084 1.74506E+00
 -1      3085 1.82311E+00
 -1      3086 1.98479E+00
 -1      3087 3.06453E+00
 -1      3088 4.65431E+00
 -1      3089 1.03241E+01
 -1      3090 1.94025E+01
 -1      3091 3.28912E+01
 -1      3092 4.97349E+01
 -1      3093 7.28611E+01
 -1      3094 2.08096E+01
 -1      3095 5.59375E+00
 -1      3096 9.33110E-01
 -1      3097 8.54374E-01
 -1      3098 9.02751E-01
 -1      3099 9.73254E-01
 -1      3100 1.04530E+00
 -1      3101 1.10963E+00
 -1      3102 1.16860E+00
 -1      3103 1.22349E+00
 -1      3104 1.27570E+00
 -1      3105 1.32633E+00
 -1      3106 1.37624E+00
 -1      3107 1.42604E+00
 -1      3108 1.47611E+00
 -1      3109 1.52659E+00
 -1      3110 1.58318E+00
 -1      3111 1.64392E+00
 -1      3112 1.70129E+00
 -1      3113 1.74994E+00
 -1      3114 1.78321E+00
 -1      3115 1.97466E+00
 -1      3116 3.16166E+00
 -1      3117 5.55692E+00
 -1      3118 1.56196E+01
 -1      3119 3.66072E+01
 -1      3120 8.29171E+01
 -1      3121 8.29171E+01
 -1      3122 6.91785E+01
 -1      3123 2.51559E+01
 -1      3124 1.91245E+01
 -1      3125 1.76288E+01
 -1      3126 1.70901E+01
 -1      3127 1.68679E+01
 -1      3128 1.68679E+01
 -1      3129 1.70901E+01
 -1      3130 1.76288E+01
 -1      3131 1.91245E+01
 -1      3132 2.51559E+01
 -1      3133 8.49211E+00
 -1      3134 7.29244E+00
 -1      3135 7.29244E+00
 -1      3136 7.11657E+00
 -1      3137 6.80682E+00
 -1      3138 6.80682E+00
 -1      3139 7.11657E+00
 -1      3140 7.29244E+00
 -1      3141 7.29244E+00
 -1      3142 8.49211E+00
 -1      3143 4.58457E+00
 -1      3144 4.11539E+00
 -1      3145 3.82075E+00
 -1      3146 3.88395E+00
 -1      3147 3.88395E+00
 -1      3148 3.88395E+00
 -1      3149 3.88395E+00
 -1      3150 3.82075E+00
 -1      3151 4.11539E+00
 -1      3152 4.58457E+00
 -1      3153 4.14235E+00
 -1      3154 4.08328E+00
 -1      3155 4.00614E+00
 -1      3156 3.91735E+00
 -1      3157 3.84213E+00
 -1      3158 3.84213E+00
 -1      3159 3.91735E+00
 -1      3160 4.00614E+00
 -1      3161 4.08328E+00
 -1      3162 4.14235E+00
 -1      3163 4.09812E+00
 -1      3164 4.08549E+00
 -1      3165 4.08549E+00
 -1      3166 4.05891E+00
 -1      3167 4.01262E+00
 -1      3168 4.01262E+00
 -1      3169 4.05891E+00
 -1      3170 4.08549E+00
 -1      3171 4.08549E+00
 -1      3172 4.09812E+00
 -1      3173 4.06676E+00
 -1      3174 4.09035E+00
 -1      3175 4.09133E+00
 -1      3176 4.09133E+00
 -1      3177 4.06853E+00
 -1      3178 4.06853E+00
 -1      3179 4.09133E+00
 -1      3180 4.09133E+00
 -1      3181 4.09035E+00
 -1      3182 4.06676E+00
 -1      3183 4.05559E+00
 -1      3184 4.09035E+00
 -1      3185 4.09133E+00
 -1      3186 4.09133E+00
 -1      3187 4.07304E+00
 -1      3188 4.07304E+00
 -1      3189 4.09133E+00
 -1      3190 4.09133E+00
 -1      3191 4.09035E+00
 -1      3192 4.05559E+00
 -1      3193 4.03619E+00
 -1      3194 4.07303E+00
 -1      3195 4.08278E+00
 -1      3196 4.08278E+00
 -1      3197 4.07304E+00
 -1      3198 4.07304E+00
 -1      3199 4.08278E+00
 -1      3200 4.08278E+00
 -1      3201 4.07303E+00
 -1      3202 4.03619E+00
 -1      3203 4.01677E+00
 -1      3204 4.05114E+00
 -1      3205 4.06362E+00
 -1      3206 4.06362E+00
 -1      3207 4.06012E+00
 -1      3208 4.06012E+00
 -1      3209 4.06362E+00
 -1      3210 4.06362E+00
 -1      3211 4.05114E+00
 -1      3212 4.01677E+00
 -1      3213 3.99833E+00
 -1      3214 4.03057E+00
 -1      3215 4.04364E+00
 -1      3216 4.04364E+00
 -1      3217 4.04318E+00
 -1      3218 4.04318E+00
 -1      3219 4.04364E+00
 -1      3220 4.04364E+00
 -1      3221 4.03057E+00
 -1      3222 3.99833E+00
 -1      3223 3.98116E+00
 -1      3224 4.01253E+00
 -1      3225 4.02589E+00
 -1      3226 4.02695E+00
 -1      3227 4.02695E+00
 -1      3228 4.02695E+00
 -1      3229 4.02695E+00
 -1      3230 4.02589E+00
 -1      3231 4.01253E+00
 -1      3232 3.98116E+00
 -1      3233 3.96599E+00
 -1      3234 3.99767E+00
 -1      3235 4.01155E+00
 -1      3236 4.01357E+00
 -1      3237 4.01357E+00
 -1      3238 4.01357E+00
 -1      3239 4.01357E+00
 -1      3240 4.01155E+00
 -1      3241 3.99767E+00
 -1      3242 3.96599E+00
 -1      3243 3.95452E+00
 -1      3244 3.98735E+00
 -1      3245 4.00208E+00
 -1      3246 4.00487E+00
 -1      3247 4.00487E+00
 -1      3248 4.00487E+00
 -1      3249 4.00487E+00
 -1      3250 4.00208E+00
 -1      3251 3.98735E+00
 -1      3252 3.95452E+00
 -1      3253 4.02604E+00
 -1      3254 4.00120E+00
 -1      3255 4.00902E+00
 -1      3256 4.01320E+00
 -1      3257 4.01320E+00
 -1      3258 4.01320E+00
 -1      3259 4.01320E+00
 -1      3260 4.00902E+00
 -1      3261 4.00120E+00
 -1      3262 4.02604E+00
 -1      3263 4.13835E+00
 -1      3264 4.09766E+00
 -1      3265 4.07584E+00
 -1      3266 4.05964E+00
 -1      3267 4.04721E+00
 -1      3268 4.04721E+00
 -1      3269 4.05964E+00
 -1      3270 4.07584E+00
 -1      3271 4.09766E+00
 -1      3272 4.13835E+00
 -1      3273 4.29738E+00
 -1      3274 4.23979E+00
 -1      3275 4.21914E+00
 -1      3276 4.20409E+00
 -1      3277 4.19210E+00
 -1      3278 4.19210E+00
 -1      3279 4.20409E+00
 -1      3280 4.21914E+00
 -1      3281 4.23979E+00
 -1      3282 4.29738E+00
 -1      3283 4.55117E+00
 -1      3284 4.46863E+00
 -1      3285 4.43556E+00
 -1      3286 4.41490E+00
 -1      3287 4.40293E+00
 -1      3288 4.40293E+00
 -1      3289 4.41490E+00
 -1      3290 4.43556E+00
 -1      3291 4.46863E+00
 -1      3292 4.55117E+00
 -1      3293 4.94996E+00
 -1      3294 4.83871E+00
 -1      3295 4.79000E+00
 -1      3296 4.75517E+00
 -1      3297 4.72632E+00
 -1      3298 4.72632E+00
 -1      3299 4.75517E+00
 -1      3300 4.79000E+00
 -1      3301 4.83871E+00
 -1      3302 4.94996E+00
 -1      3303 6.39487E+00
 -1      3304 6.00093E+00
 -1      3305 5.83128E+00
 -1      3306 5.69200E+00
 -1      3307 5.57088E+00
 -1      3308 5.57088E+00
 -1      3309 5.69200E+00
 -1      3310 5.83128E+00
 -1      3311 6.00093E+00
 -1      3312 6.39487E+00
 -1      3313 8.61356E+00
 -1      3314 8.11545E+00
 -1      3315 7.87359E+00
 -1      3316 7.65652E+00
 -1      3317 7.45910E+00
 -1      3318 7.45910E+00
 -1      3319 7.65652E+00
 -1      3320 7.87359E+00
 -1      3321 8.11545E+00
 -1      3322 8.61356E+00
 -1      3323 1.18597E+01
 -1      3324 1.12295E+01
 -1      3325 1.08548E+01
 -1      3326 1.05048E+01
 -1      3327 1.01805E+01
 -1      3328 1.01805E+01
 -1      3329 1.05048E+01
 -1      3330 1.08548E+01
 -1      3331 1.12295E+01
 -1      3332 1.18597E+01
 -1      3333 1.65669E+01
 -1      3334 1.57890E+01
 -1      3335 1.51690E+01
 -1      3336 1.45908E+01
 -1      3337 1.40650E+01
 -1      3338 1.40650E+01
 -1      3339 1.45908E+01
 -1      3340 1.51690E+01
 -1      3341 1.57890E+01
 -1      3342 1.65669E+01
 -1      3343 2.35839E+01
 -1      3344 2.24228E+01
 -1      3345 2.13223E+01
 -1      3346 2.03426E+01
 -1      3347 1.95184E+01
 -1      3348 1.95184E+01
 -1      3349 2.03426E+01
 -1      3350 2.13223E+01
 -1      3351 2.24228E+01
 -1      3352 2.35839E+01
 -1      3353 3.42954E+01
 -1      3354 3.20351E+01
 -1      3355 2.99121E+01
 -1      3356 2.82428E+01
 -1      3357 2.69948E+01
 -1      3358 2.69948E+01
 -1      3359 2.82428E+01
 -1      3360 2.99121E+01
 -1      3361 3.20351E+01
 -1      3362 3.42954E+01
 -1      3363 5.10274E+01
 -1      3364 4.62290E+01
 -1      3365 4.19537E+01
 -1      3366 3.89871E+01
 -1      3367 3.71308E+01
 -1      3368 3.71308E+01
 -1      3369 3.89871E+01
 -1      3370 4.19537E+01
 -1      3371 4.62290E+01
 -1      3372 5.10274E+01
 -1      3373 6.51804E+01
 -1      3374 6.51804E+01
 -1      3375 5.93437E+01
 -1      3376 5.39437E+01
 -1      3377 5.11537E+01
 -1      3378 5.11537E+01
 -1      3379 5.39437E+01
 -1      3380 5.93437E+01
 -1      3381 6.51804E+01
 -1      3382 6.51804E+01
 -1      3383 6.52478E+01
 -1      3384 6.51804E+01
 -1      3385 6.14068E+01
 -1      3386 6.30530E+01
 -1      3387 6.30530E+01
 -1      3388 6.30530E+01
 -1      3389 6.30530E+01
 -1      3390 6.14068E+01
 -1      3391 6.51804E+01
 -1      3392 6.52478E+01
 -1      3393 7.47071E+01
 -1      3394 6.94241E+01
 -1      3395 6.83257E+01
 -1      3396 6.85755E+01
 -1      3397 6.85755E+01
 -1      3398 6.85755E+01
 -1      3399 6.85755E+01
 -1      3400 6.83257E+01
 -1      3401 6.94241E+01
 -1      3402 7.47071E+01
 -1      3403 7.47071E+01
 -1      3404 6.94241E+01
 -1      3405 6.83257E+01
 -1      3406 6.85755E+01
 -1      3407 6.85755E+01
 -1      3408 6.85755E+01
 -1      3409 6.85755E+01
 -1      3410 6.83257E+01
 -1      3411 6.94241E+01
 -1      3412 7.47071E+01
 -1      3413 2.04868E+01
 -1      3414 1.25188E+01
 -1      3415 9.62918E+00
 -1      3416 8.20456E+00
 -1      3417 7.45218E+00
 -1      3418 7.45218E+00
 -1      3419 8.20456E+00
 -1      3420 9.62918E+00
 -1      3421 1.25188E+01
 -1      3422 2.04868E+01
 -1      3423 8.49211E+00
 -1      3424 7.29244E+00
 -1      3425 7.29244E+00
 -1      3426 7.11657E+00
 -1      3427 6.80682E+00
 -1      3428 6.80682E+00
 -1      3429 7.11657E+00
 -1      3430 7.29244E+00
 -1      3431 7.29244E+00
 -1      3432 8.49211E+00
 -1      3433 4.87729E+00
 -1      3434 4.29752E+00
 -1      3435 4.04225E+00
 -1      3436 4.13669E+00
 -1      3437 4.13669E+00
 -1      3438 4.13669E+00
 -1      3439 4.13669E+00
 -1      3440 4.04225E+00
 -1      3441 4.29752E+00
 -1      3442 4.87729E+00
 -1      3443 3.95335E+00
 -1      3444 3.87009E+00
 -1      3445 3.74818E+00
 -1      3446 3.65398E+00
 -1      3447 3.57166E+00
 -1      3448 3.57166E+00
 -1      3449 3.65398E+00
 -1      3450 3.74818E+00
 -1      3451 3.87009E+00
 -1      3452 3.95335E+00
 -1      3453 3.81445E+00
 -1      3454 3.81445E+00
 -1      3455 3.77544E+00
 -1      3456 3.73267E+00
 -1      3457 3.67391E+00
 -1      3458 3.67391E+00
 -1      3459 3.73267E+00
 -1      3460 3.77544E+00
 -1      3461 3.81445E+00
 -1      3462 3.81445E+00
 -1      3463 3.77903E+00
 -1      3464 3.77903E+00
 -1      3465 3.77544E+00
 -1      3466 3.75532E+00
 -1      3467 3.72015E+00
 -1      3468 3.72015E+00
 -1      3469 3.75532E+00
 -1      3470 3.77544E+00
 -1      3471 3.77903E+00
 -1      3472 3.77903E+00
 -1      3473 3.78946E+00
 -1      3474 3.78946E+00
 -1      3475 3.77356E+00
 -1      3476 3.75611E+00
 -1      3477 3.73383E+00
 -1      3478 3.73383E+00
 -1      3479 3.75611E+00
 -1      3480 3.77356E+00
 -1      3481 3.78946E+00
 -1      3482 3.78946E+00
 -1      3483 3.80923E+00
 -1      3484 3.80923E+00
 -1      3485 3.78922E+00
 -1      3486 3.76595E+00
 -1      3487 3.74411E+00
 -1      3488 3.74411E+00
 -1      3489 3.76595E+00
 -1      3490 3.78922E+00
 -1      3491 3.80923E+00
 -1      3492 3.80923E+00
 -1      3493 3.83247E+00
 -1      3494 3.82716E+00
 -1      3495 3.80590E+00
 -1      3496 3.78532E+00
 -1      3497 3.76591E+00
 -1      3498 3.76591E+00
 -1      3499 3.78532E+00
 -1      3500 3.80590E+00
 -1      3501 3.82716E+00
 -1      3502 3.83247E+00
 -1      3503 3.85402E+00
 -1      3504 3.84481E+00
 -1      3505 3.82263E+00
 -1      3506 3.80630E+00
 -1      3507 3.78993E+00
 -1      3508 3.78993E+00
 -1      3509 3.80630E+00
 -1      3510 3.82263E+00
 -1      3511 3.84481E+00
 -1      3512 3.85402E+00
 -1      3513 3.89580E+00
 -1      3514 3.88956E+00
 -1      3515 3.87932E+00
 -1      3516 3.86369E+00
 -1      3517 3.84823E+00
 -1      3518 3.84823E+00
 -1      3519 3.86369E+00
 -1      3520 3.87932E+00
 -1      3521 3.88956E+00
 -1      3522 3.89580E+00
 -1      3523 3.96404E+00
 -1      3524 3.95571E+00
 -1      3525 3.94444E+00
 -1      3526 3.92864E+00
 -1      3527 3.91364E+00
 -1      3528 3.91364E+00
 -1      3529 3.92864E+00
 -1      3530 3.94444E+00
 -1      3531 3.95571E+00
 -1      3532 3.96404E+00
 -1      3533 4.04673E+00
 -1      3534 4.03645E+00
 -1      3535 4.02421E+00
 -1      3536 4.00814E+00
 -1      3537 3.99337E+00
 -1      3538 3.99337E+00
 -1      3539 4.00814E+00
 -1      3540 4.02421E+00
 -1      3541 4.03645E+00
 -1      3542 4.04673E+00
 -1      3543 4.15334E+00
 -1      3544 4.14083E+00
 -1      3545 4.12747E+00
 -1      3546 4.11097E+00
 -1      3547 4.09621E+00
 -1      3548 4.09621E+00
 -1      3549 4.11097E+00
 -1      3550 4.12747E+00
 -1      3551 4.14083E+00
 -1      3552 4.15334E+00
 -1      3553 4.29537E+00
 -1      3554 4.28018E+00
 -1      3555 4.26547E+00
 -1      3556 4.24830E+00
 -1      3557 4.23325E+00
 -1      3558 4.23325E+00
 -1      3559 4.24830E+00
 -1      3560 4.26547E+00
 -1      3561 4.28018E+00
 -1      3562 4.29537E+00
 -1      3563 4.48729E+00
 -1      3564 4.46912E+00
 -1      3565 4.45295E+00
 -1      3566 4.43490E+00
 -1      3567 4.41910E+00
 -1      3568 4.41910E+00
 -1      3569 4.43490E+00
 -1      3570 4.45295E+00
 -1      3571 4.46912E+00
 -1      3572 4.48729E+00
 -1      3573 4.74762E+00
 -1      3574 4.72695E+00
 -1      3575 4.70972E+00
 -1      3576 4.69068E+00
 -1      3577 4.67335E+00
 -1      3578 4.67335E+00
 -1      3579 4.69068E+00
 -1      3580 4.70972E+00
 -1      3581 4.72695E+00
 -1      3582 4.74762E+00
 -1      3583 5.26940E+00
 -1      3584 5.21351E+00
 -1      3585 5.16846E+00
 -1      3586 5.11487E+00
 -1      3587 5.06058E+00
 -1      3588 5.06058E+00
 -1      3589 5.11487E+00
 -1      3590 5.16846E+00
 -1      3591 5.21351E+00
 -1      3592 5.26940E+00
 -1      3593 6.77631E+00
 -1      3594 6.51242E+00
 -1      3595 6.47431E+00
 -1      3596 6.41795E+00
 -1      3597 6.34809E+00
 -1      3598 6.34809E+00
 -1      3599 6.41795E+00
 -1      3600 6.47431E+00
 -1      3601 6.51242E+00
 -1      3602 6.77631E+00
 -1      3603 9.42286E+00
 -1      3604 8.99900E+00
 -1      3605 8.65289E+00
 -1      3606 8.35433E+00
 -1      3607 8.11839E+00
 -1      3608 8.11839E+00
 -1      3609 8.35433E+00
 -1      3610 8.65289E+00
 -1      3611 8.99900E+00
 -1      3612 9.42286E+00
 -1      3613 1.32412E+01
 -1      3614 1.25535E+01
 -1      3615 1.19956E+01
 -1      3616 1.15212E+01
 -1      3617 1.11323E+01
 -1      3618 1.11323E+01
 -1      3619 1.15212E+01
 -1      3620 1.19956E+01
 -1      3621 1.25535E+01
 -1      3622 1.32412E+01
 -1      3623 1.88053E+01
 -1      3624 1.76188E+01
 -1      3625 1.66851E+01
 -1      3626 1.59153E+01
 -1      3627 1.52901E+01
 -1      3628 1.52901E+01
 -1      3629 1.59153E+01
 -1      3630 1.66851E+01
 -1      3631 1.76188E+01
 -1      3632 1.88053E+01
 -1      3633 2.68057E+01
 -1      3634 2.45711E+01
 -1      3635 2.29637E+01
 -1      3636 2.17273E+01
 -1      3637 2.07506E+01
 -1      3638 2.07506E+01
 -1      3639 2.17273E+01
 -1      3640 2.29637E+01
 -1      3641 2.45711E+01
 -1      3642 2.68057E+01
 -1      3643 3.42954E+01
 -1      3644 3.25076E+01
 -1      3645 3.03918E+01
 -1      3646 2.85207E+01
 -1      3647 2.69948E+01
 -1      3648 2.69948E+01
 -1      3649 2.85207E+01
 -1      3650 3.03918E+01
 -1      3651 3.25076E+01
 -1      3652 3.42954E+01
 -1      3653 5.10274E+01
 -1      3654 4.62290E+01
 -1      3655 4.19537E+01
 -1      3656 3.89871E+01
 -1      3657 3.80478E+01
 -1      3658 3.80478E+01
 -1      3659 3.89871E+01
 -1      3660 4.19537E+01
 -1      3661 4.62290E+01
 -1      3662 5.10274E+01
 -1      3663 6.51804E+01
 -1      3664 6.51804E+01
 -1      3665 5.93437E+01
 -1      3666 5.39437E+01
 -1      3667 5.11537E+01
 -1      3668 5.11537E+01
 -1      3669 5.39437E+01
 -1      3670 5.93437E+01
 -1      3671 6.51804E+01
 -1      3672 6.51804E+01
 -1      3673 6.51804E+01
 -1      3674 6.51804E+01
 -1      3675 6.14068E+01
 -1      3676 6.30530E+01
 -1      3677 6.30530E+01
 -1      3678 6.30530E+01
 -1      3679 6.30530E+01
 -1      3680 6.14068E+01
 -1      3681 6.51804E+01
 -1      3682 6.51804E+01
 -1      3683 5.58130E+01
 -1      3684 5.75589E+01
 -1      3685 6.14068E+01
 -1      3686 6.30530E+01
 -1      3687 6.30530E+01
 -1      3688 6.30530E+01
 -1      3689 6.30530E+01
 -1      3690 6.14068E+01
 -1      3691 5.75589E+01
 -1      3692 5.58130E+01
 -1      3693 5.28762E+01
 -1      3694 5.03168E+01
 -1      3695 4.96714E+01
 -1      3696 4.90663E+01
 -1      3697 4.89750E+01
 -1      3698 4.89750E+01
 -1      3699 4.90663E+01
 -1      3700 4.96714E+01
 -1      3701 5.03168E+01
 -1      3702 5.28762E+01
 -1      3703 1.89426E+01
 -1      3704 1.09407E+01
 -1      3705 7.81588E+00
 -1      3706 6.19727E+00
 -1      3707 5.30611E+00
 -1      3708 5.30611E+00
 -1      3709 6.19727E+00
 -1      3710 7.81588E+00
 -1      3711 1.09407E+01
 -1      3712 1.89426E+01
 -1      3713 8.24652E+00
 -1      3714 5.13733E+00
 -1      3715 5.13733E+00
 -1      3716 4.99135E+00
 -1      3717 4.85926E+00
 -1      3718 4.85926E+00
 -1      3719 4.99135E+00
 -1      3720 5.13733E+00
 -1      3721 5.13733E+00
 -1      3722 8.24652E+00
 -1      3723 4.87729E+00
 -1      3724 4.29752E+00
 -1      3725 4.04225E+00
 -1      3726 4.13669E+00
 -1      3727 4.13669E+00
 -1      3728 4.13669E+00
 -1      3729 4.13669E+00
 -1      3730 4.04225E+00
 -1      3731 4.29752E+00
 -1      3732 4.87729E+00
 -1      3733 3.92924E+00
 -1      3734 3.87862E+00
 -1      3735 3.76211E+00
 -1      3736 3.64007E+00
 -1      3737 3.58085E+00
 -1      3738 3.58085E+00
 -1      3739 3.64007E+00
 -1      3740 3.76211E+00
 -1      3741 3.87862E+00
 -1      3742 3.92924E+00
 -1      3743 3.69305E+00
 -1      3744 3.69305E+00
 -1      3745 3.65790E+00
 -1      3746 3.58200E+00
 -1      3747 3.52084E+00
 -1      3748 3.52084E+00
 -1      3749 3.58200E+00
 -1      3750 3.65790E+00
 -1      3751 3.69305E+00
 -1      3752 3.69305E+00
 -1      3753 3.60207E+00
 -1      3754 3.60409E+00
 -1      3755 3.60409E+00
 -1      3756 3.57486E+00
 -1      3757 3.52870E+00
 -1      3758 3.52870E+00
 -1      3759 3.57486E+00
 -1      3760 3.60409E+00
 -1      3761 3.60409E+00
 -1      3762 3.60207E+00
 -1      3763 3.65410E+00
 -1      3764 3.65410E+00
 -1      3765 3.65383E+00
 -1      3766 3.63312E+00
 -1      3767 3.60261E+00
 -1      3768 3.60261E+00
 -1      3769 3.63312E+00
 -1      3770 3.65383E+00
 -1      3771 3.65410E+00
 -1      3772 3.65410E+00
 -1      3773 3.71420E+00
 -1      3774 3.71420E+00
 -1      3775 3.71056E+00
 -1      3776 3.69356E+00
 -1      3777 3.67123E+00
 -1      3778 3.67123E+00
 -1      3779 3.69356E+00
 -1      3780 3.71056E+00
 -1      3781 3.71420E+00
 -1      3782 3.71420E+00
 -1      3783 3.79031E+00
 -1      3784 3.78232E+00
 -1      3785 3.77458E+00
 -1      3786 3.76433E+00
 -1      3787 3.75171E+00
 -1      3788 3.75171E+00
 -1      3789 3.76433E+00
 -1      3790 3.77458E+00
 -1      3791 3.78232E+00
 -1      3792 3.79031E+00
 -1      3793 3.87567E+00
 -1      3794 3.86334E+00
 -1      3795 3.85339E+00
 -1      3796 3.84296E+00
 -1      3797 3.83171E+00
 -1      3798 3.83171E+00
 -1      3799 3.84296E+00
 -1      3800 3.85339E+00
 -1      3801 3.86334E+00
 -1      3802 3.87567E+00
 -1      3803 3.96017E+00
 -1      3804 3.94531E+00
 -1      3805 3.93393E+00
 -1      3806 3.92315E+00
 -1      3807 3.91244E+00
 -1      3808 3.91244E+00
 -1      3809 3.92315E+00
 -1      3810 3.93393E+00
 -1      3811 3.94531E+00
 -1      3812 3.96017E+00
 -1      3813 4.05022E+00
 -1      3814 4.03354E+00
 -1      3815 4.02109E+00
 -1      3816 4.00992E+00
 -1      3817 3.99938E+00
 -1      3818 3.99938E+00
 -1      3819 4.00992E+00
 -1      3820 4.02109E+00
 -1      3821 4.03354E+00
 -1      3822 4.05022E+00
 -1      3823 4.15373E+00
 -1      3824 4.13528E+00
 -1      3825 4.12174E+00
 -1      3826 4.11007E+00
 -1      3827 4.09948E+00
 -1      3828 4.09948E+00
 -1      3829 4.11007E+00
 -1      3830 4.12174E+00
 -1      3831 4.13528E+00
 -1      3832 4.15373E+00
 -1      3833 4.28000E+00
 -1      3834 4.25942E+00
 -1      3835 4.24456E+00
 -1      3836 4.23215E+00
 -1      3837 4.22122E+00
 -1      3838 4.22122E+00
 -1      3839 4.23215E+00
 -1      3840 4.24456E+00
 -1      3841 4.25942E+00
 -1      3842 4.28000E+00
 -1      3843 4.44023E+00
 -1      3844 4.41695E+00
 -1      3845 4.40037E+00
 -1      3846 4.38687E+00
 -1      3847 4.37520E+00
 -1      3848 4.37520E+00
 -1      3849 4.38687E+00
 -1      3850 4.40037E+00
 -1      3851 4.41695E+00
 -1      3852 4.44023E+00
 -1      3853 4.64827E+00
 -1      3854 4.62171E+00
 -1      3855 4.60301E+00
 -1      3856 4.58798E+00
 -1      3857 4.57496E+00
 -1      3858 4.57496E+00
 -1      3859 4.58798E+00
 -1      3860 4.60301E+00
 -1      3861 4.62171E+00
 -1      3862 4.64827E+00
 -1      3863 4.92181E+00
 -1      3864 4.89172E+00
 -1      3865 4.87071E+00
 -1      3866 4.85366E+00
 -1      3867 4.83838E+00
 -1      3868 4.83838E+00
 -1      3869 4.85366E+00
 -1      3870 4.87071E+00
 -1      3871 4.89172E+00
 -1      3872 4.92181E+00
 -1      3873 5.76088E+00
 -1      3874 5.67262E+00
 -1      3875 5.61100E+00
 -1      3876 5.55866E+00
 -1      3877 5.50768E+00
 -1      3878 5.50768E+00
 -1      3879 5.55866E+00
 -1      3880 5.61100E+00
 -1      3881 5.67262E+00
 -1      3882 5.76088E+00
 -1      3883 7.05085E+00
 -1      3884 6.96199E+00
 -1      3885 6.89858E+00
 -1      3886 6.83816E+00
 -1      3887 6.77050E+00
 -1      3888 6.77050E+00
 -1      3889 6.83816E+00
 -1      3890 6.89858E+00
 -1      3891 6.96199E+00
 -1      3892 7.05085E+00
 -1      3893 9.42286E+00
 -1      3894 8.99900E+00
 -1      3895 8.65289E+00
 -1      3896 8.56135E+00
 -1      3897 8.46675E+00
 -1      3898 8.46675E+00
 -1      3899 8.56135E+00
 -1      3900 8.65289E+00
 -1      3901 8.99900E+00
 -1      3902 9.42286E+00
 -1      3903 1.32412E+01
 -1      3904 1.25535E+01
 -1      3905 1.19956E+01
 -1      3906 1.15212E+01
 -1      3907 1.11323E+01
 -1      3908 1.11323E+01
 -1      3909 1.15212E+01
 -1      3910 1.19956E+01
 -1      3911 1.25535E+01
 -1      3912 1.32412E+01
 -1      3913 1.88053E+01
 -1      3914 1.76188E+01
 -1      3915 1.66851E+01
 -1      3916 1.59153E+01
 -1      3917 1.52901E+01
 -1      3918 1.52901E+01
 -1      3919 1.59153E+01
 -1      3920 1.66851E+01
 -1      3921 1.76188E+01
 -1      3922 1.88053E+01
 -1      3923 2.68057E+01
 -1      3924 2.45711E+01
 -1      3925 2.29637E+01
 -1      3926 2.17273E+01
 -1      3927 2.07506E+01
 -1      3928 2.07506E+01
 -1      3929 2.17273E+01
 -1      3930 2.29637E+01
 -1      3931 2.45711E+01
 -1      3932 2.68057E+01
 -1      3933 3.25076E+01
 -1      3934 3.25076E+01
 -1      3935 3.03918E+01
 -1      3936 2.85207E+01
 -1      3937 2.69506E+01
 -1      3938 2.69506E+01
 -1      3939 2.85207E+01
 -1      3940 3.03918E+01
 -1      3941 3.25076E+01
 -1      3942 3.25076E+01
 -1      3943 3.25076E+01
 -1      3944 3.65750E+01
 -1      3945 3.85221E+01
 -1      3946 3.85221E+01
 -1      3947 3.80478E+01
 -1      3948 3.80478E+01
 -1      3949 3.85221E+01
 -1      3950 3.85221E+01
 -1      3951 3.65750E+01
 -1      3952 3.25076E+01
 -1      3953 3.18939E+01
 -1      3954 3.65750E+01
 -1      3955 4.65025E+01
 -1      3956 4.68448E+01
 -1      3957 4.68448E+01
 -1      3958 4.68448E+01
 -1      3959 4.68448E+01
 -1      3960 4.65025E+01
 -1      3961 3.65750E+01
 -1      3962 3.18939E+01
 -1      3963 3.84029E+01
 -1      3964 3.73029E+01
 -1      3965 4.65025E+01
 -1      3966 4.68448E+01
 -1      3967 4.68448E+01
 -1      3968 4.68448E+01
 -1      3969 4.68448E+01
 -1      3970 4.65025E+01
 -1      3971 3.73029E+01
 -1      3972 3.84029E+01
 -1      3973 3.84029E+01
 -1      3974 3.73029E+01
 -1      3975 3.71824E+01
 -1      3976 3.68219E+01
 -1      3977 3.64862E+01
 -1      3978 3.64862E+01
 -1      3979 3.68219E+01
 -1      3980 3.71824E+01
 -1      3981 3.73029E+01
 -1      3982 3.84029E+01
 -1      3983 3.65746E+01
 -1      3984 3.65746E+01
 -1      3985 3.56266E+01
 -1      3986 3.51971E+01
 -1      3987 3.48105E+01
 -1      3988 3.48105E+01
 -1      3989 3.51971E+01
 -1      3990 3.56266E+01
 -1      3991 3.65746E+01
 -1      3992 3.65746E+01
 -1      3993 1.79165E+01
 -1      3994 9.99993E+00
 -1      3995 6.74852E+00
 -1      3996 5.02837E+00
 -1      3997 4.64977E+00
 -1      3998 4.64977E+00
 -1      3999 5.02837E+00
 -1      4000 6.74852E+00
 -1      4001 9.99993E+00
 -1      4002 1.79165E+01
 -1      4003 8.58452E+00
 -1      4004 4.64958E+00
 -1      4005 4.64958E+00
 -1      4006 4.62022E+00
 -1      4007 4.49915E+00
 -1      4008 4.49915E+00
 -1      4009 4.62022E+00
 -1      4010 4.64958E+00
 -1      4011 4.64958E+00
 -1      4012 8.58452E+00
 -1      4013 4.63874E+00
 -1      4014 4.10700E+00
 -1      4015 3.76211E+00
 -1      4016 3.87371E+00
 -1      4017 3.87786E+00
 -1      4018 3.87786E+00
 -1      4019 3.87371E+00
 -1      4020 3.76211E+00
 -1      4021 4.10700E+00
 -1      4022 4.63874E+00
 -1      4023 3.89875E+00
 -1      4024 3.87862E+00
 -1      4025 3.76211E+00
 -1      4026 3.64007E+00
 -1      4027 3.58085E+00
 -1      4028 3.58085E+00
 -1      4029 3.64007E+00
 -1      4030 3.76211E+00
 -1      4031 3.87862E+00
 -1      4032 3.89875E+00
 -1      4033 3.64221E+00
 -1      4034 3.64221E+00
 -1      4035 3.61765E+00
 -1      4036 3.55508E+00
 -1      4037 3.48471E+00
 -1      4038 3.48471E+00
 -1      4039 3.55508E+00
 -1      4040 3.61765E+00
 -1      4041 3.64221E+00
 -1      4042 3.64221E+00
 -1      4043 3.59794E+00
 -1      4044 3.59886E+00
 -1      4045 3.59886E+00
 -1      4046 3.57989E+00
 -1      4047 3.54762E+00
 -1      4048 3.54762E+00
 -1      4049 3.57989E+00
 -1      4050 3.59886E+00
 -1      4051 3.59886E+00
 -1      4052 3.59794E+00
 -1      4053 3.66759E+00
 -1      4054 3.66759E+00
 -1      4055 3.66531E+00
 -1      4056 3.65346E+00
 -1      4057 3.63467E+00
 -1      4058 3.63467E+00
 -1      4059 3.65346E+00
 -1      4060 3.66531E+00
 -1      4061 3.66759E+00
 -1      4062 3.66759E+00
 -1      4063 3.75775E+00
 -1      4064 3.75603E+00
 -1      4065 3.75024E+00
 -1      4066 3.74069E+00
 -1      4067 3.72832E+00
 -1      4068 3.72832E+00
 -1      4069 3.74069E+00
 -1      4070 3.75024E+00
 -1      4071 3.75603E+00
 -1      4072 3.75775E+00
 -1      4073 3.85547E+00
 -1      4074 3.84785E+00
 -1      4075 3.83940E+00
 -1      4076 3.83032E+00
 -1      4077 3.82068E+00
 -1      4078 3.82068E+00
 -1      4079 3.83032E+00
 -1      4080 3.83940E+00
 -1      4081 3.84785E+00
 -1      4082 3.85547E+00
 -1      4083 3.94846E+00
 -1      4084 3.93785E+00
 -1      4085 3.92786E+00
 -1      4086 3.91868E+00
 -1      4087 3.91014E+00
 -1      4088 3.91014E+00
 -1      4089 3.91868E+00
 -1      4090 3.92786E+00
 -1      4091 3.93785E+00
 -1      4092 3.94846E+00
 -1      4093 4.03911E+00
 -1      4094 4.02704E+00
 -1      4095 4.01623E+00
 -1      4096 4.00693E+00
 -1      4097 3.99884E+00
 -1      4098 3.99884E+00
 -1      4099 4.00693E+00
 -1      4100 4.01623E+00
 -1      4101 4.02704E+00
 -1      4102 4.03911E+00
 -1      4103 4.13247E+00
 -1      4104 4.11957E+00
 -1      4105 4.10830E+00
 -1      4106 4.09889E+00
 -1      4107 4.09103E+00
 -1      4108 4.09103E+00
 -1      4109 4.09889E+00
 -1      4110 4.10830E+00
 -1      4111 4.11957E+00
 -1      4112 4.13247E+00
 -1      4113 4.23477E+00
 -1      4114 4.22118E+00
 -1      4115 4.20954E+00
 -1      4116 4.20002E+00
 -1      4117 4.19223E+00
 -1      4118 4.19223E+00
 -1      4119 4.20002E+00
 -1      4120 4.20954E+00
 -1      4121 4.22118E+00
 -1      4122 4.23477E+00
 -1      4123 4.35277E+00
 -1      4124 4.33848E+00
 -1      4125 4.32646E+00
 -1      4126 4.31676E+00
 -1      4127 4.30888E+00
 -1      4128 4.30888E+00
 -1      4129 4.31676E+00
 -1      4130 4.32646E+00
 -1      4131 4.33848E+00
 -1      4132 4.35277E+00
 -1      4133 4.49335E+00
 -1      4134 4.47848E+00
 -1      4135 4.46617E+00
 -1      4136 4.45627E+00
 -1      4137 4.44813E+00
 -1      4138 4.44813E+00
 -1      4139 4.45627E+00
 -1      4140 4.46617E+00
 -1      4141 4.47848E+00
 -1      4142 4.49335E+00
 -1      4143 4.66258E+00
 -1      4144 4.64789E+00
 -1      4145 4.63583E+00
 -1      4146 4.62596E+00
 -1      4147 4.61744E+00
 -1      4148 4.61744E+00
 -1      4149 4.62596E+00
 -1      4150 4.63583E+00
 -1      4151 4.64789E+00
 -1      4152 4.66258E+00
 -1      4153 4.92181E+00
 -1      4154 4.89172E+00
 -1      4155 4.87071E+00
 -1      4156 4.85366E+00
 -1      4157 4.83838E+00
 -1      4158 4.83838E+00
 -1      4159 4.85366E+00
 -1      4160 4.87071E+00
 -1      4161 4.89172E+00
 -1      4162 4.92181E+00
 -1      4163 5.76088E+00
 -1      4164 5.67262E+00
 -1      4165 5.61100E+00
 -1      4166 5.55866E+00
 -1      4167 5.50768E+00
 -1      4168 5.50768E+00
 -1      4169 5.55866E+00
 -1      4170 5.61100E+00
 -1      4171 5.67262E+00
 -1      4172 5.76088E+00
 -1      4173 7.05085E+00
 -1      4174 6.96199E+00
 -1      4175 6.89858E+00
 -1      4176 6.83816E+00
 -1      4177 6.77050E+00
 -1      4178 6.77050E+00
 -1      4179 6.83816E+00
 -1      4180 6.89858E+00
 -1      4181 6.96199E+00
 -1      4182 7.05085E+00
 -1      4183 8.75523E+00
 -1      4184 8.68558E+00
 -1      4185 8.63035E+00
 -1      4186 8.56135E+00
 -1      4187 8.46675E+00
 -1      4188 8.46675E+00
 -1      4189 8.56135E+00
 -1      4190 8.63035E+00
 -1      4191 8.68558E+00
 -1      4192 8.75523E+00
 -1      4193 1.08798E+01
 -1      4194 1.08816E+01
 -1      4195 1.08816E+01
 -1      4196 1.08225E+01
 -1      4197 1.06960E+01
 -1      4198 1.06960E+01
 -1      4199 1.08225E+01
 -1      4200 1.08816E+01
 -1      4201 1.08816E+01
 -1      4202 1.08798E+01
 -1      4203 1.28984E+01
 -1      4204 1.32918E+01
 -1      4205 1.34148E+01
 -1      4206 1.34148E+01
 -1      4207 1.33298E+01
 -1      4208 1.33298E+01
 -1      4209 1.34148E+01
 -1      4210 1.34148E+01
 -1      4211 1.32918E+01
 -1      4212 1.28984E+01
 -1      4213 1.28984E+01
 -1      4214 1.45500E+01
 -1      4215 1.54013E+01
 -1      4216 1.56493E+01
 -1      4217 1.56493E+01
 -1      4218 1.56493E+01
 -1      4219 1.56493E+01
 -1      4220 1.54013E+01
 -1      4221 1.45500E+01
 -1      4222 1.28984E+01
 -1      4223 1.37993E+01
 -1      4224 1.61892E+01
 -1      4225 1.76300E+01
 -1      4226 1.83303E+01
 -1      4227 1.83515E+01
 -1      4228 1.83515E+01
 -1      4229 1.83303E+01
 -1      4230 1.76300E+01
 -1      4231 1.61892E+01
 -1      4232 1.37993E+01
 -1      4233 2.03818E+01
 -1      4234 2.33439E+01
 -1      4235 2.48460E+01
 -1      4236 2.55332E+01
 -1      4237 2.56644E+01
 -1      4238 2.56644E+01
 -1      4239 2.55332E+01
 -1      4240 2.48460E+01
 -1      4241 2.33439E+01
 -1      4242 2.03818E+01
 -1      4243 2.77725E+01
 -1      4244 2.74296E+01
 -1      4245 2.71841E+01
 -1      4246 2.68203E+01
 -1      4247 2.63331E+01
 -1      4248 2.63331E+01
 -1      4249 2.68203E+01
 -1      4250 2.71841E+01
 -1      4251 2.74296E+01
 -1      4252 2.77725E+01
 -1      4253 3.02551E+01
 -1      4254 3.00802E+01
 -1      4255 2.95387E+01
 -1      4256 2.91781E+01
 -1      4257 2.88042E+01
 -1      4258 2.88042E+01
 -1      4259 2.91781E+01
 -1      4260 2.95387E+01
 -1      4261 3.00802E+01
 -1      4262 3.02551E+01
 -1      4263 3.02551E+01
 -1      4264 3.00802E+01
 -1      4265 2.95387E+01
 -1      4266 2.91781E+01
 -1      4267 2.88042E+01
 -1      4268 2.88042E+01
 -1      4269 2.91781E+01
 -1      4270 2.95387E+01
 -1      4271 3.00802E+01
 -1      4272 3.02551E+01
 -1      4273 2.43597E+01
 -1      4274 2.32478E+01
 -1      4275 2.30032E+01
 -1      4276 2.26839E+01
 -1      4277 2.24479E+01
 -1      4278 2.24479E+01
 -1      4279 2.26839E+01
 -1      4280 2.30032E+01
 -1      4281 2.32478E+01
 -1      4282 2.43597E+01
 -1      4283 1.71239E+01
 -1      4284 9.50039E+00
 -1      4285 6.20617E+00
 -1      4286 4.79029E+00
 -1      4287 4.41465E+00
 -1      4288 4.41465E+00
 -1      4289 4.79029E+00
 -1      4290 6.20617E+00
 -1      4291 9.50039E+00
 -1      4292 1.71239E+01
 -1      4293 9.05067E+00
 -1      4294 4.32089E+00
 -1      4295 4.32153E+00
 -1      4296 4.32153E+00
 -1      4297 4.21290E+00
 -1      4298 4.21290E+00
 -1      4299 4.32153E+00
 -1      4300 4.32153E+00
 -1      4301 4.32089E+00
 -1      4302 9.05067E+00
 -1      4303 4.41627E+00
 -1      4304 4.16701E+00
 -1      4305 3.70600E+00
 -1      4306 3.67069E+00
 -1      4307 3.69075E+00
 -1      4308 3.69075E+00
 -1      4309 3.67069E+00
 -1      4310 3.70600E+00
 -1      4311 4.16701E+00
 -1      4312 4.41627E+00
 -1      4313 3.80857E+00
 -1      4314 3.80850E+00
 -1      4315 3.70600E+00
 -1      4316 3.58895E+00
 -1      4317 3.50837E+00
 -1      4318 3.50837E+00
 -1      4319 3.58895E+00
 -1      4320 3.70600E+00
 -1      4321 3.80850E+00
 -1      4322 3.80857E+00
 -1      4323 3.67024E+00
 -1      4324 3.67024E+00
 -1      4325 3.65116E+00
 -1      4326 3.61774E+00
 -1      4327 3.56621E+00
 -1      4328 3.56621E+00
 -1      4329 3.61774E+00
 -1      4330 3.65116E+00
 -1      4331 3.67024E+00
 -1      4332 3.67024E+00
 -1      4333 3.69905E+00
 -1      4334 3.69905E+00
 -1      4335 3.69790E+00
 -1      4336 3.68013E+00
 -1      4337 3.65123E+00
 -1      4338 3.65123E+00
 -1      4339 3.68013E+00
 -1      4340 3.69790E+00
 -1      4341 3.69905E+00
 -1      4342 3.69905E+00
 -1      4343 3.77816E+00
 -1      4344 3.77816E+00
 -1      4345 3.77440E+00
 -1      4346 3.76346E+00
 -1      4347 3.74732E+00
 -1      4348 3.74732E+00
 -1      4349 3.76346E+00
 -1      4350 3.77440E+00
 -1      4351 3.77816E+00
 -1      4352 3.77816E+00
 -1      4353 3.87301E+00
 -1      4354 3.86837E+00
 -1      4355 3.86221E+00
 -1      4356 3.85363E+00
 -1      4357 3.84327E+00
 -1      4358 3.84327E+00
 -1      4359 3.85363E+00
 -1      4360 3.86221E+00
 -1      4361 3.86837E+00
 -1      4362 3.87301E+00
 -1      4363 3.96545E+00
 -1      4364 3.95723E+00
 -1      4365 3.94963E+00
 -1      4366 3.94185E+00
 -1      4367 3.93396E+00
 -1      4368 3.93396E+00
 -1      4369 3.94185E+00
 -1      4370 3.94963E+00
 -1      4371 3.95723E+00
 -1      4372 3.96545E+00
 -1      4373 4.04948E+00
 -1      4374 4.04018E+00
 -1      4375 4.03219E+00
 -1      4376 4.02486E+00
 -1      4377 4.01812E+00
 -1      4378 4.01812E+00
 -1      4379 4.02486E+00
 -1      4380 4.03219E+00
 -1      4381 4.04018E+00
 -1      4382 4.04948E+00
 -1      4383 4.12665E+00
 -1      4384 4.11756E+00
 -1      4385 4.10987E+00
 -1      4386 4.10307E+00
 -1      4387 4.09705E+00
 -1      4388 4.09705E+00
 -1      4389 4.10307E+00
 -1      4390 4.10987E+00
 -1      4391 4.11756E+00
 -1      4392 4.12665E+00
 -1      4393 4.20008E+00
 -1      4394 4.19182E+00
 -1      4395 4.18486E+00
 -1      4396 4.17875E+00
 -1      4397 4.17340E+00
 -1      4398 4.17340E+00
 -1      4399 4.17875E+00
 -1      4400 4.18486E+00
 -1      4401 4.19182E+00
 -1      4402 4.20008E+00
 -1      4403 4.27283E+00
 -1      4404 4.26585E+00
 -1      4405 4.25999E+00
 -1      4406 4.25480E+00
 -1      4407 4.25015E+00
 -1      4408 4.25015E+00
 -1      4409 4.25480E+00
 -1      4410 4.25999E+00
 -1      4411 4.26585E+00
 -1      4412 4.27283E+00
 -1      4413 4.35277E+00
 -1      4414 4.34174E+00
 -1      4415 4.33751E+00
 -1      4416 4.33360E+00
 -1      4417 4.32980E+00
 -1      4418 4.32980E+00
 -1      4419 4.33360E+00
 -1      4420 4.33751E+00
 -1      4421 4.34174E+00
 -1      4422 4.35277E+00
 -1      4423 4.49335E+00
 -1      4424 4.47848E+00
 -1      4425 4.46617E+00
 -1      4426 4.45627E+00
 -1      4427 4.44813E+00
 -1      4428 4.44813E+00
 -1      4429 4.45627E+00
 -1      4430 4.46617E+00
 -1      4431 4.47848E+00
 -1      4432 4.49335E+00
 -1      4433 4.66258E+00
 -1      4434 4.64789E+00
 -1      4435 4.63583E+00
 -1      4436 4.62596E+00
 -1      4437 4.61744E+00
 -1      4438 4.61744E+00
 -1      4439 4.62596E+00
 -1      4440 4.63583E+00
 -1      4441 4.64789E+00
 -1      4442 4.66258E+00
 -1      4443 4.86309E+00
 -1      4444 4.85101E+00
 -1      4445 4.84096E+00
 -1      4446 4.83214E+00
 -1      4447 4.82343E+00
 -1      4448 4.82343E+00
 -1      4449 4.83214E+00
 -1      4450 4.84096E+00
 -1      4451 4.85101E+00
 -1      4452 4.86309E+00
 -1      4453 5.23258E+00
 -1      4454 5.22549E+00
 -1      4455 5.21732E+00
 -1      4456 5.20464E+00
 -1      4457 5.18391E+00
 -1      4458 5.18391E+00
 -1      4459 5.20464E+00
 -1      4460 5.21732E+00
 -1      4461 5.22549E+00
 -1      4462 5.23258E+00
 -1      4463 5.86383E+00
 -1      4464 5.90930E+00
 -1      4465 5.92983E+00
 -1      4466 5.92983E+00
 -1      4467 5.92246E+00
 -1      4468 5.92246E+00
 -1      4469 5.92983E+00
 -1      4470 5.92983E+00
 -1      4471 5.90930E+00
 -1      4472 5.86383E+00
 -1      4473 6.33394E+00
 -1      4474 6.51768E+00
 -1      4475 6.62604E+00
 -1      4476 6.66156E+00
 -1      4477 6.66156E+00
 -1      4478 6.66156E+00
 -1      4479 6.66156E+00
 -1      4480 6.62604E+00
 -1      4481 6.51768E+00
 -1      4482 6.33394E+00
 -1      4483 6.38507E+00
 -1      4484 6.86704E+00
 -1      4485 7.16727E+00
 -1      4486 7.30548E+00
 -1      4487 7.30548E+00
 -1      4488 7.30548E+00
 -1      4489 7.30548E+00
 -1      4490 7.16727E+00
 -1      4491 6.86704E+00
 -1      4492 6.38507E+00
 -1      4493 6.43446E+00
 -1      4494 7.24279E+00
 -1      4495 7.77231E+00
 -1      4496 8.05260E+00
 -1      4497 8.10240E+00
 -1      4498 8.10240E+00
 -1      4499 8.05260E+00
 -1      4500 7.77231E+00
 -1      4501 7.24279E+00
 -1      4502 6.43446E+00
 -1      4503 7.62687E+00
 -1      4504 8.77394E+00
 -1      4505 9.53165E+00
 -1      4506 9.92678E+00
 -1      4507 9.99600E+00
 -1      4508 9.99600E+00
 -1      4509 9.92678E+00
 -1      4510 9.53165E+00
 -1      4511 8.77394E+00
 -1      4512 7.62687E+00
 -1      4513 1.48746E+01
 -1      4514 1.45829E+01
 -1      4515 1.42818E+01
 -1      4516 1.47105E+01
 -1      4517 1.47946E+01
 -1      4518 1.47946E+01
 -1      4519 1.47105E+01
 -1      4520 1.42818E+01
 -1      4521 1.45829E+01
 -1      4522 1.48746E+01
 -1      4523 2.03818E+01
 -1      4524 2.01024E+01
 -1      4525 1.98154E+01
 -1      4526 1.94320E+01
 -1      4527 1.89685E+01
 -1      4528 1.89685E+01
 -1      4529 1.94320E+01
 -1      4530 1.98154E+01
 -1      4531 2.01024E+01
 -1      4532 2.03818E+01
 -1      4533 2.42841E+01
 -1      4534 2.38981E+01
 -1      4535 2.35146E+01
 -1      4536 2.31614E+01
 -1      4537 2.27854E+01
 -1      4538 2.27854E+01
 -1      4539 2.31614E+01
 -1      4540 2.35146E+01
 -1      4541 2.38981E+01
 -1      4542 2.42841E+01
 -1      4543 2.42841E+01
 -1      4544 2.38981E+01
 -1      4545 2.35146E+01
 -1      4546 2.31614E+01
 -1      4547 2.27854E+01
 -1      4548 2.27854E+01
 -1      4549 2.31614E+01
 -1      4550 2.35146E+01
 -1      4551 2.38981E+01
 -1      4552 2.42841E+01
 -1      4553 2.35010E+01
 -1      4554 2.27543E+01
 -1      4555 2.23498E+01
 -1      4556 2.19604E+01
 -1      4557 2.16393E+01
 -1      4558 2.16393E+01
 -1      4559 2.19604E+01
 -1      4560 2.23498E+01
 -1      4561 2.27543E+01
 -1      4562 2.35010E+01
 -1      4563 1.69797E+01
 -1      4564 1.57132E+01
 -1      4565 1.49929E+01
 -1      4566 1.47443E+01
 -1      4567 1.45858E+01
 -1      4568 1.45858E+01
 -1      4569 1.47443E+01
 -1      4570 1.49929E+01
 -1      4571 1.57132E+01
 -1      4572 1.69797E+01
 -1      4573 1.64792E+01
 -1      4574 9.19355E+00
 -1      4575 5.91039E+00
 -1      4576 4.67110E+00
 -1      4577 4.28574E+00
 -1      4578 4.28574E+00
 -1      4579 4.67110E+00
 -1      4580 5.91039E+00
 -1      4581 9.19355E+00
 -1      4582 1.64792E+01
 -1      4583 9.63300E+00
 -1      4584 4.30095E+00
 -1      4585 4.13124E+00
 -1      4586 4.13124E+00
 -1      4587 4.03812E+00
 -1      4588 4.03812E+00
 -1      4589 4.13124E+00
 -1      4590 4.13124E+00
 -1      4591 4.30095E+00
 -1      4592 9.63300E+00
 -1      4593 4.30095E+00
 -1      4594 4.30095E+00
 -1      4595 3.70028E+00
 -1      4596 3.57692E+00
 -1      4597 3.55088E+00
 -1      4598 3.55088E+00
 -1      4599 3.57692E+00
 -1      4600 3.70028E+00
 -1      4601 4.30095E+00
 -1      4602 4.30095E+00
 -1      4603 3.76825E+00
 -1      4604 3.76825E+00
 -1      4605 3.73205E+00
 -1      4606 3.67587E+00
 -1      4607 3.59137E+00
 -1      4608 3.59137E+00
 -1      4609 3.67587E+00
 -1      4610 3.73205E+00
 -1      4611 3.76825E+00
 -1      4612 3.76825E+00
 -1      4613 3.78869E+00
 -1      4614 3.78869E+00
 -1      4615 3.78295E+00
 -1      4616 3.75139E+00
 -1      4617 3.70378E+00
 -1      4618 3.70378E+00
 -1      4619 3.75139E+00
 -1      4620 3.78295E+00
 -1      4621 3.78869E+00
 -1      4622 3.78869E+00
 -1      4623 3.85897E+00
 -1      4624 3.85897E+00
 -1      4625 3.85592E+00
 -1      4626 3.83951E+00
 -1      4627 3.81412E+00
 -1      4628 3.81412E+00
 -1      4629 3.83951E+00
 -1      4630 3.85592E+00
 -1      4631 3.85897E+00
 -1      4632 3.85897E+00
 -1      4633 3.94320E+00
 -1      4634 3.94320E+00
 -1      4635 3.93848E+00
 -1      4636 3.92877E+00
 -1      4637 3.91531E+00
 -1      4638 3.91531E+00
 -1      4639 3.92877E+00
 -1      4640 3.93848E+00
 -1      4641 3.94320E+00
 -1      4642 3.94320E+00
 -1      4643 4.02880E+00
 -1      4644 4.02388E+00
 -1      4645 4.01826E+00
 -1      4646 4.01127E+00
 -1      4647 4.00314E+00
 -1      4648 4.00314E+00
 -1      4649 4.01127E+00
 -1      4650 4.01826E+00
 -1      4651 4.02388E+00
 -1      4652 4.02880E+00
 -1      4653 4.09922E+00
 -1      4654 4.09332E+00
 -1      4655 4.08782E+00
 -1      4656 4.08232E+00
 -1      4657 4.07668E+00
 -1      4658 4.07668E+00
 -1      4659 4.08232E+00
 -1      4660 4.08782E+00
 -1      4661 4.09332E+00
 -1      4662 4.09922E+00
 -1      4663 4.15412E+00
 -1      4664 4.14929E+00
 -1      4665 4.14487E+00
 -1      4666 4.14066E+00
 -1      4667 4.13650E+00
 -1      4668 4.13650E+00
 -1      4669 4.14066E+00
 -1      4670 4.14487E+00
 -1      4671 4.14929E+00
 -1      4672 4.15412E+00
 -1      4673 4.19525E+00
 -1      4674 4.19248E+00
 -1      4675 4.18974E+00
 -1      4676 4.18698E+00
 -1      4677 4.18407E+00
 -1      4678 4.18407E+00
 -1      4679 4.18698E+00
 -1      4680 4.18974E+00
 -1      4681 4.19248E+00
 -1      4682 4.19525E+00
 -1      4683 4.22439E+00
 -1      4684 4.22424E+00
 -1      4685 4.22364E+00
 -1      4686 4.22259E+00
 -1      4687 4.22100E+00
 -1      4688 4.22100E+00
 -1      4689 4.22259E+00
 -1      4690 4.22364E+00
 -1      4691 4.22424E+00
 -1      4692 4.22439E+00
 -1      4693 4.27283E+00
 -1      4694 4.26585E+00
 -1      4695 4.25999E+00
 -1      4696 4.25480E+00
 -1      4697 4.25015E+00
 -1      4698 4.25015E+00
 -1      4699 4.25480E+00
 -1      4700 4.25999E+00
 -1      4701 4.26585E+00
 -1      4702 4.27283E+00
 -1      4703 4.34675E+00
 -1      4704 4.34174E+00
 -1      4705 4.33751E+00
 -1      4706 4.33360E+00
 -1      4707 4.32980E+00
 -1      4708 4.32980E+00
 -1      4709 4.33360E+00
 -1      4710 4.33751E+00
 -1      4711 4.34174E+00
 -1      4712 4.34675E+00
 -1      4713 4.42101E+00
 -1      4714 4.41937E+00
 -1      4715 4.41788E+00
 -1      4716 4.41597E+00
 -1      4717 4.41340E+00
 -1      4718 4.41340E+00
 -1      4719 4.41597E+00
 -1      4720 4.41788E+00
 -1      4721 4.41937E+00
 -1      4722 4.42101E+00
 -1      4723 4.49462E+00
 -1      4724 4.49811E+00
 -1      4725 4.49979E+00
 -1      4726 4.49979E+00
 -1      4727 4.49929E+00
 -1      4728 4.49929E+00
 -1      4729 4.49979E+00
 -1      4730 4.49979E+00
 -1      4731 4.49811E+00
 -1      4732 4.49462E+00
 -1      4733 4.55694E+00
 -1      4734 4.56996E+00
 -1      4735 4.57841E+00
 -1      4736 4.58185E+00
 -1      4737 4.58185E+00
 -1      4738 4.58185E+00
 -1      4739 4.58185E+00
 -1      4740 4.57841E+00
 -1      4741 4.56996E+00
 -1      4742 4.55694E+00
 -1      4743 4.58834E+00
 -1      4744 4.61949E+00
 -1      4745 4.64080E+00
 -1      4746 4.65183E+00
 -1      4747 4.65232E+00
 -1      4748 4.65232E+00
 -1      4749 4.65183E+00
 -1      4750 4.64080E+00
 -1      4751 4.61949E+00
 -1      4752 4.58834E+00
 -1      4753 4.58834E+00
 -1      4754 4.63947E+00
 -1      4755 4.68191E+00
 -1      4756 4.70533E+00
 -1      4757 4.70956E+00
 -1      4758 4.70956E+00
 -1      4759 4.70533E+00
 -1      4760 4.68191E+00
 -1      4761 4.63947E+00
 -1      4762 4.58834E+00
 -1      4763 4.57791E+00
 -1      4764 4.65802E+00
 -1      4765 4.72938E+00
 -1      4766 4.76847E+00
 -1      4767 4.77546E+00
 -1      4768 4.77546E+00
 -1      4769 4.76847E+00
 -1      4770 4.72938E+00
 -1      4771 4.65802E+00
 -1      4772 4.57791E+00
 -1      4773 4.60089E+00
 -1      4774 4.76231E+00
 -1      4775 4.87185E+00
 -1      4776 4.93140E+00
 -1      4777 4.94193E+00
 -1      4778 4.94193E+00
 -1      4779 4.93140E+00
 -1      4780 4.87185E+00
 -1      4781 4.76231E+00
 -1      4782 4.60089E+00
 -1      4783 5.21331E+00
 -1      4784 5.57809E+00
 -1      4785 5.83733E+00
 -1      4786 6.05758E+00
 -1      4787 6.09609E+00
 -1      4788 6.09609E+00
 -1      4789 6.05758E+00
 -1      4790 5.83733E+00
 -1      4791 5.57809E+00
 -1      4792 5.21331E+00
 -1      4793 8.70018E+00
 -1      4794 9.12830E+00
 -1      4795 9.39505E+00
 -1      4796 9.50525E+00
 -1      4797 9.50525E+00
 -1      4798 9.50525E+00
 -1      4799 9.50525E+00
 -1      4800 9.39505E+00
 -1      4801 9.12830E+00
 -1      4802 8.70018E+00
 -1      4803 1.48746E+01
 -1      4804 1.45829E+01
 -1      4805 1.42818E+01
 -1      4806 1.39520E+01
 -1      4807 1.36010E+01
 -1      4808 1.36010E+01
 -1      4809 1.39520E+01
 -1      4810 1.42818E+01
 -1      4811 1.45829E+01
 -1      4812 1.48746E+01
 -1      4813 1.89678E+01
 -1      4814 1.85977E+01
 -1      4815 1.82483E+01
 -1      4816 1.79186E+01
 -1      4817 1.75896E+01
 -1      4818 1.75896E+01
 -1      4819 1.79186E+01
 -1      4820 1.82483E+01
 -1      4821 1.85977E+01
 -1      4822 1.89678E+01
 -1      4823 2.03014E+01
 -1      4824 1.97819E+01
 -1      4825 1.93967E+01
 -1      4826 1.90550E+01
 -1      4827 1.87436E+01
 -1      4828 1.87436E+01
 -1      4829 1.90550E+01
 -1      4830 1.93967E+01
 -1      4831 1.97819E+01
 -1      4832 2.03014E+01
 -1      4833 2.03014E+01
 -1      4834 1.97819E+01
 -1      4835 1.93967E+01
 -1      4836 1.90550E+01
 -1      4837 1.87436E+01
 -1      4838 1.87436E+01
 -1      4839 1.90550E+01
 -1      4840 1.93967E+01
 -1      4841 1.97819E+01
 -1      4842 2.03014E+01
 -1      4843 1.81798E+01
 -1      4844 1.75093E+01
 -1      4845 1.69839E+01
 -1      4846 1.66158E+01
 -1      4847 1.63234E+01
 -1      4848 1.63234E+01
 -1      4849 1.66158E+01
 -1      4850 1.69839E+01
 -1      4851 1.75093E+01
 -1      4852 1.81798E+01
 -1      4853 1.19545E+01
 -1      4854 1.09853E+01
 -1      4855 1.02775E+01
 -1      4856 9.86580E+00
 -1      4857 9.67112E+00
 -1      4858 9.67112E+00
 -1      4859 9.86580E+00
 -1      4860 1.02775E+01
 -1      4861 1.09853E+01
 -1      4862 1.19545E+01
 -1      4863 1.59582E+01
 -1      4864 9.02569E+00
 -1      4865 5.77970E+00
 -1      4866 4.61970E+00
 -1      4867 4.22776E+00
 -1      4868 4.22776E+00
 -1      4869 4.61970E+00
 -1      4870 5.77970E+00
 -1      4871 9.02569E+00
 -1      4872 1.59582E+01
 -1      4873 1.03776E+01
 -1      4874 4.49329E+00
 -1      4875 4.01674E+00
 -1      4876 4.01674E+00
 -1      4877 3.94135E+00
 -1      4878 3.94135E+00
 -1      4879 4.01674E+00
 -1      4880 4.01674E+00
 -1      4881 4.49329E+00
 -1      4882 1.03776E+01
 -1      4883 4.49329E+00
 -1      4884 4.49329E+00
 -1      4885 3.80018E+00
 -1      4886 3.68057E+00
 -1      4887 3.58473E+00
 -1      4888 3.58473E+00
 -1      4889 3.68057E+00
 -1      4890 3.80018E+00
 -1      4891 4.49329E+00
 -1      4892 4.49329E+00
 -1      4893 3.90783E+00
 -1      4894 3.90783E+00
 -1      4895 3.89118E+00
 -1      4896 3.83895E+00
 -1      4897 3.75758E+00
 -1      4898 3.75758E+00
 -1      4899 3.83895E+00
 -1      4900 3.89118E+00
 -1      4901 3.90783E+00
 -1      4902 3.90783E+00
 -1      4903 3.99049E+00
 -1      4904 3.99049E+00
 -1      4905 3.98443E+00
 -1      4906 3.95551E+00
 -1      4907 3.91270E+00
 -1      4908 3.91270E+00
 -1      4909 3.95551E+00
 -1      4910 3.98443E+00
 -1      4911 3.99049E+00
 -1      4912 3.99049E+00
 -1      4913 4.07466E+00
 -1      4914 4.07466E+00
 -1      4915 4.07141E+00
 -1      4916 4.05741E+00
 -1      4917 4.03621E+00
 -1      4918 4.03621E+00
 -1      4919 4.05741E+00
 -1      4920 4.07141E+00
 -1      4921 4.07466E+00
 -1      4922 4.07466E+00
 -1      4923 4.14680E+00
 -1      4924 4.14675E+00
 -1      4925 4.14325E+00
 -1      4926 4.13606E+00
 -1      4927 4.12605E+00
 -1      4928 4.12605E+00
 -1      4929 4.13606E+00
 -1      4930 4.14325E+00
 -1      4931 4.14675E+00
 -1      4932 4.14680E+00
 -1      4933 4.19939E+00
 -1      4934 4.19729E+00
 -1      4935 4.19462E+00
 -1      4936 4.19074E+00
 -1      4937 4.18578E+00
 -1      4938 4.18578E+00
 -1      4939 4.19074E+00
 -1      4940 4.19462E+00
 -1      4941 4.19729E+00
 -1      4942 4.19939E+00
 -1      4943 4.22630E+00
 -1      4944 4.22568E+00
 -1      4945 4.22471E+00
 -1      4946 4.22311E+00
 -1      4947 4.22080E+00
 -1      4948 4.22080E+00
 -1      4949 4.22311E+00
 -1      4950 4.22471E+00
 -1      4951 4.22568E+00
 -1      4952 4.22630E+00
 -1      4953 4.23408E+00
 -1      4954 4.23545E+00
 -1      4955 4.23593E+00
 -1      4956 4.23593E+00
 -1      4957 4.23547E+00
 -1      4958 4.23547E+00
 -1      4959 4.23593E+00
 -1      4960 4.23593E+00
 -1      4961 4.23545E+00
 -1      4962 4.23408E+00
 -1      4963 4.23408E+00
 -1      4964 4.23545E+00
 -1      4965 4.23593E+00
 -1      4966 4.23593E+00
 -1      4967 4.23547E+00
 -1      4968 4.23547E+00
 -1      4969 4.23593E+00
 -1      4970 4.23593E+00
 -1      4971 4.23545E+00
 -1      4972 4.23408E+00
 -1      4973 4.22528E+00
 -1      4974 4.22931E+00
 -1      4975 4.23194E+00
 -1      4976 4.23317E+00
 -1      4977 4.23317E+00
 -1      4978 4.23317E+00
 -1      4979 4.23317E+00
 -1      4980 4.23194E+00
 -1      4981 4.22931E+00
 -1      4982 4.22528E+00
 -1      4983 4.24530E+00
 -1      4984 4.24738E+00
 -1      4985 4.24845E+00
 -1      4986 4.24845E+00
 -1      4987 4.24838E+00
 -1      4988 4.24838E+00
 -1      4989 4.24845E+00
 -1      4990 4.24845E+00
 -1      4991 4.24738E+00
 -1      4992 4.24530E+00
 -1      4993 4.25490E+00
 -1      4994 4.26057E+00
 -1      4995 4.26439E+00
 -1      4996 4.26624E+00
 -1      4997 4.26624E+00
 -1      4998 4.26624E+00
 -1      4999 4.26624E+00
 -1      5000 4.26439E+00
 -1      5001 4.26057E+00
 -1      5002 4.25490E+00
 -1      5003 4.25490E+00
 -1      5004 4.26168E+00
 -1      5005 4.26938E+00
 -1      5006 4.27366E+00
 -1      5007 4.27447E+00
 -1      5008 4.27447E+00
 -1      5009 4.27366E+00
 -1      5010 4.26938E+00
 -1      5011 4.26168E+00
 -1      5012 4.25490E+00
 -1      5013 4.25073E+00
 -1      5014 4.26168E+00
 -1      5015 4.26938E+00
 -1      5016 4.27366E+00
 -1      5017 4.27447E+00
 -1      5018 4.27447E+00
 -1      5019 4.27366E+00
 -1      5020 4.26938E+00
 -1      5021 4.26168E+00
 -1      5022 4.25073E+00
 -1      5023 4.23329E+00
 -1      5024 4.25074E+00
 -1      5025 4.26297E+00
 -1      5026 4.26975E+00
 -1      5027 4.27100E+00
 -1      5028 4.27100E+00
 -1      5029 4.26975E+00
 -1      5030 4.26297E+00
 -1      5031 4.25074E+00
 -1      5032 4.23329E+00
 -1      5033 4.19730E+00
 -1      5034 4.22471E+00
 -1      5035 4.24386E+00
 -1      5036 4.25445E+00
 -1      5037 4.25638E+00
 -1      5038 4.25638E+00
 -1      5039 4.25445E+00
 -1      5040 4.24386E+00
 -1      5041 4.22471E+00
 -1      5042 4.19730E+00
 -1      5043 4.14913E+00
 -1      5044 4.19131E+00
 -1      5045 4.22432E+00
 -1      5046 4.24713E+00
 -1      5047 4.25022E+00
 -1      5048 4.25022E+00
 -1      5049 4.24713E+00
 -1      5050 4.22432E+00
 -1      5051 4.19131E+00
 -1      5052 4.14913E+00
 -1      5053 4.17716E+00
 -1      5054 4.26166E+00
 -1      5055 4.31897E+00
 -1      5056 4.34864E+00
 -1      5057 4.35039E+00
 -1      5058 4.35039E+00
 -1      5059 4.34864E+00
 -1      5060 4.31897E+00
 -1      5061 4.26166E+00
 -1      5062 4.17716E+00
 -1      5063 4.54994E+00
 -1      5064 4.62194E+00
 -1      5065 4.66650E+00
 -1      5066 4.68318E+00
 -1      5067 4.68318E+00
 -1      5068 4.68318E+00
 -1      5069 4.68318E+00
 -1      5070 4.66650E+00
 -1      5071 4.62194E+00
 -1      5072 4.54994E+00
 -1      5073 5.94855E+00
 -1      5074 6.17562E+00
 -1      5075 6.31127E+00
 -1      5076 6.35498E+00
 -1      5077 6.35498E+00
 -1      5078 6.35498E+00
 -1      5079 6.35498E+00
 -1      5080 6.31127E+00
 -1      5081 6.17562E+00
 -1      5082 5.94855E+00
 -1      5083 9.68431E+00
 -1      5084 9.94267E+00
 -1      5085 1.00905E+01
 -1      5086 1.01281E+01
 -1      5087 1.01281E+01
 -1      5088 1.01281E+01
 -1      5089 1.01281E+01
 -1      5090 1.00905E+01
 -1      5091 9.94267E+00
 -1      5092 9.68431E+00
 -1      5093 1.45163E+01
 -1      5094 1.41862E+01
 -1      5095 1.38819E+01
 -1      5096 1.35996E+01
 -1      5097 1.33394E+01
 -1      5098 1.33394E+01
 -1      5099 1.35996E+01
 -1      5100 1.38819E+01
 -1      5101 1.41862E+01
 -1      5102 1.45163E+01
 -1      5103 1.66573E+01
 -1      5104 1.62670E+01
 -1      5105 1.59348E+01
 -1      5106 1.56386E+01
 -1      5107 1.53740E+01
 -1      5108 1.53740E+01
 -1      5109 1.56386E+01
 -1      5110 1.59348E+01
 -1      5111 1.62670E+01
 -1      5112 1.66573E+01
 -1      5113 1.67553E+01
 -1      5114 1.62957E+01
 -1      5115 1.59348E+01
 -1      5116 1.56386E+01
 -1      5117 1.53740E+01
 -1      5118 1.53740E+01
 -1      5119 1.56386E+01
 -1      5120 1.59348E+01
 -1      5121 1.62957E+01
 -1      5122 1.67553E+01
 -1      5123 1.67553E+01
 -1      5124 1.62957E+01
 -1      5125 1.59178E+01
 -1      5126 1.56026E+01
 -1      5127 1.53308E+01
 -1      5128 1.53308E+01
 -1      5129 1.56026E+01
 -1      5130 1.59178E+01
 -1      5131 1.62957E+01
 -1      5132 1.67553E+01
 -1      5133 1.41995E+01
 -1      5134 1.36592E+01
 -1      5135 1.31998E+01
 -1      5136 1.28262E+01
 -1      5137 1.25463E+01
 -1      5138 1.25463E+01
 -1      5139 1.28262E+01
 -1      5140 1.31998E+01
 -1      5141 1.36592E+01
 -1      5142 1.41995E+01
 -1      5143 8.54691E+00
 -1      5144 7.77454E+00
 -1      5145 7.17689E+00
 -1      5146 6.86858E+00
 -1      5147 6.71566E+00
 -1      5148 6.71566E+00
 -1      5149 6.86858E+00
 -1      5150 7.17689E+00
 -1      5151 7.77454E+00
 -1      5152 8.54691E+00
 -1      5153 1.55536E+01
 -1      5154 9.01637E+00
 -1      5155 5.88520E+00
 -1      5156 4.66249E+00
 -1      5157 4.26238E+00
 -1      5158 4.26238E+00
 -1      5159 4.66249E+00
 -1      5160 5.88520E+00
 -1      5161 9.01637E+00
 -1      5162 1.55536E+01
 -1      5163 1.13482E+01
 -1      5164 4.75010E+00
 -1      5165 4.02889E+00
 -1      5166 3.99893E+00
 -1      5167 3.96273E+00
 -1      5168 3.96273E+00
 -1      5169 3.99893E+00
 -1      5170 4.02889E+00
 -1      5171 4.75010E+00
 -1      5172 1.13482E+01
 -1      5173 4.75010E+00
 -1      5174 4.75010E+00
 -1      5175 4.02889E+00
 -1      5176 3.89107E+00
 -1      5177 3.79061E+00
 -1      5178 3.79061E+00
 -1      5179 3.89107E+00
 -1      5180 4.02889E+00
 -1      5181 4.75010E+00
 -1      5182 4.75010E+00
 -1      5183 4.16325E+00
 -1      5184 4.16325E+00
 -1      5185 4.14888E+00
 -1      5186 4.10110E+00
 -1      5187 4.02425E+00
 -1      5188 4.02425E+00
 -1      5189 4.10110E+00
 -1      5190 4.14888E+00
 -1      5191 4.16325E+00
 -1      5192 4.16325E+00
 -1      5193 4.26196E+00
 -1      5194 4.26196E+00
 -1      5195 4.25777E+00
 -1      5196 4.23334E+00
 -1      5197 4.19677E+00
 -1      5198 4.19677E+00
 -1      5199 4.23334E+00
 -1      5200 4.25777E+00
 -1      5201 4.26196E+00
 -1      5202 4.26196E+00
 -1      5203 4.32476E+00
 -1      5204 4.32476E+00
 -1      5205 4.32452E+00
 -1      5206 4.31528E+00
 -1      5207 4.29979E+00
 -1      5208 4.29979E+00
 -1      5209 4.31528E+00
 -1      5210 4.32452E+00
 -1      5211 4.32476E+00
 -1      5212 4.32476E+00
 -1      5213 4.35151E+00
 -1      5214 4.35263E+00
 -1      5215 4.35263E+00
 -1      5216 4.35039E+00
 -1      5217 4.34531E+00
 -1      5218 4.34531E+00
 -1      5219 4.35039E+00
 -1      5220 4.35263E+00
 -1      5221 4.35263E+00
 -1      5222 4.35151E+00
 -1      5223 4.35151E+00
 -1      5224 4.35263E+00
 -1      5225 4.35263E+00
 -1      5226 4.35052E+00
 -1      5227 4.35012E+00
 -1      5228 4.35012E+00
 -1      5229 4.35052E+00
 -1      5230 4.35263E+00
 -1      5231 4.35263E+00
 -1      5232 4.35151E+00
 -1      5233 4.34585E+00
 -1      5234 4.34912E+00
 -1      5235 4.35052E+00
 -1      5236 4.35052E+00
 -1      5237 4.35012E+00
 -1      5238 4.35012E+00
 -1      5239 4.35052E+00
 -1      5240 4.35052E+00
 -1      5241 4.34912E+00
 -1      5242 4.34585E+00
 -1      5243 4.31655E+00
 -1      5244 4.32210E+00
 -1      5245 4.32585E+00
 -1      5246 4.32785E+00
 -1      5247 4.32818E+00
 -1      5248 4.32818E+00
 -1      5249 4.32785E+00
 -1      5250 4.32585E+00
 -1      5251 4.32210E+00
 -1      5252 4.31655E+00
 -1      5253 4.27362E+00
 -1      5254 4.28078E+00
 -1      5255 4.28560E+00
 -1      5256 4.28818E+00
 -1      5257 4.28855E+00
 -1      5258 4.28855E+00
 -1      5259 4.28818E+00
 -1      5260 4.28560E+00
 -1      5261 4.28078E+00
 -1      5262 4.27362E+00
 -1      5263 4.22528E+00
 -1      5264 4.22931E+00
 -1      5265 4.23324E+00
 -1      5266 4.23556E+00
 -1      5267 4.23556E+00
 -1      5268 4.23556E+00
 -1      5269 4.23556E+00
 -1      5270 4.23324E+00
 -1      5271 4.22931E+00
 -1      5272 4.22528E+00
 -1      5273 4.20333E+00
 -1      5274 4.20983E+00
 -1      5275 4.21432E+00
 -1      5276 4.21681E+00
 -1      5277 4.21729E+00
 -1      5278 4.21729E+00
 -1      5279 4.21681E+00
 -1      5280 4.21432E+00
 -1      5281 4.20983E+00
 -1      5282 4.20333E+00
 -1      5283 4.17060E+00
 -1      5284 4.17917E+00
 -1      5285 4.18509E+00
 -1      5286 4.18830E+00
 -1      5287 4.18878E+00
 -1      5288 4.18878E+00
 -1      5289 4.18830E+00
 -1      5290 4.18509E+00
 -1      5291 4.17917E+00
 -1      5292 4.17060E+00
 -1      5293 4.12718E+00
 -1      5294 4.13800E+00
 -1      5295 4.14529E+00
 -1      5296 4.14895E+00
 -1      5297 4.14895E+00
 -1      5298 4.14895E+00
 -1      5299 4.14895E+00
 -1      5300 4.14529E+00
 -1      5301 4.13800E+00
 -1      5302 4.12718E+00
 -1      5303 4.07235E+00
 -1      5304 4.08657E+00
 -1      5305 4.09600E+00
 -1      5306 4.10054E+00
 -1      5307 4.10054E+00
 -1      5308 4.10054E+00
 -1      5309 4.10054E+00
 -1      5310 4.09600E+00
 -1      5311 4.08657E+00
 -1      5312 4.07235E+00
 -1      5313 4.01063E+00
 -1      5314 4.02977E+00
 -1      5315 4.04237E+00
 -1      5316 4.04828E+00
 -1      5317 4.04828E+00
 -1      5318 4.04828E+00
 -1      5319 4.04828E+00
 -1      5320 4.04237E+00
 -1      5321 4.02977E+00
 -1      5322 4.01063E+00
 -1      5323 3.95303E+00
 -1      5324 3.97896E+00
 -1      5325 3.99596E+00
 -1      5326 4.00378E+00
 -1      5327 4.00378E+00
 -1      5328 4.00378E+00
 -1      5329 4.00378E+00
 -1      5330 3.99596E+00
 -1      5331 3.97896E+00
 -1      5332 3.95303E+00
 -1      5333 3.96449E+00
 -1      5334 4.00608E+00
 -1      5335 4.03568E+00
 -1      5336 4.04852E+00
 -1      5337 4.04852E+00
 -1      5338 4.04852E+00
 -1      5339 4.04852E+00
 -1      5340 4.03568E+00
 -1      5341 4.00608E+00
 -1      5342 3.96449E+00
 -1      5343 4.23687E+00
 -1      5344 4.27562E+00
 -1      5345 4.29791E+00
 -1      5346 4.30330E+00
 -1      5347 4.30330E+00
 -1      5348 4.30330E+00
 -1      5349 4.30330E+00
 -1      5350 4.29791E+00
 -1      5351 4.27562E+00
 -1      5352 4.23687E+00
 -1      5353 4.75404E+00
 -1      5354 4.79932E+00
 -1      5355 4.82444E+00
 -1      5356 4.82895E+00
 -1      5357 4.82895E+00
 -1      5358 4.82895E+00
 -1      5359 4.82895E+00
 -1      5360 4.82444E+00
 -1      5361 4.79932E+00
 -1      5362 4.75404E+00
 -1      5363 6.69339E+00
 -1      5364 6.82981E+00
 -1      5365 6.90143E+00
 -1      5366 6.90707E+00
 -1      5367 6.90707E+00
 -1      5368 6.90707E+00
 -1      5369 6.90707E+00
 -1      5370 6.90143E+00
 -1      5371 6.82981E+00
 -1      5372 6.69339E+00
 -1      5373 1.01932E+01
 -1      5374 9.94267E+00
 -1      5375 1.00905E+01
 -1      5376 1.01281E+01
 -1      5377 1.01281E+01
 -1      5378 1.01281E+01
 -1      5379 1.01281E+01
 -1      5380 1.00905E+01
 -1      5381 9.94267E+00
 -1      5382 1.01932E+01
 -1      5383 1.32367E+01
 -1      5384 1.29248E+01
 -1      5385 1.26481E+01
 -1      5386 1.24028E+01
 -1      5387 1.21901E+01
 -1      5388 1.21901E+01
 -1      5389 1.24028E+01
 -1      5390 1.26481E+01
 -1      5391 1.29248E+01
 -1      5392 1.32367E+01
 -1      5393 1.43610E+01
 -1      5394 1.40181E+01
 -1      5395 1.37190E+01
 -1      5396 1.34597E+01
 -1      5397 1.32359E+01
 -1      5398 1.32359E+01
 -1      5399 1.34597E+01
 -1      5400 1.37190E+01
 -1      5401 1.40181E+01
 -1      5402 1.43610E+01
 -1      5403 1.43610E+01
 -1      5404 1.40181E+01
 -1      5405 1.37190E+01
 -1      5406 1.34597E+01
 -1      5407 1.32359E+01
 -1      5408 1.32359E+01
 -1      5409 1.34597E+01
 -1      5410 1.37190E+01
 -1      5411 1.40181E+01
 -1      5412 1.43610E+01
 -1      5413 1.38470E+01
 -1      5414 1.34706E+01
 -1      5415 1.31466E+01
 -1      5416 1.28642E+01
 -1      5417 1.26239E+01
 -1      5418 1.26239E+01
 -1      5419 1.28642E+01
 -1      5420 1.31466E+01
 -1      5421 1.34706E+01
 -1      5422 1.38470E+01
 -1      5423 1.11881E+01
 -1      5424 1.07784E+01
 -1      5425 1.03987E+01
 -1      5426 1.00734E+01
 -1      5427 9.81088E+00
 -1      5428 9.81088E+00
 -1      5429 1.00734E+01
 -1      5430 1.03987E+01
 -1      5431 1.07784E+01
 -1      5432 1.11881E+01
 -1      5433 6.28148E+00
 -1      5434 5.97484E+00
 -1      5435 5.71775E+00
 -1      5436 5.54033E+00
 -1      5437 5.41259E+00
 -1      5438 5.41259E+00
 -1      5439 5.54033E+00
 -1      5440 5.71775E+00
 -1      5441 5.97484E+00
 -1      5442 6.28148E+00
 -1      5443 1.52674E+01
 -1      5444 9.18011E+00
 -1      5445 6.11619E+00
 -1      5446 4.75274E+00
 -1      5447 4.34968E+00
 -1      5448 4.34968E+00
 -1      5449 4.75274E+00
 -1      5450 6.11619E+00
 -1      5451 9.18011E+00
 -1      5452 1.52674E+01
 -1      5453 1.26479E+01
 -1      5454 5.19430E+00
 -1      5455 4.39158E+00
 -1      5456 4.11696E+00
 -1      5457 4.10181E+00
 -1      5458 4.10181E+00
 -1      5459 4.11696E+00
 -1      5460 4.39158E+00
 -1      5461 5.19430E+00
 -1      5462 1.26479E+01
 -1      5463 5.19430E+00
 -1      5464 5.19430E+00
 -1      5465 4.39158E+00
 -1      5466 4.24659E+00
 -1      5467 4.14218E+00
 -1      5468 4.14218E+00
 -1      5469 4.24659E+00
 -1      5470 4.39158E+00
 -1      5471 5.19430E+00
 -1      5472 5.19430E+00
 -1      5473 4.51650E+00
 -1      5474 4.51650E+00
 -1      5475 4.50759E+00
 -1      5476 4.46679E+00
 -1      5477 4.39724E+00
 -1      5478 4.39724E+00
 -1      5479 4.46679E+00
 -1      5480 4.50759E+00
 -1      5481 4.51650E+00
 -1      5482 4.51650E+00
 -1      5483 4.55797E+00
 -1      5484 4.56115E+00
 -1      5485 4.56115E+00
 -1      5486 4.54570E+00
 -1      5487 4.51856E+00
 -1      5488 4.51856E+00
 -1      5489 4.54570E+00
 -1      5490 4.56115E+00
 -1      5491 4.56115E+00
 -1      5492 4.55797E+00
 -1      5493 4.55797E+00
 -1      5494 4.56115E+00
 -1      5495 4.56115E+00
 -1      5496 4.54792E+00
 -1      5497 4.54075E+00
 -1      5498 4.54075E+00
 -1      5499 4.54792E+00
 -1      5500 4.56115E+00
 -1      5501 4.56115E+00
 -1      5502 4.55797E+00
 -1      5503 4.54057E+00
 -1      5504 4.54855E+00
 -1      5505 4.54855E+00
 -1      5506 4.54792E+00
 -1      5507 4.54075E+00
 -1      5508 4.54075E+00
 -1      5509 4.54792E+00
 -1      5510 4.54855E+00
 -1      5511 4.54855E+00
 -1      5512 4.54057E+00
 -1      5513 4.49315E+00
 -1      5514 4.49954E+00
 -1      5515 4.50486E+00
 -1      5516 4.50649E+00
 -1      5517 4.50649E+00
 -1      5518 4.50649E+00
 -1      5519 4.50649E+00
 -1      5520 4.50486E+00
 -1      5521 4.49954E+00
 -1      5522 4.49315E+00
 -1      5523 4.43118E+00
 -1      5524 4.43854E+00
 -1      5525 4.44330E+00
 -1      5526 4.44586E+00
 -1      5527 4.44606E+00
 -1      5528 4.44606E+00
 -1      5529 4.44586E+00
 -1      5530 4.44330E+00
 -1      5531 4.43854E+00
 -1      5532 4.43118E+00
 -1      5533 4.35618E+00
 -1      5534 4.36452E+00
 -1      5535 4.36966E+00
 -1      5536 4.37173E+00
 -1      5537 4.37173E+00
 -1      5538 4.37173E+00
 -1      5539 4.37173E+00
 -1      5540 4.36966E+00
 -1      5541 4.36452E+00
 -1      5542 4.35618E+00
 -1      5543 4.27394E+00
 -1      5544 4.28240E+00
 -1      5545 4.28743E+00
 -1      5546 4.28909E+00
 -1      5547 4.28909E+00
 -1      5548 4.28909E+00
 -1      5549 4.28909E+00
 -1      5550 4.28743E+00
 -1      5551 4.28240E+00
 -1      5552 4.27394E+00
 -1      5553 4.22053E+00
 -1      5554 4.22824E+00
 -1      5555 4.23324E+00
 -1      5556 4.23556E+00
 -1      5557 4.23556E+00
 -1      5558 4.23556E+00
 -1      5559 4.23556E+00
 -1      5560 4.23324E+00
 -1      5561 4.22824E+00
 -1      5562 4.22053E+00
 -1      5563 4.15718E+00
 -1      5564 4.16548E+00
 -1      5565 4.17070E+00
 -1      5566 4.17279E+00
 -1      5567 4.17279E+00
 -1      5568 4.17279E+00
 -1      5569 4.17279E+00
 -1      5570 4.17070E+00
 -1      5571 4.16548E+00
 -1      5572 4.15718E+00
 -1      5573 4.08594E+00
 -1      5574 4.09519E+00
 -1      5575 4.10083E+00
 -1      5576 4.10281E+00
 -1      5577 4.10281E+00
 -1      5578 4.10281E+00
 -1      5579 4.10281E+00
 -1      5580 4.10083E+00
 -1      5581 4.09519E+00
 -1      5582 4.08594E+00
 -1      5583 4.01001E+00
 -1      5584 4.02077E+00
 -1      5585 4.02723E+00
 -1      5586 4.02929E+00
 -1      5587 4.02929E+00
 -1      5588 4.02929E+00
 -1      5589 4.02929E+00
 -1      5590 4.02723E+00
 -1      5591 4.02077E+00
 -1      5592 4.01001E+00
 -1      5593 3.93488E+00
 -1      5594 3.94791E+00
 -1      5595 3.95568E+00
 -1      5596 3.95806E+00
 -1      5597 3.95806E+00
 -1      5598 3.95806E+00
 -1      5599 3.95806E+00
 -1      5600 3.95568E+00
 -1      5601 3.94791E+00
 -1      5602 3.93488E+00
 -1      5603 3.87031E+00
 -1      5604 3.88655E+00
 -1      5605 3.89622E+00
 -1      5606 3.89916E+00
 -1      5607 3.89916E+00
 -1      5608 3.89916E+00
 -1      5609 3.89916E+00
 -1      5610 3.89622E+00
 -1      5611 3.88655E+00
 -1      5612 3.87031E+00
 -1      5613 3.88079E+00
 -1      5614 3.89890E+00
 -1      5615 3.90818E+00
 -1      5616 3.90842E+00
 -1      5617 3.90842E+00
 -1      5618 3.90842E+00
 -1      5619 3.90842E+00
 -1      5620 3.90818E+00
 -1      5621 3.89890E+00
 -1      5622 3.88079E+00
 -1      5623 4.05969E+00
 -1      5624 4.08104E+00
 -1      5625 4.09180E+00
 -1      5626 4.09180E+00
 -1      5627 4.09168E+00
 -1      5628 4.09168E+00
 -1      5629 4.09180E+00
 -1      5630 4.09180E+00
 -1      5631 4.08104E+00
 -1      5632 4.05969E+00
 -1      5633 4.40166E+00
 -1      5634 4.42619E+00
 -1      5635 4.43808E+00
 -1      5636 4.43808E+00
 -1      5637 4.43699E+00
 -1      5638 4.43699E+00
 -1      5639 4.43808E+00
 -1      5640 4.43808E+00
 -1      5641 4.42619E+00
 -1      5642 4.40166E+00
 -1      5643 4.97713E+00
 -1      5644 5.01138E+00
 -1      5645 5.04413E+00
 -1      5646 5.04413E+00
 -1      5647 5.03596E+00
 -1      5648 5.03596E+00
 -1      5649 5.04413E+00
 -1      5650 5.04413E+00
 -1      5651 5.01138E+00
 -1      5652 4.97713E+00
 -1      5653 7.34660E+00
 -1      5654 7.42387E+00
 -1      5655 7.45456E+00
 -1      5656 7.45456E+00
 -1      5657 7.43765E+00
 -1      5658 7.43765E+00
 -1      5659 7.45456E+00
 -1      5660 7.45456E+00
 -1      5661 7.42387E+00
 -1      5662 7.34660E+00
 -1      5663 1.01932E+01
 -1      5664 9.93719E+00
 -1      5665 9.70734E+00
 -1      5666 9.50492E+00
 -1      5667 9.33196E+00
 -1      5668 9.33196E+00
 -1      5669 9.50492E+00
 -1      5670 9.70734E+00
 -1      5671 9.93719E+00
 -1      5672 1.01932E+01
 -1      5673 1.17792E+01
 -1      5674 1.15061E+01
 -1      5675 1.12636E+01
 -1      5676 1.10518E+01
 -1      5677 1.08717E+01
 -1      5678 1.08717E+01
 -1      5679 1.10518E+01
 -1      5680 1.12636E+01
 -1      5681 1.15061E+01
 -1      5682 1.17792E+01
 -1      5683 1.23235E+01
 -1      5684 1.20350E+01
 -1      5685 1.17794E+01
 -1      5686 1.15556E+01
 -1      5687 1.13642E+01
 -1      5688 1.13642E+01
 -1      5689 1.15556E+01
 -1      5690 1.17794E+01
 -1      5691 1.20350E+01
 -1      5692 1.23235E+01
 -1      5693 1.23235E+01
 -1      5694 1.20350E+01
 -1      5695 1.17794E+01
 -1      5696 1.15556E+01
 -1      5697 1.13642E+01
 -1      5698 1.13642E+01
 -1      5699 1.15556E+01
 -1      5700 1.17794E+01
 -1      5701 1.20350E+01
 -1      5702 1.23235E+01
 -1      5703 1.14887E+01
 -1      5704 1.11900E+01
 -1      5705 1.09219E+01
 -1      5706 1.06815E+01
 -1      5707 1.04719E+01
 -1      5708 1.04719E+01
 -1      5709 1.06815E+01
 -1      5710 1.09219E+01
 -1      5711 1.11900E+01
 -1      5712 1.14887E+01
 -1      5713 8.86070E+00
 -1      5714 8.55660E+00
 -1      5715 8.25545E+00
 -1      5716 7.98044E+00
 -1      5717 7.74740E+00
 -1      5718 7.74740E+00
 -1      5719 7.98044E+00
 -1      5720 8.25545E+00
 -1      5721 8.55660E+00
 -1      5722 8.86070E+00
 -1      5723 5.18457E+00
 -1      5724 4.97416E+00
 -1      5725 4.88670E+00
 -1      5726 4.81866E+00
 -1      5727 4.76378E+00
 -1      5728 4.76378E+00
 -1      5729 4.81866E+00
 -1      5730 4.88670E+00
 -1      5731 4.97416E+00
 -1      5732 5.18457E+00
 -1      5733 1.51115E+01
 -1      5734 9.48783E+00
 -1      5735 6.49595E+00
 -1      5736 4.89954E+00
 -1      5737 4.49366E+00
 -1      5738 4.49366E+00
 -1      5739 4.89954E+00
 -1      5740 6.49595E+00
 -1      5741 9.48783E+00
 -1      5742 1.51115E+01
 -1      5743 1.44460E+01
 -1      5744 6.14372E+00
 -1      5745 4.77886E+00
 -1      5746 4.37572E+00
 -1      5747 4.37572E+00
 -1      5748 4.37572E+00
 -1      5749 4.37572E+00
 -1      5750 4.77886E+00
 -1      5751 6.14372E+00
 -1      5752 1.44460E+01
 -1      5753 6.14372E+00
 -1      5754 6.14372E+00
 -1      5755 4.87597E+00
 -1      5756 4.77022E+00
 -1      5757 4.66477E+00
 -1      5758 4.66477E+00
 -1      5759 4.77022E+00
 -1      5760 4.87597E+00
 -1      5761 6.14372E+00
 -1      5762 6.14372E+00
 -1      5763 4.89799E+00
 -1      5764 4.89799E+00
 -1      5765 4.87597E+00
 -1      5766 4.84494E+00
 -1      5767 4.79104E+00
 -1      5768 4.79104E+00
 -1      5769 4.84494E+00
 -1      5770 4.87597E+00
 -1      5771 4.89799E+00
 -1      5772 4.89799E+00
 -1      5773 4.85889E+00
 -1      5774 4.86856E+00
 -1      5775 4.86856E+00
 -1      5776 4.84494E+00
 -1      5777 4.79104E+00
 -1      5778 4.79104E+00
 -1      5779 4.84494E+00
 -1      5780 4.86856E+00
 -1      5781 4.86856E+00
 -1      5782 4.85889E+00
 -1      5783 4.73146E+00
 -1      5784 4.75091E+00
 -1      5785 4.75201E+00
 -1      5786 4.75201E+00
 -1      5787 4.73978E+00
 -1      5788 4.73978E+00
 -1      5789 4.75201E+00
 -1      5790 4.75201E+00
 -1      5791 4.75091E+00
 -1      5792 4.73146E+00
 -1      5793 4.61733E+00
 -1      5794 4.62963E+00
 -1      5795 4.63803E+00
 -1      5796 4.64143E+00
 -1      5797 4.64143E+00
 -1      5798 4.64143E+00
 -1      5799 4.64143E+00
 -1      5800 4.63803E+00
 -1      5801 4.62963E+00
 -1      5802 4.61733E+00
 -1      5803 4.52519E+00
 -1      5804 4.53384E+00
 -1      5805 4.53967E+00
 -1      5806 4.54235E+00
 -1      5807 4.54235E+00
 -1      5808 4.54235E+00
 -1      5809 4.54235E+00
 -1      5810 4.53967E+00
 -1      5811 4.53384E+00
 -1      5812 4.52519E+00
 -1      5813 4.43118E+00
 -1      5814 4.43854E+00
 -1      5815 4.44340E+00
 -1      5816 4.44586E+00
 -1      5817 4.44606E+00
 -1      5818 4.44606E+00
 -1      5819 4.44586E+00
 -1      5820 4.44340E+00
 -1      5821 4.43854E+00
 -1      5822 4.43118E+00
 -1      5823 4.35618E+00
 -1      5824 4.36452E+00
 -1      5825 4.36966E+00
 -1      5826 4.37173E+00
 -1      5827 4.37173E+00
 -1      5828 4.37173E+00
 -1      5829 4.37173E+00
 -1      5830 4.36966E+00
 -1      5831 4.36452E+00
 -1      5832 4.35618E+00
 -1      5833 4.27394E+00
 -1      5834 4.28240E+00
 -1      5835 4.28743E+00
 -1      5836 4.28909E+00
 -1      5837 4.28909E+00
 -1      5838 4.28909E+00
 -1      5839 4.28909E+00
 -1      5840 4.28743E+00
 -1      5841 4.28240E+00
 -1      5842 4.27394E+00
 -1      5843 4.18767E+00
 -1      5844 4.19601E+00
 -1      5845 4.20078E+00
 -1      5846 4.20200E+00
 -1      5847 4.20200E+00
 -1      5848 4.20200E+00
 -1      5849 4.20200E+00
 -1      5850 4.20078E+00
 -1      5851 4.19601E+00
 -1      5852 4.18767E+00
 -1      5853 4.09932E+00
 -1      5854 4.10766E+00
 -1      5855 4.11225E+00
 -1      5856 4.11305E+00
 -1      5857 4.11305E+00
 -1      5858 4.11305E+00
 -1      5859 4.11305E+00
 -1      5860 4.11225E+00
 -1      5861 4.10766E+00
 -1      5862 4.09932E+00
 -1      5863 4.01152E+00
 -1      5864 4.02019E+00
 -1      5865 4.02480E+00
 -1      5866 4.02527E+00
 -1      5867 4.02527E+00
 -1      5868 4.02527E+00
 -1      5869 4.02527E+00
 -1      5870 4.02480E+00
 -1      5871 4.02019E+00
 -1      5872 4.01152E+00
 -1      5873 3.92878E+00
 -1      5874 3.93824E+00
 -1      5875 3.94315E+00
 -1      5876 3.94342E+00
 -1      5877 3.94342E+00
 -1      5878 3.94342E+00
 -1      5879 3.94342E+00
 -1      5880 3.94315E+00
 -1      5881 3.93824E+00
 -1      5882 3.92878E+00
 -1      5883 3.85871E+00
 -1      5884 3.86948E+00
 -1      5885 3.87503E+00
 -1      5886 3.87523E+00
 -1      5887 3.87523E+00
 -1      5888 3.87523E+00
 -1      5889 3.87523E+00
 -1      5890 3.87503E+00
 -1      5891 3.86948E+00
 -1      5892 3.85871E+00
 -1      5893 3.86169E+00
 -1      5894 3.87238E+00
 -1      5895 3.87665E+00
 -1      5896 3.87665E+00
 -1      5897 3.87436E+00
 -1      5898 3.87436E+00
 -1      5899 3.87665E+00
 -1      5900 3.87665E+00
 -1      5901 3.87238E+00
 -1      5902 3.86169E+00
 -1      5903 3.97580E+00
 -1      5904 3.98795E+00
 -1      5905 3.99269E+00
 -1      5906 3.99269E+00
 -1      5907 3.98986E+00
 -1      5908 3.98986E+00
 -1      5909 3.99269E+00
 -1      5910 3.99269E+00
 -1      5911 3.98795E+00
 -1      5912 3.97580E+00
 -1      5913 4.20404E+00
 -1      5914 4.21760E+00
 -1      5915 4.22261E+00
 -1      5916 4.22261E+00
 -1      5917 4.21887E+00
 -1      5918 4.21887E+00
 -1      5919 4.22261E+00
 -1      5920 4.22261E+00
 -1      5921 4.21760E+00
 -1      5922 4.20404E+00
 -1      5923 4.59162E+00
 -1      5924 4.60625E+00
 -1      5925 4.61105E+00
 -1      5926 4.61105E+00
 -1      5927 4.60578E+00
 -1      5928 4.60578E+00
 -1      5929 4.61105E+00
 -1      5930 4.61105E+00
 -1      5931 4.60625E+00
 -1      5932 4.59162E+00
 -1      5933 5.52331E+00
 -1      5934 5.56355E+00
 -1      5935 5.57371E+00
 -1      5936 5.57371E+00
 -1      5937 5.55314E+00
 -1      5938 5.55314E+00
 -1      5939 5.57371E+00
 -1      5940 5.57371E+00
 -1      5941 5.56355E+00
 -1      5942 5.52331E+00
 -1      5943 7.90609E+00
 -1      5944 7.94509E+00
 -1      5945 7.94994E+00
 -1      5946 7.94994E+00
 -1      5947 7.91996E+00
 -1      5948 7.91996E+00
 -1      5949 7.94994E+00
 -1      5950 7.94994E+00
 -1      5951 7.94509E+00
 -1      5952 7.90609E+00
 -1      5953 9.27251E+00
 -1      5954 9.04888E+00
 -1      5955 8.84840E+00
 -1      5956 8.67285E+00
 -1      5957 8.52388E+00
 -1      5958 8.52388E+00
 -1      5959 8.67285E+00
 -1      5960 8.84840E+00
 -1      5961 9.04888E+00
 -1      5962 9.27251E+00
 -1      5963 1.03742E+01
 -1      5964 1.01397E+01
 -1      5965 9.93086E+00
 -1      5966 9.74830E+00
 -1      5967 9.59364E+00
 -1      5968 9.59364E+00
 -1      5969 9.74830E+00
 -1      5970 9.93086E+00
 -1      5971 1.01397E+01
 -1      5972 1.03742E+01
 -1      5973 1.05705E+01
 -1      5974 1.03302E+01
 -1      5975 1.01143E+01
 -1      5976 9.92360E+00
 -1      5977 9.75927E+00
 -1      5978 9.75927E+00
 -1      5979 9.92360E+00
 -1      5980 1.01143E+01
 -1      5981 1.03302E+01
 -1      5982 1.05705E+01
 -1      5983 1.05705E+01
 -1      5984 1.03302E+01
 -1      5985 1.01143E+01
 -1      5986 9.92360E+00
 -1      5987 9.75927E+00
 -1      5988 9.75927E+00
 -1      5989 9.92360E+00
 -1      5990 1.01143E+01
 -1      5991 1.03302E+01
 -1      5992 1.05705E+01
 -1      5993 9.57001E+00
 -1      5994 9.33172E+00
 -1      5995 9.11219E+00
 -1      5996 8.91010E+00
 -1      5997 8.72986E+00
 -1      5998 8.72986E+00
 -1      5999 8.91010E+00
 -1      6000 9.11219E+00
 -1      6001 9.33172E+00
 -1      6002 9.57001E+00
 -1      6003 7.01745E+00
 -1      6004 6.78955E+00
 -1      6005 6.55191E+00
 -1      6006 6.32350E+00
 -1      6007 6.11957E+00
 -1      6008 6.11957E+00
 -1      6009 6.32350E+00
 -1      6010 6.55191E+00
 -1      6011 6.78955E+00
 -1      6012 7.01745E+00
 -1      6013 4.71731E+00
 -1      6014 4.63986E+00
 -1      6015 4.56188E+00
 -1      6016 4.49531E+00
 -1      6017 4.43756E+00
 -1      6018 4.43756E+00
 -1      6019 4.49531E+00
 -1      6020 4.56188E+00
 -1      6021 4.63986E+00
 -1      6022 4.71731E+00
 -1      6023 1.70283E+01
 -1      6024 9.99626E+00
 -1      6025 7.08482E+00
 -1      6026 5.33755E+00
 -1      6027 4.88388E+00
 -1      6028 4.88388E+00
 -1      6029 5.33755E+00
 -1      6030 7.08482E+00
 -1      6031 9.99626E+00
 -1      6032 1.70283E+01
 -1      6033 1.70283E+01
 -1      6034 7.39706E+00
 -1      6035 5.91762E+00
 -1      6036 5.27844E+00
 -1      6037 5.24466E+00
 -1      6038 5.24466E+00
 -1      6039 5.27844E+00
 -1      6040 5.91762E+00
 -1      6041 7.39706E+00
 -1      6042 1.70283E+01
 -1      6043 6.84310E+00
 -1      6044 6.84310E+00
 -1      6045 5.88002E+00
 -1      6046 5.70253E+00
 -1      6047 5.47491E+00
 -1      6048 5.47491E+00
 -1      6049 5.70253E+00
 -1      6050 5.88002E+00
 -1      6051 6.84310E+00
 -1      6052 6.84310E+00
 -1      6053 5.81697E+00
 -1      6054 5.88002E+00
 -1      6055 5.88002E+00
 -1      6056 5.70253E+00
 -1      6057 5.47491E+00
 -1      6058 5.47491E+00
 -1      6059 5.70253E+00
 -1      6060 5.88002E+00
 -1      6061 5.88002E+00
 -1      6062 5.81697E+00
 -1      6063 4.85889E+00
 -1      6064 4.89763E+00
 -1      6065 4.90895E+00
 -1      6066 4.90895E+00
 -1      6067 4.88561E+00
 -1      6068 4.88561E+00
 -1      6069 4.90895E+00
 -1      6070 4.90895E+00
 -1      6071 4.89763E+00
 -1      6072 4.85889E+00
 -1      6073 4.73146E+00
 -1      6074 4.75091E+00
 -1      6075 4.75201E+00
 -1      6076 4.75201E+00
 -1      6077 4.73978E+00
 -1      6078 4.73978E+00
 -1      6079 4.75201E+00
 -1      6080 4.75201E+00
 -1      6081 4.75091E+00
 -1      6082 4.73146E+00
 -1      6083 4.61733E+00
 -1      6084 4.62963E+00
 -1      6085 4.63803E+00
 -1      6086 4.64143E+00
 -1      6087 4.64143E+00
 -1      6088 4.64143E+00
 -1      6089 4.64143E+00
 -1      6090 4.63803E+00
 -1      6091 4.62963E+00
 -1      6092 4.61733E+00
 -1      6093 4.52519E+00
 -1      6094 4.53384E+00
 -1      6095 4.53967E+00
 -1      6096 4.54235E+00
 -1      6097 4.54235E+00
 -1      6098 4.54235E+00
 -1      6099 4.54235E+00
 -1      6100 4.53967E+00
 -1      6101 4.53384E+00
 -1      6102 4.52519E+00
 -1      6103 4.42806E+00
 -1      6104 4.43785E+00
 -1      6105 4.44340E+00
 -1      6106 4.44505E+00
 -1      6107 4.44505E+00
 -1      6108 4.44505E+00
 -1      6109 4.44505E+00
 -1      6110 4.44340E+00
 -1      6111 4.43785E+00
 -1      6112 4.42806E+00
 -1      6113 4.33217E+00
 -1      6114 4.34154E+00
 -1      6115 4.34669E+00
 -1      6116 4.34770E+00
 -1      6117 4.34770E+00
 -1      6118 4.34770E+00
 -1      6119 4.34770E+00
 -1      6120 4.34669E+00
 -1      6121 4.34154E+00
 -1      6122 4.33217E+00
 -1      6123 4.23781E+00
 -1      6124 4.24642E+00
 -1      6125 4.25095E+00
 -1      6126 4.25141E+00
 -1      6127 4.25141E+00
 -1      6128 4.25141E+00
 -1      6129 4.25141E+00
 -1      6130 4.25095E+00
 -1      6131 4.24642E+00
 -1      6132 4.23781E+00
 -1      6133 4.14489E+00
 -1      6134 4.15283E+00
 -1      6135 4.15676E+00
 -1      6136 4.15676E+00
 -1      6137 4.15667E+00
 -1      6138 4.15667E+00
 -1      6139 4.15676E+00
 -1      6140 4.15676E+00
 -1      6141 4.15283E+00
 -1      6142 4.14489E+00
 -1      6143 4.05461E+00
 -1      6144 4.06212E+00
 -1      6145 4.06560E+00
 -1      6146 4.06560E+00
 -1      6147 4.06500E+00
 -1      6148 4.06500E+00
 -1      6149 4.06560E+00
 -1      6150 4.06560E+00
 -1      6151 4.06212E+00
 -1      6152 4.05461E+00
 -1      6153 3.97030E+00
 -1      6154 3.97757E+00
 -1      6155 3.98080E+00
 -1      6156 3.98080E+00
 -1      6157 3.97977E+00
 -1      6158 3.97977E+00
 -1      6159 3.98080E+00
 -1      6160 3.98080E+00
 -1      6161 3.97757E+00
 -1      6162 3.97030E+00
 -1      6163 3.91573E+00
 -1      6164 3.92171E+00
 -1      6165 3.92335E+00
 -1      6166 3.92335E+00
 -1      6167 3.92061E+00
 -1      6168 3.92061E+00
 -1      6169 3.92335E+00
 -1      6170 3.92335E+00
 -1      6171 3.92171E+00
 -1      6172 3.91573E+00
 -1      6173 3.89543E+00
 -1      6174 3.90210E+00
 -1      6175 3.90367E+00
 -1      6176 3.90367E+00
 -1      6177 3.90009E+00
 -1      6178 3.90009E+00
 -1      6179 3.90367E+00
 -1      6180 3.90367E+00
 -1      6181 3.90210E+00
 -1      6182 3.89543E+00
 -1      6183 3.96288E+00
 -1      6184 3.97008E+00
 -1      6185 3.97165E+00
 -1      6186 3.97165E+00
 -1      6187 3.96749E+00
 -1      6188 3.96749E+00
 -1      6189 3.97165E+00
 -1      6190 3.97165E+00
 -1      6191 3.97008E+00
 -1      6192 3.96288E+00
 -1      6193 4.11286E+00
 -1      6194 4.12057E+00
 -1      6195 4.12200E+00
 -1      6196 4.12200E+00
 -1      6197 4.11704E+00
 -1      6198 4.11704E+00
 -1      6199 4.12200E+00
 -1      6200 4.12200E+00
 -1      6201 4.12057E+00
 -1      6202 4.11286E+00
 -1      6203 4.37636E+00
 -1      6204 4.38436E+00
 -1      6205 4.38535E+00
 -1      6206 4.38535E+00
 -1      6207 4.37920E+00
 -1      6208 4.37920E+00
 -1      6209 4.38535E+00
 -1      6210 4.38535E+00
 -1      6211 4.38436E+00
 -1      6212 4.37636E+00
 -1      6213 4.79156E+00
 -1      6214 4.79940E+00
 -1      6215 4.79943E+00
 -1      6216 4.79943E+00
 -1      6217 4.79154E+00
 -1      6218 4.79154E+00
 -1      6219 4.79943E+00
 -1      6220 4.79943E+00
 -1      6221 4.79940E+00
 -1      6222 4.79156E+00
 -1      6223 6.08314E+00
 -1      6224 6.10186E+00
 -1      6225 6.10186E+00
 -1      6226 6.09743E+00
 -1      6227 6.06951E+00
 -1      6228 6.06951E+00
 -1      6229 6.09743E+00
 -1      6230 6.10186E+00
 -1      6231 6.10186E+00
 -1      6232 6.08314E+00
 -1      6233 8.39907E+00
 -1      6234 8.41353E+00
 -1      6235 8.41353E+00
 -1      6236 8.40235E+00
 -1      6237 8.36516E+00
 -1      6238 8.36516E+00
 -1      6239 8.40235E+00
 -1      6240 8.41353E+00
 -1      6241 8.41353E+00
 -1      6242 8.39907E+00
 -1      6243 8.39907E+00
 -1      6244 8.41353E+00
 -1      6245 8.41353E+00
 -1      6246 8.40235E+00
 -1      6247 8.36516E+00
 -1      6248 8.36516E+00
 -1      6249 8.40235E+00
 -1      6250 8.41353E+00
 -1      6251 8.41353E+00
 -1      6252 8.39907E+00
 -1      6253 9.08762E+00
 -1      6254 8.88621E+00
 -1      6255 8.70622E+00
 -1      6256 8.54851E+00
 -1      6257 8.41450E+00
 -1      6258 8.41450E+00
 -1      6259 8.54851E+00
 -1      6260 8.70622E+00
 -1      6261 8.88621E+00
 -1      6262 9.08762E+00
 -1      6263 9.08762E+00
 -1      6264 8.88621E+00
 -1      6265 8.70622E+00
 -1      6266 8.54851E+00
 -1      6267 8.41450E+00
 -1      6268 8.41450E+00
 -1      6269 8.54851E+00
 -1      6270 8.70622E+00
 -1      6271 8.88621E+00
 -1      6272 9.08762E+00
 -1      6273 9.07385E+00
 -1      6274 8.87133E+00
 -1      6275 8.68820E+00
 -1      6276 8.52516E+00
 -1      6277 8.38364E+00
 -1      6278 8.38364E+00
 -1      6279 8.52516E+00
 -1      6280 8.68820E+00
 -1      6281 8.87133E+00
 -1      6282 9.07385E+00
 -1      6283 7.99185E+00
 -1      6284 7.79696E+00
 -1      6285 7.61497E+00
 -1      6286 7.44471E+00
 -1      6287 7.28979E+00
 -1      6288 7.28979E+00
 -1      6289 7.44471E+00
 -1      6290 7.61497E+00
 -1      6291 7.79696E+00
 -1      6292 7.99185E+00
 -1      6293 5.52075E+00
 -1      6294 5.34336E+00
 -1      6295 5.15262E+00
 -1      6296 4.98575E+00
 -1      6297 4.91946E+00
 -1      6298 4.91946E+00
 -1      6299 4.98575E+00
 -1      6300 5.15262E+00
 -1      6301 5.34336E+00
 -1      6302 5.52075E+00
 -1      6303 4.41004E+00
 -1      6304 4.34611E+00
 -1      6305 4.27666E+00
 -1      6306 4.21324E+00
 -1      6307 4.15552E+00
 -1      6308 4.15552E+00
 -1      6309 4.21324E+00
 -1      6310 4.27666E+00
 -1      6311 4.34611E+00
 -1      6312 4.41004E+00
 -1      6313 2.08021E+01
 -1      6314 1.09250E+01
 -1      6315 8.84924E+00
 -1      6316 8.00496E+00
 -1      6317 7.92791E+00
 -1      6318 7.92791E+00
 -1      6319 8.00496E+00
 -1      6320 8.84924E+00
 -1      6321 1.09250E+01
 -1      6322 2.08021E+01
 -1      6323 2.08021E+01
 -1      6324 1.09250E+01
 -1      6325 8.84924E+00
 -1      6326 7.72762E+00
 -1      6327 7.48963E+00
 -1      6328 7.48963E+00
 -1      6329 7.72762E+00
 -1      6330 8.84924E+00
 -1      6331 1.09250E+01
 -1      6332 2.08021E+01
 -1      6333 8.14196E+00
 -1      6334 8.14196E+00
 -1      6335 7.73067E+00
 -1      6336 7.57313E+00
 -1      6337 7.48963E+00
 -1      6338 7.48963E+00
 -1      6339 7.57313E+00
 -1      6340 7.73067E+00
 -1      6341 8.14196E+00
 -1      6342 8.14196E+00
 -1      6343 5.81697E+00
 -1      6344 5.88002E+00
 -1      6345 5.88002E+00
 -1      6346 5.70253E+00
 -1      6347 5.47491E+00
 -1      6348 5.47491E+00
 -1      6349 5.70253E+00
 -1      6350 5.88002E+00
 -1      6351 5.88002E+00
 -1      6352 5.81697E+00
 -1      6353 4.84919E+00
 -1      6354 4.89763E+00
 -1      6355 4.90895E+00
 -1      6356 4.90895E+00
 -1      6357 4.88561E+00
 -1      6358 4.88561E+00
 -1      6359 4.90895E+00
 -1      6360 4.90895E+00
 -1      6361 4.89763E+00
 -1      6362 4.84919E+00
 -1      6363 4.61312E+00
 -1      6364 4.63476E+00
 -1      6365 4.65487E+00
 -1      6366 4.65979E+00
 -1      6367 4.65979E+00
 -1      6368 4.65979E+00
 -1      6369 4.65979E+00
 -1      6370 4.65487E+00
 -1      6371 4.63476E+00
 -1      6372 4.61312E+00
 -1      6373 4.50721E+00
 -1      6374 4.51823E+00
 -1      6375 4.52499E+00
 -1      6376 4.52965E+00
 -1      6377 4.52996E+00
 -1      6378 4.52996E+00
 -1      6379 4.52965E+00
 -1      6380 4.52499E+00
 -1      6381 4.51823E+00
 -1      6382 4.50721E+00
 -1      6383 4.42362E+00
 -1      6384 4.43430E+00
 -1      6385 4.44039E+00
 -1      6386 4.44154E+00
 -1      6387 4.44154E+00
 -1      6388 4.44154E+00
 -1      6389 4.44154E+00
 -1      6390 4.44039E+00
 -1      6391 4.43430E+00
 -1      6392 4.42362E+00
 -1      6393 4.34597E+00
 -1      6394 4.35611E+00
 -1      6395 4.36117E+00
 -1      6396 4.36140E+00
 -1      6397 4.36140E+00
 -1      6398 4.36140E+00
 -1      6399 4.36140E+00
 -1      6400 4.36117E+00
 -1      6401 4.35611E+00
 -1      6402 4.34597E+00
 -1      6403 4.26983E+00
 -1      6404 4.27874E+00
 -1      6405 4.28300E+00
 -1      6406 4.28300E+00
 -1      6407 4.28262E+00
 -1      6408 4.28262E+00
 -1      6409 4.28300E+00
 -1      6410 4.28300E+00
 -1      6411 4.27874E+00
 -1      6412 4.26983E+00
 -1      6413 4.19276E+00
 -1      6414 4.20052E+00
 -1      6415 4.20395E+00
 -1      6416 4.20395E+00
 -1      6417 4.20304E+00
 -1      6418 4.20304E+00
 -1      6419 4.20395E+00
 -1      6420 4.20395E+00
 -1      6421 4.20052E+00
 -1      6422 4.19276E+00
 -1      6423 4.11501E+00
 -1      6424 4.12187E+00
 -1      6425 4.12460E+00
 -1      6426 4.12460E+00
 -1      6427 4.12318E+00
 -1      6428 4.12318E+00
 -1      6429 4.12460E+00
 -1      6430 4.12460E+00
 -1      6431 4.12187E+00
 -1      6432 4.11501E+00
 -1      6433 4.05951E+00
 -1      6434 4.06444E+00
 -1      6435 4.06541E+00
 -1      6436 4.06541E+00
 -1      6437 4.06236E+00
 -1      6438 4.06236E+00
 -1      6439 4.06541E+00
 -1      6440 4.06541E+00
 -1      6441 4.06444E+00
 -1      6442 4.05951E+00
 -1      6443 4.01260E+00
 -1      6444 4.01719E+00
 -1      6445 4.01779E+00
 -1      6446 4.01779E+00
 -1      6447 4.01436E+00
 -1      6448 4.01436E+00
 -1      6449 4.01779E+00
 -1      6450 4.01779E+00
 -1      6451 4.01719E+00
 -1      6452 4.01260E+00
 -1      6453 3.97999E+00
 -1      6454 3.98443E+00
 -1      6455 3.98476E+00
 -1      6456 3.98476E+00
 -1      6457 3.98093E+00
 -1      6458 3.98093E+00
 -1      6459 3.98476E+00
 -1      6460 3.98476E+00
 -1      6461 3.98443E+00
 -1      6462 3.97999E+00
 -1      6463 4.00826E+00
 -1      6464 4.01277E+00
 -1      6465 4.01277E+00
 -1      6466 4.01266E+00
 -1      6467 4.00786E+00
 -1      6468 4.00786E+00
 -1      6469 4.01266E+00
 -1      6470 4.01277E+00
 -1      6471 4.01277E+00
 -1      6472 4.00826E+00
 -1      6473 4.10274E+00
 -1      6474 4.10730E+00
 -1      6475 4.10730E+00
 -1      6476 4.10688E+00
 -1      6477 4.10140E+00
 -1      6478 4.10140E+00
 -1      6479 4.10688E+00
 -1      6480 4.10730E+00
 -1      6481 4.10730E+00
 -1      6482 4.10274E+00
 -1      6483 4.27988E+00
 -1      6484 4.28435E+00
 -1      6485 4.28435E+00
 -1      6486 4.28342E+00
 -1      6487 4.27701E+00
 -1      6488 4.27701E+00
 -1      6489 4.28342E+00
 -1      6490 4.28435E+00
 -1      6491 4.28435E+00
 -1      6492 4.27988E+00
 -1      6493 4.56724E+00
 -1      6494 4.57133E+00
 -1      6495 4.57133E+00
 -1      6496 4.56956E+00
 -1      6497 4.56185E+00
 -1      6498 4.56185E+00
 -1      6499 4.56956E+00
 -1      6500 4.57133E+00
 -1      6501 4.57133E+00
 -1      6502 4.56724E+00
 -1      6503 4.99726E+00
 -1      6504 5.00121E+00
 -1      6505 5.00121E+00
 -1      6506 4.99738E+00
 -1      6507 4.98787E+00
 -1      6508 4.98787E+00
 -1      6509 4.99738E+00
 -1      6510 5.00121E+00
 -1      6511 5.00121E+00
 -1      6512 4.99726E+00
 -1      6513 6.62695E+00
 -1      6514 6.63153E+00
 -1      6515 6.63153E+00
 -1      6516 6.61788E+00
 -1      6517 6.58580E+00
 -1      6518 6.58580E+00
 -1      6519 6.61788E+00
 -1      6520 6.63153E+00
 -1      6521 6.63153E+00
 -1      6522 6.62695E+00
 -1      6523 8.85790E+00
 -1      6524 8.85790E+00
 -1      6525 8.85678E+00
 -1      6526 8.83589E+00
 -1      6527 8.79508E+00
 -1      6528 8.79508E+00
 -1      6529 8.83589E+00
 -1      6530 8.85678E+00
 -1      6531 8.85790E+00
 -1      6532 8.85790E+00
 -1      6533 8.85790E+00
 -1      6534 8.85790E+00
 -1      6535 8.85678E+00
 -1      6536 8.83589E+00
 -1      6537 8.79508E+00
 -1      6538 8.79508E+00
 -1      6539 8.83589E+00
 -1      6540 8.85678E+00
 -1      6541 8.85790E+00
 -1      6542 8.85790E+00
 -1      6543 7.92947E+00
 -1      6544 7.75465E+00
 -1      6545 7.59821E+00
 -1      6546 7.46084E+00
 -1      6547 7.34367E+00
 -1      6548 7.34367E+00
 -1      6549 7.46084E+00
 -1      6550 7.59821E+00
 -1      6551 7.75465E+00
 -1      6552 7.92947E+00
 -1      6553 7.92947E+00
 -1      6554 7.75465E+00
 -1      6555 7.59821E+00
 -1      6556 7.46084E+00
 -1      6557 7.34367E+00
 -1      6558 7.34367E+00
 -1      6559 7.46084E+00
 -1      6560 7.59821E+00
 -1      6561 7.75465E+00
 -1      6562 7.92947E+00
 -1      6563 7.79221E+00
 -1      6564 7.61806E+00
 -1      6565 7.46037E+00
 -1      6566 7.31949E+00
 -1      6567 7.19654E+00
 -1      6568 7.19654E+00
 -1      6569 7.31949E+00
 -1      6570 7.46037E+00
 -1      6571 7.61806E+00
 -1      6572 7.79221E+00
 -1      6573 6.67577E+00
 -1      6574 6.51079E+00
 -1      6575 6.35620E+00
 -1      6576 6.21059E+00
 -1      6577 6.07642E+00
 -1      6578 6.07642E+00
 -1      6579 6.21059E+00
 -1      6580 6.35620E+00
 -1      6581 6.51079E+00
 -1      6582 6.67577E+00
 -1      6583 4.72886E+00
 -1      6584 4.67441E+00
 -1      6585 4.61537E+00
 -1      6586 4.55473E+00
 -1      6587 4.49655E+00
 -1      6588 4.49655E+00
 -1      6589 4.55473E+00
 -1      6590 4.61537E+00
 -1      6591 4.67441E+00
 -1      6592 4.72886E+00
 -1      6593 4.13546E+00
 -1      6594 4.08135E+00
 -1      6595 4.01887E+00
 -1      6596 3.95897E+00
 -1      6597 3.90272E+00
 -1      6598 3.90272E+00
 -1      6599 3.95897E+00
 -1      6600 4.01887E+00
 -1      6601 4.08135E+00
 -1      6602 4.13546E+00
 -1      6603 2.41927E+01
 -1      6604 1.52680E+01
 -1      6605 1.54252E+01
 -1      6606 1.54252E+01
 -1      6607 1.53496E+01
 -1      6608 1.53496E+01
 -1      6609 1.54252E+01
 -1      6610 1.54252E+01
 -1      6611 1.52680E+01
 -1      6612 2.41927E+01
 -1      6613 2.41927E+01
 -1      6614 1.35310E+01
 -1      6615 1.28194E+01
 -1      6616 1.26123E+01
 -1      6617 1.26123E+01
 -1      6618 1.26123E+01
 -1      6619 1.26123E+01
 -1      6620 1.28194E+01
 -1      6621 1.35310E+01
 -1      6622 2.41927E+01
 -1      6623 8.14196E+00
 -1      6624 8.14196E+00
 -1      6625 7.73067E+00
 -1      6626 7.57313E+00
 -1      6627 7.48963E+00
 -1      6628 7.48963E+00
 -1      6629 7.57313E+00
 -1      6630 7.73067E+00
 -1      6631 8.14196E+00
 -1      6632 8.14196E+00
 -1      6633 4.75935E+00
 -1      6634 4.87952E+00
 -1      6635 4.91378E+00
 -1      6636 4.91378E+00
 -1      6637 4.89726E+00
 -1      6638 4.89726E+00
 -1      6639 4.91378E+00
 -1      6640 4.91378E+00
 -1      6641 4.87952E+00
 -1      6642 4.75935E+00
 -1      6643 4.30735E+00
 -1      6644 4.37835E+00
 -1      6645 4.41778E+00
 -1      6646 4.42319E+00
 -1      6647 4.42319E+00
 -1      6648 4.42319E+00
 -1      6649 4.42319E+00
 -1      6650 4.41778E+00
 -1      6651 4.37835E+00
 -1      6652 4.30735E+00
 -1      6653 4.25720E+00
 -1      6654 4.26591E+00
 -1      6655 4.28368E+00
 -1      6656 4.29274E+00
 -1      6657 4.29274E+00
 -1      6658 4.29274E+00
 -1      6659 4.29274E+00
 -1      6660 4.28368E+00
 -1      6661 4.26591E+00
 -1      6662 4.25720E+00
 -1      6663 4.25493E+00
 -1      6664 4.26591E+00
 -1      6665 4.27109E+00
 -1      6666 4.27241E+00
 -1      6667 4.27241E+00
 -1      6668 4.27241E+00
 -1      6669 4.27241E+00
 -1      6670 4.27109E+00
 -1      6671 4.26591E+00
 -1      6672 4.25493E+00
 -1      6673 4.24979E+00
 -1      6674 4.25944E+00
 -1      6675 4.26389E+00
 -1      6676 4.26389E+00
 -1      6677 4.26283E+00
 -1      6678 4.26283E+00
 -1      6679 4.26389E+00
 -1      6680 4.26389E+00
 -1      6681 4.25944E+00
 -1      6682 4.24979E+00
 -1      6683 4.23256E+00
 -1      6684 4.24129E+00
 -1      6685 4.24480E+00
 -1      6686 4.24480E+00
 -1      6687 4.24329E+00
 -1      6688 4.24329E+00
 -1      6689 4.24480E+00
 -1      6690 4.24480E+00
 -1      6691 4.24129E+00
 -1      6692 4.23256E+00
 -1      6693 4.20244E+00
 -1      6694 4.20988E+00
 -1      6695 4.21267E+00
 -1      6696 4.21267E+00
 -1      6697 4.21079E+00
 -1      6698 4.21079E+00
 -1      6699 4.21267E+00
 -1      6700 4.21267E+00
 -1      6701 4.20988E+00
 -1      6702 4.20244E+00
 -1      6703 4.16082E+00
 -1      6704 4.16716E+00
 -1      6705 4.16922E+00
 -1      6706 4.16922E+00
 -1      6707 4.16698E+00
 -1      6708 4.16698E+00
 -1      6709 4.16922E+00
 -1      6710 4.16922E+00
 -1      6711 4.16716E+00
 -1      6712 4.16082E+00
 -1      6713 4.13951E+00
 -1      6714 4.14365E+00
 -1      6715 4.14389E+00
 -1      6716 4.14389E+00
 -1      6717 4.14020E+00
 -1      6718 4.14020E+00
 -1      6719 4.14389E+00
 -1      6720 4.14389E+00
 -1      6721 4.14365E+00
 -1      6722 4.13951E+00
 -1      6723 4.11655E+00
 -1      6724 4.12024E+00
 -1      6725 4.12024E+00
 -1      6726 4.12011E+00
 -1      6727 4.11613E+00
 -1      6728 4.11613E+00
 -1      6729 4.12011E+00
 -1      6730 4.12024E+00
 -1      6731 4.12024E+00
 -1      6732 4.11655E+00
 -1      6733 4.09493E+00
 -1      6734 4.09830E+00
 -1      6735 4.09830E+00
 -1      6736 4.09786E+00
 -1      6737 4.09356E+00
 -1      6738 4.09356E+00
 -1      6739 4.09786E+00
 -1      6740 4.09830E+00
 -1      6741 4.09830E+00
 -1      6742 4.09493E+00
 -1      6743 4.10171E+00
 -1      6744 4.10473E+00
 -1      6745 4.10473E+00
 -1      6746 4.10370E+00
 -1      6747 4.09859E+00
 -1      6748 4.09859E+00
 -1      6749 4.10370E+00
 -1      6750 4.10473E+00
 -1      6751 4.10473E+00
 -1      6752 4.10171E+00
 -1      6753 4.15863E+00
 -1      6754 4.16150E+00
 -1      6755 4.16150E+00
 -1      6756 4.16011E+00
 -1      6757 4.15444E+00
 -1      6758 4.15444E+00
 -1      6759 4.16011E+00
 -1      6760 4.16150E+00
 -1      6761 4.16150E+00
 -1      6762 4.15863E+00
 -1      6763 4.27476E+00
 -1      6764 4.27738E+00
 -1      6765 4.27738E+00
 -1      6766 4.27550E+00
 -1      6767 4.26910E+00
 -1      6768 4.26910E+00
 -1      6769 4.27550E+00
 -1      6770 4.27738E+00
 -1      6771 4.27738E+00
 -1      6772 4.27476E+00
 -1      6773 4.47162E+00
 -1      6774 4.47378E+00
 -1      6775 4.47378E+00
 -1      6776 4.47119E+00
 -1      6777 4.46381E+00
 -1      6778 4.46381E+00
 -1      6779 4.47119E+00
 -1      6780 4.47378E+00
 -1      6781 4.47378E+00
 -1      6782 4.47162E+00
 -1      6783 4.77400E+00
 -1      6784 4.77538E+00
 -1      6785 4.77538E+00
 -1      6786 4.77174E+00
 -1      6787 4.76305E+00
 -1      6788 4.76305E+00
 -1      6789 4.77174E+00
 -1      6790 4.77538E+00
 -1      6791 4.77538E+00
 -1      6792 4.77400E+00
 -1      6793 5.56230E+00
 -1      6794 5.56264E+00
 -1      6795 5.56264E+00
 -1      6796 5.54887E+00
 -1      6797 5.52089E+00
 -1      6798 5.52089E+00
 -1      6799 5.54887E+00
 -1      6800 5.56264E+00
 -1      6801 5.56264E+00
 -1      6802 5.56230E+00
 -1      6803 7.17102E+00
 -1      6804 7.17102E+00
 -1      6805 7.16646E+00
 -1      6806 7.14712E+00
 -1      6807 7.11290E+00
 -1      6808 7.11290E+00
 -1      6809 7.14712E+00
 -1      6810 7.16646E+00
 -1      6811 7.17102E+00
 -1      6812 7.17102E+00
 -1      6813 8.85790E+00
 -1      6814 8.85790E+00
 -1      6815 8.85678E+00
 -1      6816 8.83589E+00
 -1      6817 8.79508E+00
 -1      6818 8.79508E+00
 -1      6819 8.83589E+00
 -1      6820 8.85678E+00
 -1      6821 8.85790E+00
 -1      6822 8.85790E+00
 -1      6823 8.85790E+00
 -1      6824 8.85790E+00
 -1      6825 8.85678E+00
 -1      6826 8.83589E+00
 -1      6827 8.79508E+00
 -1      6828 8.79508E+00
 -1      6829 8.83589E+00
 -1      6830 8.85678E+00
 -1      6831 8.85790E+00
 -1      6832 8.85790E+00
 -1      6833 6.88920E+00
 -1      6834 6.73551E+00
 -1      6835 6.59793E+00
 -1      6836 6.47702E+00
 -1      6837 6.37357E+00
 -1      6838 6.37357E+00
 -1      6839 6.47702E+00
 -1      6840 6.59793E+00
 -1      6841 6.73551E+00
 -1      6842 6.88920E+00
 -1      6843 6.88920E+00
 -1      6844 6.73551E+00
 -1      6845 6.59793E+00
 -1      6846 6.47702E+00
 -1      6847 6.37357E+00
 -1      6848 6.37357E+00
 -1      6849 6.47702E+00
 -1      6850 6.59793E+00
 -1      6851 6.73551E+00
 -1      6852 6.88920E+00
 -1      6853 6.68582E+00
 -1      6854 6.53283E+00
 -1      6855 6.39459E+00
 -1      6856 6.27106E+00
 -1      6857 6.16300E+00
 -1      6858 6.16300E+00
 -1      6859 6.27106E+00
 -1      6860 6.39459E+00
 -1      6861 6.53283E+00
 -1      6862 6.68582E+00
 -1      6863 5.56184E+00
 -1      6864 5.41731E+00
 -1      6865 5.28220E+00
 -1      6866 5.15509E+00
 -1      6867 5.03739E+00
 -1      6868 5.03739E+00
 -1      6869 5.15509E+00
 -1      6870 5.28220E+00
 -1      6871 5.41731E+00
 -1      6872 5.56184E+00
 -1      6873 4.33083E+00
 -1      6874 4.28328E+00
 -1      6875 4.23239E+00
 -1      6876 4.17946E+00
 -1      6877 4.12769E+00
 -1      6878 4.12769E+00
 -1      6879 4.17946E+00
 -1      6880 4.23239E+00
 -1      6881 4.28328E+00
 -1      6882 4.33083E+00
 -1      6883 3.88331E+00
 -1      6884 3.83614E+00
 -1      6885 3.77898E+00
 -1      6886 3.72223E+00
 -1      6887 3.66778E+00
 -1      6888 3.66778E+00
 -1      6889 3.72223E+00
 -1      6890 3.77898E+00
 -1      6891 3.83614E+00
 -1      6892 3.88331E+00
 -1      6893 2.97862E+01
 -1      6894 2.96806E+01
 -1      6895 2.96806E+01
 -1      6896 2.96624E+01
 -1      6897 2.94208E+01
 -1      6898 2.94208E+01
 -1      6899 2.96624E+01
 -1      6900 2.96806E+01
 -1      6901 2.96806E+01
 -1      6902 2.97862E+01
 -1      6903 2.41927E+01
 -1      6904 1.35310E+01
 -1      6905 1.28194E+01
 -1      6906 1.26123E+01
 -1      6907 1.26123E+01
 -1      6908 1.26123E+01
 -1      6909 1.26123E+01
 -1      6910 1.28194E+01
 -1      6911 1.35310E+01
 -1      6912 2.41927E+01
 -1      6913 4.20087E+00
 -1      6914 4.43035E+00
 -1      6915 4.62308E+00
 -1      6916 4.70946E+00
 -1      6917 4.70946E+00
 -1      6918 4.70946E+00
 -1      6919 4.70946E+00
 -1      6920 4.62308E+00
 -1      6921 4.43035E+00
 -1      6922 4.20087E+00
 -1      6923 3.64447E+00
 -1      6924 3.70385E+00
 -1      6925 3.78462E+00
 -1      6926 3.81260E+00
 -1      6927 3.81260E+00
 -1      6928 3.81260E+00
 -1      6929 3.81260E+00
 -1      6930 3.78462E+00
 -1      6931 3.70385E+00
 -1      6932 3.64447E+00
 -1      6933 3.84471E+00
 -1      6934 3.84954E+00
 -1      6935 3.85730E+00
 -1      6936 3.86012E+00
 -1      6937 3.86012E+00
 -1      6938 3.86012E+00
 -1      6939 3.86012E+00
 -1      6940 3.85730E+00
 -1      6941 3.84954E+00
 -1      6942 3.84471E+00
 -1      6943 3.98135E+00
 -1      6944 3.98921E+00
 -1      6945 3.99114E+00
 -1      6946 3.99114E+00
 -1      6947 3.98884E+00
 -1      6948 3.98884E+00
 -1      6949 3.99114E+00
 -1      6950 3.99114E+00
 -1      6951 3.98921E+00
 -1      6952 3.98135E+00
 -1      6953 4.07365E+00
 -1      6954 4.08074E+00
 -1      6955 4.08275E+00
 -1      6956 4.08275E+00
 -1      6957 4.07946E+00
 -1      6958 4.07946E+00
 -1      6959 4.08275E+00
 -1      6960 4.08275E+00
 -1      6961 4.08074E+00
 -1      6962 4.07365E+00
 -1      6963 4.12841E+00
 -1      6964 4.13493E+00
 -1      6965 4.13650E+00
 -1      6966 4.13650E+00
 -1      6967 4.13329E+00
 -1      6968 4.13329E+00
 -1      6969 4.13650E+00
 -1      6970 4.13650E+00
 -1      6971 4.13493E+00
 -1      6972 4.12841E+00
 -1      6973 4.15312E+00
 -1      6974 4.15870E+00
 -1      6975 4.15986E+00
 -1      6976 4.15986E+00
 -1      6977 4.15658E+00
 -1      6978 4.15658E+00
 -1      6979 4.15986E+00
 -1      6980 4.15986E+00
 -1      6981 4.15870E+00
 -1      6982 4.15312E+00
 -1      6983 4.17882E+00
 -1      6984 4.18210E+00
 -1      6985 4.18210E+00
 -1      6986 4.18153E+00
 -1      6987 4.17708E+00
 -1      6988 4.17708E+00
 -1      6989 4.18153E+00
 -1      6990 4.18210E+00
 -1      6991 4.18210E+00
 -1      6992 4.17882E+00
 -1      6993 4.20090E+00
 -1      6994 4.20380E+00
 -1      6995 4.20380E+00
 -1      6996 4.20299E+00
 -1      6997 4.19844E+00
 -1      6998 4.19844E+00
 -1      6999 4.20299E+00
 -1      7000 4.20380E+00
 -1      7001 4.20380E+00
 -1      7002 4.20090E+00
 -1      7003 4.20945E+00
 -1      7004 4.21205E+00
 -1      7005 4.21205E+00
 -1      7006 4.21100E+00
 -1      7007 4.20627E+00
 -1      7008 4.20627E+00
 -1      7009 4.21100E+00
 -1      7010 4.21205E+00
 -1      7011 4.21205E+00
 -1      7012 4.20945E+00
 -1      7013 4.21506E+00
 -1      7014 4.21742E+00
 -1      7015 4.21742E+00
 -1      7016 4.21613E+00
 -1      7017 4.21114E+00
 -1      7018 4.21114E+00
 -1      7019 4.21613E+00
 -1      7020 4.21742E+00
 -1      7021 4.21742E+00
 -1      7022 4.21506E+00
 -1      7023 4.22976E+00
 -1      7024 4.23191E+00
 -1      7025 4.23191E+00
 -1      7026 4.23034E+00
 -1      7027 4.22503E+00
 -1      7028 4.22503E+00
 -1      7029 4.23034E+00
 -1      7030 4.23191E+00
 -1      7031 4.23191E+00
 -1      7032 4.22976E+00
 -1      7033 4.26734E+00
 -1      7034 4.26927E+00
 -1      7035 4.26927E+00
 -1      7036 4.26737E+00
 -1      7037 4.26163E+00
 -1      7038 4.26163E+00
 -1      7039 4.26737E+00
 -1      7040 4.26927E+00
 -1      7041 4.26927E+00
 -1      7042 4.26734E+00
 -1      7043 4.34365E+00
 -1      7044 4.34529E+00
 -1      7045 4.34529E+00
 -1      7046 4.34297E+00
 -1      7047 4.33667E+00
 -1      7048 4.33667E+00
 -1      7049 4.34297E+00
 -1      7050 4.34529E+00
 -1      7051 4.34529E+00
 -1      7052 4.34365E+00
 -1      7053 4.47682E+00
 -1      7054 4.47803E+00
 -1      7055 4.47803E+00
 -1      7056 4.47513E+00
 -1      7057 4.46809E+00
 -1      7058 4.46809E+00
 -1      7059 4.47513E+00
 -1      7060 4.47803E+00
 -1      7061 4.47803E+00
 -1      7062 4.47682E+00
 -1      7063 4.68732E+00
 -1      7064 4.68787E+00
 -1      7065 4.68787E+00
 -1      7066 4.68416E+00
 -1      7067 4.67615E+00
 -1      7068 4.67615E+00
 -1      7069 4.68416E+00
 -1      7070 4.68787E+00
 -1      7071 4.68787E+00
 -1      7072 4.68732E+00
 -1      7073 4.99793E+00
 -1      7074 4.99793E+00
 -1      7075 4.99748E+00
 -1      7076 4.99263E+00
 -1      7077 4.98335E+00
 -1      7078 4.98335E+00
 -1      7079 4.99263E+00
 -1      7080 4.99748E+00
 -1      7081 4.99793E+00
 -1      7082 4.99793E+00
 -1      7083 6.16126E+00
 -1      7084 6.16126E+00
 -1      7085 6.15621E+00
 -1      7086 6.13905E+00
 -1      7087 6.10973E+00
 -1      7088 6.10973E+00
 -1      7089 6.13905E+00
 -1      7090 6.15621E+00
 -1      7091 6.16126E+00
 -1      7092 6.16126E+00
 -1      7093 7.73403E+00
 -1      7094 7.73403E+00
 -1      7095 7.72373E+00
 -1      7096 7.70105E+00
 -1      7097 7.66597E+00
 -1      7098 7.66597E+00
 -1      7099 7.70105E+00
 -1      7100 7.72373E+00
 -1      7101 7.73403E+00
 -1      7102 7.73403E+00
 -1      7103 7.73403E+00
 -1      7104 7.73403E+00
 -1      7105 7.72373E+00
 -1      7106 7.70105E+00
 -1      7107 7.66597E+00
 -1      7108 7.66597E+00
 -1      7109 7.70105E+00
 -1      7110 7.72373E+00
 -1      7111 7.73403E+00
 -1      7112 7.73403E+00
 -1      7113 5.52301E+00
 -1      7114 5.38921E+00
 -1      7115 5.26920E+00
 -1      7116 5.16375E+00
 -1      7117 5.07350E+00
 -1      7118 5.07350E+00
 -1      7119 5.16375E+00
 -1      7120 5.26920E+00
 -1      7121 5.38921E+00
 -1      7122 5.52301E+00
 -1      7123 5.95022E+00
 -1      7124 5.81350E+00
 -1      7125 5.69113E+00
 -1      7126 5.58357E+00
 -1      7127 5.49137E+00
 -1      7128 5.49137E+00
 -1      7129 5.58357E+00
 -1      7130 5.69113E+00
 -1      7131 5.81350E+00
 -1      7132 5.95022E+00
 -1      7133 5.95022E+00
 -1      7134 5.81350E+00
 -1      7135 5.69113E+00
 -1      7136 5.58357E+00
 -1      7137 5.49137E+00
 -1      7138 5.49137E+00
 -1      7139 5.58357E+00
 -1      7140 5.69113E+00
 -1      7141 5.81350E+00
 -1      7142 5.95022E+00
 -1      7143 5.72078E+00
 -1      7144 5.58390E+00
 -1      7145 5.46067E+00
 -1      7146 5.35074E+00
 -1      7147 5.25462E+00
 -1      7148 5.25462E+00
 -1      7149 5.35074E+00
 -1      7150 5.46067E+00
 -1      7151 5.58390E+00
 -1      7152 5.72078E+00
 -1      7153 4.85281E+00
 -1      7154 4.80420E+00
 -1      7155 4.75894E+00
 -1      7156 4.71665E+00
 -1      7157 4.67754E+00
 -1      7158 4.67754E+00
 -1      7159 4.71665E+00
 -1      7160 4.75894E+00
 -1      7161 4.80420E+00
 -1      7162 4.85281E+00
 -1      7163 4.02847E+00
 -1      7164 3.98967E+00
 -1      7165 3.95020E+00
 -1      7166 3.90822E+00
 -1      7167 3.86503E+00
 -1      7168 3.86503E+00
 -1      7169 3.90822E+00
 -1      7170 3.95020E+00
 -1      7171 3.98967E+00
 -1      7172 4.02847E+00
 -1      7173 3.64502E+00
 -1      7174 3.60276E+00
 -1      7175 3.54948E+00
 -1      7176 3.49516E+00
 -1      7177 3.44226E+00
 -1      7178 3.44226E+00
 -1      7179 3.49516E+00
 -1      7180 3.54948E+00
 -1      7181 3.60276E+00
 -1      7182 3.64502E+00
 -1      7183 5.85794E+01
 -1      7184 5.46182E+01
 -1      7185 5.06297E+01
 -1      7186 4.75443E+01
 -1      7187 4.55338E+01
 -1      7188 4.55338E+01
 -1      7189 4.75443E+01
 -1      7190 5.06297E+01
 -1      7191 5.46182E+01
 -1      7192 5.85794E+01
 -1      7193 1.94160E+01
 -1      7194 1.48776E+01
 -1      7195 1.28633E+01
 -1      7196 1.18285E+01
 -1      7197 1.12867E+01
 -1      7198 1.12867E+01
 -1      7199 1.18285E+01
 -1      7200 1.28633E+01
 -1      7201 1.48776E+01
 -1      7202 1.94160E+01
 -1      7203 4.81301E+00
 -1      7204 4.81301E+00
 -1      7205 4.59876E+00
 -1      7206 4.40417E+00
 -1      7207 4.27584E+00
 -1      7208 4.27584E+00
 -1      7209 4.40417E+00
 -1      7210 4.59876E+00
 -1      7211 4.81301E+00
 -1      7212 4.81301E+00
 -1      7213 3.12729E+00
 -1      7214 3.13890E+00
 -1      7215 3.15589E+00
 -1      7216 3.16802E+00
 -1      7217 3.16802E+00
 -1      7218 3.16802E+00
 -1      7219 3.16802E+00
 -1      7220 3.15589E+00
 -1      7221 3.13890E+00
 -1      7222 3.12729E+00
 -1      7223 3.50226E+00
 -1      7224 3.50312E+00
 -1      7225 3.50503E+00
 -1      7226 3.50503E+00
 -1      7227 3.50239E+00
 -1      7228 3.50239E+00
 -1      7229 3.50503E+00
 -1      7230 3.50503E+00
 -1      7231 3.50312E+00
 -1      7232 3.50226E+00
 -1      7233 3.75707E+00
 -1      7234 3.76135E+00
 -1      7235 3.76135E+00
 -1      7236 3.76018E+00
 -1      7237 3.75493E+00
 -1      7238 3.75493E+00
 -1      7239 3.76018E+00
 -1      7240 3.76135E+00
 -1      7241 3.76135E+00
 -1      7242 3.75707E+00
 -1      7243 3.93484E+00
 -1      7244 3.93916E+00
 -1      7245 3.93916E+00
 -1      7246 3.93881E+00
 -1      7247 3.93364E+00
 -1      7248 3.93364E+00
 -1      7249 3.93881E+00
 -1      7250 3.93916E+00
 -1      7251 3.93916E+00
 -1      7252 3.93484E+00
 -1      7253 4.05567E+00
 -1      7254 4.05990E+00
 -1      7255 4.05990E+00
 -1      7256 4.05963E+00
 -1      7257 4.05496E+00
 -1      7258 4.05496E+00
 -1      7259 4.05963E+00
 -1      7260 4.05990E+00
 -1      7261 4.05990E+00
 -1      7262 4.05567E+00
 -1      7263 4.14822E+00
 -1      7264 4.15033E+00
 -1      7265 4.15033E+00
 -1      7266 4.14868E+00
 -1      7267 4.14324E+00
 -1      7268 4.14324E+00
 -1      7269 4.14868E+00
 -1      7270 4.15033E+00
 -1      7271 4.15033E+00
 -1      7272 4.14822E+00
 -1      7273 4.23570E+00
 -1      7274 4.23767E+00
 -1      7275 4.23767E+00
 -1      7276 4.23604E+00
 -1      7277 4.23077E+00
 -1      7278 4.23077E+00
 -1      7279 4.23604E+00
 -1      7280 4.23767E+00
 -1      7281 4.23767E+00
 -1      7282 4.23570E+00
 -1      7283 4.29546E+00
 -1      7284 4.29728E+00
 -1      7285 4.29728E+00
 -1      7286 4.29559E+00
 -1      7287 4.29035E+00
 -1      7288 4.29035E+00
 -1      7289 4.29559E+00
 -1      7290 4.29728E+00
 -1      7291 4.29728E+00
 -1      7292 4.29546E+00
 -1      7293 4.33726E+00
 -1      7294 4.33894E+00
 -1      7295 4.33894E+00
 -1      7296 4.33714E+00
 -1      7297 4.33181E+00
 -1      7298 4.33181E+00
 -1      7299 4.33714E+00
 -1      7300 4.33894E+00
 -1      7301 4.33894E+00
 -1      7302 4.33726E+00
 -1      7303 4.37181E+00
 -1      7304 4.37334E+00
 -1      7305 4.37334E+00
 -1      7306 4.37137E+00
 -1      7307 4.36586E+00
 -1      7308 4.36586E+00
 -1      7309 4.37137E+00
 -1      7310 4.37334E+00
 -1      7311 4.37334E+00
 -1      7312 4.37181E+00
 -1      7313 4.41134E+00
 -1      7314 4.41270E+00
 -1      7315 4.41270E+00
 -1      7316 4.41049E+00
 -1      7317 4.40469E+00
 -1      7318 4.40469E+00
 -1      7319 4.41049E+00
 -1      7320 4.41270E+00
 -1      7321 4.41270E+00
 -1      7322 4.41134E+00
 -1      7323 4.46991E+00
 -1      7324 4.47103E+00
 -1      7325 4.47103E+00
 -1      7326 4.46850E+00
 -1      7327 4.46230E+00
 -1      7328 4.46230E+00
 -1      7329 4.46850E+00
 -1      7330 4.47103E+00
 -1      7331 4.47103E+00
 -1      7332 4.46991E+00
 -1      7333 4.56352E+00
 -1      7334 4.56430E+00
 -1      7335 4.56430E+00
 -1      7336 4.56132E+00
 -1      7337 4.55458E+00
 -1      7338 4.55458E+00
 -1      7339 4.56132E+00
 -1      7340 4.56430E+00
 -1      7341 4.56430E+00
 -1      7342 4.56352E+00
 -1      7343 4.71011E+00
 -1      7344 4.71036E+00
 -1      7345 4.71036E+00
 -1      7346 4.70677E+00
 -1      7347 4.69931E+00
 -1      7348 4.69931E+00
 -1      7349 4.70677E+00
 -1      7350 4.71036E+00
 -1      7351 4.71036E+00
 -1      7352 4.71011E+00
 -1      7353 4.92946E+00
 -1      7354 4.92946E+00
 -1      7355 4.92895E+00
 -1      7356 4.92451E+00
 -1      7357 4.91611E+00
 -1      7358 4.91611E+00
 -1      7359 4.92451E+00
 -1      7360 4.92895E+00
 -1      7361 4.92946E+00
 -1      7362 4.92946E+00
 -1      7363 5.65106E+00
 -1      7364 5.65106E+00
 -1      7365 5.64677E+00
 -1      7366 5.63178E+00
 -1      7367 5.60605E+00
 -1      7368 5.60605E+00
 -1      7369 5.63178E+00
 -1      7370 5.64677E+00
 -1      7371 5.65106E+00
 -1      7372 5.65106E+00
 -1      7373 6.80473E+00
 -1      7374 6.80473E+00
 -1      7375 6.79640E+00
 -1      7376 6.77730E+00
 -1      7377 6.74742E+00
 -1      7378 6.74742E+00
 -1      7379 6.77730E+00
 -1      7380 6.79640E+00
 -1      7381 6.80473E+00
 -1      7382 6.80473E+00
 -1      7383 8.33860E+00
 -1      7384 8.33565E+00
 -1      7385 8.32199E+00
 -1      7386 8.29758E+00
 -1      7387 8.26243E+00
 -1      7388 8.26243E+00
 -1      7389 8.29758E+00
 -1      7390 8.32199E+00
 -1      7391 8.33565E+00
 -1      7392 8.33860E+00
 -1      7393 8.33860E+00
 -1      7394 8.33565E+00
 -1      7395 8.32199E+00
 -1      7396 8.29758E+00
 -1      7397 8.26243E+00
 -1      7398 8.26243E+00
 -1      7399 8.29758E+00
 -1      7400 8.32199E+00
 -1      7401 8.33565E+00
 -1      7402 8.33860E+00
 -1      7403 4.88555E+00
 -1      7404 4.84080E+00
 -1      7405 4.80067E+00
 -1      7406 4.76537E+00
 -1      7407 4.73509E+00
 -1      7408 4.73509E+00
 -1      7409 4.76537E+00
 -1      7410 4.80067E+00
 -1      7411 4.84080E+00
 -1      7412 4.88555E+00
 -1      7413 5.09555E+00
 -1      7414 4.98989E+00
 -1      7415 4.94889E+00
 -1      7416 4.91286E+00
 -1      7417 4.88194E+00
 -1      7418 4.88194E+00
 -1      7419 4.91286E+00
 -1      7420 4.94889E+00
 -1      7421 4.98989E+00
 -1      7422 5.09555E+00
 -1      7423 5.09555E+00
 -1      7424 4.98989E+00
 -1      7425 4.94889E+00
 -1      7426 4.91286E+00
 -1      7427 4.88194E+00
 -1      7428 4.88194E+00
 -1      7429 4.91286E+00
 -1      7430 4.94889E+00
 -1      7431 4.98989E+00
 -1      7432 5.09555E+00
 -1      7433 4.95143E+00
 -1      7434 4.90509E+00
 -1      7435 4.86355E+00
 -1      7436 4.82659E+00
 -1      7437 4.79434E+00
 -1      7438 4.79434E+00
 -1      7439 4.82659E+00
 -1      7440 4.86355E+00
 -1      7441 4.90509E+00
 -1      7442 4.95143E+00
 -1      7443 4.54273E+00
 -1      7444 4.49802E+00
 -1      7445 4.45654E+00
 -1      7446 4.41816E+00
 -1      7447 4.38289E+00
 -1      7448 4.38289E+00
 -1      7449 4.41816E+00
 -1      7450 4.45654E+00
 -1      7451 4.49802E+00
 -1      7452 4.54273E+00
 -1      7453 3.86704E+00
 -1      7454 3.82735E+00
 -1      7455 3.78913E+00
 -1      7456 3.74951E+00
 -1      7457 3.70923E+00
 -1      7458 3.70923E+00
 -1      7459 3.74951E+00
 -1      7460 3.78913E+00
 -1      7461 3.82735E+00
 -1      7462 3.86704E+00
 -1      7463 3.41392E+00
 -1      7464 3.37520E+00
 -1      7465 3.32466E+00
 -1      7466 3.27200E+00
 -1      7467 3.22013E+00
 -1      7468 3.22013E+00
 -1      7469 3.27200E+00
 -1      7470 3.32466E+00
 -1      7471 3.37520E+00
 -1      7472 3.41392E+00
 -1      7473 7.08273E+01
 -1      7474 7.08273E+01
 -1      7475 6.98024E+01
 -1      7476 6.88611E+01
 -1      7477 6.82239E+01
 -1      7478 6.82239E+01
 -1      7479 6.88611E+01
 -1      7480 6.98024E+01
 -1      7481 7.08273E+01
 -1      7482 7.08273E+01
 -1      7483 5.03810E+01
 -1      7484 5.03810E+01
 -1      7485 4.98004E+01
 -1      7486 4.91425E+01
 -1      7487 4.86576E+01
 -1      7488 4.86576E+01
 -1      7489 4.91425E+01
 -1      7490 4.98004E+01
 -1      7491 5.03810E+01
 -1      7492 5.03810E+01
 -1      7493 7.23347E+00
 -1      7494 6.58470E+00
 -1      7495 6.19705E+00
 -1      7496 5.92238E+00
 -1      7497 5.74832E+00
 -1      7498 5.74832E+00
 -1      7499 5.92238E+00
 -1      7500 6.19705E+00
 -1      7501 6.58470E+00
 -1      7502 7.23347E+00
 -1      7503 3.29807E+00
 -1      7504 3.26118E+00
 -1      7505 3.19577E+00
 -1      7506 3.13790E+00
 -1      7507 3.09837E+00
 -1      7508 3.09837E+00
 -1      7509 3.13790E+00
 -1      7510 3.19577E+00
 -1      7511 3.26118E+00
 -1      7512 3.29807E+00
 -1      7513 3.26117E+00
 -1      7514 3.26117E+00
 -1      7515 3.25942E+00
 -1      7516 3.25698E+00
 -1      7517 3.25056E+00
 -1      7518 3.25056E+00
 -1      7519 3.25698E+00
 -1      7520 3.25942E+00
 -1      7521 3.26117E+00
 -1      7522 3.26117E+00
 -1      7523 3.60368E+00
 -1      7524 3.60483E+00
 -1      7525 3.60483E+00
 -1      7526 3.60128E+00
 -1      7527 3.59390E+00
 -1      7528 3.59390E+00
 -1      7529 3.60128E+00
 -1      7530 3.60483E+00
 -1      7531 3.60483E+00
 -1      7532 3.60368E+00
 -1      7533 3.84760E+00
 -1      7534 3.84949E+00
 -1      7535 3.84949E+00
 -1      7536 3.84715E+00
 -1      7537 3.84055E+00
 -1      7538 3.84055E+00
 -1      7539 3.84715E+00
 -1      7540 3.84949E+00
 -1      7541 3.84949E+00
 -1      7542 3.84760E+00
 -1      7543 4.03225E+00
 -1      7544 4.03276E+00
 -1      7545 4.03276E+00
 -1      7546 4.02962E+00
 -1      7547 4.02288E+00
 -1      7548 4.02288E+00
 -1      7549 4.02962E+00
 -1      7550 4.03276E+00
 -1      7551 4.03276E+00
 -1      7552 4.03225E+00
 -1      7553 4.19829E+00
 -1      7554 4.19905E+00
 -1      7555 4.19905E+00
 -1      7556 4.19633E+00
 -1      7557 4.19013E+00
 -1      7558 4.19013E+00
 -1      7559 4.19633E+00
 -1      7560 4.19905E+00
 -1      7561 4.19905E+00
 -1      7562 4.19829E+00
 -1      7563 4.32545E+00
 -1      7564 4.32632E+00
 -1      7565 4.32632E+00
 -1      7566 4.32382E+00
 -1      7567 4.31792E+00
 -1      7568 4.31792E+00
 -1      7569 4.32382E+00
 -1      7570 4.32632E+00
 -1      7571 4.32632E+00
 -1      7572 4.32545E+00
 -1      7573 4.42309E+00
 -1      7574 4.42402E+00
 -1      7575 4.42402E+00
 -1      7576 4.42161E+00
 -1      7577 4.41584E+00
 -1      7578 4.41584E+00
 -1      7579 4.42161E+00
 -1      7580 4.42402E+00
 -1      7581 4.42402E+00
 -1      7582 4.42309E+00
 -1      7583 4.49986E+00
 -1      7584 4.50080E+00
 -1      7585 4.50080E+00
 -1      7586 4.49839E+00
 -1      7587 4.49260E+00
 -1      7588 4.49260E+00
 -1      7589 4.49839E+00
 -1      7590 4.50080E+00
 -1      7591 4.50080E+00
 -1      7592 4.49986E+00
 -1      7593 4.56542E+00
 -1      7594 4.56632E+00
 -1      7595 4.56632E+00
 -1      7596 4.56382E+00
 -1      7597 4.55790E+00
 -1      7598 4.55790E+00
 -1      7599 4.56382E+00
 -1      7600 4.56632E+00
 -1      7601 4.56632E+00
 -1      7602 4.56542E+00
 -1      7603 4.63134E+00
 -1      7604 4.63211E+00
 -1      7605 4.63211E+00
 -1      7606 4.62943E+00
 -1      7607 4.62327E+00
 -1      7608 4.62327E+00
 -1      7609 4.62943E+00
 -1      7610 4.63211E+00
 -1      7611 4.63211E+00
 -1      7612 4.63134E+00
 -1      7613 4.71132E+00
 -1      7614 4.71188E+00
 -1      7615 4.71188E+00
 -1      7616 4.70890E+00
 -1      7617 4.70237E+00
 -1      7618 4.70237E+00
 -1      7619 4.70890E+00
 -1      7620 4.71188E+00
 -1      7621 4.71188E+00
 -1      7622 4.71132E+00
 -1      7623 4.82118E+00
 -1      7624 4.82138E+00
 -1      7625 4.82138E+00
 -1      7626 4.81797E+00
 -1      7627 4.81092E+00
 -1      7628 4.81092E+00
 -1      7629 4.81797E+00
 -1      7630 4.82138E+00
 -1      7631 4.82138E+00
 -1      7632 4.82118E+00
 -1      7633 4.97866E+00
 -1      7634 4.97866E+00
 -1      7635 4.97832E+00
 -1      7636 4.97430E+00
 -1      7637 4.96658E+00
 -1      7638 4.96658E+00
 -1      7639 4.97430E+00
 -1      7640 4.97832E+00
 -1      7641 4.97866E+00
 -1      7642 4.97866E+00
 -1      7643 5.54431E+00
 -1      7644 5.54431E+00
 -1      7645 5.54130E+00
 -1      7646 5.52829E+00
 -1      7647 5.50522E+00
 -1      7648 5.50522E+00
 -1      7649 5.52829E+00
 -1      7650 5.54130E+00
 -1      7651 5.54431E+00
 -1      7652 5.54431E+00
 -1      7653 6.38125E+00
 -1      7654 6.38125E+00
 -1      7655 6.37527E+00
 -1      7656 6.35925E+00
 -1      7657 6.33315E+00
 -1      7658 6.33315E+00
 -1      7659 6.35925E+00
 -1      7660 6.37527E+00
 -1      7661 6.38125E+00
 -1      7662 6.38125E+00
 -1      7663 7.51216E+00
 -1      7664 7.51204E+00
 -1      7665 7.50204E+00
 -1      7666 7.48208E+00
 -1      7667 7.45214E+00
 -1      7668 7.45214E+00
 -1      7669 7.48208E+00
 -1      7670 7.50204E+00
 -1      7671 7.51204E+00
 -1      7672 7.51216E+00
 -1      7673 8.33860E+00
 -1      7674 8.33565E+00
 -1      7675 8.32199E+00
 -1      7676 8.29758E+00
 -1      7677 8.26243E+00
 -1      7678 8.26243E+00
 -1      7679 8.29758E+00
 -1      7680 8.32199E+00
 -1      7681 8.33565E+00
 -1      7682 8.33860E+00
 -1      7683 8.33860E+00
 -1      7684 8.33565E+00
 -1      7685 8.32199E+00
 -1      7686 8.29758E+00
 -1      7687 8.26243E+00
 -1      7688 8.26243E+00
 -1      7689 8.29758E+00
 -1      7690 8.32199E+00
 -1      7691 8.33565E+00
 -1      7692 8.33860E+00
 -1      7693 4.59112E+00
 -1      7694 4.55085E+00
 -1      7695 4.51472E+00
 -1      7696 4.48289E+00
 -1      7697 4.45553E+00
 -1      7698 4.45553E+00
 -1      7699 4.48289E+00
 -1      7700 4.51472E+00
 -1      7701 4.55085E+00
 -1      7702 4.59112E+00
 -1      7703 4.74259E+00
 -1      7704 4.70124E+00
 -1      7705 4.66422E+00
 -1      7706 4.63169E+00
 -1      7707 4.60373E+00
 -1      7708 4.60373E+00
 -1      7709 4.63169E+00
 -1      7710 4.66422E+00
 -1      7711 4.70124E+00
 -1      7712 4.74259E+00
 -1      7713 4.74259E+00
 -1      7714 4.70124E+00
 -1      7715 4.66422E+00
 -1      7716 4.63169E+00
 -1      7717 4.60373E+00
 -1      7718 4.60373E+00
 -1      7719 4.63169E+00
 -1      7720 4.66422E+00
 -1      7721 4.70124E+00
 -1      7722 4.74259E+00
 -1      7723 4.66847E+00
 -1      7724 4.62607E+00
 -1      7725 4.58823E+00
 -1      7726 4.55465E+00
 -1      7727 4.52544E+00
 -1      7728 4.52544E+00
 -1      7729 4.55465E+00
 -1      7730 4.58823E+00
 -1      7731 4.62607E+00
 -1      7732 4.66847E+00
 -1      7733 4.27111E+00
 -1      7734 4.22945E+00
 -1      7735 4.19088E+00
 -1      7736 4.15558E+00
 -1      7737 4.12346E+00
 -1      7738 4.12346E+00
 -1      7739 4.15558E+00
 -1      7740 4.19088E+00
 -1      7741 4.22945E+00
 -1      7742 4.27111E+00
 -1      7743 3.72434E+00
 -1      7744 3.68328E+00
 -1      7745 3.64581E+00
 -1      7746 3.60808E+00
 -1      7747 3.57028E+00
 -1      7748 3.57028E+00
 -1      7749 3.60808E+00
 -1      7750 3.64581E+00
 -1      7751 3.68328E+00
 -1      7752 3.72434E+00
 -1      7753 3.18542E+00
 -1      7754 3.14938E+00
 -1      7755 3.10073E+00
 -1      7756 3.04906E+00
 -1      7757 2.99769E+00
 -1      7758 2.99769E+00
 -1      7759 3.04906E+00
 -1      7760 3.10073E+00
 -1      7761 3.14938E+00
 -1      7762 3.18542E+00
 -1      7763 7.08273E+01
 -1      7764 7.08273E+01
 -1      7765 6.98024E+01
 -1      7766 6.88611E+01
 -1      7767 6.82239E+01
 -1      7768 6.82239E+01
 -1      7769 6.88611E+01
 -1      7770 6.98024E+01
 -1      7771 7.08273E+01
 -1      7772 7.08273E+01
 -1      7773 5.03810E+01
 -1      7774 5.03810E+01
 -1      7775 4.98004E+01
 -1      7776 4.91425E+01
 -1      7777 4.86576E+01
 -1      7778 4.86576E+01
 -1      7779 4.91425E+01
 -1      7780 4.98004E+01
 -1      7781 5.03810E+01
 -1      7782 5.03810E+01
 -1      7783 2.01458E+01
 -1      7784 2.01458E+01
 -1      7785 2.01068E+01
 -1      7786 2.00520E+01
 -1      7787 1.99876E+01
 -1      7788 1.99876E+01
 -1      7789 2.00520E+01
 -1      7790 2.01068E+01
 -1      7791 2.01458E+01
 -1      7792 2.01458E+01
 -1      7793 1.60869E+01
 -1      7794 1.60869E+01
 -1      7795 1.60245E+01
 -1      7796 1.60374E+01
 -1      7797 1.60374E+01
 -1      7798 1.60374E+01
 -1      7799 1.60374E+01
 -1      7800 1.60245E+01
 -1      7801 1.60869E+01
 -1      7802 1.60869E+01
 -1      7803 1.30333E+01
 -1      7804 1.31084E+01
 -1      7805 1.31243E+01
 -1      7806 1.31243E+01
 -1      7807 1.31137E+01
 -1      7808 1.31137E+01
 -1      7809 1.31243E+01
 -1      7810 1.31243E+01
 -1      7811 1.31084E+01
 -1      7812 1.30333E+01
 -1      7813 3.52194E+00
 -1      7814 3.52194E+00
 -1      7815 3.52048E+00
 -1      7816 3.51515E+00
 -1      7817 3.50628E+00
 -1      7818 3.50628E+00
 -1      7819 3.51515E+00
 -1      7820 3.52048E+00
 -1      7821 3.52194E+00
 -1      7822 3.52194E+00
 -1      7823 3.83272E+00
 -1      7824 3.83272E+00
 -1      7825 3.83100E+00
 -1      7826 3.82574E+00
 -1      7827 3.81721E+00
 -1      7828 3.81721E+00
 -1      7829 3.82574E+00
 -1      7830 3.83100E+00
 -1      7831 3.83272E+00
 -1      7832 3.83272E+00
 -1      7833 4.08319E+00
 -1      7834 4.08319E+00
 -1      7835 4.08234E+00
 -1      7836 4.07819E+00
 -1      7837 4.07073E+00
 -1      7838 4.07073E+00
 -1      7839 4.07819E+00
 -1      7840 4.08234E+00
 -1      7841 4.08319E+00
 -1      7842 4.08319E+00
 -1      7843 4.28408E+00
 -1      7844 4.28408E+00
 -1      7845 4.28376E+00
 -1      7846 4.28021E+00
 -1      7847 4.27342E+00
 -1      7848 4.27342E+00
 -1      7849 4.28021E+00
 -1      7850 4.28376E+00
 -1      7851 4.28408E+00
 -1      7852 4.28408E+00
 -1      7853 4.44866E+00
 -1      7854 4.44866E+00
 -1      7855 4.44866E+00
 -1      7856 4.44548E+00
 -1      7857 4.43908E+00
 -1      7858 4.43908E+00
 -1      7859 4.44548E+00
 -1      7860 4.44866E+00
 -1      7861 4.44866E+00
 -1      7862 4.44866E+00
 -1      7863 4.58464E+00
 -1      7864 4.58487E+00
 -1      7865 4.58487E+00
 -1      7866 4.58190E+00
 -1      7867 4.57571E+00
 -1      7868 4.57571E+00
 -1      7869 4.58190E+00
 -1      7870 4.58487E+00
 -1      7871 4.58487E+00
 -1      7872 4.58464E+00
 -1      7873 4.69851E+00
 -1      7874 4.69888E+00
 -1      7875 4.69888E+00
 -1      7876 4.69600E+00
 -1      7877 4.68986E+00
 -1      7878 4.68986E+00
 -1      7879 4.69600E+00
 -1      7880 4.69888E+00
 -1      7881 4.69888E+00
 -1      7882 4.69851E+00
 -1      7883 4.79792E+00
 -1      7884 4.79833E+00
 -1      7885 4.79833E+00
 -1      7886 4.79543E+00
 -1      7887 4.78922E+00
 -1      7888 4.78922E+00
 -1      7889 4.79543E+00
 -1      7890 4.79833E+00
 -1      7891 4.79833E+00
 -1      7892 4.79792E+00
 -1      7893 4.89281E+00
 -1      7894 4.89317E+00
 -1      7895 4.89317E+00
 -1      7896 4.89015E+00
 -1      7897 4.88373E+00
 -1      7898 4.88373E+00
 -1      7899 4.89015E+00
 -1      7900 4.89317E+00
 -1      7901 4.89317E+00
 -1      7902 4.89281E+00
 -1      7903 4.99582E+00
 -1      7904 4.99602E+00
 -1      7905 4.99602E+00
 -1      7906 4.99275E+00
 -1      7907 4.98600E+00
 -1      7908 4.98600E+00
 -1      7909 4.99275E+00
 -1      7910 4.99602E+00
 -1      7911 4.99602E+00
 -1      7912 4.99582E+00
 -1      7913 5.32722E+00
 -1      7914 5.32722E+00
 -1      7915 5.32693E+00
 -1      7916 5.31712E+00
 -1      7917 5.29774E+00
 -1      7918 5.29774E+00
 -1      7919 5.31712E+00
 -1      7920 5.32693E+00
 -1      7921 5.32722E+00
 -1      7922 5.32722E+00
 -1      7923 5.77490E+00
 -1      7924 5.77490E+00
 -1      7925 5.77328E+00
 -1      7926 5.76194E+00
 -1      7927 5.74086E+00
 -1      7928 5.74086E+00
 -1      7929 5.76194E+00
 -1      7930 5.77328E+00
 -1      7931 5.77490E+00
 -1      7932 5.77490E+00
 -1      7933 6.38338E+00
 -1      7934 6.38338E+00
 -1      7935 6.37975E+00
 -1      7936 6.36631E+00
 -1      7937 6.34301E+00
 -1      7938 6.34301E+00
 -1      7939 6.36631E+00
 -1      7940 6.37975E+00
 -1      7941 6.38338E+00
 -1      7942 6.38338E+00
 -1      7943 7.20811E+00
 -1      7944 7.20811E+00
 -1      7945 7.20164E+00
 -1      7946 7.18536E+00
 -1      7947 7.15926E+00
 -1      7948 7.15926E+00
 -1      7949 7.18536E+00
 -1      7950 7.20164E+00
 -1      7951 7.20811E+00
 -1      7952 7.20811E+00
 -1      7953 7.51216E+00
 -1      7954 7.51204E+00
 -1      7955 7.50204E+00
 -1      7956 7.48208E+00
 -1      7957 7.45214E+00
 -1      7958 7.45214E+00
 -1      7959 7.48208E+00
 -1      7960 7.50204E+00
 -1      7961 7.51204E+00
 -1      7962 7.51216E+00
 -1      7963 7.51216E+00
 -1      7964 7.51204E+00
 -1      7965 7.50204E+00
 -1      7966 7.48208E+00
 -1      7967 7.45214E+00
 -1      7968 7.45214E+00
 -1      7969 7.48208E+00
 -1      7970 7.50204E+00
 -1      7971 7.51204E+00
 -1      7972 7.51216E+00
 -1      7973 3.99527E+00
 -1      7974 3.95950E+00
 -1      7975 3.92728E+00
 -1      7976 3.89879E+00
 -1      7977 3.87417E+00
 -1      7978 3.87417E+00
 -1      7979 3.89879E+00
 -1      7980 3.92728E+00
 -1      7981 3.95950E+00
 -1      7982 3.99527E+00
 -1      7983 4.31011E+00
 -1      7984 4.27380E+00
 -1      7985 4.24119E+00
 -1      7986 4.21242E+00
 -1      7987 4.18760E+00
 -1      7988 4.18760E+00
 -1      7989 4.21242E+00
 -1      7990 4.24119E+00
 -1      7991 4.27380E+00
 -1      7992 4.31011E+00
 -1      7993 4.47094E+00
 -1      7994 4.43356E+00
 -1      7995 4.40004E+00
 -1      7996 4.37058E+00
 -1      7997 4.34522E+00
 -1      7998 4.34522E+00
 -1      7999 4.37058E+00
 -1      8000 4.40004E+00
 -1      8001 4.43356E+00
 -1      8002 4.47094E+00
 -1      8003 4.47094E+00
 -1      8004 4.43356E+00
 -1      8005 4.40004E+00
 -1      8006 4.37058E+00
 -1      8007 4.34522E+00
 -1      8008 4.34522E+00
 -1      8009 4.37058E+00
 -1      8010 4.40004E+00
 -1      8011 4.43356E+00
 -1      8012 4.47094E+00
 -1      8013 4.41427E+00
 -1      8014 4.37534E+00
 -1      8015 4.34075E+00
 -1      8016 4.31012E+00
 -1      8017 4.28355E+00
 -1      8018 4.28355E+00
 -1      8019 4.31012E+00
 -1      8020 4.34075E+00
 -1      8021 4.37534E+00
 -1      8022 4.41427E+00
 -1      8023 4.03241E+00
 -1      8024 3.99336E+00
 -1      8025 3.95721E+00
 -1      8026 3.92451E+00
 -1      8027 3.89509E+00
 -1      8028 3.89509E+00
 -1      8029 3.92451E+00
 -1      8030 3.95721E+00
 -1      8031 3.99336E+00
 -1      8032 4.03241E+00
 -1      8033 3.60077E+00
 -1      8034 3.55793E+00
 -1      8035 3.52080E+00
 -1      8036 3.48461E+00
 -1      8037 3.44898E+00
 -1      8038 3.44898E+00
 -1      8039 3.48461E+00
 -1      8040 3.52080E+00
 -1      8041 3.55793E+00
 -1      8042 3.60077E+00
 -1      8043 3.64154E+00
 -1      8044 3.66347E+00
 -1      8045 3.66639E+00
 -1      8046 3.66639E+00
 -1      8047 3.64760E+00
 -1      8048 3.64760E+00
 -1      8049 3.66639E+00
 -1      8050 3.66639E+00
 -1      8051 3.66347E+00
 -1      8052 3.64154E+00
 -1      8053 3.82637E+01
 -1      8054 3.69516E+01
 -1      8055 3.62677E+01
 -1      8056 3.58394E+01
 -1      8057 3.55245E+01
 -1      8058 3.55245E+01
 -1      8059 3.58394E+01
 -1      8060 3.62677E+01
 -1      8061 3.69516E+01
 -1      8062 3.82637E+01
 -1      8063 2.69068E+01
 -1      8064 2.61026E+01
 -1      8065 2.59990E+01
 -1      8066 2.59462E+01
 -1      8067 2.58834E+01
 -1      8068 2.58834E+01
 -1      8069 2.59462E+01
 -1      8070 2.59990E+01
 -1      8071 2.61026E+01
 -1      8072 2.69068E+01
 -1      8073 2.01458E+01
 -1      8074 2.01458E+01
 -1      8075 2.01068E+01
 -1      8076 2.00520E+01
 -1      8077 1.99876E+01
 -1      8078 1.99876E+01
 -1      8079 2.00520E+01
 -1      8080 2.01068E+01
 -1      8081 2.01458E+01
 -1      8082 2.01458E+01
 -1      8083 1.60869E+01
 -1      8084 1.60869E+01
 -1      8085 1.60245E+01
 -1      8086 1.60374E+01
 -1      8087 1.60374E+01
 -1      8088 1.60374E+01
 -1      8089 1.60374E+01
 -1      8090 1.60245E+01
 -1      8091 1.60869E+01
 -1      8092 1.60869E+01
 -1      8093 1.30333E+01
 -1      8094 1.31084E+01
 -1      8095 1.31243E+01
 -1      8096 1.31243E+01
 -1      8097 1.31137E+01
 -1      8098 1.31137E+01
 -1      8099 1.31243E+01
 -1      8100 1.31243E+01
 -1      8101 1.31084E+01
 -1      8102 1.30333E+01
 -1      8103 5.53289E+00
 -1      8104 5.55274E+00
 -1      8105 5.56512E+00
 -1      8106 5.56512E+00
 -1      8107 5.55622E+00
 -1      8108 5.55622E+00
 -1      8109 5.56512E+00
 -1      8110 5.56512E+00
 -1      8111 5.55274E+00
 -1      8112 5.53289E+00
 -1      8113 4.66784E+00
 -1      8114 4.67967E+00
 -1      8115 4.68345E+00
 -1      8116 4.68345E+00
 -1      8117 4.68088E+00
 -1      8118 4.68088E+00
 -1      8119 4.68345E+00
 -1      8120 4.68345E+00
 -1      8121 4.67967E+00
 -1      8122 4.66784E+00
 -1      8123 4.23722E+00
 -1      8124 4.24698E+00
 -1      8125 4.25092E+00
 -1      8126 4.25092E+00
 -1      8127 4.24841E+00
 -1      8128 4.24841E+00
 -1      8129 4.25092E+00
 -1      8130 4.25092E+00
 -1      8131 4.24698E+00
 -1      8132 4.23722E+00
 -1      8133 4.28408E+00
 -1      8134 4.28408E+00
 -1      8135 4.28376E+00
 -1      8136 4.28021E+00
 -1      8137 4.27342E+00
 -1      8138 4.27342E+00
 -1      8139 4.28021E+00
 -1      8140 4.28376E+00
 -1      8141 4.28408E+00
 -1      8142 4.28408E+00
 -1      8143 4.44866E+00
 -1      8144 4.44866E+00
 -1      8145 4.44866E+00
 -1      8146 4.44548E+00
 -1      8147 4.43908E+00
 -1      8148 4.43908E+00
 -1      8149 4.44548E+00
 -1      8150 4.44866E+00
 -1      8151 4.44866E+00
 -1      8152 4.44866E+00
 -1      8153 4.78251E+00
 -1      8154 4.78251E+00
 -1      8155 4.78221E+00
 -1      8156 4.77882E+00
 -1      8157 4.77232E+00
 -1      8158 4.77232E+00
 -1      8159 4.77882E+00
 -1      8160 4.78221E+00
 -1      8161 4.78251E+00
 -1      8162 4.78251E+00
 -1      8163 4.93635E+00
 -1      8164 4.93635E+00
 -1      8165 4.93629E+00
 -1      8166 4.93307E+00
 -1      8167 4.92667E+00
 -1      8168 4.92667E+00
 -1      8169 4.93307E+00
 -1      8170 4.93629E+00
 -1      8171 4.93635E+00
 -1      8172 4.93635E+00
 -1      8173 5.19651E+00
 -1      8174 5.19671E+00
 -1      8175 5.19671E+00
 -1      8176 5.18820E+00
 -1      8177 5.17096E+00
 -1      8178 5.17096E+00
 -1      8179 5.18820E+00
 -1      8180 5.19671E+00
 -1      8181 5.19671E+00
 -1      8182 5.19651E+00
 -1      8183 5.53868E+00
 -1      8184 5.53898E+00
 -1      8185 5.53898E+00
 -1      8186 5.53030E+00
 -1      8187 5.51261E+00
 -1      8188 5.51261E+00
 -1      8189 5.53030E+00
 -1      8190 5.53898E+00
 -1      8191 5.53898E+00
 -1      8192 5.53868E+00
 -1      8193 5.88478E+00
 -1      8194 5.88488E+00
 -1      8195 5.88488E+00
 -1      8196 5.87571E+00
 -1      8197 5.85723E+00
 -1      8198 5.85723E+00
 -1      8199 5.87571E+00
 -1      8200 5.88488E+00
 -1      8201 5.88488E+00
 -1      8202 5.88478E+00
 -1      8203 6.27228E+00
 -1      8204 6.27228E+00
 -1      8205 6.27180E+00
 -1      8206 6.26175E+00
 -1      8207 6.24212E+00
 -1      8208 6.24212E+00
 -1      8209 6.26175E+00
 -1      8210 6.27180E+00
 -1      8211 6.27228E+00
 -1      8212 6.27228E+00
 -1      8213 6.27228E+00
 -1      8214 6.27228E+00
 -1      8215 6.27180E+00
 -1      8216 6.26175E+00
 -1      8217 6.24212E+00
 -1      8218 6.24212E+00
 -1      8219 6.26175E+00
 -1      8220 6.27180E+00
 -1      8221 6.27228E+00
 -1      8222 6.27228E+00
 -1      8223 6.38338E+00
 -1      8224 6.38338E+00
 -1      8225 6.37975E+00
 -1      8226 6.36631E+00
 -1      8227 6.34301E+00
 -1      8228 6.34301E+00
 -1      8229 6.36631E+00
 -1      8230 6.37975E+00
 -1      8231 6.38338E+00
 -1      8232 6.38338E+00
 -1      8233 7.20811E+00
 -1      8234 7.20811E+00
 -1      8235 7.20164E+00
 -1      8236 7.18536E+00
 -1      8237 7.15926E+00
 -1      8238 7.15926E+00
 -1      8239 7.18536E+00
 -1      8240 7.20164E+00
 -1      8241 7.20811E+00
 -1      8242 7.20811E+00
 -1      8243 7.20811E+00
 -1      8244 7.20811E+00
 -1      8245 7.20164E+00
 -1      8246 7.18536E+00
 -1      8247 7.15926E+00
 -1      8248 7.15926E+00
 -1      8249 7.18536E+00
 -1      8250 7.20164E+00
 -1      8251 7.20811E+00
 -1      8252 7.20811E+00
 -1      8253 3.29635E+00
 -1      8254 3.26375E+00
 -1      8255 3.23438E+00
 -1      8256 3.20839E+00
 -1      8257 3.18588E+00
 -1      8258 3.18588E+00
 -1      8259 3.20839E+00
 -1      8260 3.23438E+00
 -1      8261 3.26375E+00
 -1      8262 3.29635E+00
 -1      8263 3.72150E+00
 -1      8264 3.68916E+00
 -1      8265 3.66000E+00
 -1      8266 3.63416E+00
 -1      8267 3.61174E+00
 -1      8268 3.61174E+00
 -1      8269 3.63416E+00
 -1      8270 3.66000E+00
 -1      8271 3.68916E+00
 -1      8272 3.72150E+00
 -1      8273 4.04141E+00
 -1      8274 4.00871E+00
 -1      8275 3.97929E+00
 -1      8276 3.95324E+00
 -1      8277 3.93069E+00
 -1      8278 3.93069E+00
 -1      8279 3.95324E+00
 -1      8280 3.97929E+00
 -1      8281 4.00871E+00
 -1      8282 4.04141E+00
 -1      8283 4.21773E+00
 -1      8284 4.18402E+00
 -1      8285 4.15372E+00
 -1      8286 4.12705E+00
 -1      8287 4.10403E+00
 -1      8288 4.10403E+00
 -1      8289 4.12705E+00
 -1      8290 4.15372E+00
 -1      8291 4.18402E+00
 -1      8292 4.21773E+00
 -1      8293 4.21773E+00
 -1      8294 4.18402E+00
 -1      8295 4.15372E+00
 -1      8296 4.12705E+00
 -1      8297 4.10403E+00
 -1      8298 4.10403E+00
 -1      8299 4.12705E+00
 -1      8300 4.15372E+00
 -1      8301 4.18402E+00
 -1      8302 4.21773E+00
 -1      8303 4.18483E+00
 -1      8304 4.14915E+00
 -1      8305 4.11760E+00
 -1      8306 4.08968E+00
 -1      8307 4.06552E+00
 -1      8308 4.06552E+00
 -1      8309 4.08968E+00
 -1      8310 4.11760E+00
 -1      8311 4.14915E+00
 -1      8312 4.18483E+00
 -1      8313 3.82346E+00
 -1      8314 3.78692E+00
 -1      8315 3.75299E+00
 -1      8316 3.72265E+00
 -1      8317 3.69572E+00
 -1      8318 3.69572E+00
 -1      8319 3.72265E+00
 -1      8320 3.75299E+00
 -1      8321 3.78692E+00
 -1      8322 3.82346E+00
 -1      8323 3.49806E+00
 -1      8324 3.45305E+00
 -1      8325 3.41598E+00
 -1      8326 3.38107E+00
 -1      8327 3.34744E+00
 -1      8328 3.34744E+00
 -1      8329 3.38107E+00
 -1      8330 3.41598E+00
 -1      8331 3.45305E+00
 -1      8332 3.49806E+00
 -1      8333 4.99054E+00
 -1      8334 5.10940E+00
 -1      8335 5.16857E+00
 -1      8336 5.16857E+00
 -1      8337 5.14477E+00
 -1      8338 5.14477E+00
 -1      8339 5.16857E+00
 -1      8340 5.16857E+00
 -1      8341 5.10940E+00
 -1      8342 4.99054E+00
 -1      8343 2.78982E+01
 -1      8344 2.60302E+01
 -1      8345 2.49650E+01
 -1      8346 2.43453E+01
 -1      8347 2.40074E+01
 -1      8348 2.40074E+01
 -1      8349 2.43453E+01
 -1      8350 2.49650E+01
 -1      8351 2.60302E+01
 -1      8352 2.78982E+01
 -1      8353 1.74845E+01
 -1      8354 1.62360E+01
 -1      8355 1.63838E+01
 -1      8356 1.64731E+01
 -1      8357 1.64871E+01
 -1      8358 1.64871E+01
 -1      8359 1.64731E+01
 -1      8360 1.63838E+01
 -1      8361 1.62360E+01
 -1      8362 1.74845E+01
 -1      8363 1.25420E+01
 -1      8364 1.25420E+01
 -1      8365 1.23060E+01
 -1      8366 1.21590E+01
 -1      8367 1.20589E+01
 -1      8368 1.20589E+01
 -1      8369 1.21590E+01
 -1      8370 1.23060E+01
 -1      8371 1.25420E+01
 -1      8372 1.25420E+01
 -1      8373 9.51539E+00
 -1      8374 9.51539E+00
 -1      8375 9.38488E+00
 -1      8376 9.36920E+00
 -1      8377 9.31958E+00
 -1      8378 9.31958E+00
 -1      8379 9.36920E+00
 -1      8380 9.38488E+00
 -1      8381 9.51539E+00
 -1      8382 9.51539E+00
 -1      8383 7.28074E+00
 -1      8384 7.30858E+00
 -1      8385 7.30858E+00
 -1      8386 7.29098E+00
 -1      8387 7.26207E+00
 -1      8388 7.26207E+00
 -1      8389 7.29098E+00
 -1      8390 7.30858E+00
 -1      8391 7.30858E+00
 -1      8392 7.28074E+00
 -1      8393 5.53289E+00
 -1      8394 5.55274E+00
 -1      8395 5.56512E+00
 -1      8396 5.56512E+00
 -1      8397 5.55622E+00
 -1      8398 5.55622E+00
 -1      8399 5.56512E+00
 -1      8400 5.56512E+00
 -1      8401 5.55274E+00
 -1      8402 5.53289E+00
 -1      8403 4.66784E+00
 -1      8404 4.67967E+00
 -1      8405 4.68345E+00
 -1      8406 4.68345E+00
 -1      8407 4.68088E+00
 -1      8408 4.68088E+00
 -1      8409 4.68345E+00
 -1      8410 4.68345E+00
 -1      8411 4.67967E+00
 -1      8412 4.66784E+00
 -1      8413 4.23722E+00
 -1      8414 4.24698E+00
 -1      8415 4.25092E+00
 -1      8416 4.25092E+00
 -1      8417 4.24841E+00
 -1      8418 4.24841E+00
 -1      8419 4.25092E+00
 -1      8420 4.25092E+00
 -1      8421 4.24698E+00
 -1      8422 4.23722E+00
 -1      8423 3.86267E+00
 -1      8424 3.87179E+00
 -1      8425 3.87497E+00
 -1      8426 3.87497E+00
 -1      8427 3.87230E+00
 -1      8428 3.87230E+00
 -1      8429 3.87497E+00
 -1      8430 3.87497E+00
 -1      8431 3.87179E+00
 -1      8432 3.86267E+00
 -1      8433 3.50655E+00
 -1      8434 3.51502E+00
 -1      8435 3.51780E+00
 -1      8436 3.51780E+00
 -1      8437 3.51483E+00
 -1      8438 3.51483E+00
 -1      8439 3.51780E+00
 -1      8440 3.51780E+00
 -1      8441 3.51502E+00
 -1      8442 3.50655E+00
 -1      8443 4.78251E+00
 -1      8444 4.78251E+00
 -1      8445 4.78221E+00
 -1      8446 4.77882E+00
 -1      8447 4.77232E+00
 -1      8448 4.77232E+00
 -1      8449 4.77882E+00
 -1      8450 4.78221E+00
 -1      8451 4.78251E+00
 -1      8452 4.78251E+00
 -1      8453 4.93635E+00
 -1      8454 4.93635E+00
 -1      8455 4.93629E+00
 -1      8456 4.93307E+00
 -1      8457 4.92667E+00
 -1      8458 4.92667E+00
 -1      8459 4.93307E+00
 -1      8460 4.93629E+00
 -1      8461 4.93635E+00
 -1      8462 4.93635E+00
 -1      8463 5.19651E+00
 -1      8464 5.19671E+00
 -1      8465 5.19671E+00
 -1      8466 5.18820E+00
 -1      8467 5.17096E+00
 -1      8468 5.17096E+00
 -1      8469 5.18820E+00
 -1      8470 5.19671E+00
 -1      8471 5.19671E+00
 -1      8472 5.19651E+00
 -1      8473 5.53868E+00
 -1      8474 5.53898E+00
 -1      8475 5.53898E+00
 -1      8476 5.53030E+00
 -1      8477 5.51261E+00
 -1      8478 5.51261E+00
 -1      8479 5.53030E+00
 -1      8480 5.53898E+00
 -1      8481 5.53898E+00
 -1      8482 5.53868E+00
 -1      8483 5.88478E+00
 -1      8484 5.88488E+00
 -1      8485 5.88488E+00
 -1      8486 5.87571E+00
 -1      8487 5.85723E+00
 -1      8488 5.85723E+00
 -1      8489 5.87571E+00
 -1      8490 5.88488E+00
 -1      8491 5.88488E+00
 -1      8492 5.88478E+00
 -1      8493 6.27228E+00
 -1      8494 6.27228E+00
 -1      8495 6.27180E+00
 -1      8496 6.26175E+00
 -1      8497 6.24212E+00
 -1      8498 6.24212E+00
 -1      8499 6.26175E+00
 -1      8500 6.27180E+00
 -1      8501 6.27228E+00
 -1      8502 6.27228E+00
 -1      8503 6.27228E+00
 -1      8504 6.27228E+00
 -1      8505 6.27180E+00
 -1      8506 6.26175E+00
 -1      8507 6.24212E+00
 -1      8508 6.24212E+00
 -1      8509 6.26175E+00
 -1      8510 6.27180E+00
 -1      8511 6.27228E+00
 -1      8512 6.27228E+00
 -1      8513 2.17782E+00
 -1      8514 2.16876E+00
 -1      8515 2.15838E+00
 -1      8516 2.14670E+00
 -1      8517 2.13374E+00
 -1      8518 2.13374E+00
 -1      8519 2.14670E+00
 -1      8520 2.15838E+00
 -1      8521 2.16876E+00
 -1      8522 2.17782E+00
 -1      8523 2.24324E+00
 -1      8524 2.23240E+00
 -1      8525 2.22052E+00
 -1      8526 2.20763E+00
 -1      8527 2.19376E+00
 -1      8528 2.19376E+00
 -1      8529 2.20763E+00
 -1      8530 2.22052E+00
 -1      8531 2.23240E+00
 -1      8532 2.24324E+00
 -1      8533 2.53414E+00
 -1      8534 2.50369E+00
 -1      8535 2.47637E+00
 -1      8536 2.45229E+00
 -1      8537 2.43155E+00
 -1      8538 2.43155E+00
 -1      8539 2.45229E+00
 -1      8540 2.47637E+00
 -1      8541 2.50369E+00
 -1      8542 2.53414E+00
 -1      8543 3.03077E+00
 -1      8544 3.00113E+00
 -1      8545 2.97441E+00
 -1      8546 2.95073E+00
 -1      8547 2.93018E+00
 -1      8548 2.93018E+00
 -1      8549 2.95073E+00
 -1      8550 2.97441E+00
 -1      8551 3.00113E+00
 -1      8552 3.03077E+00
 -1      8553 3.45554E+00
 -1      8554 3.42634E+00
 -1      8555 3.39994E+00
 -1      8556 3.37647E+00
 -1      8557 3.35602E+00
 -1      8558 3.35602E+00
 -1      8559 3.37647E+00
 -1      8560 3.39994E+00
 -1      8561 3.42634E+00
 -1      8562 3.45554E+00
 -1      8563 3.78509E+00
 -1      8564 3.75576E+00
 -1      8565 3.72930E+00
 -1      8566 3.70575E+00
 -1      8567 3.68524E+00
 -1      8568 3.68524E+00
 -1      8569 3.70575E+00
 -1      8570 3.72930E+00
 -1      8571 3.75576E+00
 -1      8572 3.78509E+00
 -1      8573 3.98167E+00
 -1      8574 3.95150E+00
 -1      8575 3.92428E+00
 -1      8576 3.90024E+00
 -1      8577 3.87938E+00
 -1      8578 3.87938E+00
 -1      8579 3.90024E+00
 -1      8580 3.92428E+00
 -1      8581 3.95150E+00
 -1      8582 3.98167E+00
 -1      8583 3.98167E+00
 -1      8584 3.95150E+00
 -1      8585 3.92428E+00
 -1      8586 3.90024E+00
 -1      8587 3.87938E+00
 -1      8588 3.87938E+00
 -1      8589 3.90024E+00
 -1      8590 3.92428E+00
 -1      8591 3.95150E+00
 -1      8592 3.98167E+00
 -1      8593 3.97813E+00
 -1      8594 3.94571E+00
 -1      8595 3.91717E+00
 -1      8596 3.89191E+00
 -1      8597 3.87003E+00
 -1      8598 3.87003E+00
 -1      8599 3.89191E+00
 -1      8600 3.91717E+00
 -1      8601 3.94571E+00
 -1      8602 3.97813E+00
 -1      8603 3.64330E+00
 -1      8604 3.60944E+00
 -1      8605 3.57782E+00
 -1      8606 3.54985E+00
 -1      8607 3.52534E+00
 -1      8608 3.52534E+00
 -1      8609 3.54985E+00
 -1      8610 3.57782E+00
 -1      8611 3.60944E+00
 -1      8612 3.64330E+00
 -1      8613 3.41924E+00
 -1      8614 3.37171E+00
 -1      8615 3.33445E+00
 -1      8616 3.30071E+00
 -1      8617 3.26903E+00
 -1      8618 3.26903E+00
 -1      8619 3.30071E+00
 -1      8620 3.33445E+00
 -1      8621 3.37171E+00
 -1      8622 3.41924E+00
 -1      8623 9.53518E+00
 -1      8624 9.77750E+00
 -1      8625 9.91054E+00
 -1      8626 9.92661E+00
 -1      8627 9.92661E+00
 -1      8628 9.92661E+00
 -1      8629 9.92661E+00
 -1      8630 9.91054E+00
 -1      8631 9.77750E+00
 -1      8632 9.53518E+00
 -1      8633 2.27700E+01
 -1      8634 2.06652E+01
 -1      8635 1.94494E+01
 -1      8636 1.87333E+01
 -1      8637 1.83261E+01
 -1      8638 1.83261E+01
 -1      8639 1.87333E+01
 -1      8640 1.94494E+01
 -1      8641 2.06652E+01
 -1      8642 2.27700E+01
 -1      8643 1.23728E+01
 -1      8644 1.10071E+01
 -1      8645 1.12464E+01
 -1      8646 1.14079E+01
 -1      8647 1.14629E+01
 -1      8648 1.14629E+01
 -1      8649 1.14079E+01
 -1      8650 1.12464E+01
 -1      8651 1.10071E+01
 -1      8652 1.23728E+01
 -1      8653 8.19443E+00
 -1      8654 8.18201E+00
 -1      8655 7.85583E+00
 -1      8656 7.65881E+00
 -1      8657 7.53469E+00
 -1      8658 7.53469E+00
 -1      8659 7.65881E+00
 -1      8660 7.85583E+00
 -1      8661 8.18201E+00
 -1      8662 8.19443E+00
 -1      8663 5.58043E+00
 -1      8664 5.58043E+00
 -1      8665 5.44933E+00
 -1      8666 5.39182E+00
 -1      8667 5.30726E+00
 -1      8668 5.30726E+00
 -1      8669 5.39182E+00
 -1      8670 5.44933E+00
 -1      8671 5.58043E+00
 -1      8672 5.58043E+00
 -1      8673 4.52775E+00
 -1      8674 4.52020E+00
 -1      8675 4.52020E+00
 -1      8676 4.50898E+00
 -1      8677 4.49536E+00
 -1      8678 4.49536E+00
 -1      8679 4.50898E+00
 -1      8680 4.52020E+00
 -1      8681 4.52020E+00
 -1      8682 4.52775E+00
 -1      8683 3.98895E+00
 -1      8684 3.99037E+00
 -1      8685 3.99204E+00
 -1      8686 3.99204E+00
 -1      8687 3.98802E+00
 -1      8688 3.98802E+00
 -1      8689 3.99204E+00
 -1      8690 3.99204E+00
 -1      8691 3.99037E+00
 -1      8692 3.98895E+00
 -1      8693 3.57507E+00
 -1      8694 3.58270E+00
 -1      8695 3.58390E+00
 -1      8696 3.58390E+00
 -1      8697 3.58077E+00
 -1      8698 3.58077E+00
 -1      8699 3.58390E+00
 -1      8700 3.58390E+00
 -1      8701 3.58270E+00
 -1      8702 3.57507E+00
 -1      8703 3.25931E+00
 -1      8704 3.26504E+00
 -1      8705 3.26687E+00
 -1      8706 3.26687E+00
 -1      8707 3.26406E+00
 -1      8708 3.26406E+00
 -1      8709 3.26687E+00
 -1      8710 3.26687E+00
 -1      8711 3.26504E+00
 -1      8712 3.25931E+00
 -1      8713 2.99826E+00
 -1      8714 3.00380E+00
 -1      8715 3.00510E+00
 -1      8716 3.00510E+00
 -1      8717 3.00230E+00
 -1      8718 3.00230E+00
 -1      8719 3.00510E+00
 -1      8720 3.00510E+00
 -1      8721 3.00380E+00
 -1      8722 2.99826E+00
 -1      8723 2.75695E+00
 -1      8724 2.76219E+00
 -1      8725 2.76337E+00
 -1      8726 2.76337E+00
 -1      8727 2.76042E+00
 -1      8728 2.76042E+00
 -1      8729 2.76337E+00
 -1      8730 2.76337E+00
 -1      8731 2.76219E+00
 -1      8732 2.75695E+00
 -1      8733 2.58683E+00
 -1      8734 2.58609E+00
 -1      8735 2.58348E+00
 -1      8736 2.57900E+00
 -1      8737 2.57264E+00
 -1      8738 2.57264E+00
 -1      8739 2.57900E+00
 -1      8740 2.58348E+00
 -1      8741 2.58609E+00
 -1      8742 2.58683E+00
 -1      8743 2.48508E+00
 -1      8744 2.48408E+00
 -1      8745 2.48123E+00
 -1      8746 2.47652E+00
 -1      8747 2.46994E+00
 -1      8748 2.46994E+00
 -1      8749 2.47652E+00
 -1      8750 2.48123E+00
 -1      8751 2.48408E+00
 -1      8752 2.48508E+00
 -1      8753 2.37732E+00
 -1      8754 2.37584E+00
 -1      8755 2.37254E+00
 -1      8756 2.36742E+00
 -1      8757 2.36047E+00
 -1      8758 2.36047E+00
 -1      8759 2.36742E+00
 -1      8760 2.37254E+00
 -1      8761 2.37584E+00
 -1      8762 2.37732E+00
 -1      8763 2.27136E+00
 -1      8764 2.26918E+00
 -1      8765 2.26525E+00
 -1      8766 2.25955E+00
 -1      8767 2.25209E+00
 -1      8768 2.25209E+00
 -1      8769 2.25955E+00
 -1      8770 2.26525E+00
 -1      8771 2.26918E+00
 -1      8772 2.27136E+00
 -1      8773 2.17585E+00
 -1      8774 2.17276E+00
 -1      8775 2.16801E+00
 -1      8776 2.16158E+00
 -1      8777 2.15348E+00
 -1      8778 2.15348E+00
 -1      8779 2.16158E+00
 -1      8780 2.16801E+00
 -1      8781 2.17276E+00
 -1      8782 2.17585E+00
 -1      8783 2.09967E+00
 -1      8784 2.09548E+00
 -1      8785 2.08974E+00
 -1      8786 2.08244E+00
 -1      8787 2.07359E+00
 -1      8788 2.07359E+00
 -1      8789 2.08244E+00
 -1      8790 2.08974E+00
 -1      8791 2.09548E+00
 -1      8792 2.09967E+00
 -1      8793 2.05136E+00
 -1      8794 2.04590E+00
 -1      8795 2.03902E+00
 -1      8796 2.03072E+00
 -1      8797 2.02101E+00
 -1      8798 2.02101E+00
 -1      8799 2.03072E+00
 -1      8800 2.03902E+00
 -1      8801 2.04590E+00
 -1      8802 2.05136E+00
 -1      8803 2.06729E+00
 -1      8804 2.05878E+00
 -1      8805 2.04922E+00
 -1      8806 2.03862E+00
 -1      8807 2.02701E+00
 -1      8808 2.02701E+00
 -1      8809 2.03862E+00
 -1      8810 2.04922E+00
 -1      8811 2.05878E+00
 -1      8812 2.06729E+00
 -1      8813 2.14204E+00
 -1      8814 2.13175E+00
 -1      8815 2.12066E+00
 -1      8816 2.10880E+00
 -1      8817 2.09617E+00
 -1      8818 2.09617E+00
 -1      8819 2.10880E+00
 -1      8820 2.12066E+00
 -1      8821 2.13175E+00
 -1      8822 2.14204E+00
 -1      8823 2.28516E+00
 -1      8824 2.26485E+00
 -1      8825 2.24567E+00
 -1      8826 2.22768E+00
 -1      8827 2.21304E+00
 -1      8828 2.21304E+00
 -1      8829 2.22768E+00
 -1      8830 2.24567E+00
 -1      8831 2.26485E+00
 -1      8832 2.28516E+00
 -1      8833 2.77121E+00
 -1      8834 2.74424E+00
 -1      8835 2.71991E+00
 -1      8836 2.69829E+00
 -1      8837 2.67947E+00
 -1      8838 2.67947E+00
 -1      8839 2.69829E+00
 -1      8840 2.71991E+00
 -1      8841 2.74424E+00
 -1      8842 2.77121E+00
 -1      8843 3.19963E+00
 -1      8844 3.17333E+00
 -1      8845 3.14947E+00
 -1      8846 3.12815E+00
 -1      8847 3.10945E+00
 -1      8848 3.10945E+00
 -1      8849 3.12815E+00
 -1      8850 3.14947E+00
 -1      8851 3.17333E+00
 -1      8852 3.19963E+00
 -1      8853 3.54276E+00
 -1      8854 3.51667E+00
 -1      8855 3.49300E+00
 -1      8856 3.47179E+00
 -1      8857 3.45313E+00
 -1      8858 3.45313E+00
 -1      8859 3.47179E+00
 -1      8860 3.49300E+00
 -1      8861 3.51667E+00
 -1      8862 3.54276E+00
 -1      8863 3.76362E+00
 -1      8864 3.73702E+00
 -1      8865 3.71285E+00
 -1      8866 3.69137E+00
 -1      8867 3.67255E+00
 -1      8868 3.67255E+00
 -1      8869 3.69137E+00
 -1      8870 3.71285E+00
 -1      8871 3.73702E+00
 -1      8872 3.76362E+00
 -1      8873 3.79453E+00
 -1      8874 3.76562E+00
 -1      8875 3.74025E+00
 -1      8876 3.71771E+00
 -1      8877 3.69810E+00
 -1      8878 3.69810E+00
 -1      8879 3.71771E+00
 -1      8880 3.74025E+00
 -1      8881 3.76562E+00
 -1      8882 3.79453E+00
 -1      8883 3.79453E+00
 -1      8884 3.76562E+00
 -1      8885 3.74025E+00
 -1      8886 3.71771E+00
 -1      8887 3.69810E+00
 -1      8888 3.69810E+00
 -1      8889 3.71771E+00
 -1      8890 3.74025E+00
 -1      8891 3.76562E+00
 -1      8892 3.79453E+00
 -1      8893 3.53768E+00
 -1      8894 3.50154E+00
 -1      8895 3.46845E+00
 -1      8896 3.44025E+00
 -1      8897 3.41668E+00
 -1      8898 3.41668E+00
 -1      8899 3.44025E+00
 -1      8900 3.46845E+00
 -1      8901 3.50154E+00
 -1      8902 3.53768E+00
 -1      8903 3.36851E+00
 -1      8904 3.31816E+00
 -1      8905 3.28058E+00
 -1      8906 3.24798E+00
 -1      8907 3.21836E+00
 -1      8908 3.21836E+00
 -1      8909 3.24798E+00
 -1      8910 3.28058E+00
 -1      8911 3.31816E+00
 -1      8912 3.36851E+00
 -1      8913 1.53039E+01
 -1      8914 1.56961E+01
 -1      8915 1.59344E+01
 -1      8916 1.60099E+01
 -1      8917 1.60099E+01
 -1      8918 1.60099E+01
 -1      8919 1.60099E+01
 -1      8920 1.59344E+01
 -1      8921 1.56961E+01
 -1      8922 1.53039E+01
 -1      8923 1.97273E+01
 -1      8924 1.75348E+01
 -1      8925 1.62433E+01
 -1      8926 1.54709E+01
 -1      8927 1.50205E+01
 -1      8928 1.50205E+01
 -1      8929 1.54709E+01
 -1      8930 1.62433E+01
 -1      8931 1.75348E+01
 -1      8932 1.97273E+01
 -1      8933 9.19861E+00
 -1      8934 7.80000E+00
 -1      8935 8.08648E+00
 -1      8936 8.29212E+00
 -1      8937 8.36268E+00
 -1      8938 8.36268E+00
 -1      8939 8.29212E+00
 -1      8940 8.08648E+00
 -1      8941 7.80000E+00
 -1      8942 9.19861E+00
 -1      8943 5.44051E+00
 -1      8944 5.35780E+00
 -1      8945 4.99499E+00
 -1      8946 4.90967E+00
 -1      8947 4.85638E+00
 -1      8948 4.85638E+00
 -1      8949 4.90967E+00
 -1      8950 4.99499E+00
 -1      8951 5.35780E+00
 -1      8952 5.44051E+00
 -1      8953 4.23253E+00
 -1      8954 4.23253E+00
 -1      8955 4.17934E+00
 -1      8956 4.15021E+00
 -1      8957 4.11187E+00
 -1      8958 4.11187E+00
 -1      8959 4.15021E+00
 -1      8960 4.17934E+00
 -1      8961 4.23253E+00
 -1      8962 4.23253E+00
 -1      8963 3.61364E+00
 -1      8964 3.59829E+00
 -1      8965 3.59829E+00
 -1      8966 3.58585E+00
 -1      8967 3.57111E+00
 -1      8968 3.57111E+00
 -1      8969 3.58585E+00
 -1      8970 3.59829E+00
 -1      8971 3.59829E+00
 -1      8972 3.61364E+00
 -1      8973 3.14693E+00
 -1      8974 3.14693E+00
 -1      8975 3.14616E+00
 -1      8976 3.14616E+00
 -1      8977 3.14234E+00
 -1      8978 3.14234E+00
 -1      8979 3.14616E+00
 -1      8980 3.14616E+00
 -1      8981 3.14693E+00
 -1      8982 3.14693E+00
 -1      8983 2.81314E+00
 -1      8984 2.81878E+00
 -1      8985 2.81891E+00
 -1      8986 2.81891E+00
 -1      8987 2.81584E+00
 -1      8988 2.81584E+00
 -1      8989 2.81891E+00
 -1      8990 2.81891E+00
 -1      8991 2.81878E+00
 -1      8992 2.81314E+00
 -1      8993 2.57679E+00
 -1      8994 2.58042E+00
 -1      8995 2.58131E+00
 -1      8996 2.58131E+00
 -1      8997 2.57867E+00
 -1      8998 2.57867E+00
 -1      8999 2.58131E+00
 -1      9000 2.58131E+00
 -1      9001 2.58042E+00
 -1      9002 2.57679E+00
 -1      9003 2.40637E+00
 -1      9004 2.40686E+00
 -1      9005 2.40686E+00
 -1      9006 2.40502E+00
 -1      9007 2.40092E+00
 -1      9008 2.40092E+00
 -1      9009 2.40502E+00
 -1      9010 2.40686E+00
 -1      9011 2.40686E+00
 -1      9012 2.40637E+00
 -1      9013 2.34422E+00
 -1      9014 2.34339E+00
 -1      9015 2.34116E+00
 -1      9016 2.33752E+00
 -1      9017 2.33245E+00
 -1      9018 2.33245E+00
 -1      9019 2.33752E+00
 -1      9020 2.34116E+00
 -1      9021 2.34339E+00
 -1      9022 2.34422E+00
 -1      9023 2.28995E+00
 -1      9024 2.28923E+00
 -1      9025 2.28706E+00
 -1      9026 2.28343E+00
 -1      9027 2.27834E+00
 -1      9028 2.27834E+00
 -1      9029 2.28343E+00
 -1      9030 2.28706E+00
 -1      9031 2.28923E+00
 -1      9032 2.28995E+00
 -1      9033 2.22539E+00
 -1      9034 2.22454E+00
 -1      9035 2.22222E+00
 -1      9036 2.21844E+00
 -1      9037 2.21318E+00
 -1      9038 2.21318E+00
 -1      9039 2.21844E+00
 -1      9040 2.22222E+00
 -1      9041 2.22454E+00
 -1      9042 2.22539E+00
 -1      9043 2.15443E+00
 -1      9044 2.15324E+00
 -1      9045 2.15059E+00
 -1      9046 2.14648E+00
 -1      9047 2.14091E+00
 -1      9048 2.14091E+00
 -1      9049 2.14648E+00
 -1      9050 2.15059E+00
 -1      9051 2.15324E+00
 -1      9052 2.15443E+00
 -1      9053 2.08250E+00
 -1      9054 2.08075E+00
 -1      9055 2.07758E+00
 -1      9056 2.07298E+00
 -1      9057 2.06694E+00
 -1      9058 2.06694E+00
 -1      9059 2.07298E+00
 -1      9060 2.07758E+00
 -1      9061 2.08075E+00
 -1      9062 2.08250E+00
 -1      9063 2.01638E+00
 -1      9064 2.01386E+00
 -1      9065 2.00997E+00
 -1      9066 2.00470E+00
 -1      9067 1.99805E+00
 -1      9068 1.99805E+00
 -1      9069 2.00470E+00
 -1      9070 2.00997E+00
 -1      9071 2.01386E+00
 -1      9072 2.01638E+00
 -1      9073 1.96386E+00
 -1      9074 1.96035E+00
 -1      9075 1.95554E+00
 -1      9076 1.94944E+00
 -1      9077 1.94205E+00
 -1      9078 1.94205E+00
 -1      9079 1.94944E+00
 -1      9080 1.95554E+00
 -1      9081 1.96035E+00
 -1      9082 1.96386E+00
 -1      9083 1.93316E+00
 -1      9084 1.92844E+00
 -1      9085 1.92254E+00
 -1      9086 1.91545E+00
 -1      9087 1.90717E+00
 -1      9088 1.90717E+00
 -1      9089 1.91545E+00
 -1      9090 1.92254E+00
 -1      9091 1.92844E+00
 -1      9092 1.93316E+00
 -1      9093 1.96820E+00
 -1      9094 1.96045E+00
 -1      9095 1.95184E+00
 -1      9096 1.94238E+00
 -1      9097 1.93206E+00
 -1      9098 1.93206E+00
 -1      9099 1.94238E+00
 -1      9100 1.95184E+00
 -1      9101 1.96045E+00
 -1      9102 1.96820E+00
 -1      9103 2.04645E+00
 -1      9104 2.03693E+00
 -1      9105 2.02675E+00
 -1      9106 2.01595E+00
 -1      9107 2.00453E+00
 -1      9108 2.00453E+00
 -1      9109 2.01595E+00
 -1      9110 2.02675E+00
 -1      9111 2.03693E+00
 -1      9112 2.04645E+00
 -1      9113 2.17046E+00
 -1      9114 2.15899E+00
 -1      9115 2.14713E+00
 -1      9116 2.13493E+00
 -1      9117 2.12240E+00
 -1      9118 2.12240E+00
 -1      9119 2.13493E+00
 -1      9120 2.14713E+00
 -1      9121 2.15899E+00
 -1      9122 2.17046E+00
 -1      9123 2.52067E+00
 -1      9124 2.49614E+00
 -1      9125 2.47396E+00
 -1      9126 2.45420E+00
 -1      9127 2.43692E+00
 -1      9128 2.43692E+00
 -1      9129 2.45420E+00
 -1      9130 2.47396E+00
 -1      9131 2.49614E+00
 -1      9132 2.52067E+00
 -1      9133 2.95689E+00
 -1      9134 2.93330E+00
 -1      9135 2.91177E+00
 -1      9136 2.89241E+00
 -1      9137 2.87527E+00
 -1      9138 2.87527E+00
 -1      9139 2.89241E+00
 -1      9140 2.91177E+00
 -1      9141 2.93330E+00
 -1      9142 2.95689E+00
 -1      9143 3.31788E+00
 -1      9144 3.29495E+00
 -1      9145 3.27397E+00
 -1      9146 3.25497E+00
 -1      9147 3.23801E+00
 -1      9148 3.23801E+00
 -1      9149 3.25497E+00
 -1      9150 3.27397E+00
 -1      9151 3.29495E+00
 -1      9152 3.31788E+00
 -1      9153 3.56723E+00
 -1      9154 3.54434E+00
 -1      9155 3.52329E+00
 -1      9156 3.50436E+00
 -1      9157 3.48750E+00
 -1      9158 3.48750E+00
 -1      9159 3.50436E+00
 -1      9160 3.52329E+00
 -1      9161 3.54434E+00
 -1      9162 3.56723E+00
 -1      9163 3.63772E+00
 -1      9164 3.61278E+00
 -1      9165 3.59091E+00
 -1      9166 3.57129E+00
 -1      9167 3.55400E+00
 -1      9168 3.55400E+00
 -1      9169 3.57129E+00
 -1      9170 3.59091E+00
 -1      9171 3.61278E+00
 -1      9172 3.63772E+00
 -1      9173 3.63772E+00
 -1      9174 3.61278E+00
 -1      9175 3.59091E+00
 -1      9176 3.57129E+00
 -1      9177 3.55400E+00
 -1      9178 3.55400E+00
 -1      9179 3.57129E+00
 -1      9180 3.59091E+00
 -1      9181 3.61278E+00
 -1      9182 3.63772E+00
 -1      9183 3.50883E+00
 -1      9184 3.47381E+00
 -1      9185 3.44171E+00
 -1      9186 3.41483E+00
 -1      9187 3.39304E+00
 -1      9188 3.39304E+00
 -1      9189 3.41483E+00
 -1      9190 3.44171E+00
 -1      9191 3.47381E+00
 -1      9192 3.50883E+00
 -1      9193 3.37342E+00
 -1      9194 3.31677E+00
 -1      9195 3.27850E+00
 -1      9196 3.24861E+00
 -1      9197 3.22391E+00
 -1      9198 3.22391E+00
 -1      9199 3.24861E+00
 -1      9200 3.27850E+00
 -1      9201 3.31677E+00
 -1      9202 3.37342E+00
 -1      9203 2.25894E+01
 -1      9204 2.31794E+01
 -1      9205 2.35606E+01
 -1      9206 2.37209E+01
 -1      9207 2.37209E+01
 -1      9208 2.37209E+01
 -1      9209 2.37209E+01
 -1      9210 2.35606E+01
 -1      9211 2.31794E+01
 -1      9212 2.25894E+01
 -1      9213 1.77416E+01
 -1      9214 1.55406E+01
 -1      9215 1.42200E+01
 -1      9216 1.34190E+01
 -1      9217 1.29440E+01
 -1      9218 1.29440E+01
 -1      9219 1.34190E+01
 -1      9220 1.42200E+01
 -1      9221 1.55406E+01
 -1      9222 1.77416E+01
 -1      9223 7.06833E+00
 -1      9224 5.67264E+00
 -1      9225 5.98369E+00
 -1      9226 6.21748E+00
 -1      9227 6.29166E+00
 -1      9228 6.29166E+00
 -1      9229 6.21748E+00
 -1      9230 5.98369E+00
 -1      9231 5.67264E+00
 -1      9232 7.06833E+00
 -1      9233 4.45103E+00
 -1      9234 4.38917E+00
 -1      9235 4.24199E+00
 -1      9236 4.14850E+00
 -1      9237 4.08947E+00
 -1      9238 4.08947E+00
 -1      9239 4.14850E+00
 -1      9240 4.24199E+00
 -1      9241 4.38917E+00
 -1      9242 4.45103E+00
 -1      9243 3.51290E+00
 -1      9244 3.51290E+00
 -1      9245 3.45291E+00
 -1      9246 3.42024E+00
 -1      9247 3.37858E+00
 -1      9248 3.37858E+00
 -1      9249 3.42024E+00
 -1      9250 3.45291E+00
 -1      9251 3.51290E+00
 -1      9252 3.51290E+00
 -1      9253 2.93063E+00
 -1      9254 2.91258E+00
 -1      9255 2.91258E+00
 -1      9256 2.90069E+00
 -1      9257 2.88574E+00
 -1      9258 2.88574E+00
 -1      9259 2.90069E+00
 -1      9260 2.91258E+00
 -1      9261 2.91258E+00
 -1      9262 2.93063E+00
 -1      9263 2.52147E+00
 -1      9264 2.52147E+00
 -1      9265 2.51934E+00
 -1      9266 2.51934E+00
 -1      9267 2.51613E+00
 -1      9268 2.51613E+00
 -1      9269 2.51934E+00
 -1      9270 2.51934E+00
 -1      9271 2.52147E+00
 -1      9272 2.52147E+00
 -1      9273 2.25324E+00
 -1      9274 2.25798E+00
 -1      9275 2.25798E+00
 -1      9276 2.25775E+00
 -1      9277 2.25501E+00
 -1      9278 2.25501E+00
 -1      9279 2.25775E+00
 -1      9280 2.25798E+00
 -1      9281 2.25798E+00
 -1      9282 2.25324E+00
 -1      9283 2.11635E+00
 -1      9284 2.11449E+00
 -1      9285 2.11176E+00
 -1      9286 2.10798E+00
 -1      9287 2.10317E+00
 -1      9288 2.10317E+00
 -1      9289 2.10798E+00
 -1      9290 2.11176E+00
 -1      9291 2.11449E+00
 -1      9292 2.11635E+00
 -1      9293 2.10532E+00
 -1      9294 2.10424E+00
 -1      9295 2.10206E+00
 -1      9296 2.09884E+00
 -1      9297 2.09458E+00
 -1      9298 2.09458E+00
 -1      9299 2.09884E+00
 -1      9300 2.10206E+00
 -1      9301 2.10424E+00
 -1      9302 2.10532E+00
 -1      9303 2.08572E+00
 -1      9304 2.08497E+00
 -1      9305 2.08313E+00
 -1      9306 2.08016E+00
 -1      9307 2.07608E+00
 -1      9308 2.07608E+00
 -1      9309 2.08016E+00
 -1      9310 2.08313E+00
 -1      9311 2.08497E+00
 -1      9312 2.08572E+00
 -1      9313 2.05729E+00
 -1      9314 2.05671E+00
 -1      9315 2.05496E+00
 -1      9316 2.05206E+00
 -1      9317 2.04799E+00
 -1      9318 2.04799E+00
 -1      9319 2.05206E+00
 -1      9320 2.05496E+00
 -1      9321 2.05671E+00
 -1      9322 2.05729E+00
 -1      9323 2.02070E+00
 -1      9324 2.02007E+00
 -1      9325 2.01826E+00
 -1      9326 2.01526E+00
 -1      9327 2.01107E+00
 -1      9328 2.01107E+00
 -1      9329 2.01526E+00
 -1      9330 2.01826E+00
 -1      9331 2.02007E+00
 -1      9332 2.02070E+00
 -1      9333 1.97786E+00
 -1      9334 1.97700E+00
 -1      9335 1.97495E+00
 -1      9336 1.97171E+00
 -1      9337 1.96726E+00
 -1      9338 1.96726E+00
 -1      9339 1.97171E+00
 -1      9340 1.97495E+00
 -1      9341 1.97700E+00
 -1      9342 1.97786E+00
 -1      9343 1.93227E+00
 -1      9344 1.93099E+00
 -1      9345 1.92853E+00
 -1      9346 1.92488E+00
 -1      9347 1.92004E+00
 -1      9348 1.92004E+00
 -1      9349 1.92488E+00
 -1      9350 1.92853E+00
 -1      9351 1.93099E+00
 -1      9352 1.93227E+00
 -1      9353 1.88900E+00
 -1      9354 1.88709E+00
 -1      9355 1.88403E+00
 -1      9356 1.87980E+00
 -1      9357 1.87442E+00
 -1      9358 1.87442E+00
 -1      9359 1.87980E+00
 -1      9360 1.88403E+00
 -1      9361 1.88709E+00
 -1      9362 1.88900E+00
 -1      9363 1.85454E+00
 -1      9364 1.85177E+00
 -1      9365 1.84790E+00
 -1      9366 1.84292E+00
 -1      9367 1.83684E+00
 -1      9368 1.83684E+00
 -1      9369 1.84292E+00
 -1      9370 1.84790E+00
 -1      9371 1.85177E+00
 -1      9372 1.85454E+00
 -1      9373 1.84267E+00
 -1      9374 1.83745E+00
 -1      9375 1.83132E+00
 -1      9376 1.82429E+00
 -1      9377 1.81636E+00
 -1      9378 1.81636E+00
 -1      9379 1.82429E+00
 -1      9380 1.83132E+00
 -1      9381 1.83745E+00
 -1      9382 1.84267E+00
 -1      9383 1.88104E+00
 -1      9384 1.87423E+00
 -1      9385 1.86667E+00
 -1      9386 1.85837E+00
 -1      9387 1.84934E+00
 -1      9388 1.84934E+00
 -1      9389 1.85837E+00
 -1      9390 1.86667E+00
 -1      9391 1.87423E+00
 -1      9392 1.88104E+00
 -1      9393 1.95823E+00
 -1      9394 1.94963E+00
 -1      9395 1.94048E+00
 -1      9396 1.93079E+00
 -1      9397 1.92056E+00
 -1      9398 1.92056E+00
 -1      9399 1.93079E+00
 -1      9400 1.94048E+00
 -1      9401 1.94963E+00
 -1      9402 1.95823E+00
 -1      9403 2.07920E+00
 -1      9404 2.06865E+00
 -1      9405 2.05778E+00
 -1      9406 2.04662E+00
 -1      9407 2.03518E+00
 -1      9408 2.03518E+00
 -1      9409 2.04662E+00
 -1      9410 2.05778E+00
 -1      9411 2.06865E+00
 -1      9412 2.07920E+00
 -1      9413 2.28231E+00
 -1      9414 2.26001E+00
 -1      9415 2.23979E+00
 -1      9416 2.22171E+00
 -1      9417 2.20705E+00
 -1      9418 2.20705E+00
 -1      9419 2.22171E+00
 -1      9420 2.23979E+00
 -1      9421 2.26001E+00
 -1      9422 2.28231E+00
 -1      9423 2.73132E+00
 -1      9424 2.71025E+00
 -1      9425 2.69088E+00
 -1      9426 2.67331E+00
 -1      9427 2.65756E+00
 -1      9428 2.65756E+00
 -1      9429 2.67331E+00
 -1      9430 2.69088E+00
 -1      9431 2.71025E+00
 -1      9432 2.73132E+00
 -1      9433 3.11600E+00
 -1      9434 3.09619E+00
 -1      9435 3.07782E+00
 -1      9436 3.06089E+00
 -1      9437 3.04548E+00
 -1      9438 3.04548E+00
 -1      9439 3.06089E+00
 -1      9440 3.07782E+00
 -1      9441 3.09619E+00
 -1      9442 3.11600E+00
 -1      9443 3.39971E+00
 -1      9444 3.38077E+00
 -1      9445 3.36297E+00
 -1      9446 3.34662E+00
 -1      9447 3.33164E+00
 -1      9448 3.33164E+00
 -1      9449 3.34662E+00
 -1      9450 3.36297E+00
 -1      9451 3.38077E+00
 -1      9452 3.39971E+00
 -1      9453 3.51617E+00
 -1      9454 3.49589E+00
 -1      9455 3.47803E+00
 -1      9456 3.46161E+00
 -1      9457 3.44675E+00
 -1      9458 3.44675E+00
 -1      9459 3.46161E+00
 -1      9460 3.47803E+00
 -1      9461 3.49589E+00
 -1      9462 3.51617E+00
 -1      9463 3.51617E+00
 -1      9464 3.49589E+00
 -1      9465 3.47803E+00
 -1      9466 3.46161E+00
 -1      9467 3.44675E+00
 -1      9468 3.44675E+00
 -1      9469 3.46161E+00
 -1      9470 3.47803E+00
 -1      9471 3.49589E+00
 -1      9472 3.51617E+00
 -1      9473 3.49595E+00
 -1      9474 3.46405E+00
 -1      9475 3.43461E+00
 -1      9476 3.41082E+00
 -1      9477 3.39273E+00
 -1      9478 3.39273E+00
 -1      9479 3.41082E+00
 -1      9480 3.43461E+00
 -1      9481 3.46405E+00
 -1      9482 3.49595E+00
 -1      9483 3.44186E+00
 -1      9484 3.38206E+00
 -1      9485 3.34367E+00
 -1      9486 3.31559E+00
 -1      9487 3.29403E+00
 -1      9488 3.29403E+00
 -1      9489 3.31559E+00
 -1      9490 3.34367E+00
 -1      9491 3.38206E+00
 -1      9492 3.44186E+00
 -1      9493 3.17169E+01
 -1      9494 3.25282E+01
 -1      9495 3.30786E+01
 -1      9496 3.33467E+01
 -1      9497 3.33467E+01
 -1      9498 3.33467E+01
 -1      9499 3.33467E+01
 -1      9500 3.30786E+01
 -1      9501 3.25282E+01
 -1      9502 3.17169E+01
 -1      9503 1.63861E+01
 -1      9504 1.42240E+01
 -1      9505 1.29051E+01
 -1      9506 1.20955E+01
 -1      9507 1.16092E+01
 -1      9508 1.16092E+01
 -1      9509 1.20955E+01
 -1      9510 1.29051E+01
 -1      9511 1.42240E+01
 -1      9512 1.63861E+01
 -1      9513 5.57074E+00
 -1      9514 4.69889E+00
 -1      9515 4.81924E+00
 -1      9516 4.91028E+00
 -1      9517 4.94001E+00
 -1      9518 4.94001E+00
 -1      9519 4.91028E+00
 -1      9520 4.81924E+00
 -1      9521 4.69889E+00
 -1      9522 5.57074E+00
 -1      9523 3.91807E+00
 -1      9524 3.82207E+00
 -1      9525 3.67072E+00
 -1      9526 3.57128E+00
 -1      9527 3.50739E+00
 -1      9528 3.50739E+00
 -1      9529 3.57128E+00
 -1      9530 3.67072E+00
 -1      9531 3.82207E+00
 -1      9532 3.91807E+00
 -1      9533 2.94305E+00
 -1      9534 2.94305E+00
 -1      9535 2.87475E+00
 -1      9536 2.84098E+00
 -1      9537 2.79813E+00
 -1      9538 2.79813E+00
 -1      9539 2.84098E+00
 -1      9540 2.87475E+00
 -1      9541 2.94305E+00
 -1      9542 2.94305E+00
 -1      9543 2.38593E+00
 -1      9544 2.36814E+00
 -1      9545 2.36814E+00
 -1      9546 2.35786E+00
 -1      9547 2.34328E+00
 -1      9548 2.34328E+00
 -1      9549 2.35786E+00
 -1      9550 2.36814E+00
 -1      9551 2.36814E+00
 -1      9552 2.38593E+00
 -1      9553 2.03447E+00
 -1      9554 2.03447E+00
 -1      9555 2.03235E+00
 -1      9556 2.03235E+00
 -1      9557 2.02995E+00
 -1      9558 2.02995E+00
 -1      9559 2.03235E+00
 -1      9560 2.03235E+00
 -1      9561 2.03447E+00
 -1      9562 2.03447E+00
 -1      9563 1.87858E+00
 -1      9564 1.87683E+00
 -1      9565 1.87448E+00
 -1      9566 1.87130E+00
 -1      9567 1.86732E+00
 -1      9568 1.86732E+00
 -1      9569 1.87130E+00
 -1      9570 1.87448E+00
 -1      9571 1.87683E+00
 -1      9572 1.87858E+00
 -1      9573 1.87996E+00
 -1      9574 1.87903E+00
 -1      9575 1.87721E+00
 -1      9576 1.87457E+00
 -1      9577 1.87111E+00
 -1      9578 1.87111E+00
 -1      9579 1.87457E+00
 -1      9580 1.87721E+00
 -1      9581 1.87903E+00
 -1      9582 1.87996E+00
 -1      9583 1.87996E+00
 -1      9584 1.87903E+00
 -1      9585 1.87721E+00
 -1      9586 1.87457E+00
 -1      9587 1.87111E+00
 -1      9588 1.87111E+00
 -1      9589 1.87457E+00
 -1      9590 1.87721E+00
 -1      9591 1.87903E+00
 -1      9592 1.87996E+00
 -1      9593 1.87759E+00
 -1      9594 1.87698E+00
 -1      9595 1.87550E+00
 -1      9596 1.87312E+00
 -1      9597 1.86983E+00
 -1      9598 1.86983E+00
 -1      9599 1.87312E+00
 -1      9600 1.87550E+00
 -1      9601 1.87698E+00
 -1      9602 1.87759E+00
 -1      9603 1.86943E+00
 -1      9604 1.86902E+00
 -1      9605 1.86766E+00
 -1      9606 1.86536E+00
 -1      9607 1.86212E+00
 -1      9608 1.86212E+00
 -1      9609 1.86536E+00
 -1      9610 1.86766E+00
 -1      9611 1.86902E+00
 -1      9612 1.86943E+00
 -1      9613 1.85485E+00
 -1      9614 1.85444E+00
 -1      9615 1.85307E+00
 -1      9616 1.85072E+00
 -1      9617 1.84740E+00
 -1      9618 1.84740E+00
 -1      9619 1.85072E+00
 -1      9620 1.85307E+00
 -1      9621 1.85444E+00
 -1      9622 1.85485E+00
 -1      9623 1.83445E+00
 -1      9624 1.83390E+00
 -1      9625 1.83236E+00
 -1      9626 1.82984E+00
 -1      9627 1.82633E+00
 -1      9628 1.82633E+00
 -1      9629 1.82984E+00
 -1      9630 1.83236E+00
 -1      9631 1.83390E+00
 -1      9632 1.83445E+00
 -1      9633 1.81027E+00
 -1      9634 1.80943E+00
 -1      9635 1.80759E+00
 -1      9636 1.80475E+00
 -1      9637 1.80092E+00
 -1      9638 1.80092E+00
 -1      9639 1.80475E+00
 -1      9640 1.80759E+00
 -1      9641 1.80943E+00
 -1      9642 1.81027E+00
 -1      9643 1.78588E+00
 -1      9644 1.78455E+00
 -1      9645 1.78224E+00
 -1      9646 1.77893E+00
 -1      9647 1.77465E+00
 -1      9648 1.77465E+00
 -1      9649 1.77893E+00
 -1      9650 1.78224E+00
 -1      9651 1.78455E+00
 -1      9652 1.78588E+00
 -1      9653 1.76634E+00
 -1      9654 1.76431E+00
 -1      9655 1.76132E+00
 -1      9656 1.75738E+00
 -1      9657 1.75247E+00
 -1      9658 1.75247E+00
 -1      9659 1.75738E+00
 -1      9660 1.76132E+00
 -1      9661 1.76431E+00
 -1      9662 1.76634E+00
 -1      9663 1.76892E+00
 -1      9664 1.76469E+00
 -1      9665 1.75965E+00
 -1      9666 1.75381E+00
 -1      9667 1.74716E+00
 -1      9668 1.74716E+00
 -1      9669 1.75381E+00
 -1      9670 1.75965E+00
 -1      9671 1.76469E+00
 -1      9672 1.76892E+00
 -1      9673 1.80674E+00
 -1      9674 1.80100E+00
 -1      9675 1.79457E+00
 -1      9676 1.78747E+00
 -1      9677 1.77970E+00
 -1      9678 1.77970E+00
 -1      9679 1.78747E+00
 -1      9680 1.79457E+00
 -1      9681 1.80100E+00
 -1      9682 1.80674E+00
 -1      9683 1.87946E+00
 -1      9684 1.87195E+00
 -1      9685 1.86392E+00
 -1      9686 1.85539E+00
 -1      9687 1.84636E+00
 -1      9688 1.84636E+00
 -1      9689 1.85539E+00
 -1      9690 1.86392E+00
 -1      9691 1.87195E+00
 -1      9692 1.87946E+00
 -1      9693 1.99378E+00
 -1      9694 1.98429E+00
 -1      9695 1.97451E+00
 -1      9696 1.96443E+00
 -1      9697 1.95409E+00
 -1      9698 1.95409E+00
 -1      9699 1.96443E+00
 -1      9700 1.97451E+00
 -1      9701 1.98429E+00
 -1      9702 1.99378E+00
 -1      9703 2.15455E+00
 -1      9704 2.14293E+00
 -1      9705 2.13128E+00
 -1      9706 2.11962E+00
 -1      9707 2.10795E+00
 -1      9708 2.10795E+00
 -1      9709 2.11962E+00
 -1      9710 2.13128E+00
 -1      9711 2.14293E+00
 -1      9712 2.15455E+00
 -1      9713 2.52762E+00
 -1      9714 2.50889E+00
 -1      9715 2.49151E+00
 -1      9716 2.47555E+00
 -1      9717 2.46104E+00
 -1      9718 2.46104E+00
 -1      9719 2.47555E+00
 -1      9720 2.49151E+00
 -1      9721 2.50889E+00
 -1      9722 2.52762E+00
 -1      9723 2.94484E+00
 -1      9724 2.92808E+00
 -1      9725 2.91223E+00
 -1      9726 2.89726E+00
 -1      9727 2.88324E+00
 -1      9728 2.88324E+00
 -1      9729 2.89726E+00
 -1      9730 2.91223E+00
 -1      9731 2.92808E+00
 -1      9732 2.94484E+00
 -1      9733 3.27276E+00
 -1      9734 3.25804E+00
 -1      9735 3.24366E+00
 -1      9736 3.22990E+00
 -1      9737 3.21672E+00
 -1      9738 3.21672E+00
 -1      9739 3.22990E+00
 -1      9740 3.24366E+00
 -1      9741 3.25804E+00
 -1      9742 3.27276E+00
 -1      9743 3.45143E+00
 -1      9744 3.44344E+00
 -1      9745 3.43554E+00
 -1      9746 3.42660E+00
 -1      9747 3.41680E+00
 -1      9748 3.41680E+00
 -1      9749 3.42660E+00
 -1      9750 3.43554E+00
 -1      9751 3.44344E+00
 -1      9752 3.45143E+00
 -1      9753 3.51021E+00
 -1      9754 3.48049E+00
 -1      9755 3.45287E+00
 -1      9756 3.43085E+00
 -1      9757 3.41680E+00
 -1      9758 3.41680E+00
 -1      9759 3.43085E+00
 -1      9760 3.45287E+00
 -1      9761 3.48049E+00
 -1      9762 3.51021E+00
 -1      9763 3.56311E+00
 -1      9764 3.50049E+00
 -1      9765 3.46237E+00
 -1      9766 3.43654E+00
 -1      9767 3.41863E+00
 -1      9768 3.41863E+00
 -1      9769 3.43654E+00
 -1      9770 3.46237E+00
 -1      9771 3.50049E+00
 -1      9772 3.56311E+00
 -1      9773 3.56311E+00
 -1      9774 3.50049E+00
 -1      9775 3.46237E+00
 -1      9776 3.43654E+00
 -1      9777 3.41863E+00
 -1      9778 3.41863E+00
 -1      9779 3.43654E+00
 -1      9780 3.46237E+00
 -1      9781 3.50049E+00
 -1      9782 3.56311E+00
 -1      9783 4.28998E+01
 -1      9784 4.38234E+01
 -1      9785 4.44938E+01
 -1      9786 4.48584E+01
 -1      9787 4.48806E+01
 -1      9788 4.48806E+01
 -1      9789 4.48584E+01
 -1      9790 4.44938E+01
 -1      9791 4.38234E+01
 -1      9792 4.28998E+01
 -1      9793 1.54627E+01
 -1      9794 1.33724E+01
 -1      9795 1.20786E+01
 -1      9796 1.12760E+01
 -1      9797 1.07890E+01
 -1      9798 1.07890E+01
 -1      9799 1.12760E+01
 -1      9800 1.20786E+01
 -1      9801 1.33724E+01
 -1      9802 1.54627E+01
 -1      9803 4.80806E+00
 -1      9804 4.30268E+00
 -1      9805 4.42434E+00
 -1      9806 4.51537E+00
 -1      9807 4.54747E+00
 -1      9808 4.54747E+00
 -1      9809 4.51537E+00
 -1      9810 4.42434E+00
 -1      9811 4.30268E+00
 -1      9812 4.80806E+00
 -1      9813 3.48480E+00
 -1      9814 3.35203E+00
 -1      9815 3.19909E+00
 -1      9816 3.09526E+00
 -1      9817 3.02737E+00
 -1      9818 3.02737E+00
 -1      9819 3.09526E+00
 -1      9820 3.19909E+00
 -1      9821 3.35203E+00
 -1      9822 3.48480E+00
 -1      9823 2.45433E+00
 -1      9824 2.45433E+00
 -1      9825 2.37672E+00
 -1      9826 2.34346E+00
 -1      9827 2.30091E+00
 -1      9828 2.30091E+00
 -1      9829 2.34346E+00
 -1      9830 2.37672E+00
 -1      9831 2.45433E+00
 -1      9832 2.45433E+00
 -1      9833 1.92787E+00
 -1      9834 1.91240E+00
 -1      9835 1.91240E+00
 -1      9836 1.90447E+00
 -1      9837 1.89068E+00
 -1      9838 1.89068E+00
 -1      9839 1.90447E+00
 -1      9840 1.91240E+00
 -1      9841 1.91240E+00
 -1      9842 1.92787E+00
 -1      9843 1.67440E+00
 -1      9844 1.66927E+00
 -1      9845 1.66588E+00
 -1      9846 1.66174E+00
 -1      9847 1.65738E+00
 -1      9848 1.65738E+00
 -1      9849 1.66174E+00
 -1      9850 1.66588E+00
 -1      9851 1.66927E+00
 -1      9852 1.67440E+00
 -1      9853 1.68084E+00
 -1      9854 1.67931E+00
 -1      9855 1.67737E+00
 -1      9856 1.67478E+00
 -1      9857 1.67151E+00
 -1      9858 1.67151E+00
 -1      9859 1.67478E+00
 -1      9860 1.67737E+00
 -1      9861 1.67931E+00
 -1      9862 1.68084E+00
 -1      9863 1.69386E+00
 -1      9864 1.69313E+00
 -1      9865 1.69167E+00
 -1      9866 1.68955E+00
 -1      9867 1.68676E+00
 -1      9868 1.68676E+00
 -1      9869 1.68955E+00
 -1      9870 1.69167E+00
 -1      9871 1.69313E+00
 -1      9872 1.69386E+00
 -1      9873 1.70602E+00
 -1      9874 1.70559E+00
 -1      9875 1.70445E+00
 -1      9876 1.70256E+00
 -1      9877 1.69994E+00
 -1      9878 1.69994E+00
 -1      9879 1.70256E+00
 -1      9880 1.70445E+00
 -1      9881 1.70559E+00
 -1      9882 1.70602E+00
 -1      9883 1.71435E+00
 -1      9884 1.71410E+00
 -1      9885 1.71309E+00
 -1      9886 1.71129E+00
 -1      9887 1.70872E+00
 -1      9888 1.70872E+00
 -1      9889 1.71129E+00
 -1      9890 1.71309E+00
 -1      9891 1.71410E+00
 -1      9892 1.71435E+00
 -1      9893 1.71755E+00
 -1      9894 1.71734E+00
 -1      9895 1.71633E+00
 -1      9896 1.71453E+00
 -1      9897 1.71192E+00
 -1      9898 1.71192E+00
 -1      9899 1.71453E+00
 -1      9900 1.71633E+00
 -1      9901 1.71734E+00
 -1      9902 1.71755E+00
 -1      9903 1.71755E+00
 -1      9904 1.71734E+00
 -1      9905 1.71633E+00
 -1      9906 1.71453E+00
 -1      9907 1.71192E+00
 -1      9908 1.71192E+00
 -1      9909 1.71453E+00
 -1      9910 1.71633E+00
 -1      9911 1.71734E+00
 -1      9912 1.71755E+00
 -1      9913 1.71551E+00
 -1      9914 1.71523E+00
 -1      9915 1.71413E+00
 -1      9916 1.71221E+00
 -1      9917 1.70946E+00
 -1      9918 1.70946E+00
 -1      9919 1.71221E+00
 -1      9920 1.71413E+00
 -1      9921 1.71523E+00
 -1      9922 1.71551E+00
 -1      9923 1.70932E+00
 -1      9924 1.70884E+00
 -1      9925 1.70753E+00
 -1      9926 1.70539E+00
 -1      9927 1.70240E+00
 -1      9928 1.70240E+00
 -1      9929 1.70539E+00
 -1      9930 1.70753E+00
 -1      9931 1.70884E+00
 -1      9932 1.70932E+00
 -1      9933 1.70127E+00
 -1      9934 1.70045E+00
 -1      9935 1.69880E+00
 -1      9936 1.69629E+00
 -1      9937 1.69295E+00
 -1      9938 1.69295E+00
 -1      9939 1.69629E+00
 -1      9940 1.69880E+00
 -1      9941 1.70045E+00
 -1      9942 1.70127E+00
 -1      9943 1.69582E+00
 -1      9944 1.69370E+00
 -1      9945 1.69152E+00
 -1      9946 1.68850E+00
 -1      9947 1.68464E+00
 -1      9948 1.68464E+00
 -1      9949 1.68850E+00
 -1      9950 1.69152E+00
 -1      9951 1.69370E+00
 -1      9952 1.69582E+00
 -1      9953 1.71025E+00
 -1      9954 1.70705E+00
 -1      9955 1.70312E+00
 -1      9956 1.69843E+00
 -1      9957 1.69301E+00
 -1      9958 1.69301E+00
 -1      9959 1.69843E+00
 -1      9960 1.70312E+00
 -1      9961 1.70705E+00
 -1      9962 1.71025E+00
 -1      9963 1.74624E+00
 -1      9964 1.74165E+00
 -1      9965 1.73642E+00
 -1      9966 1.73054E+00
 -1      9967 1.72403E+00
 -1      9968 1.72403E+00
 -1      9969 1.73054E+00
 -1      9970 1.73642E+00
 -1      9971 1.74165E+00
 -1      9972 1.74624E+00
 -1      9973 1.81237E+00
 -1      9974 1.80606E+00
 -1      9975 1.79926E+00
 -1      9976 1.79196E+00
 -1      9977 1.78416E+00
 -1      9978 1.78416E+00
 -1      9979 1.79196E+00
 -1      9980 1.79926E+00
 -1      9981 1.80606E+00
 -1      9982 1.81237E+00
 -1      9983 1.91707E+00
 -1      9984 1.90878E+00
 -1      9985 1.90018E+00
 -1      9986 1.89127E+00
 -1      9987 1.88205E+00
 -1      9988 1.88205E+00
 -1      9989 1.89127E+00
 -1      9990 1.90018E+00
 -1      9991 1.90878E+00
 -1      9992 1.91707E+00
 -1      9993 2.06770E+00
 -1      9994 2.05724E+00
 -1      9995 2.04670E+00
 -1      9996 2.03608E+00
 -1      9997 2.02538E+00
 -1      9998 2.02538E+00
 -1      9999 2.03608E+00
 -1     10000 2.04670E+00
 -1     10001 2.05724E+00
 -1     10002 2.06770E+00
 -1     10003 2.35084E+00
 -1     10004 2.33427E+00
 -1     10005 2.31868E+00
 -1     10006 2.30417E+00
 -1     10007 2.29075E+00
 -1     10008 2.29075E+00
 -1     10009 2.30417E+00
 -1     10010 2.31868E+00
 -1     10011 2.33427E+00
 -1     10012 2.35084E+00
 -1     10013 2.81407E+00
 -1     10014 2.80029E+00
 -1     10015 2.78682E+00
 -1     10016 2.77363E+00
 -1     10017 2.76081E+00
 -1     10018 2.76081E+00
 -1     10019 2.77363E+00
 -1     10020 2.78682E+00
 -1     10021 2.80029E+00
 -1     10022 2.81407E+00
 -1     10023 3.21491E+00
 -1     10024 3.20949E+00
 -1     10025 3.20219E+00
 -1     10026 3.19340E+00
 -1     10027 3.18319E+00
 -1     10028 3.18319E+00
 -1     10029 3.19340E+00
 -1     10030 3.20219E+00
 -1     10031 3.20949E+00
 -1     10032 3.21491E+00
 -1     10033 3.57484E+00
 -1     10034 3.57483E+00
 -1     10035 3.57295E+00
 -1     10036 3.56813E+00
 -1     10037 3.56068E+00
 -1     10038 3.56068E+00
 -1     10039 3.56813E+00
 -1     10040 3.57295E+00
 -1     10041 3.57483E+00
 -1     10042 3.57484E+00
 -1     10043 3.66316E+00
 -1     10044 3.66441E+00
 -1     10045 3.66441E+00
 -1     10046 3.66294E+00
 -1     10047 3.65929E+00
 -1     10048 3.65929E+00
 -1     10049 3.66294E+00
 -1     10050 3.66441E+00
 -1     10051 3.66441E+00
 -1     10052 3.66316E+00
 -1     10053 3.76388E+00
 -1     10054 3.69839E+00
 -1     10055 3.66441E+00
 -1     10056 3.66294E+00
 -1     10057 3.65929E+00
 -1     10058 3.65929E+00
 -1     10059 3.66294E+00
 -1     10060 3.66441E+00
 -1     10061 3.69839E+00
 -1     10062 3.76388E+00
 -1     10063 3.76388E+00
 -1     10064 3.69839E+00
 -1     10065 3.65314E+00
 -1     10066 3.62335E+00
 -1     10067 3.60548E+00
 -1     10068 3.60548E+00
 -1     10069 3.62335E+00
 -1     10070 3.65314E+00
 -1     10071 3.69839E+00
 -1     10072 3.76388E+00
 -1     10073 5.56363E+01
 -1     10074 5.61338E+01
 -1     10075 5.66434E+01
 -1     10076 5.69798E+01
 -1     10077 5.70317E+01
 -1     10078 5.70317E+01
 -1     10079 5.69798E+01
 -1     10080 5.66434E+01
 -1     10081 5.61338E+01
 -1     10082 5.56363E+01
 -1     10083 1.48842E+01
 -1     10084 1.28931E+01
 -1     10085 1.16454E+01
 -1     10086 1.08644E+01
 -1     10087 1.03943E+01
 -1     10088 1.03943E+01
 -1     10089 1.08644E+01
 -1     10090 1.16454E+01
 -1     10091 1.28931E+01
 -1     10092 1.48842E+01
 -1     10093 4.50381E+00
 -1     10094 4.00777E+00
 -1     10095 4.12916E+00
 -1     10096 4.21927E+00
 -1     10097 4.25334E+00
 -1     10098 4.25334E+00
 -1     10099 4.21927E+00
 -1     10100 4.12916E+00
 -1     10101 4.00777E+00
 -1     10102 4.50381E+00
 -1     10103 3.09039E+00
 -1     10104 2.91775E+00
 -1     10105 2.76474E+00
 -1     10106 2.65787E+00
 -1     10107 2.58688E+00
 -1     10108 2.58688E+00
 -1     10109 2.65787E+00
 -1     10110 2.76474E+00
 -1     10111 2.91775E+00
 -1     10112 3.09039E+00
 -1     10113 2.00081E+00
 -1     10114 2.00081E+00
 -1     10115 1.91290E+00
 -1     10116 1.88138E+00
 -1     10117 1.84030E+00
 -1     10118 1.84030E+00
 -1     10119 1.88138E+00
 -1     10120 1.91290E+00
 -1     10121 2.00081E+00
 -1     10122 2.00081E+00
 -1     10123 1.52925E+00
 -1     10124 1.51775E+00
 -1     10125 1.51775E+00
 -1     10126 1.51276E+00
 -1     10127 1.50004E+00
 -1     10128 1.50004E+00
 -1     10129 1.51276E+00
 -1     10130 1.51775E+00
 -1     10131 1.51775E+00
 -1     10132 1.52925E+00
 -1     10133 1.49479E+00
 -1     10134 1.49246E+00
 -1     10135 1.48961E+00
 -1     10136 1.48613E+00
 -1     10137 1.48252E+00
 -1     10138 1.48252E+00
 -1     10139 1.48613E+00
 -1     10140 1.48961E+00
 -1     10141 1.49246E+00
 -1     10142 1.49479E+00
 -1     10143 1.51295E+00
 -1     10144 1.51174E+00
 -1     10145 1.51026E+00
 -1     10146 1.50823E+00
 -1     10147 1.50560E+00
 -1     10148 1.50560E+00
 -1     10149 1.50823E+00
 -1     10150 1.51026E+00
 -1     10151 1.51174E+00
 -1     10152 1.51295E+00
 -1     10153 1.53746E+00
 -1     10154 1.53698E+00
 -1     10155 1.53588E+00
 -1     10156 1.53424E+00
 -1     10157 1.53201E+00
 -1     10158 1.53201E+00
 -1     10159 1.53424E+00
 -1     10160 1.53588E+00
 -1     10161 1.53698E+00
 -1     10162 1.53746E+00
 -1     10163 1.56228E+00
 -1     10164 1.56204E+00
 -1     10165 1.56121E+00
 -1     10166 1.55977E+00
 -1     10167 1.55769E+00
 -1     10168 1.55769E+00
 -1     10169 1.55977E+00
 -1     10170 1.56121E+00
 -1     10171 1.56204E+00
 -1     10172 1.56228E+00
 -1     10173 1.58421E+00
 -1     10174 1.58414E+00
 -1     10175 1.58342E+00
 -1     10176 1.58206E+00
 -1     10177 1.58005E+00
 -1     10178 1.58005E+00
 -1     10179 1.58206E+00
 -1     10180 1.58342E+00
 -1     10181 1.58414E+00
 -1     10182 1.58421E+00
 -1     10183 1.60195E+00
 -1     10184 1.60192E+00
 -1     10185 1.60122E+00
 -1     10186 1.59987E+00
 -1     10187 1.59784E+00
 -1     10188 1.59784E+00
 -1     10189 1.59987E+00
 -1     10190 1.60122E+00
 -1     10191 1.60192E+00
 -1     10192 1.60195E+00
 -1     10193 1.61511E+00
 -1     10194 1.61506E+00
 -1     10195 1.61431E+00
 -1     10196 1.61290E+00
 -1     10197 1.61078E+00
 -1     10198 1.61078E+00
 -1     10199 1.61290E+00
 -1     10200 1.61431E+00
 -1     10201 1.61506E+00
 -1     10202 1.61511E+00
 -1     10203 1.62425E+00
 -1     10204 1.62408E+00
 -1     10205 1.62321E+00
 -1     10206 1.62165E+00
 -1     10207 1.61937E+00
 -1     10208 1.61937E+00
 -1     10209 1.62165E+00
 -1     10210 1.62321E+00
 -1     10211 1.62408E+00
 -1     10212 1.62425E+00
 -1     10213 1.63075E+00
 -1     10214 1.63037E+00
 -1     10215 1.62927E+00
 -1     10216 1.62745E+00
 -1     10217 1.62491E+00
 -1     10218 1.62491E+00
 -1     10219 1.62745E+00
 -1     10220 1.62927E+00
 -1     10221 1.63037E+00
 -1     10222 1.63075E+00
 -1     10223 1.63706E+00
 -1     10224 1.63631E+00
 -1     10225 1.63483E+00
 -1     10226 1.63264E+00
 -1     10227 1.62970E+00
 -1     10228 1.62970E+00
 -1     10229 1.63264E+00
 -1     10230 1.63483E+00
 -1     10231 1.63631E+00
 -1     10232 1.63706E+00
 -1     10233 1.64691E+00
 -1     10234 1.64558E+00
 -1     10235 1.64353E+00
 -1     10236 1.64077E+00
 -1     10237 1.63728E+00
 -1     10238 1.63728E+00
 -1     10239 1.64077E+00
 -1     10240 1.64353E+00
 -1     10241 1.64558E+00
 -1     10242 1.64691E+00
 -1     10243 1.66558E+00
 -1     10244 1.66340E+00
 -1     10245 1.66052E+00
 -1     10246 1.65697E+00
 -1     10247 1.65271E+00
 -1     10248 1.65271E+00
 -1     10249 1.65697E+00
 -1     10250 1.66052E+00
 -1     10251 1.66340E+00
 -1     10252 1.66558E+00
 -1     10253 1.70006E+00
 -1     10254 1.69668E+00
 -1     10255 1.69266E+00
 -1     10256 1.68804E+00
 -1     10257 1.68278E+00
 -1     10258 1.68278E+00
 -1     10259 1.68804E+00
 -1     10260 1.69266E+00
 -1     10261 1.69668E+00
 -1     10262 1.70006E+00
 -1     10263 1.75893E+00
 -1     10264 1.75396E+00
 -1     10265 1.74847E+00
 -1     10266 1.74248E+00
 -1     10267 1.73596E+00
 -1     10268 1.73596E+00
 -1     10269 1.74248E+00
 -1     10270 1.74847E+00
 -1     10271 1.75396E+00
 -1     10272 1.75893E+00
 -1     10273 1.85189E+00
 -1     10274 1.84497E+00
 -1     10275 1.83768E+00
 -1     10276 1.83004E+00
 -1     10277 1.82203E+00
 -1     10278 1.82203E+00
 -1     10279 1.83004E+00
 -1     10280 1.83768E+00
 -1     10281 1.84497E+00
 -1     10282 1.85189E+00
 -1     10283 1.98895E+00
 -1     10284 1.97979E+00
 -1     10285 1.97046E+00
 -1     10286 1.96098E+00
 -1     10287 1.95132E+00
 -1     10288 1.95132E+00
 -1     10289 1.96098E+00
 -1     10290 1.97046E+00
 -1     10291 1.97979E+00
 -1     10292 1.98895E+00
 -1     10293 2.20582E+00
 -1     10294 2.19117E+00
 -1     10295 2.17719E+00
 -1     10296 2.16395E+00
 -1     10297 2.15149E+00
 -1     10298 2.15149E+00
 -1     10299 2.16395E+00
 -1     10300 2.17719E+00
 -1     10301 2.19117E+00
 -1     10302 2.20582E+00
 -1     10303 2.73477E+00
 -1     10304 2.72380E+00
 -1     10305 2.71249E+00
 -1     10306 2.70084E+00
 -1     10307 2.68897E+00
 -1     10308 2.68897E+00
 -1     10309 2.70084E+00
 -1     10310 2.71249E+00
 -1     10311 2.72380E+00
 -1     10312 2.73477E+00
 -1     10313 3.33664E+00
 -1     10314 3.33611E+00
 -1     10315 3.33211E+00
 -1     10316 3.32533E+00
 -1     10317 3.31596E+00
 -1     10318 3.31596E+00
 -1     10319 3.32533E+00
 -1     10320 3.33211E+00
 -1     10321 3.33611E+00
 -1     10322 3.33664E+00
 -1     10323 3.88682E+00
 -1     10324 3.89142E+00
 -1     10325 3.89142E+00
 -1     10326 3.89064E+00
 -1     10327 3.88502E+00
 -1     10328 3.88502E+00
 -1     10329 3.89064E+00
 -1     10330 3.89142E+00
 -1     10331 3.89142E+00
 -1     10332 3.88682E+00
 -1     10333 4.20459E+00
 -1     10334 4.21719E+00
 -1     10335 4.22313E+00
 -1     10336 4.22357E+00
 -1     10337 4.22357E+00
 -1     10338 4.22357E+00
 -1     10339 4.22357E+00
 -1     10340 4.22313E+00
 -1     10341 4.21719E+00
 -1     10342 4.20459E+00
 -1     10343 4.20459E+00
 -1     10344 4.21719E+00
 -1     10345 4.22313E+00
 -1     10346 4.22357E+00
 -1     10347 4.22357E+00
 -1     10348 4.22357E+00
 -1     10349 4.22357E+00
 -1     10350 4.22313E+00
 -1     10351 4.21719E+00
 -1     10352 4.20459E+00
 -1     10353 4.04815E+00
 -1     10354 3.97419E+00
 -1     10355 3.91665E+00
 -1     10356 3.88692E+00
 -1     10357 3.87345E+00
 -1     10358 3.87345E+00
 -1     10359 3.88692E+00
 -1     10360 3.91665E+00
 -1     10361 3.97419E+00
 -1     10362 4.04815E+00
 -1     10363 6.95380E+01
 -1     10364 6.60941E+01
 -1     10365 6.52847E+01
 -1     10366 6.52932E+01
 -1     10367 6.52932E+01
 -1     10368 6.52932E+01
 -1     10369 6.52932E+01
 -1     10370 6.52847E+01
 -1     10371 6.60941E+01
 -1     10372 6.95380E+01
 -1     10373 1.47689E+01
 -1     10374 1.30764E+01
 -1     10375 1.20013E+01
 -1     10376 1.13187E+01
 -1     10377 1.08931E+01
 -1     10378 1.08931E+01
 -1     10379 1.13187E+01
 -1     10380 1.20013E+01
 -1     10381 1.30764E+01
 -1     10382 1.47689E+01
 -1     10383 4.25121E+00
 -1     10384 3.76573E+00
 -1     10385 3.88697E+00
 -1     10386 3.97775E+00
 -1     10387 4.01275E+00
 -1     10388 4.01275E+00
 -1     10389 3.97775E+00
 -1     10390 3.88697E+00
 -1     10391 3.76573E+00
 -1     10392 4.25121E+00
 -1     10393 2.67536E+00
 -1     10394 2.45670E+00
 -1     10395 2.30481E+00
 -1     10396 2.19588E+00
 -1     10397 2.12282E+00
 -1     10398 2.12282E+00
 -1     10399 2.19588E+00
 -1     10400 2.30481E+00
 -1     10401 2.45670E+00
 -1     10402 2.67536E+00
 -1     10403 1.55192E+00
 -1     10404 1.55192E+00
 -1     10405 1.45325E+00
 -1     10406 1.45637E+00
 -1     10407 1.45637E+00
 -1     10408 1.45637E+00
 -1     10409 1.45637E+00
 -1     10410 1.45325E+00
 -1     10411 1.55192E+00
 -1     10412 1.55192E+00
 -1     10413 1.34993E+00
 -1     10414 1.34820E+00
 -1     10415 1.34308E+00
 -1     10416 1.33330E+00
 -1     10417 1.32479E+00
 -1     10418 1.32479E+00
 -1     10419 1.33330E+00
 -1     10420 1.34308E+00
 -1     10421 1.34820E+00
 -1     10422 1.34993E+00
 -1     10423 1.33778E+00
 -1     10424 1.33707E+00
 -1     10425 1.33497E+00
 -1     10426 1.33219E+00
 -1     10427 1.32934E+00
 -1     10428 1.32934E+00
 -1     10429 1.33219E+00
 -1     10430 1.33497E+00
 -1     10431 1.33707E+00
 -1     10432 1.33778E+00
 -1     10433 1.36881E+00
 -1     10434 1.36796E+00
 -1     10435 1.36701E+00
 -1     10436 1.36551E+00
 -1     10437 1.36348E+00
 -1     10438 1.36348E+00
 -1     10439 1.36551E+00
 -1     10440 1.36701E+00
 -1     10441 1.36796E+00
 -1     10442 1.36881E+00
 -1     10443 1.40473E+00
 -1     10444 1.40450E+00
 -1     10445 1.40381E+00
 -1     10446 1.40260E+00
 -1     10447 1.40089E+00
 -1     10448 1.40089E+00
 -1     10449 1.40260E+00
 -1     10450 1.40381E+00
 -1     10451 1.40450E+00
 -1     10452 1.40473E+00
 -1     10453 1.44058E+00
 -1     10454 1.44051E+00
 -1     10455 1.44003E+00
 -1     10456 1.43896E+00
 -1     10457 1.43737E+00
 -1     10458 1.43737E+00
 -1     10459 1.43896E+00
 -1     10460 1.44003E+00
 -1     10461 1.44051E+00
 -1     10462 1.44058E+00
 -1     10463 1.47381E+00
 -1     10464 1.47381E+00
 -1     10465 1.47341E+00
 -1     10466 1.47241E+00
 -1     10467 1.47088E+00
 -1     10468 1.47088E+00
 -1     10469 1.47241E+00
 -1     10470 1.47341E+00
 -1     10471 1.47381E+00
 -1     10472 1.47381E+00
 -1     10473 1.50343E+00
 -1     10474 1.50343E+00
 -1     10475 1.50305E+00
 -1     10476 1.50207E+00
 -1     10477 1.50055E+00
 -1     10478 1.50055E+00
 -1     10479 1.50207E+00
 -1     10480 1.50305E+00
 -1     10481 1.50343E+00
 -1     10482 1.50343E+00
 -1     10483 1.52916E+00
 -1     10484 1.52916E+00
 -1     10485 1.52877E+00
 -1     10486 1.52776E+00
 -1     10487 1.52619E+00
 -1     10488 1.52619E+00
 -1     10489 1.52776E+00
 -1     10490 1.52877E+00
 -1     10491 1.52916E+00
 -1     10492 1.52916E+00
 -1     10493 1.55134E+00
 -1     10494 1.55134E+00
 -1     10495 1.55088E+00
 -1     10496 1.54979E+00
 -1     10497 1.54812E+00
 -1     10498 1.54812E+00
 -1     10499 1.54979E+00
 -1     10500 1.55088E+00
 -1     10501 1.55134E+00
 -1     10502 1.55134E+00
 -1     10503 1.57085E+00
 -1     10504 1.57078E+00
 -1     10505 1.57019E+00
 -1     10506 1.56895E+00
 -1     10507 1.56710E+00
 -1     10508 1.56710E+00
 -1     10509 1.56895E+00
 -1     10510 1.57019E+00
 -1     10511 1.57078E+00
 -1     10512 1.57085E+00
 -1     10513 1.58920E+00
 -1     10514 1.58892E+00
 -1     10515 1.58809E+00
 -1     10516 1.58659E+00
 -1     10517 1.58448E+00
 -1     10518 1.58448E+00
 -1     10519 1.58659E+00
 -1     10520 1.58809E+00
 -1     10521 1.58892E+00
 -1     10522 1.58920E+00
 -1     10523 1.60874E+00
 -1     10524 1.60808E+00
 -1     10525 1.60687E+00
 -1     10526 1.60497E+00
 -1     10527 1.60244E+00
 -1     10528 1.60244E+00
 -1     10529 1.60497E+00
 -1     10530 1.60687E+00
 -1     10531 1.60808E+00
 -1     10532 1.60874E+00
 -1     10533 1.63317E+00
 -1     10534 1.63189E+00
 -1     10535 1.63006E+00
 -1     10536 1.62756E+00
 -1     10537 1.62442E+00
 -1     10538 1.62442E+00
 -1     10539 1.62756E+00
 -1     10540 1.63006E+00
 -1     10541 1.63189E+00
 -1     10542 1.63317E+00
 -1     10543 1.66788E+00
 -1     10544 1.66566E+00
 -1     10545 1.66292E+00
 -1     10546 1.65952E+00
 -1     10547 1.65553E+00
 -1     10548 1.65553E+00
 -1     10549 1.65952E+00
 -1     10550 1.66292E+00
 -1     10551 1.66566E+00
 -1     10552 1.66788E+00
 -1     10553 1.72046E+00
 -1     10554 1.71686E+00
 -1     10555 1.71282E+00
 -1     10556 1.70820E+00
 -1     10557 1.70304E+00
 -1     10558 1.70304E+00
 -1     10559 1.70820E+00
 -1     10560 1.71282E+00
 -1     10561 1.71686E+00
 -1     10562 1.72046E+00
 -1     10563 1.80078E+00
 -1     10564 1.79534E+00
 -1     10565 1.78958E+00
 -1     10566 1.78335E+00
 -1     10567 1.77669E+00
 -1     10568 1.77669E+00
 -1     10569 1.78335E+00
 -1     10570 1.78958E+00
 -1     10571 1.79534E+00
 -1     10572 1.80078E+00
 -1     10573 1.92091E+00
 -1     10574 1.91320E+00
 -1     10575 1.90533E+00
 -1     10576 1.89713E+00
 -1     10577 1.88865E+00
 -1     10578 1.88865E+00
 -1     10579 1.89713E+00
 -1     10580 1.90533E+00
 -1     10581 1.91320E+00
 -1     10582 1.92091E+00
 -1     10583 2.10133E+00
 -1     10584 2.08990E+00
 -1     10585 2.07863E+00
 -1     10586 2.06750E+00
 -1     10587 2.05658E+00
 -1     10588 2.05658E+00
 -1     10589 2.06750E+00
 -1     10590 2.07863E+00
 -1     10591 2.08990E+00
 -1     10592 2.10133E+00
 -1     10593 2.77189E+00
 -1     10594 2.76502E+00
 -1     10595 2.75677E+00
 -1     10596 2.74704E+00
 -1     10597 2.73602E+00
 -1     10598 2.73602E+00
 -1     10599 2.74704E+00
 -1     10600 2.75677E+00
 -1     10601 2.76502E+00
 -1     10602 2.77189E+00
 -1     10603 3.60646E+00
 -1     10604 3.60646E+00
 -1     10605 3.60523E+00
 -1     10606 3.59977E+00
 -1     10607 3.59040E+00
 -1     10608 3.59040E+00
 -1     10609 3.59977E+00
 -1     10610 3.60523E+00
 -1     10611 3.60646E+00
 -1     10612 3.60646E+00
 -1     10613 4.47108E+00
 -1     10614 4.48251E+00
 -1     10615 4.48533E+00
 -1     10616 4.48533E+00
 -1     10617 4.48042E+00
 -1     10618 4.48042E+00
 -1     10619 4.48533E+00
 -1     10620 4.48533E+00
 -1     10621 4.48251E+00
 -1     10622 4.47108E+00
 -1     10623 5.56539E+00
 -1     10624 5.63567E+00
 -1     10625 5.67240E+00
 -1     10626 5.68094E+00
 -1     10627 5.68094E+00
 -1     10628 5.68094E+00
 -1     10629 5.68094E+00
 -1     10630 5.67240E+00
 -1     10631 5.63567E+00
 -1     10632 5.56539E+00
 -1     10633 6.15159E+00
 -1     10634 6.18515E+00
 -1     10635 6.20386E+00
 -1     10636 6.21202E+00
 -1     10637 6.21202E+00
 -1     10638 6.21202E+00
 -1     10639 6.21202E+00
 -1     10640 6.20386E+00
 -1     10641 6.18515E+00
 -1     10642 6.15159E+00
 -1     10643 6.15159E+00
 -1     10644 6.18515E+00
 -1     10645 6.20386E+00
 -1     10646 6.21202E+00
 -1     10647 6.21202E+00
 -1     10648 6.21202E+00
 -1     10649 6.21202E+00
 -1     10650 6.20386E+00
 -1     10651 6.18515E+00
 -1     10652 6.15159E+00
 -1     10653 6.95380E+01
 -1     10654 6.60941E+01
 -1     10655 7.66109E+01
 -1     10656 7.69029E+01
 -1     10657 7.69029E+01
 -1     10658 7.69029E+01
 -1     10659 7.69029E+01
 -1     10660 7.66109E+01
 -1     10661 6.60941E+01
 -1     10662 6.95380E+01
 -1     10663 1.54497E+01
 -1     10664 1.40068E+01
 -1     10665 1.30718E+01
 -1     10666 1.24726E+01
 -1     10667 1.20931E+01
 -1     10668 1.20931E+01
 -1     10669 1.24726E+01
 -1     10670 1.30718E+01
 -1     10671 1.40068E+01
 -1     10672 1.54497E+01
 -1     10673 3.97884E+00
 -1     10674 3.50844E+00
 -1     10675 3.62999E+00
 -1     10676 3.72304E+00
 -1     10677 3.75929E+00
 -1     10678 3.75929E+00
 -1     10679 3.72304E+00
 -1     10680 3.62999E+00
 -1     10681 3.50844E+00
 -1     10682 3.97884E+00
 -1     10683 2.16316E+00
 -1     10684 1.88795E+00
 -1     10685 1.73587E+00
 -1     10686 1.64785E+00
 -1     10687 1.57223E+00
 -1     10688 1.57223E+00
 -1     10689 1.64785E+00
 -1     10690 1.73587E+00
 -1     10691 1.88795E+00
 -1     10692 2.16316E+00
 -1     10693 1.29176E+00
 -1     10694 1.24720E+00
 -1     10695 1.26849E+00
 -1     10696 1.29244E+00
 -1     10697 1.29244E+00
 -1     10698 1.29244E+00
 -1     10699 1.29244E+00
 -1     10700 1.26849E+00
 -1     10701 1.24720E+00
 -1     10702 1.29176E+00
 -1     10703 1.17629E+00
 -1     10704 1.17629E+00
 -1     10705 1.17126E+00
 -1     10706 1.16291E+00
 -1     10707 1.15762E+00
 -1     10708 1.15762E+00
 -1     10709 1.16291E+00
 -1     10710 1.17126E+00
 -1     10711 1.17629E+00
 -1     10712 1.17629E+00
 -1     10713 1.20007E+00
 -1     10714 1.20007E+00
 -1     10715 1.19854E+00
 -1     10716 1.19667E+00
 -1     10717 1.19463E+00
 -1     10718 1.19463E+00
 -1     10719 1.19667E+00
 -1     10720 1.19854E+00
 -1     10721 1.20007E+00
 -1     10722 1.20007E+00
 -1     10723 1.24476E+00
 -1     10724 1.24461E+00
 -1     10725 1.24403E+00
 -1     10726 1.24322E+00
 -1     10727 1.24179E+00
 -1     10728 1.24179E+00
 -1     10729 1.24322E+00
 -1     10730 1.24403E+00
 -1     10731 1.24461E+00
 -1     10732 1.24476E+00
 -1     10733 1.29181E+00
 -1     10734 1.29181E+00
 -1     10735 1.29135E+00
 -1     10736 1.29068E+00
 -1     10737 1.28950E+00
 -1     10738 1.28950E+00
 -1     10739 1.29068E+00
 -1     10740 1.29135E+00
 -1     10741 1.29181E+00
 -1     10742 1.29181E+00
 -1     10743 1.33715E+00
 -1     10744 1.33715E+00
 -1     10745 1.33682E+00
 -1     10746 1.33625E+00
 -1     10747 1.33515E+00
 -1     10748 1.33515E+00
 -1     10749 1.33625E+00
 -1     10750 1.33682E+00
 -1     10751 1.33715E+00
 -1     10752 1.33715E+00
 -1     10753 1.37953E+00
 -1     10754 1.37953E+00
 -1     10755 1.37925E+00
 -1     10756 1.37873E+00
 -1     10757 1.37768E+00
 -1     10758 1.37768E+00
 -1     10759 1.37873E+00
 -1     10760 1.37925E+00
 -1     10761 1.37953E+00
 -1     10762 1.37953E+00
 -1     10763 1.41864E+00
 -1     10764 1.41864E+00
 -1     10765 1.41839E+00
 -1     10766 1.41789E+00
 -1     10767 1.41686E+00
 -1     10768 1.41686E+00
 -1     10769 1.41789E+00
 -1     10770 1.41839E+00
 -1     10771 1.41864E+00
 -1     10772 1.41864E+00
 -1     10773 1.45465E+00
 -1     10774 1.45465E+00
 -1     10775 1.45440E+00
 -1     10776 1.45390E+00
 -1     10777 1.45286E+00
 -1     10778 1.45286E+00
 -1     10779 1.45390E+00
 -1     10780 1.45440E+00
 -1     10781 1.45465E+00
 -1     10782 1.45465E+00
 -1     10783 1.48794E+00
 -1     10784 1.48794E+00
 -1     10785 1.48767E+00
 -1     10786 1.48714E+00
 -1     10787 1.48605E+00
 -1     10788 1.48605E+00
 -1     10789 1.48714E+00
 -1     10790 1.48767E+00
 -1     10791 1.48794E+00
 -1     10792 1.48794E+00
 -1     10793 1.51905E+00
 -1     10794 1.51905E+00
 -1     10795 1.51873E+00
 -1     10796 1.51813E+00
 -1     10797 1.51696E+00
 -1     10798 1.51696E+00
 -1     10799 1.51813E+00
 -1     10800 1.51873E+00
 -1     10801 1.51905E+00
 -1     10802 1.51905E+00
 -1     10803 1.54880E+00
 -1     10804 1.54880E+00
 -1     10805 1.54837E+00
 -1     10806 1.54764E+00
 -1     10807 1.54630E+00
 -1     10808 1.54630E+00
 -1     10809 1.54764E+00
 -1     10810 1.54837E+00
 -1     10811 1.54880E+00
 -1     10812 1.54880E+00
 -1     10813 1.57847E+00
 -1     10814 1.57847E+00
 -1     10815 1.57782E+00
 -1     10816 1.57684E+00
 -1     10817 1.57525E+00
 -1     10818 1.57525E+00
 -1     10819 1.57684E+00
 -1     10820 1.57782E+00
 -1     10821 1.57847E+00
 -1     10822 1.57847E+00
 -1     10823 1.61034E+00
 -1     10824 1.61010E+00
 -1     10825 1.60906E+00
 -1     10826 1.60768E+00
 -1     10827 1.60566E+00
 -1     10828 1.60566E+00
 -1     10829 1.60768E+00
 -1     10830 1.60906E+00
 -1     10831 1.61010E+00
 -1     10832 1.61034E+00
 -1     10833 1.64796E+00
 -1     10834 1.64708E+00
 -1     10835 1.64538E+00
 -1     10836 1.64336E+00
 -1     10837 1.64068E+00
 -1     10838 1.64068E+00
 -1     10839 1.64336E+00
 -1     10840 1.64538E+00
 -1     10841 1.64708E+00
 -1     10842 1.64796E+00
 -1     10843 1.69672E+00
 -1     10844 1.69479E+00
 -1     10845 1.69204E+00
 -1     10846 1.68902E+00
 -1     10847 1.68537E+00
 -1     10848 1.68537E+00
 -1     10849 1.68902E+00
 -1     10850 1.69204E+00
 -1     10851 1.69479E+00
 -1     10852 1.69672E+00
 -1     10853 1.76505E+00
 -1     10854 1.76153E+00
 -1     10855 1.75723E+00
 -1     10856 1.75276E+00
 -1     10857 1.74771E+00
 -1     10858 1.74771E+00
 -1     10859 1.75276E+00
 -1     10860 1.75723E+00
 -1     10861 1.76153E+00
 -1     10862 1.76505E+00
 -1     10863 1.86526E+00
 -1     10864 1.85953E+00
 -1     10865 1.85310E+00
 -1     10866 1.84662E+00
 -1     10867 1.83968E+00
 -1     10868 1.83968E+00
 -1     10869 1.84662E+00
 -1     10870 1.85310E+00
 -1     10871 1.85953E+00
 -1     10872 1.86526E+00
 -1     10873 2.02955E+00
 -1     10874 2.01963E+00
 -1     10875 2.00957E+00
 -1     10876 1.99966E+00
 -1     10877 1.98967E+00
 -1     10878 1.98967E+00
 -1     10879 1.99966E+00
 -1     10880 2.00957E+00
 -1     10881 2.01963E+00
 -1     10882 2.02955E+00
 -1     10883 2.89344E+00
 -1     10884 2.88872E+00
 -1     10885 2.88111E+00
 -1     10886 2.87099E+00
 -1     10887 2.85967E+00
 -1     10888 2.85967E+00
 -1     10889 2.87099E+00
 -1     10890 2.88111E+00
 -1     10891 2.88872E+00
 -1     10892 2.89344E+00
 -1     10893 4.04965E+00
 -1     10894 4.04993E+00
 -1     10895 4.04993E+00
 -1     10896 4.04379E+00
 -1     10897 4.03315E+00
 -1     10898 4.03315E+00
 -1     10899 4.04379E+00
 -1     10900 4.04993E+00
 -1     10901 4.04993E+00
 -1     10902 4.04965E+00
 -1     10903 6.23642E+00
 -1     10904 6.28494E+00
 -1     10905 6.29650E+00
 -1     10906 6.29650E+00
 -1     10907 6.28008E+00
 -1     10908 6.28008E+00
 -1     10909 6.29650E+00
 -1     10910 6.29650E+00
 -1     10911 6.28494E+00
 -1     10912 6.23642E+00
 -1     10913 1.04817E+01
 -1     10914 1.06005E+01
 -1     10915 1.06566E+01
 -1     10916 1.06668E+01
 -1     10917 1.06668E+01
 -1     10918 1.06668E+01
 -1     10919 1.06668E+01
 -1     10920 1.06566E+01
 -1     10921 1.06005E+01
 -1     10922 1.04817E+01
 -1     10923 1.45356E+01
 -1     10924 1.46200E+01
 -1     10925 1.46841E+01
 -1     10926 1.47172E+01
 -1     10927 1.47213E+01
 -1     10928 1.47213E+01
 -1     10929 1.47172E+01
 -1     10930 1.46841E+01
 -1     10931 1.46200E+01
 -1     10932 1.45356E+01
 -1     10933 1.53694E+01
 -1     10934 1.46200E+01
 -1     10935 1.46841E+01
 -1     10936 1.47172E+01
 -1     10937 1.47213E+01
 -1     10938 1.47213E+01
 -1     10939 1.47172E+01
 -1     10940 1.46841E+01
 -1     10941 1.46200E+01
 -1     10942 1.53694E+01
 -1     10943 7.32596E+01
 -1     10944 7.47091E+01
 -1     10945 7.66109E+01
 -1     10946 7.69188E+01
 -1     10947 7.70348E+01
 -1     10948 7.70348E+01
 -1     10949 7.69188E+01
 -1     10950 7.66109E+01
 -1     10951 7.47091E+01
 -1     10952 7.32596E+01
 -1     10953 1.71461E+01
 -1     10954 1.60002E+01
 -1     10955 1.52584E+01
 -1     10956 1.47758E+01
 -1     10957 1.44630E+01
 -1     10958 1.44630E+01
 -1     10959 1.47758E+01
 -1     10960 1.52584E+01
 -1     10961 1.60002E+01
 -1     10962 1.71461E+01
 -1     10963 3.72596E+00
 -1     10964 3.08074E+00
 -1     10965 3.20449E+00
 -1     10966 3.30359E+00
 -1     10967 3.33871E+00
 -1     10968 3.33871E+00
 -1     10969 3.30359E+00
 -1     10970 3.20449E+00
 -1     10971 3.08074E+00
 -1     10972 3.72596E+00
 -1     10973 1.49299E+00
 -1     10974 1.59333E+00
 -1     10975 1.59333E+00
 -1     10976 1.55014E+00
 -1     10977 1.48295E+00
 -1     10978 1.48295E+00
 -1     10979 1.55014E+00
 -1     10980 1.59333E+00
 -1     10981 1.59333E+00
 -1     10982 1.49299E+00
 -1     10983 1.07263E+00
 -1     10984 1.02302E+00
 -1     10985 1.01875E+00
 -1     10986 1.04649E+00
 -1     10987 1.04649E+00
 -1     10988 1.04649E+00
 -1     10989 1.04649E+00
 -1     10990 1.01875E+00
 -1     10991 1.02302E+00
 -1     10992 1.07263E+00
 -1     10993 1.03197E+00
 -1     10994 1.02817E+00
 -1     10995 1.02679E+00
 -1     10996 1.02461E+00
 -1     10997 1.02007E+00
 -1     10998 1.02007E+00
 -1     10999 1.02461E+00
 -1     11000 1.02679E+00
 -1     11001 1.02817E+00
 -1     11002 1.03197E+00
 -1     11003 1.08049E+00
 -1     11004 1.08043E+00
 -1     11005 1.08043E+00
 -1     11006 1.07972E+00
 -1     11007 1.07827E+00
 -1     11008 1.07827E+00
 -1     11009 1.07972E+00
 -1     11010 1.08043E+00
 -1     11011 1.08043E+00
 -1     11012 1.08049E+00
 -1     11013 1.13932E+00
 -1     11014 1.13940E+00
 -1     11015 1.13950E+00
 -1     11016 1.13950E+00
 -1     11017 1.13848E+00
 -1     11018 1.13848E+00
 -1     11019 1.13950E+00
 -1     11020 1.13950E+00
 -1     11021 1.13940E+00
 -1     11022 1.13932E+00
 -1     11023 1.19572E+00
 -1     11024 1.19600E+00
 -1     11025 1.19613E+00
 -1     11026 1.19613E+00
 -1     11027 1.19529E+00
 -1     11028 1.19529E+00
 -1     11029 1.19613E+00
 -1     11030 1.19613E+00
 -1     11031 1.19600E+00
 -1     11032 1.19572E+00
 -1     11033 1.24868E+00
 -1     11034 1.24901E+00
 -1     11035 1.24918E+00
 -1     11036 1.24918E+00
 -1     11037 1.24840E+00
 -1     11038 1.24840E+00
 -1     11039 1.24918E+00
 -1     11040 1.24918E+00
 -1     11041 1.24901E+00
 -1     11042 1.24868E+00
 -1     11043 1.29815E+00
 -1     11044 1.29850E+00
 -1     11045 1.29870E+00
 -1     11046 1.29870E+00
 -1     11047 1.29797E+00
 -1     11048 1.29797E+00
 -1     11049 1.29870E+00
 -1     11050 1.29870E+00
 -1     11051 1.29850E+00
 -1     11052 1.29815E+00
 -1     11053 1.34469E+00
 -1     11054 1.34506E+00
 -1     11055 1.34527E+00
 -1     11056 1.34527E+00
 -1     11057 1.34457E+00
 -1     11058 1.34457E+00
 -1     11059 1.34527E+00
 -1     11060 1.34527E+00
 -1     11061 1.34506E+00
 -1     11062 1.34469E+00
 -1     11063 1.38889E+00
 -1     11064 1.38930E+00
 -1     11065 1.38952E+00
 -1     11066 1.38952E+00
 -1     11067 1.38885E+00
 -1     11068 1.38885E+00
 -1     11069 1.38952E+00
 -1     11070 1.38952E+00
 -1     11071 1.38930E+00
 -1     11072 1.38889E+00
 -1     11073 1.43136E+00
 -1     11074 1.43180E+00
 -1     11075 1.43203E+00
 -1     11076 1.43203E+00
 -1     11077 1.43137E+00
 -1     11078 1.43137E+00
 -1     11079 1.43203E+00
 -1     11080 1.43203E+00
 -1     11081 1.43180E+00
 -1     11082 1.43136E+00
 -1     11083 1.47260E+00
 -1     11084 1.47308E+00
 -1     11085 1.47332E+00
 -1     11086 1.47332E+00
 -1     11087 1.47264E+00
 -1     11088 1.47264E+00
 -1     11089 1.47332E+00
 -1     11090 1.47332E+00
 -1     11091 1.47308E+00
 -1     11092 1.47260E+00
 -1     11093 1.51313E+00
 -1     11094 1.51360E+00
 -1     11095 1.51381E+00
 -1     11096 1.51381E+00
 -1     11097 1.51308E+00
 -1     11098 1.51308E+00
 -1     11099 1.51381E+00
 -1     11100 1.51381E+00
 -1     11101 1.51360E+00
 -1     11102 1.51313E+00
 -1     11103 1.55352E+00
 -1     11104 1.55388E+00
 -1     11105 1.55401E+00
 -1     11106 1.55401E+00
 -1     11107 1.55316E+00
 -1     11108 1.55316E+00
 -1     11109 1.55401E+00
 -1     11110 1.55401E+00
 -1     11111 1.55388E+00
 -1     11112 1.55352E+00
 -1     11113 1.59466E+00
 -1     11114 1.59468E+00
 -1     11115 1.59468E+00
 -1     11116 1.59461E+00
 -1     11117 1.59353E+00
 -1     11118 1.59353E+00
 -1     11119 1.59461E+00
 -1     11120 1.59468E+00
 -1     11121 1.59468E+00
 -1     11122 1.59466E+00
 -1     11123 1.63804E+00
 -1     11124 1.63731E+00
 -1     11125 1.63731E+00
 -1     11126 1.63688E+00
 -1     11127 1.63537E+00
 -1     11128 1.63537E+00
 -1     11129 1.63688E+00
 -1     11130 1.63731E+00
 -1     11131 1.63731E+00
 -1     11132 1.63804E+00
 -1     11133 1.68646E+00
 -1     11134 1.68728E+00
 -1     11135 1.68728E+00
 -1     11136 1.68668E+00
 -1     11137 1.68482E+00
 -1     11138 1.68482E+00
 -1     11139 1.68668E+00
 -1     11140 1.68728E+00
 -1     11141 1.68728E+00
 -1     11142 1.68646E+00
 -1     11143 1.74506E+00
 -1     11144 1.74179E+00
 -1     11145 1.74036E+00
 -1     11146 1.73811E+00
 -1     11147 1.73472E+00
 -1     11148 1.73472E+00
 -1     11149 1.73811E+00
 -1     11150 1.74036E+00
 -1     11151 1.74179E+00
 -1     11152 1.74506E+00
 -1     11153 1.82311E+00
 -1     11154 1.81756E+00
 -1     11155 1.81426E+00
 -1     11156 1.81019E+00
 -1     11157 1.80499E+00
 -1     11158 1.80499E+00
 -1     11159 1.81019E+00
 -1     11160 1.81426E+00
 -1     11161 1.81756E+00
 -1     11162 1.82311E+00
 -1     11163 1.98479E+00
 -1     11164 1.97551E+00
 -1     11165 1.96555E+00
 -1     11166 1.95505E+00
 -1     11167 1.94488E+00
 -1     11168 1.94488E+00
 -1     11169 1.95505E+00
 -1     11170 1.96555E+00
 -1     11171 1.97551E+00
 -1     11172 1.98479E+00
 -1     11173 3.06453E+00
 -1     11174 3.05576E+00
 -1     11175 3.04481E+00
 -1     11176 3.03485E+00
 -1     11177 3.02498E+00
 -1     11178 3.02498E+00
 -1     11179 3.03485E+00
 -1     11180 3.04481E+00
 -1     11181 3.05576E+00
 -1     11182 3.06453E+00
 -1     11183 4.65609E+00
 -1     11184 4.65609E+00
 -1     11185 4.65030E+00
 -1     11186 4.64232E+00
 -1     11187 4.63159E+00
 -1     11188 4.63159E+00
 -1     11189 4.64232E+00
 -1     11190 4.65030E+00
 -1     11191 4.65609E+00
 -1     11192 4.65609E+00
 -1     11193 1.04208E+01
 -1     11194 1.04622E+01
 -1     11195 1.04723E+01
 -1     11196 1.04723E+01
 -1     11197 1.04544E+01
 -1     11198 1.04544E+01
 -1     11199 1.04723E+01
 -1     11200 1.04723E+01
 -1     11201 1.04622E+01
 -1     11202 1.04208E+01
 -1     11203 1.97164E+01
 -1     11204 1.98896E+01
 -1     11205 1.99775E+01
 -1     11206 1.99998E+01
 -1     11207 1.99998E+01
 -1     11208 1.99998E+01
 -1     11209 1.99998E+01
 -1     11210 1.99775E+01
 -1     11211 1.98896E+01
 -1     11212 1.97164E+01
 -1     11213 3.32665E+01
 -1     11214 3.35408E+01
 -1     11215 3.37090E+01
 -1     11216 3.37945E+01
 -1     11217 3.38025E+01
 -1     11218 3.38025E+01
 -1     11219 3.37945E+01
 -1     11220 3.37090E+01
 -1     11221 3.35408E+01
 -1     11222 3.32665E+01
 -1     11223 5.57991E+01
 -1     11224 5.75350E+01
 -1     11225 5.78033E+01
 -1     11226 5.78033E+01
 -1     11227 5.76128E+01
 -1     11228 5.76128E+01
 -1     11229 5.78033E+01
 -1     11230 5.78033E+01
 -1     11231 5.75350E+01
 -1     11232 5.57991E+01
 -1     11233 7.32596E+01
 -1     11234 7.47091E+01
 -1     11235 7.60412E+01
 -1     11236 7.69188E+01
 -1     11237 7.70348E+01
 -1     11238 7.70348E+01
 -1     11239 7.69188E+01
 -1     11240 7.60412E+01
 -1     11241 7.47091E+01
 -1     11242 7.32596E+01
 -1     11243 2.08096E+01
 -1     11244 2.01739E+01
 -1     11245 1.97523E+01
 -1     11246 1.94755E+01
 -1     11247 1.92868E+01
 -1     11248 1.92868E+01
 -1     11249 1.94755E+01
 -1     11250 1.97523E+01
 -1     11251 2.01739E+01
 -1     11252 2.08096E+01
 -1     11253 5.59375E+00
 -1     11254 3.67026E+00
 -1     11255 3.01728E+00
 -1     11256 2.74672E+00
 -1     11257 2.63213E+00
 -1     11258 2.63213E+00
 -1     11259 2.74672E+00
 -1     11260 3.01728E+00
 -1     11261 3.67026E+00
 -1     11262 5.59375E+00
 -1     11263 9.50831E-01
 -1     11264 1.08548E+00
 -1     11265 1.08548E+00
 -1     11266 1.06078E+00
 -1     11267 1.00102E+00
 -1     11268 1.00102E+00
 -1     11269 1.06078E+00
 -1     11270 1.08548E+00
 -1     11271 1.08548E+00
 -1     11272 9.50831E-01
 -1     11273 8.54374E-01
 -1     11274 8.50516E-01
 -1     11275 8.50516E-01
 -1     11276 8.39808E-01
 -1     11277 8.33819E-01
 -1     11278 8.33819E-01
 -1     11279 8.39808E-01
 -1     11280 8.50516E-01
 -1     11281 8.50516E-01
 -1     11282 8.54374E-01
 -1     11283 9.06097E-01
 -1     11284 9.06530E-01
 -1     11285 9.06530E-01
 -1     11286 9.03955E-01
 -1     11287 8.98798E-01
 -1     11288 8.98798E-01
 -1     11289 9.03955E-01
 -1     11290 9.06530E-01
 -1     11291 9.06530E-01
 -1     11292 9.06097E-01
 -1     11293 9.81196E-01
 -1     11294 9.82931E-01
 -1     11295 9.82931E-01
 -1     11296 9.81699E-01
 -1     11297 9.79545E-01
 -1     11298 9.79545E-01
 -1     11299 9.81699E-01
 -1     11300 9.82931E-01
 -1     11301 9.82931E-01
 -1     11302 9.81196E-01
 -1     11303 1.05124E+00
 -1     11304 1.05343E+00
 -1     11305 1.05343E+00
 -1     11306 1.05302E+00
 -1     11307 1.05132E+00
 -1     11308 1.05132E+00
 -1     11309 1.05302E+00
 -1     11310 1.05343E+00
 -1     11311 1.05343E+00
 -1     11312 1.05124E+00
 -1     11313 1.11562E+00
 -1     11314 1.11754E+00
 -1     11315 1.11754E+00
 -1     11316 1.11715E+00
 -1     11317 1.11568E+00
 -1     11318 1.11568E+00
 -1     11319 1.11715E+00
 -1     11320 1.11754E+00
 -1     11321 1.11754E+00
 -1     11322 1.11562E+00
 -1     11323 1.17423E+00
 -1     11324 1.17615E+00
 -1     11325 1.17615E+00
 -1     11326 1.17581E+00
 -1     11327 1.17443E+00
 -1     11328 1.17443E+00
 -1     11329 1.17581E+00
 -1     11330 1.17615E+00
 -1     11331 1.17615E+00
 -1     11332 1.17423E+00
 -1     11333 1.22896E+00
 -1     11334 1.23082E+00
 -1     11335 1.23082E+00
 -1     11336 1.23053E+00
 -1     11337 1.22923E+00
 -1     11338 1.22923E+00
 -1     11339 1.23053E+00
 -1     11340 1.23082E+00
 -1     11341 1.23082E+00
 -1     11342 1.22896E+00
 -1     11343 1.28105E+00
 -1     11344 1.28290E+00
 -1     11345 1.28290E+00
 -1     11346 1.28265E+00
 -1     11347 1.28142E+00
 -1     11348 1.28142E+00
 -1     11349 1.28265E+00
 -1     11350 1.28290E+00
 -1     11351 1.28290E+00
 -1     11352 1.28105E+00
 -1     11353 1.33163E+00
 -1     11354 1.33349E+00
 -1     11355 1.33349E+00
 -1     11356 1.33329E+00
 -1     11357 1.33212E+00
 -1     11358 1.33212E+00
 -1     11359 1.33329E+00
 -1     11360 1.33349E+00
 -1     11361 1.33349E+00
 -1     11362 1.33163E+00
 -1     11363 1.38154E+00
 -1     11364 1.38344E+00
 -1     11365 1.38344E+00
 -1     11366 1.38330E+00
 -1     11367 1.38219E+00
 -1     11368 1.38219E+00
 -1     11369 1.38330E+00
 -1     11370 1.38344E+00
 -1     11371 1.38344E+00
 -1     11372 1.38154E+00
 -1     11373 1.43140E+00
 -1     11374 1.43337E+00
 -1     11375 1.43337E+00
 -1     11376 1.43330E+00
 -1     11377 1.43223E+00
 -1     11378 1.43223E+00
 -1     11379 1.43330E+00
 -1     11380 1.43337E+00
 -1     11381 1.43337E+00
 -1     11382 1.43140E+00
 -1     11383 1.48159E+00
 -1     11384 1.48365E+00
 -1     11385 1.48365E+00
 -1     11386 1.48363E+00
 -1     11387 1.48259E+00
 -1     11388 1.48259E+00
 -1     11389 1.48363E+00
 -1     11390 1.48365E+00
 -1     11391 1.48365E+00
 -1     11392 1.48159E+00
 -1     11393 1.53225E+00
 -1     11394 1.53439E+00
 -1     11395 1.53440E+00
 -1     11396 1.53440E+00
 -1     11397 1.53335E+00
 -1     11398 1.53335E+00
 -1     11399 1.53440E+00
 -1     11400 1.53440E+00
 -1     11401 1.53439E+00
 -1     11402 1.53225E+00
 -1     11403 1.58328E+00
 -1     11404 1.58547E+00
 -1     11405 1.58547E+00
 -1     11406 1.58545E+00
 -1     11407 1.58430E+00
 -1     11408 1.58430E+00
 -1     11409 1.58545E+00
 -1     11410 1.58547E+00
 -1     11411 1.58547E+00
 -1     11412 1.58328E+00
 -1     11413 1.64392E+00
 -1     11414 1.64215E+00
 -1     11415 1.63813E+00
 -1     11416 1.63638E+00
 -1     11417 1.63501E+00
 -1     11418 1.63501E+00
 -1     11419 1.63638E+00
 -1     11420 1.63813E+00
 -1     11421 1.64215E+00
 -1     11422 1.64392E+00
 -1     11423 1.70129E+00
 -1     11424 1.69904E+00
 -1     11425 1.69445E+00
 -1     11426 1.69044E+00
 -1     11427 1.68729E+00
 -1     11428 1.68729E+00
 -1     11429 1.69044E+00
 -1     11430 1.69445E+00
 -1     11431 1.69904E+00
 -1     11432 1.70129E+00
 -1     11433 1.74994E+00
 -1     11434 1.74654E+00
 -1     11435 1.74079E+00
 -1     11436 1.73598E+00
 -1     11437 1.73323E+00
 -1     11438 1.73323E+00
 -1     11439 1.73598E+00
 -1     11440 1.74079E+00
 -1     11441 1.74654E+00
 -1     11442 1.74994E+00
 -1     11443 1.78834E+00
 -1     11444 1.78834E+00
 -1     11445 1.78810E+00
 -1     11446 1.78504E+00
 -1     11447 1.78069E+00
 -1     11448 1.78069E+00
 -1     11449 1.78504E+00
 -1     11450 1.78810E+00
 -1     11451 1.78834E+00
 -1     11452 1.78834E+00
 -1     11453 1.97466E+00
 -1     11454 1.96440E+00
 -1     11455 1.95384E+00
 -1     11456 1.94773E+00
 -1     11457 1.94618E+00
 -1     11458 1.94618E+00
 -1     11459 1.94773E+00
 -1     11460 1.95384E+00
 -1     11461 1.96440E+00
 -1     11462 1.97466E+00
 -1     11463 3.17057E+00
 -1     11464 3.17662E+00
 -1     11465 3.17826E+00
 -1     11466 3.17826E+00
 -1     11467 3.17577E+00
 -1     11468 3.17577E+00
 -1     11469 3.17826E+00
 -1     11470 3.17826E+00
 -1     11471 3.17662E+00
 -1     11472 3.17057E+00
 -1     11473 5.60378E+00
 -1     11474 5.63664E+00
 -1     11475 5.64939E+00
 -1     11476 5.64939E+00
 -1     11477 5.64260E+00
 -1     11478 5.64260E+00
 -1     11479 5.64939E+00
 -1     11480 5.64939E+00
 -1     11481 5.63664E+00
 -1     11482 5.60378E+00
 -1     11483 1.57837E+01
 -1     11484 1.58965E+01
 -1     11485 1.59564E+01
 -1     11486 1.59688E+01
 -1     11487 1.59688E+01
 -1     11488 1.59688E+01
 -1     11489 1.59688E+01
 -1     11490 1.59564E+01
 -1     11491 1.58965E+01
 -1     11492 1.57837E+01
 -1     11493 3.73760E+01
 -1     11494 3.78779E+01
 -1     11495 3.81822E+01
 -1     11496 3.83287E+01
 -1     11497 3.83331E+01
 -1     11498 3.83331E+01
 -1     11499 3.83287E+01
 -1     11500 3.81822E+01
 -1     11501 3.78779E+01
 -1     11502 3.73760E+01
 -1     11503 8.59483E+01
 -1     11504 8.86909E+01
 -1     11505 9.04937E+01
 -1     11506 9.14397E+01
 -1     11507 9.16513E+01
 -1     11508 9.16513E+01
 -1     11509 9.14397E+01
 -1     11510 9.04937E+01
 -1     11511 8.86909E+01
 -1     11512 8.59483E+01
 -1     11513 8.59483E+01
 -1     11514 8.86909E+01
 -1     11515 9.04937E+01
 -1     11516 9.14397E+01
 -1     11517 9.16513E+01
 -1     11518 9.16513E+01
 -1     11519 9.14397E+01
 -1     11520 9.04937E+01
 -1     11521 8.86909E+01
 -1     11522 8.59483E+01
 -1     11523 7.26332E+01
 -1     11524 7.26332E+01
 -1     11525 6.86926E+01
 -1     11526 6.53892E+01
 -1     11527 6.33639E+01
 -1     11528 6.33639E+01
 -1     11529 6.53892E+01
 -1     11530 6.86926E+01
 -1     11531 7.26332E+01
 -1     11532 7.26332E+01
 -3
 9999
