    1C
    1U plate.inp                                                        
    1UUSER                                                              
    1UDATE              31.august.2021                                  
    1UTIME              11:49:23                                        
    1UHOST                                                              
    1UPGM               CalculiX                                        
    1UVERSION           Version 2.17                             
    1UCOMPILETIME       Thu Jul 23 21:43:50 CEST 2020                    
    1UDIR                                                               
    1UDBN                                                               
    1UMAT    1STEEL                                                     
    2C                          4256                                     1
 -1         1 1.87500E+00 1.87500E+00 0.00000E+00
 -1         2 1.87500E+00-1.87500E+00 0.00000E+00
 -1         3-1.87500E+00-1.87500E+00 0.00000E+00
 -1         4-1.87500E+00 1.87500E+00 0.00000E+00
 -1         5 8.00000E+00 8.00000E+00 0.00000E+00
 -1         6 8.00000E+00-8.00000E+00 0.00000E+00
 -1         7-8.00000E+00-8.00000E+00 0.00000E+00
 -1         8-8.00000E+00 8.00000E+00 0.00000E+00
 -1         9 2.50000E+01 3.75000E+01 0.00000E+00
 -1        10 2.50000E+01 8.00000E+00 0.00000E+00
 -1        11 2.50000E+01-8.00000E+00 0.00000E+00
 -1        12 2.50000E+01-3.75000E+01 0.00000E+00
 -1        13 8.00000E+00-3.75000E+01 0.00000E+00
 -1        14-8.00000E+00-3.75000E+01 0.00000E+00
 -1        15-2.50000E+01-3.75000E+01 0.00000E+00
 -1        16-2.50000E+01-8.00000E+00 0.00000E+00
 -1        17-2.50000E+01 8.00000E+00 0.00000E+00
 -1        18-2.50000E+01 3.75000E+01 0.00000E+00
 -1        19-8.00000E+00 3.75000E+01 0.00000E+00
 -1        20 8.00000E+00 3.75000E+01 0.00000E+00
 -1        21 7.22870E+00 7.22870E+00 0.00000E+00
 -1        22 6.53452E+00 6.53452E+00 0.00000E+00
 -1        23 5.90976E+00 5.90976E+00 0.00000E+00
 -1        24 5.34748E+00 5.34748E+00 0.00000E+00
 -1        25 4.84143E+00 4.84143E+00 0.00000E+00
 -1        26 4.38598E+00 4.38598E+00 0.00000E+00
 -1        27 3.97608E+00 3.97608E+00 0.00000E+00
 -1        28 3.60717E+00 3.60717E+00 0.00000E+00
 -1        29 3.27514E+00 3.27514E+00 0.00000E+00
 -1        30 2.97633E+00 2.97633E+00 0.00000E+00
 -1        31 2.70739E+00 2.70739E+00 0.00000E+00
 -1        32 2.46534E+00 2.46534E+00 0.00000E+00
 -1        33 2.24751E+00 2.24751E+00 0.00000E+00
 -1        34 2.05145E+00 2.05145E+00 0.00000E+00
 -1        35 7.22870E+00-7.22870E+00 0.00000E+00
 -1        36 6.53452E+00-6.53452E+00 0.00000E+00
 -1        37 5.90976E+00-5.90976E+00 0.00000E+00
 -1        38 5.34748E+00-5.34748E+00 0.00000E+00
 -1        39 4.84143E+00-4.84143E+00 0.00000E+00
 -1        40 4.38598E+00-4.38598E+00 0.00000E+00
 -1        41 3.97608E+00-3.97608E+00 0.00000E+00
 -1        42 3.60717E+00-3.60717E+00 0.00000E+00
 -1        43 3.27514E+00-3.27514E+00 0.00000E+00
 -1        44 2.97633E+00-2.97633E+00 0.00000E+00
 -1        45 2.70739E+00-2.70739E+00 0.00000E+00
 -1        46 2.46534E+00-2.46534E+00 0.00000E+00
 -1        47 2.24751E+00-2.24751E+00 0.00000E+00
 -1        48 2.05145E+00-2.05145E+00 0.00000E+00
 -1        49-7.22870E+00-7.22870E+00 0.00000E+00
 -1        50-6.53452E+00-6.53452E+00 0.00000E+00
 -1        51-5.90976E+00-5.90976E+00 0.00000E+00
 -1        52-5.34748E+00-5.34748E+00 0.00000E+00
 -1        53-4.84143E+00-4.84143E+00 0.00000E+00
 -1        54-4.38598E+00-4.38598E+00 0.00000E+00
 -1        55-3.97608E+00-3.97608E+00 0.00000E+00
 -1        56-3.60717E+00-3.60717E+00 0.00000E+00
 -1        57-3.27514E+00-3.27514E+00 0.00000E+00
 -1        58-2.97633E+00-2.97633E+00 0.00000E+00
 -1        59-2.70739E+00-2.70739E+00 0.00000E+00
 -1        60-2.46534E+00-2.46534E+00 0.00000E+00
 -1        61-2.24751E+00-2.24751E+00 0.00000E+00
 -1        62-2.05145E+00-2.05145E+00 0.00000E+00
 -1        63-7.22870E+00 7.22870E+00 0.00000E+00
 -1        64-6.53452E+00 6.53452E+00 0.00000E+00
 -1        65-5.90976E+00 5.90976E+00 0.00000E+00
 -1        66-5.34748E+00 5.34748E+00 0.00000E+00
 -1        67-4.84143E+00 4.84143E+00 0.00000E+00
 -1        68-4.38598E+00 4.38598E+00 0.00000E+00
 -1        69-3.97608E+00 3.97608E+00 0.00000E+00
 -1        70-3.60717E+00 3.60717E+00 0.00000E+00
 -1        71-3.27514E+00 3.27514E+00 0.00000E+00
 -1        72-2.97633E+00 2.97633E+00 0.00000E+00
 -1        73-2.70739E+00 2.70739E+00 0.00000E+00
 -1        74-2.46534E+00 2.46534E+00 0.00000E+00
 -1        75-2.24751E+00 2.24751E+00 0.00000E+00
 -1        76-2.05145E+00 2.05145E+00 0.00000E+00
 -1        77 2.06072E+00 1.66874E+00 0.00000E+00
 -1        78 2.22386E+00 1.44419E+00 0.00000E+00
 -1        79 2.36264E+00 1.20382E+00 0.00000E+00
 -1        80 2.47553E+00 9.50267E-01 0.00000E+00
 -1        81 2.56130E+00 6.86298E-01 0.00000E+00
 -1        82 2.61900E+00 4.14810E-01 0.00000E+00
 -1        83 2.64802E+00 1.38777E-01 0.00000E+00
 -1        84 2.64802E+00-1.38777E-01 0.00000E+00
 -1        85 2.61900E+00-4.14810E-01 0.00000E+00
 -1        86 2.56130E+00-6.86298E-01 0.00000E+00
 -1        87 2.47553E+00-9.50267E-01 0.00000E+00
 -1        88 2.36264E+00-1.20382E+00 0.00000E+00
 -1        89 2.22386E+00-1.44419E+00 0.00000E+00
 -1        90 2.06072E+00-1.66874E+00 0.00000E+00
 -1        91 1.66874E+00-2.06072E+00 0.00000E+00
 -1        92 1.44419E+00-2.22386E+00 0.00000E+00
 -1        93 1.20382E+00-2.36264E+00 0.00000E+00
 -1        94 9.50267E-01-2.47553E+00 0.00000E+00
 -1        95 6.86298E-01-2.56130E+00 0.00000E+00
 -1        96 4.14810E-01-2.61900E+00 0.00000E+00
 -1        97 1.38777E-01-2.64802E+00 0.00000E+00
 -1        98-1.38777E-01-2.64802E+00 0.00000E+00
 -1        99-4.14810E-01-2.61900E+00 0.00000E+00
 -1       100-6.86298E-01-2.56130E+00 0.00000E+00
 -1       101-9.50267E-01-2.47553E+00 0.00000E+00
 -1       102-1.20382E+00-2.36264E+00 0.00000E+00
 -1       103-1.44419E+00-2.22386E+00 0.00000E+00
 -1       104-1.66874E+00-2.06072E+00 0.00000E+00
 -1       105-2.06072E+00-1.66874E+00 0.00000E+00
 -1       106-2.22386E+00-1.44419E+00 0.00000E+00
 -1       107-2.36264E+00-1.20382E+00 0.00000E+00
 -1       108-2.47553E+00-9.50267E-01 0.00000E+00
 -1       109-2.56130E+00-6.86298E-01 0.00000E+00
 -1       110-2.61900E+00-4.14810E-01 0.00000E+00
 -1       111-2.64802E+00-1.38777E-01 0.00000E+00
 -1       112-2.64802E+00 1.38777E-01 0.00000E+00
 -1       113-2.61900E+00 4.14810E-01 0.00000E+00
 -1       114-2.56130E+00 6.86298E-01 0.00000E+00
 -1       115-2.47553E+00 9.50267E-01 0.00000E+00
 -1       116-2.36264E+00 1.20382E+00 0.00000E+00
 -1       117-2.22386E+00 1.44419E+00 0.00000E+00
 -1       118-2.06072E+00 1.66874E+00 0.00000E+00
 -1       119-1.66874E+00 2.06072E+00 0.00000E+00
 -1       120-1.44419E+00 2.22386E+00 0.00000E+00
 -1       121-1.20382E+00 2.36264E+00 0.00000E+00
 -1       122-9.50267E-01 2.47553E+00 0.00000E+00
 -1       123-6.86298E-01 2.56130E+00 0.00000E+00
 -1       124-4.14810E-01 2.61900E+00 0.00000E+00
 -1       125-1.38777E-01 2.64802E+00 0.00000E+00
 -1       126 1.38777E-01 2.64802E+00 0.00000E+00
 -1       127 4.14810E-01 2.61900E+00 0.00000E+00
 -1       128 6.86298E-01 2.56130E+00 0.00000E+00
 -1       129 9.50267E-01 2.47553E+00 0.00000E+00
 -1       130 1.20382E+00 2.36264E+00 0.00000E+00
 -1       131 1.44419E+00 2.22386E+00 0.00000E+00
 -1       132 1.66874E+00 2.06072E+00 0.00000E+00
 -1       133 8.00000E+00 6.93333E+00 0.00000E+00
 -1       134 8.00000E+00 5.86667E+00 0.00000E+00
 -1       135 8.00000E+00 4.80000E+00 0.00000E+00
 -1       136 8.00000E+00 3.73333E+00 0.00000E+00
 -1       137 8.00000E+00 2.66667E+00 0.00000E+00
 -1       138 8.00000E+00 1.60000E+00 0.00000E+00
 -1       139 8.00000E+00 5.33333E-01 0.00000E+00
 -1       140 8.00000E+00-5.33333E-01 0.00000E+00
 -1       141 8.00000E+00-1.60000E+00 0.00000E+00
 -1       142 8.00000E+00-2.66667E+00 0.00000E+00
 -1       143 8.00000E+00-3.73333E+00 0.00000E+00
 -1       144 8.00000E+00-4.80000E+00 0.00000E+00
 -1       145 8.00000E+00-5.86667E+00 0.00000E+00
 -1       146 8.00000E+00-6.93333E+00 0.00000E+00
 -1       147 6.93333E+00-8.00000E+00 0.00000E+00
 -1       148 5.86667E+00-8.00000E+00 0.00000E+00
 -1       149 4.80000E+00-8.00000E+00 0.00000E+00
 -1       150 3.73333E+00-8.00000E+00 0.00000E+00
 -1       151 2.66667E+00-8.00000E+00 0.00000E+00
 -1       152 1.60000E+00-8.00000E+00 0.00000E+00
 -1       153 5.33333E-01-8.00000E+00 0.00000E+00
 -1       154-5.33333E-01-8.00000E+00 0.00000E+00
 -1       155-1.60000E+00-8.00000E+00 0.00000E+00
 -1       156-2.66667E+00-8.00000E+00 0.00000E+00
 -1       157-3.73333E+00-8.00000E+00 0.00000E+00
 -1       158-4.80000E+00-8.00000E+00 0.00000E+00
 -1       159-5.86667E+00-8.00000E+00 0.00000E+00
 -1       160-6.93333E+00-8.00000E+00 0.00000E+00
 -1       161-8.00000E+00-6.93333E+00 0.00000E+00
 -1       162-8.00000E+00-5.86667E+00 0.00000E+00
 -1       163-8.00000E+00-4.80000E+00 0.00000E+00
 -1       164-8.00000E+00-3.73333E+00 0.00000E+00
 -1       165-8.00000E+00-2.66667E+00 0.00000E+00
 -1       166-8.00000E+00-1.60000E+00 0.00000E+00
 -1       167-8.00000E+00-5.33333E-01 0.00000E+00
 -1       168-8.00000E+00 5.33333E-01 0.00000E+00
 -1       169-8.00000E+00 1.60000E+00 0.00000E+00
 -1       170-8.00000E+00 2.66667E+00 0.00000E+00
 -1       171-8.00000E+00 3.73333E+00 0.00000E+00
 -1       172-8.00000E+00 4.80000E+00 0.00000E+00
 -1       173-8.00000E+00 5.86667E+00 0.00000E+00
 -1       174-8.00000E+00 6.93333E+00 0.00000E+00
 -1       175-6.93333E+00 8.00000E+00 0.00000E+00
 -1       176-5.86667E+00 8.00000E+00 0.00000E+00
 -1       177-4.80000E+00 8.00000E+00 0.00000E+00
 -1       178-3.73333E+00 8.00000E+00 0.00000E+00
 -1       179-2.66667E+00 8.00000E+00 0.00000E+00
 -1       180-1.60000E+00 8.00000E+00 0.00000E+00
 -1       181-5.33333E-01 8.00000E+00 0.00000E+00
 -1       182 5.33333E-01 8.00000E+00 0.00000E+00
 -1       183 1.60000E+00 8.00000E+00 0.00000E+00
 -1       184 2.66667E+00 8.00000E+00 0.00000E+00
 -1       185 3.73333E+00 8.00000E+00 0.00000E+00
 -1       186 4.80000E+00 8.00000E+00 0.00000E+00
 -1       187 5.86667E+00 8.00000E+00 0.00000E+00
 -1       188 6.93333E+00 8.00000E+00 0.00000E+00
 -1       189 2.50000E+01 3.64828E+01 0.00000E+00
 -1       190 2.50000E+01 3.54655E+01 0.00000E+00
 -1       191 2.50000E+01 3.44483E+01 0.00000E+00
 -1       192 2.50000E+01 3.34310E+01 0.00000E+00
 -1       193 2.50000E+01 3.24138E+01 0.00000E+00
 -1       194 2.50000E+01 3.13966E+01 0.00000E+00
 -1       195 2.50000E+01 3.03793E+01 0.00000E+00
 -1       196 2.50000E+01 2.93621E+01 0.00000E+00
 -1       197 2.50000E+01 2.83448E+01 0.00000E+00
 -1       198 2.50000E+01 2.73276E+01 0.00000E+00
 -1       199 2.50000E+01 2.63103E+01 0.00000E+00
 -1       200 2.50000E+01 2.52931E+01 0.00000E+00
 -1       201 2.50000E+01 2.42759E+01 0.00000E+00
 -1       202 2.50000E+01 2.32586E+01 0.00000E+00
 -1       203 2.50000E+01 2.22414E+01 0.00000E+00
 -1       204 2.50000E+01 2.12241E+01 0.00000E+00
 -1       205 2.50000E+01 2.02069E+01 0.00000E+00
 -1       206 2.50000E+01 1.91897E+01 0.00000E+00
 -1       207 2.50000E+01 1.81724E+01 0.00000E+00
 -1       208 2.50000E+01 1.71552E+01 0.00000E+00
 -1       209 2.50000E+01 1.61379E+01 0.00000E+00
 -1       210 2.50000E+01 1.51207E+01 0.00000E+00
 -1       211 2.50000E+01 1.41034E+01 0.00000E+00
 -1       212 2.50000E+01 1.30862E+01 0.00000E+00
 -1       213 2.50000E+01 1.20690E+01 0.00000E+00
 -1       214 2.50000E+01 1.10517E+01 0.00000E+00
 -1       215 2.50000E+01 1.00345E+01 0.00000E+00
 -1       216 2.50000E+01 9.01724E+00 0.00000E+00
 -1       217 2.50000E+01 6.93333E+00 0.00000E+00
 -1       218 2.50000E+01 5.86667E+00 0.00000E+00
 -1       219 2.50000E+01 4.80000E+00 0.00000E+00
 -1       220 2.50000E+01 3.73333E+00 0.00000E+00
 -1       221 2.50000E+01 2.66667E+00 0.00000E+00
 -1       222 2.50000E+01 1.60000E+00 0.00000E+00
 -1       223 2.50000E+01 5.33333E-01 0.00000E+00
 -1       224 2.50000E+01-5.33333E-01 0.00000E+00
 -1       225 2.50000E+01-1.60000E+00 0.00000E+00
 -1       226 2.50000E+01-2.66667E+00 0.00000E+00
 -1       227 2.50000E+01-3.73333E+00 0.00000E+00
 -1       228 2.50000E+01-4.80000E+00 0.00000E+00
 -1       229 2.50000E+01-5.86667E+00 0.00000E+00
 -1       230 2.50000E+01-6.93333E+00 0.00000E+00
 -1       231 2.50000E+01-9.01724E+00 0.00000E+00
 -1       232 2.50000E+01-1.00345E+01 0.00000E+00
 -1       233 2.50000E+01-1.10517E+01 0.00000E+00
 -1       234 2.50000E+01-1.20690E+01 0.00000E+00
 -1       235 2.50000E+01-1.30862E+01 0.00000E+00
 -1       236 2.50000E+01-1.41034E+01 0.00000E+00
 -1       237 2.50000E+01-1.51207E+01 0.00000E+00
 -1       238 2.50000E+01-1.61379E+01 0.00000E+00
 -1       239 2.50000E+01-1.71552E+01 0.00000E+00
 -1       240 2.50000E+01-1.81724E+01 0.00000E+00
 -1       241 2.50000E+01-1.91897E+01 0.00000E+00
 -1       242 2.50000E+01-2.02069E+01 0.00000E+00
 -1       243 2.50000E+01-2.12241E+01 0.00000E+00
 -1       244 2.50000E+01-2.22414E+01 0.00000E+00
 -1       245 2.50000E+01-2.32586E+01 0.00000E+00
 -1       246 2.50000E+01-2.42759E+01 0.00000E+00
 -1       247 2.50000E+01-2.52931E+01 0.00000E+00
 -1       248 2.50000E+01-2.63103E+01 0.00000E+00
 -1       249 2.50000E+01-2.73276E+01 0.00000E+00
 -1       250 2.50000E+01-2.83448E+01 0.00000E+00
 -1       251 2.50000E+01-2.93621E+01 0.00000E+00
 -1       252 2.50000E+01-3.03793E+01 0.00000E+00
 -1       253 2.50000E+01-3.13966E+01 0.00000E+00
 -1       254 2.50000E+01-3.24138E+01 0.00000E+00
 -1       255 2.50000E+01-3.34310E+01 0.00000E+00
 -1       256 2.50000E+01-3.44483E+01 0.00000E+00
 -1       257 2.50000E+01-3.54655E+01 0.00000E+00
 -1       258 2.50000E+01-3.64828E+01 0.00000E+00
 -1       259 2.39375E+01-3.75000E+01 0.00000E+00
 -1       260 2.28750E+01-3.75000E+01 0.00000E+00
 -1       261 2.18125E+01-3.75000E+01 0.00000E+00
 -1       262 2.07500E+01-3.75000E+01 0.00000E+00
 -1       263 1.96875E+01-3.75000E+01 0.00000E+00
 -1       264 1.86250E+01-3.75000E+01 0.00000E+00
 -1       265 1.75625E+01-3.75000E+01 0.00000E+00
 -1       266 1.65000E+01-3.75000E+01 0.00000E+00
 -1       267 1.54375E+01-3.75000E+01 0.00000E+00
 -1       268 1.43750E+01-3.75000E+01 0.00000E+00
 -1       269 1.33125E+01-3.75000E+01 0.00000E+00
 -1       270 1.22500E+01-3.75000E+01 0.00000E+00
 -1       271 1.11875E+01-3.75000E+01 0.00000E+00
 -1       272 1.01250E+01-3.75000E+01 0.00000E+00
 -1       273 9.06250E+00-3.75000E+01 0.00000E+00
 -1       274 6.93333E+00-3.75000E+01 0.00000E+00
 -1       275 5.86667E+00-3.75000E+01 0.00000E+00
 -1       276 4.80000E+00-3.75000E+01 0.00000E+00
 -1       277 3.73333E+00-3.75000E+01 0.00000E+00
 -1       278 2.66667E+00-3.75000E+01 0.00000E+00
 -1       279 1.60000E+00-3.75000E+01 0.00000E+00
 -1       280 5.33333E-01-3.75000E+01 0.00000E+00
 -1       281-5.33333E-01-3.75000E+01 0.00000E+00
 -1       282-1.60000E+00-3.75000E+01 0.00000E+00
 -1       283-2.66667E+00-3.75000E+01 0.00000E+00
 -1       284-3.73333E+00-3.75000E+01 0.00000E+00
 -1       285-4.80000E+00-3.75000E+01 0.00000E+00
 -1       286-5.86667E+00-3.75000E+01 0.00000E+00
 -1       287-6.93333E+00-3.75000E+01 0.00000E+00
 -1       288-9.06250E+00-3.75000E+01 0.00000E+00
 -1       289-1.01250E+01-3.75000E+01 0.00000E+00
 -1       290-1.11875E+01-3.75000E+01 0.00000E+00
 -1       291-1.22500E+01-3.75000E+01 0.00000E+00
 -1       292-1.33125E+01-3.75000E+01 0.00000E+00
 -1       293-1.43750E+01-3.75000E+01 0.00000E+00
 -1       294-1.54375E+01-3.75000E+01 0.00000E+00
 -1       295-1.65000E+01-3.75000E+01 0.00000E+00
 -1       296-1.75625E+01-3.75000E+01 0.00000E+00
 -1       297-1.86250E+01-3.75000E+01 0.00000E+00
 -1       298-1.96875E+01-3.75000E+01 0.00000E+00
 -1       299-2.07500E+01-3.75000E+01 0.00000E+00
 -1       300-2.18125E+01-3.75000E+01 0.00000E+00
 -1       301-2.28750E+01-3.75000E+01 0.00000E+00
 -1       302-2.39375E+01-3.75000E+01 0.00000E+00
 -1       303-2.50000E+01-3.64828E+01 0.00000E+00
 -1       304-2.50000E+01-3.54655E+01 0.00000E+00
 -1       305-2.50000E+01-3.44483E+01 0.00000E+00
 -1       306-2.50000E+01-3.34310E+01 0.00000E+00
 -1       307-2.50000E+01-3.24138E+01 0.00000E+00
 -1       308-2.50000E+01-3.13966E+01 0.00000E+00
 -1       309-2.50000E+01-3.03793E+01 0.00000E+00
 -1       310-2.50000E+01-2.93621E+01 0.00000E+00
 -1       311-2.50000E+01-2.83448E+01 0.00000E+00
 -1       312-2.50000E+01-2.73276E+01 0.00000E+00
 -1       313-2.50000E+01-2.63103E+01 0.00000E+00
 -1       314-2.50000E+01-2.52931E+01 0.00000E+00
 -1       315-2.50000E+01-2.42759E+01 0.00000E+00
 -1       316-2.50000E+01-2.32586E+01 0.00000E+00
 -1       317-2.50000E+01-2.22414E+01 0.00000E+00
 -1       318-2.50000E+01-2.12241E+01 0.00000E+00
 -1       319-2.50000E+01-2.02069E+01 0.00000E+00
 -1       320-2.50000E+01-1.91897E+01 0.00000E+00
 -1       321-2.50000E+01-1.81724E+01 0.00000E+00
 -1       322-2.50000E+01-1.71552E+01 0.00000E+00
 -1       323-2.50000E+01-1.61379E+01 0.00000E+00
 -1       324-2.50000E+01-1.51207E+01 0.00000E+00
 -1       325-2.50000E+01-1.41034E+01 0.00000E+00
 -1       326-2.50000E+01-1.30862E+01 0.00000E+00
 -1       327-2.50000E+01-1.20690E+01 0.00000E+00
 -1       328-2.50000E+01-1.10517E+01 0.00000E+00
 -1       329-2.50000E+01-1.00345E+01 0.00000E+00
 -1       330-2.50000E+01-9.01724E+00 0.00000E+00
 -1       331-2.50000E+01-6.93333E+00 0.00000E+00
 -1       332-2.50000E+01-5.86667E+00 0.00000E+00
 -1       333-2.50000E+01-4.80000E+00 0.00000E+00
 -1       334-2.50000E+01-3.73333E+00 0.00000E+00
 -1       335-2.50000E+01-2.66667E+00 0.00000E+00
 -1       336-2.50000E+01-1.60000E+00 0.00000E+00
 -1       337-2.50000E+01-5.33333E-01 0.00000E+00
 -1       338-2.50000E+01 5.33333E-01 0.00000E+00
 -1       339-2.50000E+01 1.60000E+00 0.00000E+00
 -1       340-2.50000E+01 2.66667E+00 0.00000E+00
 -1       341-2.50000E+01 3.73333E+00 0.00000E+00
 -1       342-2.50000E+01 4.80000E+00 0.00000E+00
 -1       343-2.50000E+01 5.86667E+00 0.00000E+00
 -1       344-2.50000E+01 6.93333E+00 0.00000E+00
 -1       345-2.50000E+01 9.01724E+00 0.00000E+00
 -1       346-2.50000E+01 1.00345E+01 0.00000E+00
 -1       347-2.50000E+01 1.10517E+01 0.00000E+00
 -1       348-2.50000E+01 1.20690E+01 0.00000E+00
 -1       349-2.50000E+01 1.30862E+01 0.00000E+00
 -1       350-2.50000E+01 1.41034E+01 0.00000E+00
 -1       351-2.50000E+01 1.51207E+01 0.00000E+00
 -1       352-2.50000E+01 1.61379E+01 0.00000E+00
 -1       353-2.50000E+01 1.71552E+01 0.00000E+00
 -1       354-2.50000E+01 1.81724E+01 0.00000E+00
 -1       355-2.50000E+01 1.91897E+01 0.00000E+00
 -1       356-2.50000E+01 2.02069E+01 0.00000E+00
 -1       357-2.50000E+01 2.12241E+01 0.00000E+00
 -1       358-2.50000E+01 2.22414E+01 0.00000E+00
 -1       359-2.50000E+01 2.32586E+01 0.00000E+00
 -1       360-2.50000E+01 2.42759E+01 0.00000E+00
 -1       361-2.50000E+01 2.52931E+01 0.00000E+00
 -1       362-2.50000E+01 2.63103E+01 0.00000E+00
 -1       363-2.50000E+01 2.73276E+01 0.00000E+00
 -1       364-2.50000E+01 2.83448E+01 0.00000E+00
 -1       365-2.50000E+01 2.93621E+01 0.00000E+00
 -1       366-2.50000E+01 3.03793E+01 0.00000E+00
 -1       367-2.50000E+01 3.13966E+01 0.00000E+00
 -1       368-2.50000E+01 3.24138E+01 0.00000E+00
 -1       369-2.50000E+01 3.34310E+01 0.00000E+00
 -1       370-2.50000E+01 3.44483E+01 0.00000E+00
 -1       371-2.50000E+01 3.54655E+01 0.00000E+00
 -1       372-2.50000E+01 3.64828E+01 0.00000E+00
 -1       373-2.39375E+01 3.75000E+01 0.00000E+00
 -1       374-2.28750E+01 3.75000E+01 0.00000E+00
 -1       375-2.18125E+01 3.75000E+01 0.00000E+00
 -1       376-2.07500E+01 3.75000E+01 0.00000E+00
 -1       377-1.96875E+01 3.75000E+01 0.00000E+00
 -1       378-1.86250E+01 3.75000E+01 0.00000E+00
 -1       379-1.75625E+01 3.75000E+01 0.00000E+00
 -1       380-1.65000E+01 3.75000E+01 0.00000E+00
 -1       381-1.54375E+01 3.75000E+01 0.00000E+00
 -1       382-1.43750E+01 3.75000E+01 0.00000E+00
 -1       383-1.33125E+01 3.75000E+01 0.00000E+00
 -1       384-1.22500E+01 3.75000E+01 0.00000E+00
 -1       385-1.11875E+01 3.75000E+01 0.00000E+00
 -1       386-1.01250E+01 3.75000E+01 0.00000E+00
 -1       387-9.06250E+00 3.75000E+01 0.00000E+00
 -1       388-6.93333E+00 3.75000E+01 0.00000E+00
 -1       389-5.86667E+00 3.75000E+01 0.00000E+00
 -1       390-4.80000E+00 3.75000E+01 0.00000E+00
 -1       391-3.73333E+00 3.75000E+01 0.00000E+00
 -1       392-2.66667E+00 3.75000E+01 0.00000E+00
 -1       393-1.60000E+00 3.75000E+01 0.00000E+00
 -1       394-5.33333E-01 3.75000E+01 0.00000E+00
 -1       395 5.33333E-01 3.75000E+01 0.00000E+00
 -1       396 1.60000E+00 3.75000E+01 0.00000E+00
 -1       397 2.66667E+00 3.75000E+01 0.00000E+00
 -1       398 3.73333E+00 3.75000E+01 0.00000E+00
 -1       399 4.80000E+00 3.75000E+01 0.00000E+00
 -1       400 5.86667E+00 3.75000E+01 0.00000E+00
 -1       401 6.93333E+00 3.75000E+01 0.00000E+00
 -1       402 9.06250E+00 3.75000E+01 0.00000E+00
 -1       403 1.01250E+01 3.75000E+01 0.00000E+00
 -1       404 1.11875E+01 3.75000E+01 0.00000E+00
 -1       405 1.22500E+01 3.75000E+01 0.00000E+00
 -1       406 1.33125E+01 3.75000E+01 0.00000E+00
 -1       407 1.43750E+01 3.75000E+01 0.00000E+00
 -1       408 1.54375E+01 3.75000E+01 0.00000E+00
 -1       409 1.65000E+01 3.75000E+01 0.00000E+00
 -1       410 1.75625E+01 3.75000E+01 0.00000E+00
 -1       411 1.86250E+01 3.75000E+01 0.00000E+00
 -1       412 1.96875E+01 3.75000E+01 0.00000E+00
 -1       413 2.07500E+01 3.75000E+01 0.00000E+00
 -1       414 2.18125E+01 3.75000E+01 0.00000E+00
 -1       415 2.28750E+01 3.75000E+01 0.00000E+00
 -1       416 2.39375E+01 3.75000E+01 0.00000E+00
 -1       417 9.06250E+00 8.00000E+00 0.00000E+00
 -1       418 1.01250E+01 8.00000E+00 0.00000E+00
 -1       419 1.11875E+01 8.00000E+00 0.00000E+00
 -1       420 1.22500E+01 8.00000E+00 0.00000E+00
 -1       421 1.33125E+01 8.00000E+00 0.00000E+00
 -1       422 1.43750E+01 8.00000E+00 0.00000E+00
 -1       423 1.54375E+01 8.00000E+00 0.00000E+00
 -1       424 1.65000E+01 8.00000E+00 0.00000E+00
 -1       425 1.75625E+01 8.00000E+00 0.00000E+00
 -1       426 1.86250E+01 8.00000E+00 0.00000E+00
 -1       427 1.96875E+01 8.00000E+00 0.00000E+00
 -1       428 2.07500E+01 8.00000E+00 0.00000E+00
 -1       429 2.18125E+01 8.00000E+00 0.00000E+00
 -1       430 2.28750E+01 8.00000E+00 0.00000E+00
 -1       431 2.39375E+01 8.00000E+00 0.00000E+00
 -1       432 9.06250E+00-8.00000E+00 0.00000E+00
 -1       433 1.01250E+01-8.00000E+00 0.00000E+00
 -1       434 1.11875E+01-8.00000E+00 0.00000E+00
 -1       435 1.22500E+01-8.00000E+00 0.00000E+00
 -1       436 1.33125E+01-8.00000E+00 0.00000E+00
 -1       437 1.43750E+01-8.00000E+00 0.00000E+00
 -1       438 1.54375E+01-8.00000E+00 0.00000E+00
 -1       439 1.65000E+01-8.00000E+00 0.00000E+00
 -1       440 1.75625E+01-8.00000E+00 0.00000E+00
 -1       441 1.86250E+01-8.00000E+00 0.00000E+00
 -1       442 1.96875E+01-8.00000E+00 0.00000E+00
 -1       443 2.07500E+01-8.00000E+00 0.00000E+00
 -1       444 2.18125E+01-8.00000E+00 0.00000E+00
 -1       445 2.28750E+01-8.00000E+00 0.00000E+00
 -1       446 2.39375E+01-8.00000E+00 0.00000E+00
 -1       447 8.00000E+00-9.01724E+00 0.00000E+00
 -1       448 8.00000E+00-1.00345E+01 0.00000E+00
 -1       449 8.00000E+00-1.10517E+01 0.00000E+00
 -1       450 8.00000E+00-1.20690E+01 0.00000E+00
 -1       451 8.00000E+00-1.30862E+01 0.00000E+00
 -1       452 8.00000E+00-1.41034E+01 0.00000E+00
 -1       453 8.00000E+00-1.51207E+01 0.00000E+00
 -1       454 8.00000E+00-1.61379E+01 0.00000E+00
 -1       455 8.00000E+00-1.71552E+01 0.00000E+00
 -1       456 8.00000E+00-1.81724E+01 0.00000E+00
 -1       457 8.00000E+00-1.91897E+01 0.00000E+00
 -1       458 8.00000E+00-2.02069E+01 0.00000E+00
 -1       459 8.00000E+00-2.12241E+01 0.00000E+00
 -1       460 8.00000E+00-2.22414E+01 0.00000E+00
 -1       461 8.00000E+00-2.32586E+01 0.00000E+00
 -1       462 8.00000E+00-2.42759E+01 0.00000E+00
 -1       463 8.00000E+00-2.52931E+01 0.00000E+00
 -1       464 8.00000E+00-2.63103E+01 0.00000E+00
 -1       465 8.00000E+00-2.73276E+01 0.00000E+00
 -1       466 8.00000E+00-2.83448E+01 0.00000E+00
 -1       467 8.00000E+00-2.93621E+01 0.00000E+00
 -1       468 8.00000E+00-3.03793E+01 0.00000E+00
 -1       469 8.00000E+00-3.13966E+01 0.00000E+00
 -1       470 8.00000E+00-3.24138E+01 0.00000E+00
 -1       471 8.00000E+00-3.34310E+01 0.00000E+00
 -1       472 8.00000E+00-3.44483E+01 0.00000E+00
 -1       473 8.00000E+00-3.54655E+01 0.00000E+00
 -1       474 8.00000E+00-3.64828E+01 0.00000E+00
 -1       475-8.00000E+00-9.01724E+00 0.00000E+00
 -1       476-8.00000E+00-1.00345E+01 0.00000E+00
 -1       477-8.00000E+00-1.10517E+01 0.00000E+00
 -1       478-8.00000E+00-1.20690E+01 0.00000E+00
 -1       479-8.00000E+00-1.30862E+01 0.00000E+00
 -1       480-8.00000E+00-1.41034E+01 0.00000E+00
 -1       481-8.00000E+00-1.51207E+01 0.00000E+00
 -1       482-8.00000E+00-1.61379E+01 0.00000E+00
 -1       483-8.00000E+00-1.71552E+01 0.00000E+00
 -1       484-8.00000E+00-1.81724E+01 0.00000E+00
 -1       485-8.00000E+00-1.91897E+01 0.00000E+00
 -1       486-8.00000E+00-2.02069E+01 0.00000E+00
 -1       487-8.00000E+00-2.12241E+01 0.00000E+00
 -1       488-8.00000E+00-2.22414E+01 0.00000E+00
 -1       489-8.00000E+00-2.32586E+01 0.00000E+00
 -1       490-8.00000E+00-2.42759E+01 0.00000E+00
 -1       491-8.00000E+00-2.52931E+01 0.00000E+00
 -1       492-8.00000E+00-2.63103E+01 0.00000E+00
 -1       493-8.00000E+00-2.73276E+01 0.00000E+00
 -1       494-8.00000E+00-2.83448E+01 0.00000E+00
 -1       495-8.00000E+00-2.93621E+01 0.00000E+00
 -1       496-8.00000E+00-3.03793E+01 0.00000E+00
 -1       497-8.00000E+00-3.13966E+01 0.00000E+00
 -1       498-8.00000E+00-3.24138E+01 0.00000E+00
 -1       499-8.00000E+00-3.34310E+01 0.00000E+00
 -1       500-8.00000E+00-3.44483E+01 0.00000E+00
 -1       501-8.00000E+00-3.54655E+01 0.00000E+00
 -1       502-8.00000E+00-3.64828E+01 0.00000E+00
 -1       503-9.06250E+00-8.00000E+00 0.00000E+00
 -1       504-1.01250E+01-8.00000E+00 0.00000E+00
 -1       505-1.11875E+01-8.00000E+00 0.00000E+00
 -1       506-1.22500E+01-8.00000E+00 0.00000E+00
 -1       507-1.33125E+01-8.00000E+00 0.00000E+00
 -1       508-1.43750E+01-8.00000E+00 0.00000E+00
 -1       509-1.54375E+01-8.00000E+00 0.00000E+00
 -1       510-1.65000E+01-8.00000E+00 0.00000E+00
 -1       511-1.75625E+01-8.00000E+00 0.00000E+00
 -1       512-1.86250E+01-8.00000E+00 0.00000E+00
 -1       513-1.96875E+01-8.00000E+00 0.00000E+00
 -1       514-2.07500E+01-8.00000E+00 0.00000E+00
 -1       515-2.18125E+01-8.00000E+00 0.00000E+00
 -1       516-2.28750E+01-8.00000E+00 0.00000E+00
 -1       517-2.39375E+01-8.00000E+00 0.00000E+00
 -1       518-9.06250E+00 8.00000E+00 0.00000E+00
 -1       519-1.01250E+01 8.00000E+00 0.00000E+00
 -1       520-1.11875E+01 8.00000E+00 0.00000E+00
 -1       521-1.22500E+01 8.00000E+00 0.00000E+00
 -1       522-1.33125E+01 8.00000E+00 0.00000E+00
 -1       523-1.43750E+01 8.00000E+00 0.00000E+00
 -1       524-1.54375E+01 8.00000E+00 0.00000E+00
 -1       525-1.65000E+01 8.00000E+00 0.00000E+00
 -1       526-1.75625E+01 8.00000E+00 0.00000E+00
 -1       527-1.86250E+01 8.00000E+00 0.00000E+00
 -1       528-1.96875E+01 8.00000E+00 0.00000E+00
 -1       529-2.07500E+01 8.00000E+00 0.00000E+00
 -1       530-2.18125E+01 8.00000E+00 0.00000E+00
 -1       531-2.28750E+01 8.00000E+00 0.00000E+00
 -1       532-2.39375E+01 8.00000E+00 0.00000E+00
 -1       533-8.00000E+00 9.01724E+00 0.00000E+00
 -1       534-8.00000E+00 1.00345E+01 0.00000E+00
 -1       535-8.00000E+00 1.10517E+01 0.00000E+00
 -1       536-8.00000E+00 1.20690E+01 0.00000E+00
 -1       537-8.00000E+00 1.30862E+01 0.00000E+00
 -1       538-8.00000E+00 1.41034E+01 0.00000E+00
 -1       539-8.00000E+00 1.51207E+01 0.00000E+00
 -1       540-8.00000E+00 1.61379E+01 0.00000E+00
 -1       541-8.00000E+00 1.71552E+01 0.00000E+00
 -1       542-8.00000E+00 1.81724E+01 0.00000E+00
 -1       543-8.00000E+00 1.91897E+01 0.00000E+00
 -1       544-8.00000E+00 2.02069E+01 0.00000E+00
 -1       545-8.00000E+00 2.12241E+01 0.00000E+00
 -1       546-8.00000E+00 2.22414E+01 0.00000E+00
 -1       547-8.00000E+00 2.32586E+01 0.00000E+00
 -1       548-8.00000E+00 2.42759E+01 0.00000E+00
 -1       549-8.00000E+00 2.52931E+01 0.00000E+00
 -1       550-8.00000E+00 2.63103E+01 0.00000E+00
 -1       551-8.00000E+00 2.73276E+01 0.00000E+00
 -1       552-8.00000E+00 2.83448E+01 0.00000E+00
 -1       553-8.00000E+00 2.93621E+01 0.00000E+00
 -1       554-8.00000E+00 3.03793E+01 0.00000E+00
 -1       555-8.00000E+00 3.13966E+01 0.00000E+00
 -1       556-8.00000E+00 3.24138E+01 0.00000E+00
 -1       557-8.00000E+00 3.34310E+01 0.00000E+00
 -1       558-8.00000E+00 3.44483E+01 0.00000E+00
 -1       559-8.00000E+00 3.54655E+01 0.00000E+00
 -1       560-8.00000E+00 3.64828E+01 0.00000E+00
 -1       561 8.00000E+00 9.01724E+00 0.00000E+00
 -1       562 8.00000E+00 1.00345E+01 0.00000E+00
 -1       563 8.00000E+00 1.10517E+01 0.00000E+00
 -1       564 8.00000E+00 1.20690E+01 0.00000E+00
 -1       565 8.00000E+00 1.30862E+01 0.00000E+00
 -1       566 8.00000E+00 1.41034E+01 0.00000E+00
 -1       567 8.00000E+00 1.51207E+01 0.00000E+00
 -1       568 8.00000E+00 1.61379E+01 0.00000E+00
 -1       569 8.00000E+00 1.71552E+01 0.00000E+00
 -1       570 8.00000E+00 1.81724E+01 0.00000E+00
 -1       571 8.00000E+00 1.91897E+01 0.00000E+00
 -1       572 8.00000E+00 2.02069E+01 0.00000E+00
 -1       573 8.00000E+00 2.12241E+01 0.00000E+00
 -1       574 8.00000E+00 2.22414E+01 0.00000E+00
 -1       575 8.00000E+00 2.32586E+01 0.00000E+00
 -1       576 8.00000E+00 2.42759E+01 0.00000E+00
 -1       577 8.00000E+00 2.52931E+01 0.00000E+00
 -1       578 8.00000E+00 2.63103E+01 0.00000E+00
 -1       579 8.00000E+00 2.73276E+01 0.00000E+00
 -1       580 8.00000E+00 2.83448E+01 0.00000E+00
 -1       581 8.00000E+00 2.93621E+01 0.00000E+00
 -1       582 8.00000E+00 3.03793E+01 0.00000E+00
 -1       583 8.00000E+00 3.13966E+01 0.00000E+00
 -1       584 8.00000E+00 3.24138E+01 0.00000E+00
 -1       585 8.00000E+00 3.34310E+01 0.00000E+00
 -1       586 8.00000E+00 3.44483E+01 0.00000E+00
 -1       587 8.00000E+00 3.54655E+01 0.00000E+00
 -1       588 8.00000E+00 3.64828E+01 0.00000E+00
 -1       589 2.23182E+00 1.82040E+00 0.00000E+00
 -1       590 2.39026E+00 1.57160E+00 0.00000E+00
 -1       591 2.52504E+00 1.30742E+00 0.00000E+00
 -1       592 2.63468E+00 1.03044E+00 0.00000E+00
 -1       593 2.71798E+00 7.43348E-01 0.00000E+00
 -1       594 2.77402E+00 4.48953E-01 0.00000E+00
 -1       595 2.80220E+00 1.50143E-01 0.00000E+00
 -1       596 2.80220E+00-1.50143E-01 0.00000E+00
 -1       597 2.77402E+00-4.48953E-01 0.00000E+00
 -1       598 2.71798E+00-7.43348E-01 0.00000E+00
 -1       599 2.63468E+00-1.03044E+00 0.00000E+00
 -1       600 2.52504E+00-1.30742E+00 0.00000E+00
 -1       601 2.39026E+00-1.57160E+00 0.00000E+00
 -1       602 2.23182E+00-1.82040E+00 0.00000E+00
 -1       603 2.42193E+00 1.98892E+00 0.00000E+00
 -1       604 2.57515E+00 1.71315E+00 0.00000E+00
 -1       605 2.70549E+00 1.42253E+00 0.00000E+00
 -1       606 2.81151E+00 1.11952E+00 0.00000E+00
 -1       607 2.89206E+00 8.06738E-01 0.00000E+00
 -1       608 2.94626E+00 4.86889E-01 0.00000E+00
 -1       609 2.97351E+00 1.62772E-01 0.00000E+00
 -1       610 2.97351E+00-1.62772E-01 0.00000E+00
 -1       611 2.94626E+00-4.86889E-01 0.00000E+00
 -1       612 2.89206E+00-8.06738E-01 0.00000E+00
 -1       613 2.81151E+00-1.11952E+00 0.00000E+00
 -1       614 2.70549E+00-1.42253E+00 0.00000E+00
 -1       615 2.57515E+00-1.71315E+00 0.00000E+00
 -1       616 2.42193E+00-1.98892E+00 0.00000E+00
 -1       617 2.63316E+00 2.17615E+00 0.00000E+00
 -1       618 2.78058E+00 1.87044E+00 0.00000E+00
 -1       619 2.90598E+00 1.55043E+00 0.00000E+00
 -1       620 3.00799E+00 1.21851E+00 0.00000E+00
 -1       621 3.08549E+00 8.77171E-01 0.00000E+00
 -1       622 3.13764E+00 5.29041E-01 0.00000E+00
 -1       623 3.16386E+00 1.76805E-01 0.00000E+00
 -1       624 3.16386E+00-1.76805E-01 0.00000E+00
 -1       625 3.13764E+00-5.29041E-01 0.00000E+00
 -1       626 3.08549E+00-8.77171E-01 0.00000E+00
 -1       627 3.00799E+00-1.21851E+00 0.00000E+00
 -1       628 2.90598E+00-1.55043E+00 0.00000E+00
 -1       629 2.78058E+00-1.87044E+00 0.00000E+00
 -1       630 2.63316E+00-2.17615E+00 0.00000E+00
 -1       631 2.86787E+00 2.38420E+00 0.00000E+00
 -1       632 3.00884E+00 2.04521E+00 0.00000E+00
 -1       633 3.12876E+00 1.69254E+00 0.00000E+00
 -1       634 3.22631E+00 1.32849E+00 0.00000E+00
 -1       635 3.30042E+00 9.55430E-01 0.00000E+00
 -1       636 3.35028E+00 5.75877E-01 0.00000E+00
 -1       637 3.37535E+00 1.92397E-01 0.00000E+00
 -1       638 3.37535E+00-1.92397E-01 0.00000E+00
 -1       639 3.35028E+00-5.75877E-01 0.00000E+00
 -1       640 3.30042E+00-9.55430E-01 0.00000E+00
 -1       641 3.22631E+00-1.32849E+00 0.00000E+00
 -1       642 3.12876E+00-1.69254E+00 0.00000E+00
 -1       643 3.00884E+00-2.04521E+00 0.00000E+00
 -1       644 2.86787E+00-2.38420E+00 0.00000E+00
 -1       645 3.12865E+00 2.61536E+00 0.00000E+00
 -1       646 3.26246E+00 2.23939E+00 0.00000E+00
 -1       647 3.37628E+00 1.85045E+00 0.00000E+00
 -1       648 3.46887E+00 1.45068E+00 0.00000E+00
 -1       649 3.53922E+00 1.04238E+00 0.00000E+00
 -1       650 3.58655E+00 6.27917E-01 0.00000E+00
 -1       651 3.61035E+00 2.09721E-01 0.00000E+00
 -1       652 3.61035E+00-2.09721E-01 0.00000E+00
 -1       653 3.58655E+00-6.27917E-01 0.00000E+00
 -1       654 3.53922E+00-1.04238E+00 0.00000E+00
 -1       655 3.46887E+00-1.45068E+00 0.00000E+00
 -1       656 3.37628E+00-1.85045E+00 0.00000E+00
 -1       657 3.26246E+00-2.23939E+00 0.00000E+00
 -1       658 3.12865E+00-2.61536E+00 0.00000E+00
 -1       659 3.41841E+00 2.87220E+00 0.00000E+00
 -1       660 3.54426E+00 2.45515E+00 0.00000E+00
 -1       661 3.65131E+00 2.02589E+00 0.00000E+00
 -1       662 3.73840E+00 1.58646E+00 0.00000E+00
 -1       663 3.80456E+00 1.13900E+00 0.00000E+00
 -1       664 3.84907E+00 6.85738E-01 0.00000E+00
 -1       665 3.87145E+00 2.28970E-01 0.00000E+00
 -1       666 3.87145E+00-2.28970E-01 0.00000E+00
 -1       667 3.84907E+00-6.85738E-01 0.00000E+00
 -1       668 3.80456E+00-1.13900E+00 0.00000E+00
 -1       669 3.73840E+00-1.58646E+00 0.00000E+00
 -1       670 3.65131E+00-2.02589E+00 0.00000E+00
 -1       671 3.54426E+00-2.45515E+00 0.00000E+00
 -1       672 3.41841E+00-2.87220E+00 0.00000E+00
 -1       673 3.74036E+00 3.15758E+00 0.00000E+00
 -1       674 3.85737E+00 2.69488E+00 0.00000E+00
 -1       675 3.95690E+00 2.22083E+00 0.00000E+00
 -1       676 4.03786E+00 1.73733E+00 0.00000E+00
 -1       677 4.09938E+00 1.24635E+00 0.00000E+00
 -1       678 4.14076E+00 7.49985E-01 0.00000E+00
 -1       679 4.16157E+00 2.50358E-01 0.00000E+00
 -1       680 4.16157E+00-2.50358E-01 0.00000E+00
 -1       681 4.14076E+00-7.49985E-01 0.00000E+00
 -1       682 4.09938E+00-1.24635E+00 0.00000E+00
 -1       683 4.03786E+00-1.73733E+00 0.00000E+00
 -1       684 3.95690E+00-2.22083E+00 0.00000E+00
 -1       685 3.85737E+00-2.69488E+00 0.00000E+00
 -1       686 3.74036E+00-3.15758E+00 0.00000E+00
 -1       687 4.09809E+00 3.47467E+00 0.00000E+00
 -1       688 4.20527E+00 2.96125E+00 0.00000E+00
 -1       689 4.29644E+00 2.43743E+00 0.00000E+00
 -1       690 4.37061E+00 1.90495E+00 0.00000E+00
 -1       691 4.42695E+00 1.36563E+00 0.00000E+00
 -1       692 4.46486E+00 8.21369E-01 0.00000E+00
 -1       693 4.48392E+00 2.74123E-01 0.00000E+00
 -1       694 4.48392E+00-2.74123E-01 0.00000E+00
 -1       695 4.46486E+00-8.21369E-01 0.00000E+00
 -1       696 4.42695E+00-1.36563E+00 0.00000E+00
 -1       697 4.37061E+00-1.90495E+00 0.00000E+00
 -1       698 4.29644E+00-2.43743E+00 0.00000E+00
 -1       699 4.20527E+00-2.96125E+00 0.00000E+00
 -1       700 4.09809E+00-3.47467E+00 0.00000E+00
 -1       701 4.49556E+00 3.82699E+00 0.00000E+00
 -1       702 4.59183E+00 3.25721E+00 0.00000E+00
 -1       703 4.67371E+00 2.67810E+00 0.00000E+00
 -1       704 4.74032E+00 2.09120E+00 0.00000E+00
 -1       705 4.79093E+00 1.49816E+00 0.00000E+00
 -1       706 4.82498E+00 9.00686E-01 0.00000E+00
 -1       707 4.84210E+00 3.00528E-01 0.00000E+00
 -1       708 4.84210E+00-3.00528E-01 0.00000E+00
 -1       709 4.82498E+00-9.00686E-01 0.00000E+00
 -1       710 4.79093E+00-1.49816E+00 0.00000E+00
 -1       711 4.74032E+00-2.09120E+00 0.00000E+00
 -1       712 4.67371E+00-2.67810E+00 0.00000E+00
 -1       713 4.59183E+00-3.25721E+00 0.00000E+00
 -1       714 4.49556E+00-3.82699E+00 0.00000E+00
 -1       715 4.93720E+00 4.21846E+00 0.00000E+00
 -1       716 5.02133E+00 3.58606E+00 0.00000E+00
 -1       717 5.09290E+00 2.94551E+00 0.00000E+00
 -1       718 5.15111E+00 2.29815E+00 0.00000E+00
 -1       719 5.19534E+00 1.64542E+00 0.00000E+00
 -1       720 5.22510E+00 9.88815E-01 0.00000E+00
 -1       721 5.24006E+00 3.29866E-01 0.00000E+00
 -1       722 5.24006E+00-3.29866E-01 0.00000E+00
 -1       723 5.22510E+00-9.88815E-01 0.00000E+00
 -1       724 5.19534E+00-1.64542E+00 0.00000E+00
 -1       725 5.15111E+00-2.29815E+00 0.00000E+00
 -1       726 5.09290E+00-2.94551E+00 0.00000E+00
 -1       727 5.02133E+00-3.58606E+00 0.00000E+00
 -1       728 4.93720E+00-4.21846E+00 0.00000E+00
 -1       729 5.42791E+00 4.65343E+00 0.00000E+00
 -1       730 5.49856E+00 3.95145E+00 0.00000E+00
 -1       731 5.55866E+00 3.24263E+00 0.00000E+00
 -1       732 5.60755E+00 2.52809E+00 0.00000E+00
 -1       733 5.64469E+00 1.80904E+00 0.00000E+00
 -1       734 5.66968E+00 1.08674E+00 0.00000E+00
 -1       735 5.68225E+00 3.62465E-01 0.00000E+00
 -1       736 5.68225E+00-3.62465E-01 0.00000E+00
 -1       737 5.66968E+00-1.08674E+00 0.00000E+00
 -1       738 5.64469E+00-1.80904E+00 0.00000E+00
 -1       739 5.60755E+00-2.52809E+00 0.00000E+00
 -1       740 5.55866E+00-3.24263E+00 0.00000E+00
 -1       741 5.49856E+00-3.95145E+00 0.00000E+00
 -1       742 5.42791E+00-4.65343E+00 0.00000E+00
 -1       743 5.97314E+00 5.13672E+00 0.00000E+00
 -1       744 6.02882E+00 4.35744E+00 0.00000E+00
 -1       745 6.07618E+00 3.57276E+00 0.00000E+00
 -1       746 6.11470E+00 2.78358E+00 0.00000E+00
 -1       747 6.14397E+00 1.99084E+00 0.00000E+00
 -1       748 6.16367E+00 1.19554E+00 0.00000E+00
 -1       749 6.17357E+00 3.98686E-01 0.00000E+00
 -1       750 6.17357E+00-3.98686E-01 0.00000E+00
 -1       751 6.16367E+00-1.19554E+00 0.00000E+00
 -1       752 6.14397E+00-1.99084E+00 0.00000E+00
 -1       753 6.11470E+00-2.78358E+00 0.00000E+00
 -1       754 6.07618E+00-3.57276E+00 0.00000E+00
 -1       755 6.02882E+00-4.35744E+00 0.00000E+00
 -1       756 5.97314E+00-5.13672E+00 0.00000E+00
 -1       757 6.57896E+00 5.67372E+00 0.00000E+00
 -1       758 6.61799E+00 4.80854E+00 0.00000E+00
 -1       759 6.65119E+00 3.93957E+00 0.00000E+00
 -1       760 6.67820E+00 3.06745E+00 0.00000E+00
 -1       761 6.69873E+00 2.19284E+00 0.00000E+00
 -1       762 6.71253E+00 1.31643E+00 0.00000E+00
 -1       763 6.71947E+00 4.38931E-01 0.00000E+00
 -1       764 6.71947E+00-4.38931E-01 0.00000E+00
 -1       765 6.71253E+00-1.31643E+00 0.00000E+00
 -1       766 6.69873E+00-2.19284E+00 0.00000E+00
 -1       767 6.67820E+00-3.06745E+00 0.00000E+00
 -1       768 6.65119E+00-3.93957E+00 0.00000E+00
 -1       769 6.61799E+00-4.80854E+00 0.00000E+00
 -1       770 6.57896E+00-5.67372E+00 0.00000E+00
 -1       771 7.25208E+00 6.27038E+00 0.00000E+00
 -1       772 7.27263E+00 5.30976E+00 0.00000E+00
 -1       773 7.29010E+00 4.34714E+00 0.00000E+00
 -1       774 7.30432E+00 3.38287E+00 0.00000E+00
 -1       775 7.31512E+00 2.41728E+00 0.00000E+00
 -1       776 7.32239E+00 1.45075E+00 0.00000E+00
 -1       777 7.32604E+00 4.83648E-01 0.00000E+00
 -1       778 7.32604E+00-4.83648E-01 0.00000E+00
 -1       779 7.32239E+00-1.45075E+00 0.00000E+00
 -1       780 7.31512E+00-2.41728E+00 0.00000E+00
 -1       781 7.30432E+00-3.38287E+00 0.00000E+00
 -1       782 7.29010E+00-4.34714E+00 0.00000E+00
 -1       783 7.27263E+00-5.30976E+00 0.00000E+00
 -1       784 7.25208E+00-6.27038E+00 0.00000E+00
 -1       785 1.82040E+00-2.23182E+00 0.00000E+00
 -1       786 1.57160E+00-2.39026E+00 0.00000E+00
 -1       787 1.30742E+00-2.52504E+00 0.00000E+00
 -1       788 1.03044E+00-2.63468E+00 0.00000E+00
 -1       789 7.43348E-01-2.71798E+00 0.00000E+00
 -1       790 4.48953E-01-2.77402E+00 0.00000E+00
 -1       791 1.50143E-01-2.80220E+00 0.00000E+00
 -1       792-1.50143E-01-2.80220E+00 0.00000E+00
 -1       793-4.48953E-01-2.77402E+00 0.00000E+00
 -1       794-7.43348E-01-2.71798E+00 0.00000E+00
 -1       795-1.03044E+00-2.63468E+00 0.00000E+00
 -1       796-1.30742E+00-2.52504E+00 0.00000E+00
 -1       797-1.57160E+00-2.39026E+00 0.00000E+00
 -1       798-1.82040E+00-2.23182E+00 0.00000E+00
 -1       799 1.98892E+00-2.42193E+00 0.00000E+00
 -1       800 1.71315E+00-2.57515E+00 0.00000E+00
 -1       801 1.42253E+00-2.70549E+00 0.00000E+00
 -1       802 1.11952E+00-2.81151E+00 0.00000E+00
 -1       803 8.06738E-01-2.89206E+00 0.00000E+00
 -1       804 4.86889E-01-2.94626E+00 0.00000E+00
 -1       805 1.62772E-01-2.97351E+00 0.00000E+00
 -1       806-1.62772E-01-2.97351E+00 0.00000E+00
 -1       807-4.86889E-01-2.94626E+00 0.00000E+00
 -1       808-8.06738E-01-2.89206E+00 0.00000E+00
 -1       809-1.11952E+00-2.81151E+00 0.00000E+00
 -1       810-1.42253E+00-2.70549E+00 0.00000E+00
 -1       811-1.71315E+00-2.57515E+00 0.00000E+00
 -1       812-1.98892E+00-2.42193E+00 0.00000E+00
 -1       813 2.17615E+00-2.63316E+00 0.00000E+00
 -1       814 1.87044E+00-2.78058E+00 0.00000E+00
 -1       815 1.55043E+00-2.90598E+00 0.00000E+00
 -1       816 1.21851E+00-3.00799E+00 0.00000E+00
 -1       817 8.77171E-01-3.08549E+00 0.00000E+00
 -1       818 5.29041E-01-3.13764E+00 0.00000E+00
 -1       819 1.76805E-01-3.16386E+00 0.00000E+00
 -1       820-1.76805E-01-3.16386E+00 0.00000E+00
 -1       821-5.29041E-01-3.13764E+00 0.00000E+00
 -1       822-8.77171E-01-3.08549E+00 0.00000E+00
 -1       823-1.21851E+00-3.00799E+00 0.00000E+00
 -1       824-1.55043E+00-2.90598E+00 0.00000E+00
 -1       825-1.87044E+00-2.78058E+00 0.00000E+00
 -1       826-2.17615E+00-2.63316E+00 0.00000E+00
 -1       827 2.38420E+00-2.86787E+00 0.00000E+00
 -1       828 2.04521E+00-3.00884E+00 0.00000E+00
 -1       829 1.69254E+00-3.12876E+00 0.00000E+00
 -1       830 1.32849E+00-3.22631E+00 0.00000E+00
 -1       831 9.55430E-01-3.30042E+00 0.00000E+00
 -1       832 5.75877E-01-3.35028E+00 0.00000E+00
 -1       833 1.92397E-01-3.37535E+00 0.00000E+00
 -1       834-1.92397E-01-3.37535E+00 0.00000E+00
 -1       835-5.75877E-01-3.35028E+00 0.00000E+00
 -1       836-9.55430E-01-3.30042E+00 0.00000E+00
 -1       837-1.32849E+00-3.22631E+00 0.00000E+00
 -1       838-1.69254E+00-3.12876E+00 0.00000E+00
 -1       839-2.04521E+00-3.00884E+00 0.00000E+00
 -1       840-2.38420E+00-2.86787E+00 0.00000E+00
 -1       841 2.61536E+00-3.12865E+00 0.00000E+00
 -1       842 2.23939E+00-3.26246E+00 0.00000E+00
 -1       843 1.85045E+00-3.37628E+00 0.00000E+00
 -1       844 1.45068E+00-3.46887E+00 0.00000E+00
 -1       845 1.04238E+00-3.53922E+00 0.00000E+00
 -1       846 6.27917E-01-3.58655E+00 0.00000E+00
 -1       847 2.09721E-01-3.61035E+00 0.00000E+00
 -1       848-2.09721E-01-3.61035E+00 0.00000E+00
 -1       849-6.27917E-01-3.58655E+00 0.00000E+00
 -1       850-1.04238E+00-3.53922E+00 0.00000E+00
 -1       851-1.45068E+00-3.46887E+00 0.00000E+00
 -1       852-1.85045E+00-3.37628E+00 0.00000E+00
 -1       853-2.23939E+00-3.26246E+00 0.00000E+00
 -1       854-2.61536E+00-3.12865E+00 0.00000E+00
 -1       855 2.87220E+00-3.41841E+00 0.00000E+00
 -1       856 2.45515E+00-3.54426E+00 0.00000E+00
 -1       857 2.02589E+00-3.65131E+00 0.00000E+00
 -1       858 1.58646E+00-3.73840E+00 0.00000E+00
 -1       859 1.13900E+00-3.80456E+00 0.00000E+00
 -1       860 6.85738E-01-3.84907E+00 0.00000E+00
 -1       861 2.28970E-01-3.87145E+00 0.00000E+00
 -1       862-2.28970E-01-3.87145E+00 0.00000E+00
 -1       863-6.85738E-01-3.84907E+00 0.00000E+00
 -1       864-1.13900E+00-3.80456E+00 0.00000E+00
 -1       865-1.58646E+00-3.73840E+00 0.00000E+00
 -1       866-2.02589E+00-3.65131E+00 0.00000E+00
 -1       867-2.45515E+00-3.54426E+00 0.00000E+00
 -1       868-2.87220E+00-3.41841E+00 0.00000E+00
 -1       869 3.15758E+00-3.74036E+00 0.00000E+00
 -1       870 2.69488E+00-3.85737E+00 0.00000E+00
 -1       871 2.22083E+00-3.95690E+00 0.00000E+00
 -1       872 1.73733E+00-4.03786E+00 0.00000E+00
 -1       873 1.24635E+00-4.09938E+00 0.00000E+00
 -1       874 7.49985E-01-4.14076E+00 0.00000E+00
 -1       875 2.50358E-01-4.16157E+00 0.00000E+00
 -1       876-2.50358E-01-4.16157E+00 0.00000E+00
 -1       877-7.49985E-01-4.14076E+00 0.00000E+00
 -1       878-1.24635E+00-4.09938E+00 0.00000E+00
 -1       879-1.73733E+00-4.03786E+00 0.00000E+00
 -1       880-2.22083E+00-3.95690E+00 0.00000E+00
 -1       881-2.69488E+00-3.85737E+00 0.00000E+00
 -1       882-3.15758E+00-3.74036E+00 0.00000E+00
 -1       883 3.47467E+00-4.09809E+00 0.00000E+00
 -1       884 2.96125E+00-4.20527E+00 0.00000E+00
 -1       885 2.43743E+00-4.29644E+00 0.00000E+00
 -1       886 1.90495E+00-4.37061E+00 0.00000E+00
 -1       887 1.36563E+00-4.42695E+00 0.00000E+00
 -1       888 8.21369E-01-4.46486E+00 0.00000E+00
 -1       889 2.74123E-01-4.48392E+00 0.00000E+00
 -1       890-2.74123E-01-4.48392E+00 0.00000E+00
 -1       891-8.21369E-01-4.46486E+00 0.00000E+00
 -1       892-1.36563E+00-4.42695E+00 0.00000E+00
 -1       893-1.90495E+00-4.37061E+00 0.00000E+00
 -1       894-2.43743E+00-4.29644E+00 0.00000E+00
 -1       895-2.96125E+00-4.20527E+00 0.00000E+00
 -1       896-3.47467E+00-4.09809E+00 0.00000E+00
 -1       897 3.82699E+00-4.49556E+00 0.00000E+00
 -1       898 3.25721E+00-4.59183E+00 0.00000E+00
 -1       899 2.67810E+00-4.67371E+00 0.00000E+00
 -1       900 2.09120E+00-4.74032E+00 0.00000E+00
 -1       901 1.49816E+00-4.79093E+00 0.00000E+00
 -1       902 9.00686E-01-4.82498E+00 0.00000E+00
 -1       903 3.00528E-01-4.84210E+00 0.00000E+00
 -1       904-3.00528E-01-4.84210E+00 0.00000E+00
 -1       905-9.00686E-01-4.82498E+00 0.00000E+00
 -1       906-1.49816E+00-4.79093E+00 0.00000E+00
 -1       907-2.09120E+00-4.74032E+00 0.00000E+00
 -1       908-2.67810E+00-4.67371E+00 0.00000E+00
 -1       909-3.25721E+00-4.59183E+00 0.00000E+00
 -1       910-3.82699E+00-4.49556E+00 0.00000E+00
 -1       911 4.21846E+00-4.93720E+00 0.00000E+00
 -1       912 3.58606E+00-5.02133E+00 0.00000E+00
 -1       913 2.94551E+00-5.09290E+00 0.00000E+00
 -1       914 2.29815E+00-5.15111E+00 0.00000E+00
 -1       915 1.64542E+00-5.19534E+00 0.00000E+00
 -1       916 9.88815E-01-5.22510E+00 0.00000E+00
 -1       917 3.29866E-01-5.24006E+00 0.00000E+00
 -1       918-3.29866E-01-5.24006E+00 0.00000E+00
 -1       919-9.88815E-01-5.22510E+00 0.00000E+00
 -1       920-1.64542E+00-5.19534E+00 0.00000E+00
 -1       921-2.29815E+00-5.15111E+00 0.00000E+00
 -1       922-2.94551E+00-5.09290E+00 0.00000E+00
 -1       923-3.58606E+00-5.02133E+00 0.00000E+00
 -1       924-4.21846E+00-4.93720E+00 0.00000E+00
 -1       925 4.65343E+00-5.42791E+00 0.00000E+00
 -1       926 3.95145E+00-5.49856E+00 0.00000E+00
 -1       927 3.24263E+00-5.55866E+00 0.00000E+00
 -1       928 2.52809E+00-5.60755E+00 0.00000E+00
 -1       929 1.80904E+00-5.64469E+00 0.00000E+00
 -1       930 1.08674E+00-5.66968E+00 0.00000E+00
 -1       931 3.62465E-01-5.68225E+00 0.00000E+00
 -1       932-3.62465E-01-5.68225E+00 0.00000E+00
 -1       933-1.08674E+00-5.66968E+00 0.00000E+00
 -1       934-1.80904E+00-5.64469E+00 0.00000E+00
 -1       935-2.52809E+00-5.60755E+00 0.00000E+00
 -1       936-3.24263E+00-5.55866E+00 0.00000E+00
 -1       937-3.95145E+00-5.49856E+00 0.00000E+00
 -1       938-4.65343E+00-5.42791E+00 0.00000E+00
 -1       939 5.13672E+00-5.97314E+00 0.00000E+00
 -1       940 4.35744E+00-6.02882E+00 0.00000E+00
 -1       941 3.57276E+00-6.07618E+00 0.00000E+00
 -1       942 2.78358E+00-6.11470E+00 0.00000E+00
 -1       943 1.99084E+00-6.14397E+00 0.00000E+00
 -1       944 1.19554E+00-6.16367E+00 0.00000E+00
 -1       945 3.98686E-01-6.17357E+00 0.00000E+00
 -1       946-3.98686E-01-6.17357E+00 0.00000E+00
 -1       947-1.19554E+00-6.16367E+00 0.00000E+00
 -1       948-1.99084E+00-6.14397E+00 0.00000E+00
 -1       949-2.78358E+00-6.11470E+00 0.00000E+00
 -1       950-3.57276E+00-6.07618E+00 0.00000E+00
 -1       951-4.35744E+00-6.02882E+00 0.00000E+00
 -1       952-5.13672E+00-5.97314E+00 0.00000E+00
 -1       953 5.67372E+00-6.57896E+00 0.00000E+00
 -1       954 4.80854E+00-6.61799E+00 0.00000E+00
 -1       955 3.93957E+00-6.65119E+00 0.00000E+00
 -1       956 3.06745E+00-6.67820E+00 0.00000E+00
 -1       957 2.19284E+00-6.69873E+00 0.00000E+00
 -1       958 1.31643E+00-6.71253E+00 0.00000E+00
 -1       959 4.38931E-01-6.71947E+00 0.00000E+00
 -1       960-4.38931E-01-6.71947E+00 0.00000E+00
 -1       961-1.31643E+00-6.71253E+00 0.00000E+00
 -1       962-2.19284E+00-6.69873E+00 0.00000E+00
 -1       963-3.06745E+00-6.67820E+00 0.00000E+00
 -1       964-3.93957E+00-6.65119E+00 0.00000E+00
 -1       965-4.80854E+00-6.61799E+00 0.00000E+00
 -1       966-5.67372E+00-6.57896E+00 0.00000E+00
 -1       967 6.27038E+00-7.25208E+00 0.00000E+00
 -1       968 5.30976E+00-7.27263E+00 0.00000E+00
 -1       969 4.34714E+00-7.29010E+00 0.00000E+00
 -1       970 3.38287E+00-7.30432E+00 0.00000E+00
 -1       971 2.41728E+00-7.31512E+00 0.00000E+00
 -1       972 1.45075E+00-7.32239E+00 0.00000E+00
 -1       973 4.83648E-01-7.32604E+00 0.00000E+00
 -1       974-4.83648E-01-7.32604E+00 0.00000E+00
 -1       975-1.45075E+00-7.32239E+00 0.00000E+00
 -1       976-2.41728E+00-7.31512E+00 0.00000E+00
 -1       977-3.38287E+00-7.30432E+00 0.00000E+00
 -1       978-4.34714E+00-7.29010E+00 0.00000E+00
 -1       979-5.30976E+00-7.27263E+00 0.00000E+00
 -1       980-6.27038E+00-7.25208E+00 0.00000E+00
 -1       981-2.23182E+00-1.82040E+00 0.00000E+00
 -1       982-2.39026E+00-1.57160E+00 0.00000E+00
 -1       983-2.52504E+00-1.30742E+00 0.00000E+00
 -1       984-2.63468E+00-1.03044E+00 0.00000E+00
 -1       985-2.71798E+00-7.43348E-01 0.00000E+00
 -1       986-2.77402E+00-4.48953E-01 0.00000E+00
 -1       987-2.80220E+00-1.50143E-01 0.00000E+00
 -1       988-2.80220E+00 1.50143E-01 0.00000E+00
 -1       989-2.77402E+00 4.48953E-01 0.00000E+00
 -1       990-2.71798E+00 7.43348E-01 0.00000E+00
 -1       991-2.63468E+00 1.03044E+00 0.00000E+00
 -1       992-2.52504E+00 1.30742E+00 0.00000E+00
 -1       993-2.39026E+00 1.57160E+00 0.00000E+00
 -1       994-2.23182E+00 1.82040E+00 0.00000E+00
 -1       995-2.42193E+00-1.98892E+00 0.00000E+00
 -1       996-2.57515E+00-1.71315E+00 0.00000E+00
 -1       997-2.70549E+00-1.42253E+00 0.00000E+00
 -1       998-2.81151E+00-1.11952E+00 0.00000E+00
 -1       999-2.89206E+00-8.06738E-01 0.00000E+00
 -1      1000-2.94626E+00-4.86889E-01 0.00000E+00
 -1      1001-2.97351E+00-1.62772E-01 0.00000E+00
 -1      1002-2.97351E+00 1.62772E-01 0.00000E+00
 -1      1003-2.94626E+00 4.86889E-01 0.00000E+00
 -1      1004-2.89206E+00 8.06738E-01 0.00000E+00
 -1      1005-2.81151E+00 1.11952E+00 0.00000E+00
 -1      1006-2.70549E+00 1.42253E+00 0.00000E+00
 -1      1007-2.57515E+00 1.71315E+00 0.00000E+00
 -1      1008-2.42193E+00 1.98892E+00 0.00000E+00
 -1      1009-2.63316E+00-2.17615E+00 0.00000E+00
 -1      1010-2.78058E+00-1.87044E+00 0.00000E+00
 -1      1011-2.90598E+00-1.55043E+00 0.00000E+00
 -1      1012-3.00799E+00-1.21851E+00 0.00000E+00
 -1      1013-3.08549E+00-8.77171E-01 0.00000E+00
 -1      1014-3.13764E+00-5.29041E-01 0.00000E+00
 -1      1015-3.16386E+00-1.76805E-01 0.00000E+00
 -1      1016-3.16386E+00 1.76805E-01 0.00000E+00
 -1      1017-3.13764E+00 5.29041E-01 0.00000E+00
 -1      1018-3.08549E+00 8.77171E-01 0.00000E+00
 -1      1019-3.00799E+00 1.21851E+00 0.00000E+00
 -1      1020-2.90598E+00 1.55043E+00 0.00000E+00
 -1      1021-2.78058E+00 1.87044E+00 0.00000E+00
 -1      1022-2.63316E+00 2.17615E+00 0.00000E+00
 -1      1023-2.86787E+00-2.38420E+00 0.00000E+00
 -1      1024-3.00884E+00-2.04521E+00 0.00000E+00
 -1      1025-3.12876E+00-1.69254E+00 0.00000E+00
 -1      1026-3.22631E+00-1.32849E+00 0.00000E+00
 -1      1027-3.30042E+00-9.55430E-01 0.00000E+00
 -1      1028-3.35028E+00-5.75877E-01 0.00000E+00
 -1      1029-3.37535E+00-1.92397E-01 0.00000E+00
 -1      1030-3.37535E+00 1.92397E-01 0.00000E+00
 -1      1031-3.35028E+00 5.75877E-01 0.00000E+00
 -1      1032-3.30042E+00 9.55430E-01 0.00000E+00
 -1      1033-3.22631E+00 1.32849E+00 0.00000E+00
 -1      1034-3.12876E+00 1.69254E+00 0.00000E+00
 -1      1035-3.00884E+00 2.04521E+00 0.00000E+00
 -1      1036-2.86787E+00 2.38420E+00 0.00000E+00
 -1      1037-3.12865E+00-2.61536E+00 0.00000E+00
 -1      1038-3.26246E+00-2.23939E+00 0.00000E+00
 -1      1039-3.37628E+00-1.85045E+00 0.00000E+00
 -1      1040-3.46887E+00-1.45068E+00 0.00000E+00
 -1      1041-3.53922E+00-1.04238E+00 0.00000E+00
 -1      1042-3.58655E+00-6.27917E-01 0.00000E+00
 -1      1043-3.61035E+00-2.09721E-01 0.00000E+00
 -1      1044-3.61035E+00 2.09721E-01 0.00000E+00
 -1      1045-3.58655E+00 6.27917E-01 0.00000E+00
 -1      1046-3.53922E+00 1.04238E+00 0.00000E+00
 -1      1047-3.46887E+00 1.45068E+00 0.00000E+00
 -1      1048-3.37628E+00 1.85045E+00 0.00000E+00
 -1      1049-3.26246E+00 2.23939E+00 0.00000E+00
 -1      1050-3.12865E+00 2.61536E+00 0.00000E+00
 -1      1051-3.41841E+00-2.87220E+00 0.00000E+00
 -1      1052-3.54426E+00-2.45515E+00 0.00000E+00
 -1      1053-3.65131E+00-2.02589E+00 0.00000E+00
 -1      1054-3.73840E+00-1.58646E+00 0.00000E+00
 -1      1055-3.80456E+00-1.13900E+00 0.00000E+00
 -1      1056-3.84907E+00-6.85738E-01 0.00000E+00
 -1      1057-3.87145E+00-2.28970E-01 0.00000E+00
 -1      1058-3.87145E+00 2.28970E-01 0.00000E+00
 -1      1059-3.84907E+00 6.85738E-01 0.00000E+00
 -1      1060-3.80456E+00 1.13900E+00 0.00000E+00
 -1      1061-3.73840E+00 1.58646E+00 0.00000E+00
 -1      1062-3.65131E+00 2.02589E+00 0.00000E+00
 -1      1063-3.54426E+00 2.45515E+00 0.00000E+00
 -1      1064-3.41841E+00 2.87220E+00 0.00000E+00
 -1      1065-3.74036E+00-3.15758E+00 0.00000E+00
 -1      1066-3.85737E+00-2.69488E+00 0.00000E+00
 -1      1067-3.95690E+00-2.22083E+00 0.00000E+00
 -1      1068-4.03786E+00-1.73733E+00 0.00000E+00
 -1      1069-4.09938E+00-1.24635E+00 0.00000E+00
 -1      1070-4.14076E+00-7.49985E-01 0.00000E+00
 -1      1071-4.16157E+00-2.50358E-01 0.00000E+00
 -1      1072-4.16157E+00 2.50358E-01 0.00000E+00
 -1      1073-4.14076E+00 7.49985E-01 0.00000E+00
 -1      1074-4.09938E+00 1.24635E+00 0.00000E+00
 -1      1075-4.03786E+00 1.73733E+00 0.00000E+00
 -1      1076-3.95690E+00 2.22083E+00 0.00000E+00
 -1      1077-3.85737E+00 2.69488E+00 0.00000E+00
 -1      1078-3.74036E+00 3.15758E+00 0.00000E+00
 -1      1079-4.09809E+00-3.47467E+00 0.00000E+00
 -1      1080-4.20527E+00-2.96125E+00 0.00000E+00
 -1      1081-4.29644E+00-2.43743E+00 0.00000E+00
 -1      1082-4.37061E+00-1.90495E+00 0.00000E+00
 -1      1083-4.42695E+00-1.36563E+00 0.00000E+00
 -1      1084-4.46486E+00-8.21369E-01 0.00000E+00
 -1      1085-4.48392E+00-2.74123E-01 0.00000E+00
 -1      1086-4.48392E+00 2.74123E-01 0.00000E+00
 -1      1087-4.46486E+00 8.21369E-01 0.00000E+00
 -1      1088-4.42695E+00 1.36563E+00 0.00000E+00
 -1      1089-4.37061E+00 1.90495E+00 0.00000E+00
 -1      1090-4.29644E+00 2.43743E+00 0.00000E+00
 -1      1091-4.20527E+00 2.96125E+00 0.00000E+00
 -1      1092-4.09809E+00 3.47467E+00 0.00000E+00
 -1      1093-4.49556E+00-3.82699E+00 0.00000E+00
 -1      1094-4.59183E+00-3.25721E+00 0.00000E+00
 -1      1095-4.67371E+00-2.67810E+00 0.00000E+00
 -1      1096-4.74032E+00-2.09120E+00 0.00000E+00
 -1      1097-4.79093E+00-1.49816E+00 0.00000E+00
 -1      1098-4.82498E+00-9.00686E-01 0.00000E+00
 -1      1099-4.84210E+00-3.00528E-01 0.00000E+00
 -1      1100-4.84210E+00 3.00528E-01 0.00000E+00
 -1      1101-4.82498E+00 9.00686E-01 0.00000E+00
 -1      1102-4.79093E+00 1.49816E+00 0.00000E+00
 -1      1103-4.74032E+00 2.09120E+00 0.00000E+00
 -1      1104-4.67371E+00 2.67810E+00 0.00000E+00
 -1      1105-4.59183E+00 3.25721E+00 0.00000E+00
 -1      1106-4.49556E+00 3.82699E+00 0.00000E+00
 -1      1107-4.93720E+00-4.21846E+00 0.00000E+00
 -1      1108-5.02133E+00-3.58606E+00 0.00000E+00
 -1      1109-5.09290E+00-2.94551E+00 0.00000E+00
 -1      1110-5.15111E+00-2.29815E+00 0.00000E+00
 -1      1111-5.19534E+00-1.64542E+00 0.00000E+00
 -1      1112-5.22510E+00-9.88815E-01 0.00000E+00
 -1      1113-5.24006E+00-3.29866E-01 0.00000E+00
 -1      1114-5.24006E+00 3.29866E-01 0.00000E+00
 -1      1115-5.22510E+00 9.88815E-01 0.00000E+00
 -1      1116-5.19534E+00 1.64542E+00 0.00000E+00
 -1      1117-5.15111E+00 2.29815E+00 0.00000E+00
 -1      1118-5.09290E+00 2.94551E+00 0.00000E+00
 -1      1119-5.02133E+00 3.58606E+00 0.00000E+00
 -1      1120-4.93720E+00 4.21846E+00 0.00000E+00
 -1      1121-5.42791E+00-4.65343E+00 0.00000E+00
 -1      1122-5.49856E+00-3.95145E+00 0.00000E+00
 -1      1123-5.55866E+00-3.24263E+00 0.00000E+00
 -1      1124-5.60755E+00-2.52809E+00 0.00000E+00
 -1      1125-5.64469E+00-1.80904E+00 0.00000E+00
 -1      1126-5.66968E+00-1.08674E+00 0.00000E+00
 -1      1127-5.68225E+00-3.62465E-01 0.00000E+00
 -1      1128-5.68225E+00 3.62465E-01 0.00000E+00
 -1      1129-5.66968E+00 1.08674E+00 0.00000E+00
 -1      1130-5.64469E+00 1.80904E+00 0.00000E+00
 -1      1131-5.60755E+00 2.52809E+00 0.00000E+00
 -1      1132-5.55866E+00 3.24263E+00 0.00000E+00
 -1      1133-5.49856E+00 3.95145E+00 0.00000E+00
 -1      1134-5.42791E+00 4.65343E+00 0.00000E+00
 -1      1135-5.97314E+00-5.13672E+00 0.00000E+00
 -1      1136-6.02882E+00-4.35744E+00 0.00000E+00
 -1      1137-6.07618E+00-3.57276E+00 0.00000E+00
 -1      1138-6.11470E+00-2.78358E+00 0.00000E+00
 -1      1139-6.14397E+00-1.99084E+00 0.00000E+00
 -1      1140-6.16367E+00-1.19554E+00 0.00000E+00
 -1      1141-6.17357E+00-3.98686E-01 0.00000E+00
 -1      1142-6.17357E+00 3.98686E-01 0.00000E+00
 -1      1143-6.16367E+00 1.19554E+00 0.00000E+00
 -1      1144-6.14397E+00 1.99084E+00 0.00000E+00
 -1      1145-6.11470E+00 2.78358E+00 0.00000E+00
 -1      1146-6.07618E+00 3.57276E+00 0.00000E+00
 -1      1147-6.02882E+00 4.35744E+00 0.00000E+00
 -1      1148-5.97314E+00 5.13672E+00 0.00000E+00
 -1      1149-6.57896E+00-5.67372E+00 0.00000E+00
 -1      1150-6.61799E+00-4.80854E+00 0.00000E+00
 -1      1151-6.65119E+00-3.93957E+00 0.00000E+00
 -1      1152-6.67820E+00-3.06745E+00 0.00000E+00
 -1      1153-6.69873E+00-2.19284E+00 0.00000E+00
 -1      1154-6.71253E+00-1.31643E+00 0.00000E+00
 -1      1155-6.71947E+00-4.38931E-01 0.00000E+00
 -1      1156-6.71947E+00 4.38931E-01 0.00000E+00
 -1      1157-6.71253E+00 1.31643E+00 0.00000E+00
 -1      1158-6.69873E+00 2.19284E+00 0.00000E+00
 -1      1159-6.67820E+00 3.06745E+00 0.00000E+00
 -1      1160-6.65119E+00 3.93957E+00 0.00000E+00
 -1      1161-6.61799E+00 4.80854E+00 0.00000E+00
 -1      1162-6.57896E+00 5.67372E+00 0.00000E+00
 -1      1163-7.25208E+00-6.27038E+00 0.00000E+00
 -1      1164-7.27263E+00-5.30976E+00 0.00000E+00
 -1      1165-7.29010E+00-4.34714E+00 0.00000E+00
 -1      1166-7.30432E+00-3.38287E+00 0.00000E+00
 -1      1167-7.31512E+00-2.41728E+00 0.00000E+00
 -1      1168-7.32239E+00-1.45075E+00 0.00000E+00
 -1      1169-7.32604E+00-4.83648E-01 0.00000E+00
 -1      1170-7.32604E+00 4.83648E-01 0.00000E+00
 -1      1171-7.32239E+00 1.45075E+00 0.00000E+00
 -1      1172-7.31512E+00 2.41728E+00 0.00000E+00
 -1      1173-7.30432E+00 3.38287E+00 0.00000E+00
 -1      1174-7.29010E+00 4.34714E+00 0.00000E+00
 -1      1175-7.27263E+00 5.30976E+00 0.00000E+00
 -1      1176-7.25208E+00 6.27038E+00 0.00000E+00
 -1      1177-1.82040E+00 2.23182E+00 0.00000E+00
 -1      1178-1.57160E+00 2.39026E+00 0.00000E+00
 -1      1179-1.30742E+00 2.52504E+00 0.00000E+00
 -1      1180-1.03044E+00 2.63468E+00 0.00000E+00
 -1      1181-7.43348E-01 2.71798E+00 0.00000E+00
 -1      1182-4.48953E-01 2.77402E+00 0.00000E+00
 -1      1183-1.50143E-01 2.80220E+00 0.00000E+00
 -1      1184 1.50143E-01 2.80220E+00 0.00000E+00
 -1      1185 4.48953E-01 2.77402E+00 0.00000E+00
 -1      1186 7.43348E-01 2.71798E+00 0.00000E+00
 -1      1187 1.03044E+00 2.63468E+00 0.00000E+00
 -1      1188 1.30742E+00 2.52504E+00 0.00000E+00
 -1      1189 1.57160E+00 2.39026E+00 0.00000E+00
 -1      1190 1.82040E+00 2.23182E+00 0.00000E+00
 -1      1191-1.98892E+00 2.42193E+00 0.00000E+00
 -1      1192-1.71315E+00 2.57515E+00 0.00000E+00
 -1      1193-1.42253E+00 2.70549E+00 0.00000E+00
 -1      1194-1.11952E+00 2.81151E+00 0.00000E+00
 -1      1195-8.06738E-01 2.89206E+00 0.00000E+00
 -1      1196-4.86889E-01 2.94626E+00 0.00000E+00
 -1      1197-1.62772E-01 2.97351E+00 0.00000E+00
 -1      1198 1.62772E-01 2.97351E+00 0.00000E+00
 -1      1199 4.86889E-01 2.94626E+00 0.00000E+00
 -1      1200 8.06738E-01 2.89206E+00 0.00000E+00
 -1      1201 1.11952E+00 2.81151E+00 0.00000E+00
 -1      1202 1.42253E+00 2.70549E+00 0.00000E+00
 -1      1203 1.71315E+00 2.57515E+00 0.00000E+00
 -1      1204 1.98892E+00 2.42193E+00 0.00000E+00
 -1      1205-2.17615E+00 2.63316E+00 0.00000E+00
 -1      1206-1.87044E+00 2.78058E+00 0.00000E+00
 -1      1207-1.55043E+00 2.90598E+00 0.00000E+00
 -1      1208-1.21851E+00 3.00799E+00 0.00000E+00
 -1      1209-8.77171E-01 3.08549E+00 0.00000E+00
 -1      1210-5.29041E-01 3.13764E+00 0.00000E+00
 -1      1211-1.76805E-01 3.16386E+00 0.00000E+00
 -1      1212 1.76805E-01 3.16386E+00 0.00000E+00
 -1      1213 5.29041E-01 3.13764E+00 0.00000E+00
 -1      1214 8.77171E-01 3.08549E+00 0.00000E+00
 -1      1215 1.21851E+00 3.00799E+00 0.00000E+00
 -1      1216 1.55043E+00 2.90598E+00 0.00000E+00
 -1      1217 1.87044E+00 2.78058E+00 0.00000E+00
 -1      1218 2.17615E+00 2.63316E+00 0.00000E+00
 -1      1219-2.38420E+00 2.86787E+00 0.00000E+00
 -1      1220-2.04521E+00 3.00884E+00 0.00000E+00
 -1      1221-1.69254E+00 3.12876E+00 0.00000E+00
 -1      1222-1.32849E+00 3.22631E+00 0.00000E+00
 -1      1223-9.55430E-01 3.30042E+00 0.00000E+00
 -1      1224-5.75877E-01 3.35028E+00 0.00000E+00
 -1      1225-1.92397E-01 3.37535E+00 0.00000E+00
 -1      1226 1.92397E-01 3.37535E+00 0.00000E+00
 -1      1227 5.75877E-01 3.35028E+00 0.00000E+00
 -1      1228 9.55430E-01 3.30042E+00 0.00000E+00
 -1      1229 1.32849E+00 3.22631E+00 0.00000E+00
 -1      1230 1.69254E+00 3.12876E+00 0.00000E+00
 -1      1231 2.04521E+00 3.00884E+00 0.00000E+00
 -1      1232 2.38420E+00 2.86787E+00 0.00000E+00
 -1      1233-2.61536E+00 3.12865E+00 0.00000E+00
 -1      1234-2.23939E+00 3.26246E+00 0.00000E+00
 -1      1235-1.85045E+00 3.37628E+00 0.00000E+00
 -1      1236-1.45068E+00 3.46887E+00 0.00000E+00
 -1      1237-1.04238E+00 3.53922E+00 0.00000E+00
 -1      1238-6.27917E-01 3.58655E+00 0.00000E+00
 -1      1239-2.09721E-01 3.61035E+00 0.00000E+00
 -1      1240 2.09721E-01 3.61035E+00 0.00000E+00
 -1      1241 6.27917E-01 3.58655E+00 0.00000E+00
 -1      1242 1.04238E+00 3.53922E+00 0.00000E+00
 -1      1243 1.45068E+00 3.46887E+00 0.00000E+00
 -1      1244 1.85045E+00 3.37628E+00 0.00000E+00
 -1      1245 2.23939E+00 3.26246E+00 0.00000E+00
 -1      1246 2.61536E+00 3.12865E+00 0.00000E+00
 -1      1247-2.87220E+00 3.41841E+00 0.00000E+00
 -1      1248-2.45515E+00 3.54426E+00 0.00000E+00
 -1      1249-2.02589E+00 3.65131E+00 0.00000E+00
 -1      1250-1.58646E+00 3.73840E+00 0.00000E+00
 -1      1251-1.13900E+00 3.80456E+00 0.00000E+00
 -1      1252-6.85738E-01 3.84907E+00 0.00000E+00
 -1      1253-2.28970E-01 3.87145E+00 0.00000E+00
 -1      1254 2.28970E-01 3.87145E+00 0.00000E+00
 -1      1255 6.85738E-01 3.84907E+00 0.00000E+00
 -1      1256 1.13900E+00 3.80456E+00 0.00000E+00
 -1      1257 1.58646E+00 3.73840E+00 0.00000E+00
 -1      1258 2.02589E+00 3.65131E+00 0.00000E+00
 -1      1259 2.45515E+00 3.54426E+00 0.00000E+00
 -1      1260 2.87220E+00 3.41841E+00 0.00000E+00
 -1      1261-3.15758E+00 3.74036E+00 0.00000E+00
 -1      1262-2.69488E+00 3.85737E+00 0.00000E+00
 -1      1263-2.22083E+00 3.95690E+00 0.00000E+00
 -1      1264-1.73733E+00 4.03786E+00 0.00000E+00
 -1      1265-1.24635E+00 4.09938E+00 0.00000E+00
 -1      1266-7.49985E-01 4.14076E+00 0.00000E+00
 -1      1267-2.50358E-01 4.16157E+00 0.00000E+00
 -1      1268 2.50358E-01 4.16157E+00 0.00000E+00
 -1      1269 7.49985E-01 4.14076E+00 0.00000E+00
 -1      1270 1.24635E+00 4.09938E+00 0.00000E+00
 -1      1271 1.73733E+00 4.03786E+00 0.00000E+00
 -1      1272 2.22083E+00 3.95690E+00 0.00000E+00
 -1      1273 2.69488E+00 3.85737E+00 0.00000E+00
 -1      1274 3.15758E+00 3.74036E+00 0.00000E+00
 -1      1275-3.47467E+00 4.09809E+00 0.00000E+00
 -1      1276-2.96125E+00 4.20527E+00 0.00000E+00
 -1      1277-2.43743E+00 4.29644E+00 0.00000E+00
 -1      1278-1.90495E+00 4.37061E+00 0.00000E+00
 -1      1279-1.36563E+00 4.42695E+00 0.00000E+00
 -1      1280-8.21369E-01 4.46486E+00 0.00000E+00
 -1      1281-2.74123E-01 4.48392E+00 0.00000E+00
 -1      1282 2.74123E-01 4.48392E+00 0.00000E+00
 -1      1283 8.21369E-01 4.46486E+00 0.00000E+00
 -1      1284 1.36563E+00 4.42695E+00 0.00000E+00
 -1      1285 1.90495E+00 4.37061E+00 0.00000E+00
 -1      1286 2.43743E+00 4.29644E+00 0.00000E+00
 -1      1287 2.96125E+00 4.20527E+00 0.00000E+00
 -1      1288 3.47467E+00 4.09809E+00 0.00000E+00
 -1      1289-3.82699E+00 4.49556E+00 0.00000E+00
 -1      1290-3.25721E+00 4.59183E+00 0.00000E+00
 -1      1291-2.67810E+00 4.67371E+00 0.00000E+00
 -1      1292-2.09120E+00 4.74032E+00 0.00000E+00
 -1      1293-1.49816E+00 4.79093E+00 0.00000E+00
 -1      1294-9.00686E-01 4.82498E+00 0.00000E+00
 -1      1295-3.00528E-01 4.84210E+00 0.00000E+00
 -1      1296 3.00528E-01 4.84210E+00 0.00000E+00
 -1      1297 9.00686E-01 4.82498E+00 0.00000E+00
 -1      1298 1.49816E+00 4.79093E+00 0.00000E+00
 -1      1299 2.09120E+00 4.74032E+00 0.00000E+00
 -1      1300 2.67810E+00 4.67371E+00 0.00000E+00
 -1      1301 3.25721E+00 4.59183E+00 0.00000E+00
 -1      1302 3.82699E+00 4.49556E+00 0.00000E+00
 -1      1303-4.21846E+00 4.93720E+00 0.00000E+00
 -1      1304-3.58606E+00 5.02133E+00 0.00000E+00
 -1      1305-2.94551E+00 5.09290E+00 0.00000E+00
 -1      1306-2.29815E+00 5.15111E+00 0.00000E+00
 -1      1307-1.64542E+00 5.19534E+00 0.00000E+00
 -1      1308-9.88815E-01 5.22510E+00 0.00000E+00
 -1      1309-3.29866E-01 5.24006E+00 0.00000E+00
 -1      1310 3.29866E-01 5.24006E+00 0.00000E+00
 -1      1311 9.88815E-01 5.22510E+00 0.00000E+00
 -1      1312 1.64542E+00 5.19534E+00 0.00000E+00
 -1      1313 2.29815E+00 5.15111E+00 0.00000E+00
 -1      1314 2.94551E+00 5.09290E+00 0.00000E+00
 -1      1315 3.58606E+00 5.02133E+00 0.00000E+00
 -1      1316 4.21846E+00 4.93720E+00 0.00000E+00
 -1      1317-4.65343E+00 5.42791E+00 0.00000E+00
 -1      1318-3.95145E+00 5.49856E+00 0.00000E+00
 -1      1319-3.24263E+00 5.55866E+00 0.00000E+00
 -1      1320-2.52809E+00 5.60755E+00 0.00000E+00
 -1      1321-1.80904E+00 5.64469E+00 0.00000E+00
 -1      1322-1.08674E+00 5.66968E+00 0.00000E+00
 -1      1323-3.62465E-01 5.68225E+00 0.00000E+00
 -1      1324 3.62465E-01 5.68225E+00 0.00000E+00
 -1      1325 1.08674E+00 5.66968E+00 0.00000E+00
 -1      1326 1.80904E+00 5.64469E+00 0.00000E+00
 -1      1327 2.52809E+00 5.60755E+00 0.00000E+00
 -1      1328 3.24263E+00 5.55866E+00 0.00000E+00
 -1      1329 3.95145E+00 5.49856E+00 0.00000E+00
 -1      1330 4.65343E+00 5.42791E+00 0.00000E+00
 -1      1331-5.13672E+00 5.97314E+00 0.00000E+00
 -1      1332-4.35744E+00 6.02882E+00 0.00000E+00
 -1      1333-3.57276E+00 6.07618E+00 0.00000E+00
 -1      1334-2.78358E+00 6.11470E+00 0.00000E+00
 -1      1335-1.99084E+00 6.14397E+00 0.00000E+00
 -1      1336-1.19554E+00 6.16367E+00 0.00000E+00
 -1      1337-3.98686E-01 6.17357E+00 0.00000E+00
 -1      1338 3.98686E-01 6.17357E+00 0.00000E+00
 -1      1339 1.19554E+00 6.16367E+00 0.00000E+00
 -1      1340 1.99084E+00 6.14397E+00 0.00000E+00
 -1      1341 2.78358E+00 6.11470E+00 0.00000E+00
 -1      1342 3.57276E+00 6.07618E+00 0.00000E+00
 -1      1343 4.35744E+00 6.02882E+00 0.00000E+00
 -1      1344 5.13672E+00 5.97314E+00 0.00000E+00
 -1      1345-5.67372E+00 6.57896E+00 0.00000E+00
 -1      1346-4.80854E+00 6.61799E+00 0.00000E+00
 -1      1347-3.93957E+00 6.65119E+00 0.00000E+00
 -1      1348-3.06745E+00 6.67820E+00 0.00000E+00
 -1      1349-2.19284E+00 6.69873E+00 0.00000E+00
 -1      1350-1.31643E+00 6.71253E+00 0.00000E+00
 -1      1351-4.38931E-01 6.71947E+00 0.00000E+00
 -1      1352 4.38931E-01 6.71947E+00 0.00000E+00
 -1      1353 1.31643E+00 6.71253E+00 0.00000E+00
 -1      1354 2.19284E+00 6.69873E+00 0.00000E+00
 -1      1355 3.06745E+00 6.67820E+00 0.00000E+00
 -1      1356 3.93957E+00 6.65119E+00 0.00000E+00
 -1      1357 4.80854E+00 6.61799E+00 0.00000E+00
 -1      1358 5.67372E+00 6.57896E+00 0.00000E+00
 -1      1359-6.27038E+00 7.25208E+00 0.00000E+00
 -1      1360-5.30976E+00 7.27263E+00 0.00000E+00
 -1      1361-4.34714E+00 7.29010E+00 0.00000E+00
 -1      1362-3.38287E+00 7.30432E+00 0.00000E+00
 -1      1363-2.41728E+00 7.31512E+00 0.00000E+00
 -1      1364-1.45075E+00 7.32239E+00 0.00000E+00
 -1      1365-4.83648E-01 7.32604E+00 0.00000E+00
 -1      1366 4.83648E-01 7.32604E+00 0.00000E+00
 -1      1367 1.45075E+00 7.32239E+00 0.00000E+00
 -1      1368 2.41728E+00 7.31512E+00 0.00000E+00
 -1      1369 3.38287E+00 7.30432E+00 0.00000E+00
 -1      1370 4.34714E+00 7.29010E+00 0.00000E+00
 -1      1371 5.30976E+00 7.27263E+00 0.00000E+00
 -1      1372 6.27038E+00 7.25208E+00 0.00000E+00
 -1      1373 2.39375E+01 3.64828E+01 0.00000E+00
 -1      1374 2.28750E+01 3.64828E+01 0.00000E+00
 -1      1375 2.18125E+01 3.64828E+01 0.00000E+00
 -1      1376 2.07500E+01 3.64828E+01 0.00000E+00
 -1      1377 1.96875E+01 3.64828E+01 0.00000E+00
 -1      1378 1.86250E+01 3.64828E+01 0.00000E+00
 -1      1379 1.75625E+01 3.64828E+01 0.00000E+00
 -1      1380 1.65000E+01 3.64828E+01 0.00000E+00
 -1      1381 1.54375E+01 3.64828E+01 0.00000E+00
 -1      1382 1.43750E+01 3.64828E+01 0.00000E+00
 -1      1383 1.33125E+01 3.64828E+01 0.00000E+00
 -1      1384 1.22500E+01 3.64828E+01 0.00000E+00
 -1      1385 1.11875E+01 3.64828E+01 0.00000E+00
 -1      1386 1.01250E+01 3.64828E+01 0.00000E+00
 -1      1387 9.06250E+00 3.64828E+01 0.00000E+00
 -1      1388 2.39375E+01 3.54655E+01 0.00000E+00
 -1      1389 2.28750E+01 3.54655E+01 0.00000E+00
 -1      1390 2.18125E+01 3.54655E+01 0.00000E+00
 -1      1391 2.07500E+01 3.54655E+01 0.00000E+00
 -1      1392 1.96875E+01 3.54655E+01 0.00000E+00
 -1      1393 1.86250E+01 3.54655E+01 0.00000E+00
 -1      1394 1.75625E+01 3.54655E+01 0.00000E+00
 -1      1395 1.65000E+01 3.54655E+01 0.00000E+00
 -1      1396 1.54375E+01 3.54655E+01 0.00000E+00
 -1      1397 1.43750E+01 3.54655E+01 0.00000E+00
 -1      1398 1.33125E+01 3.54655E+01 0.00000E+00
 -1      1399 1.22500E+01 3.54655E+01 0.00000E+00
 -1      1400 1.11875E+01 3.54655E+01 0.00000E+00
 -1      1401 1.01250E+01 3.54655E+01 0.00000E+00
 -1      1402 9.06250E+00 3.54655E+01 0.00000E+00
 -1      1403 2.39375E+01 3.44483E+01 0.00000E+00
 -1      1404 2.28750E+01 3.44483E+01 0.00000E+00
 -1      1405 2.18125E+01 3.44483E+01 0.00000E+00
 -1      1406 2.07500E+01 3.44483E+01 0.00000E+00
 -1      1407 1.96875E+01 3.44483E+01 0.00000E+00
 -1      1408 1.86250E+01 3.44483E+01 0.00000E+00
 -1      1409 1.75625E+01 3.44483E+01 0.00000E+00
 -1      1410 1.65000E+01 3.44483E+01 0.00000E+00
 -1      1411 1.54375E+01 3.44483E+01 0.00000E+00
 -1      1412 1.43750E+01 3.44483E+01 0.00000E+00
 -1      1413 1.33125E+01 3.44483E+01 0.00000E+00
 -1      1414 1.22500E+01 3.44483E+01 0.00000E+00
 -1      1415 1.11875E+01 3.44483E+01 0.00000E+00
 -1      1416 1.01250E+01 3.44483E+01 0.00000E+00
 -1      1417 9.06250E+00 3.44483E+01 0.00000E+00
 -1      1418 2.39375E+01 3.34310E+01 0.00000E+00
 -1      1419 2.28750E+01 3.34310E+01 0.00000E+00
 -1      1420 2.18125E+01 3.34310E+01 0.00000E+00
 -1      1421 2.07500E+01 3.34310E+01 0.00000E+00
 -1      1422 1.96875E+01 3.34310E+01 0.00000E+00
 -1      1423 1.86250E+01 3.34310E+01 0.00000E+00
 -1      1424 1.75625E+01 3.34310E+01 0.00000E+00
 -1      1425 1.65000E+01 3.34310E+01 0.00000E+00
 -1      1426 1.54375E+01 3.34310E+01 0.00000E+00
 -1      1427 1.43750E+01 3.34310E+01 0.00000E+00
 -1      1428 1.33125E+01 3.34310E+01 0.00000E+00
 -1      1429 1.22500E+01 3.34310E+01 0.00000E+00
 -1      1430 1.11875E+01 3.34310E+01 0.00000E+00
 -1      1431 1.01250E+01 3.34310E+01 0.00000E+00
 -1      1432 9.06250E+00 3.34310E+01 0.00000E+00
 -1      1433 2.39375E+01 3.24138E+01 0.00000E+00
 -1      1434 2.28750E+01 3.24138E+01 0.00000E+00
 -1      1435 2.18125E+01 3.24138E+01 0.00000E+00
 -1      1436 2.07500E+01 3.24138E+01 0.00000E+00
 -1      1437 1.96875E+01 3.24138E+01 0.00000E+00
 -1      1438 1.86250E+01 3.24138E+01 0.00000E+00
 -1      1439 1.75625E+01 3.24138E+01 0.00000E+00
 -1      1440 1.65000E+01 3.24138E+01 0.00000E+00
 -1      1441 1.54375E+01 3.24138E+01 0.00000E+00
 -1      1442 1.43750E+01 3.24138E+01 0.00000E+00
 -1      1443 1.33125E+01 3.24138E+01 0.00000E+00
 -1      1444 1.22500E+01 3.24138E+01 0.00000E+00
 -1      1445 1.11875E+01 3.24138E+01 0.00000E+00
 -1      1446 1.01250E+01 3.24138E+01 0.00000E+00
 -1      1447 9.06250E+00 3.24138E+01 0.00000E+00
 -1      1448 2.39375E+01 3.13966E+01 0.00000E+00
 -1      1449 2.28750E+01 3.13966E+01 0.00000E+00
 -1      1450 2.18125E+01 3.13966E+01 0.00000E+00
 -1      1451 2.07500E+01 3.13966E+01 0.00000E+00
 -1      1452 1.96875E+01 3.13966E+01 0.00000E+00
 -1      1453 1.86250E+01 3.13966E+01 0.00000E+00
 -1      1454 1.75625E+01 3.13966E+01 0.00000E+00
 -1      1455 1.65000E+01 3.13966E+01 0.00000E+00
 -1      1456 1.54375E+01 3.13966E+01 0.00000E+00
 -1      1457 1.43750E+01 3.13966E+01 0.00000E+00
 -1      1458 1.33125E+01 3.13966E+01 0.00000E+00
 -1      1459 1.22500E+01 3.13966E+01 0.00000E+00
 -1      1460 1.11875E+01 3.13966E+01 0.00000E+00
 -1      1461 1.01250E+01 3.13966E+01 0.00000E+00
 -1      1462 9.06250E+00 3.13966E+01 0.00000E+00
 -1      1463 2.39375E+01 3.03793E+01 0.00000E+00
 -1      1464 2.28750E+01 3.03793E+01 0.00000E+00
 -1      1465 2.18125E+01 3.03793E+01 0.00000E+00
 -1      1466 2.07500E+01 3.03793E+01 0.00000E+00
 -1      1467 1.96875E+01 3.03793E+01 0.00000E+00
 -1      1468 1.86250E+01 3.03793E+01 0.00000E+00
 -1      1469 1.75625E+01 3.03793E+01 0.00000E+00
 -1      1470 1.65000E+01 3.03793E+01 0.00000E+00
 -1      1471 1.54375E+01 3.03793E+01 0.00000E+00
 -1      1472 1.43750E+01 3.03793E+01 0.00000E+00
 -1      1473 1.33125E+01 3.03793E+01 0.00000E+00
 -1      1474 1.22500E+01 3.03793E+01 0.00000E+00
 -1      1475 1.11875E+01 3.03793E+01 0.00000E+00
 -1      1476 1.01250E+01 3.03793E+01 0.00000E+00
 -1      1477 9.06250E+00 3.03793E+01 0.00000E+00
 -1      1478 2.39375E+01 2.93621E+01 0.00000E+00
 -1      1479 2.28750E+01 2.93621E+01 0.00000E+00
 -1      1480 2.18125E+01 2.93621E+01 0.00000E+00
 -1      1481 2.07500E+01 2.93621E+01 0.00000E+00
 -1      1482 1.96875E+01 2.93621E+01 0.00000E+00
 -1      1483 1.86250E+01 2.93621E+01 0.00000E+00
 -1      1484 1.75625E+01 2.93621E+01 0.00000E+00
 -1      1485 1.65000E+01 2.93621E+01 0.00000E+00
 -1      1486 1.54375E+01 2.93621E+01 0.00000E+00
 -1      1487 1.43750E+01 2.93621E+01 0.00000E+00
 -1      1488 1.33125E+01 2.93621E+01 0.00000E+00
 -1      1489 1.22500E+01 2.93621E+01 0.00000E+00
 -1      1490 1.11875E+01 2.93621E+01 0.00000E+00
 -1      1491 1.01250E+01 2.93621E+01 0.00000E+00
 -1      1492 9.06250E+00 2.93621E+01 0.00000E+00
 -1      1493 2.39375E+01 2.83448E+01 0.00000E+00
 -1      1494 2.28750E+01 2.83448E+01 0.00000E+00
 -1      1495 2.18125E+01 2.83448E+01 0.00000E+00
 -1      1496 2.07500E+01 2.83448E+01 0.00000E+00
 -1      1497 1.96875E+01 2.83448E+01 0.00000E+00
 -1      1498 1.86250E+01 2.83448E+01 0.00000E+00
 -1      1499 1.75625E+01 2.83448E+01 0.00000E+00
 -1      1500 1.65000E+01 2.83448E+01 0.00000E+00
 -1      1501 1.54375E+01 2.83448E+01 0.00000E+00
 -1      1502 1.43750E+01 2.83448E+01 0.00000E+00
 -1      1503 1.33125E+01 2.83448E+01 0.00000E+00
 -1      1504 1.22500E+01 2.83448E+01 0.00000E+00
 -1      1505 1.11875E+01 2.83448E+01 0.00000E+00
 -1      1506 1.01250E+01 2.83448E+01 0.00000E+00
 -1      1507 9.06250E+00 2.83448E+01 0.00000E+00
 -1      1508 2.39375E+01 2.73276E+01 0.00000E+00
 -1      1509 2.28750E+01 2.73276E+01 0.00000E+00
 -1      1510 2.18125E+01 2.73276E+01 0.00000E+00
 -1      1511 2.07500E+01 2.73276E+01 0.00000E+00
 -1      1512 1.96875E+01 2.73276E+01 0.00000E+00
 -1      1513 1.86250E+01 2.73276E+01 0.00000E+00
 -1      1514 1.75625E+01 2.73276E+01 0.00000E+00
 -1      1515 1.65000E+01 2.73276E+01 0.00000E+00
 -1      1516 1.54375E+01 2.73276E+01 0.00000E+00
 -1      1517 1.43750E+01 2.73276E+01 0.00000E+00
 -1      1518 1.33125E+01 2.73276E+01 0.00000E+00
 -1      1519 1.22500E+01 2.73276E+01 0.00000E+00
 -1      1520 1.11875E+01 2.73276E+01 0.00000E+00
 -1      1521 1.01250E+01 2.73276E+01 0.00000E+00
 -1      1522 9.06250E+00 2.73276E+01 0.00000E+00
 -1      1523 2.39375E+01 2.63103E+01 0.00000E+00
 -1      1524 2.28750E+01 2.63103E+01 0.00000E+00
 -1      1525 2.18125E+01 2.63103E+01 0.00000E+00
 -1      1526 2.07500E+01 2.63103E+01 0.00000E+00
 -1      1527 1.96875E+01 2.63103E+01 0.00000E+00
 -1      1528 1.86250E+01 2.63103E+01 0.00000E+00
 -1      1529 1.75625E+01 2.63103E+01 0.00000E+00
 -1      1530 1.65000E+01 2.63103E+01 0.00000E+00
 -1      1531 1.54375E+01 2.63103E+01 0.00000E+00
 -1      1532 1.43750E+01 2.63103E+01 0.00000E+00
 -1      1533 1.33125E+01 2.63103E+01 0.00000E+00
 -1      1534 1.22500E+01 2.63103E+01 0.00000E+00
 -1      1535 1.11875E+01 2.63103E+01 0.00000E+00
 -1      1536 1.01250E+01 2.63103E+01 0.00000E+00
 -1      1537 9.06250E+00 2.63103E+01 0.00000E+00
 -1      1538 2.39375E+01 2.52931E+01 0.00000E+00
 -1      1539 2.28750E+01 2.52931E+01 0.00000E+00
 -1      1540 2.18125E+01 2.52931E+01 0.00000E+00
 -1      1541 2.07500E+01 2.52931E+01 0.00000E+00
 -1      1542 1.96875E+01 2.52931E+01 0.00000E+00
 -1      1543 1.86250E+01 2.52931E+01 0.00000E+00
 -1      1544 1.75625E+01 2.52931E+01 0.00000E+00
 -1      1545 1.65000E+01 2.52931E+01 0.00000E+00
 -1      1546 1.54375E+01 2.52931E+01 0.00000E+00
 -1      1547 1.43750E+01 2.52931E+01 0.00000E+00
 -1      1548 1.33125E+01 2.52931E+01 0.00000E+00
 -1      1549 1.22500E+01 2.52931E+01 0.00000E+00
 -1      1550 1.11875E+01 2.52931E+01 0.00000E+00
 -1      1551 1.01250E+01 2.52931E+01 0.00000E+00
 -1      1552 9.06250E+00 2.52931E+01 0.00000E+00
 -1      1553 2.39375E+01 2.42759E+01 0.00000E+00
 -1      1554 2.28750E+01 2.42759E+01 0.00000E+00
 -1      1555 2.18125E+01 2.42759E+01 0.00000E+00
 -1      1556 2.07500E+01 2.42759E+01 0.00000E+00
 -1      1557 1.96875E+01 2.42759E+01 0.00000E+00
 -1      1558 1.86250E+01 2.42759E+01 0.00000E+00
 -1      1559 1.75625E+01 2.42759E+01 0.00000E+00
 -1      1560 1.65000E+01 2.42759E+01 0.00000E+00
 -1      1561 1.54375E+01 2.42759E+01 0.00000E+00
 -1      1562 1.43750E+01 2.42759E+01 0.00000E+00
 -1      1563 1.33125E+01 2.42759E+01 0.00000E+00
 -1      1564 1.22500E+01 2.42759E+01 0.00000E+00
 -1      1565 1.11875E+01 2.42759E+01 0.00000E+00
 -1      1566 1.01250E+01 2.42759E+01 0.00000E+00
 -1      1567 9.06250E+00 2.42759E+01 0.00000E+00
 -1      1568 2.39375E+01 2.32586E+01 0.00000E+00
 -1      1569 2.28750E+01 2.32586E+01 0.00000E+00
 -1      1570 2.18125E+01 2.32586E+01 0.00000E+00
 -1      1571 2.07500E+01 2.32586E+01 0.00000E+00
 -1      1572 1.96875E+01 2.32586E+01 0.00000E+00
 -1      1573 1.86250E+01 2.32586E+01 0.00000E+00
 -1      1574 1.75625E+01 2.32586E+01 0.00000E+00
 -1      1575 1.65000E+01 2.32586E+01 0.00000E+00
 -1      1576 1.54375E+01 2.32586E+01 0.00000E+00
 -1      1577 1.43750E+01 2.32586E+01 0.00000E+00
 -1      1578 1.33125E+01 2.32586E+01 0.00000E+00
 -1      1579 1.22500E+01 2.32586E+01 0.00000E+00
 -1      1580 1.11875E+01 2.32586E+01 0.00000E+00
 -1      1581 1.01250E+01 2.32586E+01 0.00000E+00
 -1      1582 9.06250E+00 2.32586E+01 0.00000E+00
 -1      1583 2.39375E+01 2.22414E+01 0.00000E+00
 -1      1584 2.28750E+01 2.22414E+01 0.00000E+00
 -1      1585 2.18125E+01 2.22414E+01 0.00000E+00
 -1      1586 2.07500E+01 2.22414E+01 0.00000E+00
 -1      1587 1.96875E+01 2.22414E+01 0.00000E+00
 -1      1588 1.86250E+01 2.22414E+01 0.00000E+00
 -1      1589 1.75625E+01 2.22414E+01 0.00000E+00
 -1      1590 1.65000E+01 2.22414E+01 0.00000E+00
 -1      1591 1.54375E+01 2.22414E+01 0.00000E+00
 -1      1592 1.43750E+01 2.22414E+01 0.00000E+00
 -1      1593 1.33125E+01 2.22414E+01 0.00000E+00
 -1      1594 1.22500E+01 2.22414E+01 0.00000E+00
 -1      1595 1.11875E+01 2.22414E+01 0.00000E+00
 -1      1596 1.01250E+01 2.22414E+01 0.00000E+00
 -1      1597 9.06250E+00 2.22414E+01 0.00000E+00
 -1      1598 2.39375E+01 2.12241E+01 0.00000E+00
 -1      1599 2.28750E+01 2.12241E+01 0.00000E+00
 -1      1600 2.18125E+01 2.12241E+01 0.00000E+00
 -1      1601 2.07500E+01 2.12241E+01 0.00000E+00
 -1      1602 1.96875E+01 2.12241E+01 0.00000E+00
 -1      1603 1.86250E+01 2.12241E+01 0.00000E+00
 -1      1604 1.75625E+01 2.12241E+01 0.00000E+00
 -1      1605 1.65000E+01 2.12241E+01 0.00000E+00
 -1      1606 1.54375E+01 2.12241E+01 0.00000E+00
 -1      1607 1.43750E+01 2.12241E+01 0.00000E+00
 -1      1608 1.33125E+01 2.12241E+01 0.00000E+00
 -1      1609 1.22500E+01 2.12241E+01 0.00000E+00
 -1      1610 1.11875E+01 2.12241E+01 0.00000E+00
 -1      1611 1.01250E+01 2.12241E+01 0.00000E+00
 -1      1612 9.06250E+00 2.12241E+01 0.00000E+00
 -1      1613 2.39375E+01 2.02069E+01 0.00000E+00
 -1      1614 2.28750E+01 2.02069E+01 0.00000E+00
 -1      1615 2.18125E+01 2.02069E+01 0.00000E+00
 -1      1616 2.07500E+01 2.02069E+01 0.00000E+00
 -1      1617 1.96875E+01 2.02069E+01 0.00000E+00
 -1      1618 1.86250E+01 2.02069E+01 0.00000E+00
 -1      1619 1.75625E+01 2.02069E+01 0.00000E+00
 -1      1620 1.65000E+01 2.02069E+01 0.00000E+00
 -1      1621 1.54375E+01 2.02069E+01 0.00000E+00
 -1      1622 1.43750E+01 2.02069E+01 0.00000E+00
 -1      1623 1.33125E+01 2.02069E+01 0.00000E+00
 -1      1624 1.22500E+01 2.02069E+01 0.00000E+00
 -1      1625 1.11875E+01 2.02069E+01 0.00000E+00
 -1      1626 1.01250E+01 2.02069E+01 0.00000E+00
 -1      1627 9.06250E+00 2.02069E+01 0.00000E+00
 -1      1628 2.39375E+01 1.91897E+01 0.00000E+00
 -1      1629 2.28750E+01 1.91897E+01 0.00000E+00
 -1      1630 2.18125E+01 1.91897E+01 0.00000E+00
 -1      1631 2.07500E+01 1.91897E+01 0.00000E+00
 -1      1632 1.96875E+01 1.91897E+01 0.00000E+00
 -1      1633 1.86250E+01 1.91897E+01 0.00000E+00
 -1      1634 1.75625E+01 1.91897E+01 0.00000E+00
 -1      1635 1.65000E+01 1.91897E+01 0.00000E+00
 -1      1636 1.54375E+01 1.91897E+01 0.00000E+00
 -1      1637 1.43750E+01 1.91897E+01 0.00000E+00
 -1      1638 1.33125E+01 1.91897E+01 0.00000E+00
 -1      1639 1.22500E+01 1.91897E+01 0.00000E+00
 -1      1640 1.11875E+01 1.91897E+01 0.00000E+00
 -1      1641 1.01250E+01 1.91897E+01 0.00000E+00
 -1      1642 9.06250E+00 1.91897E+01 0.00000E+00
 -1      1643 2.39375E+01 1.81724E+01 0.00000E+00
 -1      1644 2.28750E+01 1.81724E+01 0.00000E+00
 -1      1645 2.18125E+01 1.81724E+01 0.00000E+00
 -1      1646 2.07500E+01 1.81724E+01 0.00000E+00
 -1      1647 1.96875E+01 1.81724E+01 0.00000E+00
 -1      1648 1.86250E+01 1.81724E+01 0.00000E+00
 -1      1649 1.75625E+01 1.81724E+01 0.00000E+00
 -1      1650 1.65000E+01 1.81724E+01 0.00000E+00
 -1      1651 1.54375E+01 1.81724E+01 0.00000E+00
 -1      1652 1.43750E+01 1.81724E+01 0.00000E+00
 -1      1653 1.33125E+01 1.81724E+01 0.00000E+00
 -1      1654 1.22500E+01 1.81724E+01 0.00000E+00
 -1      1655 1.11875E+01 1.81724E+01 0.00000E+00
 -1      1656 1.01250E+01 1.81724E+01 0.00000E+00
 -1      1657 9.06250E+00 1.81724E+01 0.00000E+00
 -1      1658 2.39375E+01 1.71552E+01 0.00000E+00
 -1      1659 2.28750E+01 1.71552E+01 0.00000E+00
 -1      1660 2.18125E+01 1.71552E+01 0.00000E+00
 -1      1661 2.07500E+01 1.71552E+01 0.00000E+00
 -1      1662 1.96875E+01 1.71552E+01 0.00000E+00
 -1      1663 1.86250E+01 1.71552E+01 0.00000E+00
 -1      1664 1.75625E+01 1.71552E+01 0.00000E+00
 -1      1665 1.65000E+01 1.71552E+01 0.00000E+00
 -1      1666 1.54375E+01 1.71552E+01 0.00000E+00
 -1      1667 1.43750E+01 1.71552E+01 0.00000E+00
 -1      1668 1.33125E+01 1.71552E+01 0.00000E+00
 -1      1669 1.22500E+01 1.71552E+01 0.00000E+00
 -1      1670 1.11875E+01 1.71552E+01 0.00000E+00
 -1      1671 1.01250E+01 1.71552E+01 0.00000E+00
 -1      1672 9.06250E+00 1.71552E+01 0.00000E+00
 -1      1673 2.39375E+01 1.61379E+01 0.00000E+00
 -1      1674 2.28750E+01 1.61379E+01 0.00000E+00
 -1      1675 2.18125E+01 1.61379E+01 0.00000E+00
 -1      1676 2.07500E+01 1.61379E+01 0.00000E+00
 -1      1677 1.96875E+01 1.61379E+01 0.00000E+00
 -1      1678 1.86250E+01 1.61379E+01 0.00000E+00
 -1      1679 1.75625E+01 1.61379E+01 0.00000E+00
 -1      1680 1.65000E+01 1.61379E+01 0.00000E+00
 -1      1681 1.54375E+01 1.61379E+01 0.00000E+00
 -1      1682 1.43750E+01 1.61379E+01 0.00000E+00
 -1      1683 1.33125E+01 1.61379E+01 0.00000E+00
 -1      1684 1.22500E+01 1.61379E+01 0.00000E+00
 -1      1685 1.11875E+01 1.61379E+01 0.00000E+00
 -1      1686 1.01250E+01 1.61379E+01 0.00000E+00
 -1      1687 9.06250E+00 1.61379E+01 0.00000E+00
 -1      1688 2.39375E+01 1.51207E+01 0.00000E+00
 -1      1689 2.28750E+01 1.51207E+01 0.00000E+00
 -1      1690 2.18125E+01 1.51207E+01 0.00000E+00
 -1      1691 2.07500E+01 1.51207E+01 0.00000E+00
 -1      1692 1.96875E+01 1.51207E+01 0.00000E+00
 -1      1693 1.86250E+01 1.51207E+01 0.00000E+00
 -1      1694 1.75625E+01 1.51207E+01 0.00000E+00
 -1      1695 1.65000E+01 1.51207E+01 0.00000E+00
 -1      1696 1.54375E+01 1.51207E+01 0.00000E+00
 -1      1697 1.43750E+01 1.51207E+01 0.00000E+00
 -1      1698 1.33125E+01 1.51207E+01 0.00000E+00
 -1      1699 1.22500E+01 1.51207E+01 0.00000E+00
 -1      1700 1.11875E+01 1.51207E+01 0.00000E+00
 -1      1701 1.01250E+01 1.51207E+01 0.00000E+00
 -1      1702 9.06250E+00 1.51207E+01 0.00000E+00
 -1      1703 2.39375E+01 1.41034E+01 0.00000E+00
 -1      1704 2.28750E+01 1.41034E+01 0.00000E+00
 -1      1705 2.18125E+01 1.41034E+01 0.00000E+00
 -1      1706 2.07500E+01 1.41034E+01 0.00000E+00
 -1      1707 1.96875E+01 1.41034E+01 0.00000E+00
 -1      1708 1.86250E+01 1.41034E+01 0.00000E+00
 -1      1709 1.75625E+01 1.41034E+01 0.00000E+00
 -1      1710 1.65000E+01 1.41034E+01 0.00000E+00
 -1      1711 1.54375E+01 1.41034E+01 0.00000E+00
 -1      1712 1.43750E+01 1.41034E+01 0.00000E+00
 -1      1713 1.33125E+01 1.41034E+01 0.00000E+00
 -1      1714 1.22500E+01 1.41034E+01 0.00000E+00
 -1      1715 1.11875E+01 1.41034E+01 0.00000E+00
 -1      1716 1.01250E+01 1.41034E+01 0.00000E+00
 -1      1717 9.06250E+00 1.41034E+01 0.00000E+00
 -1      1718 2.39375E+01 1.30862E+01 0.00000E+00
 -1      1719 2.28750E+01 1.30862E+01 0.00000E+00
 -1      1720 2.18125E+01 1.30862E+01 0.00000E+00
 -1      1721 2.07500E+01 1.30862E+01 0.00000E+00
 -1      1722 1.96875E+01 1.30862E+01 0.00000E+00
 -1      1723 1.86250E+01 1.30862E+01 0.00000E+00
 -1      1724 1.75625E+01 1.30862E+01 0.00000E+00
 -1      1725 1.65000E+01 1.30862E+01 0.00000E+00
 -1      1726 1.54375E+01 1.30862E+01 0.00000E+00
 -1      1727 1.43750E+01 1.30862E+01 0.00000E+00
 -1      1728 1.33125E+01 1.30862E+01 0.00000E+00
 -1      1729 1.22500E+01 1.30862E+01 0.00000E+00
 -1      1730 1.11875E+01 1.30862E+01 0.00000E+00
 -1      1731 1.01250E+01 1.30862E+01 0.00000E+00
 -1      1732 9.06250E+00 1.30862E+01 0.00000E+00
 -1      1733 2.39375E+01 1.20690E+01 0.00000E+00
 -1      1734 2.28750E+01 1.20690E+01 0.00000E+00
 -1      1735 2.18125E+01 1.20690E+01 0.00000E+00
 -1      1736 2.07500E+01 1.20690E+01 0.00000E+00
 -1      1737 1.96875E+01 1.20690E+01 0.00000E+00
 -1      1738 1.86250E+01 1.20690E+01 0.00000E+00
 -1      1739 1.75625E+01 1.20690E+01 0.00000E+00
 -1      1740 1.65000E+01 1.20690E+01 0.00000E+00
 -1      1741 1.54375E+01 1.20690E+01 0.00000E+00
 -1      1742 1.43750E+01 1.20690E+01 0.00000E+00
 -1      1743 1.33125E+01 1.20690E+01 0.00000E+00
 -1      1744 1.22500E+01 1.20690E+01 0.00000E+00
 -1      1745 1.11875E+01 1.20690E+01 0.00000E+00
 -1      1746 1.01250E+01 1.20690E+01 0.00000E+00
 -1      1747 9.06250E+00 1.20690E+01 0.00000E+00
 -1      1748 2.39375E+01 1.10517E+01 0.00000E+00
 -1      1749 2.28750E+01 1.10517E+01 0.00000E+00
 -1      1750 2.18125E+01 1.10517E+01 0.00000E+00
 -1      1751 2.07500E+01 1.10517E+01 0.00000E+00
 -1      1752 1.96875E+01 1.10517E+01 0.00000E+00
 -1      1753 1.86250E+01 1.10517E+01 0.00000E+00
 -1      1754 1.75625E+01 1.10517E+01 0.00000E+00
 -1      1755 1.65000E+01 1.10517E+01 0.00000E+00
 -1      1756 1.54375E+01 1.10517E+01 0.00000E+00
 -1      1757 1.43750E+01 1.10517E+01 0.00000E+00
 -1      1758 1.33125E+01 1.10517E+01 0.00000E+00
 -1      1759 1.22500E+01 1.10517E+01 0.00000E+00
 -1      1760 1.11875E+01 1.10517E+01 0.00000E+00
 -1      1761 1.01250E+01 1.10517E+01 0.00000E+00
 -1      1762 9.06250E+00 1.10517E+01 0.00000E+00
 -1      1763 2.39375E+01 1.00345E+01 0.00000E+00
 -1      1764 2.28750E+01 1.00345E+01 0.00000E+00
 -1      1765 2.18125E+01 1.00345E+01 0.00000E+00
 -1      1766 2.07500E+01 1.00345E+01 0.00000E+00
 -1      1767 1.96875E+01 1.00345E+01 0.00000E+00
 -1      1768 1.86250E+01 1.00345E+01 0.00000E+00
 -1      1769 1.75625E+01 1.00345E+01 0.00000E+00
 -1      1770 1.65000E+01 1.00345E+01 0.00000E+00
 -1      1771 1.54375E+01 1.00345E+01 0.00000E+00
 -1      1772 1.43750E+01 1.00345E+01 0.00000E+00
 -1      1773 1.33125E+01 1.00345E+01 0.00000E+00
 -1      1774 1.22500E+01 1.00345E+01 0.00000E+00
 -1      1775 1.11875E+01 1.00345E+01 0.00000E+00
 -1      1776 1.01250E+01 1.00345E+01 0.00000E+00
 -1      1777 9.06250E+00 1.00345E+01 0.00000E+00
 -1      1778 2.39375E+01 9.01724E+00 0.00000E+00
 -1      1779 2.28750E+01 9.01724E+00 0.00000E+00
 -1      1780 2.18125E+01 9.01724E+00 0.00000E+00
 -1      1781 2.07500E+01 9.01724E+00 0.00000E+00
 -1      1782 1.96875E+01 9.01724E+00 0.00000E+00
 -1      1783 1.86250E+01 9.01724E+00 0.00000E+00
 -1      1784 1.75625E+01 9.01724E+00 0.00000E+00
 -1      1785 1.65000E+01 9.01724E+00 0.00000E+00
 -1      1786 1.54375E+01 9.01724E+00 0.00000E+00
 -1      1787 1.43750E+01 9.01724E+00 0.00000E+00
 -1      1788 1.33125E+01 9.01724E+00 0.00000E+00
 -1      1789 1.22500E+01 9.01724E+00 0.00000E+00
 -1      1790 1.11875E+01 9.01724E+00 0.00000E+00
 -1      1791 1.01250E+01 9.01724E+00 0.00000E+00
 -1      1792 9.06250E+00 9.01724E+00 0.00000E+00
 -1      1793 2.39375E+01 6.93333E+00 0.00000E+00
 -1      1794 2.28750E+01 6.93333E+00 0.00000E+00
 -1      1795 2.18125E+01 6.93333E+00 0.00000E+00
 -1      1796 2.07500E+01 6.93333E+00 0.00000E+00
 -1      1797 1.96875E+01 6.93333E+00 0.00000E+00
 -1      1798 1.86250E+01 6.93333E+00 0.00000E+00
 -1      1799 1.75625E+01 6.93333E+00 0.00000E+00
 -1      1800 1.65000E+01 6.93333E+00 0.00000E+00
 -1      1801 1.54375E+01 6.93333E+00 0.00000E+00
 -1      1802 1.43750E+01 6.93333E+00 0.00000E+00
 -1      1803 1.33125E+01 6.93333E+00 0.00000E+00
 -1      1804 1.22500E+01 6.93333E+00 0.00000E+00
 -1      1805 1.11875E+01 6.93333E+00 0.00000E+00
 -1      1806 1.01250E+01 6.93333E+00 0.00000E+00
 -1      1807 9.06250E+00 6.93333E+00 0.00000E+00
 -1      1808 2.39375E+01 5.86667E+00 0.00000E+00
 -1      1809 2.28750E+01 5.86667E+00 0.00000E+00
 -1      1810 2.18125E+01 5.86667E+00 0.00000E+00
 -1      1811 2.07500E+01 5.86667E+00 0.00000E+00
 -1      1812 1.96875E+01 5.86667E+00 0.00000E+00
 -1      1813 1.86250E+01 5.86667E+00 0.00000E+00
 -1      1814 1.75625E+01 5.86667E+00 0.00000E+00
 -1      1815 1.65000E+01 5.86667E+00 0.00000E+00
 -1      1816 1.54375E+01 5.86667E+00 0.00000E+00
 -1      1817 1.43750E+01 5.86667E+00 0.00000E+00
 -1      1818 1.33125E+01 5.86667E+00 0.00000E+00
 -1      1819 1.22500E+01 5.86667E+00 0.00000E+00
 -1      1820 1.11875E+01 5.86667E+00 0.00000E+00
 -1      1821 1.01250E+01 5.86667E+00 0.00000E+00
 -1      1822 9.06250E+00 5.86667E+00 0.00000E+00
 -1      1823 2.39375E+01 4.80000E+00 0.00000E+00
 -1      1824 2.28750E+01 4.80000E+00 0.00000E+00
 -1      1825 2.18125E+01 4.80000E+00 0.00000E+00
 -1      1826 2.07500E+01 4.80000E+00 0.00000E+00
 -1      1827 1.96875E+01 4.80000E+00 0.00000E+00
 -1      1828 1.86250E+01 4.80000E+00 0.00000E+00
 -1      1829 1.75625E+01 4.80000E+00 0.00000E+00
 -1      1830 1.65000E+01 4.80000E+00 0.00000E+00
 -1      1831 1.54375E+01 4.80000E+00 0.00000E+00
 -1      1832 1.43750E+01 4.80000E+00 0.00000E+00
 -1      1833 1.33125E+01 4.80000E+00 0.00000E+00
 -1      1834 1.22500E+01 4.80000E+00 0.00000E+00
 -1      1835 1.11875E+01 4.80000E+00 0.00000E+00
 -1      1836 1.01250E+01 4.80000E+00 0.00000E+00
 -1      1837 9.06250E+00 4.80000E+00 0.00000E+00
 -1      1838 2.39375E+01 3.73333E+00 0.00000E+00
 -1      1839 2.28750E+01 3.73333E+00 0.00000E+00
 -1      1840 2.18125E+01 3.73333E+00 0.00000E+00
 -1      1841 2.07500E+01 3.73333E+00 0.00000E+00
 -1      1842 1.96875E+01 3.73333E+00 0.00000E+00
 -1      1843 1.86250E+01 3.73333E+00 0.00000E+00
 -1      1844 1.75625E+01 3.73333E+00 0.00000E+00
 -1      1845 1.65000E+01 3.73333E+00 0.00000E+00
 -1      1846 1.54375E+01 3.73333E+00 0.00000E+00
 -1      1847 1.43750E+01 3.73333E+00 0.00000E+00
 -1      1848 1.33125E+01 3.73333E+00 0.00000E+00
 -1      1849 1.22500E+01 3.73333E+00 0.00000E+00
 -1      1850 1.11875E+01 3.73333E+00 0.00000E+00
 -1      1851 1.01250E+01 3.73333E+00 0.00000E+00
 -1      1852 9.06250E+00 3.73333E+00 0.00000E+00
 -1      1853 2.39375E+01 2.66667E+00 0.00000E+00
 -1      1854 2.28750E+01 2.66667E+00 0.00000E+00
 -1      1855 2.18125E+01 2.66667E+00 0.00000E+00
 -1      1856 2.07500E+01 2.66667E+00 0.00000E+00
 -1      1857 1.96875E+01 2.66667E+00 0.00000E+00
 -1      1858 1.86250E+01 2.66667E+00 0.00000E+00
 -1      1859 1.75625E+01 2.66667E+00 0.00000E+00
 -1      1860 1.65000E+01 2.66667E+00 0.00000E+00
 -1      1861 1.54375E+01 2.66667E+00 0.00000E+00
 -1      1862 1.43750E+01 2.66667E+00 0.00000E+00
 -1      1863 1.33125E+01 2.66667E+00 0.00000E+00
 -1      1864 1.22500E+01 2.66667E+00 0.00000E+00
 -1      1865 1.11875E+01 2.66667E+00 0.00000E+00
 -1      1866 1.01250E+01 2.66667E+00 0.00000E+00
 -1      1867 9.06250E+00 2.66667E+00 0.00000E+00
 -1      1868 2.39375E+01 1.60000E+00 0.00000E+00
 -1      1869 2.28750E+01 1.60000E+00 0.00000E+00
 -1      1870 2.18125E+01 1.60000E+00 0.00000E+00
 -1      1871 2.07500E+01 1.60000E+00 0.00000E+00
 -1      1872 1.96875E+01 1.60000E+00 0.00000E+00
 -1      1873 1.86250E+01 1.60000E+00 0.00000E+00
 -1      1874 1.75625E+01 1.60000E+00 0.00000E+00
 -1      1875 1.65000E+01 1.60000E+00 0.00000E+00
 -1      1876 1.54375E+01 1.60000E+00 0.00000E+00
 -1      1877 1.43750E+01 1.60000E+00 0.00000E+00
 -1      1878 1.33125E+01 1.60000E+00 0.00000E+00
 -1      1879 1.22500E+01 1.60000E+00 0.00000E+00
 -1      1880 1.11875E+01 1.60000E+00 0.00000E+00
 -1      1881 1.01250E+01 1.60000E+00 0.00000E+00
 -1      1882 9.06250E+00 1.60000E+00 0.00000E+00
 -1      1883 2.39375E+01 5.33333E-01 0.00000E+00
 -1      1884 2.28750E+01 5.33333E-01 0.00000E+00
 -1      1885 2.18125E+01 5.33333E-01 0.00000E+00
 -1      1886 2.07500E+01 5.33333E-01 0.00000E+00
 -1      1887 1.96875E+01 5.33333E-01 0.00000E+00
 -1      1888 1.86250E+01 5.33333E-01 0.00000E+00
 -1      1889 1.75625E+01 5.33333E-01 0.00000E+00
 -1      1890 1.65000E+01 5.33333E-01 0.00000E+00
 -1      1891 1.54375E+01 5.33333E-01 0.00000E+00
 -1      1892 1.43750E+01 5.33333E-01 0.00000E+00
 -1      1893 1.33125E+01 5.33333E-01 0.00000E+00
 -1      1894 1.22500E+01 5.33333E-01 0.00000E+00
 -1      1895 1.11875E+01 5.33333E-01 0.00000E+00
 -1      1896 1.01250E+01 5.33333E-01 0.00000E+00
 -1      1897 9.06250E+00 5.33333E-01 0.00000E+00
 -1      1898 2.39375E+01-5.33333E-01 0.00000E+00
 -1      1899 2.28750E+01-5.33333E-01 0.00000E+00
 -1      1900 2.18125E+01-5.33333E-01 0.00000E+00
 -1      1901 2.07500E+01-5.33333E-01 0.00000E+00
 -1      1902 1.96875E+01-5.33333E-01 0.00000E+00
 -1      1903 1.86250E+01-5.33333E-01 0.00000E+00
 -1      1904 1.75625E+01-5.33333E-01 0.00000E+00
 -1      1905 1.65000E+01-5.33333E-01 0.00000E+00
 -1      1906 1.54375E+01-5.33333E-01 0.00000E+00
 -1      1907 1.43750E+01-5.33333E-01 0.00000E+00
 -1      1908 1.33125E+01-5.33333E-01 0.00000E+00
 -1      1909 1.22500E+01-5.33333E-01 0.00000E+00
 -1      1910 1.11875E+01-5.33333E-01 0.00000E+00
 -1      1911 1.01250E+01-5.33333E-01 0.00000E+00
 -1      1912 9.06250E+00-5.33333E-01 0.00000E+00
 -1      1913 2.39375E+01-1.60000E+00 0.00000E+00
 -1      1914 2.28750E+01-1.60000E+00 0.00000E+00
 -1      1915 2.18125E+01-1.60000E+00 0.00000E+00
 -1      1916 2.07500E+01-1.60000E+00 0.00000E+00
 -1      1917 1.96875E+01-1.60000E+00 0.00000E+00
 -1      1918 1.86250E+01-1.60000E+00 0.00000E+00
 -1      1919 1.75625E+01-1.60000E+00 0.00000E+00
 -1      1920 1.65000E+01-1.60000E+00 0.00000E+00
 -1      1921 1.54375E+01-1.60000E+00 0.00000E+00
 -1      1922 1.43750E+01-1.60000E+00 0.00000E+00
 -1      1923 1.33125E+01-1.60000E+00 0.00000E+00
 -1      1924 1.22500E+01-1.60000E+00 0.00000E+00
 -1      1925 1.11875E+01-1.60000E+00 0.00000E+00
 -1      1926 1.01250E+01-1.60000E+00 0.00000E+00
 -1      1927 9.06250E+00-1.60000E+00 0.00000E+00
 -1      1928 2.39375E+01-2.66667E+00 0.00000E+00
 -1      1929 2.28750E+01-2.66667E+00 0.00000E+00
 -1      1930 2.18125E+01-2.66667E+00 0.00000E+00
 -1      1931 2.07500E+01-2.66667E+00 0.00000E+00
 -1      1932 1.96875E+01-2.66667E+00 0.00000E+00
 -1      1933 1.86250E+01-2.66667E+00 0.00000E+00
 -1      1934 1.75625E+01-2.66667E+00 0.00000E+00
 -1      1935 1.65000E+01-2.66667E+00 0.00000E+00
 -1      1936 1.54375E+01-2.66667E+00 0.00000E+00
 -1      1937 1.43750E+01-2.66667E+00 0.00000E+00
 -1      1938 1.33125E+01-2.66667E+00 0.00000E+00
 -1      1939 1.22500E+01-2.66667E+00 0.00000E+00
 -1      1940 1.11875E+01-2.66667E+00 0.00000E+00
 -1      1941 1.01250E+01-2.66667E+00 0.00000E+00
 -1      1942 9.06250E+00-2.66667E+00 0.00000E+00
 -1      1943 2.39375E+01-3.73333E+00 0.00000E+00
 -1      1944 2.28750E+01-3.73333E+00 0.00000E+00
 -1      1945 2.18125E+01-3.73333E+00 0.00000E+00
 -1      1946 2.07500E+01-3.73333E+00 0.00000E+00
 -1      1947 1.96875E+01-3.73333E+00 0.00000E+00
 -1      1948 1.86250E+01-3.73333E+00 0.00000E+00
 -1      1949 1.75625E+01-3.73333E+00 0.00000E+00
 -1      1950 1.65000E+01-3.73333E+00 0.00000E+00
 -1      1951 1.54375E+01-3.73333E+00 0.00000E+00
 -1      1952 1.43750E+01-3.73333E+00 0.00000E+00
 -1      1953 1.33125E+01-3.73333E+00 0.00000E+00
 -1      1954 1.22500E+01-3.73333E+00 0.00000E+00
 -1      1955 1.11875E+01-3.73333E+00 0.00000E+00
 -1      1956 1.01250E+01-3.73333E+00 0.00000E+00
 -1      1957 9.06250E+00-3.73333E+00 0.00000E+00
 -1      1958 2.39375E+01-4.80000E+00 0.00000E+00
 -1      1959 2.28750E+01-4.80000E+00 0.00000E+00
 -1      1960 2.18125E+01-4.80000E+00 0.00000E+00
 -1      1961 2.07500E+01-4.80000E+00 0.00000E+00
 -1      1962 1.96875E+01-4.80000E+00 0.00000E+00
 -1      1963 1.86250E+01-4.80000E+00 0.00000E+00
 -1      1964 1.75625E+01-4.80000E+00 0.00000E+00
 -1      1965 1.65000E+01-4.80000E+00 0.00000E+00
 -1      1966 1.54375E+01-4.80000E+00 0.00000E+00
 -1      1967 1.43750E+01-4.80000E+00 0.00000E+00
 -1      1968 1.33125E+01-4.80000E+00 0.00000E+00
 -1      1969 1.22500E+01-4.80000E+00 0.00000E+00
 -1      1970 1.11875E+01-4.80000E+00 0.00000E+00
 -1      1971 1.01250E+01-4.80000E+00 0.00000E+00
 -1      1972 9.06250E+00-4.80000E+00 0.00000E+00
 -1      1973 2.39375E+01-5.86667E+00 0.00000E+00
 -1      1974 2.28750E+01-5.86667E+00 0.00000E+00
 -1      1975 2.18125E+01-5.86667E+00 0.00000E+00
 -1      1976 2.07500E+01-5.86667E+00 0.00000E+00
 -1      1977 1.96875E+01-5.86667E+00 0.00000E+00
 -1      1978 1.86250E+01-5.86667E+00 0.00000E+00
 -1      1979 1.75625E+01-5.86667E+00 0.00000E+00
 -1      1980 1.65000E+01-5.86667E+00 0.00000E+00
 -1      1981 1.54375E+01-5.86667E+00 0.00000E+00
 -1      1982 1.43750E+01-5.86667E+00 0.00000E+00
 -1      1983 1.33125E+01-5.86667E+00 0.00000E+00
 -1      1984 1.22500E+01-5.86667E+00 0.00000E+00
 -1      1985 1.11875E+01-5.86667E+00 0.00000E+00
 -1      1986 1.01250E+01-5.86667E+00 0.00000E+00
 -1      1987 9.06250E+00-5.86667E+00 0.00000E+00
 -1      1988 2.39375E+01-6.93333E+00 0.00000E+00
 -1      1989 2.28750E+01-6.93333E+00 0.00000E+00
 -1      1990 2.18125E+01-6.93333E+00 0.00000E+00
 -1      1991 2.07500E+01-6.93333E+00 0.00000E+00
 -1      1992 1.96875E+01-6.93333E+00 0.00000E+00
 -1      1993 1.86250E+01-6.93333E+00 0.00000E+00
 -1      1994 1.75625E+01-6.93333E+00 0.00000E+00
 -1      1995 1.65000E+01-6.93333E+00 0.00000E+00
 -1      1996 1.54375E+01-6.93333E+00 0.00000E+00
 -1      1997 1.43750E+01-6.93333E+00 0.00000E+00
 -1      1998 1.33125E+01-6.93333E+00 0.00000E+00
 -1      1999 1.22500E+01-6.93333E+00 0.00000E+00
 -1      2000 1.11875E+01-6.93333E+00 0.00000E+00
 -1      2001 1.01250E+01-6.93333E+00 0.00000E+00
 -1      2002 9.06250E+00-6.93333E+00 0.00000E+00
 -1      2003 2.39375E+01-9.01724E+00 0.00000E+00
 -1      2004 2.28750E+01-9.01724E+00 0.00000E+00
 -1      2005 2.18125E+01-9.01724E+00 0.00000E+00
 -1      2006 2.07500E+01-9.01724E+00 0.00000E+00
 -1      2007 1.96875E+01-9.01724E+00 0.00000E+00
 -1      2008 1.86250E+01-9.01724E+00 0.00000E+00
 -1      2009 1.75625E+01-9.01724E+00 0.00000E+00
 -1      2010 1.65000E+01-9.01724E+00 0.00000E+00
 -1      2011 1.54375E+01-9.01724E+00 0.00000E+00
 -1      2012 1.43750E+01-9.01724E+00 0.00000E+00
 -1      2013 1.33125E+01-9.01724E+00 0.00000E+00
 -1      2014 1.22500E+01-9.01724E+00 0.00000E+00
 -1      2015 1.11875E+01-9.01724E+00 0.00000E+00
 -1      2016 1.01250E+01-9.01724E+00 0.00000E+00
 -1      2017 9.06250E+00-9.01724E+00 0.00000E+00
 -1      2018 2.39375E+01-1.00345E+01 0.00000E+00
 -1      2019 2.28750E+01-1.00345E+01 0.00000E+00
 -1      2020 2.18125E+01-1.00345E+01 0.00000E+00
 -1      2021 2.07500E+01-1.00345E+01 0.00000E+00
 -1      2022 1.96875E+01-1.00345E+01 0.00000E+00
 -1      2023 1.86250E+01-1.00345E+01 0.00000E+00
 -1      2024 1.75625E+01-1.00345E+01 0.00000E+00
 -1      2025 1.65000E+01-1.00345E+01 0.00000E+00
 -1      2026 1.54375E+01-1.00345E+01 0.00000E+00
 -1      2027 1.43750E+01-1.00345E+01 0.00000E+00
 -1      2028 1.33125E+01-1.00345E+01 0.00000E+00
 -1      2029 1.22500E+01-1.00345E+01 0.00000E+00
 -1      2030 1.11875E+01-1.00345E+01 0.00000E+00
 -1      2031 1.01250E+01-1.00345E+01 0.00000E+00
 -1      2032 9.06250E+00-1.00345E+01 0.00000E+00
 -1      2033 2.39375E+01-1.10517E+01 0.00000E+00
 -1      2034 2.28750E+01-1.10517E+01 0.00000E+00
 -1      2035 2.18125E+01-1.10517E+01 0.00000E+00
 -1      2036 2.07500E+01-1.10517E+01 0.00000E+00
 -1      2037 1.96875E+01-1.10517E+01 0.00000E+00
 -1      2038 1.86250E+01-1.10517E+01 0.00000E+00
 -1      2039 1.75625E+01-1.10517E+01 0.00000E+00
 -1      2040 1.65000E+01-1.10517E+01 0.00000E+00
 -1      2041 1.54375E+01-1.10517E+01 0.00000E+00
 -1      2042 1.43750E+01-1.10517E+01 0.00000E+00
 -1      2043 1.33125E+01-1.10517E+01 0.00000E+00
 -1      2044 1.22500E+01-1.10517E+01 0.00000E+00
 -1      2045 1.11875E+01-1.10517E+01 0.00000E+00
 -1      2046 1.01250E+01-1.10517E+01 0.00000E+00
 -1      2047 9.06250E+00-1.10517E+01 0.00000E+00
 -1      2048 2.39375E+01-1.20690E+01 0.00000E+00
 -1      2049 2.28750E+01-1.20690E+01 0.00000E+00
 -1      2050 2.18125E+01-1.20690E+01 0.00000E+00
 -1      2051 2.07500E+01-1.20690E+01 0.00000E+00
 -1      2052 1.96875E+01-1.20690E+01 0.00000E+00
 -1      2053 1.86250E+01-1.20690E+01 0.00000E+00
 -1      2054 1.75625E+01-1.20690E+01 0.00000E+00
 -1      2055 1.65000E+01-1.20690E+01 0.00000E+00
 -1      2056 1.54375E+01-1.20690E+01 0.00000E+00
 -1      2057 1.43750E+01-1.20690E+01 0.00000E+00
 -1      2058 1.33125E+01-1.20690E+01 0.00000E+00
 -1      2059 1.22500E+01-1.20690E+01 0.00000E+00
 -1      2060 1.11875E+01-1.20690E+01 0.00000E+00
 -1      2061 1.01250E+01-1.20690E+01 0.00000E+00
 -1      2062 9.06250E+00-1.20690E+01 0.00000E+00
 -1      2063 2.39375E+01-1.30862E+01 0.00000E+00
 -1      2064 2.28750E+01-1.30862E+01 0.00000E+00
 -1      2065 2.18125E+01-1.30862E+01 0.00000E+00
 -1      2066 2.07500E+01-1.30862E+01 0.00000E+00
 -1      2067 1.96875E+01-1.30862E+01 0.00000E+00
 -1      2068 1.86250E+01-1.30862E+01 0.00000E+00
 -1      2069 1.75625E+01-1.30862E+01 0.00000E+00
 -1      2070 1.65000E+01-1.30862E+01 0.00000E+00
 -1      2071 1.54375E+01-1.30862E+01 0.00000E+00
 -1      2072 1.43750E+01-1.30862E+01 0.00000E+00
 -1      2073 1.33125E+01-1.30862E+01 0.00000E+00
 -1      2074 1.22500E+01-1.30862E+01 0.00000E+00
 -1      2075 1.11875E+01-1.30862E+01 0.00000E+00
 -1      2076 1.01250E+01-1.30862E+01 0.00000E+00
 -1      2077 9.06250E+00-1.30862E+01 0.00000E+00
 -1      2078 2.39375E+01-1.41034E+01 0.00000E+00
 -1      2079 2.28750E+01-1.41034E+01 0.00000E+00
 -1      2080 2.18125E+01-1.41034E+01 0.00000E+00
 -1      2081 2.07500E+01-1.41034E+01 0.00000E+00
 -1      2082 1.96875E+01-1.41034E+01 0.00000E+00
 -1      2083 1.86250E+01-1.41034E+01 0.00000E+00
 -1      2084 1.75625E+01-1.41034E+01 0.00000E+00
 -1      2085 1.65000E+01-1.41034E+01 0.00000E+00
 -1      2086 1.54375E+01-1.41034E+01 0.00000E+00
 -1      2087 1.43750E+01-1.41034E+01 0.00000E+00
 -1      2088 1.33125E+01-1.41034E+01 0.00000E+00
 -1      2089 1.22500E+01-1.41034E+01 0.00000E+00
 -1      2090 1.11875E+01-1.41034E+01 0.00000E+00
 -1      2091 1.01250E+01-1.41034E+01 0.00000E+00
 -1      2092 9.06250E+00-1.41034E+01 0.00000E+00
 -1      2093 2.39375E+01-1.51207E+01 0.00000E+00
 -1      2094 2.28750E+01-1.51207E+01 0.00000E+00
 -1      2095 2.18125E+01-1.51207E+01 0.00000E+00
 -1      2096 2.07500E+01-1.51207E+01 0.00000E+00
 -1      2097 1.96875E+01-1.51207E+01 0.00000E+00
 -1      2098 1.86250E+01-1.51207E+01 0.00000E+00
 -1      2099 1.75625E+01-1.51207E+01 0.00000E+00
 -1      2100 1.65000E+01-1.51207E+01 0.00000E+00
 -1      2101 1.54375E+01-1.51207E+01 0.00000E+00
 -1      2102 1.43750E+01-1.51207E+01 0.00000E+00
 -1      2103 1.33125E+01-1.51207E+01 0.00000E+00
 -1      2104 1.22500E+01-1.51207E+01 0.00000E+00
 -1      2105 1.11875E+01-1.51207E+01 0.00000E+00
 -1      2106 1.01250E+01-1.51207E+01 0.00000E+00
 -1      2107 9.06250E+00-1.51207E+01 0.00000E+00
 -1      2108 2.39375E+01-1.61379E+01 0.00000E+00
 -1      2109 2.28750E+01-1.61379E+01 0.00000E+00
 -1      2110 2.18125E+01-1.61379E+01 0.00000E+00
 -1      2111 2.07500E+01-1.61379E+01 0.00000E+00
 -1      2112 1.96875E+01-1.61379E+01 0.00000E+00
 -1      2113 1.86250E+01-1.61379E+01 0.00000E+00
 -1      2114 1.75625E+01-1.61379E+01 0.00000E+00
 -1      2115 1.65000E+01-1.61379E+01 0.00000E+00
 -1      2116 1.54375E+01-1.61379E+01 0.00000E+00
 -1      2117 1.43750E+01-1.61379E+01 0.00000E+00
 -1      2118 1.33125E+01-1.61379E+01 0.00000E+00
 -1      2119 1.22500E+01-1.61379E+01 0.00000E+00
 -1      2120 1.11875E+01-1.61379E+01 0.00000E+00
 -1      2121 1.01250E+01-1.61379E+01 0.00000E+00
 -1      2122 9.06250E+00-1.61379E+01 0.00000E+00
 -1      2123 2.39375E+01-1.71552E+01 0.00000E+00
 -1      2124 2.28750E+01-1.71552E+01 0.00000E+00
 -1      2125 2.18125E+01-1.71552E+01 0.00000E+00
 -1      2126 2.07500E+01-1.71552E+01 0.00000E+00
 -1      2127 1.96875E+01-1.71552E+01 0.00000E+00
 -1      2128 1.86250E+01-1.71552E+01 0.00000E+00
 -1      2129 1.75625E+01-1.71552E+01 0.00000E+00
 -1      2130 1.65000E+01-1.71552E+01 0.00000E+00
 -1      2131 1.54375E+01-1.71552E+01 0.00000E+00
 -1      2132 1.43750E+01-1.71552E+01 0.00000E+00
 -1      2133 1.33125E+01-1.71552E+01 0.00000E+00
 -1      2134 1.22500E+01-1.71552E+01 0.00000E+00
 -1      2135 1.11875E+01-1.71552E+01 0.00000E+00
 -1      2136 1.01250E+01-1.71552E+01 0.00000E+00
 -1      2137 9.06250E+00-1.71552E+01 0.00000E+00
 -1      2138 2.39375E+01-1.81724E+01 0.00000E+00
 -1      2139 2.28750E+01-1.81724E+01 0.00000E+00
 -1      2140 2.18125E+01-1.81724E+01 0.00000E+00
 -1      2141 2.07500E+01-1.81724E+01 0.00000E+00
 -1      2142 1.96875E+01-1.81724E+01 0.00000E+00
 -1      2143 1.86250E+01-1.81724E+01 0.00000E+00
 -1      2144 1.75625E+01-1.81724E+01 0.00000E+00
 -1      2145 1.65000E+01-1.81724E+01 0.00000E+00
 -1      2146 1.54375E+01-1.81724E+01 0.00000E+00
 -1      2147 1.43750E+01-1.81724E+01 0.00000E+00
 -1      2148 1.33125E+01-1.81724E+01 0.00000E+00
 -1      2149 1.22500E+01-1.81724E+01 0.00000E+00
 -1      2150 1.11875E+01-1.81724E+01 0.00000E+00
 -1      2151 1.01250E+01-1.81724E+01 0.00000E+00
 -1      2152 9.06250E+00-1.81724E+01 0.00000E+00
 -1      2153 2.39375E+01-1.91897E+01 0.00000E+00
 -1      2154 2.28750E+01-1.91897E+01 0.00000E+00
 -1      2155 2.18125E+01-1.91897E+01 0.00000E+00
 -1      2156 2.07500E+01-1.91897E+01 0.00000E+00
 -1      2157 1.96875E+01-1.91897E+01 0.00000E+00
 -1      2158 1.86250E+01-1.91897E+01 0.00000E+00
 -1      2159 1.75625E+01-1.91897E+01 0.00000E+00
 -1      2160 1.65000E+01-1.91897E+01 0.00000E+00
 -1      2161 1.54375E+01-1.91897E+01 0.00000E+00
 -1      2162 1.43750E+01-1.91897E+01 0.00000E+00
 -1      2163 1.33125E+01-1.91897E+01 0.00000E+00
 -1      2164 1.22500E+01-1.91897E+01 0.00000E+00
 -1      2165 1.11875E+01-1.91897E+01 0.00000E+00
 -1      2166 1.01250E+01-1.91897E+01 0.00000E+00
 -1      2167 9.06250E+00-1.91897E+01 0.00000E+00
 -1      2168 2.39375E+01-2.02069E+01 0.00000E+00
 -1      2169 2.28750E+01-2.02069E+01 0.00000E+00
 -1      2170 2.18125E+01-2.02069E+01 0.00000E+00
 -1      2171 2.07500E+01-2.02069E+01 0.00000E+00
 -1      2172 1.96875E+01-2.02069E+01 0.00000E+00
 -1      2173 1.86250E+01-2.02069E+01 0.00000E+00
 -1      2174 1.75625E+01-2.02069E+01 0.00000E+00
 -1      2175 1.65000E+01-2.02069E+01 0.00000E+00
 -1      2176 1.54375E+01-2.02069E+01 0.00000E+00
 -1      2177 1.43750E+01-2.02069E+01 0.00000E+00
 -1      2178 1.33125E+01-2.02069E+01 0.00000E+00
 -1      2179 1.22500E+01-2.02069E+01 0.00000E+00
 -1      2180 1.11875E+01-2.02069E+01 0.00000E+00
 -1      2181 1.01250E+01-2.02069E+01 0.00000E+00
 -1      2182 9.06250E+00-2.02069E+01 0.00000E+00
 -1      2183 2.39375E+01-2.12241E+01 0.00000E+00
 -1      2184 2.28750E+01-2.12241E+01 0.00000E+00
 -1      2185 2.18125E+01-2.12241E+01 0.00000E+00
 -1      2186 2.07500E+01-2.12241E+01 0.00000E+00
 -1      2187 1.96875E+01-2.12241E+01 0.00000E+00
 -1      2188 1.86250E+01-2.12241E+01 0.00000E+00
 -1      2189 1.75625E+01-2.12241E+01 0.00000E+00
 -1      2190 1.65000E+01-2.12241E+01 0.00000E+00
 -1      2191 1.54375E+01-2.12241E+01 0.00000E+00
 -1      2192 1.43750E+01-2.12241E+01 0.00000E+00
 -1      2193 1.33125E+01-2.12241E+01 0.00000E+00
 -1      2194 1.22500E+01-2.12241E+01 0.00000E+00
 -1      2195 1.11875E+01-2.12241E+01 0.00000E+00
 -1      2196 1.01250E+01-2.12241E+01 0.00000E+00
 -1      2197 9.06250E+00-2.12241E+01 0.00000E+00
 -1      2198 2.39375E+01-2.22414E+01 0.00000E+00
 -1      2199 2.28750E+01-2.22414E+01 0.00000E+00
 -1      2200 2.18125E+01-2.22414E+01 0.00000E+00
 -1      2201 2.07500E+01-2.22414E+01 0.00000E+00
 -1      2202 1.96875E+01-2.22414E+01 0.00000E+00
 -1      2203 1.86250E+01-2.22414E+01 0.00000E+00
 -1      2204 1.75625E+01-2.22414E+01 0.00000E+00
 -1      2205 1.65000E+01-2.22414E+01 0.00000E+00
 -1      2206 1.54375E+01-2.22414E+01 0.00000E+00
 -1      2207 1.43750E+01-2.22414E+01 0.00000E+00
 -1      2208 1.33125E+01-2.22414E+01 0.00000E+00
 -1      2209 1.22500E+01-2.22414E+01 0.00000E+00
 -1      2210 1.11875E+01-2.22414E+01 0.00000E+00
 -1      2211 1.01250E+01-2.22414E+01 0.00000E+00
 -1      2212 9.06250E+00-2.22414E+01 0.00000E+00
 -1      2213 2.39375E+01-2.32586E+01 0.00000E+00
 -1      2214 2.28750E+01-2.32586E+01 0.00000E+00
 -1      2215 2.18125E+01-2.32586E+01 0.00000E+00
 -1      2216 2.07500E+01-2.32586E+01 0.00000E+00
 -1      2217 1.96875E+01-2.32586E+01 0.00000E+00
 -1      2218 1.86250E+01-2.32586E+01 0.00000E+00
 -1      2219 1.75625E+01-2.32586E+01 0.00000E+00
 -1      2220 1.65000E+01-2.32586E+01 0.00000E+00
 -1      2221 1.54375E+01-2.32586E+01 0.00000E+00
 -1      2222 1.43750E+01-2.32586E+01 0.00000E+00
 -1      2223 1.33125E+01-2.32586E+01 0.00000E+00
 -1      2224 1.22500E+01-2.32586E+01 0.00000E+00
 -1      2225 1.11875E+01-2.32586E+01 0.00000E+00
 -1      2226 1.01250E+01-2.32586E+01 0.00000E+00
 -1      2227 9.06250E+00-2.32586E+01 0.00000E+00
 -1      2228 2.39375E+01-2.42759E+01 0.00000E+00
 -1      2229 2.28750E+01-2.42759E+01 0.00000E+00
 -1      2230 2.18125E+01-2.42759E+01 0.00000E+00
 -1      2231 2.07500E+01-2.42759E+01 0.00000E+00
 -1      2232 1.96875E+01-2.42759E+01 0.00000E+00
 -1      2233 1.86250E+01-2.42759E+01 0.00000E+00
 -1      2234 1.75625E+01-2.42759E+01 0.00000E+00
 -1      2235 1.65000E+01-2.42759E+01 0.00000E+00
 -1      2236 1.54375E+01-2.42759E+01 0.00000E+00
 -1      2237 1.43750E+01-2.42759E+01 0.00000E+00
 -1      2238 1.33125E+01-2.42759E+01 0.00000E+00
 -1      2239 1.22500E+01-2.42759E+01 0.00000E+00
 -1      2240 1.11875E+01-2.42759E+01 0.00000E+00
 -1      2241 1.01250E+01-2.42759E+01 0.00000E+00
 -1      2242 9.06250E+00-2.42759E+01 0.00000E+00
 -1      2243 2.39375E+01-2.52931E+01 0.00000E+00
 -1      2244 2.28750E+01-2.52931E+01 0.00000E+00
 -1      2245 2.18125E+01-2.52931E+01 0.00000E+00
 -1      2246 2.07500E+01-2.52931E+01 0.00000E+00
 -1      2247 1.96875E+01-2.52931E+01 0.00000E+00
 -1      2248 1.86250E+01-2.52931E+01 0.00000E+00
 -1      2249 1.75625E+01-2.52931E+01 0.00000E+00
 -1      2250 1.65000E+01-2.52931E+01 0.00000E+00
 -1      2251 1.54375E+01-2.52931E+01 0.00000E+00
 -1      2252 1.43750E+01-2.52931E+01 0.00000E+00
 -1      2253 1.33125E+01-2.52931E+01 0.00000E+00
 -1      2254 1.22500E+01-2.52931E+01 0.00000E+00
 -1      2255 1.11875E+01-2.52931E+01 0.00000E+00
 -1      2256 1.01250E+01-2.52931E+01 0.00000E+00
 -1      2257 9.06250E+00-2.52931E+01 0.00000E+00
 -1      2258 2.39375E+01-2.63103E+01 0.00000E+00
 -1      2259 2.28750E+01-2.63103E+01 0.00000E+00
 -1      2260 2.18125E+01-2.63103E+01 0.00000E+00
 -1      2261 2.07500E+01-2.63103E+01 0.00000E+00
 -1      2262 1.96875E+01-2.63103E+01 0.00000E+00
 -1      2263 1.86250E+01-2.63103E+01 0.00000E+00
 -1      2264 1.75625E+01-2.63103E+01 0.00000E+00
 -1      2265 1.65000E+01-2.63103E+01 0.00000E+00
 -1      2266 1.54375E+01-2.63103E+01 0.00000E+00
 -1      2267 1.43750E+01-2.63103E+01 0.00000E+00
 -1      2268 1.33125E+01-2.63103E+01 0.00000E+00
 -1      2269 1.22500E+01-2.63103E+01 0.00000E+00
 -1      2270 1.11875E+01-2.63103E+01 0.00000E+00
 -1      2271 1.01250E+01-2.63103E+01 0.00000E+00
 -1      2272 9.06250E+00-2.63103E+01 0.00000E+00
 -1      2273 2.39375E+01-2.73276E+01 0.00000E+00
 -1      2274 2.28750E+01-2.73276E+01 0.00000E+00
 -1      2275 2.18125E+01-2.73276E+01 0.00000E+00
 -1      2276 2.07500E+01-2.73276E+01 0.00000E+00
 -1      2277 1.96875E+01-2.73276E+01 0.00000E+00
 -1      2278 1.86250E+01-2.73276E+01 0.00000E+00
 -1      2279 1.75625E+01-2.73276E+01 0.00000E+00
 -1      2280 1.65000E+01-2.73276E+01 0.00000E+00
 -1      2281 1.54375E+01-2.73276E+01 0.00000E+00
 -1      2282 1.43750E+01-2.73276E+01 0.00000E+00
 -1      2283 1.33125E+01-2.73276E+01 0.00000E+00
 -1      2284 1.22500E+01-2.73276E+01 0.00000E+00
 -1      2285 1.11875E+01-2.73276E+01 0.00000E+00
 -1      2286 1.01250E+01-2.73276E+01 0.00000E+00
 -1      2287 9.06250E+00-2.73276E+01 0.00000E+00
 -1      2288 2.39375E+01-2.83448E+01 0.00000E+00
 -1      2289 2.28750E+01-2.83448E+01 0.00000E+00
 -1      2290 2.18125E+01-2.83448E+01 0.00000E+00
 -1      2291 2.07500E+01-2.83448E+01 0.00000E+00
 -1      2292 1.96875E+01-2.83448E+01 0.00000E+00
 -1      2293 1.86250E+01-2.83448E+01 0.00000E+00
 -1      2294 1.75625E+01-2.83448E+01 0.00000E+00
 -1      2295 1.65000E+01-2.83448E+01 0.00000E+00
 -1      2296 1.54375E+01-2.83448E+01 0.00000E+00
 -1      2297 1.43750E+01-2.83448E+01 0.00000E+00
 -1      2298 1.33125E+01-2.83448E+01 0.00000E+00
 -1      2299 1.22500E+01-2.83448E+01 0.00000E+00
 -1      2300 1.11875E+01-2.83448E+01 0.00000E+00
 -1      2301 1.01250E+01-2.83448E+01 0.00000E+00
 -1      2302 9.06250E+00-2.83448E+01 0.00000E+00
 -1      2303 2.39375E+01-2.93621E+01 0.00000E+00
 -1      2304 2.28750E+01-2.93621E+01 0.00000E+00
 -1      2305 2.18125E+01-2.93621E+01 0.00000E+00
 -1      2306 2.07500E+01-2.93621E+01 0.00000E+00
 -1      2307 1.96875E+01-2.93621E+01 0.00000E+00
 -1      2308 1.86250E+01-2.93621E+01 0.00000E+00
 -1      2309 1.75625E+01-2.93621E+01 0.00000E+00
 -1      2310 1.65000E+01-2.93621E+01 0.00000E+00
 -1      2311 1.54375E+01-2.93621E+01 0.00000E+00
 -1      2312 1.43750E+01-2.93621E+01 0.00000E+00
 -1      2313 1.33125E+01-2.93621E+01 0.00000E+00
 -1      2314 1.22500E+01-2.93621E+01 0.00000E+00
 -1      2315 1.11875E+01-2.93621E+01 0.00000E+00
 -1      2316 1.01250E+01-2.93621E+01 0.00000E+00
 -1      2317 9.06250E+00-2.93621E+01 0.00000E+00
 -1      2318 2.39375E+01-3.03793E+01 0.00000E+00
 -1      2319 2.28750E+01-3.03793E+01 0.00000E+00
 -1      2320 2.18125E+01-3.03793E+01 0.00000E+00
 -1      2321 2.07500E+01-3.03793E+01 0.00000E+00
 -1      2322 1.96875E+01-3.03793E+01 0.00000E+00
 -1      2323 1.86250E+01-3.03793E+01 0.00000E+00
 -1      2324 1.75625E+01-3.03793E+01 0.00000E+00
 -1      2325 1.65000E+01-3.03793E+01 0.00000E+00
 -1      2326 1.54375E+01-3.03793E+01 0.00000E+00
 -1      2327 1.43750E+01-3.03793E+01 0.00000E+00
 -1      2328 1.33125E+01-3.03793E+01 0.00000E+00
 -1      2329 1.22500E+01-3.03793E+01 0.00000E+00
 -1      2330 1.11875E+01-3.03793E+01 0.00000E+00
 -1      2331 1.01250E+01-3.03793E+01 0.00000E+00
 -1      2332 9.06250E+00-3.03793E+01 0.00000E+00
 -1      2333 2.39375E+01-3.13966E+01 0.00000E+00
 -1      2334 2.28750E+01-3.13966E+01 0.00000E+00
 -1      2335 2.18125E+01-3.13966E+01 0.00000E+00
 -1      2336 2.07500E+01-3.13966E+01 0.00000E+00
 -1      2337 1.96875E+01-3.13966E+01 0.00000E+00
 -1      2338 1.86250E+01-3.13966E+01 0.00000E+00
 -1      2339 1.75625E+01-3.13966E+01 0.00000E+00
 -1      2340 1.65000E+01-3.13966E+01 0.00000E+00
 -1      2341 1.54375E+01-3.13966E+01 0.00000E+00
 -1      2342 1.43750E+01-3.13966E+01 0.00000E+00
 -1      2343 1.33125E+01-3.13966E+01 0.00000E+00
 -1      2344 1.22500E+01-3.13966E+01 0.00000E+00
 -1      2345 1.11875E+01-3.13966E+01 0.00000E+00
 -1      2346 1.01250E+01-3.13966E+01 0.00000E+00
 -1      2347 9.06250E+00-3.13966E+01 0.00000E+00
 -1      2348 2.39375E+01-3.24138E+01 0.00000E+00
 -1      2349 2.28750E+01-3.24138E+01 0.00000E+00
 -1      2350 2.18125E+01-3.24138E+01 0.00000E+00
 -1      2351 2.07500E+01-3.24138E+01 0.00000E+00
 -1      2352 1.96875E+01-3.24138E+01 0.00000E+00
 -1      2353 1.86250E+01-3.24138E+01 0.00000E+00
 -1      2354 1.75625E+01-3.24138E+01 0.00000E+00
 -1      2355 1.65000E+01-3.24138E+01 0.00000E+00
 -1      2356 1.54375E+01-3.24138E+01 0.00000E+00
 -1      2357 1.43750E+01-3.24138E+01 0.00000E+00
 -1      2358 1.33125E+01-3.24138E+01 0.00000E+00
 -1      2359 1.22500E+01-3.24138E+01 0.00000E+00
 -1      2360 1.11875E+01-3.24138E+01 0.00000E+00
 -1      2361 1.01250E+01-3.24138E+01 0.00000E+00
 -1      2362 9.06250E+00-3.24138E+01 0.00000E+00
 -1      2363 2.39375E+01-3.34310E+01 0.00000E+00
 -1      2364 2.28750E+01-3.34310E+01 0.00000E+00
 -1      2365 2.18125E+01-3.34310E+01 0.00000E+00
 -1      2366 2.07500E+01-3.34310E+01 0.00000E+00
 -1      2367 1.96875E+01-3.34310E+01 0.00000E+00
 -1      2368 1.86250E+01-3.34310E+01 0.00000E+00
 -1      2369 1.75625E+01-3.34310E+01 0.00000E+00
 -1      2370 1.65000E+01-3.34310E+01 0.00000E+00
 -1      2371 1.54375E+01-3.34310E+01 0.00000E+00
 -1      2372 1.43750E+01-3.34310E+01 0.00000E+00
 -1      2373 1.33125E+01-3.34310E+01 0.00000E+00
 -1      2374 1.22500E+01-3.34310E+01 0.00000E+00
 -1      2375 1.11875E+01-3.34310E+01 0.00000E+00
 -1      2376 1.01250E+01-3.34310E+01 0.00000E+00
 -1      2377 9.06250E+00-3.34310E+01 0.00000E+00
 -1      2378 2.39375E+01-3.44483E+01 0.00000E+00
 -1      2379 2.28750E+01-3.44483E+01 0.00000E+00
 -1      2380 2.18125E+01-3.44483E+01 0.00000E+00
 -1      2381 2.07500E+01-3.44483E+01 0.00000E+00
 -1      2382 1.96875E+01-3.44483E+01 0.00000E+00
 -1      2383 1.86250E+01-3.44483E+01 0.00000E+00
 -1      2384 1.75625E+01-3.44483E+01 0.00000E+00
 -1      2385 1.65000E+01-3.44483E+01 0.00000E+00
 -1      2386 1.54375E+01-3.44483E+01 0.00000E+00
 -1      2387 1.43750E+01-3.44483E+01 0.00000E+00
 -1      2388 1.33125E+01-3.44483E+01 0.00000E+00
 -1      2389 1.22500E+01-3.44483E+01 0.00000E+00
 -1      2390 1.11875E+01-3.44483E+01 0.00000E+00
 -1      2391 1.01250E+01-3.44483E+01 0.00000E+00
 -1      2392 9.06250E+00-3.44483E+01 0.00000E+00
 -1      2393 2.39375E+01-3.54655E+01 0.00000E+00
 -1      2394 2.28750E+01-3.54655E+01 0.00000E+00
 -1      2395 2.18125E+01-3.54655E+01 0.00000E+00
 -1      2396 2.07500E+01-3.54655E+01 0.00000E+00
 -1      2397 1.96875E+01-3.54655E+01 0.00000E+00
 -1      2398 1.86250E+01-3.54655E+01 0.00000E+00
 -1      2399 1.75625E+01-3.54655E+01 0.00000E+00
 -1      2400 1.65000E+01-3.54655E+01 0.00000E+00
 -1      2401 1.54375E+01-3.54655E+01 0.00000E+00
 -1      2402 1.43750E+01-3.54655E+01 0.00000E+00
 -1      2403 1.33125E+01-3.54655E+01 0.00000E+00
 -1      2404 1.22500E+01-3.54655E+01 0.00000E+00
 -1      2405 1.11875E+01-3.54655E+01 0.00000E+00
 -1      2406 1.01250E+01-3.54655E+01 0.00000E+00
 -1      2407 9.06250E+00-3.54655E+01 0.00000E+00
 -1      2408 2.39375E+01-3.64828E+01 0.00000E+00
 -1      2409 2.28750E+01-3.64828E+01 0.00000E+00
 -1      2410 2.18125E+01-3.64828E+01 0.00000E+00
 -1      2411 2.07500E+01-3.64828E+01 0.00000E+00
 -1      2412 1.96875E+01-3.64828E+01 0.00000E+00
 -1      2413 1.86250E+01-3.64828E+01 0.00000E+00
 -1      2414 1.75625E+01-3.64828E+01 0.00000E+00
 -1      2415 1.65000E+01-3.64828E+01 0.00000E+00
 -1      2416 1.54375E+01-3.64828E+01 0.00000E+00
 -1      2417 1.43750E+01-3.64828E+01 0.00000E+00
 -1      2418 1.33125E+01-3.64828E+01 0.00000E+00
 -1      2419 1.22500E+01-3.64828E+01 0.00000E+00
 -1      2420 1.11875E+01-3.64828E+01 0.00000E+00
 -1      2421 1.01250E+01-3.64828E+01 0.00000E+00
 -1      2422 9.06250E+00-3.64828E+01 0.00000E+00
 -1      2423 6.93333E+00-3.64828E+01 0.00000E+00
 -1      2424 6.93333E+00-3.54655E+01 0.00000E+00
 -1      2425 6.93333E+00-3.44483E+01 0.00000E+00
 -1      2426 6.93333E+00-3.34310E+01 0.00000E+00
 -1      2427 6.93333E+00-3.24138E+01 0.00000E+00
 -1      2428 6.93333E+00-3.13966E+01 0.00000E+00
 -1      2429 6.93333E+00-3.03793E+01 0.00000E+00
 -1      2430 6.93333E+00-2.93621E+01 0.00000E+00
 -1      2431 6.93333E+00-2.83448E+01 0.00000E+00
 -1      2432 6.93333E+00-2.73276E+01 0.00000E+00
 -1      2433 6.93333E+00-2.63103E+01 0.00000E+00
 -1      2434 6.93333E+00-2.52931E+01 0.00000E+00
 -1      2435 6.93333E+00-2.42759E+01 0.00000E+00
 -1      2436 6.93333E+00-2.32586E+01 0.00000E+00
 -1      2437 6.93333E+00-2.22414E+01 0.00000E+00
 -1      2438 6.93333E+00-2.12241E+01 0.00000E+00
 -1      2439 6.93333E+00-2.02069E+01 0.00000E+00
 -1      2440 6.93333E+00-1.91897E+01 0.00000E+00
 -1      2441 6.93333E+00-1.81724E+01 0.00000E+00
 -1      2442 6.93333E+00-1.71552E+01 0.00000E+00
 -1      2443 6.93333E+00-1.61379E+01 0.00000E+00
 -1      2444 6.93333E+00-1.51207E+01 0.00000E+00
 -1      2445 6.93333E+00-1.41034E+01 0.00000E+00
 -1      2446 6.93333E+00-1.30862E+01 0.00000E+00
 -1      2447 6.93333E+00-1.20690E+01 0.00000E+00
 -1      2448 6.93333E+00-1.10517E+01 0.00000E+00
 -1      2449 6.93333E+00-1.00345E+01 0.00000E+00
 -1      2450 6.93333E+00-9.01724E+00 0.00000E+00
 -1      2451 5.86667E+00-3.64828E+01 0.00000E+00
 -1      2452 5.86667E+00-3.54655E+01 0.00000E+00
 -1      2453 5.86667E+00-3.44483E+01 0.00000E+00
 -1      2454 5.86667E+00-3.34310E+01 0.00000E+00
 -1      2455 5.86667E+00-3.24138E+01 0.00000E+00
 -1      2456 5.86667E+00-3.13966E+01 0.00000E+00
 -1      2457 5.86667E+00-3.03793E+01 0.00000E+00
 -1      2458 5.86667E+00-2.93621E+01 0.00000E+00
 -1      2459 5.86667E+00-2.83448E+01 0.00000E+00
 -1      2460 5.86667E+00-2.73276E+01 0.00000E+00
 -1      2461 5.86667E+00-2.63103E+01 0.00000E+00
 -1      2462 5.86667E+00-2.52931E+01 0.00000E+00
 -1      2463 5.86667E+00-2.42759E+01 0.00000E+00
 -1      2464 5.86667E+00-2.32586E+01 0.00000E+00
 -1      2465 5.86667E+00-2.22414E+01 0.00000E+00
 -1      2466 5.86667E+00-2.12241E+01 0.00000E+00
 -1      2467 5.86667E+00-2.02069E+01 0.00000E+00
 -1      2468 5.86667E+00-1.91897E+01 0.00000E+00
 -1      2469 5.86667E+00-1.81724E+01 0.00000E+00
 -1      2470 5.86667E+00-1.71552E+01 0.00000E+00
 -1      2471 5.86667E+00-1.61379E+01 0.00000E+00
 -1      2472 5.86667E+00-1.51207E+01 0.00000E+00
 -1      2473 5.86667E+00-1.41034E+01 0.00000E+00
 -1      2474 5.86667E+00-1.30862E+01 0.00000E+00
 -1      2475 5.86667E+00-1.20690E+01 0.00000E+00
 -1      2476 5.86667E+00-1.10517E+01 0.00000E+00
 -1      2477 5.86667E+00-1.00345E+01 0.00000E+00
 -1      2478 5.86667E+00-9.01724E+00 0.00000E+00
 -1      2479 4.80000E+00-3.64828E+01 0.00000E+00
 -1      2480 4.80000E+00-3.54655E+01 0.00000E+00
 -1      2481 4.80000E+00-3.44483E+01 0.00000E+00
 -1      2482 4.80000E+00-3.34310E+01 0.00000E+00
 -1      2483 4.80000E+00-3.24138E+01 0.00000E+00
 -1      2484 4.80000E+00-3.13966E+01 0.00000E+00
 -1      2485 4.80000E+00-3.03793E+01 0.00000E+00
 -1      2486 4.80000E+00-2.93621E+01 0.00000E+00
 -1      2487 4.80000E+00-2.83448E+01 0.00000E+00
 -1      2488 4.80000E+00-2.73276E+01 0.00000E+00
 -1      2489 4.80000E+00-2.63103E+01 0.00000E+00
 -1      2490 4.80000E+00-2.52931E+01 0.00000E+00
 -1      2491 4.80000E+00-2.42759E+01 0.00000E+00
 -1      2492 4.80000E+00-2.32586E+01 0.00000E+00
 -1      2493 4.80000E+00-2.22414E+01 0.00000E+00
 -1      2494 4.80000E+00-2.12241E+01 0.00000E+00
 -1      2495 4.80000E+00-2.02069E+01 0.00000E+00
 -1      2496 4.80000E+00-1.91897E+01 0.00000E+00
 -1      2497 4.80000E+00-1.81724E+01 0.00000E+00
 -1      2498 4.80000E+00-1.71552E+01 0.00000E+00
 -1      2499 4.80000E+00-1.61379E+01 0.00000E+00
 -1      2500 4.80000E+00-1.51207E+01 0.00000E+00
 -1      2501 4.80000E+00-1.41034E+01 0.00000E+00
 -1      2502 4.80000E+00-1.30862E+01 0.00000E+00
 -1      2503 4.80000E+00-1.20690E+01 0.00000E+00
 -1      2504 4.80000E+00-1.10517E+01 0.00000E+00
 -1      2505 4.80000E+00-1.00345E+01 0.00000E+00
 -1      2506 4.80000E+00-9.01724E+00 0.00000E+00
 -1      2507 3.73333E+00-3.64828E+01 0.00000E+00
 -1      2508 3.73333E+00-3.54655E+01 0.00000E+00
 -1      2509 3.73333E+00-3.44483E+01 0.00000E+00
 -1      2510 3.73333E+00-3.34310E+01 0.00000E+00
 -1      2511 3.73333E+00-3.24138E+01 0.00000E+00
 -1      2512 3.73333E+00-3.13966E+01 0.00000E+00
 -1      2513 3.73333E+00-3.03793E+01 0.00000E+00
 -1      2514 3.73333E+00-2.93621E+01 0.00000E+00
 -1      2515 3.73333E+00-2.83448E+01 0.00000E+00
 -1      2516 3.73333E+00-2.73276E+01 0.00000E+00
 -1      2517 3.73333E+00-2.63103E+01 0.00000E+00
 -1      2518 3.73333E+00-2.52931E+01 0.00000E+00
 -1      2519 3.73333E+00-2.42759E+01 0.00000E+00
 -1      2520 3.73333E+00-2.32586E+01 0.00000E+00
 -1      2521 3.73333E+00-2.22414E+01 0.00000E+00
 -1      2522 3.73333E+00-2.12241E+01 0.00000E+00
 -1      2523 3.73333E+00-2.02069E+01 0.00000E+00
 -1      2524 3.73333E+00-1.91897E+01 0.00000E+00
 -1      2525 3.73333E+00-1.81724E+01 0.00000E+00
 -1      2526 3.73333E+00-1.71552E+01 0.00000E+00
 -1      2527 3.73333E+00-1.61379E+01 0.00000E+00
 -1      2528 3.73333E+00-1.51207E+01 0.00000E+00
 -1      2529 3.73333E+00-1.41034E+01 0.00000E+00
 -1      2530 3.73333E+00-1.30862E+01 0.00000E+00
 -1      2531 3.73333E+00-1.20690E+01 0.00000E+00
 -1      2532 3.73333E+00-1.10517E+01 0.00000E+00
 -1      2533 3.73333E+00-1.00345E+01 0.00000E+00
 -1      2534 3.73333E+00-9.01724E+00 0.00000E+00
 -1      2535 2.66667E+00-3.64828E+01 0.00000E+00
 -1      2536 2.66667E+00-3.54655E+01 0.00000E+00
 -1      2537 2.66667E+00-3.44483E+01 0.00000E+00
 -1      2538 2.66667E+00-3.34310E+01 0.00000E+00
 -1      2539 2.66667E+00-3.24138E+01 0.00000E+00
 -1      2540 2.66667E+00-3.13966E+01 0.00000E+00
 -1      2541 2.66667E+00-3.03793E+01 0.00000E+00
 -1      2542 2.66667E+00-2.93621E+01 0.00000E+00
 -1      2543 2.66667E+00-2.83448E+01 0.00000E+00
 -1      2544 2.66667E+00-2.73276E+01 0.00000E+00
 -1      2545 2.66667E+00-2.63103E+01 0.00000E+00
 -1      2546 2.66667E+00-2.52931E+01 0.00000E+00
 -1      2547 2.66667E+00-2.42759E+01 0.00000E+00
 -1      2548 2.66667E+00-2.32586E+01 0.00000E+00
 -1      2549 2.66667E+00-2.22414E+01 0.00000E+00
 -1      2550 2.66667E+00-2.12241E+01 0.00000E+00
 -1      2551 2.66667E+00-2.02069E+01 0.00000E+00
 -1      2552 2.66667E+00-1.91897E+01 0.00000E+00
 -1      2553 2.66667E+00-1.81724E+01 0.00000E+00
 -1      2554 2.66667E+00-1.71552E+01 0.00000E+00
 -1      2555 2.66667E+00-1.61379E+01 0.00000E+00
 -1      2556 2.66667E+00-1.51207E+01 0.00000E+00
 -1      2557 2.66667E+00-1.41034E+01 0.00000E+00
 -1      2558 2.66667E+00-1.30862E+01 0.00000E+00
 -1      2559 2.66667E+00-1.20690E+01 0.00000E+00
 -1      2560 2.66667E+00-1.10517E+01 0.00000E+00
 -1      2561 2.66667E+00-1.00345E+01 0.00000E+00
 -1      2562 2.66667E+00-9.01724E+00 0.00000E+00
 -1      2563 1.60000E+00-3.64828E+01 0.00000E+00
 -1      2564 1.60000E+00-3.54655E+01 0.00000E+00
 -1      2565 1.60000E+00-3.44483E+01 0.00000E+00
 -1      2566 1.60000E+00-3.34310E+01 0.00000E+00
 -1      2567 1.60000E+00-3.24138E+01 0.00000E+00
 -1      2568 1.60000E+00-3.13966E+01 0.00000E+00
 -1      2569 1.60000E+00-3.03793E+01 0.00000E+00
 -1      2570 1.60000E+00-2.93621E+01 0.00000E+00
 -1      2571 1.60000E+00-2.83448E+01 0.00000E+00
 -1      2572 1.60000E+00-2.73276E+01 0.00000E+00
 -1      2573 1.60000E+00-2.63103E+01 0.00000E+00
 -1      2574 1.60000E+00-2.52931E+01 0.00000E+00
 -1      2575 1.60000E+00-2.42759E+01 0.00000E+00
 -1      2576 1.60000E+00-2.32586E+01 0.00000E+00
 -1      2577 1.60000E+00-2.22414E+01 0.00000E+00
 -1      2578 1.60000E+00-2.12241E+01 0.00000E+00
 -1      2579 1.60000E+00-2.02069E+01 0.00000E+00
 -1      2580 1.60000E+00-1.91897E+01 0.00000E+00
 -1      2581 1.60000E+00-1.81724E+01 0.00000E+00
 -1      2582 1.60000E+00-1.71552E+01 0.00000E+00
 -1      2583 1.60000E+00-1.61379E+01 0.00000E+00
 -1      2584 1.60000E+00-1.51207E+01 0.00000E+00
 -1      2585 1.60000E+00-1.41034E+01 0.00000E+00
 -1      2586 1.60000E+00-1.30862E+01 0.00000E+00
 -1      2587 1.60000E+00-1.20690E+01 0.00000E+00
 -1      2588 1.60000E+00-1.10517E+01 0.00000E+00
 -1      2589 1.60000E+00-1.00345E+01 0.00000E+00
 -1      2590 1.60000E+00-9.01724E+00 0.00000E+00
 -1      2591 5.33333E-01-3.64828E+01 0.00000E+00
 -1      2592 5.33333E-01-3.54655E+01 0.00000E+00
 -1      2593 5.33333E-01-3.44483E+01 0.00000E+00
 -1      2594 5.33333E-01-3.34310E+01 0.00000E+00
 -1      2595 5.33333E-01-3.24138E+01 0.00000E+00
 -1      2596 5.33333E-01-3.13966E+01 0.00000E+00
 -1      2597 5.33333E-01-3.03793E+01 0.00000E+00
 -1      2598 5.33333E-01-2.93621E+01 0.00000E+00
 -1      2599 5.33333E-01-2.83448E+01 0.00000E+00
 -1      2600 5.33333E-01-2.73276E+01 0.00000E+00
 -1      2601 5.33333E-01-2.63103E+01 0.00000E+00
 -1      2602 5.33333E-01-2.52931E+01 0.00000E+00
 -1      2603 5.33333E-01-2.42759E+01 0.00000E+00
 -1      2604 5.33333E-01-2.32586E+01 0.00000E+00
 -1      2605 5.33333E-01-2.22414E+01 0.00000E+00
 -1      2606 5.33333E-01-2.12241E+01 0.00000E+00
 -1      2607 5.33333E-01-2.02069E+01 0.00000E+00
 -1      2608 5.33333E-01-1.91897E+01 0.00000E+00
 -1      2609 5.33333E-01-1.81724E+01 0.00000E+00
 -1      2610 5.33333E-01-1.71552E+01 0.00000E+00
 -1      2611 5.33333E-01-1.61379E+01 0.00000E+00
 -1      2612 5.33333E-01-1.51207E+01 0.00000E+00
 -1      2613 5.33333E-01-1.41034E+01 0.00000E+00
 -1      2614 5.33333E-01-1.30862E+01 0.00000E+00
 -1      2615 5.33333E-01-1.20690E+01 0.00000E+00
 -1      2616 5.33333E-01-1.10517E+01 0.00000E+00
 -1      2617 5.33333E-01-1.00345E+01 0.00000E+00
 -1      2618 5.33333E-01-9.01724E+00 0.00000E+00
 -1      2619-5.33333E-01-3.64828E+01 0.00000E+00
 -1      2620-5.33333E-01-3.54655E+01 0.00000E+00
 -1      2621-5.33333E-01-3.44483E+01 0.00000E+00
 -1      2622-5.33333E-01-3.34310E+01 0.00000E+00
 -1      2623-5.33333E-01-3.24138E+01 0.00000E+00
 -1      2624-5.33333E-01-3.13966E+01 0.00000E+00
 -1      2625-5.33333E-01-3.03793E+01 0.00000E+00
 -1      2626-5.33333E-01-2.93621E+01 0.00000E+00
 -1      2627-5.33333E-01-2.83448E+01 0.00000E+00
 -1      2628-5.33333E-01-2.73276E+01 0.00000E+00
 -1      2629-5.33333E-01-2.63103E+01 0.00000E+00
 -1      2630-5.33333E-01-2.52931E+01 0.00000E+00
 -1      2631-5.33333E-01-2.42759E+01 0.00000E+00
 -1      2632-5.33333E-01-2.32586E+01 0.00000E+00
 -1      2633-5.33333E-01-2.22414E+01 0.00000E+00
 -1      2634-5.33333E-01-2.12241E+01 0.00000E+00
 -1      2635-5.33333E-01-2.02069E+01 0.00000E+00
 -1      2636-5.33333E-01-1.91897E+01 0.00000E+00
 -1      2637-5.33333E-01-1.81724E+01 0.00000E+00
 -1      2638-5.33333E-01-1.71552E+01 0.00000E+00
 -1      2639-5.33333E-01-1.61379E+01 0.00000E+00
 -1      2640-5.33333E-01-1.51207E+01 0.00000E+00
 -1      2641-5.33333E-01-1.41034E+01 0.00000E+00
 -1      2642-5.33333E-01-1.30862E+01 0.00000E+00
 -1      2643-5.33333E-01-1.20690E+01 0.00000E+00
 -1      2644-5.33333E-01-1.10517E+01 0.00000E+00
 -1      2645-5.33333E-01-1.00345E+01 0.00000E+00
 -1      2646-5.33333E-01-9.01724E+00 0.00000E+00
 -1      2647-1.60000E+00-3.64828E+01 0.00000E+00
 -1      2648-1.60000E+00-3.54655E+01 0.00000E+00
 -1      2649-1.60000E+00-3.44483E+01 0.00000E+00
 -1      2650-1.60000E+00-3.34310E+01 0.00000E+00
 -1      2651-1.60000E+00-3.24138E+01 0.00000E+00
 -1      2652-1.60000E+00-3.13966E+01 0.00000E+00
 -1      2653-1.60000E+00-3.03793E+01 0.00000E+00
 -1      2654-1.60000E+00-2.93621E+01 0.00000E+00
 -1      2655-1.60000E+00-2.83448E+01 0.00000E+00
 -1      2656-1.60000E+00-2.73276E+01 0.00000E+00
 -1      2657-1.60000E+00-2.63103E+01 0.00000E+00
 -1      2658-1.60000E+00-2.52931E+01 0.00000E+00
 -1      2659-1.60000E+00-2.42759E+01 0.00000E+00
 -1      2660-1.60000E+00-2.32586E+01 0.00000E+00
 -1      2661-1.60000E+00-2.22414E+01 0.00000E+00
 -1      2662-1.60000E+00-2.12241E+01 0.00000E+00
 -1      2663-1.60000E+00-2.02069E+01 0.00000E+00
 -1      2664-1.60000E+00-1.91897E+01 0.00000E+00
 -1      2665-1.60000E+00-1.81724E+01 0.00000E+00
 -1      2666-1.60000E+00-1.71552E+01 0.00000E+00
 -1      2667-1.60000E+00-1.61379E+01 0.00000E+00
 -1      2668-1.60000E+00-1.51207E+01 0.00000E+00
 -1      2669-1.60000E+00-1.41034E+01 0.00000E+00
 -1      2670-1.60000E+00-1.30862E+01 0.00000E+00
 -1      2671-1.60000E+00-1.20690E+01 0.00000E+00
 -1      2672-1.60000E+00-1.10517E+01 0.00000E+00
 -1      2673-1.60000E+00-1.00345E+01 0.00000E+00
 -1      2674-1.60000E+00-9.01724E+00 0.00000E+00
 -1      2675-2.66667E+00-3.64828E+01 0.00000E+00
 -1      2676-2.66667E+00-3.54655E+01 0.00000E+00
 -1      2677-2.66667E+00-3.44483E+01 0.00000E+00
 -1      2678-2.66667E+00-3.34310E+01 0.00000E+00
 -1      2679-2.66667E+00-3.24138E+01 0.00000E+00
 -1      2680-2.66667E+00-3.13966E+01 0.00000E+00
 -1      2681-2.66667E+00-3.03793E+01 0.00000E+00
 -1      2682-2.66667E+00-2.93621E+01 0.00000E+00
 -1      2683-2.66667E+00-2.83448E+01 0.00000E+00
 -1      2684-2.66667E+00-2.73276E+01 0.00000E+00
 -1      2685-2.66667E+00-2.63103E+01 0.00000E+00
 -1      2686-2.66667E+00-2.52931E+01 0.00000E+00
 -1      2687-2.66667E+00-2.42759E+01 0.00000E+00
 -1      2688-2.66667E+00-2.32586E+01 0.00000E+00
 -1      2689-2.66667E+00-2.22414E+01 0.00000E+00
 -1      2690-2.66667E+00-2.12241E+01 0.00000E+00
 -1      2691-2.66667E+00-2.02069E+01 0.00000E+00
 -1      2692-2.66667E+00-1.91897E+01 0.00000E+00
 -1      2693-2.66667E+00-1.81724E+01 0.00000E+00
 -1      2694-2.66667E+00-1.71552E+01 0.00000E+00
 -1      2695-2.66667E+00-1.61379E+01 0.00000E+00
 -1      2696-2.66667E+00-1.51207E+01 0.00000E+00
 -1      2697-2.66667E+00-1.41034E+01 0.00000E+00
 -1      2698-2.66667E+00-1.30862E+01 0.00000E+00
 -1      2699-2.66667E+00-1.20690E+01 0.00000E+00
 -1      2700-2.66667E+00-1.10517E+01 0.00000E+00
 -1      2701-2.66667E+00-1.00345E+01 0.00000E+00
 -1      2702-2.66667E+00-9.01724E+00 0.00000E+00
 -1      2703-3.73333E+00-3.64828E+01 0.00000E+00
 -1      2704-3.73333E+00-3.54655E+01 0.00000E+00
 -1      2705-3.73333E+00-3.44483E+01 0.00000E+00
 -1      2706-3.73333E+00-3.34310E+01 0.00000E+00
 -1      2707-3.73333E+00-3.24138E+01 0.00000E+00
 -1      2708-3.73333E+00-3.13966E+01 0.00000E+00
 -1      2709-3.73333E+00-3.03793E+01 0.00000E+00
 -1      2710-3.73333E+00-2.93621E+01 0.00000E+00
 -1      2711-3.73333E+00-2.83448E+01 0.00000E+00
 -1      2712-3.73333E+00-2.73276E+01 0.00000E+00
 -1      2713-3.73333E+00-2.63103E+01 0.00000E+00
 -1      2714-3.73333E+00-2.52931E+01 0.00000E+00
 -1      2715-3.73333E+00-2.42759E+01 0.00000E+00
 -1      2716-3.73333E+00-2.32586E+01 0.00000E+00
 -1      2717-3.73333E+00-2.22414E+01 0.00000E+00
 -1      2718-3.73333E+00-2.12241E+01 0.00000E+00
 -1      2719-3.73333E+00-2.02069E+01 0.00000E+00
 -1      2720-3.73333E+00-1.91897E+01 0.00000E+00
 -1      2721-3.73333E+00-1.81724E+01 0.00000E+00
 -1      2722-3.73333E+00-1.71552E+01 0.00000E+00
 -1      2723-3.73333E+00-1.61379E+01 0.00000E+00
 -1      2724-3.73333E+00-1.51207E+01 0.00000E+00
 -1      2725-3.73333E+00-1.41034E+01 0.00000E+00
 -1      2726-3.73333E+00-1.30862E+01 0.00000E+00
 -1      2727-3.73333E+00-1.20690E+01 0.00000E+00
 -1      2728-3.73333E+00-1.10517E+01 0.00000E+00
 -1      2729-3.73333E+00-1.00345E+01 0.00000E+00
 -1      2730-3.73333E+00-9.01724E+00 0.00000E+00
 -1      2731-4.80000E+00-3.64828E+01 0.00000E+00
 -1      2732-4.80000E+00-3.54655E+01 0.00000E+00
 -1      2733-4.80000E+00-3.44483E+01 0.00000E+00
 -1      2734-4.80000E+00-3.34310E+01 0.00000E+00
 -1      2735-4.80000E+00-3.24138E+01 0.00000E+00
 -1      2736-4.80000E+00-3.13966E+01 0.00000E+00
 -1      2737-4.80000E+00-3.03793E+01 0.00000E+00
 -1      2738-4.80000E+00-2.93621E+01 0.00000E+00
 -1      2739-4.80000E+00-2.83448E+01 0.00000E+00
 -1      2740-4.80000E+00-2.73276E+01 0.00000E+00
 -1      2741-4.80000E+00-2.63103E+01 0.00000E+00
 -1      2742-4.80000E+00-2.52931E+01 0.00000E+00
 -1      2743-4.80000E+00-2.42759E+01 0.00000E+00
 -1      2744-4.80000E+00-2.32586E+01 0.00000E+00
 -1      2745-4.80000E+00-2.22414E+01 0.00000E+00
 -1      2746-4.80000E+00-2.12241E+01 0.00000E+00
 -1      2747-4.80000E+00-2.02069E+01 0.00000E+00
 -1      2748-4.80000E+00-1.91897E+01 0.00000E+00
 -1      2749-4.80000E+00-1.81724E+01 0.00000E+00
 -1      2750-4.80000E+00-1.71552E+01 0.00000E+00
 -1      2751-4.80000E+00-1.61379E+01 0.00000E+00
 -1      2752-4.80000E+00-1.51207E+01 0.00000E+00
 -1      2753-4.80000E+00-1.41034E+01 0.00000E+00
 -1      2754-4.80000E+00-1.30862E+01 0.00000E+00
 -1      2755-4.80000E+00-1.20690E+01 0.00000E+00
 -1      2756-4.80000E+00-1.10517E+01 0.00000E+00
 -1      2757-4.80000E+00-1.00345E+01 0.00000E+00
 -1      2758-4.80000E+00-9.01724E+00 0.00000E+00
 -1      2759-5.86667E+00-3.64828E+01 0.00000E+00
 -1      2760-5.86667E+00-3.54655E+01 0.00000E+00
 -1      2761-5.86667E+00-3.44483E+01 0.00000E+00
 -1      2762-5.86667E+00-3.34310E+01 0.00000E+00
 -1      2763-5.86667E+00-3.24138E+01 0.00000E+00
 -1      2764-5.86667E+00-3.13966E+01 0.00000E+00
 -1      2765-5.86667E+00-3.03793E+01 0.00000E+00
 -1      2766-5.86667E+00-2.93621E+01 0.00000E+00
 -1      2767-5.86667E+00-2.83448E+01 0.00000E+00
 -1      2768-5.86667E+00-2.73276E+01 0.00000E+00
 -1      2769-5.86667E+00-2.63103E+01 0.00000E+00
 -1      2770-5.86667E+00-2.52931E+01 0.00000E+00
 -1      2771-5.86667E+00-2.42759E+01 0.00000E+00
 -1      2772-5.86667E+00-2.32586E+01 0.00000E+00
 -1      2773-5.86667E+00-2.22414E+01 0.00000E+00
 -1      2774-5.86667E+00-2.12241E+01 0.00000E+00
 -1      2775-5.86667E+00-2.02069E+01 0.00000E+00
 -1      2776-5.86667E+00-1.91897E+01 0.00000E+00
 -1      2777-5.86667E+00-1.81724E+01 0.00000E+00
 -1      2778-5.86667E+00-1.71552E+01 0.00000E+00
 -1      2779-5.86667E+00-1.61379E+01 0.00000E+00
 -1      2780-5.86667E+00-1.51207E+01 0.00000E+00
 -1      2781-5.86667E+00-1.41034E+01 0.00000E+00
 -1      2782-5.86667E+00-1.30862E+01 0.00000E+00
 -1      2783-5.86667E+00-1.20690E+01 0.00000E+00
 -1      2784-5.86667E+00-1.10517E+01 0.00000E+00
 -1      2785-5.86667E+00-1.00345E+01 0.00000E+00
 -1      2786-5.86667E+00-9.01724E+00 0.00000E+00
 -1      2787-6.93333E+00-3.64828E+01 0.00000E+00
 -1      2788-6.93333E+00-3.54655E+01 0.00000E+00
 -1      2789-6.93333E+00-3.44483E+01 0.00000E+00
 -1      2790-6.93333E+00-3.34310E+01 0.00000E+00
 -1      2791-6.93333E+00-3.24138E+01 0.00000E+00
 -1      2792-6.93333E+00-3.13966E+01 0.00000E+00
 -1      2793-6.93333E+00-3.03793E+01 0.00000E+00
 -1      2794-6.93333E+00-2.93621E+01 0.00000E+00
 -1      2795-6.93333E+00-2.83448E+01 0.00000E+00
 -1      2796-6.93333E+00-2.73276E+01 0.00000E+00
 -1      2797-6.93333E+00-2.63103E+01 0.00000E+00
 -1      2798-6.93333E+00-2.52931E+01 0.00000E+00
 -1      2799-6.93333E+00-2.42759E+01 0.00000E+00
 -1      2800-6.93333E+00-2.32586E+01 0.00000E+00
 -1      2801-6.93333E+00-2.22414E+01 0.00000E+00
 -1      2802-6.93333E+00-2.12241E+01 0.00000E+00
 -1      2803-6.93333E+00-2.02069E+01 0.00000E+00
 -1      2804-6.93333E+00-1.91897E+01 0.00000E+00
 -1      2805-6.93333E+00-1.81724E+01 0.00000E+00
 -1      2806-6.93333E+00-1.71552E+01 0.00000E+00
 -1      2807-6.93333E+00-1.61379E+01 0.00000E+00
 -1      2808-6.93333E+00-1.51207E+01 0.00000E+00
 -1      2809-6.93333E+00-1.41034E+01 0.00000E+00
 -1      2810-6.93333E+00-1.30862E+01 0.00000E+00
 -1      2811-6.93333E+00-1.20690E+01 0.00000E+00
 -1      2812-6.93333E+00-1.10517E+01 0.00000E+00
 -1      2813-6.93333E+00-1.00345E+01 0.00000E+00
 -1      2814-6.93333E+00-9.01724E+00 0.00000E+00
 -1      2815-9.06250E+00-3.64828E+01 0.00000E+00
 -1      2816-9.06250E+00-3.54655E+01 0.00000E+00
 -1      2817-9.06250E+00-3.44483E+01 0.00000E+00
 -1      2818-9.06250E+00-3.34310E+01 0.00000E+00
 -1      2819-9.06250E+00-3.24138E+01 0.00000E+00
 -1      2820-9.06250E+00-3.13966E+01 0.00000E+00
 -1      2821-9.06250E+00-3.03793E+01 0.00000E+00
 -1      2822-9.06250E+00-2.93621E+01 0.00000E+00
 -1      2823-9.06250E+00-2.83448E+01 0.00000E+00
 -1      2824-9.06250E+00-2.73276E+01 0.00000E+00
 -1      2825-9.06250E+00-2.63103E+01 0.00000E+00
 -1      2826-9.06250E+00-2.52931E+01 0.00000E+00
 -1      2827-9.06250E+00-2.42759E+01 0.00000E+00
 -1      2828-9.06250E+00-2.32586E+01 0.00000E+00
 -1      2829-9.06250E+00-2.22414E+01 0.00000E+00
 -1      2830-9.06250E+00-2.12241E+01 0.00000E+00
 -1      2831-9.06250E+00-2.02069E+01 0.00000E+00
 -1      2832-9.06250E+00-1.91897E+01 0.00000E+00
 -1      2833-9.06250E+00-1.81724E+01 0.00000E+00
 -1      2834-9.06250E+00-1.71552E+01 0.00000E+00
 -1      2835-9.06250E+00-1.61379E+01 0.00000E+00
 -1      2836-9.06250E+00-1.51207E+01 0.00000E+00
 -1      2837-9.06250E+00-1.41034E+01 0.00000E+00
 -1      2838-9.06250E+00-1.30862E+01 0.00000E+00
 -1      2839-9.06250E+00-1.20690E+01 0.00000E+00
 -1      2840-9.06250E+00-1.10517E+01 0.00000E+00
 -1      2841-9.06250E+00-1.00345E+01 0.00000E+00
 -1      2842-9.06250E+00-9.01724E+00 0.00000E+00
 -1      2843-1.01250E+01-3.64828E+01 0.00000E+00
 -1      2844-1.01250E+01-3.54655E+01 0.00000E+00
 -1      2845-1.01250E+01-3.44483E+01 0.00000E+00
 -1      2846-1.01250E+01-3.34310E+01 0.00000E+00
 -1      2847-1.01250E+01-3.24138E+01 0.00000E+00
 -1      2848-1.01250E+01-3.13966E+01 0.00000E+00
 -1      2849-1.01250E+01-3.03793E+01 0.00000E+00
 -1      2850-1.01250E+01-2.93621E+01 0.00000E+00
 -1      2851-1.01250E+01-2.83448E+01 0.00000E+00
 -1      2852-1.01250E+01-2.73276E+01 0.00000E+00
 -1      2853-1.01250E+01-2.63103E+01 0.00000E+00
 -1      2854-1.01250E+01-2.52931E+01 0.00000E+00
 -1      2855-1.01250E+01-2.42759E+01 0.00000E+00
 -1      2856-1.01250E+01-2.32586E+01 0.00000E+00
 -1      2857-1.01250E+01-2.22414E+01 0.00000E+00
 -1      2858-1.01250E+01-2.12241E+01 0.00000E+00
 -1      2859-1.01250E+01-2.02069E+01 0.00000E+00
 -1      2860-1.01250E+01-1.91897E+01 0.00000E+00
 -1      2861-1.01250E+01-1.81724E+01 0.00000E+00
 -1      2862-1.01250E+01-1.71552E+01 0.00000E+00
 -1      2863-1.01250E+01-1.61379E+01 0.00000E+00
 -1      2864-1.01250E+01-1.51207E+01 0.00000E+00
 -1      2865-1.01250E+01-1.41034E+01 0.00000E+00
 -1      2866-1.01250E+01-1.30862E+01 0.00000E+00
 -1      2867-1.01250E+01-1.20690E+01 0.00000E+00
 -1      2868-1.01250E+01-1.10517E+01 0.00000E+00
 -1      2869-1.01250E+01-1.00345E+01 0.00000E+00
 -1      2870-1.01250E+01-9.01724E+00 0.00000E+00
 -1      2871-1.11875E+01-3.64828E+01 0.00000E+00
 -1      2872-1.11875E+01-3.54655E+01 0.00000E+00
 -1      2873-1.11875E+01-3.44483E+01 0.00000E+00
 -1      2874-1.11875E+01-3.34310E+01 0.00000E+00
 -1      2875-1.11875E+01-3.24138E+01 0.00000E+00
 -1      2876-1.11875E+01-3.13966E+01 0.00000E+00
 -1      2877-1.11875E+01-3.03793E+01 0.00000E+00
 -1      2878-1.11875E+01-2.93621E+01 0.00000E+00
 -1      2879-1.11875E+01-2.83448E+01 0.00000E+00
 -1      2880-1.11875E+01-2.73276E+01 0.00000E+00
 -1      2881-1.11875E+01-2.63103E+01 0.00000E+00
 -1      2882-1.11875E+01-2.52931E+01 0.00000E+00
 -1      2883-1.11875E+01-2.42759E+01 0.00000E+00
 -1      2884-1.11875E+01-2.32586E+01 0.00000E+00
 -1      2885-1.11875E+01-2.22414E+01 0.00000E+00
 -1      2886-1.11875E+01-2.12241E+01 0.00000E+00
 -1      2887-1.11875E+01-2.02069E+01 0.00000E+00
 -1      2888-1.11875E+01-1.91897E+01 0.00000E+00
 -1      2889-1.11875E+01-1.81724E+01 0.00000E+00
 -1      2890-1.11875E+01-1.71552E+01 0.00000E+00
 -1      2891-1.11875E+01-1.61379E+01 0.00000E+00
 -1      2892-1.11875E+01-1.51207E+01 0.00000E+00
 -1      2893-1.11875E+01-1.41034E+01 0.00000E+00
 -1      2894-1.11875E+01-1.30862E+01 0.00000E+00
 -1      2895-1.11875E+01-1.20690E+01 0.00000E+00
 -1      2896-1.11875E+01-1.10517E+01 0.00000E+00
 -1      2897-1.11875E+01-1.00345E+01 0.00000E+00
 -1      2898-1.11875E+01-9.01724E+00 0.00000E+00
 -1      2899-1.22500E+01-3.64828E+01 0.00000E+00
 -1      2900-1.22500E+01-3.54655E+01 0.00000E+00
 -1      2901-1.22500E+01-3.44483E+01 0.00000E+00
 -1      2902-1.22500E+01-3.34310E+01 0.00000E+00
 -1      2903-1.22500E+01-3.24138E+01 0.00000E+00
 -1      2904-1.22500E+01-3.13966E+01 0.00000E+00
 -1      2905-1.22500E+01-3.03793E+01 0.00000E+00
 -1      2906-1.22500E+01-2.93621E+01 0.00000E+00
 -1      2907-1.22500E+01-2.83448E+01 0.00000E+00
 -1      2908-1.22500E+01-2.73276E+01 0.00000E+00
 -1      2909-1.22500E+01-2.63103E+01 0.00000E+00
 -1      2910-1.22500E+01-2.52931E+01 0.00000E+00
 -1      2911-1.22500E+01-2.42759E+01 0.00000E+00
 -1      2912-1.22500E+01-2.32586E+01 0.00000E+00
 -1      2913-1.22500E+01-2.22414E+01 0.00000E+00
 -1      2914-1.22500E+01-2.12241E+01 0.00000E+00
 -1      2915-1.22500E+01-2.02069E+01 0.00000E+00
 -1      2916-1.22500E+01-1.91897E+01 0.00000E+00
 -1      2917-1.22500E+01-1.81724E+01 0.00000E+00
 -1      2918-1.22500E+01-1.71552E+01 0.00000E+00
 -1      2919-1.22500E+01-1.61379E+01 0.00000E+00
 -1      2920-1.22500E+01-1.51207E+01 0.00000E+00
 -1      2921-1.22500E+01-1.41034E+01 0.00000E+00
 -1      2922-1.22500E+01-1.30862E+01 0.00000E+00
 -1      2923-1.22500E+01-1.20690E+01 0.00000E+00
 -1      2924-1.22500E+01-1.10517E+01 0.00000E+00
 -1      2925-1.22500E+01-1.00345E+01 0.00000E+00
 -1      2926-1.22500E+01-9.01724E+00 0.00000E+00
 -1      2927-1.33125E+01-3.64828E+01 0.00000E+00
 -1      2928-1.33125E+01-3.54655E+01 0.00000E+00
 -1      2929-1.33125E+01-3.44483E+01 0.00000E+00
 -1      2930-1.33125E+01-3.34310E+01 0.00000E+00
 -1      2931-1.33125E+01-3.24138E+01 0.00000E+00
 -1      2932-1.33125E+01-3.13966E+01 0.00000E+00
 -1      2933-1.33125E+01-3.03793E+01 0.00000E+00
 -1      2934-1.33125E+01-2.93621E+01 0.00000E+00
 -1      2935-1.33125E+01-2.83448E+01 0.00000E+00
 -1      2936-1.33125E+01-2.73276E+01 0.00000E+00
 -1      2937-1.33125E+01-2.63103E+01 0.00000E+00
 -1      2938-1.33125E+01-2.52931E+01 0.00000E+00
 -1      2939-1.33125E+01-2.42759E+01 0.00000E+00
 -1      2940-1.33125E+01-2.32586E+01 0.00000E+00
 -1      2941-1.33125E+01-2.22414E+01 0.00000E+00
 -1      2942-1.33125E+01-2.12241E+01 0.00000E+00
 -1      2943-1.33125E+01-2.02069E+01 0.00000E+00
 -1      2944-1.33125E+01-1.91897E+01 0.00000E+00
 -1      2945-1.33125E+01-1.81724E+01 0.00000E+00
 -1      2946-1.33125E+01-1.71552E+01 0.00000E+00
 -1      2947-1.33125E+01-1.61379E+01 0.00000E+00
 -1      2948-1.33125E+01-1.51207E+01 0.00000E+00
 -1      2949-1.33125E+01-1.41034E+01 0.00000E+00
 -1      2950-1.33125E+01-1.30862E+01 0.00000E+00
 -1      2951-1.33125E+01-1.20690E+01 0.00000E+00
 -1      2952-1.33125E+01-1.10517E+01 0.00000E+00
 -1      2953-1.33125E+01-1.00345E+01 0.00000E+00
 -1      2954-1.33125E+01-9.01724E+00 0.00000E+00
 -1      2955-1.43750E+01-3.64828E+01 0.00000E+00
 -1      2956-1.43750E+01-3.54655E+01 0.00000E+00
 -1      2957-1.43750E+01-3.44483E+01 0.00000E+00
 -1      2958-1.43750E+01-3.34310E+01 0.00000E+00
 -1      2959-1.43750E+01-3.24138E+01 0.00000E+00
 -1      2960-1.43750E+01-3.13966E+01 0.00000E+00
 -1      2961-1.43750E+01-3.03793E+01 0.00000E+00
 -1      2962-1.43750E+01-2.93621E+01 0.00000E+00
 -1      2963-1.43750E+01-2.83448E+01 0.00000E+00
 -1      2964-1.43750E+01-2.73276E+01 0.00000E+00
 -1      2965-1.43750E+01-2.63103E+01 0.00000E+00
 -1      2966-1.43750E+01-2.52931E+01 0.00000E+00
 -1      2967-1.43750E+01-2.42759E+01 0.00000E+00
 -1      2968-1.43750E+01-2.32586E+01 0.00000E+00
 -1      2969-1.43750E+01-2.22414E+01 0.00000E+00
 -1      2970-1.43750E+01-2.12241E+01 0.00000E+00
 -1      2971-1.43750E+01-2.02069E+01 0.00000E+00
 -1      2972-1.43750E+01-1.91897E+01 0.00000E+00
 -1      2973-1.43750E+01-1.81724E+01 0.00000E+00
 -1      2974-1.43750E+01-1.71552E+01 0.00000E+00
 -1      2975-1.43750E+01-1.61379E+01 0.00000E+00
 -1      2976-1.43750E+01-1.51207E+01 0.00000E+00
 -1      2977-1.43750E+01-1.41034E+01 0.00000E+00
 -1      2978-1.43750E+01-1.30862E+01 0.00000E+00
 -1      2979-1.43750E+01-1.20690E+01 0.00000E+00
 -1      2980-1.43750E+01-1.10517E+01 0.00000E+00
 -1      2981-1.43750E+01-1.00345E+01 0.00000E+00
 -1      2982-1.43750E+01-9.01724E+00 0.00000E+00
 -1      2983-1.54375E+01-3.64828E+01 0.00000E+00
 -1      2984-1.54375E+01-3.54655E+01 0.00000E+00
 -1      2985-1.54375E+01-3.44483E+01 0.00000E+00
 -1      2986-1.54375E+01-3.34310E+01 0.00000E+00
 -1      2987-1.54375E+01-3.24138E+01 0.00000E+00
 -1      2988-1.54375E+01-3.13966E+01 0.00000E+00
 -1      2989-1.54375E+01-3.03793E+01 0.00000E+00
 -1      2990-1.54375E+01-2.93621E+01 0.00000E+00
 -1      2991-1.54375E+01-2.83448E+01 0.00000E+00
 -1      2992-1.54375E+01-2.73276E+01 0.00000E+00
 -1      2993-1.54375E+01-2.63103E+01 0.00000E+00
 -1      2994-1.54375E+01-2.52931E+01 0.00000E+00
 -1      2995-1.54375E+01-2.42759E+01 0.00000E+00
 -1      2996-1.54375E+01-2.32586E+01 0.00000E+00
 -1      2997-1.54375E+01-2.22414E+01 0.00000E+00
 -1      2998-1.54375E+01-2.12241E+01 0.00000E+00
 -1      2999-1.54375E+01-2.02069E+01 0.00000E+00
 -1      3000-1.54375E+01-1.91897E+01 0.00000E+00
 -1      3001-1.54375E+01-1.81724E+01 0.00000E+00
 -1      3002-1.54375E+01-1.71552E+01 0.00000E+00
 -1      3003-1.54375E+01-1.61379E+01 0.00000E+00
 -1      3004-1.54375E+01-1.51207E+01 0.00000E+00
 -1      3005-1.54375E+01-1.41034E+01 0.00000E+00
 -1      3006-1.54375E+01-1.30862E+01 0.00000E+00
 -1      3007-1.54375E+01-1.20690E+01 0.00000E+00
 -1      3008-1.54375E+01-1.10517E+01 0.00000E+00
 -1      3009-1.54375E+01-1.00345E+01 0.00000E+00
 -1      3010-1.54375E+01-9.01724E+00 0.00000E+00
 -1      3011-1.65000E+01-3.64828E+01 0.00000E+00
 -1      3012-1.65000E+01-3.54655E+01 0.00000E+00
 -1      3013-1.65000E+01-3.44483E+01 0.00000E+00
 -1      3014-1.65000E+01-3.34310E+01 0.00000E+00
 -1      3015-1.65000E+01-3.24138E+01 0.00000E+00
 -1      3016-1.65000E+01-3.13966E+01 0.00000E+00
 -1      3017-1.65000E+01-3.03793E+01 0.00000E+00
 -1      3018-1.65000E+01-2.93621E+01 0.00000E+00
 -1      3019-1.65000E+01-2.83448E+01 0.00000E+00
 -1      3020-1.65000E+01-2.73276E+01 0.00000E+00
 -1      3021-1.65000E+01-2.63103E+01 0.00000E+00
 -1      3022-1.65000E+01-2.52931E+01 0.00000E+00
 -1      3023-1.65000E+01-2.42759E+01 0.00000E+00
 -1      3024-1.65000E+01-2.32586E+01 0.00000E+00
 -1      3025-1.65000E+01-2.22414E+01 0.00000E+00
 -1      3026-1.65000E+01-2.12241E+01 0.00000E+00
 -1      3027-1.65000E+01-2.02069E+01 0.00000E+00
 -1      3028-1.65000E+01-1.91897E+01 0.00000E+00
 -1      3029-1.65000E+01-1.81724E+01 0.00000E+00
 -1      3030-1.65000E+01-1.71552E+01 0.00000E+00
 -1      3031-1.65000E+01-1.61379E+01 0.00000E+00
 -1      3032-1.65000E+01-1.51207E+01 0.00000E+00
 -1      3033-1.65000E+01-1.41034E+01 0.00000E+00
 -1      3034-1.65000E+01-1.30862E+01 0.00000E+00
 -1      3035-1.65000E+01-1.20690E+01 0.00000E+00
 -1      3036-1.65000E+01-1.10517E+01 0.00000E+00
 -1      3037-1.65000E+01-1.00345E+01 0.00000E+00
 -1      3038-1.65000E+01-9.01724E+00 0.00000E+00
 -1      3039-1.75625E+01-3.64828E+01 0.00000E+00
 -1      3040-1.75625E+01-3.54655E+01 0.00000E+00
 -1      3041-1.75625E+01-3.44483E+01 0.00000E+00
 -1      3042-1.75625E+01-3.34310E+01 0.00000E+00
 -1      3043-1.75625E+01-3.24138E+01 0.00000E+00
 -1      3044-1.75625E+01-3.13966E+01 0.00000E+00
 -1      3045-1.75625E+01-3.03793E+01 0.00000E+00
 -1      3046-1.75625E+01-2.93621E+01 0.00000E+00
 -1      3047-1.75625E+01-2.83448E+01 0.00000E+00
 -1      3048-1.75625E+01-2.73276E+01 0.00000E+00
 -1      3049-1.75625E+01-2.63103E+01 0.00000E+00
 -1      3050-1.75625E+01-2.52931E+01 0.00000E+00
 -1      3051-1.75625E+01-2.42759E+01 0.00000E+00
 -1      3052-1.75625E+01-2.32586E+01 0.00000E+00
 -1      3053-1.75625E+01-2.22414E+01 0.00000E+00
 -1      3054-1.75625E+01-2.12241E+01 0.00000E+00
 -1      3055-1.75625E+01-2.02069E+01 0.00000E+00
 -1      3056-1.75625E+01-1.91897E+01 0.00000E+00
 -1      3057-1.75625E+01-1.81724E+01 0.00000E+00
 -1      3058-1.75625E+01-1.71552E+01 0.00000E+00
 -1      3059-1.75625E+01-1.61379E+01 0.00000E+00
 -1      3060-1.75625E+01-1.51207E+01 0.00000E+00
 -1      3061-1.75625E+01-1.41034E+01 0.00000E+00
 -1      3062-1.75625E+01-1.30862E+01 0.00000E+00
 -1      3063-1.75625E+01-1.20690E+01 0.00000E+00
 -1      3064-1.75625E+01-1.10517E+01 0.00000E+00
 -1      3065-1.75625E+01-1.00345E+01 0.00000E+00
 -1      3066-1.75625E+01-9.01724E+00 0.00000E+00
 -1      3067-1.86250E+01-3.64828E+01 0.00000E+00
 -1      3068-1.86250E+01-3.54655E+01 0.00000E+00
 -1      3069-1.86250E+01-3.44483E+01 0.00000E+00
 -1      3070-1.86250E+01-3.34310E+01 0.00000E+00
 -1      3071-1.86250E+01-3.24138E+01 0.00000E+00
 -1      3072-1.86250E+01-3.13966E+01 0.00000E+00
 -1      3073-1.86250E+01-3.03793E+01 0.00000E+00
 -1      3074-1.86250E+01-2.93621E+01 0.00000E+00
 -1      3075-1.86250E+01-2.83448E+01 0.00000E+00
 -1      3076-1.86250E+01-2.73276E+01 0.00000E+00
 -1      3077-1.86250E+01-2.63103E+01 0.00000E+00
 -1      3078-1.86250E+01-2.52931E+01 0.00000E+00
 -1      3079-1.86250E+01-2.42759E+01 0.00000E+00
 -1      3080-1.86250E+01-2.32586E+01 0.00000E+00
 -1      3081-1.86250E+01-2.22414E+01 0.00000E+00
 -1      3082-1.86250E+01-2.12241E+01 0.00000E+00
 -1      3083-1.86250E+01-2.02069E+01 0.00000E+00
 -1      3084-1.86250E+01-1.91897E+01 0.00000E+00
 -1      3085-1.86250E+01-1.81724E+01 0.00000E+00
 -1      3086-1.86250E+01-1.71552E+01 0.00000E+00
 -1      3087-1.86250E+01-1.61379E+01 0.00000E+00
 -1      3088-1.86250E+01-1.51207E+01 0.00000E+00
 -1      3089-1.86250E+01-1.41034E+01 0.00000E+00
 -1      3090-1.86250E+01-1.30862E+01 0.00000E+00
 -1      3091-1.86250E+01-1.20690E+01 0.00000E+00
 -1      3092-1.86250E+01-1.10517E+01 0.00000E+00
 -1      3093-1.86250E+01-1.00345E+01 0.00000E+00
 -1      3094-1.86250E+01-9.01724E+00 0.00000E+00
 -1      3095-1.96875E+01-3.64828E+01 0.00000E+00
 -1      3096-1.96875E+01-3.54655E+01 0.00000E+00
 -1      3097-1.96875E+01-3.44483E+01 0.00000E+00
 -1      3098-1.96875E+01-3.34310E+01 0.00000E+00
 -1      3099-1.96875E+01-3.24138E+01 0.00000E+00
 -1      3100-1.96875E+01-3.13966E+01 0.00000E+00
 -1      3101-1.96875E+01-3.03793E+01 0.00000E+00
 -1      3102-1.96875E+01-2.93621E+01 0.00000E+00
 -1      3103-1.96875E+01-2.83448E+01 0.00000E+00
 -1      3104-1.96875E+01-2.73276E+01 0.00000E+00
 -1      3105-1.96875E+01-2.63103E+01 0.00000E+00
 -1      3106-1.96875E+01-2.52931E+01 0.00000E+00
 -1      3107-1.96875E+01-2.42759E+01 0.00000E+00
 -1      3108-1.96875E+01-2.32586E+01 0.00000E+00
 -1      3109-1.96875E+01-2.22414E+01 0.00000E+00
 -1      3110-1.96875E+01-2.12241E+01 0.00000E+00
 -1      3111-1.96875E+01-2.02069E+01 0.00000E+00
 -1      3112-1.96875E+01-1.91897E+01 0.00000E+00
 -1      3113-1.96875E+01-1.81724E+01 0.00000E+00
 -1      3114-1.96875E+01-1.71552E+01 0.00000E+00
 -1      3115-1.96875E+01-1.61379E+01 0.00000E+00
 -1      3116-1.96875E+01-1.51207E+01 0.00000E+00
 -1      3117-1.96875E+01-1.41034E+01 0.00000E+00
 -1      3118-1.96875E+01-1.30862E+01 0.00000E+00
 -1      3119-1.96875E+01-1.20690E+01 0.00000E+00
 -1      3120-1.96875E+01-1.10517E+01 0.00000E+00
 -1      3121-1.96875E+01-1.00345E+01 0.00000E+00
 -1      3122-1.96875E+01-9.01724E+00 0.00000E+00
 -1      3123-2.07500E+01-3.64828E+01 0.00000E+00
 -1      3124-2.07500E+01-3.54655E+01 0.00000E+00
 -1      3125-2.07500E+01-3.44483E+01 0.00000E+00
 -1      3126-2.07500E+01-3.34310E+01 0.00000E+00
 -1      3127-2.07500E+01-3.24138E+01 0.00000E+00
 -1      3128-2.07500E+01-3.13966E+01 0.00000E+00
 -1      3129-2.07500E+01-3.03793E+01 0.00000E+00
 -1      3130-2.07500E+01-2.93621E+01 0.00000E+00
 -1      3131-2.07500E+01-2.83448E+01 0.00000E+00
 -1      3132-2.07500E+01-2.73276E+01 0.00000E+00
 -1      3133-2.07500E+01-2.63103E+01 0.00000E+00
 -1      3134-2.07500E+01-2.52931E+01 0.00000E+00
 -1      3135-2.07500E+01-2.42759E+01 0.00000E+00
 -1      3136-2.07500E+01-2.32586E+01 0.00000E+00
 -1      3137-2.07500E+01-2.22414E+01 0.00000E+00
 -1      3138-2.07500E+01-2.12241E+01 0.00000E+00
 -1      3139-2.07500E+01-2.02069E+01 0.00000E+00
 -1      3140-2.07500E+01-1.91897E+01 0.00000E+00
 -1      3141-2.07500E+01-1.81724E+01 0.00000E+00
 -1      3142-2.07500E+01-1.71552E+01 0.00000E+00
 -1      3143-2.07500E+01-1.61379E+01 0.00000E+00
 -1      3144-2.07500E+01-1.51207E+01 0.00000E+00
 -1      3145-2.07500E+01-1.41034E+01 0.00000E+00
 -1      3146-2.07500E+01-1.30862E+01 0.00000E+00
 -1      3147-2.07500E+01-1.20690E+01 0.00000E+00
 -1      3148-2.07500E+01-1.10517E+01 0.00000E+00
 -1      3149-2.07500E+01-1.00345E+01 0.00000E+00
 -1      3150-2.07500E+01-9.01724E+00 0.00000E+00
 -1      3151-2.18125E+01-3.64828E+01 0.00000E+00
 -1      3152-2.18125E+01-3.54655E+01 0.00000E+00
 -1      3153-2.18125E+01-3.44483E+01 0.00000E+00
 -1      3154-2.18125E+01-3.34310E+01 0.00000E+00
 -1      3155-2.18125E+01-3.24138E+01 0.00000E+00
 -1      3156-2.18125E+01-3.13966E+01 0.00000E+00
 -1      3157-2.18125E+01-3.03793E+01 0.00000E+00
 -1      3158-2.18125E+01-2.93621E+01 0.00000E+00
 -1      3159-2.18125E+01-2.83448E+01 0.00000E+00
 -1      3160-2.18125E+01-2.73276E+01 0.00000E+00
 -1      3161-2.18125E+01-2.63103E+01 0.00000E+00
 -1      3162-2.18125E+01-2.52931E+01 0.00000E+00
 -1      3163-2.18125E+01-2.42759E+01 0.00000E+00
 -1      3164-2.18125E+01-2.32586E+01 0.00000E+00
 -1      3165-2.18125E+01-2.22414E+01 0.00000E+00
 -1      3166-2.18125E+01-2.12241E+01 0.00000E+00
 -1      3167-2.18125E+01-2.02069E+01 0.00000E+00
 -1      3168-2.18125E+01-1.91897E+01 0.00000E+00
 -1      3169-2.18125E+01-1.81724E+01 0.00000E+00
 -1      3170-2.18125E+01-1.71552E+01 0.00000E+00
 -1      3171-2.18125E+01-1.61379E+01 0.00000E+00
 -1      3172-2.18125E+01-1.51207E+01 0.00000E+00
 -1      3173-2.18125E+01-1.41034E+01 0.00000E+00
 -1      3174-2.18125E+01-1.30862E+01 0.00000E+00
 -1      3175-2.18125E+01-1.20690E+01 0.00000E+00
 -1      3176-2.18125E+01-1.10517E+01 0.00000E+00
 -1      3177-2.18125E+01-1.00345E+01 0.00000E+00
 -1      3178-2.18125E+01-9.01724E+00 0.00000E+00
 -1      3179-2.28750E+01-3.64828E+01 0.00000E+00
 -1      3180-2.28750E+01-3.54655E+01 0.00000E+00
 -1      3181-2.28750E+01-3.44483E+01 0.00000E+00
 -1      3182-2.28750E+01-3.34310E+01 0.00000E+00
 -1      3183-2.28750E+01-3.24138E+01 0.00000E+00
 -1      3184-2.28750E+01-3.13966E+01 0.00000E+00
 -1      3185-2.28750E+01-3.03793E+01 0.00000E+00
 -1      3186-2.28750E+01-2.93621E+01 0.00000E+00
 -1      3187-2.28750E+01-2.83448E+01 0.00000E+00
 -1      3188-2.28750E+01-2.73276E+01 0.00000E+00
 -1      3189-2.28750E+01-2.63103E+01 0.00000E+00
 -1      3190-2.28750E+01-2.52931E+01 0.00000E+00
 -1      3191-2.28750E+01-2.42759E+01 0.00000E+00
 -1      3192-2.28750E+01-2.32586E+01 0.00000E+00
 -1      3193-2.28750E+01-2.22414E+01 0.00000E+00
 -1      3194-2.28750E+01-2.12241E+01 0.00000E+00
 -1      3195-2.28750E+01-2.02069E+01 0.00000E+00
 -1      3196-2.28750E+01-1.91897E+01 0.00000E+00
 -1      3197-2.28750E+01-1.81724E+01 0.00000E+00
 -1      3198-2.28750E+01-1.71552E+01 0.00000E+00
 -1      3199-2.28750E+01-1.61379E+01 0.00000E+00
 -1      3200-2.28750E+01-1.51207E+01 0.00000E+00
 -1      3201-2.28750E+01-1.41034E+01 0.00000E+00
 -1      3202-2.28750E+01-1.30862E+01 0.00000E+00
 -1      3203-2.28750E+01-1.20690E+01 0.00000E+00
 -1      3204-2.28750E+01-1.10517E+01 0.00000E+00
 -1      3205-2.28750E+01-1.00345E+01 0.00000E+00
 -1      3206-2.28750E+01-9.01724E+00 0.00000E+00
 -1      3207-2.39375E+01-3.64828E+01 0.00000E+00
 -1      3208-2.39375E+01-3.54655E+01 0.00000E+00
 -1      3209-2.39375E+01-3.44483E+01 0.00000E+00
 -1      3210-2.39375E+01-3.34310E+01 0.00000E+00
 -1      3211-2.39375E+01-3.24138E+01 0.00000E+00
 -1      3212-2.39375E+01-3.13966E+01 0.00000E+00
 -1      3213-2.39375E+01-3.03793E+01 0.00000E+00
 -1      3214-2.39375E+01-2.93621E+01 0.00000E+00
 -1      3215-2.39375E+01-2.83448E+01 0.00000E+00
 -1      3216-2.39375E+01-2.73276E+01 0.00000E+00
 -1      3217-2.39375E+01-2.63103E+01 0.00000E+00
 -1      3218-2.39375E+01-2.52931E+01 0.00000E+00
 -1      3219-2.39375E+01-2.42759E+01 0.00000E+00
 -1      3220-2.39375E+01-2.32586E+01 0.00000E+00
 -1      3221-2.39375E+01-2.22414E+01 0.00000E+00
 -1      3222-2.39375E+01-2.12241E+01 0.00000E+00
 -1      3223-2.39375E+01-2.02069E+01 0.00000E+00
 -1      3224-2.39375E+01-1.91897E+01 0.00000E+00
 -1      3225-2.39375E+01-1.81724E+01 0.00000E+00
 -1      3226-2.39375E+01-1.71552E+01 0.00000E+00
 -1      3227-2.39375E+01-1.61379E+01 0.00000E+00
 -1      3228-2.39375E+01-1.51207E+01 0.00000E+00
 -1      3229-2.39375E+01-1.41034E+01 0.00000E+00
 -1      3230-2.39375E+01-1.30862E+01 0.00000E+00
 -1      3231-2.39375E+01-1.20690E+01 0.00000E+00
 -1      3232-2.39375E+01-1.10517E+01 0.00000E+00
 -1      3233-2.39375E+01-1.00345E+01 0.00000E+00
 -1      3234-2.39375E+01-9.01724E+00 0.00000E+00
 -1      3235-2.39375E+01-6.93333E+00 0.00000E+00
 -1      3236-2.28750E+01-6.93333E+00 0.00000E+00
 -1      3237-2.18125E+01-6.93333E+00 0.00000E+00
 -1      3238-2.07500E+01-6.93333E+00 0.00000E+00
 -1      3239-1.96875E+01-6.93333E+00 0.00000E+00
 -1      3240-1.86250E+01-6.93333E+00 0.00000E+00
 -1      3241-1.75625E+01-6.93333E+00 0.00000E+00
 -1      3242-1.65000E+01-6.93333E+00 0.00000E+00
 -1      3243-1.54375E+01-6.93333E+00 0.00000E+00
 -1      3244-1.43750E+01-6.93333E+00 0.00000E+00
 -1      3245-1.33125E+01-6.93333E+00 0.00000E+00
 -1      3246-1.22500E+01-6.93333E+00 0.00000E+00
 -1      3247-1.11875E+01-6.93333E+00 0.00000E+00
 -1      3248-1.01250E+01-6.93333E+00 0.00000E+00
 -1      3249-9.06250E+00-6.93333E+00 0.00000E+00
 -1      3250-2.39375E+01-5.86667E+00 0.00000E+00
 -1      3251-2.28750E+01-5.86667E+00 0.00000E+00
 -1      3252-2.18125E+01-5.86667E+00 0.00000E+00
 -1      3253-2.07500E+01-5.86667E+00 0.00000E+00
 -1      3254-1.96875E+01-5.86667E+00 0.00000E+00
 -1      3255-1.86250E+01-5.86667E+00 0.00000E+00
 -1      3256-1.75625E+01-5.86667E+00 0.00000E+00
 -1      3257-1.65000E+01-5.86667E+00 0.00000E+00
 -1      3258-1.54375E+01-5.86667E+00 0.00000E+00
 -1      3259-1.43750E+01-5.86667E+00 0.00000E+00
 -1      3260-1.33125E+01-5.86667E+00 0.00000E+00
 -1      3261-1.22500E+01-5.86667E+00 0.00000E+00
 -1      3262-1.11875E+01-5.86667E+00 0.00000E+00
 -1      3263-1.01250E+01-5.86667E+00 0.00000E+00
 -1      3264-9.06250E+00-5.86667E+00 0.00000E+00
 -1      3265-2.39375E+01-4.80000E+00 0.00000E+00
 -1      3266-2.28750E+01-4.80000E+00 0.00000E+00
 -1      3267-2.18125E+01-4.80000E+00 0.00000E+00
 -1      3268-2.07500E+01-4.80000E+00 0.00000E+00
 -1      3269-1.96875E+01-4.80000E+00 0.00000E+00
 -1      3270-1.86250E+01-4.80000E+00 0.00000E+00
 -1      3271-1.75625E+01-4.80000E+00 0.00000E+00
 -1      3272-1.65000E+01-4.80000E+00 0.00000E+00
 -1      3273-1.54375E+01-4.80000E+00 0.00000E+00
 -1      3274-1.43750E+01-4.80000E+00 0.00000E+00
 -1      3275-1.33125E+01-4.80000E+00 0.00000E+00
 -1      3276-1.22500E+01-4.80000E+00 0.00000E+00
 -1      3277-1.11875E+01-4.80000E+00 0.00000E+00
 -1      3278-1.01250E+01-4.80000E+00 0.00000E+00
 -1      3279-9.06250E+00-4.80000E+00 0.00000E+00
 -1      3280-2.39375E+01-3.73333E+00 0.00000E+00
 -1      3281-2.28750E+01-3.73333E+00 0.00000E+00
 -1      3282-2.18125E+01-3.73333E+00 0.00000E+00
 -1      3283-2.07500E+01-3.73333E+00 0.00000E+00
 -1      3284-1.96875E+01-3.73333E+00 0.00000E+00
 -1      3285-1.86250E+01-3.73333E+00 0.00000E+00
 -1      3286-1.75625E+01-3.73333E+00 0.00000E+00
 -1      3287-1.65000E+01-3.73333E+00 0.00000E+00
 -1      3288-1.54375E+01-3.73333E+00 0.00000E+00
 -1      3289-1.43750E+01-3.73333E+00 0.00000E+00
 -1      3290-1.33125E+01-3.73333E+00 0.00000E+00
 -1      3291-1.22500E+01-3.73333E+00 0.00000E+00
 -1      3292-1.11875E+01-3.73333E+00 0.00000E+00
 -1      3293-1.01250E+01-3.73333E+00 0.00000E+00
 -1      3294-9.06250E+00-3.73333E+00 0.00000E+00
 -1      3295-2.39375E+01-2.66667E+00 0.00000E+00
 -1      3296-2.28750E+01-2.66667E+00 0.00000E+00
 -1      3297-2.18125E+01-2.66667E+00 0.00000E+00
 -1      3298-2.07500E+01-2.66667E+00 0.00000E+00
 -1      3299-1.96875E+01-2.66667E+00 0.00000E+00
 -1      3300-1.86250E+01-2.66667E+00 0.00000E+00
 -1      3301-1.75625E+01-2.66667E+00 0.00000E+00
 -1      3302-1.65000E+01-2.66667E+00 0.00000E+00
 -1      3303-1.54375E+01-2.66667E+00 0.00000E+00
 -1      3304-1.43750E+01-2.66667E+00 0.00000E+00
 -1      3305-1.33125E+01-2.66667E+00 0.00000E+00
 -1      3306-1.22500E+01-2.66667E+00 0.00000E+00
 -1      3307-1.11875E+01-2.66667E+00 0.00000E+00
 -1      3308-1.01250E+01-2.66667E+00 0.00000E+00
 -1      3309-9.06250E+00-2.66667E+00 0.00000E+00
 -1      3310-2.39375E+01-1.60000E+00 0.00000E+00
 -1      3311-2.28750E+01-1.60000E+00 0.00000E+00
 -1      3312-2.18125E+01-1.60000E+00 0.00000E+00
 -1      3313-2.07500E+01-1.60000E+00 0.00000E+00
 -1      3314-1.96875E+01-1.60000E+00 0.00000E+00
 -1      3315-1.86250E+01-1.60000E+00 0.00000E+00
 -1      3316-1.75625E+01-1.60000E+00 0.00000E+00
 -1      3317-1.65000E+01-1.60000E+00 0.00000E+00
 -1      3318-1.54375E+01-1.60000E+00 0.00000E+00
 -1      3319-1.43750E+01-1.60000E+00 0.00000E+00
 -1      3320-1.33125E+01-1.60000E+00 0.00000E+00
 -1      3321-1.22500E+01-1.60000E+00 0.00000E+00
 -1      3322-1.11875E+01-1.60000E+00 0.00000E+00
 -1      3323-1.01250E+01-1.60000E+00 0.00000E+00
 -1      3324-9.06250E+00-1.60000E+00 0.00000E+00
 -1      3325-2.39375E+01-5.33333E-01 0.00000E+00
 -1      3326-2.28750E+01-5.33333E-01 0.00000E+00
 -1      3327-2.18125E+01-5.33333E-01 0.00000E+00
 -1      3328-2.07500E+01-5.33333E-01 0.00000E+00
 -1      3329-1.96875E+01-5.33333E-01 0.00000E+00
 -1      3330-1.86250E+01-5.33333E-01 0.00000E+00
 -1      3331-1.75625E+01-5.33333E-01 0.00000E+00
 -1      3332-1.65000E+01-5.33333E-01 0.00000E+00
 -1      3333-1.54375E+01-5.33333E-01 0.00000E+00
 -1      3334-1.43750E+01-5.33333E-01 0.00000E+00
 -1      3335-1.33125E+01-5.33333E-01 0.00000E+00
 -1      3336-1.22500E+01-5.33333E-01 0.00000E+00
 -1      3337-1.11875E+01-5.33333E-01 0.00000E+00
 -1      3338-1.01250E+01-5.33333E-01 0.00000E+00
 -1      3339-9.06250E+00-5.33333E-01 0.00000E+00
 -1      3340-2.39375E+01 5.33333E-01 0.00000E+00
 -1      3341-2.28750E+01 5.33333E-01 0.00000E+00
 -1      3342-2.18125E+01 5.33333E-01 0.00000E+00
 -1      3343-2.07500E+01 5.33333E-01 0.00000E+00
 -1      3344-1.96875E+01 5.33333E-01 0.00000E+00
 -1      3345-1.86250E+01 5.33333E-01 0.00000E+00
 -1      3346-1.75625E+01 5.33333E-01 0.00000E+00
 -1      3347-1.65000E+01 5.33333E-01 0.00000E+00
 -1      3348-1.54375E+01 5.33333E-01 0.00000E+00
 -1      3349-1.43750E+01 5.33333E-01 0.00000E+00
 -1      3350-1.33125E+01 5.33333E-01 0.00000E+00
 -1      3351-1.22500E+01 5.33333E-01 0.00000E+00
 -1      3352-1.11875E+01 5.33333E-01 0.00000E+00
 -1      3353-1.01250E+01 5.33333E-01 0.00000E+00
 -1      3354-9.06250E+00 5.33333E-01 0.00000E+00
 -1      3355-2.39375E+01 1.60000E+00 0.00000E+00
 -1      3356-2.28750E+01 1.60000E+00 0.00000E+00
 -1      3357-2.18125E+01 1.60000E+00 0.00000E+00
 -1      3358-2.07500E+01 1.60000E+00 0.00000E+00
 -1      3359-1.96875E+01 1.60000E+00 0.00000E+00
 -1      3360-1.86250E+01 1.60000E+00 0.00000E+00
 -1      3361-1.75625E+01 1.60000E+00 0.00000E+00
 -1      3362-1.65000E+01 1.60000E+00 0.00000E+00
 -1      3363-1.54375E+01 1.60000E+00 0.00000E+00
 -1      3364-1.43750E+01 1.60000E+00 0.00000E+00
 -1      3365-1.33125E+01 1.60000E+00 0.00000E+00
 -1      3366-1.22500E+01 1.60000E+00 0.00000E+00
 -1      3367-1.11875E+01 1.60000E+00 0.00000E+00
 -1      3368-1.01250E+01 1.60000E+00 0.00000E+00
 -1      3369-9.06250E+00 1.60000E+00 0.00000E+00
 -1      3370-2.39375E+01 2.66667E+00 0.00000E+00
 -1      3371-2.28750E+01 2.66667E+00 0.00000E+00
 -1      3372-2.18125E+01 2.66667E+00 0.00000E+00
 -1      3373-2.07500E+01 2.66667E+00 0.00000E+00
 -1      3374-1.96875E+01 2.66667E+00 0.00000E+00
 -1      3375-1.86250E+01 2.66667E+00 0.00000E+00
 -1      3376-1.75625E+01 2.66667E+00 0.00000E+00
 -1      3377-1.65000E+01 2.66667E+00 0.00000E+00
 -1      3378-1.54375E+01 2.66667E+00 0.00000E+00
 -1      3379-1.43750E+01 2.66667E+00 0.00000E+00
 -1      3380-1.33125E+01 2.66667E+00 0.00000E+00
 -1      3381-1.22500E+01 2.66667E+00 0.00000E+00
 -1      3382-1.11875E+01 2.66667E+00 0.00000E+00
 -1      3383-1.01250E+01 2.66667E+00 0.00000E+00
 -1      3384-9.06250E+00 2.66667E+00 0.00000E+00
 -1      3385-2.39375E+01 3.73333E+00 0.00000E+00
 -1      3386-2.28750E+01 3.73333E+00 0.00000E+00
 -1      3387-2.18125E+01 3.73333E+00 0.00000E+00
 -1      3388-2.07500E+01 3.73333E+00 0.00000E+00
 -1      3389-1.96875E+01 3.73333E+00 0.00000E+00
 -1      3390-1.86250E+01 3.73333E+00 0.00000E+00
 -1      3391-1.75625E+01 3.73333E+00 0.00000E+00
 -1      3392-1.65000E+01 3.73333E+00 0.00000E+00
 -1      3393-1.54375E+01 3.73333E+00 0.00000E+00
 -1      3394-1.43750E+01 3.73333E+00 0.00000E+00
 -1      3395-1.33125E+01 3.73333E+00 0.00000E+00
 -1      3396-1.22500E+01 3.73333E+00 0.00000E+00
 -1      3397-1.11875E+01 3.73333E+00 0.00000E+00
 -1      3398-1.01250E+01 3.73333E+00 0.00000E+00
 -1      3399-9.06250E+00 3.73333E+00 0.00000E+00
 -1      3400-2.39375E+01 4.80000E+00 0.00000E+00
 -1      3401-2.28750E+01 4.80000E+00 0.00000E+00
 -1      3402-2.18125E+01 4.80000E+00 0.00000E+00
 -1      3403-2.07500E+01 4.80000E+00 0.00000E+00
 -1      3404-1.96875E+01 4.80000E+00 0.00000E+00
 -1      3405-1.86250E+01 4.80000E+00 0.00000E+00
 -1      3406-1.75625E+01 4.80000E+00 0.00000E+00
 -1      3407-1.65000E+01 4.80000E+00 0.00000E+00
 -1      3408-1.54375E+01 4.80000E+00 0.00000E+00
 -1      3409-1.43750E+01 4.80000E+00 0.00000E+00
 -1      3410-1.33125E+01 4.80000E+00 0.00000E+00
 -1      3411-1.22500E+01 4.80000E+00 0.00000E+00
 -1      3412-1.11875E+01 4.80000E+00 0.00000E+00
 -1      3413-1.01250E+01 4.80000E+00 0.00000E+00
 -1      3414-9.06250E+00 4.80000E+00 0.00000E+00
 -1      3415-2.39375E+01 5.86667E+00 0.00000E+00
 -1      3416-2.28750E+01 5.86667E+00 0.00000E+00
 -1      3417-2.18125E+01 5.86667E+00 0.00000E+00
 -1      3418-2.07500E+01 5.86667E+00 0.00000E+00
 -1      3419-1.96875E+01 5.86667E+00 0.00000E+00
 -1      3420-1.86250E+01 5.86667E+00 0.00000E+00
 -1      3421-1.75625E+01 5.86667E+00 0.00000E+00
 -1      3422-1.65000E+01 5.86667E+00 0.00000E+00
 -1      3423-1.54375E+01 5.86667E+00 0.00000E+00
 -1      3424-1.43750E+01 5.86667E+00 0.00000E+00
 -1      3425-1.33125E+01 5.86667E+00 0.00000E+00
 -1      3426-1.22500E+01 5.86667E+00 0.00000E+00
 -1      3427-1.11875E+01 5.86667E+00 0.00000E+00
 -1      3428-1.01250E+01 5.86667E+00 0.00000E+00
 -1      3429-9.06250E+00 5.86667E+00 0.00000E+00
 -1      3430-2.39375E+01 6.93333E+00 0.00000E+00
 -1      3431-2.28750E+01 6.93333E+00 0.00000E+00
 -1      3432-2.18125E+01 6.93333E+00 0.00000E+00
 -1      3433-2.07500E+01 6.93333E+00 0.00000E+00
 -1      3434-1.96875E+01 6.93333E+00 0.00000E+00
 -1      3435-1.86250E+01 6.93333E+00 0.00000E+00
 -1      3436-1.75625E+01 6.93333E+00 0.00000E+00
 -1      3437-1.65000E+01 6.93333E+00 0.00000E+00
 -1      3438-1.54375E+01 6.93333E+00 0.00000E+00
 -1      3439-1.43750E+01 6.93333E+00 0.00000E+00
 -1      3440-1.33125E+01 6.93333E+00 0.00000E+00
 -1      3441-1.22500E+01 6.93333E+00 0.00000E+00
 -1      3442-1.11875E+01 6.93333E+00 0.00000E+00
 -1      3443-1.01250E+01 6.93333E+00 0.00000E+00
 -1      3444-9.06250E+00 6.93333E+00 0.00000E+00
 -1      3445-2.39375E+01 9.01724E+00 0.00000E+00
 -1      3446-2.28750E+01 9.01724E+00 0.00000E+00
 -1      3447-2.18125E+01 9.01724E+00 0.00000E+00
 -1      3448-2.07500E+01 9.01724E+00 0.00000E+00
 -1      3449-1.96875E+01 9.01724E+00 0.00000E+00
 -1      3450-1.86250E+01 9.01724E+00 0.00000E+00
 -1      3451-1.75625E+01 9.01724E+00 0.00000E+00
 -1      3452-1.65000E+01 9.01724E+00 0.00000E+00
 -1      3453-1.54375E+01 9.01724E+00 0.00000E+00
 -1      3454-1.43750E+01 9.01724E+00 0.00000E+00
 -1      3455-1.33125E+01 9.01724E+00 0.00000E+00
 -1      3456-1.22500E+01 9.01724E+00 0.00000E+00
 -1      3457-1.11875E+01 9.01724E+00 0.00000E+00
 -1      3458-1.01250E+01 9.01724E+00 0.00000E+00
 -1      3459-9.06250E+00 9.01724E+00 0.00000E+00
 -1      3460-2.39375E+01 1.00345E+01 0.00000E+00
 -1      3461-2.28750E+01 1.00345E+01 0.00000E+00
 -1      3462-2.18125E+01 1.00345E+01 0.00000E+00
 -1      3463-2.07500E+01 1.00345E+01 0.00000E+00
 -1      3464-1.96875E+01 1.00345E+01 0.00000E+00
 -1      3465-1.86250E+01 1.00345E+01 0.00000E+00
 -1      3466-1.75625E+01 1.00345E+01 0.00000E+00
 -1      3467-1.65000E+01 1.00345E+01 0.00000E+00
 -1      3468-1.54375E+01 1.00345E+01 0.00000E+00
 -1      3469-1.43750E+01 1.00345E+01 0.00000E+00
 -1      3470-1.33125E+01 1.00345E+01 0.00000E+00
 -1      3471-1.22500E+01 1.00345E+01 0.00000E+00
 -1      3472-1.11875E+01 1.00345E+01 0.00000E+00
 -1      3473-1.01250E+01 1.00345E+01 0.00000E+00
 -1      3474-9.06250E+00 1.00345E+01 0.00000E+00
 -1      3475-2.39375E+01 1.10517E+01 0.00000E+00
 -1      3476-2.28750E+01 1.10517E+01 0.00000E+00
 -1      3477-2.18125E+01 1.10517E+01 0.00000E+00
 -1      3478-2.07500E+01 1.10517E+01 0.00000E+00
 -1      3479-1.96875E+01 1.10517E+01 0.00000E+00
 -1      3480-1.86250E+01 1.10517E+01 0.00000E+00
 -1      3481-1.75625E+01 1.10517E+01 0.00000E+00
 -1      3482-1.65000E+01 1.10517E+01 0.00000E+00
 -1      3483-1.54375E+01 1.10517E+01 0.00000E+00
 -1      3484-1.43750E+01 1.10517E+01 0.00000E+00
 -1      3485-1.33125E+01 1.10517E+01 0.00000E+00
 -1      3486-1.22500E+01 1.10517E+01 0.00000E+00
 -1      3487-1.11875E+01 1.10517E+01 0.00000E+00
 -1      3488-1.01250E+01 1.10517E+01 0.00000E+00
 -1      3489-9.06250E+00 1.10517E+01 0.00000E+00
 -1      3490-2.39375E+01 1.20690E+01 0.00000E+00
 -1      3491-2.28750E+01 1.20690E+01 0.00000E+00
 -1      3492-2.18125E+01 1.20690E+01 0.00000E+00
 -1      3493-2.07500E+01 1.20690E+01 0.00000E+00
 -1      3494-1.96875E+01 1.20690E+01 0.00000E+00
 -1      3495-1.86250E+01 1.20690E+01 0.00000E+00
 -1      3496-1.75625E+01 1.20690E+01 0.00000E+00
 -1      3497-1.65000E+01 1.20690E+01 0.00000E+00
 -1      3498-1.54375E+01 1.20690E+01 0.00000E+00
 -1      3499-1.43750E+01 1.20690E+01 0.00000E+00
 -1      3500-1.33125E+01 1.20690E+01 0.00000E+00
 -1      3501-1.22500E+01 1.20690E+01 0.00000E+00
 -1      3502-1.11875E+01 1.20690E+01 0.00000E+00
 -1      3503-1.01250E+01 1.20690E+01 0.00000E+00
 -1      3504-9.06250E+00 1.20690E+01 0.00000E+00
 -1      3505-2.39375E+01 1.30862E+01 0.00000E+00
 -1      3506-2.28750E+01 1.30862E+01 0.00000E+00
 -1      3507-2.18125E+01 1.30862E+01 0.00000E+00
 -1      3508-2.07500E+01 1.30862E+01 0.00000E+00
 -1      3509-1.96875E+01 1.30862E+01 0.00000E+00
 -1      3510-1.86250E+01 1.30862E+01 0.00000E+00
 -1      3511-1.75625E+01 1.30862E+01 0.00000E+00
 -1      3512-1.65000E+01 1.30862E+01 0.00000E+00
 -1      3513-1.54375E+01 1.30862E+01 0.00000E+00
 -1      3514-1.43750E+01 1.30862E+01 0.00000E+00
 -1      3515-1.33125E+01 1.30862E+01 0.00000E+00
 -1      3516-1.22500E+01 1.30862E+01 0.00000E+00
 -1      3517-1.11875E+01 1.30862E+01 0.00000E+00
 -1      3518-1.01250E+01 1.30862E+01 0.00000E+00
 -1      3519-9.06250E+00 1.30862E+01 0.00000E+00
 -1      3520-2.39375E+01 1.41034E+01 0.00000E+00
 -1      3521-2.28750E+01 1.41034E+01 0.00000E+00
 -1      3522-2.18125E+01 1.41034E+01 0.00000E+00
 -1      3523-2.07500E+01 1.41034E+01 0.00000E+00
 -1      3524-1.96875E+01 1.41034E+01 0.00000E+00
 -1      3525-1.86250E+01 1.41034E+01 0.00000E+00
 -1      3526-1.75625E+01 1.41034E+01 0.00000E+00
 -1      3527-1.65000E+01 1.41034E+01 0.00000E+00
 -1      3528-1.54375E+01 1.41034E+01 0.00000E+00
 -1      3529-1.43750E+01 1.41034E+01 0.00000E+00
 -1      3530-1.33125E+01 1.41034E+01 0.00000E+00
 -1      3531-1.22500E+01 1.41034E+01 0.00000E+00
 -1      3532-1.11875E+01 1.41034E+01 0.00000E+00
 -1      3533-1.01250E+01 1.41034E+01 0.00000E+00
 -1      3534-9.06250E+00 1.41034E+01 0.00000E+00
 -1      3535-2.39375E+01 1.51207E+01 0.00000E+00
 -1      3536-2.28750E+01 1.51207E+01 0.00000E+00
 -1      3537-2.18125E+01 1.51207E+01 0.00000E+00
 -1      3538-2.07500E+01 1.51207E+01 0.00000E+00
 -1      3539-1.96875E+01 1.51207E+01 0.00000E+00
 -1      3540-1.86250E+01 1.51207E+01 0.00000E+00
 -1      3541-1.75625E+01 1.51207E+01 0.00000E+00
 -1      3542-1.65000E+01 1.51207E+01 0.00000E+00
 -1      3543-1.54375E+01 1.51207E+01 0.00000E+00
 -1      3544-1.43750E+01 1.51207E+01 0.00000E+00
 -1      3545-1.33125E+01 1.51207E+01 0.00000E+00
 -1      3546-1.22500E+01 1.51207E+01 0.00000E+00
 -1      3547-1.11875E+01 1.51207E+01 0.00000E+00
 -1      3548-1.01250E+01 1.51207E+01 0.00000E+00
 -1      3549-9.06250E+00 1.51207E+01 0.00000E+00
 -1      3550-2.39375E+01 1.61379E+01 0.00000E+00
 -1      3551-2.28750E+01 1.61379E+01 0.00000E+00
 -1      3552-2.18125E+01 1.61379E+01 0.00000E+00
 -1      3553-2.07500E+01 1.61379E+01 0.00000E+00
 -1      3554-1.96875E+01 1.61379E+01 0.00000E+00
 -1      3555-1.86250E+01 1.61379E+01 0.00000E+00
 -1      3556-1.75625E+01 1.61379E+01 0.00000E+00
 -1      3557-1.65000E+01 1.61379E+01 0.00000E+00
 -1      3558-1.54375E+01 1.61379E+01 0.00000E+00
 -1      3559-1.43750E+01 1.61379E+01 0.00000E+00
 -1      3560-1.33125E+01 1.61379E+01 0.00000E+00
 -1      3561-1.22500E+01 1.61379E+01 0.00000E+00
 -1      3562-1.11875E+01 1.61379E+01 0.00000E+00
 -1      3563-1.01250E+01 1.61379E+01 0.00000E+00
 -1      3564-9.06250E+00 1.61379E+01 0.00000E+00
 -1      3565-2.39375E+01 1.71552E+01 0.00000E+00
 -1      3566-2.28750E+01 1.71552E+01 0.00000E+00
 -1      3567-2.18125E+01 1.71552E+01 0.00000E+00
 -1      3568-2.07500E+01 1.71552E+01 0.00000E+00
 -1      3569-1.96875E+01 1.71552E+01 0.00000E+00
 -1      3570-1.86250E+01 1.71552E+01 0.00000E+00
 -1      3571-1.75625E+01 1.71552E+01 0.00000E+00
 -1      3572-1.65000E+01 1.71552E+01 0.00000E+00
 -1      3573-1.54375E+01 1.71552E+01 0.00000E+00
 -1      3574-1.43750E+01 1.71552E+01 0.00000E+00
 -1      3575-1.33125E+01 1.71552E+01 0.00000E+00
 -1      3576-1.22500E+01 1.71552E+01 0.00000E+00
 -1      3577-1.11875E+01 1.71552E+01 0.00000E+00
 -1      3578-1.01250E+01 1.71552E+01 0.00000E+00
 -1      3579-9.06250E+00 1.71552E+01 0.00000E+00
 -1      3580-2.39375E+01 1.81724E+01 0.00000E+00
 -1      3581-2.28750E+01 1.81724E+01 0.00000E+00
 -1      3582-2.18125E+01 1.81724E+01 0.00000E+00
 -1      3583-2.07500E+01 1.81724E+01 0.00000E+00
 -1      3584-1.96875E+01 1.81724E+01 0.00000E+00
 -1      3585-1.86250E+01 1.81724E+01 0.00000E+00
 -1      3586-1.75625E+01 1.81724E+01 0.00000E+00
 -1      3587-1.65000E+01 1.81724E+01 0.00000E+00
 -1      3588-1.54375E+01 1.81724E+01 0.00000E+00
 -1      3589-1.43750E+01 1.81724E+01 0.00000E+00
 -1      3590-1.33125E+01 1.81724E+01 0.00000E+00
 -1      3591-1.22500E+01 1.81724E+01 0.00000E+00
 -1      3592-1.11875E+01 1.81724E+01 0.00000E+00
 -1      3593-1.01250E+01 1.81724E+01 0.00000E+00
 -1      3594-9.06250E+00 1.81724E+01 0.00000E+00
 -1      3595-2.39375E+01 1.91897E+01 0.00000E+00
 -1      3596-2.28750E+01 1.91897E+01 0.00000E+00
 -1      3597-2.18125E+01 1.91897E+01 0.00000E+00
 -1      3598-2.07500E+01 1.91897E+01 0.00000E+00
 -1      3599-1.96875E+01 1.91897E+01 0.00000E+00
 -1      3600-1.86250E+01 1.91897E+01 0.00000E+00
 -1      3601-1.75625E+01 1.91897E+01 0.00000E+00
 -1      3602-1.65000E+01 1.91897E+01 0.00000E+00
 -1      3603-1.54375E+01 1.91897E+01 0.00000E+00
 -1      3604-1.43750E+01 1.91897E+01 0.00000E+00
 -1      3605-1.33125E+01 1.91897E+01 0.00000E+00
 -1      3606-1.22500E+01 1.91897E+01 0.00000E+00
 -1      3607-1.11875E+01 1.91897E+01 0.00000E+00
 -1      3608-1.01250E+01 1.91897E+01 0.00000E+00
 -1      3609-9.06250E+00 1.91897E+01 0.00000E+00
 -1      3610-2.39375E+01 2.02069E+01 0.00000E+00
 -1      3611-2.28750E+01 2.02069E+01 0.00000E+00
 -1      3612-2.18125E+01 2.02069E+01 0.00000E+00
 -1      3613-2.07500E+01 2.02069E+01 0.00000E+00
 -1      3614-1.96875E+01 2.02069E+01 0.00000E+00
 -1      3615-1.86250E+01 2.02069E+01 0.00000E+00
 -1      3616-1.75625E+01 2.02069E+01 0.00000E+00
 -1      3617-1.65000E+01 2.02069E+01 0.00000E+00
 -1      3618-1.54375E+01 2.02069E+01 0.00000E+00
 -1      3619-1.43750E+01 2.02069E+01 0.00000E+00
 -1      3620-1.33125E+01 2.02069E+01 0.00000E+00
 -1      3621-1.22500E+01 2.02069E+01 0.00000E+00
 -1      3622-1.11875E+01 2.02069E+01 0.00000E+00
 -1      3623-1.01250E+01 2.02069E+01 0.00000E+00
 -1      3624-9.06250E+00 2.02069E+01 0.00000E+00
 -1      3625-2.39375E+01 2.12241E+01 0.00000E+00
 -1      3626-2.28750E+01 2.12241E+01 0.00000E+00
 -1      3627-2.18125E+01 2.12241E+01 0.00000E+00
 -1      3628-2.07500E+01 2.12241E+01 0.00000E+00
 -1      3629-1.96875E+01 2.12241E+01 0.00000E+00
 -1      3630-1.86250E+01 2.12241E+01 0.00000E+00
 -1      3631-1.75625E+01 2.12241E+01 0.00000E+00
 -1      3632-1.65000E+01 2.12241E+01 0.00000E+00
 -1      3633-1.54375E+01 2.12241E+01 0.00000E+00
 -1      3634-1.43750E+01 2.12241E+01 0.00000E+00
 -1      3635-1.33125E+01 2.12241E+01 0.00000E+00
 -1      3636-1.22500E+01 2.12241E+01 0.00000E+00
 -1      3637-1.11875E+01 2.12241E+01 0.00000E+00
 -1      3638-1.01250E+01 2.12241E+01 0.00000E+00
 -1      3639-9.06250E+00 2.12241E+01 0.00000E+00
 -1      3640-2.39375E+01 2.22414E+01 0.00000E+00
 -1      3641-2.28750E+01 2.22414E+01 0.00000E+00
 -1      3642-2.18125E+01 2.22414E+01 0.00000E+00
 -1      3643-2.07500E+01 2.22414E+01 0.00000E+00
 -1      3644-1.96875E+01 2.22414E+01 0.00000E+00
 -1      3645-1.86250E+01 2.22414E+01 0.00000E+00
 -1      3646-1.75625E+01 2.22414E+01 0.00000E+00
 -1      3647-1.65000E+01 2.22414E+01 0.00000E+00
 -1      3648-1.54375E+01 2.22414E+01 0.00000E+00
 -1      3649-1.43750E+01 2.22414E+01 0.00000E+00
 -1      3650-1.33125E+01 2.22414E+01 0.00000E+00
 -1      3651-1.22500E+01 2.22414E+01 0.00000E+00
 -1      3652-1.11875E+01 2.22414E+01 0.00000E+00
 -1      3653-1.01250E+01 2.22414E+01 0.00000E+00
 -1      3654-9.06250E+00 2.22414E+01 0.00000E+00
 -1      3655-2.39375E+01 2.32586E+01 0.00000E+00
 -1      3656-2.28750E+01 2.32586E+01 0.00000E+00
 -1      3657-2.18125E+01 2.32586E+01 0.00000E+00
 -1      3658-2.07500E+01 2.32586E+01 0.00000E+00
 -1      3659-1.96875E+01 2.32586E+01 0.00000E+00
 -1      3660-1.86250E+01 2.32586E+01 0.00000E+00
 -1      3661-1.75625E+01 2.32586E+01 0.00000E+00
 -1      3662-1.65000E+01 2.32586E+01 0.00000E+00
 -1      3663-1.54375E+01 2.32586E+01 0.00000E+00
 -1      3664-1.43750E+01 2.32586E+01 0.00000E+00
 -1      3665-1.33125E+01 2.32586E+01 0.00000E+00
 -1      3666-1.22500E+01 2.32586E+01 0.00000E+00
 -1      3667-1.11875E+01 2.32586E+01 0.00000E+00
 -1      3668-1.01250E+01 2.32586E+01 0.00000E+00
 -1      3669-9.06250E+00 2.32586E+01 0.00000E+00
 -1      3670-2.39375E+01 2.42759E+01 0.00000E+00
 -1      3671-2.28750E+01 2.42759E+01 0.00000E+00
 -1      3672-2.18125E+01 2.42759E+01 0.00000E+00
 -1      3673-2.07500E+01 2.42759E+01 0.00000E+00
 -1      3674-1.96875E+01 2.42759E+01 0.00000E+00
 -1      3675-1.86250E+01 2.42759E+01 0.00000E+00
 -1      3676-1.75625E+01 2.42759E+01 0.00000E+00
 -1      3677-1.65000E+01 2.42759E+01 0.00000E+00
 -1      3678-1.54375E+01 2.42759E+01 0.00000E+00
 -1      3679-1.43750E+01 2.42759E+01 0.00000E+00
 -1      3680-1.33125E+01 2.42759E+01 0.00000E+00
 -1      3681-1.22500E+01 2.42759E+01 0.00000E+00
 -1      3682-1.11875E+01 2.42759E+01 0.00000E+00
 -1      3683-1.01250E+01 2.42759E+01 0.00000E+00
 -1      3684-9.06250E+00 2.42759E+01 0.00000E+00
 -1      3685-2.39375E+01 2.52931E+01 0.00000E+00
 -1      3686-2.28750E+01 2.52931E+01 0.00000E+00
 -1      3687-2.18125E+01 2.52931E+01 0.00000E+00
 -1      3688-2.07500E+01 2.52931E+01 0.00000E+00
 -1      3689-1.96875E+01 2.52931E+01 0.00000E+00
 -1      3690-1.86250E+01 2.52931E+01 0.00000E+00
 -1      3691-1.75625E+01 2.52931E+01 0.00000E+00
 -1      3692-1.65000E+01 2.52931E+01 0.00000E+00
 -1      3693-1.54375E+01 2.52931E+01 0.00000E+00
 -1      3694-1.43750E+01 2.52931E+01 0.00000E+00
 -1      3695-1.33125E+01 2.52931E+01 0.00000E+00
 -1      3696-1.22500E+01 2.52931E+01 0.00000E+00
 -1      3697-1.11875E+01 2.52931E+01 0.00000E+00
 -1      3698-1.01250E+01 2.52931E+01 0.00000E+00
 -1      3699-9.06250E+00 2.52931E+01 0.00000E+00
 -1      3700-2.39375E+01 2.63103E+01 0.00000E+00
 -1      3701-2.28750E+01 2.63103E+01 0.00000E+00
 -1      3702-2.18125E+01 2.63103E+01 0.00000E+00
 -1      3703-2.07500E+01 2.63103E+01 0.00000E+00
 -1      3704-1.96875E+01 2.63103E+01 0.00000E+00
 -1      3705-1.86250E+01 2.63103E+01 0.00000E+00
 -1      3706-1.75625E+01 2.63103E+01 0.00000E+00
 -1      3707-1.65000E+01 2.63103E+01 0.00000E+00
 -1      3708-1.54375E+01 2.63103E+01 0.00000E+00
 -1      3709-1.43750E+01 2.63103E+01 0.00000E+00
 -1      3710-1.33125E+01 2.63103E+01 0.00000E+00
 -1      3711-1.22500E+01 2.63103E+01 0.00000E+00
 -1      3712-1.11875E+01 2.63103E+01 0.00000E+00
 -1      3713-1.01250E+01 2.63103E+01 0.00000E+00
 -1      3714-9.06250E+00 2.63103E+01 0.00000E+00
 -1      3715-2.39375E+01 2.73276E+01 0.00000E+00
 -1      3716-2.28750E+01 2.73276E+01 0.00000E+00
 -1      3717-2.18125E+01 2.73276E+01 0.00000E+00
 -1      3718-2.07500E+01 2.73276E+01 0.00000E+00
 -1      3719-1.96875E+01 2.73276E+01 0.00000E+00
 -1      3720-1.86250E+01 2.73276E+01 0.00000E+00
 -1      3721-1.75625E+01 2.73276E+01 0.00000E+00
 -1      3722-1.65000E+01 2.73276E+01 0.00000E+00
 -1      3723-1.54375E+01 2.73276E+01 0.00000E+00
 -1      3724-1.43750E+01 2.73276E+01 0.00000E+00
 -1      3725-1.33125E+01 2.73276E+01 0.00000E+00
 -1      3726-1.22500E+01 2.73276E+01 0.00000E+00
 -1      3727-1.11875E+01 2.73276E+01 0.00000E+00
 -1      3728-1.01250E+01 2.73276E+01 0.00000E+00
 -1      3729-9.06250E+00 2.73276E+01 0.00000E+00
 -1      3730-2.39375E+01 2.83448E+01 0.00000E+00
 -1      3731-2.28750E+01 2.83448E+01 0.00000E+00
 -1      3732-2.18125E+01 2.83448E+01 0.00000E+00
 -1      3733-2.07500E+01 2.83448E+01 0.00000E+00
 -1      3734-1.96875E+01 2.83448E+01 0.00000E+00
 -1      3735-1.86250E+01 2.83448E+01 0.00000E+00
 -1      3736-1.75625E+01 2.83448E+01 0.00000E+00
 -1      3737-1.65000E+01 2.83448E+01 0.00000E+00
 -1      3738-1.54375E+01 2.83448E+01 0.00000E+00
 -1      3739-1.43750E+01 2.83448E+01 0.00000E+00
 -1      3740-1.33125E+01 2.83448E+01 0.00000E+00
 -1      3741-1.22500E+01 2.83448E+01 0.00000E+00
 -1      3742-1.11875E+01 2.83448E+01 0.00000E+00
 -1      3743-1.01250E+01 2.83448E+01 0.00000E+00
 -1      3744-9.06250E+00 2.83448E+01 0.00000E+00
 -1      3745-2.39375E+01 2.93621E+01 0.00000E+00
 -1      3746-2.28750E+01 2.93621E+01 0.00000E+00
 -1      3747-2.18125E+01 2.93621E+01 0.00000E+00
 -1      3748-2.07500E+01 2.93621E+01 0.00000E+00
 -1      3749-1.96875E+01 2.93621E+01 0.00000E+00
 -1      3750-1.86250E+01 2.93621E+01 0.00000E+00
 -1      3751-1.75625E+01 2.93621E+01 0.00000E+00
 -1      3752-1.65000E+01 2.93621E+01 0.00000E+00
 -1      3753-1.54375E+01 2.93621E+01 0.00000E+00
 -1      3754-1.43750E+01 2.93621E+01 0.00000E+00
 -1      3755-1.33125E+01 2.93621E+01 0.00000E+00
 -1      3756-1.22500E+01 2.93621E+01 0.00000E+00
 -1      3757-1.11875E+01 2.93621E+01 0.00000E+00
 -1      3758-1.01250E+01 2.93621E+01 0.00000E+00
 -1      3759-9.06250E+00 2.93621E+01 0.00000E+00
 -1      3760-2.39375E+01 3.03793E+01 0.00000E+00
 -1      3761-2.28750E+01 3.03793E+01 0.00000E+00
 -1      3762-2.18125E+01 3.03793E+01 0.00000E+00
 -1      3763-2.07500E+01 3.03793E+01 0.00000E+00
 -1      3764-1.96875E+01 3.03793E+01 0.00000E+00
 -1      3765-1.86250E+01 3.03793E+01 0.00000E+00
 -1      3766-1.75625E+01 3.03793E+01 0.00000E+00
 -1      3767-1.65000E+01 3.03793E+01 0.00000E+00
 -1      3768-1.54375E+01 3.03793E+01 0.00000E+00
 -1      3769-1.43750E+01 3.03793E+01 0.00000E+00
 -1      3770-1.33125E+01 3.03793E+01 0.00000E+00
 -1      3771-1.22500E+01 3.03793E+01 0.00000E+00
 -1      3772-1.11875E+01 3.03793E+01 0.00000E+00
 -1      3773-1.01250E+01 3.03793E+01 0.00000E+00
 -1      3774-9.06250E+00 3.03793E+01 0.00000E+00
 -1      3775-2.39375E+01 3.13966E+01 0.00000E+00
 -1      3776-2.28750E+01 3.13966E+01 0.00000E+00
 -1      3777-2.18125E+01 3.13966E+01 0.00000E+00
 -1      3778-2.07500E+01 3.13966E+01 0.00000E+00
 -1      3779-1.96875E+01 3.13966E+01 0.00000E+00
 -1      3780-1.86250E+01 3.13966E+01 0.00000E+00
 -1      3781-1.75625E+01 3.13966E+01 0.00000E+00
 -1      3782-1.65000E+01 3.13966E+01 0.00000E+00
 -1      3783-1.54375E+01 3.13966E+01 0.00000E+00
 -1      3784-1.43750E+01 3.13966E+01 0.00000E+00
 -1      3785-1.33125E+01 3.13966E+01 0.00000E+00
 -1      3786-1.22500E+01 3.13966E+01 0.00000E+00
 -1      3787-1.11875E+01 3.13966E+01 0.00000E+00
 -1      3788-1.01250E+01 3.13966E+01 0.00000E+00
 -1      3789-9.06250E+00 3.13966E+01 0.00000E+00
 -1      3790-2.39375E+01 3.24138E+01 0.00000E+00
 -1      3791-2.28750E+01 3.24138E+01 0.00000E+00
 -1      3792-2.18125E+01 3.24138E+01 0.00000E+00
 -1      3793-2.07500E+01 3.24138E+01 0.00000E+00
 -1      3794-1.96875E+01 3.24138E+01 0.00000E+00
 -1      3795-1.86250E+01 3.24138E+01 0.00000E+00
 -1      3796-1.75625E+01 3.24138E+01 0.00000E+00
 -1      3797-1.65000E+01 3.24138E+01 0.00000E+00
 -1      3798-1.54375E+01 3.24138E+01 0.00000E+00
 -1      3799-1.43750E+01 3.24138E+01 0.00000E+00
 -1      3800-1.33125E+01 3.24138E+01 0.00000E+00
 -1      3801-1.22500E+01 3.24138E+01 0.00000E+00
 -1      3802-1.11875E+01 3.24138E+01 0.00000E+00
 -1      3803-1.01250E+01 3.24138E+01 0.00000E+00
 -1      3804-9.06250E+00 3.24138E+01 0.00000E+00
 -1      3805-2.39375E+01 3.34310E+01 0.00000E+00
 -1      3806-2.28750E+01 3.34310E+01 0.00000E+00
 -1      3807-2.18125E+01 3.34310E+01 0.00000E+00
 -1      3808-2.07500E+01 3.34310E+01 0.00000E+00
 -1      3809-1.96875E+01 3.34310E+01 0.00000E+00
 -1      3810-1.86250E+01 3.34310E+01 0.00000E+00
 -1      3811-1.75625E+01 3.34310E+01 0.00000E+00
 -1      3812-1.65000E+01 3.34310E+01 0.00000E+00
 -1      3813-1.54375E+01 3.34310E+01 0.00000E+00
 -1      3814-1.43750E+01 3.34310E+01 0.00000E+00
 -1      3815-1.33125E+01 3.34310E+01 0.00000E+00
 -1      3816-1.22500E+01 3.34310E+01 0.00000E+00
 -1      3817-1.11875E+01 3.34310E+01 0.00000E+00
 -1      3818-1.01250E+01 3.34310E+01 0.00000E+00
 -1      3819-9.06250E+00 3.34310E+01 0.00000E+00
 -1      3820-2.39375E+01 3.44483E+01 0.00000E+00
 -1      3821-2.28750E+01 3.44483E+01 0.00000E+00
 -1      3822-2.18125E+01 3.44483E+01 0.00000E+00
 -1      3823-2.07500E+01 3.44483E+01 0.00000E+00
 -1      3824-1.96875E+01 3.44483E+01 0.00000E+00
 -1      3825-1.86250E+01 3.44483E+01 0.00000E+00
 -1      3826-1.75625E+01 3.44483E+01 0.00000E+00
 -1      3827-1.65000E+01 3.44483E+01 0.00000E+00
 -1      3828-1.54375E+01 3.44483E+01 0.00000E+00
 -1      3829-1.43750E+01 3.44483E+01 0.00000E+00
 -1      3830-1.33125E+01 3.44483E+01 0.00000E+00
 -1      3831-1.22500E+01 3.44483E+01 0.00000E+00
 -1      3832-1.11875E+01 3.44483E+01 0.00000E+00
 -1      3833-1.01250E+01 3.44483E+01 0.00000E+00
 -1      3834-9.06250E+00 3.44483E+01 0.00000E+00
 -1      3835-2.39375E+01 3.54655E+01 0.00000E+00
 -1      3836-2.28750E+01 3.54655E+01 0.00000E+00
 -1      3837-2.18125E+01 3.54655E+01 0.00000E+00
 -1      3838-2.07500E+01 3.54655E+01 0.00000E+00
 -1      3839-1.96875E+01 3.54655E+01 0.00000E+00
 -1      3840-1.86250E+01 3.54655E+01 0.00000E+00
 -1      3841-1.75625E+01 3.54655E+01 0.00000E+00
 -1      3842-1.65000E+01 3.54655E+01 0.00000E+00
 -1      3843-1.54375E+01 3.54655E+01 0.00000E+00
 -1      3844-1.43750E+01 3.54655E+01 0.00000E+00
 -1      3845-1.33125E+01 3.54655E+01 0.00000E+00
 -1      3846-1.22500E+01 3.54655E+01 0.00000E+00
 -1      3847-1.11875E+01 3.54655E+01 0.00000E+00
 -1      3848-1.01250E+01 3.54655E+01 0.00000E+00
 -1      3849-9.06250E+00 3.54655E+01 0.00000E+00
 -1      3850-2.39375E+01 3.64828E+01 0.00000E+00
 -1      3851-2.28750E+01 3.64828E+01 0.00000E+00
 -1      3852-2.18125E+01 3.64828E+01 0.00000E+00
 -1      3853-2.07500E+01 3.64828E+01 0.00000E+00
 -1      3854-1.96875E+01 3.64828E+01 0.00000E+00
 -1      3855-1.86250E+01 3.64828E+01 0.00000E+00
 -1      3856-1.75625E+01 3.64828E+01 0.00000E+00
 -1      3857-1.65000E+01 3.64828E+01 0.00000E+00
 -1      3858-1.54375E+01 3.64828E+01 0.00000E+00
 -1      3859-1.43750E+01 3.64828E+01 0.00000E+00
 -1      3860-1.33125E+01 3.64828E+01 0.00000E+00
 -1      3861-1.22500E+01 3.64828E+01 0.00000E+00
 -1      3862-1.11875E+01 3.64828E+01 0.00000E+00
 -1      3863-1.01250E+01 3.64828E+01 0.00000E+00
 -1      3864-9.06250E+00 3.64828E+01 0.00000E+00
 -1      3865-6.93333E+00 3.64828E+01 0.00000E+00
 -1      3866-6.93333E+00 3.54655E+01 0.00000E+00
 -1      3867-6.93333E+00 3.44483E+01 0.00000E+00
 -1      3868-6.93333E+00 3.34310E+01 0.00000E+00
 -1      3869-6.93333E+00 3.24138E+01 0.00000E+00
 -1      3870-6.93333E+00 3.13966E+01 0.00000E+00
 -1      3871-6.93333E+00 3.03793E+01 0.00000E+00
 -1      3872-6.93333E+00 2.93621E+01 0.00000E+00
 -1      3873-6.93333E+00 2.83448E+01 0.00000E+00
 -1      3874-6.93333E+00 2.73276E+01 0.00000E+00
 -1      3875-6.93333E+00 2.63103E+01 0.00000E+00
 -1      3876-6.93333E+00 2.52931E+01 0.00000E+00
 -1      3877-6.93333E+00 2.42759E+01 0.00000E+00
 -1      3878-6.93333E+00 2.32586E+01 0.00000E+00
 -1      3879-6.93333E+00 2.22414E+01 0.00000E+00
 -1      3880-6.93333E+00 2.12241E+01 0.00000E+00
 -1      3881-6.93333E+00 2.02069E+01 0.00000E+00
 -1      3882-6.93333E+00 1.91897E+01 0.00000E+00
 -1      3883-6.93333E+00 1.81724E+01 0.00000E+00
 -1      3884-6.93333E+00 1.71552E+01 0.00000E+00
 -1      3885-6.93333E+00 1.61379E+01 0.00000E+00
 -1      3886-6.93333E+00 1.51207E+01 0.00000E+00
 -1      3887-6.93333E+00 1.41034E+01 0.00000E+00
 -1      3888-6.93333E+00 1.30862E+01 0.00000E+00
 -1      3889-6.93333E+00 1.20690E+01 0.00000E+00
 -1      3890-6.93333E+00 1.10517E+01 0.00000E+00
 -1      3891-6.93333E+00 1.00345E+01 0.00000E+00
 -1      3892-6.93333E+00 9.01724E+00 0.00000E+00
 -1      3893-5.86667E+00 3.64828E+01 0.00000E+00
 -1      3894-5.86667E+00 3.54655E+01 0.00000E+00
 -1      3895-5.86667E+00 3.44483E+01 0.00000E+00
 -1      3896-5.86667E+00 3.34310E+01 0.00000E+00
 -1      3897-5.86667E+00 3.24138E+01 0.00000E+00
 -1      3898-5.86667E+00 3.13966E+01 0.00000E+00
 -1      3899-5.86667E+00 3.03793E+01 0.00000E+00
 -1      3900-5.86667E+00 2.93621E+01 0.00000E+00
 -1      3901-5.86667E+00 2.83448E+01 0.00000E+00
 -1      3902-5.86667E+00 2.73276E+01 0.00000E+00
 -1      3903-5.86667E+00 2.63103E+01 0.00000E+00
 -1      3904-5.86667E+00 2.52931E+01 0.00000E+00
 -1      3905-5.86667E+00 2.42759E+01 0.00000E+00
 -1      3906-5.86667E+00 2.32586E+01 0.00000E+00
 -1      3907-5.86667E+00 2.22414E+01 0.00000E+00
 -1      3908-5.86667E+00 2.12241E+01 0.00000E+00
 -1      3909-5.86667E+00 2.02069E+01 0.00000E+00
 -1      3910-5.86667E+00 1.91897E+01 0.00000E+00
 -1      3911-5.86667E+00 1.81724E+01 0.00000E+00
 -1      3912-5.86667E+00 1.71552E+01 0.00000E+00
 -1      3913-5.86667E+00 1.61379E+01 0.00000E+00
 -1      3914-5.86667E+00 1.51207E+01 0.00000E+00
 -1      3915-5.86667E+00 1.41034E+01 0.00000E+00
 -1      3916-5.86667E+00 1.30862E+01 0.00000E+00
 -1      3917-5.86667E+00 1.20690E+01 0.00000E+00
 -1      3918-5.86667E+00 1.10517E+01 0.00000E+00
 -1      3919-5.86667E+00 1.00345E+01 0.00000E+00
 -1      3920-5.86667E+00 9.01724E+00 0.00000E+00
 -1      3921-4.80000E+00 3.64828E+01 0.00000E+00
 -1      3922-4.80000E+00 3.54655E+01 0.00000E+00
 -1      3923-4.80000E+00 3.44483E+01 0.00000E+00
 -1      3924-4.80000E+00 3.34310E+01 0.00000E+00
 -1      3925-4.80000E+00 3.24138E+01 0.00000E+00
 -1      3926-4.80000E+00 3.13966E+01 0.00000E+00
 -1      3927-4.80000E+00 3.03793E+01 0.00000E+00
 -1      3928-4.80000E+00 2.93621E+01 0.00000E+00
 -1      3929-4.80000E+00 2.83448E+01 0.00000E+00
 -1      3930-4.80000E+00 2.73276E+01 0.00000E+00
 -1      3931-4.80000E+00 2.63103E+01 0.00000E+00
 -1      3932-4.80000E+00 2.52931E+01 0.00000E+00
 -1      3933-4.80000E+00 2.42759E+01 0.00000E+00
 -1      3934-4.80000E+00 2.32586E+01 0.00000E+00
 -1      3935-4.80000E+00 2.22414E+01 0.00000E+00
 -1      3936-4.80000E+00 2.12241E+01 0.00000E+00
 -1      3937-4.80000E+00 2.02069E+01 0.00000E+00
 -1      3938-4.80000E+00 1.91897E+01 0.00000E+00
 -1      3939-4.80000E+00 1.81724E+01 0.00000E+00
 -1      3940-4.80000E+00 1.71552E+01 0.00000E+00
 -1      3941-4.80000E+00 1.61379E+01 0.00000E+00
 -1      3942-4.80000E+00 1.51207E+01 0.00000E+00
 -1      3943-4.80000E+00 1.41034E+01 0.00000E+00
 -1      3944-4.80000E+00 1.30862E+01 0.00000E+00
 -1      3945-4.80000E+00 1.20690E+01 0.00000E+00
 -1      3946-4.80000E+00 1.10517E+01 0.00000E+00
 -1      3947-4.80000E+00 1.00345E+01 0.00000E+00
 -1      3948-4.80000E+00 9.01724E+00 0.00000E+00
 -1      3949-3.73333E+00 3.64828E+01 0.00000E+00
 -1      3950-3.73333E+00 3.54655E+01 0.00000E+00
 -1      3951-3.73333E+00 3.44483E+01 0.00000E+00
 -1      3952-3.73333E+00 3.34310E+01 0.00000E+00
 -1      3953-3.73333E+00 3.24138E+01 0.00000E+00
 -1      3954-3.73333E+00 3.13966E+01 0.00000E+00
 -1      3955-3.73333E+00 3.03793E+01 0.00000E+00
 -1      3956-3.73333E+00 2.93621E+01 0.00000E+00
 -1      3957-3.73333E+00 2.83448E+01 0.00000E+00
 -1      3958-3.73333E+00 2.73276E+01 0.00000E+00
 -1      3959-3.73333E+00 2.63103E+01 0.00000E+00
 -1      3960-3.73333E+00 2.52931E+01 0.00000E+00
 -1      3961-3.73333E+00 2.42759E+01 0.00000E+00
 -1      3962-3.73333E+00 2.32586E+01 0.00000E+00
 -1      3963-3.73333E+00 2.22414E+01 0.00000E+00
 -1      3964-3.73333E+00 2.12241E+01 0.00000E+00
 -1      3965-3.73333E+00 2.02069E+01 0.00000E+00
 -1      3966-3.73333E+00 1.91897E+01 0.00000E+00
 -1      3967-3.73333E+00 1.81724E+01 0.00000E+00
 -1      3968-3.73333E+00 1.71552E+01 0.00000E+00
 -1      3969-3.73333E+00 1.61379E+01 0.00000E+00
 -1      3970-3.73333E+00 1.51207E+01 0.00000E+00
 -1      3971-3.73333E+00 1.41034E+01 0.00000E+00
 -1      3972-3.73333E+00 1.30862E+01 0.00000E+00
 -1      3973-3.73333E+00 1.20690E+01 0.00000E+00
 -1      3974-3.73333E+00 1.10517E+01 0.00000E+00
 -1      3975-3.73333E+00 1.00345E+01 0.00000E+00
 -1      3976-3.73333E+00 9.01724E+00 0.00000E+00
 -1      3977-2.66667E+00 3.64828E+01 0.00000E+00
 -1      3978-2.66667E+00 3.54655E+01 0.00000E+00
 -1      3979-2.66667E+00 3.44483E+01 0.00000E+00
 -1      3980-2.66667E+00 3.34310E+01 0.00000E+00
 -1      3981-2.66667E+00 3.24138E+01 0.00000E+00
 -1      3982-2.66667E+00 3.13966E+01 0.00000E+00
 -1      3983-2.66667E+00 3.03793E+01 0.00000E+00
 -1      3984-2.66667E+00 2.93621E+01 0.00000E+00
 -1      3985-2.66667E+00 2.83448E+01 0.00000E+00
 -1      3986-2.66667E+00 2.73276E+01 0.00000E+00
 -1      3987-2.66667E+00 2.63103E+01 0.00000E+00
 -1      3988-2.66667E+00 2.52931E+01 0.00000E+00
 -1      3989-2.66667E+00 2.42759E+01 0.00000E+00
 -1      3990-2.66667E+00 2.32586E+01 0.00000E+00
 -1      3991-2.66667E+00 2.22414E+01 0.00000E+00
 -1      3992-2.66667E+00 2.12241E+01 0.00000E+00
 -1      3993-2.66667E+00 2.02069E+01 0.00000E+00
 -1      3994-2.66667E+00 1.91897E+01 0.00000E+00
 -1      3995-2.66667E+00 1.81724E+01 0.00000E+00
 -1      3996-2.66667E+00 1.71552E+01 0.00000E+00
 -1      3997-2.66667E+00 1.61379E+01 0.00000E+00
 -1      3998-2.66667E+00 1.51207E+01 0.00000E+00
 -1      3999-2.66667E+00 1.41034E+01 0.00000E+00
 -1      4000-2.66667E+00 1.30862E+01 0.00000E+00
 -1      4001-2.66667E+00 1.20690E+01 0.00000E+00
 -1      4002-2.66667E+00 1.10517E+01 0.00000E+00
 -1      4003-2.66667E+00 1.00345E+01 0.00000E+00
 -1      4004-2.66667E+00 9.01724E+00 0.00000E+00
 -1      4005-1.60000E+00 3.64828E+01 0.00000E+00
 -1      4006-1.60000E+00 3.54655E+01 0.00000E+00
 -1      4007-1.60000E+00 3.44483E+01 0.00000E+00
 -1      4008-1.60000E+00 3.34310E+01 0.00000E+00
 -1      4009-1.60000E+00 3.24138E+01 0.00000E+00
 -1      4010-1.60000E+00 3.13966E+01 0.00000E+00
 -1      4011-1.60000E+00 3.03793E+01 0.00000E+00
 -1      4012-1.60000E+00 2.93621E+01 0.00000E+00
 -1      4013-1.60000E+00 2.83448E+01 0.00000E+00
 -1      4014-1.60000E+00 2.73276E+01 0.00000E+00
 -1      4015-1.60000E+00 2.63103E+01 0.00000E+00
 -1      4016-1.60000E+00 2.52931E+01 0.00000E+00
 -1      4017-1.60000E+00 2.42759E+01 0.00000E+00
 -1      4018-1.60000E+00 2.32586E+01 0.00000E+00
 -1      4019-1.60000E+00 2.22414E+01 0.00000E+00
 -1      4020-1.60000E+00 2.12241E+01 0.00000E+00
 -1      4021-1.60000E+00 2.02069E+01 0.00000E+00
 -1      4022-1.60000E+00 1.91897E+01 0.00000E+00
 -1      4023-1.60000E+00 1.81724E+01 0.00000E+00
 -1      4024-1.60000E+00 1.71552E+01 0.00000E+00
 -1      4025-1.60000E+00 1.61379E+01 0.00000E+00
 -1      4026-1.60000E+00 1.51207E+01 0.00000E+00
 -1      4027-1.60000E+00 1.41034E+01 0.00000E+00
 -1      4028-1.60000E+00 1.30862E+01 0.00000E+00
 -1      4029-1.60000E+00 1.20690E+01 0.00000E+00
 -1      4030-1.60000E+00 1.10517E+01 0.00000E+00
 -1      4031-1.60000E+00 1.00345E+01 0.00000E+00
 -1      4032-1.60000E+00 9.01724E+00 0.00000E+00
 -1      4033-5.33333E-01 3.64828E+01 0.00000E+00
 -1      4034-5.33333E-01 3.54655E+01 0.00000E+00
 -1      4035-5.33333E-01 3.44483E+01 0.00000E+00
 -1      4036-5.33333E-01 3.34310E+01 0.00000E+00
 -1      4037-5.33333E-01 3.24138E+01 0.00000E+00
 -1      4038-5.33333E-01 3.13966E+01 0.00000E+00
 -1      4039-5.33333E-01 3.03793E+01 0.00000E+00
 -1      4040-5.33333E-01 2.93621E+01 0.00000E+00
 -1      4041-5.33333E-01 2.83448E+01 0.00000E+00
 -1      4042-5.33333E-01 2.73276E+01 0.00000E+00
 -1      4043-5.33333E-01 2.63103E+01 0.00000E+00
 -1      4044-5.33333E-01 2.52931E+01 0.00000E+00
 -1      4045-5.33333E-01 2.42759E+01 0.00000E+00
 -1      4046-5.33333E-01 2.32586E+01 0.00000E+00
 -1      4047-5.33333E-01 2.22414E+01 0.00000E+00
 -1      4048-5.33333E-01 2.12241E+01 0.00000E+00
 -1      4049-5.33333E-01 2.02069E+01 0.00000E+00
 -1      4050-5.33333E-01 1.91897E+01 0.00000E+00
 -1      4051-5.33333E-01 1.81724E+01 0.00000E+00
 -1      4052-5.33333E-01 1.71552E+01 0.00000E+00
 -1      4053-5.33333E-01 1.61379E+01 0.00000E+00
 -1      4054-5.33333E-01 1.51207E+01 0.00000E+00
 -1      4055-5.33333E-01 1.41034E+01 0.00000E+00
 -1      4056-5.33333E-01 1.30862E+01 0.00000E+00
 -1      4057-5.33333E-01 1.20690E+01 0.00000E+00
 -1      4058-5.33333E-01 1.10517E+01 0.00000E+00
 -1      4059-5.33333E-01 1.00345E+01 0.00000E+00
 -1      4060-5.33333E-01 9.01724E+00 0.00000E+00
 -1      4061 5.33333E-01 3.64828E+01 0.00000E+00
 -1      4062 5.33333E-01 3.54655E+01 0.00000E+00
 -1      4063 5.33333E-01 3.44483E+01 0.00000E+00
 -1      4064 5.33333E-01 3.34310E+01 0.00000E+00
 -1      4065 5.33333E-01 3.24138E+01 0.00000E+00
 -1      4066 5.33333E-01 3.13966E+01 0.00000E+00
 -1      4067 5.33333E-01 3.03793E+01 0.00000E+00
 -1      4068 5.33333E-01 2.93621E+01 0.00000E+00
 -1      4069 5.33333E-01 2.83448E+01 0.00000E+00
 -1      4070 5.33333E-01 2.73276E+01 0.00000E+00
 -1      4071 5.33333E-01 2.63103E+01 0.00000E+00
 -1      4072 5.33333E-01 2.52931E+01 0.00000E+00
 -1      4073 5.33333E-01 2.42759E+01 0.00000E+00
 -1      4074 5.33333E-01 2.32586E+01 0.00000E+00
 -1      4075 5.33333E-01 2.22414E+01 0.00000E+00
 -1      4076 5.33333E-01 2.12241E+01 0.00000E+00
 -1      4077 5.33333E-01 2.02069E+01 0.00000E+00
 -1      4078 5.33333E-01 1.91897E+01 0.00000E+00
 -1      4079 5.33333E-01 1.81724E+01 0.00000E+00
 -1      4080 5.33333E-01 1.71552E+01 0.00000E+00
 -1      4081 5.33333E-01 1.61379E+01 0.00000E+00
 -1      4082 5.33333E-01 1.51207E+01 0.00000E+00
 -1      4083 5.33333E-01 1.41034E+01 0.00000E+00
 -1      4084 5.33333E-01 1.30862E+01 0.00000E+00
 -1      4085 5.33333E-01 1.20690E+01 0.00000E+00
 -1      4086 5.33333E-01 1.10517E+01 0.00000E+00
 -1      4087 5.33333E-01 1.00345E+01 0.00000E+00
 -1      4088 5.33333E-01 9.01724E+00 0.00000E+00
 -1      4089 1.60000E+00 3.64828E+01 0.00000E+00
 -1      4090 1.60000E+00 3.54655E+01 0.00000E+00
 -1      4091 1.60000E+00 3.44483E+01 0.00000E+00
 -1      4092 1.60000E+00 3.34310E+01 0.00000E+00
 -1      4093 1.60000E+00 3.24138E+01 0.00000E+00
 -1      4094 1.60000E+00 3.13966E+01 0.00000E+00
 -1      4095 1.60000E+00 3.03793E+01 0.00000E+00
 -1      4096 1.60000E+00 2.93621E+01 0.00000E+00
 -1      4097 1.60000E+00 2.83448E+01 0.00000E+00
 -1      4098 1.60000E+00 2.73276E+01 0.00000E+00
 -1      4099 1.60000E+00 2.63103E+01 0.00000E+00
 -1      4100 1.60000E+00 2.52931E+01 0.00000E+00
 -1      4101 1.60000E+00 2.42759E+01 0.00000E+00
 -1      4102 1.60000E+00 2.32586E+01 0.00000E+00
 -1      4103 1.60000E+00 2.22414E+01 0.00000E+00
 -1      4104 1.60000E+00 2.12241E+01 0.00000E+00
 -1      4105 1.60000E+00 2.02069E+01 0.00000E+00
 -1      4106 1.60000E+00 1.91897E+01 0.00000E+00
 -1      4107 1.60000E+00 1.81724E+01 0.00000E+00
 -1      4108 1.60000E+00 1.71552E+01 0.00000E+00
 -1      4109 1.60000E+00 1.61379E+01 0.00000E+00
 -1      4110 1.60000E+00 1.51207E+01 0.00000E+00
 -1      4111 1.60000E+00 1.41034E+01 0.00000E+00
 -1      4112 1.60000E+00 1.30862E+01 0.00000E+00
 -1      4113 1.60000E+00 1.20690E+01 0.00000E+00
 -1      4114 1.60000E+00 1.10517E+01 0.00000E+00
 -1      4115 1.60000E+00 1.00345E+01 0.00000E+00
 -1      4116 1.60000E+00 9.01724E+00 0.00000E+00
 -1      4117 2.66667E+00 3.64828E+01 0.00000E+00
 -1      4118 2.66667E+00 3.54655E+01 0.00000E+00
 -1      4119 2.66667E+00 3.44483E+01 0.00000E+00
 -1      4120 2.66667E+00 3.34310E+01 0.00000E+00
 -1      4121 2.66667E+00 3.24138E+01 0.00000E+00
 -1      4122 2.66667E+00 3.13966E+01 0.00000E+00
 -1      4123 2.66667E+00 3.03793E+01 0.00000E+00
 -1      4124 2.66667E+00 2.93621E+01 0.00000E+00
 -1      4125 2.66667E+00 2.83448E+01 0.00000E+00
 -1      4126 2.66667E+00 2.73276E+01 0.00000E+00
 -1      4127 2.66667E+00 2.63103E+01 0.00000E+00
 -1      4128 2.66667E+00 2.52931E+01 0.00000E+00
 -1      4129 2.66667E+00 2.42759E+01 0.00000E+00
 -1      4130 2.66667E+00 2.32586E+01 0.00000E+00
 -1      4131 2.66667E+00 2.22414E+01 0.00000E+00
 -1      4132 2.66667E+00 2.12241E+01 0.00000E+00
 -1      4133 2.66667E+00 2.02069E+01 0.00000E+00
 -1      4134 2.66667E+00 1.91897E+01 0.00000E+00
 -1      4135 2.66667E+00 1.81724E+01 0.00000E+00
 -1      4136 2.66667E+00 1.71552E+01 0.00000E+00
 -1      4137 2.66667E+00 1.61379E+01 0.00000E+00
 -1      4138 2.66667E+00 1.51207E+01 0.00000E+00
 -1      4139 2.66667E+00 1.41034E+01 0.00000E+00
 -1      4140 2.66667E+00 1.30862E+01 0.00000E+00
 -1      4141 2.66667E+00 1.20690E+01 0.00000E+00
 -1      4142 2.66667E+00 1.10517E+01 0.00000E+00
 -1      4143 2.66667E+00 1.00345E+01 0.00000E+00
 -1      4144 2.66667E+00 9.01724E+00 0.00000E+00
 -1      4145 3.73333E+00 3.64828E+01 0.00000E+00
 -1      4146 3.73333E+00 3.54655E+01 0.00000E+00
 -1      4147 3.73333E+00 3.44483E+01 0.00000E+00
 -1      4148 3.73333E+00 3.34310E+01 0.00000E+00
 -1      4149 3.73333E+00 3.24138E+01 0.00000E+00
 -1      4150 3.73333E+00 3.13966E+01 0.00000E+00
 -1      4151 3.73333E+00 3.03793E+01 0.00000E+00
 -1      4152 3.73333E+00 2.93621E+01 0.00000E+00
 -1      4153 3.73333E+00 2.83448E+01 0.00000E+00
 -1      4154 3.73333E+00 2.73276E+01 0.00000E+00
 -1      4155 3.73333E+00 2.63103E+01 0.00000E+00
 -1      4156 3.73333E+00 2.52931E+01 0.00000E+00
 -1      4157 3.73333E+00 2.42759E+01 0.00000E+00
 -1      4158 3.73333E+00 2.32586E+01 0.00000E+00
 -1      4159 3.73333E+00 2.22414E+01 0.00000E+00
 -1      4160 3.73333E+00 2.12241E+01 0.00000E+00
 -1      4161 3.73333E+00 2.02069E+01 0.00000E+00
 -1      4162 3.73333E+00 1.91897E+01 0.00000E+00
 -1      4163 3.73333E+00 1.81724E+01 0.00000E+00
 -1      4164 3.73333E+00 1.71552E+01 0.00000E+00
 -1      4165 3.73333E+00 1.61379E+01 0.00000E+00
 -1      4166 3.73333E+00 1.51207E+01 0.00000E+00
 -1      4167 3.73333E+00 1.41034E+01 0.00000E+00
 -1      4168 3.73333E+00 1.30862E+01 0.00000E+00
 -1      4169 3.73333E+00 1.20690E+01 0.00000E+00
 -1      4170 3.73333E+00 1.10517E+01 0.00000E+00
 -1      4171 3.73333E+00 1.00345E+01 0.00000E+00
 -1      4172 3.73333E+00 9.01724E+00 0.00000E+00
 -1      4173 4.80000E+00 3.64828E+01 0.00000E+00
 -1      4174 4.80000E+00 3.54655E+01 0.00000E+00
 -1      4175 4.80000E+00 3.44483E+01 0.00000E+00
 -1      4176 4.80000E+00 3.34310E+01 0.00000E+00
 -1      4177 4.80000E+00 3.24138E+01 0.00000E+00
 -1      4178 4.80000E+00 3.13966E+01 0.00000E+00
 -1      4179 4.80000E+00 3.03793E+01 0.00000E+00
 -1      4180 4.80000E+00 2.93621E+01 0.00000E+00
 -1      4181 4.80000E+00 2.83448E+01 0.00000E+00
 -1      4182 4.80000E+00 2.73276E+01 0.00000E+00
 -1      4183 4.80000E+00 2.63103E+01 0.00000E+00
 -1      4184 4.80000E+00 2.52931E+01 0.00000E+00
 -1      4185 4.80000E+00 2.42759E+01 0.00000E+00
 -1      4186 4.80000E+00 2.32586E+01 0.00000E+00
 -1      4187 4.80000E+00 2.22414E+01 0.00000E+00
 -1      4188 4.80000E+00 2.12241E+01 0.00000E+00
 -1      4189 4.80000E+00 2.02069E+01 0.00000E+00
 -1      4190 4.80000E+00 1.91897E+01 0.00000E+00
 -1      4191 4.80000E+00 1.81724E+01 0.00000E+00
 -1      4192 4.80000E+00 1.71552E+01 0.00000E+00
 -1      4193 4.80000E+00 1.61379E+01 0.00000E+00
 -1      4194 4.80000E+00 1.51207E+01 0.00000E+00
 -1      4195 4.80000E+00 1.41034E+01 0.00000E+00
 -1      4196 4.80000E+00 1.30862E+01 0.00000E+00
 -1      4197 4.80000E+00 1.20690E+01 0.00000E+00
 -1      4198 4.80000E+00 1.10517E+01 0.00000E+00
 -1      4199 4.80000E+00 1.00345E+01 0.00000E+00
 -1      4200 4.80000E+00 9.01724E+00 0.00000E+00
 -1      4201 5.86667E+00 3.64828E+01 0.00000E+00
 -1      4202 5.86667E+00 3.54655E+01 0.00000E+00
 -1      4203 5.86667E+00 3.44483E+01 0.00000E+00
 -1      4204 5.86667E+00 3.34310E+01 0.00000E+00
 -1      4205 5.86667E+00 3.24138E+01 0.00000E+00
 -1      4206 5.86667E+00 3.13966E+01 0.00000E+00
 -1      4207 5.86667E+00 3.03793E+01 0.00000E+00
 -1      4208 5.86667E+00 2.93621E+01 0.00000E+00
 -1      4209 5.86667E+00 2.83448E+01 0.00000E+00
 -1      4210 5.86667E+00 2.73276E+01 0.00000E+00
 -1      4211 5.86667E+00 2.63103E+01 0.00000E+00
 -1      4212 5.86667E+00 2.52931E+01 0.00000E+00
 -1      4213 5.86667E+00 2.42759E+01 0.00000E+00
 -1      4214 5.86667E+00 2.32586E+01 0.00000E+00
 -1      4215 5.86667E+00 2.22414E+01 0.00000E+00
 -1      4216 5.86667E+00 2.12241E+01 0.00000E+00
 -1      4217 5.86667E+00 2.02069E+01 0.00000E+00
 -1      4218 5.86667E+00 1.91897E+01 0.00000E+00
 -1      4219 5.86667E+00 1.81724E+01 0.00000E+00
 -1      4220 5.86667E+00 1.71552E+01 0.00000E+00
 -1      4221 5.86667E+00 1.61379E+01 0.00000E+00
 -1      4222 5.86667E+00 1.51207E+01 0.00000E+00
 -1      4223 5.86667E+00 1.41034E+01 0.00000E+00
 -1      4224 5.86667E+00 1.30862E+01 0.00000E+00
 -1      4225 5.86667E+00 1.20690E+01 0.00000E+00
 -1      4226 5.86667E+00 1.10517E+01 0.00000E+00
 -1      4227 5.86667E+00 1.00345E+01 0.00000E+00
 -1      4228 5.86667E+00 9.01724E+00 0.00000E+00
 -1      4229 6.93333E+00 3.64828E+01 0.00000E+00
 -1      4230 6.93333E+00 3.54655E+01 0.00000E+00
 -1      4231 6.93333E+00 3.44483E+01 0.00000E+00
 -1      4232 6.93333E+00 3.34310E+01 0.00000E+00
 -1      4233 6.93333E+00 3.24138E+01 0.00000E+00
 -1      4234 6.93333E+00 3.13966E+01 0.00000E+00
 -1      4235 6.93333E+00 3.03793E+01 0.00000E+00
 -1      4236 6.93333E+00 2.93621E+01 0.00000E+00
 -1      4237 6.93333E+00 2.83448E+01 0.00000E+00
 -1      4238 6.93333E+00 2.73276E+01 0.00000E+00
 -1      4239 6.93333E+00 2.63103E+01 0.00000E+00
 -1      4240 6.93333E+00 2.52931E+01 0.00000E+00
 -1      4241 6.93333E+00 2.42759E+01 0.00000E+00
 -1      4242 6.93333E+00 2.32586E+01 0.00000E+00
 -1      4243 6.93333E+00 2.22414E+01 0.00000E+00
 -1      4244 6.93333E+00 2.12241E+01 0.00000E+00
 -1      4245 6.93333E+00 2.02069E+01 0.00000E+00
 -1      4246 6.93333E+00 1.91897E+01 0.00000E+00
 -1      4247 6.93333E+00 1.81724E+01 0.00000E+00
 -1      4248 6.93333E+00 1.71552E+01 0.00000E+00
 -1      4249 6.93333E+00 1.61379E+01 0.00000E+00
 -1      4250 6.93333E+00 1.51207E+01 0.00000E+00
 -1      4251 6.93333E+00 1.41034E+01 0.00000E+00
 -1      4252 6.93333E+00 1.30862E+01 0.00000E+00
 -1      4253 6.93333E+00 1.20690E+01 0.00000E+00
 -1      4254 6.93333E+00 1.10517E+01 0.00000E+00
 -1      4255 6.93333E+00 1.00345E+01 0.00000E+00
 -1      4256 6.93333E+00 9.01724E+00 0.00000E+00
 -3
    3C                          4106                                     1
 -1       155    9    0    1
 -2         1        77       589        34
 -1       156    9    0    1
 -2        77        78       590       589
 -1       157    9    0    1
 -2        78        79       591       590
 -1       158    9    0    1
 -2        79        80       592       591
 -1       159    9    0    1
 -2        80        81       593       592
 -1       160    9    0    1
 -2        81        82       594       593
 -1       161    9    0    1
 -2        82        83       595       594
 -1       162    9    0    1
 -2        83        84       596       595
 -1       163    9    0    1
 -2        84        85       597       596
 -1       164    9    0    1
 -2        85        86       598       597
 -1       165    9    0    1
 -2        86        87       599       598
 -1       166    9    0    1
 -2        87        88       600       599
 -1       167    9    0    1
 -2        88        89       601       600
 -1       168    9    0    1
 -2        89        90       602       601
 -1       169    9    0    1
 -2        90         2        48       602
 -1       170    9    0    1
 -2        34       589       603        33
 -1       171    9    0    1
 -2       589       590       604       603
 -1       172    9    0    1
 -2       590       591       605       604
 -1       173    9    0    1
 -2       591       592       606       605
 -1       174    9    0    1
 -2       592       593       607       606
 -1       175    9    0    1
 -2       593       594       608       607
 -1       176    9    0    1
 -2       594       595       609       608
 -1       177    9    0    1
 -2       595       596       610       609
 -1       178    9    0    1
 -2       596       597       611       610
 -1       179    9    0    1
 -2       597       598       612       611
 -1       180    9    0    1
 -2       598       599       613       612
 -1       181    9    0    1
 -2       599       600       614       613
 -1       182    9    0    1
 -2       600       601       615       614
 -1       183    9    0    1
 -2       601       602       616       615
 -1       184    9    0    1
 -2       602        48        47       616
 -1       185    9    0    1
 -2        33       603       617        32
 -1       186    9    0    1
 -2       603       604       618       617
 -1       187    9    0    1
 -2       604       605       619       618
 -1       188    9    0    1
 -2       605       606       620       619
 -1       189    9    0    1
 -2       606       607       621       620
 -1       190    9    0    1
 -2       607       608       622       621
 -1       191    9    0    1
 -2       608       609       623       622
 -1       192    9    0    1
 -2       609       610       624       623
 -1       193    9    0    1
 -2       610       611       625       624
 -1       194    9    0    1
 -2       611       612       626       625
 -1       195    9    0    1
 -2       612       613       627       626
 -1       196    9    0    1
 -2       613       614       628       627
 -1       197    9    0    1
 -2       614       615       629       628
 -1       198    9    0    1
 -2       615       616       630       629
 -1       199    9    0    1
 -2       616        47        46       630
 -1       200    9    0    1
 -2        32       617       631        31
 -1       201    9    0    1
 -2       617       618       632       631
 -1       202    9    0    1
 -2       618       619       633       632
 -1       203    9    0    1
 -2       619       620       634       633
 -1       204    9    0    1
 -2       620       621       635       634
 -1       205    9    0    1
 -2       621       622       636       635
 -1       206    9    0    1
 -2       622       623       637       636
 -1       207    9    0    1
 -2       623       624       638       637
 -1       208    9    0    1
 -2       624       625       639       638
 -1       209    9    0    1
 -2       625       626       640       639
 -1       210    9    0    1
 -2       626       627       641       640
 -1       211    9    0    1
 -2       627       628       642       641
 -1       212    9    0    1
 -2       628       629       643       642
 -1       213    9    0    1
 -2       629       630       644       643
 -1       214    9    0    1
 -2       630        46        45       644
 -1       215    9    0    1
 -2        31       631       645        30
 -1       216    9    0    1
 -2       631       632       646       645
 -1       217    9    0    1
 -2       632       633       647       646
 -1       218    9    0    1
 -2       633       634       648       647
 -1       219    9    0    1
 -2       634       635       649       648
 -1       220    9    0    1
 -2       635       636       650       649
 -1       221    9    0    1
 -2       636       637       651       650
 -1       222    9    0    1
 -2       637       638       652       651
 -1       223    9    0    1
 -2       638       639       653       652
 -1       224    9    0    1
 -2       639       640       654       653
 -1       225    9    0    1
 -2       640       641       655       654
 -1       226    9    0    1
 -2       641       642       656       655
 -1       227    9    0    1
 -2       642       643       657       656
 -1       228    9    0    1
 -2       643       644       658       657
 -1       229    9    0    1
 -2       644        45        44       658
 -1       230    9    0    1
 -2        30       645       659        29
 -1       231    9    0    1
 -2       645       646       660       659
 -1       232    9    0    1
 -2       646       647       661       660
 -1       233    9    0    1
 -2       647       648       662       661
 -1       234    9    0    1
 -2       648       649       663       662
 -1       235    9    0    1
 -2       649       650       664       663
 -1       236    9    0    1
 -2       650       651       665       664
 -1       237    9    0    1
 -2       651       652       666       665
 -1       238    9    0    1
 -2       652       653       667       666
 -1       239    9    0    1
 -2       653       654       668       667
 -1       240    9    0    1
 -2       654       655       669       668
 -1       241    9    0    1
 -2       655       656       670       669
 -1       242    9    0    1
 -2       656       657       671       670
 -1       243    9    0    1
 -2       657       658       672       671
 -1       244    9    0    1
 -2       658        44        43       672
 -1       245    9    0    1
 -2        29       659       673        28
 -1       246    9    0    1
 -2       659       660       674       673
 -1       247    9    0    1
 -2       660       661       675       674
 -1       248    9    0    1
 -2       661       662       676       675
 -1       249    9    0    1
 -2       662       663       677       676
 -1       250    9    0    1
 -2       663       664       678       677
 -1       251    9    0    1
 -2       664       665       679       678
 -1       252    9    0    1
 -2       665       666       680       679
 -1       253    9    0    1
 -2       666       667       681       680
 -1       254    9    0    1
 -2       667       668       682       681
 -1       255    9    0    1
 -2       668       669       683       682
 -1       256    9    0    1
 -2       669       670       684       683
 -1       257    9    0    1
 -2       670       671       685       684
 -1       258    9    0    1
 -2       671       672       686       685
 -1       259    9    0    1
 -2       672        43        42       686
 -1       260    9    0    1
 -2        28       673       687        27
 -1       261    9    0    1
 -2       673       674       688       687
 -1       262    9    0    1
 -2       674       675       689       688
 -1       263    9    0    1
 -2       675       676       690       689
 -1       264    9    0    1
 -2       676       677       691       690
 -1       265    9    0    1
 -2       677       678       692       691
 -1       266    9    0    1
 -2       678       679       693       692
 -1       267    9    0    1
 -2       679       680       694       693
 -1       268    9    0    1
 -2       680       681       695       694
 -1       269    9    0    1
 -2       681       682       696       695
 -1       270    9    0    1
 -2       682       683       697       696
 -1       271    9    0    1
 -2       683       684       698       697
 -1       272    9    0    1
 -2       684       685       699       698
 -1       273    9    0    1
 -2       685       686       700       699
 -1       274    9    0    1
 -2       686        42        41       700
 -1       275    9    0    1
 -2        27       687       701        26
 -1       276    9    0    1
 -2       687       688       702       701
 -1       277    9    0    1
 -2       688       689       703       702
 -1       278    9    0    1
 -2       689       690       704       703
 -1       279    9    0    1
 -2       690       691       705       704
 -1       280    9    0    1
 -2       691       692       706       705
 -1       281    9    0    1
 -2       692       693       707       706
 -1       282    9    0    1
 -2       693       694       708       707
 -1       283    9    0    1
 -2       694       695       709       708
 -1       284    9    0    1
 -2       695       696       710       709
 -1       285    9    0    1
 -2       696       697       711       710
 -1       286    9    0    1
 -2       697       698       712       711
 -1       287    9    0    1
 -2       698       699       713       712
 -1       288    9    0    1
 -2       699       700       714       713
 -1       289    9    0    1
 -2       700        41        40       714
 -1       290    9    0    1
 -2        26       701       715        25
 -1       291    9    0    1
 -2       701       702       716       715
 -1       292    9    0    1
 -2       702       703       717       716
 -1       293    9    0    1
 -2       703       704       718       717
 -1       294    9    0    1
 -2       704       705       719       718
 -1       295    9    0    1
 -2       705       706       720       719
 -1       296    9    0    1
 -2       706       707       721       720
 -1       297    9    0    1
 -2       707       708       722       721
 -1       298    9    0    1
 -2       708       709       723       722
 -1       299    9    0    1
 -2       709       710       724       723
 -1       300    9    0    1
 -2       710       711       725       724
 -1       301    9    0    1
 -2       711       712       726       725
 -1       302    9    0    1
 -2       712       713       727       726
 -1       303    9    0    1
 -2       713       714       728       727
 -1       304    9    0    1
 -2       714        40        39       728
 -1       305    9    0    1
 -2        25       715       729        24
 -1       306    9    0    1
 -2       715       716       730       729
 -1       307    9    0    1
 -2       716       717       731       730
 -1       308    9    0    1
 -2       717       718       732       731
 -1       309    9    0    1
 -2       718       719       733       732
 -1       310    9    0    1
 -2       719       720       734       733
 -1       311    9    0    1
 -2       720       721       735       734
 -1       312    9    0    1
 -2       721       722       736       735
 -1       313    9    0    1
 -2       722       723       737       736
 -1       314    9    0    1
 -2       723       724       738       737
 -1       315    9    0    1
 -2       724       725       739       738
 -1       316    9    0    1
 -2       725       726       740       739
 -1       317    9    0    1
 -2       726       727       741       740
 -1       318    9    0    1
 -2       727       728       742       741
 -1       319    9    0    1
 -2       728        39        38       742
 -1       320    9    0    1
 -2        24       729       743        23
 -1       321    9    0    1
 -2       729       730       744       743
 -1       322    9    0    1
 -2       730       731       745       744
 -1       323    9    0    1
 -2       731       732       746       745
 -1       324    9    0    1
 -2       732       733       747       746
 -1       325    9    0    1
 -2       733       734       748       747
 -1       326    9    0    1
 -2       734       735       749       748
 -1       327    9    0    1
 -2       735       736       750       749
 -1       328    9    0    1
 -2       736       737       751       750
 -1       329    9    0    1
 -2       737       738       752       751
 -1       330    9    0    1
 -2       738       739       753       752
 -1       331    9    0    1
 -2       739       740       754       753
 -1       332    9    0    1
 -2       740       741       755       754
 -1       333    9    0    1
 -2       741       742       756       755
 -1       334    9    0    1
 -2       742        38        37       756
 -1       335    9    0    1
 -2        23       743       757        22
 -1       336    9    0    1
 -2       743       744       758       757
 -1       337    9    0    1
 -2       744       745       759       758
 -1       338    9    0    1
 -2       745       746       760       759
 -1       339    9    0    1
 -2       746       747       761       760
 -1       340    9    0    1
 -2       747       748       762       761
 -1       341    9    0    1
 -2       748       749       763       762
 -1       342    9    0    1
 -2       749       750       764       763
 -1       343    9    0    1
 -2       750       751       765       764
 -1       344    9    0    1
 -2       751       752       766       765
 -1       345    9    0    1
 -2       752       753       767       766
 -1       346    9    0    1
 -2       753       754       768       767
 -1       347    9    0    1
 -2       754       755       769       768
 -1       348    9    0    1
 -2       755       756       770       769
 -1       349    9    0    1
 -2       756        37        36       770
 -1       350    9    0    1
 -2        22       757       771        21
 -1       351    9    0    1
 -2       757       758       772       771
 -1       352    9    0    1
 -2       758       759       773       772
 -1       353    9    0    1
 -2       759       760       774       773
 -1       354    9    0    1
 -2       760       761       775       774
 -1       355    9    0    1
 -2       761       762       776       775
 -1       356    9    0    1
 -2       762       763       777       776
 -1       357    9    0    1
 -2       763       764       778       777
 -1       358    9    0    1
 -2       764       765       779       778
 -1       359    9    0    1
 -2       765       766       780       779
 -1       360    9    0    1
 -2       766       767       781       780
 -1       361    9    0    1
 -2       767       768       782       781
 -1       362    9    0    1
 -2       768       769       783       782
 -1       363    9    0    1
 -2       769       770       784       783
 -1       364    9    0    1
 -2       770        36        35       784
 -1       365    9    0    1
 -2        21       771       133         5
 -1       366    9    0    1
 -2       771       772       134       133
 -1       367    9    0    1
 -2       772       773       135       134
 -1       368    9    0    1
 -2       773       774       136       135
 -1       369    9    0    1
 -2       774       775       137       136
 -1       370    9    0    1
 -2       775       776       138       137
 -1       371    9    0    1
 -2       776       777       139       138
 -1       372    9    0    1
 -2       777       778       140       139
 -1       373    9    0    1
 -2       778       779       141       140
 -1       374    9    0    1
 -2       779       780       142       141
 -1       375    9    0    1
 -2       780       781       143       142
 -1       376    9    0    1
 -2       781       782       144       143
 -1       377    9    0    1
 -2       782       783       145       144
 -1       378    9    0    1
 -2       783       784       146       145
 -1       379    9    0    1
 -2       784        35         6       146
 -1       380    9    0    1
 -2         2        91       785        48
 -1       381    9    0    1
 -2        91        92       786       785
 -1       382    9    0    1
 -2        92        93       787       786
 -1       383    9    0    1
 -2        93        94       788       787
 -1       384    9    0    1
 -2        94        95       789       788
 -1       385    9    0    1
 -2        95        96       790       789
 -1       386    9    0    1
 -2        96        97       791       790
 -1       387    9    0    1
 -2        97        98       792       791
 -1       388    9    0    1
 -2        98        99       793       792
 -1       389    9    0    1
 -2        99       100       794       793
 -1       390    9    0    1
 -2       100       101       795       794
 -1       391    9    0    1
 -2       101       102       796       795
 -1       392    9    0    1
 -2       102       103       797       796
 -1       393    9    0    1
 -2       103       104       798       797
 -1       394    9    0    1
 -2       104         3        62       798
 -1       395    9    0    1
 -2        48       785       799        47
 -1       396    9    0    1
 -2       785       786       800       799
 -1       397    9    0    1
 -2       786       787       801       800
 -1       398    9    0    1
 -2       787       788       802       801
 -1       399    9    0    1
 -2       788       789       803       802
 -1       400    9    0    1
 -2       789       790       804       803
 -1       401    9    0    1
 -2       790       791       805       804
 -1       402    9    0    1
 -2       791       792       806       805
 -1       403    9    0    1
 -2       792       793       807       806
 -1       404    9    0    1
 -2       793       794       808       807
 -1       405    9    0    1
 -2       794       795       809       808
 -1       406    9    0    1
 -2       795       796       810       809
 -1       407    9    0    1
 -2       796       797       811       810
 -1       408    9    0    1
 -2       797       798       812       811
 -1       409    9    0    1
 -2       798        62        61       812
 -1       410    9    0    1
 -2        47       799       813        46
 -1       411    9    0    1
 -2       799       800       814       813
 -1       412    9    0    1
 -2       800       801       815       814
 -1       413    9    0    1
 -2       801       802       816       815
 -1       414    9    0    1
 -2       802       803       817       816
 -1       415    9    0    1
 -2       803       804       818       817
 -1       416    9    0    1
 -2       804       805       819       818
 -1       417    9    0    1
 -2       805       806       820       819
 -1       418    9    0    1
 -2       806       807       821       820
 -1       419    9    0    1
 -2       807       808       822       821
 -1       420    9    0    1
 -2       808       809       823       822
 -1       421    9    0    1
 -2       809       810       824       823
 -1       422    9    0    1
 -2       810       811       825       824
 -1       423    9    0    1
 -2       811       812       826       825
 -1       424    9    0    1
 -2       812        61        60       826
 -1       425    9    0    1
 -2        46       813       827        45
 -1       426    9    0    1
 -2       813       814       828       827
 -1       427    9    0    1
 -2       814       815       829       828
 -1       428    9    0    1
 -2       815       816       830       829
 -1       429    9    0    1
 -2       816       817       831       830
 -1       430    9    0    1
 -2       817       818       832       831
 -1       431    9    0    1
 -2       818       819       833       832
 -1       432    9    0    1
 -2       819       820       834       833
 -1       433    9    0    1
 -2       820       821       835       834
 -1       434    9    0    1
 -2       821       822       836       835
 -1       435    9    0    1
 -2       822       823       837       836
 -1       436    9    0    1
 -2       823       824       838       837
 -1       437    9    0    1
 -2       824       825       839       838
 -1       438    9    0    1
 -2       825       826       840       839
 -1       439    9    0    1
 -2       826        60        59       840
 -1       440    9    0    1
 -2        45       827       841        44
 -1       441    9    0    1
 -2       827       828       842       841
 -1       442    9    0    1
 -2       828       829       843       842
 -1       443    9    0    1
 -2       829       830       844       843
 -1       444    9    0    1
 -2       830       831       845       844
 -1       445    9    0    1
 -2       831       832       846       845
 -1       446    9    0    1
 -2       832       833       847       846
 -1       447    9    0    1
 -2       833       834       848       847
 -1       448    9    0    1
 -2       834       835       849       848
 -1       449    9    0    1
 -2       835       836       850       849
 -1       450    9    0    1
 -2       836       837       851       850
 -1       451    9    0    1
 -2       837       838       852       851
 -1       452    9    0    1
 -2       838       839       853       852
 -1       453    9    0    1
 -2       839       840       854       853
 -1       454    9    0    1
 -2       840        59        58       854
 -1       455    9    0    1
 -2        44       841       855        43
 -1       456    9    0    1
 -2       841       842       856       855
 -1       457    9    0    1
 -2       842       843       857       856
 -1       458    9    0    1
 -2       843       844       858       857
 -1       459    9    0    1
 -2       844       845       859       858
 -1       460    9    0    1
 -2       845       846       860       859
 -1       461    9    0    1
 -2       846       847       861       860
 -1       462    9    0    1
 -2       847       848       862       861
 -1       463    9    0    1
 -2       848       849       863       862
 -1       464    9    0    1
 -2       849       850       864       863
 -1       465    9    0    1
 -2       850       851       865       864
 -1       466    9    0    1
 -2       851       852       866       865
 -1       467    9    0    1
 -2       852       853       867       866
 -1       468    9    0    1
 -2       853       854       868       867
 -1       469    9    0    1
 -2       854        58        57       868
 -1       470    9    0    1
 -2        43       855       869        42
 -1       471    9    0    1
 -2       855       856       870       869
 -1       472    9    0    1
 -2       856       857       871       870
 -1       473    9    0    1
 -2       857       858       872       871
 -1       474    9    0    1
 -2       858       859       873       872
 -1       475    9    0    1
 -2       859       860       874       873
 -1       476    9    0    1
 -2       860       861       875       874
 -1       477    9    0    1
 -2       861       862       876       875
 -1       478    9    0    1
 -2       862       863       877       876
 -1       479    9    0    1
 -2       863       864       878       877
 -1       480    9    0    1
 -2       864       865       879       878
 -1       481    9    0    1
 -2       865       866       880       879
 -1       482    9    0    1
 -2       866       867       881       880
 -1       483    9    0    1
 -2       867       868       882       881
 -1       484    9    0    1
 -2       868        57        56       882
 -1       485    9    0    1
 -2        42       869       883        41
 -1       486    9    0    1
 -2       869       870       884       883
 -1       487    9    0    1
 -2       870       871       885       884
 -1       488    9    0    1
 -2       871       872       886       885
 -1       489    9    0    1
 -2       872       873       887       886
 -1       490    9    0    1
 -2       873       874       888       887
 -1       491    9    0    1
 -2       874       875       889       888
 -1       492    9    0    1
 -2       875       876       890       889
 -1       493    9    0    1
 -2       876       877       891       890
 -1       494    9    0    1
 -2       877       878       892       891
 -1       495    9    0    1
 -2       878       879       893       892
 -1       496    9    0    1
 -2       879       880       894       893
 -1       497    9    0    1
 -2       880       881       895       894
 -1       498    9    0    1
 -2       881       882       896       895
 -1       499    9    0    1
 -2       882        56        55       896
 -1       500    9    0    1
 -2        41       883       897        40
 -1       501    9    0    1
 -2       883       884       898       897
 -1       502    9    0    1
 -2       884       885       899       898
 -1       503    9    0    1
 -2       885       886       900       899
 -1       504    9    0    1
 -2       886       887       901       900
 -1       505    9    0    1
 -2       887       888       902       901
 -1       506    9    0    1
 -2       888       889       903       902
 -1       507    9    0    1
 -2       889       890       904       903
 -1       508    9    0    1
 -2       890       891       905       904
 -1       509    9    0    1
 -2       891       892       906       905
 -1       510    9    0    1
 -2       892       893       907       906
 -1       511    9    0    1
 -2       893       894       908       907
 -1       512    9    0    1
 -2       894       895       909       908
 -1       513    9    0    1
 -2       895       896       910       909
 -1       514    9    0    1
 -2       896        55        54       910
 -1       515    9    0    1
 -2        40       897       911        39
 -1       516    9    0    1
 -2       897       898       912       911
 -1       517    9    0    1
 -2       898       899       913       912
 -1       518    9    0    1
 -2       899       900       914       913
 -1       519    9    0    1
 -2       900       901       915       914
 -1       520    9    0    1
 -2       901       902       916       915
 -1       521    9    0    1
 -2       902       903       917       916
 -1       522    9    0    1
 -2       903       904       918       917
 -1       523    9    0    1
 -2       904       905       919       918
 -1       524    9    0    1
 -2       905       906       920       919
 -1       525    9    0    1
 -2       906       907       921       920
 -1       526    9    0    1
 -2       907       908       922       921
 -1       527    9    0    1
 -2       908       909       923       922
 -1       528    9    0    1
 -2       909       910       924       923
 -1       529    9    0    1
 -2       910        54        53       924
 -1       530    9    0    1
 -2        39       911       925        38
 -1       531    9    0    1
 -2       911       912       926       925
 -1       532    9    0    1
 -2       912       913       927       926
 -1       533    9    0    1
 -2       913       914       928       927
 -1       534    9    0    1
 -2       914       915       929       928
 -1       535    9    0    1
 -2       915       916       930       929
 -1       536    9    0    1
 -2       916       917       931       930
 -1       537    9    0    1
 -2       917       918       932       931
 -1       538    9    0    1
 -2       918       919       933       932
 -1       539    9    0    1
 -2       919       920       934       933
 -1       540    9    0    1
 -2       920       921       935       934
 -1       541    9    0    1
 -2       921       922       936       935
 -1       542    9    0    1
 -2       922       923       937       936
 -1       543    9    0    1
 -2       923       924       938       937
 -1       544    9    0    1
 -2       924        53        52       938
 -1       545    9    0    1
 -2        38       925       939        37
 -1       546    9    0    1
 -2       925       926       940       939
 -1       547    9    0    1
 -2       926       927       941       940
 -1       548    9    0    1
 -2       927       928       942       941
 -1       549    9    0    1
 -2       928       929       943       942
 -1       550    9    0    1
 -2       929       930       944       943
 -1       551    9    0    1
 -2       930       931       945       944
 -1       552    9    0    1
 -2       931       932       946       945
 -1       553    9    0    1
 -2       932       933       947       946
 -1       554    9    0    1
 -2       933       934       948       947
 -1       555    9    0    1
 -2       934       935       949       948
 -1       556    9    0    1
 -2       935       936       950       949
 -1       557    9    0    1
 -2       936       937       951       950
 -1       558    9    0    1
 -2       937       938       952       951
 -1       559    9    0    1
 -2       938        52        51       952
 -1       560    9    0    1
 -2        37       939       953        36
 -1       561    9    0    1
 -2       939       940       954       953
 -1       562    9    0    1
 -2       940       941       955       954
 -1       563    9    0    1
 -2       941       942       956       955
 -1       564    9    0    1
 -2       942       943       957       956
 -1       565    9    0    1
 -2       943       944       958       957
 -1       566    9    0    1
 -2       944       945       959       958
 -1       567    9    0    1
 -2       945       946       960       959
 -1       568    9    0    1
 -2       946       947       961       960
 -1       569    9    0    1
 -2       947       948       962       961
 -1       570    9    0    1
 -2       948       949       963       962
 -1       571    9    0    1
 -2       949       950       964       963
 -1       572    9    0    1
 -2       950       951       965       964
 -1       573    9    0    1
 -2       951       952       966       965
 -1       574    9    0    1
 -2       952        51        50       966
 -1       575    9    0    1
 -2        36       953       967        35
 -1       576    9    0    1
 -2       953       954       968       967
 -1       577    9    0    1
 -2       954       955       969       968
 -1       578    9    0    1
 -2       955       956       970       969
 -1       579    9    0    1
 -2       956       957       971       970
 -1       580    9    0    1
 -2       957       958       972       971
 -1       581    9    0    1
 -2       958       959       973       972
 -1       582    9    0    1
 -2       959       960       974       973
 -1       583    9    0    1
 -2       960       961       975       974
 -1       584    9    0    1
 -2       961       962       976       975
 -1       585    9    0    1
 -2       962       963       977       976
 -1       586    9    0    1
 -2       963       964       978       977
 -1       587    9    0    1
 -2       964       965       979       978
 -1       588    9    0    1
 -2       965       966       980       979
 -1       589    9    0    1
 -2       966        50        49       980
 -1       590    9    0    1
 -2        35       967       147         6
 -1       591    9    0    1
 -2       967       968       148       147
 -1       592    9    0    1
 -2       968       969       149       148
 -1       593    9    0    1
 -2       969       970       150       149
 -1       594    9    0    1
 -2       970       971       151       150
 -1       595    9    0    1
 -2       971       972       152       151
 -1       596    9    0    1
 -2       972       973       153       152
 -1       597    9    0    1
 -2       973       974       154       153
 -1       598    9    0    1
 -2       974       975       155       154
 -1       599    9    0    1
 -2       975       976       156       155
 -1       600    9    0    1
 -2       976       977       157       156
 -1       601    9    0    1
 -2       977       978       158       157
 -1       602    9    0    1
 -2       978       979       159       158
 -1       603    9    0    1
 -2       979       980       160       159
 -1       604    9    0    1
 -2       980        49         7       160
 -1       605    9    0    1
 -2         3       105       981        62
 -1       606    9    0    1
 -2       105       106       982       981
 -1       607    9    0    1
 -2       106       107       983       982
 -1       608    9    0    1
 -2       107       108       984       983
 -1       609    9    0    1
 -2       108       109       985       984
 -1       610    9    0    1
 -2       109       110       986       985
 -1       611    9    0    1
 -2       110       111       987       986
 -1       612    9    0    1
 -2       111       112       988       987
 -1       613    9    0    1
 -2       112       113       989       988
 -1       614    9    0    1
 -2       113       114       990       989
 -1       615    9    0    1
 -2       114       115       991       990
 -1       616    9    0    1
 -2       115       116       992       991
 -1       617    9    0    1
 -2       116       117       993       992
 -1       618    9    0    1
 -2       117       118       994       993
 -1       619    9    0    1
 -2       118         4        76       994
 -1       620    9    0    1
 -2        62       981       995        61
 -1       621    9    0    1
 -2       981       982       996       995
 -1       622    9    0    1
 -2       982       983       997       996
 -1       623    9    0    1
 -2       983       984       998       997
 -1       624    9    0    1
 -2       984       985       999       998
 -1       625    9    0    1
 -2       985       986      1000       999
 -1       626    9    0    1
 -2       986       987      1001      1000
 -1       627    9    0    1
 -2       987       988      1002      1001
 -1       628    9    0    1
 -2       988       989      1003      1002
 -1       629    9    0    1
 -2       989       990      1004      1003
 -1       630    9    0    1
 -2       990       991      1005      1004
 -1       631    9    0    1
 -2       991       992      1006      1005
 -1       632    9    0    1
 -2       992       993      1007      1006
 -1       633    9    0    1
 -2       993       994      1008      1007
 -1       634    9    0    1
 -2       994        76        75      1008
 -1       635    9    0    1
 -2        61       995      1009        60
 -1       636    9    0    1
 -2       995       996      1010      1009
 -1       637    9    0    1
 -2       996       997      1011      1010
 -1       638    9    0    1
 -2       997       998      1012      1011
 -1       639    9    0    1
 -2       998       999      1013      1012
 -1       640    9    0    1
 -2       999      1000      1014      1013
 -1       641    9    0    1
 -2      1000      1001      1015      1014
 -1       642    9    0    1
 -2      1001      1002      1016      1015
 -1       643    9    0    1
 -2      1002      1003      1017      1016
 -1       644    9    0    1
 -2      1003      1004      1018      1017
 -1       645    9    0    1
 -2      1004      1005      1019      1018
 -1       646    9    0    1
 -2      1005      1006      1020      1019
 -1       647    9    0    1
 -2      1006      1007      1021      1020
 -1       648    9    0    1
 -2      1007      1008      1022      1021
 -1       649    9    0    1
 -2      1008        75        74      1022
 -1       650    9    0    1
 -2        60      1009      1023        59
 -1       651    9    0    1
 -2      1009      1010      1024      1023
 -1       652    9    0    1
 -2      1010      1011      1025      1024
 -1       653    9    0    1
 -2      1011      1012      1026      1025
 -1       654    9    0    1
 -2      1012      1013      1027      1026
 -1       655    9    0    1
 -2      1013      1014      1028      1027
 -1       656    9    0    1
 -2      1014      1015      1029      1028
 -1       657    9    0    1
 -2      1015      1016      1030      1029
 -1       658    9    0    1
 -2      1016      1017      1031      1030
 -1       659    9    0    1
 -2      1017      1018      1032      1031
 -1       660    9    0    1
 -2      1018      1019      1033      1032
 -1       661    9    0    1
 -2      1019      1020      1034      1033
 -1       662    9    0    1
 -2      1020      1021      1035      1034
 -1       663    9    0    1
 -2      1021      1022      1036      1035
 -1       664    9    0    1
 -2      1022        74        73      1036
 -1       665    9    0    1
 -2        59      1023      1037        58
 -1       666    9    0    1
 -2      1023      1024      1038      1037
 -1       667    9    0    1
 -2      1024      1025      1039      1038
 -1       668    9    0    1
 -2      1025      1026      1040      1039
 -1       669    9    0    1
 -2      1026      1027      1041      1040
 -1       670    9    0    1
 -2      1027      1028      1042      1041
 -1       671    9    0    1
 -2      1028      1029      1043      1042
 -1       672    9    0    1
 -2      1029      1030      1044      1043
 -1       673    9    0    1
 -2      1030      1031      1045      1044
 -1       674    9    0    1
 -2      1031      1032      1046      1045
 -1       675    9    0    1
 -2      1032      1033      1047      1046
 -1       676    9    0    1
 -2      1033      1034      1048      1047
 -1       677    9    0    1
 -2      1034      1035      1049      1048
 -1       678    9    0    1
 -2      1035      1036      1050      1049
 -1       679    9    0    1
 -2      1036        73        72      1050
 -1       680    9    0    1
 -2        58      1037      1051        57
 -1       681    9    0    1
 -2      1037      1038      1052      1051
 -1       682    9    0    1
 -2      1038      1039      1053      1052
 -1       683    9    0    1
 -2      1039      1040      1054      1053
 -1       684    9    0    1
 -2      1040      1041      1055      1054
 -1       685    9    0    1
 -2      1041      1042      1056      1055
 -1       686    9    0    1
 -2      1042      1043      1057      1056
 -1       687    9    0    1
 -2      1043      1044      1058      1057
 -1       688    9    0    1
 -2      1044      1045      1059      1058
 -1       689    9    0    1
 -2      1045      1046      1060      1059
 -1       690    9    0    1
 -2      1046      1047      1061      1060
 -1       691    9    0    1
 -2      1047      1048      1062      1061
 -1       692    9    0    1
 -2      1048      1049      1063      1062
 -1       693    9    0    1
 -2      1049      1050      1064      1063
 -1       694    9    0    1
 -2      1050        72        71      1064
 -1       695    9    0    1
 -2        57      1051      1065        56
 -1       696    9    0    1
 -2      1051      1052      1066      1065
 -1       697    9    0    1
 -2      1052      1053      1067      1066
 -1       698    9    0    1
 -2      1053      1054      1068      1067
 -1       699    9    0    1
 -2      1054      1055      1069      1068
 -1       700    9    0    1
 -2      1055      1056      1070      1069
 -1       701    9    0    1
 -2      1056      1057      1071      1070
 -1       702    9    0    1
 -2      1057      1058      1072      1071
 -1       703    9    0    1
 -2      1058      1059      1073      1072
 -1       704    9    0    1
 -2      1059      1060      1074      1073
 -1       705    9    0    1
 -2      1060      1061      1075      1074
 -1       706    9    0    1
 -2      1061      1062      1076      1075
 -1       707    9    0    1
 -2      1062      1063      1077      1076
 -1       708    9    0    1
 -2      1063      1064      1078      1077
 -1       709    9    0    1
 -2      1064        71        70      1078
 -1       710    9    0    1
 -2        56      1065      1079        55
 -1       711    9    0    1
 -2      1065      1066      1080      1079
 -1       712    9    0    1
 -2      1066      1067      1081      1080
 -1       713    9    0    1
 -2      1067      1068      1082      1081
 -1       714    9    0    1
 -2      1068      1069      1083      1082
 -1       715    9    0    1
 -2      1069      1070      1084      1083
 -1       716    9    0    1
 -2      1070      1071      1085      1084
 -1       717    9    0    1
 -2      1071      1072      1086      1085
 -1       718    9    0    1
 -2      1072      1073      1087      1086
 -1       719    9    0    1
 -2      1073      1074      1088      1087
 -1       720    9    0    1
 -2      1074      1075      1089      1088
 -1       721    9    0    1
 -2      1075      1076      1090      1089
 -1       722    9    0    1
 -2      1076      1077      1091      1090
 -1       723    9    0    1
 -2      1077      1078      1092      1091
 -1       724    9    0    1
 -2      1078        70        69      1092
 -1       725    9    0    1
 -2        55      1079      1093        54
 -1       726    9    0    1
 -2      1079      1080      1094      1093
 -1       727    9    0    1
 -2      1080      1081      1095      1094
 -1       728    9    0    1
 -2      1081      1082      1096      1095
 -1       729    9    0    1
 -2      1082      1083      1097      1096
 -1       730    9    0    1
 -2      1083      1084      1098      1097
 -1       731    9    0    1
 -2      1084      1085      1099      1098
 -1       732    9    0    1
 -2      1085      1086      1100      1099
 -1       733    9    0    1
 -2      1086      1087      1101      1100
 -1       734    9    0    1
 -2      1087      1088      1102      1101
 -1       735    9    0    1
 -2      1088      1089      1103      1102
 -1       736    9    0    1
 -2      1089      1090      1104      1103
 -1       737    9    0    1
 -2      1090      1091      1105      1104
 -1       738    9    0    1
 -2      1091      1092      1106      1105
 -1       739    9    0    1
 -2      1092        69        68      1106
 -1       740    9    0    1
 -2        54      1093      1107        53
 -1       741    9    0    1
 -2      1093      1094      1108      1107
 -1       742    9    0    1
 -2      1094      1095      1109      1108
 -1       743    9    0    1
 -2      1095      1096      1110      1109
 -1       744    9    0    1
 -2      1096      1097      1111      1110
 -1       745    9    0    1
 -2      1097      1098      1112      1111
 -1       746    9    0    1
 -2      1098      1099      1113      1112
 -1       747    9    0    1
 -2      1099      1100      1114      1113
 -1       748    9    0    1
 -2      1100      1101      1115      1114
 -1       749    9    0    1
 -2      1101      1102      1116      1115
 -1       750    9    0    1
 -2      1102      1103      1117      1116
 -1       751    9    0    1
 -2      1103      1104      1118      1117
 -1       752    9    0    1
 -2      1104      1105      1119      1118
 -1       753    9    0    1
 -2      1105      1106      1120      1119
 -1       754    9    0    1
 -2      1106        68        67      1120
 -1       755    9    0    1
 -2        53      1107      1121        52
 -1       756    9    0    1
 -2      1107      1108      1122      1121
 -1       757    9    0    1
 -2      1108      1109      1123      1122
 -1       758    9    0    1
 -2      1109      1110      1124      1123
 -1       759    9    0    1
 -2      1110      1111      1125      1124
 -1       760    9    0    1
 -2      1111      1112      1126      1125
 -1       761    9    0    1
 -2      1112      1113      1127      1126
 -1       762    9    0    1
 -2      1113      1114      1128      1127
 -1       763    9    0    1
 -2      1114      1115      1129      1128
 -1       764    9    0    1
 -2      1115      1116      1130      1129
 -1       765    9    0    1
 -2      1116      1117      1131      1130
 -1       766    9    0    1
 -2      1117      1118      1132      1131
 -1       767    9    0    1
 -2      1118      1119      1133      1132
 -1       768    9    0    1
 -2      1119      1120      1134      1133
 -1       769    9    0    1
 -2      1120        67        66      1134
 -1       770    9    0    1
 -2        52      1121      1135        51
 -1       771    9    0    1
 -2      1121      1122      1136      1135
 -1       772    9    0    1
 -2      1122      1123      1137      1136
 -1       773    9    0    1
 -2      1123      1124      1138      1137
 -1       774    9    0    1
 -2      1124      1125      1139      1138
 -1       775    9    0    1
 -2      1125      1126      1140      1139
 -1       776    9    0    1
 -2      1126      1127      1141      1140
 -1       777    9    0    1
 -2      1127      1128      1142      1141
 -1       778    9    0    1
 -2      1128      1129      1143      1142
 -1       779    9    0    1
 -2      1129      1130      1144      1143
 -1       780    9    0    1
 -2      1130      1131      1145      1144
 -1       781    9    0    1
 -2      1131      1132      1146      1145
 -1       782    9    0    1
 -2      1132      1133      1147      1146
 -1       783    9    0    1
 -2      1133      1134      1148      1147
 -1       784    9    0    1
 -2      1134        66        65      1148
 -1       785    9    0    1
 -2        51      1135      1149        50
 -1       786    9    0    1
 -2      1135      1136      1150      1149
 -1       787    9    0    1
 -2      1136      1137      1151      1150
 -1       788    9    0    1
 -2      1137      1138      1152      1151
 -1       789    9    0    1
 -2      1138      1139      1153      1152
 -1       790    9    0    1
 -2      1139      1140      1154      1153
 -1       791    9    0    1
 -2      1140      1141      1155      1154
 -1       792    9    0    1
 -2      1141      1142      1156      1155
 -1       793    9    0    1
 -2      1142      1143      1157      1156
 -1       794    9    0    1
 -2      1143      1144      1158      1157
 -1       795    9    0    1
 -2      1144      1145      1159      1158
 -1       796    9    0    1
 -2      1145      1146      1160      1159
 -1       797    9    0    1
 -2      1146      1147      1161      1160
 -1       798    9    0    1
 -2      1147      1148      1162      1161
 -1       799    9    0    1
 -2      1148        65        64      1162
 -1       800    9    0    1
 -2        50      1149      1163        49
 -1       801    9    0    1
 -2      1149      1150      1164      1163
 -1       802    9    0    1
 -2      1150      1151      1165      1164
 -1       803    9    0    1
 -2      1151      1152      1166      1165
 -1       804    9    0    1
 -2      1152      1153      1167      1166
 -1       805    9    0    1
 -2      1153      1154      1168      1167
 -1       806    9    0    1
 -2      1154      1155      1169      1168
 -1       807    9    0    1
 -2      1155      1156      1170      1169
 -1       808    9    0    1
 -2      1156      1157      1171      1170
 -1       809    9    0    1
 -2      1157      1158      1172      1171
 -1       810    9    0    1
 -2      1158      1159      1173      1172
 -1       811    9    0    1
 -2      1159      1160      1174      1173
 -1       812    9    0    1
 -2      1160      1161      1175      1174
 -1       813    9    0    1
 -2      1161      1162      1176      1175
 -1       814    9    0    1
 -2      1162        64        63      1176
 -1       815    9    0    1
 -2        49      1163       161         7
 -1       816    9    0    1
 -2      1163      1164       162       161
 -1       817    9    0    1
 -2      1164      1165       163       162
 -1       818    9    0    1
 -2      1165      1166       164       163
 -1       819    9    0    1
 -2      1166      1167       165       164
 -1       820    9    0    1
 -2      1167      1168       166       165
 -1       821    9    0    1
 -2      1168      1169       167       166
 -1       822    9    0    1
 -2      1169      1170       168       167
 -1       823    9    0    1
 -2      1170      1171       169       168
 -1       824    9    0    1
 -2      1171      1172       170       169
 -1       825    9    0    1
 -2      1172      1173       171       170
 -1       826    9    0    1
 -2      1173      1174       172       171
 -1       827    9    0    1
 -2      1174      1175       173       172
 -1       828    9    0    1
 -2      1175      1176       174       173
 -1       829    9    0    1
 -2      1176        63         8       174
 -1       830    9    0    1
 -2         4       119      1177        76
 -1       831    9    0    1
 -2       119       120      1178      1177
 -1       832    9    0    1
 -2       120       121      1179      1178
 -1       833    9    0    1
 -2       121       122      1180      1179
 -1       834    9    0    1
 -2       122       123      1181      1180
 -1       835    9    0    1
 -2       123       124      1182      1181
 -1       836    9    0    1
 -2       124       125      1183      1182
 -1       837    9    0    1
 -2       125       126      1184      1183
 -1       838    9    0    1
 -2       126       127      1185      1184
 -1       839    9    0    1
 -2       127       128      1186      1185
 -1       840    9    0    1
 -2       128       129      1187      1186
 -1       841    9    0    1
 -2       129       130      1188      1187
 -1       842    9    0    1
 -2       130       131      1189      1188
 -1       843    9    0    1
 -2       131       132      1190      1189
 -1       844    9    0    1
 -2       132         1        34      1190
 -1       845    9    0    1
 -2        76      1177      1191        75
 -1       846    9    0    1
 -2      1177      1178      1192      1191
 -1       847    9    0    1
 -2      1178      1179      1193      1192
 -1       848    9    0    1
 -2      1179      1180      1194      1193
 -1       849    9    0    1
 -2      1180      1181      1195      1194
 -1       850    9    0    1
 -2      1181      1182      1196      1195
 -1       851    9    0    1
 -2      1182      1183      1197      1196
 -1       852    9    0    1
 -2      1183      1184      1198      1197
 -1       853    9    0    1
 -2      1184      1185      1199      1198
 -1       854    9    0    1
 -2      1185      1186      1200      1199
 -1       855    9    0    1
 -2      1186      1187      1201      1200
 -1       856    9    0    1
 -2      1187      1188      1202      1201
 -1       857    9    0    1
 -2      1188      1189      1203      1202
 -1       858    9    0    1
 -2      1189      1190      1204      1203
 -1       859    9    0    1
 -2      1190        34        33      1204
 -1       860    9    0    1
 -2        75      1191      1205        74
 -1       861    9    0    1
 -2      1191      1192      1206      1205
 -1       862    9    0    1
 -2      1192      1193      1207      1206
 -1       863    9    0    1
 -2      1193      1194      1208      1207
 -1       864    9    0    1
 -2      1194      1195      1209      1208
 -1       865    9    0    1
 -2      1195      1196      1210      1209
 -1       866    9    0    1
 -2      1196      1197      1211      1210
 -1       867    9    0    1
 -2      1197      1198      1212      1211
 -1       868    9    0    1
 -2      1198      1199      1213      1212
 -1       869    9    0    1
 -2      1199      1200      1214      1213
 -1       870    9    0    1
 -2      1200      1201      1215      1214
 -1       871    9    0    1
 -2      1201      1202      1216      1215
 -1       872    9    0    1
 -2      1202      1203      1217      1216
 -1       873    9    0    1
 -2      1203      1204      1218      1217
 -1       874    9    0    1
 -2      1204        33        32      1218
 -1       875    9    0    1
 -2        74      1205      1219        73
 -1       876    9    0    1
 -2      1205      1206      1220      1219
 -1       877    9    0    1
 -2      1206      1207      1221      1220
 -1       878    9    0    1
 -2      1207      1208      1222      1221
 -1       879    9    0    1
 -2      1208      1209      1223      1222
 -1       880    9    0    1
 -2      1209      1210      1224      1223
 -1       881    9    0    1
 -2      1210      1211      1225      1224
 -1       882    9    0    1
 -2      1211      1212      1226      1225
 -1       883    9    0    1
 -2      1212      1213      1227      1226
 -1       884    9    0    1
 -2      1213      1214      1228      1227
 -1       885    9    0    1
 -2      1214      1215      1229      1228
 -1       886    9    0    1
 -2      1215      1216      1230      1229
 -1       887    9    0    1
 -2      1216      1217      1231      1230
 -1       888    9    0    1
 -2      1217      1218      1232      1231
 -1       889    9    0    1
 -2      1218        32        31      1232
 -1       890    9    0    1
 -2        73      1219      1233        72
 -1       891    9    0    1
 -2      1219      1220      1234      1233
 -1       892    9    0    1
 -2      1220      1221      1235      1234
 -1       893    9    0    1
 -2      1221      1222      1236      1235
 -1       894    9    0    1
 -2      1222      1223      1237      1236
 -1       895    9    0    1
 -2      1223      1224      1238      1237
 -1       896    9    0    1
 -2      1224      1225      1239      1238
 -1       897    9    0    1
 -2      1225      1226      1240      1239
 -1       898    9    0    1
 -2      1226      1227      1241      1240
 -1       899    9    0    1
 -2      1227      1228      1242      1241
 -1       900    9    0    1
 -2      1228      1229      1243      1242
 -1       901    9    0    1
 -2      1229      1230      1244      1243
 -1       902    9    0    1
 -2      1230      1231      1245      1244
 -1       903    9    0    1
 -2      1231      1232      1246      1245
 -1       904    9    0    1
 -2      1232        31        30      1246
 -1       905    9    0    1
 -2        72      1233      1247        71
 -1       906    9    0    1
 -2      1233      1234      1248      1247
 -1       907    9    0    1
 -2      1234      1235      1249      1248
 -1       908    9    0    1
 -2      1235      1236      1250      1249
 -1       909    9    0    1
 -2      1236      1237      1251      1250
 -1       910    9    0    1
 -2      1237      1238      1252      1251
 -1       911    9    0    1
 -2      1238      1239      1253      1252
 -1       912    9    0    1
 -2      1239      1240      1254      1253
 -1       913    9    0    1
 -2      1240      1241      1255      1254
 -1       914    9    0    1
 -2      1241      1242      1256      1255
 -1       915    9    0    1
 -2      1242      1243      1257      1256
 -1       916    9    0    1
 -2      1243      1244      1258      1257
 -1       917    9    0    1
 -2      1244      1245      1259      1258
 -1       918    9    0    1
 -2      1245      1246      1260      1259
 -1       919    9    0    1
 -2      1246        30        29      1260
 -1       920    9    0    1
 -2        71      1247      1261        70
 -1       921    9    0    1
 -2      1247      1248      1262      1261
 -1       922    9    0    1
 -2      1248      1249      1263      1262
 -1       923    9    0    1
 -2      1249      1250      1264      1263
 -1       924    9    0    1
 -2      1250      1251      1265      1264
 -1       925    9    0    1
 -2      1251      1252      1266      1265
 -1       926    9    0    1
 -2      1252      1253      1267      1266
 -1       927    9    0    1
 -2      1253      1254      1268      1267
 -1       928    9    0    1
 -2      1254      1255      1269      1268
 -1       929    9    0    1
 -2      1255      1256      1270      1269
 -1       930    9    0    1
 -2      1256      1257      1271      1270
 -1       931    9    0    1
 -2      1257      1258      1272      1271
 -1       932    9    0    1
 -2      1258      1259      1273      1272
 -1       933    9    0    1
 -2      1259      1260      1274      1273
 -1       934    9    0    1
 -2      1260        29        28      1274
 -1       935    9    0    1
 -2        70      1261      1275        69
 -1       936    9    0    1
 -2      1261      1262      1276      1275
 -1       937    9    0    1
 -2      1262      1263      1277      1276
 -1       938    9    0    1
 -2      1263      1264      1278      1277
 -1       939    9    0    1
 -2      1264      1265      1279      1278
 -1       940    9    0    1
 -2      1265      1266      1280      1279
 -1       941    9    0    1
 -2      1266      1267      1281      1280
 -1       942    9    0    1
 -2      1267      1268      1282      1281
 -1       943    9    0    1
 -2      1268      1269      1283      1282
 -1       944    9    0    1
 -2      1269      1270      1284      1283
 -1       945    9    0    1
 -2      1270      1271      1285      1284
 -1       946    9    0    1
 -2      1271      1272      1286      1285
 -1       947    9    0    1
 -2      1272      1273      1287      1286
 -1       948    9    0    1
 -2      1273      1274      1288      1287
 -1       949    9    0    1
 -2      1274        28        27      1288
 -1       950    9    0    1
 -2        69      1275      1289        68
 -1       951    9    0    1
 -2      1275      1276      1290      1289
 -1       952    9    0    1
 -2      1276      1277      1291      1290
 -1       953    9    0    1
 -2      1277      1278      1292      1291
 -1       954    9    0    1
 -2      1278      1279      1293      1292
 -1       955    9    0    1
 -2      1279      1280      1294      1293
 -1       956    9    0    1
 -2      1280      1281      1295      1294
 -1       957    9    0    1
 -2      1281      1282      1296      1295
 -1       958    9    0    1
 -2      1282      1283      1297      1296
 -1       959    9    0    1
 -2      1283      1284      1298      1297
 -1       960    9    0    1
 -2      1284      1285      1299      1298
 -1       961    9    0    1
 -2      1285      1286      1300      1299
 -1       962    9    0    1
 -2      1286      1287      1301      1300
 -1       963    9    0    1
 -2      1287      1288      1302      1301
 -1       964    9    0    1
 -2      1288        27        26      1302
 -1       965    9    0    1
 -2        68      1289      1303        67
 -1       966    9    0    1
 -2      1289      1290      1304      1303
 -1       967    9    0    1
 -2      1290      1291      1305      1304
 -1       968    9    0    1
 -2      1291      1292      1306      1305
 -1       969    9    0    1
 -2      1292      1293      1307      1306
 -1       970    9    0    1
 -2      1293      1294      1308      1307
 -1       971    9    0    1
 -2      1294      1295      1309      1308
 -1       972    9    0    1
 -2      1295      1296      1310      1309
 -1       973    9    0    1
 -2      1296      1297      1311      1310
 -1       974    9    0    1
 -2      1297      1298      1312      1311
 -1       975    9    0    1
 -2      1298      1299      1313      1312
 -1       976    9    0    1
 -2      1299      1300      1314      1313
 -1       977    9    0    1
 -2      1300      1301      1315      1314
 -1       978    9    0    1
 -2      1301      1302      1316      1315
 -1       979    9    0    1
 -2      1302        26        25      1316
 -1       980    9    0    1
 -2        67      1303      1317        66
 -1       981    9    0    1
 -2      1303      1304      1318      1317
 -1       982    9    0    1
 -2      1304      1305      1319      1318
 -1       983    9    0    1
 -2      1305      1306      1320      1319
 -1       984    9    0    1
 -2      1306      1307      1321      1320
 -1       985    9    0    1
 -2      1307      1308      1322      1321
 -1       986    9    0    1
 -2      1308      1309      1323      1322
 -1       987    9    0    1
 -2      1309      1310      1324      1323
 -1       988    9    0    1
 -2      1310      1311      1325      1324
 -1       989    9    0    1
 -2      1311      1312      1326      1325
 -1       990    9    0    1
 -2      1312      1313      1327      1326
 -1       991    9    0    1
 -2      1313      1314      1328      1327
 -1       992    9    0    1
 -2      1314      1315      1329      1328
 -1       993    9    0    1
 -2      1315      1316      1330      1329
 -1       994    9    0    1
 -2      1316        25        24      1330
 -1       995    9    0    1
 -2        66      1317      1331        65
 -1       996    9    0    1
 -2      1317      1318      1332      1331
 -1       997    9    0    1
 -2      1318      1319      1333      1332
 -1       998    9    0    1
 -2      1319      1320      1334      1333
 -1       999    9    0    1
 -2      1320      1321      1335      1334
 -1      1000    9    0    1
 -2      1321      1322      1336      1335
 -1      1001    9    0    1
 -2      1322      1323      1337      1336
 -1      1002    9    0    1
 -2      1323      1324      1338      1337
 -1      1003    9    0    1
 -2      1324      1325      1339      1338
 -1      1004    9    0    1
 -2      1325      1326      1340      1339
 -1      1005    9    0    1
 -2      1326      1327      1341      1340
 -1      1006    9    0    1
 -2      1327      1328      1342      1341
 -1      1007    9    0    1
 -2      1328      1329      1343      1342
 -1      1008    9    0    1
 -2      1329      1330      1344      1343
 -1      1009    9    0    1
 -2      1330        24        23      1344
 -1      1010    9    0    1
 -2        65      1331      1345        64
 -1      1011    9    0    1
 -2      1331      1332      1346      1345
 -1      1012    9    0    1
 -2      1332      1333      1347      1346
 -1      1013    9    0    1
 -2      1333      1334      1348      1347
 -1      1014    9    0    1
 -2      1334      1335      1349      1348
 -1      1015    9    0    1
 -2      1335      1336      1350      1349
 -1      1016    9    0    1
 -2      1336      1337      1351      1350
 -1      1017    9    0    1
 -2      1337      1338      1352      1351
 -1      1018    9    0    1
 -2      1338      1339      1353      1352
 -1      1019    9    0    1
 -2      1339      1340      1354      1353
 -1      1020    9    0    1
 -2      1340      1341      1355      1354
 -1      1021    9    0    1
 -2      1341      1342      1356      1355
 -1      1022    9    0    1
 -2      1342      1343      1357      1356
 -1      1023    9    0    1
 -2      1343      1344      1358      1357
 -1      1024    9    0    1
 -2      1344        23        22      1358
 -1      1025    9    0    1
 -2        64      1345      1359        63
 -1      1026    9    0    1
 -2      1345      1346      1360      1359
 -1      1027    9    0    1
 -2      1346      1347      1361      1360
 -1      1028    9    0    1
 -2      1347      1348      1362      1361
 -1      1029    9    0    1
 -2      1348      1349      1363      1362
 -1      1030    9    0    1
 -2      1349      1350      1364      1363
 -1      1031    9    0    1
 -2      1350      1351      1365      1364
 -1      1032    9    0    1
 -2      1351      1352      1366      1365
 -1      1033    9    0    1
 -2      1352      1353      1367      1366
 -1      1034    9    0    1
 -2      1353      1354      1368      1367
 -1      1035    9    0    1
 -2      1354      1355      1369      1368
 -1      1036    9    0    1
 -2      1355      1356      1370      1369
 -1      1037    9    0    1
 -2      1356      1357      1371      1370
 -1      1038    9    0    1
 -2      1357      1358      1372      1371
 -1      1039    9    0    1
 -2      1358        22        21      1372
 -1      1040    9    0    1
 -2        63      1359       175         8
 -1      1041    9    0    1
 -2      1359      1360       176       175
 -1      1042    9    0    1
 -2      1360      1361       177       176
 -1      1043    9    0    1
 -2      1361      1362       178       177
 -1      1044    9    0    1
 -2      1362      1363       179       178
 -1      1045    9    0    1
 -2      1363      1364       180       179
 -1      1046    9    0    1
 -2      1364      1365       181       180
 -1      1047    9    0    1
 -2      1365      1366       182       181
 -1      1048    9    0    1
 -2      1366      1367       183       182
 -1      1049    9    0    1
 -2      1367      1368       184       183
 -1      1050    9    0    1
 -2      1368      1369       185       184
 -1      1051    9    0    1
 -2      1369      1370       186       185
 -1      1052    9    0    1
 -2      1370      1371       187       186
 -1      1053    9    0    1
 -2      1371      1372       188       187
 -1      1054    9    0    1
 -2      1372        21         5       188
 -1      1055    9    0    1
 -2         9       416      1373       189
 -1      1056    9    0    1
 -2       416       415      1374      1373
 -1      1057    9    0    1
 -2       415       414      1375      1374
 -1      1058    9    0    1
 -2       414       413      1376      1375
 -1      1059    9    0    1
 -2       413       412      1377      1376
 -1      1060    9    0    1
 -2       412       411      1378      1377
 -1      1061    9    0    1
 -2       411       410      1379      1378
 -1      1062    9    0    1
 -2       410       409      1380      1379
 -1      1063    9    0    1
 -2       409       408      1381      1380
 -1      1064    9    0    1
 -2       408       407      1382      1381
 -1      1065    9    0    1
 -2       407       406      1383      1382
 -1      1066    9    0    1
 -2       406       405      1384      1383
 -1      1067    9    0    1
 -2       405       404      1385      1384
 -1      1068    9    0    1
 -2       404       403      1386      1385
 -1      1069    9    0    1
 -2       403       402      1387      1386
 -1      1070    9    0    1
 -2       402        20       588      1387
 -1      1071    9    0    1
 -2       189      1373      1388       190
 -1      1072    9    0    1
 -2      1373      1374      1389      1388
 -1      1073    9    0    1
 -2      1374      1375      1390      1389
 -1      1074    9    0    1
 -2      1375      1376      1391      1390
 -1      1075    9    0    1
 -2      1376      1377      1392      1391
 -1      1076    9    0    1
 -2      1377      1378      1393      1392
 -1      1077    9    0    1
 -2      1378      1379      1394      1393
 -1      1078    9    0    1
 -2      1379      1380      1395      1394
 -1      1079    9    0    1
 -2      1380      1381      1396      1395
 -1      1080    9    0    1
 -2      1381      1382      1397      1396
 -1      1081    9    0    1
 -2      1382      1383      1398      1397
 -1      1082    9    0    1
 -2      1383      1384      1399      1398
 -1      1083    9    0    1
 -2      1384      1385      1400      1399
 -1      1084    9    0    1
 -2      1385      1386      1401      1400
 -1      1085    9    0    1
 -2      1386      1387      1402      1401
 -1      1086    9    0    1
 -2      1387       588       587      1402
 -1      1087    9    0    1
 -2       190      1388      1403       191
 -1      1088    9    0    1
 -2      1388      1389      1404      1403
 -1      1089    9    0    1
 -2      1389      1390      1405      1404
 -1      1090    9    0    1
 -2      1390      1391      1406      1405
 -1      1091    9    0    1
 -2      1391      1392      1407      1406
 -1      1092    9    0    1
 -2      1392      1393      1408      1407
 -1      1093    9    0    1
 -2      1393      1394      1409      1408
 -1      1094    9    0    1
 -2      1394      1395      1410      1409
 -1      1095    9    0    1
 -2      1395      1396      1411      1410
 -1      1096    9    0    1
 -2      1396      1397      1412      1411
 -1      1097    9    0    1
 -2      1397      1398      1413      1412
 -1      1098    9    0    1
 -2      1398      1399      1414      1413
 -1      1099    9    0    1
 -2      1399      1400      1415      1414
 -1      1100    9    0    1
 -2      1400      1401      1416      1415
 -1      1101    9    0    1
 -2      1401      1402      1417      1416
 -1      1102    9    0    1
 -2      1402       587       586      1417
 -1      1103    9    0    1
 -2       191      1403      1418       192
 -1      1104    9    0    1
 -2      1403      1404      1419      1418
 -1      1105    9    0    1
 -2      1404      1405      1420      1419
 -1      1106    9    0    1
 -2      1405      1406      1421      1420
 -1      1107    9    0    1
 -2      1406      1407      1422      1421
 -1      1108    9    0    1
 -2      1407      1408      1423      1422
 -1      1109    9    0    1
 -2      1408      1409      1424      1423
 -1      1110    9    0    1
 -2      1409      1410      1425      1424
 -1      1111    9    0    1
 -2      1410      1411      1426      1425
 -1      1112    9    0    1
 -2      1411      1412      1427      1426
 -1      1113    9    0    1
 -2      1412      1413      1428      1427
 -1      1114    9    0    1
 -2      1413      1414      1429      1428
 -1      1115    9    0    1
 -2      1414      1415      1430      1429
 -1      1116    9    0    1
 -2      1415      1416      1431      1430
 -1      1117    9    0    1
 -2      1416      1417      1432      1431
 -1      1118    9    0    1
 -2      1417       586       585      1432
 -1      1119    9    0    1
 -2       192      1418      1433       193
 -1      1120    9    0    1
 -2      1418      1419      1434      1433
 -1      1121    9    0    1
 -2      1419      1420      1435      1434
 -1      1122    9    0    1
 -2      1420      1421      1436      1435
 -1      1123    9    0    1
 -2      1421      1422      1437      1436
 -1      1124    9    0    1
 -2      1422      1423      1438      1437
 -1      1125    9    0    1
 -2      1423      1424      1439      1438
 -1      1126    9    0    1
 -2      1424      1425      1440      1439
 -1      1127    9    0    1
 -2      1425      1426      1441      1440
 -1      1128    9    0    1
 -2      1426      1427      1442      1441
 -1      1129    9    0    1
 -2      1427      1428      1443      1442
 -1      1130    9    0    1
 -2      1428      1429      1444      1443
 -1      1131    9    0    1
 -2      1429      1430      1445      1444
 -1      1132    9    0    1
 -2      1430      1431      1446      1445
 -1      1133    9    0    1
 -2      1431      1432      1447      1446
 -1      1134    9    0    1
 -2      1432       585       584      1447
 -1      1135    9    0    1
 -2       193      1433      1448       194
 -1      1136    9    0    1
 -2      1433      1434      1449      1448
 -1      1137    9    0    1
 -2      1434      1435      1450      1449
 -1      1138    9    0    1
 -2      1435      1436      1451      1450
 -1      1139    9    0    1
 -2      1436      1437      1452      1451
 -1      1140    9    0    1
 -2      1437      1438      1453      1452
 -1      1141    9    0    1
 -2      1438      1439      1454      1453
 -1      1142    9    0    1
 -2      1439      1440      1455      1454
 -1      1143    9    0    1
 -2      1440      1441      1456      1455
 -1      1144    9    0    1
 -2      1441      1442      1457      1456
 -1      1145    9    0    1
 -2      1442      1443      1458      1457
 -1      1146    9    0    1
 -2      1443      1444      1459      1458
 -1      1147    9    0    1
 -2      1444      1445      1460      1459
 -1      1148    9    0    1
 -2      1445      1446      1461      1460
 -1      1149    9    0    1
 -2      1446      1447      1462      1461
 -1      1150    9    0    1
 -2      1447       584       583      1462
 -1      1151    9    0    1
 -2       194      1448      1463       195
 -1      1152    9    0    1
 -2      1448      1449      1464      1463
 -1      1153    9    0    1
 -2      1449      1450      1465      1464
 -1      1154    9    0    1
 -2      1450      1451      1466      1465
 -1      1155    9    0    1
 -2      1451      1452      1467      1466
 -1      1156    9    0    1
 -2      1452      1453      1468      1467
 -1      1157    9    0    1
 -2      1453      1454      1469      1468
 -1      1158    9    0    1
 -2      1454      1455      1470      1469
 -1      1159    9    0    1
 -2      1455      1456      1471      1470
 -1      1160    9    0    1
 -2      1456      1457      1472      1471
 -1      1161    9    0    1
 -2      1457      1458      1473      1472
 -1      1162    9    0    1
 -2      1458      1459      1474      1473
 -1      1163    9    0    1
 -2      1459      1460      1475      1474
 -1      1164    9    0    1
 -2      1460      1461      1476      1475
 -1      1165    9    0    1
 -2      1461      1462      1477      1476
 -1      1166    9    0    1
 -2      1462       583       582      1477
 -1      1167    9    0    1
 -2       195      1463      1478       196
 -1      1168    9    0    1
 -2      1463      1464      1479      1478
 -1      1169    9    0    1
 -2      1464      1465      1480      1479
 -1      1170    9    0    1
 -2      1465      1466      1481      1480
 -1      1171    9    0    1
 -2      1466      1467      1482      1481
 -1      1172    9    0    1
 -2      1467      1468      1483      1482
 -1      1173    9    0    1
 -2      1468      1469      1484      1483
 -1      1174    9    0    1
 -2      1469      1470      1485      1484
 -1      1175    9    0    1
 -2      1470      1471      1486      1485
 -1      1176    9    0    1
 -2      1471      1472      1487      1486
 -1      1177    9    0    1
 -2      1472      1473      1488      1487
 -1      1178    9    0    1
 -2      1473      1474      1489      1488
 -1      1179    9    0    1
 -2      1474      1475      1490      1489
 -1      1180    9    0    1
 -2      1475      1476      1491      1490
 -1      1181    9    0    1
 -2      1476      1477      1492      1491
 -1      1182    9    0    1
 -2      1477       582       581      1492
 -1      1183    9    0    1
 -2       196      1478      1493       197
 -1      1184    9    0    1
 -2      1478      1479      1494      1493
 -1      1185    9    0    1
 -2      1479      1480      1495      1494
 -1      1186    9    0    1
 -2      1480      1481      1496      1495
 -1      1187    9    0    1
 -2      1481      1482      1497      1496
 -1      1188    9    0    1
 -2      1482      1483      1498      1497
 -1      1189    9    0    1
 -2      1483      1484      1499      1498
 -1      1190    9    0    1
 -2      1484      1485      1500      1499
 -1      1191    9    0    1
 -2      1485      1486      1501      1500
 -1      1192    9    0    1
 -2      1486      1487      1502      1501
 -1      1193    9    0    1
 -2      1487      1488      1503      1502
 -1      1194    9    0    1
 -2      1488      1489      1504      1503
 -1      1195    9    0    1
 -2      1489      1490      1505      1504
 -1      1196    9    0    1
 -2      1490      1491      1506      1505
 -1      1197    9    0    1
 -2      1491      1492      1507      1506
 -1      1198    9    0    1
 -2      1492       581       580      1507
 -1      1199    9    0    1
 -2       197      1493      1508       198
 -1      1200    9    0    1
 -2      1493      1494      1509      1508
 -1      1201    9    0    1
 -2      1494      1495      1510      1509
 -1      1202    9    0    1
 -2      1495      1496      1511      1510
 -1      1203    9    0    1
 -2      1496      1497      1512      1511
 -1      1204    9    0    1
 -2      1497      1498      1513      1512
 -1      1205    9    0    1
 -2      1498      1499      1514      1513
 -1      1206    9    0    1
 -2      1499      1500      1515      1514
 -1      1207    9    0    1
 -2      1500      1501      1516      1515
 -1      1208    9    0    1
 -2      1501      1502      1517      1516
 -1      1209    9    0    1
 -2      1502      1503      1518      1517
 -1      1210    9    0    1
 -2      1503      1504      1519      1518
 -1      1211    9    0    1
 -2      1504      1505      1520      1519
 -1      1212    9    0    1
 -2      1505      1506      1521      1520
 -1      1213    9    0    1
 -2      1506      1507      1522      1521
 -1      1214    9    0    1
 -2      1507       580       579      1522
 -1      1215    9    0    1
 -2       198      1508      1523       199
 -1      1216    9    0    1
 -2      1508      1509      1524      1523
 -1      1217    9    0    1
 -2      1509      1510      1525      1524
 -1      1218    9    0    1
 -2      1510      1511      1526      1525
 -1      1219    9    0    1
 -2      1511      1512      1527      1526
 -1      1220    9    0    1
 -2      1512      1513      1528      1527
 -1      1221    9    0    1
 -2      1513      1514      1529      1528
 -1      1222    9    0    1
 -2      1514      1515      1530      1529
 -1      1223    9    0    1
 -2      1515      1516      1531      1530
 -1      1224    9    0    1
 -2      1516      1517      1532      1531
 -1      1225    9    0    1
 -2      1517      1518      1533      1532
 -1      1226    9    0    1
 -2      1518      1519      1534      1533
 -1      1227    9    0    1
 -2      1519      1520      1535      1534
 -1      1228    9    0    1
 -2      1520      1521      1536      1535
 -1      1229    9    0    1
 -2      1521      1522      1537      1536
 -1      1230    9    0    1
 -2      1522       579       578      1537
 -1      1231    9    0    1
 -2       199      1523      1538       200
 -1      1232    9    0    1
 -2      1523      1524      1539      1538
 -1      1233    9    0    1
 -2      1524      1525      1540      1539
 -1      1234    9    0    1
 -2      1525      1526      1541      1540
 -1      1235    9    0    1
 -2      1526      1527      1542      1541
 -1      1236    9    0    1
 -2      1527      1528      1543      1542
 -1      1237    9    0    1
 -2      1528      1529      1544      1543
 -1      1238    9    0    1
 -2      1529      1530      1545      1544
 -1      1239    9    0    1
 -2      1530      1531      1546      1545
 -1      1240    9    0    1
 -2      1531      1532      1547      1546
 -1      1241    9    0    1
 -2      1532      1533      1548      1547
 -1      1242    9    0    1
 -2      1533      1534      1549      1548
 -1      1243    9    0    1
 -2      1534      1535      1550      1549
 -1      1244    9    0    1
 -2      1535      1536      1551      1550
 -1      1245    9    0    1
 -2      1536      1537      1552      1551
 -1      1246    9    0    1
 -2      1537       578       577      1552
 -1      1247    9    0    1
 -2       200      1538      1553       201
 -1      1248    9    0    1
 -2      1538      1539      1554      1553
 -1      1249    9    0    1
 -2      1539      1540      1555      1554
 -1      1250    9    0    1
 -2      1540      1541      1556      1555
 -1      1251    9    0    1
 -2      1541      1542      1557      1556
 -1      1252    9    0    1
 -2      1542      1543      1558      1557
 -1      1253    9    0    1
 -2      1543      1544      1559      1558
 -1      1254    9    0    1
 -2      1544      1545      1560      1559
 -1      1255    9    0    1
 -2      1545      1546      1561      1560
 -1      1256    9    0    1
 -2      1546      1547      1562      1561
 -1      1257    9    0    1
 -2      1547      1548      1563      1562
 -1      1258    9    0    1
 -2      1548      1549      1564      1563
 -1      1259    9    0    1
 -2      1549      1550      1565      1564
 -1      1260    9    0    1
 -2      1550      1551      1566      1565
 -1      1261    9    0    1
 -2      1551      1552      1567      1566
 -1      1262    9    0    1
 -2      1552       577       576      1567
 -1      1263    9    0    1
 -2       201      1553      1568       202
 -1      1264    9    0    1
 -2      1553      1554      1569      1568
 -1      1265    9    0    1
 -2      1554      1555      1570      1569
 -1      1266    9    0    1
 -2      1555      1556      1571      1570
 -1      1267    9    0    1
 -2      1556      1557      1572      1571
 -1      1268    9    0    1
 -2      1557      1558      1573      1572
 -1      1269    9    0    1
 -2      1558      1559      1574      1573
 -1      1270    9    0    1
 -2      1559      1560      1575      1574
 -1      1271    9    0    1
 -2      1560      1561      1576      1575
 -1      1272    9    0    1
 -2      1561      1562      1577      1576
 -1      1273    9    0    1
 -2      1562      1563      1578      1577
 -1      1274    9    0    1
 -2      1563      1564      1579      1578
 -1      1275    9    0    1
 -2      1564      1565      1580      1579
 -1      1276    9    0    1
 -2      1565      1566      1581      1580
 -1      1277    9    0    1
 -2      1566      1567      1582      1581
 -1      1278    9    0    1
 -2      1567       576       575      1582
 -1      1279    9    0    1
 -2       202      1568      1583       203
 -1      1280    9    0    1
 -2      1568      1569      1584      1583
 -1      1281    9    0    1
 -2      1569      1570      1585      1584
 -1      1282    9    0    1
 -2      1570      1571      1586      1585
 -1      1283    9    0    1
 -2      1571      1572      1587      1586
 -1      1284    9    0    1
 -2      1572      1573      1588      1587
 -1      1285    9    0    1
 -2      1573      1574      1589      1588
 -1      1286    9    0    1
 -2      1574      1575      1590      1589
 -1      1287    9    0    1
 -2      1575      1576      1591      1590
 -1      1288    9    0    1
 -2      1576      1577      1592      1591
 -1      1289    9    0    1
 -2      1577      1578      1593      1592
 -1      1290    9    0    1
 -2      1578      1579      1594      1593
 -1      1291    9    0    1
 -2      1579      1580      1595      1594
 -1      1292    9    0    1
 -2      1580      1581      1596      1595
 -1      1293    9    0    1
 -2      1581      1582      1597      1596
 -1      1294    9    0    1
 -2      1582       575       574      1597
 -1      1295    9    0    1
 -2       203      1583      1598       204
 -1      1296    9    0    1
 -2      1583      1584      1599      1598
 -1      1297    9    0    1
 -2      1584      1585      1600      1599
 -1      1298    9    0    1
 -2      1585      1586      1601      1600
 -1      1299    9    0    1
 -2      1586      1587      1602      1601
 -1      1300    9    0    1
 -2      1587      1588      1603      1602
 -1      1301    9    0    1
 -2      1588      1589      1604      1603
 -1      1302    9    0    1
 -2      1589      1590      1605      1604
 -1      1303    9    0    1
 -2      1590      1591      1606      1605
 -1      1304    9    0    1
 -2      1591      1592      1607      1606
 -1      1305    9    0    1
 -2      1592      1593      1608      1607
 -1      1306    9    0    1
 -2      1593      1594      1609      1608
 -1      1307    9    0    1
 -2      1594      1595      1610      1609
 -1      1308    9    0    1
 -2      1595      1596      1611      1610
 -1      1309    9    0    1
 -2      1596      1597      1612      1611
 -1      1310    9    0    1
 -2      1597       574       573      1612
 -1      1311    9    0    1
 -2       204      1598      1613       205
 -1      1312    9    0    1
 -2      1598      1599      1614      1613
 -1      1313    9    0    1
 -2      1599      1600      1615      1614
 -1      1314    9    0    1
 -2      1600      1601      1616      1615
 -1      1315    9    0    1
 -2      1601      1602      1617      1616
 -1      1316    9    0    1
 -2      1602      1603      1618      1617
 -1      1317    9    0    1
 -2      1603      1604      1619      1618
 -1      1318    9    0    1
 -2      1604      1605      1620      1619
 -1      1319    9    0    1
 -2      1605      1606      1621      1620
 -1      1320    9    0    1
 -2      1606      1607      1622      1621
 -1      1321    9    0    1
 -2      1607      1608      1623      1622
 -1      1322    9    0    1
 -2      1608      1609      1624      1623
 -1      1323    9    0    1
 -2      1609      1610      1625      1624
 -1      1324    9    0    1
 -2      1610      1611      1626      1625
 -1      1325    9    0    1
 -2      1611      1612      1627      1626
 -1      1326    9    0    1
 -2      1612       573       572      1627
 -1      1327    9    0    1
 -2       205      1613      1628       206
 -1      1328    9    0    1
 -2      1613      1614      1629      1628
 -1      1329    9    0    1
 -2      1614      1615      1630      1629
 -1      1330    9    0    1
 -2      1615      1616      1631      1630
 -1      1331    9    0    1
 -2      1616      1617      1632      1631
 -1      1332    9    0    1
 -2      1617      1618      1633      1632
 -1      1333    9    0    1
 -2      1618      1619      1634      1633
 -1      1334    9    0    1
 -2      1619      1620      1635      1634
 -1      1335    9    0    1
 -2      1620      1621      1636      1635
 -1      1336    9    0    1
 -2      1621      1622      1637      1636
 -1      1337    9    0    1
 -2      1622      1623      1638      1637
 -1      1338    9    0    1
 -2      1623      1624      1639      1638
 -1      1339    9    0    1
 -2      1624      1625      1640      1639
 -1      1340    9    0    1
 -2      1625      1626      1641      1640
 -1      1341    9    0    1
 -2      1626      1627      1642      1641
 -1      1342    9    0    1
 -2      1627       572       571      1642
 -1      1343    9    0    1
 -2       206      1628      1643       207
 -1      1344    9    0    1
 -2      1628      1629      1644      1643
 -1      1345    9    0    1
 -2      1629      1630      1645      1644
 -1      1346    9    0    1
 -2      1630      1631      1646      1645
 -1      1347    9    0    1
 -2      1631      1632      1647      1646
 -1      1348    9    0    1
 -2      1632      1633      1648      1647
 -1      1349    9    0    1
 -2      1633      1634      1649      1648
 -1      1350    9    0    1
 -2      1634      1635      1650      1649
 -1      1351    9    0    1
 -2      1635      1636      1651      1650
 -1      1352    9    0    1
 -2      1636      1637      1652      1651
 -1      1353    9    0    1
 -2      1637      1638      1653      1652
 -1      1354    9    0    1
 -2      1638      1639      1654      1653
 -1      1355    9    0    1
 -2      1639      1640      1655      1654
 -1      1356    9    0    1
 -2      1640      1641      1656      1655
 -1      1357    9    0    1
 -2      1641      1642      1657      1656
 -1      1358    9    0    1
 -2      1642       571       570      1657
 -1      1359    9    0    1
 -2       207      1643      1658       208
 -1      1360    9    0    1
 -2      1643      1644      1659      1658
 -1      1361    9    0    1
 -2      1644      1645      1660      1659
 -1      1362    9    0    1
 -2      1645      1646      1661      1660
 -1      1363    9    0    1
 -2      1646      1647      1662      1661
 -1      1364    9    0    1
 -2      1647      1648      1663      1662
 -1      1365    9    0    1
 -2      1648      1649      1664      1663
 -1      1366    9    0    1
 -2      1649      1650      1665      1664
 -1      1367    9    0    1
 -2      1650      1651      1666      1665
 -1      1368    9    0    1
 -2      1651      1652      1667      1666
 -1      1369    9    0    1
 -2      1652      1653      1668      1667
 -1      1370    9    0    1
 -2      1653      1654      1669      1668
 -1      1371    9    0    1
 -2      1654      1655      1670      1669
 -1      1372    9    0    1
 -2      1655      1656      1671      1670
 -1      1373    9    0    1
 -2      1656      1657      1672      1671
 -1      1374    9    0    1
 -2      1657       570       569      1672
 -1      1375    9    0    1
 -2       208      1658      1673       209
 -1      1376    9    0    1
 -2      1658      1659      1674      1673
 -1      1377    9    0    1
 -2      1659      1660      1675      1674
 -1      1378    9    0    1
 -2      1660      1661      1676      1675
 -1      1379    9    0    1
 -2      1661      1662      1677      1676
 -1      1380    9    0    1
 -2      1662      1663      1678      1677
 -1      1381    9    0    1
 -2      1663      1664      1679      1678
 -1      1382    9    0    1
 -2      1664      1665      1680      1679
 -1      1383    9    0    1
 -2      1665      1666      1681      1680
 -1      1384    9    0    1
 -2      1666      1667      1682      1681
 -1      1385    9    0    1
 -2      1667      1668      1683      1682
 -1      1386    9    0    1
 -2      1668      1669      1684      1683
 -1      1387    9    0    1
 -2      1669      1670      1685      1684
 -1      1388    9    0    1
 -2      1670      1671      1686      1685
 -1      1389    9    0    1
 -2      1671      1672      1687      1686
 -1      1390    9    0    1
 -2      1672       569       568      1687
 -1      1391    9    0    1
 -2       209      1673      1688       210
 -1      1392    9    0    1
 -2      1673      1674      1689      1688
 -1      1393    9    0    1
 -2      1674      1675      1690      1689
 -1      1394    9    0    1
 -2      1675      1676      1691      1690
 -1      1395    9    0    1
 -2      1676      1677      1692      1691
 -1      1396    9    0    1
 -2      1677      1678      1693      1692
 -1      1397    9    0    1
 -2      1678      1679      1694      1693
 -1      1398    9    0    1
 -2      1679      1680      1695      1694
 -1      1399    9    0    1
 -2      1680      1681      1696      1695
 -1      1400    9    0    1
 -2      1681      1682      1697      1696
 -1      1401    9    0    1
 -2      1682      1683      1698      1697
 -1      1402    9    0    1
 -2      1683      1684      1699      1698
 -1      1403    9    0    1
 -2      1684      1685      1700      1699
 -1      1404    9    0    1
 -2      1685      1686      1701      1700
 -1      1405    9    0    1
 -2      1686      1687      1702      1701
 -1      1406    9    0    1
 -2      1687       568       567      1702
 -1      1407    9    0    1
 -2       210      1688      1703       211
 -1      1408    9    0    1
 -2      1688      1689      1704      1703
 -1      1409    9    0    1
 -2      1689      1690      1705      1704
 -1      1410    9    0    1
 -2      1690      1691      1706      1705
 -1      1411    9    0    1
 -2      1691      1692      1707      1706
 -1      1412    9    0    1
 -2      1692      1693      1708      1707
 -1      1413    9    0    1
 -2      1693      1694      1709      1708
 -1      1414    9    0    1
 -2      1694      1695      1710      1709
 -1      1415    9    0    1
 -2      1695      1696      1711      1710
 -1      1416    9    0    1
 -2      1696      1697      1712      1711
 -1      1417    9    0    1
 -2      1697      1698      1713      1712
 -1      1418    9    0    1
 -2      1698      1699      1714      1713
 -1      1419    9    0    1
 -2      1699      1700      1715      1714
 -1      1420    9    0    1
 -2      1700      1701      1716      1715
 -1      1421    9    0    1
 -2      1701      1702      1717      1716
 -1      1422    9    0    1
 -2      1702       567       566      1717
 -1      1423    9    0    1
 -2       211      1703      1718       212
 -1      1424    9    0    1
 -2      1703      1704      1719      1718
 -1      1425    9    0    1
 -2      1704      1705      1720      1719
 -1      1426    9    0    1
 -2      1705      1706      1721      1720
 -1      1427    9    0    1
 -2      1706      1707      1722      1721
 -1      1428    9    0    1
 -2      1707      1708      1723      1722
 -1      1429    9    0    1
 -2      1708      1709      1724      1723
 -1      1430    9    0    1
 -2      1709      1710      1725      1724
 -1      1431    9    0    1
 -2      1710      1711      1726      1725
 -1      1432    9    0    1
 -2      1711      1712      1727      1726
 -1      1433    9    0    1
 -2      1712      1713      1728      1727
 -1      1434    9    0    1
 -2      1713      1714      1729      1728
 -1      1435    9    0    1
 -2      1714      1715      1730      1729
 -1      1436    9    0    1
 -2      1715      1716      1731      1730
 -1      1437    9    0    1
 -2      1716      1717      1732      1731
 -1      1438    9    0    1
 -2      1717       566       565      1732
 -1      1439    9    0    1
 -2       212      1718      1733       213
 -1      1440    9    0    1
 -2      1718      1719      1734      1733
 -1      1441    9    0    1
 -2      1719      1720      1735      1734
 -1      1442    9    0    1
 -2      1720      1721      1736      1735
 -1      1443    9    0    1
 -2      1721      1722      1737      1736
 -1      1444    9    0    1
 -2      1722      1723      1738      1737
 -1      1445    9    0    1
 -2      1723      1724      1739      1738
 -1      1446    9    0    1
 -2      1724      1725      1740      1739
 -1      1447    9    0    1
 -2      1725      1726      1741      1740
 -1      1448    9    0    1
 -2      1726      1727      1742      1741
 -1      1449    9    0    1
 -2      1727      1728      1743      1742
 -1      1450    9    0    1
 -2      1728      1729      1744      1743
 -1      1451    9    0    1
 -2      1729      1730      1745      1744
 -1      1452    9    0    1
 -2      1730      1731      1746      1745
 -1      1453    9    0    1
 -2      1731      1732      1747      1746
 -1      1454    9    0    1
 -2      1732       565       564      1747
 -1      1455    9    0    1
 -2       213      1733      1748       214
 -1      1456    9    0    1
 -2      1733      1734      1749      1748
 -1      1457    9    0    1
 -2      1734      1735      1750      1749
 -1      1458    9    0    1
 -2      1735      1736      1751      1750
 -1      1459    9    0    1
 -2      1736      1737      1752      1751
 -1      1460    9    0    1
 -2      1737      1738      1753      1752
 -1      1461    9    0    1
 -2      1738      1739      1754      1753
 -1      1462    9    0    1
 -2      1739      1740      1755      1754
 -1      1463    9    0    1
 -2      1740      1741      1756      1755
 -1      1464    9    0    1
 -2      1741      1742      1757      1756
 -1      1465    9    0    1
 -2      1742      1743      1758      1757
 -1      1466    9    0    1
 -2      1743      1744      1759      1758
 -1      1467    9    0    1
 -2      1744      1745      1760      1759
 -1      1468    9    0    1
 -2      1745      1746      1761      1760
 -1      1469    9    0    1
 -2      1746      1747      1762      1761
 -1      1470    9    0    1
 -2      1747       564       563      1762
 -1      1471    9    0    1
 -2       214      1748      1763       215
 -1      1472    9    0    1
 -2      1748      1749      1764      1763
 -1      1473    9    0    1
 -2      1749      1750      1765      1764
 -1      1474    9    0    1
 -2      1750      1751      1766      1765
 -1      1475    9    0    1
 -2      1751      1752      1767      1766
 -1      1476    9    0    1
 -2      1752      1753      1768      1767
 -1      1477    9    0    1
 -2      1753      1754      1769      1768
 -1      1478    9    0    1
 -2      1754      1755      1770      1769
 -1      1479    9    0    1
 -2      1755      1756      1771      1770
 -1      1480    9    0    1
 -2      1756      1757      1772      1771
 -1      1481    9    0    1
 -2      1757      1758      1773      1772
 -1      1482    9    0    1
 -2      1758      1759      1774      1773
 -1      1483    9    0    1
 -2      1759      1760      1775      1774
 -1      1484    9    0    1
 -2      1760      1761      1776      1775
 -1      1485    9    0    1
 -2      1761      1762      1777      1776
 -1      1486    9    0    1
 -2      1762       563       562      1777
 -1      1487    9    0    1
 -2       215      1763      1778       216
 -1      1488    9    0    1
 -2      1763      1764      1779      1778
 -1      1489    9    0    1
 -2      1764      1765      1780      1779
 -1      1490    9    0    1
 -2      1765      1766      1781      1780
 -1      1491    9    0    1
 -2      1766      1767      1782      1781
 -1      1492    9    0    1
 -2      1767      1768      1783      1782
 -1      1493    9    0    1
 -2      1768      1769      1784      1783
 -1      1494    9    0    1
 -2      1769      1770      1785      1784
 -1      1495    9    0    1
 -2      1770      1771      1786      1785
 -1      1496    9    0    1
 -2      1771      1772      1787      1786
 -1      1497    9    0    1
 -2      1772      1773      1788      1787
 -1      1498    9    0    1
 -2      1773      1774      1789      1788
 -1      1499    9    0    1
 -2      1774      1775      1790      1789
 -1      1500    9    0    1
 -2      1775      1776      1791      1790
 -1      1501    9    0    1
 -2      1776      1777      1792      1791
 -1      1502    9    0    1
 -2      1777       562       561      1792
 -1      1503    9    0    1
 -2       216      1778       431        10
 -1      1504    9    0    1
 -2      1778      1779       430       431
 -1      1505    9    0    1
 -2      1779      1780       429       430
 -1      1506    9    0    1
 -2      1780      1781       428       429
 -1      1507    9    0    1
 -2      1781      1782       427       428
 -1      1508    9    0    1
 -2      1782      1783       426       427
 -1      1509    9    0    1
 -2      1783      1784       425       426
 -1      1510    9    0    1
 -2      1784      1785       424       425
 -1      1511    9    0    1
 -2      1785      1786       423       424
 -1      1512    9    0    1
 -2      1786      1787       422       423
 -1      1513    9    0    1
 -2      1787      1788       421       422
 -1      1514    9    0    1
 -2      1788      1789       420       421
 -1      1515    9    0    1
 -2      1789      1790       419       420
 -1      1516    9    0    1
 -2      1790      1791       418       419
 -1      1517    9    0    1
 -2      1791      1792       417       418
 -1      1518    9    0    1
 -2      1792       561         5       417
 -1      1519    9    0    1
 -2        10       431      1793       217
 -1      1520    9    0    1
 -2       431       430      1794      1793
 -1      1521    9    0    1
 -2       430       429      1795      1794
 -1      1522    9    0    1
 -2       429       428      1796      1795
 -1      1523    9    0    1
 -2       428       427      1797      1796
 -1      1524    9    0    1
 -2       427       426      1798      1797
 -1      1525    9    0    1
 -2       426       425      1799      1798
 -1      1526    9    0    1
 -2       425       424      1800      1799
 -1      1527    9    0    1
 -2       424       423      1801      1800
 -1      1528    9    0    1
 -2       423       422      1802      1801
 -1      1529    9    0    1
 -2       422       421      1803      1802
 -1      1530    9    0    1
 -2       421       420      1804      1803
 -1      1531    9    0    1
 -2       420       419      1805      1804
 -1      1532    9    0    1
 -2       419       418      1806      1805
 -1      1533    9    0    1
 -2       418       417      1807      1806
 -1      1534    9    0    1
 -2       417         5       133      1807
 -1      1535    9    0    1
 -2       217      1793      1808       218
 -1      1536    9    0    1
 -2      1793      1794      1809      1808
 -1      1537    9    0    1
 -2      1794      1795      1810      1809
 -1      1538    9    0    1
 -2      1795      1796      1811      1810
 -1      1539    9    0    1
 -2      1796      1797      1812      1811
 -1      1540    9    0    1
 -2      1797      1798      1813      1812
 -1      1541    9    0    1
 -2      1798      1799      1814      1813
 -1      1542    9    0    1
 -2      1799      1800      1815      1814
 -1      1543    9    0    1
 -2      1800      1801      1816      1815
 -1      1544    9    0    1
 -2      1801      1802      1817      1816
 -1      1545    9    0    1
 -2      1802      1803      1818      1817
 -1      1546    9    0    1
 -2      1803      1804      1819      1818
 -1      1547    9    0    1
 -2      1804      1805      1820      1819
 -1      1548    9    0    1
 -2      1805      1806      1821      1820
 -1      1549    9    0    1
 -2      1806      1807      1822      1821
 -1      1550    9    0    1
 -2      1807       133       134      1822
 -1      1551    9    0    1
 -2       218      1808      1823       219
 -1      1552    9    0    1
 -2      1808      1809      1824      1823
 -1      1553    9    0    1
 -2      1809      1810      1825      1824
 -1      1554    9    0    1
 -2      1810      1811      1826      1825
 -1      1555    9    0    1
 -2      1811      1812      1827      1826
 -1      1556    9    0    1
 -2      1812      1813      1828      1827
 -1      1557    9    0    1
 -2      1813      1814      1829      1828
 -1      1558    9    0    1
 -2      1814      1815      1830      1829
 -1      1559    9    0    1
 -2      1815      1816      1831      1830
 -1      1560    9    0    1
 -2      1816      1817      1832      1831
 -1      1561    9    0    1
 -2      1817      1818      1833      1832
 -1      1562    9    0    1
 -2      1818      1819      1834      1833
 -1      1563    9    0    1
 -2      1819      1820      1835      1834
 -1      1564    9    0    1
 -2      1820      1821      1836      1835
 -1      1565    9    0    1
 -2      1821      1822      1837      1836
 -1      1566    9    0    1
 -2      1822       134       135      1837
 -1      1567    9    0    1
 -2       219      1823      1838       220
 -1      1568    9    0    1
 -2      1823      1824      1839      1838
 -1      1569    9    0    1
 -2      1824      1825      1840      1839
 -1      1570    9    0    1
 -2      1825      1826      1841      1840
 -1      1571    9    0    1
 -2      1826      1827      1842      1841
 -1      1572    9    0    1
 -2      1827      1828      1843      1842
 -1      1573    9    0    1
 -2      1828      1829      1844      1843
 -1      1574    9    0    1
 -2      1829      1830      1845      1844
 -1      1575    9    0    1
 -2      1830      1831      1846      1845
 -1      1576    9    0    1
 -2      1831      1832      1847      1846
 -1      1577    9    0    1
 -2      1832      1833      1848      1847
 -1      1578    9    0    1
 -2      1833      1834      1849      1848
 -1      1579    9    0    1
 -2      1834      1835      1850      1849
 -1      1580    9    0    1
 -2      1835      1836      1851      1850
 -1      1581    9    0    1
 -2      1836      1837      1852      1851
 -1      1582    9    0    1
 -2      1837       135       136      1852
 -1      1583    9    0    1
 -2       220      1838      1853       221
 -1      1584    9    0    1
 -2      1838      1839      1854      1853
 -1      1585    9    0    1
 -2      1839      1840      1855      1854
 -1      1586    9    0    1
 -2      1840      1841      1856      1855
 -1      1587    9    0    1
 -2      1841      1842      1857      1856
 -1      1588    9    0    1
 -2      1842      1843      1858      1857
 -1      1589    9    0    1
 -2      1843      1844      1859      1858
 -1      1590    9    0    1
 -2      1844      1845      1860      1859
 -1      1591    9    0    1
 -2      1845      1846      1861      1860
 -1      1592    9    0    1
 -2      1846      1847      1862      1861
 -1      1593    9    0    1
 -2      1847      1848      1863      1862
 -1      1594    9    0    1
 -2      1848      1849      1864      1863
 -1      1595    9    0    1
 -2      1849      1850      1865      1864
 -1      1596    9    0    1
 -2      1850      1851      1866      1865
 -1      1597    9    0    1
 -2      1851      1852      1867      1866
 -1      1598    9    0    1
 -2      1852       136       137      1867
 -1      1599    9    0    1
 -2       221      1853      1868       222
 -1      1600    9    0    1
 -2      1853      1854      1869      1868
 -1      1601    9    0    1
 -2      1854      1855      1870      1869
 -1      1602    9    0    1
 -2      1855      1856      1871      1870
 -1      1603    9    0    1
 -2      1856      1857      1872      1871
 -1      1604    9    0    1
 -2      1857      1858      1873      1872
 -1      1605    9    0    1
 -2      1858      1859      1874      1873
 -1      1606    9    0    1
 -2      1859      1860      1875      1874
 -1      1607    9    0    1
 -2      1860      1861      1876      1875
 -1      1608    9    0    1
 -2      1861      1862      1877      1876
 -1      1609    9    0    1
 -2      1862      1863      1878      1877
 -1      1610    9    0    1
 -2      1863      1864      1879      1878
 -1      1611    9    0    1
 -2      1864      1865      1880      1879
 -1      1612    9    0    1
 -2      1865      1866      1881      1880
 -1      1613    9    0    1
 -2      1866      1867      1882      1881
 -1      1614    9    0    1
 -2      1867       137       138      1882
 -1      1615    9    0    1
 -2       222      1868      1883       223
 -1      1616    9    0    1
 -2      1868      1869      1884      1883
 -1      1617    9    0    1
 -2      1869      1870      1885      1884
 -1      1618    9    0    1
 -2      1870      1871      1886      1885
 -1      1619    9    0    1
 -2      1871      1872      1887      1886
 -1      1620    9    0    1
 -2      1872      1873      1888      1887
 -1      1621    9    0    1
 -2      1873      1874      1889      1888
 -1      1622    9    0    1
 -2      1874      1875      1890      1889
 -1      1623    9    0    1
 -2      1875      1876      1891      1890
 -1      1624    9    0    1
 -2      1876      1877      1892      1891
 -1      1625    9    0    1
 -2      1877      1878      1893      1892
 -1      1626    9    0    1
 -2      1878      1879      1894      1893
 -1      1627    9    0    1
 -2      1879      1880      1895      1894
 -1      1628    9    0    1
 -2      1880      1881      1896      1895
 -1      1629    9    0    1
 -2      1881      1882      1897      1896
 -1      1630    9    0    1
 -2      1882       138       139      1897
 -1      1631    9    0    1
 -2       223      1883      1898       224
 -1      1632    9    0    1
 -2      1883      1884      1899      1898
 -1      1633    9    0    1
 -2      1884      1885      1900      1899
 -1      1634    9    0    1
 -2      1885      1886      1901      1900
 -1      1635    9    0    1
 -2      1886      1887      1902      1901
 -1      1636    9    0    1
 -2      1887      1888      1903      1902
 -1      1637    9    0    1
 -2      1888      1889      1904      1903
 -1      1638    9    0    1
 -2      1889      1890      1905      1904
 -1      1639    9    0    1
 -2      1890      1891      1906      1905
 -1      1640    9    0    1
 -2      1891      1892      1907      1906
 -1      1641    9    0    1
 -2      1892      1893      1908      1907
 -1      1642    9    0    1
 -2      1893      1894      1909      1908
 -1      1643    9    0    1
 -2      1894      1895      1910      1909
 -1      1644    9    0    1
 -2      1895      1896      1911      1910
 -1      1645    9    0    1
 -2      1896      1897      1912      1911
 -1      1646    9    0    1
 -2      1897       139       140      1912
 -1      1647    9    0    1
 -2       224      1898      1913       225
 -1      1648    9    0    1
 -2      1898      1899      1914      1913
 -1      1649    9    0    1
 -2      1899      1900      1915      1914
 -1      1650    9    0    1
 -2      1900      1901      1916      1915
 -1      1651    9    0    1
 -2      1901      1902      1917      1916
 -1      1652    9    0    1
 -2      1902      1903      1918      1917
 -1      1653    9    0    1
 -2      1903      1904      1919      1918
 -1      1654    9    0    1
 -2      1904      1905      1920      1919
 -1      1655    9    0    1
 -2      1905      1906      1921      1920
 -1      1656    9    0    1
 -2      1906      1907      1922      1921
 -1      1657    9    0    1
 -2      1907      1908      1923      1922
 -1      1658    9    0    1
 -2      1908      1909      1924      1923
 -1      1659    9    0    1
 -2      1909      1910      1925      1924
 -1      1660    9    0    1
 -2      1910      1911      1926      1925
 -1      1661    9    0    1
 -2      1911      1912      1927      1926
 -1      1662    9    0    1
 -2      1912       140       141      1927
 -1      1663    9    0    1
 -2       225      1913      1928       226
 -1      1664    9    0    1
 -2      1913      1914      1929      1928
 -1      1665    9    0    1
 -2      1914      1915      1930      1929
 -1      1666    9    0    1
 -2      1915      1916      1931      1930
 -1      1667    9    0    1
 -2      1916      1917      1932      1931
 -1      1668    9    0    1
 -2      1917      1918      1933      1932
 -1      1669    9    0    1
 -2      1918      1919      1934      1933
 -1      1670    9    0    1
 -2      1919      1920      1935      1934
 -1      1671    9    0    1
 -2      1920      1921      1936      1935
 -1      1672    9    0    1
 -2      1921      1922      1937      1936
 -1      1673    9    0    1
 -2      1922      1923      1938      1937
 -1      1674    9    0    1
 -2      1923      1924      1939      1938
 -1      1675    9    0    1
 -2      1924      1925      1940      1939
 -1      1676    9    0    1
 -2      1925      1926      1941      1940
 -1      1677    9    0    1
 -2      1926      1927      1942      1941
 -1      1678    9    0    1
 -2      1927       141       142      1942
 -1      1679    9    0    1
 -2       226      1928      1943       227
 -1      1680    9    0    1
 -2      1928      1929      1944      1943
 -1      1681    9    0    1
 -2      1929      1930      1945      1944
 -1      1682    9    0    1
 -2      1930      1931      1946      1945
 -1      1683    9    0    1
 -2      1931      1932      1947      1946
 -1      1684    9    0    1
 -2      1932      1933      1948      1947
 -1      1685    9    0    1
 -2      1933      1934      1949      1948
 -1      1686    9    0    1
 -2      1934      1935      1950      1949
 -1      1687    9    0    1
 -2      1935      1936      1951      1950
 -1      1688    9    0    1
 -2      1936      1937      1952      1951
 -1      1689    9    0    1
 -2      1937      1938      1953      1952
 -1      1690    9    0    1
 -2      1938      1939      1954      1953
 -1      1691    9    0    1
 -2      1939      1940      1955      1954
 -1      1692    9    0    1
 -2      1940      1941      1956      1955
 -1      1693    9    0    1
 -2      1941      1942      1957      1956
 -1      1694    9    0    1
 -2      1942       142       143      1957
 -1      1695    9    0    1
 -2       227      1943      1958       228
 -1      1696    9    0    1
 -2      1943      1944      1959      1958
 -1      1697    9    0    1
 -2      1944      1945      1960      1959
 -1      1698    9    0    1
 -2      1945      1946      1961      1960
 -1      1699    9    0    1
 -2      1946      1947      1962      1961
 -1      1700    9    0    1
 -2      1947      1948      1963      1962
 -1      1701    9    0    1
 -2      1948      1949      1964      1963
 -1      1702    9    0    1
 -2      1949      1950      1965      1964
 -1      1703    9    0    1
 -2      1950      1951      1966      1965
 -1      1704    9    0    1
 -2      1951      1952      1967      1966
 -1      1705    9    0    1
 -2      1952      1953      1968      1967
 -1      1706    9    0    1
 -2      1953      1954      1969      1968
 -1      1707    9    0    1
 -2      1954      1955      1970      1969
 -1      1708    9    0    1
 -2      1955      1956      1971      1970
 -1      1709    9    0    1
 -2      1956      1957      1972      1971
 -1      1710    9    0    1
 -2      1957       143       144      1972
 -1      1711    9    0    1
 -2       228      1958      1973       229
 -1      1712    9    0    1
 -2      1958      1959      1974      1973
 -1      1713    9    0    1
 -2      1959      1960      1975      1974
 -1      1714    9    0    1
 -2      1960      1961      1976      1975
 -1      1715    9    0    1
 -2      1961      1962      1977      1976
 -1      1716    9    0    1
 -2      1962      1963      1978      1977
 -1      1717    9    0    1
 -2      1963      1964      1979      1978
 -1      1718    9    0    1
 -2      1964      1965      1980      1979
 -1      1719    9    0    1
 -2      1965      1966      1981      1980
 -1      1720    9    0    1
 -2      1966      1967      1982      1981
 -1      1721    9    0    1
 -2      1967      1968      1983      1982
 -1      1722    9    0    1
 -2      1968      1969      1984      1983
 -1      1723    9    0    1
 -2      1969      1970      1985      1984
 -1      1724    9    0    1
 -2      1970      1971      1986      1985
 -1      1725    9    0    1
 -2      1971      1972      1987      1986
 -1      1726    9    0    1
 -2      1972       144       145      1987
 -1      1727    9    0    1
 -2       229      1973      1988       230
 -1      1728    9    0    1
 -2      1973      1974      1989      1988
 -1      1729    9    0    1
 -2      1974      1975      1990      1989
 -1      1730    9    0    1
 -2      1975      1976      1991      1990
 -1      1731    9    0    1
 -2      1976      1977      1992      1991
 -1      1732    9    0    1
 -2      1977      1978      1993      1992
 -1      1733    9    0    1
 -2      1978      1979      1994      1993
 -1      1734    9    0    1
 -2      1979      1980      1995      1994
 -1      1735    9    0    1
 -2      1980      1981      1996      1995
 -1      1736    9    0    1
 -2      1981      1982      1997      1996
 -1      1737    9    0    1
 -2      1982      1983      1998      1997
 -1      1738    9    0    1
 -2      1983      1984      1999      1998
 -1      1739    9    0    1
 -2      1984      1985      2000      1999
 -1      1740    9    0    1
 -2      1985      1986      2001      2000
 -1      1741    9    0    1
 -2      1986      1987      2002      2001
 -1      1742    9    0    1
 -2      1987       145       146      2002
 -1      1743    9    0    1
 -2       230      1988       446        11
 -1      1744    9    0    1
 -2      1988      1989       445       446
 -1      1745    9    0    1
 -2      1989      1990       444       445
 -1      1746    9    0    1
 -2      1990      1991       443       444
 -1      1747    9    0    1
 -2      1991      1992       442       443
 -1      1748    9    0    1
 -2      1992      1993       441       442
 -1      1749    9    0    1
 -2      1993      1994       440       441
 -1      1750    9    0    1
 -2      1994      1995       439       440
 -1      1751    9    0    1
 -2      1995      1996       438       439
 -1      1752    9    0    1
 -2      1996      1997       437       438
 -1      1753    9    0    1
 -2      1997      1998       436       437
 -1      1754    9    0    1
 -2      1998      1999       435       436
 -1      1755    9    0    1
 -2      1999      2000       434       435
 -1      1756    9    0    1
 -2      2000      2001       433       434
 -1      1757    9    0    1
 -2      2001      2002       432       433
 -1      1758    9    0    1
 -2      2002       146         6       432
 -1      1759    9    0    1
 -2        11       446      2003       231
 -1      1760    9    0    1
 -2       446       445      2004      2003
 -1      1761    9    0    1
 -2       445       444      2005      2004
 -1      1762    9    0    1
 -2       444       443      2006      2005
 -1      1763    9    0    1
 -2       443       442      2007      2006
 -1      1764    9    0    1
 -2       442       441      2008      2007
 -1      1765    9    0    1
 -2       441       440      2009      2008
 -1      1766    9    0    1
 -2       440       439      2010      2009
 -1      1767    9    0    1
 -2       439       438      2011      2010
 -1      1768    9    0    1
 -2       438       437      2012      2011
 -1      1769    9    0    1
 -2       437       436      2013      2012
 -1      1770    9    0    1
 -2       436       435      2014      2013
 -1      1771    9    0    1
 -2       435       434      2015      2014
 -1      1772    9    0    1
 -2       434       433      2016      2015
 -1      1773    9    0    1
 -2       433       432      2017      2016
 -1      1774    9    0    1
 -2       432         6       447      2017
 -1      1775    9    0    1
 -2       231      2003      2018       232
 -1      1776    9    0    1
 -2      2003      2004      2019      2018
 -1      1777    9    0    1
 -2      2004      2005      2020      2019
 -1      1778    9    0    1
 -2      2005      2006      2021      2020
 -1      1779    9    0    1
 -2      2006      2007      2022      2021
 -1      1780    9    0    1
 -2      2007      2008      2023      2022
 -1      1781    9    0    1
 -2      2008      2009      2024      2023
 -1      1782    9    0    1
 -2      2009      2010      2025      2024
 -1      1783    9    0    1
 -2      2010      2011      2026      2025
 -1      1784    9    0    1
 -2      2011      2012      2027      2026
 -1      1785    9    0    1
 -2      2012      2013      2028      2027
 -1      1786    9    0    1
 -2      2013      2014      2029      2028
 -1      1787    9    0    1
 -2      2014      2015      2030      2029
 -1      1788    9    0    1
 -2      2015      2016      2031      2030
 -1      1789    9    0    1
 -2      2016      2017      2032      2031
 -1      1790    9    0    1
 -2      2017       447       448      2032
 -1      1791    9    0    1
 -2       232      2018      2033       233
 -1      1792    9    0    1
 -2      2018      2019      2034      2033
 -1      1793    9    0    1
 -2      2019      2020      2035      2034
 -1      1794    9    0    1
 -2      2020      2021      2036      2035
 -1      1795    9    0    1
 -2      2021      2022      2037      2036
 -1      1796    9    0    1
 -2      2022      2023      2038      2037
 -1      1797    9    0    1
 -2      2023      2024      2039      2038
 -1      1798    9    0    1
 -2      2024      2025      2040      2039
 -1      1799    9    0    1
 -2      2025      2026      2041      2040
 -1      1800    9    0    1
 -2      2026      2027      2042      2041
 -1      1801    9    0    1
 -2      2027      2028      2043      2042
 -1      1802    9    0    1
 -2      2028      2029      2044      2043
 -1      1803    9    0    1
 -2      2029      2030      2045      2044
 -1      1804    9    0    1
 -2      2030      2031      2046      2045
 -1      1805    9    0    1
 -2      2031      2032      2047      2046
 -1      1806    9    0    1
 -2      2032       448       449      2047
 -1      1807    9    0    1
 -2       233      2033      2048       234
 -1      1808    9    0    1
 -2      2033      2034      2049      2048
 -1      1809    9    0    1
 -2      2034      2035      2050      2049
 -1      1810    9    0    1
 -2      2035      2036      2051      2050
 -1      1811    9    0    1
 -2      2036      2037      2052      2051
 -1      1812    9    0    1
 -2      2037      2038      2053      2052
 -1      1813    9    0    1
 -2      2038      2039      2054      2053
 -1      1814    9    0    1
 -2      2039      2040      2055      2054
 -1      1815    9    0    1
 -2      2040      2041      2056      2055
 -1      1816    9    0    1
 -2      2041      2042      2057      2056
 -1      1817    9    0    1
 -2      2042      2043      2058      2057
 -1      1818    9    0    1
 -2      2043      2044      2059      2058
 -1      1819    9    0    1
 -2      2044      2045      2060      2059
 -1      1820    9    0    1
 -2      2045      2046      2061      2060
 -1      1821    9    0    1
 -2      2046      2047      2062      2061
 -1      1822    9    0    1
 -2      2047       449       450      2062
 -1      1823    9    0    1
 -2       234      2048      2063       235
 -1      1824    9    0    1
 -2      2048      2049      2064      2063
 -1      1825    9    0    1
 -2      2049      2050      2065      2064
 -1      1826    9    0    1
 -2      2050      2051      2066      2065
 -1      1827    9    0    1
 -2      2051      2052      2067      2066
 -1      1828    9    0    1
 -2      2052      2053      2068      2067
 -1      1829    9    0    1
 -2      2053      2054      2069      2068
 -1      1830    9    0    1
 -2      2054      2055      2070      2069
 -1      1831    9    0    1
 -2      2055      2056      2071      2070
 -1      1832    9    0    1
 -2      2056      2057      2072      2071
 -1      1833    9    0    1
 -2      2057      2058      2073      2072
 -1      1834    9    0    1
 -2      2058      2059      2074      2073
 -1      1835    9    0    1
 -2      2059      2060      2075      2074
 -1      1836    9    0    1
 -2      2060      2061      2076      2075
 -1      1837    9    0    1
 -2      2061      2062      2077      2076
 -1      1838    9    0    1
 -2      2062       450       451      2077
 -1      1839    9    0    1
 -2       235      2063      2078       236
 -1      1840    9    0    1
 -2      2063      2064      2079      2078
 -1      1841    9    0    1
 -2      2064      2065      2080      2079
 -1      1842    9    0    1
 -2      2065      2066      2081      2080
 -1      1843    9    0    1
 -2      2066      2067      2082      2081
 -1      1844    9    0    1
 -2      2067      2068      2083      2082
 -1      1845    9    0    1
 -2      2068      2069      2084      2083
 -1      1846    9    0    1
 -2      2069      2070      2085      2084
 -1      1847    9    0    1
 -2      2070      2071      2086      2085
 -1      1848    9    0    1
 -2      2071      2072      2087      2086
 -1      1849    9    0    1
 -2      2072      2073      2088      2087
 -1      1850    9    0    1
 -2      2073      2074      2089      2088
 -1      1851    9    0    1
 -2      2074      2075      2090      2089
 -1      1852    9    0    1
 -2      2075      2076      2091      2090
 -1      1853    9    0    1
 -2      2076      2077      2092      2091
 -1      1854    9    0    1
 -2      2077       451       452      2092
 -1      1855    9    0    1
 -2       236      2078      2093       237
 -1      1856    9    0    1
 -2      2078      2079      2094      2093
 -1      1857    9    0    1
 -2      2079      2080      2095      2094
 -1      1858    9    0    1
 -2      2080      2081      2096      2095
 -1      1859    9    0    1
 -2      2081      2082      2097      2096
 -1      1860    9    0    1
 -2      2082      2083      2098      2097
 -1      1861    9    0    1
 -2      2083      2084      2099      2098
 -1      1862    9    0    1
 -2      2084      2085      2100      2099
 -1      1863    9    0    1
 -2      2085      2086      2101      2100
 -1      1864    9    0    1
 -2      2086      2087      2102      2101
 -1      1865    9    0    1
 -2      2087      2088      2103      2102
 -1      1866    9    0    1
 -2      2088      2089      2104      2103
 -1      1867    9    0    1
 -2      2089      2090      2105      2104
 -1      1868    9    0    1
 -2      2090      2091      2106      2105
 -1      1869    9    0    1
 -2      2091      2092      2107      2106
 -1      1870    9    0    1
 -2      2092       452       453      2107
 -1      1871    9    0    1
 -2       237      2093      2108       238
 -1      1872    9    0    1
 -2      2093      2094      2109      2108
 -1      1873    9    0    1
 -2      2094      2095      2110      2109
 -1      1874    9    0    1
 -2      2095      2096      2111      2110
 -1      1875    9    0    1
 -2      2096      2097      2112      2111
 -1      1876    9    0    1
 -2      2097      2098      2113      2112
 -1      1877    9    0    1
 -2      2098      2099      2114      2113
 -1      1878    9    0    1
 -2      2099      2100      2115      2114
 -1      1879    9    0    1
 -2      2100      2101      2116      2115
 -1      1880    9    0    1
 -2      2101      2102      2117      2116
 -1      1881    9    0    1
 -2      2102      2103      2118      2117
 -1      1882    9    0    1
 -2      2103      2104      2119      2118
 -1      1883    9    0    1
 -2      2104      2105      2120      2119
 -1      1884    9    0    1
 -2      2105      2106      2121      2120
 -1      1885    9    0    1
 -2      2106      2107      2122      2121
 -1      1886    9    0    1
 -2      2107       453       454      2122
 -1      1887    9    0    1
 -2       238      2108      2123       239
 -1      1888    9    0    1
 -2      2108      2109      2124      2123
 -1      1889    9    0    1
 -2      2109      2110      2125      2124
 -1      1890    9    0    1
 -2      2110      2111      2126      2125
 -1      1891    9    0    1
 -2      2111      2112      2127      2126
 -1      1892    9    0    1
 -2      2112      2113      2128      2127
 -1      1893    9    0    1
 -2      2113      2114      2129      2128
 -1      1894    9    0    1
 -2      2114      2115      2130      2129
 -1      1895    9    0    1
 -2      2115      2116      2131      2130
 -1      1896    9    0    1
 -2      2116      2117      2132      2131
 -1      1897    9    0    1
 -2      2117      2118      2133      2132
 -1      1898    9    0    1
 -2      2118      2119      2134      2133
 -1      1899    9    0    1
 -2      2119      2120      2135      2134
 -1      1900    9    0    1
 -2      2120      2121      2136      2135
 -1      1901    9    0    1
 -2      2121      2122      2137      2136
 -1      1902    9    0    1
 -2      2122       454       455      2137
 -1      1903    9    0    1
 -2       239      2123      2138       240
 -1      1904    9    0    1
 -2      2123      2124      2139      2138
 -1      1905    9    0    1
 -2      2124      2125      2140      2139
 -1      1906    9    0    1
 -2      2125      2126      2141      2140
 -1      1907    9    0    1
 -2      2126      2127      2142      2141
 -1      1908    9    0    1
 -2      2127      2128      2143      2142
 -1      1909    9    0    1
 -2      2128      2129      2144      2143
 -1      1910    9    0    1
 -2      2129      2130      2145      2144
 -1      1911    9    0    1
 -2      2130      2131      2146      2145
 -1      1912    9    0    1
 -2      2131      2132      2147      2146
 -1      1913    9    0    1
 -2      2132      2133      2148      2147
 -1      1914    9    0    1
 -2      2133      2134      2149      2148
 -1      1915    9    0    1
 -2      2134      2135      2150      2149
 -1      1916    9    0    1
 -2      2135      2136      2151      2150
 -1      1917    9    0    1
 -2      2136      2137      2152      2151
 -1      1918    9    0    1
 -2      2137       455       456      2152
 -1      1919    9    0    1
 -2       240      2138      2153       241
 -1      1920    9    0    1
 -2      2138      2139      2154      2153
 -1      1921    9    0    1
 -2      2139      2140      2155      2154
 -1      1922    9    0    1
 -2      2140      2141      2156      2155
 -1      1923    9    0    1
 -2      2141      2142      2157      2156
 -1      1924    9    0    1
 -2      2142      2143      2158      2157
 -1      1925    9    0    1
 -2      2143      2144      2159      2158
 -1      1926    9    0    1
 -2      2144      2145      2160      2159
 -1      1927    9    0    1
 -2      2145      2146      2161      2160
 -1      1928    9    0    1
 -2      2146      2147      2162      2161
 -1      1929    9    0    1
 -2      2147      2148      2163      2162
 -1      1930    9    0    1
 -2      2148      2149      2164      2163
 -1      1931    9    0    1
 -2      2149      2150      2165      2164
 -1      1932    9    0    1
 -2      2150      2151      2166      2165
 -1      1933    9    0    1
 -2      2151      2152      2167      2166
 -1      1934    9    0    1
 -2      2152       456       457      2167
 -1      1935    9    0    1
 -2       241      2153      2168       242
 -1      1936    9    0    1
 -2      2153      2154      2169      2168
 -1      1937    9    0    1
 -2      2154      2155      2170      2169
 -1      1938    9    0    1
 -2      2155      2156      2171      2170
 -1      1939    9    0    1
 -2      2156      2157      2172      2171
 -1      1940    9    0    1
 -2      2157      2158      2173      2172
 -1      1941    9    0    1
 -2      2158      2159      2174      2173
 -1      1942    9    0    1
 -2      2159      2160      2175      2174
 -1      1943    9    0    1
 -2      2160      2161      2176      2175
 -1      1944    9    0    1
 -2      2161      2162      2177      2176
 -1      1945    9    0    1
 -2      2162      2163      2178      2177
 -1      1946    9    0    1
 -2      2163      2164      2179      2178
 -1      1947    9    0    1
 -2      2164      2165      2180      2179
 -1      1948    9    0    1
 -2      2165      2166      2181      2180
 -1      1949    9    0    1
 -2      2166      2167      2182      2181
 -1      1950    9    0    1
 -2      2167       457       458      2182
 -1      1951    9    0    1
 -2       242      2168      2183       243
 -1      1952    9    0    1
 -2      2168      2169      2184      2183
 -1      1953    9    0    1
 -2      2169      2170      2185      2184
 -1      1954    9    0    1
 -2      2170      2171      2186      2185
 -1      1955    9    0    1
 -2      2171      2172      2187      2186
 -1      1956    9    0    1
 -2      2172      2173      2188      2187
 -1      1957    9    0    1
 -2      2173      2174      2189      2188
 -1      1958    9    0    1
 -2      2174      2175      2190      2189
 -1      1959    9    0    1
 -2      2175      2176      2191      2190
 -1      1960    9    0    1
 -2      2176      2177      2192      2191
 -1      1961    9    0    1
 -2      2177      2178      2193      2192
 -1      1962    9    0    1
 -2      2178      2179      2194      2193
 -1      1963    9    0    1
 -2      2179      2180      2195      2194
 -1      1964    9    0    1
 -2      2180      2181      2196      2195
 -1      1965    9    0    1
 -2      2181      2182      2197      2196
 -1      1966    9    0    1
 -2      2182       458       459      2197
 -1      1967    9    0    1
 -2       243      2183      2198       244
 -1      1968    9    0    1
 -2      2183      2184      2199      2198
 -1      1969    9    0    1
 -2      2184      2185      2200      2199
 -1      1970    9    0    1
 -2      2185      2186      2201      2200
 -1      1971    9    0    1
 -2      2186      2187      2202      2201
 -1      1972    9    0    1
 -2      2187      2188      2203      2202
 -1      1973    9    0    1
 -2      2188      2189      2204      2203
 -1      1974    9    0    1
 -2      2189      2190      2205      2204
 -1      1975    9    0    1
 -2      2190      2191      2206      2205
 -1      1976    9    0    1
 -2      2191      2192      2207      2206
 -1      1977    9    0    1
 -2      2192      2193      2208      2207
 -1      1978    9    0    1
 -2      2193      2194      2209      2208
 -1      1979    9    0    1
 -2      2194      2195      2210      2209
 -1      1980    9    0    1
 -2      2195      2196      2211      2210
 -1      1981    9    0    1
 -2      2196      2197      2212      2211
 -1      1982    9    0    1
 -2      2197       459       460      2212
 -1      1983    9    0    1
 -2       244      2198      2213       245
 -1      1984    9    0    1
 -2      2198      2199      2214      2213
 -1      1985    9    0    1
 -2      2199      2200      2215      2214
 -1      1986    9    0    1
 -2      2200      2201      2216      2215
 -1      1987    9    0    1
 -2      2201      2202      2217      2216
 -1      1988    9    0    1
 -2      2202      2203      2218      2217
 -1      1989    9    0    1
 -2      2203      2204      2219      2218
 -1      1990    9    0    1
 -2      2204      2205      2220      2219
 -1      1991    9    0    1
 -2      2205      2206      2221      2220
 -1      1992    9    0    1
 -2      2206      2207      2222      2221
 -1      1993    9    0    1
 -2      2207      2208      2223      2222
 -1      1994    9    0    1
 -2      2208      2209      2224      2223
 -1      1995    9    0    1
 -2      2209      2210      2225      2224
 -1      1996    9    0    1
 -2      2210      2211      2226      2225
 -1      1997    9    0    1
 -2      2211      2212      2227      2226
 -1      1998    9    0    1
 -2      2212       460       461      2227
 -1      1999    9    0    1
 -2       245      2213      2228       246
 -1      2000    9    0    1
 -2      2213      2214      2229      2228
 -1      2001    9    0    1
 -2      2214      2215      2230      2229
 -1      2002    9    0    1
 -2      2215      2216      2231      2230
 -1      2003    9    0    1
 -2      2216      2217      2232      2231
 -1      2004    9    0    1
 -2      2217      2218      2233      2232
 -1      2005    9    0    1
 -2      2218      2219      2234      2233
 -1      2006    9    0    1
 -2      2219      2220      2235      2234
 -1      2007    9    0    1
 -2      2220      2221      2236      2235
 -1      2008    9    0    1
 -2      2221      2222      2237      2236
 -1      2009    9    0    1
 -2      2222      2223      2238      2237
 -1      2010    9    0    1
 -2      2223      2224      2239      2238
 -1      2011    9    0    1
 -2      2224      2225      2240      2239
 -1      2012    9    0    1
 -2      2225      2226      2241      2240
 -1      2013    9    0    1
 -2      2226      2227      2242      2241
 -1      2014    9    0    1
 -2      2227       461       462      2242
 -1      2015    9    0    1
 -2       246      2228      2243       247
 -1      2016    9    0    1
 -2      2228      2229      2244      2243
 -1      2017    9    0    1
 -2      2229      2230      2245      2244
 -1      2018    9    0    1
 -2      2230      2231      2246      2245
 -1      2019    9    0    1
 -2      2231      2232      2247      2246
 -1      2020    9    0    1
 -2      2232      2233      2248      2247
 -1      2021    9    0    1
 -2      2233      2234      2249      2248
 -1      2022    9    0    1
 -2      2234      2235      2250      2249
 -1      2023    9    0    1
 -2      2235      2236      2251      2250
 -1      2024    9    0    1
 -2      2236      2237      2252      2251
 -1      2025    9    0    1
 -2      2237      2238      2253      2252
 -1      2026    9    0    1
 -2      2238      2239      2254      2253
 -1      2027    9    0    1
 -2      2239      2240      2255      2254
 -1      2028    9    0    1
 -2      2240      2241      2256      2255
 -1      2029    9    0    1
 -2      2241      2242      2257      2256
 -1      2030    9    0    1
 -2      2242       462       463      2257
 -1      2031    9    0    1
 -2       247      2243      2258       248
 -1      2032    9    0    1
 -2      2243      2244      2259      2258
 -1      2033    9    0    1
 -2      2244      2245      2260      2259
 -1      2034    9    0    1
 -2      2245      2246      2261      2260
 -1      2035    9    0    1
 -2      2246      2247      2262      2261
 -1      2036    9    0    1
 -2      2247      2248      2263      2262
 -1      2037    9    0    1
 -2      2248      2249      2264      2263
 -1      2038    9    0    1
 -2      2249      2250      2265      2264
 -1      2039    9    0    1
 -2      2250      2251      2266      2265
 -1      2040    9    0    1
 -2      2251      2252      2267      2266
 -1      2041    9    0    1
 -2      2252      2253      2268      2267
 -1      2042    9    0    1
 -2      2253      2254      2269      2268
 -1      2043    9    0    1
 -2      2254      2255      2270      2269
 -1      2044    9    0    1
 -2      2255      2256      2271      2270
 -1      2045    9    0    1
 -2      2256      2257      2272      2271
 -1      2046    9    0    1
 -2      2257       463       464      2272
 -1      2047    9    0    1
 -2       248      2258      2273       249
 -1      2048    9    0    1
 -2      2258      2259      2274      2273
 -1      2049    9    0    1
 -2      2259      2260      2275      2274
 -1      2050    9    0    1
 -2      2260      2261      2276      2275
 -1      2051    9    0    1
 -2      2261      2262      2277      2276
 -1      2052    9    0    1
 -2      2262      2263      2278      2277
 -1      2053    9    0    1
 -2      2263      2264      2279      2278
 -1      2054    9    0    1
 -2      2264      2265      2280      2279
 -1      2055    9    0    1
 -2      2265      2266      2281      2280
 -1      2056    9    0    1
 -2      2266      2267      2282      2281
 -1      2057    9    0    1
 -2      2267      2268      2283      2282
 -1      2058    9    0    1
 -2      2268      2269      2284      2283
 -1      2059    9    0    1
 -2      2269      2270      2285      2284
 -1      2060    9    0    1
 -2      2270      2271      2286      2285
 -1      2061    9    0    1
 -2      2271      2272      2287      2286
 -1      2062    9    0    1
 -2      2272       464       465      2287
 -1      2063    9    0    1
 -2       249      2273      2288       250
 -1      2064    9    0    1
 -2      2273      2274      2289      2288
 -1      2065    9    0    1
 -2      2274      2275      2290      2289
 -1      2066    9    0    1
 -2      2275      2276      2291      2290
 -1      2067    9    0    1
 -2      2276      2277      2292      2291
 -1      2068    9    0    1
 -2      2277      2278      2293      2292
 -1      2069    9    0    1
 -2      2278      2279      2294      2293
 -1      2070    9    0    1
 -2      2279      2280      2295      2294
 -1      2071    9    0    1
 -2      2280      2281      2296      2295
 -1      2072    9    0    1
 -2      2281      2282      2297      2296
 -1      2073    9    0    1
 -2      2282      2283      2298      2297
 -1      2074    9    0    1
 -2      2283      2284      2299      2298
 -1      2075    9    0    1
 -2      2284      2285      2300      2299
 -1      2076    9    0    1
 -2      2285      2286      2301      2300
 -1      2077    9    0    1
 -2      2286      2287      2302      2301
 -1      2078    9    0    1
 -2      2287       465       466      2302
 -1      2079    9    0    1
 -2       250      2288      2303       251
 -1      2080    9    0    1
 -2      2288      2289      2304      2303
 -1      2081    9    0    1
 -2      2289      2290      2305      2304
 -1      2082    9    0    1
 -2      2290      2291      2306      2305
 -1      2083    9    0    1
 -2      2291      2292      2307      2306
 -1      2084    9    0    1
 -2      2292      2293      2308      2307
 -1      2085    9    0    1
 -2      2293      2294      2309      2308
 -1      2086    9    0    1
 -2      2294      2295      2310      2309
 -1      2087    9    0    1
 -2      2295      2296      2311      2310
 -1      2088    9    0    1
 -2      2296      2297      2312      2311
 -1      2089    9    0    1
 -2      2297      2298      2313      2312
 -1      2090    9    0    1
 -2      2298      2299      2314      2313
 -1      2091    9    0    1
 -2      2299      2300      2315      2314
 -1      2092    9    0    1
 -2      2300      2301      2316      2315
 -1      2093    9    0    1
 -2      2301      2302      2317      2316
 -1      2094    9    0    1
 -2      2302       466       467      2317
 -1      2095    9    0    1
 -2       251      2303      2318       252
 -1      2096    9    0    1
 -2      2303      2304      2319      2318
 -1      2097    9    0    1
 -2      2304      2305      2320      2319
 -1      2098    9    0    1
 -2      2305      2306      2321      2320
 -1      2099    9    0    1
 -2      2306      2307      2322      2321
 -1      2100    9    0    1
 -2      2307      2308      2323      2322
 -1      2101    9    0    1
 -2      2308      2309      2324      2323
 -1      2102    9    0    1
 -2      2309      2310      2325      2324
 -1      2103    9    0    1
 -2      2310      2311      2326      2325
 -1      2104    9    0    1
 -2      2311      2312      2327      2326
 -1      2105    9    0    1
 -2      2312      2313      2328      2327
 -1      2106    9    0    1
 -2      2313      2314      2329      2328
 -1      2107    9    0    1
 -2      2314      2315      2330      2329
 -1      2108    9    0    1
 -2      2315      2316      2331      2330
 -1      2109    9    0    1
 -2      2316      2317      2332      2331
 -1      2110    9    0    1
 -2      2317       467       468      2332
 -1      2111    9    0    1
 -2       252      2318      2333       253
 -1      2112    9    0    1
 -2      2318      2319      2334      2333
 -1      2113    9    0    1
 -2      2319      2320      2335      2334
 -1      2114    9    0    1
 -2      2320      2321      2336      2335
 -1      2115    9    0    1
 -2      2321      2322      2337      2336
 -1      2116    9    0    1
 -2      2322      2323      2338      2337
 -1      2117    9    0    1
 -2      2323      2324      2339      2338
 -1      2118    9    0    1
 -2      2324      2325      2340      2339
 -1      2119    9    0    1
 -2      2325      2326      2341      2340
 -1      2120    9    0    1
 -2      2326      2327      2342      2341
 -1      2121    9    0    1
 -2      2327      2328      2343      2342
 -1      2122    9    0    1
 -2      2328      2329      2344      2343
 -1      2123    9    0    1
 -2      2329      2330      2345      2344
 -1      2124    9    0    1
 -2      2330      2331      2346      2345
 -1      2125    9    0    1
 -2      2331      2332      2347      2346
 -1      2126    9    0    1
 -2      2332       468       469      2347
 -1      2127    9    0    1
 -2       253      2333      2348       254
 -1      2128    9    0    1
 -2      2333      2334      2349      2348
 -1      2129    9    0    1
 -2      2334      2335      2350      2349
 -1      2130    9    0    1
 -2      2335      2336      2351      2350
 -1      2131    9    0    1
 -2      2336      2337      2352      2351
 -1      2132    9    0    1
 -2      2337      2338      2353      2352
 -1      2133    9    0    1
 -2      2338      2339      2354      2353
 -1      2134    9    0    1
 -2      2339      2340      2355      2354
 -1      2135    9    0    1
 -2      2340      2341      2356      2355
 -1      2136    9    0    1
 -2      2341      2342      2357      2356
 -1      2137    9    0    1
 -2      2342      2343      2358      2357
 -1      2138    9    0    1
 -2      2343      2344      2359      2358
 -1      2139    9    0    1
 -2      2344      2345      2360      2359
 -1      2140    9    0    1
 -2      2345      2346      2361      2360
 -1      2141    9    0    1
 -2      2346      2347      2362      2361
 -1      2142    9    0    1
 -2      2347       469       470      2362
 -1      2143    9    0    1
 -2       254      2348      2363       255
 -1      2144    9    0    1
 -2      2348      2349      2364      2363
 -1      2145    9    0    1
 -2      2349      2350      2365      2364
 -1      2146    9    0    1
 -2      2350      2351      2366      2365
 -1      2147    9    0    1
 -2      2351      2352      2367      2366
 -1      2148    9    0    1
 -2      2352      2353      2368      2367
 -1      2149    9    0    1
 -2      2353      2354      2369      2368
 -1      2150    9    0    1
 -2      2354      2355      2370      2369
 -1      2151    9    0    1
 -2      2355      2356      2371      2370
 -1      2152    9    0    1
 -2      2356      2357      2372      2371
 -1      2153    9    0    1
 -2      2357      2358      2373      2372
 -1      2154    9    0    1
 -2      2358      2359      2374      2373
 -1      2155    9    0    1
 -2      2359      2360      2375      2374
 -1      2156    9    0    1
 -2      2360      2361      2376      2375
 -1      2157    9    0    1
 -2      2361      2362      2377      2376
 -1      2158    9    0    1
 -2      2362       470       471      2377
 -1      2159    9    0    1
 -2       255      2363      2378       256
 -1      2160    9    0    1
 -2      2363      2364      2379      2378
 -1      2161    9    0    1
 -2      2364      2365      2380      2379
 -1      2162    9    0    1
 -2      2365      2366      2381      2380
 -1      2163    9    0    1
 -2      2366      2367      2382      2381
 -1      2164    9    0    1
 -2      2367      2368      2383      2382
 -1      2165    9    0    1
 -2      2368      2369      2384      2383
 -1      2166    9    0    1
 -2      2369      2370      2385      2384
 -1      2167    9    0    1
 -2      2370      2371      2386      2385
 -1      2168    9    0    1
 -2      2371      2372      2387      2386
 -1      2169    9    0    1
 -2      2372      2373      2388      2387
 -1      2170    9    0    1
 -2      2373      2374      2389      2388
 -1      2171    9    0    1
 -2      2374      2375      2390      2389
 -1      2172    9    0    1
 -2      2375      2376      2391      2390
 -1      2173    9    0    1
 -2      2376      2377      2392      2391
 -1      2174    9    0    1
 -2      2377       471       472      2392
 -1      2175    9    0    1
 -2       256      2378      2393       257
 -1      2176    9    0    1
 -2      2378      2379      2394      2393
 -1      2177    9    0    1
 -2      2379      2380      2395      2394
 -1      2178    9    0    1
 -2      2380      2381      2396      2395
 -1      2179    9    0    1
 -2      2381      2382      2397      2396
 -1      2180    9    0    1
 -2      2382      2383      2398      2397
 -1      2181    9    0    1
 -2      2383      2384      2399      2398
 -1      2182    9    0    1
 -2      2384      2385      2400      2399
 -1      2183    9    0    1
 -2      2385      2386      2401      2400
 -1      2184    9    0    1
 -2      2386      2387      2402      2401
 -1      2185    9    0    1
 -2      2387      2388      2403      2402
 -1      2186    9    0    1
 -2      2388      2389      2404      2403
 -1      2187    9    0    1
 -2      2389      2390      2405      2404
 -1      2188    9    0    1
 -2      2390      2391      2406      2405
 -1      2189    9    0    1
 -2      2391      2392      2407      2406
 -1      2190    9    0    1
 -2      2392       472       473      2407
 -1      2191    9    0    1
 -2       257      2393      2408       258
 -1      2192    9    0    1
 -2      2393      2394      2409      2408
 -1      2193    9    0    1
 -2      2394      2395      2410      2409
 -1      2194    9    0    1
 -2      2395      2396      2411      2410
 -1      2195    9    0    1
 -2      2396      2397      2412      2411
 -1      2196    9    0    1
 -2      2397      2398      2413      2412
 -1      2197    9    0    1
 -2      2398      2399      2414      2413
 -1      2198    9    0    1
 -2      2399      2400      2415      2414
 -1      2199    9    0    1
 -2      2400      2401      2416      2415
 -1      2200    9    0    1
 -2      2401      2402      2417      2416
 -1      2201    9    0    1
 -2      2402      2403      2418      2417
 -1      2202    9    0    1
 -2      2403      2404      2419      2418
 -1      2203    9    0    1
 -2      2404      2405      2420      2419
 -1      2204    9    0    1
 -2      2405      2406      2421      2420
 -1      2205    9    0    1
 -2      2406      2407      2422      2421
 -1      2206    9    0    1
 -2      2407       473       474      2422
 -1      2207    9    0    1
 -2       258      2408       259        12
 -1      2208    9    0    1
 -2      2408      2409       260       259
 -1      2209    9    0    1
 -2      2409      2410       261       260
 -1      2210    9    0    1
 -2      2410      2411       262       261
 -1      2211    9    0    1
 -2      2411      2412       263       262
 -1      2212    9    0    1
 -2      2412      2413       264       263
 -1      2213    9    0    1
 -2      2413      2414       265       264
 -1      2214    9    0    1
 -2      2414      2415       266       265
 -1      2215    9    0    1
 -2      2415      2416       267       266
 -1      2216    9    0    1
 -2      2416      2417       268       267
 -1      2217    9    0    1
 -2      2417      2418       269       268
 -1      2218    9    0    1
 -2      2418      2419       270       269
 -1      2219    9    0    1
 -2      2419      2420       271       270
 -1      2220    9    0    1
 -2      2420      2421       272       271
 -1      2221    9    0    1
 -2      2421      2422       273       272
 -1      2222    9    0    1
 -2      2422       474        13       273
 -1      2223    9    0    1
 -2        13       474      2423       274
 -1      2224    9    0    1
 -2       474       473      2424      2423
 -1      2225    9    0    1
 -2       473       472      2425      2424
 -1      2226    9    0    1
 -2       472       471      2426      2425
 -1      2227    9    0    1
 -2       471       470      2427      2426
 -1      2228    9    0    1
 -2       470       469      2428      2427
 -1      2229    9    0    1
 -2       469       468      2429      2428
 -1      2230    9    0    1
 -2       468       467      2430      2429
 -1      2231    9    0    1
 -2       467       466      2431      2430
 -1      2232    9    0    1
 -2       466       465      2432      2431
 -1      2233    9    0    1
 -2       465       464      2433      2432
 -1      2234    9    0    1
 -2       464       463      2434      2433
 -1      2235    9    0    1
 -2       463       462      2435      2434
 -1      2236    9    0    1
 -2       462       461      2436      2435
 -1      2237    9    0    1
 -2       461       460      2437      2436
 -1      2238    9    0    1
 -2       460       459      2438      2437
 -1      2239    9    0    1
 -2       459       458      2439      2438
 -1      2240    9    0    1
 -2       458       457      2440      2439
 -1      2241    9    0    1
 -2       457       456      2441      2440
 -1      2242    9    0    1
 -2       456       455      2442      2441
 -1      2243    9    0    1
 -2       455       454      2443      2442
 -1      2244    9    0    1
 -2       454       453      2444      2443
 -1      2245    9    0    1
 -2       453       452      2445      2444
 -1      2246    9    0    1
 -2       452       451      2446      2445
 -1      2247    9    0    1
 -2       451       450      2447      2446
 -1      2248    9    0    1
 -2       450       449      2448      2447
 -1      2249    9    0    1
 -2       449       448      2449      2448
 -1      2250    9    0    1
 -2       448       447      2450      2449
 -1      2251    9    0    1
 -2       447         6       147      2450
 -1      2252    9    0    1
 -2       274      2423      2451       275
 -1      2253    9    0    1
 -2      2423      2424      2452      2451
 -1      2254    9    0    1
 -2      2424      2425      2453      2452
 -1      2255    9    0    1
 -2      2425      2426      2454      2453
 -1      2256    9    0    1
 -2      2426      2427      2455      2454
 -1      2257    9    0    1
 -2      2427      2428      2456      2455
 -1      2258    9    0    1
 -2      2428      2429      2457      2456
 -1      2259    9    0    1
 -2      2429      2430      2458      2457
 -1      2260    9    0    1
 -2      2430      2431      2459      2458
 -1      2261    9    0    1
 -2      2431      2432      2460      2459
 -1      2262    9    0    1
 -2      2432      2433      2461      2460
 -1      2263    9    0    1
 -2      2433      2434      2462      2461
 -1      2264    9    0    1
 -2      2434      2435      2463      2462
 -1      2265    9    0    1
 -2      2435      2436      2464      2463
 -1      2266    9    0    1
 -2      2436      2437      2465      2464
 -1      2267    9    0    1
 -2      2437      2438      2466      2465
 -1      2268    9    0    1
 -2      2438      2439      2467      2466
 -1      2269    9    0    1
 -2      2439      2440      2468      2467
 -1      2270    9    0    1
 -2      2440      2441      2469      2468
 -1      2271    9    0    1
 -2      2441      2442      2470      2469
 -1      2272    9    0    1
 -2      2442      2443      2471      2470
 -1      2273    9    0    1
 -2      2443      2444      2472      2471
 -1      2274    9    0    1
 -2      2444      2445      2473      2472
 -1      2275    9    0    1
 -2      2445      2446      2474      2473
 -1      2276    9    0    1
 -2      2446      2447      2475      2474
 -1      2277    9    0    1
 -2      2447      2448      2476      2475
 -1      2278    9    0    1
 -2      2448      2449      2477      2476
 -1      2279    9    0    1
 -2      2449      2450      2478      2477
 -1      2280    9    0    1
 -2      2450       147       148      2478
 -1      2281    9    0    1
 -2       275      2451      2479       276
 -1      2282    9    0    1
 -2      2451      2452      2480      2479
 -1      2283    9    0    1
 -2      2452      2453      2481      2480
 -1      2284    9    0    1
 -2      2453      2454      2482      2481
 -1      2285    9    0    1
 -2      2454      2455      2483      2482
 -1      2286    9    0    1
 -2      2455      2456      2484      2483
 -1      2287    9    0    1
 -2      2456      2457      2485      2484
 -1      2288    9    0    1
 -2      2457      2458      2486      2485
 -1      2289    9    0    1
 -2      2458      2459      2487      2486
 -1      2290    9    0    1
 -2      2459      2460      2488      2487
 -1      2291    9    0    1
 -2      2460      2461      2489      2488
 -1      2292    9    0    1
 -2      2461      2462      2490      2489
 -1      2293    9    0    1
 -2      2462      2463      2491      2490
 -1      2294    9    0    1
 -2      2463      2464      2492      2491
 -1      2295    9    0    1
 -2      2464      2465      2493      2492
 -1      2296    9    0    1
 -2      2465      2466      2494      2493
 -1      2297    9    0    1
 -2      2466      2467      2495      2494
 -1      2298    9    0    1
 -2      2467      2468      2496      2495
 -1      2299    9    0    1
 -2      2468      2469      2497      2496
 -1      2300    9    0    1
 -2      2469      2470      2498      2497
 -1      2301    9    0    1
 -2      2470      2471      2499      2498
 -1      2302    9    0    1
 -2      2471      2472      2500      2499
 -1      2303    9    0    1
 -2      2472      2473      2501      2500
 -1      2304    9    0    1
 -2      2473      2474      2502      2501
 -1      2305    9    0    1
 -2      2474      2475      2503      2502
 -1      2306    9    0    1
 -2      2475      2476      2504      2503
 -1      2307    9    0    1
 -2      2476      2477      2505      2504
 -1      2308    9    0    1
 -2      2477      2478      2506      2505
 -1      2309    9    0    1
 -2      2478       148       149      2506
 -1      2310    9    0    1
 -2       276      2479      2507       277
 -1      2311    9    0    1
 -2      2479      2480      2508      2507
 -1      2312    9    0    1
 -2      2480      2481      2509      2508
 -1      2313    9    0    1
 -2      2481      2482      2510      2509
 -1      2314    9    0    1
 -2      2482      2483      2511      2510
 -1      2315    9    0    1
 -2      2483      2484      2512      2511
 -1      2316    9    0    1
 -2      2484      2485      2513      2512
 -1      2317    9    0    1
 -2      2485      2486      2514      2513
 -1      2318    9    0    1
 -2      2486      2487      2515      2514
 -1      2319    9    0    1
 -2      2487      2488      2516      2515
 -1      2320    9    0    1
 -2      2488      2489      2517      2516
 -1      2321    9    0    1
 -2      2489      2490      2518      2517
 -1      2322    9    0    1
 -2      2490      2491      2519      2518
 -1      2323    9    0    1
 -2      2491      2492      2520      2519
 -1      2324    9    0    1
 -2      2492      2493      2521      2520
 -1      2325    9    0    1
 -2      2493      2494      2522      2521
 -1      2326    9    0    1
 -2      2494      2495      2523      2522
 -1      2327    9    0    1
 -2      2495      2496      2524      2523
 -1      2328    9    0    1
 -2      2496      2497      2525      2524
 -1      2329    9    0    1
 -2      2497      2498      2526      2525
 -1      2330    9    0    1
 -2      2498      2499      2527      2526
 -1      2331    9    0    1
 -2      2499      2500      2528      2527
 -1      2332    9    0    1
 -2      2500      2501      2529      2528
 -1      2333    9    0    1
 -2      2501      2502      2530      2529
 -1      2334    9    0    1
 -2      2502      2503      2531      2530
 -1      2335    9    0    1
 -2      2503      2504      2532      2531
 -1      2336    9    0    1
 -2      2504      2505      2533      2532
 -1      2337    9    0    1
 -2      2505      2506      2534      2533
 -1      2338    9    0    1
 -2      2506       149       150      2534
 -1      2339    9    0    1
 -2       277      2507      2535       278
 -1      2340    9    0    1
 -2      2507      2508      2536      2535
 -1      2341    9    0    1
 -2      2508      2509      2537      2536
 -1      2342    9    0    1
 -2      2509      2510      2538      2537
 -1      2343    9    0    1
 -2      2510      2511      2539      2538
 -1      2344    9    0    1
 -2      2511      2512      2540      2539
 -1      2345    9    0    1
 -2      2512      2513      2541      2540
 -1      2346    9    0    1
 -2      2513      2514      2542      2541
 -1      2347    9    0    1
 -2      2514      2515      2543      2542
 -1      2348    9    0    1
 -2      2515      2516      2544      2543
 -1      2349    9    0    1
 -2      2516      2517      2545      2544
 -1      2350    9    0    1
 -2      2517      2518      2546      2545
 -1      2351    9    0    1
 -2      2518      2519      2547      2546
 -1      2352    9    0    1
 -2      2519      2520      2548      2547
 -1      2353    9    0    1
 -2      2520      2521      2549      2548
 -1      2354    9    0    1
 -2      2521      2522      2550      2549
 -1      2355    9    0    1
 -2      2522      2523      2551      2550
 -1      2356    9    0    1
 -2      2523      2524      2552      2551
 -1      2357    9    0    1
 -2      2524      2525      2553      2552
 -1      2358    9    0    1
 -2      2525      2526      2554      2553
 -1      2359    9    0    1
 -2      2526      2527      2555      2554
 -1      2360    9    0    1
 -2      2527      2528      2556      2555
 -1      2361    9    0    1
 -2      2528      2529      2557      2556
 -1      2362    9    0    1
 -2      2529      2530      2558      2557
 -1      2363    9    0    1
 -2      2530      2531      2559      2558
 -1      2364    9    0    1
 -2      2531      2532      2560      2559
 -1      2365    9    0    1
 -2      2532      2533      2561      2560
 -1      2366    9    0    1
 -2      2533      2534      2562      2561
 -1      2367    9    0    1
 -2      2534       150       151      2562
 -1      2368    9    0    1
 -2       278      2535      2563       279
 -1      2369    9    0    1
 -2      2535      2536      2564      2563
 -1      2370    9    0    1
 -2      2536      2537      2565      2564
 -1      2371    9    0    1
 -2      2537      2538      2566      2565
 -1      2372    9    0    1
 -2      2538      2539      2567      2566
 -1      2373    9    0    1
 -2      2539      2540      2568      2567
 -1      2374    9    0    1
 -2      2540      2541      2569      2568
 -1      2375    9    0    1
 -2      2541      2542      2570      2569
 -1      2376    9    0    1
 -2      2542      2543      2571      2570
 -1      2377    9    0    1
 -2      2543      2544      2572      2571
 -1      2378    9    0    1
 -2      2544      2545      2573      2572
 -1      2379    9    0    1
 -2      2545      2546      2574      2573
 -1      2380    9    0    1
 -2      2546      2547      2575      2574
 -1      2381    9    0    1
 -2      2547      2548      2576      2575
 -1      2382    9    0    1
 -2      2548      2549      2577      2576
 -1      2383    9    0    1
 -2      2549      2550      2578      2577
 -1      2384    9    0    1
 -2      2550      2551      2579      2578
 -1      2385    9    0    1
 -2      2551      2552      2580      2579
 -1      2386    9    0    1
 -2      2552      2553      2581      2580
 -1      2387    9    0    1
 -2      2553      2554      2582      2581
 -1      2388    9    0    1
 -2      2554      2555      2583      2582
 -1      2389    9    0    1
 -2      2555      2556      2584      2583
 -1      2390    9    0    1
 -2      2556      2557      2585      2584
 -1      2391    9    0    1
 -2      2557      2558      2586      2585
 -1      2392    9    0    1
 -2      2558      2559      2587      2586
 -1      2393    9    0    1
 -2      2559      2560      2588      2587
 -1      2394    9    0    1
 -2      2560      2561      2589      2588
 -1      2395    9    0    1
 -2      2561      2562      2590      2589
 -1      2396    9    0    1
 -2      2562       151       152      2590
 -1      2397    9    0    1
 -2       279      2563      2591       280
 -1      2398    9    0    1
 -2      2563      2564      2592      2591
 -1      2399    9    0    1
 -2      2564      2565      2593      2592
 -1      2400    9    0    1
 -2      2565      2566      2594      2593
 -1      2401    9    0    1
 -2      2566      2567      2595      2594
 -1      2402    9    0    1
 -2      2567      2568      2596      2595
 -1      2403    9    0    1
 -2      2568      2569      2597      2596
 -1      2404    9    0    1
 -2      2569      2570      2598      2597
 -1      2405    9    0    1
 -2      2570      2571      2599      2598
 -1      2406    9    0    1
 -2      2571      2572      2600      2599
 -1      2407    9    0    1
 -2      2572      2573      2601      2600
 -1      2408    9    0    1
 -2      2573      2574      2602      2601
 -1      2409    9    0    1
 -2      2574      2575      2603      2602
 -1      2410    9    0    1
 -2      2575      2576      2604      2603
 -1      2411    9    0    1
 -2      2576      2577      2605      2604
 -1      2412    9    0    1
 -2      2577      2578      2606      2605
 -1      2413    9    0    1
 -2      2578      2579      2607      2606
 -1      2414    9    0    1
 -2      2579      2580      2608      2607
 -1      2415    9    0    1
 -2      2580      2581      2609      2608
 -1      2416    9    0    1
 -2      2581      2582      2610      2609
 -1      2417    9    0    1
 -2      2582      2583      2611      2610
 -1      2418    9    0    1
 -2      2583      2584      2612      2611
 -1      2419    9    0    1
 -2      2584      2585      2613      2612
 -1      2420    9    0    1
 -2      2585      2586      2614      2613
 -1      2421    9    0    1
 -2      2586      2587      2615      2614
 -1      2422    9    0    1
 -2      2587      2588      2616      2615
 -1      2423    9    0    1
 -2      2588      2589      2617      2616
 -1      2424    9    0    1
 -2      2589      2590      2618      2617
 -1      2425    9    0    1
 -2      2590       152       153      2618
 -1      2426    9    0    1
 -2       280      2591      2619       281
 -1      2427    9    0    1
 -2      2591      2592      2620      2619
 -1      2428    9    0    1
 -2      2592      2593      2621      2620
 -1      2429    9    0    1
 -2      2593      2594      2622      2621
 -1      2430    9    0    1
 -2      2594      2595      2623      2622
 -1      2431    9    0    1
 -2      2595      2596      2624      2623
 -1      2432    9    0    1
 -2      2596      2597      2625      2624
 -1      2433    9    0    1
 -2      2597      2598      2626      2625
 -1      2434    9    0    1
 -2      2598      2599      2627      2626
 -1      2435    9    0    1
 -2      2599      2600      2628      2627
 -1      2436    9    0    1
 -2      2600      2601      2629      2628
 -1      2437    9    0    1
 -2      2601      2602      2630      2629
 -1      2438    9    0    1
 -2      2602      2603      2631      2630
 -1      2439    9    0    1
 -2      2603      2604      2632      2631
 -1      2440    9    0    1
 -2      2604      2605      2633      2632
 -1      2441    9    0    1
 -2      2605      2606      2634      2633
 -1      2442    9    0    1
 -2      2606      2607      2635      2634
 -1      2443    9    0    1
 -2      2607      2608      2636      2635
 -1      2444    9    0    1
 -2      2608      2609      2637      2636
 -1      2445    9    0    1
 -2      2609      2610      2638      2637
 -1      2446    9    0    1
 -2      2610      2611      2639      2638
 -1      2447    9    0    1
 -2      2611      2612      2640      2639
 -1      2448    9    0    1
 -2      2612      2613      2641      2640
 -1      2449    9    0    1
 -2      2613      2614      2642      2641
 -1      2450    9    0    1
 -2      2614      2615      2643      2642
 -1      2451    9    0    1
 -2      2615      2616      2644      2643
 -1      2452    9    0    1
 -2      2616      2617      2645      2644
 -1      2453    9    0    1
 -2      2617      2618      2646      2645
 -1      2454    9    0    1
 -2      2618       153       154      2646
 -1      2455    9    0    1
 -2       281      2619      2647       282
 -1      2456    9    0    1
 -2      2619      2620      2648      2647
 -1      2457    9    0    1
 -2      2620      2621      2649      2648
 -1      2458    9    0    1
 -2      2621      2622      2650      2649
 -1      2459    9    0    1
 -2      2622      2623      2651      2650
 -1      2460    9    0    1
 -2      2623      2624      2652      2651
 -1      2461    9    0    1
 -2      2624      2625      2653      2652
 -1      2462    9    0    1
 -2      2625      2626      2654      2653
 -1      2463    9    0    1
 -2      2626      2627      2655      2654
 -1      2464    9    0    1
 -2      2627      2628      2656      2655
 -1      2465    9    0    1
 -2      2628      2629      2657      2656
 -1      2466    9    0    1
 -2      2629      2630      2658      2657
 -1      2467    9    0    1
 -2      2630      2631      2659      2658
 -1      2468    9    0    1
 -2      2631      2632      2660      2659
 -1      2469    9    0    1
 -2      2632      2633      2661      2660
 -1      2470    9    0    1
 -2      2633      2634      2662      2661
 -1      2471    9    0    1
 -2      2634      2635      2663      2662
 -1      2472    9    0    1
 -2      2635      2636      2664      2663
 -1      2473    9    0    1
 -2      2636      2637      2665      2664
 -1      2474    9    0    1
 -2      2637      2638      2666      2665
 -1      2475    9    0    1
 -2      2638      2639      2667      2666
 -1      2476    9    0    1
 -2      2639      2640      2668      2667
 -1      2477    9    0    1
 -2      2640      2641      2669      2668
 -1      2478    9    0    1
 -2      2641      2642      2670      2669
 -1      2479    9    0    1
 -2      2642      2643      2671      2670
 -1      2480    9    0    1
 -2      2643      2644      2672      2671
 -1      2481    9    0    1
 -2      2644      2645      2673      2672
 -1      2482    9    0    1
 -2      2645      2646      2674      2673
 -1      2483    9    0    1
 -2      2646       154       155      2674
 -1      2484    9    0    1
 -2       282      2647      2675       283
 -1      2485    9    0    1
 -2      2647      2648      2676      2675
 -1      2486    9    0    1
 -2      2648      2649      2677      2676
 -1      2487    9    0    1
 -2      2649      2650      2678      2677
 -1      2488    9    0    1
 -2      2650      2651      2679      2678
 -1      2489    9    0    1
 -2      2651      2652      2680      2679
 -1      2490    9    0    1
 -2      2652      2653      2681      2680
 -1      2491    9    0    1
 -2      2653      2654      2682      2681
 -1      2492    9    0    1
 -2      2654      2655      2683      2682
 -1      2493    9    0    1
 -2      2655      2656      2684      2683
 -1      2494    9    0    1
 -2      2656      2657      2685      2684
 -1      2495    9    0    1
 -2      2657      2658      2686      2685
 -1      2496    9    0    1
 -2      2658      2659      2687      2686
 -1      2497    9    0    1
 -2      2659      2660      2688      2687
 -1      2498    9    0    1
 -2      2660      2661      2689      2688
 -1      2499    9    0    1
 -2      2661      2662      2690      2689
 -1      2500    9    0    1
 -2      2662      2663      2691      2690
 -1      2501    9    0    1
 -2      2663      2664      2692      2691
 -1      2502    9    0    1
 -2      2664      2665      2693      2692
 -1      2503    9    0    1
 -2      2665      2666      2694      2693
 -1      2504    9    0    1
 -2      2666      2667      2695      2694
 -1      2505    9    0    1
 -2      2667      2668      2696      2695
 -1      2506    9    0    1
 -2      2668      2669      2697      2696
 -1      2507    9    0    1
 -2      2669      2670      2698      2697
 -1      2508    9    0    1
 -2      2670      2671      2699      2698
 -1      2509    9    0    1
 -2      2671      2672      2700      2699
 -1      2510    9    0    1
 -2      2672      2673      2701      2700
 -1      2511    9    0    1
 -2      2673      2674      2702      2701
 -1      2512    9    0    1
 -2      2674       155       156      2702
 -1      2513    9    0    1
 -2       283      2675      2703       284
 -1      2514    9    0    1
 -2      2675      2676      2704      2703
 -1      2515    9    0    1
 -2      2676      2677      2705      2704
 -1      2516    9    0    1
 -2      2677      2678      2706      2705
 -1      2517    9    0    1
 -2      2678      2679      2707      2706
 -1      2518    9    0    1
 -2      2679      2680      2708      2707
 -1      2519    9    0    1
 -2      2680      2681      2709      2708
 -1      2520    9    0    1
 -2      2681      2682      2710      2709
 -1      2521    9    0    1
 -2      2682      2683      2711      2710
 -1      2522    9    0    1
 -2      2683      2684      2712      2711
 -1      2523    9    0    1
 -2      2684      2685      2713      2712
 -1      2524    9    0    1
 -2      2685      2686      2714      2713
 -1      2525    9    0    1
 -2      2686      2687      2715      2714
 -1      2526    9    0    1
 -2      2687      2688      2716      2715
 -1      2527    9    0    1
 -2      2688      2689      2717      2716
 -1      2528    9    0    1
 -2      2689      2690      2718      2717
 -1      2529    9    0    1
 -2      2690      2691      2719      2718
 -1      2530    9    0    1
 -2      2691      2692      2720      2719
 -1      2531    9    0    1
 -2      2692      2693      2721      2720
 -1      2532    9    0    1
 -2      2693      2694      2722      2721
 -1      2533    9    0    1
 -2      2694      2695      2723      2722
 -1      2534    9    0    1
 -2      2695      2696      2724      2723
 -1      2535    9    0    1
 -2      2696      2697      2725      2724
 -1      2536    9    0    1
 -2      2697      2698      2726      2725
 -1      2537    9    0    1
 -2      2698      2699      2727      2726
 -1      2538    9    0    1
 -2      2699      2700      2728      2727
 -1      2539    9    0    1
 -2      2700      2701      2729      2728
 -1      2540    9    0    1
 -2      2701      2702      2730      2729
 -1      2541    9    0    1
 -2      2702       156       157      2730
 -1      2542    9    0    1
 -2       284      2703      2731       285
 -1      2543    9    0    1
 -2      2703      2704      2732      2731
 -1      2544    9    0    1
 -2      2704      2705      2733      2732
 -1      2545    9    0    1
 -2      2705      2706      2734      2733
 -1      2546    9    0    1
 -2      2706      2707      2735      2734
 -1      2547    9    0    1
 -2      2707      2708      2736      2735
 -1      2548    9    0    1
 -2      2708      2709      2737      2736
 -1      2549    9    0    1
 -2      2709      2710      2738      2737
 -1      2550    9    0    1
 -2      2710      2711      2739      2738
 -1      2551    9    0    1
 -2      2711      2712      2740      2739
 -1      2552    9    0    1
 -2      2712      2713      2741      2740
 -1      2553    9    0    1
 -2      2713      2714      2742      2741
 -1      2554    9    0    1
 -2      2714      2715      2743      2742
 -1      2555    9    0    1
 -2      2715      2716      2744      2743
 -1      2556    9    0    1
 -2      2716      2717      2745      2744
 -1      2557    9    0    1
 -2      2717      2718      2746      2745
 -1      2558    9    0    1
 -2      2718      2719      2747      2746
 -1      2559    9    0    1
 -2      2719      2720      2748      2747
 -1      2560    9    0    1
 -2      2720      2721      2749      2748
 -1      2561    9    0    1
 -2      2721      2722      2750      2749
 -1      2562    9    0    1
 -2      2722      2723      2751      2750
 -1      2563    9    0    1
 -2      2723      2724      2752      2751
 -1      2564    9    0    1
 -2      2724      2725      2753      2752
 -1      2565    9    0    1
 -2      2725      2726      2754      2753
 -1      2566    9    0    1
 -2      2726      2727      2755      2754
 -1      2567    9    0    1
 -2      2727      2728      2756      2755
 -1      2568    9    0    1
 -2      2728      2729      2757      2756
 -1      2569    9    0    1
 -2      2729      2730      2758      2757
 -1      2570    9    0    1
 -2      2730       157       158      2758
 -1      2571    9    0    1
 -2       285      2731      2759       286
 -1      2572    9    0    1
 -2      2731      2732      2760      2759
 -1      2573    9    0    1
 -2      2732      2733      2761      2760
 -1      2574    9    0    1
 -2      2733      2734      2762      2761
 -1      2575    9    0    1
 -2      2734      2735      2763      2762
 -1      2576    9    0    1
 -2      2735      2736      2764      2763
 -1      2577    9    0    1
 -2      2736      2737      2765      2764
 -1      2578    9    0    1
 -2      2737      2738      2766      2765
 -1      2579    9    0    1
 -2      2738      2739      2767      2766
 -1      2580    9    0    1
 -2      2739      2740      2768      2767
 -1      2581    9    0    1
 -2      2740      2741      2769      2768
 -1      2582    9    0    1
 -2      2741      2742      2770      2769
 -1      2583    9    0    1
 -2      2742      2743      2771      2770
 -1      2584    9    0    1
 -2      2743      2744      2772      2771
 -1      2585    9    0    1
 -2      2744      2745      2773      2772
 -1      2586    9    0    1
 -2      2745      2746      2774      2773
 -1      2587    9    0    1
 -2      2746      2747      2775      2774
 -1      2588    9    0    1
 -2      2747      2748      2776      2775
 -1      2589    9    0    1
 -2      2748      2749      2777      2776
 -1      2590    9    0    1
 -2      2749      2750      2778      2777
 -1      2591    9    0    1
 -2      2750      2751      2779      2778
 -1      2592    9    0    1
 -2      2751      2752      2780      2779
 -1      2593    9    0    1
 -2      2752      2753      2781      2780
 -1      2594    9    0    1
 -2      2753      2754      2782      2781
 -1      2595    9    0    1
 -2      2754      2755      2783      2782
 -1      2596    9    0    1
 -2      2755      2756      2784      2783
 -1      2597    9    0    1
 -2      2756      2757      2785      2784
 -1      2598    9    0    1
 -2      2757      2758      2786      2785
 -1      2599    9    0    1
 -2      2758       158       159      2786
 -1      2600    9    0    1
 -2       286      2759      2787       287
 -1      2601    9    0    1
 -2      2759      2760      2788      2787
 -1      2602    9    0    1
 -2      2760      2761      2789      2788
 -1      2603    9    0    1
 -2      2761      2762      2790      2789
 -1      2604    9    0    1
 -2      2762      2763      2791      2790
 -1      2605    9    0    1
 -2      2763      2764      2792      2791
 -1      2606    9    0    1
 -2      2764      2765      2793      2792
 -1      2607    9    0    1
 -2      2765      2766      2794      2793
 -1      2608    9    0    1
 -2      2766      2767      2795      2794
 -1      2609    9    0    1
 -2      2767      2768      2796      2795
 -1      2610    9    0    1
 -2      2768      2769      2797      2796
 -1      2611    9    0    1
 -2      2769      2770      2798      2797
 -1      2612    9    0    1
 -2      2770      2771      2799      2798
 -1      2613    9    0    1
 -2      2771      2772      2800      2799
 -1      2614    9    0    1
 -2      2772      2773      2801      2800
 -1      2615    9    0    1
 -2      2773      2774      2802      2801
 -1      2616    9    0    1
 -2      2774      2775      2803      2802
 -1      2617    9    0    1
 -2      2775      2776      2804      2803
 -1      2618    9    0    1
 -2      2776      2777      2805      2804
 -1      2619    9    0    1
 -2      2777      2778      2806      2805
 -1      2620    9    0    1
 -2      2778      2779      2807      2806
 -1      2621    9    0    1
 -2      2779      2780      2808      2807
 -1      2622    9    0    1
 -2      2780      2781      2809      2808
 -1      2623    9    0    1
 -2      2781      2782      2810      2809
 -1      2624    9    0    1
 -2      2782      2783      2811      2810
 -1      2625    9    0    1
 -2      2783      2784      2812      2811
 -1      2626    9    0    1
 -2      2784      2785      2813      2812
 -1      2627    9    0    1
 -2      2785      2786      2814      2813
 -1      2628    9    0    1
 -2      2786       159       160      2814
 -1      2629    9    0    1
 -2       287      2787       502        14
 -1      2630    9    0    1
 -2      2787      2788       501       502
 -1      2631    9    0    1
 -2      2788      2789       500       501
 -1      2632    9    0    1
 -2      2789      2790       499       500
 -1      2633    9    0    1
 -2      2790      2791       498       499
 -1      2634    9    0    1
 -2      2791      2792       497       498
 -1      2635    9    0    1
 -2      2792      2793       496       497
 -1      2636    9    0    1
 -2      2793      2794       495       496
 -1      2637    9    0    1
 -2      2794      2795       494       495
 -1      2638    9    0    1
 -2      2795      2796       493       494
 -1      2639    9    0    1
 -2      2796      2797       492       493
 -1      2640    9    0    1
 -2      2797      2798       491       492
 -1      2641    9    0    1
 -2      2798      2799       490       491
 -1      2642    9    0    1
 -2      2799      2800       489       490
 -1      2643    9    0    1
 -2      2800      2801       488       489
 -1      2644    9    0    1
 -2      2801      2802       487       488
 -1      2645    9    0    1
 -2      2802      2803       486       487
 -1      2646    9    0    1
 -2      2803      2804       485       486
 -1      2647    9    0    1
 -2      2804      2805       484       485
 -1      2648    9    0    1
 -2      2805      2806       483       484
 -1      2649    9    0    1
 -2      2806      2807       482       483
 -1      2650    9    0    1
 -2      2807      2808       481       482
 -1      2651    9    0    1
 -2      2808      2809       480       481
 -1      2652    9    0    1
 -2      2809      2810       479       480
 -1      2653    9    0    1
 -2      2810      2811       478       479
 -1      2654    9    0    1
 -2      2811      2812       477       478
 -1      2655    9    0    1
 -2      2812      2813       476       477
 -1      2656    9    0    1
 -2      2813      2814       475       476
 -1      2657    9    0    1
 -2      2814       160         7       475
 -1      2658    9    0    1
 -2        14       502      2815       288
 -1      2659    9    0    1
 -2       502       501      2816      2815
 -1      2660    9    0    1
 -2       501       500      2817      2816
 -1      2661    9    0    1
 -2       500       499      2818      2817
 -1      2662    9    0    1
 -2       499       498      2819      2818
 -1      2663    9    0    1
 -2       498       497      2820      2819
 -1      2664    9    0    1
 -2       497       496      2821      2820
 -1      2665    9    0    1
 -2       496       495      2822      2821
 -1      2666    9    0    1
 -2       495       494      2823      2822
 -1      2667    9    0    1
 -2       494       493      2824      2823
 -1      2668    9    0    1
 -2       493       492      2825      2824
 -1      2669    9    0    1
 -2       492       491      2826      2825
 -1      2670    9    0    1
 -2       491       490      2827      2826
 -1      2671    9    0    1
 -2       490       489      2828      2827
 -1      2672    9    0    1
 -2       489       488      2829      2828
 -1      2673    9    0    1
 -2       488       487      2830      2829
 -1      2674    9    0    1
 -2       487       486      2831      2830
 -1      2675    9    0    1
 -2       486       485      2832      2831
 -1      2676    9    0    1
 -2       485       484      2833      2832
 -1      2677    9    0    1
 -2       484       483      2834      2833
 -1      2678    9    0    1
 -2       483       482      2835      2834
 -1      2679    9    0    1
 -2       482       481      2836      2835
 -1      2680    9    0    1
 -2       481       480      2837      2836
 -1      2681    9    0    1
 -2       480       479      2838      2837
 -1      2682    9    0    1
 -2       479       478      2839      2838
 -1      2683    9    0    1
 -2       478       477      2840      2839
 -1      2684    9    0    1
 -2       477       476      2841      2840
 -1      2685    9    0    1
 -2       476       475      2842      2841
 -1      2686    9    0    1
 -2       475         7       503      2842
 -1      2687    9    0    1
 -2       288      2815      2843       289
 -1      2688    9    0    1
 -2      2815      2816      2844      2843
 -1      2689    9    0    1
 -2      2816      2817      2845      2844
 -1      2690    9    0    1
 -2      2817      2818      2846      2845
 -1      2691    9    0    1
 -2      2818      2819      2847      2846
 -1      2692    9    0    1
 -2      2819      2820      2848      2847
 -1      2693    9    0    1
 -2      2820      2821      2849      2848
 -1      2694    9    0    1
 -2      2821      2822      2850      2849
 -1      2695    9    0    1
 -2      2822      2823      2851      2850
 -1      2696    9    0    1
 -2      2823      2824      2852      2851
 -1      2697    9    0    1
 -2      2824      2825      2853      2852
 -1      2698    9    0    1
 -2      2825      2826      2854      2853
 -1      2699    9    0    1
 -2      2826      2827      2855      2854
 -1      2700    9    0    1
 -2      2827      2828      2856      2855
 -1      2701    9    0    1
 -2      2828      2829      2857      2856
 -1      2702    9    0    1
 -2      2829      2830      2858      2857
 -1      2703    9    0    1
 -2      2830      2831      2859      2858
 -1      2704    9    0    1
 -2      2831      2832      2860      2859
 -1      2705    9    0    1
 -2      2832      2833      2861      2860
 -1      2706    9    0    1
 -2      2833      2834      2862      2861
 -1      2707    9    0    1
 -2      2834      2835      2863      2862
 -1      2708    9    0    1
 -2      2835      2836      2864      2863
 -1      2709    9    0    1
 -2      2836      2837      2865      2864
 -1      2710    9    0    1
 -2      2837      2838      2866      2865
 -1      2711    9    0    1
 -2      2838      2839      2867      2866
 -1      2712    9    0    1
 -2      2839      2840      2868      2867
 -1      2713    9    0    1
 -2      2840      2841      2869      2868
 -1      2714    9    0    1
 -2      2841      2842      2870      2869
 -1      2715    9    0    1
 -2      2842       503       504      2870
 -1      2716    9    0    1
 -2       289      2843      2871       290
 -1      2717    9    0    1
 -2      2843      2844      2872      2871
 -1      2718    9    0    1
 -2      2844      2845      2873      2872
 -1      2719    9    0    1
 -2      2845      2846      2874      2873
 -1      2720    9    0    1
 -2      2846      2847      2875      2874
 -1      2721    9    0    1
 -2      2847      2848      2876      2875
 -1      2722    9    0    1
 -2      2848      2849      2877      2876
 -1      2723    9    0    1
 -2      2849      2850      2878      2877
 -1      2724    9    0    1
 -2      2850      2851      2879      2878
 -1      2725    9    0    1
 -2      2851      2852      2880      2879
 -1      2726    9    0    1
 -2      2852      2853      2881      2880
 -1      2727    9    0    1
 -2      2853      2854      2882      2881
 -1      2728    9    0    1
 -2      2854      2855      2883      2882
 -1      2729    9    0    1
 -2      2855      2856      2884      2883
 -1      2730    9    0    1
 -2      2856      2857      2885      2884
 -1      2731    9    0    1
 -2      2857      2858      2886      2885
 -1      2732    9    0    1
 -2      2858      2859      2887      2886
 -1      2733    9    0    1
 -2      2859      2860      2888      2887
 -1      2734    9    0    1
 -2      2860      2861      2889      2888
 -1      2735    9    0    1
 -2      2861      2862      2890      2889
 -1      2736    9    0    1
 -2      2862      2863      2891      2890
 -1      2737    9    0    1
 -2      2863      2864      2892      2891
 -1      2738    9    0    1
 -2      2864      2865      2893      2892
 -1      2739    9    0    1
 -2      2865      2866      2894      2893
 -1      2740    9    0    1
 -2      2866      2867      2895      2894
 -1      2741    9    0    1
 -2      2867      2868      2896      2895
 -1      2742    9    0    1
 -2      2868      2869      2897      2896
 -1      2743    9    0    1
 -2      2869      2870      2898      2897
 -1      2744    9    0    1
 -2      2870       504       505      2898
 -1      2745    9    0    1
 -2       290      2871      2899       291
 -1      2746    9    0    1
 -2      2871      2872      2900      2899
 -1      2747    9    0    1
 -2      2872      2873      2901      2900
 -1      2748    9    0    1
 -2      2873      2874      2902      2901
 -1      2749    9    0    1
 -2      2874      2875      2903      2902
 -1      2750    9    0    1
 -2      2875      2876      2904      2903
 -1      2751    9    0    1
 -2      2876      2877      2905      2904
 -1      2752    9    0    1
 -2      2877      2878      2906      2905
 -1      2753    9    0    1
 -2      2878      2879      2907      2906
 -1      2754    9    0    1
 -2      2879      2880      2908      2907
 -1      2755    9    0    1
 -2      2880      2881      2909      2908
 -1      2756    9    0    1
 -2      2881      2882      2910      2909
 -1      2757    9    0    1
 -2      2882      2883      2911      2910
 -1      2758    9    0    1
 -2      2883      2884      2912      2911
 -1      2759    9    0    1
 -2      2884      2885      2913      2912
 -1      2760    9    0    1
 -2      2885      2886      2914      2913
 -1      2761    9    0    1
 -2      2886      2887      2915      2914
 -1      2762    9    0    1
 -2      2887      2888      2916      2915
 -1      2763    9    0    1
 -2      2888      2889      2917      2916
 -1      2764    9    0    1
 -2      2889      2890      2918      2917
 -1      2765    9    0    1
 -2      2890      2891      2919      2918
 -1      2766    9    0    1
 -2      2891      2892      2920      2919
 -1      2767    9    0    1
 -2      2892      2893      2921      2920
 -1      2768    9    0    1
 -2      2893      2894      2922      2921
 -1      2769    9    0    1
 -2      2894      2895      2923      2922
 -1      2770    9    0    1
 -2      2895      2896      2924      2923
 -1      2771    9    0    1
 -2      2896      2897      2925      2924
 -1      2772    9    0    1
 -2      2897      2898      2926      2925
 -1      2773    9    0    1
 -2      2898       505       506      2926
 -1      2774    9    0    1
 -2       291      2899      2927       292
 -1      2775    9    0    1
 -2      2899      2900      2928      2927
 -1      2776    9    0    1
 -2      2900      2901      2929      2928
 -1      2777    9    0    1
 -2      2901      2902      2930      2929
 -1      2778    9    0    1
 -2      2902      2903      2931      2930
 -1      2779    9    0    1
 -2      2903      2904      2932      2931
 -1      2780    9    0    1
 -2      2904      2905      2933      2932
 -1      2781    9    0    1
 -2      2905      2906      2934      2933
 -1      2782    9    0    1
 -2      2906      2907      2935      2934
 -1      2783    9    0    1
 -2      2907      2908      2936      2935
 -1      2784    9    0    1
 -2      2908      2909      2937      2936
 -1      2785    9    0    1
 -2      2909      2910      2938      2937
 -1      2786    9    0    1
 -2      2910      2911      2939      2938
 -1      2787    9    0    1
 -2      2911      2912      2940      2939
 -1      2788    9    0    1
 -2      2912      2913      2941      2940
 -1      2789    9    0    1
 -2      2913      2914      2942      2941
 -1      2790    9    0    1
 -2      2914      2915      2943      2942
 -1      2791    9    0    1
 -2      2915      2916      2944      2943
 -1      2792    9    0    1
 -2      2916      2917      2945      2944
 -1      2793    9    0    1
 -2      2917      2918      2946      2945
 -1      2794    9    0    1
 -2      2918      2919      2947      2946
 -1      2795    9    0    1
 -2      2919      2920      2948      2947
 -1      2796    9    0    1
 -2      2920      2921      2949      2948
 -1      2797    9    0    1
 -2      2921      2922      2950      2949
 -1      2798    9    0    1
 -2      2922      2923      2951      2950
 -1      2799    9    0    1
 -2      2923      2924      2952      2951
 -1      2800    9    0    1
 -2      2924      2925      2953      2952
 -1      2801    9    0    1
 -2      2925      2926      2954      2953
 -1      2802    9    0    1
 -2      2926       506       507      2954
 -1      2803    9    0    1
 -2       292      2927      2955       293
 -1      2804    9    0    1
 -2      2927      2928      2956      2955
 -1      2805    9    0    1
 -2      2928      2929      2957      2956
 -1      2806    9    0    1
 -2      2929      2930      2958      2957
 -1      2807    9    0    1
 -2      2930      2931      2959      2958
 -1      2808    9    0    1
 -2      2931      2932      2960      2959
 -1      2809    9    0    1
 -2      2932      2933      2961      2960
 -1      2810    9    0    1
 -2      2933      2934      2962      2961
 -1      2811    9    0    1
 -2      2934      2935      2963      2962
 -1      2812    9    0    1
 -2      2935      2936      2964      2963
 -1      2813    9    0    1
 -2      2936      2937      2965      2964
 -1      2814    9    0    1
 -2      2937      2938      2966      2965
 -1      2815    9    0    1
 -2      2938      2939      2967      2966
 -1      2816    9    0    1
 -2      2939      2940      2968      2967
 -1      2817    9    0    1
 -2      2940      2941      2969      2968
 -1      2818    9    0    1
 -2      2941      2942      2970      2969
 -1      2819    9    0    1
 -2      2942      2943      2971      2970
 -1      2820    9    0    1
 -2      2943      2944      2972      2971
 -1      2821    9    0    1
 -2      2944      2945      2973      2972
 -1      2822    9    0    1
 -2      2945      2946      2974      2973
 -1      2823    9    0    1
 -2      2946      2947      2975      2974
 -1      2824    9    0    1
 -2      2947      2948      2976      2975
 -1      2825    9    0    1
 -2      2948      2949      2977      2976
 -1      2826    9    0    1
 -2      2949      2950      2978      2977
 -1      2827    9    0    1
 -2      2950      2951      2979      2978
 -1      2828    9    0    1
 -2      2951      2952      2980      2979
 -1      2829    9    0    1
 -2      2952      2953      2981      2980
 -1      2830    9    0    1
 -2      2953      2954      2982      2981
 -1      2831    9    0    1
 -2      2954       507       508      2982
 -1      2832    9    0    1
 -2       293      2955      2983       294
 -1      2833    9    0    1
 -2      2955      2956      2984      2983
 -1      2834    9    0    1
 -2      2956      2957      2985      2984
 -1      2835    9    0    1
 -2      2957      2958      2986      2985
 -1      2836    9    0    1
 -2      2958      2959      2987      2986
 -1      2837    9    0    1
 -2      2959      2960      2988      2987
 -1      2838    9    0    1
 -2      2960      2961      2989      2988
 -1      2839    9    0    1
 -2      2961      2962      2990      2989
 -1      2840    9    0    1
 -2      2962      2963      2991      2990
 -1      2841    9    0    1
 -2      2963      2964      2992      2991
 -1      2842    9    0    1
 -2      2964      2965      2993      2992
 -1      2843    9    0    1
 -2      2965      2966      2994      2993
 -1      2844    9    0    1
 -2      2966      2967      2995      2994
 -1      2845    9    0    1
 -2      2967      2968      2996      2995
 -1      2846    9    0    1
 -2      2968      2969      2997      2996
 -1      2847    9    0    1
 -2      2969      2970      2998      2997
 -1      2848    9    0    1
 -2      2970      2971      2999      2998
 -1      2849    9    0    1
 -2      2971      2972      3000      2999
 -1      2850    9    0    1
 -2      2972      2973      3001      3000
 -1      2851    9    0    1
 -2      2973      2974      3002      3001
 -1      2852    9    0    1
 -2      2974      2975      3003      3002
 -1      2853    9    0    1
 -2      2975      2976      3004      3003
 -1      2854    9    0    1
 -2      2976      2977      3005      3004
 -1      2855    9    0    1
 -2      2977      2978      3006      3005
 -1      2856    9    0    1
 -2      2978      2979      3007      3006
 -1      2857    9    0    1
 -2      2979      2980      3008      3007
 -1      2858    9    0    1
 -2      2980      2981      3009      3008
 -1      2859    9    0    1
 -2      2981      2982      3010      3009
 -1      2860    9    0    1
 -2      2982       508       509      3010
 -1      2861    9    0    1
 -2       294      2983      3011       295
 -1      2862    9    0    1
 -2      2983      2984      3012      3011
 -1      2863    9    0    1
 -2      2984      2985      3013      3012
 -1      2864    9    0    1
 -2      2985      2986      3014      3013
 -1      2865    9    0    1
 -2      2986      2987      3015      3014
 -1      2866    9    0    1
 -2      2987      2988      3016      3015
 -1      2867    9    0    1
 -2      2988      2989      3017      3016
 -1      2868    9    0    1
 -2      2989      2990      3018      3017
 -1      2869    9    0    1
 -2      2990      2991      3019      3018
 -1      2870    9    0    1
 -2      2991      2992      3020      3019
 -1      2871    9    0    1
 -2      2992      2993      3021      3020
 -1      2872    9    0    1
 -2      2993      2994      3022      3021
 -1      2873    9    0    1
 -2      2994      2995      3023      3022
 -1      2874    9    0    1
 -2      2995      2996      3024      3023
 -1      2875    9    0    1
 -2      2996      2997      3025      3024
 -1      2876    9    0    1
 -2      2997      2998      3026      3025
 -1      2877    9    0    1
 -2      2998      2999      3027      3026
 -1      2878    9    0    1
 -2      2999      3000      3028      3027
 -1      2879    9    0    1
 -2      3000      3001      3029      3028
 -1      2880    9    0    1
 -2      3001      3002      3030      3029
 -1      2881    9    0    1
 -2      3002      3003      3031      3030
 -1      2882    9    0    1
 -2      3003      3004      3032      3031
 -1      2883    9    0    1
 -2      3004      3005      3033      3032
 -1      2884    9    0    1
 -2      3005      3006      3034      3033
 -1      2885    9    0    1
 -2      3006      3007      3035      3034
 -1      2886    9    0    1
 -2      3007      3008      3036      3035
 -1      2887    9    0    1
 -2      3008      3009      3037      3036
 -1      2888    9    0    1
 -2      3009      3010      3038      3037
 -1      2889    9    0    1
 -2      3010       509       510      3038
 -1      2890    9    0    1
 -2       295      3011      3039       296
 -1      2891    9    0    1
 -2      3011      3012      3040      3039
 -1      2892    9    0    1
 -2      3012      3013      3041      3040
 -1      2893    9    0    1
 -2      3013      3014      3042      3041
 -1      2894    9    0    1
 -2      3014      3015      3043      3042
 -1      2895    9    0    1
 -2      3015      3016      3044      3043
 -1      2896    9    0    1
 -2      3016      3017      3045      3044
 -1      2897    9    0    1
 -2      3017      3018      3046      3045
 -1      2898    9    0    1
 -2      3018      3019      3047      3046
 -1      2899    9    0    1
 -2      3019      3020      3048      3047
 -1      2900    9    0    1
 -2      3020      3021      3049      3048
 -1      2901    9    0    1
 -2      3021      3022      3050      3049
 -1      2902    9    0    1
 -2      3022      3023      3051      3050
 -1      2903    9    0    1
 -2      3023      3024      3052      3051
 -1      2904    9    0    1
 -2      3024      3025      3053      3052
 -1      2905    9    0    1
 -2      3025      3026      3054      3053
 -1      2906    9    0    1
 -2      3026      3027      3055      3054
 -1      2907    9    0    1
 -2      3027      3028      3056      3055
 -1      2908    9    0    1
 -2      3028      3029      3057      3056
 -1      2909    9    0    1
 -2      3029      3030      3058      3057
 -1      2910    9    0    1
 -2      3030      3031      3059      3058
 -1      2911    9    0    1
 -2      3031      3032      3060      3059
 -1      2912    9    0    1
 -2      3032      3033      3061      3060
 -1      2913    9    0    1
 -2      3033      3034      3062      3061
 -1      2914    9    0    1
 -2      3034      3035      3063      3062
 -1      2915    9    0    1
 -2      3035      3036      3064      3063
 -1      2916    9    0    1
 -2      3036      3037      3065      3064
 -1      2917    9    0    1
 -2      3037      3038      3066      3065
 -1      2918    9    0    1
 -2      3038       510       511      3066
 -1      2919    9    0    1
 -2       296      3039      3067       297
 -1      2920    9    0    1
 -2      3039      3040      3068      3067
 -1      2921    9    0    1
 -2      3040      3041      3069      3068
 -1      2922    9    0    1
 -2      3041      3042      3070      3069
 -1      2923    9    0    1
 -2      3042      3043      3071      3070
 -1      2924    9    0    1
 -2      3043      3044      3072      3071
 -1      2925    9    0    1
 -2      3044      3045      3073      3072
 -1      2926    9    0    1
 -2      3045      3046      3074      3073
 -1      2927    9    0    1
 -2      3046      3047      3075      3074
 -1      2928    9    0    1
 -2      3047      3048      3076      3075
 -1      2929    9    0    1
 -2      3048      3049      3077      3076
 -1      2930    9    0    1
 -2      3049      3050      3078      3077
 -1      2931    9    0    1
 -2      3050      3051      3079      3078
 -1      2932    9    0    1
 -2      3051      3052      3080      3079
 -1      2933    9    0    1
 -2      3052      3053      3081      3080
 -1      2934    9    0    1
 -2      3053      3054      3082      3081
 -1      2935    9    0    1
 -2      3054      3055      3083      3082
 -1      2936    9    0    1
 -2      3055      3056      3084      3083
 -1      2937    9    0    1
 -2      3056      3057      3085      3084
 -1      2938    9    0    1
 -2      3057      3058      3086      3085
 -1      2939    9    0    1
 -2      3058      3059      3087      3086
 -1      2940    9    0    1
 -2      3059      3060      3088      3087
 -1      2941    9    0    1
 -2      3060      3061      3089      3088
 -1      2942    9    0    1
 -2      3061      3062      3090      3089
 -1      2943    9    0    1
 -2      3062      3063      3091      3090
 -1      2944    9    0    1
 -2      3063      3064      3092      3091
 -1      2945    9    0    1
 -2      3064      3065      3093      3092
 -1      2946    9    0    1
 -2      3065      3066      3094      3093
 -1      2947    9    0    1
 -2      3066       511       512      3094
 -1      2948    9    0    1
 -2       297      3067      3095       298
 -1      2949    9    0    1
 -2      3067      3068      3096      3095
 -1      2950    9    0    1
 -2      3068      3069      3097      3096
 -1      2951    9    0    1
 -2      3069      3070      3098      3097
 -1      2952    9    0    1
 -2      3070      3071      3099      3098
 -1      2953    9    0    1
 -2      3071      3072      3100      3099
 -1      2954    9    0    1
 -2      3072      3073      3101      3100
 -1      2955    9    0    1
 -2      3073      3074      3102      3101
 -1      2956    9    0    1
 -2      3074      3075      3103      3102
 -1      2957    9    0    1
 -2      3075      3076      3104      3103
 -1      2958    9    0    1
 -2      3076      3077      3105      3104
 -1      2959    9    0    1
 -2      3077      3078      3106      3105
 -1      2960    9    0    1
 -2      3078      3079      3107      3106
 -1      2961    9    0    1
 -2      3079      3080      3108      3107
 -1      2962    9    0    1
 -2      3080      3081      3109      3108
 -1      2963    9    0    1
 -2      3081      3082      3110      3109
 -1      2964    9    0    1
 -2      3082      3083      3111      3110
 -1      2965    9    0    1
 -2      3083      3084      3112      3111
 -1      2966    9    0    1
 -2      3084      3085      3113      3112
 -1      2967    9    0    1
 -2      3085      3086      3114      3113
 -1      2968    9    0    1
 -2      3086      3087      3115      3114
 -1      2969    9    0    1
 -2      3087      3088      3116      3115
 -1      2970    9    0    1
 -2      3088      3089      3117      3116
 -1      2971    9    0    1
 -2      3089      3090      3118      3117
 -1      2972    9    0    1
 -2      3090      3091      3119      3118
 -1      2973    9    0    1
 -2      3091      3092      3120      3119
 -1      2974    9    0    1
 -2      3092      3093      3121      3120
 -1      2975    9    0    1
 -2      3093      3094      3122      3121
 -1      2976    9    0    1
 -2      3094       512       513      3122
 -1      2977    9    0    1
 -2       298      3095      3123       299
 -1      2978    9    0    1
 -2      3095      3096      3124      3123
 -1      2979    9    0    1
 -2      3096      3097      3125      3124
 -1      2980    9    0    1
 -2      3097      3098      3126      3125
 -1      2981    9    0    1
 -2      3098      3099      3127      3126
 -1      2982    9    0    1
 -2      3099      3100      3128      3127
 -1      2983    9    0    1
 -2      3100      3101      3129      3128
 -1      2984    9    0    1
 -2      3101      3102      3130      3129
 -1      2985    9    0    1
 -2      3102      3103      3131      3130
 -1      2986    9    0    1
 -2      3103      3104      3132      3131
 -1      2987    9    0    1
 -2      3104      3105      3133      3132
 -1      2988    9    0    1
 -2      3105      3106      3134      3133
 -1      2989    9    0    1
 -2      3106      3107      3135      3134
 -1      2990    9    0    1
 -2      3107      3108      3136      3135
 -1      2991    9    0    1
 -2      3108      3109      3137      3136
 -1      2992    9    0    1
 -2      3109      3110      3138      3137
 -1      2993    9    0    1
 -2      3110      3111      3139      3138
 -1      2994    9    0    1
 -2      3111      3112      3140      3139
 -1      2995    9    0    1
 -2      3112      3113      3141      3140
 -1      2996    9    0    1
 -2      3113      3114      3142      3141
 -1      2997    9    0    1
 -2      3114      3115      3143      3142
 -1      2998    9    0    1
 -2      3115      3116      3144      3143
 -1      2999    9    0    1
 -2      3116      3117      3145      3144
 -1      3000    9    0    1
 -2      3117      3118      3146      3145
 -1      3001    9    0    1
 -2      3118      3119      3147      3146
 -1      3002    9    0    1
 -2      3119      3120      3148      3147
 -1      3003    9    0    1
 -2      3120      3121      3149      3148
 -1      3004    9    0    1
 -2      3121      3122      3150      3149
 -1      3005    9    0    1
 -2      3122       513       514      3150
 -1      3006    9    0    1
 -2       299      3123      3151       300
 -1      3007    9    0    1
 -2      3123      3124      3152      3151
 -1      3008    9    0    1
 -2      3124      3125      3153      3152
 -1      3009    9    0    1
 -2      3125      3126      3154      3153
 -1      3010    9    0    1
 -2      3126      3127      3155      3154
 -1      3011    9    0    1
 -2      3127      3128      3156      3155
 -1      3012    9    0    1
 -2      3128      3129      3157      3156
 -1      3013    9    0    1
 -2      3129      3130      3158      3157
 -1      3014    9    0    1
 -2      3130      3131      3159      3158
 -1      3015    9    0    1
 -2      3131      3132      3160      3159
 -1      3016    9    0    1
 -2      3132      3133      3161      3160
 -1      3017    9    0    1
 -2      3133      3134      3162      3161
 -1      3018    9    0    1
 -2      3134      3135      3163      3162
 -1      3019    9    0    1
 -2      3135      3136      3164      3163
 -1      3020    9    0    1
 -2      3136      3137      3165      3164
 -1      3021    9    0    1
 -2      3137      3138      3166      3165
 -1      3022    9    0    1
 -2      3138      3139      3167      3166
 -1      3023    9    0    1
 -2      3139      3140      3168      3167
 -1      3024    9    0    1
 -2      3140      3141      3169      3168
 -1      3025    9    0    1
 -2      3141      3142      3170      3169
 -1      3026    9    0    1
 -2      3142      3143      3171      3170
 -1      3027    9    0    1
 -2      3143      3144      3172      3171
 -1      3028    9    0    1
 -2      3144      3145      3173      3172
 -1      3029    9    0    1
 -2      3145      3146      3174      3173
 -1      3030    9    0    1
 -2      3146      3147      3175      3174
 -1      3031    9    0    1
 -2      3147      3148      3176      3175
 -1      3032    9    0    1
 -2      3148      3149      3177      3176
 -1      3033    9    0    1
 -2      3149      3150      3178      3177
 -1      3034    9    0    1
 -2      3150       514       515      3178
 -1      3035    9    0    1
 -2       300      3151      3179       301
 -1      3036    9    0    1
 -2      3151      3152      3180      3179
 -1      3037    9    0    1
 -2      3152      3153      3181      3180
 -1      3038    9    0    1
 -2      3153      3154      3182      3181
 -1      3039    9    0    1
 -2      3154      3155      3183      3182
 -1      3040    9    0    1
 -2      3155      3156      3184      3183
 -1      3041    9    0    1
 -2      3156      3157      3185      3184
 -1      3042    9    0    1
 -2      3157      3158      3186      3185
 -1      3043    9    0    1
 -2      3158      3159      3187      3186
 -1      3044    9    0    1
 -2      3159      3160      3188      3187
 -1      3045    9    0    1
 -2      3160      3161      3189      3188
 -1      3046    9    0    1
 -2      3161      3162      3190      3189
 -1      3047    9    0    1
 -2      3162      3163      3191      3190
 -1      3048    9    0    1
 -2      3163      3164      3192      3191
 -1      3049    9    0    1
 -2      3164      3165      3193      3192
 -1      3050    9    0    1
 -2      3165      3166      3194      3193
 -1      3051    9    0    1
 -2      3166      3167      3195      3194
 -1      3052    9    0    1
 -2      3167      3168      3196      3195
 -1      3053    9    0    1
 -2      3168      3169      3197      3196
 -1      3054    9    0    1
 -2      3169      3170      3198      3197
 -1      3055    9    0    1
 -2      3170      3171      3199      3198
 -1      3056    9    0    1
 -2      3171      3172      3200      3199
 -1      3057    9    0    1
 -2      3172      3173      3201      3200
 -1      3058    9    0    1
 -2      3173      3174      3202      3201
 -1      3059    9    0    1
 -2      3174      3175      3203      3202
 -1      3060    9    0    1
 -2      3175      3176      3204      3203
 -1      3061    9    0    1
 -2      3176      3177      3205      3204
 -1      3062    9    0    1
 -2      3177      3178      3206      3205
 -1      3063    9    0    1
 -2      3178       515       516      3206
 -1      3064    9    0    1
 -2       301      3179      3207       302
 -1      3065    9    0    1
 -2      3179      3180      3208      3207
 -1      3066    9    0    1
 -2      3180      3181      3209      3208
 -1      3067    9    0    1
 -2      3181      3182      3210      3209
 -1      3068    9    0    1
 -2      3182      3183      3211      3210
 -1      3069    9    0    1
 -2      3183      3184      3212      3211
 -1      3070    9    0    1
 -2      3184      3185      3213      3212
 -1      3071    9    0    1
 -2      3185      3186      3214      3213
 -1      3072    9    0    1
 -2      3186      3187      3215      3214
 -1      3073    9    0    1
 -2      3187      3188      3216      3215
 -1      3074    9    0    1
 -2      3188      3189      3217      3216
 -1      3075    9    0    1
 -2      3189      3190      3218      3217
 -1      3076    9    0    1
 -2      3190      3191      3219      3218
 -1      3077    9    0    1
 -2      3191      3192      3220      3219
 -1      3078    9    0    1
 -2      3192      3193      3221      3220
 -1      3079    9    0    1
 -2      3193      3194      3222      3221
 -1      3080    9    0    1
 -2      3194      3195      3223      3222
 -1      3081    9    0    1
 -2      3195      3196      3224      3223
 -1      3082    9    0    1
 -2      3196      3197      3225      3224
 -1      3083    9    0    1
 -2      3197      3198      3226      3225
 -1      3084    9    0    1
 -2      3198      3199      3227      3226
 -1      3085    9    0    1
 -2      3199      3200      3228      3227
 -1      3086    9    0    1
 -2      3200      3201      3229      3228
 -1      3087    9    0    1
 -2      3201      3202      3230      3229
 -1      3088    9    0    1
 -2      3202      3203      3231      3230
 -1      3089    9    0    1
 -2      3203      3204      3232      3231
 -1      3090    9    0    1
 -2      3204      3205      3233      3232
 -1      3091    9    0    1
 -2      3205      3206      3234      3233
 -1      3092    9    0    1
 -2      3206       516       517      3234
 -1      3093    9    0    1
 -2       302      3207       303        15
 -1      3094    9    0    1
 -2      3207      3208       304       303
 -1      3095    9    0    1
 -2      3208      3209       305       304
 -1      3096    9    0    1
 -2      3209      3210       306       305
 -1      3097    9    0    1
 -2      3210      3211       307       306
 -1      3098    9    0    1
 -2      3211      3212       308       307
 -1      3099    9    0    1
 -2      3212      3213       309       308
 -1      3100    9    0    1
 -2      3213      3214       310       309
 -1      3101    9    0    1
 -2      3214      3215       311       310
 -1      3102    9    0    1
 -2      3215      3216       312       311
 -1      3103    9    0    1
 -2      3216      3217       313       312
 -1      3104    9    0    1
 -2      3217      3218       314       313
 -1      3105    9    0    1
 -2      3218      3219       315       314
 -1      3106    9    0    1
 -2      3219      3220       316       315
 -1      3107    9    0    1
 -2      3220      3221       317       316
 -1      3108    9    0    1
 -2      3221      3222       318       317
 -1      3109    9    0    1
 -2      3222      3223       319       318
 -1      3110    9    0    1
 -2      3223      3224       320       319
 -1      3111    9    0    1
 -2      3224      3225       321       320
 -1      3112    9    0    1
 -2      3225      3226       322       321
 -1      3113    9    0    1
 -2      3226      3227       323       322
 -1      3114    9    0    1
 -2      3227      3228       324       323
 -1      3115    9    0    1
 -2      3228      3229       325       324
 -1      3116    9    0    1
 -2      3229      3230       326       325
 -1      3117    9    0    1
 -2      3230      3231       327       326
 -1      3118    9    0    1
 -2      3231      3232       328       327
 -1      3119    9    0    1
 -2      3232      3233       329       328
 -1      3120    9    0    1
 -2      3233      3234       330       329
 -1      3121    9    0    1
 -2      3234       517        16       330
 -1      3122    9    0    1
 -2        16       517      3235       331
 -1      3123    9    0    1
 -2       517       516      3236      3235
 -1      3124    9    0    1
 -2       516       515      3237      3236
 -1      3125    9    0    1
 -2       515       514      3238      3237
 -1      3126    9    0    1
 -2       514       513      3239      3238
 -1      3127    9    0    1
 -2       513       512      3240      3239
 -1      3128    9    0    1
 -2       512       511      3241      3240
 -1      3129    9    0    1
 -2       511       510      3242      3241
 -1      3130    9    0    1
 -2       510       509      3243      3242
 -1      3131    9    0    1
 -2       509       508      3244      3243
 -1      3132    9    0    1
 -2       508       507      3245      3244
 -1      3133    9    0    1
 -2       507       506      3246      3245
 -1      3134    9    0    1
 -2       506       505      3247      3246
 -1      3135    9    0    1
 -2       505       504      3248      3247
 -1      3136    9    0    1
 -2       504       503      3249      3248
 -1      3137    9    0    1
 -2       503         7       161      3249
 -1      3138    9    0    1
 -2       331      3235      3250       332
 -1      3139    9    0    1
 -2      3235      3236      3251      3250
 -1      3140    9    0    1
 -2      3236      3237      3252      3251
 -1      3141    9    0    1
 -2      3237      3238      3253      3252
 -1      3142    9    0    1
 -2      3238      3239      3254      3253
 -1      3143    9    0    1
 -2      3239      3240      3255      3254
 -1      3144    9    0    1
 -2      3240      3241      3256      3255
 -1      3145    9    0    1
 -2      3241      3242      3257      3256
 -1      3146    9    0    1
 -2      3242      3243      3258      3257
 -1      3147    9    0    1
 -2      3243      3244      3259      3258
 -1      3148    9    0    1
 -2      3244      3245      3260      3259
 -1      3149    9    0    1
 -2      3245      3246      3261      3260
 -1      3150    9    0    1
 -2      3246      3247      3262      3261
 -1      3151    9    0    1
 -2      3247      3248      3263      3262
 -1      3152    9    0    1
 -2      3248      3249      3264      3263
 -1      3153    9    0    1
 -2      3249       161       162      3264
 -1      3154    9    0    1
 -2       332      3250      3265       333
 -1      3155    9    0    1
 -2      3250      3251      3266      3265
 -1      3156    9    0    1
 -2      3251      3252      3267      3266
 -1      3157    9    0    1
 -2      3252      3253      3268      3267
 -1      3158    9    0    1
 -2      3253      3254      3269      3268
 -1      3159    9    0    1
 -2      3254      3255      3270      3269
 -1      3160    9    0    1
 -2      3255      3256      3271      3270
 -1      3161    9    0    1
 -2      3256      3257      3272      3271
 -1      3162    9    0    1
 -2      3257      3258      3273      3272
 -1      3163    9    0    1
 -2      3258      3259      3274      3273
 -1      3164    9    0    1
 -2      3259      3260      3275      3274
 -1      3165    9    0    1
 -2      3260      3261      3276      3275
 -1      3166    9    0    1
 -2      3261      3262      3277      3276
 -1      3167    9    0    1
 -2      3262      3263      3278      3277
 -1      3168    9    0    1
 -2      3263      3264      3279      3278
 -1      3169    9    0    1
 -2      3264       162       163      3279
 -1      3170    9    0    1
 -2       333      3265      3280       334
 -1      3171    9    0    1
 -2      3265      3266      3281      3280
 -1      3172    9    0    1
 -2      3266      3267      3282      3281
 -1      3173    9    0    1
 -2      3267      3268      3283      3282
 -1      3174    9    0    1
 -2      3268      3269      3284      3283
 -1      3175    9    0    1
 -2      3269      3270      3285      3284
 -1      3176    9    0    1
 -2      3270      3271      3286      3285
 -1      3177    9    0    1
 -2      3271      3272      3287      3286
 -1      3178    9    0    1
 -2      3272      3273      3288      3287
 -1      3179    9    0    1
 -2      3273      3274      3289      3288
 -1      3180    9    0    1
 -2      3274      3275      3290      3289
 -1      3181    9    0    1
 -2      3275      3276      3291      3290
 -1      3182    9    0    1
 -2      3276      3277      3292      3291
 -1      3183    9    0    1
 -2      3277      3278      3293      3292
 -1      3184    9    0    1
 -2      3278      3279      3294      3293
 -1      3185    9    0    1
 -2      3279       163       164      3294
 -1      3186    9    0    1
 -2       334      3280      3295       335
 -1      3187    9    0    1
 -2      3280      3281      3296      3295
 -1      3188    9    0    1
 -2      3281      3282      3297      3296
 -1      3189    9    0    1
 -2      3282      3283      3298      3297
 -1      3190    9    0    1
 -2      3283      3284      3299      3298
 -1      3191    9    0    1
 -2      3284      3285      3300      3299
 -1      3192    9    0    1
 -2      3285      3286      3301      3300
 -1      3193    9    0    1
 -2      3286      3287      3302      3301
 -1      3194    9    0    1
 -2      3287      3288      3303      3302
 -1      3195    9    0    1
 -2      3288      3289      3304      3303
 -1      3196    9    0    1
 -2      3289      3290      3305      3304
 -1      3197    9    0    1
 -2      3290      3291      3306      3305
 -1      3198    9    0    1
 -2      3291      3292      3307      3306
 -1      3199    9    0    1
 -2      3292      3293      3308      3307
 -1      3200    9    0    1
 -2      3293      3294      3309      3308
 -1      3201    9    0    1
 -2      3294       164       165      3309
 -1      3202    9    0    1
 -2       335      3295      3310       336
 -1      3203    9    0    1
 -2      3295      3296      3311      3310
 -1      3204    9    0    1
 -2      3296      3297      3312      3311
 -1      3205    9    0    1
 -2      3297      3298      3313      3312
 -1      3206    9    0    1
 -2      3298      3299      3314      3313
 -1      3207    9    0    1
 -2      3299      3300      3315      3314
 -1      3208    9    0    1
 -2      3300      3301      3316      3315
 -1      3209    9    0    1
 -2      3301      3302      3317      3316
 -1      3210    9    0    1
 -2      3302      3303      3318      3317
 -1      3211    9    0    1
 -2      3303      3304      3319      3318
 -1      3212    9    0    1
 -2      3304      3305      3320      3319
 -1      3213    9    0    1
 -2      3305      3306      3321      3320
 -1      3214    9    0    1
 -2      3306      3307      3322      3321
 -1      3215    9    0    1
 -2      3307      3308      3323      3322
 -1      3216    9    0    1
 -2      3308      3309      3324      3323
 -1      3217    9    0    1
 -2      3309       165       166      3324
 -1      3218    9    0    1
 -2       336      3310      3325       337
 -1      3219    9    0    1
 -2      3310      3311      3326      3325
 -1      3220    9    0    1
 -2      3311      3312      3327      3326
 -1      3221    9    0    1
 -2      3312      3313      3328      3327
 -1      3222    9    0    1
 -2      3313      3314      3329      3328
 -1      3223    9    0    1
 -2      3314      3315      3330      3329
 -1      3224    9    0    1
 -2      3315      3316      3331      3330
 -1      3225    9    0    1
 -2      3316      3317      3332      3331
 -1      3226    9    0    1
 -2      3317      3318      3333      3332
 -1      3227    9    0    1
 -2      3318      3319      3334      3333
 -1      3228    9    0    1
 -2      3319      3320      3335      3334
 -1      3229    9    0    1
 -2      3320      3321      3336      3335
 -1      3230    9    0    1
 -2      3321      3322      3337      3336
 -1      3231    9    0    1
 -2      3322      3323      3338      3337
 -1      3232    9    0    1
 -2      3323      3324      3339      3338
 -1      3233    9    0    1
 -2      3324       166       167      3339
 -1      3234    9    0    1
 -2       337      3325      3340       338
 -1      3235    9    0    1
 -2      3325      3326      3341      3340
 -1      3236    9    0    1
 -2      3326      3327      3342      3341
 -1      3237    9    0    1
 -2      3327      3328      3343      3342
 -1      3238    9    0    1
 -2      3328      3329      3344      3343
 -1      3239    9    0    1
 -2      3329      3330      3345      3344
 -1      3240    9    0    1
 -2      3330      3331      3346      3345
 -1      3241    9    0    1
 -2      3331      3332      3347      3346
 -1      3242    9    0    1
 -2      3332      3333      3348      3347
 -1      3243    9    0    1
 -2      3333      3334      3349      3348
 -1      3244    9    0    1
 -2      3334      3335      3350      3349
 -1      3245    9    0    1
 -2      3335      3336      3351      3350
 -1      3246    9    0    1
 -2      3336      3337      3352      3351
 -1      3247    9    0    1
 -2      3337      3338      3353      3352
 -1      3248    9    0    1
 -2      3338      3339      3354      3353
 -1      3249    9    0    1
 -2      3339       167       168      3354
 -1      3250    9    0    1
 -2       338      3340      3355       339
 -1      3251    9    0    1
 -2      3340      3341      3356      3355
 -1      3252    9    0    1
 -2      3341      3342      3357      3356
 -1      3253    9    0    1
 -2      3342      3343      3358      3357
 -1      3254    9    0    1
 -2      3343      3344      3359      3358
 -1      3255    9    0    1
 -2      3344      3345      3360      3359
 -1      3256    9    0    1
 -2      3345      3346      3361      3360
 -1      3257    9    0    1
 -2      3346      3347      3362      3361
 -1      3258    9    0    1
 -2      3347      3348      3363      3362
 -1      3259    9    0    1
 -2      3348      3349      3364      3363
 -1      3260    9    0    1
 -2      3349      3350      3365      3364
 -1      3261    9    0    1
 -2      3350      3351      3366      3365
 -1      3262    9    0    1
 -2      3351      3352      3367      3366
 -1      3263    9    0    1
 -2      3352      3353      3368      3367
 -1      3264    9    0    1
 -2      3353      3354      3369      3368
 -1      3265    9    0    1
 -2      3354       168       169      3369
 -1      3266    9    0    1
 -2       339      3355      3370       340
 -1      3267    9    0    1
 -2      3355      3356      3371      3370
 -1      3268    9    0    1
 -2      3356      3357      3372      3371
 -1      3269    9    0    1
 -2      3357      3358      3373      3372
 -1      3270    9    0    1
 -2      3358      3359      3374      3373
 -1      3271    9    0    1
 -2      3359      3360      3375      3374
 -1      3272    9    0    1
 -2      3360      3361      3376      3375
 -1      3273    9    0    1
 -2      3361      3362      3377      3376
 -1      3274    9    0    1
 -2      3362      3363      3378      3377
 -1      3275    9    0    1
 -2      3363      3364      3379      3378
 -1      3276    9    0    1
 -2      3364      3365      3380      3379
 -1      3277    9    0    1
 -2      3365      3366      3381      3380
 -1      3278    9    0    1
 -2      3366      3367      3382      3381
 -1      3279    9    0    1
 -2      3367      3368      3383      3382
 -1      3280    9    0    1
 -2      3368      3369      3384      3383
 -1      3281    9    0    1
 -2      3369       169       170      3384
 -1      3282    9    0    1
 -2       340      3370      3385       341
 -1      3283    9    0    1
 -2      3370      3371      3386      3385
 -1      3284    9    0    1
 -2      3371      3372      3387      3386
 -1      3285    9    0    1
 -2      3372      3373      3388      3387
 -1      3286    9    0    1
 -2      3373      3374      3389      3388
 -1      3287    9    0    1
 -2      3374      3375      3390      3389
 -1      3288    9    0    1
 -2      3375      3376      3391      3390
 -1      3289    9    0    1
 -2      3376      3377      3392      3391
 -1      3290    9    0    1
 -2      3377      3378      3393      3392
 -1      3291    9    0    1
 -2      3378      3379      3394      3393
 -1      3292    9    0    1
 -2      3379      3380      3395      3394
 -1      3293    9    0    1
 -2      3380      3381      3396      3395
 -1      3294    9    0    1
 -2      3381      3382      3397      3396
 -1      3295    9    0    1
 -2      3382      3383      3398      3397
 -1      3296    9    0    1
 -2      3383      3384      3399      3398
 -1      3297    9    0    1
 -2      3384       170       171      3399
 -1      3298    9    0    1
 -2       341      3385      3400       342
 -1      3299    9    0    1
 -2      3385      3386      3401      3400
 -1      3300    9    0    1
 -2      3386      3387      3402      3401
 -1      3301    9    0    1
 -2      3387      3388      3403      3402
 -1      3302    9    0    1
 -2      3388      3389      3404      3403
 -1      3303    9    0    1
 -2      3389      3390      3405      3404
 -1      3304    9    0    1
 -2      3390      3391      3406      3405
 -1      3305    9    0    1
 -2      3391      3392      3407      3406
 -1      3306    9    0    1
 -2      3392      3393      3408      3407
 -1      3307    9    0    1
 -2      3393      3394      3409      3408
 -1      3308    9    0    1
 -2      3394      3395      3410      3409
 -1      3309    9    0    1
 -2      3395      3396      3411      3410
 -1      3310    9    0    1
 -2      3396      3397      3412      3411
 -1      3311    9    0    1
 -2      3397      3398      3413      3412
 -1      3312    9    0    1
 -2      3398      3399      3414      3413
 -1      3313    9    0    1
 -2      3399       171       172      3414
 -1      3314    9    0    1
 -2       342      3400      3415       343
 -1      3315    9    0    1
 -2      3400      3401      3416      3415
 -1      3316    9    0    1
 -2      3401      3402      3417      3416
 -1      3317    9    0    1
 -2      3402      3403      3418      3417
 -1      3318    9    0    1
 -2      3403      3404      3419      3418
 -1      3319    9    0    1
 -2      3404      3405      3420      3419
 -1      3320    9    0    1
 -2      3405      3406      3421      3420
 -1      3321    9    0    1
 -2      3406      3407      3422      3421
 -1      3322    9    0    1
 -2      3407      3408      3423      3422
 -1      3323    9    0    1
 -2      3408      3409      3424      3423
 -1      3324    9    0    1
 -2      3409      3410      3425      3424
 -1      3325    9    0    1
 -2      3410      3411      3426      3425
 -1      3326    9    0    1
 -2      3411      3412      3427      3426
 -1      3327    9    0    1
 -2      3412      3413      3428      3427
 -1      3328    9    0    1
 -2      3413      3414      3429      3428
 -1      3329    9    0    1
 -2      3414       172       173      3429
 -1      3330    9    0    1
 -2       343      3415      3430       344
 -1      3331    9    0    1
 -2      3415      3416      3431      3430
 -1      3332    9    0    1
 -2      3416      3417      3432      3431
 -1      3333    9    0    1
 -2      3417      3418      3433      3432
 -1      3334    9    0    1
 -2      3418      3419      3434      3433
 -1      3335    9    0    1
 -2      3419      3420      3435      3434
 -1      3336    9    0    1
 -2      3420      3421      3436      3435
 -1      3337    9    0    1
 -2      3421      3422      3437      3436
 -1      3338    9    0    1
 -2      3422      3423      3438      3437
 -1      3339    9    0    1
 -2      3423      3424      3439      3438
 -1      3340    9    0    1
 -2      3424      3425      3440      3439
 -1      3341    9    0    1
 -2      3425      3426      3441      3440
 -1      3342    9    0    1
 -2      3426      3427      3442      3441
 -1      3343    9    0    1
 -2      3427      3428      3443      3442
 -1      3344    9    0    1
 -2      3428      3429      3444      3443
 -1      3345    9    0    1
 -2      3429       173       174      3444
 -1      3346    9    0    1
 -2       344      3430       532        17
 -1      3347    9    0    1
 -2      3430      3431       531       532
 -1      3348    9    0    1
 -2      3431      3432       530       531
 -1      3349    9    0    1
 -2      3432      3433       529       530
 -1      3350    9    0    1
 -2      3433      3434       528       529
 -1      3351    9    0    1
 -2      3434      3435       527       528
 -1      3352    9    0    1
 -2      3435      3436       526       527
 -1      3353    9    0    1
 -2      3436      3437       525       526
 -1      3354    9    0    1
 -2      3437      3438       524       525
 -1      3355    9    0    1
 -2      3438      3439       523       524
 -1      3356    9    0    1
 -2      3439      3440       522       523
 -1      3357    9    0    1
 -2      3440      3441       521       522
 -1      3358    9    0    1
 -2      3441      3442       520       521
 -1      3359    9    0    1
 -2      3442      3443       519       520
 -1      3360    9    0    1
 -2      3443      3444       518       519
 -1      3361    9    0    1
 -2      3444       174         8       518
 -1      3362    9    0    1
 -2        17       532      3445       345
 -1      3363    9    0    1
 -2       532       531      3446      3445
 -1      3364    9    0    1
 -2       531       530      3447      3446
 -1      3365    9    0    1
 -2       530       529      3448      3447
 -1      3366    9    0    1
 -2       529       528      3449      3448
 -1      3367    9    0    1
 -2       528       527      3450      3449
 -1      3368    9    0    1
 -2       527       526      3451      3450
 -1      3369    9    0    1
 -2       526       525      3452      3451
 -1      3370    9    0    1
 -2       525       524      3453      3452
 -1      3371    9    0    1
 -2       524       523      3454      3453
 -1      3372    9    0    1
 -2       523       522      3455      3454
 -1      3373    9    0    1
 -2       522       521      3456      3455
 -1      3374    9    0    1
 -2       521       520      3457      3456
 -1      3375    9    0    1
 -2       520       519      3458      3457
 -1      3376    9    0    1
 -2       519       518      3459      3458
 -1      3377    9    0    1
 -2       518         8       533      3459
 -1      3378    9    0    1
 -2       345      3445      3460       346
 -1      3379    9    0    1
 -2      3445      3446      3461      3460
 -1      3380    9    0    1
 -2      3446      3447      3462      3461
 -1      3381    9    0    1
 -2      3447      3448      3463      3462
 -1      3382    9    0    1
 -2      3448      3449      3464      3463
 -1      3383    9    0    1
 -2      3449      3450      3465      3464
 -1      3384    9    0    1
 -2      3450      3451      3466      3465
 -1      3385    9    0    1
 -2      3451      3452      3467      3466
 -1      3386    9    0    1
 -2      3452      3453      3468      3467
 -1      3387    9    0    1
 -2      3453      3454      3469      3468
 -1      3388    9    0    1
 -2      3454      3455      3470      3469
 -1      3389    9    0    1
 -2      3455      3456      3471      3470
 -1      3390    9    0    1
 -2      3456      3457      3472      3471
 -1      3391    9    0    1
 -2      3457      3458      3473      3472
 -1      3392    9    0    1
 -2      3458      3459      3474      3473
 -1      3393    9    0    1
 -2      3459       533       534      3474
 -1      3394    9    0    1
 -2       346      3460      3475       347
 -1      3395    9    0    1
 -2      3460      3461      3476      3475
 -1      3396    9    0    1
 -2      3461      3462      3477      3476
 -1      3397    9    0    1
 -2      3462      3463      3478      3477
 -1      3398    9    0    1
 -2      3463      3464      3479      3478
 -1      3399    9    0    1
 -2      3464      3465      3480      3479
 -1      3400    9    0    1
 -2      3465      3466      3481      3480
 -1      3401    9    0    1
 -2      3466      3467      3482      3481
 -1      3402    9    0    1
 -2      3467      3468      3483      3482
 -1      3403    9    0    1
 -2      3468      3469      3484      3483
 -1      3404    9    0    1
 -2      3469      3470      3485      3484
 -1      3405    9    0    1
 -2      3470      3471      3486      3485
 -1      3406    9    0    1
 -2      3471      3472      3487      3486
 -1      3407    9    0    1
 -2      3472      3473      3488      3487
 -1      3408    9    0    1
 -2      3473      3474      3489      3488
 -1      3409    9    0    1
 -2      3474       534       535      3489
 -1      3410    9    0    1
 -2       347      3475      3490       348
 -1      3411    9    0    1
 -2      3475      3476      3491      3490
 -1      3412    9    0    1
 -2      3476      3477      3492      3491
 -1      3413    9    0    1
 -2      3477      3478      3493      3492
 -1      3414    9    0    1
 -2      3478      3479      3494      3493
 -1      3415    9    0    1
 -2      3479      3480      3495      3494
 -1      3416    9    0    1
 -2      3480      3481      3496      3495
 -1      3417    9    0    1
 -2      3481      3482      3497      3496
 -1      3418    9    0    1
 -2      3482      3483      3498      3497
 -1      3419    9    0    1
 -2      3483      3484      3499      3498
 -1      3420    9    0    1
 -2      3484      3485      3500      3499
 -1      3421    9    0    1
 -2      3485      3486      3501      3500
 -1      3422    9    0    1
 -2      3486      3487      3502      3501
 -1      3423    9    0    1
 -2      3487      3488      3503      3502
 -1      3424    9    0    1
 -2      3488      3489      3504      3503
 -1      3425    9    0    1
 -2      3489       535       536      3504
 -1      3426    9    0    1
 -2       348      3490      3505       349
 -1      3427    9    0    1
 -2      3490      3491      3506      3505
 -1      3428    9    0    1
 -2      3491      3492      3507      3506
 -1      3429    9    0    1
 -2      3492      3493      3508      3507
 -1      3430    9    0    1
 -2      3493      3494      3509      3508
 -1      3431    9    0    1
 -2      3494      3495      3510      3509
 -1      3432    9    0    1
 -2      3495      3496      3511      3510
 -1      3433    9    0    1
 -2      3496      3497      3512      3511
 -1      3434    9    0    1
 -2      3497      3498      3513      3512
 -1      3435    9    0    1
 -2      3498      3499      3514      3513
 -1      3436    9    0    1
 -2      3499      3500      3515      3514
 -1      3437    9    0    1
 -2      3500      3501      3516      3515
 -1      3438    9    0    1
 -2      3501      3502      3517      3516
 -1      3439    9    0    1
 -2      3502      3503      3518      3517
 -1      3440    9    0    1
 -2      3503      3504      3519      3518
 -1      3441    9    0    1
 -2      3504       536       537      3519
 -1      3442    9    0    1
 -2       349      3505      3520       350
 -1      3443    9    0    1
 -2      3505      3506      3521      3520
 -1      3444    9    0    1
 -2      3506      3507      3522      3521
 -1      3445    9    0    1
 -2      3507      3508      3523      3522
 -1      3446    9    0    1
 -2      3508      3509      3524      3523
 -1      3447    9    0    1
 -2      3509      3510      3525      3524
 -1      3448    9    0    1
 -2      3510      3511      3526      3525
 -1      3449    9    0    1
 -2      3511      3512      3527      3526
 -1      3450    9    0    1
 -2      3512      3513      3528      3527
 -1      3451    9    0    1
 -2      3513      3514      3529      3528
 -1      3452    9    0    1
 -2      3514      3515      3530      3529
 -1      3453    9    0    1
 -2      3515      3516      3531      3530
 -1      3454    9    0    1
 -2      3516      3517      3532      3531
 -1      3455    9    0    1
 -2      3517      3518      3533      3532
 -1      3456    9    0    1
 -2      3518      3519      3534      3533
 -1      3457    9    0    1
 -2      3519       537       538      3534
 -1      3458    9    0    1
 -2       350      3520      3535       351
 -1      3459    9    0    1
 -2      3520      3521      3536      3535
 -1      3460    9    0    1
 -2      3521      3522      3537      3536
 -1      3461    9    0    1
 -2      3522      3523      3538      3537
 -1      3462    9    0    1
 -2      3523      3524      3539      3538
 -1      3463    9    0    1
 -2      3524      3525      3540      3539
 -1      3464    9    0    1
 -2      3525      3526      3541      3540
 -1      3465    9    0    1
 -2      3526      3527      3542      3541
 -1      3466    9    0    1
 -2      3527      3528      3543      3542
 -1      3467    9    0    1
 -2      3528      3529      3544      3543
 -1      3468    9    0    1
 -2      3529      3530      3545      3544
 -1      3469    9    0    1
 -2      3530      3531      3546      3545
 -1      3470    9    0    1
 -2      3531      3532      3547      3546
 -1      3471    9    0    1
 -2      3532      3533      3548      3547
 -1      3472    9    0    1
 -2      3533      3534      3549      3548
 -1      3473    9    0    1
 -2      3534       538       539      3549
 -1      3474    9    0    1
 -2       351      3535      3550       352
 -1      3475    9    0    1
 -2      3535      3536      3551      3550
 -1      3476    9    0    1
 -2      3536      3537      3552      3551
 -1      3477    9    0    1
 -2      3537      3538      3553      3552
 -1      3478    9    0    1
 -2      3538      3539      3554      3553
 -1      3479    9    0    1
 -2      3539      3540      3555      3554
 -1      3480    9    0    1
 -2      3540      3541      3556      3555
 -1      3481    9    0    1
 -2      3541      3542      3557      3556
 -1      3482    9    0    1
 -2      3542      3543      3558      3557
 -1      3483    9    0    1
 -2      3543      3544      3559      3558
 -1      3484    9    0    1
 -2      3544      3545      3560      3559
 -1      3485    9    0    1
 -2      3545      3546      3561      3560
 -1      3486    9    0    1
 -2      3546      3547      3562      3561
 -1      3487    9    0    1
 -2      3547      3548      3563      3562
 -1      3488    9    0    1
 -2      3548      3549      3564      3563
 -1      3489    9    0    1
 -2      3549       539       540      3564
 -1      3490    9    0    1
 -2       352      3550      3565       353
 -1      3491    9    0    1
 -2      3550      3551      3566      3565
 -1      3492    9    0    1
 -2      3551      3552      3567      3566
 -1      3493    9    0    1
 -2      3552      3553      3568      3567
 -1      3494    9    0    1
 -2      3553      3554      3569      3568
 -1      3495    9    0    1
 -2      3554      3555      3570      3569
 -1      3496    9    0    1
 -2      3555      3556      3571      3570
 -1      3497    9    0    1
 -2      3556      3557      3572      3571
 -1      3498    9    0    1
 -2      3557      3558      3573      3572
 -1      3499    9    0    1
 -2      3558      3559      3574      3573
 -1      3500    9    0    1
 -2      3559      3560      3575      3574
 -1      3501    9    0    1
 -2      3560      3561      3576      3575
 -1      3502    9    0    1
 -2      3561      3562      3577      3576
 -1      3503    9    0    1
 -2      3562      3563      3578      3577
 -1      3504    9    0    1
 -2      3563      3564      3579      3578
 -1      3505    9    0    1
 -2      3564       540       541      3579
 -1      3506    9    0    1
 -2       353      3565      3580       354
 -1      3507    9    0    1
 -2      3565      3566      3581      3580
 -1      3508    9    0    1
 -2      3566      3567      3582      3581
 -1      3509    9    0    1
 -2      3567      3568      3583      3582
 -1      3510    9    0    1
 -2      3568      3569      3584      3583
 -1      3511    9    0    1
 -2      3569      3570      3585      3584
 -1      3512    9    0    1
 -2      3570      3571      3586      3585
 -1      3513    9    0    1
 -2      3571      3572      3587      3586
 -1      3514    9    0    1
 -2      3572      3573      3588      3587
 -1      3515    9    0    1
 -2      3573      3574      3589      3588
 -1      3516    9    0    1
 -2      3574      3575      3590      3589
 -1      3517    9    0    1
 -2      3575      3576      3591      3590
 -1      3518    9    0    1
 -2      3576      3577      3592      3591
 -1      3519    9    0    1
 -2      3577      3578      3593      3592
 -1      3520    9    0    1
 -2      3578      3579      3594      3593
 -1      3521    9    0    1
 -2      3579       541       542      3594
 -1      3522    9    0    1
 -2       354      3580      3595       355
 -1      3523    9    0    1
 -2      3580      3581      3596      3595
 -1      3524    9    0    1
 -2      3581      3582      3597      3596
 -1      3525    9    0    1
 -2      3582      3583      3598      3597
 -1      3526    9    0    1
 -2      3583      3584      3599      3598
 -1      3527    9    0    1
 -2      3584      3585      3600      3599
 -1      3528    9    0    1
 -2      3585      3586      3601      3600
 -1      3529    9    0    1
 -2      3586      3587      3602      3601
 -1      3530    9    0    1
 -2      3587      3588      3603      3602
 -1      3531    9    0    1
 -2      3588      3589      3604      3603
 -1      3532    9    0    1
 -2      3589      3590      3605      3604
 -1      3533    9    0    1
 -2      3590      3591      3606      3605
 -1      3534    9    0    1
 -2      3591      3592      3607      3606
 -1      3535    9    0    1
 -2      3592      3593      3608      3607
 -1      3536    9    0    1
 -2      3593      3594      3609      3608
 -1      3537    9    0    1
 -2      3594       542       543      3609
 -1      3538    9    0    1
 -2       355      3595      3610       356
 -1      3539    9    0    1
 -2      3595      3596      3611      3610
 -1      3540    9    0    1
 -2      3596      3597      3612      3611
 -1      3541    9    0    1
 -2      3597      3598      3613      3612
 -1      3542    9    0    1
 -2      3598      3599      3614      3613
 -1      3543    9    0    1
 -2      3599      3600      3615      3614
 -1      3544    9    0    1
 -2      3600      3601      3616      3615
 -1      3545    9    0    1
 -2      3601      3602      3617      3616
 -1      3546    9    0    1
 -2      3602      3603      3618      3617
 -1      3547    9    0    1
 -2      3603      3604      3619      3618
 -1      3548    9    0    1
 -2      3604      3605      3620      3619
 -1      3549    9    0    1
 -2      3605      3606      3621      3620
 -1      3550    9    0    1
 -2      3606      3607      3622      3621
 -1      3551    9    0    1
 -2      3607      3608      3623      3622
 -1      3552    9    0    1
 -2      3608      3609      3624      3623
 -1      3553    9    0    1
 -2      3609       543       544      3624
 -1      3554    9    0    1
 -2       356      3610      3625       357
 -1      3555    9    0    1
 -2      3610      3611      3626      3625
 -1      3556    9    0    1
 -2      3611      3612      3627      3626
 -1      3557    9    0    1
 -2      3612      3613      3628      3627
 -1      3558    9    0    1
 -2      3613      3614      3629      3628
 -1      3559    9    0    1
 -2      3614      3615      3630      3629
 -1      3560    9    0    1
 -2      3615      3616      3631      3630
 -1      3561    9    0    1
 -2      3616      3617      3632      3631
 -1      3562    9    0    1
 -2      3617      3618      3633      3632
 -1      3563    9    0    1
 -2      3618      3619      3634      3633
 -1      3564    9    0    1
 -2      3619      3620      3635      3634
 -1      3565    9    0    1
 -2      3620      3621      3636      3635
 -1      3566    9    0    1
 -2      3621      3622      3637      3636
 -1      3567    9    0    1
 -2      3622      3623      3638      3637
 -1      3568    9    0    1
 -2      3623      3624      3639      3638
 -1      3569    9    0    1
 -2      3624       544       545      3639
 -1      3570    9    0    1
 -2       357      3625      3640       358
 -1      3571    9    0    1
 -2      3625      3626      3641      3640
 -1      3572    9    0    1
 -2      3626      3627      3642      3641
 -1      3573    9    0    1
 -2      3627      3628      3643      3642
 -1      3574    9    0    1
 -2      3628      3629      3644      3643
 -1      3575    9    0    1
 -2      3629      3630      3645      3644
 -1      3576    9    0    1
 -2      3630      3631      3646      3645
 -1      3577    9    0    1
 -2      3631      3632      3647      3646
 -1      3578    9    0    1
 -2      3632      3633      3648      3647
 -1      3579    9    0    1
 -2      3633      3634      3649      3648
 -1      3580    9    0    1
 -2      3634      3635      3650      3649
 -1      3581    9    0    1
 -2      3635      3636      3651      3650
 -1      3582    9    0    1
 -2      3636      3637      3652      3651
 -1      3583    9    0    1
 -2      3637      3638      3653      3652
 -1      3584    9    0    1
 -2      3638      3639      3654      3653
 -1      3585    9    0    1
 -2      3639       545       546      3654
 -1      3586    9    0    1
 -2       358      3640      3655       359
 -1      3587    9    0    1
 -2      3640      3641      3656      3655
 -1      3588    9    0    1
 -2      3641      3642      3657      3656
 -1      3589    9    0    1
 -2      3642      3643      3658      3657
 -1      3590    9    0    1
 -2      3643      3644      3659      3658
 -1      3591    9    0    1
 -2      3644      3645      3660      3659
 -1      3592    9    0    1
 -2      3645      3646      3661      3660
 -1      3593    9    0    1
 -2      3646      3647      3662      3661
 -1      3594    9    0    1
 -2      3647      3648      3663      3662
 -1      3595    9    0    1
 -2      3648      3649      3664      3663
 -1      3596    9    0    1
 -2      3649      3650      3665      3664
 -1      3597    9    0    1
 -2      3650      3651      3666      3665
 -1      3598    9    0    1
 -2      3651      3652      3667      3666
 -1      3599    9    0    1
 -2      3652      3653      3668      3667
 -1      3600    9    0    1
 -2      3653      3654      3669      3668
 -1      3601    9    0    1
 -2      3654       546       547      3669
 -1      3602    9    0    1
 -2       359      3655      3670       360
 -1      3603    9    0    1
 -2      3655      3656      3671      3670
 -1      3604    9    0    1
 -2      3656      3657      3672      3671
 -1      3605    9    0    1
 -2      3657      3658      3673      3672
 -1      3606    9    0    1
 -2      3658      3659      3674      3673
 -1      3607    9    0    1
 -2      3659      3660      3675      3674
 -1      3608    9    0    1
 -2      3660      3661      3676      3675
 -1      3609    9    0    1
 -2      3661      3662      3677      3676
 -1      3610    9    0    1
 -2      3662      3663      3678      3677
 -1      3611    9    0    1
 -2      3663      3664      3679      3678
 -1      3612    9    0    1
 -2      3664      3665      3680      3679
 -1      3613    9    0    1
 -2      3665      3666      3681      3680
 -1      3614    9    0    1
 -2      3666      3667      3682      3681
 -1      3615    9    0    1
 -2      3667      3668      3683      3682
 -1      3616    9    0    1
 -2      3668      3669      3684      3683
 -1      3617    9    0    1
 -2      3669       547       548      3684
 -1      3618    9    0    1
 -2       360      3670      3685       361
 -1      3619    9    0    1
 -2      3670      3671      3686      3685
 -1      3620    9    0    1
 -2      3671      3672      3687      3686
 -1      3621    9    0    1
 -2      3672      3673      3688      3687
 -1      3622    9    0    1
 -2      3673      3674      3689      3688
 -1      3623    9    0    1
 -2      3674      3675      3690      3689
 -1      3624    9    0    1
 -2      3675      3676      3691      3690
 -1      3625    9    0    1
 -2      3676      3677      3692      3691
 -1      3626    9    0    1
 -2      3677      3678      3693      3692
 -1      3627    9    0    1
 -2      3678      3679      3694      3693
 -1      3628    9    0    1
 -2      3679      3680      3695      3694
 -1      3629    9    0    1
 -2      3680      3681      3696      3695
 -1      3630    9    0    1
 -2      3681      3682      3697      3696
 -1      3631    9    0    1
 -2      3682      3683      3698      3697
 -1      3632    9    0    1
 -2      3683      3684      3699      3698
 -1      3633    9    0    1
 -2      3684       548       549      3699
 -1      3634    9    0    1
 -2       361      3685      3700       362
 -1      3635    9    0    1
 -2      3685      3686      3701      3700
 -1      3636    9    0    1
 -2      3686      3687      3702      3701
 -1      3637    9    0    1
 -2      3687      3688      3703      3702
 -1      3638    9    0    1
 -2      3688      3689      3704      3703
 -1      3639    9    0    1
 -2      3689      3690      3705      3704
 -1      3640    9    0    1
 -2      3690      3691      3706      3705
 -1      3641    9    0    1
 -2      3691      3692      3707      3706
 -1      3642    9    0    1
 -2      3692      3693      3708      3707
 -1      3643    9    0    1
 -2      3693      3694      3709      3708
 -1      3644    9    0    1
 -2      3694      3695      3710      3709
 -1      3645    9    0    1
 -2      3695      3696      3711      3710
 -1      3646    9    0    1
 -2      3696      3697      3712      3711
 -1      3647    9    0    1
 -2      3697      3698      3713      3712
 -1      3648    9    0    1
 -2      3698      3699      3714      3713
 -1      3649    9    0    1
 -2      3699       549       550      3714
 -1      3650    9    0    1
 -2       362      3700      3715       363
 -1      3651    9    0    1
 -2      3700      3701      3716      3715
 -1      3652    9    0    1
 -2      3701      3702      3717      3716
 -1      3653    9    0    1
 -2      3702      3703      3718      3717
 -1      3654    9    0    1
 -2      3703      3704      3719      3718
 -1      3655    9    0    1
 -2      3704      3705      3720      3719
 -1      3656    9    0    1
 -2      3705      3706      3721      3720
 -1      3657    9    0    1
 -2      3706      3707      3722      3721
 -1      3658    9    0    1
 -2      3707      3708      3723      3722
 -1      3659    9    0    1
 -2      3708      3709      3724      3723
 -1      3660    9    0    1
 -2      3709      3710      3725      3724
 -1      3661    9    0    1
 -2      3710      3711      3726      3725
 -1      3662    9    0    1
 -2      3711      3712      3727      3726
 -1      3663    9    0    1
 -2      3712      3713      3728      3727
 -1      3664    9    0    1
 -2      3713      3714      3729      3728
 -1      3665    9    0    1
 -2      3714       550       551      3729
 -1      3666    9    0    1
 -2       363      3715      3730       364
 -1      3667    9    0    1
 -2      3715      3716      3731      3730
 -1      3668    9    0    1
 -2      3716      3717      3732      3731
 -1      3669    9    0    1
 -2      3717      3718      3733      3732
 -1      3670    9    0    1
 -2      3718      3719      3734      3733
 -1      3671    9    0    1
 -2      3719      3720      3735      3734
 -1      3672    9    0    1
 -2      3720      3721      3736      3735
 -1      3673    9    0    1
 -2      3721      3722      3737      3736
 -1      3674    9    0    1
 -2      3722      3723      3738      3737
 -1      3675    9    0    1
 -2      3723      3724      3739      3738
 -1      3676    9    0    1
 -2      3724      3725      3740      3739
 -1      3677    9    0    1
 -2      3725      3726      3741      3740
 -1      3678    9    0    1
 -2      3726      3727      3742      3741
 -1      3679    9    0    1
 -2      3727      3728      3743      3742
 -1      3680    9    0    1
 -2      3728      3729      3744      3743
 -1      3681    9    0    1
 -2      3729       551       552      3744
 -1      3682    9    0    1
 -2       364      3730      3745       365
 -1      3683    9    0    1
 -2      3730      3731      3746      3745
 -1      3684    9    0    1
 -2      3731      3732      3747      3746
 -1      3685    9    0    1
 -2      3732      3733      3748      3747
 -1      3686    9    0    1
 -2      3733      3734      3749      3748
 -1      3687    9    0    1
 -2      3734      3735      3750      3749
 -1      3688    9    0    1
 -2      3735      3736      3751      3750
 -1      3689    9    0    1
 -2      3736      3737      3752      3751
 -1      3690    9    0    1
 -2      3737      3738      3753      3752
 -1      3691    9    0    1
 -2      3738      3739      3754      3753
 -1      3692    9    0    1
 -2      3739      3740      3755      3754
 -1      3693    9    0    1
 -2      3740      3741      3756      3755
 -1      3694    9    0    1
 -2      3741      3742      3757      3756
 -1      3695    9    0    1
 -2      3742      3743      3758      3757
 -1      3696    9    0    1
 -2      3743      3744      3759      3758
 -1      3697    9    0    1
 -2      3744       552       553      3759
 -1      3698    9    0    1
 -2       365      3745      3760       366
 -1      3699    9    0    1
 -2      3745      3746      3761      3760
 -1      3700    9    0    1
 -2      3746      3747      3762      3761
 -1      3701    9    0    1
 -2      3747      3748      3763      3762
 -1      3702    9    0    1
 -2      3748      3749      3764      3763
 -1      3703    9    0    1
 -2      3749      3750      3765      3764
 -1      3704    9    0    1
 -2      3750      3751      3766      3765
 -1      3705    9    0    1
 -2      3751      3752      3767      3766
 -1      3706    9    0    1
 -2      3752      3753      3768      3767
 -1      3707    9    0    1
 -2      3753      3754      3769      3768
 -1      3708    9    0    1
 -2      3754      3755      3770      3769
 -1      3709    9    0    1
 -2      3755      3756      3771      3770
 -1      3710    9    0    1
 -2      3756      3757      3772      3771
 -1      3711    9    0    1
 -2      3757      3758      3773      3772
 -1      3712    9    0    1
 -2      3758      3759      3774      3773
 -1      3713    9    0    1
 -2      3759       553       554      3774
 -1      3714    9    0    1
 -2       366      3760      3775       367
 -1      3715    9    0    1
 -2      3760      3761      3776      3775
 -1      3716    9    0    1
 -2      3761      3762      3777      3776
 -1      3717    9    0    1
 -2      3762      3763      3778      3777
 -1      3718    9    0    1
 -2      3763      3764      3779      3778
 -1      3719    9    0    1
 -2      3764      3765      3780      3779
 -1      3720    9    0    1
 -2      3765      3766      3781      3780
 -1      3721    9    0    1
 -2      3766      3767      3782      3781
 -1      3722    9    0    1
 -2      3767      3768      3783      3782
 -1      3723    9    0    1
 -2      3768      3769      3784      3783
 -1      3724    9    0    1
 -2      3769      3770      3785      3784
 -1      3725    9    0    1
 -2      3770      3771      3786      3785
 -1      3726    9    0    1
 -2      3771      3772      3787      3786
 -1      3727    9    0    1
 -2      3772      3773      3788      3787
 -1      3728    9    0    1
 -2      3773      3774      3789      3788
 -1      3729    9    0    1
 -2      3774       554       555      3789
 -1      3730    9    0    1
 -2       367      3775      3790       368
 -1      3731    9    0    1
 -2      3775      3776      3791      3790
 -1      3732    9    0    1
 -2      3776      3777      3792      3791
 -1      3733    9    0    1
 -2      3777      3778      3793      3792
 -1      3734    9    0    1
 -2      3778      3779      3794      3793
 -1      3735    9    0    1
 -2      3779      3780      3795      3794
 -1      3736    9    0    1
 -2      3780      3781      3796      3795
 -1      3737    9    0    1
 -2      3781      3782      3797      3796
 -1      3738    9    0    1
 -2      3782      3783      3798      3797
 -1      3739    9    0    1
 -2      3783      3784      3799      3798
 -1      3740    9    0    1
 -2      3784      3785      3800      3799
 -1      3741    9    0    1
 -2      3785      3786      3801      3800
 -1      3742    9    0    1
 -2      3786      3787      3802      3801
 -1      3743    9    0    1
 -2      3787      3788      3803      3802
 -1      3744    9    0    1
 -2      3788      3789      3804      3803
 -1      3745    9    0    1
 -2      3789       555       556      3804
 -1      3746    9    0    1
 -2       368      3790      3805       369
 -1      3747    9    0    1
 -2      3790      3791      3806      3805
 -1      3748    9    0    1
 -2      3791      3792      3807      3806
 -1      3749    9    0    1
 -2      3792      3793      3808      3807
 -1      3750    9    0    1
 -2      3793      3794      3809      3808
 -1      3751    9    0    1
 -2      3794      3795      3810      3809
 -1      3752    9    0    1
 -2      3795      3796      3811      3810
 -1      3753    9    0    1
 -2      3796      3797      3812      3811
 -1      3754    9    0    1
 -2      3797      3798      3813      3812
 -1      3755    9    0    1
 -2      3798      3799      3814      3813
 -1      3756    9    0    1
 -2      3799      3800      3815      3814
 -1      3757    9    0    1
 -2      3800      3801      3816      3815
 -1      3758    9    0    1
 -2      3801      3802      3817      3816
 -1      3759    9    0    1
 -2      3802      3803      3818      3817
 -1      3760    9    0    1
 -2      3803      3804      3819      3818
 -1      3761    9    0    1
 -2      3804       556       557      3819
 -1      3762    9    0    1
 -2       369      3805      3820       370
 -1      3763    9    0    1
 -2      3805      3806      3821      3820
 -1      3764    9    0    1
 -2      3806      3807      3822      3821
 -1      3765    9    0    1
 -2      3807      3808      3823      3822
 -1      3766    9    0    1
 -2      3808      3809      3824      3823
 -1      3767    9    0    1
 -2      3809      3810      3825      3824
 -1      3768    9    0    1
 -2      3810      3811      3826      3825
 -1      3769    9    0    1
 -2      3811      3812      3827      3826
 -1      3770    9    0    1
 -2      3812      3813      3828      3827
 -1      3771    9    0    1
 -2      3813      3814      3829      3828
 -1      3772    9    0    1
 -2      3814      3815      3830      3829
 -1      3773    9    0    1
 -2      3815      3816      3831      3830
 -1      3774    9    0    1
 -2      3816      3817      3832      3831
 -1      3775    9    0    1
 -2      3817      3818      3833      3832
 -1      3776    9    0    1
 -2      3818      3819      3834      3833
 -1      3777    9    0    1
 -2      3819       557       558      3834
 -1      3778    9    0    1
 -2       370      3820      3835       371
 -1      3779    9    0    1
 -2      3820      3821      3836      3835
 -1      3780    9    0    1
 -2      3821      3822      3837      3836
 -1      3781    9    0    1
 -2      3822      3823      3838      3837
 -1      3782    9    0    1
 -2      3823      3824      3839      3838
 -1      3783    9    0    1
 -2      3824      3825      3840      3839
 -1      3784    9    0    1
 -2      3825      3826      3841      3840
 -1      3785    9    0    1
 -2      3826      3827      3842      3841
 -1      3786    9    0    1
 -2      3827      3828      3843      3842
 -1      3787    9    0    1
 -2      3828      3829      3844      3843
 -1      3788    9    0    1
 -2      3829      3830      3845      3844
 -1      3789    9    0    1
 -2      3830      3831      3846      3845
 -1      3790    9    0    1
 -2      3831      3832      3847      3846
 -1      3791    9    0    1
 -2      3832      3833      3848      3847
 -1      3792    9    0    1
 -2      3833      3834      3849      3848
 -1      3793    9    0    1
 -2      3834       558       559      3849
 -1      3794    9    0    1
 -2       371      3835      3850       372
 -1      3795    9    0    1
 -2      3835      3836      3851      3850
 -1      3796    9    0    1
 -2      3836      3837      3852      3851
 -1      3797    9    0    1
 -2      3837      3838      3853      3852
 -1      3798    9    0    1
 -2      3838      3839      3854      3853
 -1      3799    9    0    1
 -2      3839      3840      3855      3854
 -1      3800    9    0    1
 -2      3840      3841      3856      3855
 -1      3801    9    0    1
 -2      3841      3842      3857      3856
 -1      3802    9    0    1
 -2      3842      3843      3858      3857
 -1      3803    9    0    1
 -2      3843      3844      3859      3858
 -1      3804    9    0    1
 -2      3844      3845      3860      3859
 -1      3805    9    0    1
 -2      3845      3846      3861      3860
 -1      3806    9    0    1
 -2      3846      3847      3862      3861
 -1      3807    9    0    1
 -2      3847      3848      3863      3862
 -1      3808    9    0    1
 -2      3848      3849      3864      3863
 -1      3809    9    0    1
 -2      3849       559       560      3864
 -1      3810    9    0    1
 -2       372      3850       373        18
 -1      3811    9    0    1
 -2      3850      3851       374       373
 -1      3812    9    0    1
 -2      3851      3852       375       374
 -1      3813    9    0    1
 -2      3852      3853       376       375
 -1      3814    9    0    1
 -2      3853      3854       377       376
 -1      3815    9    0    1
 -2      3854      3855       378       377
 -1      3816    9    0    1
 -2      3855      3856       379       378
 -1      3817    9    0    1
 -2      3856      3857       380       379
 -1      3818    9    0    1
 -2      3857      3858       381       380
 -1      3819    9    0    1
 -2      3858      3859       382       381
 -1      3820    9    0    1
 -2      3859      3860       383       382
 -1      3821    9    0    1
 -2      3860      3861       384       383
 -1      3822    9    0    1
 -2      3861      3862       385       384
 -1      3823    9    0    1
 -2      3862      3863       386       385
 -1      3824    9    0    1
 -2      3863      3864       387       386
 -1      3825    9    0    1
 -2      3864       560        19       387
 -1      3826    9    0    1
 -2        19       560      3865       388
 -1      3827    9    0    1
 -2       560       559      3866      3865
 -1      3828    9    0    1
 -2       559       558      3867      3866
 -1      3829    9    0    1
 -2       558       557      3868      3867
 -1      3830    9    0    1
 -2       557       556      3869      3868
 -1      3831    9    0    1
 -2       556       555      3870      3869
 -1      3832    9    0    1
 -2       555       554      3871      3870
 -1      3833    9    0    1
 -2       554       553      3872      3871
 -1      3834    9    0    1
 -2       553       552      3873      3872
 -1      3835    9    0    1
 -2       552       551      3874      3873
 -1      3836    9    0    1
 -2       551       550      3875      3874
 -1      3837    9    0    1
 -2       550       549      3876      3875
 -1      3838    9    0    1
 -2       549       548      3877      3876
 -1      3839    9    0    1
 -2       548       547      3878      3877
 -1      3840    9    0    1
 -2       547       546      3879      3878
 -1      3841    9    0    1
 -2       546       545      3880      3879
 -1      3842    9    0    1
 -2       545       544      3881      3880
 -1      3843    9    0    1
 -2       544       543      3882      3881
 -1      3844    9    0    1
 -2       543       542      3883      3882
 -1      3845    9    0    1
 -2       542       541      3884      3883
 -1      3846    9    0    1
 -2       541       540      3885      3884
 -1      3847    9    0    1
 -2       540       539      3886      3885
 -1      3848    9    0    1
 -2       539       538      3887      3886
 -1      3849    9    0    1
 -2       538       537      3888      3887
 -1      3850    9    0    1
 -2       537       536      3889      3888
 -1      3851    9    0    1
 -2       536       535      3890      3889
 -1      3852    9    0    1
 -2       535       534      3891      3890
 -1      3853    9    0    1
 -2       534       533      3892      3891
 -1      3854    9    0    1
 -2       533         8       175      3892
 -1      3855    9    0    1
 -2       388      3865      3893       389
 -1      3856    9    0    1
 -2      3865      3866      3894      3893
 -1      3857    9    0    1
 -2      3866      3867      3895      3894
 -1      3858    9    0    1
 -2      3867      3868      3896      3895
 -1      3859    9    0    1
 -2      3868      3869      3897      3896
 -1      3860    9    0    1
 -2      3869      3870      3898      3897
 -1      3861    9    0    1
 -2      3870      3871      3899      3898
 -1      3862    9    0    1
 -2      3871      3872      3900      3899
 -1      3863    9    0    1
 -2      3872      3873      3901      3900
 -1      3864    9    0    1
 -2      3873      3874      3902      3901
 -1      3865    9    0    1
 -2      3874      3875      3903      3902
 -1      3866    9    0    1
 -2      3875      3876      3904      3903
 -1      3867    9    0    1
 -2      3876      3877      3905      3904
 -1      3868    9    0    1
 -2      3877      3878      3906      3905
 -1      3869    9    0    1
 -2      3878      3879      3907      3906
 -1      3870    9    0    1
 -2      3879      3880      3908      3907
 -1      3871    9    0    1
 -2      3880      3881      3909      3908
 -1      3872    9    0    1
 -2      3881      3882      3910      3909
 -1      3873    9    0    1
 -2      3882      3883      3911      3910
 -1      3874    9    0    1
 -2      3883      3884      3912      3911
 -1      3875    9    0    1
 -2      3884      3885      3913      3912
 -1      3876    9    0    1
 -2      3885      3886      3914      3913
 -1      3877    9    0    1
 -2      3886      3887      3915      3914
 -1      3878    9    0    1
 -2      3887      3888      3916      3915
 -1      3879    9    0    1
 -2      3888      3889      3917      3916
 -1      3880    9    0    1
 -2      3889      3890      3918      3917
 -1      3881    9    0    1
 -2      3890      3891      3919      3918
 -1      3882    9    0    1
 -2      3891      3892      3920      3919
 -1      3883    9    0    1
 -2      3892       175       176      3920
 -1      3884    9    0    1
 -2       389      3893      3921       390
 -1      3885    9    0    1
 -2      3893      3894      3922      3921
 -1      3886    9    0    1
 -2      3894      3895      3923      3922
 -1      3887    9    0    1
 -2      3895      3896      3924      3923
 -1      3888    9    0    1
 -2      3896      3897      3925      3924
 -1      3889    9    0    1
 -2      3897      3898      3926      3925
 -1      3890    9    0    1
 -2      3898      3899      3927      3926
 -1      3891    9    0    1
 -2      3899      3900      3928      3927
 -1      3892    9    0    1
 -2      3900      3901      3929      3928
 -1      3893    9    0    1
 -2      3901      3902      3930      3929
 -1      3894    9    0    1
 -2      3902      3903      3931      3930
 -1      3895    9    0    1
 -2      3903      3904      3932      3931
 -1      3896    9    0    1
 -2      3904      3905      3933      3932
 -1      3897    9    0    1
 -2      3905      3906      3934      3933
 -1      3898    9    0    1
 -2      3906      3907      3935      3934
 -1      3899    9    0    1
 -2      3907      3908      3936      3935
 -1      3900    9    0    1
 -2      3908      3909      3937      3936
 -1      3901    9    0    1
 -2      3909      3910      3938      3937
 -1      3902    9    0    1
 -2      3910      3911      3939      3938
 -1      3903    9    0    1
 -2      3911      3912      3940      3939
 -1      3904    9    0    1
 -2      3912      3913      3941      3940
 -1      3905    9    0    1
 -2      3913      3914      3942      3941
 -1      3906    9    0    1
 -2      3914      3915      3943      3942
 -1      3907    9    0    1
 -2      3915      3916      3944      3943
 -1      3908    9    0    1
 -2      3916      3917      3945      3944
 -1      3909    9    0    1
 -2      3917      3918      3946      3945
 -1      3910    9    0    1
 -2      3918      3919      3947      3946
 -1      3911    9    0    1
 -2      3919      3920      3948      3947
 -1      3912    9    0    1
 -2      3920       176       177      3948
 -1      3913    9    0    1
 -2       390      3921      3949       391
 -1      3914    9    0    1
 -2      3921      3922      3950      3949
 -1      3915    9    0    1
 -2      3922      3923      3951      3950
 -1      3916    9    0    1
 -2      3923      3924      3952      3951
 -1      3917    9    0    1
 -2      3924      3925      3953      3952
 -1      3918    9    0    1
 -2      3925      3926      3954      3953
 -1      3919    9    0    1
 -2      3926      3927      3955      3954
 -1      3920    9    0    1
 -2      3927      3928      3956      3955
 -1      3921    9    0    1
 -2      3928      3929      3957      3956
 -1      3922    9    0    1
 -2      3929      3930      3958      3957
 -1      3923    9    0    1
 -2      3930      3931      3959      3958
 -1      3924    9    0    1
 -2      3931      3932      3960      3959
 -1      3925    9    0    1
 -2      3932      3933      3961      3960
 -1      3926    9    0    1
 -2      3933      3934      3962      3961
 -1      3927    9    0    1
 -2      3934      3935      3963      3962
 -1      3928    9    0    1
 -2      3935      3936      3964      3963
 -1      3929    9    0    1
 -2      3936      3937      3965      3964
 -1      3930    9    0    1
 -2      3937      3938      3966      3965
 -1      3931    9    0    1
 -2      3938      3939      3967      3966
 -1      3932    9    0    1
 -2      3939      3940      3968      3967
 -1      3933    9    0    1
 -2      3940      3941      3969      3968
 -1      3934    9    0    1
 -2      3941      3942      3970      3969
 -1      3935    9    0    1
 -2      3942      3943      3971      3970
 -1      3936    9    0    1
 -2      3943      3944      3972      3971
 -1      3937    9    0    1
 -2      3944      3945      3973      3972
 -1      3938    9    0    1
 -2      3945      3946      3974      3973
 -1      3939    9    0    1
 -2      3946      3947      3975      3974
 -1      3940    9    0    1
 -2      3947      3948      3976      3975
 -1      3941    9    0    1
 -2      3948       177       178      3976
 -1      3942    9    0    1
 -2       391      3949      3977       392
 -1      3943    9    0    1
 -2      3949      3950      3978      3977
 -1      3944    9    0    1
 -2      3950      3951      3979      3978
 -1      3945    9    0    1
 -2      3951      3952      3980      3979
 -1      3946    9    0    1
 -2      3952      3953      3981      3980
 -1      3947    9    0    1
 -2      3953      3954      3982      3981
 -1      3948    9    0    1
 -2      3954      3955      3983      3982
 -1      3949    9    0    1
 -2      3955      3956      3984      3983
 -1      3950    9    0    1
 -2      3956      3957      3985      3984
 -1      3951    9    0    1
 -2      3957      3958      3986      3985
 -1      3952    9    0    1
 -2      3958      3959      3987      3986
 -1      3953    9    0    1
 -2      3959      3960      3988      3987
 -1      3954    9    0    1
 -2      3960      3961      3989      3988
 -1      3955    9    0    1
 -2      3961      3962      3990      3989
 -1      3956    9    0    1
 -2      3962      3963      3991      3990
 -1      3957    9    0    1
 -2      3963      3964      3992      3991
 -1      3958    9    0    1
 -2      3964      3965      3993      3992
 -1      3959    9    0    1
 -2      3965      3966      3994      3993
 -1      3960    9    0    1
 -2      3966      3967      3995      3994
 -1      3961    9    0    1
 -2      3967      3968      3996      3995
 -1      3962    9    0    1
 -2      3968      3969      3997      3996
 -1      3963    9    0    1
 -2      3969      3970      3998      3997
 -1      3964    9    0    1
 -2      3970      3971      3999      3998
 -1      3965    9    0    1
 -2      3971      3972      4000      3999
 -1      3966    9    0    1
 -2      3972      3973      4001      4000
 -1      3967    9    0    1
 -2      3973      3974      4002      4001
 -1      3968    9    0    1
 -2      3974      3975      4003      4002
 -1      3969    9    0    1
 -2      3975      3976      4004      4003
 -1      3970    9    0    1
 -2      3976       178       179      4004
 -1      3971    9    0    1
 -2       392      3977      4005       393
 -1      3972    9    0    1
 -2      3977      3978      4006      4005
 -1      3973    9    0    1
 -2      3978      3979      4007      4006
 -1      3974    9    0    1
 -2      3979      3980      4008      4007
 -1      3975    9    0    1
 -2      3980      3981      4009      4008
 -1      3976    9    0    1
 -2      3981      3982      4010      4009
 -1      3977    9    0    1
 -2      3982      3983      4011      4010
 -1      3978    9    0    1
 -2      3983      3984      4012      4011
 -1      3979    9    0    1
 -2      3984      3985      4013      4012
 -1      3980    9    0    1
 -2      3985      3986      4014      4013
 -1      3981    9    0    1
 -2      3986      3987      4015      4014
 -1      3982    9    0    1
 -2      3987      3988      4016      4015
 -1      3983    9    0    1
 -2      3988      3989      4017      4016
 -1      3984    9    0    1
 -2      3989      3990      4018      4017
 -1      3985    9    0    1
 -2      3990      3991      4019      4018
 -1      3986    9    0    1
 -2      3991      3992      4020      4019
 -1      3987    9    0    1
 -2      3992      3993      4021      4020
 -1      3988    9    0    1
 -2      3993      3994      4022      4021
 -1      3989    9    0    1
 -2      3994      3995      4023      4022
 -1      3990    9    0    1
 -2      3995      3996      4024      4023
 -1      3991    9    0    1
 -2      3996      3997      4025      4024
 -1      3992    9    0    1
 -2      3997      3998      4026      4025
 -1      3993    9    0    1
 -2      3998      3999      4027      4026
 -1      3994    9    0    1
 -2      3999      4000      4028      4027
 -1      3995    9    0    1
 -2      4000      4001      4029      4028
 -1      3996    9    0    1
 -2      4001      4002      4030      4029
 -1      3997    9    0    1
 -2      4002      4003      4031      4030
 -1      3998    9    0    1
 -2      4003      4004      4032      4031
 -1      3999    9    0    1
 -2      4004       179       180      4032
 -1      4000    9    0    1
 -2       393      4005      4033       394
 -1      4001    9    0    1
 -2      4005      4006      4034      4033
 -1      4002    9    0    1
 -2      4006      4007      4035      4034
 -1      4003    9    0    1
 -2      4007      4008      4036      4035
 -1      4004    9    0    1
 -2      4008      4009      4037      4036
 -1      4005    9    0    1
 -2      4009      4010      4038      4037
 -1      4006    9    0    1
 -2      4010      4011      4039      4038
 -1      4007    9    0    1
 -2      4011      4012      4040      4039
 -1      4008    9    0    1
 -2      4012      4013      4041      4040
 -1      4009    9    0    1
 -2      4013      4014      4042      4041
 -1      4010    9    0    1
 -2      4014      4015      4043      4042
 -1      4011    9    0    1
 -2      4015      4016      4044      4043
 -1      4012    9    0    1
 -2      4016      4017      4045      4044
 -1      4013    9    0    1
 -2      4017      4018      4046      4045
 -1      4014    9    0    1
 -2      4018      4019      4047      4046
 -1      4015    9    0    1
 -2      4019      4020      4048      4047
 -1      4016    9    0    1
 -2      4020      4021      4049      4048
 -1      4017    9    0    1
 -2      4021      4022      4050      4049
 -1      4018    9    0    1
 -2      4022      4023      4051      4050
 -1      4019    9    0    1
 -2      4023      4024      4052      4051
 -1      4020    9    0    1
 -2      4024      4025      4053      4052
 -1      4021    9    0    1
 -2      4025      4026      4054      4053
 -1      4022    9    0    1
 -2      4026      4027      4055      4054
 -1      4023    9    0    1
 -2      4027      4028      4056      4055
 -1      4024    9    0    1
 -2      4028      4029      4057      4056
 -1      4025    9    0    1
 -2      4029      4030      4058      4057
 -1      4026    9    0    1
 -2      4030      4031      4059      4058
 -1      4027    9    0    1
 -2      4031      4032      4060      4059
 -1      4028    9    0    1
 -2      4032       180       181      4060
 -1      4029    9    0    1
 -2       394      4033      4061       395
 -1      4030    9    0    1
 -2      4033      4034      4062      4061
 -1      4031    9    0    1
 -2      4034      4035      4063      4062
 -1      4032    9    0    1
 -2      4035      4036      4064      4063
 -1      4033    9    0    1
 -2      4036      4037      4065      4064
 -1      4034    9    0    1
 -2      4037      4038      4066      4065
 -1      4035    9    0    1
 -2      4038      4039      4067      4066
 -1      4036    9    0    1
 -2      4039      4040      4068      4067
 -1      4037    9    0    1
 -2      4040      4041      4069      4068
 -1      4038    9    0    1
 -2      4041      4042      4070      4069
 -1      4039    9    0    1
 -2      4042      4043      4071      4070
 -1      4040    9    0    1
 -2      4043      4044      4072      4071
 -1      4041    9    0    1
 -2      4044      4045      4073      4072
 -1      4042    9    0    1
 -2      4045      4046      4074      4073
 -1      4043    9    0    1
 -2      4046      4047      4075      4074
 -1      4044    9    0    1
 -2      4047      4048      4076      4075
 -1      4045    9    0    1
 -2      4048      4049      4077      4076
 -1      4046    9    0    1
 -2      4049      4050      4078      4077
 -1      4047    9    0    1
 -2      4050      4051      4079      4078
 -1      4048    9    0    1
 -2      4051      4052      4080      4079
 -1      4049    9    0    1
 -2      4052      4053      4081      4080
 -1      4050    9    0    1
 -2      4053      4054      4082      4081
 -1      4051    9    0    1
 -2      4054      4055      4083      4082
 -1      4052    9    0    1
 -2      4055      4056      4084      4083
 -1      4053    9    0    1
 -2      4056      4057      4085      4084
 -1      4054    9    0    1
 -2      4057      4058      4086      4085
 -1      4055    9    0    1
 -2      4058      4059      4087      4086
 -1      4056    9    0    1
 -2      4059      4060      4088      4087
 -1      4057    9    0    1
 -2      4060       181       182      4088
 -1      4058    9    0    1
 -2       395      4061      4089       396
 -1      4059    9    0    1
 -2      4061      4062      4090      4089
 -1      4060    9    0    1
 -2      4062      4063      4091      4090
 -1      4061    9    0    1
 -2      4063      4064      4092      4091
 -1      4062    9    0    1
 -2      4064      4065      4093      4092
 -1      4063    9    0    1
 -2      4065      4066      4094      4093
 -1      4064    9    0    1
 -2      4066      4067      4095      4094
 -1      4065    9    0    1
 -2      4067      4068      4096      4095
 -1      4066    9    0    1
 -2      4068      4069      4097      4096
 -1      4067    9    0    1
 -2      4069      4070      4098      4097
 -1      4068    9    0    1
 -2      4070      4071      4099      4098
 -1      4069    9    0    1
 -2      4071      4072      4100      4099
 -1      4070    9    0    1
 -2      4072      4073      4101      4100
 -1      4071    9    0    1
 -2      4073      4074      4102      4101
 -1      4072    9    0    1
 -2      4074      4075      4103      4102
 -1      4073    9    0    1
 -2      4075      4076      4104      4103
 -1      4074    9    0    1
 -2      4076      4077      4105      4104
 -1      4075    9    0    1
 -2      4077      4078      4106      4105
 -1      4076    9    0    1
 -2      4078      4079      4107      4106
 -1      4077    9    0    1
 -2      4079      4080      4108      4107
 -1      4078    9    0    1
 -2      4080      4081      4109      4108
 -1      4079    9    0    1
 -2      4081      4082      4110      4109
 -1      4080    9    0    1
 -2      4082      4083      4111      4110
 -1      4081    9    0    1
 -2      4083      4084      4112      4111
 -1      4082    9    0    1
 -2      4084      4085      4113      4112
 -1      4083    9    0    1
 -2      4085      4086      4114      4113
 -1      4084    9    0    1
 -2      4086      4087      4115      4114
 -1      4085    9    0    1
 -2      4087      4088      4116      4115
 -1      4086    9    0    1
 -2      4088       182       183      4116
 -1      4087    9    0    1
 -2       396      4089      4117       397
 -1      4088    9    0    1
 -2      4089      4090      4118      4117
 -1      4089    9    0    1
 -2      4090      4091      4119      4118
 -1      4090    9    0    1
 -2      4091      4092      4120      4119
 -1      4091    9    0    1
 -2      4092      4093      4121      4120
 -1      4092    9    0    1
 -2      4093      4094      4122      4121
 -1      4093    9    0    1
 -2      4094      4095      4123      4122
 -1      4094    9    0    1
 -2      4095      4096      4124      4123
 -1      4095    9    0    1
 -2      4096      4097      4125      4124
 -1      4096    9    0    1
 -2      4097      4098      4126      4125
 -1      4097    9    0    1
 -2      4098      4099      4127      4126
 -1      4098    9    0    1
 -2      4099      4100      4128      4127
 -1      4099    9    0    1
 -2      4100      4101      4129      4128
 -1      4100    9    0    1
 -2      4101      4102      4130      4129
 -1      4101    9    0    1
 -2      4102      4103      4131      4130
 -1      4102    9    0    1
 -2      4103      4104      4132      4131
 -1      4103    9    0    1
 -2      4104      4105      4133      4132
 -1      4104    9    0    1
 -2      4105      4106      4134      4133
 -1      4105    9    0    1
 -2      4106      4107      4135      4134
 -1      4106    9    0    1
 -2      4107      4108      4136      4135
 -1      4107    9    0    1
 -2      4108      4109      4137      4136
 -1      4108    9    0    1
 -2      4109      4110      4138      4137
 -1      4109    9    0    1
 -2      4110      4111      4139      4138
 -1      4110    9    0    1
 -2      4111      4112      4140      4139
 -1      4111    9    0    1
 -2      4112      4113      4141      4140
 -1      4112    9    0    1
 -2      4113      4114      4142      4141
 -1      4113    9    0    1
 -2      4114      4115      4143      4142
 -1      4114    9    0    1
 -2      4115      4116      4144      4143
 -1      4115    9    0    1
 -2      4116       183       184      4144
 -1      4116    9    0    1
 -2       397      4117      4145       398
 -1      4117    9    0    1
 -2      4117      4118      4146      4145
 -1      4118    9    0    1
 -2      4118      4119      4147      4146
 -1      4119    9    0    1
 -2      4119      4120      4148      4147
 -1      4120    9    0    1
 -2      4120      4121      4149      4148
 -1      4121    9    0    1
 -2      4121      4122      4150      4149
 -1      4122    9    0    1
 -2      4122      4123      4151      4150
 -1      4123    9    0    1
 -2      4123      4124      4152      4151
 -1      4124    9    0    1
 -2      4124      4125      4153      4152
 -1      4125    9    0    1
 -2      4125      4126      4154      4153
 -1      4126    9    0    1
 -2      4126      4127      4155      4154
 -1      4127    9    0    1
 -2      4127      4128      4156      4155
 -1      4128    9    0    1
 -2      4128      4129      4157      4156
 -1      4129    9    0    1
 -2      4129      4130      4158      4157
 -1      4130    9    0    1
 -2      4130      4131      4159      4158
 -1      4131    9    0    1
 -2      4131      4132      4160      4159
 -1      4132    9    0    1
 -2      4132      4133      4161      4160
 -1      4133    9    0    1
 -2      4133      4134      4162      4161
 -1      4134    9    0    1
 -2      4134      4135      4163      4162
 -1      4135    9    0    1
 -2      4135      4136      4164      4163
 -1      4136    9    0    1
 -2      4136      4137      4165      4164
 -1      4137    9    0    1
 -2      4137      4138      4166      4165
 -1      4138    9    0    1
 -2      4138      4139      4167      4166
 -1      4139    9    0    1
 -2      4139      4140      4168      4167
 -1      4140    9    0    1
 -2      4140      4141      4169      4168
 -1      4141    9    0    1
 -2      4141      4142      4170      4169
 -1      4142    9    0    1
 -2      4142      4143      4171      4170
 -1      4143    9    0    1
 -2      4143      4144      4172      4171
 -1      4144    9    0    1
 -2      4144       184       185      4172
 -1      4145    9    0    1
 -2       398      4145      4173       399
 -1      4146    9    0    1
 -2      4145      4146      4174      4173
 -1      4147    9    0    1
 -2      4146      4147      4175      4174
 -1      4148    9    0    1
 -2      4147      4148      4176      4175
 -1      4149    9    0    1
 -2      4148      4149      4177      4176
 -1      4150    9    0    1
 -2      4149      4150      4178      4177
 -1      4151    9    0    1
 -2      4150      4151      4179      4178
 -1      4152    9    0    1
 -2      4151      4152      4180      4179
 -1      4153    9    0    1
 -2      4152      4153      4181      4180
 -1      4154    9    0    1
 -2      4153      4154      4182      4181
 -1      4155    9    0    1
 -2      4154      4155      4183      4182
 -1      4156    9    0    1
 -2      4155      4156      4184      4183
 -1      4157    9    0    1
 -2      4156      4157      4185      4184
 -1      4158    9    0    1
 -2      4157      4158      4186      4185
 -1      4159    9    0    1
 -2      4158      4159      4187      4186
 -1      4160    9    0    1
 -2      4159      4160      4188      4187
 -1      4161    9    0    1
 -2      4160      4161      4189      4188
 -1      4162    9    0    1
 -2      4161      4162      4190      4189
 -1      4163    9    0    1
 -2      4162      4163      4191      4190
 -1      4164    9    0    1
 -2      4163      4164      4192      4191
 -1      4165    9    0    1
 -2      4164      4165      4193      4192
 -1      4166    9    0    1
 -2      4165      4166      4194      4193
 -1      4167    9    0    1
 -2      4166      4167      4195      4194
 -1      4168    9    0    1
 -2      4167      4168      4196      4195
 -1      4169    9    0    1
 -2      4168      4169      4197      4196
 -1      4170    9    0    1
 -2      4169      4170      4198      4197
 -1      4171    9    0    1
 -2      4170      4171      4199      4198
 -1      4172    9    0    1
 -2      4171      4172      4200      4199
 -1      4173    9    0    1
 -2      4172       185       186      4200
 -1      4174    9    0    1
 -2       399      4173      4201       400
 -1      4175    9    0    1
 -2      4173      4174      4202      4201
 -1      4176    9    0    1
 -2      4174      4175      4203      4202
 -1      4177    9    0    1
 -2      4175      4176      4204      4203
 -1      4178    9    0    1
 -2      4176      4177      4205      4204
 -1      4179    9    0    1
 -2      4177      4178      4206      4205
 -1      4180    9    0    1
 -2      4178      4179      4207      4206
 -1      4181    9    0    1
 -2      4179      4180      4208      4207
 -1      4182    9    0    1
 -2      4180      4181      4209      4208
 -1      4183    9    0    1
 -2      4181      4182      4210      4209
 -1      4184    9    0    1
 -2      4182      4183      4211      4210
 -1      4185    9    0    1
 -2      4183      4184      4212      4211
 -1      4186    9    0    1
 -2      4184      4185      4213      4212
 -1      4187    9    0    1
 -2      4185      4186      4214      4213
 -1      4188    9    0    1
 -2      4186      4187      4215      4214
 -1      4189    9    0    1
 -2      4187      4188      4216      4215
 -1      4190    9    0    1
 -2      4188      4189      4217      4216
 -1      4191    9    0    1
 -2      4189      4190      4218      4217
 -1      4192    9    0    1
 -2      4190      4191      4219      4218
 -1      4193    9    0    1
 -2      4191      4192      4220      4219
 -1      4194    9    0    1
 -2      4192      4193      4221      4220
 -1      4195    9    0    1
 -2      4193      4194      4222      4221
 -1      4196    9    0    1
 -2      4194      4195      4223      4222
 -1      4197    9    0    1
 -2      4195      4196      4224      4223
 -1      4198    9    0    1
 -2      4196      4197      4225      4224
 -1      4199    9    0    1
 -2      4197      4198      4226      4225
 -1      4200    9    0    1
 -2      4198      4199      4227      4226
 -1      4201    9    0    1
 -2      4199      4200      4228      4227
 -1      4202    9    0    1
 -2      4200       186       187      4228
 -1      4203    9    0    1
 -2       400      4201      4229       401
 -1      4204    9    0    1
 -2      4201      4202      4230      4229
 -1      4205    9    0    1
 -2      4202      4203      4231      4230
 -1      4206    9    0    1
 -2      4203      4204      4232      4231
 -1      4207    9    0    1
 -2      4204      4205      4233      4232
 -1      4208    9    0    1
 -2      4205      4206      4234      4233
 -1      4209    9    0    1
 -2      4206      4207      4235      4234
 -1      4210    9    0    1
 -2      4207      4208      4236      4235
 -1      4211    9    0    1
 -2      4208      4209      4237      4236
 -1      4212    9    0    1
 -2      4209      4210      4238      4237
 -1      4213    9    0    1
 -2      4210      4211      4239      4238
 -1      4214    9    0    1
 -2      4211      4212      4240      4239
 -1      4215    9    0    1
 -2      4212      4213      4241      4240
 -1      4216    9    0    1
 -2      4213      4214      4242      4241
 -1      4217    9    0    1
 -2      4214      4215      4243      4242
 -1      4218    9    0    1
 -2      4215      4216      4244      4243
 -1      4219    9    0    1
 -2      4216      4217      4245      4244
 -1      4220    9    0    1
 -2      4217      4218      4246      4245
 -1      4221    9    0    1
 -2      4218      4219      4247      4246
 -1      4222    9    0    1
 -2      4219      4220      4248      4247
 -1      4223    9    0    1
 -2      4220      4221      4249      4248
 -1      4224    9    0    1
 -2      4221      4222      4250      4249
 -1      4225    9    0    1
 -2      4222      4223      4251      4250
 -1      4226    9    0    1
 -2      4223      4224      4252      4251
 -1      4227    9    0    1
 -2      4224      4225      4253      4252
 -1      4228    9    0    1
 -2      4225      4226      4254      4253
 -1      4229    9    0    1
 -2      4226      4227      4255      4254
 -1      4230    9    0    1
 -2      4227      4228      4256      4255
 -1      4231    9    0    1
 -2      4228       187       188      4256
 -1      4232    9    0    1
 -2       401      4229       588        20
 -1      4233    9    0    1
 -2      4229      4230       587       588
 -1      4234    9    0    1
 -2      4230      4231       586       587
 -1      4235    9    0    1
 -2      4231      4232       585       586
 -1      4236    9    0    1
 -2      4232      4233       584       585
 -1      4237    9    0    1
 -2      4233      4234       583       584
 -1      4238    9    0    1
 -2      4234      4235       582       583
 -1      4239    9    0    1
 -2      4235      4236       581       582
 -1      4240    9    0    1
 -2      4236      4237       580       581
 -1      4241    9    0    1
 -2      4237      4238       579       580
 -1      4242    9    0    1
 -2      4238      4239       578       579
 -1      4243    9    0    1
 -2      4239      4240       577       578
 -1      4244    9    0    1
 -2      4240      4241       576       577
 -1      4245    9    0    1
 -2      4241      4242       575       576
 -1      4246    9    0    1
 -2      4242      4243       574       575
 -1      4247    9    0    1
 -2      4243      4244       573       574
 -1      4248    9    0    1
 -2      4244      4245       572       573
 -1      4249    9    0    1
 -2      4245      4246       571       572
 -1      4250    9    0    1
 -2      4246      4247       570       571
 -1      4251    9    0    1
 -2      4247      4248       569       570
 -1      4252    9    0    1
 -2      4248      4249       568       569
 -1      4253    9    0    1
 -2      4249      4250       567       568
 -1      4254    9    0    1
 -2      4250      4251       566       567
 -1      4255    9    0    1
 -2      4251      4252       565       566
 -1      4256    9    0    1
 -2      4252      4253       564       565
 -1      4257    9    0    1
 -2      4253      4254       563       564
 -1      4258    9    0    1
 -2      4254      4255       562       563
 -1      4259    9    0    1
 -2      4255      4256       561       562
 -1      4260    9    0    1
 -2      4256       188         5       561
 -3
    1PSTEP                         1           1           1          
  100CL  101 1.000000000        4256                     0    1           1
 -4  DISP        4    1
 -5  D1          1    2    1    0
 -5  D2          1    2    2    0
 -5  D3          1    2    3    0
 -5  ALL         1    2    0    0    1ALL
 -1         1 1.61670E-03 1.92614E-02 0.00000E+00
 -1         2 1.61888E-03 1.42524E-02 0.00000E+00
 -1         3 3.31662E-03 1.42524E-02 0.00000E+00
 -1         4 3.31880E-03 1.92614E-02 0.00000E+00
 -1         5 1.36655E-03 2.05755E-02 0.00000E+00
 -1         6 1.35130E-03 1.28971E-02 0.00000E+00
 -1         7 3.58419E-03 1.28971E-02 0.00000E+00
 -1         8 3.56895E-03 2.05755E-02 0.00000E+00
 -1         9 2.46775E-03 3.30955E-02 0.00000E+00
 -1        10-1.02070E-03 1.99744E-02 0.00000E+00
 -1        11-1.06109E-03 1.31783E-02 0.00000E+00
 -1        12-7.44143E-04 0.00000E+00 0.00000E+00
 -1        13 1.47023E-03 0.00000E+00 0.00000E+00
 -1        14 3.46527E-03 0.00000E+00 0.00000E+00
 -1        15 5.67964E-03 0.00000E+00 0.00000E+00
 -1        16 5.99659E-03 1.31783E-02 0.00000E+00
 -1        17 5.95620E-03 1.99744E-02 0.00000E+00
 -1        18 2.46775E-03 3.30955E-02 0.00000E+00
 -1        19 2.46775E-03 3.30955E-02 0.00000E+00
 -1        20 2.46775E-03 3.30955E-02 0.00000E+00
 -1        21 1.46076E-03 2.02706E-02 0.00000E+00
 -1        22 1.54581E-03 2.00013E-02 0.00000E+00
 -1        23 1.62180E-03 1.97655E-02 0.00000E+00
 -1        24 1.68883E-03 1.95612E-02 0.00000E+00
 -1        25 1.74684E-03 1.93867E-02 0.00000E+00
 -1        26 1.79564E-03 1.92409E-02 0.00000E+00
 -1        27 1.83485E-03 1.91228E-02 0.00000E+00
 -1        28 1.86379E-03 1.90320E-02 0.00000E+00
 -1        29 1.88142E-03 1.89687E-02 0.00000E+00
 -1        30 1.88625E-03 1.89336E-02 0.00000E+00
 -1        31 1.87621E-03 1.89280E-02 0.00000E+00
 -1        32 1.84851E-03 1.89542E-02 0.00000E+00
 -1        33 1.79946E-03 1.90154E-02 0.00000E+00
 -1        34 1.72431E-03 1.91159E-02 0.00000E+00
 -1        35 1.44927E-03 1.32101E-02 0.00000E+00
 -1        36 1.53716E-03 1.34860E-02 0.00000E+00
 -1        37 1.61530E-03 1.37271E-02 0.00000E+00
 -1        38 1.68394E-03 1.39357E-02 0.00000E+00
 -1        39 1.74319E-03 1.41135E-02 0.00000E+00
 -1        40 1.79297E-03 1.42621E-02 0.00000E+00
 -1        41 1.83295E-03 1.43824E-02 0.00000E+00
 -1        42 1.86252E-03 1.44749E-02 0.00000E+00
 -1        43 1.88071E-03 1.45396E-02 0.00000E+00
 -1        44 1.88603E-03 1.45759E-02 0.00000E+00
 -1        45 1.87645E-03 1.45825E-02 0.00000E+00
 -1        46 1.84920E-03 1.45571E-02 0.00000E+00
 -1        47 1.80063E-03 1.44967E-02 0.00000E+00
 -1        48 1.72595E-03 1.43970E-02 0.00000E+00
 -1        49 3.48623E-03 1.32101E-02 0.00000E+00
 -1        50 3.39833E-03 1.34860E-02 0.00000E+00
 -1        51 3.32019E-03 1.37271E-02 0.00000E+00
 -1        52 3.25155E-03 1.39357E-02 0.00000E+00
 -1        53 3.19230E-03 1.41135E-02 0.00000E+00
 -1        54 3.14253E-03 1.42621E-02 0.00000E+00
 -1        55 3.10255E-03 1.43824E-02 0.00000E+00
 -1        56 3.07297E-03 1.44749E-02 0.00000E+00
 -1        57 3.05479E-03 1.45396E-02 0.00000E+00
 -1        58 3.04946E-03 1.45759E-02 0.00000E+00
 -1        59 3.05904E-03 1.45825E-02 0.00000E+00
 -1        60 3.08629E-03 1.45571E-02 0.00000E+00
 -1        61 3.13487E-03 1.44967E-02 0.00000E+00
 -1        62 3.20954E-03 1.43970E-02 0.00000E+00
 -1        63 3.47473E-03 2.02706E-02 0.00000E+00
 -1        64 3.38969E-03 2.00013E-02 0.00000E+00
 -1        65 3.31369E-03 1.97655E-02 0.00000E+00
 -1        66 3.24667E-03 1.95612E-02 0.00000E+00
 -1        67 3.18866E-03 1.93867E-02 0.00000E+00
 -1        68 3.13985E-03 1.92409E-02 0.00000E+00
 -1        69 3.10065E-03 1.91228E-02 0.00000E+00
 -1        70 3.07171E-03 1.90320E-02 0.00000E+00
 -1        71 3.05408E-03 1.89687E-02 0.00000E+00
 -1        72 3.04925E-03 1.89336E-02 0.00000E+00
 -1        73 3.05929E-03 1.89280E-02 0.00000E+00
 -1        74 3.08699E-03 1.89542E-02 0.00000E+00
 -1        75 3.13603E-03 1.90154E-02 0.00000E+00
 -1        76 3.21119E-03 1.91159E-02 0.00000E+00
 -1        77 1.53119E-03 1.89871E-02 0.00000E+00
 -1        78 1.45522E-03 1.86869E-02 0.00000E+00
 -1        79 1.39025E-03 1.83650E-02 0.00000E+00
 -1        80 1.33707E-03 1.80252E-02 0.00000E+00
 -1        81 1.29640E-03 1.76715E-02 0.00000E+00
 -1        82 1.26892E-03 1.73078E-02 0.00000E+00
 -1        83 1.25515E-03 1.69381E-02 0.00000E+00
 -1        84 1.25539E-03 1.65666E-02 0.00000E+00
 -1        85 1.26963E-03 1.61974E-02 0.00000E+00
 -1        86 1.29754E-03 1.58344E-02 0.00000E+00
 -1        87 1.33859E-03 1.54818E-02 0.00000E+00
 -1        88 1.39207E-03 1.51435E-02 0.00000E+00
 -1        89 1.45726E-03 1.48233E-02 0.00000E+00
 -1        90 1.53334E-03 1.45249E-02 0.00000E+00
 -1        91 1.71109E-03 1.40053E-02 0.00000E+00
 -1        92 1.81251E-03 1.37874E-02 0.00000E+00
 -1        93 1.92141E-03 1.36016E-02 0.00000E+00
 -1        94 2.03645E-03 1.34500E-02 0.00000E+00
 -1        95 2.15626E-03 1.33345E-02 0.00000E+00
 -1        96 2.27949E-03 1.32566E-02 0.00000E+00
 -1        97 2.40477E-03 1.32173E-02 0.00000E+00
 -1        98 2.53073E-03 1.32173E-02 0.00000E+00
 -1        99 2.65601E-03 1.32566E-02 0.00000E+00
 -1       100 2.77923E-03 1.33345E-02 0.00000E+00
 -1       101 2.89905E-03 1.34500E-02 0.00000E+00
 -1       102 3.01408E-03 1.36016E-02 0.00000E+00
 -1       103 3.12299E-03 1.37874E-02 0.00000E+00
 -1       104 3.22441E-03 1.40053E-02 0.00000E+00
 -1       105 3.40215E-03 1.45249E-02 0.00000E+00
 -1       106 3.47824E-03 1.48233E-02 0.00000E+00
 -1       107 3.54342E-03 1.51435E-02 0.00000E+00
 -1       108 3.59691E-03 1.54818E-02 0.00000E+00
 -1       109 3.63795E-03 1.58344E-02 0.00000E+00
 -1       110 3.66587E-03 1.61974E-02 0.00000E+00
 -1       111 3.68010E-03 1.65666E-02 0.00000E+00
 -1       112 3.68035E-03 1.69381E-02 0.00000E+00
 -1       113 3.66658E-03 1.73078E-02 0.00000E+00
 -1       114 3.63910E-03 1.76715E-02 0.00000E+00
 -1       115 3.59843E-03 1.80252E-02 0.00000E+00
 -1       116 3.54524E-03 1.83650E-02 0.00000E+00
 -1       117 3.48027E-03 1.86869E-02 0.00000E+00
 -1       118 3.40431E-03 1.89871E-02 0.00000E+00
 -1       119 3.22653E-03 1.95104E-02 0.00000E+00
 -1       120 3.12496E-03 1.97302E-02 0.00000E+00
 -1       121 3.01582E-03 1.99177E-02 0.00000E+00
 -1       122 2.90048E-03 2.00707E-02 0.00000E+00
 -1       123 2.78030E-03 2.01873E-02 0.00000E+00
 -1       124 2.65667E-03 2.02660E-02 0.00000E+00
 -1       125 2.53095E-03 2.03057E-02 0.00000E+00
 -1       126 2.40454E-03 2.03057E-02 0.00000E+00
 -1       127 2.27883E-03 2.02660E-02 0.00000E+00
 -1       128 2.15520E-03 2.01873E-02 0.00000E+00
 -1       129 2.03502E-03 2.00707E-02 0.00000E+00
 -1       130 1.91967E-03 1.99177E-02 0.00000E+00
 -1       131 1.81054E-03 1.97302E-02 0.00000E+00
 -1       132 1.70896E-03 1.95104E-02 0.00000E+00
 -1       133 1.31470E-03 2.00639E-02 0.00000E+00
 -1       134 1.24868E-03 1.95443E-02 0.00000E+00
 -1       135 1.16733E-03 1.90198E-02 0.00000E+00
 -1       136 1.07391E-03 1.84954E-02 0.00000E+00
 -1       137 9.78171E-04 1.79775E-02 0.00000E+00
 -1       138 8.96825E-04 1.74707E-02 0.00000E+00
 -1       139 8.49262E-04 1.69750E-02 0.00000E+00
 -1       140 8.48942E-04 1.64841E-02 0.00000E+00
 -1       141 8.95759E-04 1.59889E-02 0.00000E+00
 -1       142 9.76067E-04 1.54831E-02 0.00000E+00
 -1       143 1.07034E-03 1.49666E-02 0.00000E+00
 -1       144 1.16180E-03 1.44441E-02 0.00000E+00
 -1       145 1.24058E-03 1.39220E-02 0.00000E+00
 -1       146 1.30337E-03 1.34053E-02 0.00000E+00
 -1       147 1.52971E-03 1.28205E-02 0.00000E+00
 -1       148 1.70939E-03 1.27245E-02 0.00000E+00
 -1       149 1.88514E-03 1.26088E-02 0.00000E+00
 -1       150 2.04965E-03 1.24790E-02 0.00000E+00
 -1       151 2.19528E-03 1.23488E-02 0.00000E+00
 -1       152 2.31775E-03 1.22401E-02 0.00000E+00
 -1       153 2.42038E-03 1.21774E-02 0.00000E+00
 -1       154 2.51511E-03 1.21774E-02 0.00000E+00
 -1       155 2.61775E-03 1.22401E-02 0.00000E+00
 -1       156 2.74022E-03 1.23488E-02 0.00000E+00
 -1       157 2.88584E-03 1.24790E-02 0.00000E+00
 -1       158 3.05036E-03 1.26088E-02 0.00000E+00
 -1       159 3.22611E-03 1.27245E-02 0.00000E+00
 -1       160 3.40578E-03 1.28205E-02 0.00000E+00
 -1       161 3.63212E-03 1.34053E-02 0.00000E+00
 -1       162 3.69492E-03 1.39220E-02 0.00000E+00
 -1       163 3.77370E-03 1.44441E-02 0.00000E+00
 -1       164 3.86515E-03 1.49666E-02 0.00000E+00
 -1       165 3.95943E-03 1.54831E-02 0.00000E+00
 -1       166 4.03974E-03 1.59889E-02 0.00000E+00
 -1       167 4.08655E-03 1.64841E-02 0.00000E+00
 -1       168 4.08623E-03 1.69750E-02 0.00000E+00
 -1       169 4.03867E-03 1.74707E-02 0.00000E+00
 -1       170 3.95733E-03 1.79775E-02 0.00000E+00
 -1       171 3.86159E-03 1.84954E-02 0.00000E+00
 -1       172 3.76816E-03 1.90198E-02 0.00000E+00
 -1       173 3.68682E-03 1.95443E-02 0.00000E+00
 -1       174 3.62079E-03 2.00639E-02 0.00000E+00
 -1       175 3.39200E-03 2.06666E-02 0.00000E+00
 -1       176 3.21400E-03 2.07754E-02 0.00000E+00
 -1       177 3.04011E-03 2.09020E-02 0.00000E+00
 -1       178 2.87763E-03 2.10408E-02 0.00000E+00
 -1       179 2.73419E-03 2.11778E-02 0.00000E+00
 -1       180 2.61405E-03 2.12911E-02 0.00000E+00
 -1       181 2.51387E-03 2.13562E-02 0.00000E+00
 -1       182 2.42163E-03 2.13562E-02 0.00000E+00
 -1       183 2.32145E-03 2.12911E-02 0.00000E+00
 -1       184 2.20131E-03 2.11778E-02 0.00000E+00
 -1       185 2.05787E-03 2.10408E-02 0.00000E+00
 -1       186 1.89538E-03 2.09020E-02 0.00000E+00
 -1       187 1.72150E-03 2.07754E-02 0.00000E+00
 -1       188 1.54350E-03 2.06666E-02 0.00000E+00
 -1       189 1.92984E-03 3.23273E-02 0.00000E+00
 -1       190 1.58006E-03 3.17427E-02 0.00000E+00
 -1       191 1.28654E-03 3.12343E-02 0.00000E+00
 -1       192 1.04073E-03 3.07586E-02 0.00000E+00
 -1       193 8.28169E-04 3.03024E-02 0.00000E+00
 -1       194 6.42005E-04 2.98583E-02 0.00000E+00
 -1       195 4.77369E-04 2.94223E-02 0.00000E+00
 -1       196 3.30806E-04 2.89917E-02 0.00000E+00
 -1       197 1.99660E-04 2.85646E-02 0.00000E+00
 -1       198 8.18121E-05 2.81396E-02 0.00000E+00
 -1       199-2.44866E-05 2.77157E-02 0.00000E+00
 -1       200-1.20716E-04 2.72923E-02 0.00000E+00
 -1       201-2.08154E-04 2.68687E-02 0.00000E+00
 -1       202-2.87917E-04 2.64445E-02 0.00000E+00
 -1       203-3.60997E-04 2.60195E-02 0.00000E+00
 -1       204-4.28274E-04 2.55933E-02 0.00000E+00
 -1       205-4.90538E-04 2.51659E-02 0.00000E+00
 -1       206-5.48492E-04 2.47373E-02 0.00000E+00
 -1       207-6.02761E-04 2.43073E-02 0.00000E+00
 -1       208-6.53890E-04 2.38762E-02 0.00000E+00
 -1       209-7.02344E-04 2.34440E-02 0.00000E+00
 -1       210-7.48507E-04 2.30110E-02 0.00000E+00
 -1       211-7.92676E-04 2.25772E-02 0.00000E+00
 -1       212-8.35056E-04 2.21430E-02 0.00000E+00
 -1       213-8.75761E-04 2.17086E-02 0.00000E+00
 -1       214-9.14805E-04 2.12743E-02 0.00000E+00
 -1       215-9.52108E-04 2.08403E-02 0.00000E+00
 -1       216-9.87494E-04 2.04070E-02 0.00000E+00
 -1       217-1.05284E-03 1.95218E-02 0.00000E+00
 -1       218-1.08180E-03 1.90703E-02 0.00000E+00
 -1       219-1.10711E-03 1.86198E-02 0.00000E+00
 -1       220-1.12833E-03 1.81703E-02 0.00000E+00
 -1       221-1.14504E-03 1.77215E-02 0.00000E+00
 -1       222-1.15692E-03 1.72729E-02 0.00000E+00
 -1       223-1.16377E-03 1.68243E-02 0.00000E+00
 -1       224-1.16554E-03 1.63751E-02 0.00000E+00
 -1       225-1.16231E-03 1.59248E-02 0.00000E+00
 -1       226-1.15434E-03 1.54730E-02 0.00000E+00
 -1       227-1.14203E-03 1.50191E-02 0.00000E+00
 -1       228-1.12592E-03 1.45630E-02 0.00000E+00
 -1       229-1.10660E-03 1.41042E-02 0.00000E+00
 -1       230-1.08477E-03 1.36426E-02 0.00000E+00
 -1       231-1.03745E-03 1.27329E-02 0.00000E+00
 -1       232-1.01329E-03 1.22852E-02 0.00000E+00
 -1       233-9.89137E-04 1.18353E-02 0.00000E+00
 -1       234-9.65408E-04 1.13835E-02 0.00000E+00
 -1       235-9.42465E-04 1.09300E-02 0.00000E+00
 -1       236-9.20590E-04 1.04752E-02 0.00000E+00
 -1       237-8.99995E-04 1.00192E-02 0.00000E+00
 -1       238-8.80825E-04 9.56238E-03 0.00000E+00
 -1       239-8.63168E-04 9.10497E-03 0.00000E+00
 -1       240-8.47057E-04 8.64721E-03 0.00000E+00
 -1       241-8.32488E-04 8.18927E-03 0.00000E+00
 -1       242-8.19422E-04 7.73134E-03 0.00000E+00
 -1       243-8.07795E-04 7.27355E-03 0.00000E+00
 -1       244-7.97524E-04 6.81601E-03 0.00000E+00
 -1       245-7.88517E-04 6.35882E-03 0.00000E+00
 -1       246-7.80672E-04 5.90203E-03 0.00000E+00
 -1       247-7.73888E-04 5.44568E-03 0.00000E+00
 -1       248-7.68061E-04 4.98980E-03 0.00000E+00
 -1       249-7.63094E-04 4.53438E-03 0.00000E+00
 -1       250-7.58893E-04 4.07944E-03 0.00000E+00
 -1       251-7.55372E-04 3.62493E-03 0.00000E+00
 -1       252-7.52452E-04 3.17084E-03 0.00000E+00
 -1       253-7.50065E-04 2.71712E-03 0.00000E+00
 -1       254-7.48147E-04 2.26374E-03 0.00000E+00
 -1       255-7.46649E-04 1.81064E-03 0.00000E+00
 -1       256-7.45528E-04 1.35777E-03 0.00000E+00
 -1       257-7.44750E-04 9.05084E-04 0.00000E+00
 -1       258-7.44293E-04 4.52512E-04 0.00000E+00
 -1       259-6.02430E-04 0.00000E+00 0.00000E+00
 -1       260-4.60913E-04 0.00000E+00 0.00000E+00
 -1       261-3.19679E-04 0.00000E+00 0.00000E+00
 -1       262-1.78799E-04 0.00000E+00 0.00000E+00
 -1       263-3.83350E-05 0.00000E+00 0.00000E+00
 -1       264 1.01663E-04 0.00000E+00 0.00000E+00
 -1       265 2.41153E-04 0.00000E+00 0.00000E+00
 -1       266 3.80099E-04 0.00000E+00 0.00000E+00
 -1       267 5.18474E-04 0.00000E+00 0.00000E+00
 -1       268 6.56256E-04 0.00000E+00 0.00000E+00
 -1       269 7.93431E-04 0.00000E+00 0.00000E+00
 -1       270 9.29992E-04 0.00000E+00 0.00000E+00
 -1       271 1.06594E-03 0.00000E+00 0.00000E+00
 -1       272 1.20128E-03 0.00000E+00 0.00000E+00
 -1       273 1.33603E-03 0.00000E+00 0.00000E+00
 -1       274 1.60442E-03 0.00000E+00 0.00000E+00
 -1       275 1.73812E-03 0.00000E+00 0.00000E+00
 -1       276 1.87140E-03 0.00000E+00 0.00000E+00
 -1       277 2.00432E-03 0.00000E+00 0.00000E+00
 -1       278 2.13694E-03 0.00000E+00 0.00000E+00
 -1       279 2.26935E-03 0.00000E+00 0.00000E+00
 -1       280 2.40163E-03 0.00000E+00 0.00000E+00
 -1       281 2.53387E-03 0.00000E+00 0.00000E+00
 -1       282 2.66615E-03 0.00000E+00 0.00000E+00
 -1       283 2.79856E-03 0.00000E+00 0.00000E+00
 -1       284 2.93118E-03 0.00000E+00 0.00000E+00
 -1       285 3.06409E-03 0.00000E+00 0.00000E+00
 -1       286 3.19737E-03 0.00000E+00 0.00000E+00
 -1       287 3.33108E-03 0.00000E+00 0.00000E+00
 -1       288 3.59946E-03 0.00000E+00 0.00000E+00
 -1       289 3.73422E-03 0.00000E+00 0.00000E+00
 -1       290 3.86956E-03 0.00000E+00 0.00000E+00
 -1       291 4.00550E-03 0.00000E+00 0.00000E+00
 -1       292 4.14207E-03 0.00000E+00 0.00000E+00
 -1       293 4.27924E-03 0.00000E+00 0.00000E+00
 -1       294 4.41702E-03 0.00000E+00 0.00000E+00
 -1       295 4.55540E-03 0.00000E+00 0.00000E+00
 -1       296 4.69434E-03 0.00000E+00 0.00000E+00
 -1       297 4.83383E-03 0.00000E+00 0.00000E+00
 -1       298 4.97383E-03 0.00000E+00 0.00000E+00
 -1       299 5.11430E-03 0.00000E+00 0.00000E+00
 -1       300 5.25517E-03 0.00000E+00 0.00000E+00
 -1       301 5.39641E-03 0.00000E+00 0.00000E+00
 -1       302 5.53793E-03 0.00000E+00 0.00000E+00
 -1       303 5.67979E-03 4.52512E-04 0.00000E+00
 -1       304 5.68025E-03 9.05084E-04 0.00000E+00
 -1       305 5.68102E-03 1.35777E-03 0.00000E+00
 -1       306 5.68215E-03 1.81064E-03 0.00000E+00
 -1       307 5.68364E-03 2.26374E-03 0.00000E+00
 -1       308 5.68556E-03 2.71712E-03 0.00000E+00
 -1       309 5.68795E-03 3.17084E-03 0.00000E+00
 -1       310 5.69087E-03 3.62493E-03 0.00000E+00
 -1       311 5.69439E-03 4.07944E-03 0.00000E+00
 -1       312 5.69859E-03 4.53438E-03 0.00000E+00
 -1       313 5.70356E-03 4.98980E-03 0.00000E+00
 -1       314 5.70938E-03 5.44568E-03 0.00000E+00
 -1       315 5.71617E-03 5.90203E-03 0.00000E+00
 -1       316 5.72401E-03 6.35882E-03 0.00000E+00
 -1       317 5.73302E-03 6.81601E-03 0.00000E+00
 -1       318 5.74329E-03 7.27355E-03 0.00000E+00
 -1       319 5.75492E-03 7.73134E-03 0.00000E+00
 -1       320 5.76798E-03 8.18927E-03 0.00000E+00
 -1       321 5.78255E-03 8.64721E-03 0.00000E+00
 -1       322 5.79866E-03 9.10497E-03 0.00000E+00
 -1       323 5.81632E-03 9.56238E-03 0.00000E+00
 -1       324 5.83549E-03 1.00192E-02 0.00000E+00
 -1       325 5.85609E-03 1.04752E-02 0.00000E+00
 -1       326 5.87796E-03 1.09300E-02 0.00000E+00
 -1       327 5.90090E-03 1.13835E-02 0.00000E+00
 -1       328 5.92463E-03 1.18353E-02 0.00000E+00
 -1       329 5.94879E-03 1.22852E-02 0.00000E+00
 -1       330 5.97294E-03 1.27329E-02 0.00000E+00
 -1       331 6.02026E-03 1.36426E-02 0.00000E+00
 -1       332 6.04210E-03 1.41042E-02 0.00000E+00
 -1       333 6.06141E-03 1.45630E-02 0.00000E+00
 -1       334 6.07753E-03 1.50191E-02 0.00000E+00
 -1       335 6.08983E-03 1.54730E-02 0.00000E+00
 -1       336 6.09780E-03 1.59248E-02 0.00000E+00
 -1       337 6.10103E-03 1.63751E-02 0.00000E+00
 -1       338 6.09927E-03 1.68243E-02 0.00000E+00
 -1       339 6.09242E-03 1.72729E-02 0.00000E+00
 -1       340 6.08053E-03 1.77215E-02 0.00000E+00
 -1       341 6.06382E-03 1.81703E-02 0.00000E+00
 -1       342 6.04261E-03 1.86198E-02 0.00000E+00
 -1       343 6.01730E-03 1.90703E-02 0.00000E+00
 -1       344 5.98834E-03 1.95218E-02 0.00000E+00
 -1       345 5.92299E-03 2.04070E-02 0.00000E+00
 -1       346 5.88760E-03 2.08403E-02 0.00000E+00
 -1       347 5.85030E-03 2.12743E-02 0.00000E+00
 -1       348 5.81126E-03 2.17086E-02 0.00000E+00
 -1       349 5.77055E-03 2.21430E-02 0.00000E+00
 -1       350 5.72817E-03 2.25772E-02 0.00000E+00
 -1       351 5.68400E-03 2.30110E-02 0.00000E+00
 -1       352 5.63784E-03 2.34440E-02 0.00000E+00
 -1       353 5.58939E-03 2.38762E-02 0.00000E+00
 -1       354 5.53826E-03 2.43073E-02 0.00000E+00
 -1       355 5.48399E-03 2.47373E-02 0.00000E+00
 -1       356 5.42603E-03 2.51659E-02 0.00000E+00
 -1       357 5.36377E-03 2.55933E-02 0.00000E+00
 -1       358 5.29649E-03 2.60195E-02 0.00000E+00
 -1       359 5.22341E-03 2.64445E-02 0.00000E+00
 -1       360 5.14365E-03 2.68687E-02 0.00000E+00
 -1       361 5.05621E-03 2.72923E-02 0.00000E+00
 -1       362 4.95998E-03 2.77157E-02 0.00000E+00
 -1       363 4.85368E-03 2.81396E-02 0.00000E+00
 -1       364 4.73584E-03 2.85646E-02 0.00000E+00
 -1       365 4.60469E-03 2.89917E-02 0.00000E+00
 -1       366 4.45813E-03 2.94223E-02 0.00000E+00
 -1       367 4.29349E-03 2.98583E-02 0.00000E+00
 -1       368 4.10733E-03 3.03024E-02 0.00000E+00
 -1       369 3.89476E-03 3.07586E-02 0.00000E+00
 -1       370 3.64896E-03 3.12343E-02 0.00000E+00
 -1       371 3.35544E-03 3.17427E-02 0.00000E+00
 -1       372 3.00566E-03 3.23273E-02 0.00000E+00
 -1       373 2.46775E-03 3.30955E-02 0.00000E+00
 -1       374 2.46775E-03 3.30955E-02 0.00000E+00
 -1       375 2.46775E-03 3.30955E-02 0.00000E+00
 -1       376 2.46775E-03 3.30955E-02 0.00000E+00
 -1       377 2.46775E-03 3.30955E-02 0.00000E+00
 -1       378 2.46775E-03 3.30955E-02 0.00000E+00
 -1       379 2.46775E-03 3.30955E-02 0.00000E+00
 -1       380 2.46775E-03 3.30955E-02 0.00000E+00
 -1       381 2.46775E-03 3.30955E-02 0.00000E+00
 -1       382 2.46775E-03 3.30955E-02 0.00000E+00
 -1       383 2.46775E-03 3.30955E-02 0.00000E+00
 -1       384 2.46775E-03 3.30955E-02 0.00000E+00
 -1       385 2.46775E-03 3.30955E-02 0.00000E+00
 -1       386 2.46775E-03 3.30955E-02 0.00000E+00
 -1       387 2.46775E-03 3.30955E-02 0.00000E+00
 -1       388 2.46775E-03 3.30955E-02 0.00000E+00
 -1       389 2.46775E-03 3.30955E-02 0.00000E+00
 -1       390 2.46775E-03 3.30955E-02 0.00000E+00
 -1       391 2.46775E-03 3.30955E-02 0.00000E+00
 -1       392 2.46775E-03 3.30955E-02 0.00000E+00
 -1       393 2.46775E-03 3.30955E-02 0.00000E+00
 -1       394 2.46775E-03 3.30955E-02 0.00000E+00
 -1       395 2.46775E-03 3.30955E-02 0.00000E+00
 -1       396 2.46775E-03 3.30955E-02 0.00000E+00
 -1       397 2.46775E-03 3.30955E-02 0.00000E+00
 -1       398 2.46775E-03 3.30955E-02 0.00000E+00
 -1       399 2.46775E-03 3.30955E-02 0.00000E+00
 -1       400 2.46775E-03 3.30955E-02 0.00000E+00
 -1       401 2.46775E-03 3.30955E-02 0.00000E+00
 -1       402 2.46775E-03 3.30955E-02 0.00000E+00
 -1       403 2.46775E-03 3.30955E-02 0.00000E+00
 -1       404 2.46775E-03 3.30955E-02 0.00000E+00
 -1       405 2.46775E-03 3.30955E-02 0.00000E+00
 -1       406 2.46775E-03 3.30955E-02 0.00000E+00
 -1       407 2.46775E-03 3.30955E-02 0.00000E+00
 -1       408 2.46775E-03 3.30955E-02 0.00000E+00
 -1       409 2.46775E-03 3.30955E-02 0.00000E+00
 -1       410 2.46775E-03 3.30955E-02 0.00000E+00
 -1       411 2.46775E-03 3.30955E-02 0.00000E+00
 -1       412 2.46775E-03 3.30955E-02 0.00000E+00
 -1       413 2.46775E-03 3.30955E-02 0.00000E+00
 -1       414 2.46775E-03 3.30955E-02 0.00000E+00
 -1       415 2.46775E-03 3.30955E-02 0.00000E+00
 -1       416 2.46775E-03 3.30955E-02 0.00000E+00
 -1       417 1.19264E-03 2.05037E-02 0.00000E+00
 -1       418 1.02390E-03 2.04435E-02 0.00000E+00
 -1       419 8.60265E-04 2.03929E-02 0.00000E+00
 -1       420 7.01234E-04 2.03495E-02 0.00000E+00
 -1       421 5.46167E-04 2.03111E-02 0.00000E+00
 -1       422 3.94422E-04 2.02763E-02 0.00000E+00
 -1       423 2.45432E-04 2.02439E-02 0.00000E+00
 -1       424 9.87354E-05 2.02132E-02 0.00000E+00
 -1       425-4.60289E-05 2.01834E-02 0.00000E+00
 -1       426-1.89128E-04 2.01543E-02 0.00000E+00
 -1       427-3.30756E-04 2.01254E-02 0.00000E+00
 -1       428-4.71050E-04 2.00965E-02 0.00000E+00
 -1       429-6.10108E-04 2.00673E-02 0.00000E+00
 -1       430-7.48011E-04 2.00376E-02 0.00000E+00
 -1       431-8.84838E-04 2.00068E-02 0.00000E+00
 -1       432 1.17593E-03 1.29524E-02 0.00000E+00
 -1       433 1.00591E-03 1.29945E-02 0.00000E+00
 -1       434 8.41157E-04 1.30255E-02 0.00000E+00
 -1       435 6.81132E-04 1.30481E-02 0.00000E+00
 -1       436 5.25167E-04 1.30645E-02 0.00000E+00
 -1       437 3.72575E-04 1.30765E-02 0.00000E+00
 -1       438 2.22740E-04 1.30854E-02 0.00000E+00
 -1       439 7.51408E-05 1.30924E-02 0.00000E+00
 -1       440-7.06463E-05 1.30984E-02 0.00000E+00
 -1       441-2.14956E-04 1.31042E-02 0.00000E+00
 -1       442-3.58050E-04 1.31106E-02 0.00000E+00
 -1       443-5.00128E-04 1.31183E-02 0.00000E+00
 -1       444-6.41349E-04 1.31280E-02 0.00000E+00
 -1       445-7.81839E-04 1.31406E-02 0.00000E+00
 -1       446-9.21712E-04 1.31570E-02 0.00000E+00
 -1       447 1.38294E-03 1.24184E-02 0.00000E+00
 -1       448 1.40632E-03 1.19479E-02 0.00000E+00
 -1       449 1.42306E-03 1.14844E-02 0.00000E+00
 -1       450 1.43499E-03 1.10267E-02 0.00000E+00
 -1       451 1.44354E-03 1.05735E-02 0.00000E+00
 -1       452 1.44971E-03 1.01241E-02 0.00000E+00
 -1       453 1.45423E-03 9.67738E-03 0.00000E+00
 -1       454 1.45761E-03 9.23286E-03 0.00000E+00
 -1       455 1.46018E-03 8.78996E-03 0.00000E+00
 -1       456 1.46219E-03 8.34828E-03 0.00000E+00
 -1       457 1.46379E-03 7.90749E-03 0.00000E+00
 -1       458 1.46508E-03 7.46735E-03 0.00000E+00
 -1       459 1.46614E-03 7.02766E-03 0.00000E+00
 -1       460 1.46701E-03 6.58829E-03 0.00000E+00
 -1       461 1.46773E-03 6.14912E-03 0.00000E+00
 -1       462 1.46832E-03 5.71007E-03 0.00000E+00
 -1       463 1.46879E-03 5.27108E-03 0.00000E+00
 -1       464 1.46918E-03 4.83209E-03 0.00000E+00
 -1       465 1.46948E-03 4.39308E-03 0.00000E+00
 -1       466 1.46971E-03 3.95403E-03 0.00000E+00
 -1       467 1.46988E-03 3.51492E-03 0.00000E+00
 -1       468 1.47001E-03 3.07575E-03 0.00000E+00
 -1       469 1.47010E-03 2.63650E-03 0.00000E+00
 -1       470 1.47015E-03 2.19720E-03 0.00000E+00
 -1       471 1.47019E-03 1.75784E-03 0.00000E+00
 -1       472 1.47021E-03 1.31842E-03 0.00000E+00
 -1       473 1.47022E-03 8.78970E-04 0.00000E+00
 -1       474 1.47023E-03 4.39492E-04 0.00000E+00
 -1       475 3.55256E-03 1.24184E-02 0.00000E+00
 -1       476 3.52918E-03 1.19479E-02 0.00000E+00
 -1       477 3.51244E-03 1.14844E-02 0.00000E+00
 -1       478 3.50050E-03 1.10267E-02 0.00000E+00
 -1       479 3.49196E-03 1.05735E-02 0.00000E+00
 -1       480 3.48579E-03 1.01241E-02 0.00000E+00
 -1       481 3.48127E-03 9.67738E-03 0.00000E+00
 -1       482 3.47789E-03 9.23286E-03 0.00000E+00
 -1       483 3.47531E-03 8.78996E-03 0.00000E+00
 -1       484 3.47330E-03 8.34828E-03 0.00000E+00
 -1       485 3.47170E-03 7.90749E-03 0.00000E+00
 -1       486 3.47041E-03 7.46735E-03 0.00000E+00
 -1       487 3.46936E-03 7.02766E-03 0.00000E+00
 -1       488 3.46849E-03 6.58829E-03 0.00000E+00
 -1       489 3.46777E-03 6.14912E-03 0.00000E+00
 -1       490 3.46718E-03 5.71007E-03 0.00000E+00
 -1       491 3.46670E-03 5.27108E-03 0.00000E+00
 -1       492 3.46632E-03 4.83209E-03 0.00000E+00
 -1       493 3.46602E-03 4.39308E-03 0.00000E+00
 -1       494 3.46579E-03 3.95403E-03 0.00000E+00
 -1       495 3.46561E-03 3.51492E-03 0.00000E+00
 -1       496 3.46549E-03 3.07575E-03 0.00000E+00
 -1       497 3.46540E-03 2.63650E-03 0.00000E+00
 -1       498 3.46534E-03 2.19720E-03 0.00000E+00
 -1       499 3.46531E-03 1.75784E-03 0.00000E+00
 -1       500 3.46529E-03 1.31842E-03 0.00000E+00
 -1       501 3.46528E-03 8.78970E-04 0.00000E+00
 -1       502 3.46527E-03 4.39492E-04 0.00000E+00
 -1       503 3.75957E-03 1.29524E-02 0.00000E+00
 -1       504 3.92959E-03 1.29945E-02 0.00000E+00
 -1       505 4.09434E-03 1.30255E-02 0.00000E+00
 -1       506 4.25436E-03 1.30481E-02 0.00000E+00
 -1       507 4.41033E-03 1.30645E-02 0.00000E+00
 -1       508 4.56292E-03 1.30765E-02 0.00000E+00
 -1       509 4.71276E-03 1.30854E-02 0.00000E+00
 -1       510 4.86036E-03 1.30924E-02 0.00000E+00
 -1       511 5.00614E-03 1.30984E-02 0.00000E+00
 -1       512 5.15045E-03 1.31042E-02 0.00000E+00
 -1       513 5.29355E-03 1.31106E-02 0.00000E+00
 -1       514 5.43562E-03 1.31183E-02 0.00000E+00
 -1       515 5.57684E-03 1.31280E-02 0.00000E+00
 -1       516 5.71734E-03 1.31406E-02 0.00000E+00
 -1       517 5.85721E-03 1.31570E-02 0.00000E+00
 -1       518 3.74286E-03 2.05037E-02 0.00000E+00
 -1       519 3.91160E-03 2.04435E-02 0.00000E+00
 -1       520 4.07523E-03 2.03929E-02 0.00000E+00
 -1       521 4.23426E-03 2.03495E-02 0.00000E+00
 -1       522 4.38933E-03 2.03111E-02 0.00000E+00
 -1       523 4.54107E-03 2.02763E-02 0.00000E+00
 -1       524 4.69006E-03 2.02439E-02 0.00000E+00
 -1       525 4.83676E-03 2.02132E-02 0.00000E+00
 -1       526 4.98153E-03 2.01834E-02 0.00000E+00
 -1       527 5.12462E-03 2.01543E-02 0.00000E+00
 -1       528 5.26625E-03 2.01254E-02 0.00000E+00
 -1       529 5.40655E-03 2.00965E-02 0.00000E+00
 -1       530 5.54560E-03 2.00673E-02 0.00000E+00
 -1       531 5.68351E-03 2.00376E-02 0.00000E+00
 -1       532 5.82033E-03 2.00068E-02 0.00000E+00
 -1       533 3.53246E-03 2.10574E-02 0.00000E+00
 -1       534 3.50328E-03 2.15315E-02 0.00000E+00
 -1       535 3.47960E-03 2.19988E-02 0.00000E+00
 -1       536 3.45941E-03 2.24604E-02 0.00000E+00
 -1       537 3.44115E-03 2.29175E-02 0.00000E+00
 -1       538 3.42363E-03 2.33709E-02 0.00000E+00
 -1       539 3.40596E-03 2.38213E-02 0.00000E+00
 -1       540 3.38747E-03 2.42693E-02 0.00000E+00
 -1       541 3.36764E-03 2.47152E-02 0.00000E+00
 -1       542 3.34605E-03 2.51594E-02 0.00000E+00
 -1       543 3.32239E-03 2.56020E-02 0.00000E+00
 -1       544 3.29637E-03 2.60429E-02 0.00000E+00
 -1       545 3.26777E-03 2.64823E-02 0.00000E+00
 -1       546 3.23642E-03 2.69199E-02 0.00000E+00
 -1       547 3.20215E-03 2.73557E-02 0.00000E+00
 -1       548 3.16488E-03 2.77894E-02 0.00000E+00
 -1       549 3.12453E-03 2.82207E-02 0.00000E+00
 -1       550 3.08111E-03 2.86493E-02 0.00000E+00
 -1       551 3.03466E-03 2.90750E-02 0.00000E+00
 -1       552 2.98533E-03 2.94973E-02 0.00000E+00
 -1       553 2.93330E-03 2.99159E-02 0.00000E+00
 -1       554 2.87885E-03 3.03304E-02 0.00000E+00
 -1       555 2.82235E-03 3.07406E-02 0.00000E+00
 -1       556 2.76422E-03 3.11460E-02 0.00000E+00
 -1       557 2.70496E-03 3.15464E-02 0.00000E+00
 -1       558 2.64510E-03 3.19417E-02 0.00000E+00
 -1       559 2.58523E-03 3.23317E-02 0.00000E+00
 -1       560 2.52592E-03 3.27162E-02 0.00000E+00
 -1       561 1.40304E-03 2.10574E-02 0.00000E+00
 -1       562 1.43221E-03 2.15315E-02 0.00000E+00
 -1       563 1.45589E-03 2.19988E-02 0.00000E+00
 -1       564 1.47609E-03 2.24604E-02 0.00000E+00
 -1       565 1.49435E-03 2.29175E-02 0.00000E+00
 -1       566 1.51187E-03 2.33709E-02 0.00000E+00
 -1       567 1.52953E-03 2.38213E-02 0.00000E+00
 -1       568 1.54802E-03 2.42693E-02 0.00000E+00
 -1       569 1.56786E-03 2.47152E-02 0.00000E+00
 -1       570 1.58944E-03 2.51594E-02 0.00000E+00
 -1       571 1.61311E-03 2.56020E-02 0.00000E+00
 -1       572 1.63913E-03 2.60429E-02 0.00000E+00
 -1       573 1.66772E-03 2.64823E-02 0.00000E+00
 -1       574 1.69908E-03 2.69199E-02 0.00000E+00
 -1       575 1.73334E-03 2.73557E-02 0.00000E+00
 -1       576 1.77062E-03 2.77894E-02 0.00000E+00
 -1       577 1.81097E-03 2.82207E-02 0.00000E+00
 -1       578 1.85439E-03 2.86493E-02 0.00000E+00
 -1       579 1.90083E-03 2.90750E-02 0.00000E+00
 -1       580 1.95017E-03 2.94973E-02 0.00000E+00
 -1       581 2.00220E-03 2.99159E-02 0.00000E+00
 -1       582 2.05664E-03 3.03304E-02 0.00000E+00
 -1       583 2.11314E-03 3.07406E-02 0.00000E+00
 -1       584 2.17127E-03 3.11460E-02 0.00000E+00
 -1       585 2.23054E-03 3.15464E-02 0.00000E+00
 -1       586 2.29039E-03 3.19417E-02 0.00000E+00
 -1       587 2.35027E-03 3.23317E-02 0.00000E+00
 -1       588 2.40958E-03 3.27162E-02 0.00000E+00
 -1       589 1.61008E-03 1.88468E-02 0.00000E+00
 -1       590 1.50269E-03 1.85603E-02 0.00000E+00
 -1       591 1.40688E-03 1.82579E-02 0.00000E+00
 -1       592 1.32660E-03 1.79410E-02 0.00000E+00
 -1       593 1.26458E-03 1.76116E-02 0.00000E+00
 -1       594 1.22256E-03 1.72722E-02 0.00000E+00
 -1       595 1.20150E-03 1.69264E-02 0.00000E+00
 -1       596 1.20178E-03 1.65785E-02 0.00000E+00
 -1       597 1.22340E-03 1.62330E-02 0.00000E+00
 -1       598 1.26589E-03 1.58943E-02 0.00000E+00
 -1       599 1.32827E-03 1.55659E-02 0.00000E+00
 -1       600 1.40877E-03 1.52503E-02 0.00000E+00
 -1       601 1.50465E-03 1.49493E-02 0.00000E+00
 -1       602 1.61195E-03 1.46643E-02 0.00000E+00
 -1       603 1.67022E-03 1.87488E-02 0.00000E+00
 -1       604 1.54320E-03 1.84693E-02 0.00000E+00
 -1       605 1.42546E-03 1.81781E-02 0.00000E+00
 -1       606 1.32365E-03 1.78761E-02 0.00000E+00
 -1       607 1.24315E-03 1.75639E-02 0.00000E+00
 -1       608 1.18774E-03 1.72432E-02 0.00000E+00
 -1       609 1.15969E-03 1.69166E-02 0.00000E+00
 -1       610 1.16000E-03 1.65881E-02 0.00000E+00
 -1       611 1.18864E-03 1.62619E-02 0.00000E+00
 -1       612 1.24453E-03 1.59417E-02 0.00000E+00
 -1       613 1.32534E-03 1.56304E-02 0.00000E+00
 -1       614 1.42728E-03 1.53295E-02 0.00000E+00
 -1       615 1.54495E-03 1.50396E-02 0.00000E+00
 -1       616 1.67173E-03 1.47616E-02 0.00000E+00
 -1       617 1.71348E-03 1.86875E-02 0.00000E+00
 -1       618 1.57573E-03 1.84100E-02 0.00000E+00
 -1       619 1.44347E-03 1.81237E-02 0.00000E+00
 -1       620 1.32542E-03 1.78297E-02 0.00000E+00
 -1       621 1.22959E-03 1.75284E-02 0.00000E+00
 -1       622 1.16231E-03 1.72209E-02 0.00000E+00
 -1       623 1.12781E-03 1.69089E-02 0.00000E+00
 -1       624 1.12813E-03 1.65954E-02 0.00000E+00
 -1       625 1.16322E-03 1.62837E-02 0.00000E+00
 -1       626 1.23095E-03 1.59767E-02 0.00000E+00
 -1       627 1.32703E-03 1.56762E-02 0.00000E+00
 -1       628 1.44511E-03 1.53832E-02 0.00000E+00
 -1       629 1.57719E-03 1.50982E-02 0.00000E+00
 -1       630 1.71461E-03 1.48222E-02 0.00000E+00
 -1       631 1.74160E-03 1.86587E-02 0.00000E+00
 -1       632 1.59969E-03 1.83793E-02 0.00000E+00
 -1       633 1.45897E-03 1.80927E-02 0.00000E+00
 -1       634 1.32949E-03 1.78009E-02 0.00000E+00
 -1       635 1.22156E-03 1.75050E-02 0.00000E+00
 -1       636 1.14422E-03 1.72054E-02 0.00000E+00
 -1       637 1.10401E-03 1.69033E-02 0.00000E+00
 -1       638 1.10432E-03 1.66003E-02 0.00000E+00
 -1       639 1.14509E-03 1.62984E-02 0.00000E+00
 -1       640 1.22284E-03 1.59993E-02 0.00000E+00
 -1       641 1.33095E-03 1.57041E-02 0.00000E+00
 -1       642 1.46036E-03 1.54133E-02 0.00000E+00
 -1       643 1.60082E-03 1.51280E-02 0.00000E+00
 -1       644 1.74232E-03 1.48501E-02 0.00000E+00
 -1       645 1.75606E-03 1.86591E-02 0.00000E+00
 -1       646 1.61476E-03 1.83744E-02 0.00000E+00
 -1       647 1.47043E-03 1.80834E-02 0.00000E+00
 -1       648 1.33378E-03 1.77891E-02 0.00000E+00
 -1       649 1.21692E-03 1.74933E-02 0.00000E+00
 -1       650 1.13145E-03 1.71967E-02 0.00000E+00
 -1       651 1.08640E-03 1.68998E-02 0.00000E+00
 -1       652 1.08669E-03 1.66027E-02 0.00000E+00
 -1       653 1.13225E-03 1.63060E-02 0.00000E+00
 -1       654 1.21805E-03 1.60099E-02 0.00000E+00
 -1       655 1.33501E-03 1.57148E-02 0.00000E+00
 -1       656 1.47152E-03 1.54215E-02 0.00000E+00
 -1       657 1.61551E-03 1.51318E-02 0.00000E+00
 -1       658 1.75635E-03 1.48487E-02 0.00000E+00
 -1       659 1.75812E-03 1.86863E-02 0.00000E+00
 -1       660 1.62078E-03 1.83934E-02 0.00000E+00
 -1       661 1.47662E-03 1.80943E-02 0.00000E+00
 -1       662 1.33644E-03 1.77933E-02 0.00000E+00
 -1       663 1.21361E-03 1.74931E-02 0.00000E+00
 -1       664 1.12200E-03 1.71948E-02 0.00000E+00
 -1       665 1.07307E-03 1.68984E-02 0.00000E+00
 -1       666 1.07333E-03 1.66027E-02 0.00000E+00
 -1       667 1.12270E-03 1.63064E-02 0.00000E+00
 -1       668 1.21457E-03 1.60087E-02 0.00000E+00
 -1       669 1.33740E-03 1.57092E-02 0.00000E+00
 -1       670 1.47736E-03 1.54092E-02 0.00000E+00
 -1       671 1.62111E-03 1.51115E-02 0.00000E+00
 -1       672 1.75794E-03 1.48202E-02 0.00000E+00
 -1       673 1.74877E-03 1.87389E-02 0.00000E+00
 -1       674 1.61764E-03 1.84347E-02 0.00000E+00
 -1       675 1.47654E-03 1.81243E-02 0.00000E+00
 -1       676 1.33587E-03 1.78128E-02 0.00000E+00
 -1       677 1.20978E-03 1.75040E-02 0.00000E+00
 -1       678 1.11395E-03 1.71996E-02 0.00000E+00
 -1       679 1.06212E-03 1.68991E-02 0.00000E+00
 -1       680 1.06233E-03 1.66001E-02 0.00000E+00
 -1       681 1.11452E-03 1.62999E-02 0.00000E+00
 -1       682 1.21052E-03 1.59959E-02 0.00000E+00
 -1       683 1.33653E-03 1.56879E-02 0.00000E+00
 -1       684 1.47689E-03 1.53775E-02 0.00000E+00
 -1       685 1.61752E-03 1.50686E-02 0.00000E+00
 -1       686 1.74808E-03 1.47661E-02 0.00000E+00
 -1       687 1.72877E-03 1.88158E-02 0.00000E+00
 -1       688 1.60529E-03 1.84974E-02 0.00000E+00
 -1       689 1.46934E-03 1.81726E-02 0.00000E+00
 -1       690 1.33066E-03 1.78471E-02 0.00000E+00
 -1       691 1.20366E-03 1.75257E-02 0.00000E+00
 -1       692 1.10543E-03 1.72109E-02 0.00000E+00
 -1       693 1.05165E-03 1.69018E-02 0.00000E+00
 -1       694 1.05182E-03 1.65951E-02 0.00000E+00
 -1       695 1.10586E-03 1.62863E-02 0.00000E+00
 -1       696 1.20416E-03 1.59719E-02 0.00000E+00
 -1       697 1.33098E-03 1.56514E-02 0.00000E+00
 -1       698 1.46926E-03 1.53271E-02 0.00000E+00
 -1       699 1.60465E-03 1.50039E-02 0.00000E+00
 -1       700 1.72751E-03 1.46873E-02 0.00000E+00
 -1       701 1.69867E-03 1.89168E-02 0.00000E+00
 -1       702 1.58363E-03 1.85810E-02 0.00000E+00
 -1       703 1.45433E-03 1.82387E-02 0.00000E+00
 -1       704 1.31957E-03 1.78959E-02 0.00000E+00
 -1       705 1.19368E-03 1.75581E-02 0.00000E+00
 -1       706 1.09468E-03 1.72286E-02 0.00000E+00
 -1       707 1.03986E-03 1.69065E-02 0.00000E+00
 -1       708 1.03998E-03 1.65875E-02 0.00000E+00
 -1       709 1.09495E-03 1.62657E-02 0.00000E+00
 -1       710 1.19390E-03 1.59368E-02 0.00000E+00
 -1       711 1.31951E-03 1.56000E-02 0.00000E+00
 -1       712 1.45377E-03 1.52584E-02 0.00000E+00
 -1       713 1.58243E-03 1.49178E-02 0.00000E+00
 -1       714 1.69674E-03 1.45840E-02 0.00000E+00
 -1       715 1.65879E-03 1.90419E-02 0.00000E+00
 -1       716 1.55256E-03 1.86855E-02 0.00000E+00
 -1       717 1.43086E-03 1.83223E-02 0.00000E+00
 -1       718 1.30149E-03 1.79588E-02 0.00000E+00
 -1       719 1.17837E-03 1.76010E-02 0.00000E+00
 -1       720 1.08003E-03 1.72527E-02 0.00000E+00
 -1       721 1.02500E-03 1.69132E-02 0.00000E+00
 -1       722 1.02506E-03 1.65774E-02 0.00000E+00
 -1       723 1.08013E-03 1.62382E-02 0.00000E+00
 -1       724 1.17830E-03 1.58905E-02 0.00000E+00
 -1       725 1.30102E-03 1.55337E-02 0.00000E+00
 -1       726 1.42978E-03 1.51716E-02 0.00000E+00
 -1       727 1.55072E-03 1.48102E-02 0.00000E+00
 -1       728 1.65608E-03 1.44559E-02 0.00000E+00
 -1       729 1.60933E-03 1.91918E-02 0.00000E+00
 -1       730 1.51193E-03 1.88111E-02 0.00000E+00
 -1       731 1.39836E-03 1.84238E-02 0.00000E+00
 -1       732 1.27543E-03 1.80360E-02 0.00000E+00
 -1       733 1.15639E-03 1.76544E-02 0.00000E+00
 -1       734 1.05994E-03 1.72831E-02 0.00000E+00
 -1       735 1.00542E-03 1.69218E-02 0.00000E+00
 -1       736 1.00541E-03 1.65646E-02 0.00000E+00
 -1       737 1.05984E-03 1.62036E-02 0.00000E+00
 -1       738 1.15600E-03 1.58331E-02 0.00000E+00
 -1       739 1.27450E-03 1.54526E-02 0.00000E+00
 -1       740 1.39667E-03 1.50663E-02 0.00000E+00
 -1       741 1.50931E-03 1.46808E-02 0.00000E+00
 -1       742 1.60564E-03 1.43025E-02 0.00000E+00
 -1       743 1.55032E-03 1.93674E-02 0.00000E+00
 -1       744 1.46150E-03 1.89587E-02 0.00000E+00
 -1       745 1.35628E-03 1.85434E-02 0.00000E+00
 -1       746 1.24046E-03 1.81277E-02 0.00000E+00
 -1       747 1.12651E-03 1.77183E-02 0.00000E+00
 -1       748 1.03294E-03 1.73200E-02 0.00000E+00
 -1       749 9.79543E-04 1.69323E-02 0.00000E+00
 -1       750 9.79465E-04 1.65491E-02 0.00000E+00
 -1       751 1.03263E-03 1.61618E-02 0.00000E+00
 -1       752 1.12576E-03 1.57642E-02 0.00000E+00
 -1       753 1.23902E-03 1.53560E-02 0.00000E+00
 -1       754 1.35389E-03 1.49419E-02 0.00000E+00
 -1       755 1.45795E-03 1.45286E-02 0.00000E+00
 -1       756 1.54539E-03 1.41224E-02 0.00000E+00
 -1       757 1.48167E-03 1.95702E-02 0.00000E+00
 -1       758 1.40103E-03 1.91292E-02 0.00000E+00
 -1       759 1.30410E-03 1.86820E-02 0.00000E+00
 -1       760 1.19573E-03 1.82343E-02 0.00000E+00
 -1       761 1.08756E-03 1.77931E-02 0.00000E+00
 -1       762 9.97636E-04 1.73633E-02 0.00000E+00
 -1       763 9.45872E-04 1.69446E-02 0.00000E+00
 -1       764 9.45719E-04 1.65307E-02 0.00000E+00
 -1       765 9.97095E-04 1.61124E-02 0.00000E+00
 -1       766 1.08641E-03 1.56833E-02 0.00000E+00
 -1       767 1.19369E-03 1.52434E-02 0.00000E+00
 -1       768 1.30086E-03 1.47976E-02 0.00000E+00
 -1       769 1.39631E-03 1.43525E-02 0.00000E+00
 -1       770 1.47515E-03 1.39141E-02 0.00000E+00
 -1       771 1.40320E-03 1.98016E-02 0.00000E+00
 -1       772 1.33018E-03 1.93239E-02 0.00000E+00
 -1       773 1.24124E-03 1.88404E-02 0.00000E+00
 -1       774 1.14041E-03 1.83567E-02 0.00000E+00
 -1       775 1.03842E-03 1.78793E-02 0.00000E+00
 -1       776 9.52689E-04 1.74134E-02 0.00000E+00
 -1       777 9.02954E-04 1.69588E-02 0.00000E+00
 -1       778 9.02721E-04 1.65091E-02 0.00000E+00
 -1       779 9.51897E-04 1.60550E-02 0.00000E+00
 -1       780 1.03682E-03 1.55899E-02 0.00000E+00
 -1       781 1.13768E-03 1.51140E-02 0.00000E+00
 -1       782 1.23698E-03 1.46321E-02 0.00000E+00
 -1       783 1.32398E-03 1.41509E-02 0.00000E+00
 -1       784 1.39460E-03 1.36759E-02 0.00000E+00
 -1       785 1.82521E-03 1.41269E-02 0.00000E+00
 -1       786 1.92369E-03 1.38798E-02 0.00000E+00
 -1       787 2.02138E-03 1.36627E-02 0.00000E+00
 -1       788 2.11898E-03 1.34820E-02 0.00000E+00
 -1       789 2.21730E-03 1.33424E-02 0.00000E+00
 -1       790 2.31678E-03 1.32475E-02 0.00000E+00
 -1       791 2.41729E-03 1.31995E-02 0.00000E+00
 -1       792 2.51821E-03 1.31995E-02 0.00000E+00
 -1       793 2.61871E-03 1.32475E-02 0.00000E+00
 -1       794 2.71819E-03 1.33424E-02 0.00000E+00
 -1       795 2.81652E-03 1.34820E-02 0.00000E+00
 -1       796 2.91412E-03 1.36627E-02 0.00000E+00
 -1       797 3.01181E-03 1.38798E-02 0.00000E+00
 -1       798 3.11028E-03 1.41269E-02 0.00000E+00
 -1       799 1.90615E-03 1.42180E-02 0.00000E+00
 -1       800 2.00530E-03 1.39546E-02 0.00000E+00
 -1       801 2.09777E-03 1.37165E-02 0.00000E+00
 -1       802 2.18456E-03 1.35133E-02 0.00000E+00
 -1       803 2.26742E-03 1.33535E-02 0.00000E+00
 -1       804 2.34813E-03 1.32434E-02 0.00000E+00
 -1       805 2.42794E-03 1.31874E-02 0.00000E+00
 -1       806 2.50755E-03 1.31874E-02 0.00000E+00
 -1       807 2.58737E-03 1.32434E-02 0.00000E+00
 -1       808 2.66807E-03 1.33535E-02 0.00000E+00
 -1       809 2.75093E-03 1.35133E-02 0.00000E+00
 -1       810 2.83772E-03 1.37165E-02 0.00000E+00
 -1       811 2.93020E-03 1.39546E-02 0.00000E+00
 -1       812 3.02935E-03 1.42180E-02 0.00000E+00
 -1       813 1.95998E-03 1.42798E-02 0.00000E+00
 -1       814 2.06191E-03 1.40100E-02 0.00000E+00
 -1       815 2.15334E-03 1.37593E-02 0.00000E+00
 -1       816 2.23447E-03 1.35402E-02 0.00000E+00
 -1       817 2.30703E-03 1.33642E-02 0.00000E+00
 -1       818 2.37357E-03 1.32412E-02 0.00000E+00
 -1       819 2.43671E-03 1.31779E-02 0.00000E+00
 -1       820 2.49878E-03 1.31779E-02 0.00000E+00
 -1       821 2.56192E-03 1.32412E-02 0.00000E+00
 -1       822 2.62846E-03 1.33642E-02 0.00000E+00
 -1       823 2.70102E-03 1.35402E-02 0.00000E+00
 -1       824 2.78216E-03 1.37593E-02 0.00000E+00
 -1       825 2.87359E-03 1.40100E-02 0.00000E+00
 -1       826 2.97551E-03 1.42798E-02 0.00000E+00
 -1       827 1.99161E-03 1.43133E-02 0.00000E+00
 -1       828 2.09742E-03 1.40446E-02 0.00000E+00
 -1       829 2.19063E-03 1.37885E-02 0.00000E+00
 -1       830 2.27005E-03 1.35592E-02 0.00000E+00
 -1       831 2.33667E-03 1.33712E-02 0.00000E+00
 -1       832 2.39326E-03 1.32377E-02 0.00000E+00
 -1       833 2.44362E-03 1.31683E-02 0.00000E+00
 -1       834 2.49188E-03 1.31683E-02 0.00000E+00
 -1       835 2.54224E-03 1.32377E-02 0.00000E+00
 -1       836 2.59883E-03 1.33712E-02 0.00000E+00
 -1       837 2.66545E-03 1.35592E-02 0.00000E+00
 -1       838 2.74487E-03 1.37885E-02 0.00000E+00
 -1       839 2.83808E-03 1.40446E-02 0.00000E+00
 -1       840 2.94388E-03 1.43133E-02 0.00000E+00
 -1       841 2.00494E-03 1.43192E-02 0.00000E+00
 -1       842 2.11516E-03 1.40572E-02 0.00000E+00
 -1       843 2.21201E-03 1.38015E-02 0.00000E+00
 -1       844 2.29267E-03 1.35673E-02 0.00000E+00
 -1       845 2.35695E-03 1.33713E-02 0.00000E+00
 -1       846 2.40740E-03 1.32298E-02 0.00000E+00
 -1       847 2.44869E-03 1.31555E-02 0.00000E+00
 -1       848 2.48680E-03 1.31555E-02 0.00000E+00
 -1       849 2.52810E-03 1.32298E-02 0.00000E+00
 -1       850 2.57854E-03 1.33713E-02 0.00000E+00
 -1       851 2.64283E-03 1.35673E-02 0.00000E+00
 -1       852 2.72349E-03 1.38015E-02 0.00000E+00
 -1       853 2.82033E-03 1.40572E-02 0.00000E+00
 -1       854 2.93056E-03 1.43192E-02 0.00000E+00
 -1       855 2.00301E-03 1.42982E-02 0.00000E+00
 -1       856 2.11793E-03 1.40468E-02 0.00000E+00
 -1       857 2.21961E-03 1.37962E-02 0.00000E+00
 -1       858 2.30370E-03 1.35616E-02 0.00000E+00
 -1       859 2.36863E-03 1.33614E-02 0.00000E+00
 -1       860 2.41630E-03 1.32144E-02 0.00000E+00
 -1       861 2.45202E-03 1.31365E-02 0.00000E+00
 -1       862 2.48348E-03 1.31365E-02 0.00000E+00
 -1       863 2.51920E-03 1.32144E-02 0.00000E+00
 -1       864 2.56687E-03 1.33614E-02 0.00000E+00
 -1       865 2.63179E-03 1.35616E-02 0.00000E+00
 -1       866 2.71589E-03 1.37962E-02 0.00000E+00
 -1       867 2.81757E-03 1.40468E-02 0.00000E+00
 -1       868 2.93248E-03 1.42982E-02 0.00000E+00
 -1       869 1.98817E-03 1.42504E-02 0.00000E+00
 -1       870 2.10798E-03 1.40125E-02 0.00000E+00
 -1       871 2.21531E-03 1.37706E-02 0.00000E+00
 -1       872 2.30447E-03 1.35394E-02 0.00000E+00
 -1       873 2.37244E-03 1.33384E-02 0.00000E+00
 -1       874 2.42031E-03 1.31886E-02 0.00000E+00
 -1       875 2.45369E-03 1.31083E-02 0.00000E+00
 -1       876 2.48180E-03 1.31083E-02 0.00000E+00
 -1       877 2.51519E-03 1.31886E-02 0.00000E+00
 -1       878 2.56305E-03 1.33384E-02 0.00000E+00
 -1       879 2.63102E-03 1.35394E-02 0.00000E+00
 -1       880 2.72019E-03 1.37706E-02 0.00000E+00
 -1       881 2.82751E-03 1.40125E-02 0.00000E+00
 -1       882 2.94732E-03 1.42504E-02 0.00000E+00
 -1       883 1.96217E-03 1.41758E-02 0.00000E+00
 -1       884 2.08711E-03 1.39533E-02 0.00000E+00
 -1       885 2.20069E-03 1.37228E-02 0.00000E+00
 -1       886 2.29616E-03 1.34983E-02 0.00000E+00
 -1       887 2.36917E-03 1.32995E-02 0.00000E+00
 -1       888 2.41982E-03 1.31491E-02 0.00000E+00
 -1       889 2.45383E-03 1.30677E-02 0.00000E+00
 -1       890 2.48167E-03 1.30677E-02 0.00000E+00
 -1       891 2.51568E-03 1.31491E-02 0.00000E+00
 -1       892 2.56633E-03 1.32995E-02 0.00000E+00
 -1       893 2.63933E-03 1.34983E-02 0.00000E+00
 -1       894 2.73481E-03 1.37228E-02 0.00000E+00
 -1       895 2.84838E-03 1.39533E-02 0.00000E+00
 -1       896 2.97333E-03 1.41758E-02 0.00000E+00
 -1       897 1.92624E-03 1.40739E-02 0.00000E+00
 -1       898 2.05668E-03 1.38681E-02 0.00000E+00
 -1       899 2.17703E-03 1.36511E-02 0.00000E+00
 -1       900 2.27982E-03 1.34358E-02 0.00000E+00
 -1       901 2.35950E-03 1.32419E-02 0.00000E+00
 -1       902 2.41521E-03 1.30930E-02 0.00000E+00
 -1       903 2.45254E-03 1.30117E-02 0.00000E+00
 -1       904 2.48295E-03 1.30117E-02 0.00000E+00
 -1       905 2.52028E-03 1.30930E-02 0.00000E+00
 -1       906 2.57599E-03 1.32419E-02 0.00000E+00
 -1       907 2.65568E-03 1.34358E-02 0.00000E+00
 -1       908 2.75846E-03 1.36511E-02 0.00000E+00
 -1       909 2.87882E-03 1.38681E-02 0.00000E+00
 -1       910 3.00926E-03 1.40739E-02 0.00000E+00
 -1       911 1.88123E-03 1.39439E-02 0.00000E+00
 -1       912 2.01767E-03 1.37556E-02 0.00000E+00
 -1       913 2.14535E-03 1.35536E-02 0.00000E+00
 -1       914 2.25631E-03 1.33497E-02 0.00000E+00
 -1       915 2.34409E-03 1.31628E-02 0.00000E+00
 -1       916 2.40686E-03 1.30174E-02 0.00000E+00
 -1       917 2.44996E-03 1.29371E-02 0.00000E+00
 -1       918 2.48554E-03 1.29371E-02 0.00000E+00
 -1       919 2.52863E-03 1.30174E-02 0.00000E+00
 -1       920 2.59141E-03 1.31628E-02 0.00000E+00
 -1       921 2.67918E-03 1.33497E-02 0.00000E+00
 -1       922 2.79015E-03 1.35536E-02 0.00000E+00
 -1       923 2.91783E-03 1.37556E-02 0.00000E+00
 -1       924 3.05427E-03 1.39439E-02 0.00000E+00
 -1       925 1.82764E-03 1.37847E-02 0.00000E+00
 -1       926 1.97075E-03 1.36144E-02 0.00000E+00
 -1       927 2.10637E-03 1.34285E-02 0.00000E+00
 -1       928 2.22633E-03 1.32375E-02 0.00000E+00
 -1       929 2.32346E-03 1.30595E-02 0.00000E+00
 -1       930 2.39510E-03 1.29191E-02 0.00000E+00
 -1       931 2.44618E-03 1.28410E-02 0.00000E+00
 -1       932 2.48932E-03 1.28410E-02 0.00000E+00
 -1       933 2.54040E-03 1.29191E-02 0.00000E+00
 -1       934 2.61203E-03 1.30595E-02 0.00000E+00
 -1       935 2.70916E-03 1.32375E-02 0.00000E+00
 -1       936 2.82913E-03 1.34285E-02 0.00000E+00
 -1       937 2.96475E-03 1.36144E-02 0.00000E+00
 -1       938 3.10786E-03 1.37847E-02 0.00000E+00
 -1       939 1.76571E-03 1.35948E-02 0.00000E+00
 -1       940 1.91633E-03 1.34427E-02 0.00000E+00
 -1       941 2.06060E-03 1.32737E-02 0.00000E+00
 -1       942 2.19039E-03 1.30968E-02 0.00000E+00
 -1       943 2.29804E-03 1.29293E-02 0.00000E+00
 -1       944 2.38018E-03 1.27954E-02 0.00000E+00
 -1       945 2.44130E-03 1.27202E-02 0.00000E+00
 -1       946 2.49420E-03 1.27202E-02 0.00000E+00
 -1       947 2.55532E-03 1.27954E-02 0.00000E+00
 -1       948 2.63745E-03 1.29293E-02 0.00000E+00
 -1       949 2.74510E-03 1.30968E-02 0.00000E+00
 -1       950 2.87489E-03 1.32737E-02 0.00000E+00
 -1       951 3.01917E-03 1.34427E-02 0.00000E+00
 -1       952 3.16978E-03 1.35948E-02 0.00000E+00
 -1       953 1.69551E-03 1.33723E-02 0.00000E+00
 -1       954 1.85460E-03 1.32387E-02 0.00000E+00
 -1       955 2.00836E-03 1.30871E-02 0.00000E+00
 -1       956 2.14883E-03 1.29252E-02 0.00000E+00
 -1       957 2.26813E-03 1.27694E-02 0.00000E+00
 -1       958 2.36230E-03 1.26431E-02 0.00000E+00
 -1       959 2.43537E-03 1.25715E-02 0.00000E+00
 -1       960 2.50012E-03 1.25715E-02 0.00000E+00
 -1       961 2.57320E-03 1.26431E-02 0.00000E+00
 -1       962 2.66737E-03 1.27694E-02 0.00000E+00
 -1       963 2.78666E-03 1.29252E-02 0.00000E+00
 -1       964 2.92713E-03 1.30871E-02 0.00000E+00
 -1       965 3.08089E-03 1.32387E-02 0.00000E+00
 -1       966 3.23999E-03 1.33723E-02 0.00000E+00
 -1       967 1.61693E-03 1.31150E-02 0.00000E+00
 -1       968 1.78564E-03 1.30001E-02 0.00000E+00
 -1       969 1.94983E-03 1.28662E-02 0.00000E+00
 -1       970 2.10186E-03 1.27201E-02 0.00000E+00
 -1       971 2.23386E-03 1.25768E-02 0.00000E+00
 -1       972 2.34152E-03 1.24591E-02 0.00000E+00
 -1       973 2.42843E-03 1.23918E-02 0.00000E+00
 -1       974 2.50707E-03 1.23918E-02 0.00000E+00
 -1       975 2.59397E-03 1.24591E-02 0.00000E+00
 -1       976 2.70164E-03 1.25768E-02 0.00000E+00
 -1       977 2.83364E-03 1.27201E-02 0.00000E+00
 -1       978 2.98567E-03 1.28662E-02 0.00000E+00
 -1       979 3.14985E-03 1.30001E-02 0.00000E+00
 -1       980 3.31856E-03 1.31150E-02 0.00000E+00
 -1       981 3.32355E-03 1.46643E-02 0.00000E+00
 -1       982 3.43085E-03 1.49493E-02 0.00000E+00
 -1       983 3.52672E-03 1.52503E-02 0.00000E+00
 -1       984 3.60723E-03 1.55659E-02 0.00000E+00
 -1       985 3.66961E-03 1.58943E-02 0.00000E+00
 -1       986 3.71210E-03 1.62330E-02 0.00000E+00
 -1       987 3.73371E-03 1.65785E-02 0.00000E+00
 -1       988 3.73400E-03 1.69264E-02 0.00000E+00
 -1       989 3.71293E-03 1.72722E-02 0.00000E+00
 -1       990 3.67092E-03 1.76116E-02 0.00000E+00
 -1       991 3.60890E-03 1.79410E-02 0.00000E+00
 -1       992 3.52861E-03 1.82579E-02 0.00000E+00
 -1       993 3.43280E-03 1.85603E-02 0.00000E+00
 -1       994 3.32542E-03 1.88468E-02 0.00000E+00
 -1       995 3.26376E-03 1.47616E-02 0.00000E+00
 -1       996 3.39055E-03 1.50396E-02 0.00000E+00
 -1       997 3.50821E-03 1.53295E-02 0.00000E+00
 -1       998 3.61015E-03 1.56304E-02 0.00000E+00
 -1       999 3.69097E-03 1.59417E-02 0.00000E+00
 -1      1000 3.74686E-03 1.62619E-02 0.00000E+00
 -1      1001 3.77550E-03 1.65881E-02 0.00000E+00
 -1      1002 3.77581E-03 1.69166E-02 0.00000E+00
 -1      1003 3.74776E-03 1.72432E-02 0.00000E+00
 -1      1004 3.69235E-03 1.75639E-02 0.00000E+00
 -1      1005 3.61185E-03 1.78761E-02 0.00000E+00
 -1      1006 3.51004E-03 1.81781E-02 0.00000E+00
 -1      1007 3.39230E-03 1.84693E-02 0.00000E+00
 -1      1008 3.26528E-03 1.87488E-02 0.00000E+00
 -1      1009 3.22089E-03 1.48222E-02 0.00000E+00
 -1      1010 3.35830E-03 1.50982E-02 0.00000E+00
 -1      1011 3.49038E-03 1.53832E-02 0.00000E+00
 -1      1012 3.60846E-03 1.56762E-02 0.00000E+00
 -1      1013 3.70455E-03 1.59767E-02 0.00000E+00
 -1      1014 3.77228E-03 1.62837E-02 0.00000E+00
 -1      1015 3.80736E-03 1.65954E-02 0.00000E+00
 -1      1016 3.80768E-03 1.69089E-02 0.00000E+00
 -1      1017 3.77318E-03 1.72209E-02 0.00000E+00
 -1      1018 3.70591E-03 1.75284E-02 0.00000E+00
 -1      1019 3.61008E-03 1.78297E-02 0.00000E+00
 -1      1020 3.49203E-03 1.81237E-02 0.00000E+00
 -1      1021 3.35977E-03 1.84100E-02 0.00000E+00
 -1      1022 3.22202E-03 1.86875E-02 0.00000E+00
 -1      1023 3.19318E-03 1.48501E-02 0.00000E+00
 -1      1024 3.33468E-03 1.51280E-02 0.00000E+00
 -1      1025 3.47513E-03 1.54133E-02 0.00000E+00
 -1      1026 3.60455E-03 1.57041E-02 0.00000E+00
 -1      1027 3.71266E-03 1.59993E-02 0.00000E+00
 -1      1028 3.79040E-03 1.62984E-02 0.00000E+00
 -1      1029 3.83117E-03 1.66003E-02 0.00000E+00
 -1      1030 3.83148E-03 1.69033E-02 0.00000E+00
 -1      1031 3.79128E-03 1.72054E-02 0.00000E+00
 -1      1032 3.71393E-03 1.75050E-02 0.00000E+00
 -1      1033 3.60601E-03 1.78009E-02 0.00000E+00
 -1      1034 3.47653E-03 1.80927E-02 0.00000E+00
 -1      1035 3.33581E-03 1.83793E-02 0.00000E+00
 -1      1036 3.19390E-03 1.86587E-02 0.00000E+00
 -1      1037 3.17915E-03 1.48487E-02 0.00000E+00
 -1      1038 3.31999E-03 1.51318E-02 0.00000E+00
 -1      1039 3.46398E-03 1.54215E-02 0.00000E+00
 -1      1040 3.60049E-03 1.57148E-02 0.00000E+00
 -1      1041 3.71744E-03 1.60099E-02 0.00000E+00
 -1      1042 3.80325E-03 1.63060E-02 0.00000E+00
 -1      1043 3.84880E-03 1.66027E-02 0.00000E+00
 -1      1044 3.84909E-03 1.68998E-02 0.00000E+00
 -1      1045 3.80405E-03 1.71967E-02 0.00000E+00
 -1      1046 3.71858E-03 1.74933E-02 0.00000E+00
 -1      1047 3.60172E-03 1.77891E-02 0.00000E+00
 -1      1048 3.46507E-03 1.80834E-02 0.00000E+00
 -1      1049 3.32073E-03 1.83744E-02 0.00000E+00
 -1      1050 3.17943E-03 1.86591E-02 0.00000E+00
 -1      1051 3.17755E-03 1.48202E-02 0.00000E+00
 -1      1052 3.31439E-03 1.51115E-02 0.00000E+00
 -1      1053 3.45814E-03 1.54092E-02 0.00000E+00
 -1      1054 3.59809E-03 1.57092E-02 0.00000E+00
 -1      1055 3.72092E-03 1.60087E-02 0.00000E+00
 -1      1056 3.81279E-03 1.63064E-02 0.00000E+00
 -1      1057 3.86216E-03 1.66027E-02 0.00000E+00
 -1      1058 3.86242E-03 1.68984E-02 0.00000E+00
 -1      1059 3.81350E-03 1.71948E-02 0.00000E+00
 -1      1060 3.72188E-03 1.74931E-02 0.00000E+00
 -1      1061 3.59906E-03 1.77933E-02 0.00000E+00
 -1      1062 3.45887E-03 1.80943E-02 0.00000E+00
 -1      1063 3.31472E-03 1.83934E-02 0.00000E+00
 -1      1064 3.17737E-03 1.86863E-02 0.00000E+00
 -1      1065 3.18741E-03 1.47661E-02 0.00000E+00
 -1      1066 3.31798E-03 1.50686E-02 0.00000E+00
 -1      1067 3.45861E-03 1.53775E-02 0.00000E+00
 -1      1068 3.59897E-03 1.56879E-02 0.00000E+00
 -1      1069 3.72498E-03 1.59959E-02 0.00000E+00
 -1      1070 3.82097E-03 1.62999E-02 0.00000E+00
 -1      1071 3.87316E-03 1.66001E-02 0.00000E+00
 -1      1072 3.87338E-03 1.68991E-02 0.00000E+00
 -1      1073 3.82155E-03 1.71996E-02 0.00000E+00
 -1      1074 3.72572E-03 1.75040E-02 0.00000E+00
 -1      1075 3.59963E-03 1.78128E-02 0.00000E+00
 -1      1076 3.45896E-03 1.81243E-02 0.00000E+00
 -1      1077 3.31785E-03 1.84347E-02 0.00000E+00
 -1      1078 3.18672E-03 1.87389E-02 0.00000E+00
 -1      1079 3.20798E-03 1.46873E-02 0.00000E+00
 -1      1080 3.33084E-03 1.50039E-02 0.00000E+00
 -1      1081 3.46623E-03 1.53271E-02 0.00000E+00
 -1      1082 3.60452E-03 1.56514E-02 0.00000E+00
 -1      1083 3.73134E-03 1.59719E-02 0.00000E+00
 -1      1084 3.82964E-03 1.62863E-02 0.00000E+00
 -1      1085 3.88367E-03 1.65951E-02 0.00000E+00
 -1      1086 3.88384E-03 1.69018E-02 0.00000E+00
 -1      1087 3.83007E-03 1.72109E-02 0.00000E+00
 -1      1088 3.73184E-03 1.75257E-02 0.00000E+00
 -1      1089 3.60484E-03 1.78471E-02 0.00000E+00
 -1      1090 3.46615E-03 1.81726E-02 0.00000E+00
 -1      1091 3.33021E-03 1.84974E-02 0.00000E+00
 -1      1092 3.20672E-03 1.88158E-02 0.00000E+00
 -1      1093 3.23875E-03 1.45840E-02 0.00000E+00
 -1      1094 3.35306E-03 1.49178E-02 0.00000E+00
 -1      1095 3.48172E-03 1.52584E-02 0.00000E+00
 -1      1096 3.61598E-03 1.56000E-02 0.00000E+00
 -1      1097 3.74159E-03 1.59368E-02 0.00000E+00
 -1      1098 3.84055E-03 1.62657E-02 0.00000E+00
 -1      1099 3.89552E-03 1.65875E-02 0.00000E+00
 -1      1100 3.89564E-03 1.69065E-02 0.00000E+00
 -1      1101 3.84082E-03 1.72286E-02 0.00000E+00
 -1      1102 3.74182E-03 1.75581E-02 0.00000E+00
 -1      1103 3.61593E-03 1.78959E-02 0.00000E+00
 -1      1104 3.48117E-03 1.82387E-02 0.00000E+00
 -1      1105 3.35187E-03 1.85810E-02 0.00000E+00
 -1      1106 3.23683E-03 1.89168E-02 0.00000E+00
 -1      1107 3.27942E-03 1.44559E-02 0.00000E+00
 -1      1108 3.38478E-03 1.48102E-02 0.00000E+00
 -1      1109 3.50572E-03 1.51716E-02 0.00000E+00
 -1      1110 3.63448E-03 1.55337E-02 0.00000E+00
 -1      1111 3.75720E-03 1.58905E-02 0.00000E+00
 -1      1112 3.85537E-03 1.62382E-02 0.00000E+00
 -1      1113 3.91044E-03 1.65774E-02 0.00000E+00
 -1      1114 3.91049E-03 1.69132E-02 0.00000E+00
 -1      1115 3.85546E-03 1.72527E-02 0.00000E+00
 -1      1116 3.75713E-03 1.76010E-02 0.00000E+00
 -1      1117 3.63401E-03 1.79588E-02 0.00000E+00
 -1      1118 3.50464E-03 1.83223E-02 0.00000E+00
 -1      1119 3.38293E-03 1.86855E-02 0.00000E+00
 -1      1120 3.27670E-03 1.90419E-02 0.00000E+00
 -1      1121 3.32986E-03 1.43025E-02 0.00000E+00
 -1      1122 3.42619E-03 1.46808E-02 0.00000E+00
 -1      1123 3.53882E-03 1.50663E-02 0.00000E+00
 -1      1124 3.66100E-03 1.54526E-02 0.00000E+00
 -1      1125 3.77950E-03 1.58331E-02 0.00000E+00
 -1      1126 3.87565E-03 1.62036E-02 0.00000E+00
 -1      1127 3.93009E-03 1.65646E-02 0.00000E+00
 -1      1128 3.93008E-03 1.69218E-02 0.00000E+00
 -1      1129 3.87555E-03 1.72831E-02 0.00000E+00
 -1      1130 3.77910E-03 1.76544E-02 0.00000E+00
 -1      1131 3.66007E-03 1.80360E-02 0.00000E+00
 -1      1132 3.53714E-03 1.84238E-02 0.00000E+00
 -1      1133 3.42357E-03 1.88111E-02 0.00000E+00
 -1      1134 3.32617E-03 1.91918E-02 0.00000E+00
 -1      1135 3.39011E-03 1.41224E-02 0.00000E+00
 -1      1136 3.47755E-03 1.45286E-02 0.00000E+00
 -1      1137 3.58160E-03 1.49419E-02 0.00000E+00
 -1      1138 3.69648E-03 1.53560E-02 0.00000E+00
 -1      1139 3.80973E-03 1.57642E-02 0.00000E+00
 -1      1140 3.90287E-03 1.61618E-02 0.00000E+00
 -1      1141 3.95603E-03 1.65491E-02 0.00000E+00
 -1      1142 3.95595E-03 1.69323E-02 0.00000E+00
 -1      1143 3.90255E-03 1.73200E-02 0.00000E+00
 -1      1144 3.80898E-03 1.77183E-02 0.00000E+00
 -1      1145 3.69504E-03 1.81277E-02 0.00000E+00
 -1      1146 3.57921E-03 1.85434E-02 0.00000E+00
 -1      1147 3.47399E-03 1.89587E-02 0.00000E+00
 -1      1148 3.38518E-03 1.93674E-02 0.00000E+00
 -1      1149 3.46035E-03 1.39141E-02 0.00000E+00
 -1      1150 3.53919E-03 1.43525E-02 0.00000E+00
 -1      1151 3.63463E-03 1.47976E-02 0.00000E+00
 -1      1152 3.74180E-03 1.52434E-02 0.00000E+00
 -1      1153 3.84908E-03 1.56833E-02 0.00000E+00
 -1      1154 3.93840E-03 1.61124E-02 0.00000E+00
 -1      1155 3.98978E-03 1.65307E-02 0.00000E+00
 -1      1156 3.98962E-03 1.69446E-02 0.00000E+00
 -1      1157 3.93786E-03 1.73633E-02 0.00000E+00
 -1      1158 3.84793E-03 1.77931E-02 0.00000E+00
 -1      1159 3.73976E-03 1.82343E-02 0.00000E+00
 -1      1160 3.63140E-03 1.86820E-02 0.00000E+00
 -1      1161 3.53446E-03 1.91292E-02 0.00000E+00
 -1      1162 3.45383E-03 1.95702E-02 0.00000E+00
 -1      1163 3.54090E-03 1.36759E-02 0.00000E+00
 -1      1164 3.61151E-03 1.41509E-02 0.00000E+00
 -1      1165 3.69852E-03 1.46321E-02 0.00000E+00
 -1      1166 3.79782E-03 1.51140E-02 0.00000E+00
 -1      1167 3.89867E-03 1.55899E-02 0.00000E+00
 -1      1168 3.98360E-03 1.60550E-02 0.00000E+00
 -1      1169 4.03278E-03 1.65091E-02 0.00000E+00
 -1      1170 4.03254E-03 1.69588E-02 0.00000E+00
 -1      1171 3.98281E-03 1.74134E-02 0.00000E+00
 -1      1172 3.89708E-03 1.78793E-02 0.00000E+00
 -1      1173 3.79509E-03 1.83567E-02 0.00000E+00
 -1      1174 3.69426E-03 1.88404E-02 0.00000E+00
 -1      1175 3.60531E-03 1.93239E-02 0.00000E+00
 -1      1176 3.53229E-03 1.98016E-02 0.00000E+00
 -1      1177 3.11174E-03 1.93880E-02 0.00000E+00
 -1      1178 3.01305E-03 1.96370E-02 0.00000E+00
 -1      1179 2.91513E-03 1.98559E-02 0.00000E+00
 -1      1180 2.81730E-03 2.00383E-02 0.00000E+00
 -1      1181 2.71876E-03 2.01793E-02 0.00000E+00
 -1      1182 2.61905E-03 2.02751E-02 0.00000E+00
 -1      1183 2.51832E-03 2.03236E-02 0.00000E+00
 -1      1184 2.41718E-03 2.03236E-02 0.00000E+00
 -1      1185 2.31644E-03 2.02751E-02 0.00000E+00
 -1      1186 2.21674E-03 2.01793E-02 0.00000E+00
 -1      1187 2.11819E-03 2.00383E-02 0.00000E+00
 -1      1188 2.02037E-03 1.98559E-02 0.00000E+00
 -1      1189 1.92245E-03 1.96370E-02 0.00000E+00
 -1      1190 1.82376E-03 1.93880E-02 0.00000E+00
 -1      1191 3.03025E-03 1.92961E-02 0.00000E+00
 -1      1192 2.93086E-03 1.95615E-02 0.00000E+00
 -1      1193 2.83816E-03 1.98017E-02 0.00000E+00
 -1      1194 2.75120E-03 2.00067E-02 0.00000E+00
 -1      1195 2.66823E-03 2.01680E-02 0.00000E+00
 -1      1196 2.58745E-03 2.02791E-02 0.00000E+00
 -1      1197 2.50758E-03 2.03358E-02 0.00000E+00
 -1      1198 2.42792E-03 2.03358E-02 0.00000E+00
 -1      1199 2.34805E-03 2.02791E-02 0.00000E+00
 -1      1200 2.26727E-03 2.01680E-02 0.00000E+00
 -1      1201 2.18429E-03 2.00067E-02 0.00000E+00
 -1      1202 2.09733E-03 1.98017E-02 0.00000E+00
 -1      1203 2.00464E-03 1.95615E-02 0.00000E+00
 -1      1204 1.90524E-03 1.92961E-02 0.00000E+00
 -1      1205 2.97595E-03 1.92336E-02 0.00000E+00
 -1      1206 2.87377E-03 1.95056E-02 0.00000E+00
 -1      1207 2.78214E-03 1.97584E-02 0.00000E+00
 -1      1208 2.70088E-03 1.99795E-02 0.00000E+00
 -1      1209 2.62828E-03 2.01571E-02 0.00000E+00
 -1      1210 2.56178E-03 2.02813E-02 0.00000E+00
 -1      1211 2.49873E-03 2.03452E-02 0.00000E+00
 -1      1212 2.43677E-03 2.03452E-02 0.00000E+00
 -1      1213 2.37371E-03 2.02813E-02 0.00000E+00
 -1      1214 2.30721E-03 2.01571E-02 0.00000E+00
 -1      1215 2.23461E-03 1.99795E-02 0.00000E+00
 -1      1216 2.15336E-03 1.97584E-02 0.00000E+00
 -1      1217 2.06172E-03 1.95056E-02 0.00000E+00
 -1      1218 1.95955E-03 1.92336E-02 0.00000E+00
 -1      1219 2.94389E-03 1.91995E-02 0.00000E+00
 -1      1220 2.83786E-03 1.94705E-02 0.00000E+00
 -1      1221 2.74447E-03 1.97288E-02 0.00000E+00
 -1      1222 2.66497E-03 1.99603E-02 0.00000E+00
 -1      1223 2.59838E-03 2.01500E-02 0.00000E+00
 -1      1224 2.54192E-03 2.02848E-02 0.00000E+00
 -1      1225 2.49176E-03 2.03549E-02 0.00000E+00
 -1      1226 2.44373E-03 2.03549E-02 0.00000E+00
 -1      1227 2.39358E-03 2.02848E-02 0.00000E+00
 -1      1228 2.33711E-03 2.01500E-02 0.00000E+00
 -1      1229 2.27052E-03 1.99603E-02 0.00000E+00
 -1      1230 2.19102E-03 1.97288E-02 0.00000E+00
 -1      1231 2.09764E-03 1.94705E-02 0.00000E+00
 -1      1232 1.99161E-03 1.91995E-02 0.00000E+00
 -1      1233 2.93014E-03 1.91929E-02 0.00000E+00
 -1      1234 2.81973E-03 1.94574E-02 0.00000E+00
 -1      1235 2.72276E-03 1.97155E-02 0.00000E+00
 -1      1236 2.64206E-03 1.99520E-02 0.00000E+00
 -1      1237 2.57786E-03 2.01499E-02 0.00000E+00
 -1      1238 2.52763E-03 2.02928E-02 0.00000E+00
 -1      1239 2.48663E-03 2.03678E-02 0.00000E+00
 -1      1240 2.44886E-03 2.03678E-02 0.00000E+00
 -1      1241 2.40787E-03 2.02928E-02 0.00000E+00
 -1      1242 2.35764E-03 2.01499E-02 0.00000E+00
 -1      1243 2.29343E-03 1.99520E-02 0.00000E+00
 -1      1244 2.21273E-03 1.97155E-02 0.00000E+00
 -1      1245 2.11576E-03 1.94574E-02 0.00000E+00
 -1      1246 2.00535E-03 1.91929E-02 0.00000E+00
 -1      1247 2.93164E-03 1.92131E-02 0.00000E+00
 -1      1248 2.81659E-03 1.94672E-02 0.00000E+00
 -1      1249 2.71484E-03 1.97205E-02 0.00000E+00
 -1      1250 2.63076E-03 1.99576E-02 0.00000E+00
 -1      1251 2.56598E-03 2.01598E-02 0.00000E+00
 -1      1252 2.51859E-03 2.03082E-02 0.00000E+00
 -1      1253 2.48326E-03 2.03870E-02 0.00000E+00
 -1      1254 2.45223E-03 2.03870E-02 0.00000E+00
 -1      1255 2.41690E-03 2.03082E-02 0.00000E+00
 -1      1256 2.36952E-03 2.01598E-02 0.00000E+00
 -1      1257 2.30474E-03 1.99576E-02 0.00000E+00
 -1      1258 2.22066E-03 1.97205E-02 0.00000E+00
 -1      1259 2.11890E-03 1.94672E-02 0.00000E+00
 -1      1260 2.00386E-03 1.92131E-02 0.00000E+00
 -1      1261 2.94600E-03 1.92598E-02 0.00000E+00
 -1      1262 2.82613E-03 1.95009E-02 0.00000E+00
 -1      1263 2.71880E-03 1.97458E-02 0.00000E+00
 -1      1264 2.62972E-03 1.99797E-02 0.00000E+00
 -1      1265 2.56196E-03 2.01829E-02 0.00000E+00
 -1      1266 2.51445E-03 2.03343E-02 0.00000E+00
 -1      1267 2.48154E-03 2.04155E-02 0.00000E+00
 -1      1268 2.45395E-03 2.04155E-02 0.00000E+00
 -1      1269 2.42104E-03 2.03343E-02 0.00000E+00
 -1      1270 2.37354E-03 2.01829E-02 0.00000E+00
 -1      1271 2.30578E-03 1.99797E-02 0.00000E+00
 -1      1272 2.21670E-03 1.97458E-02 0.00000E+00
 -1      1273 2.10936E-03 1.95009E-02 0.00000E+00
 -1      1274 1.98950E-03 1.92598E-02 0.00000E+00
 -1      1275 2.97144E-03 1.93333E-02 0.00000E+00
 -1      1276 2.84653E-03 1.95594E-02 0.00000E+00
 -1      1277 2.73303E-03 1.97933E-02 0.00000E+00
 -1      1278 2.63773E-03 2.00207E-02 0.00000E+00
 -1      1279 2.56502E-03 2.02220E-02 0.00000E+00
 -1      1280 2.51481E-03 2.03742E-02 0.00000E+00
 -1      1281 2.48136E-03 2.04565E-02 0.00000E+00
 -1      1282 2.45413E-03 2.04565E-02 0.00000E+00
 -1      1283 2.42069E-03 2.03742E-02 0.00000E+00
 -1      1284 2.37048E-03 2.02220E-02 0.00000E+00
 -1      1285 2.29777E-03 2.00207E-02 0.00000E+00
 -1      1286 2.20246E-03 1.97933E-02 0.00000E+00
 -1      1287 2.08896E-03 1.95594E-02 0.00000E+00
 -1      1288 1.96405E-03 1.93333E-02 0.00000E+00
 -1      1289 3.00669E-03 1.94337E-02 0.00000E+00
 -1      1290 2.87640E-03 1.96438E-02 0.00000E+00
 -1      1291 2.75622E-03 1.98646E-02 0.00000E+00
 -1      1292 2.65371E-03 2.00832E-02 0.00000E+00
 -1      1293 2.57442E-03 2.02799E-02 0.00000E+00
 -1      1294 2.51926E-03 2.04307E-02 0.00000E+00
 -1      1295 2.48259E-03 2.05131E-02 0.00000E+00
 -1      1296 2.45290E-03 2.05131E-02 0.00000E+00
 -1      1297 2.41624E-03 2.04307E-02 0.00000E+00
 -1      1298 2.36107E-03 2.02799E-02 0.00000E+00
 -1      1299 2.28179E-03 2.00832E-02 0.00000E+00
 -1      1300 2.17927E-03 1.98646E-02 0.00000E+00
 -1      1301 2.05910E-03 1.96438E-02 0.00000E+00
 -1      1302 1.92880E-03 1.94337E-02 0.00000E+00
 -1      1303 3.05086E-03 1.95619E-02 0.00000E+00
 -1      1304 2.91469E-03 1.97552E-02 0.00000E+00
 -1      1305 2.78733E-03 1.99617E-02 0.00000E+00
 -1      1306 2.67677E-03 2.01695E-02 0.00000E+00
 -1      1307 2.58952E-03 2.03594E-02 0.00000E+00
 -1      1308 2.52741E-03 2.05070E-02 0.00000E+00
 -1      1309 2.48512E-03 2.05884E-02 0.00000E+00
 -1      1310 2.45038E-03 2.05884E-02 0.00000E+00
 -1      1311 2.40808E-03 2.05070E-02 0.00000E+00
 -1      1312 2.34598E-03 2.03594E-02 0.00000E+00
 -1      1313 2.25873E-03 2.01695E-02 0.00000E+00
 -1      1314 2.14817E-03 1.99617E-02 0.00000E+00
 -1      1315 2.02081E-03 1.97552E-02 0.00000E+00
 -1      1316 1.88464E-03 1.95619E-02 0.00000E+00
 -1      1317 3.10336E-03 1.97188E-02 0.00000E+00
 -1      1318 2.96068E-03 1.98952E-02 0.00000E+00
 -1      1319 2.82555E-03 2.00863E-02 0.00000E+00
 -1      1320 2.70616E-03 2.02818E-02 0.00000E+00
 -1      1321 2.60973E-03 2.04633E-02 0.00000E+00
 -1      1322 2.53894E-03 2.06061E-02 0.00000E+00
 -1      1323 2.48881E-03 2.06855E-02 0.00000E+00
 -1      1324 2.44668E-03 2.06855E-02 0.00000E+00
 -1      1325 2.39656E-03 2.06061E-02 0.00000E+00
 -1      1326 2.32577E-03 2.04633E-02 0.00000E+00
 -1      1327 2.22933E-03 2.02818E-02 0.00000E+00
 -1      1328 2.10995E-03 2.00863E-02 0.00000E+00
 -1      1329 1.97482E-03 1.98952E-02 0.00000E+00
 -1      1330 1.83214E-03 1.97188E-02 0.00000E+00
 -1      1331 3.16385E-03 1.99059E-02 0.00000E+00
 -1      1332 3.01388E-03 2.00652E-02 0.00000E+00
 -1      1333 2.87031E-03 2.02405E-02 0.00000E+00
 -1      1334 2.74133E-03 2.04226E-02 0.00000E+00
 -1      1335 2.63460E-03 2.05942E-02 0.00000E+00
 -1      1336 2.55353E-03 2.07309E-02 0.00000E+00
 -1      1337 2.49359E-03 2.08076E-02 0.00000E+00
 -1      1338 2.44191E-03 2.08076E-02 0.00000E+00
 -1      1339 2.38197E-03 2.07309E-02 0.00000E+00
 -1      1340 2.30090E-03 2.05942E-02 0.00000E+00
 -1      1341 2.19417E-03 2.04226E-02 0.00000E+00
 -1      1342 2.06518E-03 2.02405E-02 0.00000E+00
 -1      1343 1.92162E-03 2.00652E-02 0.00000E+00
 -1      1344 1.77164E-03 1.99059E-02 0.00000E+00
 -1      1345 3.23216E-03 2.01249E-02 0.00000E+00
 -1      1346 3.07398E-03 2.02671E-02 0.00000E+00
 -1      1347 2.92121E-03 2.04263E-02 0.00000E+00
 -1      1348 2.78184E-03 2.05943E-02 0.00000E+00
 -1      1349 2.66377E-03 2.07550E-02 0.00000E+00
 -1      1350 2.57096E-03 2.08846E-02 0.00000E+00
 -1      1351 2.49936E-03 2.09579E-02 0.00000E+00
 -1      1352 2.43614E-03 2.09579E-02 0.00000E+00
 -1      1353 2.36454E-03 2.08846E-02 0.00000E+00
 -1      1354 2.27172E-03 2.07550E-02 0.00000E+00
 -1      1355 2.15365E-03 2.05943E-02 0.00000E+00
 -1      1356 2.01428E-03 2.04263E-02 0.00000E+00
 -1      1357 1.86152E-03 2.02671E-02 0.00000E+00
 -1      1358 1.70334E-03 2.01249E-02 0.00000E+00
 -1      1359 3.30820E-03 2.03777E-02 0.00000E+00
 -1      1360 3.14074E-03 2.05031E-02 0.00000E+00
 -1      1361 2.97793E-03 2.06461E-02 0.00000E+00
 -1      1362 2.82739E-03 2.07995E-02 0.00000E+00
 -1      1363 2.69702E-03 2.09486E-02 0.00000E+00
 -1      1364 2.59112E-03 2.10702E-02 0.00000E+00
 -1      1365 2.50610E-03 2.11395E-02 0.00000E+00
 -1      1366 2.42939E-03 2.11395E-02 0.00000E+00
 -1      1367 2.34437E-03 2.10702E-02 0.00000E+00
 -1      1368 2.23848E-03 2.09486E-02 0.00000E+00
 -1      1369 2.10811E-03 2.07995E-02 0.00000E+00
 -1      1370 1.95757E-03 2.06461E-02 0.00000E+00
 -1      1371 1.79476E-03 2.05031E-02 0.00000E+00
 -1      1372 1.62730E-03 2.03777E-02 0.00000E+00
 -1      1373 2.10366E-03 3.25670E-02 0.00000E+00
 -1      1374 2.17599E-03 3.26232E-02 0.00000E+00
 -1      1375 2.21720E-03 3.26534E-02 0.00000E+00
 -1      1376 2.24693E-03 3.26704E-02 0.00000E+00
 -1      1377 2.27039E-03 3.26816E-02 0.00000E+00
 -1      1378 2.29006E-03 3.26894E-02 0.00000E+00
 -1      1379 2.30716E-03 3.26951E-02 0.00000E+00
 -1      1380 2.32238E-03 3.26996E-02 0.00000E+00
 -1      1381 2.33618E-03 3.27031E-02 0.00000E+00
 -1      1382 2.34884E-03 3.27060E-02 0.00000E+00
 -1      1383 2.36056E-03 3.27084E-02 0.00000E+00
 -1      1384 2.37151E-03 3.27104E-02 0.00000E+00
 -1      1385 2.38181E-03 3.27122E-02 0.00000E+00
 -1      1386 2.39153E-03 3.27137E-02 0.00000E+00
 -1      1387 2.40077E-03 3.27151E-02 0.00000E+00
 -1      1388 1.73683E-03 3.20017E-02 0.00000E+00
 -1      1389 1.86592E-03 3.21298E-02 0.00000E+00
 -1      1390 1.95211E-03 3.21926E-02 0.00000E+00
 -1      1391 2.01512E-03 3.22304E-02 0.00000E+00
 -1      1392 2.06482E-03 3.22550E-02 0.00000E+00
 -1      1393 2.10610E-03 3.22723E-02 0.00000E+00
 -1      1394 2.14166E-03 3.22850E-02 0.00000E+00
 -1      1395 2.17308E-03 3.22948E-02 0.00000E+00
 -1      1396 2.20138E-03 3.23027E-02 0.00000E+00
 -1      1397 2.22722E-03 3.23090E-02 0.00000E+00
 -1      1398 2.25108E-03 3.23144E-02 0.00000E+00
 -1      1399 2.27330E-03 3.23189E-02 0.00000E+00
 -1      1400 2.29414E-03 3.23228E-02 0.00000E+00
 -1      1401 2.31381E-03 3.23262E-02 0.00000E+00
 -1      1402 2.33247E-03 3.23291E-02 0.00000E+00
 -1      1403 1.43948E-03 3.14714E-02 0.00000E+00
 -1      1404 1.57937E-03 3.16252E-02 0.00000E+00
 -1      1405 1.69416E-03 3.17185E-02 0.00000E+00
 -1      1406 1.78494E-03 3.17769E-02 0.00000E+00
 -1      1407 1.85888E-03 3.18163E-02 0.00000E+00
 -1      1408 1.92111E-03 3.18443E-02 0.00000E+00
 -1      1409 1.97496E-03 3.18651E-02 0.00000E+00
 -1      1410 2.02259E-03 3.18812E-02 0.00000E+00
 -1      1411 2.06547E-03 3.18940E-02 0.00000E+00
 -1      1412 2.10458E-03 3.19045E-02 0.00000E+00
 -1      1413 2.14066E-03 3.19133E-02 0.00000E+00
 -1      1414 2.17423E-03 3.19208E-02 0.00000E+00
 -1      1415 2.20570E-03 3.19272E-02 0.00000E+00
 -1      1416 2.23539E-03 3.19327E-02 0.00000E+00
 -1      1417 2.26354E-03 3.19375E-02 0.00000E+00
 -1      1418 1.18754E-03 3.09717E-02 0.00000E+00
 -1      1419 1.33001E-03 3.11297E-02 0.00000E+00
 -1      1420 1.45740E-03 3.12395E-02 0.00000E+00
 -1      1421 1.56674E-03 3.13150E-02 0.00000E+00
 -1      1422 1.65992E-03 3.13682E-02 0.00000E+00
 -1      1423 1.74034E-03 3.14070E-02 0.00000E+00
 -1      1424 1.81091E-03 3.14364E-02 0.00000E+00
 -1      1425 1.87382E-03 3.14593E-02 0.00000E+00
 -1      1426 1.93069E-03 3.14777E-02 0.00000E+00
 -1      1427 1.98270E-03 3.14928E-02 0.00000E+00
 -1      1428 2.03075E-03 3.15054E-02 0.00000E+00
 -1      1429 2.07550E-03 3.15162E-02 0.00000E+00
 -1      1430 2.11747E-03 3.15254E-02 0.00000E+00
 -1      1431 2.15708E-03 3.15334E-02 0.00000E+00
 -1      1432 2.19467E-03 3.15404E-02 0.00000E+00
 -1      1433 9.70867E-04 3.04933E-02 0.00000E+00
 -1      1434 1.11263E-03 3.06467E-02 0.00000E+00
 -1      1435 1.24574E-03 3.07633E-02 0.00000E+00
 -1      1436 1.36605E-03 3.08498E-02 0.00000E+00
 -1      1437 1.47301E-03 3.09140E-02 0.00000E+00
 -1      1438 1.56796E-03 3.09627E-02 0.00000E+00
 -1      1439 1.65283E-03 3.10003E-02 0.00000E+00
 -1      1440 1.72939E-03 3.10301E-02 0.00000E+00
 -1      1441 1.79915E-03 3.10543E-02 0.00000E+00
 -1      1442 1.86328E-03 3.10743E-02 0.00000E+00
 -1      1443 1.92273E-03 3.10911E-02 0.00000E+00
 -1      1444 1.97824E-03 3.11054E-02 0.00000E+00
 -1      1445 2.03041E-03 3.11178E-02 0.00000E+00
 -1      1446 2.07971E-03 3.11285E-02 0.00000E+00
 -1      1447 2.12655E-03 3.11379E-02 0.00000E+00
 -1      1448 7.81694E-04 3.00299E-02 0.00000E+00
 -1      1449 9.22115E-04 3.01751E-02 0.00000E+00
 -1      1450 1.05763E-03 3.02925E-02 0.00000E+00
 -1      1451 1.18435E-03 3.03849E-02 0.00000E+00
 -1      1452 1.30067E-03 3.04570E-02 0.00000E+00
 -1      1453 1.40663E-03 3.05136E-02 0.00000E+00
 -1      1454 1.50315E-03 3.05586E-02 0.00000E+00
 -1      1455 1.59142E-03 3.05949E-02 0.00000E+00
 -1      1456 1.67263E-03 3.06248E-02 0.00000E+00
 -1      1457 1.74782E-03 3.06497E-02 0.00000E+00
 -1      1458 1.81788E-03 3.06708E-02 0.00000E+00
 -1      1459 1.88353E-03 3.06890E-02 0.00000E+00
 -1      1460 1.94541E-03 3.07046E-02 0.00000E+00
 -1      1461 2.00402E-03 3.07183E-02 0.00000E+00
 -1      1462 2.05981E-03 3.07302E-02 0.00000E+00
 -1      1463 6.14938E-04 2.95769E-02 0.00000E+00
 -1      1464 7.54014E-04 2.97127E-02 0.00000E+00
 -1      1465 8.90443E-04 2.98276E-02 0.00000E+00
 -1      1466 1.02092E-03 2.99223E-02 0.00000E+00
 -1      1467 1.14352E-03 2.99994E-02 0.00000E+00
 -1      1468 1.25759E-03 3.00619E-02 0.00000E+00
 -1      1469 1.36332E-03 3.01130E-02 0.00000E+00
 -1      1470 1.46134E-03 3.01551E-02 0.00000E+00
 -1      1471 1.55246E-03 3.01903E-02 0.00000E+00
 -1      1472 1.63750E-03 3.02200E-02 0.00000E+00
 -1      1473 1.71722E-03 3.02454E-02 0.00000E+00
 -1      1474 1.79228E-03 3.02673E-02 0.00000E+00
 -1      1475 1.86327E-03 3.02864E-02 0.00000E+00
 -1      1476 1.93070E-03 3.03031E-02 0.00000E+00
 -1      1477 1.99503E-03 3.03177E-02 0.00000E+00
 -1      1478 4.66892E-04 2.91313E-02 0.00000E+00
 -1      1479 6.04835E-04 2.92577E-02 0.00000E+00
 -1      1480 7.41518E-04 2.93683E-02 0.00000E+00
 -1      1481 8.74220E-04 2.94628E-02 0.00000E+00
 -1      1482 1.00107E-03 2.95424E-02 0.00000E+00
 -1      1483 1.12108E-03 2.96091E-02 0.00000E+00
 -1      1484 1.23399E-03 2.96649E-02 0.00000E+00
 -1      1485 1.33998E-03 2.97118E-02 0.00000E+00
 -1      1486 1.43952E-03 2.97517E-02 0.00000E+00
 -1      1487 1.53318E-03 2.97858E-02 0.00000E+00
 -1      1488 1.62155E-03 2.98153E-02 0.00000E+00
 -1      1489 1.70518E-03 2.98410E-02 0.00000E+00
 -1      1490 1.78462E-03 2.98635E-02 0.00000E+00
 -1      1491 1.86031E-03 2.98833E-02 0.00000E+00
 -1      1492 1.93271E-03 2.99007E-02 0.00000E+00
 -1      1493 3.34739E-04 2.86910E-02 0.00000E+00
 -1      1494 4.71800E-04 2.88083E-02 0.00000E+00
 -1      1495 6.08469E-04 2.89137E-02 0.00000E+00
 -1      1496 7.42536E-04 2.90065E-02 0.00000E+00
 -1      1497 8.72306E-04 2.90869E-02 0.00000E+00
 -1      1498 9.96695E-04 2.91560E-02 0.00000E+00
 -1      1499 1.11517E-03 2.92152E-02 0.00000E+00
 -1      1500 1.22763E-03 2.92661E-02 0.00000E+00
 -1      1501 1.33425E-03 2.93100E-02 0.00000E+00
 -1      1502 1.43537E-03 2.93481E-02 0.00000E+00
 -1      1503 1.53140E-03 2.93814E-02 0.00000E+00
 -1      1504 1.62278E-03 2.94107E-02 0.00000E+00
 -1      1505 1.70995E-03 2.94365E-02 0.00000E+00
 -1      1506 1.79331E-03 2.94594E-02 0.00000E+00
 -1      1507 1.87326E-03 2.94795E-02 0.00000E+00
 -1      1508 2.16244E-04 2.82544E-02 0.00000E+00
 -1      1509 3.52661E-04 2.83631E-02 0.00000E+00
 -1      1510 4.89237E-04 2.84630E-02 0.00000E+00
 -1      1511 6.24180E-04 2.85531E-02 0.00000E+00
 -1      1512 7.56016E-04 2.86330E-02 0.00000E+00
 -1      1513 8.83675E-04 2.87033E-02 0.00000E+00
 -1      1514 1.00651E-03 2.87649E-02 0.00000E+00
 -1      1515 1.12422E-03 2.88187E-02 0.00000E+00
 -1      1516 1.23676E-03 2.88660E-02 0.00000E+00
 -1      1517 1.34430E-03 2.89075E-02 0.00000E+00
 -1      1518 1.44707E-03 2.89442E-02 0.00000E+00
 -1      1519 1.54539E-03 2.89768E-02 0.00000E+00
 -1      1520 1.63959E-03 2.90059E-02 0.00000E+00
 -1      1521 1.73000E-03 2.90317E-02 0.00000E+00
 -1      1522 1.81697E-03 2.90547E-02 0.00000E+00
 -1      1523 1.09573E-04 2.78204E-02 0.00000E+00
 -1      1524 2.45556E-04 2.79210E-02 0.00000E+00
 -1      1525 3.82046E-04 2.80154E-02 0.00000E+00
 -1      1526 5.17598E-04 2.81021E-02 0.00000E+00
 -1      1527 6.50950E-04 2.81808E-02 0.00000E+00
 -1      1528 7.81110E-04 2.82513E-02 0.00000E+00
 -1      1529 9.07392E-04 2.83143E-02 0.00000E+00
 -1      1530 1.02939E-03 2.83703E-02 0.00000E+00
 -1      1531 1.14691E-03 2.84201E-02 0.00000E+00
 -1      1532 1.25997E-03 2.84646E-02 0.00000E+00
 -1      1533 1.36865E-03 2.85044E-02 0.00000E+00
 -1      1534 1.47316E-03 2.85400E-02 0.00000E+00
 -1      1535 1.57373E-03 2.85720E-02 0.00000E+00
 -1      1536 1.67060E-03 2.86007E-02 0.00000E+00
 -1      1537 1.76406E-03 2.86265E-02 0.00000E+00
 -1      1538 1.31815E-05 2.73878E-02 0.00000E+00
 -1      1539 1.48907E-04 2.74811E-02 0.00000E+00
 -1      1540 2.85361E-04 2.75701E-02 0.00000E+00
 -1      1541 4.21378E-04 2.76533E-02 0.00000E+00
 -1      1542 5.55896E-04 2.77301E-02 0.00000E+00
 -1      1543 6.88025E-04 2.78001E-02 0.00000E+00
 -1      1544 8.17089E-04 2.78637E-02 0.00000E+00
 -1      1545 9.42626E-04 2.79211E-02 0.00000E+00
 -1      1546 1.06436E-03 2.79730E-02 0.00000E+00
 -1      1547 1.18218E-03 2.80198E-02 0.00000E+00
 -1      1548 1.29606E-03 2.80622E-02 0.00000E+00
 -1      1549 1.40610E-03 2.81006E-02 0.00000E+00
 -1      1550 1.51242E-03 2.81354E-02 0.00000E+00
 -1      1551 1.61520E-03 2.81669E-02 0.00000E+00
 -1      1552 1.71463E-03 2.81953E-02 0.00000E+00
 -1      1553-7.42560E-05 2.69562E-02 0.00000E+00
 -1      1554 6.13570E-05 2.70429E-02 0.00000E+00
 -1      1555 1.97837E-04 2.71266E-02 0.00000E+00
 -1      1556 3.34252E-04 2.72062E-02 0.00000E+00
 -1      1557 4.69715E-04 2.72807E-02 0.00000E+00
 -1      1558 6.03445E-04 2.73497E-02 0.00000E+00
 -1      1559 7.34805E-04 2.74133E-02 0.00000E+00
 -1      1560 8.63319E-04 2.74715E-02 0.00000E+00
 -1      1561 9.88655E-04 2.75248E-02 0.00000E+00
 -1      1562 1.11061E-03 2.75736E-02 0.00000E+00
 -1      1563 1.22909E-03 2.76182E-02 0.00000E+00
 -1      1564 1.34408E-03 2.76590E-02 0.00000E+00
 -1      1565 1.45561E-03 2.76963E-02 0.00000E+00
 -1      1566 1.56378E-03 2.77304E-02 0.00000E+00
 -1      1567 1.66873E-03 2.77614E-02 0.00000E+00
 -1      1568-1.53897E-04 2.65250E-02 0.00000E+00
 -1      1569-1.82799E-05 2.66056E-02 0.00000E+00
 -1      1570 1.18291E-04 2.66844E-02 0.00000E+00
 -1      1571 2.55077E-04 2.67603E-02 0.00000E+00
 -1      1572 3.91346E-04 2.68323E-02 0.00000E+00
 -1      1573 5.26424E-04 2.68999E-02 0.00000E+00
 -1      1574 6.59730E-04 2.69630E-02 0.00000E+00
 -1      1575 7.90793E-04 2.70216E-02 0.00000E+00
 -1      1576 9.19254E-04 2.70758E-02 0.00000E+00
 -1      1577 1.04485E-03 2.71260E-02 0.00000E+00
 -1      1578 1.16743E-03 2.71725E-02 0.00000E+00
 -1      1579 1.28687E-03 2.72155E-02 0.00000E+00
 -1      1580 1.40315E-03 2.72551E-02 0.00000E+00
 -1      1581 1.51628E-03 2.72917E-02 0.00000E+00
 -1      1582 1.62631E-03 2.73252E-02 0.00000E+00
 -1      1583-2.26765E-04 2.60937E-02 0.00000E+00
 -1      1584-9.10519E-05 2.61688E-02 0.00000E+00
 -1      1585 4.56689E-05 2.62431E-02 0.00000E+00
 -1      1586 1.82822E-04 2.63154E-02 0.00000E+00
 -1      1587 3.19812E-04 2.63847E-02 0.00000E+00
 -1      1588 4.56066E-04 2.64507E-02 0.00000E+00
 -1      1589 5.91063E-04 2.65129E-02 0.00000E+00
 -1      1590 7.24356E-04 2.65714E-02 0.00000E+00
 -1      1591 8.55575E-04 2.66262E-02 0.00000E+00
 -1      1592 9.84426E-04 2.66775E-02 0.00000E+00
 -1      1593 1.11068E-03 2.67254E-02 0.00000E+00
 -1      1594 1.23419E-03 2.67702E-02 0.00000E+00
 -1      1595 1.35482E-03 2.68120E-02 0.00000E+00
 -1      1596 1.47251E-03 2.68510E-02 0.00000E+00
 -1      1597 1.58726E-03 2.68869E-02 0.00000E+00
 -1      1598-2.93769E-04 2.56621E-02 0.00000E+00
 -1      1599-1.57892E-04 2.57323E-02 0.00000E+00
 -1      1600-2.09729E-05 2.58023E-02 0.00000E+00
 -1      1601 1.16553E-04 2.58711E-02 0.00000E+00
 -1      1602 2.54211E-04 2.59377E-02 0.00000E+00
 -1      1603 3.91523E-04 2.60018E-02 0.00000E+00
 -1      1604 5.28029E-04 2.60629E-02 0.00000E+00
 -1      1605 6.63313E-04 2.61209E-02 0.00000E+00
 -1      1606 7.97010E-04 2.61758E-02 0.00000E+00
 -1      1607 9.28803E-04 2.62278E-02 0.00000E+00
 -1      1608 1.05843E-03 2.62770E-02 0.00000E+00
 -1      1609 1.18566E-03 2.63234E-02 0.00000E+00
 -1      1610 1.31032E-03 2.63672E-02 0.00000E+00
 -1      1611 1.43228E-03 2.64083E-02 0.00000E+00
 -1      1612 1.55142E-03 2.64467E-02 0.00000E+00
 -1      1613-3.55722E-04 2.52300E-02 0.00000E+00
 -1      1614-2.19635E-04 2.52957E-02 0.00000E+00
 -1      1615-8.24798E-05 2.53618E-02 0.00000E+00
 -1      1616 5.54276E-05 2.54271E-02 0.00000E+00
 -1      1617 1.93720E-04 2.54911E-02 0.00000E+00
 -1      1618 3.32004E-04 2.55531E-02 0.00000E+00
 -1      1619 4.69885E-04 2.56128E-02 0.00000E+00
 -1      1620 6.06982E-04 2.56701E-02 0.00000E+00
 -1      1621 7.42941E-04 2.57249E-02 0.00000E+00
 -1      1622 8.77438E-04 2.57773E-02 0.00000E+00
 -1      1623 1.01018E-03 2.58273E-02 0.00000E+00
 -1      1624 1.14089E-03 2.58751E-02 0.00000E+00
 -1      1625 1.26933E-03 2.59207E-02 0.00000E+00
 -1      1626 1.39529E-03 2.59639E-02 0.00000E+00
 -1      1627 1.51860E-03 2.60048E-02 0.00000E+00
 -1      1628-4.13350E-04 2.47972E-02 0.00000E+00
 -1      1629-2.77024E-04 2.48589E-02 0.00000E+00
 -1      1630-1.39610E-04 2.49213E-02 0.00000E+00
 -1      1631-1.31602E-06 2.49834E-02 0.00000E+00
 -1      1632 1.37584E-04 2.50446E-02 0.00000E+00
 -1      1633 2.76777E-04 2.51044E-02 0.00000E+00
 -1      1634 4.15928E-04 2.51625E-02 0.00000E+00
 -1      1635 5.54698E-04 2.52188E-02 0.00000E+00
 -1      1636 6.92754E-04 2.52732E-02 0.00000E+00
 -1      1637 8.29769E-04 2.53257E-02 0.00000E+00
 -1      1638 9.65428E-04 2.53764E-02 0.00000E+00
 -1      1639 1.09942E-03 2.54253E-02 0.00000E+00
 -1      1640 1.23146E-03 2.54725E-02 0.00000E+00
 -1      1641 1.36125E-03 2.55178E-02 0.00000E+00
 -1      1642 1.48854E-03 2.55611E-02 0.00000E+00
 -1      1643-4.67295E-04 2.43636E-02 0.00000E+00
 -1      1644-3.30720E-04 2.44217E-02 0.00000E+00
 -1      1645-1.93037E-04 2.44807E-02 0.00000E+00
 -1      1646-5.43612E-05 2.45397E-02 0.00000E+00
 -1      1647 8.51198E-05 2.45982E-02 0.00000E+00
 -1      1648 2.25164E-04 2.46557E-02 0.00000E+00
 -1      1649 3.65498E-04 2.47120E-02 0.00000E+00
 -1      1650 5.05826E-04 2.47670E-02 0.00000E+00
 -1      1651 6.45840E-04 2.48207E-02 0.00000E+00
 -1      1652 7.85224E-04 2.48730E-02 0.00000E+00
 -1      1653 9.23652E-04 2.49241E-02 0.00000E+00
 -1      1654 1.06079E-03 2.49740E-02 0.00000E+00
 -1      1655 1.19628E-03 2.50226E-02 0.00000E+00
 -1      1656 1.32978E-03 2.50699E-02 0.00000E+00
 -1      1657 1.46094E-03 2.51156E-02 0.00000E+00
 -1      1658-5.18120E-04 2.39294E-02 0.00000E+00
 -1      1659-3.81304E-04 2.39842E-02 0.00000E+00
 -1      1660-2.43357E-04 2.40399E-02 0.00000E+00
 -1      1661-1.04314E-04 2.40959E-02 0.00000E+00
 -1      1662 3.57133E-05 2.41516E-02 0.00000E+00
 -1      1663 1.76550E-04 2.42067E-02 0.00000E+00
 -1      1664 3.17981E-04 2.42611E-02 0.00000E+00
 -1      1665 4.59758E-04 2.43146E-02 0.00000E+00
 -1      1666 6.01607E-04 2.43673E-02 0.00000E+00
 -1      1667 7.43229E-04 2.44192E-02 0.00000E+00
 -1      1668 8.84299E-04 2.44704E-02 0.00000E+00
 -1      1669 1.02446E-03 2.45210E-02 0.00000E+00
 -1      1670 1.16333E-03 2.45709E-02 0.00000E+00
 -1      1671 1.30047E-03 2.46202E-02 0.00000E+00
 -1      1672 1.43546E-03 2.46684E-02 0.00000E+00
 -1      1673-5.66307E-04 2.34944E-02 0.00000E+00
 -1      1674-4.29271E-04 2.35463E-02 0.00000E+00
 -1      1675-2.91081E-04 2.35989E-02 0.00000E+00
 -1      1676-1.51700E-04 2.36519E-02 0.00000E+00
 -1      1677-1.11748E-05 2.37048E-02 0.00000E+00
 -1      1678 1.30383E-04 2.37575E-02 0.00000E+00
 -1      1679 2.72816E-04 2.38097E-02 0.00000E+00
 -1      1680 4.15926E-04 2.38615E-02 0.00000E+00
 -1      1681 5.59480E-04 2.39129E-02 0.00000E+00
 -1      1682 7.03210E-04 2.39641E-02 0.00000E+00
 -1      1683 8.46804E-04 2.40151E-02 0.00000E+00
 -1      1684 9.89900E-04 2.40662E-02 0.00000E+00
 -1      1685 1.13208E-03 2.41173E-02 0.00000E+00
 -1      1686 1.27285E-03 2.41684E-02 0.00000E+00
 -1      1687 1.41169E-03 2.42192E-02 0.00000E+00
 -1      1688-6.12252E-04 2.30589E-02 0.00000E+00
 -1      1689-4.75033E-04 2.31079E-02 0.00000E+00
 -1      1690-3.36634E-04 2.31577E-02 0.00000E+00
 -1      1691-1.96962E-04 2.32077E-02 0.00000E+00
 -1      1692-5.60058E-05 2.32578E-02 0.00000E+00
 -1      1693 8.61825E-05 2.33079E-02 0.00000E+00
 -1      1694 2.29501E-04 2.33578E-02 0.00000E+00
 -1      1695 3.73805E-04 2.34076E-02 0.00000E+00
 -1      1696 5.18914E-04 2.34575E-02 0.00000E+00
 -1      1697 6.64601E-04 2.35077E-02 0.00000E+00
 -1      1698 8.10583E-04 2.35582E-02 0.00000E+00
 -1      1699 9.56511E-04 2.36095E-02 0.00000E+00
 -1      1700 1.10195E-03 2.36615E-02 0.00000E+00
 -1      1701 1.24636E-03 2.37143E-02 0.00000E+00
 -1      1702 1.38913E-03 2.37677E-02 0.00000E+00
 -1      1703-6.56264E-04 2.26229E-02 0.00000E+00
 -1      1704-5.18909E-04 2.26693E-02 0.00000E+00
 -1      1705-3.80353E-04 2.27162E-02 0.00000E+00
 -1      1706-2.40455E-04 2.27633E-02 0.00000E+00
 -1      1707-9.91556E-05 2.28106E-02 0.00000E+00
 -1      1708 4.35451E-05 2.28579E-02 0.00000E+00
 -1      1709 1.87601E-04 2.29053E-02 0.00000E+00
 -1      1710 3.32926E-04 2.29530E-02 0.00000E+00
 -1      1711 4.79398E-04 2.30010E-02 0.00000E+00
 -1      1712 6.26848E-04 2.30498E-02 0.00000E+00
 -1      1713 7.75043E-04 2.30995E-02 0.00000E+00
 -1      1714 9.23668E-04 2.31506E-02 0.00000E+00
 -1      1715 1.07230E-03 2.32032E-02 0.00000E+00
 -1      1716 1.22037E-03 2.32576E-02 0.00000E+00
 -1      1717 1.36718E-03 2.33136E-02 0.00000E+00
 -1      1718-6.98558E-04 2.21866E-02 0.00000E+00
 -1      1719-5.61126E-04 2.22305E-02 0.00000E+00
 -1      1720-4.22476E-04 2.22746E-02 0.00000E+00
 -1      1721-2.82435E-04 2.23188E-02 0.00000E+00
 -1      1722-1.40906E-04 2.23631E-02 0.00000E+00
 -1      1723 2.15815E-06 2.24076E-02 0.00000E+00
 -1      1724 1.46763E-04 2.24523E-02 0.00000E+00
 -1      1725 2.92887E-04 2.24975E-02 0.00000E+00
 -1      1726 4.40473E-04 2.25434E-02 0.00000E+00
 -1      1727 5.89425E-04 2.25904E-02 0.00000E+00
 -1      1728 7.39586E-04 2.26390E-02 0.00000E+00
 -1      1729 8.90704E-04 2.26894E-02 0.00000E+00
 -1      1730 1.04240E-03 2.27423E-02 0.00000E+00
 -1      1731 1.19412E-03 2.27979E-02 0.00000E+00
 -1      1732 1.34510E-03 2.28564E-02 0.00000E+00
 -1      1733-7.39250E-04 2.17501E-02 0.00000E+00
 -1      1734-6.01807E-04 2.17915E-02 0.00000E+00
 -1      1735-4.63139E-04 2.18328E-02 0.00000E+00
 -1      1736-3.23056E-04 2.18741E-02 0.00000E+00
 -1      1737-1.81434E-04 2.19154E-02 0.00000E+00
 -1      1738-3.81898E-05 2.19569E-02 0.00000E+00
 -1      1739 1.06733E-04 2.19988E-02 0.00000E+00
 -1      1740 2.53372E-04 2.20413E-02 0.00000E+00
 -1      1741 4.01750E-04 2.20848E-02 0.00000E+00
 -1      1742 5.51857E-04 2.21296E-02 0.00000E+00
 -1      1743 7.03633E-04 2.21765E-02 0.00000E+00
 -1      1744 8.56929E-04 2.22259E-02 0.00000E+00
 -1      1745 1.01146E-03 2.22785E-02 0.00000E+00
 -1      1746 1.16673E-03 2.23349E-02 0.00000E+00
 -1      1747 1.32197E-03 2.23955E-02 0.00000E+00
 -1      1748-7.78357E-04 2.13138E-02 0.00000E+00
 -1      1749-6.40972E-04 2.13526E-02 0.00000E+00
 -1      1750-5.02369E-04 2.13911E-02 0.00000E+00
 -1      1751-3.62359E-04 2.14294E-02 0.00000E+00
 -1      1752-2.20804E-04 2.14677E-02 0.00000E+00
 -1      1753-7.75949E-05 2.15061E-02 0.00000E+00
 -1      1754 6.73669E-05 2.15450E-02 0.00000E+00
 -1      1755 2.14179E-04 2.15845E-02 0.00000E+00
 -1      1756 3.62942E-04 2.16252E-02 0.00000E+00
 -1      1757 5.13745E-04 2.16675E-02 0.00000E+00
 -1      1758 6.66653E-04 2.17122E-02 0.00000E+00
 -1      1759 8.21656E-04 2.17599E-02 0.00000E+00
 -1      1760 9.78612E-04 2.18115E-02 0.00000E+00
 -1      1761 1.13716E-03 2.18681E-02 0.00000E+00
 -1      1762 1.29664E-03 2.19303E-02 0.00000E+00
 -1      1763-8.15794E-04 2.08776E-02 0.00000E+00
 -1      1764-6.78536E-04 2.09139E-02 0.00000E+00
 -1      1765-5.40084E-04 2.09496E-02 0.00000E+00
 -1      1766-4.00270E-04 2.09849E-02 0.00000E+00
 -1      1767-2.58958E-04 2.10200E-02 0.00000E+00
 -1      1768-1.16025E-04 2.10553E-02 0.00000E+00
 -1      1769 2.86592E-05 2.10910E-02 0.00000E+00
 -1      1770 1.75242E-04 2.11274E-02 0.00000E+00
 -1      1771 3.23896E-04 2.11650E-02 0.00000E+00
 -1      1772 4.74819E-04 2.12044E-02 0.00000E+00
 -1      1773 6.28212E-04 2.12462E-02 0.00000E+00
 -1      1774 7.84245E-04 2.12916E-02 0.00000E+00
 -1      1775 9.42987E-04 2.13415E-02 0.00000E+00
 -1      1776 1.10429E-03 2.13972E-02 0.00000E+00
 -1      1777 1.26769E-03 2.14602E-02 0.00000E+00
 -1      1778-8.51378E-04 2.04419E-02 0.00000E+00
 -1      1779-7.14309E-04 2.04755E-02 0.00000E+00
 -1      1780-5.76095E-04 2.05083E-02 0.00000E+00
 -1      1781-4.36601E-04 2.05405E-02 0.00000E+00
 -1      1782-2.95712E-04 2.05725E-02 0.00000E+00
 -1      1783-1.53308E-04 2.06046E-02 0.00000E+00
 -1      1784-9.24411E-06 2.06371E-02 0.00000E+00
 -1      1785 1.36661E-04 2.06702E-02 0.00000E+00
 -1      1786 2.84642E-04 2.07044E-02 0.00000E+00
 -1      1787 4.34990E-04 2.07405E-02 0.00000E+00
 -1      1788 5.88048E-04 2.07790E-02 0.00000E+00
 -1      1789 7.44189E-04 2.08212E-02 0.00000E+00
 -1      1790 9.03754E-04 2.08684E-02 0.00000E+00
 -1      1791 1.06694E-03 2.09223E-02 0.00000E+00
 -1      1792 1.23358E-03 2.09846E-02 0.00000E+00
 -1      1793-9.17265E-04 1.95511E-02 0.00000E+00
 -1      1794-7.80730E-04 1.95788E-02 0.00000E+00
 -1      1795-6.43215E-04 1.96054E-02 0.00000E+00
 -1      1796-5.04713E-04 1.96314E-02 0.00000E+00
 -1      1797-3.65201E-04 1.96571E-02 0.00000E+00
 -1      1798-2.24621E-04 1.96826E-02 0.00000E+00
 -1      1799-8.28670E-05 1.97084E-02 0.00000E+00
 -1      1800 6.02323E-05 1.97346E-02 0.00000E+00
 -1      1801 2.04940E-04 1.97617E-02 0.00000E+00
 -1      1802 3.51638E-04 1.97901E-02 0.00000E+00
 -1      1803 5.00855E-04 1.98206E-02 0.00000E+00
 -1      1804 6.53303E-04 1.98543E-02 0.00000E+00
 -1      1805 8.09892E-04 1.98927E-02 0.00000E+00
 -1      1806 9.71701E-04 1.99382E-02 0.00000E+00
 -1      1807 1.13987E-03 1.99938E-02 0.00000E+00
 -1      1808-9.46521E-04 1.90963E-02 0.00000E+00
 -1      1809-8.10289E-04 1.91207E-02 0.00000E+00
 -1      1810-6.73194E-04 1.91441E-02 0.00000E+00
 -1      1811-5.35314E-04 1.91669E-02 0.00000E+00
 -1      1812-3.96692E-04 1.91894E-02 0.00000E+00
 -1      1813-2.57332E-04 1.92118E-02 0.00000E+00
 -1      1814-1.17187E-04 1.92343E-02 0.00000E+00
 -1      1815 2.38578E-05 1.92572E-02 0.00000E+00
 -1      1816 1.66011E-04 1.92806E-02 0.00000E+00
 -1      1817 3.09606E-04 1.93050E-02 0.00000E+00
 -1      1818 4.55149E-04 1.93311E-02 0.00000E+00
 -1      1819 6.03373E-04 1.93597E-02 0.00000E+00
 -1      1820 7.55315E-04 1.93925E-02 0.00000E+00
 -1      1821 9.12357E-04 1.94315E-02 0.00000E+00
 -1      1822 1.07623E-03 1.94803E-02 0.00000E+00
 -1      1823-9.72110E-04 1.86421E-02 0.00000E+00
 -1      1824-8.36168E-04 1.86631E-02 0.00000E+00
 -1      1825-6.99488E-04 1.86832E-02 0.00000E+00
 -1      1826-5.62240E-04 1.87029E-02 0.00000E+00
 -1      1827-4.24546E-04 1.87224E-02 0.00000E+00
 -1      1828-2.86482E-04 1.87418E-02 0.00000E+00
 -1      1829-1.48082E-04 1.87614E-02 0.00000E+00
 -1      1830-9.31774E-06 1.87811E-02 0.00000E+00
 -1      1831 1.29914E-04 1.88011E-02 0.00000E+00
 -1      1832 2.69825E-04 1.88218E-02 0.00000E+00
 -1      1833 4.10785E-04 1.88436E-02 0.00000E+00
 -1      1834 5.53395E-04 1.88673E-02 0.00000E+00
 -1      1835 6.98594E-04 1.88940E-02 0.00000E+00
 -1      1836 8.47793E-04 1.89257E-02 0.00000E+00
 -1      1837 1.00314E-03 1.89658E-02 0.00000E+00
 -1      1838-9.93548E-04 1.81886E-02 0.00000E+00
 -1      1839-8.57848E-04 1.82059E-02 0.00000E+00
 -1      1840-7.21537E-04 1.82228E-02 0.00000E+00
 -1      1841-5.84874E-04 1.82395E-02 0.00000E+00
 -1      1842-4.48057E-04 1.82562E-02 0.00000E+00
 -1      1843-3.11243E-04 1.82728E-02 0.00000E+00
 -1      1844-1.74555E-04 1.82896E-02 0.00000E+00
 -1      1845-3.80744E-05 1.83065E-02 0.00000E+00
 -1      1846 9.81626E-05 1.83236E-02 0.00000E+00
 -1      1847 2.34188E-04 1.83411E-02 0.00000E+00
 -1      1848 3.70139E-04 1.83591E-02 0.00000E+00
 -1      1849 5.06321E-04 1.83782E-02 0.00000E+00
 -1      1850 6.43320E-04 1.83992E-02 0.00000E+00
 -1      1851 7.82177E-04 1.84236E-02 0.00000E+00
 -1      1852 9.24767E-04 1.84541E-02 0.00000E+00
 -1      1853-1.01040E-03 1.77354E-02 0.00000E+00
 -1      1854-8.74861E-04 1.77491E-02 0.00000E+00
 -1      1855-7.38832E-04 1.77627E-02 0.00000E+00
 -1      1856-6.02642E-04 1.77765E-02 0.00000E+00
 -1      1857-4.66560E-04 1.77905E-02 0.00000E+00
 -1      1858-3.30817E-04 1.78047E-02 0.00000E+00
 -1      1859-1.95621E-04 1.78191E-02 0.00000E+00
 -1      1860-6.11653E-05 1.78335E-02 0.00000E+00
 -1      1861 7.23655E-05 1.78481E-02 0.00000E+00
 -1      1862 2.04801E-04 1.78629E-02 0.00000E+00
 -1      1863 3.35994E-04 1.78778E-02 0.00000E+00
 -1      1864 4.65856E-04 1.78932E-02 0.00000E+00
 -1      1865 5.94419E-04 1.79094E-02 0.00000E+00
 -1      1866 7.21964E-04 1.79275E-02 0.00000E+00
 -1      1867 8.49324E-04 1.79491E-02 0.00000E+00
 -1      1868-1.02231E-03 1.72824E-02 0.00000E+00
 -1      1869-8.86835E-04 1.72923E-02 0.00000E+00
 -1      1870-7.50959E-04 1.73028E-02 0.00000E+00
 -1      1871-6.15073E-04 1.73138E-02 0.00000E+00
 -1      1872-4.79498E-04 1.73253E-02 0.00000E+00
 -1      1873-3.44521E-04 1.73372E-02 0.00000E+00
 -1      1874-2.10418E-04 1.73494E-02 0.00000E+00
 -1      1875-7.74710E-05 1.73618E-02 0.00000E+00
 -1      1876 5.40101E-05 1.73744E-02 0.00000E+00
 -1      1877 1.83678E-04 1.73870E-02 0.00000E+00
 -1      1878 3.11130E-04 1.73995E-02 0.00000E+00
 -1      1879 4.35895E-04 1.74121E-02 0.00000E+00
 -1      1880 5.57428E-04 1.74249E-02 0.00000E+00
 -1      1881 6.75125E-04 1.74382E-02 0.00000E+00
 -1      1882 7.88389E-04 1.74529E-02 0.00000E+00
 -1      1883-1.02907E-03 1.68292E-02 0.00000E+00
 -1      1884-8.93525E-04 1.68354E-02 0.00000E+00
 -1      1885-7.57648E-04 1.68427E-02 0.00000E+00
 -1      1886-6.21854E-04 1.68511E-02 0.00000E+00
 -1      1887-4.86492E-04 1.68602E-02 0.00000E+00
 -1      1888-3.51878E-04 1.68700E-02 0.00000E+00
 -1      1889-2.18323E-04 1.68803E-02 0.00000E+00
 -1      1890-8.61610E-05 1.68910E-02 0.00000E+00
 -1      1891 4.42311E-05 1.69018E-02 0.00000E+00
 -1      1892 1.72404E-04 1.69127E-02 0.00000E+00
 -1      1893 2.97802E-04 1.69234E-02 0.00000E+00
 -1      1894 4.19722E-04 1.69340E-02 0.00000E+00
 -1      1895 5.37250E-04 1.69444E-02 0.00000E+00
 -1      1896 6.49182E-04 1.69545E-02 0.00000E+00
 -1      1897 7.53881E-04 1.69646E-02 0.00000E+00
 -1      1898-1.03060E-03 1.63755E-02 0.00000E+00
 -1      1899-8.94853E-04 1.63780E-02 0.00000E+00
 -1      1900-7.58802E-04 1.63823E-02 0.00000E+00
 -1      1901-6.22864E-04 1.63880E-02 0.00000E+00
 -1      1902-4.87384E-04 1.63949E-02 0.00000E+00
 -1      1903-3.52676E-04 1.64028E-02 0.00000E+00
 -1      1904-2.19047E-04 1.64113E-02 0.00000E+00
 -1      1905-8.68283E-05 1.64203E-02 0.00000E+00
 -1      1906 4.36081E-05 1.64296E-02 0.00000E+00
 -1      1907 1.71816E-04 1.64389E-02 0.00000E+00
 -1      1908 2.97246E-04 1.64482E-02 0.00000E+00
 -1      1909 4.19196E-04 1.64571E-02 0.00000E+00
 -1      1910 5.36758E-04 1.64655E-02 0.00000E+00
 -1      1911 6.48732E-04 1.64730E-02 0.00000E+00
 -1      1912 7.53485E-04 1.64795E-02 0.00000E+00
 -1      1913-1.02700E-03 1.59209E-02 0.00000E+00
 -1      1914-8.90913E-04 1.59198E-02 0.00000E+00
 -1      1915-7.54518E-04 1.59212E-02 0.00000E+00
 -1      1916-6.18199E-04 1.59244E-02 0.00000E+00
 -1      1917-4.82271E-04 1.59292E-02 0.00000E+00
 -1      1918-3.47012E-04 1.59351E-02 0.00000E+00
 -1      1919-2.12686E-04 1.59419E-02 0.00000E+00
 -1      1920-7.95677E-05 1.59492E-02 0.00000E+00
 -1      1921 5.20480E-05 1.59569E-02 0.00000E+00
 -1      1922 1.81825E-04 1.59647E-02 0.00000E+00
 -1      1923 3.09372E-04 1.59722E-02 0.00000E+00
 -1      1924 4.34230E-04 1.59792E-02 0.00000E+00
 -1      1925 5.55865E-04 1.59852E-02 0.00000E+00
 -1      1926 6.73686E-04 1.59897E-02 0.00000E+00
 -1      1927 7.87110E-04 1.59915E-02 0.00000E+00
 -1      1928-1.01853E-03 1.54649E-02 0.00000E+00
 -1      1929-8.81982E-04 1.54606E-02 0.00000E+00
 -1      1930-7.45087E-04 1.54591E-02 0.00000E+00
 -1      1931-6.08175E-04 1.54599E-02 0.00000E+00
 -1      1932-4.71504E-04 1.54626E-02 0.00000E+00
 -1      1933-3.35289E-04 1.54665E-02 0.00000E+00
 -1      1934-1.99722E-04 1.54715E-02 0.00000E+00
 -1      1935-6.49760E-05 1.54771E-02 0.00000E+00
 -1      1936 6.87839E-05 1.54830E-02 0.00000E+00
 -1      1937 2.01407E-04 1.54889E-02 0.00000E+00
 -1      1938 3.32766E-04 1.54942E-02 0.00000E+00
 -1      1939 4.62790E-04 1.54986E-02 0.00000E+00
 -1      1940 5.91528E-04 1.55013E-02 0.00000E+00
 -1      1941 7.19280E-04 1.55012E-02 0.00000E+00
 -1      1942 8.46896E-04 1.54963E-02 0.00000E+00
 -1      1943-1.00562E-03 1.50074E-02 0.00000E+00
 -1      1944-8.68499E-04 1.49999E-02 0.00000E+00
 -1      1945-7.30978E-04 1.49958E-02 0.00000E+00
 -1      1946-5.93304E-04 1.49943E-02 0.00000E+00
 -1      1947-4.55661E-04 1.49948E-02 0.00000E+00
 -1      1948-3.18184E-04 1.49968E-02 0.00000E+00
 -1      1949-1.80971E-04 1.49999E-02 0.00000E+00
 -1      1950-4.40764E-05 1.50035E-02 0.00000E+00
 -1      1951 9.24918E-05 1.50073E-02 0.00000E+00
 -1      1952 2.28794E-04 1.50108E-02 0.00000E+00
 -1      1953 3.64993E-04 1.50134E-02 0.00000E+00
 -1      1954 5.01419E-04 1.50143E-02 0.00000E+00
 -1      1955 6.38679E-04 1.50125E-02 0.00000E+00
 -1      1956 7.77836E-04 1.50062E-02 0.00000E+00
 -1      1957 9.20782E-04 1.49925E-02 0.00000E+00
 -1      1958-9.88812E-04 1.45480E-02 0.00000E+00
 -1      1959-8.51041E-04 1.45378E-02 0.00000E+00
 -1      1960-7.12804E-04 1.45312E-02 0.00000E+00
 -1      1961-5.74258E-04 1.45274E-02 0.00000E+00
 -1      1962-4.35499E-04 1.45258E-02 0.00000E+00
 -1      1963-2.96579E-04 1.45258E-02 0.00000E+00
 -1      1964-1.57495E-04 1.45267E-02 0.00000E+00
 -1      1965-1.81856E-05 1.45281E-02 0.00000E+00
 -1      1966 1.21491E-04 1.45295E-02 0.00000E+00
 -1      1967 2.61782E-04 1.45301E-02 0.00000E+00
 -1      1968 4.03091E-04 1.45294E-02 0.00000E+00
 -1      1969 5.46050E-04 1.45261E-02 0.00000E+00
 -1      1970 6.91623E-04 1.45190E-02 0.00000E+00
 -1      1971 8.41239E-04 1.45056E-02 0.00000E+00
 -1      1972 9.97066E-04 1.44825E-02 0.00000E+00
 -1      1973-9.68752E-04 1.40865E-02 0.00000E+00
 -1      1974-8.30285E-04 1.40738E-02 0.00000E+00
 -1      1975-6.91288E-04 1.40650E-02 0.00000E+00
 -1      1976-5.51820E-04 1.40591E-02 0.00000E+00
 -1      1977-4.11895E-04 1.40554E-02 0.00000E+00
 -1      1978-2.71481E-04 1.40532E-02 0.00000E+00
 -1      1979-1.30488E-04 1.40520E-02 0.00000E+00
 -1      1980 1.12461E-05 1.40510E-02 0.00000E+00
 -1      1981 1.53974E-04 1.40496E-02 0.00000E+00
 -1      1982 2.98074E-04 1.40472E-02 0.00000E+00
 -1      1983 4.44093E-04 1.40427E-02 0.00000E+00
 -1      1984 5.92804E-04 1.40349E-02 0.00000E+00
 -1      1985 7.45270E-04 1.40220E-02 0.00000E+00
 -1      1986 9.02896E-04 1.40017E-02 0.00000E+00
 -1      1987 1.06741E-03 1.39702E-02 0.00000E+00
 -1      1988-9.46144E-04 1.36228E-02 0.00000E+00
 -1      1989-8.06966E-04 1.36081E-02 0.00000E+00
 -1      1990-6.67206E-04 1.35973E-02 0.00000E+00
 -1      1991-5.26829E-04 1.35894E-02 0.00000E+00
 -1      1992-3.85774E-04 1.35837E-02 0.00000E+00
 -1      1993-2.43937E-04 1.35794E-02 0.00000E+00
 -1      1994-1.01160E-04 1.35758E-02 0.00000E+00
 -1      1995 4.27862E-05 1.35723E-02 0.00000E+00
 -1      1996 1.88219E-04 1.35681E-02 0.00000E+00
 -1      1997 3.35574E-04 1.35624E-02 0.00000E+00
 -1      1998 4.85432E-04 1.35540E-02 0.00000E+00
 -1      1999 6.38546E-04 1.35417E-02 0.00000E+00
 -1      2000 7.95861E-04 1.35236E-02 0.00000E+00
 -1      2001 9.58487E-04 1.34972E-02 0.00000E+00
 -1      2002 1.12758E-03 1.34594E-02 0.00000E+00
 -1      2003-8.97358E-04 1.27106E-02 0.00000E+00
 -1      2004-7.56855E-04 1.26931E-02 0.00000E+00
 -1      2005-6.15730E-04 1.26791E-02 0.00000E+00
 -1      2006-4.73801E-04 1.26678E-02 0.00000E+00
 -1      2007-3.30894E-04 1.26585E-02 0.00000E+00
 -1      2008-1.86819E-04 1.26502E-02 0.00000E+00
 -1      2009-4.13536E-05 1.26423E-02 0.00000E+00
 -1      2010 1.05764E-04 1.26340E-02 0.00000E+00
 -1      2011 2.54845E-04 1.26244E-02 0.00000E+00
 -1      2012 4.06257E-04 1.26127E-02 0.00000E+00
 -1      2013 5.60409E-04 1.25977E-02 0.00000E+00
 -1      2014 7.17731E-04 1.25781E-02 0.00000E+00
 -1      2015 8.78613E-04 1.25523E-02 0.00000E+00
 -1      2016 1.04329E-03 1.25184E-02 0.00000E+00
 -1      2017 1.21160E-03 1.24745E-02 0.00000E+00
 -1      2018-8.72553E-04 1.22625E-02 0.00000E+00
 -1      2019-7.31478E-04 1.22440E-02 0.00000E+00
 -1      2020-5.89793E-04 1.22290E-02 0.00000E+00
 -1      2021-4.47273E-04 1.22164E-02 0.00000E+00
 -1      2022-3.03708E-04 1.22054E-02 0.00000E+00
 -1      2023-1.58890E-04 1.21954E-02 0.00000E+00
 -1      2024-1.25972E-05 1.21856E-02 0.00000E+00
 -1      2025 1.35411E-04 1.21752E-02 0.00000E+00
 -1      2026 2.85401E-04 1.21634E-02 0.00000E+00
 -1      2027 4.37653E-04 1.21493E-02 0.00000E+00
 -1      2028 5.92446E-04 1.21318E-02 0.00000E+00
 -1      2029 7.50014E-04 1.21097E-02 0.00000E+00
 -1      2030 9.10478E-04 1.20817E-02 0.00000E+00
 -1      2031 1.07373E-03 1.20464E-02 0.00000E+00
 -1      2032 1.23933E-03 1.20023E-02 0.00000E+00
 -1      2033-8.47809E-04 1.18125E-02 0.00000E+00
 -1      2034-7.06228E-04 1.17936E-02 0.00000E+00
 -1      2035-5.64074E-04 1.17777E-02 0.00000E+00
 -1      2036-4.21089E-04 1.17640E-02 0.00000E+00
 -1      2037-2.77043E-04 1.17518E-02 0.00000E+00
 -1      2038-1.31726E-04 1.17402E-02 0.00000E+00
 -1      2039 1.50694E-05 1.17287E-02 0.00000E+00
 -1      2040 1.63552E-04 1.17165E-02 0.00000E+00
 -1      2041 3.13925E-04 1.17027E-02 0.00000E+00
 -1      2042 4.66379E-04 1.16866E-02 0.00000E+00
 -1      2043 6.21061E-04 1.16672E-02 0.00000E+00
 -1      2044 7.78036E-04 1.16435E-02 0.00000E+00
 -1      2045 9.37218E-04 1.16143E-02 0.00000E+00
 -1      2046 1.09829E-03 1.15787E-02 0.00000E+00
 -1      2047 1.26061E-03 1.15356E-02 0.00000E+00
 -1      2048-8.23567E-04 1.13610E-02 0.00000E+00
 -1      2049-6.81554E-04 1.13420E-02 0.00000E+00
 -1      2050-5.39025E-04 1.13255E-02 0.00000E+00
 -1      2051-3.95701E-04 1.13109E-02 0.00000E+00
 -1      2052-2.51348E-04 1.12976E-02 0.00000E+00
 -1      2053-1.05762E-04 1.12848E-02 0.00000E+00
 -1      2054 4.12425E-05 1.12718E-02 0.00000E+00
 -1      2055 1.89831E-04 1.12581E-02 0.00000E+00
 -1      2056 3.40145E-04 1.12428E-02 0.00000E+00
 -1      2057 4.92287E-04 1.12251E-02 0.00000E+00
 -1      2058 6.46294E-04 1.12044E-02 0.00000E+00
 -1      2059 8.02095E-04 1.11797E-02 0.00000E+00
 -1      2060 9.59465E-04 1.11502E-02 0.00000E+00
 -1      2061 1.11796E-03 1.11152E-02 0.00000E+00
 -1      2062 1.27683E-03 1.10740E-02 0.00000E+00
 -1      2063-8.00189E-04 1.09082E-02 0.00000E+00
 -1      2064-6.57821E-04 1.08893E-02 0.00000E+00
 -1      2065-5.15008E-04 1.08725E-02 0.00000E+00
 -1      2066-3.71465E-04 1.08573E-02 0.00000E+00
 -1      2067-2.26963E-04 1.08431E-02 0.00000E+00
 -1      2068-8.13092E-05 1.08293E-02 0.00000E+00
 -1      2069 6.56515E-05 1.08152E-02 0.00000E+00
 -1      2070 2.14043E-04 1.08002E-02 0.00000E+00
 -1      2071 3.63950E-04 1.07838E-02 0.00000E+00
 -1      2072 5.15398E-04 1.07651E-02 0.00000E+00
 -1      2073 6.68337E-04 1.07435E-02 0.00000E+00
 -1      2074 8.22604E-04 1.07185E-02 0.00000E+00
 -1      2075 9.77883E-04 1.06893E-02 0.00000E+00
 -1      2076 1.13367E-03 1.06555E-02 0.00000E+00
 -1      2077 1.28922E-03 1.06168E-02 0.00000E+00
 -1      2078-7.77961E-04 1.04543E-02 0.00000E+00
 -1      2079-6.35315E-04 1.04357E-02 0.00000E+00
 -1      2080-4.92304E-04 1.04189E-02 0.00000E+00
 -1      2081-3.48649E-04 1.04033E-02 0.00000E+00
 -1      2082-2.04130E-04 1.03885E-02 0.00000E+00
 -1      2083-5.85778E-05 1.03739E-02 0.00000E+00
 -1      2084 8.81378E-05 1.03590E-02 0.00000E+00
 -1      2085 2.36101E-04 1.03431E-02 0.00000E+00
 -1      2086 3.85345E-04 1.03259E-02 0.00000E+00
 -1      2087 5.35838E-04 1.03066E-02 0.00000E+00
 -1      2088 6.87468E-04 1.02847E-02 0.00000E+00
 -1      2089 8.40010E-04 1.02597E-02 0.00000E+00
 -1      2090 9.93109E-04 1.02313E-02 0.00000E+00
 -1      2091 1.14625E-03 1.01992E-02 0.00000E+00
 -1      2092 1.29873E-03 1.01633E-02 0.00000E+00
 -1      2093-7.57092E-04 9.99941E-03 0.00000E+00
 -1      2094-6.14241E-04 9.98139E-03 0.00000E+00
 -1      2095-4.71109E-04 9.96475E-03 0.00000E+00
 -1      2096-3.27432E-04 9.94907E-03 0.00000E+00
 -1      2097-1.83008E-04 9.93390E-03 0.00000E+00
 -1      2098-3.76870E-05 9.91880E-03 0.00000E+00
 -1      2099 1.08632E-04 9.90329E-03 0.00000E+00
 -1      2100 2.56001E-04 9.88690E-03 0.00000E+00
 -1      2101 4.04413E-04 9.86915E-03 0.00000E+00
 -1      2102 5.53794E-04 9.84959E-03 0.00000E+00
 -1      2103 7.03991E-04 9.82778E-03 0.00000E+00
 -1      2104 8.54751E-04 9.80336E-03 0.00000E+00
 -1      2105 1.00571E-03 9.77608E-03 0.00000E+00
 -1      2106 1.15636E-03 9.74584E-03 0.00000E+00
 -1      2107 1.30611E-03 9.71279E-03 0.00000E+00
 -1      2108-7.37724E-04 9.54384E-03 0.00000E+00
 -1      2109-5.94733E-04 9.52657E-03 0.00000E+00
 -1      2110-4.51547E-04 9.51030E-03 0.00000E+00
 -1      2111-3.07923E-04 9.49469E-03 0.00000E+00
 -1      2112-1.63678E-04 9.47940E-03 0.00000E+00
 -1      2113-1.86839E-05 9.46404E-03 0.00000E+00
 -1      2114 1.27136E-04 9.44823E-03 0.00000E+00
 -1      2115 2.73804E-04 9.43157E-03 0.00000E+00
 -1      2116 4.21286E-04 9.41366E-03 0.00000E+00
 -1      2117 5.69482E-04 9.39415E-03 0.00000E+00
 -1      2118 7.18215E-04 9.37271E-03 0.00000E+00
 -1      2119 8.67223E-04 9.34910E-03 0.00000E+00
 -1      2120 1.01615E-03 9.32318E-03 0.00000E+00
 -1      2121 1.16456E-03 9.29497E-03 0.00000E+00
 -1      2122 1.31190E-03 9.26470E-03 0.00000E+00
 -1      2123-7.19935E-04 9.08778E-03 0.00000E+00
 -1      2124-5.76864E-04 9.07139E-03 0.00000E+00
 -1      2125-4.33681E-04 9.05564E-03 0.00000E+00
 -1      2126-2.90167E-04 9.04030E-03 0.00000E+00
 -1      2127-1.46162E-04 9.02508E-03 0.00000E+00
 -1      2128-1.55792E-06 9.00970E-03 0.00000E+00
 -1      2129 1.43699E-04 8.99383E-03 0.00000E+00
 -1      2130 2.89612E-04 8.97714E-03 0.00000E+00
 -1      2131 4.36126E-04 8.95935E-03 0.00000E+00
 -1      2132 5.83125E-04 8.94016E-03 0.00000E+00
 -1      2133 7.30426E-04 8.91934E-03 0.00000E+00
 -1      2134 8.77774E-04 8.89674E-03 0.00000E+00
 -1      2135 1.02484E-03 8.87232E-03 0.00000E+00
 -1      2136 1.17123E-03 8.84616E-03 0.00000E+00
 -1      2137 1.31651E-03 8.81854E-03 0.00000E+00
 -1      2138-7.03754E-04 8.63139E-03 0.00000E+00
 -1      2139-5.60655E-04 8.61599E-03 0.00000E+00
 -1      2140-4.17521E-04 8.60090E-03 0.00000E+00
 -1      2141-2.74159E-04 8.58598E-03 0.00000E+00
 -1      2142-1.30433E-04 8.57103E-03 0.00000E+00
 -1      2143 1.37445E-05 8.55582E-03 0.00000E+00
 -1      2144 1.58411E-04 8.54010E-03 0.00000E+00
 -1      2145 3.03552E-04 8.52362E-03 0.00000E+00
 -1      2146 4.49102E-04 8.50615E-03 0.00000E+00
 -1      2147 5.94939E-04 8.48749E-03 0.00000E+00
 -1      2148 7.40884E-04 8.46748E-03 0.00000E+00
 -1      2149 8.86699E-04 8.44603E-03 0.00000E+00
 -1      2150 1.03209E-03 8.42317E-03 0.00000E+00
 -1      2151 1.17672E-03 8.39903E-03 0.00000E+00
 -1      2152 1.32021E-03 8.37391E-03 0.00000E+00
 -1      2153-6.89168E-04 8.17485E-03 0.00000E+00
 -1      2154-5.46084E-04 8.16049E-03 0.00000E+00
 -1      2155-4.03033E-04 8.14617E-03 0.00000E+00
 -1      2156-2.59853E-04 8.13181E-03 0.00000E+00
 -1      2157-1.16429E-04 8.11728E-03 0.00000E+00
 -1      2158 2.73084E-05 8.10241E-03 0.00000E+00
 -1      2159 1.71381E-04 8.08703E-03 0.00000E+00
 -1      2160 3.15765E-04 8.07095E-03 0.00000E+00
 -1      2161 4.60388E-04 8.05399E-03 0.00000E+00
 -1      2162 6.05130E-04 8.03602E-03 0.00000E+00
 -1      2163 7.49822E-04 8.01695E-03 0.00000E+00
 -1      2164 8.94247E-04 7.99674E-03 0.00000E+00
 -1      2165 1.03815E-03 7.97545E-03 0.00000E+00
 -1      2166 1.18124E-03 7.95327E-03 0.00000E+00
 -1      2167 1.32322E-03 7.93047E-03 0.00000E+00
 -1      2168-6.76128E-04 7.71829E-03 0.00000E+00
 -1      2169-5.33095E-04 7.70501E-03 0.00000E+00
 -1      2170-3.90155E-04 7.69153E-03 0.00000E+00
 -1      2171-2.47175E-04 7.67784E-03 0.00000E+00
 -1      2172-1.04060E-04 7.66386E-03 0.00000E+00
 -1      2173 3.92402E-05 7.64949E-03 0.00000E+00
 -1      2174 1.82737E-04 7.63460E-03 0.00000E+00
 -1      2175 3.26399E-04 7.61906E-03 0.00000E+00
 -1      2176 4.70154E-04 7.60277E-03 0.00000E+00
 -1      2177 6.13885E-04 7.58562E-03 0.00000E+00
 -1      2178 7.57440E-04 7.56757E-03 0.00000E+00
 -1      2179 9.00626E-04 7.54864E-03 0.00000E+00
 -1      2180 1.04322E-03 7.52892E-03 0.00000E+00
 -1      2181 1.18499E-03 7.50860E-03 0.00000E+00
 -1      2182 1.32569E-03 7.48794E-03 0.00000E+00
 -1      2183-6.64563E-04 7.26183E-03 0.00000E+00
 -1      2184-5.21608E-04 7.24963E-03 0.00000E+00
 -1      2185-3.78799E-04 7.23705E-03 0.00000E+00
 -1      2186-2.36026E-04 7.22412E-03 0.00000E+00
 -1      2187-9.32192E-05 7.21080E-03 0.00000E+00
 -1      2188 4.96599E-05 7.19704E-03 0.00000E+00
 -1      2189 1.92612E-04 7.18277E-03 0.00000E+00
 -1      2190 3.35602E-04 7.16791E-03 0.00000E+00
 -1      2191 4.78558E-04 7.15238E-03 0.00000E+00
 -1      2192 6.21375E-04 7.13614E-03 0.00000E+00
 -1      2193 7.63913E-04 7.11918E-03 0.00000E+00
 -1      2194 9.06008E-04 7.10156E-03 0.00000E+00
 -1      2195 1.04747E-03 7.08337E-03 0.00000E+00
 -1      2196 1.18811E-03 7.06480E-03 0.00000E+00
 -1      2197 1.32772E-03 7.04612E-03 0.00000E+00
 -1      2198-6.54383E-04 6.80556E-03 0.00000E+00
 -1      2199-5.11528E-04 6.79445E-03 0.00000E+00
 -1      2200-3.68861E-04 6.78279E-03 0.00000E+00
 -1      2201-2.26298E-04 6.77067E-03 0.00000E+00
 -1      2202-8.37879E-05 6.75810E-03 0.00000E+00
 -1      2203 5.86945E-05 6.74505E-03 0.00000E+00
 -1      2204 2.01142E-04 6.73150E-03 0.00000E+00
 -1      2205 3.43517E-04 6.71740E-03 0.00000E+00
 -1      2206 4.85753E-04 6.70272E-03 0.00000E+00
 -1      2207 6.27752E-04 6.68746E-03 0.00000E+00
 -1      2208 7.69394E-04 6.67164E-03 0.00000E+00
 -1      2209 9.10537E-04 6.65531E-03 0.00000E+00
 -1      2210 1.05102E-03 6.63860E-03 0.00000E+00
 -1      2211 1.19070E-03 6.62169E-03 0.00000E+00
 -1      2212 1.32940E-03 6.60482E-03 0.00000E+00
 -1      2213-6.45487E-04 6.34956E-03 0.00000E+00
 -1      2214-5.02747E-04 6.33950E-03 0.00000E+00
 -1      2215-3.60228E-04 6.32879E-03 0.00000E+00
 -1      2216-2.17872E-04 6.31752E-03 0.00000E+00
 -1      2217-7.56423E-05 6.30575E-03 0.00000E+00
 -1      2218 6.64729E-05 6.29348E-03 0.00000E+00
 -1      2219 2.08461E-04 6.28073E-03 0.00000E+00
 -1      2220 3.50283E-04 6.26747E-03 0.00000E+00
 -1      2221 4.91876E-04 6.25372E-03 0.00000E+00
 -1      2222 6.33155E-04 6.23948E-03 0.00000E+00
 -1      2223 7.74015E-04 6.22479E-03 0.00000E+00
 -1      2224 9.14336E-04 6.20975E-03 0.00000E+00
 -1      2225 1.05399E-03 6.19446E-03 0.00000E+00
 -1      2226 1.19285E-03 6.17911E-03 0.00000E+00
 -1      2227 1.33079E-03 6.16390E-03 0.00000E+00
 -1      2228-6.37768E-04 5.89388E-03 0.00000E+00
 -1      2229-4.95153E-04 5.88484E-03 0.00000E+00
 -1      2230-3.52785E-04 5.87506E-03 0.00000E+00
 -1      2231-2.10627E-04 5.86468E-03 0.00000E+00
 -1      2232-6.86580E-05 5.85375E-03 0.00000E+00
 -1      2233 7.31228E-05 5.84232E-03 0.00000E+00
 -1      2234 2.14698E-04 5.83042E-03 0.00000E+00
 -1      2235 3.56028E-04 5.81806E-03 0.00000E+00
 -1      2236 4.97056E-04 5.80527E-03 0.00000E+00
 -1      2237 6.37707E-04 5.79207E-03 0.00000E+00
 -1      2238 7.77891E-04 5.77854E-03 0.00000E+00
 -1      2239 9.17508E-04 5.76475E-03 0.00000E+00
 -1      2240 1.05645E-03 5.75083E-03 0.00000E+00
 -1      2241 1.19463E-03 5.73694E-03 0.00000E+00
 -1      2242 1.33194E-03 5.72327E-03 0.00000E+00
 -1      2243-6.31118E-04 5.43856E-03 0.00000E+00
 -1      2244-4.88633E-04 5.43049E-03 0.00000E+00
 -1      2245-3.46413E-04 5.42164E-03 0.00000E+00
 -1      2246-2.04442E-04 5.41214E-03 0.00000E+00
 -1      2247-6.27129E-05 5.40209E-03 0.00000E+00
 -1      2248 7.87671E-05 5.39153E-03 0.00000E+00
 -1      2249 2.19975E-04 5.38052E-03 0.00000E+00
 -1      2250 3.60874E-04 5.36910E-03 0.00000E+00
 -1      2251 5.01411E-04 5.35729E-03 0.00000E+00
 -1      2252 6.41520E-04 5.34516E-03 0.00000E+00
 -1      2253 7.81124E-04 5.33277E-03 0.00000E+00
 -1      2254 9.20143E-04 5.32021E-03 0.00000E+00
 -1      2255 1.05849E-03 5.30760E-03 0.00000E+00
 -1      2256 1.19609E-03 5.29508E-03 0.00000E+00
 -1      2257 1.33287E-03 5.28284E-03 0.00000E+00
 -1      2258-6.25429E-04 4.98361E-03 0.00000E+00
 -1      2259-4.83075E-04 4.97646E-03 0.00000E+00
 -1      2260-3.40999E-04 4.96852E-03 0.00000E+00
 -1      2261-1.99202E-04 4.95991E-03 0.00000E+00
 -1      2262-5.76899E-05 4.95074E-03 0.00000E+00
 -1      2263 8.35227E-05 4.94108E-03 0.00000E+00
 -1      2264 2.24410E-04 4.93099E-03 0.00000E+00
 -1      2265 3.64934E-04 4.92052E-03 0.00000E+00
 -1      2266 5.05046E-04 4.90973E-03 0.00000E+00
 -1      2267 6.44691E-04 4.89866E-03 0.00000E+00
 -1      2268 7.83804E-04 4.88740E-03 0.00000E+00
 -1      2269 9.22317E-04 4.87603E-03 0.00000E+00
 -1      2270 1.06016E-03 4.86467E-03 0.00000E+00
 -1      2271 1.19729E-03 4.85345E-03 0.00000E+00
 -1      2272 1.33363E-03 4.84253E-03 0.00000E+00
 -1      2273-6.20599E-04 4.52906E-03 0.00000E+00
 -1      2274-4.78373E-04 4.52278E-03 0.00000E+00
 -1      2275-3.36434E-04 4.51570E-03 0.00000E+00
 -1      2276-1.94797E-04 4.50797E-03 0.00000E+00
 -1      2277-5.34791E-05 4.49969E-03 0.00000E+00
 -1      2278 8.74985E-05 4.49094E-03 0.00000E+00
 -1      2279 2.28106E-04 4.48179E-03 0.00000E+00
 -1      2280 3.68308E-04 4.47229E-03 0.00000E+00
 -1      2281 5.08059E-04 4.46251E-03 0.00000E+00
 -1      2282 6.47310E-04 4.45250E-03 0.00000E+00
 -1      2283 7.86007E-04 4.44235E-03 0.00000E+00
 -1      2284 9.24097E-04 4.43215E-03 0.00000E+00
 -1      2285 1.06153E-03 4.42198E-03 0.00000E+00
 -1      2286 1.19825E-03 4.41199E-03 0.00000E+00
 -1      2287 1.33424E-03 4.40230E-03 0.00000E+00
 -1      2288-6.16531E-04 4.07489E-03 0.00000E+00
 -1      2289-4.74427E-04 4.06942E-03 0.00000E+00
 -1      2290-3.32617E-04 4.06318E-03 0.00000E+00
 -1      2291-1.91125E-04 4.05631E-03 0.00000E+00
 -1      2292-4.99783E-05 4.04892E-03 0.00000E+00
 -1      2293 9.07946E-05 4.04108E-03 0.00000E+00
 -1      2294 2.31162E-04 4.03286E-03 0.00000E+00
 -1      2295 3.71089E-04 4.02434E-03 0.00000E+00
 -1      2296 5.10534E-04 4.01557E-03 0.00000E+00
 -1      2297 6.49454E-04 4.00662E-03 0.00000E+00
 -1      2298 7.87805E-04 3.99757E-03 0.00000E+00
 -1      2299 9.25543E-04 3.98849E-03 0.00000E+00
 -1      2300 1.06263E-03 3.97948E-03 0.00000E+00
 -1      2301 1.19903E-03 3.97065E-03 0.00000E+00
 -1      2302 1.33473E-03 3.96212E-03 0.00000E+00
 -1      2303-6.13136E-04 3.62108E-03 0.00000E+00
 -1      2304-4.71147E-04 3.61637E-03 0.00000E+00
 -1      2305-3.29453E-04 3.61094E-03 0.00000E+00
 -1      2306-1.88091E-04 3.60491E-03 0.00000E+00
 -1      2307-4.70948E-05 3.59839E-03 0.00000E+00
 -1      2308 9.35021E-05 3.59146E-03 0.00000E+00
 -1      2309 2.33666E-04 3.58419E-03 0.00000E+00
 -1      2310 3.73360E-04 3.57664E-03 0.00000E+00
 -1      2311 5.12549E-04 3.56888E-03 0.00000E+00
 -1      2312 6.51194E-04 3.56098E-03 0.00000E+00
 -1      2313 7.89258E-04 3.55299E-03 0.00000E+00
 -1      2314 9.26706E-04 3.54500E-03 0.00000E+00
 -1      2315 1.06351E-03 3.53710E-03 0.00000E+00
 -1      2316 1.19964E-03 3.52938E-03 0.00000E+00
 -1      2317 1.33510E-03 3.52195E-03 0.00000E+00
 -1      2318-6.10332E-04 3.16763E-03 0.00000E+00
 -1      2319-4.68449E-04 3.16362E-03 0.00000E+00
 -1      2320-3.26860E-04 3.15896E-03 0.00000E+00
 -1      2321-1.85612E-04 3.15375E-03 0.00000E+00
 -1      2322-4.47453E-05 3.14809E-03 0.00000E+00
 -1      2323 9.57020E-05 3.14206E-03 0.00000E+00
 -1      2324 2.35694E-04 3.13573E-03 0.00000E+00
 -1      2325 3.75196E-04 3.12915E-03 0.00000E+00
 -1      2326 5.14172E-04 3.12239E-03 0.00000E+00
 -1      2327 6.52590E-04 3.11551E-03 0.00000E+00
 -1      2328 7.90418E-04 3.10858E-03 0.00000E+00
 -1      2329 9.27630E-04 3.10166E-03 0.00000E+00
 -1      2330 1.06420E-03 3.09483E-03 0.00000E+00
 -1      2331 1.20012E-03 3.08817E-03 0.00000E+00
 -1      2332 1.33539E-03 3.08178E-03 0.00000E+00
 -1      2333-6.08048E-04 2.71448E-03 0.00000E+00
 -1      2334-4.66259E-04 2.71114E-03 0.00000E+00
 -1      2335-3.24763E-04 2.70722E-03 0.00000E+00
 -1      2336-1.83613E-04 2.70281E-03 0.00000E+00
 -1      2337-4.28564E-05 2.69799E-03 0.00000E+00
 -1      2338 9.74658E-05 2.69285E-03 0.00000E+00
 -1      2339 2.37316E-04 2.68744E-03 0.00000E+00
 -1      2340 3.76659E-04 2.68183E-03 0.00000E+00
 -1      2341 5.15462E-04 2.67606E-03 0.00000E+00
 -1      2342 6.53696E-04 2.67020E-03 0.00000E+00
 -1      2343 7.91333E-04 2.66430E-03 0.00000E+00
 -1      2344 9.28354E-04 2.65842E-03 0.00000E+00
 -1      2345 1.06474E-03 2.65262E-03 0.00000E+00
 -1      2346 1.20049E-03 2.64699E-03 0.00000E+00
 -1      2347 1.33560E-03 2.64159E-03 0.00000E+00
 -1      2348-6.06221E-04 2.26162E-03 0.00000E+00
 -1      2349-4.64513E-04 2.25890E-03 0.00000E+00
 -1      2350-3.23096E-04 2.25568E-03 0.00000E+00
 -1      2351-1.82030E-04 2.25205E-03 0.00000E+00
 -1      2352-4.13645E-05 2.24806E-03 0.00000E+00
 -1      2353 9.88552E-05 2.24380E-03 0.00000E+00
 -1      2354 2.38590E-04 2.23931E-03 0.00000E+00
 -1      2355 3.77805E-04 2.23465E-03 0.00000E+00
 -1      2356 5.16469E-04 2.22987E-03 0.00000E+00
 -1      2357 6.54556E-04 2.22501E-03 0.00000E+00
 -1      2358 7.92042E-04 2.22012E-03 0.00000E+00
 -1      2359 9.28912E-04 2.21525E-03 0.00000E+00
 -1      2360 1.06515E-03 2.21047E-03 0.00000E+00
 -1      2361 1.20077E-03 2.20582E-03 0.00000E+00
 -1      2362 1.33576E-03 2.20138E-03 0.00000E+00
 -1      2363-6.04799E-04 1.80900E-03 0.00000E+00
 -1      2364-4.63159E-04 1.80687E-03 0.00000E+00
 -1      2365-3.21807E-04 1.80433E-03 0.00000E+00
 -1      2366-1.80808E-04 1.80144E-03 0.00000E+00
 -1      2367-4.02162E-05 1.79828E-03 0.00000E+00
 -1      2368 9.99218E-05 1.79488E-03 0.00000E+00
 -1      2369 2.39566E-04 1.79131E-03 0.00000E+00
 -1      2370 3.78680E-04 1.78759E-03 0.00000E+00
 -1      2371 5.17236E-04 1.78378E-03 0.00000E+00
 -1      2372 6.55208E-04 1.77990E-03 0.00000E+00
 -1      2373 7.92577E-04 1.77601E-03 0.00000E+00
 -1      2374 9.29330E-04 1.77214E-03 0.00000E+00
 -1      2375 1.06546E-03 1.76834E-03 0.00000E+00
 -1      2376 1.20097E-03 1.76466E-03 0.00000E+00
 -1      2377 1.33587E-03 1.76114E-03 0.00000E+00
 -1      2378-6.03737E-04 1.35658E-03 0.00000E+00
 -1      2379-4.62151E-04 1.35500E-03 0.00000E+00
 -1      2380-3.20850E-04 1.35312E-03 0.00000E+00
 -1      2381-1.79904E-04 1.35097E-03 0.00000E+00
 -1      2382-3.93680E-05 1.34861E-03 0.00000E+00
 -1      2383 1.00708E-04 1.34607E-03 0.00000E+00
 -1      2384 2.40283E-04 1.34340E-03 0.00000E+00
 -1      2385 3.79323E-04 1.34062E-03 0.00000E+00
 -1      2386 5.17797E-04 1.33777E-03 0.00000E+00
 -1      2387 6.55684E-04 1.33487E-03 0.00000E+00
 -1      2388 7.92966E-04 1.33196E-03 0.00000E+00
 -1      2389 9.29633E-04 1.32908E-03 0.00000E+00
 -1      2390 1.06568E-03 1.32624E-03 0.00000E+00
 -1      2391 1.20112E-03 1.32350E-03 0.00000E+00
 -1      2392 1.33595E-03 1.32088E-03 0.00000E+00
 -1      2393-6.03003E-04 9.04300E-04 0.00000E+00
 -1      2394-4.61455E-04 9.03263E-04 0.00000E+00
 -1      2395-3.20191E-04 9.02015E-04 0.00000E+00
 -1      2396-1.79282E-04 9.00592E-04 0.00000E+00
 -1      2397-3.87861E-05 8.99023E-04 0.00000E+00
 -1      2398 1.01246E-04 8.97337E-04 0.00000E+00
 -1      2399 2.40774E-04 8.95559E-04 0.00000E+00
 -1      2400 3.79761E-04 8.93710E-04 0.00000E+00
 -1      2401 5.18179E-04 8.91813E-04 0.00000E+00
 -1      2402 6.56007E-04 8.89887E-04 0.00000E+00
 -1      2403 7.93229E-04 8.87955E-04 0.00000E+00
 -1      2404 9.29836E-04 8.86036E-04 0.00000E+00
 -1      2405 1.06583E-03 8.84155E-04 0.00000E+00
 -1      2406 1.20121E-03 8.82334E-04 0.00000E+00
 -1      2407 1.33600E-03 8.80597E-04 0.00000E+00
 -1      2408-6.02572E-04 4.52125E-04 0.00000E+00
 -1      2409-4.61047E-04 4.51610E-04 0.00000E+00
 -1      2410-3.19806E-04 4.50989E-04 0.00000E+00
 -1      2411-1.78919E-04 4.50279E-04 0.00000E+00
 -1      2412-3.84466E-05 4.49497E-04 0.00000E+00
 -1      2413 1.01560E-04 4.48656E-04 0.00000E+00
 -1      2414 2.41059E-04 4.47768E-04 0.00000E+00
 -1      2415 3.80015E-04 4.46845E-04 0.00000E+00
 -1      2416 5.18401E-04 4.45897E-04 0.00000E+00
 -1      2417 6.56195E-04 4.44936E-04 0.00000E+00
 -1      2418 7.93381E-04 4.43971E-04 0.00000E+00
 -1      2419 9.29954E-04 4.43014E-04 0.00000E+00
 -1      2420 1.06591E-03 4.42076E-04 0.00000E+00
 -1      2421 1.20126E-03 4.41168E-04 0.00000E+00
 -1      2422 1.33603E-03 4.40302E-04 0.00000E+00
 -1      2423 1.60442E-03 4.38746E-04 0.00000E+00
 -1      2424 1.60443E-03 8.77472E-04 0.00000E+00
 -1      2425 1.60445E-03 1.31616E-03 0.00000E+00
 -1      2426 1.60447E-03 1.75479E-03 0.00000E+00
 -1      2427 1.60450E-03 2.19334E-03 0.00000E+00
 -1      2428 1.60452E-03 2.63180E-03 0.00000E+00
 -1      2429 1.60453E-03 3.07016E-03 0.00000E+00
 -1      2430 1.60453E-03 3.50839E-03 0.00000E+00
 -1      2431 1.60452E-03 3.94649E-03 0.00000E+00
 -1      2432 1.60448E-03 4.38446E-03 0.00000E+00
 -1      2433 1.60443E-03 4.82229E-03 0.00000E+00
 -1      2434 1.60435E-03 5.25998E-03 0.00000E+00
 -1      2435 1.60425E-03 5.69756E-03 0.00000E+00
 -1      2436 1.60412E-03 6.13502E-03 0.00000E+00
 -1      2437 1.60395E-03 6.57242E-03 0.00000E+00
 -1      2438 1.60376E-03 7.00980E-03 0.00000E+00
 -1      2439 1.60353E-03 7.44723E-03 0.00000E+00
 -1      2440 1.60324E-03 7.88480E-03 0.00000E+00
 -1      2441 1.60287E-03 8.32267E-03 0.00000E+00
 -1      2442 1.60237E-03 8.76101E-03 0.00000E+00
 -1      2443 1.60163E-03 9.20010E-03 0.00000E+00
 -1      2444 1.60052E-03 9.64030E-03 0.00000E+00
 -1      2445 1.59878E-03 1.00821E-02 0.00000E+00
 -1      2446 1.59600E-03 1.05262E-02 0.00000E+00
 -1      2447 1.59158E-03 1.09734E-02 0.00000E+00
 -1      2448 1.58454E-03 1.14249E-02 0.00000E+00
 -1      2449 1.57346E-03 1.18822E-02 0.00000E+00
 -1      2450 1.55632E-03 1.23470E-02 0.00000E+00
 -1      2451 1.73813E-03 4.38079E-04 0.00000E+00
 -1      2452 1.73815E-03 8.76133E-04 0.00000E+00
 -1      2453 1.73819E-03 1.31414E-03 0.00000E+00
 -1      2454 1.73824E-03 1.75206E-03 0.00000E+00
 -1      2455 1.73830E-03 2.18988E-03 0.00000E+00
 -1      2456 1.73838E-03 2.62758E-03 0.00000E+00
 -1      2457 1.73846E-03 3.06513E-03 0.00000E+00
 -1      2458 1.73855E-03 3.50250E-03 0.00000E+00
 -1      2459 1.73865E-03 3.93968E-03 0.00000E+00
 -1      2460 1.73876E-03 4.37665E-03 0.00000E+00
 -1      2461 1.73888E-03 4.81337E-03 0.00000E+00
 -1      2462 1.73902E-03 5.24985E-03 0.00000E+00
 -1      2463 1.73919E-03 5.68607E-03 0.00000E+00
 -1      2464 1.73939E-03 6.12201E-03 0.00000E+00
 -1      2465 1.73964E-03 6.55768E-03 0.00000E+00
 -1      2466 1.73996E-03 6.99308E-03 0.00000E+00
 -1      2467 1.74035E-03 7.42824E-03 0.00000E+00
 -1      2468 1.74083E-03 7.86319E-03 0.00000E+00
 -1      2469 1.74142E-03 8.29800E-03 0.00000E+00
 -1      2470 1.74211E-03 8.73278E-03 0.00000E+00
 -1      2471 1.74288E-03 9.16768E-03 0.00000E+00
 -1      2472 1.74367E-03 9.60297E-03 0.00000E+00
 -1      2473 1.74435E-03 1.00390E-02 0.00000E+00
 -1      2474 1.74467E-03 1.04764E-02 0.00000E+00
 -1      2475 1.74420E-03 1.09158E-02 0.00000E+00
 -1      2476 1.74218E-03 1.13585E-02 0.00000E+00
 -1      2477 1.73736E-03 1.18060E-02 0.00000E+00
 -1      2478 1.72759E-03 1.22605E-02 0.00000E+00
 -1      2479 1.87141E-03 4.37504E-04 0.00000E+00
 -1      2480 1.87144E-03 8.74977E-04 0.00000E+00
 -1      2481 1.87149E-03 1.31239E-03 0.00000E+00
 -1      2482 1.87155E-03 1.74970E-03 0.00000E+00
 -1      2483 1.87163E-03 2.18689E-03 0.00000E+00
 -1      2484 1.87174E-03 2.62392E-03 0.00000E+00
 -1      2485 1.87186E-03 3.06076E-03 0.00000E+00
 -1      2486 1.87200E-03 3.49738E-03 0.00000E+00
 -1      2487 1.87216E-03 3.93374E-03 0.00000E+00
 -1      2488 1.87236E-03 4.36981E-03 0.00000E+00
 -1      2489 1.87258E-03 4.80555E-03 0.00000E+00
 -1      2490 1.87286E-03 5.24093E-03 0.00000E+00
 -1      2491 1.87319E-03 5.67591E-03 0.00000E+00
 -1      2492 1.87359E-03 6.11045E-03 0.00000E+00
 -1      2493 1.87410E-03 6.54451E-03 0.00000E+00
 -1      2494 1.87472E-03 6.97805E-03 0.00000E+00
 -1      2495 1.87551E-03 7.41103E-03 0.00000E+00
 -1      2496 1.87648E-03 7.84343E-03 0.00000E+00
 -1      2497 1.87769E-03 8.27522E-03 0.00000E+00
 -1      2498 1.87918E-03 8.70640E-03 0.00000E+00
 -1      2499 1.88098E-03 9.13700E-03 0.00000E+00
 -1      2500 1.88312E-03 9.56710E-03 0.00000E+00
 -1      2501 1.88559E-03 9.99685E-03 0.00000E+00
 -1      2502 1.88831E-03 1.04266E-02 0.00000E+00
 -1      2503 1.89109E-03 1.08568E-02 0.00000E+00
 -1      2504 1.89350E-03 1.12883E-02 0.00000E+00
 -1      2505 1.89464E-03 1.17225E-02 0.00000E+00
 -1      2506 1.89286E-03 1.21617E-02 0.00000E+00
 -1      2507 2.00433E-03 4.37030E-04 0.00000E+00
 -1      2508 2.00436E-03 8.74024E-04 0.00000E+00
 -1      2509 2.00440E-03 1.31095E-03 0.00000E+00
 -1      2510 2.00447E-03 1.74776E-03 0.00000E+00
 -1      2511 2.00455E-03 2.18442E-03 0.00000E+00
 -1      2512 2.00466E-03 2.62090E-03 0.00000E+00
 -1      2513 2.00479E-03 3.05715E-03 0.00000E+00
 -1      2514 2.00494E-03 3.49314E-03 0.00000E+00
 -1      2515 2.00513E-03 3.92881E-03 0.00000E+00
 -1      2516 2.00535E-03 4.36412E-03 0.00000E+00
 -1      2517 2.00561E-03 4.79902E-03 0.00000E+00
 -1      2518 2.00593E-03 5.23346E-03 0.00000E+00
 -1      2519 2.00632E-03 5.66737E-03 0.00000E+00
 -1      2520 2.00680E-03 6.10068E-03 0.00000E+00
 -1      2521 2.00740E-03 6.53333E-03 0.00000E+00
 -1      2522 2.00814E-03 6.96521E-03 0.00000E+00
 -1      2523 2.00908E-03 7.39625E-03 0.00000E+00
 -1      2524 2.01024E-03 7.82634E-03 0.00000E+00
 -1      2525 2.01171E-03 8.25535E-03 0.00000E+00
 -1      2526 2.01353E-03 8.68317E-03 0.00000E+00
 -1      2527 2.01580E-03 9.10966E-03 0.00000E+00
 -1      2528 2.01859E-03 9.53468E-03 0.00000E+00
 -1      2529 2.02199E-03 9.95815E-03 0.00000E+00
 -1      2530 2.02608E-03 1.03800E-02 0.00000E+00
 -1      2531 2.03088E-03 1.08003E-02 0.00000E+00
 -1      2532 2.03630E-03 1.12192E-02 0.00000E+00
 -1      2533 2.04199E-03 1.16375E-02 0.00000E+00
 -1      2534 2.04708E-03 1.20567E-02 0.00000E+00
 -1      2535 2.13695E-03 4.36667E-04 0.00000E+00
 -1      2536 2.13697E-03 8.73293E-04 0.00000E+00
 -1      2537 2.13701E-03 1.30984E-03 0.00000E+00
 -1      2538 2.13707E-03 1.74626E-03 0.00000E+00
 -1      2539 2.13714E-03 2.18252E-03 0.00000E+00
 -1      2540 2.13723E-03 2.61857E-03 0.00000E+00
 -1      2541 2.13735E-03 3.05437E-03 0.00000E+00
 -1      2542 2.13748E-03 3.48986E-03 0.00000E+00
 -1      2543 2.13764E-03 3.92500E-03 0.00000E+00
 -1      2544 2.13784E-03 4.35972E-03 0.00000E+00
 -1      2545 2.13808E-03 4.79396E-03 0.00000E+00
 -1      2546 2.13837E-03 5.22765E-03 0.00000E+00
 -1      2547 2.13872E-03 5.66070E-03 0.00000E+00
 -1      2548 2.13916E-03 6.09304E-03 0.00000E+00
 -1      2549 2.13971E-03 6.52454E-03 0.00000E+00
 -1      2550 2.14039E-03 6.95509E-03 0.00000E+00
 -1      2551 2.14124E-03 7.38453E-03 0.00000E+00
 -1      2552 2.14232E-03 7.81270E-03 0.00000E+00
 -1      2553 2.14368E-03 8.23938E-03 0.00000E+00
 -1      2554 2.14539E-03 8.66434E-03 0.00000E+00
 -1      2555 2.14754E-03 9.08729E-03 0.00000E+00
 -1      2556 2.15023E-03 9.50788E-03 0.00000E+00
 -1      2557 2.15361E-03 9.92572E-03 0.00000E+00
 -1      2558 2.15782E-03 1.03403E-02 0.00000E+00
 -1      2559 2.16302E-03 1.07512E-02 0.00000E+00
 -1      2560 2.16938E-03 1.11578E-02 0.00000E+00
 -1      2561 2.17701E-03 1.15597E-02 0.00000E+00
 -1      2562 2.18582E-03 1.19565E-02 0.00000E+00
 -1      2563 2.26936E-03 4.36420E-04 0.00000E+00
 -1      2564 2.26937E-03 8.72797E-04 0.00000E+00
 -1      2565 2.26940E-03 1.30909E-03 0.00000E+00
 -1      2566 2.26943E-03 1.74525E-03 0.00000E+00
 -1      2567 2.26948E-03 2.18123E-03 0.00000E+00
 -1      2568 2.26955E-03 2.61699E-03 0.00000E+00
 -1      2569 2.26962E-03 3.05248E-03 0.00000E+00
 -1      2570 2.26971E-03 3.48763E-03 0.00000E+00
 -1      2571 2.26982E-03 3.92240E-03 0.00000E+00
 -1      2572 2.26996E-03 4.35671E-03 0.00000E+00
 -1      2573 2.27012E-03 4.79049E-03 0.00000E+00
 -1      2574 2.27032E-03 5.22367E-03 0.00000E+00
 -1      2575 2.27056E-03 5.65613E-03 0.00000E+00
 -1      2576 2.27087E-03 6.08778E-03 0.00000E+00
 -1      2577 2.27125E-03 6.51848E-03 0.00000E+00
 -1      2578 2.27172E-03 6.94808E-03 0.00000E+00
 -1      2579 2.27231E-03 7.37638E-03 0.00000E+00
 -1      2580 2.27307E-03 7.80318E-03 0.00000E+00
 -1      2581 2.27401E-03 8.22818E-03 0.00000E+00
 -1      2582 2.27522E-03 8.65107E-03 0.00000E+00
 -1      2583 2.27674E-03 9.07141E-03 0.00000E+00
 -1      2584 2.27867E-03 9.48869E-03 0.00000E+00
 -1      2585 2.28113E-03 9.90227E-03 0.00000E+00
 -1      2586 2.28424E-03 1.03113E-02 0.00000E+00
 -1      2587 2.28821E-03 1.07148E-02 0.00000E+00
 -1      2588 2.29324E-03 1.11113E-02 0.00000E+00
 -1      2589 2.29962E-03 1.14993E-02 0.00000E+00
 -1      2590 2.30767E-03 1.18764E-02 0.00000E+00
 -1      2591 2.40163E-03 4.36296E-04 0.00000E+00
 -1      2592 2.40164E-03 8.72547E-04 0.00000E+00
 -1      2593 2.40165E-03 1.30871E-03 0.00000E+00
 -1      2594 2.40166E-03 1.74474E-03 0.00000E+00
 -1      2595 2.40168E-03 2.18058E-03 0.00000E+00
 -1      2596 2.40170E-03 2.61619E-03 0.00000E+00
 -1      2597 2.40173E-03 3.05152E-03 0.00000E+00
 -1      2598 2.40176E-03 3.48650E-03 0.00000E+00
 -1      2599 2.40180E-03 3.92108E-03 0.00000E+00
 -1      2600 2.40184E-03 4.35519E-03 0.00000E+00
 -1      2601 2.40190E-03 4.78874E-03 0.00000E+00
 -1      2602 2.40197E-03 5.22164E-03 0.00000E+00
 -1      2603 2.40206E-03 5.65381E-03 0.00000E+00
 -1      2604 2.40217E-03 6.08510E-03 0.00000E+00
 -1      2605 2.40230E-03 6.51539E-03 0.00000E+00
 -1      2606 2.40247E-03 6.94449E-03 0.00000E+00
 -1      2607 2.40268E-03 7.37221E-03 0.00000E+00
 -1      2608 2.40295E-03 7.79829E-03 0.00000E+00
 -1      2609 2.40329E-03 8.22241E-03 0.00000E+00
 -1      2610 2.40372E-03 8.64420E-03 0.00000E+00
 -1      2611 2.40427E-03 9.06315E-03 0.00000E+00
 -1      2612 2.40497E-03 9.47867E-03 0.00000E+00
 -1      2613 2.40587E-03 9.88994E-03 0.00000E+00
 -1      2614 2.40702E-03 1.02959E-02 0.00000E+00
 -1      2615 2.40849E-03 1.06953E-02 0.00000E+00
 -1      2616 2.41040E-03 1.10862E-02 0.00000E+00
 -1      2617 2.41287E-03 1.14661E-02 0.00000E+00
 -1      2618 2.41610E-03 1.18315E-02 0.00000E+00
 -1      2619 2.53386E-03 4.36296E-04 0.00000E+00
 -1      2620 2.53386E-03 8.72547E-04 0.00000E+00
 -1      2621 2.53385E-03 1.30871E-03 0.00000E+00
 -1      2622 2.53384E-03 1.74474E-03 0.00000E+00
 -1      2623 2.53382E-03 2.18058E-03 0.00000E+00
 -1      2624 2.53380E-03 2.61619E-03 0.00000E+00
 -1      2625 2.53377E-03 3.05152E-03 0.00000E+00
 -1      2626 2.53374E-03 3.48650E-03 0.00000E+00
 -1      2627 2.53370E-03 3.92108E-03 0.00000E+00
 -1      2628 2.53365E-03 4.35519E-03 0.00000E+00
 -1      2629 2.53359E-03 4.78874E-03 0.00000E+00
 -1      2630 2.53352E-03 5.22164E-03 0.00000E+00
 -1      2631 2.53344E-03 5.65381E-03 0.00000E+00
 -1      2632 2.53333E-03 6.08510E-03 0.00000E+00
 -1      2633 2.53319E-03 6.51539E-03 0.00000E+00
 -1      2634 2.53302E-03 6.94449E-03 0.00000E+00
 -1      2635 2.53281E-03 7.37221E-03 0.00000E+00
 -1      2636 2.53254E-03 7.79829E-03 0.00000E+00
 -1      2637 2.53220E-03 8.22241E-03 0.00000E+00
 -1      2638 2.53177E-03 8.64420E-03 0.00000E+00
 -1      2639 2.53122E-03 9.06315E-03 0.00000E+00
 -1      2640 2.53052E-03 9.47867E-03 0.00000E+00
 -1      2641 2.52963E-03 9.88994E-03 0.00000E+00
 -1      2642 2.52848E-03 1.02959E-02 0.00000E+00
 -1      2643 2.52701E-03 1.06953E-02 0.00000E+00
 -1      2644 2.52510E-03 1.10862E-02 0.00000E+00
 -1      2645 2.52262E-03 1.14661E-02 0.00000E+00
 -1      2646 2.51939E-03 1.18315E-02 0.00000E+00
 -1      2647 2.66614E-03 4.36420E-04 0.00000E+00
 -1      2648 2.66612E-03 8.72797E-04 0.00000E+00
 -1      2649 2.66610E-03 1.30909E-03 0.00000E+00
 -1      2650 2.66606E-03 1.74525E-03 0.00000E+00
 -1      2651 2.66601E-03 2.18123E-03 0.00000E+00
 -1      2652 2.66595E-03 2.61699E-03 0.00000E+00
 -1      2653 2.66588E-03 3.05248E-03 0.00000E+00
 -1      2654 2.66578E-03 3.48763E-03 0.00000E+00
 -1      2655 2.66567E-03 3.92240E-03 0.00000E+00
 -1      2656 2.66554E-03 4.35671E-03 0.00000E+00
 -1      2657 2.66538E-03 4.79049E-03 0.00000E+00
 -1      2658 2.66518E-03 5.22367E-03 0.00000E+00
 -1      2659 2.66493E-03 5.65613E-03 0.00000E+00
 -1      2660 2.66463E-03 6.08778E-03 0.00000E+00
 -1      2661 2.66425E-03 6.51848E-03 0.00000E+00
 -1      2662 2.66378E-03 6.94808E-03 0.00000E+00
 -1      2663 2.66318E-03 7.37638E-03 0.00000E+00
 -1      2664 2.66243E-03 7.80318E-03 0.00000E+00
 -1      2665 2.66148E-03 8.22818E-03 0.00000E+00
 -1      2666 2.66028E-03 8.65107E-03 0.00000E+00
 -1      2667 2.65876E-03 9.07141E-03 0.00000E+00
 -1      2668 2.65682E-03 9.48869E-03 0.00000E+00
 -1      2669 2.65437E-03 9.90227E-03 0.00000E+00
 -1      2670 2.65125E-03 1.03113E-02 0.00000E+00
 -1      2671 2.64729E-03 1.07148E-02 0.00000E+00
 -1      2672 2.64226E-03 1.11113E-02 0.00000E+00
 -1      2673 2.63587E-03 1.14993E-02 0.00000E+00
 -1      2674 2.62783E-03 1.18764E-02 0.00000E+00
 -1      2675 2.79855E-03 4.36667E-04 0.00000E+00
 -1      2676 2.79852E-03 8.73293E-04 0.00000E+00
 -1      2677 2.79848E-03 1.30984E-03 0.00000E+00
 -1      2678 2.79843E-03 1.74626E-03 0.00000E+00
 -1      2679 2.79835E-03 2.18252E-03 0.00000E+00
 -1      2680 2.79826E-03 2.61857E-03 0.00000E+00
 -1      2681 2.79815E-03 3.05437E-03 0.00000E+00
 -1      2682 2.79802E-03 3.48986E-03 0.00000E+00
 -1      2683 2.79785E-03 3.92500E-03 0.00000E+00
 -1      2684 2.79766E-03 4.35972E-03 0.00000E+00
 -1      2685 2.79742E-03 4.79396E-03 0.00000E+00
 -1      2686 2.79713E-03 5.22765E-03 0.00000E+00
 -1      2687 2.79678E-03 5.66070E-03 0.00000E+00
 -1      2688 2.79634E-03 6.09304E-03 0.00000E+00
 -1      2689 2.79579E-03 6.52454E-03 0.00000E+00
 -1      2690 2.79511E-03 6.95509E-03 0.00000E+00
 -1      2691 2.79425E-03 7.38453E-03 0.00000E+00
 -1      2692 2.79317E-03 7.81270E-03 0.00000E+00
 -1      2693 2.79182E-03 8.23938E-03 0.00000E+00
 -1      2694 2.79011E-03 8.66434E-03 0.00000E+00
 -1      2695 2.78796E-03 9.08729E-03 0.00000E+00
 -1      2696 2.78526E-03 9.50788E-03 0.00000E+00
 -1      2697 2.78189E-03 9.92572E-03 0.00000E+00
 -1      2698 2.77768E-03 1.03403E-02 0.00000E+00
 -1      2699 2.77248E-03 1.07512E-02 0.00000E+00
 -1      2700 2.76611E-03 1.11578E-02 0.00000E+00
 -1      2701 2.75848E-03 1.15597E-02 0.00000E+00
 -1      2702 2.74968E-03 1.19565E-02 0.00000E+00
 -1      2703 2.93117E-03 4.37030E-04 0.00000E+00
 -1      2704 2.93114E-03 8.74024E-04 0.00000E+00
 -1      2705 2.93109E-03 1.31095E-03 0.00000E+00
 -1      2706 2.93103E-03 1.74776E-03 0.00000E+00
 -1      2707 2.93094E-03 2.18442E-03 0.00000E+00
 -1      2708 2.93084E-03 2.62090E-03 0.00000E+00
 -1      2709 2.93071E-03 3.05715E-03 0.00000E+00
 -1      2710 2.93055E-03 3.49314E-03 0.00000E+00
 -1      2711 2.93037E-03 3.92881E-03 0.00000E+00
 -1      2712 2.93015E-03 4.36412E-03 0.00000E+00
 -1      2713 2.92989E-03 4.79902E-03 0.00000E+00
 -1      2714 2.92957E-03 5.23346E-03 0.00000E+00
 -1      2715 2.92918E-03 5.66737E-03 0.00000E+00
 -1      2716 2.92870E-03 6.10068E-03 0.00000E+00
 -1      2717 2.92810E-03 6.53333E-03 0.00000E+00
 -1      2718 2.92735E-03 6.96521E-03 0.00000E+00
 -1      2719 2.92642E-03 7.39625E-03 0.00000E+00
 -1      2720 2.92525E-03 7.82634E-03 0.00000E+00
 -1      2721 2.92379E-03 8.25535E-03 0.00000E+00
 -1      2722 2.92196E-03 8.68317E-03 0.00000E+00
 -1      2723 2.91970E-03 9.10966E-03 0.00000E+00
 -1      2724 2.91691E-03 9.53468E-03 0.00000E+00
 -1      2725 2.91350E-03 9.95815E-03 0.00000E+00
 -1      2726 2.90941E-03 1.03800E-02 0.00000E+00
 -1      2727 2.90461E-03 1.08003E-02 0.00000E+00
 -1      2728 2.89920E-03 1.12192E-02 0.00000E+00
 -1      2729 2.89351E-03 1.16375E-02 0.00000E+00
 -1      2730 2.88842E-03 1.20567E-02 0.00000E+00
 -1      2731 3.06408E-03 4.37504E-04 0.00000E+00
 -1      2732 3.06406E-03 8.74977E-04 0.00000E+00
 -1      2733 3.06401E-03 1.31239E-03 0.00000E+00
 -1      2734 3.06394E-03 1.74970E-03 0.00000E+00
 -1      2735 3.06386E-03 2.18689E-03 0.00000E+00
 -1      2736 3.06376E-03 2.62392E-03 0.00000E+00
 -1      2737 3.06364E-03 3.06076E-03 0.00000E+00
 -1      2738 3.06350E-03 3.49738E-03 0.00000E+00
 -1      2739 3.06333E-03 3.93374E-03 0.00000E+00
 -1      2740 3.06314E-03 4.36981E-03 0.00000E+00
 -1      2741 3.06291E-03 4.80555E-03 0.00000E+00
 -1      2742 3.06264E-03 5.24093E-03 0.00000E+00
 -1      2743 3.06231E-03 5.67591E-03 0.00000E+00
 -1      2744 3.06190E-03 6.11045E-03 0.00000E+00
 -1      2745 3.06140E-03 6.54451E-03 0.00000E+00
 -1      2746 3.06077E-03 6.97805E-03 0.00000E+00
 -1      2747 3.05999E-03 7.41103E-03 0.00000E+00
 -1      2748 3.05901E-03 7.84343E-03 0.00000E+00
 -1      2749 3.05780E-03 8.27522E-03 0.00000E+00
 -1      2750 3.05632E-03 8.70640E-03 0.00000E+00
 -1      2751 3.05452E-03 9.13700E-03 0.00000E+00
 -1      2752 3.05238E-03 9.56710E-03 0.00000E+00
 -1      2753 3.04991E-03 9.99685E-03 0.00000E+00
 -1      2754 3.04718E-03 1.04266E-02 0.00000E+00
 -1      2755 3.04440E-03 1.08568E-02 0.00000E+00
 -1      2756 3.04200E-03 1.12883E-02 0.00000E+00
 -1      2757 3.04085E-03 1.17225E-02 0.00000E+00
 -1      2758 3.04263E-03 1.21617E-02 0.00000E+00
 -1      2759 3.19736E-03 4.38079E-04 0.00000E+00
 -1      2760 3.19734E-03 8.76133E-04 0.00000E+00
 -1      2761 3.19730E-03 1.31414E-03 0.00000E+00
 -1      2762 3.19725E-03 1.75206E-03 0.00000E+00
 -1      2763 3.19719E-03 2.18988E-03 0.00000E+00
 -1      2764 3.19712E-03 2.62758E-03 0.00000E+00
 -1      2765 3.19704E-03 3.06513E-03 0.00000E+00
 -1      2766 3.19695E-03 3.50250E-03 0.00000E+00
 -1      2767 3.19685E-03 3.93968E-03 0.00000E+00
 -1      2768 3.19674E-03 4.37665E-03 0.00000E+00
 -1      2769 3.19661E-03 4.81337E-03 0.00000E+00
 -1      2770 3.19647E-03 5.24985E-03 0.00000E+00
 -1      2771 3.19630E-03 5.68607E-03 0.00000E+00
 -1      2772 3.19610E-03 6.12201E-03 0.00000E+00
 -1      2773 3.19585E-03 6.55768E-03 0.00000E+00
 -1      2774 3.19554E-03 6.99308E-03 0.00000E+00
 -1      2775 3.19515E-03 7.42824E-03 0.00000E+00
 -1      2776 3.19466E-03 7.86319E-03 0.00000E+00
 -1      2777 3.19408E-03 8.29800E-03 0.00000E+00
 -1      2778 3.19338E-03 8.73278E-03 0.00000E+00
 -1      2779 3.19261E-03 9.16768E-03 0.00000E+00
 -1      2780 3.19182E-03 9.60297E-03 0.00000E+00
 -1      2781 3.19115E-03 1.00390E-02 0.00000E+00
 -1      2782 3.19083E-03 1.04764E-02 0.00000E+00
 -1      2783 3.19130E-03 1.09158E-02 0.00000E+00
 -1      2784 3.19332E-03 1.13585E-02 0.00000E+00
 -1      2785 3.19814E-03 1.18060E-02 0.00000E+00
 -1      2786 3.20791E-03 1.22605E-02 0.00000E+00
 -1      2787 3.33107E-03 4.38746E-04 0.00000E+00
 -1      2788 3.33106E-03 8.77472E-04 0.00000E+00
 -1      2789 3.33104E-03 1.31616E-03 0.00000E+00
 -1      2790 3.33102E-03 1.75479E-03 0.00000E+00
 -1      2791 3.33100E-03 2.19334E-03 0.00000E+00
 -1      2792 3.33098E-03 2.63180E-03 0.00000E+00
 -1      2793 3.33097E-03 3.07016E-03 0.00000E+00
 -1      2794 3.33097E-03 3.50839E-03 0.00000E+00
 -1      2795 3.33098E-03 3.94649E-03 0.00000E+00
 -1      2796 3.33101E-03 4.38446E-03 0.00000E+00
 -1      2797 3.33107E-03 4.82229E-03 0.00000E+00
 -1      2798 3.33114E-03 5.25998E-03 0.00000E+00
 -1      2799 3.33125E-03 5.69756E-03 0.00000E+00
 -1      2800 3.33138E-03 6.13502E-03 0.00000E+00
 -1      2801 3.33154E-03 6.57242E-03 0.00000E+00
 -1      2802 3.33174E-03 7.00980E-03 0.00000E+00
 -1      2803 3.33197E-03 7.44723E-03 0.00000E+00
 -1      2804 3.33225E-03 7.88480E-03 0.00000E+00
 -1      2805 3.33262E-03 8.32267E-03 0.00000E+00
 -1      2806 3.33313E-03 8.76101E-03 0.00000E+00
 -1      2807 3.33386E-03 9.20010E-03 0.00000E+00
 -1      2808 3.33498E-03 9.64030E-03 0.00000E+00
 -1      2809 3.33672E-03 1.00821E-02 0.00000E+00
 -1      2810 3.33950E-03 1.05262E-02 0.00000E+00
 -1      2811 3.34392E-03 1.09734E-02 0.00000E+00
 -1      2812 3.35095E-03 1.14249E-02 0.00000E+00
 -1      2813 3.36203E-03 1.18822E-02 0.00000E+00
 -1      2814 3.37918E-03 1.23470E-02 0.00000E+00
 -1      2815 3.59947E-03 4.40302E-04 0.00000E+00
 -1      2816 3.59950E-03 8.80597E-04 0.00000E+00
 -1      2817 3.59955E-03 1.32088E-03 0.00000E+00
 -1      2818 3.59962E-03 1.76114E-03 0.00000E+00
 -1      2819 3.59973E-03 2.20138E-03 0.00000E+00
 -1      2820 3.59989E-03 2.64159E-03 0.00000E+00
 -1      2821 3.60011E-03 3.08178E-03 0.00000E+00
 -1      2822 3.60039E-03 3.52195E-03 0.00000E+00
 -1      2823 3.60077E-03 3.96212E-03 0.00000E+00
 -1      2824 3.60125E-03 4.40230E-03 0.00000E+00
 -1      2825 3.60186E-03 4.84253E-03 0.00000E+00
 -1      2826 3.60262E-03 5.28284E-03 0.00000E+00
 -1      2827 3.60356E-03 5.72327E-03 0.00000E+00
 -1      2828 3.60470E-03 6.16390E-03 0.00000E+00
 -1      2829 3.60609E-03 6.60482E-03 0.00000E+00
 -1      2830 3.60777E-03 7.04612E-03 0.00000E+00
 -1      2831 3.60981E-03 7.48794E-03 0.00000E+00
 -1      2832 3.61228E-03 7.93047E-03 0.00000E+00
 -1      2833 3.61529E-03 8.37391E-03 0.00000E+00
 -1      2834 3.61899E-03 8.81854E-03 0.00000E+00
 -1      2835 3.62359E-03 9.26470E-03 0.00000E+00
 -1      2836 3.62939E-03 9.71279E-03 0.00000E+00
 -1      2837 3.63677E-03 1.01633E-02 0.00000E+00
 -1      2838 3.64628E-03 1.06168E-02 0.00000E+00
 -1      2839 3.65866E-03 1.10740E-02 0.00000E+00
 -1      2840 3.67488E-03 1.15356E-02 0.00000E+00
 -1      2841 3.69616E-03 1.20023E-02 0.00000E+00
 -1      2842 3.72389E-03 1.24745E-02 0.00000E+00
 -1      2843 3.73423E-03 4.41168E-04 0.00000E+00
 -1      2844 3.73429E-03 8.82334E-04 0.00000E+00
 -1      2845 3.73438E-03 1.32350E-03 0.00000E+00
 -1      2846 3.73452E-03 1.76466E-03 0.00000E+00
 -1      2847 3.73473E-03 2.20582E-03 0.00000E+00
 -1      2848 3.73500E-03 2.64699E-03 0.00000E+00
 -1      2849 3.73537E-03 3.08817E-03 0.00000E+00
 -1      2850 3.73585E-03 3.52938E-03 0.00000E+00
 -1      2851 3.73647E-03 3.97065E-03 0.00000E+00
 -1      2852 3.73724E-03 4.41199E-03 0.00000E+00
 -1      2853 3.73821E-03 4.85345E-03 0.00000E+00
 -1      2854 3.73941E-03 5.29508E-03 0.00000E+00
 -1      2855 3.74087E-03 5.73694E-03 0.00000E+00
 -1      2856 3.74265E-03 6.17911E-03 0.00000E+00
 -1      2857 3.74480E-03 6.62169E-03 0.00000E+00
 -1      2858 3.74739E-03 7.06480E-03 0.00000E+00
 -1      2859 3.75050E-03 7.50860E-03 0.00000E+00
 -1      2860 3.75426E-03 7.95327E-03 0.00000E+00
 -1      2861 3.75878E-03 8.39903E-03 0.00000E+00
 -1      2862 3.76426E-03 8.84616E-03 0.00000E+00
 -1      2863 3.77094E-03 9.29497E-03 0.00000E+00
 -1      2864 3.77913E-03 9.74584E-03 0.00000E+00
 -1      2865 3.78925E-03 1.01992E-02 0.00000E+00
 -1      2866 3.80183E-03 1.06555E-02 0.00000E+00
 -1      2867 3.81754E-03 1.11152E-02 0.00000E+00
 -1      2868 3.83720E-03 1.15787E-02 0.00000E+00
 -1      2869 3.86176E-03 1.20464E-02 0.00000E+00
 -1      2870 3.89221E-03 1.25184E-02 0.00000E+00
 -1      2871 3.86958E-03 4.42076E-04 0.00000E+00
 -1      2872 3.86967E-03 8.84155E-04 0.00000E+00
 -1      2873 3.86982E-03 1.32624E-03 0.00000E+00
 -1      2874 3.87004E-03 1.76834E-03 0.00000E+00
 -1      2875 3.87034E-03 2.21047E-03 0.00000E+00
 -1      2876 3.87075E-03 2.65262E-03 0.00000E+00
 -1      2877 3.87129E-03 3.09483E-03 0.00000E+00
 -1      2878 3.87199E-03 3.53710E-03 0.00000E+00
 -1      2879 3.87287E-03 3.97948E-03 0.00000E+00
 -1      2880 3.87397E-03 4.42198E-03 0.00000E+00
 -1      2881 3.87533E-03 4.86467E-03 0.00000E+00
 -1      2882 3.87701E-03 5.30760E-03 0.00000E+00
 -1      2883 3.87904E-03 5.75083E-03 0.00000E+00
 -1      2884 3.88151E-03 6.19446E-03 0.00000E+00
 -1      2885 3.88447E-03 6.63860E-03 0.00000E+00
 -1      2886 3.88802E-03 7.08337E-03 0.00000E+00
 -1      2887 3.89227E-03 7.52892E-03 0.00000E+00
 -1      2888 3.89735E-03 7.97545E-03 0.00000E+00
 -1      2889 3.90341E-03 8.42317E-03 0.00000E+00
 -1      2890 3.91065E-03 8.87232E-03 0.00000E+00
 -1      2891 3.91934E-03 9.32318E-03 0.00000E+00
 -1      2892 3.92979E-03 9.77608E-03 0.00000E+00
 -1      2893 3.94239E-03 1.02313E-02 0.00000E+00
 -1      2894 3.95761E-03 1.06893E-02 0.00000E+00
 -1      2895 3.97603E-03 1.11502E-02 0.00000E+00
 -1      2896 3.99828E-03 1.16143E-02 0.00000E+00
 -1      2897 4.02502E-03 1.20817E-02 0.00000E+00
 -1      2898 4.05688E-03 1.25523E-02 0.00000E+00
 -1      2899 4.00554E-03 4.43014E-04 0.00000E+00
 -1      2900 4.00566E-03 8.86036E-04 0.00000E+00
 -1      2901 4.00586E-03 1.32908E-03 0.00000E+00
 -1      2902 4.00617E-03 1.77214E-03 0.00000E+00
 -1      2903 4.00658E-03 2.21525E-03 0.00000E+00
 -1      2904 4.00714E-03 2.65842E-03 0.00000E+00
 -1      2905 4.00787E-03 3.10166E-03 0.00000E+00
 -1      2906 4.00879E-03 3.54500E-03 0.00000E+00
 -1      2907 4.00995E-03 3.98849E-03 0.00000E+00
 -1      2908 4.01140E-03 4.43215E-03 0.00000E+00
 -1      2909 4.01318E-03 4.87603E-03 0.00000E+00
 -1      2910 4.01535E-03 5.32021E-03 0.00000E+00
 -1      2911 4.01799E-03 5.76475E-03 0.00000E+00
 -1      2912 4.02116E-03 6.20975E-03 0.00000E+00
 -1      2913 4.02496E-03 6.65531E-03 0.00000E+00
 -1      2914 4.02949E-03 7.10156E-03 0.00000E+00
 -1      2915 4.03487E-03 7.54864E-03 0.00000E+00
 -1      2916 4.04125E-03 7.99674E-03 0.00000E+00
 -1      2917 4.04880E-03 8.44603E-03 0.00000E+00
 -1      2918 4.05772E-03 8.89674E-03 0.00000E+00
 -1      2919 4.06827E-03 9.34910E-03 0.00000E+00
 -1      2920 4.08075E-03 9.80336E-03 0.00000E+00
 -1      2921 4.09549E-03 1.02597E-02 0.00000E+00
 -1      2922 4.11289E-03 1.07185E-02 0.00000E+00
 -1      2923 4.13340E-03 1.11797E-02 0.00000E+00
 -1      2924 4.15746E-03 1.16435E-02 0.00000E+00
 -1      2925 4.18548E-03 1.21097E-02 0.00000E+00
 -1      2926 4.21776E-03 1.25781E-02 0.00000E+00
 -1      2927 4.14211E-03 4.43971E-04 0.00000E+00
 -1      2928 4.14227E-03 8.87955E-04 0.00000E+00
 -1      2929 4.14253E-03 1.33196E-03 0.00000E+00
 -1      2930 4.14292E-03 1.77601E-03 0.00000E+00
 -1      2931 4.14345E-03 2.22012E-03 0.00000E+00
 -1      2932 4.14416E-03 2.66430E-03 0.00000E+00
 -1      2933 4.14508E-03 3.10858E-03 0.00000E+00
 -1      2934 4.14624E-03 3.55299E-03 0.00000E+00
 -1      2935 4.14769E-03 3.99757E-03 0.00000E+00
 -1      2936 4.14949E-03 4.44235E-03 0.00000E+00
 -1      2937 4.15169E-03 4.88740E-03 0.00000E+00
 -1      2938 4.15437E-03 5.33277E-03 0.00000E+00
 -1      2939 4.15761E-03 5.77854E-03 0.00000E+00
 -1      2940 4.16148E-03 6.22479E-03 0.00000E+00
 -1      2941 4.16610E-03 6.67164E-03 0.00000E+00
 -1      2942 4.17158E-03 7.11918E-03 0.00000E+00
 -1      2943 4.17806E-03 7.56757E-03 0.00000E+00
 -1      2944 4.18567E-03 8.01695E-03 0.00000E+00
 -1      2945 4.19461E-03 8.46748E-03 0.00000E+00
 -1      2946 4.20507E-03 8.91934E-03 0.00000E+00
 -1      2947 4.21728E-03 9.37271E-03 0.00000E+00
 -1      2948 4.23150E-03 9.82778E-03 0.00000E+00
 -1      2949 4.24803E-03 1.02847E-02 0.00000E+00
 -1      2950 4.26716E-03 1.07435E-02 0.00000E+00
 -1      2951 4.28920E-03 1.12044E-02 0.00000E+00
 -1      2952 4.31444E-03 1.16672E-02 0.00000E+00
 -1      2953 4.34305E-03 1.21318E-02 0.00000E+00
 -1      2954 4.37509E-03 1.25977E-02 0.00000E+00
 -1      2955 4.27930E-03 4.44936E-04 0.00000E+00
 -1      2956 4.27949E-03 8.89887E-04 0.00000E+00
 -1      2957 4.27981E-03 1.33487E-03 0.00000E+00
 -1      2958 4.28029E-03 1.77990E-03 0.00000E+00
 -1      2959 4.28094E-03 2.22501E-03 0.00000E+00
 -1      2960 4.28180E-03 2.67020E-03 0.00000E+00
 -1      2961 4.28291E-03 3.11551E-03 0.00000E+00
 -1      2962 4.28430E-03 3.56098E-03 0.00000E+00
 -1      2963 4.28604E-03 4.00662E-03 0.00000E+00
 -1      2964 4.28819E-03 4.45250E-03 0.00000E+00
 -1      2965 4.29081E-03 4.89866E-03 0.00000E+00
 -1      2966 4.29398E-03 5.34516E-03 0.00000E+00
 -1      2967 4.29779E-03 5.79207E-03 0.00000E+00
 -1      2968 4.30234E-03 6.23948E-03 0.00000E+00
 -1      2969 4.30774E-03 6.68746E-03 0.00000E+00
 -1      2970 4.31412E-03 7.13614E-03 0.00000E+00
 -1      2971 4.32161E-03 7.58562E-03 0.00000E+00
 -1      2972 4.33037E-03 8.03602E-03 0.00000E+00
 -1      2973 4.34056E-03 8.48749E-03 0.00000E+00
 -1      2974 4.35237E-03 8.94016E-03 0.00000E+00
 -1      2975 4.36601E-03 9.39415E-03 0.00000E+00
 -1      2976 4.38170E-03 9.84959E-03 0.00000E+00
 -1      2977 4.39966E-03 1.03066E-02 0.00000E+00
 -1      2978 4.42010E-03 1.07651E-02 0.00000E+00
 -1      2979 4.44321E-03 1.12251E-02 0.00000E+00
 -1      2980 4.46912E-03 1.16866E-02 0.00000E+00
 -1      2981 4.49784E-03 1.21493E-02 0.00000E+00
 -1      2982 4.52924E-03 1.26127E-02 0.00000E+00
 -1      2983 4.41710E-03 4.45897E-04 0.00000E+00
 -1      2984 4.41732E-03 8.91813E-04 0.00000E+00
 -1      2985 4.41770E-03 1.33777E-03 0.00000E+00
 -1      2986 4.41826E-03 1.78378E-03 0.00000E+00
 -1      2987 4.41903E-03 2.22987E-03 0.00000E+00
 -1      2988 4.42003E-03 2.67606E-03 0.00000E+00
 -1      2989 4.42132E-03 3.12239E-03 0.00000E+00
 -1      2990 4.42295E-03 3.56888E-03 0.00000E+00
 -1      2991 4.42496E-03 4.01557E-03 0.00000E+00
 -1      2992 4.42744E-03 4.46251E-03 0.00000E+00
 -1      2993 4.43045E-03 4.90973E-03 0.00000E+00
 -1      2994 4.43408E-03 5.35729E-03 0.00000E+00
 -1      2995 4.43844E-03 5.80527E-03 0.00000E+00
 -1      2996 4.44362E-03 6.25372E-03 0.00000E+00
 -1      2997 4.44974E-03 6.70272E-03 0.00000E+00
 -1      2998 4.45694E-03 7.15238E-03 0.00000E+00
 -1      2999 4.46534E-03 7.60277E-03 0.00000E+00
 -1      3000 4.47511E-03 8.05399E-03 0.00000E+00
 -1      3001 4.48639E-03 8.50615E-03 0.00000E+00
 -1      3002 4.49937E-03 8.95935E-03 0.00000E+00
 -1      3003 4.51421E-03 9.41366E-03 0.00000E+00
 -1      3004 4.53108E-03 9.86915E-03 0.00000E+00
 -1      3005 4.55015E-03 1.03259E-02 0.00000E+00
 -1      3006 4.57155E-03 1.07838E-02 0.00000E+00
 -1      3007 4.59535E-03 1.12428E-02 0.00000E+00
 -1      3008 4.62157E-03 1.17027E-02 0.00000E+00
 -1      3009 4.65010E-03 1.21634E-02 0.00000E+00
 -1      3010 4.68065E-03 1.26244E-02 0.00000E+00
 -1      3011 4.55548E-03 4.46845E-04 0.00000E+00
 -1      3012 4.55574E-03 8.93710E-04 0.00000E+00
 -1      3013 4.55617E-03 1.34062E-03 0.00000E+00
 -1      3014 4.55682E-03 1.78759E-03 0.00000E+00
 -1      3015 4.55769E-03 2.23465E-03 0.00000E+00
 -1      3016 4.55884E-03 2.68183E-03 0.00000E+00
 -1      3017 4.56030E-03 3.12915E-03 0.00000E+00
 -1      3018 4.56214E-03 3.57664E-03 0.00000E+00
 -1      3019 4.56441E-03 4.02434E-03 0.00000E+00
 -1      3020 4.56719E-03 4.47229E-03 0.00000E+00
 -1      3021 4.57056E-03 4.92052E-03 0.00000E+00
 -1      3022 4.57462E-03 5.36910E-03 0.00000E+00
 -1      3023 4.57947E-03 5.81806E-03 0.00000E+00
 -1      3024 4.58521E-03 6.26747E-03 0.00000E+00
 -1      3025 4.59198E-03 6.71740E-03 0.00000E+00
 -1      3026 4.59989E-03 7.16791E-03 0.00000E+00
 -1      3027 4.60910E-03 7.61906E-03 0.00000E+00
 -1      3028 4.61973E-03 8.07095E-03 0.00000E+00
 -1      3029 4.63194E-03 8.52362E-03 0.00000E+00
 -1      3030 4.64588E-03 8.97714E-03 0.00000E+00
 -1      3031 4.66169E-03 9.43157E-03 0.00000E+00
 -1      3032 4.67950E-03 9.88690E-03 0.00000E+00
 -1      3033 4.69940E-03 1.03431E-02 0.00000E+00
 -1      3034 4.72145E-03 1.08002E-02 0.00000E+00
 -1      3035 4.74567E-03 1.12581E-02 0.00000E+00
 -1      3036 4.77194E-03 1.17165E-02 0.00000E+00
 -1      3037 4.80008E-03 1.21752E-02 0.00000E+00
 -1      3038 4.82973E-03 1.26340E-02 0.00000E+00
 -1      3039 4.69444E-03 4.47768E-04 0.00000E+00
 -1      3040 4.69472E-03 8.95559E-04 0.00000E+00
 -1      3041 4.69521E-03 1.34340E-03 0.00000E+00
 -1      3042 4.69593E-03 1.79131E-03 0.00000E+00
 -1      3043 4.69691E-03 2.23931E-03 0.00000E+00
 -1      3044 4.69818E-03 2.68744E-03 0.00000E+00
 -1      3045 4.69980E-03 3.13573E-03 0.00000E+00
 -1      3046 4.70183E-03 3.58419E-03 0.00000E+00
 -1      3047 4.70433E-03 4.03286E-03 0.00000E+00
 -1      3048 4.70739E-03 4.48179E-03 0.00000E+00
 -1      3049 4.71109E-03 4.93099E-03 0.00000E+00
 -1      3050 4.71552E-03 5.38052E-03 0.00000E+00
 -1      3051 4.72080E-03 5.83042E-03 0.00000E+00
 -1      3052 4.72704E-03 6.28073E-03 0.00000E+00
 -1      3053 4.73435E-03 6.73150E-03 0.00000E+00
 -1      3054 4.74288E-03 7.18277E-03 0.00000E+00
 -1      3055 4.75276E-03 7.63460E-03 0.00000E+00
 -1      3056 4.76411E-03 8.08703E-03 0.00000E+00
 -1      3057 4.77709E-03 8.54010E-03 0.00000E+00
 -1      3058 4.79180E-03 8.99383E-03 0.00000E+00
 -1      3059 4.80836E-03 9.44823E-03 0.00000E+00
 -1      3060 4.82686E-03 9.90329E-03 0.00000E+00
 -1      3061 4.84736E-03 1.03590E-02 0.00000E+00
 -1      3062 4.86984E-03 1.08152E-02 0.00000E+00
 -1      3063 4.89425E-03 1.12718E-02 0.00000E+00
 -1      3064 4.92043E-03 1.17287E-02 0.00000E+00
 -1      3065 4.94809E-03 1.21856E-02 0.00000E+00
 -1      3066 4.97685E-03 1.26423E-02 0.00000E+00
 -1      3067 4.83394E-03 4.48656E-04 0.00000E+00
 -1      3068 4.83425E-03 8.97337E-04 0.00000E+00
 -1      3069 4.83479E-03 1.34607E-03 0.00000E+00
 -1      3070 4.83557E-03 1.79488E-03 0.00000E+00
 -1      3071 4.83664E-03 2.24380E-03 0.00000E+00
 -1      3072 4.83803E-03 2.69285E-03 0.00000E+00
 -1      3073 4.83979E-03 3.14206E-03 0.00000E+00
 -1      3074 4.84199E-03 3.59146E-03 0.00000E+00
 -1      3075 4.84470E-03 4.04108E-03 0.00000E+00
 -1      3076 4.84800E-03 4.49094E-03 0.00000E+00
 -1      3077 4.85197E-03 4.94108E-03 0.00000E+00
 -1      3078 4.85673E-03 5.39153E-03 0.00000E+00
 -1      3079 4.86237E-03 5.84232E-03 0.00000E+00
 -1      3080 4.86902E-03 6.29348E-03 0.00000E+00
 -1      3081 4.87680E-03 6.74505E-03 0.00000E+00
 -1      3082 4.88584E-03 7.19704E-03 0.00000E+00
 -1      3083 4.89626E-03 7.64949E-03 0.00000E+00
 -1      3084 4.90819E-03 8.10241E-03 0.00000E+00
 -1      3085 4.92175E-03 8.55582E-03 0.00000E+00
 -1      3086 4.93705E-03 9.00970E-03 0.00000E+00
 -1      3087 4.95418E-03 9.46404E-03 0.00000E+00
 -1      3088 4.97318E-03 9.91880E-03 0.00000E+00
 -1      3089 4.99407E-03 1.03739E-02 0.00000E+00
 -1      3090 5.01681E-03 1.08293E-02 0.00000E+00
 -1      3091 5.04126E-03 1.12848E-02 0.00000E+00
 -1      3092 5.06722E-03 1.17402E-02 0.00000E+00
 -1      3093 5.09439E-03 1.21954E-02 0.00000E+00
 -1      3094 5.12232E-03 1.26502E-02 0.00000E+00
 -1      3095 4.97394E-03 4.49497E-04 0.00000E+00
 -1      3096 4.97428E-03 8.99023E-04 0.00000E+00
 -1      3097 4.97486E-03 1.34861E-03 0.00000E+00
 -1      3098 4.97571E-03 1.79828E-03 0.00000E+00
 -1      3099 4.97686E-03 2.24806E-03 0.00000E+00
 -1      3100 4.97835E-03 2.69799E-03 0.00000E+00
 -1      3101 4.98024E-03 3.14809E-03 0.00000E+00
 -1      3102 4.98259E-03 3.59839E-03 0.00000E+00
 -1      3103 4.98547E-03 4.04892E-03 0.00000E+00
 -1      3104 4.98898E-03 4.49969E-03 0.00000E+00
 -1      3105 4.99319E-03 4.95074E-03 0.00000E+00
 -1      3106 4.99821E-03 5.40209E-03 0.00000E+00
 -1      3107 5.00415E-03 5.85375E-03 0.00000E+00
 -1      3108 5.01114E-03 6.30575E-03 0.00000E+00
 -1      3109 5.01928E-03 6.75810E-03 0.00000E+00
 -1      3110 5.02872E-03 7.21080E-03 0.00000E+00
 -1      3111 5.03956E-03 7.66386E-03 0.00000E+00
 -1      3112 5.05193E-03 8.11728E-03 0.00000E+00
 -1      3113 5.06593E-03 8.57103E-03 0.00000E+00
 -1      3114 5.08166E-03 9.02508E-03 0.00000E+00
 -1      3115 5.09917E-03 9.47940E-03 0.00000E+00
 -1      3116 5.11850E-03 9.93390E-03 0.00000E+00
 -1      3117 5.13963E-03 1.03885E-02 0.00000E+00
 -1      3118 5.16246E-03 1.08431E-02 0.00000E+00
 -1      3119 5.18684E-03 1.12976E-02 0.00000E+00
 -1      3120 5.21254E-03 1.17518E-02 0.00000E+00
 -1      3121 5.23920E-03 1.22054E-02 0.00000E+00
 -1      3122 5.26639E-03 1.26585E-02 0.00000E+00
 -1      3123 5.11441E-03 4.50279E-04 0.00000E+00
 -1      3124 5.11478E-03 9.00592E-04 0.00000E+00
 -1      3125 5.11540E-03 1.35097E-03 0.00000E+00
 -1      3126 5.11630E-03 1.80144E-03 0.00000E+00
 -1      3127 5.11753E-03 2.25205E-03 0.00000E+00
 -1      3128 5.11911E-03 2.70281E-03 0.00000E+00
 -1      3129 5.12111E-03 3.15375E-03 0.00000E+00
 -1      3130 5.12359E-03 3.60491E-03 0.00000E+00
 -1      3131 5.12662E-03 4.05631E-03 0.00000E+00
 -1      3132 5.13029E-03 4.50797E-03 0.00000E+00
 -1      3133 5.13470E-03 4.95991E-03 0.00000E+00
 -1      3134 5.13994E-03 5.41214E-03 0.00000E+00
 -1      3135 5.14612E-03 5.86468E-03 0.00000E+00
 -1      3136 5.15337E-03 6.31752E-03 0.00000E+00
 -1      3137 5.16179E-03 6.77067E-03 0.00000E+00
 -1      3138 5.17152E-03 7.22412E-03 0.00000E+00
 -1      3139 5.18267E-03 7.67784E-03 0.00000E+00
 -1      3140 5.19535E-03 8.13181E-03 0.00000E+00
 -1      3141 5.20966E-03 8.58598E-03 0.00000E+00
 -1      3142 5.22566E-03 9.04030E-03 0.00000E+00
 -1      3143 5.24342E-03 9.49469E-03 0.00000E+00
 -1      3144 5.26293E-03 9.94907E-03 0.00000E+00
 -1      3145 5.28415E-03 1.04033E-02 0.00000E+00
 -1      3146 5.30696E-03 1.08573E-02 0.00000E+00
 -1      3147 5.33120E-03 1.13109E-02 0.00000E+00
 -1      3148 5.35659E-03 1.17640E-02 0.00000E+00
 -1      3149 5.38277E-03 1.22164E-02 0.00000E+00
 -1      3150 5.40930E-03 1.26678E-02 0.00000E+00
 -1      3151 5.25530E-03 4.50989E-04 0.00000E+00
 -1      3152 5.25569E-03 9.02015E-04 0.00000E+00
 -1      3153 5.25635E-03 1.35312E-03 0.00000E+00
 -1      3154 5.25730E-03 1.80433E-03 0.00000E+00
 -1      3155 5.25859E-03 2.25568E-03 0.00000E+00
 -1      3156 5.26026E-03 2.70722E-03 0.00000E+00
 -1      3157 5.26236E-03 3.15896E-03 0.00000E+00
 -1      3158 5.26495E-03 3.61094E-03 0.00000E+00
 -1      3159 5.26811E-03 4.06318E-03 0.00000E+00
 -1      3160 5.27193E-03 4.51570E-03 0.00000E+00
 -1      3161 5.27650E-03 4.96852E-03 0.00000E+00
 -1      3162 5.28191E-03 5.42164E-03 0.00000E+00
 -1      3163 5.28828E-03 5.87506E-03 0.00000E+00
 -1      3164 5.29572E-03 6.32879E-03 0.00000E+00
 -1      3165 5.30436E-03 6.78279E-03 0.00000E+00
 -1      3166 5.31429E-03 7.23705E-03 0.00000E+00
 -1      3167 5.32565E-03 7.69153E-03 0.00000E+00
 -1      3168 5.33853E-03 8.14617E-03 0.00000E+00
 -1      3169 5.35302E-03 8.60090E-03 0.00000E+00
 -1      3170 5.36918E-03 9.05564E-03 0.00000E+00
 -1      3171 5.38704E-03 9.51030E-03 0.00000E+00
 -1      3172 5.40660E-03 9.96475E-03 0.00000E+00
 -1      3173 5.42780E-03 1.04189E-02 0.00000E+00
 -1      3174 5.45050E-03 1.08725E-02 0.00000E+00
 -1      3175 5.47452E-03 1.13255E-02 0.00000E+00
 -1      3176 5.49957E-03 1.17777E-02 0.00000E+00
 -1      3177 5.52529E-03 1.22290E-02 0.00000E+00
 -1      3178 5.55123E-03 1.26791E-02 0.00000E+00
 -1      3179 5.39654E-03 4.51610E-04 0.00000E+00
 -1      3180 5.39695E-03 9.03263E-04 0.00000E+00
 -1      3181 5.39765E-03 1.35500E-03 0.00000E+00
 -1      3182 5.39865E-03 1.80687E-03 0.00000E+00
 -1      3183 5.40001E-03 2.25890E-03 0.00000E+00
 -1      3184 5.40175E-03 2.71114E-03 0.00000E+00
 -1      3185 5.40394E-03 3.16362E-03 0.00000E+00
 -1      3186 5.40664E-03 3.61637E-03 0.00000E+00
 -1      3187 5.40992E-03 4.06942E-03 0.00000E+00
 -1      3188 5.41387E-03 4.52278E-03 0.00000E+00
 -1      3189 5.41857E-03 4.97646E-03 0.00000E+00
 -1      3190 5.42413E-03 5.43049E-03 0.00000E+00
 -1      3191 5.43065E-03 5.88484E-03 0.00000E+00
 -1      3192 5.43824E-03 6.33950E-03 0.00000E+00
 -1      3193 5.44702E-03 6.79445E-03 0.00000E+00
 -1      3194 5.45710E-03 7.24963E-03 0.00000E+00
 -1      3195 5.46859E-03 7.70501E-03 0.00000E+00
 -1      3196 5.48158E-03 8.16049E-03 0.00000E+00
 -1      3197 5.49615E-03 8.61599E-03 0.00000E+00
 -1      3198 5.51236E-03 9.07139E-03 0.00000E+00
 -1      3199 5.53023E-03 9.52657E-03 0.00000E+00
 -1      3200 5.54974E-03 9.98139E-03 0.00000E+00
 -1      3201 5.57081E-03 1.04357E-02 0.00000E+00
 -1      3202 5.59332E-03 1.08893E-02 0.00000E+00
 -1      3203 5.61705E-03 1.13420E-02 0.00000E+00
 -1      3204 5.64172E-03 1.17936E-02 0.00000E+00
 -1      3205 5.66697E-03 1.22440E-02 0.00000E+00
 -1      3206 5.69235E-03 1.26931E-02 0.00000E+00
 -1      3207 5.53807E-03 4.52125E-04 0.00000E+00
 -1      3208 5.53850E-03 9.04300E-04 0.00000E+00
 -1      3209 5.53923E-03 1.35658E-03 0.00000E+00
 -1      3210 5.54030E-03 1.80900E-03 0.00000E+00
 -1      3211 5.54172E-03 2.26162E-03 0.00000E+00
 -1      3212 5.54354E-03 2.71448E-03 0.00000E+00
 -1      3213 5.54583E-03 3.16763E-03 0.00000E+00
 -1      3214 5.54863E-03 3.62108E-03 0.00000E+00
 -1      3215 5.55203E-03 4.07489E-03 0.00000E+00
 -1      3216 5.55609E-03 4.52906E-03 0.00000E+00
 -1      3217 5.56093E-03 4.98361E-03 0.00000E+00
 -1      3218 5.56661E-03 5.43856E-03 0.00000E+00
 -1      3219 5.57326E-03 5.89388E-03 0.00000E+00
 -1      3220 5.58098E-03 6.34956E-03 0.00000E+00
 -1      3221 5.58988E-03 6.80556E-03 0.00000E+00
 -1      3222 5.60006E-03 7.26183E-03 0.00000E+00
 -1      3223 5.61162E-03 7.71829E-03 0.00000E+00
 -1      3224 5.62466E-03 8.17485E-03 0.00000E+00
 -1      3225 5.63925E-03 8.63139E-03 0.00000E+00
 -1      3226 5.65543E-03 9.08778E-03 0.00000E+00
 -1      3227 5.67322E-03 9.54384E-03 0.00000E+00
 -1      3228 5.69259E-03 9.99941E-03 0.00000E+00
 -1      3229 5.71346E-03 1.04543E-02 0.00000E+00
 -1      3230 5.73569E-03 1.09082E-02 0.00000E+00
 -1      3231 5.75906E-03 1.13610E-02 0.00000E+00
 -1      3232 5.78331E-03 1.18125E-02 0.00000E+00
 -1      3233 5.80805E-03 1.22625E-02 0.00000E+00
 -1      3234 5.83285E-03 1.27106E-02 0.00000E+00
 -1      3235 5.88164E-03 1.36228E-02 0.00000E+00
 -1      3236 5.74246E-03 1.36081E-02 0.00000E+00
 -1      3237 5.60270E-03 1.35973E-02 0.00000E+00
 -1      3238 5.46233E-03 1.35894E-02 0.00000E+00
 -1      3239 5.32127E-03 1.35837E-02 0.00000E+00
 -1      3240 5.17943E-03 1.35794E-02 0.00000E+00
 -1      3241 5.03666E-03 1.35758E-02 0.00000E+00
 -1      3242 4.89271E-03 1.35723E-02 0.00000E+00
 -1      3243 4.74728E-03 1.35681E-02 0.00000E+00
 -1      3244 4.59992E-03 1.35624E-02 0.00000E+00
 -1      3245 4.45006E-03 1.35540E-02 0.00000E+00
 -1      3246 4.29695E-03 1.35417E-02 0.00000E+00
 -1      3247 4.13963E-03 1.35236E-02 0.00000E+00
 -1      3248 3.97701E-03 1.34972E-02 0.00000E+00
 -1      3249 3.80792E-03 1.34594E-02 0.00000E+00
 -1      3250 5.90425E-03 1.40865E-02 0.00000E+00
 -1      3251 5.76578E-03 1.40738E-02 0.00000E+00
 -1      3252 5.62678E-03 1.40650E-02 0.00000E+00
 -1      3253 5.48732E-03 1.40591E-02 0.00000E+00
 -1      3254 5.34739E-03 1.40554E-02 0.00000E+00
 -1      3255 5.20698E-03 1.40532E-02 0.00000E+00
 -1      3256 5.06598E-03 1.40520E-02 0.00000E+00
 -1      3257 4.92425E-03 1.40510E-02 0.00000E+00
 -1      3258 4.78152E-03 1.40496E-02 0.00000E+00
 -1      3259 4.63742E-03 1.40472E-02 0.00000E+00
 -1      3260 4.49140E-03 1.40427E-02 0.00000E+00
 -1      3261 4.34269E-03 1.40349E-02 0.00000E+00
 -1      3262 4.19023E-03 1.40220E-02 0.00000E+00
 -1      3263 4.03260E-03 1.40017E-02 0.00000E+00
 -1      3264 3.86808E-03 1.39702E-02 0.00000E+00
 -1      3265 5.92431E-03 1.45480E-02 0.00000E+00
 -1      3266 5.78654E-03 1.45378E-02 0.00000E+00
 -1      3267 5.64830E-03 1.45312E-02 0.00000E+00
 -1      3268 5.50975E-03 1.45274E-02 0.00000E+00
 -1      3269 5.37100E-03 1.45258E-02 0.00000E+00
 -1      3270 5.23208E-03 1.45258E-02 0.00000E+00
 -1      3271 5.09299E-03 1.45267E-02 0.00000E+00
 -1      3272 4.95368E-03 1.45281E-02 0.00000E+00
 -1      3273 4.81401E-03 1.45295E-02 0.00000E+00
 -1      3274 4.67371E-03 1.45301E-02 0.00000E+00
 -1      3275 4.53240E-03 1.45294E-02 0.00000E+00
 -1      3276 4.38945E-03 1.45261E-02 0.00000E+00
 -1      3277 4.24387E-03 1.45190E-02 0.00000E+00
 -1      3278 4.09426E-03 1.45056E-02 0.00000E+00
 -1      3279 3.93843E-03 1.44825E-02 0.00000E+00
 -1      3280 5.94112E-03 1.50074E-02 0.00000E+00
 -1      3281 5.80400E-03 1.49999E-02 0.00000E+00
 -1      3282 5.66647E-03 1.49958E-02 0.00000E+00
 -1      3283 5.52880E-03 1.49943E-02 0.00000E+00
 -1      3284 5.39116E-03 1.49948E-02 0.00000E+00
 -1      3285 5.25368E-03 1.49968E-02 0.00000E+00
 -1      3286 5.11647E-03 1.49999E-02 0.00000E+00
 -1      3287 4.97957E-03 1.50035E-02 0.00000E+00
 -1      3288 4.84300E-03 1.50073E-02 0.00000E+00
 -1      3289 4.70670E-03 1.50108E-02 0.00000E+00
 -1      3290 4.57050E-03 1.50134E-02 0.00000E+00
 -1      3291 4.43408E-03 1.50143E-02 0.00000E+00
 -1      3292 4.29682E-03 1.50125E-02 0.00000E+00
 -1      3293 4.15766E-03 1.50062E-02 0.00000E+00
 -1      3294 4.01471E-03 1.49925E-02 0.00000E+00
 -1      3295 5.95403E-03 1.54649E-02 0.00000E+00
 -1      3296 5.81748E-03 1.54606E-02 0.00000E+00
 -1      3297 5.68058E-03 1.54591E-02 0.00000E+00
 -1      3298 5.54367E-03 1.54599E-02 0.00000E+00
 -1      3299 5.40700E-03 1.54626E-02 0.00000E+00
 -1      3300 5.27079E-03 1.54665E-02 0.00000E+00
 -1      3301 5.13522E-03 1.54715E-02 0.00000E+00
 -1      3302 5.00047E-03 1.54771E-02 0.00000E+00
 -1      3303 4.86671E-03 1.54830E-02 0.00000E+00
 -1      3304 4.73409E-03 1.54889E-02 0.00000E+00
 -1      3305 4.60273E-03 1.54942E-02 0.00000E+00
 -1      3306 4.47271E-03 1.54986E-02 0.00000E+00
 -1      3307 4.34397E-03 1.55013E-02 0.00000E+00
 -1      3308 4.21622E-03 1.55012E-02 0.00000E+00
 -1      3309 4.08860E-03 1.54963E-02 0.00000E+00
 -1      3310 5.96250E-03 1.59209E-02 0.00000E+00
 -1      3311 5.82641E-03 1.59198E-02 0.00000E+00
 -1      3312 5.69001E-03 1.59212E-02 0.00000E+00
 -1      3313 5.55370E-03 1.59244E-02 0.00000E+00
 -1      3314 5.41777E-03 1.59292E-02 0.00000E+00
 -1      3315 5.28251E-03 1.59351E-02 0.00000E+00
 -1      3316 5.14818E-03 1.59419E-02 0.00000E+00
 -1      3317 5.01506E-03 1.59492E-02 0.00000E+00
 -1      3318 4.88345E-03 1.59569E-02 0.00000E+00
 -1      3319 4.75367E-03 1.59647E-02 0.00000E+00
 -1      3320 4.62612E-03 1.59722E-02 0.00000E+00
 -1      3321 4.50127E-03 1.59792E-02 0.00000E+00
 -1      3322 4.37963E-03 1.59852E-02 0.00000E+00
 -1      3323 4.26181E-03 1.59897E-02 0.00000E+00
 -1      3324 4.14839E-03 1.59915E-02 0.00000E+00
 -1      3325 5.96610E-03 1.63755E-02 0.00000E+00
 -1      3326 5.83035E-03 1.63780E-02 0.00000E+00
 -1      3327 5.69430E-03 1.63823E-02 0.00000E+00
 -1      3328 5.55836E-03 1.63880E-02 0.00000E+00
 -1      3329 5.42288E-03 1.63949E-02 0.00000E+00
 -1      3330 5.28817E-03 1.64028E-02 0.00000E+00
 -1      3331 5.15454E-03 1.64113E-02 0.00000E+00
 -1      3332 5.02232E-03 1.64203E-02 0.00000E+00
 -1      3333 4.89189E-03 1.64296E-02 0.00000E+00
 -1      3334 4.76368E-03 1.64389E-02 0.00000E+00
 -1      3335 4.63825E-03 1.64482E-02 0.00000E+00
 -1      3336 4.51630E-03 1.64571E-02 0.00000E+00
 -1      3337 4.39874E-03 1.64655E-02 0.00000E+00
 -1      3338 4.28676E-03 1.64730E-02 0.00000E+00
 -1      3339 4.18201E-03 1.64795E-02 0.00000E+00
 -1      3340 5.96457E-03 1.68292E-02 0.00000E+00
 -1      3341 5.82902E-03 1.68354E-02 0.00000E+00
 -1      3342 5.69314E-03 1.68427E-02 0.00000E+00
 -1      3343 5.55735E-03 1.68511E-02 0.00000E+00
 -1      3344 5.42199E-03 1.68602E-02 0.00000E+00
 -1      3345 5.28737E-03 1.68700E-02 0.00000E+00
 -1      3346 5.15382E-03 1.68803E-02 0.00000E+00
 -1      3347 5.02166E-03 1.68910E-02 0.00000E+00
 -1      3348 4.89127E-03 1.69018E-02 0.00000E+00
 -1      3349 4.76309E-03 1.69127E-02 0.00000E+00
 -1      3350 4.63769E-03 1.69234E-02 0.00000E+00
 -1      3351 4.51577E-03 1.69340E-02 0.00000E+00
 -1      3352 4.39825E-03 1.69444E-02 0.00000E+00
 -1      3353 4.28631E-03 1.69545E-02 0.00000E+00
 -1      3354 4.18162E-03 1.69646E-02 0.00000E+00
 -1      3355 5.95781E-03 1.72824E-02 0.00000E+00
 -1      3356 5.82233E-03 1.72923E-02 0.00000E+00
 -1      3357 5.68646E-03 1.73028E-02 0.00000E+00
 -1      3358 5.55057E-03 1.73138E-02 0.00000E+00
 -1      3359 5.41499E-03 1.73253E-02 0.00000E+00
 -1      3360 5.28002E-03 1.73372E-02 0.00000E+00
 -1      3361 5.14591E-03 1.73494E-02 0.00000E+00
 -1      3362 5.01297E-03 1.73618E-02 0.00000E+00
 -1      3363 4.88149E-03 1.73744E-02 0.00000E+00
 -1      3364 4.75182E-03 1.73870E-02 0.00000E+00
 -1      3365 4.62437E-03 1.73995E-02 0.00000E+00
 -1      3366 4.49960E-03 1.74121E-02 0.00000E+00
 -1      3367 4.37807E-03 1.74249E-02 0.00000E+00
 -1      3368 4.26037E-03 1.74382E-02 0.00000E+00
 -1      3369 4.14711E-03 1.74529E-02 0.00000E+00
 -1      3370 5.94589E-03 1.77354E-02 0.00000E+00
 -1      3371 5.81036E-03 1.77491E-02 0.00000E+00
 -1      3372 5.67433E-03 1.77627E-02 0.00000E+00
 -1      3373 5.53814E-03 1.77765E-02 0.00000E+00
 -1      3374 5.40206E-03 1.77905E-02 0.00000E+00
 -1      3375 5.26631E-03 1.78047E-02 0.00000E+00
 -1      3376 5.13112E-03 1.78191E-02 0.00000E+00
 -1      3377 4.99666E-03 1.78335E-02 0.00000E+00
 -1      3378 4.86313E-03 1.78481E-02 0.00000E+00
 -1      3379 4.73070E-03 1.78629E-02 0.00000E+00
 -1      3380 4.59950E-03 1.78778E-02 0.00000E+00
 -1      3381 4.46964E-03 1.78932E-02 0.00000E+00
 -1      3382 4.34108E-03 1.79094E-02 0.00000E+00
 -1      3383 4.21353E-03 1.79275E-02 0.00000E+00
 -1      3384 4.08617E-03 1.79491E-02 0.00000E+00
 -1      3385 5.92904E-03 1.81886E-02 0.00000E+00
 -1      3386 5.79334E-03 1.82059E-02 0.00000E+00
 -1      3387 5.65703E-03 1.82228E-02 0.00000E+00
 -1      3388 5.52037E-03 1.82395E-02 0.00000E+00
 -1      3389 5.38355E-03 1.82562E-02 0.00000E+00
 -1      3390 5.24674E-03 1.82728E-02 0.00000E+00
 -1      3391 5.11005E-03 1.82896E-02 0.00000E+00
 -1      3392 4.97357E-03 1.83065E-02 0.00000E+00
 -1      3393 4.83733E-03 1.83236E-02 0.00000E+00
 -1      3394 4.70131E-03 1.83411E-02 0.00000E+00
 -1      3395 4.56536E-03 1.83591E-02 0.00000E+00
 -1      3396 4.42917E-03 1.83782E-02 0.00000E+00
 -1      3397 4.29218E-03 1.83992E-02 0.00000E+00
 -1      3398 4.15332E-03 1.84236E-02 0.00000E+00
 -1      3399 4.01073E-03 1.84541E-02 0.00000E+00
 -1      3400 5.90761E-03 1.86421E-02 0.00000E+00
 -1      3401 5.77166E-03 1.86631E-02 0.00000E+00
 -1      3402 5.63498E-03 1.86832E-02 0.00000E+00
 -1      3403 5.49774E-03 1.87029E-02 0.00000E+00
 -1      3404 5.36004E-03 1.87224E-02 0.00000E+00
 -1      3405 5.22198E-03 1.87418E-02 0.00000E+00
 -1      3406 5.08358E-03 1.87614E-02 0.00000E+00
 -1      3407 4.94481E-03 1.87811E-02 0.00000E+00
 -1      3408 4.80558E-03 1.88011E-02 0.00000E+00
 -1      3409 4.66567E-03 1.88218E-02 0.00000E+00
 -1      3410 4.52471E-03 1.88436E-02 0.00000E+00
 -1      3411 4.38210E-03 1.88673E-02 0.00000E+00
 -1      3412 4.23690E-03 1.88940E-02 0.00000E+00
 -1      3413 4.08770E-03 1.89257E-02 0.00000E+00
 -1      3414 3.93235E-03 1.89658E-02 0.00000E+00
 -1      3415 5.88202E-03 1.90963E-02 0.00000E+00
 -1      3416 5.74579E-03 1.91207E-02 0.00000E+00
 -1      3417 5.60869E-03 1.91441E-02 0.00000E+00
 -1      3418 5.47081E-03 1.91669E-02 0.00000E+00
 -1      3419 5.33219E-03 1.91894E-02 0.00000E+00
 -1      3420 5.19283E-03 1.92118E-02 0.00000E+00
 -1      3421 5.05268E-03 1.92343E-02 0.00000E+00
 -1      3422 4.91164E-03 1.92572E-02 0.00000E+00
 -1      3423 4.76948E-03 1.92806E-02 0.00000E+00
 -1      3424 4.62589E-03 1.93050E-02 0.00000E+00
 -1      3425 4.48035E-03 1.93311E-02 0.00000E+00
 -1      3426 4.33212E-03 1.93597E-02 0.00000E+00
 -1      3427 4.18018E-03 1.93925E-02 0.00000E+00
 -1      3428 4.02314E-03 1.94315E-02 0.00000E+00
 -1      3429 3.85927E-03 1.94803E-02 0.00000E+00
 -1      3430 5.85276E-03 1.95511E-02 0.00000E+00
 -1      3431 5.71623E-03 1.95788E-02 0.00000E+00
 -1      3432 5.57871E-03 1.96054E-02 0.00000E+00
 -1      3433 5.44021E-03 1.96314E-02 0.00000E+00
 -1      3434 5.30070E-03 1.96571E-02 0.00000E+00
 -1      3435 5.16012E-03 1.96826E-02 0.00000E+00
 -1      3436 5.01836E-03 1.97084E-02 0.00000E+00
 -1      3437 4.87526E-03 1.97346E-02 0.00000E+00
 -1      3438 4.73056E-03 1.97617E-02 0.00000E+00
 -1      3439 4.58386E-03 1.97901E-02 0.00000E+00
 -1      3440 4.43464E-03 1.98206E-02 0.00000E+00
 -1      3441 4.28219E-03 1.98543E-02 0.00000E+00
 -1      3442 4.12560E-03 1.98927E-02 0.00000E+00
 -1      3443 3.96380E-03 1.99382E-02 0.00000E+00
 -1      3444 3.79562E-03 1.99938E-02 0.00000E+00
 -1      3445 5.78687E-03 2.04419E-02 0.00000E+00
 -1      3446 5.64981E-03 2.04755E-02 0.00000E+00
 -1      3447 5.51159E-03 2.05083E-02 0.00000E+00
 -1      3448 5.37210E-03 2.05405E-02 0.00000E+00
 -1      3449 5.23121E-03 2.05725E-02 0.00000E+00
 -1      3450 5.08880E-03 2.06046E-02 0.00000E+00
 -1      3451 4.94474E-03 2.06371E-02 0.00000E+00
 -1      3452 4.79884E-03 2.06702E-02 0.00000E+00
 -1      3453 4.65085E-03 2.07044E-02 0.00000E+00
 -1      3454 4.50051E-03 2.07405E-02 0.00000E+00
 -1      3455 4.34745E-03 2.07790E-02 0.00000E+00
 -1      3456 4.19131E-03 2.08212E-02 0.00000E+00
 -1      3457 4.03174E-03 2.08684E-02 0.00000E+00
 -1      3458 3.86855E-03 2.09223E-02 0.00000E+00
 -1      3459 3.70191E-03 2.09846E-02 0.00000E+00
 -1      3460 5.75129E-03 2.08776E-02 0.00000E+00
 -1      3461 5.61403E-03 2.09139E-02 0.00000E+00
 -1      3462 5.47558E-03 2.09496E-02 0.00000E+00
 -1      3463 5.33577E-03 2.09849E-02 0.00000E+00
 -1      3464 5.19445E-03 2.10200E-02 0.00000E+00
 -1      3465 5.05152E-03 2.10553E-02 0.00000E+00
 -1      3466 4.90684E-03 2.10910E-02 0.00000E+00
 -1      3467 4.76025E-03 2.11274E-02 0.00000E+00
 -1      3468 4.61160E-03 2.11650E-02 0.00000E+00
 -1      3469 4.46068E-03 2.12044E-02 0.00000E+00
 -1      3470 4.30728E-03 2.12462E-02 0.00000E+00
 -1      3471 4.15125E-03 2.12916E-02 0.00000E+00
 -1      3472 3.99251E-03 2.13415E-02 0.00000E+00
 -1      3473 3.83120E-03 2.13972E-02 0.00000E+00
 -1      3474 3.66780E-03 2.14602E-02 0.00000E+00
 -1      3475 5.71385E-03 2.13138E-02 0.00000E+00
 -1      3476 5.57647E-03 2.13526E-02 0.00000E+00
 -1      3477 5.43786E-03 2.13911E-02 0.00000E+00
 -1      3478 5.29786E-03 2.14294E-02 0.00000E+00
 -1      3479 5.15630E-03 2.14677E-02 0.00000E+00
 -1      3480 5.01309E-03 2.15061E-02 0.00000E+00
 -1      3481 4.86813E-03 2.15450E-02 0.00000E+00
 -1      3482 4.72132E-03 2.15845E-02 0.00000E+00
 -1      3483 4.57255E-03 2.16252E-02 0.00000E+00
 -1      3484 4.42175E-03 2.16675E-02 0.00000E+00
 -1      3485 4.26884E-03 2.17122E-02 0.00000E+00
 -1      3486 4.11384E-03 2.17599E-02 0.00000E+00
 -1      3487 3.95688E-03 2.18115E-02 0.00000E+00
 -1      3488 3.79833E-03 2.18681E-02 0.00000E+00
 -1      3489 3.63886E-03 2.19303E-02 0.00000E+00
 -1      3490 5.67475E-03 2.17501E-02 0.00000E+00
 -1      3491 5.53730E-03 2.17915E-02 0.00000E+00
 -1      3492 5.39863E-03 2.18328E-02 0.00000E+00
 -1      3493 5.25855E-03 2.18741E-02 0.00000E+00
 -1      3494 5.11693E-03 2.19154E-02 0.00000E+00
 -1      3495 4.97369E-03 2.19569E-02 0.00000E+00
 -1      3496 4.82876E-03 2.19988E-02 0.00000E+00
 -1      3497 4.68212E-03 2.20413E-02 0.00000E+00
 -1      3498 4.53375E-03 2.20848E-02 0.00000E+00
 -1      3499 4.38364E-03 2.21296E-02 0.00000E+00
 -1      3500 4.23186E-03 2.21765E-02 0.00000E+00
 -1      3501 4.07857E-03 2.22259E-02 0.00000E+00
 -1      3502 3.92404E-03 2.22785E-02 0.00000E+00
 -1      3503 3.76877E-03 2.23349E-02 0.00000E+00
 -1      3504 3.61352E-03 2.23955E-02 0.00000E+00
 -1      3505 5.63405E-03 2.21866E-02 0.00000E+00
 -1      3506 5.49662E-03 2.22305E-02 0.00000E+00
 -1      3507 5.35797E-03 2.22746E-02 0.00000E+00
 -1      3508 5.21793E-03 2.23188E-02 0.00000E+00
 -1      3509 5.07640E-03 2.23631E-02 0.00000E+00
 -1      3510 4.93334E-03 2.24076E-02 0.00000E+00
 -1      3511 4.78873E-03 2.24523E-02 0.00000E+00
 -1      3512 4.64261E-03 2.24975E-02 0.00000E+00
 -1      3513 4.49502E-03 2.25434E-02 0.00000E+00
 -1      3514 4.34607E-03 2.25904E-02 0.00000E+00
 -1      3515 4.19591E-03 2.26390E-02 0.00000E+00
 -1      3516 4.04479E-03 2.26894E-02 0.00000E+00
 -1      3517 3.89310E-03 2.27423E-02 0.00000E+00
 -1      3518 3.74137E-03 2.27979E-02 0.00000E+00
 -1      3519 3.59039E-03 2.28564E-02 0.00000E+00
 -1      3520 5.59176E-03 2.26229E-02 0.00000E+00
 -1      3521 5.45441E-03 2.26693E-02 0.00000E+00
 -1      3522 5.31585E-03 2.27162E-02 0.00000E+00
 -1      3523 5.17595E-03 2.27633E-02 0.00000E+00
 -1      3524 5.03465E-03 2.28106E-02 0.00000E+00
 -1      3525 4.89195E-03 2.28579E-02 0.00000E+00
 -1      3526 4.74790E-03 2.29053E-02 0.00000E+00
 -1      3527 4.60257E-03 2.29530E-02 0.00000E+00
 -1      3528 4.45610E-03 2.30010E-02 0.00000E+00
 -1      3529 4.30865E-03 2.30498E-02 0.00000E+00
 -1      3530 4.16045E-03 2.30995E-02 0.00000E+00
 -1      3531 4.01183E-03 2.31506E-02 0.00000E+00
 -1      3532 3.86320E-03 2.32032E-02 0.00000E+00
 -1      3533 3.71512E-03 2.32576E-02 0.00000E+00
 -1      3534 3.56832E-03 2.33136E-02 0.00000E+00
 -1      3535 5.54775E-03 2.30589E-02 0.00000E+00
 -1      3536 5.41053E-03 2.31079E-02 0.00000E+00
 -1      3537 5.27213E-03 2.31577E-02 0.00000E+00
 -1      3538 5.13246E-03 2.32077E-02 0.00000E+00
 -1      3539 4.99150E-03 2.32578E-02 0.00000E+00
 -1      3540 4.84931E-03 2.33079E-02 0.00000E+00
 -1      3541 4.70600E-03 2.33578E-02 0.00000E+00
 -1      3542 4.56169E-03 2.34076E-02 0.00000E+00
 -1      3543 4.41658E-03 2.34575E-02 0.00000E+00
 -1      3544 4.27090E-03 2.35077E-02 0.00000E+00
 -1      3545 4.12491E-03 2.35582E-02 0.00000E+00
 -1      3546 3.97899E-03 2.36095E-02 0.00000E+00
 -1      3547 3.83355E-03 2.36615E-02 0.00000E+00
 -1      3548 3.68913E-03 2.37143E-02 0.00000E+00
 -1      3549 3.54637E-03 2.37677E-02 0.00000E+00
 -1      3550 5.50180E-03 2.34944E-02 0.00000E+00
 -1      3551 5.36477E-03 2.35463E-02 0.00000E+00
 -1      3552 5.22658E-03 2.35989E-02 0.00000E+00
 -1      3553 5.08720E-03 2.36519E-02 0.00000E+00
 -1      3554 4.94667E-03 2.37048E-02 0.00000E+00
 -1      3555 4.80511E-03 2.37575E-02 0.00000E+00
 -1      3556 4.66268E-03 2.38097E-02 0.00000E+00
 -1      3557 4.51957E-03 2.38615E-02 0.00000E+00
 -1      3558 4.37602E-03 2.39129E-02 0.00000E+00
 -1      3559 4.23229E-03 2.39641E-02 0.00000E+00
 -1      3560 4.08869E-03 2.40151E-02 0.00000E+00
 -1      3561 3.94560E-03 2.40662E-02 0.00000E+00
 -1      3562 3.80342E-03 2.41173E-02 0.00000E+00
 -1      3563 3.66265E-03 2.41684E-02 0.00000E+00
 -1      3564 3.52381E-03 2.42192E-02 0.00000E+00
 -1      3565 5.45362E-03 2.39294E-02 0.00000E+00
 -1      3566 5.31680E-03 2.39842E-02 0.00000E+00
 -1      3567 5.17885E-03 2.40399E-02 0.00000E+00
 -1      3568 5.03981E-03 2.40959E-02 0.00000E+00
 -1      3569 4.89978E-03 2.41516E-02 0.00000E+00
 -1      3570 4.75895E-03 2.42067E-02 0.00000E+00
 -1      3571 4.61752E-03 2.42611E-02 0.00000E+00
 -1      3572 4.47574E-03 2.43146E-02 0.00000E+00
 -1      3573 4.33389E-03 2.43673E-02 0.00000E+00
 -1      3574 4.19227E-03 2.44192E-02 0.00000E+00
 -1      3575 4.05120E-03 2.44704E-02 0.00000E+00
 -1      3576 3.91103E-03 2.45210E-02 0.00000E+00
 -1      3577 3.77217E-03 2.45709E-02 0.00000E+00
 -1      3578 3.63502E-03 2.46202E-02 0.00000E+00
 -1      3579 3.50004E-03 2.46684E-02 0.00000E+00
 -1      3580 5.40279E-03 2.43636E-02 0.00000E+00
 -1      3581 5.26622E-03 2.44217E-02 0.00000E+00
 -1      3582 5.12853E-03 2.44807E-02 0.00000E+00
 -1      3583 4.98986E-03 2.45397E-02 0.00000E+00
 -1      3584 4.85038E-03 2.45982E-02 0.00000E+00
 -1      3585 4.71033E-03 2.46557E-02 0.00000E+00
 -1      3586 4.57000E-03 2.47120E-02 0.00000E+00
 -1      3587 4.42967E-03 2.47670E-02 0.00000E+00
 -1      3588 4.28966E-03 2.48207E-02 0.00000E+00
 -1      3589 4.15027E-03 2.48730E-02 0.00000E+00
 -1      3590 4.01184E-03 2.49241E-02 0.00000E+00
 -1      3591 3.87471E-03 2.49740E-02 0.00000E+00
 -1      3592 3.73922E-03 2.50226E-02 0.00000E+00
 -1      3593 3.60571E-03 2.50699E-02 0.00000E+00
 -1      3594 3.47455E-03 2.51156E-02 0.00000E+00
 -1      3595 5.34885E-03 2.47972E-02 0.00000E+00
 -1      3596 5.21252E-03 2.48589E-02 0.00000E+00
 -1      3597 5.07511E-03 2.49213E-02 0.00000E+00
 -1      3598 4.93681E-03 2.49834E-02 0.00000E+00
 -1      3599 4.79791E-03 2.50446E-02 0.00000E+00
 -1      3600 4.65872E-03 2.51044E-02 0.00000E+00
 -1      3601 4.51957E-03 2.51625E-02 0.00000E+00
 -1      3602 4.38080E-03 2.52188E-02 0.00000E+00
 -1      3603 4.24274E-03 2.52732E-02 0.00000E+00
 -1      3604 4.10573E-03 2.53257E-02 0.00000E+00
 -1      3605 3.97007E-03 2.53764E-02 0.00000E+00
 -1      3606 3.83607E-03 2.54253E-02 0.00000E+00
 -1      3607 3.70404E-03 2.54725E-02 0.00000E+00
 -1      3608 3.57425E-03 2.55178E-02 0.00000E+00
 -1      3609 3.44696E-03 2.55611E-02 0.00000E+00
 -1      3610 5.29122E-03 2.52300E-02 0.00000E+00
 -1      3611 5.15513E-03 2.52957E-02 0.00000E+00
 -1      3612 5.01798E-03 2.53618E-02 0.00000E+00
 -1      3613 4.88007E-03 2.54271E-02 0.00000E+00
 -1      3614 4.74178E-03 2.54911E-02 0.00000E+00
 -1      3615 4.60349E-03 2.55531E-02 0.00000E+00
 -1      3616 4.46561E-03 2.56128E-02 0.00000E+00
 -1      3617 4.32851E-03 2.56701E-02 0.00000E+00
 -1      3618 4.19255E-03 2.57249E-02 0.00000E+00
 -1      3619 4.05806E-03 2.57773E-02 0.00000E+00
 -1      3620 3.92532E-03 2.58273E-02 0.00000E+00
 -1      3621 3.79461E-03 2.58751E-02 0.00000E+00
 -1      3622 3.66617E-03 2.59207E-02 0.00000E+00
 -1      3623 3.54020E-03 2.59639E-02 0.00000E+00
 -1      3624 3.41689E-03 2.60048E-02 0.00000E+00
 -1      3625 5.22926E-03 2.56621E-02 0.00000E+00
 -1      3626 5.09339E-03 2.57323E-02 0.00000E+00
 -1      3627 4.95647E-03 2.58023E-02 0.00000E+00
 -1      3628 4.81894E-03 2.58711E-02 0.00000E+00
 -1      3629 4.68128E-03 2.59377E-02 0.00000E+00
 -1      3630 4.54397E-03 2.60018E-02 0.00000E+00
 -1      3631 4.40747E-03 2.60629E-02 0.00000E+00
 -1      3632 4.27218E-03 2.61209E-02 0.00000E+00
 -1      3633 4.13849E-03 2.61758E-02 0.00000E+00
 -1      3634 4.00669E-03 2.62278E-02 0.00000E+00
 -1      3635 3.87707E-03 2.62770E-02 0.00000E+00
 -1      3636 3.74984E-03 2.63234E-02 0.00000E+00
 -1      3637 3.62517E-03 2.63672E-02 0.00000E+00
 -1      3638 3.50322E-03 2.64083E-02 0.00000E+00
 -1      3639 3.38407E-03 2.64467E-02 0.00000E+00
 -1      3640 5.16226E-03 2.60937E-02 0.00000E+00
 -1      3641 5.02655E-03 2.61688E-02 0.00000E+00
 -1      3642 4.88983E-03 2.62431E-02 0.00000E+00
 -1      3643 4.75267E-03 2.63154E-02 0.00000E+00
 -1      3644 4.61568E-03 2.63847E-02 0.00000E+00
 -1      3645 4.47943E-03 2.64507E-02 0.00000E+00
 -1      3646 4.34443E-03 2.65129E-02 0.00000E+00
 -1      3647 4.21114E-03 2.65714E-02 0.00000E+00
 -1      3648 4.07992E-03 2.66262E-02 0.00000E+00
 -1      3649 3.95107E-03 2.66775E-02 0.00000E+00
 -1      3650 3.82481E-03 2.67254E-02 0.00000E+00
 -1      3651 3.70131E-03 2.67702E-02 0.00000E+00
 -1      3652 3.58068E-03 2.68120E-02 0.00000E+00
 -1      3653 3.46298E-03 2.68510E-02 0.00000E+00
 -1      3654 3.34824E-03 2.68869E-02 0.00000E+00
 -1      3655 5.08939E-03 2.65250E-02 0.00000E+00
 -1      3656 4.95378E-03 2.66056E-02 0.00000E+00
 -1      3657 4.81720E-03 2.66844E-02 0.00000E+00
 -1      3658 4.68042E-03 2.67603E-02 0.00000E+00
 -1      3659 4.54415E-03 2.68323E-02 0.00000E+00
 -1      3660 4.40907E-03 2.68999E-02 0.00000E+00
 -1      3661 4.27577E-03 2.69630E-02 0.00000E+00
 -1      3662 4.14470E-03 2.70216E-02 0.00000E+00
 -1      3663 4.01624E-03 2.70758E-02 0.00000E+00
 -1      3664 3.89064E-03 2.71260E-02 0.00000E+00
 -1      3665 3.76807E-03 2.71725E-02 0.00000E+00
 -1      3666 3.64862E-03 2.72155E-02 0.00000E+00
 -1      3667 3.53235E-03 2.72551E-02 0.00000E+00
 -1      3668 3.41922E-03 2.72917E-02 0.00000E+00
 -1      3669 3.30919E-03 2.73252E-02 0.00000E+00
 -1      3670 5.00975E-03 2.69562E-02 0.00000E+00
 -1      3671 4.87414E-03 2.70429E-02 0.00000E+00
 -1      3672 4.73766E-03 2.71266E-02 0.00000E+00
 -1      3673 4.60124E-03 2.72062E-02 0.00000E+00
 -1      3674 4.46578E-03 2.72807E-02 0.00000E+00
 -1      3675 4.33205E-03 2.73497E-02 0.00000E+00
 -1      3676 4.20069E-03 2.74133E-02 0.00000E+00
 -1      3677 4.07218E-03 2.74715E-02 0.00000E+00
 -1      3678 3.94684E-03 2.75248E-02 0.00000E+00
 -1      3679 3.82488E-03 2.75736E-02 0.00000E+00
 -1      3680 3.70640E-03 2.76182E-02 0.00000E+00
 -1      3681 3.59142E-03 2.76590E-02 0.00000E+00
 -1      3682 3.47989E-03 2.76963E-02 0.00000E+00
 -1      3683 3.37171E-03 2.77304E-02 0.00000E+00
 -1      3684 3.26676E-03 2.77614E-02 0.00000E+00
 -1      3685 4.92231E-03 2.73878E-02 0.00000E+00
 -1      3686 4.78659E-03 2.74811E-02 0.00000E+00
 -1      3687 4.65014E-03 2.75701E-02 0.00000E+00
 -1      3688 4.51412E-03 2.76533E-02 0.00000E+00
 -1      3689 4.37960E-03 2.77301E-02 0.00000E+00
 -1      3690 4.24747E-03 2.78001E-02 0.00000E+00
 -1      3691 4.11841E-03 2.78637E-02 0.00000E+00
 -1      3692 3.99287E-03 2.79211E-02 0.00000E+00
 -1      3693 3.87113E-03 2.79730E-02 0.00000E+00
 -1      3694 3.75332E-03 2.80198E-02 0.00000E+00
 -1      3695 3.63943E-03 2.80622E-02 0.00000E+00
 -1      3696 3.52940E-03 2.81006E-02 0.00000E+00
 -1      3697 3.42308E-03 2.81354E-02 0.00000E+00
 -1      3698 3.32030E-03 2.81669E-02 0.00000E+00
 -1      3699 3.22086E-03 2.81953E-02 0.00000E+00
 -1      3700 4.82592E-03 2.78204E-02 0.00000E+00
 -1      3701 4.68994E-03 2.79210E-02 0.00000E+00
 -1      3702 4.55345E-03 2.80154E-02 0.00000E+00
 -1      3703 4.41790E-03 2.81021E-02 0.00000E+00
 -1      3704 4.28455E-03 2.81808E-02 0.00000E+00
 -1      3705 4.15439E-03 2.82513E-02 0.00000E+00
 -1      3706 4.02810E-03 2.83143E-02 0.00000E+00
 -1      3707 3.90611E-03 2.83703E-02 0.00000E+00
 -1      3708 3.78858E-03 2.84201E-02 0.00000E+00
 -1      3709 3.67553E-03 2.84646E-02 0.00000E+00
 -1      3710 3.56684E-03 2.85044E-02 0.00000E+00
 -1      3711 3.46233E-03 2.85400E-02 0.00000E+00
 -1      3712 3.36177E-03 2.85720E-02 0.00000E+00
 -1      3713 3.26490E-03 2.86007E-02 0.00000E+00
 -1      3714 3.17144E-03 2.86265E-02 0.00000E+00
 -1      3715 4.71925E-03 2.82544E-02 0.00000E+00
 -1      3716 4.58283E-03 2.83631E-02 0.00000E+00
 -1      3717 4.44626E-03 2.84630E-02 0.00000E+00
 -1      3718 4.31132E-03 2.85531E-02 0.00000E+00
 -1      3719 4.17948E-03 2.86330E-02 0.00000E+00
 -1      3720 4.05182E-03 2.87033E-02 0.00000E+00
 -1      3721 3.92899E-03 2.87649E-02 0.00000E+00
 -1      3722 3.81128E-03 2.88187E-02 0.00000E+00
 -1      3723 3.69873E-03 2.88660E-02 0.00000E+00
 -1      3724 3.59120E-03 2.89075E-02 0.00000E+00
 -1      3725 3.48842E-03 2.89442E-02 0.00000E+00
 -1      3726 3.39011E-03 2.89768E-02 0.00000E+00
 -1      3727 3.29591E-03 2.90059E-02 0.00000E+00
 -1      3728 3.20550E-03 2.90317E-02 0.00000E+00
 -1      3729 3.11853E-03 2.90547E-02 0.00000E+00
 -1      3730 4.60076E-03 2.86910E-02 0.00000E+00
 -1      3731 4.46370E-03 2.88083E-02 0.00000E+00
 -1      3732 4.32703E-03 2.89137E-02 0.00000E+00
 -1      3733 4.19296E-03 2.90065E-02 0.00000E+00
 -1      3734 4.06319E-03 2.90869E-02 0.00000E+00
 -1      3735 3.93880E-03 2.91560E-02 0.00000E+00
 -1      3736 3.82033E-03 2.92152E-02 0.00000E+00
 -1      3737 3.70787E-03 2.92661E-02 0.00000E+00
 -1      3738 3.60124E-03 2.93100E-02 0.00000E+00
 -1      3739 3.50013E-03 2.93481E-02 0.00000E+00
 -1      3740 3.40410E-03 2.93814E-02 0.00000E+00
 -1      3741 3.31271E-03 2.94107E-02 0.00000E+00
 -1      3742 3.22555E-03 2.94365E-02 0.00000E+00
 -1      3743 3.14219E-03 2.94594E-02 0.00000E+00
 -1      3744 3.06224E-03 2.94795E-02 0.00000E+00
 -1      3745 4.46860E-03 2.91313E-02 0.00000E+00
 -1      3746 4.33066E-03 2.92577E-02 0.00000E+00
 -1      3747 4.19398E-03 2.93683E-02 0.00000E+00
 -1      3748 4.06128E-03 2.94628E-02 0.00000E+00
 -1      3749 3.93443E-03 2.95424E-02 0.00000E+00
 -1      3750 3.81441E-03 2.96091E-02 0.00000E+00
 -1      3751 3.70151E-03 2.96649E-02 0.00000E+00
 -1      3752 3.59552E-03 2.97118E-02 0.00000E+00
 -1      3753 3.49597E-03 2.97517E-02 0.00000E+00
 -1      3754 3.40232E-03 2.97858E-02 0.00000E+00
 -1      3755 3.31395E-03 2.98153E-02 0.00000E+00
 -1      3756 3.23031E-03 2.98410E-02 0.00000E+00
 -1      3757 3.15088E-03 2.98635E-02 0.00000E+00
 -1      3758 3.07518E-03 2.98833E-02 0.00000E+00
 -1      3759 3.00279E-03 2.99007E-02 0.00000E+00
 -1      3760 4.32056E-03 2.95769E-02 0.00000E+00
 -1      3761 4.18148E-03 2.97127E-02 0.00000E+00
 -1      3762 4.04505E-03 2.98276E-02 0.00000E+00
 -1      3763 3.91458E-03 2.99223E-02 0.00000E+00
 -1      3764 3.79197E-03 2.99994E-02 0.00000E+00
 -1      3765 3.67790E-03 3.00619E-02 0.00000E+00
 -1      3766 3.57217E-03 3.01130E-02 0.00000E+00
 -1      3767 3.47415E-03 3.01551E-02 0.00000E+00
 -1      3768 3.38303E-03 3.01903E-02 0.00000E+00
 -1      3769 3.29799E-03 3.02200E-02 0.00000E+00
 -1      3770 3.21828E-03 3.02454E-02 0.00000E+00
 -1      3771 3.14322E-03 3.02673E-02 0.00000E+00
 -1      3772 3.07223E-03 3.02864E-02 0.00000E+00
 -1      3773 3.00479E-03 3.03031E-02 0.00000E+00
 -1      3774 2.94047E-03 3.03177E-02 0.00000E+00
 -1      3775 4.15380E-03 3.00299E-02 0.00000E+00
 -1      3776 4.01338E-03 3.01751E-02 0.00000E+00
 -1      3777 3.87787E-03 3.02925E-02 0.00000E+00
 -1      3778 3.75114E-03 3.03849E-02 0.00000E+00
 -1      3779 3.63482E-03 3.04570E-02 0.00000E+00
 -1      3780 3.52886E-03 3.05136E-02 0.00000E+00
 -1      3781 3.43235E-03 3.05586E-02 0.00000E+00
 -1      3782 3.34408E-03 3.05949E-02 0.00000E+00
 -1      3783 3.26287E-03 3.06248E-02 0.00000E+00
 -1      3784 3.18768E-03 3.06497E-02 0.00000E+00
 -1      3785 3.11762E-03 3.06708E-02 0.00000E+00
 -1      3786 3.05196E-03 3.06890E-02 0.00000E+00
 -1      3787 2.99008E-03 3.07046E-02 0.00000E+00
 -1      3788 2.93147E-03 3.07183E-02 0.00000E+00
 -1      3789 2.87569E-03 3.07302E-02 0.00000E+00
 -1      3790 3.96463E-03 3.04933E-02 0.00000E+00
 -1      3791 3.82287E-03 3.06467E-02 0.00000E+00
 -1      3792 3.68976E-03 3.07633E-02 0.00000E+00
 -1      3793 3.56945E-03 3.08498E-02 0.00000E+00
 -1      3794 3.46249E-03 3.09140E-02 0.00000E+00
 -1      3795 3.36753E-03 3.09627E-02 0.00000E+00
 -1      3796 3.28267E-03 3.10003E-02 0.00000E+00
 -1      3797 3.20610E-03 3.10301E-02 0.00000E+00
 -1      3798 3.13635E-03 3.10543E-02 0.00000E+00
 -1      3799 3.07221E-03 3.10743E-02 0.00000E+00
 -1      3800 3.01276E-03 3.10911E-02 0.00000E+00
 -1      3801 2.95725E-03 3.11054E-02 0.00000E+00
 -1      3802 2.90509E-03 3.11178E-02 0.00000E+00
 -1      3803 2.85579E-03 3.11285E-02 0.00000E+00
 -1      3804 2.80895E-03 3.11379E-02 0.00000E+00
 -1      3805 3.74796E-03 3.09717E-02 0.00000E+00
 -1      3806 3.60549E-03 3.11297E-02 0.00000E+00
 -1      3807 3.47810E-03 3.12395E-02 0.00000E+00
 -1      3808 3.36876E-03 3.13150E-02 0.00000E+00
 -1      3809 3.27558E-03 3.13682E-02 0.00000E+00
 -1      3810 3.19516E-03 3.14070E-02 0.00000E+00
 -1      3811 3.12459E-03 3.14364E-02 0.00000E+00
 -1      3812 3.06168E-03 3.14593E-02 0.00000E+00
 -1      3813 3.00481E-03 3.14777E-02 0.00000E+00
 -1      3814 2.95279E-03 3.14928E-02 0.00000E+00
 -1      3815 2.90475E-03 3.15054E-02 0.00000E+00
 -1      3816 2.86000E-03 3.15162E-02 0.00000E+00
 -1      3817 2.81803E-03 3.15254E-02 0.00000E+00
 -1      3818 2.77842E-03 3.15334E-02 0.00000E+00
 -1      3819 2.74082E-03 3.15404E-02 0.00000E+00
 -1      3820 3.49601E-03 3.14714E-02 0.00000E+00
 -1      3821 3.35613E-03 3.16252E-02 0.00000E+00
 -1      3822 3.24133E-03 3.17185E-02 0.00000E+00
 -1      3823 3.15056E-03 3.17769E-02 0.00000E+00
 -1      3824 3.07661E-03 3.18163E-02 0.00000E+00
 -1      3825 3.01439E-03 3.18443E-02 0.00000E+00
 -1      3826 2.96054E-03 3.18651E-02 0.00000E+00
 -1      3827 2.91290E-03 3.18812E-02 0.00000E+00
 -1      3828 2.87003E-03 3.18940E-02 0.00000E+00
 -1      3829 2.83091E-03 3.19045E-02 0.00000E+00
 -1      3830 2.79483E-03 3.19133E-02 0.00000E+00
 -1      3831 2.76126E-03 3.19208E-02 0.00000E+00
 -1      3832 2.72979E-03 3.19272E-02 0.00000E+00
 -1      3833 2.70011E-03 3.19327E-02 0.00000E+00
 -1      3834 2.67195E-03 3.19375E-02 0.00000E+00
 -1      3835 3.19866E-03 3.20017E-02 0.00000E+00
 -1      3836 3.06957E-03 3.21298E-02 0.00000E+00
 -1      3837 2.98338E-03 3.21926E-02 0.00000E+00
 -1      3838 2.92037E-03 3.22304E-02 0.00000E+00
 -1      3839 2.87067E-03 3.22550E-02 0.00000E+00
 -1      3840 2.82940E-03 3.22723E-02 0.00000E+00
 -1      3841 2.79384E-03 3.22850E-02 0.00000E+00
 -1      3842 2.76242E-03 3.22948E-02 0.00000E+00
 -1      3843 2.73412E-03 3.23027E-02 0.00000E+00
 -1      3844 2.70828E-03 3.23090E-02 0.00000E+00
 -1      3845 2.68442E-03 3.23144E-02 0.00000E+00
 -1      3846 2.66220E-03 3.23189E-02 0.00000E+00
 -1      3847 2.64135E-03 3.23228E-02 0.00000E+00
 -1      3848 2.62169E-03 3.23262E-02 0.00000E+00
 -1      3849 2.60302E-03 3.23291E-02 0.00000E+00
 -1      3850 2.83184E-03 3.25670E-02 0.00000E+00
 -1      3851 2.75951E-03 3.26232E-02 0.00000E+00
 -1      3852 2.71829E-03 3.26534E-02 0.00000E+00
 -1      3853 2.68857E-03 3.26704E-02 0.00000E+00
 -1      3854 2.66511E-03 3.26816E-02 0.00000E+00
 -1      3855 2.64543E-03 3.26894E-02 0.00000E+00
 -1      3856 2.62834E-03 3.26951E-02 0.00000E+00
 -1      3857 2.61311E-03 3.26996E-02 0.00000E+00
 -1      3858 2.59932E-03 3.27031E-02 0.00000E+00
 -1      3859 2.58666E-03 3.27060E-02 0.00000E+00
 -1      3860 2.57493E-03 3.27084E-02 0.00000E+00
 -1      3861 2.56398E-03 3.27104E-02 0.00000E+00
 -1      3862 2.55369E-03 3.27122E-02 0.00000E+00
 -1      3863 2.54396E-03 3.27137E-02 0.00000E+00
 -1      3864 2.53473E-03 3.27151E-02 0.00000E+00
 -1      3865 2.51744E-03 3.27172E-02 0.00000E+00
 -1      3866 2.56810E-03 3.23339E-02 0.00000E+00
 -1      3867 2.61927E-03 3.19453E-02 0.00000E+00
 -1      3868 2.67044E-03 3.15517E-02 0.00000E+00
 -1      3869 2.72114E-03 3.11530E-02 0.00000E+00
 -1      3870 2.77092E-03 3.07495E-02 0.00000E+00
 -1      3871 2.81935E-03 3.03415E-02 0.00000E+00
 -1      3872 2.86609E-03 2.99291E-02 0.00000E+00
 -1      3873 2.91081E-03 2.95128E-02 0.00000E+00
 -1      3874 2.95326E-03 2.90928E-02 0.00000E+00
 -1      3875 2.99326E-03 2.86695E-02 0.00000E+00
 -1      3876 3.03068E-03 2.82432E-02 0.00000E+00
 -1      3877 3.06546E-03 2.78143E-02 0.00000E+00
 -1      3878 3.09756E-03 2.73831E-02 0.00000E+00
 -1      3879 3.12701E-03 2.69499E-02 0.00000E+00
 -1      3880 3.15387E-03 2.65148E-02 0.00000E+00
 -1      3881 3.17823E-03 2.60782E-02 0.00000E+00
 -1      3882 3.20022E-03 2.56401E-02 0.00000E+00
 -1      3883 3.21998E-03 2.52008E-02 0.00000E+00
 -1      3884 3.23772E-03 2.47601E-02 0.00000E+00
 -1      3885 3.25366E-03 2.43180E-02 0.00000E+00
 -1      3886 3.26811E-03 2.38743E-02 0.00000E+00
 -1      3887 3.28147E-03 2.34287E-02 0.00000E+00
 -1      3888 3.29427E-03 2.29806E-02 0.00000E+00
 -1      3889 3.30730E-03 2.25293E-02 0.00000E+00
 -1      3890 3.32165E-03 2.20737E-02 0.00000E+00
 -1      3891 3.33889E-03 2.16124E-02 0.00000E+00
 -1      3892 3.36118E-03 2.11437E-02 0.00000E+00
 -1      3893 2.50927E-03 3.27181E-02 0.00000E+00
 -1      3894 2.55161E-03 3.23357E-02 0.00000E+00
 -1      3895 2.59439E-03 3.19484E-02 0.00000E+00
 -1      3896 2.63718E-03 3.15561E-02 0.00000E+00
 -1      3897 2.67960E-03 3.11590E-02 0.00000E+00
 -1      3898 2.72128E-03 3.07572E-02 0.00000E+00
 -1      3899 2.76188E-03 3.03509E-02 0.00000E+00
 -1      3900 2.80108E-03 2.99405E-02 0.00000E+00
 -1      3901 2.83863E-03 2.95261E-02 0.00000E+00
 -1      3902 2.87431E-03 2.91081E-02 0.00000E+00
 -1      3903 2.90794E-03 2.86869E-02 0.00000E+00
 -1      3904 2.93942E-03 2.82628E-02 0.00000E+00
 -1      3905 2.96866E-03 2.78361E-02 0.00000E+00
 -1      3906 2.99562E-03 2.74072E-02 0.00000E+00
 -1      3907 3.02030E-03 2.69763E-02 0.00000E+00
 -1      3908 3.04272E-03 2.65438E-02 0.00000E+00
 -1      3909 3.06293E-03 2.61099E-02 0.00000E+00
 -1      3910 3.08100E-03 2.56748E-02 0.00000E+00
 -1      3911 3.09702E-03 2.52388E-02 0.00000E+00
 -1      3912 3.11110E-03 2.48018E-02 0.00000E+00
 -1      3913 3.12338E-03 2.43640E-02 0.00000E+00
 -1      3914 3.13405E-03 2.39253E-02 0.00000E+00
 -1      3915 3.14335E-03 2.34854E-02 0.00000E+00
 -1      3916 3.15166E-03 2.30440E-02 0.00000E+00
 -1      3917 3.15954E-03 2.26003E-02 0.00000E+00
 -1      3918 3.16786E-03 2.21534E-02 0.00000E+00
 -1      3919 3.17798E-03 2.17017E-02 0.00000E+00
 -1      3920 3.19217E-03 2.12432E-02 0.00000E+00
 -1      3921 2.50136E-03 3.27188E-02 0.00000E+00
 -1      3922 2.53565E-03 3.23373E-02 0.00000E+00
 -1      3923 2.57030E-03 3.19509E-02 0.00000E+00
 -1      3924 2.60497E-03 3.15598E-02 0.00000E+00
 -1      3925 2.63935E-03 3.11639E-02 0.00000E+00
 -1      3926 2.67316E-03 3.07635E-02 0.00000E+00
 -1      3927 2.70610E-03 3.03587E-02 0.00000E+00
 -1      3928 2.73793E-03 2.99499E-02 0.00000E+00
 -1      3929 2.76845E-03 2.95372E-02 0.00000E+00
 -1      3930 2.79745E-03 2.91210E-02 0.00000E+00
 -1      3931 2.82481E-03 2.87016E-02 0.00000E+00
 -1      3932 2.85042E-03 2.82794E-02 0.00000E+00
 -1      3933 2.87419E-03 2.78546E-02 0.00000E+00
 -1      3934 2.89608E-03 2.74278E-02 0.00000E+00
 -1      3935 2.91606E-03 2.69991E-02 0.00000E+00
 -1      3936 2.93415E-03 2.65689E-02 0.00000E+00
 -1      3937 2.95034E-03 2.61376E-02 0.00000E+00
 -1      3938 2.96468E-03 2.57054E-02 0.00000E+00
 -1      3939 2.97719E-03 2.52726E-02 0.00000E+00
 -1      3940 2.98792E-03 2.48394E-02 0.00000E+00
 -1      3941 2.99692E-03 2.44060E-02 0.00000E+00
 -1      3942 3.00427E-03 2.39725E-02 0.00000E+00
 -1      3943 3.01007E-03 2.35390E-02 0.00000E+00
 -1      3944 3.01450E-03 2.31051E-02 0.00000E+00
 -1      3945 3.01787E-03 2.26706E-02 0.00000E+00
 -1      3946 3.02069E-03 2.22348E-02 0.00000E+00
 -1      3947 3.02394E-03 2.17963E-02 0.00000E+00
 -1      3948 3.02937E-03 2.13530E-02 0.00000E+00
 -1      3949 2.49367E-03 3.27193E-02 0.00000E+00
 -1      3950 2.52012E-03 3.23385E-02 0.00000E+00
 -1      3951 2.54685E-03 3.19529E-02 0.00000E+00
 -1      3952 2.57360E-03 3.15627E-02 0.00000E+00
 -1      3953 2.60015E-03 3.11679E-02 0.00000E+00
 -1      3954 2.62625E-03 3.07686E-02 0.00000E+00
 -1      3955 2.65170E-03 3.03650E-02 0.00000E+00
 -1      3956 2.67631E-03 2.99574E-02 0.00000E+00
 -1      3957 2.69991E-03 2.95461E-02 0.00000E+00
 -1      3958 2.72235E-03 2.91313E-02 0.00000E+00
 -1      3959 2.74352E-03 2.87134E-02 0.00000E+00
 -1      3960 2.76332E-03 2.82928E-02 0.00000E+00
 -1      3961 2.78170E-03 2.78697E-02 0.00000E+00
 -1      3962 2.79860E-03 2.74446E-02 0.00000E+00
 -1      3963 2.81400E-03 2.70178E-02 0.00000E+00
 -1      3964 2.82787E-03 2.65897E-02 0.00000E+00
 -1      3965 2.84022E-03 2.61606E-02 0.00000E+00
 -1      3966 2.85104E-03 2.57310E-02 0.00000E+00
 -1      3967 2.86033E-03 2.53012E-02 0.00000E+00
 -1      3968 2.86808E-03 2.48716E-02 0.00000E+00
 -1      3969 2.87429E-03 2.44424E-02 0.00000E+00
 -1      3970 2.87895E-03 2.40140E-02 0.00000E+00
 -1      3971 2.88205E-03 2.35868E-02 0.00000E+00
 -1      3972 2.88359E-03 2.31608E-02 0.00000E+00
 -1      3973 2.88361E-03 2.27362E-02 0.00000E+00
 -1      3974 2.88230E-03 2.23129E-02 0.00000E+00
 -1      3975 2.88006E-03 2.18903E-02 0.00000E+00
 -1      3976 2.87784E-03 2.14670E-02 0.00000E+00
 -1      3977 2.48615E-03 3.27197E-02 0.00000E+00
 -1      3978 2.50492E-03 3.23394E-02 0.00000E+00
 -1      3979 2.52390E-03 3.19545E-02 0.00000E+00
 -1      3980 2.54289E-03 3.15649E-02 0.00000E+00
 -1      3981 2.56174E-03 3.11708E-02 0.00000E+00
 -1      3982 2.58029E-03 3.07723E-02 0.00000E+00
 -1      3983 2.59838E-03 3.03697E-02 0.00000E+00
 -1      3984 2.61587E-03 2.99631E-02 0.00000E+00
 -1      3985 2.63265E-03 2.95528E-02 0.00000E+00
 -1      3986 2.64861E-03 2.91391E-02 0.00000E+00
 -1      3987 2.66367E-03 2.87224E-02 0.00000E+00
 -1      3988 2.67776E-03 2.83029E-02 0.00000E+00
 -1      3989 2.69082E-03 2.78811E-02 0.00000E+00
 -1      3990 2.70282E-03 2.74574E-02 0.00000E+00
 -1      3991 2.71372E-03 2.70321E-02 0.00000E+00
 -1      3992 2.72352E-03 2.66057E-02 0.00000E+00
 -1      3993 2.73219E-03 2.61785E-02 0.00000E+00
 -1      3994 2.73971E-03 2.57510E-02 0.00000E+00
 -1      3995 2.74607E-03 2.53237E-02 0.00000E+00
 -1      3996 2.75125E-03 2.48971E-02 0.00000E+00
 -1      3997 2.75520E-03 2.44715E-02 0.00000E+00
 -1      3998 2.75786E-03 2.40477E-02 0.00000E+00
 -1      3999 2.75916E-03 2.36261E-02 0.00000E+00
 -1      4000 2.75900E-03 2.32073E-02 0.00000E+00
 -1      4001 2.75727E-03 2.27922E-02 0.00000E+00
 -1      4002 2.75386E-03 2.23812E-02 0.00000E+00
 -1      4003 2.74871E-03 2.19750E-02 0.00000E+00
 -1      4004 2.74196E-03 2.15740E-02 0.00000E+00
 -1      4005 2.47874E-03 3.27200E-02 0.00000E+00
 -1      4006 2.48996E-03 3.23400E-02 0.00000E+00
 -1      4007 2.50130E-03 3.19555E-02 0.00000E+00
 -1      4008 2.51265E-03 3.15664E-02 0.00000E+00
 -1      4009 2.52392E-03 3.11728E-02 0.00000E+00
 -1      4010 2.53500E-03 3.07749E-02 0.00000E+00
 -1      4011 2.54582E-03 3.03728E-02 0.00000E+00
 -1      4012 2.55628E-03 2.99669E-02 0.00000E+00
 -1      4013 2.56632E-03 2.95573E-02 0.00000E+00
 -1      4014 2.57587E-03 2.91443E-02 0.00000E+00
 -1      4015 2.58488E-03 2.87284E-02 0.00000E+00
 -1      4016 2.59330E-03 2.83098E-02 0.00000E+00
 -1      4017 2.60111E-03 2.78889E-02 0.00000E+00
 -1      4018 2.60828E-03 2.74661E-02 0.00000E+00
 -1      4019 2.61478E-03 2.70418E-02 0.00000E+00
 -1      4020 2.62061E-03 2.66166E-02 0.00000E+00
 -1      4021 2.62574E-03 2.61907E-02 0.00000E+00
 -1      4022 2.63017E-03 2.57648E-02 0.00000E+00
 -1      4023 2.63387E-03 2.53393E-02 0.00000E+00
 -1      4024 2.63681E-03 2.49148E-02 0.00000E+00
 -1      4025 2.63896E-03 2.44919E-02 0.00000E+00
 -1      4026 2.64026E-03 2.40714E-02 0.00000E+00
 -1      4027 2.64063E-03 2.36541E-02 0.00000E+00
 -1      4028 2.63995E-03 2.32410E-02 0.00000E+00
 -1      4029 2.63809E-03 2.28332E-02 0.00000E+00
 -1      4030 2.63483E-03 2.24323E-02 0.00000E+00
 -1      4031 2.62994E-03 2.20400E-02 0.00000E+00
 -1      4032 2.62313E-03 2.16587E-02 0.00000E+00
 -1      4033 2.47140E-03 3.27202E-02 0.00000E+00
 -1      4034 2.47514E-03 3.23404E-02 0.00000E+00
 -1      4035 2.47891E-03 3.19560E-02 0.00000E+00
 -1      4036 2.48268E-03 3.15671E-02 0.00000E+00
 -1      4037 2.48643E-03 3.11738E-02 0.00000E+00
 -1      4038 2.49012E-03 3.07761E-02 0.00000E+00
 -1      4039 2.49372E-03 3.03744E-02 0.00000E+00
 -1      4040 2.49720E-03 2.99688E-02 0.00000E+00
 -1      4041 2.50054E-03 2.95595E-02 0.00000E+00
 -1      4042 2.50372E-03 2.91470E-02 0.00000E+00
 -1      4043 2.50672E-03 2.87314E-02 0.00000E+00
 -1      4044 2.50952E-03 2.83132E-02 0.00000E+00
 -1      4045 2.51212E-03 2.78928E-02 0.00000E+00
 -1      4046 2.51450E-03 2.74705E-02 0.00000E+00
 -1      4047 2.51667E-03 2.70467E-02 0.00000E+00
 -1      4048 2.51860E-03 2.66221E-02 0.00000E+00
 -1      4049 2.52030E-03 2.61969E-02 0.00000E+00
 -1      4050 2.52176E-03 2.57718E-02 0.00000E+00
 -1      4051 2.52297E-03 2.53472E-02 0.00000E+00
 -1      4052 2.52393E-03 2.49239E-02 0.00000E+00
 -1      4053 2.52460E-03 2.45024E-02 0.00000E+00
 -1      4054 2.52498E-03 2.40837E-02 0.00000E+00
 -1      4055 2.52503E-03 2.36687E-02 0.00000E+00
 -1      4056 2.52470E-03 2.32586E-02 0.00000E+00
 -1      4057 2.52392E-03 2.28550E-02 0.00000E+00
 -1      4058 2.52261E-03 2.24597E-02 0.00000E+00
 -1      4059 2.52063E-03 2.20755E-02 0.00000E+00
 -1      4060 2.51781E-03 2.17060E-02 0.00000E+00
 -1      4061 2.46409E-03 3.27202E-02 0.00000E+00
 -1      4062 2.46036E-03 3.23404E-02 0.00000E+00
 -1      4063 2.45659E-03 3.19560E-02 0.00000E+00
 -1      4064 2.45281E-03 3.15671E-02 0.00000E+00
 -1      4065 2.44906E-03 3.11738E-02 0.00000E+00
 -1      4066 2.44537E-03 3.07761E-02 0.00000E+00
 -1      4067 2.44178E-03 3.03744E-02 0.00000E+00
 -1      4068 2.43829E-03 2.99688E-02 0.00000E+00
 -1      4069 2.43495E-03 2.95595E-02 0.00000E+00
 -1      4070 2.43178E-03 2.91470E-02 0.00000E+00
 -1      4071 2.42878E-03 2.87314E-02 0.00000E+00
 -1      4072 2.42597E-03 2.83132E-02 0.00000E+00
 -1      4073 2.42337E-03 2.78928E-02 0.00000E+00
 -1      4074 2.42099E-03 2.74705E-02 0.00000E+00
 -1      4075 2.41883E-03 2.70467E-02 0.00000E+00
 -1      4076 2.41690E-03 2.66221E-02 0.00000E+00
 -1      4077 2.41520E-03 2.61969E-02 0.00000E+00
 -1      4078 2.41374E-03 2.57718E-02 0.00000E+00
 -1      4079 2.41252E-03 2.53472E-02 0.00000E+00
 -1      4080 2.41157E-03 2.49239E-02 0.00000E+00
 -1      4081 2.41089E-03 2.45024E-02 0.00000E+00
 -1      4082 2.41051E-03 2.40837E-02 0.00000E+00
 -1      4083 2.41047E-03 2.36687E-02 0.00000E+00
 -1      4084 2.41080E-03 2.32586E-02 0.00000E+00
 -1      4085 2.41157E-03 2.28550E-02 0.00000E+00
 -1      4086 2.41288E-03 2.24597E-02 0.00000E+00
 -1      4087 2.41486E-03 2.20755E-02 0.00000E+00
 -1      4088 2.41768E-03 2.17060E-02 0.00000E+00
 -1      4089 2.45676E-03 3.27200E-02 0.00000E+00
 -1      4090 2.44554E-03 3.23400E-02 0.00000E+00
 -1      4091 2.43420E-03 3.19555E-02 0.00000E+00
 -1      4092 2.42285E-03 3.15664E-02 0.00000E+00
 -1      4093 2.41158E-03 3.11728E-02 0.00000E+00
 -1      4094 2.40049E-03 3.07749E-02 0.00000E+00
 -1      4095 2.38968E-03 3.03728E-02 0.00000E+00
 -1      4096 2.37921E-03 2.99669E-02 0.00000E+00
 -1      4097 2.36918E-03 2.95573E-02 0.00000E+00
 -1      4098 2.35963E-03 2.91443E-02 0.00000E+00
 -1      4099 2.35062E-03 2.87284E-02 0.00000E+00
 -1      4100 2.34220E-03 2.83098E-02 0.00000E+00
 -1      4101 2.33439E-03 2.78889E-02 0.00000E+00
 -1      4102 2.32722E-03 2.74661E-02 0.00000E+00
 -1      4103 2.32071E-03 2.70418E-02 0.00000E+00
 -1      4104 2.31489E-03 2.66166E-02 0.00000E+00
 -1      4105 2.30975E-03 2.61907E-02 0.00000E+00
 -1      4106 2.30533E-03 2.57648E-02 0.00000E+00
 -1      4107 2.30163E-03 2.53393E-02 0.00000E+00
 -1      4108 2.29868E-03 2.49148E-02 0.00000E+00
 -1      4109 2.29653E-03 2.44919E-02 0.00000E+00
 -1      4110 2.29523E-03 2.40714E-02 0.00000E+00
 -1      4111 2.29487E-03 2.36541E-02 0.00000E+00
 -1      4112 2.29554E-03 2.32410E-02 0.00000E+00
 -1      4113 2.29741E-03 2.28332E-02 0.00000E+00
 -1      4114 2.30066E-03 2.24323E-02 0.00000E+00
 -1      4115 2.30556E-03 2.20400E-02 0.00000E+00
 -1      4116 2.31237E-03 2.16587E-02 0.00000E+00
 -1      4117 2.44935E-03 3.27197E-02 0.00000E+00
 -1      4118 2.43057E-03 3.23394E-02 0.00000E+00
 -1      4119 2.41160E-03 3.19545E-02 0.00000E+00
 -1      4120 2.39260E-03 3.15649E-02 0.00000E+00
 -1      4121 2.37375E-03 3.11708E-02 0.00000E+00
 -1      4122 2.35521E-03 3.07723E-02 0.00000E+00
 -1      4123 2.33712E-03 3.03697E-02 0.00000E+00
 -1      4124 2.31963E-03 2.99631E-02 0.00000E+00
 -1      4125 2.30285E-03 2.95528E-02 0.00000E+00
 -1      4126 2.28688E-03 2.91391E-02 0.00000E+00
 -1      4127 2.27183E-03 2.87224E-02 0.00000E+00
 -1      4128 2.25774E-03 2.83029E-02 0.00000E+00
 -1      4129 2.24468E-03 2.78811E-02 0.00000E+00
 -1      4130 2.23268E-03 2.74574E-02 0.00000E+00
 -1      4131 2.22177E-03 2.70321E-02 0.00000E+00
 -1      4132 2.21198E-03 2.66057E-02 0.00000E+00
 -1      4133 2.20331E-03 2.61785E-02 0.00000E+00
 -1      4134 2.19579E-03 2.57510E-02 0.00000E+00
 -1      4135 2.18942E-03 2.53237E-02 0.00000E+00
 -1      4136 2.18425E-03 2.48971E-02 0.00000E+00
 -1      4137 2.18030E-03 2.44715E-02 0.00000E+00
 -1      4138 2.17764E-03 2.40477E-02 0.00000E+00
 -1      4139 2.17634E-03 2.36261E-02 0.00000E+00
 -1      4140 2.17649E-03 2.32073E-02 0.00000E+00
 -1      4141 2.17822E-03 2.27922E-02 0.00000E+00
 -1      4142 2.18163E-03 2.23812E-02 0.00000E+00
 -1      4143 2.18679E-03 2.19750E-02 0.00000E+00
 -1      4144 2.19354E-03 2.15740E-02 0.00000E+00
 -1      4145 2.44182E-03 3.27193E-02 0.00000E+00
 -1      4146 2.41537E-03 3.23385E-02 0.00000E+00
 -1      4147 2.38865E-03 3.19529E-02 0.00000E+00
 -1      4148 2.36189E-03 3.15627E-02 0.00000E+00
 -1      4149 2.33535E-03 3.11679E-02 0.00000E+00
 -1      4150 2.30925E-03 3.07686E-02 0.00000E+00
 -1      4151 2.28379E-03 3.03650E-02 0.00000E+00
 -1      4152 2.25919E-03 2.99574E-02 0.00000E+00
 -1      4153 2.23559E-03 2.95461E-02 0.00000E+00
 -1      4154 2.21315E-03 2.91313E-02 0.00000E+00
 -1      4155 2.19198E-03 2.87134E-02 0.00000E+00
 -1      4156 2.17217E-03 2.82928E-02 0.00000E+00
 -1      4157 2.15379E-03 2.78697E-02 0.00000E+00
 -1      4158 2.13689E-03 2.74446E-02 0.00000E+00
 -1      4159 2.12150E-03 2.70178E-02 0.00000E+00
 -1      4160 2.10762E-03 2.65897E-02 0.00000E+00
 -1      4161 2.09527E-03 2.61606E-02 0.00000E+00
 -1      4162 2.08446E-03 2.57310E-02 0.00000E+00
 -1      4163 2.07517E-03 2.53012E-02 0.00000E+00
 -1      4164 2.06742E-03 2.48716E-02 0.00000E+00
 -1      4165 2.06120E-03 2.44424E-02 0.00000E+00
 -1      4166 2.05654E-03 2.40140E-02 0.00000E+00
 -1      4167 2.05345E-03 2.35868E-02 0.00000E+00
 -1      4168 2.05191E-03 2.31608E-02 0.00000E+00
 -1      4169 2.05188E-03 2.27362E-02 0.00000E+00
 -1      4170 2.05320E-03 2.23129E-02 0.00000E+00
 -1      4171 2.05544E-03 2.18903E-02 0.00000E+00
 -1      4172 2.05766E-03 2.14670E-02 0.00000E+00
 -1      4173 2.43413E-03 3.27188E-02 0.00000E+00
 -1      4174 2.39984E-03 3.23373E-02 0.00000E+00
 -1      4175 2.36520E-03 3.19509E-02 0.00000E+00
 -1      4176 2.33053E-03 3.15598E-02 0.00000E+00
 -1      4177 2.29614E-03 3.11639E-02 0.00000E+00
 -1      4178 2.26234E-03 3.07635E-02 0.00000E+00
 -1      4179 2.22940E-03 3.03587E-02 0.00000E+00
 -1      4180 2.19756E-03 2.99499E-02 0.00000E+00
 -1      4181 2.16705E-03 2.95372E-02 0.00000E+00
 -1      4182 2.13804E-03 2.91210E-02 0.00000E+00
 -1      4183 2.11068E-03 2.87016E-02 0.00000E+00
 -1      4184 2.08508E-03 2.82794E-02 0.00000E+00
 -1      4185 2.06131E-03 2.78546E-02 0.00000E+00
 -1      4186 2.03942E-03 2.74278E-02 0.00000E+00
 -1      4187 2.01943E-03 2.69991E-02 0.00000E+00
 -1      4188 2.00135E-03 2.65689E-02 0.00000E+00
 -1      4189 1.98515E-03 2.61376E-02 0.00000E+00
 -1      4190 1.97082E-03 2.57054E-02 0.00000E+00
 -1      4191 1.95831E-03 2.52726E-02 0.00000E+00
 -1      4192 1.94758E-03 2.48394E-02 0.00000E+00
 -1      4193 1.93858E-03 2.44060E-02 0.00000E+00
 -1      4194 1.93123E-03 2.39725E-02 0.00000E+00
 -1      4195 1.92542E-03 2.35390E-02 0.00000E+00
 -1      4196 1.92099E-03 2.31051E-02 0.00000E+00
 -1      4197 1.91763E-03 2.26706E-02 0.00000E+00
 -1      4198 1.91481E-03 2.22348E-02 0.00000E+00
 -1      4199 1.91156E-03 2.17963E-02 0.00000E+00
 -1      4200 1.90612E-03 2.13530E-02 0.00000E+00
 -1      4201 2.42623E-03 3.27181E-02 0.00000E+00
 -1      4202 2.38388E-03 3.23357E-02 0.00000E+00
 -1      4203 2.34111E-03 3.19484E-02 0.00000E+00
 -1      4204 2.29832E-03 3.15561E-02 0.00000E+00
 -1      4205 2.25589E-03 3.11590E-02 0.00000E+00
 -1      4206 2.21421E-03 3.07572E-02 0.00000E+00
 -1      4207 2.17362E-03 3.03509E-02 0.00000E+00
 -1      4208 2.13442E-03 2.99405E-02 0.00000E+00
 -1      4209 2.09687E-03 2.95261E-02 0.00000E+00
 -1      4210 2.06119E-03 2.91081E-02 0.00000E+00
 -1      4211 2.02755E-03 2.86869E-02 0.00000E+00
 -1      4212 1.99608E-03 2.82628E-02 0.00000E+00
 -1      4213 1.96684E-03 2.78361E-02 0.00000E+00
 -1      4214 1.93988E-03 2.74072E-02 0.00000E+00
 -1      4215 1.91520E-03 2.69763E-02 0.00000E+00
 -1      4216 1.89278E-03 2.65438E-02 0.00000E+00
 -1      4217 1.87257E-03 2.61099E-02 0.00000E+00
 -1      4218 1.85449E-03 2.56748E-02 0.00000E+00
 -1      4219 1.83847E-03 2.52388E-02 0.00000E+00
 -1      4220 1.82439E-03 2.48018E-02 0.00000E+00
 -1      4221 1.81211E-03 2.43640E-02 0.00000E+00
 -1      4222 1.80145E-03 2.39253E-02 0.00000E+00
 -1      4223 1.79214E-03 2.34854E-02 0.00000E+00
 -1      4224 1.78383E-03 2.30440E-02 0.00000E+00
 -1      4225 1.77595E-03 2.26003E-02 0.00000E+00
 -1      4226 1.76764E-03 2.21534E-02 0.00000E+00
 -1      4227 1.75751E-03 2.17017E-02 0.00000E+00
 -1      4228 1.74332E-03 2.12432E-02 0.00000E+00
 -1      4229 2.41806E-03 3.27172E-02 0.00000E+00
 -1      4230 2.36739E-03 3.23339E-02 0.00000E+00
 -1      4231 2.31623E-03 3.19453E-02 0.00000E+00
 -1      4232 2.26506E-03 3.15517E-02 0.00000E+00
 -1      4233 2.21436E-03 3.11530E-02 0.00000E+00
 -1      4234 2.16458E-03 3.07495E-02 0.00000E+00
 -1      4235 2.11614E-03 3.03415E-02 0.00000E+00
 -1      4236 2.06941E-03 2.99291E-02 0.00000E+00
 -1      4237 2.02469E-03 2.95128E-02 0.00000E+00
 -1      4238 1.98224E-03 2.90928E-02 0.00000E+00
 -1      4239 1.94224E-03 2.86695E-02 0.00000E+00
 -1      4240 1.90481E-03 2.82432E-02 0.00000E+00
 -1      4241 1.87004E-03 2.78143E-02 0.00000E+00
 -1      4242 1.83794E-03 2.73831E-02 0.00000E+00
 -1      4243 1.80849E-03 2.69499E-02 0.00000E+00
 -1      4244 1.78163E-03 2.65148E-02 0.00000E+00
 -1      4245 1.75727E-03 2.60782E-02 0.00000E+00
 -1      4246 1.73528E-03 2.56401E-02 0.00000E+00
 -1      4247 1.71551E-03 2.52008E-02 0.00000E+00
 -1      4248 1.69778E-03 2.47601E-02 0.00000E+00
 -1      4249 1.68183E-03 2.43180E-02 0.00000E+00
 -1      4250 1.66738E-03 2.38743E-02 0.00000E+00
 -1      4251 1.65403E-03 2.34287E-02 0.00000E+00
 -1      4252 1.64122E-03 2.29806E-02 0.00000E+00
 -1      4253 1.62820E-03 2.25293E-02 0.00000E+00
 -1      4254 1.61385E-03 2.20737E-02 0.00000E+00
 -1      4255 1.59661E-03 2.16124E-02 0.00000E+00
 -1      4256 1.57432E-03 2.11437E-02 0.00000E+00
 -3
    1PSTEP                         2           1           1          
  100CL  101 1.000000000        4256                     0    1           1
 -4  STRESS      6    1
 -5  SXX         1    4    1    1
 -5  SYY         1    4    2    2
 -5  SZZ         1    4    3    3
 -5  SXY         1    4    1    2
 -5  SYZ         1    4    2    3
 -5  SZX         1    4    3    1
 -1         1 3.58579E+01 6.39105E+01 2.05543E+00-4.34035E+01 2.08722E-13 3.99680E-15
 -1         2 3.53638E+01 6.33120E+01 2.00751E+00 4.29286E+01-7.10543E-14 2.84217E-14
 -1         3 3.53638E+01 6.33120E+01 2.00751E+00-4.29286E+01 1.90958E-13 4.26326E-14
 -1         4 3.58579E+01 6.39105E+01 2.05543E+00 4.34035E+01 1.31006E-13-8.88178E-16
 -1         5-5.13886E+00 9.68132E+01 7.34545E-03-2.81160E+00-4.68930E-14-7.93809E-15
 -1         6-5.65469E+00 9.60056E+01 1.23022E-02 1.99471E+00-1.50477E-13-2.04628E-14
 -1         7-5.65469E+00 9.60056E+01 1.23022E-02-1.99471E+00 8.41480E-14-2.52368E-14
 -1         8-5.13886E+00 9.68132E+01 7.34545E-03 2.81160E+00-7.11722E-14-2.02616E-15
 -1         9 5.13671E+01 1.71037E+02 1.84424E-01 4.18956E+01 3.08642E-13 2.67564E-13
 -1        10-1.17413E-01 8.74531E+01-4.09406E-02 7.26900E-02 3.89258E-13-3.20820E-14
 -1        11-5.66413E-02 8.99058E+01-1.97619E-02-2.10572E-01 2.02217E-13-3.17758E-14
 -1        12 2.03665E-02 9.16422E+01 7.38092E-03-1.17453E-02 6.53345E-14-1.19826E-14
 -1        13 8.05837E-01 8.92387E+01-1.03170E-03-1.08962E-04 9.05919E-15-7.19303E-15
 -1        14 8.05837E-01 8.92387E+01-1.03170E-03 1.08962E-04-9.28729E-14 2.40285E-14
 -1        15 2.03665E-02 9.16422E+01 7.38092E-03 1.17453E-02 8.02615E-14 1.06735E-13
 -1        16-5.66413E-02 8.99058E+01-1.97619E-02 2.10572E-01 7.75109E-14 9.65105E-14
 -1        17-1.17413E-01 8.74531E+01-4.09406E-02-7.26900E-02 8.11504E-14 8.90451E-14
 -1        18 5.13671E+01 1.71037E+02 1.84424E-01-4.18956E+01-3.81917E-14 6.88338E-14
 -1        19 2.53967E+01 8.44823E+01 1.73391E-01-4.53036E+00-9.37722E-14 2.68015E-14
 -1        20 2.53967E+01 8.44823E+01 1.73391E-01 4.53036E+00-2.26298E-13-7.85830E-16
 -1        21-6.39438E+00 9.88717E+01 1.30884E-01-3.52733E+00-1.66950E-14 8.81240E-15
 -1        22-7.64503E+00 1.00263E+02 1.77093E-01-4.24411E+00 5.54695E-14-2.69507E-14
 -1        23-9.04040E+00 1.01786E+02 2.09927E-01-5.11290E+00-1.06928E-13 1.81244E-14
 -1        24-1.05476E+01 1.03439E+02 2.48570E-01-6.16103E+00-1.65201E-13-8.29892E-15
 -1        25-1.21258E+01 1.05180E+02 2.91765E-01-7.42603E+00 1.42053E-13-7.57727E-15
 -1        26-1.37005E+01 1.06927E+02 3.38038E-01-8.95134E+00-1.51851E-13-3.80806E-14
 -1        27-1.51426E+01 1.08540E+02 3.85055E-01-1.07872E+01 1.81521E-14 1.90403E-14
 -1        28-1.62404E+01 1.09789E+02 4.29015E-01-1.29915E+01 3.16414E-14 7.77156E-15
 -1        29-1.66631E+01 1.10318E+02 4.64179E-01-1.56309E+01 9.40359E-14-1.18794E-14
 -1        30-1.59101E+01 1.09588E+02 4.82189E-01-1.87817E+01-2.44249E-15 1.37668E-14
 -1        31-1.32446E+01 1.06813E+02 4.71184E-01-2.25304E+01-2.33147E-14 1.68754E-14
 -1        32-7.60233E+00 1.00861E+02 4.14083E-01-2.69731E+01-9.81437E-14-3.99680E-15
 -1        33 2.53189E+00 9.01310E+01 2.81151E-01-3.22113E+01 1.55653E-13 2.44249E-15
 -1        34 1.93441E+01 7.23838E+01 3.10260E-03-3.83240E+01-2.85105E-13-5.32907E-15
 -1        35-6.87672E+00 9.81730E+01 1.46037E-01 2.77027E+00 1.20834E-13-1.62370E-15
 -1        36-8.07766E+00 9.96033E+01 1.94405E-01 3.53263E+00-2.01644E-14 1.26843E-14
 -1        37-9.42490E+00 1.01157E+02 2.27282E-01 4.44999E+00 1.35725E-14-1.59595E-15
 -1        38-1.08884E+01 1.02840E+02 2.65458E-01 5.54765E+00-1.78274E-13 8.82627E-15
 -1        39-1.24282E+01 1.04607E+02 3.07676E-01 6.86189E+00 1.38500E-13 5.27356E-15
 -1        40-1.39694E+01 1.06375E+02 3.52554E-01 8.43519E+00-3.17968E-13-9.63118E-15
 -1        41-1.53828E+01 1.08004E+02 3.97815E-01 1.03169E+01 1.58706E-13 1.16573E-15
 -1        42-1.64572E+01 1.09263E+02 4.39701E-01 1.25641E+01 1.12355E-13 1.02696E-14
 -1        43-1.68627E+01 1.09793E+02 4.72521E-01 1.52422E+01 1.57652E-14 8.21565E-15
 -1        44-1.61008E+01 1.09059E+02 4.88014E-01 1.84253E+01-4.44089E-16-7.10543E-15
 -1        45-1.34379E+01 1.06275E+02 4.74550E-01 2.21966E+01 8.37108E-14 8.21565E-15
 -1        46-7.81513E+00 1.00314E+02 4.15555E-01 2.66469E+01-1.32117E-13 2.22045E-16
 -1        47 2.27513E+00 8.95825E+01 2.82147E-01 3.18690E+01 1.35447E-14-2.95319E-14
 -1        48 1.90070E+01 7.18571E+01 5.41409E-03 3.79283E+01-1.66089E-13-1.59872E-14
 -1        49-6.87672E+00 9.81730E+01 1.46037E-01-2.77027E+00 4.79825E-14 8.99975E-15
 -1        50-8.07766E+00 9.96033E+01 1.94405E-01-3.53263E+00 5.65381E-14 4.46865E-15
 -1        51-9.42490E+00 1.01157E+02 2.27282E-01-4.44999E+00-2.50217E-14-1.67505E-14
 -1        52-1.08884E+01 1.02840E+02 2.65458E-01-5.54765E+00 2.67841E-14 1.26010E-14
 -1        53-1.24282E+01 1.04607E+02 3.07676E-01-6.86189E+00 9.44522E-14 4.40759E-14
 -1        54-1.39694E+01 1.06375E+02 3.52554E-01-8.43519E+00-8.81517E-14-3.11140E-14
 -1        55-1.53828E+01 1.08004E+02 3.97815E-01-1.03169E+01 4.64628E-14 2.98095E-14
 -1        56-1.64572E+01 1.09263E+02 4.39701E-01-1.25641E+01 2.09943E-13 2.08722E-14
 -1        57-1.68627E+01 1.09793E+02 4.72521E-01-1.52422E+01-5.69544E-14-2.03171E-14
 -1        58-1.61008E+01 1.09059E+02 4.88014E-01-1.84253E+01-2.18048E-13-2.91989E-14
 -1        59-1.34379E+01 1.06275E+02 4.74550E-01-2.21966E+01 1.42553E-13-2.22045E-16
 -1        60-7.81513E+00 1.00314E+02 4.15555E-01-2.66469E+01 7.54952E-14 1.82077E-14
 -1        61 2.27513E+00 8.95825E+01 2.82147E-01-3.18690E+01-2.90878E-14-2.08722E-14
 -1        62 1.90070E+01 7.18571E+01 5.41410E-03-3.79283E+01-3.78808E-13-6.35048E-14
 -1        63-6.39438E+00 9.88717E+01 1.30884E-01 3.52733E+00 1.55417E-13-4.90580E-15
 -1        64-7.64503E+00 1.00263E+02 1.77093E-01 4.24411E+00-1.18988E-13-1.09496E-14
 -1        65-9.04040E+00 1.01786E+02 2.09927E-01 5.11290E+00 1.28383E-13 5.96051E-14
 -1        66-1.05476E+01 1.03439E+02 2.48570E-01 6.16103E+00-2.68868E-13-5.75651E-14
 -1        67-1.21258E+01 1.05180E+02 2.91765E-01 7.42603E+00 2.49245E-14 2.13440E-14
 -1        68-1.37005E+01 1.06927E+02 3.38038E-01 8.95134E+00-3.24768E-13-1.77081E-14
 -1        69-1.51426E+01 1.08540E+02 3.85055E-01 1.07872E+01 3.42892E-13 1.79856E-14
 -1        70-1.62404E+01 1.09789E+02 4.29015E-01 1.29915E+01-9.95870E-14-7.04992E-15
 -1        71-1.66631E+01 1.10318E+02 4.64179E-01 1.56309E+01-1.97509E-13 2.00950E-14
 -1        72-1.59101E+01 1.09588E+02 4.82189E-01 1.87817E+01 1.88738E-13-2.95319E-14
 -1        73-1.32446E+01 1.06813E+02 4.71184E-01 2.25304E+01 1.96954E-13 2.22045E-15
 -1        74-7.60233E+00 1.00861E+02 4.14083E-01 2.69731E+01-5.81757E-14 5.32907E-15
 -1        75 2.53189E+00 9.01310E+01 2.81151E-01 3.22113E+01-1.01474E-13 6.66134E-16
 -1        76 1.93441E+01 7.23838E+01 3.10259E-03 3.83240E+01-2.22933E-13-1.42109E-14
 -1        77 4.52485E+01 9.49493E+01 3.97290E+00-5.77761E+01-1.42109E-14 3.99680E-15
 -1        78 4.92301E+01 1.32591E+02 6.55157E+00-6.86107E+01 5.19584E-14-1.88738E-14
 -1        79 4.66608E+01 1.72233E+02 8.68651E+00-7.31286E+01-3.69482E-13-5.99520E-15
 -1        80 3.93770E+01 2.10725E+02 1.03845E+01-6.96248E+01 2.20268E-13-1.15463E-14
 -1        81 3.00618E+01 2.44250E+02 1.16182E+01-5.76233E+01 1.97176E-13 3.20854E-14
 -1        82 2.16779E+01 2.69089E+02 1.24063E+01-3.80770E+01-1.38778E-13-8.21565E-15
 -1        83 1.67506E+01 2.82254E+02 1.27816E+01-1.33332E+01 7.77711E-14 7.54952E-15
 -1        84 1.67326E+01 2.82092E+02 1.27711E+01 1.32461E+01 1.63092E-13-1.57652E-14
 -1        85 2.16148E+01 2.68624E+02 1.23757E+01 3.79320E+01-2.44915E-13-2.50910E-14
 -1        86 2.99311E+01 2.43548E+02 1.15699E+01 5.73792E+01-5.32907E-14 7.77156E-16
 -1        87 3.91546E+01 2.09876E+02 1.03227E+01 6.92677E+01-6.88338E-14-1.01030E-14
 -1        88 4.63341E+01 1.71337E+02 8.61725E+00 7.26746E+01 1.27010E-13 7.49401E-15
 -1        89 4.88086E+01 1.31737E+02 6.48241E+00 6.80993E+01 1.99840E-14-5.55112E-15
 -1        90 4.47671E+01 9.42075E+01 3.91250E+00 5.72590E+01-1.08802E-13-2.02061E-14
 -1        91 2.15378E+01 3.59567E+01-7.58786E-02 2.71909E+01 8.79297E-14 1.37668E-14
 -1        92 9.81858E-01 1.44336E+01-2.75324E+00 1.13715E+01 6.63913E-14-1.19904E-14
 -1        93-2.29089E+01 6.47529E-01-5.04380E+00-1.78762E+00-3.61933E-14-1.90958E-14
 -1        94-4.77106E+01-6.33359E+00-6.88673E+00-1.02560E+01-1.60705E-14-4.88498E-15
 -1        95-7.03058E+01-8.42774E+00-8.23340E+00-1.30491E+01 1.68532E-13-3.10862E-15
 -1        96-8.75665E+01-7.99548E+00-9.09766E+00-1.04363E+01-6.41709E-14 2.86438E-14
 -1        97-9.69219E+01-7.15288E+00-9.51471E+00-3.94802E+00-6.10623E-14 1.05471E-14
 -1        98-9.69219E+01-7.15288E+00-9.51471E+00 3.94802E+00 1.62981E-13 3.46390E-14
 -1        99-8.75665E+01-7.99548E+00-9.09766E+00 1.04363E+01-1.01252E-13-3.86358E-14
 -1       100-7.03058E+01-8.42774E+00-8.23340E+00 1.30491E+01-1.59206E-13-2.57572E-14
 -1       101-4.77106E+01-6.33359E+00-6.88673E+00 1.02560E+01 5.81757E-14-5.24025E-14
 -1       102-2.29089E+01 6.47529E-01-5.04380E+00 1.78762E+00-4.30767E-14 1.77636E-15
 -1       103 9.81858E-01 1.44336E+01-2.75324E+00-1.13715E+01 4.75175E-14 2.97540E-14
 -1       104 2.15378E+01 3.59567E+01-7.58786E-02-2.71909E+01-3.55271E-14-3.81917E-14
 -1       105 4.47671E+01 9.42075E+01 3.91250E+00-5.72590E+01-4.08562E-14-8.65974E-15
 -1       106 4.88086E+01 1.31737E+02 6.48241E+00-6.80993E+01 5.59552E-14-1.11022E-15
 -1       107 4.63341E+01 1.71337E+02 8.61725E+00-7.26746E+01-1.38556E-13-6.17284E-14
 -1       108 3.91546E+01 2.09876E+02 1.03227E+01-6.92677E+01 9.28146E-14 4.39648E-14
 -1       109 2.99311E+01 2.43548E+02 1.15699E+01-5.73792E+01 1.61204E-13-1.77636E-14
 -1       110 2.16148E+01 2.68624E+02 1.23757E+01-3.79320E+01-4.01901E-14-7.77156E-15
 -1       111 1.67326E+01 2.82092E+02 1.27711E+01-1.32461E+01 4.64628E-14 3.95239E-14
 -1       112 1.67506E+01 2.82254E+02 1.27816E+01 1.33332E+01 1.30729E-13 4.84057E-14
 -1       113 2.16779E+01 2.69089E+02 1.24063E+01 3.80770E+01-3.26406E-14-2.55351E-14
 -1       114 3.00618E+01 2.44250E+02 1.16182E+01 5.76233E+01-3.13083E-13-6.15064E-14
 -1       115 3.93770E+01 2.10725E+02 1.03845E+01 6.96248E+01 1.33227E-15-5.34017E-14
 -1       116 4.66608E+01 1.72233E+02 8.68651E+00 7.31286E+01-1.31450E-13-1.65978E-14
 -1       117 4.92301E+01 1.32591E+02 6.55157E+00 6.86107E+01 1.02141E-14 1.82077E-14
 -1       118 4.52485E+01 9.49493E+01 3.97290E+00 5.77761E+01 7.99361E-15 7.54952E-15
 -1       119 2.19969E+01 3.63887E+01-4.41392E-02 2.75860E+01 2.79332E-13 8.88178E-16
 -1       120 1.34524E+00 1.47001E+01-2.74425E+00 1.16591E+01-8.06022E-14 1.06581E-14
 -1       121-2.26897E+01 7.79090E-01-5.05852E+00-1.61435E+00-2.18714E-14-5.77316E-15
 -1       122-4.76650E+01-6.29369E+00-6.92316E+00-1.01807E+01-5.53446E-14-1.99840E-14
 -1       123-7.04338E+01-8.43762E+00-8.28730E+00-1.30382E+01 4.36318E-14 2.97540E-14
 -1       124-8.78351E+01-8.02511E+00-9.16355E+00-1.04507E+01 2.40030E-13-3.08642E-14
 -1       125-9.72693E+01-7.18726E+00-9.58664E+00-3.95676E+00-2.22045E-14-5.44009E-15
 -1       126-9.72693E+01-7.18726E+00-9.58664E+00 3.95676E+00 1.74527E-13 5.10147E-14
 -1       127-8.78351E+01-8.02511E+00-9.16355E+00 1.04507E+01 7.54952E-14-3.59712E-14
 -1       128-7.04338E+01-8.43762E+00-8.28730E+00 1.30382E+01 1.72529E-13-1.15463E-14
 -1       129-4.76650E+01-6.29369E+00-6.92316E+00 1.01807E+01 9.83380E-14-3.68594E-14
 -1       130-2.26897E+01 7.79090E-01-5.05852E+00 1.61435E+00 0.00000E+00-5.32907E-15
 -1       131 1.34524E+00 1.47001E+01-2.74425E+00-1.16591E+01 2.24709E-13 1.77636E-14
 -1       132 2.19969E+01 3.63887E+01-4.41391E-02-2.75860E+01-1.68310E-13-1.59872E-14
 -1       133-4.70113E+00 9.81697E+01 7.34786E-02-1.32191E+00-1.38292E-13-3.22346E-14
 -1       134-3.75546E+00 9.97107E+01 1.03914E-01 2.44251E-01 7.05686E-14 6.61970E-15
 -1       135-1.73680E+00 1.00791E+02 1.37701E-01 2.05805E+00-1.62648E-13-2.60122E-14
 -1       136 1.48343E+00 1.01123E+02 1.50708E-01 3.62724E+00 6.96665E-15-4.65600E-15
 -1       137 5.58056E+00 1.00650E+02 1.52248E-01 4.25807E+00-1.71738E-13-9.89486E-15
 -1       138 9.58358E+00 9.97025E+01 1.50340E-01 3.36970E+00 9.76996E-14 4.95437E-15
 -1       139 1.21025E+01 9.89313E+01 1.49635E-01 9.89461E-01 1.07057E-13-5.27356E-15
 -1       140 1.20710E+01 9.88784E+01 1.49784E-01-2.01818E+00-1.15456E-13-3.10862E-15
 -1       141 9.49237E+00 9.95424E+01 1.50997E-01-4.38557E+00-1.61690E-13-1.21847E-14
 -1       142 5.43610E+00 1.00380E+02 1.53942E-01-5.25243E+00 7.93809E-14-6.49480E-15
 -1       143 1.29004E+00 1.00742E+02 1.54095E-01-4.59590E+00-6.70297E-15 2.95597E-15
 -1       144-1.98027E+00 1.00300E+02 1.43478E-01-2.99852E+00 1.55154E-14-2.93021E-14
 -1       145-4.05648E+00 9.91096E+01 1.11833E-01-1.15365E+00 5.19446E-14-1.10537E-14
 -1       146-5.07371E+00 9.74565E+01 8.54492E-02 4.44444E-01 1.02460E-13-7.01522E-15
 -1       147-6.47113E+00 9.38636E+01-2.10935E-01 4.08895E+00 3.69843E-15-1.11161E-14
 -1       148-6.89336E+00 9.16646E+01-2.72061E-01 6.24419E+00 1.73576E-14 7.35523E-16
 -1       149-6.50214E+00 8.81252E+01-3.02386E-01 8.38619E+00 4.89192E-14 3.12111E-14
 -1       150-5.09154E+00 8.31557E+01-3.15711E-01 9.81407E+00-1.03917E-13-2.32869E-14
 -1       151-2.80506E+00 7.72661E+01-3.18347E-01 9.64492E+00-9.88515E-14-2.37171E-14
 -1       152-3.18603E-01 7.17362E+01-3.19436E-01 7.21836E+00 9.56180E-14 2.06779E-15
 -1       153 1.32921E+00 6.83133E+01-3.21469E-01 2.69537E+00 8.59035E-14-3.26336E-14
 -1       154 1.32921E+00 6.83133E+01-3.21469E-01-2.69537E+00-1.26510E-13 2.83107E-15
 -1       155-3.18603E-01 7.17362E+01-3.19436E-01-7.21836E+00-9.62147E-14-9.95037E-15
 -1       156-2.80506E+00 7.72661E+01-3.18347E-01-9.64492E+00-4.12170E-14 7.06379E-15
 -1       157-5.09154E+00 8.31557E+01-3.15711E-01-9.81407E+00 3.17177E-14-1.09218E-14
 -1       158-6.50214E+00 8.81252E+01-3.02386E-01-8.38619E+00 3.57665E-14-3.63598E-15
 -1       159-6.89336E+00 9.16646E+01-2.72061E-01-6.24419E+00-8.97372E-14-2.84217E-14
 -1       160-6.47113E+00 9.38636E+01-2.10935E-01-4.08895E+00 7.41698E-14 1.48492E-15
 -1       161-5.07371E+00 9.74565E+01 8.54492E-02-4.44444E-01-1.27211E-13 5.39568E-14
 -1       162-4.05648E+00 9.91096E+01 1.11833E-01 1.15365E+00 1.13368E-13-2.15522E-14
 -1       163-1.98027E+00 1.00300E+02 1.43478E-01 2.99852E+00-3.92603E-14 1.19236E-14
 -1       164 1.29004E+00 1.00742E+02 1.54095E-01 4.59590E+00-1.09010E-13 1.78191E-14
 -1       165 5.43610E+00 1.00380E+02 1.53942E-01 5.25243E+00-7.57172E-14-2.44665E-14
 -1       166 9.49237E+00 9.95424E+01 1.50997E-01 4.38557E+00-2.81997E-14 4.32432E-14
 -1       167 1.20710E+01 9.88784E+01 1.49784E-01 2.01818E+00 1.43080E-14 3.10307E-14
 -1       168 1.21025E+01 9.89313E+01 1.49635E-01-9.89461E-01 5.12437E-14-7.46625E-15
 -1       169 9.58358E+00 9.97025E+01 1.50340E-01-3.36970E+00-2.20712E-13-2.52159E-14
 -1       170 5.58056E+00 1.00650E+02 1.52248E-01-4.25807E+00 2.20282E-13 3.55410E-14
 -1       171 1.48343E+00 1.01123E+02 1.50708E-01-3.62724E+00-8.22953E-15 6.22419E-15
 -1       172-1.73680E+00 1.00791E+02 1.37701E-01-2.05805E+00 2.18214E-13 2.86342E-14
 -1       173-3.75546E+00 9.97107E+01 1.03914E-01-2.44251E-01-1.69254E-13 2.43174E-14
 -1       174-4.70113E+00 9.81697E+01 7.34786E-02 1.32191E+00 2.14412E-14-4.97866E-15
 -1       175-5.87707E+00 9.48178E+01-1.96242E-01 4.81025E+00-1.54814E-13-8.54872E-15
 -1       176-6.24992E+00 9.26536E+01-2.58723E-01 6.87238E+00-1.45332E-13-2.90046E-15
 -1       177-5.82083E+00 8.91315E+01-2.92060E-01 8.91304E+00-3.02605E-14-3.01148E-14
 -1       178-4.37908E+00 8.41666E+01-3.08783E-01 1.02358E+01 5.62120E-14-1.72640E-14
 -1       179-2.06555E+00 7.82713E+01-3.14411E-01 9.95621E+00-1.59900E-13-6.16174E-15
 -1       180 4.42585E-01 7.27301E+01-3.17760E-01 7.41098E+00 2.70756E-14-1.76248E-15
 -1       181 2.10297E+00 6.92984E+01-3.21032E-01 2.76082E+00 1.38833E-13 1.13624E-14
 -1       182 2.10297E+00 6.92984E+01-3.21032E-01-2.76082E+00-8.32390E-14-5.17295E-15
 -1       183 4.42585E-01 7.27301E+01-3.17760E-01-7.41098E+00-1.77719E-13 3.33067E-16
 -1       184-2.06555E+00 7.82713E+01-3.14411E-01-9.95621E+00 2.92127E-13-1.63480E-14
 -1       185-4.37908E+00 8.41666E+01-3.08783E-01-1.02358E+01 3.83929E-14 1.42941E-15
 -1       186-5.82083E+00 8.91315E+01-2.92060E-01-8.91304E+00-7.17395E-14-8.46545E-16
 -1       187-6.24992E+00 9.26536E+01-2.58723E-01-6.87238E+00-1.06026E-14 1.13798E-14
 -1       188-5.87707E+00 9.48178E+01-1.96242E-01-4.81025E+00 7.40137E-14-1.06859E-14
 -1       189 8.85322E+00 1.40143E+02 1.69823E+00 1.66922E+01 1.56097E-13 7.07212E-14
 -1       190 4.09549E+00 1.12601E+02 2.36571E+00 5.73293E+00 6.66023E-13-2.43139E-14
 -1       191 3.30453E-01 9.97806E+01 1.59025E-01 3.32441E+00-3.80418E-13-1.40693E-13
 -1       192-1.55970E-01 9.43212E+01 2.99334E-02 1.96235E+00-2.67841E-14 4.00791E-14
 -1       193-3.93459E-01 9.10085E+01-1.01519E-01 1.28810E+00-1.52614E-13-5.73708E-14
 -1       194-4.39921E-01 8.89351E+01-1.27686E-01 8.68985E-01 5.84116E-14-1.72223E-14
 -1       195-4.40390E-01 8.75722E+01-1.36041E-01 5.95021E-01 2.42154E-13-4.17721E-14
 -1       196-4.18764E-01 8.66828E+01-1.33076E-01 4.04006E-01-7.62376E-14-3.89133E-14
 -1       197-3.89453E-01 8.61227E+01-1.25999E-01 2.66004E-01 1.59010E-13-4.54914E-14
 -1       198-3.57684E-01 8.58014E+01-1.17122E-01 1.63655E-01-1.49858E-13-2.55906E-14
 -1       199-3.26011E-01 8.56567E+01-1.07709E-01 8.65745E-02 1.20241E-13-2.35020E-14
 -1       200-2.95585E-01 8.56444E+01-9.83554E-02 2.81836E-02-2.48357E-13-1.27259E-14
 -1       201-2.66952E-01 8.57308E+01-8.93738E-02-1.58316E-02 2.33291E-13-5.07927E-15
 -1       202-2.40367E-01 8.58899E+01-8.09301E-02-4.83827E-02 4.72181E-13-4.46518E-14
 -1       203-2.15957E-01 8.61002E+01-7.31183E-02-7.14821E-02 1.00008E-13-3.57769E-14
 -1       204-1.93795E-01 8.63435E+01-6.59972E-02-8.65543E-02-1.21060E-13-7.67789E-15
 -1       205-1.73940E-01 8.66042E+01-5.96079E-02-9.46395E-02-2.92540E-13-2.91850E-14
 -1       206-1.56447E-01 8.68683E+01-5.39829E-02-9.65353E-02 2.98451E-14-3.29875E-14
 -1       207-1.41374E-01 8.71231E+01-4.91484E-02-9.29020E-02-7.87590E-14-2.52645E-14
 -1       208-1.28774E-01 8.73571E+01-4.51240E-02-8.43456E-02 8.84241E-14-2.47996E-14
 -1       209-1.18684E-01 8.75603E+01-4.19195E-02-7.14866E-02 8.02752E-14-3.73521E-14
 -1       210-1.11112E-01 8.77237E+01-3.95311E-02-5.50174E-02-2.25774E-13-2.23467E-14
 -1       211-1.06021E-01 8.78402E+01-3.79371E-02-3.57482E-02-2.38512E-13-3.49859E-14
 -1       212-1.03318E-01 8.79046E+01-3.70941E-02-1.46390E-02 8.61262E-14-4.27124E-14
 -1       213-1.02839E-01 8.79141E+01-3.69349E-02 7.18745E-03 2.49631E-13-3.52773E-14
 -1       214-1.04351E-01 8.78689E+01-3.73718E-02 2.84573E-02 3.15152E-14-2.11775E-14
 -1       215-1.07561E-01 8.77720E+01-3.82877E-02 4.77839E-02-2.89939E-13-2.55438E-14
 -1       216-1.12239E-01 8.76301E+01-3.96698E-02 6.36874E-02-1.16565E-14-3.16552E-14
 -1       217-1.22886E-01 8.72503E+01-4.28697E-02 7.94344E-02-3.83018E-14-3.81709E-14
 -1       218-1.28172E-01 8.70401E+01-4.35559E-02 7.65787E-02-6.70271E-14-3.39936E-14
 -1       219-1.33049E-01 8.68465E+01-4.46702E-02 6.56277E-02 1.77679E-13-3.57145E-14
 -1       220-1.36644E-01 8.66910E+01-4.52697E-02 4.65383E-02 8.96614E-14-3.33206E-14
 -1       221-1.38726E-01 8.65938E+01-4.54563E-02 2.01093E-02-1.16734E-14-3.55098E-14
 -1       222-1.39009E-01 8.65723E+01-4.51621E-02-1.21854E-02-2.43765E-13-2.98615E-14
 -1       223-1.37306E-01 8.66389E+01-4.43661E-02-4.82881E-02 5.27894E-14-5.61599E-14
 -1       224-1.33511E-01 8.68007E+01-4.30518E-02-8.57544E-02 3.23682E-14-3.46043E-14
 -1       225-1.27594E-01 8.70577E+01-4.12096E-02-1.22001E-01 1.20140E-13-3.96454E-14
 -1       226-1.19605E-01 8.74037E+01-3.88374E-02-1.54572E-01 7.71640E-14-4.93459E-14
 -1       227-1.09672E-01 8.78264E+01-3.59345E-02-1.81390E-01 1.42476E-13-4.65634E-14
 -1       228-9.80379E-02 8.83090E+01-3.25697E-02-2.00945E-01 2.82959E-13-3.43822E-14
 -1       229-8.48243E-02 8.88318E+01-2.85195E-02-2.12388E-01-4.46847E-14-4.39909E-14
 -1       230-7.12551E-02 8.93727E+01-2.53258E-02-2.15826E-01-1.28307E-13-2.57971E-14
 -1       231-4.22376E-02 9.04074E+01-1.60322E-02-2.00711E-01 3.11244E-14-3.25586E-14
 -1       232-2.77112E-02 9.08712E+01-1.06848E-02-1.85000E-01-2.39251E-13-1.94448E-14
 -1       233-1.45279E-02 9.12908E+01-6.46981E-03-1.65294E-01 7.06137E-14-3.74566E-14
 -1       234-2.30358E-03 9.16594E+01-2.36495E-03-1.43129E-01-5.62536E-14-3.03160E-14
 -1       235 8.59763E-03 9.19727E+01 1.34278E-03-1.19731E-01-5.93102E-14-3.99377E-14
 -1       236 1.80306E-02 9.22291E+01 4.61665E-03-9.61953E-02-4.24140E-14-2.67598E-14
 -1       237 2.59059E-02 9.24296E+01 7.40820E-03-7.34230E-02-8.39545E-14-4.20757E-14
 -1       238 3.22131E-02 9.25771E+01 9.70042E-03-5.21118E-02-1.55410E-14-7.95683E-14
 -1       239 3.70061E-02 9.26758E+01 1.14985E-02-3.27568E-02 6.41340E-14-1.96527E-14
 -1       240 4.03906E-02 9.27311E+01 1.28271E-02-1.56690E-02 3.39748E-14-1.46862E-14
 -1       241 4.25089E-02 9.27486E+01 1.37253E-02-1.00215E-03 3.92341E-14-1.86726E-14
 -1       242 4.35254E-02 9.27344E+01 1.42423E-02 1.12173E-02 8.99849E-14-2.54154E-14
 -1       243 4.36150E-02 9.26942E+01 1.44325E-02 2.10591E-02-1.37121E-13-2.44561E-14
 -1       244 4.29521E-02 9.26337E+01 1.43523E-02 2.86617E-02 9.24391E-14-2.82422E-14
 -1       245 4.17035E-02 9.25580E+01 1.40567E-02 3.42076E-02-8.68212E-14-1.18265E-14
 -1       246 4.00233E-02 9.24717E+01 1.35978E-02 3.79037E-02-7.42462E-14-1.38648E-14
 -1       247 3.80492E-02 9.23789E+01 1.30227E-02 3.99657E-02 2.31954E-14-2.13033E-14
 -1       248 3.59019E-02 9.22833E+01 1.23735E-02 4.06069E-02-2.85041E-14 5.02775E-14
 -1       249 3.36841E-02 9.21878E+01 1.16866E-02 4.00305E-02-8.60744E-14-2.78336E-15
 -1       250 3.14823E-02 9.20952E+01 1.09928E-02 3.84241E-02-1.23439E-14 1.04083E-17
 -1       251 2.93671E-02 9.20076E+01 1.03178E-02 3.59579E-02-4.03041E-14-1.77722E-15
 -1       252 2.73960E-02 9.19268E+01 9.68268E-03 3.27832E-02-6.43019E-14 2.99500E-15
 -1       253 2.56142E-02 9.18543E+01 9.10421E-03 2.90329E-02-4.90823E-14 9.42692E-15
 -1       254 2.40571E-02 9.17912E+01 8.59572E-03 2.48230E-02 6.95746E-14-2.31412E-15
 -1       255 2.27517E-02 9.17384E+01 8.16748E-03 2.02542E-02 1.69177E-13-5.83561E-15
 -1       256 2.17179E-02 9.16967E+01 7.82720E-03 1.54141E-02 3.03021E-14 2.61475E-14
 -1       257 2.09701E-02 9.16665E+01 7.58046E-03 1.03798E-02 8.67374E-14 3.80681E-14
 -1       258 2.05179E-02 9.16483E+01 7.43098E-03 5.22046E-03-2.76929E-14 1.27719E-14
 -1       259 1.34831E-02 9.15603E+01 2.97505E-03-1.10651E-02-1.18143E-13-3.72979E-14
 -1       260 2.98132E-02 9.14608E+01 2.26446E-03-1.04583E-02-1.19572E-13 2.79872E-14
 -1       261 5.61074E-02 9.13429E+01 1.96714E-03-9.88375E-03-1.14802E-13-1.07696E-14
 -1       262 9.06162E-02 9.12094E+01 1.67087E-03-9.30468E-03-1.16109E-13-3.36736E-14
 -1       263 1.32173E-01 9.10634E+01 1.43131E-03-8.69225E-03-1.13523E-13-1.53007E-14
 -1       264 1.79747E-01 9.09072E+01 1.22494E-03-8.02672E-03-1.16484E-13 5.63759E-14
 -1       265 2.32459E-01 9.07432E+01 1.04081E-03-7.29801E-03-1.16849E-13-3.99268E-14
 -1       266 2.89522E-01 9.05733E+01 8.66359E-04-6.50569E-03-1.13987E-13 2.65421E-14
 -1       267 3.50189E-01 9.03996E+01 6.90580E-04-5.65831E-03-1.17090E-13-9.80206E-15
 -1       268 4.13716E-01 9.02239E+01 5.04237E-04-4.77233E-03-1.16344E-13 1.07163E-14
 -1       269 4.79317E-01 9.00482E+01 3.00439E-04-3.87051E-03-1.13033E-13-3.62067E-14
 -1       270 5.46142E-01 8.98744E+01 7.48810E-05-2.98008E-03-1.14997E-13 3.09687E-14
 -1       271 6.13257E-01 8.97044E+01-1.73168E-04-2.13055E-03-1.14368E-13-1.72804E-14
 -1       272 6.79638E-01 8.95404E+01-4.45313E-04-1.35146E-03-1.12289E-13 4.77049E-16
 -1       273 7.44195E-01 8.93845E+01-7.16830E-04-6.70018E-04-1.13201E-13 9.26776E-16
 -1       274 8.63273E-01 8.91048E+01-1.31553E-03 3.16816E-04 7.57658E-14-1.35079E-14
 -1       275 9.15371E-01 8.89854E+01-1.61785E-03 5.96472E-04 7.86332E-14 4.63908E-15
 -1       276 9.60878E-01 8.88824E+01-1.87847E-03 7.30639E-04 7.69590E-14 1.17913E-14
 -1       277 9.98715E-01 8.87978E+01-2.10689E-03 7.29367E-04 7.51860E-14-1.48742E-14
 -1       278 1.02796E+00 8.87328E+01-2.28868E-03 6.11710E-04 7.73837E-14-2.86802E-14
 -1       279 1.04789E+00 8.86889E+01-2.41537E-03 4.04633E-04 7.94520E-14 3.73069E-15
 -1       280 1.05798E+00 8.86667E+01-2.48039E-03 1.41280E-04 7.73321E-14-5.52084E-15
 -1       281 1.05798E+00 8.86667E+01-2.48039E-03-1.41280E-04 7.60423E-14-4.92602E-15
 -1       282 1.04789E+00 8.86889E+01-2.41537E-03-4.04633E-04 7.59780E-14 3.82999E-14
 -1       283 1.02796E+00 8.87328E+01-2.28868E-03-6.11710E-04 7.72211E-14 1.85409E-15
 -1       284 9.98715E-01 8.87978E+01-2.10689E-03-7.29367E-04 7.73723E-14-1.65686E-14
 -1       285 9.60878E-01 8.88824E+01-1.87847E-03-7.30639E-04 7.82154E-14-1.32130E-14
 -1       286 9.15371E-01 8.89854E+01-1.61785E-03-5.96472E-04 7.70312E-14-4.67443E-15
 -1       287 8.63273E-01 8.91048E+01-1.31553E-03-3.16816E-04 7.55206E-14-2.82448E-14
 -1       288 7.44195E-01 8.93845E+01-7.16830E-04 6.70018E-04-2.39002E-13 2.98546E-15
 -1       289 6.79638E-01 8.95404E+01-4.45313E-04 1.35146E-03-1.87666E-13 5.82685E-14
 -1       290 6.13257E-01 8.97044E+01-1.73168E-04 2.13055E-03-5.57172E-14 5.97066E-14
 -1       291 5.46142E-01 8.98744E+01 7.48810E-05 2.98008E-03-1.73846E-13-5.31606E-15
 -1       292 4.79317E-01 9.00482E+01 3.00439E-04 3.87051E-03 8.21437E-14-8.04998E-15
 -1       293 4.13716E-01 9.02239E+01 5.04237E-04 4.77233E-03-1.67288E-13-3.34606E-14
 -1       294 3.50189E-01 9.03996E+01 6.90580E-04 5.65831E-03-1.12781E-13 2.90675E-14
 -1       295 2.89522E-01 9.05733E+01 8.66359E-04 6.50569E-03-5.69654E-14-2.37072E-14
 -1       296 2.32459E-01 9.07432E+01 1.04081E-03 7.29801E-03-1.55480E-14-1.24839E-14
 -1       297 1.79747E-01 9.09072E+01 1.22494E-03 8.02672E-03-1.80748E-13-3.92828E-14
 -1       298 1.32173E-01 9.10634E+01 1.43131E-03 8.69225E-03-3.42430E-14 7.10070E-14
 -1       299 9.06162E-02 9.12094E+01 1.67087E-03 9.30468E-03-1.04181E-13 6.67773E-14
 -1       300 5.61074E-02 9.13429E+01 1.96714E-03 9.88375E-03-1.81336E-14 1.20627E-13
 -1       301 2.98132E-02 9.14608E+01 2.26446E-03 1.04583E-02-1.47204E-13-2.62052E-14
 -1       302 1.34831E-02 9.15603E+01 2.97505E-03 1.10651E-02 1.18216E-14-9.73397E-15
 -1       303 2.05179E-02 9.16483E+01 7.43098E-03-5.22046E-03 8.83646E-15 4.21919E-14
 -1       304 2.09701E-02 9.16665E+01 7.58046E-03-1.03798E-02-1.90217E-13 4.32219E-14
 -1       305 2.17179E-02 9.16967E+01 7.82720E-03-1.54141E-02-2.65894E-13 1.55930E-13
 -1       306 2.27517E-02 9.17384E+01 8.16748E-03-2.02542E-02 1.62889E-13 1.70849E-14
 -1       307 2.40571E-02 9.17912E+01 8.59572E-03-2.48230E-02 4.71153E-14-5.72545E-15
 -1       308 2.56142E-02 9.18543E+01 9.10421E-03-2.90329E-02-1.07791E-15 1.37322E-13
 -1       309 2.73960E-02 9.19268E+01 9.68268E-03-3.27832E-02-5.74454E-15 1.23853E-13
 -1       310 2.93671E-02 9.20076E+01 1.03178E-02-3.59579E-02 7.72039E-15 1.00011E-13
 -1       311 3.14823E-02 9.20952E+01 1.09928E-02-3.84241E-02-1.32091E-13 7.08635E-14
 -1       312 3.36841E-02 9.21878E+01 1.16866E-02-4.00305E-02 1.77983E-15 1.05733E-13
 -1       313 3.59019E-02 9.22833E+01 1.23735E-02-4.06069E-02-2.52723E-14 3.38028E-14
 -1       314 3.80492E-02 9.23789E+01 1.30227E-02-3.99657E-02-1.11096E-14 3.28019E-14
 -1       315 4.00233E-02 9.24717E+01 1.35978E-02-3.79037E-02-1.30352E-13 1.16775E-13
 -1       316 4.17035E-02 9.25580E+01 1.40567E-02-3.42076E-02 1.41710E-14 1.50611E-13
 -1       317 4.29521E-02 9.26337E+01 1.43523E-02-2.86617E-02-1.05536E-15 8.97954E-14
 -1       318 4.36150E-02 9.26942E+01 1.44325E-02-2.10591E-02-2.34263E-13 4.40308E-14
 -1       319 4.35254E-02 9.27344E+01 1.42423E-02-1.12173E-02 6.86972E-15-2.36443E-15
 -1       320 4.25089E-02 9.27486E+01 1.37253E-02 1.00215E-03 9.18490E-14 1.04888E-13
 -1       321 4.03906E-02 9.27311E+01 1.28271E-02 1.56690E-02-9.50364E-14 6.06615E-14
 -1       322 3.70061E-02 9.26758E+01 1.14985E-02 3.27568E-02 2.80817E-14 1.56195E-14
 -1       323 3.22131E-02 9.25771E+01 9.70042E-03 5.21118E-02 6.42771E-14 8.47759E-15
 -1       324 2.59059E-02 9.24296E+01 7.40820E-03 7.34230E-02 4.72521E-14 1.32361E-13
 -1       325 1.80306E-02 9.22291E+01 4.61665E-03 9.61953E-02-7.21636E-14 3.88838E-14
 -1       326 8.59763E-03 9.19727E+01 1.34278E-03 1.19731E-01 1.82358E-13 1.69065E-13
 -1       327-2.30358E-03 9.16594E+01-2.36495E-03 1.43129E-01-7.50632E-14-5.78400E-14
 -1       328-1.45279E-02 9.12908E+01-6.46981E-03 1.65294E-01 3.31610E-14 5.19597E-14
 -1       329-2.77112E-02 9.08712E+01-1.06848E-02 1.85000E-01 5.56655E-14-2.32759E-14
 -1       330-4.22376E-02 9.04074E+01-1.60322E-02 2.00711E-01 4.65357E-14 5.71296E-14
 -1       331-7.12551E-02 8.93727E+01-2.53258E-02 2.15826E-01-9.08267E-14-2.05062E-14
 -1       332-8.48243E-02 8.88318E+01-2.85195E-02 2.12388E-01 2.50681E-13 7.60832E-14
 -1       333-9.80379E-02 8.83090E+01-3.25697E-02 2.00945E-01 7.57189E-14 1.05572E-13
 -1       334-1.09672E-01 8.78264E+01-3.59345E-02 1.81390E-01 5.30184E-14 1.07692E-14
 -1       335-1.19605E-01 8.74037E+01-3.88374E-02 1.54572E-01-1.26187E-13 1.95712E-14
 -1       336-1.27594E-01 8.70577E+01-4.12096E-02 1.22001E-01-1.11439E-13 1.65944E-14
 -1       337-1.33511E-01 8.68007E+01-4.30518E-02 8.57544E-02 8.43327E-14 9.05595E-14
 -1       338-1.37306E-01 8.66389E+01-4.43661E-02 4.82881E-02 5.65888E-14 4.56718E-14
 -1       339-1.39009E-01 8.65723E+01-4.51621E-02 1.21854E-02-6.94278E-14 1.11300E-14
 -1       340-1.38726E-01 8.65938E+01-4.54563E-02-2.01093E-02 5.01990E-14 1.12445E-14
 -1       341-1.36644E-01 8.66910E+01-4.52697E-02-4.65383E-02 1.00900E-13 1.11716E-13
 -1       342-1.33049E-01 8.68465E+01-4.46702E-02-6.56277E-02 1.02773E-13 1.03341E-13
 -1       343-1.28172E-01 8.70401E+01-4.35559E-02-7.65787E-02 1.60098E-13 1.34136E-13
 -1       344-1.22886E-01 8.72503E+01-4.28697E-02-7.94344E-02-3.74908E-14-5.89945E-14
 -1       345-1.12239E-01 8.76301E+01-3.96698E-02-6.36874E-02-1.68981E-13 3.55948E-14
 -1       346-1.07561E-01 8.77720E+01-3.82877E-02-4.77839E-02-1.95915E-13-3.71179E-14
 -1       347-1.04351E-01 8.78689E+01-3.73718E-02-2.84573E-02-1.69497E-13 7.68188E-14
 -1       348-1.02839E-01 8.79141E+01-3.69349E-02-7.18745E-03-7.64395E-14 2.13718E-14
 -1       349-1.03318E-01 8.79046E+01-3.70941E-02 1.46390E-02 1.11760E-15 3.73104E-14
 -1       350-1.06021E-01 8.78402E+01-3.79371E-02 3.57482E-02-2.43893E-13-2.73549E-14
 -1       351-1.11112E-01 8.77237E+01-3.95311E-02 5.50174E-02 1.05775E-14 3.95049E-14
 -1       352-1.18684E-01 8.75603E+01-4.19195E-02 7.14866E-02 3.29720E-13 1.30774E-13
 -1       353-1.28774E-01 8.73571E+01-4.51240E-02 8.43456E-02 3.46945E-18 1.92901E-14
 -1       354-1.41374E-01 8.71231E+01-4.91484E-02 9.29020E-02-2.06096E-13 3.01772E-14
 -1       355-1.56447E-01 8.68683E+01-5.39829E-02 9.65353E-02 1.96519E-13 2.36408E-14
 -1       356-1.73940E-01 8.66042E+01-5.96079E-02 9.46395E-02-1.35771E-13 5.50983E-14
 -1       357-1.93795E-01 8.63435E+01-6.59972E-02 8.65543E-02 2.19695E-13 2.31377E-14
 -1       358-2.15957E-01 8.61002E+01-7.31183E-02 7.14821E-02-2.89868E-13 8.96574E-14
 -1       359-2.40367E-01 8.58899E+01-8.09301E-02 4.83827E-02-3.06461E-13 9.11771E-15
 -1       360-2.66952E-01 8.57308E+01-8.93738E-02 1.58316E-02-9.79655E-14 1.34615E-15
 -1       361-2.95585E-01 8.56444E+01-9.83554E-02-2.81836E-02-1.01819E-13 1.42178E-14
 -1       362-3.26011E-01 8.56567E+01-1.07709E-01-8.65745E-02-3.45715E-13-7.86593E-14
 -1       363-3.57684E-01 8.58014E+01-1.17122E-01-1.63655E-01-3.15990E-13-1.17822E-13
 -1       364-3.89453E-01 8.61227E+01-1.25999E-01-2.66004E-01 1.52435E-13 4.65739E-14
 -1       365-4.18764E-01 8.66828E+01-1.33076E-01-4.04006E-01 3.51420E-14-1.95260E-14
 -1       366-4.40390E-01 8.75722E+01-1.36041E-01-5.95021E-01 2.50466E-13-4.74620E-14
 -1       367-4.39921E-01 8.89351E+01-1.27686E-01-8.68985E-01-3.12153E-13-4.53804E-14
 -1       368-3.93459E-01 9.10085E+01-1.01519E-01-1.28810E+00-2.24487E-13 4.42424E-14
 -1       369-1.55970E-01 9.43212E+01 2.99334E-02-1.96235E+00 1.35669E-13 1.06942E-13
 -1       370 3.30453E-01 9.97806E+01 1.59025E-01-3.32441E+00-4.56912E-13 8.99281E-15
 -1       371 4.09549E+00 1.12601E+02 2.36571E+00-5.73293E+00 1.56763E-13-2.60902E-15
 -1       372 8.85322E+00 1.40143E+02 1.69823E+00-1.66922E+01-1.64091E-13-2.98095E-14
 -1       373 3.56584E+01 1.17984E+02 8.75704E-01-2.83574E+01-5.23359E-13-1.33893E-13
 -1       374 3.19707E+01 1.05538E+02 1.03023E+00-2.27238E+01 6.52922E-13-6.75016E-14
 -1       375 2.97589E+01 9.86238E+01 5.72237E-01-1.95137E+01 4.63740E-13-8.02691E-14
 -1       376 2.85966E+01 9.48135E+01 5.08123E-01-1.71984E+01 1.22402E-13-3.99680E-14
 -1       377 2.78108E+01 9.22916E+01 4.10666E-01-1.53712E+01 5.43371E-13-1.61815E-14
 -1       378 2.72689E+01 9.05367E+01 3.59435E-01-1.38391E+01-3.92186E-13-6.13606E-14
 -1       379 2.68668E+01 8.92374E+01 3.18276E-01-1.25076E+01 1.59706E-13-3.58533E-14
 -1       380 2.65576E+01 8.82372E+01 2.87779E-01-1.13217E+01 1.76664E-14-6.24605E-14
 -1       381 2.63113E+01 8.74409E+01 2.63374E-01-1.02473E+01-3.81639E-16-3.62210E-14
 -1       382 2.61100E+01 8.67898E+01 2.43513E-01-9.26146E+00 2.15175E-14-3.63459E-14
 -1       383 2.59419E+01 8.62458E+01 2.26931E-01-8.34802E+00 6.64073E-13-4.67265E-14
 -1       384 2.57990E+01 8.57838E+01 2.12865E-01-7.49509E+00 2.64712E-13-6.07396E-14
 -1       385 2.56762E+01 8.53863E+01 2.00786E-01-6.69354E+00-3.44946E-13-2.68188E-15
 -1       386 2.55697E+01 8.50419E+01 1.90333E-01-5.93609E+00-3.53606E-14-2.75682E-14
 -1       387 2.54771E+01 8.47423E+01 1.81258E-01-5.21675E+00 1.84575E-15 3.26995E-15
 -1       388 2.53272E+01 8.42574E+01 1.66603E-01-3.86985E+00-1.55542E-13-2.92197E-14
 -1       389 2.52683E+01 8.40666E+01 1.60844E-01-3.23377E+00 3.46612E-13 3.98657E-14
 -1       390 2.52194E+01 8.39084E+01 1.56074E-01-2.61813E+00 1.17253E-13 3.91197E-14
 -1       391 2.51803E+01 8.37821E+01 1.52269E-01-2.01913E+00 5.00641E-14-1.46315E-14
 -1       392 2.51511E+01 8.36875E+01 1.49418E-01-1.43304E+00-1.57027E-13-1.07015E-14
 -1       393 2.51316E+01 8.36244E+01 1.47517E-01-8.56141E-01 1.18960E-13 1.06360E-14
 -1       394 2.51219E+01 8.35929E+01 1.46566E-01-2.84767E-01-3.61808E-13 1.19579E-14
 -1       395 2.51219E+01 8.35929E+01 1.46566E-01 2.84767E-01 1.71675E-13 4.41791E-15
 -1       396 2.51316E+01 8.36244E+01 1.47517E-01 8.56141E-01 2.29126E-13 1.94274E-14
 -1       397 2.51511E+01 8.36875E+01 1.49418E-01 1.43304E+00-3.03563E-13-2.30571E-14
 -1       398 2.51803E+01 8.37821E+01 1.52269E-01 2.01913E+00 2.63956E-14 1.77514E-14
 -1       399 2.52194E+01 8.39084E+01 1.56074E-01 2.61813E+00 3.67581E-13-6.85129E-15
 -1       400 2.52683E+01 8.40666E+01 1.60844E-01 3.23377E+00-2.44652E-13-3.82420E-14
 -1       401 2.53272E+01 8.42574E+01 1.66603E-01 3.86985E+00-6.05488E-13-3.25686E-14
 -1       402 2.54771E+01 8.47423E+01 1.81258E-01 5.21675E+00 2.25764E-13 5.67428E-15
 -1       403 2.55697E+01 8.50419E+01 1.90333E-01 5.93609E+00 4.82489E-13 2.26711E-14
 -1       404 2.56762E+01 8.53863E+01 2.00786E-01 6.69354E+00 6.41445E-13 2.08653E-14
 -1       405 2.57990E+01 8.57838E+01 2.12865E-01 7.49509E+00-3.31166E-13 4.18259E-14
 -1       406 2.59419E+01 8.62458E+01 2.26931E-01 8.34802E+00 9.15656E-14 4.21538E-15
 -1       407 2.61100E+01 8.67898E+01 2.43513E-01 9.26146E+00-4.38427E-13 3.79835E-14
 -1       408 2.63113E+01 8.74409E+01 2.63374E-01 1.02473E+01 3.75873E-13-4.82704E-14
 -1       409 2.65576E+01 8.82372E+01 2.87779E-01 1.13217E+01 3.19841E-13 5.96745E-14
 -1       410 2.68668E+01 8.92374E+01 3.18276E-01 1.25076E+01-2.91517E-13 5.50254E-14
 -1       411 2.72689E+01 9.05367E+01 3.59435E-01 1.38391E+01-1.62606E-13 7.21645E-15
 -1       412 2.78108E+01 9.22916E+01 4.10666E-01 1.53712E+01 1.47854E-13 6.72240E-14
 -1       413 2.85966E+01 9.48135E+01 5.08123E-01 1.71984E+01-4.51306E-14-9.01224E-14
 -1       414 2.97589E+01 9.86238E+01 5.72237E-01 1.95137E+01-1.13465E-13 9.38971E-14
 -1       415 3.19707E+01 1.05538E+02 1.03023E+00 2.27238E+01 3.00954E-13 8.17679E-14
 -1       416 3.56584E+01 1.17984E+02 8.75704E-01 2.83574E+01 1.94733E-13-8.34888E-14
 -1       417-4.21724E+00 9.66663E+01-3.74380E-03-1.36935E+00-4.04364E-14-1.40443E-14
 -1       418-3.35570E+00 9.62474E+01-3.51997E-02-5.12877E-01 2.42951E-13 9.74915E-16
 -1       419-2.59221E+00 9.56539E+01-3.45938E-02 6.07615E-02-3.73312E-15 3.25738E-15
 -1       420-1.96278E+00 9.49833E+01-3.31431E-02 4.02837E-01 2.63574E-14 7.89950E-15
 -1       421-1.46140E+00 9.42954E+01-2.83079E-02 5.85652E-01 1.06184E-13-5.21198E-15
 -1       422-1.07473E+00 9.36151E+01-2.28441E-02 6.63565E-01-6.68909E-14-1.07206E-15
 -1       423-7.83013E-01 9.29511E+01-1.76568E-02 6.76172E-01-7.27821E-14 5.65867E-15
 -1       424-5.66147E-01 9.23043E+01-1.31932E-02 6.50642E-01 3.81362E-14-7.27716E-15
 -1       425-4.06093E-01 9.16717E+01-9.56704E-03 6.04808E-01 1.61795E-13 5.39846E-15
 -1       426-2.87872E-01 9.10495E+01-6.75826E-03 5.49467E-01 3.42682E-14-7.62237E-15
 -1       427-1.99741E-01 9.04346E+01-4.70694E-03 4.89909E-01 4.58934E-14 1.04430E-15
 -1       428-1.33067E-01 8.98251E+01-3.34334E-03 4.26732E-01-1.14156E-13-9.69710E-16
 -1       429-8.22783E-02 8.92214E+01-2.74476E-03 3.56054E-01-1.05525E-13 1.29740E-14
 -1       430-4.42924E-02 8.86266E+01-2.38881E-03 2.69192E-01 1.07643E-13-5.13478E-15
 -1       431-2.21537E-02 8.80458E+01-5.80477E-03 1.52072E-01-2.40602E-13 1.29029E-14
 -1       432-4.70327E+00 9.59286E+01-1.08262E-03 4.49386E-01-2.73948E-14 1.20459E-14
 -1       433-3.78333E+00 9.55980E+01-3.58663E-02-4.90819E-01 1.41869E-13-1.06252E-14
 -1       434-2.96079E+00 9.51083E+01-3.46677E-02-1.14355E+00-1.17004E-13-2.48673E-15
 -1       435-2.27421E+00 9.45571E+01-3.36551E-02-1.55372E+00 5.33705E-14-3.22160E-15
 -1       436-1.71756E+00 9.40064E+01-2.91499E-02-1.79111E+00 5.66353E-14-4.86980E-15
 -1       437-1.27891E+00 9.34823E+01-2.40095E-02-1.90712E+00-1.46843E-13-2.18488E-15
 -1       438-9.39764E-01 9.29947E+01-1.90916E-02-1.93827E+00-6.45005E-14-4.57794E-15
 -1       439-6.81096E-01 9.25448E+01-1.48303E-02-1.90843E+00-6.89344E-14-6.41848E-17
 -1       440-4.85695E-01 9.21298E+01-1.13227E-02-1.83198E+00 1.33192E-14 2.34474E-14
 -1       441-3.39068E-01 9.17453E+01-8.53458E-03-1.71617E+00 1.17870E-13 1.37208E-14
 -1       442-2.29570E-01 9.13871E+01-6.39169E-03-1.56272E+00 2.81220E-15 8.26856E-15
 -1       443-1.48230E-01 9.10515E+01-4.82266E-03-1.36878E+00-7.57693E-14-1.24987E-15
 -1       444-8.86136E-02 9.07361E+01-3.84548E-03-1.12723E+00 1.24597E-13 2.14793E-14
 -1       445-4.64946E-02 9.04406E+01-3.23300E-03-8.26577E-01 5.64705E-14 4.84335E-15
 -1       446-2.15448E-02 9.01667E+01-4.62658E-03-4.50233E-01-6.62057E-14 2.03830E-14
 -1       447-4.95068E+00 9.46274E+01 3.76005E-02 2.60032E+00 1.21091E-13 9.64506E-16
 -1       448-4.31497E+00 9.32957E+01 7.53878E-02 2.90649E+00 4.30489E-14-4.12517E-15
 -1       449-3.66333E+00 9.21950E+01 5.94425E-02 3.00363E+00-8.72080E-14-2.58127E-15
 -1       450-3.03613E+00 9.13311E+01 5.14675E-02 2.94820E+00 2.99656E-14-6.54338E-15
 -1       451-2.46999E+00 9.06618E+01 4.17933E-02 2.80109E+00-1.26839E-13-3.17801E-14
 -1       452-1.97260E+00 9.01550E+01 3.31397E-02 2.60530E+00 2.29582E-14 1.67227E-15
 -1       453-1.54255E+00 8.97787E+01 2.57495E-02 2.38953E+00 3.67063E-14 3.83027E-15
 -1       454-1.17388E+00 8.95050E+01 1.97416E-02 2.17166E+00-5.64652E-16 2.86403E-15
 -1       455-8.59208E-01 8.93105E+01 1.49830E-02 1.96210E+00 2.59463E-14-1.88287E-14
 -1       456-5.91162E-01 8.91763E+01 1.12762E-02 1.76633E+00 7.49921E-14 1.11352E-14
 -1       457-3.62992E-01 8.90879E+01 8.41616E-03 1.58669E+00-8.66867E-14 2.28463E-15
 -1       458-1.68797E-01 8.90336E+01 6.22042E-03 1.42360E+00 3.54465E-14 6.52429E-15
 -1       459-3.53337E-03 8.90048E+01 4.53770E-03 1.27634E+00-8.85359E-14 7.75421E-15
 -1       460 1.37064E-01 8.89945E+01 3.24749E-03 1.14363E+00 8.32121E-14 5.52596E-15
 -1       461 2.56583E-01 8.89977E+01 2.25613E-03 1.02391E+00 1.55205E-13-1.64703E-14
 -1       462 3.58047E-01 8.90103E+01 1.49197E-03 9.15531E-01-3.68863E-14-2.36703E-15
 -1       463 4.44007E-01 8.90292E+01 9.00653E-04 8.16925E-01-5.89936E-14-1.16461E-14
 -1       464 5.16624E-01 8.90521E+01 4.41239E-04 7.26621E-01-1.06697E-13-1.01516E-14
 -1       465 5.77737E-01 8.90770E+01 8.29406E-05 6.43294E-01 1.37735E-13 6.27666E-15
 -1       466 6.28913E-01 8.91027E+01-1.97347E-04 5.65774E-01-9.15231E-14-2.13198E-14
 -1       467 6.71486E-01 8.91278E+01-4.16968E-04 4.93040E-01-6.70130E-14-1.18031E-14
 -1       468 7.06595E-01 8.91516E+01-5.88944E-04 4.24212E-01-6.64724E-14 4.03106E-15
 -1       469 7.35200E-01 8.91734E+01-7.23050E-04 3.58535E-01 4.78905E-14-1.68793E-14
 -1       470 7.58107E-01 8.91926E+01-8.26607E-04 2.95363E-01-3.23309E-15 3.20230E-15
 -1       471 7.75977E-01 8.92088E+01-9.05065E-04 2.34142E-01 9.95218E-14-1.12163E-14
 -1       472 7.89339E-01 8.92218E+01-9.62418E-04 1.74393E-01-4.74989E-15-2.27188E-14
 -1       473 7.98599E-01 8.92311E+01-1.00151E-03 1.15699E-01-3.59655E-14 1.72857E-14
 -1       474 8.04042E-01 8.92368E+01-1.02424E-03 5.76835E-02-3.08644E-13-4.14642E-15
 -1       475-4.95068E+00 9.46274E+01 3.76005E-02-2.60032E+00-2.71970E-14-5.44703E-15
 -1       476-4.31497E+00 9.32957E+01 7.53878E-02-2.90649E+00-6.65162E-14 1.10918E-14
 -1       477-3.66333E+00 9.21950E+01 5.94425E-02-3.00363E+00-2.80418E-14 1.43982E-14
 -1       478-3.03613E+00 9.13311E+01 5.14675E-02-2.94820E+00-2.07256E-14-3.23491E-14
 -1       479-2.46999E+00 9.06618E+01 4.17933E-02-2.80109E+00 1.25040E-13 6.27901E-14
 -1       480-1.97260E+00 9.01550E+01 3.31397E-02-2.60530E+00-1.02550E-13-2.55178E-14
 -1       481-1.54255E+00 8.97787E+01 2.57495E-02-2.38953E+00 6.88642E-15-4.77743E-15
 -1       482-1.17388E+00 8.95050E+01 1.97416E-02-2.17166E+00 1.23556E-13 3.31436E-14
 -1       483-8.59208E-01 8.93105E+01 1.49830E-02-1.96210E+00-1.32647E-13-1.61173E-14
 -1       484-5.91162E-01 8.91763E+01 1.12762E-02-1.76633E+00-2.45203E-15-1.61798E-14
 -1       485-3.62992E-01 8.90879E+01 8.41616E-03-1.58669E+00 1.34262E-13 2.26659E-14
 -1       486-1.68797E-01 8.90336E+01 6.22042E-03-1.42360E+00-7.42982E-14-3.50735E-14
 -1       487-3.53337E-03 8.90048E+01 4.53770E-03-1.27634E+00-1.43219E-14 3.99906E-14
 -1       488 1.37064E-01 8.89945E+01 3.24749E-03-1.14363E+00 1.61251E-14 1.63793E-14
 -1       489 2.56583E-01 8.89977E+01 2.25613E-03-1.02391E+00-5.28314E-14-1.80932E-15
 -1       490 3.58047E-01 8.90103E+01 1.49197E-03-9.15531E-01 1.62413E-13-8.95898E-15
 -1       491 4.44007E-01 8.90292E+01 9.00653E-04-8.16925E-01-1.05000E-13 3.07306E-15
 -1       492 5.16624E-01 8.90521E+01 4.41239E-04-7.26621E-01 9.04832E-14 2.09212E-14
 -1       493 5.77737E-01 8.90770E+01 8.29406E-05-6.43294E-01-2.32423E-14 7.48143E-15
 -1       494 6.28913E-01 8.91027E+01-1.97347E-04-5.65774E-01-3.75069E-14-2.43677E-14
 -1       495 6.71486E-01 8.91278E+01-4.16968E-04-4.93040E-01 6.90279E-14-1.61893E-14
 -1       496 7.06595E-01 8.91516E+01-5.88944E-04-4.24212E-01 1.00191E-14 1.36328E-14
 -1       497 7.35200E-01 8.91734E+01-7.23050E-04-3.58535E-01-1.54056E-14-2.87322E-14
 -1       498 7.58107E-01 8.91926E+01-8.26607E-04-2.95363E-01 8.31390E-14-7.81623E-15
 -1       499 7.75977E-01 8.92088E+01-9.05065E-04-2.34142E-01 4.28316E-14-2.31690E-14
 -1       500 7.89339E-01 8.92218E+01-9.62418E-04-1.74393E-01 9.65916E-14 3.76565E-14
 -1       501 7.98599E-01 8.92311E+01-1.00151E-03-1.15699E-01-9.90649E-14-3.32308E-14
 -1       502 8.04042E-01 8.92368E+01-1.02424E-03-5.76835E-02-4.78024E-14 4.51470E-14
 -1       503-4.70327E+00 9.59286E+01-1.08262E-03-4.49386E-01-1.75665E-13-4.02040E-14
 -1       504-3.78333E+00 9.55980E+01-3.58663E-02 4.90819E-01 7.38680E-14 7.95891E-15
 -1       505-2.96079E+00 9.51083E+01-3.46677E-02 1.14355E+00-1.20327E-13 7.29972E-15
 -1       506-2.27421E+00 9.45571E+01-3.36551E-02 1.55372E+00 1.61357E-13 3.31137E-14
 -1       507-1.71756E+00 9.40064E+01-2.91499E-02 1.79111E+00-1.31031E-13-3.30515E-14
 -1       508-1.27891E+00 9.34823E+01-2.40095E-02 1.90712E+00 8.85750E-15 4.33078E-14
 -1       509-9.39764E-01 9.29947E+01-1.90916E-02 1.93827E+00 6.86604E-15-6.22384E-14
 -1       510-6.81096E-01 9.25448E+01-1.48303E-02 1.90843E+00-1.30943E-13 2.98936E-14
 -1       511-4.85695E-01 9.21298E+01-1.13227E-02 1.83198E+00 4.39839E-15-1.95035E-14
 -1       512-3.39068E-01 9.17453E+01-8.53458E-03 1.71617E+00-1.22166E-13 6.44589E-14
 -1       513-2.29570E-01 9.13871E+01-6.39169E-03 1.56272E+00 1.23044E-14-2.50286E-14
 -1       514-1.48230E-01 9.10515E+01-4.82266E-03 1.36878E+00-3.88309E-14-2.27804E-14
 -1       515-8.86136E-02 9.07361E+01-3.84548E-03 1.12723E+00 1.64079E-14 6.29011E-14
 -1       516-4.64946E-02 9.04406E+01-3.23300E-03 8.26577E-01 1.38932E-13 9.62078E-15
 -1       517-2.15448E-02 9.01667E+01-4.62658E-03 4.50233E-01-1.14016E-13-3.31341E-14
 -1       518-4.21724E+00 9.66663E+01-3.74380E-03 1.36935E+00-1.51042E-13-5.51642E-15
 -1       519-3.35570E+00 9.62474E+01-3.51997E-02 5.12877E-01 1.09541E-13 1.26357E-14
 -1       520-2.59221E+00 9.56539E+01-3.45938E-02-6.07615E-02-1.08573E-13-3.62746E-14
 -1       521-1.96278E+00 9.49833E+01-3.31431E-02-4.02837E-01-7.05963E-14 5.86640E-15
 -1       522-1.46140E+00 9.42954E+01-2.83079E-02-5.85652E-01 1.66336E-13 1.46185E-14
 -1       523-1.07473E+00 9.36151E+01-2.28441E-02-6.63565E-01-1.80878E-13-1.82337E-14
 -1       524-7.83013E-01 9.29511E+01-1.76568E-02-6.76172E-01 4.50508E-14-5.85990E-15
 -1       525-5.66147E-01 9.23043E+01-1.31932E-02-6.50642E-01-3.32148E-14-5.04527E-14
 -1       526-4.06093E-01 9.16717E+01-9.56704E-03-6.04808E-01-3.69918E-13-4.25788E-14
 -1       527-2.87872E-01 9.10495E+01-6.75826E-03-5.49467E-01 1.75515E-14 2.28498E-14
 -1       528-1.99741E-01 9.04346E+01-4.70694E-03-4.89909E-01 1.08104E-13-4.81507E-14
 -1       529-1.33067E-01 8.98251E+01-3.34334E-03-4.26732E-01 2.29812E-14 3.35582E-14
 -1       530-8.22783E-02 8.92214E+01-2.74476E-03-3.56054E-01 6.49701E-14-4.71411E-14
 -1       531-4.42924E-02 8.86266E+01-2.38881E-03-2.69192E-01 1.09721E-13 8.72965E-14
 -1       532-2.21537E-02 8.80458E+01-5.80477E-03-1.52072E-01 1.67083E-13-5.46646E-14
 -1       533-4.29836E+00 9.55170E+01 3.77526E-02 3.36238E+00 1.34982E-13 1.05055E-14
 -1       534-3.51675E+00 9.42777E+01 7.28454E-02 3.60645E+00-2.14377E-14-6.81746E-15
 -1       535-2.69434E+00 9.32613E+01 5.78125E-02 3.62662E+00 3.92195E-14 1.87177E-14
 -1       536-1.87000E+00 9.24729E+01 4.95245E-02 3.48069E+00-2.96376E-13-1.84228E-15
 -1       537-1.07608E+00 9.18710E+01 3.95050E-02 3.22838E+00-8.14158E-14-6.19886E-14
 -1       538-3.16710E-01 9.14224E+01 3.03930E-02 2.91150E+00 1.71049E-13 2.43208E-14
 -1       539 4.13392E-01 9.10934E+01 2.24668E-02 2.55750E+00 4.21538E-15 3.93401E-14
 -1       540 1.12429E+00 9.08538E+01 1.58430E-02 2.18300E+00 4.07833E-15 8.55305E-15
 -1       541 1.82769E+00 9.06780E+01 1.03874E-02 1.79730E+00-7.06310E-14-1.01802E-14
 -1       542 2.53553E+00 9.05445E+01 5.90054E-03 1.40493E+00-3.94754E-14-1.95859E-14
 -1       543 3.25932E+00 9.04356E+01 2.17846E-03 1.00758E+00 7.25982E-14 9.10058E-15
 -1       544 4.00983E+00 9.03365E+01-9.55489E-04 6.05445E-01-3.86850E-13-1.22120E-14
 -1       545 4.79703E+00 9.02348E+01-3.63994E-03 1.98155E-01 6.72053E-13 5.07048E-14
 -1       546 5.63003E+00 9.01200E+01-5.97345E-03-2.14549E-01-2.48076E-13 7.31815E-15
 -1       547 6.51703E+00 8.99829E+01-8.01602E-03-6.32336E-01-3.44762E-13 1.59480E-14
 -1       548 7.46516E+00 8.98157E+01-9.79189E-03-1.05394E+00 4.20459E-13 2.98893E-14
 -1       549 8.48035E+00 8.96116E+01-1.12931E-02-1.47690E+00-4.33334E-14 1.11933E-14
 -1       550 9.56701E+00 8.93649E+01-1.24839E-02-1.89744E+00-2.10526E-13-3.55410E-14
 -1       551 1.07277E+01 8.90713E+01-1.33078E-02-2.31041E+00-2.68327E-14 3.39722E-14
 -1       552 1.19628E+01 8.87278E+01-1.36969E-02-2.70938E+00-5.99278E-14-3.46780E-14
 -1       553 1.32701E+01 8.83331E+01-1.35850E-02-3.08687E+00 2.67175E-13-1.06766E-14
 -1       554 1.46445E+01 8.78879E+01-1.29227E-02-3.43468E+00-1.29306E-14-1.50958E-14
 -1       555 1.60778E+01 8.73948E+01-1.17010E-02-3.74448E+00-3.12937E-13 2.42449E-15
 -1       556 1.75588E+01 8.68585E+01-9.92395E-03-4.00834E+00 2.47621E-13-4.79434E-15
 -1       557 1.90735E+01 8.62853E+01-7.87298E-03-4.21945E+00-2.93654E-14 1.56819E-15
 -1       558 2.06065E+01 8.56842E+01-4.51227E-03-4.37261E+00-4.82694E-13-2.41899E-14
 -1       559 2.21369E+01 8.50589E+01-7.32578E-03-4.46476E+00-7.38298E-15 2.69507E-14
 -1       560 2.36713E+01 8.44527E+01 2.87137E-02-4.49483E+00 2.48100E-13-4.08493E-14
 -1       561-4.29836E+00 9.55170E+01 3.77526E-02-3.36238E+00-1.61305E-13-7.86177E-15
 -1       562-3.51675E+00 9.42777E+01 7.28454E-02-3.60645E+00 4.21364E-14-5.77316E-15
 -1       563-2.69434E+00 9.32613E+01 5.78125E-02-3.62662E+00 8.34554E-14 1.48839E-15
 -1       564-1.87000E+00 9.24729E+01 4.95245E-02-3.48069E+00-1.73040E-13-1.30070E-14
 -1       565-1.07608E+00 9.18710E+01 3.95050E-02-3.22838E+00 2.74799E-13-5.38458E-15
 -1       566-3.16710E-01 9.14224E+01 3.03930E-02-2.91150E+00-3.91066E-13-2.27370E-14
 -1       567 4.13392E-01 9.10934E+01 2.24668E-02-2.55750E+00 1.23197E-13-2.21975E-14
 -1       568 1.12429E+00 9.08538E+01 1.58430E-02-2.18300E+00-1.06278E-13-1.37043E-15
 -1       569 1.82769E+00 9.06780E+01 1.03874E-02-1.79730E+00-1.72983E-13-1.24822E-14
 -1       570 2.53553E+00 9.05445E+01 5.90054E-03-1.40493E+00-6.66203E-14-1.44199E-14
 -1       571 3.25932E+00 9.04356E+01 2.17846E-03-1.00758E+00 7.38437E-14-2.59168E-15
 -1       572 4.00983E+00 9.03365E+01-9.55489E-04-6.05445E-01-1.51719E-14-1.70493E-14
 -1       573 4.79703E+00 9.02348E+01-3.63994E-03-1.98155E-01-4.79429E-13-6.69723E-15
 -1       574 5.63003E+00 9.01200E+01-5.97345E-03 2.14549E-01 2.42643E-13-7.85049E-15
 -1       575 6.51703E+00 8.99829E+01-8.01602E-03 6.32336E-01 4.47559E-16-2.55243E-15
 -1       576 7.46516E+00 8.98157E+01-9.79189E-03 1.05394E+00-2.02595E-13-2.19573E-15
 -1       577 8.48035E+00 8.96116E+01-1.12931E-02 1.47690E+00 2.69083E-13-8.02180E-15
 -1       578 9.56701E+00 8.93649E+01-1.24839E-02 1.89744E+00 6.34388E-14 1.25924E-14
 -1       579 1.07277E+01 8.90713E+01-1.33078E-02 2.31041E+00 1.74340E-14 4.47385E-15
 -1       580 1.19628E+01 8.87278E+01-1.36969E-02 2.70938E+00-1.17989E-13-1.34779E-14
 -1       581 1.32701E+01 8.83331E+01-1.35850E-02 3.08687E+00-6.08194E-15 3.46880E-15
 -1       582 1.46445E+01 8.78879E+01-1.29227E-02 3.43468E+00-1.11435E-13-2.80885E-14
 -1       583 1.60778E+01 8.73948E+01-1.17010E-02 3.74448E+00 8.86166E-14 8.99844E-15
 -1       584 1.75588E+01 8.68585E+01-9.92395E-03 4.00834E+00 7.15122E-14-1.77683E-14
 -1       585 1.90735E+01 8.62853E+01-7.87298E-03 4.21945E+00-2.24175E-13 2.80622E-14
 -1       586 2.06065E+01 8.56842E+01-4.51227E-03 4.37261E+00-3.22388E-13-4.01588E-14
 -1       587 2.21369E+01 8.50589E+01-7.32578E-03 4.46476E+00-1.37723E-13-1.34849E-14
 -1       588 2.36713E+01 8.44527E+01 2.87137E-02 4.49483E+00 6.87818E-13 2.87973E-14
 -1       589 2.56318E+01 9.44017E+01-4.83650E-01-4.66585E+01 1.21680E-13 1.17684E-14
 -1       590 2.91724E+01 1.21629E+02-3.65507E-01-5.31943E+01 1.14575E-13 1.31006E-14
 -1       591 2.87667E+01 1.51502E+02-1.48416E-01-5.59239E+01-4.88498E-15 2.49800E-16
 -1       592 2.50744E+01 1.81587E+02 1.58715E-01-5.32368E+01 6.08402E-14-3.55271E-15
 -1       593 1.95752E+01 2.08621E+02 4.74970E-01-4.42882E+01-5.06262E-14-2.39808E-14
 -1       594 1.42651E+01 2.29130E+02 7.28373E-01-2.94419E+01-4.70735E-14 2.55351E-14
 -1       595 1.10288E+01 2.40168E+02 8.67570E-01-1.03754E+01-4.60187E-14-1.59872E-14
 -1       596 1.10082E+01 2.40045E+02 8.66918E-01 1.02125E+01-1.48714E-13 1.31006E-14
 -1       597 1.41985E+01 2.28780E+02 7.26715E-01 2.92412E+01 1.17018E-13 5.55112E-15
 -1       598 1.94521E+01 2.08093E+02 4.73132E-01 4.40243E+01 7.81597E-14-1.88738E-14
 -1       599 2.48860E+01 1.80950E+02 1.57826E-01 5.29041E+01 8.30447E-14 5.21805E-15
 -1       600 2.85135E+01 1.50827E+02-1.47325E-01 5.55360E+01 7.59393E-14 8.00748E-15
 -1       601 2.88680E+01 1.20974E+02-3.61990E-01 5.27774E+01-4.88498E-15 9.65894E-15
 -1       602 2.53008E+01 9.38056E+01-4.78072E-01 4.62417E+01 1.31894E-13 1.15463E-14
 -1       603 9.89181E+00 1.06249E+02-1.22397E-01-3.43861E+01-1.59428E-13 1.99840E-15
 -1       604 1.65106E+01 1.25670E+02-2.13578E-01-3.63955E+01-1.60316E-13-8.54872E-15
 -1       605 2.11084E+01 1.46849E+02-2.98097E-01-3.70387E+01 1.00364E-13-1.52101E-14
 -1       606 2.31645E+01 1.68478E+02-3.67289E-01-3.50422E+01-1.98064E-13-2.22045E-16
 -1       607 2.30266E+01 1.88394E+02-4.13679E-01-2.93505E+01 2.04281E-14-1.77636E-14
 -1       608 2.17607E+01 2.03864E+02-4.42503E-01-1.97188E+01 9.05942E-14-4.88498E-15
 -1       609 2.06686E+01 2.12329E+02-4.56457E-01-7.04663E+00-1.37224E-13 5.32907E-15
 -1       610 2.06318E+01 2.12237E+02-4.55574E-01 6.76560E+00 1.55542E-13 0.00000E+00
 -1       611 2.16508E+01 2.03601E+02-4.40006E-01 1.94222E+01 1.43219E-13 4.88498E-15
 -1       612 2.28470E+01 1.87992E+02-4.09963E-01 2.90301E+01-1.23901E-13 3.99680E-15
 -1       613 2.29258E+01 1.67981E+02-3.62851E-01 3.47004E+01 1.42109E-14 5.88418E-15
 -1       614 2.08300E+01 1.46300E+02-2.93460E-01 3.66849E+01-6.21725E-14-5.82867E-15
 -1       615 1.62179E+01 1.25102E+02-2.09221E-01 3.60407E+01 1.28786E-14-1.83187E-14
 -1       616 9.60993E+00 1.05686E+02-1.18623E-01 3.40373E+01-7.10543E-15 1.35447E-14
 -1       617-4.21112E-01 1.12662E+02 5.15270E-02-2.55267E+01 2.47358E-13-6.66134E-15
 -1       618 7.39525E+00 1.26981E+02-2.66921E-02-2.45370E+01 1.06359E-13 1.44884E-14
 -1       619 1.47776E+01 1.42148E+02-1.58266E-01-2.34546E+01-7.77156E-14-9.79772E-15
 -1       620 2.06438E+01 1.57542E+02-3.35333E-01-2.15437E+01-7.19425E-14 2.99760E-15
 -1       621 2.44601E+01 1.71844E+02-5.28358E-01-1.79291E+01 3.64153E-14 1.33227E-15
 -1       622 2.64011E+01 1.83118E+02-6.94765E-01-1.21129E+01-8.41549E-14-1.13243E-14
 -1       623 2.70845E+01 1.89361E+02-7.91529E-01-4.41008E+00 1.43552E-13 5.77316E-15
 -1       624 2.70376E+01 1.89291E+02-7.90316E-01 4.03766E+00 6.21725E-15-2.04281E-14
 -1       625 2.62651E+01 1.82916E+02-6.91521E-01 1.17411E+01-6.46150E-14-1.11022E-15
 -1       626 2.42493E+01 1.71531E+02-5.24058E-01 1.75609E+01-2.72893E-13-5.55112E-15
 -1       627 2.03820E+01 1.57141E+02-3.31058E-01 2.11843E+01 8.06022E-14 1.03251E-14
 -1       628 1.44942E+01 1.41683E+02-1.54800E-01 2.31079E+01-3.73035E-14 1.33782E-14
 -1       629 7.11857E+00 1.26471E+02-2.43292E-02 2.42026E+01 1.31006E-13 1.12133E-14
 -1       630-6.70985E-01 1.12126E+02 5.29791E-02 2.51996E+01 4.30767E-14-8.88178E-15
 -1       631-6.81693E+00 1.15467E+02 1.17061E-01-1.91073E+01 9.12603E-14 2.88658E-15
 -1       632 1.05468E+00 1.26377E+02 8.61210E-02-1.62588E+01 3.01981E-14 7.16094E-15
 -1       633 9.70990E+00 1.37404E+02-1.38453E-02-1.38821E+01-1.28342E-13 7.79932E-15
 -1       634 1.78691E+01 1.48266E+02-1.89027E-01-1.17762E+01 1.96732E-13 4.10783E-15
 -1       635 2.44260E+01 1.58244E+02-4.13151E-01-9.42285E+00 1.72307E-13 6.21725E-15
 -1       636 2.87862E+01 1.66118E+02-6.26692E-01-6.31727E+00-1.37779E-13-1.11022E-14
 -1       637 3.08756E+01 1.70498E+02-7.57801E-01-2.37609E+00-1.27287E-13-3.10862E-15
 -1       638 3.08232E+01 1.70444E+02-7.56725E-01 1.93199E+00-1.85019E-13 1.28786E-14
 -1       639 2.86369E+01 1.65959E+02-6.23936E-01 5.88490E+00 1.56541E-13 9.54792E-15
 -1       640 2.42019E+01 1.57989E+02-4.09821E-01 9.01196E+00 1.50324E-13-3.10862E-15
 -1       641 1.76017E+01 1.47926E+02-1.86211E-01 1.13920E+01-2.83107E-13-9.88098E-15
 -1       642 9.43246E+00 1.36992E+02-1.21191E-02 1.35231E+01-1.55431E-14-4.99600E-16
 -1       643 7.93447E-01 1.25907E+02 8.67802E-02 1.59174E+01 2.66454E-15 1.88738E-15
 -1       644-7.04845E+00 1.14952E+02 1.17093E-01 1.87728E+01 1.99840E-15 1.02141E-14
 -1       645-1.04535E+01 1.15949E+02 1.26167E-01-1.44383E+01-1.75859E-13 2.22045E-16
 -1       646-3.15568E+00 1.24520E+02 1.32973E-01-1.05601E+01 1.80300E-13 6.21725E-15
 -1       647 5.77472E+00 1.32692E+02 7.73588E-02-7.30891E+00-8.63754E-14 1.50158E-14
 -1       648 1.50934E+01 1.40308E+02-6.03436E-02-4.92679E+00 2.97540E-14-1.54321E-14
 -1       649 2.33803E+01 1.47035E+02-2.65048E-01-3.29404E+00 8.14904E-14 1.13243E-14
 -1       650 2.94471E+01 1.52235E+02-4.77765E-01-2.04535E+00 8.27116E-14 1.53211E-14
 -1       651 3.25880E+01 1.55102E+02-6.14817E-01-8.58822E-01 6.66134E-14 7.77156E-15
 -1       652 3.25336E+01 1.55058E+02-6.14012E-01 3.56790E-01-3.60489E-13-5.32907E-15
 -1       653 2.92939E+01 1.52103E+02-4.75801E-01 1.56199E+00-1.60649E-13-1.37668E-14
 -1       654 2.31548E+01 1.46817E+02-2.62923E-01 2.84257E+00-4.92939E-14-1.55431E-15
 -1       655 1.48309E+01 1.40006E+02-5.89196E-02 4.51123E+00-4.64073E-14-1.40998E-14
 -1       656 5.50813E+00 1.32312E+02 7.77865E-02 6.92378E+00 1.27676E-13 1.54737E-14
 -1       657-3.40461E+00 1.24072E+02 1.32624E-01 1.01937E+01-1.16795E-13-8.65974E-15
 -1       658-1.06773E+01 1.15446E+02 1.25568E-01 1.40783E+01 4.89608E-14 1.19904E-14
 -1       659-1.21956E+01 1.15005E+02 1.10850E-01-1.10262E+01 1.65423E-13 3.16969E-14
 -1       660-5.77172E+00 1.21915E+02 1.38682E-01-6.69973E+00-1.07914E-13-1.26843E-14
 -1       661 2.81288E+00 1.28109E+02 1.20873E-01-2.94157E+00 2.66454E-14-4.74620E-15
 -1       662 1.24775E+01 1.33432E+02 2.63479E-02-3.14215E-01-9.70335E-14-3.60822E-15
 -1       663 2.16870E+01 1.37774E+02-1.40896E-01 9.37777E-01 4.59632E-14 9.21485E-15
 -1       664 2.88419E+01 1.40934E+02-3.30336E-01 9.71988E-01 8.38218E-14-9.10383E-15
 -1       665 3.27087E+01 1.42614E+02-4.58112E-01 2.24844E-01-6.91114E-15 1.33227E-14
 -1       666 3.26547E+01 1.42576E+02-4.57580E-01-7.76024E-01 6.04794E-14 5.55112E-15
 -1       667 2.86908E+01 1.40818E+02-3.29118E-01-1.50077E+00-9.88098E-14-3.55271E-15
 -1       668 2.14677E+01 1.37576E+02-1.39786E-01-1.42969E+00-9.65894E-15-2.22045E-16
 -1       669 1.22253E+01 1.33150E+02 2.67641E-02-1.38354E-01 1.52101E-13 2.01505E-14
 -1       670 2.55799E+00 1.27745E+02 1.20519E-01 2.52030E+00-4.75175E-14 1.71391E-15
 -1       671-6.01269E+00 1.21477E+02 1.37850E-01 6.29667E+00 6.98330E-14 9.60343E-15
 -1       672-1.24201E+01 1.14505E+02 1.10101E-01 1.06295E+01 2.94209E-14-9.49241E-15
 -1       673-1.26801E+01 1.13253E+02 8.82946E-02-8.51719E+00-2.88658E-14-9.54792E-15
 -1       674-7.22602E+00 1.18936E+02 1.23175E-01-4.13261E+00 3.44169E-15 7.91034E-15
 -1       675 6.58208E-01 1.23742E+02 1.32501E-01-1.64573E-01-1.32117E-13-4.53110E-15
 -1       676 1.01128E+01 1.27465E+02 7.63754E-02 2.62327E+00 5.77316E-15-3.60822E-15
 -1       677 1.96268E+01 1.30103E+02-4.99841E-02 3.69368E+00-2.30926E-14 4.44089E-16
 -1       678 2.73549E+01 1.31760E+02-2.07179E-01 2.98290E+00-1.28009E-13-1.26565E-14
 -1       679 3.16621E+01 1.32543E+02-3.18188E-01 9.54050E-01-1.13243E-14-5.55112E-15
 -1       680 3.16099E+01 1.32508E+02-3.17883E-01-1.54958E+00 5.27356E-15 1.46549E-14
 -1       681 2.72098E+01 1.31651E+02-2.06552E-01-3.55469E+00-1.57652E-14-7.66054E-15
 -1       682 1.94174E+01 1.29914E+02-4.96037E-02-4.22737E+00 1.36890E-13 1.04361E-14
 -1       683 9.87277E+00 1.27191E+02 7.61638E-02-3.11778E+00-9.02611E-14 8.04912E-15
 -1       684 4.13470E-01 1.23383E+02 1.31760E-01-2.99988E-01-4.13003E-14-8.61811E-15
 -1       685-7.46378E+00 1.18498E+02 1.22183E-01 3.68515E+00 2.34257E-14-4.71845E-16
 -1       686-1.29119E+01 1.12749E+02 8.76621E-02 8.07669E+00-1.54765E-13-2.45914E-14
 -1       687-1.23661E+01 1.11110E+02 6.67011E-02-6.65795E+00-1.57263E-13-1.87628E-14
 -1       688-7.85928E+00 1.15847E+02 9.91798E-02-2.46213E+00-8.62643E-14-5.96745E-15
 -1       689-8.47290E-01 1.19661E+02 1.25643E-01 1.49157E+00 5.91749E-14 1.09669E-14
 -1       690 8.04110E+00 1.22279E+02 9.99792E-02 4.33879E+00 2.37477E-13 1.66256E-14
 -1       691 1.74077E+01 1.23733E+02 1.15459E-02 5.33299E+00 3.54161E-14-6.16174E-15
 -1       692 2.52998E+01 1.24323E+02-1.11512E-01 4.20950E+00 6.66134E-14 1.19904E-14
 -1       693 2.98077E+01 1.24457E+02-2.02770E-01 1.40179E+00-1.20265E-13 7.77156E-15
 -1       694 2.97582E+01 1.24422E+02-2.02634E-01-2.04000E+00 1.65978E-14-5.10703E-15
 -1       695 2.51624E+01 1.24215E+02-1.11302E-01-4.82426E+00-7.24976E-14 1.04361E-14
 -1       696 1.72097E+01 1.23545E+02 1.14644E-02-5.91083E+00-2.40918E-14-4.44089E-16
 -1       697 7.81278E+00 1.22002E+02 9.94444E-02-4.87963E+00 9.49241E-14 6.82787E-15
 -1       698-1.08471E+00 1.19297E+02 1.24785E-01-2.00472E+00 3.83027E-14-5.05151E-15
 -1       699-8.09848E+00 1.15401E+02 9.82035E-02 1.96510E+00 3.10862E-15-1.88183E-14
 -1       700-1.26106E+01 1.10593E+02 6.63280E-02 6.16905E+00 7.56617E-14 8.04912E-15
 -1       701-1.15769E+01 1.08842E+02 4.92571E-02-5.26766E+00 7.10543E-15 8.82627E-15
 -1       702-7.93305E+00 1.12824E+02 7.40036E-02-1.40354E+00-1.23013E-13-2.95042E-14
 -1       703-1.84522E+00 1.15911E+02 1.09634E-01 2.37835E+00 8.53206E-14-2.42861E-17
 -1       704 6.27077E+00 1.17770E+02 1.06176E-01 5.18936E+00-3.44169E-15-1.13798E-15
 -1       705 1.51782E+01 1.18430E+02 4.99909E-02 6.15364E+00-1.26565E-13 1.31561E-14
 -1       706 2.29239E+01 1.18297E+02-4.08783E-02 4.84405E+00-1.93734E-14-1.99840E-15
 -1       707 2.74410E+01 1.17983E+02-1.12145E-01 1.63299E+00-6.64468E-14-5.66214E-15
 -1       708 2.73945E+01 1.17947E+02-1.12119E-01-2.31460E+00-7.27196E-15-6.66134E-16
 -1       709 2.27948E+01 1.18186E+02-4.09225E-02-5.50351E+00 1.65978E-14 2.77556E-15
 -1       710 1.49913E+01 1.18236E+02 4.96729E-02-6.77869E+00 2.07945E-13-2.22045E-15
 -1       711 6.05229E+00 1.17485E+02 1.05547E-01-5.78049E+00-7.51621E-14 7.32747E-15
 -1       712-2.07872E+00 1.15535E+02 1.08837E-01-2.94414E+00 4.96270E-14 1.09877E-14
 -1       713-8.17800E+00 1.12363E+02 7.31361E-02 8.53344E-01 1.84297E-14-1.50019E-14
 -1       714-1.18386E+01 1.08307E+02 4.92217E-02 4.72731E+00 1.24956E-13 1.53766E-14
 -1       715-1.05342E+01 1.06615E+02 3.65320E-02-4.21728E+00-8.74023E-14-1.24900E-14
 -1       716-7.64287E+00 1.09976E+02 5.13926E-02-7.55155E-01 1.28730E-13 3.84415E-15
 -1       717-2.45694E+00 1.12514E+02 9.04403E-02 2.75376E+00-1.72473E-13 1.58606E-14
 -1       718 4.78858E+00 1.13856E+02 1.01803E-01 5.44959E+00-1.45439E-14-1.54043E-14
 -1       719 1.30382E+01 1.14004E+02 7.12957E-02 6.39572E+00 7.21090E-14-3.33067E-15
 -1       720 2.04154E+01 1.13410E+02 8.63211E-03 5.04764E+00-1.29730E-13 2.72005E-15
 -1       721 2.47963E+01 1.12809E+02-4.40743E-02 1.70339E+00 1.90029E-13-5.10703E-15
 -1       722 2.47528E+01 1.12771E+02-4.41067E-02-2.43085E+00-1.24262E-13 4.44089E-16
 -1       723 2.02943E+01 1.13293E+02 8.47115E-03-5.75479E+00 1.02363E-13 4.27436E-15
 -1       724 1.28612E+01 1.13799E+02 7.09222E-02-7.07157E+00-4.96825E-14-1.66533E-16
 -1       725 4.57750E+00 1.13558E+02 1.01251E-01-6.09471E+00 7.07767E-14-2.02061E-14
 -1       726-2.68994E+00 1.12122E+02 8.98313E-02-3.37550E+00-1.54321E-14 1.19913E-14
 -1       727-7.89740E+00 1.09496E+02 5.06884E-02 1.49158E-01 1.52656E-14 5.32907E-15
 -1       728-1.08167E+01 1.06055E+02 3.68801E-02 3.62341E+00-4.57689E-14-8.90954E-15
 -1       729-9.38458E+00 1.04521E+02 2.78236E-02-3.41472E+00 6.95000E-14-1.59317E-14
 -1       730-7.13076E+00 1.07363E+02 3.28577E-02-3.76151E-01 7.38853E-14-3.98293E-15
 -1       731-2.78247E+00 1.09475E+02 7.15826E-02 2.80340E+00-6.71685E-15-1.22489E-14
 -1       732 3.56903E+00 1.10463E+02 9.17154E-02 5.32581E+00-4.10783E-15 6.80012E-16
 -1       733 1.10498E+01 1.10301E+02 8.04154E-02 6.24767E+00 1.83853E-13-2.22045E-15
 -1       734 1.79113E+01 1.09441E+02 4.10791E-02 4.95124E+00 2.67286E-14 1.02696E-14
 -1       735 2.20524E+01 1.08673E+02 4.58781E-03 1.65927E+00-4.50195E-14-1.50435E-14
 -1       736 2.20118E+01 1.08633E+02 4.54036E-03-2.43628E+00 4.26326E-14 5.77316E-15
 -1       737 1.77973E+01 1.09315E+02 4.09155E-02-5.70993E+00-2.49495E-13-5.16254E-15
 -1       738 1.08810E+01 1.10083E+02 8.01306E-02-6.97819E+00 6.63358E-14-6.02296E-15
 -1       739 3.36277E+00 1.10149E+02 9.13727E-02-6.02845E+00 9.89209E-14 1.04083E-14
 -1       740-3.01812E+00 1.09063E+02 7.12596E-02-3.48389E+00 7.69940E-14-6.33261E-15
 -1       741-7.39818E+00 1.06859E+02 3.23649E-02-2.87600E-01-3.55271E-15-6.99441E-15
 -1       742-9.69126E+00 1.03932E+02 2.85875E-02 2.76605E+00-4.31599E-14 3.34455E-15
 -1       743-8.22260E+00 1.02607E+02 2.15655E-02-2.79449E+00 1.84713E-14 1.68338E-14
 -1       744-6.49628E+00 1.05009E+02 1.89318E-02-1.70076E-01-2.04087E-13-1.25039E-14
 -1       745-2.90052E+00 1.06781E+02 5.55324E-02 2.65769E+00-2.23155E-14 1.17675E-14
 -1       746 2.58197E+00 1.07528E+02 7.99136E-02 4.96942E+00 1.60788E-13 8.07687E-15
 -1       747 9.24722E+00 1.07194E+02 8.17691E-02 5.85383E+00-2.82552E-14-6.02296E-15
 -1       748 1.55057E+01 1.06208E+02 6.03023E-02 4.65871E+00 1.77219E-13 6.55032E-15
 -1       749 1.93391E+01 1.05365E+02 3.69762E-02 1.53816E+00-9.55624E-14 4.16334E-15
 -1       750 1.93010E+01 1.05321E+02 3.69509E-02-2.36918E+00 2.69992E-14 4.71845E-15
 -1       751 1.53979E+01 1.06073E+02 6.02324E-02-5.47333E+00 1.28619E-13-1.15463E-14
 -1       752 9.08491E+00 1.06962E+02 8.16943E-02-6.64307E+00-1.65645E-13-9.99201E-16
 -1       753 2.37820E+00 1.07195E+02 7.98974E-02-5.73292E+00 8.37386E-14 7.85483E-15
 -1       754-3.14140E+00 1.06347E+02 5.56094E-02-3.39931E+00 5.96745E-14-2.70283E-14
 -1       755-6.77919E+00 1.04478E+02 1.87604E-02-5.52810E-01 4.97657E-14 1.86656E-14
 -1       756-8.55637E+00 1.01986E+02 2.27996E-02 2.09060E+00 1.26163E-13-1.84297E-14
 -1       757-7.10784E+00 1.00887E+02 1.58456E-02-2.31048E+00-7.76185E-14 7.56339E-16
 -1       758-5.81201E+00 1.02910E+02 3.95877E-03-7.33214E-02 1.82548E-13 2.28290E-14
 -1       759-2.87785E+00 1.04404E+02 3.65580E-02 2.40438E+00-8.43214E-14-3.46598E-15
 -1       760 1.79061E+00 1.04985E+02 6.24219E-02 4.48806E+00-3.06866E-13-1.36835E-14
 -1       761 7.64087E+00 1.04576E+02 7.44092E-02 5.32302E+00 1.13881E-13 1.82354E-14
 -1       762 1.32573E+01 1.03565E+02 6.86342E-02 4.25207E+00-1.33948E-13-1.42109E-14
 -1       763 1.67460E+01 1.02714E+02 5.76496E-02 1.37047E+00-1.40936E-13-2.77556E-16
 -1       764 1.67100E+01 1.02667E+02 5.76683E-02-2.26040E+00 1.55417E-13-2.66454E-15
 -1       765 1.31548E+01 1.03420E+02 6.87112E-02-5.12722E+00-2.33452E-13 4.32987E-15
 -1       766 7.48346E+00 1.04330E+02 7.45946E-02-6.17499E+00 1.04750E-13 9.35363E-15
 -1       767 1.58736E+00 1.04633E+02 6.27338E-02-5.31557E+00-1.66978E-13-4.14252E-15
 -1       768-3.12604E+00 1.03946E+02 3.69679E-02-3.20921E+00 7.13873E-14 1.29692E-14
 -1       769-6.11242E+00 1.02352E+02 3.96697E-03-7.09548E-01-6.49480E-14-2.25514E-15
 -1       770-7.47106E+00 1.00234E+02 1.74737E-02 1.55195E+00-8.00748E-15-1.77081E-14
 -1       771-6.05854E+00 9.93750E+01 2.91418E-02-1.92325E+00-8.12683E-14-4.64906E-16
 -1       772-5.08813E+00 1.01081E+02 3.27789E-02-4.24066E-02-3.59296E-14-1.44815E-14
 -1       773-2.70859E+00 1.02345E+02 7.58908E-02 2.09862E+00 1.09593E-13 1.34389E-14
 -1       774 1.22407E+00 1.02809E+02 1.03450E-01 3.95245E+00 7.91034E-15-9.88098E-15
 -1       775 6.27549E+00 1.02381E+02 1.04172E-01 4.73391E+00 4.32987E-14-5.88418E-15
 -1       776 1.12088E+01 1.01400E+02 7.71049E-02 3.79679E+00 4.93494E-14-3.69149E-15
 -1       777 1.43049E+01 1.00578E+02 4.84064E-02 1.18220E+00-7.71119E-14-2.10942E-15
 -1       778 1.42709E+01 1.00528E+02 4.86023E-02-2.13592E+00-1.22874E-13-4.49640E-15
 -1       779 1.11111E+01 1.01247E+02 7.76848E-02-4.73696E+00 2.79304E-13-1.69309E-15
 -1       780 6.12229E+00 1.02121E+02 1.05165E-01-5.65236E+00 8.34333E-14 1.16296E-14
 -1       781 1.02076E+00 1.02439E+02 1.04949E-01-4.84675E+00-8.89289E-14-1.98036E-14
 -1       782-2.96408E+00 1.01866E+02 7.80644E-02-2.96844E+00-4.68792E-14 3.48697E-14
 -1       783-5.40476E+00 1.00496E+02 3.52297E-02-8.01226E-01 6.92224E-14-6.97359E-15
 -1       784-6.44894E+00 9.86892E+01 3.42217E-02 1.11069E+00-1.83950E-14 9.04138E-15
 -1       785 1.12682E+01 4.90041E+01-1.19353E-01 2.85518E+01 3.30846E-14 4.44089E-15
 -1       786-3.06319E-01 3.02686E+01-1.75574E-01 1.82713E+01 3.45279E-14 2.35367E-14
 -1       787-1.52997E+01 1.62743E+01-3.25148E-01 8.45817E+00-3.36953E-14 1.77636E-14
 -1       788-3.21535E+01 7.13503E+00-5.66695E-01 8.37833E-01 8.37108E-14 1.28786E-14
 -1       789-4.84325E+01 2.16362E+00-8.25553E-01-3.36927E+00-6.68354E-14-1.42109E-14
 -1       790-6.13731E+01 5.72001E-02-1.03576E+00-3.91182E+00 7.28306E-14 3.55271E-15
 -1       791-6.85531E+01-5.58830E-01-1.15180E+00-1.65305E+00-1.86740E-13-3.49720E-15
 -1       792-6.85531E+01-5.58830E-01-1.15180E+00 1.65305E+00-7.83817E-14-2.34257E-14
 -1       793-6.13731E+01 5.72001E-02-1.03576E+00 3.91182E+00-5.48450E-14-3.99680E-15
 -1       794-4.84325E+01 2.16362E+00-8.25553E-01 3.36927E+00-2.53131E-14 1.55431E-14
 -1       795-3.21535E+01 7.13503E+00-5.66695E-01-8.37833E-01 1.28675E-13 1.68754E-14
 -1       796-1.52997E+01 1.62743E+01-3.25148E-01-8.45817E+00 4.27436E-14 2.62013E-14
 -1       797-3.06319E-01 3.02686E+01-1.75574E-01-1.82713E+01-4.28546E-14-4.97380E-14
 -1       798 1.12682E+01 4.90041E+01-1.19353E-01-2.85518E+01 7.50511E-14 3.33067E-14
 -1       799-3.13137E+00 6.75069E+01-2.70714E-01 2.92692E+01 2.13163E-14 1.77636E-15
 -1       800-9.30650E+00 4.79204E+01-1.38259E-01 2.49833E+01 4.27436E-14-1.95399E-14
 -1       801-1.74572E+01 3.06022E+01-2.98680E-02 1.90738E+01-5.05707E-14 1.33227E-15
 -1       802-2.71153E+01 1.68579E+01 6.58898E-02 1.27363E+01-1.88738E-15-1.64313E-14
 -1       803-3.70202E+01 7.20145E+00 1.40021E-01 7.22971E+00-2.81997E-14 1.37668E-14
 -1       804-4.52872E+01 1.38315E+00 1.92788E-01 3.31639E+00-1.52989E-13-3.17524E-14
 -1       805-5.00176E+01-1.26028E+00 2.21208E-01 9.02760E-01 1.08358E-13 7.04992E-15
 -1       806-5.00176E+01-1.26028E+00 2.21208E-01-9.02760E-01 2.57572E-14-5.44009E-15
 -1       807-4.52872E+01 1.38315E+00 1.92788E-01-3.31639E+00-2.06501E-14 4.44089E-16
 -1       808-3.70202E+01 7.20145E+00 1.40021E-01-7.22971E+00-2.18714E-13-3.99680E-15
 -1       809-2.71153E+01 1.68579E+01 6.58898E-02-1.27363E+01 1.21347E-13 1.64313E-14
 -1       810-1.74572E+01 3.06022E+01-2.98680E-02-1.90738E+01-3.74145E-14-1.42109E-14
 -1       811-9.30650E+00 4.79204E+01-1.38259E-01-2.49833E+01 1.24345E-14-8.43769E-15
 -1       812-3.13137E+00 6.75069E+01-2.70714E-01-2.92692E+01-3.93019E-14 1.11022E-14
 -1       813-1.16978E+01 8.02066E+01-3.68249E-01 2.81274E+01 1.05249E-13 1.64313E-14
 -1       814-1.48687E+01 6.13434E+01-2.62889E-01 2.79472E+01 3.87468E-14-4.44089E-15
 -1       815-1.86889E+01 4.27939E+01-1.20406E-01 2.52129E+01-6.24223E-14-2.53131E-14
 -1       816-2.33465E+01 2.63682E+01 6.61669E-02 2.04449E+01-4.70735E-14-1.02141E-14
 -1       817-2.84361E+01 1.34842E+01 2.71289E-01 1.45848E+01 6.68354E-14 3.33067E-15
 -1       818-3.29443E+01 4.85726E+00 4.50430E-01 8.54742E+00-1.99396E-13-2.53131E-14
 -1       819-3.56262E+01 6.00088E-01 5.56079E-01 2.79027E+00 4.97380E-14 1.77081E-14
 -1       820-3.56262E+01 6.00088E-01 5.56079E-01-2.79027E+00-2.22045E-15-1.59317E-14
 -1       821-3.29443E+01 4.85726E+00 4.50430E-01-8.54742E+00 8.34888E-14-5.77316E-15
 -1       822-2.84361E+01 1.34842E+01 2.71289E-01-1.45848E+01-7.10543E-15 2.06501E-14
 -1       823-2.33465E+01 2.63682E+01 6.61669E-02-2.04449E+01 7.62723E-14-1.22125E-14
 -1       824-1.86889E+01 4.27939E+01-1.20406E-01-2.52129E+01 1.27620E-13 3.68594E-14
 -1       825-1.48687E+01 6.13434E+01-2.62889E-01-2.79472E+01 3.14748E-14 1.57652E-14
 -1       826-1.16978E+01 8.02066E+01-3.68249E-01-2.81274E+01 2.39808E-14 1.73195E-14
 -1       827-1.62816E+01 8.86155E+01-3.76300E-01 2.59585E+01-5.85088E-14-1.04361E-14
 -1       828-1.78614E+01 7.13760E+01-3.38598E-01 2.84324E+01-8.34888E-14-1.31006E-14
 -1       829-1.90713E+01 5.29721E+01-2.40153E-01 2.81301E+01-1.42775E-13 6.21725E-15
 -1       830-2.03834E+01 3.53482E+01-6.70585E-02 2.49335E+01 2.07612E-13 2.17604E-14
 -1       831-2.19731E+01 2.04774E+01 1.57700E-01 1.93166E+01 1.11022E-14-3.33067E-15
 -1       832-2.35698E+01 9.87696E+00 3.74953E-01 1.21064E+01-3.26406E-14-2.75335E-14
 -1       833-2.46010E+01 4.41054E+00 5.10031E-01 4.10832E+00 8.85958E-14 1.49325E-14
 -1       834-2.46010E+01 4.41054E+00 5.10031E-01-4.10832E+00-5.44009E-14-4.88498E-15
 -1       835-2.35698E+01 9.87696E+00 3.74953E-01-1.21064E+01 2.84217E-14-6.21725E-15
 -1       836-2.19731E+01 2.04774E+01 1.57700E-01-1.93166E+01 2.20046E-13 6.88338E-15
 -1       837-2.03834E+01 3.53482E+01-6.70585E-02-2.49335E+01-2.12608E-13-3.24185E-14
 -1       838-1.90713E+01 5.29721E+01-2.40153E-01-2.81301E+01-2.29344E-13-3.99680E-14
 -1       839-1.78614E+01 7.13760E+01-3.38598E-01-2.84324E+01 6.17839E-14 1.48770E-14
 -1       840-1.62816E+01 8.86155E+01-3.76300E-01-2.59585E+01-3.33067E-14-1.08802E-14
 -1       841-1.82256E+01 9.39261E+01-3.31624E-01 2.32951E+01 1.47660E-14 1.68754E-14
 -1       842-1.90225E+01 7.87203E+01-3.51444E-01 2.73453E+01 5.58442E-14-5.10703E-15
 -1       843-1.87587E+01 6.13318E+01-3.08821E-01 2.87936E+01 1.28453E-13-3.77476E-15
 -1       844-1.79498E+01 4.35933E+01-1.83472E-01 2.70072E+01-1.18905E-13 5.99520E-15
 -1       845-1.71116E+01 2.77525E+01 1.22698E-02 2.19735E+01-1.64313E-14 3.26406E-14
 -1       846-1.65518E+01 1.59212E+01 2.20778E-01 1.42931E+01 2.53353E-13 3.03091E-14
 -1       847-1.63096E+01 9.62535E+00 3.57203E-01 4.95006E+00-2.04059E-13-1.44329E-14
 -1       848-1.63096E+01 9.62535E+00 3.57203E-01-4.95006E+00 1.99840E-15-8.71525E-15
 -1       849-1.65518E+01 1.59212E+01 2.20778E-01-1.42931E+01-4.59632E-14-2.53131E-14
 -1       850-1.71116E+01 2.77525E+01 1.22698E-02-2.19735E+01 1.43219E-14-1.35447E-14
 -1       851-1.79498E+01 4.35933E+01-1.83472E-01-2.70072E+01-8.83738E-14 1.15463E-14
 -1       852-1.87587E+01 6.13318E+01-3.08821E-01-2.87936E+01 2.03323E-13 3.50830E-14
 -1       853-1.90225E+01 7.87203E+01-3.51444E-01-2.73453E+01-1.29008E-13-4.41869E-14
 -1       854-1.82256E+01 9.39261E+01-3.31624E-01-2.32951E+01 9.00391E-14 2.19824E-14
 -1       855-1.84818E+01 9.70485E+01-2.66771E-01 2.04757E+01 7.18314E-14-4.44089E-15
 -1       856-1.89394E+01 8.39756E+01-3.24522E-01 2.53308E+01-7.52176E-14-2.83107E-14
 -1       857-1.79278E+01 6.80969E+01-3.28141E-01 2.79473E+01-9.91013E-14-1.22125E-14
 -1       858-1.58763E+01 5.09965E+01-2.54422E-01 2.73313E+01-6.99441E-15-1.42109E-14
 -1       859-1.34577E+01 3.49817E+01-1.04203E-01 2.30385E+01-8.43769E-15 2.03171E-14
 -1       860-1.13882E+01 2.25528E+01 7.42301E-02 1.53850E+01-1.52323E-13-1.65423E-14
 -1       861-1.02148E+01 1.57691E+01 1.97284E-01 5.40407E+00 8.19345E-14 1.47660E-14
 -1       862-1.02148E+01 1.57691E+01 1.97284E-01-5.40407E+00 5.97300E-14 6.77236E-15
 -1       863-1.13882E+01 2.25528E+01 7.42301E-02-1.53850E+01-3.13083E-14 2.55351E-14
 -1       864-1.34577E+01 3.49817E+01-1.04203E-01-2.30385E+01-4.36318E-14-1.55431E-15
 -1       865-1.58763E+01 5.09965E+01-2.54422E-01-2.73313E+01 2.05613E-13 9.99201E-15
 -1       866-1.79278E+01 6.80969E+01-3.28141E-01-2.79473E+01 3.95309E-14-1.31006E-14
 -1       867-1.89394E+01 8.39756E+01-3.24522E-01-2.53308E+01 1.02113E-13 2.62013E-14
 -1       868-1.84818E+01 9.70485E+01-2.66771E-01-2.04757E+01-1.67033E-13-1.77636E-15
 -1       869-1.77142E+01 9.86636E+01-2.00578E-01 1.77101E+01-5.66214E-15 2.33147E-15
 -1       870-1.80598E+01 8.76381E+01-2.79022E-01 2.28389E+01 2.34812E-14-1.82077E-14
 -1       871-1.67454E+01 7.34990E+01-3.14798E-01 2.61540E+01 8.79713E-14-1.49880E-14
 -1       872-1.40604E+01 5.75233E+01-2.85622E-01 2.64454E+01-6.49480E-14 7.77156E-16
 -1       873-1.07084E+01 4.19275E+01-1.82623E-01 2.29293E+01-2.81997E-14 1.08802E-14
 -1       874-7.66213E+00 2.94167E+01-4.19985E-02 1.56342E+01-3.33067E-15-3.05311E-15
 -1       875-5.85465E+00 2.24388E+01 6.08456E-02 5.55313E+00-1.66533E-14 9.27036E-15
 -1       876-5.85465E+00 2.24388E+01 6.08456E-02-5.55313E+00-3.57492E-14 5.52336E-15
 -1       877-7.66213E+00 2.94167E+01-4.19985E-02-1.56342E+01-3.16414E-14-1.26565E-14
 -1       878-1.07084E+01 4.19275E+01-1.82623E-01-2.29293E+01 2.15494E-13 2.50910E-14
 -1       879-1.40604E+01 5.75233E+01-2.85622E-01-2.64454E+01-1.02141E-13-5.10703E-15
 -1       880-1.67454E+01 7.34990E+01-3.14798E-01-2.61540E+01-6.72379E-14-2.14273E-14
 -1       881-1.80598E+01 8.76381E+01-2.79022E-01-2.28389E+01-2.74225E-14-1.59872E-14
 -1       882-1.77142E+01 9.86636E+01-2.00578E-01-1.77101E+01-9.54792E-14 7.77156E-15
 -1       883-1.63758E+01 9.92710E+01-1.42019E-01 1.51203E+01-6.06182E-14 3.71925E-15
 -1       884-1.67131E+01 9.01087E+01-2.28572E-01 2.01743E+01-5.13201E-14-1.44329E-15
 -1       885-1.53538E+01 7.77601E+01-2.83547E-01 2.38280E+01 5.61114E-14 1.54321E-14
 -1       886-1.24410E+01 6.31897E+01-2.88692E-01 2.47761E+01 8.88178E-14 1.05471E-14
 -1       887-8.63184E+00 4.84288E+01-2.28148E-01 2.19968E+01 3.88578E-16-1.90958E-14
 -1       888-5.03055E+00 3.62358E+01-1.25930E-01 1.52630E+01 6.55032E-14 9.54792E-15
 -1       889-2.83562E+00 2.93041E+01-4.55701E-02 5.47228E+00-1.70974E-13-2.26208E-14
 -1       890-2.83562E+00 2.93041E+01-4.55701E-02-5.47228E+00 2.68674E-14-1.37390E-14
 -1       891-5.03055E+00 3.62358E+01-1.25930E-01-1.52630E+01-2.62013E-14 3.33067E-15
 -1       892-8.63184E+00 4.84288E+01-2.28148E-01-2.19968E+01-8.24341E-14 2.44249E-15
 -1       893-1.24410E+01 6.31897E+01-2.88692E-01-2.47761E+01 9.35918E-14 4.44089E-14
 -1       894-1.53538E+01 7.77601E+01-2.83547E-01-2.38280E+01-3.14124E-14-3.77476E-15
 -1       895-1.67131E+01 9.01087E+01-2.28572E-01-2.01743E+01 4.97380E-14 1.01030E-14
 -1       896-1.63758E+01 9.92710E+01-1.42019E-01-1.51203E+01-6.31717E-14-4.32987E-15
 -1       897-1.47667E+01 9.92293E+01-9.43374E-02 1.27696E+01 9.02889E-14 1.15463E-14
 -1       898-1.51325E+01 9.17035E+01-1.80773E-01 1.75348E+01-1.53599E-13 1.55431E-15
 -1       899-1.38664E+01 8.10830E+01-2.44699E-01 2.12651E+01 1.10849E-14-1.22125E-14
 -1       900-1.09829E+01 6.80455E+01-2.73945E-01 2.26503E+01 3.71925E-15-1.99840E-15
 -1       901-7.05210E+00 5.43870E+01-2.48456E-01 2.05266E+01-5.00155E-14-9.88098E-15
 -1       902-3.21607E+00 4.28034E+01-1.81422E-01 1.44610E+01 9.53682E-14-9.15934E-15
 -1       903-8.29566E-01 3.61048E+01-1.23076E-01 5.22706E+00-6.55032E-15 1.16435E-14
 -1       904-8.29566E-01 3.61048E+01-1.23076E-01-5.22706E+00 8.29337E-14-1.17545E-14
 -1       905-3.21607E+00 4.28034E+01-1.81422E-01-1.44610E+01 8.16014E-14 3.04201E-14
 -1       906-7.05210E+00 5.43870E+01-2.48456E-01-2.05266E+01-1.07248E-13-1.77636E-14
 -1       907-1.09829E+01 6.80455E+01-2.73945E-01-2.26503E+01-2.93376E-14 7.77156E-16
 -1       908-1.38664E+01 8.10830E+01-2.44699E-01-2.12651E+01 1.41888E-13 9.43690E-16
 -1       909-1.51325E+01 9.17035E+01-1.80773E-01-1.75348E+01-9.06497E-14 2.29816E-14
 -1       910-1.47667E+01 9.92293E+01-9.43374E-02-1.27696E+01 1.29924E-13 2.09277E-14
 -1       911-1.30781E+01 9.87901E+01-5.77151E-02 1.06828E+01 9.29812E-15-1.34615E-14
 -1       912-1.34763E+01 9.26668E+01-1.39271E-01 1.50413E+01-6.41154E-14 1.15463E-14
 -1       913-1.23672E+01 8.36455E+01-2.04806E-01 1.86679E+01-4.17583E-14-7.49401E-15
 -1       914-9.66495E+00 7.21600E+01-2.49208E-01 2.03101E+01-1.09995E-13-1.06026E-14
 -1       915-5.83775E+00 5.97527E+01-2.50679E-01 1.87430E+01 4.06897E-14-6.66134E-16
 -1       916-1.99915E+00 4.89754E+01-2.13653E-01 1.33834E+01 3.31402E-14 2.72005E-15
 -1       917 4.30314E-01 4.26458E+01-1.75209E-01 4.87263E+00-6.52811E-14 1.09773E-14
 -1       918 4.30314E-01 4.26458E+01-1.75209E-01-4.87263E+00-6.71685E-14-2.69507E-14
 -1       919-1.99915E+00 4.89754E+01-2.13653E-01-1.33834E+01 3.46945E-14-2.57017E-14
 -1       920-5.83775E+00 5.97527E+01-2.50679E-01-1.87430E+01-2.23710E-14 1.38778E-14
 -1       921-9.66495E+00 7.21600E+01-2.49208E-01-2.03101E+01 2.78944E-14 1.83742E-14
 -1       922-1.23672E+01 8.36455E+01-2.04806E-01-1.86679E+01-2.73731E-14-1.30451E-14
 -1       923-1.34763E+01 9.26668E+01-1.39271E-01-1.50413E+01 6.44901E-14-3.20299E-14
 -1       924-1.30781E+01 9.87901E+01-5.77151E-02-1.06828E+01-1.88183E-14 1.09357E-14
 -1       925-1.14252E+01 9.81261E+01-3.07343E-02 8.85996E+00-7.27474E-14 1.58207E-15
 -1       926-1.18457E+01 9.31829E+01-1.05216E-01 1.27603E+01 2.76723E-14 2.01228E-14
 -1       927-1.09139E+01 8.55993E+01-1.67664E-01 1.61686E+01-7.23848E-14-2.05391E-14
 -1       928-8.47337E+00 7.56119E+01-2.20019E-01 1.79282E+01 3.74284E-14-9.21485E-15
 -1       929-4.89124E+00 6.45142E+01-2.40707E-01 1.68164E+01-2.72560E-14 3.94129E-15
 -1       930-1.20985E+00 5.46602E+01-2.27744E-01 1.21539E+01 1.32394E-13 2.56462E-14
 -1       931 1.15524E+00 4.87905E+01-2.06228E-01 4.45376E+00 5.95635E-14-2.05946E-14
 -1       932 1.15524E+00 4.87905E+01-2.06228E-01-4.45376E+00-2.58127E-14-1.76387E-14
 -1       933-1.20985E+00 5.46602E+01-2.27744E-01-1.21539E+01-1.27010E-13 1.09912E-14
 -1       934-4.89124E+00 6.45142E+01-2.40707E-01-1.68164E+01 1.27648E-13-8.10463E-15
 -1       935-8.47337E+00 7.56119E+01-2.20019E-01-1.79282E+01-7.60364E-14 5.77316E-15
 -1       936-1.09139E+01 8.55993E+01-1.67664E-01-1.61686E+01 9.94808E-14-4.77396E-15
 -1       937-1.18457E+01 9.31829E+01-1.05216E-01-1.27603E+01-6.33521E-14 2.94209E-15
 -1       938-1.14252E+01 9.81261E+01-3.07343E-02-8.85996E+00 4.94049E-14 2.50910E-14
 -1       939-9.87242E+00 9.73527E+01-1.17476E-02 7.28576E+00-7.31637E-14-2.20379E-14
 -1       940-1.03004E+01 9.33875E+01-7.92068E-02 1.07206E+01-1.65853E-13-1.36002E-14
 -1       941-9.54211E+00 8.70686E+01-1.36231E-01 1.38467E+01 5.19558E-14 7.82707E-15
 -1       942-7.39697E+00 7.84807E+01-1.91100E-01 1.56222E+01 3.96627E-14 5.13478E-15
 -1       943-4.14065E+00 6.86855E+01-2.23766E-01 1.48719E+01 4.72400E-14 8.60423E-16
 -1       944-7.19440E-01 5.98095E+01-2.28331E-01 1.08671E+01 2.42584E-14 1.83187E-15
 -1       945 1.50791E+00 5.44525E+01-2.20036E-01 4.00574E+00 1.08802E-14 1.24900E-15
 -1       946 1.50791E+00 5.44525E+01-2.20036E-01-4.00574E+00 7.57172E-14-6.63358E-15
 -1       947-7.19440E-01 5.98095E+01-2.28331E-01-1.08671E+01-1.28231E-14-1.65978E-14
 -1       948-4.14065E+00 6.86855E+01-2.23766E-01-1.48719E+01-1.07137E-14-2.83662E-14
 -1       949-7.39697E+00 7.84807E+01-1.91100E-01-1.56222E+01 2.03407E-13 1.13243E-14
 -1       950-9.54211E+00 8.70686E+01-1.36231E-01-1.38467E+01-7.43663E-14-3.31957E-14
 -1       951-1.03004E+01 9.33875E+01-7.92068E-02-1.07206E+01 1.09725E-13 3.22797E-14
 -1       952-9.87242E+00 9.73527E+01-1.17476E-02-7.28576E+00-1.49367E-13-6.13398E-15
 -1       953-8.44823E+00 9.65521E+01 8.28510E-03 5.93528E+00 1.12410E-14 1.21708E-14
 -1       954-8.86507E+00 9.33889E+01-5.02888E-02 8.92407E+00 8.67847E-14 1.71529E-14
 -1       955-8.26187E+00 8.81636E+01-1.01041E-01 1.17418E+01 1.45066E-14 2.30371E-15
 -1       956-6.41707E+00 8.08501E+01-1.56470E-01 1.34666E+01-7.10682E-14 3.58047E-15
 -1       957-3.52830E+00 7.23030E+01-1.98736E-01 1.29986E+01-3.19744E-14 6.93889E-15
 -1       958-4.32431E-01 6.44088E+01-2.19100E-01 9.59582E+00 3.32789E-14-1.55986E-14
 -1       959 1.60694E+00 5.95849E+01-2.23422E-01 3.55646E+00 5.60663E-15 1.75068E-14
 -1       960 1.60694E+00 5.95849E+01-2.23422E-01-3.55646E+00 1.55986E-14-1.59733E-14
 -1       961-4.32431E-01 6.44088E+01-2.19100E-01-9.59582E+00 5.30131E-15 1.16018E-14
 -1       962-3.52830E+00 7.23030E+01-1.98736E-01-1.29986E+01 2.21878E-13 1.81521E-14
 -1       963-6.41707E+00 8.08501E+01-1.56470E-01-1.34666E+01-1.43337E-13-1.02696E-15
 -1       964-8.26187E+00 8.81636E+01-1.01041E-01-1.17418E+01 2.59878E-14 1.58484E-14
 -1       965-8.86507E+00 9.33889E+01-5.02888E-02-8.92407E+00-5.64132E-14-3.40561E-14
 -1       966-8.44823E+00 9.65521E+01 8.28510E-03-5.93528E+00-6.84175E-14 2.04281E-14
 -1       967-7.20375E+00 9.57211E+01-3.60247E-02 4.78430E+00-3.69982E-14-1.17129E-14
 -1       968-7.60181E+00 9.31862E+01-1.04698E-01 7.35771E+00-7.07004E-14-7.46625E-15
 -1       969-7.12813E+00 8.88824E+01-1.56978E-01 9.86313E+00 1.55639E-14-2.22045E-15
 -1       970-5.56104E+00 8.27106E+01-2.01788E-01 1.14989E+01 7.10473E-14 1.60982E-15
 -1       971-3.03608E+00 7.53574E+01-2.17977E-01 1.12551E+01 7.82846E-14-1.04916E-14
 -1       972-2.79743E-01 6.84660E+01-2.02950E-01 8.39581E+00-5.14588E-14 9.86711E-15
 -1       973 1.55667E+00 6.42158E+01-1.80658E-01 3.12930E+00-6.68909E-15-4.52416E-15
 -1       974 1.55667E+00 6.42158E+01-1.80658E-01-3.12930E+00-1.13881E-13-4.52416E-15
 -1       975-2.79743E-01 6.84660E+01-2.02950E-01-8.39581E+00 6.70020E-14-6.46705E-15
 -1       976-3.03608E+00 7.53574E+01-2.17977E-01-1.12551E+01-4.84612E-14 2.85605E-14
 -1       977-5.56104E+00 8.27106E+01-2.01788E-01-1.14989E+01-4.46518E-15-3.10307E-14
 -1       978-7.12813E+00 8.88824E+01-1.56978E-01-9.86313E+00 1.86573E-13 5.68989E-15
 -1       979-7.60181E+00 9.31862E+01-1.04698E-01-7.35771E+00 8.53345E-14 6.20615E-14
 -1       980-7.20375E+00 9.57211E+01-3.60247E-02-4.78430E+00-1.10960E-13-5.65104E-14
 -1       981 2.53008E+01 9.38056E+01-4.78072E-01-4.62417E+01 6.97220E-14 1.95399E-14
 -1       982 2.88680E+01 1.20974E+02-3.61990E-01-5.27774E+01 1.01252E-13 3.88578E-15
 -1       983 2.85135E+01 1.50827E+02-1.47325E-01-5.55360E+01 1.30118E-13 5.00155E-14
 -1       984 2.48860E+01 1.80950E+02 1.57826E-01-5.29041E+01-4.35207E-14 1.49880E-14
 -1       985 1.94521E+01 2.08093E+02 4.73132E-01-4.40243E+01 8.92619E-14-3.33067E-15
 -1       986 1.41985E+01 2.28780E+02 7.26715E-01-2.92412E+01 1.32339E-13 6.88338E-15
 -1       987 1.10082E+01 2.40045E+02 8.66918E-01-1.02125E+01 2.04836E-14-4.92939E-14
 -1       988 1.10288E+01 2.40168E+02 8.67570E-01 1.03754E+01-1.09524E-13-9.32587E-15
 -1       989 1.42651E+01 2.29130E+02 7.28373E-01 2.94419E+01 4.39648E-14 1.66533E-14
 -1       990 1.95752E+01 2.08621E+02 4.74970E-01 4.42882E+01 1.41220E-13 2.68674E-14
 -1       991 2.50744E+01 1.81587E+02 1.58715E-01 5.32368E+01 1.80300E-13 5.10703E-15
 -1       992 2.87667E+01 1.51502E+02-1.48416E-01 5.59239E+01 1.14131E-13 2.02061E-14
 -1       993 2.91724E+01 1.21629E+02-3.65507E-01 5.31943E+01 4.44089E-15-2.77556E-15
 -1       994 2.56318E+01 9.44017E+01-4.83650E-01 4.66585E+01 4.44089E-14 2.24265E-14
 -1       995 9.60993E+00 1.05686E+02-1.18623E-01-3.40373E+01 1.06581E-14 8.88178E-16
 -1       996 1.62179E+01 1.25102E+02-2.09221E-01-3.60407E+01-1.51434E-13-3.15303E-14
 -1       997 2.08300E+01 1.46300E+02-2.93460E-01-3.66849E+01-5.41789E-14-4.24660E-15
 -1       998 2.29258E+01 1.67981E+02-3.62851E-01-3.47004E+01 7.23865E-14-1.19904E-14
 -1       999 2.28470E+01 1.87992E+02-4.09963E-01-2.90301E+01-4.08562E-14 8.43769E-15
 -1      1000 2.16508E+01 2.03601E+02-4.40006E-01-1.94222E+01-1.33005E-13 5.32907E-15
 -1      1001 2.06318E+01 2.12237E+02-4.55574E-01-6.76560E+00-7.92699E-14 4.13003E-14
 -1      1002 2.06686E+01 2.12329E+02-4.56457E-01 7.04663E+00 6.52256E-14-3.06422E-14
 -1      1003 2.17607E+01 2.03864E+02-4.42503E-01 1.97188E+01-4.26326E-14-5.77316E-15
 -1      1004 2.30266E+01 1.88394E+02-4.13679E-01 2.93505E+01-1.89848E-13-4.77396E-14
 -1      1005 2.31645E+01 1.68478E+02-3.67289E-01 3.50422E+01-1.09246E-13-1.35447E-14
 -1      1006 2.11084E+01 1.46849E+02-2.98097E-01 3.70387E+01-1.76748E-13 1.44607E-14
 -1      1007 1.65106E+01 1.25670E+02-2.13578E-01 3.63955E+01-1.12355E-13-1.95399E-14
 -1      1008 9.89181E+00 1.06249E+02-1.22397E-01 3.43861E+01 1.81188E-13-2.22045E-15
 -1      1009-6.70985E-01 1.12126E+02 5.29791E-02-2.51996E+01 4.37428E-14 1.36557E-14
 -1      1010 7.11857E+00 1.26471E+02-2.43292E-02-2.42026E+01-4.30767E-14 5.38458E-15
 -1      1011 1.44942E+01 1.41683E+02-1.54800E-01-2.31079E+01-4.61853E-14-6.66134E-15
 -1      1012 2.03820E+01 1.57141E+02-3.31058E-01-2.11843E+01-1.07692E-13-3.95239E-14
 -1      1013 2.42493E+01 1.71531E+02-5.24058E-01-1.75609E+01 3.57492E-14 2.39808E-14
 -1      1014 2.62651E+01 1.82916E+02-6.91521E-01-1.17411E+01-1.01474E-13-3.15303E-14
 -1      1015 2.70376E+01 1.89291E+02-7.90316E-01-4.03766E+00 1.07025E-13 1.59872E-14
 -1      1016 2.70845E+01 1.89361E+02-7.91529E-01 4.41008E+00 8.42659E-14 4.44089E-16
 -1      1017 2.64011E+01 1.83118E+02-6.94765E-01 1.21129E+01-1.86517E-14 4.44089E-16
 -1      1018 2.44601E+01 1.71844E+02-5.28358E-01 1.79291E+01-1.64757E-13-3.33067E-15
 -1      1019 2.06438E+01 1.57542E+02-3.35333E-01 2.15437E+01 1.02585E-13 1.44329E-14
 -1      1020 1.47776E+01 1.42148E+02-1.58266E-01 2.34546E+01 2.11831E-13 1.34892E-14
 -1      1021 7.39525E+00 1.26981E+02-2.66921E-02 2.45370E+01-5.04041E-14 9.27036E-15
 -1      1022-4.21112E-01 1.12662E+02 5.15270E-02 2.55267E+01 1.86295E-13 7.54952E-15
 -1      1023-7.04845E+00 1.14952E+02 1.17093E-01-1.87728E+01-4.84057E-14 1.64313E-14
 -1      1024 7.93447E-01 1.25907E+02 8.67802E-02-1.59174E+01-9.03722E-14-1.98730E-14
 -1      1025 9.43246E+00 1.36992E+02-1.21191E-02-1.35231E+01-3.28626E-14-5.01821E-14
 -1      1026 1.76017E+01 1.47926E+02-1.86211E-01-1.13920E+01 2.97540E-14 5.85088E-14
 -1      1027 2.42019E+01 1.57989E+02-4.09821E-01-9.01196E+00 4.92939E-14 3.99680E-15
 -1      1028 2.86369E+01 1.65959E+02-6.23936E-01-5.88490E+00-1.74749E-13-4.44089E-14
 -1      1029 3.08232E+01 1.70444E+02-7.56725E-01-1.93199E+00-2.76446E-14 1.90958E-14
 -1      1030 3.08756E+01 1.70498E+02-7.57801E-01 2.37609E+00-1.88960E-13-1.48770E-14
 -1      1031 2.87862E+01 1.66118E+02-6.26692E-01 6.31727E+00 3.83027E-14 4.46310E-14
 -1      1032 2.44260E+01 1.58244E+02-4.13151E-01 9.42285E+00 1.97620E-13 3.10862E-14
 -1      1033 1.78691E+01 1.48266E+02-1.89027E-01 1.17762E+01-2.64455E-13-5.01821E-14
 -1      1034 9.70990E+00 1.37404E+02-1.38453E-02 1.38821E+01 1.11022E-14-2.46747E-14
 -1      1035 1.05468E+00 1.26377E+02 8.61210E-02 1.62588E+01 4.64073E-14 3.94129E-15
 -1      1036-6.81693E+00 1.15467E+02 1.17061E-01 1.91073E+01 1.62093E-14 1.34337E-14
 -1      1037-1.06773E+01 1.15446E+02 1.25568E-01-1.40783E+01-1.63203E-14-4.90719E-14
 -1      1038-3.40461E+00 1.24072E+02 1.32624E-01-1.01937E+01-1.62093E-14 2.73670E-14
 -1      1039 5.50813E+00 1.32312E+02 7.77865E-02-6.92378E+00 5.63993E-14 2.60625E-14
 -1      1040 1.48309E+01 1.40006E+02-5.89196E-02-4.51123E+00-2.88658E-14-1.25455E-14
 -1      1041 2.31548E+01 1.46817E+02-2.62923E-01-2.84257E+00-4.44089E-16-1.80966E-14
 -1      1042 2.92939E+01 1.52103E+02-4.75801E-01-1.56199E+00 3.15636E-13 5.24025E-14
 -1      1043 3.25336E+01 1.55058E+02-6.14012E-01-3.56790E-01-2.56517E-13-4.99600E-14
 -1      1044 3.25880E+01 1.55102E+02-6.14817E-01 8.58822E-01 1.83409E-13 2.55351E-14
 -1      1045 2.94471E+01 1.52235E+02-4.77765E-01 2.04535E+00-2.35811E-13-4.88498E-14
 -1      1046 2.33803E+01 1.47035E+02-2.65048E-01 3.29404E+00-1.61648E-13 3.33067E-15
 -1      1047 1.50934E+01 1.40308E+02-6.03436E-02 4.92679E+00-9.08162E-14 2.27596E-14
 -1      1048 5.77472E+00 1.32692E+02 7.73588E-02 7.30891E+00 2.94653E-13 3.38618E-15
 -1      1049-3.15568E+00 1.24520E+02 1.32973E-01 1.05601E+01-1.55653E-13-2.60902E-14
 -1      1050-1.04535E+01 1.15949E+02 1.26167E-01 1.44383E+01-5.47340E-14 1.59872E-14
 -1      1051-1.24201E+01 1.14505E+02 1.10101E-01-1.06295E+01 1.80300E-13 1.79856E-14
 -1      1052-6.01269E+00 1.21477E+02 1.37850E-01-6.29667E+00-6.33937E-14-2.41474E-14
 -1      1053 2.55799E+00 1.27745E+02 1.20519E-01-2.52030E+00-5.15143E-14-1.94775E-14
 -1      1054 1.22253E+01 1.33150E+02 2.67641E-02 1.38354E-01 1.15019E-13 2.40918E-14
 -1      1055 2.14677E+01 1.37576E+02-1.39786E-01 1.42969E+00-1.33227E-14-2.99760E-15
 -1      1056 2.86908E+01 1.40818E+02-3.29118E-01 1.50077E+00-7.49401E-14 2.75335E-14
 -1      1057 3.26547E+01 1.42576E+02-4.57580E-01 7.76024E-01 1.79329E-13 8.21565E-15
 -1      1058 3.27087E+01 1.42614E+02-4.58112E-01-2.24844E-01 1.26843E-14 1.33227E-14
 -1      1059 2.88419E+01 1.40934E+02-3.30336E-01-9.71988E-01 1.84075E-13 7.99361E-15
 -1      1060 2.16870E+01 1.37774E+02-1.40896E-01-9.37777E-01 9.32587E-15 9.43690E-15
 -1      1061 1.24775E+01 1.33432E+02 2.63479E-02 3.14215E-01 1.58318E-13 2.60902E-15
 -1      1062 2.81288E+00 1.28109E+02 1.20873E-01 2.94157E+00 3.26406E-14 1.26704E-14
 -1      1063-5.77172E+00 1.21915E+02 1.38682E-01 6.69973E+00 1.63647E-13 5.56222E-14
 -1      1064-1.21956E+01 1.15005E+02 1.10850E-01 1.10262E+01 1.76081E-13-2.15383E-14
 -1      1065-1.29119E+01 1.12749E+02 8.76621E-02-8.07669E+00-1.98730E-14 2.19824E-14
 -1      1066-7.46378E+00 1.18498E+02 1.22183E-01-3.68515E+00-1.04916E-13-1.93456E-14
 -1      1067 4.13470E-01 1.23383E+02 1.31760E-01 2.99988E-01-9.10383E-14-5.70446E-14
 -1      1068 9.87277E+00 1.27191E+02 7.61638E-02 3.11778E+00-6.83897E-14 2.43139E-14
 -1      1069 1.94174E+01 1.29914E+02-4.96037E-02 4.22737E+00-7.09433E-14 8.99281E-15
 -1      1070 2.72098E+01 1.31651E+02-2.06552E-01 3.55469E+00-1.23790E-13-4.11893E-14
 -1      1071 3.16099E+01 1.32508E+02-3.17883E-01 1.54958E+00 1.54043E-14-5.32907E-15
 -1      1072 3.16621E+01 1.32543E+02-3.18188E-01-9.54050E-01 7.77711E-14-7.77156E-15
 -1      1073 2.73549E+01 1.31760E+02-2.07179E-01-2.98290E+00-2.56406E-13 1.83187E-14
 -1      1074 1.96268E+01 1.30103E+02-4.99841E-02-3.69368E+00 1.45550E-13 9.99201E-16
 -1      1075 1.01128E+01 1.27465E+02 7.63754E-02-2.62327E+00 8.59313E-14 2.27596E-15
 -1      1076 6.58208E-01 1.23742E+02 1.32501E-01 1.64573E-01-3.53051E-14-1.96024E-14
 -1      1077-7.22602E+00 1.18936E+02 1.23175E-01 4.13261E+00 1.04028E-13 2.16771E-14
 -1      1078-1.26801E+01 1.13253E+02 8.82946E-02 8.51719E+00-7.29417E-14-1.27676E-14
 -1      1079-1.26106E+01 1.10593E+02 6.63280E-02-6.16905E+00 2.65343E-14 1.12410E-14
 -1      1080-8.09848E+00 1.15401E+02 9.82035E-02-1.96510E+00-1.93179E-14-6.24500E-15
 -1      1081-1.08471E+00 1.19297E+02 1.24785E-01 2.00472E+00-1.18572E-13 9.27730E-15
 -1      1082 7.81278E+00 1.22002E+02 9.94444E-02 4.87963E+00 1.57652E-13 1.84297E-14
 -1      1083 1.72097E+01 1.23545E+02 1.14644E-02 5.91083E+00-1.93623E-13 1.36557E-14
 -1      1084 2.51624E+01 1.24215E+02-1.11302E-01 4.82426E+00 1.82632E-14 2.59792E-14
 -1      1085 2.97582E+01 1.24422E+02-2.02634E-01 2.04000E+00-1.65146E-14 2.14273E-14
 -1      1086 2.98077E+01 1.24457E+02-2.02770E-01-1.40179E+00-5.16809E-14 3.99680E-15
 -1      1087 2.52998E+01 1.24323E+02-1.11512E-01-4.20950E+00 8.42659E-14-1.22125E-14
 -1      1088 1.74077E+01 1.23733E+02 1.15459E-02-5.33299E+00 2.33702E-13 4.00235E-14
 -1      1089 8.04110E+00 1.22279E+02 9.99792E-02-4.33879E+00-5.55112E-16 3.41394E-14
 -1      1090-8.47290E-01 1.19661E+02 1.25643E-01-1.49157E+00-1.42220E-13 9.65894E-15
 -1      1091-7.85928E+00 1.15847E+02 9.91798E-02 2.46213E+00-3.79696E-14-1.05471E-15
 -1      1092-1.23661E+01 1.11110E+02 6.67011E-02 6.65795E+00-1.55487E-13-3.01981E-14
 -1      1093-1.18386E+01 1.08307E+02 4.92217E-02-4.72731E+00 6.13953E-14 2.51743E-14
 -1      1094-8.17800E+00 1.12363E+02 7.31361E-02-8.53344E-01-1.27676E-15-2.29261E-14
 -1      1095-2.07872E+00 1.15535E+02 1.08837E-01 2.94414E+00 4.27436E-14-3.28435E-14
 -1      1096 6.05229E+00 1.17485E+02 1.05547E-01 5.78049E+00-2.05391E-14-5.63438E-15
 -1      1097 1.49913E+01 1.18236E+02 4.96729E-02 6.77869E+00 3.18079E-14-3.75810E-14
 -1      1098 2.27948E+01 1.18186E+02-4.09225E-02 5.50351E+00 9.14824E-14 2.30926E-14
 -1      1099 2.73945E+01 1.17947E+02-1.12119E-01 2.31460E+00-2.09638E-13-4.46310E-14
 -1      1100 2.74410E+01 1.17983E+02-1.12145E-01-1.63299E+00 1.20876E-13 6.77236E-15
 -1      1101 2.29239E+01 1.18297E+02-4.08783E-02-4.84405E+00 1.98175E-14 6.43929E-15
 -1      1102 1.51782E+01 1.18430E+02 4.99909E-02-6.15364E+00-1.22680E-13-1.94289E-15
 -1      1103 6.27077E+00 1.17770E+02 1.06176E-01-5.18936E+00 1.82243E-13-9.21485E-15
 -1      1104-1.84522E+00 1.15911E+02 1.09634E-01-2.37835E+00 2.53131E-14-2.13128E-14
 -1      1105-7.93305E+00 1.12824E+02 7.40036E-02 1.40354E+00 2.13163E-14 1.76387E-14
 -1      1106-1.15770E+01 1.08842E+02 4.92571E-02 5.26766E+00 5.15699E-14 1.85130E-14
 -1      1107-1.08167E+01 1.06055E+02 3.68801E-02-3.62341E+00-1.69448E-13-6.36435E-14
 -1      1108-7.89740E+00 1.09496E+02 5.06884E-02-1.49158E-01 3.00315E-14 2.87548E-14
 -1      1109-2.68994E+00 1.12122E+02 8.98313E-02 3.37550E+00-6.85008E-14-1.91860E-14
 -1      1110 4.57750E+00 1.13558E+02 1.01251E-01 6.09471E+00 8.42659E-14 2.52298E-14
 -1      1111 1.28612E+01 1.13799E+02 7.09222E-02 7.07157E+00-4.71845E-14-1.11577E-14
 -1      1112 2.02943E+01 1.13293E+02 8.47115E-03 5.75479E+00-1.04639E-13-2.32592E-14
 -1      1113 2.47528E+01 1.12771E+02-4.41067E-02 2.43085E+00 1.44912E-13 2.36478E-14
 -1      1114 2.47963E+01 1.12809E+02-4.40743E-02-1.70339E+00 9.47020E-14-4.44089E-15
 -1      1115 2.04154E+01 1.13410E+02 8.63211E-03-5.04764E+00-1.12743E-13-5.44009E-15
 -1      1116 1.30382E+01 1.14004E+02 7.12957E-02-6.39572E+00 1.65978E-13 2.88658E-15
 -1      1117 4.78858E+00 1.13856E+02 1.01803E-01-5.44959E+00-2.28095E-13 1.02696E-15
 -1      1118-2.45694E+00 1.12514E+02 9.04403E-02-2.75376E+00-1.83187E-13 3.26475E-15
 -1      1119-7.64287E+00 1.09976E+02 5.13926E-02 7.55155E-01 2.29761E-13 5.80092E-15
 -1      1120-1.05342E+01 1.06615E+02 3.65320E-02 4.21728E+00 2.50910E-14 1.27676E-15
 -1      1121-9.69126E+00 1.03932E+02 2.85875E-02-2.76605E+00 1.26760E-13-6.66134E-16
 -1      1122-7.39818E+00 1.06859E+02 3.23649E-02 2.87600E-01 1.17129E-13 2.66176E-14
 -1      1123-3.01812E+00 1.09063E+02 7.12597E-02 3.48389E+00-1.25677E-13-1.44711E-14
 -1      1124 3.36277E+00 1.10149E+02 9.13727E-02 6.02845E+00 1.77636E-14 1.35864E-14
 -1      1125 1.08810E+01 1.10083E+02 8.01306E-02 6.97819E+00 5.10147E-14 1.31561E-14
 -1      1126 1.77973E+01 1.09315E+02 4.09155E-02 5.70993E+00 2.66065E-13 3.90799E-14
 -1      1127 2.20118E+01 1.08633E+02 4.54036E-03 2.43628E+00-6.79456E-14 1.03251E-14
 -1      1128 2.20524E+01 1.08673E+02 4.58781E-03-1.65927E+00-2.41696E-13 4.38538E-15
 -1      1129 1.79113E+01 1.09441E+02 4.10791E-02-4.95124E+00 1.26843E-13-2.60902E-15
 -1      1130 1.10498E+01 1.10301E+02 8.04154E-02-6.24767E+00-1.03140E-13 3.38618E-15
 -1      1131 3.56903E+00 1.10463E+02 9.17154E-02-5.32581E+00 1.68754E-13 2.43278E-14
 -1      1132-2.78247E+00 1.09475E+02 7.15826E-02-2.80340E+00 7.21645E-14 2.35701E-14
 -1      1133-7.13076E+00 1.07363E+02 3.28577E-02 3.76151E-01 4.20497E-14-1.25733E-14
 -1      1134-9.38458E+00 1.04521E+02 2.78236E-02 3.41472E+00 2.49800E-15-5.68989E-16
 -1      1135-8.55637E+00 1.01986E+02 2.27996E-02-2.09060E+00-4.06619E-15-8.36831E-15
 -1      1136-6.77919E+00 1.04478E+02 1.87604E-02 5.52810E-01-2.62901E-13-2.39184E-14
 -1      1137-3.14140E+00 1.06347E+02 5.56094E-02 3.39931E+00 1.43496E-14 5.48086E-15
 -1      1138 2.37820E+00 1.07195E+02 7.98974E-02 5.73292E+00 1.92069E-14 1.46272E-14
 -1      1139 9.08491E+00 1.06962E+02 8.16943E-02 6.64307E+00 9.40081E-14 4.38538E-15
 -1      1140 1.53979E+01 1.06073E+02 6.02324E-02 5.47333E+00 2.77833E-14 2.25375E-14
 -1      1141 1.93010E+01 1.05321E+02 3.69509E-02 2.36918E+00-2.79915E-13-3.14193E-14
 -1      1142 1.93391E+01 1.05365E+02 3.69762E-02-1.53816E+00 1.97731E-13 4.49640E-15
 -1      1143 1.55057E+01 1.06208E+02 6.03023E-02-4.65871E+00-4.90163E-14 5.21805E-15
 -1      1144 9.24722E+00 1.07194E+02 8.17691E-02-5.85383E+00-3.56104E-14-1.64313E-14
 -1      1145 2.58197E+00 1.07528E+02 7.99135E-02-4.96942E+00 4.57689E-14-8.42382E-15
 -1      1146-2.90052E+00 1.06781E+02 5.55324E-02-2.65769E+00 8.79019E-14-1.13386E-15
 -1      1147-6.49628E+00 1.05009E+02 1.89318E-02 1.70076E-01 7.00828E-14-9.54792E-15
 -1      1148-8.22260E+00 1.02607E+02 2.15655E-02 2.79449E+00-3.15165E-13-7.11931E-15
 -1      1149-7.47106E+00 1.00234E+02 1.74737E-02-1.55195E+00 6.82787E-15-3.21687E-14
 -1      1150-6.11242E+00 1.02352E+02 3.96697E-03 7.09548E-01 5.20972E-14 3.38618E-14
 -1      1151-3.12604E+00 1.03946E+02 3.69679E-02 3.20921E+00 4.63241E-14-1.22038E-14
 -1      1152 1.58736E+00 1.04633E+02 6.27338E-02 5.31557E+00 2.38976E-14-2.94417E-14
 -1      1153 7.48346E+00 1.04330E+02 7.45946E-02 6.17499E+00-7.63278E-14-1.19627E-14
 -1      1154 1.31548E+01 1.03420E+02 6.87112E-02 5.12722E+00-9.56180E-14 6.21725E-15
 -1      1155 1.67100E+01 1.02667E+02 5.76683E-02 2.26040E+00 9.76511E-14-3.00870E-14
 -1      1156 1.67460E+01 1.02714E+02 5.76496E-02-1.37047E+00-6.40599E-14 3.58047E-15
 -1      1157 1.32573E+01 1.03565E+02 6.86342E-02-4.25207E+00-1.29341E-13-1.27953E-14
 -1      1158 7.64087E+00 1.04576E+02 7.44092E-02-5.32302E+00 1.16185E-13 2.83662E-14
 -1      1159 1.79061E+00 1.04985E+02 6.24219E-02-4.48806E+00-1.92624E-14-4.51028E-15
 -1      1160-2.87785E+00 1.04404E+02 3.65580E-02-2.40438E+00 3.04756E-14 2.53400E-15
 -1      1161-5.81201E+00 1.02910E+02 3.95877E-03 7.33214E-02-9.68947E-14 1.74721E-14
 -1      1162-7.10784E+00 1.00887E+02 1.58456E-02 2.31048E+00 2.19810E-13 2.08722E-14
 -1      1163-6.44894E+00 9.86892E+01 3.42217E-02-1.11069E+00-4.34097E-14 2.78527E-14
 -1      1164-5.40476E+00 1.00496E+02 3.52297E-02 8.01226E-01-2.30510E-14 9.13852E-15
 -1      1165-2.96408E+00 1.01866E+02 7.80644E-02 2.96844E+00-1.01086E-13 2.30475E-14
 -1      1166 1.02076E+00 1.02439E+02 1.04949E-01 4.84675E+00 9.04832E-15-1.31006E-14
 -1      1167 6.12229E+00 1.02121E+02 1.05165E-01 5.65236E+00-4.58522E-14 2.12608E-14
 -1      1168 1.11111E+01 1.01247E+02 7.76848E-02 4.73696E+00 1.30590E-14-3.83304E-14
 -1      1169 1.42709E+01 1.00528E+02 4.86023E-02 2.13592E+00 3.95101E-14 1.50435E-14
 -1      1170 1.43049E+01 1.00578E+02 4.84064E-02-1.18220E+00-8.30377E-14-2.77556E-15
 -1      1171 1.12088E+01 1.01400E+02 7.71049E-02-3.79679E+00 2.34562E-13 1.50158E-14
 -1      1172 6.27549E+00 1.02381E+02 1.04172E-01-4.73391E+00-6.30052E-14 1.68476E-14
 -1      1173 1.22407E+00 1.02809E+02 1.03450E-01-3.95245E+00-2.18270E-13-1.19210E-14
 -1      1174-2.70859E+00 1.02345E+02 7.58908E-02-2.09862E+00 1.48104E-13 1.83083E-14
 -1      1175-5.08813E+00 1.01081E+02 3.27789E-02 4.24066E-02 1.62287E-13 8.20177E-15
 -1      1176-6.05854E+00 9.93750E+01 2.91418E-02 1.92325E+00-2.26416E-13-4.94951E-14
 -1      1177 1.15870E+01 4.94274E+01-1.24574E-01 2.89047E+01-9.54792E-14 2.88658E-14
 -1      1178-2.76753E-02 3.05850E+01-1.79859E-01 1.85640E+01 6.67244E-14 2.17604E-14
 -1      1179-1.50937E+01 1.64886E+01-3.29493E-01 8.67662E+00-7.16371E-14 1.33227E-15
 -1      1180-3.20458E+01 7.26560E+00-5.72285E-01 9.80864E-01-4.24105E-14 1.11022E-14
 -1      1181-4.84314E+01 2.23613E+00-8.32966E-01-3.28955E+00-8.37108E-14-2.50910E-14
 -1      1182-6.14631E+01 9.62723E-02-1.04486E+00-3.87591E+00-1.58984E-13 6.66134E-16
 -1      1183-6.86958E+01-5.34096E-01-1.16188E+00-1.64341E+00 8.39329E-14-3.61378E-14
 -1      1184-6.86958E+01-5.34096E-01-1.16188E+00 1.64341E+00-3.37508E-14-1.68754E-14
 -1      1185-6.14631E+01 9.62723E-02-1.04486E+00 3.87591E+00-1.51434E-13 1.62093E-14
 -1      1186-4.84314E+01 2.23613E+00-8.32966E-01 3.28955E+00-4.52971E-14 1.50990E-14
 -1      1187-3.20458E+01 7.26560E+00-5.72285E-01-9.80864E-01 1.44273E-13 1.33227E-15
 -1      1188-1.50937E+01 1.64886E+01-3.29493E-01-8.67662E+00-1.72085E-14-3.55271E-15
 -1      1189-2.76751E-02 3.05850E+01-1.79859E-01-1.85640E+01-4.77396E-15 4.44089E-16
 -1      1190 1.15870E+01 4.94274E+01-1.24574E-01-2.89047E+01 1.01030E-13 3.55271E-15
 -1      1191-2.90281E+00 6.79979E+01-2.75907E-01 2.95994E+01-3.06422E-14-1.77636E-15
 -1      1192-9.10446E+00 4.83325E+01-1.42522E-01 2.52924E+01-5.68434E-14-3.99680E-15
 -1      1193-1.72923E+01 3.09166E+01-3.30031E-02 1.93445E+01-1.95011E-13-2.53131E-14
 -1      1194-2.69982E+01 1.70737E+01 6.40789E-02 1.29530E+01 1.52212E-13-6.21725E-15
 -1      1195-3.69566E+01 7.33334E+00 1.39504E-01 7.38381E+00-2.28706E-14-9.10383E-15
 -1      1196-4.52713E+01 1.45620E+00 1.93338E-01 3.40680E+00 9.57012E-14 2.66454E-15
 -1      1197-5.00302E+01-1.21696E+00 2.22375E-01 9.32328E-01-9.32587E-14 2.91434E-14
 -1      1198-5.00302E+01-1.21696E+00 2.22375E-01-9.32328E-01-8.88178E-14 3.77476E-15
 -1      1199-4.52713E+01 1.45620E+00 1.93338E-01-3.40680E+00 4.44089E-14 2.19824E-14
 -1      1200-3.69566E+01 7.33334E+00 1.39504E-01-7.38381E+00-3.73923E-13-4.44089E-14
 -1      1201-2.69982E+01 1.70737E+01 6.40789E-02-1.29530E+01 1.06470E-13 6.66134E-15
 -1      1202-1.72923E+01 3.09166E+01-3.30031E-02-1.93445E+01-1.89321E-13 9.76996E-15
 -1      1203-9.10446E+00 4.83325E+01-1.42522E-01-2.52924E+01 2.24265E-14 1.77636E-15
 -1      1204-2.90281E+00 6.79979E+01-2.75907E-01-2.95994E+01 2.18936E-13-7.54952E-15
 -1      1205-1.15108E+01 8.07345E+01-3.71916E-01 2.84525E+01 5.24025E-14 1.28786E-14
 -1      1206-1.47012E+01 6.18182E+01-2.66375E-01 2.82674E+01-1.12965E-13-6.21725E-15
 -1      1207-1.85392E+01 4.31847E+01-1.23179E-01 2.55137E+01-7.98250E-14-2.84217E-14
 -1      1208-2.32145E+01 2.66595E+01 6.48360E-02 2.07062E+01-2.37810E-13-2.97540E-14
 -1      1209-2.83228E+01 1.36801E+01 2.71928E-01 1.47864E+01 3.21965E-14 1.75415E-14
 -1      1210-3.28481E+01 4.97943E+00 4.53016E-01 8.67406E+00-1.98952E-13-1.66533E-14
 -1      1211-3.55406E+01 6.82545E-01 5.59891E-01 2.83335E+00 2.39808E-14-7.32747E-15
 -1      1212-3.55406E+01 6.82545E-01 5.59891E-01-2.83335E+00-3.90799E-14-1.40998E-14
 -1      1213-3.28481E+01 4.97943E+00 4.53016E-01-8.67406E+00-3.95239E-14-7.99361E-15
 -1      1214-2.83228E+01 1.36801E+01 2.71928E-01-1.47864E+01 2.03837E-13 2.22045E-15
 -1      1215-2.32145E+01 2.66595E+01 6.48360E-02-2.07062E+01-8.63754E-14-4.88498E-15
 -1      1216-1.85392E+01 4.31847E+01-1.23179E-01-2.55137E+01 8.65141E-14 4.44089E-15
 -1      1217-1.47012E+01 6.18182E+01-2.66375E-01-2.82674E+01-2.44416E-13 2.37588E-14
 -1      1218-1.15108E+01 8.07345E+01-3.71916E-01-2.84525E+01-7.74936E-14-2.22045E-14
 -1      1219-1.61061E+01 8.91642E+01-3.78468E-01 2.62913E+01 2.89768E-14-2.22045E-15
 -1      1220-1.77009E+01 7.18932E+01-3.41005E-01 2.87631E+01 7.93809E-14-8.21565E-15
 -1      1221-1.89182E+01 5.34222E+01-2.42398E-01 2.84489E+01-9.83658E-14 2.44249E-15
 -1      1222-2.02309E+01 3.57067E+01-6.83757E-02 2.52206E+01 1.31006E-13 2.30926E-14
 -1      1223-2.18176E+01 2.07389E+01 1.58055E-01 1.95468E+01 8.32667E-14 1.19904E-14
 -1      1224-2.34110E+01 1.00583E+01 3.77207E-01 1.22557E+01-9.32587E-14-1.08802E-14
 -1      1225-2.44403E+01 4.54676E+00 5.13566E-01 4.16004E+00-1.34115E-13 5.21805E-15
 -1      1226-2.44403E+01 4.54676E+00 5.13566E-01-4.16004E+00-8.06022E-14 1.37668E-14
 -1      1227-2.34110E+01 1.00583E+01 3.77207E-01-1.22557E+01 1.13243E-14 2.22045E-15
 -1      1228-2.18176E+01 2.07389E+01 1.58055E-01-1.95468E+01 9.19265E-14 1.02141E-14
 -1      1229-2.02309E+01 3.57067E+01-6.83757E-02-2.52206E+01-2.20823E-13-2.59792E-14
 -1      1230-1.89182E+01 5.34222E+01-2.42398E-01-2.84489E+01-3.48888E-14-5.77316E-15
 -1      1231-1.77009E+01 7.18932E+01-3.41005E-01-2.87631E+01 1.24289E-13 1.77636E-15
 -1      1232-1.61061E+01 8.91642E+01-3.78468E-01-2.62913E+01-3.11973E-14-2.44249E-15
 -1      1233-1.80432E+01 9.44891E+01-3.32704E-01 2.36454E+01-2.03393E-13 3.35287E-14
 -1      1234-1.88512E+01 7.92688E+01-3.52801E-01 2.76884E+01 3.56382E-14 2.22045E-14
 -1      1235-1.85892E+01 6.18300E+01-3.10336E-01 2.91244E+01 1.99188E-13 1.82077E-14
 -1      1236-1.77717E+01 4.40120E+01-1.84565E-01 2.73087E+01-2.10609E-13-1.35447E-14
 -1      1237-1.69181E+01 2.80796E+01 1.23150E-02 2.22196E+01 8.79297E-14 1.04361E-14
 -1      1238-1.63423E+01 1.61679E+01 2.22323E-01 1.44554E+01 2.41362E-13 1.73195E-14
 -1      1239-1.60901E+01 9.82527E+00 3.59836E-01 5.00687E+00-2.59792E-14 1.04916E-14
 -1      1240-1.60901E+01 9.82527E+00 3.59836E-01-5.00687E+00-2.17826E-13-2.49800E-14
 -1      1241-1.63423E+01 1.61679E+01 2.22323E-01-1.44554E+01-2.93765E-13-1.48770E-14
 -1      1242-1.69181E+01 2.80796E+01 1.23150E-02-2.22196E+01-3.08642E-14 2.22045E-15
 -1      1243-1.77717E+01 4.40120E+01-1.84565E-01-2.73087E+01-6.19504E-14-2.75335E-14
 -1      1244-1.85892E+01 6.18300E+01-3.10336E-01-2.91244E+01 1.58901E-13 1.55431E-14
 -1      1245-1.88512E+01 7.92688E+01-3.52801E-01-2.76884E+01-1.73361E-13-1.75415E-14
 -1      1246-1.80432E+01 9.44891E+01-3.32704E-01-2.36454E+01-2.73115E-14 4.55191E-15
 -1      1247-1.82811E+01 9.76250E+01-2.67200E-01 2.08507E+01 5.29576E-14 6.55032E-15
 -1      1248-1.87461E+01 8.45504E+01-3.25000E-01 2.56897E+01-1.01086E-13 3.77476E-15
 -1      1249-1.77329E+01 6.86366E+01-3.28873E-01 2.82884E+01-5.09176E-14-3.13083E-14
 -1      1250-1.56683E+01 5.14706E+01-2.55061E-01 2.76412E+01 7.86038E-14 6.66134E-15
 -1      1251-1.32279E+01 3.53735E+01-1.04187E-01 2.32926E+01 1.20348E-13 1.11022E-16
 -1      1252-1.11354E+01 2.28686E+01 7.52871E-02 1.55539E+01 1.36779E-13-1.52101E-14
 -1      1253-9.94724E+00 1.60391E+01 1.99156E-01 5.46350E+00 7.59393E-14 2.08999E-14
 -1      1254-9.94724E+00 1.60391E+01 1.99156E-01-5.46350E+00 1.44551E-13-3.16414E-15
 -1      1255-1.11354E+01 2.28686E+01 7.52871E-02-1.55539E+01 1.11022E-13 1.77636E-14
 -1      1256-1.32279E+01 3.53735E+01-1.04187E-01-2.32926E+01-1.80189E-13-7.88258E-15
 -1      1257-1.56683E+01 5.14706E+01-2.55061E-01-2.76412E+01 1.69031E-13 2.68674E-14
 -1      1258-1.77329E+01 6.86366E+01-3.28873E-01-2.82884E+01 6.46427E-14-8.21565E-15
 -1      1259-1.87461E+01 8.45504E+01-3.25000E-01-2.56897E+01 2.59681E-13 1.62093E-14
 -1      1260-1.82811E+01 9.76250E+01-2.67200E-01-2.08507E+01-7.87148E-14-1.05471E-14
 -1      1261-1.74880E+01 9.92566E+01-2.00724E-01 1.81155E+01 5.67324E-14 1.44329E-15
 -1      1262-1.78371E+01 8.82387E+01-2.78823E-01 2.32174E+01-5.27078E-14 2.10942E-15
 -1      1263-1.65187E+01 7.40773E+01-3.14804E-01 2.65062E+01-1.38028E-13-2.22045E-15
 -1      1264-1.38186E+01 5.80498E+01-2.85690E-01 2.67614E+01 1.47438E-13 6.55032E-15
 -1      1265-1.04423E+01 4.23832E+01-1.82385E-01 2.31874E+01-1.88738E-14 1.59872E-14
 -1      1266-7.36985E+00 2.98034E+01-4.11181E-02 1.58058E+01-3.95795E-13-4.66294E-14
 -1      1267-5.54535E+00 2.27828E+01 6.22785E-02 5.61364E+00 5.15143E-14-8.32667E-16
 -1      1268-5.54535E+00 2.27828E+01 6.22785E-02-5.61364E+00-2.44249E-15 3.88301E-14
 -1      1269-7.36985E+00 2.98034E+01-4.11181E-02-1.58058E+01 4.61853E-14-2.14273E-14
 -1      1270-1.04423E+01 4.23832E+01-1.82385E-01-2.31874E+01 5.54001E-14 1.62093E-14
 -1      1271-1.38186E+01 5.80498E+01-2.85690E-01-2.67614E+01 1.25511E-13-2.77556E-15
 -1      1272-1.65187E+01 7.40773E+01-3.14804E-01-2.65062E+01-1.48492E-14 4.44089E-16
 -1      1273-1.78371E+01 8.82387E+01-2.78823E-01-2.32174E+01-1.65562E-13 3.33067E-15
 -1      1274-1.74880E+01 9.92566E+01-2.00724E-01-1.81155E+01 8.88734E-14 9.99201E-16
 -1      1275-1.61192E+01 9.98851E+01-1.42168E-01 1.55604E+01 4.76841E-14-1.40443E-14
 -1      1276-1.64558E+01 9.07370E+01-2.27876E-01 2.05762E+01-3.11140E-14-2.78666E-14
 -1      1277-1.50905E+01 7.83768E+01-2.82932E-01 2.41936E+01 2.43371E-13-1.11022E-15
 -1      1278-1.21619E+01 6.37675E+01-2.88165E-01 2.50983E+01 1.44190E-13-1.03251E-14
 -1      1279-8.32785E+00 4.89477E+01-2.27524E-01 2.22574E+01-1.27232E-13-2.83107E-14
 -1      1280-4.69982E+00 3.66944E+01-1.24965E-01 1.54356E+01-2.04059E-13-1.70974E-14
 -1      1281-2.48726E+00 2.97243E+01-4.42718E-02 5.53302E+00 1.37668E-14 3.19189E-15
 -1      1282-2.48726E+00 2.97243E+01-4.42718E-02-5.53302E+00-2.13940E-13-3.46945E-15
 -1      1283-4.69982E+00 3.66944E+01-1.24965E-01-1.54356E+01 1.07025E-13 3.25850E-14
 -1      1284-8.32785E+00 4.89477E+01-2.27524E-01-2.22574E+01 1.61537E-14-4.66294E-15
 -1      1285-1.21619E+01 6.37675E+01-2.88165E-01-2.50983E+01 3.41061E-13 2.08722E-14
 -1      1286-1.50905E+01 7.83768E+01-2.82932E-01-2.41936E+01-2.90882E-13 1.09912E-14
 -1      1287-1.64558E+01 9.07370E+01-2.27876E-01-2.05762E+01 1.26177E-13 2.44249E-15
 -1      1288-1.61192E+01 9.98851E+01-1.42168E-01-1.55604E+01 2.05003E-13 7.27196E-15
 -1      1289-1.44757E+01 9.98698E+01-9.47047E-02 1.32479E+01-7.55229E-14 8.88178E-15
 -1      1290-1.48365E+01 9.23631E+01-1.79721E-01 1.79637E+01-3.06005E-14-3.39173E-14
 -1      1291-1.35623E+01 8.17395E+01-2.43578E-01 2.16469E+01-1.67547E-13-1.99840E-15
 -1      1292-1.06625E+01 6.86747E+01-2.72849E-01 2.29803E+01 6.87506E-14 1.11022E-16
 -1      1293-6.70750E+00 5.49691E+01-2.47360E-01 2.07897E+01-8.26006E-14 6.38378E-15
 -1      1294-2.84550E+00 4.33346E+01-1.80187E-01 1.46338E+01 1.03140E-13 2.65343E-14
 -1      1295-4.41781E-01 3.66025E+01-1.21670E-01 5.28772E+00-2.04503E-13-3.46945E-14
 -1      1296-4.41781E-01 3.66025E+01-1.21670E-01-5.28772E+00 1.81188E-13 2.54935E-14
 -1      1297-2.84550E+00 4.33346E+01-1.80187E-01-1.46338E+01-1.55764E-13-5.88418E-15
 -1      1298-6.70750E+00 5.49691E+01-2.47360E-01-2.07897E+01 4.97380E-14 1.62648E-14
 -1      1299-1.06625E+01 6.86747E+01-2.72849E-01-2.29803E+01-1.29369E-13-3.49720E-14
 -1      1300-1.35623E+01 8.17395E+01-2.43578E-01-2.16469E+01 5.67602E-15-1.26565E-14
 -1      1301-1.48365E+01 9.23631E+01-1.79721E-01-1.79637E+01-6.49619E-14-8.43769E-15
 -1      1302-1.44757E+01 9.98698E+01-9.47047E-02-1.32479E+01-1.36002E-15 2.99760E-15
 -1      1303-1.27490E+01 9.94622E+01-5.84649E-02 1.12019E+01-3.61100E-14-1.44607E-14
 -1      1304-1.31378E+01 9.33620E+01-1.37965E-01 1.55003E+01 2.06113E-13-8.32667E-16
 -1      1305-1.20180E+01 8.43448E+01-2.03286E-01 1.90691E+01-2.70407E-13-8.32667E-16
 -1      1306-9.29890E+00 7.28420E+01-2.47594E-01 2.06503E+01 1.54043E-14-2.17604E-14
 -1      1307-5.44842E+00 6.03988E+01-2.49079E-01 1.90099E+01-6.58362E-14 7.99361E-15
 -1      1308-1.58527E+00 4.95797E+01-2.12026E-01 1.35570E+01-2.62346E-13-2.70339E-14
 -1      1309 8.60472E-01 4.32220E+01-1.73519E-01 4.93325E+00-2.05391E-14 3.42226E-14
 -1      1310 8.60472E-01 4.32220E+01-1.73519E-01-4.93325E+00 1.56097E-13-1.79856E-14
 -1      1311-1.58527E+00 4.95797E+01-2.12026E-01-1.35570E+01-9.65339E-14-1.07692E-14
 -1      1312-5.44842E+00 6.03988E+01-2.49079E-01-1.90099E+01 2.39309E-13-2.77556E-15
 -1      1313-9.29890E+00 7.28420E+01-2.47594E-01-2.06503E+01-1.53766E-14 2.68119E-14
 -1      1314-1.20180E+01 8.43448E+01-2.03286E-01-1.90691E+01-6.44311E-14-1.12688E-14
 -1      1315-1.31378E+01 9.33620E+01-1.37965E-01-1.55003E+01 2.88727E-13 3.94129E-15
 -1      1316-1.27490E+01 9.94622E+01-5.84649E-02-1.12019E+01 3.62210E-14 6.46705E-15
 -1      1317-1.10543E+01 9.88344E+01-3.19907E-02 9.42161E+00 2.81650E-13 1.64035E-14
 -1      1318-1.14604E+01 9.39181E+01-1.03735E-01 1.32519E+01-1.39472E-14-1.47105E-14
 -1      1319-1.05150E+01 8.63449E+01-1.65838E-01 1.65919E+01 1.06260E-14 9.21485E-15
 -1      1320-8.05642E+00 7.63491E+01-2.17949E-01 1.82810E+01 1.68837E-13-2.66454E-15
 -1      1321-4.45164E+00 6.52255E+01-2.38603E-01 1.70888E+01 3.80806E-14-1.43219E-14
 -1      1322-7.47129E-01 5.53388E+01-2.25655E-01 1.23291E+01 8.47100E-14 3.28071E-14
 -1      1323 1.63313E+00 4.94460E+01-2.04138E-01 4.51460E+00-3.09197E-14-2.60486E-14
 -1      1324 1.63313E+00 4.94460E+01-2.04138E-01-4.51460E+00-1.44329E-14-1.66533E-15
 -1      1325-7.47129E-01 5.53388E+01-2.25655E-01-1.23291E+01-1.88738E-14 9.43690E-15
 -1      1326-4.45164E+00 6.52255E+01-2.38603E-01-1.70888E+01-1.18211E-13-6.71685E-15
 -1      1327-8.05642E+00 7.63491E+01-2.17949E-01-1.82810E+01 1.59830E-13 8.32667E-15
 -1      1328-1.05150E+01 8.63449E+01-1.65838E-01-1.65919E+01 3.97859E-15 9.43690E-15
 -1      1329-1.14604E+01 9.39181E+01-1.03735E-01-1.32519E+01 8.31418E-14-3.17524E-14
 -1      1330-1.10543E+01 9.88344E+01-3.19907E-02-9.42161E+00 5.14866E-15 2.83107E-15
 -1      1331-9.45554E+00 9.81005E+01-1.35372E-02 7.89078E+00-1.77219E-13-3.92464E-14
 -1      1332-9.86360E+00 9.41667E+01-7.75582E-02 1.12464E+01-7.15331E-14 1.91236E-14
 -1      1333-9.08771E+00 8.78640E+01-1.34143E-01 1.42942E+01 1.57614E-13 5.35683E-15
 -1      1334-6.92260E+00 7.92758E+01-1.88619E-01 1.59897E+01 1.13382E-14 1.46549E-14
 -1      1335-3.64354E+00 6.94641E+01-2.21174E-01 1.51516E+01-2.13440E-14 9.63118E-15
 -1      1336-2.00240E-01 6.05637E+01-2.25746E-01 1.10450E+01 7.12208E-14-1.49880E-15
 -1      1337 2.04132E+00 5.51887E+01-2.17473E-01 4.06712E+00-7.98250E-14 1.67644E-14
 -1      1338 2.04132E+00 5.51887E+01-2.17473E-01-4.06712E+00 1.08302E-13-6.86950E-15
 -1      1339-2.00240E-01 6.05637E+01-2.25746E-01-1.10450E+01-7.51066E-14 1.49880E-14
 -1      1340-3.64354E+00 6.94641E+01-2.21174E-01-1.51516E+01-1.67866E-13-4.60743E-15
 -1      1341-6.92260E+00 7.92758E+01-1.88619E-01-1.59897E+01-5.71626E-14-9.60343E-15
 -1      1342-9.08771E+00 8.78640E+01-1.34143E-01-1.42942E+01-4.10999E-14 1.80411E-15
 -1      1343-9.86360E+00 9.41667E+01-7.75582E-02-1.12464E+01 6.23390E-14 7.52176E-15
 -1      1344-9.45554E+00 9.81005E+01-1.35372E-02-7.89078E+00-3.10030E-14-4.24660E-15
 -1      1345-7.98148E+00 9.73415E+01 5.65707E-03 6.58315E+00-1.82340E-13-4.48253E-15
 -1      1346-8.37156E+00 9.42150E+01-4.89444E-02 9.48436E+00 2.31634E-13 4.95437E-14
 -1      1347-7.74543E+00 8.90121E+01-9.90617E-02 1.22144E+01 3.85456E-14-4.32154E-14
 -1      1348-5.87723E+00 8.17060E+01-1.53839E-01 1.38501E+01-1.03459E-13 1.32949E-14
 -1      1349-2.96443E+00 7.31511E+01-1.95809E-01 1.32869E+01-5.33740E-14-1.57097E-14
 -1      1350 1.53299E-01 6.52403E+01-2.16086E-01 9.77719E+00 1.96121E-13 1.74583E-14
 -1      1351 2.20631E+00 6.04031E+01-2.20406E-01 3.61871E+00-1.10523E-13 1.46966E-14
 -1      1352 2.20631E+00 6.04031E+01-2.20406E-01-3.61871E+00 1.51823E-13-1.57790E-14
 -1      1353 1.53299E-01 6.52403E+01-2.16086E-01-9.77719E+00-5.40679E-14-1.03528E-14
 -1      1354-2.96443E+00 7.31511E+01-1.95809E-01-1.32869E+01 9.71168E-14 2.66176E-14
 -1      1355-5.87723E+00 8.17060E+01-1.53839E-01-1.38501E+01-1.12632E-13-9.35363E-15
 -1      1356-7.74543E+00 8.90121E+01-9.90617E-02-1.22144E+01 5.79545E-14 9.02056E-15
 -1      1357-8.37156E+00 9.42150E+01-4.89444E-02-9.48436E+00 4.04052E-14 6.30052E-15
 -1      1358-7.98148E+00 9.73415E+01 5.65707E-03-6.58315E+00 7.59254E-14 9.92262E-15
 -1      1359-6.68239E+00 9.65572E+01-3.52111E-02 5.47204E+00 1.74014E-13 7.54952E-15
 -1      1360-7.04416E+00 9.40651E+01-1.00089E-01 7.95039E+00-2.09555E-15-1.91513E-15
 -1      1361-6.54006E+00 8.97892E+01-1.52541E-01 1.03599E+01-6.02157E-14 2.49939E-14
 -1      1362-4.94449E+00 8.36316E+01-1.97408E-01 1.18985E+01-7.19078E-14 4.35763E-15
 -1      1363-2.39293E+00 7.62783E+01-2.13787E-01 1.15523E+01 1.01266E-13 3.33067E-15
 -1      1364 3.85986E-01 6.93773E+01-1.98911E-01 8.58118E+00 5.83145E-14-5.41234E-16
 -1      1365 2.23596E+00 6.51181E+01-1.76685E-01 3.19261E+00-1.62453E-13-4.41314E-15
 -1      1366 2.23596E+00 6.51181E+01-1.76685E-01-3.19261E+00-8.41827E-14-6.83481E-15
 -1      1367 3.85986E-01 6.93773E+01-1.98911E-01-8.58118E+00 2.71699E-13 1.33782E-14
 -1      1368-2.39293E+00 7.62783E+01-2.13787E-01-1.15523E+01 5.74402E-14-2.52576E-15
 -1      1369-4.94449E+00 8.36316E+01-1.97408E-01-1.18985E+01-1.95136E-13 7.02216E-15
 -1      1370-6.54006E+00 8.97892E+01-1.52541E-01-1.03599E+01-6.00492E-14 7.46625E-15
 -1      1371-7.04416E+00 9.40651E+01-1.00089E-01-7.95039E+00 6.10484E-14-8.93730E-15
 -1      1372-6.68239E+00 9.65572E+01-3.52111E-02-5.47204E+00-3.42643E-14-1.55986E-14
 -1      1373 9.68195E+00 1.13226E+02-1.41520E+00 1.74289E+01-3.11029E-13 9.46465E-15
 -1      1374 1.97201E+01 1.03406E+02-9.82225E-01 2.02144E+01-4.43034E-13-1.15297E-13
 -1      1375 2.25710E+01 9.81830E+01-2.25901E-02 1.83207E+01 1.65978E-14 2.66454E-14
 -1      1376 2.32112E+01 9.45583E+01-1.13357E-03 1.65770E+01 7.77156E-16 2.41612E-14
 -1      1377 2.34800E+01 9.21616E+01 4.18021E-02 1.49850E+01 7.13041E-14-4.08978E-14
 -1      1378 2.35832E+01 9.04457E+01 4.54264E-02 1.35784E+01-7.29694E-14-6.55032E-14
 -1      1379 2.36312E+01 8.91687E+01 4.59614E-02 1.23187E+01 2.09069E-14-3.32373E-14
 -1      1380 2.36541E+01 8.81803E+01 4.39027E-02 1.11780E+01-2.31280E-13-3.41047E-14
 -1      1381 2.36656E+01 8.73915E+01 4.14799E-02 1.01338E+01-1.16157E-14 6.37199E-14
 -1      1382 2.36715E+01 8.67455E+01 3.90489E-02 9.16909E+00 4.45276E-13 2.27041E-14
 -1      1383 2.36742E+01 8.62055E+01 3.68041E-02 8.27119E+00-1.67359E-13-6.16122E-14
 -1      1384 2.36751E+01 8.57464E+01 3.47803E-02 7.43012E+00 6.96040E-14-2.20501E-14
 -1      1385 2.36750E+01 8.53514E+01 3.29763E-02 6.63795E+00-4.29705E-13 3.76661E-14
 -1      1386 2.36741E+01 8.50090E+01 3.13736E-02 5.88821E+00-3.08989E-13-4.71238E-14
 -1      1387 2.36727E+01 8.47112E+01 2.99681E-02 5.17543E+00-4.87155E-13-4.84413E-14
 -1      1388 6.13705E+00 1.12785E+02 4.18946E-02 1.14324E+01-1.00475E-13 1.64077E-13
 -1      1389 1.00934E+01 1.03876E+02-6.68798E-01 1.61169E+01 1.83797E-13 4.91968E-14
 -1      1390 1.51081E+01 9.90523E+01-4.82820E-01 1.66165E+01 4.83669E-13 3.29944E-15
 -1      1391 1.77329E+01 9.57283E+01-1.99776E-01 1.56662E+01-7.73409E-14-3.85872E-14
 -1      1392 1.91423E+01 9.33191E+01-1.14363E-01 1.44644E+01-7.94503E-14-4.73302E-14
 -1      1393 1.99959E+01 9.15456E+01-6.55038E-02 1.32486E+01-2.03518E-13 4.47767E-14
 -1      1394 2.05526E+01 9.01939E+01-4.22574E-02 1.20948E+01 2.09589E-13 5.12264E-14
 -1      1395 2.09422E+01 8.91340E+01-2.91155E-02 1.10169E+01-7.31915E-14-4.56753E-14
 -1      1396 2.12294E+01 8.82804E+01-2.14561E-02 1.00125E+01 3.00926E-13-8.63545E-15
 -1      1397 2.14501E+01 8.75771E+01-1.66653E-02 9.07458E+00-4.93328E-13-3.85247E-14
 -1      1398 2.16251E+01 8.69867E+01-1.35252E-02 8.19558E+00 5.12798E-13 1.32967E-14
 -1      1399 2.17673E+01 8.64833E+01-1.13753E-02 7.36842E+00-1.59532E-13-2.01211E-14
 -1      1400 2.18849E+01 8.60492E+01-9.85195E-03 6.58689E+00 1.77837E-13-3.80425E-15
 -1      1401 2.19834E+01 8.56723E+01-8.74847E-03 5.84554E+00 1.14214E-14 7.15573E-16
 -1      1402 2.20665E+01 8.53441E+01-7.90931E-03 5.13960E+00 7.32400E-14 2.70122E-14
 -1      1403 3.47024E+00 1.05530E+02 6.56400E-01 6.81623E+00 1.72085E-14 5.29299E-14
 -1      1404 6.19971E+00 1.03079E+02-1.19427E-01 1.16581E+01 4.20497E-14 8.39606E-16
 -1      1405 9.78944E+00 9.93493E+01-2.92057E-01 1.36100E+01-3.45363E-13-1.63654E-14
 -1      1406 1.29109E+01 9.64877E+01-2.25918E-01 1.38143E+01-3.29847E-13-7.38732E-14
 -1      1407 1.50371E+01 9.42613E+01-1.37330E-01 1.32569E+01 1.14464E-13 5.12333E-14
 -1      1408 1.64797E+01 9.25259E+01-8.71930E-02 1.24239E+01 2.83690E-13 4.13038E-15
 -1      1409 1.74933E+01 9.11577E+01-5.59269E-02 1.15035E+01-1.04527E-13-1.24813E-14
 -1      1410 1.82328E+01 9.00591E+01-3.72981E-02 1.05753E+01-5.14797E-14-2.09451E-14
 -1      1411 1.87922E+01 8.91602E+01-2.56896E-02 9.67130E+00-1.68338E-14-5.19047E-14
 -1      1412 1.92285E+01 8.84113E+01-1.82825E-02 8.80357E+00 5.01259E-13 5.43732E-14
 -1      1413 1.95775E+01 8.77775E+01-1.34117E-02 7.97546E+00-5.72806E-14 4.54671E-14
 -1      1414 1.98625E+01 8.72341E+01-1.01334E-02 7.18650E+00 2.68764E-13-1.09929E-14
 -1      1415 2.00989E+01 8.67635E+01-7.88536E-03 6.43461E+00 2.58151E-13-9.61731E-15
 -1      1416 2.02972E+01 8.63536E+01-6.33259E-03 5.71700E+00 2.64972E-13 2.40892E-14
 -1      1417 2.04647E+01 8.59958E+01-5.21803E-03 5.03068E+00-1.29240E-13 1.30772E-14
 -1      1418 1.98934E+00 9.97352E+01 3.66354E-01 4.41367E+00-1.42747E-13 2.83107E-15
 -1      1419 3.97597E+00 1.00311E+02 1.40387E-01 8.18973E+00-2.84550E-13-6.18255E-14
 -1      1420 6.62309E+00 9.86713E+01-1.00468E-01 1.05541E+01-5.47340E-14-2.35784E-14
 -1      1421 9.31025E+00 9.66238E+01-1.49625E-01 1.15174E+01 3.85858E-13 5.35995E-14
 -1      1422 1.15683E+01 9.47850E+01-1.28407E-01 1.15978E+01-2.14648E-13-8.78533E-14
 -1      1423 1.33034E+01 9.32264E+01-9.44994E-02 1.12100E+01 3.03785E-14-2.70933E-14
 -1      1424 1.46195E+01 9.19285E+01-6.80600E-02 1.05951E+01 2.88887E-13 1.72340E-14
 -1      1425 1.56285E+01 9.08477E+01-4.89790E-02 9.87775E+00-2.04621E-13-3.36441E-14
 -1      1426 1.64162E+01 8.99404E+01-3.58112E-02 9.12253E+00-2.43555E-14 4.23325E-14
 -1      1427 1.70433E+01 8.91707E+01-2.67158E-02 8.36248E+00 1.60025E-13 3.13031E-15
 -1      1428 1.75518E+01 8.85106E+01-2.03937E-02 7.61442E+00 9.90180E-14-2.52715E-14
 -1      1429 1.79705E+01 8.79390E+01-1.59535E-02 6.88662E+00-7.39686E-14 1.25507E-15
 -1      1430 1.83198E+01 8.74403E+01-1.28069E-02 6.18273E+00-1.97307E-13-2.44769E-14
 -1      1431 1.86137E+01 8.70033E+01-1.05742E-02 5.50391E+00-1.05509E-13-1.07726E-15
 -1      1432 1.88625E+01 8.66201E+01-8.93995E-03 4.84985E+00 2.07244E-13-1.56177E-14
 -1      1433 1.24497E+00 9.58104E+01 2.54331E-01 2.96689E+00-1.23790E-14 2.30232E-14
 -1      1434 2.65096E+00 9.74998E+01 1.54377E-01 5.82022E+00 1.99882E-13 8.97893E-15
 -1      1435 4.62281E+00 9.72832E+01 1.39125E-02 7.99754E+00 5.84255E-14 3.30153E-14
 -1      1436 6.80844E+00 9.61982E+01-6.67000E-02 9.26980E+00-7.78266E-14 4.82045E-14
 -1      1437 8.86691E+00 9.48863E+01-8.67852E-02 9.78080E+00 4.76119E-13 5.56499E-15
 -1      1438 1.06305E+01 9.36182E+01-7.94601E-02 9.78025E+00-1.02168E-13 1.45179E-14
 -1      1439 1.20747E+01 9.24752E+01-6.47481E-02 9.47034E+00-3.06734E-13-9.36803E-14
 -1      1440 1.32426E+01 9.14721E+01-5.07587E-02 8.98425E+00 1.57305E-14 1.16448E-14
 -1      1441 1.41889E+01 9.05987E+01-3.93512E-02 8.40295E+00-2.46726E-13-1.72113E-14
 -1      1442 1.49621E+01 8.98379E+01-3.06190E-02 7.77465E+00-1.65805E-13-1.67017E-14
 -1      1443 1.56005E+01 8.91726E+01-2.40928E-02 7.12783E+00 2.44450E-13 9.51930E-15
 -1      1444 1.61331E+01 8.85878E+01-1.92676E-02 6.47923E+00-3.34489E-13-6.69126E-15
 -1      1445 1.65813E+01 8.80718E+01-1.57177E-02 5.83866E+00 2.18825E-13 2.42324E-14
 -1      1446 1.69611E+01 8.76156E+01-1.31307E-02 5.21165E+00-5.17256E-13-4.44011E-14
 -1      1447 1.72841E+01 8.72126E+01-1.11984E-02 4.60113E+00 1.64844E-13 2.87886E-14
 -1      1448 8.24069E-01 9.30901E+01 1.67132E-01 2.05109E+00-5.56499E-15 1.51962E-14
 -1      1449 1.84062E+00 9.51580E+01 1.37759E-01 4.17463E+00-1.20362E-13-3.88301E-14
 -1      1450 3.31848E+00 9.57447E+01 5.23935E-02 6.01339E+00-3.42365E-14 3.58047E-14
 -1      1451 5.06138E+00 9.54169E+01-1.17044E-02 7.30480E+00 1.17115E-13-1.10953E-14
 -1      1452 6.83293E+00 9.46459E+01-4.59347E-02 8.03107E+00-4.48669E-14-3.11487E-14
 -1      1453 8.47291E+00 9.37235E+01-5.56106E-02 8.29945E+00-8.06438E-14-5.18335E-15
 -1      1454 9.90931E+00 9.27939E+01-5.30315E-02 8.24262E+00-2.04156E-13 3.30794E-14
 -1      1455 1.11326E+01 9.19184E+01-4.59898E-02 7.97097E+00 5.29923E-14-1.64504E-14
 -1      1456 1.21630E+01 9.11181E+01-3.83007E-02 7.56394E+00 7.12971E-14 1.02618E-14
 -1      1457 1.30297E+01 9.03961E+01-3.14015E-02 7.07521E+00-4.96825E-15 4.96955E-15
 -1      1458 1.37608E+01 8.97480E+01-2.57018E-02 6.54011E+00 1.08996E-13 2.71541E-14
 -1      1459 1.43807E+01 8.91668E+01-2.11857E-02 5.98170E+00 2.23987E-14-7.50197E-15
 -1      1460 1.49088E+01 8.86460E+01-1.76958E-02 5.41494E+00-8.72913E-14-1.50216E-15
 -1      1461 1.53603E+01 8.81796E+01-1.50637E-02 4.84948E+00 1.53974E-14-1.89296E-14
 -1      1462 1.57470E+01 8.77635E+01-1.30426E-02 4.29141E+00-1.06495E-13 1.43115E-16
 -1      1463 5.73250E-01 9.11855E+01 1.16242E-01 1.43175E+00-5.89057E-13 9.64506E-15
 -1      1464 1.32098E+00 9.33141E+01 1.11368E-01 3.00631E+00 1.28404E-13 9.52016E-15
 -1      1465 2.44237E+00 9.43216E+01 6.22546E-02 4.49555E+00-5.94663E-15-3.06283E-14
 -1      1466 3.82504E+00 9.45099E+01 1.63749E-02 5.67419E+00-3.95434E-13 5.13478E-14
 -1      1467 5.30955E+00 9.41910E+01-1.60320E-02 6.46243E+00 1.80453E-13-1.87350E-16
 -1      1468 6.76568E+00 9.36079E+01-3.27511E-02 6.88367E+00-3.01321E-13-3.64084E-14
 -1      1469 8.11203E+00 9.29144E+01-3.81502E-02 7.00766E+00 3.13131E-13 1.33747E-14
 -1      1470 9.31295E+00 9.21968E+01-3.73030E-02 6.91112E+00 2.44263E-13 2.29365E-14
 -1      1471 1.03631E+01 9.14988E+01-3.37168E-02 6.65971E+00 8.52235E-14-4.81212E-15
 -1      1472 1.12728E+01 9.08408E+01-2.93487E-02 6.30391E+00-6.73073E-14 4.19456E-15
 -1      1473 1.20583E+01 9.02302E+01-2.51356E-02 5.88049E+00-3.47430E-14-2.65131E-14
 -1      1474 1.27364E+01 8.96687E+01-2.14635E-02 5.41562E+00 1.93429E-13 2.12838E-14
 -1      1475 1.33224E+01 8.91554E+01-1.84393E-02 4.92766E+00-3.34455E-15-2.05187E-14
 -1      1476 1.38292E+01 8.86883E+01-1.60612E-02 4.42944E+00-3.01495E-15-2.32616E-15
 -1      1477 1.42672E+01 8.82661E+01-1.41721E-02 3.92977E+00 2.92325E-13 2.02723E-15
 -1      1478 4.13068E-01 8.98397E+01 8.26822E-02 9.94440E-01 4.75009E-13 4.63241E-14
 -1      1479 9.74302E-01 9.18973E+01 8.86092E-02 2.15389E+00-8.93868E-14-3.94268E-14
 -1      1480 1.83517E+00 9.31026E+01 5.95652E-02 3.33227E+00-4.43819E-13 1.07692E-14
 -1      1481 2.93345E+00 9.36174E+01 2.87789E-02 4.34913E+00 1.39874E-13-3.05866E-14
 -1      1482 4.16196E+00 9.36386E+01 2.43255E-03 5.11028E+00 1.17177E-13 3.83860E-14
 -1      1483 5.42174E+00 9.33484E+01-1.49844E-02 5.59579E+00 1.83464E-14 2.29677E-14
 -1      1484 6.63850E+00 9.28830E+01-2.41627E-02 5.83171E+00-1.95496E-13-3.02675E-14
 -1      1485 7.76775E+00 9.23330E+01-2.74648E-02 5.86341E+00 5.50948E-15-2.89005E-14
 -1      1486 8.78960E+00 9.17538E+01-2.73049E-02 5.73854E+00-2.52111E-13 1.98522E-14
 -1      1487 9.70041E+00 9.11769E+01-2.54298E-02 5.49901E+00 3.66991E-13 2.01471E-14
 -1      1488 1.05054E+01 9.06199E+01-2.29187E-02 5.17874E+00-1.95136E-13-2.84911E-14
 -1      1489 1.12139E+01 9.00916E+01-2.03687E-02 4.80397E+00-2.33195E-13-1.17970E-14
 -1      1490 1.18358E+01 8.95968E+01-1.80738E-02 4.39451E+00 1.26617E-13 4.07573E-15
 -1      1491 1.23806E+01 8.91377E+01-1.61734E-02 3.96511E+00 2.22083E-13-8.17662E-15
 -1      1492 1.28565E+01 8.87160E+01-1.45996E-02 3.52660E+00-8.24965E-14 9.18926E-15
 -1      1493 3.05461E-01 8.88930E+01 6.02054E-02 6.75194E-01-1.34476E-14 2.02893E-14
 -1      1494 7.33609E-01 9.08240E+01 7.01840E-02 1.51787E+00 7.84373E-14 1.80828E-14
 -1      1495 1.40156E+00 9.21004E+01 5.28444E-02 2.43351E+00 1.52378E-13-1.04777E-14
 -1      1496 2.27665E+00 9.28084E+01 3.25781E-02 3.28066E+00 1.26246E-13-1.92138E-14
 -1      1497 3.28720E+00 9.30696E+01 1.26814E-02 3.96920E+00-1.95323E-13-1.04361E-14
 -1      1498 4.36044E+00 9.30131E+01-2.73264E-03 4.46017E+00 1.29133E-13 3.27863E-14
 -1      1499 5.43451E+00 9.27491E+01-1.28055E-02 4.75284E+00-2.57294E-14-1.49603E-14
 -1      1500 6.46553E+00 9.23602E+01-1.82650E-02 4.86869E+00-4.93772E-14-3.86705E-14
 -1      1501 7.42736E+00 9.19037E+01-2.04369E-02 4.83828E+00 2.92794E-13 1.39385E-14
 -1      1502 8.30783E+00 9.14170E+01-2.05785E-02 4.69321E+00 7.77434E-14 1.05992E-15
 -1      1503 9.10404E+00 9.09237E+01-1.96390E-02 4.46201E+00 4.18589E-14 1.22567E-14
 -1      1504 9.81846E+00 9.04387E+01-1.82502E-02 4.16877E+00 2.48065E-15-3.60996E-15
 -1      1505 1.04561E+01 8.99710E+01-1.67934E-02 3.83306E+00 1.00586E-13-5.52726E-15
 -1      1506 1.10225E+01 8.95270E+01-1.54986E-02 3.47037E+00-1.59456E-13 1.58120E-15
 -1      1507 1.15231E+01 8.91113E+01-1.43662E-02 3.09273E+00 1.54182E-13-1.52439E-14
 -1      1508 2.29789E-01 8.82394E+01 4.44474E-02 4.36737E-01-2.63695E-13-2.10942E-14
 -1      1509 5.60371E-01 9.00227E+01 5.57085E-02 1.03505E+00 2.88280E-13-1.22194E-14
 -1      1510 1.08271E+00 9.12983E+01 4.52465E-02 1.73342E+00-2.68299E-13-5.32907E-15
 -1      1511 1.78187E+00 9.21103E+01 3.21051E-02 2.42093E+00-1.21271E-13-2.49661E-14
 -1      1512 2.61019E+00 9.25321E+01 1.76189E-02 3.01773E+00 1.01967E-13 1.47035E-14
 -1      1513 3.51528E+00 9.26527E+01 5.04195E-03 3.47867E+00-7.93809E-15-3.89550E-14
 -1      1514 4.44813E+00 9.25559E+01-4.38314E-03 3.78825E+00-3.20716E-14-2.52229E-15
 -1      1515 5.36978E+00 9.23115E+01-1.05433E-02 3.95163E+00 5.04319E-14 8.73607E-15
 -1      1516 6.25315E+00 9.19726E+01-1.40045E-02 3.98562E+00-2.94723E-13-2.70478E-14
 -1      1517 7.08190E+00 9.15776E+01-1.55341E-02 3.91196E+00-5.01856E-14-1.43739E-14
 -1      1518 7.84792E+00 9.11529E+01-1.58423E-02 3.75299E+00 3.77219E-13 2.99708E-14
 -1      1519 8.54864E+00 9.07168E+01-1.54832E-02 3.52945E+00-2.51289E-13-1.53618E-14
 -1      1520 9.18466E+00 9.02822E+01-1.48424E-02 3.25947E+00 1.94227E-13-3.46338E-15
 -1      1521 9.75812E+00 8.98583E+01-1.41883E-02 2.95835E+00 4.55993E-13 3.44659E-14
 -1      1522 1.02716E+01 8.94525E+01-1.35608E-02 2.63863E+00-1.41463E-13-1.78265E-14
 -1      1523 1.74413E-01 8.78056E+01 3.30233E-02 2.56032E-01 3.48964E-13 1.89987E-14
 -1      1524 4.31395E-01 8.94364E+01 4.42999E-02 6.64361E-01-4.71068E-13-2.20796E-14
 -1      1525 8.41499E-01 9.06704E+01 3.80245E-02 1.18488E+00 1.45935E-13-2.92127E-15
 -1      1526 1.40050E+00 9.15279E+01 2.96476E-02 1.72979E+00-3.53880E-13-6.02990E-15
 -1      1527 2.07708E+00 9.20516E+01 1.93608E-02 2.23054E+00 1.09208E-13-7.15747E-15
 -1      1528 2.83423E+00 9.23007E+01 9.57646E-03 2.64213E+00 5.11015E-14-1.30868E-14
 -1      1529 3.63439E+00 9.23370E+01 1.47272E-03 2.94188E+00 7.65256E-14 1.27884E-14
 -1      1530 4.44501E+00 9.22162E+01-4.49661E-03 3.12472E+00 2.39846E-13 1.69864E-14
 -1      1531 5.24096E+00 9.19842E+01-8.44636E-03 3.19741E+00 1.05679E-14 7.37084E-15
 -1      1532 6.00481E+00 9.16767E+01-1.07713E-02 3.17343E+00-4.60361E-14 1.15359E-14
 -1      1533 6.72575E+00 9.13207E+01-1.19421E-02 3.06928E+00 5.67220E-14 1.75519E-14
 -1      1534 7.39786E+00 9.09358E+01-1.23895E-02 2.90197E+00 9.10660E-14 1.68832E-14
 -1      1535 8.01850E+00 9.05371E+01-1.24541E-02 2.68760E+00-8.36206E-14-1.39203E-14
 -1      1536 8.58682E+00 9.01361E+01-1.24022E-02 2.44069E+00-2.11636E-14-3.40093E-15
 -1      1537 9.10286E+00 8.97425E+01-1.22878E-02 2.17376E+00-1.62023E-15-5.79528E-15
 -1      1538 1.32377E-01 8.75386E+01 2.44561E-02 1.18274E-01-1.94724E-13-1.27676E-15
 -1      1539 3.32257E-01 8.90200E+01 3.52078E-02 3.78377E-01 1.84205E-13 2.55768E-14
 -1      1540 6.53902E-01 9.01902E+01 3.15652E-02 7.54228E-01 2.81331E-13 2.49800E-14
 -1      1541 1.09961E+00 9.10556E+01 2.63973E-02 1.17540E+00-2.20709E-13 6.24500E-17
 -1      1542 1.64936E+00 9.16388E+01 1.92630E-02 1.58368E+00 1.92058E-13 1.60358E-14
 -1      1543 2.27759E+00 9.19779E+01 1.19134E-02 1.93709E+00-8.66494E-14-8.17749E-15
 -1      1544 2.95631E+00 9.21168E+01 5.31642E-03 2.21026E+00-2.64139E-13-1.11577E-14
 -1      1545 3.65946E+00 9.20980E+01 1.04440E-05 2.39222E+00 1.14367E-13-6.37337E-15
 -1      1546 4.36528E+00 9.19594E+01-3.88991E-03 2.48290E+00-7.92873E-14-7.76289E-15
 -1      1547 5.05716E+00 9.17321E+01-6.53552E-03 2.48954E+00 3.84623E-14-8.62331E-15
 -1      1548 5.72342E+00 9.14414E+01-8.20551E-03 2.42362E+00-7.01869E-15-2.11081E-14
 -1      1549 6.35637E+00 9.11069E+01-9.20827E-03 2.29867E+00 1.70215E-13 1.46428E-14
 -1      1550 6.95118E+00 9.07445E+01-9.81996E-03 2.12868E+00-9.98160E-14-5.13478E-16
 -1      1551 7.50478E+00 9.03670E+01-1.02828E-02 1.92710E+00-3.72768E-13-2.26121E-15
 -1      1552 8.01505E+00 8.99859E+01-1.06469E-02 1.70621E+00-3.06158E-13-3.28626E-14
 -1      1553 9.93555E-02 8.73989E+01 1.78231E-02 1.36280E-02 1.53689E-13 1.29272E-14
 -1      1554 2.53696E-01 8.87378E+01 2.78439E-02 1.58351E-01-1.78715E-13-1.93803E-14
 -1      1555 5.04006E-01 8.98332E+01 2.59229E-02 4.17315E-01 3.73781E-14 2.05044E-14
 -1      1556 8.56598E-01 9.06827E+01 2.29463E-02 7.33128E-01 1.39427E-13 1.38639E-14
 -1      1557 1.29940E+00 9.12958E+01 1.81557E-02 1.05647E+00 1.11414E-13-9.41955E-15
 -1      1558 1.81537E+00 9.16956E+01 1.28168E-02 1.34937E+00-4.09284E-13-6.83134E-15
 -1      1559 2.38429E+00 9.19116E+01 7.67507E-03 1.58631E+00 5.00502E-14 1.01655E-15
 -1      1560 2.98608E+00 9.19753E+01 3.23698E-03 1.75334E+00-9.10140E-14-1.59595E-14
 -1      1561 3.60281E+00 9.19160E+01-2.88142E-04 1.84609E+00-1.92579E-13-2.11810E-15
 -1      1562 4.21982E+00 9.17599E+01-2.91020E-03 1.86730E+00 1.12219E-13 1.75658E-14
 -1      1563 4.82584E+00 9.15291E+01-4.77542E-03 1.82461E+00-8.47239E-14-6.53991E-15
 -1      1564 5.41260E+00 9.12419E+01-6.09284E-03 1.72860E+00-1.14492E-15-5.90500E-15
 -1      1565 5.97412E+00 9.09139E+01-7.07702E-03 1.59135E+00 1.31905E-13 4.98039E-15
 -1      1566 6.50584E+00 9.05586E+01-7.93939E-03 1.42531E+00 2.87517E-13 1.31579E-14
 -1      1567 7.00397E+00 9.01885E+01-8.71842E-03 1.24247E+00-4.19942E-14-2.42861E-16
 -1      1568 7.25619E-02 8.73558E+01 1.25256E-02-6.46161E-02-2.06208E-13 1.55778E-14
 -1      1569 1.89606E-01 8.85611E+01 2.17720E-02-8.79800E-03-1.80292E-13-1.42386E-14
 -1      1570 3.81057E-01 8.95775E+01 2.10261E-02 1.56623E-01 2.64311E-13 1.39472E-14
 -1      1571 6.55746E-01 9.03969E+01 1.95746E-02 3.84120E-01 2.10103E-13 6.64052E-15
 -1      1572 1.00729E+00 9.10200E+01 1.65287E-02 6.31747E-01-2.81037E-13-2.11636E-14
 -1      1573 1.42506E+00 9.14588E+01 1.28099E-02 8.65729E-01 2.51944E-13 1.10745E-14
 -1      1574 1.89507E+00 9.17319E+01 8.97399E-03 1.06170E+00 6.00492E-14 2.13128E-14
 -1      1575 2.40246E+00 9.18611E+01 5.45429E-03 1.20459E+00 1.86701E-13-1.12098E-14
 -1      1576 2.93319E+00 9.18683E+01 2.48140E-03 1.28750E+00 1.19935E-13 1.58554E-15
 -1      1577 3.47505E+00 9.17740E+01 1.15906E-04 1.31024E+00-9.03444E-15-1.23825E-14
 -1      1578 4.01807E+00 9.15967E+01-1.70664E-03 1.27763E+00-2.28657E-13-1.53558E-14
 -1      1579 4.55431E+00 9.13524E+01-3.12598E-03 1.19800E+00 9.57567E-15 1.15706E-15
 -1      1580 5.07747E+00 9.10557E+01-4.30945E-03 1.08194E+00-1.05846E-13-1.43635E-14
 -1      1581 5.58221E+00 9.07198E+01-5.44292E-03 9.41115E-01 1.40929E-14-1.93318E-14
 -1      1582 6.06364E+00 9.03578E+01-6.55438E-03 7.87420E-01 8.03003E-14 8.54785E-15
 -1      1583 5.01628E-02 8.73847E+01 8.16731E-03-1.21141E-01-9.32210E-14 8.59035E-15
 -1      1584 1.35890E-01 8.84663E+01 1.66739E-02-1.32379E-01 3.87546E-14-1.20043E-15
 -1      1585 2.77692E-01 8.94040E+01 1.67683E-02-4.06991E-02-4.86911E-14 2.83974E-14
 -1      1586 4.86018E-01 9.01859E+01 1.64004E-02 1.13930E-01 2.67512E-14-6.64399E-15
 -1      1587 7.58672E-01 9.08061E+01 1.46620E-02 2.95621E-01 1.34998E-13-1.13555E-14
 -1      1588 1.08987E+00 9.12686E+01 1.22343E-02 4.74546E-01 4.50143E-14 1.44641E-14
 -1      1589 1.47059E+00 9.15836E+01 9.52725E-03 6.28119E-01-2.18558E-13-7.78891E-15
 -1      1590 1.89048E+00 9.17648E+01 6.89557E-03 7.41223E-01-1.71450E-13 1.16747E-15
 -1      1591 2.33915E+00 9.18274E+01 4.55641E-03 8.05733E-01 2.14405E-13 4.96304E-15
 -1      1592 2.80708E+00 9.17863E+01 2.59762E-03 8.19608E-01-3.36554E-13-3.10862E-15
 -1      1593 3.28610E+00 9.16561E+01 9.98254E-04 7.85780E-01-4.14078E-14 1.90299E-15
 -1      1594 3.76931E+00 9.14499E+01-3.40576E-04 7.11025E-01 2.17167E-13 2.04550E-14
 -1      1595 4.25079E+00 9.11805E+01-1.55816E-03 6.04891E-01 7.14359E-15-3.82767E-15
 -1      1596 4.72509E+00 9.08601E+01-2.82761E-03 4.78688E-01 2.20830E-13 2.13310E-14
 -1      1597 5.18674E+00 9.05020E+01-4.17531E-03 3.44516E-01-8.82523E-14-2.43121E-15
 -1      1598 3.09391E-02 8.74655E+01 4.48293E-03-1.59291E-01-7.76727E-14 1.24414E-14
 -1      1599 8.97826E-02 8.84340E+01 1.23204E-02-2.19153E-01 3.01744E-14-6.93542E-15
 -1      1600 1.88855E-01 8.92964E+01 1.30434E-02-1.84219E-01-7.33146E-14 2.40780E-14
 -1      1601 3.39686E-01 9.00376E+01 1.34604E-02-8.85637E-02 5.85365E-14-6.47399E-15
 -1      1602 5.43215E-01 9.06474E+01 1.27085E-02 3.69069E-02-1.46059E-13 8.50708E-15
 -1      1603 7.97363E-01 9.11236E+01 1.13037E-02 1.65922E-01-2.69361E-13-9.01362E-15
 -1      1604 1.09709E+00 9.14696E+01 9.55168E-03 2.77876E-01 3.08338E-13 1.88981E-14
 -1      1605 1.43581E+00 9.16926E+01 7.73896E-03 3.58231E-01 1.47283E-13-1.27624E-14
 -1      1606 1.80649E+00 9.18016E+01 6.05724E-03 3.98407E-01-1.85952E-13 9.28424E-15
 -1      1607 2.20235E+00 9.18066E+01 4.59835E-03 3.95323E-01 6.93161E-14-4.99600E-16
 -1      1608 2.61732E+00 9.17177E+01 3.35925E-03 3.50719E-01 2.14939E-13 2.79811E-15
 -1      1609 3.04605E+00 9.15450E+01 2.25878E-03 2.70388E-01 4.76078E-14 1.07119E-14
 -1      1610 3.48363E+00 9.12986E+01 1.16594E-03 1.63349E-01-2.68188E-15-3.29684E-15
 -1      1611 3.92511E+00 9.09896E+01-9.69954E-05 4.09725E-02-1.47674E-13 1.08689E-14
 -1      1612 4.36501E+00 9.06301E+01-1.57022E-03-8.39749E-02 2.68396E-14 1.78199E-15
 -1      1613 1.40925E-02 8.75811E+01 1.29656E-03-1.81529E-01 4.14632E-13 1.59560E-14
 -1      1614 4.94440E-02 8.84475E+01 8.54992E-03-2.74166E-01-3.98761E-14-3.35496E-15
 -1      1615 1.11131E-01 8.92399E+01 9.76023E-03-2.81222E-01 1.37646E-13 4.74273E-15
 -1      1616 2.11429E-01 8.99410E+01 1.07522E-02-2.32047E-01-1.15362E-13 1.05402E-14
 -1      1617 3.53665E-01 9.05369E+01 1.07451E-02-1.53412E-01 2.62880E-14-1.66152E-14
 -1      1618 5.38598E-01 9.10207E+01 1.01445E-02-6.84519E-02-7.64267E-14-1.75589E-14
 -1      1619 7.64337E-01 9.13905E+01 9.18636E-03 4.19107E-03 1.81863E-13 7.00828E-15
 -1      1620 1.02748E+00 9.16480E+01 8.10639E-03 5.08348E-02 3.40422E-14 5.50081E-15
 -1      1621 1.32393E+00 9.17970E+01 7.07143E-03 6.28893E-02-3.92898E-14 5.11743E-16
 -1      1622 1.64962E+00 9.18426E+01 6.16783E-03 3.67268E-02-3.93106E-14-5.01335E-15
 -1      1623 2.00078E+00 9.17907E+01 5.39597E-03-2.66290E-02-2.25561E-13 3.26475E-15
 -1      1624 2.37400E+00 9.16477E+01 4.67593E-03-1.21939E-01 3.23212E-13-5.24667E-15
 -1      1625 2.76593E+00 9.14208E+01 3.86708E-03-2.40300E-01 5.27807E-14 2.21784E-15
 -1      1626 3.17272E+00 9.11186E+01 2.76718E-03-3.69837E-01 1.51407E-14-2.23875E-14
 -1      1627 3.58947E+00 9.07524E+01 1.30087E-03-4.96594E-01 2.80644E-14 1.27980E-14
 -1      1628-8.70941E-04 8.77168E+01-1.50368E-03-1.89753E-01-1.08869E-13 1.82944E-14
 -1      1629 1.37147E-02 8.84925E+01 5.25257E-03-3.01339E-01 7.24423E-14-7.29625E-15
 -1      1630 4.23264E-02 8.92220E+01 6.84716E-03-3.37441E-01-1.42651E-13-6.41848E-16
 -1      1631 9.77645E-02 8.98857E+01 8.25725E-03-3.23482E-01-9.93485E-14 4.55538E-15
 -1      1632 1.85168E-01 9.04671E+01 8.80457E-03-2.82725E-01-1.72132E-13 3.74700E-15
 -1      1633 3.07443E-01 9.09556E+01 8.82412E-03-2.35563E-01 1.16837E-13-4.48599E-15
 -1      1634 4.65160E-01 9.13451E+01 8.51126E-03-1.98814E-01-2.23901E-13 1.41328E-14
 -1      1635 6.57507E-01 9.16327E+01 8.06903E-03-1.85248E-01 3.30260E-13-7.85136E-15
 -1      1636 8.83008E-01 9.18176E+01 7.64764E-03-2.03287E-01-1.63846E-13 1.75276E-14
 -1      1637 1.14011E+00 9.19006E+01 7.32831E-03-2.56873E-01-1.15682E-13-1.38847E-14
 -1      1638 1.42747E+00 9.18830E+01 7.10997E-03-3.45463E-01 2.54529E-13 7.29972E-15
 -1      1639 1.74397E+00 9.17673E+01 6.90477E-03-4.64130E-01-3.48901E-13-1.93656E-14
 -1      1640 2.08832E+00 9.15572E+01 6.54846E-03-6.03808E-01 2.59225E-13 7.34655E-16
 -1      1641 2.45845E+00 9.12584E+01 5.79347E-03-7.51734E-01-1.46726E-13 2.73241E-15
 -1      1642 2.85071E+00 9.08800E+01 4.50200E-03-8.92216E-01-1.51264E-13 4.96261E-15
 -1      1643-1.42105E-02 8.78598E+01-3.98094E-03-1.85528E-01-1.58274E-13 1.13798E-14
 -1      1644-1.80373E-02 8.85568E+01 2.35978E-03-3.03913E-01-1.50253E-14-1.76734E-14
 -1      1645-1.87908E-02 8.92314E+01 4.25289E-03-3.57640E-01 4.20329E-14 1.28543E-14
 -1      1646-3.31831E-03 8.98623E+01 5.95384E-03-3.68699E-01 4.36673E-14-8.41688E-15
 -1      1647 3.48474E-02 9.04308E+01 6.89576E-03-3.57298E-01-5.37799E-14-5.22846E-15
 -1      1648 1.00167E-01 9.09236E+01 7.37296E-03-3.41416E-01-1.51594E-13-9.76649E-16
 -1      1649 1.95058E-01 9.13311E+01 7.56329E-03-3.36254E-01-1.38726E-14-1.82840E-15
 -1      1650 3.20757E-01 9.16468E+01 7.65530E-03-3.53755E-01 2.78822E-14-2.44076E-15
 -1      1651 4.77996E-01 9.18659E+01 7.79493E-03-4.02198E-01-6.92675E-14-4.88672E-15
 -1      1652 6.67555E-01 9.19848E+01 8.06610E-03-4.85844E-01-6.28785E-14 5.55112E-17
 -1      1653 8.90560E-01 9.20009E+01 8.47028E-03-6.04631E-01 9.19230E-15 1.54911E-15
 -1      1654 1.14845E+00 9.19122E+01 8.91128E-03-7.53934E-01 3.37907E-14 5.95444E-16
 -1      1655 1.44254E+00 9.17181E+01 9.19358E-03-9.24440E-01 4.14998E-14 8.35573E-15
 -1      1656 1.77326E+00 9.14205E+01 9.00509E-03-1.10226E+00 2.34493E-13-1.29498E-14
 -1      1657 2.13907E+00 9.10254E+01 8.11266E-03-1.26945E+00-2.22392E-14 8.73433E-16
 -1      1658-2.59947E-02 8.79988E+01-6.15950E-03-1.70277E-01 1.40335E-14 1.62370E-15
 -1      1659-4.60137E-02 8.86294E+01-1.63219E-04-2.84794E-01-7.75968E-14-8.11851E-16
 -1      1660-7.26604E-02 8.92581E+01 1.94645E-03-3.46065E-01-4.16955E-14 9.64853E-15
 -1      1661-9.26002E-02 8.98619E+01 3.82493E-03-3.72900E-01 1.19053E-13 3.68455E-15
 -1      1662-9.84847E-02 9.04207E+01 5.01743E-03-3.82738E-01 3.57678E-14-1.76421E-15
 -1      1663-8.48442E-02 9.09190E+01 5.79992E-03-3.91412E-01 1.27051E-14-9.80813E-15
 -1      1664-4.80008E-02 9.13449E+01 6.35068E-03-4.12721E-01-5.43931E-14-1.80585E-15
 -1      1665 1.47789E-02 9.16886E+01 6.86045E-03-4.57971E-01 2.29049E-13 3.45210E-16
 -1      1666 1.05987E-01 9.19422E+01 7.48577E-03-5.35476E-01 1.38199E-13 2.17465E-14
 -1      1667 2.28463E-01 9.20982E+01 8.32704E-03-6.50022E-01-4.77084E-14 3.27169E-15
 -1      1668 3.85742E-01 9.21496E+01 9.40131E-03-8.02274E-01 9.38295E-14-9.29205E-15
 -1      1669 5.82053E-01 9.20899E+01 1.06145E-02-9.88168E-01-1.13253E-13 6.72379E-15
 -1      1670 8.21871E-01 9.19135E+01 1.17430E-02-1.19834E+00-6.15029E-14-1.68018E-14
 -1      1671 1.10893E+00 9.16173E+01 1.23973E-02-1.41777E+00-7.41195E-14-1.25854E-15
 -1      1672 1.44485E+00 9.12026E+01 1.22123E-02-1.62589E+00 1.28647E-14-8.35096E-15
 -1      1673-3.61324E-02 8.81243E+01-8.03154E-03-1.45430E-01 2.69789E-14 1.23686E-14
 -1      1674-7.00557E-02 8.87011E+01-2.32295E-03-2.46845E-01-5.35886E-14-8.17402E-15
 -1      1675-1.19053E-01 8.92933E+01-8.33650E-05-3.06837E-01-2.00465E-13 9.96252E-15
 -1      1676-1.69806E-01 8.98765E+01 1.86364E-03-3.41094E-01 1.08219E-13 5.01509E-15
 -1      1677-2.14529E-01 9.04297E+01 3.16901E-03-3.64441E-01 4.15223E-14-9.04658E-15
 -1      1678-2.47281E-01 9.09361E+01 4.10620E-03-3.90749E-01-5.58212E-14-9.12291E-15
 -1      1679-2.63719E-01 9.13818E+01 4.86688E-03-4.32624E-01-4.48582E-14 2.02616E-15
 -1      1680-2.60202E-01 9.17551E+01 5.65820E-03-5.00969E-01 7.68430E-14 6.08888E-16
 -1      1681-2.33005E-01 9.20452E+01 6.66294E-03-6.04427E-01-2.89520E-13-1.03702E-14
 -1      1682-1.77625E-01 9.22412E+01 8.01647E-03-7.48684E-01 6.22254E-14 3.41394E-15
 -1      1683-8.82991E-02 9.23322E+01 9.77350E-03-9.35622E-01 1.55982E-13 8.84926E-15
 -1      1684 4.21136E-02 9.23065E+01 1.18666E-02-1.16230E+00-1.13860E-13-6.01385E-15
 -1      1685 2.21734E-01 9.21528E+01 1.40645E-02-1.41987E+00 7.17065E-14-3.76565E-15
 -1      1686 4.58555E-01 9.18616E+01 1.59030E-02-1.69257E+00-4.68618E-14-6.03684E-15
 -1      1687 7.58704E-01 9.14276E+01 1.68516E-02-1.95711E+00 3.80668E-14-9.51236E-15
 -1      1688-4.44004E-02 8.82279E+01-9.56292E-03-1.12546E-01 1.45681E-13 7.99881E-15
 -1      1689-8.97051E-02 8.87640E+01-4.10239E-03-1.93117E-01-9.19772E-15-8.42555E-15
 -1      1690-1.57179E-01 8.93292E+01-1.82868E-03-2.44271E-01-5.43515E-14 7.95544E-15
 -1      1691-2.33757E-01 8.98985E+01 7.75340E-05-2.78491E-01 7.05738E-14-1.55431E-15
 -1      1692-3.11684E-01 9.04507E+01 1.35965E-03-3.08012E-01-2.58100E-13-2.72525E-15
 -1      1693-3.85093E-01 9.09682E+01 2.29826E-03-3.44855E-01 5.95817E-14-6.80532E-15
 -1      1694-4.49595E-01 9.14362E+01 3.10563E-03-4.00600E-01-1.41044E-13 7.87911E-15
 -1      1695-5.01295E-01 9.18416E+01 4.01564E-03-4.85983E-01 1.31908E-13-1.19627E-14
 -1      1696-5.35880E-01 9.21716E+01 5.25191E-03-6.10327E-01 6.36010E-14 1.41588E-14
 -1      1697-5.47745E-01 9.24125E+01 7.00580E-03-7.80730E-01 7.18757E-14-3.37664E-15
 -1      1698-5.29288E-01 9.25496E+01 9.39955E-03-1.00099E+00-1.02132E-13 5.35119E-15
 -1      1699-4.70544E-01 9.25661E+01 1.24330E-02-1.27019E+00 2.65118E-14-4.38516E-15
 -1      1700-3.59366E-01 9.24442E+01 1.59144E-02-1.58103E+00-1.59987E-13-1.19774E-14
 -1      1701-1.82508E-01 9.21662E+01 1.93409E-02-1.91795E+00 8.12354E-14 4.80518E-16
 -1      1702 7.23047E-02 9.17179E+01 2.20013E-02-2.25547E+00-3.33848E-14 2.00361E-16
 -1      1703-5.04732E-02 8.83030E+01-1.06991E-02-7.34187E-02 2.27156E-13 1.30260E-14
 -1      1704-1.04272E-01 8.88115E+01-5.46576E-03-1.27039E-01-1.58118E-14-1.54807E-14
 -1      1705-1.85805E-01 8.93592E+01-3.26374E-03-1.63153E-01 1.02706E-13 1.83031E-14
 -1      1706-2.82548E-01 8.99214E+01-1.50810E-03-1.90831E-01-4.68690E-14-6.86950E-16
 -1      1707-3.87259E-01 9.04769E+01-3.83465E-04-2.19661E-01 1.76496E-13 2.50494E-15
 -1      1708-4.94700E-01 9.10085E+01 4.00865E-04-2.59835E-01-7.50253E-14-6.74114E-15
 -1      1709-6.01085E-01 9.15014E+01 1.07796E-03-3.21999E-01-4.05123E-15 2.04350E-15
 -1      1710-7.02997E-01 9.19417E+01 1.91282E-03-4.16919E-01-1.92862E-13-7.16094E-15
 -1      1711-7.96312E-01 9.23156E+01 3.18066E-03-5.54935E-01 1.27307E-14 2.90913E-15
 -1      1712-8.75107E-01 9.26076E+01 5.14961E-03-7.45119E-01-2.63155E-13-1.01620E-14
 -1      1713-9.30632E-01 9.27996E+01 8.04292E-03-9.94046E-01 1.32831E-13 5.41798E-15
 -1      1714-9.50525E-01 9.28699E+01 1.19813E-02-1.30406E+00-9.98047E-14-4.28325E-15
 -1      1715-9.18549E-01 9.27936E+01 1.68956E-02-1.67098E+00 5.77281E-14-1.04478E-14
 -1      1716-8.15327E-01 9.25434E+01 2.23373E-02-2.08119E+00-1.17617E-13 2.81893E-15
 -1      1717-6.20525E-01 9.20928E+01 2.74624E-02-2.50849E+00 3.12840E-14-1.51476E-14
 -1      1718-5.39632E-02 8.83450E+01-1.13729E-02-3.01431E-02 2.00981E-13 1.02800E-14
 -1      1719-1.12919E-01 8.88388E+01-6.36448E-03-5.25556E-02-1.78414E-13-1.22645E-15
 -1      1720-2.03409E-01 8.93781E+01-4.34739E-03-6.89285E-02-2.21932E-14 1.03494E-14
 -1      1721-3.13769E-01 8.99392E+01-2.84849E-03-8.46603E-02-3.29397E-14-3.43822E-15
 -1      1722-4.37757E-01 9.05019E+01-2.00818E-03-1.06554E-01 7.43232E-14 1.76942E-15
 -1      1723-5.71311E-01 9.10500E+01-1.53009E-03-1.42909E-01-2.10746E-13-8.13585E-15
 -1      1724-7.11903E-01 9.15696E+01-1.16863E-03-2.03435E-01 9.85063E-14 4.23273E-16
 -1      1725-8.57377E-01 9.20474E+01-6.32448E-04-2.99005E-01 2.54081E-13 3.74700E-16
 -1      1726-1.00473E+00 9.24693E+01 4.08284E-04-4.41221E-01 1.34244E-13 4.80865E-15
 -1      1727-1.14876E+00 9.28191E+01 2.31514E-03-6.41646E-01-7.38825E-14-2.82240E-15
 -1      1728-1.28064E+00 9.30762E+01 5.44694E-03-9.10559E-01 1.39133E-13 7.61934E-15
 -1      1729-1.38657E+00 9.32148E+01 1.00956E-02-1.25501E+00-1.62805E-13-4.05470E-15
 -1      1730-1.44677E+00 9.32029E+01 1.64204E-02-1.67600E+00-2.94617E-14 5.89806E-16
 -1      1731-1.43529E+00 9.30025E+01 2.42317E-02-2.16466E+00 1.62205E-13-8.39086E-15
 -1      1732-1.32179E+00 9.25717E+01 3.27219E-02-2.69700E+00-4.74742E-14 1.91860E-15
 -1      1733-5.44694E-02 8.83512E+01-1.15109E-02 1.48549E-02-2.78116E-13 1.62145E-14
 -1      1734-1.14776E-01 8.88425E+01-6.74310E-03 2.58133E-02 1.85762E-13-9.54618E-15
 -1      1735-2.08376E-01 8.93818E+01-5.02619E-03 3.21825E-02-3.21088E-13 1.25993E-14
 -1      1736-3.24813E-01 8.99469E+01-3.87871E-03 3.25006E-02 1.11321E-13 1.36870E-15
 -1      1737-4.59291E-01 9.05196E+01-3.43113E-03 2.29218E-02-1.79647E-13-2.57953E-15
 -1      1738-6.09415E-01 9.10856E+01-3.39422E-03-2.81744E-03 6.24554E-14-4.29691E-15
 -1      1739-7.74525E-01 9.16326E+01-3.52787E-03-5.33505E-02-1.25789E-14-1.95156E-15
 -1      1740-9.54522E-01 9.21490E+01-3.53132E-03-1.39564E-01 2.54558E-13 2.99587E-15
 -1      1741-1.14857E+00 9.26220E+01-3.03279E-03-2.74354E-01-1.57211E-13-1.18482E-15
 -1      1742-1.35349E+00 9.30357E+01-1.57151E-03-4.72095E-01-8.36991E-14-2.33667E-15
 -1      1743-1.56188E+00 9.33687E+01 1.38107E-03-7.47582E-01 6.86018E-14 9.29075E-15
 -1      1744-1.76014E+00 9.35923E+01 6.34554E-03-1.11408E+00 1.35334E-13 1.72171E-16
 -1      1745-1.92651E+00 9.36680E+01 1.37372E-02-1.58021E+00-8.99578E-14 5.49040E-16
 -1      1746-2.02906E+00 9.35476E+01 2.39261E-02-2.14547E+00 3.52548E-13-1.90820E-15
 -1      1747-2.02600E+00 9.31717E+01 3.67020E-02-2.79336E+00 2.31228E-13 5.02202E-15
 -1      1748-5.16476E-02 8.83210E+01-1.10574E-02 5.88360E-02-1.39638E-13 1.65649E-14
 -1      1749-1.09079E-01 8.88215E+01-6.55697E-03 1.02991E-01 1.15797E-13 3.86843E-16
 -1      1750-1.99267E-01 8.93679E+01-5.25109E-03 1.33191E-01-4.62398E-14 1.66204E-14
 -1      1751-3.13275E-01 8.99408E+01-4.52548E-03 1.52110E-01-1.21393E-13-5.03070E-15
 -1      1752-4.48136E-01 9.05249E+01-4.54650E-03 1.59018E-01 2.36953E-14-8.65627E-16
 -1      1753-6.03485E-01 9.11084E+01-5.05023E-03 1.49898E-01-2.87992E-14-2.27075E-15
 -1      1754-7.81007E-01 9.16818E+01-5.82842E-03 1.17472E-01 5.82325E-14 3.86149E-15
 -1      1755-9.83370E-01 9.22361E+01-6.60258E-03 5.11721E-02-2.18948E-14-7.78197E-15
 -1      1756-1.21296E+00 9.27609E+01-6.99248E-03-6.28915E-02 9.13774E-14 6.53817E-15
 -1      1757-1.47015E+00 9.32425E+01-6.46910E-03-2.41819E-01 1.12645E-13 8.27463E-16
 -1      1758-1.75101E+00 9.36610E+01-4.30660E-03-5.05359E-01-1.19720E-13 3.56225E-15
 -1      1759-2.04433E+00 9.39867E+01 3.39302E-04-8.74339E-01 9.50845E-14-2.72221E-15
 -1      1760-2.32898E+00 9.41767E+01 8.22456E-03-1.36751E+00 1.91667E-13-3.03230E-15
 -1      1761-2.57067E+00 9.41728E+01 1.98944E-02-1.99664E+00-2.42232E-13-4.33334E-15
 -1      1762-2.71488E+00 9.39025E+01 3.75831E-02-2.75983E+00-8.65150E-14-3.57353E-16
 -1      1763-4.52331E-02 8.82569E+01-9.89612E-03 9.88166E-02 2.84613E-13-4.87110E-15
 -1      1764-9.53183E-02 8.87766E+01-5.74184E-03 1.73467E-01 1.14783E-13-8.46719E-15
 -1      1765-1.75078E-01 8.93356E+01-4.93520E-03 2.26494E-01 9.09336E-14 8.87138E-15
 -1      1766-2.77410E-01 8.99187E+01-4.66447E-03 2.64737E-01 6.59520E-14-1.58727E-15
 -1      1767-4.01409E-01 9.05138E+01-5.17634E-03 2.90685E-01 1.45914E-14-5.51642E-15
 -1      1768-5.48894E-01 9.11128E+01-6.25418E-03 3.02798E-01 3.89979E-14-7.40900E-15
 -1      1769-7.24138E-01 9.17092E+01-7.75406E-03 2.95561E-01-8.13048E-14 5.56846E-16
 -1      1770-9.33033E-01 9.22977E+01-9.46567E-03 2.59323E-01-7.17039E-14-4.72539E-15
 -1      1771-1.18206E+00 9.28717E+01-1.10667E-02 1.79931E-01-1.79215E-13 1.72605E-15
 -1      1772-1.47673E+00 9.34216E+01-1.20302E-02 3.82781E-02-8.07514E-15-4.06446E-15
 -1      1773-1.81905E+00 9.39311E+01-1.15477E-02-1.89953E-01 2.22617E-14 4.29387E-15
 -1      1774-2.20381E+00 9.43736E+01-8.31050E-03-5.33841E-01-1.20603E-13-3.83222E-15
 -1      1775-2.61306E+00 9.47059E+01-8.98080E-04-1.02464E+00 1.99868E-13 7.40380E-15
 -1      1776-3.01469E+00 9.48602E+01 1.15740E-02-1.69053E+00-1.23339E-15-1.93422E-15
 -1      1777-3.35282E+00 9.47526E+01 2.97483E-02-2.55151E+00 8.32494E-15 9.78384E-15
 -1      1778-3.53727E-02 8.81632E+01-8.40662E-03 1.31714E-01 5.45215E-14 2.27318E-14
 -1      1779-7.35384E-02 8.87103E+01-4.54297E-03 2.31566E-01-2.01797E-13-8.66147E-15
 -1      1780-1.35710E-01 8.92861E+01-4.26889E-03 3.04194E-01-1.77966E-15 1.70506E-14
 -1      1781-2.16848E-01 8.98800E+01-4.44891E-03 3.60411E-01 2.98390E-14-1.10155E-15
 -1      1782-3.18075E-01 9.04842E+01-5.44156E-03 4.05887E-01-1.33392E-13 3.00281E-15
 -1      1783-4.43293E-01 9.10942E+01-7.07883E-03 4.41760E-01-3.15494E-13-5.40019E-15
 -1      1784-5.99242E-01 9.17078E+01-9.30513E-03 4.64752E-01-8.13507E-14 7.85830E-16
 -1      1785-7.95049E-01 9.23236E+01-1.20160E-02 4.66936E-01 1.10762E-14-8.14279E-15
 -1      1786-1.04168E+00 9.29399E+01-1.50090E-02 4.35075E-01 1.37978E-13 6.96665E-15
 -1      1787-1.35087E+00 9.35529E+01-1.78819E-02 3.49571E-01-8.71647E-14-2.16147E-15
 -1      1788-1.73307E+00 9.41528E+01-1.98370E-02 1.83125E-01-2.79776E-13-2.32453E-16
 -1      1789-2.19366E+00 9.47196E+01-1.96047E-02-1.00320E-01 1.42386E-14-7.71952E-17
 -1      1790-2.72631E+00 9.52159E+01-1.44134E-02-5.45967E-01 7.87755E-14-8.63892E-16
 -1      1791-3.30002E+00 9.55777E+01-1.82067E-03-1.20161E+00-1.84661E-13 3.48159E-15
 -1      1792-3.86649E+00 9.56924E+01 2.05653E-02-2.11653E+00-2.69566E-13-9.25302E-15
 -1      1793-4.92701E-03 8.79131E+01-3.10153E-03 1.64155E-01 7.64419E-14 4.02109E-15
 -1      1794-6.05327E-03 8.85322E+01-2.51341E-05 2.88951E-01 2.14170E-13-3.56312E-15
 -1      1795-1.25196E-02 8.91467E+01-9.24866E-04 3.82430E-01 2.91379E-14 1.39229E-14
 -1      1796-2.29381E-02 8.97584E+01-1.86011E-03 4.61784E-01 1.55528E-13 1.00267E-15
 -1      1797-4.19230E-02 9.03686E+01-3.46403E-03 5.38218E-01 1.39469E-13-4.09395E-15
 -1      1798-7.60466E-02 9.09813E+01-5.73413E-03 6.18268E-01 9.96052E-14-6.09235E-15
 -1      1799-1.34864E-01 9.16022E+01-8.84958E-03 7.04320E-01-4.18493E-14 4.15119E-15
 -1      1800-2.31486E-01 9.22389E+01-1.30277E-02 7.94571E-01-5.45380E-14-3.28210E-15
 -1      1801-3.83487E-01 9.29004E+01-1.85289E-02 8.82266E-01-8.49824E-14 3.92915E-15
 -1      1802-6.13871E-01 9.35967E+01-2.55992E-02 9.54028E-01 2.53032E-13-1.73125E-15
 -1      1803-9.51770E-01 9.43373E+01-3.43260E-02 9.86888E-01 6.09547E-14 3.97252E-15
 -1      1804-1.43218E+00 9.51276E+01-4.43810E-02 9.43864E-01-6.16382E-14 6.35256E-15
 -1      1805-2.09194E+00 9.59624E+01-5.36760E-02 7.67155E-01 7.66609E-14-8.63892E-15
 -1      1806-2.96350E+00 9.68081E+01-6.12005E-02 3.75477E-01 2.12282E-13-3.92568E-15
 -1      1807-3.96768E+00 9.76164E+01-1.00387E-02-3.62267E-01 7.32886E-14 1.40304E-14
 -1      1808 1.43687E-02 8.77788E+01 6.59620E-04 1.58090E-01-1.28927E-13 1.55050E-14
 -1      1809 3.64503E-02 8.84367E+01 3.19343E-03 2.77473E-01-7.90513E-14-1.41345E-14
 -1      1810 6.60102E-02 8.90695E+01 1.71783E-03 3.67489E-01-9.60840E-14 9.12465E-15
 -1      1811 1.02404E-01 8.96854E+01 6.32826E-04 4.46925E-01 5.94451E-14-8.02830E-15
 -1      1812 1.40112E-01 9.02906E+01-9.11899E-04 5.28731E-01-2.17569E-13-5.62050E-16
 -1      1813 1.72623E-01 9.08930E+01-2.96444E-03 6.21564E-01 4.05743E-14-8.81933E-15
 -1      1814 1.90987E-01 9.15016E+01-5.79824E-03 7.30628E-01-2.01630E-13 2.13718E-15
 -1      1815 1.82870E-01 9.21276E+01-9.76192E-03 8.57928E-01 3.11366E-14-6.13745E-15
 -1      1816 1.31038E-01 9.27844E+01-1.53332E-02 1.00184E+00 1.03802E-13 1.60635E-15
 -1      1817 1.13429E-02 9.34883E+01-2.31549E-02 1.15570E+00-1.63949E-14-4.58314E-15
 -1      1818-2.09671E-01 9.42582E+01-3.38880E-02 1.30503E+00-3.52437E-13 2.12504E-15
 -1      1819-5.77631E-01 9.51143E+01-4.86297E-02 1.42222E+00-5.94455E-14-2.70270E-15
 -1      1820-1.14867E+00 9.60760E+01-6.45744E-02 1.45798E+00 1.63612E-13-6.41501E-15
 -1      1821-1.99289E+00 9.71429E+01-9.19152E-02 1.32492E+00 1.69656E-14-8.89913E-16
 -1      1822-3.12598E+00 9.83042E+01-5.16480E-02 8.70283E-01-4.27436E-15-8.71005E-15
 -1      1823 3.41454E-02 8.76584E+01 4.29663E-03 1.34645E-01 9.54983E-14 6.92155E-15
 -1      1824 8.04244E-02 8.83525E+01 6.35582E-03 2.34564E-01-1.00527E-14-4.28824E-15
 -1      1825 1.47576E-01 8.90000E+01 4.42285E-03 3.09731E-01-9.80242E-14 1.93109E-14
 -1      1826 2.33564E-01 8.96158E+01 3.32996E-03 3.78946E-01 2.00068E-13 3.52843E-15
 -1      1827 3.32537E-01 9.02105E+01 2.07048E-03 4.55677E-01-3.60805E-14-3.69149E-15
 -1      1828 4.39078E-01 9.07952E+01 5.73540E-04 5.49762E-01 6.14890E-14-4.78090E-15
 -1      1829 5.46437E-01 9.13815E+01-1.45518E-03 6.68484E-01 1.66840E-13 2.61943E-15
 -1      1830 6.45458E-01 9.19830E+01-4.39194E-03 8.17175E-01-8.00575E-15-4.62824E-15
 -1      1831 7.22839E-01 9.26159E+01-8.78966E-03 9.99282E-01-8.88404E-14 4.98906E-15
 -1      1832 7.58625E-01 9.33006E+01-1.54782E-02 1.21569E+00-3.98657E-14-7.94503E-16
 -1      1833 7.22613E-01 9.40629E+01-2.56036E-02 1.46275E+00 1.93404E-13 5.57193E-15
 -1      1834 5.68698E-01 9.49352E+01-4.12402E-02 1.72803E+00 9.21485E-15-4.40273E-15
 -1      1835 2.30801E-01 9.59586E+01-6.20443E-02 1.98104E+00-1.58949E-13-3.26128E-15
 -1      1836-4.04113E-01 9.71667E+01-1.06654E-01 2.15572E+00-5.56707E-14-3.11036E-15
 -1      1837-1.40564E+00 9.86470E+01-8.15245E-02 2.11717E+00 1.27343E-13 8.47586E-15
 -1      1838 5.29425E-02 8.75674E+01 7.77220E-03 9.40496E-02-1.52300E-14 1.86136E-14
 -1      1839 1.22262E-01 8.82913E+01 9.42519E-03 1.60494E-01-2.41171E-14-3.82333E-15
 -1      1840 2.25405E-01 8.89486E+01 7.13424E-03 2.09184E-01-2.90808E-14 1.49637E-14
 -1      1841 3.59322E-01 8.95598E+01 6.15469E-03 2.57171E-01 8.33101E-14-6.04725E-15
 -1      1842 5.18436E-01 9.01395E+01 5.35322E-03 3.17007E-01-4.28520E-14 1.42247E-16
 -1      1843 6.99216E-01 9.07012E+01 4.67768E-03 3.98420E-01 9.22196E-14-7.24074E-15
 -1      1844 8.98350E-01 9.12582E+01 3.87574E-03 5.09493E-01-1.87955E-13 3.11209E-15
 -1      1845 1.11185E+00 9.18252E+01 2.65118E-03 6.57533E-01 1.24182E-13-3.54924E-15
 -1      1846 1.33362E+00 9.24195E+01 5.56147E-04 8.49635E-01 9.87734E-14 4.52416E-15
 -1      1847 1.55327E+00 9.30630E+01-3.15113E-03 1.09287E+00-2.07143E-14-4.22232E-15
 -1      1848 1.75266E+00 9.37847E+01-9.61531E-03 1.39373E+00 3.09232E-14 4.94049E-15
 -1      1849 1.89936E+00 9.46239E+01-2.14345E-02 1.75602E+00-1.58869E-13-2.95250E-15
 -1      1850 1.93825E+00 9.56361E+01-3.97081E-02 2.17540E+00 2.65656E-13-3.75394E-15
 -1      1851 1.75767E+00 9.68884E+01-8.69402E-02 2.62619E+00-4.32779E-14-8.17402E-15
 -1      1852 1.25712E+00 9.85312E+01-7.62358E-02 3.03577E+00-8.80129E-14 3.27516E-15
 -1      1853 6.90282E-02 8.75198E+01 1.07558E-02 3.79697E-02 1.31472E-13 1.70003E-16
 -1      1854 1.58071E-01 8.82643E+01 1.20521E-02 5.82714E-02-6.12527E-14-3.01495E-15
 -1      1855 2.92174E-01 8.89252E+01 9.51463E-03 6.97559E-02 6.77835E-14 8.03177E-15
 -1      1856 4.67597E-01 8.95277E+01 8.71234E-03 8.60283E-02 1.07771E-13 5.04111E-15
 -1      1857 6.79377E-01 9.00894E+01 8.43077E-03 1.17250E-01-1.03860E-13-3.95864E-15
 -1      1858 9.26202E-01 9.06257E+01 8.66469E-03 1.71583E-01 2.10665E-14-1.28370E-15
 -1      1859 1.20869E+00 9.11507E+01 9.25375E-03 2.56283E-01 1.47432E-13 3.96211E-15
 -1      1860 1.52891E+00 9.16792E+01 1.00674E-02 3.78620E-01-1.09046E-13-4.41661E-15
 -1      1861 1.88972E+00 9.22282E+01 1.09170E-02 5.46734E-01-1.58196E-13 4.08701E-15
 -1      1862 2.29372E+00 9.28191E+01 1.14571E-02 7.70435E-01-3.17611E-14-3.08434E-15
 -1      1863 2.74145E+00 9.34805E+01 1.10588E-02 1.06192E+00 1.91184E-14 1.33921E-15
 -1      1864 3.22731E+00 9.42531E+01 8.01433E-03 1.43609E+00 2.49984E-13 8.70137E-15
 -1      1865 3.73331E+00 9.51978E+01 1.11017E-03 1.90997E+00-4.30628E-14-6.15480E-15
 -1      1866 4.20254E+00 9.64004E+01-2.61341E-02 2.49776E+00-2.35166E-13-1.37390E-15
 -1      1867 4.56656E+00 9.80323E+01-2.36492E-02 3.20180E+00-1.10731E-13-2.49800E-15
 -1      1868 8.08369E-02 8.75278E+01 1.29637E-02-3.04720E-02 9.41205E-14 6.89032E-15
 -1      1869 1.84320E-01 8.82812E+01 1.39741E-02-6.64367E-02 1.62231E-14-6.90420E-15
 -1      1870 3.41166E-01 8.89386E+01 1.12806E-02-1.00818E-01 4.33750E-14 1.15220E-14
 -1      1871 5.47190E-01 8.95288E+01 1.06466E-02-1.24914E-01-3.87915E-14-1.49186E-16
 -1      1872 7.98062E-01 9.00714E+01 1.08122E-02-1.32245E-01-5.56174E-14-5.68989E-16
 -1      1873 1.09442E+00 9.05828E+01 1.18248E-02-1.17565E-01 1.37217E-13-4.97866E-15
 -1      1874 1.44029E+00 9.10777E+01 1.36258E-02-7.60777E-02-1.63182E-13 1.14145E-15
 -1      1875 1.84316E+00 9.15706E+01 1.62684E-02-2.70772E-03 6.01906E-14-4.10089E-15
 -1      1876 2.31409E+00 9.20774E+01 1.98713E-02 1.08654E-01 2.29747E-14 4.48946E-15
 -1      1877 2.86826E+00 9.26178E+01 2.46114E-02 2.66034E-01 8.32242E-14-3.58047E-15
 -1      1878 3.52560E+00 9.32186E+01 3.06911E-02 4.80510E-01-9.28407E-14 6.70297E-15
 -1      1879 4.31142E+00 9.39183E+01 3.82030E-02 7.67679E-01-1.07471E-13 7.42462E-16
 -1      1880 5.25643E+00 9.47755E+01 4.70348E-02 1.14982E+00 3.06082E-13-1.54737E-15
 -1      1881 6.39292E+00 9.58838E+01 5.48942E-02 1.65690E+00 2.38663E-14 6.61970E-15
 -1      1882 7.74811E+00 9.74019E+01 6.17974E-02 2.33276E+00 2.30878E-13 3.52496E-15
 -1      1883 8.71683E-02 8.76002E+01 1.41744E-02-1.06930E-01-9.27999E-14 1.20355E-14
 -1      1884 1.98294E-01 8.83490E+01 1.49779E-02-2.05704E-01-2.17182E-13 1.70350E-15
 -1      1885 3.67205E-01 8.89954E+01 1.22037E-02-2.91550E-01 1.60908E-13 1.20737E-15
 -1      1886 5.89419E-01 8.95701E+01 1.16608E-02-3.61659E-01-6.28252E-14-2.70617E-16
 -1      1887 8.60971E-01 9.00938E+01 1.20781E-02-4.14128E-01-3.08447E-14-5.20417E-16
 -1      1888 1.18360E+00 9.05837E+01 1.35355E-02-4.47597E-01-1.15651E-13-7.25461E-15
 -1      1889 1.56332E+00 9.10545E+01 1.60405E-02-4.60936E-01 6.73571E-14 3.19189E-15
 -1      1890 2.01078E+00 9.15205E+01 1.97661E-02-4.52944E-01 1.13408E-15-4.45477E-15
 -1      1891 2.54199E+00 9.19968E+01 2.50369E-02-4.22029E-01 2.27880E-13 3.77129E-15
 -1      1892 3.17987E+00 9.25020E+01 3.24004E-02-3.65812E-01 3.20807E-14-3.98986E-15
 -1      1893 3.95677E+00 9.30610E+01 4.26784E-02-2.80576E-01 1.03106E-13 2.17187E-15
 -1      1894 4.91879E+00 9.37100E+01 5.74379E-02-1.60492E-01 1.14781E-13 2.52576E-15
 -1      1895 6.13128E+00 9.45043E+01 7.76075E-02 3.70230E-03-3.18070E-14-2.58127E-15
 -1      1896 7.69624E+00 9.55392E+01 1.13702E-01 2.26054E-01 9.94274E-14-8.25728E-15
 -1      1897 9.73017E+00 9.69552E+01 1.29281E-01 5.30764E-01-2.01734E-13 3.01148E-15
 -1      1898 8.73668E-02 8.77415E+01 1.42669E-02-1.86238E-01-1.88339E-14 2.32626E-14
 -1      1899 1.98507E-01 8.84713E+01 1.49465E-02-3.50084E-01-1.08891E-13-7.71605E-15
 -1      1900 3.67448E-01 8.90988E+01 1.21566E-02-4.89253E-01 1.39175E-13 1.32810E-14
 -1      1901 5.89501E-01 8.96552E+01 1.15876E-02-6.07192E-01 8.25425E-14 1.74166E-15
 -1      1902 8.60620E-01 9.01612E+01 1.19883E-02-7.06913E-01-1.17081E-13-4.37150E-16
 -1      1903 1.18247E+00 9.06342E+01 1.34352E-02-7.91309E-01 1.69472E-14-7.13665E-15
 -1      1904 1.56104E+00 9.10892E+01 1.59356E-02-8.63378E-01 4.61664E-14 4.02456E-16
 -1      1905 2.00692E+00 9.15405E+01 1.96614E-02-9.26440E-01-6.55452E-14-4.26395E-15
 -1      1906 2.53615E+00 9.20033E+01 2.49358E-02-9.84385E-01-1.84665E-13 3.73659E-15
 -1      1907 3.17165E+00 9.24963E+01 3.23038E-02-1.04200E+00 2.05148E-14-3.11556E-15
 -1      1908 3.94578E+00 9.30443E+01 4.25831E-02-1.10547E+00-1.32810E-13 8.53484E-16
 -1      1909 4.90461E+00 9.36835E+01 5.73342E-02-1.18310E+00-5.34269E-14 4.33681E-15
 -1      1910 6.11344E+00 9.44693E+01 7.74819E-02-1.28663E+00 2.63609E-14-3.91354E-15
 -1      1911 7.67412E+00 9.54968E+01 1.13495E-01-1.43256E+00-1.64695E-14 6.96665E-15
 -1      1912 9.70290E+00 9.69066E+01 1.29084E-01-1.64755E+00 7.24039E-14-7.77156E-15
 -1      1913 8.14198E-02 8.79520E+01 1.32389E-02-2.62935E-01 1.32398E-13-3.19189E-16
 -1      1914 1.84928E-01 8.86480E+01 1.38770E-02-4.89581E-01 1.05764E-13-1.33366E-14
 -1      1915 3.41836E-01 8.92487E+01 1.11361E-02-6.79938E-01-1.73039E-13 1.33990E-14
 -1      1916 5.47333E-01 8.97837E+01 1.04240E-02-8.43395E-01-3.11253E-15-4.92661E-16
 -1      1917 7.96853E-01 9.02731E+01 1.05403E-02-9.87599E-01 3.46442E-14-2.51882E-15
 -1      1918 1.09082E+00 9.07340E+01 1.15219E-02-1.11938E+00 8.50714E-14-4.49987E-15
 -1      1919 1.43314E+00 9.11814E+01 1.33101E-02-1.24545E+00 3.22121E-14 1.57513E-15
 -1      1920 1.83123E+00 9.16302E+01 1.59550E-02-1.37305E+00-8.91908E-14-4.28477E-15
 -1      1921 2.29617E+00 9.20966E+01 1.95714E-02-1.51062E+00 1.46644E-13 3.85456E-15
 -1      1922 2.84315E+00 9.26004E+01 2.43297E-02-1.66863E+00-1.27528E-14-7.32053E-16
 -1      1923 3.49215E+00 9.31682E+01 3.04224E-02-1.86059E+00 1.53801E-14 1.12410E-15
 -1      1924 4.26849E+00 9.38385E+01 3.79237E-02-2.10456E+00 1.55865E-14-3.46945E-16
 -1      1925 5.20279E+00 9.46701E+01 4.67138E-02-2.42520E+00-7.67893E-14-6.43929E-15
 -1      1926 6.32697E+00 9.57561E+01 5.43953E-02-2.85479E+00 1.11307E-13 5.68989E-16
 -1      1927 7.66798E+00 9.72556E+01 6.14041E-02-3.43931E+00-1.54946E-14 2.38698E-15
 -1      1928 6.99566E-02 8.82270E+01 1.12065E-02-3.31832E-01-4.77136E-14 2.33286E-14
 -1      1929 1.58979E-01 8.88753E+01 1.18791E-02-6.14701E-01-1.44590E-13-3.71231E-15
 -1      1930 2.93083E-01 8.94413E+01 9.26293E-03-8.50343E-01 1.49578E-13 6.88685E-15
 -1      1931 4.67487E-01 8.99514E+01 8.33091E-03-1.05316E+00-4.12647E-15-1.70697E-15
 -1      1932 6.76832E-01 9.04243E+01 7.96865E-03-1.23458E+00-1.56167E-14 1.66880E-15
 -1      1933 9.19463E-01 9.08762E+01 8.15329E-03-1.40446E+00-1.17106E-14-6.62317E-15
 -1      1934 1.19579E+00 9.13220E+01 8.72437E-03-1.57209E+00 8.64491E-14 3.44169E-15
 -1      1935 1.50782E+00 9.17772E+01 9.54682E-03-1.74698E+00-4.19630E-14-4.58314E-15
 -1      1936 1.85840E+00 9.22589E+01 1.04265E-02-1.93968E+00-5.54990E-14 4.11476E-15
 -1      1937 2.25023E+00 9.27887E+01 1.10104E-02-2.16248E+00 6.70523E-14-3.32720E-15
 -1      1938 2.68402E+00 9.33953E+01 1.06582E-02-2.43006E+00-6.49342E-14 3.90313E-15
 -1      1939 3.15427E+00 9.41191E+01 7.64003E-03-2.75972E+00-6.63185E-14-1.24900E-15
 -1      1940 3.64303E+00 9.50209E+01 7.27999E-04-3.17073E+00 6.45317E-14 1.97065E-15
 -1      1941 4.09321E+00 9.61863E+01-2.66638E-02-3.67940E+00-1.02834E-14-5.41234E-15
 -1      1942 4.43654E+00 9.77866E+01-2.38453E-02-4.28997E+00 2.03865E-14-1.03667E-14
 -1      1943 5.41516E-02 8.85578E+01 8.38938E-03-3.88534E-01-9.47992E-14 1.40894E-14
 -1      1944 1.23309E-01 8.91460E+01 9.16245E-03-7.17419E-01-2.99847E-15 5.77316E-15
 -1      1945 2.26236E-01 8.96696E+01 6.76060E-03-9.89330E-01-3.48922E-14 1.51823E-14
 -1      1946 3.58422E-01 9.01508E+01 5.59984E-03-1.22228E+00-1.40930E-13-3.41047E-15
 -1      1947 5.13743E-01 9.06056E+01 4.68822E-03-1.43025E+00-7.25159E-14 3.23699E-15
 -1      1948 6.88193E-01 9.10489E+01 3.94803E-03-1.62485E+00 9.33394E-14-5.39846E-15
 -1      1949 8.78197E-01 9.14951E+01 3.12687E-03-1.81633E+00-2.19946E-13 4.63171E-15
 -1      1950 1.07968E+00 9.19595E+01 1.92285E-03-2.01439E+00 1.10994E-13-4.76702E-15
 -1      1951 1.28660E+00 9.24598E+01-1.17665E-04-2.22867E+00-5.63456E-14 4.29171E-15
 -1      1952 1.48878E+00 9.30180E+01-3.74347E-03-2.46880E+00-1.05648E-13-3.09475E-15
 -1      1953 1.66838E+00 9.36633E+01-1.01050E-02-2.74382E+00-3.28557E-14 3.68802E-15
 -1      1954 1.79334E+00 9.44344E+01-2.18183E-02-3.05996E+00-1.05287E-13-2.91434E-15
 -1      1955 1.80889E+00 9.53866E+01-3.99896E-02-3.41503E+00 3.36883E-14-6.30052E-15
 -1      1956 1.60350E+00 9.65864E+01-8.73059E-02-3.78527E+00-1.15810E-13-7.18522E-15
 -1      1957 1.07762E+00 9.81844E+01-7.59539E-02-4.09989E+00 4.19387E-14 3.19189E-15
 -1      1958 3.55332E-02 8.89323E+01 5.05052E-03-4.29843E-01-9.33854E-14 1.39819E-14
 -1      1959 8.13701E-02 8.94501E+01 5.96525E-03-7.91919E-01-1.16284E-13-1.32134E-14
 -1      1960 1.47866E-01 8.99244E+01 3.89076E-03-1.08894E+00 1.84115E-14 1.08472E-14
 -1      1961 2.31098E-01 9.03718E+01 2.56968E-03-1.34088E+00-3.62080E-15-2.85189E-15
 -1      1962 3.24513E-01 9.08052E+01 1.17616E-03-1.56289E+00-7.69776E-14-1.99493E-16
 -1      1963 4.22105E-01 9.12372E+01-3.94908E-04-1.76691E+00-6.79936E-14-4.52242E-15
 -1      1964 5.16816E-01 9.16809E+01-2.43749E-03-1.96261E+00-1.89952E-16 2.55004E-15
 -1      1965 5.99412E-01 9.21506E+01-5.33460E-03-2.15793E+00 7.53009E-14-4.94396E-15
 -1      1966 6.56726E-01 9.26630E+01-9.64565E-03-2.35901E+00-5.84637E-14 3.38271E-15
 -1      1967 6.69131E-01 9.32386E+01-1.62059E-02-2.56946E+00 1.90299E-15-4.28130E-15
 -1      1968 6.06922E-01 9.39032E+01-2.61650E-02-2.78831E+00-5.82485E-14 2.99413E-15
 -1      1969 4.24676E-01 9.46888E+01-4.15879E-02-3.00565E+00 9.20097E-15 6.72379E-15
 -1      1970 5.72374E-02 9.56357E+01-6.21159E-02-3.19323E+00-1.01606E-13-1.90820E-15
 -1      1971-6.07956E-01 9.67762E+01-1.06653E-01-3.28681E+00 8.52790E-14 2.47025E-15
 -1      1972-1.63919E+00 9.81980E+01-8.07495E-02-3.15298E+00 4.71290E-14 3.69149E-15
 -1      1973 1.58681E-02 8.93365E+01 1.62836E-03-4.54002E-01 5.29021E-14 7.02390E-15
 -1      1974 3.70205E-02 8.97762E+01 2.71579E-03-8.34987E-01 4.67508E-15-9.13158E-15
 -1      1975 6.51916E-02 9.01950E+01 1.05890E-03-1.14493E+00-3.08486E-14 2.10838E-14
 -1      1976 9.73668E-02 9.06033E+01-3.10686E-04-1.40409E+00 1.18057E-14-1.71738E-16
 -1      1977 1.27193E-01 9.10102E+01-2.02281E-03-1.62742E+00-9.46574E-15-1.08420E-15
 -1      1978 1.47474E-01 9.14254E+01-4.16609E-03-1.82597E+00-8.42364E-14-5.96051E-15
 -1      1979 1.48926E-01 9.18595E+01-7.01295E-03-2.00762E+00 4.23307E-14 3.46945E-15
 -1      1980 1.19170E-01 9.23247E+01-1.09206E-02-2.17723E+00-1.60164E-13-5.32040E-15
 -1      1981 4.11965E-02 9.28349E+01-1.63747E-02-2.33611E+00-6.53470E-15 3.66547E-15
 -1      1982-1.08674E-01 9.34064E+01-2.40264E-02-2.48053E+00 3.52288E-14-2.13371E-15
 -1      1983-3.63207E-01 9.40581E+01-3.45352E-02-2.59884E+00 2.34049E-14 7.49054E-15
 -1      1984-7.67119E-01 9.48095E+01-4.90132E-02-2.66616E+00 1.69375E-13-3.54231E-15
 -1      1985-1.37520E+00 9.56790E+01-6.44766E-02-2.63576E+00-9.28216E-14 9.52363E-16
 -1      1986-2.25555E+00 9.66651E+01-9.14958E-02-2.42225E+00 3.55133E-14-1.01221E-15
 -1      1987-3.42285E+00 9.77540E+01-4.95976E-02-1.87406E+00-9.42788E-14 1.53892E-15
 -1      1988-3.77114E-03 8.97541E+01-2.55880E-03-4.60636E-01 1.39853E-14 1.01048E-14
 -1      1989-6.43546E-03 9.01114E+01-1.11995E-03-8.46067E-01-1.02522E-14-8.75168E-15
 -1      1990-1.53931E-02 9.04698E+01-2.13983E-03-1.15684E+00-8.25754E-14 1.01464E-14
 -1      1991-3.20354E-02 9.08339E+01-3.33442E-03-1.41202E+00 3.44134E-14 1.40166E-15
 -1      1992-6.19006E-02 9.12081E+01-5.06085E-03-1.62520E+00-7.27362E-14-2.23085E-15
 -1      1993-1.12339E-01 9.15989E+01-7.36483E-03-1.80567E+00-4.74599E-14-4.98560E-15
 -1      1994-1.93255E-01 9.20135E+01-1.04261E-02-1.95886E+00-6.95451E-14 2.48065E-15
 -1      1995-3.17748E-01 9.24606E+01-1.44730E-02-2.08612E+00-3.35834E-14-5.09315E-15
 -1      1996-5.03051E-01 9.29499E+01-1.97768E-02-2.18393E+00-1.35655E-14 3.65159E-15
 -1      1997-7.71542E-01 9.34914E+01-2.65946E-02-2.24207E+00 2.66927E-13 3.18495E-15
 -1      1998-1.15148E+00 9.40941E+01-3.50258E-02-2.24065E+00-2.99240E-14 3.77823E-15
 -1      1999-1.67680E+00 9.47627E+01-4.47431E-02-2.14560E+00-8.07583E-14-6.40460E-15
 -1      2000-2.38305E+00 9.54910E+01-5.36749E-02-1.90186E+00-6.51805E-14-7.43372E-15
 -1      2001-3.30103E+00 9.62437E+01-6.06399E-02-1.43127E+00-1.69101E-14-4.21191E-15
 -1      2002-4.34189E+00 9.69736E+01-5.74455E-03-6.03527E-01 3.49928E-14-3.30291E-15
 -1      2003-3.49459E-02 9.05570E+01-7.80350E-03-4.28528E-01 1.17331E-13 1.57760E-14
 -1      2004-7.68326E-02 9.07509E+01-6.13940E-03-7.85259E-01 4.08631E-14-2.82560E-14
 -1      2005-1.45275E-01 9.09835E+01-6.00441E-03-1.06736E+00 9.87188E-14 3.63373E-14
 -1      2006-2.38712E-01 9.12480E+01-6.52534E-03-1.28850E+00 7.83124E-14 1.94202E-15
 -1      2007-3.59419E-01 9.15406E+01-7.66016E-03-1.45775E+00 4.25673E-14-3.68629E-14
 -1      2008-5.12206E-01 9.18596E+01-9.31617E-03-1.58000E+00-1.14344E-13-1.10805E-14
 -1      2009-7.04103E-01 9.22049E+01-1.14394E-02-1.65590E+00 1.15490E-13 1.62162E-14
 -1      2010-9.44019E-01 9.25762E+01-1.39433E-02-1.68154E+00 5.07702E-14-2.13076E-14
 -1      2011-1.24225E+00 9.29725E+01-1.66429E-02-1.64759E+00-3.10862E-15 4.30298E-15
 -1      2012-1.60950E+00 9.33892E+01-1.91551E-02-1.53824E+00 7.49747E-14-4.03757E-15
 -1      2013-2.05485E+00 9.38163E+01-2.06989E-02-1.32971E+00 5.55094E-14-1.15142E-14
 -1      2014-2.58211E+00 9.42323E+01-2.00325E-02-9.89206E-01 1.53905E-14 2.10760E-14
 -1      2015-3.18323E+00 9.45983E+01-1.43522E-02-4.74435E-01 9.05699E-14-1.64192E-14
 -1      2016-3.82477E+00 9.48490E+01-1.20219E-03 2.59384E-01 1.57780E-13-6.78277E-16
 -1      2017-4.45812E+00 9.48689E+01 2.12124E-02 1.25951E+00 6.94306E-14-3.67761E-15
 -1      2018-4.53639E-02 9.09190E+01-8.82463E-03-3.94765E-01-1.69484E-13 4.81451E-15
 -1      2019-1.01017E-01 9.10371E+01-7.28769E-03-7.23014E-01 1.21366E-13-2.66323E-15
 -1      2020-1.89733E-01 9.12077E+01-6.72342E-03-9.79878E-01 1.13868E-13 1.55865E-14
 -1      2021-3.08615E-01 9.14194E+01-6.88707E-03-1.17569E+00-1.72199E-13 1.01997E-14
 -1      2022-4.57964E-01 9.16648E+01-7.60579E-03-1.31693E+00-7.60805E-14-4.01502E-15
 -1      2023-6.40507E-01 9.19386E+01-8.73842E-03-1.40644E+00 9.95233E-15 2.99426E-14
 -1      2024-8.60722E-01 9.22368E+01-1.01455E-02-1.44320E+00-1.10249E-13-5.39998E-15
 -1      2025-1.12412E+00 9.25550E+01-1.16383E-02-1.42207E+00 3.21800E-14 5.33232E-15
 -1      2026-1.43630E+00 9.28869E+01-1.29170E-02-1.33323E+00-5.15386E-14-4.25167E-15
 -1      2027-1.80144E+00 9.32224E+01-1.34773E-02-1.16171E+00 7.55507E-14-2.15307E-14
 -1      2028-2.21991E+00 9.35442E+01-1.25356E-02-8.86964E-01-1.21975E-13 2.17708E-16
 -1      2029-2.68461E+00 9.38240E+01-8.79399E-03-4.83349E-01-1.31185E-13 1.13911E-14
 -1      2030-3.17546E+00 9.40169E+01-8.70103E-04 7.72866E-02 5.84324E-14 3.54057E-15
 -1      2031-3.65875E+00 9.40529E+01 1.19864E-02 8.20384E-01-1.30146E-13-2.16147E-14
 -1      2032-4.07689E+00 9.38476E+01 3.03969E-02 1.76403E+00-5.66561E-15 1.72085E-14
 -1      2033-5.29481E-02 9.12484E+01-1.01341E-02-3.52981E-01-5.72181E-14-7.31620E-16
 -1      2034-1.18117E-01 9.12965E+01-8.59673E-03-6.46220E-01 2.89751E-14-1.79736E-15
 -1      2035-2.20773E-01 9.14070E+01-7.54052E-03-8.73086E-01-9.95141E-14-2.28925E-14
 -1      2036-3.56633E-01 9.15652E+01-7.27083E-03-1.04051E+00 3.44304E-14 9.77517E-16
 -1      2037-5.24037E-01 9.17607E+01-7.47893E-03-1.15250E+00 1.57545E-15 3.44177E-14
 -1      2038-7.23515E-01 9.19850E+01-7.99514E-03-1.21013E+00-3.06549E-14-1.53226E-14
 -1      2039-9.56826E-01 9.22308E+01-8.61774E-03-1.21126E+00-3.55519E-14 5.20192E-15
 -1      2040-1.22605E+00 9.24898E+01-9.09592E-03-1.15041E+00-3.54846E-14-9.50628E-16
 -1      2041-1.53239E+00 9.27519E+01-9.07730E-03-1.01852E+00-3.50544E-14 2.37896E-15
 -1      2042-1.87460E+00 9.30025E+01-8.06247E-03-8.02969E-01-5.54383E-14 2.98025E-14
 -1      2043-2.24677E+00 9.32201E+01-5.35358E-03-4.88077E-01-4.72539E-14-2.08167E-15
 -1      2044-2.63546E+00 9.33732E+01-1.39931E-04-5.66141E-02 3.18183E-14-1.06564E-14
 -1      2045-3.01736E+00 9.34166E+01 8.28444E-03 5.07038E-01-4.17669E-14 2.17361E-15
 -1      2046-3.35602E+00 9.32898E+01 2.04268E-02 1.21207E+00 7.58803E-14 5.85643E-15
 -1      2047-3.59442E+00 9.29187E+01 3.87024E-02 2.05481E+00-2.37831E-14-5.29785E-15
 -1      2048-5.72636E-02 9.15402E+01-1.07454E-02-3.05904E-01 8.10688E-14-4.75314E-16
 -1      2049-1.28030E-01 9.15250E+01-9.29533E-03-5.59885E-01 1.55856E-14 1.20164E-14
 -1      2050-2.38518E-01 9.15788E+01-7.84259E-03-7.53898E-01 5.71869E-14 6.65960E-15
 -1      2051-3.83407E-01 9.16845E+01-7.17883E-03-8.91645E-01 4.49684E-14-2.23014E-14
 -1      2052-5.59237E-01 9.18291E+01-6.90150E-03-9.74918E-01 5.01837E-14 8.67297E-15
 -1      2053-7.64460E-01 9.20017E+01-6.83101E-03-1.00335E+00-5.25494E-14-2.05387E-14
 -1      2054-9.98304E-01 9.21922E+01-6.73940E-03-9.74233E-01-5.78964E-15-2.11745E-15
 -1      2055-1.25980E+00 9.23897E+01-6.36098E-03-8.82391E-01 4.36717E-14 2.70018E-14
 -1      2056-1.54661E+00 9.25810E+01-5.35927E-03-7.20294E-01 7.78752E-14-2.40866E-15
 -1      2057-1.85352E+00 9.27489E+01-3.31002E-03-4.78447E-01 2.86915E-14-3.76435E-15
 -1      2058-2.17078E+00 9.28701E+01 2.78577E-04-1.46383E-01 1.48341E-13 9.58782E-15
 -1      2059-2.48223E+00 9.29133E+01 5.88969E-03 2.85430E-01-1.24034E-13 1.16452E-14
 -1      2060-2.76349E+00 9.28375E+01 1.39051E-02 8.22496E-01 7.28133E-14-2.83454E-15
 -1      2061-2.98002E+00 9.25914E+01 2.47061E-02 1.46187E+00-6.46184E-15 4.72539E-15
 -1      2062-3.08744E+00 9.21128E+01 3.80810E-02 2.18525E+00-9.99652E-14-1.55362E-14
 -1      2063-5.86980E-02 9.17903E+01-1.08608E-02-2.56168E-01-2.83194E-15 8.97372E-15
 -1      2064-1.31492E-01 9.17201E+01-9.55881E-03-4.68750E-01-5.77264E-14 1.06287E-14
 -1      2065-2.44353E-01 9.17219E+01-7.80676E-03-6.28754E-01-9.37618E-15 2.16277E-15
 -1      2066-3.91259E-01 9.17772E+01-6.80765E-03-7.37005E-01 2.85418E-14-6.58761E-15
 -1      2067-5.67289E-01 9.18717E+01-6.10354E-03-7.93377E-01-7.13382E-14 8.58731E-15
 -1      2068-7.69116E-01 9.19925E+01-5.52532E-03-7.96444E-01-3.17878E-14 1.64959E-14
 -1      2069-9.93844E-01 9.21277E+01-4.84618E-03-7.43279E-01-9.84976E-15-4.79304E-15
 -1      2070-1.23809E+00 9.22643E+01-3.81940E-03-6.29456E-01-1.78616E-13 3.09956E-14
 -1      2071-1.49690E+00 9.23876E+01-2.15931E-03-4.49313E-01 1.01086E-13-1.57964E-14
 -1      2072-1.76261E+00 9.24792E+01 4.51033E-04-1.96578E-01 6.21950E-14 1.09895E-15
 -1      2073-2.02354E+00 9.25160E+01 4.32818E-03 1.34444E-01-6.09070E-14-1.27537E-14
 -1      2074-2.26291E+00 9.24691E+01 9.72690E-03 5.46961E-01-7.26823E-14-1.93803E-14
 -1      2075-2.45785E+00 9.23030E+01 1.67814E-02 1.03890E+00 5.56222E-14 3.24393E-16
 -1      2076-2.57940E+00 9.19763E+01 2.52945E-02 1.59903E+00-1.05574E-13 9.15240E-15
 -1      2077-2.59436E+00 9.14436E+01 3.44222E-02 2.20165E+00 1.55838E-13 7.03257E-15
 -1      2078-5.76752E-02 9.19975E+01-1.05401E-02-2.06081E-01-8.94501E-14-5.14346E-16
 -1      2079-1.29462E-01 9.18807E+01-9.43257E-03-3.77001E-01-1.37950E-13-3.38774E-14
 -1      2080-2.40109E-01 9.18361E+01-7.48962E-03-5.03285E-01-2.73869E-14-1.69630E-14
 -1      2081-3.83245E-01 9.18446E+01-6.23696E-03-5.83333E-01-1.15385E-14 1.94350E-14
 -1      2082-5.52885E-01 9.18912E+01-5.19437E-03-6.15459E-01-5.15819E-14-6.10245E-14
 -1      2083-7.44335E-01 9.19621E+01-4.21876E-03-5.97477E-01-4.45437E-14 2.54029E-14
 -1      2084-9.53089E-01 9.20439E+01-3.10477E-03-5.26511E-01-3.11643E-14-2.63318E-14
 -1      2085-1.17403E+00 9.21230E+01-1.64389E-03-3.99059E-01-1.26511E-13-8.66061E-15
 -1      2086-1.40056E+00 9.21836E+01 3.84245E-04-2.11337E-01 5.50818E-15-2.52489E-15
 -1      2087-1.62371E+00 9.22078E+01 3.19441E-03 4.00085E-02-6.97012E-14-6.65006E-15
 -1      2088-1.83134E+00 9.21739E+01 6.96209E-03 3.56735E-01 4.94136E-14-1.72952E-15
 -1      2089-2.00755E+00 9.20564E+01 1.17692E-02 7.37281E-01-1.27948E-13-1.13607E-14
 -1      2090-2.13255E+00 9.18262E+01 1.75178E-02 1.17443E+00-5.54344E-14 2.41820E-15
 -1      2091-2.18354E+00 9.14518E+01 2.37439E-02 1.65235E+00-4.80479E-14-2.45221E-14
 -1      2092-2.13697E+00 9.09025E+01 2.95632E-02 2.14335E+00-5.02985E-14 7.94330E-15
 -1      2093-5.46986E-02 9.21617E+01-9.87917E-03-1.57559E-01 9.43889E-14 1.53662E-14
 -1      2094-1.23057E-01 9.20071E+01-8.99865E-03-2.88105E-01-6.80979E-14-9.63986E-15
 -1      2095-2.27874E-01 9.19223E+01-6.96731E-03-3.82107E-01 8.73594E-14-2.19130E-14
 -1      2096-3.62758E-01 9.18886E+01-5.55027E-03-4.36043E-01 8.32147E-15 3.06404E-14
 -1      2097-5.21076E-01 9.18910E+01-4.26897E-03-4.47017E-01-3.25359E-14-2.57520E-14
 -1      2098-6.97211E-01 9.19151E+01-3.01556E-03-4.12330E-01 1.23310E-13-3.26692E-14
 -1      2099-8.85571E-01 9.19474E+01-1.61773E-03-3.29307E-01 3.64847E-14 3.11461E-14
 -1      2100-1.07997E+00 9.19738E+01 8.68916E-05-1.95372E-01 3.31811E-14-7.16181E-15
 -1      2101-1.27293E+00 9.19789E+01 2.25402E-03-8.41853E-03 9.76779E-15 5.59622E-15
 -1      2102-1.45515E+00 9.19457E+01 5.01144E-03 2.32516E-01 3.24966E-14 2.40953E-15
 -1      2103-1.61496E+00 9.18548E+01 8.42695E-03 5.26207E-01-3.58463E-14 1.03615E-14
 -1      2104-1.73826E+00 9.16846E+01 1.24575E-02 8.67823E-01 1.09623E-13 1.17076E-14
 -1      2105-1.80882E+00 9.14123E+01 1.68793E-02 1.24715E+00 8.56507E-14 1.09322E-14
 -1      2106-1.80953E+00 9.10151E+01 2.11733E-02 1.64663E+00 1.07475E-13 2.23085E-14
 -1      2107-1.72458E+00 9.04740E+01 2.45857E-02 2.03959E+00 6.04128E-14-1.75866E-14
 -1      2108-5.02795E-02 9.22849E+01-8.97060E-03-1.12085E-01-5.51499E-14 3.55341E-14
 -1      2109-1.13410E-01 9.21009E+01-8.33473E-03-2.04745E-01-5.06301E-14-5.15213E-15
 -1      2110-2.09750E-01 9.19824E+01-6.30631E-03-2.68766E-01 2.37583E-14-2.62169E-14
 -1      2111-3.33169E-01 9.19118E+01-4.81114E-03-2.99191E-01-1.17583E-13 5.30305E-14
 -1      2112-4.76771E-01 9.18743E+01-3.38963E-03-2.92243E-01-6.91944E-14 1.11404E-14
 -1      2113-6.34438E-01 9.18561E+01-1.97226E-03-2.44910E-01 6.77229E-15 1.01013E-14
 -1      2114-7.99983E-01 9.18438E+01-4.24361E-04-1.54767E-01-1.19149E-13-6.41848E-17
 -1      2115-9.66699E-01 9.18236E+01 1.37037E-03-2.00670E-02 7.13122E-14 8.11937E-15
 -1      2116-1.12689E+00 9.17809E+01 3.51065E-03 1.59941E-01 5.97833E-14 1.33244E-14
 -1      2117-1.27150E+00 9.17003E+01 6.05615E-03 3.84416E-01-2.75583E-14-3.75915E-15
 -1      2118-1.38997E+00 9.15651E+01 8.99933E-03 6.50083E-01 1.60369E-14 1.20156E-14
 -1      2119-1.47034E+00 9.13576E+01 1.22258E-02 9.50147E-01-5.15703E-14 1.73108E-14
 -1      2120-1.49984E+00 9.10606E+01 1.54711E-02 1.27307E+00 4.58164E-14 1.25490E-14
 -1      2121-1.46617E+00 9.06585E+01 1.82565E-02 1.60143E+00-9.25143E-14-3.70884E-15
 -1      2122-1.35932E+00 9.01406E+01 2.00092E-02 1.91111E+00 2.02290E-15 7.04471E-15
 -1      2123-4.48980E-02 9.23698E+01-7.90142E-03-7.07178E-02 3.24614E-14-1.72900E-14
 -1      2124-1.01586E-01 9.21644E+01-7.51359E-03-1.28844E-01 2.32913E-14 2.76038E-14
 -1      2125-1.87694E-01 9.20188E+01-5.56349E-03-1.65770E-01 4.32555E-14 1.95243E-15
 -1      2126-2.97576E-01 9.19167E+01-4.06658E-03-1.75561E-01-6.61255E-15-2.42575E-14
 -1      2127-4.24403E-01 9.18446E+01-2.59316E-03-1.53852E-01 7.37604E-15 7.35436E-15
 -1      2128-5.61927E-01 9.17891E+01-1.11075E-03-9.74584E-02-6.43556E-14 1.19002E-14
 -1      2129-7.03775E-01 9.17377E+01 4.78196E-04-4.21399E-03-2.55746E-14-1.27554E-14
 -1      2130-8.43168E-01 9.16773E+01 2.24857E-03 1.26967E-01 3.91902E-14-7.79758E-16
 -1      2131-9.72622E-01 9.15947E+01 4.25289E-03 2.95825E-01-7.80087E-14-1.09426E-14
 -1      2132-1.08378E+00 9.14763E+01 6.50180E-03 5.00289E-01 4.62578E-14-5.01422E-15
 -1      2133-1.16743E+00 9.13079E+01 8.94207E-03 7.35839E-01-1.15802E-13-2.50494E-15
 -1      2134-1.21377E+00 9.10757E+01 1.14299E-02 9.94747E-01-6.32665E-14-2.02546E-14
 -1      2135-1.21310E+00 9.07670E+01 1.37094E-02 1.26532E+00-2.73222E-14 1.95607E-14
 -1      2136-1.15695E+00 9.03718E+01 1.53813E-02 1.53132E+00-4.79942E-14-1.19054E-14
 -1      2137-1.03950E+00 8.98853E+01 1.60396E-02 1.77186E+00 1.64096E-14 1.17267E-15
 -1      2138-3.89751E-02 9.24202E+01-6.74757E-03-3.41297E-02-2.10862E-14-3.44360E-14
 -1      2139-8.85166E-02 9.22006E+01-6.59877E-03-6.16292E-02 4.18129E-14 3.94554E-14
 -1      2140-1.63412E-01 9.20340E+01-4.78456E-03-7.46993E-02-4.44812E-14-1.47183E-14
 -1      2141-2.58655E-01 9.19062E+01-3.34837E-03-6.68292E-02 1.43363E-13-2.71597E-14
 -1      2142-3.67749E-01 9.18047E+01-1.89628E-03-3.33129E-02 2.46267E-14 2.01549E-14
 -1      2143-4.84611E-01 9.17174E+01-4.28595E-04 2.90975E-02 8.80363E-14-2.15401E-14
 -1      2144-6.03007E-01 9.16327E+01 1.11880E-03 1.22340E-01-4.05316E-14 1.63159E-14
 -1      2145-7.16414E-01 9.15387E+01 2.78630E-03 2.47014E-01-1.71451E-14 8.78117E-15
 -1      2146-8.17861E-01 9.14236E+01 4.59158E-03 4.02183E-01 4.95414E-14 1.03762E-14
 -1      2147-8.99900E-01 9.12758E+01 6.51327E-03 5.85037E-01 7.13521E-14-6.63532E-15
 -1      2148-9.54732E-01 9.10837E+01 8.47544E-03 7.90455E-01 1.13659E-13-1.82493E-15
 -1      2149-9.74567E-01 9.08367E+01 1.03318E-02 1.01052E+00 6.14834E-14-3.22485E-15
 -1      2150-9.52252E-01 9.05256E+01 1.18588E-02 1.23412E+00 5.68389E-14-8.19136E-15
 -1      2151-8.82217E-01 9.01448E+01 1.27430E-02 1.44676E+00 8.08277E-14 7.37604E-15
 -1      2152-7.61572E-01 8.96932E+01 1.27136E-02 1.63080E+00-1.32060E-14-9.11597E-15
 -1      2153-3.28592E-02 9.24402E+01-5.57155E-03-2.66122E-03 1.77808E-14 1.34788E-15
 -1      2154-7.49740E-02 9.22127E+01-5.64301E-03-3.72940E-03-3.38156E-14-1.34597E-14
 -1      2155-1.38311E-01 9.20310E+01-4.00457E-03 3.65750E-03 2.42920E-14 1.77896E-14
 -1      2156-2.18595E-01 9.18829E+01-2.67613E-03 2.62527E-02 1.94466E-14-5.66387E-15
 -1      2157-3.09857E-01 9.17574E+01-1.30176E-03 6.88990E-02 4.48610E-14-2.01558E-14
 -1      2158-4.06399E-01 9.16437E+01 9.13855E-05 1.34826E-01 4.26922E-14 2.07247E-14
 -1      2159-5.02364E-01 9.15313E+01 1.53927E-03 2.25788E-01 4.93307E-14-5.09141E-16
 -1      2160-5.91707E-01 9.14099E+01 3.05534E-03 3.42060E-01 5.92606E-14 5.29351E-15
 -1      2161-6.68147E-01 9.12692E+01 4.63281E-03 4.82311E-01 1.31990E-14-3.17281E-15
 -1      2162-7.25229E-01 9.10994E+01 6.23173E-03 6.43391E-01-3.68316E-14 1.62214E-14
 -1      2163-7.56516E-01 9.08913E+01 7.76911E-03 8.20050E-01-9.08767E-15-1.24015E-14
 -1      2164-7.55954E-01 9.06367E+01 9.11095E-03 1.00468E+00 8.65799E-14 8.98066E-15
 -1      2165-7.18429E-01 9.03298E+01 1.00740E-02 1.18716E+00 5.41915E-14 5.25621E-16
 -1      2166-6.40523E-01 8.99675E+01 1.04217E-02 1.35493E+00 4.50941E-14-1.12705E-14
 -1      2167-5.21304E-01 8.95512E+01 9.98543E-03 1.49336E+00 1.05263E-14 8.90260E-15
 -1      2168-2.68222E-02 9.24343E+01-4.42184E-03 2.36162E-02-9.08845E-14 1.31579E-14
 -1      2169-6.15627E-02 9.22042E+01-4.68799E-03 4.47092E-02-1.18904E-14-2.16112E-14
 -1      2170-1.13487E-01 9.20127E+01-3.24903E-03 6.91469E-02 1.20699E-14 4.69919E-14
 -1      2171-1.79091E-01 9.18494E+01-2.06037E-03 1.03658E-01-3.65926E-14-2.99205E-14
 -1      2172-2.53058E-01 9.17049E+01-8.03582E-04 1.53060E-01-6.27129E-15 2.27596E-14
 -1      2173-3.30229E-01 9.15699E+01 4.73713E-04 2.20505E-01 1.23036E-15-2.16381E-14
 -1      2174-4.05279E-01 9.14354E+01 1.78517E-03 3.07603E-01-4.83338E-14-1.28135E-14
 -1      2175-4.72777E-01 9.12922E+01 3.12443E-03 4.14442E-01 9.80404E-14 1.92424E-14
 -1      2176-5.27218E-01 9.11319E+01 4.46881E-03 5.39525E-01-9.33975E-15-2.12018E-14
 -1      2177-5.63136E-01 9.09463E+01 5.76948E-03 6.79649E-01-4.71379E-15-2.13883E-14
 -1      2178-5.75330E-01 9.07282E+01 6.94585E-03 8.29763E-01 1.02946E-14 2.83783E-14
 -1      2179-5.59198E-01 9.04716E+01 7.88263E-03 9.82868E-01-3.13681E-14-1.63801E-14
 -1      2180-5.11212E-01 9.01730E+01 8.43591E-03 1.13003E+00-1.19301E-13 2.28376E-15
 -1      2181-4.29497E-01 8.98311E+01 8.43258E-03 1.26056E+00-8.86661E-15-2.47025E-15
 -1      2182-3.14383E-01 8.94489E+01 7.77697E-03 1.36256E+00 6.98330E-14-2.92301E-15
 -1      2183-2.10633E-02 9.24068E+01-3.33361E-03 4.48365E-02-1.54415E-14-2.36157E-14
 -1      2184-4.87276E-02 9.21787E+01-3.76496E-03 8.39116E-02 4.11858E-14-2.06692E-14
 -1      2185-8.97456E-02 9.19819E+01-2.53549E-03 1.22099E-01-1.16838E-13 1.73386E-14
 -1      2186-1.41380E-01 9.18079E+01-1.50515E-03 1.65901E-01-9.09372E-14 2.45810E-15
 -1      2187-1.99033E-01 9.16492E+01-3.91070E-04 2.19985E-01-6.15317E-15-3.51975E-15
 -1      2188-2.58174E-01 9.14977E+01 7.44969E-04 2.87382E-01 2.75934E-14 4.92835E-15
 -1      2189-3.14105E-01 9.13459E+01 1.89990E-03 3.69590E-01-3.81908E-14-2.46313E-14
 -1      2190-3.62077E-01 9.11862E+01 3.05376E-03 4.66616E-01-2.54285E-14 7.97279E-15
 -1      2191-3.97376E-01 9.10114E+01 4.17450E-03 5.76960E-01-6.32303E-14-7.58334E-15
 -1      2192-4.15475E-01 9.08150E+01 5.21088E-03 6.97567E-01-6.95985E-14 1.68476E-14
 -1      2193-4.12248E-01 9.05916E+01 6.08965E-03 8.23786E-01-2.50014E-14-9.20444E-15
 -1      2194-3.84284E-01 9.03369E+01 6.71564E-03 9.49382E-01-1.01926E-13 6.62057E-15
 -1      2195-3.29256E-01 9.00489E+01 6.97932E-03 1.06664E+00 1.95878E-14 5.39239E-15
 -1      2196-2.46369E-01 8.97279E+01 6.75699E-03 1.16666E+00-3.25100E-14 1.70350E-15
 -1      2197-1.36726E-01 8.93775E+01 6.00325E-03 1.23979E+00-5.02831E-14-2.59948E-15
 -1      2198-1.57170E-02 9.23621E+01-2.33023E-03 6.12806E-02 7.32771E-14-2.11827E-14
 -1      2199-3.67724E-02 9.21394E+01-2.89591E-03 1.14369E-01 7.71241E-14 2.21004E-15
 -1      2200-6.76351E-02 9.19412E+01-1.87504E-03 1.63191E-01 4.83711E-14-3.48870E-14
 -1      2201-1.06297E-01 9.17607E+01-1.01041E-03 2.13875E-01 1.11774E-13 4.09603E-14
 -1      2202-1.48900E-01 9.15918E+01-5.17782E-05 2.70848E-01 3.68791E-14-1.43722E-14
 -1      2203-1.91583E-01 9.14282E+01 9.30445E-04 3.36987E-01-3.77935E-14-1.22818E-14
 -1      2204-2.30312E-01 9.12635E+01 1.92146E-03 4.13704E-01 6.19464E-14 8.10723E-15
 -1      2205-2.61041E-01 9.10916E+01 2.89269E-03 5.00996E-01 5.12150E-15-1.02019E-14
 -1      2206-2.79825E-01 9.09066E+01 3.80754E-03 5.97468E-01 1.19544E-13 1.85615E-16
 -1      2207-2.82987E-01 9.07036E+01 4.61621E-03 7.00339E-01 1.37222E-14-1.64955E-14
 -1      2208-2.67325E-01 9.04783E+01 5.25485E-03 8.05469E-01 2.47491E-14-4.63605E-15
 -1      2209-2.30376E-01 9.02282E+01 5.64704E-03 9.07439E-01 7.15660E-14 1.47833E-14
 -1      2210-1.70714E-01 8.99522E+01 5.71142E-03 9.99718E-01 1.21090E-13 1.97151E-15
 -1      2211-8.82793E-02 8.96515E+01 5.36139E-03 1.07496E+00 4.98863E-14 1.24267E-14
 -1      2212 1.53879E-02 8.93301E+01 4.58487E-03 1.12544E+00 8.47287E-14-7.95111E-15
 -1      2213-1.08642E-02 9.23043E+01-1.42524E-03 7.33252E-02-9.14134E-15 1.57045E-14
 -1      2214-2.58822E-02 9.20897E+01-2.09499E-03 1.36749E-01 3.77031E-14-7.37084E-15
 -1      2215-4.74887E-02 9.18931E+01-1.27381E-03 1.93324E-01 8.83966E-14-1.82684E-14
 -1      2216-7.43446E-02 9.17095E+01-5.73524E-04 2.48712E-01 2.14664E-14 1.02401E-14
 -1      2217-1.03317E-01 9.15341E+01 2.26638E-04 3.07037E-01 1.17724E-13-3.07913E-16
 -1      2218-1.31215E-01 9.13621E+01 1.05231E-03 3.70995E-01 7.03465E-14 2.62637E-15
 -1      2219-1.54672E-01 9.11883E+01 1.88109E-03 4.41925E-01 5.24953E-14-3.75568E-16
 -1      2220-1.70327E-01 9.10079E+01 2.67969E-03 5.19863E-01 4.16307E-14 1.36011E-14
 -1      2221-1.74953E-01 9.08164E+01 3.41019E-03 6.03581E-01 6.96570E-14 8.66668E-15
 -1      2222-1.65631E-01 9.06098E+01 4.02641E-03 6.90638E-01 3.87104E-14-1.65050E-14
 -1      2223-1.39932E-01 9.03854E+01 4.47412E-03 7.77448E-01 7.78808E-14 2.11775E-14
 -1      2224-9.61467E-02 9.01415E+01 4.69313E-03 8.59396E-01-5.01921E-15-1.34198E-14
 -1      2225-3.35118E-02 8.98779E+01 4.62419E-03 9.31034E-01 5.48188E-14-3.42868E-15
 -1      2226 4.75485E-02 8.95964E+01 4.20773E-03 9.86371E-01 7.20895E-14 9.61124E-15
 -1      2227 1.45277E-01 8.93010E+01 3.45289E-03 1.01927E+00 5.15317E-14-1.01481E-14
 -1      2228-6.54260E-03 9.22370E+01-6.24348E-04 8.14012E-02-2.38060E-14-3.30985E-15
 -1      2229-1.61477E-02 9.20324E+01-1.37009E-03 1.51820E-01-8.30423E-14 8.84969E-15
 -1      2230-2.94688E-02 9.18400E+01-7.34160E-04 2.13532E-01-7.19260E-15-8.83755E-15
 -1      2231-4.57632E-02 9.16560E+01-1.90523E-04 2.71678E-01 4.15164E-14-2.43304E-14
 -1      2232-6.25830E-02 9.14773E+01 4.55368E-04 3.30039E-01 1.23653E-15 1.79275E-14
 -1      2233-7.73814E-02 9.13000E+01 1.12884E-03 3.91114E-01-9.06993E-14-2.11038E-14
 -1      2234-8.74333E-02 9.11203E+01 1.80320E-03 4.56175E-01-7.41391E-17 1.50192E-14
 -1      2235-9.00213E-02 9.09345E+01 2.44327E-03 5.25315E-01-3.92693E-14 8.84015E-15
 -1      2236-8.25765E-02 9.07392E+01 3.01194E-03 5.97509E-01-2.99785E-14 2.09719E-14
 -1      2237-6.28374E-02 9.05316E+01 3.46762E-03 6.70677E-01-7.36226E-14 6.06286E-16
 -1      2238-2.90214E-02 9.03099E+01 3.76502E-03 7.41781E-01-1.57786E-14-9.62598E-15
 -1      2239 1.99929E-02 9.00731E+01 3.85732E-03 8.06960E-01-3.72185E-14 1.32255E-14
 -1      2240 8.44842E-02 8.98218E+01 3.70205E-03 8.61730E-01 1.07488E-14 5.35596E-15
 -1      2241 1.63718E-01 8.95581E+01 3.25891E-03 9.01252E-01-3.14961E-14-3.36658E-14
 -1      2242 2.55865E-01 8.92857E+01 2.54988E-03 9.20685E-01-1.39615E-14 3.17992E-14
 -1      2243-2.75765E-03 9.21637E+01 7.26225E-05 8.59610E-02-2.17430E-14-9.93389E-15
 -1      2244-7.58784E-03 9.19703E+01-7.24196E-04 1.60393E-01-8.36386E-14-9.67108E-16
 -1      2245-1.36087E-02 9.17838E+01-2.55790E-04 2.24904E-01-7.35484E-14-3.96558E-15
 -1      2246-2.05953E-02 9.16017E+01 1.43145E-04 2.84086E-01-9.74252E-14-2.77556E-16
 -1      2247-2.67282E-02 9.14221E+01 6.43964E-04 3.41360E-01-8.67750E-14-1.58935E-14
 -1      2248-3.00602E-02 9.12421E+01 1.17441E-03 3.99018E-01-7.61111E-14 2.81511E-14
 -1      2249-2.84633E-02 9.10591E+01 1.70596E-03 4.58260E-01-6.05347E-14-6.00908E-15
 -1      2250-1.98118E-02 9.08704E+01 2.20356E-03 5.19248E-01-6.28384E-14 1.86309E-14
 -1      2251-2.12261E-03 9.06736E+01 2.63221E-03 5.81160E-01-8.14551E-14-1.06816E-14
 -1      2252 2.62969E-02 9.04669E+01 2.95515E-03 6.42274E-01-4.92727E-14 4.34028E-15
 -1      2253 6.66981E-02 9.02490E+01 3.13493E-03 7.00064E-01-7.18009E-14-9.09429E-15
 -1      2254 1.19741E-01 9.00199E+01 3.13537E-03 7.51352E-01-6.98380E-14-3.37924E-15
 -1      2255 1.85356E-01 8.97804E+01 2.92647E-03 7.92489E-01-1.15153E-13 1.60063E-14
 -1      2256 2.62617E-01 8.95328E+01 2.48138E-03 8.19605E-01-9.44874E-14-2.13813E-14
 -1      2257 3.49712E-01 8.92807E+01 1.82922E-03 8.28901E-01-3.40379E-14 2.48933E-15
 -1      2258 5.08344E-04 9.20872E+01 6.70011E-04 8.74541E-02 1.52330E-14-1.36748E-14
 -1      2259-1.70368E-04 9.19057E+01-1.56702E-04 1.63279E-01-2.40769E-14 3.13204E-15
 -1      2260 1.51120E-04 9.17264E+01 1.63475E-04 2.28523E-01-5.56001E-14-2.62880E-14
 -1      2261 1.25805E-03 9.15479E+01 4.32136E-04 2.87235E-01 8.76415E-15-9.78211E-15
 -1      2262 4.40711E-03 9.13692E+01 8.00236E-04 3.42466E-01 1.29299E-14 1.54442E-14
 -1      2263 1.10014E-02 9.11887E+01 1.19978E-03 3.96296E-01-2.46333E-14-1.94775E-14
 -1      2264 2.26272E-02 9.10045E+01 1.60222E-03 4.49851E-01-3.60888E-14-1.36497E-14
 -1      2265 4.08780E-02 9.08149E+01 1.97397E-03 5.03352E-01-5.25174E-15-7.21125E-15
 -1      2266 6.72218E-02 9.06183E+01 2.28280E-03 5.56174E-01-5.41863E-14-6.51042E-15
 -1      2267 1.02866E-01 9.04136E+01 2.49663E-03 6.06921E-01 8.37871E-15-7.91381E-15
 -1      2268 1.48626E-01 9.02004E+01 2.58465E-03 6.53536E-01-1.50251E-14 9.82547E-15
 -1      2269 2.04802E-01 8.99789E+01 2.51896E-03 6.93437E-01-4.89656E-14-9.30419E-15
 -1      2270 2.71072E-01 8.97505E+01 2.27864E-03 7.23690E-01-4.86197E-14 1.25898E-14
 -1      2271 3.46404E-01 8.95175E+01 1.84600E-03 7.41224E-01-2.40578E-14-6.72639E-15
 -1      2272 4.29049E-01 8.92832E+01 1.25364E-03 7.43079E-01-5.12619E-14 6.77323E-15
 -1      2273 3.28828E-03 9.20102E+01 1.17488E-03 8.63106E-02 6.42884E-14 7.75508E-15
 -1      2274 6.17144E-03 9.18408E+01 3.35496E-04 1.61256E-01 7.10831E-14 2.43807E-14
 -1      2275 1.19320E-02 9.16693E+01 5.26998E-04 2.25435E-01 5.27555E-14-4.96304E-14
 -1      2276 1.99897E-02 9.14956E+01 6.80928E-04 2.82367E-01-8.28005E-15-9.26342E-16
 -1      2277 3.11075E-02 9.13194E+01 9.30368E-04 3.34743E-01 5.43737E-14 8.36137E-16
 -1      2278 4.62058E-02 9.11399E+01 1.21273E-03 3.84426E-01-8.44512E-15-1.85962E-15
 -1      2279 6.63887E-02 9.09560E+01 1.50062E-03 4.32462E-01 4.20588E-14-5.88592E-15
 -1      2280 9.27799E-02 9.07669E+01 1.76274E-03 4.79121E-01 8.60432E-14 3.58481E-15
 -1      2281 1.26401E-01 9.05718E+01 1.96996E-03 5.23950E-01 4.23661E-14-2.34673E-14
 -1      2282 1.68048E-01 9.03701E+01 2.09448E-03 5.65846E-01 3.08611E-14 4.30038E-15
 -1      2283 2.18179E-01 9.01619E+01 2.11098E-03 6.03161E-01 3.08721E-14 8.31713E-15
 -1      2284 2.76815E-01 8.99480E+01 1.99791E-03 6.33827E-01 4.29856E-14-6.38378E-15
 -1      2285 3.43453E-01 8.97298E+01 1.74081E-03 6.55509E-01 2.71289E-15-6.51736E-15
 -1      2286 4.17008E-01 8.95097E+01 1.32814E-03 6.65792E-01-7.55060E-15-9.67108E-16
 -1      2287 4.95818E-01 8.92907E+01 7.93657E-04 6.62387E-01 5.16080E-15-2.84972E-15
 -1      2288 5.62400E-03 9.19349E+01 1.59587E-03 8.29300E-02-5.77455E-14-1.76968E-14
 -1      2289 1.15248E-02 9.17773E+01 7.57114E-04 1.55052E-01-1.58185E-14 2.78172E-14
 -1      2290 2.18921E-02 9.16141E+01 8.38832E-04 2.16615E-01-2.86301E-14-2.08054E-14
 -1      2291 3.58483E-02 9.14459E+01 8.93679E-04 2.70642E-01-8.02524E-14 2.51622E-14
 -1      2292 5.37307E-02 9.12731E+01 1.03913E-03 3.19473E-01-3.13369E-14 1.88599E-14
 -1      2293 7.60398E-02 9.10956E+01 1.21856E-03 3.64757E-01-1.94925E-14-2.60677E-14
 -1      2294 1.03458E-01 9.09133E+01 1.40650E-03 4.07454E-01-4.03231E-14 2.50581E-14
 -1      2295 1.36701E-01 9.07258E+01 1.57434E-03 4.47866E-01-4.22032E-14-4.95003E-15
 -1      2296 1.76408E-01 9.05330E+01 1.69608E-03 4.85684E-01-4.05604E-14 7.70391E-15
 -1      2297 2.23028E-01 9.03348E+01 1.74776E-03 5.20060E-01-8.38351E-14-3.23266E-15
 -1      2298 2.76731E-01 9.01318E+01 1.70849E-03 5.49694E-01-2.34154E-14-8.06820E-15
 -1      2299 3.37317E-01 8.99250E+01 1.56155E-03 5.72951E-01-1.00620E-14 5.27790E-15
 -1      2300 4.04154E-01 8.97161E+01 1.29700E-03 5.87994E-01-5.83424E-14 1.07202E-14
 -1      2301 4.76135E-01 8.95073E+01 9.07354E-04 5.92943E-01-2.04246E-14-2.46157E-15
 -1      2302 5.51698E-01 8.93016E+01 4.26088E-04 5.86038E-01-3.35023E-14-1.60549E-15
 -1      2303 7.56140E-03 9.18632E+01 1.94224E-03 7.76755E-02-1.03262E-14 1.47872E-14
 -1      2304 1.59866E-02 9.17169E+01 1.11376E-03 1.45331E-01-6.47596E-14-1.10346E-14
 -1      2305 3.02077E-02 9.15619E+01 1.10333E-03 2.02959E-01-4.38712E-14 2.47614E-14
 -1      2306 4.91090E-02 9.13995E+01 1.07415E-03 2.53121E-01-2.05797E-14 1.28057E-14
 -1      2307 7.26680E-02 9.12307E+01 1.13015E-03 2.97823E-01 9.90527E-15-1.20173E-14
 -1      2308 1.01026E-01 9.10561E+01 1.22076E-03 3.38507E-01-3.04946E-14 3.25148E-14
 -1      2309 1.34502E-01 9.08761E+01 1.32282E-03 3.76038E-01-5.29507E-14-2.04706E-14
 -1      2310 1.73465E-01 9.06908E+01 1.41058E-03 4.10733E-01-3.12042E-14 5.90847E-15
 -1      2311 2.18227E-01 9.05008E+01 1.46101E-03 4.42401E-01-3.59989E-14-5.33861E-15
 -1      2312 2.68951E-01 9.03063E+01 1.45349E-03 4.70403E-01-4.60634E-15 9.80552E-15
 -1      2313 3.25570E-01 9.01084E+01 1.37071E-03 4.93733E-01-4.08853E-14 1.96501E-15
 -1      2314 3.87712E-01 8.99082E+01 1.19955E-03 5.11115E-01-4.61307E-14-6.03467E-15
 -1      2315 4.54653E-01 8.97076E+01 9.33239E-04 5.21122E-01-5.18541E-14-1.36731E-14
 -1      2316 5.25286E-01 8.95087E+01 5.66824E-04 5.22301E-01-5.48706E-14 1.01121E-14
 -1      2317 5.98144E-01 8.93144E+01 1.32773E-04 5.13316E-01-5.04800E-14 5.26922E-15
 -1      2318 9.14677E-03 9.17968E+01 2.22329E-03 7.08720E-02-9.13529E-14 2.12452E-14
 -1      2319 1.96556E-02 9.16608E+01 1.41138E-03 1.32691E-01-1.15389E-13-2.46088E-14
 -1      2320 3.70578E-02 9.15136E+01 1.32486E-03 1.85275E-01-8.78596E-14 3.37907E-14
 -1      2321 6.00512E-02 9.13570E+01 1.22568E-03 2.30761E-01-8.19707E-14-1.27814E-14
 -1      2322 8.83138E-02 9.11925E+01 1.20612E-03 2.70845E-01-1.38287E-13-1.37728E-14
 -1      2323 1.21684E-01 9.10212E+01 1.22142E-03 3.06764E-01-1.01776E-13-4.52416E-15
 -1      2324 1.60178E-01 9.08439E+01 1.25085E-03 3.39285E-01-8.66630E-14 1.16205E-14
 -1      2325 2.03866E-01 9.06613E+01 1.27147E-03 3.68724E-01-9.67986E-14 4.47298E-15
 -1      2326 2.52791E-01 9.04743E+01 1.26299E-03 3.94977E-01-8.57480E-14 9.24521E-15
 -1      2327 3.06879E-01 9.02836E+01 1.20761E-03 4.17578E-01-1.16143E-13-9.31286E-15
 -1      2328 3.65870E-01 9.00905E+01 1.09089E-03 4.35758E-01-7.48459E-14-4.24227E-15
 -1      2329 4.29259E-01 8.98963E+01 9.02399E-04 4.48540E-01-1.18918E-13-9.09906E-15
 -1      2330 4.96257E-01 8.97029E+01 6.37526E-04 4.54826E-01-5.89732E-14 1.13256E-14
 -1      2331 5.65764E-01 8.95125E+01 2.92872E-04 4.53509E-01-9.40834E-14-2.33268E-14
 -1      2332 6.36402E-01 8.93278E+01-1.00466E-04 4.43582E-01-4.67677E-14-6.01385E-15
 -1      2333 1.04243E-02 9.17369E+01 2.44779E-03 6.28062E-02-5.84370E-14-1.61533E-14
 -1      2334 2.26266E-02 9.16102E+01 1.65583E-03 1.17661E-01-5.41134E-14 2.15201E-14
 -1      2335 4.26145E-02 9.14703E+01 1.50759E-03 1.64282E-01-1.09138E-13 1.14557E-14
 -1      2336 6.89430E-02 9.13192E+01 1.35120E-03 2.04418E-01-3.80917E-14-1.34879E-14
 -1      2337 1.01045E-01 9.11589E+01 1.26903E-03 2.39476E-01-8.06414E-14 8.89913E-15
 -1      2338 1.38510E-01 9.09910E+01 1.22168E-03 2.70497E-01-4.61868E-14 1.12007E-14
 -1      2339 1.81100E-01 9.08165E+01 1.19079E-03 2.98142E-01-8.31131E-14-1.41684E-15
 -1      2340 2.28643E-01 9.06368E+01 1.15598E-03 3.22713E-01-5.55474E-14-8.30889E-15
 -1      2341 2.80956E-01 9.04527E+01 1.09941E-03 3.44168E-01-9.76204E-14 5.32690E-15
 -1      2342 3.37773E-01 9.02657E+01 1.00567E-03 3.62175E-01-6.72294E-14 4.50725E-15
 -1      2343 3.98680E-01 9.00769E+01 8.62557E-04 3.76162E-01-9.21217E-14 5.33037E-15
 -1      2344 4.63067E-01 8.98880E+01 6.61646E-04 3.85388E-01-4.15240E-14 8.42338E-15
 -1      2345 5.30097E-01 8.97009E+01 3.99776E-04 3.89023E-01-8.49459E-14 1.68828E-14
 -1      2346 5.98686E-01 8.95177E+01 7.44644E-05 3.86235E-01-8.75940E-14-2.72907E-14
 -1      2347 6.67534E-01 8.93410E+01-2.84664E-04 3.76275E-01-1.09299E-13-4.64993E-15
 -1      2348 1.14341E-02 9.16845E+01 2.62371E-03 5.37291E-02 1.03285E-13 1.10818E-14
 -1      2349 2.49860E-02 9.15659E+01 1.85261E-03 1.00710E-01 9.15474E-14 1.62747E-14
 -1      2350 4.70353E-02 9.14324E+01 1.65533E-03 1.40619E-01 1.31486E-13 4.11997E-16
 -1      2351 7.60293E-02 9.12864E+01 1.45322E-03 1.74853E-01 9.95499E-14-1.76929E-14
 -1      2352 1.11205E-01 9.11301E+01 1.32036E-03 2.04550E-01 9.84838E-14 3.49803E-14
 -1      2353 1.51952E-01 9.09654E+01 1.22207E-03 2.30561E-01 1.32414E-13-3.08217E-14
 -1      2354 1.97825E-01 9.07937E+01 1.14213E-03 2.53443E-01 1.15266E-13-3.50458E-15
 -1      2355 2.48456E-01 9.06167E+01 1.06247E-03 2.73465E-01 1.16257E-13 1.52040E-14
 -1      2356 3.03480E-01 9.04355E+01 9.67337E-04 2.90628E-01 1.53157E-13-1.00440E-14
 -1      2357 3.62476E-01 9.02517E+01 8.43253E-04 3.04702E-01 1.14013E-13 1.04040E-15
 -1      2358 4.24908E-01 9.00668E+01 6.79794E-04 3.15269E-01 1.24628E-13 7.53521E-15
 -1      2359 4.90087E-01 8.98824E+01 4.69989E-04 3.21782E-01 9.81491E-14-1.63788E-14
 -1      2360 5.57140E-01 8.97006E+01 2.11649E-04 3.23625E-01 1.01908E-13-7.54518E-15
 -1      2361 6.25000E-01 8.95234E+01-9.72109E-05 3.20182E-01 1.05783E-13 7.35176E-15
 -1      2362 6.92432E-01 8.93532E+01-4.28359E-04 3.10906E-01 1.23137E-13-1.18052E-14
 -1      2363 1.22112E-02 9.16406E+01 2.75798E-03 4.38599E-02 1.65908E-13 2.09624E-14
 -1      2364 2.68099E-02 9.15288E+01 2.00659E-03 8.22487E-02 1.54505E-13-1.86752E-14
 -1      2365 5.04582E-02 9.14008E+01 1.77145E-03 1.14849E-01 1.57090E-13 3.04366E-14
 -1      2366 8.15250E-02 9.12591E+01 1.53384E-03 1.42740E-01 1.42485E-13-1.85494E-14
 -1      2367 1.19095E-01 9.11063E+01 1.36117E-03 1.66806E-01 1.78388E-13-2.27422E-15
 -1      2368 1.62401E-01 9.09444E+01 1.22270E-03 1.87720E-01 1.67596E-13 9.97943E-15
 -1      2369 2.10836E-01 9.07754E+01 1.10406E-03 2.05927E-01 1.37385E-13-1.31245E-14
 -1      2370 2.63875E-01 9.06007E+01 9.89128E-04 2.21655E-01 1.58349E-13 3.88361E-15
 -1      2371 3.21013E-01 9.04221E+01 8.63850E-04 2.34929E-01 1.31761E-13-1.49108E-14
 -1      2372 3.81706E-01 9.02411E+01 7.16317E-04 2.45595E-01 1.56909E-13 5.80655E-15
 -1      2373 4.45326E-01 9.00594E+01 5.37445E-04 2.53358E-01 1.63488E-13-8.47412E-15
 -1      2374 5.11120E-01 8.98788E+01 3.21320E-04 2.57823E-01 1.59306E-13 2.77382E-15
 -1      2375 5.78193E-01 8.97012E+01 6.63890E-05 2.58546E-01 1.43489E-13-1.57040E-14
 -1      2376 6.45491E-01 8.95289E+01-2.29087E-04 2.55086E-01 1.57900E-13 3.86670E-15
 -1      2377 7.11832E-01 8.93639E+01-5.38096E-04 2.47053E-01 1.52359E-13 1.12896E-14
 -1      2378 1.27850E-02 9.16059E+01 2.85636E-03 3.33906E-02 4.19562E-14-1.11283E-15
 -1      2379 2.81617E-02 9.14994E+01 2.12193E-03 6.26386E-02 4.78179E-14 1.30590E-14
 -1      2380 5.29987E-02 9.13757E+01 1.85877E-03 8.74728E-02 3.50390E-14 8.38609E-15
 -1      2381 8.56098E-02 9.12375E+01 1.59478E-03 1.08679E-01 4.66555E-14 1.64513E-14
 -1      2382 1.24967E-01 9.10876E+01 1.39222E-03 1.26906E-01 4.83785E-14-8.92559E-15
 -1      2383 1.70185E-01 9.09282E+01 1.22347E-03 1.42651E-01 4.23647E-14 1.70597E-14
 -1      2384 2.20534E-01 9.07612E+01 1.07565E-03 1.56251E-01 5.80774E-14-1.49551E-14
 -1      2385 2.75374E-01 9.05886E+01 9.34176E-04 1.67883E-01 3.39831E-14 9.64376E-15
 -1      2386 3.34092E-01 9.04120E+01 7.86323E-04 1.77578E-01 4.59981E-14 1.72540E-14
 -1      2387 3.96053E-01 9.02333E+01 6.21370E-04 1.85240E-01 4.73064E-14 7.21471E-15
 -1      2388 4.60559E-01 9.00542E+01 4.31221E-04 1.90668E-01 3.89944E-14-6.84218E-15
 -1      2389 5.26814E-01 8.98765E+01 2.10707E-04 1.93594E-01 5.86167E-14-1.85268E-15
 -1      2390 5.93904E-01 8.97023E+01-4.13203E-05 1.93711E-01 4.16872E-14 3.38449E-14
 -1      2391 6.60787E-01 8.95336E+01-3.26497E-04 1.90716E-01 4.87665E-14-5.83041E-15
 -1      2392 7.26324E-01 8.93727E+01-6.18797E-04 1.84345E-01 5.28375E-14 3.97252E-16
 -1      2393 1.31783E-02 9.15807E+01 2.92338E-03 2.24907E-02 4.42420E-15-7.76072E-15
 -1      2394 2.90912E-02 9.14781E+01 2.20192E-03 4.22023E-02 3.08504E-15 5.65260E-15
 -1      2395 5.47477E-02 9.13575E+01 1.91952E-03 5.89381E-02-1.62760E-15-1.10120E-14
 -1      2396 8.84253E-02 9.12220E+01 1.63736E-03 7.32107E-02 3.44635E-15 3.61868E-14
 -1      2397 1.29018E-01 9.10742E+01 1.41405E-03 8.54455E-02 2.55511E-15 4.73276E-15
 -1      2398 1.75559E-01 9.09165E+01 1.22422E-03 9.59709E-02 1.14776E-15 1.07397E-14
 -1      2399 2.27235E-01 9.07512E+01 1.05605E-03 1.05012E-01 1.23033E-15 2.93992E-15
 -1      2400 2.83322E-01 9.05801E+01 8.96097E-04 1.12689E-01 2.35910E-15-5.18812E-15
 -1      2401 3.43135E-01 9.04051E+01 7.32578E-04 1.19031E-01-1.22160E-14 4.56189E-15
 -1      2402 4.05975E-01 9.02280E+01 5.55605E-04 1.23981E-01 7.61316E-15-6.25498E-15
 -1      2403 4.71095E-01 9.00508E+01 3.57759E-04 1.27416E-01-8.69530E-16-6.59195E-15
 -1      2404 5.37670E-01 8.98752E+01 1.34365E-04 1.29169E-01-1.05618E-14 2.32670E-15
 -1      2405 6.04773E-01 8.97034E+01-1.15481E-04 1.29048E-01 3.49341E-15 4.20020E-15
 -1      2406 6.71372E-01 8.95373E+01-3.93385E-04 1.26866E-01-7.79330E-15-2.85319E-15
 -1      2407 7.36357E-01 8.93792E+01-6.74038E-04 1.22458E-01-6.11268E-15-9.04572E-15
 -1      2408 1.34077E-02 9.15654E+01 2.96229E-03 1.13134E-02-1.33099E-13 1.72982E-14
 -1      2409 2.96345E-02 9.14652E+01 2.24894E-03 2.12321E-02-1.32487E-13-2.22743E-14
 -1      2410 5.57708E-02 9.13465E+01 1.95532E-03 2.96533E-02-1.34848E-13-1.70927E-14
 -1      2411 9.00736E-02 9.12126E+01 1.66254E-03 3.68297E-02-1.36915E-13 5.20851E-16
 -1      2412 1.31392E-01 9.10661E+01 1.42701E-03 4.29719E-02-1.35762E-13 9.73006E-15
 -1      2413 1.78709E-01 9.09096E+01 1.22475E-03 4.82432E-02-1.37629E-13-3.24580E-14
 -1      2414 2.31165E-01 9.07452E+01 1.04459E-03 5.27559E-02-1.27198E-13 2.83211E-14
 -1      2415 2.87985E-01 9.05750E+01 8.73732E-04 5.65721E-02-1.40103E-13-3.74614E-15
 -1      2416 3.48441E-01 9.04010E+01 7.00996E-04 5.97070E-02-1.26810E-13 7.05729E-15
 -1      2417 4.11797E-01 9.02250E+01 5.16975E-04 6.21350E-02-1.35067E-13 5.77143E-15
 -1      2418 4.77279E-01 9.00488E+01 3.14648E-04 6.37981E-02-1.36470E-13 1.21656E-14
 -1      2419 5.44042E-01 8.98746E+01 8.96199E-05 6.46160E-02-1.28578E-13-6.77279E-15
 -1      2420 6.11154E-01 8.97042E+01-1.58883E-04 6.44972E-02-1.32628E-13 5.35249E-15
 -1      2421 6.77588E-01 8.95396E+01-4.32462E-04 6.33509E-02-1.35399E-13 1.57396E-14
 -1      2422 7.42251E-01 8.93831E+01-7.06247E-04 6.10995E-02-1.36706E-13 7.27803E-15
 -1      2423 8.61656E-01 8.91023E+01-1.31166E-03 5.30778E-02-1.25111E-13 8.50535E-15
 -1      2424 8.56755E-01 8.90949E+01-1.29983E-03 1.06534E-01 7.59803E-15-2.30718E-15
 -1      2425 8.48426E-01 8.90825E+01-1.27937E-03 1.60765E-01 3.63254E-14-4.74837E-15
 -1      2426 8.36423E-01 8.90654E+01-1.24913E-03 2.16198E-01 8.65293E-14-2.34491E-15
 -1      2427 8.20397E-01 8.90436E+01-1.20727E-03 2.73314E-01 1.86500E-14 5.56846E-16
 -1      2428 7.99895E-01 8.90172E+01-1.15117E-03 3.32663E-01 2.93019E-14-1.41627E-14
 -1      2429 7.74350E-01 8.89866E+01-1.07711E-03 3.94889E-01 7.79437E-14-1.04474E-15
 -1      2430 7.43073E-01 8.89519E+01-9.79858E-04 4.60746E-01-3.10780E-14-1.33730E-14
 -1      2431 7.05238E-01 8.89137E+01-8.52132E-04 5.31128E-01-4.04433E-14 4.61697E-15
 -1      2432 6.59871E-01 8.88723E+01-6.83773E-04 6.07096E-01 8.10159E-15 7.25982E-16
 -1      2433 6.05817E-01 8.88286E+01-4.60623E-04 6.89903E-01 3.42443E-14 1.14665E-15
 -1      2434 5.41712E-01 8.87833E+01-1.62926E-04 7.81028E-01-4.86135E-14 2.20865E-14
 -1      2435 4.65936E-01 8.87378E+01 2.36897E-04 8.82201E-01 7.50463E-14-1.04612E-14
 -1      2436 3.76551E-01 8.86936E+01 7.77363E-04 9.95438E-01-2.60573E-14 2.43382E-15
 -1      2437 2.71218E-01 8.86530E+01 1.51223E-03 1.12305E+00-1.26791E-14-2.65543E-14
 -1      2438 1.47086E-01 8.86190E+01 2.51643E-03 1.26766E+00-5.23115E-14 1.81279E-16
 -1      2439 6.46496E-04 8.85956E+01 3.89411E-03 1.43214E+00-3.28730E-16-8.91735E-15
 -1      2440-1.72453E-01 8.85886E+01 5.78928E-03 1.61959E+00 8.94415E-14-1.90178E-14
 -1      2441-3.77642E-01 8.86057E+01 8.39939E-03 1.83308E+00-4.80562E-14-5.69336E-15
 -1      2442-6.21704E-01 8.86577E+01 1.19914E-02 2.07539E+00 9.34166E-14-1.46116E-14
 -1      2443-9.13074E-01 8.87592E+01 1.69181E-02 2.34835E+00-1.01816E-13 8.19483E-15
 -1      2444-1.26211E+00 8.89303E+01 2.36253E-02 2.65183E+00-9.48200E-15-1.94480E-14
 -1      2445-1.68113E+00 8.91982E+01 3.26481E-02 2.98203E+00-1.20422E-13 1.61676E-15
 -1      2446-2.18411E+00 8.95988E+01 4.44535E-02 3.32870E+00 5.19732E-14 8.63892E-15
 -1      2447-2.78474E+00 9.01786E+01 5.96835E-02 3.67102E+00 3.79408E-14-2.09555E-14
 -1      2448-3.49408E+00 9.09918E+01 7.54775E-02 3.97116E+00 8.27177E-14 2.49106E-15
 -1      2449-4.30209E+00 9.21061E+01 1.02237E-01 4.17059E+00 1.25844E-13 1.35725E-14
 -1      2450-5.23868E+00 9.34436E+01 2.28876E-02 4.15941E+00-2.82743E-14-2.29677E-15
 -1      2451 9.13948E-01 8.89823E+01-1.61798E-03 4.73004E-02-1.24232E-13 7.78327E-15
 -1      2452 9.09639E-01 8.89732E+01-1.61834E-03 9.49954E-02-2.82055E-15-1.03843E-14
 -1      2453 9.02325E-01 8.89581E+01-1.61879E-03 1.43497E-01 3.48624E-14 2.45203E-14
 -1      2454 8.91804E-01 8.89368E+01-1.61906E-03 1.93254E-01 8.53031E-14-2.10400E-15
 -1      2455 8.77792E-01 8.89095E+01-1.61866E-03 2.44768E-01-1.43282E-14-3.91332E-15
 -1      2456 8.59922E-01 8.88762E+01-1.61674E-03 2.98620E-01 1.06652E-13 1.18087E-14
 -1      2457 8.37734E-01 8.88368E+01-1.61192E-03 3.55488E-01 2.46142E-14 8.82541E-16
 -1      2458 8.10676E-01 8.87914E+01-1.60193E-03 4.16179E-01-1.45817E-14 2.96625E-14
 -1      2459 7.78087E-01 8.87400E+01-1.58322E-03 4.81654E-01-4.77261E-14-1.47321E-15
 -1      2460 7.39189E-01 8.86828E+01-1.55026E-03 5.53067E-01 2.61722E-14 2.06506E-14
 -1      2461 6.93063E-01 8.86199E+01-1.49458E-03 6.31805E-01 4.89916E-14-2.21424E-14
 -1      2462 6.38623E-01 8.85516E+01-1.40335E-03 7.19534E-01-6.77080E-14-1.00753E-14
 -1      2463 5.74566E-01 8.84782E+01-1.25729E-03 8.18253E-01 1.16384E-13 2.17370E-14
 -1      2464 4.99322E-01 8.84005E+01-1.02760E-03 9.30355E-01-9.94257E-15-1.91253E-15
 -1      2465 4.10959E-01 8.83194E+01-6.71469E-04 1.05870E+00 1.40124E-13-1.35655E-15
 -1      2466 3.07073E-01 8.82364E+01-1.25488E-04 1.20667E+00-7.19355E-14-7.78891E-16
 -1      2467 1.84614E-01 8.81540E+01 7.04041E-04 1.37828E+00 5.60940E-14 1.95503E-14
 -1      2468 3.96660E-02 8.80758E+01 1.95526E-03 1.57819E+00 7.80539E-14 4.91881E-15
 -1      2469-1.32870E-01 8.80070E+01 3.83133E-03 1.81176E+00-5.67974E-14 8.25034E-15
 -1      2470-3.39688E-01 8.79558E+01 6.62968E-03 2.08497E+00 1.06210E-13 1.81539E-14
 -1      2471-5.89622E-01 8.79340E+01 1.07833E-02 2.40422E+00-2.94799E-14-3.62731E-15
 -1      2472-8.94330E-01 8.79593E+01 1.69092E-02 2.77576E+00 6.79318E-14 8.26075E-15
 -1      2473-1.26908E+00 8.80577E+01 2.58896E-02 3.20461E+00 2.12400E-14 1.19731E-14
 -1      2474-1.73358E+00 8.82666E+01 3.87592E-02 3.69231E+00-4.41487E-14 5.27356E-15
 -1      2475-2.31193E+00 8.86399E+01 5.74508E-02 4.23290E+00-2.47224E-14 1.32498E-14
 -1      2476-3.03411E+00 8.92477E+01 7.91378E-02 4.80572E+00 5.34555E-15 1.75138E-14
 -1      2477-3.91700E+00 9.01949E+01 1.24515E-01 5.36023E+00-7.99274E-15-2.17187E-15
 -1      2478-5.02202E+00 9.15135E+01 6.75741E-02 5.79229E+00 4.23923E-14-7.12624E-15
 -1      2479 9.59650E-01 8.88789E+01-1.88254E-03 4.04240E-02-1.20514E-13-7.14489E-15
 -1      2480 9.55932E-01 8.88682E+01-1.89493E-03 8.12267E-02 6.03380E-15 7.63712E-16
 -1      2481 9.49633E-01 8.88504E+01-1.91605E-03 1.22804E-01 2.59421E-14 3.04531E-15
 -1      2482 9.40597E-01 8.88254E+01-1.94661E-03 1.65587E-01 8.69493E-14 2.22847E-15
 -1      2483 9.28605E-01 8.87931E+01-1.98758E-03 2.10060E-01-1.43960E-15-8.03893E-15
 -1      2484 9.13377E-01 8.87532E+01-2.04009E-03 2.56786E-01 3.81763E-14-9.13982E-15
 -1      2485 8.94570E-01 8.87056E+01-2.10540E-03 3.06423E-01 9.42371E-14 5.69206E-16
 -1      2486 8.71772E-01 8.86501E+01-2.18473E-03 3.59761E-01-3.14111E-14-1.71189E-14
 -1      2487 8.44502E-01 8.85863E+01-2.27902E-03 4.17748E-01-1.26505E-14 4.24443E-15
 -1      2488 8.12199E-01 8.85140E+01-2.38855E-03 4.81532E-01-2.82591E-14-1.72718E-14
 -1      2489 7.74211E-01 8.84326E+01-2.51237E-03 5.52509E-01 3.33401E-14 7.58031E-15
 -1      2490 7.29770E-01 8.83418E+01-2.64733E-03 6.32379E-01 3.88491E-14 2.82088E-14
 -1      2491 6.77968E-01 8.82411E+01-2.78663E-03 7.23219E-01 3.95343E-15-2.08102E-14
 -1      2492 6.17700E-01 8.81299E+01-2.91759E-03 8.27565E-01-4.70110E-16-8.29805E-15
 -1      2493 5.47599E-01 8.80079E+01-3.01810E-03 9.48528E-01 7.53564E-15 1.00718E-14
 -1      2494 4.65929E-01 8.78748E+01-3.05114E-03 1.08991E+00-6.05453E-14-9.15327E-15
 -1      2495 3.70434E-01 8.77307E+01-2.95616E-03 1.25640E+00 5.68469E-15-1.25585E-14
 -1      2496 2.58116E-01 8.75762E+01-2.63560E-03 1.45370E+00 1.56037E-13 1.45170E-14
 -1      2497 1.24918E-01 8.74130E+01-1.93349E-03 1.68883E+00 2.46088E-14-6.38031E-15
 -1      2498-3.47325E-02 8.72446E+01-6.01854E-04 1.97033E+00-2.60555E-15-5.10009E-15
 -1      2499-2.28573E-01 8.70772E+01 1.75282E-03 2.30851E+00-2.62793E-14-5.86510E-15
 -1      2500-4.67428E-01 8.69215E+01 5.74987E-03 2.71558E+00-7.66782E-14-4.30905E-15
 -1      2501-7.66471E-01 8.67958E+01 1.23777E-02 3.20555E+00-1.19035E-13-9.08995E-16
 -1      2502-1.14700E+00 8.67296E+01 2.30686E-02 3.79344E+00 5.93883E-14-1.01134E-14
 -1      2503-1.63820E+00 8.67713E+01 4.06477E-02 4.49289E+00 3.41220E-14-9.04832E-15
 -1      2504-2.28189E+00 8.69939E+01 6.51482E-02 5.31029E+00-5.08413E-14-1.87975E-14
 -1      2505-3.11714E+00 8.75347E+01 1.23805E-01 6.23213E+00 4.36023E-14 1.91513E-15
 -1      2506-4.28058E+00 8.84748E+01 8.80433E-02 7.20177E+00 1.45717E-15 1.31423E-14
 -1      2507 9.97665E-01 8.87938E+01-2.11462E-03 3.25649E-02-1.22553E-13-2.88224E-15
 -1      2508 9.94491E-01 8.87818E+01-2.13813E-03 6.54619E-02-7.63604E-16-6.08693E-15
 -1      2509 9.89125E-01 8.87617E+01-2.17840E-03 9.90386E-02 1.28375E-14 1.32173E-14
 -1      2510 9.81455E-01 8.87334E+01-2.23712E-03 1.33674E-01 9.65688E-14-1.99541E-14
 -1      2511 9.71323E-01 8.86966E+01-2.31668E-03 1.69795E-01-2.30393E-15-2.02887E-14
 -1      2512 9.58534E-01 8.86510E+01-2.42022E-03 2.07898E-01 6.25292E-14 1.36328E-15
 -1      2513 9.42852E-01 8.85962E+01-2.55171E-03 2.48568E-01 6.46610E-14-9.59194E-15
 -1      2514 9.24003E-01 8.85318E+01-2.71597E-03 2.92508E-01-1.56377E-14 1.81407E-14
 -1      2515 9.01679E-01 8.84570E+01-2.91872E-03 3.40567E-01-3.57487E-14-1.08464E-14
 -1      2516 8.75535E-01 8.83711E+01-3.16656E-03 3.93783E-01 4.99995E-14 3.31811E-14
 -1      2517 8.45186E-01 8.82731E+01-3.46691E-03 4.53427E-01 4.00699E-14-8.76035E-16
 -1      2518 8.10198E-01 8.81620E+01-3.82781E-03 5.21064E-01-1.06370E-13-1.97863E-14
 -1      2519 7.70070E-01 8.80362E+01-4.25748E-03 5.98628E-01 9.91993E-14 2.60135E-14
 -1      2520 7.24211E-01 8.78942E+01-4.76345E-03 6.88522E-01-2.18194E-14 9.10123E-15
 -1      2521 6.71891E-01 8.77341E+01-5.35111E-03 7.93738E-01 1.39816E-13 3.52756E-15
 -1      2522 6.12169E-01 8.75535E+01-6.02092E-03 9.18027E-01-9.54254E-14-1.58979E-14
 -1      2523 5.43787E-01 8.73501E+01-6.76373E-03 1.06611E+00 8.00748E-14 2.08809E-14
 -1      2524 4.64995E-01 8.71211E+01-7.55250E-03 1.24395E+00 5.00502E-14 2.19963E-15
 -1      2525 3.73298E-01 8.68636E+01-8.32789E-03 1.45914E+00 1.52968E-14-1.44450E-14
 -1      2526 2.65066E-01 8.65752E+01-8.97325E-03 1.72138E+00 1.03400E-13-2.16147E-14
 -1      2527 1.34944E-01 8.62540E+01-9.26963E-03 2.04313E+00-5.93883E-14-5.63091E-15
 -1      2528-2.50505E-02 8.59000E+01-8.82023E-03 2.44037E+00 6.73420E-14 1.60306E-14
 -1      2529-2.26877E-01 8.55173E+01-6.88707E-03 2.93358E+00-4.42944E-14-5.96745E-15
 -1      2530-4.88607E-01 8.51168E+01-2.24571E-03 3.54873E+00 8.39120E-14 2.38629E-14
 -1      2531-8.37227E-01 8.47241E+01 8.02835E-03 4.31788E+00-1.02817E-13-8.79158E-15
 -1      2532-1.31532E+00 8.43879E+01 2.53630E-02 5.27855E+00 3.16275E-14 1.66533E-15
 -1      2533-1.97639E+00 8.42204E+01 7.64931E-02 6.46866E+00-1.81175E-14 2.01922E-15
 -1      2534-2.97375E+00 8.43187E+01 5.94959E-02 7.91797E+00 1.49873E-13 1.30174E-14
 -1      2535 1.02706E+00 8.87285E+01-2.29945E-03 2.38853E-02-1.26625E-13-1.79091E-14
 -1      2536 1.02434E+00 8.87154E+01-2.33223E-03 4.80292E-02 5.45549E-15 2.10450E-14
 -1      2537 1.01975E+00 8.86935E+01-2.38852E-03 7.27027E-02 1.77818E-14 6.51063E-16
 -1      2538 1.01322E+00 8.86626E+01-2.47081E-03 9.82012E-02 9.89443E-14-3.88014E-15
 -1      2539 1.00463E+00 8.86222E+01-2.58278E-03 1.24859E-01 1.88137E-14 2.11370E-14
 -1      2540 9.93877E-01 8.85720E+01-2.72936E-03 1.53064E-01 5.20400E-14 1.64926E-14
 -1      2541 9.80804E-01 8.85114E+01-2.91692E-03 1.83276E-01 9.87882E-14 1.27025E-14
 -1      2542 9.65259E-01 8.84398E+01-3.15358E-03 2.16049E-01-2.83289E-14-1.98782E-14
 -1      2543 9.47085E-01 8.83560E+01-3.44944E-03 2.52057E-01-6.93976E-15-8.55652E-15
 -1      2544 9.26126E-01 8.82591E+01-3.81701E-03 2.92123E-01 3.39303E-14-1.21435E-14
 -1      2545 9.02233E-01 8.81475E+01-4.27171E-03 3.37268E-01 6.63974E-14 1.14524E-14
 -1      2546 8.75272E-01 8.80195E+01-4.83243E-03 3.88753E-01-3.36944E-14-5.71700E-15
 -1      2547 8.45121E-01 8.78730E+01-5.52235E-03 4.48153E-01 6.58675E-14-1.50554E-14
 -1      2548 8.11667E-01 8.77052E+01-6.36970E-03 5.17447E-01 1.53818E-14 2.39956E-14
 -1      2549 7.74791E-01 8.75128E+01-7.40889E-03 5.99127E-01 2.65734E-14-1.97841E-14
 -1      2550 7.34337E-01 8.72917E+01-8.68144E-03 6.96365E-01 2.33095E-14-3.90486E-15
 -1      2551 6.90063E-01 8.70371E+01-1.02370E-02 8.13221E-01 2.12122E-14 3.32243E-15
 -1      2552 6.41545E-01 8.67428E+01-1.21334E-02 9.54939E-01 6.57772E-14 8.94857E-15
 -1      2553 5.88025E-01 8.64015E+01-1.44358E-02 1.12835E+00-7.33580E-14 4.90406E-15
 -1      2554 5.28167E-01 8.60042E+01-1.72107E-02 1.34246E+00-3.75394E-14-1.40504E-14
 -1      2555 4.59651E-01 8.55404E+01-2.05124E-02 1.60922E+00 2.11255E-14-2.17881E-15
 -1      2556 3.78517E-01 8.49973E+01-2.43508E-02 1.94470E+00-7.99673E-14-1.04951E-14
 -1      2557 2.78093E-01 8.43609E+01-2.86075E-02 2.37070E+00 3.22416E-14-2.66800E-15
 -1      2558 1.47178E-01 8.36159E+01-3.29139E-02 2.91708E+00 3.64465E-14 1.80793E-14
 -1      2559-3.27993E-02 8.27496E+01-3.59473E-02 3.62499E+00 1.55466E-13-6.72032E-15
 -1      2560-2.94069E-01 8.17558E+01-3.66262E-02 4.55160E+00 5.57887E-14-1.67921E-15
 -1      2561-6.85179E-01 8.06594E+01-2.02181E-02 5.77463E+00 1.96856E-14-2.31759E-15
 -1      2562-1.32251E+00 7.94948E+01-2.92436E-02 7.40501E+00 4.42840E-14-2.32731E-14
 -1      2563 1.04709E+00 8.86843E+01-2.42832E-03 1.45877E-02-1.24061E-13-4.55804E-15
 -1      2564 1.04470E+00 8.86705E+01-2.46778E-03 2.93395E-02 5.87800E-15-1.45738E-15
 -1      2565 1.04066E+00 8.86473E+01-2.53557E-03 4.44275E-02 3.57568E-14 2.37982E-16
 -1      2566 1.03494E+00 8.86145E+01-2.63485E-03 6.00394E-02 1.03842E-13 8.28688E-15
 -1      2567 1.02747E+00 8.85716E+01-2.77022E-03 7.63876E-02-1.92565E-14-9.12681E-16
 -1      2568 1.01817E+00 8.85182E+01-2.94794E-03 9.37196E-02 7.84759E-14 1.10422E-14
 -1      2569 1.00697E+00 8.84536E+01-3.17623E-03 1.12329E-01 8.08359E-14-2.58285E-14
 -1      2570 9.93802E-01 8.83768E+01-3.46569E-03 1.32570E-01-5.72806E-15-5.21837E-15
 -1      2571 9.78618E-01 8.82867E+01-3.82979E-03 1.54874E-01-1.10684E-14 5.17587E-15
 -1      2572 9.61403E-01 8.81820E+01-4.28563E-03 1.79774E-01 2.28398E-14 2.85731E-15
 -1      2573 9.42188E-01 8.80607E+01-4.85487E-03 2.07926E-01 1.28370E-14 1.93465E-15
 -1      2574 9.21062E-01 8.79208E+01-5.56508E-03 2.40153E-01-5.07953E-14-2.77404E-15
 -1      2575 8.98195E-01 8.77593E+01-6.45145E-03 2.77483E-01 1.12198E-13-8.91214E-17
 -1      2576 8.73843E-01 8.75728E+01-7.55923E-03 3.21217E-01-4.63258E-14 1.31453E-14
 -1      2577 8.48369E-01 8.73570E+01-8.94704E-03 3.73010E-01 8.48696E-14-1.91644E-15
 -1      2578 8.22248E-01 8.71064E+01-1.06915E-02 4.34983E-01-3.08538E-14-1.35005E-15
 -1      2579 7.96064E-01 8.68141E+01-1.28936E-02 5.09886E-01 2.89439E-14 2.03136E-15
 -1      2580 7.70501E-01 8.64712E+01-1.56880E-02 6.01310E-01 1.50388E-13 9.45815E-15
 -1      2581 7.46292E-01 8.60668E+01-1.92555E-02 7.14012E-01-5.23019E-14 7.54561E-15
 -1      2582 7.24130E-01 8.55866E+01-2.38414E-02 8.54361E-01-2.96291E-15-5.47305E-16
 -1      2583 7.04488E-01 8.50121E+01-2.97808E-02 1.03101E+00 7.67338E-14 3.30257E-14
 -1      2584 6.87280E-01 8.43196E+01-3.75326E-02 1.25588E+00-4.53630E-14-3.27152E-14
 -1      2585 6.71244E-01 8.34776E+01-4.77288E-02 1.54568E+00-2.51743E-14-1.06859E-15
 -1      2586 6.52823E-01 8.24449E+01-6.12026E-02 1.92429E+00 1.19002E-14-1.57842E-14
 -1      2587 6.23952E-01 8.11666E+01-7.92012E-02 2.42643E+00 5.43315E-15 1.43982E-14
 -1      2588 5.68602E-01 7.95708E+01-1.02404E-01 3.10414E+00 1.05790E-13 8.27463E-15
 -1      2589 4.52490E-01 7.75590E+01-1.36615E-01 4.03552E+00 1.11022E-16-1.20737E-15
 -1      2590 2.27233E-01 7.50319E+01-1.54454E-01 5.35015E+00 4.03150E-14 1.86309E-14
 -1      2591 1.05724E+00 8.86620E+01-2.49449E-03 4.90599E-03-1.19487E-13-3.63879E-14
 -1      2592 1.05501E+00 8.86478E+01-2.53742E-03 9.86824E-03-3.19298E-15 9.59313E-15
 -1      2593 1.05127E+00 8.86239E+01-2.61124E-03 1.49457E-02 1.95516E-14 9.22266E-15
 -1      2594 1.04597E+00 8.85902E+01-2.71940E-03 2.02027E-02 8.36137E-14 1.89558E-14
 -1      2595 1.03908E+00 8.85460E+01-2.86703E-03 2.57122E-02 2.11502E-14 3.48688E-15
 -1      2596 1.03054E+00 8.84910E+01-3.06110E-03 3.15591E-02 4.60261E-14-5.77004E-15
 -1      2597 1.02032E+00 8.84242E+01-3.31082E-03 3.78443E-02 6.54650E-14 4.77556E-15
 -1      2598 1.00840E+00 8.83448E+01-3.62812E-03 4.46896E-02-2.59905E-14-7.92926E-15
 -1      2599 9.94777E-01 8.82515E+01-4.02831E-03 5.22440E-02-5.49231E-14-1.24204E-14
 -1      2600 9.79524E-01 8.81426E+01-4.53098E-03 6.06909E-02 4.14855E-14-2.08615E-14
 -1      2601 9.62764E-01 8.80164E+01-5.16125E-03 7.02579E-02 2.73956E-14 4.11661E-15
 -1      2602 9.44710E-01 8.78702E+01-5.95147E-03 8.12297E-02-8.29146E-14 2.11801E-14
 -1      2603 9.25684E-01 8.77009E+01-6.94355E-03 9.39642E-02 1.31293E-14-9.89432E-15
 -1      2604 9.06149E-01 8.75047E+01-8.19231E-03 1.08915E-01 1.50574E-14 1.14925E-15
 -1      2605 8.86731E-01 8.72766E+01-9.77017E-03 1.26662E-01 3.37213E-14 1.21843E-14
 -1      2606 8.68254E-01 8.70104E+01-1.17739E-02 1.47951E-01-1.15082E-14-2.62907E-14
 -1      2607 8.51770E-01 8.66980E+01-1.43347E-02 1.73754E-01 5.72441E-14 1.02645E-14
 -1      2608 8.38589E-01 8.63292E+01-1.76324E-02 2.05351E-01 2.80366E-14-1.85279E-15
 -1      2609 8.30306E-01 8.58909E+01-2.19180E-02 2.44444E-01 7.57380E-15-2.67173E-14
 -1      2610 8.28803E-01 8.53657E+01-2.75470E-02 2.93336E-01-9.20791E-15-1.22320E-15
 -1      2611 8.36219E-01 8.47307E+01-3.50328E-02 3.55184E-01-1.17066E-13-3.43651E-14
 -1      2612 8.54836E-01 8.39553E+01-4.51290E-02 4.34394E-01 1.21025E-13 3.68022E-14
 -1      2613 8.86795E-01 8.29978E+01-5.89852E-02 5.37235E-01-3.92707E-14-1.28235E-14
 -1      2614 9.33519E-01 8.18004E+01-7.82995E-02 6.72826E-01-2.51049E-14-2.30935E-14
 -1      2615 9.94150E-01 8.02807E+01-1.06301E-01 8.54773E-01 6.65440E-15-3.20664E-15
 -1      2616 1.06448E+00 7.83208E+01-1.45215E-01 1.10409E+00-9.71098E-14-3.48350E-14
 -1      2617 1.12135E+00 7.57305E+01-2.17910E-01 1.45363E+00 1.30645E-13-1.05818E-15
 -1      2618 1.16936E+00 7.22940E+01-2.48787E-01 1.96123E+00 3.71786E-14 1.64938E-14
 -1      2619 1.05724E+00 8.86620E+01-2.49449E-03-4.90599E-03-1.26641E-13 2.21706E-14
 -1      2620 1.05501E+00 8.86478E+01-2.53742E-03-9.86824E-03 3.62449E-15-5.99211E-15
 -1      2621 1.05127E+00 8.86239E+01-2.61124E-03-1.49457E-02 1.98255E-14-2.08559E-14
 -1      2622 1.04597E+00 8.85902E+01-2.71940E-03-2.02027E-02 9.50175E-14-6.18109E-15
 -1      2623 1.03908E+00 8.85460E+01-2.86703E-03-2.57122E-02 1.50273E-14 2.65981E-14
 -1      2624 1.03054E+00 8.84910E+01-3.06110E-03-3.15591E-02 7.48707E-14-9.17891E-15
 -1      2625 1.02032E+00 8.84242E+01-3.31082E-03-3.78443E-02 7.29694E-14-2.08720E-14
 -1      2626 1.00840E+00 8.83448E+01-3.62812E-03-4.46896E-02-3.30226E-14-3.61796E-15
 -1      2627 9.94777E-01 8.82515E+01-4.02831E-03-5.22440E-02-5.34763E-14 8.95036E-15
 -1      2628 9.79524E-01 8.81426E+01-4.53098E-03-6.06909E-02 4.95650E-14-1.56132E-14
 -1      2629 9.62764E-01 8.80164E+01-5.16125E-03-7.02579E-02 2.64866E-14-1.29351E-15
 -1      2630 9.44710E-01 8.78702E+01-5.95147E-03-8.12297E-02-1.07398E-13-3.17146E-14
 -1      2631 9.25684E-01 8.77009E+01-6.94355E-03-9.39642E-02 9.76051E-14 4.60944E-14
 -1      2632 9.06149E-01 8.75047E+01-8.19231E-03-1.08915E-01-6.99267E-14-2.40810E-14
 -1      2633 8.86731E-01 8.72766E+01-9.77017E-03-1.26662E-01 6.45369E-14-2.92594E-14
 -1      2634 8.68254E-01 8.70104E+01-1.17739E-02-1.47951E-01 1.16938E-14 3.39766E-14
 -1      2635 8.51770E-01 8.66980E+01-1.43347E-02-1.73754E-01 3.88786E-14-2.49401E-14
 -1      2636 8.38589E-01 8.63292E+01-1.76324E-02-2.05351E-01 4.67560E-14 1.88175E-14
 -1      2637 8.30306E-01 8.58909E+01-2.19180E-02-2.44444E-01 3.31853E-14 1.16309E-14
 -1      2638 8.28803E-01 8.53657E+01-2.75470E-02-2.93336E-01 8.02657E-14-9.94690E-15
 -1      2639 8.36219E-01 8.47307E+01-3.50328E-02-3.55184E-01-6.67036E-14-1.21548E-14
 -1      2640 8.54836E-01 8.39553E+01-4.51290E-02-4.34394E-01 1.67158E-14-5.75061E-16
 -1      2641 8.86795E-01 8.29978E+01-5.89852E-02-5.37235E-01 8.60423E-15-9.11467E-15
 -1      2642 9.33519E-01 8.18004E+01-7.82995E-02-6.72826E-01-1.42136E-13 5.85903E-15
 -1      2643 9.94150E-01 8.02807E+01-1.06301E-01-8.54773E-01-1.02279E-14 2.18540E-14
 -1      2644 1.06448E+00 7.83208E+01-1.45215E-01-1.10409E+00-1.51684E-14-5.00988E-15
 -1      2645 1.12135E+00 7.57305E+01-2.17910E-01-1.45363E+00-1.07095E-13-2.62047E-14
 -1      2646 1.16936E+00 7.22940E+01-2.48787E-01-1.96123E+00 4.84890E-14 7.57727E-15
 -1      2647 1.04709E+00 8.86843E+01-2.42832E-03-1.45877E-02-1.24376E-13-1.20752E-14
 -1      2648 1.04470E+00 8.86705E+01-2.46778E-03-2.93395E-02 5.59123E-16-1.68051E-15
 -1      2649 1.04066E+00 8.86473E+01-2.53557E-03-4.44275E-02 2.59146E-14 1.63530E-15
 -1      2650 1.03494E+00 8.86145E+01-2.63485E-03-6.00394E-02 9.12358E-14-2.74562E-14
 -1      2651 1.02747E+00 8.85716E+01-2.77022E-03-7.63876E-02-8.64586E-15 5.55502E-15
 -1      2652 1.01817E+00 8.85182E+01-2.94794E-03-9.37196E-02 4.19879E-14 9.78785E-15
 -1      2653 1.00697E+00 8.84536E+01-3.17623E-03-1.12329E-01 9.98090E-14 2.33793E-14
 -1      2654 9.93802E-01 8.83768E+01-3.46569E-03-1.32570E-01-3.76370E-14-2.35794E-14
 -1      2655 9.78618E-01 8.82867E+01-3.82979E-03-1.54874E-01-3.35678E-14-1.02839E-14
 -1      2656 9.61403E-01 8.81820E+01-4.28563E-03-1.79774E-01 7.43316E-14 2.37376E-14
 -1      2657 9.42188E-01 8.80607E+01-4.85487E-03-2.07926E-01 1.97429E-14 2.14694E-15
 -1      2658 9.21062E-01 8.79208E+01-5.56508E-03-2.40153E-01-6.19166E-14 6.11490E-15
 -1      2659 8.98195E-01 8.77593E+01-6.45145E-03-2.77483E-01 9.36950E-14 9.82938E-16
 -1      2660 8.73843E-01 8.75728E+01-7.55923E-03-3.21217E-01-3.96983E-14-2.32590E-14
 -1      2661 8.48369E-01 8.73570E+01-8.94704E-03-3.73010E-01 8.89228E-14 1.07869E-14
 -1      2662 8.22248E-01 8.71064E+01-1.06915E-02-4.34983E-01-2.62498E-14-1.67438E-14
 -1      2663 7.96064E-01 8.68141E+01-1.28936E-02-5.09886E-01 2.36564E-14 2.05435E-15
 -1      2664 7.70501E-01 8.64712E+01-1.56880E-02-6.01310E-01 1.33563E-13 1.21986E-14
 -1      2665 7.46292E-01 8.60668E+01-1.92555E-02-7.14012E-01-5.94698E-14-1.52903E-14
 -1      2666 7.24130E-01 8.55866E+01-2.38414E-02-8.54361E-01 1.42233E-13 2.62611E-14
 -1      2667 7.04488E-01 8.50121E+01-2.97808E-02-1.03101E+00-3.70745E-14 1.01655E-14
 -1      2668 6.87280E-01 8.43196E+01-3.75326E-02-1.25588E+00-2.36165E-14-2.29088E-14
 -1      2669 6.71244E-01 8.34776E+01-4.77288E-02-1.54568E+00 6.63081E-14 1.09582E-14
 -1      2670 6.52823E-01 8.24449E+01-6.12026E-02-1.92429E+00 1.07345E-13 1.70645E-14
 -1      2671 6.23952E-01 8.11666E+01-7.92012E-02-2.42643E+00 6.90906E-14 1.42213E-14
 -1      2672 5.68602E-01 7.95708E+01-1.02404E-01-3.10414E+00 7.78058E-14 2.02269E-15
 -1      2673 4.52490E-01 7.75590E+01-1.36615E-01-4.03552E+00 2.12053E-14 2.68535E-14
 -1      2674 2.27233E-01 7.50319E+01-1.54454E-01-5.35015E+00-4.05787E-14-1.01516E-14
 -1      2675 1.02706E+00 8.87285E+01-2.29945E-03-2.38853E-02-1.22422E-13 2.96008E-14
 -1      2676 1.02434E+00 8.87154E+01-2.33223E-03-4.80292E-02-5.31281E-15-3.42728E-14
 -1      2677 1.01975E+00 8.86935E+01-2.38852E-03-7.27027E-02 2.10174E-14 1.47421E-14
 -1      2678 1.01322E+00 8.86626E+01-2.47081E-03-9.82012E-02 8.50021E-14 6.54858E-17
 -1      2679 1.00463E+00 8.86222E+01-2.58278E-03-1.24859E-01 2.34628E-14-1.11435E-14
 -1      2680 9.93877E-01 8.85720E+01-2.72936E-03-1.53064E-01 5.62645E-14-1.13395E-14
 -1      2681 9.80804E-01 8.85114E+01-2.91692E-03-1.83276E-01 6.48418E-14-2.38733E-14
 -1      2682 9.65259E-01 8.84398E+01-3.15358E-03-2.16049E-01-2.05439E-14 5.92148E-15
 -1      2683 9.47085E-01 8.83560E+01-3.44944E-03-2.52057E-01-3.82147E-14-1.39441E-14
 -1      2684 9.26126E-01 8.82591E+01-3.81701E-03-2.92123E-01-6.69777E-15 7.96151E-15
 -1      2685 9.02233E-01 8.81475E+01-4.27171E-03-3.37268E-01-1.33149E-14-2.40255E-14
 -1      2686 8.75272E-01 8.80195E+01-4.83243E-03-3.88753E-01-6.27892E-14 1.27034E-14
 -1      2687 8.45121E-01 8.78730E+01-5.52235E-03-4.48153E-01 1.51027E-13 2.72607E-14
 -1      2688 8.11667E-01 8.77052E+01-6.36970E-03-5.17447E-01-7.82898E-14-6.15306E-15
 -1      2689 7.74791E-01 8.75128E+01-7.40889E-03-5.99127E-01 7.67754E-14 1.33617E-14
 -1      2690 7.34337E-01 8.72917E+01-8.68144E-03-6.96365E-01-5.85643E-14-8.12544E-15
 -1      2691 6.90063E-01 8.70371E+01-1.02370E-02-8.13221E-01-2.00413E-14-3.41073E-14
 -1      2692 6.41545E-01 8.67428E+01-1.21334E-02-9.54939E-01 1.17203E-13-1.71755E-14
 -1      2693 5.88025E-01 8.64015E+01-1.44358E-02-1.12835E+00-1.71495E-14-4.94049E-15
 -1      2694 5.28167E-01 8.60042E+01-1.72107E-02-1.34246E+00 3.65628E-14 1.26800E-14
 -1      2695 4.59651E-01 8.55404E+01-2.05124E-02-1.60922E+00-7.75699E-14-7.97626E-15
 -1      2696 3.78517E-01 8.49973E+01-2.43508E-02-1.94470E+00 2.77729E-14-2.19963E-15
 -1      2697 2.78093E-01 8.43609E+01-2.86075E-02-2.37070E+00-1.11400E-13-1.59265E-14
 -1      2698 1.47178E-01 8.36159E+01-3.29139E-02-2.91708E+00 1.04233E-13 1.20945E-14
 -1      2699-3.27993E-02 8.27496E+01-3.59473E-02-3.62499E+00-8.42104E-14-1.60601E-14
 -1      2700-2.94069E-01 8.17558E+01-3.66262E-02-4.55160E+00 8.46129E-14 3.51802E-15
 -1      2701-6.85179E-01 8.06594E+01-2.02181E-02-5.77463E+00-1.49498E-13-1.34892E-14
 -1      2702-1.32251E+00 7.94948E+01-2.92436E-02-7.40501E+00 1.27079E-13 1.67921E-15
 -1      2703 9.97665E-01 8.87938E+01-2.11462E-03-3.25649E-02-1.24721E-13 1.87018E-14
 -1      2704 9.94491E-01 8.87818E+01-2.13813E-03-6.54619E-02-3.71318E-15-2.21329E-14
 -1      2705 9.89125E-01 8.87617E+01-2.17840E-03-9.90386E-02 1.40899E-14 1.58363E-14
 -1      2706 9.81455E-01 8.87334E+01-2.23712E-03-1.33674E-01 7.23705E-14-2.12092E-14
 -1      2707 9.71323E-01 8.86966E+01-2.31668E-03-1.69795E-01 4.84660E-14 1.40575E-14
 -1      2708 9.58534E-01 8.86510E+01-2.42022E-03-2.07898E-01 8.58163E-14 3.34320E-14
 -1      2709 9.42852E-01 8.85962E+01-2.55171E-03-2.48568E-01 5.52167E-14-1.64723E-14
 -1      2710 9.24003E-01 8.85318E+01-2.71597E-03-2.92508E-01-2.21264E-15-3.49330E-16
 -1      2711 9.01679E-01 8.84570E+01-2.91872E-03-3.40567E-01-1.84019E-14-1.07067E-14
 -1      2712 8.75535E-01 8.83711E+01-3.16656E-03-3.93783E-01 2.48664E-14 4.06055E-15
 -1      2713 8.45186E-01 8.82731E+01-3.46691E-03-4.53427E-01-1.76682E-14 9.90787E-15
 -1      2714 8.10198E-01 8.81620E+01-3.82781E-03-5.21064E-01-4.58886E-14-1.24163E-14
 -1      2715 7.70070E-01 8.80362E+01-4.25748E-03-5.98628E-01 6.82050E-14-1.15979E-14
 -1      2716 7.24211E-01 8.78942E+01-4.76345E-03-6.88522E-01 9.62858E-15 2.95076E-15
 -1      2717 6.71891E-01 8.77341E+01-5.35111E-03-7.93738E-01 5.58061E-15-1.07813E-14
 -1      2718 6.12169E-01 8.75535E+01-6.02092E-03-9.18027E-01-6.35689E-15 5.05151E-15
 -1      2719 5.43787E-01 8.73501E+01-6.76373E-03-1.06611E+00 4.74534E-14 3.48332E-15
 -1      2720 4.64995E-01 8.71211E+01-7.55250E-03-1.24395E+00 4.00322E-14-2.40060E-14
 -1      2721 3.73298E-01 8.68636E+01-8.32789E-03-1.45914E+00-6.58709E-14-6.55379E-15
 -1      2722 2.65066E-01 8.65752E+01-8.97325E-03-1.72138E+00 1.42959E-14 1.19696E-16
 -1      2723 1.34944E-01 8.62540E+01-9.26963E-03-2.04313E+00-8.24306E-14-1.45370E-14
 -1      2724-2.50505E-02 8.59000E+01-8.82023E-03-2.44037E+00-2.60486E-14-2.34378E-14
 -1      2725-2.26877E-01 8.55173E+01-6.88707E-03-2.93358E+00 1.64938E-14-2.08861E-15
 -1      2726-4.88607E-01 8.51168E+01-2.24571E-03-3.54873E+00 6.45907E-14-2.88276E-14
 -1      2727-8.37227E-01 8.47241E+01 8.02835E-03-4.31788E+00-2.77348E-14 2.82899E-14
 -1      2728-1.31532E+00 8.43879E+01 2.53630E-02-5.27855E+00 7.62931E-14 1.10051E-14
 -1      2729-1.97639E+00 8.42204E+01 7.64931E-02-6.46866E+00-2.98234E-14 3.40353E-14
 -1      2730-2.97375E+00 8.43187E+01 5.94959E-02-7.91797E+00 8.16222E-14 1.06720E-14
 -1      2731 9.59650E-01 8.88789E+01-1.88254E-03-4.04240E-02-1.25831E-13 3.78820E-16
 -1      2732 9.55932E-01 8.88682E+01-1.89493E-03-8.12267E-02-4.47255E-15 1.15778E-14
 -1      2733 9.49633E-01 8.88504E+01-1.91605E-03-1.22804E-01 4.25511E-14-1.02650E-14
 -1      2734 9.40597E-01 8.88254E+01-1.94661E-03-1.65587E-01 8.16795E-14-2.73657E-14
 -1      2735 9.28605E-01 8.87931E+01-1.98758E-03-2.10060E-01 6.73420E-15-1.53692E-14
 -1      2736 9.13377E-01 8.87532E+01-2.04009E-03-2.56786E-01 5.55953E-14 2.54788E-15
 -1      2737 8.94570E-01 8.87056E+01-2.10540E-03-3.06423E-01 7.18011E-14-2.63103E-14
 -1      2738 8.71772E-01 8.86501E+01-2.18473E-03-3.59761E-01-6.04417E-14-4.51462E-15
 -1      2739 8.44502E-01 8.85863E+01-2.27902E-03-4.17748E-01-1.19444E-14 1.87294E-14
 -1      2740 8.12199E-01 8.85140E+01-2.38855E-03-4.81532E-01 5.77585E-14 1.17432E-14
 -1      2741 7.74211E-01 8.84326E+01-2.51237E-03-5.52509E-01 5.76414E-14 1.00232E-14
 -1      2742 7.29770E-01 8.83418E+01-2.64733E-03-6.32379E-01-1.41042E-14 1.10185E-14
 -1      2743 6.77968E-01 8.82411E+01-2.78663E-03-7.23219E-01 7.91815E-15 1.37407E-14
 -1      2744 6.17700E-01 8.81299E+01-2.91759E-03-8.27565E-01 3.40483E-14 1.88651E-14
 -1      2745 5.47599E-01 8.80079E+01-3.01810E-03-9.48528E-01 8.43336E-14-5.83223E-14
 -1      2746 4.65929E-01 8.78748E+01-3.05114E-03-1.08991E+00-4.06307E-14-1.36714E-14
 -1      2747 3.70434E-01 8.77307E+01-2.95616E-03-1.25640E+00-1.91670E-14 5.44790E-15
 -1      2748 2.58116E-01 8.75762E+01-2.63560E-03-1.45370E+00 3.85664E-14-6.77410E-16
 -1      2749 1.24918E-01 8.74130E+01-1.93349E-03-1.68883E+00-1.23981E-14-8.60423E-15
 -1      2750-3.47325E-02 8.72446E+01-6.01854E-04-1.97033E+00-4.66762E-14-4.06879E-14
 -1      2751-2.28573E-01 8.70772E+01 1.75282E-03-2.30851E+00-2.47684E-14 4.50421E-14
 -1      2752-4.67428E-01 8.69215E+01 5.74987E-03-2.71558E+00 1.79301E-14-4.60396E-15
 -1      2753-7.66471E-01 8.67958E+01 1.23777E-02-3.20555E+00-3.56035E-14 1.88113E-14
 -1      2754-1.14700E+00 8.67296E+01 2.30686E-02-3.79344E+00-4.05127E-14 3.45245E-14
 -1      2755-1.63820E+00 8.67713E+01 4.06477E-02-4.49289E+00 7.71709E-14-3.97946E-15
 -1      2756-2.28189E+00 8.69939E+01 6.51482E-02-5.31029E+00-7.07195E-14-1.75207E-14
 -1      2757-3.11714E+00 8.75347E+01 1.23805E-01-6.23213E+00 4.54636E-14 2.87062E-14
 -1      2758-4.28058E+00 8.84748E+01 8.80433E-02-7.20177E+00 6.12947E-14-1.51407E-14
 -1      2759 9.13948E-01 8.89823E+01-1.61798E-03-4.73004E-02-1.23190E-13-1.39426E-14
 -1      2760 9.09639E-01 8.89732E+01-1.61834E-03-9.49954E-02 8.60781E-15 9.39873E-15
 -1      2761 9.02325E-01 8.89581E+01-1.61879E-03-1.43497E-01 2.09276E-14-3.62885E-14
 -1      2762 8.91804E-01 8.89368E+01-1.61906E-03-1.93254E-01 9.22405E-14 3.28485E-14
 -1      2763 8.77792E-01 8.89095E+01-1.61866E-03-2.44768E-01-1.55331E-14-6.60843E-15
 -1      2764 8.59922E-01 8.88762E+01-1.61674E-03-2.98620E-01 7.49266E-14 2.31837E-14
 -1      2765 8.37734E-01 8.88368E+01-1.61192E-03-3.55488E-01 4.70891E-14-2.23476E-14
 -1      2766 8.10676E-01 8.87914E+01-1.60193E-03-4.16179E-01-1.66698E-14-1.22719E-14
 -1      2767 7.78087E-01 8.87400E+01-1.58322E-03-4.81654E-01-1.12957E-14-3.03694E-14
 -1      2768 7.39189E-01 8.86828E+01-1.55026E-03-5.53067E-01-4.65500E-14-3.34502E-14
 -1      2769 6.93063E-01 8.86199E+01-1.49458E-03-6.31805E-01 4.19695E-14 8.89349E-15
 -1      2770 6.38623E-01 8.85516E+01-1.40335E-03-7.19534E-01 3.84588E-15 3.37994E-14
 -1      2771 5.74566E-01 8.84782E+01-1.25729E-03-8.18253E-01 3.44611E-14-1.83451E-14
 -1      2772 4.99322E-01 8.84005E+01-1.02760E-03-9.30355E-01-4.62191E-14-1.12930E-14
 -1      2773 4.10959E-01 8.83194E+01-6.71469E-04-1.05870E+00-3.31228E-14 4.05249E-14
 -1      2774 3.07073E-01 8.82364E+01-1.25488E-04-1.20667E+00 2.60061E-14 1.40400E-14
 -1      2775 1.84614E-01 8.81540E+01 7.04041E-04-1.37828E+00-1.95833E-14-3.31636E-14
 -1      2776 3.96660E-02 8.80758E+01 1.95526E-03-1.57819E+00 1.86189E-13 3.14167E-14
 -1      2777-1.32870E-01 8.80070E+01 3.83133E-03-1.81176E+00-4.90372E-14-7.63972E-15
 -1      2778-3.39688E-01 8.79558E+01 6.62968E-03-2.08497E+00-1.57947E-14 1.63324E-14
 -1      2779-5.89622E-01 8.79340E+01 1.07833E-02-2.40422E+00 5.21614E-14-3.11903E-15
 -1      2780-8.94330E-01 8.79593E+01 1.69092E-02-2.77576E+00 4.83415E-14 2.97852E-15
 -1      2781-1.26908E+00 8.80577E+01 2.58896E-02-3.20461E+00 7.19563E-14 5.47826E-15
 -1      2782-1.73358E+00 8.82666E+01 3.87592E-02-3.69231E+00 3.83894E-15-2.10838E-14
 -1      2783-2.31193E+00 8.86399E+01 5.74508E-02-4.23290E+00-5.07927E-14 1.51407E-14
 -1      2784-3.03411E+00 8.92477E+01 7.91378E-02-4.80572E+00 3.17107E-14-4.85723E-17
 -1      2785-3.91700E+00 9.01949E+01 1.24515E-01-5.36023E+00 7.09996E-14 2.44041E-14
 -1      2786-5.02202E+00 9.15135E+01 6.75741E-02-5.79229E+00 9.51283E-14-1.62370E-15
 -1      2787 8.61656E-01 8.91023E+01-1.31166E-03-5.30778E-02-1.24462E-13 1.67134E-14
 -1      2788 8.56755E-01 8.90949E+01-1.29983E-03-1.06534E-01-3.59305E-16-4.27735E-14
 -1      2789 8.48426E-01 8.90825E+01-1.27937E-03-1.60765E-01 3.69153E-14 3.46424E-15
 -1      2790 8.36423E-01 8.90654E+01-1.24913E-03-2.16198E-01 9.95879E-14 9.83848E-15
 -1      2791 8.20397E-01 8.90436E+01-1.20727E-03-2.73314E-01 2.18681E-14 2.06072E-14
 -1      2792 7.99895E-01 8.90172E+01-1.15117E-03-3.32663E-01 5.63486E-14-2.46504E-14
 -1      2793 7.74350E-01 8.89866E+01-1.07711E-03-3.94889E-01 9.03346E-14 1.48826E-14
 -1      2794 7.43073E-01 8.89519E+01-9.79858E-04-4.60746E-01-2.97345E-14 4.17721E-15
 -1      2795 7.05238E-01 8.89137E+01-8.52132E-04-5.31128E-01-5.51495E-14 2.27795E-14
 -1      2796 6.59871E-01 8.88723E+01-6.83773E-04-6.07096E-01 5.26176E-14 7.55125E-15
 -1      2797 6.05817E-01 8.88286E+01-4.60623E-04-6.89903E-01 2.65105E-14-3.94042E-15
 -1      2798 5.41712E-01 8.87833E+01-1.62926E-04-7.81028E-01-1.46816E-13-2.53296E-14
 -1      2799 4.65936E-01 8.87378E+01 2.36897E-04-8.82201E-01 1.04531E-13 1.35473E-14
 -1      2800 3.76551E-01 8.86936E+01 7.77363E-04-9.95438E-01 2.19269E-15-1.75389E-14
 -1      2801 2.71218E-01 8.86530E+01 1.51223E-03-1.12305E+00 7.45359E-14 1.25854E-14
 -1      2802 1.47086E-01 8.86190E+01 2.51643E-03-1.26766E+00-2.77469E-14-1.25802E-14
 -1      2803 6.46497E-04 8.85956E+01 3.89411E-03-1.43214E+00 2.90341E-14-1.46229E-14
 -1      2804-1.72453E-01 8.85886E+01 5.78928E-03-1.61959E+00 4.07886E-14 1.35482E-14
 -1      2805-3.77642E-01 8.86057E+01 8.39939E-03-1.83308E+00 5.34208E-15 1.87003E-14
 -1      2806-6.21704E-01 8.86577E+01 1.19914E-02-2.07539E+00 3.00576E-14-1.46168E-14
 -1      2807-9.13074E-01 8.87592E+01 1.69181E-02-2.34835E+00-6.16234E-14-1.26808E-14
 -1      2808-1.26211E+00 8.89303E+01 2.36253E-02-2.65183E+00-2.02616E-14-4.07920E-14
 -1      2809-1.68113E+00 8.91982E+01 3.26481E-02-2.98203E+00-7.39608E-14 2.59966E-14
 -1      2810-2.18411E+00 8.95988E+01 4.44535E-02-3.32870E+00 1.89471E-14-3.11140E-14
 -1      2811-2.78474E+00 9.01786E+01 5.96835E-02-3.67102E+00 2.63744E-14 3.69496E-15
 -1      2812-3.49408E+00 9.09918E+01 7.54775E-02-3.97116E+00-1.02344E-14 1.34198E-14
 -1      2813-4.30209E+00 9.21061E+01 1.02237E-01-4.17059E+00 3.01426E-14-3.44585E-14
 -1      2814-5.23868E+00 9.34436E+01 2.28876E-02-4.15941E+00-1.04999E-13-8.75688E-15
 -1      2815 7.42251E-01 8.93831E+01-7.06247E-04-6.10995E-02 1.25693E-13-6.58544E-15
 -1      2816 7.36357E-01 8.93792E+01-6.74038E-04-1.22458E-01 4.27223E-14-2.23953E-15
 -1      2817 7.26324E-01 8.93727E+01-6.18797E-04-1.84345E-01 6.32270E-14 5.75321E-15
 -1      2818 7.11832E-01 8.93639E+01-5.38096E-04-2.47053E-01-6.78164E-14-2.11983E-15
 -1      2819 6.92432E-01 8.93532E+01-4.28359E-04-3.10906E-01 1.29734E-13-2.12321E-14
 -1      2820 6.67534E-01 8.93410E+01-2.84664E-04-3.76275E-01-7.30251E-14 1.54139E-14
 -1      2821 6.36402E-01 8.93278E+01-1.00466E-04-4.43582E-01 7.21391E-14 2.59298E-14
 -1      2822 5.98144E-01 8.93144E+01 1.32773E-04-5.13316E-01 1.03695E-14 1.84141E-15
 -1      2823 5.51698E-01 8.93016E+01 4.26088E-04-5.86038E-01 3.59491E-14 1.79878E-14
 -1      2824 4.95818E-01 8.92907E+01 7.93657E-04-6.62387E-01-1.12435E-13-2.77382E-15
 -1      2825 4.29049E-01 8.92832E+01 1.25364E-03-7.43079E-01 7.65494E-14 1.30035E-14
 -1      2826 3.49712E-01 8.92807E+01 1.82922E-03-8.28901E-01-2.06168E-14-5.42448E-15
 -1      2827 2.55865E-01 8.92857E+01 2.54988E-03-9.20685E-01-1.22558E-15-3.21279E-14
 -1      2828 1.45277E-01 8.93010E+01 3.45289E-03-1.01927E+00 1.64669E-14 3.29814E-14
 -1      2829 1.53879E-02 8.93301E+01 4.58487E-03-1.12544E+00 1.44260E-13 3.80425E-15
 -1      2830-1.36726E-01 8.93775E+01 6.00325E-03-1.23979E+00-8.54893E-14-4.80180E-14
 -1      2831-3.14383E-01 8.94489E+01 7.77697E-03-1.36256E+00-7.89507E-14 2.44006E-14
 -1      2832-5.21304E-01 8.95512E+01 9.98543E-03-1.49336E+00 1.88166E-13-5.65520E-15
 -1      2833-7.61572E-01 8.96932E+01 1.27136E-02-1.63080E+00 3.69045E-14 2.89178E-15
 -1      2834-1.03950E+00 8.98853E+01 1.60396E-02-1.77186E+00 6.54351E-14 9.76129E-15
 -1      2835-1.35932E+00 9.01406E+01 2.00092E-02-1.91111E+00 6.62820E-14 1.65631E-14
 -1      2836-1.72458E+00 9.04740E+01 2.45857E-02-2.03959E+00-5.35350E-14-5.24927E-14
 -1      2837-2.13697E+00 9.09025E+01 2.95632E-02-2.14335E+00 3.09869E-14 4.46657E-14
 -1      2838-2.59436E+00 9.14436E+01 3.44222E-02-2.20165E+00-7.21216E-14 9.51322E-15
 -1      2839-3.08744E+00 9.21128E+01 3.80810E-02-2.18525E+00 2.16166E-13 2.18887E-14
 -1      2840-3.59442E+00 9.29187E+01 3.87024E-02-2.05481E+00-2.67808E-13-5.73153E-15
 -1      2841-4.07689E+00 9.38476E+01 3.03969E-02-1.76403E+00 1.64996E-13 2.61735E-14
 -1      2842-4.45812E+00 9.48689E+01 2.12124E-02-1.25951E+00 4.78159E-14 1.05055E-14
 -1      2843 6.77588E-01 8.95396E+01-4.32462E-04-6.33509E-02 8.65420E-14 1.02435E-14
 -1      2844 6.71372E-01 8.95373E+01-3.93385E-04-1.26866E-01-1.67628E-13-6.65006E-15
 -1      2845 6.60787E-01 8.95336E+01-3.26497E-04-1.90716E-01-9.35626E-14-5.47435E-15
 -1      2846 6.45491E-01 8.95289E+01-2.29087E-04-2.55086E-01 1.70674E-13 8.49017E-15
 -1      2847 6.25000E-01 8.95234E+01-9.72109E-05-3.20182E-01-6.18193E-14-1.06282E-14
 -1      2848 5.98686E-01 8.95177E+01 7.44644E-05-3.86235E-01 4.65123E-14 2.60894E-14
 -1      2849 5.65764E-01 8.95125E+01 2.92872E-04-4.53509E-01-1.53886E-13-9.93042E-15
 -1      2850 5.25286E-01 8.95087E+01 5.66824E-04-5.22301E-01-4.14167E-14-3.39269E-15
 -1      2851 4.76135E-01 8.95073E+01 9.07354E-04-5.92943E-01 7.34007E-14 6.48787E-15
 -1      2852 4.17008E-01 8.95097E+01 1.32814E-03-6.65792E-01-2.17476E-14-8.07514E-15
 -1      2853 3.46404E-01 8.95175E+01 1.84600E-03-7.41224E-01 1.21214E-16 6.36383E-15
 -1      2854 2.62617E-01 8.95328E+01 2.48138E-03-8.19605E-01 1.80541E-15 3.31740E-14
 -1      2855 1.63718E-01 8.95581E+01 3.25891E-03-9.01252E-01-1.14232E-14 4.52850E-14
 -1      2856 4.75485E-02 8.95964E+01 4.20773E-03-9.86371E-01 9.68964E-14-2.21524E-15
 -1      2857-8.82793E-02 8.96515E+01 5.36139E-03-1.07496E+00-2.56184E-14-1.57730E-14
 -1      2858-2.46369E-01 8.97279E+01 6.75699E-03-1.16666E+00 3.60410E-14 4.12240E-14
 -1      2859-4.29497E-01 8.98311E+01 8.43258E-03-1.26056E+00-1.34710E-14 1.93430E-14
 -1      2860-6.40523E-01 8.99675E+01 1.04217E-02-1.35493E+00-1.63277E-13-4.64941E-14
 -1      2861-8.82217E-01 9.01448E+01 1.27430E-02-1.44676E+00 3.87199E-14 3.69097E-14
 -1      2862-1.15695E+00 9.03718E+01 1.53813E-02-1.53132E+00-7.12410E-14 1.97897E-14
 -1      2863-1.46617E+00 9.06585E+01 1.82565E-02-1.60143E+00 2.73333E-14 2.26451E-14
 -1      2864-1.80953E+00 9.10151E+01 2.11733E-02-1.64663E+00-7.12755E-16 5.08933E-14
 -1      2865-2.18354E+00 9.14518E+01 2.37439E-02-1.65235E+00 1.32649E-13-5.67255E-15
 -1      2866-2.57940E+00 9.19763E+01 2.52945E-02-1.59903E+00 7.07472E-14-5.70724E-15
 -1      2867-2.98002E+00 9.25914E+01 2.47061E-02-1.46187E+00-2.19973E-13-2.91312E-14
 -1      2868-3.35602E+00 9.32898E+01 2.04268E-02-1.21207E+00 2.08111E-13 2.34431E-14
 -1      2869-3.65875E+00 9.40529E+01 1.19864E-02-8.20384E-01 5.96502E-14 7.36564E-15
 -1      2870-3.82477E+00 9.48490E+01-1.20219E-03-2.59384E-01-7.73548E-14-1.43323E-14
 -1      2871 6.11154E-01 8.97042E+01-1.58883E-04-6.44972E-02-4.40815E-14-4.70808E-14
 -1      2872 6.04773E-01 8.97034E+01-1.15481E-04-1.29048E-01 6.97215E-14 2.56392E-14
 -1      2873 5.93904E-01 8.97023E+01-4.13203E-05-1.93711E-01-2.17714E-13 1.88994E-14
 -1      2874 5.78193E-01 8.97012E+01 6.63890E-05-2.58546E-01 9.51030E-14 1.60288E-14
 -1      2875 5.57140E-01 8.97006E+01 2.11649E-04-3.23625E-01 1.75172E-14 9.46465E-15
 -1      2876 5.30097E-01 8.97009E+01 3.99776E-04-3.89023E-01-3.88871E-14 3.94476E-15
 -1      2877 4.96257E-01 8.97029E+01 6.37526E-04-4.54826E-01 9.80617E-14 2.48586E-15
 -1      2878 4.54653E-01 8.97076E+01 9.33239E-04-5.21122E-01-1.00972E-14 2.15314E-14
 -1      2879 4.04154E-01 8.97161E+01 1.29700E-03-5.87994E-01-3.40129E-14 3.00211E-14
 -1      2880 3.43453E-01 8.97298E+01 1.74081E-03-6.55509E-01 9.83139E-14 1.91982E-14
 -1      2881 2.71072E-01 8.97505E+01 2.27864E-03-7.23690E-01 1.91171E-14 1.61563E-14
 -1      2882 1.85356E-01 8.97804E+01 2.92647E-03-7.92489E-01-1.56399E-13 3.86791E-14
 -1      2883 8.44842E-02 8.98218E+01 3.70205E-03-8.61730E-01-4.04258E-14-1.13277E-15
 -1      2884-3.35118E-02 8.98779E+01 4.62419E-03-9.31034E-01 1.08774E-14 1.81018E-15
 -1      2885-1.70714E-01 8.99522E+01 5.71142E-03-9.99718E-01-1.11053E-14 2.39244E-14
 -1      2886-3.29256E-01 9.00489E+01 6.97932E-03-1.06664E+00 5.08849E-14-8.77510E-15
 -1      2887-5.11212E-01 9.01730E+01 8.43591E-03-1.13003E+00-5.42687E-15 1.36592E-14
 -1      2888-7.18429E-01 9.03298E+01 1.00740E-02-1.18716E+00 2.66547E-14 1.59430E-14
 -1      2889-9.52252E-01 9.05256E+01 1.18588E-02-1.23412E+00-1.02512E-13 2.69073E-14
 -1      2890-1.21310E+00 9.07670E+01 1.37094E-02-1.26532E+00-4.73195E-15-6.52256E-16
 -1      2891-1.49984E+00 9.10606E+01 1.54711E-02-1.27307E+00 1.46223E-14 1.02644E-14
 -1      2892-1.80882E+00 9.14123E+01 1.68793E-02-1.24715E+00-9.68665E-14-2.88155E-14
 -1      2893-2.13255E+00 9.18262E+01 1.75178E-02-1.17443E+00 9.53708E-15-2.86923E-14
 -1      2894-2.45785E+00 9.23030E+01 1.67814E-02-1.03890E+00-5.41294E-14 3.88682E-14
 -1      2895-2.76349E+00 9.28375E+01 1.39051E-02-8.22496E-01-8.77198E-14-4.60101E-14
 -1      2896-3.01736E+00 9.34166E+01 8.28444E-03-5.07038E-01 4.00548E-14 5.52093E-14
 -1      2897-3.17546E+00 9.40169E+01-8.70103E-04-7.72866E-02-2.41848E-13-2.27960E-14
 -1      2898-3.18323E+00 9.45983E+01-1.43522E-02 4.74435E-01 2.10488E-13 2.32626E-14
 -1      2899 5.44042E-01 8.98746E+01 8.96199E-05-6.46160E-02 1.18401E-13 1.30846E-14
 -1      2900 5.37670E-01 8.98752E+01 1.34365E-04-1.29169E-01 6.57945E-14-1.14405E-14
 -1      2901 5.26814E-01 8.98765E+01 2.10707E-04-1.93594E-01 7.46530E-14 4.59615E-15
 -1      2902 5.11120E-01 8.98788E+01 3.21320E-04-2.57823E-01-1.46068E-14 1.58736E-14
 -1      2903 4.90087E-01 8.98824E+01 4.69989E-04-3.21782E-01-1.10521E-13 2.04385E-14
 -1      2904 4.63067E-01 8.98880E+01 6.61646E-04-3.85388E-01-1.30270E-14-4.87457E-16
 -1      2905 4.29259E-01 8.98963E+01 9.02399E-04-4.48540E-01-3.77997E-14-8.23907E-15
 -1      2906 3.87712E-01 8.99082E+01 1.19955E-03-5.11115E-01 2.52159E-14-1.20789E-14
 -1      2907 3.37317E-01 8.99250E+01 1.56155E-03-5.72951E-01-5.88789E-14-1.76335E-14
 -1      2908 2.76815E-01 8.99480E+01 1.99791E-03-6.33827E-01-5.50616E-14 1.17510E-14
 -1      2909 2.04802E-01 8.99789E+01 2.51896E-03-6.93437E-01-5.81210E-14 1.35291E-14
 -1      2910 1.19741E-01 9.00199E+01 3.13537E-03-7.51352E-01-8.93209E-15-1.83282E-14
 -1      2911 1.99929E-02 9.00731E+01 3.85732E-03-8.06960E-01-4.47435E-14 3.25000E-14
 -1      2912-9.61467E-02 9.01415E+01 4.69313E-03-8.59396E-01 6.42433E-15-3.38271E-17
 -1      2913-2.30376E-01 9.02282E+01 5.64704E-03-9.07439E-01-2.73865E-14 1.04769E-14
 -1      2914-3.84284E-01 9.03369E+01 6.71564E-03-9.49382E-01 6.19574E-14 2.99934E-14
 -1      2915-5.59198E-01 9.04716E+01 7.88263E-03-9.82868E-01-5.72248E-14 2.01462E-14
 -1      2916-7.55954E-01 9.06367E+01 9.11095E-03-1.00468E+00 1.43502E-14-2.50104E-14
 -1      2917-9.74567E-01 9.08367E+01 1.03318E-02-1.01052E+00-7.57778E-14 1.71391E-15
 -1      2918-1.21377E+00 9.10757E+01 1.14299E-02-9.94747E-01 3.71431E-14 2.36772E-14
 -1      2919-1.47034E+00 9.13576E+01 1.22258E-02-9.50147E-01 8.78833E-15 5.74887E-15
 -1      2920-1.73826E+00 9.16846E+01 1.24575E-02-8.67823E-01-8.45149E-14 1.62700E-14
 -1      2921-2.00755E+00 9.20564E+01 1.17692E-02-7.37281E-01-9.64845E-14 6.86430E-15
 -1      2922-2.26291E+00 9.24691E+01 9.72690E-03-5.46961E-01-8.36302E-14 2.02789E-15
 -1      2923-2.48223E+00 9.29133E+01 5.88969E-03-2.85430E-01 2.73254E-14 2.84980E-14
 -1      2924-2.63546E+00 9.33732E+01-1.39931E-04 5.66141E-02 1.30625E-15 2.28064E-14
 -1      2925-2.68461E+00 9.38240E+01-8.79399E-03 4.83349E-01-1.93422E-15 1.75918E-14
 -1      2926-2.58211E+00 9.42323E+01-2.00325E-02 9.89206E-01-4.24313E-15-3.26605E-14
 -1      2927 4.77279E-01 9.00488E+01 3.14648E-04-6.37981E-02-3.72105E-15 1.27676E-15
 -1      2928 4.71095E-01 9.00508E+01 3.57759E-04-1.27416E-01 5.14567E-14 3.38141E-14
 -1      2929 4.60559E-01 9.00542E+01 4.31221E-04-1.90668E-01 5.12810E-14-4.06784E-14
 -1      2930 4.45326E-01 9.00594E+01 5.37445E-04-2.53358E-01 7.56153E-14 1.03225E-14
 -1      2931 4.24908E-01 9.00668E+01 6.79794E-04-3.15269E-01 4.20217E-14 5.03824E-14
 -1      2932 3.98680E-01 9.00769E+01 8.62557E-04-3.76162E-01-5.61763E-14-7.76939E-15
 -1      2933 3.65870E-01 9.00905E+01 1.09089E-03-4.35758E-01 2.65692E-14-3.44269E-14
 -1      2934 3.25570E-01 9.01084E+01 1.37071E-03-4.93733E-01 4.27662E-14 1.03303E-15
 -1      2935 2.76731E-01 9.01318E+01 1.70849E-03-5.49694E-01-7.17271E-14-1.91808E-14
 -1      2936 2.18179E-01 9.01619E+01 2.11098E-03-6.03161E-01 1.19216E-13 1.76040E-14
 -1      2937 1.48626E-01 9.02004E+01 2.58465E-03-6.53536E-01-9.33391E-14-4.06663E-14
 -1      2938 6.66981E-02 9.02490E+01 3.13493E-03-7.00064E-01 9.09969E-14 6.50695E-15
 -1      2939-2.90214E-02 9.03099E+01 3.76502E-03-7.41781E-01 4.71320E-14-5.29455E-14
 -1      2940-1.39932E-01 9.03854E+01 4.47412E-03-7.77448E-01 1.34459E-13 2.35315E-14
 -1      2941-2.67325E-01 9.04783E+01 5.25485E-03-8.05469E-01-9.28251E-15-3.31315E-14
 -1      2942-4.12248E-01 9.05916E+01 6.08965E-03-8.23786E-01 3.27817E-14 5.33219E-14
 -1      2943-5.75330E-01 9.07282E+01 6.94585E-03-8.29763E-01 4.64225E-14 3.49425E-14
 -1      2944-7.56516E-01 9.08913E+01 7.76911E-03-8.20050E-01 9.58372E-14 3.72280E-14
 -1      2945-9.54732E-01 9.10837E+01 8.47544E-03-7.90455E-01 1.25944E-13 1.68511E-14
 -1      2946-1.16743E+00 9.13079E+01 8.94207E-03-7.35839E-01 6.05448E-14-2.79290E-16
 -1      2947-1.38997E+00 9.15651E+01 8.99933E-03-6.50083E-01 8.16448E-15-3.41090E-14
 -1      2948-1.61496E+00 9.18548E+01 8.42695E-03-5.26207E-01 4.48383E-14 5.52596E-15
 -1      2949-1.83134E+00 9.21739E+01 6.96209E-03-3.56735E-01 6.76915E-14 3.16561E-14
 -1      2950-2.02354E+00 9.25160E+01 4.32818E-03-1.34444E-01-1.11481E-13-6.80012E-16
 -1      2951-2.17078E+00 9.28701E+01 2.78577E-04 1.46383E-01 6.67088E-15-2.78388E-14
 -1      2952-2.24677E+00 9.32201E+01-5.35358E-03 4.88077E-01 9.06844E-14 7.74728E-15
 -1      2953-2.21991E+00 9.35442E+01-1.25356E-02 8.86964E-01 2.97921E-14 2.05834E-14
 -1      2954-2.05485E+00 9.38163E+01-2.06989E-02 1.32971E+00-2.38923E-14-4.02102E-14
 -1      2955 4.11797E-01 9.02250E+01 5.16975E-04-6.21350E-02 1.69134E-14 2.25089E-14
 -1      2956 4.05975E-01 9.02280E+01 5.55605E-04-1.23981E-01-8.51246E-14-1.63992E-14
 -1      2957 3.96053E-01 9.02333E+01 6.21370E-04-1.85240E-01 1.18703E-13 1.37650E-14
 -1      2958 3.81706E-01 9.02411E+01 7.16317E-04-2.45595E-01-3.17970E-14-4.77075E-14
 -1      2959 3.62476E-01 9.02517E+01 8.43253E-04-3.04702E-01 7.34038E-14-8.31410E-15
 -1      2960 3.37773E-01 9.02657E+01 1.00567E-03-3.62175E-01-1.22377E-14-8.48670E-15
 -1      2961 3.06879E-01 9.02836E+01 1.20761E-03-4.17578E-01-8.94473E-14 1.09214E-14
 -1      2962 2.68951E-01 9.03063E+01 1.45349E-03-4.70403E-01-1.24165E-14-2.20787E-14
 -1      2963 2.23028E-01 9.03348E+01 1.74776E-03-5.20060E-01-4.00581E-14-2.53755E-14
 -1      2964 1.68048E-01 9.03701E+01 2.09448E-03-5.65846E-01 1.07361E-13-1.39281E-14
 -1      2965 1.02866E-01 9.04136E+01 2.49663E-03-6.06921E-01-3.83080E-14-2.24994E-15
 -1      2966 2.62969E-02 9.04669E+01 2.95515E-03-6.42274E-01-5.49765E-14-1.99840E-14
 -1      2967-6.28374E-02 9.05316E+01 3.46762E-03-6.70677E-01 1.26932E-14 2.04212E-14
 -1      2968-1.65631E-01 9.06098E+01 4.02641E-03-6.90638E-01-5.39399E-14 4.44081E-14
 -1      2969-2.82987E-01 9.07036E+01 4.61621E-03-7.00339E-01-1.11509E-14-1.92598E-14
 -1      2970-4.15475E-01 9.08150E+01 5.21088E-03-6.97567E-01-1.20886E-13-9.85323E-16
 -1      2971-5.63136E-01 9.09463E+01 5.76948E-03-6.79649E-01 1.47414E-13-1.60609E-14
 -1      2972-7.25229E-01 9.10994E+01 6.23173E-03-6.43391E-01-1.14402E-13 1.03641E-14
 -1      2973-8.99900E-01 9.12758E+01 6.51327E-03-5.85037E-01-2.36375E-14 5.54331E-15
 -1      2974-1.08378E+00 9.14763E+01 6.50180E-03-5.00289E-01 2.58918E-14 1.26774E-14
 -1      2975-1.27150E+00 9.17003E+01 6.05615E-03-3.84416E-01-1.76250E-14-2.36746E-14
 -1      2976-1.45515E+00 9.19457E+01 5.01144E-03-2.32516E-01 1.12636E-14 6.44883E-15
 -1      2977-1.62371E+00 9.22078E+01 3.19441E-03-4.00085E-02-1.83070E-14-2.52645E-14
 -1      2978-1.76261E+00 9.24792E+01 4.51033E-04 1.96578E-01 5.50558E-14-4.32631E-14
 -1      2979-1.85352E+00 9.27489E+01-3.31002E-03 4.78447E-01 7.55125E-15 1.09895E-15
 -1      2980-1.87460E+00 9.30025E+01-8.06247E-03 8.02969E-01-1.29220E-14 2.34140E-14
 -1      2981-1.80144E+00 9.32224E+01-1.34773E-02 1.16171E+00 1.00911E-13 1.47165E-14
 -1      2982-1.60950E+00 9.33892E+01-1.91551E-02 1.53824E+00-8.70935E-14-2.82739E-14
 -1      2983 3.48441E-01 9.04010E+01 7.00996E-04-5.97070E-02-2.14423E-13-2.75669E-14
 -1      2984 3.43135E-01 9.04051E+01 7.32578E-04-1.19031E-01-1.61769E-14 2.17599E-14
 -1      2985 3.34092E-01 9.04120E+01 7.86323E-04-1.77578E-01 2.64400E-14 2.19716E-14
 -1      2986 3.21013E-01 9.04221E+01 8.63850E-04-2.34929E-01-2.25430E-14-2.06042E-15
 -1      2987 3.03480E-01 9.04355E+01 9.67337E-04-2.90628E-01-7.35661E-15-4.97345E-15
 -1      2988 2.80956E-01 9.04527E+01 1.09941E-03-3.44168E-01 6.23782E-14-6.08350E-14
 -1      2989 2.52791E-01 9.04743E+01 1.26299E-03-3.94977E-01 4.72510E-14-4.70852E-14
 -1      2990 2.18227E-01 9.05008E+01 1.46101E-03-4.42401E-01-2.57377E-14 6.53011E-14
 -1      2991 1.76408E-01 9.05330E+01 1.69608E-03-4.85684E-01 9.94107E-14-8.89913E-16
 -1      2992 1.26401E-01 9.05718E+01 1.96996E-03-5.23950E-01-7.00318E-14-3.96558E-15
 -1      2993 6.72218E-02 9.06183E+01 2.28280E-03-5.56174E-01-1.39132E-14-4.46605E-15
 -1      2994-2.12261E-03 9.06736E+01 2.63221E-03-5.81160E-01 4.61803E-14-1.24354E-14
 -1      2995-8.25765E-02 9.07392E+01 3.01194E-03-5.97509E-01-3.87482E-14 3.29051E-14
 -1      2996-1.74953E-01 9.08164E+01 3.41019E-03-6.03581E-01 1.17539E-14-2.22817E-14
 -1      2997-2.79825E-01 9.09066E+01 3.80754E-03-5.97468E-01-1.37410E-14 4.18016E-14
 -1      2998-3.97376E-01 9.10114E+01 4.17450E-03-5.76960E-01 5.26992E-14-2.26347E-14
 -1      2999-5.27218E-01 9.11319E+01 4.46881E-03-5.39525E-01-4.68137E-14 1.80671E-14
 -1      3000-6.68147E-01 9.12692E+01 4.63281E-03-4.82311E-01-3.04462E-15-2.12825E-14
 -1      3001-8.17861E-01 9.14236E+01 4.59158E-03-4.02183E-01 3.94784E-14-6.76282E-15
 -1      3002-9.72622E-01 9.15947E+01 4.25289E-03-2.95825E-01-6.88360E-16 1.52560E-14
 -1      3003-1.12689E+00 9.17809E+01 3.51065E-03-1.59941E-01 2.57930E-14 2.21143E-14
 -1      3004-1.27293E+00 9.19789E+01 2.25402E-03 8.41853E-03-8.75775E-14-3.00445E-14
 -1      3005-1.40056E+00 9.21836E+01 3.84245E-04 2.11337E-01-5.42578E-15-1.61338E-14
 -1      3006-1.49690E+00 9.23876E+01-2.15931E-03 4.49313E-01 1.76638E-14 7.85283E-14
 -1      3007-1.54661E+00 9.25810E+01-5.35927E-03 7.20294E-01-3.21392E-14-4.17852E-15
 -1      3008-1.53239E+00 9.27519E+01-9.07730E-03 1.01852E+00-3.09622E-14 7.30492E-15
 -1      3009-1.43630E+00 9.28869E+01-1.29170E-02 1.33323E+00-5.56829E-14-7.43738E-15
 -1      3010-1.24225E+00 9.29725E+01-1.66429E-02 1.64759E+00 5.32126E-14 3.95916E-14
 -1      3011 2.87985E-01 9.05750E+01 8.73732E-04-5.65721E-02 1.07306E-13 1.33248E-14
 -1      3012 2.83322E-01 9.05801E+01 8.96097E-04-1.12689E-01-2.87230E-14-2.54376E-14
 -1      3013 2.75374E-01 9.05886E+01 9.34176E-04-1.67883E-01-9.01358E-14-1.18091E-14
 -1      3014 2.63875E-01 9.06007E+01 9.89128E-04-2.21655E-01-4.50663E-14 3.02180E-14
 -1      3015 2.48456E-01 9.06167E+01 1.06247E-03-2.73465E-01-2.25959E-14-5.81523E-15
 -1      3016 2.28643E-01 9.06368E+01 1.15598E-03-3.22713E-01 1.08355E-14 3.38371E-14
 -1      3017 2.03866E-01 9.06613E+01 1.27147E-03-3.68724E-01-1.77305E-14-1.90863E-15
 -1      3018 1.73465E-01 9.06908E+01 1.41058E-03-4.10733E-01-4.40987E-14-4.81577E-14
 -1      3019 1.36701E-01 9.07258E+01 1.57434E-03-4.47866E-01 6.99222E-14 4.32475E-14
 -1      3020 9.27799E-02 9.07669E+01 1.76274E-03-4.79121E-01 1.58150E-14-5.17641E-15
 -1      3021 4.08780E-02 9.08149E+01 1.97397E-03-5.03352E-01-7.17826E-14 2.60009E-14
 -1      3022-1.98118E-02 9.08704E+01 2.20356E-03-5.19248E-01 2.10079E-13 2.93689E-15
 -1      3023-9.00213E-02 9.09345E+01 2.44327E-03-5.25315E-01-4.66666E-14-5.07840E-14
 -1      3024-1.70327E-01 9.10079E+01 2.67969E-03-5.19863E-01-1.59730E-13 1.25655E-14
 -1      3025-2.61041E-01 9.10916E+01 2.89269E-03-5.00996E-01-9.22206E-15-2.13501E-14
 -1      3026-3.62077E-01 9.11862E+01 3.05376E-03-4.66616E-01 5.49674E-14 2.21455E-14
 -1      3027-4.72777E-01 9.12922E+01 3.12443E-03-4.14442E-01-1.58647E-13-1.83308E-14
 -1      3028-5.91707E-01 9.14099E+01 3.05534E-03-3.42060E-01-1.21910E-13-4.34730E-14
 -1      3029-7.16414E-01 9.15387E+01 2.78630E-03-2.47014E-01 9.75142E-14 7.46972E-15
 -1      3030-8.43168E-01 9.16773E+01 2.24857E-03-1.26967E-01-1.38672E-13-2.60954E-14
 -1      3031-9.66699E-01 9.18236E+01 1.37037E-03 2.00670E-02-1.87575E-14-5.37981E-14
 -1      3032-1.07997E+00 9.19738E+01 8.68916E-05 1.95372E-01 9.66310E-14-5.06062E-14
 -1      3033-1.17403E+00 9.21230E+01-1.64389E-03 3.99059E-01-4.03761E-14-7.06553E-15
 -1      3034-1.23809E+00 9.22643E+01-3.81940E-03 6.29456E-01 5.84034E-14-8.39346E-14
 -1      3035-1.25980E+00 9.23897E+01-6.36098E-03 8.82391E-01 4.60053E-14 9.46292E-15
 -1      3036-1.22605E+00 9.24898E+01-9.09592E-03 1.15041E+00-6.33504E-14 4.82936E-15
 -1      3037-1.12412E+00 9.25550E+01-1.16383E-02 1.42207E+00-4.53726E-14-1.27923E-14
 -1      3038-9.44019E-01 9.25762E+01-1.39433E-02 1.68154E+00 8.76209E-14-5.36468E-14
 -1      3039 2.31165E-01 9.07452E+01 1.04459E-03-5.27559E-02-1.32347E-13-9.67412E-15
 -1      3040 2.27235E-01 9.07512E+01 1.05605E-03-1.05012E-01-8.95621E-15-3.48341E-14
 -1      3041 2.20534E-01 9.07612E+01 1.07565E-03-1.56251E-01 1.63947E-13 8.95161E-15
 -1      3042 2.10836E-01 9.07754E+01 1.10406E-03-2.05927E-01-2.38239E-14 1.35616E-14
 -1      3043 1.97825E-01 9.07937E+01 1.14213E-03-2.53443E-01 1.30342E-13-7.26415E-15
 -1      3044 1.81100E-01 9.08165E+01 1.19079E-03-2.98142E-01-7.00078E-14-5.44725E-14
 -1      3045 1.60178E-01 9.08439E+01 1.25085E-03-3.39285E-01-3.39706E-14 2.19599E-14
 -1      3046 1.34502E-01 9.08761E+01 1.32282E-03-3.76038E-01 4.87023E-14 2.45550E-15
 -1      3047 1.03458E-01 9.09133E+01 1.40650E-03-4.07454E-01-3.63806E-14 3.80642E-14
 -1      3048 6.63887E-02 9.09560E+01 1.50062E-03-4.32462E-01-2.71284E-14-3.35296E-14
 -1      3049 2.26272E-02 9.10045E+01 1.60222E-03-4.49851E-01 1.07022E-13-2.71311E-15
 -1      3050-2.84633E-02 9.10591E+01 1.70596E-03-4.58260E-01-1.15124E-13-3.17316E-14
 -1      3051-8.74333E-02 9.11203E+01 1.80320E-03-4.56175E-01 5.22163E-14 2.38733E-14
 -1      3052-1.54672E-01 9.11883E+01 1.88109E-03-4.41925E-01-1.20137E-13-7.33875E-15
 -1      3053-2.30312E-01 9.12635E+01 1.92146E-03-4.13704E-01 9.56739E-14 3.55011E-14
 -1      3054-3.14105E-01 9.13459E+01 1.89990E-03-3.69590E-01-6.60035E-14-3.11999E-14
 -1      3055-4.05279E-01 9.14354E+01 1.78517E-03-3.07603E-01-4.46097E-14-5.15039E-15
 -1      3056-5.02364E-01 9.15313E+01 1.53927E-03-2.25788E-01 4.37567E-14 4.28477E-16
 -1      3057-6.03007E-01 9.16327E+01 1.11880E-03-1.22340E-01-7.62031E-14 1.21743E-13
 -1      3058-7.03775E-01 9.17377E+01 4.78196E-04 4.21399E-03 1.57109E-13-3.16908E-14
 -1      3059-7.99983E-01 9.18438E+01-4.24361E-04 1.54767E-01-1.94598E-13 1.66100E-15
 -1      3060-8.85571E-01 9.19474E+01-1.61773E-03 3.29307E-01 1.35885E-13 1.00375E-13
 -1      3061-9.53089E-01 9.20439E+01-3.10477E-03 5.26511E-01-6.17154E-14 1.04439E-14
 -1      3062-9.93844E-01 9.21277E+01-4.84618E-03 7.43279E-01-1.48562E-14-1.18234E-14
 -1      3063-9.98304E-01 9.21922E+01-6.73940E-03 9.74233E-01 2.06348E-13-3.63229E-15
 -1      3064-9.56826E-01 9.22308E+01-8.61774E-03 1.21126E+00-7.53763E-14-1.08297E-14
 -1      3065-8.60722E-01 9.22368E+01-1.01455E-02 1.44320E+00-1.00009E-13-8.34762E-14
 -1      3066-7.04103E-01 9.22049E+01-1.14394E-02 1.65590E+00 3.37768E-14 5.21042E-14
 -1      3067 1.78709E-01 9.09096E+01 1.22475E-03-4.82432E-02 1.15974E-13-2.30154E-15
 -1      3068 1.75559E-01 9.09165E+01 1.22422E-03-9.59709E-02-6.77645E-14 5.85469E-17
 -1      3069 1.70185E-01 9.09282E+01 1.22347E-03-1.42651E-01-7.82485E-14 6.13368E-14
 -1      3070 1.62401E-01 9.09444E+01 1.22270E-03-1.87720E-01 4.43963E-14-7.59210E-14
 -1      3071 1.51952E-01 9.09654E+01 1.22207E-03-2.30561E-01 9.38479E-14 2.50975E-14
 -1      3072 1.38510E-01 9.09910E+01 1.22168E-03-2.70497E-01 1.61186E-14 6.80662E-15
 -1      3073 1.21684E-01 9.10212E+01 1.22142E-03-3.06764E-01-2.15929E-14-5.18986E-14
 -1      3074 1.01026E-01 9.10561E+01 1.22076E-03-3.38507E-01-7.37439E-14 5.71244E-15
 -1      3075 7.60398E-02 9.10956E+01 1.21856E-03-3.64757E-01-4.90058E-14-2.54484E-14
 -1      3076 4.62058E-02 9.11399E+01 1.21273E-03-3.84426E-01 1.10590E-13 1.57712E-14
 -1      3077 1.10014E-02 9.11887E+01 1.19978E-03-3.96296E-01 4.38479E-14-7.40727E-16
 -1      3078-3.00602E-02 9.12421E+01 1.17441E-03-3.99018E-01 4.90305E-14 1.89519E-15
 -1      3079-7.73814E-02 9.13000E+01 1.12884E-03-3.91114E-01-2.01800E-14-1.27840E-14
 -1      3080-1.31215E-01 9.13621E+01 1.05231E-03-3.70995E-01-1.26749E-15-5.26549E-14
 -1      3081-1.91583E-01 9.14282E+01 9.30445E-04-3.36987E-01-8.17529E-14 3.46286E-14
 -1      3082-2.58174E-01 9.14977E+01 7.44969E-04-2.87382E-01-4.50484E-14-6.17466E-14
 -1      3083-3.30229E-01 9.15699E+01 4.73713E-04-2.20505E-01-1.02143E-14-1.80238E-14
 -1      3084-4.06399E-01 9.16437E+01 9.13855E-05-1.34826E-01 6.12810E-14-4.47819E-15
 -1      3085-4.84611E-01 9.17174E+01-4.28595E-04-2.90975E-02 8.31790E-14-5.95964E-15
 -1      3086-5.61927E-01 9.17891E+01-1.11075E-03 9.74584E-02-7.26813E-14-2.77911E-14
 -1      3087-6.34438E-01 9.18561E+01-1.97226E-03 2.44910E-01-1.89525E-14 8.66408E-15
 -1      3088-6.97211E-01 9.19151E+01-3.01556E-03 4.12330E-01 5.97527E-14-9.76328E-14
 -1      3089-7.44335E-01 9.19621E+01-4.21876E-03 5.97477E-01-1.99737E-15 3.94125E-14
 -1      3090-7.69116E-01 9.19925E+01-5.52532E-03 7.96444E-01-1.82275E-14-4.17188E-14
 -1      3091-7.64460E-01 9.20017E+01-6.83101E-03 1.00335E+00 5.86057E-14 4.12417E-14
 -1      3092-7.23515E-01 9.19850E+01-7.99514E-03 1.21013E+00-1.20602E-13-2.20158E-14
 -1      3093-6.40507E-01 9.19386E+01-8.73842E-03 1.40644E+00 2.33756E-14-5.86033E-15
 -1      3094-5.12206E-01 9.18596E+01-9.31617E-03 1.58000E+00 3.42970E-14-6.17041E-15
 -1      3095 1.31392E-01 9.10661E+01 1.42701E-03-4.29719E-02 1.83484E-14-2.90731E-14
 -1      3096 1.29018E-01 9.10742E+01 1.41405E-03-8.54455E-02 1.28644E-13 1.03363E-14
 -1      3097 1.24967E-01 9.10876E+01 1.39222E-03-1.26906E-01-2.33126E-13-1.10840E-14
 -1      3098 1.19095E-01 9.11063E+01 1.36117E-03-1.66806E-01 2.26130E-13 1.24384E-14
 -1      3099 1.11205E-01 9.11301E+01 1.32036E-03-2.04550E-01-2.60791E-13 4.45937E-14
 -1      3100 1.01045E-01 9.11589E+01 1.26903E-03-2.39476E-01 1.53171E-13-3.72445E-14
 -1      3101 8.83138E-02 9.11925E+01 1.20612E-03-2.70845E-01-2.86703E-14 6.59642E-14
 -1      3102 7.26680E-02 9.12307E+01 1.13015E-03-2.97823E-01-1.78333E-14-3.22659E-16
 -1      3103 5.37307E-02 9.12731E+01 1.03913E-03-3.19473E-01-6.42151E-15 6.06980E-15
 -1      3104 3.11075E-02 9.13194E+01 9.30368E-04-3.34743E-01-2.54189E-14 2.08262E-14
 -1      3105 4.40711E-03 9.13692E+01 8.00236E-04-3.42466E-01 3.48126E-14-6.42637E-14
 -1      3106-2.67282E-02 9.14221E+01 6.43964E-04-3.41360E-01 6.15851E-14 6.01134E-14
 -1      3107-6.25830E-02 9.14773E+01 4.55368E-04-3.30039E-01-6.13032E-14-2.95111E-14
 -1      3108-1.03317E-01 9.15341E+01 2.26638E-04-3.07037E-01-3.26763E-14 7.91901E-16
 -1      3109-1.48900E-01 9.15918E+01-5.17782E-05-2.70848E-01 6.96980E-14-4.02725E-14
 -1      3110-1.99033E-01 9.16492E+01-3.91070E-04-2.19985E-01-1.72336E-14 2.60738E-14
 -1      3111-2.53058E-01 9.17049E+01-8.03582E-04-1.53060E-01-5.02742E-15-4.58652E-14
 -1      3112-3.09857E-01 9.17574E+01-1.30176E-03-6.88990E-02 6.34275E-15 3.61143E-14
 -1      3113-3.67749E-01 9.18047E+01-1.89628E-03 3.33129E-02 3.66408E-14-4.40446E-15
 -1      3114-4.24403E-01 9.18446E+01-2.59316E-03 1.53852E-01 2.34367E-15 3.14393E-14
 -1      3115-4.76771E-01 9.18743E+01-3.38963E-03 2.92243E-01-3.48869E-14-2.18610E-14
 -1      3116-5.21076E-01 9.18910E+01-4.26897E-03 4.47017E-01-1.68717E-14 4.81264E-14
 -1      3117-5.52885E-01 9.18912E+01-5.19437E-03 6.15459E-01-3.88112E-14-4.60534E-14
 -1      3118-5.67289E-01 9.18717E+01-6.10354E-03 7.93377E-01 9.43180E-15 2.31625E-14
 -1      3119-5.59237E-01 9.18291E+01-6.90150E-03 9.74918E-01-1.22392E-14-3.47575E-14
 -1      3120-5.24037E-01 9.17607E+01-7.47893E-03 1.15250E+00-3.03078E-15-1.35906E-14
 -1      3121-4.57964E-01 9.16648E+01-7.60579E-03 1.31693E+00 6.32854E-14 3.83378E-14
 -1      3122-3.59419E-01 9.15406E+01-7.66016E-03 1.45775E+00-3.43757E-15 5.99434E-15
 -1      3123 9.00736E-02 9.12126E+01 1.66254E-03-3.68297E-02 1.14246E-13-3.07801E-14
 -1      3124 8.84253E-02 9.12220E+01 1.63736E-03-7.32107E-02 4.14065E-14 7.99014E-15
 -1      3125 8.56098E-02 9.12375E+01 1.59478E-03-1.08679E-01-6.64681E-15-8.86431E-14
 -1      3126 8.15250E-02 9.12591E+01 1.53384E-03-1.42740E-01 4.20896E-14 1.75342E-14
 -1      3127 7.60293E-02 9.12864E+01 1.45322E-03-1.74853E-01 9.36178E-14-7.18080E-14
 -1      3128 6.89430E-02 9.13192E+01 1.35120E-03-2.04418E-01-5.39358E-15-4.60174E-14
 -1      3129 6.00512E-02 9.13570E+01 1.22568E-03-2.30761E-01-2.64002E-14 5.17381E-15
 -1      3130 4.91090E-02 9.13995E+01 1.07415E-03-2.53121E-01-7.47186E-14-2.74910E-14
 -1      3131 3.58483E-02 9.14459E+01 8.93679E-04-2.70642E-01 6.01580E-15-3.25495E-14
 -1      3132 1.99897E-02 9.14956E+01 6.80928E-04-2.82367E-01 6.85107E-14-6.24301E-14
 -1      3133 1.25805E-03 9.15479E+01 4.32136E-04-2.87235E-01-2.62686E-14-1.11473E-14
 -1      3134-2.05953E-02 9.16017E+01 1.43145E-04-2.84086E-01-3.83461E-14-6.18542E-14
 -1      3135-4.57632E-02 9.16560E+01-1.90523E-04-2.71678E-01 1.46610E-14 2.94998E-14
 -1      3136-7.43446E-02 9.17095E+01-5.73524E-04-2.48712E-01 3.53953E-14-1.35118E-14
 -1      3137-1.06297E-01 9.17607E+01-1.01041E-03-2.13875E-01-1.13003E-13-5.15196E-14
 -1      3138-1.41380E-01 9.18079E+01-1.50515E-03-1.65901E-01 4.40616E-14-1.43609E-14
 -1      3139-1.79091E-01 9.18494E+01-2.06037E-03-1.03658E-01 2.06367E-14-2.02841E-14
 -1      3140-2.18595E-01 9.18829E+01-2.67613E-03-2.62527E-02-4.56324E-15-2.77348E-14
 -1      3141-2.58655E-01 9.19062E+01-3.34837E-03 6.68292E-02-4.48380E-14 1.85425E-14
 -1      3142-2.97576E-01 9.19167E+01-4.06658E-03 1.75561E-01-1.12649E-14-5.65355E-14
 -1      3143-3.33169E-01 9.19118E+01-4.81114E-03 2.99191E-01-2.59556E-14-1.04691E-14
 -1      3144-3.62758E-01 9.18886E+01-5.55027E-03 4.36043E-01-2.11612E-14-1.94480E-14
 -1      3145-3.83245E-01 9.18446E+01-6.23696E-03 5.83333E-01-2.65122E-14 9.82808E-15
 -1      3146-3.91259E-01 9.17772E+01-6.80765E-03 7.37005E-01 7.39990E-15-1.47161E-14
 -1      3147-3.83407E-01 9.16845E+01-7.17883E-03 8.91645E-01-1.18528E-13-3.73106E-14
 -1      3148-3.56633E-01 9.15652E+01-7.27083E-03 1.04051E+00 1.66069E-14-1.30798E-14
 -1      3149-3.08615E-01 9.14194E+01-6.88707E-03 1.17569E+00 4.90176E-14-9.91828E-15
 -1      3150-2.38712E-01 9.12480E+01-6.52534E-03 1.28850E+00-1.57253E-14-4.57030E-14
 -1      3151 5.57708E-02 9.13465E+01 1.95532E-03-2.96533E-02-6.49818E-14-2.12590E-14
 -1      3152 5.47477E-02 9.13575E+01 1.91952E-03-5.89381E-02 3.76372E-14 5.70954E-14
 -1      3153 5.29987E-02 9.13757E+01 1.85877E-03-8.74728E-02 3.83920E-14 2.44635E-14
 -1      3154 5.04582E-02 9.14008E+01 1.77145E-03-1.14849E-01-9.95201E-14 1.22632E-13
 -1      3155 4.70353E-02 9.14324E+01 1.65533E-03-1.40619E-01 7.97393E-14 6.66329E-14
 -1      3156 4.26145E-02 9.14703E+01 1.50759E-03-1.64282E-01-6.21051E-14 6.36067E-14
 -1      3157 3.70578E-02 9.15136E+01 1.32486E-03-1.85275E-01 3.53112E-14 4.32219E-14
 -1      3158 3.02077E-02 9.15619E+01 1.10333E-03-2.02959E-01 1.15406E-13 1.41475E-14
 -1      3159 2.18921E-02 9.16141E+01 8.38832E-04-2.16615E-01 2.38243E-15 7.66227E-15
 -1      3160 1.19320E-02 9.16693E+01 5.26998E-04-2.25435E-01 8.25600E-14 7.99577E-14
 -1      3161 1.51120E-04 9.17264E+01 1.63475E-04-2.28523E-01 1.65239E-14 3.42209E-14
 -1      3162-1.36087E-02 9.17838E+01-2.55790E-04-2.24904E-01-1.40992E-14 7.75222E-14
 -1      3163-2.94688E-02 9.18400E+01-7.34160E-04-2.13532E-01 7.14073E-14 1.66143E-14
 -1      3164-4.74887E-02 9.18931E+01-1.27381E-03-1.93324E-01 2.96134E-14 2.46175E-14
 -1      3165-6.76351E-02 9.19412E+01-1.87504E-03-1.63191E-01 4.59297E-14-1.70723E-14
 -1      3166-8.97456E-02 9.19819E+01-2.53549E-03-1.22099E-01 3.22238E-14 6.46228E-14
 -1      3167-1.13487E-01 9.20127E+01-3.24903E-03-6.91469E-02 5.89738E-14 5.68122E-14
 -1      3168-1.38311E-01 9.20310E+01-4.00457E-03-3.65750E-03 8.35486E-15 1.52829E-14
 -1      3169-1.63412E-01 9.20340E+01-4.78456E-03 7.46993E-02-1.29137E-13 3.61751E-14
 -1      3170-1.87694E-01 9.20188E+01-5.56349E-03 1.65770E-01 1.09111E-13 5.42899E-14
 -1      3171-2.09750E-01 9.19824E+01-6.30631E-03 2.68766E-01-6.47919E-15 2.00742E-14
 -1      3172-2.27874E-01 9.19223E+01-6.96731E-03 3.82107E-01 1.51395E-13 5.49135E-14
 -1      3173-2.40109E-01 9.18361E+01-7.48962E-03 5.03285E-01 4.06303E-14 2.94070E-14
 -1      3174-2.44353E-01 9.17219E+01-7.80676E-03 6.28754E-01 1.76074E-16 7.80361E-14
 -1      3175-2.38518E-01 9.15788E+01-7.84259E-03 7.53898E-01-1.44242E-15 5.05000E-14
 -1      3176-2.20773E-01 9.14070E+01-7.54052E-03 8.73086E-01-2.60061E-14 1.03543E-14
 -1      3177-1.89733E-01 9.12077E+01-6.72342E-03 9.79878E-01 1.34800E-13 7.64740E-14
 -1      3178-1.45275E-01 9.09835E+01-6.00441E-03 1.06736E+00-7.47302E-14-9.22873E-16
 -1      3179 2.96345E-02 9.14652E+01 2.24894E-03-2.12321E-02-8.34814E-14-5.27152E-14
 -1      3180 2.90912E-02 9.14781E+01 2.20192E-03-4.22023E-02-2.65170E-14-1.67310E-14
 -1      3181 2.81617E-02 9.14994E+01 2.12193E-03-6.26386E-02 8.21062E-14 1.97485E-14
 -1      3182 2.68099E-02 9.15288E+01 2.00659E-03-8.22487E-02 5.64371E-14-1.35959E-14
 -1      3183 2.49860E-02 9.15659E+01 1.85261E-03-1.00710E-01-1.29654E-13-5.12615E-14
 -1      3184 2.26266E-02 9.16102E+01 1.65583E-03-1.17661E-01 5.78235E-14-6.38383E-14
 -1      3185 1.96556E-02 9.16608E+01 1.41138E-03-1.32691E-01-3.87223E-14 1.41042E-14
 -1      3186 1.59866E-02 9.17169E+01 1.11376E-03-1.45331E-01 8.63957E-15-3.87147E-14
 -1      3187 1.15248E-02 9.17773E+01 7.57114E-04-1.55052E-01-1.50839E-14-8.04192E-14
 -1      3188 6.17144E-03 9.18408E+01 3.35496E-04-1.61256E-01-6.60459E-14 5.51642E-15
 -1      3189-1.70368E-04 9.19057E+01-1.56702E-04-1.63279E-01 7.52972E-14-9.41261E-14
 -1      3190-7.58784E-03 9.19703E+01-7.24196E-04-1.60393E-01-1.18937E-13-2.74399E-14
 -1      3191-1.61477E-02 9.20324E+01-1.37009E-03-1.51820E-01 7.70536E-14-4.75045E-14
 -1      3192-2.58822E-02 9.20897E+01-2.09499E-03-1.36749E-01-9.22879E-14-3.21652E-14
 -1      3193-3.67724E-02 9.21394E+01-2.89591E-03-1.14369E-01-6.58393E-15-6.66654E-15
 -1      3194-4.87276E-02 9.21787E+01-3.76496E-03-8.39116E-02 2.78390E-14 7.92422E-15
 -1      3195-6.15627E-02 9.22042E+01-4.68799E-03-4.47092E-02-9.20343E-14-4.41010E-14
 -1      3196-7.49740E-02 9.22127E+01-5.64301E-03 3.72940E-03 3.61993E-15-1.80307E-14
 -1      3197-8.85166E-02 9.22006E+01-6.59877E-03 6.16292E-02 7.29783E-14 2.95059E-14
 -1      3198-1.01586E-01 9.21644E+01-7.51359E-03 1.28844E-01 6.67838E-14-6.18065E-14
 -1      3199-1.13410E-01 9.21009E+01-8.33473E-03 2.04745E-01 4.92579E-14-4.11294E-14
 -1      3200-1.23057E-01 9.20071E+01-8.99865E-03 2.88105E-01 5.91189E-14-5.66257E-14
 -1      3201-1.29462E-01 9.18807E+01-9.43257E-03 3.77001E-01-2.96776E-14-1.00692E-14
 -1      3202-1.31492E-01 9.17201E+01-9.55881E-03 4.68750E-01 6.04542E-14-5.34616E-14
 -1      3203-1.28030E-01 9.15250E+01-9.29533E-03 5.59885E-01-2.68362E-14 1.40933E-14
 -1      3204-1.18117E-01 9.12965E+01-8.59673E-03 6.46220E-01-7.81510E-14-2.02108E-14
 -1      3205-1.01017E-01 9.10371E+01-7.28769E-03 7.23014E-01-1.35967E-13-9.65699E-14
 -1      3206-7.68326E-02 9.07509E+01-6.13940E-03 7.85259E-01-9.56075E-14 2.17335E-14
 -1      3207 1.34077E-02 9.15654E+01 2.96229E-03-1.13134E-02-3.37132E-14 1.74292E-14
 -1      3208 1.31783E-02 9.15807E+01 2.92338E-03-2.24907E-02 1.27008E-13 1.54607E-15
 -1      3209 1.27850E-02 9.16059E+01 2.85636E-03-3.33906E-02-5.32820E-15-7.28024E-14
 -1      3210 1.22112E-02 9.16406E+01 2.75798E-03-4.38599E-02-2.28691E-14-1.36132E-14
 -1      3211 1.14341E-02 9.16845E+01 2.62371E-03-5.37291E-02 4.03898E-14 2.24985E-14
 -1      3212 1.04243E-02 9.17369E+01 2.44779E-03-6.28062E-02-2.95842E-14-2.62581E-14
 -1      3213 9.14677E-03 9.17968E+01 2.22329E-03-7.08720E-02 9.30462E-15-5.85942E-14
 -1      3214 7.56140E-03 9.18632E+01 1.94224E-03-7.76755E-02-8.22255E-14 2.13098E-14
 -1      3215 5.62400E-03 9.19349E+01 1.59587E-03-8.29300E-02 1.06165E-14-3.31419E-14
 -1      3216 3.28828E-03 9.20102E+01 1.17488E-03-8.63106E-02 1.49455E-14 2.41361E-14
 -1      3217 5.08344E-04 9.20872E+01 6.70011E-04-8.74541E-02-2.26113E-14-3.09041E-15
 -1      3218-2.75765E-03 9.21637E+01 7.26225E-05-8.59610E-02 2.45281E-14 5.83474E-15
 -1      3219-6.54260E-03 9.22370E+01-6.24348E-04-8.14012E-02-5.93304E-14-8.62739E-14
 -1      3220-1.08642E-02 9.23043E+01-1.42524E-03-7.33252E-02-8.14006E-14-4.17036E-14
 -1      3221-1.57170E-02 9.23621E+01-2.33023E-03-6.12806E-02-2.11879E-14-4.60864E-14
 -1      3222-2.10633E-02 9.24068E+01-3.33361E-03-4.48365E-02 5.09764E-14-6.06182E-14
 -1      3223-2.68222E-02 9.24343E+01-4.42184E-03-2.36162E-02-2.08547E-14-8.85403E-15
 -1      3224-3.28592E-02 9.24402E+01-5.57155E-03 2.66122E-03 1.05646E-13 4.61436E-16
 -1      3225-3.89751E-02 9.24202E+01-6.74757E-03 3.41297E-02 2.64992E-14-1.54130E-14
 -1      3226-4.48980E-02 9.23698E+01-7.90142E-03 7.07178E-02-1.48101E-13-5.24095E-14
 -1      3227-5.02795E-02 9.22849E+01-8.97060E-03 1.12085E-01 1.42299E-14 2.44145E-14
 -1      3228-5.46986E-02 9.21617E+01-9.87917E-03 1.57559E-01-1.42462E-13 2.07039E-15
 -1      3229-5.76752E-02 9.19975E+01-1.05401E-02 2.06081E-01 2.39652E-15-3.94771E-14
 -1      3230-5.86980E-02 9.17903E+01-1.08608E-02 2.56168E-01-8.00948E-14-5.72970E-14
 -1      3231-5.72636E-02 9.15402E+01-1.07454E-02 3.05904E-01 5.69380E-14-1.35772E-14
 -1      3232-5.29481E-02 9.12484E+01-1.01341E-02 3.52981E-01-4.98299E-14-5.93254E-15
 -1      3233-4.53639E-02 9.09190E+01-8.82463E-03 3.94765E-01-1.62370E-14 5.49387E-14
 -1      3234-3.49459E-02 9.05570E+01-7.80350E-03 4.28528E-01 3.34680E-14-1.47031E-14
 -1      3235-3.77114E-03 8.97541E+01-2.55880E-03 4.60636E-01 4.40412E-14-1.26826E-14
 -1      3236-6.43546E-03 9.01114E+01-1.11995E-03 8.46067E-01 7.34707E-14 8.90954E-15
 -1      3237-1.53931E-02 9.04698E+01-2.13983E-03 1.15684E+00-1.88477E-13-4.70908E-14
 -1      3238-3.20354E-02 9.08339E+01-3.33442E-03 1.41202E+00-2.10652E-14 4.69711E-14
 -1      3239-6.19006E-02 9.12081E+01-5.06085E-03 1.62520E+00 1.43324E-13-5.40835E-14
 -1      3240-1.12339E-01 9.15989E+01-7.36483E-03 1.80567E+00 7.63612E-14-3.24740E-15
 -1      3241-1.93255E-01 9.20135E+01-1.04261E-02 1.95886E+00-1.09183E-13-4.14252E-14
 -1      3242-3.17748E-01 9.24606E+01-1.44730E-02 2.08612E+00-2.43156E-14 1.33539E-14
 -1      3243-5.03051E-01 9.29499E+01-1.97768E-02 2.18393E+00-9.75817E-14-4.10453E-14
 -1      3244-7.71542E-01 9.34914E+01-2.65946E-02 2.24207E+00 8.41341E-14-1.25715E-14
 -1      3245-1.15148E+00 9.40941E+01-3.50258E-02 2.24065E+00 1.14839E-15 9.85670E-15
 -1      3246-1.67680E+00 9.47627E+01-4.47431E-02 2.14560E+00-1.63959E-13 8.58038E-15
 -1      3247-2.38305E+00 9.54910E+01-5.36749E-02 1.90186E+00-8.09942E-14-5.71873E-15
 -1      3248-3.30103E+00 9.62437E+01-6.06399E-02 1.43127E+00 1.01336E-13 3.17038E-14
 -1      3249-4.34189E+00 9.69736E+01-5.74455E-03 6.03527E-01-9.03444E-15 1.42490E-14
 -1      3250 1.58681E-02 8.93365E+01 1.62836E-03 4.54002E-01-9.85444E-14-2.16702E-14
 -1      3251 3.70205E-02 8.97762E+01 2.71579E-03 8.34987E-01 1.32949E-14 2.52593E-14
 -1      3252 6.51916E-02 9.01950E+01 1.05890E-03 1.14493E+00 1.00006E-13-2.00534E-15
 -1      3253 9.73668E-02 9.06033E+01-3.10686E-04 1.40409E+00-2.42337E-14-1.75780E-14
 -1      3254 1.27193E-01 9.10102E+01-2.02281E-03 1.62742E+00-1.37373E-13 1.03546E-14
 -1      3255 1.47474E-01 9.14254E+01-4.16609E-03 1.82597E+00 3.25664E-14 2.14342E-14
 -1      3256 1.48926E-01 9.18595E+01-7.01295E-03 2.00762E+00-5.69675E-14 1.90317E-14
 -1      3257 1.19170E-01 9.23247E+01-1.09206E-02 2.17723E+00 2.15869E-14 3.26770E-14
 -1      3258 4.11965E-02 9.28349E+01-1.63747E-02 2.33611E+00-2.41474E-15 1.66776E-14
 -1      3259-1.08674E-01 9.34064E+01-2.40264E-02 2.48053E+00 5.69093E-14 3.14072E-14
 -1      3260-3.63207E-01 9.40581E+01-3.45352E-02 2.59884E+00-3.48332E-15 1.53176E-15
 -1      3261-7.67119E-01 9.48095E+01-4.90132E-02 2.66616E+00 3.96419E-14-3.46598E-14
 -1      3262-1.37520E+00 9.56790E+01-6.44766E-02 2.63576E+00 5.42760E-14 3.34082E-14
 -1      3263-2.25555E+00 9.66651E+01-9.14958E-02 2.42225E+00 1.62752E-13 4.28665E-14
 -1      3264-3.42285E+00 9.77540E+01-4.95976E-02 1.87406E+00-2.64233E-14-1.63747E-14
 -1      3265 3.55332E-02 8.89323E+01 5.05052E-03 4.29843E-01-1.09756E-14-6.22419E-14
 -1      3266 8.13701E-02 8.94501E+01 5.96525E-03 7.91919E-01-6.04404E-14-3.92551E-14
 -1      3267 1.47866E-01 8.99244E+01 3.89076E-03 1.08894E+00-1.54330E-13 4.58140E-15
 -1      3268 2.31098E-01 9.03718E+01 2.56968E-03 1.34088E+00 1.78869E-13-2.55733E-14
 -1      3269 3.24513E-01 9.08052E+01 1.17616E-03 1.56289E+00 5.27702E-14 1.72119E-14
 -1      3270 4.22105E-01 9.12372E+01-3.94908E-04 1.76691E+00-2.57333E-14 2.33841E-15
 -1      3271 5.16816E-01 9.16809E+01-2.43749E-03 1.96261E+00 3.74709E-14-2.80297E-14
 -1      3272 5.99412E-01 9.21506E+01-5.33460E-03 2.15793E+00-7.60763E-15 6.88338E-15
 -1      3273 6.56726E-01 9.26630E+01-9.64565E-03 2.35901E+00 1.69465E-14 5.64132E-14
 -1      3274 6.69131E-01 9.32386E+01-1.62059E-02 2.56946E+00-8.29094E-14-5.17086E-14
 -1      3275 6.06922E-01 9.39032E+01-2.61650E-02 2.78831E+00 1.40526E-13 2.74954E-14
 -1      3276 4.24676E-01 9.46888E+01-4.15879E-02 3.00565E+00-2.94487E-14 4.13523E-14
 -1      3277 5.72374E-02 9.56357E+01-6.21159E-02 3.19323E+00-1.07817E-13-1.26253E-14
 -1      3278-6.07956E-01 9.67762E+01-1.06653E-01 3.28681E+00-1.30708E-13-3.19640E-14
 -1      3279-1.63919E+00 9.81980E+01-8.07495E-02 3.15298E+00 1.56597E-13 2.63053E-14
 -1      3280 5.41516E-02 8.85578E+01 8.38938E-03 3.88534E-01-7.18332E-14-2.70617E-15
 -1      3281 1.23309E-01 8.91460E+01 9.16245E-03 7.17419E-01-4.61037E-14-2.75960E-14
 -1      3282 2.26236E-01 8.96696E+01 6.76060E-03 9.89330E-01-1.07625E-13-1.82909E-14
 -1      3283 3.58422E-01 9.01508E+01 5.59984E-03 1.22228E+00 1.08384E-13 3.69219E-14
 -1      3284 5.13743E-01 9.06056E+01 4.68822E-03 1.43025E+00-1.66362E-13-3.27481E-14
 -1      3285 6.88193E-01 9.10489E+01 3.94803E-03 1.62485E+00-6.02166E-14-3.48332E-15
 -1      3286 8.78197E-01 9.14951E+01 3.12687E-03 1.81633E+00-2.33231E-13-5.12437E-14
 -1      3287 1.07968E+00 9.19595E+01 1.92285E-03 2.01439E+00 6.86326E-14 7.28931E-15
 -1      3288 1.28660E+00 9.24598E+01-1.17665E-04 2.22867E+00 9.12465E-16-1.73681E-14
 -1      3289 1.48878E+00 9.30180E+01-3.74347E-03 2.46880E+00 6.97654E-14 1.68268E-14
 -1      3290 1.66838E+00 9.36633E+01-1.01050E-02 2.74382E+00-1.48364E-13 8.14973E-15
 -1      3291 1.79334E+00 9.44344E+01-2.18183E-02 3.05996E+00-4.62339E-14-6.30399E-14
 -1      3292 1.80889E+00 9.53866E+01-3.99896E-02 3.41503E+00 3.00523E-14 8.33708E-15
 -1      3293 1.60350E+00 9.65864E+01-8.73059E-02 3.78527E+00-6.20962E-14 1.93838E-14
 -1      3294 1.07762E+00 9.81844E+01-7.59539E-02 4.09989E+00-6.43652E-14 1.60566E-14
 -1      3295 6.99566E-02 8.82270E+01 1.12065E-02 3.31832E-01 1.53318E-13 2.54866E-14
 -1      3296 1.58979E-01 8.88753E+01 1.18791E-02 6.14701E-01-5.10616E-14 3.30985E-15
 -1      3297 2.93083E-01 8.94413E+01 9.26293E-03 8.50343E-01 5.10945E-14-5.46785E-15
 -1      3298 4.67487E-01 8.99514E+01 8.33091E-03 1.05316E+00-8.41831E-14 4.85029E-15
 -1      3299 6.76832E-01 9.04243E+01 7.96865E-03 1.23458E+00-3.18343E-15-2.66523E-14
 -1      3300 9.19463E-01 9.08762E+01 8.15329E-03 1.40446E+00 1.07708E-13-4.22891E-14
 -1      3301 1.19579E+00 9.13220E+01 8.72437E-03 1.57209E+00-1.01085E-13 2.26867E-14
 -1      3302 1.50782E+00 9.17772E+01 9.54682E-03 1.74698E+00 7.72897E-14 5.12056E-14
 -1      3303 1.85840E+00 9.22589E+01 1.04265E-02 1.93968E+00-7.69523E-14-1.19002E-15
 -1      3304 2.25023E+00 9.27887E+01 1.10104E-02 2.16248E+00-2.20501E-14-4.01762E-15
 -1      3305 2.68402E+00 9.33953E+01 1.06582E-02 2.43006E+00 4.62928E-14-1.72813E-14
 -1      3306 3.15427E+00 9.41191E+01 7.64003E-03 2.75972E+00 1.03396E-13 1.94428E-14
 -1      3307 3.64303E+00 9.50209E+01 7.27999E-04 3.17073E+00-3.80460E-14-7.54258E-15
 -1      3308 4.09321E+00 9.61863E+01-2.66638E-02 3.67940E+00 6.69742E-14 7.29972E-15
 -1      3309 4.43654E+00 9.77866E+01-2.38453E-02 4.28997E+00-2.06779E-15-1.54460E-14
 -1      3310 8.14198E-02 8.79520E+01 1.32389E-02 2.62935E-01-1.62604E-14 1.67748E-14
 -1      3311 1.84928E-01 8.86480E+01 1.38770E-02 4.89581E-01-9.71705E-15-1.38917E-14
 -1      3312 3.41836E-01 8.92487E+01 1.11361E-02 6.79938E-01 2.54636E-14 2.91434E-14
 -1      3313 5.47333E-01 8.97837E+01 1.04240E-02 8.43395E-01 7.17785E-15-1.35413E-14
 -1      3314 7.96853E-01 9.02731E+01 1.05403E-02 9.87599E-01-2.67733E-14-1.19349E-14
 -1      3315 1.09082E+00 9.07340E+01 1.15219E-02 1.11938E+00-2.52108E-14 3.01460E-14
 -1      3316 1.43314E+00 9.11814E+01 1.33101E-02 1.24545E+00-1.24948E-14-6.19921E-14
 -1      3317 1.83123E+00 9.16302E+01 1.59550E-02 1.37305E+00-1.22348E-13 6.73107E-14
 -1      3318 2.29617E+00 9.20966E+01 1.95714E-02 1.51062E+00-1.07124E-13-1.31145E-14
 -1      3319 2.84315E+00 9.26004E+01 2.43297E-02 1.66863E+00 9.88602E-14 2.67772E-14
 -1      3320 3.49215E+00 9.31682E+01 3.04224E-02 1.86059E+00 1.03018E-13 5.64132E-15
 -1      3321 4.26849E+00 9.38385E+01 3.79237E-02 2.10456E+00-7.72611E-14-2.18991E-14
 -1      3322 5.20279E+00 9.46701E+01 4.67138E-02 2.42520E+00 7.43017E-14 5.52128E-14
 -1      3323 6.32697E+00 9.57561E+01 5.43953E-02 2.85479E+00-1.12757E-14 8.56260E-15
 -1      3324 7.66798E+00 9.72556E+01 6.14041E-02 3.43931E+00-4.13142E-14 1.13382E-14
 -1      3325 8.73668E-02 8.77415E+01 1.42669E-02 1.86238E-01 9.69710E-16-5.46820E-14
 -1      3326 1.98507E-01 8.84713E+01 1.49465E-02 3.50084E-01 1.02817E-14 2.43555E-15
 -1      3327 3.67448E-01 8.90988E+01 1.21566E-02 4.89253E-01 3.39170E-13 4.38954E-14
 -1      3328 5.89501E-01 8.96552E+01 1.15876E-02 6.07192E-01-4.83979E-14 2.17049E-14
 -1      3329 8.60620E-01 9.01612E+01 1.19883E-02 7.06913E-01-1.83788E-13-1.82632E-14
 -1      3330 1.18247E+00 9.06342E+01 1.34352E-02 7.91309E-01 8.57176E-14-4.89192E-15
 -1      3331 1.56104E+00 9.10892E+01 1.59356E-02 8.63378E-01 1.17467E-13 3.77684E-14
 -1      3332 2.00692E+00 9.15405E+01 1.96614E-02 9.26440E-01 1.08297E-14-3.42087E-15
 -1      3333 2.53615E+00 9.20033E+01 2.49358E-02 9.84385E-01 1.48221E-13-2.31204E-14
 -1      3334 3.17165E+00 9.24963E+01 3.23038E-02 1.04200E+00-8.23564E-14 3.23561E-14
 -1      3335 3.94578E+00 9.30443E+01 4.25831E-02 1.10547E+00-7.89291E-14-3.69982E-14
 -1      3336 4.90461E+00 9.36835E+01 5.73342E-02 1.18310E+00 1.08985E-13 4.15154E-14
 -1      3337 6.11344E+00 9.44693E+01 7.74819E-02 1.28663E+00-1.42096E-13-4.82947E-15
 -1      3338 7.67412E+00 9.54968E+01 1.13495E-01 1.43256E+00 1.15232E-13-8.24341E-15
 -1      3339 9.70290E+00 9.69066E+01 1.29084E-01 1.64755E+00-6.29774E-14 1.62370E-14
 -1      3340 8.71683E-02 8.76002E+01 1.41744E-02 1.06930E-01-1.69161E-13-5.48589E-14
 -1      3341 1.98294E-01 8.83490E+01 1.49779E-02 2.05704E-01-3.23053E-14 4.09048E-15
 -1      3342 3.67205E-01 8.89954E+01 1.22037E-02 2.91550E-01-1.48902E-13 1.87871E-14
 -1      3343 5.89419E-01 8.95701E+01 1.16608E-02 3.61659E-01-8.89770E-14-1.19904E-14
 -1      3344 8.60971E-01 9.00938E+01 1.20781E-02 4.14128E-01 7.94629E-14 1.89085E-14
 -1      3345 1.18360E+00 9.05837E+01 1.35355E-02 4.47597E-01-1.16830E-13 8.01685E-14
 -1      3346 1.56332E+00 9.10545E+01 1.60405E-02 4.60936E-01-7.37702E-14-3.02154E-14
 -1      3347 2.01078E+00 9.15205E+01 1.97661E-02 4.52944E-01 1.76287E-14-2.30128E-14
 -1      3348 2.54199E+00 9.19968E+01 2.50369E-02 4.22029E-01-1.76759E-13-1.64799E-15
 -1      3349 3.17987E+00 9.25020E+01 3.24004E-02 3.65812E-01-1.93868E-14-1.17684E-14
 -1      3350 3.95677E+00 9.30610E+01 4.26784E-02 2.80576E-01 2.30666E-14-2.13857E-14
 -1      3351 4.91879E+00 9.37100E+01 5.74379E-02 1.60492E-01 1.58076E-13-3.70398E-14
 -1      3352 6.13128E+00 9.45043E+01 7.76075E-02-3.70230E-03-1.93968E-13-3.15581E-14
 -1      3353 7.69624E+00 9.55392E+01 1.13702E-01-2.26054E-01 1.73646E-13 4.33126E-14
 -1      3354 9.73017E+00 9.69552E+01 1.29281E-01-5.30764E-01-1.72778E-15-6.31162E-14
 -1      3355 8.08369E-02 8.75278E+01 1.29637E-02 3.04720E-02 2.29063E-13 3.81674E-14
 -1      3356 1.84320E-01 8.82812E+01 1.39741E-02 6.64367E-02 1.12976E-13 8.07444E-14
 -1      3357 3.41166E-01 8.89386E+01 1.12806E-02 1.00818E-01-9.23877E-14-3.12840E-14
 -1      3358 5.47190E-01 8.95288E+01 1.06466E-02 1.24914E-01-8.03281E-14-2.27214E-14
 -1      3359 7.98062E-01 9.00714E+01 1.08122E-02 1.32245E-01 3.58307E-14 5.35162E-14
 -1      3360 1.09442E+00 9.05828E+01 1.18248E-02 1.17565E-01 5.43528E-14-5.01127E-14
 -1      3361 1.44029E+00 9.10777E+01 1.36258E-02 7.60777E-02-9.16164E-14 8.18616E-14
 -1      3362 1.84316E+00 9.15706E+01 1.62684E-02 2.70772E-03 8.98275E-14 3.30812E-14
 -1      3363 2.31409E+00 9.20774E+01 1.98713E-02-1.08654E-01 4.70683E-14-2.87513E-14
 -1      3364 2.86826E+00 9.26178E+01 2.46114E-02-2.66034E-01 7.66730E-14 1.76734E-14
 -1      3365 3.52560E+00 9.32186E+01 3.06911E-02-4.80510E-01-2.45585E-14-2.85882E-15
 -1      3366 4.31142E+00 9.39183E+01 3.82030E-02-7.67679E-01 1.48433E-13 6.36505E-14
 -1      3367 5.25643E+00 9.47755E+01 4.70348E-02-1.14982E+00-5.49630E-14-6.58293E-14
 -1      3368 6.39292E+00 9.58838E+01 5.48942E-02-1.65690E+00-7.84477E-14 5.18613E-14
 -1      3369 7.74811E+00 9.74019E+01 6.17974E-02-2.33276E+00 1.76324E-13 3.92741E-14
 -1      3370 6.90282E-02 8.75198E+01 1.07558E-02-3.79697E-02-4.35475E-14 1.56472E-14
 -1      3371 1.58071E-01 8.82643E+01 1.20521E-02-5.82714E-02-5.65030E-14-4.23446E-14
 -1      3372 2.92174E-01 8.89252E+01 9.51463E-03-6.97559E-02 5.74209E-14 2.11289E-14
 -1      3373 4.67597E-01 8.95277E+01 8.71234E-03-8.60283E-02-1.46824E-13 3.22659E-14
 -1      3374 6.79377E-01 9.00894E+01 8.43077E-03-1.17250E-01 1.66403E-14-3.65159E-14
 -1      3375 9.26202E-01 9.06257E+01 8.66469E-03-1.71583E-01-1.58771E-14-1.12757E-14
 -1      3376 1.20869E+00 9.11507E+01 9.25375E-03-2.56283E-01 1.91017E-13-2.63504E-14
 -1      3377 1.52891E+00 9.16792E+01 1.00674E-02-3.78620E-01-2.08538E-13-3.08711E-14
 -1      3378 1.88972E+00 9.22282E+01 1.09170E-02-5.46734E-01 1.16351E-13-1.42907E-14
 -1      3379 2.29372E+00 9.28191E+01 1.14571E-02-7.70435E-01-6.95780E-14-1.71772E-14
 -1      3380 2.74145E+00 9.34805E+01 1.10588E-02-1.06192E+00-7.42392E-14 7.32053E-15
 -1      3381 3.22731E+00 9.42531E+01 8.01433E-03-1.43609E+00-1.59338E-13 1.62509E-14
 -1      3382 3.73331E+00 9.51978E+01 1.11017E-03-1.90997E+00 1.42726E-13 1.93387E-14
 -1      3383 4.20254E+00 9.64004E+01-2.61341E-02-2.49776E+00-8.38704E-14 2.41474E-14
 -1      3384 4.56656E+00 9.80323E+01-2.36492E-02-3.20180E+00-1.32006E-13-2.71033E-14
 -1      3385 5.29425E-02 8.75674E+01 7.77220E-03-9.40496E-02 5.05646E-14-7.70981E-14
 -1      3386 1.22262E-01 8.82913E+01 9.42519E-03-1.60494E-01-1.36835E-13-9.25302E-15
 -1      3387 2.25405E-01 8.89486E+01 7.13424E-03-2.09184E-01 4.54389E-16 5.65520E-15
 -1      3388 3.59322E-01 8.95598E+01 6.15469E-03-2.57171E-01 4.67181E-14-1.34996E-14
 -1      3389 5.18436E-01 9.01395E+01 5.35322E-03-3.17007E-01-1.13835E-13 7.63278E-15
 -1      3390 6.99216E-01 9.07012E+01 4.67768E-03-3.98420E-01-8.06646E-17-1.96718E-15
 -1      3391 8.98350E-01 9.12582E+01 3.87574E-03-5.09493E-01-8.36007E-14-3.85837E-14
 -1      3392 1.11185E+00 9.18252E+01 2.65118E-03-6.57533E-01 1.88278E-14 3.60233E-14
 -1      3393 1.33362E+00 9.24195E+01 5.56147E-04-8.49635E-01-1.43259E-13-1.26912E-14
 -1      3394 1.55327E+00 9.30630E+01-3.15113E-03-1.09287E+00-1.97377E-14-3.35808E-14
 -1      3395 1.75266E+00 9.37847E+01-9.61531E-03-1.39373E+00 1.63539E-13-3.70329E-14
 -1      3396 1.89936E+00 9.46239E+01-2.14345E-02-1.75602E+00 5.86441E-14 2.26763E-14
 -1      3397 1.93825E+00 9.56361E+01-3.97081E-02-2.17540E+00 3.03230E-14-5.57471E-14
 -1      3398 1.75767E+00 9.68884E+01-8.69402E-02-2.62619E+00 4.87110E-15 9.62425E-15
 -1      3399 1.25712E+00 9.85312E+01-7.62358E-02-3.03577E+00-6.90975E-14 7.04992E-15
 -1      3400 3.41454E-02 8.76584E+01 4.29663E-03-1.34645E-01-1.07428E-13 3.03681E-14
 -1      3401 8.04244E-02 8.83525E+01 6.35582E-03-2.34564E-01-2.22252E-13-3.13291E-14
 -1      3402 1.47576E-01 8.90000E+01 4.42285E-03-3.09731E-01 5.90561E-14-2.55074E-14
 -1      3403 2.33564E-01 8.96158E+01 3.32996E-03-3.78946E-01-2.64317E-13 1.75311E-14
 -1      3404 3.32537E-01 9.02105E+01 2.07048E-03-4.55677E-01 8.65063E-14-1.05058E-13
 -1      3405 4.39078E-01 9.07952E+01 5.73540E-04-5.49762E-01-5.16106E-14 3.07740E-14
 -1      3406 5.46437E-01 9.13815E+01-1.45518E-03-6.68484E-01-1.72544E-14-1.52656E-16
 -1      3407 6.45458E-01 9.19830E+01-4.39194E-03-8.17175E-01 6.71251E-14-1.29861E-14
 -1      3408 7.22839E-01 9.26159E+01-8.78966E-03-9.99282E-01-2.55941E-14 1.81626E-14
 -1      3409 7.58625E-01 9.33006E+01-1.54782E-02-1.21569E+00 8.90919E-14 4.14321E-14
 -1      3410 7.22613E-01 9.40629E+01-2.56036E-02-1.46275E+00-2.18534E-13-1.92311E-14
 -1      3411 5.68698E-01 9.49352E+01-4.12402E-02-1.72803E+00-1.43129E-13-2.98581E-14
 -1      3412 2.30801E-01 9.59586E+01-6.20443E-02-1.98104E+00-3.40353E-14-1.53627E-14
 -1      3413-4.04113E-01 9.71667E+01-1.06654E-01-2.15572E+00 3.91284E-14 3.17472E-14
 -1      3414-1.40564E+00 9.86470E+01-8.15245E-02-2.11717E+00-1.85407E-14-3.23630E-14
 -1      3415 1.43687E-02 8.77788E+01 6.59620E-04-1.58090E-01-1.10103E-14-1.33296E-14
 -1      3416 3.64503E-02 8.84367E+01 3.19343E-03-2.77473E-01 1.43126E-13 5.29368E-14
 -1      3417 6.60102E-02 8.90695E+01 1.71783E-03-3.67489E-01 1.17897E-13 1.07553E-16
 -1      3418 1.02404E-01 8.96854E+01 6.32826E-04-4.46925E-01-2.07657E-14-2.80644E-14
 -1      3419 1.40112E-01 9.02906E+01-9.11899E-04-5.28731E-01-1.91236E-14 4.67022E-14
 -1      3420 1.72623E-01 9.08930E+01-2.96444E-03-6.21564E-01 7.32834E-14-6.49480E-15
 -1      3421 1.90987E-01 9.15016E+01-5.79824E-03-7.30628E-01 6.72561E-14 9.08995E-15
 -1      3422 1.82870E-01 9.21276E+01-9.76192E-03-8.57928E-01-3.10174E-13 1.83187E-14
 -1      3423 1.31038E-01 9.27844E+01-1.53332E-02-1.00184E+00 1.36143E-13-3.13048E-14
 -1      3424 1.13429E-02 9.34883E+01-2.31549E-02-1.15570E+00-1.40728E-13 1.68719E-14
 -1      3425-2.09671E-01 9.42582E+01-3.38880E-02-1.30503E+00 9.11320E-14-3.05866E-14
 -1      3426-5.77631E-01 9.51143E+01-4.86297E-02-1.42222E+00-1.80758E-15 1.39506E-14
 -1      3427-1.14867E+00 9.60760E+01-6.45744E-02-1.45798E+00-1.29161E-13 6.32237E-14
 -1      3428-1.99289E+00 9.71429E+01-9.19152E-02-1.32492E+00 2.22461E-14-9.25605E-15
 -1      3429-3.12598E+00 9.83042E+01-5.16480E-02-8.70283E-01 1.26614E-13 2.10335E-14
 -1      3430-4.92701E-03 8.79131E+01-3.10153E-03-1.64155E-01-2.09381E-13-1.07241E-14
 -1      3431-6.05327E-03 8.85322E+01-2.51341E-05-2.88951E-01 8.51986E-14 7.07073E-15
 -1      3432-1.25196E-02 8.91467E+01-9.24866E-04-3.82430E-01-9.18923E-14-2.02997E-14
 -1      3433-2.29381E-02 8.97584E+01-1.86011E-03-4.61784E-01 9.83176E-15-3.32546E-14
 -1      3434-4.19230E-02 9.03686E+01-3.46403E-03-5.38218E-01 7.94443E-14-5.90153E-15
 -1      3435-7.60466E-02 9.09813E+01-5.73413E-03-6.18268E-01-1.97121E-13-1.14006E-14
 -1      3436-1.34864E-01 9.16022E+01-8.84958E-03-7.04320E-01 1.60027E-13-5.83769E-14
 -1      3437-2.31486E-01 9.22389E+01-1.30277E-02-7.94571E-01-1.08959E-13 1.46029E-14
 -1      3438-3.83487E-01 9.29004E+01-1.85289E-02-8.82266E-01 7.10092E-14 1.96718E-15
 -1      3439-6.13871E-01 9.35967E+01-2.55992E-02-9.54028E-01 1.89737E-13 5.14293E-14
 -1      3440-9.51770E-01 9.43373E+01-3.43260E-02-9.86888E-01-1.68032E-13 3.81466E-15
 -1      3441-1.43218E+00 9.51276E+01-4.43810E-02-9.43864E-01 9.11562E-14-1.38847E-14
 -1      3442-2.09194E+00 9.59624E+01-5.36760E-02-7.67155E-01-1.34743E-13-9.66241E-16
 -1      3443-2.96350E+00 9.68081E+01-6.12005E-02-3.75477E-01-1.56104E-13 2.42462E-14
 -1      3444-3.96768E+00 9.76164E+01-1.00387E-02 3.62267E-01-8.76174E-14 1.92572E-14
 -1      3445-3.53727E-02 8.81632E+01-8.40662E-03-1.31714E-01 1.54793E-13 1.91409E-14
 -1      3446-7.35384E-02 8.87103E+01-4.54297E-03-2.31566E-01-3.13044E-13 1.65371E-14
 -1      3447-1.35710E-01 8.92861E+01-4.26889E-03-3.04194E-01 6.28501E-15-2.87981E-14
 -1      3448-2.16848E-01 8.98800E+01-4.44891E-03-3.60411E-01-5.66772E-14-9.63465E-15
 -1      3449-3.18075E-01 9.04842E+01-5.44156E-03-4.05887E-01-1.19390E-13 4.50681E-14
 -1      3450-4.43293E-01 9.10942E+01-7.07883E-03-4.41760E-01-1.95629E-13 3.09145E-14
 -1      3451-5.99242E-01 9.17078E+01-9.30513E-03-4.64752E-01-5.39256E-14-1.23252E-14
 -1      3452-7.95049E-01 9.23236E+01-1.20160E-02-4.66936E-01 1.33274E-13 4.41678E-14
 -1      3453-1.04168E+00 9.29399E+01-1.50090E-02-4.35075E-01-9.10834E-14 2.51604E-14
 -1      3454-1.35087E+00 9.35529E+01-1.78819E-02-3.49571E-01 1.58736E-13 2.22738E-14
 -1      3455-1.73307E+00 9.41528E+01-1.98370E-02-1.83125E-01-3.90139E-15-1.38136E-14
 -1      3456-2.19366E+00 9.47196E+01-1.96047E-02 1.00320E-01-1.93966E-13 3.11678E-14
 -1      3457-2.72631E+00 9.52159E+01-1.44134E-02 5.45967E-01 5.75755E-14-6.26582E-15
 -1      3458-3.30002E+00 9.55777E+01-1.82067E-03 1.20161E+00 4.62304E-14 4.76980E-14
 -1      3459-3.86649E+00 9.56924E+01 2.05653E-02 2.11653E+00 5.32491E-14 6.20337E-15
 -1      3460-4.52331E-02 8.82569E+01-9.89612E-03-9.88166E-02-1.04762E-13-2.92214E-14
 -1      3461-9.53183E-02 8.87766E+01-5.74184E-03-1.73467E-01 2.31061E-13 2.76099E-14
 -1      3462-1.75078E-01 8.93356E+01-4.93520E-03-2.26494E-01 4.28331E-14-1.43982E-14
 -1      3463-2.77410E-01 8.99187E+01-4.66447E-03-2.64737E-01-1.54672E-13-3.14661E-14
 -1      3464-4.01409E-01 9.05138E+01-5.17634E-03-2.90685E-01-1.26043E-13 4.71845E-15
 -1      3465-5.48894E-01 9.11128E+01-6.25418E-03-3.02798E-01 1.83302E-13-3.85195E-14
 -1      3466-7.24138E-01 9.17092E+01-7.75406E-03-2.95561E-01-3.16088E-13 2.74503E-14
 -1      3467-9.33033E-01 9.22977E+01-9.46567E-03-2.59323E-01 9.11450E-14-6.38725E-15
 -1      3468-1.18206E+00 9.28717E+01-1.10667E-02-1.79931E-01 1.16268E-13-9.01189E-15
 -1      3469-1.47673E+00 9.34216E+01-1.20302E-02-3.82781E-02-1.75999E-13 9.50108E-15
 -1      3470-1.81905E+00 9.39311E+01-1.15477E-02 1.89953E-01 6.83151E-14 2.84070E-14
 -1      3471-2.20381E+00 9.43736E+01-8.31050E-03 5.33841E-01 5.19394E-14-6.01300E-14
 -1      3472-2.61306E+00 9.47059E+01-8.98080E-04 1.02464E+00 1.72985E-13 2.84928E-15
 -1      3473-3.01469E+00 9.48602E+01 1.15740E-02 1.69053E+00-3.54512E-13-5.04978E-14
 -1      3474-3.35282E+00 9.47526E+01 2.97483E-02 2.55151E+00 1.60294E-13 2.38178E-14
 -1      3475-5.16476E-02 8.83210E+01-1.10574E-02-5.88360E-02 5.53531E-14 3.99611E-14
 -1      3476-1.09079E-01 8.88215E+01-6.55697E-03-1.02991E-01 8.48810E-14-5.53030E-15
 -1      3477-1.99267E-01 8.93679E+01-5.25109E-03-1.33191E-01 7.26578E-14-1.44103E-14
 -1      3478-3.13275E-01 8.99408E+01-4.52548E-03-1.52110E-01-1.34501E-13-4.68965E-14
 -1      3479-4.48136E-01 9.05249E+01-4.54650E-03-1.59018E-01 3.07439E-13-1.68771E-14
 -1      3480-6.03485E-01 9.11084E+01-5.05023E-03-1.49898E-01 2.75736E-14 3.30673E-14
 -1      3481-7.81007E-01 9.16818E+01-5.82842E-03-1.17472E-01 5.08105E-14 2.90566E-15
 -1      3482-9.83370E-01 9.22361E+01-6.60258E-03-5.11721E-02 3.55983E-14-1.58276E-14
 -1      3483-1.21296E+00 9.27609E+01-6.99248E-03 6.28915E-02-1.32494E-14 8.21392E-15
 -1      3484-1.47015E+00 9.32425E+01-6.46910E-03 2.41819E-01 1.33586E-13-2.69914E-14
 -1      3485-1.75101E+00 9.36610E+01-4.30660E-03 5.05359E-01 3.65662E-14-2.53604E-14
 -1      3486-2.04433E+00 9.39867E+01 3.39302E-04 8.74339E-01 8.58038E-14 1.71879E-14
 -1      3487-2.32898E+00 9.41767E+01 8.22456E-03 1.36751E+00-3.50544E-14-2.00274E-14
 -1      3488-2.57067E+00 9.41728E+01 1.98944E-02 1.99664E+00 1.22929E-13 4.39284E-14
 -1      3489-2.71488E+00 9.39025E+01 3.75831E-02 2.75983E+00 4.94396E-15-8.72913E-15
 -1      3490-5.44694E-02 8.83512E+01-1.15109E-02-1.48549E-02 1.23500E-13-6.86083E-14
 -1      3491-1.14776E-01 8.88425E+01-6.74310E-03-2.58133E-02-2.64276E-13 3.12458E-14
 -1      3492-2.08376E-01 8.93818E+01-5.02619E-03-3.21825E-02 1.65649E-13-5.03590E-15
 -1      3493-3.24813E-01 8.99469E+01-3.87871E-03-3.25006E-02 9.54957E-15 8.82419E-14
 -1      3494-4.59291E-01 9.05196E+01-3.43113E-03-2.29218E-02-3.06055E-14-3.10516E-15
 -1      3495-6.09415E-01 9.10856E+01-3.39422E-03 2.81744E-03-4.13403E-14 4.00287E-14
 -1      3496-7.74525E-01 9.16326E+01-3.52787E-03 5.33505E-02-1.54749E-14 1.21049E-14
 -1      3497-9.54522E-01 9.21490E+01-3.53132E-03 1.39564E-01 2.69164E-13-1.20650E-14
 -1      3498-1.14857E+00 9.26220E+01-3.03279E-03 2.74354E-01-5.74315E-14-1.47304E-14
 -1      3499-1.35349E+00 9.30357E+01-1.57151E-03 4.72095E-01 4.66942E-14-2.99405E-14
 -1      3500-1.56188E+00 9.33687E+01 1.38107E-03 7.47582E-01-1.16027E-13 1.09394E-14
 -1      3501-1.76014E+00 9.35923E+01 6.34554E-03 1.11408E+00 1.05474E-13-4.62724E-14
 -1      3502-1.92651E+00 9.36680E+01 1.37372E-02 1.58021E+00-1.37761E-14-4.99080E-15
 -1      3503-2.02906E+00 9.35476E+01 2.39261E-02 2.14547E+00-8.90538E-14-1.60531E-14
 -1      3504-2.02600E+00 9.31717E+01 3.67020E-02 2.79336E+00 1.93245E-13 1.03771E-14
 -1      3505-5.39632E-02 8.83450E+01-1.13729E-02 3.01431E-02 4.55731E-14 1.46601E-14
 -1      3506-1.12919E-01 8.88388E+01-6.36448E-03 5.25556E-02 6.89824E-14-1.22263E-14
 -1      3507-2.03409E-01 8.93781E+01-4.34739E-03 6.89285E-02 7.16553E-14 4.00999E-14
 -1      3508-3.13769E-01 8.99392E+01-2.84849E-03 8.46603E-02 1.30284E-13-9.17981E-14
 -1      3509-4.37757E-01 9.05019E+01-2.00818E-03 1.06554E-01 1.16982E-13 2.48152E-14
 -1      3510-5.71311E-01 9.10500E+01-1.53009E-03 1.42909E-01 4.50172E-14-3.95239E-14
 -1      3511-7.11903E-01 9.15696E+01-1.16863E-03 2.03435E-01-2.36604E-13 4.29986E-14
 -1      3512-8.57377E-01 9.20474E+01-6.32448E-04 2.99005E-01-9.27282E-14-9.46326E-14
 -1      3513-1.00473E+00 9.24693E+01 4.08284E-04 4.41221E-01 2.36481E-13 5.81713E-14
 -1      3514-1.14876E+00 9.28191E+01 2.31514E-03 6.41646E-01-1.17410E-13 2.84668E-14
 -1      3515-1.28064E+00 9.30762E+01 5.44694E-03 9.10559E-01 2.96152E-13 4.84725E-15
 -1      3516-1.38657E+00 9.32148E+01 1.00956E-02 1.25501E+00 5.50707E-14-1.76703E-15
 -1      3517-1.44677E+00 9.32029E+01 1.64204E-02 1.67600E+00 1.64001E-13 7.01808E-14
 -1      3518-1.43529E+00 9.30025E+01 2.42317E-02 2.16466E+00 1.78834E-13-3.81908E-14
 -1      3519-1.32179E+00 9.25717E+01 3.27219E-02 2.69700E+00 7.51083E-14 3.16309E-14
 -1      3520-5.04732E-02 8.83030E+01-1.06991E-02 7.34187E-02 1.56983E-13 7.07837E-14
 -1      3521-1.04272E-01 8.88115E+01-5.46576E-03 1.27039E-01-4.43888E-14-3.10099E-14
 -1      3522-1.85805E-01 8.93592E+01-3.26374E-03 1.63153E-01 1.78489E-13 6.44797E-14
 -1      3523-2.82548E-01 8.99214E+01-1.50810E-03 1.90831E-01-6.73441E-15 3.22312E-15
 -1      3524-3.87259E-01 9.04769E+01-3.83465E-04 2.19661E-01-4.29965E-14-2.46851E-15
 -1      3525-4.94700E-01 9.10085E+01 4.00865E-04 2.59835E-01 2.31303E-13-1.15047E-14
 -1      3526-6.01085E-01 9.15014E+01 1.07796E-03 3.21999E-01 6.77863E-14-2.84252E-14
 -1      3527-7.02997E-01 9.19417E+01 1.91282E-03 4.16919E-01-6.91513E-14-1.70922E-14
 -1      3528-7.96312E-01 9.23156E+01 3.18066E-03 5.54935E-01-7.12390E-14 6.75675E-16
 -1      3529-8.75107E-01 9.26076E+01 5.14961E-03 7.45119E-01 5.20144E-14 1.10875E-14
 -1      3530-9.30632E-01 9.27996E+01 8.04292E-03 9.94046E-01-6.95277E-14-2.60542E-14
 -1      3531-9.50525E-01 9.28699E+01 1.19813E-02 1.30406E+00-9.04060E-14-5.30272E-15
 -1      3532-9.18549E-01 9.27936E+01 1.68956E-02 1.67098E+00 3.19302E-14-9.29075E-15
 -1      3533-8.15327E-01 9.25434E+01 2.23373E-02 2.08119E+00-2.18317E-13-6.69777E-15
 -1      3534-6.20525E-01 9.20928E+01 2.74624E-02 2.50849E+00 1.81809E-13 6.56072E-15
 -1      3535-4.44004E-02 8.82279E+01-9.56292E-03 1.12546E-01 6.16751E-14-1.77514E-14
 -1      3536-8.97051E-02 8.87640E+01-4.10239E-03 1.93117E-01-2.08390E-13-1.80723E-14
 -1      3537-1.57179E-01 8.93292E+01-1.82868E-03 2.44271E-01-5.24381E-14 3.85941E-14
 -1      3538-2.33757E-01 8.98985E+01 7.75340E-05 2.78491E-01-1.08413E-13-4.10522E-14
 -1      3539-3.11684E-01 9.04507E+01 1.35965E-03 3.08012E-01-1.56888E-14 4.92315E-14
 -1      3540-3.85093E-01 9.09682E+01 2.29826E-03 3.44855E-01-8.63289E-14 2.06692E-14
 -1      3541-4.49595E-01 9.14362E+01 3.10563E-03 4.00600E-01 6.79231E-14-1.68737E-14
 -1      3542-5.01295E-01 9.18416E+01 4.01564E-03 4.85983E-01-9.30853E-14-2.10248E-15
 -1      3543-5.35880E-01 9.21716E+01 5.25191E-03 6.10327E-01 1.64303E-13 1.65111E-14
 -1      3544-5.47745E-01 9.24125E+01 7.00580E-03 7.80730E-01 1.21709E-13 3.58116E-14
 -1      3545-5.29288E-01 9.25496E+01 9.39955E-03 1.00099E+00-3.61655E-14-5.53615E-14
 -1      3546-4.70544E-01 9.25661E+01 1.24330E-02 1.27019E+00-1.77506E-14 7.31370E-14
 -1      3547-3.59366E-01 9.24442E+01 1.59144E-02 1.58103E+00 3.22803E-13 8.27897E-16
 -1      3548-1.82508E-01 9.21662E+01 1.93409E-02 1.91795E+00-1.10585E-13 2.61388E-14
 -1      3549 7.23047E-02 9.17179E+01 2.20013E-02 2.25547E+00-1.88603E-13-5.48546E-14
 -1      3550-3.61324E-02 8.81243E+01-8.03154E-03 1.45430E-01-9.77126E-15-3.02154E-14
 -1      3551-7.00557E-02 8.87011E+01-2.32295E-03 2.46845E-01 6.25383E-14-2.63643E-14
 -1      3552-1.19053E-01 8.92933E+01-8.33650E-05 3.06837E-01 1.44289E-13 4.26985E-14
 -1      3553-1.69806E-01 8.98765E+01 1.86364E-03 3.41094E-01 2.18622E-13-5.67515E-14
 -1      3554-2.14529E-01 9.04297E+01 3.16901E-03 3.64441E-01-1.84892E-13-5.85920E-14
 -1      3555-2.47281E-01 9.09361E+01 4.10620E-03 3.90749E-01 1.09686E-13-3.84224E-14
 -1      3556-2.63719E-01 9.13818E+01 4.86688E-03 4.32624E-01 1.59710E-13 1.68702E-14
 -1      3557-2.60202E-01 9.17551E+01 5.65820E-03 5.00969E-01-5.54591E-15 3.91076E-14
 -1      3558-2.33005E-01 9.20452E+01 6.66294E-03 6.04427E-01-4.75297E-14-5.94065E-14
 -1      3559-1.77625E-01 9.22412E+01 8.01647E-03 7.48684E-01 5.70420E-14 4.32640E-15
 -1      3560-8.82991E-02 9.23322E+01 9.77350E-03 9.35622E-01 1.49006E-13 6.07153E-16
 -1      3561 4.21136E-02 9.23065E+01 1.18666E-02 1.16230E+00 7.04888E-14-5.76631E-14
 -1      3562 2.21734E-01 9.21528E+01 1.40645E-02 1.41987E+00 1.57461E-14-7.01403E-15
 -1      3563 4.58555E-01 9.18616E+01 1.59030E-02 1.69257E+00 2.53434E-13 1.59287E-14
 -1      3564 7.58704E-01 9.14276E+01 1.68516E-02 1.95711E+00 1.24126E-13 1.29931E-15
 -1      3565-2.59947E-02 8.79988E+01-6.15950E-03 1.70277E-01-3.70186E-14-5.58928E-15
 -1      3566-4.60137E-02 8.86294E+01-1.63219E-04 2.84794E-01-4.20146E-14-2.99205E-14
 -1      3567-7.26604E-02 8.92581E+01 1.94645E-03 3.46065E-01-3.49345E-13-3.55653E-14
 -1      3568-9.26002E-02 8.98619E+01 3.82493E-03 3.72900E-01-8.87012E-14 5.13201E-14
 -1      3569-9.84847E-02 9.04207E+01 5.01743E-03 3.82738E-01-2.02176E-13 6.00214E-16
 -1      3570-8.48442E-02 9.09190E+01 5.79992E-03 3.91412E-01 1.05546E-13 5.27356E-16
 -1      3571-4.80008E-02 9.13449E+01 6.35068E-03 4.12721E-01-5.07451E-13-3.49026E-14
 -1      3572 1.47789E-02 9.16886E+01 6.86045E-03 4.57971E-01 2.17910E-13 2.41786E-14
 -1      3573 1.05987E-01 9.19422E+01 7.48577E-03 5.35476E-01-9.21745E-14 4.56250E-14
 -1      3574 2.28463E-01 9.20982E+01 8.32704E-03 6.50022E-01 1.84557E-13 2.15305E-14
 -1      3575 3.85742E-01 9.21496E+01 9.40131E-03 8.02274E-01 3.96246E-14-6.79925E-15
 -1      3576 5.82053E-01 9.20899E+01 1.06145E-02 9.88168E-01-1.47658E-13 2.10322E-14
 -1      3577 8.21871E-01 9.19135E+01 1.17430E-02 1.19834E+00 6.81902E-14 8.12610E-15
 -1      3578 1.10893E+00 9.16173E+01 1.23973E-02 1.41777E+00-1.65843E-13-2.14841E-14
 -1      3579 1.44485E+00 9.12026E+01 1.22123E-02 1.62589E+00 2.69056E-15 1.99710E-14
 -1      3580-1.42105E-02 8.78598E+01-3.98094E-03 1.85528E-01-9.32240E-15 3.97390E-14
 -1      3581-1.80373E-02 8.85568E+01 2.35978E-03 3.03913E-01 3.31300E-14-3.71092E-14
 -1      3582-1.87908E-02 8.92314E+01 4.25289E-03 3.57640E-01-1.32697E-13 7.21610E-14
 -1      3583-3.31831E-03 8.98623E+01 5.95384E-03 3.68699E-01 3.56546E-14 3.11001E-14
 -1      3584 3.48474E-02 9.04308E+01 6.89576E-03 3.57298E-01-1.84176E-13-3.51767E-14
 -1      3585 1.00167E-01 9.09236E+01 7.37296E-03 3.41416E-01 1.79373E-13 4.91412E-14
 -1      3586 1.95058E-01 9.13311E+01 7.56329E-03 3.36254E-01 6.87957E-14 2.08861E-14
 -1      3587 3.20757E-01 9.16468E+01 7.65530E-03 3.53755E-01-4.62809E-13-6.57634E-14
 -1      3588 4.77996E-01 9.18659E+01 7.79493E-03 4.02198E-01 1.21222E-13-2.06935E-14
 -1      3589 6.67555E-01 9.19848E+01 8.06610E-03 4.85844E-01-8.53137E-14 6.71425E-14
 -1      3590 8.90560E-01 9.20009E+01 8.47028E-03 6.04631E-01-2.79424E-13 1.39255E-14
 -1      3591 1.14845E+00 9.19122E+01 8.91128E-03 7.53934E-01 1.02050E-13 3.13304E-14
 -1      3592 1.44254E+00 9.17181E+01 9.19358E-03 9.24440E-01 1.64372E-13-2.29851E-15
 -1      3593 1.77326E+00 9.14205E+01 9.00509E-03 1.10226E+00 6.08714E-15 2.29313E-14
 -1      3594 2.13907E+00 9.10254E+01 8.11266E-03 1.26945E+00-1.51820E-13-1.64959E-14
 -1      3595-8.70941E-04 8.77168E+01-1.50368E-03 1.89753E-01-1.83633E-14-3.62800E-14
 -1      3596 1.37147E-02 8.84925E+01 5.25257E-03 3.01339E-01 2.01024E-14 2.13232E-14
 -1      3597 4.23264E-02 8.92220E+01 6.84716E-03 3.37441E-01-3.19454E-13 9.64159E-15
 -1      3598 9.77645E-02 8.98857E+01 8.25725E-03 3.23482E-01 1.97660E-13-6.51215E-15
 -1      3599 1.85168E-01 9.04671E+01 8.80457E-03 2.82725E-01 1.08676E-13 2.98442E-14
 -1      3600 3.07443E-01 9.09556E+01 8.82412E-03 2.35563E-01 3.13161E-14-4.16334E-16
 -1      3601 4.65160E-01 9.13451E+01 8.51126E-03 1.98814E-01-1.08647E-13-1.61208E-14
 -1      3602 6.57507E-01 9.16327E+01 8.06903E-03 1.85248E-01 1.24151E-13-7.05339E-15
 -1      3603 8.83008E-01 9.18176E+01 7.64764E-03 2.03287E-01 3.87190E-14 4.81542E-14
 -1      3604 1.14011E+00 9.19006E+01 7.32831E-03 2.56873E-01 7.21940E-14-7.64180E-14
 -1      3605 1.42747E+00 9.18830E+01 7.10997E-03 3.45463E-01-3.44221E-14 9.61037E-16
 -1      3606 1.74397E+00 9.17673E+01 6.90477E-03 4.64130E-01 7.11514E-14 5.54400E-14
 -1      3607 2.08832E+00 9.15572E+01 6.54846E-03 6.03808E-01 1.16462E-13 5.47184E-14
 -1      3608 2.45845E+00 9.12584E+01 5.79347E-03 7.51734E-01-6.60201E-14 2.20245E-15
 -1      3609 2.85071E+00 9.08800E+01 4.50200E-03 8.92216E-01-1.11557E-13 2.83772E-14
 -1      3610 1.40925E-02 8.75811E+01 1.29656E-03 1.81529E-01-6.60496E-15-2.96187E-14
 -1      3611 4.94440E-02 8.84475E+01 8.54992E-03 2.74166E-01-1.23322E-13 3.75255E-14
 -1      3612 1.11131E-01 8.92399E+01 9.76023E-03 2.81222E-01 8.26956E-14-9.02750E-14
 -1      3613 2.11429E-01 8.99410E+01 1.07522E-02 2.32047E-01-2.81525E-13 3.45557E-15
 -1      3614 3.53665E-01 9.05369E+01 1.07451E-02 1.53412E-01 1.22593E-14-1.98314E-14
 -1      3615 5.38598E-01 9.10207E+01 1.01445E-02 6.84519E-02 1.70575E-13 7.34655E-14
 -1      3616 7.64337E-01 9.13905E+01 9.18636E-03-4.19107E-03-1.47972E-15-3.12996E-14
 -1      3617 1.02748E+00 9.16480E+01 8.10639E-03-5.08348E-02 2.22881E-13 1.04118E-14
 -1      3618 1.32393E+00 9.17970E+01 7.07143E-03-6.28893E-02-3.30359E-13 8.99107E-15
 -1      3619 1.64962E+00 9.18426E+01 6.16783E-03-3.67268E-02-2.31690E-14 2.98355E-14
 -1      3620 2.00078E+00 9.17907E+01 5.39597E-03 2.66290E-02 1.57270E-13-2.55690E-14
 -1      3621 2.37400E+00 9.16477E+01 4.67593E-03 1.21939E-01-2.42698E-13-9.19317E-15
 -1      3622 2.76593E+00 9.14208E+01 3.86708E-03 2.40300E-01-1.25757E-13-2.62915E-14
 -1      3623 3.17272E+00 9.11186E+01 2.76718E-03 3.69837E-01-2.49391E-13-2.95137E-14
 -1      3624 3.58947E+00 9.07524E+01 1.30087E-03 4.96594E-01 2.49727E-13 1.12637E-14
 -1      3625 3.09391E-02 8.74655E+01 4.48293E-03 1.59291E-01 7.14108E-14-3.60857E-14
 -1      3626 8.97826E-02 8.84340E+01 1.23204E-02 2.19153E-01 1.53921E-13 8.44012E-14
 -1      3627 1.88855E-01 8.92964E+01 1.30434E-02 1.84219E-01-1.03115E-13-1.12028E-13
 -1      3628 3.39686E-01 9.00376E+01 1.34604E-02 8.85637E-02-4.73753E-14 3.39902E-14
 -1      3629 5.43215E-01 9.06474E+01 1.27085E-02-3.69069E-02 1.20268E-14-2.18818E-14
 -1      3630 7.97363E-01 9.11236E+01 1.13037E-02-1.65922E-01 8.90104E-14-3.50067E-14
 -1      3631 1.09709E+00 9.14696E+01 9.55168E-03-2.77876E-01-9.87231E-14 4.03011E-14
 -1      3632 1.43581E+00 9.16926E+01 7.73896E-03-3.58231E-01 1.11924E-13-4.22613E-14
 -1      3633 1.80649E+00 9.18016E+01 6.05724E-03-3.98407E-01-4.59667E-14-4.38018E-14
 -1      3634 2.20235E+00 9.18066E+01 4.59835E-03-3.95323E-01 1.82805E-13-2.73618E-14
 -1      3635 2.61732E+00 9.17177E+01 3.35925E-03-3.50719E-01-1.57548E-13-2.38802E-14
 -1      3636 3.04605E+00 9.15450E+01 2.25878E-03-2.70388E-01 1.23297E-13 3.56052E-14
 -1      3637 3.48363E+00 9.12986E+01 1.16594E-03-1.63349E-01 2.83072E-14-3.81240E-14
 -1      3638 3.92511E+00 9.09896E+01-9.69954E-05-4.09725E-02 2.06259E-14-2.93029E-14
 -1      3639 4.36501E+00 9.06301E+01-1.57022E-03 8.39749E-02-5.10217E-14-1.54566E-14
 -1      3640 5.01628E-02 8.73847E+01 8.16731E-03 1.21141E-01 1.73733E-15 3.45279E-14
 -1      3641 1.35890E-01 8.84663E+01 1.66739E-02 1.32379E-01-5.15334E-14-3.26544E-14
 -1      3642 2.77692E-01 8.94040E+01 1.67683E-02 4.06991E-02-1.11519E-13 5.27842E-14
 -1      3643 4.86018E-01 9.01859E+01 1.64004E-02-1.13930E-01-1.37151E-13-3.56763E-14
 -1      3644 7.58672E-01 9.08061E+01 1.46620E-02-2.95621E-01 4.17687E-14 2.74294E-14
 -1      3645 1.08987E+00 9.12686E+01 1.22343E-02-4.74546E-01 5.16288E-14-3.75602E-14
 -1      3646 1.47059E+00 9.15836E+01 9.52725E-03-6.28119E-01 1.46865E-13-4.20393E-14
 -1      3647 1.89048E+00 9.17648E+01 6.89557E-03-7.41223E-01-3.12597E-13 1.97654E-14
 -1      3648 2.33915E+00 9.18274E+01 4.55641E-03-8.05733E-01 5.99763E-14 3.52635E-14
 -1      3649 2.80708E+00 9.17863E+01 2.59762E-03-8.19608E-01-1.91486E-13-8.20698E-15
 -1      3650 3.28610E+00 9.16561E+01 9.98254E-04-7.85780E-01-3.07514E-13 4.09030E-14
 -1      3651 3.76931E+00 9.14499E+01-3.40576E-04-7.11025E-01-2.12851E-14-6.05809E-14
 -1      3652 4.25079E+00 9.11805E+01-1.55816E-03-6.04891E-01 1.11300E-14 3.03976E-14
 -1      3653 4.72509E+00 9.08601E+01-2.82761E-03-4.78688E-01 1.96600E-13 3.28600E-15
 -1      3654 5.18674E+00 9.05020E+01-4.17531E-03-3.44516E-01-2.23738E-13 2.32960E-14
 -1      3655 7.25619E-02 8.73558E+01 1.25256E-02 6.46161E-02-7.39027E-14-3.57839E-14
 -1      3656 1.89606E-01 8.85611E+01 2.17720E-02 8.79800E-03-2.22440E-13-2.36755E-14
 -1      3657 3.81057E-01 8.95775E+01 2.10261E-02-1.56623E-01-6.94184E-14 5.09245E-14
 -1      3658 6.55746E-01 9.03969E+01 1.95746E-02-3.84120E-01-2.86517E-13-2.11636E-15
 -1      3659 1.00729E+00 9.10200E+01 1.65287E-02-6.31747E-01-7.10439E-14-1.82458E-14
 -1      3660 1.42506E+00 9.14588E+01 1.28099E-02-8.65729E-01-8.38184E-14 7.68829E-15
 -1      3661 1.89507E+00 9.17319E+01 8.97399E-03-1.06170E+00-1.35062E-13-2.94834E-14
 -1      3662 2.40246E+00 9.18611E+01 5.45429E-03-1.20459E+00 5.70551E-14 1.42872E-14
 -1      3663 2.93319E+00 9.18683E+01 2.48140E-03-1.28750E+00-3.49987E-13-3.05415E-14
 -1      3664 3.47505E+00 9.17740E+01 1.15906E-04-1.31024E+00-7.18418E-14 2.34708E-15
 -1      3665 4.01807E+00 9.15967E+01-1.70664E-03-1.27763E+00-1.24199E-13-1.88322E-14
 -1      3666 4.55431E+00 9.13524E+01-3.12598E-03-1.19800E+00-2.72012E-13-5.17641E-15
 -1      3667 5.07747E+00 9.10557E+01-4.30945E-03-1.08194E+00 6.20684E-14-3.78343E-15
 -1      3668 5.58221E+00 9.07198E+01-5.44292E-03-9.41115E-01-9.28736E-14 7.76115E-15
 -1      3669 6.06364E+00 9.03578E+01-6.55438E-03-7.87420E-01-2.55771E-13-3.68108E-15
 -1      3670 9.93555E-02 8.73989E+01 1.78231E-02-1.36280E-02 8.29376E-14 1.69309E-14
 -1      3671 2.53696E-01 8.87378E+01 2.78439E-02-1.58351E-01 3.34715E-14-8.39606E-15
 -1      3672 5.04006E-01 8.98332E+01 2.59229E-02-4.17315E-01 1.01565E-13 2.65274E-14
 -1      3673 8.56598E-01 9.06827E+01 2.29463E-02-7.33128E-01 1.81598E-13 6.18047E-14
 -1      3674 1.29940E+00 9.12958E+01 1.81557E-02-1.05647E+00 2.00680E-13-9.20444E-15
 -1      3675 1.81537E+00 9.16956E+01 1.28168E-02-1.34937E+00-2.24435E-13 2.50494E-14
 -1      3676 2.38429E+00 9.19116E+01 7.67507E-03-1.58631E+00 3.33483E-14 5.32525E-14
 -1      3677 2.98608E+00 9.19753E+01 3.23698E-03-1.75334E+00 2.65413E-15-1.12757E-14
 -1      3678 3.60281E+00 9.19160E+01-2.88142E-04-1.84609E+00-8.21669E-14-2.67286E-14
 -1      3679 4.21982E+00 9.17599E+01-2.91020E-03-1.86730E+00-3.26232E-14-2.76047E-14
 -1      3680 4.82584E+00 9.15291E+01-4.77542E-03-1.82461E+00 1.27797E-13-2.28810E-14
 -1      3681 5.41260E+00 9.12419E+01-6.09284E-03-1.72860E+00 2.34306E-13 1.23911E-14
 -1      3682 5.97412E+00 9.09139E+01-7.07702E-03-1.59135E+00 4.97415E-14-2.29001E-14
 -1      3683 6.50584E+00 9.05586E+01-7.93939E-03-1.42531E+00 1.90299E-14-6.40113E-16
 -1      3684 7.00397E+00 9.01885E+01-8.71842E-03-1.24247E+00 2.11924E-13 6.29921E-15
 -1      3685 1.32377E-01 8.75386E+01 2.44561E-02-1.18274E-01 1.58001E-13-1.49464E-14
 -1      3686 3.32257E-01 8.90200E+01 3.52078E-02-3.78377E-01 3.59365E-13-1.05402E-14
 -1      3687 6.53902E-01 9.01902E+01 3.15652E-02-7.54228E-01-1.49873E-13-5.05498E-14
 -1      3688 1.09961E+00 9.10556E+01 2.63973E-02-1.17540E+00 1.31901E-13-3.63529E-14
 -1      3689 1.64936E+00 9.16388E+01 1.92630E-02-1.58368E+00 2.23922E-13 3.99680E-14
 -1      3690 2.27759E+00 9.19779E+01 1.19134E-02-1.93709E+00-3.45387E-13-5.44079E-14
 -1      3691 2.95631E+00 9.21168E+01 5.31642E-03-2.21026E+00 2.02935E-13-5.40262E-14
 -1      3692 3.65946E+00 9.20980E+01 1.04440E-05-2.39222E+00-2.36103E-13-4.25458E-14
 -1      3693 4.36528E+00 9.19594E+01-3.88991E-03-2.48290E+00 7.85275E-14 3.54820E-14
 -1      3694 5.05716E+00 9.17321E+01-6.53552E-03-2.48954E+00-1.21174E-13 7.05165E-15
 -1      3695 5.72342E+00 9.14414E+01-8.20551E-03-2.42362E+00 2.61097E-13 1.35551E-14
 -1      3696 6.35637E+00 9.11069E+01-9.20827E-03-2.29867E+00-1.11897E-13-5.48572E-14
 -1      3697 6.95118E+00 9.07445E+01-9.81996E-03-2.12868E+00-3.18981E-14-1.52985E-14
 -1      3698 7.50478E+00 9.03670E+01-1.02828E-02-1.92710E+00 1.81129E-13-2.76350E-14
 -1      3699 8.01505E+00 8.99859E+01-1.06469E-02-1.70621E+00 2.26600E-13 2.46630E-14
 -1      3700 1.74413E-01 8.78056E+01 3.30233E-02-2.56032E-01 6.05072E-15 6.86812E-14
 -1      3701 4.31395E-01 8.94364E+01 4.42999E-02-6.64361E-01 1.01100E-14-3.25573E-14
 -1      3702 8.41499E-01 9.06704E+01 3.80245E-02-1.18488E+00 2.24612E-13 4.32571E-14
 -1      3703 1.40050E+00 9.15279E+01 2.96476E-02-1.72979E+00 8.39953E-14 7.41768E-15
 -1      3704 2.07708E+00 9.20516E+01 1.93608E-02-2.23054E+00-1.11279E-13-2.40571E-14
 -1      3705 2.83423E+00 9.23007E+01 9.57646E-03-2.64213E+00 4.93709E-13 6.58466E-14
 -1      3706 3.63439E+00 9.23370E+01 1.47272E-03-2.94188E+00-3.75502E-13 2.28290E-15
 -1      3707 4.44501E+00 9.22162E+01-4.49661E-03-3.12472E+00 6.07500E-15 2.00846E-14
 -1      3708 5.24096E+00 9.19842E+01-8.44636E-03-3.19741E+00-1.36505E-13-2.37900E-14
 -1      3709 6.00481E+00 9.16767E+01-1.07713E-02-3.17343E+00 5.46993E-14 5.67255E-16
 -1      3710 6.72575E+00 9.13207E+01-1.19421E-02-3.06928E+00 2.53554E-13-2.32800E-15
 -1      3711 7.39786E+00 9.09358E+01-1.23895E-02-2.90197E+00-2.94095E-13 9.50021E-15
 -1      3712 8.01850E+00 9.05371E+01-1.24541E-02-2.68760E+00 1.28599E-13 5.58668E-15
 -1      3713 8.58682E+00 9.01361E+01-1.24022E-02-2.44069E+00 1.93498E-13 1.64278E-15
 -1      3714 9.10286E+00 8.97425E+01-1.22878E-02-2.17376E+00 5.34885E-14-3.72710E-14
 -1      3715 2.29789E-01 8.82394E+01 4.44474E-02-4.36737E-01 2.69011E-13-2.08167E-15
 -1      3716 5.60371E-01 9.00227E+01 5.57085E-02-1.03505E+00-1.21392E-13-3.09683E-14
 -1      3717 1.08271E+00 9.12983E+01 4.52465E-02-1.73342E+00 3.81847E-14 5.85573E-14
 -1      3718 1.78187E+00 9.21103E+01 3.21051E-02-2.42093E+00-2.20254E-13-7.52870E-15
 -1      3719 2.61019E+00 9.25321E+01 1.76189E-02-3.01773E+00-2.60764E-14-3.34593E-14
 -1      3720 3.51528E+00 9.26527E+01 5.04195E-03-3.47867E+00-3.65659E-13-4.55712E-14
 -1      3721 4.44813E+00 9.25559E+01-4.38314E-03-3.78825E+00 8.18304E-14 8.48627E-15
 -1      3722 5.36978E+00 9.23115E+01-1.05433E-02-3.95163E+00 7.46417E-14 2.61388E-14
 -1      3723 6.25315E+00 9.19726E+01-1.40045E-02-3.98562E+00-8.45574E-14 1.94237E-14
 -1      3724 7.08190E+00 9.15776E+01-1.55341E-02-3.91196E+00 1.36488E-14 2.08167E-15
 -1      3725 7.84792E+00 9.11529E+01-1.58423E-02-3.75299E+00-2.08580E-13-1.53523E-14
 -1      3726 8.54864E+00 9.07168E+01-1.54832E-02-3.52945E+00 1.59855E-13 1.10112E-14
 -1      3727 9.18466E+00 9.02822E+01-1.48424E-02-3.25947E+00-1.41897E-13 1.18733E-14
 -1      3728 9.75812E+00 8.98583E+01-1.41883E-02-2.95835E+00-3.40589E-13-4.11793E-14
 -1      3729 1.02716E+01 8.94525E+01-1.35608E-02-2.63863E+00-1.69188E-13 1.21032E-14
 -1      3730 3.05461E-01 8.88930E+01 6.02054E-02-6.75194E-01 2.19512E-14-7.93809E-15
 -1      3731 7.33609E-01 9.08240E+01 7.01840E-02-1.51787E+00-9.77031E-14-3.86843E-14
 -1      3732 1.40156E+00 9.21004E+01 5.28444E-02-2.43351E+00-3.44863E-14 7.92630E-14
 -1      3733 2.27665E+00 9.28084E+01 3.25781E-02-3.28066E+00 1.92138E-14-7.90062E-14
 -1      3734 3.28720E+00 9.30696E+01 1.26814E-02-3.96920E+00 1.95274E-13 2.06155E-14
 -1      3735 4.36044E+00 9.30131E+01-2.73264E-03-4.46017E+00-1.44669E-13-1.28439E-14
 -1      3736 5.43451E+00 9.27491E+01-1.28055E-02-4.75284E+00 2.51840E-13-1.34372E-14
 -1      3737 6.46553E+00 9.23602E+01-1.82650E-02-4.86869E+00-1.46695E-13-1.49464E-14
 -1      3738 7.42736E+00 9.19037E+01-2.04369E-02-4.83828E+00 2.66245E-13 1.14422E-14
 -1      3739 8.30783E+00 9.14170E+01-2.05785E-02-4.69321E+00-3.39097E-13-3.39954E-14
 -1      3740 9.10404E+00 9.09237E+01-1.96390E-02-4.46201E+00-1.12181E-13 1.58007E-14
 -1      3741 9.81846E+00 9.04387E+01-1.82502E-02-4.16877E+00 1.34948E-13 6.58241E-15
 -1      3742 1.04561E+01 8.99710E+01-1.67934E-02-3.83306E+00 3.61780E-13 1.46393E-14
 -1      3743 1.10225E+01 8.95270E+01-1.54986E-02-3.47037E+00 3.11681E-13-2.09134E-14
 -1      3744 1.15231E+01 8.91113E+01-1.43662E-02-3.09273E+00-3.28453E-14 4.54628E-15
 -1      3745 4.13068E-01 8.98397E+01 8.26822E-02-9.94440E-01 1.18565E-13 6.88616E-14
 -1      3746 9.74302E-01 9.18973E+01 8.86092E-02-2.15389E+00-5.55250E-14-1.80966E-14
 -1      3747 1.83517E+00 9.31026E+01 5.95652E-02-3.33227E+00 1.93248E-13-4.47420E-14
 -1      3748 2.93345E+00 9.36174E+01 2.87789E-02-4.34913E+00 1.09364E-13-4.45061E-14
 -1      3749 4.16196E+00 9.36386E+01 2.43255E-03-5.11028E+00 8.86860E-14 1.18378E-14
 -1      3750 5.42174E+00 9.33484E+01-1.49844E-02-5.59579E+00 2.89699E-14-3.45557E-15
 -1      3751 6.63850E+00 9.28830E+01-2.41627E-02-5.83171E+00-1.37161E-13-4.36456E-15
 -1      3752 7.76775E+00 9.23330E+01-2.74648E-02-5.86341E+00 1.11154E-13 1.31891E-14
 -1      3753 8.78960E+00 9.17538E+01-2.73049E-02-5.73854E+00-5.37348E-14-4.44193E-14
 -1      3754 9.70041E+00 9.11769E+01-2.54298E-02-5.49901E+00 1.15581E-13 2.30111E-15
 -1      3755 1.05054E+01 9.06199E+01-2.29187E-02-5.17874E+00 1.80848E-13-1.20086E-14
 -1      3756 1.12139E+01 9.00916E+01-2.03687E-02-4.80397E+00-1.82351E-13-5.22412E-15
 -1      3757 1.18358E+01 8.95968E+01-1.80738E-02-4.39451E+00-8.26006E-14-3.37907E-14
 -1      3758 1.23806E+01 8.91377E+01-1.61734E-02-3.96511E+00-5.08482E-14-8.88222E-15
 -1      3759 1.28565E+01 8.87160E+01-1.45996E-02-3.52660E+00-9.73284E-14-2.06213E-14
 -1      3760 5.73250E-01 9.11855E+01 1.16242E-01-1.43175E+00 1.45758E-13-4.53804E-14
 -1      3761 1.32098E+00 9.33141E+01 1.11368E-01-3.00631E+00 1.19189E-13 2.03171E-14
 -1      3762 2.44237E+00 9.43216E+01 6.22546E-02-4.49555E+00-3.07879E-14-5.61218E-14
 -1      3763 3.82504E+00 9.45099E+01 1.63749E-02-5.67419E+00 1.15796E-13-1.54043E-15
 -1      3764 5.30955E+00 9.41910E+01-1.60320E-02-6.46243E+00 2.22600E-14-3.43336E-14
 -1      3765 6.76568E+00 9.36079E+01-3.27511E-02-6.88367E+00 3.31582E-13-2.19998E-14
 -1      3766 8.11203E+00 9.29144E+01-3.81502E-02-7.00766E+00-5.81479E-14-4.27575E-14
 -1      3767 9.31295E+00 9.21968E+01-3.73030E-02-6.91112E+00 1.76179E-13-1.76092E-14
 -1      3768 1.03631E+01 9.14988E+01-3.37168E-02-6.65971E+00 2.85577E-13-4.44089E-15
 -1      3769 1.12728E+01 9.08408E+01-2.93487E-02-6.30391E+00-3.43066E-13-3.24706E-14
 -1      3770 1.20583E+01 9.02302E+01-2.51356E-02-5.88049E+00 1.72196E-13-1.08884E-14
 -1      3771 1.27364E+01 8.96687E+01-2.14635E-02-5.41562E+00 1.10162E-13-1.17714E-14
 -1      3772 1.33224E+01 8.91554E+01-1.84393E-02-4.92766E+00-8.06577E-14-1.89898E-14
 -1      3773 1.38292E+01 8.86883E+01-1.60612E-02-4.42944E+00 1.35812E-13-6.38020E-15
 -1      3774 1.42672E+01 8.82661E+01-1.41721E-02-3.92977E+00 1.06071E-13-1.43132E-15
 -1      3775 8.24069E-01 9.30901E+01 1.67132E-01-2.05109E+00-4.49640E-14-8.07687E-15
 -1      3776 1.84062E+00 9.51580E+01 1.37759E-01-4.17463E+00 6.90697E-14 2.67841E-15
 -1      3777 3.31848E+00 9.57447E+01 5.23935E-02-6.01339E+00 2.84855E-13-6.72587E-14
 -1      3778 5.06138E+00 9.54169E+01-1.17044E-02-7.30480E+00-2.21628E-14-5.33601E-15
 -1      3779 6.83293E+00 9.46459E+01-4.59347E-02-8.03107E+00-2.03781E-13-6.37407E-14
 -1      3780 8.47291E+00 9.37235E+01-5.56106E-02-8.29945E+00 2.37727E-14-3.67553E-14
 -1      3781 9.90931E+00 9.27939E+01-5.30315E-02-8.24262E+00 4.31551E-13-2.33407E-14
 -1      3782 1.11326E+01 9.19184E+01-4.59898E-02-7.97097E+00-2.13995E-14-2.34214E-14
 -1      3783 1.21630E+01 9.11181E+01-3.83007E-02-7.56394E+00-1.09059E-13-5.28006E-14
 -1      3784 1.30297E+01 9.03961E+01-3.14015E-02-7.07521E+00 2.40294E-13 9.21832E-15
 -1      3785 1.37608E+01 8.97480E+01-2.57018E-02-6.54011E+00 2.44985E-13-2.82541E-14
 -1      3786 1.43807E+01 8.91668E+01-2.11857E-02-5.98170E+00-2.47233E-14-2.94301E-14
 -1      3787 1.49088E+01 8.86460E+01-1.76958E-02-5.41494E+00 4.61523E-13 1.27717E-14
 -1      3788 1.53603E+01 8.81796E+01-1.50637E-02-4.84948E+00-1.12362E-13-2.33680E-14
 -1      3789 1.57470E+01 8.77635E+01-1.30426E-02-4.29141E+00-7.40033E-14-2.09075E-14
 -1      3790 1.24497E+00 9.58104E+01 2.54331E-01-2.96689E+00-1.86920E-13 1.44607E-14
 -1      3791 2.65096E+00 9.74998E+01 1.54377E-01-5.82022E+00-1.10328E-13 1.90403E-14
 -1      3792 4.62281E+00 9.72832E+01 1.39125E-02-7.99754E+00 7.34413E-14 5.79398E-14
 -1      3793 6.80844E+00 9.61982E+01-6.67000E-02-9.26980E+00-5.72709E-13 5.63716E-14
 -1      3794 8.86691E+00 9.48863E+01-8.67852E-02-9.78080E+00 1.06498E-13-8.95117E-15
 -1      3795 1.06305E+01 9.36182E+01-7.94601E-02-9.78025E+00-6.08083E-13 6.20008E-14
 -1      3796 1.20747E+01 9.24752E+01-6.47481E-02-9.47034E+00 9.13367E-14 2.49514E-14
 -1      3797 1.32426E+01 9.14721E+01-5.07587E-02-8.98425E+00-1.02564E-13 2.83914E-14
 -1      3798 1.41889E+01 9.05987E+01-3.93512E-02-8.40295E+00 2.16722E-13 7.41748E-14
 -1      3799 1.49621E+01 8.98379E+01-3.06190E-02-7.77465E+00 4.46240E-14 6.46705E-15
 -1      3800 1.56005E+01 8.91726E+01-2.40928E-02-7.12783E+00 3.88509E-14 3.81941E-14
 -1      3801 1.61331E+01 8.85878E+01-1.92676E-02-6.47923E+00-2.99254E-13-2.02095E-16
 -1      3802 1.65813E+01 8.80718E+01-1.57177E-02-5.83866E+00-2.67730E-13 3.12745E-14
 -1      3803 1.69611E+01 8.76156E+01-1.31307E-02-5.21165E+00-4.15293E-14 2.10244E-14
 -1      3804 1.72841E+01 8.72126E+01-1.11984E-02-4.60113E+00-2.19623E-13 2.95541E-14
 -1      3805 1.98934E+00 9.97352E+01 3.66354E-01-4.41367E+00 1.89848E-14 5.45120E-14
 -1      3806 3.97597E+00 1.00311E+02 1.40387E-01-8.18973E+00-2.77306E-13 1.10453E-13
 -1      3807 6.62309E+00 9.86713E+01-1.00468E-01-1.05541E+01 4.40065E-14 1.78815E-14
 -1      3808 9.31025E+00 9.66238E+01-1.49625E-01-1.15174E+01-3.73757E-13 4.81663E-14
 -1      3809 1.15683E+01 9.47850E+01-1.28407E-01-1.15978E+01-1.71918E-13 9.42605E-14
 -1      3810 1.33034E+01 9.32264E+01-9.44994E-02-1.12100E+01-3.44780E-13 6.17540E-14
 -1      3811 1.46195E+01 9.19285E+01-6.80600E-02-1.05951E+01-1.60545E-13 3.66577E-14
 -1      3812 1.56285E+01 9.08477E+01-4.89790E-02-9.87775E+00 2.68605E-14 5.40245E-14
 -1      3813 1.64162E+01 8.99404E+01-3.58112E-02-9.12253E+00-2.27415E-13 5.47305E-14
 -1      3814 1.70433E+01 8.91707E+01-2.67158E-02-8.36248E+00-2.15369E-13 4.12682E-14
 -1      3815 1.75518E+01 8.85106E+01-2.03937E-02-7.61442E+00-2.80269E-13 1.63012E-14
 -1      3816 1.79705E+01 8.79390E+01-1.59535E-02-6.88662E+00 1.73514E-13 5.78435E-14
 -1      3817 1.83198E+01 8.74403E+01-1.28069E-02-6.18273E+00-6.11320E-13 1.88400E-14
 -1      3818 1.86137E+01 8.70033E+01-1.05742E-02-5.50391E+00-2.01204E-13-5.03070E-15
 -1      3819 1.88625E+01 8.66201E+01-8.93995E-03-4.84985E+00-7.82638E-14 3.02397E-14
 -1      3820 3.47024E+00 1.05530E+02 6.56400E-01-6.81623E+00 1.07914E-13 4.07729E-14
 -1      3821 6.19971E+00 1.03079E+02-1.19427E-01-1.16581E+01-1.67089E-14-1.05541E-14
 -1      3822 9.78944E+00 9.93493E+01-2.92057E-01-1.36100E+01-1.07747E-13 6.07864E-14
 -1      3823 1.29109E+01 9.64877E+01-2.25918E-01-1.38143E+01 2.39780E-13 2.86689E-14
 -1      3824 1.50371E+01 9.42613E+01-1.37330E-01-1.32569E+01-7.64944E-14 1.91132E-14
 -1      3825 1.64797E+01 9.25259E+01-8.71930E-02-1.24239E+01-4.47004E-14 7.28584E-17
 -1      3826 1.74933E+01 9.11577E+01-5.59269E-02-1.15035E+01 8.69513E-14 7.02650E-14
 -1      3827 1.82328E+01 9.00591E+01-3.72981E-02-1.05753E+01-3.70343E-13 7.76462E-15
 -1      3828 1.87922E+01 8.91602E+01-2.56896E-02-9.67130E+00-3.12195E-13-3.59608E-15
 -1      3829 1.92285E+01 8.84113E+01-1.82825E-02-8.80357E+00 7.31359E-14 3.36311E-14
 -1      3830 1.95775E+01 8.77775E+01-1.34117E-02-7.97546E+00-2.09936E-13-1.40738E-14
 -1      3831 1.98625E+01 8.72341E+01-1.01334E-02-7.18650E+00-1.64861E-13-3.94997E-15
 -1      3832 2.00989E+01 8.67635E+01-7.88536E-03-6.43461E+00 1.06914E-13 3.25183E-14
 -1      3833 2.02972E+01 8.63536E+01-6.33259E-03-5.71700E+00 1.48836E-13 1.37286E-14
 -1      3834 2.04647E+01 8.59958E+01-5.21803E-03-5.03068E+00-1.97904E-13-3.55705E-15
 -1      3835 6.13705E+00 1.12785E+02 4.18946E-02-1.14324E+01-1.32672E-14 2.83107E-14
 -1      3836 1.00934E+01 1.03876E+02-6.68798E-01-1.61169E+01 1.10051E-13-5.78010E-15
 -1      3837 1.51081E+01 9.90523E+01-4.82820E-01-1.66165E+01-1.14020E-13 1.85824E-14
 -1      3838 1.77329E+01 9.57283E+01-1.99776E-01-1.56662E+01-4.24383E-14-1.24137E-14
 -1      3839 1.91423E+01 9.33191E+01-1.14363E-01-1.44644E+01 1.77969E-13 5.55112E-17
 -1      3840 1.99959E+01 9.15456E+01-6.55038E-02-1.32486E+01-4.35901E-13-2.16840E-15
 -1      3841 2.05526E+01 9.01939E+01-4.22574E-02-1.20948E+01-7.43502E-14-2.55455E-14
 -1      3842 2.09422E+01 8.91340E+01-2.91155E-02-1.10169E+01 4.90177E-13 1.07449E-14
 -1      3843 2.12294E+01 8.82804E+01-2.14561E-02-1.00125E+01-2.28061E-13-2.68223E-14
 -1      3844 2.14501E+01 8.75771E+01-1.66653E-02-9.07458E+00-2.41369E-13-2.33147E-15
 -1      3845 2.16251E+01 8.69867E+01-1.35252E-02-8.19558E+00-1.40929E-14-1.99511E-14
 -1      3846 2.17673E+01 8.64833E+01-1.13753E-02-7.36842E+00-3.80963E-13 3.84588E-15
 -1      3847 2.18849E+01 8.60492E+01-9.85195E-03-6.58689E+00-1.18225E-13-4.89539E-14
 -1      3848 2.19834E+01 8.56723E+01-8.74847E-03-5.84554E+00 2.70617E-14-2.69559E-14
 -1      3849 2.20665E+01 8.53441E+01-7.90931E-03-5.13960E+00 1.16237E-13-1.08941E-15
 -1      3850 9.68195E+00 1.13226E+02-1.41520E+00-1.74289E+01 4.75620E-13-9.81992E-14
 -1      3851 1.97201E+01 1.03406E+02-9.82225E-01-2.02144E+01 7.23588E-13-8.20871E-14
 -1      3852 2.25710E+01 9.81830E+01-2.25901E-02-1.83207E+01-2.44166E-13-8.15459E-14
 -1      3853 2.32112E+01 9.45583E+01-1.13357E-03-1.65770E+01 1.44620E-13-8.74856E-14
 -1      3854 2.34800E+01 9.21616E+01 4.18021E-02-1.49850E+01 1.93831E-13-9.62286E-14
 -1      3855 2.35832E+01 9.04457E+01 4.54264E-02-1.35784E+01 4.77202E-13-5.71210E-14
 -1      3856 2.36312E+01 8.91687E+01 4.59614E-02-1.23187E+01 8.01303E-14-4.91863E-14
 -1      3857 2.36541E+01 8.81803E+01 4.39027E-02-1.11780E+01 2.72421E-14-2.92058E-14
 -1      3858 2.36656E+01 8.73915E+01 4.14799E-02-1.01338E+01 4.53262E-13-1.12549E-14
 -1      3859 2.36715E+01 8.67455E+01 3.90489E-02-9.16909E+00 3.77851E-13-2.40537E-14
 -1      3860 2.36742E+01 8.62055E+01 3.68041E-02-8.27119E+00 1.42955E-13-1.99910E-14
 -1      3861 2.36751E+01 8.57464E+01 3.47803E-02-7.43012E+00 8.80962E-14-2.26607E-14
 -1      3862 2.36750E+01 8.53514E+01 3.29763E-02-6.63795E+00 4.32508E-13-2.39236E-14
 -1      3863 2.36741E+01 8.50090E+01 3.13736E-02-5.88821E+00 1.65840E-13-2.23797E-14
 -1      3864 2.36727E+01 8.47112E+01 2.99681E-02-5.17543E+00 4.65739E-14-4.18467E-14
 -1      3865 2.36695E+01 8.42290E+01 2.76347E-02-3.83959E+00-1.48253E-13-1.90212E-15
 -1      3866 2.21961E+01 8.48120E+01-6.85111E-03-3.81451E+00 2.43829E-13 9.74047E-15
 -1      3867 2.07259E+01 8.54140E+01-3.97374E-03-3.73715E+00-3.31922E-14 2.71970E-14
 -1      3868 1.92514E+01 8.59940E+01-7.05252E-03-3.60848E+00-2.16108E-13 1.92836E-14
 -1      3869 1.77912E+01 8.65488E+01-8.93476E-03-3.43087E+00 3.87711E-14-4.97345E-15
 -1      3870 1.63588E+01 8.70702E+01-1.06430E-02-3.20822E+00-6.32480E-14 1.06195E-14
 -1      3871 1.49671E+01 8.75520E+01-1.19172E-02-2.94565E+00 1.44419E-13 1.93275E-14
 -1      3872 1.36264E+01 8.79892E+01-1.27487E-02-2.64912E+00 3.63078E-14-4.05814E-15
 -1      3873 1.23448E+01 8.83787E+01-1.31303E-02-2.32497E+00-1.34389E-13-2.66974E-15
 -1      3874 1.11279E+01 8.87188E+01-1.30875E-02-1.97944E+00-3.28227E-13 6.91027E-15
 -1      3875 9.97877E+00 8.90096E+01-1.26619E-02-1.61828E+00 7.07906E-14 3.96991E-15
 -1      3876 8.89831E+00 8.92525E+01-1.18994E-02-1.24638E+00 1.42532E-13 2.23810E-14
 -1      3877 7.88524E+00 8.94503E+01-1.08405E-02-8.67576E-01-2.47743E-13-3.59834E-14
 -1      3878 6.93657E+00 8.96069E+01-9.50973E-03-4.84484E-01 1.70221E-13 6.78711E-15
 -1      3879 6.04773E+00 8.97276E+01-7.90849E-03-9.84700E-02 5.01925E-14-7.31533E-15
 -1      3880 5.21278E+00 8.98183E+01-6.00677E-03 2.90327E-01-7.28584E-16-2.58035E-14
 -1      3881 4.42451E+00 8.98867E+01-3.73513E-03 6.82887E-01 9.42788E-14 5.97786E-15
 -1      3882 3.67451E+00 8.99418E+01-9.74784E-04 1.08112E+00-2.00458E-13 1.00874E-15
 -1      3883 2.95302E+00 8.99945E+01 2.45466E-03 1.48758E+00 3.32130E-13-6.98660E-16
 -1      3884 2.24887E+00 9.00588E+01 6.80973E-03 1.90498E+00-2.60205E-13-3.21869E-14
 -1      3885 1.54922E+00 9.01523E+01 1.24381E-02 2.33554E+00 3.62800E-14 2.78033E-14
 -1      3886 8.39428E-01 9.02977E+01 1.97841E-02 2.77978E+00 1.88707E-13 3.10758E-14
 -1      3887 1.02950E-01 9.05248E+01 2.93835E-02 3.23473E+00-9.18848E-14-2.36096E-14
 -1      3888-6.78183E-01 9.08715E+01 4.17068E-02 3.69113E+00 7.00828E-15 3.49096E-14
 -1      3889-1.52155E+00 9.13866E+01 5.73890E-02 4.12910E+00 3.16691E-14-1.06096E-14
 -1      3890-2.44184E+00 9.21259E+01 7.36554E-02 4.51172E+00-1.72947E-13-1.51615E-15
 -1      3891-3.43266E+00 9.31591E+01 1.00662E-01 4.78084E+00 8.80442E-14 2.66454E-14
 -1      3892-4.52369E+00 9.44190E+01 2.66520E-02 4.82890E+00 8.62036E-14-1.69864E-14
 -1      3893 2.36679E+01 8.40392E+01 2.66957E-02-3.20846E+00 1.77559E-13-1.61286E-14
 -1      3894 2.22455E+01 8.46023E+01-6.53094E-03-3.18785E+00-2.33390E-13-3.24914E-15
 -1      3895 2.08256E+01 8.51843E+01-3.66302E-03-3.12391E+00 2.54845E-13 1.15389E-14
 -1      3896 1.93999E+01 8.57457E+01-6.55664E-03-3.01751E+00-5.96204E-13-1.73754E-14
 -1      3897 1.79854E+01 8.62838E+01-8.33661E-03-2.87048E+00-5.07580E-15-2.20442E-14
 -1      3898 1.65946E+01 8.67909E+01-1.00117E-02-2.68574E+00 1.11858E-13 2.41127E-14
 -1      3899 1.52390E+01 8.72607E+01-1.13424E-02-2.46708E+00-1.92998E-13 1.10789E-14
 -1      3900 1.39285E+01 8.76883E+01-1.23214E-02-2.21894E+00 2.38871E-14 7.53293E-15
 -1      3901 1.26711E+01 8.80698E+01-1.29349E-02-1.94603E+00-2.31724E-14-1.25091E-14
 -1      3902 1.14727E+01 8.84028E+01-1.31965E-02-1.65300E+00 1.78163E-13 1.85017E-14
 -1      3903 1.03371E+01 8.86864E+01-1.31342E-02-1.34410E+00-2.28859E-13 1.76172E-15
 -1      3904 9.26603E+00 8.89204E+01-1.27828E-02-1.02289E+00-1.71366E-13-7.31016E-14
 -1      3905 8.25950E+00 8.91063E+01-1.21752E-02-6.92018E-01-2.81025E-15 3.97647E-14
 -1      3906 7.31575E+00 8.92463E+01-1.13347E-02-3.53038E-01 4.35908E-13-2.90816E-15
 -1      3907 6.43154E+00 8.93435E+01-1.02661E-02-6.30299E-03-5.00579E-13 1.77490E-14
 -1      3908 5.60221E+00 8.94021E+01-8.94746E-03 3.49100E-01-6.17215E-14-6.84348E-15
 -1      3909 4.82180E+00 8.94273E+01-7.31929E-03 7.15382E-01-1.51885E-13 1.12508E-14
 -1      3910 4.08297E+00 8.94257E+01-5.27016E-03 1.09604E+00-4.12517E-15 2.28376E-15
 -1      3911 3.37687E+00 8.94056E+01-2.61669E-03 1.49580E+00 3.11973E-14 1.03372E-14
 -1      3912 2.69285E+00 8.93780E+01 9.24978E-04 1.92045E+00 1.49790E-13 1.17198E-14
 -1      3913 2.01802E+00 8.93577E+01 5.77972E-03 2.37657E+00 2.84148E-14-3.15633E-14
 -1      3914 1.33666E+00 8.93651E+01 1.25615E-02 2.87086E+00-4.69694E-14-2.62099E-14
 -1      3915 6.29467E-01 8.94284E+01 2.21535E-02 3.40896E+00-7.08773E-14 1.44208E-14
 -1      3916-1.27207E-01 8.95877E+01 3.56039E-02 3.99318E+00-8.25486E-14-1.28127E-14
 -1      3917-9.61319E-01 8.98991E+01 5.48388E-02 4.61835E+00-2.46693E-13 1.01065E-14
 -1      3918-1.90650E+00 9.04351E+01 7.72498E-02 5.26462E+00 3.30968E-13-3.42781E-15
 -1      3919-2.98356E+00 9.13028E+01 1.22796E-01 5.88254E+00-4.50668E-14-1.35170E-14
 -1      3920-4.25715E+00 9.25370E+01 6.89324E-02 6.36937E+00-6.42195E-15-3.69149E-15
 -1      3921 2.36665E+01 8.38819E+01 2.59238E-02-2.59757E+00-2.48562E-13-2.14199E-14
 -1      3922 2.22858E+01 8.44285E+01-6.27480E-03-2.58106E+00 1.76883E-13 3.23786E-15
 -1      3923 2.09069E+01 8.49935E+01-3.43447E-03-2.52961E+00-1.15311E-13 9.78688E-15
 -1      3924 1.95211E+01 8.55391E+01-6.19072E-03-2.44398E+00-1.08455E-14 1.37620E-14
 -1      3925 1.81443E+01 8.60627E+01-7.89597E-03-2.32555E+00-6.18949E-15 3.46966E-15
 -1      3926 1.67878E+01 8.65567E+01-9.54699E-03-2.17646E+00-2.23325E-13-1.71352E-14
 -1      3927 1.54627E+01 8.70150E+01-1.09225E-02-1.99950E+00 2.13718E-14-1.43652E-14
 -1      3928 1.41784E+01 8.74324E+01-1.20200E-02-1.79787E+00 1.29348E-13 8.25582E-15
 -1      3929 1.29427E+01 8.78048E+01-1.28251E-02-1.57500E+00 2.16084E-13 2.43102E-14
 -1      3930 1.17618E+01 8.81289E+01-1.33467E-02-1.33424E+00-1.81764E-14-5.01657E-14
 -1      3931 1.06400E+01 8.84027E+01-1.36074E-02-1.07862E+00 2.60798E-14 2.01334E-14
 -1      3932 9.57989E+00 8.86251E+01-1.36381E-02-8.10593E-01 2.18568E-13 1.84563E-14
 -1      3933 8.58246E+00 8.87959E+01-1.34722E-02-5.31817E-01-2.06751E-13-2.53459E-14
 -1      3934 7.64712E+00 8.89156E+01-1.31395E-02-2.42991E-01-9.06705E-14 1.67722E-14
 -1      3935 6.77187E+00 8.89855E+01-1.26587E-02 5.63141E-02 2.19654E-13-6.47317E-15
 -1      3936 5.95343E+00 8.90074E+01-1.20302E-02 3.67794E-01-1.96891E-13-2.50080E-14
 -1      3937 5.18723E+00 8.89837E+01-1.12259E-02 6.94548E-01-1.46518E-13-3.86674E-14
 -1      3938 4.46743E+00 8.89179E+01-1.01752E-02 1.04123E+00 1.93619E-13-5.68382E-15
 -1      3939 3.78667E+00 8.88143E+01-8.74336E-03 1.41422E+00-2.68795E-13-1.13512E-14
 -1      3940 3.13581E+00 8.86791E+01-6.69813E-03 1.82180E+00-7.84026E-14 1.13616E-14
 -1      3941 2.50338E+00 8.85212E+01-3.65639E-03 2.27433E+00 1.74964E-13-1.39038E-14
 -1      3942 1.87471E+00 8.83541E+01 9.96087E-04 2.78434E+00-1.49176E-13 1.99545E-14
 -1      3943 1.23076E+00 8.81984E+01 8.24841E-03 3.36633E+00-4.18936E-14-8.58341E-15
 -1      3944 5.46382E-01 8.80862E+01 1.95407E-02 4.03591E+00 2.16077E-14 1.48666E-14
 -1      3945-2.11406E-01 8.80681E+01 3.77079E-02 4.80749E+00 6.66446E-14-3.21201E-14
 -1      3946-1.08814E+00 8.82196E+01 6.28423E-02 5.68826E+00-2.71744E-13-1.21986E-14
 -1      3947-2.12698E+00 8.86793E+01 1.21611E-01 6.66568E+00 2.79766E-13 1.57235E-14
 -1      3948-3.46559E+00 8.95321E+01 8.81755E-02 7.68381E+00-1.07633E-13-4.98906E-14
 -1      3949 2.36652E+01 8.37563E+01 2.53017E-02-2.00321E+00 2.31828E-13-2.35922E-15
 -1      3950 2.23176E+01 8.42896E+01-6.09466E-03-1.99056E+00-2.76876E-13-1.73472E-16
 -1      3951 2.09710E+01 8.48411E+01-3.29741E-03-1.95100E+00-7.66991E-14 2.03752E-14
 -1      3952 1.96166E+01 8.53737E+01-5.96298E-03-1.88514E+00-3.64916E-13-2.92132E-14
 -1      3953 1.82696E+01 8.58852E+01-7.62400E-03-1.79401E+00 5.68295E-15 7.96867E-15
 -1      3954 1.69407E+01 8.63680E+01-9.26682E-03-1.67912E+00 1.23616E-13 1.21047E-14
 -1      3955 1.56402E+01 8.68161E+01-1.06855E-02-1.54245E+00-2.56250E-13-2.50560E-14
 -1      3956 1.43774E+01 8.72241E+01-1.18832E-02-1.38624E+00 9.95731E-16-4.53045E-15
 -1      3957 1.31601E+01 8.75874E+01-1.28480E-02-1.21288E+00-1.03379E-13 1.31745E-14
 -1      3958 1.19945E+01 8.79022E+01-1.35890E-02-1.02469E+00 1.00614E-16 3.01300E-14
 -1      3959 1.08856E+01 8.81657E+01-1.41284E-02-8.23714E-01-3.60850E-13 4.51670E-15
 -1      3960 9.83642E+00 8.83757E+01-1.44992E-02-6.11545E-01 1.08562E-13-1.50441E-14
 -1      3961 8.84889E+00 8.85307E+01-1.47409E-02-3.89110E-01 4.03937E-13 2.96788E-14
 -1      3962 7.92341E+00 8.86295E+01-1.48960E-02-1.56519E-01 4.32189E-14 1.03555E-14
 -1      3963 7.05915E+00 8.86716E+01-1.50052E-02 8.71160E-02 3.12042E-14 1.50325E-14
 -1      3964 6.25416E+00 8.86564E+01-1.51028E-02 3.43854E-01-2.28536E-13 2.49323E-15
 -1      3965 5.50535E+00 8.85836E+01-1.52102E-02 6.17132E-01 2.84987E-13 1.32344E-14
 -1      3966 4.80855E+00 8.84527E+01-1.53271E-02 9.12020E-01 2.46563E-13 4.37142E-14
 -1      3967 4.15838E+00 8.82634E+01-1.54162E-02 1.23556E+00-4.05925E-14-2.41040E-15
 -1      3968 3.54794E+00 8.80158E+01-1.53784E-02 1.59719E+00 1.09860E-13 1.12367E-14
 -1      3969 2.96841E+00 8.77106E+01-1.50075E-02 2.00935E+00-4.30867E-13-2.10821E-14
 -1      3970 2.40817E+00 8.73505E+01-1.39147E-02 2.48825E+00 3.21364E-13-1.22055E-14
 -1      3971 1.85155E+00 8.69418E+01-1.13658E-02 3.05474E+00-8.27810E-15 3.34455E-15
 -1      3972 1.27675E+00 8.64979E+01-6.13344E-03 3.73532E+00-1.95295E-13 1.46896E-14
 -1      3973 6.53070E-01 8.60466E+01 4.69619E-03 4.56267E+00-1.72626E-13 1.57825E-14
 -1      3974-6.57387E-02 8.56389E+01 2.25974E-02 5.57505E+00 3.15942E-13 2.05183E-14
 -1      3975-9.36801E-01 8.53886E+01 7.39452E-02 6.81114E+00-1.79613E-13 1.04014E-14
 -1      3976-2.11533E+00 8.53969E+01 5.91069E-02 8.30100E+00 1.92873E-13 2.51049E-14
 -1      3977 2.36643E+01 8.36622E+01 2.48335E-02-1.42168E+00-8.67084E-14-5.74280E-15
 -1      3978 2.23412E+01 8.41855E+01-5.97098E-03-1.41273E+00 3.36120E-14 1.31282E-14
 -1      3979 2.10186E+01 8.47267E+01-3.21669E-03-1.38469E+00 4.10838E-13 1.60265E-14
 -1      3980 1.96876E+01 8.52495E+01-5.82402E-03-1.33799E+00-7.27994E-14 1.99040E-14
 -1      3981 1.83627E+01 8.57516E+01-7.46005E-03-1.27335E+00-3.73260E-13-2.27796E-14
 -1      3982 1.70544E+01 8.62256E+01-9.10299E-03-1.19178E+00 2.10977E-14 8.75211E-15
 -1      3983 1.57726E+01 8.66654E+01-1.05588E-02-1.09457E+00 2.91284E-13 1.31123E-14
 -1      3984 1.45263E+01 8.70655E+01-1.18358E-02-9.83203E-01 4.82982E-14 2.67383E-15
 -1      3985 1.33234E+01 8.74209E+01-1.29259E-02-8.59241E-01-4.98525E-14-2.79555E-14
 -1      3986 1.21702E+01 8.77275E+01-1.38403E-02-7.24179E-01 3.75498E-14 9.29345E-15
 -1      3987 1.10719E+01 8.79817E+01-1.46039E-02-5.79306E-01 4.36345E-13-8.38590E-16
 -1      3988 1.00323E+01 8.81805E+01-1.52542E-02-4.25565E-01-9.70578E-14 1.49357E-14
 -1      3989 9.05387E+00 8.83212E+01-1.58397E-02-2.63404E-01-2.41203E-13-2.55581E-14
 -1      3990 8.13779E+00 8.84014E+01-1.64181E-02-9.26317E-02 5.55320E-14 1.70002E-14
 -1      3991 7.28426E+00 8.84187E+01-1.70550E-02 8.77308E-02 8.49321E-15 1.67146E-14
 -1      3992 6.49249E+00 8.83707E+01-1.78228E-02 2.79626E-01 3.06623E-13 1.07512E-14
 -1      3993 5.76078E+00 8.82540E+01-1.88002E-02 4.86170E-01 3.23699E-15-7.62303E-15
 -1      3994 5.08659E+00 8.80648E+01-2.00714E-02 7.11931E-01-3.24712E-13 1.71833E-14
 -1      3995 4.46658E+00 8.77981E+01-2.17240E-02 9.63315E-01 6.20407E-14 9.77864E-15
 -1      3996 3.89640E+00 8.74474E+01-2.38437E-02 1.24911E+00-7.11688E-14-6.04100E-14
 -1      3997 3.37047E+00 8.70044E+01-2.65000E-02 1.58124E+00 1.46615E-13 4.70171E-14
 -1      3998 2.88135E+00 8.64591E+01-2.97145E-02 1.97593E+00-1.00614E-16-2.54363E-14
 -1      3999 2.41882E+00 8.57995E+01-3.33772E-02 2.45525E+00 2.00950E-14-1.80880E-14
 -1      4000 1.96805E+00 8.50129E+01-3.71251E-02 3.04946E+00-1.83117E-14-5.49213E-15
 -1      4001 1.50686E+00 8.40885E+01-3.96473E-02 3.80021E+00 7.73964E-14 7.01522E-15
 -1      4002 9.99496E-01 8.30223E+01-3.98205E-02 4.76527E+00-6.31301E-14-2.79637E-15
 -1      4003 3.93820E-01 8.18407E+01-2.31215E-02 6.02299E+00-7.43502E-14-8.98587E-15
 -1      4004-4.29143E-01 8.05817E+01-3.03646E-02 7.68480E+00 8.57647E-15-3.30985E-14
 -1      4005 2.36636E+01 8.35994E+01 2.45202E-02-8.49335E-01 1.57065E-13-2.61119E-15
 -1      4006 2.23569E+01 8.41161E+01-5.89418E-03-8.43998E-01 4.73517E-13 9.25258E-15
 -1      4007 2.10501E+01 8.46504E+01-3.17377E-03-8.27244E-01-4.42806E-14 3.34553E-14
 -1      4008 1.97346E+01 8.51666E+01-5.74705E-03-7.99351E-01-2.43902E-13-2.05053E-14
 -1      4009 1.84245E+01 8.56623E+01-7.37059E-03-7.60725E-01-1.04142E-13-1.67083E-14
 -1      4010 1.71299E+01 8.61301E+01-9.01701E-03-7.11949E-01 4.05787E-14 2.72377E-14
 -1      4011 1.58606E+01 8.65641E+01-1.05003E-02-6.53760E-01-3.41518E-13-2.59309E-15
 -1      4012 1.46255E+01 8.69585E+01-1.18331E-02-5.86995E-01 4.15744E-14-1.85214E-15
 -1      4013 1.34325E+01 8.73083E+01-1.30101E-02-5.12529E-01 1.84332E-14 2.09859E-14
 -1      4014 1.22879E+01 8.76088E+01-1.40455E-02-4.31193E-01-9.44071E-14 1.27508E-14
 -1      4015 1.11973E+01 8.78560E+01-1.49671E-02-3.43690E-01 6.87991E-14 5.15702E-15
 -1      4016 1.01648E+01 8.80462E+01-1.58172E-02-2.50505E-01 7.81389E-14-9.10916E-15
 -1      4017 9.19316E+00 8.81762E+01-1.66527E-02-1.51811E-01-1.78042E-13 8.83524E-15
 -1      4018 8.28437E+00 8.82424E+01-1.75448E-02-4.73762E-02-2.35610E-14-8.81909E-15
 -1      4019 7.43928E+00 8.82413E+01-1.85804E-02 6.35419E-02-1.47340E-13 7.53792E-16
 -1      4020 6.65797E+00 8.81685E+01-1.98652E-02 1.82321E-01 3.65166E-13-1.30139E-14
 -1      4021 5.93980E+00 8.80190E+01-2.15281E-02 3.11131E-01-1.40860E-13 1.92143E-14
 -1      4022 5.28358E+00 8.77859E+01-2.37296E-02 4.53150E-01 6.40599E-14 6.44276E-15
 -1      4023 4.68762E+00 8.74604E+01-2.66737E-02 6.12861E-01 1.70003E-14 7.84312E-15
 -1      4024 4.14980E+00 8.70304E+01-3.06260E-02 7.96499E-01-2.01436E-13 1.41584E-14
 -1      4025 3.66745E+00 8.64801E+01-3.59387E-02 1.01269E+00 3.80456E-13-6.84348E-15
 -1      4026 3.23716E+00 8.57878E+01-4.30854E-02 1.27345E+00-1.72445E-13-2.02876E-15
 -1      4027 2.85420E+00 8.49245E+01-5.27111E-02 1.59565E+00-1.72910E-13-4.56926E-15
 -1      4028 2.51149E+00 8.38512E+01-6.56596E-02 2.00342E+00-2.86993E-14 2.88831E-15
 -1      4029 2.19745E+00 8.25149E+01-8.31938E-02 2.53182E+00 1.53086E-13 1.08212E-14
 -1      4030 1.89258E+00 8.08454E+01-1.05958E-01 3.23330E+00 3.10342E-13 1.70627E-14
 -1      4031 1.55902E+00 7.87458E+01-1.39979E-01 4.18642E+00 3.67900E-14 4.71845E-16
 -1      4032 1.14560E+00 7.61194E+01-1.56397E-01 5.52139E+00-1.11675E-13 2.37310E-15
 -1      4033 2.36633E+01 8.35681E+01 2.43631E-02-2.82499E-01-3.00360E-13-2.62467E-14
 -1      4034 2.23647E+01 8.40814E+01-5.85743E-03-2.80725E-01-2.40804E-13 1.88259E-14
 -1      4035 2.10659E+01 8.46122E+01-3.15549E-03-2.75152E-01 3.02917E-13 4.06001E-15
 -1      4036 1.97580E+01 8.51250E+01-5.71316E-03-2.65873E-01-1.49689E-13 6.07180E-15
 -1      4037 1.84552E+01 8.56175E+01-7.33172E-03-2.53022E-01-1.36280E-13 1.48240E-14
 -1      4038 1.71675E+01 8.60822E+01-8.98095E-03-2.36789E-01 4.21538E-15-2.52822E-14
 -1      4039 1.59045E+01 8.65132E+01-1.04790E-02-2.17413E-01-1.47948E-13-2.85731E-14
 -1      4040 1.46751E+01 8.69047E+01-1.18405E-02-1.95163E-01 5.75963E-14 6.21565E-15
 -1      4041 1.34871E+01 8.72514E+01-1.30622E-02-1.70322E-01 1.86334E-13-1.39485E-14
 -1      4042 1.23470E+01 8.75487E+01-1.41599E-02-1.43156E-01 3.51490E-14 5.65001E-15
 -1      4043 1.12604E+01 8.77921E+01-1.51633E-02-1.13887E-01-1.02255E-13-7.15448E-15
 -1      4044 1.02316E+01 8.79779E+01-1.61178E-02-8.26617E-02-1.07282E-13 2.29528E-15
 -1      4045 9.26363E+00 8.81020E+01-1.70851E-02-4.95218E-02 5.56846E-15 2.01258E-14
 -1      4046 8.35881E+00 8.81608E+01-1.81444E-02-1.43692E-02 1.38535E-14-1.70466E-14
 -1      4047 7.51835E+00 8.81497E+01-1.93950E-02 2.30711E-02 6.62179E-14-1.52022E-14
 -1      4048 6.74279E+00 8.80638E+01-2.09617E-02 6.32965E-02-3.98171E-13-4.59409E-15
 -1      4049 6.03209E+00 8.78967E+01-2.30028E-02 1.07084E-01 3.90989E-13 2.47703E-14
 -1      4050 5.38579E+00 8.76400E+01-2.57243E-02 1.55573E-01-2.10214E-14-1.79056E-15
 -1      4051 4.80316E+00 8.72826E+01-2.94003E-02 2.10373E-01-2.42313E-13 1.12886E-14
 -1      4052 4.28335E+00 8.68096E+01-3.44073E-02 2.73740E-01 2.62932E-13 8.31106E-15
 -1      4053 3.82544E+00 8.62003E+01-4.12772E-02 3.48824E-01-2.21982E-13-1.70998E-14
 -1      4054 3.42843E+00 8.54265E+01-5.07799E-02 4.40057E-01 1.12479E-13 3.06443E-14
 -1      4055 3.09108E+00 8.44486E+01-6.40803E-02 5.53767E-01 3.10099E-14 2.45945E-14
 -1      4056 2.81133E+00 8.32109E+01-8.28900E-02 6.99160E-01-1.04354E-13-8.57040E-15
 -1      4057 2.58486E+00 8.16330E+01-1.10459E-01 8.89959E-01-2.31204E-13 5.98219E-15
 -1      4058 2.40402E+00 7.95987E+01-1.48989E-01 1.14733E+00-2.09360E-13-1.19106E-14
 -1      4059 2.24208E+00 7.69188E+01-2.21615E-01 1.50430E+00 2.58127E-13 1.41900E-14
 -1      4060 2.10088E+00 7.33794E+01-2.51323E-01 2.01899E+00-7.80626E-14-3.25122E-14
 -1      4061 2.36633E+01 8.35681E+01 2.43631E-02 2.82499E-01 2.64906E-13 2.20819E-15
 -1      4062 2.23647E+01 8.40814E+01-5.85743E-03 2.80725E-01-2.73979E-13-1.70871E-14
 -1      4063 2.10659E+01 8.46122E+01-3.15549E-03 2.75152E-01 7.32921E-14 4.90320E-15
 -1      4064 1.97580E+01 8.51250E+01-5.71316E-03 2.65873E-01 1.55233E-13 6.45941E-15
 -1      4065 1.84552E+01 8.56175E+01-7.33172E-03 2.53022E-01-1.90042E-13-3.95154E-15
 -1      4066 1.71675E+01 8.60822E+01-8.98095E-03 2.36789E-01-3.13034E-13 1.05859E-14
 -1      4067 1.59045E+01 8.65132E+01-1.04790E-02 2.17413E-01-1.57735E-13 7.40845E-15
 -1      4068 1.46751E+01 8.69047E+01-1.18405E-02 1.95163E-01-1.03102E-13 9.87180E-16
 -1      4069 1.34871E+01 8.72514E+01-1.30622E-02 1.70322E-01-1.39801E-13-2.63010E-14
 -1      4070 1.23470E+01 8.75487E+01-1.41599E-02 1.43156E-01 9.83102E-14-3.09283E-14
 -1      4071 1.12604E+01 8.77921E+01-1.51633E-02 1.13887E-01 1.11612E-14-7.36247E-15
 -1      4072 1.02316E+01 8.79779E+01-1.61178E-02 8.26617E-02-1.52447E-13 1.07393E-14
 -1      4073 9.26363E+00 8.81020E+01-1.70851E-02 4.95218E-02 5.02029E-15 4.86320E-15
 -1      4074 8.35881E+00 8.81608E+01-1.81444E-02 1.43692E-02-2.32529E-13 2.04972E-14
 -1      4075 7.51835E+00 8.81497E+01-1.93950E-02-2.30711E-02-1.06238E-13-2.57403E-15
 -1      4076 6.74279E+00 8.80638E+01-2.09617E-02-6.32965E-02 2.57960E-13 1.27946E-14
 -1      4077 6.03209E+00 8.78967E+01-2.30028E-02-1.07084E-01-2.87780E-13 1.03044E-14
 -1      4078 5.38579E+00 8.76400E+01-2.57243E-02-1.55573E-01 3.44134E-14 1.13288E-14
 -1      4079 4.80316E+00 8.72826E+01-2.94003E-02-2.10373E-01-2.87607E-13-3.19081E-14
 -1      4080 4.28335E+00 8.68096E+01-3.44073E-02-2.73740E-01 3.34420E-14 3.48159E-15
 -1      4081 3.82544E+00 8.62003E+01-4.12772E-02-3.48824E-01-1.82094E-13 5.09965E-15
 -1      4082 3.42843E+00 8.54265E+01-5.07799E-02-4.40057E-01-9.89486E-14 1.04604E-15
 -1      4083 3.09108E+00 8.44486E+01-6.40803E-02-5.53767E-01 7.74242E-14-6.51606E-15
 -1      4084 2.81133E+00 8.32109E+01-8.28900E-02-6.99160E-01-2.26243E-13-1.17293E-14
 -1      4085 2.58486E+00 8.16330E+01-1.10459E-01-8.89959E-01-3.70814E-14-7.84789E-15
 -1      4086 2.40402E+00 7.95987E+01-1.48989E-01-1.14733E+00 4.73926E-14-1.09981E-15
 -1      4087 2.24208E+00 7.69188E+01-2.21615E-01-1.50430E+00-1.37362E-13-1.58172E-14
 -1      4088 2.10088E+00 7.33794E+01-2.51323E-01-2.01899E+00-9.89764E-14 2.76411E-14
 -1      4089 2.36636E+01 8.35994E+01 2.45202E-02 8.49335E-01-1.43358E-13-1.11786E-14
 -1      4090 2.23569E+01 8.41161E+01-5.89418E-03 8.43998E-01 5.20070E-14 4.29387E-15
 -1      4091 2.10501E+01 8.46504E+01-3.17377E-03 8.27244E-01-2.25129E-13-1.97151E-15
 -1      4092 1.97346E+01 8.51666E+01-5.74705E-03 7.99351E-01 4.00721E-14-2.79616E-15
 -1      4093 1.84245E+01 8.56623E+01-7.37059E-03 7.60725E-01 1.79190E-13 8.12696E-15
 -1      4094 1.71299E+01 8.61301E+01-9.01701E-03 7.11949E-01-8.70033E-14 2.22492E-14
 -1      4095 1.58606E+01 8.65641E+01-1.05003E-02 6.53760E-01-1.23110E-13-2.82770E-14
 -1      4096 1.46255E+01 8.69585E+01-1.18331E-02 5.86995E-01-1.24283E-13 1.76549E-15
 -1      4097 1.34325E+01 8.73083E+01-1.30101E-02 5.12529E-01 2.48836E-13-8.35019E-15
 -1      4098 1.22879E+01 8.76088E+01-1.40455E-02 4.31193E-01-1.05426E-13 7.74844E-15
 -1      4099 1.11973E+01 8.78560E+01-1.49671E-02 3.43690E-01-6.45491E-14 2.09632E-14
 -1      4100 1.01648E+01 8.80462E+01-1.58172E-02 2.50505E-01 1.40363E-13 1.19765E-15
 -1      4101 9.19316E+00 8.81762E+01-1.66527E-02 1.51811E-01-1.21472E-13 3.56707E-15
 -1      4102 8.28437E+00 8.82424E+01-1.75448E-02 4.73762E-02 9.36057E-15-1.72093E-14
 -1      4103 7.43928E+00 8.82413E+01-1.85804E-02-6.35419E-02 2.87322E-13 2.84216E-14
 -1      4104 6.65797E+00 8.81685E+01-1.98652E-02-1.82321E-01-1.05159E-14-2.83637E-14
 -1      4105 5.93980E+00 8.80190E+01-2.15281E-02-3.11131E-01-3.39555E-14 7.51374E-15
 -1      4106 5.28358E+00 8.77859E+01-2.37296E-02-4.53150E-01 5.63473E-14 1.61516E-14
 -1      4107 4.68762E+00 8.74604E+01-2.66737E-02-6.12861E-01 2.34038E-13-5.03764E-15
 -1      4108 4.14980E+00 8.70304E+01-3.06260E-02-7.96499E-01-4.56683E-14 3.37204E-14
 -1      4109 3.66745E+00 8.64801E+01-3.59387E-02-1.01269E+00 8.01512E-14-3.58559E-14
 -1      4110 3.23716E+00 8.57878E+01-4.30854E-02-1.27345E+00-3.46945E-16 2.09216E-14
 -1      4111 2.85420E+00 8.49245E+01-5.27111E-02-1.59565E+00-1.42795E-13 4.02109E-15
 -1      4112 2.51149E+00 8.38512E+01-6.56596E-02-2.00342E+00 1.35954E-13-7.33441E-15
 -1      4113 2.19745E+00 8.25149E+01-8.31938E-02-2.53182E+00 5.23678E-14-1.72605E-14
 -1      4114 1.89258E+00 8.08454E+01-1.05958E-01-3.23330E+00-6.01325E-14-5.14519E-15
 -1      4115 1.55902E+00 7.87458E+01-1.39979E-01-4.18642E+00 9.51600E-14 1.26843E-14
 -1      4116 1.14560E+00 7.61194E+01-1.56397E-01-5.52139E+00-1.00697E-13 3.05311E-16
 -1      4117 2.36643E+01 8.36622E+01 2.48335E-02 1.42168E+00 2.72112E-13 3.65740E-14
 -1      4118 2.23412E+01 8.41855E+01-5.97098E-03 1.41273E+00-1.01183E-13-2.52673E-14
 -1      4119 2.10186E+01 8.47267E+01-3.21669E-03 1.38469E+00-5.64514E-14 8.36809E-15
 -1      4120 1.96876E+01 8.52495E+01-5.82402E-03 1.33799E+00-1.22052E-13-1.66854E-14
 -1      4121 1.83627E+01 8.57516E+01-7.46005E-03 1.27335E+00 2.07692E-13 9.48894E-15
 -1      4122 1.70544E+01 8.62256E+01-9.10299E-03 1.19178E+00-4.84873E-13-1.85120E-14
 -1      4123 1.57726E+01 8.66654E+01-1.05588E-02 1.09457E+00-1.87725E-13 2.32914E-15
 -1      4124 1.45263E+01 8.70655E+01-1.18358E-02 9.83203E-01-1.63550E-14 1.35955E-14
 -1      4125 1.33234E+01 8.74209E+01-1.29259E-02 8.59241E-01-1.75387E-13-2.56997E-15
 -1      4126 1.21702E+01 8.77275E+01-1.38403E-02 7.24179E-01 3.22815E-13-1.05606E-14
 -1      4127 1.10719E+01 8.79817E+01-1.46039E-02 5.79306E-01-4.27346E-13-1.64942E-14
 -1      4128 1.00323E+01 8.81805E+01-1.52542E-02 4.25565E-01-2.91191E-14-3.82910E-15
 -1      4129 9.05387E+00 8.83212E+01-1.58397E-02 2.63404E-01-6.44484E-14 8.45417E-15
 -1      4130 8.13779E+00 8.84014E+01-1.64181E-02 9.26317E-02 2.57346E-13 2.67525E-14
 -1      4131 7.28426E+00 8.84187E+01-1.70550E-02-8.77308E-02 2.22395E-13-9.61687E-17
 -1      4132 6.49249E+00 8.83707E+01-1.78228E-02-2.79626E-01 1.07626E-13 5.25860E-15
 -1      4133 5.76078E+00 8.82540E+01-1.88002E-02-4.86170E-01-3.14818E-14-1.49034E-14
 -1      4134 5.08659E+00 8.80648E+01-2.00714E-02-7.11931E-01-9.33524E-14 5.39239E-15
 -1      4135 4.46658E+00 8.77981E+01-2.17240E-02-9.63315E-01-5.55632E-14 7.11714E-15
 -1      4136 3.89640E+00 8.74474E+01-2.38437E-02-1.24911E+00 2.84568E-13-8.07427E-15
 -1      4137 3.37047E+00 8.70044E+01-2.65000E-02-1.58124E+00-2.17857E-13-5.53203E-15
 -1      4138 2.88135E+00 8.64591E+01-2.97145E-02-1.97593E+00 3.43753E-14-2.08340E-14
 -1      4139 2.41882E+00 8.57995E+01-3.33772E-02-2.45525E+00 5.56846E-14 7.33788E-15
 -1      4140 1.96805E+00 8.50129E+01-3.71251E-02-3.04946E+00-5.44009E-15 1.01863E-14
 -1      4141 1.50686E+00 8.40885E+01-3.96473E-02-3.80021E+00-9.84698E-14-1.43288E-15
 -1      4142 9.99496E-01 8.30223E+01-3.98205E-02-4.76527E+00 1.16178E-13 9.89486E-15
 -1      4143 3.93820E-01 8.18407E+01-2.31215E-02-6.02299E+00-1.45675E-13-2.29469E-14
 -1      4144-4.29143E-01 8.05817E+01-3.03646E-02-7.68480E+00-1.67796E-13 1.34337E-14
 -1      4145 2.36652E+01 8.37563E+01 2.53017E-02 2.00321E+00 4.60083E-14 1.77753E-14
 -1      4146 2.23176E+01 8.42896E+01-6.09466E-03 1.99056E+00-4.29826E-13-1.78291E-14
 -1      4147 2.09710E+01 8.48411E+01-3.29741E-03 1.95100E+00 2.32970E-13-1.33357E-15
 -1      4148 1.96166E+01 8.53737E+01-5.96298E-03 1.88514E+00-2.59091E-13-6.39527E-15
 -1      4149 1.82696E+01 8.58852E+01-7.62400E-03 1.79401E+00-1.58356E-13-5.44551E-15
 -1      4150 1.69407E+01 8.63680E+01-9.26682E-03 1.67912E+00 2.53627E-13 1.85605E-15
 -1      4151 1.56402E+01 8.68161E+01-1.06855E-02 1.54245E+00 5.21805E-15 3.54816E-15
 -1      4152 1.43774E+01 8.72241E+01-1.18832E-02 1.38624E+00-1.99816E-13-1.99100E-14
 -1      4153 1.31601E+01 8.75874E+01-1.28480E-02 1.21288E+00 2.20129E-13 1.60078E-14
 -1      4154 1.19945E+01 8.79022E+01-1.35890E-02 1.02469E+00-8.29545E-15 2.19758E-14
 -1      4155 1.08856E+01 8.81657E+01-1.41284E-02 8.23714E-01 2.37359E-13-9.40404E-15
 -1      4156 9.83642E+00 8.83757E+01-1.44992E-02 6.11545E-01-9.96356E-14-1.20050E-14
 -1      4157 8.84889E+00 8.85307E+01-1.47409E-02 3.89110E-01 1.42098E-13 3.59557E-15
 -1      4158 7.92341E+00 8.86295E+01-1.48960E-02 1.56519E-01-1.82233E-13-1.57927E-14
 -1      4159 7.05915E+00 8.86716E+01-1.50052E-02-8.71160E-02-9.65825E-14-2.36077E-14
 -1      4160 6.25416E+00 8.86564E+01-1.51028E-02-3.43854E-01-1.02852E-13 7.05295E-15
 -1      4161 5.50535E+00 8.85836E+01-1.52102E-02-6.17132E-01 5.23505E-14 1.81469E-14
 -1      4162 4.80855E+00 8.84527E+01-1.53271E-02-9.12020E-01-2.88745E-13-4.32987E-14
 -1      4163 4.15838E+00 8.82634E+01-1.54162E-02-1.23556E+00-1.79440E-14-3.20664E-15
 -1      4164 3.54794E+00 8.80158E+01-1.53784E-02-1.59719E+00-8.09561E-14-3.43042E-15
 -1      4165 2.96841E+00 8.77106E+01-1.50075E-02-2.00935E+00 3.53745E-14-5.92842E-15
 -1      4166 2.40817E+00 8.73505E+01-1.39147E-02-2.48825E+00-3.59608E-14-3.92568E-15
 -1      4167 1.85155E+00 8.69418E+01-1.13658E-02-3.05474E+00 7.51829E-15-1.00614E-14
 -1      4168 1.27675E+00 8.64979E+01-6.13344E-03-3.73532E+00-7.64493E-14-1.09183E-14
 -1      4169 6.53070E-01 8.60466E+01 4.69619E-03-4.56267E+00-1.71481E-13-1.12826E-14
 -1      4170-6.57387E-02 8.56389E+01 2.25974E-02-5.57505E+00 6.16937E-14 1.50366E-14
 -1      4171-9.36801E-01 8.53886E+01 7.39452E-02-6.81114E+00-5.40470E-14-3.59435E-15
 -1      4172-2.11533E+00 8.53969E+01 5.91069E-02-8.30100E+00 2.87693E-13 1.91791E-14
 -1      4173 2.36665E+01 8.38819E+01 2.59238E-02 2.59757E+00-4.93130E-13 2.48412E-15
 -1      4174 2.22858E+01 8.44285E+01-6.27480E-03 2.58106E+00 7.84026E-14-1.44823E-14
 -1      4175 2.09069E+01 8.49935E+01-3.43447E-03 2.52961E+00 4.59077E-14 1.65631E-14
 -1      4176 1.95211E+01 8.55391E+01-6.19072E-03 2.44398E+00-2.59289E-13-1.41744E-14
 -1      4177 1.81443E+01 8.60627E+01-7.89597E-03 2.32555E+00-7.33059E-14-8.26596E-15
 -1      4178 1.67878E+01 8.65567E+01-9.54699E-03 2.17646E+00 6.72587E-14 1.05046E-14
 -1      4179 1.54627E+01 8.70150E+01-1.09225E-02 1.99950E+00-2.05402E-13-2.17892E-15
 -1      4180 1.41784E+01 8.74324E+01-1.20200E-02 1.79787E+00-5.40748E-14 1.39680E-14
 -1      4181 1.29427E+01 8.78048E+01-1.28251E-02 1.57500E+00 1.21736E-13 2.83467E-15
 -1      4182 1.17618E+01 8.81289E+01-1.33467E-02 1.33424E+00 3.61308E-14-3.74429E-15
 -1      4183 1.06400E+01 8.84027E+01-1.36074E-02 1.07862E+00-7.40449E-14 8.37291E-15
 -1      4184 9.57989E+00 8.86251E+01-1.36381E-02 8.10593E-01 1.87364E-13 3.17535E-14
 -1      4185 8.58246E+00 8.87959E+01-1.34722E-02 5.31817E-01-4.00516E-13-1.11317E-14
 -1      4186 7.64712E+00 8.89156E+01-1.31395E-02 2.42991E-01 3.42344E-13 2.36193E-16
 -1      4187 6.77187E+00 8.89855E+01-1.26587E-02-5.63141E-02-2.11657E-13-2.58349E-15
 -1      4188 5.95343E+00 8.90074E+01-1.20302E-02-3.67794E-01-1.61912E-13-1.96316E-14
 -1      4189 5.18723E+00 8.89837E+01-1.12259E-02-6.94548E-01 2.03903E-13-1.68457E-14
 -1      4190 4.46743E+00 8.89179E+01-1.01752E-02-1.04123E+00-1.04413E-13 1.88651E-14
 -1      4191 3.78667E+00 8.88143E+01-8.74336E-03-1.41422E+00 9.46361E-14-8.46805E-15
 -1      4192 3.13581E+00 8.86791E+01-6.69813E-03-1.82180E+00 2.35818E-14 5.76622E-15
 -1      4193 2.50338E+00 8.85212E+01-3.65639E-03-2.27433E+00 1.88391E-15 9.92262E-15
 -1      4194 1.87471E+00 8.83541E+01 9.96087E-04-2.78434E+00 1.30077E-13-6.69083E-15
 -1      4195 1.23076E+00 8.81984E+01 8.24841E-03-3.36633E+00 5.18578E-14 1.39715E-14
 -1      4196 5.46382E-01 8.80862E+01 1.95407E-02-4.03591E+00-8.70519E-14-1.18447E-14
 -1      4197-2.11406E-01 8.80681E+01 3.77079E-02-4.80749E+00 8.58862E-14-1.42247E-15
 -1      4198-1.08814E+00 8.82196E+01 6.28423E-02-5.68826E+00 1.56031E-13 5.77316E-15
 -1      4199-2.12698E+00 8.86793E+01 1.21611E-01-6.66568E+00-7.99361E-15 6.16868E-15
 -1      4200-3.46559E+00 8.95321E+01 8.81755E-02-7.68381E+00-1.84158E-14 1.04916E-14
 -1      4201 2.36679E+01 8.40392E+01 2.66957E-02 3.20846E+00 3.66072E-13 3.67571E-14
 -1      4202 2.22455E+01 8.46023E+01-6.53094E-03 3.18785E+00 1.45176E-13 2.47510E-14
 -1      4203 2.08256E+01 8.51843E+01-3.66302E-03 3.12391E+00-2.13256E-13-6.95581E-15
 -1      4204 1.93999E+01 8.57457E+01-6.55664E-03 3.01751E+00-1.03657E-13-1.37711E-14
 -1      4205 1.79854E+01 8.62838E+01-8.33661E-03 2.87048E+00-1.64382E-13-4.31057E-15
 -1      4206 1.65946E+01 8.67909E+01-1.00117E-02 2.68574E+00-1.71543E-13-1.99732E-14
 -1      4207 1.52390E+01 8.72607E+01-1.13424E-02 2.46708E+00-3.13374E-13-2.15364E-14
 -1      4208 1.39285E+01 8.76883E+01-1.23214E-02 2.21894E+00 2.33216E-14 4.54740E-15
 -1      4209 1.26711E+01 8.80698E+01-1.29349E-02 1.94603E+00 4.30003E-14 9.83968E-15
 -1      4210 1.14727E+01 8.84028E+01-1.31965E-02 1.65300E+00-4.32293E-14-1.20570E-14
 -1      4211 1.03371E+01 8.86864E+01-1.31342E-02 1.34410E+00-9.03999E-14-8.06213E-15
 -1      4212 9.26603E+00 8.89204E+01-1.27828E-02 1.02289E+00 1.78007E-13 6.65353E-15
 -1      4213 8.25950E+00 8.91063E+01-1.21752E-02 6.92018E-01 6.38274E-14-2.21698E-14
 -1      4214 7.31575E+00 8.92463E+01-1.13347E-02 3.53038E-01 4.02733E-14 1.96575E-14
 -1      4215 6.43154E+00 8.93435E+01-1.02661E-02 6.30299E-03 4.11303E-14-5.00521E-15
 -1      4216 5.60221E+00 8.94021E+01-8.94746E-03-3.49100E-01-8.40369E-14 6.86419E-15
 -1      4217 4.82180E+00 8.94273E+01-7.31929E-03-7.15382E-01-1.28165E-13-2.26624E-14
 -1      4218 4.08297E+00 8.94257E+01-5.27016E-03-1.09604E+00 1.92200E-13-3.66851E-15
 -1      4219 3.37687E+00 8.94056E+01-2.61669E-03-1.49580E+00 5.42413E-14 1.20303E-15
 -1      4220 2.69285E+00 8.93780E+01 9.24978E-04-1.92045E+00-1.92475E-13 4.30298E-15
 -1      4221 2.01802E+00 8.93577E+01 5.77972E-03-2.37657E+00 1.40308E-13 1.11144E-14
 -1      4222 1.33666E+00 8.93651E+01 1.25615E-02-2.87086E+00-1.21302E-13-2.12955E-14
 -1      4223 6.29467E-01 8.94284E+01 2.21535E-02-3.40896E+00 1.18964E-13 1.68719E-14
 -1      4224-1.27207E-01 8.95877E+01 3.56039E-02-3.99318E+00-1.29868E-13-1.42282E-14
 -1      4225-9.61319E-01 8.98991E+01 5.48388E-02-4.61835E+00-2.01051E-13 2.71658E-15
 -1      4226-1.90650E+00 9.04351E+01 7.72498E-02-5.26462E+00 1.74218E-13 9.12465E-15
 -1      4227-2.98356E+00 9.13028E+01 1.22796E-01-5.88254E+00 1.66442E-13 2.24196E-14
 -1      4228-4.25715E+00 9.25370E+01 6.89324E-02-6.36937E+00 4.39856E-14-1.87142E-14
 -1      4229 2.36695E+01 8.42290E+01 2.76347E-02 3.83959E+00 3.46202E-13 4.97371E-14
 -1      4230 2.21961E+01 8.48120E+01-6.85111E-03 3.81451E+00-2.22891E-13-3.49217E-14
 -1      4231 2.07259E+01 8.54140E+01-3.97374E-03 3.73715E+00 4.68320E-13 1.79553E-14
 -1      4232 1.92514E+01 8.59940E+01-7.05252E-03 3.60848E+00-1.54130E-13-3.70407E-15
 -1      4233 1.77912E+01 8.65488E+01-8.93476E-03 3.43087E+00 2.45356E-13 1.41458E-14
 -1      4234 1.63588E+01 8.70702E+01-1.06430E-02 3.20822E+00-2.22298E-13-1.49236E-14
 -1      4235 1.49671E+01 8.75520E+01-1.19172E-02 2.94565E+00-1.06859E-14 1.04437E-14
 -1      4236 1.36264E+01 8.79892E+01-1.27487E-02 2.64912E+00 2.51642E-13-1.03715E-15
 -1      4237 1.23448E+01 8.83787E+01-1.31303E-02 2.32497E+00-1.60115E-13-7.10716E-15
 -1      4238 1.11279E+01 8.87188E+01-1.30875E-02 1.97944E+00-1.01946E-13 1.09637E-14
 -1      4239 9.97877E+00 8.90096E+01-1.26619E-02 1.61828E+00-1.04045E-13-8.98435E-15
 -1      4240 8.89831E+00 8.92525E+01-1.18994E-02 1.24638E+00-3.20403E-14 5.84103E-15
 -1      4241 7.88524E+00 8.94503E+01-1.08405E-02 8.67576E-01-1.08323E-13-9.01623E-16
 -1      4242 6.93657E+00 8.96069E+01-9.50973E-03 4.84484E-01 6.99232E-14-5.12351E-15
 -1      4243 6.04773E+00 8.97276E+01-7.90849E-03 9.84700E-02-1.76401E-13 2.69564E-14
 -1      4244 5.21278E+00 8.98183E+01-6.00677E-03-2.90327E-01 2.92748E-13-7.57684E-15
 -1      4245 4.42451E+00 8.98867E+01-3.73513E-03-6.82887E-01-5.30270E-14 1.07212E-14
 -1      4246 3.67451E+00 8.99418E+01-9.74784E-04-1.08112E+00-1.04541E-13-9.35927E-15
 -1      4247 2.95302E+00 8.99945E+01 2.45466E-03-1.48758E+00-1.93321E-13 9.66805E-15
 -1      4248 2.24887E+00 9.00588E+01 6.80973E-03-1.90498E+00 1.30652E-13-8.33361E-15
 -1      4249 1.54922E+00 9.01523E+01 1.24381E-02-2.33554E+00 1.39201E-13 5.06106E-15
 -1      4250 8.39428E-01 9.02977E+01 1.97841E-02-2.77978E+00-2.94053E-13-6.56766E-15
 -1      4251 1.02950E-01 9.05248E+01 2.93835E-02-3.23473E+00 2.33397E-13 1.68424E-14
 -1      4252-6.78183E-01 9.08715E+01 4.17068E-02-3.69113E+00-2.35575E-14-4.19803E-16
 -1      4253-1.52155E+00 9.13866E+01 5.73890E-02-4.12910E+00-5.86337E-15 1.12167E-14
 -1      4254-2.44184E+00 9.21259E+01 7.36554E-02-4.51172E+00 4.62286E-14-2.73497E-14
 -1      4255-3.43266E+00 9.31591E+01 1.00662E-01-4.78084E+00-2.81429E-13-8.86097E-15
 -1      4256-4.52369E+00 9.44190E+01 2.66520E-02-4.82890E+00-7.38164E-14-2.10942E-15
 -3
    1PSTEP                         3           1           1          
  100CL  101 1.000000000        4256                     0    1           1
 -4  ERROR       1    1
 -5  STR(%)      1    1    0    0
 -1         1 8.76819E+00
 -1         2 8.75464E+00
 -1         3 8.75464E+00
 -1         4 8.76819E+00
 -1         5 3.42764E+00
 -1         6 3.75323E+00
 -1         7 3.75323E+00
 -1         8 3.42764E+00
 -1         9 2.06241E+01
 -1        10 3.59381E-01
 -1        11 2.44484E-01
 -1        12 4.41848E-02
 -1        13 9.89073E-02
 -1        14 9.89073E-02
 -1        15 4.41848E-02
 -1        16 2.44484E-01
 -1        17 3.59381E-01
 -1        18 2.06241E+01
 -1        19 5.81847E-01
 -1        20 5.81847E-01
 -1        21 4.28135E+00
 -1        22 5.12852E+00
 -1        23 6.05343E+00
 -1        24 7.04520E+00
 -1        25 8.08516E+00
 -1        26 9.14504E+00
 -1        27 1.01832E+01
 -1        28 1.11390E+01
 -1        29 1.19225E+01
 -1        30 1.23943E+01
 -1        31 1.23943E+01
 -1        32 1.23168E+01
 -1        33 1.12234E+01
 -1        34 8.76819E+00
 -1        35 4.59734E+00
 -1        36 5.41522E+00
 -1        37 6.30991E+00
 -1        38 7.27360E+00
 -1        39 8.28811E+00
 -1        40 9.32485E+00
 -1        41 1.03417E+01
 -1        42 1.12774E+01
 -1        43 1.20413E+01
 -1        44 1.24932E+01
 -1        45 1.24932E+01
 -1        46 1.23937E+01
 -1        47 1.12723E+01
 -1        48 8.75464E+00
 -1        49 4.59734E+00
 -1        50 5.41522E+00
 -1        51 6.30991E+00
 -1        52 7.27360E+00
 -1        53 8.28811E+00
 -1        54 9.32485E+00
 -1        55 1.03417E+01
 -1        56 1.12774E+01
 -1        57 1.20413E+01
 -1        58 1.24932E+01
 -1        59 1.24932E+01
 -1        60 1.23937E+01
 -1        61 1.12723E+01
 -1        62 8.75464E+00
 -1        63 4.28135E+00
 -1        64 5.12852E+00
 -1        65 6.05343E+00
 -1        66 7.04520E+00
 -1        67 8.08516E+00
 -1        68 9.14504E+00
 -1        69 1.01832E+01
 -1        70 1.11390E+01
 -1        71 1.19225E+01
 -1        72 1.23943E+01
 -1        73 1.23943E+01
 -1        74 1.23168E+01
 -1        75 1.12234E+01
 -1        76 8.76819E+00
 -1        77 9.61047E+00
 -1        78 9.86648E+00
 -1        79 9.86648E+00
 -1        80 9.60882E+00
 -1        81 9.11274E+00
 -1        82 8.53692E+00
 -1        83 7.98766E+00
 -1        84 7.99517E+00
 -1        85 8.54136E+00
 -1        86 9.11352E+00
 -1        87 9.60532E+00
 -1        88 9.85792E+00
 -1        89 9.85792E+00
 -1        90 9.59535E+00
 -1        91 1.40855E+01
 -1        92 5.63670E+01
 -1        93 5.63670E+01
 -1        94 2.76204E+01
 -1        95 2.16570E+01
 -1        96 1.80897E+01
 -1        97 1.58283E+01
 -1        98 1.58283E+01
 -1        99 1.80897E+01
 -1       100 2.16570E+01
 -1       101 2.76204E+01
 -1       102 5.63670E+01
 -1       103 5.63670E+01
 -1       104 1.40855E+01
 -1       105 9.59535E+00
 -1       106 9.85792E+00
 -1       107 9.85792E+00
 -1       108 9.60532E+00
 -1       109 9.11352E+00
 -1       110 8.54136E+00
 -1       111 7.99517E+00
 -1       112 7.98766E+00
 -1       113 8.53692E+00
 -1       114 9.11274E+00
 -1       115 9.60882E+00
 -1       116 9.86648E+00
 -1       117 9.86648E+00
 -1       118 9.61047E+00
 -1       119 1.38047E+01
 -1       120 5.55617E+01
 -1       121 5.55617E+01
 -1       122 2.77720E+01
 -1       123 2.17541E+01
 -1       124 1.81606E+01
 -1       125 1.58862E+01
 -1       126 1.58862E+01
 -1       127 1.81606E+01
 -1       128 2.17541E+01
 -1       129 2.77720E+01
 -1       130 5.55617E+01
 -1       131 5.55617E+01
 -1       132 1.38047E+01
 -1       133 1.09832E+00
 -1       134 1.28161E+00
 -1       135 1.81468E+00
 -1       136 2.04488E+00
 -1       137 2.04488E+00
 -1       138 1.77833E+00
 -1       139 1.07033E+00
 -1       140 1.07952E+00
 -1       141 1.79099E+00
 -1       142 2.05407E+00
 -1       143 2.05407E+00
 -1       144 1.81632E+00
 -1       145 1.30651E+00
 -1       146 1.12850E+00
 -1       147 4.62865E+00
 -1       148 5.29936E+00
 -1       149 5.72225E+00
 -1       150 5.72225E+00
 -1       151 5.71700E+00
 -1       152 5.04787E+00
 -1       153 3.46701E+00
 -1       154 3.46701E+00
 -1       155 5.04787E+00
 -1       156 5.71700E+00
 -1       157 5.72225E+00
 -1       158 5.72225E+00
 -1       159 5.29936E+00
 -1       160 4.62865E+00
 -1       161 1.12850E+00
 -1       162 1.30651E+00
 -1       163 1.81632E+00
 -1       164 2.05407E+00
 -1       165 2.05407E+00
 -1       166 1.79099E+00
 -1       167 1.07952E+00
 -1       168 1.07033E+00
 -1       169 1.77833E+00
 -1       170 2.04488E+00
 -1       171 2.04488E+00
 -1       172 1.81468E+00
 -1       173 1.28161E+00
 -1       174 1.09832E+00
 -1       175 4.30869E+00
 -1       176 5.01008E+00
 -1       177 5.46875E+00
 -1       178 5.50420E+00
 -1       179 5.50420E+00
 -1       180 4.88462E+00
 -1       181 3.40852E+00
 -1       182 3.40852E+00
 -1       183 4.88462E+00
 -1       184 5.50420E+00
 -1       185 5.50420E+00
 -1       186 5.46875E+00
 -1       187 5.01008E+00
 -1       188 4.30869E+00
 -1       189 2.06241E+01
 -1       190 3.54200E+00
 -1       191 3.04483E+00
 -1       192 3.04483E+00
 -1       193 2.73948E+00
 -1       194 2.40313E+00
 -1       195 2.09416E+00
 -1       196 1.82557E+00
 -1       197 1.59301E+00
 -1       198 1.39094E+00
 -1       199 1.21427E+00
 -1       200 1.05892E+00
 -1       201 9.24813E-01
 -1       202 8.23175E-01
 -1       203 7.36126E-01
 -1       204 6.55226E-01
 -1       205 5.80468E-01
 -1       206 5.11951E-01
 -1       207 4.49889E-01
 -1       208 3.94606E-01
 -1       209 3.46525E-01
 -1       210 3.06140E-01
 -1       211 2.73978E-01
 -1       212 2.50551E-01
 -1       213 2.44548E-01
 -1       214 2.64141E-01
 -1       215 2.91097E-01
 -1       216 3.24259E-01
 -1       217 3.98496E-01
 -1       218 4.33593E-01
 -1       219 4.62545E-01
 -1       220 4.82255E-01
 -1       221 4.90269E-01
 -1       222 5.07475E-01
 -1       223 5.17133E-01
 -1       224 5.17133E-01
 -1       225 5.13270E-01
 -1       226 4.95364E-01
 -1       227 4.64003E-01
 -1       228 4.20792E-01
 -1       229 3.68084E-01
 -1       230 3.09003E-01
 -1       231 1.82154E-01
 -1       232 1.22697E-01
 -1       233 8.74165E-02
 -1       234 1.13847E-01
 -1       235 1.33377E-01
 -1       236 1.46598E-01
 -1       237 1.54246E-01
 -1       238 1.57137E-01
 -1       239 1.57137E-01
 -1       240 1.56105E-01
 -1       241 1.51960E-01
 -1       242 1.49655E-01
 -1       243 1.48915E-01
 -1       244 1.45509E-01
 -1       245 1.40052E-01
 -1       246 1.33092E-01
 -1       247 1.25105E-01
 -1       248 1.16498E-01
 -1       249 1.07610E-01
 -1       250 9.87211E-02
 -1       251 9.00591E-02
 -1       252 8.18047E-02
 -1       253 7.41007E-02
 -1       254 6.70585E-02
 -1       255 6.07640E-02
 -1       256 5.52836E-02
 -1       257 5.06683E-02
 -1       258 4.69582E-02
 -1       259 5.97313E-02
 -1       260 7.24871E-02
 -1       261 8.32371E-02
 -1       262 9.21659E-02
 -1       263 9.95019E-02
 -1       264 1.05406E-01
 -1       265 1.09986E-01
 -1       266 1.13303E-01
 -1       267 1.15369E-01
 -1       268 1.16159E-01
 -1       269 1.16159E-01
 -1       270 1.15624E-01
 -1       271 1.13694E-01
 -1       272 1.10300E-01
 -1       273 1.05376E-01
 -1       274 9.12559E-02
 -1       275 8.18559E-02
 -1       276 7.09612E-02
 -1       277 5.87250E-02
 -1       278 4.53242E-02
 -1       279 3.09903E-02
 -1       280 1.59963E-02
 -1       281 1.59963E-02
 -1       282 3.09903E-02
 -1       283 4.53242E-02
 -1       284 5.87250E-02
 -1       285 7.09612E-02
 -1       286 8.18559E-02
 -1       287 9.12559E-02
 -1       288 1.05376E-01
 -1       289 1.10300E-01
 -1       290 1.13694E-01
 -1       291 1.15624E-01
 -1       292 1.16159E-01
 -1       293 1.16159E-01
 -1       294 1.15369E-01
 -1       295 1.13303E-01
 -1       296 1.09986E-01
 -1       297 1.05406E-01
 -1       298 9.95019E-02
 -1       299 9.21659E-02
 -1       300 8.32371E-02
 -1       301 7.24871E-02
 -1       302 5.97313E-02
 -1       303 4.69582E-02
 -1       304 5.06683E-02
 -1       305 5.52836E-02
 -1       306 6.07640E-02
 -1       307 6.70585E-02
 -1       308 7.41007E-02
 -1       309 8.18047E-02
 -1       310 9.00591E-02
 -1       311 9.87211E-02
 -1       312 1.07610E-01
 -1       313 1.16498E-01
 -1       314 1.25105E-01
 -1       315 1.33092E-01
 -1       316 1.40052E-01
 -1       317 1.45509E-01
 -1       318 1.48915E-01
 -1       319 1.49655E-01
 -1       320 1.51960E-01
 -1       321 1.56105E-01
 -1       322 1.57137E-01
 -1       323 1.57137E-01
 -1       324 1.54246E-01
 -1       325 1.46598E-01
 -1       326 1.33377E-01
 -1       327 1.13847E-01
 -1       328 8.74165E-02
 -1       329 1.22697E-01
 -1       330 1.82154E-01
 -1       331 3.09003E-01
 -1       332 3.68084E-01
 -1       333 4.20792E-01
 -1       334 4.64003E-01
 -1       335 4.95364E-01
 -1       336 5.13270E-01
 -1       337 5.17133E-01
 -1       338 5.17133E-01
 -1       339 5.07475E-01
 -1       340 4.90269E-01
 -1       341 4.82255E-01
 -1       342 4.62545E-01
 -1       343 4.33593E-01
 -1       344 3.98496E-01
 -1       345 3.24259E-01
 -1       346 2.91097E-01
 -1       347 2.64141E-01
 -1       348 2.44548E-01
 -1       349 2.50551E-01
 -1       350 2.73978E-01
 -1       351 3.06140E-01
 -1       352 3.46525E-01
 -1       353 3.94606E-01
 -1       354 4.49889E-01
 -1       355 5.11951E-01
 -1       356 5.80468E-01
 -1       357 6.55226E-01
 -1       358 7.36126E-01
 -1       359 8.23175E-01
 -1       360 9.24813E-01
 -1       361 1.05892E+00
 -1       362 1.21427E+00
 -1       363 1.39094E+00
 -1       364 1.59301E+00
 -1       365 1.82557E+00
 -1       366 2.09416E+00
 -1       367 2.40313E+00
 -1       368 2.73948E+00
 -1       369 3.04483E+00
 -1       370 3.04483E+00
 -1       371 3.54200E+00
 -1       372 2.06241E+01
 -1       373 2.06241E+01
 -1       374 8.46687E+00
 -1       375 5.17758E+00
 -1       376 3.42458E+00
 -1       377 2.53996E+00
 -1       378 1.98545E+00
 -1       379 1.62279E+00
 -1       380 1.36701E+00
 -1       381 1.17887E+00
 -1       382 1.03492E+00
 -1       383 9.21299E-01
 -1       384 8.29120E-01
 -1       385 7.52528E-01
 -1       386 6.87518E-01
 -1       387 6.31285E-01
 -1       388 5.38353E-01
 -1       389 4.98376E-01
 -1       390 4.62052E-01
 -1       391 4.28867E-01
 -1       392 3.98469E-01
 -1       393 3.70625E-01
 -1       394 3.45185E-01
 -1       395 3.45185E-01
 -1       396 3.70625E-01
 -1       397 3.98469E-01
 -1       398 4.28867E-01
 -1       399 4.62052E-01
 -1       400 4.98376E-01
 -1       401 5.38353E-01
 -1       402 6.31285E-01
 -1       403 6.87518E-01
 -1       404 7.52528E-01
 -1       405 8.29120E-01
 -1       406 9.21299E-01
 -1       407 1.03492E+00
 -1       408 1.17887E+00
 -1       409 1.36701E+00
 -1       410 1.62279E+00
 -1       411 1.98545E+00
 -1       412 2.53996E+00
 -1       413 3.42458E+00
 -1       414 5.17758E+00
 -1       415 8.46687E+00
 -1       416 2.06241E+01
 -1       417 6.24068E-01
 -1       418 6.24068E-01
 -1       419 6.30398E-01
 -1       420 6.30398E-01
 -1       421 6.09524E-01
 -1       422 5.70571E-01
 -1       423 5.27342E-01
 -1       424 4.87127E-01
 -1       425 4.52921E-01
 -1       426 4.25522E-01
 -1       427 4.04615E-01
 -1       428 3.89879E-01
 -1       429 3.78848E-01
 -1       430 3.71766E-01
 -1       431 3.67733E-01
 -1       432 5.92960E-01
 -1       433 5.92960E-01
 -1       434 5.95207E-01
 -1       435 5.95207E-01
 -1       436 5.64342E-01
 -1       437 5.14420E-01
 -1       438 4.59698E-01
 -1       439 4.07970E-01
 -1       440 3.62690E-01
 -1       441 3.25117E-01
 -1       442 2.95401E-01
 -1       443 2.73199E-01
 -1       444 2.57984E-01
 -1       445 2.49043E-01
 -1       446 2.45937E-01
 -1       447 9.42646E-01
 -1       448 9.69933E-01
 -1       449 9.69933E-01
 -1       450 9.47032E-01
 -1       451 8.79492E-01
 -1       452 7.93186E-01
 -1       453 7.02036E-01
 -1       454 6.14307E-01
 -1       455 5.34059E-01
 -1       456 4.62899E-01
 -1       457 4.01036E-01
 -1       458 3.47955E-01
 -1       459 3.02807E-01
 -1       460 2.64640E-01
 -1       461 2.35249E-01
 -1       462 2.10639E-01
 -1       463 1.89657E-01
 -1       464 1.71861E-01
 -1       465 1.56840E-01
 -1       466 1.44228E-01
 -1       467 1.33705E-01
 -1       468 1.24991E-01
 -1       469 1.17851E-01
 -1       470 1.12084E-01
 -1       471 1.07521E-01
 -1       472 1.04023E-01
 -1       473 1.01479E-01
 -1       474 9.97970E-02
 -1       475 9.42646E-01
 -1       476 9.69933E-01
 -1       477 9.69933E-01
 -1       478 9.47032E-01
 -1       479 8.79492E-01
 -1       480 7.93186E-01
 -1       481 7.02036E-01
 -1       482 6.14307E-01
 -1       483 5.34059E-01
 -1       484 4.62899E-01
 -1       485 4.01036E-01
 -1       486 3.47955E-01
 -1       487 3.02807E-01
 -1       488 2.64640E-01
 -1       489 2.35249E-01
 -1       490 2.10639E-01
 -1       491 1.89657E-01
 -1       492 1.71861E-01
 -1       493 1.56840E-01
 -1       494 1.44228E-01
 -1       495 1.33705E-01
 -1       496 1.24991E-01
 -1       497 1.17851E-01
 -1       498 1.12084E-01
 -1       499 1.07521E-01
 -1       500 1.04023E-01
 -1       501 1.01479E-01
 -1       502 9.97970E-02
 -1       503 5.92960E-01
 -1       504 5.92960E-01
 -1       505 5.95207E-01
 -1       506 5.95207E-01
 -1       507 5.64342E-01
 -1       508 5.14420E-01
 -1       509 4.59698E-01
 -1       510 4.07970E-01
 -1       511 3.62690E-01
 -1       512 3.25117E-01
 -1       513 2.95401E-01
 -1       514 2.73199E-01
 -1       515 2.57984E-01
 -1       516 2.49043E-01
 -1       517 2.45937E-01
 -1       518 6.24068E-01
 -1       519 6.24068E-01
 -1       520 6.30398E-01
 -1       521 6.30398E-01
 -1       522 6.09524E-01
 -1       523 5.70571E-01
 -1       524 5.27342E-01
 -1       525 4.87127E-01
 -1       526 4.52921E-01
 -1       527 4.25522E-01
 -1       528 4.04615E-01
 -1       529 3.89879E-01
 -1       530 3.78848E-01
 -1       531 3.71766E-01
 -1       532 3.67733E-01
 -1       533 9.17195E-01
 -1       534 9.54734E-01
 -1       535 9.54734E-01
 -1       536 9.41889E-01
 -1       537 8.87270E-01
 -1       538 8.16622E-01
 -1       539 7.43923E-01
 -1       540 6.77445E-01
 -1       541 6.21279E-01
 -1       542 5.77056E-01
 -1       543 5.44975E-01
 -1       544 5.24449E-01
 -1       545 5.14467E-01
 -1       546 5.25658E-01
 -1       547 5.46072E-01
 -1       548 5.71286E-01
 -1       549 5.99733E-01
 -1       550 6.29613E-01
 -1       551 6.58929E-01
 -1       552 6.85553E-01
 -1       553 7.07346E-01
 -1       554 7.22319E-01
 -1       555 7.28829E-01
 -1       556 7.28829E-01
 -1       557 7.25721E-01
 -1       558 7.12813E-01
 -1       559 6.88906E-01
 -1       560 6.64519E-01
 -1       561 9.17195E-01
 -1       562 9.54734E-01
 -1       563 9.54734E-01
 -1       564 9.41889E-01
 -1       565 8.87270E-01
 -1       566 8.16622E-01
 -1       567 7.43923E-01
 -1       568 6.77445E-01
 -1       569 6.21279E-01
 -1       570 5.77056E-01
 -1       571 5.44975E-01
 -1       572 5.24449E-01
 -1       573 5.14467E-01
 -1       574 5.25658E-01
 -1       575 5.46072E-01
 -1       576 5.71286E-01
 -1       577 5.99733E-01
 -1       578 6.29613E-01
 -1       579 6.58929E-01
 -1       580 6.85553E-01
 -1       581 7.07346E-01
 -1       582 7.22319E-01
 -1       583 7.28829E-01
 -1       584 7.28829E-01
 -1       585 7.25721E-01
 -1       586 7.12813E-01
 -1       587 6.88906E-01
 -1       588 6.64519E-01
 -1       589 9.61047E+00
 -1       590 9.86648E+00
 -1       591 9.86648E+00
 -1       592 9.60882E+00
 -1       593 9.11274E+00
 -1       594 8.53692E+00
 -1       595 7.98766E+00
 -1       596 7.99517E+00
 -1       597 8.54136E+00
 -1       598 9.11352E+00
 -1       599 9.60532E+00
 -1       600 9.85792E+00
 -1       601 9.85792E+00
 -1       602 9.59535E+00
 -1       603 5.61242E+00
 -1       604 6.83688E+00
 -1       605 7.52003E+00
 -1       606 7.73128E+00
 -1       607 7.73128E+00
 -1       608 7.61059E+00
 -1       609 7.30260E+00
 -1       610 7.30008E+00
 -1       611 7.60490E+00
 -1       612 7.72225E+00
 -1       613 7.72225E+00
 -1       614 7.50796E+00
 -1       615 6.82251E+00
 -1       616 5.59695E+00
 -1       617 3.37496E+00
 -1       618 4.32448E+00
 -1       619 5.49003E+00
 -1       620 6.23742E+00
 -1       621 6.55401E+00
 -1       622 6.55401E+00
 -1       623 6.53113E+00
 -1       624 6.51971E+00
 -1       625 6.54008E+00
 -1       626 6.54008E+00
 -1       627 6.22188E+00
 -1       628 5.47454E+00
 -1       629 4.31110E+00
 -1       630 3.37836E+00
 -1       631 3.09632E+00
 -1       632 3.58897E+00
 -1       633 4.10267E+00
 -1       634 4.77489E+00
 -1       635 5.42756E+00
 -1       636 5.68422E+00
 -1       637 5.68422E+00
 -1       638 5.66574E+00
 -1       639 5.66574E+00
 -1       640 5.40818E+00
 -1       641 4.75676E+00
 -1       642 4.11342E+00
 -1       643 3.60218E+00
 -1       644 3.11346E+00
 -1       645 2.96596E+00
 -1       646 3.23607E+00
 -1       647 3.59630E+00
 -1       648 4.01500E+00
 -1       649 4.42672E+00
 -1       650 4.79705E+00
 -1       651 4.92201E+00
 -1       652 4.92201E+00
 -1       653 4.78472E+00
 -1       654 4.44378E+00
 -1       655 4.03146E+00
 -1       656 3.61440E+00
 -1       657 3.25751E+00
 -1       658 2.99161E+00
 -1       659 2.85762E+00
 -1       660 3.00692E+00
 -1       661 3.23232E+00
 -1       662 3.54045E+00
 -1       663 3.87954E+00
 -1       664 4.13574E+00
 -1       665 4.19948E+00
 -1       666 4.19948E+00
 -1       667 4.15893E+00
 -1       668 3.90084E+00
 -1       669 3.56191E+00
 -1       670 3.25597E+00
 -1       671 3.03389E+00
 -1       672 2.88840E+00
 -1       673 2.72173E+00
 -1       674 2.82345E+00
 -1       675 2.95642E+00
 -1       676 3.14988E+00
 -1       677 3.38034E+00
 -1       678 3.53719E+00
 -1       679 3.53719E+00
 -1       680 3.56259E+00
 -1       681 3.56259E+00
 -1       682 3.40473E+00
 -1       683 3.17512E+00
 -1       684 2.98398E+00
 -1       685 2.85399E+00
 -1       686 2.75555E+00
 -1       687 2.54777E+00
 -1       688 2.64425E+00
 -1       689 2.72483E+00
 -1       690 2.82231E+00
 -1       691 2.93443E+00
 -1       692 2.97520E+00
 -1       693 2.97520E+00
 -1       694 3.00140E+00
 -1       695 3.00140E+00
 -1       696 2.96086E+00
 -1       697 2.85017E+00
 -1       698 2.75496E+00
 -1       699 2.67700E+00
 -1       700 2.58328E+00
 -1       701 2.34207E+00
 -1       702 2.45297E+00
 -1       703 2.51012E+00
 -1       704 2.53744E+00
 -1       705 2.54140E+00
 -1       706 2.54140E+00
 -1       707 2.46618E+00
 -1       708 2.49203E+00
 -1       709 2.56888E+00
 -1       710 2.56888E+00
 -1       711 2.56689E+00
 -1       712 2.54179E+00
 -1       713 2.48695E+00
 -1       714 2.37827E+00
 -1       715 2.11703E+00
 -1       716 2.24762E+00
 -1       717 2.29886E+00
 -1       718 2.29886E+00
 -1       719 2.28030E+00
 -1       720 2.19710E+00
 -1       721 2.02006E+00
 -1       722 2.04464E+00
 -1       723 2.22475E+00
 -1       724 2.31046E+00
 -1       725 2.33125E+00
 -1       726 2.33125E+00
 -1       727 2.28204E+00
 -1       728 2.15306E+00
 -1       729 1.88586E+00
 -1       730 2.03338E+00
 -1       731 2.08732E+00
 -1       732 2.08732E+00
 -1       733 2.04214E+00
 -1       734 1.89607E+00
 -1       735 1.63992E+00
 -1       736 1.66253E+00
 -1       737 1.92311E+00
 -1       738 2.07224E+00
 -1       739 2.11973E+00
 -1       740 2.11973E+00
 -1       741 2.06757E+00
 -1       742 1.92093E+00
 -1       743 1.65996E+00
 -1       744 1.81825E+00
 -1       745 1.87747E+00
 -1       746 1.87747E+00
 -1       747 1.81921E+00
 -1       748 1.63302E+00
 -1       749 1.32316E+00
 -1       750 1.34328E+00
 -1       751 1.65874E+00
 -1       752 1.84858E+00
 -1       753 1.90929E+00
 -1       754 1.90929E+00
 -1       755 1.85159E+00
 -1       756 1.69336E+00
 -1       757 1.44758E+00
 -1       758 1.61110E+00
 -1       759 1.67541E+00
 -1       760 1.67541E+00
 -1       761 1.61242E+00
 -1       762 1.40387E+00
 -1       763 1.06296E+00
 -1       764 1.08022E+00
 -1       765 1.42769E+00
 -1       766 1.64045E+00
 -1       767 1.70606E+00
 -1       768 1.70606E+00
 -1       769 1.64309E+00
 -1       770 1.47884E+00
 -1       771 1.24826E+00
 -1       772 1.40973E+00
 -1       773 1.47902E+00
 -1       774 1.47902E+00
 -1       775 1.41809E+00
 -1       776 1.20124E+00
 -1       777 8.48543E-01
 -1       778 8.62662E-01
 -1       779 1.22255E+00
 -1       780 1.44403E+00
 -1       781 1.50764E+00
 -1       782 1.50764E+00
 -1       783 1.43952E+00
 -1       784 1.27706E+00
 -1       785 1.40855E+01
 -1       786 5.63670E+01
 -1       787 5.63670E+01
 -1       788 2.76204E+01
 -1       789 2.16570E+01
 -1       790 1.80897E+01
 -1       791 1.58283E+01
 -1       792 1.58283E+01
 -1       793 1.80897E+01
 -1       794 2.16570E+01
 -1       795 2.76204E+01
 -1       796 5.63670E+01
 -1       797 5.63670E+01
 -1       798 1.40855E+01
 -1       799 1.12723E+01
 -1       800 9.37616E+00
 -1       801 1.15824E+01
 -1       802 1.42246E+01
 -1       803 1.47762E+01
 -1       804 1.49569E+01
 -1       805 1.49569E+01
 -1       806 1.49569E+01
 -1       807 1.49569E+01
 -1       808 1.47762E+01
 -1       809 1.42246E+01
 -1       810 1.15824E+01
 -1       811 9.37616E+00
 -1       812 1.12723E+01
 -1       813 1.23937E+01
 -1       814 1.17051E+01
 -1       815 9.69881E+00
 -1       816 1.06088E+01
 -1       817 1.38167E+01
 -1       818 1.49569E+01
 -1       819 1.49569E+01
 -1       820 1.49569E+01
 -1       821 1.49569E+01
 -1       822 1.38167E+01
 -1       823 1.06088E+01
 -1       824 9.69881E+00
 -1       825 1.17051E+01
 -1       826 1.23937E+01
 -1       827 1.25842E+01
 -1       828 1.25842E+01
 -1       829 1.17542E+01
 -1       830 9.67972E+00
 -1       831 1.19873E+01
 -1       832 1.49478E+01
 -1       833 1.49478E+01
 -1       834 1.49478E+01
 -1       835 1.49478E+01
 -1       836 1.19873E+01
 -1       837 9.67972E+00
 -1       838 1.17542E+01
 -1       839 1.25842E+01
 -1       840 1.25842E+01
 -1       841 1.26116E+01
 -1       842 1.26116E+01
 -1       843 1.24650E+01
 -1       844 1.14259E+01
 -1       845 1.04272E+01
 -1       846 1.40881E+01
 -1       847 1.40881E+01
 -1       848 1.40881E+01
 -1       849 1.40881E+01
 -1       850 1.04272E+01
 -1       851 1.14259E+01
 -1       852 1.24650E+01
 -1       853 1.26116E+01
 -1       854 1.26116E+01
 -1       855 1.26116E+01
 -1       856 1.26116E+01
 -1       857 1.24650E+01
 -1       858 1.20094E+01
 -1       859 1.07421E+01
 -1       860 1.26306E+01
 -1       861 1.26306E+01
 -1       862 1.26306E+01
 -1       863 1.26306E+01
 -1       864 1.07421E+01
 -1       865 1.20094E+01
 -1       866 1.24650E+01
 -1       867 1.26116E+01
 -1       868 1.26116E+01
 -1       869 1.21477E+01
 -1       870 1.24356E+01
 -1       871 1.24356E+01
 -1       872 1.20094E+01
 -1       873 1.11646E+01
 -1       874 9.59602E+00
 -1       875 6.87900E+00
 -1       876 6.87900E+00
 -1       877 9.59602E+00
 -1       878 1.11646E+01
 -1       879 1.20094E+01
 -1       880 1.24356E+01
 -1       881 1.24356E+01
 -1       882 1.21477E+01
 -1       883 1.13890E+01
 -1       884 1.19572E+01
 -1       885 1.19572E+01
 -1       886 1.19214E+01
 -1       887 1.11646E+01
 -1       888 9.70716E+00
 -1       889 7.13483E+00
 -1       890 7.13483E+00
 -1       891 9.70716E+00
 -1       892 1.11646E+01
 -1       893 1.19214E+01
 -1       894 1.19572E+01
 -1       895 1.19572E+01
 -1       896 1.13890E+01
 -1       897 1.04593E+01
 -1       898 1.11999E+01
 -1       899 1.14157E+01
 -1       900 1.14157E+01
 -1       901 1.09678E+01
 -1       902 9.70716E+00
 -1       903 7.13483E+00
 -1       904 7.13483E+00
 -1       905 9.70716E+00
 -1       906 1.09678E+01
 -1       907 1.14157E+01
 -1       908 1.14157E+01
 -1       909 1.11999E+01
 -1       910 1.04593E+01
 -1       911 9.44320E+00
 -1       912 1.02765E+01
 -1       913 1.06489E+01
 -1       914 1.06489E+01
 -1       915 1.03907E+01
 -1       916 9.28726E+00
 -1       917 6.76299E+00
 -1       918 6.76299E+00
 -1       919 9.28726E+00
 -1       920 1.03907E+01
 -1       921 1.06489E+01
 -1       922 1.06489E+01
 -1       923 1.02765E+01
 -1       924 9.44320E+00
 -1       925 8.40124E+00
 -1       926 9.26775E+00
 -1       927 9.72884E+00
 -1       928 9.72884E+00
 -1       929 9.58692E+00
 -1       930 8.57573E+00
 -1       931 6.12603E+00
 -1       932 6.12603E+00
 -1       933 8.57573E+00
 -1       934 9.58692E+00
 -1       935 9.72884E+00
 -1       936 9.72884E+00
 -1       937 9.26775E+00
 -1       938 8.40124E+00
 -1       939 7.37752E+00
 -1       940 8.23298E+00
 -1       941 8.73361E+00
 -1       942 8.73361E+00
 -1       943 8.66275E+00
 -1       944 7.72399E+00
 -1       945 5.40755E+00
 -1       946 5.40755E+00
 -1       947 7.72399E+00
 -1       948 8.66275E+00
 -1       949 8.73361E+00
 -1       950 8.73361E+00
 -1       951 8.23298E+00
 -1       952 7.37752E+00
 -1       953 6.40430E+00
 -1       954 7.21562E+00
 -1       955 7.71850E+00
 -1       956 7.71850E+00
 -1       957 7.69057E+00
 -1       958 6.82708E+00
 -1       959 4.69830E+00
 -1       960 4.69830E+00
 -1       961 6.82708E+00
 -1       962 7.69057E+00
 -1       963 7.71850E+00
 -1       964 7.71850E+00
 -1       965 7.21562E+00
 -1       966 6.40430E+00
 -1       967 5.51699E+00
 -1       968 6.26574E+00
 -1       969 6.74053E+00
 -1       970 6.74053E+00
 -1       971 6.72974E+00
 -1       972 5.94363E+00
 -1       973 4.03382E+00
 -1       974 4.03382E+00
 -1       975 5.94363E+00
 -1       976 6.72974E+00
 -1       977 6.74053E+00
 -1       978 6.74053E+00
 -1       979 6.26574E+00
 -1       980 5.51699E+00
 -1       981 9.59535E+00
 -1       982 9.85792E+00
 -1       983 9.85792E+00
 -1       984 9.60532E+00
 -1       985 9.11352E+00
 -1       986 8.54136E+00
 -1       987 7.99517E+00
 -1       988 7.98766E+00
 -1       989 8.53692E+00
 -1       990 9.11274E+00
 -1       991 9.60882E+00
 -1       992 9.86648E+00
 -1       993 9.86648E+00
 -1       994 9.61047E+00
 -1       995 5.59695E+00
 -1       996 6.82251E+00
 -1       997 7.50796E+00
 -1       998 7.72225E+00
 -1       999 7.72225E+00
 -1      1000 7.60490E+00
 -1      1001 7.30008E+00
 -1      1002 7.30260E+00
 -1      1003 7.61059E+00
 -1      1004 7.73128E+00
 -1      1005 7.73128E+00
 -1      1006 7.52003E+00
 -1      1007 6.83688E+00
 -1      1008 5.61242E+00
 -1      1009 3.37836E+00
 -1      1010 4.31110E+00
 -1      1011 5.47454E+00
 -1      1012 6.22188E+00
 -1      1013 6.54008E+00
 -1      1014 6.54008E+00
 -1      1015 6.51971E+00
 -1      1016 6.53113E+00
 -1      1017 6.55401E+00
 -1      1018 6.55401E+00
 -1      1019 6.23742E+00
 -1      1020 5.49003E+00
 -1      1021 4.32448E+00
 -1      1022 3.37496E+00
 -1      1023 3.11346E+00
 -1      1024 3.60218E+00
 -1      1025 4.11342E+00
 -1      1026 4.75676E+00
 -1      1027 5.40818E+00
 -1      1028 5.66574E+00
 -1      1029 5.66574E+00
 -1      1030 5.68422E+00
 -1      1031 5.68422E+00
 -1      1032 5.42756E+00
 -1      1033 4.77489E+00
 -1      1034 4.10267E+00
 -1      1035 3.58897E+00
 -1      1036 3.09632E+00
 -1      1037 2.99161E+00
 -1      1038 3.25751E+00
 -1      1039 3.61440E+00
 -1      1040 4.03146E+00
 -1      1041 4.44378E+00
 -1      1042 4.78472E+00
 -1      1043 4.92201E+00
 -1      1044 4.92201E+00
 -1      1045 4.79705E+00
 -1      1046 4.42672E+00
 -1      1047 4.01500E+00
 -1      1048 3.59630E+00
 -1      1049 3.23607E+00
 -1      1050 2.96596E+00
 -1      1051 2.88840E+00
 -1      1052 3.03389E+00
 -1      1053 3.25597E+00
 -1      1054 3.56191E+00
 -1      1055 3.90084E+00
 -1      1056 4.15893E+00
 -1      1057 4.19948E+00
 -1      1058 4.19948E+00
 -1      1059 4.13574E+00
 -1      1060 3.87954E+00
 -1      1061 3.54045E+00
 -1      1062 3.23232E+00
 -1      1063 3.00692E+00
 -1      1064 2.85762E+00
 -1      1065 2.75555E+00
 -1      1066 2.85399E+00
 -1      1067 2.98398E+00
 -1      1068 3.17512E+00
 -1      1069 3.40473E+00
 -1      1070 3.56259E+00
 -1      1071 3.56259E+00
 -1      1072 3.53719E+00
 -1      1073 3.53719E+00
 -1      1074 3.38034E+00
 -1      1075 3.14988E+00
 -1      1076 2.95642E+00
 -1      1077 2.82345E+00
 -1      1078 2.72173E+00
 -1      1079 2.58328E+00
 -1      1080 2.67700E+00
 -1      1081 2.75496E+00
 -1      1082 2.85017E+00
 -1      1083 2.96086E+00
 -1      1084 3.00140E+00
 -1      1085 3.00140E+00
 -1      1086 2.97520E+00
 -1      1087 2.97520E+00
 -1      1088 2.93443E+00
 -1      1089 2.82231E+00
 -1      1090 2.72483E+00
 -1      1091 2.64425E+00
 -1      1092 2.54777E+00
 -1      1093 2.37827E+00
 -1      1094 2.48695E+00
 -1      1095 2.54179E+00
 -1      1096 2.56689E+00
 -1      1097 2.56888E+00
 -1      1098 2.56888E+00
 -1      1099 2.49203E+00
 -1      1100 2.46618E+00
 -1      1101 2.54140E+00
 -1      1102 2.54140E+00
 -1      1103 2.53744E+00
 -1      1104 2.51012E+00
 -1      1105 2.45297E+00
 -1      1106 2.34207E+00
 -1      1107 2.15306E+00
 -1      1108 2.28204E+00
 -1      1109 2.33125E+00
 -1      1110 2.33125E+00
 -1      1111 2.31046E+00
 -1      1112 2.22475E+00
 -1      1113 2.04464E+00
 -1      1114 2.02006E+00
 -1      1115 2.19710E+00
 -1      1116 2.28030E+00
 -1      1117 2.29886E+00
 -1      1118 2.29886E+00
 -1      1119 2.24762E+00
 -1      1120 2.11703E+00
 -1      1121 1.92093E+00
 -1      1122 2.06757E+00
 -1      1123 2.11973E+00
 -1      1124 2.11973E+00
 -1      1125 2.07224E+00
 -1      1126 1.92311E+00
 -1      1127 1.66253E+00
 -1      1128 1.63992E+00
 -1      1129 1.89607E+00
 -1      1130 2.04214E+00
 -1      1131 2.08732E+00
 -1      1132 2.08732E+00
 -1      1133 2.03338E+00
 -1      1134 1.88586E+00
 -1      1135 1.69336E+00
 -1      1136 1.85159E+00
 -1      1137 1.90929E+00
 -1      1138 1.90929E+00
 -1      1139 1.84858E+00
 -1      1140 1.65874E+00
 -1      1141 1.34328E+00
 -1      1142 1.32316E+00
 -1      1143 1.63302E+00
 -1      1144 1.81921E+00
 -1      1145 1.87747E+00
 -1      1146 1.87747E+00
 -1      1147 1.81825E+00
 -1      1148 1.65996E+00
 -1      1149 1.47884E+00
 -1      1150 1.64309E+00
 -1      1151 1.70606E+00
 -1      1152 1.70606E+00
 -1      1153 1.64045E+00
 -1      1154 1.42769E+00
 -1      1155 1.08022E+00
 -1      1156 1.06296E+00
 -1      1157 1.40387E+00
 -1      1158 1.61242E+00
 -1      1159 1.67541E+00
 -1      1160 1.67541E+00
 -1      1161 1.61110E+00
 -1      1162 1.44758E+00
 -1      1163 1.27706E+00
 -1      1164 1.43952E+00
 -1      1165 1.50764E+00
 -1      1166 1.50764E+00
 -1      1167 1.44403E+00
 -1      1168 1.22255E+00
 -1      1169 8.62662E-01
 -1      1170 8.48543E-01
 -1      1171 1.20124E+00
 -1      1172 1.41809E+00
 -1      1173 1.47902E+00
 -1      1174 1.47902E+00
 -1      1175 1.40973E+00
 -1      1176 1.24826E+00
 -1      1177 1.38047E+01
 -1      1178 5.55617E+01
 -1      1179 5.55617E+01
 -1      1180 2.77720E+01
 -1      1181 2.17541E+01
 -1      1182 1.81606E+01
 -1      1183 1.58862E+01
 -1      1184 1.58862E+01
 -1      1185 1.81606E+01
 -1      1186 2.17541E+01
 -1      1187 2.77720E+01
 -1      1188 5.55617E+01
 -1      1189 5.55617E+01
 -1      1190 1.38047E+01
 -1      1191 1.12234E+01
 -1      1192 9.25730E+00
 -1      1193 1.15961E+01
 -1      1194 1.42834E+01
 -1      1195 1.48411E+01
 -1      1196 1.50566E+01
 -1      1197 1.50566E+01
 -1      1198 1.50566E+01
 -1      1199 1.50566E+01
 -1      1200 1.48411E+01
 -1      1201 1.42834E+01
 -1      1202 1.15961E+01
 -1      1203 9.25729E+00
 -1      1204 1.12234E+01
 -1      1205 1.23168E+01
 -1      1206 1.16310E+01
 -1      1207 9.63018E+00
 -1      1208 1.06373E+01
 -1      1209 1.38890E+01
 -1      1210 1.50694E+01
 -1      1211 1.50694E+01
 -1      1212 1.50694E+01
 -1      1213 1.50694E+01
 -1      1214 1.38890E+01
 -1      1215 1.06373E+01
 -1      1216 9.63018E+00
 -1      1217 1.16310E+01
 -1      1218 1.23168E+01
 -1      1219 1.24869E+01
 -1      1220 1.24869E+01
 -1      1221 1.16599E+01
 -1      1222 9.59031E+00
 -1      1223 1.20486E+01
 -1      1224 1.50694E+01
 -1      1225 1.50694E+01
 -1      1226 1.50694E+01
 -1      1227 1.50694E+01
 -1      1228 1.20486E+01
 -1      1229 9.59031E+00
 -1      1230 1.16599E+01
 -1      1231 1.24869E+01
 -1      1232 1.24869E+01
 -1      1233 1.24944E+01
 -1      1234 1.24944E+01
 -1      1235 1.23507E+01
 -1      1236 1.13154E+01
 -1      1237 1.04906E+01
 -1      1238 1.42312E+01
 -1      1239 1.42312E+01
 -1      1240 1.42312E+01
 -1      1241 1.42312E+01
 -1      1242 1.04906E+01
 -1      1243 1.13154E+01
 -1      1244 1.23507E+01
 -1      1245 1.24944E+01
 -1      1246 1.24944E+01
 -1      1247 1.24944E+01
 -1      1248 1.24944E+01
 -1      1249 1.23507E+01
 -1      1250 1.18819E+01
 -1      1251 1.06201E+01
 -1      1252 8.42471E+00
 -1      1253 1.20041E+01
 -1      1254 1.20041E+01
 -1      1255 8.42471E+00
 -1      1256 1.06201E+01
 -1      1257 1.18819E+01
 -1      1258 1.23507E+01
 -1      1259 1.24944E+01
 -1      1260 1.24944E+01
 -1      1261 1.20115E+01
 -1      1262 1.23034E+01
 -1      1263 1.23034E+01
 -1      1264 1.18819E+01
 -1      1265 1.10293E+01
 -1      1266 9.47178E+00
 -1      1267 6.78294E+00
 -1      1268 6.78294E+00
 -1      1269 9.47178E+00
 -1      1270 1.10293E+01
 -1      1271 1.18819E+01
 -1      1272 1.23034E+01
 -1      1273 1.23034E+01
 -1      1274 1.20115E+01
 -1      1275 1.12340E+01
 -1      1276 1.18079E+01
 -1      1277 1.18079E+01
 -1      1278 1.17785E+01
 -1      1279 1.10293E+01
 -1      1280 9.57593E+00
 -1      1281 7.03864E+00
 -1      1282 7.03864E+00
 -1      1283 9.57593E+00
 -1      1284 1.10293E+01
 -1      1285 1.17785E+01
 -1      1286 1.18079E+01
 -1      1287 1.18079E+01
 -1      1288 1.12340E+01
 -1      1289 1.02848E+01
 -1      1290 1.10335E+01
 -1      1291 1.12582E+01
 -1      1292 1.12582E+01
 -1      1293 1.08209E+01
 -1      1294 9.57593E+00
 -1      1295 7.03864E+00
 -1      1296 7.03864E+00
 -1      1297 9.57593E+00
 -1      1298 1.08209E+01
 -1      1299 1.12582E+01
 -1      1300 1.12582E+01
 -1      1301 1.10335E+01
 -1      1302 1.02848E+01
 -1      1303 9.24821E+00
 -1      1304 1.00926E+01
 -1      1305 1.04770E+01
 -1      1306 1.04770E+01
 -1      1307 1.02332E+01
 -1      1308 9.15066E+00
 -1      1309 6.66795E+00
 -1      1310 6.66795E+00
 -1      1311 9.15066E+00
 -1      1312 1.02332E+01
 -1      1313 1.04770E+01
 -1      1314 1.04770E+01
 -1      1315 1.00926E+01
 -1      1316 9.24821E+00
 -1      1317 8.18404E+00
 -1      1318 9.06547E+00
 -1      1319 9.54240E+00
 -1      1320 9.54240E+00
 -1      1321 9.41917E+00
 -1      1322 8.43446E+00
 -1      1323 6.03210E+00
 -1      1324 6.03210E+00
 -1      1325 8.43446E+00
 -1      1326 9.41917E+00
 -1      1327 9.54240E+00
 -1      1328 9.54240E+00
 -1      1329 9.06547E+00
 -1      1330 8.18404E+00
 -1      1331 7.13590E+00
 -1      1332 8.01088E+00
 -1      1333 8.53191E+00
 -1      1334 8.53191E+00
 -1      1335 8.48467E+00
 -1      1336 7.57813E+00
 -1      1337 5.31410E+00
 -1      1338 5.31410E+00
 -1      1339 7.57813E+00
 -1      1340 8.48467E+00
 -1      1341 8.53191E+00
 -1      1342 8.53191E+00
 -1      1343 8.01088E+00
 -1      1344 7.13590E+00
 -1      1345 6.13576E+00
 -1      1346 6.97180E+00
 -1      1347 7.50039E+00
 -1      1348 7.50159E+00
 -1      1349 7.50159E+00
 -1      1350 6.67614E+00
 -1      1351 4.60440E+00
 -1      1352 4.60440E+00
 -1      1353 6.67614E+00
 -1      1354 7.50159E+00
 -1      1355 7.50159E+00
 -1      1356 7.50039E+00
 -1      1357 6.97180E+00
 -1      1358 6.13576E+00
 -1      1359 5.21906E+00
 -1      1360 5.99746E+00
 -1      1361 6.50383E+00
 -1      1362 6.52831E+00
 -1      1363 6.52831E+00
 -1      1364 5.78639E+00
 -1      1365 3.93813E+00
 -1      1366 3.93813E+00
 -1      1367 5.78639E+00
 -1      1368 6.52831E+00
 -1      1369 6.52831E+00
 -1      1370 6.50383E+00
 -1      1371 5.99746E+00
 -1      1372 5.21906E+00
 -1      1373 2.06241E+01
 -1      1374 9.50000E+00
 -1      1375 5.65872E+00
 -1      1376 4.11291E+00
 -1      1377 3.02391E+00
 -1      1378 2.36086E+00
 -1      1379 1.91254E+00
 -1      1380 1.59927E+00
 -1      1381 1.37009E+00
 -1      1382 1.19653E+00
 -1      1383 1.06088E+00
 -1      1384 9.51895E-01
 -1      1385 8.62128E-01
 -1      1386 7.86498E-01
 -1      1387 7.21456E-01
 -1      1388 9.50000E+00
 -1      1389 9.50000E+00
 -1      1390 5.65872E+00
 -1      1391 4.11291E+00
 -1      1392 3.02391E+00
 -1      1393 2.42972E+00
 -1      1394 2.00020E+00
 -1      1395 1.68188E+00
 -1      1396 1.44272E+00
 -1      1397 1.25873E+00
 -1      1398 1.11386E+00
 -1      1399 9.97101E-01
 -1      1400 9.00851E-01
 -1      1401 8.19763E-01
 -1      1402 7.50015E-01
 -1      1403 3.04483E+00
 -1      1404 4.66781E+00
 -1      1405 4.66781E+00
 -1      1406 3.74465E+00
 -1      1407 3.02060E+00
 -1      1408 2.42972E+00
 -1      1409 2.00020E+00
 -1      1410 1.68188E+00
 -1      1411 1.46319E+00
 -1      1412 1.28827E+00
 -1      1413 1.14630E+00
 -1      1414 1.02951E+00
 -1      1415 9.31843E-01
 -1      1416 8.48676E-01
 -1      1417 7.76516E-01
 -1      1418 3.04483E+00
 -1      1419 2.36818E+00
 -1      1420 2.86269E+00
 -1      1421 2.86269E+00
 -1      1422 2.61083E+00
 -1      1423 2.27103E+00
 -1      1424 1.94871E+00
 -1      1425 1.68041E+00
 -1      1426 1.46319E+00
 -1      1427 1.28827E+00
 -1      1428 1.14630E+00
 -1      1429 1.03435E+00
 -1      1430 9.41614E-01
 -1      1431 8.60896E-01
 -1      1432 7.89607E-01
 -1      1433 2.73948E+00
 -1      1434 1.05822E+00
 -1      1435 1.79094E+00
 -1      1436 2.00695E+00
 -1      1437 2.00695E+00
 -1      1438 1.92955E+00
 -1      1439 1.76401E+00
 -1      1440 1.58292E+00
 -1      1441 1.41511E+00
 -1      1442 1.26817E+00
 -1      1443 1.14213E+00
 -1      1444 1.03435E+00
 -1      1445 9.41614E-01
 -1      1446 8.60896E-01
 -1      1447 7.90439E-01
 -1      1448 2.40313E+00
 -1      1449 1.17864E+00
 -1      1450 9.91610E-01
 -1      1451 1.39402E+00
 -1      1452 1.52075E+00
 -1      1453 1.52075E+00
 -1      1454 1.50030E+00
 -1      1455 1.41679E+00
 -1      1456 1.31181E+00
 -1      1457 1.20511E+00
 -1      1458 1.10486E+00
 -1      1459 1.01365E+00
 -1      1460 9.31567E-01
 -1      1461 8.57609E-01
 -1      1462 7.90439E-01
 -1      1463 2.09416E+00
 -1      1464 1.17864E+00
 -1      1465 4.92317E-01
 -1      1466 8.94258E-01
 -1      1467 1.12650E+00
 -1      1468 1.21286E+00
 -1      1469 1.21422E+00
 -1      1470 1.21422E+00
 -1      1471 1.17175E+00
 -1      1472 1.10936E+00
 -1      1473 1.04007E+00
 -1      1474 9.70403E-01
 -1      1475 9.03251E-01
 -1      1476 8.39587E-01
 -1      1477 7.79387E-01
 -1      1478 1.82557E+00
 -1      1479 1.17699E+00
 -1      1480 6.01505E-01
 -1      1481 5.19035E-01
 -1      1482 7.91348E-01
 -1      1483 9.40377E-01
 -1      1484 1.00422E+00
 -1      1485 1.01457E+00
 -1      1486 1.01457E+00
 -1      1487 9.93769E-01
 -1      1488 9.56050E-01
 -1      1489 9.09911E-01
 -1      1490 8.60113E-01
 -1      1491 8.09122E-01
 -1      1492 7.58037E-01
 -1      1493 1.59301E+00
 -1      1494 1.12099E+00
 -1      1495 6.42435E-01
 -1      1496 2.63772E-01
 -1      1497 5.24480E-01
 -1      1498 7.02906E-01
 -1      1499 8.06333E-01
 -1      1500 8.56202E-01
 -1      1501 8.70214E-01
 -1      1502 8.70214E-01
 -1      1503 8.61300E-01
 -1      1504 8.38174E-01
 -1      1505 8.06371E-01
 -1      1506 7.69217E-01
 -1      1507 7.28572E-01
 -1      1508 1.39094E+00
 -1      1509 1.04118E+00
 -1      1510 6.44038E-01
 -1      1511 3.40002E-01
 -1      1512 3.20165E-01
 -1      1513 5.06188E-01
 -1      1514 6.30911E-01
 -1      1515 7.07315E-01
 -1      1516 7.47975E-01
 -1      1517 7.63263E-01
 -1      1518 7.63263E-01
 -1      1519 7.60930E-01
 -1      1520 7.46379E-01
 -1      1521 7.23174E-01
 -1      1522 6.93531E-01
 -1      1523 1.21427E+00
 -1      1524 9.52627E-01
 -1      1525 6.44038E-01
 -1      1526 3.79232E-01
 -1      1527 1.67527E-01
 -1      1528 3.48373E-01
 -1      1529 4.81468E-01
 -1      1530 5.73727E-01
 -1      1531 6.33257E-01
 -1      1532 6.67613E-01
 -1      1533 6.83000E-01
 -1      1534 6.84094E-01
 -1      1535 6.84094E-01
 -1      1536 6.74202E-01
 -1      1537 6.55519E-01
 -1      1538 1.05892E+00
 -1      1539 8.63003E-01
 -1      1540 6.23261E-01
 -1      1541 3.94791E-01
 -1      1542 2.02737E-01
 -1      1543 2.24315E-01
 -1      1544 3.57433E-01
 -1      1545 4.57619E-01
 -1      1546 5.29524E-01
 -1      1547 5.78154E-01
 -1      1548 6.08024E-01
 -1      1549 6.22781E-01
 -1      1550 6.25144E-01
 -1      1551 6.25144E-01
 -1      1552 6.16991E-01
 -1      1553 9.24813E-01
 -1      1554 7.76345E-01
 -1      1555 5.90329E-01
 -1      1556 3.95592E-01
 -1      1557 2.37546E-01
 -1      1558 1.27971E-01
 -1      1559 2.56154E-01
 -1      1560 3.58824E-01
 -1      1561 4.38145E-01
 -1      1562 4.97039E-01
 -1      1563 5.38445E-01
 -1      1564 5.64892E-01
 -1      1565 5.78331E-01
 -1      1566 5.80113E-01
 -1      1567 5.80113E-01
 -1      1568 8.23175E-01
 -1      1569 6.94834E-01
 -1      1570 5.51611E-01
 -1      1571 3.95592E-01
 -1      1572 2.64144E-01
 -1      1573 1.69432E-01
 -1      1574 1.74142E-01
 -1      1575 2.75826E-01
 -1      1576 3.59042E-01
 -1      1577 4.25117E-01
 -1      1578 4.75645E-01
 -1      1579 5.12078E-01
 -1      1580 5.35529E-01
 -1      1581 5.46688E-01
 -1      1582 5.46688E-01
 -1      1583 7.36126E-01
 -1      1584 6.24509E-01
 -1      1585 5.11191E-01
 -1      1586 3.87703E-01
 -1      1587 2.85431E-01
 -1      1588 2.03205E-01
 -1      1589 1.31957E-01
 -1      1590 2.06427E-01
 -1      1591 2.91211E-01
 -1      1592 3.62276E-01
 -1      1593 4.20128E-01
 -1      1594 4.65261E-01
 -1      1595 4.97944E-01
 -1      1596 5.18125E-01
 -1      1597 5.25658E-01
 -1      1598 6.55226E-01
 -1      1599 5.71760E-01
 -1      1600 4.75613E-01
 -1      1601 3.78488E-01
 -1      1602 3.00851E-01
 -1      1603 2.30878E-01
 -1      1604 1.67343E-01
 -1      1605 1.48155E-01
 -1      1606 2.33092E-01
 -1      1607 3.07715E-01
 -1      1608 3.71699E-01
 -1      1609 4.24719E-01
 -1      1610 4.66246E-01
 -1      1611 4.95435E-01
 -1      1612 5.11355E-01
 -1      1613 5.80468E-01
 -1      1614 5.23537E-01
 -1      1615 4.50759E-01
 -1      1616 3.75346E-01
 -1      1617 3.12389E-01
 -1      1618 2.54173E-01
 -1      1619 1.98668E-01
 -1      1620 1.46780E-01
 -1      1621 1.82803E-01
 -1      1622 2.60141E-01
 -1      1623 3.29589E-01
 -1      1624 3.90159E-01
 -1      1625 4.40591E-01
 -1      1626 4.79221E-01
 -1      1627 5.05000E-01
 -1      1628 5.11951E-01
 -1      1629 4.78317E-01
 -1      1630 4.27704E-01
 -1      1631 3.71346E-01
 -1      1632 3.21520E-01
 -1      1633 2.74411E-01
 -1      1634 2.27004E-01
 -1      1635 1.80315E-01
 -1      1636 1.38276E-01
 -1      1637 2.17894E-01
 -1      1638 2.92543E-01
 -1      1639 3.60750E-01
 -1      1640 4.20614E-01
 -1      1641 4.69648E-01
 -1      1642 5.14098E-01
 -1      1643 4.49889E-01
 -1      1644 4.36884E-01
 -1      1645 4.05790E-01
 -1      1646 3.66358E-01
 -1      1647 3.29257E-01
 -1      1648 2.92512E-01
 -1      1649 2.53118E-01
 -1      1650 2.12118E-01
 -1      1651 1.69687E-01
 -1      1652 1.79011E-01
 -1      1653 2.58855E-01
 -1      1654 3.35114E-01
 -1      1655 4.05382E-01
 -1      1656 4.68398E-01
 -1      1657 5.31401E-01
 -1      1658 3.99866E-01
 -1      1659 3.99866E-01
 -1      1660 3.85889E-01
 -1      1661 3.61389E-01
 -1      1662 3.36197E-01
 -1      1663 3.08995E-01
 -1      1664 2.77425E-01
 -1      1665 2.42520E-01
 -1      1666 2.04394E-01
 -1      1667 1.62364E-01
 -1      1668 2.26370E-01
 -1      1669 3.11279E-01
 -1      1670 3.93285E-01
 -1      1671 4.73847E-01
 -1      1672 5.56047E-01
 -1      1673 3.67768E-01
 -1      1674 3.68586E-01
 -1      1675 3.68586E-01
 -1      1676 3.57061E-01
 -1      1677 3.42553E-01
 -1      1678 3.23982E-01
 -1      1679 2.99956E-01
 -1      1680 2.71493E-01
 -1      1681 2.38608E-01
 -1      1682 2.00371E-01
 -1      1683 1.92478E-01
 -1      1684 2.86595E-01
 -1      1685 3.81881E-01
 -1      1686 4.79632E-01
 -1      1687 5.86022E-01
 -1      1688 3.40982E-01
 -1      1689 3.54213E-01
 -1      1690 3.54213E-01
 -1      1691 3.53655E-01
 -1      1692 3.48188E-01
 -1      1693 3.37215E-01
 -1      1694 3.20337E-01
 -1      1695 2.98591E-01
 -1      1696 2.71895E-01
 -1      1697 2.39053E-01
 -1      1698 1.97806E-01
 -1      1699 2.57652E-01
 -1      1700 3.67676E-01
 -1      1701 4.80987E-01
 -1      1702 6.17537E-01
 -1      1703 3.19779E-01
 -1      1704 3.42875E-01
 -1      1705 3.51151E-01
 -1      1706 3.52661E-01
 -1      1707 3.52661E-01
 -1      1708 3.48087E-01
 -1      1709 3.37797E-01
 -1      1710 3.22900E-01
 -1      1711 3.03286E-01
 -1      1712 2.77542E-01
 -1      1713 2.42898E-01
 -1      1714 2.20223E-01
 -1      1715 3.45889E-01
 -1      1716 4.80987E-01
 -1      1717 6.44132E-01
 -1      1718 3.04302E-01
 -1      1719 3.34470E-01
 -1      1720 3.49269E-01
 -1      1721 3.55297E-01
 -1      1722 3.55713E-01
 -1      1723 3.55713E-01
 -1      1724 3.51208E-01
 -1      1725 3.43047E-01
 -1      1726 3.31208E-01
 -1      1727 3.14216E-01
 -1      1728 2.88919E-01
 -1      1729 2.50318E-01
 -1      1730 3.10251E-01
 -1      1731 4.70920E-01
 -1      1732 6.55467E-01
 -1      1733 3.00539E-01
 -1      1734 3.34158E-01
 -1      1735 3.53160E-01
 -1      1736 3.60581E-01
 -1      1737 3.60581E-01
 -1      1738 3.59204E-01
 -1      1739 3.59191E-01
 -1      1740 3.57256E-01
 -1      1741 3.53477E-01
 -1      1742 3.46563E-01
 -1      1743 3.33304E-01
 -1      1744 3.08056E-01
 -1      1745 2.62457E-01
 -1      1746 4.39592E-01
 -1      1747 6.55467E-01
 -1      1748 3.13448E-01
 -1      1749 3.43963E-01
 -1      1750 3.63346E-01
 -1      1751 3.74279E-01
 -1      1752 3.78845E-01
 -1      1753 3.78845E-01
 -1      1754 3.77930E-01
 -1      1755 3.71225E-01
 -1      1756 3.71145E-01
 -1      1757 3.72031E-01
 -1      1758 3.72031E-01
 -1      1759 3.64463E-01
 -1      1760 3.38773E-01
 -1      1761 3.74146E-01
 -1      1762 6.35735E-01
 -1      1763 3.29749E-01
 -1      1764 3.54260E-01
 -1      1765 3.71812E-01
 -1      1766 3.84553E-01
 -1      1767 3.94377E-01
 -1      1768 4.02157E-01
 -1      1769 4.07757E-01
 -1      1770 4.09683E-01
 -1      1771 4.09683E-01
 -1      1772 4.04517E-01
 -1      1773 4.12772E-01
 -1      1774 4.14504E-01
 -1      1775 4.14504E-01
 -1      1776 3.87231E-01
 -1      1777 5.61843E-01
 -1      1778 3.48154E-01
 -1      1779 3.63890E-01
 -1      1780 3.77264E-01
 -1      1781 3.89879E-01
 -1      1782 4.03323E-01
 -1      1783 4.18528E-01
 -1      1784 4.35757E-01
 -1      1785 4.54225E-01
 -1      1786 4.71462E-01
 -1      1787 4.82204E-01
 -1      1788 4.82204E-01
 -1      1789 4.76907E-01
 -1      1790 4.96079E-01
 -1      1791 4.96079E-01
 -1      1792 4.66167E-01
 -1      1793 3.98496E-01
 -1      1794 3.85050E-01
 -1      1795 3.78848E-01
 -1      1796 3.89384E-01
 -1      1797 4.04615E-01
 -1      1798 4.25522E-01
 -1      1799 4.52921E-01
 -1      1800 4.96180E-01
 -1      1801 5.55781E-01
 -1      1802 6.29521E-01
 -1      1803 7.15092E-01
 -1      1804 8.03783E-01
 -1      1805 8.73543E-01
 -1      1806 8.73543E-01
 -1      1807 8.73176E-01
 -1      1808 4.33593E-01
 -1      1809 3.98714E-01
 -1      1810 3.75345E-01
 -1      1811 3.79430E-01
 -1      1812 3.93406E-01
 -1      1813 4.16548E-01
 -1      1814 4.50261E-01
 -1      1815 4.96180E-01
 -1      1816 5.55781E-01
 -1      1817 6.41601E-01
 -1      1818 7.64294E-01
 -1      1819 9.16598E-01
 -1      1820 1.08580E+00
 -1      1821 1.25923E+00
 -1      1822 1.28161E+00
 -1      1823 4.62545E-01
 -1      1824 4.06904E-01
 -1      1825 3.73573E-01
 -1      1826 3.61469E-01
 -1      1827 3.69812E-01
 -1      1828 3.91024E-01
 -1      1829 4.25621E-01
 -1      1830 4.76354E-01
 -1      1831 5.46901E-01
 -1      1832 6.41601E-01
 -1      1833 7.64294E-01
 -1      1834 9.26712E-01
 -1      1835 1.17962E+00
 -1      1836 1.51684E+00
 -1      1837 1.81468E+00
 -1      1838 4.82255E-01
 -1      1839 4.08402E-01
 -1      1840 3.66434E-01
 -1      1841 3.43011E-01
 -1      1842 3.35322E-01
 -1      1843 3.50372E-01
 -1      1844 3.79783E-01
 -1      1845 4.26779E-01
 -1      1846 4.96428E-01
 -1      1847 5.96033E-01
 -1      1848 7.35353E-01
 -1      1849 9.26712E-01
 -1      1850 1.17962E+00
 -1      1851 1.51684E+00
 -1      1852 2.04488E+00
 -1      1853 4.90269E-01
 -1      1854 4.08402E-01
 -1      1855 3.53977E-01
 -1      1856 3.19482E-01
 -1      1857 2.99778E-01
 -1      1858 2.98377E-01
 -1      1859 3.17192E-01
 -1      1860 3.52188E-01
 -1      1861 4.08431E-01
 -1      1862 4.94131E-01
 -1      1863 6.21955E-01
 -1      1864 8.11793E-01
 -1      1865 1.09085E+00
 -1      1866 1.51167E+00
 -1      1867 2.04488E+00
 -1      1868 5.07475E-01
 -1      1869 4.09861E-01
 -1      1870 3.36923E-01
 -1      1871 2.92808E-01
 -1      1872 2.63855E-01
 -1      1873 2.47169E-01
 -1      1874 2.46155E-01
 -1      1875 2.63481E-01
 -1      1876 2.96882E-01
 -1      1877 3.52942E-01
 -1      1878 4.42913E-01
 -1      1879 5.86062E-01
 -1      1880 8.14504E-01
 -1      1881 1.18784E+00
 -1      1882 1.77833E+00
 -1      1883 5.17133E-01
 -1      1884 4.14056E-01
 -1      1885 3.32654E-01
 -1      1886 2.71966E-01
 -1      1887 2.28805E-01
 -1      1888 2.03346E-01
 -1      1889 1.86549E-01
 -1      1890 1.77333E-01
 -1      1891 1.83386E-01
 -1      1892 2.03497E-01
 -1      1893 2.42632E-01
 -1      1894 3.12594E-01
 -1      1895 4.36367E-01
 -1      1896 6.51839E-01
 -1      1897 1.07033E+00
 -1      1898 5.17133E-01
 -1      1899 4.14056E-01
 -1      1900 3.33459E-01
 -1      1901 2.77204E-01
 -1      1902 2.36092E-01
 -1      1903 2.06604E-01
 -1      1904 1.86449E-01
 -1      1905 1.74577E-01
 -1      1906 1.77483E-01
 -1      1907 1.97153E-01
 -1      1908 2.36696E-01
 -1      1909 3.08077E-01
 -1      1910 4.34545E-01
 -1      1911 6.54506E-01
 -1      1912 1.07952E+00
 -1      1913 5.13270E-01
 -1      1914 4.11720E-01
 -1      1915 3.33459E-01
 -1      1916 2.83527E-01
 -1      1917 2.51268E-01
 -1      1918 2.32134E-01
 -1      1919 2.28848E-01
 -1      1920 2.46321E-01
 -1      1921 2.80710E-01
 -1      1922 3.38621E-01
 -1      1923 4.31382E-01
 -1      1924 5.78432E-01
 -1      1925 8.12125E-01
 -1      1926 1.19246E+00
 -1      1927 1.79099E+00
 -1      1928 4.95364E-01
 -1      1929 4.02037E-01
 -1      1930 3.31757E-01
 -1      1931 2.88672E-01
 -1      1932 2.67032E-01
 -1      1933 2.65092E-01
 -1      1934 2.85202E-01
 -1      1935 3.22444E-01
 -1      1936 3.81826E-01
 -1      1937 4.71513E-01
 -1      1938 6.04163E-01
 -1      1939 7.99701E-01
 -1      1940 1.08539E+00
 -1      1941 1.51386E+00
 -1      1942 2.05407E+00
 -1      1943 4.64003E-01
 -1      1944 3.84598E-01
 -1      1945 3.26238E-01
 -1      1946 2.90322E-01
 -1      1947 2.83029E-01
 -1      1948 3.00269E-01
 -1      1949 3.33022E-01
 -1      1950 3.84369E-01
 -1      1951 4.59238E-01
 -1      1952 5.64795E-01
 -1      1953 7.10648E-01
 -1      1954 9.08904E-01
 -1      1955 1.16882E+00
 -1      1956 1.51386E+00
 -1      1957 2.05407E+00
 -1      1958 4.20792E-01
 -1      1959 3.59489E-01
 -1      1960 3.15755E-01
 -1      1961 2.90322E-01
 -1      1962 2.98628E-01
 -1      1963 3.24052E-01
 -1      1964 3.64117E-01
 -1      1965 4.21337E-01
 -1      1966 4.99152E-01
 -1      1967 6.01657E-01
 -1      1968 7.32391E-01
 -1      1969 9.08904E-01
 -1      1970 1.16882E+00
 -1      1971 1.51325E+00
 -1      1972 1.81632E+00
 -1      1973 3.68084E-01
 -1      1974 3.27275E-01
 -1      1975 2.99497E-01
 -1      1976 2.86520E-01
 -1      1977 3.03306E-01
 -1      1978 3.32820E-01
 -1      1979 3.74235E-01
 -1      1980 4.28842E-01
 -1      1981 4.99152E-01
 -1      1982 6.01657E-01
 -1      1983 7.32391E-01
 -1      1984 8.92612E-01
 -1      1985 1.06867E+00
 -1      1986 1.24781E+00
 -1      1987 1.27394E+00
 -1      1988 3.09003E-01
 -1      1989 2.89095E-01
 -1      1990 2.77461E-01
 -1      1991 2.84631E-01
 -1      1992 3.03306E-01
 -1      1993 3.32820E-01
 -1      1994 3.74235E-01
 -1      1995 4.28842E-01
 -1      1996 4.97772E-01
 -1      1997 5.81122E-01
 -1      1998 6.76195E-01
 -1      1999 7.73740E-01
 -1      2000 8.51173E-01
 -1      2001 8.54251E-01
 -1      2002 8.54251E-01
 -1      2003 1.99988E-01
 -1      2004 2.15800E-01
 -1      2005 2.32805E-01
 -1      2006 2.52325E-01
 -1      2007 2.75250E-01
 -1      2008 3.01896E-01
 -1      2009 3.31914E-01
 -1      2010 3.63932E-01
 -1      2011 3.94909E-01
 -1      2012 4.19027E-01
 -1      2013 4.26192E-01
 -1      2014 4.26192E-01
 -1      2015 4.51937E-01
 -1      2016 4.51937E-01
 -1      2017 4.28410E-01
 -1      2018 1.54942E-01
 -1      2019 1.81072E-01
 -1      2020 2.04248E-01
 -1      2021 2.26374E-01
 -1      2022 2.48434E-01
 -1      2023 2.70521E-01
 -1      2024 2.91741E-01
 -1      2025 3.09885E-01
 -1      2026 3.20865E-01
 -1      2027 3.20865E-01
 -1      2028 3.41569E-01
 -1      2029 3.55108E-01
 -1      2030 3.55108E-01
 -1      2031 3.37154E-01
 -1      2032 5.77704E-01
 -1      2033 1.11551E-01
 -1      2034 1.45261E-01
 -1      2035 1.72594E-01
 -1      2036 1.95706E-01
 -1      2037 2.15571E-01
 -1      2038 2.32115E-01
 -1      2039 2.44116E-01
 -1      2040 2.48966E-01
 -1      2041 2.62497E-01
 -1      2042 2.80621E-01
 -1      2043 2.87912E-01
 -1      2044 2.87912E-01
 -1      2045 2.74530E-01
 -1      2046 3.89347E-01
 -1      2047 6.44332E-01
 -1      2048 1.13847E-01
 -1      2049 1.08845E-01
 -1      2050 1.38605E-01
 -1      2051 1.61511E-01
 -1      2052 1.78483E-01
 -1      2053 1.89370E-01
 -1      2054 1.97803E-01
 -1      2055 2.17410E-01
 -1      2056 2.31615E-01
 -1      2057 2.36879E-01
 -1      2058 2.36879E-01
 -1      2059 2.27345E-01
 -1      2060 2.70822E-01
 -1      2061 4.45776E-01
 -1      2062 6.53305E-01
 -1      2063 1.33377E-01
 -1      2064 7.32006E-02
 -1      2065 1.03907E-01
 -1      2066 1.25747E-01
 -1      2067 1.39588E-01
 -1      2068 1.55061E-01
 -1      2069 1.74808E-01
 -1      2070 1.88616E-01
 -1      2071 1.94495E-01
 -1      2072 1.94495E-01
 -1      2073 1.88964E-01
 -1      2074 1.92906E-01
 -1      2075 3.17156E-01
 -1      2076 4.64666E-01
 -1      2077 6.53305E-01
 -1      2078 1.46598E-01
 -1      2079 7.87671E-02
 -1      2080 6.98414E-02
 -1      2081 9.00612E-02
 -1      2082 1.08836E-01
 -1      2083 1.31521E-01
 -1      2084 1.47516E-01
 -1      2085 1.55928E-01
 -1      2086 1.55928E-01
 -1      2087 1.54820E-01
 -1      2088 1.41169E-01
 -1      2089 2.31179E-01
 -1      2090 3.38391E-01
 -1      2091 4.64666E-01
 -1      2092 6.27921E-01
 -1      2093 1.54246E-01
 -1      2094 9.18073E-02
 -1      2095 3.90439E-02
 -1      2096 5.80665E-02
 -1      2097 8.56207E-02
 -1      2098 1.05654E-01
 -1      2099 1.18026E-01
 -1      2100 1.21835E-01
 -1      2101 1.21835E-01
 -1      2102 1.15374E-01
 -1      2103 1.73154E-01
 -1      2104 2.52123E-01
 -1      2105 3.41979E-01
 -1      2106 4.58802E-01
 -1      2107 5.84051E-01
 -1      2108 1.57137E-01
 -1      2109 1.01311E-01
 -1      2110 5.32341E-02
 -1      2111 3.65891E-02
 -1      2112 6.17286E-02
 -1      2113 7.89776E-02
 -1      2114 8.80945E-02
 -1      2115 8.82603E-02
 -1      2116 8.82603E-02
 -1      2117 1.34442E-01
 -1      2118 1.92870E-01
 -1      2119 2.60321E-01
 -1      2120 3.41979E-01
 -1      2121 4.37926E-01
 -1      2122 5.32007E-01
 -1      2123 1.57137E-01
 -1      2124 1.07597E-01
 -1      2125 6.49724E-02
 -1      2126 4.13539E-02
 -1      2127 3.82260E-02
 -1      2128 5.27366E-02
 -1      2129 5.90785E-02
 -1      2130 7.54351E-02
 -1      2131 1.09739E-01
 -1      2132 1.52659E-01
 -1      2133 2.03229E-01
 -1      2134 2.60321E-01
 -1      2135 3.33941E-01
 -1      2136 4.08894E-01
 -1      2137 4.78190E-01
 -1      2138 1.56105E-01
 -1      2139 1.11041E-01
 -1      2140 7.96761E-02
 -1      2141 6.05194E-02
 -1      2142 5.05848E-02
 -1      2143 5.67711E-02
 -1      2144 7.22537E-02
 -1      2145 9.56110E-02
 -1      2146 1.26402E-01
 -1      2147 1.63869E-01
 -1      2148 2.06740E-01
 -1      2149 2.59614E-01
 -1      2150 3.18803E-01
 -1      2151 3.76327E-01
 -1      2152 4.26325E-01
 -1      2153 1.51960E-01
 -1      2154 1.17422E-01
 -1      2155 9.22704E-02
 -1      2156 7.60860E-02
 -1      2157 6.80749E-02
 -1      2158 7.52150E-02
 -1      2159 8.96155E-02
 -1      2160 1.10651E-01
 -1      2161 1.37678E-01
 -1      2162 1.69743E-01
 -1      2163 2.06740E-01
 -1      2164 2.53021E-01
 -1      2165 2.99813E-01
 -1      2166 3.43193E-01
 -1      2167 3.78389E-01
 -1      2168 1.49655E-01
 -1      2169 1.22404E-01
 -1      2170 1.01509E-01
 -1      2171 8.82619E-02
 -1      2172 8.26867E-02
 -1      2173 8.97556E-02
 -1      2174 1.02849E-01
 -1      2175 1.21414E-01
 -1      2176 1.44703E-01
 -1      2177 1.71681E-01
 -1      2178 2.05447E-01
 -1      2179 2.42817E-01
 -1      2180 2.79211E-01
 -1      2181 3.11294E-01
 -1      2182 3.35263E-01
 -1      2183 1.48915E-01
 -1      2184 1.24509E-01
 -1      2185 1.07753E-01
 -1      2186 9.73452E-02
 -1      2187 9.41410E-02
 -1      2188 1.00857E-01
 -1      2189 1.12571E-01
 -1      2190 1.28698E-01
 -1      2191 1.48457E-01
 -1      2192 1.71681E-01
 -1      2193 2.00946E-01
 -1      2194 2.30650E-01
 -1      2195 2.58472E-01
 -1      2196 2.81641E-01
 -1      2197 2.97166E-01
 -1      2198 1.45509E-01
 -1      2199 1.24509E-01
 -1      2200 1.11401E-01
 -1      2201 1.03689E-01
 -1      2202 1.02671E-01
 -1      2203 1.08998E-01
 -1      2204 1.19370E-01
 -1      2205 1.33211E-01
 -1      2206 1.49759E-01
 -1      2207 1.70816E-01
 -1      2208 1.94445E-01
 -1      2209 2.17678E-01
 -1      2210 2.38527E-01
 -1      2211 2.54725E-01
 -1      2212 2.63946E-01
 -1      2213 1.40052E-01
 -1      2214 1.24225E-01
 -1      2215 1.12862E-01
 -1      2216 1.07670E-01
 -1      2217 1.08688E-01
 -1      2218 1.14647E-01
 -1      2219 1.23785E-01
 -1      2220 1.35563E-01
 -1      2221 1.49759E-01
 -1      2222 1.68037E-01
 -1      2223 1.86831E-01
 -1      2224 2.04682E-01
 -1      2225 2.19918E-01
 -1      2226 2.30705E-01
 -1      2227 2.35249E-01
 -1      2228 1.33092E-01
 -1      2229 1.22022E-01
 -1      2230 1.12862E-01
 -1      2231 1.09678E-01
 -1      2232 1.12596E-01
 -1      2233 1.18244E-01
 -1      2234 1.26295E-01
 -1      2235 1.36268E-01
 -1      2236 1.49272E-01
 -1      2237 1.64023E-01
 -1      2238 1.78739E-01
 -1      2239 1.92170E-01
 -1      2240 2.02927E-01
 -1      2241 2.09542E-01
 -1      2242 2.10639E-01
 -1      2243 1.25105E-01
 -1      2244 1.18335E-01
 -1      2245 1.12533E-01
 -1      2246 1.11358E-01
 -1      2247 1.14775E-01
 -1      2248 1.20186E-01
 -1      2249 1.27317E-01
 -1      2250 1.36268E-01
 -1      2251 1.47528E-01
 -1      2252 1.59287E-01
 -1      2253 1.70613E-01
 -1      2254 1.80451E-01
 -1      2255 1.87662E-01
 -1      2256 1.91080E-01
 -1      2257 1.91080E-01
 -1      2258 1.16498E-01
 -1      2259 1.13558E-01
 -1      2260 1.10795E-01
 -1      2261 1.11668E-01
 -1      2262 1.15577E-01
 -1      2263 1.20829E-01
 -1      2264 1.27317E-01
 -1      2265 1.35754E-01
 -1      2266 1.44943E-01
 -1      2267 1.54206E-01
 -1      2268 1.62750E-01
 -1      2269 1.69697E-01
 -1      2270 1.74124E-01
 -1      2271 1.75109E-01
 -1      2272 1.75109E-01
 -1      2273 1.08041E-01
 -1      2274 1.08041E-01
 -1      2275 1.09180E-01
 -1      2276 1.11668E-01
 -1      2277 1.15577E-01
 -1      2278 1.20829E-01
 -1      2279 1.27209E-01
 -1      2280 1.34369E-01
 -1      2281 1.41842E-01
 -1      2282 1.49054E-01
 -1      2283 1.55342E-01
 -1      2284 1.59986E-01
 -1      2285 1.62244E-01
 -1      2286 1.62244E-01
 -1      2287 1.61393E-01
 -1      2288 1.02086E-01
 -1      2289 1.04435E-01
 -1      2290 1.07348E-01
 -1      2291 1.10925E-01
 -1      2292 1.15316E-01
 -1      2293 1.20485E-01
 -1      2294 1.26273E-01
 -1      2295 1.32398E-01
 -1      2296 1.38473E-01
 -1      2297 1.44024E-01
 -1      2298 1.48507E-01
 -1      2299 1.51336E-01
 -1      2300 1.51921E-01
 -1      2301 1.51921E-01
 -1      2302 1.49698E-01
 -1      2303 9.59500E-02
 -1      2304 1.00398E-01
 -1      2305 1.04843E-01
 -1      2306 1.09410E-01
 -1      2307 1.14269E-01
 -1      2308 1.19423E-01
 -1      2309 1.24762E-01
 -1      2310 1.30067E-01
 -1      2311 1.35025E-01
 -1      2312 1.39253E-01
 -1      2313 1.42309E-01
 -1      2314 1.43725E-01
 -1      2315 1.43725E-01
 -1      2316 1.43034E-01
 -1      2317 1.39801E-01
 -1      2318 8.98517E-02
 -1      2319 9.61191E-02
 -1      2320 1.01909E-01
 -1      2321 1.07367E-01
 -1      2322 1.12676E-01
 -1      2323 1.17871E-01
 -1      2324 1.22885E-01
 -1      2325 1.27556E-01
 -1      2326 1.31640E-01
 -1      2327 1.34831E-01
 -1      2328 1.36777E-01
 -1      2329 1.37109E-01
 -1      2330 1.37109E-01
 -1      2331 1.35460E-01
 -1      2332 1.31498E-01
 -1      2333 8.39704E-02
 -1      2334 9.17976E-02
 -1      2335 9.87583E-02
 -1      2336 1.05009E-01
 -1      2337 1.10742E-01
 -1      2338 1.16019E-01
 -1      2339 1.20812E-01
 -1      2340 1.25008E-01
 -1      2341 1.28422E-01
 -1      2342 1.30816E-01
 -1      2343 1.31916E-01
 -1      2344 1.31916E-01
 -1      2345 1.31431E-01
 -1      2346 1.29079E-01
 -1      2347 1.24606E-01
 -1      2348 7.84536E-02
 -1      2349 8.76023E-02
 -1      2350 9.55681E-02
 -1      2351 1.02514E-01
 -1      2352 1.08638E-01
 -1      2353 1.14026E-01
 -1      2354 1.18680E-01
 -1      2355 1.22531E-01
 -1      2356 1.25446E-01
 -1      2357 1.27244E-01
 -1      2358 1.27714E-01
 -1      2359 1.27714E-01
 -1      2360 1.26631E-01
 -1      2361 1.23779E-01
 -1      2362 1.18966E-01
 -1      2363 7.34203E-02
 -1      2364 8.36717E-02
 -1      2365 9.24856E-02
 -1      2366 1.00029E-01
 -1      2367 1.06505E-01
 -1      2368 1.12016E-01
 -1      2369 1.16595E-01
 -1      2370 1.20208E-01
 -1      2371 1.22764E-01
 -1      2372 1.24131E-01
 -1      2373 1.24149E-01
 -1      2374 1.24149E-01
 -1      2375 1.22646E-01
 -1      2376 1.19457E-01
 -1      2377 1.14439E-01
 -1      2378 6.89652E-02
 -1      2379 8.01173E-02
 -1      2380 8.96299E-02
 -1      2381 9.76727E-02
 -1      2382 1.04453E-01
 -1      2383 1.10089E-01
 -1      2384 1.14638E-01
 -1      2385 1.18095E-01
 -1      2386 1.20407E-01
 -1      2387 1.21479E-01
 -1      2388 1.21479E-01
 -1      2389 1.21192E-01
 -1      2390 1.19415E-01
 -1      2391 1.16023E-01
 -1      2392 1.10907E-01
 -1      2393 6.51629E-02
 -1      2394 7.70271E-02
 -1      2395 8.70940E-02
 -1      2396 9.55364E-02
 -1      2397 1.02566E-01
 -1      2398 1.08317E-01
 -1      2399 1.12865E-01
 -1      2400 1.16231E-01
 -1      2401 1.18390E-01
 -1      2402 1.19279E-01
 -1      2403 1.19279E-01
 -1      2404 1.18810E-01
 -1      2405 1.16881E-01
 -1      2406 1.13397E-01
 -1      2407 1.08271E-01
 -1      2408 6.20707E-02
 -1      2409 7.44678E-02
 -1      2410 8.49473E-02
 -1      2411 9.36864E-02
 -1      2412 1.00904E-01
 -1      2413 1.06747E-01
 -1      2414 1.11310E-01
 -1      2415 1.14633E-01
 -1      2416 1.16715E-01
 -1      2417 1.17515E-01
 -1      2418 1.17515E-01
 -1      2419 1.16967E-01
 -1      2420 1.14991E-01
 -1      2421 1.11509E-01
 -1      2422 1.06450E-01
 -1      2423 9.20897E-02
 -1      2424 9.36510E-02
 -1      2425 9.59531E-02
 -1      2426 9.90817E-02
 -1      2427 1.03369E-01
 -1      2428 1.09027E-01
 -1      2429 1.16118E-01
 -1      2430 1.24870E-01
 -1      2431 1.35564E-01
 -1      2432 1.48535E-01
 -1      2433 1.64188E-01
 -1      2434 1.83005E-01
 -1      2435 2.05557E-01
 -1      2436 2.32512E-01
 -1      2437 2.64640E-01
 -1      2438 3.02807E-01
 -1      2439 3.47955E-01
 -1      2440 4.03119E-01
 -1      2441 4.75497E-01
 -1      2442 5.62618E-01
 -1      2443 6.66670E-01
 -1      2444 7.89321E-01
 -1      2445 9.30811E-01
 -1      2446 1.08814E+00
 -1      2447 1.25281E+00
 -1      2448 1.40203E+00
 -1      2449 1.51438E+00
 -1      2450 1.51438E+00
 -1      2451 8.29369E-02
 -1      2452 8.47476E-02
 -1      2453 8.73144E-02
 -1      2454 9.06880E-02
 -1      2455 9.49457E-02
 -1      2456 1.00195E-01
 -1      2457 1.06578E-01
 -1      2458 1.14275E-01
 -1      2459 1.23513E-01
 -1      2460 1.35181E-01
 -1      2461 1.50550E-01
 -1      2462 1.69260E-01
 -1      2463 1.92002E-01
 -1      2464 2.19622E-01
 -1      2465 2.53157E-01
 -1      2466 2.93865E-01
 -1      2467 3.43257E-01
 -1      2468 4.03119E-01
 -1      2469 4.75497E-01
 -1      2470 5.62618E-01
 -1      2471 6.74121E-01
 -1      2472 8.23576E-01
 -1      2473 1.00839E+00
 -1      2474 1.23359E+00
 -1      2475 1.50136E+00
 -1      2476 1.79833E+00
 -1      2477 2.11515E+00
 -1      2478 2.24284E+00
 -1      2479 7.22461E-02
 -1      2480 7.42258E-02
 -1      2481 7.69364E-02
 -1      2482 8.04401E-02
 -1      2483 8.48277E-02
 -1      2484 9.02238E-02
 -1      2485 9.67921E-02
 -1      2486 1.04743E-01
 -1      2487 1.14343E-01
 -1      2488 1.25926E-01
 -1      2489 1.39910E-01
 -1      2490 1.56812E-01
 -1      2491 1.77272E-01
 -1      2492 2.02079E-01
 -1      2493 2.32204E-01
 -1      2494 2.69789E-01
 -1      2495 3.18926E-01
 -1      2496 3.80796E-01
 -1      2497 4.57878E-01
 -1      2498 5.54069E-01
 -1      2499 6.74121E-01
 -1      2500 8.23576E-01
 -1      2501 1.00839E+00
 -1      2502 1.26179E+00
 -1      2503 1.61352E+00
 -1      2504 2.05696E+00
 -1      2505 2.62530E+00
 -1      2506 3.14592E+00
 -1      2507 6.01567E-02
 -1      2508 6.22100E-02
 -1      2509 6.49269E-02
 -1      2510 6.83745E-02
 -1      2511 7.26490E-02
 -1      2512 7.78804E-02
 -1      2513 8.42396E-02
 -1      2514 9.19471E-02
 -1      2515 1.01284E-01
 -1      2516 1.12609E-01
 -1      2517 1.26373E-01
 -1      2518 1.43149E-01
 -1      2519 1.63663E-01
 -1      2520 1.88837E-01
 -1      2521 2.19846E-01
 -1      2522 2.58190E-01
 -1      2523 3.05798E-01
 -1      2524 3.65147E-01
 -1      2525 4.39426E-01
 -1      2526 5.32728E-01
 -1      2527 6.50254E-01
 -1      2528 7.98475E-01
 -1      2529 1.00658E+00
 -1      2530 1.29448E+00
 -1      2531 1.67976E+00
 -1      2532 2.19849E+00
 -1      2533 2.86992E+00
 -1      2534 3.81929E+00
 -1      2535 4.68348E-02
 -1      2536 4.88573E-02
 -1      2537 5.14348E-02
 -1      2538 5.46327E-02
 -1      2539 5.85426E-02
 -1      2540 6.32877E-02
 -1      2541 6.90291E-02
 -1      2542 7.59754E-02
 -1      2543 8.43943E-02
 -1      2544 9.46283E-02
 -1      2545 1.07116E-01
 -1      2546 1.22419E-01
 -1      2547 1.41261E-01
 -1      2548 1.64578E-01
 -1      2549 1.93594E-01
 -1      2550 2.29912E-01
 -1      2551 2.75663E-01
 -1      2552 3.33699E-01
 -1      2553 4.07879E-01
 -1      2554 5.03477E-01
 -1      2555 6.27757E-01
 -1      2556 7.90800E-01
 -1      2557 1.00658E+00
 -1      2558 1.29448E+00
 -1      2559 1.67976E+00
 -1      2560 2.19849E+00
 -1      2561 3.03709E+00
 -1      2562 4.37059E+00
 -1      2563 3.25055E-02
 -1      2564 3.43912E-02
 -1      2565 3.66865E-02
 -1      2566 3.94484E-02
 -1      2567 4.27544E-02
 -1      2568 4.67079E-02
 -1      2569 5.14437E-02
 -1      2570 5.71362E-02
 -1      2571 6.40099E-02
 -1      2572 7.23531E-02
 -1      2573 8.25371E-02
 -1      2574 9.50413E-02
 -1      2575 1.10489E-01
 -1      2576 1.29695E-01
 -1      2577 1.53736E-01
 -1      2578 1.84052E-01
 -1      2579 2.22585E-01
 -1      2580 2.72001E-01
 -1      2581 3.36006E-01
 -1      2582 4.19842E-01
 -1      2583 5.31051E-01
 -1      2584 6.80702E-01
 -1      2585 8.85361E-01
 -1      2586 1.17038E+00
 -1      2587 1.57543E+00
 -1      2588 2.16454E+00
 -1      2589 3.03709E+00
 -1      2590 4.37059E+00
 -1      2591 1.74402E-02
 -1      2592 1.90889E-02
 -1      2593 2.09731E-02
 -1      2594 2.31346E-02
 -1      2595 2.56286E-02
 -1      2596 2.85277E-02
 -1      2597 3.19256E-02
 -1      2598 3.59429E-02
 -1      2599 4.07348E-02
 -1      2600 4.65005E-02
 -1      2601 5.34963E-02
 -1      2602 6.20535E-02
 -1      2603 7.26032E-02
 -1      2604 8.57100E-02
 -1      2605 1.02122E-01
 -1      2606 1.22842E-01
 -1      2607 1.49231E-01
 -1      2608 1.83167E-01
 -1      2609 2.27288E-01
 -1      2610 2.85369E-01
 -1      2611 3.62941E-01
 -1      2612 4.68304E-01
 -1      2613 6.14313E-01
 -1      2614 8.21503E-01
 -1      2615 1.12459E+00
 -1      2616 1.58167E+00
 -1      2617 2.31630E+00
 -1      2618 3.46701E+00
 -1      2619 1.74402E-02
 -1      2620 1.90889E-02
 -1      2621 2.09731E-02
 -1      2622 2.31346E-02
 -1      2623 2.56286E-02
 -1      2624 2.85277E-02
 -1      2625 3.19256E-02
 -1      2626 3.59429E-02
 -1      2627 4.07348E-02
 -1      2628 4.65005E-02
 -1      2629 5.34963E-02
 -1      2630 6.20535E-02
 -1      2631 7.26032E-02
 -1      2632 8.57100E-02
 -1      2633 1.02122E-01
 -1      2634 1.22842E-01
 -1      2635 1.49231E-01
 -1      2636 1.83167E-01
 -1      2637 2.27288E-01
 -1      2638 2.85369E-01
 -1      2639 3.62941E-01
 -1      2640 4.68304E-01
 -1      2641 6.14313E-01
 -1      2642 8.21503E-01
 -1      2643 1.12459E+00
 -1      2644 1.58167E+00
 -1      2645 2.31630E+00
 -1      2646 3.46701E+00
 -1      2647 3.25055E-02
 -1      2648 3.43912E-02
 -1      2649 3.66865E-02
 -1      2650 3.94484E-02
 -1      2651 4.27544E-02
 -1      2652 4.67079E-02
 -1      2653 5.14437E-02
 -1      2654 5.71362E-02
 -1      2655 6.40099E-02
 -1      2656 7.23531E-02
 -1      2657 8.25371E-02
 -1      2658 9.50413E-02
 -1      2659 1.10489E-01
 -1      2660 1.29695E-01
 -1      2661 1.53736E-01
 -1      2662 1.84052E-01
 -1      2663 2.22585E-01
 -1      2664 2.72001E-01
 -1      2665 3.36006E-01
 -1      2666 4.19842E-01
 -1      2667 5.31051E-01
 -1      2668 6.80702E-01
 -1      2669 8.85361E-01
 -1      2670 1.17038E+00
 -1      2671 1.57543E+00
 -1      2672 2.16454E+00
 -1      2673 3.03709E+00
 -1      2674 4.37059E+00
 -1      2675 4.68348E-02
 -1      2676 4.88573E-02
 -1      2677 5.14348E-02
 -1      2678 5.46327E-02
 -1      2679 5.85426E-02
 -1      2680 6.32877E-02
 -1      2681 6.90291E-02
 -1      2682 7.59754E-02
 -1      2683 8.43943E-02
 -1      2684 9.46283E-02
 -1      2685 1.07116E-01
 -1      2686 1.22419E-01
 -1      2687 1.41261E-01
 -1      2688 1.64578E-01
 -1      2689 1.93594E-01
 -1      2690 2.29912E-01
 -1      2691 2.75663E-01
 -1      2692 3.33699E-01
 -1      2693 4.07879E-01
 -1      2694 5.03477E-01
 -1      2695 6.27757E-01
 -1      2696 7.90800E-01
 -1      2697 1.00658E+00
 -1      2698 1.29448E+00
 -1      2699 1.67976E+00
 -1      2700 2.19849E+00
 -1      2701 3.03709E+00
 -1      2702 4.37059E+00
 -1      2703 6.01567E-02
 -1      2704 6.22100E-02
 -1      2705 6.49269E-02
 -1      2706 6.83745E-02
 -1      2707 7.26490E-02
 -1      2708 7.78804E-02
 -1      2709 8.42396E-02
 -1      2710 9.19471E-02
 -1      2711 1.01284E-01
 -1      2712 1.12609E-01
 -1      2713 1.26373E-01
 -1      2714 1.43149E-01
 -1      2715 1.63663E-01
 -1      2716 1.88837E-01
 -1      2717 2.19846E-01
 -1      2718 2.58190E-01
 -1      2719 3.05798E-01
 -1      2720 3.65147E-01
 -1      2721 4.39426E-01
 -1      2722 5.32728E-01
 -1      2723 6.50254E-01
 -1      2724 7.98475E-01
 -1      2725 1.00658E+00
 -1      2726 1.29448E+00
 -1      2727 1.67976E+00
 -1      2728 2.19849E+00
 -1      2729 2.86992E+00
 -1      2730 3.81929E+00
 -1      2731 7.22461E-02
 -1      2732 7.42258E-02
 -1      2733 7.69364E-02
 -1      2734 8.04401E-02
 -1      2735 8.48277E-02
 -1      2736 9.02238E-02
 -1      2737 9.67921E-02
 -1      2738 1.04743E-01
 -1      2739 1.14343E-01
 -1      2740 1.25926E-01
 -1      2741 1.39910E-01
 -1      2742 1.56812E-01
 -1      2743 1.77272E-01
 -1      2744 2.02079E-01
 -1      2745 2.32204E-01
 -1      2746 2.69789E-01
 -1      2747 3.18926E-01
 -1      2748 3.80796E-01
 -1      2749 4.57878E-01
 -1      2750 5.54069E-01
 -1      2751 6.74121E-01
 -1      2752 8.23576E-01
 -1      2753 1.00839E+00
 -1      2754 1.26179E+00
 -1      2755 1.61352E+00
 -1      2756 2.05696E+00
 -1      2757 2.62530E+00
 -1      2758 3.14592E+00
 -1      2759 8.29369E-02
 -1      2760 8.47476E-02
 -1      2761 8.73144E-02
 -1      2762 9.06880E-02
 -1      2763 9.49457E-02
 -1      2764 1.00195E-01
 -1      2765 1.06578E-01
 -1      2766 1.14275E-01
 -1      2767 1.23513E-01
 -1      2768 1.35181E-01
 -1      2769 1.50550E-01
 -1      2770 1.69260E-01
 -1      2771 1.92002E-01
 -1      2772 2.19622E-01
 -1      2773 2.53157E-01
 -1      2774 2.93865E-01
 -1      2775 3.43257E-01
 -1      2776 4.03119E-01
 -1      2777 4.75497E-01
 -1      2778 5.62618E-01
 -1      2779 6.74121E-01
 -1      2780 8.23576E-01
 -1      2781 1.00839E+00
 -1      2782 1.23359E+00
 -1      2783 1.50136E+00
 -1      2784 1.79833E+00
 -1      2785 2.11515E+00
 -1      2786 2.24284E+00
 -1      2787 9.20897E-02
 -1      2788 9.36510E-02
 -1      2789 9.59531E-02
 -1      2790 9.90817E-02
 -1      2791 1.03369E-01
 -1      2792 1.09027E-01
 -1      2793 1.16118E-01
 -1      2794 1.24870E-01
 -1      2795 1.35564E-01
 -1      2796 1.48535E-01
 -1      2797 1.64188E-01
 -1      2798 1.83005E-01
 -1      2799 2.05557E-01
 -1      2800 2.32512E-01
 -1      2801 2.64640E-01
 -1      2802 3.02807E-01
 -1      2803 3.47955E-01
 -1      2804 4.03119E-01
 -1      2805 4.75497E-01
 -1      2806 5.62618E-01
 -1      2807 6.66670E-01
 -1      2808 7.89321E-01
 -1      2809 9.30811E-01
 -1      2810 1.08814E+00
 -1      2811 1.25281E+00
 -1      2812 1.40203E+00
 -1      2813 1.51438E+00
 -1      2814 1.51438E+00
 -1      2815 1.06450E-01
 -1      2816 1.08271E-01
 -1      2817 1.10907E-01
 -1      2818 1.14439E-01
 -1      2819 1.18966E-01
 -1      2820 1.24606E-01
 -1      2821 1.31498E-01
 -1      2822 1.39801E-01
 -1      2823 1.49698E-01
 -1      2824 1.61393E-01
 -1      2825 1.75109E-01
 -1      2826 1.91080E-01
 -1      2827 2.10639E-01
 -1      2828 2.35249E-01
 -1      2829 2.63946E-01
 -1      2830 2.97166E-01
 -1      2831 3.35263E-01
 -1      2832 3.78389E-01
 -1      2833 4.26325E-01
 -1      2834 4.78190E-01
 -1      2835 5.32007E-01
 -1      2836 5.84051E-01
 -1      2837 6.27921E-01
 -1      2838 6.53305E-01
 -1      2839 6.53305E-01
 -1      2840 6.44332E-01
 -1      2841 5.77704E-01
 -1      2842 4.28410E-01
 -1      2843 1.11509E-01
 -1      2844 1.13397E-01
 -1      2845 1.16023E-01
 -1      2846 1.19457E-01
 -1      2847 1.23779E-01
 -1      2848 1.29079E-01
 -1      2849 1.35460E-01
 -1      2850 1.43034E-01
 -1      2851 1.51921E-01
 -1      2852 1.62244E-01
 -1      2853 1.75109E-01
 -1      2854 1.91080E-01
 -1      2855 2.09542E-01
 -1      2856 2.30705E-01
 -1      2857 2.54725E-01
 -1      2858 2.81641E-01
 -1      2859 3.11294E-01
 -1      2860 3.43193E-01
 -1      2861 3.76327E-01
 -1      2862 4.08894E-01
 -1      2863 4.37926E-01
 -1      2864 4.58802E-01
 -1      2865 4.64666E-01
 -1      2866 4.64666E-01
 -1      2867 4.45776E-01
 -1      2868 3.89347E-01
 -1      2869 3.37154E-01
 -1      2870 4.51937E-01
 -1      2871 1.14991E-01
 -1      2872 1.16881E-01
 -1      2873 1.19415E-01
 -1      2874 1.22646E-01
 -1      2875 1.26631E-01
 -1      2876 1.31431E-01
 -1      2877 1.37109E-01
 -1      2878 1.43725E-01
 -1      2879 1.51921E-01
 -1      2880 1.62244E-01
 -1      2881 1.74124E-01
 -1      2882 1.87662E-01
 -1      2883 2.02927E-01
 -1      2884 2.19918E-01
 -1      2885 2.38527E-01
 -1      2886 2.58472E-01
 -1      2887 2.79211E-01
 -1      2888 2.99813E-01
 -1      2889 3.18803E-01
 -1      2890 3.33941E-01
 -1      2891 3.41979E-01
 -1      2892 3.41979E-01
 -1      2893 3.38391E-01
 -1      2894 3.17156E-01
 -1      2895 2.70822E-01
 -1      2896 2.74530E-01
 -1      2897 3.55108E-01
 -1      2898 4.51937E-01
 -1      2899 1.16967E-01
 -1      2900 1.18810E-01
 -1      2901 1.21192E-01
 -1      2902 1.24149E-01
 -1      2903 1.27714E-01
 -1      2904 1.31916E-01
 -1      2905 1.37109E-01
 -1      2906 1.43725E-01
 -1      2907 1.51336E-01
 -1      2908 1.59986E-01
 -1      2909 1.69697E-01
 -1      2910 1.80451E-01
 -1      2911 1.92170E-01
 -1      2912 2.04682E-01
 -1      2913 2.17678E-01
 -1      2914 2.30650E-01
 -1      2915 2.42817E-01
 -1      2916 2.53021E-01
 -1      2917 2.59614E-01
 -1      2918 2.60321E-01
 -1      2919 2.60321E-01
 -1      2920 2.52123E-01
 -1      2921 2.31179E-01
 -1      2922 1.92906E-01
 -1      2923 2.27345E-01
 -1      2924 2.87912E-01
 -1      2925 3.55108E-01
 -1      2926 4.26192E-01
 -1      2927 1.17515E-01
 -1      2928 1.19279E-01
 -1      2929 1.21479E-01
 -1      2930 1.24149E-01
 -1      2931 1.27714E-01
 -1      2932 1.31916E-01
 -1      2933 1.36777E-01
 -1      2934 1.42309E-01
 -1      2935 1.48507E-01
 -1      2936 1.55342E-01
 -1      2937 1.62750E-01
 -1      2938 1.70613E-01
 -1      2939 1.78739E-01
 -1      2940 1.86831E-01
 -1      2941 1.94445E-01
 -1      2942 2.00946E-01
 -1      2943 2.05447E-01
 -1      2944 2.06740E-01
 -1      2945 2.06740E-01
 -1      2946 2.03229E-01
 -1      2947 1.92870E-01
 -1      2948 1.73154E-01
 -1      2949 1.41169E-01
 -1      2950 1.88964E-01
 -1      2951 2.36879E-01
 -1      2952 2.87912E-01
 -1      2953 3.41569E-01
 -1      2954 4.26192E-01
 -1      2955 1.17515E-01
 -1      2956 1.19279E-01
 -1      2957 1.21479E-01
 -1      2958 1.24131E-01
 -1      2959 1.27244E-01
 -1      2960 1.30816E-01
 -1      2961 1.34831E-01
 -1      2962 1.39253E-01
 -1      2963 1.44024E-01
 -1      2964 1.49054E-01
 -1      2965 1.54206E-01
 -1      2966 1.59287E-01
 -1      2967 1.64023E-01
 -1      2968 1.68037E-01
 -1      2969 1.70816E-01
 -1      2970 1.71681E-01
 -1      2971 1.71681E-01
 -1      2972 1.69743E-01
 -1      2973 1.63869E-01
 -1      2974 1.52659E-01
 -1      2975 1.34442E-01
 -1      2976 1.15374E-01
 -1      2977 1.54820E-01
 -1      2978 1.94495E-01
 -1      2979 2.36879E-01
 -1      2980 2.80621E-01
 -1      2981 3.20865E-01
 -1      2982 4.19027E-01
 -1      2983 1.16715E-01
 -1      2984 1.18390E-01
 -1      2985 1.20407E-01
 -1      2986 1.22764E-01
 -1      2987 1.25446E-01
 -1      2988 1.28422E-01
 -1      2989 1.31640E-01
 -1      2990 1.35025E-01
 -1      2991 1.38473E-01
 -1      2992 1.41842E-01
 -1      2993 1.44943E-01
 -1      2994 1.47528E-01
 -1      2995 1.49272E-01
 -1      2996 1.49759E-01
 -1      2997 1.49759E-01
 -1      2998 1.48457E-01
 -1      2999 1.44703E-01
 -1      3000 1.37678E-01
 -1      3001 1.26402E-01
 -1      3002 1.09739E-01
 -1      3003 8.82603E-02
 -1      3004 1.21835E-01
 -1      3005 1.55928E-01
 -1      3006 1.94495E-01
 -1      3007 2.31615E-01
 -1      3008 2.62497E-01
 -1      3009 3.20865E-01
 -1      3010 3.94909E-01
 -1      3011 1.14633E-01
 -1      3012 1.16231E-01
 -1      3013 1.18095E-01
 -1      3014 1.20208E-01
 -1      3015 1.22531E-01
 -1      3016 1.25008E-01
 -1      3017 1.27556E-01
 -1      3018 1.30067E-01
 -1      3019 1.32398E-01
 -1      3020 1.34369E-01
 -1      3021 1.35754E-01
 -1      3022 1.36268E-01
 -1      3023 1.36268E-01
 -1      3024 1.35563E-01
 -1      3025 1.33211E-01
 -1      3026 1.28698E-01
 -1      3027 1.21414E-01
 -1      3028 1.10651E-01
 -1      3029 9.56110E-02
 -1      3030 7.54351E-02
 -1      3031 8.82603E-02
 -1      3032 1.21835E-01
 -1      3033 1.55928E-01
 -1      3034 1.88616E-01
 -1      3035 2.17410E-01
 -1      3036 2.48966E-01
 -1      3037 3.09885E-01
 -1      3038 3.63932E-01
 -1      3039 1.11310E-01
 -1      3040 1.12865E-01
 -1      3041 1.14638E-01
 -1      3042 1.16595E-01
 -1      3043 1.18680E-01
 -1      3044 1.20812E-01
 -1      3045 1.22885E-01
 -1      3046 1.24762E-01
 -1      3047 1.26273E-01
 -1      3048 1.27209E-01
 -1      3049 1.27317E-01
 -1      3050 1.27317E-01
 -1      3051 1.26295E-01
 -1      3052 1.23785E-01
 -1      3053 1.19370E-01
 -1      3054 1.12571E-01
 -1      3055 1.02849E-01
 -1      3056 8.96155E-02
 -1      3057 7.22537E-02
 -1      3058 5.90785E-02
 -1      3059 8.80945E-02
 -1      3060 1.18026E-01
 -1      3061 1.47516E-01
 -1      3062 1.74808E-01
 -1      3063 1.97803E-01
 -1      3064 2.44116E-01
 -1      3065 2.91741E-01
 -1      3066 3.31914E-01
 -1      3067 1.06747E-01
 -1      3068 1.08317E-01
 -1      3069 1.10089E-01
 -1      3070 1.12016E-01
 -1      3071 1.14026E-01
 -1      3072 1.16019E-01
 -1      3073 1.17871E-01
 -1      3074 1.19423E-01
 -1      3075 1.20485E-01
 -1      3076 1.20829E-01
 -1      3077 1.20829E-01
 -1      3078 1.20186E-01
 -1      3079 1.18244E-01
 -1      3080 1.14647E-01
 -1      3081 1.08998E-01
 -1      3082 1.00857E-01
 -1      3083 8.97556E-02
 -1      3084 7.52150E-02
 -1      3085 5.67711E-02
 -1      3086 5.27366E-02
 -1      3087 7.89776E-02
 -1      3088 1.05654E-01
 -1      3089 1.31521E-01
 -1      3090 1.55061E-01
 -1      3091 1.89370E-01
 -1      3092 2.32115E-01
 -1      3093 2.70521E-01
 -1      3094 3.01896E-01
 -1      3095 1.00904E-01
 -1      3096 1.02566E-01
 -1      3097 1.04453E-01
 -1      3098 1.06505E-01
 -1      3099 1.08638E-01
 -1      3100 1.10742E-01
 -1      3101 1.12676E-01
 -1      3102 1.14269E-01
 -1      3103 1.15316E-01
 -1      3104 1.15577E-01
 -1      3105 1.15577E-01
 -1      3106 1.14775E-01
 -1      3107 1.12596E-01
 -1      3108 1.08688E-01
 -1      3109 1.02671E-01
 -1      3110 9.41410E-02
 -1      3111 8.26867E-02
 -1      3112 6.80749E-02
 -1      3113 5.05848E-02
 -1      3114 3.82260E-02
 -1      3115 6.17286E-02
 -1      3116 8.56207E-02
 -1      3117 1.08836E-01
 -1      3118 1.39588E-01
 -1      3119 1.78483E-01
 -1      3120 2.15571E-01
 -1      3121 2.48434E-01
 -1      3122 2.75250E-01
 -1      3123 9.36864E-02
 -1      3124 9.55364E-02
 -1      3125 9.76727E-02
 -1      3126 1.00029E-01
 -1      3127 1.02514E-01
 -1      3128 1.05009E-01
 -1      3129 1.07367E-01
 -1      3130 1.09410E-01
 -1      3131 1.10925E-01
 -1      3132 1.11668E-01
 -1      3133 1.11668E-01
 -1      3134 1.11358E-01
 -1      3135 1.09678E-01
 -1      3136 1.07670E-01
 -1      3137 1.03689E-01
 -1      3138 9.73452E-02
 -1      3139 8.82619E-02
 -1      3140 7.60860E-02
 -1      3141 6.05194E-02
 -1      3142 4.13539E-02
 -1      3143 3.65891E-02
 -1      3144 5.80665E-02
 -1      3145 9.00612E-02
 -1      3146 1.25747E-01
 -1      3147 1.61511E-01
 -1      3148 1.95706E-01
 -1      3149 2.26374E-01
 -1      3150 2.52325E-01
 -1      3151 8.49473E-02
 -1      3152 8.70940E-02
 -1      3153 8.96299E-02
 -1      3154 9.24856E-02
 -1      3155 9.55681E-02
 -1      3156 9.87583E-02
 -1      3157 1.01909E-01
 -1      3158 1.04843E-01
 -1      3159 1.07348E-01
 -1      3160 1.09180E-01
 -1      3161 1.10795E-01
 -1      3162 1.12533E-01
 -1      3163 1.12862E-01
 -1      3164 1.12862E-01
 -1      3165 1.11401E-01
 -1      3166 1.07753E-01
 -1      3167 1.01509E-01
 -1      3168 9.22704E-02
 -1      3169 7.96761E-02
 -1      3170 6.49724E-02
 -1      3171 5.32341E-02
 -1      3172 3.90439E-02
 -1      3173 6.98414E-02
 -1      3174 1.03907E-01
 -1      3175 1.38605E-01
 -1      3176 1.72594E-01
 -1      3177 2.04248E-01
 -1      3178 2.32805E-01
 -1      3179 7.44678E-02
 -1      3180 7.70271E-02
 -1      3181 8.01173E-02
 -1      3182 8.36717E-02
 -1      3183 8.76023E-02
 -1      3184 9.17976E-02
 -1      3185 9.61191E-02
 -1      3186 1.00398E-01
 -1      3187 1.04435E-01
 -1      3188 1.08041E-01
 -1      3189 1.13558E-01
 -1      3190 1.18335E-01
 -1      3191 1.22022E-01
 -1      3192 1.24225E-01
 -1      3193 1.24509E-01
 -1      3194 1.24509E-01
 -1      3195 1.22404E-01
 -1      3196 1.17422E-01
 -1      3197 1.11041E-01
 -1      3198 1.07597E-01
 -1      3199 1.01311E-01
 -1      3200 9.18073E-02
 -1      3201 7.87671E-02
 -1      3202 7.32006E-02
 -1      3203 1.08845E-01
 -1      3204 1.45261E-01
 -1      3205 1.81072E-01
 -1      3206 2.15800E-01
 -1      3207 6.20707E-02
 -1      3208 6.51629E-02
 -1      3209 6.89652E-02
 -1      3210 7.34203E-02
 -1      3211 7.84536E-02
 -1      3212 8.39704E-02
 -1      3213 8.98517E-02
 -1      3214 9.59500E-02
 -1      3215 1.02086E-01
 -1      3216 1.08041E-01
 -1      3217 1.16498E-01
 -1      3218 1.25105E-01
 -1      3219 1.33092E-01
 -1      3220 1.40052E-01
 -1      3221 1.45509E-01
 -1      3222 1.48915E-01
 -1      3223 1.49655E-01
 -1      3224 1.51960E-01
 -1      3225 1.56105E-01
 -1      3226 1.57137E-01
 -1      3227 1.57137E-01
 -1      3228 1.54246E-01
 -1      3229 1.46598E-01
 -1      3230 1.33377E-01
 -1      3231 1.13847E-01
 -1      3232 1.11551E-01
 -1      3233 1.54942E-01
 -1      3234 1.99988E-01
 -1      3235 3.09003E-01
 -1      3236 2.89095E-01
 -1      3237 2.77461E-01
 -1      3238 2.84631E-01
 -1      3239 3.03306E-01
 -1      3240 3.32820E-01
 -1      3241 3.74235E-01
 -1      3242 4.28842E-01
 -1      3243 4.97772E-01
 -1      3244 5.81122E-01
 -1      3245 6.76195E-01
 -1      3246 7.73740E-01
 -1      3247 8.51173E-01
 -1      3248 8.54251E-01
 -1      3249 8.54251E-01
 -1      3250 3.68084E-01
 -1      3251 3.27275E-01
 -1      3252 2.99497E-01
 -1      3253 2.86520E-01
 -1      3254 3.03306E-01
 -1      3255 3.32820E-01
 -1      3256 3.74235E-01
 -1      3257 4.28842E-01
 -1      3258 4.99152E-01
 -1      3259 6.01657E-01
 -1      3260 7.32391E-01
 -1      3261 8.92612E-01
 -1      3262 1.06867E+00
 -1      3263 1.24781E+00
 -1      3264 1.27394E+00
 -1      3265 4.20792E-01
 -1      3266 3.59489E-01
 -1      3267 3.15755E-01
 -1      3268 2.90322E-01
 -1      3269 2.98628E-01
 -1      3270 3.24052E-01
 -1      3271 3.64117E-01
 -1      3272 4.21337E-01
 -1      3273 4.99152E-01
 -1      3274 6.01657E-01
 -1      3275 7.32391E-01
 -1      3276 9.08904E-01
 -1      3277 1.16882E+00
 -1      3278 1.51325E+00
 -1      3279 1.81632E+00
 -1      3280 4.64003E-01
 -1      3281 3.84598E-01
 -1      3282 3.26238E-01
 -1      3283 2.90322E-01
 -1      3284 2.83029E-01
 -1      3285 3.00269E-01
 -1      3286 3.33022E-01
 -1      3287 3.84369E-01
 -1      3288 4.59238E-01
 -1      3289 5.64795E-01
 -1      3290 7.10648E-01
 -1      3291 9.08904E-01
 -1      3292 1.16882E+00
 -1      3293 1.51386E+00
 -1      3294 2.05407E+00
 -1      3295 4.95364E-01
 -1      3296 4.02037E-01
 -1      3297 3.31757E-01
 -1      3298 2.88672E-01
 -1      3299 2.67032E-01
 -1      3300 2.65092E-01
 -1      3301 2.85202E-01
 -1      3302 3.22444E-01
 -1      3303 3.81826E-01
 -1      3304 4.71513E-01
 -1      3305 6.04163E-01
 -1      3306 7.99701E-01
 -1      3307 1.08539E+00
 -1      3308 1.51386E+00
 -1      3309 2.05407E+00
 -1      3310 5.13270E-01
 -1      3311 4.11720E-01
 -1      3312 3.33459E-01
 -1      3313 2.83527E-01
 -1      3314 2.51268E-01
 -1      3315 2.32134E-01
 -1      3316 2.28848E-01
 -1      3317 2.46321E-01
 -1      3318 2.80710E-01
 -1      3319 3.38621E-01
 -1      3320 4.31382E-01
 -1      3321 5.78432E-01
 -1      3322 8.12125E-01
 -1      3323 1.19246E+00
 -1      3324 1.79099E+00
 -1      3325 5.17133E-01
 -1      3326 4.14056E-01
 -1      3327 3.33459E-01
 -1      3328 2.77204E-01
 -1      3329 2.36092E-01
 -1      3330 2.06604E-01
 -1      3331 1.86449E-01
 -1      3332 1.74577E-01
 -1      3333 1.77483E-01
 -1      3334 1.97153E-01
 -1      3335 2.36696E-01
 -1      3336 3.08077E-01
 -1      3337 4.34545E-01
 -1      3338 6.54506E-01
 -1      3339 1.07952E+00
 -1      3340 5.17133E-01
 -1      3341 4.14056E-01
 -1      3342 3.32654E-01
 -1      3343 2.71966E-01
 -1      3344 2.28805E-01
 -1      3345 2.03346E-01
 -1      3346 1.86549E-01
 -1      3347 1.77333E-01
 -1      3348 1.83386E-01
 -1      3349 2.03497E-01
 -1      3350 2.42632E-01
 -1      3351 3.12594E-01
 -1      3352 4.36367E-01
 -1      3353 6.51839E-01
 -1      3354 1.07033E+00
 -1      3355 5.07475E-01
 -1      3356 4.09861E-01
 -1      3357 3.36923E-01
 -1      3358 2.92808E-01
 -1      3359 2.63855E-01
 -1      3360 2.47169E-01
 -1      3361 2.46155E-01
 -1      3362 2.63481E-01
 -1      3363 2.96882E-01
 -1      3364 3.52942E-01
 -1      3365 4.42913E-01
 -1      3366 5.86062E-01
 -1      3367 8.14504E-01
 -1      3368 1.18784E+00
 -1      3369 1.77833E+00
 -1      3370 4.90269E-01
 -1      3371 4.08402E-01
 -1      3372 3.53977E-01
 -1      3373 3.19482E-01
 -1      3374 2.99778E-01
 -1      3375 2.98377E-01
 -1      3376 3.17192E-01
 -1      3377 3.52188E-01
 -1      3378 4.08431E-01
 -1      3379 4.94131E-01
 -1      3380 6.21955E-01
 -1      3381 8.11793E-01
 -1      3382 1.09085E+00
 -1      3383 1.51167E+00
 -1      3384 2.04488E+00
 -1      3385 4.82255E-01
 -1      3386 4.08402E-01
 -1      3387 3.66434E-01
 -1      3388 3.43011E-01
 -1      3389 3.35322E-01
 -1      3390 3.50372E-01
 -1      3391 3.79783E-01
 -1      3392 4.26779E-01
 -1      3393 4.96428E-01
 -1      3394 5.96033E-01
 -1      3395 7.35353E-01
 -1      3396 9.26712E-01
 -1      3397 1.17962E+00
 -1      3398 1.51684E+00
 -1      3399 2.04488E+00
 -1      3400 4.62545E-01
 -1      3401 4.06904E-01
 -1      3402 3.73573E-01
 -1      3403 3.61469E-01
 -1      3404 3.69812E-01
 -1      3405 3.91024E-01
 -1      3406 4.25621E-01
 -1      3407 4.76354E-01
 -1      3408 5.46901E-01
 -1      3409 6.41601E-01
 -1      3410 7.64294E-01
 -1      3411 9.26712E-01
 -1      3412 1.17962E+00
 -1      3413 1.51684E+00
 -1      3414 1.81468E+00
 -1      3415 4.33593E-01
 -1      3416 3.98714E-01
 -1      3417 3.75345E-01
 -1      3418 3.79430E-01
 -1      3419 3.93406E-01
 -1      3420 4.16548E-01
 -1      3421 4.50261E-01
 -1      3422 4.96180E-01
 -1      3423 5.55781E-01
 -1      3424 6.41601E-01
 -1      3425 7.64294E-01
 -1      3426 9.16598E-01
 -1      3427 1.08580E+00
 -1      3428 1.25923E+00
 -1      3429 1.28161E+00
 -1      3430 3.98496E-01
 -1      3431 3.85050E-01
 -1      3432 3.78848E-01
 -1      3433 3.89384E-01
 -1      3434 4.04615E-01
 -1      3435 4.25522E-01
 -1      3436 4.52921E-01
 -1      3437 4.96180E-01
 -1      3438 5.55781E-01
 -1      3439 6.29521E-01
 -1      3440 7.15092E-01
 -1      3441 8.03783E-01
 -1      3442 8.73543E-01
 -1      3443 8.73543E-01
 -1      3444 8.73176E-01
 -1      3445 3.48154E-01
 -1      3446 3.63890E-01
 -1      3447 3.77264E-01
 -1      3448 3.89879E-01
 -1      3449 4.03323E-01
 -1      3450 4.18528E-01
 -1      3451 4.35757E-01
 -1      3452 4.54225E-01
 -1      3453 4.71462E-01
 -1      3454 4.82204E-01
 -1      3455 4.82204E-01
 -1      3456 4.76907E-01
 -1      3457 4.96079E-01
 -1      3458 4.96079E-01
 -1      3459 4.66167E-01
 -1      3460 3.29749E-01
 -1      3461 3.54260E-01
 -1      3462 3.71812E-01
 -1      3463 3.84553E-01
 -1      3464 3.94377E-01
 -1      3465 4.02157E-01
 -1      3466 4.07757E-01
 -1      3467 4.09683E-01
 -1      3468 4.09683E-01
 -1      3469 4.04517E-01
 -1      3470 4.12772E-01
 -1      3471 4.14504E-01
 -1      3472 4.14504E-01
 -1      3473 3.87231E-01
 -1      3474 5.61843E-01
 -1      3475 3.13448E-01
 -1      3476 3.43963E-01
 -1      3477 3.63346E-01
 -1      3478 3.74279E-01
 -1      3479 3.78845E-01
 -1      3480 3.78845E-01
 -1      3481 3.77930E-01
 -1      3482 3.71225E-01
 -1      3483 3.71145E-01
 -1      3484 3.72031E-01
 -1      3485 3.72031E-01
 -1      3486 3.64463E-01
 -1      3487 3.38773E-01
 -1      3488 3.74146E-01
 -1      3489 6.35735E-01
 -1      3490 3.00539E-01
 -1      3491 3.34158E-01
 -1      3492 3.53160E-01
 -1      3493 3.60581E-01
 -1      3494 3.60581E-01
 -1      3495 3.59204E-01
 -1      3496 3.59191E-01
 -1      3497 3.57256E-01
 -1      3498 3.53477E-01
 -1      3499 3.46563E-01
 -1      3500 3.33304E-01
 -1      3501 3.08056E-01
 -1      3502 2.62457E-01
 -1      3503 4.39592E-01
 -1      3504 6.55467E-01
 -1      3505 3.04302E-01
 -1      3506 3.34470E-01
 -1      3507 3.49269E-01
 -1      3508 3.55297E-01
 -1      3509 3.55713E-01
 -1      3510 3.55713E-01
 -1      3511 3.51208E-01
 -1      3512 3.43047E-01
 -1      3513 3.31208E-01
 -1      3514 3.14216E-01
 -1      3515 2.88919E-01
 -1      3516 2.50318E-01
 -1      3517 3.10251E-01
 -1      3518 4.70920E-01
 -1      3519 6.55467E-01
 -1      3520 3.19779E-01
 -1      3521 3.42875E-01
 -1      3522 3.51151E-01
 -1      3523 3.52661E-01
 -1      3524 3.52661E-01
 -1      3525 3.48087E-01
 -1      3526 3.37797E-01
 -1      3527 3.22900E-01
 -1      3528 3.03286E-01
 -1      3529 2.77542E-01
 -1      3530 2.42898E-01
 -1      3531 2.20223E-01
 -1      3532 3.45889E-01
 -1      3533 4.80987E-01
 -1      3534 6.44132E-01
 -1      3535 3.40982E-01
 -1      3536 3.54213E-01
 -1      3537 3.54213E-01
 -1      3538 3.53655E-01
 -1      3539 3.48188E-01
 -1      3540 3.37215E-01
 -1      3541 3.20337E-01
 -1      3542 2.98591E-01
 -1      3543 2.71895E-01
 -1      3544 2.39053E-01
 -1      3545 1.97806E-01
 -1      3546 2.57652E-01
 -1      3547 3.67676E-01
 -1      3548 4.80987E-01
 -1      3549 6.17537E-01
 -1      3550 3.67768E-01
 -1      3551 3.68586E-01
 -1      3552 3.68586E-01
 -1      3553 3.57061E-01
 -1      3554 3.42553E-01
 -1      3555 3.23982E-01
 -1      3556 2.99956E-01
 -1      3557 2.71493E-01
 -1      3558 2.38608E-01
 -1      3559 2.00371E-01
 -1      3560 1.92478E-01
 -1      3561 2.86595E-01
 -1      3562 3.81881E-01
 -1      3563 4.79632E-01
 -1      3564 5.86022E-01
 -1      3565 3.99866E-01
 -1      3566 3.99866E-01
 -1      3567 3.85889E-01
 -1      3568 3.61389E-01
 -1      3569 3.36197E-01
 -1      3570 3.08995E-01
 -1      3571 2.77425E-01
 -1      3572 2.42520E-01
 -1      3573 2.04394E-01
 -1      3574 1.62364E-01
 -1      3575 2.26370E-01
 -1      3576 3.11279E-01
 -1      3577 3.93285E-01
 -1      3578 4.73847E-01
 -1      3579 5.56047E-01
 -1      3580 4.49889E-01
 -1      3581 4.36884E-01
 -1      3582 4.05790E-01
 -1      3583 3.66358E-01
 -1      3584 3.29257E-01
 -1      3585 2.92512E-01
 -1      3586 2.53118E-01
 -1      3587 2.12118E-01
 -1      3588 1.69687E-01
 -1      3589 1.79011E-01
 -1      3590 2.58855E-01
 -1      3591 3.35114E-01
 -1      3592 4.05382E-01
 -1      3593 4.68398E-01
 -1      3594 5.31401E-01
 -1      3595 5.11951E-01
 -1      3596 4.78317E-01
 -1      3597 4.27704E-01
 -1      3598 3.71346E-01
 -1      3599 3.21520E-01
 -1      3600 2.74411E-01
 -1      3601 2.27004E-01
 -1      3602 1.80315E-01
 -1      3603 1.38276E-01
 -1      3604 2.17894E-01
 -1      3605 2.92543E-01
 -1      3606 3.60750E-01
 -1      3607 4.20614E-01
 -1      3608 4.69648E-01
 -1      3609 5.14098E-01
 -1      3610 5.80468E-01
 -1      3611 5.23537E-01
 -1      3612 4.50759E-01
 -1      3613 3.75346E-01
 -1      3614 3.12389E-01
 -1      3615 2.54173E-01
 -1      3616 1.98668E-01
 -1      3617 1.46780E-01
 -1      3618 1.82803E-01
 -1      3619 2.60141E-01
 -1      3620 3.29589E-01
 -1      3621 3.90159E-01
 -1      3622 4.40591E-01
 -1      3623 4.79221E-01
 -1      3624 5.05000E-01
 -1      3625 6.55226E-01
 -1      3626 5.71760E-01
 -1      3627 4.75613E-01
 -1      3628 3.78488E-01
 -1      3629 3.00851E-01
 -1      3630 2.30878E-01
 -1      3631 1.67343E-01
 -1      3632 1.48155E-01
 -1      3633 2.33092E-01
 -1      3634 3.07715E-01
 -1      3635 3.71699E-01
 -1      3636 4.24719E-01
 -1      3637 4.66246E-01
 -1      3638 4.95435E-01
 -1      3639 5.11355E-01
 -1      3640 7.36126E-01
 -1      3641 6.24509E-01
 -1      3642 5.11191E-01
 -1      3643 3.87703E-01
 -1      3644 2.85431E-01
 -1      3645 2.03205E-01
 -1      3646 1.31957E-01
 -1      3647 2.06427E-01
 -1      3648 2.91211E-01
 -1      3649 3.62276E-01
 -1      3650 4.20128E-01
 -1      3651 4.65261E-01
 -1      3652 4.97944E-01
 -1      3653 5.18125E-01
 -1      3654 5.25658E-01
 -1      3655 8.23175E-01
 -1      3656 6.94834E-01
 -1      3657 5.51611E-01
 -1      3658 3.95592E-01
 -1      3659 2.64144E-01
 -1      3660 1.69432E-01
 -1      3661 1.74142E-01
 -1      3662 2.75826E-01
 -1      3663 3.59042E-01
 -1      3664 4.25117E-01
 -1      3665 4.75645E-01
 -1      3666 5.12078E-01
 -1      3667 5.35529E-01
 -1      3668 5.46688E-01
 -1      3669 5.46688E-01
 -1      3670 9.24813E-01
 -1      3671 7.76345E-01
 -1      3672 5.90329E-01
 -1      3673 3.95592E-01
 -1      3674 2.37546E-01
 -1      3675 1.27971E-01
 -1      3676 2.56154E-01
 -1      3677 3.58824E-01
 -1      3678 4.38145E-01
 -1      3679 4.97039E-01
 -1      3680 5.38445E-01
 -1      3681 5.64892E-01
 -1      3682 5.78331E-01
 -1      3683 5.80113E-01
 -1      3684 5.80113E-01
 -1      3685 1.05892E+00
 -1      3686 8.63003E-01
 -1      3687 6.23261E-01
 -1      3688 3.94791E-01
 -1      3689 2.02737E-01
 -1      3690 2.24315E-01
 -1      3691 3.57433E-01
 -1      3692 4.57619E-01
 -1      3693 5.29524E-01
 -1      3694 5.78154E-01
 -1      3695 6.08024E-01
 -1      3696 6.22781E-01
 -1      3697 6.25144E-01
 -1      3698 6.25144E-01
 -1      3699 6.16991E-01
 -1      3700 1.21427E+00
 -1      3701 9.52627E-01
 -1      3702 6.44038E-01
 -1      3703 3.79232E-01
 -1      3704 1.67527E-01
 -1      3705 3.48373E-01
 -1      3706 4.81468E-01
 -1      3707 5.73727E-01
 -1      3708 6.33257E-01
 -1      3709 6.67613E-01
 -1      3710 6.83000E-01
 -1      3711 6.84094E-01
 -1      3712 6.84094E-01
 -1      3713 6.74202E-01
 -1      3714 6.55519E-01
 -1      3715 1.39094E+00
 -1      3716 1.04118E+00
 -1      3717 6.44038E-01
 -1      3718 3.40002E-01
 -1      3719 3.20165E-01
 -1      3720 5.06188E-01
 -1      3721 6.30911E-01
 -1      3722 7.07315E-01
 -1      3723 7.47975E-01
 -1      3724 7.63263E-01
 -1      3725 7.63263E-01
 -1      3726 7.60930E-01
 -1      3727 7.46379E-01
 -1      3728 7.23174E-01
 -1      3729 6.93531E-01
 -1      3730 1.59301E+00
 -1      3731 1.12099E+00
 -1      3732 6.42435E-01
 -1      3733 2.63772E-01
 -1      3734 5.24480E-01
 -1      3735 7.02906E-01
 -1      3736 8.06333E-01
 -1      3737 8.56202E-01
 -1      3738 8.70214E-01
 -1      3739 8.70214E-01
 -1      3740 8.61300E-01
 -1      3741 8.38174E-01
 -1      3742 8.06371E-01
 -1      3743 7.69217E-01
 -1      3744 7.28572E-01
 -1      3745 1.82557E+00
 -1      3746 1.17699E+00
 -1      3747 6.01505E-01
 -1      3748 5.19035E-01
 -1      3749 7.91348E-01
 -1      3750 9.40377E-01
 -1      3751 1.00422E+00
 -1      3752 1.01457E+00
 -1      3753 1.01457E+00
 -1      3754 9.93769E-01
 -1      3755 9.56050E-01
 -1      3756 9.09911E-01
 -1      3757 8.60113E-01
 -1      3758 8.09122E-01
 -1      3759 7.58037E-01
 -1      3760 2.09416E+00
 -1      3761 1.17864E+00
 -1      3762 4.92317E-01
 -1      3763 8.94258E-01
 -1      3764 1.12650E+00
 -1      3765 1.21286E+00
 -1      3766 1.21422E+00
 -1      3767 1.21422E+00
 -1      3768 1.17175E+00
 -1      3769 1.10936E+00
 -1      3770 1.04007E+00
 -1      3771 9.70403E-01
 -1      3772 9.03251E-01
 -1      3773 8.39587E-01
 -1      3774 7.79387E-01
 -1      3775 2.40313E+00
 -1      3776 1.17864E+00
 -1      3777 9.91610E-01
 -1      3778 1.39402E+00
 -1      3779 1.52075E+00
 -1      3780 1.52075E+00
 -1      3781 1.50030E+00
 -1      3782 1.41679E+00
 -1      3783 1.31181E+00
 -1      3784 1.20511E+00
 -1      3785 1.10486E+00
 -1      3786 1.01365E+00
 -1      3787 9.31567E-01
 -1      3788 8.57609E-01
 -1      3789 7.90439E-01
 -1      3790 2.73948E+00
 -1      3791 1.05822E+00
 -1      3792 1.79094E+00
 -1      3793 2.00695E+00
 -1      3794 2.00695E+00
 -1      3795 1.92955E+00
 -1      3796 1.76401E+00
 -1      3797 1.58292E+00
 -1      3798 1.41511E+00
 -1      3799 1.26817E+00
 -1      3800 1.14213E+00
 -1      3801 1.03435E+00
 -1      3802 9.41614E-01
 -1      3803 8.60896E-01
 -1      3804 7.90439E-01
 -1      3805 3.04483E+00
 -1      3806 2.36818E+00
 -1      3807 2.86269E+00
 -1      3808 2.86269E+00
 -1      3809 2.61083E+00
 -1      3810 2.27103E+00
 -1      3811 1.94871E+00
 -1      3812 1.68041E+00
 -1      3813 1.46319E+00
 -1      3814 1.28827E+00
 -1      3815 1.14630E+00
 -1      3816 1.03435E+00
 -1      3817 9.41614E-01
 -1      3818 8.60896E-01
 -1      3819 7.89607E-01
 -1      3820 3.04483E+00
 -1      3821 4.66781E+00
 -1      3822 4.66781E+00
 -1      3823 3.74465E+00
 -1      3824 3.02060E+00
 -1      3825 2.42972E+00
 -1      3826 2.00020E+00
 -1      3827 1.68188E+00
 -1      3828 1.46319E+00
 -1      3829 1.28827E+00
 -1      3830 1.14630E+00
 -1      3831 1.02951E+00
 -1      3832 9.31843E-01
 -1      3833 8.48676E-01
 -1      3834 7.76516E-01
 -1      3835 9.50000E+00
 -1      3836 9.50000E+00
 -1      3837 5.65872E+00
 -1      3838 4.11291E+00
 -1      3839 3.02391E+00
 -1      3840 2.42972E+00
 -1      3841 2.00020E+00
 -1      3842 1.68188E+00
 -1      3843 1.44272E+00
 -1      3844 1.25873E+00
 -1      3845 1.11386E+00
 -1      3846 9.97101E-01
 -1      3847 9.00851E-01
 -1      3848 8.19763E-01
 -1      3849 7.50015E-01
 -1      3850 2.06241E+01
 -1      3851 9.50000E+00
 -1      3852 5.65872E+00
 -1      3853 4.11291E+00
 -1      3854 3.02391E+00
 -1      3855 2.36086E+00
 -1      3856 1.91254E+00
 -1      3857 1.59927E+00
 -1      3858 1.37009E+00
 -1      3859 1.19653E+00
 -1      3860 1.06088E+00
 -1      3861 9.51895E-01
 -1      3862 8.62128E-01
 -1      3863 7.86498E-01
 -1      3864 7.21456E-01
 -1      3865 6.14470E-01
 -1      3866 6.35067E-01
 -1      3867 6.56286E-01
 -1      3868 6.68292E-01
 -1      3869 6.72353E-01
 -1      3870 6.72353E-01
 -1      3871 6.68574E-01
 -1      3872 6.57847E-01
 -1      3873 6.41451E-01
 -1      3874 6.20987E-01
 -1      3875 5.98240E-01
 -1      3876 5.75065E-01
 -1      3877 5.53306E-01
 -1      3878 5.34737E-01
 -1      3879 5.21039E-01
 -1      3880 5.14467E-01
 -1      3881 5.24449E-01
 -1      3882 5.51566E-01
 -1      3883 5.95433E-01
 -1      3884 6.56347E-01
 -1      3885 7.36520E-01
 -1      3886 8.37603E-01
 -1      3887 9.59800E-01
 -1      3888 1.10009E+00
 -1      3889 1.25000E+00
 -1      3890 1.38693E+00
 -1      3891 1.48954E+00
 -1      3892 1.48954E+00
 -1      3893 5.68528E-01
 -1      3894 5.85424E-01
 -1      3895 6.03725E-01
 -1      3896 6.14164E-01
 -1      3897 6.18083E-01
 -1      3898 6.18083E-01
 -1      3899 6.15560E-01
 -1      3900 6.07325E-01
 -1      3901 5.94409E-01
 -1      3902 5.78123E-01
 -1      3903 5.59970E-01
 -1      3904 5.41571E-01
 -1      3905 5.24611E-01
 -1      3906 5.10800E-01
 -1      3907 5.01872E-01
 -1      3908 5.05802E-01
 -1      3909 5.22432E-01
 -1      3910 5.51566E-01
 -1      3911 5.95433E-01
 -1      3912 6.56347E-01
 -1      3913 7.48853E-01
 -1      3914 8.76907E-01
 -1      3915 1.04207E+00
 -1      3916 1.24932E+00
 -1      3917 1.50087E+00
 -1      3918 1.78398E+00
 -1      3919 2.08959E+00
 -1      3920 2.21316E+00
 -1      3921 5.26668E-01
 -1      3922 5.39917E-01
 -1      3923 5.55130E-01
 -1      3924 5.63500E-01
 -1      3925 5.66430E-01
 -1      3926 5.66430E-01
 -1      3927 5.63997E-01
 -1      3928 5.56823E-01
 -1      3929 5.45761E-01
 -1      3930 5.31898E-01
 -1      3931 5.16502E-01
 -1      3932 5.00980E-01
 -1      3933 4.86842E-01
 -1      3934 4.75688E-01
 -1      3935 4.69286E-01
 -1      3936 4.77925E-01
 -1      3937 4.97480E-01
 -1      3938 5.30700E-01
 -1      3939 5.80884E-01
 -1      3940 6.52014E-01
 -1      3941 7.48853E-01
 -1      3942 8.76907E-01
 -1      3943 1.04207E+00
 -1      3944 1.28196E+00
 -1      3945 1.61651E+00
 -1      3946 2.04403E+00
 -1      3947 2.59672E+00
 -1      3948 3.10724E+00
 -1      3949 4.88286E-01
 -1      3950 4.97871E-01
 -1      3951 5.09838E-01
 -1      3952 5.15734E-01
 -1      3953 5.17006E-01
 -1      3954 5.17006E-01
 -1      3955 5.13735E-01
 -1      3956 5.06467E-01
 -1      3957 4.95911E-01
 -1      3958 4.82971E-01
 -1      3959 4.68708E-01
 -1      3960 4.54311E-01
 -1      3961 4.41091E-01
 -1      3962 4.30472E-01
 -1      3963 4.24023E-01
 -1      3964 4.30972E-01
 -1      3965 4.48881E-01
 -1      3966 4.80298E-01
 -1      3967 5.29145E-01
 -1      3968 6.00545E-01
 -1      3969 7.01254E-01
 -1      3970 8.40187E-01
 -1      3971 1.02895E+00
 -1      3972 1.28196E+00
 -1      3973 1.61811E+00
 -1      3974 2.13852E+00
 -1      3975 2.81108E+00
 -1      3976 3.75704E+00
 -1      3977 4.52945E-01
 -1      3978 4.58801E-01
 -1      3979 4.67363E-01
 -1      3980 4.70444E-01
 -1      3981 4.70444E-01
 -1      3982 4.69518E-01
 -1      3983 4.64667E-01
 -1      3984 4.56372E-01
 -1      3985 4.45226E-01
 -1      3986 4.31969E-01
 -1      3987 4.17460E-01
 -1      3988 4.02669E-01
 -1      3989 3.88666E-01
 -1      3990 3.76629E-01
 -1      3991 3.67875E-01
 -1      3992 3.66541E-01
 -1      3993 3.77981E-01
 -1      3994 4.01104E-01
 -1      3995 4.39742E-01
 -1      3996 4.99157E-01
 -1      3997 5.86730E-01
 -1      3998 7.19194E-01
 -1      3999 9.38592E-01
 -1      4000 1.23010E+00
 -1      4001 1.61811E+00
 -1      4002 2.13852E+00
 -1      4003 2.97565E+00
 -1      4004 4.30282E+00
 -1      4005 4.20369E-01
 -1      4006 4.22408E-01
 -1      4007 4.27421E-01
 -1      4008 4.27421E-01
 -1      4009 4.27406E-01
 -1      4010 4.23856E-01
 -1      4011 4.16848E-01
 -1      4012 4.06807E-01
 -1      4013 3.94221E-01
 -1      4014 3.79677E-01
 -1      4015 3.63841E-01
 -1      4016 3.47448E-01
 -1      4017 3.31297E-01
 -1      4018 3.16255E-01
 -1      4019 3.03277E-01
 -1      4020 2.93452E-01
 -1      4021 2.88752E-01
 -1      4022 2.97605E-01
 -1      4023 3.17529E-01
 -1      4024 3.52641E-01
 -1      4025 4.48812E-01
 -1      4026 6.05510E-01
 -1      4027 8.16046E-01
 -1      4028 1.10565E+00
 -1      4029 1.51380E+00
 -1      4030 2.10409E+00
 -1      4031 2.97565E+00
 -1      4032 4.30282E+00
 -1      4033 3.90391E-01
 -1      4034 3.90391E-01
 -1      4035 3.89857E-01
 -1      4036 3.89857E-01
 -1      4037 3.86527E-01
 -1      4038 3.80032E-01
 -1      4039 3.70442E-01
 -1      4040 3.58134E-01
 -1      4041 3.43500E-01
 -1      4042 3.26988E-01
 -1      4043 3.09075E-01
 -1      4044 2.90259E-01
 -1      4045 2.71046E-01
 -1      4046 2.51947E-01
 -1      4047 2.33483E-01
 -1      4048 2.16198E-01
 -1      4049 2.00692E-01
 -1      4050 1.87672E-01
 -1      4051 1.78041E-01
 -1      4052 1.89941E-01
 -1      4053 2.77889E-01
 -1      4054 3.92443E-01
 -1      4055 5.46374E-01
 -1      4056 7.60084E-01
 -1      4057 1.06805E+00
 -1      4058 1.52794E+00
 -1      4059 2.26268E+00
 -1      4060 3.40852E+00
 -1      4061 3.90391E-01
 -1      4062 3.90391E-01
 -1      4063 3.89857E-01
 -1      4064 3.89857E-01
 -1      4065 3.86527E-01
 -1      4066 3.80032E-01
 -1      4067 3.70442E-01
 -1      4068 3.58134E-01
 -1      4069 3.43500E-01
 -1      4070 3.26988E-01
 -1      4071 3.09075E-01
 -1      4072 2.90259E-01
 -1      4073 2.71046E-01
 -1      4074 2.51947E-01
 -1      4075 2.33483E-01
 -1      4076 2.16198E-01
 -1      4077 2.00692E-01
 -1      4078 1.87672E-01
 -1      4079 1.78041E-01
 -1      4080 1.89941E-01
 -1      4081 2.77889E-01
 -1      4082 3.92443E-01
 -1      4083 5.46374E-01
 -1      4084 7.60084E-01
 -1      4085 1.06805E+00
 -1      4086 1.52794E+00
 -1      4087 2.26268E+00
 -1      4088 3.40852E+00
 -1      4089 4.20369E-01
 -1      4090 4.22408E-01
 -1      4091 4.27421E-01
 -1      4092 4.27421E-01
 -1      4093 4.27406E-01
 -1      4094 4.23856E-01
 -1      4095 4.16848E-01
 -1      4096 4.06807E-01
 -1      4097 3.94221E-01
 -1      4098 3.79677E-01
 -1      4099 3.63841E-01
 -1      4100 3.47448E-01
 -1      4101 3.31297E-01
 -1      4102 3.16255E-01
 -1      4103 3.03277E-01
 -1      4104 2.93452E-01
 -1      4105 2.88752E-01
 -1      4106 2.97605E-01
 -1      4107 3.17529E-01
 -1      4108 3.52641E-01
 -1      4109 4.48812E-01
 -1      4110 6.05510E-01
 -1      4111 8.16046E-01
 -1      4112 1.10565E+00
 -1      4113 1.51380E+00
 -1      4114 2.10409E+00
 -1      4115 2.97565E+00
 -1      4116 4.30282E+00
 -1      4117 4.52945E-01
 -1      4118 4.58801E-01
 -1      4119 4.67363E-01
 -1      4120 4.70444E-01
 -1      4121 4.70444E-01
 -1      4122 4.69518E-01
 -1      4123 4.64667E-01
 -1      4124 4.56372E-01
 -1      4125 4.45226E-01
 -1      4126 4.31969E-01
 -1      4127 4.17460E-01
 -1      4128 4.02669E-01
 -1      4129 3.88666E-01
 -1      4130 3.76629E-01
 -1      4131 3.67875E-01
 -1      4132 3.66541E-01
 -1      4133 3.77981E-01
 -1      4134 4.01104E-01
 -1      4135 4.39742E-01
 -1      4136 4.99157E-01
 -1      4137 5.86730E-01
 -1      4138 7.19194E-01
 -1      4139 9.38592E-01
 -1      4140 1.23010E+00
 -1      4141 1.61811E+00
 -1      4142 2.13852E+00
 -1      4143 2.97565E+00
 -1      4144 4.30282E+00
 -1      4145 4.88286E-01
 -1      4146 4.97871E-01
 -1      4147 5.09838E-01
 -1      4148 5.15734E-01
 -1      4149 5.17006E-01
 -1      4150 5.17006E-01
 -1      4151 5.13735E-01
 -1      4152 5.06467E-01
 -1      4153 4.95911E-01
 -1      4154 4.82971E-01
 -1      4155 4.68708E-01
 -1      4156 4.54311E-01
 -1      4157 4.41091E-01
 -1      4158 4.30472E-01
 -1      4159 4.24023E-01
 -1      4160 4.30972E-01
 -1      4161 4.48881E-01
 -1      4162 4.80298E-01
 -1      4163 5.29145E-01
 -1      4164 6.00545E-01
 -1      4165 7.01254E-01
 -1      4166 8.40187E-01
 -1      4167 1.02895E+00
 -1      4168 1.28196E+00
 -1      4169 1.61811E+00
 -1      4170 2.13852E+00
 -1      4171 2.81108E+00
 -1      4172 3.75704E+00
 -1      4173 5.26668E-01
 -1      4174 5.39917E-01
 -1      4175 5.55130E-01
 -1      4176 5.63500E-01
 -1      4177 5.66430E-01
 -1      4178 5.66430E-01
 -1      4179 5.63997E-01
 -1      4180 5.56823E-01
 -1      4181 5.45761E-01
 -1      4182 5.31898E-01
 -1      4183 5.16502E-01
 -1      4184 5.00980E-01
 -1      4185 4.86842E-01
 -1      4186 4.75688E-01
 -1      4187 4.69286E-01
 -1      4188 4.77925E-01
 -1      4189 4.97480E-01
 -1      4190 5.30700E-01
 -1      4191 5.80884E-01
 -1      4192 6.52014E-01
 -1      4193 7.48853E-01
 -1      4194 8.76907E-01
 -1      4195 1.04207E+00
 -1      4196 1.28196E+00
 -1      4197 1.61651E+00
 -1      4198 2.04403E+00
 -1      4199 2.59672E+00
 -1      4200 3.10724E+00
 -1      4201 5.68528E-01
 -1      4202 5.85424E-01
 -1      4203 6.03725E-01
 -1      4204 6.14164E-01
 -1      4205 6.18083E-01
 -1      4206 6.18083E-01
 -1      4207 6.15560E-01
 -1      4208 6.07325E-01
 -1      4209 5.94409E-01
 -1      4210 5.78123E-01
 -1      4211 5.59970E-01
 -1      4212 5.41571E-01
 -1      4213 5.24611E-01
 -1      4214 5.10800E-01
 -1      4215 5.01872E-01
 -1      4216 5.05802E-01
 -1      4217 5.22432E-01
 -1      4218 5.51566E-01
 -1      4219 5.95433E-01
 -1      4220 6.56347E-01
 -1      4221 7.48853E-01
 -1      4222 8.76907E-01
 -1      4223 1.04207E+00
 -1      4224 1.24932E+00
 -1      4225 1.50087E+00
 -1      4226 1.78398E+00
 -1      4227 2.08959E+00
 -1      4228 2.21316E+00
 -1      4229 6.14470E-01
 -1      4230 6.35067E-01
 -1      4231 6.56286E-01
 -1      4232 6.68292E-01
 -1      4233 6.72353E-01
 -1      4234 6.72353E-01
 -1      4235 6.68574E-01
 -1      4236 6.57847E-01
 -1      4237 6.41451E-01
 -1      4238 6.20987E-01
 -1      4239 5.98240E-01
 -1      4240 5.75065E-01
 -1      4241 5.53306E-01
 -1      4242 5.34737E-01
 -1      4243 5.21039E-01
 -1      4244 5.14467E-01
 -1      4245 5.24449E-01
 -1      4246 5.51566E-01
 -1      4247 5.95433E-01
 -1      4248 6.56347E-01
 -1      4249 7.36520E-01
 -1      4250 8.37603E-01
 -1      4251 9.59800E-01
 -1      4252 1.10009E+00
 -1      4253 1.25000E+00
 -1      4254 1.38693E+00
 -1      4255 1.48954E+00
 -1      4256 1.48954E+00
 -3
 9999
