# vtk DataFile Version 5.1
vtk output
ASCII
DATASET UNSTRUCTURED_GRID
POINTS 4256 float
1.875 1.875 0 1.875 -1.875 0 -1.875 -1.875 0 
-1.875 1.875 0 8 8 0 8 -8 0 
-8 -8 0 -8 8 0 25 37.5 0 
25 8 0 25 -8 0 25 -37.5 0 
8 -37.5 0 -8 -37.5 0 -25 -37.5 0 
-25 -8 0 -25 8 0 -25 37.5 0 
-8 37.5 0 8 37.5 0 7.2287 7.2287 0 
6.53452 6.53452 0 5.90976 5.90976 0 5.34748 5.34748 0 
4.84143 4.84143 0 4.38598 4.38598 0 3.97608 3.97608 0 
3.60717 3.60717 0 3.27514 3.27514 0 2.97633 2.97633 0 
2.70739 2.70739 0 2.46534 2.46534 0 2.24751 2.24751 0 
2.05145 2.05145 0 7.2287 -7.2287 0 6.53452 -6.53452 0 
5.90976 -5.90976 0 5.34748 -5.34748 0 4.84143 -4.84143 0 
4.38598 -4.38598 0 3.97608 -3.97608 0 3.60717 -3.60717 0 
3.27514 -3.27514 0 2.97633 -2.97633 0 2.70739 -2.70739 0 
2.46534 -2.46534 0 2.24751 -2.24751 0 2.05145 -2.05145 0 
-7.2287 -7.2287 0 -6.53452 -6.53452 0 -5.90976 -5.90976 0 
-5.34748 -5.34748 0 -4.84143 -4.84143 0 -4.38598 -4.38598 0 
-3.97608 -3.97608 0 -3.60717 -3.60717 0 -3.27514 -3.27514 0 
-2.97633 -2.97633 0 -2.70739 -2.70739 0 -2.46534 -2.46534 0 
-2.24751 -2.24751 0 -2.05145 -2.05145 0 -7.2287 7.2287 0 
-6.53452 6.53452 0 -5.90976 5.90976 0 -5.34748 5.34748 0 
-4.84143 4.84143 0 -4.38598 4.38598 0 -3.97608 3.97608 0 
-3.60717 3.60717 0 -3.27514 3.27514 0 -2.97633 2.97633 0 
-2.70739 2.70739 0 -2.46534 2.46534 0 -2.24751 2.24751 0 
-2.05145 2.05145 0 2.06072 1.66874 0 2.22386 1.44419 0 
2.36264 1.20382 0 2.47553 0.950267 0 2.5613 0.686298 0 
2.619 0.41481 0 2.64802 0.138777 0 2.64802 -0.138777 0 
2.619 -0.41481 0 2.5613 -0.686298 0 2.47553 -0.950267 0 
2.36264 -1.20382 0 2.22386 -1.44419 0 2.06072 -1.66874 0 
1.66874 -2.06072 0 1.44419 -2.22386 0 1.20382 -2.36264 0 
0.950267 -2.47553 0 0.686298 -2.5613 0 0.41481 -2.619 0 
0.138777 -2.64802 0 -0.138777 -2.64802 0 -0.41481 -2.619 0 
-0.686298 -2.5613 0 -0.950267 -2.47553 0 -1.20382 -2.36264 0 
-1.44419 -2.22386 0 -1.66874 -2.06072 0 -2.06072 -1.66874 0 
-2.22386 -1.44419 0 -2.36264 -1.20382 0 -2.47553 -0.950267 0 
-2.5613 -0.686298 0 -2.619 -0.41481 0 -2.64802 -0.138777 0 
-2.64802 0.138777 0 -2.619 0.41481 0 -2.5613 0.686298 0 
-2.47553 0.950267 0 -2.36264 1.20382 0 -2.22386 1.44419 0 
-2.06072 1.66874 0 -1.66874 2.06072 0 -1.44419 2.22386 0 
-1.20382 2.36264 0 -0.950267 2.47553 0 -0.686298 2.5613 0 
-0.41481 2.619 0 -0.138777 2.64802 0 0.138777 2.64802 0 
0.41481 2.619 0 0.686298 2.5613 0 0.950267 2.47553 0 
1.20382 2.36264 0 1.44419 2.22386 0 1.66874 2.06072 0 
8 6.93333 0 8 5.86667 0 8 4.8 0 
8 3.73333 0 8 2.66667 0 8 1.6 0 
8 0.533333 0 8 -0.533333 0 8 -1.6 0 
8 -2.66667 0 8 -3.73333 0 8 -4.8 0 
8 -5.86667 0 8 -6.93333 0 6.93333 -8 0 
5.86667 -8 0 4.8 -8 0 3.73333 -8 0 
2.66667 -8 0 1.6 -8 0 0.533333 -8 0 
-0.533333 -8 0 -1.6 -8 0 -2.66667 -8 0 
-3.73333 -8 0 -4.8 -8 0 -5.86667 -8 0 
-6.93333 -8 0 -8 -6.93333 0 -8 -5.86667 0 
-8 -4.8 0 -8 -3.73333 0 -8 -2.66667 0 
-8 -1.6 0 -8 -0.533333 0 -8 0.533333 0 
-8 1.6 0 -8 2.66667 0 -8 3.73333 0 
-8 4.8 0 -8 5.86667 0 -8 6.93333 0 
-6.93333 8 0 -5.86667 8 0 -4.8 8 0 
-3.73333 8 0 -2.66667 8 0 -1.6 8 0 
-0.533333 8 0 0.533333 8 0 1.6 8 0 
2.66667 8 0 3.73333 8 0 4.8 8 0 
5.86667 8 0 6.93333 8 0 25 36.4828 0 
25 35.4655 0 25 34.4483 0 25 33.431 0 
25 32.4138 0 25 31.3966 0 25 30.3793 0 
25 29.3621 0 25 28.3448 0 25 27.3276 0 
25 26.3103 0 25 25.2931 0 25 24.2759 0 
25 23.2586 0 25 22.2414 0 25 21.2241 0 
25 20.2069 0 25 19.1897 0 25 18.1724 0 
25 17.1552 0 25 16.1379 0 25 15.1207 0 
25 14.1034 0 25 13.0862 0 25 12.069 0 
25 11.0517 0 25 10.0345 0 25 9.01724 0 
25 6.93333 0 25 5.86667 0 25 4.8 0 
25 3.73333 0 25 2.66667 0 25 1.6 0 
25 0.533333 0 25 -0.533333 0 25 -1.6 0 
25 -2.66667 0 25 -3.73333 0 25 -4.8 0 
25 -5.86667 0 25 -6.93333 0 25 -9.01724 0 
25 -10.0345 0 25 -11.0517 0 25 -12.069 0 
25 -13.0862 0 25 -14.1034 0 25 -15.1207 0 
25 -16.1379 0 25 -17.1552 0 25 -18.1724 0 
25 -19.1897 0 25 -20.2069 0 25 -21.2241 0 
25 -22.2414 0 25 -23.2586 0 25 -24.2759 0 
25 -25.2931 0 25 -26.3103 0 25 -27.3276 0 
25 -28.3448 0 25 -29.3621 0 25 -30.3793 0 
25 -31.3966 0 25 -32.4138 0 25 -33.431 0 
25 -34.4483 0 25 -35.4655 0 25 -36.4828 0 
23.9375 -37.5 0 22.875 -37.5 0 21.8125 -37.5 0 
20.75 -37.5 0 19.6875 -37.5 0 18.625 -37.5 0 
17.5625 -37.5 0 16.5 -37.5 0 15.4375 -37.5 0 
14.375 -37.5 0 13.3125 -37.5 0 12.25 -37.5 0 
11.1875 -37.5 0 10.125 -37.5 0 9.0625 -37.5 0 
6.93333 -37.5 0 5.86667 -37.5 0 4.8 -37.5 0 
3.73333 -37.5 0 2.66667 -37.5 0 1.6 -37.5 0 
0.533333 -37.5 0 -0.533333 -37.5 0 -1.6 -37.5 0 
-2.66667 -37.5 0 -3.73333 -37.5 0 -4.8 -37.5 0 
-5.86667 -37.5 0 -6.93333 -37.5 0 -9.0625 -37.5 0 
-10.125 -37.5 0 -11.1875 -37.5 0 -12.25 -37.5 0 
-13.3125 -37.5 0 -14.375 -37.5 0 -15.4375 -37.5 0 
-16.5 -37.5 0 -17.5625 -37.5 0 -18.625 -37.5 0 
-19.6875 -37.5 0 -20.75 -37.5 0 -21.8125 -37.5 0 
-22.875 -37.5 0 -23.9375 -37.5 0 -25 -36.4828 0 
-25 -35.4655 0 -25 -34.4483 0 -25 -33.431 0 
-25 -32.4138 0 -25 -31.3966 0 -25 -30.3793 0 
-25 -29.3621 0 -25 -28.3448 0 -25 -27.3276 0 
-25 -26.3103 0 -25 -25.2931 0 -25 -24.2759 0 
-25 -23.2586 0 -25 -22.2414 0 -25 -21.2241 0 
-25 -20.2069 0 -25 -19.1897 0 -25 -18.1724 0 
-25 -17.1552 0 -25 -16.1379 0 -25 -15.1207 0 
-25 -14.1034 0 -25 -13.0862 0 -25 -12.069 0 
-25 -11.0517 0 -25 -10.0345 0 -25 -9.01724 0 
-25 -6.93333 0 -25 -5.86667 0 -25 -4.8 0 
-25 -3.73333 0 -25 -2.66667 0 -25 -1.6 0 
-25 -0.533333 0 -25 0.533333 0 -25 1.6 0 
-25 2.66667 0 -25 3.73333 0 -25 4.8 0 
-25 5.86667 0 -25 6.93333 0 -25 9.01724 0 
-25 10.0345 0 -25 11.0517 0 -25 12.069 0 
-25 13.0862 0 -25 14.1034 0 -25 15.1207 0 
-25 16.1379 0 -25 17.1552 0 -25 18.1724 0 
-25 19.1897 0 -25 20.2069 0 -25 21.2241 0 
-25 22.2414 0 -25 23.2586 0 -25 24.2759 0 
-25 25.2931 0 -25 26.3103 0 -25 27.3276 0 
-25 28.3448 0 -25 29.3621 0 -25 30.3793 0 
-25 31.3966 0 -25 32.4138 0 -25 33.431 0 
-25 34.4483 0 -25 35.4655 0 -25 36.4828 0 
-23.9375 37.5 0 -22.875 37.5 0 -21.8125 37.5 0 
-20.75 37.5 0 -19.6875 37.5 0 -18.625 37.5 0 
-17.5625 37.5 0 -16.5 37.5 0 -15.4375 37.5 0 
-14.375 37.5 0 -13.3125 37.5 0 -12.25 37.5 0 
-11.1875 37.5 0 -10.125 37.5 0 -9.0625 37.5 0 
-6.93333 37.5 0 -5.86667 37.5 0 -4.8 37.5 0 
-3.73333 37.5 0 -2.66667 37.5 0 -1.6 37.5 0 
-0.533333 37.5 0 0.533333 37.5 0 1.6 37.5 0 
2.66667 37.5 0 3.73333 37.5 0 4.8 37.5 0 
5.86667 37.5 0 6.93333 37.5 0 9.0625 37.5 0 
10.125 37.5 0 11.1875 37.5 0 12.25 37.5 0 
13.3125 37.5 0 14.375 37.5 0 15.4375 37.5 0 
16.5 37.5 0 17.5625 37.5 0 18.625 37.5 0 
19.6875 37.5 0 20.75 37.5 0 21.8125 37.5 0 
22.875 37.5 0 23.9375 37.5 0 9.0625 8 0 
10.125 8 0 11.1875 8 0 12.25 8 0 
13.3125 8 0 14.375 8 0 15.4375 8 0 
16.5 8 0 17.5625 8 0 18.625 8 0 
19.6875 8 0 20.75 8 0 21.8125 8 0 
22.875 8 0 23.9375 8 0 9.0625 -8 0 
10.125 -8 0 11.1875 -8 0 12.25 -8 0 
13.3125 -8 0 14.375 -8 0 15.4375 -8 0 
16.5 -8 0 17.5625 -8 0 18.625 -8 0 
19.6875 -8 0 20.75 -8 0 21.8125 -8 0 
22.875 -8 0 23.9375 -8 0 8 -9.01724 0 
8 -10.0345 0 8 -11.0517 0 8 -12.069 0 
8 -13.0862 0 8 -14.1034 0 8 -15.1207 0 
8 -16.1379 0 8 -17.1552 0 8 -18.1724 0 
8 -19.1897 0 8 -20.2069 0 8 -21.2241 0 
8 -22.2414 0 8 -23.2586 0 8 -24.2759 0 
8 -25.2931 0 8 -26.3103 0 8 -27.3276 0 
8 -28.3448 0 8 -29.3621 0 8 -30.3793 0 
8 -31.3966 0 8 -32.4138 0 8 -33.431 0 
8 -34.4483 0 8 -35.4655 0 8 -36.4828 0 
-8 -9.01724 0 -8 -10.0345 0 -8 -11.0517 0 
-8 -12.069 0 -8 -13.0862 0 -8 -14.1034 0 
-8 -15.1207 0 -8 -16.1379 0 -8 -17.1552 0 
-8 -18.1724 0 -8 -19.1897 0 -8 -20.2069 0 
-8 -21.2241 0 -8 -22.2414 0 -8 -23.2586 0 
-8 -24.2759 0 -8 -25.2931 0 -8 -26.3103 0 
-8 -27.3276 0 -8 -28.3448 0 -8 -29.3621 0 
-8 -30.3793 0 -8 -31.3966 0 -8 -32.4138 0 
-8 -33.431 0 -8 -34.4483 0 -8 -35.4655 0 
-8 -36.4828 0 -9.0625 -8 0 -10.125 -8 0 
-11.1875 -8 0 -12.25 -8 0 -13.3125 -8 0 
-14.375 -8 0 -15.4375 -8 0 -16.5 -8 0 
-17.5625 -8 0 -18.625 -8 0 -19.6875 -8 0 
-20.75 -8 0 -21.8125 -8 0 -22.875 -8 0 
-23.9375 -8 0 -9.0625 8 0 -10.125 8 0 
-11.1875 8 0 -12.25 8 0 -13.3125 8 0 
-14.375 8 0 -15.4375 8 0 -16.5 8 0 
-17.5625 8 0 -18.625 8 0 -19.6875 8 0 
-20.75 8 0 -21.8125 8 0 -22.875 8 0 
-23.9375 8 0 -8 9.01724 0 -8 10.0345 0 
-8 11.0517 0 -8 12.069 0 -8 13.0862 0 
-8 14.1034 0 -8 15.1207 0 -8 16.1379 0 
-8 17.1552 0 -8 18.1724 0 -8 19.1897 0 
-8 20.2069 0 -8 21.2241 0 -8 22.2414 0 
-8 23.2586 0 -8 24.2759 0 -8 25.2931 0 
-8 26.3103 0 -8 27.3276 0 -8 28.3448 0 
-8 29.3621 0 -8 30.3793 0 -8 31.3966 0 
-8 32.4138 0 -8 33.431 0 -8 34.4483 0 
-8 35.4655 0 -8 36.4828 0 8 9.01724 0 
8 10.0345 0 8 11.0517 0 8 12.069 0 
8 13.0862 0 8 14.1034 0 8 15.1207 0 
8 16.1379 0 8 17.1552 0 8 18.1724 0 
8 19.1897 0 8 20.2069 0 8 21.2241 0 
8 22.2414 0 8 23.2586 0 8 24.2759 0 
8 25.2931 0 8 26.3103 0 8 27.3276 0 
8 28.3448 0 8 29.3621 0 8 30.3793 0 
8 31.3966 0 8 32.4138 0 8 33.431 0 
8 34.4483 0 8 35.4655 0 8 36.4828 0 
2.23182 1.8204 0 2.39026 1.5716 0 2.52504 1.30742 0 
2.63468 1.03044 0 2.71798 0.743348 0 2.77402 0.448953 0 
2.8022 0.150143 0 2.8022 -0.150143 0 2.77402 -0.448953 0 
2.71798 -0.743348 0 2.63468 -1.03044 0 2.52504 -1.30742 0 
2.39026 -1.5716 0 2.23182 -1.8204 0 2.42193 1.98892 0 
2.57515 1.71315 0 2.70549 1.42253 0 2.81151 1.11952 0 
2.89206 0.806738 0 2.94626 0.486889 0 2.97351 0.162772 0 
2.97351 -0.162772 0 2.94626 -0.486889 0 2.89206 -0.806738 0 
2.81151 -1.11952 0 2.70549 -1.42253 0 2.57515 -1.71315 0 
2.42193 -1.98892 0 2.63316 2.17615 0 2.78058 1.87044 0 
2.90598 1.55043 0 3.00799 1.21851 0 3.08549 0.877171 0 
3.13764 0.529041 0 3.16386 0.176805 0 3.16386 -0.176805 0 
3.13764 -0.529041 0 3.08549 -0.877171 0 3.00799 -1.21851 0 
2.90598 -1.55043 0 2.78058 -1.87044 0 2.63316 -2.17615 0 
2.86787 2.3842 0 3.00884 2.04521 0 3.12876 1.69254 0 
3.22631 1.32849 0 3.30042 0.95543 0 3.35028 0.575877 0 
3.37535 0.192397 0 3.37535 -0.192397 0 3.35028 -0.575877 0 
3.30042 -0.95543 0 3.22631 -1.32849 0 3.12876 -1.69254 0 
3.00884 -2.04521 0 2.86787 -2.3842 0 3.12865 2.61536 0 
3.26246 2.23939 0 3.37628 1.85045 0 3.46887 1.45068 0 
3.53922 1.04238 0 3.58655 0.627917 0 3.61035 0.209721 0 
3.61035 -0.209721 0 3.58655 -0.627917 0 3.53922 -1.04238 0 
3.46887 -1.45068 0 3.37628 -1.85045 0 3.26246 -2.23939 0 
3.12865 -2.61536 0 3.41841 2.8722 0 3.54426 2.45515 0 
3.65131 2.02589 0 3.7384 1.58646 0 3.80456 1.139 0 
3.84907 0.685738 0 3.87145 0.22897 0 3.87145 -0.22897 0 
3.84907 -0.685738 0 3.80456 -1.139 0 3.7384 -1.58646 0 
3.65131 -2.02589 0 3.54426 -2.45515 0 3.41841 -2.8722 0 
3.74036 3.15758 0 3.85737 2.69488 0 3.9569 2.22083 0 
4.03786 1.73733 0 4.09938 1.24635 0 4.14076 0.749985 0 
4.16157 0.250358 0 4.16157 -0.250358 0 4.14076 -0.749985 0 
4.09938 -1.24635 0 4.03786 -1.73733 0 3.9569 -2.22083 0 
3.85737 -2.69488 0 3.74036 -3.15758 0 4.09809 3.47467 0 
4.20527 2.96125 0 4.29644 2.43743 0 4.37061 1.90495 0 
4.42695 1.36563 0 4.46486 0.821369 0 4.48392 0.274123 0 
4.48392 -0.274123 0 4.46486 -0.821369 0 4.42695 -1.36563 0 
4.37061 -1.90495 0 4.29644 -2.43743 0 4.20527 -2.96125 0 
4.09809 -3.47467 0 4.49556 3.82699 0 4.59183 3.25721 0 
4.67371 2.6781 0 4.74032 2.0912 0 4.79093 1.49816 0 
4.82498 0.900686 0 4.8421 0.300528 0 4.8421 -0.300528 0 
4.82498 -0.900686 0 4.79093 -1.49816 0 4.74032 -2.0912 0 
4.67371 -2.6781 0 4.59183 -3.25721 0 4.49556 -3.82699 0 
4.9372 4.21846 0 5.02133 3.58606 0 5.0929 2.94551 0 
5.15111 2.29815 0 5.19534 1.64542 0 5.2251 0.988815 0 
5.24006 0.329866 0 5.24006 -0.329866 0 5.2251 -0.988815 0 
5.19534 -1.64542 0 5.15111 -2.29815 0 5.0929 -2.94551 0 
5.02133 -3.58606 0 4.9372 -4.21846 0 5.42791 4.65343 0 
5.49856 3.95145 0 5.55866 3.24263 0 5.60755 2.52809 0 
5.64469 1.80904 0 5.66968 1.08674 0 5.68225 0.362465 0 
5.68225 -0.362465 0 5.66968 -1.08674 0 5.64469 -1.80904 0 
5.60755 -2.52809 0 5.55866 -3.24263 0 5.49856 -3.95145 0 
5.42791 -4.65343 0 5.97314 5.13672 0 6.02882 4.35744 0 
6.07618 3.57276 0 6.1147 2.78358 0 6.14397 1.99084 0 
6.16367 1.19554 0 6.17357 0.398686 0 6.17357 -0.398686 0 
6.16367 -1.19554 0 6.14397 -1.99084 0 6.1147 -2.78358 0 
6.07618 -3.57276 0 6.02882 -4.35744 0 5.97314 -5.13672 0 
6.57896 5.67372 0 6.61799 4.80854 0 6.65119 3.93957 0 
6.6782 3.06745 0 6.69873 2.19284 0 6.71253 1.31643 0 
6.71947 0.438931 0 6.71947 -0.438931 0 6.71253 -1.31643 0 
6.69873 -2.19284 0 6.6782 -3.06745 0 6.65119 -3.93957 0 
6.61799 -4.80854 0 6.57896 -5.67372 0 7.25208 6.27038 0 
7.27263 5.30976 0 7.2901 4.34714 0 7.30432 3.38287 0 
7.31512 2.41728 0 7.32239 1.45075 0 7.32604 0.483648 0 
7.32604 -0.483648 0 7.32239 -1.45075 0 7.31512 -2.41728 0 
7.30432 -3.38287 0 7.2901 -4.34714 0 7.27263 -5.30976 0 
7.25208 -6.27038 0 1.8204 -2.23182 0 1.5716 -2.39026 0 
1.30742 -2.52504 0 1.03044 -2.63468 0 0.743348 -2.71798 0 
0.448953 -2.77402 0 0.150143 -2.8022 0 -0.150143 -2.8022 0 
-0.448953 -2.77402 0 -0.743348 -2.71798 0 -1.03044 -2.63468 0 
-1.30742 -2.52504 0 -1.5716 -2.39026 0 -1.8204 -2.23182 0 
1.98892 -2.42193 0 1.71315 -2.57515 0 1.42253 -2.70549 0 
1.11952 -2.81151 0 0.806738 -2.89206 0 0.486889 -2.94626 0 
0.162772 -2.97351 0 -0.162772 -2.97351 0 -0.486889 -2.94626 0 
-0.806738 -2.89206 0 -1.11952 -2.81151 0 -1.42253 -2.70549 0 
-1.71315 -2.57515 0 -1.98892 -2.42193 0 2.17615 -2.63316 0 
1.87044 -2.78058 0 1.55043 -2.90598 0 1.21851 -3.00799 0 
0.877171 -3.08549 0 0.529041 -3.13764 0 0.176805 -3.16386 0 
-0.176805 -3.16386 0 -0.529041 -3.13764 0 -0.877171 -3.08549 0 
-1.21851 -3.00799 0 -1.55043 -2.90598 0 -1.87044 -2.78058 0 
-2.17615 -2.63316 0 2.3842 -2.86787 0 2.04521 -3.00884 0 
1.69254 -3.12876 0 1.32849 -3.22631 0 0.95543 -3.30042 0 
0.575877 -3.35028 0 0.192397 -3.37535 0 -0.192397 -3.37535 0 
-0.575877 -3.35028 0 -0.95543 -3.30042 0 -1.32849 -3.22631 0 
-1.69254 -3.12876 0 -2.04521 -3.00884 0 -2.3842 -2.86787 0 
2.61536 -3.12865 0 2.23939 -3.26246 0 1.85045 -3.37628 0 
1.45068 -3.46887 0 1.04238 -3.53922 0 0.627917 -3.58655 0 
0.209721 -3.61035 0 -0.209721 -3.61035 0 -0.627917 -3.58655 0 
-1.04238 -3.53922 0 -1.45068 -3.46887 0 -1.85045 -3.37628 0 
-2.23939 -3.26246 0 -2.61536 -3.12865 0 2.8722 -3.41841 0 
2.45515 -3.54426 0 2.02589 -3.65131 0 1.58646 -3.7384 0 
1.139 -3.80456 0 0.685738 -3.84907 0 0.22897 -3.87145 0 
-0.22897 -3.87145 0 -0.685738 -3.84907 0 -1.139 -3.80456 0 
-1.58646 -3.7384 0 -2.02589 -3.65131 0 -2.45515 -3.54426 0 
-2.8722 -3.41841 0 3.15758 -3.74036 0 2.69488 -3.85737 0 
2.22083 -3.9569 0 1.73733 -4.03786 0 1.24635 -4.09938 0 
0.749985 -4.14076 0 0.250358 -4.16157 0 -0.250358 -4.16157 0 
-0.749985 -4.14076 0 -1.24635 -4.09938 0 -1.73733 -4.03786 0 
-2.22083 -3.9569 0 -2.69488 -3.85737 0 -3.15758 -3.74036 0 
3.47467 -4.09809 0 2.96125 -4.20527 0 2.43743 -4.29644 0 
1.90495 -4.37061 0 1.36563 -4.42695 0 0.821369 -4.46486 0 
0.274123 -4.48392 0 -0.274123 -4.48392 0 -0.821369 -4.46486 0 
-1.36563 -4.42695 0 -1.90495 -4.37061 0 -2.43743 -4.29644 0 
-2.96125 -4.20527 0 -3.47467 -4.09809 0 3.82699 -4.49556 0 
3.25721 -4.59183 0 2.6781 -4.67371 0 2.0912 -4.74032 0 
1.49816 -4.79093 0 0.900686 -4.82498 0 0.300528 -4.8421 0 
-0.300528 -4.8421 0 -0.900686 -4.82498 0 -1.49816 -4.79093 0 
-2.0912 -4.74032 0 -2.6781 -4.67371 0 -3.25721 -4.59183 0 
-3.82699 -4.49556 0 4.21846 -4.9372 0 3.58606 -5.02133 0 
2.94551 -5.0929 0 2.29815 -5.15111 0 1.64542 -5.19534 0 
0.988815 -5.2251 0 0.329866 -5.24006 0 -0.329866 -5.24006 0 
-0.988815 -5.2251 0 -1.64542 -5.19534 0 -2.29815 -5.15111 0 
-2.94551 -5.0929 0 -3.58606 -5.02133 0 -4.21846 -4.9372 0 
4.65343 -5.42791 0 3.95145 -5.49856 0 3.24263 -5.55866 0 
2.52809 -5.60755 0 1.80904 -5.64469 0 1.08674 -5.66968 0 
0.362465 -5.68225 0 -0.362465 -5.68225 0 -1.08674 -5.66968 0 
-1.80904 -5.64469 0 -2.52809 -5.60755 0 -3.24263 -5.55866 0 
-3.95145 -5.49856 0 -4.65343 -5.42791 0 5.13672 -5.97314 0 
4.35744 -6.02882 0 3.57276 -6.07618 0 2.78358 -6.1147 0 
1.99084 -6.14397 0 1.19554 -6.16367 0 0.398686 -6.17357 0 
-0.398686 -6.17357 0 -1.19554 -6.16367 0 -1.99084 -6.14397 0 
-2.78358 -6.1147 0 -3.57276 -6.07618 0 -4.35744 -6.02882 0 
-5.13672 -5.97314 0 5.67372 -6.57896 0 4.80854 -6.61799 0 
3.93957 -6.65119 0 3.06745 -6.6782 0 2.19284 -6.69873 0 
1.31643 -6.71253 0 0.438931 -6.71947 0 -0.438931 -6.71947 0 
-1.31643 -6.71253 0 -2.19284 -6.69873 0 -3.06745 -6.6782 0 
-3.93957 -6.65119 0 -4.80854 -6.61799 0 -5.67372 -6.57896 0 
6.27038 -7.25208 0 5.30976 -7.27263 0 4.34714 -7.2901 0 
3.38287 -7.30432 0 2.41728 -7.31512 0 1.45075 -7.32239 0 
0.483648 -7.32604 0 -0.483648 -7.32604 0 -1.45075 -7.32239 0 
-2.41728 -7.31512 0 -3.38287 -7.30432 0 -4.34714 -7.2901 0 
-5.30976 -7.27263 0 -6.27038 -7.25208 0 -2.23182 -1.8204 0 
-2.39026 -1.5716 0 -2.52504 -1.30742 0 -2.63468 -1.03044 0 
-2.71798 -0.743348 0 -2.77402 -0.448953 0 -2.8022 -0.150143 0 
-2.8022 0.150143 0 -2.77402 0.448953 0 -2.71798 0.743348 0 
-2.63468 1.03044 0 -2.52504 1.30742 0 -2.39026 1.5716 0 
-2.23182 1.8204 0 -2.42193 -1.98892 0 -2.57515 -1.71315 0 
-2.70549 -1.42253 0 -2.81151 -1.11952 0 -2.89206 -0.806738 0 
-2.94626 -0.486889 0 -2.97351 -0.162772 0 -2.97351 0.162772 0 
-2.94626 0.486889 0 -2.89206 0.806738 0 -2.81151 1.11952 0 
-2.70549 1.42253 0 -2.57515 1.71315 0 -2.42193 1.98892 0 
-2.63316 -2.17615 0 -2.78058 -1.87044 0 -2.90598 -1.55043 0 
-3.00799 -1.21851 0 -3.08549 -0.877171 0 -3.13764 -0.529041 0 
-3.16386 -0.176805 0 -3.16386 0.176805 0 -3.13764 0.529041 0 
-3.08549 0.877171 0 -3.00799 1.21851 0 -2.90598 1.55043 0 
-2.78058 1.87044 0 -2.63316 2.17615 0 -2.86787 -2.3842 0 
-3.00884 -2.04521 0 -3.12876 -1.69254 0 -3.22631 -1.32849 0 
-3.30042 -0.95543 0 -3.35028 -0.575877 0 -3.37535 -0.192397 0 
-3.37535 0.192397 0 -3.35028 0.575877 0 -3.30042 0.95543 0 
-3.22631 1.32849 0 -3.12876 1.69254 0 -3.00884 2.04521 0 
-2.86787 2.3842 0 -3.12865 -2.61536 0 -3.26246 -2.23939 0 
-3.37628 -1.85045 0 -3.46887 -1.45068 0 -3.53922 -1.04238 0 
-3.58655 -0.627917 0 -3.61035 -0.209721 0 -3.61035 0.209721 0 
-3.58655 0.627917 0 -3.53922 1.04238 0 -3.46887 1.45068 0 
-3.37628 1.85045 0 -3.26246 2.23939 0 -3.12865 2.61536 0 
-3.41841 -2.8722 0 -3.54426 -2.45515 0 -3.65131 -2.02589 0 
-3.7384 -1.58646 0 -3.80456 -1.139 0 -3.84907 -0.685738 0 
-3.87145 -0.22897 0 -3.87145 0.22897 0 -3.84907 0.685738 0 
-3.80456 1.139 0 -3.7384 1.58646 0 -3.65131 2.02589 0 
-3.54426 2.45515 0 -3.41841 2.8722 0 -3.74036 -3.15758 0 
-3.85737 -2.69488 0 -3.9569 -2.22083 0 -4.03786 -1.73733 0 
-4.09938 -1.24635 0 -4.14076 -0.749985 0 -4.16157 -0.250358 0 
-4.16157 0.250358 0 -4.14076 0.749985 0 -4.09938 1.24635 0 
-4.03786 1.73733 0 -3.9569 2.22083 0 -3.85737 2.69488 0 
-3.74036 3.15758 0 -4.09809 -3.47467 0 -4.20527 -2.96125 0 
-4.29644 -2.43743 0 -4.37061 -1.90495 0 -4.42695 -1.36563 0 
-4.46486 -0.821369 0 -4.48392 -0.274123 0 -4.48392 0.274123 0 
-4.46486 0.821369 0 -4.42695 1.36563 0 -4.37061 1.90495 0 
-4.29644 2.43743 0 -4.20527 2.96125 0 -4.09809 3.47467 0 
-4.49556 -3.82699 0 -4.59183 -3.25721 0 -4.67371 -2.6781 0 
-4.74032 -2.0912 0 -4.79093 -1.49816 0 -4.82498 -0.900686 0 
-4.8421 -0.300528 0 -4.8421 0.300528 0 -4.82498 0.900686 0 
-4.79093 1.49816 0 -4.74032 2.0912 0 -4.67371 2.6781 0 
-4.59183 3.25721 0 -4.49556 3.82699 0 -4.9372 -4.21846 0 
-5.02133 -3.58606 0 -5.0929 -2.94551 0 -5.15111 -2.29815 0 
-5.19534 -1.64542 0 -5.2251 -0.988815 0 -5.24006 -0.329866 0 
-5.24006 0.329866 0 -5.2251 0.988815 0 -5.19534 1.64542 0 
-5.15111 2.29815 0 -5.0929 2.94551 0 -5.02133 3.58606 0 
-4.9372 4.21846 0 -5.42791 -4.65343 0 -5.49856 -3.95145 0 
-5.55866 -3.24263 0 -5.60755 -2.52809 0 -5.64469 -1.80904 0 
-5.66968 -1.08674 0 -5.68225 -0.362465 0 -5.68225 0.362465 0 
-5.66968 1.08674 0 -5.64469 1.80904 0 -5.60755 2.52809 0 
-5.55866 3.24263 0 -5.49856 3.95145 0 -5.42791 4.65343 0 
-5.97314 -5.13672 0 -6.02882 -4.35744 0 -6.07618 -3.57276 0 
-6.1147 -2.78358 0 -6.14397 -1.99084 0 -6.16367 -1.19554 0 
-6.17357 -0.398686 0 -6.17357 0.398686 0 -6.16367 1.19554 0 
-6.14397 1.99084 0 -6.1147 2.78358 0 -6.07618 3.57276 0 
-6.02882 4.35744 0 -5.97314 5.13672 0 -6.57896 -5.67372 0 
-6.61799 -4.80854 0 -6.65119 -3.93957 0 -6.6782 -3.06745 0 
-6.69873 -2.19284 0 -6.71253 -1.31643 0 -6.71947 -0.438931 0 
-6.71947 0.438931 0 -6.71253 1.31643 0 -6.69873 2.19284 0 
-6.6782 3.06745 0 -6.65119 3.93957 0 -6.61799 4.80854 0 
-6.57896 5.67372 0 -7.25208 -6.27038 0 -7.27263 -5.30976 0 
-7.2901 -4.34714 0 -7.30432 -3.38287 0 -7.31512 -2.41728 0 
-7.32239 -1.45075 0 -7.32604 -0.483648 0 -7.32604 0.483648 0 
-7.32239 1.45075 0 -7.31512 2.41728 0 -7.30432 3.38287 0 
-7.2901 4.34714 0 -7.27263 5.30976 0 -7.25208 6.27038 0 
-1.8204 2.23182 0 -1.5716 2.39026 0 -1.30742 2.52504 0 
-1.03044 2.63468 0 -0.743348 2.71798 0 -0.448953 2.77402 0 
-0.150143 2.8022 0 0.150143 2.8022 0 0.448953 2.77402 0 
0.743348 2.71798 0 1.03044 2.63468 0 1.30742 2.52504 0 
1.5716 2.39026 0 1.8204 2.23182 0 -1.98892 2.42193 0 
-1.71315 2.57515 0 -1.42253 2.70549 0 -1.11952 2.81151 0 
-0.806738 2.89206 0 -0.486889 2.94626 0 -0.162772 2.97351 0 
0.162772 2.97351 0 0.486889 2.94626 0 0.806738 2.89206 0 
1.11952 2.81151 0 1.42253 2.70549 0 1.71315 2.57515 0 
1.98892 2.42193 0 -2.17615 2.63316 0 -1.87044 2.78058 0 
-1.55043 2.90598 0 -1.21851 3.00799 0 -0.877171 3.08549 0 
-0.529041 3.13764 0 -0.176805 3.16386 0 0.176805 3.16386 0 
0.529041 3.13764 0 0.877171 3.08549 0 1.21851 3.00799 0 
1.55043 2.90598 0 1.87044 2.78058 0 2.17615 2.63316 0 
-2.3842 2.86787 0 -2.04521 3.00884 0 -1.69254 3.12876 0 
-1.32849 3.22631 0 -0.95543 3.30042 0 -0.575877 3.35028 0 
-0.192397 3.37535 0 0.192397 3.37535 0 0.575877 3.35028 0 
0.95543 3.30042 0 1.32849 3.22631 0 1.69254 3.12876 0 
2.04521 3.00884 0 2.3842 2.86787 0 -2.61536 3.12865 0 
-2.23939 3.26246 0 -1.85045 3.37628 0 -1.45068 3.46887 0 
-1.04238 3.53922 0 -0.627917 3.58655 0 -0.209721 3.61035 0 
0.209721 3.61035 0 0.627917 3.58655 0 1.04238 3.53922 0 
1.45068 3.46887 0 1.85045 3.37628 0 2.23939 3.26246 0 
2.61536 3.12865 0 -2.8722 3.41841 0 -2.45515 3.54426 0 
-2.02589 3.65131 0 -1.58646 3.7384 0 -1.139 3.80456 0 
-0.685738 3.84907 0 -0.22897 3.87145 0 0.22897 3.87145 0 
0.685738 3.84907 0 1.139 3.80456 0 1.58646 3.7384 0 
2.02589 3.65131 0 2.45515 3.54426 0 2.8722 3.41841 0 
-3.15758 3.74036 0 -2.69488 3.85737 0 -2.22083 3.9569 0 
-1.73733 4.03786 0 -1.24635 4.09938 0 -0.749985 4.14076 0 
-0.250358 4.16157 0 0.250358 4.16157 0 0.749985 4.14076 0 
1.24635 4.09938 0 1.73733 4.03786 0 2.22083 3.9569 0 
2.69488 3.85737 0 3.15758 3.74036 0 -3.47467 4.09809 0 
-2.96125 4.20527 0 -2.43743 4.29644 0 -1.90495 4.37061 0 
-1.36563 4.42695 0 -0.821369 4.46486 0 -0.274123 4.48392 0 
0.274123 4.48392 0 0.821369 4.46486 0 1.36563 4.42695 0 
1.90495 4.37061 0 2.43743 4.29644 0 2.96125 4.20527 0 
3.47467 4.09809 0 -3.82699 4.49556 0 -3.25721 4.59183 0 
-2.6781 4.67371 0 -2.0912 4.74032 0 -1.49816 4.79093 0 
-0.900686 4.82498 0 -0.300528 4.8421 0 0.300528 4.8421 0 
0.900686 4.82498 0 1.49816 4.79093 0 2.0912 4.74032 0 
2.6781 4.67371 0 3.25721 4.59183 0 3.82699 4.49556 0 
-4.21846 4.9372 0 -3.58606 5.02133 0 -2.94551 5.0929 0 
-2.29815 5.15111 0 -1.64542 5.19534 0 -0.988815 5.2251 0 
-0.329866 5.24006 0 0.329866 5.24006 0 0.988815 5.2251 0 
1.64542 5.19534 0 2.29815 5.15111 0 2.94551 5.0929 0 
3.58606 5.02133 0 4.21846 4.9372 0 -4.65343 5.42791 0 
-3.95145 5.49856 0 -3.24263 5.55866 0 -2.52809 5.60755 0 
-1.80904 5.64469 0 -1.08674 5.66968 0 -0.362465 5.68225 0 
0.362465 5.68225 0 1.08674 5.66968 0 1.80904 5.64469 0 
2.52809 5.60755 0 3.24263 5.55866 0 3.95145 5.49856 0 
4.65343 5.42791 0 -5.13672 5.97314 0 -4.35744 6.02882 0 
-3.57276 6.07618 0 -2.78358 6.1147 0 -1.99084 6.14397 0 
-1.19554 6.16367 0 -0.398686 6.17357 0 0.398686 6.17357 0 
1.19554 6.16367 0 1.99084 6.14397 0 2.78358 6.1147 0 
3.57276 6.07618 0 4.35744 6.02882 0 5.13672 5.97314 0 
-5.67372 6.57896 0 -4.80854 6.61799 0 -3.93957 6.65119 0 
-3.06745 6.6782 0 -2.19284 6.69873 0 -1.31643 6.71253 0 
-0.438931 6.71947 0 0.438931 6.71947 0 1.31643 6.71253 0 
2.19284 6.69873 0 3.06745 6.6782 0 3.93957 6.65119 0 
4.80854 6.61799 0 5.67372 6.57896 0 -6.27038 7.25208 0 
-5.30976 7.27263 0 -4.34714 7.2901 0 -3.38287 7.30432 0 
-2.41728 7.31512 0 -1.45075 7.32239 0 -0.483648 7.32604 0 
0.483648 7.32604 0 1.45075 7.32239 0 2.41728 7.31512 0 
3.38287 7.30432 0 4.34714 7.2901 0 5.30976 7.27263 0 
6.27038 7.25208 0 23.9375 36.4828 0 22.875 36.4828 0 
21.8125 36.4828 0 20.75 36.4828 0 19.6875 36.4828 0 
18.625 36.4828 0 17.5625 36.4828 0 16.5 36.4828 0 
15.4375 36.4828 0 14.375 36.4828 0 13.3125 36.4828 0 
12.25 36.4828 0 11.1875 36.4828 0 10.125 36.4828 0 
9.0625 36.4828 0 23.9375 35.4655 0 22.875 35.4655 0 
21.8125 35.4655 0 20.75 35.4655 0 19.6875 35.4655 0 
18.625 35.4655 0 17.5625 35.4655 0 16.5 35.4655 0 
15.4375 35.4655 0 14.375 35.4655 0 13.3125 35.4655 0 
12.25 35.4655 0 11.1875 35.4655 0 10.125 35.4655 0 
9.0625 35.4655 0 23.9375 34.4483 0 22.875 34.4483 0 
21.8125 34.4483 0 20.75 34.4483 0 19.6875 34.4483 0 
18.625 34.4483 0 17.5625 34.4483 0 16.5 34.4483 0 
15.4375 34.4483 0 14.375 34.4483 0 13.3125 34.4483 0 
12.25 34.4483 0 11.1875 34.4483 0 10.125 34.4483 0 
9.0625 34.4483 0 23.9375 33.431 0 22.875 33.431 0 
21.8125 33.431 0 20.75 33.431 0 19.6875 33.431 0 
18.625 33.431 0 17.5625 33.431 0 16.5 33.431 0 
15.4375 33.431 0 14.375 33.431 0 13.3125 33.431 0 
12.25 33.431 0 11.1875 33.431 0 10.125 33.431 0 
9.0625 33.431 0 23.9375 32.4138 0 22.875 32.4138 0 
21.8125 32.4138 0 20.75 32.4138 0 19.6875 32.4138 0 
18.625 32.4138 0 17.5625 32.4138 0 16.5 32.4138 0 
15.4375 32.4138 0 14.375 32.4138 0 13.3125 32.4138 0 
12.25 32.4138 0 11.1875 32.4138 0 10.125 32.4138 0 
9.0625 32.4138 0 23.9375 31.3966 0 22.875 31.3966 0 
21.8125 31.3966 0 20.75 31.3966 0 19.6875 31.3966 0 
18.625 31.3966 0 17.5625 31.3966 0 16.5 31.3966 0 
15.4375 31.3966 0 14.375 31.3966 0 13.3125 31.3966 0 
12.25 31.3966 0 11.1875 31.3966 0 10.125 31.3966 0 
9.0625 31.3966 0 23.9375 30.3793 0 22.875 30.3793 0 
21.8125 30.3793 0 20.75 30.3793 0 19.6875 30.3793 0 
18.625 30.3793 0 17.5625 30.3793 0 16.5 30.3793 0 
15.4375 30.3793 0 14.375 30.3793 0 13.3125 30.3793 0 
12.25 30.3793 0 11.1875 30.3793 0 10.125 30.3793 0 
9.0625 30.3793 0 23.9375 29.3621 0 22.875 29.3621 0 
21.8125 29.3621 0 20.75 29.3621 0 19.6875 29.3621 0 
18.625 29.3621 0 17.5625 29.3621 0 16.5 29.3621 0 
15.4375 29.3621 0 14.375 29.3621 0 13.3125 29.3621 0 
12.25 29.3621 0 11.1875 29.3621 0 10.125 29.3621 0 
9.0625 29.3621 0 23.9375 28.3448 0 22.875 28.3448 0 
21.8125 28.3448 0 20.75 28.3448 0 19.6875 28.3448 0 
18.625 28.3448 0 17.5625 28.3448 0 16.5 28.3448 0 
15.4375 28.3448 0 14.375 28.3448 0 13.3125 28.3448 0 
12.25 28.3448 0 11.1875 28.3448 0 10.125 28.3448 0 
9.0625 28.3448 0 23.9375 27.3276 0 22.875 27.3276 0 
21.8125 27.3276 0 20.75 27.3276 0 19.6875 27.3276 0 
18.625 27.3276 0 17.5625 27.3276 0 16.5 27.3276 0 
15.4375 27.3276 0 14.375 27.3276 0 13.3125 27.3276 0 
12.25 27.3276 0 11.1875 27.3276 0 10.125 27.3276 0 
9.0625 27.3276 0 23.9375 26.3103 0 22.875 26.3103 0 
21.8125 26.3103 0 20.75 26.3103 0 19.6875 26.3103 0 
18.625 26.3103 0 17.5625 26.3103 0 16.5 26.3103 0 
15.4375 26.3103 0 14.375 26.3103 0 13.3125 26.3103 0 
12.25 26.3103 0 11.1875 26.3103 0 10.125 26.3103 0 
9.0625 26.3103 0 23.9375 25.2931 0 22.875 25.2931 0 
21.8125 25.2931 0 20.75 25.2931 0 19.6875 25.2931 0 
18.625 25.2931 0 17.5625 25.2931 0 16.5 25.2931 0 
15.4375 25.2931 0 14.375 25.2931 0 13.3125 25.2931 0 
12.25 25.2931 0 11.1875 25.2931 0 10.125 25.2931 0 
9.0625 25.2931 0 23.9375 24.2759 0 22.875 24.2759 0 
21.8125 24.2759 0 20.75 24.2759 0 19.6875 24.2759 0 
18.625 24.2759 0 17.5625 24.2759 0 16.5 24.2759 0 
15.4375 24.2759 0 14.375 24.2759 0 13.3125 24.2759 0 
12.25 24.2759 0 11.1875 24.2759 0 10.125 24.2759 0 
9.0625 24.2759 0 23.9375 23.2586 0 22.875 23.2586 0 
21.8125 23.2586 0 20.75 23.2586 0 19.6875 23.2586 0 
18.625 23.2586 0 17.5625 23.2586 0 16.5 23.2586 0 
15.4375 23.2586 0 14.375 23.2586 0 13.3125 23.2586 0 
12.25 23.2586 0 11.1875 23.2586 0 10.125 23.2586 0 
9.0625 23.2586 0 23.9375 22.2414 0 22.875 22.2414 0 
21.8125 22.2414 0 20.75 22.2414 0 19.6875 22.2414 0 
18.625 22.2414 0 17.5625 22.2414 0 16.5 22.2414 0 
15.4375 22.2414 0 14.375 22.2414 0 13.3125 22.2414 0 
12.25 22.2414 0 11.1875 22.2414 0 10.125 22.2414 0 
9.0625 22.2414 0 23.9375 21.2241 0 22.875 21.2241 0 
21.8125 21.2241 0 20.75 21.2241 0 19.6875 21.2241 0 
18.625 21.2241 0 17.5625 21.2241 0 16.5 21.2241 0 
15.4375 21.2241 0 14.375 21.2241 0 13.3125 21.2241 0 
12.25 21.2241 0 11.1875 21.2241 0 10.125 21.2241 0 
9.0625 21.2241 0 23.9375 20.2069 0 22.875 20.2069 0 
21.8125 20.2069 0 20.75 20.2069 0 19.6875 20.2069 0 
18.625 20.2069 0 17.5625 20.2069 0 16.5 20.2069 0 
15.4375 20.2069 0 14.375 20.2069 0 13.3125 20.2069 0 
12.25 20.2069 0 11.1875 20.2069 0 10.125 20.2069 0 
9.0625 20.2069 0 23.9375 19.1897 0 22.875 19.1897 0 
21.8125 19.1897 0 20.75 19.1897 0 19.6875 19.1897 0 
18.625 19.1897 0 17.5625 19.1897 0 16.5 19.1897 0 
15.4375 19.1897 0 14.375 19.1897 0 13.3125 19.1897 0 
12.25 19.1897 0 11.1875 19.1897 0 10.125 19.1897 0 
9.0625 19.1897 0 23.9375 18.1724 0 22.875 18.1724 0 
21.8125 18.1724 0 20.75 18.1724 0 19.6875 18.1724 0 
18.625 18.1724 0 17.5625 18.1724 0 16.5 18.1724 0 
15.4375 18.1724 0 14.375 18.1724 0 13.3125 18.1724 0 
12.25 18.1724 0 11.1875 18.1724 0 10.125 18.1724 0 
9.0625 18.1724 0 23.9375 17.1552 0 22.875 17.1552 0 
21.8125 17.1552 0 20.75 17.1552 0 19.6875 17.1552 0 
18.625 17.1552 0 17.5625 17.1552 0 16.5 17.1552 0 
15.4375 17.1552 0 14.375 17.1552 0 13.3125 17.1552 0 
12.25 17.1552 0 11.1875 17.1552 0 10.125 17.1552 0 
9.0625 17.1552 0 23.9375 16.1379 0 22.875 16.1379 0 
21.8125 16.1379 0 20.75 16.1379 0 19.6875 16.1379 0 
18.625 16.1379 0 17.5625 16.1379 0 16.5 16.1379 0 
15.4375 16.1379 0 14.375 16.1379 0 13.3125 16.1379 0 
12.25 16.1379 0 11.1875 16.1379 0 10.125 16.1379 0 
9.0625 16.1379 0 23.9375 15.1207 0 22.875 15.1207 0 
21.8125 15.1207 0 20.75 15.1207 0 19.6875 15.1207 0 
18.625 15.1207 0 17.5625 15.1207 0 16.5 15.1207 0 
15.4375 15.1207 0 14.375 15.1207 0 13.3125 15.1207 0 
12.25 15.1207 0 11.1875 15.1207 0 10.125 15.1207 0 
9.0625 15.1207 0 23.9375 14.1034 0 22.875 14.1034 0 
21.8125 14.1034 0 20.75 14.1034 0 19.6875 14.1034 0 
18.625 14.1034 0 17.5625 14.1034 0 16.5 14.1034 0 
15.4375 14.1034 0 14.375 14.1034 0 13.3125 14.1034 0 
12.25 14.1034 0 11.1875 14.1034 0 10.125 14.1034 0 
9.0625 14.1034 0 23.9375 13.0862 0 22.875 13.0862 0 
21.8125 13.0862 0 20.75 13.0862 0 19.6875 13.0862 0 
18.625 13.0862 0 17.5625 13.0862 0 16.5 13.0862 0 
15.4375 13.0862 0 14.375 13.0862 0 13.3125 13.0862 0 
12.25 13.0862 0 11.1875 13.0862 0 10.125 13.0862 0 
9.0625 13.0862 0 23.9375 12.069 0 22.875 12.069 0 
21.8125 12.069 0 20.75 12.069 0 19.6875 12.069 0 
18.625 12.069 0 17.5625 12.069 0 16.5 12.069 0 
15.4375 12.069 0 14.375 12.069 0 13.3125 12.069 0 
12.25 12.069 0 11.1875 12.069 0 10.125 12.069 0 
9.0625 12.069 0 23.9375 11.0517 0 22.875 11.0517 0 
21.8125 11.0517 0 20.75 11.0517 0 19.6875 11.0517 0 
18.625 11.0517 0 17.5625 11.0517 0 16.5 11.0517 0 
15.4375 11.0517 0 14.375 11.0517 0 13.3125 11.0517 0 
12.25 11.0517 0 11.1875 11.0517 0 10.125 11.0517 0 
9.0625 11.0517 0 23.9375 10.0345 0 22.875 10.0345 0 
21.8125 10.0345 0 20.75 10.0345 0 19.6875 10.0345 0 
18.625 10.0345 0 17.5625 10.0345 0 16.5 10.0345 0 
15.4375 10.0345 0 14.375 10.0345 0 13.3125 10.0345 0 
12.25 10.0345 0 11.1875 10.0345 0 10.125 10.0345 0 
9.0625 10.0345 0 23.9375 9.01724 0 22.875 9.01724 0 
21.8125 9.01724 0 20.75 9.01724 0 19.6875 9.01724 0 
18.625 9.01724 0 17.5625 9.01724 0 16.5 9.01724 0 
15.4375 9.01724 0 14.375 9.01724 0 13.3125 9.01724 0 
12.25 9.01724 0 11.1875 9.01724 0 10.125 9.01724 0 
9.0625 9.01724 0 23.9375 6.93333 0 22.875 6.93333 0 
21.8125 6.93333 0 20.75 6.93333 0 19.6875 6.93333 0 
18.625 6.93333 0 17.5625 6.93333 0 16.5 6.93333 0 
15.4375 6.93333 0 14.375 6.93333 0 13.3125 6.93333 0 
12.25 6.93333 0 11.1875 6.93333 0 10.125 6.93333 0 
9.0625 6.93333 0 23.9375 5.86667 0 22.875 5.86667 0 
21.8125 5.86667 0 20.75 5.86667 0 19.6875 5.86667 0 
18.625 5.86667 0 17.5625 5.86667 0 16.5 5.86667 0 
15.4375 5.86667 0 14.375 5.86667 0 13.3125 5.86667 0 
12.25 5.86667 0 11.1875 5.86667 0 10.125 5.86667 0 
9.0625 5.86667 0 23.9375 4.8 0 22.875 4.8 0 
21.8125 4.8 0 20.75 4.8 0 19.6875 4.8 0 
18.625 4.8 0 17.5625 4.8 0 16.5 4.8 0 
15.4375 4.8 0 14.375 4.8 0 13.3125 4.8 0 
12.25 4.8 0 11.1875 4.8 0 10.125 4.8 0 
9.0625 4.8 0 23.9375 3.73333 0 22.875 3.73333 0 
21.8125 3.73333 0 20.75 3.73333 0 19.6875 3.73333 0 
18.625 3.73333 0 17.5625 3.73333 0 16.5 3.73333 0 
15.4375 3.73333 0 14.375 3.73333 0 13.3125 3.73333 0 
12.25 3.73333 0 11.1875 3.73333 0 10.125 3.73333 0 
9.0625 3.73333 0 23.9375 2.66667 0 22.875 2.66667 0 
21.8125 2.66667 0 20.75 2.66667 0 19.6875 2.66667 0 
18.625 2.66667 0 17.5625 2.66667 0 16.5 2.66667 0 
15.4375 2.66667 0 14.375 2.66667 0 13.3125 2.66667 0 
12.25 2.66667 0 11.1875 2.66667 0 10.125 2.66667 0 
9.0625 2.66667 0 23.9375 1.6 0 22.875 1.6 0 
21.8125 1.6 0 20.75 1.6 0 19.6875 1.6 0 
18.625 1.6 0 17.5625 1.6 0 16.5 1.6 0 
15.4375 1.6 0 14.375 1.6 0 13.3125 1.6 0 
12.25 1.6 0 11.1875 1.6 0 10.125 1.6 0 
9.0625 1.6 0 23.9375 0.533333 0 22.875 0.533333 0 
21.8125 0.533333 0 20.75 0.533333 0 19.6875 0.533333 0 
18.625 0.533333 0 17.5625 0.533333 0 16.5 0.533333 0 
15.4375 0.533333 0 14.375 0.533333 0 13.3125 0.533333 0 
12.25 0.533333 0 11.1875 0.533333 0 10.125 0.533333 0 
9.0625 0.533333 0 23.9375 -0.533333 0 22.875 -0.533333 0 
21.8125 -0.533333 0 20.75 -0.533333 0 19.6875 -0.533333 0 
18.625 -0.533333 0 17.5625 -0.533333 0 16.5 -0.533333 0 
15.4375 -0.533333 0 14.375 -0.533333 0 13.3125 -0.533333 0 
12.25 -0.533333 0 11.1875 -0.533333 0 10.125 -0.533333 0 
9.0625 -0.533333 0 23.9375 -1.6 0 22.875 -1.6 0 
21.8125 -1.6 0 20.75 -1.6 0 19.6875 -1.6 0 
18.625 -1.6 0 17.5625 -1.6 0 16.5 -1.6 0 
15.4375 -1.6 0 14.375 -1.6 0 13.3125 -1.6 0 
12.25 -1.6 0 11.1875 -1.6 0 10.125 -1.6 0 
9.0625 -1.6 0 23.9375 -2.66667 0 22.875 -2.66667 0 
21.8125 -2.66667 0 20.75 -2.66667 0 19.6875 -2.66667 0 
18.625 -2.66667 0 17.5625 -2.66667 0 16.5 -2.66667 0 
15.4375 -2.66667 0 14.375 -2.66667 0 13.3125 -2.66667 0 
12.25 -2.66667 0 11.1875 -2.66667 0 10.125 -2.66667 0 
9.0625 -2.66667 0 23.9375 -3.73333 0 22.875 -3.73333 0 
21.8125 -3.73333 0 20.75 -3.73333 0 19.6875 -3.73333 0 
18.625 -3.73333 0 17.5625 -3.73333 0 16.5 -3.73333 0 
15.4375 -3.73333 0 14.375 -3.73333 0 13.3125 -3.73333 0 
12.25 -3.73333 0 11.1875 -3.73333 0 10.125 -3.73333 0 
9.0625 -3.73333 0 23.9375 -4.8 0 22.875 -4.8 0 
21.8125 -4.8 0 20.75 -4.8 0 19.6875 -4.8 0 
18.625 -4.8 0 17.5625 -4.8 0 16.5 -4.8 0 
15.4375 -4.8 0 14.375 -4.8 0 13.3125 -4.8 0 
12.25 -4.8 0 11.1875 -4.8 0 10.125 -4.8 0 
9.0625 -4.8 0 23.9375 -5.86667 0 22.875 -5.86667 0 
21.8125 -5.86667 0 20.75 -5.86667 0 19.6875 -5.86667 0 
18.625 -5.86667 0 17.5625 -5.86667 0 16.5 -5.86667 0 
15.4375 -5.86667 0 14.375 -5.86667 0 13.3125 -5.86667 0 
12.25 -5.86667 0 11.1875 -5.86667 0 10.125 -5.86667 0 
9.0625 -5.86667 0 23.9375 -6.93333 0 22.875 -6.93333 0 
21.8125 -6.93333 0 20.75 -6.93333 0 19.6875 -6.93333 0 
18.625 -6.93333 0 17.5625 -6.93333 0 16.5 -6.93333 0 
15.4375 -6.93333 0 14.375 -6.93333 0 13.3125 -6.93333 0 
12.25 -6.93333 0 11.1875 -6.93333 0 10.125 -6.93333 0 
9.0625 -6.93333 0 23.9375 -9.01724 0 22.875 -9.01724 0 
21.8125 -9.01724 0 20.75 -9.01724 0 19.6875 -9.01724 0 
18.625 -9.01724 0 17.5625 -9.01724 0 16.5 -9.01724 0 
15.4375 -9.01724 0 14.375 -9.01724 0 13.3125 -9.01724 0 
12.25 -9.01724 0 11.1875 -9.01724 0 10.125 -9.01724 0 
9.0625 -9.01724 0 23.9375 -10.0345 0 22.875 -10.0345 0 
21.8125 -10.0345 0 20.75 -10.0345 0 19.6875 -10.0345 0 
18.625 -10.0345 0 17.5625 -10.0345 0 16.5 -10.0345 0 
15.4375 -10.0345 0 14.375 -10.0345 0 13.3125 -10.0345 0 
12.25 -10.0345 0 11.1875 -10.0345 0 10.125 -10.0345 0 
9.0625 -10.0345 0 23.9375 -11.0517 0 22.875 -11.0517 0 
21.8125 -11.0517 0 20.75 -11.0517 0 19.6875 -11.0517 0 
18.625 -11.0517 0 17.5625 -11.0517 0 16.5 -11.0517 0 
15.4375 -11.0517 0 14.375 -11.0517 0 13.3125 -11.0517 0 
12.25 -11.0517 0 11.1875 -11.0517 0 10.125 -11.0517 0 
9.0625 -11.0517 0 23.9375 -12.069 0 22.875 -12.069 0 
21.8125 -12.069 0 20.75 -12.069 0 19.6875 -12.069 0 
18.625 -12.069 0 17.5625 -12.069 0 16.5 -12.069 0 
15.4375 -12.069 0 14.375 -12.069 0 13.3125 -12.069 0 
12.25 -12.069 0 11.1875 -12.069 0 10.125 -12.069 0 
9.0625 -12.069 0 23.9375 -13.0862 0 22.875 -13.0862 0 
21.8125 -13.0862 0 20.75 -13.0862 0 19.6875 -13.0862 0 
18.625 -13.0862 0 17.5625 -13.0862 0 16.5 -13.0862 0 
15.4375 -13.0862 0 14.375 -13.0862 0 13.3125 -13.0862 0 
12.25 -13.0862 0 11.1875 -13.0862 0 10.125 -13.0862 0 
9.0625 -13.0862 0 23.9375 -14.1034 0 22.875 -14.1034 0 
21.8125 -14.1034 0 20.75 -14.1034 0 19.6875 -14.1034 0 
18.625 -14.1034 0 17.5625 -14.1034 0 16.5 -14.1034 0 
15.4375 -14.1034 0 14.375 -14.1034 0 13.3125 -14.1034 0 
12.25 -14.1034 0 11.1875 -14.1034 0 10.125 -14.1034 0 
9.0625 -14.1034 0 23.9375 -15.1207 0 22.875 -15.1207 0 
21.8125 -15.1207 0 20.75 -15.1207 0 19.6875 -15.1207 0 
18.625 -15.1207 0 17.5625 -15.1207 0 16.5 -15.1207 0 
15.4375 -15.1207 0 14.375 -15.1207 0 13.3125 -15.1207 0 
12.25 -15.1207 0 11.1875 -15.1207 0 10.125 -15.1207 0 
9.0625 -15.1207 0 23.9375 -16.1379 0 22.875 -16.1379 0 
21.8125 -16.1379 0 20.75 -16.1379 0 19.6875 -16.1379 0 
18.625 -16.1379 0 17.5625 -16.1379 0 16.5 -16.1379 0 
15.4375 -16.1379 0 14.375 -16.1379 0 13.3125 -16.1379 0 
12.25 -16.1379 0 11.1875 -16.1379 0 10.125 -16.1379 0 
9.0625 -16.1379 0 23.9375 -17.1552 0 22.875 -17.1552 0 
21.8125 -17.1552 0 20.75 -17.1552 0 19.6875 -17.1552 0 
18.625 -17.1552 0 17.5625 -17.1552 0 16.5 -17.1552 0 
15.4375 -17.1552 0 14.375 -17.1552 0 13.3125 -17.1552 0 
12.25 -17.1552 0 11.1875 -17.1552 0 10.125 -17.1552 0 
9.0625 -17.1552 0 23.9375 -18.1724 0 22.875 -18.1724 0 
21.8125 -18.1724 0 20.75 -18.1724 0 19.6875 -18.1724 0 
18.625 -18.1724 0 17.5625 -18.1724 0 16.5 -18.1724 0 
15.4375 -18.1724 0 14.375 -18.1724 0 13.3125 -18.1724 0 
12.25 -18.1724 0 11.1875 -18.1724 0 10.125 -18.1724 0 
9.0625 -18.1724 0 23.9375 -19.1897 0 22.875 -19.1897 0 
21.8125 -19.1897 0 20.75 -19.1897 0 19.6875 -19.1897 0 
18.625 -19.1897 0 17.5625 -19.1897 0 16.5 -19.1897 0 
15.4375 -19.1897 0 14.375 -19.1897 0 13.3125 -19.1897 0 
12.25 -19.1897 0 11.1875 -19.1897 0 10.125 -19.1897 0 
9.0625 -19.1897 0 23.9375 -20.2069 0 22.875 -20.2069 0 
21.8125 -20.2069 0 20.75 -20.2069 0 19.6875 -20.2069 0 
18.625 -20.2069 0 17.5625 -20.2069 0 16.5 -20.2069 0 
15.4375 -20.2069 0 14.375 -20.2069 0 13.3125 -20.2069 0 
12.25 -20.2069 0 11.1875 -20.2069 0 10.125 -20.2069 0 
9.0625 -20.2069 0 23.9375 -21.2241 0 22.875 -21.2241 0 
21.8125 -21.2241 0 20.75 -21.2241 0 19.6875 -21.2241 0 
18.625 -21.2241 0 17.5625 -21.2241 0 16.5 -21.2241 0 
15.4375 -21.2241 0 14.375 -21.2241 0 13.3125 -21.2241 0 
12.25 -21.2241 0 11.1875 -21.2241 0 10.125 -21.2241 0 
9.0625 -21.2241 0 23.9375 -22.2414 0 22.875 -22.2414 0 
21.8125 -22.2414 0 20.75 -22.2414 0 19.6875 -22.2414 0 
18.625 -22.2414 0 17.5625 -22.2414 0 16.5 -22.2414 0 
15.4375 -22.2414 0 14.375 -22.2414 0 13.3125 -22.2414 0 
12.25 -22.2414 0 11.1875 -22.2414 0 10.125 -22.2414 0 
9.0625 -22.2414 0 23.9375 -23.2586 0 22.875 -23.2586 0 
21.8125 -23.2586 0 20.75 -23.2586 0 19.6875 -23.2586 0 
18.625 -23.2586 0 17.5625 -23.2586 0 16.5 -23.2586 0 
15.4375 -23.2586 0 14.375 -23.2586 0 13.3125 -23.2586 0 
12.25 -23.2586 0 11.1875 -23.2586 0 10.125 -23.2586 0 
9.0625 -23.2586 0 23.9375 -24.2759 0 22.875 -24.2759 0 
21.8125 -24.2759 0 20.75 -24.2759 0 19.6875 -24.2759 0 
18.625 -24.2759 0 17.5625 -24.2759 0 16.5 -24.2759 0 
15.4375 -24.2759 0 14.375 -24.2759 0 13.3125 -24.2759 0 
12.25 -24.2759 0 11.1875 -24.2759 0 10.125 -24.2759 0 
9.0625 -24.2759 0 23.9375 -25.2931 0 22.875 -25.2931 0 
21.8125 -25.2931 0 20.75 -25.2931 0 19.6875 -25.2931 0 
18.625 -25.2931 0 17.5625 -25.2931 0 16.5 -25.2931 0 
15.4375 -25.2931 0 14.375 -25.2931 0 13.3125 -25.2931 0 
12.25 -25.2931 0 11.1875 -25.2931 0 10.125 -25.2931 0 
9.0625 -25.2931 0 23.9375 -26.3103 0 22.875 -26.3103 0 
21.8125 -26.3103 0 20.75 -26.3103 0 19.6875 -26.3103 0 
18.625 -26.3103 0 17.5625 -26.3103 0 16.5 -26.3103 0 
15.4375 -26.3103 0 14.375 -26.3103 0 13.3125 -26.3103 0 
12.25 -26.3103 0 11.1875 -26.3103 0 10.125 -26.3103 0 
9.0625 -26.3103 0 23.9375 -27.3276 0 22.875 -27.3276 0 
21.8125 -27.3276 0 20.75 -27.3276 0 19.6875 -27.3276 0 
18.625 -27.3276 0 17.5625 -27.3276 0 16.5 -27.3276 0 
15.4375 -27.3276 0 14.375 -27.3276 0 13.3125 -27.3276 0 
12.25 -27.3276 0 11.1875 -27.3276 0 10.125 -27.3276 0 
9.0625 -27.3276 0 23.9375 -28.3448 0 22.875 -28.3448 0 
21.8125 -28.3448 0 20.75 -28.3448 0 19.6875 -28.3448 0 
18.625 -28.3448 0 17.5625 -28.3448 0 16.5 -28.3448 0 
15.4375 -28.3448 0 14.375 -28.3448 0 13.3125 -28.3448 0 
12.25 -28.3448 0 11.1875 -28.3448 0 10.125 -28.3448 0 
9.0625 -28.3448 0 23.9375 -29.3621 0 22.875 -29.3621 0 
21.8125 -29.3621 0 20.75 -29.3621 0 19.6875 -29.3621 0 
18.625 -29.3621 0 17.5625 -29.3621 0 16.5 -29.3621 0 
15.4375 -29.3621 0 14.375 -29.3621 0 13.3125 -29.3621 0 
12.25 -29.3621 0 11.1875 -29.3621 0 10.125 -29.3621 0 
9.0625 -29.3621 0 23.9375 -30.3793 0 22.875 -30.3793 0 
21.8125 -30.3793 0 20.75 -30.3793 0 19.6875 -30.3793 0 
18.625 -30.3793 0 17.5625 -30.3793 0 16.5 -30.3793 0 
15.4375 -30.3793 0 14.375 -30.3793 0 13.3125 -30.3793 0 
12.25 -30.3793 0 11.1875 -30.3793 0 10.125 -30.3793 0 
9.0625 -30.3793 0 23.9375 -31.3966 0 22.875 -31.3966 0 
21.8125 -31.3966 0 20.75 -31.3966 0 19.6875 -31.3966 0 
18.625 -31.3966 0 17.5625 -31.3966 0 16.5 -31.3966 0 
15.4375 -31.3966 0 14.375 -31.3966 0 13.3125 -31.3966 0 
12.25 -31.3966 0 11.1875 -31.3966 0 10.125 -31.3966 0 
9.0625 -31.3966 0 23.9375 -32.4138 0 22.875 -32.4138 0 
21.8125 -32.4138 0 20.75 -32.4138 0 19.6875 -32.4138 0 
18.625 -32.4138 0 17.5625 -32.4138 0 16.5 -32.4138 0 
15.4375 -32.4138 0 14.375 -32.4138 0 13.3125 -32.4138 0 
12.25 -32.4138 0 11.1875 -32.4138 0 10.125 -32.4138 0 
9.0625 -32.4138 0 23.9375 -33.431 0 22.875 -33.431 0 
21.8125 -33.431 0 20.75 -33.431 0 19.6875 -33.431 0 
18.625 -33.431 0 17.5625 -33.431 0 16.5 -33.431 0 
15.4375 -33.431 0 14.375 -33.431 0 13.3125 -33.431 0 
12.25 -33.431 0 11.1875 -33.431 0 10.125 -33.431 0 
9.0625 -33.431 0 23.9375 -34.4483 0 22.875 -34.4483 0 
21.8125 -34.4483 0 20.75 -34.4483 0 19.6875 -34.4483 0 
18.625 -34.4483 0 17.5625 -34.4483 0 16.5 -34.4483 0 
15.4375 -34.4483 0 14.375 -34.4483 0 13.3125 -34.4483 0 
12.25 -34.4483 0 11.1875 -34.4483 0 10.125 -34.4483 0 
9.0625 -34.4483 0 23.9375 -35.4655 0 22.875 -35.4655 0 
21.8125 -35.4655 0 20.75 -35.4655 0 19.6875 -35.4655 0 
18.625 -35.4655 0 17.5625 -35.4655 0 16.5 -35.4655 0 
15.4375 -35.4655 0 14.375 -35.4655 0 13.3125 -35.4655 0 
12.25 -35.4655 0 11.1875 -35.4655 0 10.125 -35.4655 0 
9.0625 -35.4655 0 23.9375 -36.4828 0 22.875 -36.4828 0 
21.8125 -36.4828 0 20.75 -36.4828 0 19.6875 -36.4828 0 
18.625 -36.4828 0 17.5625 -36.4828 0 16.5 -36.4828 0 
15.4375 -36.4828 0 14.375 -36.4828 0 13.3125 -36.4828 0 
12.25 -36.4828 0 11.1875 -36.4828 0 10.125 -36.4828 0 
9.0625 -36.4828 0 6.93333 -36.4828 0 6.93333 -35.4655 0 
6.93333 -34.4483 0 6.93333 -33.431 0 6.93333 -32.4138 0 
6.93333 -31.3966 0 6.93333 -30.3793 0 6.93333 -29.3621 0 
6.93333 -28.3448 0 6.93333 -27.3276 0 6.93333 -26.3103 0 
6.93333 -25.2931 0 6.93333 -24.2759 0 6.93333 -23.2586 0 
6.93333 -22.2414 0 6.93333 -21.2241 0 6.93333 -20.2069 0 
6.93333 -19.1897 0 6.93333 -18.1724 0 6.93333 -17.1552 0 
6.93333 -16.1379 0 6.93333 -15.1207 0 6.93333 -14.1034 0 
6.93333 -13.0862 0 6.93333 -12.069 0 6.93333 -11.0517 0 
6.93333 -10.0345 0 6.93333 -9.01724 0 5.86667 -36.4828 0 
5.86667 -35.4655 0 5.86667 -34.4483 0 5.86667 -33.431 0 
5.86667 -32.4138 0 5.86667 -31.3966 0 5.86667 -30.3793 0 
5.86667 -29.3621 0 5.86667 -28.3448 0 5.86667 -27.3276 0 
5.86667 -26.3103 0 5.86667 -25.2931 0 5.86667 -24.2759 0 
5.86667 -23.2586 0 5.86667 -22.2414 0 5.86667 -21.2241 0 
5.86667 -20.2069 0 5.86667 -19.1897 0 5.86667 -18.1724 0 
5.86667 -17.1552 0 5.86667 -16.1379 0 5.86667 -15.1207 0 
5.86667 -14.1034 0 5.86667 -13.0862 0 5.86667 -12.069 0 
5.86667 -11.0517 0 5.86667 -10.0345 0 5.86667 -9.01724 0 
4.8 -36.4828 0 4.8 -35.4655 0 4.8 -34.4483 0 
4.8 -33.431 0 4.8 -32.4138 0 4.8 -31.3966 0 
4.8 -30.3793 0 4.8 -29.3621 0 4.8 -28.3448 0 
4.8 -27.3276 0 4.8 -26.3103 0 4.8 -25.2931 0 
4.8 -24.2759 0 4.8 -23.2586 0 4.8 -22.2414 0 
4.8 -21.2241 0 4.8 -20.2069 0 4.8 -19.1897 0 
4.8 -18.1724 0 4.8 -17.1552 0 4.8 -16.1379 0 
4.8 -15.1207 0 4.8 -14.1034 0 4.8 -13.0862 0 
4.8 -12.069 0 4.8 -11.0517 0 4.8 -10.0345 0 
4.8 -9.01724 0 3.73333 -36.4828 0 3.73333 -35.4655 0 
3.73333 -34.4483 0 3.73333 -33.431 0 3.73333 -32.4138 0 
3.73333 -31.3966 0 3.73333 -30.3793 0 3.73333 -29.3621 0 
3.73333 -28.3448 0 3.73333 -27.3276 0 3.73333 -26.3103 0 
3.73333 -25.2931 0 3.73333 -24.2759 0 3.73333 -23.2586 0 
3.73333 -22.2414 0 3.73333 -21.2241 0 3.73333 -20.2069 0 
3.73333 -19.1897 0 3.73333 -18.1724 0 3.73333 -17.1552 0 
3.73333 -16.1379 0 3.73333 -15.1207 0 3.73333 -14.1034 0 
3.73333 -13.0862 0 3.73333 -12.069 0 3.73333 -11.0517 0 
3.73333 -10.0345 0 3.73333 -9.01724 0 2.66667 -36.4828 0 
2.66667 -35.4655 0 2.66667 -34.4483 0 2.66667 -33.431 0 
2.66667 -32.4138 0 2.66667 -31.3966 0 2.66667 -30.3793 0 
2.66667 -29.3621 0 2.66667 -28.3448 0 2.66667 -27.3276 0 
2.66667 -26.3103 0 2.66667 -25.2931 0 2.66667 -24.2759 0 
2.66667 -23.2586 0 2.66667 -22.2414 0 2.66667 -21.2241 0 
2.66667 -20.2069 0 2.66667 -19.1897 0 2.66667 -18.1724 0 
2.66667 -17.1552 0 2.66667 -16.1379 0 2.66667 -15.1207 0 
2.66667 -14.1034 0 2.66667 -13.0862 0 2.66667 -12.069 0 
2.66667 -11.0517 0 2.66667 -10.0345 0 2.66667 -9.01724 0 
1.6 -36.4828 0 1.6 -35.4655 0 1.6 -34.4483 0 
1.6 -33.431 0 1.6 -32.4138 0 1.6 -31.3966 0 
1.6 -30.3793 0 1.6 -29.3621 0 1.6 -28.3448 0 
1.6 -27.3276 0 1.6 -26.3103 0 1.6 -25.2931 0 
1.6 -24.2759 0 1.6 -23.2586 0 1.6 -22.2414 0 
1.6 -21.2241 0 1.6 -20.2069 0 1.6 -19.1897 0 
1.6 -18.1724 0 1.6 -17.1552 0 1.6 -16.1379 0 
1.6 -15.1207 0 1.6 -14.1034 0 1.6 -13.0862 0 
1.6 -12.069 0 1.6 -11.0517 0 1.6 -10.0345 0 
1.6 -9.01724 0 0.533333 -36.4828 0 0.533333 -35.4655 0 
0.533333 -34.4483 0 0.533333 -33.431 0 0.533333 -32.4138 0 
0.533333 -31.3966 0 0.533333 -30.3793 0 0.533333 -29.3621 0 
0.533333 -28.3448 0 0.533333 -27.3276 0 0.533333 -26.3103 0 
0.533333 -25.2931 0 0.533333 -24.2759 0 0.533333 -23.2586 0 
0.533333 -22.2414 0 0.533333 -21.2241 0 0.533333 -20.2069 0 
0.533333 -19.1897 0 0.533333 -18.1724 0 0.533333 -17.1552 0 
0.533333 -16.1379 0 0.533333 -15.1207 0 0.533333 -14.1034 0 
0.533333 -13.0862 0 0.533333 -12.069 0 0.533333 -11.0517 0 
0.533333 -10.0345 0 0.533333 -9.01724 0 -0.533333 -36.4828 0 
-0.533333 -35.4655 0 -0.533333 -34.4483 0 -0.533333 -33.431 0 
-0.533333 -32.4138 0 -0.533333 -31.3966 0 -0.533333 -30.3793 0 
-0.533333 -29.3621 0 -0.533333 -28.3448 0 -0.533333 -27.3276 0 
-0.533333 -26.3103 0 -0.533333 -25.2931 0 -0.533333 -24.2759 0 
-0.533333 -23.2586 0 -0.533333 -22.2414 0 -0.533333 -21.2241 0 
-0.533333 -20.2069 0 -0.533333 -19.1897 0 -0.533333 -18.1724 0 
-0.533333 -17.1552 0 -0.533333 -16.1379 0 -0.533333 -15.1207 0 
-0.533333 -14.1034 0 -0.533333 -13.0862 0 -0.533333 -12.069 0 
-0.533333 -11.0517 0 -0.533333 -10.0345 0 -0.533333 -9.01724 0 
-1.6 -36.4828 0 -1.6 -35.4655 0 -1.6 -34.4483 0 
-1.6 -33.431 0 -1.6 -32.4138 0 -1.6 -31.3966 0 
-1.6 -30.3793 0 -1.6 -29.3621 0 -1.6 -28.3448 0 
-1.6 -27.3276 0 -1.6 -26.3103 0 -1.6 -25.2931 0 
-1.6 -24.2759 0 -1.6 -23.2586 0 -1.6 -22.2414 0 
-1.6 -21.2241 0 -1.6 -20.2069 0 -1.6 -19.1897 0 
-1.6 -18.1724 0 -1.6 -17.1552 0 -1.6 -16.1379 0 
-1.6 -15.1207 0 -1.6 -14.1034 0 -1.6 -13.0862 0 
-1.6 -12.069 0 -1.6 -11.0517 0 -1.6 -10.0345 0 
-1.6 -9.01724 0 -2.66667 -36.4828 0 -2.66667 -35.4655 0 
-2.66667 -34.4483 0 -2.66667 -33.431 0 -2.66667 -32.4138 0 
-2.66667 -31.3966 0 -2.66667 -30.3793 0 -2.66667 -29.3621 0 
-2.66667 -28.3448 0 -2.66667 -27.3276 0 -2.66667 -26.3103 0 
-2.66667 -25.2931 0 -2.66667 -24.2759 0 -2.66667 -23.2586 0 
-2.66667 -22.2414 0 -2.66667 -21.2241 0 -2.66667 -20.2069 0 
-2.66667 -19.1897 0 -2.66667 -18.1724 0 -2.66667 -17.1552 0 
-2.66667 -16.1379 0 -2.66667 -15.1207 0 -2.66667 -14.1034 0 
-2.66667 -13.0862 0 -2.66667 -12.069 0 -2.66667 -11.0517 0 
-2.66667 -10.0345 0 -2.66667 -9.01724 0 -3.73333 -36.4828 0 
-3.73333 -35.4655 0 -3.73333 -34.4483 0 -3.73333 -33.431 0 
-3.73333 -32.4138 0 -3.73333 -31.3966 0 -3.73333 -30.3793 0 
-3.73333 -29.3621 0 -3.73333 -28.3448 0 -3.73333 -27.3276 0 
-3.73333 -26.3103 0 -3.73333 -25.2931 0 -3.73333 -24.2759 0 
-3.73333 -23.2586 0 -3.73333 -22.2414 0 -3.73333 -21.2241 0 
-3.73333 -20.2069 0 -3.73333 -19.1897 0 -3.73333 -18.1724 0 
-3.73333 -17.1552 0 -3.73333 -16.1379 0 -3.73333 -15.1207 0 
-3.73333 -14.1034 0 -3.73333 -13.0862 0 -3.73333 -12.069 0 
-3.73333 -11.0517 0 -3.73333 -10.0345 0 -3.73333 -9.01724 0 
-4.8 -36.4828 0 -4.8 -35.4655 0 -4.8 -34.4483 0 
-4.8 -33.431 0 -4.8 -32.4138 0 -4.8 -31.3966 0 
-4.8 -30.3793 0 -4.8 -29.3621 0 -4.8 -28.3448 0 
-4.8 -27.3276 0 -4.8 -26.3103 0 -4.8 -25.2931 0 
-4.8 -24.2759 0 -4.8 -23.2586 0 -4.8 -22.2414 0 
-4.8 -21.2241 0 -4.8 -20.2069 0 -4.8 -19.1897 0 
-4.8 -18.1724 0 -4.8 -17.1552 0 -4.8 -16.1379 0 
-4.8 -15.1207 0 -4.8 -14.1034 0 -4.8 -13.0862 0 
-4.8 -12.069 0 -4.8 -11.0517 0 -4.8 -10.0345 0 
-4.8 -9.01724 0 -5.86667 -36.4828 0 -5.86667 -35.4655 0 
-5.86667 -34.4483 0 -5.86667 -33.431 0 -5.86667 -32.4138 0 
-5.86667 -31.3966 0 -5.86667 -30.3793 0 -5.86667 -29.3621 0 
-5.86667 -28.3448 0 -5.86667 -27.3276 0 -5.86667 -26.3103 0 
-5.86667 -25.2931 0 -5.86667 -24.2759 0 -5.86667 -23.2586 0 
-5.86667 -22.2414 0 -5.86667 -21.2241 0 -5.86667 -20.2069 0 
-5.86667 -19.1897 0 -5.86667 -18.1724 0 -5.86667 -17.1552 0 
-5.86667 -16.1379 0 -5.86667 -15.1207 0 -5.86667 -14.1034 0 
-5.86667 -13.0862 0 -5.86667 -12.069 0 -5.86667 -11.0517 0 
-5.86667 -10.0345 0 -5.86667 -9.01724 0 -6.93333 -36.4828 0 
-6.93333 -35.4655 0 -6.93333 -34.4483 0 -6.93333 -33.431 0 
-6.93333 -32.4138 0 -6.93333 -31.3966 0 -6.93333 -30.3793 0 
-6.93333 -29.3621 0 -6.93333 -28.3448 0 -6.93333 -27.3276 0 
-6.93333 -26.3103 0 -6.93333 -25.2931 0 -6.93333 -24.2759 0 
-6.93333 -23.2586 0 -6.93333 -22.2414 0 -6.93333 -21.2241 0 
-6.93333 -20.2069 0 -6.93333 -19.1897 0 -6.93333 -18.1724 0 
-6.93333 -17.1552 0 -6.93333 -16.1379 0 -6.93333 -15.1207 0 
-6.93333 -14.1034 0 -6.93333 -13.0862 0 -6.93333 -12.069 0 
-6.93333 -11.0517 0 -6.93333 -10.0345 0 -6.93333 -9.01724 0 
-9.0625 -36.4828 0 -9.0625 -35.4655 0 -9.0625 -34.4483 0 
-9.0625 -33.431 0 -9.0625 -32.4138 0 -9.0625 -31.3966 0 
-9.0625 -30.3793 0 -9.0625 -29.3621 0 -9.0625 -28.3448 0 
-9.0625 -27.3276 0 -9.0625 -26.3103 0 -9.0625 -25.2931 0 
-9.0625 -24.2759 0 -9.0625 -23.2586 0 -9.0625 -22.2414 0 
-9.0625 -21.2241 0 -9.0625 -20.2069 0 -9.0625 -19.1897 0 
-9.0625 -18.1724 0 -9.0625 -17.1552 0 -9.0625 -16.1379 0 
-9.0625 -15.1207 0 -9.0625 -14.1034 0 -9.0625 -13.0862 0 
-9.0625 -12.069 0 -9.0625 -11.0517 0 -9.0625 -10.0345 0 
-9.0625 -9.01724 0 -10.125 -36.4828 0 -10.125 -35.4655 0 
-10.125 -34.4483 0 -10.125 -33.431 0 -10.125 -32.4138 0 
-10.125 -31.3966 0 -10.125 -30.3793 0 -10.125 -29.3621 0 
-10.125 -28.3448 0 -10.125 -27.3276 0 -10.125 -26.3103 0 
-10.125 -25.2931 0 -10.125 -24.2759 0 -10.125 -23.2586 0 
-10.125 -22.2414 0 -10.125 -21.2241 0 -10.125 -20.2069 0 
-10.125 -19.1897 0 -10.125 -18.1724 0 -10.125 -17.1552 0 
-10.125 -16.1379 0 -10.125 -15.1207 0 -10.125 -14.1034 0 
-10.125 -13.0862 0 -10.125 -12.069 0 -10.125 -11.0517 0 
-10.125 -10.0345 0 -10.125 -9.01724 0 -11.1875 -36.4828 0 
-11.1875 -35.4655 0 -11.1875 -34.4483 0 -11.1875 -33.431 0 
-11.1875 -32.4138 0 -11.1875 -31.3966 0 -11.1875 -30.3793 0 
-11.1875 -29.3621 0 -11.1875 -28.3448 0 -11.1875 -27.3276 0 
-11.1875 -26.3103 0 -11.1875 -25.2931 0 -11.1875 -24.2759 0 
-11.1875 -23.2586 0 -11.1875 -22.2414 0 -11.1875 -21.2241 0 
-11.1875 -20.2069 0 -11.1875 -19.1897 0 -11.1875 -18.1724 0 
-11.1875 -17.1552 0 -11.1875 -16.1379 0 -11.1875 -15.1207 0 
-11.1875 -14.1034 0 -11.1875 -13.0862 0 -11.1875 -12.069 0 
-11.1875 -11.0517 0 -11.1875 -10.0345 0 -11.1875 -9.01724 0 
-12.25 -36.4828 0 -12.25 -35.4655 0 -12.25 -34.4483 0 
-12.25 -33.431 0 -12.25 -32.4138 0 -12.25 -31.3966 0 
-12.25 -30.3793 0 -12.25 -29.3621 0 -12.25 -28.3448 0 
-12.25 -27.3276 0 -12.25 -26.3103 0 -12.25 -25.2931 0 
-12.25 -24.2759 0 -12.25 -23.2586 0 -12.25 -22.2414 0 
-12.25 -21.2241 0 -12.25 -20.2069 0 -12.25 -19.1897 0 
-12.25 -18.1724 0 -12.25 -17.1552 0 -12.25 -16.1379 0 
-12.25 -15.1207 0 -12.25 -14.1034 0 -12.25 -13.0862 0 
-12.25 -12.069 0 -12.25 -11.0517 0 -12.25 -10.0345 0 
-12.25 -9.01724 0 -13.3125 -36.4828 0 -13.3125 -35.4655 0 
-13.3125 -34.4483 0 -13.3125 -33.431 0 -13.3125 -32.4138 0 
-13.3125 -31.3966 0 -13.3125 -30.3793 0 -13.3125 -29.3621 0 
-13.3125 -28.3448 0 -13.3125 -27.3276 0 -13.3125 -26.3103 0 
-13.3125 -25.2931 0 -13.3125 -24.2759 0 -13.3125 -23.2586 0 
-13.3125 -22.2414 0 -13.3125 -21.2241 0 -13.3125 -20.2069 0 
-13.3125 -19.1897 0 -13.3125 -18.1724 0 -13.3125 -17.1552 0 
-13.3125 -16.1379 0 -13.3125 -15.1207 0 -13.3125 -14.1034 0 
-13.3125 -13.0862 0 -13.3125 -12.069 0 -13.3125 -11.0517 0 
-13.3125 -10.0345 0 -13.3125 -9.01724 0 -14.375 -36.4828 0 
-14.375 -35.4655 0 -14.375 -34.4483 0 -14.375 -33.431 0 
-14.375 -32.4138 0 -14.375 -31.3966 0 -14.375 -30.3793 0 
-14.375 -29.3621 0 -14.375 -28.3448 0 -14.375 -27.3276 0 
-14.375 -26.3103 0 -14.375 -25.2931 0 -14.375 -24.2759 0 
-14.375 -23.2586 0 -14.375 -22.2414 0 -14.375 -21.2241 0 
-14.375 -20.2069 0 -14.375 -19.1897 0 -14.375 -18.1724 0 
-14.375 -17.1552 0 -14.375 -16.1379 0 -14.375 -15.1207 0 
-14.375 -14.1034 0 -14.375 -13.0862 0 -14.375 -12.069 0 
-14.375 -11.0517 0 -14.375 -10.0345 0 -14.375 -9.01724 0 
-15.4375 -36.4828 0 -15.4375 -35.4655 0 -15.4375 -34.4483 0 
-15.4375 -33.431 0 -15.4375 -32.4138 0 -15.4375 -31.3966 0 
-15.4375 -30.3793 0 -15.4375 -29.3621 0 -15.4375 -28.3448 0 
-15.4375 -27.3276 0 -15.4375 -26.3103 0 -15.4375 -25.2931 0 
-15.4375 -24.2759 0 -15.4375 -23.2586 0 -15.4375 -22.2414 0 
-15.4375 -21.2241 0 -15.4375 -20.2069 0 -15.4375 -19.1897 0 
-15.4375 -18.1724 0 -15.4375 -17.1552 0 -15.4375 -16.1379 0 
-15.4375 -15.1207 0 -15.4375 -14.1034 0 -15.4375 -13.0862 0 
-15.4375 -12.069 0 -15.4375 -11.0517 0 -15.4375 -10.0345 0 
-15.4375 -9.01724 0 -16.5 -36.4828 0 -16.5 -35.4655 0 
-16.5 -34.4483 0 -16.5 -33.431 0 -16.5 -32.4138 0 
-16.5 -31.3966 0 -16.5 -30.3793 0 -16.5 -29.3621 0 
-16.5 -28.3448 0 -16.5 -27.3276 0 -16.5 -26.3103 0 
-16.5 -25.2931 0 -16.5 -24.2759 0 -16.5 -23.2586 0 
-16.5 -22.2414 0 -16.5 -21.2241 0 -16.5 -20.2069 0 
-16.5 -19.1897 0 -16.5 -18.1724 0 -16.5 -17.1552 0 
-16.5 -16.1379 0 -16.5 -15.1207 0 -16.5 -14.1034 0 
-16.5 -13.0862 0 -16.5 -12.069 0 -16.5 -11.0517 0 
-16.5 -10.0345 0 -16.5 -9.01724 0 -17.5625 -36.4828 0 
-17.5625 -35.4655 0 -17.5625 -34.4483 0 -17.5625 -33.431 0 
-17.5625 -32.4138 0 -17.5625 -31.3966 0 -17.5625 -30.3793 0 
-17.5625 -29.3621 0 -17.5625 -28.3448 0 -17.5625 -27.3276 0 
-17.5625 -26.3103 0 -17.5625 -25.2931 0 -17.5625 -24.2759 0 
-17.5625 -23.2586 0 -17.5625 -22.2414 0 -17.5625 -21.2241 0 
-17.5625 -20.2069 0 -17.5625 -19.1897 0 -17.5625 -18.1724 0 
-17.5625 -17.1552 0 -17.5625 -16.1379 0 -17.5625 -15.1207 0 
-17.5625 -14.1034 0 -17.5625 -13.0862 0 -17.5625 -12.069 0 
-17.5625 -11.0517 0 -17.5625 -10.0345 0 -17.5625 -9.01724 0 
-18.625 -36.4828 0 -18.625 -35.4655 0 -18.625 -34.4483 0 
-18.625 -33.431 0 -18.625 -32.4138 0 -18.625 -31.3966 0 
-18.625 -30.3793 0 -18.625 -29.3621 0 -18.625 -28.3448 0 
-18.625 -27.3276 0 -18.625 -26.3103 0 -18.625 -25.2931 0 
-18.625 -24.2759 0 -18.625 -23.2586 0 -18.625 -22.2414 0 
-18.625 -21.2241 0 -18.625 -20.2069 0 -18.625 -19.1897 0 
-18.625 -18.1724 0 -18.625 -17.1552 0 -18.625 -16.1379 0 
-18.625 -15.1207 0 -18.625 -14.1034 0 -18.625 -13.0862 0 
-18.625 -12.069 0 -18.625 -11.0517 0 -18.625 -10.0345 0 
-18.625 -9.01724 0 -19.6875 -36.4828 0 -19.6875 -35.4655 0 
-19.6875 -34.4483 0 -19.6875 -33.431 0 -19.6875 -32.4138 0 
-19.6875 -31.3966 0 -19.6875 -30.3793 0 -19.6875 -29.3621 0 
-19.6875 -28.3448 0 -19.6875 -27.3276 0 -19.6875 -26.3103 0 
-19.6875 -25.2931 0 -19.6875 -24.2759 0 -19.6875 -23.2586 0 
-19.6875 -22.2414 0 -19.6875 -21.2241 0 -19.6875 -20.2069 0 
-19.6875 -19.1897 0 -19.6875 -18.1724 0 -19.6875 -17.1552 0 
-19.6875 -16.1379 0 -19.6875 -15.1207 0 -19.6875 -14.1034 0 
-19.6875 -13.0862 0 -19.6875 -12.069 0 -19.6875 -11.0517 0 
-19.6875 -10.0345 0 -19.6875 -9.01724 0 -20.75 -36.4828 0 
-20.75 -35.4655 0 -20.75 -34.4483 0 -20.75 -33.431 0 
-20.75 -32.4138 0 -20.75 -31.3966 0 -20.75 -30.3793 0 
-20.75 -29.3621 0 -20.75 -28.3448 0 -20.75 -27.3276 0 
-20.75 -26.3103 0 -20.75 -25.2931 0 -20.75 -24.2759 0 
-20.75 -23.2586 0 -20.75 -22.2414 0 -20.75 -21.2241 0 
-20.75 -20.2069 0 -20.75 -19.1897 0 -20.75 -18.1724 0 
-20.75 -17.1552 0 -20.75 -16.1379 0 -20.75 -15.1207 0 
-20.75 -14.1034 0 -20.75 -13.0862 0 -20.75 -12.069 0 
-20.75 -11.0517 0 -20.75 -10.0345 0 -20.75 -9.01724 0 
-21.8125 -36.4828 0 -21.8125 -35.4655 0 -21.8125 -34.4483 0 
-21.8125 -33.431 0 -21.8125 -32.4138 0 -21.8125 -31.3966 0 
-21.8125 -30.3793 0 -21.8125 -29.3621 0 -21.8125 -28.3448 0 
-21.8125 -27.3276 0 -21.8125 -26.3103 0 -21.8125 -25.2931 0 
-21.8125 -24.2759 0 -21.8125 -23.2586 0 -21.8125 -22.2414 0 
-21.8125 -21.2241 0 -21.8125 -20.2069 0 -21.8125 -19.1897 0 
-21.8125 -18.1724 0 -21.8125 -17.1552 0 -21.8125 -16.1379 0 
-21.8125 -15.1207 0 -21.8125 -14.1034 0 -21.8125 -13.0862 0 
-21.8125 -12.069 0 -21.8125 -11.0517 0 -21.8125 -10.0345 0 
-21.8125 -9.01724 0 -22.875 -36.4828 0 -22.875 -35.4655 0 
-22.875 -34.4483 0 -22.875 -33.431 0 -22.875 -32.4138 0 
-22.875 -31.3966 0 -22.875 -30.3793 0 -22.875 -29.3621 0 
-22.875 -28.3448 0 -22.875 -27.3276 0 -22.875 -26.3103 0 
-22.875 -25.2931 0 -22.875 -24.2759 0 -22.875 -23.2586 0 
-22.875 -22.2414 0 -22.875 -21.2241 0 -22.875 -20.2069 0 
-22.875 -19.1897 0 -22.875 -18.1724 0 -22.875 -17.1552 0 
-22.875 -16.1379 0 -22.875 -15.1207 0 -22.875 -14.1034 0 
-22.875 -13.0862 0 -22.875 -12.069 0 -22.875 -11.0517 0 
-22.875 -10.0345 0 -22.875 -9.01724 0 -23.9375 -36.4828 0 
-23.9375 -35.4655 0 -23.9375 -34.4483 0 -23.9375 -33.431 0 
-23.9375 -32.4138 0 -23.9375 -31.3966 0 -23.9375 -30.3793 0 
-23.9375 -29.3621 0 -23.9375 -28.3448 0 -23.9375 -27.3276 0 
-23.9375 -26.3103 0 -23.9375 -25.2931 0 -23.9375 -24.2759 0 
-23.9375 -23.2586 0 -23.9375 -22.2414 0 -23.9375 -21.2241 0 
-23.9375 -20.2069 0 -23.9375 -19.1897 0 -23.9375 -18.1724 0 
-23.9375 -17.1552 0 -23.9375 -16.1379 0 -23.9375 -15.1207 0 
-23.9375 -14.1034 0 -23.9375 -13.0862 0 -23.9375 -12.069 0 
-23.9375 -11.0517 0 -23.9375 -10.0345 0 -23.9375 -9.01724 0 
-23.9375 -6.93333 0 -22.875 -6.93333 0 -21.8125 -6.93333 0 
-20.75 -6.93333 0 -19.6875 -6.93333 0 -18.625 -6.93333 0 
-17.5625 -6.93333 0 -16.5 -6.93333 0 -15.4375 -6.93333 0 
-14.375 -6.93333 0 -13.3125 -6.93333 0 -12.25 -6.93333 0 
-11.1875 -6.93333 0 -10.125 -6.93333 0 -9.0625 -6.93333 0 
-23.9375 -5.86667 0 -22.875 -5.86667 0 -21.8125 -5.86667 0 
-20.75 -5.86667 0 -19.6875 -5.86667 0 -18.625 -5.86667 0 
-17.5625 -5.86667 0 -16.5 -5.86667 0 -15.4375 -5.86667 0 
-14.375 -5.86667 0 -13.3125 -5.86667 0 -12.25 -5.86667 0 
-11.1875 -5.86667 0 -10.125 -5.86667 0 -9.0625 -5.86667 0 
-23.9375 -4.8 0 -22.875 -4.8 0 -21.8125 -4.8 0 
-20.75 -4.8 0 -19.6875 -4.8 0 -18.625 -4.8 0 
-17.5625 -4.8 0 -16.5 -4.8 0 -15.4375 -4.8 0 
-14.375 -4.8 0 -13.3125 -4.8 0 -12.25 -4.8 0 
-11.1875 -4.8 0 -10.125 -4.8 0 -9.0625 -4.8 0 
-23.9375 -3.73333 0 -22.875 -3.73333 0 -21.8125 -3.73333 0 
-20.75 -3.73333 0 -19.6875 -3.73333 0 -18.625 -3.73333 0 
-17.5625 -3.73333 0 -16.5 -3.73333 0 -15.4375 -3.73333 0 
-14.375 -3.73333 0 -13.3125 -3.73333 0 -12.25 -3.73333 0 
-11.1875 -3.73333 0 -10.125 -3.73333 0 -9.0625 -3.73333 0 
-23.9375 -2.66667 0 -22.875 -2.66667 0 -21.8125 -2.66667 0 
-20.75 -2.66667 0 -19.6875 -2.66667 0 -18.625 -2.66667 0 
-17.5625 -2.66667 0 -16.5 -2.66667 0 -15.4375 -2.66667 0 
-14.375 -2.66667 0 -13.3125 -2.66667 0 -12.25 -2.66667 0 
-11.1875 -2.66667 0 -10.125 -2.66667 0 -9.0625 -2.66667 0 
-23.9375 -1.6 0 -22.875 -1.6 0 -21.8125 -1.6 0 
-20.75 -1.6 0 -19.6875 -1.6 0 -18.625 -1.6 0 
-17.5625 -1.6 0 -16.5 -1.6 0 -15.4375 -1.6 0 
-14.375 -1.6 0 -13.3125 -1.6 0 -12.25 -1.6 0 
-11.1875 -1.6 0 -10.125 -1.6 0 -9.0625 -1.6 0 
-23.9375 -0.533333 0 -22.875 -0.533333 0 -21.8125 -0.533333 0 
-20.75 -0.533333 0 -19.6875 -0.533333 0 -18.625 -0.533333 0 
-17.5625 -0.533333 0 -16.5 -0.533333 0 -15.4375 -0.533333 0 
-14.375 -0.533333 0 -13.3125 -0.533333 0 -12.25 -0.533333 0 
-11.1875 -0.533333 0 -10.125 -0.533333 0 -9.0625 -0.533333 0 
-23.9375 0.533333 0 -22.875 0.533333 0 -21.8125 0.533333 0 
-20.75 0.533333 0 -19.6875 0.533333 0 -18.625 0.533333 0 
-17.5625 0.533333 0 -16.5 0.533333 0 -15.4375 0.533333 0 
-14.375 0.533333 0 -13.3125 0.533333 0 -12.25 0.533333 0 
-11.1875 0.533333 0 -10.125 0.533333 0 -9.0625 0.533333 0 
-23.9375 1.6 0 -22.875 1.6 0 -21.8125 1.6 0 
-20.75 1.6 0 -19.6875 1.6 0 -18.625 1.6 0 
-17.5625 1.6 0 -16.5 1.6 0 -15.4375 1.6 0 
-14.375 1.6 0 -13.3125 1.6 0 -12.25 1.6 0 
-11.1875 1.6 0 -10.125 1.6 0 -9.0625 1.6 0 
-23.9375 2.66667 0 -22.875 2.66667 0 -21.8125 2.66667 0 
-20.75 2.66667 0 -19.6875 2.66667 0 -18.625 2.66667 0 
-17.5625 2.66667 0 -16.5 2.66667 0 -15.4375 2.66667 0 
-14.375 2.66667 0 -13.3125 2.66667 0 -12.25 2.66667 0 
-11.1875 2.66667 0 -10.125 2.66667 0 -9.0625 2.66667 0 
-23.9375 3.73333 0 -22.875 3.73333 0 -21.8125 3.73333 0 
-20.75 3.73333 0 -19.6875 3.73333 0 -18.625 3.73333 0 
-17.5625 3.73333 0 -16.5 3.73333 0 -15.4375 3.73333 0 
-14.375 3.73333 0 -13.3125 3.73333 0 -12.25 3.73333 0 
-11.1875 3.73333 0 -10.125 3.73333 0 -9.0625 3.73333 0 
-23.9375 4.8 0 -22.875 4.8 0 -21.8125 4.8 0 
-20.75 4.8 0 -19.6875 4.8 0 -18.625 4.8 0 
-17.5625 4.8 0 -16.5 4.8 0 -15.4375 4.8 0 
-14.375 4.8 0 -13.3125 4.8 0 -12.25 4.8 0 
-11.1875 4.8 0 -10.125 4.8 0 -9.0625 4.8 0 
-23.9375 5.86667 0 -22.875 5.86667 0 -21.8125 5.86667 0 
-20.75 5.86667 0 -19.6875 5.86667 0 -18.625 5.86667 0 
-17.5625 5.86667 0 -16.5 5.86667 0 -15.4375 5.86667 0 
-14.375 5.86667 0 -13.3125 5.86667 0 -12.25 5.86667 0 
-11.1875 5.86667 0 -10.125 5.86667 0 -9.0625 5.86667 0 
-23.9375 6.93333 0 -22.875 6.93333 0 -21.8125 6.93333 0 
-20.75 6.93333 0 -19.6875 6.93333 0 -18.625 6.93333 0 
-17.5625 6.93333 0 -16.5 6.93333 0 -15.4375 6.93333 0 
-14.375 6.93333 0 -13.3125 6.93333 0 -12.25 6.93333 0 
-11.1875 6.93333 0 -10.125 6.93333 0 -9.0625 6.93333 0 
-23.9375 9.01724 0 -22.875 9.01724 0 -21.8125 9.01724 0 
-20.75 9.01724 0 -19.6875 9.01724 0 -18.625 9.01724 0 
-17.5625 9.01724 0 -16.5 9.01724 0 -15.4375 9.01724 0 
-14.375 9.01724 0 -13.3125 9.01724 0 -12.25 9.01724 0 
-11.1875 9.01724 0 -10.125 9.01724 0 -9.0625 9.01724 0 
-23.9375 10.0345 0 -22.875 10.0345 0 -21.8125 10.0345 0 
-20.75 10.0345 0 -19.6875 10.0345 0 -18.625 10.0345 0 
-17.5625 10.0345 0 -16.5 10.0345 0 -15.4375 10.0345 0 
-14.375 10.0345 0 -13.3125 10.0345 0 -12.25 10.0345 0 
-11.1875 10.0345 0 -10.125 10.0345 0 -9.0625 10.0345 0 
-23.9375 11.0517 0 -22.875 11.0517 0 -21.8125 11.0517 0 
-20.75 11.0517 0 -19.6875 11.0517 0 -18.625 11.0517 0 
-17.5625 11.0517 0 -16.5 11.0517 0 -15.4375 11.0517 0 
-14.375 11.0517 0 -13.3125 11.0517 0 -12.25 11.0517 0 
-11.1875 11.0517 0 -10.125 11.0517 0 -9.0625 11.0517 0 
-23.9375 12.069 0 -22.875 12.069 0 -21.8125 12.069 0 
-20.75 12.069 0 -19.6875 12.069 0 -18.625 12.069 0 
-17.5625 12.069 0 -16.5 12.069 0 -15.4375 12.069 0 
-14.375 12.069 0 -13.3125 12.069 0 -12.25 12.069 0 
-11.1875 12.069 0 -10.125 12.069 0 -9.0625 12.069 0 
-23.9375 13.0862 0 -22.875 13.0862 0 -21.8125 13.0862 0 
-20.75 13.0862 0 -19.6875 13.0862 0 -18.625 13.0862 0 
-17.5625 13.0862 0 -16.5 13.0862 0 -15.4375 13.0862 0 
-14.375 13.0862 0 -13.3125 13.0862 0 -12.25 13.0862 0 
-11.1875 13.0862 0 -10.125 13.0862 0 -9.0625 13.0862 0 
-23.9375 14.1034 0 -22.875 14.1034 0 -21.8125 14.1034 0 
-20.75 14.1034 0 -19.6875 14.1034 0 -18.625 14.1034 0 
-17.5625 14.1034 0 -16.5 14.1034 0 -15.4375 14.1034 0 
-14.375 14.1034 0 -13.3125 14.1034 0 -12.25 14.1034 0 
-11.1875 14.1034 0 -10.125 14.1034 0 -9.0625 14.1034 0 
-23.9375 15.1207 0 -22.875 15.1207 0 -21.8125 15.1207 0 
-20.75 15.1207 0 -19.6875 15.1207 0 -18.625 15.1207 0 
-17.5625 15.1207 0 -16.5 15.1207 0 -15.4375 15.1207 0 
-14.375 15.1207 0 -13.3125 15.1207 0 -12.25 15.1207 0 
-11.1875 15.1207 0 -10.125 15.1207 0 -9.0625 15.1207 0 
-23.9375 16.1379 0 -22.875 16.1379 0 -21.8125 16.1379 0 
-20.75 16.1379 0 -19.6875 16.1379 0 -18.625 16.1379 0 
-17.5625 16.1379 0 -16.5 16.1379 0 -15.4375 16.1379 0 
-14.375 16.1379 0 -13.3125 16.1379 0 -12.25 16.1379 0 
-11.1875 16.1379 0 -10.125 16.1379 0 -9.0625 16.1379 0 
-23.9375 17.1552 0 -22.875 17.1552 0 -21.8125 17.1552 0 
-20.75 17.1552 0 -19.6875 17.1552 0 -18.625 17.1552 0 
-17.5625 17.1552 0 -16.5 17.1552 0 -15.4375 17.1552 0 
-14.375 17.1552 0 -13.3125 17.1552 0 -12.25 17.1552 0 
-11.1875 17.1552 0 -10.125 17.1552 0 -9.0625 17.1552 0 
-23.9375 18.1724 0 -22.875 18.1724 0 -21.8125 18.1724 0 
-20.75 18.1724 0 -19.6875 18.1724 0 -18.625 18.1724 0 
-17.5625 18.1724 0 -16.5 18.1724 0 -15.4375 18.1724 0 
-14.375 18.1724 0 -13.3125 18.1724 0 -12.25 18.1724 0 
-11.1875 18.1724 0 -10.125 18.1724 0 -9.0625 18.1724 0 
-23.9375 19.1897 0 -22.875 19.1897 0 -21.8125 19.1897 0 
-20.75 19.1897 0 -19.6875 19.1897 0 -18.625 19.1897 0 
-17.5625 19.1897 0 -16.5 19.1897 0 -15.4375 19.1897 0 
-14.375 19.1897 0 -13.3125 19.1897 0 -12.25 19.1897 0 
-11.1875 19.1897 0 -10.125 19.1897 0 -9.0625 19.1897 0 
-23.9375 20.2069 0 -22.875 20.2069 0 -21.8125 20.2069 0 
-20.75 20.2069 0 -19.6875 20.2069 0 -18.625 20.2069 0 
-17.5625 20.2069 0 -16.5 20.2069 0 -15.4375 20.2069 0 
-14.375 20.2069 0 -13.3125 20.2069 0 -12.25 20.2069 0 
-11.1875 20.2069 0 -10.125 20.2069 0 -9.0625 20.2069 0 
-23.9375 21.2241 0 -22.875 21.2241 0 -21.8125 21.2241 0 
-20.75 21.2241 0 -19.6875 21.2241 0 -18.625 21.2241 0 
-17.5625 21.2241 0 -16.5 21.2241 0 -15.4375 21.2241 0 
-14.375 21.2241 0 -13.3125 21.2241 0 -12.25 21.2241 0 
-11.1875 21.2241 0 -10.125 21.2241 0 -9.0625 21.2241 0 
-23.9375 22.2414 0 -22.875 22.2414 0 -21.8125 22.2414 0 
-20.75 22.2414 0 -19.6875 22.2414 0 -18.625 22.2414 0 
-17.5625 22.2414 0 -16.5 22.2414 0 -15.4375 22.2414 0 
-14.375 22.2414 0 -13.3125 22.2414 0 -12.25 22.2414 0 
-11.1875 22.2414 0 -10.125 22.2414 0 -9.0625 22.2414 0 
-23.9375 23.2586 0 -22.875 23.2586 0 -21.8125 23.2586 0 
-20.75 23.2586 0 -19.6875 23.2586 0 -18.625 23.2586 0 
-17.5625 23.2586 0 -16.5 23.2586 0 -15.4375 23.2586 0 
-14.375 23.2586 0 -13.3125 23.2586 0 -12.25 23.2586 0 
-11.1875 23.2586 0 -10.125 23.2586 0 -9.0625 23.2586 0 
-23.9375 24.2759 0 -22.875 24.2759 0 -21.8125 24.2759 0 
-20.75 24.2759 0 -19.6875 24.2759 0 -18.625 24.2759 0 
-17.5625 24.2759 0 -16.5 24.2759 0 -15.4375 24.2759 0 
-14.375 24.2759 0 -13.3125 24.2759 0 -12.25 24.2759 0 
-11.1875 24.2759 0 -10.125 24.2759 0 -9.0625 24.2759 0 
-23.9375 25.2931 0 -22.875 25.2931 0 -21.8125 25.2931 0 
-20.75 25.2931 0 -19.6875 25.2931 0 -18.625 25.2931 0 
-17.5625 25.2931 0 -16.5 25.2931 0 -15.4375 25.2931 0 
-14.375 25.2931 0 -13.3125 25.2931 0 -12.25 25.2931 0 
-11.1875 25.2931 0 -10.125 25.2931 0 -9.0625 25.2931 0 
-23.9375 26.3103 0 -22.875 26.3103 0 -21.8125 26.3103 0 
-20.75 26.3103 0 -19.6875 26.3103 0 -18.625 26.3103 0 
-17.5625 26.3103 0 -16.5 26.3103 0 -15.4375 26.3103 0 
-14.375 26.3103 0 -13.3125 26.3103 0 -12.25 26.3103 0 
-11.1875 26.3103 0 -10.125 26.3103 0 -9.0625 26.3103 0 
-23.9375 27.3276 0 -22.875 27.3276 0 -21.8125 27.3276 0 
-20.75 27.3276 0 -19.6875 27.3276 0 -18.625 27.3276 0 
-17.5625 27.3276 0 -16.5 27.3276 0 -15.4375 27.3276 0 
-14.375 27.3276 0 -13.3125 27.3276 0 -12.25 27.3276 0 
-11.1875 27.3276 0 -10.125 27.3276 0 -9.0625 27.3276 0 
-23.9375 28.3448 0 -22.875 28.3448 0 -21.8125 28.3448 0 
-20.75 28.3448 0 -19.6875 28.3448 0 -18.625 28.3448 0 
-17.5625 28.3448 0 -16.5 28.3448 0 -15.4375 28.3448 0 
-14.375 28.3448 0 -13.3125 28.3448 0 -12.25 28.3448 0 
-11.1875 28.3448 0 -10.125 28.3448 0 -9.0625 28.3448 0 
-23.9375 29.3621 0 -22.875 29.3621 0 -21.8125 29.3621 0 
-20.75 29.3621 0 -19.6875 29.3621 0 -18.625 29.3621 0 
-17.5625 29.3621 0 -16.5 29.3621 0 -15.4375 29.3621 0 
-14.375 29.3621 0 -13.3125 29.3621 0 -12.25 29.3621 0 
-11.1875 29.3621 0 -10.125 29.3621 0 -9.0625 29.3621 0 
-23.9375 30.3793 0 -22.875 30.3793 0 -21.8125 30.3793 0 
-20.75 30.3793 0 -19.6875 30.3793 0 -18.625 30.3793 0 
-17.5625 30.3793 0 -16.5 30.3793 0 -15.4375 30.3793 0 
-14.375 30.3793 0 -13.3125 30.3793 0 -12.25 30.3793 0 
-11.1875 30.3793 0 -10.125 30.3793 0 -9.0625 30.3793 0 
-23.9375 31.3966 0 -22.875 31.3966 0 -21.8125 31.3966 0 
-20.75 31.3966 0 -19.6875 31.3966 0 -18.625 31.3966 0 
-17.5625 31.3966 0 -16.5 31.3966 0 -15.4375 31.3966 0 
-14.375 31.3966 0 -13.3125 31.3966 0 -12.25 31.3966 0 
-11.1875 31.3966 0 -10.125 31.3966 0 -9.0625 31.3966 0 
-23.9375 32.4138 0 -22.875 32.4138 0 -21.8125 32.4138 0 
-20.75 32.4138 0 -19.6875 32.4138 0 -18.625 32.4138 0 
-17.5625 32.4138 0 -16.5 32.4138 0 -15.4375 32.4138 0 
-14.375 32.4138 0 -13.3125 32.4138 0 -12.25 32.4138 0 
-11.1875 32.4138 0 -10.125 32.4138 0 -9.0625 32.4138 0 
-23.9375 33.431 0 -22.875 33.431 0 -21.8125 33.431 0 
-20.75 33.431 0 -19.6875 33.431 0 -18.625 33.431 0 
-17.5625 33.431 0 -16.5 33.431 0 -15.4375 33.431 0 
-14.375 33.431 0 -13.3125 33.431 0 -12.25 33.431 0 
-11.1875 33.431 0 -10.125 33.431 0 -9.0625 33.431 0 
-23.9375 34.4483 0 -22.875 34.4483 0 -21.8125 34.4483 0 
-20.75 34.4483 0 -19.6875 34.4483 0 -18.625 34.4483 0 
-17.5625 34.4483 0 -16.5 34.4483 0 -15.4375 34.4483 0 
-14.375 34.4483 0 -13.3125 34.4483 0 -12.25 34.4483 0 
-11.1875 34.4483 0 -10.125 34.4483 0 -9.0625 34.4483 0 
-23.9375 35.4655 0 -22.875 35.4655 0 -21.8125 35.4655 0 
-20.75 35.4655 0 -19.6875 35.4655 0 -18.625 35.4655 0 
-17.5625 35.4655 0 -16.5 35.4655 0 -15.4375 35.4655 0 
-14.375 35.4655 0 -13.3125 35.4655 0 -12.25 35.4655 0 
-11.1875 35.4655 0 -10.125 35.4655 0 -9.0625 35.4655 0 
-23.9375 36.4828 0 -22.875 36.4828 0 -21.8125 36.4828 0 
-20.75 36.4828 0 -19.6875 36.4828 0 -18.625 36.4828 0 
-17.5625 36.4828 0 -16.5 36.4828 0 -15.4375 36.4828 0 
-14.375 36.4828 0 -13.3125 36.4828 0 -12.25 36.4828 0 
-11.1875 36.4828 0 -10.125 36.4828 0 -9.0625 36.4828 0 
-6.93333 36.4828 0 -6.93333 35.4655 0 -6.93333 34.4483 0 
-6.93333 33.431 0 -6.93333 32.4138 0 -6.93333 31.3966 0 
-6.93333 30.3793 0 -6.93333 29.3621 0 -6.93333 28.3448 0 
-6.93333 27.3276 0 -6.93333 26.3103 0 -6.93333 25.2931 0 
-6.93333 24.2759 0 -6.93333 23.2586 0 -6.93333 22.2414 0 
-6.93333 21.2241 0 -6.93333 20.2069 0 -6.93333 19.1897 0 
-6.93333 18.1724 0 -6.93333 17.1552 0 -6.93333 16.1379 0 
-6.93333 15.1207 0 -6.93333 14.1034 0 -6.93333 13.0862 0 
-6.93333 12.069 0 -6.93333 11.0517 0 -6.93333 10.0345 0 
-6.93333 9.01724 0 -5.86667 36.4828 0 -5.86667 35.4655 0 
-5.86667 34.4483 0 -5.86667 33.431 0 -5.86667 32.4138 0 
-5.86667 31.3966 0 -5.86667 30.3793 0 -5.86667 29.3621 0 
-5.86667 28.3448 0 -5.86667 27.3276 0 -5.86667 26.3103 0 
-5.86667 25.2931 0 -5.86667 24.2759 0 -5.86667 23.2586 0 
-5.86667 22.2414 0 -5.86667 21.2241 0 -5.86667 20.2069 0 
-5.86667 19.1897 0 -5.86667 18.1724 0 -5.86667 17.1552 0 
-5.86667 16.1379 0 -5.86667 15.1207 0 -5.86667 14.1034 0 
-5.86667 13.0862 0 -5.86667 12.069 0 -5.86667 11.0517 0 
-5.86667 10.0345 0 -5.86667 9.01724 0 -4.8 36.4828 0 
-4.8 35.4655 0 -4.8 34.4483 0 -4.8 33.431 0 
-4.8 32.4138 0 -4.8 31.3966 0 -4.8 30.3793 0 
-4.8 29.3621 0 -4.8 28.3448 0 -4.8 27.3276 0 
-4.8 26.3103 0 -4.8 25.2931 0 -4.8 24.2759 0 
-4.8 23.2586 0 -4.8 22.2414 0 -4.8 21.2241 0 
-4.8 20.2069 0 -4.8 19.1897 0 -4.8 18.1724 0 
-4.8 17.1552 0 -4.8 16.1379 0 -4.8 15.1207 0 
-4.8 14.1034 0 -4.8 13.0862 0 -4.8 12.069 0 
-4.8 11.0517 0 -4.8 10.0345 0 -4.8 9.01724 0 
-3.73333 36.4828 0 -3.73333 35.4655 0 -3.73333 34.4483 0 
-3.73333 33.431 0 -3.73333 32.4138 0 -3.73333 31.3966 0 
-3.73333 30.3793 0 -3.73333 29.3621 0 -3.73333 28.3448 0 
-3.73333 27.3276 0 -3.73333 26.3103 0 -3.73333 25.2931 0 
-3.73333 24.2759 0 -3.73333 23.2586 0 -3.73333 22.2414 0 
-3.73333 21.2241 0 -3.73333 20.2069 0 -3.73333 19.1897 0 
-3.73333 18.1724 0 -3.73333 17.1552 0 -3.73333 16.1379 0 
-3.73333 15.1207 0 -3.73333 14.1034 0 -3.73333 13.0862 0 
-3.73333 12.069 0 -3.73333 11.0517 0 -3.73333 10.0345 0 
-3.73333 9.01724 0 -2.66667 36.4828 0 -2.66667 35.4655 0 
-2.66667 34.4483 0 -2.66667 33.431 0 -2.66667 32.4138 0 
-2.66667 31.3966 0 -2.66667 30.3793 0 -2.66667 29.3621 0 
-2.66667 28.3448 0 -2.66667 27.3276 0 -2.66667 26.3103 0 
-2.66667 25.2931 0 -2.66667 24.2759 0 -2.66667 23.2586 0 
-2.66667 22.2414 0 -2.66667 21.2241 0 -2.66667 20.2069 0 
-2.66667 19.1897 0 -2.66667 18.1724 0 -2.66667 17.1552 0 
-2.66667 16.1379 0 -2.66667 15.1207 0 -2.66667 14.1034 0 
-2.66667 13.0862 0 -2.66667 12.069 0 -2.66667 11.0517 0 
-2.66667 10.0345 0 -2.66667 9.01724 0 -1.6 36.4828 0 
-1.6 35.4655 0 -1.6 34.4483 0 -1.6 33.431 0 
-1.6 32.4138 0 -1.6 31.3966 0 -1.6 30.3793 0 
-1.6 29.3621 0 -1.6 28.3448 0 -1.6 27.3276 0 
-1.6 26.3103 0 -1.6 25.2931 0 -1.6 24.2759 0 
-1.6 23.2586 0 -1.6 22.2414 0 -1.6 21.2241 0 
-1.6 20.2069 0 -1.6 19.1897 0 -1.6 18.1724 0 
-1.6 17.1552 0 -1.6 16.1379 0 -1.6 15.1207 0 
-1.6 14.1034 0 -1.6 13.0862 0 -1.6 12.069 0 
-1.6 11.0517 0 -1.6 10.0345 0 -1.6 9.01724 0 
-0.533333 36.4828 0 -0.533333 35.4655 0 -0.533333 34.4483 0 
-0.533333 33.431 0 -0.533333 32.4138 0 -0.533333 31.3966 0 
-0.533333 30.3793 0 -0.533333 29.3621 0 -0.533333 28.3448 0 
-0.533333 27.3276 0 -0.533333 26.3103 0 -0.533333 25.2931 0 
-0.533333 24.2759 0 -0.533333 23.2586 0 -0.533333 22.2414 0 
-0.533333 21.2241 0 -0.533333 20.2069 0 -0.533333 19.1897 0 
-0.533333 18.1724 0 -0.533333 17.1552 0 -0.533333 16.1379 0 
-0.533333 15.1207 0 -0.533333 14.1034 0 -0.533333 13.0862 0 
-0.533333 12.069 0 -0.533333 11.0517 0 -0.533333 10.0345 0 
-0.533333 9.01724 0 0.533333 36.4828 0 0.533333 35.4655 0 
0.533333 34.4483 0 0.533333 33.431 0 0.533333 32.4138 0 
0.533333 31.3966 0 0.533333 30.3793 0 0.533333 29.3621 0 
0.533333 28.3448 0 0.533333 27.3276 0 0.533333 26.3103 0 
0.533333 25.2931 0 0.533333 24.2759 0 0.533333 23.2586 0 
0.533333 22.2414 0 0.533333 21.2241 0 0.533333 20.2069 0 
0.533333 19.1897 0 0.533333 18.1724 0 0.533333 17.1552 0 
0.533333 16.1379 0 0.533333 15.1207 0 0.533333 14.1034 0 
0.533333 13.0862 0 0.533333 12.069 0 0.533333 11.0517 0 
0.533333 10.0345 0 0.533333 9.01724 0 1.6 36.4828 0 
1.6 35.4655 0 1.6 34.4483 0 1.6 33.431 0 
1.6 32.4138 0 1.6 31.3966 0 1.6 30.3793 0 
1.6 29.3621 0 1.6 28.3448 0 1.6 27.3276 0 
1.6 26.3103 0 1.6 25.2931 0 1.6 24.2759 0 
1.6 23.2586 0 1.6 22.2414 0 1.6 21.2241 0 
1.6 20.2069 0 1.6 19.1897 0 1.6 18.1724 0 
1.6 17.1552 0 1.6 16.1379 0 1.6 15.1207 0 
1.6 14.1034 0 1.6 13.0862 0 1.6 12.069 0 
1.6 11.0517 0 1.6 10.0345 0 1.6 9.01724 0 
2.66667 36.4828 0 2.66667 35.4655 0 2.66667 34.4483 0 
2.66667 33.431 0 2.66667 32.4138 0 2.66667 31.3966 0 
2.66667 30.3793 0 2.66667 29.3621 0 2.66667 28.3448 0 
2.66667 27.3276 0 2.66667 26.3103 0 2.66667 25.2931 0 
2.66667 24.2759 0 2.66667 23.2586 0 2.66667 22.2414 0 
2.66667 21.2241 0 2.66667 20.2069 0 2.66667 19.1897 0 
2.66667 18.1724 0 2.66667 17.1552 0 2.66667 16.1379 0 
2.66667 15.1207 0 2.66667 14.1034 0 2.66667 13.0862 0 
2.66667 12.069 0 2.66667 11.0517 0 2.66667 10.0345 0 
2.66667 9.01724 0 3.73333 36.4828 0 3.73333 35.4655 0 
3.73333 34.4483 0 3.73333 33.431 0 3.73333 32.4138 0 
3.73333 31.3966 0 3.73333 30.3793 0 3.73333 29.3621 0 
3.73333 28.3448 0 3.73333 27.3276 0 3.73333 26.3103 0 
3.73333 25.2931 0 3.73333 24.2759 0 3.73333 23.2586 0 
3.73333 22.2414 0 3.73333 21.2241 0 3.73333 20.2069 0 
3.73333 19.1897 0 3.73333 18.1724 0 3.73333 17.1552 0 
3.73333 16.1379 0 3.73333 15.1207 0 3.73333 14.1034 0 
3.73333 13.0862 0 3.73333 12.069 0 3.73333 11.0517 0 
3.73333 10.0345 0 3.73333 9.01724 0 4.8 36.4828 0 
4.8 35.4655 0 4.8 34.4483 0 4.8 33.431 0 
4.8 32.4138 0 4.8 31.3966 0 4.8 30.3793 0 
4.8 29.3621 0 4.8 28.3448 0 4.8 27.3276 0 
4.8 26.3103 0 4.8 25.2931 0 4.8 24.2759 0 
4.8 23.2586 0 4.8 22.2414 0 4.8 21.2241 0 
4.8 20.2069 0 4.8 19.1897 0 4.8 18.1724 0 
4.8 17.1552 0 4.8 16.1379 0 4.8 15.1207 0 
4.8 14.1034 0 4.8 13.0862 0 4.8 12.069 0 
4.8 11.0517 0 4.8 10.0345 0 4.8 9.01724 0 
5.86667 36.4828 0 5.86667 35.4655 0 5.86667 34.4483 0 
5.86667 33.431 0 5.86667 32.4138 0 5.86667 31.3966 0 
5.86667 30.3793 0 5.86667 29.3621 0 5.86667 28.3448 0 
5.86667 27.3276 0 5.86667 26.3103 0 5.86667 25.2931 0 
5.86667 24.2759 0 5.86667 23.2586 0 5.86667 22.2414 0 
5.86667 21.2241 0 5.86667 20.2069 0 5.86667 19.1897 0 
5.86667 18.1724 0 5.86667 17.1552 0 5.86667 16.1379 0 
5.86667 15.1207 0 5.86667 14.1034 0 5.86667 13.0862 0 
5.86667 12.069 0 5.86667 11.0517 0 5.86667 10.0345 0 
5.86667 9.01724 0 6.93333 36.4828 0 6.93333 35.4655 0 
6.93333 34.4483 0 6.93333 33.431 0 6.93333 32.4138 0 
6.93333 31.3966 0 6.93333 30.3793 0 6.93333 29.3621 0 
6.93333 28.3448 0 6.93333 27.3276 0 6.93333 26.3103 0 
6.93333 25.2931 0 6.93333 24.2759 0 6.93333 23.2586 0 
6.93333 22.2414 0 6.93333 21.2241 0 6.93333 20.2069 0 
6.93333 19.1897 0 6.93333 18.1724 0 6.93333 17.1552 0 
6.93333 16.1379 0 6.93333 15.1207 0 6.93333 14.1034 0 
6.93333 13.0862 0 6.93333 12.069 0 6.93333 11.0517 0 
6.93333 10.0345 0 6.93333 9.01724 0 
CELLS 4107 16424
OFFSETS vtktypeint64
0 4 8 12 16 20 24 28 32 
36 40 44 48 52 56 60 64 68 
72 76 80 84 88 92 96 100 104 
108 112 116 120 124 128 132 136 140 
144 148 152 156 160 164 168 172 176 
180 184 188 192 196 200 204 208 212 
216 220 224 228 232 236 240 244 248 
252 256 260 264 268 272 276 280 284 
288 292 296 300 304 308 312 316 320 
324 328 332 336 340 344 348 352 356 
360 364 368 372 376 380 384 388 392 
396 400 404 408 412 416 420 424 428 
432 436 440 444 448 452 456 460 464 
468 472 476 480 484 488 492 496 500 
504 508 512 516 520 524 528 532 536 
540 544 548 552 556 560 564 568 572 
576 580 584 588 592 596 600 604 608 
612 616 620 624 628 632 636 640 644 
648 652 656 660 664 668 672 676 680 
684 688 692 696 700 704 708 712 716 
720 724 728 732 736 740 744 748 752 
756 760 764 768 772 776 780 784 788 
792 796 800 804 808 812 816 820 824 
828 832 836 840 844 848 852 856 860 
864 868 872 876 880 884 888 892 896 
900 904 908 912 916 920 924 928 932 
936 940 944 948 952 956 960 964 968 
972 976 980 984 988 992 996 1000 1004 
1008 1012 1016 1020 1024 1028 1032 1036 1040 
1044 1048 1052 1056 1060 1064 1068 1072 1076 
1080 1084 1088 1092 1096 1100 1104 1108 1112 
1116 1120 1124 1128 1132 1136 1140 1144 1148 
1152 1156 1160 1164 1168 1172 1176 1180 1184 
1188 1192 1196 1200 1204 1208 1212 1216 1220 
1224 1228 1232 1236 1240 1244 1248 1252 1256 
1260 1264 1268 1272 1276 1280 1284 1288 1292 
1296 1300 1304 1308 1312 1316 1320 1324 1328 
1332 1336 1340 1344 1348 1352 1356 1360 1364 
1368 1372 1376 1380 1384 1388 1392 1396 1400 
1404 1408 1412 1416 1420 1424 1428 1432 1436 
1440 1444 1448 1452 1456 1460 1464 1468 1472 
1476 1480 1484 1488 1492 1496 1500 1504 1508 
1512 1516 1520 1524 1528 1532 1536 1540 1544 
1548 1552 1556 1560 1564 1568 1572 1576 1580 
1584 1588 1592 1596 1600 1604 1608 1612 1616 
1620 1624 1628 1632 1636 1640 1644 1648 1652 
1656 1660 1664 1668 1672 1676 1680 1684 1688 
1692 1696 1700 1704 1708 1712 1716 1720 1724 
1728 1732 1736 1740 1744 1748 1752 1756 1760 
1764 1768 1772 1776 1780 1784 1788 1792 1796 
1800 1804 1808 1812 1816 1820 1824 1828 1832 
1836 1840 1844 1848 1852 1856 1860 1864 1868 
1872 1876 1880 1884 1888 1892 1896 1900 1904 
1908 1912 1916 1920 1924 1928 1932 1936 1940 
1944 1948 1952 1956 1960 1964 1968 1972 1976 
1980 1984 1988 1992 1996 2000 2004 2008 2012 
2016 2020 2024 2028 2032 2036 2040 2044 2048 
2052 2056 2060 2064 2068 2072 2076 2080 2084 
2088 2092 2096 2100 2104 2108 2112 2116 2120 
2124 2128 2132 2136 2140 2144 2148 2152 2156 
2160 2164 2168 2172 2176 2180 2184 2188 2192 
2196 2200 2204 2208 2212 2216 2220 2224 2228 
2232 2236 2240 2244 2248 2252 2256 2260 2264 
2268 2272 2276 2280 2284 2288 2292 2296 2300 
2304 2308 2312 2316 2320 2324 2328 2332 2336 
2340 2344 2348 2352 2356 2360 2364 2368 2372 
2376 2380 2384 2388 2392 2396 2400 2404 2408 
2412 2416 2420 2424 2428 2432 2436 2440 2444 
2448 2452 2456 2460 2464 2468 2472 2476 2480 
2484 2488 2492 2496 2500 2504 2508 2512 2516 
2520 2524 2528 2532 2536 2540 2544 2548 2552 
2556 2560 2564 2568 2572 2576 2580 2584 2588 
2592 2596 2600 2604 2608 2612 2616 2620 2624 
2628 2632 2636 2640 2644 2648 2652 2656 2660 
2664 2668 2672 2676 2680 2684 2688 2692 2696 
2700 2704 2708 2712 2716 2720 2724 2728 2732 
2736 2740 2744 2748 2752 2756 2760 2764 2768 
2772 2776 2780 2784 2788 2792 2796 2800 2804 
2808 2812 2816 2820 2824 2828 2832 2836 2840 
2844 2848 2852 2856 2860 2864 2868 2872 2876 
2880 2884 2888 2892 2896 2900 2904 2908 2912 
2916 2920 2924 2928 2932 2936 2940 2944 2948 
2952 2956 2960 2964 2968 2972 2976 2980 2984 
2988 2992 2996 3000 3004 3008 3012 3016 3020 
3024 3028 3032 3036 3040 3044 3048 3052 3056 
3060 3064 3068 3072 3076 3080 3084 3088 3092 
3096 3100 3104 3108 3112 3116 3120 3124 3128 
3132 3136 3140 3144 3148 3152 3156 3160 3164 
3168 3172 3176 3180 3184 3188 3192 3196 3200 
3204 3208 3212 3216 3220 3224 3228 3232 3236 
3240 3244 3248 3252 3256 3260 3264 3268 3272 
3276 3280 3284 3288 3292 3296 3300 3304 3308 
3312 3316 3320 3324 3328 3332 3336 3340 3344 
3348 3352 3356 3360 3364 3368 3372 3376 3380 
3384 3388 3392 3396 3400 3404 3408 3412 3416 
3420 3424 3428 3432 3436 3440 3444 3448 3452 
3456 3460 3464 3468 3472 3476 3480 3484 3488 
3492 3496 3500 3504 3508 3512 3516 3520 3524 
3528 3532 3536 3540 3544 3548 3552 3556 3560 
3564 3568 3572 3576 3580 3584 3588 3592 3596 
3600 3604 3608 3612 3616 3620 3624 3628 3632 
3636 3640 3644 3648 3652 3656 3660 3664 3668 
3672 3676 3680 3684 3688 3692 3696 3700 3704 
3708 3712 3716 3720 3724 3728 3732 3736 3740 
3744 3748 3752 3756 3760 3764 3768 3772 3776 
3780 3784 3788 3792 3796 3800 3804 3808 3812 
3816 3820 3824 3828 3832 3836 3840 3844 3848 
3852 3856 3860 3864 3868 3872 3876 3880 3884 
3888 3892 3896 3900 3904 3908 3912 3916 3920 
3924 3928 3932 3936 3940 3944 3948 3952 3956 
3960 3964 3968 3972 3976 3980 3984 3988 3992 
3996 4000 4004 4008 4012 4016 4020 4024 4028 
4032 4036 4040 4044 4048 4052 4056 4060 4064 
4068 4072 4076 4080 4084 4088 4092 4096 4100 
4104 4108 4112 4116 4120 4124 4128 4132 4136 
4140 4144 4148 4152 4156 4160 4164 4168 4172 
4176 4180 4184 4188 4192 4196 4200 4204 4208 
4212 4216 4220 4224 4228 4232 4236 4240 4244 
4248 4252 4256 4260 4264 4268 4272 4276 4280 
4284 4288 4292 4296 4300 4304 4308 4312 4316 
4320 4324 4328 4332 4336 4340 4344 4348 4352 
4356 4360 4364 4368 4372 4376 4380 4384 4388 
4392 4396 4400 4404 4408 4412 4416 4420 4424 
4428 4432 4436 4440 4444 4448 4452 4456 4460 
4464 4468 4472 4476 4480 4484 4488 4492 4496 
4500 4504 4508 4512 4516 4520 4524 4528 4532 
4536 4540 4544 4548 4552 4556 4560 4564 4568 
4572 4576 4580 4584 4588 4592 4596 4600 4604 
4608 4612 4616 4620 4624 4628 4632 4636 4640 
4644 4648 4652 4656 4660 4664 4668 4672 4676 
4680 4684 4688 4692 4696 4700 4704 4708 4712 
4716 4720 4724 4728 4732 4736 4740 4744 4748 
4752 4756 4760 4764 4768 4772 4776 4780 4784 
4788 4792 4796 4800 4804 4808 4812 4816 4820 
4824 4828 4832 4836 4840 4844 4848 4852 4856 
4860 4864 4868 4872 4876 4880 4884 4888 4892 
4896 4900 4904 4908 4912 4916 4920 4924 4928 
4932 4936 4940 4944 4948 4952 4956 4960 4964 
4968 4972 4976 4980 4984 4988 4992 4996 5000 
5004 5008 5012 5016 5020 5024 5028 5032 5036 
5040 5044 5048 5052 5056 5060 5064 5068 5072 
5076 5080 5084 5088 5092 5096 5100 5104 5108 
5112 5116 5120 5124 5128 5132 5136 5140 5144 
5148 5152 5156 5160 5164 5168 5172 5176 5180 
5184 5188 5192 5196 5200 5204 5208 5212 5216 
5220 5224 5228 5232 5236 5240 5244 5248 5252 
5256 5260 5264 5268 5272 5276 5280 5284 5288 
5292 5296 5300 5304 5308 5312 5316 5320 5324 
5328 5332 5336 5340 5344 5348 5352 5356 5360 
5364 5368 5372 5376 5380 5384 5388 5392 5396 
5400 5404 5408 5412 5416 5420 5424 5428 5432 
5436 5440 5444 5448 5452 5456 5460 5464 5468 
5472 5476 5480 5484 5488 5492 5496 5500 5504 
5508 5512 5516 5520 5524 5528 5532 5536 5540 
5544 5548 5552 5556 5560 5564 5568 5572 5576 
5580 5584 5588 5592 5596 5600 5604 5608 5612 
5616 5620 5624 5628 5632 5636 5640 5644 5648 
5652 5656 5660 5664 5668 5672 5676 5680 5684 
5688 5692 5696 5700 5704 5708 5712 5716 5720 
5724 5728 5732 5736 5740 5744 5748 5752 5756 
5760 5764 5768 5772 5776 5780 5784 5788 5792 
5796 5800 5804 5808 5812 5816 5820 5824 5828 
5832 5836 5840 5844 5848 5852 5856 5860 5864 
5868 5872 5876 5880 5884 5888 5892 5896 5900 
5904 5908 5912 5916 5920 5924 5928 5932 5936 
5940 5944 5948 5952 5956 5960 5964 5968 5972 
5976 5980 5984 5988 5992 5996 6000 6004 6008 
6012 6016 6020 6024 6028 6032 6036 6040 6044 
6048 6052 6056 6060 6064 6068 6072 6076 6080 
6084 6088 6092 6096 6100 6104 6108 6112 6116 
6120 6124 6128 6132 6136 6140 6144 6148 6152 
6156 6160 6164 6168 6172 6176 6180 6184 6188 
6192 6196 6200 6204 6208 6212 6216 6220 6224 
6228 6232 6236 6240 6244 6248 6252 6256 6260 
6264 6268 6272 6276 6280 6284 6288 6292 6296 
6300 6304 6308 6312 6316 6320 6324 6328 6332 
6336 6340 6344 6348 6352 6356 6360 6364 6368 
6372 6376 6380 6384 6388 6392 6396 6400 6404 
6408 6412 6416 6420 6424 6428 6432 6436 6440 
6444 6448 6452 6456 6460 6464 6468 6472 6476 
6480 6484 6488 6492 6496 6500 6504 6508 6512 
6516 6520 6524 6528 6532 6536 6540 6544 6548 
6552 6556 6560 6564 6568 6572 6576 6580 6584 
6588 6592 6596 6600 6604 6608 6612 6616 6620 
6624 6628 6632 6636 6640 6644 6648 6652 6656 
6660 6664 6668 6672 6676 6680 6684 6688 6692 
6696 6700 6704 6708 6712 6716 6720 6724 6728 
6732 6736 6740 6744 6748 6752 6756 6760 6764 
6768 6772 6776 6780 6784 6788 6792 6796 6800 
6804 6808 6812 6816 6820 6824 6828 6832 6836 
6840 6844 6848 6852 6856 6860 6864 6868 6872 
6876 6880 6884 6888 6892 6896 6900 6904 6908 
6912 6916 6920 6924 6928 6932 6936 6940 6944 
6948 6952 6956 6960 6964 6968 6972 6976 6980 
6984 6988 6992 6996 7000 7004 7008 7012 7016 
7020 7024 7028 7032 7036 7040 7044 7048 7052 
7056 7060 7064 7068 7072 7076 7080 7084 7088 
7092 7096 7100 7104 7108 7112 7116 7120 7124 
7128 7132 7136 7140 7144 7148 7152 7156 7160 
7164 7168 7172 7176 7180 7184 7188 7192 7196 
7200 7204 7208 7212 7216 7220 7224 7228 7232 
7236 7240 7244 7248 7252 7256 7260 7264 7268 
7272 7276 7280 7284 7288 7292 7296 7300 7304 
7308 7312 7316 7320 7324 7328 7332 7336 7340 
7344 7348 7352 7356 7360 7364 7368 7372 7376 
7380 7384 7388 7392 7396 7400 7404 7408 7412 
7416 7420 7424 7428 7432 7436 7440 7444 7448 
7452 7456 7460 7464 7468 7472 7476 7480 7484 
7488 7492 7496 7500 7504 7508 7512 7516 7520 
7524 7528 7532 7536 7540 7544 7548 7552 7556 
7560 7564 7568 7572 7576 7580 7584 7588 7592 
7596 7600 7604 7608 7612 7616 7620 7624 7628 
7632 7636 7640 7644 7648 7652 7656 7660 7664 
7668 7672 7676 7680 7684 7688 7692 7696 7700 
7704 7708 7712 7716 7720 7724 7728 7732 7736 
7740 7744 7748 7752 7756 7760 7764 7768 7772 
7776 7780 7784 7788 7792 7796 7800 7804 7808 
7812 7816 7820 7824 7828 7832 7836 7840 7844 
7848 7852 7856 7860 7864 7868 7872 7876 7880 
7884 7888 7892 7896 7900 7904 7908 7912 7916 
7920 7924 7928 7932 7936 7940 7944 7948 7952 
7956 7960 7964 7968 7972 7976 7980 7984 7988 
7992 7996 8000 8004 8008 8012 8016 8020 8024 
8028 8032 8036 8040 8044 8048 8052 8056 8060 
8064 8068 8072 8076 8080 8084 8088 8092 8096 
8100 8104 8108 8112 8116 8120 8124 8128 8132 
8136 8140 8144 8148 8152 8156 8160 8164 8168 
8172 8176 8180 8184 8188 8192 8196 8200 8204 
8208 8212 8216 8220 8224 8228 8232 8236 8240 
8244 8248 8252 8256 8260 8264 8268 8272 8276 
8280 8284 8288 8292 8296 8300 8304 8308 8312 
8316 8320 8324 8328 8332 8336 8340 8344 8348 
8352 8356 8360 8364 8368 8372 8376 8380 8384 
8388 8392 8396 8400 8404 8408 8412 8416 8420 
8424 8428 8432 8436 8440 8444 8448 8452 8456 
8460 8464 8468 8472 8476 8480 8484 8488 8492 
8496 8500 8504 8508 8512 8516 8520 8524 8528 
8532 8536 8540 8544 8548 8552 8556 8560 8564 
8568 8572 8576 8580 8584 8588 8592 8596 8600 
8604 8608 8612 8616 8620 8624 8628 8632 8636 
8640 8644 8648 8652 8656 8660 8664 8668 8672 
8676 8680 8684 8688 8692 8696 8700 8704 8708 
8712 8716 8720 8724 8728 8732 8736 8740 8744 
8748 8752 8756 8760 8764 8768 8772 8776 8780 
8784 8788 8792 8796 8800 8804 8808 8812 8816 
8820 8824 8828 8832 8836 8840 8844 8848 8852 
8856 8860 8864 8868 8872 8876 8880 8884 8888 
8892 8896 8900 8904 8908 8912 8916 8920 8924 
8928 8932 8936 8940 8944 8948 8952 8956 8960 
8964 8968 8972 8976 8980 8984 8988 8992 8996 
9000 9004 9008 9012 9016 9020 9024 9028 9032 
9036 9040 9044 9048 9052 9056 9060 9064 9068 
9072 9076 9080 9084 9088 9092 9096 9100 9104 
9108 9112 9116 9120 9124 9128 9132 9136 9140 
9144 9148 9152 9156 9160 9164 9168 9172 9176 
9180 9184 9188 9192 9196 9200 9204 9208 9212 
9216 9220 9224 9228 9232 9236 9240 9244 9248 
9252 9256 9260 9264 9268 9272 9276 9280 9284 
9288 9292 9296 9300 9304 9308 9312 9316 9320 
9324 9328 9332 9336 9340 9344 9348 9352 9356 
9360 9364 9368 9372 9376 9380 9384 9388 9392 
9396 9400 9404 9408 9412 9416 9420 9424 9428 
9432 9436 9440 9444 9448 9452 9456 9460 9464 
9468 9472 9476 9480 9484 9488 9492 9496 9500 
9504 9508 9512 9516 9520 9524 9528 9532 9536 
9540 9544 9548 9552 9556 9560 9564 9568 9572 
9576 9580 9584 9588 9592 9596 9600 9604 9608 
9612 9616 9620 9624 9628 9632 9636 9640 9644 
9648 9652 9656 9660 9664 9668 9672 9676 9680 
9684 9688 9692 9696 9700 9704 9708 9712 9716 
9720 9724 9728 9732 9736 9740 9744 9748 9752 
9756 9760 9764 9768 9772 9776 9780 9784 9788 
9792 9796 9800 9804 9808 9812 9816 9820 9824 
9828 9832 9836 9840 9844 9848 9852 9856 9860 
9864 9868 9872 9876 9880 9884 9888 9892 9896 
9900 9904 9908 9912 9916 9920 9924 9928 9932 
9936 9940 9944 9948 9952 9956 9960 9964 9968 
9972 9976 9980 9984 9988 9992 9996 10000 10004 
10008 10012 10016 10020 10024 10028 10032 10036 10040 
10044 10048 10052 10056 10060 10064 10068 10072 10076 
10080 10084 10088 10092 10096 10100 10104 10108 10112 
10116 10120 10124 10128 10132 10136 10140 10144 10148 
10152 10156 10160 10164 10168 10172 10176 10180 10184 
10188 10192 10196 10200 10204 10208 10212 10216 10220 
10224 10228 10232 10236 10240 10244 10248 10252 10256 
10260 10264 10268 10272 10276 10280 10284 10288 10292 
10296 10300 10304 10308 10312 10316 10320 10324 10328 
10332 10336 10340 10344 10348 10352 10356 10360 10364 
10368 10372 10376 10380 10384 10388 10392 10396 10400 
10404 10408 10412 10416 10420 10424 10428 10432 10436 
10440 10444 10448 10452 10456 10460 10464 10468 10472 
10476 10480 10484 10488 10492 10496 10500 10504 10508 
10512 10516 10520 10524 10528 10532 10536 10540 10544 
10548 10552 10556 10560 10564 10568 10572 10576 10580 
10584 10588 10592 10596 10600 10604 10608 10612 10616 
10620 10624 10628 10632 10636 10640 10644 10648 10652 
10656 10660 10664 10668 10672 10676 10680 10684 10688 
10692 10696 10700 10704 10708 10712 10716 10720 10724 
10728 10732 10736 10740 10744 10748 10752 10756 10760 
10764 10768 10772 10776 10780 10784 10788 10792 10796 
10800 10804 10808 10812 10816 10820 10824 10828 10832 
10836 10840 10844 10848 10852 10856 10860 10864 10868 
10872 10876 10880 10884 10888 10892 10896 10900 10904 
10908 10912 10916 10920 10924 10928 10932 10936 10940 
10944 10948 10952 10956 10960 10964 10968 10972 10976 
10980 10984 10988 10992 10996 11000 11004 11008 11012 
11016 11020 11024 11028 11032 11036 11040 11044 11048 
11052 11056 11060 11064 11068 11072 11076 11080 11084 
11088 11092 11096 11100 11104 11108 11112 11116 11120 
11124 11128 11132 11136 11140 11144 11148 11152 11156 
11160 11164 11168 11172 11176 11180 11184 11188 11192 
11196 11200 11204 11208 11212 11216 11220 11224 11228 
11232 11236 11240 11244 11248 11252 11256 11260 11264 
11268 11272 11276 11280 11284 11288 11292 11296 11300 
11304 11308 11312 11316 11320 11324 11328 11332 11336 
11340 11344 11348 11352 11356 11360 11364 11368 11372 
11376 11380 11384 11388 11392 11396 11400 11404 11408 
11412 11416 11420 11424 11428 11432 11436 11440 11444 
11448 11452 11456 11460 11464 11468 11472 11476 11480 
11484 11488 11492 11496 11500 11504 11508 11512 11516 
11520 11524 11528 11532 11536 11540 11544 11548 11552 
11556 11560 11564 11568 11572 11576 11580 11584 11588 
11592 11596 11600 11604 11608 11612 11616 11620 11624 
11628 11632 11636 11640 11644 11648 11652 11656 11660 
11664 11668 11672 11676 11680 11684 11688 11692 11696 
11700 11704 11708 11712 11716 11720 11724 11728 11732 
11736 11740 11744 11748 11752 11756 11760 11764 11768 
11772 11776 11780 11784 11788 11792 11796 11800 11804 
11808 11812 11816 11820 11824 11828 11832 11836 11840 
11844 11848 11852 11856 11860 11864 11868 11872 11876 
11880 11884 11888 11892 11896 11900 11904 11908 11912 
11916 11920 11924 11928 11932 11936 11940 11944 11948 
11952 11956 11960 11964 11968 11972 11976 11980 11984 
11988 11992 11996 12000 12004 12008 12012 12016 12020 
12024 12028 12032 12036 12040 12044 12048 12052 12056 
12060 12064 12068 12072 12076 12080 12084 12088 12092 
12096 12100 12104 12108 12112 12116 12120 12124 12128 
12132 12136 12140 12144 12148 12152 12156 12160 12164 
12168 12172 12176 12180 12184 12188 12192 12196 12200 
12204 12208 12212 12216 12220 12224 12228 12232 12236 
12240 12244 12248 12252 12256 12260 12264 12268 12272 
12276 12280 12284 12288 12292 12296 12300 12304 12308 
12312 12316 12320 12324 12328 12332 12336 12340 12344 
12348 12352 12356 12360 12364 12368 12372 12376 12380 
12384 12388 12392 12396 12400 12404 12408 12412 12416 
12420 12424 12428 12432 12436 12440 12444 12448 12452 
12456 12460 12464 12468 12472 12476 12480 12484 12488 
12492 12496 12500 12504 12508 12512 12516 12520 12524 
12528 12532 12536 12540 12544 12548 12552 12556 12560 
12564 12568 12572 12576 12580 12584 12588 12592 12596 
12600 12604 12608 12612 12616 12620 12624 12628 12632 
12636 12640 12644 12648 12652 12656 12660 12664 12668 
12672 12676 12680 12684 12688 12692 12696 12700 12704 
12708 12712 12716 12720 12724 12728 12732 12736 12740 
12744 12748 12752 12756 12760 12764 12768 12772 12776 
12780 12784 12788 12792 12796 12800 12804 12808 12812 
12816 12820 12824 12828 12832 12836 12840 12844 12848 
12852 12856 12860 12864 12868 12872 12876 12880 12884 
12888 12892 12896 12900 12904 12908 12912 12916 12920 
12924 12928 12932 12936 12940 12944 12948 12952 12956 
12960 12964 12968 12972 12976 12980 12984 12988 12992 
12996 13000 13004 13008 13012 13016 13020 13024 13028 
13032 13036 13040 13044 13048 13052 13056 13060 13064 
13068 13072 13076 13080 13084 13088 13092 13096 13100 
13104 13108 13112 13116 13120 13124 13128 13132 13136 
13140 13144 13148 13152 13156 13160 13164 13168 13172 
13176 13180 13184 13188 13192 13196 13200 13204 13208 
13212 13216 13220 13224 13228 13232 13236 13240 13244 
13248 13252 13256 13260 13264 13268 13272 13276 13280 
13284 13288 13292 13296 13300 13304 13308 13312 13316 
13320 13324 13328 13332 13336 13340 13344 13348 13352 
13356 13360 13364 13368 13372 13376 13380 13384 13388 
13392 13396 13400 13404 13408 13412 13416 13420 13424 
13428 13432 13436 13440 13444 13448 13452 13456 13460 
13464 13468 13472 13476 13480 13484 13488 13492 13496 
13500 13504 13508 13512 13516 13520 13524 13528 13532 
13536 13540 13544 13548 13552 13556 13560 13564 13568 
13572 13576 13580 13584 13588 13592 13596 13600 13604 
13608 13612 13616 13620 13624 13628 13632 13636 13640 
13644 13648 13652 13656 13660 13664 13668 13672 13676 
13680 13684 13688 13692 13696 13700 13704 13708 13712 
13716 13720 13724 13728 13732 13736 13740 13744 13748 
13752 13756 13760 13764 13768 13772 13776 13780 13784 
13788 13792 13796 13800 13804 13808 13812 13816 13820 
13824 13828 13832 13836 13840 13844 13848 13852 13856 
13860 13864 13868 13872 13876 13880 13884 13888 13892 
13896 13900 13904 13908 13912 13916 13920 13924 13928 
13932 13936 13940 13944 13948 13952 13956 13960 13964 
13968 13972 13976 13980 13984 13988 13992 13996 14000 
14004 14008 14012 14016 14020 14024 14028 14032 14036 
14040 14044 14048 14052 14056 14060 14064 14068 14072 
14076 14080 14084 14088 14092 14096 14100 14104 14108 
14112 14116 14120 14124 14128 14132 14136 14140 14144 
14148 14152 14156 14160 14164 14168 14172 14176 14180 
14184 14188 14192 14196 14200 14204 14208 14212 14216 
14220 14224 14228 14232 14236 14240 14244 14248 14252 
14256 14260 14264 14268 14272 14276 14280 14284 14288 
14292 14296 14300 14304 14308 14312 14316 14320 14324 
14328 14332 14336 14340 14344 14348 14352 14356 14360 
14364 14368 14372 14376 14380 14384 14388 14392 14396 
14400 14404 14408 14412 14416 14420 14424 14428 14432 
14436 14440 14444 14448 14452 14456 14460 14464 14468 
14472 14476 14480 14484 14488 14492 14496 14500 14504 
14508 14512 14516 14520 14524 14528 14532 14536 14540 
14544 14548 14552 14556 14560 14564 14568 14572 14576 
14580 14584 14588 14592 14596 14600 14604 14608 14612 
14616 14620 14624 14628 14632 14636 14640 14644 14648 
14652 14656 14660 14664 14668 14672 14676 14680 14684 
14688 14692 14696 14700 14704 14708 14712 14716 14720 
14724 14728 14732 14736 14740 14744 14748 14752 14756 
14760 14764 14768 14772 14776 14780 14784 14788 14792 
14796 14800 14804 14808 14812 14816 14820 14824 14828 
14832 14836 14840 14844 14848 14852 14856 14860 14864 
14868 14872 14876 14880 14884 14888 14892 14896 14900 
14904 14908 14912 14916 14920 14924 14928 14932 14936 
14940 14944 14948 14952 14956 14960 14964 14968 14972 
14976 14980 14984 14988 14992 14996 15000 15004 15008 
15012 15016 15020 15024 15028 15032 15036 15040 15044 
15048 15052 15056 15060 15064 15068 15072 15076 15080 
15084 15088 15092 15096 15100 15104 15108 15112 15116 
15120 15124 15128 15132 15136 15140 15144 15148 15152 
15156 15160 15164 15168 15172 15176 15180 15184 15188 
15192 15196 15200 15204 15208 15212 15216 15220 15224 
15228 15232 15236 15240 15244 15248 15252 15256 15260 
15264 15268 15272 15276 15280 15284 15288 15292 15296 
15300 15304 15308 15312 15316 15320 15324 15328 15332 
15336 15340 15344 15348 15352 15356 15360 15364 15368 
15372 15376 15380 15384 15388 15392 15396 15400 15404 
15408 15412 15416 15420 15424 15428 15432 15436 15440 
15444 15448 15452 15456 15460 15464 15468 15472 15476 
15480 15484 15488 15492 15496 15500 15504 15508 15512 
15516 15520 15524 15528 15532 15536 15540 15544 15548 
15552 15556 15560 15564 15568 15572 15576 15580 15584 
15588 15592 15596 15600 15604 15608 15612 15616 15620 
15624 15628 15632 15636 15640 15644 15648 15652 15656 
15660 15664 15668 15672 15676 15680 15684 15688 15692 
15696 15700 15704 15708 15712 15716 15720 15724 15728 
15732 15736 15740 15744 15748 15752 15756 15760 15764 
15768 15772 15776 15780 15784 15788 15792 15796 15800 
15804 15808 15812 15816 15820 15824 15828 15832 15836 
15840 15844 15848 15852 15856 15860 15864 15868 15872 
15876 15880 15884 15888 15892 15896 15900 15904 15908 
15912 15916 15920 15924 15928 15932 15936 15940 15944 
15948 15952 15956 15960 15964 15968 15972 15976 15980 
15984 15988 15992 15996 16000 16004 16008 16012 16016 
16020 16024 16028 16032 16036 16040 16044 16048 16052 
16056 16060 16064 16068 16072 16076 16080 16084 16088 
16092 16096 16100 16104 16108 16112 16116 16120 16124 
16128 16132 16136 16140 16144 16148 16152 16156 16160 
16164 16168 16172 16176 16180 16184 16188 16192 16196 
16200 16204 16208 16212 16216 16220 16224 16228 16232 
16236 16240 16244 16248 16252 16256 16260 16264 16268 
16272 16276 16280 16284 16288 16292 16296 16300 16304 
16308 16312 16316 16320 16324 16328 16332 16336 16340 
16344 16348 16352 16356 16360 16364 16368 16372 16376 
16380 16384 16388 16392 16396 16400 16404 16408 16412 
16416 16420 16424 
CONNECTIVITY vtktypeint64
0 76 588 33 76 77 589 588 77 
78 590 589 78 79 591 590 79 80 
592 591 80 81 593 592 81 82 594 
593 82 83 595 594 83 84 596 595 
84 85 597 596 85 86 598 597 86 
87 599 598 87 88 600 599 88 89 
601 600 89 1 47 601 33 588 602 
32 588 589 603 602 589 590 604 603 
590 591 605 604 591 592 606 605 592 
593 607 606 593 594 608 607 594 595 
609 608 595 596 610 609 596 597 611 
610 597 598 612 611 598 599 613 612 
599 600 614 613 600 601 615 614 601 
47 46 615 32 602 616 31 602 603 
617 616 603 604 618 617 604 605 619 
618 605 606 620 619 606 607 621 620 
607 608 622 621 608 609 623 622 609 
610 624 623 610 611 625 624 611 612 
626 625 612 613 627 626 613 614 628 
627 614 615 629 628 615 46 45 629 
31 616 630 30 616 617 631 630 617 
618 632 631 618 619 633 632 619 620 
634 633 620 621 635 634 621 622 636 
635 622 623 637 636 623 624 638 637 
624 625 639 638 625 626 640 639 626 
627 641 640 627 628 642 641 628 629 
643 642 629 45 44 643 30 630 644 
29 630 631 645 644 631 632 646 645 
632 633 647 646 633 634 648 647 634 
635 649 648 635 636 650 649 636 637 
651 650 637 638 652 651 638 639 653 
652 639 640 654 653 640 641 655 654 
641 642 656 655 642 643 657 656 643 
44 43 657 29 644 658 28 644 645 
659 658 645 646 660 659 646 647 661 
660 647 648 662 661 648 649 663 662 
649 650 664 663 650 651 665 664 651 
652 666 665 652 653 667 666 653 654 
668 667 654 655 669 668 655 656 670 
669 656 657 671 670 657 43 42 671 
28 658 672 27 658 659 673 672 659 
660 674 673 660 661 675 674 661 662 
676 675 662 663 677 676 663 664 678 
677 664 665 679 678 665 666 680 679 
666 667 681 680 667 668 682 681 668 
669 683 682 669 670 684 683 670 671 
685 684 671 42 41 685 27 672 686 
26 672 673 687 686 673 674 688 687 
674 675 689 688 675 676 690 689 676 
677 691 690 677 678 692 691 678 679 
693 692 679 680 694 693 680 681 695 
694 681 682 696 695 682 683 697 696 
683 684 698 697 684 685 699 698 685 
41 40 699 26 686 700 25 686 687 
701 700 687 688 702 701 688 689 703 
702 689 690 704 703 690 691 705 704 
691 692 706 705 692 693 707 706 693 
694 708 707 694 695 709 708 695 696 
710 709 696 697 711 710 697 698 712 
711 698 699 713 712 699 40 39 713 
25 700 714 24 700 701 715 714 701 
702 716 715 702 703 717 716 703 704 
718 717 704 705 719 718 705 706 720 
719 706 707 721 720 707 708 722 721 
708 709 723 722 709 710 724 723 710 
711 725 724 711 712 726 725 712 713 
727 726 713 39 38 727 24 714 728 
23 714 715 729 728 715 716 730 729 
716 717 731 730 717 718 732 731 718 
719 733 732 719 720 734 733 720 721 
735 734 721 722 736 735 722 723 737 
736 723 724 738 737 724 725 739 738 
725 726 740 739 726 727 741 740 727 
38 37 741 23 728 742 22 728 729 
743 742 729 730 744 743 730 731 745 
744 731 732 746 745 732 733 747 746 
733 734 748 747 734 735 749 748 735 
736 750 749 736 737 751 750 737 738 
752 751 738 739 753 752 739 740 754 
753 740 741 755 754 741 37 36 755 
22 742 756 21 742 743 757 756 743 
744 758 757 744 745 759 758 745 746 
760 759 746 747 761 760 747 748 762 
761 748 749 763 762 749 750 764 763 
750 751 765 764 751 752 766 765 752 
753 767 766 753 754 768 767 754 755 
769 768 755 36 35 769 21 756 770 
20 756 757 771 770 757 758 772 771 
758 759 773 772 759 760 774 773 760 
761 775 774 761 762 776 775 762 763 
777 776 763 764 778 777 764 765 779 
778 765 766 780 779 766 767 781 780 
767 768 782 781 768 769 783 782 769 
35 34 783 20 770 132 4 770 771 
133 132 771 772 134 133 772 773 135 
134 773 774 136 135 774 775 137 136 
775 776 138 137 776 777 139 138 777 
778 140 139 778 779 141 140 779 780 
142 141 780 781 143 142 781 782 144 
143 782 783 145 144 783 34 5 145 
1 90 784 47 90 91 785 784 91 
92 786 785 92 93 787 786 93 94 
788 787 94 95 789 788 95 96 790 
789 96 97 791 790 97 98 792 791 
98 99 793 792 99 100 794 793 100 
101 795 794 101 102 796 795 102 103 
797 796 103 2 61 797 47 784 798 
46 784 785 799 798 785 786 800 799 
786 787 801 800 787 788 802 801 788 
789 803 802 789 790 804 803 790 791 
805 804 791 792 806 805 792 793 807 
806 793 794 808 807 794 795 809 808 
795 796 810 809 796 797 811 810 797 
61 60 811 46 798 812 45 798 799 
813 812 799 800 814 813 800 801 815 
814 801 802 816 815 802 803 817 816 
803 804 818 817 804 805 819 818 805 
806 820 819 806 807 821 820 807 808 
822 821 808 809 823 822 809 810 824 
823 810 811 825 824 811 60 59 825 
45 812 826 44 812 813 827 826 813 
814 828 827 814 815 829 828 815 816 
830 829 816 817 831 830 817 818 832 
831 818 819 833 832 819 820 834 833 
820 821 835 834 821 822 836 835 822 
823 837 836 823 824 838 837 824 825 
839 838 825 59 58 839 44 826 840 
43 826 827 841 840 827 828 842 841 
828 829 843 842 829 830 844 843 830 
831 845 844 831 832 846 845 832 833 
847 846 833 834 848 847 834 835 849 
848 835 836 850 849 836 837 851 850 
837 838 852 851 838 839 853 852 839 
58 57 853 43 840 854 42 840 841 
855 854 841 842 856 855 842 843 857 
856 843 844 858 857 844 845 859 858 
845 846 860 859 846 847 861 860 847 
848 862 861 848 849 863 862 849 850 
864 863 850 851 865 864 851 852 866 
865 852 853 867 866 853 57 56 867 
42 854 868 41 854 855 869 868 855 
856 870 869 856 857 871 870 857 858 
872 871 858 859 873 872 859 860 874 
873 860 861 875 874 861 862 876 875 
862 863 877 876 863 864 878 877 864 
865 879 878 865 866 880 879 866 867 
881 880 867 56 55 881 41 868 882 
40 868 869 883 882 869 870 884 883 
870 871 885 884 871 872 886 885 872 
873 887 886 873 874 888 887 874 875 
889 888 875 876 890 889 876 877 891 
890 877 878 892 891 878 879 893 892 
879 880 894 893 880 881 895 894 881 
55 54 895 40 882 896 39 882 883 
897 896 883 884 898 897 884 885 899 
898 885 886 900 899 886 887 901 900 
887 888 902 901 888 889 903 902 889 
890 904 903 890 891 905 904 891 892 
906 905 892 893 907 906 893 894 908 
907 894 895 909 908 895 54 53 909 
39 896 910 38 896 897 911 910 897 
898 912 911 898 899 913 912 899 900 
914 913 900 901 915 914 901 902 916 
915 902 903 917 916 903 904 918 917 
904 905 919 918 905 906 920 919 906 
907 921 920 907 908 922 921 908 909 
923 922 909 53 52 923 38 910 924 
37 910 911 925 924 911 912 926 925 
912 913 927 926 913 914 928 927 914 
915 929 928 915 916 930 929 916 917 
931 930 917 918 932 931 918 919 933 
932 919 920 934 933 920 921 935 934 
921 922 936 935 922 923 937 936 923 
52 51 937 37 924 938 36 924 925 
939 938 925 926 940 939 926 927 941 
940 927 928 942 941 928 929 943 942 
929 930 944 943 930 931 945 944 931 
932 946 945 932 933 947 946 933 934 
948 947 934 935 949 948 935 936 950 
949 936 937 951 950 937 51 50 951 
36 938 952 35 938 939 953 952 939 
940 954 953 940 941 955 954 941 942 
956 955 942 943 957 956 943 944 958 
957 944 945 959 958 945 946 960 959 
946 947 961 960 947 948 962 961 948 
949 963 962 949 950 964 963 950 951 
965 964 951 50 49 965 35 952 966 
34 952 953 967 966 953 954 968 967 
954 955 969 968 955 956 970 969 956 
957 971 970 957 958 972 971 958 959 
973 972 959 960 974 973 960 961 975 
974 961 962 976 975 962 963 977 976 
963 964 978 977 964 965 979 978 965 
49 48 979 34 966 146 5 966 967 
147 146 967 968 148 147 968 969 149 
148 969 970 150 149 970 971 151 150 
971 972 152 151 972 973 153 152 973 
974 154 153 974 975 155 154 975 976 
156 155 976 977 157 156 977 978 158 
157 978 979 159 158 979 48 6 159 
2 104 980 61 104 105 981 980 105 
106 982 981 106 107 983 982 107 108 
984 983 108 109 985 984 109 110 986 
985 110 111 987 986 111 112 988 987 
112 113 989 988 113 114 990 989 114 
115 991 990 115 116 992 991 116 117 
993 992 117 3 75 993 61 980 994 
60 980 981 995 994 981 982 996 995 
982 983 997 996 983 984 998 997 984 
985 999 998 985 986 1000 999 986 987 
1001 1000 987 988 1002 1001 988 989 1003 
1002 989 990 1004 1003 990 991 1005 1004 
991 992 1006 1005 992 993 1007 1006 993 
75 74 1007 60 994 1008 59 994 995 
1009 1008 995 996 1010 1009 996 997 1011 
1010 997 998 1012 1011 998 999 1013 1012 
999 1000 1014 1013 1000 1001 1015 1014 1001 
1002 1016 1015 1002 1003 1017 1016 1003 1004 
1018 1017 1004 1005 1019 1018 1005 1006 1020 
1019 1006 1007 1021 1020 1007 74 73 1021 
59 1008 1022 58 1008 1009 1023 1022 1009 
1010 1024 1023 1010 1011 1025 1024 1011 1012 
1026 1025 1012 1013 1027 1026 1013 1014 1028 
1027 1014 1015 1029 1028 1015 1016 1030 1029 
1016 1017 1031 1030 1017 1018 1032 1031 1018 
1019 1033 1032 1019 1020 1034 1033 1020 1021 
1035 1034 1021 73 72 1035 58 1022 1036 
57 1022 1023 1037 1036 1023 1024 1038 1037 
1024 1025 1039 1038 1025 1026 1040 1039 1026 
1027 1041 1040 1027 1028 1042 1041 1028 1029 
1043 1042 1029 1030 1044 1043 1030 1031 1045 
1044 1031 1032 1046 1045 1032 1033 1047 1046 
1033 1034 1048 1047 1034 1035 1049 1048 1035 
72 71 1049 57 1036 1050 56 1036 1037 
1051 1050 1037 1038 1052 1051 1038 1039 1053 
1052 1039 1040 1054 1053 1040 1041 1055 1054 
1041 1042 1056 1055 1042 1043 1057 1056 1043 
1044 1058 1057 1044 1045 1059 1058 1045 1046 
1060 1059 1046 1047 1061 1060 1047 1048 1062 
1061 1048 1049 1063 1062 1049 71 70 1063 
56 1050 1064 55 1050 1051 1065 1064 1051 
1052 1066 1065 1052 1053 1067 1066 1053 1054 
1068 1067 1054 1055 1069 1068 1055 1056 1070 
1069 1056 1057 1071 1070 1057 1058 1072 1071 
1058 1059 1073 1072 1059 1060 1074 1073 1060 
1061 1075 1074 1061 1062 1076 1075 1062 1063 
1077 1076 1063 70 69 1077 55 1064 1078 
54 1064 1065 1079 1078 1065 1066 1080 1079 
1066 1067 1081 1080 1067 1068 1082 1081 1068 
1069 1083 1082 1069 1070 1084 1083 1070 1071 
1085 1084 1071 1072 1086 1085 1072 1073 1087 
1086 1073 1074 1088 1087 1074 1075 1089 1088 
1075 1076 1090 1089 1076 1077 1091 1090 1077 
69 68 1091 54 1078 1092 53 1078 1079 
1093 1092 1079 1080 1094 1093 1080 1081 1095 
1094 1081 1082 1096 1095 1082 1083 1097 1096 
1083 1084 1098 1097 1084 1085 1099 1098 1085 
1086 1100 1099 1086 1087 1101 1100 1087 1088 
1102 1101 1088 1089 1103 1102 1089 1090 1104 
1103 1090 1091 1105 1104 1091 68 67 1105 
53 1092 1106 52 1092 1093 1107 1106 1093 
1094 1108 1107 1094 1095 1109 1108 1095 1096 
1110 1109 1096 1097 1111 1110 1097 1098 1112 
1111 1098 1099 1113 1112 1099 1100 1114 1113 
1100 1101 1115 1114 1101 1102 1116 1115 1102 
1103 1117 1116 1103 1104 1118 1117 1104 1105 
1119 1118 1105 67 66 1119 52 1106 1120 
51 1106 1107 1121 1120 1107 1108 1122 1121 
1108 1109 1123 1122 1109 1110 1124 1123 1110 
1111 1125 1124 1111 1112 1126 1125 1112 1113 
1127 1126 1113 1114 1128 1127 1114 1115 1129 
1128 1115 1116 1130 1129 1116 1117 1131 1130 
1117 1118 1132 1131 1118 1119 1133 1132 1119 
66 65 1133 51 1120 1134 50 1120 1121 
1135 1134 1121 1122 1136 1135 1122 1123 1137 
1136 1123 1124 1138 1137 1124 1125 1139 1138 
1125 1126 1140 1139 1126 1127 1141 1140 1127 
1128 1142 1141 1128 1129 1143 1142 1129 1130 
1144 1143 1130 1131 1145 1144 1131 1132 1146 
1145 1132 1133 1147 1146 1133 65 64 1147 
50 1134 1148 49 1134 1135 1149 1148 1135 
1136 1150 1149 1136 1137 1151 1150 1137 1138 
1152 1151 1138 1139 1153 1152 1139 1140 1154 
1153 1140 1141 1155 1154 1141 1142 1156 1155 
1142 1143 1157 1156 1143 1144 1158 1157 1144 
1145 1159 1158 1145 1146 1160 1159 1146 1147 
1161 1160 1147 64 63 1161 49 1148 1162 
48 1148 1149 1163 1162 1149 1150 1164 1163 
1150 1151 1165 1164 1151 1152 1166 1165 1152 
1153 1167 1166 1153 1154 1168 1167 1154 1155 
1169 1168 1155 1156 1170 1169 1156 1157 1171 
1170 1157 1158 1172 1171 1158 1159 1173 1172 
1159 1160 1174 1173 1160 1161 1175 1174 1161 
63 62 1175 48 1162 160 6 1162 1163 
161 160 1163 1164 162 161 1164 1165 163 
162 1165 1166 164 163 1166 1167 165 164 
1167 1168 166 165 1168 1169 167 166 1169 
1170 168 167 1170 1171 169 168 1171 1172 
170 169 1172 1173 171 170 1173 1174 172 
171 1174 1175 173 172 1175 62 7 173 
3 118 1176 75 118 119 1177 1176 119 
120 1178 1177 120 121 1179 1178 121 122 
1180 1179 122 123 1181 1180 123 124 1182 
1181 124 125 1183 1182 125 126 1184 1183 
126 127 1185 1184 127 128 1186 1185 128 
129 1187 1186 129 130 1188 1187 130 131 
1189 1188 131 0 33 1189 75 1176 1190 
74 1176 1177 1191 1190 1177 1178 1192 1191 
1178 1179 1193 1192 1179 1180 1194 1193 1180 
1181 1195 1194 1181 1182 1196 1195 1182 1183 
1197 1196 1183 1184 1198 1197 1184 1185 1199 
1198 1185 1186 1200 1199 1186 1187 1201 1200 
1187 1188 1202 1201 1188 1189 1203 1202 1189 
33 32 1203 74 1190 1204 73 1190 1191 
1205 1204 1191 1192 1206 1205 1192 1193 1207 
1206 1193 1194 1208 1207 1194 1195 1209 1208 
1195 1196 1210 1209 1196 1197 1211 1210 1197 
1198 1212 1211 1198 1199 1213 1212 1199 1200 
1214 1213 1200 1201 1215 1214 1201 1202 1216 
1215 1202 1203 1217 1216 1203 32 31 1217 
73 1204 1218 72 1204 1205 1219 1218 1205 
1206 1220 1219 1206 1207 1221 1220 1207 1208 
1222 1221 1208 1209 1223 1222 1209 1210 1224 
1223 1210 1211 1225 1224 1211 1212 1226 1225 
1212 1213 1227 1226 1213 1214 1228 1227 1214 
1215 1229 1228 1215 1216 1230 1229 1216 1217 
1231 1230 1217 31 30 1231 72 1218 1232 
71 1218 1219 1233 1232 1219 1220 1234 1233 
1220 1221 1235 1234 1221 1222 1236 1235 1222 
1223 1237 1236 1223 1224 1238 1237 1224 1225 
1239 1238 1225 1226 1240 1239 1226 1227 1241 
1240 1227 1228 1242 1241 1228 1229 1243 1242 
1229 1230 1244 1243 1230 1231 1245 1244 1231 
30 29 1245 71 1232 1246 70 1232 1233 
1247 1246 1233 1234 1248 1247 1234 1235 1249 
1248 1235 1236 1250 1249 1236 1237 1251 1250 
1237 1238 1252 1251 1238 1239 1253 1252 1239 
1240 1254 1253 1240 1241 1255 1254 1241 1242 
1256 1255 1242 1243 1257 1256 1243 1244 1258 
1257 1244 1245 1259 1258 1245 29 28 1259 
70 1246 1260 69 1246 1247 1261 1260 1247 
1248 1262 1261 1248 1249 1263 1262 1249 1250 
1264 1263 1250 1251 1265 1264 1251 1252 1266 
1265 1252 1253 1267 1266 1253 1254 1268 1267 
1254 1255 1269 1268 1255 1256 1270 1269 1256 
1257 1271 1270 1257 1258 1272 1271 1258 1259 
1273 1272 1259 28 27 1273 69 1260 1274 
68 1260 1261 1275 1274 1261 1262 1276 1275 
1262 1263 1277 1276 1263 1264 1278 1277 1264 
1265 1279 1278 1265 1266 1280 1279 1266 1267 
1281 1280 1267 1268 1282 1281 1268 1269 1283 
1282 1269 1270 1284 1283 1270 1271 1285 1284 
1271 1272 1286 1285 1272 1273 1287 1286 1273 
27 26 1287 68 1274 1288 67 1274 1275 
1289 1288 1275 1276 1290 1289 1276 1277 1291 
1290 1277 1278 1292 1291 1278 1279 1293 1292 
1279 1280 1294 1293 1280 1281 1295 1294 1281 
1282 1296 1295 1282 1283 1297 1296 1283 1284 
1298 1297 1284 1285 1299 1298 1285 1286 1300 
1299 1286 1287 1301 1300 1287 26 25 1301 
67 1288 1302 66 1288 1289 1303 1302 1289 
1290 1304 1303 1290 1291 1305 1304 1291 1292 
1306 1305 1292 1293 1307 1306 1293 1294 1308 
1307 1294 1295 1309 1308 1295 1296 1310 1309 
1296 1297 1311 1310 1297 1298 1312 1311 1298 
1299 1313 1312 1299 1300 1314 1313 1300 1301 
1315 1314 1301 25 24 1315 66 1302 1316 
65 1302 1303 1317 1316 1303 1304 1318 1317 
1304 1305 1319 1318 1305 1306 1320 1319 1306 
1307 1321 1320 1307 1308 1322 1321 1308 1309 
1323 1322 1309 1310 1324 1323 1310 1311 1325 
1324 1311 1312 1326 1325 1312 1313 1327 1326 
1313 1314 1328 1327 1314 1315 1329 1328 1315 
24 23 1329 65 1316 1330 64 1316 1317 
1331 1330 1317 1318 1332 1331 1318 1319 1333 
1332 1319 1320 1334 1333 1320 1321 1335 1334 
1321 1322 1336 1335 1322 1323 1337 1336 1323 
1324 1338 1337 1324 1325 1339 1338 1325 1326 
1340 1339 1326 1327 1341 1340 1327 1328 1342 
1341 1328 1329 1343 1342 1329 23 22 1343 
64 1330 1344 63 1330 1331 1345 1344 1331 
1332 1346 1345 1332 1333 1347 1346 1333 1334 
1348 1347 1334 1335 1349 1348 1335 1336 1350 
1349 1336 1337 1351 1350 1337 1338 1352 1351 
1338 1339 1353 1352 1339 1340 1354 1353 1340 
1341 1355 1354 1341 1342 1356 1355 1342 1343 
1357 1356 1343 22 21 1357 63 1344 1358 
62 1344 1345 1359 1358 1345 1346 1360 1359 
1346 1347 1361 1360 1347 1348 1362 1361 1348 
1349 1363 1362 1349 1350 1364 1363 1350 1351 
1365 1364 1351 1352 1366 1365 1352 1353 1367 
1366 1353 1354 1368 1367 1354 1355 1369 1368 
1355 1356 1370 1369 1356 1357 1371 1370 1357 
21 20 1371 62 1358 174 7 1358 1359 
175 174 1359 1360 176 175 1360 1361 177 
176 1361 1362 178 177 1362 1363 179 178 
1363 1364 180 179 1364 1365 181 180 1365 
1366 182 181 1366 1367 183 182 1367 1368 
184 183 1368 1369 185 184 1369 1370 186 
185 1370 1371 187 186 1371 20 4 187 
8 415 1372 188 415 414 1373 1372 414 
413 1374 1373 413 412 1375 1374 412 411 
1376 1375 411 410 1377 1376 410 409 1378 
1377 409 408 1379 1378 408 407 1380 1379 
407 406 1381 1380 406 405 1382 1381 405 
404 1383 1382 404 403 1384 1383 403 402 
1385 1384 402 401 1386 1385 401 19 587 
1386 188 1372 1387 189 1372 1373 1388 1387 
1373 1374 1389 1388 1374 1375 1390 1389 1375 
1376 1391 1390 1376 1377 1392 1391 1377 1378 
1393 1392 1378 1379 1394 1393 1379 1380 1395 
1394 1380 1381 1396 1395 1381 1382 1397 1396 
1382 1383 1398 1397 1383 1384 1399 1398 1384 
1385 1400 1399 1385 1386 1401 1400 1386 587 
586 1401 189 1387 1402 190 1387 1388 1403 
1402 1388 1389 1404 1403 1389 1390 1405 1404 
1390 1391 1406 1405 1391 1392 1407 1406 1392 
1393 1408 1407 1393 1394 1409 1408 1394 1395 
1410 1409 1395 1396 1411 1410 1396 1397 1412 
1411 1397 1398 1413 1412 1398 1399 1414 1413 
1399 1400 1415 1414 1400 1401 1416 1415 1401 
586 585 1416 190 1402 1417 191 1402 1403 
1418 1417 1403 1404 1419 1418 1404 1405 1420 
1419 1405 1406 1421 1420 1406 1407 1422 1421 
1407 1408 1423 1422 1408 1409 1424 1423 1409 
1410 1425 1424 1410 1411 1426 1425 1411 1412 
1427 1426 1412 1413 1428 1427 1413 1414 1429 
1428 1414 1415 1430 1429 1415 1416 1431 1430 
1416 585 584 1431 191 1417 1432 192 1417 
1418 1433 1432 1418 1419 1434 1433 1419 1420 
1435 1434 1420 1421 1436 1435 1421 1422 1437 
1436 1422 1423 1438 1437 1423 1424 1439 1438 
1424 1425 1440 1439 1425 1426 1441 1440 1426 
1427 1442 1441 1427 1428 1443 1442 1428 1429 
1444 1443 1429 1430 1445 1444 1430 1431 1446 
1445 1431 584 583 1446 192 1432 1447 193 
1432 1433 1448 1447 1433 1434 1449 1448 1434 
1435 1450 1449 1435 1436 1451 1450 1436 1437 
1452 1451 1437 1438 1453 1452 1438 1439 1454 
1453 1439 1440 1455 1454 1440 1441 1456 1455 
1441 1442 1457 1456 1442 1443 1458 1457 1443 
1444 1459 1458 1444 1445 1460 1459 1445 1446 
1461 1460 1446 583 582 1461 193 1447 1462 
194 1447 1448 1463 1462 1448 1449 1464 1463 
1449 1450 1465 1464 1450 1451 1466 1465 1451 
1452 1467 1466 1452 1453 1468 1467 1453 1454 
1469 1468 1454 1455 1470 1469 1455 1456 1471 
1470 1456 1457 1472 1471 1457 1458 1473 1472 
1458 1459 1474 1473 1459 1460 1475 1474 1460 
1461 1476 1475 1461 582 581 1476 194 1462 
1477 195 1462 1463 1478 1477 1463 1464 1479 
1478 1464 1465 1480 1479 1465 1466 1481 1480 
1466 1467 1482 1481 1467 1468 1483 1482 1468 
1469 1484 1483 1469 1470 1485 1484 1470 1471 
1486 1485 1471 1472 1487 1486 1472 1473 1488 
1487 1473 1474 1489 1488 1474 1475 1490 1489 
1475 1476 1491 1490 1476 581 580 1491 195 
1477 1492 196 1477 1478 1493 1492 1478 1479 
1494 1493 1479 1480 1495 1494 1480 1481 1496 
1495 1481 1482 1497 1496 1482 1483 1498 1497 
1483 1484 1499 1498 1484 1485 1500 1499 1485 
1486 1501 1500 1486 1487 1502 1501 1487 1488 
1503 1502 1488 1489 1504 1503 1489 1490 1505 
1504 1490 1491 1506 1505 1491 580 579 1506 
196 1492 1507 197 1492 1493 1508 1507 1493 
1494 1509 1508 1494 1495 1510 1509 1495 1496 
1511 1510 1496 1497 1512 1511 1497 1498 1513 
1512 1498 1499 1514 1513 1499 1500 1515 1514 
1500 1501 1516 1515 1501 1502 1517 1516 1502 
1503 1518 1517 1503 1504 1519 1518 1504 1505 
1520 1519 1505 1506 1521 1520 1506 579 578 
1521 197 1507 1522 198 1507 1508 1523 1522 
1508 1509 1524 1523 1509 1510 1525 1524 1510 
1511 1526 1525 1511 1512 1527 1526 1512 1513 
1528 1527 1513 1514 1529 1528 1514 1515 1530 
1529 1515 1516 1531 1530 1516 1517 1532 1531 
1517 1518 1533 1532 1518 1519 1534 1533 1519 
1520 1535 1534 1520 1521 1536 1535 1521 578 
577 1536 198 1522 1537 199 1522 1523 1538 
1537 1523 1524 1539 1538 1524 1525 1540 1539 
1525 1526 1541 1540 1526 1527 1542 1541 1527 
1528 1543 1542 1528 1529 1544 1543 1529 1530 
1545 1544 1530 1531 1546 1545 1531 1532 1547 
1546 1532 1533 1548 1547 1533 1534 1549 1548 
1534 1535 1550 1549 1535 1536 1551 1550 1536 
577 576 1551 199 1537 1552 200 1537 1538 
1553 1552 1538 1539 1554 1553 1539 1540 1555 
1554 1540 1541 1556 1555 1541 1542 1557 1556 
1542 1543 1558 1557 1543 1544 1559 1558 1544 
1545 1560 1559 1545 1546 1561 1560 1546 1547 
1562 1561 1547 1548 1563 1562 1548 1549 1564 
1563 1549 1550 1565 1564 1550 1551 1566 1565 
1551 576 575 1566 200 1552 1567 201 1552 
1553 1568 1567 1553 1554 1569 1568 1554 1555 
1570 1569 1555 1556 1571 1570 1556 1557 1572 
1571 1557 1558 1573 1572 1558 1559 1574 1573 
1559 1560 1575 1574 1560 1561 1576 1575 1561 
1562 1577 1576 1562 1563 1578 1577 1563 1564 
1579 1578 1564 1565 1580 1579 1565 1566 1581 
1580 1566 575 574 1581 201 1567 1582 202 
1567 1568 1583 1582 1568 1569 1584 1583 1569 
1570 1585 1584 1570 1571 1586 1585 1571 1572 
1587 1586 1572 1573 1588 1587 1573 1574 1589 
1588 1574 1575 1590 1589 1575 1576 1591 1590 
1576 1577 1592 1591 1577 1578 1593 1592 1578 
1579 1594 1593 1579 1580 1595 1594 1580 1581 
1596 1595 1581 574 573 1596 202 1582 1597 
203 1582 1583 1598 1597 1583 1584 1599 1598 
1584 1585 1600 1599 1585 1586 1601 1600 1586 
1587 1602 1601 1587 1588 1603 1602 1588 1589 
1604 1603 1589 1590 1605 1604 1590 1591 1606 
1605 1591 1592 1607 1606 1592 1593 1608 1607 
1593 1594 1609 1608 1594 1595 1610 1609 1595 
1596 1611 1610 1596 573 572 1611 203 1597 
1612 204 1597 1598 1613 1612 1598 1599 1614 
1613 1599 1600 1615 1614 1600 1601 1616 1615 
1601 1602 1617 1616 1602 1603 1618 1617 1603 
1604 1619 1618 1604 1605 1620 1619 1605 1606 
1621 1620 1606 1607 1622 1621 1607 1608 1623 
1622 1608 1609 1624 1623 1609 1610 1625 1624 
1610 1611 1626 1625 1611 572 571 1626 204 
1612 1627 205 1612 1613 1628 1627 1613 1614 
1629 1628 1614 1615 1630 1629 1615 1616 1631 
1630 1616 1617 1632 1631 1617 1618 1633 1632 
1618 1619 1634 1633 1619 1620 1635 1634 1620 
1621 1636 1635 1621 1622 1637 1636 1622 1623 
1638 1637 1623 1624 1639 1638 1624 1625 1640 
1639 1625 1626 1641 1640 1626 571 570 1641 
205 1627 1642 206 1627 1628 1643 1642 1628 
1629 1644 1643 1629 1630 1645 1644 1630 1631 
1646 1645 1631 1632 1647 1646 1632 1633 1648 
1647 1633 1634 1649 1648 1634 1635 1650 1649 
1635 1636 1651 1650 1636 1637 1652 1651 1637 
1638 1653 1652 1638 1639 1654 1653 1639 1640 
1655 1654 1640 1641 1656 1655 1641 570 569 
1656 206 1642 1657 207 1642 1643 1658 1657 
1643 1644 1659 1658 1644 1645 1660 1659 1645 
1646 1661 1660 1646 1647 1662 1661 1647 1648 
1663 1662 1648 1649 1664 1663 1649 1650 1665 
1664 1650 1651 1666 1665 1651 1652 1667 1666 
1652 1653 1668 1667 1653 1654 1669 1668 1654 
1655 1670 1669 1655 1656 1671 1670 1656 569 
568 1671 207 1657 1672 208 1657 1658 1673 
1672 1658 1659 1674 1673 1659 1660 1675 1674 
1660 1661 1676 1675 1661 1662 1677 1676 1662 
1663 1678 1677 1663 1664 1679 1678 1664 1665 
1680 1679 1665 1666 1681 1680 1666 1667 1682 
1681 1667 1668 1683 1682 1668 1669 1684 1683 
1669 1670 1685 1684 1670 1671 1686 1685 1671 
568 567 1686 208 1672 1687 209 1672 1673 
1688 1687 1673 1674 1689 1688 1674 1675 1690 
1689 1675 1676 1691 1690 1676 1677 1692 1691 
1677 1678 1693 1692 1678 1679 1694 1693 1679 
1680 1695 1694 1680 1681 1696 1695 1681 1682 
1697 1696 1682 1683 1698 1697 1683 1684 1699 
1698 1684 1685 1700 1699 1685 1686 1701 1700 
1686 567 566 1701 209 1687 1702 210 1687 
1688 1703 1702 1688 1689 1704 1703 1689 1690 
1705 1704 1690 1691 1706 1705 1691 1692 1707 
1706 1692 1693 1708 1707 1693 1694 1709 1708 
1694 1695 1710 1709 1695 1696 1711 1710 1696 
1697 1712 1711 1697 1698 1713 1712 1698 1699 
1714 1713 1699 1700 1715 1714 1700 1701 1716 
1715 1701 566 565 1716 210 1702 1717 211 
1702 1703 1718 1717 1703 1704 1719 1718 1704 
1705 1720 1719 1705 1706 1721 1720 1706 1707 
1722 1721 1707 1708 1723 1722 1708 1709 1724 
1723 1709 1710 1725 1724 1710 1711 1726 1725 
1711 1712 1727 1726 1712 1713 1728 1727 1713 
1714 1729 1728 1714 1715 1730 1729 1715 1716 
1731 1730 1716 565 564 1731 211 1717 1732 
212 1717 1718 1733 1732 1718 1719 1734 1733 
1719 1720 1735 1734 1720 1721 1736 1735 1721 
1722 1737 1736 1722 1723 1738 1737 1723 1724 
1739 1738 1724 1725 1740 1739 1725 1726 1741 
1740 1726 1727 1742 1741 1727 1728 1743 1742 
1728 1729 1744 1743 1729 1730 1745 1744 1730 
1731 1746 1745 1731 564 563 1746 212 1732 
1747 213 1732 1733 1748 1747 1733 1734 1749 
1748 1734 1735 1750 1749 1735 1736 1751 1750 
1736 1737 1752 1751 1737 1738 1753 1752 1738 
1739 1754 1753 1739 1740 1755 1754 1740 1741 
1756 1755 1741 1742 1757 1756 1742 1743 1758 
1757 1743 1744 1759 1758 1744 1745 1760 1759 
1745 1746 1761 1760 1746 563 562 1761 213 
1747 1762 214 1747 1748 1763 1762 1748 1749 
1764 1763 1749 1750 1765 1764 1750 1751 1766 
1765 1751 1752 1767 1766 1752 1753 1768 1767 
1753 1754 1769 1768 1754 1755 1770 1769 1755 
1756 1771 1770 1756 1757 1772 1771 1757 1758 
1773 1772 1758 1759 1774 1773 1759 1760 1775 
1774 1760 1761 1776 1775 1761 562 561 1776 
214 1762 1777 215 1762 1763 1778 1777 1763 
1764 1779 1778 1764 1765 1780 1779 1765 1766 
1781 1780 1766 1767 1782 1781 1767 1768 1783 
1782 1768 1769 1784 1783 1769 1770 1785 1784 
1770 1771 1786 1785 1771 1772 1787 1786 1772 
1773 1788 1787 1773 1774 1789 1788 1774 1775 
1790 1789 1775 1776 1791 1790 1776 561 560 
1791 215 1777 430 9 1777 1778 429 430 
1778 1779 428 429 1779 1780 427 428 1780 
1781 426 427 1781 1782 425 426 1782 1783 
424 425 1783 1784 423 424 1784 1785 422 
423 1785 1786 421 422 1786 1787 420 421 
1787 1788 419 420 1788 1789 418 419 1789 
1790 417 418 1790 1791 416 417 1791 560 
4 416 9 430 1792 216 430 429 1793 
1792 429 428 1794 1793 428 427 1795 1794 
427 426 1796 1795 426 425 1797 1796 425 
424 1798 1797 424 423 1799 1798 423 422 
1800 1799 422 421 1801 1800 421 420 1802 
1801 420 419 1803 1802 419 418 1804 1803 
418 417 1805 1804 417 416 1806 1805 416 
4 132 1806 216 1792 1807 217 1792 1793 
1808 1807 1793 1794 1809 1808 1794 1795 1810 
1809 1795 1796 1811 1810 1796 1797 1812 1811 
1797 1798 1813 1812 1798 1799 1814 1813 1799 
1800 1815 1814 1800 1801 1816 1815 1801 1802 
1817 1816 1802 1803 1818 1817 1803 1804 1819 
1818 1804 1805 1820 1819 1805 1806 1821 1820 
1806 132 133 1821 217 1807 1822 218 1807 
1808 1823 1822 1808 1809 1824 1823 1809 1810 
1825 1824 1810 1811 1826 1825 1811 1812 1827 
1826 1812 1813 1828 1827 1813 1814 1829 1828 
1814 1815 1830 1829 1815 1816 1831 1830 1816 
1817 1832 1831 1817 1818 1833 1832 1818 1819 
1834 1833 1819 1820 1835 1834 1820 1821 1836 
1835 1821 133 134 1836 218 1822 1837 219 
1822 1823 1838 1837 1823 1824 1839 1838 1824 
1825 1840 1839 1825 1826 1841 1840 1826 1827 
1842 1841 1827 1828 1843 1842 1828 1829 1844 
1843 1829 1830 1845 1844 1830 1831 1846 1845 
1831 1832 1847 1846 1832 1833 1848 1847 1833 
1834 1849 1848 1834 1835 1850 1849 1835 1836 
1851 1850 1836 134 135 1851 219 1837 1852 
220 1837 1838 1853 1852 1838 1839 1854 1853 
1839 1840 1855 1854 1840 1841 1856 1855 1841 
1842 1857 1856 1842 1843 1858 1857 1843 1844 
1859 1858 1844 1845 1860 1859 1845 1846 1861 
1860 1846 1847 1862 1861 1847 1848 1863 1862 
1848 1849 1864 1863 1849 1850 1865 1864 1850 
1851 1866 1865 1851 135 136 1866 220 1852 
1867 221 1852 1853 1868 1867 1853 1854 1869 
1868 1854 1855 1870 1869 1855 1856 1871 1870 
1856 1857 1872 1871 1857 1858 1873 1872 1858 
1859 1874 1873 1859 1860 1875 1874 1860 1861 
1876 1875 1861 1862 1877 1876 1862 1863 1878 
1877 1863 1864 1879 1878 1864 1865 1880 1879 
1865 1866 1881 1880 1866 136 137 1881 221 
1867 1882 222 1867 1868 1883 1882 1868 1869 
1884 1883 1869 1870 1885 1884 1870 1871 1886 
1885 1871 1872 1887 1886 1872 1873 1888 1887 
1873 1874 1889 1888 1874 1875 1890 1889 1875 
1876 1891 1890 1876 1877 1892 1891 1877 1878 
1893 1892 1878 1879 1894 1893 1879 1880 1895 
1894 1880 1881 1896 1895 1881 137 138 1896 
222 1882 1897 223 1882 1883 1898 1897 1883 
1884 1899 1898 1884 1885 1900 1899 1885 1886 
1901 1900 1886 1887 1902 1901 1887 1888 1903 
1902 1888 1889 1904 1903 1889 1890 1905 1904 
1890 1891 1906 1905 1891 1892 1907 1906 1892 
1893 1908 1907 1893 1894 1909 1908 1894 1895 
1910 1909 1895 1896 1911 1910 1896 138 139 
1911 223 1897 1912 224 1897 1898 1913 1912 
1898 1899 1914 1913 1899 1900 1915 1914 1900 
1901 1916 1915 1901 1902 1917 1916 1902 1903 
1918 1917 1903 1904 1919 1918 1904 1905 1920 
1919 1905 1906 1921 1920 1906 1907 1922 1921 
1907 1908 1923 1922 1908 1909 1924 1923 1909 
1910 1925 1924 1910 1911 1926 1925 1911 139 
140 1926 224 1912 1927 225 1912 1913 1928 
1927 1913 1914 1929 1928 1914 1915 1930 1929 
1915 1916 1931 1930 1916 1917 1932 1931 1917 
1918 1933 1932 1918 1919 1934 1933 1919 1920 
1935 1934 1920 1921 1936 1935 1921 1922 1937 
1936 1922 1923 1938 1937 1923 1924 1939 1938 
1924 1925 1940 1939 1925 1926 1941 1940 1926 
140 141 1941 225 1927 1942 226 1927 1928 
1943 1942 1928 1929 1944 1943 1929 1930 1945 
1944 1930 1931 1946 1945 1931 1932 1947 1946 
1932 1933 1948 1947 1933 1934 1949 1948 1934 
1935 1950 1949 1935 1936 1951 1950 1936 1937 
1952 1951 1937 1938 1953 1952 1938 1939 1954 
1953 1939 1940 1955 1954 1940 1941 1956 1955 
1941 141 142 1956 226 1942 1957 227 1942 
1943 1958 1957 1943 1944 1959 1958 1944 1945 
1960 1959 1945 1946 1961 1960 1946 1947 1962 
1961 1947 1948 1963 1962 1948 1949 1964 1963 
1949 1950 1965 1964 1950 1951 1966 1965 1951 
1952 1967 1966 1952 1953 1968 1967 1953 1954 
1969 1968 1954 1955 1970 1969 1955 1956 1971 
1970 1956 142 143 1971 227 1957 1972 228 
1957 1958 1973 1972 1958 1959 1974 1973 1959 
1960 1975 1974 1960 1961 1976 1975 1961 1962 
1977 1976 1962 1963 1978 1977 1963 1964 1979 
1978 1964 1965 1980 1979 1965 1966 1981 1980 
1966 1967 1982 1981 1967 1968 1983 1982 1968 
1969 1984 1983 1969 1970 1985 1984 1970 1971 
1986 1985 1971 143 144 1986 228 1972 1987 
229 1972 1973 1988 1987 1973 1974 1989 1988 
1974 1975 1990 1989 1975 1976 1991 1990 1976 
1977 1992 1991 1977 1978 1993 1992 1978 1979 
1994 1993 1979 1980 1995 1994 1980 1981 1996 
1995 1981 1982 1997 1996 1982 1983 1998 1997 
1983 1984 1999 1998 1984 1985 2000 1999 1985 
1986 2001 2000 1986 144 145 2001 229 1987 
445 10 1987 1988 444 445 1988 1989 443 
444 1989 1990 442 443 1990 1991 441 442 
1991 1992 440 441 1992 1993 439 440 1993 
1994 438 439 1994 1995 437 438 1995 1996 
436 437 1996 1997 435 436 1997 1998 434 
435 1998 1999 433 434 1999 2000 432 433 
2000 2001 431 432 2001 145 5 431 10 
445 2002 230 445 444 2003 2002 444 443 
2004 2003 443 442 2005 2004 442 441 2006 
2005 441 440 2007 2006 440 439 2008 2007 
439 438 2009 2008 438 437 2010 2009 437 
436 2011 2010 436 435 2012 2011 435 434 
2013 2012 434 433 2014 2013 433 432 2015 
2014 432 431 2016 2015 431 5 446 2016 
230 2002 2017 231 2002 2003 2018 2017 2003 
2004 2019 2018 2004 2005 2020 2019 2005 2006 
2021 2020 2006 2007 2022 2021 2007 2008 2023 
2022 2008 2009 2024 2023 2009 2010 2025 2024 
2010 2011 2026 2025 2011 2012 2027 2026 2012 
2013 2028 2027 2013 2014 2029 2028 2014 2015 
2030 2029 2015 2016 2031 2030 2016 446 447 
2031 231 2017 2032 232 2017 2018 2033 2032 
2018 2019 2034 2033 2019 2020 2035 2034 2020 
2021 2036 2035 2021 2022 2037 2036 2022 2023 
2038 2037 2023 2024 2039 2038 2024 2025 2040 
2039 2025 2026 2041 2040 2026 2027 2042 2041 
2027 2028 2043 2042 2028 2029 2044 2043 2029 
2030 2045 2044 2030 2031 2046 2045 2031 447 
448 2046 232 2032 2047 233 2032 2033 2048 
2047 2033 2034 2049 2048 2034 2035 2050 2049 
2035 2036 2051 2050 2036 2037 2052 2051 2037 
2038 2053 2052 2038 2039 2054 2053 2039 2040 
2055 2054 2040 2041 2056 2055 2041 2042 2057 
2056 2042 2043 2058 2057 2043 2044 2059 2058 
2044 2045 2060 2059 2045 2046 2061 2060 2046 
448 449 2061 233 2047 2062 234 2047 2048 
2063 2062 2048 2049 2064 2063 2049 2050 2065 
2064 2050 2051 2066 2065 2051 2052 2067 2066 
2052 2053 2068 2067 2053 2054 2069 2068 2054 
2055 2070 2069 2055 2056 2071 2070 2056 2057 
2072 2071 2057 2058 2073 2072 2058 2059 2074 
2073 2059 2060 2075 2074 2060 2061 2076 2075 
2061 449 450 2076 234 2062 2077 235 2062 
2063 2078 2077 2063 2064 2079 2078 2064 2065 
2080 2079 2065 2066 2081 2080 2066 2067 2082 
2081 2067 2068 2083 2082 2068 2069 2084 2083 
2069 2070 2085 2084 2070 2071 2086 2085 2071 
2072 2087 2086 2072 2073 2088 2087 2073 2074 
2089 2088 2074 2075 2090 2089 2075 2076 2091 
2090 2076 450 451 2091 235 2077 2092 236 
2077 2078 2093 2092 2078 2079 2094 2093 2079 
2080 2095 2094 2080 2081 2096 2095 2081 2082 
2097 2096 2082 2083 2098 2097 2083 2084 2099 
2098 2084 2085 2100 2099 2085 2086 2101 2100 
2086 2087 2102 2101 2087 2088 2103 2102 2088 
2089 2104 2103 2089 2090 2105 2104 2090 2091 
2106 2105 2091 451 452 2106 236 2092 2107 
237 2092 2093 2108 2107 2093 2094 2109 2108 
2094 2095 2110 2109 2095 2096 2111 2110 2096 
2097 2112 2111 2097 2098 2113 2112 2098 2099 
2114 2113 2099 2100 2115 2114 2100 2101 2116 
2115 2101 2102 2117 2116 2102 2103 2118 2117 
2103 2104 2119 2118 2104 2105 2120 2119 2105 
2106 2121 2120 2106 452 453 2121 237 2107 
2122 238 2107 2108 2123 2122 2108 2109 2124 
2123 2109 2110 2125 2124 2110 2111 2126 2125 
2111 2112 2127 2126 2112 2113 2128 2127 2113 
2114 2129 2128 2114 2115 2130 2129 2115 2116 
2131 2130 2116 2117 2132 2131 2117 2118 2133 
2132 2118 2119 2134 2133 2119 2120 2135 2134 
2120 2121 2136 2135 2121 453 454 2136 238 
2122 2137 239 2122 2123 2138 2137 2123 2124 
2139 2138 2124 2125 2140 2139 2125 2126 2141 
2140 2126 2127 2142 2141 2127 2128 2143 2142 
2128 2129 2144 2143 2129 2130 2145 2144 2130 
2131 2146 2145 2131 2132 2147 2146 2132 2133 
2148 2147 2133 2134 2149 2148 2134 2135 2150 
2149 2135 2136 2151 2150 2136 454 455 2151 
239 2137 2152 240 2137 2138 2153 2152 2138 
2139 2154 2153 2139 2140 2155 2154 2140 2141 
2156 2155 2141 2142 2157 2156 2142 2143 2158 
2157 2143 2144 2159 2158 2144 2145 2160 2159 
2145 2146 2161 2160 2146 2147 2162 2161 2147 
2148 2163 2162 2148 2149 2164 2163 2149 2150 
2165 2164 2150 2151 2166 2165 2151 455 456 
2166 240 2152 2167 241 2152 2153 2168 2167 
2153 2154 2169 2168 2154 2155 2170 2169 2155 
2156 2171 2170 2156 2157 2172 2171 2157 2158 
2173 2172 2158 2159 2174 2173 2159 2160 2175 
2174 2160 2161 2176 2175 2161 2162 2177 2176 
2162 2163 2178 2177 2163 2164 2179 2178 2164 
2165 2180 2179 2165 2166 2181 2180 2166 456 
457 2181 241 2167 2182 242 2167 2168 2183 
2182 2168 2169 2184 2183 2169 2170 2185 2184 
2170 2171 2186 2185 2171 2172 2187 2186 2172 
2173 2188 2187 2173 2174 2189 2188 2174 2175 
2190 2189 2175 2176 2191 2190 2176 2177 2192 
2191 2177 2178 2193 2192 2178 2179 2194 2193 
2179 2180 2195 2194 2180 2181 2196 2195 2181 
457 458 2196 242 2182 2197 243 2182 2183 
2198 2197 2183 2184 2199 2198 2184 2185 2200 
2199 2185 2186 2201 2200 2186 2187 2202 2201 
2187 2188 2203 2202 2188 2189 2204 2203 2189 
2190 2205 2204 2190 2191 2206 2205 2191 2192 
2207 2206 2192 2193 2208 2207 2193 2194 2209 
2208 2194 2195 2210 2209 2195 2196 2211 2210 
2196 458 459 2211 243 2197 2212 244 2197 
2198 2213 2212 2198 2199 2214 2213 2199 2200 
2215 2214 2200 2201 2216 2215 2201 2202 2217 
2216 2202 2203 2218 2217 2203 2204 2219 2218 
2204 2205 2220 2219 2205 2206 2221 2220 2206 
2207 2222 2221 2207 2208 2223 2222 2208 2209 
2224 2223 2209 2210 2225 2224 2210 2211 2226 
2225 2211 459 460 2226 244 2212 2227 245 
2212 2213 2228 2227 2213 2214 2229 2228 2214 
2215 2230 2229 2215 2216 2231 2230 2216 2217 
2232 2231 2217 2218 2233 2232 2218 2219 2234 
2233 2219 2220 2235 2234 2220 2221 2236 2235 
2221 2222 2237 2236 2222 2223 2238 2237 2223 
2224 2239 2238 2224 2225 2240 2239 2225 2226 
2241 2240 2226 460 461 2241 245 2227 2242 
246 2227 2228 2243 2242 2228 2229 2244 2243 
2229 2230 2245 2244 2230 2231 2246 2245 2231 
2232 2247 2246 2232 2233 2248 2247 2233 2234 
2249 2248 2234 2235 2250 2249 2235 2236 2251 
2250 2236 2237 2252 2251 2237 2238 2253 2252 
2238 2239 2254 2253 2239 2240 2255 2254 2240 
2241 2256 2255 2241 461 462 2256 246 2242 
2257 247 2242 2243 2258 2257 2243 2244 2259 
2258 2244 2245 2260 2259 2245 2246 2261 2260 
2246 2247 2262 2261 2247 2248 2263 2262 2248 
2249 2264 2263 2249 2250 2265 2264 2250 2251 
2266 2265 2251 2252 2267 2266 2252 2253 2268 
2267 2253 2254 2269 2268 2254 2255 2270 2269 
2255 2256 2271 2270 2256 462 463 2271 247 
2257 2272 248 2257 2258 2273 2272 2258 2259 
2274 2273 2259 2260 2275 2274 2260 2261 2276 
2275 2261 2262 2277 2276 2262 2263 2278 2277 
2263 2264 2279 2278 2264 2265 2280 2279 2265 
2266 2281 2280 2266 2267 2282 2281 2267 2268 
2283 2282 2268 2269 2284 2283 2269 2270 2285 
2284 2270 2271 2286 2285 2271 463 464 2286 
248 2272 2287 249 2272 2273 2288 2287 2273 
2274 2289 2288 2274 2275 2290 2289 2275 2276 
2291 2290 2276 2277 2292 2291 2277 2278 2293 
2292 2278 2279 2294 2293 2279 2280 2295 2294 
2280 2281 2296 2295 2281 2282 2297 2296 2282 
2283 2298 2297 2283 2284 2299 2298 2284 2285 
2300 2299 2285 2286 2301 2300 2286 464 465 
2301 249 2287 2302 250 2287 2288 2303 2302 
2288 2289 2304 2303 2289 2290 2305 2304 2290 
2291 2306 2305 2291 2292 2307 2306 2292 2293 
2308 2307 2293 2294 2309 2308 2294 2295 2310 
2309 2295 2296 2311 2310 2296 2297 2312 2311 
2297 2298 2313 2312 2298 2299 2314 2313 2299 
2300 2315 2314 2300 2301 2316 2315 2301 465 
466 2316 250 2302 2317 251 2302 2303 2318 
2317 2303 2304 2319 2318 2304 2305 2320 2319 
2305 2306 2321 2320 2306 2307 2322 2321 2307 
2308 2323 2322 2308 2309 2324 2323 2309 2310 
2325 2324 2310 2311 2326 2325 2311 2312 2327 
2326 2312 2313 2328 2327 2313 2314 2329 2328 
2314 2315 2330 2329 2315 2316 2331 2330 2316 
466 467 2331 251 2317 2332 252 2317 2318 
2333 2332 2318 2319 2334 2333 2319 2320 2335 
2334 2320 2321 2336 2335 2321 2322 2337 2336 
2322 2323 2338 2337 2323 2324 2339 2338 2324 
2325 2340 2339 2325 2326 2341 2340 2326 2327 
2342 2341 2327 2328 2343 2342 2328 2329 2344 
2343 2329 2330 2345 2344 2330 2331 2346 2345 
2331 467 468 2346 252 2332 2347 253 2332 
2333 2348 2347 2333 2334 2349 2348 2334 2335 
2350 2349 2335 2336 2351 2350 2336 2337 2352 
2351 2337 2338 2353 2352 2338 2339 2354 2353 
2339 2340 2355 2354 2340 2341 2356 2355 2341 
2342 2357 2356 2342 2343 2358 2357 2343 2344 
2359 2358 2344 2345 2360 2359 2345 2346 2361 
2360 2346 468 469 2361 253 2347 2362 254 
2347 2348 2363 2362 2348 2349 2364 2363 2349 
2350 2365 2364 2350 2351 2366 2365 2351 2352 
2367 2366 2352 2353 2368 2367 2353 2354 2369 
2368 2354 2355 2370 2369 2355 2356 2371 2370 
2356 2357 2372 2371 2357 2358 2373 2372 2358 
2359 2374 2373 2359 2360 2375 2374 2360 2361 
2376 2375 2361 469 470 2376 254 2362 2377 
255 2362 2363 2378 2377 2363 2364 2379 2378 
2364 2365 2380 2379 2365 2366 2381 2380 2366 
2367 2382 2381 2367 2368 2383 2382 2368 2369 
2384 2383 2369 2370 2385 2384 2370 2371 2386 
2385 2371 2372 2387 2386 2372 2373 2388 2387 
2373 2374 2389 2388 2374 2375 2390 2389 2375 
2376 2391 2390 2376 470 471 2391 255 2377 
2392 256 2377 2378 2393 2392 2378 2379 2394 
2393 2379 2380 2395 2394 2380 2381 2396 2395 
2381 2382 2397 2396 2382 2383 2398 2397 2383 
2384 2399 2398 2384 2385 2400 2399 2385 2386 
2401 2400 2386 2387 2402 2401 2387 2388 2403 
2402 2388 2389 2404 2403 2389 2390 2405 2404 
2390 2391 2406 2405 2391 471 472 2406 256 
2392 2407 257 2392 2393 2408 2407 2393 2394 
2409 2408 2394 2395 2410 2409 2395 2396 2411 
2410 2396 2397 2412 2411 2397 2398 2413 2412 
2398 2399 2414 2413 2399 2400 2415 2414 2400 
2401 2416 2415 2401 2402 2417 2416 2402 2403 
2418 2417 2403 2404 2419 2418 2404 2405 2420 
2419 2405 2406 2421 2420 2406 472 473 2421 
257 2407 258 11 2407 2408 259 258 2408 
2409 260 259 2409 2410 261 260 2410 2411 
262 261 2411 2412 263 262 2412 2413 264 
263 2413 2414 265 264 2414 2415 266 265 
2415 2416 267 266 2416 2417 268 267 2417 
2418 269 268 2418 2419 270 269 2419 2420 
271 270 2420 2421 272 271 2421 473 12 
272 12 473 2422 273 473 472 2423 2422 
472 471 2424 2423 471 470 2425 2424 470 
469 2426 2425 469 468 2427 2426 468 467 
2428 2427 467 466 2429 2428 466 465 2430 
2429 465 464 2431 2430 464 463 2432 2431 
463 462 2433 2432 462 461 2434 2433 461 
460 2435 2434 460 459 2436 2435 459 458 
2437 2436 458 457 2438 2437 457 456 2439 
2438 456 455 2440 2439 455 454 2441 2440 
454 453 2442 2441 453 452 2443 2442 452 
451 2444 2443 451 450 2445 2444 450 449 
2446 2445 449 448 2447 2446 448 447 2448 
2447 447 446 2449 2448 446 5 146 2449 
273 2422 2450 274 2422 2423 2451 2450 2423 
2424 2452 2451 2424 2425 2453 2452 2425 2426 
2454 2453 2426 2427 2455 2454 2427 2428 2456 
2455 2428 2429 2457 2456 2429 2430 2458 2457 
2430 2431 2459 2458 2431 2432 2460 2459 2432 
2433 2461 2460 2433 2434 2462 2461 2434 2435 
2463 2462 2435 2436 2464 2463 2436 2437 2465 
2464 2437 2438 2466 2465 2438 2439 2467 2466 
2439 2440 2468 2467 2440 2441 2469 2468 2441 
2442 2470 2469 2442 2443 2471 2470 2443 2444 
2472 2471 2444 2445 2473 2472 2445 2446 2474 
2473 2446 2447 2475 2474 2447 2448 2476 2475 
2448 2449 2477 2476 2449 146 147 2477 274 
2450 2478 275 2450 2451 2479 2478 2451 2452 
2480 2479 2452 2453 2481 2480 2453 2454 2482 
2481 2454 2455 2483 2482 2455 2456 2484 2483 
2456 2457 2485 2484 2457 2458 2486 2485 2458 
2459 2487 2486 2459 2460 2488 2487 2460 2461 
2489 2488 2461 2462 2490 2489 2462 2463 2491 
2490 2463 2464 2492 2491 2464 2465 2493 2492 
2465 2466 2494 2493 2466 2467 2495 2494 2467 
2468 2496 2495 2468 2469 2497 2496 2469 2470 
2498 2497 2470 2471 2499 2498 2471 2472 2500 
2499 2472 2473 2501 2500 2473 2474 2502 2501 
2474 2475 2503 2502 2475 2476 2504 2503 2476 
2477 2505 2504 2477 147 148 2505 275 2478 
2506 276 2478 2479 2507 2506 2479 2480 2508 
2507 2480 2481 2509 2508 2481 2482 2510 2509 
2482 2483 2511 2510 2483 2484 2512 2511 2484 
2485 2513 2512 2485 2486 2514 2513 2486 2487 
2515 2514 2487 2488 2516 2515 2488 2489 2517 
2516 2489 2490 2518 2517 2490 2491 2519 2518 
2491 2492 2520 2519 2492 2493 2521 2520 2493 
2494 2522 2521 2494 2495 2523 2522 2495 2496 
2524 2523 2496 2497 2525 2524 2497 2498 2526 
2525 2498 2499 2527 2526 2499 2500 2528 2527 
2500 2501 2529 2528 2501 2502 2530 2529 2502 
2503 2531 2530 2503 2504 2532 2531 2504 2505 
2533 2532 2505 148 149 2533 276 2506 2534 
277 2506 2507 2535 2534 2507 2508 2536 2535 
2508 2509 2537 2536 2509 2510 2538 2537 2510 
2511 2539 2538 2511 2512 2540 2539 2512 2513 
2541 2540 2513 2514 2542 2541 2514 2515 2543 
2542 2515 2516 2544 2543 2516 2517 2545 2544 
2517 2518 2546 2545 2518 2519 2547 2546 2519 
2520 2548 2547 2520 2521 2549 2548 2521 2522 
2550 2549 2522 2523 2551 2550 2523 2524 2552 
2551 2524 2525 2553 2552 2525 2526 2554 2553 
2526 2527 2555 2554 2527 2528 2556 2555 2528 
2529 2557 2556 2529 2530 2558 2557 2530 2531 
2559 2558 2531 2532 2560 2559 2532 2533 2561 
2560 2533 149 150 2561 277 2534 2562 278 
2534 2535 2563 2562 2535 2536 2564 2563 2536 
2537 2565 2564 2537 2538 2566 2565 2538 2539 
2567 2566 2539 2540 2568 2567 2540 2541 2569 
2568 2541 2542 2570 2569 2542 2543 2571 2570 
2543 2544 2572 2571 2544 2545 2573 2572 2545 
2546 2574 2573 2546 2547 2575 2574 2547 2548 
2576 2575 2548 2549 2577 2576 2549 2550 2578 
2577 2550 2551 2579 2578 2551 2552 2580 2579 
2552 2553 2581 2580 2553 2554 2582 2581 2554 
2555 2583 2582 2555 2556 2584 2583 2556 2557 
2585 2584 2557 2558 2586 2585 2558 2559 2587 
2586 2559 2560 2588 2587 2560 2561 2589 2588 
2561 150 151 2589 278 2562 2590 279 2562 
2563 2591 2590 2563 2564 2592 2591 2564 2565 
2593 2592 2565 2566 2594 2593 2566 2567 2595 
2594 2567 2568 2596 2595 2568 2569 2597 2596 
2569 2570 2598 2597 2570 2571 2599 2598 2571 
2572 2600 2599 2572 2573 2601 2600 2573 2574 
2602 2601 2574 2575 2603 2602 2575 2576 2604 
2603 2576 2577 2605 2604 2577 2578 2606 2605 
2578 2579 2607 2606 2579 2580 2608 2607 2580 
2581 2609 2608 2581 2582 2610 2609 2582 2583 
2611 2610 2583 2584 2612 2611 2584 2585 2613 
2612 2585 2586 2614 2613 2586 2587 2615 2614 
2587 2588 2616 2615 2588 2589 2617 2616 2589 
151 152 2617 279 2590 2618 280 2590 2591 
2619 2618 2591 2592 2620 2619 2592 2593 2621 
2620 2593 2594 2622 2621 2594 2595 2623 2622 
2595 2596 2624 2623 2596 2597 2625 2624 2597 
2598 2626 2625 2598 2599 2627 2626 2599 2600 
2628 2627 2600 2601 2629 2628 2601 2602 2630 
2629 2602 2603 2631 2630 2603 2604 2632 2631 
2604 2605 2633 2632 2605 2606 2634 2633 2606 
2607 2635 2634 2607 2608 2636 2635 2608 2609 
2637 2636 2609 2610 2638 2637 2610 2611 2639 
2638 2611 2612 2640 2639 2612 2613 2641 2640 
2613 2614 2642 2641 2614 2615 2643 2642 2615 
2616 2644 2643 2616 2617 2645 2644 2617 152 
153 2645 280 2618 2646 281 2618 2619 2647 
2646 2619 2620 2648 2647 2620 2621 2649 2648 
2621 2622 2650 2649 2622 2623 2651 2650 2623 
2624 2652 2651 2624 2625 2653 2652 2625 2626 
2654 2653 2626 2627 2655 2654 2627 2628 2656 
2655 2628 2629 2657 2656 2629 2630 2658 2657 
2630 2631 2659 2658 2631 2632 2660 2659 2632 
2633 2661 2660 2633 2634 2662 2661 2634 2635 
2663 2662 2635 2636 2664 2663 2636 2637 2665 
2664 2637 2638 2666 2665 2638 2639 2667 2666 
2639 2640 2668 2667 2640 2641 2669 2668 2641 
2642 2670 2669 2642 2643 2671 2670 2643 2644 
2672 2671 2644 2645 2673 2672 2645 153 154 
2673 281 2646 2674 282 2646 2647 2675 2674 
2647 2648 2676 2675 2648 2649 2677 2676 2649 
2650 2678 2677 2650 2651 2679 2678 2651 2652 
2680 2679 2652 2653 2681 2680 2653 2654 2682 
2681 2654 2655 2683 2682 2655 2656 2684 2683 
2656 2657 2685 2684 2657 2658 2686 2685 2658 
2659 2687 2686 2659 2660 2688 2687 2660 2661 
2689 2688 2661 2662 2690 2689 2662 2663 2691 
2690 2663 2664 2692 2691 2664 2665 2693 2692 
2665 2666 2694 2693 2666 2667 2695 2694 2667 
2668 2696 2695 2668 2669 2697 2696 2669 2670 
2698 2697 2670 2671 2699 2698 2671 2672 2700 
2699 2672 2673 2701 2700 2673 154 155 2701 
282 2674 2702 283 2674 2675 2703 2702 2675 
2676 2704 2703 2676 2677 2705 2704 2677 2678 
2706 2705 2678 2679 2707 2706 2679 2680 2708 
2707 2680 2681 2709 2708 2681 2682 2710 2709 
2682 2683 2711 2710 2683 2684 2712 2711 2684 
2685 2713 2712 2685 2686 2714 2713 2686 2687 
2715 2714 2687 2688 2716 2715 2688 2689 2717 
2716 2689 2690 2718 2717 2690 2691 2719 2718 
2691 2692 2720 2719 2692 2693 2721 2720 2693 
2694 2722 2721 2694 2695 2723 2722 2695 2696 
2724 2723 2696 2697 2725 2724 2697 2698 2726 
2725 2698 2699 2727 2726 2699 2700 2728 2727 
2700 2701 2729 2728 2701 155 156 2729 283 
2702 2730 284 2702 2703 2731 2730 2703 2704 
2732 2731 2704 2705 2733 2732 2705 2706 2734 
2733 2706 2707 2735 2734 2707 2708 2736 2735 
2708 2709 2737 2736 2709 2710 2738 2737 2710 
2711 2739 2738 2711 2712 2740 2739 2712 2713 
2741 2740 2713 2714 2742 2741 2714 2715 2743 
2742 2715 2716 2744 2743 2716 2717 2745 2744 
2717 2718 2746 2745 2718 2719 2747 2746 2719 
2720 2748 2747 2720 2721 2749 2748 2721 2722 
2750 2749 2722 2723 2751 2750 2723 2724 2752 
2751 2724 2725 2753 2752 2725 2726 2754 2753 
2726 2727 2755 2754 2727 2728 2756 2755 2728 
2729 2757 2756 2729 156 157 2757 284 2730 
2758 285 2730 2731 2759 2758 2731 2732 2760 
2759 2732 2733 2761 2760 2733 2734 2762 2761 
2734 2735 2763 2762 2735 2736 2764 2763 2736 
2737 2765 2764 2737 2738 2766 2765 2738 2739 
2767 2766 2739 2740 2768 2767 2740 2741 2769 
2768 2741 2742 2770 2769 2742 2743 2771 2770 
2743 2744 2772 2771 2744 2745 2773 2772 2745 
2746 2774 2773 2746 2747 2775 2774 2747 2748 
2776 2775 2748 2749 2777 2776 2749 2750 2778 
2777 2750 2751 2779 2778 2751 2752 2780 2779 
2752 2753 2781 2780 2753 2754 2782 2781 2754 
2755 2783 2782 2755 2756 2784 2783 2756 2757 
2785 2784 2757 157 158 2785 285 2758 2786 
286 2758 2759 2787 2786 2759 2760 2788 2787 
2760 2761 2789 2788 2761 2762 2790 2789 2762 
2763 2791 2790 2763 2764 2792 2791 2764 2765 
2793 2792 2765 2766 2794 2793 2766 2767 2795 
2794 2767 2768 2796 2795 2768 2769 2797 2796 
2769 2770 2798 2797 2770 2771 2799 2798 2771 
2772 2800 2799 2772 2773 2801 2800 2773 2774 
2802 2801 2774 2775 2803 2802 2775 2776 2804 
2803 2776 2777 2805 2804 2777 2778 2806 2805 
2778 2779 2807 2806 2779 2780 2808 2807 2780 
2781 2809 2808 2781 2782 2810 2809 2782 2783 
2811 2810 2783 2784 2812 2811 2784 2785 2813 
2812 2785 158 159 2813 286 2786 501 13 
2786 2787 500 501 2787 2788 499 500 2788 
2789 498 499 2789 2790 497 498 2790 2791 
496 497 2791 2792 495 496 2792 2793 494 
495 2793 2794 493 494 2794 2795 492 493 
2795 2796 491 492 2796 2797 490 491 2797 
2798 489 490 2798 2799 488 489 2799 2800 
487 488 2800 2801 486 487 2801 2802 485 
486 2802 2803 484 485 2803 2804 483 484 
2804 2805 482 483 2805 2806 481 482 2806 
2807 480 481 2807 2808 479 480 2808 2809 
478 479 2809 2810 477 478 2810 2811 476 
477 2811 2812 475 476 2812 2813 474 475 
2813 159 6 474 13 501 2814 287 501 
500 2815 2814 500 499 2816 2815 499 498 
2817 2816 498 497 2818 2817 497 496 2819 
2818 496 495 2820 2819 495 494 2821 2820 
494 493 2822 2821 493 492 2823 2822 492 
491 2824 2823 491 490 2825 2824 490 489 
2826 2825 489 488 2827 2826 488 487 2828 
2827 487 486 2829 2828 486 485 2830 2829 
485 484 2831 2830 484 483 2832 2831 483 
482 2833 2832 482 481 2834 2833 481 480 
2835 2834 480 479 2836 2835 479 478 2837 
2836 478 477 2838 2837 477 476 2839 2838 
476 475 2840 2839 475 474 2841 2840 474 
6 502 2841 287 2814 2842 288 2814 2815 
2843 2842 2815 2816 2844 2843 2816 2817 2845 
2844 2817 2818 2846 2845 2818 2819 2847 2846 
2819 2820 2848 2847 2820 2821 2849 2848 2821 
2822 2850 2849 2822 2823 2851 2850 2823 2824 
2852 2851 2824 2825 2853 2852 2825 2826 2854 
2853 2826 2827 2855 2854 2827 2828 2856 2855 
2828 2829 2857 2856 2829 2830 2858 2857 2830 
2831 2859 2858 2831 2832 2860 2859 2832 2833 
2861 2860 2833 2834 2862 2861 2834 2835 2863 
2862 2835 2836 2864 2863 2836 2837 2865 2864 
2837 2838 2866 2865 2838 2839 2867 2866 2839 
2840 2868 2867 2840 2841 2869 2868 2841 502 
503 2869 288 2842 2870 289 2842 2843 2871 
2870 2843 2844 2872 2871 2844 2845 2873 2872 
2845 2846 2874 2873 2846 2847 2875 2874 2847 
2848 2876 2875 2848 2849 2877 2876 2849 2850 
2878 2877 2850 2851 2879 2878 2851 2852 2880 
2879 2852 2853 2881 2880 2853 2854 2882 2881 
2854 2855 2883 2882 2855 2856 2884 2883 2856 
2857 2885 2884 2857 2858 2886 2885 2858 2859 
2887 2886 2859 2860 2888 2887 2860 2861 2889 
2888 2861 2862 2890 2889 2862 2863 2891 2890 
2863 2864 2892 2891 2864 2865 2893 2892 2865 
2866 2894 2893 2866 2867 2895 2894 2867 2868 
2896 2895 2868 2869 2897 2896 2869 503 504 
2897 289 2870 2898 290 2870 2871 2899 2898 
2871 2872 2900 2899 2872 2873 2901 2900 2873 
2874 2902 2901 2874 2875 2903 2902 2875 2876 
2904 2903 2876 2877 2905 2904 2877 2878 2906 
2905 2878 2879 2907 2906 2879 2880 2908 2907 
2880 2881 2909 2908 2881 2882 2910 2909 2882 
2883 2911 2910 2883 2884 2912 2911 2884 2885 
2913 2912 2885 2886 2914 2913 2886 2887 2915 
2914 2887 2888 2916 2915 2888 2889 2917 2916 
2889 2890 2918 2917 2890 2891 2919 2918 2891 
2892 2920 2919 2892 2893 2921 2920 2893 2894 
2922 2921 2894 2895 2923 2922 2895 2896 2924 
2923 2896 2897 2925 2924 2897 504 505 2925 
290 2898 2926 291 2898 2899 2927 2926 2899 
2900 2928 2927 2900 2901 2929 2928 2901 2902 
2930 2929 2902 2903 2931 2930 2903 2904 2932 
2931 2904 2905 2933 2932 2905 2906 2934 2933 
2906 2907 2935 2934 2907 2908 2936 2935 2908 
2909 2937 2936 2909 2910 2938 2937 2910 2911 
2939 2938 2911 2912 2940 2939 2912 2913 2941 
2940 2913 2914 2942 2941 2914 2915 2943 2942 
2915 2916 2944 2943 2916 2917 2945 2944 2917 
2918 2946 2945 2918 2919 2947 2946 2919 2920 
2948 2947 2920 2921 2949 2948 2921 2922 2950 
2949 2922 2923 2951 2950 2923 2924 2952 2951 
2924 2925 2953 2952 2925 505 506 2953 291 
2926 2954 292 2926 2927 2955 2954 2927 2928 
2956 2955 2928 2929 2957 2956 2929 2930 2958 
2957 2930 2931 2959 2958 2931 2932 2960 2959 
2932 2933 2961 2960 2933 2934 2962 2961 2934 
2935 2963 2962 2935 2936 2964 2963 2936 2937 
2965 2964 2937 2938 2966 2965 2938 2939 2967 
2966 2939 2940 2968 2967 2940 2941 2969 2968 
2941 2942 2970 2969 2942 2943 2971 2970 2943 
2944 2972 2971 2944 2945 2973 2972 2945 2946 
2974 2973 2946 2947 2975 2974 2947 2948 2976 
2975 2948 2949 2977 2976 2949 2950 2978 2977 
2950 2951 2979 2978 2951 2952 2980 2979 2952 
2953 2981 2980 2953 506 507 2981 292 2954 
2982 293 2954 2955 2983 2982 2955 2956 2984 
2983 2956 2957 2985 2984 2957 2958 2986 2985 
2958 2959 2987 2986 2959 2960 2988 2987 2960 
2961 2989 2988 2961 2962 2990 2989 2962 2963 
2991 2990 2963 2964 2992 2991 2964 2965 2993 
2992 2965 2966 2994 2993 2966 2967 2995 2994 
2967 2968 2996 2995 2968 2969 2997 2996 2969 
2970 2998 2997 2970 2971 2999 2998 2971 2972 
3000 2999 2972 2973 3001 3000 2973 2974 3002 
3001 2974 2975 3003 3002 2975 2976 3004 3003 
2976 2977 3005 3004 2977 2978 3006 3005 2978 
2979 3007 3006 2979 2980 3008 3007 2980 2981 
3009 3008 2981 507 508 3009 293 2982 3010 
294 2982 2983 3011 3010 2983 2984 3012 3011 
2984 2985 3013 3012 2985 2986 3014 3013 2986 
2987 3015 3014 2987 2988 3016 3015 2988 2989 
3017 3016 2989 2990 3018 3017 2990 2991 3019 
3018 2991 2992 3020 3019 2992 2993 3021 3020 
2993 2994 3022 3021 2994 2995 3023 3022 2995 
2996 3024 3023 2996 2997 3025 3024 2997 2998 
3026 3025 2998 2999 3027 3026 2999 3000 3028 
3027 3000 3001 3029 3028 3001 3002 3030 3029 
3002 3003 3031 3030 3003 3004 3032 3031 3004 
3005 3033 3032 3005 3006 3034 3033 3006 3007 
3035 3034 3007 3008 3036 3035 3008 3009 3037 
3036 3009 508 509 3037 294 3010 3038 295 
3010 3011 3039 3038 3011 3012 3040 3039 3012 
3013 3041 3040 3013 3014 3042 3041 3014 3015 
3043 3042 3015 3016 3044 3043 3016 3017 3045 
3044 3017 3018 3046 3045 3018 3019 3047 3046 
3019 3020 3048 3047 3020 3021 3049 3048 3021 
3022 3050 3049 3022 3023 3051 3050 3023 3024 
3052 3051 3024 3025 3053 3052 3025 3026 3054 
3053 3026 3027 3055 3054 3027 3028 3056 3055 
3028 3029 3057 3056 3029 3030 3058 3057 3030 
3031 3059 3058 3031 3032 3060 3059 3032 3033 
3061 3060 3033 3034 3062 3061 3034 3035 3063 
3062 3035 3036 3064 3063 3036 3037 3065 3064 
3037 509 510 3065 295 3038 3066 296 3038 
3039 3067 3066 3039 3040 3068 3067 3040 3041 
3069 3068 3041 3042 3070 3069 3042 3043 3071 
3070 3043 3044 3072 3071 3044 3045 3073 3072 
3045 3046 3074 3073 3046 3047 3075 3074 3047 
3048 3076 3075 3048 3049 3077 3076 3049 3050 
3078 3077 3050 3051 3079 3078 3051 3052 3080 
3079 3052 3053 3081 3080 3053 3054 3082 3081 
3054 3055 3083 3082 3055 3056 3084 3083 3056 
3057 3085 3084 3057 3058 3086 3085 3058 3059 
3087 3086 3059 3060 3088 3087 3060 3061 3089 
3088 3061 3062 3090 3089 3062 3063 3091 3090 
3063 3064 3092 3091 3064 3065 3093 3092 3065 
510 511 3093 296 3066 3094 297 3066 3067 
3095 3094 3067 3068 3096 3095 3068 3069 3097 
3096 3069 3070 3098 3097 3070 3071 3099 3098 
3071 3072 3100 3099 3072 3073 3101 3100 3073 
3074 3102 3101 3074 3075 3103 3102 3075 3076 
3104 3103 3076 3077 3105 3104 3077 3078 3106 
3105 3078 3079 3107 3106 3079 3080 3108 3107 
3080 3081 3109 3108 3081 3082 3110 3109 3082 
3083 3111 3110 3083 3084 3112 3111 3084 3085 
3113 3112 3085 3086 3114 3113 3086 3087 3115 
3114 3087 3088 3116 3115 3088 3089 3117 3116 
3089 3090 3118 3117 3090 3091 3119 3118 3091 
3092 3120 3119 3092 3093 3121 3120 3093 511 
512 3121 297 3094 3122 298 3094 3095 3123 
3122 3095 3096 3124 3123 3096 3097 3125 3124 
3097 3098 3126 3125 3098 3099 3127 3126 3099 
3100 3128 3127 3100 3101 3129 3128 3101 3102 
3130 3129 3102 3103 3131 3130 3103 3104 3132 
3131 3104 3105 3133 3132 3105 3106 3134 3133 
3106 3107 3135 3134 3107 3108 3136 3135 3108 
3109 3137 3136 3109 3110 3138 3137 3110 3111 
3139 3138 3111 3112 3140 3139 3112 3113 3141 
3140 3113 3114 3142 3141 3114 3115 3143 3142 
3115 3116 3144 3143 3116 3117 3145 3144 3117 
3118 3146 3145 3118 3119 3147 3146 3119 3120 
3148 3147 3120 3121 3149 3148 3121 512 513 
3149 298 3122 3150 299 3122 3123 3151 3150 
3123 3124 3152 3151 3124 3125 3153 3152 3125 
3126 3154 3153 3126 3127 3155 3154 3127 3128 
3156 3155 3128 3129 3157 3156 3129 3130 3158 
3157 3130 3131 3159 3158 3131 3132 3160 3159 
3132 3133 3161 3160 3133 3134 3162 3161 3134 
3135 3163 3162 3135 3136 3164 3163 3136 3137 
3165 3164 3137 3138 3166 3165 3138 3139 3167 
3166 3139 3140 3168 3167 3140 3141 3169 3168 
3141 3142 3170 3169 3142 3143 3171 3170 3143 
3144 3172 3171 3144 3145 3173 3172 3145 3146 
3174 3173 3146 3147 3175 3174 3147 3148 3176 
3175 3148 3149 3177 3176 3149 513 514 3177 
299 3150 3178 300 3150 3151 3179 3178 3151 
3152 3180 3179 3152 3153 3181 3180 3153 3154 
3182 3181 3154 3155 3183 3182 3155 3156 3184 
3183 3156 3157 3185 3184 3157 3158 3186 3185 
3158 3159 3187 3186 3159 3160 3188 3187 3160 
3161 3189 3188 3161 3162 3190 3189 3162 3163 
3191 3190 3163 3164 3192 3191 3164 3165 3193 
3192 3165 3166 3194 3193 3166 3167 3195 3194 
3167 3168 3196 3195 3168 3169 3197 3196 3169 
3170 3198 3197 3170 3171 3199 3198 3171 3172 
3200 3199 3172 3173 3201 3200 3173 3174 3202 
3201 3174 3175 3203 3202 3175 3176 3204 3203 
3176 3177 3205 3204 3177 514 515 3205 300 
3178 3206 301 3178 3179 3207 3206 3179 3180 
3208 3207 3180 3181 3209 3208 3181 3182 3210 
3209 3182 3183 3211 3210 3183 3184 3212 3211 
3184 3185 3213 3212 3185 3186 3214 3213 3186 
3187 3215 3214 3187 3188 3216 3215 3188 3189 
3217 3216 3189 3190 3218 3217 3190 3191 3219 
3218 3191 3192 3220 3219 3192 3193 3221 3220 
3193 3194 3222 3221 3194 3195 3223 3222 3195 
3196 3224 3223 3196 3197 3225 3224 3197 3198 
3226 3225 3198 3199 3227 3226 3199 3200 3228 
3227 3200 3201 3229 3228 3201 3202 3230 3229 
3202 3203 3231 3230 3203 3204 3232 3231 3204 
3205 3233 3232 3205 515 516 3233 301 3206 
302 14 3206 3207 303 302 3207 3208 304 
303 3208 3209 305 304 3209 3210 306 305 
3210 3211 307 306 3211 3212 308 307 3212 
3213 309 308 3213 3214 310 309 3214 3215 
311 310 3215 3216 312 311 3216 3217 313 
312 3217 3218 314 313 3218 3219 315 314 
3219 3220 316 315 3220 3221 317 316 3221 
3222 318 317 3222 3223 319 318 3223 3224 
320 319 3224 3225 321 320 3225 3226 322 
321 3226 3227 323 322 3227 3228 324 323 
3228 3229 325 324 3229 3230 326 325 3230 
3231 327 326 3231 3232 328 327 3232 3233 
329 328 3233 516 15 329 15 516 3234 
330 516 515 3235 3234 515 514 3236 3235 
514 513 3237 3236 513 512 3238 3237 512 
511 3239 3238 511 510 3240 3239 510 509 
3241 3240 509 508 3242 3241 508 507 3243 
3242 507 506 3244 3243 506 505 3245 3244 
505 504 3246 3245 504 503 3247 3246 503 
502 3248 3247 502 6 160 3248 330 3234 
3249 331 3234 3235 3250 3249 3235 3236 3251 
3250 3236 3237 3252 3251 3237 3238 3253 3252 
3238 3239 3254 3253 3239 3240 3255 3254 3240 
3241 3256 3255 3241 3242 3257 3256 3242 3243 
3258 3257 3243 3244 3259 3258 3244 3245 3260 
3259 3245 3246 3261 3260 3246 3247 3262 3261 
3247 3248 3263 3262 3248 160 161 3263 331 
3249 3264 332 3249 3250 3265 3264 3250 3251 
3266 3265 3251 3252 3267 3266 3252 3253 3268 
3267 3253 3254 3269 3268 3254 3255 3270 3269 
3255 3256 3271 3270 3256 3257 3272 3271 3257 
3258 3273 3272 3258 3259 3274 3273 3259 3260 
3275 3274 3260 3261 3276 3275 3261 3262 3277 
3276 3262 3263 3278 3277 3263 161 162 3278 
332 3264 3279 333 3264 3265 3280 3279 3265 
3266 3281 3280 3266 3267 3282 3281 3267 3268 
3283 3282 3268 3269 3284 3283 3269 3270 3285 
3284 3270 3271 3286 3285 3271 3272 3287 3286 
3272 3273 3288 3287 3273 3274 3289 3288 3274 
3275 3290 3289 3275 3276 3291 3290 3276 3277 
3292 3291 3277 3278 3293 3292 3278 162 163 
3293 333 3279 3294 334 3279 3280 3295 3294 
3280 3281 3296 3295 3281 3282 3297 3296 3282 
3283 3298 3297 3283 3284 3299 3298 3284 3285 
3300 3299 3285 3286 3301 3300 3286 3287 3302 
3301 3287 3288 3303 3302 3288 3289 3304 3303 
3289 3290 3305 3304 3290 3291 3306 3305 3291 
3292 3307 3306 3292 3293 3308 3307 3293 163 
164 3308 334 3294 3309 335 3294 3295 3310 
3309 3295 3296 3311 3310 3296 3297 3312 3311 
3297 3298 3313 3312 3298 3299 3314 3313 3299 
3300 3315 3314 3300 3301 3316 3315 3301 3302 
3317 3316 3302 3303 3318 3317 3303 3304 3319 
3318 3304 3305 3320 3319 3305 3306 3321 3320 
3306 3307 3322 3321 3307 3308 3323 3322 3308 
164 165 3323 335 3309 3324 336 3309 3310 
3325 3324 3310 3311 3326 3325 3311 3312 3327 
3326 3312 3313 3328 3327 3313 3314 3329 3328 
3314 3315 3330 3329 3315 3316 3331 3330 3316 
3317 3332 3331 3317 3318 3333 3332 3318 3319 
3334 3333 3319 3320 3335 3334 3320 3321 3336 
3335 3321 3322 3337 3336 3322 3323 3338 3337 
3323 165 166 3338 336 3324 3339 337 3324 
3325 3340 3339 3325 3326 3341 3340 3326 3327 
3342 3341 3327 3328 3343 3342 3328 3329 3344 
3343 3329 3330 3345 3344 3330 3331 3346 3345 
3331 3332 3347 3346 3332 3333 3348 3347 3333 
3334 3349 3348 3334 3335 3350 3349 3335 3336 
3351 3350 3336 3337 3352 3351 3337 3338 3353 
3352 3338 166 167 3353 337 3339 3354 338 
3339 3340 3355 3354 3340 3341 3356 3355 3341 
3342 3357 3356 3342 3343 3358 3357 3343 3344 
3359 3358 3344 3345 3360 3359 3345 3346 3361 
3360 3346 3347 3362 3361 3347 3348 3363 3362 
3348 3349 3364 3363 3349 3350 3365 3364 3350 
3351 3366 3365 3351 3352 3367 3366 3352 3353 
3368 3367 3353 167 168 3368 338 3354 3369 
339 3354 3355 3370 3369 3355 3356 3371 3370 
3356 3357 3372 3371 3357 3358 3373 3372 3358 
3359 3374 3373 3359 3360 3375 3374 3360 3361 
3376 3375 3361 3362 3377 3376 3362 3363 3378 
3377 3363 3364 3379 3378 3364 3365 3380 3379 
3365 3366 3381 3380 3366 3367 3382 3381 3367 
3368 3383 3382 3368 168 169 3383 339 3369 
3384 340 3369 3370 3385 3384 3370 3371 3386 
3385 3371 3372 3387 3386 3372 3373 3388 3387 
3373 3374 3389 3388 3374 3375 3390 3389 3375 
3376 3391 3390 3376 3377 3392 3391 3377 3378 
3393 3392 3378 3379 3394 3393 3379 3380 3395 
3394 3380 3381 3396 3395 3381 3382 3397 3396 
3382 3383 3398 3397 3383 169 170 3398 340 
3384 3399 341 3384 3385 3400 3399 3385 3386 
3401 3400 3386 3387 3402 3401 3387 3388 3403 
3402 3388 3389 3404 3403 3389 3390 3405 3404 
3390 3391 3406 3405 3391 3392 3407 3406 3392 
3393 3408 3407 3393 3394 3409 3408 3394 3395 
3410 3409 3395 3396 3411 3410 3396 3397 3412 
3411 3397 3398 3413 3412 3398 170 171 3413 
341 3399 3414 342 3399 3400 3415 3414 3400 
3401 3416 3415 3401 3402 3417 3416 3402 3403 
3418 3417 3403 3404 3419 3418 3404 3405 3420 
3419 3405 3406 3421 3420 3406 3407 3422 3421 
3407 3408 3423 3422 3408 3409 3424 3423 3409 
3410 3425 3424 3410 3411 3426 3425 3411 3412 
3427 3426 3412 3413 3428 3427 3413 171 172 
3428 342 3414 3429 343 3414 3415 3430 3429 
3415 3416 3431 3430 3416 3417 3432 3431 3417 
3418 3433 3432 3418 3419 3434 3433 3419 3420 
3435 3434 3420 3421 3436 3435 3421 3422 3437 
3436 3422 3423 3438 3437 3423 3424 3439 3438 
3424 3425 3440 3439 3425 3426 3441 3440 3426 
3427 3442 3441 3427 3428 3443 3442 3428 172 
173 3443 343 3429 531 16 3429 3430 530 
531 3430 3431 529 530 3431 3432 528 529 
3432 3433 527 528 3433 3434 526 527 3434 
3435 525 526 3435 3436 524 525 3436 3437 
523 524 3437 3438 522 523 3438 3439 521 
522 3439 3440 520 521 3440 3441 519 520 
3441 3442 518 519 3442 3443 517 518 3443 
173 7 517 16 531 3444 344 531 530 
3445 3444 530 529 3446 3445 529 528 3447 
3446 528 527 3448 3447 527 526 3449 3448 
526 525 3450 3449 525 524 3451 3450 524 
523 3452 3451 523 522 3453 3452 522 521 
3454 3453 521 520 3455 3454 520 519 3456 
3455 519 518 3457 3456 518 517 3458 3457 
517 7 532 3458 344 3444 3459 345 3444 
3445 3460 3459 3445 3446 3461 3460 3446 3447 
3462 3461 3447 3448 3463 3462 3448 3449 3464 
3463 3449 3450 3465 3464 3450 3451 3466 3465 
3451 3452 3467 3466 3452 3453 3468 3467 3453 
3454 3469 3468 3454 3455 3470 3469 3455 3456 
3471 3470 3456 3457 3472 3471 3457 3458 3473 
3472 3458 532 533 3473 345 3459 3474 346 
3459 3460 3475 3474 3460 3461 3476 3475 3461 
3462 3477 3476 3462 3463 3478 3477 3463 3464 
3479 3478 3464 3465 3480 3479 3465 3466 3481 
3480 3466 3467 3482 3481 3467 3468 3483 3482 
3468 3469 3484 3483 3469 3470 3485 3484 3470 
3471 3486 3485 3471 3472 3487 3486 3472 3473 
3488 3487 3473 533 534 3488 346 3474 3489 
347 3474 3475 3490 3489 3475 3476 3491 3490 
3476 3477 3492 3491 3477 3478 3493 3492 3478 
3479 3494 3493 3479 3480 3495 3494 3480 3481 
3496 3495 3481 3482 3497 3496 3482 3483 3498 
3497 3483 3484 3499 3498 3484 3485 3500 3499 
3485 3486 3501 3500 3486 3487 3502 3501 3487 
3488 3503 3502 3488 534 535 3503 347 3489 
3504 348 3489 3490 3505 3504 3490 3491 3506 
3505 3491 3492 3507 3506 3492 3493 3508 3507 
3493 3494 3509 3508 3494 3495 3510 3509 3495 
3496 3511 3510 3496 3497 3512 3511 3497 3498 
3513 3512 3498 3499 3514 3513 3499 3500 3515 
3514 3500 3501 3516 3515 3501 3502 3517 3516 
3502 3503 3518 3517 3503 535 536 3518 348 
3504 3519 349 3504 3505 3520 3519 3505 3506 
3521 3520 3506 3507 3522 3521 3507 3508 3523 
3522 3508 3509 3524 3523 3509 3510 3525 3524 
3510 3511 3526 3525 3511 3512 3527 3526 3512 
3513 3528 3527 3513 3514 3529 3528 3514 3515 
3530 3529 3515 3516 3531 3530 3516 3517 3532 
3531 3517 3518 3533 3532 3518 536 537 3533 
349 3519 3534 350 3519 3520 3535 3534 3520 
3521 3536 3535 3521 3522 3537 3536 3522 3523 
3538 3537 3523 3524 3539 3538 3524 3525 3540 
3539 3525 3526 3541 3540 3526 3527 3542 3541 
3527 3528 3543 3542 3528 3529 3544 3543 3529 
3530 3545 3544 3530 3531 3546 3545 3531 3532 
3547 3546 3532 3533 3548 3547 3533 537 538 
3548 350 3534 3549 351 3534 3535 3550 3549 
3535 3536 3551 3550 3536 3537 3552 3551 3537 
3538 3553 3552 3538 3539 3554 3553 3539 3540 
3555 3554 3540 3541 3556 3555 3541 3542 3557 
3556 3542 3543 3558 3557 3543 3544 3559 3558 
3544 3545 3560 3559 3545 3546 3561 3560 3546 
3547 3562 3561 3547 3548 3563 3562 3548 538 
539 3563 351 3549 3564 352 3549 3550 3565 
3564 3550 3551 3566 3565 3551 3552 3567 3566 
3552 3553 3568 3567 3553 3554 3569 3568 3554 
3555 3570 3569 3555 3556 3571 3570 3556 3557 
3572 3571 3557 3558 3573 3572 3558 3559 3574 
3573 3559 3560 3575 3574 3560 3561 3576 3575 
3561 3562 3577 3576 3562 3563 3578 3577 3563 
539 540 3578 352 3564 3579 353 3564 3565 
3580 3579 3565 3566 3581 3580 3566 3567 3582 
3581 3567 3568 3583 3582 3568 3569 3584 3583 
3569 3570 3585 3584 3570 3571 3586 3585 3571 
3572 3587 3586 3572 3573 3588 3587 3573 3574 
3589 3588 3574 3575 3590 3589 3575 3576 3591 
3590 3576 3577 3592 3591 3577 3578 3593 3592 
3578 540 541 3593 353 3579 3594 354 3579 
3580 3595 3594 3580 3581 3596 3595 3581 3582 
3597 3596 3582 3583 3598 3597 3583 3584 3599 
3598 3584 3585 3600 3599 3585 3586 3601 3600 
3586 3587 3602 3601 3587 3588 3603 3602 3588 
3589 3604 3603 3589 3590 3605 3604 3590 3591 
3606 3605 3591 3592 3607 3606 3592 3593 3608 
3607 3593 541 542 3608 354 3594 3609 355 
3594 3595 3610 3609 3595 3596 3611 3610 3596 
3597 3612 3611 3597 3598 3613 3612 3598 3599 
3614 3613 3599 3600 3615 3614 3600 3601 3616 
3615 3601 3602 3617 3616 3602 3603 3618 3617 
3603 3604 3619 3618 3604 3605 3620 3619 3605 
3606 3621 3620 3606 3607 3622 3621 3607 3608 
3623 3622 3608 542 543 3623 355 3609 3624 
356 3609 3610 3625 3624 3610 3611 3626 3625 
3611 3612 3627 3626 3612 3613 3628 3627 3613 
3614 3629 3628 3614 3615 3630 3629 3615 3616 
3631 3630 3616 3617 3632 3631 3617 3618 3633 
3632 3618 3619 3634 3633 3619 3620 3635 3634 
3620 3621 3636 3635 3621 3622 3637 3636 3622 
3623 3638 3637 3623 543 544 3638 356 3624 
3639 357 3624 3625 3640 3639 3625 3626 3641 
3640 3626 3627 3642 3641 3627 3628 3643 3642 
3628 3629 3644 3643 3629 3630 3645 3644 3630 
3631 3646 3645 3631 3632 3647 3646 3632 3633 
3648 3647 3633 3634 3649 3648 3634 3635 3650 
3649 3635 3636 3651 3650 3636 3637 3652 3651 
3637 3638 3653 3652 3638 544 545 3653 357 
3639 3654 358 3639 3640 3655 3654 3640 3641 
3656 3655 3641 3642 3657 3656 3642 3643 3658 
3657 3643 3644 3659 3658 3644 3645 3660 3659 
3645 3646 3661 3660 3646 3647 3662 3661 3647 
3648 3663 3662 3648 3649 3664 3663 3649 3650 
3665 3664 3650 3651 3666 3665 3651 3652 3667 
3666 3652 3653 3668 3667 3653 545 546 3668 
358 3654 3669 359 3654 3655 3670 3669 3655 
3656 3671 3670 3656 3657 3672 3671 3657 3658 
3673 3672 3658 3659 3674 3673 3659 3660 3675 
3674 3660 3661 3676 3675 3661 3662 3677 3676 
3662 3663 3678 3677 3663 3664 3679 3678 3664 
3665 3680 3679 3665 3666 3681 3680 3666 3667 
3682 3681 3667 3668 3683 3682 3668 546 547 
3683 359 3669 3684 360 3669 3670 3685 3684 
3670 3671 3686 3685 3671 3672 3687 3686 3672 
3673 3688 3687 3673 3674 3689 3688 3674 3675 
3690 3689 3675 3676 3691 3690 3676 3677 3692 
3691 3677 3678 3693 3692 3678 3679 3694 3693 
3679 3680 3695 3694 3680 3681 3696 3695 3681 
3682 3697 3696 3682 3683 3698 3697 3683 547 
548 3698 360 3684 3699 361 3684 3685 3700 
3699 3685 3686 3701 3700 3686 3687 3702 3701 
3687 3688 3703 3702 3688 3689 3704 3703 3689 
3690 3705 3704 3690 3691 3706 3705 3691 3692 
3707 3706 3692 3693 3708 3707 3693 3694 3709 
3708 3694 3695 3710 3709 3695 3696 3711 3710 
3696 3697 3712 3711 3697 3698 3713 3712 3698 
548 549 3713 361 3699 3714 362 3699 3700 
3715 3714 3700 3701 3716 3715 3701 3702 3717 
3716 3702 3703 3718 3717 3703 3704 3719 3718 
3704 3705 3720 3719 3705 3706 3721 3720 3706 
3707 3722 3721 3707 3708 3723 3722 3708 3709 
3724 3723 3709 3710 3725 3724 3710 3711 3726 
3725 3711 3712 3727 3726 3712 3713 3728 3727 
3713 549 550 3728 362 3714 3729 363 3714 
3715 3730 3729 3715 3716 3731 3730 3716 3717 
3732 3731 3717 3718 3733 3732 3718 3719 3734 
3733 3719 3720 3735 3734 3720 3721 3736 3735 
3721 3722 3737 3736 3722 3723 3738 3737 3723 
3724 3739 3738 3724 3725 3740 3739 3725 3726 
3741 3740 3726 3727 3742 3741 3727 3728 3743 
3742 3728 550 551 3743 363 3729 3744 364 
3729 3730 3745 3744 3730 3731 3746 3745 3731 
3732 3747 3746 3732 3733 3748 3747 3733 3734 
3749 3748 3734 3735 3750 3749 3735 3736 3751 
3750 3736 3737 3752 3751 3737 3738 3753 3752 
3738 3739 3754 3753 3739 3740 3755 3754 3740 
3741 3756 3755 3741 3742 3757 3756 3742 3743 
3758 3757 3743 551 552 3758 364 3744 3759 
365 3744 3745 3760 3759 3745 3746 3761 3760 
3746 3747 3762 3761 3747 3748 3763 3762 3748 
3749 3764 3763 3749 3750 3765 3764 3750 3751 
3766 3765 3751 3752 3767 3766 3752 3753 3768 
3767 3753 3754 3769 3768 3754 3755 3770 3769 
3755 3756 3771 3770 3756 3757 3772 3771 3757 
3758 3773 3772 3758 552 553 3773 365 3759 
3774 366 3759 3760 3775 3774 3760 3761 3776 
3775 3761 3762 3777 3776 3762 3763 3778 3777 
3763 3764 3779 3778 3764 3765 3780 3779 3765 
3766 3781 3780 3766 3767 3782 3781 3767 3768 
3783 3782 3768 3769 3784 3783 3769 3770 3785 
3784 3770 3771 3786 3785 3771 3772 3787 3786 
3772 3773 3788 3787 3773 553 554 3788 366 
3774 3789 367 3774 3775 3790 3789 3775 3776 
3791 3790 3776 3777 3792 3791 3777 3778 3793 
3792 3778 3779 3794 3793 3779 3780 3795 3794 
3780 3781 3796 3795 3781 3782 3797 3796 3782 
3783 3798 3797 3783 3784 3799 3798 3784 3785 
3800 3799 3785 3786 3801 3800 3786 3787 3802 
3801 3787 3788 3803 3802 3788 554 555 3803 
367 3789 3804 368 3789 3790 3805 3804 3790 
3791 3806 3805 3791 3792 3807 3806 3792 3793 
3808 3807 3793 3794 3809 3808 3794 3795 3810 
3809 3795 3796 3811 3810 3796 3797 3812 3811 
3797 3798 3813 3812 3798 3799 3814 3813 3799 
3800 3815 3814 3800 3801 3816 3815 3801 3802 
3817 3816 3802 3803 3818 3817 3803 555 556 
3818 368 3804 3819 369 3804 3805 3820 3819 
3805 3806 3821 3820 3806 3807 3822 3821 3807 
3808 3823 3822 3808 3809 3824 3823 3809 3810 
3825 3824 3810 3811 3826 3825 3811 3812 3827 
3826 3812 3813 3828 3827 3813 3814 3829 3828 
3814 3815 3830 3829 3815 3816 3831 3830 3816 
3817 3832 3831 3817 3818 3833 3832 3818 556 
557 3833 369 3819 3834 370 3819 3820 3835 
3834 3820 3821 3836 3835 3821 3822 3837 3836 
3822 3823 3838 3837 3823 3824 3839 3838 3824 
3825 3840 3839 3825 3826 3841 3840 3826 3827 
3842 3841 3827 3828 3843 3842 3828 3829 3844 
3843 3829 3830 3845 3844 3830 3831 3846 3845 
3831 3832 3847 3846 3832 3833 3848 3847 3833 
557 558 3848 370 3834 3849 371 3834 3835 
3850 3849 3835 3836 3851 3850 3836 3837 3852 
3851 3837 3838 3853 3852 3838 3839 3854 3853 
3839 3840 3855 3854 3840 3841 3856 3855 3841 
3842 3857 3856 3842 3843 3858 3857 3843 3844 
3859 3858 3844 3845 3860 3859 3845 3846 3861 
3860 3846 3847 3862 3861 3847 3848 3863 3862 
3848 558 559 3863 371 3849 372 17 3849 
3850 373 372 3850 3851 374 373 3851 3852 
375 374 3852 3853 376 375 3853 3854 377 
376 3854 3855 378 377 3855 3856 379 378 
3856 3857 380 379 3857 3858 381 380 3858 
3859 382 381 3859 3860 383 382 3860 3861 
384 383 3861 3862 385 384 3862 3863 386 
385 3863 559 18 386 18 559 3864 387 
559 558 3865 3864 558 557 3866 3865 557 
556 3867 3866 556 555 3868 3867 555 554 
3869 3868 554 553 3870 3869 553 552 3871 
3870 552 551 3872 3871 551 550 3873 3872 
550 549 3874 3873 549 548 3875 3874 548 
547 3876 3875 547 546 3877 3876 546 545 
3878 3877 545 544 3879 3878 544 543 3880 
3879 543 542 3881 3880 542 541 3882 3881 
541 540 3883 3882 540 539 3884 3883 539 
538 3885 3884 538 537 3886 3885 537 536 
3887 3886 536 535 3888 3887 535 534 3889 
3888 534 533 3890 3889 533 532 3891 3890 
532 7 174 3891 387 3864 3892 388 3864 
3865 3893 3892 3865 3866 3894 3893 3866 3867 
3895 3894 3867 3868 3896 3895 3868 3869 3897 
3896 3869 3870 3898 3897 3870 3871 3899 3898 
3871 3872 3900 3899 3872 3873 3901 3900 3873 
3874 3902 3901 3874 3875 3903 3902 3875 3876 
3904 3903 3876 3877 3905 3904 3877 3878 3906 
3905 3878 3879 3907 3906 3879 3880 3908 3907 
3880 3881 3909 3908 3881 3882 3910 3909 3882 
3883 3911 3910 3883 3884 3912 3911 3884 3885 
3913 3912 3885 3886 3914 3913 3886 3887 3915 
3914 3887 3888 3916 3915 3888 3889 3917 3916 
3889 3890 3918 3917 3890 3891 3919 3918 3891 
174 175 3919 388 3892 3920 389 3892 3893 
3921 3920 3893 3894 3922 3921 3894 3895 3923 
3922 3895 3896 3924 3923 3896 3897 3925 3924 
3897 3898 3926 3925 3898 3899 3927 3926 3899 
3900 3928 3927 3900 3901 3929 3928 3901 3902 
3930 3929 3902 3903 3931 3930 3903 3904 3932 
3931 3904 3905 3933 3932 3905 3906 3934 3933 
3906 3907 3935 3934 3907 3908 3936 3935 3908 
3909 3937 3936 3909 3910 3938 3937 3910 3911 
3939 3938 3911 3912 3940 3939 3912 3913 3941 
3940 3913 3914 3942 3941 3914 3915 3943 3942 
3915 3916 3944 3943 3916 3917 3945 3944 3917 
3918 3946 3945 3918 3919 3947 3946 3919 175 
176 3947 389 3920 3948 390 3920 3921 3949 
3948 3921 3922 3950 3949 3922 3923 3951 3950 
3923 3924 3952 3951 3924 3925 3953 3952 3925 
3926 3954 3953 3926 3927 3955 3954 3927 3928 
3956 3955 3928 3929 3957 3956 3929 3930 3958 
3957 3930 3931 3959 3958 3931 3932 3960 3959 
3932 3933 3961 3960 3933 3934 3962 3961 3934 
3935 3963 3962 3935 3936 3964 3963 3936 3937 
3965 3964 3937 3938 3966 3965 3938 3939 3967 
3966 3939 3940 3968 3967 3940 3941 3969 3968 
3941 3942 3970 3969 3942 3943 3971 3970 3943 
3944 3972 3971 3944 3945 3973 3972 3945 3946 
3974 3973 3946 3947 3975 3974 3947 176 177 
3975 390 3948 3976 391 3948 3949 3977 3976 
3949 3950 3978 3977 3950 3951 3979 3978 3951 
3952 3980 3979 3952 3953 3981 3980 3953 3954 
3982 3981 3954 3955 3983 3982 3955 3956 3984 
3983 3956 3957 3985 3984 3957 3958 3986 3985 
3958 3959 3987 3986 3959 3960 3988 3987 3960 
3961 3989 3988 3961 3962 3990 3989 3962 3963 
3991 3990 3963 3964 3992 3991 3964 3965 3993 
3992 3965 3966 3994 3993 3966 3967 3995 3994 
3967 3968 3996 3995 3968 3969 3997 3996 3969 
3970 3998 3997 3970 3971 3999 3998 3971 3972 
4000 3999 3972 3973 4001 4000 3973 3974 4002 
4001 3974 3975 4003 4002 3975 177 178 4003 
391 3976 4004 392 3976 3977 4005 4004 3977 
3978 4006 4005 3978 3979 4007 4006 3979 3980 
4008 4007 3980 3981 4009 4008 3981 3982 4010 
4009 3982 3983 4011 4010 3983 3984 4012 4011 
3984 3985 4013 4012 3985 3986 4014 4013 3986 
3987 4015 4014 3987 3988 4016 4015 3988 3989 
4017 4016 3989 3990 4018 4017 3990 3991 4019 
4018 3991 3992 4020 4019 3992 3993 4021 4020 
3993 3994 4022 4021 3994 3995 4023 4022 3995 
3996 4024 4023 3996 3997 4025 4024 3997 3998 
4026 4025 3998 3999 4027 4026 3999 4000 4028 
4027 4000 4001 4029 4028 4001 4002 4030 4029 
4002 4003 4031 4030 4003 178 179 4031 392 
4004 4032 393 4004 4005 4033 4032 4005 4006 
4034 4033 4006 4007 4035 4034 4007 4008 4036 
4035 4008 4009 4037 4036 4009 4010 4038 4037 
4010 4011 4039 4038 4011 4012 4040 4039 4012 
4013 4041 4040 4013 4014 4042 4041 4014 4015 
4043 4042 4015 4016 4044 4043 4016 4017 4045 
4044 4017 4018 4046 4045 4018 4019 4047 4046 
4019 4020 4048 4047 4020 4021 4049 4048 4021 
4022 4050 4049 4022 4023 4051 4050 4023 4024 
4052 4051 4024 4025 4053 4052 4025 4026 4054 
4053 4026 4027 4055 4054 4027 4028 4056 4055 
4028 4029 4057 4056 4029 4030 4058 4057 4030 
4031 4059 4058 4031 179 180 4059 393 4032 
4060 394 4032 4033 4061 4060 4033 4034 4062 
4061 4034 4035 4063 4062 4035 4036 4064 4063 
4036 4037 4065 4064 4037 4038 4066 4065 4038 
4039 4067 4066 4039 4040 4068 4067 4040 4041 
4069 4068 4041 4042 4070 4069 4042 4043 4071 
4070 4043 4044 4072 4071 4044 4045 4073 4072 
4045 4046 4074 4073 4046 4047 4075 4074 4047 
4048 4076 4075 4048 4049 4077 4076 4049 4050 
4078 4077 4050 4051 4079 4078 4051 4052 4080 
4079 4052 4053 4081 4080 4053 4054 4082 4081 
4054 4055 4083 4082 4055 4056 4084 4083 4056 
4057 4085 4084 4057 4058 4086 4085 4058 4059 
4087 4086 4059 180 181 4087 394 4060 4088 
395 4060 4061 4089 4088 4061 4062 4090 4089 
4062 4063 4091 4090 4063 4064 4092 4091 4064 
4065 4093 4092 4065 4066 4094 4093 4066 4067 
4095 4094 4067 4068 4096 4095 4068 4069 4097 
4096 4069 4070 4098 4097 4070 4071 4099 4098 
4071 4072 4100 4099 4072 4073 4101 4100 4073 
4074 4102 4101 4074 4075 4103 4102 4075 4076 
4104 4103 4076 4077 4105 4104 4077 4078 4106 
4105 4078 4079 4107 4106 4079 4080 4108 4107 
4080 4081 4109 4108 4081 4082 4110 4109 4082 
4083 4111 4110 4083 4084 4112 4111 4084 4085 
4113 4112 4085 4086 4114 4113 4086 4087 4115 
4114 4087 181 182 4115 395 4088 4116 396 
4088 4089 4117 4116 4089 4090 4118 4117 4090 
4091 4119 4118 4091 4092 4120 4119 4092 4093 
4121 4120 4093 4094 4122 4121 4094 4095 4123 
4122 4095 4096 4124 4123 4096 4097 4125 4124 
4097 4098 4126 4125 4098 4099 4127 4126 4099 
4100 4128 4127 4100 4101 4129 4128 4101 4102 
4130 4129 4102 4103 4131 4130 4103 4104 4132 
4131 4104 4105 4133 4132 4105 4106 4134 4133 
4106 4107 4135 4134 4107 4108 4136 4135 4108 
4109 4137 4136 4109 4110 4138 4137 4110 4111 
4139 4138 4111 4112 4140 4139 4112 4113 4141 
4140 4113 4114 4142 4141 4114 4115 4143 4142 
4115 182 183 4143 396 4116 4144 397 4116 
4117 4145 4144 4117 4118 4146 4145 4118 4119 
4147 4146 4119 4120 4148 4147 4120 4121 4149 
4148 4121 4122 4150 4149 4122 4123 4151 4150 
4123 4124 4152 4151 4124 4125 4153 4152 4125 
4126 4154 4153 4126 4127 4155 4154 4127 4128 
4156 4155 4128 4129 4157 4156 4129 4130 4158 
4157 4130 4131 4159 4158 4131 4132 4160 4159 
4132 4133 4161 4160 4133 4134 4162 4161 4134 
4135 4163 4162 4135 4136 4164 4163 4136 4137 
4165 4164 4137 4138 4166 4165 4138 4139 4167 
4166 4139 4140 4168 4167 4140 4141 4169 4168 
4141 4142 4170 4169 4142 4143 4171 4170 4143 
183 184 4171 397 4144 4172 398 4144 4145 
4173 4172 4145 4146 4174 4173 4146 4147 4175 
4174 4147 4148 4176 4175 4148 4149 4177 4176 
4149 4150 4178 4177 4150 4151 4179 4178 4151 
4152 4180 4179 4152 4153 4181 4180 4153 4154 
4182 4181 4154 4155 4183 4182 4155 4156 4184 
4183 4156 4157 4185 4184 4157 4158 4186 4185 
4158 4159 4187 4186 4159 4160 4188 4187 4160 
4161 4189 4188 4161 4162 4190 4189 4162 4163 
4191 4190 4163 4164 4192 4191 4164 4165 4193 
4192 4165 4166 4194 4193 4166 4167 4195 4194 
4167 4168 4196 4195 4168 4169 4197 4196 4169 
4170 4198 4197 4170 4171 4199 4198 4171 184 
185 4199 398 4172 4200 399 4172 4173 4201 
4200 4173 4174 4202 4201 4174 4175 4203 4202 
4175 4176 4204 4203 4176 4177 4205 4204 4177 
4178 4206 4205 4178 4179 4207 4206 4179 4180 
4208 4207 4180 4181 4209 4208 4181 4182 4210 
4209 4182 4183 4211 4210 4183 4184 4212 4211 
4184 4185 4213 4212 4185 4186 4214 4213 4186 
4187 4215 4214 4187 4188 4216 4215 4188 4189 
4217 4216 4189 4190 4218 4217 4190 4191 4219 
4218 4191 4192 4220 4219 4192 4193 4221 4220 
4193 4194 4222 4221 4194 4195 4223 4222 4195 
4196 4224 4223 4196 4197 4225 4224 4197 4198 
4226 4225 4198 4199 4227 4226 4199 185 186 
4227 399 4200 4228 400 4200 4201 4229 4228 
4201 4202 4230 4229 4202 4203 4231 4230 4203 
4204 4232 4231 4204 4205 4233 4232 4205 4206 
4234 4233 4206 4207 4235 4234 4207 4208 4236 
4235 4208 4209 4237 4236 4209 4210 4238 4237 
4210 4211 4239 4238 4211 4212 4240 4239 4212 
4213 4241 4240 4213 4214 4242 4241 4214 4215 
4243 4242 4215 4216 4244 4243 4216 4217 4245 
4244 4217 4218 4246 4245 4218 4219 4247 4246 
4219 4220 4248 4247 4220 4221 4249 4248 4221 
4222 4250 4249 4222 4223 4251 4250 4223 4224 
4252 4251 4224 4225 4253 4252 4225 4226 4254 
4253 4226 4227 4255 4254 4227 186 187 4255 
400 4228 587 19 4228 4229 586 587 4229 
4230 585 586 4230 4231 584 585 4231 4232 
583 584 4232 4233 582 583 4233 4234 581 
582 4234 4235 580 581 4235 4236 579 580 
4236 4237 578 579 4237 4238 577 578 4238 
4239 576 577 4239 4240 575 576 4240 4241 
574 575 4241 4242 573 574 4242 4243 572 
573 4243 4244 571 572 4244 4245 570 571 
4245 4246 569 570 4246 4247 568 569 4247 
4248 567 568 4248 4249 566 567 4249 4250 
565 566 4250 4251 564 565 4251 4252 563 
564 4252 4253 562 563 4253 4254 561 562 
4254 4255 560 561 4255 187 4 560 
CELL_TYPES 4106
9
9
9
9
9
9
9
9
9
9
9
9
9
9
9
9
9
9
9
9
9
9
9
9
9
9
9
9
9
9
9
9
9
9
9
9
9
9
9
9
9
9
9
9
9
9
9
9
9
9
9
9
9
9
9
9
9
9
9
9
9
9
9
9
9
9
9
9
9
9
9
9
9
9
9
9
9
9
9
9
9
9
9
9
9
9
9
9
9
9
9
9
9
9
9
9
9
9
9
9
9
9
9
9
9
9
9
9
9
9
9
9
9
9
9
9
9
9
9
9
9
9
9
9
9
9
9
9
9
9
9
9
9
9
9
9
9
9
9
9
9
9
9
9
9
9
9
9
9
9
9
9
9
9
9
9
9
9
9
9
9
9
9
9
9
9
9
9
9
9
9
9
9
9
9
9
9
9
9
9
9
9
9
9
9
9
9
9
9
9
9
9
9
9
9
9
9
9
9
9
9
9
9
9
9
9
9
9
9
9
9
9
9
9
9
9
9
9
9
9
9
9
9
9
9
9
9
9
9
9
9
9
9
9
9
9
9
9
9
9
9
9
9
9
9
9
9
9
9
9
9
9
9
9
9
9
9
9
9
9
9
9
9
9
9
9
9
9
9
9
9
9
9
9
9
9
9
9
9
9
9
9
9
9
9
9
9
9
9
9
9
9
9
9
9
9
9
9
9
9
9
9
9
9
9
9
9
9
9
9
9
9
9
9
9
9
9
9
9
9
9
9
9
9
9
9
9
9
9
9
9
9
9
9
9
9
9
9
9
9
9
9
9
9
9
9
9
9
9
9
9
9
9
9
9
9
9
9
9
9
9
9
9
9
9
9
9
9
9
9
9
9
9
9
9
9
9
9
9
9
9
9
9
9
9
9
9
9
9
9
9
9
9
9
9
9
9
9
9
9
9
9
9
9
9
9
9
9
9
9
9
9
9
9
9
9
9
9
9
9
9
9
9
9
9
9
9
9
9
9
9
9
9
9
9
9
9
9
9
9
9
9
9
9
9
9
9
9
9
9
9
9
9
9
9
9
9
9
9
9
9
9
9
9
9
9
9
9
9
9
9
9
9
9
9
9
9
9
9
9
9
9
9
9
9
9
9
9
9
9
9
9
9
9
9
9
9
9
9
9
9
9
9
9
9
9
9
9
9
9
9
9
9
9
9
9
9
9
9
9
9
9
9
9
9
9
9
9
9
9
9
9
9
9
9
9
9
9
9
9
9
9
9
9
9
9
9
9
9
9
9
9
9
9
9
9
9
9
9
9
9
9
9
9
9
9
9
9
9
9
9
9
9
9
9
9
9
9
9
9
9
9
9
9
9
9
9
9
9
9
9
9
9
9
9
9
9
9
9
9
9
9
9
9
9
9
9
9
9
9
9
9
9
9
9
9
9
9
9
9
9
9
9
9
9
9
9
9
9
9
9
9
9
9
9
9
9
9
9
9
9
9
9
9
9
9
9
9
9
9
9
9
9
9
9
9
9
9
9
9
9
9
9
9
9
9
9
9
9
9
9
9
9
9
9
9
9
9
9
9
9
9
9
9
9
9
9
9
9
9
9
9
9
9
9
9
9
9
9
9
9
9
9
9
9
9
9
9
9
9
9
9
9
9
9
9
9
9
9
9
9
9
9
9
9
9
9
9
9
9
9
9
9
9
9
9
9
9
9
9
9
9
9
9
9
9
9
9
9
9
9
9
9
9
9
9
9
9
9
9
9
9
9
9
9
9
9
9
9
9
9
9
9
9
9
9
9
9
9
9
9
9
9
9
9
9
9
9
9
9
9
9
9
9
9
9
9
9
9
9
9
9
9
9
9
9
9
9
9
9
9
9
9
9
9
9
9
9
9
9
9
9
9
9
9
9
9
9
9
9
9
9
9
9
9
9
9
9
9
9
9
9
9
9
9
9
9
9
9
9
9
9
9
9
9
9
9
9
9
9
9
9
9
9
9
9
9
9
9
9
9
9
9
9
9
9
9
9
9
9
9
9
9
9
9
9
9
9
9
9
9
9
9
9
9
9
9
9
9
9
9
9
9
9
9
9
9
9
9
9
9
9
9
9
9
9
9
9
9
9
9
9
9
9
9
9
9
9
9
9
9
9
9
9
9
9
9
9
9
9
9
9
9
9
9
9
9
9
9
9
9
9
9
9
9
9
9
9
9
9
9
9
9
9
9
9
9
9
9
9
9
9
9
9
9
9
9
9
9
9
9
9
9
9
9
9
9
9
9
9
9
9
9
9
9
9
9
9
9
9
9
9
9
9
9
9
9
9
9
9
9
9
9
9
9
9
9
9
9
9
9
9
9
9
9
9
9
9
9
9
9
9
9
9
9
9
9
9
9
9
9
9
9
9
9
9
9
9
9
9
9
9
9
9
9
9
9
9
9
9
9
9
9
9
9
9
9
9
9
9
9
9
9
9
9
9
9
9
9
9
9
9
9
9
9
9
9
9
9
9
9
9
9
9
9
9
9
9
9
9
9
9
9
9
9
9
9
9
9
9
9
9
9
9
9
9
9
9
9
9
9
9
9
9
9
9
9
9
9
9
9
9
9
9
9
9
9
9
9
9
9
9
9
9
9
9
9
9
9
9
9
9
9
9
9
9
9
9
9
9
9
9
9
9
9
9
9
9
9
9
9
9
9
9
9
9
9
9
9
9
9
9
9
9
9
9
9
9
9
9
9
9
9
9
9
9
9
9
9
9
9
9
9
9
9
9
9
9
9
9
9
9
9
9
9
9
9
9
9
9
9
9
9
9
9
9
9
9
9
9
9
9
9
9
9
9
9
9
9
9
9
9
9
9
9
9
9
9
9
9
9
9
9
9
9
9
9
9
9
9
9
9
9
9
9
9
9
9
9
9
9
9
9
9
9
9
9
9
9
9
9
9
9
9
9
9
9
9
9
9
9
9
9
9
9
9
9
9
9
9
9
9
9
9
9
9
9
9
9
9
9
9
9
9
9
9
9
9
9
9
9
9
9
9
9
9
9
9
9
9
9
9
9
9
9
9
9
9
9
9
9
9
9
9
9
9
9
9
9
9
9
9
9
9
9
9
9
9
9
9
9
9
9
9
9
9
9
9
9
9
9
9
9
9
9
9
9
9
9
9
9
9
9
9
9
9
9
9
9
9
9
9
9
9
9
9
9
9
9
9
9
9
9
9
9
9
9
9
9
9
9
9
9
9
9
9
9
9
9
9
9
9
9
9
9
9
9
9
9
9
9
9
9
9
9
9
9
9
9
9
9
9
9
9
9
9
9
9
9
9
9
9
9
9
9
9
9
9
9
9
9
9
9
9
9
9
9
9
9
9
9
9
9
9
9
9
9
9
9
9
9
9
9
9
9
9
9
9
9
9
9
9
9
9
9
9
9
9
9
9
9
9
9
9
9
9
9
9
9
9
9
9
9
9
9
9
9
9
9
9
9
9
9
9
9
9
9
9
9
9
9
9
9
9
9
9
9
9
9
9
9
9
9
9
9
9
9
9
9
9
9
9
9
9
9
9
9
9
9
9
9
9
9
9
9
9
9
9
9
9
9
9
9
9
9
9
9
9
9
9
9
9
9
9
9
9
9
9
9
9
9
9
9
9
9
9
9
9
9
9
9
9
9
9
9
9
9
9
9
9
9
9
9
9
9
9
9
9
9
9
9
9
9
9
9
9
9
9
9
9
9
9
9
9
9
9
9
9
9
9
9
9
9
9
9
9
9
9
9
9
9
9
9
9
9
9
9
9
9
9
9
9
9
9
9
9
9
9
9
9
9
9
9
9
9
9
9
9
9
9
9
9
9
9
9
9
9
9
9
9
9
9
9
9
9
9
9
9
9
9
9
9
9
9
9
9
9
9
9
9
9
9
9
9
9
9
9
9
9
9
9
9
9
9
9
9
9
9
9
9
9
9
9
9
9
9
9
9
9
9
9
9
9
9
9
9
9
9
9
9
9
9
9
9
9
9
9
9
9
9
9
9
9
9
9
9
9
9
9
9
9
9
9
9
9
9
9
9
9
9
9
9
9
9
9
9
9
9
9
9
9
9
9
9
9
9
9
9
9
9
9
9
9
9
9
9
9
9
9
9
9
9
9
9
9
9
9
9
9
9
9
9
9
9
9
9
9
9
9
9
9
9
9
9
9
9
9
9
9
9
9
9
9
9
9
9
9
9
9
9
9
9
9
9
9
9
9
9
9
9
9
9
9
9
9
9
9
9
9
9
9
9
9
9
9
9
9
9
9
9
9
9
9
9
9
9
9
9
9
9
9
9
9
9
9
9
9
9
9
9
9
9
9
9
9
9
9
9
9
9
9
9
9
9
9
9
9
9
9
9
9
9
9
9
9
9
9
9
9
9
9
9
9
9
9
9
9
9
9
9
9
9
9
9
9
9
9
9
9
9
9
9
9
9
9
9
9
9
9
9
9
9
9
9
9
9
9
9
9
9
9
9
9
9
9
9
9
9
9
9
9
9
9
9
9
9
9
9
9
9
9
9
9
9
9
9
9
9
9
9
9
9
9
9
9
9
9
9
9
9
9
9
9
9
9
9
9
9
9
9
9
9
9
9
9
9
9
9
9
9
9
9
9
9
9
9
9
9
9
9
9
9
9
9
9
9
9
9
9
9
9
9
9
9
9
9
9
9
9
9
9
9
9
9
9
9
9
9
9
9
9
9
9
9
9
9
9
9
9
9
9
9
9
9
9
9
9
9
9
9
9
9
9
9
9
9
9
9
9
9
9
9
9
9
9
9
9
9
9
9
9
9
9
9
9
9
9
9
9
9
9
9
9
9
9
9
9
9
9
9
9
9
9
9
9
9
9
9
9
9
9
9
9
9
9
9
9
9
9
9
9
9
9
9
9
9
9
9
9
9
9
9
9
9
9
9
9
9
9
9
9
9
9
9
9
9
9
9
9
9
9
9
9
9
9
9
9
9
9
9
9
9
9
9
9
9
9
9
9
9
9
9
9
9
9
9
9
9
9
9
9
9
9
9
9
9
9
9
9
9
9
9
9
9
9
9
9
9
9
9
9
9
9
9
9
9
9
9
9
9
9
9
9
9
9
9
9
9
9
9
9
9
9
9
9
9
9
9
9
9
9
9
9
9
9
9
9
9
9
9
9
9
9
9
9
9
9
9
9
9
9
9
9
9
9
9
9
9
9
9
9
9
9
9
9
9
9
9
9
9
9
9
9
9
9
9
9
9
9
9
9
9
9
9
9
9
9
9
9
9
9
9
9
9
9
9
9
9
9
9
9
9
9
9
9
9
9
9
9
9
9
9
9
9
9
9
9
9
9
9
9
9
9
9
9
9
9
9
9
9
9
9
9
9
9
9
9
9
9
9
9
9
9
9
9
9
9
9
9
9
9
9
9
9
9
9
9
9
9
9
9
9
9
9
9
9
9
9
9
9
9
9
9
9
9
9
9
9
9
9
9
9
9
9
9
9
9
9
9
9
9
9
9
9
9
9
9
9
9
9
9
9
9
9
9
9
9
9
9
9
9
9
9
9
9
9
9
9
9
9
9
9
9
9
9
9
9
9
9
9
9
9
9
9
9
9
9
9
9
9
9
9
9
9
9
9
9
9
9
9
9
9
9
9
9
9
9
9
9
9
9
9
9
9
9
9
9
9
9
9
9
9
9
9
9
9
9
9
9
9
9
9
9
9
9
9
9
9
9
9
9
9
9
9
9
9
9
9
9
9
9
9
9
9
9
9
9
9
9
9
9
9
9
9
9
9
9
9
9
9
9
9
9
9
9
9
9
9
9
9
9
9
9
9
9
9
9
9
9
9
9
9
9
9
9
9
9
9
9
9
9
9
9
9
9
9
9
9
9
9
9
9
9
9
9
9
9
9
9
9
9
9
9
9
9
9
9
9
9
9
9
9
9
9
9
9
9
9
9
9
9
9
9
9
9
9
9
9
9
9
9
9
9
9
9
9
9
9
9
9
9
9
9
9
9
9
9
9
9
9
9
9
9
9
9
9
9
9
9
9
9
9
9
9
9
9
9
9
9
9
9
9
9
9
9
9
9
9
9
9
9
9
9
9
9
9
9
9
9
9
9
9
9
9
9
9
9
9
9
9
9
9
9
9
9
9
9
9
9
9
9
9
9
9
9
9
9
9
9
9
9
9
9
9
9
9
9
9
9
9
9
9
9
9
9
9
9
9
9
9
9
9
9
9
9
9
9
9
9
9
9
9
9
9
9
9
9
9
9
9
9
9
9
9
9
9
9
9
9
9
9
9
9
9
9
9
9
9
9
9
9
9
9
9
9
9
9
9
9
9
9
9
9
9
9
9
9
9
9
9
9
9
9
9
9
9
9
9
9
9
9
9
9
9
9
9
9
9
9
9
9
9
9
9
9
9
9
9
9
9
9
9
9
9
9
9
9
9
9
9
9
9
9
9
9
9
9
9
9
9
9
9
9
9
9
9
9
9
9
9
9
9
9
9
9
9
9
9
9
9
9
9
9
9
9
9
9
9
9
9
9
9
9
9
9
9
9
9
9
9
9
9
9
9
9
9
9
9
9
9
9
9
9
9
9
9
9
9
9
9
9
9
9
9
9
9
9
9
9
9
9
9
9
9
9
9
9
9
9
9
9
9
9
9
9
9
9
9
9
9
9
9
9
9
9
9
9
9
9
9
9
9
9
9
9
9
9
9
9
9
9
9
9
9
9
9
9
9
9
9
9
9
9
9
9
9
9
9
9
9
9
9
9
9
9
9
9
9
9
9
9
9
9
9
9
9
9
9
9
9
9
9
9
9
9
9
9
9
9
9
9
9
9
9
9
9
9
9
9
9
9
9
9
9
9
9
9
9
9
9
9
9
9
9
9
9
9
9
9
9
9
9
9
9
9
9
9
9
9
9
9
9
9
9
9
9
9
9
9
9
9
9
9
9
9
9
9
9
9
9
9
9
9
9
9
9
9
9
9
9
9
9
9
9
9
9
9
9
9
9
9
9
9
9
9
9
9
9
9
9
9
9
9
9
9
9
9
9
9
9
9
9
9
9
9
9
9
9
9
9
9
9
9
9
9
9
9
9
9
9
9
9
9
9
9
9
9
9
9
9
9
9
9
9
9
9
9
9
9
9
9
9
9
9
9
9
9
9
9
9
9
9
9
9
9
9
9
9
9
9
9
9
9
9
9
9
9
9
9
9
9
9
9
9
9
9
9
9
9
9
9
9
9
9
9
9
9
9
9
9
9
9
9
9
9
9
9
9
9
9
9
9
9
9
9
9
9
9
9
9
9
9
9
9
9
9
9
9
9
9
9
9
9
9
9
9
9
9
9
9
9
9
9
9
9
9
9
9
9
9
9
9
9
9
9
9
9
9
9
9
9
9
9
9
9
9
9
9
9
9
9
9
9
9
9
9
9
9
9
9
9
9
9
9
9
9
9
9
9
9
9
9
9
9
9
9
9
9
9
9
9
9
9
9
9
9
9
9
9
9
9
9
9
9
9
9
9
9
9
9
9
9
9
9
9
9
9
9
9
9
9
9
9
9
9
9
9
9
9
9
9
9
9
9
9
9
9
9
9
9
9
9
9
9
9
9
9
9
9
9
9
9
9
9
9
9
9
9
9
9
9
9
9
9
9
9
9
9
9
9
9
9
9
9
9
9
9
9
9
9
9
9
9
9
9
9
9
9
9
9
9
9
9
9
9
9
9
9
9
9
9
9
9
9
9
9
9
9
9
9
9
9
9
9
9
9
9
9
9
9
9
9
9
9
9
9
9
9
9
9
9
9
9
9
9
9
9
9
9
9
9
9
9
9
9
9
9
9
9
9
9
9
9
9
9
9
9
9
9
9
9
9
9
9
9
9
9
9
9
9
9
9
9
9
9
9
9
9
9
9
9
9
9
9
9
9
9
9
9
9
9
9
9
9
9
9
9
9
9
9
9
9
9
9
9
9
9
9
9
9
9
9
9
9
9
9
9
9
9
9
9
9
9
9
9
9
9
9
9
9
9
9
9
9
9
9
9
9
9
9
9
9
9
9
9
9
9
9
9
9
9
9
9
9
9
9
9
9
9
9
9
9
9
9
9
9
9
9
9
9
9
9
9
9
9
9
9
9
9
9
9
9
9
9
9
9
9
9
9
9
9
9
9
9
9
9
9
9
9
9
9
9
9
9
9
9
9
9
9
9
9
9
9
9
9
9
9
9
9
9
9
9
9
9
9
9
9
9
9
9
9
9
9
9
9
9
9
9
9
9
9
9
9
9
9
9
9
9
9
9
9
9
9
9
9
9
9
9
9
9
9
9
9
9
9
9
9
9
9
9
9
9
9
9
9
9
9
9
9
9
9
9
9
9
9
9
9
9
9
9
9
9
9
9
9
9
9
9
9
9
9
9
9
9
9
9
9
9
9
9
9
9
9
9
9
9
9
9
9
9
9
9
9
9
9
9
9
9
9
9
9
9
9
9
9
9
9
9
9
9
9
9
9
9
9
9
9
9
9
9
9
9
9
9
9
9
9
9
9
9
9
9
9
9
9
9
9
9
9
9
9
9
9
9
9
9
9
9
9
9
9
9
9
9
9
9
9
9
9
9
9
9
9
9
9
9
9
9
9
9
9
9
9
9
9
9
9
9
9
9
9
9
9
9
9
9
9
9
9
9
9
9
9
9
9
9
9
9
9
9
9
9
9
9
9
9
9
9
9
9
9
9
9
9
9
9
9
9
9
9
9
9
9
9
9
9
9
9
9
9
9
9
9
9
9
9
9
9
9
9
9
9
9
9
9
9
9
9
9
9
9
9
9
9
9
9
9
9
9
9
9
9
9
9
9
9
9
9
9
9
9
9
9
9
9
9
9
9
9
9
9
9
9
9
9
9
9
9
9
9
9
9
9
9
9
9
9
9
9
9
9
9
9
9
9
9
9
9
9
9
9
9
9
9
9
9
9
9
9
9
9
9
9
9
9
9
9
9
9
9
9
9
9
9
9
9
9
9
9
9
9
9
9
9
9
9
9
9
9
9
9
9
9
9
9
9
9
9
9
9
9
9
9
9
9
9
9
9
9
9
9
9
9
9
9
9
9
9
9
9
9
9
9
9
9
9
9
9
9
9
9
9
9
9
9
9
9
9
9
9
9
9
9
9
9
9
9
9
9
9
9
9
9
9
9
9
9
9
9
9
9
9
9
9
9
9
9
9
9
9
9
9
9
9
9
9
9
9
9
9
9
9
9
9
9
9
9
9
9
9
9
9
9
9
9
9
9
9
9
9
9
9
9
9
9
9

POINT_DATA 4256
FIELD FieldData 5
U 3 4256 double
0.0016167 0.0192614 0 0.00161888 0.0142524 0 0.00331662 0.0142524 0 
0.0033188 0.0192614 0 0.00136655 0.0205755 0 0.0013513 0.0128971 0 
0.00358419 0.0128971 0 0.00356895 0.0205755 0 0.00246775 0.0330955 0 
-0.0010207 0.0199744 0 -0.00106109 0.0131783 0 -0.000744143 0 0 
0.00147023 0 0 0.00346527 0 0 0.00567964 0 0 
0.00599659 0.0131783 0 0.0059562 0.0199744 0 0.00246775 0.0330955 0 
0.00246775 0.0330955 0 0.00246775 0.0330955 0 0.00146076 0.0202706 0 
0.00154581 0.0200013 0 0.0016218 0.0197655 0 0.00168883 0.0195612 0 
0.00174684 0.0193867 0 0.00179564 0.0192409 0 0.00183485 0.0191228 0 
0.00186379 0.019032 0 0.00188142 0.0189687 0 0.00188625 0.0189336 0 
0.00187621 0.018928 0 0.00184851 0.0189542 0 0.00179946 0.0190154 0 
0.00172431 0.0191159 0 0.00144927 0.0132101 0 0.00153716 0.013486 0 
0.0016153 0.0137271 0 0.00168394 0.0139357 0 0.00174319 0.0141135 0 
0.00179297 0.0142621 0 0.00183295 0.0143824 0 0.00186252 0.0144749 0 
0.00188071 0.0145396 0 0.00188603 0.0145759 0 0.00187645 0.0145825 0 
0.0018492 0.0145571 0 0.00180063 0.0144967 0 0.00172595 0.014397 0 
0.00348623 0.0132101 0 0.00339833 0.013486 0 0.00332019 0.0137271 0 
0.00325155 0.0139357 0 0.0031923 0.0141135 0 0.00314253 0.0142621 0 
0.00310255 0.0143824 0 0.00307297 0.0144749 0 0.00305479 0.0145396 0 
0.00304946 0.0145759 0 0.00305904 0.0145825 0 0.00308629 0.0145571 0 
0.00313487 0.0144967 0 0.00320954 0.014397 0 0.00347473 0.0202706 0 
0.00338969 0.0200013 0 0.00331369 0.0197655 0 0.00324667 0.0195612 0 
0.00318866 0.0193867 0 0.00313985 0.0192409 0 0.00310065 0.0191228 0 
0.00307171 0.019032 0 0.00305408 0.0189687 0 0.00304925 0.0189336 0 
0.00305929 0.018928 0 0.00308699 0.0189542 0 0.00313603 0.0190154 0 
0.00321119 0.0191159 0 0.00153119 0.0189871 0 0.00145522 0.0186869 0 
0.00139025 0.018365 0 0.00133707 0.0180252 0 0.0012964 0.0176715 0 
0.00126892 0.0173078 0 0.00125515 0.0169381 0 0.00125539 0.0165666 0 
0.00126963 0.0161974 0 0.00129754 0.0158344 0 0.00133859 0.0154818 0 
0.00139207 0.0151435 0 0.00145726 0.0148233 0 0.00153334 0.0145249 0 
0.00171109 0.0140053 0 0.00181251 0.0137874 0 0.00192141 0.0136016 0 
0.00203645 0.01345 0 0.00215626 0.0133345 0 0.00227949 0.0132566 0 
0.00240477 0.0132173 0 0.00253073 0.0132173 0 0.00265601 0.0132566 0 
0.00277923 0.0133345 0 0.00289905 0.01345 0 0.00301408 0.0136016 0 
0.00312299 0.0137874 0 0.00322441 0.0140053 0 0.00340215 0.0145249 0 
0.00347824 0.0148233 0 0.00354342 0.0151435 0 0.00359691 0.0154818 0 
0.00363795 0.0158344 0 0.00366587 0.0161974 0 0.0036801 0.0165666 0 
0.00368035 0.0169381 0 0.00366658 0.0173078 0 0.0036391 0.0176715 0 
0.00359843 0.0180252 0 0.00354524 0.018365 0 0.00348027 0.0186869 0 
0.00340431 0.0189871 0 0.00322653 0.0195104 0 0.00312496 0.0197302 0 
0.00301582 0.0199177 0 0.00290048 0.0200707 0 0.0027803 0.0201873 0 
0.00265667 0.020266 0 0.00253095 0.0203057 0 0.00240454 0.0203057 0 
0.00227883 0.020266 0 0.0021552 0.0201873 0 0.00203502 0.0200707 0 
0.00191967 0.0199177 0 0.00181054 0.0197302 0 0.00170896 0.0195104 0 
0.0013147 0.0200639 0 0.00124868 0.0195443 0 0.00116733 0.0190198 0 
0.00107391 0.0184954 0 0.000978171 0.0179775 0 0.000896825 0.0174707 0 
0.000849262 0.016975 0 0.000848942 0.0164841 0 0.000895759 0.0159889 0 
0.000976067 0.0154831 0 0.00107034 0.0149666 0 0.0011618 0.0144441 0 
0.00124058 0.013922 0 0.00130337 0.0134053 0 0.00152971 0.0128205 0 
0.00170939 0.0127245 0 0.00188514 0.0126088 0 0.00204965 0.012479 0 
0.00219528 0.0123488 0 0.00231775 0.0122401 0 0.00242038 0.0121774 0 
0.00251511 0.0121774 0 0.00261775 0.0122401 0 0.00274022 0.0123488 0 
0.00288584 0.012479 0 0.00305036 0.0126088 0 0.00322611 0.0127245 0 
0.00340578 0.0128205 0 0.00363212 0.0134053 0 0.00369492 0.013922 0 
0.0037737 0.0144441 0 0.00386515 0.0149666 0 0.00395943 0.0154831 0 
0.00403974 0.0159889 0 0.00408655 0.0164841 0 0.00408623 0.016975 0 
0.00403867 0.0174707 0 0.00395733 0.0179775 0 0.00386159 0.0184954 0 
0.00376816 0.0190198 0 0.00368682 0.0195443 0 0.00362079 0.0200639 0 
0.003392 0.0206666 0 0.003214 0.0207754 0 0.00304011 0.020902 0 
0.00287763 0.0210408 0 0.00273419 0.0211778 0 0.00261405 0.0212911 0 
0.00251387 0.0213562 0 0.00242163 0.0213562 0 0.00232145 0.0212911 0 
0.00220131 0.0211778 0 0.00205787 0.0210408 0 0.00189538 0.020902 0 
0.0017215 0.0207754 0 0.0015435 0.0206666 0 0.00192984 0.0323273 0 
0.00158006 0.0317427 0 0.00128654 0.0312343 0 0.00104073 0.0307586 0 
0.000828169 0.0303024 0 0.000642005 0.0298583 0 0.000477369 0.0294223 0 
0.000330806 0.0289917 0 0.00019966 0.0285646 0 8.18121e-05 0.0281396 0 
-2.44866e-05 0.0277157 0 -0.000120716 0.0272923 0 -0.000208154 0.0268687 0 
-0.000287917 0.0264445 0 -0.000360997 0.0260195 0 -0.000428274 0.0255933 0 
-0.000490538 0.0251659 0 -0.000548492 0.0247373 0 -0.000602761 0.0243073 0 
-0.00065389 0.0238762 0 -0.000702344 0.023444 0 -0.000748507 0.023011 0 
-0.000792676 0.0225772 0 -0.000835056 0.022143 0 -0.000875761 0.0217086 0 
-0.000914805 0.0212743 0 -0.000952108 0.0208403 0 -0.000987494 0.020407 0 
-0.00105284 0.0195218 0 -0.0010818 0.0190703 0 -0.00110711 0.0186198 0 
-0.00112833 0.0181703 0 -0.00114504 0.0177215 0 -0.00115692 0.0172729 0 
-0.00116377 0.0168243 0 -0.00116554 0.0163751 0 -0.00116231 0.0159248 0 
-0.00115434 0.015473 0 -0.00114203 0.0150191 0 -0.00112592 0.014563 0 
-0.0011066 0.0141042 0 -0.00108477 0.0136426 0 -0.00103745 0.0127329 0 
-0.00101329 0.0122852 0 -0.000989137 0.0118353 0 -0.000965408 0.0113835 0 
-0.000942465 0.01093 0 -0.00092059 0.0104752 0 -0.000899995 0.0100192 0 
-0.000880825 0.00956238 0 -0.000863168 0.00910497 0 -0.000847057 0.00864721 0 
-0.000832488 0.00818927 0 -0.000819422 0.00773134 0 -0.000807795 0.00727355 0 
-0.000797524 0.00681601 0 -0.000788517 0.00635882 0 -0.000780672 0.00590203 0 
-0.000773888 0.00544568 0 -0.000768061 0.0049898 0 -0.000763094 0.00453438 0 
-0.000758893 0.00407944 0 -0.000755372 0.00362493 0 -0.000752452 0.00317084 0 
-0.000750065 0.00271712 0 -0.000748147 0.00226374 0 -0.000746649 0.00181064 0 
-0.000745528 0.00135777 0 -0.00074475 0.000905084 0 -0.000744293 0.000452512 0 
-0.00060243 0 0 -0.000460913 0 0 -0.000319679 0 0 
-0.000178799 0 0 -3.8335e-05 0 0 0.000101663 0 0 
0.000241153 0 0 0.000380099 0 0 0.000518474 0 0 
0.000656256 0 0 0.000793431 0 0 0.000929992 0 0 
0.00106594 0 0 0.00120128 0 0 0.00133603 0 0 
0.00160442 0 0 0.00173812 0 0 0.0018714 0 0 
0.00200432 0 0 0.00213694 0 0 0.00226935 0 0 
0.00240163 0 0 0.00253387 0 0 0.00266615 0 0 
0.00279856 0 0 0.00293118 0 0 0.00306409 0 0 
0.00319737 0 0 0.00333108 0 0 0.00359946 0 0 
0.00373422 0 0 0.00386956 0 0 0.0040055 0 0 
0.00414207 0 0 0.00427924 0 0 0.00441702 0 0 
0.0045554 0 0 0.00469434 0 0 0.00483383 0 0 
0.00497383 0 0 0.0051143 0 0 0.00525517 0 0 
0.00539641 0 0 0.00553793 0 0 0.00567979 0.000452512 0 
0.00568025 0.000905084 0 0.00568102 0.00135777 0 0.00568215 0.00181064 0 
0.00568364 0.00226374 0 0.00568556 0.00271712 0 0.00568795 0.00317084 0 
0.00569087 0.00362493 0 0.00569439 0.00407944 0 0.00569859 0.00453438 0 
0.00570356 0.0049898 0 0.00570938 0.00544568 0 0.00571617 0.00590203 0 
0.00572401 0.00635882 0 0.00573302 0.00681601 0 0.00574329 0.00727355 0 
0.00575492 0.00773134 0 0.00576798 0.00818927 0 0.00578255 0.00864721 0 
0.00579866 0.00910497 0 0.00581632 0.00956238 0 0.00583549 0.0100192 0 
0.00585609 0.0104752 0 0.00587796 0.01093 0 0.0059009 0.0113835 0 
0.00592463 0.0118353 0 0.00594879 0.0122852 0 0.00597294 0.0127329 0 
0.00602026 0.0136426 0 0.0060421 0.0141042 0 0.00606141 0.014563 0 
0.00607753 0.0150191 0 0.00608983 0.015473 0 0.0060978 0.0159248 0 
0.00610103 0.0163751 0 0.00609927 0.0168243 0 0.00609242 0.0172729 0 
0.00608053 0.0177215 0 0.00606382 0.0181703 0 0.00604261 0.0186198 0 
0.0060173 0.0190703 0 0.00598834 0.0195218 0 0.00592299 0.020407 0 
0.0058876 0.0208403 0 0.0058503 0.0212743 0 0.00581126 0.0217086 0 
0.00577055 0.022143 0 0.00572817 0.0225772 0 0.005684 0.023011 0 
0.00563784 0.023444 0 0.00558939 0.0238762 0 0.00553826 0.0243073 0 
0.00548399 0.0247373 0 0.00542603 0.0251659 0 0.00536377 0.0255933 0 
0.00529649 0.0260195 0 0.00522341 0.0264445 0 0.00514365 0.0268687 0 
0.00505621 0.0272923 0 0.00495998 0.0277157 0 0.00485368 0.0281396 0 
0.00473584 0.0285646 0 0.00460469 0.0289917 0 0.00445813 0.0294223 0 
0.00429349 0.0298583 0 0.00410733 0.0303024 0 0.00389476 0.0307586 0 
0.00364896 0.0312343 0 0.00335544 0.0317427 0 0.00300566 0.0323273 0 
0.00246775 0.0330955 0 0.00246775 0.0330955 0 0.00246775 0.0330955 0 
0.00246775 0.0330955 0 0.00246775 0.0330955 0 0.00246775 0.0330955 0 
0.00246775 0.0330955 0 0.00246775 0.0330955 0 0.00246775 0.0330955 0 
0.00246775 0.0330955 0 0.00246775 0.0330955 0 0.00246775 0.0330955 0 
0.00246775 0.0330955 0 0.00246775 0.0330955 0 0.00246775 0.0330955 0 
0.00246775 0.0330955 0 0.00246775 0.0330955 0 0.00246775 0.0330955 0 
0.00246775 0.0330955 0 0.00246775 0.0330955 0 0.00246775 0.0330955 0 
0.00246775 0.0330955 0 0.00246775 0.0330955 0 0.00246775 0.0330955 0 
0.00246775 0.0330955 0 0.00246775 0.0330955 0 0.00246775 0.0330955 0 
0.00246775 0.0330955 0 0.00246775 0.0330955 0 0.00246775 0.0330955 0 
0.00246775 0.0330955 0 0.00246775 0.0330955 0 0.00246775 0.0330955 0 
0.00246775 0.0330955 0 0.00246775 0.0330955 0 0.00246775 0.0330955 0 
0.00246775 0.0330955 0 0.00246775 0.0330955 0 0.00246775 0.0330955 0 
0.00246775 0.0330955 0 0.00246775 0.0330955 0 0.00246775 0.0330955 0 
0.00246775 0.0330955 0 0.00246775 0.0330955 0 0.00119264 0.0205037 0 
0.0010239 0.0204435 0 0.000860265 0.0203929 0 0.000701234 0.0203495 0 
0.000546167 0.0203111 0 0.000394422 0.0202763 0 0.000245432 0.0202439 0 
9.87354e-05 0.0202132 0 -4.60289e-05 0.0201834 0 -0.000189128 0.0201543 0 
-0.000330756 0.0201254 0 -0.00047105 0.0200965 0 -0.000610108 0.0200673 0 
-0.000748011 0.0200376 0 -0.000884838 0.0200068 0 0.00117593 0.0129524 0 
0.00100591 0.0129945 0 0.000841157 0.0130255 0 0.000681132 0.0130481 0 
0.000525167 0.0130645 0 0.000372575 0.0130765 0 0.00022274 0.0130854 0 
7.51408e-05 0.0130924 0 -7.06463e-05 0.0130984 0 -0.000214956 0.0131042 0 
-0.00035805 0.0131106 0 -0.000500128 0.0131183 0 -0.000641349 0.013128 0 
-0.000781839 0.0131406 0 -0.000921712 0.013157 0 0.00138294 0.0124184 0 
0.00140632 0.0119479 0 0.00142306 0.0114844 0 0.00143499 0.0110267 0 
0.00144354 0.0105735 0 0.00144971 0.0101241 0 0.00145423 0.00967738 0 
0.00145761 0.00923286 0 0.00146018 0.00878996 0 0.00146219 0.00834828 0 
0.00146379 0.00790749 0 0.00146508 0.00746735 0 0.00146614 0.00702766 0 
0.00146701 0.00658829 0 0.00146773 0.00614912 0 0.00146832 0.00571007 0 
0.00146879 0.00527108 0 0.00146918 0.00483209 0 0.00146948 0.00439308 0 
0.00146971 0.00395403 0 0.00146988 0.00351492 0 0.00147001 0.00307575 0 
0.0014701 0.0026365 0 0.00147015 0.0021972 0 0.00147019 0.00175784 0 
0.00147021 0.00131842 0 0.00147022 0.00087897 0 0.00147023 0.000439492 0 
0.00355256 0.0124184 0 0.00352918 0.0119479 0 0.00351244 0.0114844 0 
0.0035005 0.0110267 0 0.00349196 0.0105735 0 0.00348579 0.0101241 0 
0.00348127 0.00967738 0 0.00347789 0.00923286 0 0.00347531 0.00878996 0 
0.0034733 0.00834828 0 0.0034717 0.00790749 0 0.00347041 0.00746735 0 
0.00346936 0.00702766 0 0.00346849 0.00658829 0 0.00346777 0.00614912 0 
0.00346718 0.00571007 0 0.0034667 0.00527108 0 0.00346632 0.00483209 0 
0.00346602 0.00439308 0 0.00346579 0.00395403 0 0.00346561 0.00351492 0 
0.00346549 0.00307575 0 0.0034654 0.0026365 0 0.00346534 0.0021972 0 
0.00346531 0.00175784 0 0.00346529 0.00131842 0 0.00346528 0.00087897 0 
0.00346527 0.000439492 0 0.00375957 0.0129524 0 0.00392959 0.0129945 0 
0.00409434 0.0130255 0 0.00425436 0.0130481 0 0.00441033 0.0130645 0 
0.00456292 0.0130765 0 0.00471276 0.0130854 0 0.00486036 0.0130924 0 
0.00500614 0.0130984 0 0.00515045 0.0131042 0 0.00529355 0.0131106 0 
0.00543562 0.0131183 0 0.00557684 0.013128 0 0.00571734 0.0131406 0 
0.00585721 0.013157 0 0.00374286 0.0205037 0 0.0039116 0.0204435 0 
0.00407523 0.0203929 0 0.00423426 0.0203495 0 0.00438933 0.0203111 0 
0.00454107 0.0202763 0 0.00469006 0.0202439 0 0.00483676 0.0202132 0 
0.00498153 0.0201834 0 0.00512462 0.0201543 0 0.00526625 0.0201254 0 
0.00540655 0.0200965 0 0.0055456 0.0200673 0 0.00568351 0.0200376 0 
0.00582033 0.0200068 0 0.00353246 0.0210574 0 0.00350328 0.0215315 0 
0.0034796 0.0219988 0 0.00345941 0.0224604 0 0.00344115 0.0229175 0 
0.00342363 0.0233709 0 0.00340596 0.0238213 0 0.00338747 0.0242693 0 
0.00336764 0.0247152 0 0.00334605 0.0251594 0 0.00332239 0.025602 0 
0.00329637 0.0260429 0 0.00326777 0.0264823 0 0.00323642 0.0269199 0 
0.00320215 0.0273557 0 0.00316488 0.0277894 0 0.00312453 0.0282207 0 
0.00308111 0.0286493 0 0.00303466 0.029075 0 0.00298533 0.0294973 0 
0.0029333 0.0299159 0 0.00287885 0.0303304 0 0.00282235 0.0307406 0 
0.00276422 0.031146 0 0.00270496 0.0315464 0 0.0026451 0.0319417 0 
0.00258523 0.0323317 0 0.00252592 0.0327162 0 0.00140304 0.0210574 0 
0.00143221 0.0215315 0 0.00145589 0.0219988 0 0.00147609 0.0224604 0 
0.00149435 0.0229175 0 0.00151187 0.0233709 0 0.00152953 0.0238213 0 
0.00154802 0.0242693 0 0.00156786 0.0247152 0 0.00158944 0.0251594 0 
0.00161311 0.025602 0 0.00163913 0.0260429 0 0.00166772 0.0264823 0 
0.00169908 0.0269199 0 0.00173334 0.0273557 0 0.00177062 0.0277894 0 
0.00181097 0.0282207 0 0.00185439 0.0286493 0 0.00190083 0.029075 0 
0.00195017 0.0294973 0 0.0020022 0.0299159 0 0.00205664 0.0303304 0 
0.00211314 0.0307406 0 0.00217127 0.031146 0 0.00223054 0.0315464 0 
0.00229039 0.0319417 0 0.00235027 0.0323317 0 0.00240958 0.0327162 0 
0.00161008 0.0188468 0 0.00150269 0.0185603 0 0.00140688 0.0182579 0 
0.0013266 0.017941 0 0.00126458 0.0176116 0 0.00122256 0.0172722 0 
0.0012015 0.0169264 0 0.00120178 0.0165785 0 0.0012234 0.016233 0 
0.00126589 0.0158943 0 0.00132827 0.0155659 0 0.00140877 0.0152503 0 
0.00150465 0.0149493 0 0.00161195 0.0146643 0 0.00167022 0.0187488 0 
0.0015432 0.0184693 0 0.00142546 0.0181781 0 0.00132365 0.0178761 0 
0.00124315 0.0175639 0 0.00118774 0.0172432 0 0.00115969 0.0169166 0 
0.00116 0.0165881 0 0.00118864 0.0162619 0 0.00124453 0.0159417 0 
0.00132534 0.0156304 0 0.00142728 0.0153295 0 0.00154495 0.0150396 0 
0.00167173 0.0147616 0 0.00171348 0.0186875 0 0.00157573 0.01841 0 
0.00144347 0.0181237 0 0.00132542 0.0178297 0 0.00122959 0.0175284 0 
0.00116231 0.0172209 0 0.00112781 0.0169089 0 0.00112813 0.0165954 0 
0.00116322 0.0162837 0 0.00123095 0.0159767 0 0.00132703 0.0156762 0 
0.00144511 0.0153832 0 0.00157719 0.0150982 0 0.00171461 0.0148222 0 
0.0017416 0.0186587 0 0.00159969 0.0183793 0 0.00145897 0.0180927 0 
0.00132949 0.0178009 0 0.00122156 0.017505 0 0.00114422 0.0172054 0 
0.00110401 0.0169033 0 0.00110432 0.0166003 0 0.00114509 0.0162984 0 
0.00122284 0.0159993 0 0.00133095 0.0157041 0 0.00146036 0.0154133 0 
0.00160082 0.015128 0 0.00174232 0.0148501 0 0.00175606 0.0186591 0 
0.00161476 0.0183744 0 0.00147043 0.0180834 0 0.00133378 0.0177891 0 
0.00121692 0.0174933 0 0.00113145 0.0171967 0 0.0010864 0.0168998 0 
0.00108669 0.0166027 0 0.00113225 0.016306 0 0.00121805 0.0160099 0 
0.00133501 0.0157148 0 0.00147152 0.0154215 0 0.00161551 0.0151318 0 
0.00175635 0.0148487 0 0.00175812 0.0186863 0 0.00162078 0.0183934 0 
0.00147662 0.0180943 0 0.00133644 0.0177933 0 0.00121361 0.0174931 0 
0.001122 0.0171948 0 0.00107307 0.0168984 0 0.00107333 0.0166027 0 
0.0011227 0.0163064 0 0.00121457 0.0160087 0 0.0013374 0.0157092 0 
0.00147736 0.0154092 0 0.00162111 0.0151115 0 0.00175794 0.0148202 0 
0.00174877 0.0187389 0 0.00161764 0.0184347 0 0.00147654 0.0181243 0 
0.00133587 0.0178128 0 0.00120978 0.017504 0 0.00111395 0.0171996 0 
0.00106212 0.0168991 0 0.00106233 0.0166001 0 0.00111452 0.0162999 0 
0.00121052 0.0159959 0 0.00133653 0.0156879 0 0.00147689 0.0153775 0 
0.00161752 0.0150686 0 0.00174808 0.0147661 0 0.00172877 0.0188158 0 
0.00160529 0.0184974 0 0.00146934 0.0181726 0 0.00133066 0.0178471 0 
0.00120366 0.0175257 0 0.00110543 0.0172109 0 0.00105165 0.0169018 0 
0.00105182 0.0165951 0 0.00110586 0.0162863 0 0.00120416 0.0159719 0 
0.00133098 0.0156514 0 0.00146926 0.0153271 0 0.00160465 0.0150039 0 
0.00172751 0.0146873 0 0.00169867 0.0189168 0 0.00158363 0.018581 0 
0.00145433 0.0182387 0 0.00131957 0.0178959 0 0.00119368 0.0175581 0 
0.00109468 0.0172286 0 0.00103986 0.0169065 0 0.00103998 0.0165875 0 
0.00109495 0.0162657 0 0.0011939 0.0159368 0 0.00131951 0.0156 0 
0.00145377 0.0152584 0 0.00158243 0.0149178 0 0.00169674 0.014584 0 
0.00165879 0.0190419 0 0.00155256 0.0186855 0 0.00143086 0.0183223 0 
0.00130149 0.0179588 0 0.00117837 0.017601 0 0.00108003 0.0172527 0 
0.001025 0.0169132 0 0.00102506 0.0165774 0 0.00108013 0.0162382 0 
0.0011783 0.0158905 0 0.00130102 0.0155337 0 0.00142978 0.0151716 0 
0.00155072 0.0148102 0 0.00165608 0.0144559 0 0.00160933 0.0191918 0 
0.00151193 0.0188111 0 0.00139836 0.0184238 0 0.00127543 0.018036 0 
0.00115639 0.0176544 0 0.00105994 0.0172831 0 0.00100542 0.0169218 0 
0.00100541 0.0165646 0 0.00105984 0.0162036 0 0.001156 0.0158331 0 
0.0012745 0.0154526 0 0.00139667 0.0150663 0 0.00150931 0.0146808 0 
0.00160564 0.0143025 0 0.00155032 0.0193674 0 0.0014615 0.0189587 0 
0.00135628 0.0185434 0 0.00124046 0.0181277 0 0.00112651 0.0177183 0 
0.00103294 0.01732 0 0.000979543 0.0169323 0 0.000979465 0.0165491 0 
0.00103263 0.0161618 0 0.00112576 0.0157642 0 0.00123902 0.015356 0 
0.00135389 0.0149419 0 0.00145795 0.0145286 0 0.00154539 0.0141224 0 
0.00148167 0.0195702 0 0.00140103 0.0191292 0 0.0013041 0.018682 0 
0.00119573 0.0182343 0 0.00108756 0.0177931 0 0.000997636 0.0173633 0 
0.000945872 0.0169446 0 0.000945719 0.0165307 0 0.000997095 0.0161124 0 
0.00108641 0.0156833 0 0.00119369 0.0152434 0 0.00130086 0.0147976 0 
0.00139631 0.0143525 0 0.00147515 0.0139141 0 0.0014032 0.0198016 0 
0.00133018 0.0193239 0 0.00124124 0.0188404 0 0.00114041 0.0183567 0 
0.00103842 0.0178793 0 0.000952689 0.0174134 0 0.000902954 0.0169588 0 
0.000902721 0.0165091 0 0.000951897 0.016055 0 0.00103682 0.0155899 0 
0.00113768 0.015114 0 0.00123698 0.0146321 0 0.00132398 0.0141509 0 
0.0013946 0.0136759 0 0.00182521 0.0141269 0 0.00192369 0.0138798 0 
0.00202138 0.0136627 0 0.00211898 0.013482 0 0.0022173 0.0133424 0 
0.00231678 0.0132475 0 0.00241729 0.0131995 0 0.00251821 0.0131995 0 
0.00261871 0.0132475 0 0.00271819 0.0133424 0 0.00281652 0.013482 0 
0.00291412 0.0136627 0 0.00301181 0.0138798 0 0.00311028 0.0141269 0 
0.00190615 0.014218 0 0.0020053 0.0139546 0 0.00209777 0.0137165 0 
0.00218456 0.0135133 0 0.00226742 0.0133535 0 0.00234813 0.0132434 0 
0.00242794 0.0131874 0 0.00250755 0.0131874 0 0.00258737 0.0132434 0 
0.00266807 0.0133535 0 0.00275093 0.0135133 0 0.00283772 0.0137165 0 
0.0029302 0.0139546 0 0.00302935 0.014218 0 0.00195998 0.0142798 0 
0.00206191 0.01401 0 0.00215334 0.0137593 0 0.00223447 0.0135402 0 
0.00230703 0.0133642 0 0.00237357 0.0132412 0 0.00243671 0.0131779 0 
0.00249878 0.0131779 0 0.00256192 0.0132412 0 0.00262846 0.0133642 0 
0.00270102 0.0135402 0 0.00278216 0.0137593 0 0.00287359 0.01401 0 
0.00297551 0.0142798 0 0.00199161 0.0143133 0 0.00209742 0.0140446 0 
0.00219063 0.0137885 0 0.00227005 0.0135592 0 0.00233667 0.0133712 0 
0.00239326 0.0132377 0 0.00244362 0.0131683 0 0.00249188 0.0131683 0 
0.00254224 0.0132377 0 0.00259883 0.0133712 0 0.00266545 0.0135592 0 
0.00274487 0.0137885 0 0.00283808 0.0140446 0 0.00294388 0.0143133 0 
0.00200494 0.0143192 0 0.00211516 0.0140572 0 0.00221201 0.0138015 0 
0.00229267 0.0135673 0 0.00235695 0.0133713 0 0.0024074 0.0132298 0 
0.00244869 0.0131555 0 0.0024868 0.0131555 0 0.0025281 0.0132298 0 
0.00257854 0.0133713 0 0.00264283 0.0135673 0 0.00272349 0.0138015 0 
0.00282033 0.0140572 0 0.00293056 0.0143192 0 0.00200301 0.0142982 0 
0.00211793 0.0140468 0 0.00221961 0.0137962 0 0.0023037 0.0135616 0 
0.00236863 0.0133614 0 0.0024163 0.0132144 0 0.00245202 0.0131365 0 
0.00248348 0.0131365 0 0.0025192 0.0132144 0 0.00256687 0.0133614 0 
0.00263179 0.0135616 0 0.00271589 0.0137962 0 0.00281757 0.0140468 0 
0.00293248 0.0142982 0 0.00198817 0.0142504 0 0.00210798 0.0140125 0 
0.00221531 0.0137706 0 0.00230447 0.0135394 0 0.00237244 0.0133384 0 
0.00242031 0.0131886 0 0.00245369 0.0131083 0 0.0024818 0.0131083 0 
0.00251519 0.0131886 0 0.00256305 0.0133384 0 0.00263102 0.0135394 0 
0.00272019 0.0137706 0 0.00282751 0.0140125 0 0.00294732 0.0142504 0 
0.00196217 0.0141758 0 0.00208711 0.0139533 0 0.00220069 0.0137228 0 
0.00229616 0.0134983 0 0.00236917 0.0132995 0 0.00241982 0.0131491 0 
0.00245383 0.0130677 0 0.00248167 0.0130677 0 0.00251568 0.0131491 0 
0.00256633 0.0132995 0 0.00263933 0.0134983 0 0.00273481 0.0137228 0 
0.00284838 0.0139533 0 0.00297333 0.0141758 0 0.00192624 0.0140739 0 
0.00205668 0.0138681 0 0.00217703 0.0136511 0 0.00227982 0.0134358 0 
0.0023595 0.0132419 0 0.00241521 0.013093 0 0.00245254 0.0130117 0 
0.00248295 0.0130117 0 0.00252028 0.013093 0 0.00257599 0.0132419 0 
0.00265568 0.0134358 0 0.00275846 0.0136511 0 0.00287882 0.0138681 0 
0.00300926 0.0140739 0 0.00188123 0.0139439 0 0.00201767 0.0137556 0 
0.00214535 0.0135536 0 0.00225631 0.0133497 0 0.00234409 0.0131628 0 
0.00240686 0.0130174 0 0.00244996 0.0129371 0 0.00248554 0.0129371 0 
0.00252863 0.0130174 0 0.00259141 0.0131628 0 0.00267918 0.0133497 0 
0.00279015 0.0135536 0 0.00291783 0.0137556 0 0.00305427 0.0139439 0 
0.00182764 0.0137847 0 0.00197075 0.0136144 0 0.00210637 0.0134285 0 
0.00222633 0.0132375 0 0.00232346 0.0130595 0 0.0023951 0.0129191 0 
0.00244618 0.012841 0 0.00248932 0.012841 0 0.0025404 0.0129191 0 
0.00261203 0.0130595 0 0.00270916 0.0132375 0 0.00282913 0.0134285 0 
0.00296475 0.0136144 0 0.00310786 0.0137847 0 0.00176571 0.0135948 0 
0.00191633 0.0134427 0 0.0020606 0.0132737 0 0.00219039 0.0130968 0 
0.00229804 0.0129293 0 0.00238018 0.0127954 0 0.0024413 0.0127202 0 
0.0024942 0.0127202 0 0.00255532 0.0127954 0 0.00263745 0.0129293 0 
0.0027451 0.0130968 0 0.00287489 0.0132737 0 0.00301917 0.0134427 0 
0.00316978 0.0135948 0 0.00169551 0.0133723 0 0.0018546 0.0132387 0 
0.00200836 0.0130871 0 0.00214883 0.0129252 0 0.00226813 0.0127694 0 
0.0023623 0.0126431 0 0.00243537 0.0125715 0 0.00250012 0.0125715 0 
0.0025732 0.0126431 0 0.00266737 0.0127694 0 0.00278666 0.0129252 0 
0.00292713 0.0130871 0 0.00308089 0.0132387 0 0.00323999 0.0133723 0 
0.00161693 0.013115 0 0.00178564 0.0130001 0 0.00194983 0.0128662 0 
0.00210186 0.0127201 0 0.00223386 0.0125768 0 0.00234152 0.0124591 0 
0.00242843 0.0123918 0 0.00250707 0.0123918 0 0.00259397 0.0124591 0 
0.00270164 0.0125768 0 0.00283364 0.0127201 0 0.00298567 0.0128662 0 
0.00314985 0.0130001 0 0.00331856 0.013115 0 0.00332355 0.0146643 0 
0.00343085 0.0149493 0 0.00352672 0.0152503 0 0.00360723 0.0155659 0 
0.00366961 0.0158943 0 0.0037121 0.016233 0 0.00373371 0.0165785 0 
0.003734 0.0169264 0 0.00371293 0.0172722 0 0.00367092 0.0176116 0 
0.0036089 0.017941 0 0.00352861 0.0182579 0 0.0034328 0.0185603 0 
0.00332542 0.0188468 0 0.00326376 0.0147616 0 0.00339055 0.0150396 0 
0.00350821 0.0153295 0 0.00361015 0.0156304 0 0.00369097 0.0159417 0 
0.00374686 0.0162619 0 0.0037755 0.0165881 0 0.00377581 0.0169166 0 
0.00374776 0.0172432 0 0.00369235 0.0175639 0 0.00361185 0.0178761 0 
0.00351004 0.0181781 0 0.0033923 0.0184693 0 0.00326528 0.0187488 0 
0.00322089 0.0148222 0 0.0033583 0.0150982 0 0.00349038 0.0153832 0 
0.00360846 0.0156762 0 0.00370455 0.0159767 0 0.00377228 0.0162837 0 
0.00380736 0.0165954 0 0.00380768 0.0169089 0 0.00377318 0.0172209 0 
0.00370591 0.0175284 0 0.00361008 0.0178297 0 0.00349203 0.0181237 0 
0.00335977 0.01841 0 0.00322202 0.0186875 0 0.00319318 0.0148501 0 
0.00333468 0.015128 0 0.00347513 0.0154133 0 0.00360455 0.0157041 0 
0.00371266 0.0159993 0 0.0037904 0.0162984 0 0.00383117 0.0166003 0 
0.00383148 0.0169033 0 0.00379128 0.0172054 0 0.00371393 0.017505 0 
0.00360601 0.0178009 0 0.00347653 0.0180927 0 0.00333581 0.0183793 0 
0.0031939 0.0186587 0 0.00317915 0.0148487 0 0.00331999 0.0151318 0 
0.00346398 0.0154215 0 0.00360049 0.0157148 0 0.00371744 0.0160099 0 
0.00380325 0.016306 0 0.0038488 0.0166027 0 0.00384909 0.0168998 0 
0.00380405 0.0171967 0 0.00371858 0.0174933 0 0.00360172 0.0177891 0 
0.00346507 0.0180834 0 0.00332073 0.0183744 0 0.00317943 0.0186591 0 
0.00317755 0.0148202 0 0.00331439 0.0151115 0 0.00345814 0.0154092 0 
0.00359809 0.0157092 0 0.00372092 0.0160087 0 0.00381279 0.0163064 0 
0.00386216 0.0166027 0 0.00386242 0.0168984 0 0.0038135 0.0171948 0 
0.00372188 0.0174931 0 0.00359906 0.0177933 0 0.00345887 0.0180943 0 
0.00331472 0.0183934 0 0.00317737 0.0186863 0 0.00318741 0.0147661 0 
0.00331798 0.0150686 0 0.00345861 0.0153775 0 0.00359897 0.0156879 0 
0.00372498 0.0159959 0 0.00382097 0.0162999 0 0.00387316 0.0166001 0 
0.00387338 0.0168991 0 0.00382155 0.0171996 0 0.00372572 0.017504 0 
0.00359963 0.0178128 0 0.00345896 0.0181243 0 0.00331785 0.0184347 0 
0.00318672 0.0187389 0 0.00320798 0.0146873 0 0.00333084 0.0150039 0 
0.00346623 0.0153271 0 0.00360452 0.0156514 0 0.00373134 0.0159719 0 
0.00382964 0.0162863 0 0.00388367 0.0165951 0 0.00388384 0.0169018 0 
0.00383007 0.0172109 0 0.00373184 0.0175257 0 0.00360484 0.0178471 0 
0.00346615 0.0181726 0 0.00333021 0.0184974 0 0.00320672 0.0188158 0 
0.00323875 0.014584 0 0.00335306 0.0149178 0 0.00348172 0.0152584 0 
0.00361598 0.0156 0 0.00374159 0.0159368 0 0.00384055 0.0162657 0 
0.00389552 0.0165875 0 0.00389564 0.0169065 0 0.00384082 0.0172286 0 
0.00374182 0.0175581 0 0.00361593 0.0178959 0 0.00348117 0.0182387 0 
0.00335187 0.018581 0 0.00323683 0.0189168 0 0.00327942 0.0144559 0 
0.00338478 0.0148102 0 0.00350572 0.0151716 0 0.00363448 0.0155337 0 
0.0037572 0.0158905 0 0.00385537 0.0162382 0 0.00391044 0.0165774 0 
0.00391049 0.0169132 0 0.00385546 0.0172527 0 0.00375713 0.017601 0 
0.00363401 0.0179588 0 0.00350464 0.0183223 0 0.00338293 0.0186855 0 
0.0032767 0.0190419 0 0.00332986 0.0143025 0 0.00342619 0.0146808 0 
0.00353882 0.0150663 0 0.003661 0.0154526 0 0.0037795 0.0158331 0 
0.00387565 0.0162036 0 0.00393009 0.0165646 0 0.00393008 0.0169218 0 
0.00387555 0.0172831 0 0.0037791 0.0176544 0 0.00366007 0.018036 0 
0.00353714 0.0184238 0 0.00342357 0.0188111 0 0.00332617 0.0191918 0 
0.00339011 0.0141224 0 0.00347755 0.0145286 0 0.0035816 0.0149419 0 
0.00369648 0.015356 0 0.00380973 0.0157642 0 0.00390287 0.0161618 0 
0.00395603 0.0165491 0 0.00395595 0.0169323 0 0.00390255 0.01732 0 
0.00380898 0.0177183 0 0.00369504 0.0181277 0 0.00357921 0.0185434 0 
0.00347399 0.0189587 0 0.00338518 0.0193674 0 0.00346035 0.0139141 0 
0.00353919 0.0143525 0 0.00363463 0.0147976 0 0.0037418 0.0152434 0 
0.00384908 0.0156833 0 0.0039384 0.0161124 0 0.00398978 0.0165307 0 
0.00398962 0.0169446 0 0.00393786 0.0173633 0 0.00384793 0.0177931 0 
0.00373976 0.0182343 0 0.0036314 0.018682 0 0.00353446 0.0191292 0 
0.00345383 0.0195702 0 0.0035409 0.0136759 0 0.00361151 0.0141509 0 
0.00369852 0.0146321 0 0.00379782 0.015114 0 0.00389867 0.0155899 0 
0.0039836 0.016055 0 0.00403278 0.0165091 0 0.00403254 0.0169588 0 
0.00398281 0.0174134 0 0.00389708 0.0178793 0 0.00379509 0.0183567 0 
0.00369426 0.0188404 0 0.00360531 0.0193239 0 0.00353229 0.0198016 0 
0.00311174 0.019388 0 0.00301305 0.019637 0 0.00291513 0.0198559 0 
0.0028173 0.0200383 0 0.00271876 0.0201793 0 0.00261905 0.0202751 0 
0.00251832 0.0203236 0 0.00241718 0.0203236 0 0.00231644 0.0202751 0 
0.00221674 0.0201793 0 0.00211819 0.0200383 0 0.00202037 0.0198559 0 
0.00192245 0.019637 0 0.00182376 0.019388 0 0.00303025 0.0192961 0 
0.00293086 0.0195615 0 0.00283816 0.0198017 0 0.0027512 0.0200067 0 
0.00266823 0.020168 0 0.00258745 0.0202791 0 0.00250758 0.0203358 0 
0.00242792 0.0203358 0 0.00234805 0.0202791 0 0.00226727 0.020168 0 
0.00218429 0.0200067 0 0.00209733 0.0198017 0 0.00200464 0.0195615 0 
0.00190524 0.0192961 0 0.00297595 0.0192336 0 0.00287377 0.0195056 0 
0.00278214 0.0197584 0 0.00270088 0.0199795 0 0.00262828 0.0201571 0 
0.00256178 0.0202813 0 0.00249873 0.0203452 0 0.00243677 0.0203452 0 
0.00237371 0.0202813 0 0.00230721 0.0201571 0 0.00223461 0.0199795 0 
0.00215336 0.0197584 0 0.00206172 0.0195056 0 0.00195955 0.0192336 0 
0.00294389 0.0191995 0 0.00283786 0.0194705 0 0.00274447 0.0197288 0 
0.00266497 0.0199603 0 0.00259838 0.02015 0 0.00254192 0.0202848 0 
0.00249176 0.0203549 0 0.00244373 0.0203549 0 0.00239358 0.0202848 0 
0.00233711 0.02015 0 0.00227052 0.0199603 0 0.00219102 0.0197288 0 
0.00209764 0.0194705 0 0.00199161 0.0191995 0 0.00293014 0.0191929 0 
0.00281973 0.0194574 0 0.00272276 0.0197155 0 0.00264206 0.019952 0 
0.00257786 0.0201499 0 0.00252763 0.0202928 0 0.00248663 0.0203678 0 
0.00244886 0.0203678 0 0.00240787 0.0202928 0 0.00235764 0.0201499 0 
0.00229343 0.019952 0 0.00221273 0.0197155 0 0.00211576 0.0194574 0 
0.00200535 0.0191929 0 0.00293164 0.0192131 0 0.00281659 0.0194672 0 
0.00271484 0.0197205 0 0.00263076 0.0199576 0 0.00256598 0.0201598 0 
0.00251859 0.0203082 0 0.00248326 0.020387 0 0.00245223 0.020387 0 
0.0024169 0.0203082 0 0.00236952 0.0201598 0 0.00230474 0.0199576 0 
0.00222066 0.0197205 0 0.0021189 0.0194672 0 0.00200386 0.0192131 0 
0.002946 0.0192598 0 0.00282613 0.0195009 0 0.0027188 0.0197458 0 
0.00262972 0.0199797 0 0.00256196 0.0201829 0 0.00251445 0.0203343 0 
0.00248154 0.0204155 0 0.00245395 0.0204155 0 0.00242104 0.0203343 0 
0.00237354 0.0201829 0 0.00230578 0.0199797 0 0.0022167 0.0197458 0 
0.00210936 0.0195009 0 0.0019895 0.0192598 0 0.00297144 0.0193333 0 
0.00284653 0.0195594 0 0.00273303 0.0197933 0 0.00263773 0.0200207 0 
0.00256502 0.020222 0 0.00251481 0.0203742 0 0.00248136 0.0204565 0 
0.00245413 0.0204565 0 0.00242069 0.0203742 0 0.00237048 0.020222 0 
0.00229777 0.0200207 0 0.00220246 0.0197933 0 0.00208896 0.0195594 0 
0.00196405 0.0193333 0 0.00300669 0.0194337 0 0.0028764 0.0196438 0 
0.00275622 0.0198646 0 0.00265371 0.0200832 0 0.00257442 0.0202799 0 
0.00251926 0.0204307 0 0.00248259 0.0205131 0 0.0024529 0.0205131 0 
0.00241624 0.0204307 0 0.00236107 0.0202799 0 0.00228179 0.0200832 0 
0.00217927 0.0198646 0 0.0020591 0.0196438 0 0.0019288 0.0194337 0 
0.00305086 0.0195619 0 0.00291469 0.0197552 0 0.00278733 0.0199617 0 
0.00267677 0.0201695 0 0.00258952 0.0203594 0 0.00252741 0.020507 0 
0.00248512 0.0205884 0 0.00245038 0.0205884 0 0.00240808 0.020507 0 
0.00234598 0.0203594 0 0.00225873 0.0201695 0 0.00214817 0.0199617 0 
0.00202081 0.0197552 0 0.00188464 0.0195619 0 0.00310336 0.0197188 0 
0.00296068 0.0198952 0 0.00282555 0.0200863 0 0.00270616 0.0202818 0 
0.00260973 0.0204633 0 0.00253894 0.0206061 0 0.00248881 0.0206855 0 
0.00244668 0.0206855 0 0.00239656 0.0206061 0 0.00232577 0.0204633 0 
0.00222933 0.0202818 0 0.00210995 0.0200863 0 0.00197482 0.0198952 0 
0.00183214 0.0197188 0 0.00316385 0.0199059 0 0.00301388 0.0200652 0 
0.00287031 0.0202405 0 0.00274133 0.0204226 0 0.0026346 0.0205942 0 
0.00255353 0.0207309 0 0.00249359 0.0208076 0 0.00244191 0.0208076 0 
0.00238197 0.0207309 0 0.0023009 0.0205942 0 0.00219417 0.0204226 0 
0.00206518 0.0202405 0 0.00192162 0.0200652 0 0.00177164 0.0199059 0 
0.00323216 0.0201249 0 0.00307398 0.0202671 0 0.00292121 0.0204263 0 
0.00278184 0.0205943 0 0.00266377 0.020755 0 0.00257096 0.0208846 0 
0.00249936 0.0209579 0 0.00243614 0.0209579 0 0.00236454 0.0208846 0 
0.00227172 0.020755 0 0.00215365 0.0205943 0 0.00201428 0.0204263 0 
0.00186152 0.0202671 0 0.00170334 0.0201249 0 0.0033082 0.0203777 0 
0.00314074 0.0205031 0 0.00297793 0.0206461 0 0.00282739 0.0207995 0 
0.00269702 0.0209486 0 0.00259112 0.0210702 0 0.0025061 0.0211395 0 
0.00242939 0.0211395 0 0.00234437 0.0210702 0 0.00223848 0.0209486 0 
0.00210811 0.0207995 0 0.00195757 0.0206461 0 0.00179476 0.0205031 0 
0.0016273 0.0203777 0 0.00210366 0.032567 0 0.00217599 0.0326232 0 
0.0022172 0.0326534 0 0.00224693 0.0326704 0 0.00227039 0.0326816 0 
0.00229006 0.0326894 0 0.00230716 0.0326951 0 0.00232238 0.0326996 0 
0.00233618 0.0327031 0 0.00234884 0.032706 0 0.00236056 0.0327084 0 
0.00237151 0.0327104 0 0.00238181 0.0327122 0 0.00239153 0.0327137 0 
0.00240077 0.0327151 0 0.00173683 0.0320017 0 0.00186592 0.0321298 0 
0.00195211 0.0321926 0 0.00201512 0.0322304 0 0.00206482 0.032255 0 
0.0021061 0.0322723 0 0.00214166 0.032285 0 0.00217308 0.0322948 0 
0.00220138 0.0323027 0 0.00222722 0.032309 0 0.00225108 0.0323144 0 
0.0022733 0.0323189 0 0.00229414 0.0323228 0 0.00231381 0.0323262 0 
0.00233247 0.0323291 0 0.00143948 0.0314714 0 0.00157937 0.0316252 0 
0.00169416 0.0317185 0 0.00178494 0.0317769 0 0.00185888 0.0318163 0 
0.00192111 0.0318443 0 0.00197496 0.0318651 0 0.00202259 0.0318812 0 
0.00206547 0.031894 0 0.00210458 0.0319045 0 0.00214066 0.0319133 0 
0.00217423 0.0319208 0 0.0022057 0.0319272 0 0.00223539 0.0319327 0 
0.00226354 0.0319375 0 0.00118754 0.0309717 0 0.00133001 0.0311297 0 
0.0014574 0.0312395 0 0.00156674 0.031315 0 0.00165992 0.0313682 0 
0.00174034 0.031407 0 0.00181091 0.0314364 0 0.00187382 0.0314593 0 
0.00193069 0.0314777 0 0.0019827 0.0314928 0 0.00203075 0.0315054 0 
0.0020755 0.0315162 0 0.00211747 0.0315254 0 0.00215708 0.0315334 0 
0.00219467 0.0315404 0 0.000970867 0.0304933 0 0.00111263 0.0306467 0 
0.00124574 0.0307633 0 0.00136605 0.0308498 0 0.00147301 0.030914 0 
0.00156796 0.0309627 0 0.00165283 0.0310003 0 0.00172939 0.0310301 0 
0.00179915 0.0310543 0 0.00186328 0.0310743 0 0.00192273 0.0310911 0 
0.00197824 0.0311054 0 0.00203041 0.0311178 0 0.00207971 0.0311285 0 
0.00212655 0.0311379 0 0.000781694 0.0300299 0 0.000922115 0.0301751 0 
0.00105763 0.0302925 0 0.00118435 0.0303849 0 0.00130067 0.030457 0 
0.00140663 0.0305136 0 0.00150315 0.0305586 0 0.00159142 0.0305949 0 
0.00167263 0.0306248 0 0.00174782 0.0306497 0 0.00181788 0.0306708 0 
0.00188353 0.030689 0 0.00194541 0.0307046 0 0.00200402 0.0307183 0 
0.00205981 0.0307302 0 0.000614938 0.0295769 0 0.000754014 0.0297127 0 
0.000890443 0.0298276 0 0.00102092 0.0299223 0 0.00114352 0.0299994 0 
0.00125759 0.0300619 0 0.00136332 0.030113 0 0.00146134 0.0301551 0 
0.00155246 0.0301903 0 0.0016375 0.03022 0 0.00171722 0.0302454 0 
0.00179228 0.0302673 0 0.00186327 0.0302864 0 0.0019307 0.0303031 0 
0.00199503 0.0303177 0 0.000466892 0.0291313 0 0.000604835 0.0292577 0 
0.000741518 0.0293683 0 0.00087422 0.0294628 0 0.00100107 0.0295424 0 
0.00112108 0.0296091 0 0.00123399 0.0296649 0 0.00133998 0.0297118 0 
0.00143952 0.0297517 0 0.00153318 0.0297858 0 0.00162155 0.0298153 0 
0.00170518 0.029841 0 0.00178462 0.0298635 0 0.00186031 0.0298833 0 
0.00193271 0.0299007 0 0.000334739 0.028691 0 0.0004718 0.0288083 0 
0.000608469 0.0289137 0 0.000742536 0.0290065 0 0.000872306 0.0290869 0 
0.000996695 0.029156 0 0.00111517 0.0292152 0 0.00122763 0.0292661 0 
0.00133425 0.02931 0 0.00143537 0.0293481 0 0.0015314 0.0293814 0 
0.00162278 0.0294107 0 0.00170995 0.0294365 0 0.00179331 0.0294594 0 
0.00187326 0.0294795 0 0.000216244 0.0282544 0 0.000352661 0.0283631 0 
0.000489237 0.028463 0 0.00062418 0.0285531 0 0.000756016 0.028633 0 
0.000883675 0.0287033 0 0.00100651 0.0287649 0 0.00112422 0.0288187 0 
0.00123676 0.028866 0 0.0013443 0.0289075 0 0.00144707 0.0289442 0 
0.00154539 0.0289768 0 0.00163959 0.0290059 0 0.00173 0.0290317 0 
0.00181697 0.0290547 0 0.000109573 0.0278204 0 0.000245556 0.027921 0 
0.000382046 0.0280154 0 0.000517598 0.0281021 0 0.00065095 0.0281808 0 
0.00078111 0.0282513 0 0.000907392 0.0283143 0 0.00102939 0.0283703 0 
0.00114691 0.0284201 0 0.00125997 0.0284646 0 0.00136865 0.0285044 0 
0.00147316 0.02854 0 0.00157373 0.028572 0 0.0016706 0.0286007 0 
0.00176406 0.0286265 0 1.31815e-05 0.0273878 0 0.000148907 0.0274811 0 
0.000285361 0.0275701 0 0.000421378 0.0276533 0 0.000555896 0.0277301 0 
0.000688025 0.0278001 0 0.000817089 0.0278637 0 0.000942626 0.0279211 0 
0.00106436 0.027973 0 0.00118218 0.0280198 0 0.00129606 0.0280622 0 
0.0014061 0.0281006 0 0.00151242 0.0281354 0 0.0016152 0.0281669 0 
0.00171463 0.0281953 0 -7.4256e-05 0.0269562 0 6.1357e-05 0.0270429 0 
0.000197837 0.0271266 0 0.000334252 0.0272062 0 0.000469715 0.0272807 0 
0.000603445 0.0273497 0 0.000734805 0.0274133 0 0.000863319 0.0274715 0 
0.000988655 0.0275248 0 0.00111061 0.0275736 0 0.00122909 0.0276182 0 
0.00134408 0.027659 0 0.00145561 0.0276963 0 0.00156378 0.0277304 0 
0.00166873 0.0277614 0 -0.000153897 0.026525 0 -1.82799e-05 0.0266056 0 
0.000118291 0.0266844 0 0.000255077 0.0267603 0 0.000391346 0.0268323 0 
0.000526424 0.0268999 0 0.00065973 0.026963 0 0.000790793 0.0270216 0 
0.000919254 0.0270758 0 0.00104485 0.027126 0 0.00116743 0.0271725 0 
0.00128687 0.0272155 0 0.00140315 0.0272551 0 0.00151628 0.0272917 0 
0.00162631 0.0273252 0 -0.000226765 0.0260937 0 -9.10519e-05 0.0261688 0 
4.56689e-05 0.0262431 0 0.000182822 0.0263154 0 0.000319812 0.0263847 0 
0.000456066 0.0264507 0 0.000591063 0.0265129 0 0.000724356 0.0265714 0 
0.000855575 0.0266262 0 0.000984426 0.0266775 0 0.00111068 0.0267254 0 
0.00123419 0.0267702 0 0.00135482 0.026812 0 0.00147251 0.026851 0 
0.00158726 0.0268869 0 -0.000293769 0.0256621 0 -0.000157892 0.0257323 0 
-2.09729e-05 0.0258023 0 0.000116553 0.0258711 0 0.000254211 0.0259377 0 
0.000391523 0.0260018 0 0.000528029 0.0260629 0 0.000663313 0.0261209 0 
0.00079701 0.0261758 0 0.000928803 0.0262278 0 0.00105843 0.026277 0 
0.00118566 0.0263234 0 0.00131032 0.0263672 0 0.00143228 0.0264083 0 
0.00155142 0.0264467 0 -0.000355722 0.02523 0 -0.000219635 0.0252957 0 
-8.24798e-05 0.0253618 0 5.54276e-05 0.0254271 0 0.00019372 0.0254911 0 
0.000332004 0.0255531 0 0.000469885 0.0256128 0 0.000606982 0.0256701 0 
0.000742941 0.0257249 0 0.000877438 0.0257773 0 0.00101018 0.0258273 0 
0.00114089 0.0258751 0 0.00126933 0.0259207 0 0.00139529 0.0259639 0 
0.0015186 0.0260048 0 -0.00041335 0.0247972 0 -0.000277024 0.0248589 0 
-0.00013961 0.0249213 0 -1.31602e-06 0.0249834 0 0.000137584 0.0250446 0 
0.000276777 0.0251044 0 0.000415928 0.0251625 0 0.000554698 0.0252188 0 
0.000692754 0.0252732 0 0.000829769 0.0253257 0 0.000965428 0.0253764 0 
0.00109942 0.0254253 0 0.00123146 0.0254725 0 0.00136125 0.0255178 0 
0.00148854 0.0255611 0 -0.000467295 0.0243636 0 -0.00033072 0.0244217 0 
-0.000193037 0.0244807 0 -5.43612e-05 0.0245397 0 8.51198e-05 0.0245982 0 
0.000225164 0.0246557 0 0.000365498 0.024712 0 0.000505826 0.024767 0 
0.00064584 0.0248207 0 0.000785224 0.024873 0 0.000923652 0.0249241 0 
0.00106079 0.024974 0 0.00119628 0.0250226 0 0.00132978 0.0250699 0 
0.00146094 0.0251156 0 -0.00051812 0.0239294 0 -0.000381304 0.0239842 0 
-0.000243357 0.0240399 0 -0.000104314 0.0240959 0 3.57133e-05 0.0241516 0 
0.00017655 0.0242067 0 0.000317981 0.0242611 0 0.000459758 0.0243146 0 
0.000601607 0.0243673 0 0.000743229 0.0244192 0 0.000884299 0.0244704 0 
0.00102446 0.024521 0 0.00116333 0.0245709 0 0.00130047 0.0246202 0 
0.00143546 0.0246684 0 -0.000566307 0.0234944 0 -0.000429271 0.0235463 0 
-0.000291081 0.0235989 0 -0.0001517 0.0236519 0 -1.11748e-05 0.0237048 0 
0.000130383 0.0237575 0 0.000272816 0.0238097 0 0.000415926 0.0238615 0 
0.00055948 0.0239129 0 0.00070321 0.0239641 0 0.000846804 0.0240151 0 
0.0009899 0.0240662 0 0.00113208 0.0241173 0 0.00127285 0.0241684 0 
0.00141169 0.0242192 0 -0.000612252 0.0230589 0 -0.000475033 0.0231079 0 
-0.000336634 0.0231577 0 -0.000196962 0.0232077 0 -5.60058e-05 0.0232578 0 
8.61825e-05 0.0233079 0 0.000229501 0.0233578 0 0.000373805 0.0234076 0 
0.000518914 0.0234575 0 0.000664601 0.0235077 0 0.000810583 0.0235582 0 
0.000956511 0.0236095 0 0.00110195 0.0236615 0 0.00124636 0.0237143 0 
0.00138913 0.0237677 0 -0.000656264 0.0226229 0 -0.000518909 0.0226693 0 
-0.000380353 0.0227162 0 -0.000240455 0.0227633 0 -9.91556e-05 0.0228106 0 
4.35451e-05 0.0228579 0 0.000187601 0.0229053 0 0.000332926 0.022953 0 
0.000479398 0.023001 0 0.000626848 0.0230498 0 0.000775043 0.0230995 0 
0.000923668 0.0231506 0 0.0010723 0.0232032 0 0.00122037 0.0232576 0 
0.00136718 0.0233136 0 -0.000698558 0.0221866 0 -0.000561126 0.0222305 0 
-0.000422476 0.0222746 0 -0.000282435 0.0223188 0 -0.000140906 0.0223631 0 
2.15815e-06 0.0224076 0 0.000146763 0.0224523 0 0.000292887 0.0224975 0 
0.000440473 0.0225434 0 0.000589425 0.0225904 0 0.000739586 0.022639 0 
0.000890704 0.0226894 0 0.0010424 0.0227423 0 0.00119412 0.0227979 0 
0.0013451 0.0228564 0 -0.00073925 0.0217501 0 -0.000601807 0.0217915 0 
-0.000463139 0.0218328 0 -0.000323056 0.0218741 0 -0.000181434 0.0219154 0 
-3.81898e-05 0.0219569 0 0.000106733 0.0219988 0 0.000253372 0.0220413 0 
0.00040175 0.0220848 0 0.000551857 0.0221296 0 0.000703633 0.0221765 0 
0.000856929 0.0222259 0 0.00101146 0.0222785 0 0.00116673 0.0223349 0 
0.00132197 0.0223955 0 -0.000778357 0.0213138 0 -0.000640972 0.0213526 0 
-0.000502369 0.0213911 0 -0.000362359 0.0214294 0 -0.000220804 0.0214677 0 
-7.75949e-05 0.0215061 0 6.73669e-05 0.021545 0 0.000214179 0.0215845 0 
0.000362942 0.0216252 0 0.000513745 0.0216675 0 0.000666653 0.0217122 0 
0.000821656 0.0217599 0 0.000978612 0.0218115 0 0.00113716 0.0218681 0 
0.00129664 0.0219303 0 -0.000815794 0.0208776 0 -0.000678536 0.0209139 0 
-0.000540084 0.0209496 0 -0.00040027 0.0209849 0 -0.000258958 0.02102 0 
-0.000116025 0.0210553 0 2.86592e-05 0.021091 0 0.000175242 0.0211274 0 
0.000323896 0.021165 0 0.000474819 0.0212044 0 0.000628212 0.0212462 0 
0.000784245 0.0212916 0 0.000942987 0.0213415 0 0.00110429 0.0213972 0 
0.00126769 0.0214602 0 -0.000851378 0.0204419 0 -0.000714309 0.0204755 0 
-0.000576095 0.0205083 0 -0.000436601 0.0205405 0 -0.000295712 0.0205725 0 
-0.000153308 0.0206046 0 -9.24411e-06 0.0206371 0 0.000136661 0.0206702 0 
0.000284642 0.0207044 0 0.00043499 0.0207405 0 0.000588048 0.020779 0 
0.000744189 0.0208212 0 0.000903754 0.0208684 0 0.00106694 0.0209223 0 
0.00123358 0.0209846 0 -0.000917265 0.0195511 0 -0.00078073 0.0195788 0 
-0.000643215 0.0196054 0 -0.000504713 0.0196314 0 -0.000365201 0.0196571 0 
-0.000224621 0.0196826 0 -8.2867e-05 0.0197084 0 6.02323e-05 0.0197346 0 
0.00020494 0.0197617 0 0.000351638 0.0197901 0 0.000500855 0.0198206 0 
0.000653303 0.0198543 0 0.000809892 0.0198927 0 0.000971701 0.0199382 0 
0.00113987 0.0199938 0 -0.000946521 0.0190963 0 -0.000810289 0.0191207 0 
-0.000673194 0.0191441 0 -0.000535314 0.0191669 0 -0.000396692 0.0191894 0 
-0.000257332 0.0192118 0 -0.000117187 0.0192343 0 2.38578e-05 0.0192572 0 
0.000166011 0.0192806 0 0.000309606 0.019305 0 0.000455149 0.0193311 0 
0.000603373 0.0193597 0 0.000755315 0.0193925 0 0.000912357 0.0194315 0 
0.00107623 0.0194803 0 -0.00097211 0.0186421 0 -0.000836168 0.0186631 0 
-0.000699488 0.0186832 0 -0.00056224 0.0187029 0 -0.000424546 0.0187224 0 
-0.000286482 0.0187418 0 -0.000148082 0.0187614 0 -9.31774e-06 0.0187811 0 
0.000129914 0.0188011 0 0.000269825 0.0188218 0 0.000410785 0.0188436 0 
0.000553395 0.0188673 0 0.000698594 0.018894 0 0.000847793 0.0189257 0 
0.00100314 0.0189658 0 -0.000993548 0.0181886 0 -0.000857848 0.0182059 0 
-0.000721537 0.0182228 0 -0.000584874 0.0182395 0 -0.000448057 0.0182562 0 
-0.000311243 0.0182728 0 -0.000174555 0.0182896 0 -3.80744e-05 0.0183065 0 
9.81626e-05 0.0183236 0 0.000234188 0.0183411 0 0.000370139 0.0183591 0 
0.000506321 0.0183782 0 0.00064332 0.0183992 0 0.000782177 0.0184236 0 
0.000924767 0.0184541 0 -0.0010104 0.0177354 0 -0.000874861 0.0177491 0 
-0.000738832 0.0177627 0 -0.000602642 0.0177765 0 -0.00046656 0.0177905 0 
-0.000330817 0.0178047 0 -0.000195621 0.0178191 0 -6.11653e-05 0.0178335 0 
7.23655e-05 0.0178481 0 0.000204801 0.0178629 0 0.000335994 0.0178778 0 
0.000465856 0.0178932 0 0.000594419 0.0179094 0 0.000721964 0.0179275 0 
0.000849324 0.0179491 0 -0.00102231 0.0172824 0 -0.000886835 0.0172923 0 
-0.000750959 0.0173028 0 -0.000615073 0.0173138 0 -0.000479498 0.0173253 0 
-0.000344521 0.0173372 0 -0.000210418 0.0173494 0 -7.7471e-05 0.0173618 0 
5.40101e-05 0.0173744 0 0.000183678 0.017387 0 0.00031113 0.0173995 0 
0.000435895 0.0174121 0 0.000557428 0.0174249 0 0.000675125 0.0174382 0 
0.000788389 0.0174529 0 -0.00102907 0.0168292 0 -0.000893525 0.0168354 0 
-0.000757648 0.0168427 0 -0.000621854 0.0168511 0 -0.000486492 0.0168602 0 
-0.000351878 0.01687 0 -0.000218323 0.0168803 0 -8.6161e-05 0.016891 0 
4.42311e-05 0.0169018 0 0.000172404 0.0169127 0 0.000297802 0.0169234 0 
0.000419722 0.016934 0 0.00053725 0.0169444 0 0.000649182 0.0169545 0 
0.000753881 0.0169646 0 -0.0010306 0.0163755 0 -0.000894853 0.016378 0 
-0.000758802 0.0163823 0 -0.000622864 0.016388 0 -0.000487384 0.0163949 0 
-0.000352676 0.0164028 0 -0.000219047 0.0164113 0 -8.68283e-05 0.0164203 0 
4.36081e-05 0.0164296 0 0.000171816 0.0164389 0 0.000297246 0.0164482 0 
0.000419196 0.0164571 0 0.000536758 0.0164655 0 0.000648732 0.016473 0 
0.000753485 0.0164795 0 -0.001027 0.0159209 0 -0.000890913 0.0159198 0 
-0.000754518 0.0159212 0 -0.000618199 0.0159244 0 -0.000482271 0.0159292 0 
-0.000347012 0.0159351 0 -0.000212686 0.0159419 0 -7.95677e-05 0.0159492 0 
5.2048e-05 0.0159569 0 0.000181825 0.0159647 0 0.000309372 0.0159722 0 
0.00043423 0.0159792 0 0.000555865 0.0159852 0 0.000673686 0.0159897 0 
0.00078711 0.0159915 0 -0.00101853 0.0154649 0 -0.000881982 0.0154606 0 
-0.000745087 0.0154591 0 -0.000608175 0.0154599 0 -0.000471504 0.0154626 0 
-0.000335289 0.0154665 0 -0.000199722 0.0154715 0 -6.4976e-05 0.0154771 0 
6.87839e-05 0.015483 0 0.000201407 0.0154889 0 0.000332766 0.0154942 0 
0.00046279 0.0154986 0 0.000591528 0.0155013 0 0.00071928 0.0155012 0 
0.000846896 0.0154963 0 -0.00100562 0.0150074 0 -0.000868499 0.0149999 0 
-0.000730978 0.0149958 0 -0.000593304 0.0149943 0 -0.000455661 0.0149948 0 
-0.000318184 0.0149968 0 -0.000180971 0.0149999 0 -4.40764e-05 0.0150035 0 
9.24918e-05 0.0150073 0 0.000228794 0.0150108 0 0.000364993 0.0150134 0 
0.000501419 0.0150143 0 0.000638679 0.0150125 0 0.000777836 0.0150062 0 
0.000920782 0.0149925 0 -0.000988812 0.014548 0 -0.000851041 0.0145378 0 
-0.000712804 0.0145312 0 -0.000574258 0.0145274 0 -0.000435499 0.0145258 0 
-0.000296579 0.0145258 0 -0.000157495 0.0145267 0 -1.81856e-05 0.0145281 0 
0.000121491 0.0145295 0 0.000261782 0.0145301 0 0.000403091 0.0145294 0 
0.00054605 0.0145261 0 0.000691623 0.014519 0 0.000841239 0.0145056 0 
0.000997066 0.0144825 0 -0.000968752 0.0140865 0 -0.000830285 0.0140738 0 
-0.000691288 0.014065 0 -0.00055182 0.0140591 0 -0.000411895 0.0140554 0 
-0.000271481 0.0140532 0 -0.000130488 0.014052 0 1.12461e-05 0.014051 0 
0.000153974 0.0140496 0 0.000298074 0.0140472 0 0.000444093 0.0140427 0 
0.000592804 0.0140349 0 0.00074527 0.014022 0 0.000902896 0.0140017 0 
0.00106741 0.0139702 0 -0.000946144 0.0136228 0 -0.000806966 0.0136081 0 
-0.000667206 0.0135973 0 -0.000526829 0.0135894 0 -0.000385774 0.0135837 0 
-0.000243937 0.0135794 0 -0.00010116 0.0135758 0 4.27862e-05 0.0135723 0 
0.000188219 0.0135681 0 0.000335574 0.0135624 0 0.000485432 0.013554 0 
0.000638546 0.0135417 0 0.000795861 0.0135236 0 0.000958487 0.0134972 0 
0.00112758 0.0134594 0 -0.000897358 0.0127106 0 -0.000756855 0.0126931 0 
-0.00061573 0.0126791 0 -0.000473801 0.0126678 0 -0.000330894 0.0126585 0 
-0.000186819 0.0126502 0 -4.13536e-05 0.0126423 0 0.000105764 0.012634 0 
0.000254845 0.0126244 0 0.000406257 0.0126127 0 0.000560409 0.0125977 0 
0.000717731 0.0125781 0 0.000878613 0.0125523 0 0.00104329 0.0125184 0 
0.0012116 0.0124745 0 -0.000872553 0.0122625 0 -0.000731478 0.012244 0 
-0.000589793 0.012229 0 -0.000447273 0.0122164 0 -0.000303708 0.0122054 0 
-0.00015889 0.0121954 0 -1.25972e-05 0.0121856 0 0.000135411 0.0121752 0 
0.000285401 0.0121634 0 0.000437653 0.0121493 0 0.000592446 0.0121318 0 
0.000750014 0.0121097 0 0.000910478 0.0120817 0 0.00107373 0.0120464 0 
0.00123933 0.0120023 0 -0.000847809 0.0118125 0 -0.000706228 0.0117936 0 
-0.000564074 0.0117777 0 -0.000421089 0.011764 0 -0.000277043 0.0117518 0 
-0.000131726 0.0117402 0 1.50694e-05 0.0117287 0 0.000163552 0.0117165 0 
0.000313925 0.0117027 0 0.000466379 0.0116866 0 0.000621061 0.0116672 0 
0.000778036 0.0116435 0 0.000937218 0.0116143 0 0.00109829 0.0115787 0 
0.00126061 0.0115356 0 -0.000823567 0.011361 0 -0.000681554 0.011342 0 
-0.000539025 0.0113255 0 -0.000395701 0.0113109 0 -0.000251348 0.0112976 0 
-0.000105762 0.0112848 0 4.12425e-05 0.0112718 0 0.000189831 0.0112581 0 
0.000340145 0.0112428 0 0.000492287 0.0112251 0 0.000646294 0.0112044 0 
0.000802095 0.0111797 0 0.000959465 0.0111502 0 0.00111796 0.0111152 0 
0.00127683 0.011074 0 -0.000800189 0.0109082 0 -0.000657821 0.0108893 0 
-0.000515008 0.0108725 0 -0.000371465 0.0108573 0 -0.000226963 0.0108431 0 
-8.13092e-05 0.0108293 0 6.56515e-05 0.0108152 0 0.000214043 0.0108002 0 
0.00036395 0.0107838 0 0.000515398 0.0107651 0 0.000668337 0.0107435 0 
0.000822604 0.0107185 0 0.000977883 0.0106893 0 0.00113367 0.0106555 0 
0.00128922 0.0106168 0 -0.000777961 0.0104543 0 -0.000635315 0.0104357 0 
-0.000492304 0.0104189 0 -0.000348649 0.0104033 0 -0.00020413 0.0103885 0 
-5.85778e-05 0.0103739 0 8.81378e-05 0.010359 0 0.000236101 0.0103431 0 
0.000385345 0.0103259 0 0.000535838 0.0103066 0 0.000687468 0.0102847 0 
0.00084001 0.0102597 0 0.000993109 0.0102313 0 0.00114625 0.0101992 0 
0.00129873 0.0101633 0 -0.000757092 0.00999941 0 -0.000614241 0.00998139 0 
-0.000471109 0.00996475 0 -0.000327432 0.00994907 0 -0.000183008 0.0099339 0 
-3.7687e-05 0.0099188 0 0.000108632 0.00990329 0 0.000256001 0.0098869 0 
0.000404413 0.00986915 0 0.000553794 0.00984959 0 0.000703991 0.00982778 0 
0.000854751 0.00980336 0 0.00100571 0.00977608 0 0.00115636 0.00974584 0 
0.00130611 0.00971279 0 -0.000737724 0.00954384 0 -0.000594733 0.00952657 0 
-0.000451547 0.0095103 0 -0.000307923 0.00949469 0 -0.000163678 0.0094794 0 
-1.86839e-05 0.00946404 0 0.000127136 0.00944823 0 0.000273804 0.00943157 0 
0.000421286 0.00941366 0 0.000569482 0.00939415 0 0.000718215 0.00937271 0 
0.000867223 0.0093491 0 0.00101615 0.00932318 0 0.00116456 0.00929497 0 
0.0013119 0.0092647 0 -0.000719935 0.00908778 0 -0.000576864 0.00907139 0 
-0.000433681 0.00905564 0 -0.000290167 0.0090403 0 -0.000146162 0.00902508 0 
-1.55792e-06 0.0090097 0 0.000143699 0.00899383 0 0.000289612 0.00897714 0 
0.000436126 0.00895935 0 0.000583125 0.00894016 0 0.000730426 0.00891934 0 
0.000877774 0.00889674 0 0.00102484 0.00887232 0 0.00117123 0.00884616 0 
0.00131651 0.00881854 0 -0.000703754 0.00863139 0 -0.000560655 0.00861599 0 
-0.000417521 0.0086009 0 -0.000274159 0.00858598 0 -0.000130433 0.00857103 0 
1.37445e-05 0.00855582 0 0.000158411 0.0085401 0 0.000303552 0.00852362 0 
0.000449102 0.00850615 0 0.000594939 0.00848749 0 0.000740884 0.00846748 0 
0.000886699 0.00844603 0 0.00103209 0.00842317 0 0.00117672 0.00839903 0 
0.00132021 0.00837391 0 -0.000689168 0.00817485 0 -0.000546084 0.00816049 0 
-0.000403033 0.00814617 0 -0.000259853 0.00813181 0 -0.000116429 0.00811728 0 
2.73084e-05 0.00810241 0 0.000171381 0.00808703 0 0.000315765 0.00807095 0 
0.000460388 0.00805399 0 0.00060513 0.00803602 0 0.000749822 0.00801695 0 
0.000894247 0.00799674 0 0.00103815 0.00797545 0 0.00118124 0.00795327 0 
0.00132322 0.00793047 0 -0.000676128 0.00771829 0 -0.000533095 0.00770501 0 
-0.000390155 0.00769153 0 -0.000247175 0.00767784 0 -0.00010406 0.00766386 0 
3.92402e-05 0.00764949 0 0.000182737 0.0076346 0 0.000326399 0.00761906 0 
0.000470154 0.00760277 0 0.000613885 0.00758562 0 0.00075744 0.00756757 0 
0.000900626 0.00754864 0 0.00104322 0.00752892 0 0.00118499 0.0075086 0 
0.00132569 0.00748794 0 -0.000664563 0.00726183 0 -0.000521608 0.00724963 0 
-0.000378799 0.00723705 0 -0.000236026 0.00722412 0 -9.32192e-05 0.0072108 0 
4.96599e-05 0.00719704 0 0.000192612 0.00718277 0 0.000335602 0.00716791 0 
0.000478558 0.00715238 0 0.000621375 0.00713614 0 0.000763913 0.00711918 0 
0.000906008 0.00710156 0 0.00104747 0.00708337 0 0.00118811 0.0070648 0 
0.00132772 0.00704612 0 -0.000654383 0.00680556 0 -0.000511528 0.00679445 0 
-0.000368861 0.00678279 0 -0.000226298 0.00677067 0 -8.37879e-05 0.0067581 0 
5.86945e-05 0.00674505 0 0.000201142 0.0067315 0 0.000343517 0.0067174 0 
0.000485753 0.00670272 0 0.000627752 0.00668746 0 0.000769394 0.00667164 0 
0.000910537 0.00665531 0 0.00105102 0.0066386 0 0.0011907 0.00662169 0 
0.0013294 0.00660482 0 -0.000645487 0.00634956 0 -0.000502747 0.0063395 0 
-0.000360228 0.00632879 0 -0.000217872 0.00631752 0 -7.56423e-05 0.00630575 0 
6.64729e-05 0.00629348 0 0.000208461 0.00628073 0 0.000350283 0.00626747 0 
0.000491876 0.00625372 0 0.000633155 0.00623948 0 0.000774015 0.00622479 0 
0.000914336 0.00620975 0 0.00105399 0.00619446 0 0.00119285 0.00617911 0 
0.00133079 0.0061639 0 -0.000637768 0.00589388 0 -0.000495153 0.00588484 0 
-0.000352785 0.00587506 0 -0.000210627 0.00586468 0 -6.8658e-05 0.00585375 0 
7.31228e-05 0.00584232 0 0.000214698 0.00583042 0 0.000356028 0.00581806 0 
0.000497056 0.00580527 0 0.000637707 0.00579207 0 0.000777891 0.00577854 0 
0.000917508 0.00576475 0 0.00105645 0.00575083 0 0.00119463 0.00573694 0 
0.00133194 0.00572327 0 -0.000631118 0.00543856 0 -0.000488633 0.00543049 0 
-0.000346413 0.00542164 0 -0.000204442 0.00541214 0 -6.27129e-05 0.00540209 0 
7.87671e-05 0.00539153 0 0.000219975 0.00538052 0 0.000360874 0.0053691 0 
0.000501411 0.00535729 0 0.00064152 0.00534516 0 0.000781124 0.00533277 0 
0.000920143 0.00532021 0 0.00105849 0.0053076 0 0.00119609 0.00529508 0 
0.00133287 0.00528284 0 -0.000625429 0.00498361 0 -0.000483075 0.00497646 0 
-0.000340999 0.00496852 0 -0.000199202 0.00495991 0 -5.76899e-05 0.00495074 0 
8.35227e-05 0.00494108 0 0.00022441 0.00493099 0 0.000364934 0.00492052 0 
0.000505046 0.00490973 0 0.000644691 0.00489866 0 0.000783804 0.0048874 0 
0.000922317 0.00487603 0 0.00106016 0.00486467 0 0.00119729 0.00485345 0 
0.00133363 0.00484253 0 -0.000620599 0.00452906 0 -0.000478373 0.00452278 0 
-0.000336434 0.0045157 0 -0.000194797 0.00450797 0 -5.34791e-05 0.00449969 0 
8.74985e-05 0.00449094 0 0.000228106 0.00448179 0 0.000368308 0.00447229 0 
0.000508059 0.00446251 0 0.00064731 0.0044525 0 0.000786007 0.00444235 0 
0.000924097 0.00443215 0 0.00106153 0.00442198 0 0.00119825 0.00441199 0 
0.00133424 0.0044023 0 -0.000616531 0.00407489 0 -0.000474427 0.00406942 0 
-0.000332617 0.00406318 0 -0.000191125 0.00405631 0 -4.99783e-05 0.00404892 0 
9.07946e-05 0.00404108 0 0.000231162 0.00403286 0 0.000371089 0.00402434 0 
0.000510534 0.00401557 0 0.000649454 0.00400662 0 0.000787805 0.00399757 0 
0.000925543 0.00398849 0 0.00106263 0.00397948 0 0.00119903 0.00397065 0 
0.00133473 0.00396212 0 -0.000613136 0.00362108 0 -0.000471147 0.00361637 0 
-0.000329453 0.00361094 0 -0.000188091 0.00360491 0 -4.70948e-05 0.00359839 0 
9.35021e-05 0.00359146 0 0.000233666 0.00358419 0 0.00037336 0.00357664 0 
0.000512549 0.00356888 0 0.000651194 0.00356098 0 0.000789258 0.00355299 0 
0.000926706 0.003545 0 0.00106351 0.0035371 0 0.00119964 0.00352938 0 
0.0013351 0.00352195 0 -0.000610332 0.00316763 0 -0.000468449 0.00316362 0 
-0.00032686 0.00315896 0 -0.000185612 0.00315375 0 -4.47453e-05 0.00314809 0 
9.5702e-05 0.00314206 0 0.000235694 0.00313573 0 0.000375196 0.00312915 0 
0.000514172 0.00312239 0 0.00065259 0.00311551 0 0.000790418 0.00310858 0 
0.00092763 0.00310166 0 0.0010642 0.00309483 0 0.00120012 0.00308817 0 
0.00133539 0.00308178 0 -0.000608048 0.00271448 0 -0.000466259 0.00271114 0 
-0.000324763 0.00270722 0 -0.000183613 0.00270281 0 -4.28564e-05 0.00269799 0 
9.74658e-05 0.00269285 0 0.000237316 0.00268744 0 0.000376659 0.00268183 0 
0.000515462 0.00267606 0 0.000653696 0.0026702 0 0.000791333 0.0026643 0 
0.000928354 0.00265842 0 0.00106474 0.00265262 0 0.00120049 0.00264699 0 
0.0013356 0.00264159 0 -0.000606221 0.00226162 0 -0.000464513 0.0022589 0 
-0.000323096 0.00225568 0 -0.00018203 0.00225205 0 -4.13645e-05 0.00224806 0 
9.88552e-05 0.0022438 0 0.00023859 0.00223931 0 0.000377805 0.00223465 0 
0.000516469 0.00222987 0 0.000654556 0.00222501 0 0.000792042 0.00222012 0 
0.000928912 0.00221525 0 0.00106515 0.00221047 0 0.00120077 0.00220582 0 
0.00133576 0.00220138 0 -0.000604799 0.001809 0 -0.000463159 0.00180687 0 
-0.000321807 0.00180433 0 -0.000180808 0.00180144 0 -4.02162e-05 0.00179828 0 
9.99218e-05 0.00179488 0 0.000239566 0.00179131 0 0.00037868 0.00178759 0 
0.000517236 0.00178378 0 0.000655208 0.0017799 0 0.000792577 0.00177601 0 
0.00092933 0.00177214 0 0.00106546 0.00176834 0 0.00120097 0.00176466 0 
0.00133587 0.00176114 0 -0.000603737 0.00135658 0 -0.000462151 0.001355 0 
-0.00032085 0.00135312 0 -0.000179904 0.00135097 0 -3.9368e-05 0.00134861 0 
0.000100708 0.00134607 0 0.000240283 0.0013434 0 0.000379323 0.00134062 0 
0.000517797 0.00133777 0 0.000655684 0.00133487 0 0.000792966 0.00133196 0 
0.000929633 0.00132908 0 0.00106568 0.00132624 0 0.00120112 0.0013235 0 
0.00133595 0.00132088 0 -0.000603003 0.0009043 0 -0.000461455 0.000903263 0 
-0.000320191 0.000902015 0 -0.000179282 0.000900592 0 -3.87861e-05 0.000899023 0 
0.000101246 0.000897337 0 0.000240774 0.000895559 0 0.000379761 0.00089371 0 
0.000518179 0.000891813 0 0.000656007 0.000889887 0 0.000793229 0.000887955 0 
0.000929836 0.000886036 0 0.00106583 0.000884155 0 0.00120121 0.000882334 0 
0.001336 0.000880597 0 -0.000602572 0.000452125 0 -0.000461047 0.00045161 0 
-0.000319806 0.000450989 0 -0.000178919 0.000450279 0 -3.84466e-05 0.000449497 0 
0.00010156 0.000448656 0 0.000241059 0.000447768 0 0.000380015 0.000446845 0 
0.000518401 0.000445897 0 0.000656195 0.000444936 0 0.000793381 0.000443971 0 
0.000929954 0.000443014 0 0.00106591 0.000442076 0 0.00120126 0.000441168 0 
0.00133603 0.000440302 0 0.00160442 0.000438746 0 0.00160443 0.000877472 0 
0.00160445 0.00131616 0 0.00160447 0.00175479 0 0.0016045 0.00219334 0 
0.00160452 0.0026318 0 0.00160453 0.00307016 0 0.00160453 0.00350839 0 
0.00160452 0.00394649 0 0.00160448 0.00438446 0 0.00160443 0.00482229 0 
0.00160435 0.00525998 0 0.00160425 0.00569756 0 0.00160412 0.00613502 0 
0.00160395 0.00657242 0 0.00160376 0.0070098 0 0.00160353 0.00744723 0 
0.00160324 0.0078848 0 0.00160287 0.00832267 0 0.00160237 0.00876101 0 
0.00160163 0.0092001 0 0.00160052 0.0096403 0 0.00159878 0.0100821 0 
0.001596 0.0105262 0 0.00159158 0.0109734 0 0.00158454 0.0114249 0 
0.00157346 0.0118822 0 0.00155632 0.012347 0 0.00173813 0.000438079 0 
0.00173815 0.000876133 0 0.00173819 0.00131414 0 0.00173824 0.00175206 0 
0.0017383 0.00218988 0 0.00173838 0.00262758 0 0.00173846 0.00306513 0 
0.00173855 0.0035025 0 0.00173865 0.00393968 0 0.00173876 0.00437665 0 
0.00173888 0.00481337 0 0.00173902 0.00524985 0 0.00173919 0.00568607 0 
0.00173939 0.00612201 0 0.00173964 0.00655768 0 0.00173996 0.00699308 0 
0.00174035 0.00742824 0 0.00174083 0.00786319 0 0.00174142 0.008298 0 
0.00174211 0.00873278 0 0.00174288 0.00916768 0 0.00174367 0.00960297 0 
0.00174435 0.010039 0 0.00174467 0.0104764 0 0.0017442 0.0109158 0 
0.00174218 0.0113585 0 0.00173736 0.011806 0 0.00172759 0.0122605 0 
0.00187141 0.000437504 0 0.00187144 0.000874977 0 0.00187149 0.00131239 0 
0.00187155 0.0017497 0 0.00187163 0.00218689 0 0.00187174 0.00262392 0 
0.00187186 0.00306076 0 0.001872 0.00349738 0 0.00187216 0.00393374 0 
0.00187236 0.00436981 0 0.00187258 0.00480555 0 0.00187286 0.00524093 0 
0.00187319 0.00567591 0 0.00187359 0.00611045 0 0.0018741 0.00654451 0 
0.00187472 0.00697805 0 0.00187551 0.00741103 0 0.00187648 0.00784343 0 
0.00187769 0.00827522 0 0.00187918 0.0087064 0 0.00188098 0.009137 0 
0.00188312 0.0095671 0 0.00188559 0.00999685 0 0.00188831 0.0104266 0 
0.00189109 0.0108568 0 0.0018935 0.0112883 0 0.00189464 0.0117225 0 
0.00189286 0.0121617 0 0.00200433 0.00043703 0 0.00200436 0.000874024 0 
0.0020044 0.00131095 0 0.00200447 0.00174776 0 0.00200455 0.00218442 0 
0.00200466 0.0026209 0 0.00200479 0.00305715 0 0.00200494 0.00349314 0 
0.00200513 0.00392881 0 0.00200535 0.00436412 0 0.00200561 0.00479902 0 
0.00200593 0.00523346 0 0.00200632 0.00566737 0 0.0020068 0.00610068 0 
0.0020074 0.00653333 0 0.00200814 0.00696521 0 0.00200908 0.00739625 0 
0.00201024 0.00782634 0 0.00201171 0.00825535 0 0.00201353 0.00868317 0 
0.0020158 0.00910966 0 0.00201859 0.00953468 0 0.00202199 0.00995815 0 
0.00202608 0.01038 0 0.00203088 0.0108003 0 0.0020363 0.0112192 0 
0.00204199 0.0116375 0 0.00204708 0.0120567 0 0.00213695 0.000436667 0 
0.00213697 0.000873293 0 0.00213701 0.00130984 0 0.00213707 0.00174626 0 
0.00213714 0.00218252 0 0.00213723 0.00261857 0 0.00213735 0.00305437 0 
0.00213748 0.00348986 0 0.00213764 0.003925 0 0.00213784 0.00435972 0 
0.00213808 0.00479396 0 0.00213837 0.00522765 0 0.00213872 0.0056607 0 
0.00213916 0.00609304 0 0.00213971 0.00652454 0 0.00214039 0.00695509 0 
0.00214124 0.00738453 0 0.00214232 0.0078127 0 0.00214368 0.00823938 0 
0.00214539 0.00866434 0 0.00214754 0.00908729 0 0.00215023 0.00950788 0 
0.00215361 0.00992572 0 0.00215782 0.0103403 0 0.00216302 0.0107512 0 
0.00216938 0.0111578 0 0.00217701 0.0115597 0 0.00218582 0.0119565 0 
0.00226936 0.00043642 0 0.00226937 0.000872797 0 0.0022694 0.00130909 0 
0.00226943 0.00174525 0 0.00226948 0.00218123 0 0.00226955 0.00261699 0 
0.00226962 0.00305248 0 0.00226971 0.00348763 0 0.00226982 0.0039224 0 
0.00226996 0.00435671 0 0.00227012 0.00479049 0 0.00227032 0.00522367 0 
0.00227056 0.00565613 0 0.00227087 0.00608778 0 0.00227125 0.00651848 0 
0.00227172 0.00694808 0 0.00227231 0.00737638 0 0.00227307 0.00780318 0 
0.00227401 0.00822818 0 0.00227522 0.00865107 0 0.00227674 0.00907141 0 
0.00227867 0.00948869 0 0.00228113 0.00990227 0 0.00228424 0.0103113 0 
0.00228821 0.0107148 0 0.00229324 0.0111113 0 0.00229962 0.0114993 0 
0.00230767 0.0118764 0 0.00240163 0.000436296 0 0.00240164 0.000872547 0 
0.00240165 0.00130871 0 0.00240166 0.00174474 0 0.00240168 0.00218058 0 
0.0024017 0.00261619 0 0.00240173 0.00305152 0 0.00240176 0.0034865 0 
0.0024018 0.00392108 0 0.00240184 0.00435519 0 0.0024019 0.00478874 0 
0.00240197 0.00522164 0 0.00240206 0.00565381 0 0.00240217 0.0060851 0 
0.0024023 0.00651539 0 0.00240247 0.00694449 0 0.00240268 0.00737221 0 
0.00240295 0.00779829 0 0.00240329 0.00822241 0 0.00240372 0.0086442 0 
0.00240427 0.00906315 0 0.00240497 0.00947867 0 0.00240587 0.00988994 0 
0.00240702 0.0102959 0 0.00240849 0.0106953 0 0.0024104 0.0110862 0 
0.00241287 0.0114661 0 0.0024161 0.0118315 0 0.00253386 0.000436296 0 
0.00253386 0.000872547 0 0.00253385 0.00130871 0 0.00253384 0.00174474 0 
0.00253382 0.00218058 0 0.0025338 0.00261619 0 0.00253377 0.00305152 0 
0.00253374 0.0034865 0 0.0025337 0.00392108 0 0.00253365 0.00435519 0 
0.00253359 0.00478874 0 0.00253352 0.00522164 0 0.00253344 0.00565381 0 
0.00253333 0.0060851 0 0.00253319 0.00651539 0 0.00253302 0.00694449 0 
0.00253281 0.00737221 0 0.00253254 0.00779829 0 0.0025322 0.00822241 0 
0.00253177 0.0086442 0 0.00253122 0.00906315 0 0.00253052 0.00947867 0 
0.00252963 0.00988994 0 0.00252848 0.0102959 0 0.00252701 0.0106953 0 
0.0025251 0.0110862 0 0.00252262 0.0114661 0 0.00251939 0.0118315 0 
0.00266614 0.00043642 0 0.00266612 0.000872797 0 0.0026661 0.00130909 0 
0.00266606 0.00174525 0 0.00266601 0.00218123 0 0.00266595 0.00261699 0 
0.00266588 0.00305248 0 0.00266578 0.00348763 0 0.00266567 0.0039224 0 
0.00266554 0.00435671 0 0.00266538 0.00479049 0 0.00266518 0.00522367 0 
0.00266493 0.00565613 0 0.00266463 0.00608778 0 0.00266425 0.00651848 0 
0.00266378 0.00694808 0 0.00266318 0.00737638 0 0.00266243 0.00780318 0 
0.00266148 0.00822818 0 0.00266028 0.00865107 0 0.00265876 0.00907141 0 
0.00265682 0.00948869 0 0.00265437 0.00990227 0 0.00265125 0.0103113 0 
0.00264729 0.0107148 0 0.00264226 0.0111113 0 0.00263587 0.0114993 0 
0.00262783 0.0118764 0 0.00279855 0.000436667 0 0.00279852 0.000873293 0 
0.00279848 0.00130984 0 0.00279843 0.00174626 0 0.00279835 0.00218252 0 
0.00279826 0.00261857 0 0.00279815 0.00305437 0 0.00279802 0.00348986 0 
0.00279785 0.003925 0 0.00279766 0.00435972 0 0.00279742 0.00479396 0 
0.00279713 0.00522765 0 0.00279678 0.0056607 0 0.00279634 0.00609304 0 
0.00279579 0.00652454 0 0.00279511 0.00695509 0 0.00279425 0.00738453 0 
0.00279317 0.0078127 0 0.00279182 0.00823938 0 0.00279011 0.00866434 0 
0.00278796 0.00908729 0 0.00278526 0.00950788 0 0.00278189 0.00992572 0 
0.00277768 0.0103403 0 0.00277248 0.0107512 0 0.00276611 0.0111578 0 
0.00275848 0.0115597 0 0.00274968 0.0119565 0 0.00293117 0.00043703 0 
0.00293114 0.000874024 0 0.00293109 0.00131095 0 0.00293103 0.00174776 0 
0.00293094 0.00218442 0 0.00293084 0.0026209 0 0.00293071 0.00305715 0 
0.00293055 0.00349314 0 0.00293037 0.00392881 0 0.00293015 0.00436412 0 
0.00292989 0.00479902 0 0.00292957 0.00523346 0 0.00292918 0.00566737 0 
0.0029287 0.00610068 0 0.0029281 0.00653333 0 0.00292735 0.00696521 0 
0.00292642 0.00739625 0 0.00292525 0.00782634 0 0.00292379 0.00825535 0 
0.00292196 0.00868317 0 0.0029197 0.00910966 0 0.00291691 0.00953468 0 
0.0029135 0.00995815 0 0.00290941 0.01038 0 0.00290461 0.0108003 0 
0.0028992 0.0112192 0 0.00289351 0.0116375 0 0.00288842 0.0120567 0 
0.00306408 0.000437504 0 0.00306406 0.000874977 0 0.00306401 0.00131239 0 
0.00306394 0.0017497 0 0.00306386 0.00218689 0 0.00306376 0.00262392 0 
0.00306364 0.00306076 0 0.0030635 0.00349738 0 0.00306333 0.00393374 0 
0.00306314 0.00436981 0 0.00306291 0.00480555 0 0.00306264 0.00524093 0 
0.00306231 0.00567591 0 0.0030619 0.00611045 0 0.0030614 0.00654451 0 
0.00306077 0.00697805 0 0.00305999 0.00741103 0 0.00305901 0.00784343 0 
0.0030578 0.00827522 0 0.00305632 0.0087064 0 0.00305452 0.009137 0 
0.00305238 0.0095671 0 0.00304991 0.00999685 0 0.00304718 0.0104266 0 
0.0030444 0.0108568 0 0.003042 0.0112883 0 0.00304085 0.0117225 0 
0.00304263 0.0121617 0 0.00319736 0.000438079 0 0.00319734 0.000876133 0 
0.0031973 0.00131414 0 0.00319725 0.00175206 0 0.00319719 0.00218988 0 
0.00319712 0.00262758 0 0.00319704 0.00306513 0 0.00319695 0.0035025 0 
0.00319685 0.00393968 0 0.00319674 0.00437665 0 0.00319661 0.00481337 0 
0.00319647 0.00524985 0 0.0031963 0.00568607 0 0.0031961 0.00612201 0 
0.00319585 0.00655768 0 0.00319554 0.00699308 0 0.00319515 0.00742824 0 
0.00319466 0.00786319 0 0.00319408 0.008298 0 0.00319338 0.00873278 0 
0.00319261 0.00916768 0 0.00319182 0.00960297 0 0.00319115 0.010039 0 
0.00319083 0.0104764 0 0.0031913 0.0109158 0 0.00319332 0.0113585 0 
0.00319814 0.011806 0 0.00320791 0.0122605 0 0.00333107 0.000438746 0 
0.00333106 0.000877472 0 0.00333104 0.00131616 0 0.00333102 0.00175479 0 
0.003331 0.00219334 0 0.00333098 0.0026318 0 0.00333097 0.00307016 0 
0.00333097 0.00350839 0 0.00333098 0.00394649 0 0.00333101 0.00438446 0 
0.00333107 0.00482229 0 0.00333114 0.00525998 0 0.00333125 0.00569756 0 
0.00333138 0.00613502 0 0.00333154 0.00657242 0 0.00333174 0.0070098 0 
0.00333197 0.00744723 0 0.00333225 0.0078848 0 0.00333262 0.00832267 0 
0.00333313 0.00876101 0 0.00333386 0.0092001 0 0.00333498 0.0096403 0 
0.00333672 0.0100821 0 0.0033395 0.0105262 0 0.00334392 0.0109734 0 
0.00335095 0.0114249 0 0.00336203 0.0118822 0 0.00337918 0.012347 0 
0.00359947 0.000440302 0 0.0035995 0.000880597 0 0.00359955 0.00132088 0 
0.00359962 0.00176114 0 0.00359973 0.00220138 0 0.00359989 0.00264159 0 
0.00360011 0.00308178 0 0.00360039 0.00352195 0 0.00360077 0.00396212 0 
0.00360125 0.0044023 0 0.00360186 0.00484253 0 0.00360262 0.00528284 0 
0.00360356 0.00572327 0 0.0036047 0.0061639 0 0.00360609 0.00660482 0 
0.00360777 0.00704612 0 0.00360981 0.00748794 0 0.00361228 0.00793047 0 
0.00361529 0.00837391 0 0.00361899 0.00881854 0 0.00362359 0.0092647 0 
0.00362939 0.00971279 0 0.00363677 0.0101633 0 0.00364628 0.0106168 0 
0.00365866 0.011074 0 0.00367488 0.0115356 0 0.00369616 0.0120023 0 
0.00372389 0.0124745 0 0.00373423 0.000441168 0 0.00373429 0.000882334 0 
0.00373438 0.0013235 0 0.00373452 0.00176466 0 0.00373473 0.00220582 0 
0.003735 0.00264699 0 0.00373537 0.00308817 0 0.00373585 0.00352938 0 
0.00373647 0.00397065 0 0.00373724 0.00441199 0 0.00373821 0.00485345 0 
0.00373941 0.00529508 0 0.00374087 0.00573694 0 0.00374265 0.00617911 0 
0.0037448 0.00662169 0 0.00374739 0.0070648 0 0.0037505 0.0075086 0 
0.00375426 0.00795327 0 0.00375878 0.00839903 0 0.00376426 0.00884616 0 
0.00377094 0.00929497 0 0.00377913 0.00974584 0 0.00378925 0.0101992 0 
0.00380183 0.0106555 0 0.00381754 0.0111152 0 0.0038372 0.0115787 0 
0.00386176 0.0120464 0 0.00389221 0.0125184 0 0.00386958 0.000442076 0 
0.00386967 0.000884155 0 0.00386982 0.00132624 0 0.00387004 0.00176834 0 
0.00387034 0.00221047 0 0.00387075 0.00265262 0 0.00387129 0.00309483 0 
0.00387199 0.0035371 0 0.00387287 0.00397948 0 0.00387397 0.00442198 0 
0.00387533 0.00486467 0 0.00387701 0.0053076 0 0.00387904 0.00575083 0 
0.00388151 0.00619446 0 0.00388447 0.0066386 0 0.00388802 0.00708337 0 
0.00389227 0.00752892 0 0.00389735 0.00797545 0 0.00390341 0.00842317 0 
0.00391065 0.00887232 0 0.00391934 0.00932318 0 0.00392979 0.00977608 0 
0.00394239 0.0102313 0 0.00395761 0.0106893 0 0.00397603 0.0111502 0 
0.00399828 0.0116143 0 0.00402502 0.0120817 0 0.00405688 0.0125523 0 
0.00400554 0.000443014 0 0.00400566 0.000886036 0 0.00400586 0.00132908 0 
0.00400617 0.00177214 0 0.00400658 0.00221525 0 0.00400714 0.00265842 0 
0.00400787 0.00310166 0 0.00400879 0.003545 0 0.00400995 0.00398849 0 
0.0040114 0.00443215 0 0.00401318 0.00487603 0 0.00401535 0.00532021 0 
0.00401799 0.00576475 0 0.00402116 0.00620975 0 0.00402496 0.00665531 0 
0.00402949 0.00710156 0 0.00403487 0.00754864 0 0.00404125 0.00799674 0 
0.0040488 0.00844603 0 0.00405772 0.00889674 0 0.00406827 0.0093491 0 
0.00408075 0.00980336 0 0.00409549 0.0102597 0 0.00411289 0.0107185 0 
0.0041334 0.0111797 0 0.00415746 0.0116435 0 0.00418548 0.0121097 0 
0.00421776 0.0125781 0 0.00414211 0.000443971 0 0.00414227 0.000887955 0 
0.00414253 0.00133196 0 0.00414292 0.00177601 0 0.00414345 0.00222012 0 
0.00414416 0.0026643 0 0.00414508 0.00310858 0 0.00414624 0.00355299 0 
0.00414769 0.00399757 0 0.00414949 0.00444235 0 0.00415169 0.0048874 0 
0.00415437 0.00533277 0 0.00415761 0.00577854 0 0.00416148 0.00622479 0 
0.0041661 0.00667164 0 0.00417158 0.00711918 0 0.00417806 0.00756757 0 
0.00418567 0.00801695 0 0.00419461 0.00846748 0 0.00420507 0.00891934 0 
0.00421728 0.00937271 0 0.0042315 0.00982778 0 0.00424803 0.0102847 0 
0.00426716 0.0107435 0 0.0042892 0.0112044 0 0.00431444 0.0116672 0 
0.00434305 0.0121318 0 0.00437509 0.0125977 0 0.0042793 0.000444936 0 
0.00427949 0.000889887 0 0.00427981 0.00133487 0 0.00428029 0.0017799 0 
0.00428094 0.00222501 0 0.0042818 0.0026702 0 0.00428291 0.00311551 0 
0.0042843 0.00356098 0 0.00428604 0.00400662 0 0.00428819 0.0044525 0 
0.00429081 0.00489866 0 0.00429398 0.00534516 0 0.00429779 0.00579207 0 
0.00430234 0.00623948 0 0.00430774 0.00668746 0 0.00431412 0.00713614 0 
0.00432161 0.00758562 0 0.00433037 0.00803602 0 0.00434056 0.00848749 0 
0.00435237 0.00894016 0 0.00436601 0.00939415 0 0.0043817 0.00984959 0 
0.00439966 0.0103066 0 0.0044201 0.0107651 0 0.00444321 0.0112251 0 
0.00446912 0.0116866 0 0.00449784 0.0121493 0 0.00452924 0.0126127 0 
0.0044171 0.000445897 0 0.00441732 0.000891813 0 0.0044177 0.00133777 0 
0.00441826 0.00178378 0 0.00441903 0.00222987 0 0.00442003 0.00267606 0 
0.00442132 0.00312239 0 0.00442295 0.00356888 0 0.00442496 0.00401557 0 
0.00442744 0.00446251 0 0.00443045 0.00490973 0 0.00443408 0.00535729 0 
0.00443844 0.00580527 0 0.00444362 0.00625372 0 0.00444974 0.00670272 0 
0.00445694 0.00715238 0 0.00446534 0.00760277 0 0.00447511 0.00805399 0 
0.00448639 0.00850615 0 0.00449937 0.00895935 0 0.00451421 0.00941366 0 
0.00453108 0.00986915 0 0.00455015 0.0103259 0 0.00457155 0.0107838 0 
0.00459535 0.0112428 0 0.00462157 0.0117027 0 0.0046501 0.0121634 0 
0.00468065 0.0126244 0 0.00455548 0.000446845 0 0.00455574 0.00089371 0 
0.00455617 0.00134062 0 0.00455682 0.00178759 0 0.00455769 0.00223465 0 
0.00455884 0.00268183 0 0.0045603 0.00312915 0 0.00456214 0.00357664 0 
0.00456441 0.00402434 0 0.00456719 0.00447229 0 0.00457056 0.00492052 0 
0.00457462 0.0053691 0 0.00457947 0.00581806 0 0.00458521 0.00626747 0 
0.00459198 0.0067174 0 0.00459989 0.00716791 0 0.0046091 0.00761906 0 
0.00461973 0.00807095 0 0.00463194 0.00852362 0 0.00464588 0.00897714 0 
0.00466169 0.00943157 0 0.0046795 0.0098869 0 0.0046994 0.0103431 0 
0.00472145 0.0108002 0 0.00474567 0.0112581 0 0.00477194 0.0117165 0 
0.00480008 0.0121752 0 0.00482973 0.012634 0 0.00469444 0.000447768 0 
0.00469472 0.000895559 0 0.00469521 0.0013434 0 0.00469593 0.00179131 0 
0.00469691 0.00223931 0 0.00469818 0.00268744 0 0.0046998 0.00313573 0 
0.00470183 0.00358419 0 0.00470433 0.00403286 0 0.00470739 0.00448179 0 
0.00471109 0.00493099 0 0.00471552 0.00538052 0 0.0047208 0.00583042 0 
0.00472704 0.00628073 0 0.00473435 0.0067315 0 0.00474288 0.00718277 0 
0.00475276 0.0076346 0 0.00476411 0.00808703 0 0.00477709 0.0085401 0 
0.0047918 0.00899383 0 0.00480836 0.00944823 0 0.00482686 0.00990329 0 
0.00484736 0.010359 0 0.00486984 0.0108152 0 0.00489425 0.0112718 0 
0.00492043 0.0117287 0 0.00494809 0.0121856 0 0.00497685 0.0126423 0 
0.00483394 0.000448656 0 0.00483425 0.000897337 0 0.00483479 0.00134607 0 
0.00483557 0.00179488 0 0.00483664 0.0022438 0 0.00483803 0.00269285 0 
0.00483979 0.00314206 0 0.00484199 0.00359146 0 0.0048447 0.00404108 0 
0.004848 0.00449094 0 0.00485197 0.00494108 0 0.00485673 0.00539153 0 
0.00486237 0.00584232 0 0.00486902 0.00629348 0 0.0048768 0.00674505 0 
0.00488584 0.00719704 0 0.00489626 0.00764949 0 0.00490819 0.00810241 0 
0.00492175 0.00855582 0 0.00493705 0.0090097 0 0.00495418 0.00946404 0 
0.00497318 0.0099188 0 0.00499407 0.0103739 0 0.00501681 0.0108293 0 
0.00504126 0.0112848 0 0.00506722 0.0117402 0 0.00509439 0.0121954 0 
0.00512232 0.0126502 0 0.00497394 0.000449497 0 0.00497428 0.000899023 0 
0.00497486 0.00134861 0 0.00497571 0.00179828 0 0.00497686 0.00224806 0 
0.00497835 0.00269799 0 0.00498024 0.00314809 0 0.00498259 0.00359839 0 
0.00498547 0.00404892 0 0.00498898 0.00449969 0 0.00499319 0.00495074 0 
0.00499821 0.00540209 0 0.00500415 0.00585375 0 0.00501114 0.00630575 0 
0.00501928 0.0067581 0 0.00502872 0.0072108 0 0.00503956 0.00766386 0 
0.00505193 0.00811728 0 0.00506593 0.00857103 0 0.00508166 0.00902508 0 
0.00509917 0.0094794 0 0.0051185 0.0099339 0 0.00513963 0.0103885 0 
0.00516246 0.0108431 0 0.00518684 0.0112976 0 0.00521254 0.0117518 0 
0.0052392 0.0122054 0 0.00526639 0.0126585 0 0.00511441 0.000450279 0 
0.00511478 0.000900592 0 0.0051154 0.00135097 0 0.0051163 0.00180144 0 
0.00511753 0.00225205 0 0.00511911 0.00270281 0 0.00512111 0.00315375 0 
0.00512359 0.00360491 0 0.00512662 0.00405631 0 0.00513029 0.00450797 0 
0.0051347 0.00495991 0 0.00513994 0.00541214 0 0.00514612 0.00586468 0 
0.00515337 0.00631752 0 0.00516179 0.00677067 0 0.00517152 0.00722412 0 
0.00518267 0.00767784 0 0.00519535 0.00813181 0 0.00520966 0.00858598 0 
0.00522566 0.0090403 0 0.00524342 0.00949469 0 0.00526293 0.00994907 0 
0.00528415 0.0104033 0 0.00530696 0.0108573 0 0.0053312 0.0113109 0 
0.00535659 0.011764 0 0.00538277 0.0122164 0 0.0054093 0.0126678 0 
0.0052553 0.000450989 0 0.00525569 0.000902015 0 0.00525635 0.00135312 0 
0.0052573 0.00180433 0 0.00525859 0.00225568 0 0.00526026 0.00270722 0 
0.00526236 0.00315896 0 0.00526495 0.00361094 0 0.00526811 0.00406318 0 
0.00527193 0.0045157 0 0.0052765 0.00496852 0 0.00528191 0.00542164 0 
0.00528828 0.00587506 0 0.00529572 0.00632879 0 0.00530436 0.00678279 0 
0.00531429 0.00723705 0 0.00532565 0.00769153 0 0.00533853 0.00814617 0 
0.00535302 0.0086009 0 0.00536918 0.00905564 0 0.00538704 0.0095103 0 
0.0054066 0.00996475 0 0.0054278 0.0104189 0 0.0054505 0.0108725 0 
0.00547452 0.0113255 0 0.00549957 0.0117777 0 0.00552529 0.012229 0 
0.00555123 0.0126791 0 0.00539654 0.00045161 0 0.00539695 0.000903263 0 
0.00539765 0.001355 0 0.00539865 0.00180687 0 0.00540001 0.0022589 0 
0.00540175 0.00271114 0 0.00540394 0.00316362 0 0.00540664 0.00361637 0 
0.00540992 0.00406942 0 0.00541387 0.00452278 0 0.00541857 0.00497646 0 
0.00542413 0.00543049 0 0.00543065 0.00588484 0 0.00543824 0.0063395 0 
0.00544702 0.00679445 0 0.0054571 0.00724963 0 0.00546859 0.00770501 0 
0.00548158 0.00816049 0 0.00549615 0.00861599 0 0.00551236 0.00907139 0 
0.00553023 0.00952657 0 0.00554974 0.00998139 0 0.00557081 0.0104357 0 
0.00559332 0.0108893 0 0.00561705 0.011342 0 0.00564172 0.0117936 0 
0.00566697 0.012244 0 0.00569235 0.0126931 0 0.00553807 0.000452125 0 
0.0055385 0.0009043 0 0.00553923 0.00135658 0 0.0055403 0.001809 0 
0.00554172 0.00226162 0 0.00554354 0.00271448 0 0.00554583 0.00316763 0 
0.00554863 0.00362108 0 0.00555203 0.00407489 0 0.00555609 0.00452906 0 
0.00556093 0.00498361 0 0.00556661 0.00543856 0 0.00557326 0.00589388 0 
0.00558098 0.00634956 0 0.00558988 0.00680556 0 0.00560006 0.00726183 0 
0.00561162 0.00771829 0 0.00562466 0.00817485 0 0.00563925 0.00863139 0 
0.00565543 0.00908778 0 0.00567322 0.00954384 0 0.00569259 0.00999941 0 
0.00571346 0.0104543 0 0.00573569 0.0109082 0 0.00575906 0.011361 0 
0.00578331 0.0118125 0 0.00580805 0.0122625 0 0.00583285 0.0127106 0 
0.00588164 0.0136228 0 0.00574246 0.0136081 0 0.0056027 0.0135973 0 
0.00546233 0.0135894 0 0.00532127 0.0135837 0 0.00517943 0.0135794 0 
0.00503666 0.0135758 0 0.00489271 0.0135723 0 0.00474728 0.0135681 0 
0.00459992 0.0135624 0 0.00445006 0.013554 0 0.00429695 0.0135417 0 
0.00413963 0.0135236 0 0.00397701 0.0134972 0 0.00380792 0.0134594 0 
0.00590425 0.0140865 0 0.00576578 0.0140738 0 0.00562678 0.014065 0 
0.00548732 0.0140591 0 0.00534739 0.0140554 0 0.00520698 0.0140532 0 
0.00506598 0.014052 0 0.00492425 0.014051 0 0.00478152 0.0140496 0 
0.00463742 0.0140472 0 0.0044914 0.0140427 0 0.00434269 0.0140349 0 
0.00419023 0.014022 0 0.0040326 0.0140017 0 0.00386808 0.0139702 0 
0.00592431 0.014548 0 0.00578654 0.0145378 0 0.0056483 0.0145312 0 
0.00550975 0.0145274 0 0.005371 0.0145258 0 0.00523208 0.0145258 0 
0.00509299 0.0145267 0 0.00495368 0.0145281 0 0.00481401 0.0145295 0 
0.00467371 0.0145301 0 0.0045324 0.0145294 0 0.00438945 0.0145261 0 
0.00424387 0.014519 0 0.00409426 0.0145056 0 0.00393843 0.0144825 0 
0.00594112 0.0150074 0 0.005804 0.0149999 0 0.00566647 0.0149958 0 
0.0055288 0.0149943 0 0.00539116 0.0149948 0 0.00525368 0.0149968 0 
0.00511647 0.0149999 0 0.00497957 0.0150035 0 0.004843 0.0150073 0 
0.0047067 0.0150108 0 0.0045705 0.0150134 0 0.00443408 0.0150143 0 
0.00429682 0.0150125 0 0.00415766 0.0150062 0 0.00401471 0.0149925 0 
0.00595403 0.0154649 0 0.00581748 0.0154606 0 0.00568058 0.0154591 0 
0.00554367 0.0154599 0 0.005407 0.0154626 0 0.00527079 0.0154665 0 
0.00513522 0.0154715 0 0.00500047 0.0154771 0 0.00486671 0.015483 0 
0.00473409 0.0154889 0 0.00460273 0.0154942 0 0.00447271 0.0154986 0 
0.00434397 0.0155013 0 0.00421622 0.0155012 0 0.0040886 0.0154963 0 
0.0059625 0.0159209 0 0.00582641 0.0159198 0 0.00569001 0.0159212 0 
0.0055537 0.0159244 0 0.00541777 0.0159292 0 0.00528251 0.0159351 0 
0.00514818 0.0159419 0 0.00501506 0.0159492 0 0.00488345 0.0159569 0 
0.00475367 0.0159647 0 0.00462612 0.0159722 0 0.00450127 0.0159792 0 
0.00437963 0.0159852 0 0.00426181 0.0159897 0 0.00414839 0.0159915 0 
0.0059661 0.0163755 0 0.00583035 0.016378 0 0.0056943 0.0163823 0 
0.00555836 0.016388 0 0.00542288 0.0163949 0 0.00528817 0.0164028 0 
0.00515454 0.0164113 0 0.00502232 0.0164203 0 0.00489189 0.0164296 0 
0.00476368 0.0164389 0 0.00463825 0.0164482 0 0.0045163 0.0164571 0 
0.00439874 0.0164655 0 0.00428676 0.016473 0 0.00418201 0.0164795 0 
0.00596457 0.0168292 0 0.00582902 0.0168354 0 0.00569314 0.0168427 0 
0.00555735 0.0168511 0 0.00542199 0.0168602 0 0.00528737 0.01687 0 
0.00515382 0.0168803 0 0.00502166 0.016891 0 0.00489127 0.0169018 0 
0.00476309 0.0169127 0 0.00463769 0.0169234 0 0.00451577 0.016934 0 
0.00439825 0.0169444 0 0.00428631 0.0169545 0 0.00418162 0.0169646 0 
0.00595781 0.0172824 0 0.00582233 0.0172923 0 0.00568646 0.0173028 0 
0.00555057 0.0173138 0 0.00541499 0.0173253 0 0.00528002 0.0173372 0 
0.00514591 0.0173494 0 0.00501297 0.0173618 0 0.00488149 0.0173744 0 
0.00475182 0.017387 0 0.00462437 0.0173995 0 0.0044996 0.0174121 0 
0.00437807 0.0174249 0 0.00426037 0.0174382 0 0.00414711 0.0174529 0 
0.00594589 0.0177354 0 0.00581036 0.0177491 0 0.00567433 0.0177627 0 
0.00553814 0.0177765 0 0.00540206 0.0177905 0 0.00526631 0.0178047 0 
0.00513112 0.0178191 0 0.00499666 0.0178335 0 0.00486313 0.0178481 0 
0.0047307 0.0178629 0 0.0045995 0.0178778 0 0.00446964 0.0178932 0 
0.00434108 0.0179094 0 0.00421353 0.0179275 0 0.00408617 0.0179491 0 
0.00592904 0.0181886 0 0.00579334 0.0182059 0 0.00565703 0.0182228 0 
0.00552037 0.0182395 0 0.00538355 0.0182562 0 0.00524674 0.0182728 0 
0.00511005 0.0182896 0 0.00497357 0.0183065 0 0.00483733 0.0183236 0 
0.00470131 0.0183411 0 0.00456536 0.0183591 0 0.00442917 0.0183782 0 
0.00429218 0.0183992 0 0.00415332 0.0184236 0 0.00401073 0.0184541 0 
0.00590761 0.0186421 0 0.00577166 0.0186631 0 0.00563498 0.0186832 0 
0.00549774 0.0187029 0 0.00536004 0.0187224 0 0.00522198 0.0187418 0 
0.00508358 0.0187614 0 0.00494481 0.0187811 0 0.00480558 0.0188011 0 
0.00466567 0.0188218 0 0.00452471 0.0188436 0 0.0043821 0.0188673 0 
0.0042369 0.018894 0 0.0040877 0.0189257 0 0.00393235 0.0189658 0 
0.00588202 0.0190963 0 0.00574579 0.0191207 0 0.00560869 0.0191441 0 
0.00547081 0.0191669 0 0.00533219 0.0191894 0 0.00519283 0.0192118 0 
0.00505268 0.0192343 0 0.00491164 0.0192572 0 0.00476948 0.0192806 0 
0.00462589 0.019305 0 0.00448035 0.0193311 0 0.00433212 0.0193597 0 
0.00418018 0.0193925 0 0.00402314 0.0194315 0 0.00385927 0.0194803 0 
0.00585276 0.0195511 0 0.00571623 0.0195788 0 0.00557871 0.0196054 0 
0.00544021 0.0196314 0 0.0053007 0.0196571 0 0.00516012 0.0196826 0 
0.00501836 0.0197084 0 0.00487526 0.0197346 0 0.00473056 0.0197617 0 
0.00458386 0.0197901 0 0.00443464 0.0198206 0 0.00428219 0.0198543 0 
0.0041256 0.0198927 0 0.0039638 0.0199382 0 0.00379562 0.0199938 0 
0.00578687 0.0204419 0 0.00564981 0.0204755 0 0.00551159 0.0205083 0 
0.0053721 0.0205405 0 0.00523121 0.0205725 0 0.0050888 0.0206046 0 
0.00494474 0.0206371 0 0.00479884 0.0206702 0 0.00465085 0.0207044 0 
0.00450051 0.0207405 0 0.00434745 0.020779 0 0.00419131 0.0208212 0 
0.00403174 0.0208684 0 0.00386855 0.0209223 0 0.00370191 0.0209846 0 
0.00575129 0.0208776 0 0.00561403 0.0209139 0 0.00547558 0.0209496 0 
0.00533577 0.0209849 0 0.00519445 0.02102 0 0.00505152 0.0210553 0 
0.00490684 0.021091 0 0.00476025 0.0211274 0 0.0046116 0.021165 0 
0.00446068 0.0212044 0 0.00430728 0.0212462 0 0.00415125 0.0212916 0 
0.00399251 0.0213415 0 0.0038312 0.0213972 0 0.0036678 0.0214602 0 
0.00571385 0.0213138 0 0.00557647 0.0213526 0 0.00543786 0.0213911 0 
0.00529786 0.0214294 0 0.0051563 0.0214677 0 0.00501309 0.0215061 0 
0.00486813 0.021545 0 0.00472132 0.0215845 0 0.00457255 0.0216252 0 
0.00442175 0.0216675 0 0.00426884 0.0217122 0 0.00411384 0.0217599 0 
0.00395688 0.0218115 0 0.00379833 0.0218681 0 0.00363886 0.0219303 0 
0.00567475 0.0217501 0 0.0055373 0.0217915 0 0.00539863 0.0218328 0 
0.00525855 0.0218741 0 0.00511693 0.0219154 0 0.00497369 0.0219569 0 
0.00482876 0.0219988 0 0.00468212 0.0220413 0 0.00453375 0.0220848 0 
0.00438364 0.0221296 0 0.00423186 0.0221765 0 0.00407857 0.0222259 0 
0.00392404 0.0222785 0 0.00376877 0.0223349 0 0.00361352 0.0223955 0 
0.00563405 0.0221866 0 0.00549662 0.0222305 0 0.00535797 0.0222746 0 
0.00521793 0.0223188 0 0.0050764 0.0223631 0 0.00493334 0.0224076 0 
0.00478873 0.0224523 0 0.00464261 0.0224975 0 0.00449502 0.0225434 0 
0.00434607 0.0225904 0 0.00419591 0.022639 0 0.00404479 0.0226894 0 
0.0038931 0.0227423 0 0.00374137 0.0227979 0 0.00359039 0.0228564 0 
0.00559176 0.0226229 0 0.00545441 0.0226693 0 0.00531585 0.0227162 0 
0.00517595 0.0227633 0 0.00503465 0.0228106 0 0.00489195 0.0228579 0 
0.0047479 0.0229053 0 0.00460257 0.022953 0 0.0044561 0.023001 0 
0.00430865 0.0230498 0 0.00416045 0.0230995 0 0.00401183 0.0231506 0 
0.0038632 0.0232032 0 0.00371512 0.0232576 0 0.00356832 0.0233136 0 
0.00554775 0.0230589 0 0.00541053 0.0231079 0 0.00527213 0.0231577 0 
0.00513246 0.0232077 0 0.0049915 0.0232578 0 0.00484931 0.0233079 0 
0.004706 0.0233578 0 0.00456169 0.0234076 0 0.00441658 0.0234575 0 
0.0042709 0.0235077 0 0.00412491 0.0235582 0 0.00397899 0.0236095 0 
0.00383355 0.0236615 0 0.00368913 0.0237143 0 0.00354637 0.0237677 0 
0.0055018 0.0234944 0 0.00536477 0.0235463 0 0.00522658 0.0235989 0 
0.0050872 0.0236519 0 0.00494667 0.0237048 0 0.00480511 0.0237575 0 
0.00466268 0.0238097 0 0.00451957 0.0238615 0 0.00437602 0.0239129 0 
0.00423229 0.0239641 0 0.00408869 0.0240151 0 0.0039456 0.0240662 0 
0.00380342 0.0241173 0 0.00366265 0.0241684 0 0.00352381 0.0242192 0 
0.00545362 0.0239294 0 0.0053168 0.0239842 0 0.00517885 0.0240399 0 
0.00503981 0.0240959 0 0.00489978 0.0241516 0 0.00475895 0.0242067 0 
0.00461752 0.0242611 0 0.00447574 0.0243146 0 0.00433389 0.0243673 0 
0.00419227 0.0244192 0 0.0040512 0.0244704 0 0.00391103 0.024521 0 
0.00377217 0.0245709 0 0.00363502 0.0246202 0 0.00350004 0.0246684 0 
0.00540279 0.0243636 0 0.00526622 0.0244217 0 0.00512853 0.0244807 0 
0.00498986 0.0245397 0 0.00485038 0.0245982 0 0.00471033 0.0246557 0 
0.00457 0.024712 0 0.00442967 0.024767 0 0.00428966 0.0248207 0 
0.00415027 0.024873 0 0.00401184 0.0249241 0 0.00387471 0.024974 0 
0.00373922 0.0250226 0 0.00360571 0.0250699 0 0.00347455 0.0251156 0 
0.00534885 0.0247972 0 0.00521252 0.0248589 0 0.00507511 0.0249213 0 
0.00493681 0.0249834 0 0.00479791 0.0250446 0 0.00465872 0.0251044 0 
0.00451957 0.0251625 0 0.0043808 0.0252188 0 0.00424274 0.0252732 0 
0.00410573 0.0253257 0 0.00397007 0.0253764 0 0.00383607 0.0254253 0 
0.00370404 0.0254725 0 0.00357425 0.0255178 0 0.00344696 0.0255611 0 
0.00529122 0.02523 0 0.00515513 0.0252957 0 0.00501798 0.0253618 0 
0.00488007 0.0254271 0 0.00474178 0.0254911 0 0.00460349 0.0255531 0 
0.00446561 0.0256128 0 0.00432851 0.0256701 0 0.00419255 0.0257249 0 
0.00405806 0.0257773 0 0.00392532 0.0258273 0 0.00379461 0.0258751 0 
0.00366617 0.0259207 0 0.0035402 0.0259639 0 0.00341689 0.0260048 0 
0.00522926 0.0256621 0 0.00509339 0.0257323 0 0.00495647 0.0258023 0 
0.00481894 0.0258711 0 0.00468128 0.0259377 0 0.00454397 0.0260018 0 
0.00440747 0.0260629 0 0.00427218 0.0261209 0 0.00413849 0.0261758 0 
0.00400669 0.0262278 0 0.00387707 0.026277 0 0.00374984 0.0263234 0 
0.00362517 0.0263672 0 0.00350322 0.0264083 0 0.00338407 0.0264467 0 
0.00516226 0.0260937 0 0.00502655 0.0261688 0 0.00488983 0.0262431 0 
0.00475267 0.0263154 0 0.00461568 0.0263847 0 0.00447943 0.0264507 0 
0.00434443 0.0265129 0 0.00421114 0.0265714 0 0.00407992 0.0266262 0 
0.00395107 0.0266775 0 0.00382481 0.0267254 0 0.00370131 0.0267702 0 
0.00358068 0.026812 0 0.00346298 0.026851 0 0.00334824 0.0268869 0 
0.00508939 0.026525 0 0.00495378 0.0266056 0 0.0048172 0.0266844 0 
0.00468042 0.0267603 0 0.00454415 0.0268323 0 0.00440907 0.0268999 0 
0.00427577 0.026963 0 0.0041447 0.0270216 0 0.00401624 0.0270758 0 
0.00389064 0.027126 0 0.00376807 0.0271725 0 0.00364862 0.0272155 0 
0.00353235 0.0272551 0 0.00341922 0.0272917 0 0.00330919 0.0273252 0 
0.00500975 0.0269562 0 0.00487414 0.0270429 0 0.00473766 0.0271266 0 
0.00460124 0.0272062 0 0.00446578 0.0272807 0 0.00433205 0.0273497 0 
0.00420069 0.0274133 0 0.00407218 0.0274715 0 0.00394684 0.0275248 0 
0.00382488 0.0275736 0 0.0037064 0.0276182 0 0.00359142 0.027659 0 
0.00347989 0.0276963 0 0.00337171 0.0277304 0 0.00326676 0.0277614 0 
0.00492231 0.0273878 0 0.00478659 0.0274811 0 0.00465014 0.0275701 0 
0.00451412 0.0276533 0 0.0043796 0.0277301 0 0.00424747 0.0278001 0 
0.00411841 0.0278637 0 0.00399287 0.0279211 0 0.00387113 0.027973 0 
0.00375332 0.0280198 0 0.00363943 0.0280622 0 0.0035294 0.0281006 0 
0.00342308 0.0281354 0 0.0033203 0.0281669 0 0.00322086 0.0281953 0 
0.00482592 0.0278204 0 0.00468994 0.027921 0 0.00455345 0.0280154 0 
0.0044179 0.0281021 0 0.00428455 0.0281808 0 0.00415439 0.0282513 0 
0.0040281 0.0283143 0 0.00390611 0.0283703 0 0.00378858 0.0284201 0 
0.00367553 0.0284646 0 0.00356684 0.0285044 0 0.00346233 0.02854 0 
0.00336177 0.028572 0 0.0032649 0.0286007 0 0.00317144 0.0286265 0 
0.00471925 0.0282544 0 0.00458283 0.0283631 0 0.00444626 0.028463 0 
0.00431132 0.0285531 0 0.00417948 0.028633 0 0.00405182 0.0287033 0 
0.00392899 0.0287649 0 0.00381128 0.0288187 0 0.00369873 0.028866 0 
0.0035912 0.0289075 0 0.00348842 0.0289442 0 0.00339011 0.0289768 0 
0.00329591 0.0290059 0 0.0032055 0.0290317 0 0.00311853 0.0290547 0 
0.00460076 0.028691 0 0.0044637 0.0288083 0 0.00432703 0.0289137 0 
0.00419296 0.0290065 0 0.00406319 0.0290869 0 0.0039388 0.029156 0 
0.00382033 0.0292152 0 0.00370787 0.0292661 0 0.00360124 0.02931 0 
0.00350013 0.0293481 0 0.0034041 0.0293814 0 0.00331271 0.0294107 0 
0.00322555 0.0294365 0 0.00314219 0.0294594 0 0.00306224 0.0294795 0 
0.0044686 0.0291313 0 0.00433066 0.0292577 0 0.00419398 0.0293683 0 
0.00406128 0.0294628 0 0.00393443 0.0295424 0 0.00381441 0.0296091 0 
0.00370151 0.0296649 0 0.00359552 0.0297118 0 0.00349597 0.0297517 0 
0.00340232 0.0297858 0 0.00331395 0.0298153 0 0.00323031 0.029841 0 
0.00315088 0.0298635 0 0.00307518 0.0298833 0 0.00300279 0.0299007 0 
0.00432056 0.0295769 0 0.00418148 0.0297127 0 0.00404505 0.0298276 0 
0.00391458 0.0299223 0 0.00379197 0.0299994 0 0.0036779 0.0300619 0 
0.00357217 0.030113 0 0.00347415 0.0301551 0 0.00338303 0.0301903 0 
0.00329799 0.03022 0 0.00321828 0.0302454 0 0.00314322 0.0302673 0 
0.00307223 0.0302864 0 0.00300479 0.0303031 0 0.00294047 0.0303177 0 
0.0041538 0.0300299 0 0.00401338 0.0301751 0 0.00387787 0.0302925 0 
0.00375114 0.0303849 0 0.00363482 0.030457 0 0.00352886 0.0305136 0 
0.00343235 0.0305586 0 0.00334408 0.0305949 0 0.00326287 0.0306248 0 
0.00318768 0.0306497 0 0.00311762 0.0306708 0 0.00305196 0.030689 0 
0.00299008 0.0307046 0 0.00293147 0.0307183 0 0.00287569 0.0307302 0 
0.00396463 0.0304933 0 0.00382287 0.0306467 0 0.00368976 0.0307633 0 
0.00356945 0.0308498 0 0.00346249 0.030914 0 0.00336753 0.0309627 0 
0.00328267 0.0310003 0 0.0032061 0.0310301 0 0.00313635 0.0310543 0 
0.00307221 0.0310743 0 0.00301276 0.0310911 0 0.00295725 0.0311054 0 
0.00290509 0.0311178 0 0.00285579 0.0311285 0 0.00280895 0.0311379 0 
0.00374796 0.0309717 0 0.00360549 0.0311297 0 0.0034781 0.0312395 0 
0.00336876 0.031315 0 0.00327558 0.0313682 0 0.00319516 0.031407 0 
0.00312459 0.0314364 0 0.00306168 0.0314593 0 0.00300481 0.0314777 0 
0.00295279 0.0314928 0 0.00290475 0.0315054 0 0.00286 0.0315162 0 
0.00281803 0.0315254 0 0.00277842 0.0315334 0 0.00274082 0.0315404 0 
0.00349601 0.0314714 0 0.00335613 0.0316252 0 0.00324133 0.0317185 0 
0.00315056 0.0317769 0 0.00307661 0.0318163 0 0.00301439 0.0318443 0 
0.00296054 0.0318651 0 0.0029129 0.0318812 0 0.00287003 0.031894 0 
0.00283091 0.0319045 0 0.00279483 0.0319133 0 0.00276126 0.0319208 0 
0.00272979 0.0319272 0 0.00270011 0.0319327 0 0.00267195 0.0319375 0 
0.00319866 0.0320017 0 0.00306957 0.0321298 0 0.00298338 0.0321926 0 
0.00292037 0.0322304 0 0.00287067 0.032255 0 0.0028294 0.0322723 0 
0.00279384 0.032285 0 0.00276242 0.0322948 0 0.00273412 0.0323027 0 
0.00270828 0.032309 0 0.00268442 0.0323144 0 0.0026622 0.0323189 0 
0.00264135 0.0323228 0 0.00262169 0.0323262 0 0.00260302 0.0323291 0 
0.00283184 0.032567 0 0.00275951 0.0326232 0 0.00271829 0.0326534 0 
0.00268857 0.0326704 0 0.00266511 0.0326816 0 0.00264543 0.0326894 0 
0.00262834 0.0326951 0 0.00261311 0.0326996 0 0.00259932 0.0327031 0 
0.00258666 0.032706 0 0.00257493 0.0327084 0 0.00256398 0.0327104 0 
0.00255369 0.0327122 0 0.00254396 0.0327137 0 0.00253473 0.0327151 0 
0.00251744 0.0327172 0 0.0025681 0.0323339 0 0.00261927 0.0319453 0 
0.00267044 0.0315517 0 0.00272114 0.031153 0 0.00277092 0.0307495 0 
0.00281935 0.0303415 0 0.00286609 0.0299291 0 0.00291081 0.0295128 0 
0.00295326 0.0290928 0 0.00299326 0.0286695 0 0.00303068 0.0282432 0 
0.00306546 0.0278143 0 0.00309756 0.0273831 0 0.00312701 0.0269499 0 
0.00315387 0.0265148 0 0.00317823 0.0260782 0 0.00320022 0.0256401 0 
0.00321998 0.0252008 0 0.00323772 0.0247601 0 0.00325366 0.024318 0 
0.00326811 0.0238743 0 0.00328147 0.0234287 0 0.00329427 0.0229806 0 
0.0033073 0.0225293 0 0.00332165 0.0220737 0 0.00333889 0.0216124 0 
0.00336118 0.0211437 0 0.00250927 0.0327181 0 0.00255161 0.0323357 0 
0.00259439 0.0319484 0 0.00263718 0.0315561 0 0.0026796 0.031159 0 
0.00272128 0.0307572 0 0.00276188 0.0303509 0 0.00280108 0.0299405 0 
0.00283863 0.0295261 0 0.00287431 0.0291081 0 0.00290794 0.0286869 0 
0.00293942 0.0282628 0 0.00296866 0.0278361 0 0.00299562 0.0274072 0 
0.0030203 0.0269763 0 0.00304272 0.0265438 0 0.00306293 0.0261099 0 
0.003081 0.0256748 0 0.00309702 0.0252388 0 0.0031111 0.0248018 0 
0.00312338 0.024364 0 0.00313405 0.0239253 0 0.00314335 0.0234854 0 
0.00315166 0.023044 0 0.00315954 0.0226003 0 0.00316786 0.0221534 0 
0.00317798 0.0217017 0 0.00319217 0.0212432 0 0.00250136 0.0327188 0 
0.00253565 0.0323373 0 0.0025703 0.0319509 0 0.00260497 0.0315598 0 
0.00263935 0.0311639 0 0.00267316 0.0307635 0 0.0027061 0.0303587 0 
0.00273793 0.0299499 0 0.00276845 0.0295372 0 0.00279745 0.029121 0 
0.00282481 0.0287016 0 0.00285042 0.0282794 0 0.00287419 0.0278546 0 
0.00289608 0.0274278 0 0.00291606 0.0269991 0 0.00293415 0.0265689 0 
0.00295034 0.0261376 0 0.00296468 0.0257054 0 0.00297719 0.0252726 0 
0.00298792 0.0248394 0 0.00299692 0.024406 0 0.00300427 0.0239725 0 
0.00301007 0.023539 0 0.0030145 0.0231051 0 0.00301787 0.0226706 0 
0.00302069 0.0222348 0 0.00302394 0.0217963 0 0.00302937 0.021353 0 
0.00249367 0.0327193 0 0.00252012 0.0323385 0 0.00254685 0.0319529 0 
0.0025736 0.0315627 0 0.00260015 0.0311679 0 0.00262625 0.0307686 0 
0.0026517 0.030365 0 0.00267631 0.0299574 0 0.00269991 0.0295461 0 
0.00272235 0.0291313 0 0.00274352 0.0287134 0 0.00276332 0.0282928 0 
0.0027817 0.0278697 0 0.0027986 0.0274446 0 0.002814 0.0270178 0 
0.00282787 0.0265897 0 0.00284022 0.0261606 0 0.00285104 0.025731 0 
0.00286033 0.0253012 0 0.00286808 0.0248716 0 0.00287429 0.0244424 0 
0.00287895 0.024014 0 0.00288205 0.0235868 0 0.00288359 0.0231608 0 
0.00288361 0.0227362 0 0.0028823 0.0223129 0 0.00288006 0.0218903 0 
0.00287784 0.021467 0 0.00248615 0.0327197 0 0.00250492 0.0323394 0 
0.0025239 0.0319545 0 0.00254289 0.0315649 0 0.00256174 0.0311708 0 
0.00258029 0.0307723 0 0.00259838 0.0303697 0 0.00261587 0.0299631 0 
0.00263265 0.0295528 0 0.00264861 0.0291391 0 0.00266367 0.0287224 0 
0.00267776 0.0283029 0 0.00269082 0.0278811 0 0.00270282 0.0274574 0 
0.00271372 0.0270321 0 0.00272352 0.0266057 0 0.00273219 0.0261785 0 
0.00273971 0.025751 0 0.00274607 0.0253237 0 0.00275125 0.0248971 0 
0.0027552 0.0244715 0 0.00275786 0.0240477 0 0.00275916 0.0236261 0 
0.002759 0.0232073 0 0.00275727 0.0227922 0 0.00275386 0.0223812 0 
0.00274871 0.021975 0 0.00274196 0.021574 0 0.00247874 0.03272 0 
0.00248996 0.03234 0 0.0025013 0.0319555 0 0.00251265 0.0315664 0 
0.00252392 0.0311728 0 0.002535 0.0307749 0 0.00254582 0.0303728 0 
0.00255628 0.0299669 0 0.00256632 0.0295573 0 0.00257587 0.0291443 0 
0.00258488 0.0287284 0 0.0025933 0.0283098 0 0.00260111 0.0278889 0 
0.00260828 0.0274661 0 0.00261478 0.0270418 0 0.00262061 0.0266166 0 
0.00262574 0.0261907 0 0.00263017 0.0257648 0 0.00263387 0.0253393 0 
0.00263681 0.0249148 0 0.00263896 0.0244919 0 0.00264026 0.0240714 0 
0.00264063 0.0236541 0 0.00263995 0.023241 0 0.00263809 0.0228332 0 
0.00263483 0.0224323 0 0.00262994 0.02204 0 0.00262313 0.0216587 0 
0.0024714 0.0327202 0 0.00247514 0.0323404 0 0.00247891 0.031956 0 
0.00248268 0.0315671 0 0.00248643 0.0311738 0 0.00249012 0.0307761 0 
0.00249372 0.0303744 0 0.0024972 0.0299688 0 0.00250054 0.0295595 0 
0.00250372 0.029147 0 0.00250672 0.0287314 0 0.00250952 0.0283132 0 
0.00251212 0.0278928 0 0.0025145 0.0274705 0 0.00251667 0.0270467 0 
0.0025186 0.0266221 0 0.0025203 0.0261969 0 0.00252176 0.0257718 0 
0.00252297 0.0253472 0 0.00252393 0.0249239 0 0.0025246 0.0245024 0 
0.00252498 0.0240837 0 0.00252503 0.0236687 0 0.0025247 0.0232586 0 
0.00252392 0.022855 0 0.00252261 0.0224597 0 0.00252063 0.0220755 0 
0.00251781 0.021706 0 0.00246409 0.0327202 0 0.00246036 0.0323404 0 
0.00245659 0.031956 0 0.00245281 0.0315671 0 0.00244906 0.0311738 0 
0.00244537 0.0307761 0 0.00244178 0.0303744 0 0.00243829 0.0299688 0 
0.00243495 0.0295595 0 0.00243178 0.029147 0 0.00242878 0.0287314 0 
0.00242597 0.0283132 0 0.00242337 0.0278928 0 0.00242099 0.0274705 0 
0.00241883 0.0270467 0 0.0024169 0.0266221 0 0.0024152 0.0261969 0 
0.00241374 0.0257718 0 0.00241252 0.0253472 0 0.00241157 0.0249239 0 
0.00241089 0.0245024 0 0.00241051 0.0240837 0 0.00241047 0.0236687 0 
0.0024108 0.0232586 0 0.00241157 0.022855 0 0.00241288 0.0224597 0 
0.00241486 0.0220755 0 0.00241768 0.021706 0 0.00245676 0.03272 0 
0.00244554 0.03234 0 0.0024342 0.0319555 0 0.00242285 0.0315664 0 
0.00241158 0.0311728 0 0.00240049 0.0307749 0 0.00238968 0.0303728 0 
0.00237921 0.0299669 0 0.00236918 0.0295573 0 0.00235963 0.0291443 0 
0.00235062 0.0287284 0 0.0023422 0.0283098 0 0.00233439 0.0278889 0 
0.00232722 0.0274661 0 0.00232071 0.0270418 0 0.00231489 0.0266166 0 
0.00230975 0.0261907 0 0.00230533 0.0257648 0 0.00230163 0.0253393 0 
0.00229868 0.0249148 0 0.00229653 0.0244919 0 0.00229523 0.0240714 0 
0.00229487 0.0236541 0 0.00229554 0.023241 0 0.00229741 0.0228332 0 
0.00230066 0.0224323 0 0.00230556 0.02204 0 0.00231237 0.0216587 0 
0.00244935 0.0327197 0 0.00243057 0.0323394 0 0.0024116 0.0319545 0 
0.0023926 0.0315649 0 0.00237375 0.0311708 0 0.00235521 0.0307723 0 
0.00233712 0.0303697 0 0.00231963 0.0299631 0 0.00230285 0.0295528 0 
0.00228688 0.0291391 0 0.00227183 0.0287224 0 0.00225774 0.0283029 0 
0.00224468 0.0278811 0 0.00223268 0.0274574 0 0.00222177 0.0270321 0 
0.00221198 0.0266057 0 0.00220331 0.0261785 0 0.00219579 0.025751 0 
0.00218942 0.0253237 0 0.00218425 0.0248971 0 0.0021803 0.0244715 0 
0.00217764 0.0240477 0 0.00217634 0.0236261 0 0.00217649 0.0232073 0 
0.00217822 0.0227922 0 0.00218163 0.0223812 0 0.00218679 0.021975 0 
0.00219354 0.021574 0 0.00244182 0.0327193 0 0.00241537 0.0323385 0 
0.00238865 0.0319529 0 0.00236189 0.0315627 0 0.00233535 0.0311679 0 
0.00230925 0.0307686 0 0.00228379 0.030365 0 0.00225919 0.0299574 0 
0.00223559 0.0295461 0 0.00221315 0.0291313 0 0.00219198 0.0287134 0 
0.00217217 0.0282928 0 0.00215379 0.0278697 0 0.00213689 0.0274446 0 
0.0021215 0.0270178 0 0.00210762 0.0265897 0 0.00209527 0.0261606 0 
0.00208446 0.025731 0 0.00207517 0.0253012 0 0.00206742 0.0248716 0 
0.0020612 0.0244424 0 0.00205654 0.024014 0 0.00205345 0.0235868 0 
0.00205191 0.0231608 0 0.00205188 0.0227362 0 0.0020532 0.0223129 0 
0.00205544 0.0218903 0 0.00205766 0.021467 0 0.00243413 0.0327188 0 
0.00239984 0.0323373 0 0.0023652 0.0319509 0 0.00233053 0.0315598 0 
0.00229614 0.0311639 0 0.00226234 0.0307635 0 0.0022294 0.0303587 0 
0.00219756 0.0299499 0 0.00216705 0.0295372 0 0.00213804 0.029121 0 
0.00211068 0.0287016 0 0.00208508 0.0282794 0 0.00206131 0.0278546 0 
0.00203942 0.0274278 0 0.00201943 0.0269991 0 0.00200135 0.0265689 0 
0.00198515 0.0261376 0 0.00197082 0.0257054 0 0.00195831 0.0252726 0 
0.00194758 0.0248394 0 0.00193858 0.024406 0 0.00193123 0.0239725 0 
0.00192542 0.023539 0 0.00192099 0.0231051 0 0.00191763 0.0226706 0 
0.00191481 0.0222348 0 0.00191156 0.0217963 0 0.00190612 0.021353 0 
0.00242623 0.0327181 0 0.00238388 0.0323357 0 0.00234111 0.0319484 0 
0.00229832 0.0315561 0 0.00225589 0.031159 0 0.00221421 0.0307572 0 
0.00217362 0.0303509 0 0.00213442 0.0299405 0 0.00209687 0.0295261 0 
0.00206119 0.0291081 0 0.00202755 0.0286869 0 0.00199608 0.0282628 0 
0.00196684 0.0278361 0 0.00193988 0.0274072 0 0.0019152 0.0269763 0 
0.00189278 0.0265438 0 0.00187257 0.0261099 0 0.00185449 0.0256748 0 
0.00183847 0.0252388 0 0.00182439 0.0248018 0 0.00181211 0.024364 0 
0.00180145 0.0239253 0 0.00179214 0.0234854 0 0.00178383 0.023044 0 
0.00177595 0.0226003 0 0.00176764 0.0221534 0 0.00175751 0.0217017 0 
0.00174332 0.0212432 0 0.00241806 0.0327172 0 0.00236739 0.0323339 0 
0.00231623 0.0319453 0 0.00226506 0.0315517 0 0.00221436 0.031153 0 
0.00216458 0.0307495 0 0.00211614 0.0303415 0 0.00206941 0.0299291 0 
0.00202469 0.0295128 0 0.00198224 0.0290928 0 0.00194224 0.0286695 0 
0.00190481 0.0282432 0 0.00187004 0.0278143 0 0.00183794 0.0273831 0 
0.00180849 0.0269499 0 0.00178163 0.0265148 0 0.00175727 0.0260782 0 
0.00173528 0.0256401 0 0.00171551 0.0252008 0 0.00169778 0.0247601 0 
0.00168183 0.024318 0 0.00166738 0.0238743 0 0.00165403 0.0234287 0 
0.00164122 0.0229806 0 0.0016282 0.0225293 0 0.00161385 0.0220737 0 
0.00159661 0.0216124 0 0.00157432 0.0211437 0 
METADATA
COMPONENT_NAMES
D1
D2
D3

S 6 4256 double
35.8579 63.9105 2.05543 -43.4035 2.08722e-13 3.9968e-15 35.3638 63.312 2.00751 
42.9286 -7.10543e-14 2.84217e-14 35.3638 63.312 2.00751 -42.9286 1.90958e-13 4.26326e-14 
35.8579 63.9105 2.05543 43.4035 1.31006e-13 -8.88178e-16 -5.13886 96.8132 0.00734545 
-2.8116 -4.6893e-14 -7.93809e-15 -5.65469 96.0056 0.0123022 1.99471 -1.50477e-13 -2.04628e-14 
-5.65469 96.0056 0.0123022 -1.99471 8.4148e-14 -2.52368e-14 -5.13886 96.8132 0.00734545 
2.8116 -7.11722e-14 -2.02616e-15 51.3671 171.037 0.184424 41.8956 3.08642e-13 2.67564e-13 
-0.117413 87.4531 -0.0409406 0.07269 3.89258e-13 -3.2082e-14 -0.0566413 89.9058 -0.0197619 
-0.210572 2.02217e-13 -3.17758e-14 0.0203665 91.6422 0.00738092 -0.0117453 6.53345e-14 -1.19826e-14 
0.805837 89.2387 -0.0010317 -0.000108962 9.05919e-15 -7.19303e-15 0.805837 89.2387 -0.0010317 
0.000108962 -9.28729e-14 2.40285e-14 0.0203665 91.6422 0.00738092 0.0117453 8.02615e-14 1.06735e-13 
-0.0566413 89.9058 -0.0197619 0.210572 7.75109e-14 9.65105e-14 -0.117413 87.4531 -0.0409406 
-0.07269 8.11504e-14 8.90451e-14 51.3671 171.037 0.184424 -41.8956 -3.81917e-14 6.88338e-14 
25.3967 84.4823 0.173391 -4.53036 -9.37722e-14 2.68015e-14 25.3967 84.4823 0.173391 
4.53036 -2.26298e-13 -7.8583e-16 -6.39438 98.8717 0.130884 -3.52733 -1.6695e-14 8.8124e-15 
-7.64503 100.263 0.177093 -4.24411 5.54695e-14 -2.69507e-14 -9.0404 101.786 0.209927 
-5.1129 -1.06928e-13 1.81244e-14 -10.5476 103.439 0.24857 -6.16103 -1.65201e-13 -8.29892e-15 
-12.1258 105.18 0.291765 -7.42603 1.42053e-13 -7.57727e-15 -13.7005 106.927 0.338038 
-8.95134 -1.51851e-13 -3.80806e-14 -15.1426 108.54 0.385055 -10.7872 1.81521e-14 1.90403e-14 
-16.2404 109.789 0.429015 -12.9915 3.16414e-14 7.77156e-15 -16.6631 110.318 0.464179 
-15.6309 9.40359e-14 -1.18794e-14 -15.9101 109.588 0.482189 -18.7817 -2.44249e-15 1.37668e-14 
-13.2446 106.813 0.471184 -22.5304 -2.33147e-14 1.68754e-14 -7.60233 100.861 0.414083 
-26.9731 -9.81437e-14 -3.9968e-15 2.53189 90.131 0.281151 -32.2113 1.55653e-13 2.44249e-15 
19.3441 72.3838 0.0031026 -38.324 -2.85105e-13 -5.32907e-15 -6.87672 98.173 0.146037 
2.77027 1.20834e-13 -1.6237e-15 -8.07766 99.6033 0.194405 3.53263 -2.01644e-14 1.26843e-14 
-9.4249 101.157 0.227282 4.44999 1.35725e-14 -1.59595e-15 -10.8884 102.84 0.265458 
5.54765 -1.78274e-13 8.82627e-15 -12.4282 104.607 0.307676 6.86189 1.385e-13 5.27356e-15 
-13.9694 106.375 0.352554 8.43519 -3.17968e-13 -9.63118e-15 -15.3828 108.004 0.397815 
10.3169 1.58706e-13 1.16573e-15 -16.4572 109.263 0.439701 12.5641 1.12355e-13 1.02696e-14 
-16.8627 109.793 0.472521 15.2422 1.57652e-14 8.21565e-15 -16.1008 109.059 0.488014 
18.4253 -4.44089e-16 -7.10543e-15 -13.4379 106.275 0.47455 22.1966 8.37108e-14 8.21565e-15 
-7.81513 100.314 0.415555 26.6469 -1.32117e-13 2.22045e-16 2.27513 89.5825 0.282147 
31.869 1.35447e-14 -2.95319e-14 19.007 71.8571 0.00541409 37.9283 -1.66089e-13 -1.59872e-14 
-6.87672 98.173 0.146037 -2.77027 4.79825e-14 8.99975e-15 -8.07766 99.6033 0.194405 
-3.53263 5.65381e-14 4.46865e-15 -9.4249 101.157 0.227282 -4.44999 -2.50217e-14 -1.67505e-14 
-10.8884 102.84 0.265458 -5.54765 2.67841e-14 1.2601e-14 -12.4282 104.607 0.307676 
-6.86189 9.44522e-14 4.40759e-14 -13.9694 106.375 0.352554 -8.43519 -8.81517e-14 -3.1114e-14 
-15.3828 108.004 0.397815 -10.3169 4.64628e-14 2.98095e-14 -16.4572 109.263 0.439701 
-12.5641 2.09943e-13 2.08722e-14 -16.8627 109.793 0.472521 -15.2422 -5.69544e-14 -2.03171e-14 
-16.1008 109.059 0.488014 -18.4253 -2.18048e-13 -2.91989e-14 -13.4379 106.275 0.47455 
-22.1966 1.42553e-13 -2.22045e-16 -7.81513 100.314 0.415555 -26.6469 7.54952e-14 1.82077e-14 
2.27513 89.5825 0.282147 -31.869 -2.90878e-14 -2.08722e-14 19.007 71.8571 0.0054141 
-37.9283 -3.78808e-13 -6.35048e-14 -6.39438 98.8717 0.130884 3.52733 1.55417e-13 -4.9058e-15 
-7.64503 100.263 0.177093 4.24411 -1.18988e-13 -1.09496e-14 -9.0404 101.786 0.209927 
5.1129 1.28383e-13 5.96051e-14 -10.5476 103.439 0.24857 6.16103 -2.68868e-13 -5.75651e-14 
-12.1258 105.18 0.291765 7.42603 2.49245e-14 2.1344e-14 -13.7005 106.927 0.338038 
8.95134 -3.24768e-13 -1.77081e-14 -15.1426 108.54 0.385055 10.7872 3.42892e-13 1.79856e-14 
-16.2404 109.789 0.429015 12.9915 -9.9587e-14 -7.04992e-15 -16.6631 110.318 0.464179 
15.6309 -1.97509e-13 2.0095e-14 -15.9101 109.588 0.482189 18.7817 1.88738e-13 -2.95319e-14 
-13.2446 106.813 0.471184 22.5304 1.96954e-13 2.22045e-15 -7.60233 100.861 0.414083 
26.9731 -5.81757e-14 5.32907e-15 2.53189 90.131 0.281151 32.2113 -1.01474e-13 6.66134e-16 
19.3441 72.3838 0.00310259 38.324 -2.22933e-13 -1.42109e-14 45.2485 94.9493 3.9729 
-57.7761 -1.42109e-14 3.9968e-15 49.2301 132.591 6.55157 -68.6107 5.19584e-14 -1.88738e-14 
46.6608 172.233 8.68651 -73.1286 -3.69482e-13 -5.9952e-15 39.377 210.725 10.3845 
-69.6248 2.20268e-13 -1.15463e-14 30.0618 244.25 11.6182 -57.6233 1.97176e-13 3.20854e-14 
21.6779 269.089 12.4063 -38.077 -1.38778e-13 -8.21565e-15 16.7506 282.254 12.7816 
-13.3332 7.77711e-14 7.54952e-15 16.7326 282.092 12.7711 13.2461 1.63092e-13 -1.57652e-14 
21.6148 268.624 12.3757 37.932 -2.44915e-13 -2.5091e-14 29.9311 243.548 11.5699 
57.3792 -5.32907e-14 7.77156e-16 39.1546 209.876 10.3227 69.2677 -6.88338e-14 -1.0103e-14 
46.3341 171.337 8.61725 72.6746 1.2701e-13 7.49401e-15 48.8086 131.737 6.48241 
68.0993 1.9984e-14 -5.55112e-15 44.7671 94.2075 3.9125 57.259 -1.08802e-13 -2.02061e-14 
21.5378 35.9567 -0.0758786 27.1909 8.79297e-14 1.37668e-14 0.981858 14.4336 -2.75324 
11.3715 6.63913e-14 -1.19904e-14 -22.9089 0.647529 -5.0438 -1.78762 -3.61933e-14 -1.90958e-14 
-47.7106 -6.33359 -6.88673 -10.256 -1.60705e-14 -4.88498e-15 -70.3058 -8.42774 -8.2334 
-13.0491 1.68532e-13 -3.10862e-15 -87.5665 -7.99548 -9.09766 -10.4363 -6.41709e-14 2.86438e-14 
-96.9219 -7.15288 -9.51471 -3.94802 -6.10623e-14 1.05471e-14 -96.9219 -7.15288 -9.51471 
3.94802 1.62981e-13 3.4639e-14 -87.5665 -7.99548 -9.09766 10.4363 -1.01252e-13 -3.86358e-14 
-70.3058 -8.42774 -8.2334 13.0491 -1.59206e-13 -2.57572e-14 -47.7106 -6.33359 -6.88673 
10.256 5.81757e-14 -5.24025e-14 -22.9089 0.647529 -5.0438 1.78762 -4.30767e-14 1.77636e-15 
0.981858 14.4336 -2.75324 -11.3715 4.75175e-14 2.9754e-14 21.5378 35.9567 -0.0758786 
-27.1909 -3.55271e-14 -3.81917e-14 44.7671 94.2075 3.9125 -57.259 -4.08562e-14 -8.65974e-15 
48.8086 131.737 6.48241 -68.0993 5.59552e-14 -1.11022e-15 46.3341 171.337 8.61725 
-72.6746 -1.38556e-13 -6.17284e-14 39.1546 209.876 10.3227 -69.2677 9.28146e-14 4.39648e-14 
29.9311 243.548 11.5699 -57.3792 1.61204e-13 -1.77636e-14 21.6148 268.624 12.3757 
-37.932 -4.01901e-14 -7.77156e-15 16.7326 282.092 12.7711 -13.2461 4.64628e-14 3.95239e-14 
16.7506 282.254 12.7816 13.3332 1.30729e-13 4.84057e-14 21.6779 269.089 12.4063 
38.077 -3.26406e-14 -2.55351e-14 30.0618 244.25 11.6182 57.6233 -3.13083e-13 -6.15064e-14 
39.377 210.725 10.3845 69.6248 1.33227e-15 -5.34017e-14 46.6608 172.233 8.68651 
73.1286 -1.3145e-13 -1.65978e-14 49.2301 132.591 6.55157 68.6107 1.02141e-14 1.82077e-14 
45.2485 94.9493 3.9729 57.7761 7.99361e-15 7.54952e-15 21.9969 36.3887 -0.0441392 
27.586 2.79332e-13 8.88178e-16 1.34524 14.7001 -2.74425 11.6591 -8.06022e-14 1.06581e-14 
-22.6897 0.77909 -5.05852 -1.61435 -2.18714e-14 -5.77316e-15 -47.665 -6.29369 -6.92316 
-10.1807 -5.53446e-14 -1.9984e-14 -70.4338 -8.43762 -8.2873 -13.0382 4.36318e-14 2.9754e-14 
-87.8351 -8.02511 -9.16355 -10.4507 2.4003e-13 -3.08642e-14 -97.2693 -7.18726 -9.58664 
-3.95676 -2.22045e-14 -5.44009e-15 -97.2693 -7.18726 -9.58664 3.95676 1.74527e-13 5.10147e-14 
-87.8351 -8.02511 -9.16355 10.4507 7.54952e-14 -3.59712e-14 -70.4338 -8.43762 -8.2873 
13.0382 1.72529e-13 -1.15463e-14 -47.665 -6.29369 -6.92316 10.1807 9.8338e-14 -3.68594e-14 
-22.6897 0.77909 -5.05852 1.61435 0 -5.32907e-15 1.34524 14.7001 -2.74425 
-11.6591 2.24709e-13 1.77636e-14 21.9969 36.3887 -0.0441391 -27.586 -1.6831e-13 -1.59872e-14 
-4.70113 98.1697 0.0734786 -1.32191 -1.38292e-13 -3.22346e-14 -3.75546 99.7107 0.103914 
0.244251 7.05686e-14 6.6197e-15 -1.7368 100.791 0.137701 2.05805 -1.62648e-13 -2.60122e-14 
1.48343 101.123 0.150708 3.62724 6.96665e-15 -4.656e-15 5.58056 100.65 0.152248 
4.25807 -1.71738e-13 -9.89486e-15 9.58358 99.7025 0.15034 3.3697 9.76996e-14 4.95437e-15 
12.1025 98.9313 0.149635 0.989461 1.07057e-13 -5.27356e-15 12.071 98.8784 0.149784 
-2.01818 -1.15456e-13 -3.10862e-15 9.49237 99.5424 0.150997 -4.38557 -1.6169e-13 -1.21847e-14 
5.4361 100.38 0.153942 -5.25243 7.93809e-14 -6.4948e-15 1.29004 100.742 0.154095 
-4.5959 -6.70297e-15 2.95597e-15 -1.98027 100.3 0.143478 -2.99852 1.55154e-14 -2.93021e-14 
-4.05648 99.1096 0.111833 -1.15365 5.19446e-14 -1.10537e-14 -5.07371 97.4565 0.0854492 
0.444444 1.0246e-13 -7.01522e-15 -6.47113 93.8636 -0.210935 4.08895 3.69843e-15 -1.11161e-14 
-6.89336 91.6646 -0.272061 6.24419 1.73576e-14 7.35523e-16 -6.50214 88.1252 -0.302386 
8.38619 4.89192e-14 3.12111e-14 -5.09154 83.1557 -0.315711 9.81407 -1.03917e-13 -2.32869e-14 
-2.80506 77.2661 -0.318347 9.64492 -9.88515e-14 -2.37171e-14 -0.318603 71.7362 -0.319436 
7.21836 9.5618e-14 2.06779e-15 1.32921 68.3133 -0.321469 2.69537 8.59035e-14 -3.26336e-14 
1.32921 68.3133 -0.321469 -2.69537 -1.2651e-13 2.83107e-15 -0.318603 71.7362 -0.319436 
-7.21836 -9.62147e-14 -9.95037e-15 -2.80506 77.2661 -0.318347 -9.64492 -4.1217e-14 7.06379e-15 
-5.09154 83.1557 -0.315711 -9.81407 3.17177e-14 -1.09218e-14 -6.50214 88.1252 -0.302386 
-8.38619 3.57665e-14 -3.63598e-15 -6.89336 91.6646 -0.272061 -6.24419 -8.97372e-14 -2.84217e-14 
-6.47113 93.8636 -0.210935 -4.08895 7.41698e-14 1.48492e-15 -5.07371 97.4565 0.0854492 
-0.444444 -1.27211e-13 5.39568e-14 -4.05648 99.1096 0.111833 1.15365 1.13368e-13 -2.15522e-14 
-1.98027 100.3 0.143478 2.99852 -3.92603e-14 1.19236e-14 1.29004 100.742 0.154095 
4.5959 -1.0901e-13 1.78191e-14 5.4361 100.38 0.153942 5.25243 -7.57172e-14 -2.44665e-14 
9.49237 99.5424 0.150997 4.38557 -2.81997e-14 4.32432e-14 12.071 98.8784 0.149784 
2.01818 1.4308e-14 3.10307e-14 12.1025 98.9313 0.149635 -0.989461 5.12437e-14 -7.46625e-15 
9.58358 99.7025 0.15034 -3.3697 -2.20712e-13 -2.52159e-14 5.58056 100.65 0.152248 
-4.25807 2.20282e-13 3.5541e-14 1.48343 101.123 0.150708 -3.62724 -8.22953e-15 6.22419e-15 
-1.7368 100.791 0.137701 -2.05805 2.18214e-13 2.86342e-14 -3.75546 99.7107 0.103914 
-0.244251 -1.69254e-13 2.43174e-14 -4.70113 98.1697 0.0734786 1.32191 2.14412e-14 -4.97866e-15 
-5.87707 94.8178 -0.196242 4.81025 -1.54814e-13 -8.54872e-15 -6.24992 92.6536 -0.258723 
6.87238 -1.45332e-13 -2.90046e-15 -5.82083 89.1315 -0.29206 8.91304 -3.02605e-14 -3.01148e-14 
-4.37908 84.1666 -0.308783 10.2358 5.6212e-14 -1.7264e-14 -2.06555 78.2713 -0.314411 
9.95621 -1.599e-13 -6.16174e-15 0.442585 72.7301 -0.31776 7.41098 2.70756e-14 -1.76248e-15 
2.10297 69.2984 -0.321032 2.76082 1.38833e-13 1.13624e-14 2.10297 69.2984 -0.321032 
-2.76082 -8.3239e-14 -5.17295e-15 0.442585 72.7301 -0.31776 -7.41098 -1.77719e-13 3.33067e-16 
-2.06555 78.2713 -0.314411 -9.95621 2.92127e-13 -1.6348e-14 -4.37908 84.1666 -0.308783 
-10.2358 3.83929e-14 1.42941e-15 -5.82083 89.1315 -0.29206 -8.91304 -7.17395e-14 -8.46545e-16 
-6.24992 92.6536 -0.258723 -6.87238 -1.06026e-14 1.13798e-14 -5.87707 94.8178 -0.196242 
-4.81025 7.40137e-14 -1.06859e-14 8.85322 140.143 1.69823 16.6922 1.56097e-13 7.07212e-14 
4.09549 112.601 2.36571 5.73293 6.66023e-13 -2.43139e-14 0.330453 99.7806 0.159025 
3.32441 -3.80418e-13 -1.40693e-13 -0.15597 94.3212 0.0299334 1.96235 -2.67841e-14 4.00791e-14 
-0.393459 91.0085 -0.101519 1.2881 -1.52614e-13 -5.73708e-14 -0.439921 88.9351 -0.127686 
0.868985 5.84116e-14 -1.72223e-14 -0.44039 87.5722 -0.136041 0.595021 2.42154e-13 -4.17721e-14 
-0.418764 86.6828 -0.133076 0.404006 -7.62376e-14 -3.89133e-14 -0.389453 86.1227 -0.125999 
0.266004 1.5901e-13 -4.54914e-14 -0.357684 85.8014 -0.117122 0.163655 -1.49858e-13 -2.55906e-14 
-0.326011 85.6567 -0.107709 0.0865745 1.20241e-13 -2.3502e-14 -0.295585 85.6444 -0.0983554 
0.0281836 -2.48357e-13 -1.27259e-14 -0.266952 85.7308 -0.0893738 -0.0158316 2.33291e-13 -5.07927e-15 
-0.240367 85.8899 -0.0809301 -0.0483827 4.72181e-13 -4.46518e-14 -0.215957 86.1002 -0.0731183 
-0.0714821 1.00008e-13 -3.57769e-14 -0.193795 86.3435 -0.0659972 -0.0865543 -1.2106e-13 -7.67789e-15 
-0.17394 86.6042 -0.0596079 -0.0946395 -2.9254e-13 -2.9185e-14 -0.156447 86.8683 -0.0539829 
-0.0965353 2.98451e-14 -3.29875e-14 -0.141374 87.1231 -0.0491484 -0.092902 -7.8759e-14 -2.52645e-14 
-0.128774 87.3571 -0.045124 -0.0843456 8.84241e-14 -2.47996e-14 -0.118684 87.5603 -0.0419195 
-0.0714866 8.02752e-14 -3.73521e-14 -0.111112 87.7237 -0.0395311 -0.0550174 -2.25774e-13 -2.23467e-14 
-0.106021 87.8402 -0.0379371 -0.0357482 -2.38512e-13 -3.49859e-14 -0.103318 87.9046 -0.0370941 
-0.014639 8.61262e-14 -4.27124e-14 -0.102839 87.9141 -0.0369349 0.00718745 2.49631e-13 -3.52773e-14 
-0.104351 87.8689 -0.0373718 0.0284573 3.15152e-14 -2.11775e-14 -0.107561 87.772 -0.0382877 
0.0477839 -2.89939e-13 -2.55438e-14 -0.112239 87.6301 -0.0396698 0.0636874 -1.16565e-14 -3.16552e-14 
-0.122886 87.2503 -0.0428697 0.0794344 -3.83018e-14 -3.81709e-14 -0.128172 87.0401 -0.0435559 
0.0765787 -6.70271e-14 -3.39936e-14 -0.133049 86.8465 -0.0446702 0.0656277 1.77679e-13 -3.57145e-14 
-0.136644 86.691 -0.0452697 0.0465383 8.96614e-14 -3.33206e-14 -0.138726 86.5938 -0.0454563 
0.0201093 -1.16734e-14 -3.55098e-14 -0.139009 86.5723 -0.0451621 -0.0121854 -2.43765e-13 -2.98615e-14 
-0.137306 86.6389 -0.0443661 -0.0482881 5.27894e-14 -5.61599e-14 -0.133511 86.8007 -0.0430518 
-0.0857544 3.23682e-14 -3.46043e-14 -0.127594 87.0577 -0.0412096 -0.122001 1.2014e-13 -3.96454e-14 
-0.119605 87.4037 -0.0388374 -0.154572 7.7164e-14 -4.93459e-14 -0.109672 87.8264 -0.0359345 
-0.18139 1.42476e-13 -4.65634e-14 -0.0980379 88.309 -0.0325697 -0.200945 2.82959e-13 -3.43822e-14 
-0.0848243 88.8318 -0.0285195 -0.212388 -4.46847e-14 -4.39909e-14 -0.0712551 89.3727 -0.0253258 
-0.215826 -1.28307e-13 -2.57971e-14 -0.0422376 90.4074 -0.0160322 -0.200711 3.11244e-14 -3.25586e-14 
-0.0277112 90.8712 -0.0106848 -0.185 -2.39251e-13 -1.94448e-14 -0.0145279 91.2908 -0.00646981 
-0.165294 7.06137e-14 -3.74566e-14 -0.00230358 91.6594 -0.00236495 -0.143129 -5.62536e-14 -3.0316e-14 
0.00859763 91.9727 0.00134278 -0.119731 -5.93102e-14 -3.99377e-14 0.0180306 92.2291 0.00461665 
-0.0961953 -4.2414e-14 -2.67598e-14 0.0259059 92.4296 0.0074082 -0.073423 -8.39545e-14 -4.20757e-14 
0.0322131 92.5771 0.00970042 -0.0521118 -1.5541e-14 -7.95683e-14 0.0370061 92.6758 0.0114985 
-0.0327568 6.4134e-14 -1.96527e-14 0.0403906 92.7311 0.0128271 -0.015669 3.39748e-14 -1.46862e-14 
0.0425089 92.7486 0.0137253 -0.00100215 3.92341e-14 -1.86726e-14 0.0435254 92.7344 0.0142423 
0.0112173 8.99849e-14 -2.54154e-14 0.043615 92.6942 0.0144325 0.0210591 -1.37121e-13 -2.44561e-14 
0.0429521 92.6337 0.0143523 0.0286617 9.24391e-14 -2.82422e-14 0.0417035 92.558 0.0140567 
0.0342076 -8.68212e-14 -1.18265e-14 0.0400233 92.4717 0.0135978 0.0379037 -7.42462e-14 -1.38648e-14 
0.0380492 92.3789 0.0130227 0.0399657 2.31954e-14 -2.13033e-14 0.0359019 92.2833 0.0123735 
0.0406069 -2.85041e-14 5.02775e-14 0.0336841 92.1878 0.0116866 0.0400305 -8.60744e-14 -2.78336e-15 
0.0314823 92.0952 0.0109928 0.0384241 -1.23439e-14 1.04083e-17 0.0293671 92.0076 0.0103178 
0.0359579 -4.03041e-14 -1.77722e-15 0.027396 91.9268 0.00968268 0.0327832 -6.43019e-14 2.995e-15 
0.0256142 91.8543 0.00910421 0.0290329 -4.90823e-14 9.42692e-15 0.0240571 91.7912 0.00859572 
0.024823 6.95746e-14 -2.31412e-15 0.0227517 91.7384 0.00816748 0.0202542 1.69177e-13 -5.83561e-15 
0.0217179 91.6967 0.0078272 0.0154141 3.03021e-14 2.61475e-14 0.0209701 91.6665 0.00758046 
0.0103798 8.67374e-14 3.80681e-14 0.0205179 91.6483 0.00743098 0.00522046 -2.76929e-14 1.27719e-14 
0.0134831 91.5603 0.00297505 -0.0110651 -1.18143e-13 -3.72979e-14 0.0298132 91.4608 0.00226446 
-0.0104583 -1.19572e-13 2.79872e-14 0.0561074 91.3429 0.00196714 -0.00988375 -1.14802e-13 -1.07696e-14 
0.0906162 91.2094 0.00167087 -0.00930468 -1.16109e-13 -3.36736e-14 0.132173 91.0634 0.00143131 
-0.00869225 -1.13523e-13 -1.53007e-14 0.179747 90.9072 0.00122494 -0.00802672 -1.16484e-13 5.63759e-14 
0.232459 90.7432 0.00104081 -0.00729801 -1.16849e-13 -3.99268e-14 0.289522 90.5733 0.000866359 
-0.00650569 -1.13987e-13 2.65421e-14 0.350189 90.3996 0.00069058 -0.00565831 -1.1709e-13 -9.80206e-15 
0.413716 90.2239 0.000504237 -0.00477233 -1.16344e-13 1.07163e-14 0.479317 90.0482 0.000300439 
-0.00387051 -1.13033e-13 -3.62067e-14 0.546142 89.8744 7.4881e-05 -0.00298008 -1.14997e-13 3.09687e-14 
0.613257 89.7044 -0.000173168 -0.00213055 -1.14368e-13 -1.72804e-14 0.679638 89.5404 -0.000445313 
-0.00135146 -1.12289e-13 4.77049e-16 0.744195 89.3845 -0.00071683 -0.000670018 -1.13201e-13 9.26776e-16 
0.863273 89.1048 -0.00131553 0.000316816 7.57658e-14 -1.35079e-14 0.915371 88.9854 -0.00161785 
0.000596472 7.86332e-14 4.63908e-15 0.960878 88.8824 -0.00187847 0.000730639 7.6959e-14 1.17913e-14 
0.998715 88.7978 -0.00210689 0.000729367 7.5186e-14 -1.48742e-14 1.02796 88.7328 -0.00228868 
0.00061171 7.73837e-14 -2.86802e-14 1.04789 88.6889 -0.00241537 0.000404633 7.9452e-14 3.73069e-15 
1.05798 88.6667 -0.00248039 0.00014128 7.73321e-14 -5.52084e-15 1.05798 88.6667 -0.00248039 
-0.00014128 7.60423e-14 -4.92602e-15 1.04789 88.6889 -0.00241537 -0.000404633 7.5978e-14 3.82999e-14 
1.02796 88.7328 -0.00228868 -0.00061171 7.72211e-14 1.85409e-15 0.998715 88.7978 -0.00210689 
-0.000729367 7.73723e-14 -1.65686e-14 0.960878 88.8824 -0.00187847 -0.000730639 7.82154e-14 -1.3213e-14 
0.915371 88.9854 -0.00161785 -0.000596472 7.70312e-14 -4.67443e-15 0.863273 89.1048 -0.00131553 
-0.000316816 7.55206e-14 -2.82448e-14 0.744195 89.3845 -0.00071683 0.000670018 -2.39002e-13 2.98546e-15 
0.679638 89.5404 -0.000445313 0.00135146 -1.87666e-13 5.82685e-14 0.613257 89.7044 -0.000173168 
0.00213055 -5.57172e-14 5.97066e-14 0.546142 89.8744 7.4881e-05 0.00298008 -1.73846e-13 -5.31606e-15 
0.479317 90.0482 0.000300439 0.00387051 8.21437e-14 -8.04998e-15 0.413716 90.2239 0.000504237 
0.00477233 -1.67288e-13 -3.34606e-14 0.350189 90.3996 0.00069058 0.00565831 -1.12781e-13 2.90675e-14 
0.289522 90.5733 0.000866359 0.00650569 -5.69654e-14 -2.37072e-14 0.232459 90.7432 0.00104081 
0.00729801 -1.5548e-14 -1.24839e-14 0.179747 90.9072 0.00122494 0.00802672 -1.80748e-13 -3.92828e-14 
0.132173 91.0634 0.00143131 0.00869225 -3.4243e-14 7.1007e-14 0.0906162 91.2094 0.00167087 
0.00930468 -1.04181e-13 6.67773e-14 0.0561074 91.3429 0.00196714 0.00988375 -1.81336e-14 1.20627e-13 
0.0298132 91.4608 0.00226446 0.0104583 -1.47204e-13 -2.62052e-14 0.0134831 91.5603 0.00297505 
0.0110651 1.18216e-14 -9.73397e-15 0.0205179 91.6483 0.00743098 -0.00522046 8.83646e-15 4.21919e-14 
0.0209701 91.6665 0.00758046 -0.0103798 -1.90217e-13 4.32219e-14 0.0217179 91.6967 0.0078272 
-0.0154141 -2.65894e-13 1.5593e-13 0.0227517 91.7384 0.00816748 -0.0202542 1.62889e-13 1.70849e-14 
0.0240571 91.7912 0.00859572 -0.024823 4.71153e-14 -5.72545e-15 0.0256142 91.8543 0.00910421 
-0.0290329 -1.07791e-15 1.37322e-13 0.027396 91.9268 0.00968268 -0.0327832 -5.74454e-15 1.23853e-13 
0.0293671 92.0076 0.0103178 -0.0359579 7.72039e-15 1.00011e-13 0.0314823 92.0952 0.0109928 
-0.0384241 -1.32091e-13 7.08635e-14 0.0336841 92.1878 0.0116866 -0.0400305 1.77983e-15 1.05733e-13 
0.0359019 92.2833 0.0123735 -0.0406069 -2.52723e-14 3.38028e-14 0.0380492 92.3789 0.0130227 
-0.0399657 -1.11096e-14 3.28019e-14 0.0400233 92.4717 0.0135978 -0.0379037 -1.30352e-13 1.16775e-13 
0.0417035 92.558 0.0140567 -0.0342076 1.4171e-14 1.50611e-13 0.0429521 92.6337 0.0143523 
-0.0286617 -1.05536e-15 8.97954e-14 0.043615 92.6942 0.0144325 -0.0210591 -2.34263e-13 4.40308e-14 
0.0435254 92.7344 0.0142423 -0.0112173 6.86972e-15 -2.36443e-15 0.0425089 92.7486 0.0137253 
0.00100215 9.1849e-14 1.04888e-13 0.0403906 92.7311 0.0128271 0.015669 -9.50364e-14 6.06615e-14 
0.0370061 92.6758 0.0114985 0.0327568 2.80817e-14 1.56195e-14 0.0322131 92.5771 0.00970042 
0.0521118 6.42771e-14 8.47759e-15 0.0259059 92.4296 0.0074082 0.073423 4.72521e-14 1.32361e-13 
0.0180306 92.2291 0.00461665 0.0961953 -7.21636e-14 3.88838e-14 0.00859763 91.9727 0.00134278 
0.119731 1.82358e-13 1.69065e-13 -0.00230358 91.6594 -0.00236495 0.143129 -7.50632e-14 -5.784e-14 
-0.0145279 91.2908 -0.00646981 0.165294 3.3161e-14 5.19597e-14 -0.0277112 90.8712 -0.0106848 
0.185 5.56655e-14 -2.32759e-14 -0.0422376 90.4074 -0.0160322 0.200711 4.65357e-14 5.71296e-14 
-0.0712551 89.3727 -0.0253258 0.215826 -9.08267e-14 -2.05062e-14 -0.0848243 88.8318 -0.0285195 
0.212388 2.50681e-13 7.60832e-14 -0.0980379 88.309 -0.0325697 0.200945 7.57189e-14 1.05572e-13 
-0.109672 87.8264 -0.0359345 0.18139 5.30184e-14 1.07692e-14 -0.119605 87.4037 -0.0388374 
0.154572 -1.26187e-13 1.95712e-14 -0.127594 87.0577 -0.0412096 0.122001 -1.11439e-13 1.65944e-14 
-0.133511 86.8007 -0.0430518 0.0857544 8.43327e-14 9.05595e-14 -0.137306 86.6389 -0.0443661 
0.0482881 5.65888e-14 4.56718e-14 -0.139009 86.5723 -0.0451621 0.0121854 -6.94278e-14 1.113e-14 
-0.138726 86.5938 -0.0454563 -0.0201093 5.0199e-14 1.12445e-14 -0.136644 86.691 -0.0452697 
-0.0465383 1.009e-13 1.11716e-13 -0.133049 86.8465 -0.0446702 -0.0656277 1.02773e-13 1.03341e-13 
-0.128172 87.0401 -0.0435559 -0.0765787 1.60098e-13 1.34136e-13 -0.122886 87.2503 -0.0428697 
-0.0794344 -3.74908e-14 -5.89945e-14 -0.112239 87.6301 -0.0396698 -0.0636874 -1.68981e-13 3.55948e-14 
-0.107561 87.772 -0.0382877 -0.0477839 -1.95915e-13 -3.71179e-14 -0.104351 87.8689 -0.0373718 
-0.0284573 -1.69497e-13 7.68188e-14 -0.102839 87.9141 -0.0369349 -0.00718745 -7.64395e-14 2.13718e-14 
-0.103318 87.9046 -0.0370941 0.014639 1.1176e-15 3.73104e-14 -0.106021 87.8402 -0.0379371 
0.0357482 -2.43893e-13 -2.73549e-14 -0.111112 87.7237 -0.0395311 0.0550174 1.05775e-14 3.95049e-14 
-0.118684 87.5603 -0.0419195 0.0714866 3.2972e-13 1.30774e-13 -0.128774 87.3571 -0.045124 
0.0843456 3.46945e-18 1.92901e-14 -0.141374 87.1231 -0.0491484 0.092902 -2.06096e-13 3.01772e-14 
-0.156447 86.8683 -0.0539829 0.0965353 1.96519e-13 2.36408e-14 -0.17394 86.6042 -0.0596079 
0.0946395 -1.35771e-13 5.50983e-14 -0.193795 86.3435 -0.0659972 0.0865543 2.19695e-13 2.31377e-14 
-0.215957 86.1002 -0.0731183 0.0714821 -2.89868e-13 8.96574e-14 -0.240367 85.8899 -0.0809301 
0.0483827 -3.06461e-13 9.11771e-15 -0.266952 85.7308 -0.0893738 0.0158316 -9.79655e-14 1.34615e-15 
-0.295585 85.6444 -0.0983554 -0.0281836 -1.01819e-13 1.42178e-14 -0.326011 85.6567 -0.107709 
-0.0865745 -3.45715e-13 -7.86593e-14 -0.357684 85.8014 -0.117122 -0.163655 -3.1599e-13 -1.17822e-13 
-0.389453 86.1227 -0.125999 -0.266004 1.52435e-13 4.65739e-14 -0.418764 86.6828 -0.133076 
-0.404006 3.5142e-14 -1.9526e-14 -0.44039 87.5722 -0.136041 -0.595021 2.50466e-13 -4.7462e-14 
-0.439921 88.9351 -0.127686 -0.868985 -3.12153e-13 -4.53804e-14 -0.393459 91.0085 -0.101519 
-1.2881 -2.24487e-13 4.42424e-14 -0.15597 94.3212 0.0299334 -1.96235 1.35669e-13 1.06942e-13 
0.330453 99.7806 0.159025 -3.32441 -4.56912e-13 8.99281e-15 4.09549 112.601 2.36571 
-5.73293 1.56763e-13 -2.60902e-15 8.85322 140.143 1.69823 -16.6922 -1.64091e-13 -2.98095e-14 
35.6584 117.984 0.875704 -28.3574 -5.23359e-13 -1.33893e-13 31.9707 105.538 1.03023 
-22.7238 6.52922e-13 -6.75016e-14 29.7589 98.6238 0.572237 -19.5137 4.6374e-13 -8.02691e-14 
28.5966 94.8135 0.508123 -17.1984 1.22402e-13 -3.9968e-14 27.8108 92.2916 0.410666 
-15.3712 5.43371e-13 -1.61815e-14 27.2689 90.5367 0.359435 -13.8391 -3.92186e-13 -6.13606e-14 
26.8668 89.2374 0.318276 -12.5076 1.59706e-13 -3.58533e-14 26.5576 88.2372 0.287779 
-11.3217 1.76664e-14 -6.24605e-14 26.3113 87.4409 0.263374 -10.2473 -3.81639e-16 -3.6221e-14 
26.11 86.7898 0.243513 -9.26146 2.15175e-14 -3.63459e-14 25.9419 86.2458 0.226931 
-8.34802 6.64073e-13 -4.67265e-14 25.799 85.7838 0.212865 -7.49509 2.64712e-13 -6.07396e-14 
25.6762 85.3863 0.200786 -6.69354 -3.44946e-13 -2.68188e-15 25.5697 85.0419 0.190333 
-5.93609 -3.53606e-14 -2.75682e-14 25.4771 84.7423 0.181258 -5.21675 1.84575e-15 3.26995e-15 
25.3272 84.2574 0.166603 -3.86985 -1.55542e-13 -2.92197e-14 25.2683 84.0666 0.160844 
-3.23377 3.46612e-13 3.98657e-14 25.2194 83.9084 0.156074 -2.61813 1.17253e-13 3.91197e-14 
25.1803 83.7821 0.152269 -2.01913 5.00641e-14 -1.46315e-14 25.1511 83.6875 0.149418 
-1.43304 -1.57027e-13 -1.07015e-14 25.1316 83.6244 0.147517 -0.856141 1.1896e-13 1.0636e-14 
25.1219 83.5929 0.146566 -0.284767 -3.61808e-13 1.19579e-14 25.1219 83.5929 0.146566 
0.284767 1.71675e-13 4.41791e-15 25.1316 83.6244 0.147517 0.856141 2.29126e-13 1.94274e-14 
25.1511 83.6875 0.149418 1.43304 -3.03563e-13 -2.30571e-14 25.1803 83.7821 0.152269 
2.01913 2.63956e-14 1.77514e-14 25.2194 83.9084 0.156074 2.61813 3.67581e-13 -6.85129e-15 
25.2683 84.0666 0.160844 3.23377 -2.44652e-13 -3.8242e-14 25.3272 84.2574 0.166603 
3.86985 -6.05488e-13 -3.25686e-14 25.4771 84.7423 0.181258 5.21675 2.25764e-13 5.67428e-15 
25.5697 85.0419 0.190333 5.93609 4.82489e-13 2.26711e-14 25.6762 85.3863 0.200786 
6.69354 6.41445e-13 2.08653e-14 25.799 85.7838 0.212865 7.49509 -3.31166e-13 4.18259e-14 
25.9419 86.2458 0.226931 8.34802 9.15656e-14 4.21538e-15 26.11 86.7898 0.243513 
9.26146 -4.38427e-13 3.79835e-14 26.3113 87.4409 0.263374 10.2473 3.75873e-13 -4.82704e-14 
26.5576 88.2372 0.287779 11.3217 3.19841e-13 5.96745e-14 26.8668 89.2374 0.318276 
12.5076 -2.91517e-13 5.50254e-14 27.2689 90.5367 0.359435 13.8391 -1.62606e-13 7.21645e-15 
27.8108 92.2916 0.410666 15.3712 1.47854e-13 6.7224e-14 28.5966 94.8135 0.508123 
17.1984 -4.51306e-14 -9.01224e-14 29.7589 98.6238 0.572237 19.5137 -1.13465e-13 9.38971e-14 
31.9707 105.538 1.03023 22.7238 3.00954e-13 8.17679e-14 35.6584 117.984 0.875704 
28.3574 1.94733e-13 -8.34888e-14 -4.21724 96.6663 -0.0037438 -1.36935 -4.04364e-14 -1.40443e-14 
-3.3557 96.2474 -0.0351997 -0.512877 2.42951e-13 9.74915e-16 -2.59221 95.6539 -0.0345938 
0.0607615 -3.73312e-15 3.25738e-15 -1.96278 94.9833 -0.0331431 0.402837 2.63574e-14 7.8995e-15 
-1.4614 94.2954 -0.0283079 0.585652 1.06184e-13 -5.21198e-15 -1.07473 93.6151 -0.0228441 
0.663565 -6.68909e-14 -1.07206e-15 -0.783013 92.9511 -0.0176568 0.676172 -7.27821e-14 5.65867e-15 
-0.566147 92.3043 -0.0131932 0.650642 3.81362e-14 -7.27716e-15 -0.406093 91.6717 -0.00956704 
0.604808 1.61795e-13 5.39846e-15 -0.287872 91.0495 -0.00675826 0.549467 3.42682e-14 -7.62237e-15 
-0.199741 90.4346 -0.00470694 0.489909 4.58934e-14 1.0443e-15 -0.133067 89.8251 -0.00334334 
0.426732 -1.14156e-13 -9.6971e-16 -0.0822783 89.2214 -0.00274476 0.356054 -1.05525e-13 1.2974e-14 
-0.0442924 88.6266 -0.00238881 0.269192 1.07643e-13 -5.13478e-15 -0.0221537 88.0458 -0.00580477 
0.152072 -2.40602e-13 1.29029e-14 -4.70327 95.9286 -0.00108262 0.449386 -2.73948e-14 1.20459e-14 
-3.78333 95.598 -0.0358663 -0.490819 1.41869e-13 -1.06252e-14 -2.96079 95.1083 -0.0346677 
-1.14355 -1.17004e-13 -2.48673e-15 -2.27421 94.5571 -0.0336551 -1.55372 5.33705e-14 -3.2216e-15 
-1.71756 94.0064 -0.0291499 -1.79111 5.66353e-14 -4.8698e-15 -1.27891 93.4823 -0.0240095 
-1.90712 -1.46843e-13 -2.18488e-15 -0.939764 92.9947 -0.0190916 -1.93827 -6.45005e-14 -4.57794e-15 
-0.681096 92.5448 -0.0148303 -1.90843 -6.89344e-14 -6.41848e-17 -0.485695 92.1298 -0.0113227 
-1.83198 1.33192e-14 2.34474e-14 -0.339068 91.7453 -0.00853458 -1.71617 1.1787e-13 1.37208e-14 
-0.22957 91.3871 -0.00639169 -1.56272 2.8122e-15 8.26856e-15 -0.14823 91.0515 -0.00482266 
-1.36878 -7.57693e-14 -1.24987e-15 -0.0886136 90.7361 -0.00384548 -1.12723 1.24597e-13 2.14793e-14 
-0.0464946 90.4406 -0.003233 -0.826577 5.64705e-14 4.84335e-15 -0.0215448 90.1667 -0.00462658 
-0.450233 -6.62057e-14 2.0383e-14 -4.95068 94.6274 0.0376005 2.60032 1.21091e-13 9.64506e-16 
-4.31497 93.2957 0.0753878 2.90649 4.30489e-14 -4.12517e-15 -3.66333 92.195 0.0594425 
3.00363 -8.7208e-14 -2.58127e-15 -3.03613 91.3311 0.0514675 2.9482 2.99656e-14 -6.54338e-15 
-2.46999 90.6618 0.0417933 2.80109 -1.26839e-13 -3.17801e-14 -1.9726 90.155 0.0331397 
2.6053 2.29582e-14 1.67227e-15 -1.54255 89.7787 0.0257495 2.38953 3.67063e-14 3.83027e-15 
-1.17388 89.505 0.0197416 2.17166 -5.64652e-16 2.86403e-15 -0.859208 89.3105 0.014983 
1.9621 2.59463e-14 -1.88287e-14 -0.591162 89.1763 0.0112762 1.76633 7.49921e-14 1.11352e-14 
-0.362992 89.0879 0.00841616 1.58669 -8.66867e-14 2.28463e-15 -0.168797 89.0336 0.00622042 
1.4236 3.54465e-14 6.52429e-15 -0.00353337 89.0048 0.0045377 1.27634 -8.85359e-14 7.75421e-15 
0.137064 88.9945 0.00324749 1.14363 8.32121e-14 5.52596e-15 0.256583 88.9977 0.00225613 
1.02391 1.55205e-13 -1.64703e-14 0.358047 89.0103 0.00149197 0.915531 -3.68863e-14 -2.36703e-15 
0.444007 89.0292 0.000900653 0.816925 -5.89936e-14 -1.16461e-14 0.516624 89.0521 0.000441239 
0.726621 -1.06697e-13 -1.01516e-14 0.577737 89.077 8.29406e-05 0.643294 1.37735e-13 6.27666e-15 
0.628913 89.1027 -0.000197347 0.565774 -9.15231e-14 -2.13198e-14 0.671486 89.1278 -0.000416968 
0.49304 -6.7013e-14 -1.18031e-14 0.706595 89.1516 -0.000588944 0.424212 -6.64724e-14 4.03106e-15 
0.7352 89.1734 -0.00072305 0.358535 4.78905e-14 -1.68793e-14 0.758107 89.1926 -0.000826607 
0.295363 -3.23309e-15 3.2023e-15 0.775977 89.2088 -0.000905065 0.234142 9.95218e-14 -1.12163e-14 
0.789339 89.2218 -0.000962418 0.174393 -4.74989e-15 -2.27188e-14 0.798599 89.2311 -0.00100151 
0.115699 -3.59655e-14 1.72857e-14 0.804042 89.2368 -0.00102424 0.0576835 -3.08644e-13 -4.14642e-15 
-4.95068 94.6274 0.0376005 -2.60032 -2.7197e-14 -5.44703e-15 -4.31497 93.2957 0.0753878 
-2.90649 -6.65162e-14 1.10918e-14 -3.66333 92.195 0.0594425 -3.00363 -2.80418e-14 1.43982e-14 
-3.03613 91.3311 0.0514675 -2.9482 -2.07256e-14 -3.23491e-14 -2.46999 90.6618 0.0417933 
-2.80109 1.2504e-13 6.27901e-14 -1.9726 90.155 0.0331397 -2.6053 -1.0255e-13 -2.55178e-14 
-1.54255 89.7787 0.0257495 -2.38953 6.88642e-15 -4.77743e-15 -1.17388 89.505 0.0197416 
-2.17166 1.23556e-13 3.31436e-14 -0.859208 89.3105 0.014983 -1.9621 -1.32647e-13 -1.61173e-14 
-0.591162 89.1763 0.0112762 -1.76633 -2.45203e-15 -1.61798e-14 -0.362992 89.0879 0.00841616 
-1.58669 1.34262e-13 2.26659e-14 -0.168797 89.0336 0.00622042 -1.4236 -7.42982e-14 -3.50735e-14 
-0.00353337 89.0048 0.0045377 -1.27634 -1.43219e-14 3.99906e-14 0.137064 88.9945 0.00324749 
-1.14363 1.61251e-14 1.63793e-14 0.256583 88.9977 0.00225613 -1.02391 -5.28314e-14 -1.80932e-15 
0.358047 89.0103 0.00149197 -0.915531 1.62413e-13 -8.95898e-15 0.444007 89.0292 0.000900653 
-0.816925 -1.05e-13 3.07306e-15 0.516624 89.0521 0.000441239 -0.726621 9.04832e-14 2.09212e-14 
0.577737 89.077 8.29406e-05 -0.643294 -2.32423e-14 7.48143e-15 0.628913 89.1027 -0.000197347 
-0.565774 -3.75069e-14 -2.43677e-14 0.671486 89.1278 -0.000416968 -0.49304 6.90279e-14 -1.61893e-14 
0.706595 89.1516 -0.000588944 -0.424212 1.00191e-14 1.36328e-14 0.7352 89.1734 -0.00072305 
-0.358535 -1.54056e-14 -2.87322e-14 0.758107 89.1926 -0.000826607 -0.295363 8.3139e-14 -7.81623e-15 
0.775977 89.2088 -0.000905065 -0.234142 4.28316e-14 -2.3169e-14 0.789339 89.2218 -0.000962418 
-0.174393 9.65916e-14 3.76565e-14 0.798599 89.2311 -0.00100151 -0.115699 -9.90649e-14 -3.32308e-14 
0.804042 89.2368 -0.00102424 -0.0576835 -4.78024e-14 4.5147e-14 -4.70327 95.9286 -0.00108262 
-0.449386 -1.75665e-13 -4.0204e-14 -3.78333 95.598 -0.0358663 0.490819 7.3868e-14 7.95891e-15 
-2.96079 95.1083 -0.0346677 1.14355 -1.20327e-13 7.29972e-15 -2.27421 94.5571 -0.0336551 
1.55372 1.61357e-13 3.31137e-14 -1.71756 94.0064 -0.0291499 1.79111 -1.31031e-13 -3.30515e-14 
-1.27891 93.4823 -0.0240095 1.90712 8.8575e-15 4.33078e-14 -0.939764 92.9947 -0.0190916 
1.93827 6.86604e-15 -6.22384e-14 -0.681096 92.5448 -0.0148303 1.90843 -1.30943e-13 2.98936e-14 
-0.485695 92.1298 -0.0113227 1.83198 4.39839e-15 -1.95035e-14 -0.339068 91.7453 -0.00853458 
1.71617 -1.22166e-13 6.44589e-14 -0.22957 91.3871 -0.00639169 1.56272 1.23044e-14 -2.50286e-14 
-0.14823 91.0515 -0.00482266 1.36878 -3.88309e-14 -2.27804e-14 -0.0886136 90.7361 -0.00384548 
1.12723 1.64079e-14 6.29011e-14 -0.0464946 90.4406 -0.003233 0.826577 1.38932e-13 9.62078e-15 
-0.0215448 90.1667 -0.00462658 0.450233 -1.14016e-13 -3.31341e-14 -4.21724 96.6663 -0.0037438 
1.36935 -1.51042e-13 -5.51642e-15 -3.3557 96.2474 -0.0351997 0.512877 1.09541e-13 1.26357e-14 
-2.59221 95.6539 -0.0345938 -0.0607615 -1.08573e-13 -3.62746e-14 -1.96278 94.9833 -0.0331431 
-0.402837 -7.05963e-14 5.8664e-15 -1.4614 94.2954 -0.0283079 -0.585652 1.66336e-13 1.46185e-14 
-1.07473 93.6151 -0.0228441 -0.663565 -1.80878e-13 -1.82337e-14 -0.783013 92.9511 -0.0176568 
-0.676172 4.50508e-14 -5.8599e-15 -0.566147 92.3043 -0.0131932 -0.650642 -3.32148e-14 -5.04527e-14 
-0.406093 91.6717 -0.00956704 -0.604808 -3.69918e-13 -4.25788e-14 -0.287872 91.0495 -0.00675826 
-0.549467 1.75515e-14 2.28498e-14 -0.199741 90.4346 -0.00470694 -0.489909 1.08104e-13 -4.81507e-14 
-0.133067 89.8251 -0.00334334 -0.426732 2.29812e-14 3.35582e-14 -0.0822783 89.2214 -0.00274476 
-0.356054 6.49701e-14 -4.71411e-14 -0.0442924 88.6266 -0.00238881 -0.269192 1.09721e-13 8.72965e-14 
-0.0221537 88.0458 -0.00580477 -0.152072 1.67083e-13 -5.46646e-14 -4.29836 95.517 0.0377526 
3.36238 1.34982e-13 1.05055e-14 -3.51675 94.2777 0.0728454 3.60645 -2.14377e-14 -6.81746e-15 
-2.69434 93.2613 0.0578125 3.62662 3.92195e-14 1.87177e-14 -1.87 92.4729 0.0495245 
3.48069 -2.96376e-13 -1.84228e-15 -1.07608 91.871 0.039505 3.22838 -8.14158e-14 -6.19886e-14 
-0.31671 91.4224 0.030393 2.9115 1.71049e-13 2.43208e-14 0.413392 91.0934 0.0224668 
2.5575 4.21538e-15 3.93401e-14 1.12429 90.8538 0.015843 2.183 4.07833e-15 8.55305e-15 
1.82769 90.678 0.0103874 1.7973 -7.0631e-14 -1.01802e-14 2.53553 90.5445 0.00590054 
1.40493 -3.94754e-14 -1.95859e-14 3.25932 90.4356 0.00217846 1.00758 7.25982e-14 9.10058e-15 
4.00983 90.3365 -0.000955489 0.605445 -3.8685e-13 -1.2212e-14 4.79703 90.2348 -0.00363994 
0.198155 6.72053e-13 5.07048e-14 5.63003 90.12 -0.00597345 -0.214549 -2.48076e-13 7.31815e-15 
6.51703 89.9829 -0.00801602 -0.632336 -3.44762e-13 1.5948e-14 7.46516 89.8157 -0.00979189 
-1.05394 4.20459e-13 2.98893e-14 8.48035 89.6116 -0.0112931 -1.4769 -4.33334e-14 1.11933e-14 
9.56701 89.3649 -0.0124839 -1.89744 -2.10526e-13 -3.5541e-14 10.7277 89.0713 -0.0133078 
-2.31041 -2.68327e-14 3.39722e-14 11.9628 88.7278 -0.0136969 -2.70938 -5.99278e-14 -3.4678e-14 
13.2701 88.3331 -0.013585 -3.08687 2.67175e-13 -1.06766e-14 14.6445 87.8879 -0.0129227 
-3.43468 -1.29306e-14 -1.50958e-14 16.0778 87.3948 -0.011701 -3.74448 -3.12937e-13 2.42449e-15 
17.5588 86.8585 -0.00992395 -4.00834 2.47621e-13 -4.79434e-15 19.0735 86.2853 -0.00787298 
-4.21945 -2.93654e-14 1.56819e-15 20.6065 85.6842 -0.00451227 -4.37261 -4.82694e-13 -2.41899e-14 
22.1369 85.0589 -0.00732578 -4.46476 -7.38298e-15 2.69507e-14 23.6713 84.4527 0.0287137 
-4.49483 2.481e-13 -4.08493e-14 -4.29836 95.517 0.0377526 -3.36238 -1.61305e-13 -7.86177e-15 
-3.51675 94.2777 0.0728454 -3.60645 4.21364e-14 -5.77316e-15 -2.69434 93.2613 0.0578125 
-3.62662 8.34554e-14 1.48839e-15 -1.87 92.4729 0.0495245 -3.48069 -1.7304e-13 -1.3007e-14 
-1.07608 91.871 0.039505 -3.22838 2.74799e-13 -5.38458e-15 -0.31671 91.4224 0.030393 
-2.9115 -3.91066e-13 -2.2737e-14 0.413392 91.0934 0.0224668 -2.5575 1.23197e-13 -2.21975e-14 
1.12429 90.8538 0.015843 -2.183 -1.06278e-13 -1.37043e-15 1.82769 90.678 0.0103874 
-1.7973 -1.72983e-13 -1.24822e-14 2.53553 90.5445 0.00590054 -1.40493 -6.66203e-14 -1.44199e-14 
3.25932 90.4356 0.00217846 -1.00758 7.38437e-14 -2.59168e-15 4.00983 90.3365 -0.000955489 
-0.605445 -1.51719e-14 -1.70493e-14 4.79703 90.2348 -0.00363994 -0.198155 -4.79429e-13 -6.69723e-15 
5.63003 90.12 -0.00597345 0.214549 2.42643e-13 -7.85049e-15 6.51703 89.9829 -0.00801602 
0.632336 4.47559e-16 -2.55243e-15 7.46516 89.8157 -0.00979189 1.05394 -2.02595e-13 -2.19573e-15 
8.48035 89.6116 -0.0112931 1.4769 2.69083e-13 -8.0218e-15 9.56701 89.3649 -0.0124839 
1.89744 6.34388e-14 1.25924e-14 10.7277 89.0713 -0.0133078 2.31041 1.7434e-14 4.47385e-15 
11.9628 88.7278 -0.0136969 2.70938 -1.17989e-13 -1.34779e-14 13.2701 88.3331 -0.013585 
3.08687 -6.08194e-15 3.4688e-15 14.6445 87.8879 -0.0129227 3.43468 -1.11435e-13 -2.80885e-14 
16.0778 87.3948 -0.011701 3.74448 8.86166e-14 8.99844e-15 17.5588 86.8585 -0.00992395 
4.00834 7.15122e-14 -1.77683e-14 19.0735 86.2853 -0.00787298 4.21945 -2.24175e-13 2.80622e-14 
20.6065 85.6842 -0.00451227 4.37261 -3.22388e-13 -4.01588e-14 22.1369 85.0589 -0.00732578 
4.46476 -1.37723e-13 -1.34849e-14 23.6713 84.4527 0.0287137 4.49483 6.87818e-13 2.87973e-14 
25.6318 94.4017 -0.48365 -46.6585 1.2168e-13 1.17684e-14 29.1724 121.629 -0.365507 
-53.1943 1.14575e-13 1.31006e-14 28.7667 151.502 -0.148416 -55.9239 -4.88498e-15 2.498e-16 
25.0744 181.587 0.158715 -53.2368 6.08402e-14 -3.55271e-15 19.5752 208.621 0.47497 
-44.2882 -5.06262e-14 -2.39808e-14 14.2651 229.13 0.728373 -29.4419 -4.70735e-14 2.55351e-14 
11.0288 240.168 0.86757 -10.3754 -4.60187e-14 -1.59872e-14 11.0082 240.045 0.866918 
10.2125 -1.48714e-13 1.31006e-14 14.1985 228.78 0.726715 29.2412 1.17018e-13 5.55112e-15 
19.4521 208.093 0.473132 44.0243 7.81597e-14 -1.88738e-14 24.886 180.95 0.157826 
52.9041 8.30447e-14 5.21805e-15 28.5135 150.827 -0.147325 55.536 7.59393e-14 8.00748e-15 
28.868 120.974 -0.36199 52.7774 -4.88498e-15 9.65894e-15 25.3008 93.8056 -0.478072 
46.2417 1.31894e-13 1.15463e-14 9.89181 106.249 -0.122397 -34.3861 -1.59428e-13 1.9984e-15 
16.5106 125.67 -0.213578 -36.3955 -1.60316e-13 -8.54872e-15 21.1084 146.849 -0.298097 
-37.0387 1.00364e-13 -1.52101e-14 23.1645 168.478 -0.367289 -35.0422 -1.98064e-13 -2.22045e-16 
23.0266 188.394 -0.413679 -29.3505 2.04281e-14 -1.77636e-14 21.7607 203.864 -0.442503 
-19.7188 9.05942e-14 -4.88498e-15 20.6686 212.329 -0.456457 -7.04663 -1.37224e-13 5.32907e-15 
20.6318 212.237 -0.455574 6.7656 1.55542e-13 0 21.6508 203.601 -0.440006 
19.4222 1.43219e-13 4.88498e-15 22.847 187.992 -0.409963 29.0301 -1.23901e-13 3.9968e-15 
22.9258 167.981 -0.362851 34.7004 1.42109e-14 5.88418e-15 20.83 146.3 -0.29346 
36.6849 -6.21725e-14 -5.82867e-15 16.2179 125.102 -0.209221 36.0407 1.28786e-14 -1.83187e-14 
9.60993 105.686 -0.118623 34.0373 -7.10543e-15 1.35447e-14 -0.421112 112.662 0.051527 
-25.5267 2.47358e-13 -6.66134e-15 7.39525 126.981 -0.0266921 -24.537 1.06359e-13 1.44884e-14 
14.7776 142.148 -0.158266 -23.4546 -7.77156e-14 -9.79772e-15 20.6438 157.542 -0.335333 
-21.5437 -7.19425e-14 2.9976e-15 24.4601 171.844 -0.528358 -17.9291 3.64153e-14 1.33227e-15 
26.4011 183.118 -0.694765 -12.1129 -8.41549e-14 -1.13243e-14 27.0845 189.361 -0.791529 
-4.41008 1.43552e-13 5.77316e-15 27.0376 189.291 -0.790316 4.03766 6.21725e-15 -2.04281e-14 
26.2651 182.916 -0.691521 11.7411 -6.4615e-14 -1.11022e-15 24.2493 171.531 -0.524058 
17.5609 -2.72893e-13 -5.55112e-15 20.382 157.141 -0.331058 21.1843 8.06022e-14 1.03251e-14 
14.4942 141.683 -0.1548 23.1079 -3.73035e-14 1.33782e-14 7.11857 126.471 -0.0243292 
24.2026 1.31006e-13 1.12133e-14 -0.670985 112.126 0.0529791 25.1996 4.30767e-14 -8.88178e-15 
-6.81693 115.467 0.117061 -19.1073 9.12603e-14 2.88658e-15 1.05468 126.377 0.086121 
-16.2588 3.01981e-14 7.16094e-15 9.7099 137.404 -0.0138453 -13.8821 -1.28342e-13 7.79932e-15 
17.8691 148.266 -0.189027 -11.7762 1.96732e-13 4.10783e-15 24.426 158.244 -0.413151 
-9.42285 1.72307e-13 6.21725e-15 28.7862 166.118 -0.626692 -6.31727 -1.37779e-13 -1.11022e-14 
30.8756 170.498 -0.757801 -2.37609 -1.27287e-13 -3.10862e-15 30.8232 170.444 -0.756725 
1.93199 -1.85019e-13 1.28786e-14 28.6369 165.959 -0.623936 5.8849 1.56541e-13 9.54792e-15 
24.2019 157.989 -0.409821 9.01196 1.50324e-13 -3.10862e-15 17.6017 147.926 -0.186211 
11.392 -2.83107e-13 -9.88098e-15 9.43246 136.992 -0.0121191 13.5231 -1.55431e-14 -4.996e-16 
0.793447 125.907 0.0867802 15.9174 2.66454e-15 1.88738e-15 -7.04845 114.952 0.117093 
18.7728 1.9984e-15 1.02141e-14 -10.4535 115.949 0.126167 -14.4383 -1.75859e-13 2.22045e-16 
-3.15568 124.52 0.132973 -10.5601 1.803e-13 6.21725e-15 5.77472 132.692 0.0773588 
-7.30891 -8.63754e-14 1.50158e-14 15.0934 140.308 -0.0603436 -4.92679 2.9754e-14 -1.54321e-14 
23.3803 147.035 -0.265048 -3.29404 8.14904e-14 1.13243e-14 29.4471 152.235 -0.477765 
-2.04535 8.27116e-14 1.53211e-14 32.588 155.102 -0.614817 -0.858822 6.66134e-14 7.77156e-15 
32.5336 155.058 -0.614012 0.35679 -3.60489e-13 -5.32907e-15 29.2939 152.103 -0.475801 
1.56199 -1.60649e-13 -1.37668e-14 23.1548 146.817 -0.262923 2.84257 -4.92939e-14 -1.55431e-15 
14.8309 140.006 -0.0589196 4.51123 -4.64073e-14 -1.40998e-14 5.50813 132.312 0.0777865 
6.92378 1.27676e-13 1.54737e-14 -3.40461 124.072 0.132624 10.1937 -1.16795e-13 -8.65974e-15 
-10.6773 115.446 0.125568 14.0783 4.89608e-14 1.19904e-14 -12.1956 115.005 0.11085 
-11.0262 1.65423e-13 3.16969e-14 -5.77172 121.915 0.138682 -6.69973 -1.07914e-13 -1.26843e-14 
2.81288 128.109 0.120873 -2.94157 2.66454e-14 -4.7462e-15 12.4775 133.432 0.0263479 
-0.314215 -9.70335e-14 -3.60822e-15 21.687 137.774 -0.140896 0.937777 4.59632e-14 9.21485e-15 
28.8419 140.934 -0.330336 0.971988 8.38218e-14 -9.10383e-15 32.7087 142.614 -0.458112 
0.224844 -6.91114e-15 1.33227e-14 32.6547 142.576 -0.45758 -0.776024 6.04794e-14 5.55112e-15 
28.6908 140.818 -0.329118 -1.50077 -9.88098e-14 -3.55271e-15 21.4677 137.576 -0.139786 
-1.42969 -9.65894e-15 -2.22045e-16 12.2253 133.15 0.0267641 -0.138354 1.52101e-13 2.01505e-14 
2.55799 127.745 0.120519 2.5203 -4.75175e-14 1.71391e-15 -6.01269 121.477 0.13785 
6.29667 6.9833e-14 9.60343e-15 -12.4201 114.505 0.110101 10.6295 2.94209e-14 -9.49241e-15 
-12.6801 113.253 0.0882946 -8.51719 -2.88658e-14 -9.54792e-15 -7.22602 118.936 0.123175 
-4.13261 3.44169e-15 7.91034e-15 0.658208 123.742 0.132501 -0.164573 -1.32117e-13 -4.5311e-15 
10.1128 127.465 0.0763754 2.62327 5.77316e-15 -3.60822e-15 19.6268 130.103 -0.0499841 
3.69368 -2.30926e-14 4.44089e-16 27.3549 131.76 -0.207179 2.9829 -1.28009e-13 -1.26565e-14 
31.6621 132.543 -0.318188 0.95405 -1.13243e-14 -5.55112e-15 31.6099 132.508 -0.317883 
-1.54958 5.27356e-15 1.46549e-14 27.2098 131.651 -0.206552 -3.55469 -1.57652e-14 -7.66054e-15 
19.4174 129.914 -0.0496037 -4.22737 1.3689e-13 1.04361e-14 9.87277 127.191 0.0761638 
-3.11778 -9.02611e-14 8.04912e-15 0.41347 123.383 0.13176 -0.299988 -4.13003e-14 -8.61811e-15 
-7.46378 118.498 0.122183 3.68515 2.34257e-14 -4.71845e-16 -12.9119 112.749 0.0876621 
8.07669 -1.54765e-13 -2.45914e-14 -12.3661 111.11 0.0667011 -6.65795 -1.57263e-13 -1.87628e-14 
-7.85928 115.847 0.0991798 -2.46213 -8.62643e-14 -5.96745e-15 -0.84729 119.661 0.125643 
1.49157 5.91749e-14 1.09669e-14 8.0411 122.279 0.0999792 4.33879 2.37477e-13 1.66256e-14 
17.4077 123.733 0.0115459 5.33299 3.54161e-14 -6.16174e-15 25.2998 124.323 -0.111512 
4.2095 6.66134e-14 1.19904e-14 29.8077 124.457 -0.20277 1.40179 -1.20265e-13 7.77156e-15 
29.7582 124.422 -0.202634 -2.04 1.65978e-14 -5.10703e-15 25.1624 124.215 -0.111302 
-4.82426 -7.24976e-14 1.04361e-14 17.2097 123.545 0.0114644 -5.91083 -2.40918e-14 -4.44089e-16 
7.81278 122.002 0.0994444 -4.87963 9.49241e-14 6.82787e-15 -1.08471 119.297 0.124785 
-2.00472 3.83027e-14 -5.05151e-15 -8.09848 115.401 0.0982035 1.9651 3.10862e-15 -1.88183e-14 
-12.6106 110.593 0.066328 6.16905 7.56617e-14 8.04912e-15 -11.5769 108.842 0.0492571 
-5.26766 7.10543e-15 8.82627e-15 -7.93305 112.824 0.0740036 -1.40354 -1.23013e-13 -2.95042e-14 
-1.84522 115.911 0.109634 2.37835 8.53206e-14 -2.42861e-17 6.27077 117.77 0.106176 
5.18936 -3.44169e-15 -1.13798e-15 15.1782 118.43 0.0499909 6.15364 -1.26565e-13 1.31561e-14 
22.9239 118.297 -0.0408783 4.84405 -1.93734e-14 -1.9984e-15 27.441 117.983 -0.112145 
1.63299 -6.64468e-14 -5.66214e-15 27.3945 117.947 -0.112119 -2.3146 -7.27196e-15 -6.66134e-16 
22.7948 118.186 -0.0409225 -5.50351 1.65978e-14 2.77556e-15 14.9913 118.236 0.0496729 
-6.77869 2.07945e-13 -2.22045e-15 6.05229 117.485 0.105547 -5.78049 -7.51621e-14 7.32747e-15 
-2.07872 115.535 0.108837 -2.94414 4.9627e-14 1.09877e-14 -8.178 112.363 0.0731361 
0.853344 1.84297e-14 -1.50019e-14 -11.8386 108.307 0.0492217 4.72731 1.24956e-13 1.53766e-14 
-10.5342 106.615 0.036532 -4.21728 -8.74023e-14 -1.249e-14 -7.64287 109.976 0.0513926 
-0.755155 1.2873e-13 3.84415e-15 -2.45694 112.514 0.0904403 2.75376 -1.72473e-13 1.58606e-14 
4.78858 113.856 0.101803 5.44959 -1.45439e-14 -1.54043e-14 13.0382 114.004 0.0712957 
6.39572 7.2109e-14 -3.33067e-15 20.4154 113.41 0.00863211 5.04764 -1.2973e-13 2.72005e-15 
24.7963 112.809 -0.0440743 1.70339 1.90029e-13 -5.10703e-15 24.7528 112.771 -0.0441067 
-2.43085 -1.24262e-13 4.44089e-16 20.2943 113.293 0.00847115 -5.75479 1.02363e-13 4.27436e-15 
12.8612 113.799 0.0709222 -7.07157 -4.96825e-14 -1.66533e-16 4.5775 113.558 0.101251 
-6.09471 7.07767e-14 -2.02061e-14 -2.68994 112.122 0.0898313 -3.3755 -1.54321e-14 1.19913e-14 
-7.8974 109.496 0.0506884 0.149158 1.52656e-14 5.32907e-15 -10.8167 106.055 0.0368801 
3.62341 -4.57689e-14 -8.90954e-15 -9.38458 104.521 0.0278236 -3.41472 6.95e-14 -1.59317e-14 
-7.13076 107.363 0.0328577 -0.376151 7.38853e-14 -3.98293e-15 -2.78247 109.475 0.0715826 
2.8034 -6.71685e-15 -1.22489e-14 3.56903 110.463 0.0917154 5.32581 -4.10783e-15 6.80012e-16 
11.0498 110.301 0.0804154 6.24767 1.83853e-13 -2.22045e-15 17.9113 109.441 0.0410791 
4.95124 2.67286e-14 1.02696e-14 22.0524 108.673 0.00458781 1.65927 -4.50195e-14 -1.50435e-14 
22.0118 108.633 0.00454036 -2.43628 4.26326e-14 5.77316e-15 17.7973 109.315 0.0409155 
-5.70993 -2.49495e-13 -5.16254e-15 10.881 110.083 0.0801306 -6.97819 6.63358e-14 -6.02296e-15 
3.36277 110.149 0.0913727 -6.02845 9.89209e-14 1.04083e-14 -3.01812 109.063 0.0712596 
-3.48389 7.6994e-14 -6.33261e-15 -7.39818 106.859 0.0323649 -0.2876 -3.55271e-15 -6.99441e-15 
-9.69126 103.932 0.0285875 2.76605 -4.31599e-14 3.34455e-15 -8.2226 102.607 0.0215655 
-2.79449 1.84713e-14 1.68338e-14 -6.49628 105.009 0.0189318 -0.170076 -2.04087e-13 -1.25039e-14 
-2.90052 106.781 0.0555324 2.65769 -2.23155e-14 1.17675e-14 2.58197 107.528 0.0799136 
4.96942 1.60788e-13 8.07687e-15 9.24722 107.194 0.0817691 5.85383 -2.82552e-14 -6.02296e-15 
15.5057 106.208 0.0603023 4.65871 1.77219e-13 6.55032e-15 19.3391 105.365 0.0369762 
1.53816 -9.55624e-14 4.16334e-15 19.301 105.321 0.0369509 -2.36918 2.69992e-14 4.71845e-15 
15.3979 106.073 0.0602324 -5.47333 1.28619e-13 -1.15463e-14 9.08491 106.962 0.0816943 
-6.64307 -1.65645e-13 -9.99201e-16 2.3782 107.195 0.0798974 -5.73292 8.37386e-14 7.85483e-15 
-3.1414 106.347 0.0556094 -3.39931 5.96745e-14 -2.70283e-14 -6.77919 104.478 0.0187604 
-0.55281 4.97657e-14 1.86656e-14 -8.55637 101.986 0.0227996 2.0906 1.26163e-13 -1.84297e-14 
-7.10784 100.887 0.0158456 -2.31048 -7.76185e-14 7.56339e-16 -5.81201 102.91 0.00395877 
-0.0733214 1.82548e-13 2.2829e-14 -2.87785 104.404 0.036558 2.40438 -8.43214e-14 -3.46598e-15 
1.79061 104.985 0.0624219 4.48806 -3.06866e-13 -1.36835e-14 7.64087 104.576 0.0744092 
5.32302 1.13881e-13 1.82354e-14 13.2573 103.565 0.0686342 4.25207 -1.33948e-13 -1.42109e-14 
16.746 102.714 0.0576496 1.37047 -1.40936e-13 -2.77556e-16 16.71 102.667 0.0576683 
-2.2604 1.55417e-13 -2.66454e-15 13.1548 103.42 0.0687112 -5.12722 -2.33452e-13 4.32987e-15 
7.48346 104.33 0.0745946 -6.17499 1.0475e-13 9.35363e-15 1.58736 104.633 0.0627338 
-5.31557 -1.66978e-13 -4.14252e-15 -3.12604 103.946 0.0369679 -3.20921 7.13873e-14 1.29692e-14 
-6.11242 102.352 0.00396697 -0.709548 -6.4948e-14 -2.25514e-15 -7.47106 100.234 0.0174737 
1.55195 -8.00748e-15 -1.77081e-14 -6.05854 99.375 0.0291418 -1.92325 -8.12683e-14 -4.64906e-16 
-5.08813 101.081 0.0327789 -0.0424066 -3.59296e-14 -1.44815e-14 -2.70859 102.345 0.0758908 
2.09862 1.09593e-13 1.34389e-14 1.22407 102.809 0.10345 3.95245 7.91034e-15 -9.88098e-15 
6.27549 102.381 0.104172 4.73391 4.32987e-14 -5.88418e-15 11.2088 101.4 0.0771049 
3.79679 4.93494e-14 -3.69149e-15 14.3049 100.578 0.0484064 1.1822 -7.71119e-14 -2.10942e-15 
14.2709 100.528 0.0486023 -2.13592 -1.22874e-13 -4.4964e-15 11.1111 101.247 0.0776848 
-4.73696 2.79304e-13 -1.69309e-15 6.12229 102.121 0.105165 -5.65236 8.34333e-14 1.16296e-14 
1.02076 102.439 0.104949 -4.84675 -8.89289e-14 -1.98036e-14 -2.96408 101.866 0.0780644 
-2.96844 -4.68792e-14 3.48697e-14 -5.40476 100.496 0.0352297 -0.801226 6.92224e-14 -6.97359e-15 
-6.44894 98.6892 0.0342217 1.11069 -1.8395e-14 9.04138e-15 11.2682 49.0041 -0.119353 
28.5518 3.30846e-14 4.44089e-15 -0.306319 30.2686 -0.175574 18.2713 3.45279e-14 2.35367e-14 
-15.2997 16.2743 -0.325148 8.45817 -3.36953e-14 1.77636e-14 -32.1535 7.13503 -0.566695 
0.837833 8.37108e-14 1.28786e-14 -48.4325 2.16362 -0.825553 -3.36927 -6.68354e-14 -1.42109e-14 
-61.3731 0.0572001 -1.03576 -3.91182 7.28306e-14 3.55271e-15 -68.5531 -0.55883 -1.1518 
-1.65305 -1.8674e-13 -3.4972e-15 -68.5531 -0.55883 -1.1518 1.65305 -7.83817e-14 -2.34257e-14 
-61.3731 0.0572001 -1.03576 3.91182 -5.4845e-14 -3.9968e-15 -48.4325 2.16362 -0.825553 
3.36927 -2.53131e-14 1.55431e-14 -32.1535 7.13503 -0.566695 -0.837833 1.28675e-13 1.68754e-14 
-15.2997 16.2743 -0.325148 -8.45817 4.27436e-14 2.62013e-14 -0.306319 30.2686 -0.175574 
-18.2713 -4.28546e-14 -4.9738e-14 11.2682 49.0041 -0.119353 -28.5518 7.50511e-14 3.33067e-14 
-3.13137 67.5069 -0.270714 29.2692 2.13163e-14 1.77636e-15 -9.3065 47.9204 -0.138259 
24.9833 4.27436e-14 -1.95399e-14 -17.4572 30.6022 -0.029868 19.0738 -5.05707e-14 1.33227e-15 
-27.1153 16.8579 0.0658898 12.7363 -1.88738e-15 -1.64313e-14 -37.0202 7.20145 0.140021 
7.22971 -2.81997e-14 1.37668e-14 -45.2872 1.38315 0.192788 3.31639 -1.52989e-13 -3.17524e-14 
-50.0176 -1.26028 0.221208 0.90276 1.08358e-13 7.04992e-15 -50.0176 -1.26028 0.221208 
-0.90276 2.57572e-14 -5.44009e-15 -45.2872 1.38315 0.192788 -3.31639 -2.06501e-14 4.44089e-16 
-37.0202 7.20145 0.140021 -7.22971 -2.18714e-13 -3.9968e-15 -27.1153 16.8579 0.0658898 
-12.7363 1.21347e-13 1.64313e-14 -17.4572 30.6022 -0.029868 -19.0738 -3.74145e-14 -1.42109e-14 
-9.3065 47.9204 -0.138259 -24.9833 1.24345e-14 -8.43769e-15 -3.13137 67.5069 -0.270714 
-29.2692 -3.93019e-14 1.11022e-14 -11.6978 80.2066 -0.368249 28.1274 1.05249e-13 1.64313e-14 
-14.8687 61.3434 -0.262889 27.9472 3.87468e-14 -4.44089e-15 -18.6889 42.7939 -0.120406 
25.2129 -6.24223e-14 -2.53131e-14 -23.3465 26.3682 0.0661669 20.4449 -4.70735e-14 -1.02141e-14 
-28.4361 13.4842 0.271289 14.5848 6.68354e-14 3.33067e-15 -32.9443 4.85726 0.45043 
8.54742 -1.99396e-13 -2.53131e-14 -35.6262 0.600088 0.556079 2.79027 4.9738e-14 1.77081e-14 
-35.6262 0.600088 0.556079 -2.79027 -2.22045e-15 -1.59317e-14 -32.9443 4.85726 0.45043 
-8.54742 8.34888e-14 -5.77316e-15 -28.4361 13.4842 0.271289 -14.5848 -7.10543e-15 2.06501e-14 
-23.3465 26.3682 0.0661669 -20.4449 7.62723e-14 -1.22125e-14 -18.6889 42.7939 -0.120406 
-25.2129 1.2762e-13 3.68594e-14 -14.8687 61.3434 -0.262889 -27.9472 3.14748e-14 1.57652e-14 
-11.6978 80.2066 -0.368249 -28.1274 2.39808e-14 1.73195e-14 -16.2816 88.6155 -0.3763 
25.9585 -5.85088e-14 -1.04361e-14 -17.8614 71.376 -0.338598 28.4324 -8.34888e-14 -1.31006e-14 
-19.0713 52.9721 -0.240153 28.1301 -1.42775e-13 6.21725e-15 -20.3834 35.3482 -0.0670585 
24.9335 2.07612e-13 2.17604e-14 -21.9731 20.4774 0.1577 19.3166 1.11022e-14 -3.33067e-15 
-23.5698 9.87696 0.374953 12.1064 -3.26406e-14 -2.75335e-14 -24.601 4.41054 0.510031 
4.10832 8.85958e-14 1.49325e-14 -24.601 4.41054 0.510031 -4.10832 -5.44009e-14 -4.88498e-15 
-23.5698 9.87696 0.374953 -12.1064 2.84217e-14 -6.21725e-15 -21.9731 20.4774 0.1577 
-19.3166 2.20046e-13 6.88338e-15 -20.3834 35.3482 -0.0670585 -24.9335 -2.12608e-13 -3.24185e-14 
-19.0713 52.9721 -0.240153 -28.1301 -2.29344e-13 -3.9968e-14 -17.8614 71.376 -0.338598 
-28.4324 6.17839e-14 1.4877e-14 -16.2816 88.6155 -0.3763 -25.9585 -3.33067e-14 -1.08802e-14 
-18.2256 93.9261 -0.331624 23.2951 1.4766e-14 1.68754e-14 -19.0225 78.7203 -0.351444 
27.3453 5.58442e-14 -5.10703e-15 -18.7587 61.3318 -0.308821 28.7936 1.28453e-13 -3.77476e-15 
-17.9498 43.5933 -0.183472 27.0072 -1.18905e-13 5.9952e-15 -17.1116 27.7525 0.0122698 
21.9735 -1.64313e-14 3.26406e-14 -16.5518 15.9212 0.220778 14.2931 2.53353e-13 3.03091e-14 
-16.3096 9.62535 0.357203 4.95006 -2.04059e-13 -1.44329e-14 -16.3096 9.62535 0.357203 
-4.95006 1.9984e-15 -8.71525e-15 -16.5518 15.9212 0.220778 -14.2931 -4.59632e-14 -2.53131e-14 
-17.1116 27.7525 0.0122698 -21.9735 1.43219e-14 -1.35447e-14 -17.9498 43.5933 -0.183472 
-27.0072 -8.83738e-14 1.15463e-14 -18.7587 61.3318 -0.308821 -28.7936 2.03323e-13 3.5083e-14 
-19.0225 78.7203 -0.351444 -27.3453 -1.29008e-13 -4.41869e-14 -18.2256 93.9261 -0.331624 
-23.2951 9.00391e-14 2.19824e-14 -18.4818 97.0485 -0.266771 20.4757 7.18314e-14 -4.44089e-15 
-18.9394 83.9756 -0.324522 25.3308 -7.52176e-14 -2.83107e-14 -17.9278 68.0969 -0.328141 
27.9473 -9.91013e-14 -1.22125e-14 -15.8763 50.9965 -0.254422 27.3313 -6.99441e-15 -1.42109e-14 
-13.4577 34.9817 -0.104203 23.0385 -8.43769e-15 2.03171e-14 -11.3882 22.5528 0.0742301 
15.385 -1.52323e-13 -1.65423e-14 -10.2148 15.7691 0.197284 5.40407 8.19345e-14 1.4766e-14 
-10.2148 15.7691 0.197284 -5.40407 5.973e-14 6.77236e-15 -11.3882 22.5528 0.0742301 
-15.385 -3.13083e-14 2.55351e-14 -13.4577 34.9817 -0.104203 -23.0385 -4.36318e-14 -1.55431e-15 
-15.8763 50.9965 -0.254422 -27.3313 2.05613e-13 9.99201e-15 -17.9278 68.0969 -0.328141 
-27.9473 3.95309e-14 -1.31006e-14 -18.9394 83.9756 -0.324522 -25.3308 1.02113e-13 2.62013e-14 
-18.4818 97.0485 -0.266771 -20.4757 -1.67033e-13 -1.77636e-15 -17.7142 98.6636 -0.200578 
17.7101 -5.66214e-15 2.33147e-15 -18.0598 87.6381 -0.279022 22.8389 2.34812e-14 -1.82077e-14 
-16.7454 73.499 -0.314798 26.154 8.79713e-14 -1.4988e-14 -14.0604 57.5233 -0.285622 
26.4454 -6.4948e-14 7.77156e-16 -10.7084 41.9275 -0.182623 22.9293 -2.81997e-14 1.08802e-14 
-7.66213 29.4167 -0.0419985 15.6342 -3.33067e-15 -3.05311e-15 -5.85465 22.4388 0.0608456 
5.55313 -1.66533e-14 9.27036e-15 -5.85465 22.4388 0.0608456 -5.55313 -3.57492e-14 5.52336e-15 
-7.66213 29.4167 -0.0419985 -15.6342 -3.16414e-14 -1.26565e-14 -10.7084 41.9275 -0.182623 
-22.9293 2.15494e-13 2.5091e-14 -14.0604 57.5233 -0.285622 -26.4454 -1.02141e-13 -5.10703e-15 
-16.7454 73.499 -0.314798 -26.154 -6.72379e-14 -2.14273e-14 -18.0598 87.6381 -0.279022 
-22.8389 -2.74225e-14 -1.59872e-14 -17.7142 98.6636 -0.200578 -17.7101 -9.54792e-14 7.77156e-15 
-16.3758 99.271 -0.142019 15.1203 -6.06182e-14 3.71925e-15 -16.7131 90.1087 -0.228572 
20.1743 -5.13201e-14 -1.44329e-15 -15.3538 77.7601 -0.283547 23.828 5.61114e-14 1.54321e-14 
-12.441 63.1897 -0.288692 24.7761 8.88178e-14 1.05471e-14 -8.63184 48.4288 -0.228148 
21.9968 3.88578e-16 -1.90958e-14 -5.03055 36.2358 -0.12593 15.263 6.55032e-14 9.54792e-15 
-2.83562 29.3041 -0.0455701 5.47228 -1.70974e-13 -2.26208e-14 -2.83562 29.3041 -0.0455701 
-5.47228 2.68674e-14 -1.3739e-14 -5.03055 36.2358 -0.12593 -15.263 -2.62013e-14 3.33067e-15 
-8.63184 48.4288 -0.228148 -21.9968 -8.24341e-14 2.44249e-15 -12.441 63.1897 -0.288692 
-24.7761 9.35918e-14 4.44089e-14 -15.3538 77.7601 -0.283547 -23.828 -3.14124e-14 -3.77476e-15 
-16.7131 90.1087 -0.228572 -20.1743 4.9738e-14 1.0103e-14 -16.3758 99.271 -0.142019 
-15.1203 -6.31717e-14 -4.32987e-15 -14.7667 99.2293 -0.0943374 12.7696 9.02889e-14 1.15463e-14 
-15.1325 91.7035 -0.180773 17.5348 -1.53599e-13 1.55431e-15 -13.8664 81.083 -0.244699 
21.2651 1.10849e-14 -1.22125e-14 -10.9829 68.0455 -0.273945 22.6503 3.71925e-15 -1.9984e-15 
-7.0521 54.387 -0.248456 20.5266 -5.00155e-14 -9.88098e-15 -3.21607 42.8034 -0.181422 
14.461 9.53682e-14 -9.15934e-15 -0.829566 36.1048 -0.123076 5.22706 -6.55032e-15 1.16435e-14 
-0.829566 36.1048 -0.123076 -5.22706 8.29337e-14 -1.17545e-14 -3.21607 42.8034 -0.181422 
-14.461 8.16014e-14 3.04201e-14 -7.0521 54.387 -0.248456 -20.5266 -1.07248e-13 -1.77636e-14 
-10.9829 68.0455 -0.273945 -22.6503 -2.93376e-14 7.77156e-16 -13.8664 81.083 -0.244699 
-21.2651 1.41888e-13 9.4369e-16 -15.1325 91.7035 -0.180773 -17.5348 -9.06497e-14 2.29816e-14 
-14.7667 99.2293 -0.0943374 -12.7696 1.29924e-13 2.09277e-14 -13.0781 98.7901 -0.0577151 
10.6828 9.29812e-15 -1.34615e-14 -13.4763 92.6668 -0.139271 15.0413 -6.41154e-14 1.15463e-14 
-12.3672 83.6455 -0.204806 18.6679 -4.17583e-14 -7.49401e-15 -9.66495 72.16 -0.249208 
20.3101 -1.09995e-13 -1.06026e-14 -5.83775 59.7527 -0.250679 18.743 4.06897e-14 -6.66134e-16 
-1.99915 48.9754 -0.213653 13.3834 3.31402e-14 2.72005e-15 0.430314 42.6458 -0.175209 
4.87263 -6.52811e-14 1.09773e-14 0.430314 42.6458 -0.175209 -4.87263 -6.71685e-14 -2.69507e-14 
-1.99915 48.9754 -0.213653 -13.3834 3.46945e-14 -2.57017e-14 -5.83775 59.7527 -0.250679 
-18.743 -2.2371e-14 1.38778e-14 -9.66495 72.16 -0.249208 -20.3101 2.78944e-14 1.83742e-14 
-12.3672 83.6455 -0.204806 -18.6679 -2.73731e-14 -1.30451e-14 -13.4763 92.6668 -0.139271 
-15.0413 6.44901e-14 -3.20299e-14 -13.0781 98.7901 -0.0577151 -10.6828 -1.88183e-14 1.09357e-14 
-11.4252 98.1261 -0.0307343 8.85996 -7.27474e-14 1.58207e-15 -11.8457 93.1829 -0.105216 
12.7603 2.76723e-14 2.01228e-14 -10.9139 85.5993 -0.167664 16.1686 -7.23848e-14 -2.05391e-14 
-8.47337 75.6119 -0.220019 17.9282 3.74284e-14 -9.21485e-15 -4.89124 64.5142 -0.240707 
16.8164 -2.7256e-14 3.94129e-15 -1.20985 54.6602 -0.227744 12.1539 1.32394e-13 2.56462e-14 
1.15524 48.7905 -0.206228 4.45376 5.95635e-14 -2.05946e-14 1.15524 48.7905 -0.206228 
-4.45376 -2.58127e-14 -1.76387e-14 -1.20985 54.6602 -0.227744 -12.1539 -1.2701e-13 1.09912e-14 
-4.89124 64.5142 -0.240707 -16.8164 1.27648e-13 -8.10463e-15 -8.47337 75.6119 -0.220019 
-17.9282 -7.60364e-14 5.77316e-15 -10.9139 85.5993 -0.167664 -16.1686 9.94808e-14 -4.77396e-15 
-11.8457 93.1829 -0.105216 -12.7603 -6.33521e-14 2.94209e-15 -11.4252 98.1261 -0.0307343 
-8.85996 4.94049e-14 2.5091e-14 -9.87242 97.3527 -0.0117476 7.28576 -7.31637e-14 -2.20379e-14 
-10.3004 93.3875 -0.0792068 10.7206 -1.65853e-13 -1.36002e-14 -9.54211 87.0686 -0.136231 
13.8467 5.19558e-14 7.82707e-15 -7.39697 78.4807 -0.1911 15.6222 3.96627e-14 5.13478e-15 
-4.14065 68.6855 -0.223766 14.8719 4.724e-14 8.60423e-16 -0.71944 59.8095 -0.228331 
10.8671 2.42584e-14 1.83187e-15 1.50791 54.4525 -0.220036 4.00574 1.08802e-14 1.249e-15 
1.50791 54.4525 -0.220036 -4.00574 7.57172e-14 -6.63358e-15 -0.71944 59.8095 -0.228331 
-10.8671 -1.28231e-14 -1.65978e-14 -4.14065 68.6855 -0.223766 -14.8719 -1.07137e-14 -2.83662e-14 
-7.39697 78.4807 -0.1911 -15.6222 2.03407e-13 1.13243e-14 -9.54211 87.0686 -0.136231 
-13.8467 -7.43663e-14 -3.31957e-14 -10.3004 93.3875 -0.0792068 -10.7206 1.09725e-13 3.22797e-14 
-9.87242 97.3527 -0.0117476 -7.28576 -1.49367e-13 -6.13398e-15 -8.44823 96.5521 0.0082851 
5.93528 1.1241e-14 1.21708e-14 -8.86507 93.3889 -0.0502888 8.92407 8.67847e-14 1.71529e-14 
-8.26187 88.1636 -0.101041 11.7418 1.45066e-14 2.30371e-15 -6.41707 80.8501 -0.15647 
13.4666 -7.10682e-14 3.58047e-15 -3.5283 72.303 -0.198736 12.9986 -3.19744e-14 6.93889e-15 
-0.432431 64.4088 -0.2191 9.59582 3.32789e-14 -1.55986e-14 1.60694 59.5849 -0.223422 
3.55646 5.60663e-15 1.75068e-14 1.60694 59.5849 -0.223422 -3.55646 1.55986e-14 -1.59733e-14 
-0.432431 64.4088 -0.2191 -9.59582 5.30131e-15 1.16018e-14 -3.5283 72.303 -0.198736 
-12.9986 2.21878e-13 1.81521e-14 -6.41707 80.8501 -0.15647 -13.4666 -1.43337e-13 -1.02696e-15 
-8.26187 88.1636 -0.101041 -11.7418 2.59878e-14 1.58484e-14 -8.86507 93.3889 -0.0502888 
-8.92407 -5.64132e-14 -3.40561e-14 -8.44823 96.5521 0.0082851 -5.93528 -6.84175e-14 2.04281e-14 
-7.20375 95.7211 -0.0360247 4.7843 -3.69982e-14 -1.17129e-14 -7.60181 93.1862 -0.104698 
7.35771 -7.07004e-14 -7.46625e-15 -7.12813 88.8824 -0.156978 9.86313 1.55639e-14 -2.22045e-15 
-5.56104 82.7106 -0.201788 11.4989 7.10473e-14 1.60982e-15 -3.03608 75.3574 -0.217977 
11.2551 7.82846e-14 -1.04916e-14 -0.279743 68.466 -0.20295 8.39581 -5.14588e-14 9.86711e-15 
1.55667 64.2158 -0.180658 3.1293 -6.68909e-15 -4.52416e-15 1.55667 64.2158 -0.180658 
-3.1293 -1.13881e-13 -4.52416e-15 -0.279743 68.466 -0.20295 -8.39581 6.7002e-14 -6.46705e-15 
-3.03608 75.3574 -0.217977 -11.2551 -4.84612e-14 2.85605e-14 -5.56104 82.7106 -0.201788 
-11.4989 -4.46518e-15 -3.10307e-14 -7.12813 88.8824 -0.156978 -9.86313 1.86573e-13 5.68989e-15 
-7.60181 93.1862 -0.104698 -7.35771 8.53345e-14 6.20615e-14 -7.20375 95.7211 -0.0360247 
-4.7843 -1.1096e-13 -5.65104e-14 25.3008 93.8056 -0.478072 -46.2417 6.9722e-14 1.95399e-14 
28.868 120.974 -0.36199 -52.7774 1.01252e-13 3.88578e-15 28.5135 150.827 -0.147325 
-55.536 1.30118e-13 5.00155e-14 24.886 180.95 0.157826 -52.9041 -4.35207e-14 1.4988e-14 
19.4521 208.093 0.473132 -44.0243 8.92619e-14 -3.33067e-15 14.1985 228.78 0.726715 
-29.2412 1.32339e-13 6.88338e-15 11.0082 240.045 0.866918 -10.2125 2.04836e-14 -4.92939e-14 
11.0288 240.168 0.86757 10.3754 -1.09524e-13 -9.32587e-15 14.2651 229.13 0.728373 
29.4419 4.39648e-14 1.66533e-14 19.5752 208.621 0.47497 44.2882 1.4122e-13 2.68674e-14 
25.0744 181.587 0.158715 53.2368 1.803e-13 5.10703e-15 28.7667 151.502 -0.148416 
55.9239 1.14131e-13 2.02061e-14 29.1724 121.629 -0.365507 53.1943 4.44089e-15 -2.77556e-15 
25.6318 94.4017 -0.48365 46.6585 4.44089e-14 2.24265e-14 9.60993 105.686 -0.118623 
-34.0373 1.06581e-14 8.88178e-16 16.2179 125.102 -0.209221 -36.0407 -1.51434e-13 -3.15303e-14 
20.83 146.3 -0.29346 -36.6849 -5.41789e-14 -4.2466e-15 22.9258 167.981 -0.362851 
-34.7004 7.23865e-14 -1.19904e-14 22.847 187.992 -0.409963 -29.0301 -4.08562e-14 8.43769e-15 
21.6508 203.601 -0.440006 -19.4222 -1.33005e-13 5.32907e-15 20.6318 212.237 -0.455574 
-6.7656 -7.92699e-14 4.13003e-14 20.6686 212.329 -0.456457 7.04663 6.52256e-14 -3.06422e-14 
21.7607 203.864 -0.442503 19.7188 -4.26326e-14 -5.77316e-15 23.0266 188.394 -0.413679 
29.3505 -1.89848e-13 -4.77396e-14 23.1645 168.478 -0.367289 35.0422 -1.09246e-13 -1.35447e-14 
21.1084 146.849 -0.298097 37.0387 -1.76748e-13 1.44607e-14 16.5106 125.67 -0.213578 
36.3955 -1.12355e-13 -1.95399e-14 9.89181 106.249 -0.122397 34.3861 1.81188e-13 -2.22045e-15 
-0.670985 112.126 0.0529791 -25.1996 4.37428e-14 1.36557e-14 7.11857 126.471 -0.0243292 
-24.2026 -4.30767e-14 5.38458e-15 14.4942 141.683 -0.1548 -23.1079 -4.61853e-14 -6.66134e-15 
20.382 157.141 -0.331058 -21.1843 -1.07692e-13 -3.95239e-14 24.2493 171.531 -0.524058 
-17.5609 3.57492e-14 2.39808e-14 26.2651 182.916 -0.691521 -11.7411 -1.01474e-13 -3.15303e-14 
27.0376 189.291 -0.790316 -4.03766 1.07025e-13 1.59872e-14 27.0845 189.361 -0.791529 
4.41008 8.42659e-14 4.44089e-16 26.4011 183.118 -0.694765 12.1129 -1.86517e-14 4.44089e-16 
24.4601 171.844 -0.528358 17.9291 -1.64757e-13 -3.33067e-15 20.6438 157.542 -0.335333 
21.5437 1.02585e-13 1.44329e-14 14.7776 142.148 -0.158266 23.4546 2.11831e-13 1.34892e-14 
7.39525 126.981 -0.0266921 24.537 -5.04041e-14 9.27036e-15 -0.421112 112.662 0.051527 
25.5267 1.86295e-13 7.54952e-15 -7.04845 114.952 0.117093 -18.7728 -4.84057e-14 1.64313e-14 
0.793447 125.907 0.0867802 -15.9174 -9.03722e-14 -1.9873e-14 9.43246 136.992 -0.0121191 
-13.5231 -3.28626e-14 -5.01821e-14 17.6017 147.926 -0.186211 -11.392 2.9754e-14 5.85088e-14 
24.2019 157.989 -0.409821 -9.01196 4.92939e-14 3.9968e-15 28.6369 165.959 -0.623936 
-5.8849 -1.74749e-13 -4.44089e-14 30.8232 170.444 -0.756725 -1.93199 -2.76446e-14 1.90958e-14 
30.8756 170.498 -0.757801 2.37609 -1.8896e-13 -1.4877e-14 28.7862 166.118 -0.626692 
6.31727 3.83027e-14 4.4631e-14 24.426 158.244 -0.413151 9.42285 1.9762e-13 3.10862e-14 
17.8691 148.266 -0.189027 11.7762 -2.64455e-13 -5.01821e-14 9.7099 137.404 -0.0138453 
13.8821 1.11022e-14 -2.46747e-14 1.05468 126.377 0.086121 16.2588 4.64073e-14 3.94129e-15 
-6.81693 115.467 0.117061 19.1073 1.62093e-14 1.34337e-14 -10.6773 115.446 0.125568 
-14.0783 -1.63203e-14 -4.90719e-14 -3.40461 124.072 0.132624 -10.1937 -1.62093e-14 2.7367e-14 
5.50813 132.312 0.0777865 -6.92378 5.63993e-14 2.60625e-14 14.8309 140.006 -0.0589196 
-4.51123 -2.88658e-14 -1.25455e-14 23.1548 146.817 -0.262923 -2.84257 -4.44089e-16 -1.80966e-14 
29.2939 152.103 -0.475801 -1.56199 3.15636e-13 5.24025e-14 32.5336 155.058 -0.614012 
-0.35679 -2.56517e-13 -4.996e-14 32.588 155.102 -0.614817 0.858822 1.83409e-13 2.55351e-14 
29.4471 152.235 -0.477765 2.04535 -2.35811e-13 -4.88498e-14 23.3803 147.035 -0.265048 
3.29404 -1.61648e-13 3.33067e-15 15.0934 140.308 -0.0603436 4.92679 -9.08162e-14 2.27596e-14 
5.77472 132.692 0.0773588 7.30891 2.94653e-13 3.38618e-15 -3.15568 124.52 0.132973 
10.5601 -1.55653e-13 -2.60902e-14 -10.4535 115.949 0.126167 14.4383 -5.4734e-14 1.59872e-14 
-12.4201 114.505 0.110101 -10.6295 1.803e-13 1.79856e-14 -6.01269 121.477 0.13785 
-6.29667 -6.33937e-14 -2.41474e-14 2.55799 127.745 0.120519 -2.5203 -5.15143e-14 -1.94775e-14 
12.2253 133.15 0.0267641 0.138354 1.15019e-13 2.40918e-14 21.4677 137.576 -0.139786 
1.42969 -1.33227e-14 -2.9976e-15 28.6908 140.818 -0.329118 1.50077 -7.49401e-14 2.75335e-14 
32.6547 142.576 -0.45758 0.776024 1.79329e-13 8.21565e-15 32.7087 142.614 -0.458112 
-0.224844 1.26843e-14 1.33227e-14 28.8419 140.934 -0.330336 -0.971988 1.84075e-13 7.99361e-15 
21.687 137.774 -0.140896 -0.937777 9.32587e-15 9.4369e-15 12.4775 133.432 0.0263479 
0.314215 1.58318e-13 2.60902e-15 2.81288 128.109 0.120873 2.94157 3.26406e-14 1.26704e-14 
-5.77172 121.915 0.138682 6.69973 1.63647e-13 5.56222e-14 -12.1956 115.005 0.11085 
11.0262 1.76081e-13 -2.15383e-14 -12.9119 112.749 0.0876621 -8.07669 -1.9873e-14 2.19824e-14 
-7.46378 118.498 0.122183 -3.68515 -1.04916e-13 -1.93456e-14 0.41347 123.383 0.13176 
0.299988 -9.10383e-14 -5.70446e-14 9.87277 127.191 0.0761638 3.11778 -6.83897e-14 2.43139e-14 
19.4174 129.914 -0.0496037 4.22737 -7.09433e-14 8.99281e-15 27.2098 131.651 -0.206552 
3.55469 -1.2379e-13 -4.11893e-14 31.6099 132.508 -0.317883 1.54958 1.54043e-14 -5.32907e-15 
31.6621 132.543 -0.318188 -0.95405 7.77711e-14 -7.77156e-15 27.3549 131.76 -0.207179 
-2.9829 -2.56406e-13 1.83187e-14 19.6268 130.103 -0.0499841 -3.69368 1.4555e-13 9.99201e-16 
10.1128 127.465 0.0763754 -2.62327 8.59313e-14 2.27596e-15 0.658208 123.742 0.132501 
0.164573 -3.53051e-14 -1.96024e-14 -7.22602 118.936 0.123175 4.13261 1.04028e-13 2.16771e-14 
-12.6801 113.253 0.0882946 8.51719 -7.29417e-14 -1.27676e-14 -12.6106 110.593 0.066328 
-6.16905 2.65343e-14 1.1241e-14 -8.09848 115.401 0.0982035 -1.9651 -1.93179e-14 -6.245e-15 
-1.08471 119.297 0.124785 2.00472 -1.18572e-13 9.2773e-15 7.81278 122.002 0.0994444 
4.87963 1.57652e-13 1.84297e-14 17.2097 123.545 0.0114644 5.91083 -1.93623e-13 1.36557e-14 
25.1624 124.215 -0.111302 4.82426 1.82632e-14 2.59792e-14 29.7582 124.422 -0.202634 
2.04 -1.65146e-14 2.14273e-14 29.8077 124.457 -0.20277 -1.40179 -5.16809e-14 3.9968e-15 
25.2998 124.323 -0.111512 -4.2095 8.42659e-14 -1.22125e-14 17.4077 123.733 0.0115459 
-5.33299 2.33702e-13 4.00235e-14 8.0411 122.279 0.0999792 -4.33879 -5.55112e-16 3.41394e-14 
-0.84729 119.661 0.125643 -1.49157 -1.4222e-13 9.65894e-15 -7.85928 115.847 0.0991798 
2.46213 -3.79696e-14 -1.05471e-15 -12.3661 111.11 0.0667011 6.65795 -1.55487e-13 -3.01981e-14 
-11.8386 108.307 0.0492217 -4.72731 6.13953e-14 2.51743e-14 -8.178 112.363 0.0731361 
-0.853344 -1.27676e-15 -2.29261e-14 -2.07872 115.535 0.108837 2.94414 4.27436e-14 -3.28435e-14 
6.05229 117.485 0.105547 5.78049 -2.05391e-14 -5.63438e-15 14.9913 118.236 0.0496729 
6.77869 3.18079e-14 -3.7581e-14 22.7948 118.186 -0.0409225 5.50351 9.14824e-14 2.30926e-14 
27.3945 117.947 -0.112119 2.3146 -2.09638e-13 -4.4631e-14 27.441 117.983 -0.112145 
-1.63299 1.20876e-13 6.77236e-15 22.9239 118.297 -0.0408783 -4.84405 1.98175e-14 6.43929e-15 
15.1782 118.43 0.0499909 -6.15364 -1.2268e-13 -1.94289e-15 6.27077 117.77 0.106176 
-5.18936 1.82243e-13 -9.21485e-15 -1.84522 115.911 0.109634 -2.37835 2.53131e-14 -2.13128e-14 
-7.93305 112.824 0.0740036 1.40354 2.13163e-14 1.76387e-14 -11.577 108.842 0.0492571 
5.26766 5.15699e-14 1.8513e-14 -10.8167 106.055 0.0368801 -3.62341 -1.69448e-13 -6.36435e-14 
-7.8974 109.496 0.0506884 -0.149158 3.00315e-14 2.87548e-14 -2.68994 112.122 0.0898313 
3.3755 -6.85008e-14 -1.9186e-14 4.5775 113.558 0.101251 6.09471 8.42659e-14 2.52298e-14 
12.8612 113.799 0.0709222 7.07157 -4.71845e-14 -1.11577e-14 20.2943 113.293 0.00847115 
5.75479 -1.04639e-13 -2.32592e-14 24.7528 112.771 -0.0441067 2.43085 1.44912e-13 2.36478e-14 
24.7963 112.809 -0.0440743 -1.70339 9.4702e-14 -4.44089e-15 20.4154 113.41 0.00863211 
-5.04764 -1.12743e-13 -5.44009e-15 13.0382 114.004 0.0712957 -6.39572 1.65978e-13 2.88658e-15 
4.78858 113.856 0.101803 -5.44959 -2.28095e-13 1.02696e-15 -2.45694 112.514 0.0904403 
-2.75376 -1.83187e-13 3.26475e-15 -7.64287 109.976 0.0513926 0.755155 2.29761e-13 5.80092e-15 
-10.5342 106.615 0.036532 4.21728 2.5091e-14 1.27676e-15 -9.69126 103.932 0.0285875 
-2.76605 1.2676e-13 -6.66134e-16 -7.39818 106.859 0.0323649 0.2876 1.17129e-13 2.66176e-14 
-3.01812 109.063 0.0712597 3.48389 -1.25677e-13 -1.44711e-14 3.36277 110.149 0.0913727 
6.02845 1.77636e-14 1.35864e-14 10.881 110.083 0.0801306 6.97819 5.10147e-14 1.31561e-14 
17.7973 109.315 0.0409155 5.70993 2.66065e-13 3.90799e-14 22.0118 108.633 0.00454036 
2.43628 -6.79456e-14 1.03251e-14 22.0524 108.673 0.00458781 -1.65927 -2.41696e-13 4.38538e-15 
17.9113 109.441 0.0410791 -4.95124 1.26843e-13 -2.60902e-15 11.0498 110.301 0.0804154 
-6.24767 -1.0314e-13 3.38618e-15 3.56903 110.463 0.0917154 -5.32581 1.68754e-13 2.43278e-14 
-2.78247 109.475 0.0715826 -2.8034 7.21645e-14 2.35701e-14 -7.13076 107.363 0.0328577 
0.376151 4.20497e-14 -1.25733e-14 -9.38458 104.521 0.0278236 3.41472 2.498e-15 -5.68989e-16 
-8.55637 101.986 0.0227996 -2.0906 -4.06619e-15 -8.36831e-15 -6.77919 104.478 0.0187604 
0.55281 -2.62901e-13 -2.39184e-14 -3.1414 106.347 0.0556094 3.39931 1.43496e-14 5.48086e-15 
2.3782 107.195 0.0798974 5.73292 1.92069e-14 1.46272e-14 9.08491 106.962 0.0816943 
6.64307 9.40081e-14 4.38538e-15 15.3979 106.073 0.0602324 5.47333 2.77833e-14 2.25375e-14 
19.301 105.321 0.0369509 2.36918 -2.79915e-13 -3.14193e-14 19.3391 105.365 0.0369762 
-1.53816 1.97731e-13 4.4964e-15 15.5057 106.208 0.0603023 -4.65871 -4.90163e-14 5.21805e-15 
9.24722 107.194 0.0817691 -5.85383 -3.56104e-14 -1.64313e-14 2.58197 107.528 0.0799135 
-4.96942 4.57689e-14 -8.42382e-15 -2.90052 106.781 0.0555324 -2.65769 8.79019e-14 -1.13386e-15 
-6.49628 105.009 0.0189318 0.170076 7.00828e-14 -9.54792e-15 -8.2226 102.607 0.0215655 
2.79449 -3.15165e-13 -7.11931e-15 -7.47106 100.234 0.0174737 -1.55195 6.82787e-15 -3.21687e-14 
-6.11242 102.352 0.00396697 0.709548 5.20972e-14 3.38618e-14 -3.12604 103.946 0.0369679 
3.20921 4.63241e-14 -1.22038e-14 1.58736 104.633 0.0627338 5.31557 2.38976e-14 -2.94417e-14 
7.48346 104.33 0.0745946 6.17499 -7.63278e-14 -1.19627e-14 13.1548 103.42 0.0687112 
5.12722 -9.5618e-14 6.21725e-15 16.71 102.667 0.0576683 2.2604 9.76511e-14 -3.0087e-14 
16.746 102.714 0.0576496 -1.37047 -6.40599e-14 3.58047e-15 13.2573 103.565 0.0686342 
-4.25207 -1.29341e-13 -1.27953e-14 7.64087 104.576 0.0744092 -5.32302 1.16185e-13 2.83662e-14 
1.79061 104.985 0.0624219 -4.48806 -1.92624e-14 -4.51028e-15 -2.87785 104.404 0.036558 
-2.40438 3.04756e-14 2.534e-15 -5.81201 102.91 0.00395877 0.0733214 -9.68947e-14 1.74721e-14 
-7.10784 100.887 0.0158456 2.31048 2.1981e-13 2.08722e-14 -6.44894 98.6892 0.0342217 
-1.11069 -4.34097e-14 2.78527e-14 -5.40476 100.496 0.0352297 0.801226 -2.3051e-14 9.13852e-15 
-2.96408 101.866 0.0780644 2.96844 -1.01086e-13 2.30475e-14 1.02076 102.439 0.104949 
4.84675 9.04832e-15 -1.31006e-14 6.12229 102.121 0.105165 5.65236 -4.58522e-14 2.12608e-14 
11.1111 101.247 0.0776848 4.73696 1.3059e-14 -3.83304e-14 14.2709 100.528 0.0486023 
2.13592 3.95101e-14 1.50435e-14 14.3049 100.578 0.0484064 -1.1822 -8.30377e-14 -2.77556e-15 
11.2088 101.4 0.0771049 -3.79679 2.34562e-13 1.50158e-14 6.27549 102.381 0.104172 
-4.73391 -6.30052e-14 1.68476e-14 1.22407 102.809 0.10345 -3.95245 -2.1827e-13 -1.1921e-14 
-2.70859 102.345 0.0758908 -2.09862 1.48104e-13 1.83083e-14 -5.08813 101.081 0.0327789 
0.0424066 1.62287e-13 8.20177e-15 -6.05854 99.375 0.0291418 1.92325 -2.26416e-13 -4.94951e-14 
11.587 49.4274 -0.124574 28.9047 -9.54792e-14 2.88658e-14 -0.0276753 30.585 -0.179859 
18.564 6.67244e-14 2.17604e-14 -15.0937 16.4886 -0.329493 8.67662 -7.16371e-14 1.33227e-15 
-32.0458 7.2656 -0.572285 0.980864 -4.24105e-14 1.11022e-14 -48.4314 2.23613 -0.832966 
-3.28955 -8.37108e-14 -2.5091e-14 -61.4631 0.0962723 -1.04486 -3.87591 -1.58984e-13 6.66134e-16 
-68.6958 -0.534096 -1.16188 -1.64341 8.39329e-14 -3.61378e-14 -68.6958 -0.534096 -1.16188 
1.64341 -3.37508e-14 -1.68754e-14 -61.4631 0.0962723 -1.04486 3.87591 -1.51434e-13 1.62093e-14 
-48.4314 2.23613 -0.832966 3.28955 -4.52971e-14 1.5099e-14 -32.0458 7.2656 -0.572285 
-0.980864 1.44273e-13 1.33227e-15 -15.0937 16.4886 -0.329493 -8.67662 -1.72085e-14 -3.55271e-15 
-0.0276751 30.585 -0.179859 -18.564 -4.77396e-15 4.44089e-16 11.587 49.4274 -0.124574 
-28.9047 1.0103e-13 3.55271e-15 -2.90281 67.9979 -0.275907 29.5994 -3.06422e-14 -1.77636e-15 
-9.10446 48.3325 -0.142522 25.2924 -5.68434e-14 -3.9968e-15 -17.2923 30.9166 -0.0330031 
19.3445 -1.95011e-13 -2.53131e-14 -26.9982 17.0737 0.0640789 12.953 1.52212e-13 -6.21725e-15 
-36.9566 7.33334 0.139504 7.38381 -2.28706e-14 -9.10383e-15 -45.2713 1.4562 0.193338 
3.4068 9.57012e-14 2.66454e-15 -50.0302 -1.21696 0.222375 0.932328 -9.32587e-14 2.91434e-14 
-50.0302 -1.21696 0.222375 -0.932328 -8.88178e-14 3.77476e-15 -45.2713 1.4562 0.193338 
-3.4068 4.44089e-14 2.19824e-14 -36.9566 7.33334 0.139504 -7.38381 -3.73923e-13 -4.44089e-14 
-26.9982 17.0737 0.0640789 -12.953 1.0647e-13 6.66134e-15 -17.2923 30.9166 -0.0330031 
-19.3445 -1.89321e-13 9.76996e-15 -9.10446 48.3325 -0.142522 -25.2924 2.24265e-14 1.77636e-15 
-2.90281 67.9979 -0.275907 -29.5994 2.18936e-13 -7.54952e-15 -11.5108 80.7345 -0.371916 
28.4525 5.24025e-14 1.28786e-14 -14.7012 61.8182 -0.266375 28.2674 -1.12965e-13 -6.21725e-15 
-18.5392 43.1847 -0.123179 25.5137 -7.9825e-14 -2.84217e-14 -23.2145 26.6595 0.064836 
20.7062 -2.3781e-13 -2.9754e-14 -28.3228 13.6801 0.271928 14.7864 3.21965e-14 1.75415e-14 
-32.8481 4.97943 0.453016 8.67406 -1.98952e-13 -1.66533e-14 -35.5406 0.682545 0.559891 
2.83335 2.39808e-14 -7.32747e-15 -35.5406 0.682545 0.559891 -2.83335 -3.90799e-14 -1.40998e-14 
-32.8481 4.97943 0.453016 -8.67406 -3.95239e-14 -7.99361e-15 -28.3228 13.6801 0.271928 
-14.7864 2.03837e-13 2.22045e-15 -23.2145 26.6595 0.064836 -20.7062 -8.63754e-14 -4.88498e-15 
-18.5392 43.1847 -0.123179 -25.5137 8.65141e-14 4.44089e-15 -14.7012 61.8182 -0.266375 
-28.2674 -2.44416e-13 2.37588e-14 -11.5108 80.7345 -0.371916 -28.4525 -7.74936e-14 -2.22045e-14 
-16.1061 89.1642 -0.378468 26.2913 2.89768e-14 -2.22045e-15 -17.7009 71.8932 -0.341005 
28.7631 7.93809e-14 -8.21565e-15 -18.9182 53.4222 -0.242398 28.4489 -9.83658e-14 2.44249e-15 
-20.2309 35.7067 -0.0683757 25.2206 1.31006e-13 2.30926e-14 -21.8176 20.7389 0.158055 
19.5468 8.32667e-14 1.19904e-14 -23.411 10.0583 0.377207 12.2557 -9.32587e-14 -1.08802e-14 
-24.4403 4.54676 0.513566 4.16004 -1.34115e-13 5.21805e-15 -24.4403 4.54676 0.513566 
-4.16004 -8.06022e-14 1.37668e-14 -23.411 10.0583 0.377207 -12.2557 1.13243e-14 2.22045e-15 
-21.8176 20.7389 0.158055 -19.5468 9.19265e-14 1.02141e-14 -20.2309 35.7067 -0.0683757 
-25.2206 -2.20823e-13 -2.59792e-14 -18.9182 53.4222 -0.242398 -28.4489 -3.48888e-14 -5.77316e-15 
-17.7009 71.8932 -0.341005 -28.7631 1.24289e-13 1.77636e-15 -16.1061 89.1642 -0.378468 
-26.2913 -3.11973e-14 -2.44249e-15 -18.0432 94.4891 -0.332704 23.6454 -2.03393e-13 3.35287e-14 
-18.8512 79.2688 -0.352801 27.6884 3.56382e-14 2.22045e-14 -18.5892 61.83 -0.310336 
29.1244 1.99188e-13 1.82077e-14 -17.7717 44.012 -0.184565 27.3087 -2.10609e-13 -1.35447e-14 
-16.9181 28.0796 0.012315 22.2196 8.79297e-14 1.04361e-14 -16.3423 16.1679 0.222323 
14.4554 2.41362e-13 1.73195e-14 -16.0901 9.82527 0.359836 5.00687 -2.59792e-14 1.04916e-14 
-16.0901 9.82527 0.359836 -5.00687 -2.17826e-13 -2.498e-14 -16.3423 16.1679 0.222323 
-14.4554 -2.93765e-13 -1.4877e-14 -16.9181 28.0796 0.012315 -22.2196 -3.08642e-14 2.22045e-15 
-17.7717 44.012 -0.184565 -27.3087 -6.19504e-14 -2.75335e-14 -18.5892 61.83 -0.310336 
-29.1244 1.58901e-13 1.55431e-14 -18.8512 79.2688 -0.352801 -27.6884 -1.73361e-13 -1.75415e-14 
-18.0432 94.4891 -0.332704 -23.6454 -2.73115e-14 4.55191e-15 -18.2811 97.625 -0.2672 
20.8507 5.29576e-14 6.55032e-15 -18.7461 84.5504 -0.325 25.6897 -1.01086e-13 3.77476e-15 
-17.7329 68.6366 -0.328873 28.2884 -5.09176e-14 -3.13083e-14 -15.6683 51.4706 -0.255061 
27.6412 7.86038e-14 6.66134e-15 -13.2279 35.3735 -0.104187 23.2926 1.20348e-13 1.11022e-16 
-11.1354 22.8686 0.0752871 15.5539 1.36779e-13 -1.52101e-14 -9.94724 16.0391 0.199156 
5.4635 7.59393e-14 2.08999e-14 -9.94724 16.0391 0.199156 -5.4635 1.44551e-13 -3.16414e-15 
-11.1354 22.8686 0.0752871 -15.5539 1.11022e-13 1.77636e-14 -13.2279 35.3735 -0.104187 
-23.2926 -1.80189e-13 -7.88258e-15 -15.6683 51.4706 -0.255061 -27.6412 1.69031e-13 2.68674e-14 
-17.7329 68.6366 -0.328873 -28.2884 6.46427e-14 -8.21565e-15 -18.7461 84.5504 -0.325 
-25.6897 2.59681e-13 1.62093e-14 -18.2811 97.625 -0.2672 -20.8507 -7.87148e-14 -1.05471e-14 
-17.488 99.2566 -0.200724 18.1155 5.67324e-14 1.44329e-15 -17.8371 88.2387 -0.278823 
23.2174 -5.27078e-14 2.10942e-15 -16.5187 74.0773 -0.314804 26.5062 -1.38028e-13 -2.22045e-15 
-13.8186 58.0498 -0.28569 26.7614 1.47438e-13 6.55032e-15 -10.4423 42.3832 -0.182385 
23.1874 -1.88738e-14 1.59872e-14 -7.36985 29.8034 -0.0411181 15.8058 -3.95795e-13 -4.66294e-14 
-5.54535 22.7828 0.0622785 5.61364 5.15143e-14 -8.32667e-16 -5.54535 22.7828 0.0622785 
-5.61364 -2.44249e-15 3.88301e-14 -7.36985 29.8034 -0.0411181 -15.8058 4.61853e-14 -2.14273e-14 
-10.4423 42.3832 -0.182385 -23.1874 5.54001e-14 1.62093e-14 -13.8186 58.0498 -0.28569 
-26.7614 1.25511e-13 -2.77556e-15 -16.5187 74.0773 -0.314804 -26.5062 -1.48492e-14 4.44089e-16 
-17.8371 88.2387 -0.278823 -23.2174 -1.65562e-13 3.33067e-15 -17.488 99.2566 -0.200724 
-18.1155 8.88734e-14 9.99201e-16 -16.1192 99.8851 -0.142168 15.5604 4.76841e-14 -1.40443e-14 
-16.4558 90.737 -0.227876 20.5762 -3.1114e-14 -2.78666e-14 -15.0905 78.3768 -0.282932 
24.1936 2.43371e-13 -1.11022e-15 -12.1619 63.7675 -0.288165 25.0983 1.4419e-13 -1.03251e-14 
-8.32785 48.9477 -0.227524 22.2574 -1.27232e-13 -2.83107e-14 -4.69982 36.6944 -0.124965 
15.4356 -2.04059e-13 -1.70974e-14 -2.48726 29.7243 -0.0442718 5.53302 1.37668e-14 3.19189e-15 
-2.48726 29.7243 -0.0442718 -5.53302 -2.1394e-13 -3.46945e-15 -4.69982 36.6944 -0.124965 
-15.4356 1.07025e-13 3.2585e-14 -8.32785 48.9477 -0.227524 -22.2574 1.61537e-14 -4.66294e-15 
-12.1619 63.7675 -0.288165 -25.0983 3.41061e-13 2.08722e-14 -15.0905 78.3768 -0.282932 
-24.1936 -2.90882e-13 1.09912e-14 -16.4558 90.737 -0.227876 -20.5762 1.26177e-13 2.44249e-15 
-16.1192 99.8851 -0.142168 -15.5604 2.05003e-13 7.27196e-15 -14.4757 99.8698 -0.0947047 
13.2479 -7.55229e-14 8.88178e-15 -14.8365 92.3631 -0.179721 17.9637 -3.06005e-14 -3.39173e-14 
-13.5623 81.7395 -0.243578 21.6469 -1.67547e-13 -1.9984e-15 -10.6625 68.6747 -0.272849 
22.9803 6.87506e-14 1.11022e-16 -6.7075 54.9691 -0.24736 20.7897 -8.26006e-14 6.38378e-15 
-2.8455 43.3346 -0.180187 14.6338 1.0314e-13 2.65343e-14 -0.441781 36.6025 -0.12167 
5.28772 -2.04503e-13 -3.46945e-14 -0.441781 36.6025 -0.12167 -5.28772 1.81188e-13 2.54935e-14 
-2.8455 43.3346 -0.180187 -14.6338 -1.55764e-13 -5.88418e-15 -6.7075 54.9691 -0.24736 
-20.7897 4.9738e-14 1.62648e-14 -10.6625 68.6747 -0.272849 -22.9803 -1.29369e-13 -3.4972e-14 
-13.5623 81.7395 -0.243578 -21.6469 5.67602e-15 -1.26565e-14 -14.8365 92.3631 -0.179721 
-17.9637 -6.49619e-14 -8.43769e-15 -14.4757 99.8698 -0.0947047 -13.2479 -1.36002e-15 2.9976e-15 
-12.749 99.4622 -0.0584649 11.2019 -3.611e-14 -1.44607e-14 -13.1378 93.362 -0.137965 
15.5003 2.06113e-13 -8.32667e-16 -12.018 84.3448 -0.203286 19.0691 -2.70407e-13 -8.32667e-16 
-9.2989 72.842 -0.247594 20.6503 1.54043e-14 -2.17604e-14 -5.44842 60.3988 -0.249079 
19.0099 -6.58362e-14 7.99361e-15 -1.58527 49.5797 -0.212026 13.557 -2.62346e-13 -2.70339e-14 
0.860472 43.222 -0.173519 4.93325 -2.05391e-14 3.42226e-14 0.860472 43.222 -0.173519 
-4.93325 1.56097e-13 -1.79856e-14 -1.58527 49.5797 -0.212026 -13.557 -9.65339e-14 -1.07692e-14 
-5.44842 60.3988 -0.249079 -19.0099 2.39309e-13 -2.77556e-15 -9.2989 72.842 -0.247594 
-20.6503 -1.53766e-14 2.68119e-14 -12.018 84.3448 -0.203286 -19.0691 -6.44311e-14 -1.12688e-14 
-13.1378 93.362 -0.137965 -15.5003 2.88727e-13 3.94129e-15 -12.749 99.4622 -0.0584649 
-11.2019 3.6221e-14 6.46705e-15 -11.0543 98.8344 -0.0319907 9.42161 2.8165e-13 1.64035e-14 
-11.4604 93.9181 -0.103735 13.2519 -1.39472e-14 -1.47105e-14 -10.515 86.3449 -0.165838 
16.5919 1.0626e-14 9.21485e-15 -8.05642 76.3491 -0.217949 18.281 1.68837e-13 -2.66454e-15 
-4.45164 65.2255 -0.238603 17.0888 3.80806e-14 -1.43219e-14 -0.747129 55.3388 -0.225655 
12.3291 8.471e-14 3.28071e-14 1.63313 49.446 -0.204138 4.5146 -3.09197e-14 -2.60486e-14 
1.63313 49.446 -0.204138 -4.5146 -1.44329e-14 -1.66533e-15 -0.747129 55.3388 -0.225655 
-12.3291 -1.88738e-14 9.4369e-15 -4.45164 65.2255 -0.238603 -17.0888 -1.18211e-13 -6.71685e-15 
-8.05642 76.3491 -0.217949 -18.281 1.5983e-13 8.32667e-15 -10.515 86.3449 -0.165838 
-16.5919 3.97859e-15 9.4369e-15 -11.4604 93.9181 -0.103735 -13.2519 8.31418e-14 -3.17524e-14 
-11.0543 98.8344 -0.0319907 -9.42161 5.14866e-15 2.83107e-15 -9.45554 98.1005 -0.0135372 
7.89078 -1.77219e-13 -3.92464e-14 -9.8636 94.1667 -0.0775582 11.2464 -7.15331e-14 1.91236e-14 
-9.08771 87.864 -0.134143 14.2942 1.57614e-13 5.35683e-15 -6.9226 79.2758 -0.188619 
15.9897 1.13382e-14 1.46549e-14 -3.64354 69.4641 -0.221174 15.1516 -2.1344e-14 9.63118e-15 
-0.20024 60.5637 -0.225746 11.045 7.12208e-14 -1.4988e-15 2.04132 55.1887 -0.217473 
4.06712 -7.9825e-14 1.67644e-14 2.04132 55.1887 -0.217473 -4.06712 1.08302e-13 -6.8695e-15 
-0.20024 60.5637 -0.225746 -11.045 -7.51066e-14 1.4988e-14 -3.64354 69.4641 -0.221174 
-15.1516 -1.67866e-13 -4.60743e-15 -6.9226 79.2758 -0.188619 -15.9897 -5.71626e-14 -9.60343e-15 
-9.08771 87.864 -0.134143 -14.2942 -4.10999e-14 1.80411e-15 -9.8636 94.1667 -0.0775582 
-11.2464 6.2339e-14 7.52176e-15 -9.45554 98.1005 -0.0135372 -7.89078 -3.1003e-14 -4.2466e-15 
-7.98148 97.3415 0.00565707 6.58315 -1.8234e-13 -4.48253e-15 -8.37156 94.215 -0.0489444 
9.48436 2.31634e-13 4.95437e-14 -7.74543 89.0121 -0.0990617 12.2144 3.85456e-14 -4.32154e-14 
-5.87723 81.706 -0.153839 13.8501 -1.03459e-13 1.32949e-14 -2.96443 73.1511 -0.195809 
13.2869 -5.3374e-14 -1.57097e-14 0.153299 65.2403 -0.216086 9.77719 1.96121e-13 1.74583e-14 
2.20631 60.4031 -0.220406 3.61871 -1.10523e-13 1.46966e-14 2.20631 60.4031 -0.220406 
-3.61871 1.51823e-13 -1.5779e-14 0.153299 65.2403 -0.216086 -9.77719 -5.40679e-14 -1.03528e-14 
-2.96443 73.1511 -0.195809 -13.2869 9.71168e-14 2.66176e-14 -5.87723 81.706 -0.153839 
-13.8501 -1.12632e-13 -9.35363e-15 -7.74543 89.0121 -0.0990617 -12.2144 5.79545e-14 9.02056e-15 
-8.37156 94.215 -0.0489444 -9.48436 4.04052e-14 6.30052e-15 -7.98148 97.3415 0.00565707 
-6.58315 7.59254e-14 9.92262e-15 -6.68239 96.5572 -0.0352111 5.47204 1.74014e-13 7.54952e-15 
-7.04416 94.0651 -0.100089 7.95039 -2.09555e-15 -1.91513e-15 -6.54006 89.7892 -0.152541 
10.3599 -6.02157e-14 2.49939e-14 -4.94449 83.6316 -0.197408 11.8985 -7.19078e-14 4.35763e-15 
-2.39293 76.2783 -0.213787 11.5523 1.01266e-13 3.33067e-15 0.385986 69.3773 -0.198911 
8.58118 5.83145e-14 -5.41234e-16 2.23596 65.1181 -0.176685 3.19261 -1.62453e-13 -4.41314e-15 
2.23596 65.1181 -0.176685 -3.19261 -8.41827e-14 -6.83481e-15 0.385986 69.3773 -0.198911 
-8.58118 2.71699e-13 1.33782e-14 -2.39293 76.2783 -0.213787 -11.5523 5.74402e-14 -2.52576e-15 
-4.94449 83.6316 -0.197408 -11.8985 -1.95136e-13 7.02216e-15 -6.54006 89.7892 -0.152541 
-10.3599 -6.00492e-14 7.46625e-15 -7.04416 94.0651 -0.100089 -7.95039 6.10484e-14 -8.9373e-15 
-6.68239 96.5572 -0.0352111 -5.47204 -3.42643e-14 -1.55986e-14 9.68195 113.226 -1.4152 
17.4289 -3.11029e-13 9.46465e-15 19.7201 103.406 -0.982225 20.2144 -4.43034e-13 -1.15297e-13 
22.571 98.183 -0.0225901 18.3207 1.65978e-14 2.66454e-14 23.2112 94.5583 -0.00113357 
16.577 7.77156e-16 2.41612e-14 23.48 92.1616 0.0418021 14.985 7.13041e-14 -4.08978e-14 
23.5832 90.4457 0.0454264 13.5784 -7.29694e-14 -6.55032e-14 23.6312 89.1687 0.0459614 
12.3187 2.09069e-14 -3.32373e-14 23.6541 88.1803 0.0439027 11.178 -2.3128e-13 -3.41047e-14 
23.6656 87.3915 0.0414799 10.1338 -1.16157e-14 6.37199e-14 23.6715 86.7455 0.0390489 
9.16909 4.45276e-13 2.27041e-14 23.6742 86.2055 0.0368041 8.27119 -1.67359e-13 -6.16122e-14 
23.6751 85.7464 0.0347803 7.43012 6.9604e-14 -2.20501e-14 23.675 85.3514 0.0329763 
6.63795 -4.29705e-13 3.76661e-14 23.6741 85.009 0.0313736 5.88821 -3.08989e-13 -4.71238e-14 
23.6727 84.7112 0.0299681 5.17543 -4.87155e-13 -4.84413e-14 6.13705 112.785 0.0418946 
11.4324 -1.00475e-13 1.64077e-13 10.0934 103.876 -0.668798 16.1169 1.83797e-13 4.91968e-14 
15.1081 99.0523 -0.48282 16.6165 4.83669e-13 3.29944e-15 17.7329 95.7283 -0.199776 
15.6662 -7.73409e-14 -3.85872e-14 19.1423 93.3191 -0.114363 14.4644 -7.94503e-14 -4.73302e-14 
19.9959 91.5456 -0.0655038 13.2486 -2.03518e-13 4.47767e-14 20.5526 90.1939 -0.0422574 
12.0948 2.09589e-13 5.12264e-14 20.9422 89.134 -0.0291155 11.0169 -7.31915e-14 -4.56753e-14 
21.2294 88.2804 -0.0214561 10.0125 3.00926e-13 -8.63545e-15 21.4501 87.5771 -0.0166653 
9.07458 -4.93328e-13 -3.85247e-14 21.6251 86.9867 -0.0135252 8.19558 5.12798e-13 1.32967e-14 
21.7673 86.4833 -0.0113753 7.36842 -1.59532e-13 -2.01211e-14 21.8849 86.0492 -0.00985195 
6.58689 1.77837e-13 -3.80425e-15 21.9834 85.6723 -0.00874847 5.84554 1.14214e-14 7.15573e-16 
22.0665 85.3441 -0.00790931 5.1396 7.324e-14 2.70122e-14 3.47024 105.53 0.6564 
6.81623 1.72085e-14 5.29299e-14 6.19971 103.079 -0.119427 11.6581 4.20497e-14 8.39606e-16 
9.78944 99.3493 -0.292057 13.61 -3.45363e-13 -1.63654e-14 12.9109 96.4877 -0.225918 
13.8143 -3.29847e-13 -7.38732e-14 15.0371 94.2613 -0.13733 13.2569 1.14464e-13 5.12333e-14 
16.4797 92.5259 -0.087193 12.4239 2.8369e-13 4.13038e-15 17.4933 91.1577 -0.0559269 
11.5035 -1.04527e-13 -1.24813e-14 18.2328 90.0591 -0.0372981 10.5753 -5.14797e-14 -2.09451e-14 
18.7922 89.1602 -0.0256896 9.6713 -1.68338e-14 -5.19047e-14 19.2285 88.4113 -0.0182825 
8.80357 5.01259e-13 5.43732e-14 19.5775 87.7775 -0.0134117 7.97546 -5.72806e-14 4.54671e-14 
19.8625 87.2341 -0.0101334 7.1865 2.68764e-13 -1.09929e-14 20.0989 86.7635 -0.00788536 
6.43461 2.58151e-13 -9.61731e-15 20.2972 86.3536 -0.00633259 5.717 2.64972e-13 2.40892e-14 
20.4647 85.9958 -0.00521803 5.03068 -1.2924e-13 1.30772e-14 1.98934 99.7352 0.366354 
4.41367 -1.42747e-13 2.83107e-15 3.97597 100.311 0.140387 8.18973 -2.8455e-13 -6.18255e-14 
6.62309 98.6713 -0.100468 10.5541 -5.4734e-14 -2.35784e-14 9.31025 96.6238 -0.149625 
11.5174 3.85858e-13 5.35995e-14 11.5683 94.785 -0.128407 11.5978 -2.14648e-13 -8.78533e-14 
13.3034 93.2264 -0.0944994 11.21 3.03785e-14 -2.70933e-14 14.6195 91.9285 -0.06806 
10.5951 2.88887e-13 1.7234e-14 15.6285 90.8477 -0.048979 9.87775 -2.04621e-13 -3.36441e-14 
16.4162 89.9404 -0.0358112 9.12253 -2.43555e-14 4.23325e-14 17.0433 89.1707 -0.0267158 
8.36248 1.60025e-13 3.13031e-15 17.5518 88.5106 -0.0203937 7.61442 9.9018e-14 -2.52715e-14 
17.9705 87.939 -0.0159535 6.88662 -7.39686e-14 1.25507e-15 18.3198 87.4403 -0.0128069 
6.18273 -1.97307e-13 -2.44769e-14 18.6137 87.0033 -0.0105742 5.50391 -1.05509e-13 -1.07726e-15 
18.8625 86.6201 -0.00893995 4.84985 2.07244e-13 -1.56177e-14 1.24497 95.8104 0.254331 
2.96689 -1.2379e-14 2.30232e-14 2.65096 97.4998 0.154377 5.82022 1.99882e-13 8.97893e-15 
4.62281 97.2832 0.0139125 7.99754 5.84255e-14 3.30153e-14 6.80844 96.1982 -0.0667 
9.2698 -7.78266e-14 4.82045e-14 8.86691 94.8863 -0.0867852 9.7808 4.76119e-13 5.56499e-15 
10.6305 93.6182 -0.0794601 9.78025 -1.02168e-13 1.45179e-14 12.0747 92.4752 -0.0647481 
9.47034 -3.06734e-13 -9.36803e-14 13.2426 91.4721 -0.0507587 8.98425 1.57305e-14 1.16448e-14 
14.1889 90.5987 -0.0393512 8.40295 -2.46726e-13 -1.72113e-14 14.9621 89.8379 -0.030619 
7.77465 -1.65805e-13 -1.67017e-14 15.6005 89.1726 -0.0240928 7.12783 2.4445e-13 9.5193e-15 
16.1331 88.5878 -0.0192676 6.47923 -3.34489e-13 -6.69126e-15 16.5813 88.0718 -0.0157177 
5.83866 2.18825e-13 2.42324e-14 16.9611 87.6156 -0.0131307 5.21165 -5.17256e-13 -4.44011e-14 
17.2841 87.2126 -0.0111984 4.60113 1.64844e-13 2.87886e-14 0.824069 93.0901 0.167132 
2.05109 -5.56499e-15 1.51962e-14 1.84062 95.158 0.137759 4.17463 -1.20362e-13 -3.88301e-14 
3.31848 95.7447 0.0523935 6.01339 -3.42365e-14 3.58047e-14 5.06138 95.4169 -0.0117044 
7.3048 1.17115e-13 -1.10953e-14 6.83293 94.6459 -0.0459347 8.03107 -4.48669e-14 -3.11487e-14 
8.47291 93.7235 -0.0556106 8.29945 -8.06438e-14 -5.18335e-15 9.90931 92.7939 -0.0530315 
8.24262 -2.04156e-13 3.30794e-14 11.1326 91.9184 -0.0459898 7.97097 5.29923e-14 -1.64504e-14 
12.163 91.1181 -0.0383007 7.56394 7.12971e-14 1.02618e-14 13.0297 90.3961 -0.0314015 
7.07521 -4.96825e-15 4.96955e-15 13.7608 89.748 -0.0257018 6.54011 1.08996e-13 2.71541e-14 
14.3807 89.1668 -0.0211857 5.9817 2.23987e-14 -7.50197e-15 14.9088 88.646 -0.0176958 
5.41494 -8.72913e-14 -1.50216e-15 15.3603 88.1796 -0.0150637 4.84948 1.53974e-14 -1.89296e-14 
15.747 87.7635 -0.0130426 4.29141 -1.06495e-13 1.43115e-16 0.57325 91.1855 0.116242 
1.43175 -5.89057e-13 9.64506e-15 1.32098 93.3141 0.111368 3.00631 1.28404e-13 9.52016e-15 
2.44237 94.3216 0.0622546 4.49555 -5.94663e-15 -3.06283e-14 3.82504 94.5099 0.0163749 
5.67419 -3.95434e-13 5.13478e-14 5.30955 94.191 -0.016032 6.46243 1.80453e-13 -1.8735e-16 
6.76568 93.6079 -0.0327511 6.88367 -3.01321e-13 -3.64084e-14 8.11203 92.9144 -0.0381502 
7.00766 3.13131e-13 1.33747e-14 9.31295 92.1968 -0.037303 6.91112 2.44263e-13 2.29365e-14 
10.3631 91.4988 -0.0337168 6.65971 8.52235e-14 -4.81212e-15 11.2728 90.8408 -0.0293487 
6.30391 -6.73073e-14 4.19456e-15 12.0583 90.2302 -0.0251356 5.88049 -3.4743e-14 -2.65131e-14 
12.7364 89.6687 -0.0214635 5.41562 1.93429e-13 2.12838e-14 13.3224 89.1554 -0.0184393 
4.92766 -3.34455e-15 -2.05187e-14 13.8292 88.6883 -0.0160612 4.42944 -3.01495e-15 -2.32616e-15 
14.2672 88.2661 -0.0141721 3.92977 2.92325e-13 2.02723e-15 0.413068 89.8397 0.0826822 
0.99444 4.75009e-13 4.63241e-14 0.974302 91.8973 0.0886092 2.15389 -8.93868e-14 -3.94268e-14 
1.83517 93.1026 0.0595652 3.33227 -4.43819e-13 1.07692e-14 2.93345 93.6174 0.0287789 
4.34913 1.39874e-13 -3.05866e-14 4.16196 93.6386 0.00243255 5.11028 1.17177e-13 3.8386e-14 
5.42174 93.3484 -0.0149844 5.59579 1.83464e-14 2.29677e-14 6.6385 92.883 -0.0241627 
5.83171 -1.95496e-13 -3.02675e-14 7.76775 92.333 -0.0274648 5.86341 5.50948e-15 -2.89005e-14 
8.7896 91.7538 -0.0273049 5.73854 -2.52111e-13 1.98522e-14 9.70041 91.1769 -0.0254298 
5.49901 3.66991e-13 2.01471e-14 10.5054 90.6199 -0.0229187 5.17874 -1.95136e-13 -2.84911e-14 
11.2139 90.0916 -0.0203687 4.80397 -2.33195e-13 -1.1797e-14 11.8358 89.5968 -0.0180738 
4.39451 1.26617e-13 4.07573e-15 12.3806 89.1377 -0.0161734 3.96511 2.22083e-13 -8.17662e-15 
12.8565 88.716 -0.0145996 3.5266 -8.24965e-14 9.18926e-15 0.305461 88.893 0.0602054 
0.675194 -1.34476e-14 2.02893e-14 0.733609 90.824 0.070184 1.51787 7.84373e-14 1.80828e-14 
1.40156 92.1004 0.0528444 2.43351 1.52378e-13 -1.04777e-14 2.27665 92.8084 0.0325781 
3.28066 1.26246e-13 -1.92138e-14 3.2872 93.0696 0.0126814 3.9692 -1.95323e-13 -1.04361e-14 
4.36044 93.0131 -0.00273264 4.46017 1.29133e-13 3.27863e-14 5.43451 92.7491 -0.0128055 
4.75284 -2.57294e-14 -1.49603e-14 6.46553 92.3602 -0.018265 4.86869 -4.93772e-14 -3.86705e-14 
7.42736 91.9037 -0.0204369 4.83828 2.92794e-13 1.39385e-14 8.30783 91.417 -0.0205785 
4.69321 7.77434e-14 1.05992e-15 9.10404 90.9237 -0.019639 4.46201 4.18589e-14 1.22567e-14 
9.81846 90.4387 -0.0182502 4.16877 2.48065e-15 -3.60996e-15 10.4561 89.971 -0.0167934 
3.83306 1.00586e-13 -5.52726e-15 11.0225 89.527 -0.0154986 3.47037 -1.59456e-13 1.5812e-15 
11.5231 89.1113 -0.0143662 3.09273 1.54182e-13 -1.52439e-14 0.229789 88.2394 0.0444474 
0.436737 -2.63695e-13 -2.10942e-14 0.560371 90.0227 0.0557085 1.03505 2.8828e-13 -1.22194e-14 
1.08271 91.2983 0.0452465 1.73342 -2.68299e-13 -5.32907e-15 1.78187 92.1103 0.0321051 
2.42093 -1.21271e-13 -2.49661e-14 2.61019 92.5321 0.0176189 3.01773 1.01967e-13 1.47035e-14 
3.51528 92.6527 0.00504195 3.47867 -7.93809e-15 -3.8955e-14 4.44813 92.5559 -0.00438314 
3.78825 -3.20716e-14 -2.52229e-15 5.36978 92.3115 -0.0105433 3.95163 5.04319e-14 8.73607e-15 
6.25315 91.9726 -0.0140045 3.98562 -2.94723e-13 -2.70478e-14 7.0819 91.5776 -0.0155341 
3.91196 -5.01856e-14 -1.43739e-14 7.84792 91.1529 -0.0158423 3.75299 3.77219e-13 2.99708e-14 
8.54864 90.7168 -0.0154832 3.52945 -2.51289e-13 -1.53618e-14 9.18466 90.2822 -0.0148424 
3.25947 1.94227e-13 -3.46338e-15 9.75812 89.8583 -0.0141883 2.95835 4.55993e-13 3.44659e-14 
10.2716 89.4525 -0.0135608 2.63863 -1.41463e-13 -1.78265e-14 0.174413 87.8056 0.0330233 
0.256032 3.48964e-13 1.89987e-14 0.431395 89.4364 0.0442999 0.664361 -4.71068e-13 -2.20796e-14 
0.841499 90.6704 0.0380245 1.18488 1.45935e-13 -2.92127e-15 1.4005 91.5279 0.0296476 
1.72979 -3.5388e-13 -6.0299e-15 2.07708 92.0516 0.0193608 2.23054 1.09208e-13 -7.15747e-15 
2.83423 92.3007 0.00957646 2.64213 5.11015e-14 -1.30868e-14 3.63439 92.337 0.00147272 
2.94188 7.65256e-14 1.27884e-14 4.44501 92.2162 -0.00449661 3.12472 2.39846e-13 1.69864e-14 
5.24096 91.9842 -0.00844636 3.19741 1.05679e-14 7.37084e-15 6.00481 91.6767 -0.0107713 
3.17343 -4.60361e-14 1.15359e-14 6.72575 91.3207 -0.0119421 3.06928 5.6722e-14 1.75519e-14 
7.39786 90.9358 -0.0123895 2.90197 9.1066e-14 1.68832e-14 8.0185 90.5371 -0.0124541 
2.6876 -8.36206e-14 -1.39203e-14 8.58682 90.1361 -0.0124022 2.44069 -2.11636e-14 -3.40093e-15 
9.10286 89.7425 -0.0122878 2.17376 -1.62023e-15 -5.79528e-15 0.132377 87.5386 0.0244561 
0.118274 -1.94724e-13 -1.27676e-15 0.332257 89.02 0.0352078 0.378377 1.84205e-13 2.55768e-14 
0.653902 90.1902 0.0315652 0.754228 2.81331e-13 2.498e-14 1.09961 91.0556 0.0263973 
1.1754 -2.20709e-13 6.245e-17 1.64936 91.6388 0.019263 1.58368 1.92058e-13 1.60358e-14 
2.27759 91.9779 0.0119134 1.93709 -8.66494e-14 -8.17749e-15 2.95631 92.1168 0.00531642 
2.21026 -2.64139e-13 -1.11577e-14 3.65946 92.098 1.0444e-05 2.39222 1.14367e-13 -6.37337e-15 
4.36528 91.9594 -0.00388991 2.4829 -7.92873e-14 -7.76289e-15 5.05716 91.7321 -0.00653552 
2.48954 3.84623e-14 -8.62331e-15 5.72342 91.4414 -0.00820551 2.42362 -7.01869e-15 -2.11081e-14 
6.35637 91.1069 -0.00920827 2.29867 1.70215e-13 1.46428e-14 6.95118 90.7445 -0.00981996 
2.12868 -9.9816e-14 -5.13478e-16 7.50478 90.367 -0.0102828 1.9271 -3.72768e-13 -2.26121e-15 
8.01505 89.9859 -0.0106469 1.70621 -3.06158e-13 -3.28626e-14 0.0993555 87.3989 0.0178231 
0.013628 1.53689e-13 1.29272e-14 0.253696 88.7378 0.0278439 0.158351 -1.78715e-13 -1.93803e-14 
0.504006 89.8332 0.0259229 0.417315 3.73781e-14 2.05044e-14 0.856598 90.6827 0.0229463 
0.733128 1.39427e-13 1.38639e-14 1.2994 91.2958 0.0181557 1.05647 1.11414e-13 -9.41955e-15 
1.81537 91.6956 0.0128168 1.34937 -4.09284e-13 -6.83134e-15 2.38429 91.9116 0.00767507 
1.58631 5.00502e-14 1.01655e-15 2.98608 91.9753 0.00323698 1.75334 -9.1014e-14 -1.59595e-14 
3.60281 91.916 -0.000288142 1.84609 -1.92579e-13 -2.1181e-15 4.21982 91.7599 -0.0029102 
1.8673 1.12219e-13 1.75658e-14 4.82584 91.5291 -0.00477542 1.82461 -8.47239e-14 -6.53991e-15 
5.4126 91.2419 -0.00609284 1.7286 -1.14492e-15 -5.905e-15 5.97412 90.9139 -0.00707702 
1.59135 1.31905e-13 4.98039e-15 6.50584 90.5586 -0.00793939 1.42531 2.87517e-13 1.31579e-14 
7.00397 90.1885 -0.00871842 1.24247 -4.19942e-14 -2.42861e-16 0.0725619 87.3558 0.0125256 
-0.0646161 -2.06208e-13 1.55778e-14 0.189606 88.5611 0.021772 -0.008798 -1.80292e-13 -1.42386e-14 
0.381057 89.5775 0.0210261 0.156623 2.64311e-13 1.39472e-14 0.655746 90.3969 0.0195746 
0.38412 2.10103e-13 6.64052e-15 1.00729 91.02 0.0165287 0.631747 -2.81037e-13 -2.11636e-14 
1.42506 91.4588 0.0128099 0.865729 2.51944e-13 1.10745e-14 1.89507 91.7319 0.00897399 
1.0617 6.00492e-14 2.13128e-14 2.40246 91.8611 0.00545429 1.20459 1.86701e-13 -1.12098e-14 
2.93319 91.8683 0.0024814 1.2875 1.19935e-13 1.58554e-15 3.47505 91.774 0.000115906 
1.31024 -9.03444e-15 -1.23825e-14 4.01807 91.5967 -0.00170664 1.27763 -2.28657e-13 -1.53558e-14 
4.55431 91.3524 -0.00312598 1.198 9.57567e-15 1.15706e-15 5.07747 91.0557 -0.00430945 
1.08194 -1.05846e-13 -1.43635e-14 5.58221 90.7198 -0.00544292 0.941115 1.40929e-14 -1.93318e-14 
6.06364 90.3578 -0.00655438 0.78742 8.03003e-14 8.54785e-15 0.0501628 87.3847 0.00816731 
-0.121141 -9.3221e-14 8.59035e-15 0.13589 88.4663 0.0166739 -0.132379 3.87546e-14 -1.20043e-15 
0.277692 89.404 0.0167683 -0.0406991 -4.86911e-14 2.83974e-14 0.486018 90.1859 0.0164004 
0.11393 2.67512e-14 -6.64399e-15 0.758672 90.8061 0.014662 0.295621 1.34998e-13 -1.13555e-14 
1.08987 91.2686 0.0122343 0.474546 4.50143e-14 1.44641e-14 1.47059 91.5836 0.00952725 
0.628119 -2.18558e-13 -7.78891e-15 1.89048 91.7648 0.00689557 0.741223 -1.7145e-13 1.16747e-15 
2.33915 91.8274 0.00455641 0.805733 2.14405e-13 4.96304e-15 2.80708 91.7863 0.00259762 
0.819608 -3.36554e-13 -3.10862e-15 3.2861 91.6561 0.000998254 0.78578 -4.14078e-14 1.90299e-15 
3.76931 91.4499 -0.000340576 0.711025 2.17167e-13 2.0455e-14 4.25079 91.1805 -0.00155816 
0.604891 7.14359e-15 -3.82767e-15 4.72509 90.8601 -0.00282761 0.478688 2.2083e-13 2.1331e-14 
5.18674 90.502 -0.00417531 0.344516 -8.82523e-14 -2.43121e-15 0.0309391 87.4655 0.00448293 
-0.159291 -7.76727e-14 1.24414e-14 0.0897826 88.434 0.0123204 -0.219153 3.01744e-14 -6.93542e-15 
0.188855 89.2964 0.0130434 -0.184219 -7.33146e-14 2.4078e-14 0.339686 90.0376 0.0134604 
-0.0885637 5.85365e-14 -6.47399e-15 0.543215 90.6474 0.0127085 0.0369069 -1.46059e-13 8.50708e-15 
0.797363 91.1236 0.0113037 0.165922 -2.69361e-13 -9.01362e-15 1.09709 91.4696 0.00955168 
0.277876 3.08338e-13 1.88981e-14 1.43581 91.6926 0.00773896 0.358231 1.47283e-13 -1.27624e-14 
1.80649 91.8016 0.00605724 0.398407 -1.85952e-13 9.28424e-15 2.20235 91.8066 0.00459835 
0.395323 6.93161e-14 -4.996e-16 2.61732 91.7177 0.00335925 0.350719 2.14939e-13 2.79811e-15 
3.04605 91.545 0.00225878 0.270388 4.76078e-14 1.07119e-14 3.48363 91.2986 0.00116594 
0.163349 -2.68188e-15 -3.29684e-15 3.92511 90.9896 -9.69954e-05 0.0409725 -1.47674e-13 1.08689e-14 
4.36501 90.6301 -0.00157022 -0.0839749 2.68396e-14 1.78199e-15 0.0140925 87.5811 0.00129656 
-0.181529 4.14632e-13 1.5956e-14 0.049444 88.4475 0.00854992 -0.274166 -3.98761e-14 -3.35496e-15 
0.111131 89.2399 0.00976023 -0.281222 1.37646e-13 4.74273e-15 0.211429 89.941 0.0107522 
-0.232047 -1.15362e-13 1.05402e-14 0.353665 90.5369 0.0107451 -0.153412 2.6288e-14 -1.66152e-14 
0.538598 91.0207 0.0101445 -0.0684519 -7.64267e-14 -1.75589e-14 0.764337 91.3905 0.00918636 
0.00419107 1.81863e-13 7.00828e-15 1.02748 91.648 0.00810639 0.0508348 3.40422e-14 5.50081e-15 
1.32393 91.797 0.00707143 0.0628893 -3.92898e-14 5.11743e-16 1.64962 91.8426 0.00616783 
0.0367268 -3.93106e-14 -5.01335e-15 2.00078 91.7907 0.00539597 -0.026629 -2.25561e-13 3.26475e-15 
2.374 91.6477 0.00467593 -0.121939 3.23212e-13 -5.24667e-15 2.76593 91.4208 0.00386708 
-0.2403 5.27807e-14 2.21784e-15 3.17272 91.1186 0.00276718 -0.369837 1.51407e-14 -2.23875e-14 
3.58947 90.7524 0.00130087 -0.496594 2.80644e-14 1.2798e-14 -0.000870941 87.7168 -0.00150368 
-0.189753 -1.08869e-13 1.82944e-14 0.0137147 88.4925 0.00525257 -0.301339 7.24423e-14 -7.29625e-15 
0.0423264 89.222 0.00684716 -0.337441 -1.42651e-13 -6.41848e-16 0.0977645 89.8857 0.00825725 
-0.323482 -9.93485e-14 4.55538e-15 0.185168 90.4671 0.00880457 -0.282725 -1.72132e-13 3.747e-15 
0.307443 90.9556 0.00882412 -0.235563 1.16837e-13 -4.48599e-15 0.46516 91.3451 0.00851126 
-0.198814 -2.23901e-13 1.41328e-14 0.657507 91.6327 0.00806903 -0.185248 3.3026e-13 -7.85136e-15 
0.883008 91.8176 0.00764764 -0.203287 -1.63846e-13 1.75276e-14 1.14011 91.9006 0.00732831 
-0.256873 -1.15682e-13 -1.38847e-14 1.42747 91.883 0.00710997 -0.345463 2.54529e-13 7.29972e-15 
1.74397 91.7673 0.00690477 -0.46413 -3.48901e-13 -1.93656e-14 2.08832 91.5572 0.00654846 
-0.603808 2.59225e-13 7.34655e-16 2.45845 91.2584 0.00579347 -0.751734 -1.46726e-13 2.73241e-15 
2.85071 90.88 0.004502 -0.892216 -1.51264e-13 4.96261e-15 -0.0142105 87.8598 -0.00398094 
-0.185528 -1.58274e-13 1.13798e-14 -0.0180373 88.5568 0.00235978 -0.303913 -1.50253e-14 -1.76734e-14 
-0.0187908 89.2314 0.00425289 -0.35764 4.20329e-14 1.28543e-14 -0.00331831 89.8623 0.00595384 
-0.368699 4.36673e-14 -8.41688e-15 0.0348474 90.4308 0.00689576 -0.357298 -5.37799e-14 -5.22846e-15 
0.100167 90.9236 0.00737296 -0.341416 -1.51594e-13 -9.76649e-16 0.195058 91.3311 0.00756329 
-0.336254 -1.38726e-14 -1.8284e-15 0.320757 91.6468 0.0076553 -0.353755 2.78822e-14 -2.44076e-15 
0.477996 91.8659 0.00779493 -0.402198 -6.92675e-14 -4.88672e-15 0.667555 91.9848 0.0080661 
-0.485844 -6.28785e-14 5.55112e-17 0.89056 92.0009 0.00847028 -0.604631 9.1923e-15 1.54911e-15 
1.14845 91.9122 0.00891128 -0.753934 3.37907e-14 5.95444e-16 1.44254 91.7181 0.00919358 
-0.92444 4.14998e-14 8.35573e-15 1.77326 91.4205 0.00900509 -1.10226 2.34493e-13 -1.29498e-14 
2.13907 91.0254 0.00811266 -1.26945 -2.22392e-14 8.73433e-16 -0.0259947 87.9988 -0.0061595 
-0.170277 1.40335e-14 1.6237e-15 -0.0460137 88.6294 -0.000163219 -0.284794 -7.75968e-14 -8.11851e-16 
-0.0726604 89.2581 0.00194645 -0.346065 -4.16955e-14 9.64853e-15 -0.0926002 89.8619 0.00382493 
-0.3729 1.19053e-13 3.68455e-15 -0.0984847 90.4207 0.00501743 -0.382738 3.57678e-14 -1.76421e-15 
-0.0848442 90.919 0.00579992 -0.391412 1.27051e-14 -9.80813e-15 -0.0480008 91.3449 0.00635068 
-0.412721 -5.43931e-14 -1.80585e-15 0.0147789 91.6886 0.00686045 -0.457971 2.29049e-13 3.4521e-16 
0.105987 91.9422 0.00748577 -0.535476 1.38199e-13 2.17465e-14 0.228463 92.0982 0.00832704 
-0.650022 -4.77084e-14 3.27169e-15 0.385742 92.1496 0.00940131 -0.802274 9.38295e-14 -9.29205e-15 
0.582053 92.0899 0.0106145 -0.988168 -1.13253e-13 6.72379e-15 0.821871 91.9135 0.011743 
-1.19834 -6.15029e-14 -1.68018e-14 1.10893 91.6173 0.0123973 -1.41777 -7.41195e-14 -1.25854e-15 
1.44485 91.2026 0.0122123 -1.62589 1.28647e-14 -8.35096e-15 -0.0361324 88.1243 -0.00803154 
-0.14543 2.69789e-14 1.23686e-14 -0.0700557 88.7011 -0.00232295 -0.246845 -5.35886e-14 -8.17402e-15 
-0.119053 89.2933 -8.3365e-05 -0.306837 -2.00465e-13 9.96252e-15 -0.169806 89.8765 0.00186364 
-0.341094 1.08219e-13 5.01509e-15 -0.214529 90.4297 0.00316901 -0.364441 4.15223e-14 -9.04658e-15 
-0.247281 90.9361 0.0041062 -0.390749 -5.58212e-14 -9.12291e-15 -0.263719 91.3818 0.00486688 
-0.432624 -4.48582e-14 2.02616e-15 -0.260202 91.7551 0.0056582 -0.500969 7.6843e-14 6.08888e-16 
-0.233005 92.0452 0.00666294 -0.604427 -2.8952e-13 -1.03702e-14 -0.177625 92.2412 0.00801647 
-0.748684 6.22254e-14 3.41394e-15 -0.0882991 92.3322 0.0097735 -0.935622 1.55982e-13 8.84926e-15 
0.0421136 92.3065 0.0118666 -1.1623 -1.1386e-13 -6.01385e-15 0.221734 92.1528 0.0140645 
-1.41987 7.17065e-14 -3.76565e-15 0.458555 91.8616 0.015903 -1.69257 -4.68618e-14 -6.03684e-15 
0.758704 91.4276 0.0168516 -1.95711 3.80668e-14 -9.51236e-15 -0.0444004 88.2279 -0.00956292 
-0.112546 1.45681e-13 7.99881e-15 -0.0897051 88.764 -0.00410239 -0.193117 -9.19772e-15 -8.42555e-15 
-0.157179 89.3292 -0.00182868 -0.244271 -5.43515e-14 7.95544e-15 -0.233757 89.8985 7.7534e-05 
-0.278491 7.05738e-14 -1.55431e-15 -0.311684 90.4507 0.00135965 -0.308012 -2.581e-13 -2.72525e-15 
-0.385093 90.9682 0.00229826 -0.344855 5.95817e-14 -6.80532e-15 -0.449595 91.4362 0.00310563 
-0.4006 -1.41044e-13 7.87911e-15 -0.501295 91.8416 0.00401564 -0.485983 1.31908e-13 -1.19627e-14 
-0.53588 92.1716 0.00525191 -0.610327 6.3601e-14 1.41588e-14 -0.547745 92.4125 0.0070058 
-0.78073 7.18757e-14 -3.37664e-15 -0.529288 92.5496 0.00939955 -1.00099 -1.02132e-13 5.35119e-15 
-0.470544 92.5661 0.012433 -1.27019 2.65118e-14 -4.38516e-15 -0.359366 92.4442 0.0159144 
-1.58103 -1.59987e-13 -1.19774e-14 -0.182508 92.1662 0.0193409 -1.91795 8.12354e-14 4.80518e-16 
0.0723047 91.7179 0.0220013 -2.25547 -3.33848e-14 2.00361e-16 -0.0504732 88.303 -0.0106991 
-0.0734187 2.27156e-13 1.3026e-14 -0.104272 88.8115 -0.00546576 -0.127039 -1.58118e-14 -1.54807e-14 
-0.185805 89.3592 -0.00326374 -0.163153 1.02706e-13 1.83031e-14 -0.282548 89.9214 -0.0015081 
-0.190831 -4.6869e-14 -6.8695e-16 -0.387259 90.4769 -0.000383465 -0.219661 1.76496e-13 2.50494e-15 
-0.4947 91.0085 0.000400865 -0.259835 -7.50253e-14 -6.74114e-15 -0.601085 91.5014 0.00107796 
-0.321999 -4.05123e-15 2.0435e-15 -0.702997 91.9417 0.00191282 -0.416919 -1.92862e-13 -7.16094e-15 
-0.796312 92.3156 0.00318066 -0.554935 1.27307e-14 2.90913e-15 -0.875107 92.6076 0.00514961 
-0.745119 -2.63155e-13 -1.0162e-14 -0.930632 92.7996 0.00804292 -0.994046 1.32831e-13 5.41798e-15 
-0.950525 92.8699 0.0119813 -1.30406 -9.98047e-14 -4.28325e-15 -0.918549 92.7936 0.0168956 
-1.67098 5.77281e-14 -1.04478e-14 -0.815327 92.5434 0.0223373 -2.08119 -1.17617e-13 2.81893e-15 
-0.620525 92.0928 0.0274624 -2.50849 3.1284e-14 -1.51476e-14 -0.0539632 88.345 -0.0113729 
-0.0301431 2.00981e-13 1.028e-14 -0.112919 88.8388 -0.00636448 -0.0525556 -1.78414e-13 -1.22645e-15 
-0.203409 89.3781 -0.00434739 -0.0689285 -2.21932e-14 1.03494e-14 -0.313769 89.9392 -0.00284849 
-0.0846603 -3.29397e-14 -3.43822e-15 -0.437757 90.5019 -0.00200818 -0.106554 7.43232e-14 1.76942e-15 
-0.571311 91.05 -0.00153009 -0.142909 -2.10746e-13 -8.13585e-15 -0.711903 91.5696 -0.00116863 
-0.203435 9.85063e-14 4.23273e-16 -0.857377 92.0474 -0.000632448 -0.299005 2.54081e-13 3.747e-16 
-1.00473 92.4693 0.000408284 -0.441221 1.34244e-13 4.80865e-15 -1.14876 92.8191 0.00231514 
-0.641646 -7.38825e-14 -2.8224e-15 -1.28064 93.0762 0.00544694 -0.910559 1.39133e-13 7.61934e-15 
-1.38657 93.2148 0.0100956 -1.25501 -1.62805e-13 -4.0547e-15 -1.44677 93.2029 0.0164204 
-1.676 -2.94617e-14 5.89806e-16 -1.43529 93.0025 0.0242317 -2.16466 1.62205e-13 -8.39086e-15 
-1.32179 92.5717 0.0327219 -2.697 -4.74742e-14 1.9186e-15 -0.0544694 88.3512 -0.0115109 
0.0148549 -2.78116e-13 1.62145e-14 -0.114776 88.8425 -0.0067431 0.0258133 1.85762e-13 -9.54618e-15 
-0.208376 89.3818 -0.00502619 0.0321825 -3.21088e-13 1.25993e-14 -0.324813 89.9469 -0.00387871 
0.0325006 1.11321e-13 1.3687e-15 -0.459291 90.5196 -0.00343113 0.0229218 -1.79647e-13 -2.57953e-15 
-0.609415 91.0856 -0.00339422 -0.00281744 6.24554e-14 -4.29691e-15 -0.774525 91.6326 -0.00352787 
-0.0533505 -1.25789e-14 -1.95156e-15 -0.954522 92.149 -0.00353132 -0.139564 2.54558e-13 2.99587e-15 
-1.14857 92.622 -0.00303279 -0.274354 -1.57211e-13 -1.18482e-15 -1.35349 93.0357 -0.00157151 
-0.472095 -8.36991e-14 -2.33667e-15 -1.56188 93.3687 0.00138107 -0.747582 6.86018e-14 9.29075e-15 
-1.76014 93.5923 0.00634554 -1.11408 1.35334e-13 1.72171e-16 -1.92651 93.668 0.0137372 
-1.58021 -8.99578e-14 5.4904e-16 -2.02906 93.5476 0.0239261 -2.14547 3.52548e-13 -1.9082e-15 
-2.026 93.1717 0.036702 -2.79336 2.31228e-13 5.02202e-15 -0.0516476 88.321 -0.0110574 
0.058836 -1.39638e-13 1.65649e-14 -0.109079 88.8215 -0.00655697 0.102991 1.15797e-13 3.86843e-16 
-0.199267 89.3679 -0.00525109 0.133191 -4.62398e-14 1.66204e-14 -0.313275 89.9408 -0.00452548 
0.15211 -1.21393e-13 -5.0307e-15 -0.448136 90.5249 -0.0045465 0.159018 2.36953e-14 -8.65627e-16 
-0.603485 91.1084 -0.00505023 0.149898 -2.87992e-14 -2.27075e-15 -0.781007 91.6818 -0.00582842 
0.117472 5.82325e-14 3.86149e-15 -0.98337 92.2361 -0.00660258 0.0511721 -2.18948e-14 -7.78197e-15 
-1.21296 92.7609 -0.00699248 -0.0628915 9.13774e-14 6.53817e-15 -1.47015 93.2425 -0.0064691 
-0.241819 1.12645e-13 8.27463e-16 -1.75101 93.661 -0.0043066 -0.505359 -1.1972e-13 3.56225e-15 
-2.04433 93.9867 0.000339302 -0.874339 9.50845e-14 -2.72221e-15 -2.32898 94.1767 0.00822456 
-1.36751 1.91667e-13 -3.0323e-15 -2.57067 94.1728 0.0198944 -1.99664 -2.42232e-13 -4.33334e-15 
-2.71488 93.9025 0.0375831 -2.75983 -8.6515e-14 -3.57353e-16 -0.0452331 88.2569 -0.00989612 
0.0988166 2.84613e-13 -4.8711e-15 -0.0953183 88.7766 -0.00574184 0.173467 1.14783e-13 -8.46719e-15 
-0.175078 89.3356 -0.0049352 0.226494 9.09336e-14 8.87138e-15 -0.27741 89.9187 -0.00466447 
0.264737 6.5952e-14 -1.58727e-15 -0.401409 90.5138 -0.00517634 0.290685 1.45914e-14 -5.51642e-15 
-0.548894 91.1128 -0.00625418 0.302798 3.89979e-14 -7.409e-15 -0.724138 91.7092 -0.00775406 
0.295561 -8.13048e-14 5.56846e-16 -0.933033 92.2977 -0.00946567 0.259323 -7.17039e-14 -4.72539e-15 
-1.18206 92.8717 -0.0110667 0.179931 -1.79215e-13 1.72605e-15 -1.47673 93.4216 -0.0120302 
0.0382781 -8.07514e-15 -4.06446e-15 -1.81905 93.9311 -0.0115477 -0.189953 2.22617e-14 4.29387e-15 
-2.20381 94.3736 -0.0083105 -0.533841 -1.20603e-13 -3.83222e-15 -2.61306 94.7059 -0.00089808 
-1.02464 1.99868e-13 7.4038e-15 -3.01469 94.8602 0.011574 -1.69053 -1.23339e-15 -1.93422e-15 
-3.35282 94.7526 0.0297483 -2.55151 8.32494e-15 9.78384e-15 -0.0353727 88.1632 -0.00840662 
0.131714 5.45215e-14 2.27318e-14 -0.0735384 88.7103 -0.00454297 0.231566 -2.01797e-13 -8.66147e-15 
-0.13571 89.2861 -0.00426889 0.304194 -1.77966e-15 1.70506e-14 -0.216848 89.88 -0.00444891 
0.360411 2.9839e-14 -1.10155e-15 -0.318075 90.4842 -0.00544156 0.405887 -1.33392e-13 3.00281e-15 
-0.443293 91.0942 -0.00707883 0.44176 -3.15494e-13 -5.40019e-15 -0.599242 91.7078 -0.00930513 
0.464752 -8.13507e-14 7.8583e-16 -0.795049 92.3236 -0.012016 0.466936 1.10762e-14 -8.14279e-15 
-1.04168 92.9399 -0.015009 0.435075 1.37978e-13 6.96665e-15 -1.35087 93.5529 -0.0178819 
0.349571 -8.71647e-14 -2.16147e-15 -1.73307 94.1528 -0.019837 0.183125 -2.79776e-13 -2.32453e-16 
-2.19366 94.7196 -0.0196047 -0.10032 1.42386e-14 -7.71952e-17 -2.72631 95.2159 -0.0144134 
-0.545967 7.87755e-14 -8.63892e-16 -3.30002 95.5777 -0.00182067 -1.20161 -1.84661e-13 3.48159e-15 
-3.86649 95.6924 0.0205653 -2.11653 -2.69566e-13 -9.25302e-15 -0.00492701 87.9131 -0.00310153 
0.164155 7.64419e-14 4.02109e-15 -0.00605327 88.5322 -2.51341e-05 0.288951 2.1417e-13 -3.56312e-15 
-0.0125196 89.1467 -0.000924866 0.38243 2.91379e-14 1.39229e-14 -0.0229381 89.7584 -0.00186011 
0.461784 1.55528e-13 1.00267e-15 -0.041923 90.3686 -0.00346403 0.538218 1.39469e-13 -4.09395e-15 
-0.0760466 90.9813 -0.00573413 0.618268 9.96052e-14 -6.09235e-15 -0.134864 91.6022 -0.00884958 
0.70432 -4.18493e-14 4.15119e-15 -0.231486 92.2389 -0.0130277 0.794571 -5.4538e-14 -3.2821e-15 
-0.383487 92.9004 -0.0185289 0.882266 -8.49824e-14 3.92915e-15 -0.613871 93.5967 -0.0255992 
0.954028 2.53032e-13 -1.73125e-15 -0.95177 94.3373 -0.034326 0.986888 6.09547e-14 3.97252e-15 
-1.43218 95.1276 -0.044381 0.943864 -6.16382e-14 6.35256e-15 -2.09194 95.9624 -0.053676 
0.767155 7.66609e-14 -8.63892e-15 -2.9635 96.8081 -0.0612005 0.375477 2.12282e-13 -3.92568e-15 
-3.96768 97.6164 -0.0100387 -0.362267 7.32886e-14 1.40304e-14 0.0143687 87.7788 0.00065962 
0.15809 -1.28927e-13 1.5505e-14 0.0364503 88.4367 0.00319343 0.277473 -7.90513e-14 -1.41345e-14 
0.0660102 89.0695 0.00171783 0.367489 -9.6084e-14 9.12465e-15 0.102404 89.6854 0.000632826 
0.446925 5.94451e-14 -8.0283e-15 0.140112 90.2906 -0.000911899 0.528731 -2.17569e-13 -5.6205e-16 
0.172623 90.893 -0.00296444 0.621564 4.05743e-14 -8.81933e-15 0.190987 91.5016 -0.00579824 
0.730628 -2.0163e-13 2.13718e-15 0.18287 92.1276 -0.00976192 0.857928 3.11366e-14 -6.13745e-15 
0.131038 92.7844 -0.0153332 1.00184 1.03802e-13 1.60635e-15 0.0113429 93.4883 -0.0231549 
1.1557 -1.63949e-14 -4.58314e-15 -0.209671 94.2582 -0.033888 1.30503 -3.52437e-13 2.12504e-15 
-0.577631 95.1143 -0.0486297 1.42222 -5.94455e-14 -2.7027e-15 -1.14867 96.076 -0.0645744 
1.45798 1.63612e-13 -6.41501e-15 -1.99289 97.1429 -0.0919152 1.32492 1.69656e-14 -8.89913e-16 
-3.12598 98.3042 -0.051648 0.870283 -4.27436e-15 -8.71005e-15 0.0341454 87.6584 0.00429663 
0.134645 9.54983e-14 6.92155e-15 0.0804244 88.3525 0.00635582 0.234564 -1.00527e-14 -4.28824e-15 
0.147576 89 0.00442285 0.309731 -9.80242e-14 1.93109e-14 0.233564 89.6158 0.00332996 
0.378946 2.00068e-13 3.52843e-15 0.332537 90.2105 0.00207048 0.455677 -3.60805e-14 -3.69149e-15 
0.439078 90.7952 0.00057354 0.549762 6.1489e-14 -4.7809e-15 0.546437 91.3815 -0.00145518 
0.668484 1.6684e-13 2.61943e-15 0.645458 91.983 -0.00439194 0.817175 -8.00575e-15 -4.62824e-15 
0.722839 92.6159 -0.00878966 0.999282 -8.88404e-14 4.98906e-15 0.758625 93.3006 -0.0154782 
1.21569 -3.98657e-14 -7.94503e-16 0.722613 94.0629 -0.0256036 1.46275 1.93404e-13 5.57193e-15 
0.568698 94.9352 -0.0412402 1.72803 9.21485e-15 -4.40273e-15 0.230801 95.9586 -0.0620443 
1.98104 -1.58949e-13 -3.26128e-15 -0.404113 97.1667 -0.106654 2.15572 -5.56707e-14 -3.11036e-15 
-1.40564 98.647 -0.0815245 2.11717 1.27343e-13 8.47586e-15 0.0529425 87.5674 0.0077722 
0.0940496 -1.523e-14 1.86136e-14 0.122262 88.2913 0.00942519 0.160494 -2.41171e-14 -3.82333e-15 
0.225405 88.9486 0.00713424 0.209184 -2.90808e-14 1.49637e-14 0.359322 89.5598 0.00615469 
0.257171 8.33101e-14 -6.04725e-15 0.518436 90.1395 0.00535322 0.317007 -4.2852e-14 1.42247e-16 
0.699216 90.7012 0.00467768 0.39842 9.22196e-14 -7.24074e-15 0.89835 91.2582 0.00387574 
0.509493 -1.87955e-13 3.11209e-15 1.11185 91.8252 0.00265118 0.657533 1.24182e-13 -3.54924e-15 
1.33362 92.4195 0.000556147 0.849635 9.87734e-14 4.52416e-15 1.55327 93.063 -0.00315113 
1.09287 -2.07143e-14 -4.22232e-15 1.75266 93.7847 -0.00961531 1.39373 3.09232e-14 4.94049e-15 
1.89936 94.6239 -0.0214345 1.75602 -1.58869e-13 -2.9525e-15 1.93825 95.6361 -0.0397081 
2.1754 2.65656e-13 -3.75394e-15 1.75767 96.8884 -0.0869402 2.62619 -4.32779e-14 -8.17402e-15 
1.25712 98.5312 -0.0762358 3.03577 -8.80129e-14 3.27516e-15 0.0690282 87.5198 0.0107558 
0.0379697 1.31472e-13 1.70003e-16 0.158071 88.2643 0.0120521 0.0582714 -6.12527e-14 -3.01495e-15 
0.292174 88.9252 0.00951463 0.0697559 6.77835e-14 8.03177e-15 0.467597 89.5277 0.00871234 
0.0860283 1.07771e-13 5.04111e-15 0.679377 90.0894 0.00843077 0.11725 -1.0386e-13 -3.95864e-15 
0.926202 90.6257 0.00866469 0.171583 2.10665e-14 -1.2837e-15 1.20869 91.1507 0.00925375 
0.256283 1.47432e-13 3.96211e-15 1.52891 91.6792 0.0100674 0.37862 -1.09046e-13 -4.41661e-15 
1.88972 92.2282 0.010917 0.546734 -1.58196e-13 4.08701e-15 2.29372 92.8191 0.0114571 
0.770435 -3.17611e-14 -3.08434e-15 2.74145 93.4805 0.0110588 1.06192 1.91184e-14 1.33921e-15 
3.22731 94.2531 0.00801433 1.43609 2.49984e-13 8.70137e-15 3.73331 95.1978 0.00111017 
1.90997 -4.30628e-14 -6.1548e-15 4.20254 96.4004 -0.0261341 2.49776 -2.35166e-13 -1.3739e-15 
4.56656 98.0323 -0.0236492 3.2018 -1.10731e-13 -2.498e-15 0.0808369 87.5278 0.0129637 
-0.030472 9.41205e-14 6.89032e-15 0.18432 88.2812 0.0139741 -0.0664367 1.62231e-14 -6.9042e-15 
0.341166 88.9386 0.0112806 -0.100818 4.3375e-14 1.1522e-14 0.54719 89.5288 0.0106466 
-0.124914 -3.87915e-14 -1.49186e-16 0.798062 90.0714 0.0108122 -0.132245 -5.56174e-14 -5.68989e-16 
1.09442 90.5828 0.0118248 -0.117565 1.37217e-13 -4.97866e-15 1.44029 91.0777 0.0136258 
-0.0760777 -1.63182e-13 1.14145e-15 1.84316 91.5706 0.0162684 -0.00270772 6.01906e-14 -4.10089e-15 
2.31409 92.0774 0.0198713 0.108654 2.29747e-14 4.48946e-15 2.86826 92.6178 0.0246114 
0.266034 8.32242e-14 -3.58047e-15 3.5256 93.2186 0.0306911 0.48051 -9.28407e-14 6.70297e-15 
4.31142 93.9183 0.038203 0.767679 -1.07471e-13 7.42462e-16 5.25643 94.7755 0.0470348 
1.14982 3.06082e-13 -1.54737e-15 6.39292 95.8838 0.0548942 1.6569 2.38663e-14 6.6197e-15 
7.74811 97.4019 0.0617974 2.33276 2.30878e-13 3.52496e-15 0.0871683 87.6002 0.0141744 
-0.10693 -9.27999e-14 1.20355e-14 0.198294 88.349 0.0149779 -0.205704 -2.17182e-13 1.7035e-15 
0.367205 88.9954 0.0122037 -0.29155 1.60908e-13 1.20737e-15 0.589419 89.5701 0.0116608 
-0.361659 -6.28252e-14 -2.70617e-16 0.860971 90.0938 0.0120781 -0.414128 -3.08447e-14 -5.20417e-16 
1.1836 90.5837 0.0135355 -0.447597 -1.15651e-13 -7.25461e-15 1.56332 91.0545 0.0160405 
-0.460936 6.73571e-14 3.19189e-15 2.01078 91.5205 0.0197661 -0.452944 1.13408e-15 -4.45477e-15 
2.54199 91.9968 0.0250369 -0.422029 2.2788e-13 3.77129e-15 3.17987 92.502 0.0324004 
-0.365812 3.20807e-14 -3.98986e-15 3.95677 93.061 0.0426784 -0.280576 1.03106e-13 2.17187e-15 
4.91879 93.71 0.0574379 -0.160492 1.14781e-13 2.52576e-15 6.13128 94.5043 0.0776075 
0.0037023 -3.1807e-14 -2.58127e-15 7.69624 95.5392 0.113702 0.226054 9.94274e-14 -8.25728e-15 
9.73017 96.9552 0.129281 0.530764 -2.01734e-13 3.01148e-15 0.0873668 87.7415 0.0142669 
-0.186238 -1.88339e-14 2.32626e-14 0.198507 88.4713 0.0149465 -0.350084 -1.08891e-13 -7.71605e-15 
0.367448 89.0988 0.0121566 -0.489253 1.39175e-13 1.3281e-14 0.589501 89.6552 0.0115876 
-0.607192 8.25425e-14 1.74166e-15 0.86062 90.1612 0.0119883 -0.706913 -1.17081e-13 -4.3715e-16 
1.18247 90.6342 0.0134352 -0.791309 1.69472e-14 -7.13665e-15 1.56104 91.0892 0.0159356 
-0.863378 4.61664e-14 4.02456e-16 2.00692 91.5405 0.0196614 -0.92644 -6.55452e-14 -4.26395e-15 
2.53615 92.0033 0.0249358 -0.984385 -1.84665e-13 3.73659e-15 3.17165 92.4963 0.0323038 
-1.042 2.05148e-14 -3.11556e-15 3.94578 93.0443 0.0425831 -1.10547 -1.3281e-13 8.53484e-16 
4.90461 93.6835 0.0573342 -1.1831 -5.34269e-14 4.33681e-15 6.11344 94.4693 0.0774819 
-1.28663 2.63609e-14 -3.91354e-15 7.67412 95.4968 0.113495 -1.43256 -1.64695e-14 6.96665e-15 
9.7029 96.9066 0.129084 -1.64755 7.24039e-14 -7.77156e-15 0.0814198 87.952 0.0132389 
-0.262935 1.32398e-13 -3.19189e-16 0.184928 88.648 0.013877 -0.489581 1.05764e-13 -1.33366e-14 
0.341836 89.2487 0.0111361 -0.679938 -1.73039e-13 1.3399e-14 0.547333 89.7837 0.010424 
-0.843395 -3.11253e-15 -4.92661e-16 0.796853 90.2731 0.0105403 -0.987599 3.46442e-14 -2.51882e-15 
1.09082 90.734 0.0115219 -1.11938 8.50714e-14 -4.49987e-15 1.43314 91.1814 0.0133101 
-1.24545 3.22121e-14 1.57513e-15 1.83123 91.6302 0.015955 -1.37305 -8.91908e-14 -4.28477e-15 
2.29617 92.0966 0.0195714 -1.51062 1.46644e-13 3.85456e-15 2.84315 92.6004 0.0243297 
-1.66863 -1.27528e-14 -7.32053e-16 3.49215 93.1682 0.0304224 -1.86059 1.53801e-14 1.1241e-15 
4.26849 93.8385 0.0379237 -2.10456 1.55865e-14 -3.46945e-16 5.20279 94.6701 0.0467138 
-2.4252 -7.67893e-14 -6.43929e-15 6.32697 95.7561 0.0543953 -2.85479 1.11307e-13 5.68989e-16 
7.66798 97.2556 0.0614041 -3.43931 -1.54946e-14 2.38698e-15 0.0699566 88.227 0.0112065 
-0.331832 -4.77136e-14 2.33286e-14 0.158979 88.8753 0.0118791 -0.614701 -1.4459e-13 -3.71231e-15 
0.293083 89.4413 0.00926293 -0.850343 1.49578e-13 6.88685e-15 0.467487 89.9514 0.00833091 
-1.05316 -4.12647e-15 -1.70697e-15 0.676832 90.4243 0.00796865 -1.23458 -1.56167e-14 1.6688e-15 
0.919463 90.8762 0.00815329 -1.40446 -1.17106e-14 -6.62317e-15 1.19579 91.322 0.00872437 
-1.57209 8.64491e-14 3.44169e-15 1.50782 91.7772 0.00954682 -1.74698 -4.1963e-14 -4.58314e-15 
1.8584 92.2589 0.0104265 -1.93968 -5.5499e-14 4.11476e-15 2.25023 92.7887 0.0110104 
-2.16248 6.70523e-14 -3.3272e-15 2.68402 93.3953 0.0106582 -2.43006 -6.49342e-14 3.90313e-15 
3.15427 94.1191 0.00764003 -2.75972 -6.63185e-14 -1.249e-15 3.64303 95.0209 0.000727999 
-3.17073 6.45317e-14 1.97065e-15 4.09321 96.1863 -0.0266638 -3.6794 -1.02834e-14 -5.41234e-15 
4.43654 97.7866 -0.0238453 -4.28997 2.03865e-14 -1.03667e-14 0.0541516 88.5578 0.00838938 
-0.388534 -9.47992e-14 1.40894e-14 0.123309 89.146 0.00916245 -0.717419 -2.99847e-15 5.77316e-15 
0.226236 89.6696 0.0067606 -0.98933 -3.48922e-14 1.51823e-14 0.358422 90.1508 0.00559984 
-1.22228 -1.4093e-13 -3.41047e-15 0.513743 90.6056 0.00468822 -1.43025 -7.25159e-14 3.23699e-15 
0.688193 91.0489 0.00394803 -1.62485 9.33394e-14 -5.39846e-15 0.878197 91.4951 0.00312687 
-1.81633 -2.19946e-13 4.63171e-15 1.07968 91.9595 0.00192285 -2.01439 1.10994e-13 -4.76702e-15 
1.2866 92.4598 -0.000117665 -2.22867 -5.63456e-14 4.29171e-15 1.48878 93.018 -0.00374347 
-2.4688 -1.05648e-13 -3.09475e-15 1.66838 93.6633 -0.010105 -2.74382 -3.28557e-14 3.68802e-15 
1.79334 94.4344 -0.0218183 -3.05996 -1.05287e-13 -2.91434e-15 1.80889 95.3866 -0.0399896 
-3.41503 3.36883e-14 -6.30052e-15 1.6035 96.5864 -0.0873059 -3.78527 -1.1581e-13 -7.18522e-15 
1.07762 98.1844 -0.0759539 -4.09989 4.19387e-14 3.19189e-15 0.0355332 88.9323 0.00505052 
-0.429843 -9.33854e-14 1.39819e-14 0.0813701 89.4501 0.00596525 -0.791919 -1.16284e-13 -1.32134e-14 
0.147866 89.9244 0.00389076 -1.08894 1.84115e-14 1.08472e-14 0.231098 90.3718 0.00256968 
-1.34088 -3.6208e-15 -2.85189e-15 0.324513 90.8052 0.00117616 -1.56289 -7.69776e-14 -1.99493e-16 
0.422105 91.2372 -0.000394908 -1.76691 -6.79936e-14 -4.52242e-15 0.516816 91.6809 -0.00243749 
-1.96261 -1.89952e-16 2.55004e-15 0.599412 92.1506 -0.0053346 -2.15793 7.53009e-14 -4.94396e-15 
0.656726 92.663 -0.00964565 -2.35901 -5.84637e-14 3.38271e-15 0.669131 93.2386 -0.0162059 
-2.56946 1.90299e-15 -4.2813e-15 0.606922 93.9032 -0.026165 -2.78831 -5.82485e-14 2.99413e-15 
0.424676 94.6888 -0.0415879 -3.00565 9.20097e-15 6.72379e-15 0.0572374 95.6357 -0.0621159 
-3.19323 -1.01606e-13 -1.9082e-15 -0.607956 96.7762 -0.106653 -3.28681 8.5279e-14 2.47025e-15 
-1.63919 98.198 -0.0807495 -3.15298 4.7129e-14 3.69149e-15 0.0158681 89.3365 0.00162836 
-0.454002 5.29021e-14 7.0239e-15 0.0370205 89.7762 0.00271579 -0.834987 4.67508e-15 -9.13158e-15 
0.0651916 90.195 0.0010589 -1.14493 -3.08486e-14 2.10838e-14 0.0973668 90.6033 -0.000310686 
-1.40409 1.18057e-14 -1.71738e-16 0.127193 91.0102 -0.00202281 -1.62742 -9.46574e-15 -1.0842e-15 
0.147474 91.4254 -0.00416609 -1.82597 -8.42364e-14 -5.96051e-15 0.148926 91.8595 -0.00701295 
-2.00762 4.23307e-14 3.46945e-15 0.11917 92.3247 -0.0109206 -2.17723 -1.60164e-13 -5.3204e-15 
0.0411965 92.8349 -0.0163747 -2.33611 -6.5347e-15 3.66547e-15 -0.108674 93.4064 -0.0240264 
-2.48053 3.52288e-14 -2.13371e-15 -0.363207 94.0581 -0.0345352 -2.59884 2.34049e-14 7.49054e-15 
-0.767119 94.8095 -0.0490132 -2.66616 1.69375e-13 -3.54231e-15 -1.3752 95.679 -0.0644766 
-2.63576 -9.28216e-14 9.52363e-16 -2.25555 96.6651 -0.0914958 -2.42225 3.55133e-14 -1.01221e-15 
-3.42285 97.754 -0.0495976 -1.87406 -9.42788e-14 1.53892e-15 -0.00377114 89.7541 -0.0025588 
-0.460636 1.39853e-14 1.01048e-14 -0.00643546 90.1114 -0.00111995 -0.846067 -1.02522e-14 -8.75168e-15 
-0.0153931 90.4698 -0.00213983 -1.15684 -8.25754e-14 1.01464e-14 -0.0320354 90.8339 -0.00333442 
-1.41202 3.44134e-14 1.40166e-15 -0.0619006 91.2081 -0.00506085 -1.6252 -7.27362e-14 -2.23085e-15 
-0.112339 91.5989 -0.00736483 -1.80567 -4.74599e-14 -4.9856e-15 -0.193255 92.0135 -0.0104261 
-1.95886 -6.95451e-14 2.48065e-15 -0.317748 92.4606 -0.014473 -2.08612 -3.35834e-14 -5.09315e-15 
-0.503051 92.9499 -0.0197768 -2.18393 -1.35655e-14 3.65159e-15 -0.771542 93.4914 -0.0265946 
-2.24207 2.66927e-13 3.18495e-15 -1.15148 94.0941 -0.0350258 -2.24065 -2.9924e-14 3.77823e-15 
-1.6768 94.7627 -0.0447431 -2.1456 -8.07583e-14 -6.4046e-15 -2.38305 95.491 -0.0536749 
-1.90186 -6.51805e-14 -7.43372e-15 -3.30103 96.2437 -0.0606399 -1.43127 -1.69101e-14 -4.21191e-15 
-4.34189 96.9736 -0.00574455 -0.603527 3.49928e-14 -3.30291e-15 -0.0349459 90.557 -0.0078035 
-0.428528 1.17331e-13 1.5776e-14 -0.0768326 90.7509 -0.0061394 -0.785259 4.08631e-14 -2.8256e-14 
-0.145275 90.9835 -0.00600441 -1.06736 9.87188e-14 3.63373e-14 -0.238712 91.248 -0.00652534 
-1.2885 7.83124e-14 1.94202e-15 -0.359419 91.5406 -0.00766016 -1.45775 4.25673e-14 -3.68629e-14 
-0.512206 91.8596 -0.00931617 -1.58 -1.14344e-13 -1.10805e-14 -0.704103 92.2049 -0.0114394 
-1.6559 1.1549e-13 1.62162e-14 -0.944019 92.5762 -0.0139433 -1.68154 5.07702e-14 -2.13076e-14 
-1.24225 92.9725 -0.0166429 -1.64759 -3.10862e-15 4.30298e-15 -1.6095 93.3892 -0.0191551 
-1.53824 7.49747e-14 -4.03757e-15 -2.05485 93.8163 -0.0206989 -1.32971 5.55094e-14 -1.15142e-14 
-2.58211 94.2323 -0.0200325 -0.989206 1.53905e-14 2.1076e-14 -3.18323 94.5983 -0.0143522 
-0.474435 9.05699e-14 -1.64192e-14 -3.82477 94.849 -0.00120219 0.259384 1.5778e-13 -6.78277e-16 
-4.45812 94.8689 0.0212124 1.25951 6.94306e-14 -3.67761e-15 -0.0453639 90.919 -0.00882463 
-0.394765 -1.69484e-13 4.81451e-15 -0.101017 91.0371 -0.00728769 -0.723014 1.21366e-13 -2.66323e-15 
-0.189733 91.2077 -0.00672342 -0.979878 1.13868e-13 1.55865e-14 -0.308615 91.4194 -0.00688707 
-1.17569 -1.72199e-13 1.01997e-14 -0.457964 91.6648 -0.00760579 -1.31693 -7.60805e-14 -4.01502e-15 
-0.640507 91.9386 -0.00873842 -1.40644 9.95233e-15 2.99426e-14 -0.860722 92.2368 -0.0101455 
-1.4432 -1.10249e-13 -5.39998e-15 -1.12412 92.555 -0.0116383 -1.42207 3.218e-14 5.33232e-15 
-1.4363 92.8869 -0.012917 -1.33323 -5.15386e-14 -4.25167e-15 -1.80144 93.2224 -0.0134773 
-1.16171 7.55507e-14 -2.15307e-14 -2.21991 93.5442 -0.0125356 -0.886964 -1.21975e-13 2.17708e-16 
-2.68461 93.824 -0.00879399 -0.483349 -1.31185e-13 1.13911e-14 -3.17546 94.0169 -0.000870103 
0.0772866 5.84324e-14 3.54057e-15 -3.65875 94.0529 0.0119864 0.820384 -1.30146e-13 -2.16147e-14 
-4.07689 93.8476 0.0303969 1.76403 -5.66561e-15 1.72085e-14 -0.0529481 91.2484 -0.0101341 
-0.352981 -5.72181e-14 -7.3162e-16 -0.118117 91.2965 -0.00859673 -0.64622 2.89751e-14 -1.79736e-15 
-0.220773 91.407 -0.00754052 -0.873086 -9.95141e-14 -2.28925e-14 -0.356633 91.5652 -0.00727083 
-1.04051 3.44304e-14 9.77517e-16 -0.524037 91.7607 -0.00747893 -1.1525 1.57545e-15 3.44177e-14 
-0.723515 91.985 -0.00799514 -1.21013 -3.06549e-14 -1.53226e-14 -0.956826 92.2308 -0.00861774 
-1.21126 -3.55519e-14 5.20192e-15 -1.22605 92.4898 -0.00909592 -1.15041 -3.54846e-14 -9.50628e-16 
-1.53239 92.7519 -0.0090773 -1.01852 -3.50544e-14 2.37896e-15 -1.8746 93.0025 -0.00806247 
-0.802969 -5.54383e-14 2.98025e-14 -2.24677 93.2201 -0.00535358 -0.488077 -4.72539e-14 -2.08167e-15 
-2.63546 93.3732 -0.000139931 -0.0566141 3.18183e-14 -1.06564e-14 -3.01736 93.4166 0.00828444 
0.507038 -4.17669e-14 2.17361e-15 -3.35602 93.2898 0.0204268 1.21207 7.58803e-14 5.85643e-15 
-3.59442 92.9187 0.0387024 2.05481 -2.37831e-14 -5.29785e-15 -0.0572636 91.5402 -0.0107454 
-0.305904 8.10688e-14 -4.75314e-16 -0.12803 91.525 -0.00929533 -0.559885 1.55856e-14 1.20164e-14 
-0.238518 91.5788 -0.00784259 -0.753898 5.71869e-14 6.6596e-15 -0.383407 91.6845 -0.00717883 
-0.891645 4.49684e-14 -2.23014e-14 -0.559237 91.8291 -0.0069015 -0.974918 5.01837e-14 8.67297e-15 
-0.76446 92.0017 -0.00683101 -1.00335 -5.25494e-14 -2.05387e-14 -0.998304 92.1922 -0.0067394 
-0.974233 -5.78964e-15 -2.11745e-15 -1.2598 92.3897 -0.00636098 -0.882391 4.36717e-14 2.70018e-14 
-1.54661 92.581 -0.00535927 -0.720294 7.78752e-14 -2.40866e-15 -1.85352 92.7489 -0.00331002 
-0.478447 2.86915e-14 -3.76435e-15 -2.17078 92.8701 0.000278577 -0.146383 1.48341e-13 9.58782e-15 
-2.48223 92.9133 0.00588969 0.28543 -1.24034e-13 1.16452e-14 -2.76349 92.8375 0.0139051 
0.822496 7.28133e-14 -2.83454e-15 -2.98002 92.5914 0.0247061 1.46187 -6.46184e-15 4.72539e-15 
-3.08744 92.1128 0.038081 2.18525 -9.99652e-14 -1.55362e-14 -0.058698 91.7903 -0.0108608 
-0.256168 -2.83194e-15 8.97372e-15 -0.131492 91.7201 -0.00955881 -0.46875 -5.77264e-14 1.06287e-14 
-0.244353 91.7219 -0.00780676 -0.628754 -9.37618e-15 2.16277e-15 -0.391259 91.7772 -0.00680765 
-0.737005 2.85418e-14 -6.58761e-15 -0.567289 91.8717 -0.00610354 -0.793377 -7.13382e-14 8.58731e-15 
-0.769116 91.9925 -0.00552532 -0.796444 -3.17878e-14 1.64959e-14 -0.993844 92.1277 -0.00484618 
-0.743279 -9.84976e-15 -4.79304e-15 -1.23809 92.2643 -0.0038194 -0.629456 -1.78616e-13 3.09956e-14 
-1.4969 92.3876 -0.00215931 -0.449313 1.01086e-13 -1.57964e-14 -1.76261 92.4792 0.000451033 
-0.196578 6.2195e-14 1.09895e-15 -2.02354 92.516 0.00432818 0.134444 -6.0907e-14 -1.27537e-14 
-2.26291 92.4691 0.0097269 0.546961 -7.26823e-14 -1.93803e-14 -2.45785 92.303 0.0167814 
1.0389 5.56222e-14 3.24393e-16 -2.5794 91.9763 0.0252945 1.59903 -1.05574e-13 9.1524e-15 
-2.59436 91.4436 0.0344222 2.20165 1.55838e-13 7.03257e-15 -0.0576752 91.9975 -0.0105401 
-0.206081 -8.94501e-14 -5.14346e-16 -0.129462 91.8807 -0.00943257 -0.377001 -1.3795e-13 -3.38774e-14 
-0.240109 91.8361 -0.00748962 -0.503285 -2.73869e-14 -1.6963e-14 -0.383245 91.8446 -0.00623696 
-0.583333 -1.15385e-14 1.9435e-14 -0.552885 91.8912 -0.00519437 -0.615459 -5.15819e-14 -6.10245e-14 
-0.744335 91.9621 -0.00421876 -0.597477 -4.45437e-14 2.54029e-14 -0.953089 92.0439 -0.00310477 
-0.526511 -3.11643e-14 -2.63318e-14 -1.17403 92.123 -0.00164389 -0.399059 -1.26511e-13 -8.66061e-15 
-1.40056 92.1836 0.000384245 -0.211337 5.50818e-15 -2.52489e-15 -1.62371 92.2078 0.00319441 
0.0400085 -6.97012e-14 -6.65006e-15 -1.83134 92.1739 0.00696209 0.356735 4.94136e-14 -1.72952e-15 
-2.00755 92.0564 0.0117692 0.737281 -1.27948e-13 -1.13607e-14 -2.13255 91.8262 0.0175178 
1.17443 -5.54344e-14 2.4182e-15 -2.18354 91.4518 0.0237439 1.65235 -4.80479e-14 -2.45221e-14 
-2.13697 90.9025 0.0295632 2.14335 -5.02985e-14 7.9433e-15 -0.0546986 92.1617 -0.00987917 
-0.157559 9.43889e-14 1.53662e-14 -0.123057 92.0071 -0.00899865 -0.288105 -6.80979e-14 -9.63986e-15 
-0.227874 91.9223 -0.00696731 -0.382107 8.73594e-14 -2.1913e-14 -0.362758 91.8886 -0.00555027 
-0.436043 8.32147e-15 3.06404e-14 -0.521076 91.891 -0.00426897 -0.447017 -3.25359e-14 -2.5752e-14 
-0.697211 91.9151 -0.00301556 -0.41233 1.2331e-13 -3.26692e-14 -0.885571 91.9474 -0.00161773 
-0.329307 3.64847e-14 3.11461e-14 -1.07997 91.9738 8.68916e-05 -0.195372 3.31811e-14 -7.16181e-15 
-1.27293 91.9789 0.00225402 -0.00841853 9.76779e-15 5.59622e-15 -1.45515 91.9457 0.00501144 
0.232516 3.24966e-14 2.40953e-15 -1.61496 91.8548 0.00842695 0.526207 -3.58463e-14 1.03615e-14 
-1.73826 91.6846 0.0124575 0.867823 1.09623e-13 1.17076e-14 -1.80882 91.4123 0.0168793 
1.24715 8.56507e-14 1.09322e-14 -1.80953 91.0151 0.0211733 1.64663 1.07475e-13 2.23085e-14 
-1.72458 90.474 0.0245857 2.03959 6.04128e-14 -1.75866e-14 -0.0502795 92.2849 -0.0089706 
-0.112085 -5.51499e-14 3.55341e-14 -0.11341 92.1009 -0.00833473 -0.204745 -5.06301e-14 -5.15213e-15 
-0.20975 91.9824 -0.00630631 -0.268766 2.37583e-14 -2.62169e-14 -0.333169 91.9118 -0.00481114 
-0.299191 -1.17583e-13 5.30305e-14 -0.476771 91.8743 -0.00338963 -0.292243 -6.91944e-14 1.11404e-14 
-0.634438 91.8561 -0.00197226 -0.24491 6.77229e-15 1.01013e-14 -0.799983 91.8438 -0.000424361 
-0.154767 -1.19149e-13 -6.41848e-17 -0.966699 91.8236 0.00137037 -0.020067 7.13122e-14 8.11937e-15 
-1.12689 91.7809 0.00351065 0.159941 5.97833e-14 1.33244e-14 -1.2715 91.7003 0.00605615 
0.384416 -2.75583e-14 -3.75915e-15 -1.38997 91.5651 0.00899933 0.650083 1.60369e-14 1.20156e-14 
-1.47034 91.3576 0.0122258 0.950147 -5.15703e-14 1.73108e-14 -1.49984 91.0606 0.0154711 
1.27307 4.58164e-14 1.2549e-14 -1.46617 90.6585 0.0182565 1.60143 -9.25143e-14 -3.70884e-15 
-1.35932 90.1406 0.0200092 1.91111 2.0229e-15 7.04471e-15 -0.044898 92.3698 -0.00790142 
-0.0707178 3.24614e-14 -1.729e-14 -0.101586 92.1644 -0.00751359 -0.128844 2.32913e-14 2.76038e-14 
-0.187694 92.0188 -0.00556349 -0.16577 4.32555e-14 1.95243e-15 -0.297576 91.9167 -0.00406658 
-0.175561 -6.61255e-15 -2.42575e-14 -0.424403 91.8446 -0.00259316 -0.153852 7.37604e-15 7.35436e-15 
-0.561927 91.7891 -0.00111075 -0.0974584 -6.43556e-14 1.19002e-14 -0.703775 91.7377 0.000478196 
-0.00421399 -2.55746e-14 -1.27554e-14 -0.843168 91.6773 0.00224857 0.126967 3.91902e-14 -7.79758e-16 
-0.972622 91.5947 0.00425289 0.295825 -7.80087e-14 -1.09426e-14 -1.08378 91.4763 0.0065018 
0.500289 4.62578e-14 -5.01422e-15 -1.16743 91.3079 0.00894207 0.735839 -1.15802e-13 -2.50494e-15 
-1.21377 91.0757 0.0114299 0.994747 -6.32665e-14 -2.02546e-14 -1.2131 90.767 0.0137094 
1.26532 -2.73222e-14 1.95607e-14 -1.15695 90.3718 0.0153813 1.53132 -4.79942e-14 -1.19054e-14 
-1.0395 89.8853 0.0160396 1.77186 1.64096e-14 1.17267e-15 -0.0389751 92.4202 -0.00674757 
-0.0341297 -2.10862e-14 -3.4436e-14 -0.0885166 92.2006 -0.00659877 -0.0616292 4.18129e-14 3.94554e-14 
-0.163412 92.034 -0.00478456 -0.0746993 -4.44812e-14 -1.47183e-14 -0.258655 91.9062 -0.00334837 
-0.0668292 1.43363e-13 -2.71597e-14 -0.367749 91.8047 -0.00189628 -0.0333129 2.46267e-14 2.01549e-14 
-0.484611 91.7174 -0.000428595 0.0290975 8.80363e-14 -2.15401e-14 -0.603007 91.6327 0.0011188 
0.12234 -4.05316e-14 1.63159e-14 -0.716414 91.5387 0.0027863 0.247014 -1.71451e-14 8.78117e-15 
-0.817861 91.4236 0.00459158 0.402183 4.95414e-14 1.03762e-14 -0.8999 91.2758 0.00651327 
0.585037 7.13521e-14 -6.63532e-15 -0.954732 91.0837 0.00847544 0.790455 1.13659e-13 -1.82493e-15 
-0.974567 90.8367 0.0103318 1.01052 6.14834e-14 -3.22485e-15 -0.952252 90.5256 0.0118588 
1.23412 5.68389e-14 -8.19136e-15 -0.882217 90.1448 0.012743 1.44676 8.08277e-14 7.37604e-15 
-0.761572 89.6932 0.0127136 1.6308 -1.3206e-14 -9.11597e-15 -0.0328592 92.4402 -0.00557155 
-0.00266122 1.77808e-14 1.34788e-15 -0.074974 92.2127 -0.00564301 -0.0037294 -3.38156e-14 -1.34597e-14 
-0.138311 92.031 -0.00400457 0.0036575 2.4292e-14 1.77896e-14 -0.218595 91.8829 -0.00267613 
0.0262527 1.94466e-14 -5.66387e-15 -0.309857 91.7574 -0.00130176 0.068899 4.4861e-14 -2.01558e-14 
-0.406399 91.6437 9.13855e-05 0.134826 4.26922e-14 2.07247e-14 -0.502364 91.5313 0.00153927 
0.225788 4.93307e-14 -5.09141e-16 -0.591707 91.4099 0.00305534 0.34206 5.92606e-14 5.29351e-15 
-0.668147 91.2692 0.00463281 0.482311 1.3199e-14 -3.17281e-15 -0.725229 91.0994 0.00623173 
0.643391 -3.68316e-14 1.62214e-14 -0.756516 90.8913 0.00776911 0.82005 -9.08767e-15 -1.24015e-14 
-0.755954 90.6367 0.00911095 1.00468 8.65799e-14 8.98066e-15 -0.718429 90.3298 0.010074 
1.18716 5.41915e-14 5.25621e-16 -0.640523 89.9675 0.0104217 1.35493 4.50941e-14 -1.12705e-14 
-0.521304 89.5512 0.00998543 1.49336 1.05263e-14 8.9026e-15 -0.0268222 92.4343 -0.00442184 
0.0236162 -9.08845e-14 1.31579e-14 -0.0615627 92.2042 -0.00468799 0.0447092 -1.18904e-14 -2.16112e-14 
-0.113487 92.0127 -0.00324903 0.0691469 1.20699e-14 4.69919e-14 -0.179091 91.8494 -0.00206037 
0.103658 -3.65926e-14 -2.99205e-14 -0.253058 91.7049 -0.000803582 0.15306 -6.27129e-15 2.27596e-14 
-0.330229 91.5699 0.000473713 0.220505 1.23036e-15 -2.16381e-14 -0.405279 91.4354 0.00178517 
0.307603 -4.83338e-14 -1.28135e-14 -0.472777 91.2922 0.00312443 0.414442 9.80404e-14 1.92424e-14 
-0.527218 91.1319 0.00446881 0.539525 -9.33975e-15 -2.12018e-14 -0.563136 90.9463 0.00576948 
0.679649 -4.71379e-15 -2.13883e-14 -0.57533 90.7282 0.00694585 0.829763 1.02946e-14 2.83783e-14 
-0.559198 90.4716 0.00788263 0.982868 -3.13681e-14 -1.63801e-14 -0.511212 90.173 0.00843591 
1.13003 -1.19301e-13 2.28376e-15 -0.429497 89.8311 0.00843258 1.26056 -8.86661e-15 -2.47025e-15 
-0.314383 89.4489 0.00777697 1.36256 6.9833e-14 -2.92301e-15 -0.0210633 92.4068 -0.00333361 
0.0448365 -1.54415e-14 -2.36157e-14 -0.0487276 92.1787 -0.00376496 0.0839116 4.11858e-14 -2.06692e-14 
-0.0897456 91.9819 -0.00253549 0.122099 -1.16838e-13 1.73386e-14 -0.14138 91.8079 -0.00150515 
0.165901 -9.09372e-14 2.4581e-15 -0.199033 91.6492 -0.00039107 0.219985 -6.15317e-15 -3.51975e-15 
-0.258174 91.4977 0.000744969 0.287382 2.75934e-14 4.92835e-15 -0.314105 91.3459 0.0018999 
0.36959 -3.81908e-14 -2.46313e-14 -0.362077 91.1862 0.00305376 0.466616 -2.54285e-14 7.97279e-15 
-0.397376 91.0114 0.0041745 0.57696 -6.32303e-14 -7.58334e-15 -0.415475 90.815 0.00521088 
0.697567 -6.95985e-14 1.68476e-14 -0.412248 90.5916 0.00608965 0.823786 -2.50014e-14 -9.20444e-15 
-0.384284 90.3369 0.00671564 0.949382 -1.01926e-13 6.62057e-15 -0.329256 90.0489 0.00697932 
1.06664 1.95878e-14 5.39239e-15 -0.246369 89.7279 0.00675699 1.16666 -3.251e-14 1.7035e-15 
-0.136726 89.3775 0.00600325 1.23979 -5.02831e-14 -2.59948e-15 -0.015717 92.3621 -0.00233023 
0.0612806 7.32771e-14 -2.11827e-14 -0.0367724 92.1394 -0.00289591 0.114369 7.71241e-14 2.21004e-15 
-0.0676351 91.9412 -0.00187504 0.163191 4.83711e-14 -3.4887e-14 -0.106297 91.7607 -0.00101041 
0.213875 1.11774e-13 4.09603e-14 -0.1489 91.5918 -5.17782e-05 0.270848 3.68791e-14 -1.43722e-14 
-0.191583 91.4282 0.000930445 0.336987 -3.77935e-14 -1.22818e-14 -0.230312 91.2635 0.00192146 
0.413704 6.19464e-14 8.10723e-15 -0.261041 91.0916 0.00289269 0.500996 5.1215e-15 -1.02019e-14 
-0.279825 90.9066 0.00380754 0.597468 1.19544e-13 1.85615e-16 -0.282987 90.7036 0.00461621 
0.700339 1.37222e-14 -1.64955e-14 -0.267325 90.4783 0.00525485 0.805469 2.47491e-14 -4.63605e-15 
-0.230376 90.2282 0.00564704 0.907439 7.1566e-14 1.47833e-14 -0.170714 89.9522 0.00571142 
0.999718 1.2109e-13 1.97151e-15 -0.0882793 89.6515 0.00536139 1.07496 4.98863e-14 1.24267e-14 
0.0153879 89.3301 0.00458487 1.12544 8.47287e-14 -7.95111e-15 -0.0108642 92.3043 -0.00142524 
0.0733252 -9.14134e-15 1.57045e-14 -0.0258822 92.0897 -0.00209499 0.136749 3.77031e-14 -7.37084e-15 
-0.0474887 91.8931 -0.00127381 0.193324 8.83966e-14 -1.82684e-14 -0.0743446 91.7095 -0.000573524 
0.248712 2.14664e-14 1.02401e-14 -0.103317 91.5341 0.000226638 0.307037 1.17724e-13 -3.07913e-16 
-0.131215 91.3621 0.00105231 0.370995 7.03465e-14 2.62637e-15 -0.154672 91.1883 0.00188109 
0.441925 5.24953e-14 -3.75568e-16 -0.170327 91.0079 0.00267969 0.519863 4.16307e-14 1.36011e-14 
-0.174953 90.8164 0.00341019 0.603581 6.9657e-14 8.66668e-15 -0.165631 90.6098 0.00402641 
0.690638 3.87104e-14 -1.6505e-14 -0.139932 90.3854 0.00447412 0.777448 7.78808e-14 2.11775e-14 
-0.0961467 90.1415 0.00469313 0.859396 -5.01921e-15 -1.34198e-14 -0.0335118 89.8779 0.00462419 
0.931034 5.48188e-14 -3.42868e-15 0.0475485 89.5964 0.00420773 0.986371 7.20895e-14 9.61124e-15 
0.145277 89.301 0.00345289 1.01927 5.15317e-14 -1.01481e-14 -0.0065426 92.237 -0.000624348 
0.0814012 -2.3806e-14 -3.30985e-15 -0.0161477 92.0324 -0.00137009 0.15182 -8.30423e-14 8.84969e-15 
-0.0294688 91.84 -0.00073416 0.213532 -7.1926e-15 -8.83755e-15 -0.0457632 91.656 -0.000190523 
0.271678 4.15164e-14 -2.43304e-14 -0.062583 91.4773 0.000455368 0.330039 1.23653e-15 1.79275e-14 
-0.0773814 91.3 0.00112884 0.391114 -9.06993e-14 -2.11038e-14 -0.0874333 91.1203 0.0018032 
0.456175 -7.41391e-17 1.50192e-14 -0.0900213 90.9345 0.00244327 0.525315 -3.92693e-14 8.84015e-15 
-0.0825765 90.7392 0.00301194 0.597509 -2.99785e-14 2.09719e-14 -0.0628374 90.5316 0.00346762 
0.670677 -7.36226e-14 6.06286e-16 -0.0290214 90.3099 0.00376502 0.741781 -1.57786e-14 -9.62598e-15 
0.0199929 90.0731 0.00385732 0.80696 -3.72185e-14 1.32255e-14 0.0844842 89.8218 0.00370205 
0.86173 1.07488e-14 5.35596e-15 0.163718 89.5581 0.00325891 0.901252 -3.14961e-14 -3.36658e-14 
0.255865 89.2857 0.00254988 0.920685 -1.39615e-14 3.17992e-14 -0.00275765 92.1637 7.26225e-05 
0.085961 -2.1743e-14 -9.93389e-15 -0.00758784 91.9703 -0.000724196 0.160393 -8.36386e-14 -9.67108e-16 
-0.0136087 91.7838 -0.00025579 0.224904 -7.35484e-14 -3.96558e-15 -0.0205953 91.6017 0.000143145 
0.284086 -9.74252e-14 -2.77556e-16 -0.0267282 91.4221 0.000643964 0.34136 -8.6775e-14 -1.58935e-14 
-0.0300602 91.2421 0.00117441 0.399018 -7.61111e-14 2.81511e-14 -0.0284633 91.0591 0.00170596 
0.45826 -6.05347e-14 -6.00908e-15 -0.0198118 90.8704 0.00220356 0.519248 -6.28384e-14 1.86309e-14 
-0.00212261 90.6736 0.00263221 0.58116 -8.14551e-14 -1.06816e-14 0.0262969 90.4669 0.00295515 
0.642274 -4.92727e-14 4.34028e-15 0.0666981 90.249 0.00313493 0.700064 -7.18009e-14 -9.09429e-15 
0.119741 90.0199 0.00313537 0.751352 -6.9838e-14 -3.37924e-15 0.185356 89.7804 0.00292647 
0.792489 -1.15153e-13 1.60063e-14 0.262617 89.5328 0.00248138 0.819605 -9.44874e-14 -2.13813e-14 
0.349712 89.2807 0.00182922 0.828901 -3.40379e-14 2.48933e-15 0.000508344 92.0872 0.000670011 
0.0874541 1.5233e-14 -1.36748e-14 -0.000170368 91.9057 -0.000156702 0.163279 -2.40769e-14 3.13204e-15 
0.00015112 91.7264 0.000163475 0.228523 -5.56001e-14 -2.6288e-14 0.00125805 91.5479 0.000432136 
0.287235 8.76415e-15 -9.78211e-15 0.00440711 91.3692 0.000800236 0.342466 1.29299e-14 1.54442e-14 
0.0110014 91.1887 0.00119978 0.396296 -2.46333e-14 -1.94775e-14 0.0226272 91.0045 0.00160222 
0.449851 -3.60888e-14 -1.36497e-14 0.040878 90.8149 0.00197397 0.503352 -5.25174e-15 -7.21125e-15 
0.0672218 90.6183 0.0022828 0.556174 -5.41863e-14 -6.51042e-15 0.102866 90.4136 0.00249663 
0.606921 8.37871e-15 -7.91381e-15 0.148626 90.2004 0.00258465 0.653536 -1.50251e-14 9.82547e-15 
0.204802 89.9789 0.00251896 0.693437 -4.89656e-14 -9.30419e-15 0.271072 89.7505 0.00227864 
0.72369 -4.86197e-14 1.25898e-14 0.346404 89.5175 0.001846 0.741224 -2.40578e-14 -6.72639e-15 
0.429049 89.2832 0.00125364 0.743079 -5.12619e-14 6.77323e-15 0.00328828 92.0102 0.00117488 
0.0863106 6.42884e-14 7.75508e-15 0.00617144 91.8408 0.000335496 0.161256 7.10831e-14 2.43807e-14 
0.011932 91.6693 0.000526998 0.225435 5.27555e-14 -4.96304e-14 0.0199897 91.4956 0.000680928 
0.282367 -8.28005e-15 -9.26342e-16 0.0311075 91.3194 0.000930368 0.334743 5.43737e-14 8.36137e-16 
0.0462058 91.1399 0.00121273 0.384426 -8.44512e-15 -1.85962e-15 0.0663887 90.956 0.00150062 
0.432462 4.20588e-14 -5.88592e-15 0.0927799 90.7669 0.00176274 0.479121 8.60432e-14 3.58481e-15 
0.126401 90.5718 0.00196996 0.52395 4.23661e-14 -2.34673e-14 0.168048 90.3701 0.00209448 
0.565846 3.08611e-14 4.30038e-15 0.218179 90.1619 0.00211098 0.603161 3.08721e-14 8.31713e-15 
0.276815 89.948 0.00199791 0.633827 4.29856e-14 -6.38378e-15 0.343453 89.7298 0.00174081 
0.655509 2.71289e-15 -6.51736e-15 0.417008 89.5097 0.00132814 0.665792 -7.5506e-15 -9.67108e-16 
0.495818 89.2907 0.000793657 0.662387 5.1608e-15 -2.84972e-15 0.005624 91.9349 0.00159587 
0.08293 -5.77455e-14 -1.76968e-14 0.0115248 91.7773 0.000757114 0.155052 -1.58185e-14 2.78172e-14 
0.0218921 91.6141 0.000838832 0.216615 -2.86301e-14 -2.08054e-14 0.0358483 91.4459 0.000893679 
0.270642 -8.02524e-14 2.51622e-14 0.0537307 91.2731 0.00103913 0.319473 -3.13369e-14 1.88599e-14 
0.0760398 91.0956 0.00121856 0.364757 -1.94925e-14 -2.60677e-14 0.103458 90.9133 0.0014065 
0.407454 -4.03231e-14 2.50581e-14 0.136701 90.7258 0.00157434 0.447866 -4.22032e-14 -4.95003e-15 
0.176408 90.533 0.00169608 0.485684 -4.05604e-14 7.70391e-15 0.223028 90.3348 0.00174776 
0.52006 -8.38351e-14 -3.23266e-15 0.276731 90.1318 0.00170849 0.549694 -2.34154e-14 -8.0682e-15 
0.337317 89.925 0.00156155 0.572951 -1.0062e-14 5.2779e-15 0.404154 89.7161 0.001297 
0.587994 -5.83424e-14 1.07202e-14 0.476135 89.5073 0.000907354 0.592943 -2.04246e-14 -2.46157e-15 
0.551698 89.3016 0.000426088 0.586038 -3.35023e-14 -1.60549e-15 0.0075614 91.8632 0.00194224 
0.0776755 -1.03262e-14 1.47872e-14 0.0159866 91.7169 0.00111376 0.145331 -6.47596e-14 -1.10346e-14 
0.0302077 91.5619 0.00110333 0.202959 -4.38712e-14 2.47614e-14 0.049109 91.3995 0.00107415 
0.253121 -2.05797e-14 1.28057e-14 0.072668 91.2307 0.00113015 0.297823 9.90527e-15 -1.20173e-14 
0.101026 91.0561 0.00122076 0.338507 -3.04946e-14 3.25148e-14 0.134502 90.8761 0.00132282 
0.376038 -5.29507e-14 -2.04706e-14 0.173465 90.6908 0.00141058 0.410733 -3.12042e-14 5.90847e-15 
0.218227 90.5008 0.00146101 0.442401 -3.59989e-14 -5.33861e-15 0.268951 90.3063 0.00145349 
0.470403 -4.60634e-15 9.80552e-15 0.32557 90.1084 0.00137071 0.493733 -4.08853e-14 1.96501e-15 
0.387712 89.9082 0.00119955 0.511115 -4.61307e-14 -6.03467e-15 0.454653 89.7076 0.000933239 
0.521122 -5.18541e-14 -1.36731e-14 0.525286 89.5087 0.000566824 0.522301 -5.48706e-14 1.01121e-14 
0.598144 89.3144 0.000132773 0.513316 -5.048e-14 5.26922e-15 0.00914677 91.7968 0.00222329 
0.070872 -9.13529e-14 2.12452e-14 0.0196556 91.6608 0.00141138 0.132691 -1.15389e-13 -2.46088e-14 
0.0370578 91.5136 0.00132486 0.185275 -8.78596e-14 3.37907e-14 0.0600512 91.357 0.00122568 
0.230761 -8.19707e-14 -1.27814e-14 0.0883138 91.1925 0.00120612 0.270845 -1.38287e-13 -1.37728e-14 
0.121684 91.0212 0.00122142 0.306764 -1.01776e-13 -4.52416e-15 0.160178 90.8439 0.00125085 
0.339285 -8.6663e-14 1.16205e-14 0.203866 90.6613 0.00127147 0.368724 -9.67986e-14 4.47298e-15 
0.252791 90.4743 0.00126299 0.394977 -8.5748e-14 9.24521e-15 0.306879 90.2836 0.00120761 
0.417578 -1.16143e-13 -9.31286e-15 0.36587 90.0905 0.00109089 0.435758 -7.48459e-14 -4.24227e-15 
0.429259 89.8963 0.000902399 0.44854 -1.18918e-13 -9.09906e-15 0.496257 89.7029 0.000637526 
0.454826 -5.89732e-14 1.13256e-14 0.565764 89.5125 0.000292872 0.453509 -9.40834e-14 -2.33268e-14 
0.636402 89.3278 -0.000100466 0.443582 -4.67677e-14 -6.01385e-15 0.0104243 91.7369 0.00244779 
0.0628062 -5.8437e-14 -1.61533e-14 0.0226266 91.6102 0.00165583 0.117661 -5.41134e-14 2.15201e-14 
0.0426145 91.4703 0.00150759 0.164282 -1.09138e-13 1.14557e-14 0.068943 91.3192 0.0013512 
0.204418 -3.80917e-14 -1.34879e-14 0.101045 91.1589 0.00126903 0.239476 -8.06414e-14 8.89913e-15 
0.13851 90.991 0.00122168 0.270497 -4.61868e-14 1.12007e-14 0.1811 90.8165 0.00119079 
0.298142 -8.31131e-14 -1.41684e-15 0.228643 90.6368 0.00115598 0.322713 -5.55474e-14 -8.30889e-15 
0.280956 90.4527 0.00109941 0.344168 -9.76204e-14 5.3269e-15 0.337773 90.2657 0.00100567 
0.362175 -6.72294e-14 4.50725e-15 0.39868 90.0769 0.000862557 0.376162 -9.21217e-14 5.33037e-15 
0.463067 89.888 0.000661646 0.385388 -4.1524e-14 8.42338e-15 0.530097 89.7009 0.000399776 
0.389023 -8.49459e-14 1.68828e-14 0.598686 89.5177 7.44644e-05 0.386235 -8.7594e-14 -2.72907e-14 
0.667534 89.341 -0.000284664 0.376275 -1.09299e-13 -4.64993e-15 0.0114341 91.6845 0.00262371 
0.0537291 1.03285e-13 1.10818e-14 0.024986 91.5659 0.00185261 0.10071 9.15474e-14 1.62747e-14 
0.0470353 91.4324 0.00165533 0.140619 1.31486e-13 4.11997e-16 0.0760293 91.2864 0.00145322 
0.174853 9.95499e-14 -1.76929e-14 0.111205 91.1301 0.00132036 0.20455 9.84838e-14 3.49803e-14 
0.151952 90.9654 0.00122207 0.230561 1.32414e-13 -3.08217e-14 0.197825 90.7937 0.00114213 
0.253443 1.15266e-13 -3.50458e-15 0.248456 90.6167 0.00106247 0.273465 1.16257e-13 1.5204e-14 
0.30348 90.4355 0.000967337 0.290628 1.53157e-13 -1.0044e-14 0.362476 90.2517 0.000843253 
0.304702 1.14013e-13 1.0404e-15 0.424908 90.0668 0.000679794 0.315269 1.24628e-13 7.53521e-15 
0.490087 89.8824 0.000469989 0.321782 9.81491e-14 -1.63788e-14 0.55714 89.7006 0.000211649 
0.323625 1.01908e-13 -7.54518e-15 0.625 89.5234 -9.72109e-05 0.320182 1.05783e-13 7.35176e-15 
0.692432 89.3532 -0.000428359 0.310906 1.23137e-13 -1.18052e-14 0.0122112 91.6406 0.00275798 
0.0438599 1.65908e-13 2.09624e-14 0.0268099 91.5288 0.00200659 0.0822487 1.54505e-13 -1.86752e-14 
0.0504582 91.4008 0.00177145 0.114849 1.5709e-13 3.04366e-14 0.081525 91.2591 0.00153384 
0.14274 1.42485e-13 -1.85494e-14 0.119095 91.1063 0.00136117 0.166806 1.78388e-13 -2.27422e-15 
0.162401 90.9444 0.0012227 0.18772 1.67596e-13 9.97943e-15 0.210836 90.7754 0.00110406 
0.205927 1.37385e-13 -1.31245e-14 0.263875 90.6007 0.000989128 0.221655 1.58349e-13 3.88361e-15 
0.321013 90.4221 0.00086385 0.234929 1.31761e-13 -1.49108e-14 0.381706 90.2411 0.000716317 
0.245595 1.56909e-13 5.80655e-15 0.445326 90.0594 0.000537445 0.253358 1.63488e-13 -8.47412e-15 
0.51112 89.8788 0.00032132 0.257823 1.59306e-13 2.77382e-15 0.578193 89.7012 6.6389e-05 
0.258546 1.43489e-13 -1.5704e-14 0.645491 89.5289 -0.000229087 0.255086 1.579e-13 3.8667e-15 
0.711832 89.3639 -0.000538096 0.247053 1.52359e-13 1.12896e-14 0.012785 91.6059 0.00285636 
0.0333906 4.19562e-14 -1.11283e-15 0.0281617 91.4994 0.00212193 0.0626386 4.78179e-14 1.3059e-14 
0.0529987 91.3757 0.00185877 0.0874728 3.5039e-14 8.38609e-15 0.0856098 91.2375 0.00159478 
0.108679 4.66555e-14 1.64513e-14 0.124967 91.0876 0.00139222 0.126906 4.83785e-14 -8.92559e-15 
0.170185 90.9282 0.00122347 0.142651 4.23647e-14 1.70597e-14 0.220534 90.7612 0.00107565 
0.156251 5.80774e-14 -1.49551e-14 0.275374 90.5886 0.000934176 0.167883 3.39831e-14 9.64376e-15 
0.334092 90.412 0.000786323 0.177578 4.59981e-14 1.7254e-14 0.396053 90.2333 0.00062137 
0.18524 4.73064e-14 7.21471e-15 0.460559 90.0542 0.000431221 0.190668 3.89944e-14 -6.84218e-15 
0.526814 89.8765 0.000210707 0.193594 5.86167e-14 -1.85268e-15 0.593904 89.7023 -4.13203e-05 
0.193711 4.16872e-14 3.38449e-14 0.660787 89.5336 -0.000326497 0.190716 4.87665e-14 -5.83041e-15 
0.726324 89.3727 -0.000618797 0.184345 5.28375e-14 3.97252e-16 0.0131783 91.5807 0.00292338 
0.0224907 4.4242e-15 -7.76072e-15 0.0290912 91.4781 0.00220192 0.0422023 3.08504e-15 5.6526e-15 
0.0547477 91.3575 0.00191952 0.0589381 -1.6276e-15 -1.1012e-14 0.0884253 91.222 0.00163736 
0.0732107 3.44635e-15 3.61868e-14 0.129018 91.0742 0.00141405 0.0854455 2.55511e-15 4.73276e-15 
0.175559 90.9165 0.00122422 0.0959709 1.14776e-15 1.07397e-14 0.227235 90.7512 0.00105605 
0.105012 1.23033e-15 2.93992e-15 0.283322 90.5801 0.000896097 0.112689 2.3591e-15 -5.18812e-15 
0.343135 90.4051 0.000732578 0.119031 -1.2216e-14 4.56189e-15 0.405975 90.228 0.000555605 
0.123981 7.61316e-15 -6.25498e-15 0.471095 90.0508 0.000357759 0.127416 -8.6953e-16 -6.59195e-15 
0.53767 89.8752 0.000134365 0.129169 -1.05618e-14 2.3267e-15 0.604773 89.7034 -0.000115481 
0.129048 3.49341e-15 4.2002e-15 0.671372 89.5373 -0.000393385 0.126866 -7.7933e-15 -2.85319e-15 
0.736357 89.3792 -0.000674038 0.122458 -6.11268e-15 -9.04572e-15 0.0134077 91.5654 0.00296229 
0.0113134 -1.33099e-13 1.72982e-14 0.0296345 91.4652 0.00224894 0.0212321 -1.32487e-13 -2.22743e-14 
0.0557708 91.3465 0.00195532 0.0296533 -1.34848e-13 -1.70927e-14 0.0900736 91.2126 0.00166254 
0.0368297 -1.36915e-13 5.20851e-16 0.131392 91.0661 0.00142701 0.0429719 -1.35762e-13 9.73006e-15 
0.178709 90.9096 0.00122475 0.0482432 -1.37629e-13 -3.2458e-14 0.231165 90.7452 0.00104459 
0.0527559 -1.27198e-13 2.83211e-14 0.287985 90.575 0.000873732 0.0565721 -1.40103e-13 -3.74614e-15 
0.348441 90.401 0.000700996 0.059707 -1.2681e-13 7.05729e-15 0.411797 90.225 0.000516975 
0.062135 -1.35067e-13 5.77143e-15 0.477279 90.0488 0.000314648 0.0637981 -1.3647e-13 1.21656e-14 
0.544042 89.8746 8.96199e-05 0.064616 -1.28578e-13 -6.77279e-15 0.611154 89.7042 -0.000158883 
0.0644972 -1.32628e-13 5.35249e-15 0.677588 89.5396 -0.000432462 0.0633509 -1.35399e-13 1.57396e-14 
0.742251 89.3831 -0.000706247 0.0610995 -1.36706e-13 7.27803e-15 0.861656 89.1023 -0.00131166 
0.0530778 -1.25111e-13 8.50535e-15 0.856755 89.0949 -0.00129983 0.106534 7.59803e-15 -2.30718e-15 
0.848426 89.0825 -0.00127937 0.160765 3.63254e-14 -4.74837e-15 0.836423 89.0654 -0.00124913 
0.216198 8.65293e-14 -2.34491e-15 0.820397 89.0436 -0.00120727 0.273314 1.865e-14 5.56846e-16 
0.799895 89.0172 -0.00115117 0.332663 2.93019e-14 -1.41627e-14 0.77435 88.9866 -0.00107711 
0.394889 7.79437e-14 -1.04474e-15 0.743073 88.9519 -0.000979858 0.460746 -3.1078e-14 -1.3373e-14 
0.705238 88.9137 -0.000852132 0.531128 -4.04433e-14 4.61697e-15 0.659871 88.8723 -0.000683773 
0.607096 8.10159e-15 7.25982e-16 0.605817 88.8286 -0.000460623 0.689903 3.42443e-14 1.14665e-15 
0.541712 88.7833 -0.000162926 0.781028 -4.86135e-14 2.20865e-14 0.465936 88.7378 0.000236897 
0.882201 7.50463e-14 -1.04612e-14 0.376551 88.6936 0.000777363 0.995438 -2.60573e-14 2.43382e-15 
0.271218 88.653 0.00151223 1.12305 -1.26791e-14 -2.65543e-14 0.147086 88.619 0.00251643 
1.26766 -5.23115e-14 1.81279e-16 0.000646496 88.5956 0.00389411 1.43214 -3.2873e-16 -8.91735e-15 
-0.172453 88.5886 0.00578928 1.61959 8.94415e-14 -1.90178e-14 -0.377642 88.6057 0.00839939 
1.83308 -4.80562e-14 -5.69336e-15 -0.621704 88.6577 0.0119914 2.07539 9.34166e-14 -1.46116e-14 
-0.913074 88.7592 0.0169181 2.34835 -1.01816e-13 8.19483e-15 -1.26211 88.9303 0.0236253 
2.65183 -9.482e-15 -1.9448e-14 -1.68113 89.1982 0.0326481 2.98203 -1.20422e-13 1.61676e-15 
-2.18411 89.5988 0.0444535 3.3287 5.19732e-14 8.63892e-15 -2.78474 90.1786 0.0596835 
3.67102 3.79408e-14 -2.09555e-14 -3.49408 90.9918 0.0754775 3.97116 8.27177e-14 2.49106e-15 
-4.30209 92.1061 0.102237 4.17059 1.25844e-13 1.35725e-14 -5.23868 93.4436 0.0228876 
4.15941 -2.82743e-14 -2.29677e-15 0.913948 88.9823 -0.00161798 0.0473004 -1.24232e-13 7.78327e-15 
0.909639 88.9732 -0.00161834 0.0949954 -2.82055e-15 -1.03843e-14 0.902325 88.9581 -0.00161879 
0.143497 3.48624e-14 2.45203e-14 0.891804 88.9368 -0.00161906 0.193254 8.53031e-14 -2.104e-15 
0.877792 88.9095 -0.00161866 0.244768 -1.43282e-14 -3.91332e-15 0.859922 88.8762 -0.00161674 
0.29862 1.06652e-13 1.18087e-14 0.837734 88.8368 -0.00161192 0.355488 2.46142e-14 8.82541e-16 
0.810676 88.7914 -0.00160193 0.416179 -1.45817e-14 2.96625e-14 0.778087 88.74 -0.00158322 
0.481654 -4.77261e-14 -1.47321e-15 0.739189 88.6828 -0.00155026 0.553067 2.61722e-14 2.06506e-14 
0.693063 88.6199 -0.00149458 0.631805 4.89916e-14 -2.21424e-14 0.638623 88.5516 -0.00140335 
0.719534 -6.7708e-14 -1.00753e-14 0.574566 88.4782 -0.00125729 0.818253 1.16384e-13 2.1737e-14 
0.499322 88.4005 -0.0010276 0.930355 -9.94257e-15 -1.91253e-15 0.410959 88.3194 -0.000671469 
1.0587 1.40124e-13 -1.35655e-15 0.307073 88.2364 -0.000125488 1.20667 -7.19355e-14 -7.78891e-16 
0.184614 88.154 0.000704041 1.37828 5.6094e-14 1.95503e-14 0.039666 88.0758 0.00195526 
1.57819 7.80539e-14 4.91881e-15 -0.13287 88.007 0.00383133 1.81176 -5.67974e-14 8.25034e-15 
-0.339688 87.9558 0.00662968 2.08497 1.0621e-13 1.81539e-14 -0.589622 87.934 0.0107833 
2.40422 -2.94799e-14 -3.62731e-15 -0.89433 87.9593 0.0169092 2.77576 6.79318e-14 8.26075e-15 
-1.26908 88.0577 0.0258896 3.20461 2.124e-14 1.19731e-14 -1.73358 88.2666 0.0387592 
3.69231 -4.41487e-14 5.27356e-15 -2.31193 88.6399 0.0574508 4.2329 -2.47224e-14 1.32498e-14 
-3.03411 89.2477 0.0791378 4.80572 5.34555e-15 1.75138e-14 -3.917 90.1949 0.124515 
5.36023 -7.99274e-15 -2.17187e-15 -5.02202 91.5135 0.0675741 5.79229 4.23923e-14 -7.12624e-15 
0.95965 88.8789 -0.00188254 0.040424 -1.20514e-13 -7.14489e-15 0.955932 88.8682 -0.00189493 
0.0812267 6.0338e-15 7.63712e-16 0.949633 88.8504 -0.00191605 0.122804 2.59421e-14 3.04531e-15 
0.940597 88.8254 -0.00194661 0.165587 8.69493e-14 2.22847e-15 0.928605 88.7931 -0.00198758 
0.21006 -1.4396e-15 -8.03893e-15 0.913377 88.7532 -0.00204009 0.256786 3.81763e-14 -9.13982e-15 
0.89457 88.7056 -0.0021054 0.306423 9.42371e-14 5.69206e-16 0.871772 88.6501 -0.00218473 
0.359761 -3.14111e-14 -1.71189e-14 0.844502 88.5863 -0.00227902 0.417748 -1.26505e-14 4.24443e-15 
0.812199 88.514 -0.00238855 0.481532 -2.82591e-14 -1.72718e-14 0.774211 88.4326 -0.00251237 
0.552509 3.33401e-14 7.58031e-15 0.72977 88.3418 -0.00264733 0.632379 3.88491e-14 2.82088e-14 
0.677968 88.2411 -0.00278663 0.723219 3.95343e-15 -2.08102e-14 0.6177 88.1299 -0.00291759 
0.827565 -4.7011e-16 -8.29805e-15 0.547599 88.0079 -0.0030181 0.948528 7.53564e-15 1.00718e-14 
0.465929 87.8748 -0.00305114 1.08991 -6.05453e-14 -9.15327e-15 0.370434 87.7307 -0.00295616 
1.2564 5.68469e-15 -1.25585e-14 0.258116 87.5762 -0.0026356 1.4537 1.56037e-13 1.4517e-14 
0.124918 87.413 -0.00193349 1.68883 2.46088e-14 -6.38031e-15 -0.0347325 87.2446 -0.000601854 
1.97033 -2.60555e-15 -5.10009e-15 -0.228573 87.0772 0.00175282 2.30851 -2.62793e-14 -5.8651e-15 
-0.467428 86.9215 0.00574987 2.71558 -7.66782e-14 -4.30905e-15 -0.766471 86.7958 0.0123777 
3.20555 -1.19035e-13 -9.08995e-16 -1.147 86.7296 0.0230686 3.79344 5.93883e-14 -1.01134e-14 
-1.6382 86.7713 0.0406477 4.49289 3.4122e-14 -9.04832e-15 -2.28189 86.9939 0.0651482 
5.31029 -5.08413e-14 -1.87975e-14 -3.11714 87.5347 0.123805 6.23213 4.36023e-14 1.91513e-15 
-4.28058 88.4748 0.0880433 7.20177 1.45717e-15 1.31423e-14 0.997665 88.7938 -0.00211462 
0.0325649 -1.22553e-13 -2.88224e-15 0.994491 88.7818 -0.00213813 0.0654619 -7.63604e-16 -6.08693e-15 
0.989125 88.7617 -0.0021784 0.0990386 1.28375e-14 1.32173e-14 0.981455 88.7334 -0.00223712 
0.133674 9.65688e-14 -1.99541e-14 0.971323 88.6966 -0.00231668 0.169795 -2.30393e-15 -2.02887e-14 
0.958534 88.651 -0.00242022 0.207898 6.25292e-14 1.36328e-15 0.942852 88.5962 -0.00255171 
0.248568 6.4661e-14 -9.59194e-15 0.924003 88.5318 -0.00271597 0.292508 -1.56377e-14 1.81407e-14 
0.901679 88.457 -0.00291872 0.340567 -3.57487e-14 -1.08464e-14 0.875535 88.3711 -0.00316656 
0.393783 4.99995e-14 3.31811e-14 0.845186 88.2731 -0.00346691 0.453427 4.00699e-14 -8.76035e-16 
0.810198 88.162 -0.00382781 0.521064 -1.0637e-13 -1.97863e-14 0.77007 88.0362 -0.00425748 
0.598628 9.91993e-14 2.60135e-14 0.724211 87.8942 -0.00476345 0.688522 -2.18194e-14 9.10123e-15 
0.671891 87.7341 -0.00535111 0.793738 1.39816e-13 3.52756e-15 0.612169 87.5535 -0.00602092 
0.918027 -9.54254e-14 -1.58979e-14 0.543787 87.3501 -0.00676373 1.06611 8.00748e-14 2.08809e-14 
0.464995 87.1211 -0.0075525 1.24395 5.00502e-14 2.19963e-15 0.373298 86.8636 -0.00832789 
1.45914 1.52968e-14 -1.4445e-14 0.265066 86.5752 -0.00897325 1.72138 1.034e-13 -2.16147e-14 
0.134944 86.254 -0.00926963 2.04313 -5.93883e-14 -5.63091e-15 -0.0250505 85.9 -0.00882023 
2.44037 6.7342e-14 1.60306e-14 -0.226877 85.5173 -0.00688707 2.93358 -4.42944e-14 -5.96745e-15 
-0.488607 85.1168 -0.00224571 3.54873 8.3912e-14 2.38629e-14 -0.837227 84.7241 0.00802835 
4.31788 -1.02817e-13 -8.79158e-15 -1.31532 84.3879 0.025363 5.27855 3.16275e-14 1.66533e-15 
-1.97639 84.2204 0.0764931 6.46866 -1.81175e-14 2.01922e-15 -2.97375 84.3187 0.0594959 
7.91797 1.49873e-13 1.30174e-14 1.02706 88.7285 -0.00229945 0.0238853 -1.26625e-13 -1.79091e-14 
1.02434 88.7154 -0.00233223 0.0480292 5.45549e-15 2.1045e-14 1.01975 88.6935 -0.00238852 
0.0727027 1.77818e-14 6.51063e-16 1.01322 88.6626 -0.00247081 0.0982012 9.89443e-14 -3.88014e-15 
1.00463 88.6222 -0.00258278 0.124859 1.88137e-14 2.1137e-14 0.993877 88.572 -0.00272936 
0.153064 5.204e-14 1.64926e-14 0.980804 88.5114 -0.00291692 0.183276 9.87882e-14 1.27025e-14 
0.965259 88.4398 -0.00315358 0.216049 -2.83289e-14 -1.98782e-14 0.947085 88.356 -0.00344944 
0.252057 -6.93976e-15 -8.55652e-15 0.926126 88.2591 -0.00381701 0.292123 3.39303e-14 -1.21435e-14 
0.902233 88.1475 -0.00427171 0.337268 6.63974e-14 1.14524e-14 0.875272 88.0195 -0.00483243 
0.388753 -3.36944e-14 -5.717e-15 0.845121 87.873 -0.00552235 0.448153 6.58675e-14 -1.50554e-14 
0.811667 87.7052 -0.0063697 0.517447 1.53818e-14 2.39956e-14 0.774791 87.5128 -0.00740889 
0.599127 2.65734e-14 -1.97841e-14 0.734337 87.2917 -0.00868144 0.696365 2.33095e-14 -3.90486e-15 
0.690063 87.0371 -0.010237 0.813221 2.12122e-14 3.32243e-15 0.641545 86.7428 -0.0121334 
0.954939 6.57772e-14 8.94857e-15 0.588025 86.4015 -0.0144358 1.12835 -7.3358e-14 4.90406e-15 
0.528167 86.0042 -0.0172107 1.34246 -3.75394e-14 -1.40504e-14 0.459651 85.5404 -0.0205124 
1.60922 2.11255e-14 -2.17881e-15 0.378517 84.9973 -0.0243508 1.9447 -7.99673e-14 -1.04951e-14 
0.278093 84.3609 -0.0286075 2.3707 3.22416e-14 -2.668e-15 0.147178 83.6159 -0.0329139 
2.91708 3.64465e-14 1.80793e-14 -0.0327993 82.7496 -0.0359473 3.62499 1.55466e-13 -6.72032e-15 
-0.294069 81.7558 -0.0366262 4.5516 5.57887e-14 -1.67921e-15 -0.685179 80.6594 -0.0202181 
5.77463 1.96856e-14 -2.31759e-15 -1.32251 79.4948 -0.0292436 7.40501 4.4284e-14 -2.32731e-14 
1.04709 88.6843 -0.00242832 0.0145877 -1.24061e-13 -4.55804e-15 1.0447 88.6705 -0.00246778 
0.0293395 5.878e-15 -1.45738e-15 1.04066 88.6473 -0.00253557 0.0444275 3.57568e-14 2.37982e-16 
1.03494 88.6145 -0.00263485 0.0600394 1.03842e-13 8.28688e-15 1.02747 88.5716 -0.00277022 
0.0763876 -1.92565e-14 -9.12681e-16 1.01817 88.5182 -0.00294794 0.0937196 7.84759e-14 1.10422e-14 
1.00697 88.4536 -0.00317623 0.112329 8.08359e-14 -2.58285e-14 0.993802 88.3768 -0.00346569 
0.13257 -5.72806e-15 -5.21837e-15 0.978618 88.2867 -0.00382979 0.154874 -1.10684e-14 5.17587e-15 
0.961403 88.182 -0.00428563 0.179774 2.28398e-14 2.85731e-15 0.942188 88.0607 -0.00485487 
0.207926 1.2837e-14 1.93465e-15 0.921062 87.9208 -0.00556508 0.240153 -5.07953e-14 -2.77404e-15 
0.898195 87.7593 -0.00645145 0.277483 1.12198e-13 -8.91214e-17 0.873843 87.5728 -0.00755923 
0.321217 -4.63258e-14 1.31453e-14 0.848369 87.357 -0.00894704 0.37301 8.48696e-14 -1.91644e-15 
0.822248 87.1064 -0.0106915 0.434983 -3.08538e-14 -1.35005e-15 0.796064 86.8141 -0.0128936 
0.509886 2.89439e-14 2.03136e-15 0.770501 86.4712 -0.015688 0.60131 1.50388e-13 9.45815e-15 
0.746292 86.0668 -0.0192555 0.714012 -5.23019e-14 7.54561e-15 0.72413 85.5866 -0.0238414 
0.854361 -2.96291e-15 -5.47305e-16 0.704488 85.0121 -0.0297808 1.03101 7.67338e-14 3.30257e-14 
0.68728 84.3196 -0.0375326 1.25588 -4.5363e-14 -3.27152e-14 0.671244 83.4776 -0.0477288 
1.54568 -2.51743e-14 -1.06859e-15 0.652823 82.4449 -0.0612026 1.92429 1.19002e-14 -1.57842e-14 
0.623952 81.1666 -0.0792012 2.42643 5.43315e-15 1.43982e-14 0.568602 79.5708 -0.102404 
3.10414 1.0579e-13 8.27463e-15 0.45249 77.559 -0.136615 4.03552 1.11022e-16 -1.20737e-15 
0.227233 75.0319 -0.154454 5.35015 4.0315e-14 1.86309e-14 1.05724 88.662 -0.00249449 
0.00490599 -1.19487e-13 -3.63879e-14 1.05501 88.6478 -0.00253742 0.00986824 -3.19298e-15 9.59313e-15 
1.05127 88.6239 -0.00261124 0.0149457 1.95516e-14 9.22266e-15 1.04597 88.5902 -0.0027194 
0.0202027 8.36137e-14 1.89558e-14 1.03908 88.546 -0.00286703 0.0257122 2.11502e-14 3.48688e-15 
1.03054 88.491 -0.0030611 0.0315591 4.60261e-14 -5.77004e-15 1.02032 88.4242 -0.00331082 
0.0378443 6.5465e-14 4.77556e-15 1.0084 88.3448 -0.00362812 0.0446896 -2.59905e-14 -7.92926e-15 
0.994777 88.2515 -0.00402831 0.052244 -5.49231e-14 -1.24204e-14 0.979524 88.1426 -0.00453098 
0.0606909 4.14855e-14 -2.08615e-14 0.962764 88.0164 -0.00516125 0.0702579 2.73956e-14 4.11661e-15 
0.94471 87.8702 -0.00595147 0.0812297 -8.29146e-14 2.11801e-14 0.925684 87.7009 -0.00694355 
0.0939642 1.31293e-14 -9.89432e-15 0.906149 87.5047 -0.00819231 0.108915 1.50574e-14 1.14925e-15 
0.886731 87.2766 -0.00977017 0.126662 3.37213e-14 1.21843e-14 0.868254 87.0104 -0.0117739 
0.147951 -1.15082e-14 -2.62907e-14 0.85177 86.698 -0.0143347 0.173754 5.72441e-14 1.02645e-14 
0.838589 86.3292 -0.0176324 0.205351 2.80366e-14 -1.85279e-15 0.830306 85.8909 -0.021918 
0.244444 7.5738e-15 -2.67173e-14 0.828803 85.3657 -0.027547 0.293336 -9.20791e-15 -1.2232e-15 
0.836219 84.7307 -0.0350328 0.355184 -1.17066e-13 -3.43651e-14 0.854836 83.9553 -0.045129 
0.434394 1.21025e-13 3.68022e-14 0.886795 82.9978 -0.0589852 0.537235 -3.92707e-14 -1.28235e-14 
0.933519 81.8004 -0.0782995 0.672826 -2.51049e-14 -2.30935e-14 0.99415 80.2807 -0.106301 
0.854773 6.6544e-15 -3.20664e-15 1.06448 78.3208 -0.145215 1.10409 -9.71098e-14 -3.4835e-14 
1.12135 75.7305 -0.21791 1.45363 1.30645e-13 -1.05818e-15 1.16936 72.294 -0.248787 
1.96123 3.71786e-14 1.64938e-14 1.05724 88.662 -0.00249449 -0.00490599 -1.26641e-13 2.21706e-14 
1.05501 88.6478 -0.00253742 -0.00986824 3.62449e-15 -5.99211e-15 1.05127 88.6239 -0.00261124 
-0.0149457 1.98255e-14 -2.08559e-14 1.04597 88.5902 -0.0027194 -0.0202027 9.50175e-14 -6.18109e-15 
1.03908 88.546 -0.00286703 -0.0257122 1.50273e-14 2.65981e-14 1.03054 88.491 -0.0030611 
-0.0315591 7.48707e-14 -9.17891e-15 1.02032 88.4242 -0.00331082 -0.0378443 7.29694e-14 -2.0872e-14 
1.0084 88.3448 -0.00362812 -0.0446896 -3.30226e-14 -3.61796e-15 0.994777 88.2515 -0.00402831 
-0.052244 -5.34763e-14 8.95036e-15 0.979524 88.1426 -0.00453098 -0.0606909 4.9565e-14 -1.56132e-14 
0.962764 88.0164 -0.00516125 -0.0702579 2.64866e-14 -1.29351e-15 0.94471 87.8702 -0.00595147 
-0.0812297 -1.07398e-13 -3.17146e-14 0.925684 87.7009 -0.00694355 -0.0939642 9.76051e-14 4.60944e-14 
0.906149 87.5047 -0.00819231 -0.108915 -6.99267e-14 -2.4081e-14 0.886731 87.2766 -0.00977017 
-0.126662 6.45369e-14 -2.92594e-14 0.868254 87.0104 -0.0117739 -0.147951 1.16938e-14 3.39766e-14 
0.85177 86.698 -0.0143347 -0.173754 3.88786e-14 -2.49401e-14 0.838589 86.3292 -0.0176324 
-0.205351 4.6756e-14 1.88175e-14 0.830306 85.8909 -0.021918 -0.244444 3.31853e-14 1.16309e-14 
0.828803 85.3657 -0.027547 -0.293336 8.02657e-14 -9.9469e-15 0.836219 84.7307 -0.0350328 
-0.355184 -6.67036e-14 -1.21548e-14 0.854836 83.9553 -0.045129 -0.434394 1.67158e-14 -5.75061e-16 
0.886795 82.9978 -0.0589852 -0.537235 8.60423e-15 -9.11467e-15 0.933519 81.8004 -0.0782995 
-0.672826 -1.42136e-13 5.85903e-15 0.99415 80.2807 -0.106301 -0.854773 -1.02279e-14 2.1854e-14 
1.06448 78.3208 -0.145215 -1.10409 -1.51684e-14 -5.00988e-15 1.12135 75.7305 -0.21791 
-1.45363 -1.07095e-13 -2.62047e-14 1.16936 72.294 -0.248787 -1.96123 4.8489e-14 7.57727e-15 
1.04709 88.6843 -0.00242832 -0.0145877 -1.24376e-13 -1.20752e-14 1.0447 88.6705 -0.00246778 
-0.0293395 5.59123e-16 -1.68051e-15 1.04066 88.6473 -0.00253557 -0.0444275 2.59146e-14 1.6353e-15 
1.03494 88.6145 -0.00263485 -0.0600394 9.12358e-14 -2.74562e-14 1.02747 88.5716 -0.00277022 
-0.0763876 -8.64586e-15 5.55502e-15 1.01817 88.5182 -0.00294794 -0.0937196 4.19879e-14 9.78785e-15 
1.00697 88.4536 -0.00317623 -0.112329 9.9809e-14 2.33793e-14 0.993802 88.3768 -0.00346569 
-0.13257 -3.7637e-14 -2.35794e-14 0.978618 88.2867 -0.00382979 -0.154874 -3.35678e-14 -1.02839e-14 
0.961403 88.182 -0.00428563 -0.179774 7.43316e-14 2.37376e-14 0.942188 88.0607 -0.00485487 
-0.207926 1.97429e-14 2.14694e-15 0.921062 87.9208 -0.00556508 -0.240153 -6.19166e-14 6.1149e-15 
0.898195 87.7593 -0.00645145 -0.277483 9.3695e-14 9.82938e-16 0.873843 87.5728 -0.00755923 
-0.321217 -3.96983e-14 -2.3259e-14 0.848369 87.357 -0.00894704 -0.37301 8.89228e-14 1.07869e-14 
0.822248 87.1064 -0.0106915 -0.434983 -2.62498e-14 -1.67438e-14 0.796064 86.8141 -0.0128936 
-0.509886 2.36564e-14 2.05435e-15 0.770501 86.4712 -0.015688 -0.60131 1.33563e-13 1.21986e-14 
0.746292 86.0668 -0.0192555 -0.714012 -5.94698e-14 -1.52903e-14 0.72413 85.5866 -0.0238414 
-0.854361 1.42233e-13 2.62611e-14 0.704488 85.0121 -0.0297808 -1.03101 -3.70745e-14 1.01655e-14 
0.68728 84.3196 -0.0375326 -1.25588 -2.36165e-14 -2.29088e-14 0.671244 83.4776 -0.0477288 
-1.54568 6.63081e-14 1.09582e-14 0.652823 82.4449 -0.0612026 -1.92429 1.07345e-13 1.70645e-14 
0.623952 81.1666 -0.0792012 -2.42643 6.90906e-14 1.42213e-14 0.568602 79.5708 -0.102404 
-3.10414 7.78058e-14 2.02269e-15 0.45249 77.559 -0.136615 -4.03552 2.12053e-14 2.68535e-14 
0.227233 75.0319 -0.154454 -5.35015 -4.05787e-14 -1.01516e-14 1.02706 88.7285 -0.00229945 
-0.0238853 -1.22422e-13 2.96008e-14 1.02434 88.7154 -0.00233223 -0.0480292 -5.31281e-15 -3.42728e-14 
1.01975 88.6935 -0.00238852 -0.0727027 2.10174e-14 1.47421e-14 1.01322 88.6626 -0.00247081 
-0.0982012 8.50021e-14 6.54858e-17 1.00463 88.6222 -0.00258278 -0.124859 2.34628e-14 -1.11435e-14 
0.993877 88.572 -0.00272936 -0.153064 5.62645e-14 -1.13395e-14 0.980804 88.5114 -0.00291692 
-0.183276 6.48418e-14 -2.38733e-14 0.965259 88.4398 -0.00315358 -0.216049 -2.05439e-14 5.92148e-15 
0.947085 88.356 -0.00344944 -0.252057 -3.82147e-14 -1.39441e-14 0.926126 88.2591 -0.00381701 
-0.292123 -6.69777e-15 7.96151e-15 0.902233 88.1475 -0.00427171 -0.337268 -1.33149e-14 -2.40255e-14 
0.875272 88.0195 -0.00483243 -0.388753 -6.27892e-14 1.27034e-14 0.845121 87.873 -0.00552235 
-0.448153 1.51027e-13 2.72607e-14 0.811667 87.7052 -0.0063697 -0.517447 -7.82898e-14 -6.15306e-15 
0.774791 87.5128 -0.00740889 -0.599127 7.67754e-14 1.33617e-14 0.734337 87.2917 -0.00868144 
-0.696365 -5.85643e-14 -8.12544e-15 0.690063 87.0371 -0.010237 -0.813221 -2.00413e-14 -3.41073e-14 
0.641545 86.7428 -0.0121334 -0.954939 1.17203e-13 -1.71755e-14 0.588025 86.4015 -0.0144358 
-1.12835 -1.71495e-14 -4.94049e-15 0.528167 86.0042 -0.0172107 -1.34246 3.65628e-14 1.268e-14 
0.459651 85.5404 -0.0205124 -1.60922 -7.75699e-14 -7.97626e-15 0.378517 84.9973 -0.0243508 
-1.9447 2.77729e-14 -2.19963e-15 0.278093 84.3609 -0.0286075 -2.3707 -1.114e-13 -1.59265e-14 
0.147178 83.6159 -0.0329139 -2.91708 1.04233e-13 1.20945e-14 -0.0327993 82.7496 -0.0359473 
-3.62499 -8.42104e-14 -1.60601e-14 -0.294069 81.7558 -0.0366262 -4.5516 8.46129e-14 3.51802e-15 
-0.685179 80.6594 -0.0202181 -5.77463 -1.49498e-13 -1.34892e-14 -1.32251 79.4948 -0.0292436 
-7.40501 1.27079e-13 1.67921e-15 0.997665 88.7938 -0.00211462 -0.0325649 -1.24721e-13 1.87018e-14 
0.994491 88.7818 -0.00213813 -0.0654619 -3.71318e-15 -2.21329e-14 0.989125 88.7617 -0.0021784 
-0.0990386 1.40899e-14 1.58363e-14 0.981455 88.7334 -0.00223712 -0.133674 7.23705e-14 -2.12092e-14 
0.971323 88.6966 -0.00231668 -0.169795 4.8466e-14 1.40575e-14 0.958534 88.651 -0.00242022 
-0.207898 8.58163e-14 3.3432e-14 0.942852 88.5962 -0.00255171 -0.248568 5.52167e-14 -1.64723e-14 
0.924003 88.5318 -0.00271597 -0.292508 -2.21264e-15 -3.4933e-16 0.901679 88.457 -0.00291872 
-0.340567 -1.84019e-14 -1.07067e-14 0.875535 88.3711 -0.00316656 -0.393783 2.48664e-14 4.06055e-15 
0.845186 88.2731 -0.00346691 -0.453427 -1.76682e-14 9.90787e-15 0.810198 88.162 -0.00382781 
-0.521064 -4.58886e-14 -1.24163e-14 0.77007 88.0362 -0.00425748 -0.598628 6.8205e-14 -1.15979e-14 
0.724211 87.8942 -0.00476345 -0.688522 9.62858e-15 2.95076e-15 0.671891 87.7341 -0.00535111 
-0.793738 5.58061e-15 -1.07813e-14 0.612169 87.5535 -0.00602092 -0.918027 -6.35689e-15 5.05151e-15 
0.543787 87.3501 -0.00676373 -1.06611 4.74534e-14 3.48332e-15 0.464995 87.1211 -0.0075525 
-1.24395 4.00322e-14 -2.4006e-14 0.373298 86.8636 -0.00832789 -1.45914 -6.58709e-14 -6.55379e-15 
0.265066 86.5752 -0.00897325 -1.72138 1.42959e-14 1.19696e-16 0.134944 86.254 -0.00926963 
-2.04313 -8.24306e-14 -1.4537e-14 -0.0250505 85.9 -0.00882023 -2.44037 -2.60486e-14 -2.34378e-14 
-0.226877 85.5173 -0.00688707 -2.93358 1.64938e-14 -2.08861e-15 -0.488607 85.1168 -0.00224571 
-3.54873 6.45907e-14 -2.88276e-14 -0.837227 84.7241 0.00802835 -4.31788 -2.77348e-14 2.82899e-14 
-1.31532 84.3879 0.025363 -5.27855 7.62931e-14 1.10051e-14 -1.97639 84.2204 0.0764931 
-6.46866 -2.98234e-14 3.40353e-14 -2.97375 84.3187 0.0594959 -7.91797 8.16222e-14 1.0672e-14 
0.95965 88.8789 -0.00188254 -0.040424 -1.25831e-13 3.7882e-16 0.955932 88.8682 -0.00189493 
-0.0812267 -4.47255e-15 1.15778e-14 0.949633 88.8504 -0.00191605 -0.122804 4.25511e-14 -1.0265e-14 
0.940597 88.8254 -0.00194661 -0.165587 8.16795e-14 -2.73657e-14 0.928605 88.7931 -0.00198758 
-0.21006 6.7342e-15 -1.53692e-14 0.913377 88.7532 -0.00204009 -0.256786 5.55953e-14 2.54788e-15 
0.89457 88.7056 -0.0021054 -0.306423 7.18011e-14 -2.63103e-14 0.871772 88.6501 -0.00218473 
-0.359761 -6.04417e-14 -4.51462e-15 0.844502 88.5863 -0.00227902 -0.417748 -1.19444e-14 1.87294e-14 
0.812199 88.514 -0.00238855 -0.481532 5.77585e-14 1.17432e-14 0.774211 88.4326 -0.00251237 
-0.552509 5.76414e-14 1.00232e-14 0.72977 88.3418 -0.00264733 -0.632379 -1.41042e-14 1.10185e-14 
0.677968 88.2411 -0.00278663 -0.723219 7.91815e-15 1.37407e-14 0.6177 88.1299 -0.00291759 
-0.827565 3.40483e-14 1.88651e-14 0.547599 88.0079 -0.0030181 -0.948528 8.43336e-14 -5.83223e-14 
0.465929 87.8748 -0.00305114 -1.08991 -4.06307e-14 -1.36714e-14 0.370434 87.7307 -0.00295616 
-1.2564 -1.9167e-14 5.4479e-15 0.258116 87.5762 -0.0026356 -1.4537 3.85664e-14 -6.7741e-16 
0.124918 87.413 -0.00193349 -1.68883 -1.23981e-14 -8.60423e-15 -0.0347325 87.2446 -0.000601854 
-1.97033 -4.66762e-14 -4.06879e-14 -0.228573 87.0772 0.00175282 -2.30851 -2.47684e-14 4.50421e-14 
-0.467428 86.9215 0.00574987 -2.71558 1.79301e-14 -4.60396e-15 -0.766471 86.7958 0.0123777 
-3.20555 -3.56035e-14 1.88113e-14 -1.147 86.7296 0.0230686 -3.79344 -4.05127e-14 3.45245e-14 
-1.6382 86.7713 0.0406477 -4.49289 7.71709e-14 -3.97946e-15 -2.28189 86.9939 0.0651482 
-5.31029 -7.07195e-14 -1.75207e-14 -3.11714 87.5347 0.123805 -6.23213 4.54636e-14 2.87062e-14 
-4.28058 88.4748 0.0880433 -7.20177 6.12947e-14 -1.51407e-14 0.913948 88.9823 -0.00161798 
-0.0473004 -1.2319e-13 -1.39426e-14 0.909639 88.9732 -0.00161834 -0.0949954 8.60781e-15 9.39873e-15 
0.902325 88.9581 -0.00161879 -0.143497 2.09276e-14 -3.62885e-14 0.891804 88.9368 -0.00161906 
-0.193254 9.22405e-14 3.28485e-14 0.877792 88.9095 -0.00161866 -0.244768 -1.55331e-14 -6.60843e-15 
0.859922 88.8762 -0.00161674 -0.29862 7.49266e-14 2.31837e-14 0.837734 88.8368 -0.00161192 
-0.355488 4.70891e-14 -2.23476e-14 0.810676 88.7914 -0.00160193 -0.416179 -1.66698e-14 -1.22719e-14 
0.778087 88.74 -0.00158322 -0.481654 -1.12957e-14 -3.03694e-14 0.739189 88.6828 -0.00155026 
-0.553067 -4.655e-14 -3.34502e-14 0.693063 88.6199 -0.00149458 -0.631805 4.19695e-14 8.89349e-15 
0.638623 88.5516 -0.00140335 -0.719534 3.84588e-15 3.37994e-14 0.574566 88.4782 -0.00125729 
-0.818253 3.44611e-14 -1.83451e-14 0.499322 88.4005 -0.0010276 -0.930355 -4.62191e-14 -1.1293e-14 
0.410959 88.3194 -0.000671469 -1.0587 -3.31228e-14 4.05249e-14 0.307073 88.2364 -0.000125488 
-1.20667 2.60061e-14 1.404e-14 0.184614 88.154 0.000704041 -1.37828 -1.95833e-14 -3.31636e-14 
0.039666 88.0758 0.00195526 -1.57819 1.86189e-13 3.14167e-14 -0.13287 88.007 0.00383133 
-1.81176 -4.90372e-14 -7.63972e-15 -0.339688 87.9558 0.00662968 -2.08497 -1.57947e-14 1.63324e-14 
-0.589622 87.934 0.0107833 -2.40422 5.21614e-14 -3.11903e-15 -0.89433 87.9593 0.0169092 
-2.77576 4.83415e-14 2.97852e-15 -1.26908 88.0577 0.0258896 -3.20461 7.19563e-14 5.47826e-15 
-1.73358 88.2666 0.0387592 -3.69231 3.83894e-15 -2.10838e-14 -2.31193 88.6399 0.0574508 
-4.2329 -5.07927e-14 1.51407e-14 -3.03411 89.2477 0.0791378 -4.80572 3.17107e-14 -4.85723e-17 
-3.917 90.1949 0.124515 -5.36023 7.09996e-14 2.44041e-14 -5.02202 91.5135 0.0675741 
-5.79229 9.51283e-14 -1.6237e-15 0.861656 89.1023 -0.00131166 -0.0530778 -1.24462e-13 1.67134e-14 
0.856755 89.0949 -0.00129983 -0.106534 -3.59305e-16 -4.27735e-14 0.848426 89.0825 -0.00127937 
-0.160765 3.69153e-14 3.46424e-15 0.836423 89.0654 -0.00124913 -0.216198 9.95879e-14 9.83848e-15 
0.820397 89.0436 -0.00120727 -0.273314 2.18681e-14 2.06072e-14 0.799895 89.0172 -0.00115117 
-0.332663 5.63486e-14 -2.46504e-14 0.77435 88.9866 -0.00107711 -0.394889 9.03346e-14 1.48826e-14 
0.743073 88.9519 -0.000979858 -0.460746 -2.97345e-14 4.17721e-15 0.705238 88.9137 -0.000852132 
-0.531128 -5.51495e-14 2.27795e-14 0.659871 88.8723 -0.000683773 -0.607096 5.26176e-14 7.55125e-15 
0.605817 88.8286 -0.000460623 -0.689903 2.65105e-14 -3.94042e-15 0.541712 88.7833 -0.000162926 
-0.781028 -1.46816e-13 -2.53296e-14 0.465936 88.7378 0.000236897 -0.882201 1.04531e-13 1.35473e-14 
0.376551 88.6936 0.000777363 -0.995438 2.19269e-15 -1.75389e-14 0.271218 88.653 0.00151223 
-1.12305 7.45359e-14 1.25854e-14 0.147086 88.619 0.00251643 -1.26766 -2.77469e-14 -1.25802e-14 
0.000646497 88.5956 0.00389411 -1.43214 2.90341e-14 -1.46229e-14 -0.172453 88.5886 0.00578928 
-1.61959 4.07886e-14 1.35482e-14 -0.377642 88.6057 0.00839939 -1.83308 5.34208e-15 1.87003e-14 
-0.621704 88.6577 0.0119914 -2.07539 3.00576e-14 -1.46168e-14 -0.913074 88.7592 0.0169181 
-2.34835 -6.16234e-14 -1.26808e-14 -1.26211 88.9303 0.0236253 -2.65183 -2.02616e-14 -4.0792e-14 
-1.68113 89.1982 0.0326481 -2.98203 -7.39608e-14 2.59966e-14 -2.18411 89.5988 0.0444535 
-3.3287 1.89471e-14 -3.1114e-14 -2.78474 90.1786 0.0596835 -3.67102 2.63744e-14 3.69496e-15 
-3.49408 90.9918 0.0754775 -3.97116 -1.02344e-14 1.34198e-14 -4.30209 92.1061 0.102237 
-4.17059 3.01426e-14 -3.44585e-14 -5.23868 93.4436 0.0228876 -4.15941 -1.04999e-13 -8.75688e-15 
0.742251 89.3831 -0.000706247 -0.0610995 1.25693e-13 -6.58544e-15 0.736357 89.3792 -0.000674038 
-0.122458 4.27223e-14 -2.23953e-15 0.726324 89.3727 -0.000618797 -0.184345 6.3227e-14 5.75321e-15 
0.711832 89.3639 -0.000538096 -0.247053 -6.78164e-14 -2.11983e-15 0.692432 89.3532 -0.000428359 
-0.310906 1.29734e-13 -2.12321e-14 0.667534 89.341 -0.000284664 -0.376275 -7.30251e-14 1.54139e-14 
0.636402 89.3278 -0.000100466 -0.443582 7.21391e-14 2.59298e-14 0.598144 89.3144 0.000132773 
-0.513316 1.03695e-14 1.84141e-15 0.551698 89.3016 0.000426088 -0.586038 3.59491e-14 1.79878e-14 
0.495818 89.2907 0.000793657 -0.662387 -1.12435e-13 -2.77382e-15 0.429049 89.2832 0.00125364 
-0.743079 7.65494e-14 1.30035e-14 0.349712 89.2807 0.00182922 -0.828901 -2.06168e-14 -5.42448e-15 
0.255865 89.2857 0.00254988 -0.920685 -1.22558e-15 -3.21279e-14 0.145277 89.301 0.00345289 
-1.01927 1.64669e-14 3.29814e-14 0.0153879 89.3301 0.00458487 -1.12544 1.4426e-13 3.80425e-15 
-0.136726 89.3775 0.00600325 -1.23979 -8.54893e-14 -4.8018e-14 -0.314383 89.4489 0.00777697 
-1.36256 -7.89507e-14 2.44006e-14 -0.521304 89.5512 0.00998543 -1.49336 1.88166e-13 -5.6552e-15 
-0.761572 89.6932 0.0127136 -1.6308 3.69045e-14 2.89178e-15 -1.0395 89.8853 0.0160396 
-1.77186 6.54351e-14 9.76129e-15 -1.35932 90.1406 0.0200092 -1.91111 6.6282e-14 1.65631e-14 
-1.72458 90.474 0.0245857 -2.03959 -5.3535e-14 -5.24927e-14 -2.13697 90.9025 0.0295632 
-2.14335 3.09869e-14 4.46657e-14 -2.59436 91.4436 0.0344222 -2.20165 -7.21216e-14 9.51322e-15 
-3.08744 92.1128 0.038081 -2.18525 2.16166e-13 2.18887e-14 -3.59442 92.9187 0.0387024 
-2.05481 -2.67808e-13 -5.73153e-15 -4.07689 93.8476 0.0303969 -1.76403 1.64996e-13 2.61735e-14 
-4.45812 94.8689 0.0212124 -1.25951 4.78159e-14 1.05055e-14 0.677588 89.5396 -0.000432462 
-0.0633509 8.6542e-14 1.02435e-14 0.671372 89.5373 -0.000393385 -0.126866 -1.67628e-13 -6.65006e-15 
0.660787 89.5336 -0.000326497 -0.190716 -9.35626e-14 -5.47435e-15 0.645491 89.5289 -0.000229087 
-0.255086 1.70674e-13 8.49017e-15 0.625 89.5234 -9.72109e-05 -0.320182 -6.18193e-14 -1.06282e-14 
0.598686 89.5177 7.44644e-05 -0.386235 4.65123e-14 2.60894e-14 0.565764 89.5125 0.000292872 
-0.453509 -1.53886e-13 -9.93042e-15 0.525286 89.5087 0.000566824 -0.522301 -4.14167e-14 -3.39269e-15 
0.476135 89.5073 0.000907354 -0.592943 7.34007e-14 6.48787e-15 0.417008 89.5097 0.00132814 
-0.665792 -2.17476e-14 -8.07514e-15 0.346404 89.5175 0.001846 -0.741224 1.21214e-16 6.36383e-15 
0.262617 89.5328 0.00248138 -0.819605 1.80541e-15 3.3174e-14 0.163718 89.5581 0.00325891 
-0.901252 -1.14232e-14 4.5285e-14 0.0475485 89.5964 0.00420773 -0.986371 9.68964e-14 -2.21524e-15 
-0.0882793 89.6515 0.00536139 -1.07496 -2.56184e-14 -1.5773e-14 -0.246369 89.7279 0.00675699 
-1.16666 3.6041e-14 4.1224e-14 -0.429497 89.8311 0.00843258 -1.26056 -1.3471e-14 1.9343e-14 
-0.640523 89.9675 0.0104217 -1.35493 -1.63277e-13 -4.64941e-14 -0.882217 90.1448 0.012743 
-1.44676 3.87199e-14 3.69097e-14 -1.15695 90.3718 0.0153813 -1.53132 -7.1241e-14 1.97897e-14 
-1.46617 90.6585 0.0182565 -1.60143 2.73333e-14 2.26451e-14 -1.80953 91.0151 0.0211733 
-1.64663 -7.12755e-16 5.08933e-14 -2.18354 91.4518 0.0237439 -1.65235 1.32649e-13 -5.67255e-15 
-2.5794 91.9763 0.0252945 -1.59903 7.07472e-14 -5.70724e-15 -2.98002 92.5914 0.0247061 
-1.46187 -2.19973e-13 -2.91312e-14 -3.35602 93.2898 0.0204268 -1.21207 2.08111e-13 2.34431e-14 
-3.65875 94.0529 0.0119864 -0.820384 5.96502e-14 7.36564e-15 -3.82477 94.849 -0.00120219 
-0.259384 -7.73548e-14 -1.43323e-14 0.611154 89.7042 -0.000158883 -0.0644972 -4.40815e-14 -4.70808e-14 
0.604773 89.7034 -0.000115481 -0.129048 6.97215e-14 2.56392e-14 0.593904 89.7023 -4.13203e-05 
-0.193711 -2.17714e-13 1.88994e-14 0.578193 89.7012 6.6389e-05 -0.258546 9.5103e-14 1.60288e-14 
0.55714 89.7006 0.000211649 -0.323625 1.75172e-14 9.46465e-15 0.530097 89.7009 0.000399776 
-0.389023 -3.88871e-14 3.94476e-15 0.496257 89.7029 0.000637526 -0.454826 9.80617e-14 2.48586e-15 
0.454653 89.7076 0.000933239 -0.521122 -1.00972e-14 2.15314e-14 0.404154 89.7161 0.001297 
-0.587994 -3.40129e-14 3.00211e-14 0.343453 89.7298 0.00174081 -0.655509 9.83139e-14 1.91982e-14 
0.271072 89.7505 0.00227864 -0.72369 1.91171e-14 1.61563e-14 0.185356 89.7804 0.00292647 
-0.792489 -1.56399e-13 3.86791e-14 0.0844842 89.8218 0.00370205 -0.86173 -4.04258e-14 -1.13277e-15 
-0.0335118 89.8779 0.00462419 -0.931034 1.08774e-14 1.81018e-15 -0.170714 89.9522 0.00571142 
-0.999718 -1.11053e-14 2.39244e-14 -0.329256 90.0489 0.00697932 -1.06664 5.08849e-14 -8.7751e-15 
-0.511212 90.173 0.00843591 -1.13003 -5.42687e-15 1.36592e-14 -0.718429 90.3298 0.010074 
-1.18716 2.66547e-14 1.5943e-14 -0.952252 90.5256 0.0118588 -1.23412 -1.02512e-13 2.69073e-14 
-1.2131 90.767 0.0137094 -1.26532 -4.73195e-15 -6.52256e-16 -1.49984 91.0606 0.0154711 
-1.27307 1.46223e-14 1.02644e-14 -1.80882 91.4123 0.0168793 -1.24715 -9.68665e-14 -2.88155e-14 
-2.13255 91.8262 0.0175178 -1.17443 9.53708e-15 -2.86923e-14 -2.45785 92.303 0.0167814 
-1.0389 -5.41294e-14 3.88682e-14 -2.76349 92.8375 0.0139051 -0.822496 -8.77198e-14 -4.60101e-14 
-3.01736 93.4166 0.00828444 -0.507038 4.00548e-14 5.52093e-14 -3.17546 94.0169 -0.000870103 
-0.0772866 -2.41848e-13 -2.2796e-14 -3.18323 94.5983 -0.0143522 0.474435 2.10488e-13 2.32626e-14 
0.544042 89.8746 8.96199e-05 -0.064616 1.18401e-13 1.30846e-14 0.53767 89.8752 0.000134365 
-0.129169 6.57945e-14 -1.14405e-14 0.526814 89.8765 0.000210707 -0.193594 7.4653e-14 4.59615e-15 
0.51112 89.8788 0.00032132 -0.257823 -1.46068e-14 1.58736e-14 0.490087 89.8824 0.000469989 
-0.321782 -1.10521e-13 2.04385e-14 0.463067 89.888 0.000661646 -0.385388 -1.3027e-14 -4.87457e-16 
0.429259 89.8963 0.000902399 -0.44854 -3.77997e-14 -8.23907e-15 0.387712 89.9082 0.00119955 
-0.511115 2.52159e-14 -1.20789e-14 0.337317 89.925 0.00156155 -0.572951 -5.88789e-14 -1.76335e-14 
0.276815 89.948 0.00199791 -0.633827 -5.50616e-14 1.1751e-14 0.204802 89.9789 0.00251896 
-0.693437 -5.8121e-14 1.35291e-14 0.119741 90.0199 0.00313537 -0.751352 -8.93209e-15 -1.83282e-14 
0.0199929 90.0731 0.00385732 -0.80696 -4.47435e-14 3.25e-14 -0.0961467 90.1415 0.00469313 
-0.859396 6.42433e-15 -3.38271e-17 -0.230376 90.2282 0.00564704 -0.907439 -2.73865e-14 1.04769e-14 
-0.384284 90.3369 0.00671564 -0.949382 6.19574e-14 2.99934e-14 -0.559198 90.4716 0.00788263 
-0.982868 -5.72248e-14 2.01462e-14 -0.755954 90.6367 0.00911095 -1.00468 1.43502e-14 -2.50104e-14 
-0.974567 90.8367 0.0103318 -1.01052 -7.57778e-14 1.71391e-15 -1.21377 91.0757 0.0114299 
-0.994747 3.71431e-14 2.36772e-14 -1.47034 91.3576 0.0122258 -0.950147 8.78833e-15 5.74887e-15 
-1.73826 91.6846 0.0124575 -0.867823 -8.45149e-14 1.627e-14 -2.00755 92.0564 0.0117692 
-0.737281 -9.64845e-14 6.8643e-15 -2.26291 92.4691 0.0097269 -0.546961 -8.36302e-14 2.02789e-15 
-2.48223 92.9133 0.00588969 -0.28543 2.73254e-14 2.8498e-14 -2.63546 93.3732 -0.000139931 
0.0566141 1.30625e-15 2.28064e-14 -2.68461 93.824 -0.00879399 0.483349 -1.93422e-15 1.75918e-14 
-2.58211 94.2323 -0.0200325 0.989206 -4.24313e-15 -3.26605e-14 0.477279 90.0488 0.000314648 
-0.0637981 -3.72105e-15 1.27676e-15 0.471095 90.0508 0.000357759 -0.127416 5.14567e-14 3.38141e-14 
0.460559 90.0542 0.000431221 -0.190668 5.1281e-14 -4.06784e-14 0.445326 90.0594 0.000537445 
-0.253358 7.56153e-14 1.03225e-14 0.424908 90.0668 0.000679794 -0.315269 4.20217e-14 5.03824e-14 
0.39868 90.0769 0.000862557 -0.376162 -5.61763e-14 -7.76939e-15 0.36587 90.0905 0.00109089 
-0.435758 2.65692e-14 -3.44269e-14 0.32557 90.1084 0.00137071 -0.493733 4.27662e-14 1.03303e-15 
0.276731 90.1318 0.00170849 -0.549694 -7.17271e-14 -1.91808e-14 0.218179 90.1619 0.00211098 
-0.603161 1.19216e-13 1.7604e-14 0.148626 90.2004 0.00258465 -0.653536 -9.33391e-14 -4.06663e-14 
0.0666981 90.249 0.00313493 -0.700064 9.09969e-14 6.50695e-15 -0.0290214 90.3099 0.00376502 
-0.741781 4.7132e-14 -5.29455e-14 -0.139932 90.3854 0.00447412 -0.777448 1.34459e-13 2.35315e-14 
-0.267325 90.4783 0.00525485 -0.805469 -9.28251e-15 -3.31315e-14 -0.412248 90.5916 0.00608965 
-0.823786 3.27817e-14 5.33219e-14 -0.57533 90.7282 0.00694585 -0.829763 4.64225e-14 3.49425e-14 
-0.756516 90.8913 0.00776911 -0.82005 9.58372e-14 3.7228e-14 -0.954732 91.0837 0.00847544 
-0.790455 1.25944e-13 1.68511e-14 -1.16743 91.3079 0.00894207 -0.735839 6.05448e-14 -2.7929e-16 
-1.38997 91.5651 0.00899933 -0.650083 8.16448e-15 -3.4109e-14 -1.61496 91.8548 0.00842695 
-0.526207 4.48383e-14 5.52596e-15 -1.83134 92.1739 0.00696209 -0.356735 6.76915e-14 3.16561e-14 
-2.02354 92.516 0.00432818 -0.134444 -1.11481e-13 -6.80012e-16 -2.17078 92.8701 0.000278577 
0.146383 6.67088e-15 -2.78388e-14 -2.24677 93.2201 -0.00535358 0.488077 9.06844e-14 7.74728e-15 
-2.21991 93.5442 -0.0125356 0.886964 2.97921e-14 2.05834e-14 -2.05485 93.8163 -0.0206989 
1.32971 -2.38923e-14 -4.02102e-14 0.411797 90.225 0.000516975 -0.062135 1.69134e-14 2.25089e-14 
0.405975 90.228 0.000555605 -0.123981 -8.51246e-14 -1.63992e-14 0.396053 90.2333 0.00062137 
-0.18524 1.18703e-13 1.3765e-14 0.381706 90.2411 0.000716317 -0.245595 -3.1797e-14 -4.77075e-14 
0.362476 90.2517 0.000843253 -0.304702 7.34038e-14 -8.3141e-15 0.337773 90.2657 0.00100567 
-0.362175 -1.22377e-14 -8.4867e-15 0.306879 90.2836 0.00120761 -0.417578 -8.94473e-14 1.09214e-14 
0.268951 90.3063 0.00145349 -0.470403 -1.24165e-14 -2.20787e-14 0.223028 90.3348 0.00174776 
-0.52006 -4.00581e-14 -2.53755e-14 0.168048 90.3701 0.00209448 -0.565846 1.07361e-13 -1.39281e-14 
0.102866 90.4136 0.00249663 -0.606921 -3.8308e-14 -2.24994e-15 0.0262969 90.4669 0.00295515 
-0.642274 -5.49765e-14 -1.9984e-14 -0.0628374 90.5316 0.00346762 -0.670677 1.26932e-14 2.04212e-14 
-0.165631 90.6098 0.00402641 -0.690638 -5.39399e-14 4.44081e-14 -0.282987 90.7036 0.00461621 
-0.700339 -1.11509e-14 -1.92598e-14 -0.415475 90.815 0.00521088 -0.697567 -1.20886e-13 -9.85323e-16 
-0.563136 90.9463 0.00576948 -0.679649 1.47414e-13 -1.60609e-14 -0.725229 91.0994 0.00623173 
-0.643391 -1.14402e-13 1.03641e-14 -0.8999 91.2758 0.00651327 -0.585037 -2.36375e-14 5.54331e-15 
-1.08378 91.4763 0.0065018 -0.500289 2.58918e-14 1.26774e-14 -1.2715 91.7003 0.00605615 
-0.384416 -1.7625e-14 -2.36746e-14 -1.45515 91.9457 0.00501144 -0.232516 1.12636e-14 6.44883e-15 
-1.62371 92.2078 0.00319441 -0.0400085 -1.8307e-14 -2.52645e-14 -1.76261 92.4792 0.000451033 
0.196578 5.50558e-14 -4.32631e-14 -1.85352 92.7489 -0.00331002 0.478447 7.55125e-15 1.09895e-15 
-1.8746 93.0025 -0.00806247 0.802969 -1.2922e-14 2.3414e-14 -1.80144 93.2224 -0.0134773 
1.16171 1.00911e-13 1.47165e-14 -1.6095 93.3892 -0.0191551 1.53824 -8.70935e-14 -2.82739e-14 
0.348441 90.401 0.000700996 -0.059707 -2.14423e-13 -2.75669e-14 0.343135 90.4051 0.000732578 
-0.119031 -1.61769e-14 2.17599e-14 0.334092 90.412 0.000786323 -0.177578 2.644e-14 2.19716e-14 
0.321013 90.4221 0.00086385 -0.234929 -2.2543e-14 -2.06042e-15 0.30348 90.4355 0.000967337 
-0.290628 -7.35661e-15 -4.97345e-15 0.280956 90.4527 0.00109941 -0.344168 6.23782e-14 -6.0835e-14 
0.252791 90.4743 0.00126299 -0.394977 4.7251e-14 -4.70852e-14 0.218227 90.5008 0.00146101 
-0.442401 -2.57377e-14 6.53011e-14 0.176408 90.533 0.00169608 -0.485684 9.94107e-14 -8.89913e-16 
0.126401 90.5718 0.00196996 -0.52395 -7.00318e-14 -3.96558e-15 0.0672218 90.6183 0.0022828 
-0.556174 -1.39132e-14 -4.46605e-15 -0.00212261 90.6736 0.00263221 -0.58116 4.61803e-14 -1.24354e-14 
-0.0825765 90.7392 0.00301194 -0.597509 -3.87482e-14 3.29051e-14 -0.174953 90.8164 0.00341019 
-0.603581 1.17539e-14 -2.22817e-14 -0.279825 90.9066 0.00380754 -0.597468 -1.3741e-14 4.18016e-14 
-0.397376 91.0114 0.0041745 -0.57696 5.26992e-14 -2.26347e-14 -0.527218 91.1319 0.00446881 
-0.539525 -4.68137e-14 1.80671e-14 -0.668147 91.2692 0.00463281 -0.482311 -3.04462e-15 -2.12825e-14 
-0.817861 91.4236 0.00459158 -0.402183 3.94784e-14 -6.76282e-15 -0.972622 91.5947 0.00425289 
-0.295825 -6.8836e-16 1.5256e-14 -1.12689 91.7809 0.00351065 -0.159941 2.5793e-14 2.21143e-14 
-1.27293 91.9789 0.00225402 0.00841853 -8.75775e-14 -3.00445e-14 -1.40056 92.1836 0.000384245 
0.211337 -5.42578e-15 -1.61338e-14 -1.4969 92.3876 -0.00215931 0.449313 1.76638e-14 7.85283e-14 
-1.54661 92.581 -0.00535927 0.720294 -3.21392e-14 -4.17852e-15 -1.53239 92.7519 -0.0090773 
1.01852 -3.09622e-14 7.30492e-15 -1.4363 92.8869 -0.012917 1.33323 -5.56829e-14 -7.43738e-15 
-1.24225 92.9725 -0.0166429 1.64759 5.32126e-14 3.95916e-14 0.287985 90.575 0.000873732 
-0.0565721 1.07306e-13 1.33248e-14 0.283322 90.5801 0.000896097 -0.112689 -2.8723e-14 -2.54376e-14 
0.275374 90.5886 0.000934176 -0.167883 -9.01358e-14 -1.18091e-14 0.263875 90.6007 0.000989128 
-0.221655 -4.50663e-14 3.0218e-14 0.248456 90.6167 0.00106247 -0.273465 -2.25959e-14 -5.81523e-15 
0.228643 90.6368 0.00115598 -0.322713 1.08355e-14 3.38371e-14 0.203866 90.6613 0.00127147 
-0.368724 -1.77305e-14 -1.90863e-15 0.173465 90.6908 0.00141058 -0.410733 -4.40987e-14 -4.81577e-14 
0.136701 90.7258 0.00157434 -0.447866 6.99222e-14 4.32475e-14 0.0927799 90.7669 0.00176274 
-0.479121 1.5815e-14 -5.17641e-15 0.040878 90.8149 0.00197397 -0.503352 -7.17826e-14 2.60009e-14 
-0.0198118 90.8704 0.00220356 -0.519248 2.10079e-13 2.93689e-15 -0.0900213 90.9345 0.00244327 
-0.525315 -4.66666e-14 -5.0784e-14 -0.170327 91.0079 0.00267969 -0.519863 -1.5973e-13 1.25655e-14 
-0.261041 91.0916 0.00289269 -0.500996 -9.22206e-15 -2.13501e-14 -0.362077 91.1862 0.00305376 
-0.466616 5.49674e-14 2.21455e-14 -0.472777 91.2922 0.00312443 -0.414442 -1.58647e-13 -1.83308e-14 
-0.591707 91.4099 0.00305534 -0.34206 -1.2191e-13 -4.3473e-14 -0.716414 91.5387 0.0027863 
-0.247014 9.75142e-14 7.46972e-15 -0.843168 91.6773 0.00224857 -0.126967 -1.38672e-13 -2.60954e-14 
-0.966699 91.8236 0.00137037 0.020067 -1.87575e-14 -5.37981e-14 -1.07997 91.9738 8.68916e-05 
0.195372 9.6631e-14 -5.06062e-14 -1.17403 92.123 -0.00164389 0.399059 -4.03761e-14 -7.06553e-15 
-1.23809 92.2643 -0.0038194 0.629456 5.84034e-14 -8.39346e-14 -1.2598 92.3897 -0.00636098 
0.882391 4.60053e-14 9.46292e-15 -1.22605 92.4898 -0.00909592 1.15041 -6.33504e-14 4.82936e-15 
-1.12412 92.555 -0.0116383 1.42207 -4.53726e-14 -1.27923e-14 -0.944019 92.5762 -0.0139433 
1.68154 8.76209e-14 -5.36468e-14 0.231165 90.7452 0.00104459 -0.0527559 -1.32347e-13 -9.67412e-15 
0.227235 90.7512 0.00105605 -0.105012 -8.95621e-15 -3.48341e-14 0.220534 90.7612 0.00107565 
-0.156251 1.63947e-13 8.95161e-15 0.210836 90.7754 0.00110406 -0.205927 -2.38239e-14 1.35616e-14 
0.197825 90.7937 0.00114213 -0.253443 1.30342e-13 -7.26415e-15 0.1811 90.8165 0.00119079 
-0.298142 -7.00078e-14 -5.44725e-14 0.160178 90.8439 0.00125085 -0.339285 -3.39706e-14 2.19599e-14 
0.134502 90.8761 0.00132282 -0.376038 4.87023e-14 2.4555e-15 0.103458 90.9133 0.0014065 
-0.407454 -3.63806e-14 3.80642e-14 0.0663887 90.956 0.00150062 -0.432462 -2.71284e-14 -3.35296e-14 
0.0226272 91.0045 0.00160222 -0.449851 1.07022e-13 -2.71311e-15 -0.0284633 91.0591 0.00170596 
-0.45826 -1.15124e-13 -3.17316e-14 -0.0874333 91.1203 0.0018032 -0.456175 5.22163e-14 2.38733e-14 
-0.154672 91.1883 0.00188109 -0.441925 -1.20137e-13 -7.33875e-15 -0.230312 91.2635 0.00192146 
-0.413704 9.56739e-14 3.55011e-14 -0.314105 91.3459 0.0018999 -0.36959 -6.60035e-14 -3.11999e-14 
-0.405279 91.4354 0.00178517 -0.307603 -4.46097e-14 -5.15039e-15 -0.502364 91.5313 0.00153927 
-0.225788 4.37567e-14 4.28477e-16 -0.603007 91.6327 0.0011188 -0.12234 -7.62031e-14 1.21743e-13 
-0.703775 91.7377 0.000478196 0.00421399 1.57109e-13 -3.16908e-14 -0.799983 91.8438 -0.000424361 
0.154767 -1.94598e-13 1.661e-15 -0.885571 91.9474 -0.00161773 0.329307 1.35885e-13 1.00375e-13 
-0.953089 92.0439 -0.00310477 0.526511 -6.17154e-14 1.04439e-14 -0.993844 92.1277 -0.00484618 
0.743279 -1.48562e-14 -1.18234e-14 -0.998304 92.1922 -0.0067394 0.974233 2.06348e-13 -3.63229e-15 
-0.956826 92.2308 -0.00861774 1.21126 -7.53763e-14 -1.08297e-14 -0.860722 92.2368 -0.0101455 
1.4432 -1.00009e-13 -8.34762e-14 -0.704103 92.2049 -0.0114394 1.6559 3.37768e-14 5.21042e-14 
0.178709 90.9096 0.00122475 -0.0482432 1.15974e-13 -2.30154e-15 0.175559 90.9165 0.00122422 
-0.0959709 -6.77645e-14 5.85469e-17 0.170185 90.9282 0.00122347 -0.142651 -7.82485e-14 6.13368e-14 
0.162401 90.9444 0.0012227 -0.18772 4.43963e-14 -7.5921e-14 0.151952 90.9654 0.00122207 
-0.230561 9.38479e-14 2.50975e-14 0.13851 90.991 0.00122168 -0.270497 1.61186e-14 6.80662e-15 
0.121684 91.0212 0.00122142 -0.306764 -2.15929e-14 -5.18986e-14 0.101026 91.0561 0.00122076 
-0.338507 -7.37439e-14 5.71244e-15 0.0760398 91.0956 0.00121856 -0.364757 -4.90058e-14 -2.54484e-14 
0.0462058 91.1399 0.00121273 -0.384426 1.1059e-13 1.57712e-14 0.0110014 91.1887 0.00119978 
-0.396296 4.38479e-14 -7.40727e-16 -0.0300602 91.2421 0.00117441 -0.399018 4.90305e-14 1.89519e-15 
-0.0773814 91.3 0.00112884 -0.391114 -2.018e-14 -1.2784e-14 -0.131215 91.3621 0.00105231 
-0.370995 -1.26749e-15 -5.26549e-14 -0.191583 91.4282 0.000930445 -0.336987 -8.17529e-14 3.46286e-14 
-0.258174 91.4977 0.000744969 -0.287382 -4.50484e-14 -6.17466e-14 -0.330229 91.5699 0.000473713 
-0.220505 -1.02143e-14 -1.80238e-14 -0.406399 91.6437 9.13855e-05 -0.134826 6.1281e-14 -4.47819e-15 
-0.484611 91.7174 -0.000428595 -0.0290975 8.3179e-14 -5.95964e-15 -0.561927 91.7891 -0.00111075 
0.0974584 -7.26813e-14 -2.77911e-14 -0.634438 91.8561 -0.00197226 0.24491 -1.89525e-14 8.66408e-15 
-0.697211 91.9151 -0.00301556 0.41233 5.97527e-14 -9.76328e-14 -0.744335 91.9621 -0.00421876 
0.597477 -1.99737e-15 3.94125e-14 -0.769116 91.9925 -0.00552532 0.796444 -1.82275e-14 -4.17188e-14 
-0.76446 92.0017 -0.00683101 1.00335 5.86057e-14 4.12417e-14 -0.723515 91.985 -0.00799514 
1.21013 -1.20602e-13 -2.20158e-14 -0.640507 91.9386 -0.00873842 1.40644 2.33756e-14 -5.86033e-15 
-0.512206 91.8596 -0.00931617 1.58 3.4297e-14 -6.17041e-15 0.131392 91.0661 0.00142701 
-0.0429719 1.83484e-14 -2.90731e-14 0.129018 91.0742 0.00141405 -0.0854455 1.28644e-13 1.03363e-14 
0.124967 91.0876 0.00139222 -0.126906 -2.33126e-13 -1.1084e-14 0.119095 91.1063 0.00136117 
-0.166806 2.2613e-13 1.24384e-14 0.111205 91.1301 0.00132036 -0.20455 -2.60791e-13 4.45937e-14 
0.101045 91.1589 0.00126903 -0.239476 1.53171e-13 -3.72445e-14 0.0883138 91.1925 0.00120612 
-0.270845 -2.86703e-14 6.59642e-14 0.072668 91.2307 0.00113015 -0.297823 -1.78333e-14 -3.22659e-16 
0.0537307 91.2731 0.00103913 -0.319473 -6.42151e-15 6.0698e-15 0.0311075 91.3194 0.000930368 
-0.334743 -2.54189e-14 2.08262e-14 0.00440711 91.3692 0.000800236 -0.342466 3.48126e-14 -6.42637e-14 
-0.0267282 91.4221 0.000643964 -0.34136 6.15851e-14 6.01134e-14 -0.062583 91.4773 0.000455368 
-0.330039 -6.13032e-14 -2.95111e-14 -0.103317 91.5341 0.000226638 -0.307037 -3.26763e-14 7.91901e-16 
-0.1489 91.5918 -5.17782e-05 -0.270848 6.9698e-14 -4.02725e-14 -0.199033 91.6492 -0.00039107 
-0.219985 -1.72336e-14 2.60738e-14 -0.253058 91.7049 -0.000803582 -0.15306 -5.02742e-15 -4.58652e-14 
-0.309857 91.7574 -0.00130176 -0.068899 6.34275e-15 3.61143e-14 -0.367749 91.8047 -0.00189628 
0.0333129 3.66408e-14 -4.40446e-15 -0.424403 91.8446 -0.00259316 0.153852 2.34367e-15 3.14393e-14 
-0.476771 91.8743 -0.00338963 0.292243 -3.48869e-14 -2.1861e-14 -0.521076 91.891 -0.00426897 
0.447017 -1.68717e-14 4.81264e-14 -0.552885 91.8912 -0.00519437 0.615459 -3.88112e-14 -4.60534e-14 
-0.567289 91.8717 -0.00610354 0.793377 9.4318e-15 2.31625e-14 -0.559237 91.8291 -0.0069015 
0.974918 -1.22392e-14 -3.47575e-14 -0.524037 91.7607 -0.00747893 1.1525 -3.03078e-15 -1.35906e-14 
-0.457964 91.6648 -0.00760579 1.31693 6.32854e-14 3.83378e-14 -0.359419 91.5406 -0.00766016 
1.45775 -3.43757e-15 5.99434e-15 0.0900736 91.2126 0.00166254 -0.0368297 1.14246e-13 -3.07801e-14 
0.0884253 91.222 0.00163736 -0.0732107 4.14065e-14 7.99014e-15 0.0856098 91.2375 0.00159478 
-0.108679 -6.64681e-15 -8.86431e-14 0.081525 91.2591 0.00153384 -0.14274 4.20896e-14 1.75342e-14 
0.0760293 91.2864 0.00145322 -0.174853 9.36178e-14 -7.1808e-14 0.068943 91.3192 0.0013512 
-0.204418 -5.39358e-15 -4.60174e-14 0.0600512 91.357 0.00122568 -0.230761 -2.64002e-14 5.17381e-15 
0.049109 91.3995 0.00107415 -0.253121 -7.47186e-14 -2.7491e-14 0.0358483 91.4459 0.000893679 
-0.270642 6.0158e-15 -3.25495e-14 0.0199897 91.4956 0.000680928 -0.282367 6.85107e-14 -6.24301e-14 
0.00125805 91.5479 0.000432136 -0.287235 -2.62686e-14 -1.11473e-14 -0.0205953 91.6017 0.000143145 
-0.284086 -3.83461e-14 -6.18542e-14 -0.0457632 91.656 -0.000190523 -0.271678 1.4661e-14 2.94998e-14 
-0.0743446 91.7095 -0.000573524 -0.248712 3.53953e-14 -1.35118e-14 -0.106297 91.7607 -0.00101041 
-0.213875 -1.13003e-13 -5.15196e-14 -0.14138 91.8079 -0.00150515 -0.165901 4.40616e-14 -1.43609e-14 
-0.179091 91.8494 -0.00206037 -0.103658 2.06367e-14 -2.02841e-14 -0.218595 91.8829 -0.00267613 
-0.0262527 -4.56324e-15 -2.77348e-14 -0.258655 91.9062 -0.00334837 0.0668292 -4.4838e-14 1.85425e-14 
-0.297576 91.9167 -0.00406658 0.175561 -1.12649e-14 -5.65355e-14 -0.333169 91.9118 -0.00481114 
0.299191 -2.59556e-14 -1.04691e-14 -0.362758 91.8886 -0.00555027 0.436043 -2.11612e-14 -1.9448e-14 
-0.383245 91.8446 -0.00623696 0.583333 -2.65122e-14 9.82808e-15 -0.391259 91.7772 -0.00680765 
0.737005 7.3999e-15 -1.47161e-14 -0.383407 91.6845 -0.00717883 0.891645 -1.18528e-13 -3.73106e-14 
-0.356633 91.5652 -0.00727083 1.04051 1.66069e-14 -1.30798e-14 -0.308615 91.4194 -0.00688707 
1.17569 4.90176e-14 -9.91828e-15 -0.238712 91.248 -0.00652534 1.2885 -1.57253e-14 -4.5703e-14 
0.0557708 91.3465 0.00195532 -0.0296533 -6.49818e-14 -2.1259e-14 0.0547477 91.3575 0.00191952 
-0.0589381 3.76372e-14 5.70954e-14 0.0529987 91.3757 0.00185877 -0.0874728 3.8392e-14 2.44635e-14 
0.0504582 91.4008 0.00177145 -0.114849 -9.95201e-14 1.22632e-13 0.0470353 91.4324 0.00165533 
-0.140619 7.97393e-14 6.66329e-14 0.0426145 91.4703 0.00150759 -0.164282 -6.21051e-14 6.36067e-14 
0.0370578 91.5136 0.00132486 -0.185275 3.53112e-14 4.32219e-14 0.0302077 91.5619 0.00110333 
-0.202959 1.15406e-13 1.41475e-14 0.0218921 91.6141 0.000838832 -0.216615 2.38243e-15 7.66227e-15 
0.011932 91.6693 0.000526998 -0.225435 8.256e-14 7.99577e-14 0.00015112 91.7264 0.000163475 
-0.228523 1.65239e-14 3.42209e-14 -0.0136087 91.7838 -0.00025579 -0.224904 -1.40992e-14 7.75222e-14 
-0.0294688 91.84 -0.00073416 -0.213532 7.14073e-14 1.66143e-14 -0.0474887 91.8931 -0.00127381 
-0.193324 2.96134e-14 2.46175e-14 -0.0676351 91.9412 -0.00187504 -0.163191 4.59297e-14 -1.70723e-14 
-0.0897456 91.9819 -0.00253549 -0.122099 3.22238e-14 6.46228e-14 -0.113487 92.0127 -0.00324903 
-0.0691469 5.89738e-14 5.68122e-14 -0.138311 92.031 -0.00400457 -0.0036575 8.35486e-15 1.52829e-14 
-0.163412 92.034 -0.00478456 0.0746993 -1.29137e-13 3.61751e-14 -0.187694 92.0188 -0.00556349 
0.16577 1.09111e-13 5.42899e-14 -0.20975 91.9824 -0.00630631 0.268766 -6.47919e-15 2.00742e-14 
-0.227874 91.9223 -0.00696731 0.382107 1.51395e-13 5.49135e-14 -0.240109 91.8361 -0.00748962 
0.503285 4.06303e-14 2.9407e-14 -0.244353 91.7219 -0.00780676 0.628754 1.76074e-16 7.80361e-14 
-0.238518 91.5788 -0.00784259 0.753898 -1.44242e-15 5.05e-14 -0.220773 91.407 -0.00754052 
0.873086 -2.60061e-14 1.03543e-14 -0.189733 91.2077 -0.00672342 0.979878 1.348e-13 7.6474e-14 
-0.145275 90.9835 -0.00600441 1.06736 -7.47302e-14 -9.22873e-16 0.0296345 91.4652 0.00224894 
-0.0212321 -8.34814e-14 -5.27152e-14 0.0290912 91.4781 0.00220192 -0.0422023 -2.6517e-14 -1.6731e-14 
0.0281617 91.4994 0.00212193 -0.0626386 8.21062e-14 1.97485e-14 0.0268099 91.5288 0.00200659 
-0.0822487 5.64371e-14 -1.35959e-14 0.024986 91.5659 0.00185261 -0.10071 -1.29654e-13 -5.12615e-14 
0.0226266 91.6102 0.00165583 -0.117661 5.78235e-14 -6.38383e-14 0.0196556 91.6608 0.00141138 
-0.132691 -3.87223e-14 1.41042e-14 0.0159866 91.7169 0.00111376 -0.145331 8.63957e-15 -3.87147e-14 
0.0115248 91.7773 0.000757114 -0.155052 -1.50839e-14 -8.04192e-14 0.00617144 91.8408 0.000335496 
-0.161256 -6.60459e-14 5.51642e-15 -0.000170368 91.9057 -0.000156702 -0.163279 7.52972e-14 -9.41261e-14 
-0.00758784 91.9703 -0.000724196 -0.160393 -1.18937e-13 -2.74399e-14 -0.0161477 92.0324 -0.00137009 
-0.15182 7.70536e-14 -4.75045e-14 -0.0258822 92.0897 -0.00209499 -0.136749 -9.22879e-14 -3.21652e-14 
-0.0367724 92.1394 -0.00289591 -0.114369 -6.58393e-15 -6.66654e-15 -0.0487276 92.1787 -0.00376496 
-0.0839116 2.7839e-14 7.92422e-15 -0.0615627 92.2042 -0.00468799 -0.0447092 -9.20343e-14 -4.4101e-14 
-0.074974 92.2127 -0.00564301 0.0037294 3.61993e-15 -1.80307e-14 -0.0885166 92.2006 -0.00659877 
0.0616292 7.29783e-14 2.95059e-14 -0.101586 92.1644 -0.00751359 0.128844 6.67838e-14 -6.18065e-14 
-0.11341 92.1009 -0.00833473 0.204745 4.92579e-14 -4.11294e-14 -0.123057 92.0071 -0.00899865 
0.288105 5.91189e-14 -5.66257e-14 -0.129462 91.8807 -0.00943257 0.377001 -2.96776e-14 -1.00692e-14 
-0.131492 91.7201 -0.00955881 0.46875 6.04542e-14 -5.34616e-14 -0.12803 91.525 -0.00929533 
0.559885 -2.68362e-14 1.40933e-14 -0.118117 91.2965 -0.00859673 0.64622 -7.8151e-14 -2.02108e-14 
-0.101017 91.0371 -0.00728769 0.723014 -1.35967e-13 -9.65699e-14 -0.0768326 90.7509 -0.0061394 
0.785259 -9.56075e-14 2.17335e-14 0.0134077 91.5654 0.00296229 -0.0113134 -3.37132e-14 1.74292e-14 
0.0131783 91.5807 0.00292338 -0.0224907 1.27008e-13 1.54607e-15 0.012785 91.6059 0.00285636 
-0.0333906 -5.3282e-15 -7.28024e-14 0.0122112 91.6406 0.00275798 -0.0438599 -2.28691e-14 -1.36132e-14 
0.0114341 91.6845 0.00262371 -0.0537291 4.03898e-14 2.24985e-14 0.0104243 91.7369 0.00244779 
-0.0628062 -2.95842e-14 -2.62581e-14 0.00914677 91.7968 0.00222329 -0.070872 9.30462e-15 -5.85942e-14 
0.0075614 91.8632 0.00194224 -0.0776755 -8.22255e-14 2.13098e-14 0.005624 91.9349 0.00159587 
-0.08293 1.06165e-14 -3.31419e-14 0.00328828 92.0102 0.00117488 -0.0863106 1.49455e-14 2.41361e-14 
0.000508344 92.0872 0.000670011 -0.0874541 -2.26113e-14 -3.09041e-15 -0.00275765 92.1637 7.26225e-05 
-0.085961 2.45281e-14 5.83474e-15 -0.0065426 92.237 -0.000624348 -0.0814012 -5.93304e-14 -8.62739e-14 
-0.0108642 92.3043 -0.00142524 -0.0733252 -8.14006e-14 -4.17036e-14 -0.015717 92.3621 -0.00233023 
-0.0612806 -2.11879e-14 -4.60864e-14 -0.0210633 92.4068 -0.00333361 -0.0448365 5.09764e-14 -6.06182e-14 
-0.0268222 92.4343 -0.00442184 -0.0236162 -2.08547e-14 -8.85403e-15 -0.0328592 92.4402 -0.00557155 
0.00266122 1.05646e-13 4.61436e-16 -0.0389751 92.4202 -0.00674757 0.0341297 2.64992e-14 -1.5413e-14 
-0.044898 92.3698 -0.00790142 0.0707178 -1.48101e-13 -5.24095e-14 -0.0502795 92.2849 -0.0089706 
0.112085 1.42299e-14 2.44145e-14 -0.0546986 92.1617 -0.00987917 0.157559 -1.42462e-13 2.07039e-15 
-0.0576752 91.9975 -0.0105401 0.206081 2.39652e-15 -3.94771e-14 -0.058698 91.7903 -0.0108608 
0.256168 -8.00948e-14 -5.7297e-14 -0.0572636 91.5402 -0.0107454 0.305904 5.6938e-14 -1.35772e-14 
-0.0529481 91.2484 -0.0101341 0.352981 -4.98299e-14 -5.93254e-15 -0.0453639 90.919 -0.00882463 
0.394765 -1.6237e-14 5.49387e-14 -0.0349459 90.557 -0.0078035 0.428528 3.3468e-14 -1.47031e-14 
-0.00377114 89.7541 -0.0025588 0.460636 4.40412e-14 -1.26826e-14 -0.00643546 90.1114 -0.00111995 
0.846067 7.34707e-14 8.90954e-15 -0.0153931 90.4698 -0.00213983 1.15684 -1.88477e-13 -4.70908e-14 
-0.0320354 90.8339 -0.00333442 1.41202 -2.10652e-14 4.69711e-14 -0.0619006 91.2081 -0.00506085 
1.6252 1.43324e-13 -5.40835e-14 -0.112339 91.5989 -0.00736483 1.80567 7.63612e-14 -3.2474e-15 
-0.193255 92.0135 -0.0104261 1.95886 -1.09183e-13 -4.14252e-14 -0.317748 92.4606 -0.014473 
2.08612 -2.43156e-14 1.33539e-14 -0.503051 92.9499 -0.0197768 2.18393 -9.75817e-14 -4.10453e-14 
-0.771542 93.4914 -0.0265946 2.24207 8.41341e-14 -1.25715e-14 -1.15148 94.0941 -0.0350258 
2.24065 1.14839e-15 9.8567e-15 -1.6768 94.7627 -0.0447431 2.1456 -1.63959e-13 8.58038e-15 
-2.38305 95.491 -0.0536749 1.90186 -8.09942e-14 -5.71873e-15 -3.30103 96.2437 -0.0606399 
1.43127 1.01336e-13 3.17038e-14 -4.34189 96.9736 -0.00574455 0.603527 -9.03444e-15 1.4249e-14 
0.0158681 89.3365 0.00162836 0.454002 -9.85444e-14 -2.16702e-14 0.0370205 89.7762 0.00271579 
0.834987 1.32949e-14 2.52593e-14 0.0651916 90.195 0.0010589 1.14493 1.00006e-13 -2.00534e-15 
0.0973668 90.6033 -0.000310686 1.40409 -2.42337e-14 -1.7578e-14 0.127193 91.0102 -0.00202281 
1.62742 -1.37373e-13 1.03546e-14 0.147474 91.4254 -0.00416609 1.82597 3.25664e-14 2.14342e-14 
0.148926 91.8595 -0.00701295 2.00762 -5.69675e-14 1.90317e-14 0.11917 92.3247 -0.0109206 
2.17723 2.15869e-14 3.2677e-14 0.0411965 92.8349 -0.0163747 2.33611 -2.41474e-15 1.66776e-14 
-0.108674 93.4064 -0.0240264 2.48053 5.69093e-14 3.14072e-14 -0.363207 94.0581 -0.0345352 
2.59884 -3.48332e-15 1.53176e-15 -0.767119 94.8095 -0.0490132 2.66616 3.96419e-14 -3.46598e-14 
-1.3752 95.679 -0.0644766 2.63576 5.4276e-14 3.34082e-14 -2.25555 96.6651 -0.0914958 
2.42225 1.62752e-13 4.28665e-14 -3.42285 97.754 -0.0495976 1.87406 -2.64233e-14 -1.63747e-14 
0.0355332 88.9323 0.00505052 0.429843 -1.09756e-14 -6.22419e-14 0.0813701 89.4501 0.00596525 
0.791919 -6.04404e-14 -3.92551e-14 0.147866 89.9244 0.00389076 1.08894 -1.5433e-13 4.5814e-15 
0.231098 90.3718 0.00256968 1.34088 1.78869e-13 -2.55733e-14 0.324513 90.8052 0.00117616 
1.56289 5.27702e-14 1.72119e-14 0.422105 91.2372 -0.000394908 1.76691 -2.57333e-14 2.33841e-15 
0.516816 91.6809 -0.00243749 1.96261 3.74709e-14 -2.80297e-14 0.599412 92.1506 -0.0053346 
2.15793 -7.60763e-15 6.88338e-15 0.656726 92.663 -0.00964565 2.35901 1.69465e-14 5.64132e-14 
0.669131 93.2386 -0.0162059 2.56946 -8.29094e-14 -5.17086e-14 0.606922 93.9032 -0.026165 
2.78831 1.40526e-13 2.74954e-14 0.424676 94.6888 -0.0415879 3.00565 -2.94487e-14 4.13523e-14 
0.0572374 95.6357 -0.0621159 3.19323 -1.07817e-13 -1.26253e-14 -0.607956 96.7762 -0.106653 
3.28681 -1.30708e-13 -3.1964e-14 -1.63919 98.198 -0.0807495 3.15298 1.56597e-13 2.63053e-14 
0.0541516 88.5578 0.00838938 0.388534 -7.18332e-14 -2.70617e-15 0.123309 89.146 0.00916245 
0.717419 -4.61037e-14 -2.7596e-14 0.226236 89.6696 0.0067606 0.98933 -1.07625e-13 -1.82909e-14 
0.358422 90.1508 0.00559984 1.22228 1.08384e-13 3.69219e-14 0.513743 90.6056 0.00468822 
1.43025 -1.66362e-13 -3.27481e-14 0.688193 91.0489 0.00394803 1.62485 -6.02166e-14 -3.48332e-15 
0.878197 91.4951 0.00312687 1.81633 -2.33231e-13 -5.12437e-14 1.07968 91.9595 0.00192285 
2.01439 6.86326e-14 7.28931e-15 1.2866 92.4598 -0.000117665 2.22867 9.12465e-16 -1.73681e-14 
1.48878 93.018 -0.00374347 2.4688 6.97654e-14 1.68268e-14 1.66838 93.6633 -0.010105 
2.74382 -1.48364e-13 8.14973e-15 1.79334 94.4344 -0.0218183 3.05996 -4.62339e-14 -6.30399e-14 
1.80889 95.3866 -0.0399896 3.41503 3.00523e-14 8.33708e-15 1.6035 96.5864 -0.0873059 
3.78527 -6.20962e-14 1.93838e-14 1.07762 98.1844 -0.0759539 4.09989 -6.43652e-14 1.60566e-14 
0.0699566 88.227 0.0112065 0.331832 1.53318e-13 2.54866e-14 0.158979 88.8753 0.0118791 
0.614701 -5.10616e-14 3.30985e-15 0.293083 89.4413 0.00926293 0.850343 5.10945e-14 -5.46785e-15 
0.467487 89.9514 0.00833091 1.05316 -8.41831e-14 4.85029e-15 0.676832 90.4243 0.00796865 
1.23458 -3.18343e-15 -2.66523e-14 0.919463 90.8762 0.00815329 1.40446 1.07708e-13 -4.22891e-14 
1.19579 91.322 0.00872437 1.57209 -1.01085e-13 2.26867e-14 1.50782 91.7772 0.00954682 
1.74698 7.72897e-14 5.12056e-14 1.8584 92.2589 0.0104265 1.93968 -7.69523e-14 -1.19002e-15 
2.25023 92.7887 0.0110104 2.16248 -2.20501e-14 -4.01762e-15 2.68402 93.3953 0.0106582 
2.43006 4.62928e-14 -1.72813e-14 3.15427 94.1191 0.00764003 2.75972 1.03396e-13 1.94428e-14 
3.64303 95.0209 0.000727999 3.17073 -3.8046e-14 -7.54258e-15 4.09321 96.1863 -0.0266638 
3.6794 6.69742e-14 7.29972e-15 4.43654 97.7866 -0.0238453 4.28997 -2.06779e-15 -1.5446e-14 
0.0814198 87.952 0.0132389 0.262935 -1.62604e-14 1.67748e-14 0.184928 88.648 0.013877 
0.489581 -9.71705e-15 -1.38917e-14 0.341836 89.2487 0.0111361 0.679938 2.54636e-14 2.91434e-14 
0.547333 89.7837 0.010424 0.843395 7.17785e-15 -1.35413e-14 0.796853 90.2731 0.0105403 
0.987599 -2.67733e-14 -1.19349e-14 1.09082 90.734 0.0115219 1.11938 -2.52108e-14 3.0146e-14 
1.43314 91.1814 0.0133101 1.24545 -1.24948e-14 -6.19921e-14 1.83123 91.6302 0.015955 
1.37305 -1.22348e-13 6.73107e-14 2.29617 92.0966 0.0195714 1.51062 -1.07124e-13 -1.31145e-14 
2.84315 92.6004 0.0243297 1.66863 9.88602e-14 2.67772e-14 3.49215 93.1682 0.0304224 
1.86059 1.03018e-13 5.64132e-15 4.26849 93.8385 0.0379237 2.10456 -7.72611e-14 -2.18991e-14 
5.20279 94.6701 0.0467138 2.4252 7.43017e-14 5.52128e-14 6.32697 95.7561 0.0543953 
2.85479 -1.12757e-14 8.5626e-15 7.66798 97.2556 0.0614041 3.43931 -4.13142e-14 1.13382e-14 
0.0873668 87.7415 0.0142669 0.186238 9.6971e-16 -5.4682e-14 0.198507 88.4713 0.0149465 
0.350084 1.02817e-14 2.43555e-15 0.367448 89.0988 0.0121566 0.489253 3.3917e-13 4.38954e-14 
0.589501 89.6552 0.0115876 0.607192 -4.83979e-14 2.17049e-14 0.86062 90.1612 0.0119883 
0.706913 -1.83788e-13 -1.82632e-14 1.18247 90.6342 0.0134352 0.791309 8.57176e-14 -4.89192e-15 
1.56104 91.0892 0.0159356 0.863378 1.17467e-13 3.77684e-14 2.00692 91.5405 0.0196614 
0.92644 1.08297e-14 -3.42087e-15 2.53615 92.0033 0.0249358 0.984385 1.48221e-13 -2.31204e-14 
3.17165 92.4963 0.0323038 1.042 -8.23564e-14 3.23561e-14 3.94578 93.0443 0.0425831 
1.10547 -7.89291e-14 -3.69982e-14 4.90461 93.6835 0.0573342 1.1831 1.08985e-13 4.15154e-14 
6.11344 94.4693 0.0774819 1.28663 -1.42096e-13 -4.82947e-15 7.67412 95.4968 0.113495 
1.43256 1.15232e-13 -8.24341e-15 9.7029 96.9066 0.129084 1.64755 -6.29774e-14 1.6237e-14 
0.0871683 87.6002 0.0141744 0.10693 -1.69161e-13 -5.48589e-14 0.198294 88.349 0.0149779 
0.205704 -3.23053e-14 4.09048e-15 0.367205 88.9954 0.0122037 0.29155 -1.48902e-13 1.87871e-14 
0.589419 89.5701 0.0116608 0.361659 -8.8977e-14 -1.19904e-14 0.860971 90.0938 0.0120781 
0.414128 7.94629e-14 1.89085e-14 1.1836 90.5837 0.0135355 0.447597 -1.1683e-13 8.01685e-14 
1.56332 91.0545 0.0160405 0.460936 -7.37702e-14 -3.02154e-14 2.01078 91.5205 0.0197661 
0.452944 1.76287e-14 -2.30128e-14 2.54199 91.9968 0.0250369 0.422029 -1.76759e-13 -1.64799e-15 
3.17987 92.502 0.0324004 0.365812 -1.93868e-14 -1.17684e-14 3.95677 93.061 0.0426784 
0.280576 2.30666e-14 -2.13857e-14 4.91879 93.71 0.0574379 0.160492 1.58076e-13 -3.70398e-14 
6.13128 94.5043 0.0776075 -0.0037023 -1.93968e-13 -3.15581e-14 7.69624 95.5392 0.113702 
-0.226054 1.73646e-13 4.33126e-14 9.73017 96.9552 0.129281 -0.530764 -1.72778e-15 -6.31162e-14 
0.0808369 87.5278 0.0129637 0.030472 2.29063e-13 3.81674e-14 0.18432 88.2812 0.0139741 
0.0664367 1.12976e-13 8.07444e-14 0.341166 88.9386 0.0112806 0.100818 -9.23877e-14 -3.1284e-14 
0.54719 89.5288 0.0106466 0.124914 -8.03281e-14 -2.27214e-14 0.798062 90.0714 0.0108122 
0.132245 3.58307e-14 5.35162e-14 1.09442 90.5828 0.0118248 0.117565 5.43528e-14 -5.01127e-14 
1.44029 91.0777 0.0136258 0.0760777 -9.16164e-14 8.18616e-14 1.84316 91.5706 0.0162684 
0.00270772 8.98275e-14 3.30812e-14 2.31409 92.0774 0.0198713 -0.108654 4.70683e-14 -2.87513e-14 
2.86826 92.6178 0.0246114 -0.266034 7.6673e-14 1.76734e-14 3.5256 93.2186 0.0306911 
-0.48051 -2.45585e-14 -2.85882e-15 4.31142 93.9183 0.038203 -0.767679 1.48433e-13 6.36505e-14 
5.25643 94.7755 0.0470348 -1.14982 -5.4963e-14 -6.58293e-14 6.39292 95.8838 0.0548942 
-1.6569 -7.84477e-14 5.18613e-14 7.74811 97.4019 0.0617974 -2.33276 1.76324e-13 3.92741e-14 
0.0690282 87.5198 0.0107558 -0.0379697 -4.35475e-14 1.56472e-14 0.158071 88.2643 0.0120521 
-0.0582714 -5.6503e-14 -4.23446e-14 0.292174 88.9252 0.00951463 -0.0697559 5.74209e-14 2.11289e-14 
0.467597 89.5277 0.00871234 -0.0860283 -1.46824e-13 3.22659e-14 0.679377 90.0894 0.00843077 
-0.11725 1.66403e-14 -3.65159e-14 0.926202 90.6257 0.00866469 -0.171583 -1.58771e-14 -1.12757e-14 
1.20869 91.1507 0.00925375 -0.256283 1.91017e-13 -2.63504e-14 1.52891 91.6792 0.0100674 
-0.37862 -2.08538e-13 -3.08711e-14 1.88972 92.2282 0.010917 -0.546734 1.16351e-13 -1.42907e-14 
2.29372 92.8191 0.0114571 -0.770435 -6.9578e-14 -1.71772e-14 2.74145 93.4805 0.0110588 
-1.06192 -7.42392e-14 7.32053e-15 3.22731 94.2531 0.00801433 -1.43609 -1.59338e-13 1.62509e-14 
3.73331 95.1978 0.00111017 -1.90997 1.42726e-13 1.93387e-14 4.20254 96.4004 -0.0261341 
-2.49776 -8.38704e-14 2.41474e-14 4.56656 98.0323 -0.0236492 -3.2018 -1.32006e-13 -2.71033e-14 
0.0529425 87.5674 0.0077722 -0.0940496 5.05646e-14 -7.70981e-14 0.122262 88.2913 0.00942519 
-0.160494 -1.36835e-13 -9.25302e-15 0.225405 88.9486 0.00713424 -0.209184 4.54389e-16 5.6552e-15 
0.359322 89.5598 0.00615469 -0.257171 4.67181e-14 -1.34996e-14 0.518436 90.1395 0.00535322 
-0.317007 -1.13835e-13 7.63278e-15 0.699216 90.7012 0.00467768 -0.39842 -8.06646e-17 -1.96718e-15 
0.89835 91.2582 0.00387574 -0.509493 -8.36007e-14 -3.85837e-14 1.11185 91.8252 0.00265118 
-0.657533 1.88278e-14 3.60233e-14 1.33362 92.4195 0.000556147 -0.849635 -1.43259e-13 -1.26912e-14 
1.55327 93.063 -0.00315113 -1.09287 -1.97377e-14 -3.35808e-14 1.75266 93.7847 -0.00961531 
-1.39373 1.63539e-13 -3.70329e-14 1.89936 94.6239 -0.0214345 -1.75602 5.86441e-14 2.26763e-14 
1.93825 95.6361 -0.0397081 -2.1754 3.0323e-14 -5.57471e-14 1.75767 96.8884 -0.0869402 
-2.62619 4.8711e-15 9.62425e-15 1.25712 98.5312 -0.0762358 -3.03577 -6.90975e-14 7.04992e-15 
0.0341454 87.6584 0.00429663 -0.134645 -1.07428e-13 3.03681e-14 0.0804244 88.3525 0.00635582 
-0.234564 -2.22252e-13 -3.13291e-14 0.147576 89 0.00442285 -0.309731 5.90561e-14 -2.55074e-14 
0.233564 89.6158 0.00332996 -0.378946 -2.64317e-13 1.75311e-14 0.332537 90.2105 0.00207048 
-0.455677 8.65063e-14 -1.05058e-13 0.439078 90.7952 0.00057354 -0.549762 -5.16106e-14 3.0774e-14 
0.546437 91.3815 -0.00145518 -0.668484 -1.72544e-14 -1.52656e-16 0.645458 91.983 -0.00439194 
-0.817175 6.71251e-14 -1.29861e-14 0.722839 92.6159 -0.00878966 -0.999282 -2.55941e-14 1.81626e-14 
0.758625 93.3006 -0.0154782 -1.21569 8.90919e-14 4.14321e-14 0.722613 94.0629 -0.0256036 
-1.46275 -2.18534e-13 -1.92311e-14 0.568698 94.9352 -0.0412402 -1.72803 -1.43129e-13 -2.98581e-14 
0.230801 95.9586 -0.0620443 -1.98104 -3.40353e-14 -1.53627e-14 -0.404113 97.1667 -0.106654 
-2.15572 3.91284e-14 3.17472e-14 -1.40564 98.647 -0.0815245 -2.11717 -1.85407e-14 -3.2363e-14 
0.0143687 87.7788 0.00065962 -0.15809 -1.10103e-14 -1.33296e-14 0.0364503 88.4367 0.00319343 
-0.277473 1.43126e-13 5.29368e-14 0.0660102 89.0695 0.00171783 -0.367489 1.17897e-13 1.07553e-16 
0.102404 89.6854 0.000632826 -0.446925 -2.07657e-14 -2.80644e-14 0.140112 90.2906 -0.000911899 
-0.528731 -1.91236e-14 4.67022e-14 0.172623 90.893 -0.00296444 -0.621564 7.32834e-14 -6.4948e-15 
0.190987 91.5016 -0.00579824 -0.730628 6.72561e-14 9.08995e-15 0.18287 92.1276 -0.00976192 
-0.857928 -3.10174e-13 1.83187e-14 0.131038 92.7844 -0.0153332 -1.00184 1.36143e-13 -3.13048e-14 
0.0113429 93.4883 -0.0231549 -1.1557 -1.40728e-13 1.68719e-14 -0.209671 94.2582 -0.033888 
-1.30503 9.1132e-14 -3.05866e-14 -0.577631 95.1143 -0.0486297 -1.42222 -1.80758e-15 1.39506e-14 
-1.14867 96.076 -0.0645744 -1.45798 -1.29161e-13 6.32237e-14 -1.99289 97.1429 -0.0919152 
-1.32492 2.22461e-14 -9.25605e-15 -3.12598 98.3042 -0.051648 -0.870283 1.26614e-13 2.10335e-14 
-0.00492701 87.9131 -0.00310153 -0.164155 -2.09381e-13 -1.07241e-14 -0.00605327 88.5322 -2.51341e-05 
-0.288951 8.51986e-14 7.07073e-15 -0.0125196 89.1467 -0.000924866 -0.38243 -9.18923e-14 -2.02997e-14 
-0.0229381 89.7584 -0.00186011 -0.461784 9.83176e-15 -3.32546e-14 -0.041923 90.3686 -0.00346403 
-0.538218 7.94443e-14 -5.90153e-15 -0.0760466 90.9813 -0.00573413 -0.618268 -1.97121e-13 -1.14006e-14 
-0.134864 91.6022 -0.00884958 -0.70432 1.60027e-13 -5.83769e-14 -0.231486 92.2389 -0.0130277 
-0.794571 -1.08959e-13 1.46029e-14 -0.383487 92.9004 -0.0185289 -0.882266 7.10092e-14 1.96718e-15 
-0.613871 93.5967 -0.0255992 -0.954028 1.89737e-13 5.14293e-14 -0.95177 94.3373 -0.034326 
-0.986888 -1.68032e-13 3.81466e-15 -1.43218 95.1276 -0.044381 -0.943864 9.11562e-14 -1.38847e-14 
-2.09194 95.9624 -0.053676 -0.767155 -1.34743e-13 -9.66241e-16 -2.9635 96.8081 -0.0612005 
-0.375477 -1.56104e-13 2.42462e-14 -3.96768 97.6164 -0.0100387 0.362267 -8.76174e-14 1.92572e-14 
-0.0353727 88.1632 -0.00840662 -0.131714 1.54793e-13 1.91409e-14 -0.0735384 88.7103 -0.00454297 
-0.231566 -3.13044e-13 1.65371e-14 -0.13571 89.2861 -0.00426889 -0.304194 6.28501e-15 -2.87981e-14 
-0.216848 89.88 -0.00444891 -0.360411 -5.66772e-14 -9.63465e-15 -0.318075 90.4842 -0.00544156 
-0.405887 -1.1939e-13 4.50681e-14 -0.443293 91.0942 -0.00707883 -0.44176 -1.95629e-13 3.09145e-14 
-0.599242 91.7078 -0.00930513 -0.464752 -5.39256e-14 -1.23252e-14 -0.795049 92.3236 -0.012016 
-0.466936 1.33274e-13 4.41678e-14 -1.04168 92.9399 -0.015009 -0.435075 -9.10834e-14 2.51604e-14 
-1.35087 93.5529 -0.0178819 -0.349571 1.58736e-13 2.22738e-14 -1.73307 94.1528 -0.019837 
-0.183125 -3.90139e-15 -1.38136e-14 -2.19366 94.7196 -0.0196047 0.10032 -1.93966e-13 3.11678e-14 
-2.72631 95.2159 -0.0144134 0.545967 5.75755e-14 -6.26582e-15 -3.30002 95.5777 -0.00182067 
1.20161 4.62304e-14 4.7698e-14 -3.86649 95.6924 0.0205653 2.11653 5.32491e-14 6.20337e-15 
-0.0452331 88.2569 -0.00989612 -0.0988166 -1.04762e-13 -2.92214e-14 -0.0953183 88.7766 -0.00574184 
-0.173467 2.31061e-13 2.76099e-14 -0.175078 89.3356 -0.0049352 -0.226494 4.28331e-14 -1.43982e-14 
-0.27741 89.9187 -0.00466447 -0.264737 -1.54672e-13 -3.14661e-14 -0.401409 90.5138 -0.00517634 
-0.290685 -1.26043e-13 4.71845e-15 -0.548894 91.1128 -0.00625418 -0.302798 1.83302e-13 -3.85195e-14 
-0.724138 91.7092 -0.00775406 -0.295561 -3.16088e-13 2.74503e-14 -0.933033 92.2977 -0.00946567 
-0.259323 9.1145e-14 -6.38725e-15 -1.18206 92.8717 -0.0110667 -0.179931 1.16268e-13 -9.01189e-15 
-1.47673 93.4216 -0.0120302 -0.0382781 -1.75999e-13 9.50108e-15 -1.81905 93.9311 -0.0115477 
0.189953 6.83151e-14 2.8407e-14 -2.20381 94.3736 -0.0083105 0.533841 5.19394e-14 -6.013e-14 
-2.61306 94.7059 -0.00089808 1.02464 1.72985e-13 2.84928e-15 -3.01469 94.8602 0.011574 
1.69053 -3.54512e-13 -5.04978e-14 -3.35282 94.7526 0.0297483 2.55151 1.60294e-13 2.38178e-14 
-0.0516476 88.321 -0.0110574 -0.058836 5.53531e-14 3.99611e-14 -0.109079 88.8215 -0.00655697 
-0.102991 8.4881e-14 -5.5303e-15 -0.199267 89.3679 -0.00525109 -0.133191 7.26578e-14 -1.44103e-14 
-0.313275 89.9408 -0.00452548 -0.15211 -1.34501e-13 -4.68965e-14 -0.448136 90.5249 -0.0045465 
-0.159018 3.07439e-13 -1.68771e-14 -0.603485 91.1084 -0.00505023 -0.149898 2.75736e-14 3.30673e-14 
-0.781007 91.6818 -0.00582842 -0.117472 5.08105e-14 2.90566e-15 -0.98337 92.2361 -0.00660258 
-0.0511721 3.55983e-14 -1.58276e-14 -1.21296 92.7609 -0.00699248 0.0628915 -1.32494e-14 8.21392e-15 
-1.47015 93.2425 -0.0064691 0.241819 1.33586e-13 -2.69914e-14 -1.75101 93.661 -0.0043066 
0.505359 3.65662e-14 -2.53604e-14 -2.04433 93.9867 0.000339302 0.874339 8.58038e-14 1.71879e-14 
-2.32898 94.1767 0.00822456 1.36751 -3.50544e-14 -2.00274e-14 -2.57067 94.1728 0.0198944 
1.99664 1.22929e-13 4.39284e-14 -2.71488 93.9025 0.0375831 2.75983 4.94396e-15 -8.72913e-15 
-0.0544694 88.3512 -0.0115109 -0.0148549 1.235e-13 -6.86083e-14 -0.114776 88.8425 -0.0067431 
-0.0258133 -2.64276e-13 3.12458e-14 -0.208376 89.3818 -0.00502619 -0.0321825 1.65649e-13 -5.0359e-15 
-0.324813 89.9469 -0.00387871 -0.0325006 9.54957e-15 8.82419e-14 -0.459291 90.5196 -0.00343113 
-0.0229218 -3.06055e-14 -3.10516e-15 -0.609415 91.0856 -0.00339422 0.00281744 -4.13403e-14 4.00287e-14 
-0.774525 91.6326 -0.00352787 0.0533505 -1.54749e-14 1.21049e-14 -0.954522 92.149 -0.00353132 
0.139564 2.69164e-13 -1.2065e-14 -1.14857 92.622 -0.00303279 0.274354 -5.74315e-14 -1.47304e-14 
-1.35349 93.0357 -0.00157151 0.472095 4.66942e-14 -2.99405e-14 -1.56188 93.3687 0.00138107 
0.747582 -1.16027e-13 1.09394e-14 -1.76014 93.5923 0.00634554 1.11408 1.05474e-13 -4.62724e-14 
-1.92651 93.668 0.0137372 1.58021 -1.37761e-14 -4.9908e-15 -2.02906 93.5476 0.0239261 
2.14547 -8.90538e-14 -1.60531e-14 -2.026 93.1717 0.036702 2.79336 1.93245e-13 1.03771e-14 
-0.0539632 88.345 -0.0113729 0.0301431 4.55731e-14 1.46601e-14 -0.112919 88.8388 -0.00636448 
0.0525556 6.89824e-14 -1.22263e-14 -0.203409 89.3781 -0.00434739 0.0689285 7.16553e-14 4.00999e-14 
-0.313769 89.9392 -0.00284849 0.0846603 1.30284e-13 -9.17981e-14 -0.437757 90.5019 -0.00200818 
0.106554 1.16982e-13 2.48152e-14 -0.571311 91.05 -0.00153009 0.142909 4.50172e-14 -3.95239e-14 
-0.711903 91.5696 -0.00116863 0.203435 -2.36604e-13 4.29986e-14 -0.857377 92.0474 -0.000632448 
0.299005 -9.27282e-14 -9.46326e-14 -1.00473 92.4693 0.000408284 0.441221 2.36481e-13 5.81713e-14 
-1.14876 92.8191 0.00231514 0.641646 -1.1741e-13 2.84668e-14 -1.28064 93.0762 0.00544694 
0.910559 2.96152e-13 4.84725e-15 -1.38657 93.2148 0.0100956 1.25501 5.50707e-14 -1.76703e-15 
-1.44677 93.2029 0.0164204 1.676 1.64001e-13 7.01808e-14 -1.43529 93.0025 0.0242317 
2.16466 1.78834e-13 -3.81908e-14 -1.32179 92.5717 0.0327219 2.697 7.51083e-14 3.16309e-14 
-0.0504732 88.303 -0.0106991 0.0734187 1.56983e-13 7.07837e-14 -0.104272 88.8115 -0.00546576 
0.127039 -4.43888e-14 -3.10099e-14 -0.185805 89.3592 -0.00326374 0.163153 1.78489e-13 6.44797e-14 
-0.282548 89.9214 -0.0015081 0.190831 -6.73441e-15 3.22312e-15 -0.387259 90.4769 -0.000383465 
0.219661 -4.29965e-14 -2.46851e-15 -0.4947 91.0085 0.000400865 0.259835 2.31303e-13 -1.15047e-14 
-0.601085 91.5014 0.00107796 0.321999 6.77863e-14 -2.84252e-14 -0.702997 91.9417 0.00191282 
0.416919 -6.91513e-14 -1.70922e-14 -0.796312 92.3156 0.00318066 0.554935 -7.1239e-14 6.75675e-16 
-0.875107 92.6076 0.00514961 0.745119 5.20144e-14 1.10875e-14 -0.930632 92.7996 0.00804292 
0.994046 -6.95277e-14 -2.60542e-14 -0.950525 92.8699 0.0119813 1.30406 -9.0406e-14 -5.30272e-15 
-0.918549 92.7936 0.0168956 1.67098 3.19302e-14 -9.29075e-15 -0.815327 92.5434 0.0223373 
2.08119 -2.18317e-13 -6.69777e-15 -0.620525 92.0928 0.0274624 2.50849 1.81809e-13 6.56072e-15 
-0.0444004 88.2279 -0.00956292 0.112546 6.16751e-14 -1.77514e-14 -0.0897051 88.764 -0.00410239 
0.193117 -2.0839e-13 -1.80723e-14 -0.157179 89.3292 -0.00182868 0.244271 -5.24381e-14 3.85941e-14 
-0.233757 89.8985 7.7534e-05 0.278491 -1.08413e-13 -4.10522e-14 -0.311684 90.4507 0.00135965 
0.308012 -1.56888e-14 4.92315e-14 -0.385093 90.9682 0.00229826 0.344855 -8.63289e-14 2.06692e-14 
-0.449595 91.4362 0.00310563 0.4006 6.79231e-14 -1.68737e-14 -0.501295 91.8416 0.00401564 
0.485983 -9.30853e-14 -2.10248e-15 -0.53588 92.1716 0.00525191 0.610327 1.64303e-13 1.65111e-14 
-0.547745 92.4125 0.0070058 0.78073 1.21709e-13 3.58116e-14 -0.529288 92.5496 0.00939955 
1.00099 -3.61655e-14 -5.53615e-14 -0.470544 92.5661 0.012433 1.27019 -1.77506e-14 7.3137e-14 
-0.359366 92.4442 0.0159144 1.58103 3.22803e-13 8.27897e-16 -0.182508 92.1662 0.0193409 
1.91795 -1.10585e-13 2.61388e-14 0.0723047 91.7179 0.0220013 2.25547 -1.88603e-13 -5.48546e-14 
-0.0361324 88.1243 -0.00803154 0.14543 -9.77126e-15 -3.02154e-14 -0.0700557 88.7011 -0.00232295 
0.246845 6.25383e-14 -2.63643e-14 -0.119053 89.2933 -8.3365e-05 0.306837 1.44289e-13 4.26985e-14 
-0.169806 89.8765 0.00186364 0.341094 2.18622e-13 -5.67515e-14 -0.214529 90.4297 0.00316901 
0.364441 -1.84892e-13 -5.8592e-14 -0.247281 90.9361 0.0041062 0.390749 1.09686e-13 -3.84224e-14 
-0.263719 91.3818 0.00486688 0.432624 1.5971e-13 1.68702e-14 -0.260202 91.7551 0.0056582 
0.500969 -5.54591e-15 3.91076e-14 -0.233005 92.0452 0.00666294 0.604427 -4.75297e-14 -5.94065e-14 
-0.177625 92.2412 0.00801647 0.748684 5.7042e-14 4.3264e-15 -0.0882991 92.3322 0.0097735 
0.935622 1.49006e-13 6.07153e-16 0.0421136 92.3065 0.0118666 1.1623 7.04888e-14 -5.76631e-14 
0.221734 92.1528 0.0140645 1.41987 1.57461e-14 -7.01403e-15 0.458555 91.8616 0.015903 
1.69257 2.53434e-13 1.59287e-14 0.758704 91.4276 0.0168516 1.95711 1.24126e-13 1.29931e-15 
-0.0259947 87.9988 -0.0061595 0.170277 -3.70186e-14 -5.58928e-15 -0.0460137 88.6294 -0.000163219 
0.284794 -4.20146e-14 -2.99205e-14 -0.0726604 89.2581 0.00194645 0.346065 -3.49345e-13 -3.55653e-14 
-0.0926002 89.8619 0.00382493 0.3729 -8.87012e-14 5.13201e-14 -0.0984847 90.4207 0.00501743 
0.382738 -2.02176e-13 6.00214e-16 -0.0848442 90.919 0.00579992 0.391412 1.05546e-13 5.27356e-16 
-0.0480008 91.3449 0.00635068 0.412721 -5.07451e-13 -3.49026e-14 0.0147789 91.6886 0.00686045 
0.457971 2.1791e-13 2.41786e-14 0.105987 91.9422 0.00748577 0.535476 -9.21745e-14 4.5625e-14 
0.228463 92.0982 0.00832704 0.650022 1.84557e-13 2.15305e-14 0.385742 92.1496 0.00940131 
0.802274 3.96246e-14 -6.79925e-15 0.582053 92.0899 0.0106145 0.988168 -1.47658e-13 2.10322e-14 
0.821871 91.9135 0.011743 1.19834 6.81902e-14 8.1261e-15 1.10893 91.6173 0.0123973 
1.41777 -1.65843e-13 -2.14841e-14 1.44485 91.2026 0.0122123 1.62589 2.69056e-15 1.9971e-14 
-0.0142105 87.8598 -0.00398094 0.185528 -9.3224e-15 3.9739e-14 -0.0180373 88.5568 0.00235978 
0.303913 3.313e-14 -3.71092e-14 -0.0187908 89.2314 0.00425289 0.35764 -1.32697e-13 7.2161e-14 
-0.00331831 89.8623 0.00595384 0.368699 3.56546e-14 3.11001e-14 0.0348474 90.4308 0.00689576 
0.357298 -1.84176e-13 -3.51767e-14 0.100167 90.9236 0.00737296 0.341416 1.79373e-13 4.91412e-14 
0.195058 91.3311 0.00756329 0.336254 6.87957e-14 2.08861e-14 0.320757 91.6468 0.0076553 
0.353755 -4.62809e-13 -6.57634e-14 0.477996 91.8659 0.00779493 0.402198 1.21222e-13 -2.06935e-14 
0.667555 91.9848 0.0080661 0.485844 -8.53137e-14 6.71425e-14 0.89056 92.0009 0.00847028 
0.604631 -2.79424e-13 1.39255e-14 1.14845 91.9122 0.00891128 0.753934 1.0205e-13 3.13304e-14 
1.44254 91.7181 0.00919358 0.92444 1.64372e-13 -2.29851e-15 1.77326 91.4205 0.00900509 
1.10226 6.08714e-15 2.29313e-14 2.13907 91.0254 0.00811266 1.26945 -1.5182e-13 -1.64959e-14 
-0.000870941 87.7168 -0.00150368 0.189753 -1.83633e-14 -3.628e-14 0.0137147 88.4925 0.00525257 
0.301339 2.01024e-14 2.13232e-14 0.0423264 89.222 0.00684716 0.337441 -3.19454e-13 9.64159e-15 
0.0977645 89.8857 0.00825725 0.323482 1.9766e-13 -6.51215e-15 0.185168 90.4671 0.00880457 
0.282725 1.08676e-13 2.98442e-14 0.307443 90.9556 0.00882412 0.235563 3.13161e-14 -4.16334e-16 
0.46516 91.3451 0.00851126 0.198814 -1.08647e-13 -1.61208e-14 0.657507 91.6327 0.00806903 
0.185248 1.24151e-13 -7.05339e-15 0.883008 91.8176 0.00764764 0.203287 3.8719e-14 4.81542e-14 
1.14011 91.9006 0.00732831 0.256873 7.2194e-14 -7.6418e-14 1.42747 91.883 0.00710997 
0.345463 -3.44221e-14 9.61037e-16 1.74397 91.7673 0.00690477 0.46413 7.11514e-14 5.544e-14 
2.08832 91.5572 0.00654846 0.603808 1.16462e-13 5.47184e-14 2.45845 91.2584 0.00579347 
0.751734 -6.60201e-14 2.20245e-15 2.85071 90.88 0.004502 0.892216 -1.11557e-13 2.83772e-14 
0.0140925 87.5811 0.00129656 0.181529 -6.60496e-15 -2.96187e-14 0.049444 88.4475 0.00854992 
0.274166 -1.23322e-13 3.75255e-14 0.111131 89.2399 0.00976023 0.281222 8.26956e-14 -9.0275e-14 
0.211429 89.941 0.0107522 0.232047 -2.81525e-13 3.45557e-15 0.353665 90.5369 0.0107451 
0.153412 1.22593e-14 -1.98314e-14 0.538598 91.0207 0.0101445 0.0684519 1.70575e-13 7.34655e-14 
0.764337 91.3905 0.00918636 -0.00419107 -1.47972e-15 -3.12996e-14 1.02748 91.648 0.00810639 
-0.0508348 2.22881e-13 1.04118e-14 1.32393 91.797 0.00707143 -0.0628893 -3.30359e-13 8.99107e-15 
1.64962 91.8426 0.00616783 -0.0367268 -2.3169e-14 2.98355e-14 2.00078 91.7907 0.00539597 
0.026629 1.5727e-13 -2.5569e-14 2.374 91.6477 0.00467593 0.121939 -2.42698e-13 -9.19317e-15 
2.76593 91.4208 0.00386708 0.2403 -1.25757e-13 -2.62915e-14 3.17272 91.1186 0.00276718 
0.369837 -2.49391e-13 -2.95137e-14 3.58947 90.7524 0.00130087 0.496594 2.49727e-13 1.12637e-14 
0.0309391 87.4655 0.00448293 0.159291 7.14108e-14 -3.60857e-14 0.0897826 88.434 0.0123204 
0.219153 1.53921e-13 8.44012e-14 0.188855 89.2964 0.0130434 0.184219 -1.03115e-13 -1.12028e-13 
0.339686 90.0376 0.0134604 0.0885637 -4.73753e-14 3.39902e-14 0.543215 90.6474 0.0127085 
-0.0369069 1.20268e-14 -2.18818e-14 0.797363 91.1236 0.0113037 -0.165922 8.90104e-14 -3.50067e-14 
1.09709 91.4696 0.00955168 -0.277876 -9.87231e-14 4.03011e-14 1.43581 91.6926 0.00773896 
-0.358231 1.11924e-13 -4.22613e-14 1.80649 91.8016 0.00605724 -0.398407 -4.59667e-14 -4.38018e-14 
2.20235 91.8066 0.00459835 -0.395323 1.82805e-13 -2.73618e-14 2.61732 91.7177 0.00335925 
-0.350719 -1.57548e-13 -2.38802e-14 3.04605 91.545 0.00225878 -0.270388 1.23297e-13 3.56052e-14 
3.48363 91.2986 0.00116594 -0.163349 2.83072e-14 -3.8124e-14 3.92511 90.9896 -9.69954e-05 
-0.0409725 2.06259e-14 -2.93029e-14 4.36501 90.6301 -0.00157022 0.0839749 -5.10217e-14 -1.54566e-14 
0.0501628 87.3847 0.00816731 0.121141 1.73733e-15 3.45279e-14 0.13589 88.4663 0.0166739 
0.132379 -5.15334e-14 -3.26544e-14 0.277692 89.404 0.0167683 0.0406991 -1.11519e-13 5.27842e-14 
0.486018 90.1859 0.0164004 -0.11393 -1.37151e-13 -3.56763e-14 0.758672 90.8061 0.014662 
-0.295621 4.17687e-14 2.74294e-14 1.08987 91.2686 0.0122343 -0.474546 5.16288e-14 -3.75602e-14 
1.47059 91.5836 0.00952725 -0.628119 1.46865e-13 -4.20393e-14 1.89048 91.7648 0.00689557 
-0.741223 -3.12597e-13 1.97654e-14 2.33915 91.8274 0.00455641 -0.805733 5.99763e-14 3.52635e-14 
2.80708 91.7863 0.00259762 -0.819608 -1.91486e-13 -8.20698e-15 3.2861 91.6561 0.000998254 
-0.78578 -3.07514e-13 4.0903e-14 3.76931 91.4499 -0.000340576 -0.711025 -2.12851e-14 -6.05809e-14 
4.25079 91.1805 -0.00155816 -0.604891 1.113e-14 3.03976e-14 4.72509 90.8601 -0.00282761 
-0.478688 1.966e-13 3.286e-15 5.18674 90.502 -0.00417531 -0.344516 -2.23738e-13 2.3296e-14 
0.0725619 87.3558 0.0125256 0.0646161 -7.39027e-14 -3.57839e-14 0.189606 88.5611 0.021772 
0.008798 -2.2244e-13 -2.36755e-14 0.381057 89.5775 0.0210261 -0.156623 -6.94184e-14 5.09245e-14 
0.655746 90.3969 0.0195746 -0.38412 -2.86517e-13 -2.11636e-15 1.00729 91.02 0.0165287 
-0.631747 -7.10439e-14 -1.82458e-14 1.42506 91.4588 0.0128099 -0.865729 -8.38184e-14 7.68829e-15 
1.89507 91.7319 0.00897399 -1.0617 -1.35062e-13 -2.94834e-14 2.40246 91.8611 0.00545429 
-1.20459 5.70551e-14 1.42872e-14 2.93319 91.8683 0.0024814 -1.2875 -3.49987e-13 -3.05415e-14 
3.47505 91.774 0.000115906 -1.31024 -7.18418e-14 2.34708e-15 4.01807 91.5967 -0.00170664 
-1.27763 -1.24199e-13 -1.88322e-14 4.55431 91.3524 -0.00312598 -1.198 -2.72012e-13 -5.17641e-15 
5.07747 91.0557 -0.00430945 -1.08194 6.20684e-14 -3.78343e-15 5.58221 90.7198 -0.00544292 
-0.941115 -9.28736e-14 7.76115e-15 6.06364 90.3578 -0.00655438 -0.78742 -2.55771e-13 -3.68108e-15 
0.0993555 87.3989 0.0178231 -0.013628 8.29376e-14 1.69309e-14 0.253696 88.7378 0.0278439 
-0.158351 3.34715e-14 -8.39606e-15 0.504006 89.8332 0.0259229 -0.417315 1.01565e-13 2.65274e-14 
0.856598 90.6827 0.0229463 -0.733128 1.81598e-13 6.18047e-14 1.2994 91.2958 0.0181557 
-1.05647 2.0068e-13 -9.20444e-15 1.81537 91.6956 0.0128168 -1.34937 -2.24435e-13 2.50494e-14 
2.38429 91.9116 0.00767507 -1.58631 3.33483e-14 5.32525e-14 2.98608 91.9753 0.00323698 
-1.75334 2.65413e-15 -1.12757e-14 3.60281 91.916 -0.000288142 -1.84609 -8.21669e-14 -2.67286e-14 
4.21982 91.7599 -0.0029102 -1.8673 -3.26232e-14 -2.76047e-14 4.82584 91.5291 -0.00477542 
-1.82461 1.27797e-13 -2.2881e-14 5.4126 91.2419 -0.00609284 -1.7286 2.34306e-13 1.23911e-14 
5.97412 90.9139 -0.00707702 -1.59135 4.97415e-14 -2.29001e-14 6.50584 90.5586 -0.00793939 
-1.42531 1.90299e-14 -6.40113e-16 7.00397 90.1885 -0.00871842 -1.24247 2.11924e-13 6.29921e-15 
0.132377 87.5386 0.0244561 -0.118274 1.58001e-13 -1.49464e-14 0.332257 89.02 0.0352078 
-0.378377 3.59365e-13 -1.05402e-14 0.653902 90.1902 0.0315652 -0.754228 -1.49873e-13 -5.05498e-14 
1.09961 91.0556 0.0263973 -1.1754 1.31901e-13 -3.63529e-14 1.64936 91.6388 0.019263 
-1.58368 2.23922e-13 3.9968e-14 2.27759 91.9779 0.0119134 -1.93709 -3.45387e-13 -5.44079e-14 
2.95631 92.1168 0.00531642 -2.21026 2.02935e-13 -5.40262e-14 3.65946 92.098 1.0444e-05 
-2.39222 -2.36103e-13 -4.25458e-14 4.36528 91.9594 -0.00388991 -2.4829 7.85275e-14 3.5482e-14 
5.05716 91.7321 -0.00653552 -2.48954 -1.21174e-13 7.05165e-15 5.72342 91.4414 -0.00820551 
-2.42362 2.61097e-13 1.35551e-14 6.35637 91.1069 -0.00920827 -2.29867 -1.11897e-13 -5.48572e-14 
6.95118 90.7445 -0.00981996 -2.12868 -3.18981e-14 -1.52985e-14 7.50478 90.367 -0.0102828 
-1.9271 1.81129e-13 -2.7635e-14 8.01505 89.9859 -0.0106469 -1.70621 2.266e-13 2.4663e-14 
0.174413 87.8056 0.0330233 -0.256032 6.05072e-15 6.86812e-14 0.431395 89.4364 0.0442999 
-0.664361 1.011e-14 -3.25573e-14 0.841499 90.6704 0.0380245 -1.18488 2.24612e-13 4.32571e-14 
1.4005 91.5279 0.0296476 -1.72979 8.39953e-14 7.41768e-15 2.07708 92.0516 0.0193608 
-2.23054 -1.11279e-13 -2.40571e-14 2.83423 92.3007 0.00957646 -2.64213 4.93709e-13 6.58466e-14 
3.63439 92.337 0.00147272 -2.94188 -3.75502e-13 2.2829e-15 4.44501 92.2162 -0.00449661 
-3.12472 6.075e-15 2.00846e-14 5.24096 91.9842 -0.00844636 -3.19741 -1.36505e-13 -2.379e-14 
6.00481 91.6767 -0.0107713 -3.17343 5.46993e-14 5.67255e-16 6.72575 91.3207 -0.0119421 
-3.06928 2.53554e-13 -2.328e-15 7.39786 90.9358 -0.0123895 -2.90197 -2.94095e-13 9.50021e-15 
8.0185 90.5371 -0.0124541 -2.6876 1.28599e-13 5.58668e-15 8.58682 90.1361 -0.0124022 
-2.44069 1.93498e-13 1.64278e-15 9.10286 89.7425 -0.0122878 -2.17376 5.34885e-14 -3.7271e-14 
0.229789 88.2394 0.0444474 -0.436737 2.69011e-13 -2.08167e-15 0.560371 90.0227 0.0557085 
-1.03505 -1.21392e-13 -3.09683e-14 1.08271 91.2983 0.0452465 -1.73342 3.81847e-14 5.85573e-14 
1.78187 92.1103 0.0321051 -2.42093 -2.20254e-13 -7.5287e-15 2.61019 92.5321 0.0176189 
-3.01773 -2.60764e-14 -3.34593e-14 3.51528 92.6527 0.00504195 -3.47867 -3.65659e-13 -4.55712e-14 
4.44813 92.5559 -0.00438314 -3.78825 8.18304e-14 8.48627e-15 5.36978 92.3115 -0.0105433 
-3.95163 7.46417e-14 2.61388e-14 6.25315 91.9726 -0.0140045 -3.98562 -8.45574e-14 1.94237e-14 
7.0819 91.5776 -0.0155341 -3.91196 1.36488e-14 2.08167e-15 7.84792 91.1529 -0.0158423 
-3.75299 -2.0858e-13 -1.53523e-14 8.54864 90.7168 -0.0154832 -3.52945 1.59855e-13 1.10112e-14 
9.18466 90.2822 -0.0148424 -3.25947 -1.41897e-13 1.18733e-14 9.75812 89.8583 -0.0141883 
-2.95835 -3.40589e-13 -4.11793e-14 10.2716 89.4525 -0.0135608 -2.63863 -1.69188e-13 1.21032e-14 
0.305461 88.893 0.0602054 -0.675194 2.19512e-14 -7.93809e-15 0.733609 90.824 0.070184 
-1.51787 -9.77031e-14 -3.86843e-14 1.40156 92.1004 0.0528444 -2.43351 -3.44863e-14 7.9263e-14 
2.27665 92.8084 0.0325781 -3.28066 1.92138e-14 -7.90062e-14 3.2872 93.0696 0.0126814 
-3.9692 1.95274e-13 2.06155e-14 4.36044 93.0131 -0.00273264 -4.46017 -1.44669e-13 -1.28439e-14 
5.43451 92.7491 -0.0128055 -4.75284 2.5184e-13 -1.34372e-14 6.46553 92.3602 -0.018265 
-4.86869 -1.46695e-13 -1.49464e-14 7.42736 91.9037 -0.0204369 -4.83828 2.66245e-13 1.14422e-14 
8.30783 91.417 -0.0205785 -4.69321 -3.39097e-13 -3.39954e-14 9.10404 90.9237 -0.019639 
-4.46201 -1.12181e-13 1.58007e-14 9.81846 90.4387 -0.0182502 -4.16877 1.34948e-13 6.58241e-15 
10.4561 89.971 -0.0167934 -3.83306 3.6178e-13 1.46393e-14 11.0225 89.527 -0.0154986 
-3.47037 3.11681e-13 -2.09134e-14 11.5231 89.1113 -0.0143662 -3.09273 -3.28453e-14 4.54628e-15 
0.413068 89.8397 0.0826822 -0.99444 1.18565e-13 6.88616e-14 0.974302 91.8973 0.0886092 
-2.15389 -5.5525e-14 -1.80966e-14 1.83517 93.1026 0.0595652 -3.33227 1.93248e-13 -4.4742e-14 
2.93345 93.6174 0.0287789 -4.34913 1.09364e-13 -4.45061e-14 4.16196 93.6386 0.00243255 
-5.11028 8.8686e-14 1.18378e-14 5.42174 93.3484 -0.0149844 -5.59579 2.89699e-14 -3.45557e-15 
6.6385 92.883 -0.0241627 -5.83171 -1.37161e-13 -4.36456e-15 7.76775 92.333 -0.0274648 
-5.86341 1.11154e-13 1.31891e-14 8.7896 91.7538 -0.0273049 -5.73854 -5.37348e-14 -4.44193e-14 
9.70041 91.1769 -0.0254298 -5.49901 1.15581e-13 2.30111e-15 10.5054 90.6199 -0.0229187 
-5.17874 1.80848e-13 -1.20086e-14 11.2139 90.0916 -0.0203687 -4.80397 -1.82351e-13 -5.22412e-15 
11.8358 89.5968 -0.0180738 -4.39451 -8.26006e-14 -3.37907e-14 12.3806 89.1377 -0.0161734 
-3.96511 -5.08482e-14 -8.88222e-15 12.8565 88.716 -0.0145996 -3.5266 -9.73284e-14 -2.06213e-14 
0.57325 91.1855 0.116242 -1.43175 1.45758e-13 -4.53804e-14 1.32098 93.3141 0.111368 
-3.00631 1.19189e-13 2.03171e-14 2.44237 94.3216 0.0622546 -4.49555 -3.07879e-14 -5.61218e-14 
3.82504 94.5099 0.0163749 -5.67419 1.15796e-13 -1.54043e-15 5.30955 94.191 -0.016032 
-6.46243 2.226e-14 -3.43336e-14 6.76568 93.6079 -0.0327511 -6.88367 3.31582e-13 -2.19998e-14 
8.11203 92.9144 -0.0381502 -7.00766 -5.81479e-14 -4.27575e-14 9.31295 92.1968 -0.037303 
-6.91112 1.76179e-13 -1.76092e-14 10.3631 91.4988 -0.0337168 -6.65971 2.85577e-13 -4.44089e-15 
11.2728 90.8408 -0.0293487 -6.30391 -3.43066e-13 -3.24706e-14 12.0583 90.2302 -0.0251356 
-5.88049 1.72196e-13 -1.08884e-14 12.7364 89.6687 -0.0214635 -5.41562 1.10162e-13 -1.17714e-14 
13.3224 89.1554 -0.0184393 -4.92766 -8.06577e-14 -1.89898e-14 13.8292 88.6883 -0.0160612 
-4.42944 1.35812e-13 -6.3802e-15 14.2672 88.2661 -0.0141721 -3.92977 1.06071e-13 -1.43132e-15 
0.824069 93.0901 0.167132 -2.05109 -4.4964e-14 -8.07687e-15 1.84062 95.158 0.137759 
-4.17463 6.90697e-14 2.67841e-15 3.31848 95.7447 0.0523935 -6.01339 2.84855e-13 -6.72587e-14 
5.06138 95.4169 -0.0117044 -7.3048 -2.21628e-14 -5.33601e-15 6.83293 94.6459 -0.0459347 
-8.03107 -2.03781e-13 -6.37407e-14 8.47291 93.7235 -0.0556106 -8.29945 2.37727e-14 -3.67553e-14 
9.90931 92.7939 -0.0530315 -8.24262 4.31551e-13 -2.33407e-14 11.1326 91.9184 -0.0459898 
-7.97097 -2.13995e-14 -2.34214e-14 12.163 91.1181 -0.0383007 -7.56394 -1.09059e-13 -5.28006e-14 
13.0297 90.3961 -0.0314015 -7.07521 2.40294e-13 9.21832e-15 13.7608 89.748 -0.0257018 
-6.54011 2.44985e-13 -2.82541e-14 14.3807 89.1668 -0.0211857 -5.9817 -2.47233e-14 -2.94301e-14 
14.9088 88.646 -0.0176958 -5.41494 4.61523e-13 1.27717e-14 15.3603 88.1796 -0.0150637 
-4.84948 -1.12362e-13 -2.3368e-14 15.747 87.7635 -0.0130426 -4.29141 -7.40033e-14 -2.09075e-14 
1.24497 95.8104 0.254331 -2.96689 -1.8692e-13 1.44607e-14 2.65096 97.4998 0.154377 
-5.82022 -1.10328e-13 1.90403e-14 4.62281 97.2832 0.0139125 -7.99754 7.34413e-14 5.79398e-14 
6.80844 96.1982 -0.0667 -9.2698 -5.72709e-13 5.63716e-14 8.86691 94.8863 -0.0867852 
-9.7808 1.06498e-13 -8.95117e-15 10.6305 93.6182 -0.0794601 -9.78025 -6.08083e-13 6.20008e-14 
12.0747 92.4752 -0.0647481 -9.47034 9.13367e-14 2.49514e-14 13.2426 91.4721 -0.0507587 
-8.98425 -1.02564e-13 2.83914e-14 14.1889 90.5987 -0.0393512 -8.40295 2.16722e-13 7.41748e-14 
14.9621 89.8379 -0.030619 -7.77465 4.4624e-14 6.46705e-15 15.6005 89.1726 -0.0240928 
-7.12783 3.88509e-14 3.81941e-14 16.1331 88.5878 -0.0192676 -6.47923 -2.99254e-13 -2.02095e-16 
16.5813 88.0718 -0.0157177 -5.83866 -2.6773e-13 3.12745e-14 16.9611 87.6156 -0.0131307 
-5.21165 -4.15293e-14 2.10244e-14 17.2841 87.2126 -0.0111984 -4.60113 -2.19623e-13 2.95541e-14 
1.98934 99.7352 0.366354 -4.41367 1.89848e-14 5.4512e-14 3.97597 100.311 0.140387 
-8.18973 -2.77306e-13 1.10453e-13 6.62309 98.6713 -0.100468 -10.5541 4.40065e-14 1.78815e-14 
9.31025 96.6238 -0.149625 -11.5174 -3.73757e-13 4.81663e-14 11.5683 94.785 -0.128407 
-11.5978 -1.71918e-13 9.42605e-14 13.3034 93.2264 -0.0944994 -11.21 -3.4478e-13 6.1754e-14 
14.6195 91.9285 -0.06806 -10.5951 -1.60545e-13 3.66577e-14 15.6285 90.8477 -0.048979 
-9.87775 2.68605e-14 5.40245e-14 16.4162 89.9404 -0.0358112 -9.12253 -2.27415e-13 5.47305e-14 
17.0433 89.1707 -0.0267158 -8.36248 -2.15369e-13 4.12682e-14 17.5518 88.5106 -0.0203937 
-7.61442 -2.80269e-13 1.63012e-14 17.9705 87.939 -0.0159535 -6.88662 1.73514e-13 5.78435e-14 
18.3198 87.4403 -0.0128069 -6.18273 -6.1132e-13 1.884e-14 18.6137 87.0033 -0.0105742 
-5.50391 -2.01204e-13 -5.0307e-15 18.8625 86.6201 -0.00893995 -4.84985 -7.82638e-14 3.02397e-14 
3.47024 105.53 0.6564 -6.81623 1.07914e-13 4.07729e-14 6.19971 103.079 -0.119427 
-11.6581 -1.67089e-14 -1.05541e-14 9.78944 99.3493 -0.292057 -13.61 -1.07747e-13 6.07864e-14 
12.9109 96.4877 -0.225918 -13.8143 2.3978e-13 2.86689e-14 15.0371 94.2613 -0.13733 
-13.2569 -7.64944e-14 1.91132e-14 16.4797 92.5259 -0.087193 -12.4239 -4.47004e-14 7.28584e-17 
17.4933 91.1577 -0.0559269 -11.5035 8.69513e-14 7.0265e-14 18.2328 90.0591 -0.0372981 
-10.5753 -3.70343e-13 7.76462e-15 18.7922 89.1602 -0.0256896 -9.6713 -3.12195e-13 -3.59608e-15 
19.2285 88.4113 -0.0182825 -8.80357 7.31359e-14 3.36311e-14 19.5775 87.7775 -0.0134117 
-7.97546 -2.09936e-13 -1.40738e-14 19.8625 87.2341 -0.0101334 -7.1865 -1.64861e-13 -3.94997e-15 
20.0989 86.7635 -0.00788536 -6.43461 1.06914e-13 3.25183e-14 20.2972 86.3536 -0.00633259 
-5.717 1.48836e-13 1.37286e-14 20.4647 85.9958 -0.00521803 -5.03068 -1.97904e-13 -3.55705e-15 
6.13705 112.785 0.0418946 -11.4324 -1.32672e-14 2.83107e-14 10.0934 103.876 -0.668798 
-16.1169 1.10051e-13 -5.7801e-15 15.1081 99.0523 -0.48282 -16.6165 -1.1402e-13 1.85824e-14 
17.7329 95.7283 -0.199776 -15.6662 -4.24383e-14 -1.24137e-14 19.1423 93.3191 -0.114363 
-14.4644 1.77969e-13 5.55112e-17 19.9959 91.5456 -0.0655038 -13.2486 -4.35901e-13 -2.1684e-15 
20.5526 90.1939 -0.0422574 -12.0948 -7.43502e-14 -2.55455e-14 20.9422 89.134 -0.0291155 
-11.0169 4.90177e-13 1.07449e-14 21.2294 88.2804 -0.0214561 -10.0125 -2.28061e-13 -2.68223e-14 
21.4501 87.5771 -0.0166653 -9.07458 -2.41369e-13 -2.33147e-15 21.6251 86.9867 -0.0135252 
-8.19558 -1.40929e-14 -1.99511e-14 21.7673 86.4833 -0.0113753 -7.36842 -3.80963e-13 3.84588e-15 
21.8849 86.0492 -0.00985195 -6.58689 -1.18225e-13 -4.89539e-14 21.9834 85.6723 -0.00874847 
-5.84554 2.70617e-14 -2.69559e-14 22.0665 85.3441 -0.00790931 -5.1396 1.16237e-13 -1.08941e-15 
9.68195 113.226 -1.4152 -17.4289 4.7562e-13 -9.81992e-14 19.7201 103.406 -0.982225 
-20.2144 7.23588e-13 -8.20871e-14 22.571 98.183 -0.0225901 -18.3207 -2.44166e-13 -8.15459e-14 
23.2112 94.5583 -0.00113357 -16.577 1.4462e-13 -8.74856e-14 23.48 92.1616 0.0418021 
-14.985 1.93831e-13 -9.62286e-14 23.5832 90.4457 0.0454264 -13.5784 4.77202e-13 -5.7121e-14 
23.6312 89.1687 0.0459614 -12.3187 8.01303e-14 -4.91863e-14 23.6541 88.1803 0.0439027 
-11.178 2.72421e-14 -2.92058e-14 23.6656 87.3915 0.0414799 -10.1338 4.53262e-13 -1.12549e-14 
23.6715 86.7455 0.0390489 -9.16909 3.77851e-13 -2.40537e-14 23.6742 86.2055 0.0368041 
-8.27119 1.42955e-13 -1.9991e-14 23.6751 85.7464 0.0347803 -7.43012 8.80962e-14 -2.26607e-14 
23.675 85.3514 0.0329763 -6.63795 4.32508e-13 -2.39236e-14 23.6741 85.009 0.0313736 
-5.88821 1.6584e-13 -2.23797e-14 23.6727 84.7112 0.0299681 -5.17543 4.65739e-14 -4.18467e-14 
23.6695 84.229 0.0276347 -3.83959 -1.48253e-13 -1.90212e-15 22.1961 84.812 -0.00685111 
-3.81451 2.43829e-13 9.74047e-15 20.7259 85.414 -0.00397374 -3.73715 -3.31922e-14 2.7197e-14 
19.2514 85.994 -0.00705252 -3.60848 -2.16108e-13 1.92836e-14 17.7912 86.5488 -0.00893476 
-3.43087 3.87711e-14 -4.97345e-15 16.3588 87.0702 -0.010643 -3.20822 -6.3248e-14 1.06195e-14 
14.9671 87.552 -0.0119172 -2.94565 1.44419e-13 1.93275e-14 13.6264 87.9892 -0.0127487 
-2.64912 3.63078e-14 -4.05814e-15 12.3448 88.3787 -0.0131303 -2.32497 -1.34389e-13 -2.66974e-15 
11.1279 88.7188 -0.0130875 -1.97944 -3.28227e-13 6.91027e-15 9.97877 89.0096 -0.0126619 
-1.61828 7.07906e-14 3.96991e-15 8.89831 89.2525 -0.0118994 -1.24638 1.42532e-13 2.2381e-14 
7.88524 89.4503 -0.0108405 -0.867576 -2.47743e-13 -3.59834e-14 6.93657 89.6069 -0.00950973 
-0.484484 1.70221e-13 6.78711e-15 6.04773 89.7276 -0.00790849 -0.09847 5.01925e-14 -7.31533e-15 
5.21278 89.8183 -0.00600677 0.290327 -7.28584e-16 -2.58035e-14 4.42451 89.8867 -0.00373513 
0.682887 9.42788e-14 5.97786e-15 3.67451 89.9418 -0.000974784 1.08112 -2.00458e-13 1.00874e-15 
2.95302 89.9945 0.00245466 1.48758 3.3213e-13 -6.9866e-16 2.24887 90.0588 0.00680973 
1.90498 -2.60205e-13 -3.21869e-14 1.54922 90.1523 0.0124381 2.33554 3.628e-14 2.78033e-14 
0.839428 90.2977 0.0197841 2.77978 1.88707e-13 3.10758e-14 0.10295 90.5248 0.0293835 
3.23473 -9.18848e-14 -2.36096e-14 -0.678183 90.8715 0.0417068 3.69113 7.00828e-15 3.49096e-14 
-1.52155 91.3866 0.057389 4.1291 3.16691e-14 -1.06096e-14 -2.44184 92.1259 0.0736554 
4.51172 -1.72947e-13 -1.51615e-15 -3.43266 93.1591 0.100662 4.78084 8.80442e-14 2.66454e-14 
-4.52369 94.419 0.026652 4.8289 8.62036e-14 -1.69864e-14 23.6679 84.0392 0.0266957 
-3.20846 1.77559e-13 -1.61286e-14 22.2455 84.6023 -0.00653094 -3.18785 -2.3339e-13 -3.24914e-15 
20.8256 85.1843 -0.00366302 -3.12391 2.54845e-13 1.15389e-14 19.3999 85.7457 -0.00655664 
-3.01751 -5.96204e-13 -1.73754e-14 17.9854 86.2838 -0.00833661 -2.87048 -5.0758e-15 -2.20442e-14 
16.5946 86.7909 -0.0100117 -2.68574 1.11858e-13 2.41127e-14 15.239 87.2607 -0.0113424 
-2.46708 -1.92998e-13 1.10789e-14 13.9285 87.6883 -0.0123214 -2.21894 2.38871e-14 7.53293e-15 
12.6711 88.0698 -0.0129349 -1.94603 -2.31724e-14 -1.25091e-14 11.4727 88.4028 -0.0131965 
-1.653 1.78163e-13 1.85017e-14 10.3371 88.6864 -0.0131342 -1.3441 -2.28859e-13 1.76172e-15 
9.26603 88.9204 -0.0127828 -1.02289 -1.71366e-13 -7.31016e-14 8.2595 89.1063 -0.0121752 
-0.692018 -2.81025e-15 3.97647e-14 7.31575 89.2463 -0.0113347 -0.353038 4.35908e-13 -2.90816e-15 
6.43154 89.3435 -0.0102661 -0.00630299 -5.00579e-13 1.7749e-14 5.60221 89.4021 -0.00894746 
0.3491 -6.17215e-14 -6.84348e-15 4.8218 89.4273 -0.00731929 0.715382 -1.51885e-13 1.12508e-14 
4.08297 89.4257 -0.00527016 1.09604 -4.12517e-15 2.28376e-15 3.37687 89.4056 -0.00261669 
1.4958 3.11973e-14 1.03372e-14 2.69285 89.378 0.000924978 1.92045 1.4979e-13 1.17198e-14 
2.01802 89.3577 0.00577972 2.37657 2.84148e-14 -3.15633e-14 1.33666 89.3651 0.0125615 
2.87086 -4.69694e-14 -2.62099e-14 0.629467 89.4284 0.0221535 3.40896 -7.08773e-14 1.44208e-14 
-0.127207 89.5877 0.0356039 3.99318 -8.25486e-14 -1.28127e-14 -0.961319 89.8991 0.0548388 
4.61835 -2.46693e-13 1.01065e-14 -1.9065 90.4351 0.0772498 5.26462 3.30968e-13 -3.42781e-15 
-2.98356 91.3028 0.122796 5.88254 -4.50668e-14 -1.3517e-14 -4.25715 92.537 0.0689324 
6.36937 -6.42195e-15 -3.69149e-15 23.6665 83.8819 0.0259238 -2.59757 -2.48562e-13 -2.14199e-14 
22.2858 84.4285 -0.0062748 -2.58106 1.76883e-13 3.23786e-15 20.9069 84.9935 -0.00343447 
-2.52961 -1.15311e-13 9.78688e-15 19.5211 85.5391 -0.00619072 -2.44398 -1.08455e-14 1.3762e-14 
18.1443 86.0627 -0.00789597 -2.32555 -6.18949e-15 3.46966e-15 16.7878 86.5567 -0.00954699 
-2.17646 -2.23325e-13 -1.71352e-14 15.4627 87.015 -0.0109225 -1.9995 2.13718e-14 -1.43652e-14 
14.1784 87.4324 -0.01202 -1.79787 1.29348e-13 8.25582e-15 12.9427 87.8048 -0.0128251 
-1.575 2.16084e-13 2.43102e-14 11.7618 88.1289 -0.0133467 -1.33424 -1.81764e-14 -5.01657e-14 
10.64 88.4027 -0.0136074 -1.07862 2.60798e-14 2.01334e-14 9.57989 88.6251 -0.0136381 
-0.810593 2.18568e-13 1.84563e-14 8.58246 88.7959 -0.0134722 -0.531817 -2.06751e-13 -2.53459e-14 
7.64712 88.9156 -0.0131395 -0.242991 -9.06705e-14 1.67722e-14 6.77187 88.9855 -0.0126587 
0.0563141 2.19654e-13 -6.47317e-15 5.95343 89.0074 -0.0120302 0.367794 -1.96891e-13 -2.5008e-14 
5.18723 88.9837 -0.0112259 0.694548 -1.46518e-13 -3.86674e-14 4.46743 88.9179 -0.0101752 
1.04123 1.93619e-13 -5.68382e-15 3.78667 88.8143 -0.00874336 1.41422 -2.68795e-13 -1.13512e-14 
3.13581 88.6791 -0.00669813 1.8218 -7.84026e-14 1.13616e-14 2.50338 88.5212 -0.00365639 
2.27433 1.74964e-13 -1.39038e-14 1.87471 88.3541 0.000996087 2.78434 -1.49176e-13 1.99545e-14 
1.23076 88.1984 0.00824841 3.36633 -4.18936e-14 -8.58341e-15 0.546382 88.0862 0.0195407 
4.03591 2.16077e-14 1.48666e-14 -0.211406 88.0681 0.0377079 4.80749 6.66446e-14 -3.21201e-14 
-1.08814 88.2196 0.0628423 5.68826 -2.71744e-13 -1.21986e-14 -2.12698 88.6793 0.121611 
6.66568 2.79766e-13 1.57235e-14 -3.46559 89.5321 0.0881755 7.68381 -1.07633e-13 -4.98906e-14 
23.6652 83.7563 0.0253017 -2.00321 2.31828e-13 -2.35922e-15 22.3176 84.2896 -0.00609466 
-1.99056 -2.76876e-13 -1.73472e-16 20.971 84.8411 -0.00329741 -1.951 -7.66991e-14 2.03752e-14 
19.6166 85.3737 -0.00596298 -1.88514 -3.64916e-13 -2.92132e-14 18.2696 85.8852 -0.007624 
-1.79401 5.68295e-15 7.96867e-15 16.9407 86.368 -0.00926682 -1.67912 1.23616e-13 1.21047e-14 
15.6402 86.8161 -0.0106855 -1.54245 -2.5625e-13 -2.5056e-14 14.3774 87.2241 -0.0118832 
-1.38624 9.95731e-16 -4.53045e-15 13.1601 87.5874 -0.012848 -1.21288 -1.03379e-13 1.31745e-14 
11.9945 87.9022 -0.013589 -1.02469 1.00614e-16 3.013e-14 10.8856 88.1657 -0.0141284 
-0.823714 -3.6085e-13 4.5167e-15 9.83642 88.3757 -0.0144992 -0.611545 1.08562e-13 -1.50441e-14 
8.84889 88.5307 -0.0147409 -0.38911 4.03937e-13 2.96788e-14 7.92341 88.6295 -0.014896 
-0.156519 4.32189e-14 1.03555e-14 7.05915 88.6716 -0.0150052 0.087116 3.12042e-14 1.50325e-14 
6.25416 88.6564 -0.0151028 0.343854 -2.28536e-13 2.49323e-15 5.50535 88.5836 -0.0152102 
0.617132 2.84987e-13 1.32344e-14 4.80855 88.4527 -0.0153271 0.91202 2.46563e-13 4.37142e-14 
4.15838 88.2634 -0.0154162 1.23556 -4.05925e-14 -2.4104e-15 3.54794 88.0158 -0.0153784 
1.59719 1.0986e-13 1.12367e-14 2.96841 87.7106 -0.0150075 2.00935 -4.30867e-13 -2.10821e-14 
2.40817 87.3505 -0.0139147 2.48825 3.21364e-13 -1.22055e-14 1.85155 86.9418 -0.0113658 
3.05474 -8.2781e-15 3.34455e-15 1.27675 86.4979 -0.00613344 3.73532 -1.95295e-13 1.46896e-14 
0.65307 86.0466 0.00469619 4.56267 -1.72626e-13 1.57825e-14 -0.0657387 85.6389 0.0225974 
5.57505 3.15942e-13 2.05183e-14 -0.936801 85.3886 0.0739452 6.81114 -1.79613e-13 1.04014e-14 
-2.11533 85.3969 0.0591069 8.301 1.92873e-13 2.51049e-14 23.6643 83.6622 0.0248335 
-1.42168 -8.67084e-14 -5.7428e-15 22.3412 84.1855 -0.00597098 -1.41273 3.3612e-14 1.31282e-14 
21.0186 84.7267 -0.00321669 -1.38469 4.10838e-13 1.60265e-14 19.6876 85.2495 -0.00582402 
-1.33799 -7.27994e-14 1.9904e-14 18.3627 85.7516 -0.00746005 -1.27335 -3.7326e-13 -2.27796e-14 
17.0544 86.2256 -0.00910299 -1.19178 2.10977e-14 8.75211e-15 15.7726 86.6654 -0.0105588 
-1.09457 2.91284e-13 1.31123e-14 14.5263 87.0655 -0.0118358 -0.983203 4.82982e-14 2.67383e-15 
13.3234 87.4209 -0.0129259 -0.859241 -4.98525e-14 -2.79555e-14 12.1702 87.7275 -0.0138403 
-0.724179 3.75498e-14 9.29345e-15 11.0719 87.9817 -0.0146039 -0.579306 4.36345e-13 -8.3859e-16 
10.0323 88.1805 -0.0152542 -0.425565 -9.70578e-14 1.49357e-14 9.05387 88.3212 -0.0158397 
-0.263404 -2.41203e-13 -2.55581e-14 8.13779 88.4014 -0.0164181 -0.0926317 5.5532e-14 1.70002e-14 
7.28426 88.4187 -0.017055 0.0877308 8.49321e-15 1.67146e-14 6.49249 88.3707 -0.0178228 
0.279626 3.06623e-13 1.07512e-14 5.76078 88.254 -0.0188002 0.48617 3.23699e-15 -7.62303e-15 
5.08659 88.0648 -0.0200714 0.711931 -3.24712e-13 1.71833e-14 4.46658 87.7981 -0.021724 
0.963315 6.20407e-14 9.77864e-15 3.8964 87.4474 -0.0238437 1.24911 -7.11688e-14 -6.041e-14 
3.37047 87.0044 -0.0265 1.58124 1.46615e-13 4.70171e-14 2.88135 86.4591 -0.0297145 
1.97593 -1.00614e-16 -2.54363e-14 2.41882 85.7995 -0.0333772 2.45525 2.0095e-14 -1.8088e-14 
1.96805 85.0129 -0.0371251 3.04946 -1.83117e-14 -5.49213e-15 1.50686 84.0885 -0.0396473 
3.80021 7.73964e-14 7.01522e-15 0.999496 83.0223 -0.0398205 4.76527 -6.31301e-14 -2.79637e-15 
0.39382 81.8407 -0.0231215 6.02299 -7.43502e-14 -8.98587e-15 -0.429143 80.5817 -0.0303646 
7.6848 8.57647e-15 -3.30985e-14 23.6636 83.5994 0.0245202 -0.849335 1.57065e-13 -2.61119e-15 
22.3569 84.1161 -0.00589418 -0.843998 4.73517e-13 9.25258e-15 21.0501 84.6504 -0.00317377 
-0.827244 -4.42806e-14 3.34553e-14 19.7346 85.1666 -0.00574705 -0.799351 -2.43902e-13 -2.05053e-14 
18.4245 85.6623 -0.00737059 -0.760725 -1.04142e-13 -1.67083e-14 17.1299 86.1301 -0.00901701 
-0.711949 4.05787e-14 2.72377e-14 15.8606 86.5641 -0.0105003 -0.65376 -3.41518e-13 -2.59309e-15 
14.6255 86.9585 -0.0118331 -0.586995 4.15744e-14 -1.85214e-15 13.4325 87.3083 -0.0130101 
-0.512529 1.84332e-14 2.09859e-14 12.2879 87.6088 -0.0140455 -0.431193 -9.44071e-14 1.27508e-14 
11.1973 87.856 -0.0149671 -0.34369 6.87991e-14 5.15702e-15 10.1648 88.0462 -0.0158172 
-0.250505 7.81389e-14 -9.10916e-15 9.19316 88.1762 -0.0166527 -0.151811 -1.78042e-13 8.83524e-15 
8.28437 88.2424 -0.0175448 -0.0473762 -2.3561e-14 -8.81909e-15 7.43928 88.2413 -0.0185804 
0.0635419 -1.4734e-13 7.53792e-16 6.65797 88.1685 -0.0198652 0.182321 3.65166e-13 -1.30139e-14 
5.9398 88.019 -0.0215281 0.311131 -1.4086e-13 1.92143e-14 5.28358 87.7859 -0.0237296 
0.45315 6.40599e-14 6.44276e-15 4.68762 87.4604 -0.0266737 0.612861 1.70003e-14 7.84312e-15 
4.1498 87.0304 -0.030626 0.796499 -2.01436e-13 1.41584e-14 3.66745 86.4801 -0.0359387 
1.01269 3.80456e-13 -6.84348e-15 3.23716 85.7878 -0.0430854 1.27345 -1.72445e-13 -2.02876e-15 
2.8542 84.9245 -0.0527111 1.59565 -1.7291e-13 -4.56926e-15 2.51149 83.8512 -0.0656596 
2.00342 -2.86993e-14 2.88831e-15 2.19745 82.5149 -0.0831938 2.53182 1.53086e-13 1.08212e-14 
1.89258 80.8454 -0.105958 3.2333 3.10342e-13 1.70627e-14 1.55902 78.7458 -0.139979 
4.18642 3.679e-14 4.71845e-16 1.1456 76.1194 -0.156397 5.52139 -1.11675e-13 2.3731e-15 
23.6633 83.5681 0.0243631 -0.282499 -3.0036e-13 -2.62467e-14 22.3647 84.0814 -0.00585743 
-0.280725 -2.40804e-13 1.88259e-14 21.0659 84.6122 -0.00315549 -0.275152 3.02917e-13 4.06001e-15 
19.758 85.125 -0.00571316 -0.265873 -1.49689e-13 6.0718e-15 18.4552 85.6175 -0.00733172 
-0.253022 -1.3628e-13 1.4824e-14 17.1675 86.0822 -0.00898095 -0.236789 4.21538e-15 -2.52822e-14 
15.9045 86.5132 -0.010479 -0.217413 -1.47948e-13 -2.85731e-14 14.6751 86.9047 -0.0118405 
-0.195163 5.75963e-14 6.21565e-15 13.4871 87.2514 -0.0130622 -0.170322 1.86334e-13 -1.39485e-14 
12.347 87.5487 -0.0141599 -0.143156 3.5149e-14 5.65001e-15 11.2604 87.7921 -0.0151633 
-0.113887 -1.02255e-13 -7.15448e-15 10.2316 87.9779 -0.0161178 -0.0826617 -1.07282e-13 2.29528e-15 
9.26363 88.102 -0.0170851 -0.0495218 5.56846e-15 2.01258e-14 8.35881 88.1608 -0.0181444 
-0.0143692 1.38535e-14 -1.70466e-14 7.51835 88.1497 -0.019395 0.0230711 6.62179e-14 -1.52022e-14 
6.74279 88.0638 -0.0209617 0.0632965 -3.98171e-13 -4.59409e-15 6.03209 87.8967 -0.0230028 
0.107084 3.90989e-13 2.47703e-14 5.38579 87.64 -0.0257243 0.155573 -2.10214e-14 -1.79056e-15 
4.80316 87.2826 -0.0294003 0.210373 -2.42313e-13 1.12886e-14 4.28335 86.8096 -0.0344073 
0.27374 2.62932e-13 8.31106e-15 3.82544 86.2003 -0.0412772 0.348824 -2.21982e-13 -1.70998e-14 
3.42843 85.4265 -0.0507799 0.440057 1.12479e-13 3.06443e-14 3.09108 84.4486 -0.0640803 
0.553767 3.10099e-14 2.45945e-14 2.81133 83.2109 -0.08289 0.69916 -1.04354e-13 -8.5704e-15 
2.58486 81.633 -0.110459 0.889959 -2.31204e-13 5.98219e-15 2.40402 79.5987 -0.148989 
1.14733 -2.0936e-13 -1.19106e-14 2.24208 76.9188 -0.221615 1.5043 2.58127e-13 1.419e-14 
2.10088 73.3794 -0.251323 2.01899 -7.80626e-14 -3.25122e-14 23.6633 83.5681 0.0243631 
0.282499 2.64906e-13 2.20819e-15 22.3647 84.0814 -0.00585743 0.280725 -2.73979e-13 -1.70871e-14 
21.0659 84.6122 -0.00315549 0.275152 7.32921e-14 4.9032e-15 19.758 85.125 -0.00571316 
0.265873 1.55233e-13 6.45941e-15 18.4552 85.6175 -0.00733172 0.253022 -1.90042e-13 -3.95154e-15 
17.1675 86.0822 -0.00898095 0.236789 -3.13034e-13 1.05859e-14 15.9045 86.5132 -0.010479 
0.217413 -1.57735e-13 7.40845e-15 14.6751 86.9047 -0.0118405 0.195163 -1.03102e-13 9.8718e-16 
13.4871 87.2514 -0.0130622 0.170322 -1.39801e-13 -2.6301e-14 12.347 87.5487 -0.0141599 
0.143156 9.83102e-14 -3.09283e-14 11.2604 87.7921 -0.0151633 0.113887 1.11612e-14 -7.36247e-15 
10.2316 87.9779 -0.0161178 0.0826617 -1.52447e-13 1.07393e-14 9.26363 88.102 -0.0170851 
0.0495218 5.02029e-15 4.8632e-15 8.35881 88.1608 -0.0181444 0.0143692 -2.32529e-13 2.04972e-14 
7.51835 88.1497 -0.019395 -0.0230711 -1.06238e-13 -2.57403e-15 6.74279 88.0638 -0.0209617 
-0.0632965 2.5796e-13 1.27946e-14 6.03209 87.8967 -0.0230028 -0.107084 -2.8778e-13 1.03044e-14 
5.38579 87.64 -0.0257243 -0.155573 3.44134e-14 1.13288e-14 4.80316 87.2826 -0.0294003 
-0.210373 -2.87607e-13 -3.19081e-14 4.28335 86.8096 -0.0344073 -0.27374 3.3442e-14 3.48159e-15 
3.82544 86.2003 -0.0412772 -0.348824 -1.82094e-13 5.09965e-15 3.42843 85.4265 -0.0507799 
-0.440057 -9.89486e-14 1.04604e-15 3.09108 84.4486 -0.0640803 -0.553767 7.74242e-14 -6.51606e-15 
2.81133 83.2109 -0.08289 -0.69916 -2.26243e-13 -1.17293e-14 2.58486 81.633 -0.110459 
-0.889959 -3.70814e-14 -7.84789e-15 2.40402 79.5987 -0.148989 -1.14733 4.73926e-14 -1.09981e-15 
2.24208 76.9188 -0.221615 -1.5043 -1.37362e-13 -1.58172e-14 2.10088 73.3794 -0.251323 
-2.01899 -9.89764e-14 2.76411e-14 23.6636 83.5994 0.0245202 0.849335 -1.43358e-13 -1.11786e-14 
22.3569 84.1161 -0.00589418 0.843998 5.2007e-14 4.29387e-15 21.0501 84.6504 -0.00317377 
0.827244 -2.25129e-13 -1.97151e-15 19.7346 85.1666 -0.00574705 0.799351 4.00721e-14 -2.79616e-15 
18.4245 85.6623 -0.00737059 0.760725 1.7919e-13 8.12696e-15 17.1299 86.1301 -0.00901701 
0.711949 -8.70033e-14 2.22492e-14 15.8606 86.5641 -0.0105003 0.65376 -1.2311e-13 -2.8277e-14 
14.6255 86.9585 -0.0118331 0.586995 -1.24283e-13 1.76549e-15 13.4325 87.3083 -0.0130101 
0.512529 2.48836e-13 -8.35019e-15 12.2879 87.6088 -0.0140455 0.431193 -1.05426e-13 7.74844e-15 
11.1973 87.856 -0.0149671 0.34369 -6.45491e-14 2.09632e-14 10.1648 88.0462 -0.0158172 
0.250505 1.40363e-13 1.19765e-15 9.19316 88.1762 -0.0166527 0.151811 -1.21472e-13 3.56707e-15 
8.28437 88.2424 -0.0175448 0.0473762 9.36057e-15 -1.72093e-14 7.43928 88.2413 -0.0185804 
-0.0635419 2.87322e-13 2.84216e-14 6.65797 88.1685 -0.0198652 -0.182321 -1.05159e-14 -2.83637e-14 
5.9398 88.019 -0.0215281 -0.311131 -3.39555e-14 7.51374e-15 5.28358 87.7859 -0.0237296 
-0.45315 5.63473e-14 1.61516e-14 4.68762 87.4604 -0.0266737 -0.612861 2.34038e-13 -5.03764e-15 
4.1498 87.0304 -0.030626 -0.796499 -4.56683e-14 3.37204e-14 3.66745 86.4801 -0.0359387 
-1.01269 8.01512e-14 -3.58559e-14 3.23716 85.7878 -0.0430854 -1.27345 -3.46945e-16 2.09216e-14 
2.8542 84.9245 -0.0527111 -1.59565 -1.42795e-13 4.02109e-15 2.51149 83.8512 -0.0656596 
-2.00342 1.35954e-13 -7.33441e-15 2.19745 82.5149 -0.0831938 -2.53182 5.23678e-14 -1.72605e-14 
1.89258 80.8454 -0.105958 -3.2333 -6.01325e-14 -5.14519e-15 1.55902 78.7458 -0.139979 
-4.18642 9.516e-14 1.26843e-14 1.1456 76.1194 -0.156397 -5.52139 -1.00697e-13 3.05311e-16 
23.6643 83.6622 0.0248335 1.42168 2.72112e-13 3.6574e-14 22.3412 84.1855 -0.00597098 
1.41273 -1.01183e-13 -2.52673e-14 21.0186 84.7267 -0.00321669 1.38469 -5.64514e-14 8.36809e-15 
19.6876 85.2495 -0.00582402 1.33799 -1.22052e-13 -1.66854e-14 18.3627 85.7516 -0.00746005 
1.27335 2.07692e-13 9.48894e-15 17.0544 86.2256 -0.00910299 1.19178 -4.84873e-13 -1.8512e-14 
15.7726 86.6654 -0.0105588 1.09457 -1.87725e-13 2.32914e-15 14.5263 87.0655 -0.0118358 
0.983203 -1.6355e-14 1.35955e-14 13.3234 87.4209 -0.0129259 0.859241 -1.75387e-13 -2.56997e-15 
12.1702 87.7275 -0.0138403 0.724179 3.22815e-13 -1.05606e-14 11.0719 87.9817 -0.0146039 
0.579306 -4.27346e-13 -1.64942e-14 10.0323 88.1805 -0.0152542 0.425565 -2.91191e-14 -3.8291e-15 
9.05387 88.3212 -0.0158397 0.263404 -6.44484e-14 8.45417e-15 8.13779 88.4014 -0.0164181 
0.0926317 2.57346e-13 2.67525e-14 7.28426 88.4187 -0.017055 -0.0877308 2.22395e-13 -9.61687e-17 
6.49249 88.3707 -0.0178228 -0.279626 1.07626e-13 5.2586e-15 5.76078 88.254 -0.0188002 
-0.48617 -3.14818e-14 -1.49034e-14 5.08659 88.0648 -0.0200714 -0.711931 -9.33524e-14 5.39239e-15 
4.46658 87.7981 -0.021724 -0.963315 -5.55632e-14 7.11714e-15 3.8964 87.4474 -0.0238437 
-1.24911 2.84568e-13 -8.07427e-15 3.37047 87.0044 -0.0265 -1.58124 -2.17857e-13 -5.53203e-15 
2.88135 86.4591 -0.0297145 -1.97593 3.43753e-14 -2.0834e-14 2.41882 85.7995 -0.0333772 
-2.45525 5.56846e-14 7.33788e-15 1.96805 85.0129 -0.0371251 -3.04946 -5.44009e-15 1.01863e-14 
1.50686 84.0885 -0.0396473 -3.80021 -9.84698e-14 -1.43288e-15 0.999496 83.0223 -0.0398205 
-4.76527 1.16178e-13 9.89486e-15 0.39382 81.8407 -0.0231215 -6.02299 -1.45675e-13 -2.29469e-14 
-0.429143 80.5817 -0.0303646 -7.6848 -1.67796e-13 1.34337e-14 23.6652 83.7563 0.0253017 
2.00321 4.60083e-14 1.77753e-14 22.3176 84.2896 -0.00609466 1.99056 -4.29826e-13 -1.78291e-14 
20.971 84.8411 -0.00329741 1.951 2.3297e-13 -1.33357e-15 19.6166 85.3737 -0.00596298 
1.88514 -2.59091e-13 -6.39527e-15 18.2696 85.8852 -0.007624 1.79401 -1.58356e-13 -5.44551e-15 
16.9407 86.368 -0.00926682 1.67912 2.53627e-13 1.85605e-15 15.6402 86.8161 -0.0106855 
1.54245 5.21805e-15 3.54816e-15 14.3774 87.2241 -0.0118832 1.38624 -1.99816e-13 -1.991e-14 
13.1601 87.5874 -0.012848 1.21288 2.20129e-13 1.60078e-14 11.9945 87.9022 -0.013589 
1.02469 -8.29545e-15 2.19758e-14 10.8856 88.1657 -0.0141284 0.823714 2.37359e-13 -9.40404e-15 
9.83642 88.3757 -0.0144992 0.611545 -9.96356e-14 -1.2005e-14 8.84889 88.5307 -0.0147409 
0.38911 1.42098e-13 3.59557e-15 7.92341 88.6295 -0.014896 0.156519 -1.82233e-13 -1.57927e-14 
7.05915 88.6716 -0.0150052 -0.087116 -9.65825e-14 -2.36077e-14 6.25416 88.6564 -0.0151028 
-0.343854 -1.02852e-13 7.05295e-15 5.50535 88.5836 -0.0152102 -0.617132 5.23505e-14 1.81469e-14 
4.80855 88.4527 -0.0153271 -0.91202 -2.88745e-13 -4.32987e-14 4.15838 88.2634 -0.0154162 
-1.23556 -1.7944e-14 -3.20664e-15 3.54794 88.0158 -0.0153784 -1.59719 -8.09561e-14 -3.43042e-15 
2.96841 87.7106 -0.0150075 -2.00935 3.53745e-14 -5.92842e-15 2.40817 87.3505 -0.0139147 
-2.48825 -3.59608e-14 -3.92568e-15 1.85155 86.9418 -0.0113658 -3.05474 7.51829e-15 -1.00614e-14 
1.27675 86.4979 -0.00613344 -3.73532 -7.64493e-14 -1.09183e-14 0.65307 86.0466 0.00469619 
-4.56267 -1.71481e-13 -1.12826e-14 -0.0657387 85.6389 0.0225974 -5.57505 6.16937e-14 1.50366e-14 
-0.936801 85.3886 0.0739452 -6.81114 -5.4047e-14 -3.59435e-15 -2.11533 85.3969 0.0591069 
-8.301 2.87693e-13 1.91791e-14 23.6665 83.8819 0.0259238 2.59757 -4.9313e-13 2.48412e-15 
22.2858 84.4285 -0.0062748 2.58106 7.84026e-14 -1.44823e-14 20.9069 84.9935 -0.00343447 
2.52961 4.59077e-14 1.65631e-14 19.5211 85.5391 -0.00619072 2.44398 -2.59289e-13 -1.41744e-14 
18.1443 86.0627 -0.00789597 2.32555 -7.33059e-14 -8.26596e-15 16.7878 86.5567 -0.00954699 
2.17646 6.72587e-14 1.05046e-14 15.4627 87.015 -0.0109225 1.9995 -2.05402e-13 -2.17892e-15 
14.1784 87.4324 -0.01202 1.79787 -5.40748e-14 1.3968e-14 12.9427 87.8048 -0.0128251 
1.575 1.21736e-13 2.83467e-15 11.7618 88.1289 -0.0133467 1.33424 3.61308e-14 -3.74429e-15 
10.64 88.4027 -0.0136074 1.07862 -7.40449e-14 8.37291e-15 9.57989 88.6251 -0.0136381 
0.810593 1.87364e-13 3.17535e-14 8.58246 88.7959 -0.0134722 0.531817 -4.00516e-13 -1.11317e-14 
7.64712 88.9156 -0.0131395 0.242991 3.42344e-13 2.36193e-16 6.77187 88.9855 -0.0126587 
-0.0563141 -2.11657e-13 -2.58349e-15 5.95343 89.0074 -0.0120302 -0.367794 -1.61912e-13 -1.96316e-14 
5.18723 88.9837 -0.0112259 -0.694548 2.03903e-13 -1.68457e-14 4.46743 88.9179 -0.0101752 
-1.04123 -1.04413e-13 1.88651e-14 3.78667 88.8143 -0.00874336 -1.41422 9.46361e-14 -8.46805e-15 
3.13581 88.6791 -0.00669813 -1.8218 2.35818e-14 5.76622e-15 2.50338 88.5212 -0.00365639 
-2.27433 1.88391e-15 9.92262e-15 1.87471 88.3541 0.000996087 -2.78434 1.30077e-13 -6.69083e-15 
1.23076 88.1984 0.00824841 -3.36633 5.18578e-14 1.39715e-14 0.546382 88.0862 0.0195407 
-4.03591 -8.70519e-14 -1.18447e-14 -0.211406 88.0681 0.0377079 -4.80749 8.58862e-14 -1.42247e-15 
-1.08814 88.2196 0.0628423 -5.68826 1.56031e-13 5.77316e-15 -2.12698 88.6793 0.121611 
-6.66568 -7.99361e-15 6.16868e-15 -3.46559 89.5321 0.0881755 -7.68381 -1.84158e-14 1.04916e-14 
23.6679 84.0392 0.0266957 3.20846 3.66072e-13 3.67571e-14 22.2455 84.6023 -0.00653094 
3.18785 1.45176e-13 2.4751e-14 20.8256 85.1843 -0.00366302 3.12391 -2.13256e-13 -6.95581e-15 
19.3999 85.7457 -0.00655664 3.01751 -1.03657e-13 -1.37711e-14 17.9854 86.2838 -0.00833661 
2.87048 -1.64382e-13 -4.31057e-15 16.5946 86.7909 -0.0100117 2.68574 -1.71543e-13 -1.99732e-14 
15.239 87.2607 -0.0113424 2.46708 -3.13374e-13 -2.15364e-14 13.9285 87.6883 -0.0123214 
2.21894 2.33216e-14 4.5474e-15 12.6711 88.0698 -0.0129349 1.94603 4.30003e-14 9.83968e-15 
11.4727 88.4028 -0.0131965 1.653 -4.32293e-14 -1.2057e-14 10.3371 88.6864 -0.0131342 
1.3441 -9.03999e-14 -8.06213e-15 9.26603 88.9204 -0.0127828 1.02289 1.78007e-13 6.65353e-15 
8.2595 89.1063 -0.0121752 0.692018 6.38274e-14 -2.21698e-14 7.31575 89.2463 -0.0113347 
0.353038 4.02733e-14 1.96575e-14 6.43154 89.3435 -0.0102661 0.00630299 4.11303e-14 -5.00521e-15 
5.60221 89.4021 -0.00894746 -0.3491 -8.40369e-14 6.86419e-15 4.8218 89.4273 -0.00731929 
-0.715382 -1.28165e-13 -2.26624e-14 4.08297 89.4257 -0.00527016 -1.09604 1.922e-13 -3.66851e-15 
3.37687 89.4056 -0.00261669 -1.4958 5.42413e-14 1.20303e-15 2.69285 89.378 0.000924978 
-1.92045 -1.92475e-13 4.30298e-15 2.01802 89.3577 0.00577972 -2.37657 1.40308e-13 1.11144e-14 
1.33666 89.3651 0.0125615 -2.87086 -1.21302e-13 -2.12955e-14 0.629467 89.4284 0.0221535 
-3.40896 1.18964e-13 1.68719e-14 -0.127207 89.5877 0.0356039 -3.99318 -1.29868e-13 -1.42282e-14 
-0.961319 89.8991 0.0548388 -4.61835 -2.01051e-13 2.71658e-15 -1.9065 90.4351 0.0772498 
-5.26462 1.74218e-13 9.12465e-15 -2.98356 91.3028 0.122796 -5.88254 1.66442e-13 2.24196e-14 
-4.25715 92.537 0.0689324 -6.36937 4.39856e-14 -1.87142e-14 23.6695 84.229 0.0276347 
3.83959 3.46202e-13 4.97371e-14 22.1961 84.812 -0.00685111 3.81451 -2.22891e-13 -3.49217e-14 
20.7259 85.414 -0.00397374 3.73715 4.6832e-13 1.79553e-14 19.2514 85.994 -0.00705252 
3.60848 -1.5413e-13 -3.70407e-15 17.7912 86.5488 -0.00893476 3.43087 2.45356e-13 1.41458e-14 
16.3588 87.0702 -0.010643 3.20822 -2.22298e-13 -1.49236e-14 14.9671 87.552 -0.0119172 
2.94565 -1.06859e-14 1.04437e-14 13.6264 87.9892 -0.0127487 2.64912 2.51642e-13 -1.03715e-15 
12.3448 88.3787 -0.0131303 2.32497 -1.60115e-13 -7.10716e-15 11.1279 88.7188 -0.0130875 
1.97944 -1.01946e-13 1.09637e-14 9.97877 89.0096 -0.0126619 1.61828 -1.04045e-13 -8.98435e-15 
8.89831 89.2525 -0.0118994 1.24638 -3.20403e-14 5.84103e-15 7.88524 89.4503 -0.0108405 
0.867576 -1.08323e-13 -9.01623e-16 6.93657 89.6069 -0.00950973 0.484484 6.99232e-14 -5.12351e-15 
6.04773 89.7276 -0.00790849 0.09847 -1.76401e-13 2.69564e-14 5.21278 89.8183 -0.00600677 
-0.290327 2.92748e-13 -7.57684e-15 4.42451 89.8867 -0.00373513 -0.682887 -5.3027e-14 1.07212e-14 
3.67451 89.9418 -0.000974784 -1.08112 -1.04541e-13 -9.35927e-15 2.95302 89.9945 0.00245466 
-1.48758 -1.93321e-13 9.66805e-15 2.24887 90.0588 0.00680973 -1.90498 1.30652e-13 -8.33361e-15 
1.54922 90.1523 0.0124381 -2.33554 1.39201e-13 5.06106e-15 0.839428 90.2977 0.0197841 
-2.77978 -2.94053e-13 -6.56766e-15 0.10295 90.5248 0.0293835 -3.23473 2.33397e-13 1.68424e-14 
-0.678183 90.8715 0.0417068 -3.69113 -2.35575e-14 -4.19803e-16 -1.52155 91.3866 0.057389 
-4.1291 -5.86337e-15 1.12167e-14 -2.44184 92.1259 0.0736554 -4.51172 4.62286e-14 -2.73497e-14 
-3.43266 93.1591 0.100662 -4.78084 -2.81429e-13 -8.86097e-15 -4.52369 94.419 0.026652 
-4.8289 -7.38164e-14 -2.10942e-15 
METADATA
COMPONENT_NAMES
XX
YY
ZZ
XY
YZ
ZX

S_Mises 1 4256 double
92.354718079 91.403426215 91.403426215 92.354718079 99.597966875 99.008877869 99.008877869 99.597966875 168.31904499 
87.5323924 89.944746737 91.628329238 88.839045496 88.839045496 91.628329238 89.944746737 87.5323924 168.31904499 
75.360667962 75.360667962 102.34238554 104.47629431 106.87050241 109.51145341 112.3549376 115.304033 118.18241799 
120.69291573 122.37515197 122.5542161 120.325071 114.63731659 104.82621893 92.840247653 101.83342928 103.97264414 
106.36527551 109.00631336 111.84878803 114.79452647 117.66701285 120.16805734 121.83409072 121.99338787 119.73847381 
114.01687577 104.15109421 92.054857967 101.83342928 103.97264414 106.36527551 109.00631336 111.84878803 114.79452647 
117.66701285 120.16805734 121.83409072 121.99338787 119.73847381 114.01687577 104.15109421 92.054857962 102.34238554 
104.47629431 106.87050241 109.51145341 112.3549376 115.304033 118.18241799 120.69291573 122.37515197 122.5542161 
120.325071 114.63731659 104.82621893 92.840247658 127.43432901 162.6361021 194.99311697 222.96041661 245.211107 
260.6562593 268.50496091 268.34474731 260.18754472 244.47636702 222.02103504 193.92729015 161.5277471 126.36889848 
56.610391084 25.161020077 21.5131574 44.777586459 65.968132397 81.066697915 88.87517434 88.87517434 81.066697915 
65.968132397 44.777586459 21.5131574 25.161020077 56.610391084 126.36889848 161.5277471 193.92729015 222.02103504 
244.47636702 260.18754472 268.34474731 268.50496091 260.6562593 245.211107 222.96041661 194.99311697 162.6361021 
127.43432901 57.385570767 25.641657882 21.346628051 44.686457485 66.051890012 81.287902273 89.170386109 89.170386109 
81.287902273 66.051890012 44.686457485 21.346628051 25.641657882 57.385570716 100.5946268 101.59234912 101.66603057 
100.50911658 98.17395304 95.365527283 93.396474852 93.406150777 95.368546933 98.114820919 100.34102634 101.36823854 
101.16609664 100.05340475 97.612968641 96.030729895 92.828275561 87.62350194 80.607281658 73.131859138 67.984978806 
67.984978806 73.131859138 80.607281658 87.62350194 92.828275561 96.030729895 97.612968641 100.05340475 101.16609664 
101.36823854 100.34102634 98.114820919 95.368546933 93.406150777 93.396474852 95.365527283 98.17395304 100.50911658 
101.66603057 101.59234912 100.5946268 98.331652734 96.782948179 93.59417462 88.378800363 81.325108775 73.795625031 
68.606485382 68.606485382 73.795625031 81.325108775 88.378800363 93.59417462 96.782948179 98.331652734 138.07051061 
109.83045097 99.702380971 94.445534763 91.283607811 89.232008072 87.866855145 86.961887398 86.381956023 86.039522158 
85.873899028 85.841554013 85.909104925 86.050700134 86.244915233 86.473596879 86.721185397 86.97372094 87.218546204 
87.444201043 87.640714429 87.799095148 87.912220628 87.974828398 87.984006343 87.939794344 87.844983824 87.706146286 
87.333313717 87.126095729 86.935467606 86.782030364 86.68593578 86.664426229 86.729813726 86.889143668 87.142390118 
87.483358828 87.899787923 88.375007346 88.889246483 89.421780668 90.437205919 90.890964023 91.301747999 91.662069506 
91.967963823 92.217927623 92.413031841 92.556189304 92.651567705 92.704498196 92.720486267 92.705521655 92.665186875 
92.605064419 92.530141967 92.444915594 92.353392536 92.259191359 92.165142699 92.073988212 91.987780113 91.908279481 
91.836955676 91.774884638 91.722947988 91.681932126 91.652227217 91.634326707 91.552073383 91.444766076 91.313876372 
91.163290433 90.996669533 90.816846692 90.626672577 90.428452054 90.224668431 90.017501559 89.809349636 89.602539684 
89.399436609 89.202748071 89.015098592 88.676982431 88.532085214 88.406832013 88.303749745 88.224476017 88.17085459 
88.143734739 88.143734739 88.17085459 88.224476017 88.303749745 88.406832013 88.532085214 88.676982431 89.015098592 
89.202748071 89.399436609 89.602539684 89.809349636 90.017501559 90.224668431 90.428452054 90.626672577 90.816846692 
90.996669533 91.163290433 91.313876372 91.444766076 91.552073383 91.634326707 91.652227217 91.681932126 91.722947988 
91.774884638 91.836955676 91.908279481 91.987780113 92.073988212 92.165142699 92.259191359 92.353392536 92.444915594 
92.530141967 92.605064419 92.665186875 92.705521655 92.720486267 92.704498196 92.651567705 92.556189304 92.413031841 
92.217927623 91.967963823 91.662069506 91.301747999 90.890964023 90.437205919 89.421780668 88.889246483 88.375007346 
87.899787923 87.483358828 87.142390118 86.889143668 86.729813726 86.664426229 86.68593578 86.782030364 86.935467606 
87.126095729 87.333313717 87.706146286 87.844983824 87.939794344 87.984006343 87.974828398 87.912220628 87.799095148 
87.640714429 87.444201043 87.218546204 86.97372094 86.721185397 86.473596879 86.244915233 86.050700134 85.909104925 
85.841554013 85.873899028 86.039522158 86.381956023 86.961887398 87.866855145 89.232008072 91.283607811 94.445534763 
99.702380971 109.83045097 138.07051061 115.16628447 100.96920526 93.522862665 88.999590708 85.931047012 83.689895086 
81.976114907 80.618430123 79.515050237 78.600320989 77.830593077 77.175999173 76.614898754 76.132339552 75.716907825 
75.056447717 74.801550552 74.592723404 74.42776111 74.305205046 74.223985056 74.183564086 74.183564086 74.223985056 
74.305205046 74.42776111 74.592723404 74.801550552 75.056447717 75.716907825 76.132339552 76.614898754 77.175999173 
77.830593077 78.600320989 79.515050237 80.618430123 81.976114907 83.689895086 85.931047012 88.999590708 93.522862665 
100.96920526 115.16628447 98.872620775 97.989082335 96.992653145 95.998343869 95.053769785 94.17530689 93.36113405 
92.602065972 91.886143349 91.20210579 90.540957891 89.896413923 89.266068409 88.651174156 88.060174296 98.368184694 
97.565296187 96.659555005 95.768517551 94.941719865 94.197967739 93.537794329 92.953346865 92.433701484 91.967596683 
91.545308226 91.158945162 90.803351746 90.476799417 90.183158578 97.284318142 95.623822479 94.195992962 93.002231062 
92.029619171 91.252925723 90.641826741 90.166490795 89.800135928 89.520056873 89.308062278 89.149123378 89.031748345 
88.946478851 88.886247272 88.845219856 88.818846664 88.803611277 88.796490222 88.795421287 88.798278504 88.803748646 
88.810619601 88.817865089 88.824737945 88.830761974 88.835226266 88.838083215 97.284318142 95.623822479 94.195992962 
93.002231062 92.029619171 91.252925723 90.641826741 90.166490795 89.800135928 89.520056873 89.308062278 89.149123378 
89.031748345 88.946478851 88.886247272 88.845219856 88.818846664 88.803611277 88.796490222 88.795421287 88.798278504 
88.803748646 88.810619601 88.817865089 88.824737945 88.830761974 88.835226266 88.838083215 98.368184694 97.565296187 
96.659555005 95.768517551 94.941719865 94.197967739 93.537794329 92.953346865 92.433701484 91.967596683 91.545308226 
91.158945162 90.803351746 90.476799417 90.183158578 98.872620775 97.989082335 96.992653145 95.998343869 95.053769785 
94.17530689 93.36113405 92.602065972 91.886143349 91.20210579 90.540957891 89.896413923 89.266068409 88.651174156 
88.060174296 97.892870639 96.25287831 94.817887313 93.592304467 92.563389925 91.704811 90.983999651 90.367972716 
89.826716166 89.333808795 88.866776137 88.406548399 87.937109941 87.445088037 86.919191608 86.350362114 85.731377273 
85.05700552 84.324326925 83.532626605 82.683794074 81.782554605 80.836284339 79.85496947 78.850678839 77.836991796 
76.829070276 75.835285046 97.892870639 96.25287831 94.817887313 93.592304467 92.563389925 91.704811 90.983999651 
90.367972716 89.826716166 89.333808795 88.866776137 88.406548399 87.937109941 87.445088037 86.919191608 86.350362114 
85.731377273 85.05700552 84.324326925 83.532626605 82.683794074 81.782554605 80.836284339 79.85496947 78.850678839 
77.836991796 76.829070276 75.835285046 117.21057813 143.66831921 169.79808895 193.6984114 213.53755061 227.72617801 
235.07298114 234.93895718 227.33818047 212.93242345 192.93305529 168.93899159 142.78139537 116.35428136 117.88615217 
134.14533624 151.90851942 169.62639046 185.35489529 197.14046731 203.41528659 203.31010932 196.83742306 184.88582592 
169.03805939 151.25021538 133.45803083 117.19876485 121.19984883 130.57407264 141.41796526 153.11969096 164.29756933 
173.14999177 178.02445417 177.94561192 172.92340245 163.94949323 152.67965042 140.91379601 130.02247295 120.61128679 
123.4859945 128.92265041 134.98198918 141.77520206 148.70957051 154.54510866 157.88842712 157.83431694 154.38785983 
148.46245985 141.45092078 134.58828027 128.46168684 122.95734787 124.00652613 127.38351789 130.47532322 133.71096335 
137.13496208 140.21172431 142.06382333 142.03086265 140.11288223 136.97027859 133.47434448 130.15803793 126.97880958 
123.51473997 123.00725502 125.37468093 126.76600934 127.63753887 128.41036505 129.18386011 129.70956971 129.69451331 
129.13304651 128.30807179 127.462736 126.49871217 125.00505558 122.53794817 120.96214961 122.86135303 123.34781508 
122.76281932 121.68365852 120.68308828 120.11921443 120.11855039 120.66865699 121.62694001 122.62961608 123.11172322 
122.51169921 120.50648321 118.31632566 120.00106495 120.05258185 118.64658215 116.37297473 114.1087114 112.71860239 
112.72789274 114.120217 116.3467602 118.53643175 119.83185975 119.66037725 117.86500721 115.40846885 116.98452733 
116.86369082 115.05744811 112.09555562 109.01387895 107.05020498 107.06649607 109.04193734 112.08575298 114.95875996 
116.64685895 116.64389534 114.95676758 112.47523723 113.97421007 113.81863233 111.88358572 108.60093437 105.06468023 
102.753358 102.77351946 105.10081631 108.59592296 111.78571693 113.59815034 113.62832436 112.01654076 109.662802 
111.08723347 110.96428983 109.06516061 105.72110871 102.01093602 99.535363656 99.557286955 102.04710665 105.71304951 
108.96039542 110.73334218 110.73017301 109.1937406 107.0555765 108.39502624 108.33161913 106.56732985 103.33491947 
99.656968486 97.16279038 97.182696674 99.688687295 103.31787033 106.44878391 108.08589679 108.02300863 106.57376695 
104.69157574 105.93390989 105.93662804 104.35916886 101.35151821 97.850395795 95.442635831 95.460037191 97.873058748 
101.32155783 104.22379932 105.67238876 105.54639077 104.19755641 102.57944266 103.7035719 103.75308679 102.37898944 
99.672872908 96.465511844 94.236086941 94.249783395 96.478183539 99.626511901 102.22451277 103.47041598 103.29758614 
102.06925689 66.550807081 43.958690374 31.031759505 36.089078628 49.514825047 61.266977013 67.760250345 67.760250345 
61.266977013 49.514825047 36.089078628 31.031759505 43.958690374 66.550807081 85.825025234 68.606126202 53.547177786 
44.315409452 43.011117011 46.443290662 49.539371934 49.539371934 46.443290662 43.011117011 44.315409452 53.547177786 
68.606126202 85.825025234 99.533882525 85.156399269 69.931049196 55.764975248 44.901587381 38.742330937 36.525448887 
36.525448887 38.742330937 44.901587381 55.764975248 69.931049196 85.156399269 99.533882525 107.74735022 95.560854783 
81.006859606 65.203842059 49.716665618 36.480917022 28.184366774 28.184366774 36.480917022 49.716665618 65.203842059 
81.006859606 95.560854783 107.74735022 111.88987181 101.59034545 88.116062067 72.096929359 54.646788427 37.470485708 
24.324073123 24.324073123 37.470485708 54.646788427 72.096929359 88.116062067 101.59034545 111.88987181 113.28023926 
104.62891104 92.407501607 76.89171352 58.908177859 40.05530077 24.507956273 24.507956273 40.05530077 58.908177859 
76.89171352 92.407501607 104.62891104 113.28023926 112.93035649 105.70552159 94.780492414 80.162326452 62.486435329 
43.400980481 27.579963388 27.579963388 43.400980481 62.486435329 80.162326452 94.780492414 105.70552159 112.93035649 
111.56255459 105.55916259 95.902980245 82.402422326 65.563680977 47.153458846 32.263169447 32.263169447 47.153458846 
65.563680977 82.402422326 95.902980245 105.55916259 111.56255459 109.66751409 104.70200554 96.250612443 83.981941003 
68.315933274 51.134229025 37.689776179 37.689776179 51.134229025 68.315933274 83.981941003 96.250612443 104.70200554 
109.66751409 107.56311738 103.47619308 96.146188556 85.153018194 70.857350638 55.208006918 43.350939245 43.350939245 
55.208006918 70.857350638 85.153018194 96.146188556 103.47619308 107.56311738 105.44448456 102.09914276 95.79872972 
86.073958037 73.241683463 59.251232591 48.942143465 48.942143465 59.251232591 73.241683463 86.073958037 95.79872972 
102.09914276 105.44448456 103.42337422 100.70071068 95.334067892 86.83452562 75.480187806 63.154960578 54.274659455 
54.274659455 63.154960578 75.480187806 86.83452562 95.334067892 100.70071068 103.42337422 101.55947872 99.353638343 
94.821770836 87.478324026 77.562089293 66.834402724 59.235630737 59.235630737 66.834402724 77.562089293 87.478324026 
94.821770836 99.353638343 101.55947872 99.879089712 98.087809325 94.282335742 88.001182667 79.45181142 70.229429462 
63.776342772 63.776342772 70.229429462 79.45181142 88.001182667 94.282335742 98.087809325 99.879089712 116.35428136 
142.78139537 168.93899159 192.93305529 212.93242345 227.33818047 234.93895718 235.07298114 227.72617801 213.53755061 
193.6984114 169.79808895 143.66831921 117.21057813 117.19876485 133.45803083 151.25021538 169.03805939 184.88582592 
196.83742306 203.31010932 203.41528659 197.14046731 185.35489529 169.62639046 151.90851942 134.14533624 117.88615217 
120.61128679 130.02247295 140.91379601 152.67965042 163.94949323 172.92340245 177.94561192 178.02445417 173.14999177 
164.29756933 153.11969096 141.41796526 130.57407264 121.19984883 122.95734787 128.46168684 134.58828027 141.45092078 
148.46245985 154.38785983 157.83431694 157.88842712 154.54510866 148.70957051 141.77520206 134.98198918 128.92265041 
123.4859945 123.51473997 126.97880958 130.15803793 133.47434448 136.97027859 140.11288223 142.03086265 142.06382333 
140.21172431 137.13496208 133.71096335 130.47532322 127.38351789 124.00652613 122.53794817 125.00505558 126.49871217 
127.462736 128.30807179 129.13304651 129.69451331 129.70956971 129.18386011 128.41036505 127.63753887 126.76600934 
125.37468093 123.00725502 120.50648321 122.51169921 123.11172322 122.62961608 121.62694001 120.66865699 120.11855039 
120.11921443 120.68308828 121.68365852 122.76281932 123.34781508 122.86135303 120.96214961 117.86500721 119.66037725 
119.83185975 118.53643175 116.3467602 114.120217 112.72789274 112.71860239 114.1087114 116.37297473 118.64658215 
120.05258185 120.00106495 118.31632566 114.95676758 116.64389534 116.64685895 114.95875996 112.08575298 109.04193734 
107.06649607 107.05020498 109.01387895 112.09555562 115.05744811 116.86369082 116.98452733 115.40852606 112.01654076 
113.62832436 113.59815034 111.78571693 108.59592296 105.10081631 102.77351946 102.753358 105.06468023 108.60093437 
111.88358572 113.81863233 113.97421007 112.47523723 109.1937406 110.73017301 110.73334213 108.96039542 105.71304951 
102.04710665 99.557286955 99.535363656 102.01093602 105.72110871 109.06516061 110.96428983 111.08723347 109.662802 
106.57376695 108.02300863 108.08589679 106.44878391 103.31787033 99.688687295 97.182696674 97.16279038 99.656968486 
103.33491947 106.5673299 108.33161913 108.39502624 107.0555765 104.19755641 105.54639077 105.67238876 104.22379932 
101.32155783 97.873058748 95.460037191 95.442635831 97.850395795 101.35151821 104.35916886 105.93662804 105.93390989 
104.69157574 102.06925689 103.29758614 103.47041598 102.22451277 99.626511901 96.478183539 94.249783395 94.236086941 
96.465511844 99.672872908 102.37898944 103.75308679 103.7035719 102.57944266 67.221072059 44.448668001 31.224782958 
36.07750908 49.533603246 61.365129738 67.909672117 67.909672117 61.365129738 49.533603246 36.07750908 31.224782958 
44.448667933 67.221072059 86.463492013 69.164230102 53.968126622 44.557310134 43.107974287 46.485078803 49.574896831 
49.574896831 46.485078803 43.107974287 44.557310134 53.968126622 69.164230102 86.463492013 100.17182579 85.768154401 
70.463662161 56.165380015 45.130404961 38.805996172 36.493451203 36.493451203 38.805996172 45.130404961 56.165380015 
70.463662161 85.768154401 100.17182579 108.38468203 96.203286355 81.602229131 65.695778051 50.050078058 36.612904087 
28.134030341 28.134030341 36.612904087 50.050078058 65.695778051 81.602229131 96.203286355 108.38468203 112.52329619 
102.24776154 88.747309841 72.644544995 55.052103455 37.678327988 24.312689286 24.312689286 37.678327988 55.052103455 
72.644544995 88.747309841 102.24776154 112.52329619 113.90811555 105.29269082 93.059735116 77.47567186 59.364406374 
40.330072313 24.578873426 24.578873426 40.330072313 59.364406374 77.47567186 93.059735116 105.29269082 113.90811555 
113.55381737 106.37200358 95.44594918 80.772121258 62.982384224 43.733259479 27.74193037 27.74193037 43.733259479 
62.982384224 80.772121258 95.44594918 106.37200358 113.55381737 112.18394226 106.22742253 96.578298192 83.03293191 
66.093334358 47.537474012 32.506972467 32.506972467 47.537474012 66.093334358 83.03293191 96.578298192 106.22742253 
112.18394226 110.28973144 105.37294775 96.934452583 84.630567153 68.87620637 51.566126632 38.005300846 38.005300846 
51.566126632 68.87620637 84.630567153 96.934452583 105.37294775 110.28973144 108.18886544 104.15133788 96.838884199 
85.818854819 71.446877272 55.68531865 43.730772887 43.730772887 55.68531865 71.446877272 85.818854819 96.838884199 
104.15133788 108.18886544 106.07587216 102.77982458 96.500777316 86.756602609 73.859206649 59.771867409 49.380522343 
49.380522343 59.771867409 73.859206649 86.756602609 96.500777316 102.77982458 106.07587216 104.06104917 101.38771921 
96.045350036 87.533215371 76.124578564 63.716426257 54.766956022 54.766956022 63.716426257 76.124578564 87.533215371 
96.045350036 101.38771921 104.06104917 102.20327289 100.04668396 95.541705824 88.191734995 78.23125494 67.433497901 
59.776814774 59.776814774 67.433497901 78.23125494 88.191734995 95.541705824 100.04668396 102.20327289 100.52947613 
98.786733943 95.009496034 88.727129174 80.142636216 70.861881679 64.360507638 64.360507638 70.861881679 80.142636216 
88.727129174 95.009496034 98.786733943 100.52947613 113.59956227 101.93269702 94.567095428 90.054120281 86.890361417 
84.566742395 82.779200708 81.359641518 80.203736844 79.244129599 78.435991808 77.747774406 77.157408282 76.64910815 
76.211215527 111.59332998 103.43873199 97.091693896 92.411141075 89.045330985 86.508861522 84.540901467 82.970510847 
81.688904431 80.623687195 79.725821505 78.960629078 78.303641995 77.737361262 77.248924363 104.16657389 102.20301227 
97.883598549 93.957944579 90.753266947 88.206550835 86.163588591 84.502061003 83.129704555 81.980200604 81.005974383 
80.172579477 79.454862227 78.834712873 78.298672278 98.863384737 99.327064478 97.31977063 94.536088483 91.862507942 
89.526433253 87.548014871 85.881713187 84.473423518 83.275184437 82.24824158 81.362554523 80.595070581 79.928635146 
79.350300681 95.203410803 96.648632996 96.052766692 94.393598478 92.394197107 90.42906846 88.637950769 87.055448447 
85.673258388 84.469488135 83.420224071 82.503568069 81.70160055 80.999830545 80.38698853 92.664372457 94.457515739 
94.676438842 93.852638044 92.498563639 90.962095308 89.435174577 88.00560641 86.705098101 85.538403154 84.498751362 
83.574985096 82.756133745 82.031870953 81.394022645 90.875458479 92.750131913 93.417187575 93.167737554 92.341260726 
91.215872671 89.979685973 88.743650635 87.565426024 86.471454254 85.470351426 84.562524007 83.744511749 83.011322838 
82.358544747 89.608837107 91.445194451 92.348597759 92.477931129 92.053767981 91.283224778 90.32801001 89.299439529 
88.267073584 87.270584991 86.331382691 85.459159895 84.658086915 83.928773723 83.270852331 88.718129304 90.462139533 
91.477819521 91.850321519 91.721641974 91.24043846 90.536785103 89.710477598 88.83192659 87.947383727 87.085723253 
86.264464482 85.493443822 84.778870588 84.124360783 88.105675411 89.733635068 90.78842782 91.312229005 91.395406619 
91.142736483 90.654054104 90.013505965 89.28591082 88.518415287 87.743397548 86.982871999 86.251790047 85.5602478 
84.915692608 87.703088489 89.206604495 90.256656704 90.869991471 91.102780863 91.026821629 90.716946197 90.240844513 
89.654708525 89.002461471 88.317258935 87.623059093 86.937841243 86.274926676 85.644937933 87.460473304 88.839057442 
89.858579309 90.520265846 90.8568774 90.916267801 90.75279126 90.418866692 89.96125541 89.418539297 88.822006219 
88.19586558 87.559437697 86.928013911 86.314765335 87.340342431 88.597670487 89.572108927 90.254748841 90.662281909 
90.825003371 90.78055196 90.568438796 90.225423689 89.784272699 89.272660147 88.713458719 88.125930847 87.526518536 
86.92998456 87.313343459 88.45553173 89.377414004 90.063382323 90.518771489 90.760494749 90.813192268 90.704905541 
90.463576671 90.115275933 89.683435389 89.188345655 88.648263949 88.079552064 87.497969673 87.355794505 88.390375736 
89.25708372 89.935826871 90.423178458 90.726071466 90.858866591 90.839833719 90.688828017 90.425232318 90.067783282 
89.633353081 89.138151301 88.597515822 88.027606771 87.448227221 88.383789068 89.196151462 89.861601841 90.370628712 
90.722275924 90.922431315 90.981347673 90.911317836 90.725676958 90.437737779 90.060648855 89.607416198 89.091996556 
88.529302305 87.573970601 88.419785315 89.18082781 89.830976637 90.355573712 90.74756022 91.006088424 91.134525218 
91.138699873 91.025856061 90.80406814 90.481877422 90.068632318 89.575225584 89.0154283 87.718603025 88.484556022 
89.199333341 89.834469809 90.37156954 90.798751432 91.109773425 91.302208112 91.376095298 91.333233337 91.175971525 
90.907865371 90.533760452 90.060744686 89.499690589 87.869483755 88.566204842 89.24082112 89.863251719 90.412049686 
90.871789685 91.231792878 91.485047575 91.626557648 91.652632273 91.560561201 91.348185091 91.014785249 90.562385954 
89.997600675 88.015372912 88.653869682 89.295492138 89.908646374 90.469906865 90.96108246 91.368533682 91.681212168 
91.890183939 91.986892843 91.963104948 91.810855237 91.522921264 91.094692637 90.526388568 88.146745239 88.738338698 
89.354508082 89.962533941 90.537776794 91.060462801 91.514589489 91.886757408 92.164550818 92.335250548 92.38571599 
92.301470505 92.067928148 91.672060609 91.105174516 88.255102101 88.811564576 89.409806104 90.016859909 90.607838358 
91.162171549 91.662909317 92.095126293 92.444146343 92.69397902 92.826909247 92.822173979 92.656971167 92.307744657 
91.753960068 88.333684399 88.866682489 89.454320412 90.064363425 90.672138478 91.257766597 91.804578799 92.29708602 
92.719733138 93.054651662 93.280328396 93.37021759 93.292850345 93.012603293 92.493140395 88.377691168 88.898536239 
89.482223901 90.098030433 90.722755168 91.338088849 91.928871748 92.480831263 92.97867653 93.404254443 93.733684062 
93.935981135 93.971471185 93.791522211 93.340579301 88.384201725 88.903320022 89.488691737 90.111692069 90.751828448 
91.393511675 92.024095203 92.63200335 93.204292749 93.724111104 94.16758551 94.501286242 94.67887363 94.639866118 
94.307480716 88.352418263 88.879541347 89.47061423 90.100482187 90.752472293 91.414505424 92.077889809 92.734986797 
93.376780648 93.990290798 94.55481112 95.037261652 95.387973733 95.537163115 95.390819175 88.284635822 88.827672078 
89.426588472 90.061214296 90.719138808 91.393087155 92.078659253 92.773484566 93.474284154 94.174546524 94.859885724 
95.503066148 96.055921969 96.441851834 96.559813213 88.185387845 88.750267102 89.357715282 89.993001576 90.649088743 
91.323372757 92.017013015 92.733138871 93.475510914 94.246291286 95.041364682 95.844884506 96.619438916 97.292830163 
97.742160625 87.917574038 88.536653912 89.155883456 89.774364039 90.3961066 91.028509889 91.682238182 92.371603412 
93.114484577 93.932352456 94.849080244 95.887351467 97.06035783 98.354722271 99.66618582 87.77171376 88.41818898 
89.037928547 89.637267485 90.22573035 90.81467953 91.417923864 92.053191651 92.742868989 93.515637065 94.407166121 
95.460318846 96.720153019 98.225913916 99.939857221 87.639493091 88.310067744 88.925705214 89.499981864 90.047110022 
90.581175452 91.117601424 91.675121514 92.27728448 92.955296343 93.75087557 94.720244519 95.935938283 97.493949048 
99.46481804 87.537202961 88.225948462 88.833270379 89.378694923 89.880380904 90.353890617 90.8146788 91.280109443 
91.771474477 92.317191808 92.957061284 93.749055328 94.777249009 96.173947167 98.088598393 87.479947277 88.179386885 
88.774775399 89.290554031 89.747606889 90.162258038 90.548774482 90.921591661 91.297293667 91.697527636 92.152950885 
92.710756144 93.445117351 94.482369736 96.003627242 87.480935369 88.18225143 88.763008221 89.251353509 89.669847349 
90.034789513 90.359285574 90.65469293 90.932322873 91.205782402 91.494317697 91.82772437 92.25566738 92.866676657 
93.820647121 87.549747373 88.243226137 88.807663541 89.273160051 89.663158608 89.99417672 90.278295431 90.525050027 
90.742415506 90.938933448 91.125639662 91.319408264 91.550089987 91.870051636 92.404901874 87.691299299 88.366796665 
88.913568433 89.362246109 89.736259366 90.052369971 90.323005925 90.557784836 90.764835398 90.952882773 91.132960399 
91.322080212 91.550364858 91.870219371 92.407568347 87.905870185 88.552781615 89.080459512 89.517949153 89.8882608 
90.208510427 90.492247127 90.751395915 90.997722944 91.245121579 91.512823934 91.830843222 92.249280395 92.856420683 
93.812276623 88.188306057 88.796345556 89.302611669 89.732914985 90.109137972 90.448554376 90.766419897 91.07804234 
91.400274672 91.755071414 92.17322186 92.701577122 93.413959741 94.435885381 95.946430378 88.529096199 89.088485482 
89.569696174 89.99421246 90.381416066 90.748415041 91.111921098 91.490015415 91.904423819 92.383549236 92.967092864 
93.711840512 94.700619709 96.063481988 97.946437381 88.915129103 89.416977206 89.868402428 90.285059467 90.683200658 
91.078511561 91.487991663 91.931066555 92.431616148 93.020556463 93.738919167 94.64140864 95.797988061 97.30115896 
99.2175729 89.331213704 89.767987616 90.183697736 90.587462066 90.991354903 91.408569958 91.85448582 92.347673226 
92.910651695 93.571467292 94.364821453 95.331510417 96.513554565 97.946466828 99.586018387 89.760810895 90.127092276 
90.500751144 90.884500878 91.285005896 91.712138781 92.177938966 92.697530549 93.288974993 93.972958244 94.771784772 
95.706096027 96.786473699 97.996098099 99.224012743 90.58141876 90.802593569 91.077984404 91.398091259 91.759390188 
92.162030143 92.609038173 93.104233254 93.651452857 94.25126019 94.898383305 95.5744934 96.239736812 96.819670245 
97.189308457 90.948670038 91.099896215 91.321838179 91.60016164 91.92671614 92.296997968 92.708866875 93.160429808 
93.648099525 94.164094048 94.692186248 95.202591301 95.644680453 95.93949255 95.985451908 91.281996082 91.366762246 
91.533835674 91.765349714 92.049192601 92.376615993 92.740891273 93.134655 93.548573025 93.968030077 94.369915029 
94.718550315 94.961358211 95.025800643 94.815635128 91.575746159 91.598853855 91.71149429 91.893349048 92.128887571 
92.406018442 92.714056222 93.041667353 93.374860861 93.694682559 93.974503631 94.177421911 94.253758495 94.139098951 
93.753027583 91.826160702 91.794276743 91.85466438 91.985693876 92.169922106 92.392486369 92.639950673 92.897802736 
93.149376027 93.37338487 93.542382765 93.621176208 93.565390279 93.32173817 92.829870675 92.032308898 91.9525246 
91.964251491 92.045465513 92.177624328 92.344400267 92.530148609 92.718972698 92.892332554 93.028753574 93.101752145 
93.079481891 92.924645104 92.595680257 92.050234063 92.194400956 92.074533058 92.042298946 92.076371304 92.158011818 
92.269935841 92.395926312 92.519088729 92.620823046 92.680271491 92.673213565 92.572123756 92.34707796 91.967185582 
91.404851748 92.314736116 92.162499573 92.091773277 92.082687351 92.116683322 92.176908598 92.246992059 92.310078044 
92.348194165 92.342050969 92.270410672 92.110310253 91.838638275 91.433581234 90.8784156 92.396286454 92.219255803 
92.116011261 92.068374333 92.059208535 92.072054613 92.091368335 92.100932423 92.084196427 92.023863322 91.901629428 
91.699197941 91.399151583 90.98691797 90.453729362 92.443084449 92.248246724 92.118291575 92.03754005 91.990086373 
91.960889587 91.935377003 91.898620503 91.835638951 91.731449257 91.570863753 91.339572033 91.02472899 90.617507037 
90.114405032 92.45941851 92.25302827 92.102231447 91.993736847 91.913445287 91.84782531 91.783582978 91.707586147 
91.606619231 91.467881093 91.279125183 91.029167628 90.709480537 90.314806397 89.845278386 92.449933104 92.237371003 
92.071195407 91.940278816 91.832473302 91.736019752 91.639373795 91.530769082 91.399211818 91.233908604 91.025135622 
90.764552834 90.446688066 90.068898085 89.633712043 92.419032359 92.205069048 92.02831453 91.879871763 91.749864489 
91.628040913 91.504651004 91.369833324 91.214138057 91.028879878 90.806612597 90.541251015 90.229424084 89.870693864 
89.468720609 92.371185324 92.159451721 91.97640702 91.815146287 91.667566937 91.525539272 91.380726059 91.225087723 
91.050821075 90.851225194 90.620382191 90.354467003 90.051480216 89.712318438 89.341382513 92.310532449 92.103995451 
91.918099875 91.747992631 91.587233059 91.429511218 91.268005956 91.096297068 90.908314011 90.698610105 90.463238119 
90.199552028 89.906813081 89.58682148 89.244183131 92.24069137 92.04153542 91.855849432 91.680192969 91.510165588 
91.340663703 91.166571751 90.982873948 90.78491157 90.568753117 90.331670094 90.072021023 89.790140226 89.48833548 
89.171022617 92.165162808 91.97487577 91.791559553 91.613249242 91.437056799 91.259163918 91.075941172 90.883656179 
90.678932435 90.459116863 90.222248687 89.967931171 89.696901218 89.411804897 89.117004208 92.086735404 91.906298654 
91.727096698 91.548406728 91.368521839 91.185183329 90.995723032 90.797665986 90.588687292 90.36707498 90.131991763 
89.883435249 89.622892962 89.353096956 89.078117692 92.008089887 91.83797139 91.663902677 91.486573483 91.305225676 
91.118631917 90.925158099 90.723458442 90.512228286 90.290462501 90.058009105 89.815618507 89.564888644 89.308703004 
89.050817044 91.931402346 91.771552468 91.603504697 91.428735738 91.247404306 91.05918557 90.863651453 90.660056646 
90.447986615 90.22711211 89.997931751 89.761517636 89.519847774 89.275634961 89.032604452 91.858546832 91.708696185 
91.546922896 91.375469664 91.195280914 91.006906339 90.810596571 90.606277656 90.394398733 90.175076232 89.949433097 
89.718736407 89.485221908 89.251515371 89.021208109 91.791197246 91.650556036 91.494976671 91.327250386 91.148978471 
90.961358955 90.765192348 90.561153172 90.350125676 90.1328474 89.910742507 89.685351517 89.458951165 89.234272704 
89.014671842 91.730528718 91.598287295 91.448688569 91.284758314 91.108728147 90.922419011 90.726958009 90.523840593 
90.313964852 90.098966514 89.880150505 89.659514834 89.439366223 89.222333899 89.011640241 91.677518646 91.552649062 
91.408387618 91.248184187 91.074576158 90.889784008 90.695438738 90.493433991 90.285059752 90.07213102 89.85641643 
89.639857075 89.424981686 89.214314774 89.010849659 91.633147266 91.514505158 91.374911434 91.21793193 91.046587414 
90.863277101 90.670313441 90.469369004 90.262504593 90.051498022 89.838365864 89.62528357 89.41459348 89.209115897 
89.011419602 91.598097982 91.484325297 91.348407644 91.19412101 91.024748699 90.84294962 90.650998395 90.451225573 
90.245546606 90.036185755 89.825195859 89.614775423 89.407477849 89.205818732 89.012646391 91.572657876 91.462485614 
91.329234902 91.177087826 91.009171401 90.828385978 90.63744863 90.438532314 90.233888973 90.025675476 89.816269958 
89.607786329 89.402885393 89.203978428 89.013899726 91.557217549 91.44926875 91.317663277 91.1667864 90.999790539 
90.819801633 90.629360385 90.430965554 90.226990848 90.019611991 89.811021051 89.603842396 89.400339795 89.203022319 
89.01471596 88.675324869 88.670478211 88.662417723 88.651572219 88.638125223 88.622416491 88.605148379 88.586791712 
88.568395871 88.550797853 88.535543204 88.524106318 88.518821803 88.522326331 88.538313352 88.571506137 88.628049452 
88.716427694 88.847698199 89.036842553 89.303590893 89.67417119 90.182704328 90.872249621 91.794745948 93.007315915 
94.559533967 96.429015691 88.529723732 88.522860351 88.511557835 88.495723041 88.475707022 88.45170658 88.423870593 
88.392601536 88.35826662 88.321505564 88.282947724 88.24353216 88.20434239 88.167144924 88.134055668 88.108120122 
88.093836955 88.097413529 88.127486951 88.196803504 88.323173109 88.53217235 88.859910436 89.356377493 90.089411993 
91.146110509 92.624106509 94.627352531 88.403965903 88.39518555 88.380639388 88.36031068 88.334217078 88.302210535 
88.26437952 88.220753858 88.171207226 88.115866142 88.054520493 87.987342922 87.914410976 87.83584984 87.752285917 
87.664630313 87.574600098 87.484992119 87.400540125 87.328979998 87.28247207 87.28013091 87.352085261 87.544359035 
87.92718758 88.604396723 89.727256312 91.50425426 88.300287928 88.289915258 88.27256812 88.248206806 88.216616919 
88.177605639 88.130904695 88.07627032 88.013083311 87.940853394 87.858824827 87.76628678 87.661990949 87.544875741 
87.413609621 87.26655585 87.102469158 86.920050595 86.718580394 86.498879417 86.263870109 86.020847457 85.785005125 
85.584271643 85.46968017 85.53085858 85.922521427 86.904980803 88.220633508 88.208916535 88.189351853 88.161777673 
88.125758753 88.08105388 88.027151446 87.963541445 87.889121736 87.803096972 87.703978583 87.590184754 87.45974804 
87.310025853 87.137921495 86.939620746 86.710749241 86.445772968 86.138459625 85.781542147 85.367358141 84.887787673 
84.336595809 83.711529035 83.021731494 82.29991081 81.629227585 81.197871532 88.166657876 88.154063337 88.132901968 
88.102991177 88.06386933 88.015181261 87.956268854 87.886175519 87.80383805 87.707981338 87.596613454 87.467721952 
87.318265717 87.144777296 86.942859825 86.706895825 86.42986651 86.102784916 85.71476821 85.251761122 84.695962039 
84.025232906 83.211251724 82.21900027 81.005611408 79.521792876 77.717700845 75.566581066 88.139405885 88.126324601 
88.104301897 88.07326431 88.032529557 87.981831137 87.920189155 87.846820375 87.760435205 87.65930921 87.541696585 
87.404811526 87.245420229 87.059527194 86.841867372 86.585893348 86.2830675 85.922657559 85.490940313 84.969827583 
84.335726158 83.557469191 82.593198687 81.385852026 79.856188722 77.891693846 75.329801884 71.924474417 88.139405885 
88.126324601 88.104301897 88.07326431 88.032529557 87.981831137 87.920189155 87.846820375 87.760435205 87.65930921 
87.541696585 87.404811526 87.245420229 87.059527194 86.841867372 86.585893348 86.2830675 85.922657559 85.490940313 
84.969827583 84.335726158 83.557469191 82.593198687 81.385852026 79.856188722 77.891693846 75.329801884 71.924474417 
88.166657876 88.154063337 88.132901968 88.102991177 88.06386933 88.015181261 87.956268854 87.886175519 87.80383805 
87.707981338 87.596613454 87.467721952 87.318265717 87.144777296 86.942859825 86.706895825 86.42986651 86.102784916 
85.71476821 85.251761122 84.695962039 84.025232906 83.211251724 82.21900027 81.005611408 79.521792876 77.717700845 
75.566581066 88.220633508 88.208916535 88.189351853 88.161777673 88.125758753 88.08105388 88.027151446 87.963541445 
87.889121736 87.803096972 87.703978583 87.590184754 87.45974804 87.310025853 87.137921495 86.939620746 86.710749241 
86.445772968 86.138459625 85.781542147 85.367358141 84.887787673 84.336595809 83.711529035 83.021731494 82.29991081 
81.629227585 81.197871532 88.300287928 88.289915258 88.27256812 88.248206806 88.216616919 88.177605639 88.130904695 
88.07627032 88.013083311 87.940853394 87.858824827 87.76628678 87.661990949 87.544875741 87.413609621 87.26655585 
87.102469158 86.920050595 86.718580394 86.498879417 86.263870109 86.020847457 85.785005125 85.584271643 85.46968017 
85.53085858 85.922521427 86.904980803 88.403965903 88.39518555 88.380639388 88.36031068 88.334217078 88.302210535 
88.26437952 88.220753858 88.171207226 88.115866142 88.054520493 87.987342922 87.914410976 87.83584984 87.752285917 
87.664630313 87.574600098 87.484992119 87.400540125 87.328979998 87.28247207 87.28013091 87.352085261 87.544359035 
87.92718758 88.604396723 89.727256312 91.50425426 88.529723732 88.522860351 88.511557835 88.495723041 88.475707022 
88.45170658 88.423870593 88.392601536 88.35826662 88.321505564 88.282947724 88.24353216 88.20434239 88.167144924 
88.134055668 88.108120122 88.093836955 88.097413529 88.127486951 88.196803504 88.323173109 88.53217235 88.859910436 
89.356377493 90.089411993 91.146110509 92.624106509 94.627352531 88.675324869 88.670478211 88.662417723 88.651572219 
88.638125223 88.622416491 88.605148379 88.586791712 88.568395871 88.550797853 88.535543204 88.524106318 88.518821803 
88.522326331 88.538313352 88.571506137 88.628049451 88.716427694 88.847698199 89.036842553 89.303590893 89.67417119 
90.182704328 90.872249621 91.794745948 93.007315915 94.559533967 96.429015691 89.01471596 89.013899726 89.012646391 
89.011419602 89.010849659 89.011640241 89.014671842 89.021208109 89.032604452 89.050817044 89.078117692 89.117004208 
89.171022617 89.244183131 89.341382513 89.468720609 89.633712043 89.845278386 90.114405032 90.453729362 90.8784156 
91.404851748 92.050234063 92.829870675 93.753027583 94.815635128 95.985451908 97.189308457 89.203022319 89.203978428 
89.205818732 89.209115897 89.214314774 89.222333899 89.234272704 89.251515371 89.275634961 89.308703004 89.353096956 
89.411804897 89.48833548 89.58682148 89.712318438 89.870693864 90.068898085 90.314806397 90.617507037 90.98691797 
91.433581234 91.967185582 92.595680257 93.32173817 94.139098951 95.025800643 95.93949255 96.819670245 89.400339795 
89.402885393 89.407477849 89.41459348 89.424981686 89.439366223 89.458951165 89.485221908 89.519847774 89.564888644 
89.622892962 89.696901218 89.790140226 89.906813081 90.051480216 90.229424084 90.446688066 90.709480537 91.02472899 
91.399151583 91.838638275 92.34707796 92.924645104 93.565390279 94.253758495 94.961358211 95.644680453 96.239736812 
89.603842396 89.607786329 89.614775423 89.62528357 89.639857075 89.659514834 89.685351517 89.718736407 89.761517636 
89.815618507 89.883435249 89.967931171 90.072021023 90.199552028 90.354467003 90.541251015 90.764552834 91.029167628 
91.339572033 91.699197941 92.110310253 92.572123756 93.079481891 93.621176208 94.177421911 94.718550315 95.202591301 
95.5744934 89.811021051 89.816269958 89.825195859 89.838365864 89.85641643 89.880150505 89.910742507 89.949433097 
89.997931751 90.058009105 90.131991763 90.222248687 90.331670094 90.463238119 90.620382191 90.806612597 91.025135622 
91.279125183 91.570863753 91.901629428 92.270410672 92.673213565 93.101752145 93.542382765 93.974503631 94.369915029 
94.692186248 94.898383305 90.019611991 90.025675476 90.036185755 90.051498022 90.07213102 90.098966514 90.1328474 
90.175076232 90.22711211 90.290462501 90.36707498 90.459116863 90.568753117 90.698610105 90.851225194 91.028879878 
91.233908604 91.467881093 91.731449257 92.023863322 92.342050969 92.680271491 93.028753574 93.37338487 93.694682559 
93.968030077 94.164094048 94.25126019 90.226990848 90.233888973 90.245546606 90.262504593 90.285059752 90.313964852 
90.350125676 90.394398733 90.447986615 90.512228286 90.588687292 90.678932435 90.78491157 90.908314011 91.050821075 
91.214138057 91.399211818 91.606619231 91.835638951 92.084196427 92.348194165 92.620823046 92.892332554 93.149376027 
93.374860861 93.548573025 93.648099525 93.651452857 90.430965554 90.438532314 90.451225573 90.469369004 90.493433991 
90.523840593 90.561153172 90.606277656 90.660056646 90.723458442 90.797665986 90.883656179 90.982873948 91.096297068 
91.225087723 91.369833324 91.530769082 91.707586147 91.898620503 92.100932423 92.310078044 92.519088729 92.718972698 
92.897802736 93.041667353 93.134655 93.160429808 93.104233254 90.629360385 90.63744863 90.650998395 90.670313441 
90.695438738 90.726958009 90.765192348 90.810596571 90.863651453 90.925158099 90.995723032 91.075941172 91.166571751 
91.268005956 91.380726059 91.504651004 91.639373795 91.783582978 91.935377003 92.091368335 92.246992059 92.395926312 
92.530148609 92.639950673 92.714056222 92.740891273 92.708866875 92.609038173 90.819801633 90.828385978 90.84294962 
90.863277101 90.889784008 90.922419011 90.961358955 91.006906339 91.05918557 91.118631917 91.185183329 91.259163918 
91.340663703 91.429511218 91.525539272 91.628040913 91.736019752 91.84782531 91.960889587 92.072054613 92.176908598 
92.269935841 92.344400267 92.392486369 92.406018442 92.376615993 92.296997968 92.162030143 90.999790539 91.009171401 
91.024748699 91.046587414 91.074576158 91.108728147 91.148978471 91.195280914 91.247404306 91.305225676 91.368521839 
91.437056799 91.510165588 91.587233059 91.667566937 91.749864489 91.832473302 91.913445287 91.990086373 92.059208535 
92.116683322 92.158011818 92.177624328 92.169922106 92.128887571 92.049192601 91.92671614 91.759390188 91.1667864 
91.177087826 91.19412101 91.21793193 91.248184187 91.284758314 91.327250386 91.375469664 91.428735738 91.486573483 
91.548406728 91.613249242 91.680192969 91.747992631 91.815146287 91.879871763 91.940278816 91.993736847 92.03754005 
92.068374333 92.082687351 92.076371304 92.045465513 91.985693876 91.893349048 91.765349714 91.60016164 91.398091259 
91.317663277 91.329234902 91.348407644 91.374911434 91.408387618 91.448688569 91.494976671 91.546922896 91.603504697 
91.663902677 91.727096698 91.791559553 91.855849432 91.918099875 91.97640702 92.02831453 92.071195407 92.102231447 
92.118291575 92.116011261 92.091773277 92.042298946 91.964251491 91.85466438 91.71149429 91.533835674 91.321838179 
91.077984404 91.44926875 91.462485614 91.484325297 91.514505158 91.552649062 91.598287295 91.650556036 91.708696185 
91.771552468 91.83797139 91.906298654 91.97487577 92.04153542 92.103995451 92.159451721 92.205069048 92.237371003 
92.25302827 92.248246724 92.219255803 92.162499573 92.074533058 91.9525246 91.794276743 91.598853855 91.366762246 
91.099896215 90.802593569 91.557217549 91.572657876 91.598097982 91.633147266 91.677518646 91.730528718 91.791197246 
91.858546832 91.931402346 92.008089887 92.086735404 92.165162808 92.24069137 92.310532449 92.371185324 92.419032359 
92.449933104 92.45941851 92.443084449 92.396286454 92.314736116 92.194400956 92.032308898 91.826160702 91.575746159 
91.281996082 90.948670038 90.58141876 89.760810895 90.127092276 90.500751144 90.884500878 91.285005896 91.712138781 
92.177938966 92.697530549 93.288974993 93.972958244 94.771784772 95.706096027 96.786473699 97.996098099 99.224012743 
89.331213704 89.767987616 90.183697736 90.587462066 90.991354903 91.408569958 91.85448582 92.347673226 92.910651695 
93.571467292 94.364821453 95.331510417 96.513554565 97.946466828 99.586018387 88.915129103 89.416977206 89.868402428 
90.285059467 90.683200658 91.078511561 91.487991663 91.931066555 92.431616148 93.020556463 93.738919167 94.64140864 
95.797988061 97.30115896 99.2175729 88.529096199 89.088485482 89.569696174 89.99421246 90.381416066 90.748415041 
91.111921098 91.490015415 91.904423819 92.383549236 92.967092864 93.711840512 94.700619709 96.063481988 97.946437381 
88.188306057 88.796345556 89.302611669 89.732914985 90.109137972 90.448554376 90.766419897 91.07804234 91.400274672 
91.755071414 92.17322186 92.701577122 93.413959741 94.435885381 95.946430378 87.905870185 88.552781615 89.080459512 
89.517949153 89.8882608 90.208510427 90.492247127 90.751395915 90.997722944 91.245121579 91.512823934 91.830843222 
92.249280395 92.856420683 93.812276623 87.691299299 88.366796665 88.913568433 89.362246109 89.736259366 90.052369971 
90.323005925 90.557784836 90.764835398 90.952882773 91.132960399 91.322080212 91.550364858 91.870219371 92.407568347 
87.549747373 88.243226137 88.807663541 89.273160051 89.663158608 89.99417672 90.278295431 90.525050027 90.742415506 
90.938933448 91.125639662 91.319408264 91.550089987 91.870051636 92.404901874 87.480935369 88.18225143 88.763008221 
89.251353509 89.669847349 90.034789513 90.359285574 90.65469293 90.932322873 91.205782402 91.494317697 91.82772437 
92.25566738 92.866676657 93.820647121 87.479947277 88.179386885 88.774775399 89.290554031 89.747606889 90.162258038 
90.548774482 90.921591661 91.297293667 91.697527636 92.152950885 92.710756144 93.445117351 94.482369736 96.003627242 
87.537202961 88.225948462 88.833270379 89.378694923 89.880380904 90.353890617 90.8146788 91.280109443 91.771474477 
92.317191808 92.957061284 93.749055328 94.777249009 96.173947167 98.088598393 87.639493091 88.310067744 88.925705214 
89.499981864 90.047110022 90.581175452 91.117601424 91.675121514 92.27728448 92.955296343 93.75087557 94.720244519 
95.935938283 97.493949048 99.46481804 87.77171376 88.41818898 89.037928547 89.637267485 90.22573035 90.81467953 
91.417923864 92.053191651 92.742868989 93.515637065 94.407166121 95.460318846 96.720153019 98.225913916 99.939857221 
87.917574038 88.536653912 89.155883456 89.774364039 90.3961066 91.028509889 91.682238182 92.371603412 93.114484577 
93.932352456 94.849080244 95.887351467 97.06035783 98.354722271 99.66618582 88.185387845 88.750267102 89.357715282 
89.993001576 90.649088743 91.323372757 92.017013015 92.733138871 93.475510914 94.246291286 95.041364682 95.844884506 
96.619438916 97.292830163 97.742160625 88.284635822 88.827672078 89.426588472 90.061214296 90.719138808 91.393087155 
92.078659253 92.773484566 93.474284154 94.174546524 94.859885724 95.503066148 96.055921969 96.441851834 96.559813213 
88.352418263 88.879541347 89.47061423 90.100482187 90.752472293 91.414505424 92.077889809 92.734986797 93.376780648 
93.990290798 94.55481112 95.037261652 95.387973733 95.537163115 95.390819175 88.384201725 88.903320022 89.488691737 
90.111692069 90.751828448 91.393511675 92.024095203 92.63200335 93.204292749 93.724111104 94.16758551 94.501286242 
94.67887363 94.639866118 94.307480716 88.377691168 88.898536239 89.482223901 90.098030433 90.722755168 91.338088849 
91.928871748 92.480831263 92.97867653 93.404254443 93.733684062 93.935981135 93.971471185 93.791522211 93.340579301 
88.333684399 88.866682489 89.454320412 90.064363425 90.672138478 91.257766597 91.804578799 92.29708602 92.719733138 
93.054651662 93.280328396 93.37021759 93.292850345 93.012603293 92.493140395 88.255102101 88.811564576 89.409806104 
90.016859909 90.607838358 91.162171549 91.662909317 92.095126293 92.444146343 92.69397902 92.826909247 92.822173979 
92.656971167 92.307744657 91.753960068 88.146745239 88.738338698 89.354508082 89.962533941 90.537776794 91.060462801 
91.514589489 91.886757408 92.164550818 92.335250548 92.38571599 92.301470505 92.067928148 91.672060609 91.105174516 
88.015372912 88.653869682 89.295492138 89.908646374 90.469906865 90.96108246 91.368533682 91.681212168 91.890183939 
91.986892843 91.963104948 91.810855237 91.522921264 91.094692637 90.526388568 87.869483755 88.566204842 89.24082112 
89.863251719 90.412049686 90.871789685 91.231792878 91.485047575 91.626557648 91.652632273 91.560561201 91.348185091 
91.014785249 90.562385954 89.997600675 87.718603025 88.484556022 89.199333341 89.834469809 90.37156954 90.798751432 
91.109773425 91.302208112 91.376095298 91.333233337 91.175971525 90.907865371 90.533760452 90.060744686 89.499690589 
87.573970601 88.419785315 89.18082781 89.830976637 90.355573712 90.74756022 91.006088424 91.134525218 91.138699873 
91.025856061 90.80406814 90.481877422 90.068632318 89.575225584 89.0154283 87.448227221 88.383789068 89.196151462 
89.861601841 90.370628712 90.722275924 90.922431315 90.981347673 90.911317836 90.725676958 90.437737779 90.060648855 
89.607416198 89.091996556 88.529302305 87.355794505 88.390375736 89.25708372 89.935826871 90.423178458 90.726071466 
90.858866591 90.839833719 90.688828017 90.425232318 90.067783282 89.633353081 89.138151301 88.597515822 88.027606771 
87.313343459 88.45553173 89.377414004 90.063382323 90.518771489 90.760494749 90.813192268 90.704905541 90.463576671 
90.115275933 89.683435389 89.188345655 88.648263949 88.079552064 87.497969673 87.340342431 88.597670487 89.572108927 
90.254748841 90.662281909 90.825003371 90.78055196 90.568438796 90.225423689 89.784272699 89.272660147 88.713458719 
88.125930847 87.526518536 86.92998456 87.460473304 88.839057442 89.858579309 90.520265846 90.8568774 90.916267801 
90.75279126 90.418866692 89.96125541 89.418539297 88.822006219 88.19586558 87.559437697 86.928013911 86.314765335 
87.703088489 89.206604495 90.256656704 90.869991471 91.102780863 91.026821629 90.716946197 90.240844513 89.654708525 
89.002461471 88.317258935 87.623059093 86.937841243 86.274926676 85.644937933 88.105675411 89.733635068 90.78842782 
91.312229005 91.395406619 91.142736483 90.654054104 90.013505965 89.28591082 88.518415287 87.743397548 86.982871999 
86.251790047 85.5602478 84.915692608 88.718129304 90.462139533 91.477819521 91.850321519 91.721641974 91.24043846 
90.536785103 89.710477598 88.83192659 87.947383727 87.085723253 86.264464482 85.493443822 84.778870588 84.124360783 
89.608837107 91.445194451 92.348597759 92.477931129 92.053767981 91.283224778 90.32801001 89.299439529 88.267073584 
87.270584991 86.331382691 85.459159895 84.658086915 83.928773723 83.270852331 90.875458479 92.750131913 93.417187575 
93.167737554 92.341260726 91.215872671 89.979685973 88.743650635 87.565426024 86.471454254 85.470351426 84.562524007 
83.744511749 83.011322838 82.358544747 92.664372457 94.457515739 94.676438842 93.852638044 92.498563639 90.962095308 
89.435174577 88.00560641 86.705098101 85.538403154 84.498751362 83.574985096 82.756133745 82.031870953 81.394022645 
95.203410803 96.648632996 96.052766692 94.393598478 92.394197107 90.42906846 88.637950769 87.055448447 85.673258388 
84.469488135 83.420224071 82.503568069 81.70160055 80.999830545 80.38698853 98.863384737 99.327064478 97.31977063 
94.536088483 91.862507942 89.526433253 87.548014871 85.881713187 84.473423518 83.275184437 82.24824158 81.362554523 
80.595070581 79.928635146 79.350300681 104.16657389 102.20301227 97.883598549 93.957944579 90.753266947 88.206550835 
86.163588591 84.502061003 83.129704555 81.980200604 81.005974383 80.172579477 79.454862227 78.834712873 78.298672278 
111.59332998 103.43873199 97.091693896 92.411141075 89.045330985 86.508861522 84.540901467 82.970510847 81.688904431 
80.623687195 79.725821505 78.960629078 78.303641995 77.737361262 77.248924363 113.59956227 101.93269702 94.567095428 
90.054120281 86.890361417 84.566742395 82.779200708 81.359641518 80.203736844 79.244129599 78.435991808 77.747774406 
77.157408282 76.64910815 76.211215527 75.513957192 76.469805785 77.441287197 78.421203925 79.395588718 80.352006898 
81.278654588 82.165389297 83.004279912 83.789397661 84.51738548 85.186975122 85.799239182 86.357225312 86.866308379 
87.333388733 87.768113829 88.182396687 88.591113173 89.013328455 89.472874856 89.999776127 90.631996684 91.415700718 
92.406003505 93.6619843 95.2351404 97.108667298 75.244490086 76.168077257 77.108502739 78.059136094 79.007014793 
79.940325029 80.847469043 81.718406004 82.54434895 83.318512335 84.036263466 84.694462197 85.292442913 85.831155068 
86.313341181 86.74379887 87.129308443 87.479144707 87.805515297 88.124775176 88.458812396 88.837173089 89.299558494 
89.900060846 90.710017441 91.819782152 93.330021751 95.345632396 75.023596968 75.92053142 76.83491009 77.760936211 
78.686110161 79.598954955 80.488085507 81.343214665 82.155336635 82.916599284 83.621052382 84.264314106 84.843643172 
85.357836178 85.807348366 86.194023099 86.521279307 86.794695546 87.021940242 87.214145478 87.387173686 87.564210626 
87.779157108 88.082249048 88.547599999 89.28311409 90.4430447 92.237901215 74.848988868 75.724547672 76.618277858 
77.524352773 78.430906939 79.326541106 80.200138872 81.041162087 81.840025236 82.58831338 83.278962231 83.906288055 
84.465846179 84.954298292 85.369769661 85.711077567 85.978213776 86.171909928 86.294217665 86.349033222 86.342766581 
86.286601522 86.199369956 86.113163023 86.083077056 86.203048855 86.631508581 87.633033476 74.719169227 75.578740779 
76.456856341 77.347932288 78.240243882 79.122576048 79.98377188 80.813227469 81.600860219 82.337858335 83.016236296 
83.629158195 84.170713768 84.635985967 85.020690121 85.321232857 85.533736958 85.65467579 85.680150678 85.605835201 
85.427024784 85.139460362 84.74020118 84.231139865 83.625096993 82.958975421 82.319839115 81.901030436 74.633085722 
75.482041734 76.349761114 77.230791786 78.11344403 78.98657729 79.839221461 80.660463139 81.440170926 82.168894534 
82.83805531 83.439956922 83.968026071 84.415755857 84.777405101 85.046890555 85.218096401 85.283537276 85.234380769 
85.059092783 84.743224763 84.267547467 83.607377886 82.731226264 81.599632 80.16666912 78.386250093 76.235416887 
74.590278221 75.433853805 76.296297352 77.172247281 78.050097843 78.918613855 79.766865647 80.583915521 81.359347203 
82.083711395 82.747908561 83.344139116 83.86479634 84.303198182 84.652302713 84.905253921 85.054163512 85.08955278 
84.999595878 84.768968888 84.376859295 83.795333001 82.985643867 81.894003951 80.444448017 78.527474723 75.983233152 
72.567560127 74.590278221 75.433853805 76.296297352 77.172247281 78.050097843 78.918613855 79.766865647 80.583915521 
81.359347203 82.083711395 82.747908561 83.344139116 83.86479634 84.303198182 84.652302713 84.905253921 85.054163512 
85.08955278 84.999595878 84.768968888 84.376859295 83.795333001 82.985643867 81.894003951 80.444448017 78.527474723 
75.983233152 72.567560127 74.633085722 75.482041734 76.349761114 77.230791786 78.11344403 78.98657729 79.839221461 
80.660463139 81.440170926 82.168894534 82.83805531 83.439956922 83.968026071 84.415755857 84.777405101 85.046890555 
85.218096401 85.283537276 85.234380769 85.059092783 84.743224763 84.267547467 83.607377886 82.731226264 81.599632 
80.16666912 78.386250093 76.235416887 74.719169227 75.578740779 76.456856341 77.347932288 78.240243882 79.122576048 
79.98377188 80.813227469 81.600860219 82.337858335 83.016236296 83.629158195 84.170713768 84.635985967 85.020690121 
85.321232857 85.533736958 85.65467579 85.680150678 85.605835201 85.427024784 85.139460362 84.74020118 84.231139865 
83.625096993 82.958975421 82.319839115 81.901030436 74.848988868 75.724547672 76.618277858 77.524352773 78.430906939 
79.326541106 80.200138872 81.041162087 81.840025236 82.58831338 83.278962231 83.906288055 84.465846179 84.954298292 
85.369769661 85.711077567 85.978213776 86.171909928 86.294217665 86.349033222 86.342766581 86.286601522 86.199369956 
86.113163023 86.083077056 86.203048855 86.631508581 87.633033476 75.023596968 75.92053142 76.83491009 77.760936211 
78.686110161 79.598954955 80.488085507 81.343214665 82.155336635 82.916599284 83.621052382 84.264314106 84.843643172 
85.357836178 85.807348366 86.194023099 86.521279307 86.794695546 87.021940242 87.214145478 87.387173686 87.564210626 
87.779157108 88.082249048 88.547599999 89.28311409 90.4430447 92.237901215 75.244490086 76.168077257 77.108502739 
78.059136094 79.007014793 79.940325029 80.847469043 81.718406004 82.54434895 83.318512335 84.036263466 84.694462197 
85.292442913 85.831155068 86.313341181 86.74379887 87.129308443 87.479144707 87.805515297 88.124775176 88.458812396 
88.837173089 89.299558494 89.900060846 90.710017441 91.819782152 93.330021751 95.345632396 75.513957192 76.469805785 
77.441287197 78.421203925 79.395588718 80.352006898 81.278654588 82.165389297 83.004279912 83.789397661 84.51738548 
85.186975122 85.799239182 86.357225312 86.866308379 87.333388733 87.768113829 88.182396687 88.591113173 89.013328455 
89.472874856 89.999776127 90.631996684 91.415700718 92.406003505 93.6619843 95.2351404 97.108667298 
METADATA
COMPONENT_NAMES
S_Mises

S_Principal 3 4256 double
2.05543 4.2705956265 95.497804373 2.00751 4.19213421 94.48366579 2.00751 4.19213421 94.48366579 
2.05543 4.2705956265 95.497804373 -5.2163384898 0.00734545 96.89067849 -5.6938138045 0.0123022 96.044723805 
-5.6938138045 0.0123022 96.044723805 -5.2163384898 0.00734545 96.89067849 0.184424 38.157799433 184.24630057 
-0.11747333803 -0.0409406 87.453160338 -0.057134175956 -0.0197619 89.906292876 0.00738092 0.020364994332 91.642201506 
-0.0010317 0.80583699987 89.2387 -0.0010317 0.80583699987 89.2387 0.00738092 0.020364994332 91.642201506 
-0.057134175956 -0.0197619 89.906292876 -0.11747333803 -0.0409406 87.453160338 0.184424 38.157799433 184.24630057 
0.173391 25.051355301 84.827644699 0.173391 25.051355301 84.827644699 -6.5124438422 0.130884 98.989763842 
-7.8116968537 0.177093 100.42966685 -9.2757802213 0.209927 102.02138022 -10.879639385 0.24857 103.77103938 
-12.594034969 0.291765 105.64823497 -14.361129266 0.338038 107.58762927 -16.076375225 0.385055 109.47377523 
-17.565668047 0.429015 111.11426805 -18.558901589 0.464179 112.21380159 -18.660634203 0.482189 112.3385342 
-17.333471149 0.471184 110.90187115 -13.939812363 0.414083 107.19848236 -8.0373775538 0.281151 100.70026755 
-0.74110788026 0.0031026 92.46900788 -6.9497241571 0.146037 98.246004157 -8.1934285848 0.194405 99.719068585 
-9.6036855583 0.227282 101.33578556 -11.158372455 0.265458 103.10997246 -12.829145842 0.307676 105.00794584 
-14.557763552 0.352554 106.96336355 -16.23949216 0.397815 108.86069216 -17.700522536 0.439701 110.50632254 
-18.671178162 0.472521 111.60147816 -18.756898989 0.488014 111.71509899 -17.420964865 0.47455 110.25806486 
-14.025223591 0.415555 106.52409359 -8.1200274953 0.282147 99.977657495 -0.7939081663 0.00541409 91.658008166 
-6.9497241571 0.146037 98.246004157 -8.1934285848 0.194405 99.719068585 -9.6036855583 0.227282 101.33578556 
-11.158372455 0.265458 103.10997246 -12.829145842 0.307676 105.00794584 -14.557763552 0.352554 106.96336355 
-16.23949216 0.397815 108.86069216 -17.700522536 0.439701 110.50632254 -18.671178162 0.472521 111.60147816 
-18.756898989 0.488014 111.71509899 -17.420964865 0.47455 110.25806486 -14.025223591 0.415555 106.52409359 
-8.1200274953 0.282147 99.977657495 -0.7939081663 0.0054141 91.658008166 -6.5124438422 0.130884 98.989763842 
-7.8116968537 0.177093 100.42966685 -9.2757802213 0.209927 102.02138022 -10.879639385 0.24857 103.77103938 
-12.594034969 0.291765 105.64823497 -14.361129266 0.338038 107.58762927 -16.076375225 0.385055 109.47377523 
-17.565668047 0.429015 111.11426805 -18.558901589 0.464179 112.21380159 -18.660634203 0.482189 112.3385342 
-17.333471149 0.471184 110.90187115 -13.939812363 0.414083 107.19848236 -8.0373775538 0.281151 100.70026755 
-0.74110788026 0.00310259 92.46900788 3.9729 7.2051792374 132.99262076 6.55157 10.631735443 171.18936456 
8.68651 13.062842754 205.83095725 10.3845 14.653323163 235.44867684 11.6182 15.543437819 258.76836218 
12.4063 15.950374514 274.81652549 12.7816 16.082705955 282.92189404 12.7711 16.073026126 282.75157387 
12.3757 15.921014386 274.31778561 11.5699 15.494271395 257.98482861 10.3227 14.58594374 234.44465626 
8.61725 12.981344368 204.68975563 6.48241 10.543291397 170.0023086 3.9125 7.1199899006 131.8546101 
-0.0758786 0.61681786481 56.877682135 -5.5039458733 -2.75324 20.919403873 -23.04378426 -5.0438 0.78241326029 
-50.113213967 -6.88673 -3.9309760333 -72.94507532 -8.2334 -5.7884646802 -88.912524905 -9.09766 -6.6494550949 
-97.095198423 -9.51471 -6.9795815773 -97.095198423 -9.51471 -6.9795815773 -88.912524905 -9.09766 -6.6494550949 
-72.94507532 -8.2334 -5.7884646802 -50.113213967 -6.88673 -3.9309760333 -23.04378426 -5.0438 0.78241326029 
-5.5039458733 -2.75324 20.919403873 -0.0758786 0.61681786481 56.877682135 3.9125 7.1199899006 131.8546101 
6.48241 10.543291397 170.0023086 8.61725 12.981344368 204.68975563 10.3227 14.58594374 234.44465626 
11.5699 15.494271395 257.98482861 12.3757 15.921014386 274.31778561 12.7711 16.073026126 282.75157387 
12.7816 16.082705955 282.92189404 12.4063 15.950374514 274.81652549 11.6182 15.543437819 258.76836218 
10.3845 14.653323163 235.44867684 8.68651 13.062842754 205.83095725 6.55157 10.631735443 171.18936456 
3.9729 7.2051792374 132.99262076 -0.0441392 0.68370719069 57.701892809 -5.4132030351 -2.74425 21.458543035 
-22.800225934 -5.05852 0.88961593425 -50.034560793 -6.92316 -3.9241292068 -73.064213429 -8.2873 -5.8072065708 
-89.180871738 -9.16355 -6.6793382624 -97.442762551 -9.58664 -7.0137974492 -97.442762551 -9.58664 -7.0137974492 
-89.180871738 -9.16355 -6.6793382624 -73.064213429 -8.2873 -5.8072065708 -50.034560793 -6.92316 -3.9241292068 
-22.800225934 -5.05852 0.88961593425 -5.4132030351 -2.74425 21.458543035 -0.0441391 0.68370719069 57.701892809 
-4.7181139943 0.0734786 98.186683994 -3.7560365964 0.103914 99.711276596 -1.7780947956 0.137701 100.8322948 
0.150708 1.3515598977 101.2548701 0.152248 5.3902261435 100.84033386 0.15034 9.4577568474 99.828323153 
0.149635 12.091226022 98.942573978 0.149784 12.024104789 98.925295211 0.150997 9.2792904339 99.755479566 
0.153942 5.1464120705 100.66968793 0.154095 1.0781047074 100.95393529 -2.068101288 0.143478 100.38783129 
-4.0693790259 0.111833 99.122499026 -5.0756365225 0.0854492 97.458426523 -6.6374914977 -0.210935 94.029961498 
-7.2873885519 -0.272061 92.058628552 -7.2396047586 -0.302386 88.862664759 -6.1697984109 -0.315711 84.233958411 
-3.9504482711 -0.318347 78.411488271 -1.034614242 -0.319436 72.452211242 -0.321469 1.2209261665 68.421583833 
-0.321469 1.2209261665 68.421583833 -1.034614242 -0.319436 72.452211242 -3.9504482711 -0.318347 78.411488271 
-6.1697984109 -0.315711 84.233958411 -7.2396047586 -0.302386 88.862664759 -7.2873885519 -0.272061 92.058628552 
-6.6374914977 -0.210935 94.029961498 -5.0756365225 0.0854492 97.458426523 -4.0693790259 0.111833 99.122499026 
-2.068101288 0.143478 100.38783129 0.154095 1.0781047074 100.95393529 0.153942 5.1464120705 100.66968793 
0.150997 9.2792904339 99.755479566 0.149784 12.024104789 98.925295211 0.149635 12.091226022 98.942573978 
0.15034 9.4577568474 99.828323153 0.152248 5.3902261435 100.84033386 0.150708 1.3515598977 101.2548701 
-1.7780947956 0.137701 100.8322948 -3.7560365964 0.103914 99.711276596 -4.7181139943 0.0734786 98.186683994 
-6.1063363173 -0.196242 95.047066317 -6.725168462 -0.258723 93.128848462 -6.6502394728 -0.29206 89.960909473 
-5.5469262108 -0.308783 85.334446211 -3.281040771 -0.314411 79.486790771 -0.31776 -0.30937311549 73.482058115 
-0.321032 1.9897286164 69.411641384 -0.321032 1.9897286164 69.411641384 -0.31776 -0.30937311549 73.482058115 
-3.281040771 -0.314411 79.486790771 -5.5469262108 -0.308783 85.334446211 -6.6502394728 -0.29206 89.960909473 
-6.725168462 -0.258723 93.128848462 -6.1063363173 -0.196242 95.047066317 1.69823 6.7642106294 142.23200937 
2.36571 3.793429342 112.90306066 0.159025 0.21944884105 99.891604159 -0.19671166954 0.0299334 94.36194167 
-0.41160819762 -0.101519 91.026649198 -0.44836926159 -0.127686 88.943548262 -0.44441253598 -0.136041 87.576222536 
-0.42063787378 -0.133076 86.684673874 -0.3902708904 -0.125999 86.12351789 -0.35799485361 -0.117122 85.801710854 
-0.32609817027 -0.107709 85.65678717 -0.29559424267 -0.0983554 85.644409243 -0.26695491449 -0.0893738 85.730802914 
-0.24039417842 -0.0809301 85.889927178 -0.21601619734 -0.0731183 86.100259197 -0.19388157122 -0.0659972 86.343586571 
-0.17404321291 -0.0596079 86.604303213 -0.15655408509 -0.0539829 86.868407085 -0.14147290361 -0.0491484 87.123198904 
-0.12885531797 -0.045124 87.357181318 -0.11874228456 -0.0419195 87.560358285 -0.11114646143 -0.0395311 87.723734461 
-0.10603553085 -0.0379371 87.840214531 -0.10332043501 -0.0370941 87.904602435 -0.10283958693 -0.0369349 87.914100587 
-0.10436020527 -0.0373718 87.868909205 -0.10758698216 -0.0382877 87.772025982 -0.1122852272 -0.0396698 87.630146227 
-0.12295821688 -0.0428697 87.250372217 -0.12823927554 -0.0435559 87.040167276 -0.1330985173 -0.0446702 86.846549517 
-0.13666894382 -0.0452697 86.691024944 -0.13873066243 -0.0454563 86.593804662 -0.13901071239 -0.0451621 86.572301712 
-0.13733287073 -0.0443661 86.638926871 -0.13359559052 -0.0430518 86.800784591 -0.12776471933 -0.0412096 87.057870719 
-0.11987798362 -0.0388374 87.403972984 -0.11004616036 -0.0359345 87.82677416 -0.098494636085 -0.0325697 88.309456736 
-0.085331611265 -0.0285195 88.832307311 -0.071775879644 -0.0253258 89.37322078 -0.042682982737 -0.0160322 90.407845383 
-0.028087715602 -0.0106848 90.871576516 -0.014827137925 -0.00646981 91.291099238 -0.0025270742172 -0.00236495 91.659623494 
0.00134278 0.008441748654 91.972855881 0.00461665 0.017930248429 92.229200352 0.0074082 0.025847558896 92.429658341 
0.00970042 0.032183755982 92.577129344 0.0114985 0.036994517295 92.675811583 0.0128271 0.040387951217 92.731102649 
0.0137253 0.042508889167 92.748600011 0.0142423 0.0435240425 92.734401357 0.0144325 0.043610213353 92.694204787 
0.0143523 0.042943227699 92.633708872 0.0140567 0.041690851853 92.558012648 0.0135978 0.040007756733 92.471715543 
0.0130227 0.038031902597 92.378917297 0.0123735 0.035884025024 92.283317875 0.0116866 0.033666711296 92.187817389 
0.0109928 0.031466263159 92.095216037 0.0103178 0.029353042648 92.007614057 0.00968268 0.027384305277 91.926811695 
0.00910421 0.025605020851 91.854309179 0.00859572 0.024050385382 91.791206715 0.00816748 0.022747227125 91.738404473 
0.0078272 0.021715308295 91.696702592 0.00758046 0.020968924381 91.666501176 0.00743098 0.020517602566 91.648300297 
0.00297505 0.013481762581 91.560301337 0.00226446 0.029812003731 91.460801196 0.00196714 0.056106329872 91.34290107 
0.00167087 0.090615249844 91.20940095 0.00143131 0.1321721691 91.063400831 0.00122494 0.17974628987 90.90720071 
0.00104081 0.23245841155 90.743200588 0.000866359 0.28952153121 90.573300469 0.00069058 0.35018864446 90.399600356 
0.000504237 0.41371574641 90.223900254 0.000300439 0.47931683274 90.048200167 7.4881e-05 0.54614190058 89.874400099 
-0.000173168 0.61325694905 89.704400051 -0.000445313 0.67963797945 89.540400021 -0.00071683 0.74419499494 89.384500005 
-0.00131553 0.86327299886 89.104800001 -0.00161785 0.91537099596 88.985400004 -0.00187847 0.96087799393 88.882400006 
-0.00210689 0.99871499394 88.797800006 -0.00228868 1.0279599957 88.732800004 -0.00241537 1.0478899981 88.688900002 
-0.00248039 1.0579799998 88.6667 -0.00248039 1.0579799998 88.6667 -0.00241537 1.0478899981 88.688900002 
-0.00228868 1.0279599957 88.732800004 -0.00210689 0.99871499394 88.797800006 -0.00187847 0.96087799393 88.882400006 
-0.00161785 0.91537099596 88.985400004 -0.00131553 0.86327299886 89.104800001 -0.00071683 0.74419499494 89.384500005 
-0.000445313 0.67963797945 89.540400021 -0.000173168 0.61325694905 89.704400051 7.4881e-05 0.54614190058 89.874400099 
0.000300439 0.47931683274 90.048200167 0.000504237 0.41371574641 90.223900254 0.00069058 0.35018864446 90.399600356 
0.000866359 0.28952153121 90.573300469 0.00104081 0.23245841155 90.743200588 0.00122494 0.17974628987 90.90720071 
0.00143131 0.1321721691 91.063400831 0.00167087 0.090615249844 91.20940095 0.00196714 0.056106329872 91.34290107 
0.00226446 0.029812003731 91.460801196 0.00297505 0.013481762581 91.560301337 0.00743098 0.020517602566 91.648300297 
0.00758046 0.020968924381 91.666501176 0.0078272 0.021715308295 91.696702592 0.00816748 0.022747227125 91.738404473 
0.00859572 0.024050385382 91.791206715 0.00910421 0.025605020851 91.854309179 0.00968268 0.027384305277 91.926811695 
0.0103178 0.029353042648 92.007614057 0.0109928 0.031466263159 92.095216037 0.0116866 0.033666711296 92.187817389 
0.0123735 0.035884025024 92.283317875 0.0130227 0.038031902597 92.378917297 0.0135978 0.040007756733 92.471715543 
0.0140567 0.041690851853 92.558012648 0.0143523 0.042943227699 92.633708872 0.0144325 0.043610213353 92.694204787 
0.0142423 0.0435240425 92.734401357 0.0137253 0.042508889167 92.748600011 0.0128271 0.040387951217 92.731102649 
0.0114985 0.036994517295 92.675811583 0.00970042 0.032183755982 92.577129344 0.0074082 0.025847558896 92.429658341 
0.00461665 0.017930248429 92.229200352 0.00134278 0.008441748654 91.972855881 -0.0025270742172 -0.00236495 91.659623494 
-0.014827137925 -0.00646981 91.291099238 -0.028087715602 -0.0106848 90.871576516 -0.042682982737 -0.0160322 90.407845383 
-0.071775879644 -0.0253258 89.37322078 -0.085331611265 -0.0285195 88.832307311 -0.098494636085 -0.0325697 88.309456736 
-0.11004616036 -0.0359345 87.82677416 -0.11987798362 -0.0388374 87.403972984 -0.12776471933 -0.0412096 87.057870719 
-0.13359559052 -0.0430518 86.800784591 -0.13733287073 -0.0443661 86.638926871 -0.13901071239 -0.0451621 86.572301712 
-0.13873066243 -0.0454563 86.593804662 -0.13666894382 -0.0452697 86.691024944 -0.1330985173 -0.0446702 86.846549517 
-0.12823927554 -0.0435559 87.040167276 -0.12295821688 -0.0428697 87.250372217 -0.1122852272 -0.0396698 87.630146227 
-0.10758698216 -0.0382877 87.772025982 -0.10436020527 -0.0373718 87.868909205 -0.10283958693 -0.0369349 87.914100587 
-0.10332043501 -0.0370941 87.904602435 -0.10603553085 -0.0379371 87.840214531 -0.11114646143 -0.0395311 87.723734461 
-0.11874228456 -0.0419195 87.560358285 -0.12885531797 -0.045124 87.357181318 -0.14147290361 -0.0491484 87.123198904 
-0.15655408509 -0.0539829 86.868407085 -0.17404321291 -0.0596079 86.604303213 -0.19388157122 -0.0659972 86.343586571 
-0.21601619734 -0.0731183 86.100259197 -0.24039417842 -0.0809301 85.889927178 -0.26695491449 -0.0893738 85.730802914 
-0.29559424267 -0.0983554 85.644409243 -0.32609817027 -0.107709 85.65678717 -0.35799485361 -0.117122 85.801710854 
-0.3902708904 -0.125999 86.12351789 -0.42063787378 -0.133076 86.684673874 -0.44441253598 -0.136041 87.576222536 
-0.44836926159 -0.127686 88.943548262 -0.41160819762 -0.101519 91.026649198 -0.19671166954 0.0299334 94.36194167 
0.159025 0.21944884105 99.891604159 2.36571 3.793429342 112.90306066 1.69823 6.7642106294 142.23200937 
0.875704 26.83601981 126.80638019 1.03023 25.517698953 111.99100105 0.572237 24.613855124 103.76884488 
0.508123 24.396144576 99.013955424 0.410666 24.334016718 95.768383282 0.359435 24.374198551 93.431401449 
0.318276 24.452055449 91.652144551 0.287779 24.545091787 90.249708213 0.263374 24.639255298 89.112944702 
0.243513 24.727917506 88.171882494 0.226931 24.807598599 87.380101401 0.212865 24.876671603 86.706128397 
0.200786 24.935049448 86.127450552 0.190333 24.982989977 85.628610023 0.181258 25.021405543 85.197994457 
0.166603 25.074159799 84.510440201 0.160844 25.090984878 84.243915122 0.156074 25.10283612 84.02496388 
0.152269 25.110813098 83.851586902 0.149418 25.116038494 83.722561506 0.147517 25.119071613 83.636928387 
0.146566 25.120513153 83.594286847 0.146566 25.120513153 83.594286847 0.147517 25.119071613 83.636928387 
0.149418 25.116038494 83.722561506 0.152269 25.110813098 83.851586902 0.156074 25.10283612 84.02496388 
0.160844 25.090984878 84.243915122 0.166603 25.074159799 84.510440201 0.181258 25.021405543 85.197994457 
0.190333 24.982989977 85.628610023 0.200786 24.935049448 86.127450552 0.212865 24.876671603 86.706128397 
0.226931 24.807598599 87.380101401 0.243513 24.727917506 88.171882494 0.263374 24.639255298 89.112944702 
0.287779 24.545091787 90.249708213 0.318276 24.452055449 91.652144551 0.359435 24.374198551 93.431401449 
0.410666 24.334016718 95.768383282 0.508123 24.396144576 99.013955424 0.572237 24.613855124 103.76884488 
1.03023 25.517698953 111.99100105 0.875704 26.83601981 126.80638019 -4.2358235477 -0.0037438 96.684883548 
-3.3583408399 -0.0351997 96.25004084 -2.5922475787 -0.0345938 95.653937579 -1.964453867 -0.0331431 94.984973867 
-1.4649817345 -0.0283079 94.298981735 -1.0793798857 -0.0228441 93.619749886 -0.78789046424 -0.0176568 92.955977464 
-0.57070511563 -0.0131932 92.308858116 -0.41006547723 -0.00956704 91.675672477 -0.29117736178 -0.00675826 91.052805362 
-0.20238904503 -0.00470694 90.437248045 -0.13509123091 -0.00334334 89.827124231 -0.083697865668 -0.00274476 89.222819566 
-0.045109620432 -0.00238881 88.62741722 -0.022416290684 -0.00580477 88.046062591 -4.7052767574 -0.00108262 95.930606757 
-3.7857539705 -0.0358663 95.600423971 -2.9741227315 -0.0346677 95.121632731 -2.299134011 -0.0336551 94.582024011 
-1.7510620892 -0.0291499 94.039902089 -1.3172762759 -0.0240095 93.520666276 -0.979741791 -0.0190916 93.034677791 
-0.72014716741 -0.0148303 92.583851167 -0.52191829712 -0.0113227 92.166023297 -0.37104104013 -0.00853458 91.77727304 
-0.25621781085 -0.00639169 91.413747811 -0.16876884199 -0.00482266 91.072038842 -0.10260155283 -0.00384548 90.750087953 
-0.054044544423 -0.003233 90.448149944 -0.02379237343 -0.00462658 90.168947573 -5.0185368973 0.0376005 94.695256897 
-4.4014380817 0.0753878 93.382168082 -3.7573536777 0.0594425 92.289023678 -3.1281472825 0.0514675 91.423117282 
-2.554161263 0.0417933 90.745971263 -2.0462171203 0.0331397 90.22861712 -1.6050321671 0.0257495 89.841182167 
-1.2258590863 0.0197416 89.556979086 -0.90188325445 0.014983 89.353175254 -0.62590415024 0.0112762 89.21104215 
-0.39112803602 0.00841616 89.116036036 -0.19151075113 0.00622042 89.056313751 -0.021831757386 0.0045377 89.023098387 
0.00324749 0.12234747137 89.009216529 0.00225613 0.24477052582 89.009512474 0.00149197 0.34859312142 89.019753879 
0.000900653 0.43647402877 89.036732971 0.000441239 0.51066093815 89.058063062 8.29406e-05 0.57306119488 89.081675805 
-0.000197347 0.62529512468 89.106317875 -0.000416968 0.66873796677 89.130548033 -0.000588944 0.70456038333 89.153634617 
-0.00072305 0.7337464965 89.174853504 -0.000826607 0.75712052599 89.193586474 -0.000905065 0.77535707077 89.209419929 
-0.000962418 0.78899509008 89.22214391 -0.00100151 0.79844762765 89.231251372 -0.00102424 0.80400437384 89.236837626 
-5.0185368973 0.0376005 94.695256897 -4.4014380817 0.0753878 93.382168082 -3.7573536777 0.0594425 92.289023678 
-3.1281472825 0.0514675 91.423117282 -2.554161263 0.0417933 90.745971263 -2.0462171203 0.0331397 90.22861712 
-1.6050321671 0.0257495 89.841182167 -1.2258590863 0.0197416 89.556979086 -0.90188325445 0.014983 89.353175254 
-0.62590415024 0.0112762 89.21104215 -0.39112803602 0.00841616 89.116036036 -0.19151075113 0.00622042 89.056313751 
-0.021831757386 0.0045377 89.023098387 0.00324749 0.12234747137 89.009216529 0.00225613 0.24477052582 89.009512474 
0.00149197 0.34859312142 89.019753879 0.000900653 0.43647402877 89.036732971 0.000441239 0.51066093815 89.058063062 
8.29406e-05 0.57306119488 89.081675805 -0.000197347 0.62529512468 89.106317875 -0.000416968 0.66873796677 89.130548033 
-0.000588944 0.70456038333 89.153634617 -0.00072305 0.7337464965 89.174853504 -0.000826607 0.75712052599 89.193586474 
-0.000905065 0.77535707077 89.209419929 -0.000962418 0.78899509008 89.22214391 -0.00100151 0.79844762765 89.231251372 
-0.00102424 0.80400437384 89.236837626 -4.7052767574 -0.00108262 95.930606757 -3.7857539705 -0.0358663 95.600423971 
-2.9741227315 -0.0346677 95.121632731 -2.299134011 -0.0336551 94.582024011 -1.7510620892 -0.0291499 94.039902089 
-1.3172762759 -0.0240095 93.520666276 -0.979741791 -0.0190916 93.034677791 -0.72014716741 -0.0148303 92.583851167 
-0.52191829712 -0.0113227 92.166023297 -0.37104104013 -0.00853458 91.77727304 -0.25621781085 -0.00639169 91.413747811 
-0.16876884199 -0.00482266 91.072038842 -0.10260155283 -0.00384548 90.750087953 -0.054044544423 -0.003233 90.448149944 
-0.02379237343 -0.00462658 90.168947573 -4.2358235477 -0.0037438 96.684883548 -3.3583408399 -0.0351997 96.25004084 
-2.5922475787 -0.0345938 95.653937579 -1.964453867 -0.0331431 94.984973867 -1.4649817345 -0.0283079 94.298981735 
-1.0793798857 -0.0228441 93.619749886 -0.78789046424 -0.0176568 92.955977464 -0.57070511563 -0.0131932 92.308858116 
-0.41006547723 -0.00956704 91.675672477 -0.29117736178 -0.00675826 91.052805362 -0.20238904503 -0.00470694 90.437248045 
-0.13509123091 -0.00334334 89.827124231 -0.083697865668 -0.00274476 89.222819566 -0.045109620432 -0.00238881 88.62741722 
-0.022416290684 -0.00580477 88.046062591 -4.411496889 0.0377526 95.630136889 -3.6495677728 0.0728454 94.410517773 
-2.8312119826 0.0578125 93.398171983 -1.9982423666 0.0495245 92.601142367 -1.1880780731 0.039505 91.982998073 
-0.40901862788 0.030393 91.514708628 0.0224668 0.341318653 91.165473347 0.015843 1.0712119021 90.906878098 
0.0103874 1.7913483533 90.714341647 0.00590054 2.5131081314 90.566921869 0.00217846 3.2476759854 90.447244015 
-0.000955489 4.0055839701 90.34074603 -0.00363994 4.7965704235 90.235259577 -0.00597345 5.62948519 90.12054481 
-0.00801602 6.5122397082 89.987690292 -0.00979189 7.4516736568 89.829186343 -0.0112931 8.4534736574 89.638476343 
-0.0124839 9.5219180149 89.409991985 -0.0133078 10.659623476 89.139376524 -0.0136969 11.867292694 88.823307306 
-0.013585 13.143370373 88.459829627 -0.0129227 14.483786572 88.048613428 -0.011701 15.881736096 87.590863904 
-0.00992395 17.327725491 87.089574509 -0.00787298 18.809645452 86.549154548 -0.00451227 20.314016224 85.976683776 
-0.00732578 21.821672992 85.374127008 0.0287137 23.340702123 84.783297877 -4.411496889 0.0377526 95.630136889 
-3.6495677728 0.0728454 94.410517773 -2.8312119826 0.0578125 93.398171983 -1.9982423666 0.0495245 92.601142367 
-1.1880780731 0.039505 91.982998073 -0.40901862788 0.030393 91.514708628 0.0224668 0.341318653 91.165473347 
0.015843 1.0712119021 90.906878098 0.0103874 1.7913483533 90.714341647 0.00590054 2.5131081314 90.566921869 
0.00217846 3.2476759854 90.447244015 -0.000955489 4.0055839701 90.34074603 -0.00363994 4.7965704235 90.235259577 
-0.00597345 5.62948519 90.12054481 -0.00801602 6.5122397082 89.987690292 -0.00979189 7.4516736568 89.829186343 
-0.0112931 8.4534736574 89.638476343 -0.0124839 9.5219180149 89.409991985 -0.0133078 10.659623476 89.139376524 
-0.0136969 11.867292694 88.823307306 -0.013585 13.143370373 88.459829627 -0.0129227 14.483786572 88.048613428 
-0.011701 15.881736096 87.590863904 -0.00992395 17.327725491 87.089574509 -0.00787298 18.809645452 86.549154548 
-0.00451227 20.314016224 85.976683776 -0.00732578 21.821672992 85.374127008 0.0287137 23.340702123 84.783297877 
-0.48365 2.0569328095 117.97656719 -0.365507 4.9259579048 145.8754421 -0.148416 7.107420286 173.16127971 
0.158715 8.6829035971 197.9784964 0.47497 9.7140816655 218.48211833 0.728373 10.303848254 233.09125175 
0.86757 10.559962209 240.63683779 0.866918 10.553737572 240.49946243 0.726715 10.285145701 232.6933543 
0.473132 9.6837116037 217.8613884 0.157826 8.6426754404 197.19332456 -0.147325 7.0603512798 172.28014872 
-0.36199 4.8757806074 144.96621939 -0.478072 2.0073771746 117.09902283 -1.1206491331 -0.122397 117.26145913 
-0.213578 5.4886531278 136.69194687 -0.298097 11.009254889 156.94814511 -0.367289 15.155525548 176.48697445 
-0.413679 17.971790234 193.44880977 -0.442503 19.649943198 205.9747568 -0.456457 20.40987126 212.58772874 
-0.455574 20.393203058 212.47559694 -0.440006 19.600684747 205.65111525 -0.409963 17.892564362 192.94643564 
-0.362851 15.052090795 175.85470921 -0.29346 10.891331364 156.23866864 -0.209221 5.3693008633 135.95059914 
-1.2263978242 -0.118623 116.52232782 -5.9163190344 0.051527 118.15720703 -0.0266921 2.5564588466 131.81979115 
-0.158266 10.595849573 146.32975043 -0.335333 17.333508277 160.85229172 -0.528358 22.310398372 173.99370163 
-0.694765 25.470401734 184.04869827 -0.791529 26.964738588 189.48076141 -0.790316 26.93718537 189.39141463 
-0.691521 25.389984681 183.79111532 -0.524058 22.184403867 173.59589613 -0.331058 17.175673283 160.34732672 
-0.1548 10.42603462 145.75116538 -0.0243292 2.3974521089 131.19211789 -6.0447338098 0.0529791 117.49974881 
-9.7329761879 0.117061 118.38304619 -1.0203133456 0.086121 128.45199335 -0.0138453 8.2181522294 138.89574777 
-0.189027 16.814121645 149.32097836 -0.413151 23.765743802 158.9042562 -0.626692 28.49621756 166.40798244 
-0.757801 30.835175473 170.53842453 -0.756725 30.796471383 170.47072862 -0.623936 28.385165735 166.21073426 
-0.409821 23.597579999 158.59332 -0.186211 16.613389256 148.91431074 -0.0121191 8.0145820757 138.40987792 
-1.199864872 0.0867802 127.90031187 -9.871774493 0.117093 117.77532449 -12.081737955 0.126167 117.57723795 
-4.023214799 0.132973 125.3875348 0.0773588 5.3552013224 133.11151868 -0.0603436 14.899845921 140.50155408 
-0.265048 23.292612186 147.12268781 -0.477765 29.413038855 152.26906114 -0.614817 32.581979962 155.10802004 
-0.614012 32.532561039 155.05903896 -0.475801 29.274036503 152.1228635 -0.262923 23.08949355 146.88230645 
-0.0589196 14.668528796 140.1683712 0.0777865 5.1311963111 132.68893369 -4.2146050858 0.132624 124.88199509 
-12.229659561 0.125568 116.99835956 -13.144314296 0.11085 115.9537143 -6.1222927208 0.138682 122.26557272 
0.120873 2.7438589468 128.17802105 0.0263479 12.476683739 133.43281626 -0.140896 21.67942492 137.78157508 
-0.330336 28.833472201 140.9424278 -0.458112 32.708240017 142.61445998 -0.45758 32.649221687 142.58147831 
-0.329118 28.670716494 140.83808351 -0.139786 21.450098298 137.5936017 0.0267641 12.225141705 133.1501583 
0.120519 2.5072711619 127.79571884 -6.3229253384 0.13785 121.78723534 -13.304123512 0.110101 115.38902351 
-13.253529103 0.0882946 113.8264291 -7.3612443709 0.123175 119.07122437 0.132501 0.65798795296 123.74222005 
0.0763754 10.054189166 127.52361083 -0.0499841 19.503442617 130.22635738 -0.207179 27.269746676 131.84515332 
-0.318188 31.653078173 132.55202183 -0.317883 31.586107361 132.53179264 -0.206552 27.088954803 131.7718452 
-0.0496037 19.255905649 130.07549435 0.0761638 9.7899721548 127.27379785 0.13176 0.41273817428 123.38373183 
-7.5715009826 0.122183 118.60572098 -13.428891689 0.0876621 113.26599169 -12.724065299 0.0667011 111.4679653 
-7.9082644546 0.0991798 115.89598445 -0.86574881588 0.125643 119.67945882 0.0999792 7.876548468 122.44355153 
0.0115459 17.14088119 123.99981881 -0.111512 25.12117536 124.50162464 -0.20277 29.78694354 124.47775646 
-0.202634 29.714258502 124.4659415 -0.111302 24.927993853 124.44940615 0.0114644 16.882145376 123.87255462 
0.0994444 7.6046389318 122.21014107 -1.1180854053 0.124785 119.33037541 -8.129740381 0.0982035 115.43226038 
-12.918726031 0.066328 110.90112603 -11.806891685 0.0492571 109.07199168 -7.9493609192 0.0740036 112.84031092 
-1.8932365136 0.109634 115.95901651 0.106176 6.0297694483 118.01100055 0.0499909 14.812746526 118.79545347 
-0.0408783 22.678499577 118.54240042 -0.112145 27.411557427 118.01244257 -0.112119 27.335375432 118.00612457 
-0.0409225 22.478329833 118.50247017 0.0496729 14.548136869 118.67916313 0.105547 5.7532339141 117.78405609 
-2.1523724247 0.108837 115.60865242 -8.184040762 0.0731361 112.36904076 -12.024316076 0.0492217 108.49271608 
-10.685822557 0.036532 106.76662256 -7.647718164 0.0513926 109.98084816 -2.5228596901 0.0904403 112.57991969 
0.101803 4.5169658286 114.12761417 0.0712957 12.634673256 114.40752674 0.00863211 20.142222379 113.68317762 
-0.0440743 24.76334508 112.84195492 -0.0441067 24.685716924 112.83808308 0.00847115 19.939544968 113.64775503 
0.0709222 12.368183146 114.29201685 0.101251 4.2377141159 113.89778588 -2.7890949185 0.0898313 112.22115492 
-7.8975895172 0.0506884 109.49618952 -10.928929945 0.0368801 106.16722995 -9.4868563961 0.0278236 104.6232764 
-7.1319957708 0.0328577 107.36423577 -2.8524355567 0.0715826 109.54496556 0.0917154 3.3043360303 110.72769397 
0.0804154 10.658067446 110.69273255 0.0410791 17.644245053 109.70805495 0.00458781 22.020627334 108.70477267 
0.00454036 21.943332092 108.70146791 0.0409155 17.442424777 109.66987522 0.0801306 10.39253667 110.57146333 
0.0913727 3.0235210207 110.48824898 -3.1263075786 0.0712596 109.17118758 -7.3989039216 0.0323649 106.85972392 
-9.7585569929 0.0285875 103.99929699 -8.2930163499 0.0215655 102.67741635 -6.4965394117 0.0189318 105.00925941 
-2.9648806493 0.0555324 106.84536065 0.0799136 2.3471825574 107.76278744 0.0817691 8.8986042241 107.54261578 
0.0603023 15.267044284 106.44665572 0.0369762 19.311606184 105.39249382 0.0369509 19.235796996 105.386203 
0.0602324 15.068713952 106.40218605 0.0816943 8.6360925908 107.41081741 0.0798974 2.0655722949 107.50762771 
-3.2468375751 0.0556094 106.45243758 -6.781936711 0.0187604 104.48074671 -8.595893725 0.0227996 102.02552373 
-7.1572486256 0.0158456 100.93640863 -5.8120594474 0.00395877 102.91004945 -2.9317094585 0.036558 104.45785946 
0.0624219 1.5957861705 105.17982383 0.0744092 7.3494419941 104.86742801 0.0686342 13.057536372 103.76476363 
0.0576496 16.724158025 102.73584198 0.0576683 16.650599605 102.7264004 0.0687112 12.864498643 103.71030136 
0.0745946 7.0913269084 104.72213309 0.0627338 1.3138841365 104.90647586 -3.2221415902 0.0369679 104.04210159 
-6.1170614928 0.00396697 102.35664149 -7.4934178069 0.0174737 100.25635781 -6.0936110086 0.0291418 99.410071009 
-5.0881469383 0.0327789 101.08101694 -2.7504967043 0.0758908 102.3869067 0.10345 1.0705208107 102.96254919 
0.104172 6.0428728157 102.61361718 0.0771049 11.049248319 101.55955168 0.0484064 14.288703358 100.59419664 
0.0486023 14.218042203 100.5808578 0.0776848 10.862839796 101.4952602 0.105165 5.7906274855 102.45266251 
0.104949 0.78966173646 102.67009826 -3.048069079 0.0780644 101.94998908 -5.4108215841 0.0352297 100.50206158 
-6.4606721329 0.0342217 98.700932133 -4.0867198452 -0.119353 64.359019845 -8.842100708 -0.175574 38.804381708 
-17.422753287 -0.325148 18.397353287 -32.17135878 -0.566695 7.1528887796 -48.655878441 -0.825553 2.386998441 
-61.621198783 -1.03576 0.3052988832 -68.593264577 -1.1518 -0.51866542276 -68.593264577 -1.1518 -0.51866542276 
-61.621198783 -1.03576 0.3052988832 -48.655878441 -0.825553 2.386998441 -32.17135878 -0.566695 7.1528887796 
-17.422753287 -0.325148 18.397353287 -8.842100708 -0.175574 38.804381708 -4.0867198452 -0.119353 64.359019845 
-13.683003097 -0.270714 78.058533097 -18.678505108 -0.138259 57.292405108 -24.107075103 -0.029868 37.252075103 
-30.537830588 0.0658898 20.280430588 -38.172162642 0.140021 8.3534126417 -45.521684202 0.192788 1.6176342023 
-50.034309212 -1.2435707875 0.221208 -50.034309212 -1.2435707875 0.221208 -45.521684202 0.192788 1.6176342023 
-38.172162642 0.140021 8.3534126417 -30.537830588 0.0658898 20.280430588 -24.107075103 -0.029868 37.252075103 
-18.678505108 -0.138259 57.292405108 -13.683003097 -0.270714 78.058533097 -19.622824461 -0.368249 88.131624461 
-24.018517725 -0.262889 70.493217725 -27.705819889 -0.120406 51.810819889 -30.674267446 0.0661669 33.695967446 
-33.011107706 0.271289 18.059207706 -34.787142472 0.45043 6.7001024721 -35.839855836 0.556079 0.81374383624 
-35.839855836 0.556079 0.81374383624 -34.787142472 0.45043 6.7001024721 -33.011107706 0.271289 18.059207706 
-30.674267446 0.0661669 33.695967446 -27.705819889 -0.120406 51.810819889 -24.018517725 -0.262889 70.493217725 
-19.622824461 -0.368249 88.131624461 -22.353936181 -0.3763 94.687836181 -26.150447632 -0.338598 79.665047632 
-28.753707003 -0.240153 62.654507003 -29.90987503 -0.0670585 44.87467503 -29.447018509 0.1577 27.951318509 
-27.491912476 0.374953 13.799072476 -25.171557687 0.510031 4.9810976867 -25.171557687 0.510031 4.9810976867 
-27.491912476 0.374953 13.799072476 -29.447018509 0.1577 27.951318509 -29.90987503 -0.0670585 44.87467503 
-28.753707003 -0.240153 62.654507003 -26.150447632 -0.338598 79.665047632 -22.353936181 -0.3763 94.687836181 
-22.871761143 -0.331624 98.572261143 -26.15269971 -0.351444 85.85049971 -28.035792285 -0.308821 70.608892285 
-28.12061365 -0.183472 53.76411365 -26.08068962 0.0122698 36.72158962 -21.946680905 0.220778 21.316080905 
-17.222272761 0.357203 10.538022761 -17.222272761 0.357203 10.538022761 -21.946680905 0.220778 21.316080905 
-26.08068962 0.0122698 36.72158962 -28.12061365 -0.183472 53.76411365 -28.035792285 -0.308821 70.608892285 
-26.15269971 -0.351444 85.85049971 -22.871761143 -0.331624 98.572261143 -22.003409133 -0.266771 100.57010913 
-24.836269798 -0.324522 89.872469798 -26.209833999 -0.328141 76.378933999 -25.625462456 -0.254422 60.745662456 
-22.665030235 -0.104203 44.189030235 -17.323945769 0.0742301 28.488545769 -11.293910279 0.197284 16.848210279 
-11.293910279 0.197284 16.848210279 -17.323945769 0.0742301 28.488545769 -22.665030235 -0.104203 44.189030235 
-25.625462456 -0.254422 60.745662456 -26.209833999 -0.328141 76.378933999 -24.836269798 -0.324522 89.872469798 
-22.003409133 -0.266771 100.57010913 -20.349602094 -0.200578 101.29900209 -22.783646261 -0.279022 92.361946261 
-23.777247291 -0.314798 80.530847291 -22.770411844 -0.285622 66.233311844 -19.295854892 -0.182623 50.514954892 
-13.374274088 -0.0419985 35.128844088 -6.9055261601 0.0608456 23.48967616 -6.9055261601 0.0608456 23.48967616 
-13.374274088 -0.0419985 35.128844088 -19.295854892 -0.182623 50.514954892 -22.770411844 -0.285622 66.233311844 
-23.777247291 -0.314798 80.530847291 -22.783646261 -0.279022 92.361946261 -20.349602094 -0.200578 101.29900209 
-18.320025515 -0.142019 101.21522551 -20.396215617 -0.228572 93.791815617 -21.097167182 -0.283547 83.503467182 
-19.834673732 -0.288692 70.583373732 -16.127043862 -0.228148 55.924003862 -10.062274758 -0.12593 41.267524758 
-3.74180927 -0.0455701 30.21028927 -3.74180927 -0.0455701 30.21028927 -10.062274758 -0.12593 41.267524758 
-16.127043862 -0.228148 55.924003862 -19.834673732 -0.288692 70.583373732 -21.097167182 -0.283547 83.503467182 
-20.396215617 -0.228572 93.791815617 -18.320025515 -0.142019 101.21522551 -16.179612407 -0.0943374 100.64221241 
-17.936843735 -0.180773 94.507843735 -18.411423357 -0.244699 85.628023357 -17.014370395 -0.273945 74.076970395 
-13.278890276 -0.248456 60.613790276 -7.3829504215 -0.181422 46.970280422 -1.555064006 -0.123076 36.830298006 
-1.555064006 -0.123076 36.830298006 -7.3829504215 -0.181422 46.970280422 -13.278890276 -0.248456 60.613790276 
-17.014370395 -0.273945 74.076970395 -18.411423357 -0.244699 85.628023357 -17.936843735 -0.180773 94.507843735 
-16.179612407 -0.0943374 100.64221241 -14.089111806 -0.0577151 99.801111806 -15.566603895 -0.139271 94.757103895 
-15.869103035 -0.204806 87.147403035 -14.428844959 -0.249208 76.923894959 -10.815886405 -0.250679 64.730836405 
-5.2993129285 -0.213653 52.275562928 -0.175209 -0.12479917528 43.200913175 -0.175209 -0.12479917528 43.200913175 
-5.2993129285 -0.213653 52.275562928 -10.815886405 -0.250679 64.730836405 -14.428844959 -0.249208 76.923894959 
-15.869103035 -0.204806 87.147403035 -15.566603895 -0.139271 94.757103895 -14.089111806 -0.0577151 99.801111806 
-12.1371227 -0.0307343 98.8380227 -13.373762648 -0.105216 94.710962648 -13.550551709 -0.167664 88.235951709 
-12.136352959 -0.220019 79.274882959 -8.7510676902 -0.240707 68.37402769 -3.7392781702 -0.227744 57.18962817 
-0.206228 0.74240411602 49.203335884 -0.206228 0.74240411602 49.203335884 -3.7392781702 -0.227744 57.18962817 
-8.7510676902 -0.240707 68.37402769 -12.136352959 -0.220019 79.274882959 -13.550551709 -0.167664 88.235951709 
-13.373762648 -0.105216 94.710962648 -12.1371227 -0.0307343 98.8380227 -10.365209907 -0.0117476 97.845489907 
-11.397232162 -0.0792068 94.484332162 -11.487510443 -0.136231 89.014000443 -10.150548856 -0.1911 81.234278856 
-7.0605820115 -0.223766 71.605432011 -2.6113380597 -0.228331 61.70139806 -0.220036 1.2065546042 54.753855396 
-0.220036 1.2065546042 54.753855396 -2.6113380597 -0.228331 61.70139806 -7.0605820115 -0.223766 71.605432011 
-10.150548856 -0.1911 81.234278856 -11.487510443 -0.136231 89.014000443 -11.397232162 -0.0792068 94.484332162 
-10.365209907 -0.0117476 97.845489907 -8.7826642102 0.0082851 96.88653421 -9.6380620766 -0.0502888 94.161892077 
-9.671082598 -0.101041 89.572812598 -8.4479028274 -0.15647 82.880932827 -5.6945675799 -0.198736 74.46926758 
-1.822702369 -0.2191 65.799071369 -0.223422 1.3895958703 59.80224413 -0.223422 1.3895958703 59.80224413 
-1.822702369 -0.2191 65.799071369 -5.6945675799 -0.198736 74.46926758 -8.4479028274 -0.15647 82.880932827 
-9.671082598 -0.101041 89.572812598 -9.6380620766 -0.0502888 94.161892077 -8.7826642102 0.0082851 96.88653421 
-7.4256622152 -0.0360247 95.943012215 -8.136103974 -0.104698 93.720493974 -8.1308929252 -0.156978 89.885162925 
-7.0343781624 -0.201788 84.183938162 -4.6199935337 -0.217977 76.941313534 -1.2902563114 -0.20295 69.476513311 
-0.180658 1.4007754737 64.371694526 -0.180658 1.4007754737 64.371694526 -1.2902563114 -0.20295 69.476513311 
-4.6199935337 -0.217977 76.941313534 -7.0343781624 -0.201788 84.183938162 -8.1308929252 -0.156978 89.885162925 
-8.136103974 -0.104698 93.720493974 -7.4256622152 -0.0360247 95.943012215 -0.478072 2.0073771746 117.09902283 
-0.36199 4.8757806074 144.96621939 -0.147325 7.0603512798 172.28014872 0.157826 8.6426754404 197.19332456 
0.473132 9.6837116037 217.8613884 0.726715 10.285145701 232.6933543 0.866918 10.553737572 240.49946243 
0.86757 10.559962209 240.63683779 0.728373 10.303848254 233.09125175 0.47497 9.7140816655 218.48211833 
0.158715 8.6829035971 197.9784964 -0.148416 7.107420286 173.16127971 -0.365507 4.9259579048 145.8754421 
-0.48365 2.0569328095 117.97656719 -1.2263978242 -0.118623 116.52232782 -0.209221 5.3693008633 135.95059914 
-0.29346 10.891331364 156.23866864 -0.362851 15.052090795 175.85470921 -0.409963 17.892564362 192.94643564 
-0.440006 19.600684747 205.65111525 -0.455574 20.393203058 212.47559694 -0.456457 20.40987126 212.58772874 
-0.442503 19.649943198 205.9747568 -0.413679 17.971790234 193.44880977 -0.367289 15.155525548 176.48697445 
-0.298097 11.009254889 156.94814511 -0.213578 5.4886531278 136.69194687 -1.1206491331 -0.122397 117.26145913 
-6.0447338098 0.0529791 117.49974881 -0.0243292 2.3974521089 131.19211789 -0.1548 10.42603462 145.75116538 
-0.331058 17.175673283 160.34732672 -0.524058 22.184403867 173.59589613 -0.691521 25.389984681 183.79111532 
-0.790316 26.93718537 189.39141463 -0.791529 26.964738588 189.48076141 -0.694765 25.470401734 184.04869827 
-0.528358 22.310398372 173.99370163 -0.335333 17.333508277 160.85229172 -0.158266 10.595849573 146.32975043 
-0.0266921 2.5564588466 131.81979115 -5.9163190344 0.051527 118.15720703 -9.871774493 0.117093 117.77532449 
-1.199864872 0.0867802 127.90031187 -0.0121191 8.0145820757 138.40987792 -0.186211 16.613389256 148.91431074 
-0.409821 23.597579999 158.59332 -0.623936 28.385165735 166.21073426 -0.756725 30.796471383 170.47072862 
-0.757801 30.835175473 170.53842453 -0.626692 28.49621756 166.40798244 -0.413151 23.765743802 158.9042562 
-0.189027 16.814121645 149.32097836 -0.0138453 8.2181522294 138.89574777 -1.0203133456 0.086121 128.45199335 
-9.7329761879 0.117061 118.38304619 -12.229659561 0.125568 116.99835956 -4.2146050858 0.132624 124.88199509 
0.0777865 5.1311963111 132.68893369 -0.0589196 14.668528796 140.1683712 -0.262923 23.08949355 146.88230645 
-0.475801 29.274036503 152.1228635 -0.614012 32.532561039 155.05903896 -0.614817 32.581979962 155.10802004 
-0.477765 29.413038855 152.26906114 -0.265048 23.292612186 147.12268781 -0.0603436 14.899845921 140.50155408 
0.0773588 5.3552013224 133.11151868 -4.023214799 0.132973 125.3875348 -12.081737955 0.126167 117.57723795 
-13.304123512 0.110101 115.38902351 -6.3229253384 0.13785 121.78723534 0.120519 2.5072711619 127.79571884 
0.0267641 12.225141705 133.1501583 -0.139786 21.450098298 137.5936017 -0.329118 28.670716494 140.83808351 
-0.45758 32.649221687 142.58147831 -0.458112 32.708240017 142.61445998 -0.330336 28.833472201 140.9424278 
-0.140896 21.67942492 137.78157508 0.0263479 12.476683739 133.43281626 0.120873 2.7438589468 128.17802105 
-6.1222927208 0.138682 122.26557272 -13.144314296 0.11085 115.9537143 -13.428891689 0.0876621 113.26599169 
-7.5715009826 0.122183 118.60572098 0.13176 0.41273817428 123.38373183 0.0761638 9.7899721548 127.27379785 
-0.0496037 19.255905649 130.07549435 -0.206552 27.088954803 131.7718452 -0.317883 31.586107361 132.53179264 
-0.318188 31.653078173 132.55202183 -0.207179 27.269746676 131.84515332 -0.0499841 19.503442617 130.22635738 
0.0763754 10.054189166 127.52361083 0.132501 0.65798795296 123.74222005 -7.3612443709 0.123175 119.07122437 
-13.253529103 0.0882946 113.8264291 -12.918726031 0.066328 110.90112603 -8.129740381 0.0982035 115.43226038 
-1.1180854053 0.124785 119.33037541 0.0994444 7.6046389318 122.21014107 0.0114644 16.882145376 123.87255462 
-0.111302 24.927993853 124.44940615 -0.202634 29.714258502 124.4659415 -0.20277 29.78694354 124.47775646 
-0.111512 25.12117536 124.50162464 0.0115459 17.14088119 123.99981881 0.0999792 7.876548468 122.44355153 
-0.86574881588 0.125643 119.67945882 -7.9082644546 0.0991798 115.89598445 -12.724065299 0.0667011 111.4679653 
-12.024316076 0.0492217 108.49271608 -8.184040762 0.0731361 112.36904076 -2.1523724247 0.108837 115.60865242 
0.105547 5.7532339141 117.78405609 0.0496729 14.548136869 118.67916313 -0.0409225 22.478329833 118.50247017 
-0.112119 27.335375432 118.00612457 -0.112145 27.411557427 118.01244257 -0.0408783 22.678499577 118.54240042 
0.0499909 14.812746526 118.79545347 0.106176 6.0297694483 118.01100055 -1.8932365136 0.109634 115.95901651 
-7.9493609192 0.0740036 112.84031092 -11.806991495 0.0492571 109.07199149 -10.928929945 0.0368801 106.16722995 
-7.8975895172 0.0506884 109.49618952 -2.7890949185 0.0898313 112.22115492 0.101251 4.2377141159 113.89778588 
0.0709222 12.368183146 114.29201685 0.00847115 19.939544968 113.64775503 -0.0441067 24.685716924 112.83808308 
-0.0440743 24.76334508 112.84195492 0.00863211 20.142222379 113.68317762 0.0712957 12.634673256 114.40752674 
0.101803 4.5169658286 114.12761417 -2.5228596901 0.0904403 112.57991969 -7.647718164 0.0513926 109.98084816 
-10.685822557 0.036532 106.76662256 -9.7585569929 0.0285875 103.99929699 -7.3989039216 0.0323649 106.85972392 
-3.1263075786 0.0712597 109.17118758 0.0913727 3.0235210207 110.48824898 0.0801306 10.39253667 110.57146333 
0.0409155 17.442424777 109.66987522 0.00454036 21.943332092 108.70146791 0.00458781 22.020627334 108.70477267 
0.0410791 17.644245053 109.70805495 0.0804154 10.658067446 110.69273255 0.0917154 3.3043360303 110.72769397 
-2.8524355567 0.0715826 109.54496556 -7.1319957708 0.0328577 107.36423577 -9.4868563961 0.0278236 104.6232764 
-8.595893725 0.0227996 102.02552373 -6.781936711 0.0187604 104.48074671 -3.2468375751 0.0556094 106.45243758 
0.0798974 2.0655722949 107.50762771 0.0816943 8.6360925908 107.41081741 0.0602324 15.068713952 106.40218605 
0.0369509 19.235796996 105.386203 0.0369762 19.311606184 105.39249382 0.0603023 15.267044284 106.44665572 
0.0817691 8.8986042241 107.54261578 0.0799135 2.3471825574 107.76278744 -2.9648806493 0.0555324 106.84536065 
-6.4965394117 0.0189318 105.00925941 -8.2930163499 0.0215655 102.67741635 -7.4934178069 0.0174737 100.25635781 
-6.1170614928 0.00396697 102.35664149 -3.2221415902 0.0369679 104.04210159 0.0627338 1.3138841365 104.90647586 
0.0745946 7.0913269084 104.72213309 0.0687112 12.864498643 103.71030136 0.0576683 16.650599605 102.7264004 
0.0576496 16.724158025 102.73584198 0.0686342 13.057536372 103.76476363 0.0744092 7.3494419941 104.86742801 
0.0624219 1.5957861705 105.17982383 -2.9317094585 0.036558 104.45785946 -5.8120594474 0.00395877 102.91004945 
-7.1572486256 0.0158456 100.93640863 -6.4606721329 0.0342217 98.700932133 -5.4108215841 0.0352297 100.50206158 
-3.048069079 0.0780644 101.94998908 0.104949 0.78966173646 102.67009826 0.105165 5.7906274855 102.45266251 
0.0776848 10.862839796 101.4952602 0.0486023 14.218042203 100.5808578 0.0484064 14.288703358 100.59419664 
0.0771049 11.049248319 101.55955168 0.104172 6.0428728157 102.61361718 0.10345 1.0705208107 102.96254919 
-2.7504967043 0.0758908 102.3869067 -5.0881469383 0.0327789 101.08101694 -6.0936110086 0.0291418 99.410071009 
-4.0392274583 -0.124574 65.053627458 -8.7818045668 -0.179859 39.339129267 -17.320434253 -0.329493 18.715334253 
-32.070258452 -0.572285 7.2900584515 -48.64407875 -0.832966 2.4488087501 -61.706175781 -1.04486 0.33934808089 
-68.735400363 -1.16188 -0.49449563673 -68.735400363 -1.16188 -0.49449563673 -61.706175781 -1.04486 0.33934808089 
-48.64407875 -0.832966 2.4488087501 -32.070258452 -0.572285 7.2900584515 -17.320434253 -0.329493 18.715334253 
-8.7818044032 -0.179859 39.339129303 -4.0392274583 -0.124574 65.053627458 -13.635267279 -0.275907 78.730357279 
-18.654199076 -0.142522 57.882239076 -24.094713155 -0.0330031 37.719013155 -30.523222231 0.0640789 20.598722231 
-38.155159005 0.139504 8.5318990052 -45.518375913 0.193338 1.7032759132 -50.04800088 -1.19915912 0.222375 
-50.04800088 -1.19915912 0.222375 -45.518375913 0.193338 1.7032759132 -38.155159005 0.139504 8.5318990052 
-30.523222231 0.0640789 20.598722231 -24.094713155 -0.0330031 37.719013155 -18.654199076 -0.142522 57.882239076 
-13.635267279 -0.275907 78.730357279 -19.580802632 -0.371916 88.804502632 -24.0109287 -0.266375 71.1279287 
-27.719837897 -0.123179 52.365337897 -30.690470975 0.064836 34.135470975 -33.005947078 0.271928 18.363247078 
-34.742261936 0.453016 6.8735919356 -35.760883125 0.559891 0.90282812471 -35.760883125 0.559891 0.90282812471 
-34.742261936 0.453016 6.8735919356 -33.005947078 0.271928 18.363247078 -30.690470975 0.064836 34.135470975 
-27.719837897 -0.123179 52.365337897 -24.0109287 -0.266375 71.1279287 -19.580802632 -0.371916 88.804502632 
-22.307090859 -0.378468 95.365190859 -26.140037038 -0.341005 80.332337038 -28.765640957 -0.242398 63.269640957 
-29.92285461 -0.0683757 45.39865461 -29.432970633 0.158055 28.354270633 -27.41883522 0.377207 14.06613522 
-25.025508165 0.513566 5.1319681655 -25.025508165 0.513566 5.1319681655 -27.41883522 0.377207 14.06613522 
-29.432970633 0.158055 28.354270633 -29.92285461 -0.0683757 45.39865461 -28.765640957 -0.242398 63.269640957 
-26.140037038 -0.341005 80.332337038 -22.307090859 -0.378468 95.365190859 -22.809701728 -0.332704 99.255601728 
-26.125302412 -0.352801 86.542902412 -28.028795437 -0.310336 71.269595437 -28.111773216 -0.184565 54.352073216 
-26.040585764 0.012315 37.202085764 -21.840058782 0.222323 21.665658782 -17.023791741 0.359836 10.758961741 
-17.023791741 0.359836 10.758961741 -21.840058782 0.222323 21.665658782 -26.040585764 0.012315 37.202085764 
-28.111773216 -0.184565 54.352073216 -28.028795437 -0.310336 71.269595437 -26.125302412 -0.352801 86.542902412 
-22.809701728 -0.332704 99.255601728 -21.917884346 -0.2672 101.26178435 -24.782357575 -0.325 90.586657575 
-26.173300916 -0.328873 77.077000916 -25.583834888 -0.255061 61.386134888 -22.588293792 -0.104187 44.733893792 
-17.176659518 0.0752871 28.909859518 -11.049186136 0.199156 17.141046136 -11.049186136 0.199156 17.141046136 
-17.176659518 0.0752871 28.909859518 -22.588293792 -0.104187 44.733893792 -25.583834888 -0.255061 61.386134888 
-26.173300916 -0.328873 77.077000916 -24.782357575 -0.325 90.586657575 -21.917884346 -0.2672 101.26178435 
-20.23441029 -0.200724 102.00301029 -22.696233596 -0.278823 93.097833596 -23.703911053 -0.314804 81.262511053 
-22.688855801 -0.28569 66.920055801 -19.176226675 -0.182385 51.117126675 -13.181707382 -0.0411181 35.615257382 
-6.6172185105 0.0622785 23.854668511 -6.6172185105 0.0622785 23.854668511 -13.181707382 -0.0411181 35.615257382 
-19.176226675 -0.182385 51.117126675 -22.688855801 -0.28569 66.920055801 -23.703911053 -0.314804 81.262511053 
-22.696233596 -0.278823 93.097833596 -20.23441029 -0.200724 102.00301029 -18.170155272 -0.142168 101.93605527 
-20.26980062 -0.227876 94.55100062 -20.981600102 -0.282932 84.267900102 -19.708111977 -0.288165 71.313711977 
-15.960090325 -0.227524 56.579940325 -9.8218523117 -0.124965 41.816432312 -3.4111734714 -0.0442718 30.648213471 
-3.4111734714 -0.0442718 30.648213471 -9.8218523117 -0.124965 41.816432312 -15.960090325 -0.227524 56.579940325 
-19.708111977 -0.288165 71.313711977 -20.981600102 -0.282932 84.267900102 -20.26980062 -0.227876 94.55100062 
-18.170155272 -0.142168 101.93605527 -15.990514245 -0.0947047 101.38461424 -17.766630813 -0.179721 95.293230813 
-18.248734193 -0.243578 86.425934193 -16.838114619 -0.272849 74.850314619 -13.060763196 -0.24736 61.322363196 
-7.0922111732 -0.180187 47.581311173 -1.1817710026 -0.12167 37.342490003 -1.1817710026 -0.12167 37.342490003 
-7.0922111732 -0.180187 47.581311173 -13.060763196 -0.24736 61.322363196 -16.838114619 -0.272849 74.850314619 
-18.248734193 -0.243578 86.425934193 -17.766630813 -0.179721 95.293230813 -15.990514245 -0.0947047 101.38461424 
-13.856343596 -0.0584649 100.5695436 -15.347895944 -0.137965 95.572095944 -15.654337125 -0.203286 87.981137125 
-14.198187364 -0.247594 77.741287364 -10.542442665 -0.249079 65.492822665 -4.9554323362 -0.212026 52.949862336 
-0.173519 0.29355292372 43.788919076 -0.173519 0.29355292372 43.788919076 -4.9554323362 -0.212026 52.949862336 
-10.542442665 -0.249079 65.492822665 -14.198187364 -0.247594 77.741287364 -15.654337125 -0.203286 87.981137125 
-15.347895944 -0.137965 95.572095944 -13.856343596 -0.0584649 100.5695436 -11.856235364 -0.0319907 99.636335364 
-13.101343439 -0.103735 95.559043439 -13.278323021 -0.165838 89.108223021 -11.84570184 -0.217949 80.13838184 
-8.4171038765 -0.238603 69.190963876 -3.3377174242 -0.225655 57.929388424 -0.204138 1.2105854166 49.868544583 
-0.204138 1.2105854166 49.868544583 -3.3377174242 -0.225655 57.929388424 -8.4171038765 -0.238603 69.190963876 
-11.84570184 -0.217949 80.13838184 -13.278323021 -0.165838 89.108223021 -13.101343439 -0.103735 95.559043439 
-11.856235364 -0.0319907 99.636335364 -10.031359277 -0.0135372 98.676319277 -11.065527545 -0.0775582 95.368627545 
-11.151272009 -0.134143 89.927562009 -9.7930807334 -0.188619 82.146280733 -6.6593136187 -0.221174 72.479873619 
-2.1455978525 -0.225746 62.509057852 -0.217473 1.7318839669 55.498136033 -0.217473 1.7318839669 55.498136033 
-2.1455978525 -0.225746 62.509057852 -6.6593136187 -0.221174 72.479873619 -9.7930807334 -0.188619 82.146280733 
-11.151272009 -0.134143 89.927562009 -11.065527545 -0.0775582 95.368627545 -10.031359277 -0.0135372 98.676319277 
-8.3913607468 0.00565707 97.751380747 -9.2410412169 -0.0489444 95.084481217 -9.2635233208 -0.0990617 90.530193321 
-8.0152439373 -0.153839 83.844013937 -5.2171498446 -0.195809 75.403819845 -1.2836782643 -0.216086 66.677277264 
-0.220406 1.9821598574 60.627250143 -0.220406 1.9821598574 60.627250143 -1.2836782643 -0.216086 66.677277264 
-5.2171498446 -0.195809 75.403819845 -8.0152439373 -0.153839 83.844013937 -9.2635233208 -0.0990617 90.530193321 
-9.2410412169 -0.0489444 95.084481217 -8.3913607468 0.00565707 97.751380747 -6.9716159656 -0.0352111 96.846425966 
-7.665494237 -0.100089 94.686434237 -7.6416365827 -0.152541 90.890776583 -6.5149799981 -0.197408 85.202089998 
-4.0542202822 -0.213787 77.939590282 -0.66532595734 -0.198911 70.428611957 -0.176685 2.0742826296 65.27977737 
-0.176685 2.0742826296 65.27977737 -0.66532595734 -0.198911 70.428611957 -4.0542202822 -0.213787 77.939590282 
-6.5149799981 -0.197408 85.202089998 -7.6416365827 -0.152541 90.890776583 -7.665494237 -0.100089 94.686434237 
-6.9716159656 -0.0352111 96.846425966 -1.4152 6.8269750109 116.08097499 -0.982225 15.093119593 108.03298041 
-0.0225901 18.365790966 102.38820903 -0.00113357 19.547755979 98.221744021 0.0418021 20.352936842 95.288663158 
0.0454264 20.930916039 93.097983961 0.0459614 21.392217336 91.407682664 0.0439027 21.772576622 90.061823378 
0.0414799 22.092918031 88.964181969 0.0390489 22.365622836 88.051377164 0.0368041 22.598646344 87.281053656 
0.0347803 22.798083954 86.623416046 0.0329763 22.968676554 86.057723446 0.0313736 23.113941918 85.569158082 
0.0299681 23.236987615 85.146912385 0.0418946 4.9252928644 113.99675714 -0.668798 7.4009478094 106.56845219 
-0.48282 11.938586707 102.22181329 -0.199776 14.703817733 98.757382267 -0.114363 16.421551781 96.039848219 
-0.0655038 17.621499752 93.920000248 -0.0422574 18.511862974 92.234637026 -0.0291155 19.206515017 90.869684983 
-0.0214561 19.766197445 89.743602555 -0.0166653 20.227406942 88.799793058 -0.0135252 20.613137867 87.998662133 
-0.0113753 20.938950739 87.311649261 -0.00985195 21.215691731 86.718408269 -0.00874847 21.451325577 86.204374423 
-0.00790931 21.651764257 85.758835743 0.6564 3.0170194307 105.98322057 -0.119427 4.8165639969 104.462146 
-0.292057 7.766867601 101.3718724 -0.225918 10.68674203 98.71185797 -0.13733 12.877632349 96.420767651 
-0.087193 14.501432213 94.504167787 -0.0559269 15.738695661 92.912304339 -0.0372981 16.708117357 91.583782643 
-0.0256896 17.48718933 90.46521067 -0.0182825 18.125813673 89.513986327 -0.0134117 18.657249255 88.697750745 
-0.0101334 19.104448533 87.992151467 -0.00788536 19.483498618 87.378901382 -0.00633259 19.806061041 86.844738959 
-0.00521803 20.080755161 86.379744839 0.366354 1.790447437 99.934092563 0.140387 3.2846968576 101.00227314 
-0.100468 5.4284776534 99.865912347 -0.149625 7.8165598179 98.117490182 -0.128407 9.9821624517 96.371137548 
-0.0944994 11.760857037 94.768942963 -0.06806 13.193749074 93.354250926 -0.048979 14.352987718 92.123212282 
-0.0358112 15.301228439 91.055371561 -0.0267158 16.086444501 90.127555499 -0.0203937 16.743912745 89.318487255 
-0.0159535 17.299129362 88.610370638 -0.0128069 17.77111908 87.98898092 -0.0105742 18.173584491 87.443415509 
-0.00893995 18.517125292 86.965474708 0.254331 1.1519784191 95.903391581 0.154377 2.2951479664 97.855612034 
0.0139125 3.9376073649 97.968402635 -0.0667 5.8572742758 97.149365724 -0.0867852 7.7688062266 95.984403773 
-0.0794601 9.4934588777 94.755241122 -0.0647481 10.974254609 93.575645391 -0.0507587 12.22406686 92.49063314 
-0.0393512 13.275722942 91.511877058 -0.030619 14.163348224 90.636651776 -0.0240928 14.916302668 89.856797332 
-0.0192676 15.558258361 89.162641639 -0.0157177 16.107592973 88.545507027 -0.0131307 16.578745014 87.997954986 
-0.0111984 16.982655971 87.514044029 0.167132 0.77849542117 93.135673579 0.137759 1.6542367462 95.344383254 
0.0523935 2.9288819761 96.134298024 -0.0117044 4.4746329923 96.003647008 -0.0459347 6.1044790148 95.374350985 
-0.0556106 7.6724448554 94.523965145 -0.0530315 9.0975566812 93.605653319 -0.0459898 10.353631775 92.697368225 
-0.0383007 11.444901699 91.836198301 -0.0314015 12.387989844 91.037810156 -0.0257018 13.202011231 90.306788769 
-0.0211857 13.90528128 89.64221872 -0.0176958 14.513271925 89.041528075 -0.0150637 15.038763395 88.501136605 
-0.0130426 15.492179696 88.018320304 0.116242 0.55063278738 91.208117213 0.111368 1.2228393106 93.412240689 
0.0622546 2.2229317585 94.541038241 0.0163749 3.4713827445 94.863557255 -0.016032 4.8421349803 94.65841502 
-0.0327511 6.2234222229 94.150157777 -0.0381502 7.5368518677 93.489578132 -0.037303 8.7406306612 92.769119339 
-0.0337168 9.8200975288 92.041802471 -0.0293487 10.776458178 91.337141822 -0.0251356 11.618414777 90.670085223 
-0.0214635 12.357040146 90.048059854 -0.0184393 13.003539333 89.474260667 -0.0160612 13.568019682 88.949480318 
-0.0141721 14.059091728 88.474208272 0.0826822 0.40201101804 89.850756982 0.0886092 0.92330674338 91.948295257 
0.0595652 1.7136670675 93.224102933 0.0287789 2.7253467492 93.825503251 0.00243255 3.8710424082 93.929517592 
-0.0149844 5.0670460096 93.70309399 -0.0241627 6.2459561181 93.275543882 -0.0274648 7.3631409163 92.737609084 
-0.0273049 8.3945527507 92.148847249 -0.0254298 9.3309462745 91.546363725 -0.0229187 10.172024534 90.953275466 
-0.0203687 10.92239615 90.38310385 -0.0180738 11.588241035 89.844358965 -0.0161734 12.176314472 89.341985528 
-0.0145996 12.69290619 88.87959381 0.0602054 0.30031512438 88.898145876 0.070184 0.7080427251 90.849566275 
0.0528444 1.3363142492 92.165645751 0.0325781 2.1579222194 92.927127781 0.0126814 3.1120668223 93.244733178 
-0.00273264 4.1366112158 93.236928784 -0.0128055 5.1765582765 93.007051723 -0.018265 6.1904434353 92.635286565 
-0.0204369 7.1511564505 92.17990355 -0.0205785 8.0436422463 91.681187754 -0.019639 8.8614250681 91.166314932 
-0.0182502 9.6034715149 90.653688485 -0.0167934 10.271752601 90.155347399 -0.0154986 10.869387446 89.680112554 
-0.0143662 11.400016473 89.234383527 0.0444474 0.22762179907 88.241567201 0.0557085 0.54839741125 90.034673589 
0.0452465 1.049416016 91.331593984 0.0321051 1.717032184 92.175137816 0.0176189 2.5090304373 92.633259563 
0.00504195 3.3797278315 92.788252169 -0.00438314 4.2855517577 92.718478242 -0.0105433 5.1905420758 92.490737924 
-0.0140045 6.0682331283 92.157516872 -0.0155341 6.9011716516 91.758328348 -0.0158423 7.6791850402 91.32163496 
-0.0154832 8.3973147425 90.868125257 -0.0148424 9.0538664183 90.412993582 -0.0141883 9.6490075212 89.967412479 
-0.0135608 10.183767534 89.540332466 0.0330233 0.17366495781 87.806348042 0.0442999 0.42643627943 89.441358721 
0.0380245 0.82587266575 90.686026334 0.0296476 1.3673128443 91.561087156 0.0193608 2.02181708 92.10686292 
0.00957646 2.7562703663 92.378659634 0.00147272 3.5369277152 92.434462285 -0.00449661 4.3339082651 92.327301735 
-0.00844636 5.1232611719 92.101898828 -0.0107713 5.887421695 91.794088305 -0.0119421 6.6145363726 91.431913627 
-0.0123895 7.2971717169 91.036488283 -0.0124541 7.9310585292 90.624541471 -0.0124022 8.5138378562 90.209082144 
-0.0122878 9.0443056225 89.801054378 0.0244561 0.13221695747 87.538760043 0.0352078 0.3306427234 89.021614277 
0.0315652 0.64754905121 90.196552949 0.0263973 1.084254387 91.070955613 0.019263 1.6214982191 91.666661781 
0.0119134 2.2357777765 92.019712223 0.00531642 2.901551992 92.171558008 1.0444e-05 3.5947988753 92.162661125 
-0.00388991 4.29495739 92.02972261 -0.00653552 4.9857125358 91.803547464 -0.00820551 5.6549484197 91.50987158 
-0.00920827 6.2940694762 91.169200524 -0.00981996 6.8971380071 90.798541993 -0.0102828 7.4599862697 90.41179373 
-0.0106469 7.9795508881 90.021399112 0.0178231 0.099353372585 87.398902127 0.0278439 0.25341261623 88.738083384 
0.0259229 0.50205649166 89.835149508 0.0229463 0.85061487422 90.688683126 0.0181557 1.2869997807 91.308200219 
0.0128168 1.7951165005 91.715853499 0.00767507 2.3561914244 91.939698576 0.00323698 2.95154763 92.00983237 
-0.000288142 3.5642363695 91.954573631 -0.0029102 4.1800071026 91.799712897 -0.00477542 4.7874593373 91.567480663 
-0.00609284 5.3778001481 91.276699852 -0.00707702 5.9443164548 90.943703545 -0.00793939 6.4816775005 90.582762499 
-0.00871842 6.9854162201 90.20705378 0.0125256 0.072514064491 87.355847836 0.021772 0.1896051241 88.561100876 
0.0210261 0.38078198131 89.577775019 0.0195746 0.65410187727 90.398544123 0.0165287 1.0028563526 91.024433647 
0.0128099 1.4167362603 91.46712374 0.00897399 1.8825244828 91.744445517 0.00545429 2.3862427395 91.87731726 
0.0024814 2.9145549639 91.886935036 0.000115906 3.4556120449 91.793437955 -0.00170664 3.9994354179 91.615334582 
-0.00312598 4.5377781766 91.368931823 -0.00430945 5.0638571488 91.069312851 -0.00544292 5.5718081406 90.730201859 
-0.00655438 6.0562850876 90.365154912 0.00816731 0.049994766664 87.384868033 0.0166739 0.13569160671 88.466498393 
0.0167683 0.27767341496 89.404018585 0.0164004 0.48587329497 90.186044705 0.014662 0.75770150217 90.807070498 
0.0122343 1.0873728738 91.271097126 0.00952725 1.466212005 91.587977995 0.00689557 1.8843673065 91.770912693 
0.00455641 2.331895941 91.834654059 0.00259762 2.7995310432 91.793848957 0.000998254 3.2791134503 91.66308655 
-0.000340576 3.7635444901 91.45566551 -0.00155816 4.2465811351 91.184708865 -0.00282761 4.7224298143 90.862760186 
-0.00417531 5.1853488147 90.503391185 0.00448293 0.03064889967 87.4657902 0.0123204 0.0892389567 88.434543643 
0.0130434 0.18847415127 89.296780849 0.0134604 0.33959855626 90.037687444 0.0127085 0.54319988284 90.647415117 
0.0113037 0.79705821572 91.123904784 0.00955168 1.0962355992 91.470454401 0.00773896 1.4343881964 91.694021804 
0.00605724 1.8047262928 91.803363707 0.00459835 2.2006059172 91.808344083 0.00335925 2.6159395131 91.719080487 
0.00225878 3.0452238999 91.5458261 0.00116594 3.4833261474 91.298903853 -9.69954e-05 3.9250907184 90.989619282 
-0.00157022 4.3649282546 90.630181745 0.00129656 0.013716186624 87.581476313 0.00854992 0.0485936841 88.448350316 
0.00976023 0.110243688 89.240787312 0.0107522 0.2108289141 89.941600086 0.0107451 0.35340402939 90.537160971 
0.0101445 0.53854621451 91.020751785 0.00918636 0.76433680618 91.390500194 0.00810639 1.0274514835 91.648028516 
0.00707143 1.3238862846 91.797043715 0.00616783 1.6496050448 91.842614955 0.00539597 2.0007721026 91.790707897 
0.00467593 2.3738334438 91.647866556 0.00386708 2.765278669 91.421451331 0.00276718 3.1711647596 91.12015524 
0.00130087 3.5866408432 90.755229157 -0.00150368 -0.0012814173856 87.717210476 0.00525257 0.012688418509 88.493526281 
0.00684716 0.041049597858 89.223276802 0.00825725 0.0965990957 89.886865404 0.00880457 0.18428263302 90.467985367 
0.00882412 0.30683085791 90.956212142 0.00851126 0.46472506554 91.345534934 0.00806903 0.65712979081 91.633077209 
0.00764764 0.8825535481 91.818054452 0.00732831 1.1393829963 91.901327004 0.00710997 1.4261506451 91.884319355 
0.00690477 1.7415771655 91.769692835 0.00654846 2.0842452033 91.561274797 0.00579347 2.4520866685 91.264763331 
0.004502 2.8416679229 90.889042077 -0.014602202679 -0.00398094 87.860191703 -0.019080056917 0.00235978 88.557842757 
-0.020223898514 0.00425289 89.232833099 -0.0048309759895 0.00595384 89.863812666 0.00689576 0.033435170108 90.43221223 
0.00737296 0.098883595111 90.924883405 0.00756329 0.19381737981 91.33234062 0.0076553 0.31938673673 91.648170263 
0.00779493 0.47622596161 91.867670038 0.0080661 0.66497019019 91.98738481 0.00847028 0.88654769418 92.004912306 
0.00891128 1.1421878385 91.918462162 0.00919358 1.4330745398 91.72756546 0.00900509 1.7597091814 91.434050819 
0.00811266 2.1209437623 91.043526238 -0.02632408615 -0.0061595 87.999129386 -0.046928347956 -0.000163219 88.630314648 
-0.074001026526 0.00194645 89.259440627 -0.094146003936 0.00382493 89.863445804 -0.10010298411 0.00501743 90.422318284 
-0.086527651079 0.00579992 90.920683451 -0.04986456785 0.00635068 91.346763768 0.00686045 0.012491090893 91.690887809 
0.00748577 0.10286486779 91.945322132 0.00832704 0.22386401601 92.102798984 0.00940131 0.37872840669 92.156613593 
0.0106145 0.5713832904 92.10056971 0.011743 0.80610917494 91.929261825 0.0123973 1.086726763 91.639503237 
0.0122123 1.4154079579 91.232042042 -0.036372301584 -0.00803154 88.124539902 -0.070742093935 -0.00232295 88.701786394 
-0.12010596229 -8.3365e-05 89.294352962 -0.1710980402 0.00186364 89.87779204 -0.21599423499 0.00316901 90.431165235 
-0.24895544962 0.0041062 90.93777445 -0.26576120956 0.00486688 91.38384221 -0.26292939963 0.0056582 91.7578274 
-0.23696385817 0.00666294 92.049158858 -0.18368968381 0.00801647 92.247264684 -0.097769929943 0.0097735 92.34167083 
0.0118666 0.027473856318 92.321139744 0.0140645 0.19980941871 92.174724581 0.015903 0.42722331373 91.892931686 
0.0168516 0.71647897281 91.469825027 -0.044543894408 -0.00956292 88.228043494 -0.090124823629 -0.00410239 88.764419724 
-0.15784578167 -0.00182868 89.329866782 -0.23461747437 7.7534e-05 89.899360474 -0.31272926011 0.00135965 90.45174526 
-0.38639479518 0.00229826 90.969501795 -0.4513414866 0.00310563 91.437946487 -0.50385256477 0.00401564 91.844157565 
-0.5398978301 0.00525191 92.17561783 -0.55430152688 0.0070058 92.419056527 -0.54005161296 0.00939955 92.560363613 
-0.48788213641 0.012433 92.583438136 -0.38629309882 0.0159144 92.471127099 -0.22232389972 0.0193409 92.2060159 
0.016829394343 0.0220013 91.773375306 -0.050534208375 -0.0106991 88.303061008 -0.10445350744 -0.00546576 88.811681507 
-0.18610226742 -0.00326374 89.359497267 -0.2829517108 -0.0015081 89.921803711 -0.38779001986 -0.000383465 90.47743102 
-0.49543782865 0.000400865 91.009237829 -0.6022107252 0.00107796 91.502525725 -0.70487317789 0.00191282 91.943576178 
-0.79961922364 0.00318066 92.318907224 -0.88104571395 0.00514961 92.613538714 -0.94117306359 0.00804292 92.810141064 
-0.9686473232 0.0119813 92.888022323 -0.94833475349 0.0168956 92.823385753 -0.86169868503 0.0223373 92.589771685 
-0.688346129 0.0274624 92.160621129 -0.053973478473 -0.0113729 88.345010278 -0.11295005157 -0.00636448 88.838831052 
-0.20346203701 -0.00434739 89.378153037 -0.31384841412 -0.00284849 89.939279414 -0.43788184915 -0.00200818 90.502024849 
-0.57153390592 -0.00153009 91.050222906 -0.71235147122 -0.00116863 91.570048471 -0.85833930858 -0.000632448 92.048362309 
-1.006812628 0.000408284 92.471382628 -1.153141183 0.00231514 92.823481183 -1.2894262257 0.00544694 93.084986226 
-1.4032164079 0.0100956 93.231446408 -1.4764383104 0.0164204 93.23256831 -1.4848813089 0.0242317 93.052091309 
-1.3991949136 0.0327219 92.649104914 -0.054471896085 -0.0115109 88.351202496 -0.11478349041 -0.0067431 88.84250749 
-0.20838756057 -0.00502619 89.381811561 -0.32482470122 -0.00387871 89.946911701 -0.45929677506 -0.00343113 90.519605775 
-0.60941508657 -0.00339422 91.085600087 -0.77455580147 -0.00352787 91.632630801 -0.95473120869 -0.00353132 92.149209209 
-1.1493726983 -0.00303279 92.622802698 -1.3558511614 -0.00157151 93.038061161 -1.5677668722 0.00138107 93.374586872 
-1.773154925 0.00634554 93.605314925 -1.9526242788 0.0137372 93.694114279 -2.0771964844 0.0239261 93.595736484 
-2.1078943462 0.036702 93.253594346 -0.051686771321 -0.0110574 88.321039171 -0.10919827429 -0.00655697 88.821619274 
-0.19946506145 -0.00525109 89.368098061 -0.31353135836 -0.00452548 89.941056358 -0.4484139576 -0.0045465 90.525177958 
-0.60372999933 -0.00505023 91.108644999 -0.7811562454 -0.00582842 91.681949245 -0.98339809052 -0.00660258 92.236128091 
-1.2130020898 -0.00699248 92.76094209 -1.4707674048 -0.0064691 93.243117405 -1.7536866081 -0.0043066 93.663676608 
-2.0522899826 0.000339302 93.994659983 -2.3483540746 0.00822456 94.196074075 -2.6118601151 0.0198944 94.213990115 
-2.7936490276 0.0375831 93.981269028 -0.045343682926 -0.00989612 88.257010583 -0.095656884854 -0.00574184 88.776938585 
-0.17565110708 -0.0049352 89.336173107 -0.27818702991 -0.00466447 89.91947703 -0.40233840341 -0.00517634 90.514729403 
-0.54989426112 -0.00625418 91.113800261 -0.72508306391 -0.00775406 91.710145064 -0.93375430612 -0.00946567 92.298421306 
-1.1824042185 -0.0110667 92.872044219 -1.4767454398 -0.0120302 93.42161544 -1.8194268349 -0.0115477 93.931476835 
-2.2067607677 -0.0083105 94.376550768 -2.6238469091 -0.00089808 94.716686909 -3.043880731 0.011574 94.889390731 
-3.4191344368 0.0297483 94.818914437 -0.035569398638 -0.00840662 88.163396699 -0.074142366314 -0.00454297 88.710903966 
-0.13674479139 -0.00426889 89.287134791 -0.21828971537 -0.00444891 89.881441715 -0.31988928235 -0.00544156 90.486014282 
-0.44542488439 -0.00707883 91.096331884 -0.60158189674 -0.00930513 91.710139897 -0.79739035427 -0.012016 92.325941354 
-1.0436940776 -0.015009 92.941914078 -1.3521576014 -0.0178819 93.554187601 -1.733419735 -0.019837 94.153149735 
-2.1937638464 -0.0196047 94.719703846 -2.7293533324 -0.0144134 95.218943332 -3.3146203915 -0.00182067 95.592300391 
-3.9114651547 0.0205653 95.737375155 -0.0052335088035 -0.00310153 87.913406499 -0.0069962724658 -2.51341e-05 88.533143002 
-0.014159924073 -0.000924866 89.148340324 -0.025313190705 -0.00186011 89.760775091 -0.045126922959 -0.00346403 90.371803923 
-0.08024436891 -0.00573413 90.985497769 -0.14027116482 -0.00884958 91.607607165 -0.23831301234 -0.0130277 92.245727012 
-0.39183060257 -0.0185289 92.908743603 -0.62353102115 -0.0255992 93.606360021 -0.96198988648 -0.034326 94.347519886 
-1.4414053125 -0.044381 95.136825312 -2.09794168 -0.053676 95.96840168 -2.9649130372 -0.0612005 96.809513037 
-3.9689718925 -0.0100387 97.617691892 0.00065962 0.014083933533 87.779084766 0.00319343 0.035579369121 88.437570931 
0.00171783 0.06449289025 89.07101731 0.000632826 0.10017436945 89.687629631 -0.000911899 0.1370111088 90.293700891 
-0.00296444 0.16836459979 90.8972584 -0.00579824 0.18514120526 91.507445795 -0.00976192 0.17486544791 92.135604552 
-0.0153332 0.12020659524 92.795231405 -0.0231549 -0.0029433843797 93.502586284 -0.22769594736 -0.033888 94.276224947 
-0.59876405794 -0.0486297 95.135433058 -1.1705289363 -0.0645744 96.097858936 -2.0105939954 -0.0919152 97.160603995 
-3.1334465819 -0.051648 98.311666582 0.00429663 0.033938502568 87.658606897 0.00635582 0.079801101168 88.353123299 
0.00442285 0.14649632066 89.001079679 0.00332996 0.23195744487 89.617406555 0.00207048 0.33022679865 90.212810201 
0.00057354 0.43573315671 90.798544843 -0.00145518 0.54151768092 91.386419319 -0.00439194 0.63814751712 91.990310483 
-0.00878966 0.71197369146 92.626765309 -0.0154782 0.74265768116 93.316567319 -0.0256036 0.69969564645 94.085817354 
-0.0412402 0.53706509026 94.96683291 -0.0620443 0.18982188803 95.999579112 -0.45171804023 -0.106654 97.21430504 
-1.4504204628 -0.0815245 98.691780463 0.0077722 0.052841427362 87.567501073 0.00942519 0.12196985392 88.291592146 
0.00713424 0.22491180651 88.949093193 0.00615469 0.35858056481 89.560541435 0.00535322 0.51731469909 90.140621301 
0.00467768 0.69745231237 90.702963688 0.00387574 0.89547732077 91.261072679 0.00265118 1.1070841421 91.829965858 
0.000556147 1.3256954256 92.427424574 -0.00315113 1.5402200813 93.076049919 -0.00961531 1.7315582399 93.80580176 
-0.0214345 1.8661163614 94.657143639 -0.0397081 1.8877705388 95.686579461 -0.0869402 1.6852262605 96.960843739 
-0.0762358 1.1624705212 98.625849479 0.0107558 0.069011714178 87.519816486 0.0120521 0.15803246068 88.264338539 
0.00951463 0.2921191008 88.925254899 0.00871234 0.46751390037 89.5277831 0.00843077 0.67922324164 90.089553758 
0.00866469 0.92587378614 90.626028214 0.00925375 1.2079597468 91.151430253 0.0100674 1.5273198712 91.680790129 
0.010917 1.8864112536 92.231508746 0.0114571 2.2871635282 92.825656472 0.0110588 2.7290240414 93.492925959 
0.00801433 3.2046588216 94.275751178 0.00111017 3.6934432054 95.237666795 -0.0261341 4.1349220225 96.468017978 
-0.0236492 4.4570062617 98.141853738 0.0129637 0.080826281648 87.527810618 0.0139741 0.18426989797 88.281250102 
0.0112806 0.34105127596 88.938714724 0.0106466 0.5470146438 89.528975356 0.0108122 0.79786609939 90.071595901 
0.0118248 1.0942655497 90.58295445 0.0136258 1.4402254308 91.077764569 0.0162684 1.8431599183 91.570600082 
0.0198713 2.31395848 92.07753152 0.0246114 2.8674714336 92.618588566 0.0306911 3.52302585 93.22117415 
0.038203 4.3048436322 93.924876368 0.0470348 5.2416636716 94.790266328 0.0548942 6.362253443 95.914466557 
0.0617974 7.6874534455 97.462556555 0.0141744 0.087037645084 87.600330655 0.0149779 0.19781398223 88.349480018 
0.0122037 0.36624593181 88.996359068 0.0116608 0.58794907338 89.571569927 0.0120781 0.85904908058 90.095721919 
0.0135355 1.1813590847 90.585940915 0.0160405 1.560945952 91.056874048 0.0197661 2.0084880365 91.522791964 
0.0250369 2.5399990002 91.998791 0.0324004 3.1783718699 92.50349813 0.0426784 3.9558865166 93.061883483 
0.0574379 4.9184999082 93.710290092 0.0776075 6.1312798449 94.504300155 0.113702 7.6956582793 95.539781721 
0.129281 9.7269404225 96.958429577 0.0142669 0.086971103473 87.741895697 0.0149465 0.19711861208 88.472688388 
0.0121566 0.36475040534 89.101497595 0.0115876 0.58536175228 89.659339248 0.0119883 0.85502435126 90.166795649 
0.0134352 1.1754704602 90.64119954 0.0159356 1.5527146613 91.097525339 0.0196614 1.9973347785 91.550085222 
0.0249358 2.5253203654 92.014129635 0.0323038 3.1594963975 92.508453603 0.0425831 3.9320662385 93.058013762 
0.0573342 4.8888463751 93.699263625 0.0774819 6.0947081821 94.488031818 0.113495 7.6507583537 95.520161646 
0.129084 9.6717837425 96.937716257 0.0132389 0.080633027054 87.952786773 0.013877 0.18221859585 88.650709404 
0.0111361 0.3366363042 89.253899696 0.010424 0.53936257693 89.791670423 0.0105403 0.78595364937 90.283999351 
0.0115219 1.0768444107 90.747975589 0.0133101 1.4158600315 91.198679968 0.015955 1.8102406084 91.651189392 
0.0195714 2.2707655849 92.122004415 0.0243297 2.8121400876 92.631409912 0.0304224 3.4535632624 93.206786738 
0.0379237 4.2190679863 93.887922014 0.0467138 5.1370980773 94.735791923 0.0543953 6.2359310081 95.847138992 
0.0614041 7.5361373326 97.387442667 0.0112065 0.068707568591 88.228249031 0.0118791 0.15472004092 88.879558959 
0.00926293 0.28497271507 89.449410285 0.00833091 0.45509379594 89.963793204 0.00796865 0.65985213979 90.44127986 
0.00815329 0.89754104746 90.898121953 0.00872437 1.1683760497 91.34941395 0.00954682 1.4740234135 91.810996587 
0.0104265 1.8168003631 92.300499637 0.0110104 2.1986093457 92.840320654 0.0106582 2.6189678937 93.460352106 
0.00764003 3.0706216555 94.202748344 0.000727999 3.5331406683 95.130789332 -0.0266638 3.9464406483 96.333069352 
-0.0238453 4.2398059186 97.983334081 0.00838938 0.052445955513 88.559505644 0.00916245 0.11752781552 89.151781184 
0.0067606 0.21529439308 89.680541607 0.00559984 0.34178705046 90.16743495 0.00468822 0.49104283782 90.628300162 
0.00394803 0.65898468054 91.078108319 0.00312687 0.84180500047 91.531492 0.00192285 1.0350521011 92.004127899 
-0.000117665 1.2321541144 92.514245886 -0.00374347 1.4222379101 93.08454209 -0.010105 1.5866161063 93.745063894 
-0.0218183 1.6923786982 94.535361302 -0.0399896 1.6844272521 95.511062748 -0.0873059 1.4528877852 96.737012215 
-0.0759539 0.90482834676 98.357191653 0.00505052 0.033454826493 88.934378374 0.00596525 0.074353255661 89.457116844 
0.00389076 0.13465969915 89.937606301 0.00256968 0.21115627044 90.39174173 0.00117616 0.29752495561 90.832188044 
-0.000394908 0.38774077841 91.271564222 -0.00243749 0.4745838589 91.723132141 -0.0053346 0.54857620302 92.201435797 
-0.00964565 0.59628148465 92.723444515 -0.0162059 0.59786510709 93.309865893 -0.026165 0.52366315209 93.986458848 
-0.0415879 0.32893686238 94.784539138 -0.0621159 -0.0493280475 95.742265447 -0.71876295503 -0.106653 96.887006955 
-1.738665831 -0.0807495 98.297475831 0.00162836 0.013560542532 89.338807557 0.00271579 0.029251954046 89.783968546 
0.0010589 0.050649760146 90.20954184 -0.000310686 0.075589283342 90.625077517 -0.00202281 0.098060522515 91.039332477 
-0.00416609 0.1109609745 91.461913026 -0.00701295 0.10499858497 91.903427415 -0.0109206 0.06778815361 92.376081846 
-0.017578559285 -0.0163747 92.893675059 -0.17442496002 -0.0240264 93.47215096 -0.43468303371 -0.0345352 94.129576034 
-0.84143514897 -0.0490132 94.883816149 -1.4467282233 -0.0644766 95.750528223 -2.3148276253 -0.0914958 96.724377625 
-3.4575505936 -0.0495976 97.788700594 -0.0061350545371 -0.0025588 89.756463915 -0.014378019656 -0.00111995 90.11934256 
-0.030180714042 -0.00213983 90.484587614 -0.05397232546 -0.00333442 90.855836925 -0.090830566908 -0.00506085 91.237029967 
-0.14787642459 -0.00736483 91.634437425 -0.23485067593 -0.0104261 92.055095676 -0.36463069151 -0.014473 92.507482692 
-0.55406007214 -0.0197768 93.000909072 -0.82484011577 -0.0265946 93.544698116 -1.2041620984 -0.0350258 94.146782098 
-1.7245120155 -0.0447431 94.810412016 -2.4199924451 -0.0536749 95.527942445 -3.3216047757 -0.0606399 96.264274776 
-4.3454850269 -0.00574455 96.977195027 -0.036972924987 -0.0078035 90.559027025 -0.083621117069 -0.0061394 90.757688517 
-0.15777490601 -0.00600441 90.995999906 -0.25685565192 -0.00652534 91.266143652 -0.38253652126 -0.00766016 91.563717521 
-0.53922365998 -0.00931617 91.88661766 -0.73360643098 -0.0114394 92.234403431 -0.97424415603 -0.0139433 92.606425156 
-1.2710535914 -0.0166429 93.001303591 -1.6344009959 -0.0191551 93.414100996 -2.0732892143 -0.0206989 93.834739214 
-2.592216206 -0.0200325 94.242406206 -3.1855318997 -0.0143522 94.6006019 -3.8254518387 -0.00120219 94.849681839 
-4.4740885697 0.0212124 94.88486857 -0.047077059567 -0.00882463 90.92071316 -0.10675243064 -0.00728769 91.042835431 
-0.20023713044 -0.00672342 91.21820413 -0.32368149824 -0.00688707 91.434466498 -0.47678617028 -0.00760579 91.68362217 
-0.66186837655 -0.00873842 91.959961377 -0.8830891469 -0.0101455 92.259167147 -1.1457023685 -0.0116383 92.576582368 
-1.4551410407 -0.012917 92.905741041 -1.8156403152 -0.0134773 93.236600315 -2.2281243265 -0.0125356 93.552414326 
-2.6870307208 -0.00879399 93.826420721 -3.1755214577 -0.000870103 94.016961458 -3.6656374333 0.0119864 94.059787433 
-4.1086572595 0.0303969 93.879367259 -0.054312742765 -0.0101341 91.249764643 -0.12268497212 -0.00859673 91.301067972 
-0.22909154732 -0.00754052 91.415318547 -0.36840955338 -0.00727083 91.576976553 -0.53842777792 -0.00747893 91.775090778 
-0.73930821157 -0.00799514 92.000793212 -0.97256739249 -0.00861774 92.246541392 -1.2401697439 -0.00909592 92.503919744 
-1.5433914294 -0.0090773 92.762901429 -1.8813952439 -0.00806247 93.009295244 -2.2492652419 -0.00535358 93.222595242 
-2.635493384 -0.000139931 93.373233384 -3.0200258703 0.00828444 93.41926587 -3.3712186158 0.0204268 93.304998616 
-3.6381480651 0.0387024 92.962428065 -0.058285202672 -0.0107454 91.541221603 -0.13145006714 -0.00929533 91.528420067 
-0.24470772427 -0.00784259 91.584989724 -0.39204145557 -0.00717883 91.693134456 -0.56952357214 -0.0069015 91.839386572 
-0.77531086934 -0.00683101 92.012550869 -1.0084877225 -0.0067394 92.202383722 -1.2681133894 -0.00636098 92.398013389 
-1.5521215929 -0.00535927 92.586511593 -1.8559396598 -0.00331002 92.75131966 -2.1710054602 0.000278577 92.87032546 
-2.4830840186 0.00588969 92.914154019 -2.7705657594 0.0139051 92.844575759 -3.0023756804 0.0247061 92.61375568 
-3.1375743705 0.038081 92.162934371 -0.059412450187 -0.0108608 91.79101445 -0.13388412882 -0.00955881 91.722492129 
-0.24865145843 -0.00780676 91.726198458 -0.39715192313 -0.00680765 91.783092923 -0.57409782289 -0.00610354 91.878508823 
-0.77595370204 -0.00552532 91.999337702 -0.99977633805 -0.00484618 92.133632338 -1.2423272917 -0.0038194 92.268537292 
-1.4990502756 -0.00215931 92.389750276 -1.7630200382 0.000451033 92.479610038 -2.0237311915 0.00432818 92.516191191 
-2.2660679227 0.0097269 92.472257923 -2.4692384955 0.0167814 92.314388495 -2.6064334431 0.0252945 92.003333443 
-2.6458775857 0.0344222 91.495117586 -0.058136544684 -0.0105401 91.997961345 -0.13100669207 -0.00943257 91.882244692 
-0.24285985418 -0.00748962 91.838850854 -0.38693438228 -0.00623696 91.848289382 -0.55698231994 -0.00519437 91.89529732 
-0.74818547639 -0.00421876 91.965950476 -0.95606979487 -0.00310477 92.046880795 -1.1757368622 -0.00164389 92.124706862 
-1.4010372506 0.000384245 92.184077251 -1.6237270591 0.00319441 92.207817059 -1.8326937333 0.00696209 92.175253733 
-2.0133285143 0.0117692 92.062178514 -2.1472274026 0.0175178 91.840877403 -2.2126893664 0.0237439 91.480949366 
-2.1863201713 0.0295632 90.951850171 -0.054967801209 -0.00987917 92.161969201 -0.1239579393 -0.00899865 92.008000939 
-0.22945840557 -0.00696731 91.923884406 -0.36481899134 -0.00555027 91.890660991 -0.52323826636 -0.00426897 91.893162266 
-0.69904674578 -0.00301556 91.916935746 -0.88673913816 -0.00161773 91.948568138 -1.0803801935 8.68916e-05 91.974210193 
-1.27293076 0.00225402 91.97890076 -1.4557288315 0.00501144 91.946278832 -1.6179222953 0.00842695 91.857762295 
-1.7463206801 0.0124575 91.69266068 -1.8255018939 0.0168793 91.428981894 -1.83873063 0.0211733 91.04430063 
-1.7696771546 0.0245857 90.519097155 -0.050415558962 -0.0089706 92.285036059 -0.11386459656 -0.00833473 92.101354597 
-0.21053352169 -0.00630631 91.983183522 -0.33413939778 -0.00481114 91.912770398 -0.4776957875 -0.00338963 91.875224787 
-0.63508650404 -0.00197226 91.856748504 -0.80024154684 -0.000424361 91.844058547 -0.96670333973 0.00137037 91.82360434 
-1.127165338 0.00351065 91.781175338 -1.2730894404 0.00605615 91.70188944 -1.3945161451 0.00899933 91.569646145 
-1.4800642787 0.0122258 91.367324279 -1.5173464072 0.0154711 91.078106407 -1.4939997176 0.0182565 90.686329718 
-1.3992189366 0.0200092 90.180498937 -0.044952114815 -0.00790142 92.369854115 -0.10176592269 -0.00751359 92.164579923 
-0.18799202244 -0.00556349 92.019098022 -0.29791023841 -0.00406658 91.917034238 -0.42465953655 -0.00259316 91.844856537 
-0.56202984812 -0.00111075 91.789202848 -0.7037751921 0.000478196 91.737700192 -0.84334223808 0.00224857 91.677474238 
-0.97356738261 0.00425289 91.595645383 -1.0864839926 0.0065018 91.479003993 -1.1732848021 0.00894207 91.313754802 
-1.2244906885 0.0114299 91.086420689 -1.2305030234 0.0137094 90.784403023 -1.1825625528 0.0153813 90.397412553 
-1.0740152978 0.0160396 89.919815298 -0.038987698385 -0.00674757 92.420212598 -0.088557754978 -0.00659877 92.200641155 
-0.16347252211 -0.00478456 92.034060522 -0.25870345816 -0.00334837 91.906248458 -0.36776103992 -0.00189628 91.80471204 
-0.48462018271 -0.000428595 91.717409183 -0.60316926958 0.0011188 91.63286227 -0.71707537774 0.0027863 91.539361378 
-0.81961452915 0.00459158 91.425353529 -0.90361306651 0.00651327 91.279513067 -0.96152017548 0.00847544 91.090488175 
-0.9856879335 0.0103318 90.847820934 -0.96889837985 0.0118588 90.54224638 -0.90520562568 0.012743 90.167788626 
-0.79096397892 0.0127136 89.722591979 -0.032859276585 -0.00557155 92.440200077 -0.074974150707 -0.00564301 92.212700151 
-0.13831114514 -0.00400457 92.031000145 -0.21860248309 -0.00267613 91.882907483 -0.30990856089 -0.00130176 91.757451561 
-0.40659647954 9.13855e-05 91.64389748 -0.50291792681 0.00153927 91.531853927 -0.59297875416 0.00305534 91.411171754 
-0.67067717415 0.00463281 91.271730174 -0.72973685005 0.00623173 91.10390785 -0.76385308886 0.00776911 90.898637089 
-0.76699711898 0.00911095 90.647743119 -0.73390551567 0.010074 90.345276516 -0.66077975992 0.0104217 89.98775676 
-0.54605640844 0.00998543 89.575952408 -0.026828231993 -0.00442184 92.434306032 -0.061584364722 -0.00468799 92.204221665 
-0.11353889937 -0.00324903 92.012751899 -0.17920775697 -0.00206037 91.849516757 -0.25331276097 -0.000803582 91.705154761 
-0.33075807624 0.000473713 91.570429076 -0.40630924657 0.00178517 91.436430247 -0.47464872354 0.00312443 91.294071724 
-0.5303936485 0.00446881 91.135075649 -0.56818353724 0.00576948 90.951347537 -0.58287023181 0.00694585 90.735740232 
-0.56980888045 0.00788263 90.48221088 -0.52529129281 0.00843591 90.187079293 -0.44709827632 0.00843258 89.848701276 
-0.33506118939 0.00777697 89.469578189 -0.021085050057 -0.00333361 92.40682175 -0.048803945519 -0.00376496 92.178776346 
-0.0899075189 -0.00253549 91.982061919 -0.14167932863 -0.00150515 91.808199329 -0.19955988137 -0.00039107 91.649726881 
-0.25907407975 0.000744969 91.49860008 -0.31559523063 0.0018999 91.347390231 -0.36445525159 0.00305376 91.188578252 
-0.40101754948 0.0041745 91.015041549 -0.42080842914 0.00521088 90.820333429 -0.41970447343 0.00608965 90.599056473 
-0.39421803588 0.00671564 90.346834036 -0.341842697 0.00697932 90.061486697 -0.26149406635 0.00675699 89.743025066 
-0.1538940477 0.00600325 89.394668048 -0.015757651646 -0.00233023 92.362140652 -0.036914304873 -0.00289591 92.139541905 
-0.067924541972 -0.00187504 91.941489442 -0.1067949184 -0.00101041 91.761197918 -0.14969962328 -5.17782e-05 91.592599623 
-0.19282245613 0.000930445 91.429439456 -0.23218259099 0.00192146 91.265370591 -0.26378847879 0.00289269 91.094347479 
-0.28373953758 0.00380754 90.910514538 -0.28837730725 0.00461621 90.708990307 -0.27447387581 0.00525485 90.485448876 
-0.23947809653 0.00564704 90.237302097 -0.18180233574 0.00571142 89.963288336 -0.10115400565 0.00536139 89.664374706 
0.0012086666669 0.00458487 89.344279233 -0.010922441586 -0.00142524 92.304358242 -0.026085208518 -0.00209499 92.089903009 
-0.04789520168 -0.00127381 91.893506502 -0.075018544364 -0.000573524 91.710173944 -0.10434573547 0.000226638 91.535128735 
-0.13271931785 0.00105231 91.363604318 -0.15681002037 0.00188109 91.19043802 -0.17329096149 0.00267969 91.010863961 
-0.17895661114 0.00341019 90.820403611 -0.17088521069 0.00402641 90.615054211 -0.1466083723 0.00447412 90.392076372 
-0.10433058484 0.00469313 90.149683885 -0.043151637317 0.00462419 89.887539837 0.00420773 0.03668504705 89.607263453 
0.00345289 0.13362575041 89.31265125 -0.0066144332147 -0.000624348 92.237071833 -0.016398103187 -0.00137009 92.032650403 
-0.029965109267 -0.00073416 91.840496309 -0.046568073159 -0.000190523 91.656804873 -0.06377291113 0.000455368 91.478489911 
-0.079055417753 0.00112884 91.301674018 -0.089714799801 0.0018032 91.1225815 -0.093052863967 0.00244327 90.937531564 
-0.086507292456 0.00301194 90.743130792 -0.067802196979 0.00346762 90.536564797 -0.035111819835 0.00376502 90.31599042 
0.00385732 0.012762364798 90.080330535 0.00370205 0.076209937249 89.830074263 0.00325891 0.15463272409 89.567185276 
0.00254988 0.24634493027 89.29522007 -0.0028378232787 7.26225e-05 92.163780173 -0.0078675358793 -0.000724196 91.970579696 
-0.014159712347 -0.00025579 91.784351012 -0.021476134509 0.000143145 91.602580835 -0.02800241016 0.000643964 91.42337421 
-0.031804568942 0.00117441 91.243844369 -0.030768740007 0.00170596 91.06140544 -0.022778122568 0.00220356 90.873366323 
-0.0058472351041 0.00263221 90.677324625 0.00295515 0.021735949778 90.47146095 0.00313493 0.061263995256 90.254434105 
0.00313537 0.11346191877 90.026179081 0.00292647 0.17834679884 89.787409201 0.00248138 0.25509269885 89.540324301 
0.00182922 0.34198671545 89.288425285 0.00042528951546 0.000670011 92.087283054 -0.0004604468338 -0.000156702 91.905990079 
-0.00041820925995 0.000163475 91.726969329 0.0003568358071 0.000432136 91.548801214 0.000800236 0.0031234501824 91.37048366 
0.00119978 0.0092789661675 91.190422434 0.00160222 0.020403009961 91.00672419 0.00197397 0.03808694326 90.817691057 
0.0022828 0.063805851171 90.621715949 0.00249663 0.098787454191 90.417678546 0.00258465 0.1438833193 90.205142681 
0.00251896 0.19944604324 89.984255957 0.00227864 0.26521933672 89.756352663 0.001846 0.3402430904 89.52366091 
0.00125364 0.422835134 89.289413866 0.00117488 0.0032073131142 92.010280967 0.000335496 0.0058882851839 91.841083155 
0.000526998 0.011377536863 91.669854463 0.000680928 0.019118097583 91.496471602 0.000930368 0.029880054877 91.320627445 
0.00121273 0.044583506394 91.141522294 0.00150062 0.064331048473 90.958057652 0.00176274 0.090248300869 90.769431599 
0.00196996 0.12336586064 90.574835139 0.00209448 0.16449853422 90.373649466 0.00211098 0.2141343949 90.165944605 
0.00199791 0.272335115 89.952479885 0.00174081 0.3386461256 89.734606874 0.00132814 0.41203279693 89.514675203 
0.000793657 0.49087703815 89.295640962 0.00159587 0.0055491883665 91.934974812 0.000757114 0.011262817207 91.777561983 
0.000838832 0.021379809742 91.61461229 0.000893679 0.035047004642 91.446701295 0.00103913 0.052611839536 91.27421886 
0.00121856 0.074578075376 91.097061725 0.0014065 0.1016298345 90.915128165 0.00157434 0.13448683678 90.728014163 
0.00169608 0.17379743084 90.535610569 0.00174776 0.22002668963 90.33780131 0.00170849 0.27336833844 90.135162662 
0.00156155 0.33365288668 89.928664113 0.001297 0.40028305132 89.719970949 0.000907354 0.47218620512 89.511248795 
0.000426088 0.54782841191 89.305469588 0.00194224 0.0074957156383 91.863265684 0.00111376 0.015756274633 91.717130325 
0.00110333 0.029757668409 91.562350032 0.00107415 0.048407637389 91.400201363 0.00113015 0.071694990923 91.231673009 
0.00122076 0.099766197804 91.057359802 0.00132282 0.13294370532 90.877658295 0.00141058 0.17160128932 90.692663711 
0.00146101 0.21605920683 90.502967793 0.00145349 0.26649343161 90.308757568 0.00137071 0.32285494965 90.11111505 
0.00119955 0.38479389674 89.911118103 0.000933239 0.45161042392 89.710642576 0.000566824 0.52222038446 89.511765616 
0.000132773 0.59517403139 89.317369969 0.00222329 0.0090920476358 91.796854722 0.00141138 0.019463471621 91.660992128 
0.00132486 0.036682548772 91.513975251 0.00122568 0.059467935174 91.357583265 0.00120612 0.087508607958 91.193305192 
0.00122142 0.12064875708 91.022235243 0.00125085 0.15890861342 90.845169387 0.00127147 0.20236302647 90.662802974 
0.00126299 0.25106187972 90.47602912 0.00120761 0.30494108063 90.285537919 0.00109089 0.363753741 90.092616259 
0.000902399 0.42701031632 89.898548684 0.000637526 0.49393809968 89.7052189 0.000292872 0.56345177275 89.514812227 
-0.000100466 0.63418352027 89.33001848 0.00244779 0.010381295874 91.736943004 0.00165583 0.022475443161 91.610351157 
0.00150759 0.042319310548 91.470595189 0.0013512 0.068485066944 91.319657933 0.00126903 0.10041519867 91.159529801 
0.00122168 0.13770465082 90.991805349 0.00119079 0.18011928286 90.817480717 0.00115598 0.22749108676 90.637951913 
0.00109941 0.27964239685 90.454013603 0.00100567 0.33631440302 90.267158597 0.000862557 0.39710218812 90.078477812 
0.000661646 0.46140615277 89.889660847 0.000399776 0.5283998524 89.702597148 7.44644e-05 0.59700835363 89.519377646 
-0.000284664 0.66593735184 89.342596648 0.00262371 0.011402609669 91.68453149 0.00185261 0.024875202638 91.566010797 
0.00165533 0.04681892338 91.432616377 0.00145322 0.075694102818 91.286735197 0.00132036 0.11074530983 91.13055969 
0.00122207 0.15136664581 90.965985354 0.00114213 0.19711599585 90.794409004 0.00106247 0.24762847013 90.61752753 
0.000967337 0.30254288846 90.436437112 0.000843253 0.36144314825 90.252732852 0.000679794 0.42379921804 90.067908782 
0.000469989 0.48892870897 89.883558291 0.000211649 0.55596513243 89.701774868 -9.72109e-05 0.62384682758 89.524553172 
-0.000428359 0.69134176184 89.354290238 0.00275798 0.01219020552 91.640620994 0.00200659 0.026735968896 91.528873931 
0.00177145 0.050313807853 91.400944392 0.00153384 0.081301538719 91.259323461 0.00136117 0.11878919713 91.106605803 
0.0012227 0.16201283221 90.944788168 0.00110406 0.21036776267 90.775868237 0.000989128 0.26333113936 90.601243861 
0.00086385 0.32040045179 90.422712548 0.000716317 0.38103476853 90.241771231 0.000537445 0.44460970891 90.060116291 
0.00032132 0.51037619479 89.879543805 6.6389e-05 0.57744296391 89.701950036 -0.000229087 0.64475893614 89.529632064 
-0.000538096 0.71114352524 89.364588475 0.00285636 0.012772827338 91.605912173 0.00212193 0.028118805726 91.499442894 
0.00185877 0.052914914877 91.375783785 0.00159478 0.08548022388 91.237629576 0.00139222 0.12478994816 91.087777052 
0.00122347 0.16996078556 90.928424214 0.00107565 0.22026434987 90.76146965 0.000934176 0.27506192385 90.588912076 
0.000786323 0.33374192722 90.412350073 0.00062137 0.39567104582 90.233681954 0.000431221 0.46015323324 90.054605767 
0.000210707 0.52639454177 89.876919458 -4.13203e-05 0.59348289743 89.702721103 -0.000326497 0.6603777362 89.534009264 
-0.000618797 0.72594064612 89.373083354 0.00292338 0.013172775863 91.580705524 0.00220192 0.029071724297 91.478119476 
0.00191952 0.054709654069 91.357538046 0.00163736 0.088366487393 91.222058813 0.00141405 0.12893772167 91.074280278 
0.00122422 0.17545749782 90.916601502 0.00105605 0.22711318137 90.751321819 0.000896097 0.28318136607 90.580240634 
0.000732578 0.34297768216 90.405257318 0.000555605 0.40580386982 90.22817113 0.000357759 0.47091376694 90.050981233 
0.000134365 0.53748324091 89.875386759 -0.000115481 0.60458609082 89.703586909 -0.000393385 0.67119088504 89.537481115 
-0.000674038 0.73618782748 89.379369173 0.00296229 0.013406301964 91.565401398 0.00224894 0.02962956973 91.46520493 
0.00195532 0.055761167936 91.346509632 0.00166254 0.090058714256 91.212614886 0.00142701 0.1313716933 91.066120307 
0.00122475 0.17868334825 90.909625652 0.00104459 0.23113425135 90.745230749 0.000873732 0.28794955303 90.575035447 
0.000700996 0.34840141285 90.401039587 0.000516975 0.41175401349 90.225042987 0.000314648 0.47723355927 90.048845441 
8.96199e-05 0.54399526095 89.874646739 -0.000158883 0.61110730851 89.704246691 -0.000432462 0.67754283633 89.539645164 
-0.000706247 0.74220888457 89.383142115 -0.00131166 0.86162407308 89.102331927 -0.00129983 0.85662637675 89.095028623 
-0.00127937 0.84813308256 89.082792917 -0.00124913 0.8358932274 89.065929773 -0.00120727 0.81955028595 89.044446714 
-0.00115117 0.79864056247 89.018454438 -0.00107711 0.77258228409 88.988367716 -0.000979858 0.74066642583 88.954306574 
-0.000852132 0.70204004462 88.916897955 -0.000683773 0.65569303889 88.876477961 -0.000460623 0.60042228188 88.833994718 
-0.000162926 0.53479964756 88.790212352 0.000236897 0.45712004384 88.746615956 0.000777363 0.36533265686 88.704818343 
0.00151223 0.25694992692 88.667268073 0.00251643 0.12892620188 88.637159798 -0.022498042474 0.00389411 88.618744538 
-0.20199522529 0.00578928 88.618142225 -0.41538791353 0.00839939 88.643445914 -0.66992249649 0.0119914 88.705918496 
-0.9745307975 0.0169181 88.820656797 -1.3400116071 0.0236253 89.008201607 -1.778874437 0.0326481 89.295944437 
-2.3046739267 0.0444535 89.719363927 -2.9294791887 0.0596835 90.323339189 -3.6606906369 0.0754775 91.158410637 
-4.4821721214 0.102237 92.286182121 -5.4136867407 0.0228876 93.618606741 -0.00161798 0.91392259556 88.982325404 
-0.00161834 0.90953652725 88.973302473 -0.00161879 0.90209115578 88.958333844 -0.00161906 0.89137981998 88.93722418 
-0.00161866 0.87711143942 88.910180561 -0.00161674 0.85890885925 88.877213141 -0.00161192 0.83629796594 88.838236034 
-0.00160193 0.80870737464 88.793368625 -0.00158322 0.77544968105 88.742637319 -0.00155026 0.7357109644 88.686278036 
-0.00149458 0.68852335132 88.624439649 -0.00140335 0.63273428462 88.557488715 -0.00125729 0.56694993298 88.485816067 
-0.0010276 0.48947613098 88.410345869 -0.000671469 0.39821070009 88.3321483 -0.000125488 0.29051676751 88.252956232 
0.000704041 0.16302478868 88.175589211 0.00195526 0.01138347938 88.104082521 -0.17009592883 0.00383133 88.044225929 
-0.38889412318 0.00662968 88.005006123 -0.65487030702 0.0107833 87.999248307 -0.9809594255 0.0169092 88.045929425 
-1.3838982217 0.0258896 88.172518222 -1.8848050766 0.0387592 88.417825077 -2.5085043946 0.0574508 88.836474395 
-3.2837003513 0.0791378 89.497290351 -4.2213128377 0.124515 90.499212838 -5.3683246198 0.0675741 91.85980462 
-0.00188254 0.95963141363 88.878918586 -0.00189493 0.95585695051 88.868275049 -0.00191605 0.94946143389 88.850571566 
-0.00194661 0.94028501253 88.825711987 -0.00198758 0.92810280681 88.793602193 -0.00204009 0.91262633266 88.753950667 
-0.0021054 0.89350072759 88.706669272 -0.00218473 0.87029753807 88.651574462 -0.00227902 0.84251310258 88.588288897 
-0.00238855 0.80955519936 88.516643801 -0.00251237 0.77072868562 88.436082314 -0.00264733 0.72520575959 88.34636424 
-0.00278663 0.67199505187 88.247072948 -0.00291759 0.60987477569 88.137725224 -0.0030181 0.53731319537 88.018185805 
-0.00305114 0.45234091496 87.888388085 -0.00295616 0.35236841176 87.748765588 -0.0026356 0.23392103148 87.600394969 
-0.00193349 0.092255122778 87.445662877 -0.079190033364 -0.000601854 87.289057533 -0.28957123016 0.00175282 87.13819823 
-0.55173235846 0.00574987 87.005804358 -0.88366549639 0.0123777 86.912994496 -1.3104504633 0.0230686 86.893050463 
-1.865937924 0.0406477 86.999037924 -2.5966462001 0.0651482 87.3086562 -3.5435802471 0.123805 87.961140247 
-4.8364134227 0.0880433 89.030633423 -0.00211462 0.99765292119 88.793812079 -0.00213813 0.99444218591 88.781848814 
-0.0021784 0.98901324947 88.761811751 -0.00223712 0.98125137264 88.733603627 -0.00231668 0.97099435773 88.696928642 
-0.00242022 0.95804112601 88.651492874 -0.00255171 0.94214711473 88.596904885 -0.00271597 0.92302637487 88.532776625 
-0.00291872 0.90035430465 88.458324695 -0.00316656 0.87376277406 88.372872226 -0.00346691 0.84283445682 88.275451543 
-0.00382781 0.80708990119 88.165108099 -0.00425748 0.76596372623 88.040306274 -0.00476345 0.71877297049 87.89963803 
-0.00535111 0.66465516642 87.741335834 -0.00602092 0.60247649106 87.563192509 -0.00676373 0.53069556567 87.363191434 
-0.0075525 0.4471417528 87.138953247 -0.00832789 0.34868849047 86.88820951 -0.00897325 0.23074822922 86.609517771 
-0.00926963 0.086499050908 86.302444949 -0.094303990761 -0.00882023 85.969253491 -0.32712685816 -0.00688707 85.617549858 
-0.63546591362 -0.00224571 85.263658914 -1.0545780727 0.00802835 84.941451073 -1.63920733 0.025363 84.71178733 
-2.4591286908 0.0764931 84.703138691 -3.6861454212 0.0594959 85.031095421 -0.00229945 1.0270534949 88.728506505 
-0.00233223 1.024313694 88.715426306 -0.00238852 1.019689712 88.693560288 -0.00247081 1.0131099768 88.662710023 
-0.00258278 1.0044520706 88.622377929 -0.00272936 0.99360948437 88.572267516 -0.00291692 0.9804202491 88.511783751 
-0.00315358 0.96472539462 88.440333605 -0.00344944 0.94635816106 88.356726839 -0.00381701 0.92514887889 88.260077121 
-0.00427171 0.90092922722 88.148803773 -0.00483243 0.87353779578 88.021234204 -0.00552235 0.8428132822 87.875307718 
-0.0063697 0.80858573613 87.708281264 -0.00740889 0.77065283679 87.516938163 -0.00868144 0.72873501752 87.297301982 
-0.010237 0.68240472047 87.04475828 -0.0121334 0.63095518514 86.753389815 -0.0144358 0.57319103976 86.41633396 
-0.0172107 0.50708793887 86.025279061 -0.0205124 0.42922504231 85.570825958 -0.0243508 0.3338476889 85.041969311 
-0.0286075 0.21130458038 84.42768842 -0.0329139 0.045355572198 83.717722428 -0.19123215098 -0.0359473 82.908032851 
-0.54579029101 -0.0366262 82.007521291 -1.0930731024 -0.0202181 81.067294102 -1.9954028288 -0.0292436 80.167692829 
-0.00242832 1.0470875718 88.684302428 -0.00246778 1.0446901763 88.670509824 -0.00253557 1.0406374697 88.64732253 
-0.00263485 1.0348988405 88.614541159 -0.00277022 1.0274033472 88.571666653 -0.00294794 1.0180696189 88.518300381 
-0.00317623 1.0068257088 88.453744291 -0.00346569 0.99360087661 88.377001123 -0.00382979 0.97834327308 88.286974727 
-0.00428563 0.96103246191 88.182370538 -0.00485487 0.94169174525 88.061196255 -0.00556508 0.92039908968 87.92146291 
-0.00645145 0.89730857299 87.760186427 -0.00755923 0.87265291712 87.573990083 -0.00894704 0.84676067639 87.358608324 
-0.0106915 0.82005518246 87.108592818 -0.0128936 0.7930416734 86.817122327 -0.015688 0.7662821789 86.475418821 
-0.0192555 0.74031714766 86.072774852 -0.0238414 0.71552951088 85.595200489 -0.0297808 0.6918815144 85.024706486 
-0.0375326 0.66842509956 84.3384549 -0.0477288 0.64240207384 83.506441926 -0.0612026 0.60757601704 82.490146983 
-0.0792012 0.55091952654 81.239632473 -0.102404 0.44682241518 79.692579585 -0.136615 0.24185854927 77.769631451 
-0.154454 -0.15348070728 75.412613707 -0.00249449 1.0572397253 88.662000275 -0.00253742 1.0550088882 88.647801112 
-0.00261124 1.0512674493 88.623902551 -0.0027194 1.0459653378 88.590204662 -0.00286703 1.039072445 88.546007555 
-0.0030611 1.0305286123 88.491011388 -0.00331082 1.0203036141 88.424216386 -0.00362812 1.0083771326 88.344822867 
-0.00402831 0.99474571949 88.251531281 -0.00453098 0.97948174147 88.142642259 -0.00516125 0.96270729738 88.016456703 
-0.00595147 0.94463409294 87.870275907 -0.00694355 0.92558225136 87.701001749 -0.00819231 0.90601201782 87.504836982 
-0.00977017 0.88654529272 87.276785707 -0.0117739 0.86799989171 87.010654108 -0.0143347 0.85141832085 86.698351679 
-0.0176324 0.83809574361 86.329693256 -0.021918 0.82960353164 85.891602468 -0.027547 0.82778516074 85.366717839 
-0.0350328 0.83471528472 84.732203715 -0.045129 0.8525653389 83.957570661 -0.0589852 0.88328013508 83.001314865 
-0.0782995 0.92792136241 81.805997638 -0.106301 0.98493592797 80.289914072 -0.145215 1.0487043863 78.336575614 
-0.21791 1.093039281 75.758810719 -0.248787 1.1153210214 72.348038979 -0.00249449 1.0572397253 88.662000275 
-0.00253742 1.0550088882 88.647801112 -0.00261124 1.0512674493 88.623902551 -0.0027194 1.0459653378 88.590204662 
-0.00286703 1.039072445 88.546007555 -0.0030611 1.0305286123 88.491011388 -0.00331082 1.0203036141 88.424216386 
-0.00362812 1.0083771326 88.344822867 -0.00402831 0.99474571949 88.251531281 -0.00453098 0.97948174147 88.142642259 
-0.00516125 0.96270729738 88.016456703 -0.00595147 0.94463409294 87.870275907 -0.00694355 0.92558225136 87.701001749 
-0.00819231 0.90601201782 87.504836982 -0.00977017 0.88654529272 87.276785707 -0.0117739 0.86799989171 87.010654108 
-0.0143347 0.85141832085 86.698351679 -0.0176324 0.83809574361 86.329693256 -0.021918 0.82960353164 85.891602468 
-0.027547 0.82778516074 85.366717839 -0.0350328 0.83471528472 84.732203715 -0.045129 0.8525653389 83.957570661 
-0.0589852 0.88328013508 83.001314865 -0.0782995 0.92792136241 81.805997638 -0.106301 0.98493592797 80.289914072 
-0.145215 1.0487043863 78.336575614 -0.21791 1.093039281 75.758810719 -0.248787 1.1153210214 72.348038979 
-0.00242832 1.0470875718 88.684302428 -0.00246778 1.0446901763 88.670509824 -0.00253557 1.0406374697 88.64732253 
-0.00263485 1.0348988405 88.614541159 -0.00277022 1.0274033472 88.571666653 -0.00294794 1.0180696189 88.518300381 
-0.00317623 1.0068257088 88.453744291 -0.00346569 0.99360087661 88.377001123 -0.00382979 0.97834327308 88.286974727 
-0.00428563 0.96103246191 88.182370538 -0.00485487 0.94169174525 88.061196255 -0.00556508 0.92039908968 87.92146291 
-0.00645145 0.89730857299 87.760186427 -0.00755923 0.87265291712 87.573990083 -0.00894704 0.84676067639 87.358608324 
-0.0106915 0.82005518246 87.108592818 -0.0128936 0.7930416734 86.817122327 -0.015688 0.7662821789 86.475418821 
-0.0192555 0.74031714766 86.072774852 -0.0238414 0.71552951088 85.595200489 -0.0297808 0.6918815144 85.024706486 
-0.0375326 0.66842509956 84.3384549 -0.0477288 0.64240207384 83.506441926 -0.0612026 0.60757601704 82.490146983 
-0.0792012 0.55091952654 81.239632473 -0.102404 0.44682241518 79.692579585 -0.136615 0.24185854927 77.769631451 
-0.154454 -0.15348070728 75.412613707 -0.00229945 1.0270534949 88.728506505 -0.00233223 1.024313694 88.715426306 
-0.00238852 1.019689712 88.693560288 -0.00247081 1.0131099768 88.662710023 -0.00258278 1.0044520706 88.622377929 
-0.00272936 0.99360948437 88.572267516 -0.00291692 0.9804202491 88.511783751 -0.00315358 0.96472539462 88.440333605 
-0.00344944 0.94635816106 88.356726839 -0.00381701 0.92514887889 88.260077121 -0.00427171 0.90092922722 88.148803773 
-0.00483243 0.87353779578 88.021234204 -0.00552235 0.8428132822 87.875307718 -0.0063697 0.80858573613 87.708281264 
-0.00740889 0.77065283679 87.516938163 -0.00868144 0.72873501752 87.297301982 -0.010237 0.68240472047 87.04475828 
-0.0121334 0.63095518514 86.753389815 -0.0144358 0.57319103976 86.41633396 -0.0172107 0.50708793887 86.025279061 
-0.0205124 0.42922504231 85.570825958 -0.0243508 0.3338476889 85.041969311 -0.0286075 0.21130458038 84.42768842 
-0.0329139 0.045355572198 83.717722428 -0.19123215098 -0.0359473 82.908032851 -0.54579029101 -0.0366262 82.007521291 
-1.0930731024 -0.0202181 81.067294102 -1.9954028288 -0.0292436 80.167692829 -0.00211462 0.99765292119 88.793812079 
-0.00213813 0.99444218591 88.781848814 -0.0021784 0.98901324947 88.761811751 -0.00223712 0.98125137264 88.733603627 
-0.00231668 0.97099435773 88.696928642 -0.00242022 0.95804112601 88.651492874 -0.00255171 0.94214711473 88.596904885 
-0.00271597 0.92302637487 88.532776625 -0.00291872 0.90035430465 88.458324695 -0.00316656 0.87376277406 88.372872226 
-0.00346691 0.84283445682 88.275451543 -0.00382781 0.80708990119 88.165108099 -0.00425748 0.76596372623 88.040306274 
-0.00476345 0.71877297049 87.89963803 -0.00535111 0.66465516642 87.741335834 -0.00602092 0.60247649106 87.563192509 
-0.00676373 0.53069556567 87.363191434 -0.0075525 0.4471417528 87.138953247 -0.00832789 0.34868849047 86.88820951 
-0.00897325 0.23074822922 86.609517771 -0.00926963 0.086499050908 86.302444949 -0.094303990761 -0.00882023 85.969253491 
-0.32712685816 -0.00688707 85.617549858 -0.63546591362 -0.00224571 85.263658914 -1.0545780727 0.00802835 84.941451073 
-1.63920733 0.025363 84.71178733 -2.4591286908 0.0764931 84.703138691 -3.6861454212 0.0594959 85.031095421 
-0.00188254 0.95963141363 88.878918586 -0.00189493 0.95585695051 88.868275049 -0.00191605 0.94946143389 88.850571566 
-0.00194661 0.94028501253 88.825711987 -0.00198758 0.92810280681 88.793602193 -0.00204009 0.91262633266 88.753950667 
-0.0021054 0.89350072759 88.706669272 -0.00218473 0.87029753807 88.651574462 -0.00227902 0.84251310258 88.588288897 
-0.00238855 0.80955519936 88.516643801 -0.00251237 0.77072868562 88.436082314 -0.00264733 0.72520575959 88.34636424 
-0.00278663 0.67199505187 88.247072948 -0.00291759 0.60987477569 88.137725224 -0.0030181 0.53731319537 88.018185805 
-0.00305114 0.45234091496 87.888388085 -0.00295616 0.35236841176 87.748765588 -0.0026356 0.23392103148 87.600394969 
-0.00193349 0.092255122778 87.445662877 -0.079190033364 -0.000601854 87.289057533 -0.28957123016 0.00175282 87.13819823 
-0.55173235846 0.00574987 87.005804358 -0.88366549639 0.0123777 86.912994496 -1.3104504633 0.0230686 86.893050463 
-1.865937924 0.0406477 86.999037924 -2.5966462001 0.0651482 87.3086562 -3.5435802471 0.123805 87.961140247 
-4.8364134227 0.0880433 89.030633423 -0.00161798 0.91392259556 88.982325404 -0.00161834 0.90953652725 88.973302473 
-0.00161879 0.90209115578 88.958333844 -0.00161906 0.89137981998 88.93722418 -0.00161866 0.87711143942 88.910180561 
-0.00161674 0.85890885925 88.877213141 -0.00161192 0.83629796594 88.838236034 -0.00160193 0.80870737464 88.793368625 
-0.00158322 0.77544968105 88.742637319 -0.00155026 0.7357109644 88.686278036 -0.00149458 0.68852335132 88.624439649 
-0.00140335 0.63273428462 88.557488715 -0.00125729 0.56694993298 88.485816067 -0.0010276 0.48947613098 88.410345869 
-0.000671469 0.39821070009 88.3321483 -0.000125488 0.29051676751 88.252956232 0.000704041 0.16302478868 88.175589211 
0.00195526 0.01138347938 88.104082521 -0.17009592883 0.00383133 88.044225929 -0.38889412318 0.00662968 88.005006123 
-0.65487030702 0.0107833 87.999248307 -0.9809594255 0.0169092 88.045929425 -1.3838982217 0.0258896 88.172518222 
-1.8848050766 0.0387592 88.417825077 -2.5085043946 0.0574508 88.836474395 -3.2837003513 0.0791378 89.497290351 
-4.2213128377 0.124515 90.499212838 -5.3683246198 0.0675741 91.85980462 -0.00131166 0.86162407308 89.102331927 
-0.00129983 0.85662637675 89.095028623 -0.00127937 0.84813308256 89.082792917 -0.00124913 0.8358932274 89.065929773 
-0.00120727 0.81955028595 89.044446714 -0.00115117 0.79864056247 89.018454438 -0.00107711 0.77258228409 88.988367716 
-0.000979858 0.74066642583 88.954306574 -0.000852132 0.70204004462 88.916897955 -0.000683773 0.65569303889 88.876477961 
-0.000460623 0.60042228188 88.833994718 -0.000162926 0.53479964756 88.790212352 0.000236897 0.45712004384 88.746615956 
0.000777363 0.36533265686 88.704818343 0.00151223 0.25694992692 88.667268073 0.00251643 0.12892620188 88.637159798 
-0.022498041474 0.00389411 88.618744538 -0.20199522529 0.00578928 88.618142225 -0.41538791353 0.00839939 88.643445914 
-0.66992249649 0.0119914 88.705918496 -0.9745307975 0.0169181 88.820656797 -1.3400116071 0.0236253 89.008201607 
-1.778874437 0.0326481 89.295944437 -2.3046739267 0.0444535 89.719363927 -2.9294791887 0.0596835 90.323339189 
-3.6606906369 0.0754775 91.158410637 -4.4821721214 0.102237 92.286182121 -5.4136867407 0.0228876 93.618606741 
-0.000706247 0.74220888457 89.383142115 -0.000674038 0.73618782748 89.379369173 -0.000618797 0.72594064612 89.373083354 
-0.000538096 0.71114352524 89.364588475 -0.000428359 0.69134176184 89.354290238 -0.000284664 0.66593735184 89.342596648 
-0.000100466 0.63418352027 89.33001848 0.000132773 0.59517403139 89.317369969 0.000426088 0.54782841191 89.305469588 
0.000793657 0.49087703815 89.295640962 0.00125364 0.422835134 89.289413866 0.00182922 0.34198671545 89.288425285 
0.00254988 0.24634493027 89.29522007 0.00345289 0.13362575041 89.31265125 0.0012086666669 0.00458487 89.344279233 
-0.1538940477 0.00600325 89.394668048 -0.33506118939 0.00777697 89.469578189 -0.54605640844 0.00998543 89.575952408 
-0.79096397892 0.0127136 89.722591979 -1.0740152978 0.0160396 89.919815298 -1.3992189366 0.0200092 90.180498937 
-1.7696771546 0.0245857 90.519097155 -2.1863201713 0.0295632 90.951850171 -2.6458775857 0.0344222 91.495117586 
-3.1375743705 0.038081 92.162934371 -3.6381480651 0.0387024 92.962428065 -4.1086572595 0.0303969 93.879367259 
-4.4740885697 0.0212124 94.88486857 -0.000432462 0.67754283633 89.539645164 -0.000393385 0.67119088504 89.537481115 
-0.000326497 0.6603777362 89.534009264 -0.000229087 0.64475893614 89.529632064 -9.72109e-05 0.62384682758 89.524553172 
7.44644e-05 0.59700835363 89.519377646 0.000292872 0.56345177275 89.514812227 0.000566824 0.52222038446 89.511765616 
0.000907354 0.47218620512 89.511248795 0.00132814 0.41203279693 89.514675203 0.001846 0.3402430904 89.52366091 
0.00248138 0.25509269885 89.540324301 0.00325891 0.15463272409 89.567185276 0.00420773 0.03668504705 89.607263453 
-0.10115400565 0.00536139 89.664374706 -0.26149406635 0.00675699 89.743025066 -0.44709827632 0.00843258 89.848701276 
-0.66077975992 0.0104217 89.98775676 -0.90520562568 0.012743 90.167788626 -1.1825625528 0.0153813 90.397412553 
-1.4939997176 0.0182565 90.686329718 -1.83873063 0.0211733 91.04430063 -2.2126893664 0.0237439 91.480949366 
-2.6064334431 0.0252945 92.003333443 -3.0023756804 0.0247061 92.61375568 -3.3712186158 0.0204268 93.304998616 
-3.6656374333 0.0119864 94.059787433 -3.8254518387 -0.00120219 94.849681839 -0.000158883 0.61110730851 89.704246691 
-0.000115481 0.60458609082 89.703586909 -4.13203e-05 0.59348289743 89.702721103 6.6389e-05 0.57744296391 89.701950036 
0.000211649 0.55596513243 89.701774868 0.000399776 0.5283998524 89.702597148 0.000637526 0.49393809968 89.7052189 
0.000933239 0.45161042392 89.710642576 0.001297 0.40028305132 89.719970949 0.00174081 0.3386461256 89.734606874 
0.00227864 0.26521933672 89.756352663 0.00292647 0.17834679884 89.787409201 0.00370205 0.076209937249 89.830074263 
-0.043151637317 0.00462419 89.887539837 -0.18180233574 0.00571142 89.963288336 -0.341842697 0.00697932 90.061486697 
-0.52529129281 0.00843591 90.187079293 -0.73390551567 0.010074 90.345276516 -0.96889837985 0.0118588 90.54224638 
-1.2305030234 0.0137094 90.784403023 -1.5173464072 0.0154711 91.078106407 -1.8255018939 0.0168793 91.428981894 
-2.1472274026 0.0175178 91.840877403 -2.4692384955 0.0167814 92.314388495 -2.7705657594 0.0139051 92.844575759 
-3.0200258703 0.00828444 93.41926587 -3.1755214577 -0.000870103 94.016961458 -3.1855318997 -0.0143522 94.6006019 
8.96199e-05 0.54399526095 89.874646739 0.000134365 0.53748324091 89.875386759 0.000210707 0.52639454177 89.876919458 
0.00032132 0.51037619479 89.879543805 0.000469989 0.48892870897 89.883558291 0.000661646 0.46140615277 89.889660847 
0.000902399 0.42701031632 89.898548684 0.00119955 0.38479389674 89.911118103 0.00156155 0.33365288668 89.928664113 
0.00199791 0.272335115 89.952479885 0.00251896 0.19944604324 89.984255957 0.00313537 0.11346191877 90.026179081 
0.00385732 0.012762364798 90.080330535 -0.10433058484 0.00469313 90.149683885 -0.23947809653 0.00564704 90.237302097 
-0.39421803588 0.00671564 90.346834036 -0.56980888045 0.00788263 90.48221088 -0.76699711898 0.00911095 90.647743119 
-0.9856879335 0.0103318 90.847820934 -1.2244906885 0.0114299 91.086420689 -1.4800642787 0.0122258 91.367324279 
-1.7463206801 0.0124575 91.69266068 -2.0133285143 0.0117692 92.062178514 -2.2660679227 0.0097269 92.472257923 
-2.4830840186 0.00588969 92.914154019 -2.635493384 -0.000139931 93.373233384 -2.6870307208 -0.00879399 93.826420721 
-2.592216206 -0.0200325 94.242406206 0.000314648 0.47723355927 90.048845441 0.000357759 0.47091376694 90.050981233 
0.000431221 0.46015323324 90.054605767 0.000537445 0.44460970891 90.060116291 0.000679794 0.42379921804 90.067908782 
0.000862557 0.39710218812 90.078477812 0.00109089 0.363753741 90.092616259 0.00137071 0.32285494965 90.11111505 
0.00170849 0.27336833844 90.135162662 0.00211098 0.2141343949 90.165944605 0.00258465 0.1438833193 90.205142681 
0.00313493 0.061263995256 90.254434105 -0.035111819835 0.00376502 90.31599042 -0.1466083723 0.00447412 90.392076372 
-0.27447387581 0.00525485 90.485448876 -0.41970447343 0.00608965 90.599056473 -0.58287023181 0.00694585 90.735740232 
-0.76385308886 0.00776911 90.898637089 -0.96152017548 0.00847544 91.090488175 -1.1732848021 0.00894207 91.313754802 
-1.3945161451 0.00899933 91.569646145 -1.6179222953 0.00842695 91.857762295 -1.8326937333 0.00696209 92.175253733 
-2.0237311915 0.00432818 92.516191191 -2.1710054602 0.000278577 92.87032546 -2.2492652419 -0.00535358 93.222595242 
-2.2281243265 -0.0125356 93.552414326 -2.0732892143 -0.0206989 93.834739214 0.000516975 0.41175401349 90.225042987 
0.000555605 0.40580386982 90.22817113 0.00062137 0.39567104582 90.233681954 0.000716317 0.38103476853 90.241771231 
0.000843253 0.36144314825 90.252732852 0.00100567 0.33631440302 90.267158597 0.00120761 0.30494108063 90.285537919 
0.00145349 0.26649343161 90.308757568 0.00174776 0.22002668963 90.33780131 0.00209448 0.16449853422 90.373649466 
0.00249663 0.098787454191 90.417678546 0.00295515 0.021735949778 90.47146095 -0.067802196979 0.00346762 90.536564797 
-0.17088521069 0.00402641 90.615054211 -0.28837730725 0.00461621 90.708990307 -0.42080842914 0.00521088 90.820333429 
-0.56818353724 0.00576948 90.951347537 -0.72973685005 0.00623173 91.10390785 -0.90361306651 0.00651327 91.279513067 
-1.0864839926 0.0065018 91.479003993 -1.2730894404 0.00605615 91.70188944 -1.4557288315 0.00501144 91.946278832 
-1.6237270591 0.00319441 92.207817059 -1.7630200382 0.000451033 92.479610038 -1.8559396598 -0.00331002 92.75131966 
-1.8813952439 -0.00806247 93.009295244 -1.8156403152 -0.0134773 93.236600315 -1.6344009959 -0.0191551 93.414100996 
0.000700996 0.34840141285 90.401039587 0.000732578 0.34297768216 90.405257318 0.000786323 0.33374192722 90.412350073 
0.00086385 0.32040045179 90.422712548 0.000967337 0.30254288846 90.436437112 0.00109941 0.27964239685 90.454013603 
0.00126299 0.25106187972 90.47602912 0.00146101 0.21605920683 90.502967793 0.00169608 0.17379743084 90.535610569 
0.00196996 0.12336586064 90.574835139 0.0022828 0.063805851171 90.621715949 -0.0058472351041 0.00263221 90.677324625 
-0.086507292456 0.00301194 90.743130792 -0.17895661114 0.00341019 90.820403611 -0.28373953758 0.00380754 90.910514538 
-0.40101754948 0.0041745 91.015041549 -0.5303936485 0.00446881 91.135075649 -0.67067717415 0.00463281 91.271730174 
-0.81961452915 0.00459158 91.425353529 -0.97356738261 0.00425289 91.595645383 -1.127165338 0.00351065 91.781175338 
-1.27293076 0.00225402 91.97890076 -1.4010372506 0.000384245 92.184077251 -1.4990502756 -0.00215931 92.389750276 
-1.5521215929 -0.00535927 92.586511593 -1.5433914294 -0.0090773 92.762901429 -1.4551410407 -0.012917 92.905741041 
-1.2710535914 -0.0166429 93.001303591 0.000873732 0.28794955303 90.575035447 0.000896097 0.28318136607 90.580240634 
0.000934176 0.27506192385 90.588912076 0.000989128 0.26333113936 90.601243861 0.00106247 0.24762847013 90.61752753 
0.00115598 0.22749108676 90.637951913 0.00127147 0.20236302647 90.662802974 0.00141058 0.17160128932 90.692663711 
0.00157434 0.13448683678 90.728014163 0.00176274 0.090248300869 90.769431599 0.00197397 0.03808694326 90.817691057 
-0.022778122568 0.00220356 90.873366323 -0.093052863967 0.00244327 90.937531564 -0.17329096149 0.00267969 91.010863961 
-0.26378847879 0.00289269 91.094347479 -0.36445525159 0.00305376 91.188578252 -0.47464872354 0.00312443 91.294071724 
-0.59297875416 0.00305534 91.411171754 -0.71707537774 0.0027863 91.539361378 -0.84334223808 0.00224857 91.677474238 
-0.96670333973 0.00137037 91.82360434 -1.0803801935 8.68916e-05 91.974210193 -1.1757368622 -0.00164389 92.124706862 
-1.2423272917 -0.0038194 92.268537292 -1.2681133894 -0.00636098 92.398013389 -1.2401697439 -0.00909592 92.503919744 
-1.1457023685 -0.0116383 92.576582368 -0.97424415603 -0.0139433 92.606425156 0.00104459 0.23113425135 90.745230749 
0.00105605 0.22711318137 90.751321819 0.00107565 0.22026434987 90.76146965 0.00110406 0.21036776267 90.775868237 
0.00114213 0.19711599585 90.794409004 0.00119079 0.18011928286 90.817480717 0.00125085 0.15890861342 90.845169387 
0.00132282 0.13294370532 90.877658295 0.0014065 0.1016298345 90.915128165 0.00150062 0.064331048473 90.958057652 
0.00160222 0.020403009961 91.00672419 -0.030768740007 0.00170596 91.06140544 -0.089714799801 0.0018032 91.1225815 
-0.15681002037 0.00188109 91.19043802 -0.23218259099 0.00192146 91.265370591 -0.31559523063 0.0018999 91.347390231 
-0.40630924657 0.00178517 91.436430247 -0.50291792681 0.00153927 91.531853927 -0.60316926958 0.0011188 91.63286227 
-0.7037751921 0.000478196 91.737700192 -0.80024154684 -0.000424361 91.844058547 -0.88673913816 -0.00161773 91.948568138 
-0.95606979487 -0.00310477 92.046880795 -0.99977633805 -0.00484618 92.133632338 -1.0084877225 -0.0067394 92.202383722 
-0.97256739249 -0.00861774 92.246541392 -0.8830891469 -0.0101455 92.259167147 -0.73360643098 -0.0114394 92.234403431 
0.00122475 0.17868334825 90.909625652 0.00122422 0.17545749782 90.916601502 0.00122347 0.16996078556 90.928424214 
0.0012227 0.16201283221 90.944788168 0.00122207 0.15136664581 90.965985354 0.00122168 0.13770465082 90.991805349 
0.00122142 0.12064875708 91.022235243 0.00122076 0.099766197804 91.057359802 0.00121856 0.074578075376 91.097061725 
0.00121273 0.044583506394 91.141522294 0.00119978 0.0092789661675 91.190422434 -0.031804568942 0.00117441 91.243844369 
-0.079055417753 0.00112884 91.301674018 -0.13271931785 0.00105231 91.363604318 -0.19282245613 0.000930445 91.429439456 
-0.25907407975 0.000744969 91.49860008 -0.33075807624 0.000473713 91.570429076 -0.40659647954 9.13855e-05 91.64389748 
-0.48462018271 -0.000428595 91.717409183 -0.56202984812 -0.00111075 91.789202848 -0.63508650404 -0.00197226 91.856748504 
-0.69904674578 -0.00301556 91.916935746 -0.74818547639 -0.00421876 91.965950476 -0.77595370204 -0.00552532 91.999337702 
-0.77531086934 -0.00683101 92.012550869 -0.73930821157 -0.00799514 92.000793212 -0.66186837655 -0.00873842 91.959961377 
-0.53922365998 -0.00931617 91.88661766 0.00142701 0.1313716933 91.066120307 0.00141405 0.12893772167 91.074280278 
0.00139222 0.12478994816 91.087777052 0.00136117 0.11878919713 91.106605803 0.00132036 0.11074530983 91.13055969 
0.00126903 0.10041519867 91.159529801 0.00120612 0.087508607958 91.193305192 0.00113015 0.071694990923 91.231673009 
0.00103913 0.052611839536 91.27421886 0.000930368 0.029880054877 91.320627445 0.000800236 0.0031234501824 91.37048366 
-0.02800241016 0.000643964 91.42337421 -0.06377291113 0.000455368 91.478489911 -0.10434573547 0.000226638 91.535128735 
-0.14969962328 -5.17782e-05 91.592599623 -0.19955988137 -0.00039107 91.649726881 -0.25331276097 -0.000803582 91.705154761 
-0.30990856089 -0.00130176 91.757451561 -0.36776103992 -0.00189628 91.80471204 -0.42465953655 -0.00259316 91.844856537 
-0.4776957875 -0.00338963 91.875224787 -0.52323826636 -0.00426897 91.893162266 -0.55698231994 -0.00519437 91.89529732 
-0.57409782289 -0.00610354 91.878508823 -0.56952357214 -0.0069015 91.839386572 -0.53842777792 -0.00747893 91.775090778 
-0.47678617028 -0.00760579 91.68362217 -0.38253652126 -0.00766016 91.563717521 0.00166254 0.090058714256 91.212614886 
0.00163736 0.088366487393 91.222058813 0.00159478 0.08548022388 91.237629576 0.00153384 0.081301538719 91.259323461 
0.00145322 0.075694102818 91.286735197 0.0013512 0.068485066944 91.319657933 0.00122568 0.059467935174 91.357583265 
0.00107415 0.048407637389 91.400201363 0.000893679 0.035047004642 91.446701295 0.000680928 0.019118097583 91.496471602 
0.0003568358071 0.000432136 91.548801214 -0.021476134509 0.000143145 91.602580835 -0.046568073159 -0.000190523 91.656804873 
-0.075018544364 -0.000573524 91.710173944 -0.1067949184 -0.00101041 91.761197918 -0.14167932863 -0.00150515 91.808199329 
-0.17920775697 -0.00206037 91.849516757 -0.21860248309 -0.00267613 91.882907483 -0.25870345816 -0.00334837 91.906248458 
-0.29791023841 -0.00406658 91.917034238 -0.33413939778 -0.00481114 91.912770398 -0.36481899134 -0.00555027 91.890660991 
-0.38693438228 -0.00623696 91.848289382 -0.39715192313 -0.00680765 91.783092923 -0.39204145557 -0.00717883 91.693134456 
-0.36840955338 -0.00727083 91.576976553 -0.32368149824 -0.00688707 91.434466498 -0.25685565192 -0.00652534 91.266143652 
0.00195532 0.055761167936 91.346509632 0.00191952 0.054709654069 91.357538046 0.00185877 0.052914914877 91.375783785 
0.00177145 0.050313807853 91.400944392 0.00165533 0.04681892338 91.432616377 0.00150759 0.042319310548 91.470595189 
0.00132486 0.036682548772 91.513975251 0.00110333 0.029757668409 91.562350032 0.000838832 0.021379809742 91.61461229 
0.000526998 0.011377536863 91.669854463 -0.00041820925995 0.000163475 91.726969329 -0.014159712347 -0.00025579 91.784351012 
-0.029965109267 -0.00073416 91.840496309 -0.04789520168 -0.00127381 91.893506502 -0.067924541972 -0.00187504 91.941489442 
-0.0899075189 -0.00253549 91.982061919 -0.11353889937 -0.00324903 92.012751899 -0.13831114514 -0.00400457 92.031000145 
-0.16347252211 -0.00478456 92.034060522 -0.18799202244 -0.00556349 92.019098022 -0.21053352169 -0.00630631 91.983183522 
-0.22945840557 -0.00696731 91.923884406 -0.24285985418 -0.00748962 91.838850854 -0.24865145843 -0.00780676 91.726198458 
-0.24470772427 -0.00784259 91.584989724 -0.22909154732 -0.00754052 91.415318547 -0.20023713044 -0.00672342 91.21820413 
-0.15777490601 -0.00600441 90.995999906 0.00224894 0.02962956973 91.46520493 0.00220192 0.029071724297 91.478119476 
0.00212193 0.028118805726 91.499442894 0.00200659 0.026735968896 91.528873931 0.00185261 0.024875202638 91.566010797 
0.00165583 0.022475443161 91.610351157 0.00141138 0.019463471621 91.660992128 0.00111376 0.015756274633 91.717130325 
0.000757114 0.011262817207 91.777561983 0.000335496 0.0058882851839 91.841083155 -0.0004604468338 -0.000156702 91.905990079 
-0.0078675358793 -0.000724196 91.970579696 -0.016398103187 -0.00137009 92.032650403 -0.026085208518 -0.00209499 92.089903009 
-0.036914304873 -0.00289591 92.139541905 -0.048803945519 -0.00376496 92.178776346 -0.061584364722 -0.00468799 92.204221665 
-0.074974150707 -0.00564301 92.212700151 -0.088557754978 -0.00659877 92.200641155 -0.10176592269 -0.00751359 92.164579923 
-0.11386459656 -0.00833473 92.101354597 -0.1239579393 -0.00899865 92.008000939 -0.13100669207 -0.00943257 91.882244692 
-0.13388412882 -0.00955881 91.722492129 -0.13145006714 -0.00929533 91.528420067 -0.12268497212 -0.00859673 91.301067972 
-0.10675243064 -0.00728769 91.042835431 -0.083621117069 -0.0061394 90.757688517 0.00296229 0.013406301964 91.565401398 
0.00292338 0.013172775863 91.580705524 0.00285636 0.012772827338 91.605912173 0.00275798 0.01219020552 91.640620994 
0.00262371 0.011402609669 91.68453149 0.00244779 0.010381295874 91.736943004 0.00222329 0.0090920476358 91.796854722 
0.00194224 0.0074957156383 91.863265684 0.00159587 0.0055491883665 91.934974812 0.00117488 0.0032073131142 92.010280967 
0.00042528951546 0.000670011 92.087283054 -0.0028378232787 7.26225e-05 92.163780173 -0.0066144332147 -0.000624348 92.237071833 
-0.010922441586 -0.00142524 92.304358242 -0.015757651646 -0.00233023 92.362140652 -0.021085050057 -0.00333361 92.40682175 
-0.026828231993 -0.00442184 92.434306032 -0.032859276585 -0.00557155 92.440200077 -0.038987698385 -0.00674757 92.420212598 
-0.044952114815 -0.00790142 92.369854115 -0.050415558962 -0.0089706 92.285036059 -0.054967801209 -0.00987917 92.161969201 
-0.058136544684 -0.0105401 91.997961345 -0.059412450187 -0.0108608 91.79101445 -0.058285202672 -0.0107454 91.541221603 
-0.054312742765 -0.0101341 91.249764643 -0.047077059567 -0.00882463 90.92071316 -0.036972924987 -0.0078035 90.559027025 
-0.0061350545371 -0.0025588 89.756463915 -0.014378019656 -0.00111995 90.11934256 -0.030180714042 -0.00213983 90.484587614 
-0.05397232546 -0.00333442 90.855836925 -0.090830566908 -0.00506085 91.237029967 -0.14787642459 -0.00736483 91.634437425 
-0.23485067593 -0.0104261 92.055095676 -0.36463069151 -0.014473 92.507482692 -0.55406007214 -0.0197768 93.000909072 
-0.82484011577 -0.0265946 93.544698116 -1.2041620984 -0.0350258 94.146782098 -1.7245120155 -0.0447431 94.810412016 
-2.4199924451 -0.0536749 95.527942445 -3.3216047757 -0.0606399 96.264274776 -4.3454850269 -0.00574455 96.977195027 
0.00162836 0.013560542532 89.338807557 0.00271579 0.029251954046 89.783968546 0.0010589 0.050649760146 90.20954184 
-0.000310686 0.075589283342 90.625077517 -0.00202281 0.098060522515 91.039332477 -0.00416609 0.1109609745 91.461913026 
-0.00701295 0.10499858497 91.903427415 -0.0109206 0.06778815361 92.376081846 -0.017578559285 -0.0163747 92.893675059 
-0.17442496002 -0.0240264 93.47215096 -0.43468303371 -0.0345352 94.129576034 -0.84143514897 -0.0490132 94.883816149 
-1.4467282233 -0.0644766 95.750528223 -2.3148276253 -0.0914958 96.724377625 -3.4575505936 -0.0495976 97.788700594 
0.00505052 0.033454826493 88.934378374 0.00596525 0.074353255661 89.457116844 0.00389076 0.13465969915 89.937606301 
0.00256968 0.21115627044 90.39174173 0.00117616 0.29752495561 90.832188044 -0.000394908 0.38774077841 91.271564222 
-0.00243749 0.4745838589 91.723132141 -0.0053346 0.54857620302 92.201435797 -0.00964565 0.59628148465 92.723444515 
-0.0162059 0.59786510709 93.309865893 -0.026165 0.52366315209 93.986458848 -0.0415879 0.32893686238 94.784539138 
-0.0621159 -0.0493280475 95.742265447 -0.71876295503 -0.106653 96.887006955 -1.738665831 -0.0807495 98.297475831 
0.00838938 0.052445955513 88.559505644 0.00916245 0.11752781552 89.151781184 0.0067606 0.21529439308 89.680541607 
0.00559984 0.34178705046 90.16743495 0.00468822 0.49104283782 90.628300162 0.00394803 0.65898468054 91.078108319 
0.00312687 0.84180500047 91.531492 0.00192285 1.0350521011 92.004127899 -0.000117665 1.2321541144 92.514245886 
-0.00374347 1.4222379101 93.08454209 -0.010105 1.5866161063 93.745063894 -0.0218183 1.6923786982 94.535361302 
-0.0399896 1.6844272521 95.511062748 -0.0873059 1.4528877852 96.737012215 -0.0759539 0.90482834676 98.357191653 
0.0112065 0.068707568591 88.228249031 0.0118791 0.15472004092 88.879558959 0.00926293 0.28497271507 89.449410285 
0.00833091 0.45509379594 89.963793204 0.00796865 0.65985213979 90.44127986 0.00815329 0.89754104746 90.898121953 
0.00872437 1.1683760497 91.34941395 0.00954682 1.4740234135 91.810996587 0.0104265 1.8168003631 92.300499637 
0.0110104 2.1986093457 92.840320654 0.0106582 2.6189678937 93.460352106 0.00764003 3.0706216555 94.202748344 
0.000727999 3.5331406683 95.130789332 -0.0266638 3.9464406483 96.333069352 -0.0238453 4.2398059186 97.983334081 
0.0132389 0.080633027054 87.952786773 0.013877 0.18221859585 88.650709404 0.0111361 0.3366363042 89.253899696 
0.010424 0.53936257693 89.791670423 0.0105403 0.78595364937 90.283999351 0.0115219 1.0768444107 90.747975589 
0.0133101 1.4158600315 91.198679968 0.015955 1.8102406084 91.651189392 0.0195714 2.2707655849 92.122004415 
0.0243297 2.8121400876 92.631409912 0.0304224 3.4535632624 93.206786738 0.0379237 4.2190679863 93.887922014 
0.0467138 5.1370980773 94.735791923 0.0543953 6.2359310081 95.847138992 0.0614041 7.5361373326 97.387442667 
0.0142669 0.086971103473 87.741895697 0.0149465 0.19711861208 88.472688388 0.0121566 0.36475040534 89.101497595 
0.0115876 0.58536175228 89.659339248 0.0119883 0.85502435126 90.166795649 0.0134352 1.1754704602 90.64119954 
0.0159356 1.5527146613 91.097525339 0.0196614 1.9973347785 91.550085222 0.0249358 2.5253203654 92.014129635 
0.0323038 3.1594963975 92.508453603 0.0425831 3.9320662385 93.058013762 0.0573342 4.8888463751 93.699263625 
0.0774819 6.0947081821 94.488031818 0.113495 7.6507583537 95.520161646 0.129084 9.6717837425 96.937716257 
0.0141744 0.087037645084 87.600330655 0.0149779 0.19781398223 88.349480018 0.0122037 0.36624593181 88.996359068 
0.0116608 0.58794907338 89.571569927 0.0120781 0.85904908058 90.095721919 0.0135355 1.1813590847 90.585940915 
0.0160405 1.560945952 91.056874048 0.0197661 2.0084880365 91.522791964 0.0250369 2.5399990002 91.998791 
0.0324004 3.1783718699 92.50349813 0.0426784 3.9558865166 93.061883483 0.0574379 4.9184999082 93.710290092 
0.0776075 6.1312798449 94.504300155 0.113702 7.6956582793 95.539781721 0.129281 9.7269404225 96.958429577 
0.0129637 0.080826281648 87.527810618 0.0139741 0.18426989797 88.281250102 0.0112806 0.34105127596 88.938714724 
0.0106466 0.5470146438 89.528975356 0.0108122 0.79786609939 90.071595901 0.0118248 1.0942655497 90.58295445 
0.0136258 1.4402254308 91.077764569 0.0162684 1.8431599183 91.570600082 0.0198713 2.31395848 92.07753152 
0.0246114 2.8674714336 92.618588566 0.0306911 3.52302585 93.22117415 0.038203 4.3048436322 93.924876368 
0.0470348 5.2416636716 94.790266328 0.0548942 6.362253443 95.914466557 0.0617974 7.6874534455 97.462556555 
0.0107558 0.069011714178 87.519816486 0.0120521 0.15803246068 88.264338539 0.00951463 0.2921191008 88.925254899 
0.00871234 0.46751390037 89.5277831 0.00843077 0.67922324164 90.089553758 0.00866469 0.92587378614 90.626028214 
0.00925375 1.2079597468 91.151430253 0.0100674 1.5273198712 91.680790129 0.010917 1.8864112536 92.231508746 
0.0114571 2.2871635282 92.825656472 0.0110588 2.7290240414 93.492925959 0.00801433 3.2046588216 94.275751178 
0.00111017 3.6934432054 95.237666795 -0.0261341 4.1349220225 96.468017978 -0.0236492 4.4570062617 98.141853738 
0.0077722 0.052841427362 87.567501073 0.00942519 0.12196985392 88.291592146 0.00713424 0.22491180651 88.949093193 
0.00615469 0.35858056481 89.560541435 0.00535322 0.51731469909 90.140621301 0.00467768 0.69745231237 90.702963688 
0.00387574 0.89547732077 91.261072679 0.00265118 1.1070841421 91.829965858 0.000556147 1.3256954256 92.427424574 
-0.00315113 1.5402200813 93.076049919 -0.00961531 1.7315582399 93.80580176 -0.0214345 1.8661163614 94.657143639 
-0.0397081 1.8877705388 95.686579461 -0.0869402 1.6852262605 96.960843739 -0.0762358 1.1624705212 98.625849479 
0.00429663 0.033938502568 87.658606897 0.00635582 0.079801101168 88.353123299 0.00442285 0.14649632066 89.001079679 
0.00332996 0.23195744487 89.617406555 0.00207048 0.33022679865 90.212810201 0.00057354 0.43573315671 90.798544843 
-0.00145518 0.54151768092 91.386419319 -0.00439194 0.63814751712 91.990310483 -0.00878966 0.71197369146 92.626765309 
-0.0154782 0.74265768116 93.316567319 -0.0256036 0.69969564645 94.085817354 -0.0412402 0.53706509026 94.96683291 
-0.0620443 0.18982188803 95.999579112 -0.45171804023 -0.106654 97.21430504 -1.4504204628 -0.0815245 98.691780463 
0.00065962 0.014083933533 87.779084766 0.00319343 0.035579369121 88.437570931 0.00171783 0.06449289025 89.07101731 
0.000632826 0.10017436945 89.687629631 -0.000911899 0.1370111088 90.293700891 -0.00296444 0.16836459979 90.8972584 
-0.00579824 0.18514120526 91.507445795 -0.00976192 0.17486544791 92.135604552 -0.0153332 0.12020659524 92.795231405 
-0.0231549 -0.0029433843797 93.502586284 -0.22769594736 -0.033888 94.276224947 -0.59876405794 -0.0486297 95.135433058 
-1.1705289363 -0.0645744 96.097858936 -2.0105939954 -0.0919152 97.160603995 -3.1334465819 -0.051648 98.311666582 
-0.0052335088035 -0.00310153 87.913406499 -0.0069962724658 -2.51341e-05 88.533143002 -0.014159924073 -0.000924866 89.148340324 
-0.025313190705 -0.00186011 89.760775091 -0.045126922959 -0.00346403 90.371803923 -0.08024436891 -0.00573413 90.985497769 
-0.14027116482 -0.00884958 91.607607165 -0.23831301234 -0.0130277 92.245727012 -0.39183060257 -0.0185289 92.908743603 
-0.62353102115 -0.0255992 93.606360021 -0.96198988648 -0.034326 94.347519886 -1.4414053125 -0.044381 95.136825312 
-2.09794168 -0.053676 95.96840168 -2.9649130372 -0.0612005 96.809513037 -3.9689718925 -0.0100387 97.617691892 
-0.035569398638 -0.00840662 88.163396699 -0.074142366314 -0.00454297 88.710903966 -0.13674479139 -0.00426889 89.287134791 
-0.21828971537 -0.00444891 89.881441715 -0.31988928235 -0.00544156 90.486014282 -0.44542488439 -0.00707883 91.096331884 
-0.60158189674 -0.00930513 91.710139897 -0.79739035427 -0.012016 92.325941354 -1.0436940776 -0.015009 92.941914078 
-1.3521576014 -0.0178819 93.554187601 -1.733419735 -0.019837 94.153149735 -2.1937638464 -0.0196047 94.719703846 
-2.7293533324 -0.0144134 95.218943332 -3.3146203915 -0.00182067 95.592300391 -3.9114651547 0.0205653 95.737375155 
-0.045343682926 -0.00989612 88.257010583 -0.095656884854 -0.00574184 88.776938585 -0.17565110708 -0.0049352 89.336173107 
-0.27818702991 -0.00466447 89.91947703 -0.40233840341 -0.00517634 90.514729403 -0.54989426112 -0.00625418 91.113800261 
-0.72508306391 -0.00775406 91.710145064 -0.93375430612 -0.00946567 92.298421306 -1.1824042185 -0.0110667 92.872044219 
-1.4767454398 -0.0120302 93.42161544 -1.8194268349 -0.0115477 93.931476835 -2.2067607677 -0.0083105 94.376550768 
-2.6238469091 -0.00089808 94.716686909 -3.043880731 0.011574 94.889390731 -3.4191344368 0.0297483 94.818914437 
-0.051686771321 -0.0110574 88.321039171 -0.10919827429 -0.00655697 88.821619274 -0.19946506145 -0.00525109 89.368098061 
-0.31353135836 -0.00452548 89.941056358 -0.4484139576 -0.0045465 90.525177958 -0.60372999933 -0.00505023 91.108644999 
-0.7811562454 -0.00582842 91.681949245 -0.98339809052 -0.00660258 92.236128091 -1.2130020898 -0.00699248 92.76094209 
-1.4707674048 -0.0064691 93.243117405 -1.7536866081 -0.0043066 93.663676608 -2.0522899826 0.000339302 93.994659983 
-2.3483540746 0.00822456 94.196074075 -2.6118601151 0.0198944 94.213990115 -2.7936490276 0.0375831 93.981269028 
-0.054471896085 -0.0115109 88.351202496 -0.11478349041 -0.0067431 88.84250749 -0.20838756057 -0.00502619 89.381811561 
-0.32482470122 -0.00387871 89.946911701 -0.45929677506 -0.00343113 90.519605775 -0.60941508657 -0.00339422 91.085600087 
-0.77455580147 -0.00352787 91.632630801 -0.95473120869 -0.00353132 92.149209209 -1.1493726983 -0.00303279 92.622802698 
-1.3558511614 -0.00157151 93.038061161 -1.5677668722 0.00138107 93.374586872 -1.773154925 0.00634554 93.605314925 
-1.9526242788 0.0137372 93.694114279 -2.0771964844 0.0239261 93.595736484 -2.1078943462 0.036702 93.253594346 
-0.053973478473 -0.0113729 88.345010278 -0.11295005157 -0.00636448 88.838831052 -0.20346203701 -0.00434739 89.378153037 
-0.31384841412 -0.00284849 89.939279414 -0.43788184915 -0.00200818 90.502024849 -0.57153390592 -0.00153009 91.050222906 
-0.71235147122 -0.00116863 91.570048471 -0.85833930858 -0.000632448 92.048362309 -1.006812628 0.000408284 92.471382628 
-1.153141183 0.00231514 92.823481183 -1.2894262257 0.00544694 93.084986226 -1.4032164079 0.0100956 93.231446408 
-1.4764383104 0.0164204 93.23256831 -1.4848813089 0.0242317 93.052091309 -1.3991949136 0.0327219 92.649104914 
-0.050534208375 -0.0106991 88.303061008 -0.10445350744 -0.00546576 88.811681507 -0.18610226742 -0.00326374 89.359497267 
-0.2829517108 -0.0015081 89.921803711 -0.38779001986 -0.000383465 90.47743102 -0.49543782865 0.000400865 91.009237829 
-0.6022107252 0.00107796 91.502525725 -0.70487317789 0.00191282 91.943576178 -0.79961922364 0.00318066 92.318907224 
-0.88104571395 0.00514961 92.613538714 -0.94117306359 0.00804292 92.810141064 -0.9686473232 0.0119813 92.888022323 
-0.94833475349 0.0168956 92.823385753 -0.86169868503 0.0223373 92.589771685 -0.688346129 0.0274624 92.160621129 
-0.044543894408 -0.00956292 88.228043494 -0.090124823629 -0.00410239 88.764419724 -0.15784578167 -0.00182868 89.329866782 
-0.23461747437 7.7534e-05 89.899360474 -0.31272926011 0.00135965 90.45174526 -0.38639479518 0.00229826 90.969501795 
-0.4513414866 0.00310563 91.437946487 -0.50385256477 0.00401564 91.844157565 -0.5398978301 0.00525191 92.17561783 
-0.55430152688 0.0070058 92.419056527 -0.54005161296 0.00939955 92.560363613 -0.48788213641 0.012433 92.583438136 
-0.38629309882 0.0159144 92.471127099 -0.22232389972 0.0193409 92.2060159 0.016829394343 0.0220013 91.773375306 
-0.036372301584 -0.00803154 88.124539902 -0.070742093935 -0.00232295 88.701786394 -0.12010596229 -8.3365e-05 89.294352962 
-0.1710980402 0.00186364 89.87779204 -0.21599423499 0.00316901 90.431165235 -0.24895544962 0.0041062 90.93777445 
-0.26576120956 0.00486688 91.38384221 -0.26292939963 0.0056582 91.7578274 -0.23696385817 0.00666294 92.049158858 
-0.18368968381 0.00801647 92.247264684 -0.097769929943 0.0097735 92.34167083 0.0118666 0.027473856318 92.321139744 
0.0140645 0.19980941871 92.174724581 0.015903 0.42722331373 91.892931686 0.0168516 0.71647897281 91.469825027 
-0.02632408615 -0.0061595 87.999129386 -0.046928347956 -0.000163219 88.630314648 -0.074001026526 0.00194645 89.259440627 
-0.094146003936 0.00382493 89.863445804 -0.10010298411 0.00501743 90.422318284 -0.086527651079 0.00579992 90.920683451 
-0.04986456785 0.00635068 91.346763768 0.00686045 0.012491090893 91.690887809 0.00748577 0.10286486779 91.945322132 
0.00832704 0.22386401601 92.102798984 0.00940131 0.37872840669 92.156613593 0.0106145 0.5713832904 92.10056971 
0.011743 0.80610917494 91.929261825 0.0123973 1.086726763 91.639503237 0.0122123 1.4154079579 91.232042042 
-0.014602202679 -0.00398094 87.860191703 -0.019080056917 0.00235978 88.557842757 -0.020223898514 0.00425289 89.232833099 
-0.0048309759895 0.00595384 89.863812666 0.00689576 0.033435170108 90.43221223 0.00737296 0.098883595111 90.924883405 
0.00756329 0.19381737981 91.33234062 0.0076553 0.31938673673 91.648170263 0.00779493 0.47622596161 91.867670038 
0.0080661 0.66497019019 91.98738481 0.00847028 0.88654769418 92.004912306 0.00891128 1.1421878385 91.918462162 
0.00919358 1.4330745398 91.72756546 0.00900509 1.7597091814 91.434050819 0.00811266 2.1209437623 91.043526238 
-0.00150368 -0.0012814173856 87.717210476 0.00525257 0.012688418509 88.493526281 0.00684716 0.041049597858 89.223276802 
0.00825725 0.0965990957 89.886865404 0.00880457 0.18428263302 90.467985367 0.00882412 0.30683085791 90.956212142 
0.00851126 0.46472506554 91.345534934 0.00806903 0.65712979081 91.633077209 0.00764764 0.8825535481 91.818054452 
0.00732831 1.1393829963 91.901327004 0.00710997 1.4261506451 91.884319355 0.00690477 1.7415771655 91.769692835 
0.00654846 2.0842452033 91.561274797 0.00579347 2.4520866685 91.264763331 0.004502 2.8416679229 90.889042077 
0.00129656 0.013716186624 87.581476313 0.00854992 0.0485936841 88.448350316 0.00976023 0.110243688 89.240787312 
0.0107522 0.2108289141 89.941600086 0.0107451 0.35340402939 90.537160971 0.0101445 0.53854621451 91.020751785 
0.00918636 0.76433680618 91.390500194 0.00810639 1.0274514835 91.648028516 0.00707143 1.3238862846 91.797043715 
0.00616783 1.6496050448 91.842614955 0.00539597 2.0007721026 91.790707897 0.00467593 2.3738334438 91.647866556 
0.00386708 2.765278669 91.421451331 0.00276718 3.1711647596 91.12015524 0.00130087 3.5866408432 90.755229157 
0.00448293 0.03064889967 87.4657902 0.0123204 0.0892389567 88.434543643 0.0130434 0.18847415127 89.296780849 
0.0134604 0.33959855626 90.037687444 0.0127085 0.54319988284 90.647415117 0.0113037 0.79705821572 91.123904784 
0.00955168 1.0962355992 91.470454401 0.00773896 1.4343881964 91.694021804 0.00605724 1.8047262928 91.803363707 
0.00459835 2.2006059172 91.808344083 0.00335925 2.6159395131 91.719080487 0.00225878 3.0452238999 91.5458261 
0.00116594 3.4833261474 91.298903853 -9.69954e-05 3.9250907184 90.989619282 -0.00157022 4.3649282546 90.630181745 
0.00816731 0.049994766664 87.384868033 0.0166739 0.13569160671 88.466498393 0.0167683 0.27767341496 89.404018585 
0.0164004 0.48587329497 90.186044705 0.014662 0.75770150217 90.807070498 0.0122343 1.0873728738 91.271097126 
0.00952725 1.466212005 91.587977995 0.00689557 1.8843673065 91.770912693 0.00455641 2.331895941 91.834654059 
0.00259762 2.7995310432 91.793848957 0.000998254 3.2791134503 91.66308655 -0.000340576 3.7635444901 91.45566551 
-0.00155816 4.2465811351 91.184708865 -0.00282761 4.7224298143 90.862760186 -0.00417531 5.1853488147 90.503391185 
0.0125256 0.072514064491 87.355847836 0.021772 0.1896051241 88.561100876 0.0210261 0.38078198131 89.577775019 
0.0195746 0.65410187727 90.398544123 0.0165287 1.0028563526 91.024433647 0.0128099 1.4167362603 91.46712374 
0.00897399 1.8825244828 91.744445517 0.00545429 2.3862427395 91.87731726 0.0024814 2.9145549639 91.886935036 
0.000115906 3.4556120449 91.793437955 -0.00170664 3.9994354179 91.615334582 -0.00312598 4.5377781766 91.368931823 
-0.00430945 5.0638571488 91.069312851 -0.00544292 5.5718081406 90.730201859 -0.00655438 6.0562850876 90.365154912 
0.0178231 0.099353372585 87.398902127 0.0278439 0.25341261623 88.738083384 0.0259229 0.50205649166 89.835149508 
0.0229463 0.85061487422 90.688683126 0.0181557 1.2869997807 91.308200219 0.0128168 1.7951165005 91.715853499 
0.00767507 2.3561914244 91.939698576 0.00323698 2.95154763 92.00983237 -0.000288142 3.5642363695 91.954573631 
-0.0029102 4.1800071026 91.799712897 -0.00477542 4.7874593373 91.567480663 -0.00609284 5.3778001481 91.276699852 
-0.00707702 5.9443164548 90.943703545 -0.00793939 6.4816775005 90.582762499 -0.00871842 6.9854162201 90.20705378 
0.0244561 0.13221695747 87.538760043 0.0352078 0.3306427234 89.021614277 0.0315652 0.64754905121 90.196552949 
0.0263973 1.084254387 91.070955613 0.019263 1.6214982191 91.666661781 0.0119134 2.2357777765 92.019712223 
0.00531642 2.901551992 92.171558008 1.0444e-05 3.5947988753 92.162661125 -0.00388991 4.29495739 92.02972261 
-0.00653552 4.9857125358 91.803547464 -0.00820551 5.6549484197 91.50987158 -0.00920827 6.2940694762 91.169200524 
-0.00981996 6.8971380071 90.798541993 -0.0102828 7.4599862697 90.41179373 -0.0106469 7.9795508881 90.021399112 
0.0330233 0.17366495781 87.806348042 0.0442999 0.42643627943 89.441358721 0.0380245 0.82587266575 90.686026334 
0.0296476 1.3673128443 91.561087156 0.0193608 2.02181708 92.10686292 0.00957646 2.7562703663 92.378659634 
0.00147272 3.5369277152 92.434462285 -0.00449661 4.3339082651 92.327301735 -0.00844636 5.1232611719 92.101898828 
-0.0107713 5.887421695 91.794088305 -0.0119421 6.6145363726 91.431913627 -0.0123895 7.2971717169 91.036488283 
-0.0124541 7.9310585292 90.624541471 -0.0124022 8.5138378562 90.209082144 -0.0122878 9.0443056225 89.801054378 
0.0444474 0.22762179907 88.241567201 0.0557085 0.54839741125 90.034673589 0.0452465 1.049416016 91.331593984 
0.0321051 1.717032184 92.175137816 0.0176189 2.5090304373 92.633259563 0.00504195 3.3797278315 92.788252169 
-0.00438314 4.2855517577 92.718478242 -0.0105433 5.1905420758 92.490737924 -0.0140045 6.0682331283 92.157516872 
-0.0155341 6.9011716516 91.758328348 -0.0158423 7.6791850402 91.32163496 -0.0154832 8.3973147425 90.868125257 
-0.0148424 9.0538664183 90.412993582 -0.0141883 9.6490075212 89.967412479 -0.0135608 10.183767534 89.540332466 
0.0602054 0.30031512438 88.898145876 0.070184 0.7080427251 90.849566275 0.0528444 1.3363142492 92.165645751 
0.0325781 2.1579222194 92.927127781 0.0126814 3.1120668223 93.244733178 -0.00273264 4.1366112158 93.236928784 
-0.0128055 5.1765582765 93.007051723 -0.018265 6.1904434353 92.635286565 -0.0204369 7.1511564505 92.17990355 
-0.0205785 8.0436422463 91.681187754 -0.019639 8.8614250681 91.166314932 -0.0182502 9.6034715149 90.653688485 
-0.0167934 10.271752601 90.155347399 -0.0154986 10.869387446 89.680112554 -0.0143662 11.400016473 89.234383527 
0.0826822 0.40201101804 89.850756982 0.0886092 0.92330674338 91.948295257 0.0595652 1.7136670675 93.224102933 
0.0287789 2.7253467492 93.825503251 0.00243255 3.8710424082 93.929517592 -0.0149844 5.0670460096 93.70309399 
-0.0241627 6.2459561181 93.275543882 -0.0274648 7.3631409163 92.737609084 -0.0273049 8.3945527507 92.148847249 
-0.0254298 9.3309462745 91.546363725 -0.0229187 10.172024534 90.953275466 -0.0203687 10.92239615 90.38310385 
-0.0180738 11.588241035 89.844358965 -0.0161734 12.176314472 89.341985528 -0.0145996 12.69290619 88.87959381 
0.116242 0.55063278738 91.208117213 0.111368 1.2228393106 93.412240689 0.0622546 2.2229317585 94.541038241 
0.0163749 3.4713827445 94.863557255 -0.016032 4.8421349803 94.65841502 -0.0327511 6.2234222229 94.150157777 
-0.0381502 7.5368518677 93.489578132 -0.037303 8.7406306612 92.769119339 -0.0337168 9.8200975288 92.041802471 
-0.0293487 10.776458178 91.337141822 -0.0251356 11.618414777 90.670085223 -0.0214635 12.357040146 90.048059854 
-0.0184393 13.003539333 89.474260667 -0.0160612 13.568019682 88.949480318 -0.0141721 14.059091728 88.474208272 
0.167132 0.77849542117 93.135673579 0.137759 1.6542367462 95.344383254 0.0523935 2.9288819761 96.134298024 
-0.0117044 4.4746329923 96.003647008 -0.0459347 6.1044790148 95.374350985 -0.0556106 7.6724448554 94.523965145 
-0.0530315 9.0975566812 93.605653319 -0.0459898 10.353631775 92.697368225 -0.0383007 11.444901699 91.836198301 
-0.0314015 12.387989844 91.037810156 -0.0257018 13.202011231 90.306788769 -0.0211857 13.90528128 89.64221872 
-0.0176958 14.513271925 89.041528075 -0.0150637 15.038763395 88.501136605 -0.0130426 15.492179696 88.018320304 
0.254331 1.1519784191 95.903391581 0.154377 2.2951479664 97.855612034 0.0139125 3.9376073649 97.968402635 
-0.0667 5.8572742758 97.149365724 -0.0867852 7.7688062266 95.984403773 -0.0794601 9.4934588777 94.755241122 
-0.0647481 10.974254609 93.575645391 -0.0507587 12.22406686 92.49063314 -0.0393512 13.275722942 91.511877058 
-0.030619 14.163348224 90.636651776 -0.0240928 14.916302668 89.856797332 -0.0192676 15.558258361 89.162641639 
-0.0157177 16.107592973 88.545507027 -0.0131307 16.578745014 87.997954986 -0.0111984 16.982655971 87.514044029 
0.366354 1.790447437 99.934092563 0.140387 3.2846968576 101.00227314 -0.100468 5.4284776534 99.865912347 
-0.149625 7.8165598179 98.117490182 -0.128407 9.9821624517 96.371137548 -0.0944994 11.760857037 94.768942963 
-0.06806 13.193749074 93.354250926 -0.048979 14.352987718 92.123212282 -0.0358112 15.301228439 91.055371561 
-0.0267158 16.086444501 90.127555499 -0.0203937 16.743912745 89.318487255 -0.0159535 17.299129362 88.610370638 
-0.0128069 17.77111908 87.98898092 -0.0105742 18.173584491 87.443415509 -0.00893995 18.517125292 86.965474708 
0.6564 3.0170194307 105.98322057 -0.119427 4.8165639969 104.462146 -0.292057 7.766867601 101.3718724 
-0.225918 10.68674203 98.71185797 -0.13733 12.877632349 96.420767651 -0.087193 14.501432213 94.504167787 
-0.0559269 15.738695661 92.912304339 -0.0372981 16.708117357 91.583782643 -0.0256896 17.48718933 90.46521067 
-0.0182825 18.125813673 89.513986327 -0.0134117 18.657249255 88.697750745 -0.0101334 19.104448533 87.992151467 
-0.00788536 19.483498618 87.378901382 -0.00633259 19.806061041 86.844738959 -0.00521803 20.080755161 86.379744839 
0.0418946 4.9252928644 113.99675714 -0.668798 7.4009478094 106.56845219 -0.48282 11.938586707 102.22181329 
-0.199776 14.703817733 98.757382267 -0.114363 16.421551781 96.039848219 -0.0655038 17.621499752 93.920000248 
-0.0422574 18.511862974 92.234637026 -0.0291155 19.206515017 90.869684983 -0.0214561 19.766197445 89.743602555 
-0.0166653 20.227406942 88.799793058 -0.0135252 20.613137867 87.998662133 -0.0113753 20.938950739 87.311649261 
-0.00985195 21.215691731 86.718408269 -0.00874847 21.451325577 86.204374423 -0.00790931 21.651764257 85.758835743 
-1.4152 6.8269750109 116.08097499 -0.982225 15.093119593 108.03298041 -0.0225901 18.365790966 102.38820903 
-0.00113357 19.547755979 98.221744021 0.0418021 20.352936842 95.288663158 0.0454264 20.930916039 93.097983961 
0.0459614 21.392217336 91.407682664 0.0439027 21.772576622 90.061823378 0.0414799 22.092918031 88.964181969 
0.0390489 22.365622836 88.051377164 0.0368041 22.598646344 87.281053656 0.0347803 22.798083954 86.623416046 
0.0329763 22.968676554 86.057723446 0.0313736 23.113941918 85.569158082 0.0299681 23.236987615 85.146912385 
0.0276347 23.427033314 84.471466686 -0.00685111 21.964579178 85.043520822 -0.00397374 20.510713822 85.629186178 
-0.00705252 19.056872264 86.188527736 -0.00893476 17.620430417 86.719569583 -0.010643 16.213539477 87.215460523 
-0.0119172 14.84775547 87.67134453 -0.0127487 13.532146515 88.083453485 -0.0131303 12.273773251 88.449726749 
-0.0130875 11.077434855 88.769265145 -0.0126619 9.9456470652 89.042722935 -0.0118994 8.8789819534 89.271828047 
-0.0108405 7.8760129734 89.459527027 -0.00950973 6.9337308111 89.609739189 -0.00790849 6.0476141259 89.727715874 
-0.00600677 5.2117837438 89.819296256 -0.00373513 4.4190537288 89.892156271 -0.000974784 3.6609633018 89.955346698 
0.00245466 2.9276039767 90.019916023 0.00680973 2.2075621154 90.100107885 0.0124381 1.4876988628 90.213821137 
0.0197841 0.7531337984 90.383994202 -0.012620756109 0.0293835 90.640370756 -0.82676205016 0.0417068 91.02007905 
-1.7046978045 0.057389 91.569747804 -2.6566013438 0.0736554 92.340661344 -3.6687123341 0.100662 93.395152334 
-4.7588058609 0.026652 94.654115861 0.0266957 23.497863852 84.209236148 -0.00653094 22.082952117 84.764847883 
-0.00366302 20.67432396 85.33557604 -0.00655664 19.262941684 85.882658316 -0.00833661 17.864970354 86.404229646 
-0.0100117 16.49199244 86.89350756 -0.0113424 15.154589903 87.345110097 -0.0123214 13.861807211 87.754992789 
-0.0129349 12.620906649 88.119993351 -0.0131965 11.437198309 88.438301691 -0.0131342 10.314048442 88.709451558 
-0.0127828 9.2528966155 88.933533384 -0.0121752 8.2535770218 89.112222978 -0.0113347 7.3142287907 89.247821209 
-0.0102661 6.4315395208 89.343500479 -0.00894746 5.6007557177 89.403554282 -0.00731929 4.8157515183 89.433348482 
-0.00527016 4.0688960934 89.439773907 -0.00261669 3.350870062 89.431599938 0.000924978 2.6503246102 89.42052539 
0.00577972 1.9533997816 89.422320218 0.0125615 1.2431323886 89.458627611 0.0221535 0.4987905206 89.559076479 
-0.30459135934 0.0356039 89.765084359 -1.1954620295 0.0548388 90.133243029 -2.2056795178 0.0772498 90.734279518 
-3.3491549512 0.122796 91.668394951 -4.6744759771 0.0689324 92.954325977 0.0259238 23.554653855 83.993746145 
-0.0062748 22.178781512 84.535518488 -0.00343447 20.807206959 85.093193041 -0.00619072 19.430747752 85.629452248 
-0.00789597 18.064765484 86.142234516 -0.00954699 16.719970676 86.624529324 -0.0109225 15.406868349 87.070831651 
-0.01202 14.134301495 87.476498505 -0.0128251 12.909578728 87.837921272 -0.0133467 11.738496073 88.152203927 
-0.0136074 10.625041706 88.417658294 -0.0136381 9.571578403 88.633411597 -0.0134722 8.5789341957 88.799425804 
-0.0131395 7.6463934687 88.916326531 -0.0126587 6.7718314264 88.985538574 -0.0120302 5.9518013027 89.009028697 
-0.0112259 5.1814736264 88.989456374 -0.0101752 4.4545941312 88.930735869 -0.00874336 3.7631545236 88.837815476 
-0.00669813 3.0970290357 88.717880964 -0.00365639 2.4432881966 88.581291803 0.000996087 1.7851565305 88.443653469 
0.00824841 1.1006512678 88.328508732 0.0195407 0.36070542323 88.271876577 -0.47243852234 0.0377079 88.329132522 
-1.4489832369 0.0628423 88.580443237 -2.6136690662 0.121611 89.165989066 -4.0961787166 0.0881755 90.162688717 
0.0253017 23.598494603 83.823005397 -0.00609466 22.25372842 84.35347158 -0.00329741 20.911459528 84.900640472 
-0.00596298 19.562600707 85.427699293 -0.007624 18.222033915 85.932766085 -0.00926682 16.900113707 86.408586293 
-0.0106855 15.606789313 86.849510687 -0.0118832 14.351030021 87.250469979 -0.012848 13.140339946 87.607160054 
-0.013589 11.980670068 87.916029932 -0.0141284 10.876821185 88.174478815 -0.0144992 9.8316585021 88.380461498 
-0.0147409 8.8469899053 88.532600095 -0.014896 7.9231064528 88.629803547 -0.0150052 7.0590570094 88.671692991 
-0.0151028 6.2527251663 88.657834834 -0.0152102 5.5007659977 88.588184002 -0.0153271 4.7986069064 88.462643094 
-0.0154162 4.1402326981 88.281547302 -0.0153784 3.5177497662 88.045990234 -0.0150075 2.9207923967 87.758217603 
-0.0139147 2.3353431266 87.423326873 -0.0113658 1.7420258075 87.051324192 -0.00613344 1.1133408819 86.661309118 
0.00469619 0.40997357738 86.289696423 -0.42687160942 0.0225974 86.000032909 -1.4709006409 0.0739452 85.922699641 
-2.8957640456 0.0591069 86.177334046 0.0248335 23.630631481 83.695868519 -0.00597098 22.308945359 84.217754641 
-0.00321669 20.988518088 84.756781912 -0.00582402 19.660305607 85.276794393 -0.00746005 18.338647942 85.775652058 
-0.00910299 17.033872408 86.246127592 -0.0105588 15.755704095 86.682295905 -0.0118358 14.512976023 87.078823977 
-0.0129259 13.313437507 87.430862493 -0.0138403 12.163259743 87.734440257 -0.0146039 11.067536754 87.986063246 
-0.0152542 10.029982606 88.182817394 -0.0158397 9.0529947226 88.322075277 -0.0164181 8.1376830945 88.401506905 
-0.017055 7.2841651367 88.418794863 -0.0178228 6.4915350477 88.371654952 -0.0188002 5.757914879 88.256865121 
-0.0200714 5.0804822707 88.070907729 -0.021724 4.455445536 87.809234464 -0.0238437 3.8777296405 87.46607036 
-0.0265 3.3405846795 87.034285321 -0.0297145 2.8346615028 86.505788497 -0.0333772 2.3465846259 85.871735374 
-0.0371251 1.8562224647 85.124727535 -0.0396473 1.3323521668 84.263007833 -0.0398205 0.72357679629 83.298219204 
-0.049170182537 -0.0231215 82.283690183 -1.1516892153 -0.0303646 81.304246215 0.0245202 23.651566705 83.611433295 
-0.00589418 22.345368121 84.127631879 -0.00317377 21.039341923 84.661158077 -0.00574705 19.724836174 85.176363826 
-0.00737059 18.415894298 85.670905702 -0.00901701 17.122554841 86.137445159 -0.0105003 15.854555524 86.570144476 
-0.0118331 14.620736746 86.963263254 -0.0130101 13.428944393 87.311855607 -0.0140455 12.285431611 87.611268389 
-0.0149671 11.195759138 87.857540862 -0.0158172 10.163994261 88.047005739 -0.0166527 9.1928682096 88.17649179 
-0.0175448 8.284341929 88.242428071 -0.0185804 7.4392300313 88.241349969 -0.0198652 6.6575621903 88.16890781 
-0.0215281 5.9386206378 88.020179362 -0.0237296 5.2810911157 87.788388884 -0.0266737 4.683082542 87.464937458 
-0.030626 4.1421461935 87.038053807 -0.0359387 3.655067982 86.492482018 -0.0430854 3.2175200653 85.807439935 
-0.0527111 2.8231883283 84.955511672 -0.0656596 2.4621750991 83.900514901 -0.0831938 2.1177194365 82.594630564 
-0.105958 1.7603902346 80.977589765 -0.139979 1.3326229822 78.972197018 -0.156397 0.74116300667 76.523836993 
0.0243631 23.661967821 83.569432179 -0.00585743 22.363423119 84.082676881 -0.00315549 21.064708629 84.613391371 
-0.00571316 19.756918609 85.126081391 -0.00733172 18.454246798 85.618453202 -0.00898095 17.166686409 86.083013591 
-0.010479 15.903830565 86.513869435 -0.0118405 14.674572677 86.905227323 -0.0130622 13.486706728 87.251793272 
-0.0141599 12.346727485 87.548972515 -0.0151633 11.260230525 87.792269475 -0.0161178 10.231512112 87.977987888 
-0.0170851 9.2635988932 88.102031107 -0.0181444 8.3588074127 88.160802587 -0.019395 7.5183433987 88.149706601 
-0.0209617 6.742740733 88.063849267 -0.0230028 6.0319499277 87.896840072 -0.0257243 5.3854957552 87.640294245 
-0.0294003 4.8026234237 87.283136576 -0.0344073 4.282442013 86.810507987 -0.0412772 3.8239628988 86.201777101 
-0.0507799 3.4260684251 85.428861575 -0.0640803 3.0873109116 84.452369088 -0.08289 2.8052505179 83.216979482 
-0.110459 2.5748417168 81.643018283 -0.148989 2.3869712154 79.615748785 -0.221615 2.2117894225 76.949090577 
-0.251323 2.0437371845 73.436542816 0.0243631 23.661967821 83.569432179 -0.00585743 22.363423119 84.082676881 
-0.00315549 21.064708629 84.613391371 -0.00571316 19.756918609 85.126081391 -0.00733172 18.454246798 85.618453202 
-0.00898095 17.166686409 86.083013591 -0.010479 15.903830565 86.513869435 -0.0118405 14.674572677 86.905227323 
-0.0130622 13.486706728 87.251793272 -0.0141599 12.346727485 87.548972515 -0.0151633 11.260230525 87.792269475 
-0.0161178 10.231512112 87.977987888 -0.0170851 9.2635988932 88.102031107 -0.0181444 8.3588074127 88.160802587 
-0.019395 7.5183433987 88.149706601 -0.0209617 6.742740733 88.063849267 -0.0230028 6.0319499277 87.896840072 
-0.0257243 5.3854957552 87.640294245 -0.0294003 4.8026234237 87.283136576 -0.0344073 4.282442013 86.810507987 
-0.0412772 3.8239628988 86.201777101 -0.0507799 3.4260684251 85.428861575 -0.0640803 3.0873109116 84.452369088 
-0.08289 2.8052505179 83.216979482 -0.110459 2.5748417168 81.643018283 -0.148989 2.3869712154 79.615748785 
-0.221615 2.2117894225 76.949090577 -0.251323 2.0437371845 73.436542816 0.0245202 23.651566705 83.611433295 
-0.00589418 22.345368121 84.127631879 -0.00317377 21.039341923 84.661158077 -0.00574705 19.724836174 85.176363826 
-0.00737059 18.415894298 85.670905702 -0.00901701 17.122554841 86.137445159 -0.0105003 15.854555524 86.570144476 
-0.0118331 14.620736746 86.963263254 -0.0130101 13.428944393 87.311855607 -0.0140455 12.285431611 87.611268389 
-0.0149671 11.195759138 87.857540862 -0.0158172 10.163994261 88.047005739 -0.0166527 9.1928682096 88.17649179 
-0.0175448 8.284341929 88.242428071 -0.0185804 7.4392300313 88.241349969 -0.0198652 6.6575621903 88.16890781 
-0.0215281 5.9386206378 88.020179362 -0.0237296 5.2810911157 87.788388884 -0.0266737 4.683082542 87.464937458 
-0.030626 4.1421461935 87.038053807 -0.0359387 3.655067982 86.492482018 -0.0430854 3.2175200653 85.807439935 
-0.0527111 2.8231883283 84.955511672 -0.0656596 2.4621750991 83.900514901 -0.0831938 2.1177194365 82.594630564 
-0.105958 1.7603902346 80.977589765 -0.139979 1.3326229822 78.972197018 -0.156397 0.74116300667 76.523836993 
0.0248335 23.630631481 83.695868519 -0.00597098 22.308945359 84.217754641 -0.00321669 20.988518088 84.756781912 
-0.00582402 19.660305607 85.276794393 -0.00746005 18.338647942 85.775652058 -0.00910299 17.033872408 86.246127592 
-0.0105588 15.755704095 86.682295905 -0.0118358 14.512976023 87.078823977 -0.0129259 13.313437507 87.430862493 
-0.0138403 12.163259743 87.734440257 -0.0146039 11.067536754 87.986063246 -0.0152542 10.029982606 88.182817394 
-0.0158397 9.0529947226 88.322075277 -0.0164181 8.1376830945 88.401506905 -0.017055 7.2841651367 88.418794863 
-0.0178228 6.4915350477 88.371654952 -0.0188002 5.757914879 88.256865121 -0.0200714 5.0804822707 88.070907729 
-0.021724 4.455445536 87.809234464 -0.0238437 3.8777296405 87.46607036 -0.0265 3.3405846795 87.034285321 
-0.0297145 2.8346615028 86.505788497 -0.0333772 2.3465846259 85.871735374 -0.0371251 1.8562224647 85.124727535 
-0.0396473 1.3323521668 84.263007833 -0.0398205 0.72357679629 83.298219204 -0.049170182537 -0.0231215 82.283690183 
-1.1516892153 -0.0303646 81.304246215 0.0253017 23.598494603 83.823005397 -0.00609466 22.25372842 84.35347158 
-0.00329741 20.911459528 84.900640472 -0.00596298 19.562600707 85.427699293 -0.007624 18.222033915 85.932766085 
-0.00926682 16.900113707 86.408586293 -0.0106855 15.606789313 86.849510687 -0.0118832 14.351030021 87.250469979 
-0.012848 13.140339946 87.607160054 -0.013589 11.980670068 87.916029932 -0.0141284 10.876821185 88.174478815 
-0.0144992 9.8316585021 88.380461498 -0.0147409 8.8469899053 88.532600095 -0.014896 7.9231064528 88.629803547 
-0.0150052 7.0590570094 88.671692991 -0.0151028 6.2527251663 88.657834834 -0.0152102 5.5007659977 88.588184002 
-0.0153271 4.7986069064 88.462643094 -0.0154162 4.1402326981 88.281547302 -0.0153784 3.5177497662 88.045990234 
-0.0150075 2.9207923967 87.758217603 -0.0139147 2.3353431266 87.423326873 -0.0113658 1.7420258075 87.051324192 
-0.00613344 1.1133408819 86.661309118 0.00469619 0.40997357738 86.289696423 -0.42687160942 0.0225974 86.000032909 
-1.4709006409 0.0739452 85.922699641 -2.8957640456 0.0591069 86.177334046 0.0259238 23.554653855 83.993746145 
-0.0062748 22.178781512 84.535518488 -0.00343447 20.807206959 85.093193041 -0.00619072 19.430747752 85.629452248 
-0.00789597 18.064765484 86.142234516 -0.00954699 16.719970676 86.624529324 -0.0109225 15.406868349 87.070831651 
-0.01202 14.134301495 87.476498505 -0.0128251 12.909578728 87.837921272 -0.0133467 11.738496073 88.152203927 
-0.0136074 10.625041706 88.417658294 -0.0136381 9.571578403 88.633411597 -0.0134722 8.5789341957 88.799425804 
-0.0131395 7.6463934687 88.916326531 -0.0126587 6.7718314264 88.985538574 -0.0120302 5.9518013027 89.009028697 
-0.0112259 5.1814736264 88.989456374 -0.0101752 4.4545941312 88.930735869 -0.00874336 3.7631545236 88.837815476 
-0.00669813 3.0970290357 88.717880964 -0.00365639 2.4432881966 88.581291803 0.000996087 1.7851565305 88.443653469 
0.00824841 1.1006512678 88.328508732 0.0195407 0.36070542323 88.271876577 -0.47243852234 0.0377079 88.329132522 
-1.4489832369 0.0628423 88.580443237 -2.6136690662 0.121611 89.165989066 -4.0961787166 0.0881755 90.162688717 
0.0266957 23.497863852 84.209236148 -0.00653094 22.082952117 84.764847883 -0.00366302 20.67432396 85.33557604 
-0.00655664 19.262941684 85.882658316 -0.00833661 17.864970354 86.404229646 -0.0100117 16.49199244 86.89350756 
-0.0113424 15.154589903 87.345110097 -0.0123214 13.861807211 87.754992789 -0.0129349 12.620906649 88.119993351 
-0.0131965 11.437198309 88.438301691 -0.0131342 10.314048442 88.709451558 -0.0127828 9.2528966155 88.933533384 
-0.0121752 8.2535770218 89.112222978 -0.0113347 7.3142287907 89.247821209 -0.0102661 6.4315395208 89.343500479 
-0.00894746 5.6007557177 89.403554282 -0.00731929 4.8157515183 89.433348482 -0.00527016 4.0688960934 89.439773907 
-0.00261669 3.350870062 89.431599938 0.000924978 2.6503246102 89.42052539 0.00577972 1.9533997816 89.422320218 
0.0125615 1.2431323886 89.458627611 0.0221535 0.4987905206 89.559076479 -0.30459135934 0.0356039 89.765084359 
-1.1954620295 0.0548388 90.133243029 -2.2056795178 0.0772498 90.734279518 -3.3491549512 0.122796 91.668394951 
-4.6744759771 0.0689324 92.954325977 0.0276347 23.427033314 84.471466686 -0.00685111 21.964579178 85.043520822 
-0.00397374 20.510713822 85.629186178 -0.00705252 19.056872264 86.188527736 -0.00893476 17.620430417 86.719569583 
-0.010643 16.213539477 87.215460523 -0.0119172 14.84775547 87.67134453 -0.0127487 13.532146515 88.083453485 
-0.0131303 12.273773251 88.449726749 -0.0130875 11.077434855 88.769265145 -0.0126619 9.9456470652 89.042722935 
-0.0118994 8.8789819534 89.271828047 -0.0108405 7.8760129734 89.459527027 -0.00950973 6.9337308111 89.609739189 
-0.00790849 6.0476141259 89.727715874 -0.00600677 5.2117837438 89.819296256 -0.00373513 4.4190537288 89.892156271 
-0.000974784 3.6609633018 89.955346698 0.00245466 2.9276039767 90.019916023 0.00680973 2.2075621154 90.100107885 
0.0124381 1.4876988628 90.213821137 0.0197841 0.7531337984 90.383994202 -0.012620756109 0.0293835 90.640370756 
-0.82676205016 0.0417068 91.02007905 -1.7046978045 0.057389 91.569747804 -2.6566013438 0.0736554 92.340661344 
-3.6687123341 0.100662 93.395152334 -4.7588058609 0.026652 94.654115861 
METADATA
COMPONENT_NAMES
Min
Mid
Max

ERROR 1 4256 double
8.76819 8.75464 8.75464 8.76819 3.42764 3.75323 3.75323 3.42764 20.6241 
0.359381 0.244484 0.0441848 0.0989073 0.0989073 0.0441848 0.244484 0.359381 20.6241 
0.581847 0.581847 4.28135 5.12852 6.05343 7.0452 8.08516 9.14504 10.1832 
11.139 11.9225 12.3943 12.3943 12.3168 11.2234 8.76819 4.59734 5.41522 
6.30991 7.2736 8.28811 9.32485 10.3417 11.2774 12.0413 12.4932 12.4932 
12.3937 11.2723 8.75464 4.59734 5.41522 6.30991 7.2736 8.28811 9.32485 
10.3417 11.2774 12.0413 12.4932 12.4932 12.3937 11.2723 8.75464 4.28135 
5.12852 6.05343 7.0452 8.08516 9.14504 10.1832 11.139 11.9225 12.3943 
12.3943 12.3168 11.2234 8.76819 9.61047 9.86648 9.86648 9.60882 9.11274 
8.53692 7.98766 7.99517 8.54136 9.11352 9.60532 9.85792 9.85792 9.59535 
14.0855 56.367 56.367 27.6204 21.657 18.0897 15.8283 15.8283 18.0897 
21.657 27.6204 56.367 56.367 14.0855 9.59535 9.85792 9.85792 9.60532 
9.11352 8.54136 7.99517 7.98766 8.53692 9.11274 9.60882 9.86648 9.86648 
9.61047 13.8047 55.5617 55.5617 27.772 21.7541 18.1606 15.8862 15.8862 
18.1606 21.7541 27.772 55.5617 55.5617 13.8047 1.09832 1.28161 1.81468 
2.04488 2.04488 1.77833 1.07033 1.07952 1.79099 2.05407 2.05407 1.81632 
1.30651 1.1285 4.62865 5.29936 5.72225 5.72225 5.717 5.04787 3.46701 
3.46701 5.04787 5.717 5.72225 5.72225 5.29936 4.62865 1.1285 1.30651 
1.81632 2.05407 2.05407 1.79099 1.07952 1.07033 1.77833 2.04488 2.04488 
1.81468 1.28161 1.09832 4.30869 5.01008 5.46875 5.5042 5.5042 4.88462 
3.40852 3.40852 4.88462 5.5042 5.5042 5.46875 5.01008 4.30869 20.6241 
3.542 3.04483 3.04483 2.73948 2.40313 2.09416 1.82557 1.59301 1.39094 
1.21427 1.05892 0.924813 0.823175 0.736126 0.655226 0.580468 0.511951 0.449889 
0.394606 0.346525 0.30614 0.273978 0.250551 0.244548 0.264141 0.291097 0.324259 
0.398496 0.433593 0.462545 0.482255 0.490269 0.507475 0.517133 0.517133 0.51327 
0.495364 0.464003 0.420792 0.368084 0.309003 0.182154 0.122697 0.0874165 0.113847 
0.133377 0.146598 0.154246 0.157137 0.157137 0.156105 0.15196 0.149655 0.148915 
0.145509 0.140052 0.133092 0.125105 0.116498 0.10761 0.0987211 0.0900591 0.0818047 
0.0741007 0.0670585 0.060764 0.0552836 0.0506683 0.0469582 0.0597313 0.0724871 0.0832371 
0.0921659 0.0995019 0.105406 0.109986 0.113303 0.115369 0.116159 0.116159 0.115624 
0.113694 0.1103 0.105376 0.0912559 0.0818559 0.0709612 0.058725 0.0453242 0.0309903 
0.0159963 0.0159963 0.0309903 0.0453242 0.058725 0.0709612 0.0818559 0.0912559 0.105376 
0.1103 0.113694 0.115624 0.116159 0.116159 0.115369 0.113303 0.109986 0.105406 
0.0995019 0.0921659 0.0832371 0.0724871 0.0597313 0.0469582 0.0506683 0.0552836 0.060764 
0.0670585 0.0741007 0.0818047 0.0900591 0.0987211 0.10761 0.116498 0.125105 0.133092 
0.140052 0.145509 0.148915 0.149655 0.15196 0.156105 0.157137 0.157137 0.154246 
0.146598 0.133377 0.113847 0.0874165 0.122697 0.182154 0.309003 0.368084 0.420792 
0.464003 0.495364 0.51327 0.517133 0.517133 0.507475 0.490269 0.482255 0.462545 
0.433593 0.398496 0.324259 0.291097 0.264141 0.244548 0.250551 0.273978 0.30614 
0.346525 0.394606 0.449889 0.511951 0.580468 0.655226 0.736126 0.823175 0.924813 
1.05892 1.21427 1.39094 1.59301 1.82557 2.09416 2.40313 2.73948 3.04483 
3.04483 3.542 20.6241 20.6241 8.46687 5.17758 3.42458 2.53996 1.98545 
1.62279 1.36701 1.17887 1.03492 0.921299 0.82912 0.752528 0.687518 0.631285 
0.538353 0.498376 0.462052 0.428867 0.398469 0.370625 0.345185 0.345185 0.370625 
0.398469 0.428867 0.462052 0.498376 0.538353 0.631285 0.687518 0.752528 0.82912 
0.921299 1.03492 1.17887 1.36701 1.62279 1.98545 2.53996 3.42458 5.17758 
8.46687 20.6241 0.624068 0.624068 0.630398 0.630398 0.609524 0.570571 0.527342 
0.487127 0.452921 0.425522 0.404615 0.389879 0.378848 0.371766 0.367733 0.59296 
0.59296 0.595207 0.595207 0.564342 0.51442 0.459698 0.40797 0.36269 0.325117 
0.295401 0.273199 0.257984 0.249043 0.245937 0.942646 0.969933 0.969933 0.947032 
0.879492 0.793186 0.702036 0.614307 0.534059 0.462899 0.401036 0.347955 0.302807 
0.26464 0.235249 0.210639 0.189657 0.171861 0.15684 0.144228 0.133705 0.124991 
0.117851 0.112084 0.107521 0.104023 0.101479 0.099797 0.942646 0.969933 0.969933 
0.947032 0.879492 0.793186 0.702036 0.614307 0.534059 0.462899 0.401036 0.347955 
0.302807 0.26464 0.235249 0.210639 0.189657 0.171861 0.15684 0.144228 0.133705 
0.124991 0.117851 0.112084 0.107521 0.104023 0.101479 0.099797 0.59296 0.59296 
0.595207 0.595207 0.564342 0.51442 0.459698 0.40797 0.36269 0.325117 0.295401 
0.273199 0.257984 0.249043 0.245937 0.624068 0.624068 0.630398 0.630398 0.609524 
0.570571 0.527342 0.487127 0.452921 0.425522 0.404615 0.389879 0.378848 0.371766 
0.367733 0.917195 0.954734 0.954734 0.941889 0.88727 0.816622 0.743923 0.677445 
0.621279 0.577056 0.544975 0.524449 0.514467 0.525658 0.546072 0.571286 0.599733 
0.629613 0.658929 0.685553 0.707346 0.722319 0.728829 0.728829 0.725721 0.712813 
0.688906 0.664519 0.917195 0.954734 0.954734 0.941889 0.88727 0.816622 0.743923 
0.677445 0.621279 0.577056 0.544975 0.524449 0.514467 0.525658 0.546072 0.571286 
0.599733 0.629613 0.658929 0.685553 0.707346 0.722319 0.728829 0.728829 0.725721 
0.712813 0.688906 0.664519 9.61047 9.86648 9.86648 9.60882 9.11274 8.53692 
7.98766 7.99517 8.54136 9.11352 9.60532 9.85792 9.85792 9.59535 5.61242 
6.83688 7.52003 7.73128 7.73128 7.61059 7.3026 7.30008 7.6049 7.72225 
7.72225 7.50796 6.82251 5.59695 3.37496 4.32448 5.49003 6.23742 6.55401 
6.55401 6.53113 6.51971 6.54008 6.54008 6.22188 5.47454 4.3111 3.37836 
3.09632 3.58897 4.10267 4.77489 5.42756 5.68422 5.68422 5.66574 5.66574 
5.40818 4.75676 4.11342 3.60218 3.11346 2.96596 3.23607 3.5963 4.015 
4.42672 4.79705 4.92201 4.92201 4.78472 4.44378 4.03146 3.6144 3.25751 
2.99161 2.85762 3.00692 3.23232 3.54045 3.87954 4.13574 4.19948 4.19948 
4.15893 3.90084 3.56191 3.25597 3.03389 2.8884 2.72173 2.82345 2.95642 
3.14988 3.38034 3.53719 3.53719 3.56259 3.56259 3.40473 3.17512 2.98398 
2.85399 2.75555 2.54777 2.64425 2.72483 2.82231 2.93443 2.9752 2.9752 
3.0014 3.0014 2.96086 2.85017 2.75496 2.677 2.58328 2.34207 2.45297 
2.51012 2.53744 2.5414 2.5414 2.46618 2.49203 2.56888 2.56888 2.56689 
2.54179 2.48695 2.37827 2.11703 2.24762 2.29886 2.29886 2.2803 2.1971 
2.02006 2.04464 2.22475 2.31046 2.33125 2.33125 2.28204 2.15306 1.88586 
2.03338 2.08732 2.08732 2.04214 1.89607 1.63992 1.66253 1.92311 2.07224 
2.11973 2.11973 2.06757 1.92093 1.65996 1.81825 1.87747 1.87747 1.81921 
1.63302 1.32316 1.34328 1.65874 1.84858 1.90929 1.90929 1.85159 1.69336 
1.44758 1.6111 1.67541 1.67541 1.61242 1.40387 1.06296 1.08022 1.42769 
1.64045 1.70606 1.70606 1.64309 1.47884 1.24826 1.40973 1.47902 1.47902 
1.41809 1.20124 0.848543 0.862662 1.22255 1.44403 1.50764 1.50764 1.43952 
1.27706 14.0855 56.367 56.367 27.6204 21.657 18.0897 15.8283 15.8283 
18.0897 21.657 27.6204 56.367 56.367 14.0855 11.2723 9.37616 11.5824 
14.2246 14.7762 14.9569 14.9569 14.9569 14.9569 14.7762 14.2246 11.5824 
9.37616 11.2723 12.3937 11.7051 9.69881 10.6088 13.8167 14.9569 14.9569 
14.9569 14.9569 13.8167 10.6088 9.69881 11.7051 12.3937 12.5842 12.5842 
11.7542 9.67972 11.9873 14.9478 14.9478 14.9478 14.9478 11.9873 9.67972 
11.7542 12.5842 12.5842 12.6116 12.6116 12.465 11.4259 10.4272 14.0881 
14.0881 14.0881 14.0881 10.4272 11.4259 12.465 12.6116 12.6116 12.6116 
12.6116 12.465 12.0094 10.7421 12.6306 12.6306 12.6306 12.6306 10.7421 
12.0094 12.465 12.6116 12.6116 12.1477 12.4356 12.4356 12.0094 11.1646 
9.59602 6.879 6.879 9.59602 11.1646 12.0094 12.4356 12.4356 12.1477 
11.389 11.9572 11.9572 11.9214 11.1646 9.70716 7.13483 7.13483 9.70716 
11.1646 11.9214 11.9572 11.9572 11.389 10.4593 11.1999 11.4157 11.4157 
10.9678 9.70716 7.13483 7.13483 9.70716 10.9678 11.4157 11.4157 11.1999 
10.4593 9.4432 10.2765 10.6489 10.6489 10.3907 9.28726 6.76299 6.76299 
9.28726 10.3907 10.6489 10.6489 10.2765 9.4432 8.40124 9.26775 9.72884 
9.72884 9.58692 8.57573 6.12603 6.12603 8.57573 9.58692 9.72884 9.72884 
9.26775 8.40124 7.37752 8.23298 8.73361 8.73361 8.66275 7.72399 5.40755 
5.40755 7.72399 8.66275 8.73361 8.73361 8.23298 7.37752 6.4043 7.21562 
7.7185 7.7185 7.69057 6.82708 4.6983 4.6983 6.82708 7.69057 7.7185 
7.7185 7.21562 6.4043 5.51699 6.26574 6.74053 6.74053 6.72974 5.94363 
4.03382 4.03382 5.94363 6.72974 6.74053 6.74053 6.26574 5.51699 9.59535 
9.85792 9.85792 9.60532 9.11352 8.54136 7.99517 7.98766 8.53692 9.11274 
9.60882 9.86648 9.86648 9.61047 5.59695 6.82251 7.50796 7.72225 7.72225 
7.6049 7.30008 7.3026 7.61059 7.73128 7.73128 7.52003 6.83688 5.61242 
3.37836 4.3111 5.47454 6.22188 6.54008 6.54008 6.51971 6.53113 6.55401 
6.55401 6.23742 5.49003 4.32448 3.37496 3.11346 3.60218 4.11342 4.75676 
5.40818 5.66574 5.66574 5.68422 5.68422 5.42756 4.77489 4.10267 3.58897 
3.09632 2.99161 3.25751 3.6144 4.03146 4.44378 4.78472 4.92201 4.92201 
4.79705 4.42672 4.015 3.5963 3.23607 2.96596 2.8884 3.03389 3.25597 
3.56191 3.90084 4.15893 4.19948 4.19948 4.13574 3.87954 3.54045 3.23232 
3.00692 2.85762 2.75555 2.85399 2.98398 3.17512 3.40473 3.56259 3.56259 
3.53719 3.53719 3.38034 3.14988 2.95642 2.82345 2.72173 2.58328 2.677 
2.75496 2.85017 2.96086 3.0014 3.0014 2.9752 2.9752 2.93443 2.82231 
2.72483 2.64425 2.54777 2.37827 2.48695 2.54179 2.56689 2.56888 2.56888 
2.49203 2.46618 2.5414 2.5414 2.53744 2.51012 2.45297 2.34207 2.15306 
2.28204 2.33125 2.33125 2.31046 2.22475 2.04464 2.02006 2.1971 2.2803 
2.29886 2.29886 2.24762 2.11703 1.92093 2.06757 2.11973 2.11973 2.07224 
1.92311 1.66253 1.63992 1.89607 2.04214 2.08732 2.08732 2.03338 1.88586 
1.69336 1.85159 1.90929 1.90929 1.84858 1.65874 1.34328 1.32316 1.63302 
1.81921 1.87747 1.87747 1.81825 1.65996 1.47884 1.64309 1.70606 1.70606 
1.64045 1.42769 1.08022 1.06296 1.40387 1.61242 1.67541 1.67541 1.6111 
1.44758 1.27706 1.43952 1.50764 1.50764 1.44403 1.22255 0.862662 0.848543 
1.20124 1.41809 1.47902 1.47902 1.40973 1.24826 13.8047 55.5617 55.5617 
27.772 21.7541 18.1606 15.8862 15.8862 18.1606 21.7541 27.772 55.5617 
55.5617 13.8047 11.2234 9.2573 11.5961 14.2834 14.8411 15.0566 15.0566 
15.0566 15.0566 14.8411 14.2834 11.5961 9.25729 11.2234 12.3168 11.631 
9.63018 10.6373 13.889 15.0694 15.0694 15.0694 15.0694 13.889 10.6373 
9.63018 11.631 12.3168 12.4869 12.4869 11.6599 9.59031 12.0486 15.0694 
15.0694 15.0694 15.0694 12.0486 9.59031 11.6599 12.4869 12.4869 12.4944 
12.4944 12.3507 11.3154 10.4906 14.2312 14.2312 14.2312 14.2312 10.4906 
11.3154 12.3507 12.4944 12.4944 12.4944 12.4944 12.3507 11.8819 10.6201 
8.42471 12.0041 12.0041 8.42471 10.6201 11.8819 12.3507 12.4944 12.4944 
12.0115 12.3034 12.3034 11.8819 11.0293 9.47178 6.78294 6.78294 9.47178 
11.0293 11.8819 12.3034 12.3034 12.0115 11.234 11.8079 11.8079 11.7785 
11.0293 9.57593 7.03864 7.03864 9.57593 11.0293 11.7785 11.8079 11.8079 
11.234 10.2848 11.0335 11.2582 11.2582 10.8209 9.57593 7.03864 7.03864 
9.57593 10.8209 11.2582 11.2582 11.0335 10.2848 9.24821 10.0926 10.477 
10.477 10.2332 9.15066 6.66795 6.66795 9.15066 10.2332 10.477 10.477 
10.0926 9.24821 8.18404 9.06547 9.5424 9.5424 9.41917 8.43446 6.0321 
6.0321 8.43446 9.41917 9.5424 9.5424 9.06547 8.18404 7.1359 8.01088 
8.53191 8.53191 8.48467 7.57813 5.3141 5.3141 7.57813 8.48467 8.53191 
8.53191 8.01088 7.1359 6.13576 6.9718 7.50039 7.50159 7.50159 6.67614 
4.6044 4.6044 6.67614 7.50159 7.50159 7.50039 6.9718 6.13576 5.21906 
5.99746 6.50383 6.52831 6.52831 5.78639 3.93813 3.93813 5.78639 6.52831 
6.52831 6.50383 5.99746 5.21906 20.6241 9.5 5.65872 4.11291 3.02391 
2.36086 1.91254 1.59927 1.37009 1.19653 1.06088 0.951895 0.862128 0.786498 
0.721456 9.5 9.5 5.65872 4.11291 3.02391 2.42972 2.0002 1.68188 
1.44272 1.25873 1.11386 0.997101 0.900851 0.819763 0.750015 3.04483 4.66781 
4.66781 3.74465 3.0206 2.42972 2.0002 1.68188 1.46319 1.28827 1.1463 
1.02951 0.931843 0.848676 0.776516 3.04483 2.36818 2.86269 2.86269 2.61083 
2.27103 1.94871 1.68041 1.46319 1.28827 1.1463 1.03435 0.941614 0.860896 
0.789607 2.73948 1.05822 1.79094 2.00695 2.00695 1.92955 1.76401 1.58292 
1.41511 1.26817 1.14213 1.03435 0.941614 0.860896 0.790439 2.40313 1.17864 
0.99161 1.39402 1.52075 1.52075 1.5003 1.41679 1.31181 1.20511 1.10486 
1.01365 0.931567 0.857609 0.790439 2.09416 1.17864 0.492317 0.894258 1.1265 
1.21286 1.21422 1.21422 1.17175 1.10936 1.04007 0.970403 0.903251 0.839587 
0.779387 1.82557 1.17699 0.601505 0.519035 0.791348 0.940377 1.00422 1.01457 
1.01457 0.993769 0.95605 0.909911 0.860113 0.809122 0.758037 1.59301 1.12099 
0.642435 0.263772 0.52448 0.702906 0.806333 0.856202 0.870214 0.870214 0.8613 
0.838174 0.806371 0.769217 0.728572 1.39094 1.04118 0.644038 0.340002 0.320165 
0.506188 0.630911 0.707315 0.747975 0.763263 0.763263 0.76093 0.746379 0.723174 
0.693531 1.21427 0.952627 0.644038 0.379232 0.167527 0.348373 0.481468 0.573727 
0.633257 0.667613 0.683 0.684094 0.684094 0.674202 0.655519 1.05892 0.863003 
0.623261 0.394791 0.202737 0.224315 0.357433 0.457619 0.529524 0.578154 0.608024 
0.622781 0.625144 0.625144 0.616991 0.924813 0.776345 0.590329 0.395592 0.237546 
0.127971 0.256154 0.358824 0.438145 0.497039 0.538445 0.564892 0.578331 0.580113 
0.580113 0.823175 0.694834 0.551611 0.395592 0.264144 0.169432 0.174142 0.275826 
0.359042 0.425117 0.475645 0.512078 0.535529 0.546688 0.546688 0.736126 0.624509 
0.511191 0.387703 0.285431 0.203205 0.131957 0.206427 0.291211 0.362276 0.420128 
0.465261 0.497944 0.518125 0.525658 0.655226 0.57176 0.475613 0.378488 0.300851 
0.230878 0.167343 0.148155 0.233092 0.307715 0.371699 0.424719 0.466246 0.495435 
0.511355 0.580468 0.523537 0.450759 0.375346 0.312389 0.254173 0.198668 0.14678 
0.182803 0.260141 0.329589 0.390159 0.440591 0.479221 0.505 0.511951 0.478317 
0.427704 0.371346 0.32152 0.274411 0.227004 0.180315 0.138276 0.217894 0.292543 
0.36075 0.420614 0.469648 0.514098 0.449889 0.436884 0.40579 0.366358 0.329257 
0.292512 0.253118 0.212118 0.169687 0.179011 0.258855 0.335114 0.405382 0.468398 
0.531401 0.399866 0.399866 0.385889 0.361389 0.336197 0.308995 0.277425 0.24252 
0.204394 0.162364 0.22637 0.311279 0.393285 0.473847 0.556047 0.367768 0.368586 
0.368586 0.357061 0.342553 0.323982 0.299956 0.271493 0.238608 0.200371 0.192478 
0.286595 0.381881 0.479632 0.586022 0.340982 0.354213 0.354213 0.353655 0.348188 
0.337215 0.320337 0.298591 0.271895 0.239053 0.197806 0.257652 0.367676 0.480987 
0.617537 0.319779 0.342875 0.351151 0.352661 0.352661 0.348087 0.337797 0.3229 
0.303286 0.277542 0.242898 0.220223 0.345889 0.480987 0.644132 0.304302 0.33447 
0.349269 0.355297 0.355713 0.355713 0.351208 0.343047 0.331208 0.314216 0.288919 
0.250318 0.310251 0.47092 0.655467 0.300539 0.334158 0.35316 0.360581 0.360581 
0.359204 0.359191 0.357256 0.353477 0.346563 0.333304 0.308056 0.262457 0.439592 
0.655467 0.313448 0.343963 0.363346 0.374279 0.378845 0.378845 0.37793 0.371225 
0.371145 0.372031 0.372031 0.364463 0.338773 0.374146 0.635735 0.329749 0.35426 
0.371812 0.384553 0.394377 0.402157 0.407757 0.409683 0.409683 0.404517 0.412772 
0.414504 0.414504 0.387231 0.561843 0.348154 0.36389 0.377264 0.389879 0.403323 
0.418528 0.435757 0.454225 0.471462 0.482204 0.482204 0.476907 0.496079 0.496079 
0.466167 0.398496 0.38505 0.378848 0.389384 0.404615 0.425522 0.452921 0.49618 
0.555781 0.629521 0.715092 0.803783 0.873543 0.873543 0.873176 0.433593 0.398714 
0.375345 0.37943 0.393406 0.416548 0.450261 0.49618 0.555781 0.641601 0.764294 
0.916598 1.0858 1.25923 1.28161 0.462545 0.406904 0.373573 0.361469 0.369812 
0.391024 0.425621 0.476354 0.546901 0.641601 0.764294 0.926712 1.17962 1.51684 
1.81468 0.482255 0.408402 0.366434 0.343011 0.335322 0.350372 0.379783 0.426779 
0.496428 0.596033 0.735353 0.926712 1.17962 1.51684 2.04488 0.490269 0.408402 
0.353977 0.319482 0.299778 0.298377 0.317192 0.352188 0.408431 0.494131 0.621955 
0.811793 1.09085 1.51167 2.04488 0.507475 0.409861 0.336923 0.292808 0.263855 
0.247169 0.246155 0.263481 0.296882 0.352942 0.442913 0.586062 0.814504 1.18784 
1.77833 0.517133 0.414056 0.332654 0.271966 0.228805 0.203346 0.186549 0.177333 
0.183386 0.203497 0.242632 0.312594 0.436367 0.651839 1.07033 0.517133 0.414056 
0.333459 0.277204 0.236092 0.206604 0.186449 0.174577 0.177483 0.197153 0.236696 
0.308077 0.434545 0.654506 1.07952 0.51327 0.41172 0.333459 0.283527 0.251268 
0.232134 0.228848 0.246321 0.28071 0.338621 0.431382 0.578432 0.812125 1.19246 
1.79099 0.495364 0.402037 0.331757 0.288672 0.267032 0.265092 0.285202 0.322444 
0.381826 0.471513 0.604163 0.799701 1.08539 1.51386 2.05407 0.464003 0.384598 
0.326238 0.290322 0.283029 0.300269 0.333022 0.384369 0.459238 0.564795 0.710648 
0.908904 1.16882 1.51386 2.05407 0.420792 0.359489 0.315755 0.290322 0.298628 
0.324052 0.364117 0.421337 0.499152 0.601657 0.732391 0.908904 1.16882 1.51325 
1.81632 0.368084 0.327275 0.299497 0.28652 0.303306 0.33282 0.374235 0.428842 
0.499152 0.601657 0.732391 0.892612 1.06867 1.24781 1.27394 0.309003 0.289095 
0.277461 0.284631 0.303306 0.33282 0.374235 0.428842 0.497772 0.581122 0.676195 
0.77374 0.851173 0.854251 0.854251 0.199988 0.2158 0.232805 0.252325 0.27525 
0.301896 0.331914 0.363932 0.394909 0.419027 0.426192 0.426192 0.451937 0.451937 
0.42841 0.154942 0.181072 0.204248 0.226374 0.248434 0.270521 0.291741 0.309885 
0.320865 0.320865 0.341569 0.355108 0.355108 0.337154 0.577704 0.111551 0.145261 
0.172594 0.195706 0.215571 0.232115 0.244116 0.248966 0.262497 0.280621 0.287912 
0.287912 0.27453 0.389347 0.644332 0.113847 0.108845 0.138605 0.161511 0.178483 
0.18937 0.197803 0.21741 0.231615 0.236879 0.236879 0.227345 0.270822 0.445776 
0.653305 0.133377 0.0732006 0.103907 0.125747 0.139588 0.155061 0.174808 0.188616 
0.194495 0.194495 0.188964 0.192906 0.317156 0.464666 0.653305 0.146598 0.0787671 
0.0698414 0.0900612 0.108836 0.131521 0.147516 0.155928 0.155928 0.15482 0.141169 
0.231179 0.338391 0.464666 0.627921 0.154246 0.0918073 0.0390439 0.0580665 0.0856207 
0.105654 0.118026 0.121835 0.121835 0.115374 0.173154 0.252123 0.341979 0.458802 
0.584051 0.157137 0.101311 0.0532341 0.0365891 0.0617286 0.0789776 0.0880945 0.0882603 
0.0882603 0.134442 0.19287 0.260321 0.341979 0.437926 0.532007 0.157137 0.107597 
0.0649724 0.0413539 0.038226 0.0527366 0.0590785 0.0754351 0.109739 0.152659 0.203229 
0.260321 0.333941 0.408894 0.47819 0.156105 0.111041 0.0796761 0.0605194 0.0505848 
0.0567711 0.0722537 0.095611 0.126402 0.163869 0.20674 0.259614 0.318803 0.376327 
0.426325 0.15196 0.117422 0.0922704 0.076086 0.0680749 0.075215 0.0896155 0.110651 
0.137678 0.169743 0.20674 0.253021 0.299813 0.343193 0.378389 0.149655 0.122404 
0.101509 0.0882619 0.0826867 0.0897556 0.102849 0.121414 0.144703 0.171681 0.205447 
0.242817 0.279211 0.311294 0.335263 0.148915 0.124509 0.107753 0.0973452 0.094141 
0.100857 0.112571 0.128698 0.148457 0.171681 0.200946 0.23065 0.258472 0.281641 
0.297166 0.145509 0.124509 0.111401 0.103689 0.102671 0.108998 0.11937 0.133211 
0.149759 0.170816 0.194445 0.217678 0.238527 0.254725 0.263946 0.140052 0.124225 
0.112862 0.10767 0.108688 0.114647 0.123785 0.135563 0.149759 0.168037 0.186831 
0.204682 0.219918 0.230705 0.235249 0.133092 0.122022 0.112862 0.109678 0.112596 
0.118244 0.126295 0.136268 0.149272 0.164023 0.178739 0.19217 0.202927 0.209542 
0.210639 0.125105 0.118335 0.112533 0.111358 0.114775 0.120186 0.127317 0.136268 
0.147528 0.159287 0.170613 0.180451 0.187662 0.19108 0.19108 0.116498 0.113558 
0.110795 0.111668 0.115577 0.120829 0.127317 0.135754 0.144943 0.154206 0.16275 
0.169697 0.174124 0.175109 0.175109 0.108041 0.108041 0.10918 0.111668 0.115577 
0.120829 0.127209 0.134369 0.141842 0.149054 0.155342 0.159986 0.162244 0.162244 
0.161393 0.102086 0.104435 0.107348 0.110925 0.115316 0.120485 0.126273 0.132398 
0.138473 0.144024 0.148507 0.151336 0.151921 0.151921 0.149698 0.09595 0.100398 
0.104843 0.10941 0.114269 0.119423 0.124762 0.130067 0.135025 0.139253 0.142309 
0.143725 0.143725 0.143034 0.139801 0.0898517 0.0961191 0.101909 0.107367 0.112676 
0.117871 0.122885 0.127556 0.13164 0.134831 0.136777 0.137109 0.137109 0.13546 
0.131498 0.0839704 0.0917976 0.0987583 0.105009 0.110742 0.116019 0.120812 0.125008 
0.128422 0.130816 0.131916 0.131916 0.131431 0.129079 0.124606 0.0784536 0.0876023 
0.0955681 0.102514 0.108638 0.114026 0.11868 0.122531 0.125446 0.127244 0.127714 
0.127714 0.126631 0.123779 0.118966 0.0734203 0.0836717 0.0924856 0.100029 0.106505 
0.112016 0.116595 0.120208 0.122764 0.124131 0.124149 0.124149 0.122646 0.119457 
0.114439 0.0689652 0.0801173 0.0896299 0.0976727 0.104453 0.110089 0.114638 0.118095 
0.120407 0.121479 0.121479 0.121192 0.119415 0.116023 0.110907 0.0651629 0.0770271 
0.087094 0.0955364 0.102566 0.108317 0.112865 0.116231 0.11839 0.119279 0.119279 
0.11881 0.116881 0.113397 0.108271 0.0620707 0.0744678 0.0849473 0.0936864 0.100904 
0.106747 0.11131 0.114633 0.116715 0.117515 0.117515 0.116967 0.114991 0.111509 
0.10645 0.0920897 0.093651 0.0959531 0.0990817 0.103369 0.109027 0.116118 0.12487 
0.135564 0.148535 0.164188 0.183005 0.205557 0.232512 0.26464 0.302807 0.347955 
0.403119 0.475497 0.562618 0.66667 0.789321 0.930811 1.08814 1.25281 1.40203 
1.51438 1.51438 0.0829369 0.0847476 0.0873144 0.090688 0.0949457 0.100195 0.106578 
0.114275 0.123513 0.135181 0.15055 0.16926 0.192002 0.219622 0.253157 0.293865 
0.343257 0.403119 0.475497 0.562618 0.674121 0.823576 1.00839 1.23359 1.50136 
1.79833 2.11515 2.24284 0.0722461 0.0742258 0.0769364 0.0804401 0.0848277 0.0902238 
0.0967921 0.104743 0.114343 0.125926 0.13991 0.156812 0.177272 0.202079 0.232204 
0.269789 0.318926 0.380796 0.457878 0.554069 0.674121 0.823576 1.00839 1.26179 
1.61352 2.05696 2.6253 3.14592 0.0601567 0.06221 0.0649269 0.0683745 0.072649 
0.0778804 0.0842396 0.0919471 0.101284 0.112609 0.126373 0.143149 0.163663 0.188837 
0.219846 0.25819 0.305798 0.365147 0.439426 0.532728 0.650254 0.798475 1.00658 
1.29448 1.67976 2.19849 2.86992 3.81929 0.0468348 0.0488573 0.0514348 0.0546327 
0.0585426 0.0632877 0.0690291 0.0759754 0.0843943 0.0946283 0.107116 0.122419 0.141261 
0.164578 0.193594 0.229912 0.275663 0.333699 0.407879 0.503477 0.627757 0.7908 
1.00658 1.29448 1.67976 2.19849 3.03709 4.37059 0.0325055 0.0343912 0.0366865 
0.0394484 0.0427544 0.0467079 0.0514437 0.0571362 0.0640099 0.0723531 0.0825371 0.0950413 
0.110489 0.129695 0.153736 0.184052 0.222585 0.272001 0.336006 0.419842 0.531051 
0.680702 0.885361 1.17038 1.57543 2.16454 3.03709 4.37059 0.0174402 0.0190889 
0.0209731 0.0231346 0.0256286 0.0285277 0.0319256 0.0359429 0.0407348 0.0465005 0.0534963 
0.0620535 0.0726032 0.08571 0.102122 0.122842 0.149231 0.183167 0.227288 0.285369 
0.362941 0.468304 0.614313 0.821503 1.12459 1.58167 2.3163 3.46701 0.0174402 
0.0190889 0.0209731 0.0231346 0.0256286 0.0285277 0.0319256 0.0359429 0.0407348 0.0465005 
0.0534963 0.0620535 0.0726032 0.08571 0.102122 0.122842 0.149231 0.183167 0.227288 
0.285369 0.362941 0.468304 0.614313 0.821503 1.12459 1.58167 2.3163 3.46701 
0.0325055 0.0343912 0.0366865 0.0394484 0.0427544 0.0467079 0.0514437 0.0571362 0.0640099 
0.0723531 0.0825371 0.0950413 0.110489 0.129695 0.153736 0.184052 0.222585 0.272001 
0.336006 0.419842 0.531051 0.680702 0.885361 1.17038 1.57543 2.16454 3.03709 
4.37059 0.0468348 0.0488573 0.0514348 0.0546327 0.0585426 0.0632877 0.0690291 0.0759754 
0.0843943 0.0946283 0.107116 0.122419 0.141261 0.164578 0.193594 0.229912 0.275663 
0.333699 0.407879 0.503477 0.627757 0.7908 1.00658 1.29448 1.67976 2.19849 
3.03709 4.37059 0.0601567 0.06221 0.0649269 0.0683745 0.072649 0.0778804 0.0842396 
0.0919471 0.101284 0.112609 0.126373 0.143149 0.163663 0.188837 0.219846 0.25819 
0.305798 0.365147 0.439426 0.532728 0.650254 0.798475 1.00658 1.29448 1.67976 
2.19849 2.86992 3.81929 0.0722461 0.0742258 0.0769364 0.0804401 0.0848277 0.0902238 
0.0967921 0.104743 0.114343 0.125926 0.13991 0.156812 0.177272 0.202079 0.232204 
0.269789 0.318926 0.380796 0.457878 0.554069 0.674121 0.823576 1.00839 1.26179 
1.61352 2.05696 2.6253 3.14592 0.0829369 0.0847476 0.0873144 0.090688 0.0949457 
0.100195 0.106578 0.114275 0.123513 0.135181 0.15055 0.16926 0.192002 0.219622 
0.253157 0.293865 0.343257 0.403119 0.475497 0.562618 0.674121 0.823576 1.00839 
1.23359 1.50136 1.79833 2.11515 2.24284 0.0920897 0.093651 0.0959531 0.0990817 
0.103369 0.109027 0.116118 0.12487 0.135564 0.148535 0.164188 0.183005 0.205557 
0.232512 0.26464 0.302807 0.347955 0.403119 0.475497 0.562618 0.66667 0.789321 
0.930811 1.08814 1.25281 1.40203 1.51438 1.51438 0.10645 0.108271 0.110907 
0.114439 0.118966 0.124606 0.131498 0.139801 0.149698 0.161393 0.175109 0.19108 
0.210639 0.235249 0.263946 0.297166 0.335263 0.378389 0.426325 0.47819 0.532007 
0.584051 0.627921 0.653305 0.653305 0.644332 0.577704 0.42841 0.111509 0.113397 
0.116023 0.119457 0.123779 0.129079 0.13546 0.143034 0.151921 0.162244 0.175109 
0.19108 0.209542 0.230705 0.254725 0.281641 0.311294 0.343193 0.376327 0.408894 
0.437926 0.458802 0.464666 0.464666 0.445776 0.389347 0.337154 0.451937 0.114991 
0.116881 0.119415 0.122646 0.126631 0.131431 0.137109 0.143725 0.151921 0.162244 
0.174124 0.187662 0.202927 0.219918 0.238527 0.258472 0.279211 0.299813 0.318803 
0.333941 0.341979 0.341979 0.338391 0.317156 0.270822 0.27453 0.355108 0.451937 
0.116967 0.11881 0.121192 0.124149 0.127714 0.131916 0.137109 0.143725 0.151336 
0.159986 0.169697 0.180451 0.19217 0.204682 0.217678 0.23065 0.242817 0.253021 
0.259614 0.260321 0.260321 0.252123 0.231179 0.192906 0.227345 0.287912 0.355108 
0.426192 0.117515 0.119279 0.121479 0.124149 0.127714 0.131916 0.136777 0.142309 
0.148507 0.155342 0.16275 0.170613 0.178739 0.186831 0.194445 0.200946 0.205447 
0.20674 0.20674 0.203229 0.19287 0.173154 0.141169 0.188964 0.236879 0.287912 
0.341569 0.426192 0.117515 0.119279 0.121479 0.124131 0.127244 0.130816 0.134831 
0.139253 0.144024 0.149054 0.154206 0.159287 0.164023 0.168037 0.170816 0.171681 
0.171681 0.169743 0.163869 0.152659 0.134442 0.115374 0.15482 0.194495 0.236879 
0.280621 0.320865 0.419027 0.116715 0.11839 0.120407 0.122764 0.125446 0.128422 
0.13164 0.135025 0.138473 0.141842 0.144943 0.147528 0.149272 0.149759 0.149759 
0.148457 0.144703 0.137678 0.126402 0.109739 0.0882603 0.121835 0.155928 0.194495 
0.231615 0.262497 0.320865 0.394909 0.114633 0.116231 0.118095 0.120208 0.122531 
0.125008 0.127556 0.130067 0.132398 0.134369 0.135754 0.136268 0.136268 0.135563 
0.133211 0.128698 0.121414 0.110651 0.095611 0.0754351 0.0882603 0.121835 0.155928 
0.188616 0.21741 0.248966 0.309885 0.363932 0.11131 0.112865 0.114638 0.116595 
0.11868 0.120812 0.122885 0.124762 0.126273 0.127209 0.127317 0.127317 0.126295 
0.123785 0.11937 0.112571 0.102849 0.0896155 0.0722537 0.0590785 0.0880945 0.118026 
0.147516 0.174808 0.197803 0.244116 0.291741 0.331914 0.106747 0.108317 0.110089 
0.112016 0.114026 0.116019 0.117871 0.119423 0.120485 0.120829 0.120829 0.120186 
0.118244 0.114647 0.108998 0.100857 0.0897556 0.075215 0.0567711 0.0527366 0.0789776 
0.105654 0.131521 0.155061 0.18937 0.232115 0.270521 0.301896 0.100904 0.102566 
0.104453 0.106505 0.108638 0.110742 0.112676 0.114269 0.115316 0.115577 0.115577 
0.114775 0.112596 0.108688 0.102671 0.094141 0.0826867 0.0680749 0.0505848 0.038226 
0.0617286 0.0856207 0.108836 0.139588 0.178483 0.215571 0.248434 0.27525 0.0936864 
0.0955364 0.0976727 0.100029 0.102514 0.105009 0.107367 0.10941 0.110925 0.111668 
0.111668 0.111358 0.109678 0.10767 0.103689 0.0973452 0.0882619 0.076086 0.0605194 
0.0413539 0.0365891 0.0580665 0.0900612 0.125747 0.161511 0.195706 0.226374 0.252325 
0.0849473 0.087094 0.0896299 0.0924856 0.0955681 0.0987583 0.101909 0.104843 0.107348 
0.10918 0.110795 0.112533 0.112862 0.112862 0.111401 0.107753 0.101509 0.0922704 
0.0796761 0.0649724 0.0532341 0.0390439 0.0698414 0.103907 0.138605 0.172594 0.204248 
0.232805 0.0744678 0.0770271 0.0801173 0.0836717 0.0876023 0.0917976 0.0961191 0.100398 
0.104435 0.108041 0.113558 0.118335 0.122022 0.124225 0.124509 0.124509 0.122404 
0.117422 0.111041 0.107597 0.101311 0.0918073 0.0787671 0.0732006 0.108845 0.145261 
0.181072 0.2158 0.0620707 0.0651629 0.0689652 0.0734203 0.0784536 0.0839704 0.0898517 
0.09595 0.102086 0.108041 0.116498 0.125105 0.133092 0.140052 0.145509 0.148915 
0.149655 0.15196 0.156105 0.157137 0.157137 0.154246 0.146598 0.133377 0.113847 
0.111551 0.154942 0.199988 0.309003 0.289095 0.277461 0.284631 0.303306 0.33282 
0.374235 0.428842 0.497772 0.581122 0.676195 0.77374 0.851173 0.854251 0.854251 
0.368084 0.327275 0.299497 0.28652 0.303306 0.33282 0.374235 0.428842 0.499152 
0.601657 0.732391 0.892612 1.06867 1.24781 1.27394 0.420792 0.359489 0.315755 
0.290322 0.298628 0.324052 0.364117 0.421337 0.499152 0.601657 0.732391 0.908904 
1.16882 1.51325 1.81632 0.464003 0.384598 0.326238 0.290322 0.283029 0.300269 
0.333022 0.384369 0.459238 0.564795 0.710648 0.908904 1.16882 1.51386 2.05407 
0.495364 0.402037 0.331757 0.288672 0.267032 0.265092 0.285202 0.322444 0.381826 
0.471513 0.604163 0.799701 1.08539 1.51386 2.05407 0.51327 0.41172 0.333459 
0.283527 0.251268 0.232134 0.228848 0.246321 0.28071 0.338621 0.431382 0.578432 
0.812125 1.19246 1.79099 0.517133 0.414056 0.333459 0.277204 0.236092 0.206604 
0.186449 0.174577 0.177483 0.197153 0.236696 0.308077 0.434545 0.654506 1.07952 
0.517133 0.414056 0.332654 0.271966 0.228805 0.203346 0.186549 0.177333 0.183386 
0.203497 0.242632 0.312594 0.436367 0.651839 1.07033 0.507475 0.409861 0.336923 
0.292808 0.263855 0.247169 0.246155 0.263481 0.296882 0.352942 0.442913 0.586062 
0.814504 1.18784 1.77833 0.490269 0.408402 0.353977 0.319482 0.299778 0.298377 
0.317192 0.352188 0.408431 0.494131 0.621955 0.811793 1.09085 1.51167 2.04488 
0.482255 0.408402 0.366434 0.343011 0.335322 0.350372 0.379783 0.426779 0.496428 
0.596033 0.735353 0.926712 1.17962 1.51684 2.04488 0.462545 0.406904 0.373573 
0.361469 0.369812 0.391024 0.425621 0.476354 0.546901 0.641601 0.764294 0.926712 
1.17962 1.51684 1.81468 0.433593 0.398714 0.375345 0.37943 0.393406 0.416548 
0.450261 0.49618 0.555781 0.641601 0.764294 0.916598 1.0858 1.25923 1.28161 
0.398496 0.38505 0.378848 0.389384 0.404615 0.425522 0.452921 0.49618 0.555781 
0.629521 0.715092 0.803783 0.873543 0.873543 0.873176 0.348154 0.36389 0.377264 
0.389879 0.403323 0.418528 0.435757 0.454225 0.471462 0.482204 0.482204 0.476907 
0.496079 0.496079 0.466167 0.329749 0.35426 0.371812 0.384553 0.394377 0.402157 
0.407757 0.409683 0.409683 0.404517 0.412772 0.414504 0.414504 0.387231 0.561843 
0.313448 0.343963 0.363346 0.374279 0.378845 0.378845 0.37793 0.371225 0.371145 
0.372031 0.372031 0.364463 0.338773 0.374146 0.635735 0.300539 0.334158 0.35316 
0.360581 0.360581 0.359204 0.359191 0.357256 0.353477 0.346563 0.333304 0.308056 
0.262457 0.439592 0.655467 0.304302 0.33447 0.349269 0.355297 0.355713 0.355713 
0.351208 0.343047 0.331208 0.314216 0.288919 0.250318 0.310251 0.47092 0.655467 
0.319779 0.342875 0.351151 0.352661 0.352661 0.348087 0.337797 0.3229 0.303286 
0.277542 0.242898 0.220223 0.345889 0.480987 0.644132 0.340982 0.354213 0.354213 
0.353655 0.348188 0.337215 0.320337 0.298591 0.271895 0.239053 0.197806 0.257652 
0.367676 0.480987 0.617537 0.367768 0.368586 0.368586 0.357061 0.342553 0.323982 
0.299956 0.271493 0.238608 0.200371 0.192478 0.286595 0.381881 0.479632 0.586022 
0.399866 0.399866 0.385889 0.361389 0.336197 0.308995 0.277425 0.24252 0.204394 
0.162364 0.22637 0.311279 0.393285 0.473847 0.556047 0.449889 0.436884 0.40579 
0.366358 0.329257 0.292512 0.253118 0.212118 0.169687 0.179011 0.258855 0.335114 
0.405382 0.468398 0.531401 0.511951 0.478317 0.427704 0.371346 0.32152 0.274411 
0.227004 0.180315 0.138276 0.217894 0.292543 0.36075 0.420614 0.469648 0.514098 
0.580468 0.523537 0.450759 0.375346 0.312389 0.254173 0.198668 0.14678 0.182803 
0.260141 0.329589 0.390159 0.440591 0.479221 0.505 0.655226 0.57176 0.475613 
0.378488 0.300851 0.230878 0.167343 0.148155 0.233092 0.307715 0.371699 0.424719 
0.466246 0.495435 0.511355 0.736126 0.624509 0.511191 0.387703 0.285431 0.203205 
0.131957 0.206427 0.291211 0.362276 0.420128 0.465261 0.497944 0.518125 0.525658 
0.823175 0.694834 0.551611 0.395592 0.264144 0.169432 0.174142 0.275826 0.359042 
0.425117 0.475645 0.512078 0.535529 0.546688 0.546688 0.924813 0.776345 0.590329 
0.395592 0.237546 0.127971 0.256154 0.358824 0.438145 0.497039 0.538445 0.564892 
0.578331 0.580113 0.580113 1.05892 0.863003 0.623261 0.394791 0.202737 0.224315 
0.357433 0.457619 0.529524 0.578154 0.608024 0.622781 0.625144 0.625144 0.616991 
1.21427 0.952627 0.644038 0.379232 0.167527 0.348373 0.481468 0.573727 0.633257 
0.667613 0.683 0.684094 0.684094 0.674202 0.655519 1.39094 1.04118 0.644038 
0.340002 0.320165 0.506188 0.630911 0.707315 0.747975 0.763263 0.763263 0.76093 
0.746379 0.723174 0.693531 1.59301 1.12099 0.642435 0.263772 0.52448 0.702906 
0.806333 0.856202 0.870214 0.870214 0.8613 0.838174 0.806371 0.769217 0.728572 
1.82557 1.17699 0.601505 0.519035 0.791348 0.940377 1.00422 1.01457 1.01457 
0.993769 0.95605 0.909911 0.860113 0.809122 0.758037 2.09416 1.17864 0.492317 
0.894258 1.1265 1.21286 1.21422 1.21422 1.17175 1.10936 1.04007 0.970403 
0.903251 0.839587 0.779387 2.40313 1.17864 0.99161 1.39402 1.52075 1.52075 
1.5003 1.41679 1.31181 1.20511 1.10486 1.01365 0.931567 0.857609 0.790439 
2.73948 1.05822 1.79094 2.00695 2.00695 1.92955 1.76401 1.58292 1.41511 
1.26817 1.14213 1.03435 0.941614 0.860896 0.790439 3.04483 2.36818 2.86269 
2.86269 2.61083 2.27103 1.94871 1.68041 1.46319 1.28827 1.1463 1.03435 
0.941614 0.860896 0.789607 3.04483 4.66781 4.66781 3.74465 3.0206 2.42972 
2.0002 1.68188 1.46319 1.28827 1.1463 1.02951 0.931843 0.848676 0.776516 
9.5 9.5 5.65872 4.11291 3.02391 2.42972 2.0002 1.68188 1.44272 
1.25873 1.11386 0.997101 0.900851 0.819763 0.750015 20.6241 9.5 5.65872 
4.11291 3.02391 2.36086 1.91254 1.59927 1.37009 1.19653 1.06088 0.951895 
0.862128 0.786498 0.721456 0.61447 0.635067 0.656286 0.668292 0.672353 0.672353 
0.668574 0.657847 0.641451 0.620987 0.59824 0.575065 0.553306 0.534737 0.521039 
0.514467 0.524449 0.551566 0.595433 0.656347 0.73652 0.837603 0.9598 1.10009 
1.25 1.38693 1.48954 1.48954 0.568528 0.585424 0.603725 0.614164 0.618083 
0.618083 0.61556 0.607325 0.594409 0.578123 0.55997 0.541571 0.524611 0.5108 
0.501872 0.505802 0.522432 0.551566 0.595433 0.656347 0.748853 0.876907 1.04207 
1.24932 1.50087 1.78398 2.08959 2.21316 0.526668 0.539917 0.55513 0.5635 
0.56643 0.56643 0.563997 0.556823 0.545761 0.531898 0.516502 0.50098 0.486842 
0.475688 0.469286 0.477925 0.49748 0.5307 0.580884 0.652014 0.748853 0.876907 
1.04207 1.28196 1.61651 2.04403 2.59672 3.10724 0.488286 0.497871 0.509838 
0.515734 0.517006 0.517006 0.513735 0.506467 0.495911 0.482971 0.468708 0.454311 
0.441091 0.430472 0.424023 0.430972 0.448881 0.480298 0.529145 0.600545 0.701254 
0.840187 1.02895 1.28196 1.61811 2.13852 2.81108 3.75704 0.452945 0.458801 
0.467363 0.470444 0.470444 0.469518 0.464667 0.456372 0.445226 0.431969 0.41746 
0.402669 0.388666 0.376629 0.367875 0.366541 0.377981 0.401104 0.439742 0.499157 
0.58673 0.719194 0.938592 1.2301 1.61811 2.13852 2.97565 4.30282 0.420369 
0.422408 0.427421 0.427421 0.427406 0.423856 0.416848 0.406807 0.394221 0.379677 
0.363841 0.347448 0.331297 0.316255 0.303277 0.293452 0.288752 0.297605 0.317529 
0.352641 0.448812 0.60551 0.816046 1.10565 1.5138 2.10409 2.97565 4.30282 
0.390391 0.390391 0.389857 0.389857 0.386527 0.380032 0.370442 0.358134 0.3435 
0.326988 0.309075 0.290259 0.271046 0.251947 0.233483 0.216198 0.200692 0.187672 
0.178041 0.189941 0.277889 0.392443 0.546374 0.760084 1.06805 1.52794 2.26268 
3.40852 0.390391 0.390391 0.389857 0.389857 0.386527 0.380032 0.370442 0.358134 
0.3435 0.326988 0.309075 0.290259 0.271046 0.251947 0.233483 0.216198 0.200692 
0.187672 0.178041 0.189941 0.277889 0.392443 0.546374 0.760084 1.06805 1.52794 
2.26268 3.40852 0.420369 0.422408 0.427421 0.427421 0.427406 0.423856 0.416848 
0.406807 0.394221 0.379677 0.363841 0.347448 0.331297 0.316255 0.303277 0.293452 
0.288752 0.297605 0.317529 0.352641 0.448812 0.60551 0.816046 1.10565 1.5138 
2.10409 2.97565 4.30282 0.452945 0.458801 0.467363 0.470444 0.470444 0.469518 
0.464667 0.456372 0.445226 0.431969 0.41746 0.402669 0.388666 0.376629 0.367875 
0.366541 0.377981 0.401104 0.439742 0.499157 0.58673 0.719194 0.938592 1.2301 
1.61811 2.13852 2.97565 4.30282 0.488286 0.497871 0.509838 0.515734 0.517006 
0.517006 0.513735 0.506467 0.495911 0.482971 0.468708 0.454311 0.441091 0.430472 
0.424023 0.430972 0.448881 0.480298 0.529145 0.600545 0.701254 0.840187 1.02895 
1.28196 1.61811 2.13852 2.81108 3.75704 0.526668 0.539917 0.55513 0.5635 
0.56643 0.56643 0.563997 0.556823 0.545761 0.531898 0.516502 0.50098 0.486842 
0.475688 0.469286 0.477925 0.49748 0.5307 0.580884 0.652014 0.748853 0.876907 
1.04207 1.28196 1.61651 2.04403 2.59672 3.10724 0.568528 0.585424 0.603725 
0.614164 0.618083 0.618083 0.61556 0.607325 0.594409 0.578123 0.55997 0.541571 
0.524611 0.5108 0.501872 0.505802 0.522432 0.551566 0.595433 0.656347 0.748853 
0.876907 1.04207 1.24932 1.50087 1.78398 2.08959 2.21316 0.61447 0.635067 
0.656286 0.668292 0.672353 0.672353 0.668574 0.657847 0.641451 0.620987 0.59824 
0.575065 0.553306 0.534737 0.521039 0.514467 0.524449 0.551566 0.595433 0.656347 
0.73652 0.837603 0.9598 1.10009 1.25 1.38693 1.48954 1.48954 
METADATA
COMPONENT_NAMES
STR

